x	y	stress_yy
 1.000000000000000e+000	 0.000000000000000e+000	 3.150049797816123e+001
 9.999607948607566e-001	 8.854871081647989e-003	 3.149501362958323e+001
 9.998426119589265e-001	 1.774123199891274e-002	 3.148000553320594e+001
 9.996446072361988e-001	 2.665819249913576e-002	 3.145520932931009e+001
 9.993659466433188e-001	 3.560484091004573e-002	 3.142035998097718e+001
 9.990058067093817e-001	 4.458024417780557e-002	 3.137519205025172e+001
 9.985633751160035e-001	 5.358344792087626e-002	 3.131943998393158e+001
 9.980378512759272e-001	 6.261347650004139e-002	 3.125283840878949e+001
 9.974284469156016e-001	 7.166933310492561e-002	 3.117512243599992e+001
 9.967343866612564e-001	 8.074999985732718e-002	 3.108602797451502e+001
 9.959549086279672e-001	 8.985443793167208e-002	 3.098529205310366e+001
 1.025000000000000e+000	 0.000000000000000e+000	 2.954319510184914e+001
 1.024959814732242e+000	 9.076242858200138e-003	 2.953869227410316e+001
 1.024838677257766e+000	 1.818476279791112e-002	 2.952498417638305e+001
 1.024635722416802e+000	 2.732464731015810e-002	 2.950179084423462e+001
 1.024350095308862e+000	 3.649496193086309e-002	 2.946883126827258e+001
 1.023980951876270e+000	 4.569475027984318e-002	 2.942582368523193e+001
 1.023527459492681e+000	 5.492303411602097e-002	 2.937248587956972e+001
 1.022988797556156e+000	 6.417881340919977e-002	 2.930853549541658e+001
 1.022364158086304e+000	 7.346106642874495e-002	 2.923369035864621e+001
 1.021652746325009e+000	 8.276874984949986e-002	 2.914766880879824e+001
 1.020853781340225e+000	 9.210079887525120e-002	 2.905019004055800e+001
 1.050000000000000e+000	 0.000000000000000e+000	 2.779977729950829e+001
 1.049958834603733e+000	 9.297614634757053e-003	 2.779644526216818e+001
 1.049834742556624e+000	 1.862829359692863e-002	 2.778421920888794e+001
 1.049626837597447e+000	 2.799110212122364e-002	 2.776280303881281e+001
 1.049334243974483e+000	 3.738508295175749e-002	 2.773189923544043e+001
 1.048956097043280e+000	 4.680925638200162e-002	 2.769120917331390e+001
 1.048491543869534e+000	 5.626262031134031e-002	 2.764043343621629e+001
 1.047939743836623e+000	 6.574415031859668e-002	 2.757927214666119e+001
 1.047299869257318e+000	 7.525279975287690e-002	 2.750742530644103e+001
 1.046571105989159e+000	 8.478749984206949e-002	 2.742459314795963e+001
 1.045752654052973e+000	 9.434715981932203e-002	 2.733047649604080e+001
 1.075000000000000e+000	 0.000000000000000e+000	 2.625500054723158e+001
 1.074957854475228e+000	 9.518986411318733e-003	 2.625312104414665e+001
 1.074830807855502e+000	 1.907182439596528e-002	 2.624265190981587e+001
 1.074617952778136e+000	 2.865755693233238e-002	 2.622328033480897e+001
 1.074318392640180e+000	 3.827520397272900e-002	 2.619469171953806e+001
 1.073931242210410e+000	 4.792376248428091e-002	 2.615656999736996e+001
 1.073455628246560e+000	 5.760220650683429e-002	 2.610859797022068e+001
 1.072890690117328e+000	 6.730948722823207e-002	 2.605045765642191e+001
 1.072235580428645e+000	 7.704453307732143e-002	 2.598183065061419e+001
 1.071489465653705e+000	 8.680624983503611e-002	 2.590239849538287e+001
 1.070651526766214e+000	 9.659352076388458e-002	 2.581184306431623e+001
 1.100000000000000e+000	 0.000000000000000e+000	 2.489500664146432e+001
 1.099956874346727e+000	 9.740358187885179e-003	 2.489494908571945e+001
 1.099826873154398e+000	 1.951535519502105e-002	 2.488659973385755e+001
 1.099609067958868e+000	 2.932401174348432e-002	 2.486962845663523e+001
 1.099302541305955e+000	 3.916532499377757e-002	 2.484370295558183e+001
 1.098906387377661e+000	 4.903826858668107e-002	 2.480848910333259e+001
 1.098419712623762e+000	 5.894179270250287e-002	 2.476365129745640e+001
 1.097841636398272e+000	 6.887482413810600e-002	 2.470885282756308e+001
 1.097171291600285e+000	 7.883626640207855e-002	 2.464375625543595e+001
 1.096407825318649e+000	 8.882499982839967e-002	 2.456802380789570e+001
 1.095550399479947e+000	 9.883988170893882e-002	 2.448131778206135e+001
 1.125000000000000e+000	 0.000000000000000e+000	 2.370716921896533e+001
 1.124955894218232e+000	 9.961729964456389e-003	 2.370938642173456e+001
 1.124822938453314e+000	 1.995888599409595e-002	 2.370360340290011e+001
 1.124600183139643e+000	 2.999046655467946e-002	 2.368947206439136e+001
 1.124286689971807e+000	 4.005544601490321e-002	 2.366664175455237e+001
 1.123881532545033e+000	 5.015277468920207e-002	 2.363475962652171e+001
 1.123383797001138e+000	 6.028137889834612e-002	 2.359347101115271e+001
 1.122792582679455e+000	 7.044016104821843e-002	 2.354241980425294e+001
 1.122107002772237e+000	 8.062799972714825e-002	 2.348124886788012e+001
 1.121326184983989e+000	 9.084374982216013e-002	 2.340960044538847e+001
 1.120449272194170e+000	 1.010862426544848e-001	 2.332711658987707e+001
 1.150000000000000e+000	 0.000000000000000e+000	 2.267995986112102e+001
 1.149954914089741e+000	 1.018310174103236e-002	 2.268498422477627e+001
 1.149819003752249e+000	 2.040241679318999e-002	 2.268229394220195e+001
 1.149591298320462e+000	 3.065692136591780e-002	 2.267152226085574e+001
 1.149270838637736e+000	 4.094556703610593e-002	 2.265229948426863e+001
 1.148856677712526e+000	 5.126728079184391e-002	 2.262425334932087e+001
 1.148347881378689e+000	 6.162096509436398e-002	 2.258700941913935e+001
 1.147743528960876e+000	 7.200549795856938e-002	 2.254019149138805e+001
 1.147042713944502e+000	 8.241973305253056e-002	 2.248342202167918e+001
 1.146244544649727e+000	 9.286249981631761e-002	 2.241632256178658e+001
 1.145348144908886e+000	 1.033326036005224e-001	 2.233851421229768e+001
 1.175000000000000e+000	 0.000000000000000e+000	 2.180283129132557e+001
 1.174953933961256e+000	 1.040447351761311e-002	 2.181127140753393e+001
 1.174815069051203e+000	 2.084594759230317e-002	 2.181227669067265e+001
 1.174582413501324e+000	 3.132337617719934e-002	 2.180546101247750e+001
 1.174254987303742e+000	 4.183568805738572e-002	 2.179043490376736e+001
 1.173831822880139e+000	 5.238178689460660e-002	 2.176680595149009e+001
 1.173311965756415e+000	 6.296055129055647e-002	 2.173417921250672e+001
 1.172694475242536e+000	 7.357083486915882e-002	 2.169215764387823e+001
 1.171978425117079e+000	 8.421146637822544e-002	 2.164034254937193e+001
 1.171162904315861e+000	 9.488124981087202e-002	 2.157833404185621e+001
 1.170247017624094e+000	 1.055789645470518e-001	 2.150573152120299e+001
 1.200000000000000e+000	 0.000000000000000e+000	 2.106611517268871e+001
 1.199952953832774e+000	 1.062584529419862e-002	 2.107865277487456e+001
 1.199811134350176e+000	 2.128947839143546e-002	 2.108402980986810e+001
 1.199573528682229e+000	 3.198983098852408e-002	 2.108184001774454e+001
 1.199239135969825e+000	 4.272580907874259e-002	 2.107167339338507e+001
 1.198806968047874e+000	 5.349629299749016e-002	 2.105311660418981e+001
 1.198276050134315e+000	 6.430013748692358e-002	 2.102575342568361e+001
 1.197645421524434e+000	 7.513617177998677e-002	 2.098916519477086e+001
 1.196914136289970e+000	 8.600319970423291e-002	 2.094293128034530e+001
 1.196081263982393e+000	 9.689999980582341e-002	 2.088662957090918e+001
 1.195145890339793e+000	 1.078253254940729e-001	 2.081983697880412e+001
 1.225000000000000e+000	 0.000000000000000e+000	 2.046093242030977e+001
 1.224951973704298e+000	 1.084721707078889e-002	 2.047831964709031e+001
 1.224807199649169e+000	 2.173300919058689e-002	 2.048881522045535e+001
 1.224564643863177e+000	 3.265628579989203e-002	 2.049199195901660e+001
 1.224223284635985e+000	 4.361593010017652e-002	 2.048741852401349e+001
 1.223782113215730e+000	 5.461079910049457e-002	 2.047465985861384e+001
 1.223240134512389e+000	 6.563972368346535e-002	 2.045327764630096e+001
 1.222596367806571e+000	 7.670150869105327e-002	 2.042283078809454e+001
 1.221849847463172e+000	 8.779493303055298e-002	 2.038287589829936e+001
 1.220999623649321e+000	 9.891874980117173e-002	 2.033296781842138e+001
 1.220044763055984e+000	 1.100716864415856e-001	 2.027266014883487e+001
 1.250000000000000e+000	 0.000000000000000e+000	 1.997911427607888e+001
 1.249950993575827e+000	 1.106858884738393e-002	 2.000217120835610e+001
 1.249803264948180e+000	 2.217653998975746e-002	 2.001860022630179e+001
 1.249555759044169e+000	 3.332274061130316e-002	 2.002795240413845e+001
 1.249207433302221e+000	 4.450605112168753e-002	 2.002977423804446e+001
 1.248757258383706e+000	 5.572530520361980e-002	 2.002360810798650e+001
 1.248204218890639e+000	 6.697930988018173e-002	 2.000899275987225e+001
 1.247547314088946e+000	 7.826684560235826e-002	 1.998546380776146e+001
 1.246785558636687e+000	 8.958666635718562e-002	 1.995255425581660e+001
 1.245917983316646e+000	 1.009374997969170e-001	 1.990979503961695e+001
 1.244943635772666e+000	 1.123180473895901e-001	 1.985671558640002e+001
 9.959549086279672e-001	 8.985443793167208e-002	 3.098529205310366e+001
 9.950892650105072e-001	 9.898158769347730e-002	 3.087532493449859e+001
 9.941367226775285e-001	 1.081303688543235e-001	 3.075195531690272e+001
 9.930965637671553e-001	 1.172996806447691e-001	 3.061505797022460e+001
 9.919680862820067e-001	 1.264884020066531e-001	 3.046451376192901e+001
 9.907506046851590e-001	 1.356953918032302e-001	 3.030020996475215e+001
 9.894434504957538e-001	 1.449194890479376e-001	 3.012204056512478e+001
 9.880459728836375e-001	 1.541595131519814e-001	 2.992990657173458e+001
 9.865575392624050e-001	 1.634142641909074e-001	 2.972371632363748e+001
 9.849775358802030e-001	 1.726825231903043e-001	 2.950338579730595e+001
 9.833053684076398e-001	 1.819630524307584e-001	 2.926883891198192e+001
 1.020853781340225e+000	 9.210079887525120e-002	 2.905019004055800e+001
 1.019966496631707e+000	 1.014561273807282e-001	 2.895687923527764e+001
 1.018990140739942e+000	 1.108336280703761e-001	 2.885057488283849e+001
 1.017923977856507e+000	 1.202321726555192e-001	 2.873111812945349e+001
 1.016767288434090e+000	 1.296506120515437e-001	 2.859835557554902e+001
 1.015519369797345e+000	 1.390877765932872e-001	 2.845213961160987e+001
 1.014179536753393e+000	 1.485424762695243e-001	 2.829232875615696e+001
 1.012747122201329e+000	 1.580135009767427e-001	 2.811878799527052e+001
 1.011221477740089e+000	 1.674996207923785e-001	 2.793138912304596e+001
 1.009601974274025e+000	 1.769995862676611e-001	 2.773001108234381e+001
 1.007888002615511e+000	 1.865121287401930e-001	 2.751454030517134e+001
 1.045752654052973e+000	 9.434715981932203e-002	 2.733047649604080e+001
 1.044843728253489e+000	 1.039306670685564e-001	 2.725214535926057e+001
 1.043843558803008e+000	 1.135368872870630e-001	 2.716120067749318e+001
 1.042751391946564e+000	 1.231646646669310e-001	 2.705744999979483e+001
 1.041566490586910e+000	 1.328128220970941e-001	 2.694070570911977e+001
 1.040288134910280e+000	 1.424801613839724e-001	 2.681078538716707e+001
 1.038915623011773e+000	 1.521654634916777e-001	 2.666751218278192e+001
 1.037448271519734e+000	 1.618674888019788e-001	 2.651071518330319e+001
 1.035885416218438e+000	 1.715849773942018e-001	 2.634022978821953e+001
 1.034226412668443e+000	 1.813166493452169e-001	 2.615589808446678e+001
 1.032470636823890e+000	 1.910612050496422e-001	 2.595756922267289e+001
 1.070651526766214e+000	 9.659352076388458e-002	 2.581184306431623e+001
 1.069720959875853e+000	 1.064052067569619e-001	 2.574703251316310e+001
 1.068696976866728e+000	 1.162401465043839e-001	 2.566996052796429e+001
 1.067578806037326e+000	 1.260971566790045e-001	 2.558040100142895e+001
 1.066365692740468e+000	 1.359750321433043e-001	 2.547813206117895e+001
 1.065056900023964e+000	 1.458725461752858e-001	 2.536293646451953e+001
 1.063651709270896e+000	 1.557884507143977e-001	 2.523460199818501e+001
 1.062149420838853e+000	 1.657214766276896e-001	 2.509292188242943e+001
 1.060549354697454e+000	 1.756703339963774e-001	 2.493769517879623e+001
 1.058850851063458e+000	 1.856337124229717e-001	 2.476872720087052e+001
 1.057053271032776e+000	 1.956102813591062e-001	 2.458582992728487e+001
 1.095550399479947e+000	 9.883988170893882e-002	 2.448131778206135e+001
 1.094598191498799e+000	 1.088797464459448e-001	 2.442876999051511e+001
 1.093550394931101e+000	 1.189434057223389e-001	 2.436428592088657e+001
 1.092406220128793e+000	 1.290296486917397e-001	 2.428760566996463e+001
 1.091164894894763e+000	 1.391372421901744e-001	 2.419847299024633e+001
 1.089825665138398e+000	 1.492649309672275e-001	 2.409663571560031e+001
 1.088387795530760e+000	 1.594114379376842e-001	 2.398184619332902e+001
 1.086850570158686e+000	 1.695754644538752e-001	 2.385386172197311e+001
 1.085213293177134e+000	 1.797556905989053e-001	 2.371244499416500e+001
 1.083475289459071e+000	 1.899507755009255e-001	 2.355736454380100e+001
 1.081635905242169e+000	 2.001593576685848e-001	 2.338839519676739e+001
 1.120449272194170e+000	 1.010862426544848e-001	 2.332711658987707e+001
 1.119475423122327e+000	 1.113542861355051e-001	 2.328576049534889e+001
 1.118403812996127e+000	 1.216466649409279e-001	 2.323276715137268e+001
 1.117233634220965e+000	 1.319621407051365e-001	 2.316784264361386e+001
 1.115964097049794e+000	 1.422994522377043e-001	 2.309069615260315e+001
 1.114594430253582e+000	 1.526573157597974e-001	 2.300104041130848e+001
 1.113123881791367e+000	 1.630344251615375e-001	 2.289859217053340e+001
 1.111551719479233e+000	 1.734294522805355e-001	 2.278307267145868e+001
 1.109877231657481e+000	 1.838410472017854e-001	 2.265420812460273e+001
 1.108099727855280e+000	 1.942678385790783e-001	 2.251173019443587e+001
 1.106218539452070e+000	 2.047084339780781e-001	 2.235537648884432e+001
 1.145348144908886e+000	 1.033326036005224e-001	 2.233851421229768e+001
 1.144352654746438e+000	 1.138288258256427e-001	 2.230745259758008e+001
 1.143257231061807e+000	 1.243499241601511e-001	 2.226502736557038e+001
 1.142061048313842e+000	 1.348946327191951e-001	 2.221091030421333e+001
 1.140763299205564e+000	 1.454616622858940e-001	 2.214477575253550e+001
 1.139363195369515e+000	 1.560497005529956e-001	 2.206630109118608e+001
 1.137859968052715e+000	 1.666574123859573e-001	 2.197516724223908e+001
 1.136252868800495e+000	 1.772834401076706e-001	 2.187105917754462e+001
 1.134541170138493e+000	 1.879264038050178e-001	 2.175366643487200e+001
 1.132724166252086e+000	 1.985849016574301e-001	 2.162268364104235e+001
 1.130801173662478e+000	 2.092575102875861e-001	 2.147781104120529e+001
 1.170247017624094e+000	 1.055789645470518e-001	 2.150573152120299e+001
 1.169229886371130e+000	 1.163033655163576e-001	 2.148422947068030e+001
 1.168110649128139e+000	 1.270531833800084e-001	 2.145161268289324e+001
 1.166888462407425e+000	 1.378271247339154e-001	 2.140751829386013e+001
 1.165562501362070e+000	 1.486238723347436e-001	 2.135158546275885e+001
 1.164131960486198e+000	 1.594420853468220e-001	 2.128345589654068e+001
 1.162596054314805e+000	 1.702803996109437e-001	 2.120277438525001e+001
 1.160954018122470e+000	 1.811374279352803e-001	 2.110918934730622e+001
 1.159205108620171e+000	 1.920117604086025e-001	 2.100235338395557e+001
 1.157348604649489e+000	 2.029019647359809e-001	 2.088192384205142e+001
 1.155383807873393e+000	 2.138065865971087e-001	 2.074756338427369e+001
 1.195145890339793e+000	 1.078253254940729e-001	 2.081983697880412e+001
 1.194107117996405e+000	 1.187779052076498e-001	 2.080731153714062e+001
 1.192964067195126e+000	 1.297564426004998e-001	 2.078389605297238e+001
 1.191715876501712e+000	 1.407596167492973e-001	 2.074919259196806e+001
 1.190361703519314e+000	 1.517860823842530e-001	 2.070280472978995e+001
 1.188900725603630e+000	 1.628344701412766e-001	 2.064433811192792e+001
 1.187332140577637e+000	 1.739033868364968e-001	 2.057340102569494e+001
 1.185655167445159e+000	 1.849914157633647e-001	 2.048960498360794e+001
 1.183869047102515e+000	 1.960971170125395e-001	 2.039256531732388e+001
 1.181973043047488e+000	 2.072190278147308e-001	 2.028190178124789e+001
 1.179966442084816e+000	 2.183556629066459e-001	 2.015723916487885e+001
 1.220044763055984e+000	 1.100716864415856e-001	 2.027266014883487e+001
 1.218984349622261e+000	 1.212524448995195e-001	 2.026867103489866e+001
 1.217817485262765e+000	 1.324597018216254e-001	 2.025399288522644e+001
 1.216543290596704e+000	 1.436921087653410e-001	 2.022819221554151e+001
 1.215160905677295e+000	 1.549482924344222e-001	 2.019083655213027e+001
 1.213669490721812e+000	 1.662268549363595e-001	 2.014149502808486e+001
 1.212068226841211e+000	 1.775263740626166e-001	 2.007973899317723e+001
 1.210356316768562e+000	 1.888454035919240e-001	 2.000514263655285e+001
 1.208532985585524e+000	 2.001824736168286e-001	 1.991728362137435e+001
 1.206597481446085e+000	 2.115360908936796e-001	 1.981574373048834e+001
 1.204549076296746e+000	 2.229047392161979e-001	 1.970010952213173e+001
 1.244943635772666e+000	 1.123180473895901e-001	 1.985671558640002e+001
 1.243861581248701e+000	 1.237269845919664e-001	 1.986095683579437e+001
 1.242670903331058e+000	 1.351629610433850e-001	 1.985468680288301e+001
 1.241370704692402e+000	 1.466246007820463e-001	 1.983743591541645e+001
 1.239960107836013e+000	 1.581105024852513e-001	 1.980873512506733e+001
 1.238438255840743e+000	 1.696192397320706e-001	 1.976811654131170e+001
 1.236804313105527e+000	 1.811493612893029e-001	 1.971511408042709e+001
 1.235057466092679e+000	 1.926993914209579e-001	 1.964926412875811e+001
 1.233196924069199e+000	 2.042678302214702e-001	 1.957010621933797e+001
 1.231221919845279e+000	 2.158531539728274e-001	 1.947718372089305e+001
 1.229131710509183e+000	 2.274538155257646e-001	 1.937004453819581e+001
 9.833053684076398e-001	 1.819630524307584e-001	 2.926883891198192e+001
 9.815404625233627e-001	 1.912545957719429e-001	 2.904046352311308e+001
 9.796822644929402e-001	 2.005558789966087e-001	 2.879822031423751e+001
 9.777302417428043e-001	 2.098656101739950e-001	 2.854225179244660e+001
 9.756838834310224e-001	 2.191824800423044e-001	 2.827271249896680e+001
 9.735427010105087e-001	 2.285051624109132e-001	 2.798976915663002e+001
 9.713062287851815e-001	 2.378323145820489e-001	 2.769360080504150e+001
 9.689740244583481e-001	 2.471625777918797e-001	 2.738439892278070e+001
 9.665456696725904e-001	 2.564945776709276e-001	 2.706236753597649e+001
 9.640207705404181e-001	 2.658269247236917e-001	 2.672772331260670e+001
 9.613989581649598e-001	 2.751582148273362e-001	 2.638069564188077e+001
 1.007888002615511e+000	 1.865121287401930e-001	 2.751454030517134e+001
 1.006078974084998e+000	 1.960359606660597e-001	 2.732194955549240e+001
 1.004174321104526e+000	 2.055697759725002e-001	 2.711549777667411e+001
 1.002173497786187e+000	 2.151122504304846e-001	 2.689526869406056e+001
 1.000075980516998e+000	 2.246620420466705e-001	 2.666135750296657e+001
 9.978812685361967e-001	 2.342177914756685e-001	 2.641387107156814e+001
 9.955888845052953e-001	 2.437781224522615e-001	 2.615292813315445e+001
 9.931983750701838e-001	 2.533416422435219e-001	 2.587865946701231e+001
 9.907093114145075e-001	 2.629069421207346e-001	 2.559120806721405e+001
 9.881212898035870e-001	 2.724725978510110e-001	 2.529072929858273e+001
 9.854339321181277e-001	 2.820371702084442e-001	 2.497739103911413e+001
 1.032470636823890e+000	 1.910612050496422e-001	 2.595756922267289e+001
 1.030617485647049e+000	 2.008173255599959e-001	 2.579688097901433e+001
 1.028666377716457e+000	 2.105836729480256e-001	 2.562230941536222e+001
 1.026616753829864e+000	 2.203588906864321e-001	 2.543388056241445e+001
 1.024468077603238e+000	 2.301416040503285e-001	 2.523163139901871e+001
 1.022219836062135e+000	 2.399304205395593e-001	 2.501561011074568e+001
 1.019871540225668e+000	 2.497239303214633e-001	 2.478587633944161e+001
 1.017422725682307e+000	 2.595207066940172e-001	 2.454250142296307e+001
 1.014872953156760e+000	 2.693193065692687e-001	 2.428556862429282e+001
 1.012221809067160e+000	 2.791182709769417e-001	 2.401517334923296e+001
 1.009468906071790e+000	 2.889161255880586e-001	 2.373142335187261e+001
 1.057053271032776e+000	 1.956102813591062e-001	 2.458582992728487e+001
 1.055155997209518e+000	 2.055986904537517e-001	 2.445352011501591e+001
 1.053158434328735e+000	 2.155975699231847e-001	 2.430727584871433e+001
 1.051060009873836e+000	 2.256055309418376e-001	 2.414706639615105e+001
 1.048860174689739e+000	 2.356211660532781e-001	 2.397287149192643e+001
 1.046558403588324e+000	 2.456430496025855e-001	 2.378468165210008e+001
 1.044154195946299e+000	 2.556697381896544e-001	 2.358249848137443e+001
 1.041647076294716e+000	 2.656997711433656e-001	 2.336633497196543e+001
 1.039036594899347e+000	 2.757316710165300e-001	 2.313621579328395e+001
 1.036322328331137e+000	 2.857639441014841e-001	 2.289217757154516e+001
 1.033503880025945e+000	 2.957950809661792e-001	 2.263426915841783e+001
 1.081635905242169e+000	 2.001593576685848e-001	 2.338839519676739e+001
 1.079694508772404e+000	 2.103800553473268e-001	 2.328126835236077e+001
 1.077650490941359e+000	 2.206114668979778e-001	 2.316012724316267e+001
 1.075503265918102e+000	 2.308521711967008e-001	 2.302488516209925e+001
 1.073252271776502e+000	 2.411007280555194e-001	 2.287546542645599e+001
 1.070896971114763e+000	 2.513556786647472e-001	 2.271180174904151e+001
 1.068436851667188e+000	 2.616155460568347e-001	 2.253383860344075e+001
 1.065871426907412e+000	 2.718788355915671e-001	 2.234153158241773e+001
 1.063200236642269e+000	 2.821440354625184e-001	 2.213484774851565e+001
 1.060422847595518e+000	 2.924096172246378e-001	 2.191376597588793e+001
 1.057538853980594e+000	 3.026740363428060e-001	 2.167827728238665e+001
 1.106218539452070e+000	 2.047084339780781e-001	 2.235537648884432e+001
 1.104233020335707e+000	 2.151614202407214e-001	 2.227053958437856e+001
 1.102142547554328e+000	 2.256253638724046e-001	 2.217158003004386e+001
 1.099946521962661e+000	 2.360988114510220e-001	 2.205835579880707e+001
 1.097644368863529e+000	 2.465802900570525e-001	 2.193073448289445e+001
 1.095235538641453e+000	 2.570683077260444e-001	 2.178859372206540e+001
 1.092719507388336e+000	 2.675613539230042e-001	 2.163182162747459e+001
 1.090095777520394e+000	 2.780579000386215e-001	 2.146031720010882e+001
 1.087363878385527e+000	 2.885563999072339e-001	 2.127399074276547e+001
 1.084523366860303e+000	 2.990552903464032e-001	 2.107276426452263e+001
 1.081573827935737e+000	 3.095529917179392e-001	 2.085657187663731e+001
 1.130801173662478e+000	 2.092575102875861e-001	 2.147781104120529e+001
 1.128771531899427e+000	 2.199427851339355e-001	 2.141265015402986e+001
 1.126634604167643e+000	 2.306392608464652e-001	 2.133322970289020e+001
 1.124389778007516e+000	 2.413454517048011e-001	 2.123935287178790e+001
 1.122036465950818e+000	 2.520598520578772e-001	 2.113083209492641e+001
 1.119574106168393e+000	 2.627809367864770e-001	 2.100748954276329e+001
 1.117002163109742e+000	 2.735071617881629e-001	 2.086915760511733e+001
 1.114320128133663e+000	 2.842369644845291e-001	 2.071567937023940e+001
 1.111527520129120e+000	 2.949687643506765e-001	 2.054690909873174e+001
 1.108623886125492e+000	 3.057009634667798e-001	 2.036271269117860e+001
 1.105608801891373e+000	 3.164319470915787e-001	 2.016296814833277e+001
 1.155383807873393e+000	 2.138065865971087e-001	 2.074756338427369e+001
 1.153310043463564e+000	 2.247241500269691e-001	 2.069972284862470e+001
 1.151126660781304e+000	 2.356531578201598e-001	 2.063745730017341e+001
 1.148833034052665e+000	 2.465920919580380e-001	 2.056051554937389e+001
 1.146428563038369e+000	 2.575394140579937e-001	 2.046865532267531e+001
 1.143912673695583e+000	 2.684935658460451e-001	 2.036164380710928e+001
 1.141284818831407e+000	 2.794529696523108e-001	 2.023925819336871e+001
 1.138544478747219e+000	 2.904160289292898e-001	 2.010128621620681e+001
 1.135691161873047e+000	 3.013811287928463e-001	 1.994752669095585e+001
 1.132724405391085e+000	 3.123466365857682e-001	 1.977779004493890e+001
 1.129643775847504e+000	 3.233109024637244e-001	 1.959189884252417e+001
 1.179966442084816e+000	 2.183556629066459e-001	 2.015723916487885e+001
 1.177848555028117e+000	 2.295055149198221e-001	 2.012460289520148e+001
 1.175618717395311e+000	 2.406670547934880e-001	 2.007734757770529e+001
 1.173276290098108e+000	 2.518387322107328e-001	 2.001516795658773e+001
 1.170820660126183e+000	 2.630189760574019e-001	 1.993776739161503e+001
 1.168251241223024e+000	 2.742061949047486e-001	 1.984485846208569e+001
 1.165567474553330e+000	 2.853987775154480e-001	 1.973616357069427e+001
 1.162768829361061e+000	 2.965950933729035e-001	 1.961141554604184e+001
 1.159854803617310e+000	 3.077934932337432e-001	 1.947035824250430e+001
 1.156824924657083e+000	 3.189923097033680e-001	 1.931274713613976e+001
 1.153678749804127e+000	 3.301898578343763e-001	 1.913834991528666e+001
 1.204549076296746e+000	 2.229047392161979e-001	 1.970010952213173e+001
 1.202387066593088e+000	 2.342868798124946e-001	 1.968078424218632e+001
 1.200110774009665e+000	 2.456809517664502e-001	 1.964661720074508e+001
 1.197719546143846e+000	 2.570853724628855e-001	 1.959724928160177e+001
 1.195212757214258e+000	 2.684985380561018e-001	 1.953232971651265e+001
 1.192589808750716e+000	 2.799188239625876e-001	 1.945151674945680e+001
 1.189850130275511e+000	 2.913445853775742e-001	 1.935447830218117e+001
 1.186993179975190e+000	 3.027741578153702e-001	 1.924089263969025e+001
 1.184018445361908e+000	 3.142058576733672e-001	 1.911044903430195e+001
 1.180925443923485e+000	 3.256379828195793e-001	 1.896284842685416e+001
 1.177713723761245e+000	 3.370688132035347e-001	 1.879780408361424e+001
 1.229131710509183e+000	 2.274538155257646e-001	 1.937004453819581e+001
 1.226925578158476e+000	 2.390682447049866e-001	 1.936234468725312e+001
 1.224602830624363e+000	 2.506948487390461e-001	 1.933955155305348e+001
 1.222162802189878e+000	 2.623320127144961e-001	 1.930125226942220e+001
 1.219604854302598e+000	 2.739781000540935e-001	 1.924704208249831e+001
 1.216928376278658e+000	 2.856314530195621e-001	 1.917652507628988e+001
 1.214132785997951e+000	 2.972903932386898e-001	 1.908931490087498e+001
 1.211217530589605e+000	 3.089532222566900e-001	 1.898503550182042e+001
 1.208182087106841e+000	 3.206182221117184e-001	 1.886332184934556e+001
 1.205025963190290e+000	 3.322836559344021e-001	 1.872382066571761e+001
 1.201748697718857e+000	 3.439477685711992e-001	 1.856619114932702e+001
 9.613989581649598e-001	 2.751582148273362e-001	 2.638069564188077e+001
 9.586798891490923e-001	 2.844870297499801e-001	 2.606812042992421e+001
 9.558632460948671e-001	 2.938119376861946e-001	 2.574175033214890e+001
 9.529487380907490e-001	 3.031314938110319e-001	 2.540191948156893e+001
 9.499361011842371e-001	 3.124442408536596e-001	 2.504897766309597e+001
 9.468250988417173e-001	 3.217487096881426e-001	 2.468329028131087e+001
 9.436155223939604e-001	 3.310434199417801e-001	 2.430523830574240e+001
 9.403071914665516e-001	 3.403268806206379e-001	 2.391521819311521e+001
 9.368999543945393e-001	 3.495975907518840e-001	 2.351364178606718e+001
 9.333936886206079e-001	 3.588540400425035e-001	 2.310093618787298e+001
 9.297883010760839e-001	 3.680947095539379e-001	 2.267754361275393e+001
 9.854339321181277e-001	 2.820371702084442e-001	 2.497739103911413e+001
 9.826468863761853e-001	 2.915992055051701e-001	 2.470587840077049e+001
 9.797598272449696e-001	 3.011572361404365e-001	 2.442045942551452e+001
 9.767724565401572e-001	 3.107097811686687e-001	 2.412141592336541e+001
 9.736845037104360e-001	 3.202553468872610e-001	 2.380904514219222e+001
 9.704957263088508e-001	 3.297924274421271e-001	 2.348365979004105e+001
 9.672059104494429e-001	 3.393195054512462e-001	 2.314558803586115e+001
 9.638148712484376e-001	 3.488350526458335e-001	 2.279517348800694e+001
 9.603224532492587e-001	 3.583375305287335e-001	 2.243277514992526e+001
 9.567285308306593e-001	 3.678253910496042e-001	 2.205876735247365e+001
 9.530330085972487e-001	 3.772970772964199e-001	 2.167353966235248e+001
 1.009468906071790e+000	 2.889161255880586e-001	 2.373142335187261e+001
 1.006613883603867e+000	 2.987113812587859e-001	 2.349728094214145e+001
 1.003656408395746e+000	 3.085025345930624e-001	 2.324908335772874e+001
 1.000596174990316e+000	 3.182880685246868e-001	 2.298706126911912e+001
 9.974329062374506e-001	 3.280664529192808e-001	 2.271146062235717e+001
 9.941663537768565e-001	 3.378361451946069e-001	 2.242254271603130e+001
 9.907962985058437e-001	 3.475955909593246e-001	 2.212058425747784e+001
 9.873225510312766e-001	 3.573432246697983e-001	 2.180587739749325e+001
 9.837449521049576e-001	 3.670774703045499e-001	 2.147872974287324e+001
 9.800633730417054e-001	 3.767967420559097e-001	 2.113946434612805e+001
 9.762777161194137e-001	 3.864994450383867e-001	 2.078841967176168e+001
 1.033503880025945e+000	 2.957950809661792e-001	 2.263426915841783e+001
 1.030580880832138e+000	 3.058235570108274e-001	 2.243412812704013e+001
 1.027552989547197e+000	 3.158478330440721e-001	 2.221974578469338e+001
 1.024419893441225e+000	 3.258663558790866e-001	 2.199130270063384e+001
 1.021181308765282e+000	 3.358775589497191e-001	 2.174899460793585e+001
 1.017836981245734e+000	 3.458798629455820e-001	 2.149303253535099e+001
 1.014386686563162e+000	 3.558716764660149e-001	 2.122364291913979e+001
 1.010830230815070e+000	 3.658513966925322e-001	 2.094106769407350e+001
 1.007167450961636e+000	 3.758174100793332e-001	 2.064556436283036e+001
 1.003398215253747e+000	 3.857680930614205e-001	 2.033740604303969e+001
 9.995224236425787e-001	 3.957018127798380e-001	 2.001688149126036e+001
 1.057538853980594e+000	 3.026740363428060e-001	 2.167827728238665e+001
 1.054547878060998e+000	 3.129357327612945e-001	 2.150906536124588e+001
 1.051449570699323e+000	 3.231931314934659e-001	 2.132538870179985e+001
 1.048243611892883e+000	 3.334446432318678e-001	 2.112737867644459e+001
 1.044929711293928e+000	 3.436886649785758e-001	 2.091518175916060e+001
 1.041507608715483e+000	 3.539235806950522e-001	 2.068895971257459e+001
 1.037977074621398e+000	 3.641477619713173e-001	 2.044888975568086e+001
 1.034337910599816e+000	 3.743595687140354e-001	 2.019516471132628e+001
 1.030589949819293e+000	 3.845573498530832e-001	 1.992799313258670e+001
 1.026733057466783e+000	 3.947394440661365e-001	 1.964759940718886e+001
 1.022767131166744e+000	 4.049041805207738e-001	 1.935422383916296e+001
 1.081573827935737e+000	 3.095529917179392e-001	 2.085657187663731e+001
 1.078514875290446e+000	 3.200479085101873e-001	 2.071548945744952e+001
 1.075346151852123e+000	 3.305384299412435e-001	 2.055968151731856e+001
 1.072067330345292e+000	 3.410229305830305e-001	 2.038923101218091e+001
 1.068678113823391e+000	 3.514997710058511e-001	 2.020423598594179e+001
 1.065178236186105e+000	 3.619672984430177e-001	 2.000480981317061e+001
 1.061567462680552e+000	 3.724238474752317e-001	 1.979108142307910e+001
 1.057845590385517e+000	 3.828677407343076e-001	 1.956319550379083e+001
 1.054012448677931e+000	 3.932972896257999e-001	 1.932131268592985e+001
 1.050067899680813e+000	 4.037107950700577e-001	 1.906560970458157e+001
 1.046011838691909e+000	 4.141065482611943e-001	 1.879627953870640e+001
 1.105608801891373e+000	 3.164319470915787e-001	 2.016296814833277e+001
 1.102481872520483e+000	 3.271600842575055e-001	 2.004746696058822e+001
 1.099242733005597e+000	 3.378837283874052e-001	 1.991694198578122e+001
 1.095891048798451e+000	 3.486012179325746e-001	 1.977142842870836e+001
 1.092426516353670e+000	 3.593108770315448e-001	 1.961097661638113e+001
 1.088848863657598e+000	 3.700110161894784e-001	 1.943565229688322e+001
 1.085157850740624e+000	 3.806999329777582e-001	 1.924553692007259e+001
 1.081353270172171e+000	 3.913759127533489e-001	 1.904072789903758e+001
 1.077434947537546e+000	 4.020372293974834e-001	 1.882133885123349e+001
 1.073402741895839e+000	 4.126821460731842e-001	 1.858749981824796e+001
 1.069256546218074e+000	 4.233089160010993e-001	 1.833935746316900e+001
 1.129643775847504e+000	 3.233109024637244e-001	 1.959189884252417e+001
 1.126448869751110e+000	 3.342722600032497e-001	 1.949966289973325e+001
 1.123139314159746e+000	 3.452290268319507e-001	 1.939206723497393e+001
 1.119714767252360e+000	 3.561795052805001e-001	 1.926909986008225e+001
 1.116174918884764e+000	 3.671219830556570e-001	 1.913076399058127e+001
 1.112519491129963e+000	 3.780547339344343e-001	 1.897707840132030e+001
 1.108748238801613e+000	 3.889760184788967e-001	 1.880807776446196e+001
 1.104860949959779e+000	 3.998840847711594e-001	 1.862381296862310e+001
 1.100857446398142e+000	 4.107771691681336e-001	 1.842435141799188e+001
 1.096737584111859e+000	 4.216534970755155e-001	 1.820977731026243e+001
 1.092501253745239e+000	 4.325112837404888e-001	 1.798019189225032e+001
 1.153678749804127e+000	 3.301898578343763e-001	 1.913834991528666e+001
 1.150415866982325e+000	 3.413844357474193e-001	 1.906727844599238e+001
 1.147035895314569e+000	 3.525743252748803e-001	 1.898047341455605e+001
 1.143538485707019e+000	 3.637577926268072e-001	 1.887787609800681e+001
 1.139923321416675e+000	 3.749330890781875e-001	 1.875944310522912e+001
 1.136190118603200e+000	 3.860984516778856e-001	 1.862514679009301e+001
 1.132338626863521e+000	 3.972521039786471e-001	 1.847497564737540e+001
 1.128368629748340e+000	 4.083922567877390e-001	 1.830893469017553e+001
 1.124279945259717e+000	 4.195171089377506e-001	 1.812704580753740e+001
 1.120072426328874e+000	 4.306248480770524e-001	 1.792934810101095e+001
 1.115745961273404e+000	 4.417136514793630e-001	 1.771589819890352e+001
 1.177713723761245e+000	 3.370688132035347e-001	 1.879780408361424e+001
 1.174382864214129e+000	 3.484966114900147e-001	 1.874599620413801e+001
 1.170932476470067e+000	 3.599196237161938e-001	 1.867804273464442e+001
 1.167362204162428e+000	 3.713360799714957e-001	 1.859383858187091e+001
 1.163671723949401e+000	 3.827441950991365e-001	 1.849329415884270e+001
 1.159860746077309e+000	 3.941421694198319e-001	 1.837633585628506e+001
 1.155929014926346e+000	 4.055281894770097e-001	 1.824290649721522e+001
 1.151876309537855e+000	 4.169004288030879e-001	 1.809296577330650e+001
 1.147702444122271e+000	 4.282570487063344e-001	 1.792649066162913e+001
 1.143407268546884e+000	 4.395961990777942e-001	 1.774347582038445e+001
 1.138990668802569e+000	 4.509160192177217e-001	 1.754393396226961e+001
 1.201748697718857e+000	 3.439477685711992e-001	 1.856619114932702e+001
 1.198349861446522e+000	 3.556087872310357e-001	 1.853193206924040e+001
 1.194829057626238e+000	 3.672649221558912e-001	 1.848107685976727e+001
 1.191185922618588e+000	 3.789143673145656e-001	 1.841347433397967e+001
 1.187420126482944e+000	 3.905553011185041e-001	 1.832898903158772e+001
 1.183531373552289e+000	 4.021858871602736e-001	 1.822750174950591e+001
 1.179519402990089e+000	 4.138042749739844e-001	 1.810891005593092e+001
 1.175383989328324e+000	 4.254086008172057e-001	 1.797312878641311e+001
 1.171124942985806e+000	 4.369969884738850e-001	 1.782009052041101e+001
 1.166742110765889e+000	 4.485675500777414e-001	 1.764974603682947e+001
 1.162235376332733e+000	 4.601183869555650e-001	 1.746206474705981e+001
 9.297883010760839e-001	 3.680947095539379e-001	 2.267754361275393e+001
 9.260837285441588e-001	 3.773180723910820e-001	 2.228077486417917e+001
 9.222799380044703e-001	 3.865225944084204e-001	 2.187457934866537e+001
 9.183769269585733e-001	 3.957067349304588e-001	 2.145954689403444e+001
 9.143747237357484e-001	 4.048689474837917e-001	 2.103628252290817e+001
 9.102733877783561e-001	 4.140076805434688e-001	 2.060540607763960e+001
 9.060730099062141e-001	 4.231213782919209e-001	 2.016755181674080e+001
 9.017737125594307e-001	 4.322084813897782e-001	 1.972336798286788e+001
 8.973756500191495e-001	 4.412674277578942e-001	 1.927351634248844e+001
 8.928790086056798e-001	 4.502966533698555e-001	 1.881867169742478e+001
 8.882840068535240e-001	 4.592945930542355e-001	 1.835952136853558e+001
 9.530330085972487e-001	 3.772970772964199e-001	 2.167353966235248e+001
 9.492358217518436e-001	 3.867510242020995e-001	 2.132389863650472e+001
 9.453369364486186e-001	 3.961856592678930e-001	 2.096423848330143e+001
 9.413363501266674e-001	 4.055994033014218e-001	 2.059511217480554e+001
 9.372340918235038e-001	 4.149906711674480e-001	 2.021708838093716e+001
 9.330302224675481e-001	 4.243578725529000e-001	 1.983075113905129e+001
 9.287248351491139e-001	 4.336994127447718e-001	 1.943669949453046e+001
 9.243180553693136e-001	 4.430136934202115e-001	 1.903554711236250e+001
 9.198100412663188e-001	 4.522991134480965e-001	 1.862792185973853e+001
 9.152009838184482e-001	 4.615540697013549e-001	 1.821446535977406e+001
 9.104911070235671e-001	 4.707769578792765e-001	 1.779583251652798e+001
 9.762777161194137e-001	 3.864994450383867e-001	 2.078841967176168e+001
 9.723879149605194e-001	 3.961839760128773e-001	 2.048297020802165e+001
 9.683939348937277e-001	 4.058487241273528e-001	 2.016688724557806e+001
 9.642957732956735e-001	 4.154920716725500e-001	 1.984068811844219e+001
 9.600934599121020e-001	 4.251123948513975e-001	 1.950490640600852e+001
 9.557870571574937e-001	 4.347080645627025e-001	 1.916009164694232e+001
 9.513766603926590e-001	 4.442774471980223e-001	 1.880680902352416e+001
 9.468623981797121e-001	 4.538189054510228e-001	 1.844563901632656e+001
 9.422444325138552e-001	 4.633307991386043e-001	 1.807717702916875e+001
 9.375229590314141e-001	 4.728114860330365e-001	 1.770203298436123e+001
 9.326982071936175e-001	 4.822593227043255e-001	 1.732083088832374e+001
 9.995224236425787e-001	 3.957018127798380e-001	 2.001688149126036e+001
 9.955400081701847e-001	 4.056169278234152e-001	 1.975293046168297e+001
 9.914509333397977e-001	 4.155117889867997e-001	 1.947770806309905e+001
 9.872551964655910e-001	 4.253847400438426e-001	 1.919169709090392e+001
 9.829528280015432e-001	 4.352341185356400e-001	 1.889539717827651e+001
 9.785438918481941e-001	 4.450582565728768e-001	 1.858932455415452e+001
 9.740284856368490e-001	 4.548554816516729e-001	 1.827401177102809e+001
 9.694067409906272e-001	 4.646241174822122e-001	 1.795000740233637e+001
 9.646788237617586e-001	 4.743624848294175e-001	 1.761787570931792e+001
 9.598449342445781e-001	 4.840689023649002e-001	 1.727819627723586e+001
 9.549053073636764e-001	 4.937416875293824e-001	 1.693156362097111e+001
 1.022767131166744e+000	 4.049041805207738e-001	 1.935422383916296e+001
 1.018692101380841e+000	 4.150498796337134e-001	 1.912930074260570e+001
 1.014507931786829e+000	 4.251748538462337e-001	 1.889244346562359e+001
 1.010214619636420e+000	 4.352774084153001e-001	 1.864410125566939e+001
 1.005812196091827e+000	 4.453558422201753e-001	 1.838474083571357e+001
 1.001300726539648e+000	 4.554084485834224e-001	 1.811484620618835e+001
 9.966803108816845e-001	 4.654335161057235e-001	 1.783491841603529e+001
 9.919510838020583e-001	 4.754293295137793e-001	 1.754547530254557e+001
 9.871132150100292e-001	 4.853941705205362e-001	 1.724705119975056e+001
 9.821669094579393e-001	 4.953263186969464e-001	 1.694019661519011e+001
 9.771124075337430e-001	 5.052240523544471e-001	 1.662547787495975e+001
 1.046011838691909e+000	 4.141065482611943e-001	 1.879627953870640e+001
 1.041844194592487e+000	 4.244828314437720e-001	 1.860811836227618e+001
 1.037564930234820e+000	 4.348379187056548e-001	 1.840733385149469e+001
 1.033174042808161e+000	 4.451700767869224e-001	 1.819434259623549e+001
 1.028671564182954e+000	 4.554775659050038e-001	 1.796957934546413e+001
 1.024057561231856e+000	 4.657586405943396e-001	 1.773349685313049e+001
 1.019332136127165e+000	 4.760115505601738e-001	 1.748656569237193e+001
 1.014495426614006e+000	 4.862345415457248e-001	 1.722927403762071e+001
 1.009547606258667e+000	 4.964258562119608e-001	 1.696212741427615e+001
 1.004488884671498e+000	 5.065837350291748e-001	 1.668564841567552e+001
 9.993195077038174e-001	 5.167064171795196e-001	 1.640037638717115e+001
 1.069256546218074e+000	 4.233089160010993e-001	 1.833935746316900e+001
 1.064996287805123e+000	 4.339157832535907e-001	 1.818588051525061e+001
 1.060621928683773e+000	 4.445009835650630e-001	 1.801906337148981e+001
 1.056133465980815e+000	 4.550627451587097e-001	 1.783929076176833e+001
 1.051530932274924e+000	 4.655992895901254e-001	 1.764696630502257e+001
 1.046814395924818e+000	 4.761088326056284e-001	 1.744251239915547e+001
 1.041983961373291e+000	 4.865895850150243e-001	 1.722637007838959e+001
 1.037039769426470e+000	 4.970397535780482e-001	 1.699899883755553e+001
 1.031981997507671e+000	 5.074575419036906e-001	 1.676087642287909e+001
 1.026810859885255e+000	 5.178411513615852e-001	 1.651249858890514e+001
 1.021526607873900e+000	 5.281887820046000e-001	 1.625437882127053e+001
 1.092501253745239e+000	 4.325112837404888e-001	 1.798019189225032e+001
 1.088148381018750e+000	 4.433487350631697e-001	 1.785949535542532e+001
 1.083678927133686e+000	 4.541640484244583e-001	 1.772471272111602e+001
 1.079092889154379e+000	 4.649554135306616e-001	 1.757619757075621e+001
 1.074390300367736e+000	 4.757210132755399e-001	 1.741432315177081e+001
 1.069571230618535e+000	 4.864590246172887e-001	 1.723948231166595e+001
 1.064635786620062e+000	 4.971676194702747e-001	 1.705208739861173e+001
 1.059584112239450e+000	 5.078449656107497e-001	 1.685257012791250e+001
 1.054416388757043e+000	 5.184892275957261e-001	 1.664138141382759e+001
 1.049132835099209e+000	 5.290985676941781e-001	 1.641899116628320e+001
 1.043733708043990e+000	 5.396711468296881e-001	 1.618588805209113e+001
 1.115745961273404e+000	 4.417136514793630e-001	 1.771589819890352e+001
 1.111300474233367e+000	 4.527816868725090e-001	 1.762623918777313e+001
 1.106735925584561e+000	 4.638271132838406e-001	 1.752171783386831e+001
 1.102052312328856e+000	 4.748480819027783e-001	 1.740265720170585e+001
 1.097249668461392e+000	 4.858427369612475e-001	 1.726940084632401e+001
 1.092328065313005e+000	 4.968092166293204e-001	 1.712231279178988e+001
 1.087287611867478e+000	 5.077456539259250e-001	 1.696177747517429e+001
 1.082128455052946e+000	 5.186501776438290e-001	 1.678819965528472e+001
 1.076850780006782e+000	 5.295209132880672e-001	 1.660200428551909e+001
 1.071454810313361e+000	 5.403559840269530e-001	 1.640363635028048e+001
 1.065940808214088e+000	 5.511535116547843e-001	 1.619356066447080e+001
 1.138990668802569e+000	 4.509160192177217e-001	 1.754393396226961e+001
 1.134452567448973e+000	 4.622146386816085e-001	 1.748371890190787e+001
 1.129792924036396e+000	 4.734901781432102e-001	 1.740783363245582e+001
 1.125011735504244e+000	 4.847407502750598e-001	 1.731657125844723e+001
 1.120109036555890e+000	 4.959644606472483e-001	 1.721024624771103e+001
 1.115084900008229e+000	 5.071594086417235e-001	 1.708919445461308e+001
 1.109939437115540e+000	 5.183236883819752e-001	 1.695377310766138e+001
 1.104672797866958e+000	 5.294553896772867e-001	 1.680436076066004e+001
 1.099285171256888e+000	 5.405525989807138e-001	 1.664135720667112e+001
 1.093776785527711e+000	 5.516134003599104e-001	 1.646518335412161e+001
 1.088147908384193e+000	 5.626358764798881e-001	 1.627628106447555e+001
 1.162235376332733e+000	 4.601183869555650e-001	 1.746206474705981e+001
 1.157604660665571e+000	 4.716475904904681e-001	 1.742983891362117e+001
 1.152849922489192e+000	 4.831532430025667e-001	 1.738110212988114e+001
 1.147971158680544e+000	 4.946334186475060e-001	 1.731611802760177e+001
 1.142968404651232e+000	 5.060861843335418e-001	 1.723517252353379e+001
 1.137841734704207e+000	 5.175096006544983e-001	 1.713857388778358e+001
 1.132591262364247e+000	 5.289017228384254e-001	 1.702665277536046e+001
 1.127217140681487e+000	 5.402606017111222e-001	 1.689976221998172e+001
 1.121719562507361e+000	 5.515842846736661e-001	 1.675827758928913e+001
 1.116098760742258e+000	 5.628708166930497e-001	 1.660259650070932e+001
 1.110355008554307e+000	 5.741182413050000e-001	 1.643313869727685e+001
 8.882840068535240e-001	 4.592945930542355e-001	 1.835952136853558e+001
 8.835908956630776e-001	 4.682596813065159e-001	 1.792524275135686e+001
 8.787999584278387e-001	 4.771903531077779e-001	 1.749468695258203e+001
 8.739115111371587e-001	 4.860850447508238e-001	 1.706881275487952e+001
 8.689259024546855e-001	 4.949421946742140e-001	 1.664858489717282e+001
 8.638435137714190e-001	 5.037602443012851e-001	 1.623497313592642e+001
 8.586647592332956e-001	 5.125376388839769e-001	 1.582895128442614e+001
 8.533900857430293e-001	 5.212728283505861e-001	 1.543149623132387e+001
 8.480199729359588e-001	 5.299642681565356e-001	 1.504358693979270e+001
 8.425549331296908e-001	 5.386104201372436e-001	 1.466620342870448e+001
 8.369955112473729e-001	 5.472097533621585e-001	 1.430032573730738e+001
 9.104911070235671e-001	 4.707769578792765e-001	 1.779583251652798e+001
 9.056806680544064e-001	 4.799661733393891e-001	 1.741497174172467e+001
 9.007699573891275e-001	 4.891201119369574e-001	 1.703444823954880e+001
 8.957592989168135e-001	 4.982371708721023e-001	 1.665511840218343e+001
 8.906490500177037e-001	 5.073157495443472e-001	 1.627784715807790e+001
 8.854396016175709e-001	 5.163542504126110e-001	 1.590350715874576e+001
 8.801313782159999e-001	 5.253510798601305e-001	 1.553297794087525e+001
 8.747248378882713e-001	 5.343046490634094e-001	 1.516714506478872e+001
 8.692204722606064e-001	 5.432133748642545e-001	 1.480689923035985e+001
 8.636188064585516e-001	 5.520756806439688e-001	 1.445313537157129e+001
 8.579203990283327e-001	 5.608899971987366e-001	 1.410675173096767e+001
 9.326982071936175e-001	 4.822593227043255e-001	 1.732083088832374e+001
 9.277704404455582e-001	 4.916726653720899e-001	 1.698523204399048e+001
 9.227399563500827e-001	 5.010498707658234e-001	 1.664668623765809e+001
 9.176070866960091e-001	 5.103892969929659e-001	 1.630595190939140e+001
 9.123721975801657e-001	 5.196893044140039e-001	 1.596379860171330e+001
 9.070356894631003e-001	 5.289482565234379e-001	 1.562100626791288e+001
 9.015979971980450e-001	 5.381645208358035e-001	 1.527836455294164e+001
 8.960595900328475e-001	 5.473364697758096e-001	 1.493667204770044e+001
 8.904209715846122e-001	 5.564624815716491e-001	 1.459673551759781e+001
 8.846826797868248e-001	 5.655409411505090e-001	 1.425936910633816e+001
 8.788452868087893e-001	 5.745702410353089e-001	 1.392539351597664e+001
 9.549053073636764e-001	 4.937416875293824e-001	 1.693156362097111e+001
 9.498602128365320e-001	 5.033791574046180e-001	 1.663364669907839e+001
 9.447099553107049e-001	 5.129796295943758e-001	 1.632958963409865e+001
 9.394548744747450e-001	 5.225414231134140e-001	 1.602005704780390e+001
 9.340953451420719e-001	 5.320628592831832e-001	 1.570572722189920e+001
 9.286317773080073e-001	 5.415422626337659e-001	 1.538729152414727e+001
 9.230646161794309e-001	 5.509779618109953e-001	 1.506545380430623e+001
 9.173943421767584e-001	 5.603682904877877e-001	 1.474092976045566e+001
 9.116214709079761e-001	 5.697115882787198e-001	 1.441444627636687e+001
 9.057465531145108e-001	 5.790062016568645e-001	 1.408674073065878e+001
 8.997701745887435e-001	 5.882504848718763e-001	 1.375856027856225e+001
 9.771124075337430e-001	 5.052240523544471e-001	 1.662547787495975e+001
 9.719499852273285e-001	 5.150856494369737e-001	 1.635818716572091e+001
 9.666799542709936e-001	 5.249093884226146e-001	 1.608164476323400e+001
 9.613026622530214e-001	 5.346935492334473e-001	 1.579642532770381e+001
 9.558184927034218e-001	 5.444364141518855e-001	 1.550311973277480e+001
 9.502278651522912e-001	 5.541362687435948e-001	 1.520233460605802e+001
 9.445312351601573e-001	 5.637914027857063e-001	 1.489469183664239e+001
 9.387290943200033e-001	 5.734001111993428e-001	 1.458082804994152e+001
 9.328219702306987e-001	 5.829606949854664e-001	 1.426139405031404e+001
 9.268104264416094e-001	 5.924714621630346e-001	 1.393705423198472e+001
 9.206950623681951e-001	 6.019307287084381e-001	 1.360848595888082e+001
 9.993195077038174e-001	 5.167064171795196e-001	 1.640037638717115e+001
 9.940397576179476e-001	 5.267921414691568e-001	 1.615713460736852e+001
 9.886499532309490e-001	 5.368391472505395e-001	 1.590160253469398e+001
 9.831504500308382e-001	 5.468456753530652e-001	 1.563426847180303e+001
 9.775416402642159e-001	 5.568099690201107e-001	 1.535563948876288e+001
 9.718239529959529e-001	 5.667302748529248e-001	 1.506624107482301e+001
 9.659978541402250e-001	 5.766048437599363e-001	 1.476661675428346e+001
 9.600638464625828e-001	 5.864319319104752e-001	 1.445732766659234e+001
 9.540224695527794e-001	 5.962098016918890e-001	 1.413895211089688e+001
 9.478742997681203e-001	 6.059367226690200e-001	 1.381208505536526e+001
 9.416199501471442e-001	 6.156109725449948e-001	 1.347733761169155e+001
 1.021526607873900e+000	 5.281887820046000e-001	 1.625437882127053e+001
 1.016129530008389e+000	 5.384986335011673e-001	 1.602904622863327e+001
 1.010619952190571e+000	 5.487689060781509e-001	 1.578844967519325e+001
 1.004998237808195e+000	 5.589978014722680e-001	 1.553299447910848e+001
 9.992647878244535e-001	 5.691835238878589e-001	 1.526310728453879e+001
 9.934200408389918e-001	 5.793242809617556e-001	 1.497923582173565e+001
 9.874644731196335e-001	 5.894182847336853e-001	 1.468184862828150e+001
 9.813985986044974e-001	 5.994637526211851e-001	 1.437143473139527e+001
 9.752229688742189e-001	 6.094589083979877e-001	 1.404850329131675e+001
 9.689381730940442e-001	 6.194019831748203e-001	 1.371358320588278e+001
 9.625448379255903e-001	 6.292912163815461e-001	 1.352356040702293e+001
 1.043733708043990e+000	 5.396711468296881e-001	 1.618588805209113e+001
 1.038219302398653e+000	 5.502051255330052e-001	 1.597272590920747e+001
 1.032589951149860e+000	 5.606986649054486e-001	 1.574138364160734e+001
 1.026846025585093e+000	 5.711499275910554e-001	 1.549218674446531e+001
 1.020987935384136e+000	 5.815570787551301e-001	 1.522548460606757e+001
 1.015016128681408e+000	 5.919182870700875e-001	 1.494165037351160e+001
 1.008931092098383e+000	 6.022317257069535e-001	 1.464108077654349e+001
 1.002733350745746e+000	 6.124955733314723e-001	 1.432419590923572e+001
 9.964234681950165e-001	 6.227080151037621e-001	 1.399143896931226e+001
 9.900020464193805e-001	 6.328672436804356e-001	 1.392541418154641e+001
 9.834697257035339e-001	 6.429714602180920e-001	 1.392924537906694e+001
 1.065940808214088e+000	 5.511535116547843e-001	 1.619356066447080e+001
 1.060309074788740e+000	 5.619116175646708e-001	 1.598719850854286e+001
 1.054559950108815e+000	 5.726284237324328e-001	 1.575979066991418e+001
 1.048693813361531e+000	 5.833020537094278e-001	 1.551158578815706e+001
 1.042711082943262e+000	 5.939306336219243e-001	 1.524285897526101e+001
 1.036612216523202e+000	 6.045122931779203e-001	 1.495391178443247e+001
 1.030397711076473e+000	 6.150451666797406e-001	 1.464507213395063e+001
 1.024068102886329e+000	 6.255273940413367e-001	 1.433500615179677e+001
 1.017623967515172e+000	 6.359571218092125e-001	 1.435325215889356e+001
 1.011065919744129e+000	 6.463325041858661e-001	 1.435747900711149e+001
 1.004394613480975e+000	 6.566517040546329e-001	 1.434756193020624e+001
 1.088147908384193e+000	 5.626358764798881e-001	 1.627628106447555e+001
 1.082398847178649e+000	 5.736181095961634e-001	 1.607168731689504e+001
 1.076529949067438e+000	 5.845581825591033e-001	 1.584322651202014e+001
 1.070541601137510e+000	 5.954541798273849e-001	 1.559107322269733e+001
 1.064434230501831e+000	 6.063041884882413e-001	 1.531543108916690e+001
 1.058208304364373e+000	 6.171062992852543e-001	 1.501653288863475e+001
 1.051864330053904e+000	 6.278586076520469e-001	 1.479070030041787e+001
 1.045402855026246e+000	 6.385592147507786e-001	 1.481109540450588e+001
 1.038824466834687e+000	 6.492062285143389e-001	 1.481550364358782e+001
 1.032129793068291e+000	 6.597977646911115e-001	 1.480372143213682e+001
 1.025319501257913e+000	 6.703319478911681e-001	 1.477554033007144e+001
 1.110355008554307e+000	 5.741182413050000e-001	 1.643313869727685e+001
 1.104488619568381e+000	 5.853246016274840e-001	 1.622559421224327e+001
 1.098499948025727e+000	 5.964879413854604e-001	 1.599139948416714e+001
 1.092389388913029e+000	 6.076063059449270e-001	 1.573065764360692e+001
 1.086157378059845e+000	 6.186777433540813e-001	 1.544350350245527e+001
 1.079804392204921e+000	 6.297003053920891e-001	 1.528162641344096e+001
 1.073330949030676e+000	 6.406720486238723e-001	 1.530318031857708e+001
 1.066737607165498e+000	 6.515910354597978e-001	 1.530709512933306e+001
 1.060024966153559e+000	 6.624553352191411e-001	 1.529309002003842e+001
 1.053193666391865e+000	 6.732630251961720e-001	 1.526087920188106e+001
 1.046244389034349e+000	 6.840121917276982e-001	 1.521017227958519e+001
 8.369955112473729e-001	 5.472097533621585e-001	 1.430032573730738e+001
 8.313422847138690e-001	 5.557607449888236e-001	 1.392231573224403e+001
 8.255958633264965e-001	 5.642618811166034e-001	 1.352875319989210e+001
 8.197568890991047e-001	 5.727116576387267e-001	 1.311980603678976e+001
 8.138260360782970e-001	 5.811085810912837e-001	 1.269566133066663e+001
 8.078040101335782e-001	 5.894511694988002e-001	 1.225652525258682e+001
 8.016915487208972e-001	 5.977379532152196e-001	 1.180262291700939e+001
 7.954894206196910e-001	 6.059674757593239e-001	 1.133419820981008e+001
 7.891984256435692e-001	 6.141382946436216e-001	 1.085151358439034e+001
 7.828193943248217e-001	 6.222489821957410e-001	 1.035484982607932e+001
 7.763531875729710e-001	 6.302981263713646e-001	 1.002655990521537e+001
 8.579203990283327e-001	 5.608899971987366e-001	 1.410675173096767e+001
 8.521258418306248e-001	 5.696547636152222e-001	 1.369258424361666e+001
 8.462357599078701e-001	 5.783684281454595e-001	 1.326414760245172e+001
 8.402508113242638e-001	 5.870294490800074e-001	 1.282167852977577e+001
 8.341716869775760e-001	 5.956362956183596e-001	 1.236543237983985e+001
 8.279991103840487e-001	 6.041874487356549e-001	 1.189568295298813e+001
 8.217338374360308e-001	 6.126814020446861e-001	 1.141272227756526e+001
 8.153766561324448e-001	 6.211166626522043e-001	 1.091686035976267e+001
 8.089283862822416e-001	 6.294917520085319e-001	 1.056786643768824e+001
 8.023898791810181e-001	 6.378052067494876e-001	 1.034014330607696e+001
 7.957620172610354e-001	 6.460555795296462e-001	 1.009512453325393e+001
 8.788452868087893e-001	 5.745702410353089e-001	 1.392539351597664e+001
 8.729093989469730e-001	 5.835487822418006e-001	 1.347838576251182e+001
 8.668756564889210e-001	 5.924749751746508e-001	 1.301828143700317e+001
 8.607447335491761e-001	 6.013472405217495e-001	 1.254538468657530e+001
 8.545173378766733e-001	 6.101640101459929e-001	 1.206001781771492e+001
 8.481942106343932e-001	 6.189237279731328e-001	 1.156252103377275e+001
 8.417761261510833e-001	 6.276248508748118e-001	 1.114853752996100e+001
 8.352638916451534e-001	 6.362658495457502e-001	 1.094051143846209e+001
 8.286583469208936e-001	 6.448452093740827e-001	 1.071728920195266e+001
 8.219603640372094e-001	 6.533614313038202e-001	 1.047874859823848e+001
 8.151708469490998e-001	 6.618130326884288e-001	 1.022477214455592e+001
 8.997701745887435e-001	 5.882504848718763e-001	 1.375856027856225e+001
 8.936929560629136e-001	 5.974428008685592e-001	 1.328177376488800e+001
 8.875155530696497e-001	 6.065815222041774e-001	 1.279295724857004e+001
 8.812386557738413e-001	 6.156650319639527e-001	 1.229248104517642e+001
 8.748629887755891e-001	 6.246917246741830e-001	 1.178073324173207e+001
 8.683893108846112e-001	 6.336600072112341e-001	 1.157637150660013e+001
 8.618184148660554e-001	 6.425682997055966e-001	 1.137011374350750e+001
 8.551511271578161e-001	 6.514150364399609e-001	 1.115052307492645e+001
 8.483883075595252e-001	 6.601986667402745e-001	 1.091749793806996e+001
 8.415308488933955e-001	 6.689176558587390e-001	 1.067093877030147e+001
 8.345796766371638e-001	 6.775704858477131e-001	 1.041074836835343e+001
 9.206950623681951e-001	 6.019307287084381e-001	 1.360848595888082e+001
 9.144765131784466e-001	 6.113368194954976e-001	 1.310474950349705e+001
 9.081554496500561e-001	 6.206880692340396e-001	 1.258994785240619e+001
 9.017325779982595e-001	 6.299828234066174e-001	 1.224857793362687e+001
 8.952086396743232e-001	 6.392194392029307e-001	 1.205481450563712e+001
 8.885844111347034e-001	 6.483962864499585e-001	 1.184957169502222e+001
 8.818607035809463e-001	 6.575117485370405e-001	 1.163277209474836e+001
 8.750383626704336e-001	 6.665642233348367e-001	 1.140433728126167e+001
 8.681182681981370e-001	 6.755521241071071e-001	 1.116418811744510e+001
 8.611013337495769e-001	 6.844738804142442e-001	 1.091224507621789e+001
 8.539885063252279e-001	 6.933279390074986e-001	 1.064842858408328e+001
 9.416199501471442e-001	 6.156109725449948e-001	 1.347733761169155e+001
 9.352600702935722e-001	 6.252308381226158e-001	 1.295775534482734e+001
 9.287953462301400e-001	 6.347946162642376e-001	 1.277235206094600e+001
 9.222265002224307e-001	 6.443006148497431e-001	 1.257718296285885e+001
 9.155542905728754e-001	 6.537471537322354e-001	 1.237220288237950e+001
 9.087795113846693e-001	 6.631325656893065e-001	 1.215736276251503e+001
 9.019029922957564e-001	 6.724551973691438e-001	 1.193260988741826e+001
 8.949255981830053e-001	 6.817134102303775e-001	 1.169788813837442e+001
 8.878482288367283e-001	 6.909055814745803e-001	 1.145313827536418e+001
 8.806718186057527e-001	 7.000301049703354e-001	 1.119829824364561e+001
 8.733973360132922e-001	 7.090853921677851e-001	 1.093330350469731e+001
 9.625448379255903e-001	 6.292912163815461e-001	 1.352356040702293e+001
 9.560436274082902e-001	 6.391248567499139e-001	 1.333449813943630e+001
 9.494352428099019e-001	 6.489011632947710e-001	 1.313722980896271e+001
 9.427204224463548e-001	 6.586184062933304e-001	 1.293174378965054e+001
 9.358999414712462e-001	 6.682748682620976e-001	 1.271802201349996e+001
 9.289746116345086e-001	 6.778688449292775e-001	 1.249604014216548e+001
 9.219452810104858e-001	 6.873986462019062e-001	 1.226576776939323e+001
 9.148128336955317e-001	 6.968625971265834e-001	 1.202716865390294e+001
 9.075781894752993e-001	 7.062590388426944e-001	 1.178020098231216e+001
 9.002423034619237e-001	 7.155863295270126e-001	 1.152481766158948e+001
 8.928061657013564e-001	 7.248428453285732e-001	 1.126096664041078e+001
 9.834697257035339e-001	 6.429714602180920e-001	 1.392924537906694e+001
 9.768271845226005e-001	 6.530188753773920e-001	 1.372914560073595e+001
 9.700751393893412e-001	 6.630077103256397e-001	 1.352235227938975e+001
 9.632143446700321e-001	 6.729361977373790e-001	 1.330888108596953e+001
 9.562455923694353e-001	 6.828025827925169e-001	 1.308873884149113e+001
 9.491697118842217e-001	 6.926051241698716e-001	 1.286192365914267e+001
 9.419875697251338e-001	 7.023420950353276e-001	 1.262842512161144e+001
 9.347000692080123e-001	 7.120117840234542e-001	 1.238822449341533e+001
 9.273081501138503e-001	 7.216124962114492e-001	 1.214129496788769e+001
 9.198127883180899e-001	 7.311425540842763e-001	 1.188760194834268e+001
 9.122149953894206e-001	 7.406002984898628e-001	 1.162710336282322e+001
 1.004394613480975e+000	 6.566517040546329e-001	 1.434756193020624e+001
 9.976107416365034e-001	 6.669128940050499e-001	 1.413861230491635e+001
 9.907150359684581e-001	 6.771142573568438e-001	 1.392448156402432e+001
 9.837082668934620e-001	 6.872539891818887e-001	 1.370521059066286e+001
 9.765912432674425e-001	 6.973302973234933e-001	 1.348082894718842e+001
 9.693648121338087e-001	 7.073414034110892e-001	 1.325135498985623e+001
 9.620298584397014e-001	 7.172855438694087e-001	 1.301679602337960e+001
 9.545873047204476e-001	 7.271609709209903e-001	 1.277714849520882e+001
 9.470381107523808e-001	 7.369659535808444e-001	 1.253239822922859e+001
 9.393832731742507e-001	 7.466987786421260e-001	 1.228252069843591e+001
 9.316238250774851e-001	 7.563577516516536e-001	 1.202748133602414e+001
 1.025319501257913e+000	 6.703319478911681e-001	 1.477554033007144e+001
 1.018394298749999e+000	 6.808069126328878e-001	 1.455978308602283e+001
 1.011354932547253e+000	 6.912208043883835e-001	 1.434036282297414e+001
 1.004202189116645e+000	 7.015717806268597e-001	 1.411734361283644e+001
 9.969368941652685e-001	 7.118580118550273e-001	 1.389077566830605e+001
 9.895599123832695e-001	 7.220776826529302e-001	 1.366069543223774e+001
 9.820721471541883e-001	 7.322289927041489e-001	 1.342712571172280e+001
 9.744745402328373e-001	 7.423101578191913e-001	 1.319007585676569e+001
 9.667680713908913e-001	 7.523194109508808e-001	 1.294954198330389e+001
 9.589537580304065e-001	 7.622550032005621e-001	 1.270550724016421e+001
 9.510326547655491e-001	 7.721152048139458e-001	 1.245794211940013e+001
 1.046244389034349e+000	 6.840121917276982e-001	 1.521017227958519e+001
 1.039177855863086e+000	 6.947009312609056e-001	 1.498951601017047e+001
 1.031994829125725e+000	 7.053273514202587e-001	 1.476672597782659e+001
 1.024696111339581e+000	 7.158895720722920e-001	 1.454188747482924e+001
 1.017282545062913e+000	 7.263857263871184e-001	 1.431506932374944e+001
 1.009755012632604e+000	 7.368139618953941e-001	 1.408632394358854e+001
 1.002114435868594e+000	 7.471724415395481e-001	 1.385568746561273e+001
 9.943617757451817e-001	 7.574593447180577e-001	 1.362317989883486e+001
 9.864980320293814e-001	 7.676728683215579e-001	 1.338880534493061e+001
 9.785242428865573e-001	 7.778112277595842e-001	 1.315255226221042e+001
 9.704414844536136e-001	 7.878726579767392e-001	 1.291439377810518e+001
 7.763531875729710e-001	 6.302981263713646e-001	 1.002655990521537e+001
 7.698006963084499e-001	 6.382843315578651e-001	 9.587228855638637e+000
 7.631628410692363e-001	 6.462062193673844e-001	 9.155585466295216e+000
 7.564405715924578e-001	 6.540624294185955e-001	 8.732256878633082e+000
 7.496348663729667e-001	 6.618516201064840e-001	 8.317857801493037e+000
 7.427467321968386e-001	 6.695724693589142e-001	 7.912990096818201e+000
 7.357772036510774e-001	 6.772236753791965e-001	 7.518242392623729e+000
 7.287273426100210e-001	 6.848039573737854e-001	 7.134189723550920e+000
 7.215982376989776e-001	 6.923120562642575e-001	 6.761393199247963e+000
 7.143910037356571e-001	 6.997467353827424e-001	 6.400399700738595e+000
 7.071067811500000e-001	 7.071067811500000e-001	 6.051741604857902e+000
 7.957620172610354e-001	 6.460555795296462e-001	 1.009512453325393e+001
 7.890457137156018e-001	 6.542414398460118e-001	 9.696860494996624e+000
 7.822419120960087e-001	 6.623613748509767e-001	 9.304683318453643e+000
 7.753515858828121e-001	 6.704139901536809e-001	 8.919152427537354e+000
 7.683757380332351e-001	 6.783979106089844e-001	 8.540815320017993e+000
 7.613154005030053e-001	 6.863117810929481e-001	 8.170207241307082e+000
 7.541716337438014e-001	 6.941542672639653e-001	 7.807850885936457e+000
 7.469455261768199e-001	 7.019240563086516e-001	 7.454256126880438e+000
 7.396381936430014e-001	 7.096198576716236e-001	 7.109919772785453e+000
 7.322507788304985e-001	 7.172404037683136e-001	 6.775325353085602e+000
 7.247844506799999e-001	 7.247844506800000e-001	 6.450942930901793e+000
 8.151708469490998e-001	 6.618130326884288e-001	 1.022477214455592e+001
 8.082907311227530e-001	 6.701985481345644e-001	 9.863559533890067e+000
 8.013209831227808e-001	 6.785165303348901e-001	 9.506930145224722e+000
 7.942626001731661e-001	 6.867655508890119e-001	 9.155376331082538e+000
 7.871166096935036e-001	 6.949442011116653e-001	 8.809378922615412e+000
 7.798840688091721e-001	 7.030510928271078e-001	 8.469406991882245e+000
 7.725660638365257e-001	 7.110848591488145e-001	 8.135917642433052e+000
 7.651637097436187e-001	 7.190441552435636e-001	 7.809355828170725e+000
 7.576781495870251e-001	 7.269276590790100e-001	 7.490154200371154e+000
 7.501105539253395e-001	 7.347340721538893e-001	 7.178732982657971e+000
 7.424621202100000e-001	 7.424621202100000e-001	 6.875499873640703e+000
 8.345796766371638e-001	 6.775704858477131e-001	 1.041074836835343e+001
 8.275357485299048e-001	 6.861556564235237e-001	 1.008288594380920e+001
 8.204000541495531e-001	 6.946716858191245e-001	 9.758197705867490e+000
 8.131736144635205e-001	 7.031171116245896e-001	 9.437109394789738e+000
 8.058574813537721e-001	 7.114904916145274e-001	 9.120035532953787e+000
 7.984527371153392e-001	 7.197904045613930e-001	 8.807379276241202e+000
 7.909604939292501e-001	 7.280154510337448e-001	 8.499532294519575e+000
 7.833818933104181e-001	 7.361642541785208e-001	 8.196874681011444e+000
 7.757181055310486e-001	 7.442354604864162e-001	 7.899774890246244e+000
 7.679703290201807e-001	 7.522277405394704e-001	 7.608589704202469e+000
 7.601397897400000e-001	 7.601397897400000e-001	 7.323664226158523e+000
 8.539885063252279e-001	 6.933279390074986e-001	 1.064842858408328e+001
 8.467807659370565e-001	 7.021127647128891e-001	 1.035050311215280e+001
 8.394791251763253e-001	 7.108268413036804e-001	 1.005443526216991e+001
 8.320846287538746e-001	 7.194686723604126e-001	 9.760584447292343e+000
 8.245983530140405e-001	 7.280367821175704e-001	 9.469299065153582e+000
 8.170214054215057e-001	 7.365297162958037e-001	 9.180916439157951e+000
 8.093549240219742e-001	 7.449460429187546e-001	 8.895762789839607e+000
 8.016000768772169e-001	 7.532843531135229e-001	 8.614153235892669e+000
 7.937580614750726e-001	 7.615432618938427e-001	 8.336391824381261e+000
 7.858301041150223e-001	 7.697214089250566e-001	 8.062771589545445e+000
 7.778174592700000e-001	 7.778174592700000e-001	 7.793574639525655e+000
 8.733973360132922e-001	 7.090853921677851e-001	 1.093330350469731e+001
 8.660257833442079e-001	 7.180698730026608e-001	 1.066216635157176e+001
 8.585581962030976e-001	 7.269819967885571e-001	 1.039166096705702e+001
 8.509956430442284e-001	 7.358202330964815e-001	 1.012208055999039e+001
 8.433392246743088e-001	 7.445830726207936e-001	 9.853707424847899e+000
 8.355900737276726e-001	 7.532690280303400e-001	 9.586812973918585e+000
 8.277493541146983e-001	 7.618766348038450e-001	 9.321657800692753e+000
 8.198182604440158e-001	 7.704044520485702e-001	 9.058491773882667e+000
 8.117980174190962e-001	 7.788510633012893e-001	 8.797554161394922e+000
 8.036898792098633e-001	 7.872150773106477e-001	 8.539073783473150e+000
 7.954951288000000e-001	 7.954951288000000e-001	 8.283269194134089e+000
 8.928061657013564e-001	 7.248428453285732e-001	 1.126096664041078e+001
 8.852708007513596e-001	 7.340269812928388e-001	 1.101371290809366e+001
 8.776372672298697e-001	 7.431371522737551e-001	 1.076595437642359e+001
 8.699066573345828e-001	 7.521717938327969e-001	 1.051791802066280e+001
 8.620800963345773e-001	 7.611293631241980e-001	 1.026981990140954e+001
 8.541587420338392e-001	 7.700083397650018e-001	 1.002186528878770e+001
 8.461437842074222e-001	 7.788072266890160e-001	 9.774248819180357e+000
 8.380364440108148e-001	 7.875245509836630e-001	 9.527154683738837e+000
 8.298379733631200e-001	 7.961588647087562e-001	 9.280756847788153e+000
 8.215496543047046e-001	 8.047087456962437e-001	 9.035219300148686e+000
 8.131727983300000e-001	 8.131727983300000e-001	 8.790696331292784e+000
 9.122149953894206e-001	 7.406002984898628e-001	 1.162710336282322e+001
 9.045158181585112e-001	 7.499840895834230e-001	 1.140105324480606e+001
 8.967163382566420e-001	 7.592923077592744e-001	 1.117344991690338e+001
 8.888176716249372e-001	 7.685233545693583e-001	 1.094445394874582e+001
 8.808209679948458e-001	 7.776756536277830e-001	 1.071421489308501e+001
 8.727274103400061e-001	 7.867476514997894e-001	 1.048287150328689e+001
 8.645382143001464e-001	 7.957378185742671e-001	 1.025055198488650e+001
 8.562546275776136e-001	 8.046446499188009e-001	 1.001737428023893e+001
 8.478779293071437e-001	 8.134666661162426e-001	 9.783446385190560e+000
 8.394094293995459e-001	 8.222024140818449e-001	 9.548866696583110e+000
 8.308504678599999e-001	 8.308504678599999e-001	 9.313724389300225e+000
 9.316238250774851e-001	 7.563577516516536e-001	 1.202748133602414e+001
 9.237608355656627e-001	 7.659411978744137e-001	 1.182016341507951e+001
 9.157954092834143e-001	 7.754474632451148e-001	 1.161033117016704e+001
 9.077286859152912e-001	 7.848749153061654e-001	 1.139807845870263e+001
 8.995618396551142e-001	 7.942219441315489e-001	 1.118348791648669e+001
 8.912960786461726e-001	 8.034869632347024e-001	 1.096663126993920e+001
 8.829326443928708e-001	 8.126684104595989e-001	 1.074756968409823e+001
 8.744728111444123e-001	 8.217647488539841e-001	 1.052635414522030e+001
 8.659178852511673e-001	 8.307744675237495e-001	 1.030302587670142e+001
 8.572692044943870e-001	 8.396960824674510e-001	 1.007761678692176e+001
 8.485281373899998e-001	 8.485281373899998e-001	 9.850149947508237e+000
 9.510326547655491e-001	 7.721152048139458e-001	 1.245794211940013e+001
 9.430058529728143e-001	 7.818983061658105e-001	 1.226707836968131e+001
 9.348744803101865e-001	 7.916026187312762e-001	 1.207282585710210e+001
 9.266397002056453e-001	 8.012264760432186e-001	 1.187521129318334e+001
 9.183027113153827e-001	 8.107682346354956e-001	 1.167424985982107e+001
 9.098647469523398e-001	 8.202262749697412e-001	 1.146994561784018e+001
 9.013270744855949e-001	 8.295990023450112e-001	 1.126229195320349e+001
 8.926909947112114e-001	 8.388848477892125e-001	 1.105127205951274e+001
 8.839578411951912e-001	 8.480822689312765e-001	 1.083685945531076e+001
 8.751289795892284e-001	 8.571897508530622e-001	 1.061901853457352e+001
 8.662058069199999e-001	 8.662058069199999e-001	 1.039770514866330e+001
 9.704414844536136e-001	 7.878726579767392e-001	 1.291439377810518e+001
 9.622508703799659e-001	 7.978554144576137e-001	 1.273788606703598e+001
 9.539535513369586e-001	 8.077577742177589e-001	 1.255720142389120e+001
 9.455507144959995e-001	 8.175780367805177e-001	 1.237229886020658e+001
 9.370435829756511e-001	 8.273145251396229e-001	 1.218312544572906e+001
 9.284334152585064e-001	 8.369655867049054e-001	 1.198961681500058e+001
 9.197215045783189e-001	 8.465295942305035e-001	 1.179169771368085e+001
 9.109091782780104e-001	 8.560049467244861e-001	 1.158928258303925e+001
 9.019977971392149e-001	 8.653900703388237e-001	 1.138227618091083e+001
 8.929887546840698e-001	 8.746834192386785e-001	 1.117057423728452e+001
 8.838834764499999e-001	 8.838834764499999e-001	 1.095406414256730e+001
 7.071067811500000e-001	 7.071067811500000e-001	 6.051741604857902e+000
 6.997467353827424e-001	 7.143910037356571e-001	 5.779869405190262e+000
 6.923120562642576e-001	 7.215982376989775e-001	 5.505773336304415e+000
 6.848039573737853e-001	 7.287273426100210e-001	 5.229699883444606e+000
 6.772236753791965e-001	 7.357772036510774e-001	 4.951894639275033e+000
 6.695724693589142e-001	 7.427467321968386e-001	 4.672602394596979e+000
 6.618516201064840e-001	 7.496348663729667e-001	 4.392067236345068e+000
 6.540624294185956e-001	 7.564405715924577e-001	 4.110532652096363e+000
 6.462062193673844e-001	 7.631628410692365e-001	 3.828241640299398e+000
 6.382843315578652e-001	 7.698006963084498e-001	 3.545436825409149e+000
 6.302981263713646e-001	 7.763531875729710e-001	 3.262360577100486e+000
 7.247844506799999e-001	 7.247844506800000e-001	 6.450942930901793e+000
 7.172404037683134e-001	 7.322507788304985e-001	 6.184707037493389e+000
 7.096198576716237e-001	 7.396381936430012e-001	 5.916492390205767e+000
 7.019240563086517e-001	 7.469455261768201e-001	 5.646526907438766e+000
 6.941542672639653e-001	 7.541716337438014e-001	 5.375036759483078e+000
 6.863117810929481e-001	 7.613154005030052e-001	 5.102246505804208e+000
 6.783979106089844e-001	 7.683757380332351e-001	 4.828379241242151e+000
 6.704139901536809e-001	 7.753515858828118e-001	 4.553656750232298e+000
 6.623613748509767e-001	 7.822419120960087e-001	 4.278299668121065e+000
 6.542414398460118e-001	 7.890457137156017e-001	 4.002527648628742e+000
 6.460555795296461e-001	 7.957620172610354e-001	 3.726559536491239e+000
 7.424621202100000e-001	 7.424621202100000e-001	 6.875499873640703e+000
 7.347340721538893e-001	 7.501105539253395e-001	 6.615237227614160e+000
 7.269276590790101e-001	 7.576781495870252e-001	 6.353221916299409e+000
 7.190441552435636e-001	 7.651637097436189e-001	 6.089661422718651e+000
 7.110848591488145e-001	 7.725660638365257e-001	 5.824760614090725e+000
 7.030510928271078e-001	 7.798840688091721e-001	 5.558721928958258e+000
 6.949442011116653e-001	 7.871166096935036e-001	 5.291745574906070e+000
 6.867655508890120e-001	 7.942626001731661e-001	 5.024029735839630e+000
 6.785165303348898e-001	 8.013209831227809e-001	 4.755770787756974e+000
 6.701985481345646e-001	 8.082907311227530e-001	 4.487163521923257e+000
 6.618130326884288e-001	 8.151708469490996e-001	 4.218401374331497e+000
 7.601397897400000e-001	 7.601397897400000e-001	 7.323664226158523e+000
 7.522277405394704e-001	 7.679703290201808e-001	 7.069757547687737e+000
 7.442354604864165e-001	 7.757181055310487e-001	 6.814309126673164e+000
 7.361642541785208e-001	 7.833818933104180e-001	 6.557504075403509e+000
 7.280154510337445e-001	 7.909604939292499e-001	 6.299524007451042e+000
 7.197904045613930e-001	 7.984527371153392e-001	 6.040547278021502e+000
 7.114904916145275e-001	 8.058574813537721e-001	 5.780749236614729e+000
 7.031171116245893e-001	 8.131736144635203e-001	 5.520302490818440e+000
 6.946716858191244e-001	 8.204000541495530e-001	 5.259377180021169e+000
 6.861556564235237e-001	 8.275357485299046e-001	 4.998141257800750e+000
 6.775704858477131e-001	 8.345796766371638e-001	 4.736760781717197e+000
 7.778174592700000e-001	 7.778174592700000e-001	 7.793574639525655e+000
 7.697214089250566e-001	 7.858301041150223e-001	 7.546452192720789e+000
 7.615432618938427e-001	 7.937580614750724e-001	 7.297987410383655e+000
 7.532843531135229e-001	 8.016000768772169e-001	 7.048341032157119e+000
 7.449460429187546e-001	 8.093549240219742e-001	 6.797669397916234e+000
 7.365297162958037e-001	 8.170214054215057e-001	 6.546124744825570e+000
 7.280367821175703e-001	 8.245983530140405e-001	 6.293855518471264e+000
 7.194686723604127e-001	 8.320846287538745e-001	 6.041006696739140e+000
 7.108268413036801e-001	 8.394791251763255e-001	 5.787720125067682e+000
 7.021127647128891e-001	 8.467807659370564e-001	 5.534134861670815e+000
 6.933279390074987e-001	 8.539885063252281e-001	 5.280387531297345e+000
 7.954951288000000e-001	 7.954951288000000e-001	 8.283269194134089e+000
 7.872150773106477e-001	 8.036898792098633e-001	 8.043404578050339e+000
 7.788510633012895e-001	 8.117980174190961e-001	 7.802388980460044e+000
 7.704044520485701e-001	 8.198182604440157e-001	 7.560356700126944e+000
 7.618766348038449e-001	 8.277493541146982e-001	 7.317436714060141e+000
 7.532690280303400e-001	 8.355900737276725e-001	 7.073753034864025e+000
 7.445830726207936e-001	 8.433392246743088e-001	 6.829425083979168e+000
 7.358202330964817e-001	 8.509956430442285e-001	 6.584568079323260e+000
 7.269819967885571e-001	 8.585581962030977e-001	 6.339293435796823e+000
 7.180698730026608e-001	 8.660257833442079e-001	 6.093709177078193e+000
 7.090853921677852e-001	 8.733973360132923e-001	 5.847920357101688e+000
 8.131727983300000e-001	 8.131727983300000e-001	 8.790696331292784e+000
 8.047087456962437e-001	 8.215496543047046e-001	 8.558608293655546e+000
 7.961588647087559e-001	 8.298379733631198e-001	 8.325555871298018e+000
 7.875245509836630e-001	 8.380364440108148e-001	 8.091644787761359e+000
 7.788072266890160e-001	 8.461437842074223e-001	 7.856974499219058e+000
 7.700083397650018e-001	 8.541587420338392e-001	 7.621638615807147e+000
 7.611293631241979e-001	 8.620800963345773e-001	 7.385725340715978e+000
 7.521717938327970e-001	 8.699066573345828e-001	 7.149317925383624e+000
 7.431371522737550e-001	 8.776372672298699e-001	 6.912495139078894e+000
 7.340269812928387e-001	 8.852708007513597e-001	 6.675331751122368e+000
 7.248428453285735e-001	 8.928061657013564e-001	 6.437899023955502e+000
 8.308504678599999e-001	 8.308504678599999e-001	 9.313724389300225e+000
 8.222024140818448e-001	 8.394094293995459e-001	 9.089976660047102e+000
 8.134666661162426e-001	 8.478779293071436e-001	 8.865449532131432e+000
 8.046446499188010e-001	 8.562546275776138e-001	 8.640217953607317e+000
 7.957378185742673e-001	 8.645382143001466e-001	 8.414349633325969e+000
 7.867476514997893e-001	 8.727274103400060e-001	 8.187905530036394e+000
 7.776756536277829e-001	 8.808209679948457e-001	 7.960940361176712e+000
 7.685233545693583e-001	 8.888176716249369e-001	 7.733503129516702e+000
 7.592923077592743e-001	 8.967163382566421e-001	 7.505637665757047e+000
 7.499840895834231e-001	 9.045158181585112e-001	 7.277383185143777e+000
 7.406002984898628e-001	 9.122149953894206e-001	 7.048774856118710e+000
 8.485281373899998e-001	 8.485281373899998e-001	 9.850149947508237e+000
 8.396960824674509e-001	 8.572692044943873e-001	 9.635351089670056e+000
 8.307744675237496e-001	 8.659178852511674e-001	 9.419959221320285e+000
 8.217647488539840e-001	 8.744728111444126e-001	 9.204016249008470e+000
 8.126684104595990e-001	 8.829326443928708e-001	 8.987555839514704e+000
 8.034869632347023e-001	 8.912960786461726e-001	 8.770603980612098e+000
 7.942219441315489e-001	 8.995618396551142e-001	 8.553179563511357e+000
 7.848749153061655e-001	 9.077286859152911e-001	 8.335294984958688e+000
 7.754474632451146e-001	 9.157954092834144e-001	 8.116956766900179e+000
 7.659411978744137e-001	 9.237608355656627e-001	 7.898166191573186e+000
 7.563577516516535e-001	 9.316238250774851e-001	 7.678919949844718e+000
 8.662058069199999e-001	 8.662058069199999e-001	 1.039770514866330e+001
 8.571897508530622e-001	 8.751289795892283e-001	 1.019250842446155e+001
 8.480822689312767e-001	 8.839578411951911e-001	 9.986909372766261e+000
 8.388848477892124e-001	 8.926909947112115e-001	 9.780914527003571e+000
 8.295990023450112e-001	 9.013270744855950e-001	 9.574521149099665e+000
 8.202262749697411e-001	 9.098647469523395e-001	 9.367717865898021e+000
 8.107682346354954e-001	 9.183027113153826e-001	 9.160485329315410e+000
 8.012264760432186e-001	 9.266397002056451e-001	 8.952796898009797e+000
 7.916026187312760e-001	 9.348744803101865e-001	 8.744619338269825e+000
 7.818983061658106e-001	 9.430058529728145e-001	 8.535913541780095e+000
 7.721152048139458e-001	 9.510326547655491e-001	 8.326635257870651e+000
 8.838834764499999e-001	 8.838834764499999e-001	 1.095406414256730e+001
 8.746834192386785e-001	 8.929887546840698e-001	 1.075916739290156e+001
 8.653900703388238e-001	 9.019977971392147e-001	 1.056406607835847e+001
 8.560049467244860e-001	 9.109091782780104e-001	 1.036872896215682e+001
 8.465295942305037e-001	 9.197215045783191e-001	 1.017311447075766e+001
 8.369655867049053e-001	 9.284334152585063e-001	 9.977171410030911e+000
 8.273145251396229e-001	 9.370435829756509e-001	 9.780839707285296e+000
 8.175780367805178e-001	 9.455507144959995e-001	 9.584051176728076e+000
 8.077577742177586e-001	 9.539535513369589e-001	 9.386730305850840e+000
 7.978554144576137e-001	 9.622508703799658e-001	 9.188795060178530e+000
 7.878726579767392e-001	 9.704414844536136e-001	 8.990157703769294e+000
 6.302981263713646e-001	 7.763531875729710e-001	 3.262360577100486e+000
 6.222489821957411e-001	 7.828193943248218e-001	 3.046478293762722e+000
 6.141382946436216e-001	 7.891984256435691e-001	 2.804062452675882e+000
 6.059674757593238e-001	 7.954894206196910e-001	 2.571146462276793e+000
 5.977379532152196e-001	 8.016915487208971e-001	 2.348476335804334e+000
 5.894511694988002e-001	 8.078040101335781e-001	 2.136787591768843e+000
 5.811085810912837e-001	 8.138260360782970e-001	 1.936804284294683e+000
 5.727116576387268e-001	 8.197568890991045e-001	 1.749238052582627e+000
 5.642618811166035e-001	 8.255958633264966e-001	 1.574787191386191e+000
 5.557607449888236e-001	 8.313422847138690e-001	 1.414135744341511e+000
 5.472097533621585e-001	 8.369955112473729e-001	 1.267952621923975e+000
 6.460555795296461e-001	 7.957620172610354e-001	 3.726559536491239e+000
 6.378052067494876e-001	 8.023898791810181e-001	 3.536144686539391e+000
 6.294917520085319e-001	 8.089283862822417e-001	 3.352886956756292e+000
 6.211166626522043e-001	 8.153766561324448e-001	 3.150464299624560e+000
 6.126814020446861e-001	 8.217338374360308e-001	 2.925414727568792e+000
 6.041874487356549e-001	 8.279991103840487e-001	 2.709387254113788e+000
 5.956362956183596e-001	 8.341716869775759e-001	 2.503126185982418e+000
 5.870294490800074e-001	 8.402508113242636e-001	 2.307364875401934e+000
 5.783684281454594e-001	 8.462357599078704e-001	 2.122824741446959e+000
 5.696547636152223e-001	 8.521258418306248e-001	 1.950214312740795e+000
 5.608899971987366e-001	 8.579203990283327e-001	 1.790228293416282e+000
 6.618130326884288e-001	 8.151708469490996e-001	 4.218401374331497e+000
 6.533614313038202e-001	 8.219603640372094e-001	 4.033523319297693e+000
 6.448452093740830e-001	 8.286583469208937e-001	 3.853951375230735e+000
 6.362658495457499e-001	 8.352638916451532e-001	 3.679825979184274e+000
 6.276248508748118e-001	 8.417761261510834e-001	 3.511281992950862e+000
 6.189237279731329e-001	 8.481942106343930e-001	 3.306479390139892e+000
 6.101640101459929e-001	 8.545173378766733e-001	 3.091098125433196e+000
 6.013472405217496e-001	 8.607447335491760e-001	 2.884340198805850e+000
 5.924749751746506e-001	 8.668756564889212e-001	 2.686952681848760e+000
 5.835487822418006e-001	 8.729093989469730e-001	 2.499671081578146e+000
 5.745702410353087e-001	 8.788452868087893e-001	 2.323218351168163e+000
 6.775704858477131e-001	 8.345796766371638e-001	 4.736760781717197e+000
 6.689176558587390e-001	 8.415308488933956e-001	 4.556027044009403e+000
 6.601986667402746e-001	 8.483883075595253e-001	 4.378799815291728e+000
 6.514150364399607e-001	 8.551511271578162e-001	 4.205175105864018e+000
 6.425682997055964e-001	 8.618184148660554e-001	 4.035244737003287e+000
 6.336600072112341e-001	 8.683893108846115e-001	 3.869096731913067e+000
 6.246917246741831e-001	 8.748629887755891e-001	 3.704631874795695e+000
 6.156650319639528e-001	 8.812386557738412e-001	 3.484148269097579e+000
 6.065815222041774e-001	 8.875155530696497e-001	 3.271222761988134e+000
 5.974428008685592e-001	 8.936929560629136e-001	 3.066620345847611e+000
 5.882504848718763e-001	 8.997701745887436e-001	 2.871094694985854e+000
 6.933279390074987e-001	 8.539885063252281e-001	 5.280387531297345e+000
 6.844738804142442e-001	 8.611013337495768e-001	 5.102589038075114e+000
 6.755521241071072e-001	 8.681182681981370e-001	 4.926545848262543e+000
 6.665642233348367e-001	 8.750383626704337e-001	 4.752308021940189e+000
 6.575117485370405e-001	 8.818607035809464e-001	 4.579922781020912e+000
 6.483962864499587e-001	 8.885844111347035e-001	 4.409434975454825e+000
 6.392194392029307e-001	 8.952086396743231e-001	 4.240887551190814e+000
 6.299828234066175e-001	 9.017325779982596e-001	 4.074322018257313e+000
 6.206880692340399e-001	 9.081554496500564e-001	 3.879470618142289e+000
 6.113368194954976e-001	 9.144765131784467e-001	 3.654950720352951e+000
 6.019307287084381e-001	 9.206950623681951e-001	 3.437794397252759e+000
 7.090853921677852e-001	 8.733973360132923e-001	 5.847920357101688e+000
 7.000301049703352e-001	 8.806718186057527e-001	 5.672020077461363e+000
 6.909055814745804e-001	 8.878482288367283e-001	 5.496169623962555e+000
 6.817134102303774e-001	 8.949255981830052e-001	 5.320371460453008e+000
 6.724551973691438e-001	 9.019029922957563e-001	 5.144626530003946e+000
 6.631325656893065e-001	 9.087795113846693e-001	 4.968934799892480e+000
 6.537471537322354e-001	 9.155542905728754e-001	 4.793295806276186e+000
 6.443006148497433e-001	 9.222265002224306e-001	 4.617709196746682e+000
 6.347946162642375e-001	 9.287953462301400e-001	 4.442175268969828e+000
 6.252308381226157e-001	 9.352600702935721e-001	 4.266695503649399e+000
 6.156109725449946e-001	 9.416199501471442e-001	 4.027045794864661e+000
 7.248428453285735e-001	 8.928061657013564e-001	 6.437899023955502e+000
 7.155863295270126e-001	 9.002423034619237e-001	 6.263021841203941e+000
 7.062590388426944e-001	 9.075781894752993e-001	 6.086532373044588e+000
 6.968625971265833e-001	 9.148128336955316e-001	 5.908383722675449e+000
 6.873986462019063e-001	 9.219452810104858e-001	 5.728528758153325e+000
 6.778688449292776e-001	 9.289746116345086e-001	 5.546920739816366e+000
 6.682748682620976e-001	 9.358999414712462e-001	 5.363513945355359e+000
 6.586184062933305e-001	 9.427204224463548e-001	 5.178264290534366e+000
 6.489011632947709e-001	 9.494352428099019e-001	 4.991129943591392e+000
 6.391248567499139e-001	 9.560436274082902e-001	 4.802071931383133e+000
 6.292912163815461e-001	 9.625448379255903e-001	 4.611054735380766e+000
 7.406002984898628e-001	 9.122149953894206e-001	 7.048774856118710e+000
 7.311425540842764e-001	 9.198127883180900e-001	 6.874198517464593e+000
 7.216124962114491e-001	 9.273081501138502e-001	 6.696389057970028e+000
 7.120117840234543e-001	 9.347000692080125e-001	 6.515248341066873e+000
 7.023420950353279e-001	 9.419875697251339e-001	 6.330679250444994e+000
 6.926051241698717e-001	 9.491697118842217e-001	 6.142586403716661e+000
 6.828025827925169e-001	 9.562455923694353e-001	 5.950876861702327e+000
 6.729361977373790e-001	 9.632143446700319e-001	 5.755460831146192e+000
 6.630077103256397e-001	 9.700751393893412e-001	 5.556252358703659e+000
 6.530188753773921e-001	 9.768271845226005e-001	 5.353170014084816e+000
 6.429714602180920e-001	 9.834697257035339e-001	 5.146137560286636e+000
 7.563577516516535e-001	 9.316238250774851e-001	 7.678919949844718e+000
 7.466987786421260e-001	 9.393832731742509e-001	 7.504066958830026e+000
 7.369659535808448e-001	 9.470381107523809e-001	 7.324399442612229e+000
 7.271609709209902e-001	 9.545873047204475e-001	 7.139766034357695e+000
 7.172855438694087e-001	 9.620298584397016e-001	 6.950017614007526e+000
 7.073414034110892e-001	 9.693648121338087e-001	 6.755008112118549e+000
 6.973302973234934e-001	 9.765912432674425e-001	 6.554595307316133e+000
 6.872539891818886e-001	 9.837082668934617e-001	 6.348641614962382e+000
 6.771142573568437e-001	 9.907150359684582e-001	 6.137014864685522e+000
 6.669128940050501e-001	 9.976107416365034e-001	 5.919589064463981e+000
 6.566517040546327e-001	 1.004394613480975e+000	 5.696245149015140e+000
 7.721152048139458e-001	 9.510326547655491e-001	 8.326635257870651e+000
 7.622550032005621e-001	 9.589537580304064e-001	 8.151065594105823e+000
 7.523194109508807e-001	 9.667680713908911e-001	 7.969137806397831e+000
 7.423101578191912e-001	 9.744745402328375e-001	 7.780645198746426e+000
 7.322289927041489e-001	 9.820721471541883e-001	 7.585384520759533e+000
 7.220776826529302e-001	 9.895599123832695e-001	 7.383156865741885e+000
 7.118580118550273e-001	 9.969368941652685e-001	 7.173768560397643e+000
 7.015717806268598e-001	 1.004202189116645e+000	 6.957032043538696e+000
 6.912208043883834e-001	 1.011354932547253e+000	 6.732766731237111e+000
 6.808069126328881e-001	 1.018394298749999e+000	 6.500799865915655e+000
 6.703319478911681e-001	 1.025319501257913e+000	 6.260967346934141e+000
 7.878726579767392e-001	 9.704414844536136e-001	 8.990157703769294e+000
 7.778112277595841e-001	 9.785242428865572e-001	 8.813562270694014e+000
 7.676728683215578e-001	 9.864980320293814e-001	 8.629101492751722e+000
 7.574593447180574e-001	 9.943617757451816e-001	 8.436511140152478e+000
 7.471724415395482e-001	 1.002114435868594e+000	 8.235531600930532e+000
 7.368139618953939e-001	 1.009755012632604e+000	 8.025908877481653e+000
 7.263857263871183e-001	 1.017282545062913e+000	 7.807395572729415e+000
 7.158895720722921e-001	 1.024696111339581e+000	 7.579751863088524e+000
 7.053273514202586e-001	 1.031994829125725e+000	 7.342746455447151e+000
 6.947009312609058e-001	 1.039177855863086e+000	 7.096157525451719e+000
 6.840121917276981e-001	 1.046244389034349e+000	 6.839773634451978e+000
 5.472097533621585e-001	 8.369955112473729e-001	 1.267952621923975e+000
 5.386104201372436e-001	 8.425549331296908e-001	 1.184404712058291e+000
 5.299642681565356e-001	 8.480199729359587e-001	 1.095066459911612e+000
 5.212728283505860e-001	 8.533900857430293e-001	 1.000454338575189e+000
 5.125376388839767e-001	 8.586647592332956e-001	 9.010870717143314e-001
 5.037602443012850e-001	 8.638435137714189e-001	 7.974848235370449e-001
 4.949421946742140e-001	 8.689259024546855e-001	 6.901683962184734e-001
 4.860850447508238e-001	 8.739115111371586e-001	 5.796584364201169e-001
 4.771903531077779e-001	 8.787999584278388e-001	 4.664746524941607e-001
 4.682596813065159e-001	 8.835908956630776e-001	 3.511350439113923e-001
 4.592945930542355e-001	 8.882840068535240e-001	 2.341551443966095e-001
 5.608899971987366e-001	 8.579203990283327e-001	 1.790228293416282e+000
 5.520756806439687e-001	 8.636188064585515e-001	 1.680515749819924e+000
 5.432133748642545e-001	 8.692204722606064e-001	 1.568286884838436e+000
 5.343046490634091e-001	 8.747248378882713e-001	 1.454117222266204e+000
 5.253510798601305e-001	 8.801313782159997e-001	 1.338580889538050e+000
 5.163542504126110e-001	 8.854396016175709e-001	 1.222249760809407e+000
 5.073157495443472e-001	 8.906490500177037e-001	 1.105692612957568e+000
 4.982371708721025e-001	 8.957592989168137e-001	 9.894742961836868e-001
 4.891201119369574e-001	 9.007699573891274e-001	 8.741549208333770e-001
 4.799661733393892e-001	 9.056806680544065e-001	 7.602890619914652e-001
 4.707769578792765e-001	 9.104911070235670e-001	 6.484249833358223e-001
 5.745702410353087e-001	 8.788452868087893e-001	 2.323218351168163e+000
 5.655409411505090e-001	 8.846826797868248e-001	 2.188750117755231e+000
 5.564624815716492e-001	 8.904209715846120e-001	 2.054848451832914e+000
 5.473364697758096e-001	 8.960595900328476e-001	 1.922149300818924e+000
 5.381645208358035e-001	 9.015979971980450e-001	 1.791283678774656e+000
 5.289482565234379e-001	 9.070356894631003e-001	 1.662876759357785e+000
 5.196893044140039e-001	 9.123721975801657e-001	 1.537546987074388e+000
 5.103892969929659e-001	 9.176070866960091e-001	 1.415905208557141e+000
 5.010498707658233e-001	 9.227399563500828e-001	 1.298553825525843e+000
 4.916726653720898e-001	 9.277704404455581e-001	 1.186085971006047e+000
 4.822593227043255e-001	 9.326982071936176e-001	 1.079084710304685e+000
 5.882504848718763e-001	 8.997701745887436e-001	 2.871094694985854e+000
 5.790062016568643e-001	 9.057465531145107e-001	 2.713051797060621e+000
 5.697115882787198e-001	 9.116214709079761e-001	 2.558479368918723e+000
 5.603682904877875e-001	 9.173943421767581e-001	 2.408075246540520e+000
 5.509779618109955e-001	 9.230646161794308e-001	 2.262528897195638e+000
 5.415422626337660e-001	 9.286317773080073e-001	 2.122520458984210e+000
 5.320628592831832e-001	 9.340953451420719e-001	 1.988719803979002e+000
 5.225414231134142e-001	 9.394548744747451e-001	 1.861785626751211e+000
 5.129796295943757e-001	 9.447099553107049e-001	 1.742364559978902e+000
 5.033791574046179e-001	 9.498602128365320e-001	 1.631090318746196e+000
 4.937416875293824e-001	 9.549053073636764e-001	 1.528582875049066e+000
 6.019307287084381e-001	 9.206950623681951e-001	 3.437794397252759e+000
 5.924714621630346e-001	 9.268104264416094e-001	 3.257146726457312e+000
 5.829606949854665e-001	 9.328219702306987e-001	 3.082705462790554e+000
 5.734001111993426e-001	 9.387290943200036e-001	 2.915231884195439e+000
 5.637914027857062e-001	 9.445312351601573e-001	 2.755475558628632e+000
 5.541362687435949e-001	 9.502278651522912e-001	 2.604173326860539e+000
 5.444364141518855e-001	 9.558184927034217e-001	 2.462048314108297e+000
 5.346935492334473e-001	 9.613026622530212e-001	 2.329808972352371e+000
 5.249093884226144e-001	 9.666799542709937e-001	 2.208148155083366e+000
 5.150856494369737e-001	 9.719499852273285e-001	 2.097742226128234e+000
 5.052240523544471e-001	 9.771124075337430e-001	 1.999250204097206e+000
 6.156109725449946e-001	 9.416199501471442e-001	 4.027045794864661e+000
 6.059367226690199e-001	 9.478742997681203e-001	 3.824567029132485e+000
 5.962098016918892e-001	 9.540224695527798e-001	 3.630872665628438e+000
 5.864319319104752e-001	 9.600638464625831e-001	 3.446789062954160e+000
 5.766048437599364e-001	 9.659978541402251e-001	 3.273127615617626e+000
 5.667302748529246e-001	 9.718239529959528e-001	 3.110683676709423e+000
 5.568099690201107e-001	 9.775416402642158e-001	 2.960235514589607e+000
 5.468456753530653e-001	 9.831504500308381e-001	 2.822543305503769e+000
 5.368391472505394e-001	 9.886499532309492e-001	 2.698348163937454e+000
 5.267921414691568e-001	 9.940397576179476e-001	 2.588371212402149e+000
 5.167064171795196e-001	 9.993195077038174e-001	 2.493312692228635e+000
 6.292912163815461e-001	 9.625448379255903e-001	 4.611054735380766e+000
 6.194019831748203e-001	 9.689381730940442e-001	 4.418672079645467e+000
 6.094589083979877e-001	 9.752229688742187e-001	 4.206166568849060e+000
 5.994637526211849e-001	 9.813985986044971e-001	 4.005767805914647e+000
 5.894182847336852e-001	 9.874644731196336e-001	 3.818350813910196e+000
 5.793242809617556e-001	 9.934200408389918e-001	 3.644771337657965e+000
 5.691835238878589e-001	 9.992647878244535e-001	 3.485864741991615e+000
 5.589978014722681e-001	 1.004998237808195e+000	 3.342444951148520e+000
 5.487689060781508e-001	 1.010619952190571e+000	 3.215303431172095e+000
 5.384986335011672e-001	 1.016129530008389e+000	 3.105208217072166e+000
 5.281887820046000e-001	 1.021526607873900e+000	 3.012902986359882e+000
 6.429714602180920e-001	 9.834697257035339e-001	 5.146137560286636e+000
 6.328672436804357e-001	 9.900020464193806e-001	 4.984260564021768e+000
 6.227080151037622e-001	 9.964234681950164e-001	 4.811629480633702e+000
 6.124955733314721e-001	 1.002733350745746e+000	 4.595056142662608e+000
 6.022317257069535e-001	 1.008931092098383e+000	 4.393887395308211e+000
 5.919182870700875e-001	 1.015016128681408e+000	 4.209041322811052e+000
 5.815570787551301e-001	 1.020987935384136e+000	 4.041412402171187e+000
 5.711499275910557e-001	 1.026846025585093e+000	 3.891870385753627e+000
 5.606986649054486e-001	 1.032589951149860e+000	 3.761259232149730e+000
 5.502051255330052e-001	 1.038219302398653e+000	 3.650396087103542e+000
 5.396711468296881e-001	 1.043733708043990e+000	 3.560070316168472e+000
 6.566517040546327e-001	 1.004394613480975e+000	 5.696245149015140e+000
 6.463325041858661e-001	 1.011065919744129e+000	 5.528564931361150e+000
 6.359571218092126e-001	 1.017623967515172e+000	 5.367720400758340e+000
 6.255273940413366e-001	 1.024068102886329e+000	 5.213729525715998e+000
 6.150451666797405e-001	 1.030397711076473e+000	 5.002368962662224e+000
 6.045122931779204e-001	 1.036612216523202e+000	 4.805995789254134e+000
 5.939306336219241e-001	 1.042711082943261e+000	 4.629259108888958e+000
 5.833020537094280e-001	 1.048693813361531e+000	 4.473086638192507e+000
 5.726284237324328e-001	 1.054559950108815e+000	 4.338377019763109e+000
 5.619116175646707e-001	 1.060309074788740e+000	 4.225998753229114e+000
 5.511535116547843e-001	 1.065940808214088e+000	 4.136789183388554e+000
 6.703319478911681e-001	 1.025319501257913e+000	 6.260967346934141e+000
 6.597977646911116e-001	 1.032129793068291e+000	 6.089831116875930e+000
 6.492062285143391e-001	 1.038824466834687e+000	 5.927008107519041e+000
 6.385592147507786e-001	 1.045402855026246e+000	 5.772500522169365e+000
 6.278586076520468e-001	 1.051864330053904e+000	 5.626305257312728e+000
 6.171062992852543e-001	 1.058208304364373e+000	 5.438044533564935e+000
 6.063041884882413e-001	 1.064434230501831e+000	 5.251699458513238e+000
 5.954541798273851e-001	 1.070541601137510e+000	 5.088280417050912e+000
 5.845581825591033e-001	 1.076529949067438e+000	 4.948742977748501e+000
 5.736181095961636e-001	 1.082398847178649e+000	 4.834009282625642e+000
 5.626358764798881e-001	 1.088147908384193e+000	 4.744966987111390e+000
 6.840121917276981e-001	 1.046244389034349e+000	 6.839773634451978e+000
 6.732630251961720e-001	 1.053193666391865e+000	 6.667490278829959e+000
 6.624553352191411e-001	 1.060024966153559e+000	 6.504868230257915e+000
 6.515910354597977e-001	 1.066737607165498e+000	 6.351891088161017e+000
 6.406720486238722e-001	 1.073330949030676e+000	 6.208535562474932e+000
 6.297003053920891e-001	 1.079804392204921e+000	 6.074772256545676e+000
 6.186777433540813e-001	 1.086157378059845e+000	 5.910950631759005e+000
 6.076063059449273e-001	 1.092389388913029e+000	 5.739566142655206e+000
 5.964879413854602e-001	 1.098499948025727e+000	 5.594375547601374e+000
 5.853246016274839e-001	 1.104488619568381e+000	 5.476356965269788e+000
 5.741182413050000e-001	 1.110355008554307e+000	 5.386450734049764e+000
 4.592945930542355e-001	 8.882840068535240e-001	 2.341551443966095e-001
 4.502966533698555e-001	 8.928790086056798e-001	 9.182723524241410e-002
 4.412674277578943e-001	 8.973756500191494e-001	-4.321443815277479e-002
 4.322084813897782e-001	 9.017737125594310e-001	-1.705193211255774e-001
 4.231213782919209e-001	 9.060730099062141e-001	-2.896486947795849e-001
 4.140076805434689e-001	 9.102733877783562e-001	-4.001762102415208e-001
 4.048689474837917e-001	 9.143747237357485e-001	-5.016883952009333e-001
 3.957067349304588e-001	 9.183769269585733e-001	-5.937851320495879e-001
 3.865225944084202e-001	 9.222799380044704e-001	-6.760801070175538e-001
 3.773180723910820e-001	 9.260837285441589e-001	-7.482012297879825e-001
 3.680947095539379e-001	 9.297883010760839e-001	-8.097910231562236e-001
 4.707769578792765e-001	 9.104911070235670e-001	 6.484249833358223e-001
 4.615540697013549e-001	 9.152009838184482e-001	 5.114930357403686e-001
 4.522991134480965e-001	 9.198100412663188e-001	 3.819381283106295e-001
 4.430136934202114e-001	 9.243180553693136e-001	 2.602350261299781e-001
 4.336994127447717e-001	 9.287248351491139e-001	 1.468460488300872e-001
 4.243578725529000e-001	 9.330302224675479e-001	 4.222050256585284e-002
 4.149906711674480e-001	 9.372340918235038e-001	-5.320585859044466e-002
 4.055994033014220e-001	 9.413363501266672e-001	-1.390113411044595e-001
 3.961856592678930e-001	 9.453369364486187e-001	-2.147887896389228e-001
 3.867510242020995e-001	 9.492358217518440e-001	-2.801460333643009e-001
 3.772970772964199e-001	 9.530330085972488e-001	-3.347063004551690e-001
 4.822593227043255e-001	 9.326982071936176e-001	 1.079084710304685e+000
 4.728114860330365e-001	 9.375229590314141e-001	 9.457618593507532e-001
 4.633307991386043e-001	 9.422444325138553e-001	 8.199078456596315e-001
 4.538189054510227e-001	 9.468623981797123e-001	 7.020236525192540e-001
 4.442774471980223e-001	 9.513766603926590e-001	 5.925971772808052e-001
 4.347080645627026e-001	 9.557870571574938e-001	 4.921026271915680e-001
 4.251123948513975e-001	 9.600934599121022e-001	 4.009999464425391e-001
 4.154920716725500e-001	 9.642957732956732e-001	 3.197342752135532e-001
 4.058487241273527e-001	 9.683939348937278e-001	 2.487354414049358e-001
 3.961839760128774e-001	 9.723879149605194e-001	 1.884174856483606e-001
 3.864994450383867e-001	 9.762777161194137e-001	 1.391782200935987e-001
 4.937416875293824e-001	 9.549053073636764e-001	 1.528582875049066e+000
 4.840689023649002e-001	 9.598449342445778e-001	 1.397073727680577e+000
 4.743624848294175e-001	 9.646788237617586e-001	 1.273126767258440e+000
 4.646241174822119e-001	 9.694067409906272e-001	 1.157271232994684e+000
 4.548554816516729e-001	 9.740284856368491e-001	 1.050022605955364e+000
 4.450582565728768e-001	 9.785438918481941e-001	 9.518819663379118e-001
 4.352341185356399e-001	 9.829528280015430e-001	 8.633353838545957e-001
 4.253847400438428e-001	 9.872551964655909e-001	 7.848533420587495e-001
 4.155117889867996e-001	 9.914509333397977e-001	 7.168901973497263e-001
 4.056169278234152e-001	 9.955400081701847e-001	 6.598836732906701e-001
 3.957018127798380e-001	 9.995224236425787e-001	 6.142543907714616e-001
 5.052240523544471e-001	 9.771124075337430e-001	 1.999250204097206e+000
 4.953263186969465e-001	 9.821669094579394e-001	 1.867747695029218e+000
 4.853941705205365e-001	 9.871132150100292e-001	 1.743902810794643e+000
 4.754293295137794e-001	 9.919510838020585e-001	 1.628275115764505e+000
 4.654335161057235e-001	 9.966803108816846e-001	 1.521409711307022e+000
 4.554084485834225e-001	 1.001300726539648e+000	 1.423836552056157e+000
 4.453558422201753e-001	 1.005812196091827e+000	 1.336069797274242e+000
 4.352774084153003e-001	 1.010214619636420e+000	 1.258607198203837e+000
 4.251748538462336e-001	 1.014507931786828e+000	 1.191929522193509e+000
 4.150498796337134e-001	 1.018692101380841e+000	 1.136500014277782e+000
 4.049041805207738e-001	 1.022767131166744e+000	 1.092763896778495e+000
 5.167064171795196e-001	 9.993195077038174e-001	 2.493312692228635e+000
 5.065837350291749e-001	 1.004488884671498e+000	 2.359995289200294e+000
 4.964258562119608e-001	 1.009547606258667e+000	 2.234433551132734e+000
 4.862345415457247e-001	 1.014495426614006e+000	 2.117219469709171e+000
 4.760115505601738e-001	 1.019332136127165e+000	 2.008929835185221e+000
 4.657586405943396e-001	 1.024057561231856e+000	 1.910125509152052e+000
 4.554775659050038e-001	 1.028671564182954e+000	 1.821350734482627e+000
 4.451700767869224e-001	 1.033174042808161e+000	 1.743132483414736e+000
 4.348379187056548e-001	 1.037564930234820e+000	 1.675979844611561e+000
 4.244828314437720e-001	 1.041844194592487e+000	 1.620383449923619e+000
 4.141065482611941e-001	 1.046011838691909e+000	 1.576814941463867e+000
 5.281887820046000e-001	 1.021526607873900e+000	 3.012902986359882e+000
 5.178411513615852e-001	 1.026810859885255e+000	 2.875932199164393e+000
 5.074575419036908e-001	 1.031981997507672e+000	 2.746818214098820e+000
 4.970397535780481e-001	 1.037039769426470e+000	 2.626187586482062e+000
 4.865895850150243e-001	 1.041983961373291e+000	 2.514650897292259e+000
 4.761088326056284e-001	 1.046814395924818e+000	 2.412801979886508e+000
 4.655992895901254e-001	 1.051530932274924e+000	 2.321217186092341e+000
 4.550627451587097e-001	 1.056133465980815e+000	 2.240454692690755e+000
 4.445009835650630e-001	 1.060621928683773e+000	 2.171053849186453e+000
 4.339157832535908e-001	 1.064996287805123e+000	 2.113534567641238e+000
 4.233089160010993e-001	 1.069256546218074e+000	 2.068396755222622e+000
 5.396711468296881e-001	 1.043733708043990e+000	 3.560070316168472e+000
 5.290985676941781e-001	 1.049132835099209e+000	 3.417588470679763e+000
 5.184892275957262e-001	 1.054416388757043e+000	 3.283068139144824e+000
 5.078449656107494e-001	 1.059584112239450e+000	 3.157172612129181e+000
 4.971676194702746e-001	 1.064635786620062e+000	 3.040548397539259e+000
 4.864590246172887e-001	 1.069571230618535e+000	 2.933824398713975e+000
 4.757210132755399e-001	 1.074390300367736e+000	 2.837611134182589e+000
 4.649554135306616e-001	 1.079092889154379e+000	 2.752500000175382e+000
 4.541640484244582e-001	 1.083678927133686e+000	 2.679062576843666e+000
 4.433487350631697e-001	 1.088148381018750e+000	 2.617849979016451e+000
 4.325112837404888e-001	 1.092501253745239e+000	 2.569392252192182e+000
 5.511535116547843e-001	 1.065940808214088e+000	 4.136789183388554e+000
 5.403559840269530e-001	 1.071454810313361e+000	 3.986917427460185e+000
 5.295209132880673e-001	 1.076850780006782e+000	 3.845115934178501e+000
 5.186501776438290e-001	 1.082128455052946e+000	 3.712086937256911e+000
 5.077456539259250e-001	 1.087287611867478e+000	 3.588515043108179e+000
 4.968092166293204e-001	 1.092328065313005e+000	 3.475066357679417e+000
 4.858427369612475e-001	 1.097249668461392e+000	 3.372387657354338e+000
 4.748480819027783e-001	 1.102052312328856e+000	 3.281105605078930e+000
 4.638271132838406e-001	 1.106735925584560e+000	 3.201826012732146e+000
 4.527816868725090e-001	 1.111300474233367e+000	 3.135133150623324e+000
 4.417136514793630e-001	 1.115745961273404e+000	 3.081589104862589e+000
 5.626358764798881e-001	 1.088147908384193e+000	 4.744966987111390e+000
 5.516134003599104e-001	 1.093776785527711e+000	 4.585803499955116e+000
 5.405525989807140e-001	 1.099285171256888e+000	 4.434823509395044e+000
 5.294553896772866e-001	 1.104672797866959e+000	 4.292770437382779e+000
 5.183236883819752e-001	 1.109939437115540e+000	 4.160369196688761e+000
 5.071594086417235e-001	 1.115084900008229e+000	 4.038325263806409e+000
 4.959644606472483e-001	 1.120109036555890e+000	 3.927323798432111e+000
 4.847407502750599e-001	 1.125011735504244e+000	 3.828028810753063e+000
 4.734901781432100e-001	 1.129792924036396e+000	 3.741082377630057e+000
 4.622146386816085e-001	 1.134452567448973e+000	 3.667103908616828e+000
 4.509160192177217e-001	 1.138990668802569e+000	 3.606689462611344e+000
 5.741182413050000e-001	 1.110355008554307e+000	 5.386450734049764e+000
 5.628708166930497e-001	 1.116098760742258e+000	 5.216069114676200e+000
 5.515842846736662e-001	 1.121719562507361e+000	 5.053989147048196e+000
 5.402606017111221e-001	 1.127217140681487e+000	 4.900997724444562e+000
 5.289017228384254e-001	 1.132591262364247e+000	 4.757862310928521e+000
 5.175096006544983e-001	 1.137841734704207e+000	 4.625329957599680e+000
 5.060861843335419e-001	 1.142968404651232e+000	 4.504126368041757e+000
 4.946334186475062e-001	 1.147971158680544e+000	 4.394955014276443e+000
 4.831532430025666e-001	 1.152849922489192e+000	 4.298496304381419e+000
 4.716475904904681e-001	 1.157604660665571e+000	 4.215406802774688e+000
 4.601183869555650e-001	 1.162235376332733e+000	 4.146318504014642e+000
 3.680947095539379e-001	 9.297883010760839e-001	-8.097910231562236e-001
 3.588540400425035e-001	 9.333936886206078e-001	-9.056190887178408e-001
 3.495975907518841e-001	 9.368999543945393e-001	-9.929911194348954e-001
 3.403268806206378e-001	 9.403071914665516e-001	-1.071536071137130e+000
 3.310434199417800e-001	 9.436155223939605e-001	-1.140896620280844e+000
 3.217487096881426e-001	 9.468250988417171e-001	-1.200729492969420e+000
 3.124442408536596e-001	 9.499361011842371e-001	-1.250705764349093e+000
 3.031314938110319e-001	 9.529487380907489e-001	-1.290511128336259e+000
 2.938119376861946e-001	 9.558632460948671e-001	-1.319846137707170e+000
 2.844870297499801e-001	 9.586798891490925e-001	-1.338426414655510e+000
 2.751582148273362e-001	 9.613989581649598e-001	-1.345982831994225e+000
 3.772970772964199e-001	 9.530330085972488e-001	-3.347063004551690e-001
 3.678253910496041e-001	 9.567285308306593e-001	-4.222723293290141e-001
 3.583375305287336e-001	 9.603224532492585e-001	-5.018767368415276e-001
 3.488350526458335e-001	 9.638148712484377e-001	-5.731574709680228e-001
 3.393195054512463e-001	 9.672059104494433e-001	-6.357659392982602e-001
 3.297924274421272e-001	 9.704957263088508e-001	-6.893673447546425e-001
 3.202553468872610e-001	 9.736845037104360e-001	-7.336409913463322e-001
 3.107097811686687e-001	 9.767724565401572e-001	-7.682805599022469e-001
 3.011572361404364e-001	 9.797598272449696e-001	-7.929943538074897e-001
 2.915992055051700e-001	 9.826468863761855e-001	-8.075055148388640e-001
 2.820371702084442e-001	 9.854339321181277e-001	-8.115522092724956e-001
 3.864994450383867e-001	 9.762777161194137e-001	 1.391782200935987e-001
 3.767967420559097e-001	 9.800633730417054e-001	 5.559582533593194e-002
 3.670774703045501e-001	 9.837449521049575e-001	-2.045717524822037e-002
 3.573432246697982e-001	 9.873225510312769e-001	-8.862525344502380e-002
 3.475955909593246e-001	 9.907962985058436e-001	-1.485661647303087e-001
 3.378361451946069e-001	 9.941663537768565e-001	-1.999512922783399e-001
 3.280664529192808e-001	 9.974329062374506e-001	-2.424659605097202e-001
 3.182880685246871e-001	 1.000596174990316e+000	-2.758097181118216e-001
 3.085025345930623e-001	 1.003656408395746e+000	-2.996965905466330e-001
 2.987113812587859e-001	 1.006613883603867e+000	-3.138553021365848e-001
 2.889161255880585e-001	 1.009468906071790e+000	-3.180294678954901e-001
 3.957018127798380e-001	 9.995224236425787e-001	 6.142543907714616e-001
 3.857680930614206e-001	 1.003398215253747e+000	 5.305560601449614e-001
 3.758174100793333e-001	 1.007167450961636e+000	 4.540149124839923e-001
 3.658513966925321e-001	 1.010830230815070e+000	 3.849823794609961e-001
 3.558716764660148e-001	 1.014386686563162e+000	 3.237967011267892e-001
 3.458798629455820e-001	 1.017836981245734e+000	 2.707825720216592e-001
 3.358775589497192e-001	 1.021181308765282e+000	 2.262508183984139e-001
 3.258663558790867e-001	 1.024419893441224e+000	 1.904981066347959e-001
 3.158478330440720e-001	 1.027552989547198e+000	 1.638066828287213e-001
 3.058235570108274e-001	 1.030580880832138e+000	 1.464441434917550e-001
 2.957950809661792e-001	 1.033503880025945e+000	 1.386632371742818e-001
 4.049041805207738e-001	 1.022767131166744e+000	 1.092763896778495e+000
 3.947394440661366e-001	 1.026733057466782e+000	 1.005009164893603e+000
 3.845573498530832e-001	 1.030589949819293e+000	 9.240975131110502e-001
 3.743595687140353e-001	 1.034337910599817e+000	 8.503786697817528e-001
 3.641477619713173e-001	 1.037977074621398e+000	 7.841891808434427e-001
 3.539235806950523e-001	 1.041507608715483e+000	 7.258520444615457e-001
 3.436886649785759e-001	 1.044929711293928e+000	 6.756763775873730e-001
 3.334446432318680e-001	 1.048243611892883e+000	 6.339571145224422e-001
 3.231931314934658e-001	 1.051449570699323e+000	 6.009747374908471e-001
 3.129357327612944e-001	 1.054547878060998e+000	 5.769950391376807e-001
 3.026740363428060e-001	 1.057538853980594e+000	 5.622689167900103e-001
 4.141065482611941e-001	 1.046011838691909e+000	 1.576814941463867e+000
 4.037107950700578e-001	 1.050067899680813e+000	 1.481204911534205e+000
 3.932972896257999e-001	 1.054012448677930e+000	 1.392180293048211e+000
 3.828677407343075e-001	 1.057845590385517e+000	 1.310091476440296e+000
 3.724238474752317e-001	 1.061567462680552e+000	 1.235275596871320e+000
 3.619672984430177e-001	 1.065178236186105e+000	 1.168056155805082e+000
 3.514997710058511e-001	 1.068678113823391e+000	 1.108742675462972e+000
 3.410229305830306e-001	 1.072067330345292e+000	 1.057630386256588e+000
 3.305384299412434e-001	 1.075346151852123e+000	 1.014999947206902e+000
 3.200479085101872e-001	 1.078514875290446e+000	 9.811171992719919e-001
 3.095529917179391e-001	 1.081573827935737e+000	 9.562329514192235e-001
 4.233089160010993e-001	 1.069256546218074e+000	 2.068396755222622e+000
 4.126821460731842e-001	 1.073402741895839e+000	 1.961258469159091e+000
 4.020372293974833e-001	 1.077434947537546e+000	 1.860502894058663e+000
 3.913759127533488e-001	 1.081353270172171e+000	 1.766483425588237e+000
 3.806999329777581e-001	 1.085157850740624e+000	 1.679540049816699e+000
 3.700110161894784e-001	 1.088848863657598e+000	 1.599998950127894e+000
 3.593108770315449e-001	 1.092426516353670e+000	 1.528172148128138e+000
 3.486012179325746e-001	 1.095891048798451e+000	 1.464357178658448e+000
 3.378837283874051e-001	 1.099242733005597e+000	 1.408836798926406e+000
 3.271600842575055e-001	 1.102481872520484e+000	 1.361878731681859e+000
 3.164319470915787e-001	 1.105608801891373e+000	 1.323735442273062e+000
 4.325112837404888e-001	 1.092501253745239e+000	 2.569392252192182e+000
 4.216534970755158e-001	 1.096737584111859e+000	 2.447164723453024e+000
 4.107771691681337e-001	 1.100857446398142e+000	 2.331170893322693e+000
 3.998840847711594e-001	 1.104860949959779e+000	 2.221769488560042e+000
 3.889760184788967e-001	 1.108748238801614e+000	 2.119305590976997e+000
 3.780547339344343e-001	 1.112519491129963e+000	 2.024110228081784e+000
 3.671219830556570e-001	 1.116174918884764e+000	 1.936499998989173e+000
 3.561795052805002e-001	 1.119714767252360e+000	 1.856776735716812e+000
 3.452290268319506e-001	 1.123139314159746e+000	 1.785227199889567e+000
 3.342722600032496e-001	 1.126448869751110e+000	 1.722122814777988e+000
 3.233109024637242e-001	 1.129643775847504e+000	 1.667719432504030e+000
 4.417136514793630e-001	 1.115745961273404e+000	 3.081589104862589e+000
 4.306248480770524e-001	 1.120072426328874e+000	 2.940810806214708e+000
 4.195171089377507e-001	 1.124279945259717e+000	 2.806169768497933e+000
 4.083922567877390e-001	 1.128368629748340e+000	 2.678032362582682e+000
 3.972521039786471e-001	 1.132338626863521e+000	 2.556750998310134e+000
 3.860984516778855e-001	 1.136190118603200e+000	 2.442663697251523e+000
 3.749330890781875e-001	 1.139923321416674e+000	 2.336093702161847e+000
 3.637577926268073e-001	 1.143538485707019e+000	 2.237349123257714e+000
 3.525743252748801e-001	 1.147035895314569e+000	 2.146722621347181e+000
 3.413844357474192e-001	 1.150415866982325e+000	 2.064491127738064e+000
 3.301898578343763e-001	 1.153678749804127e+000	 1.990915600754229e+000
 4.509160192177217e-001	 1.138990668802569e+000	 3.606689462611344e+000
 4.395961990777943e-001	 1.143407268546884e+000	 3.443987090650715e+000
 4.282570487063345e-001	 1.147702444122272e+000	 3.287377152772796e+000
 4.169004288030878e-001	 1.151876309537856e+000	 3.137235968133494e+000
 4.055281894770098e-001	 1.155929014926346e+000	 2.993925498203731e+000
 3.941421694198319e-001	 1.159860746077309e+000	 2.857792900018352e+000
 3.827441950991367e-001	 1.163671723949401e+000	 2.729170117704710e+000
 3.713360799714958e-001	 1.167362204162428e+000	 2.608373512430734e+000
 3.599196237161937e-001	 1.170932476470067e+000	 2.495703530804504e+000
 3.484966114900147e-001	 1.174382864214129e+000	 2.391444411653034e+000
 3.370688132035346e-001	 1.177713723761245e+000	 2.295863931003569e+000
 4.601183869555650e-001	 1.162235376332733e+000	 4.146318504014642e+000
 4.485675500777414e-001	 1.166742110765889e+000	 3.958396867234946e+000
 4.369969884738851e-001	 1.171124942985806e+000	 3.776573619312658e+000
 4.254086008172057e-001	 1.175383989328324e+000	 3.601237326614812e+000
 4.138042749739843e-001	 1.179519402990089e+000	 3.432761720632114e+000
 4.021858871602735e-001	 1.183531373552289e+000	 3.271505230080454e+000
 3.905553011185042e-001	 1.187420126482944e+000	 3.117810553025017e+000
 3.789143673145657e-001	 1.191185922618588e+000	 2.972004269176369e+000
 3.672649221558911e-001	 1.194829057626238e+000	 2.834396492395781e+000
 3.556087872310356e-001	 1.198349861446522e+000	 2.705280563336043e+000
 3.439477685711992e-001	 1.201748697718857e+000	 2.584932782035952e+000
 2.751582148273362e-001	 9.613989581649598e-001	-1.345982831994225e+000
 2.658269247236917e-001	 9.640207705404181e-001	-1.368557275641572e+000
 2.564945776709277e-001	 9.665456696725904e-001	-1.387196423464618e+000
 2.471625777918796e-001	 9.689740244583481e-001	-1.401725718185650e+000
 2.378323145820488e-001	 9.713062287851813e-001	-1.411978349923227e+000
 2.285051624109132e-001	 9.735427010105087e-001	-1.417795393722691e+000
 2.191824800423044e-001	 9.756838834310223e-001	-1.419025927987571e+000
 2.098656101739950e-001	 9.777302417428043e-001	-1.415527134072259e+000
 2.005558789966087e-001	 9.796822644929403e-001	-1.407164377338509e+000
 1.912545957719429e-001	 9.815404625233627e-001	-1.393811270020511e+000
 1.819630524307584e-001	 9.833053684076398e-001	-1.375349716278569e+000
 2.820371702084442e-001	 9.854339321181277e-001	-8.115522092724956e-001
 2.724725978510110e-001	 9.881212898035869e-001	-8.407319714760985e-001
 2.629069421207347e-001	 9.907093114145075e-001	-8.656554548977290e-001
 2.533416422435218e-001	 9.931983750701839e-001	-8.861494017402580e-001
 2.437781224522615e-001	 9.955888845052953e-001	-9.020488471883139e-001
 2.342177914756684e-001	 9.978812685361966e-001	-9.131972519783966e-001
 2.246620420466706e-001	 1.000075980516999e+000	-9.194466147654978e-001
 2.151122504304847e-001	 1.002173497786187e+000	-9.206575645841619e-001
 2.055697759725002e-001	 1.004174321104526e+000	-9.166994337456431e-001
 1.960359606660596e-001	 1.006078974084998e+000	-9.074503115566781e-001
 1.865121287401930e-001	 1.007888002615511e+000	-8.927970792814245e-001
 2.889161255880585e-001	 1.009468906071790e+000	-3.180294678954901e-001
 2.791182709769418e-001	 1.012221809067160e+000	-3.561707967877889e-001
 2.693193065692688e-001	 1.014872953156760e+000	-3.896963338846552e-001
 2.595207066940171e-001	 1.017422725682307e+000	-4.184327103517396e-001
 2.497239303214633e-001	 1.019871540225668e+000	-4.422154619441075e-001
 2.399304205395593e-001	 1.022219836062135e+000	-4.608891570204791e-001
 2.301416040503285e-001	 1.024468077603237e+000	-4.743075031367404e-001
 2.203588906864322e-001	 1.026616753829864e+000	-4.823334325547057e-001
 2.105836729480255e-001	 1.028666377716458e+000	-4.848391670506407e-001
 2.008173255599959e-001	 1.030617485647049e+000	-4.817062624498243e-001
 1.910612050496423e-001	 1.032470636823890e+000	-4.728256333576074e-001
 2.957950809661792e-001	 1.033503880025945e+000	 1.386632371742818e-001
 2.857639441014841e-001	 1.036322328331137e+000	 8.927582142165522e-002
 2.757316710165300e-001	 1.039036594899347e+000	 4.490280943619494e-002
 2.656997711433655e-001	 1.041647076294715e+000	 5.719073614682293e-003
 2.556697381896544e-001	 1.044154195946299e+000	-2.811009659563129e-002
 2.456430496025855e-001	 1.046558403588324e+000	-5.642911854240991e-002
 2.356211660532782e-001	 1.048860174689739e+000	-7.909221745916396e-002
 2.256055309418377e-001	 1.051060009873835e+000	-9.596350518006924e-002
 2.155975699231846e-001	 1.053158434328735e+000	-1.069170369065156e-001
 2.055986904537516e-001	 1.055155997209519e+000	-1.118368464977830e-001
 1.956102813591062e-001	 1.057053271032776e+000	-1.106169608050484e-001
 3.026740363428060e-001	 1.057538853980594e+000	 5.622689167900103e-001
 2.924096172246379e-001	 1.060422847595518e+000	 4.994134171836583e-001
 2.821440354625185e-001	 1.063200236642269e+000	 4.420106419323108e-001
 2.718788355915670e-001	 1.065871426907412e+000	 3.902383451449087e-001
 2.616155460568347e-001	 1.068436851667188e+000	 3.442639520668126e-001
 2.513556786647472e-001	 1.070896971114763e+000	 3.042444390345422e-001
 2.411007280555194e-001	 1.073252271776503e+000	 2.703262376349196e-001
 2.308521711967009e-001	 1.075503265918101e+000	 2.426451626460902e-001
 2.206114668979776e-001	 1.077650490941359e+000	 2.213263632872389e-001
 2.103800553473268e-001	 1.079694508772404e+000	 2.064842972537617e-001
 2.001593576685848e-001	 1.081635905242169e+000	 1.982227269696380e-001
 3.095529917179391e-001	 1.081573827935737e+000	 9.562329514192235e-001
 2.990552903464032e-001	 1.084523366860303e+000	 8.777417121152737e-001
 2.885563999072340e-001	 1.087363878385527e+000	 8.051818722551037e-001
 2.780579000386214e-001	 1.090095777520394e+000	 7.387354346486202e-001
 2.675613539230041e-001	 1.092719507388336e+000	 6.785732589111196e-001
 2.570683077260444e-001	 1.095235538641453e+000	 6.248549448651758e-001
 2.465802900570525e-001	 1.097644368863529e+000	 5.777287417146563e-001
 2.360988114510221e-001	 1.099946521962661e+000	 5.373314825222015e-001
 2.256253638724045e-001	 1.102142547554328e+000	 5.037885434683782e-001
 2.151614202407214e-001	 1.104233020335707e+000	 4.772138273169699e-001
 2.047084339780781e-001	 1.106218539452070e+000	 4.577097704644847e-001
 3.164319470915787e-001	 1.105608801891373e+000	 1.323735442273062e+000
 3.057009634667799e-001	 1.108623886125492e+000	 1.227487855899306e+000
 2.949687643506767e-001	 1.111527520129120e+000	 1.137691376733447e+000
 2.842369644845290e-001	 1.114320128133663e+000	 1.054533614979017e+000
 2.735071617881628e-001	 1.117002163109742e+000	 9.781901539791346e-001
 2.627809367864770e-001	 1.119574106168393e+000	 9.088244367267891e-001
 2.520598520578772e-001	 1.122036465950818e+000	 8.465876798335974e-001
 2.413454517048012e-001	 1.124389778007516e+000	 7.916188144422522e-001
 2.306392608464651e-001	 1.126634604167643e+000	 7.440444535065305e-001
 2.199427851339355e-001	 1.128771531899427e+000	 7.039788848108982e-001
 2.092575102875861e-001	 1.130801173662478e+000	 6.715240890494411e-001
 3.233109024637242e-001	 1.129643775847504e+000	 1.667719432504030e+000
 3.123466365857683e-001	 1.132724405391085e+000	 1.551635423298845e+000
 3.013811287928464e-001	 1.135691161873047e+000	 1.442563968769945e+000
 2.904160289292896e-001	 1.138544478747219e+000	 1.340699639471017e+000
 2.794529696523108e-001	 1.141284818831407e+000	 1.246224025128362e+000
 2.684935658460451e-001	 1.143912673695583e+000	 1.159305623932142e+000
 2.575394140579937e-001	 1.146428563038369e+000	 1.080099761095767e+000
 2.465920919580381e-001	 1.148833034052665e+000	 1.008748536115972e+000
 2.356531578201596e-001	 1.151126660781304e+000	 9.453807981042752e-001
 2.247241500269691e-001	 1.153310043463564e+000	 8.901121485035254e-001
 2.138065865971087e-001	 1.155383807873393e+000	 8.430449704487606e-001
 3.301898578343763e-001	 1.153678749804127e+000	 1.990915600754229e+000
 3.189923097033681e-001	 1.156824924657083e+000	 1.852949786545295e+000
 3.077934932337433e-001	 1.159854803617310e+000	 1.722600447062550e+000
 2.965950933729034e-001	 1.162768829361061e+000	 1.600070462724743e+000
 2.853987775154478e-001	 1.165567474553330e+000	 1.485548707842926e+000
 2.742061949047486e-001	 1.168251241223025e+000	 1.379209942378386e+000
 2.630189760574019e-001	 1.170820660126182e+000	 1.281214734900561e+000
 2.518387322107329e-001	 1.173276290098108e+000	 1.191709416123702e+000
 2.406670547934879e-001	 1.175618717395311e+000	 1.110826062336113e+000
 2.295055149198221e-001	 1.177848555028118e+000	 1.038682507974275e+000
 2.183556629066459e-001	 1.179966442084816e+000	 9.753823865380433e-001
 3.370688132035346e-001	 1.177713723761245e+000	 2.295863931003569e+000
 3.256379828195793e-001	 1.180925443923485e+000	 2.134000380902942e+000
 3.142058576733674e-001	 1.184018445361908e+000	 1.980400454248594e+000
 3.027741578153701e-001	 1.186993179975190e+000	 1.835276689456433e+000
 2.913445853775742e-001	 1.189850130275511e+000	 1.698826521190666e+000
 2.799188239625876e-001	 1.192589808750716e+000	 1.571232174283634e+000
 2.684985380561019e-001	 1.195212757214259e+000	 1.452660590913142e+000
 2.570853724628856e-001	 1.197719546143846e+000	 1.343263390358715e+000
 2.456809517664501e-001	 1.200110774009664e+000	 1.243176860590281e+000
 2.342868798124946e-001	 1.202387066593088e+000	 1.152521980878119e+000
 2.229047392161979e-001	 1.204549076296746e+000	 1.071404474553533e+000
 3.439477685711992e-001	 1.201748697718857e+000	 2.584932782035952e+000
 3.322836559344022e-001	 1.205025963190290e+000	 2.397180298365941e+000
 3.206182221117185e-001	 1.208182087106841e+000	 2.218382592510666e+000
 3.089532222566899e-001	 1.211217530589606e+000	 2.048763209487024e+000
 2.972903932386897e-001	 1.214132785997952e+000	 1.888529419464773e+000
 2.856314530195621e-001	 1.216928376278658e+000	 1.737872113554913e+000
 2.739781000540936e-001	 1.219604854302598e+000	 1.596965735038080e+000
 2.623320127144961e-001	 1.222162802189878e+000	 1.465968245296208e+000
 2.506948487390460e-001	 1.224602830624363e+000	 1.345021123637808e+000
 2.390682447049865e-001	 1.226925578158476e+000	 1.234249400138585e+000
 2.274538155257646e-001	 1.229131710509183e+000	 1.133761720556649e+000
 1.819630524307584e-001	 9.833053684076398e-001	-1.375349716278569e+000
 1.726825231903044e-001	 9.849775358802030e-001	-1.365551712720186e+000
 1.634142641909075e-001	 9.865575392624050e-001	-1.354248524796694e+000
 1.541595131519813e-001	 9.880459728836374e-001	-1.341383392384514e+000
 1.449194890479376e-001	 9.894434504957537e-001	-1.326903609983553e+000
 1.356953918032302e-001	 9.907506046851591e-001	-1.310760544832649e+000
 1.264884020066532e-001	 9.919680862820068e-001	-1.292909643969423e+000
 1.172996806447692e-001	 9.930965637671554e-001	-1.273310430620922e+000
 1.081303688543234e-001	 9.941367226775286e-001	-1.251926490330304e+000
 9.898158769347724e-002	 9.950892650105072e-001	-1.228725447234967e+000
 8.985443793167208e-002	 9.959549086279671e-001	-1.203678930928137e+000
 1.865121287401930e-001	 1.007888002615511e+000	-8.927970792814245e-001
 1.769995862676611e-001	 1.009601974274025e+000	-8.932265353719461e-001
 1.674996207923786e-001	 1.011221477740089e+000	-8.915700660195042e-001
 1.580135009767427e-001	 1.012747122201329e+000	-8.877722802541771e-001
 1.485424762695243e-001	 1.014179536753393e+000	-8.817825727977231e-001
 1.390877765932872e-001	 1.015519369797345e+000	-8.735551273165816e-001
 1.296506120515437e-001	 1.016767288434090e+000	-8.630489076522611e-001
 1.202321726555193e-001	 1.017923977856507e+000	-8.502276374725778e-001
 1.108336280703761e-001	 1.018990140739942e+000	-8.350597688076410e-001
 1.014561273807281e-001	 1.019966496631707e+000	-8.175184399472643e-001
 9.210079887525120e-002	 1.020853781340225e+000	-7.975814231893915e-001
 1.910612050496423e-001	 1.032470636823890e+000	-4.728256333576074e-001
 1.813166493452170e-001	 1.034226412668443e+000	-4.846180278898010e-001
 1.715849773942018e-001	 1.035885416218438e+000	-4.937095217966145e-001
 1.618674888019788e-001	 1.037448271519734e+000	-5.000455232936102e-001
 1.521654634916776e-001	 1.038915623011773e+000	-5.035770112971441e-001
 1.424801613839724e-001	 1.040288134910280e+000	-5.042605232701680e-001
 1.328128220970941e-001	 1.041566490586910e+000	-5.020581300031273e-001
 1.231646646669311e-001	 1.042751391946564e+000	-4.969373978372128e-001
 1.135368872870629e-001	 1.043843558803008e+000	-4.888713388539136e-001
 1.039306670685564e-001	 1.044843728253489e+000	-4.778383495722494e-001
 9.434715981932204e-002	 1.045752654052973e+000	-4.638221387057014e-001
 1.956102813591062e-001	 1.057053271032776e+000	-1.106169608050484e-001
 1.856337124229718e-001	 1.058850851063458e+000	-1.348856655318704e-001
 1.756703339963775e-001	 1.060549354697454e+000	-1.558028269747556e-001
 1.657214766276897e-001	 1.062149420838853e+000	-1.733140946467393e-001
 1.557884507143976e-001	 1.063651709270896e+000	-1.873715289926421e-001
 1.458725461752858e-001	 1.065056900023964e+000	-1.979335732484145e-001
 1.359750321433044e-001	 1.066365692740468e+000	-2.049650111195165e-001
 1.260971566790045e-001	 1.067578806037326e+000	-2.084369108500729e-001
 1.162401465043838e-001	 1.068696976866728e+000	-2.083265562744375e-001
 1.064052067569619e-001	 1.069720959875853e+000	-2.046173654562834e-001
 9.659352076388458e-002	 1.070651526766214e+000	-1.972987975359767e-001
 2.001593576685848e-001	 1.081635905242169e+000	 1.982227269696380e-001
 1.899507755009255e-001	 1.083475289459071e+000	 1.603827511188734e-001
 1.797556905989053e-001	 1.085213293177134e+000	 1.265820379408482e-001
 1.695754644538752e-001	 1.086850570158686e+000	 9.687524417119700e-002
 1.594114379376842e-001	 1.088387795530760e+000	 7.130971886932870e-002
 1.492649309672275e-001	 1.089825665138398e+000	 4.992554815610326e-002
 1.391372421901744e-001	 1.091164894894763e+000	 3.275561532585288e-002
 1.290296486917398e-001	 1.092406220128793e+000	 1.982567569017150e-002
 1.189434057223388e-001	 1.093550394931100e+000	 1.115444549403175e-002
 1.088797464459448e-001	 1.094598191498799e+000	 6.753704228167319e-003
 9.883988170893882e-002	 1.095550399479947e+000	 6.628409647928621e-003
 2.047084339780781e-001	 1.106218539452070e+000	 4.577097704644847e-001
 1.942678385790784e-001	 1.108099727855280e+000	 4.052186878581920e-001
 1.838410472017855e-001	 1.109877231657481e+000	 3.574930518599945e-001
 1.734294522805354e-001	 1.111551719479234e+000	 3.145883642042298e-001
 1.630344251615375e-001	 1.113123881791367e+000	 2.765518643885482e-001
 1.526573157597974e-001	 1.114594430253582e+000	 2.434225916514841e-001
 1.422994522377043e-001	 1.115964097049795e+000	 2.152314635935981e-001
 1.319621407051366e-001	 1.117233634220965e+000	 1.920013707286543e-001
 1.216466649409279e-001	 1.118403812996127e+000	 1.737472862308641e-001
 1.113542861355051e-001	 1.119475423122327e+000	 1.604763901291400e-001
 1.010862426544848e-001	 1.120449272194170e+000	 1.521882071843263e-001
 2.092575102875861e-001	 1.130801173662478e+000	 6.715240890494411e-001
 1.985849016574302e-001	 1.132724166252086e+000	 6.033142609504308e-001
 1.879264038050179e-001	 1.134541170138493e+000	 5.406358966500686e-001
 1.772834401076705e-001	 1.136252868800495e+000	 4.835458742126785e-001
 1.666574123859573e-001	 1.137859968052715e+000	 4.320917957782963e-001
 1.560497005529956e-001	 1.139363195369515e+000	 3.863120674527352e-001
 1.454616622858941e-001	 1.140763299205564e+000	 3.462359971893350e-001
 1.348946327191952e-001	 1.142061048313842e+000	 3.118839098735611e-001
 1.243499241601511e-001	 1.143257231061806e+000	 2.832672787996914e-001
 1.138288258256426e-001	 1.144352654746438e+000	 2.603888727125540e-001
 1.033326036005224e-001	 1.145348144908886e+000	 2.432429175723450e-001
 2.138065865971087e-001	 1.155383807873393e+000	 8.430449704487606e-001
 2.029019647359810e-001	 1.157348604649489e+000	 7.580583381429535e-001
 1.920117604086025e-001	 1.159205108620171e+000	 6.794103717154517e-001
 1.811374279352802e-001	 1.160954018122470e+000	 6.071598507037138e-001
 1.702803996109438e-001	 1.162596054314805e+000	 5.413552045874176e-001
 1.594420853468219e-001	 1.164131960486198e+000	 4.820346112920724e-001
 1.486238723347437e-001	 1.165562501362070e+000	 4.292261151141210e-001
 1.378271247339154e-001	 1.166888462407424e+000	 3.829477631975210e-001
 1.270531833800084e-001	 1.168110649128140e+000	 3.432077596708711e-001
 1.163033655163575e-001	 1.169229886371130e+000	 3.100046365371321e-001
 1.055789645470518e-001	 1.170247017624094e+000	 2.833274403907112e-001
 2.183556629066459e-001	 1.179966442084816e+000	 9.753823865380433e-001
 2.072190278147308e-001	 1.181973043047488e+000	 8.725681270539339e-001
 1.960971170125395e-001	 1.183869047102514e+000	 7.769422567543097e-001
 1.849914157633647e-001	 1.185655167445159e+000	 6.885659767081219e-001
 1.739033868364968e-001	 1.187332140577637e+000	 6.074890020197975e-001
 1.628344701412766e-001	 1.188900725603630e+000	 5.337496796776691e-001
 1.517860823842531e-001	 1.190361703519314e+000	 4.673751273341303e-001
 1.407596167492974e-001	 1.191715876501712e+000	 4.083813920646031e-001
 1.297564426004998e-001	 1.192964067195125e+000	 3.567736281292517e-001
 1.187779052076498e-001	 1.194107117996405e+000	 3.125462927442005e-001
 1.078253254940729e-001	 1.195145890339793e+000	 2.756833588517336e-001
 2.229047392161979e-001	 1.204549076296746e+000	 1.071404474553533e+000
 2.115360908936796e-001	 1.206597481446085e+000	 9.497168955938621e-001
 2.001824736168288e-001	 1.208532985585524e+000	 8.361112729536596e-001
 1.888454035919239e-001	 1.210356316768561e+000	 7.306517451964377e-001
 1.775263740626165e-001	 1.212068226841211e+000	 6.333897659085642e-001
 1.662268549363594e-001	 1.213669490721812e+000	 5.443642416512490e-001
 1.549482924344223e-001	 1.215160905677295e+000	 4.636016924370927e-001
 1.436921087653411e-001	 1.216543290596704e+000	 3.911164336922809e-001
 1.324597018216253e-001	 1.217817485262765e+000	 3.269107786397406e-001
 1.212524448995194e-001	 1.218984349622261e+000	 2.709752600187332e-001
 1.100716864415856e-001	 1.220044763055984e+000	 2.232888700425148e-001
 2.274538155257646e-001	 1.229131710509183e+000	 1.133761720556649e+000
 2.158531539728275e-001	 1.231221919845279e+000	 9.921583659367500e-001
 2.042678302214702e-001	 1.233196924069199e+000	 8.595756888406417e-001
 1.926993914209578e-001	 1.235057466092679e+000	 7.360812780851233e-001
 1.811493612893029e-001	 1.236804313105527e+000	 6.217287740533857e-001
 1.696192397320706e-001	 1.238438255840743e+000	 5.165580275350006e-001
 1.581105024852513e-001	 1.239960107836013e+000	 4.205952827700381e-001
 1.466246007820464e-001	 1.241370704692402e+000	 3.338533835660916e-001
 1.351629610433849e-001	 1.242670903331058e+000	 2.563320013294730e-001
 1.237269845919663e-001	 1.243861581248700e+000	 1.880178838346844e-001
 1.123180473895901e-001	 1.244943635772666e+000	 1.288851235371391e-001
 8.985443793167208e-002	 9.959549086279671e-001	-1.203678930928137e+000
 8.074999985732721e-002	 9.967343866612564e-001	-1.174396496855963e+000
 7.166933310492567e-002	 9.974284469156016e-001	-1.148327307682932e+000
 6.261347650004133e-002	 9.980378512759270e-001	-1.125490285519206e+000
 5.358344792087624e-002	 9.985633751160036e-001	-1.105903111310974e+000
 4.458024417780558e-002	 9.990058067093818e-001	-1.089582235435448e+000
 3.560484091004575e-002	 9.993659466433188e-001	-1.076542885219333e+000
 2.665819249913583e-002	 9.996446072361989e-001	-1.066799069614562e+000
 1.774123199891268e-002	 9.998426119589265e-001	-1.060363581269658e+000
 8.854871081647956e-003	 9.999607948607566e-001	-1.057247996229241e+000
 0.000000000000000e+000	 1.000000000000000e+000	-1.057462671496223e+000
 9.210079887525120e-002	 1.020853781340225e+000	-7.975814231893915e-001
 8.276874984949990e-002	 1.021652746325009e+000	-7.809408229039838e-001
 7.346106642874500e-002	 1.022364158086303e+000	-7.661996385727309e-001
 6.417881340919973e-002	 1.022988797556156e+000	-7.533786334898147e-001
 5.492303411602096e-002	 1.023527459492682e+000	-7.424985752043604e-001
 4.569475027984318e-002	 1.023980951876270e+000	-7.335802139916036e-001
 3.649496193086310e-002	 1.024350095308862e+000	-7.266442573396942e-001
 2.732464731015816e-002	 1.024635722416802e+000	-7.217113407750784e-001
 1.818476279791106e-002	 1.024838677257766e+000	-7.188019953467081e-001
 9.076242858200107e-003	 1.024959814732242e+000	-7.179366120884798e-001
 0.000000000000000e+000	 1.025000000000000e+000	-7.191354037756218e-001
 9.434715981932204e-002	 1.045752654052973e+000	-4.638221387057014e-001
 8.478749984206953e-002	 1.046571105989159e+000	-4.591273423498767e-001
 7.525279975287695e-002	 1.047299869257318e+000	-4.550210370018126e-001
 6.574415031859660e-002	 1.047939743836623e+000	-4.515259115010559e-001
 5.626262031134028e-002	 1.048491543869534e+000	-4.486659253797016e-001
 4.680925638200162e-002	 1.048956097043280e+000	-4.464662544713601e-001
 3.738508295175753e-002	 1.049334243974483e+000	-4.449532316066649e-001
 2.799110212122371e-002	 1.049626837597447e+000	-4.441542828064293e-001
 1.862829359692857e-002	 1.049834742556624e+000	-4.440978593801607e-001
 9.297614634757019e-003	 1.049958834603733e+000	-4.448133663377180e-001
 0.000000000000000e+000	 1.050000000000000e+000	-4.463310875125982e-001
 9.659352076388458e-002	 1.070651526766214e+000	-1.972987975359767e-001
 8.680624983503614e-002	 1.071489465653705e+000	-2.039205727979770e-001
 7.704453307732150e-002	 1.072235580428645e+000	-2.098187340054011e-001
 6.730948722823200e-002	 1.072890690117329e+000	-2.150179928566515e-001
 5.760220650683426e-002	 1.073455628246560e+000	-2.195456218122259e-001
 4.792376248428092e-002	 1.073931242210410e+000	-2.234313660357704e-001
 3.827520397272902e-002	 1.074318392640181e+000	-2.267073494654602e-001
 2.865755693233245e-002	 1.074617952778136e+000	-2.294079755221188e-001
 1.907182439596521e-002	 1.074830807855502e+000	-2.315698229516041e-001
 9.518986411318698e-003	 1.074957854475228e+000	-2.332315372955270e-001
 0.000000000000000e+000	 1.075000000000000e+000	-2.344337184799865e-001
 9.883988170893882e-002	 1.095550399479947e+000	 6.628409647928621e-003
 8.882499982839968e-002	 1.096407825318649e+000	-1.074204065286791e-002
 7.883626640207862e-002	 1.097171291600285e+000	-2.607177179515538e-002
 6.887482413810593e-002	 1.097841636398273e+000	-3.938762796112394e-002
 5.894179270250285e-002	 1.098419712623762e+000	-5.072033027728207e-002
 4.903826858668107e-002	 1.098906387377661e+000	-6.010435421241031e-002
 3.916532499377761e-002	 1.099302541305955e+000	-6.757780012817635e-002
 2.932401174348439e-002	 1.099609067958868e+000	-7.318225757961916e-002
 1.951535519502098e-002	 1.099826873154398e+000	-7.696266395906296e-002
 9.740358187885141e-003	 1.099956874346727e+000	-7.896715806827863e-002
 0.000000000000000e+000	 1.100000000000000e+000	-7.924692919779001e-002
 1.010862426544848e-001	 1.120449272194170e+000	 1.521882071843263e-001
 9.084374982216018e-002	 1.121326184983990e+000	 1.245804976357102e-001
 8.062799972714832e-002	 1.122107002772237e+000	 1.003391974825000e-001
 7.044016104821836e-002	 1.122792582679455e+000	 7.943520869058503e-002
 6.028137889834608e-002	 1.123383797001138e+000	 6.183421162799239e-002
 5.015277468920207e-002	 1.123881532545033e+000	 4.749682314547567e-002
 4.005544601490324e-002	 1.124286689971807e+000	 3.637876251090070e-002
 2.999046655467953e-002	 1.124600183139644e+000	 2.843102450263403e-002
 1.995888599409588e-002	 1.124822938453314e+000	 2.360005897344224e-002
 9.961729964456352e-003	 1.124955894218232e+000	 2.182795620343025e-002
 0.000000000000000e+000	 1.125000000000000e+000	 2.305263737206100e-002
 1.033326036005224e-001	 1.145348144908886e+000	 2.432429175723450e-001
 9.286249981631764e-002	 1.146244544649727e+000	 2.058572110123851e-001
 8.241973305253061e-002	 1.147042713944502e+000	 1.731755649997121e-001
 7.200549795856930e-002	 1.147743528960876e+000	 1.451664950448762e-001
 6.162096509436395e-002	 1.148347881378689e+000	 1.217919196819206e-001
 5.126728079184391e-002	 1.148856677712526e+000	 1.030073550244223e-001
 4.094556703610597e-002	 1.149270838637736e+000	 8.876211821004688e-002
 3.065692136591787e-002	 1.149591298320462e+000	 7.899953893823709e-002
 2.040241679318992e-002	 1.149819003752249e+000	 7.365717831394697e-002
 1.018310174103233e-002	 1.149954914089742e+000	 7.266705421816042e-002
 0.000000000000000e+000	 1.150000000000000e+000	 7.595587243892515e-002
 1.055789645470518e-001	 1.170247017624094e+000	 2.833274403907112e-001
 9.488124981087207e-002	 1.171162904315862e+000	 2.365747123907128e-001
 8.421146637822551e-002	 1.171978425117080e+000	 1.958788457449532e-001
 7.357083486915875e-002	 1.172694475242536e+000	 1.612058261228289e-001
 6.296055129055644e-002	 1.173311965756415e+000	 1.325136339556680e-001
 5.238178689460660e-002	 1.173831822880139e+000	 1.097524765229261e-001
 4.183568805738575e-002	 1.174254987303742e+000	 9.286502999174529e-002
 3.132337617719941e-002	 1.174582413501324e+000	 8.178669050992554e-002
 2.084594759230309e-002	 1.174815069051203e+000	 7.644583346371624e-002
 1.040447351761307e-002	 1.174953933961256e+000	 7.676408002010327e-002
 0.000000000000000e+000	 1.175000000000000e+000	 8.265657008851972e-002
 1.078253254940729e-001	 1.195145890339793e+000	 2.756833588517336e-001
 9.689999980582342e-002	 1.196081263982393e+000	 2.199297624063997e-001
 8.600319970423299e-002	 1.196914136289970e+000	 1.716039989586915e-001
 7.513617177998672e-002	 1.197645421524434e+000	 1.306693705749702e-001
 6.430013748692355e-002	 1.198276050134314e+000	 9.707973086590567e-002
 5.349629299749016e-002	 1.198806968047874e+000	 7.077975571449714e-002
 4.272580907874261e-002	 1.199239135969825e+000	 5.170522505211127e-002
 3.198983098852416e-002	 1.199573528682229e+000	 3.978331467670974e-002
 2.128947839143539e-002	 1.199811134350176e+000	 3.493289711811131e-002
 1.062584529419858e-002	 1.199952953832775e+000	 3.706485056687917e-002
 0.000000000000000e+000	 1.200000000000000e+000	 4.608237489985935e-002
 1.100716864415856e-001	 1.220044763055984e+000	 2.232888700425148e-001
 9.891874980117174e-002	 1.220999623649321e+000	 1.588588461798829e-001
 8.779493303055304e-002	 1.221849847463172e+000	 1.032486685154730e-001
 7.670150869105320e-002	 1.222596367806571e+000	 5.641879173895669e-002
 6.563972368346532e-002	 1.223240134512389e+000	 1.831874191492662e-002
 5.461079910049455e-002	 1.223782113215730e+000	-1.111257298239999e-002
 4.361593010017655e-002	 1.224223284635984e+000	-3.194654035864260e-002
 3.265628579989210e-002	 1.224564643863177e+000	-4.426450922984137e-002
 2.173300919058682e-002	 1.224807199649169e+000	-4.815744649820797e-002
 1.084721707078885e-002	 1.224951973704298e+000	-4.372558436335337e-002
 0.000000000000000e+000	 1.225000000000000e+000	-3.107805994174422e-002
 1.123180473895901e-001	 1.244943635772666e+000	 1.288851235371391e-001
 1.009374997969171e-001	 1.245917983316647e+000	 5.606420086791790e-002
 8.958666635718569e-002	 1.246785558636688e+000	-6.521085539586677e-003
 7.826684560235818e-002	 1.247547314088946e+000	-5.891330182890540e-002
 6.697930988018169e-002	 1.248204218890639e+000	-1.011674618181074e-001
 5.572530520361981e-002	 1.248757258383706e+000	-1.333506754390800e-001
 4.450605112168756e-002	 1.249207433302222e+000	-1.555417838420154e-001
 3.332274061130324e-002	 1.249555759044168e+000	-1.678309823930904e-001
 2.217653998975738e-002	 1.249803264948180e+000	-1.703194327841210e-001
 1.106858884738389e-002	 1.249950993575827e+000	-1.631188654542542e-001
 0.000000000000000e+000	 1.250000000000000e+000	-1.463511735054916e-001
 1.250000000000000e+000	 0.000000000000000e+000	 1.997911427607888e+001
 1.249950993575827e+000	 1.106858884738393e-002	 2.000217120835610e+001
 1.249803264948180e+000	 2.217653998975746e-002	 2.001860022630179e+001
 1.249555759044169e+000	 3.332274061130316e-002	 2.002795240413845e+001
 1.249207433302221e+000	 4.450605112168753e-002	 2.002977423804446e+001
 1.248757258383706e+000	 5.572530520361980e-002	 2.002360810798650e+001
 1.248204218890639e+000	 6.697930988018173e-002	 2.000899275987225e+001
 1.247547314088946e+000	 7.826684560235826e-002	 1.998546380776146e+001
 1.246785558636687e+000	 8.958666635718562e-002	 1.995255425581660e+001
 1.245917983316646e+000	 1.009374997969170e-001	 1.990979503961695e+001
 1.244943635772666e+000	 1.123180473895901e-001	 1.985671558640002e+001
 1.275000000000000e+000	 0.000000000000000e+000	 1.928959008309956e+001
 1.274950013447356e+000	 1.128996062397897e-002	 1.931830682560079e+001
 1.274799330247192e+000	 2.262007078892803e-002	 1.934104148208461e+001
 1.274546874225160e+000	 3.398919542271432e-002	 1.935742584539623e+001
 1.274191581968459e+000	 4.539617214319854e-002	 1.936708235621082e+001
 1.273732403551682e+000	 5.683981130674506e-002	 1.936962387509500e+001
 1.273168303268888e+000	 6.831889607689813e-002	 1.936465345705397e+001
 1.272498260371322e+000	 7.983218251366328e-002	 1.935176412940906e+001
 1.271721269810203e+000	 9.137839968381828e-002	 1.933053867389155e+001
 1.270836342983972e+000	 1.029562497926623e-001	 1.930054941387802e+001
 1.269842508489349e+000	 1.145644083375946e-001	 1.926135800773159e+001
 1.300000000000000e+000	 0.000000000000000e+000	 1.866107424554138e+001
 1.299949033318879e+000	 1.151133240056925e-002	 1.869379349630749e+001
 1.299795395546183e+000	 2.306360158807946e-002	 1.872028404880678e+001
 1.299537989406108e+000	 3.465565023408224e-002	 1.874017521596794e+001
 1.299175730634619e+000	 4.628629316463247e-002	 1.875308675407066e+001
 1.298707548719537e+000	 5.795431740974946e-002	 1.875862861141550e+001
 1.298132387646963e+000	 6.965848227343988e-002	 1.875640067895443e+001
 1.297449206653458e+000	 8.139751942472973e-002	 1.874599254377259e+001
 1.296656980983405e+000	 9.317013301013835e-002	 1.872698324635547e+001
 1.295754702650900e+000	 1.049749997880106e-001	 1.869894104261983e+001
 1.294741381205540e+000	 1.168107692851074e-001	 1.866142317172846e+001
 1.325000000000000e+000	 0.000000000000000e+000	 1.809253326524680e+001
 1.324948053190397e+000	 1.173270417715475e-002	 1.812798319664817e+001
 1.324791460845157e+000	 2.350713238721176e-002	 1.815697623397259e+001
 1.324529104587013e+000	 3.532210504540698e-002	 1.817914068032028e+001
 1.324159879300702e+000	 4.717641418598934e-002	 1.819409507927024e+001
 1.323682693887272e+000	 5.906882351263301e-002	 1.820144793809469e+001
 1.323096472024863e+000	 7.099806846980700e-002	 1.820079745234921e+001
 1.322400152935356e+000	 8.296285633555769e-002	 1.819173123277657e+001
 1.321592692156295e+000	 9.496186633614581e-002	 1.817382603551045e+001
 1.320673062317432e+000	 1.069937497829620e-001	 1.814664749661210e+001
 1.319640253921239e+000	 1.190571302321284e-001	 1.810974987201946e+001
 1.350000000000000e+000	 0.000000000000000e+000	 1.758301019947730e+001
 1.349947073061912e+000	 1.195407595373549e-002	 1.761987636634902e+001
 1.349787526144111e+000	 2.395066318632493e-002	 1.765007580223157e+001
 1.349520219767875e+000	 3.598855985668854e-002	 1.767323730127168e+001
 1.349144027966708e+000	 4.806653520726913e-002	 1.768897969712491e+001
 1.348657839054886e+000	 6.018332961539571e-002	 1.769691155861462e+001
 1.348060556402588e+000	 7.233765466599949e-002	 1.769663088612003e+001
 1.347351099217016e+000	 8.452819324614716e-002	 1.768772480968149e+001
 1.346528403328873e+000	 9.675359966184070e-002	 1.766976928986318e+001
 1.345591421983566e+000	 1.090124997775164e-001	 1.764232882246458e+001
 1.344539126636447e+000	 1.213034911786578e-001	 1.760495614822190e+001
 1.375000000000000e+000	 0.000000000000000e+000	 1.713161770132975e+001
 1.374946092933421e+000	 1.217544773031147e-002	 1.716854136712739e+001
 1.374783591443046e+000	 2.439419398541897e-002	 1.719860679869148e+001
 1.374511334948693e+000	 3.665501466792687e-002	 1.722144481384814e+001
 1.374128176632636e+000	 4.895665622847185e-002	 1.723667607115832e+001
 1.373632984222379e+000	 6.129783571803756e-002	 1.724391073588426e+001
 1.373024640780139e+000	 7.367724086201738e-002	 1.724274814597533e+001
 1.372302045498437e+000	 8.609353015649812e-002	 1.723277647911433e+001
 1.371464114501138e+000	 9.854533298722303e-002	 1.721357242192068e+001
 1.370509781649304e+000	 1.110312497716739e-001	 1.718470084246330e+001
 1.369437999351162e+000	 1.235498521246955e-001	 1.714571446728919e+001
 1.400000000000000e+000	 0.000000000000000e+000	 1.673753180582257e+001
 1.399945112804926e+000	 1.239681950688268e-002	 1.677310841822826e+001
 1.399779656741962e+000	 2.483772478449388e-002	 1.680165363102029e+001
 1.399502450129468e+000	 3.732146947912201e-002	 1.682280185097904e+001
 1.399112325298488e+000	 4.984677724959750e-002	 1.683617712933390e+001
 1.398608129389751e+000	 6.241234182055857e-002	 1.684139279586212e+001
 1.397988725157516e+000	 7.501682705786059e-002	 1.683805109223350e+001
 1.397252991779620e+000	 8.765886706661052e-002	 1.682574280569643e+001
 1.396399825673091e+000	 1.003370663122927e-001	 1.680404690426160e+001
 1.395428141314644e+000	 1.130499997654344e-001	 1.677253017459963e+001
 1.394336872065386e+000	 1.257962130702414e-001	 1.673074686392714e+001
 1.425000000000000e+000	 0.000000000000000e+000	 1.639998637007804e+001
 1.424944132676425e+000	 1.261819128344913e-002	 1.643276417032540e+001
 1.424775722040858e+000	 2.528125558354965e-002	 1.645835577448476e+001
 1.424493565310201e+000	 3.798792429027395e-002	 1.647640077701439e+001
 1.424096473964263e+000	 5.073689827064606e-002	 1.648652822331442e+001
 1.423583274557002e+000	 6.352684792295871e-002	 1.648835620974488e+001
 1.422952809534717e+000	 7.635641325352920e-002	 1.648149148205008e+001
 1.422203938060564e+000	 8.922420397648445e-002	 1.646552903334231e+001
 1.421335536844730e+000	 1.021287996370498e-001	 1.644005170286333e+001
 1.420346500979588e+000	 1.150687497587979e-001	 1.640462977680648e+001
 1.419235744779119e+000	 1.280425740152957e-001	 1.635882059254563e+001
 1.450000000000000e+000	 0.000000000000000e+000	 1.611826808865824e+001
 1.449943152547921e+000	 1.283956306001081e-002	 1.614674684074297e+001
 1.449771787339736e+000	 2.572478638258629e-002	 1.616790302474360e+001
 1.449484680490890e+000	 3.865437910138269e-002	 1.618138305570574e+001
 1.449080622629961e+000	 5.162701929161755e-002	 1.618682260917764e+001
 1.448558419724132e+000	 6.464135402523800e-002	 1.618384618489511e+001
 1.447916893911744e+000	 7.769599944902315e-002	 1.617206666796626e+001
 1.447154884341269e+000	 9.078954088611986e-002	 1.615108488876879e+001
 1.446271248016057e+000	 1.039205329614944e-001	 1.612048918284344e+001
 1.445264860644134e+000	 1.170874997517645e-001	 1.607985495213584e+001
 1.444134617492359e+000	 1.302889349598582e-001	 1.602874422900816e+001
 1.475000000000000e+000	 0.000000000000000e+000	 1.589171201581586e+001
 1.474942172419411e+000	 1.306093483656772e-002	 1.591434184340043e+001
 1.474767852638594e+000	 2.616831718160380e-002	 1.592953123340755e+001
 1.474475795671536e+000	 3.932083391244823e-002	 1.593693508923999e+001
 1.474064771295581e+000	 5.251714031251197e-002	 1.593619738772002e+001
 1.473533564891141e+000	 6.575586012739645e-002	 1.592695070414920e+001
 1.472880978288596e+000	 7.903558564434252e-002	 1.590881573389315e+001
 1.472105830621736e+000	 9.235487779551677e-002	 1.588140081176604e+001
 1.471206959187071e+000	 1.057122662856263e-001	 1.584430143056643e+001
 1.470183220308284e+000	 1.191062497443342e-001	 1.579709976018930e+001
 1.469033490205108e+000	 1.325352959039290e-001	 1.573936416881372e+001
 1.500000000000000e+000	 0.000000000000000e+000	 1.571969753552002e+001
 1.499941192290897e+000	 1.328230661311987e-002	 1.573487785576293e+001
 1.499763917937433e+000	 2.661184798060218e-002	 1.574251847004328e+001
 1.499466910852138e+000	 3.998728872347057e-002	 1.574228447336978e+001
 1.499048919961125e+000	 5.340726133332932e-002	 1.573382985073024e+001
 1.498508710058030e+000	 6.687036622943404e-002	 1.571679696119462e+001
 1.497845062665274e+000	 8.037517183948720e-002	 1.569081601749759e+001
 1.497056776901965e+000	 9.392021470467514e-002	 1.565550456244137e+001
 1.496142670357773e+000	 1.075039996094457e-001	 1.561046694353983e+001
 1.495101579972036e+000	 1.211249997365068e-001	 1.555529378740561e+001
 1.493932362917365e+000	 1.347816568475081e-001	 1.548956147546055e+001
 1.244943635772666e+000	 1.123180473895901e-001	 1.985671558640002e+001
 1.243861581248701e+000	 1.237269845919664e-001	 1.986095683579437e+001
 1.242670903331058e+000	 1.351629610433850e-001	 1.985468680288301e+001
 1.241370704692402e+000	 1.466246007820463e-001	 1.983743591541645e+001
 1.239960107836013e+000	 1.581105024852513e-001	 1.980873512506733e+001
 1.238438255840743e+000	 1.696192397320706e-001	 1.976811654131170e+001
 1.236804313105527e+000	 1.811493612893029e-001	 1.971511408042709e+001
 1.235057466092679e+000	 1.926993914209579e-001	 1.964926412875811e+001
 1.233196924069199e+000	 2.042678302214702e-001	 1.957010621933797e+001
 1.231221919845279e+000	 2.158531539728274e-001	 1.947718372089305e+001
 1.229131710509183e+000	 2.274538155257646e-001	 1.937004453819581e+001
 1.269842508489349e+000	 1.145644083375946e-001	 1.926135800773159e+001
 1.268738812875140e+000	 1.262015242844133e-001	 1.928148686578468e+001
 1.267524321399351e+000	 1.378662202651446e-001	 1.929215582378768e+001
 1.266198118788100e+000	 1.495570927987517e-001	 1.929290839548507e+001
 1.264759309994731e+000	 1.612727125360804e-001	 1.928327663223162e+001
 1.263207020959674e+000	 1.730116245277816e-001	 1.926278094461893e+001
 1.261540399369842e+000	 1.847723485159893e-001	 1.923092993627810e+001
 1.259758615416796e+000	 1.965533792499918e-001	 1.918722025106170e+001
 1.257860862552874e+000	 2.083531868261117e-001	 1.913113643483178e+001
 1.255846358244472e+000	 2.201702170519753e-001	 1.906215081310029e+001
 1.253714344721621e+000	 2.320028918353312e-001	 1.897972338578628e+001
 1.294741381205540e+000	 1.168107692851074e-001	 1.866142317172846e+001
 1.293616044500996e+000	 1.286760639762829e-001	 1.868484697240032e+001
 1.292377739466991e+000	 1.405694794862700e-001	 1.869843435527677e+001
 1.291025532883092e+000	 1.524895848147953e-001	 1.870173589238652e+001
 1.289558512152712e+000	 1.644349225862496e-001	 1.869429056301696e+001
 1.287975786077856e+000	 1.764040093228645e-001	 1.867562554362959e+001
 1.286276485633416e+000	 1.883953357421090e-001	 1.864525600951183e+001
 1.284459764740199e+000	 2.004073670785510e-001	 1.860268494944226e+001
 1.282524801035884e+000	 2.124385434304009e-001	 1.854740299467315e+001
 1.280470796643069e+000	 2.244872801309241e-001	 1.847888826355828e+001
 1.278296978933551e+000	 2.365519681448832e-001	 1.839660622317438e+001
 1.319640253921239e+000	 1.190571302321284e-001	 1.810974987201946e+001
 1.318493276126270e+000	 1.311506036675752e-001	 1.813642850236164e+001
 1.317231157533977e+000	 1.432727387067614e-001	 1.815293427666066e+001
 1.315852946977380e+000	 1.554220768301773e-001	 1.815882588799078e+001
 1.314357714309955e+000	 1.675971326357590e-001	 1.815365027615160e+001
 1.312744551195288e+000	 1.797963941173191e-001	 1.813694238343778e+001
 1.311012571896248e+000	 1.920183229676621e-001	 1.810822492169059e+001
 1.309160914062888e+000	 2.042613549066355e-001	 1.806700815198620e+001
 1.307188739518228e+000	 2.165239000343379e-001	 1.801278967834751e+001
 1.305095235041069e+000	 2.288043432096740e-001	 1.794505425689344e+001
 1.302879613144973e+000	 2.411010444544205e-001	 1.786327362186364e+001
 1.344539126636447e+000	 1.213034911786578e-001	 1.760495614822190e+001
 1.343370507750963e+000	 1.336251433582901e-001	 1.763475317907088e+001
 1.342084575600310e+000	 1.459759979266187e-001	 1.765408085692970e+001
 1.340680361070962e+000	 1.583545688448975e-001	 1.766250710862687e+001
 1.339156916466462e+000	 1.707593426846085e-001	 1.765958791736530e+001
 1.337513316311972e+000	 1.831887789111455e-001	 1.764486704185877e+001
 1.335748658158338e+000	 1.956413101926485e-001	 1.761787574627866e+001
 1.333862063384863e+000	 2.081153427342453e-001	 1.757813254244951e+001
 1.331852677999906e+000	 2.206092566379227e-001	 1.752514294576727e+001
 1.329719673438472e+000	 2.331214062882248e-001	 1.745839924634567e+001
 1.327462247355889e+000	 2.456501207639431e-001	 1.737738029692368e+001
 1.369437999351162e+000	 1.235498521246955e-001	 1.714571446728919e+001
 1.368247739375074e+000	 1.360996830484277e-001	 1.717839981211167e+001
 1.366937993665990e+000	 1.486792571458420e-001	 1.720035918083065e+001
 1.365507775163839e+000	 1.612870608589561e-001	 1.721117089629246e+001
 1.363956118622232e+000	 1.739215527327983e-001	 1.721040111786792e+001
 1.362282081427904e+000	 1.865811637043437e-001	 1.719760352141385e+001
 1.360484744419686e+000	 1.992642974170683e-001	 1.717231898955581e+001
 1.358563212706124e+000	 2.119693305613802e-001	 1.713407531381832e+001
 1.356516616480918e+000	 2.246946132411550e-001	 1.708238691016908e+001
 1.354344111835277e+000	 2.374384693665766e-001	 1.701675454957901e+001
 1.352044881566296e+000	 2.501991970734510e-001	 1.693666510523190e+001
 1.394336872065386e+000	 1.257962130702414e-001	 1.673074686392714e+001
 1.393124970998602e+000	 1.385742227379879e-001	 1.676599920026849e+001
 1.391791411731016e+000	 1.513825163644311e-001	 1.679030880817413e+001
 1.390335189256011e+000	 1.642195528723529e-001	 1.680326561796932e+001
 1.388755320777263e+000	 1.770837627803282e-001	 1.680444714743154e+001
 1.387050846543088e+000	 1.899735484969136e-001	 1.679341813998168e+001
 1.385220830680293e+000	 2.028872846409216e-001	 1.676973021268752e+001
 1.383264362026671e+000	 2.158233183880405e-001	 1.673292151569936e+001
 1.381180554961265e+000	 2.287799698440352e-001	 1.668251640478156e+001
 1.378968550231487e+000	 2.417555324447294e-001	 1.661802512864389e+001
 1.376627515776197e+000	 2.547482733829443e-001	 1.653894353281212e+001
 1.419235744779119e+000	 1.280425740152957e-001	 1.635882059254563e+001
 1.418002202621548e+000	 1.410487624269708e-001	 1.639622957107046e+001
 1.416644829795389e+000	 1.540857755823860e-001	 1.642251899532024e+001
 1.415162603347478e+000	 1.671520448850881e-001	 1.643729166343163e+001
 1.413554522931558e+000	 1.802459728271983e-001	 1.644013768293777e+001
 1.411819611657523e+000	 1.933659332888553e-001	 1.643063406453897e+001
 1.409956916940157e+000	 2.065102718642082e-001	 1.640834432515608e+001
 1.407965511346504e+000	 2.196773062142261e-001	 1.637281810198475e+001
 1.405844493440946e+000	 2.328653264465631e-001	 1.632359077931735e+001
 1.403592988627099e+000	 2.460725955226832e-001	 1.626018312994333e+001
 1.401210149985591e+000	 2.592973496924230e-001	 1.618210097297988e+001
 1.444134617492359e+000	 1.302889349598582e-001	 1.602874422900816e+001
 1.442879434243912e+000	 1.435233021153764e-001	 1.606781249210652e+001
 1.441498247859109e+000	 1.567890347997069e-001	 1.609562441099342e+001
 1.439990017438240e+000	 1.700845368971616e-001	 1.611179696052262e+001
 1.438353725085115e+000	 1.834081828734085e-001	 1.611593411810962e+001
 1.436588376771206e+000	 1.967583180801687e-001	 1.610762641037618e+001
 1.434693003199280e+000	 2.101332590869281e-001	 1.608645046852649e+001
 1.432666660665624e+000	 2.235312940399370e-001	 1.605196859427587e+001
 1.430508431919961e+000	 2.369506830487386e-001	 1.600372833820720e+001
 1.428217427022115e+000	 2.503896586004381e-001	 1.594126209247865e+001
 1.425792784194477e+000	 2.638464260018870e-001	 1.586408669985178e+001
 1.469033490205108e+000	 1.325352959039290e-001	 1.573936416881372e+001
 1.467756665865694e+000	 1.459978418032046e-001	 1.577950919813893e+001
 1.466351665922175e+000	 1.594922940163938e-001	 1.580830128777681e+001
 1.464817431528297e+000	 1.730170289085734e-001	 1.582537294650470e+001
 1.463152927237936e+000	 1.865703929189589e-001	 1.583034335022000e+001
 1.461357141884141e+000	 2.001507028708540e-001	 1.582281783869814e+001
 1.459429089457661e+000	 2.137562463090815e-001	 1.580238742050731e+001
 1.457367809984029e+000	 2.273852818651730e-001	 1.576862828800973e+001
 1.455172370398310e+000	 2.410360396505620e-001	 1.572110134443770e+001
 1.452841865416533e+000	 2.547067216779938e-001	 1.565935174508685e+001
 1.450375418402855e+000	 2.683955023113362e-001	 1.558290845471850e+001
 1.493932362917365e+000	 1.347816568475081e-001	 1.548956147546055e+001
 1.492633897486894e+000	 1.484723814904555e-001	 1.553011728550553e+001
 1.491205083984588e+000	 1.621955532324464e-001	 1.555926395845754e+001
 1.489644845617648e+000	 1.759495209193235e-001	 1.557665094227446e+001
 1.487952129390018e+000	 1.897326029638494e-001	 1.558191398812923e+001
 1.486125906996327e+000	 2.035430876609109e-001	 1.557467459446454e+001
 1.484165175715299e+000	 2.173792335306682e-001	 1.555453945860542e+001
 1.482068959301720e+000	 2.312392696899344e-001	 1.552109993797275e+001
 1.479836308875994e+000	 2.451213962520329e-001	 1.547393152300492e+001
 1.477466303810354e+000	 2.590237847553505e-001	 1.541259332395446e+001
 1.474958052610726e+000	 2.729445786207708e-001	 1.533662757378029e+001
 1.229131710509183e+000	 2.274538155257646e-001	 1.937004453819581e+001
 1.226925578158476e+000	 2.390682447049866e-001	 1.936234468725312e+001
 1.224602830624363e+000	 2.506948487390461e-001	 1.933955155305348e+001
 1.222162802189878e+000	 2.623320127144961e-001	 1.930125226942220e+001
 1.219604854302598e+000	 2.739781000540935e-001	 1.924704208249831e+001
 1.216928376278658e+000	 2.856314530195621e-001	 1.917652507628988e+001
 1.214132785997951e+000	 2.972903932386898e-001	 1.908931490087498e+001
 1.211217530589605e+000	 3.089532222566900e-001	 1.898503550182042e+001
 1.208182087106841e+000	 3.206182221117184e-001	 1.886332184934556e+001
 1.205025963190290e+000	 3.322836559344021e-001	 1.872382066571761e+001
 1.201748697718857e+000	 3.439477685711992e-001	 1.856619114932702e+001
 1.253714344721621e+000	 2.320028918353312e-001	 1.897972338578628e+001
 1.251464089723864e+000	 2.438496095974737e-001	 1.900031378094102e+001
 1.249094887239062e+000	 2.557087457116228e-001	 1.899606403398365e+001
 1.246606058235910e+000	 2.675786529660630e-001	 1.895857081817974e+001
 1.243996951390936e+000	 2.794576620520075e-001	 1.890436136320554e+001
 1.241266943806600e+000	 2.913440820764148e-001	 1.883303254808826e+001
 1.238415441720392e+000	 3.032362010996293e-001	 1.874419168225436e+001
 1.235441881204021e+000	 3.151322866977697e-001	 1.863745726868151e+001
 1.232345728851775e+000	 3.270305865497552e-001	 1.851245976619322e+001
 1.229126482457096e+000	 3.389293290488261e-001	 1.836884234929361e+001
 1.225783671676468e+000	 3.508267239383701e-001	 1.820626166390060e+001
 1.278296978933551e+000	 2.365519681448832e-001	 1.839660622317438e+001
 1.276002601288834e+000	 2.486309744901317e-001	 1.842000324540614e+001
 1.273586943853415e+000	 2.607226426845269e-001	 1.842892089966204e+001
 1.271049314281647e+000	 2.728252932180848e-001	 1.842281315057755e+001
 1.268389048479013e+000	 2.849372240504741e-001	 1.840112141342756e+001
 1.265605511334292e+000	 2.970567111338884e-001	 1.836327449731683e+001
 1.262698097442573e+000	 3.091820089612281e-001	 1.830868857243907e+001
 1.259666231818150e+000	 3.213113511395163e-001	 1.823676716278753e+001
 1.256509370596372e+000	 3.334429509884361e-001	 1.814690116568569e+001
 1.253227001723497e+000	 3.455750021638406e-001	 1.803846889948822e+001
 1.249818645633586e+000	 3.577056793060471e-001	 1.790883792314925e+001
 1.302879613144973e+000	 2.411010444544205e-001	 1.786327362186364e+001
 1.300541112853388e+000	 2.534123393829606e-001	 1.788994999964310e+001
 1.298079000467422e+000	 2.657365396577586e-001	 1.790206248728752e+001
 1.295492570327091e+000	 2.780719334705617e-001	 1.789907274945624e+001
 1.292781145566826e+000	 2.904167860494936e-001	 1.788042928040334e+001
 1.289944078861733e+000	 3.027693401919827e-001	 1.784556730756624e+001
 1.286980753164496e+000	 3.151278168234856e-001	 1.779390871974114e+001
 1.283890582431992e+000	 3.274904155819297e-001	 1.772486202134579e+001
 1.280673012340635e+000	 3.398553154277612e-001	 1.763782231425764e+001
 1.277327520989495e+000	 3.522206752794460e-001	 1.753217130869788e+001
 1.273853619590210e+000	 3.645846346742306e-001	 1.740727736460829e+001
 1.327462247355889e+000	 2.456501207639431e-001	 1.737738029692368e+001
 1.325079624417525e+000	 2.581937042759605e-001	 1.740770954266563e+001
 1.322571057081084e+000	 2.707504366313178e-001	 1.742343360273883e+001
 1.319935826372240e+000	 2.833185737234933e-001	 1.742402246536963e+001
 1.317173242654377e+000	 2.958963480490658e-001	 1.740893227514127e+001
 1.314282646388924e+000	 3.084819692506980e-001	 1.737760519467030e+001
 1.311263408886161e+000	 3.210736246864023e-001	 1.732946929142637e+001
 1.308114933045548e+000	 3.336694800250099e-001	 1.726393845131923e+001
 1.304836654084563e+000	 3.462676798677304e-001	 1.718041232066662e+001
 1.301428040255088e+000	 3.588663483956419e-001	 1.707827627814039e+001
 1.297888593546341e+000	 3.714635900429203e-001	 1.695690143826654e+001
 1.352044881566296e+000	 2.501991970734510e-001	 1.693666510523190e+001
 1.349618135981244e+000	 2.629750691691311e-001	 1.697092513438787e+001
 1.347063113694399e+000	 2.757643336052045e-001	 1.699058268279428e+001
 1.344379082417094e+000	 2.885652139768798e-001	 1.699511674021739e+001
 1.341565339741666e+000	 3.013759100491908e-001	 1.698399172693320e+001
 1.338621213915864e+000	 3.141945983100343e-001	 1.695665731111181e+001
 1.335546064607567e+000	 3.270194325499778e-001	 1.691254825193946e+001
 1.332339283658817e+000	 3.398485444687569e-001	 1.685108427023125e+001
 1.329000295828156e+000	 3.526800443083437e-001	 1.677166994828065e+001
 1.325528559520278e+000	 3.655120215124286e-001	 1.667369466067647e+001
 1.321923567501977e+000	 3.783425454121162e-001	 1.655653253779706e+001
 1.376627515776197e+000	 2.547482733829443e-001	 1.653894353281212e+001
 1.374156647544547e+000	 2.677564340624728e-001	 1.657731995982983e+001
 1.371555170307368e+000	 2.807782305794187e-001	 1.660114142006286e+001
 1.368822338461654e+000	 2.938118542307212e-001	 1.660989663612538e+001
 1.365957436828692e+000	 3.068554720498686e-001	 1.660305898223436e+001
 1.362959781442553e+000	 3.199072273699914e-001	 1.658008625485304e+001
 1.359828720328715e+000	 3.329652404142124e-001	 1.654042046970280e+001
 1.356563634271800e+000	 3.460276089131709e-001	 1.648348768703377e+001
 1.353163937571413e+000	 3.590924087496012e-001	 1.640869786703771e+001
 1.349629078785063e+000	 3.721576946298060e-001	 1.631544475727402e+001
 1.345958541457119e+000	 3.852215007818184e-001	 1.620310581396047e+001
 1.401210149985591e+000	 2.592973496924230e-001	 1.618210097297988e+001
 1.398695159107433e+000	 2.725377989559853e-001	 1.622469011814321e+001
 1.396047226919992e+000	 2.857921275539604e-001	 1.625281745984119e+001
 1.393265594505920e+000	 2.990584944850176e-001	 1.626598223718014e+001
 1.390349533915456e+000	 3.123350340510991e-001	 1.626366750842109e+001
 1.387298348968993e+000	 3.256198564305694e-001	 1.624533987236379e+001
 1.384111376049604e+000	 3.389110482791060e-001	 1.621044921676755e+001
 1.380787984884495e+000	 3.522066733582516e-001	 1.615842849584167e+001
 1.377327579314336e+000	 3.655047731915028e-001	 1.608869353883403e+001
 1.373729598049444e+000	 3.788033677477741e-001	 1.600064289173556e+001
 1.369993515411769e+000	 3.921004561520270e-001	 1.589365769409923e+001
 1.425792784194477e+000	 2.638464260018870e-001	 1.586408669985178e+001
 1.423233670669902e+000	 2.773191638496688e-001	 1.591089833691060e+001
 1.420539283532269e+000	 2.908060245288296e-001	 1.594338785246819e+001
 1.417708850549892e+000	 3.043051347397688e-001	 1.596106583719113e+001
 1.414741631001958e+000	 3.178145960528825e-001	 1.596342581440104e+001
 1.411636916495182e+000	 3.313324854917684e-001	 1.594994390961220e+001
 1.408394031770235e+000	 3.448568561446586e-001	 1.592007854781114e+001
 1.405012335496905e+000	 3.583857378039990e-001	 1.587327018065997e+001
 1.401491221056923e+000	 3.719171376340487e-001	 1.580894104580384e+001
 1.397830117313421e+000	 3.854490408663329e-001	 1.572649496045373e+001
 1.394028489365924e+000	 3.989794115227418e-001	 1.562531715139776e+001
 1.450375418402855e+000	 2.683955023113362e-001	 1.558290845471850e+001
 1.447772182231955e+000	 2.821005287435232e-001	 1.563386832566831e+001
 1.445031340144201e+000	 2.958199215040264e-001	 1.567069317154187e+001
 1.442152106593569e+000	 3.095517749949748e-001	 1.569290582022262e+001
 1.439133728088196e+000	 3.232941580552186e-001	 1.570001109116139e+001
 1.435975484021120e+000	 3.370451145535882e-001	 1.569149541041232e+001
 1.432676687490608e+000	 3.508026640108701e-001	 1.566682645415206e+001
 1.429236686109027e+000	 3.645648022504133e-001	 1.562545282302038e+001
 1.425654862799175e+000	 3.783295020772385e-001	 1.556680374962099e+001
 1.421930636576994e+000	 3.920947139854825e-001	 1.549028884151391e+001
 1.418063463319586e+000	 4.058583668939629e-001	 1.539529786201455e+001
 1.474958052610726e+000	 2.729445786207708e-001	 1.533662757378029e+001
 1.472310693793589e+000	 2.868818936375483e-001	 1.539157969407701e+001
 1.469523396755786e+000	 3.008338184795506e-001	 1.543263222031446e+001
 1.466595362636951e+000	 3.147984152506358e-001	 1.545932115307254e+001
 1.463525825174173e+000	 3.287737200581074e-001	 1.547116348826238e+001
 1.460314051546808e+000	 3.427577436160288e-001	 1.546765677493706e+001
 1.456959343210722e+000	 3.567484718777407e-001	 1.544827870236306e+001
 1.453461036720863e+000	 3.707438666974944e-001	 1.541248671885400e+001
 1.449818504541093e+000	 3.847418665210725e-001	 1.535971768487069e+001
 1.446031155840162e+000	 3.987403871052225e-001	 1.528938756288629e+001
 1.442098437272754e+000	 4.127373222656903e-001	 1.520089114650081e+001
 1.201748697718857e+000	 3.439477685711992e-001	 1.856619114932702e+001
 1.198349861446522e+000	 3.556087872310357e-001	 1.853193206924040e+001
 1.194829057626238e+000	 3.672649221558912e-001	 1.848107685976727e+001
 1.191185922618588e+000	 3.789143673145656e-001	 1.841347433397967e+001
 1.187420126482944e+000	 3.905553011185041e-001	 1.832898903158772e+001
 1.183531373552289e+000	 4.021858871602736e-001	 1.822750174950591e+001
 1.179519402990089e+000	 4.138042749739844e-001	 1.810891005593092e+001
 1.175383989328324e+000	 4.254086008172057e-001	 1.797312878641311e+001
 1.171124942985806e+000	 4.369969884738850e-001	 1.782009052041101e+001
 1.166742110765889e+000	 4.485675500777414e-001	 1.764974603682947e+001
 1.162235376332733e+000	 4.601183869555650e-001	 1.746206474705981e+001
 1.225783671676468e+000	 3.508267239383701e-001	 1.820626166390060e+001
 1.222316858678915e+000	 3.627209629714752e-001	 1.817609256489202e+001
 1.218725638782410e+000	 3.746102205949435e-001	 1.812836740820040e+001
 1.215009641074747e+000	 3.864926546569513e-001	 1.806291047296800e+001
 1.211168529016486e+000	 3.983664071371730e-001	 1.797956263717875e+001
 1.207202001027270e+000	 4.102296049000268e-001	 1.787818195577895e+001
 1.203109791053832e+000	 4.220803604703061e-001	 1.775864422163402e+001
 1.198891669118793e+000	 4.339167728307314e-001	 1.762084350769169e+001
 1.194547441849339e+000	 4.457369282409293e-001	 1.746469268872816e+001
 1.190076952984894e+000	 4.575389010772937e-001	 1.729012394106547e+001
 1.185480083862899e+000	 4.693207546931507e-001	 1.709708921866500e+001
 1.249818645633586e+000	 3.577056793060471e-001	 1.790883792314925e+001
 1.246283855910719e+000	 3.698331387123256e-001	 1.788289542518571e+001
 1.242622219937908e+000	 3.819555190343213e-001	 1.783841187079102e+001
 1.238833359530156e+000	 3.940709419995868e-001	 1.777518655639726e+001
 1.234916931549213e+000	 4.061775131560257e-001	 1.769303628030785e+001
 1.230872628501380e+000	 4.182733226399084e-001	 1.759179596967751e+001
 1.226700179116658e+000	 4.303564459667101e-001	 1.747131928962101e+001
 1.222399348908308e+000	 4.424249448443034e-001	 1.733147923270559e+001
 1.217969940711893e+000	 4.544768680079942e-001	 1.717216868708715e+001
 1.213411795202904e+000	 4.665102520768511e-001	 1.699330098156207e+001
 1.208724791392063e+000	 4.785231224307363e-001	 1.679481040582344e+001
 1.273853619590210e+000	 3.645846346742306e-001	 1.740727736460829e+001
 1.270250853141934e+000	 3.769453144535873e-001	 1.742888306578859e+001
 1.266518801092730e+000	 3.893008174740247e-001	 1.743175074992930e+001
 1.262657077984815e+000	 4.016492293424723e-001	 1.741528399776790e+001
 1.258665334081123e+000	 4.139886191750625e-001	 1.737887325931019e+001
 1.254543255974616e+000	 4.263170403799179e-001	 1.732189597745280e+001
 1.250290567178565e+000	 4.386325314631961e-001	 1.724371674856258e+001
 1.245907028696869e+000	 4.509331168579217e-001	 1.710473492042771e+001
 1.241392439573468e+000	 4.632168077750798e-001	 1.694227446583240e+001
 1.236746637419919e+000	 4.754816030764137e-001	 1.675908859492011e+001
 1.231969498920228e+000	 4.877254901683218e-001	 1.655509369046675e+001
 1.297888593546341e+000	 3.714635900429203e-001	 1.695690143826654e+001
 1.294217850372561e+000	 3.840574901952600e-001	 1.698702593109337e+001
 1.290415382246879e+000	 3.966461159140538e-001	 1.699829945335789e+001
 1.286480796438724e+000	 4.092275166856075e-001	 1.699010239558235e+001
 1.282413736612218e+000	 4.217997251942834e-001	 1.696180074650713e+001
 1.278213883446981e+000	 4.343607581200554e-001	 1.691274620570705e+001
 1.273880955239555e+000	 4.469086169597642e-001	 1.684227633560307e+001
 1.269414708484477e+000	 4.594412888715863e-001	 1.674971475419896e+001
 1.264814938434065e+000	 4.719567475421860e-001	 1.663437136979758e+001
 1.260081479635940e+000	 4.844529540759814e-001	 1.649554265887014e+001
 1.255214206447393e+000	 4.969278579059074e-001	 1.633251198816258e+001
 1.321923567501977e+000	 3.783425454121162e-001	 1.655653253779706e+001
 1.318184847602598e+000	 3.911696659373439e-001	 1.659446594914750e+001
 1.314311963400354e+000	 4.039914143544086e-001	 1.661348454756272e+001
 1.310304514891883e+000	 4.168058040289927e-001	 1.661294622582309e+001
 1.306162139142497e+000	 4.296108312136883e-001	 1.659219313622848e+001
 1.301884510918475e+000	 4.424044758603211e-001	 1.655055179003235e+001
 1.297471343299627e+000	 4.551847024564147e-001	 1.648733319879702e+001
 1.292922388271131e+000	 4.679494608852973e-001	 1.640183305911041e+001
 1.288237437293681e+000	 4.806966873093128e-001	 1.629333198202592e+001
 1.283416321850965e+000	 4.934243050755543e-001	 1.616109576850109e+001
 1.278458913973558e+000	 5.061302256434931e-001	 1.600437573201657e+001
 1.345958541457119e+000	 3.852215007818184e-001	 1.620310581396047e+001
 1.342151844832046e+000	 3.982818416798387e-001	 1.624813414597379e+001
 1.338208544553154e+000	 4.113367127950889e-001	 1.627423419494025e+001
 1.334128233344292e+000	 4.243840913726279e-001	 1.628074205968428e+001
 1.329910541671960e+000	 4.374219372332774e-001	 1.626697669072136e+001
 1.325555138389096e+000	 4.504481936007150e-001	 1.623223997429221e+001
 1.321061731358781e+000	 4.634607879531474e-001	 1.617581686093269e+001
 1.316430068056832e+000	 4.764576328990545e-001	 1.609697554013721e+001
 1.311659936152318e+000	 4.894366270764602e-001	 1.599496766259124e+001
 1.306751164064996e+000	 5.023956560751325e-001	 1.586902861135715e+001
 1.301703621498723e+000	 5.153325933810786e-001	 1.571837782329895e+001
 1.369993515411769e+000	 3.921004561520270e-001	 1.589365769409923e+001
 1.366118842060906e+000	 4.053940174227450e-001	 1.594506064279045e+001
 1.362105125705279e+000	 4.186820112360948e-001	 1.597757349572790e+001
 1.357951951795950e+000	 4.319623787165129e-001	 1.599051127399916e+001
 1.353658944200606e+000	 4.452330432530503e-001	 1.598317037194119e+001
 1.349225765858845e+000	 4.584919113412369e-001	 1.595482862351392e+001
 1.344652119417017e+000	 4.717368734499621e-001	 1.590474541591430e+001
 1.339937747841579e+000	 4.849658049128580e-001	 1.583216185211408e+001
 1.335082435009975e+000	 4.981765668436283e-001	 1.573630096391676e+001
 1.330086006278031e+000	 5.113670070747157e-001	 1.561636797703355e+001
 1.324948329022888e+000	 5.245349611186642e-001	 1.547155062957414e+001
 1.394028489365924e+000	 3.989794115227418e-001	 1.562531715139776e+001
 1.390085839289178e+000	 4.125061931660621e-001	 1.568236611332208e+001
 1.386001706856731e+000	 4.260273096774265e-001	 1.572061613129376e+001
 1.381775670246859e+000	 4.395406660606480e-001	 1.573936187834018e+001
 1.377407346728437e+000	 4.530441492730074e-001	 1.573787785019769e+001
 1.372896393327723e+000	 4.665356290818869e-001	 1.571541841171925e+001
 1.368242507474335e+000	 4.800129589468590e-001	 1.567121789332095e+001
 1.363445427625372e+000	 4.934739769267080e-001	 1.560449073928113e+001
 1.358504933866653e+000	 5.069165066108170e-001	 1.551443170961560e+001
 1.353420848490073e+000	 5.203383580743043e-001	 1.540021613715100e+001
 1.348193036546053e+000	 5.337373288562498e-001	 1.526100024130840e+001
 1.418063463319586e+000	 4.058583668939629e-001	 1.539529786201455e+001
 1.414052836516859e+000	 4.196183689097904e-001	 1.545725410985821e+001
 1.409898288007508e+000	 4.333726081190837e-001	 1.550055685726080e+001
 1.405599388697018e+000	 4.471189534050328e-001	 1.552448117326135e+001
 1.401155749255452e+000	 4.608552552931484e-001	 1.552828032548054e+001
 1.396567020795728e+000	 4.745793468226650e-001	 1.551118580421309e+001
 1.391832895530736e+000	 4.882890444438381e-001	 1.547240739945123e+001
 1.386953107408211e+000	 5.019821489406043e-001	 1.541113333279184e+001
 1.381927432722353e+000	 5.156564463780266e-001	 1.532653044608478e+001
 1.376755690701119e+000	 5.293097090738979e-001	 1.521774444857380e+001
 1.371437744068218e+000	 5.429396965938355e-001	 1.508390022416602e+001
 1.442098437272754e+000	 4.127373222656903e-001	 1.520089114650081e+001
 1.438019833743952e+000	 4.267305446539297e-001	 1.526700415670628e+001
 1.433794869157610e+000	 4.407179065610665e-001	 1.531466474731919e+001
 1.429423107146426e+000	 4.546972407496674e-001	 1.534312914271651e+001
 1.424904151781651e+000	 4.686663613134735e-001	 1.535163006665294e+001
 1.420237648262862e+000	 4.826230645635711e-001	 1.533937674164313e+001
 1.415423283586218e+000	 4.965651299408992e-001	 1.530555494426314e+001
 1.410460787190097e+000	 5.104903209545468e-001	 1.524932711847033e+001
 1.405349931577071e+000	 5.243963861452563e-001	 1.516983254893987e+001
 1.400090532911170e+000	 5.382810600734965e-001	 1.506618759630640e+001
 1.394682451589383e+000	 5.521420643314209e-001	 1.493748599607651e+001
 1.162235376332733e+000	 4.601183869555650e-001	 1.746206474705981e+001
 1.157604660665571e+000	 4.716475904904681e-001	 1.742983891362117e+001
 1.152849922489192e+000	 4.831532430025667e-001	 1.738110212988114e+001
 1.147971158680544e+000	 4.946334186475060e-001	 1.731611802760177e+001
 1.142968404651232e+000	 5.060861843335418e-001	 1.723517252353379e+001
 1.137841734704207e+000	 5.175096006544983e-001	 1.713857388778358e+001
 1.132591262364247e+000	 5.289017228384254e-001	 1.702665277536046e+001
 1.127217140681487e+000	 5.402606017111222e-001	 1.689976221998172e+001
 1.121719562507361e+000	 5.515842846736661e-001	 1.675827758928913e+001
 1.116098760742258e+000	 5.628708166930497e-001	 1.660259650070932e+001
 1.110355008554307e+000	 5.741182413050000e-001	 1.643313869727685e+001
 1.185480083862899e+000	 4.693207546931507e-001	 1.709708921866500e+001
 1.180756753882166e+000	 4.810805422992081e-001	 1.707411474241919e+001
 1.175906920941978e+000	 4.928163078619169e-001	 1.703266381669338e+001
 1.170930581856822e+000	 5.045260870200348e-001	 1.697295127372278e+001
 1.165827772746534e+000	 5.162079080199821e-001	 1.689521591954786e+001
 1.160598569400124e+000	 5.278597926674589e-001	 1.679972067809356e+001
 1.155243087612864e+000	 5.394797572950756e-001	 1.668675269666120e+001
 1.149761483495895e+000	 5.510658137451469e-001	 1.655662341174269e+001
 1.144153953757676e+000	 5.626159703667710e-001	 1.640966857414531e+001
 1.138420735956604e+000	 5.741282330262804e-001	 1.624624823249678e+001
 1.132562108724172e+000	 5.856006061301156e-001	 1.606674667428913e+001
 1.208724791392063e+000	 4.785231224307363e-001	 1.679481040582344e+001
 1.203908847097765e+000	 4.905134941079478e-001	 1.677882048128300e+001
 1.198963919393784e+000	 5.024793727212670e-001	 1.674238817164730e+001
 1.193890005032144e+000	 5.144187553925634e-001	 1.668568054459744e+001
 1.188687140840915e+000	 5.263296317064223e-001	 1.660889036498796e+001
 1.183355404095164e+000	 5.382099846804194e-001	 1.651223631441759e+001
 1.177894912860660e+000	 5.500577917517258e-001	 1.639596317037368e+001
 1.172305826309544e+000	 5.618710257791714e-001	 1.626034194369194e+001
 1.166588345007307e+000	 5.736476560598759e-001	 1.610566997315268e+001
 1.160742711170352e+000	 5.853856493595110e-001	 1.593227097611891e+001
 1.154769208893534e+000	 5.970829709552312e-001	 1.574049505421396e+001
 1.231969498920228e+000	 4.877254901683218e-001	 1.655509369046675e+001
 1.227060940312370e+000	 4.999464459166876e-001	 1.654399481521127e+001
 1.222020917844610e+000	 5.121424375806171e-001	 1.651048401206234e+001
 1.216849428206511e+000	 5.243114237650922e-001	 1.645468152318897e+001
 1.211546508934373e+000	 5.364513553928625e-001	 1.637673504749159e+001
 1.206112238789327e+000	 5.485601766933799e-001	 1.627682003554853e+001
 1.200546738107633e+000	 5.606358262083758e-001	 1.615513994222659e+001
 1.194850169122436e+000	 5.726762378131960e-001	 1.601192643552626e+001
 1.189022736256255e+000	 5.846793417529809e-001	 1.584743956031420e+001
 1.183064686383501e+000	 5.966430656927415e-001	 1.566196785568325e+001
 1.176976309062392e+000	 6.085653357803470e-001	 1.545582842477514e+001
 1.255214206447393e+000	 4.969278579059074e-001	 1.633251198816258e+001
 1.250213033525979e+000	 5.093793977254275e-001	 1.636801054143659e+001
 1.245077916294455e+000	 5.218055024399673e-001	 1.633724420963658e+001
 1.239808851379921e+000	 5.342040921376210e-001	 1.628040281511253e+001
 1.234405877026911e+000	 5.465730790793026e-001	 1.619935111977624e+001
 1.228869073482613e+000	 5.589103687063404e-001	 1.609422226793372e+001
 1.223198563353783e+000	 5.712138606650258e-001	 1.596517935425624e+001
 1.217394511934570e+000	 5.834814498472206e-001	 1.581241570384817e+001
 1.211457127504519e+000	 5.957110274460857e-001	 1.563615510487724e+001
 1.205386661596051e+000	 6.079004820259722e-001	 1.543665199233977e+001
 1.199183409230746e+000	 6.200477006054626e-001	 1.521419158163231e+001
 1.278458913973558e+000	 5.061302256434931e-001	 1.600437573201657e+001
 1.273365126738593e+000	 5.188123495341673e-001	 1.605376447965695e+001
 1.268134914743319e+000	 5.314685672993174e-001	 1.607419535058315e+001
 1.262768274552376e+000	 5.440967605101496e-001	 1.606495007753263e+001
 1.257265245118527e+000	 5.566948027657428e-001	 1.602530171626436e+001
 1.251625908175022e+000	 5.692605607193009e-001	 1.595451517695620e+001
 1.245850388599110e+000	 5.817918951216762e-001	 1.582701465423298e+001
 1.239938854745945e+000	 5.942866618812452e-001	 1.566287601699254e+001
 1.233891518752100e+000	 6.067427131391907e-001	 1.547301255358413e+001
 1.227708636808002e+000	 6.191578983592028e-001	 1.525764559545893e+001
 1.221390509398596e+000	 6.315300654305784e-001	 1.515758389618588e+001
 1.301703621498723e+000	 5.153325933810786e-001	 1.571837782329895e+001
 1.296517219950213e+000	 5.282453013429074e-001	 1.577976608838881e+001
 1.291191913191203e+000	 5.411316321586674e-001	 1.581121884645735e+001
 1.285727697723875e+000	 5.539894288826783e-001	 1.581195159636177e+001
 1.280124613209222e+000	 5.668165264521831e-001	 1.578117008051214e+001
 1.274382742866553e+000	 5.796107527322615e-001	 1.571807086697361e+001
 1.268502213843616e+000	 5.923699295783262e-001	 1.562184198095014e+001
 1.262483197556562e+000	 6.050918739152698e-001	 1.549166358595380e+001
 1.256325909998997e+000	 6.177743988322956e-001	 1.532670871481835e+001
 1.250030612019355e+000	 6.304153146924334e-001	 1.522676513808093e+001
 1.243597609565942e+000	 6.430124302556941e-001	 1.521629739814501e+001
 1.324948329022888e+000	 5.245349611186642e-001	 1.547155062957414e+001
 1.319669313160837e+000	 5.376782531516471e-001	 1.554314430261950e+001
 1.314248911638107e+000	 5.507946970180175e-001	 1.558390106517866e+001
 1.308687120894417e+000	 5.638820972552072e-001	 1.559297094983903e+001
 1.302983981298996e+000	 5.769382501386233e-001	 1.556949305930145e+001
 1.297139577557208e+000	 5.899609447452219e-001	 1.551259619733622e+001
 1.291154039087298e+000	 6.029479640349764e-001	 1.542139955280901e+001
 1.285027540366421e+000	 6.158970859492943e-001	 1.529501343708267e+001
 1.278760301245211e+000	 6.288060845254007e-001	 1.519164101764205e+001
 1.272352587230109e+000	 6.416727310256640e-001	 1.520628852687234e+001
 1.265804709732784e+000	 6.544947950808098e-001	 1.520515431601766e+001
 1.348193036546053e+000	 5.337373288562498e-001	 1.526100024130840e+001
 1.342821406370466e+000	 5.471112049603871e-001	 1.534109386943354e+001
 1.337305910084030e+000	 5.604577618773678e-001	 1.538952570272221e+001
 1.331646544064004e+000	 5.737747656277359e-001	 1.540538102816393e+001
 1.325843349387847e+000	 5.870599738250635e-001	 1.538773293391484e+001
 1.319896412246986e+000	 6.003111367581824e-001	 1.533564298727749e+001
 1.313805864330157e+000	 6.135259984916264e-001	 1.524816196959135e+001
 1.307571883175522e+000	 6.267022979833189e-001	 1.514570249995757e+001
 1.301194692490741e+000	 6.398377702185055e-001	 1.516163943890901e+001
 1.294674562440264e+000	 6.529301473588947e-001	 1.516097344091921e+001
 1.288011809899122e+000	 6.659771599059257e-001	 1.514364750605324e+001
 1.371437744068218e+000	 5.429396965938355e-001	 1.508390022416602e+001
 1.365973499579100e+000	 5.565441567691268e-001	 1.517086977071572e+001
 1.360362908528973e+000	 5.701208267367179e-001	 1.522542955181101e+001
 1.354605967232635e+000	 5.836674340002646e-001	 1.524660078642545e+001
 1.348702717475778e+000	 5.971816975115036e-001	 1.523339112867873e+001
 1.342653246935887e+000	 6.106613287711430e-001	 1.518479539102692e+001
 1.336457689572195e+000	 6.241040329482767e-001	 1.509979632836026e+001
 1.330116225983865e+000	 6.375075100173437e-001	 1.510801128460439e+001
 1.323629083735587e+000	 6.508694559116105e-001	 1.510757312016963e+001
 1.316996537649820e+000	 6.641875636921253e-001	 1.508973702848184e+001
 1.310218910064956e+000	 6.774595247310413e-001	 1.505442048955427e+001
 1.394682451589383e+000	 5.521420643314209e-001	 1.493748599607651e+001
 1.389125592786738e+000	 5.659771085778665e-001	 1.502978220358498e+001
 1.383419906972935e+000	 5.797838915960679e-001	 1.508899807718715e+001
 1.377565390400310e+000	 5.935601023727932e-001	 1.511409140586135e+001
 1.371562085562787e+000	 6.073034211979437e-001	 1.510400494904319e+001
 1.365410081623910e+000	 6.210115207841032e-001	 1.505766720322698e+001
 1.359109514813409e+000	 6.346820674049267e-001	 1.504758605548769e+001
 1.352660568791450e+000	 6.483127220513680e-001	 1.504695573851336e+001
 1.346063474979750e+000	 6.619011416047153e-001	 1.502829782927356e+001
 1.339318512858777e+000	 6.754449800253558e-001	 1.499150222664756e+001
 1.332426010230286e+000	 6.889418895561570e-001	 1.493646220027757e+001
 1.110355008554307e+000	 5.741182413050000e-001	 1.643313869727685e+001
 1.104488619568381e+000	 5.853246016274840e-001	 1.622559421224327e+001
 1.098499948025727e+000	 5.964879413854604e-001	 1.599139948416714e+001
 1.092389388913029e+000	 6.076063059449270e-001	 1.573065764360692e+001
 1.086157378059845e+000	 6.186777433540813e-001	 1.544350350245527e+001
 1.079804392204921e+000	 6.297003053920891e-001	 1.528162641344096e+001
 1.073330949030676e+000	 6.406720486238723e-001	 1.530318031857708e+001
 1.066737607165498e+000	 6.515910354597978e-001	 1.530709512933306e+001
 1.060024966153559e+000	 6.624553352191411e-001	 1.529309002003842e+001
 1.053193666391865e+000	 6.732630251961720e-001	 1.526087920188106e+001
 1.046244389034349e+000	 6.840121917276982e-001	 1.521017227958519e+001
 1.132562108724172e+000	 5.856006061301156e-001	 1.606674667428913e+001
 1.126578391957822e+000	 5.970310936587155e-001	 1.582890769669321e+001
 1.120469946983697e+000	 6.084177002116507e-001	 1.556516691050106e+001
 1.114237176688216e+000	 6.197584320622394e-001	 1.527568350250490e+001
 1.107880525617529e+000	 6.310512982196435e-001	 1.514591843728134e+001
 1.101400480045157e+000	 6.422943114986126e-001	 1.515901499119591e+001
 1.094797568007167e+000	 6.534854895953679e-001	 1.515711110919520e+001
 1.088072359304516e+000	 6.646228561684842e-001	 1.513996534896773e+001
 1.081225465472260e+000	 6.757044419236228e-001	 1.510732790037797e+001
 1.074257539715344e+000	 6.867282857009389e-001	 1.505894085324037e+001
 1.067169276810782e+000	 6.976924355639771e-001	 1.499453850732096e+001
 1.154769208893534e+000	 5.970829709552312e-001	 1.574049505421396e+001
 1.148668164346859e+000	 6.087375856899423e-001	 1.547487711784778e+001
 1.142439945941363e+000	 6.203474590378212e-001	 1.518400431104002e+001
 1.136084964463200e+000	 6.319105581795071e-001	 1.506669244919513e+001
 1.129603673175110e+000	 6.434248530851265e-001	 1.506799443482240e+001
 1.122996567885389e+000	 6.548883176050128e-001	 1.505685823717448e+001
 1.116264186983754e+000	 6.662989305666855e-001	 1.503308671076744e+001
 1.109407111443731e+000	 6.776546768769278e-001	 1.499647101714243e+001
 1.102425964791257e+000	 6.889535486277865e-001	 1.494679079429673e+001
 1.095321413039221e+000	 7.001935462053034e-001	 1.488381437351310e+001
 1.088094164587713e+000	 7.113726793997586e-001	 1.480729904391550e+001
 1.176976309062392e+000	 6.085653357803470e-001	 1.545582842477514e+001
 1.170757936735493e+000	 6.204440777211642e-001	 1.516481648242028e+001
 1.164409944898726e+000	 6.322772178639721e-001	 1.504267140237471e+001
 1.157932752237980e+000	 6.440626842967306e-001	 1.502880431184274e+001
 1.151326820732586e+000	 6.557984079505305e-001	 1.500498578422173e+001
 1.144592655725618e+000	 6.674823237112890e-001	 1.497106795810780e+001
 1.137730805960439e+000	 6.791123715378249e-001	 1.492688804170368e+001
 1.130741863583143e+000	 6.906864975851285e-001	 1.487226837447377e+001
 1.123626464110552e+000	 7.022026553316328e-001	 1.480701654107602e+001
 1.116385286363495e+000	 7.136588067092652e-001	 1.473092553821766e+001
 1.109019052365140e+000	 7.250529232350426e-001	 1.464377399491539e+001
 1.199183409230746e+000	 6.200477006054626e-001	 1.521419158163231e+001
 1.192847709123722e+000	 6.321505697523810e-001	 1.507306695249856e+001
 1.186379943855785e+000	 6.442069766901034e-001	 1.504060954165465e+001
 1.179780540012556e+000	 6.562148104139098e-001	 1.500061210339869e+001
 1.173049968289960e+000	 6.681719628158557e-001	 1.495298111766702e+001
 1.166188743565844e+000	 6.800763298174419e-001	 1.489760499326100e+001
 1.159197424937220e+000	 6.919258125087859e-001	 1.483435401233392e+001
 1.152076615722752e+000	 7.037183182930862e-001	 1.476308033170989e+001
 1.144826963430145e+000	 7.154517620351616e-001	 1.468361804202200e+001
 1.137449159688166e+000	 7.271240672128245e-001	 1.459578328548313e+001
 1.129943940143065e+000	 7.387331670698292e-001	 1.449937443292270e+001
 1.221390509398596e+000	 6.315300654305784e-001	 1.515758389618588e+001
 1.214937481511548e+000	 6.438570617835928e-001	 1.510306029577592e+001
 1.208349942812540e+000	 6.561367355162149e-001	 1.504333220969017e+001
 1.201628327786929e+000	 6.683669365310445e-001	 1.497836558086602e+001
 1.194773115847230e+000	 6.805455176811016e-001	 1.490810524667553e+001
 1.187784831406066e+000	 6.926703359234709e-001	 1.483247475692999e+001
 1.180664043914098e+000	 7.047392534795689e-001	 1.475137625291547e+001
 1.173411367862558e+000	 7.167501390008013e-001	 1.466469040880923e+001
 1.166027462750034e+000	 7.287008687383725e-001	 1.457227643664540e+001
 1.158513033013234e+000	 7.405893277159817e-001	 1.447397215581155e+001
 1.150868827921487e+000	 7.524134109041186e-001	 1.436959412786252e+001
 1.243597609565942e+000	 6.430124302556941e-001	 1.521629739814501e+001
 1.237027253898969e+000	 6.555635538147999e-001	 1.513322470413447e+001
 1.230319941768991e+000	 6.680664943423066e-001	 1.504723657777033e+001
 1.223476115561098e+000	 6.805190626481350e-001	 1.495833958028010e+001
 1.216496263404397e+000	 6.929190725462686e-001	 1.486651593179698e+001
 1.209380919246285e+000	 7.052643420293766e-001	 1.477172325852814e+001
 1.202130662891074e+000	 7.175526944501734e-001	 1.467389440649662e+001
 1.194746120002561e+000	 7.297819597082732e-001	 1.457293732340379e+001
 1.187227962070220e+000	 7.419499754412662e-001	 1.446873500996453e+001
 1.179576906338700e+000	 7.540545882187365e-001	 1.436114554186610e+001
 1.171793715700407e+000	 7.660936547379107e-001	 1.425000216329322e+001
 1.265804709732784e+000	 6.544947950808098e-001	 1.520515431601766e+001
 1.259117026285987e+000	 6.672700458460021e-001	 1.512880124428601e+001
 1.252289940725138e+000	 6.799962531683786e-001	 1.504249276862294e+001
 1.245323903335064e+000	 6.926711887651810e-001	 1.493683181679349e+001
 1.238219410961460e+000	 7.052926274113568e-001	 1.482440099234739e+001
 1.230977007086501e+000	 7.178583481351587e-001	 1.471143354161082e+001
 1.223597281868146e+000	 7.303661354205999e-001	 1.459789191726812e+001
 1.216080872142761e+000	 7.428137804155025e-001	 1.448371014889803e+001
 1.208428461390704e+000	 7.551990821438422e-001	 1.436879374114484e+001
 1.200640779664564e+000	 7.675198487210888e-001	 1.425301964880781e+001
 1.192718603479824e+000	 7.797738985712054e-001	 1.413623632994747e+001
 1.288011809899122e+000	 6.659771599059257e-001	 1.514364750605324e+001
 1.281206798672601e+000	 6.789765378771995e-001	 1.506044336171565e+001
 1.274259939680982e+000	 6.919260119944312e-001	 1.496879854547089e+001
 1.267171691108826e+000	 7.048233148821825e-001	 1.486889421945072e+001
 1.259942558518420e+000	 7.176661822763658e-001	 1.476090906869710e+001
 1.252573094926714e+000	 7.304523542408169e-001	 1.464501893472157e+001
 1.245063900845315e+000	 7.431795763908483e-001	 1.451939225460274e+001
 1.237415624283158e+000	 7.558456011224888e-001	 1.439294397345374e+001
 1.229628960711485e+000	 7.684481888461004e-001	 1.426830441607240e+001
 1.221704652990824e+000	 7.809851092230388e-001	 1.414536807942482e+001
 1.213643491259739e+000	 7.934541424040027e-001	 1.402399720269957e+001
 1.310218910064956e+000	 6.774595247310413e-001	 1.505442048955427e+001
 1.303296571058811e+000	 6.906830299083917e-001	 1.496584502350791e+001
 1.296229938636522e+000	 7.038557708204640e-001	 1.487032712316360e+001
 1.289019478882384e+000	 7.169754409991397e-001	 1.476809031100024e+001
 1.281665706075276e+000	 7.300397371412960e-001	 1.465935416523671e+001
 1.274169182766923e+000	 7.430463603463516e-001	 1.454433388888804e+001
 1.266530519822581e+000	 7.559930173609184e-001	 1.442323988964723e+001
 1.258750376423753e+000	 7.688774218292324e-001	 1.429627737176658e+001
 1.250829460032563e+000	 7.816972955480412e-001	 1.416364594108920e+001
 1.242768526317482e+000	 7.944503697245862e-001	 1.403401696992665e+001
 1.234568379040151e+000	 8.071343862363026e-001	 1.390904281987574e+001
 1.332426010230286e+000	 6.889418895561570e-001	 1.493646220027757e+001
 1.325386343444616e+000	 7.023895219395790e-001	 1.484389897349834e+001
 1.318199937591758e+000	 7.157855296464768e-001	 1.474587765570483e+001
 1.310867266655738e+000	 7.291275671160524e-001	 1.464266359522008e+001
 1.303388853632028e+000	 7.424132920061468e-001	 1.453451671950204e+001
 1.295765270607128e+000	 7.556403664517626e-001	 1.442169103978812e+001
 1.287997138799943e+000	 7.688064583308102e-001	 1.430443416835168e+001
 1.280085128564544e+000	 7.819092425357328e-001	 1.418298684968617e+001
 1.272029959353938e+000	 7.949464022496643e-001	 1.405758250690869e+001
 1.263832399644536e+000	 8.079156302257311e-001	 1.392844680463946e+001
 1.255493266821059e+000	 8.208146300681053e-001	 1.379579722957826e+001
 1.046244389034349e+000	 6.840121917276982e-001	 1.521017227958519e+001
 1.039177855863086e+000	 6.947009312609056e-001	 1.498951601017047e+001
 1.031994829125725e+000	 7.053273514202587e-001	 1.476672597782659e+001
 1.024696111339581e+000	 7.158895720722920e-001	 1.454188747482924e+001
 1.017282545062913e+000	 7.263857263871184e-001	 1.431506932374944e+001
 1.009755012632604e+000	 7.368139618953941e-001	 1.408632394358854e+001
 1.002114435868594e+000	 7.471724415395481e-001	 1.385568746561273e+001
 9.943617757451817e-001	 7.574593447180577e-001	 1.362317989883486e+001
 9.864980320293814e-001	 7.676728683215579e-001	 1.338880534493061e+001
 9.785242428865573e-001	 7.778112277595842e-001	 1.315255226221042e+001
 9.704414844536136e-001	 7.878726579767392e-001	 1.291439377810518e+001
 1.067169276810782e+000	 6.976924355639771e-001	 1.499453850732096e+001
 1.059961412976264e+000	 7.085949498887223e-001	 1.478237969087208e+001
 1.052634725704365e+000	 7.194338984519827e-001	 1.456883621968008e+001
 1.045190033562748e+000	 7.302073635176232e-001	 1.435399884677271e+001
 1.037628195960835e+000	 7.409134409191583e-001	 1.413794002006319e+001
 1.029950112882250e+000	 7.515502411378571e-001	 1.392071394603493e+001
 1.022156724583329e+000	 7.621158903749966e-001	 1.370235670722432e+001
 1.014249011257858e+000	 7.726085316170229e-001	 1.348288643346429e+001
 1.006227992668192e+000	 7.830263256923840e-001	 1.326230352667839e+001
 9.980947277430011e-001	 7.933674523188058e-001	 1.304059093883744e+001
 9.898503141419284e-001	 8.036301111397820e-001	 1.281771450251558e+001
 1.088094164587713e+000	 7.113726793997586e-001	 1.480729904391550e+001
 1.080744970090029e+000	 7.224889685159561e-001	 1.460468328610412e+001
 1.073274622283663e+000	 7.335404454830685e-001	 1.440149237010052e+001
 1.065683955786622e+000	 7.445251549622907e-001	 1.419782102951792e+001
 1.057973846859497e+000	 7.554411554505388e-001	 1.399374375350180e+001
 1.050145213132646e+000	 7.662865203796949e-001	 1.378931484947654e+001
 1.042199013298805e+000	 7.770593392098841e-001	 1.358456856399954e+001
 1.034136246771246e+000	 7.877577185155216e-001	 1.337951926169994e+001
 1.025957953307663e+000	 7.983797830628682e-001	 1.317416166209073e+001
 1.017665212600036e+000	 8.089236768778395e-001	 1.296847113385514e+001
 1.009259143830745e+000	 8.193875643028223e-001	 1.276240404601859e+001
 1.109019052365140e+000	 7.250529232350426e-001	 1.464377399491539e+001
 1.101528527204382e+000	 7.363829871426078e-001	 1.445167771305863e+001
 1.093914518863618e+000	 7.476469925135163e-001	 1.425987877662426e+001
 1.086177878011206e+000	 7.588429464062945e-001	 1.406847443686043e+001
 1.078319497758898e+000	 7.699688699812599e-001	 1.387753965447445e+001
 1.070340313383791e+000	 7.810227996209072e-001	 1.368712716293875e+001
 1.062241302015021e+000	 7.920027880442104e-001	 1.349726759442974e+001
 1.054023482285344e+000	 8.029069054135536e-001	 1.330796966838933e+001
 1.045687913947796e+000	 8.137332404330099e-001	 1.311922044249557e+001
 1.037235697457663e+000	 8.244799014366857e-001	 1.293098562562832e+001
 1.028667973520062e+000	 8.351450174658596e-001	 1.274320995221178e+001
 1.129943940143065e+000	 7.387331670698292e-001	 1.449937443292270e+001
 1.122312084319322e+000	 7.502770057686764e-001	 1.431871013468573e+001
 1.114554415444232e+000	 7.617535395433264e-001	 1.413928129279308e+001
 1.106671800236498e+000	 7.731607378496349e-001	 1.396118622783480e+001
 1.098665148659037e+000	 7.844965845113217e-001	 1.378449881429354e+001
 1.090535413635685e+000	 7.957590788614946e-001	 1.360926854589312e+001
 1.082283590731976e+000	 8.069462368779760e-001	 1.343552066832869e+001
 1.073910717800152e+000	 8.180560923111190e-001	 1.326325637937586e+001
 1.065417874588589e+000	 8.290866978028094e-001	 1.309245309616240e+001
 1.056806182315880e+000	 8.400361259953445e-001	 1.292306478916908e+001
 1.048076803209881e+000	 8.509024706288946e-001	 1.275502238230975e+001
 1.150868827921487e+000	 7.524134109041186e-001	 1.436959412786252e+001
 1.143095641434849e+000	 7.641710243941629e-001	 1.420121521007948e+001
 1.135194312025504e+000	 7.758600865724983e-001	 1.403507805033529e+001
 1.127165722462498e+000	 7.874785292923112e-001	 1.387128060260208e+001
 1.119010799559916e+000	 7.990242990407239e-001	 1.370989410691060e+001
 1.110730513888330e+000	 8.104953581014568e-001	 1.355096315821656e+001
 1.102325879449672e+000	 8.218896857111800e-001	 1.339450584762142e+001
 1.093797953315672e+000	 8.332052792082176e-001	 1.324051397595409e+001
 1.085147835230044e+000	 8.444401551722669e-001	 1.308895333948952e+001
 1.076376667174689e+000	 8.555923505538158e-001	 1.293976408735058e+001
 1.067485632900202e+000	 8.666599237919267e-001	 1.279286114990644e+001
 1.171793715700407e+000	 7.660936547379107e-001	 1.425000216329322e+001
 1.163879198550964e+000	 7.780650430190667e-001	 1.409470728232167e+001
 1.155834208607433e+000	 7.899666336010324e-001	 1.394273122004214e+001
 1.147659644689206e+000	 8.017963207343239e-001	 1.379417013806320e+001
 1.139356450461533e+000	 8.135520135694664e-001	 1.364909110118074e+001
 1.130925614141723e+000	 8.252316373407934e-001	 1.350753215122673e+001
 1.122368168168108e+000	 8.368331345438235e-001	 1.336950245847734e+001
 1.113685188831901e+000	 8.483544661048493e-001	 1.323498255063276e+001
 1.104877795872159e+000	 8.597936125413822e-001	 1.310392461913545e+001
 1.095947152034089e+000	 8.711485751120996e-001	 1.297625290234866e+001
 1.086894462591023e+000	 8.824173769549563e-001	 1.285186414487008e+001
 1.192718603479824e+000	 7.797738985712054e-001	 1.413623632994747e+001
 1.184662755667667e+000	 7.919590616433879e-001	 1.399477338865871e+001
 1.176474105190020e+000	 8.040731806289283e-001	 1.385777963991984e+001
 1.168153566916623e+000	 8.161141121756732e-001	 1.372534803551360e+001
 1.159702101363889e+000	 8.280797280975500e-001	 1.359753992973081e+001
 1.151120714395866e+000	 8.399679165795049e-001	 1.347438515966086e+001
 1.142410456887284e+000	 8.517765833759058e-001	 1.335588220848165e+001
 1.133572424348841e+000	 8.635036530010146e-001	 1.324199845176553e+001
 1.124607756514936e+000	 8.751470699101549e-001	 1.313267048655764e+001
 1.115517636894080e+000	 8.867047996701954e-001	 1.302780454272032e+001
 1.106303292282346e+000	 8.981748301179827e-001	 1.292727697577558e+001
 1.213643491259739e+000	 7.934541424040027e-001	 1.402399720269957e+001
 1.205446312784956e+000	 8.058530802671269e-001	 1.389706699376275e+001
 1.197114001773264e+000	 8.181797276561860e-001	 1.377583220594700e+001
 1.188647489144748e+000	 8.304319036163590e-001	 1.366038117026410e+001
 1.180047752266984e+000	 8.426074426249738e-001	 1.355076799897882e+001
 1.171315814650759e+000	 8.547041958175911e-001	 1.344701267379486e+001
 1.162452745607200e+000	 8.667200322074270e-001	 1.334910122272031e+001
 1.153459659866493e+000	 8.786528398967133e-001	 1.325698598563309e+001
 1.144337717158373e+000	 8.905005272785856e-001	 1.317058596828863e+001
 1.135088121754663e+000	 9.022610242281041e-001	 1.308978728423334e+001
 1.125712121974170e+000	 9.139322832810067e-001	 1.301444368380905e+001
 1.234568379040151e+000	 8.071343862363026e-001	 1.390904281987574e+001
 1.226229869902834e+000	 8.197470988902831e-001	 1.379730236028902e+001
 1.217753898357167e+000	 8.322862746828061e-001	 1.369256193495825e+001
 1.209141411373581e+000	 8.447496950563807e-001	 1.359490384808037e+001
 1.200393403170818e+000	 8.571351571517382e-001	 1.350437344050777e+001
 1.191510914906401e+000	 8.694404750550522e-001	 1.342097918727890e+001
 1.182495034327856e+000	 8.816634810383872e-001	 1.334469288975456e+001
 1.173346895384854e+000	 8.938020267919451e-001	 1.327544996238177e+001
 1.164067677802471e+000	 9.058539846466741e-001	 1.321314981381091e+001
 1.154658606615837e+000	 9.178172487858251e-001	 1.315765632179735e+001
 1.145120951666496e+000	 9.296897364440285e-001	 1.310879840102156e+001
 1.255493266821059e+000	 8.208146300681053e-001	 1.379579722957826e+001
 1.247013427021299e+000	 8.336411175128567e-001	 1.369124948237713e+001
 1.238393794941728e+000	 8.463928217087881e-001	 1.360370062123941e+001
 1.229635333603122e+000	 8.590674864957387e-001	 1.352461218597831e+001
 1.220739054075391e+000	 8.716628716778431e-001	 1.345401921730180e+001
 1.211706015162792e+000	 8.841767542918880e-001	 1.339191703018961e+001
 1.202537323049252e+000	 8.966069298687865e-001	 1.333826142299805e+001
 1.193234130903926e+000	 9.089512136867101e-001	 1.329296898736808e+001
 1.183797638447231e+000	 9.212074420144203e-001	 1.325591751864469e+001
 1.174229091477602e+000	 9.333734733433585e-001	 1.322694652620249e+001
 1.164529781359323e+000	 9.454471896070471e-001	 1.320585784275676e+001
 9.704414844536136e-001	 7.878726579767392e-001	 1.291439377810518e+001
 9.622508703799659e-001	 7.978554144576137e-001	 1.273788606703598e+001
 9.539535513369586e-001	 8.077577742177589e-001	 1.255720142389120e+001
 9.455507144959995e-001	 8.175780367805177e-001	 1.237229886020658e+001
 9.370435829756511e-001	 8.273145251396229e-001	 1.218312544572906e+001
 9.284334152585064e-001	 8.369655867049054e-001	 1.198961681500058e+001
 9.197215045783189e-001	 8.465295942305035e-001	 1.179169771368085e+001
 9.109091782780104e-001	 8.560049467244861e-001	 1.158928258303925e+001
 9.019977971392149e-001	 8.653900703388237e-001	 1.138227618091083e+001
 8.929887546840698e-001	 8.746834192386785e-001	 1.117057423728452e+001
 8.838834764499999e-001	 8.838834764499999e-001	 1.095406414256730e+001
 9.898503141419284e-001	 8.036301111397820e-001	 1.281771450251558e+001
 9.814958877873232e-001	 8.138125227497113e-001	 1.265692129774610e+001
 9.730326223639016e-001	 8.239129297045710e-001	 1.249157156147256e+001
 9.644617287864989e-001	 8.339295975181713e-001	 1.232153690369249e+001
 9.557844546360499e-001	 8.438608156441201e-001	 1.214667625108538e+001
 9.470020835647984e-001	 8.537048984404442e-001	 1.196683647332505e+001
 9.381159346711734e-001	 8.634601861163659e-001	 1.178185305170826e+001
 9.291273618449545e-001	 8.731250456601145e-001	 1.159155078828543e+001
 9.200377530834086e-001	 8.826978717467010e-001	 1.139574455353541e+001
 9.108485297791161e-001	 8.921770876245897e-001	 1.119424007049032e+001
 9.015611459802497e-001	 9.015611459802499e-001	 1.098683473308749e+001
 1.009259143830745e+000	 8.193875643028223e-001	 1.276240404601859e+001
 1.000740905195092e+000	 8.297696310419911e-001	 1.261443535556302e+001
 9.921116933911854e-001	 8.400680851917207e-001	 1.246161092484686e+001
 9.833727430772894e-001	 8.502811582562881e-001	 1.230371471720287e+001
 9.745253262967094e-001	 8.604071061491758e-001	 1.214051716920175e+001
 9.655707518713410e-001	 8.704442101766073e-001	 1.197177593818770e+001
 9.565103647642882e-001	 8.803907780028876e-001	 1.179723669489917e+001
 9.473455454121886e-001	 8.902451445964076e-001	 1.161663395911093e+001
 9.380777090279425e-001	 9.000056731552177e-001	 1.142969197608302e+001
 9.287083048745723e-001	 9.096707560110861e-001	 1.123612563145464e+001
 9.192388155110001e-001	 9.192388155110001e-001	 1.103564140208718e+001
 1.028667973520062e+000	 8.351450174658596e-001	 1.274320995221178e+001
 1.019985922603272e+000	 8.457267393344534e-001	 1.260538571883307e+001
 1.011190764418811e+000	 8.562232406792083e-001	 1.246248737022366e+001
 1.002283757368371e+000	 8.666327189948682e-001	 1.231421084380668e+001
 9.932661979576295e-001	 8.769533966547898e-001	 1.216023760343923e+001
 9.841394201781339e-001	 8.871835219133940e-001	 1.200023550981101e+001
 9.749047948576629e-001	 8.973213698900684e-001	 1.183385973889181e+001
 9.655637289797132e-001	 9.073652435333653e-001	 1.166075374611029e+001
 9.561176649728165e-001	 9.173134745643744e-001	 1.148055027378603e+001
 9.465680799704386e-001	 9.271644243981670e-001	 1.129287239918241e+001
 9.369164850422498e-001	 9.369164850422498e-001	 1.109733462040280e+001
 1.048076803209881e+000	 8.509024706288946e-001	 1.275502238230975e+001
 1.039230940011862e+000	 8.616838476270980e-001	 1.262485875983553e+001
 1.030269835446777e+000	 8.723783961670337e-001	 1.248948404498538e+001
 1.021194771659744e+000	 8.829842797339110e-001	 1.234850564262193e+001
 1.012007069618811e+000	 8.934996871609622e-001	 1.220151543236347e+001
 1.002708088485177e+000	 9.039228336508047e-001	 1.204809076362520e+001
 9.932992249512983e-001	 9.142519617779087e-001	 1.188779550187120e+001
 9.837819125475277e-001	 9.244853424709879e-001	 1.172018112350016e+001
 9.741576209180304e-001	 9.346212759741709e-001	 1.154478785661984e+001
 9.644278550667147e-001	 9.446580927858330e-001	 1.136114586479842e+001
 9.545941545740001e-001	 9.545941545740000e-001	 1.116877647073003e+001
 1.067485632900202e+000	 8.666599237919267e-001	 1.279286114990644e+001
 1.058475957420865e+000	 8.776409559199254e-001	 1.266805802715276e+001
 1.049348906475084e+000	 8.885335516551965e-001	 1.253798890667223e+001
 1.040105785951407e+000	 8.993358404734170e-001	 1.240217203281176e+001
 1.030747941280253e+000	 9.100459776676935e-001	 1.226010896654444e+001
 1.021276756792472e+000	 9.206621453888396e-001	 1.211128570706761e+001
 1.011693655045194e+000	 9.311825536664083e-001	 1.195517386797343e+001
 1.002000096115632e+000	 9.416054414092747e-001	 1.179123190515353e+001
 9.921975768635845e-001	 9.519290773846075e-001	 1.161890639341703e+001
 9.822876301634012e-001	 9.621517611740841e-001	 1.143763334862708e+001
 9.722718241062499e-001	 9.722718241062499e-001	 1.124683959199988e+001
 1.086894462591023e+000	 8.824173769549563e-001	 1.285186414487008e+001
 1.077720974830279e+000	 8.935980642129352e-001	 1.273029378350011e+001
 1.068427977503733e+000	 9.046887071436970e-001	 1.260348536493210e+001
 1.059016800243361e+000	 9.156874012133863e-001	 1.247086722929431e+001
 1.049488812941954e+000	 9.265922681749831e-001	 1.233184976712743e+001
 1.039845425100016e+000	 9.374014571274981e-001	 1.218582666958191e+001
 1.030088085139350e+000	 9.481131455555671e-001	 1.203217623675464e+001
 1.020218279684027e+000	 9.587255403482263e-001	 1.187026274105892e+001
 1.010237532809479e+000	 9.692368787956833e-001	 1.169943784232648e+001
 1.000147405260498e+000	 9.796454295629201e-001	 1.151904205115690e+001
 9.899494936390003e-001	 9.899494936390003e-001	 1.132840623685781e+001
 1.106303292282346e+000	 8.981748301179827e-001	 1.292727697577558e+001
 1.096965992240104e+000	 9.095551725061274e-001	 1.280697364483746e+001
 1.087507048532723e+000	 9.208438626325356e-001	 1.268154390852896e+001
 1.077927814535607e+000	 9.320389619538184e-001	 1.255032534837851e+001
 1.068229684603918e+000	 9.431385586828309e-001	 1.241263622034398e+001
 1.058414093407811e+000	 9.541407688667807e-001	 1.226777683577563e+001
 1.048482515233766e+000	 9.650437374453850e-001	 1.211503100429444e+001
 1.038436463252712e+000	 9.758456392878423e-001	 1.195366753520495e+001
 1.028277488755713e+000	 9.865446802073995e-001	 1.178294179385576e+001
 1.018007180358004e+000	 9.971390979523412e-001	 1.160209730916629e+001
 1.007627163172250e+000	 1.007627163172250e+000	 1.141036742835531e+001
 1.125712121974170e+000	 9.139322832810067e-001	 1.301444368380905e+001
 1.116211009650340e+000	 9.255122807995019e-001	 1.289359418784813e+001
 1.106586119562053e+000	 9.369990181217117e-001	 1.276781459852250e+001
 1.096838828828143e+000	 9.483905226947139e-001	 1.263635077833393e+001
 1.086970556266142e+000	 9.596848491912375e-001	 1.249842777672853e+001
 1.076982761715857e+000	 9.708800806066870e-001	 1.235325134411274e+001
 1.066876945328443e+000	 9.819743293358622e-001	 1.220000951177138e+001
 1.056654646821688e+000	 9.929657382281232e-001	 1.203787423402857e+001
 1.046317444702287e+000	 1.003852481619755e+000	 1.186600308877116e+001
 1.035866955455920e+000	 1.014632766342347e+000	 1.168354103225014e+001
 1.025304832706000e+000	 1.025304832706000e+000	 1.148962220388034e+001
 1.145120951666496e+000	 9.296897364440285e-001	 1.310879840102156e+001
 1.135456027060987e+000	 9.414693890930587e-001	 1.298573341089463e+001
 1.125665190591725e+000	 9.531541736112255e-001	 1.285802032485334e+001
 1.115749843120970e+000	 9.647420834360720e-001	 1.272481222413970e+001
 1.105711427928626e+000	 9.762311397002028e-001	 1.258523977617772e+001
 1.095551430024153e+000	 9.876193923472172e-001	 1.243841288404455e+001
 1.085271375423379e+000	 9.989049212269988e-001	 1.228342240604776e+001
 1.074872830390953e+000	 1.010085837169068e+000	 1.211934194146175e+001
 1.064357400649202e+000	 1.021160283032751e+000	 1.194522967824530e+001
 1.053726730554247e+000	 1.032126434732938e+000	 1.176013029834402e+001
 1.042982502240250e+000	 1.042982502240250e+000	 1.156307693597652e+001
 1.164529781359323e+000	 9.454471896070471e-001	 1.320585784275676e+001
 1.154701044472046e+000	 9.574264973867980e-001	 1.307904394887899e+001
 1.144744261621738e+000	 9.693093291010768e-001	 1.294795073726961e+001
 1.134660857414088e+000	 9.810936441778935e-001	 1.281163734775900e+001
 1.124452299591371e+000	 9.927774302097262e-001	 1.266913879050328e+001
 1.114120098332700e+000	 1.004358704088371e+000	 1.251946773342740e+001
 1.103665805518577e+000	 1.015835513118795e+000	 1.236161636419606e+001
 1.093091013960508e+000	 1.027205936110678e+000	 1.219455832247362e+001
 1.082397356596456e+000	 1.038468084446387e+000	 1.201725069798969e+001
 1.071586505652983e+000	 1.049620103124114e+000	 1.182863608969562e+001
 1.060660171775000e+000	 1.060660171775000e+000	 1.162764472107957e+001
 8.838834764499999e-001	 8.838834764499999e-001	 1.095406414256730e+001
 8.746834192386785e-001	 8.929887546840698e-001	 1.075916739290156e+001
 8.653900703388238e-001	 9.019977971392147e-001	 1.056406607835847e+001
 8.560049467244860e-001	 9.109091782780104e-001	 1.036872896215682e+001
 8.465295942305037e-001	 9.197215045783191e-001	 1.017311447075766e+001
 8.369655867049053e-001	 9.284334152585063e-001	 9.977171410030911e+000
 8.273145251396229e-001	 9.370435829756509e-001	 9.780839707285296e+000
 8.175780367805178e-001	 9.455507144959995e-001	 9.584051176728076e+000
 8.077577742177586e-001	 9.539535513369589e-001	 9.386730305850840e+000
 7.978554144576137e-001	 9.622508703799658e-001	 9.188795060178530e+000
 7.878726579767392e-001	 9.704414844536136e-001	 8.990157703769294e+000
 9.015611459802497e-001	 9.015611459802499e-001	 1.098683473308749e+001
 8.921770876245896e-001	 9.108485297791160e-001	 1.080659968041513e+001
 8.826978717467009e-001	 9.200377530834085e-001	 1.062482772647328e+001
 8.731250456601145e-001	 9.291273618449544e-001	 1.044139081160149e+001
 8.634601861163659e-001	 9.381159346711734e-001	 1.025615108081373e+001
 8.537048984404443e-001	 9.470020835647984e-001	 1.006896174124654e+001
 8.438608156441201e-001	 9.557844546360498e-001	 9.879667945308825e+000
 8.339295975181715e-001	 9.644617287864988e-001	 9.688107696791649e+000
 8.239129297045709e-001	 9.730326223639019e-001	 9.494112777129196e+000
 8.138125227497111e-001	 9.814958877873232e-001	 9.297509688940638e+000
 8.036301111397820e-001	 9.898503141419285e-001	 9.098120613938262e+000
 9.192388155110001e-001	 9.192388155110001e-001	 1.103564140208718e+001
 9.096707560110861e-001	 9.287083048745725e-001	 1.086743849464027e+001
 9.000056731552177e-001	 9.380777090279423e-001	 1.069644219333464e+001
 8.902451445964077e-001	 9.473455454121889e-001	 1.052242669002474e+001
 8.803907780028876e-001	 9.565103647642882e-001	 1.034515684194819e+001
 8.704442101766073e-001	 9.655707518713408e-001	 1.016438917339220e+001
 8.604071061491757e-001	 9.745253262967094e-001	 9.979872903029330e+000
 8.502811582562883e-001	 9.833727430772894e-001	 9.791350993866189e+000
 8.400680851917207e-001	 9.921116933911856e-001	 9.598561222680091e+000
 8.297696310419912e-001	 1.000740905195092e+000	 9.401237265759908e+000
 8.193875643028225e-001	 1.009259143830745e+000	 9.199109797722707e+000
 9.369164850422498e-001	 9.369164850422498e-001	 1.109733462040280e+001
 9.271644243981670e-001	 9.465680799704386e-001	 1.093877196093192e+001
 9.173134745643742e-001	 9.561176649728163e-001	 1.077623418516596e+001
 9.073652435333653e-001	 9.655637289797131e-001	 1.060939665505615e+001
 8.973213698900684e-001	 9.749047948576629e-001	 1.043792577814319e+001
 8.871835219133941e-001	 9.841394201781341e-001	 1.026148015655664e+001
 8.769533966547899e-001	 9.932661979576296e-001	 1.007971176178034e+001
 8.666327189948683e-001	 1.002283757368371e+000	 9.892267131805683e+000
 8.562232406792082e-001	 1.011190764418811e+000	 9.698788587221763e+000
 8.457267393344534e-001	 1.019985922603272e+000	 9.498915462737021e+000
 8.351450174658597e-001	 1.028667973520062e+000	 9.292285350579226e+000
 9.545941545740001e-001	 9.545941545740000e-001	 1.116877647073003e+001
 9.446580927858330e-001	 9.644278550667149e-001	 1.101768541193111e+001
 9.346212759741711e-001	 9.741576209180304e-001	 1.086151140467339e+001
 9.244853424709877e-001	 9.837819125475277e-001	 1.069982975058247e+001
 9.142519617779087e-001	 9.932992249512984e-001	 1.053220709666690e+001
 9.039228336508051e-001	 1.002708088485178e+000	 1.035820273493535e+001
 8.934996871609623e-001	 1.012007069618811e+000	 1.017736992800866e+001
 8.829842797339114e-001	 1.021194771659744e+000	 9.989257257014327e+000
 8.723783961670335e-001	 1.030269835446777e+000	 9.793409987980233e+000
 8.616838476270980e-001	 1.039230940011862e+000	 9.589371452888173e+000
 8.509024706288946e-001	 1.048076803209881e+000	 9.376684441502626e+000
 9.722718241062499e-001	 9.722718241062499e-001	 1.124683959199988e+001
 9.621517611740841e-001	 9.822876301634012e-001	 1.110126164144801e+001
 9.519290773846075e-001	 9.921975768635845e-001	 1.094956609681982e+001
 9.416054414092745e-001	 1.002000096115632e+000	 1.079122682617881e+001
 9.311825536664081e-001	 1.011693655045194e+000	 1.062570926231977e+001
 9.206621453888395e-001	 1.021276756792472e+000	 1.045247185645679e+001
 9.100459776676934e-001	 1.030747941280252e+000	 1.027096755826384e+001
 8.993358404734172e-001	 1.040105785951407e+000	 1.008064531821498e+001
 8.885335516551965e-001	 1.049348906475085e+000	 9.880951608097670e+000
 8.776409559199254e-001	 1.058475957420865e+000	 9.671331955516015e+000
 8.666599237919266e-001	 1.067485632900202e+000	 9.451232488158874e+000
 9.899494936390003e-001	 9.899494936390003e-001	 1.132840623685781e+001
 9.796454295629200e-001	 1.000147405260498e+000	 1.118658113114319e+001
 9.692368787956835e-001	 1.010237532809479e+000	 1.103767642898080e+001
 9.587255403482264e-001	 1.020218279684028e+000	 1.088106305445771e+001
 9.481131455555671e-001	 1.030088085139350e+000	 1.071610363515524e+001
 9.374014571274982e-001	 1.039845425100016e+000	 1.054215411352070e+001
 9.265922681749831e-001	 1.049488812941954e+000	 1.035856538508189e+001
 9.156874012133863e-001	 1.059016800243361e+000	 1.016468495909882e+001
 9.046887071436972e-001	 1.068427977503733e+000	 9.959858637175163e+000
 8.935980642129352e-001	 1.077720974830279e+000	 9.743432205291134e+000
 8.824173769549563e-001	 1.086894462591023e+000	 9.514753134681772e+000
 1.007627163172250e+000	 1.007627163172250e+000	 1.141036742835531e+001
 9.971390979523412e-001	 1.018007180358004e+000	 1.127072225334779e+001
 9.865446802073997e-001	 1.028277488755713e+000	 1.112310772582029e+001
 9.758456392878422e-001	 1.038436463252712e+000	 1.096679018343422e+001
 9.650437374453851e-001	 1.048482515233766e+000	 1.080102772528163e+001
 9.541407688667806e-001	 1.058414093407811e+000	 1.062507198471100e+001
 9.431385586828311e-001	 1.068229684603918e+000	 1.043816992961790e+001
 9.320389619538184e-001	 1.077927814535606e+000	 1.023956568543346e+001
 9.208438626325355e-001	 1.087507048532722e+000	 1.002850237596955e+001
 9.095551725061273e-001	 1.096965992240104e+000	 9.804223977219786e+000
 8.981748301179828e-001	 1.106303292282346e+000	 9.565977179175778e+000
 1.025304832706000e+000	 1.025304832706000e+000	 1.148962220388034e+001
 1.014632766342347e+000	 1.035866955455920e+000	 1.135076145290216e+001
 1.003852481619755e+000	 1.046317444702287e+000	 1.120311357642101e+001
 9.929657382281231e-001	 1.056654646821688e+000	 1.104583855588791e+001
 9.819743293358623e-001	 1.066876945328443e+000	 1.087808811096122e+001
 9.708800806066870e-001	 1.076982761715857e+000	 1.069900763771083e+001
 9.596848491912375e-001	 1.086970556266142e+000	 1.050773817504094e+001
 9.483905226947139e-001	 1.096838828828143e+000	 1.030341839419408e+001
 9.369990181217115e-001	 1.106586119562053e+000	 1.008518660612105e+001
 9.255122807995019e-001	 1.116211009650340e+000	 9.852182781442030e+000
 9.139322832810067e-001	 1.125712121974170e+000	 9.603550577683743e+000
 1.042982502240250e+000	 1.042982502240250e+000	 1.156307693597652e+001
 1.032126434732938e+000	 1.053726730554247e+000	 1.142377341050240e+001
 1.021160283032751e+000	 1.064357400649201e+000	 1.127493682882530e+001
 1.010085837169068e+000	 1.074872830390953e+000	 1.111561892336557e+001
 9.989049212269989e-001	 1.085271375423380e+000	 1.094486305995280e+001
 9.876193923472172e-001	 1.095551430024153e+000	 1.076170634548060e+001
 9.762311397002028e-001	 1.105711427928626e+000	 1.056518176466833e+001
 9.647420834360724e-001	 1.115749843120970e+000	 1.035432034041028e+001
 9.531541736112253e-001	 1.125665190591725e+000	 1.012815331211219e+001
 9.414693890930588e-001	 1.135456027060987e+000	 9.885714326356174e+000
 9.296897364440283e-001	 1.145120951666496e+000	 9.626041634192060e+000
 1.060660171775000e+000	 1.060660171775000e+000	 1.162764472107957e+001
 1.049620103124114e+000	 1.071586505652983e+000	 1.148683118971260e+001
 1.038468084446386e+000	 1.082397356596456e+000	 1.133581048512170e+001
 1.027205936110678e+000	 1.093091013960509e+000	 1.117352407878416e+001
 1.015835513118795e+000	 1.103665805518577e+000	 1.099890488872039e+001
 1.004358704088371e+000	 1.114120098332699e+000	 1.081087956081816e+001
 9.927774302097263e-001	 1.124452299591371e+000	 1.060837078028664e+001
 9.810936441778935e-001	 1.134660857414088e+000	 1.039029960732792e+001
 9.693093291010766e-001	 1.144744261621738e+000	 1.015558783103078e+001
 9.574264973867980e-001	 1.154701044472046e+000	 9.903160335430249e+000
 9.454471896070471e-001	 1.164529781359323e+000	 9.631947471635270e+000
 7.878726579767392e-001	 9.704414844536136e-001	 8.990157703769294e+000
 7.778112277595841e-001	 9.785242428865572e-001	 8.813562270694014e+000
 7.676728683215578e-001	 9.864980320293814e-001	 8.629101492751722e+000
 7.574593447180574e-001	 9.943617757451816e-001	 8.436511140152478e+000
 7.471724415395482e-001	 1.002114435868594e+000	 8.235531600930532e+000
 7.368139618953939e-001	 1.009755012632604e+000	 8.025908877481653e+000
 7.263857263871183e-001	 1.017282545062913e+000	 7.807395572729415e+000
 7.158895720722921e-001	 1.024696111339581e+000	 7.579751863088524e+000
 7.053273514202586e-001	 1.031994829125725e+000	 7.342746455447151e+000
 6.947009312609058e-001	 1.039177855863086e+000	 7.096157525451719e+000
 6.840121917276981e-001	 1.046244389034349e+000	 6.839773634451978e+000
 8.036301111397820e-001	 9.898503141419285e-001	 9.098120613938262e+000
 7.933674523188057e-001	 9.980947277430013e-001	 8.911817631433959e+000
 7.830263256923841e-001	 1.006227992668192e+000	 8.718526001787266e+000
 7.726085316170228e-001	 1.014249011257858e+000	 8.517981548078254e+000
 7.621158903749964e-001	 1.022156724583330e+000	 8.309923302716481e+000
 7.515502411378570e-001	 1.029950112882250e+000	 8.094094557356918e+000
 7.409134409191582e-001	 1.037628195960835e+000	 7.870243904191092e+000
 7.302073635176234e-001	 1.045190033562748e+000	 7.638126265600700e+000
 7.194338984519826e-001	 1.052634725704365e+000	 7.397503909216145e+000
 7.085949498887223e-001	 1.059961412976264e+000	 7.148147445481040e+000
 6.976924355639771e-001	 1.067169276810782e+000	 6.889836804896332e+000
 8.193875643028225e-001	 1.009259143830745e+000	 9.199109797722707e+000
 8.089236768778395e-001	 1.017665212600036e+000	 9.006901369900431e+000
 7.983797830628682e-001	 1.025957953307663e+000	 8.808521640006166e+000
 7.877577185155216e-001	 1.034136246771246e+000	 8.603702438735571e+000
 7.770593392098840e-001	 1.042199013298805e+000	 8.392177438426176e+000
 7.662865203796948e-001	 1.050145213132645e+000	 8.173683261953059e+000
 7.554411554505388e-001	 1.057973846859497e+000	 7.947960584666834e+000
 7.445251549622909e-001	 1.065683955786623e+000	 7.714755226172971e+000
 7.335404454830685e-001	 1.073274622283663e+000	 7.473819228799619e+000
 7.224889685159562e-001	 1.080744970090029e+000	 7.224911919663565e+000
 7.113726793997586e-001	 1.088094164587713e+000	 6.967800953314081e+000
 8.351450174658597e-001	 1.028667973520062e+000	 9.292285350579226e+000
 8.244799014366857e-001	 1.037235697457663e+000	 9.097869556925284e+000
 8.137332404330099e-001	 1.045687913947796e+000	 8.898044797486525e+000
 8.029069054135535e-001	 1.054023482285344e+000	 8.692534858798279e+000
 7.920027880442103e-001	 1.062241302015021e+000	 8.481064039172074e+000
 7.810227996209072e-001	 1.070340313383791e+000	 8.263358322233872e+000
 7.699688699812599e-001	 1.078319497758898e+000	 8.039146545099943e+000
 7.588429464062948e-001	 1.086177878011206e+000	 7.808161557784350e+000
 7.476469925135163e-001	 1.093914518863619e+000	 7.570141370483262e+000
 7.363829871426076e-001	 1.101528527204381e+000	 7.324830285439367e+000
 7.250529232350426e-001	 1.109019052365140e+000	 7.071980010162765e+000
 8.509024706288946e-001	 1.048076803209881e+000	 9.376684441502626e+000
 8.400361259953446e-001	 1.056806182315880e+000	 9.183667158930451e+000
 8.290866978028095e-001	 1.065417874588589e+000	 8.985952322776853e+000
 8.180560923111189e-001	 1.073910717800152e+000	 8.783251612055823e+000
 8.069462368779760e-001	 1.082283590731977e+000	 8.575275922711544e+000
 7.957590788614946e-001	 1.090535413635686e+000	 8.361736611530461e+000
 7.844965845113215e-001	 1.098665148659037e+000	 8.142346736214028e+000
 7.731607378496348e-001	 1.106671800236498e+000	 7.916822287991619e+000
 7.617535395433264e-001	 1.114554415444232e+000	 7.684883413202515e+000
 7.502770057686765e-001	 1.122312084319322e+000	 7.446255620334243e+000
 7.387331670698292e-001	 1.129943940143065e+000	 7.200670969078269e+000
 8.666599237919266e-001	 1.067485632900202e+000	 9.451232488158874e+000
 8.555923505538157e-001	 1.076376667174689e+000	 9.263138138328770e+000
 8.444401551722667e-001	 1.085147835230044e+000	 9.071010572126216e+000
 8.332052792082172e-001	 1.093797953315671e+000	 8.874545281493468e+000
 8.218896857111800e-001	 1.102325879449672e+000	 8.673435712843023e+000
 8.104953581014569e-001	 1.110730513888330e+000	 8.467374587143853e+000
 7.990242990407239e-001	 1.119010799559915e+000	 8.256055217623743e+000
 7.874785292923114e-001	 1.127165722462498e+000	 8.039172821240255e+000
 7.758600865724983e-001	 1.135194312025504e+000	 7.816425820119539e+000
 7.641710243941627e-001	 1.143095641434849e+000	 7.587517129224678e+000
 7.524134109041186e-001	 1.150868827921488e+000	 7.352155426585798e+000
 8.824173769549563e-001	 1.086894462591023e+000	 9.514753134681772e+000
 8.711485751120995e-001	 1.095947152034089e+000	 9.335034471738979e+000
 8.597936125413821e-001	 1.104877795872159e+000	 9.151903489153522e+000
 8.483544661048493e-001	 1.113685188831901e+000	 8.965035391864172e+000
 8.368331345438236e-001	 1.122368168168108e+000	 8.774102106723714e+000
 8.252316373407935e-001	 1.130925614141723e+000	 8.578773684633443e+000
 8.135520135694665e-001	 1.139356450461533e+000	 8.378719701684030e+000
 8.017963207343242e-001	 1.147659644689206e+000	 8.173610655213894e+000
 7.899666336010321e-001	 1.155834208607433e+000	 7.963119350746311e+000
 7.780650430190668e-001	 1.163879198550964e+000	 7.746922275824670e+000
 7.660936547379107e-001	 1.171793715700407e+000	 7.524700956841924e+000
 8.981748301179828e-001	 1.106303292282346e+000	 9.565977179175778e+000
 8.867047996701954e-001	 1.115517636894080e+000	 9.398024218914753e+000
 8.751470699101551e-001	 1.124607756514936e+000	 9.227239834025664e+000
 8.635036530010145e-001	 1.133572424348842e+000	 9.053274818305299e+000
 8.517765833759058e-001	 1.142410456887284e+000	 8.875775482469496e+000
 8.399679165795050e-001	 1.151120714395866e+000	 8.694385144285826e+000
 8.280797280975500e-001	 1.159702101363889e+000	 8.508745619039052e+000
 8.161141121756732e-001	 1.168153566916623e+000	 8.318498705988976e+000
 8.040731806289282e-001	 1.176474105190020e+000	 8.123287666527700e+000
 7.919590616433881e-001	 1.184662755667667e+000	 7.922758689805073e+000
 7.797738985712054e-001	 1.192718603479824e+000	 7.716562341667201e+000
 9.139322832810067e-001	 1.125712121974170e+000	 9.603550577683743e+000
 9.022610242281041e-001	 1.135088121754663e+000	 9.450698756957186e+000
 8.905005272785858e-001	 1.144337717158373e+000	 9.295559664789256e+000
 8.786528398967132e-001	 1.153459659866493e+000	 9.137755531995097e+000
 8.667200322074271e-001	 1.162452745607200e+000	 8.976902926658781e+000
 8.547041958175913e-001	 1.171315814650759e+000	 8.812614338293168e+000
 8.426074426249739e-001	 1.180047752266984e+000	 8.644499763597370e+000
 8.304319036163591e-001	 1.188647489144747e+000	 8.472168289207513e+000
 8.181797276561860e-001	 1.197114001773265e+000	 8.295229666881884e+000
 8.058530802671269e-001	 1.205446312784956e+000	 8.113295876625040e+000
 7.934541424040027e-001	 1.213643491259739e+000	 7.925982673333454e+000
 9.296897364440283e-001	 1.145120951666496e+000	 9.626041634192060e+000
 9.178172487858249e-001	 1.154658606615837e+000	 9.491579278844510e+000
 9.058539846466741e-001	 1.164067677802471e+000	 9.355340159584596e+000
 8.938020267919450e-001	 1.173346895384854e+000	 9.216913761505165e+000
 8.816634810383872e-001	 1.182495034327856e+000	 9.075882750564183e+000
 8.694404750550523e-001	 1.191510914906401e+000	 8.931824657880055e+000
 8.571351571517383e-001	 1.200393403170818e+000	 8.784313566831690e+000
 8.447496950563810e-001	 1.209141411373581e+000	 8.632921798080476e+000
 8.322862746828059e-001	 1.217753898357167e+000	 8.477221587677427e+000
 8.197470988902831e-001	 1.226229869902834e+000	 8.316786753482244e+000
 8.071343862363025e-001	 1.234568379040151e+000	 8.151194345203765e+000
 9.454471896070471e-001	 1.164529781359323e+000	 9.631947471635270e+000
 9.333734733433584e-001	 1.174229091477602e+000	 9.519122642108856e+000
 9.212074420144205e-001	 1.183797638447231e+000	 9.405000856637313e+000
 9.089512136867100e-001	 1.193234130903926e+000	 9.289134638017636e+000
 8.966069298687863e-001	 1.202537323049252e+000	 9.171068554761572e+000
 8.841767542918877e-001	 1.211706015162792e+000	 9.050341011717423e+000
 8.716628716778431e-001	 1.220739054075391e+000	 8.926486044648250e+000
 8.590674864957389e-001	 1.229635333603122e+000	 8.799035113589969e+000
 8.463928217087879e-001	 1.238393794941728e+000	 8.667518889861997e+000
 8.336411175128569e-001	 1.247013427021299e+000	 8.531469031667886e+000
 8.208146300681053e-001	 1.255493266821059e+000	 8.307659601191935e+000
 6.840121917276981e-001	 1.046244389034349e+000	 6.839773634451978e+000
 6.732630251961720e-001	 1.053193666391865e+000	 6.667490278829959e+000
 6.624553352191411e-001	 1.060024966153559e+000	 6.504868230257915e+000
 6.515910354597977e-001	 1.066737607165498e+000	 6.351891088161017e+000
 6.406720486238722e-001	 1.073330949030676e+000	 6.208535562474932e+000
 6.297003053920891e-001	 1.079804392204921e+000	 6.074772256545676e+000
 6.186777433540813e-001	 1.086157378059845e+000	 5.910950631759005e+000
 6.076063059449273e-001	 1.092389388913029e+000	 5.739566142655206e+000
 5.964879413854602e-001	 1.098499948025727e+000	 5.594375547601374e+000
 5.853246016274839e-001	 1.104488619568381e+000	 5.476356965269788e+000
 5.741182413050000e-001	 1.110355008554307e+000	 5.386450734049764e+000
 6.976924355639771e-001	 1.067169276810782e+000	 6.889836804896332e+000
 6.867282857009388e-001	 1.074257539715344e+000	 6.728732930002111e+000
 6.757044419236228e-001	 1.081225465472260e+000	 6.573633405930746e+000
 6.646228561684840e-001	 1.088072359304516e+000	 6.424458503012239e+000
 6.534854895953678e-001	 1.094797568007166e+000	 6.281125180428079e+000
 6.422943114986126e-001	 1.101400480045157e+000	 6.143547947874034e+000
 6.310512982196433e-001	 1.107880525617529e+000	 6.011639713391930e+000
 6.197584320622395e-001	 1.114237176688216e+000	 5.853338145806570e+000
 6.084177002116505e-001	 1.120469946983697e+000	 5.676751264026673e+000
 5.970310936587155e-001	 1.126578391957822e+000	 5.524538125988913e+000
 5.856006061301156e-001	 1.132562108724173e+000	 5.397687464211318e+000
 7.113726793997586e-001	 1.088094164587713e+000	 6.967800953314081e+000
 7.001935462053034e-001	 1.095321413039221e+000	 6.816431332512769e+000
 6.889535486277866e-001	 1.102425964791257e+000	 6.667487645546411e+000
 6.776546768769275e-001	 1.109407111443731e+000	 6.520824867325763e+000
 6.662989305666857e-001	 1.116264186983754e+000	 6.376298212159428e+000
 6.548883176050127e-001	 1.122996567885389e+000	 6.233764078199253e+000
 6.434248530851267e-001	 1.129603673175110e+000	 6.093080972089419e+000
 6.319105581795074e-001	 1.136084964463200e+000	 5.954110411310269e+000
 6.203474590378212e-001	 1.142439945941363e+000	 5.789382317315079e+000
 6.087375856899424e-001	 1.148668164346860e+000	 5.599766149398267e+000
 5.970829709552312e-001	 1.154769208893534e+000	 5.432873382990433e+000
 7.250529232350426e-001	 1.109019052365140e+000	 7.071980010162765e+000
 7.136588067092652e-001	 1.116385286363495e+000	 6.929091654677402e+000
 7.022026553316330e-001	 1.123626464110552e+000	 6.785123553747041e+000
 6.906864975851284e-001	 1.130741863583143e+000	 6.639863306389477e+000
 6.791123715378250e-001	 1.137730805960439e+000	 6.493102278325338e+000
 6.674823237112888e-001	 1.144592655725618e+000	 6.344636633328855e+000
 6.557984079505305e-001	 1.151326820732586e+000	 6.194268338778457e+000
 6.440626842967309e-001	 1.157932752237980e+000	 6.041806142754321e+000
 6.322772178639721e-001	 1.164409944898726e+000	 5.887066520160539e+000
 6.204440777211642e-001	 1.170757936735493e+000	 5.704435332228989e+000
 6.085653357803471e-001	 1.176976309062392e+000	 5.494436971735127e+000
 7.387331670698292e-001	 1.129943940143065e+000	 7.200670969078269e+000
 7.271240672128245e-001	 1.137449159688166e+000	 7.065193378313053e+000
 7.154517620351615e-001	 1.144826963430144e+000	 6.925197735191905e+000
 7.037183182930863e-001	 1.152076615722752e+000	 6.780402071125229e+000
 6.919258125087859e-001	 1.159197424937220e+000	 6.630531692547795e+000
 6.800763298174418e-001	 1.166188743565844e+000	 6.475320303404191e+000
 6.681719628158557e-001	 1.173049968289960e+000	 6.314511095782363e+000
 6.562148104139098e-001	 1.179780540012556e+000	 6.147857805891473e+000
 6.442069766901030e-001	 1.186379943855785e+000	 5.975125732725683e+000
 6.321505697523810e-001	 1.192847709123722e+000	 5.796092716906565e+000
 6.200477006054628e-001	 1.199183409230746e+000	 5.584712194238641e+000
 7.524134109041186e-001	 1.150868827921488e+000	 7.352155426585798e+000
 7.405893277159817e-001	 1.158513033013234e+000	 7.223191724783189e+000
 7.287008687383727e-001	 1.166027462750033e+000	 7.086334067283105e+000
 7.167501390008011e-001	 1.173411367862558e+000	 6.941228617576510e+000
 7.047392534795689e-001	 1.180664043914098e+000	 6.787532307508653e+000
 6.926703359234709e-001	 1.187784831406066e+000	 6.624914055233580e+000
 6.805455176811016e-001	 1.194773115847230e+000	 6.453055945211115e+000
 6.683669365310446e-001	 1.201628327786929e+000	 6.271654367283207e+000
 6.561367355162148e-001	 1.208349942812540e+000	 6.080421112026317e+000
 6.438570617835929e-001	 1.214937481511548e+000	 5.879084419746955e+000
 6.315300654305786e-001	 1.221390509398596e+000	 5.667389980661741e+000
 7.660936547379107e-001	 1.171793715700407e+000	 7.524700956841924e+000
 7.540545882187365e-001	 1.179576906338700e+000	 7.401519821110068e+000
 7.419499754412664e-001	 1.187227962070220e+000	 7.267126622242619e+000
 7.297819597082731e-001	 1.194746120002561e+000	 7.121093249308442e+000
 7.175526944501734e-001	 1.202130662891074e+000	 6.963005841819180e+000
 7.052643420293766e-001	 1.209380919246285e+000	 6.792466107590097e+000
 6.929190725462687e-001	 1.216496263404397e+000	 6.609092596480846e+000
 6.805190626481351e-001	 1.223476115561099e+000	 6.412521926880425e+000
 6.680664943423065e-001	 1.230319941768991e+000	 6.202409961982373e+000
 6.555635538148000e-001	 1.237027253898969e+000	 5.978432933079712e+000
 6.430124302556941e-001	 1.243597609565942e+000	 5.740288507305523e+000
 7.797738985712054e-001	 1.192718603479824e+000	 7.716562341667201e+000
 7.675198487210887e-001	 1.200640779664563e+000	 7.598590638074708e+000
 7.551990821438421e-001	 1.208428461390704e+000	 7.466142281601203e+000
 7.428137804155023e-001	 1.216080872142762e+000	 7.318712376397267e+000
 7.303661354205999e-001	 1.223597281868146e+000	 7.155813751429874e+000
 7.178583481351586e-001	 1.230977007086501e+000	 6.976978382793678e+000
 7.052926274113568e-001	 1.238219410961460e+000	 6.781758765672601e+000
 6.926711887651811e-001	 1.245323903335064e+000	 6.569729232638409e+000
 6.799962531683785e-001	 1.252289940725139e+000	 6.354812224070975e+000
 6.672700458460021e-001	 1.259117026285987e+000	 6.170948152573613e+000
 6.544947950808100e-001	 1.265804709732783e+000	 5.998850684766476e+000
 7.934541424040027e-001	 1.213643491259739e+000	 7.925982673333454e+000
 7.809851092230387e-001	 1.221704652990824e+000	 7.812798727823932e+000
 7.684481888461006e-001	 1.229628960711485e+000	 7.681923080224122e+000
 7.558456011224884e-001	 1.237415624283158e+000	 7.532771437282732e+000
 7.431795763908483e-001	 1.245063900845315e+000	 7.364780700549581e+000
 7.304523542408170e-001	 1.252573094926714e+000	 7.172242007613898e+000
 7.176661822763658e-001	 1.259942558518420e+000	 6.970602409826945e+000
 7.048233148821826e-001	 1.267171691108826e+000	 6.779519124604224e+000
 6.919260119944309e-001	 1.274259939680982e+000	 6.598845710806230e+000
 6.789765378771995e-001	 1.281206798672601e+000	 6.428416395853331e+000
 6.659771599059257e-001	 1.288011809899122e+000	 6.268046207646387e+000
 8.071343862363025e-001	 1.234568379040151e+000	 8.151194345203765e+000
 7.944503697245862e-001	 1.242768526317482e+000	 8.042521784771642e+000
 7.816972955480415e-001	 1.250829460032563e+000	 7.904945701248797e+000
 7.688774218292321e-001	 1.258750376423753e+000	 7.693514451956725e+000
 7.559930173609183e-001	 1.266530519822581e+000	 7.491431441210430e+000
 7.430463603463515e-001	 1.274169182766922e+000	 7.298589515854939e+000
 7.300397371412958e-001	 1.281665706075276e+000	 7.114863505629348e+000
 7.169754409991397e-001	 1.289019478882383e+000	 6.940110258214845e+000
 7.038557708204638e-001	 1.296229938636522e+000	 6.774168700985970e+000
 6.906830299083917e-001	 1.303296571058811e+000	 6.616859929520665e+000
 6.774595247310413e-001	 1.310218910064956e+000	 6.467987322861471e+000
 8.208146300681053e-001	 1.255493266821059e+000	 8.307659601191935e+000
 8.079156302257311e-001	 1.263832399644536e+000	 8.101932500235995e+000
 7.949464022496643e-001	 1.272029959353938e+000	 7.904302063195928e+000
 7.819092425357326e-001	 1.280085128564544e+000	 7.714675673359750e+000
 7.688064583308100e-001	 1.287997138799943e+000	 7.532944213824409e+000
 7.556403664517627e-001	 1.295765270607128e+000	 7.358982040912752e+000
 7.424132920061469e-001	 1.303388853632028e+000	 7.192646982116708e+000
 7.291275671160526e-001	 1.310867266655738e+000	 7.033780358820233e+000
 7.157855296464767e-001	 1.318199937591758e+000	 6.882207033991244e+000
 7.023895219395790e-001	 1.325386343444616e+000	 6.737735484970328e+000
 6.889418895561570e-001	 1.332426010230286e+000	 6.600157901417128e+000
 5.741182413050000e-001	 1.110355008554307e+000	 5.386450734049764e+000
 5.628708166930497e-001	 1.116098760742258e+000	 5.216069114676200e+000
 5.515842846736662e-001	 1.121719562507361e+000	 5.053989147048196e+000
 5.402606017111221e-001	 1.127217140681487e+000	 4.900997724444562e+000
 5.289017228384254e-001	 1.132591262364247e+000	 4.757862310928521e+000
 5.175096006544983e-001	 1.137841734704207e+000	 4.625329957599680e+000
 5.060861843335419e-001	 1.142968404651232e+000	 4.504126368041757e+000
 4.946334186475062e-001	 1.147971158680544e+000	 4.394955014276443e+000
 4.831532430025666e-001	 1.152849922489192e+000	 4.298496304381419e+000
 4.716475904904681e-001	 1.157604660665571e+000	 4.215406802774688e+000
 4.601183869555650e-001	 1.162235376332733e+000	 4.146318504014642e+000
 5.856006061301156e-001	 1.132562108724173e+000	 5.397687464211318e+000
 5.741282330262805e-001	 1.138420735956605e+000	 5.179300396633131e+000
 5.626159703667710e-001	 1.144153953757676e+000	 4.971581916457049e+000
 5.510658137451469e-001	 1.149761483495895e+000	 4.775375612300540e+000
 5.394797572950756e-001	 1.155243087612864e+000	 4.591502513926931e+000
 5.278597926674589e-001	 1.160598569400124e+000	 4.420760066600919e+000
 5.162079080199822e-001	 1.165827772746534e+000	 4.263921159905992e+000
 5.045260870200349e-001	 1.170930581856822e+000	 4.121733212345285e+000
 4.928163078619168e-001	 1.175906920941978e+000	 3.994917312884248e+000
 4.810805422992081e-001	 1.180756753882166e+000	 3.884167420423494e+000
 4.693207546931507e-001	 1.185480083862899e+000	 3.790149622027133e+000
 5.970829709552312e-001	 1.154769208893534e+000	 5.432873382990433e+000
 5.853856493595110e-001	 1.160742711170352e+000	 5.165640659000081e+000
 5.736476560598761e-001	 1.166588345007308e+000	 4.911363531275984e+000
 5.618710257791713e-001	 1.172305826309545e+000	 4.670944581225066e+000
 5.500577917517259e-001	 1.177894912860660e+000	 4.445260715513746e+000
 5.382099846804194e-001	 1.183355404095165e+000	 4.235162095191677e+000
 5.263296317064223e-001	 1.188687140840915e+000	 4.041471124602266e+000
 5.144187553925635e-001	 1.193890005032144e+000	 3.864981501420194e+000
 5.024793727212669e-001	 1.198963919393784e+000	 3.706457328978014e+000
 4.905134941079479e-001	 1.203908847097765e+000	 3.566632291863165e+000
 4.785231224307363e-001	 1.208724791392063e+000	 3.446208895589613e+000
 6.085653357803471e-001	 1.176976309062392e+000	 5.494436971735127e+000
 5.966430656927416e-001	 1.183064686383501e+000	 5.177425341511448e+000
 5.846793417529809e-001	 1.189022736256255e+000	 4.875581645236415e+000
 5.726762378131959e-001	 1.194850169122436e+000	 4.589869798152281e+000
 5.606358262083757e-001	 1.200546738107633e+000	 4.321224934672973e+000
 5.485601766933799e-001	 1.206112238789327e+000	 4.070552288920638e+000
 5.364513553928626e-001	 1.211546508934374e+000	 3.838726140440212e+000
 5.243114237650923e-001	 1.216849428206511e+000	 3.626588826454110e+000
 5.121424375806171e-001	 1.222020917844610e+000	 3.434949821830380e+000
 4.999464459166877e-001	 1.227060940312370e+000	 3.264584887741869e+000
 4.877254901683218e-001	 1.231969498920228e+000	 3.116235289804261e+000
 6.200477006054628e-001	 1.199183409230746e+000	 5.584712194238641e+000
 6.079004820259722e-001	 1.205386661596051e+000	 5.216899064752459e+000
 5.957110274460858e-001	 1.211457127504519e+000	 4.866396423713010e+000
 5.834814498472205e-001	 1.217394511934570e+000	 4.534231905114260e+000
 5.712138606650259e-001	 1.223198563353783e+000	 4.221401262103893e+000
 5.589103687063404e-001	 1.228869073482613e+000	 3.928867195556522e+000
 5.465730790793026e-001	 1.234405877026911e+000	 3.657558253285633e+000
 5.342040921376211e-001	 1.239808851379921e+000	 3.408367801286215e+000
 5.218055024399670e-001	 1.245077916294454e+000	 3.182153068195129e+000
 5.093793977254275e-001	 1.250213033525979e+000	 2.986935354147402e+000
 4.969278579059074e-001	 1.255214206447393e+000	 2.985875380264203e+000
 6.315300654305786e-001	 1.221390509398596e+000	 5.667389980661741e+000
 6.191578983592029e-001	 1.227708636808003e+000	 5.286223886445537e+000
 6.067427131391908e-001	 1.233891518752100e+000	 4.885888497210945e+000
 5.942866618812450e-001	 1.239938854745945e+000	 4.506034703323127e+000
 5.817918951216761e-001	 1.245850388599110e+000	 4.147721308247223e+000
 5.692605607193009e-001	 1.251625908175022e+000	 3.853496806826330e+000
 5.566948027657428e-001	 1.257265245118527e+000	 3.699272157285136e+000
 5.440967605101499e-001	 1.262768274552376e+000	 3.586095896875949e+000
 5.314685672993172e-001	 1.268134914743319e+000	 3.512690477573282e+000
 5.188123495341674e-001	 1.273365126738593e+000	 3.477791701767143e+000
 5.061302256434931e-001	 1.278458913973559e+000	 3.480151046997808e+000
 6.430124302556941e-001	 1.243597609565942e+000	 5.740288507305523e+000
 6.304153146924334e-001	 1.250030612019355e+000	 5.358367287645988e+000
 6.177743988322958e-001	 1.256325909998997e+000	 5.046148706242420e+000
 6.050918739152695e-001	 1.262483197556562e+000	 4.752960562487679e+000
 5.923699295783261e-001	 1.268502213843615e+000	 4.506972507928003e+000
 5.796107527322613e-001	 1.274382742866553e+000	 4.306777795351663e+000
 5.668165264521829e-001	 1.280124613209222e+000	 4.150975729097810e+000
 5.539894288826784e-001	 1.285727697723875e+000	 4.038174452799349e+000
 5.411316321586673e-001	 1.291191913191203e+000	 3.966993642232593e+000
 5.282453013429073e-001	 1.296517219950213e+000	 3.936067098729541e+000
 5.153325933810786e-001	 1.301703621498723e+000	 3.944045239007233e+000
 6.544947950808100e-001	 1.265804709732783e+000	 5.998850684766476e+000
 6.416727310256640e-001	 1.272352587230109e+000	 5.711388025480786e+000
 6.288060845254007e-001	 1.278760301245210e+000	 5.445072565183194e+000
 6.158970859492943e-001	 1.285027540366422e+000	 5.165504344537145e+000
 6.029479640349765e-001	 1.291154039087298e+000	 4.916660270033145e+000
 5.899609447452219e-001	 1.297139577557208e+000	 4.715675226880502e+000
 5.769382501386233e-001	 1.302983981298996e+000	 4.561039726339446e+000
 5.638820972552072e-001	 1.308687120894417e+000	 4.451253706885751e+000
 5.507946970180175e-001	 1.314248911638107e+000	 4.384829409294821e+000
 5.376782531516472e-001	 1.319669313160837e+000	 4.360294146339417e+000
 5.245349611186642e-001	 1.324948329022888e+000	 4.376192962677680e+000
 6.659771599059257e-001	 1.288011809899122e+000	 6.268046207646387e+000
 6.529301473588947e-001	 1.294674562440264e+000	 5.994980250292591e+000
 6.398377702185056e-001	 1.301194692490741e+000	 5.745187304783328e+000
 6.267022979833187e-001	 1.307571883175522e+000	 5.518423591089274e+000
 6.135259984916264e-001	 1.313805864330157e+000	 5.277117194229342e+000
 6.003111367581824e-001	 1.319896412246986e+000	 5.078277685301803e+000
 5.870599738250635e-001	 1.325843349387848e+000	 4.927647925639497e+000
 5.737747656277360e-001	 1.331646544064004e+000	 4.823614694791577e+000
 5.604577618773676e-001	 1.337305910084030e+000	 4.764578011647224e+000
 5.471112049603870e-001	 1.342821406370466e+000	 4.748954085915202e+000
 5.337373288562498e-001	 1.348193036546053e+000	 4.775178153184922e+000
 6.774595247310413e-001	 1.310218910064956e+000	 6.467987322861471e+000
 6.641875636921253e-001	 1.316996537649819e+000	 6.210630942387815e+000
 6.508694559116106e-001	 1.323629083735587e+000	 5.978625714342942e+000
 6.375075100173435e-001	 1.330116225983865e+000	 5.771724749943385e+000
 6.241040329482768e-001	 1.336457689572195e+000	 5.586287113253614e+000
 6.106613287711429e-001	 1.342653246935887e+000	 5.392623409799885e+000
 5.971816975115036e-001	 1.348702717475778e+000	 5.248934937246615e+000
 5.836674340002647e-001	 1.354605967232635e+000	 5.153490234175447e+000
 5.701208267367177e-001	 1.360362908528973e+000	 5.104572183490568e+000
 5.565441567691268e-001	 1.365973499579100e+000	 5.100481151330127e+000
 5.429396965938355e-001	 1.371437744068218e+000	 5.139538002563866e+000
 6.889418895561570e-001	 1.332426010230286e+000	 6.600157901417128e+000
 6.754449800253557e-001	 1.339318512858777e+000	 6.359774492887632e+000
 6.619011416047155e-001	 1.346063474979750e+000	 6.146775632981987e+000
 6.483127220513681e-001	 1.352660568791450e+000	 5.960911659781614e+000
 6.346820674049267e-001	 1.359109514813409e+000	 5.801899517262071e+000
 6.210115207841032e-001	 1.365410081623910e+000	 5.656704490246519e+000
 6.073034211979438e-001	 1.371562085562787e+000	 5.522990302227183e+000
 5.935601023727934e-001	 1.377565390400310e+000	 5.439068942864695e+000
 5.797838915960678e-001	 1.383419906972935e+000	 5.403101118562811e+000
 5.659771085778667e-001	 1.389125592786738e+000	 5.413266486299356e+000
 5.521420643314210e-001	 1.394682451589383e+000	 5.467766854970410e+000
 4.601183869555650e-001	 1.162235376332733e+000	 4.146318504014642e+000
 4.485675500777414e-001	 1.166742110765889e+000	 3.958396867234946e+000
 4.369969884738851e-001	 1.171124942985806e+000	 3.776573619312658e+000
 4.254086008172057e-001	 1.175383989328324e+000	 3.601237326614812e+000
 4.138042749739843e-001	 1.179519402990089e+000	 3.432761720632114e+000
 4.021858871602735e-001	 1.183531373552289e+000	 3.271505230080454e+000
 3.905553011185042e-001	 1.187420126482944e+000	 3.117810553025017e+000
 3.789143673145657e-001	 1.191185922618588e+000	 2.972004269176369e+000
 3.672649221558911e-001	 1.194829057626238e+000	 2.834396492395781e+000
 3.556087872310356e-001	 1.198349861446522e+000	 2.705280563336043e+000
 3.439477685711992e-001	 1.201748697718857e+000	 2.584932782035952e+000
 4.693207546931507e-001	 1.185480083862899e+000	 3.790149622027133e+000
 4.575389010772938e-001	 1.190076952984894e+000	 3.562110556135648e+000
 4.457369282409294e-001	 1.194547441849339e+000	 3.341136551091675e+000
 4.339167728307313e-001	 1.198891669118793e+000	 3.127665769835478e+000
 4.220803604703061e-001	 1.203109791053833e+000	 2.922119734952799e+000
 4.102296049000269e-001	 1.207202001027270e+000	 2.724902821858483e+000
 3.983664071371729e-001	 1.211168529016486e+000	 2.536401795747467e+000
 3.864926546569514e-001	 1.215009641074747e+000	 2.356985392461845e+000
 3.746102205949434e-001	 1.218725638782410e+000	 2.187003943300551e+000
 3.627209629714751e-001	 1.222316858678915e+000	 2.026789043678092e+000
 3.508267239383701e-001	 1.225783671676468e+000	 1.876653265423286e+000
 4.785231224307363e-001	 1.208724791392063e+000	 3.446208895589613e+000
 4.665102520768511e-001	 1.213411795202904e+000	 3.177470836196187e+000
 4.544768680079944e-001	 1.217969940711893e+000	 2.916777398666696e+000
 4.424249448443032e-001	 1.222399348908308e+000	 2.664617736384530e+000
 4.303564459667101e-001	 1.226700179116658e+000	 2.421462507870957e+000
 4.182733226399084e-001	 1.230872628501380e+000	 2.187763329722436e+000
 4.061775131560257e-001	 1.234916931549213e+000	 1.963952277178987e+000
 3.940709419995869e-001	 1.238833359530156e+000	 1.750441432471295e+000
 3.819555190343212e-001	 1.242622219937908e+000	 1.547622480962810e+000
 3.698331387123256e-001	 1.246283855910719e+000	 1.355866354973009e+000
 3.577056793060472e-001	 1.249818645633586e+000	 1.175522925044271e+000
 4.877254901683218e-001	 1.231969498920228e+000	 3.116235289804261e+000
 4.754816030764138e-001	 1.236746637419919e+000	 2.806123696557976e+000
 4.632168077750800e-001	 1.241392439573469e+000	 2.505050747580932e+000
 4.509331168579215e-001	 1.245907028696869e+000	 2.213558035318150e+000
 4.386325314631960e-001	 1.250290567178565e+000	 1.944080518780681e+000
 4.263170403799179e-001	 1.254543255974616e+000	 1.852091400914127e+000
 4.139886191750625e-001	 1.258665334081123e+000	 1.773133057239886e+000
 4.016492293424722e-001	 1.262657077984815e+000	 1.706268124050732e+000
 3.893008174740246e-001	 1.266518801092730e+000	 1.650601971611193e+000
 3.769453144535872e-001	 1.270250853141934e+000	 1.605283603395312e+000
 3.645846346742306e-001	 1.273853619590210e+000	 1.569506437072616e+000
 4.969278579059074e-001	 1.255214206447393e+000	 2.985875380264203e+000
 4.844529540759813e-001	 1.260081479635939e+000	 2.819442960966089e+000
 4.719567475421861e-001	 1.264814938434064e+000	 2.670274491630741e+000
 4.594412888715863e-001	 1.269414708484477e+000	 2.537205779175301e+000
 4.469086169597642e-001	 1.273880955239555e+000	 2.419113149516747e+000
 4.343607581200555e-001	 1.278213883446982e+000	 2.314914904409136e+000
 4.217997251942836e-001	 1.282413736612218e+000	 2.223572652181474e+000
 4.092275166856078e-001	 1.286480796438724e+000	 2.144092511989756e+000
 3.966461159140537e-001	 1.290415382246879e+000	 2.075526191560078e+000
 3.840574901952600e-001	 1.294217850372561e+000	 2.016971938757241e+000
 3.714635900429202e-001	 1.297888593546341e+000	 1.967575367657518e+000
 5.061302256434931e-001	 1.278458913973559e+000	 3.480151046997808e+000
 4.934243050755545e-001	 1.283416321850965e+000	 3.304364072786391e+000
 4.806966873093129e-001	 1.288237437293681e+000	 3.145849339822764e+000
 4.679494608852972e-001	 1.292922388271131e+000	 3.003371122301190e+000
 4.551847024564146e-001	 1.297471343299627e+000	 2.875736947290752e+000
 4.424044758603211e-001	 1.301884510918475e+000	 2.761799136883175e+000
 4.296108312136884e-001	 1.306162139142497e+000	 2.660456216590699e+000
 4.168058040289929e-001	 1.310304514891883e+000	 2.570654189585684e+000
 4.039914143544084e-001	 1.314311963400354e+000	 2.491387676763188e+000
 3.911696659373438e-001	 1.318184847602598e+000	 2.421700922982848e+000
 3.783425454121162e-001	 1.321923567501977e+000	 2.360688670212619e+000
 5.153325933810786e-001	 1.301703621498723e+000	 3.944045239007233e+000
 5.023956560751326e-001	 1.306751164064996e+000	 3.761740314626252e+000
 4.894366270764604e-001	 1.311659936152317e+000	 3.596644492868684e+000
 4.764576328990545e-001	 1.316430068056832e+000	 3.447446164673577e+000
 4.634607879531473e-001	 1.321061731358781e+000	 3.312879872282923e+000
 4.504481936007150e-001	 1.325555138389096e+000	 3.191727940564026e+000
 4.374219372332774e-001	 1.329910541671960e+000	 3.082821966559898e+000
 4.243840913726281e-001	 1.334128233344292e+000	 2.985044166841586e+000
 4.113367127950888e-001	 1.338208544553154e+000	 2.897328582646520e+000
 3.982818416798388e-001	 1.342151844832047e+000	 2.818662143183029e+000
 3.852215007818186e-001	 1.345958541457120e+000	 2.748085587871183e+000
 5.245349611186642e-001	 1.324948329022888e+000	 4.376192962677680e+000
 5.113670070747159e-001	 1.330086006278032e+000	 4.190270893233835e+000
 4.981765668436284e-001	 1.335082435009975e+000	 4.021422120225711e+000
 4.849658049128581e-001	 1.339937747841579e+000	 3.868254715654058e+000
 4.717368734499620e-001	 1.344652119417017e+000	 3.729425968824058e+000
 4.584919113412370e-001	 1.349225765858846e+000	 3.603644110778556e+000
 4.452330432530504e-001	 1.353658944200606e+000	 3.489669888563222e+000
 4.319623787165131e-001	 1.357951951795951e+000	 3.386317988877909e+000
 4.186820112360947e-001	 1.362105125705279e+000	 3.292458311100955e+000
 4.053940174227448e-001	 1.366118842060906e+000	 3.207017090094276e+000
 3.921004561520270e-001	 1.369993515411769e+000	 3.128977869608007e+000
 5.337373288562498e-001	 1.348193036546053e+000	 4.775178153184922e+000
 5.203383580743043e-001	 1.353420848490073e+000	 4.588606745822869e+000
 5.069165066108171e-001	 1.358504933866653e+000	 4.418898879872243e+000
 4.934739769267079e-001	 1.363445427625372e+000	 4.264577786609454e+000
 4.800129589468590e-001	 1.368242507474335e+000	 4.124219151244570e+000
 4.665356290818870e-001	 1.372896393327723e+000	 3.996452934478505e+000
 4.530441492730074e-001	 1.377407346728437e+000	 3.879965035113329e+000
 4.395406660606480e-001	 1.381775670246859e+000	 3.773498793249681e+000
 4.260273096774264e-001	 1.386001706856731e+000	 3.675856334062824e+000
 4.125061931660621e-001	 1.390085839289177e+000	 3.585899752593845e+000
 3.989794115227419e-001	 1.394028489365924e+000	 3.502552140425160e+000
 5.429396965938355e-001	 1.371437744068218e+000	 5.139538002563866e+000
 5.293097090738980e-001	 1.376755690701119e+000	 4.955354630711250e+000
 5.156564463780266e-001	 1.381927432722353e+000	 4.787749775213472e+000
 5.019821489406041e-001	 1.386953107408211e+000	 4.635157217860404e+000
 4.882890444438380e-001	 1.391832895530736e+000	 4.496066604721877e+000
 4.745793468226650e-001	 1.396567020795728e+000	 4.369025368916533e+000
 4.608552552931485e-001	 1.401155749255452e+000	 4.252640485266684e+000
 4.471189534050329e-001	 1.405599388697018e+000	 4.145580056350458e+000
 4.333726081190836e-001	 1.409898288007507e+000	 4.046574729950771e+000
 4.196183689097904e-001	 1.414052836516859e+000	 3.954418948365435e+000
 4.058583668939629e-001	 1.418063463319586e+000	 3.867972030502417e+000
 5.521420643314210e-001	 1.394682451589383e+000	 5.467766854970410e+000
 5.382810600734966e-001	 1.400090532911170e+000	 5.289080808895743e+000
 5.243963861452564e-001	 1.405349931577071e+000	 5.126611626295341e+000
 5.104903209545467e-001	 1.410460787190097e+000	 4.978698942935276e+000
 4.965651299408992e-001	 1.415423283586218e+000	 4.843741846043228e+000
 4.826230645635711e-001	 1.420237648262862e+000	 4.720200902454486e+000
 4.686663613134736e-001	 1.424904151781651e+000	 4.606600009077902e+000
 4.546972407496676e-001	 1.429423107146426e+000	 4.501528065175671e+000
 4.407179065610664e-001	 1.433794869157610e+000	 4.403640466458993e+000
 4.267305446539296e-001	 1.438019833743952e+000	 4.311660421498943e+000
 4.127373222656903e-001	 1.442098437272754e+000	 4.224380091432414e+000
 3.439477685711992e-001	 1.201748697718857e+000	 2.584932782035952e+000
 3.322836559344022e-001	 1.205025963190290e+000	 2.397180298365941e+000
 3.206182221117185e-001	 1.208182087106841e+000	 2.218382592510666e+000
 3.089532222566899e-001	 1.211217530589606e+000	 2.048763209487024e+000
 2.972903932386897e-001	 1.214132785997952e+000	 1.888529419464773e+000
 2.856314530195621e-001	 1.216928376278658e+000	 1.737872113554913e+000
 2.739781000540936e-001	 1.219604854302598e+000	 1.596965735038080e+000
 2.623320127144961e-001	 1.222162802189878e+000	 1.465968245296208e+000
 2.506948487390460e-001	 1.224602830624363e+000	 1.345021123637808e+000
 2.390682447049865e-001	 1.226925578158476e+000	 1.234249400138585e+000
 2.274538155257646e-001	 1.229131710509183e+000	 1.133761720556649e+000
 3.508267239383701e-001	 1.225783671676468e+000	 1.876653265423286e+000
 3.389293290488262e-001	 1.229126482457096e+000	 1.660083046775671e+000
 3.270305865497554e-001	 1.232345728851775e+000	 1.455154162759900e+000
 3.151322866977697e-001	 1.235441881204021e+000	 1.262112582862697e+000
 3.032362010996294e-001	 1.238415441720392e+000	 1.081184948234992e+000
 2.913440820764148e-001	 1.241266943806600e+000	 9.125784911276318e-001
 2.794576620520075e-001	 1.243996951390936e+000	 7.564809938388477e-001
 2.675786529660631e-001	 1.246606058235910e+000	 6.130607862998759e-001
 2.557087457116227e-001	 1.249094887239062e+000	 4.824667813461074e-001
 2.438496095974737e-001	 1.251464089723864e+000	 4.328262484678497e-001
 2.320028918353312e-001	 1.253714344721621e+000	 4.314553260506879e-001
 3.577056793060472e-001	 1.249818645633586e+000	 1.175522925044271e+000
 3.455750021638407e-001	 1.253227001723497e+000	 1.079173783094632e+000
 3.334429509884362e-001	 1.256509370596373e+000	 1.001818836419721e+000
 3.213113511395162e-001	 1.259666231818150e+000	 9.344983771706293e-001
 3.091820089612280e-001	 1.262698097442573e+000	 8.766060411398201e-001
 2.970567111338883e-001	 1.265605511334292e+000	 8.275786016494495e-001
 2.849372240504742e-001	 1.268389048479013e+000	 7.868960890820205e-001
 2.728252932180850e-001	 1.271049314281647e+000	 7.540818108989099e-001
 2.607226426845268e-001	 1.273586943853415e+000	 7.287022747441256e-001
 2.486309744901316e-001	 1.276002601288834e+000	 7.103670174244016e-001
 2.365519681448832e-001	 1.278296978933551e+000	 6.987283427336963e-001
 3.645846346742306e-001	 1.273853619590210e+000	 1.569506437072616e+000
 3.522206752794460e-001	 1.277327520989495e+000	 1.465643011899670e+000
 3.398553154277613e-001	 1.280673012340635e+000	 1.373306831707815e+000
 3.274904155819297e-001	 1.283890582431992e+000	 1.291805135667306e+000
 3.151278168234856e-001	 1.286980753164496e+000	 1.220489985718807e+000
 3.027693401919827e-001	 1.289944078861733e+000	 1.158758522776277e+000
 2.904167860494936e-001	 1.292781145566826e+000	 1.106053115405483e+000
 2.780719334705617e-001	 1.295492570327091e+000	 1.061861403463979e+000
 2.657365396577585e-001	 1.298079000467422e+000	 1.025716239406793e+000
 2.534123393829606e-001	 1.300541112853388e+000	 9.971955301690455e-001
 2.411010444544205e-001	 1.302879613144973e+000	 9.759219827233160e-001
 3.714635900429202e-001	 1.297888593546341e+000	 1.967575367657518e+000
 3.588663483956419e-001	 1.301428040255088e+000	 1.849954508888801e+000
 3.462676798677306e-001	 1.304836654084563e+000	 1.744555614473909e+000
 3.336694800250099e-001	 1.308114933045548e+000	 1.650640249593083e+000
 3.210736246864022e-001	 1.311263408886161e+000	 1.567516912014122e+000
 3.084819692506980e-001	 1.314282646388924e+000	 1.494541322719873e+000
 2.958963480490659e-001	 1.317173242654377e+000	 1.431116603057556e+000
 2.833185737234933e-001	 1.319935826372240e+000	 1.376693340997896e+000
 2.707504366313177e-001	 1.322571057081083e+000	 1.330769549326469e+000
 2.581937042759604e-001	 1.325079624417525e+000	 1.292890518806225e+000
 2.456501207639431e-001	 1.327462247355889e+000	 1.262648569549724e+000
 3.783425454121162e-001	 1.321923567501977e+000	 2.360688670212619e+000
 3.655120215124286e-001	 1.325528559520277e+000	 2.231409278145903e+000
 3.526800443083439e-001	 1.329000295828156e+000	 2.114898456862939e+000
 3.398485444687569e-001	 1.332339283658817e+000	 2.010369837802226e+000
 3.270194325499777e-001	 1.335546064607567e+000	 1.917086300061106e+000
 3.141945983100343e-001	 1.338621213915864e+000	 1.834360295146274e+000
 3.013759100491909e-001	 1.341565339741666e+000	 1.761554051952707e+000
 2.885652139768799e-001	 1.344379082417094e+000	 1.698079664671622e+000
 2.757643336052044e-001	 1.347063113694399e+000	 1.643399066576080e+000
 2.629750691691311e-001	 1.349618135981245e+000	 1.597023892861360e+000
 2.501991970734510e-001	 1.352044881566296e+000	 1.558515235931084e+000
 3.852215007818186e-001	 1.345958541457120e+000	 2.748085587871183e+000
 3.721576946298060e-001	 1.349629078785063e+000	 2.609281792146621e+000
 3.590924087496013e-001	 1.353163937571413e+000	 2.483645467263431e+000
 3.460276089131706e-001	 1.356563634271800e+000	 2.370339985268746e+000
 3.329652404142124e-001	 1.359828720328715e+000	 2.268580488442670e+000
 3.199072273699914e-001	 1.362959781442554e+000	 2.177634247908651e+000
 3.068554720498686e-001	 1.365957436828692e+000	 2.096820895835000e+000
 2.938118542307213e-001	 1.368822338461654e+000	 2.025512534049403e+000
 2.807782305794186e-001	 1.371555170307368e+000	 1.963133722149897e+000
 2.677564340624727e-001	 1.374156647544548e+000	 1.909161348439990e+000
 2.547482733829443e-001	 1.376627515776197e+000	 1.863124387238924e+000
 3.921004561520270e-001	 1.369993515411769e+000	 3.128977869608007e+000
 3.788033677477742e-001	 1.373729598049444e+000	 2.982822319092100e+000
 3.655047731915029e-001	 1.377327579314336e+000	 2.850085622215718e+000
 3.522066733582515e-001	 1.380787984884496e+000	 2.729878500444265e+000
 3.389110482791060e-001	 1.384111376049604e+000	 2.621366177925282e+000
 3.256198564305694e-001	 1.387298348968993e+000	 2.523768773732644e+000
 3.123350340510992e-001	 1.390349533915456e+000	 2.436361560714179e+000
 2.990584944850177e-001	 1.393265594505920e+000	 2.358475093896226e+000
 2.857921275539603e-001	 1.396047226919992e+000	 2.289495211672358e+000
 2.725377989559853e-001	 1.398695159107434e+000	 2.228862913264248e+000
 2.592973496924230e-001	 1.401210149985591e+000	 2.176074116177529e+000
 3.989794115227419e-001	 1.394028489365924e+000	 3.502552140425160e+000
 3.854490408663330e-001	 1.397830117313421e+000	 3.351259009484651e+000
 3.719171376340487e-001	 1.401491221056923e+000	 3.213488588123123e+000
 3.583857378039989e-001	 1.405012335496905e+000	 3.088296490820075e+000
 3.448568561446585e-001	 1.408394031770236e+000	 2.974795779546664e+000
 3.313324854917683e-001	 1.411636916495181e+000	 2.872157389451425e+000
 3.178145960528824e-001	 1.414741631001957e+000	 2.779610413808070e+000
 3.043051347397689e-001	 1.417708850549892e+000	 2.696442251315717e+000
 2.908060245288295e-001	 1.420539283532269e+000	 2.621998619136732e+000
 2.773191638496687e-001	 1.423233670669902e+000	 2.555683435326885e+000
 2.638464260018870e-001	 1.425792784194477e+000	 2.496958574565900e+000
 4.058583668939629e-001	 1.418063463319586e+000	 3.867972030502417e+000
 3.920947139854824e-001	 1.421930636576994e+000	 3.713799770508722e+000
 3.783295020772386e-001	 1.425654862799175e+000	 3.573106357704088e+000
 3.645648022504132e-001	 1.429236686109027e+000	 3.444889778262969e+000
 3.508026640108701e-001	 1.432676687490608e+000	 3.328208625609526e+000
 3.370451145535881e-001	 1.435975484021120e+000	 3.222182559386595e+000
 3.232941580552187e-001	 1.439133728088196e+000	 3.125992615982609e+000
 3.095517749949749e-001	 1.442152106593569e+000	 3.038881373857086e+000
 2.958199215040263e-001	 1.445031340144201e+000	 2.960152977212800e+000
 2.821005287435230e-001	 1.447772182231954e+000	 2.889173021851019e+000
 2.683955023113362e-001	 1.450375418402855e+000	 2.825368307310713e+000
 4.127373222656903e-001	 1.442098437272754e+000	 4.224380091432414e+000
 3.987403871052226e-001	 1.446031155840163e+000	 4.069633952974203e+000
 3.847418665210725e-001	 1.449818504541092e+000	 3.928174722799224e+000
 3.707438666974943e-001	 1.453461036720863e+000	 3.798940172816974e+000
 3.567484718777406e-001	 1.456959343210722e+000	 3.680932059576446e+000
 3.427577436160288e-001	 1.460314051546808e+000	 3.573216616390542e+000
 3.287737200581075e-001	 1.463525825174173e+000	 3.474924888947925e+000
 3.147984152506359e-001	 1.466595362636951e+000	 3.385252917811057e+000
 3.008338184795505e-001	 1.469523396755786e+000	 3.303461771523889e+000
 2.868818936375482e-001	 1.472310693793589e+000	 3.228877434354669e+000
 2.729445786207708e-001	 1.474958052610726e+000	 3.160890552982617e+000
 2.274538155257646e-001	 1.229131710509183e+000	 1.133761720556649e+000
 2.158531539728275e-001	 1.231221919845279e+000	 9.921583659367500e-001
 2.042678302214702e-001	 1.233196924069199e+000	 8.595756888406417e-001
 1.926993914209578e-001	 1.235057466092679e+000	 7.360812780851233e-001
 1.811493612893029e-001	 1.236804313105527e+000	 6.217287740533857e-001
 1.696192397320706e-001	 1.238438255840743e+000	 5.165580275350006e-001
 1.581105024852513e-001	 1.239960107836013e+000	 4.205952827700381e-001
 1.466246007820464e-001	 1.241370704692402e+000	 3.338533835660916e-001
 1.351629610433849e-001	 1.242670903331058e+000	 2.563320013294730e-001
 1.237269845919663e-001	 1.243861581248700e+000	 1.880178838346844e-001
 1.123180473895901e-001	 1.244943635772666e+000	 1.288851235371391e-001
 2.320028918353312e-001	 1.253714344721621e+000	 4.314553260506879e-001
 2.201702170519754e-001	 1.255846358244472e+000	 3.833786751885958e-001
 2.083531868261118e-001	 1.257860862552874e+000	 3.397919187772299e-001
 1.965533792499917e-001	 1.259758615416796e+000	 3.004998232656538e-001
 1.847723485159892e-001	 1.261540399369842e+000	 2.653477834752291e-001
 1.730116245277816e-001	 1.263207020959674e+000	 2.342211262060557e-001
 1.612727125360804e-001	 1.264759309994731e+000	 2.070443462945018e-001
 1.495570927987517e-001	 1.266198118788100e+000	 1.837802788349972e-001
 1.378662202651445e-001	 1.267524321399351e+000	 1.644292113292057e-001
 1.262015242844133e-001	 1.268738812875140e+000	 1.490279395698533e-001
 1.145644083375946e-001	 1.269842508489349e+000	 1.376487710896470e-001
 2.365519681448832e-001	 1.278296978933551e+000	 6.987283427336963e-001
 2.244872801309242e-001	 1.280470796643069e+000	 6.401738460415734e-001
 2.124385434304010e-001	 1.282524801035884e+000	 5.872046083270508e-001
 2.004073670785509e-001	 1.284459764740199e+000	 5.395980838225005e-001
 1.883953357421090e-001	 1.286276485633416e+000	 4.971739066279257e-001
 1.764040093228645e-001	 1.287975786077856e+000	 4.597931911854667e-001
 1.644349225862496e-001	 1.289558512152712e+000	 4.273577613348503e-001
 1.524895848147954e-001	 1.291025532883092e+000	 3.998093118178758e-001
 1.405694794862699e-001	 1.292377739466991e+000	 3.771285061590027e-001
 1.286760639762829e-001	 1.293616044500996e+000	 3.593340148916379e-001
 1.168107692851074e-001	 1.294741381205540e+000	 3.464814981323805e-001
 2.411010444544205e-001	 1.302879613144973e+000	 9.759219827233160e-001
 2.288043432096740e-001	 1.305095235041069e+000	 9.073849918133309e-001
 2.165239000343380e-001	 1.307188739518228e+000	 8.453502088181679e-001
 2.042613549066354e-001	 1.309160914062888e+000	 7.895677495938193e-001
 1.920183229676621e-001	 1.311012571896248e+000	 7.398316523149974e-001
 1.797963941173191e-001	 1.312744551195289e+000	 6.959791713507886e-001
 1.675971326357591e-001	 1.314357714309955e+000	 6.578899956271199e-001
 1.554220768301773e-001	 1.315852946977379e+000	 6.254853955138242e-001
 1.432727387067614e-001	 1.317231157533977e+000	 5.987273023370381e-001
 1.311506036675752e-001	 1.318493276126271e+000	 5.776173246660231e-001
 1.190571302321284e-001	 1.319640253921239e+000	 5.621957055570853e-001
 2.456501207639431e-001	 1.327462247355889e+000	 1.262648569549724e+000
 2.331214062882249e-001	 1.329719673438472e+000	 1.184657068121007e+000
 2.206092566379227e-001	 1.331852677999906e+000	 1.113907552465804e+000
 2.081153427342451e-001	 1.333862063384863e+000	 1.050122720225938e+000
 1.956413101926485e-001	 1.335748658158338e+000	 9.930711265476513e-001
 1.831887789111455e-001	 1.337513316311971e+000	 9.425664679013031e-001
 1.707593426846086e-001	 1.339156916466462e+000	 8.984667860668207e-001
 1.583545688448976e-001	 1.340680361070961e+000	 8.606735965049586e-001
 1.459759979266187e-001	 1.342084575600310e+000	 8.291309454021353e-001
 1.336251433582900e-001	 1.343370507750963e+000	 8.038243997291547e-001
 1.213034911786578e-001	 1.344539126636447e+000	 7.847799746932490e-001
 2.501991970734510e-001	 1.352044881566296e+000	 1.558515235931084e+000
 2.374384693665767e-001	 1.354344111835278e+000	 1.471631316189991e+000
 2.246946132411551e-001	 1.356516616480918e+000	 1.392552916067680e+000
 2.119693305613802e-001	 1.358563212706124e+000	 1.320975183839608e+000
 1.992642974170683e-001	 1.360484744419687e+000	 1.256641255131227e+000
 1.865811637043437e-001	 1.362282081427904e+000	 1.199341523230286e+000
 1.739215527327984e-001	 1.363956118622231e+000	 1.148912825013240e+000
 1.612870608589561e-001	 1.365507775163839e+000	 1.105237546899780e+000
 1.486792571458419e-001	 1.366937993665990e+000	 1.068242655324430e+000
 1.360996830484276e-001	 1.368247739375074e+000	 1.037898656270781e+000
 1.235498521246955e-001	 1.369437999351162e+000	 1.014218488455317e+000
 2.547482733829443e-001	 1.376627515776197e+000	 1.863124387238924e+000
 2.417555324447295e-001	 1.378968550231487e+000	 1.767945594496254e+000
 2.287799698440352e-001	 1.381180554961264e+000	 1.680960249166345e+000
 2.158233183880405e-001	 1.383264362026671e+000	 1.601835769844690e+000
 2.028872846409215e-001	 1.385220830680293e+000	 1.530289889040559e+000
 1.899735484969136e-001	 1.387050846543088e+000	 1.466089906532820e+000
 1.770837627803283e-001	 1.388755320777263e+000	 1.409051853551849e+000
 1.642195528723530e-001	 1.390335189256011e+000	 1.359039572410939e+000
 1.513825163644310e-001	 1.391791411731016e+000	 1.315963716288721e+000
 1.385742227379879e-001	 1.393124970998602e+000	 1.279780673927874e+000
 1.257962130702414e-001	 1.394336872065386e+000	 1.250491424058309e+000
 2.592973496924230e-001	 1.401210149985591e+000	 2.176074116177529e+000
 2.460725955226833e-001	 1.403592988627099e+000	 2.073234675498591e+000
 2.328653264465631e-001	 1.405844493440945e+000	 1.978801378194434e+000
 2.196773062142260e-001	 1.407965511346504e+000	 1.892413685669280e+000
 2.065102718642081e-001	 1.409956916940157e+000	 1.813763898703625e+000
 1.933659332888553e-001	 1.411819611657522e+000	 1.742596390401947e+000
 1.802459728271983e-001	 1.413554522931558e+000	 1.678706744939284e+000
 1.671520448850882e-001	 1.415162603347478e+000	 1.621940806951542e+000
 1.540857755823860e-001	 1.416644829795389e+000	 1.572193646499978e+000
 1.410487624269708e-001	 1.418002202621548e+000	 1.529408444604941e+000
 1.280425740152957e-001	 1.419235744779119e+000	 1.493575304394945e+000
 2.638464260018870e-001	 1.425792784194477e+000	 2.496958574565900e+000
 2.503896586004381e-001	 1.428217427022114e+000	 2.387130511674549e+000
 2.369506830487388e-001	 1.430508431919961e+000	 2.285746189501317e+000
 2.235312940399369e-001	 1.432666660665623e+000	 2.192416839344318e+000
 2.101332590869281e-001	 1.434693003199280e+000	 2.106809258531303e+000
 1.967583180801687e-001	 1.436588376771206e+000	 2.028645019501497e+000
 1.834081828734086e-001	 1.438353725085116e+000	 1.957699579416024e+000
 1.700845368971617e-001	 1.439990017438240e+000	 1.893801295376478e+000
 1.567890347997069e-001	 1.441498247859109e+000	 1.836830350423069e+000
 1.435233021153763e-001	 1.442879434243912e+000	 1.786717595554457e+000
 1.302889349598582e-001	 1.444134617492359e+000	 1.743443313063495e+000
 2.683955023113362e-001	 1.450375418402855e+000	 2.825368307310713e+000
 2.547067216779939e-001	 1.452841865416533e+000	 2.709262474502011e+000
 2.410360396505621e-001	 1.455172370398310e+000	 2.601462793767055e+000
 2.273852818651730e-001	 1.457367809984029e+000	 2.501551949622145e+000
 2.137562463090814e-001	 1.459429089457661e+000	 2.409171122850994e+000
 2.001507028708540e-001	 1.461357141884142e+000	 2.324019172254755e+000
 1.865703929189590e-001	 1.463152927237936e+000	 2.245851711411503e+000
 1.730170289085735e-001	 1.464817431528297e+000	 2.174480085775375e+000
 1.594922940163937e-001	 1.466351665922175e+000	 2.109770255540369e+000
 1.459978418032046e-001	 1.467756665865694e+000	 2.051641589771020e+000
 1.325352959039290e-001	 1.469033490205109e+000	 2.000065577358920e+000
 2.729445786207708e-001	 1.474958052610726e+000	 3.160890552982617e+000
 2.590237847553507e-001	 1.477466303810354e+000	 3.039257569542443e+000
 2.451213962520330e-001	 1.479836308875993e+000	 2.925617673974542e+000
 2.312392696899343e-001	 1.482068959301720e+000	 2.819524645082718e+000
 2.173792335306681e-001	 1.484165175715300e+000	 2.720593894247127e+000
 2.035430876609109e-001	 1.486125906996327e+000	 2.628501616364737e+000
 1.897326029638495e-001	 1.487952129390019e+000	 2.542983830028122e+000
 1.759495209193236e-001	 1.489644845617649e+000	 2.463835312536646e+000
 1.621955532324464e-001	 1.491205083984588e+000	 2.390908435433651e+000
 1.484723814904554e-001	 1.492633897486894e+000	 2.324111906346416e+000
 1.347816568475081e-001	 1.493932362917365e+000	 2.263409422964517e+000
 1.123180473895901e-001	 1.244943635772666e+000	 1.288851235371391e-001
 1.009374997969171e-001	 1.245917983316647e+000	 5.606420086791790e-002
 8.958666635718569e-002	 1.246785558636688e+000	-6.521085539586677e-003
 7.826684560235818e-002	 1.247547314088946e+000	-5.891330182890540e-002
 6.697930988018169e-002	 1.248204218890639e+000	-1.011674618181074e-001
 5.572530520361981e-002	 1.248757258383706e+000	-1.333506754390800e-001
 4.450605112168756e-002	 1.249207433302222e+000	-1.555417838420154e-001
 3.332274061130324e-002	 1.249555759044168e+000	-1.678309823930904e-001
 2.217653998975738e-002	 1.249803264948180e+000	-1.703194327841210e-001
 1.106858884738389e-002	 1.249950993575827e+000	-1.631188654542542e-001
 0.000000000000000e+000	 1.250000000000000e+000	-1.463511735054916e-001
 1.145644083375946e-001	 1.269842508489349e+000	 1.376487710896470e-001
 1.029562497926623e-001	 1.270836342983972e+000	 1.091173369445660e-001
 9.137839968381835e-002	 1.271721269810203e+000	 8.540108973070526e-002
 7.983218251366320e-002	 1.272498260371322e+000	 6.668750141030036e-002
 6.831889607689809e-002	 1.273168303268888e+000	 5.319467163409431e-002
 5.683981130674506e-002	 1.273732403551682e+000	 4.517012076469322e-002
 4.539617214319856e-002	 1.274191581968459e+000	 4.288955398406300e-002
 3.398919542271439e-002	 1.274546874225160e+000	 4.665560017068698e-002
 2.262007078892794e-002	 1.274799330247191e+000	 5.679652916865847e-002
 1.128996062397893e-002	 1.274950013447355e+000	 7.366495100214127e-002
 0.000000000000000e+000	 1.275000000000000e+000	 9.763650051050855e-002
 1.168107692851074e-001	 1.294741381205540e+000	 3.464814981323805e-001
 1.049749997880107e-001	 1.295754702650900e+000	 3.180695539887143e-001
 9.317013301013843e-002	 1.296656980983405e+000	 2.947924780114151e-001
 8.139751942472966e-002	 1.297449206653458e+000	 2.768209965316617e-001
 6.965848227343983e-002	 1.298132387646963e+000	 2.643584005643370e-001
 5.795431740974947e-002	 1.298707548719538e+000	 2.576392952048898e-001
 4.628629316463252e-002	 1.299175730634619e+000	 2.569283175270453e-001
 3.465565023408233e-002	 1.299537989406108e+000	 2.625188268671245e-001
 2.306360158807937e-002	 1.299795395546184e+000	 2.747315713183240e-001
 1.151133240056920e-002	 1.299949033318879e+000	 2.939133341854847e-001
 0.000000000000000e+000	 1.300000000000000e+000	 3.204355640726316e-001
 1.190571302321284e-001	 1.319640253921239e+000	 5.621957055570853e-001
 1.069937497829620e-001	 1.320673062317432e+000	 5.318222522946859e-001
 9.496186633614591e-002	 1.321592692156296e+000	 5.067568683453007e-001
 8.296285633555761e-002	 1.322400152935356e+000	 4.871553019528822e-001
 7.099806846980696e-002	 1.323096472024863e+000	 4.732079366050874e-001
 5.906882351263302e-002	 1.323682693887272e+000	 4.651384919279765e-001
 4.717641418598938e-002	 1.324159879300702e+000	 4.632026904120560e-001
 3.532210504540707e-002	 1.324529104587013e+000	 4.676868940692101e-001
 2.350713238721168e-002	 1.324791460845157e+000	 4.789067150553736e-001
 1.173270417715471e-002	 1.324948053190398e+000	 4.972056042192565e-001
 0.000000000000000e+000	 1.325000000000000e+000	 5.229534214555299e-001
 1.213034911786578e-001	 1.344539126636447e+000	 7.847799746932490e-001
 1.090124997775164e-001	 1.345591421983566e+000	 7.504520645447339e-001
 9.675359966184079e-002	 1.346528403328873e+000	 7.214583960987729e-001
 8.452819324614709e-002	 1.347351099217016e+000	 6.979414676127063e-001
 7.233765466599945e-002	 1.348060556402588e+000	 6.800806192235394e-001
 6.018332961539571e-002	 1.348657839054886e+000	 6.680906804277964e-001
 4.806653520726916e-002	 1.349144027966708e+000	 6.622205806356228e-001
 3.598855985668861e-002	 1.349520219767875e+000	 6.627519271234851e-001
 2.395066318632485e-002	 1.349787526144111e+000	 6.699975546439689e-001
 1.195407595373545e-002	 1.349947073061912e+000	 6.843000508747841e-001
 0.000000000000000e+000	 1.350000000000000e+000	 7.060302618025043e-001
 1.235498521246955e-001	 1.369437999351162e+000	 1.014218488455317e+000
 1.110312497716739e-001	 1.370509781649304e+000	 9.740263644953040e-001
 9.854533298722308e-002	 1.371464114501138e+000	 9.390468866593297e-001
 8.609353015649802e-002	 1.372302045498437e+000	 9.094109957541922e-001
 7.367724086201732e-002	 1.373024640780139e+000	 8.852888197309311e-001
 6.129783571803756e-002	 1.373632984222379e+000	 8.668882627972939e-001
 4.895665622847188e-002	 1.374128176632637e+000	 8.544535547563064e-001
 3.665501466792696e-002	 1.374511334948694e+000	 8.482637651322925e-001
 2.439419398541888e-002	 1.374783591443046e+000	 8.486312865787499e-001
 1.217544773031143e-002	 1.374946092933421e+000	 8.559002919829437e-001
 0.000000000000000e+000	 1.375000000000000e+000	 8.704451695919743e-001
 1.257962130702414e-001	 1.394336872065386e+000	 1.250491424058309e+000
 1.130499997654344e-001	 1.395428141314644e+000	 1.202604093666860e+000
 1.003370663122928e-001	 1.396399825673090e+000	 1.159659133112126e+000
 8.765886706661044e-002	 1.397252991779620e+000	 1.121777586254502e+000
 7.501682705786056e-002	 1.397988725157515e+000	 1.089122170582138e+000
 6.241234182055857e-002	 1.398608129389751e+000	 1.061895802960756e+000
 4.984677724959753e-002	 1.399112325298489e+000	 1.040340082665904e+000
 3.732146947912210e-002	 1.399502450129469e+000	 1.024733736511479e+000
 2.483772478449378e-002	 1.399779656741962e+000	 1.015391030814657e+000
 1.239681950688264e-002	 1.399945112804926e+000	 1.012660154857308e+000
 0.000000000000000e+000	 1.400000000000000e+000	 1.016921580411171e+000
 1.280425740152957e-001	 1.419235744779119e+000	 1.493575304394945e+000
 1.150687497587980e-001	 1.420346500979588e+000	 1.436236501013722e+000
 1.021287996370500e-001	 1.421335536844730e+000	 1.383420039424550e+000
 8.922420397648437e-002	 1.422203938060564e+000	 1.335238698235949e+000
 7.635641325352915e-002	 1.422952809534717e+000	 1.291849560012382e+000
 6.352684792295871e-002	 1.423583274557002e+000	 1.253452468618323e+000
 5.073689827064610e-002	 1.424096473964263e+000	 1.220288440805767e+000
 3.798792429027404e-002	 1.424493565310201e+000	 1.192638037120708e+000
 2.528125558354956e-002	 1.424775722040858e+000	 1.170819697129702e+000
 1.261819128344908e-002	 1.424944132676426e+000	 1.155188043883533e+000
 0.000000000000000e+000	 1.425000000000000e+000	 1.146132162437781e+000
 1.302889349598582e-001	 1.444134617492359e+000	 1.743443313063495e+000
 1.170874997517646e-001	 1.445264860644134e+000	 1.674967806076187e+000
 1.039205329614944e-001	 1.446271248016057e+000	 1.610443645370093e+000
 9.078954088611978e-002	 1.447154884341270e+000	 1.549976950131267e+000
 7.769599944902313e-002	 1.447916893911744e+000	 1.493720920331839e+000
 6.464135402523800e-002	 1.448558419724132e+000	 1.441874220575957e+000
 5.162701929161759e-002	 1.449080622629961e+000	 1.394679315050783e+000
 3.865437910138279e-002	 1.449484680490890e+000	 1.352420758932001e+000
 2.572478638258620e-002	 1.449771787339736e+000	 1.315423451519717e+000
 1.283956306001076e-002	 1.449943152547921e+000	 1.284050856288817e+000
 0.000000000000000e+000	 1.450000000000000e+000	 1.258703192940669e+000
 1.325352959039290e-001	 1.469033490205109e+000	 2.000065577358920e+000
 1.191062497443342e-001	 1.470183220308284e+000	 1.918835794693945e+000
 1.057122662856264e-001	 1.471206959187071e+000	 1.840834047222838e+000
 9.235487779551667e-002	 1.472105830621737e+000	 1.766161377369006e+000
 7.903558564434246e-002	 1.472880978288596e+000	 1.694968834359948e+000
 6.575586012739645e-002	 1.473533564891142e+000	 1.627455779431020e+000
 5.251714031251203e-002	 1.474064771295581e+000	 1.563868138892480e+000
 3.932083391244833e-002	 1.474475795671536e+000	 1.504496610698390e+000
 2.616831718160371e-002	 1.474767852638594e+000	 1.449674830078185e+000
 1.306093483656768e-002	 1.474942172419411e+000	 1.399777499697809e+000
 0.000000000000000e+000	 1.475000000000000e+000	 1.355218489713010e+000
 1.347816568475081e-001	 1.493932362917365e+000	 2.263409422964517e+000
 1.211249997365069e-001	 1.495101579972037e+000	 2.167872355147380e+000
 1.075039996094458e-001	 1.496142670357773e+000	 2.074686226382325e+000
 9.392021470467503e-002	 1.497056776901965e+000	 1.983948564290610e+000
 8.037517183948716e-002	 1.497845062665274e+000	 1.895809981216556e+000
 6.687036622943404e-002	 1.498508710058030e+000	 1.810472395590017e+000
 5.340726133332937e-002	 1.499048919961125e+000	 1.728187197804777e+000
 3.998728872347066e-002	 1.499466910852138e+000	 1.649253366555211e+000
 2.661184798060209e-002	 1.499763917937434e+000	 1.574015541488109e+000
 1.328230661311983e-002	 1.499941192290897e+000	 1.502862057932862e+000
 0.000000000000000e+000	 1.500000000000000e+000	 1.436222949361764e+000
 1.500000000000000e+000	 0.000000000000000e+000	 1.571969753552002e+001
 1.499941192290897e+000	 1.328230661311987e-002	 1.573487785576293e+001
 1.499763917937433e+000	 2.661184798060218e-002	 1.574251847004328e+001
 1.499466910852138e+000	 3.998728872347057e-002	 1.574228447336978e+001
 1.499048919961125e+000	 5.340726133332932e-002	 1.573382985073024e+001
 1.498508710058030e+000	 6.687036622943404e-002	 1.571679696119462e+001
 1.497845062665274e+000	 8.037517183948720e-002	 1.569081601749759e+001
 1.497056776901965e+000	 9.392021470467514e-002	 1.565550456244137e+001
 1.496142670357773e+000	 1.075039996094457e-001	 1.561046694353983e+001
 1.495101579972036e+000	 1.211249997365068e-001	 1.555529378740561e+001
 1.493932362917365e+000	 1.347816568475081e-001	 1.548956147546055e+001
 1.525000000000000e+000	 0.000000000000000e+000	 1.544662421647058e+001
 1.524940212162383e+000	 1.350367838967202e-002	 1.546577936589764e+001
 1.524759983236273e+000	 2.705537877960056e-002	 1.547627676768972e+001
 1.524458026032741e+000	 4.065374353449290e-002	 1.547783176295977e+001
 1.524033068626668e+000	 5.429738235414668e-002	 1.547014998575076e+001
 1.523483855224919e+000	 6.798487233147164e-002	 1.545292680294683e+001
 1.522809147041952e+000	 8.171475803463191e-002	 1.542584674666325e+001
 1.522007723182194e+000	 9.548555161383354e-002	 1.538858294047149e+001
 1.521078381528475e+000	 1.092957329332650e-001	 1.534079652090323e+001
 1.520019939635789e+000	 1.231437497286795e-001	 1.528213605576614e+001
 1.518831235629623e+000	 1.370280177910873e-001	 1.521223696089005e+001
 1.550000000000000e+000	 0.000000000000000e+000	 1.516616276556641e+001
 1.549939232033873e+000	 1.372505016622894e-002	 1.519099334269141e+001
 1.549756048535131e+000	 2.749890957861807e-002	 1.520610544913197e+001
 1.549449141213386e+000	 4.132019834555844e-002	 1.521126556865240e+001
 1.549017217292289e+000	 5.518750337504110e-002	 1.520623184992160e+001
 1.548459000391928e+000	 6.909937843363008e-002	 1.519075349978309e+001
 1.547773231418804e+000	 8.305434422995126e-002	 1.516457016596653e+001
 1.546958669462661e+000	 9.705088852323041e-002	 1.512741131061574e+001
 1.546014092699489e+000	 1.110874662573969e-001	 1.507899557610451e+001
 1.544938299299939e+000	 1.251624997212492e-001	 1.501903014470732e+001
 1.543730108342372e+000	 1.392743787351581e-001	 1.494721009378745e+001
 1.575000000000000e+000	 0.000000000000000e+000	 1.488070070755633e+001
 1.574938251905368e+000	 1.394642194279062e-002	 1.491269173296668e+001
 1.574752113834008e+000	 2.794244037765472e-002	 1.493395920245456e+001
 1.574440256394075e+000	 4.198665315666719e-002	 1.494432171790396e+001
 1.574001365957986e+000	 5.607762439601260e-002	 1.494359088906146e+001
 1.573434145559059e+000	 7.021388453590939e-002	 1.493157067767631e+001
 1.572737315795831e+000	 8.439393042544521e-002	 1.490805672800471e+001
 1.571909615743366e+000	 9.861622543286584e-002	 1.487283568507577e+001
 1.570949803870816e+000	 1.128791995818415e-001	 1.482568450222147e+001
 1.569856658964486e+000	 1.271812497142157e-001	 1.476636973947680e+001
 1.568628981055612e+000	 1.415207396797206e-001	 1.469464685455988e+001
 1.600000000000000e+000	 0.000000000000000e+000	 1.459247634689258e+001
 1.599937271776867e+000	 1.416779371935706e-002	 1.463290663481396e+001
 1.599748179132905e+000	 2.838597117671049e-002	 1.466166236779660e+001
 1.599431371574808e+000	 4.265310796781913e-002	 1.467861531805978e+001
 1.598985514623761e+000	 5.696774541706117e-002	 1.468363158148087e+001
 1.598409290726310e+000	 7.132839063830954e-002	 1.467657087007670e+001
 1.597701400173032e+000	 8.573351662111382e-002	 1.465728578772865e+001
 1.596860562024311e+000	 1.001815623427397e-001	 1.462562109057519e+001
 1.595885515042456e+000	 1.146709329065986e-001	 1.458141293360920e+001
 1.594775018629429e+000	 1.291999997075793e-001	 1.452448810512931e+001
 1.593527853769345e+000	 1.437671006247749e-001	 1.445466325080696e+001
 1.625000000000000e+000	 0.000000000000000e+000	 1.430359024621513e+001
 1.624936291648372e+000	 1.438916549592827e-002	 1.435354105518650e+001
 1.624744244431821e+000	 2.882950197578540e-002	 1.439091896411679e+001
 1.624422486755583e+000	 4.331956277901426e-002	 1.441565004251655e+001
 1.623969663289613e+000	 5.785786643818681e-002	 1.442765597394427e+001
 1.623384435893682e+000	 7.244289674083053e-002	 1.442685329425966e+001
 1.622665484550409e+000	 8.707310281695706e-002	 1.441315260995403e+001
 1.621811508305494e+000	 1.017468992528522e-001	 1.438645779801179e+001
 1.620821226214409e+000	 1.164626662316683e-001	 1.434666518887868e+001
 1.619693378294770e+000	 1.312187497013398e-001	 1.429366273423376e+001
 1.618426726483569e+000	 1.460134615703208e-001	 1.422732916138285e+001
 1.650000000000000e+000	 0.000000000000000e+000	 1.401601566133746e+001
 1.649935311519882e+000	 1.461053727250425e-002	 1.407637868953190e+001
 1.649740309730756e+000	 2.927303277487944e-002	 1.412332180443428e+001
 1.649413601936402e+000	 4.398601759025260e-002	 1.415682657268810e+001
 1.648953811955542e+000	 5.874798745938953e-002	 1.417687144163561e+001
 1.648359581061175e+000	 7.355740284347238e-002	 1.418343092073284e+001
 1.647629568927959e+000	 8.841268901297490e-002	 1.417647473982602e+001
 1.646762454586914e+000	 1.033122361632031e-001	 1.415596698577751e+001
 1.645756937386674e+000	 1.182543995570506e-001	 1.412186521905913e+001
 1.644611737960507e+000	 1.332374996954973e-001	 1.407411957206146e+001
 1.643325599198285e+000	 1.482598225163584e-001	 1.401267183099810e+001
 1.675000000000000e+000	 0.000000000000000e+000	 1.373160804175600e+001
 1.674934331391396e+000	 1.483190904908500e-002	 1.380309282563580e+001
 1.674736375029710e+000	 2.971656357399260e-002	 1.386036079477939e+001
 1.674404717117263e+000	 4.465247240153415e-002	 1.390345028397420e+001
 1.673937960621548e+000	 5.963810848066933e-002	 1.393239775320158e+001
 1.673334726228788e+000	 7.467190894623507e-002	 1.394723690956206e+001
 1.672593653305685e+000	 8.975227520916740e-002	 1.394799780279467e+001
 1.671713400868574e+000	 1.048775730737926e-001	 1.393470589591565e+001
 1.670692648559251e+000	 1.200461328827455e-001	 1.390738111264133e+001
 1.669530097626642e+000	 1.352562496900517e-001	 1.386603686339934e+001
 1.668224471913492e+000	 1.505061834628878e-001	 1.381067905187209e+001
 1.700000000000000e+000	 0.000000000000000e+000	 1.345211369287928e+001
 1.699933351262914e+000	 1.505328082567050e-002	 1.353525446183223e+001
 1.699732440328683e+000	 3.016009437312491e-002	 1.360343050088393e+001
 1.699395832298168e+000	 4.531892721285889e-002	 1.365673825355572e+001
 1.698922109287630e+000	 6.052822950202618e-002	 1.369527351240873e+001
 1.698309871396523e+000	 7.578641504911864e-002	 1.371913047878618e+001
 1.697557737683585e+000	 9.109186140553453e-002	 1.372840079282774e+001
 1.696664347150472e+000	 1.064429099846206e-001	 1.372317253532277e+001
 1.695628359732141e+000	 1.218378662087530e-001	 1.370352920311725e+001
 1.694448457293174e+000	 1.372749996850030e-001	 1.366954865993844e+001
 1.693123344629191e+000	 1.527525444099089e-001	 1.362130206465144e+001
 1.725000000000000e+000	 0.000000000000000e+000	 1.317917768501982e+001
 1.724932371134438e+000	 1.527465260226077e-002	 1.327433971928282e+001
 1.724728505627676e+000	 3.060362517227634e-002	 1.335383705689845e+001
 1.724386947479116e+000	 4.598538202422683e-002	 1.341782565881620e+001
 1.723906257953790e+000	 6.141835052346012e-002	 1.346646203965652e+001
 1.723285016564378e+000	 7.690092115212302e-002	 1.349990226253479e+001
 1.722521822061660e+000	 9.243144760207629e-002	 1.351830090077887e+001
 1.721615293432609e+000	 1.080082468956870e-001	 1.352180996815076e+001
 1.720564070905344e+000	 1.236295995350730e-001	 1.351057781934216e+001
 1.719366816960102e+000	 1.392937496803514e-001	 1.348474802267208e+001
 1.718022217345382e+000	 1.549989053574217e-001	 1.344445820707467e+001
 1.750000000000000e+000	 0.000000000000000e+000	 1.291435108447240e+001
 1.749931391005967e+000	 1.549602437885581e-002	 1.302173661891756e+001
 1.749724570926687e+000	 3.104715597144690e-002	 1.311280448193371e+001
 1.749378062660108e+000	 4.665183683563796e-002	 1.318777162732746e+001
 1.748890406620027e+000	 6.230847154497113e-002	 1.324685674936059e+001
 1.748260161732354e+000	 7.801542725524827e-002	 1.329027920987901e+001
 1.747485906439909e+000	 9.377103379879266e-002	 1.331825792889580e+001
 1.746566239714984e+000	 1.095735838069920e-001	 1.333101024028836e+001
 1.745499782078859e+000	 1.254213328617057e-001	 1.332875071443718e+001
 1.744285176627427e+000	 1.413124996760966e-001	 1.331168994980285e+001
 1.742921090062065e+000	 1.572452663054261e-001	 1.328003333560845e+001
 1.493932362917365e+000	 1.347816568475081e-001	 1.548956147546055e+001
 1.492633897486894e+000	 1.484723814904555e-001	 1.553011728550553e+001
 1.491205083984588e+000	 1.621955532324464e-001	 1.555926395845754e+001
 1.489644845617648e+000	 1.759495209193235e-001	 1.557665094227446e+001
 1.487952129390018e+000	 1.897326029638494e-001	 1.558191398812923e+001
 1.486125906996327e+000	 2.035430876609109e-001	 1.557467459446454e+001
 1.484165175715299e+000	 2.173792335306682e-001	 1.555453945860542e+001
 1.482068959301720e+000	 2.312392696899344e-001	 1.552109993797275e+001
 1.479836308875994e+000	 2.451213962520329e-001	 1.547393152300492e+001
 1.477466303810354e+000	 2.590237847553505e-001	 1.541259332395446e+001
 1.474958052610726e+000	 2.729445786207708e-001	 1.533662757378029e+001
 1.518831235629623e+000	 1.370280177910873e-001	 1.521223696089005e+001
 1.517511129108093e+000	 1.509469211777063e-001	 1.525612471458751e+001
 1.516058502047001e+000	 1.648988124484991e-001	 1.528788129783419e+001
 1.514472259707000e+000	 1.788820129300736e-001	 1.530719971428123e+001
 1.512751331542102e+000	 1.928948130087400e-001	 1.531375991716488e+001
 1.510894672108513e+000	 2.069354724509679e-001	 1.530722819440792e+001
 1.508901261972938e+000	 2.210022207522549e-001	 1.528725655932029e+001
 1.506770108619411e+000	 2.350932575146958e-001	 1.525348214903215e+001
 1.504500247353678e+000	 2.492067528535040e-001	 1.520552663286443e+001
 1.502090742204176e+000	 2.633408478327073e-001	 1.514299563290837e+001
 1.499540686818598e+000	 2.774936549302055e-001	 1.506547815914693e+001
 1.543730108342372e+000	 1.392743787351581e-001	 1.494721009378745e+001
 1.542388360729875e+000	 1.534214608655346e-001	 1.499561597923537e+001
 1.540911920110067e+000	 1.676020716651859e-001	 1.503123555278214e+001
 1.539299673797057e+000	 1.818145049414854e-001	 1.505380631641332e+001
 1.537550533694922e+000	 1.960570230542904e-001	 1.506305331699029e+001
 1.535663437221448e+000	 2.103278572416532e-001	 1.505868846950074e+001
 1.533637348231319e+000	 2.246252079744082e-001	 1.504040988394788e+001
 1.531471257937816e+000	 2.389472453399320e-001	 1.500790119810836e+001
 1.529164185832027e+000	 2.532921094553273e-001	 1.496083091846719e+001
 1.526715180598594e+000	 2.676579109102631e-001	 1.489885177171284e+001
 1.524123321026977e+000	 2.820427312396547e-001	 1.482160006924389e+001
 1.568628981055612e+000	 1.415207396797206e-001	 1.469464685455988e+001
 1.567265592352239e+000	 1.558960005539401e-001	 1.474858196089483e+001
 1.565765338173787e+000	 1.703053308825068e-001	 1.478914158731345e+001
 1.564127087887819e+000	 1.847469969535589e-001	 1.481610875076635e+001
 1.562349735848479e+000	 1.992192331005007e-001	 1.482925455844773e+001
 1.560432202335132e+000	 2.137202420329665e-001	 1.482833746623889e+001
 1.558373434490442e+000	 2.282481951971282e-001	 1.481310253882659e+001
 1.556172407256935e+000	 2.428012331656428e-001	 1.478328071382786e+001
 1.553828124311042e+000	 2.573774660575029e-001	 1.473858807234005e+001
 1.551339618993610e+000	 2.719749739880180e-001	 1.467872511841673e+001
 1.548705955235862e+000	 2.865918075491187e-001	 1.460337607004628e+001
 1.593527853769345e+000	 1.437671006247749e-001	 1.445466325080696e+001
 1.592142823975186e+000	 1.583705402429230e-001	 1.451497077707077e+001
 1.590618756238160e+000	 1.730085901004618e-001	 1.456137881991660e+001
 1.588954501979286e+000	 1.876794889662941e-001	 1.459371700004053e+001
 1.587148938002774e+000	 2.023814431473708e-001	 1.461180352489413e+001
 1.585200967449566e+000	 2.171126268249083e-001	 1.461544437930747e+001
 1.583109520750306e+000	 2.318711824204148e-001	 1.460443251581623e+001
 1.580873556576769e+000	 2.466552209918284e-001	 1.457854704713299e+001
 1.578492062790723e+000	 2.614628226600308e-001	 1.453755244329802e+001
 1.575964057389222e+000	 2.762920370659717e-001	 1.448119773613434e+001
 1.573288589445256e+000	 2.911408838585972e-001	 1.440921573371564e+001
 1.618426726483569e+000	 1.460134615703208e-001	 1.422732916138285e+001
 1.617020055598714e+000	 1.608450799324833e-001	 1.429469107086099e+001
 1.615472174303186e+000	 1.757118493190510e-001	 1.434769395013528e+001
 1.613781916071458e+000	 1.906119809796909e-001	 1.438621518287864e+001
 1.611948140157806e+000	 2.055436531949006e-001	 1.441012118816141e+001
 1.609969732564750e+000	 2.205050116174782e-001	 1.441926654018151e+001
 1.607845607010913e+000	 2.354941696442680e-001	 1.441349308571938e+001
 1.605574705897316e+000	 2.505092088184886e-001	 1.439262906187293e+001
 1.603156001271070e+000	 2.655481792629110e-001	 1.435648821672974e+001
 1.600588495785431e+000	 2.806091001441246e-001	 1.430486893573259e+001
 1.597871223655156e+000	 2.956899601680906e-001	 1.423755337658574e+001
 1.643325599198285e+000	 1.482598225163584e-001	 1.401267183099810e+001
 1.641897287222824e+000	 1.633196196226208e-001	 1.408761500144168e+001
 1.640325592368866e+000	 1.784151085382741e-001	 1.414780343727612e+001
 1.638609330164336e+000	 1.935444729937495e-001	 1.419316351326428e+001
 1.636747342313576e+000	 2.087058632430904e-001	 1.422361104124781e+001
 1.634738497680683e+000	 2.238973964106763e-001	 1.423905031585394e+001
 1.632581693272261e+000	 2.391171568686879e-001	 1.423937315593727e+001
 1.630275855218577e+000	 2.543631966456236e-001	 1.422445794443209e+001
 1.627819939752082e+000	 2.696335358661433e-001	 1.419416866940248e+001
 1.625212934182237e+000	 2.849261632224763e-001	 1.414835396918309e+001
 1.622453857865564e+000	 3.002390364775985e-001	 1.408684618460380e+001
 1.668224471913492e+000	 1.505061834628878e-001	 1.381067905187209e+001
 1.666774518847517e+000	 1.657941593133357e-001	 1.389358096674791e+001
 1.665179010435199e+000	 1.811183677581314e-001	 1.396139575714292e+001
 1.663436744257917e+000	 1.964769650084698e-001	 1.401410008445170e+001
 1.661546544470082e+000	 2.118680732919400e-001	 1.405166040270831e+001
 1.659507262797366e+000	 2.272897812045027e-001	 1.407403192708059e+001
 1.657317779534351e+000	 2.427401440936744e-001	 1.408115759609664e+001
 1.654977004540552e+000	 2.582171844732334e-001	 1.407296703040641e+001
 1.652483878233760e+000	 2.737188924697280e-001	 1.404937549100108e+001
 1.649837372579640e+000	 2.892432263010272e-001	 1.401028283992738e+001
 1.647036492076480e+000	 3.047881127871212e-001	 1.395557250664314e+001
 1.693123344629191e+000	 1.527525444099089e-001	 1.362130206465144e+001
 1.691651750472792e+000	 1.682686990046280e-001	 1.371239608591794e+001
 1.690032428502185e+000	 1.838216269786229e-001	 1.378813345964700e+001
 1.688264158352205e+000	 1.994094570238517e-001	 1.384854249548991e+001
 1.686345746627326e+000	 2.150302833414494e-001	 1.389364160595205e+001
 1.684276027914798e+000	 2.306821659989574e-001	 1.392343819442695e+001
 1.682053865797183e+000	 2.463631313192274e-001	 1.393792753494500e+001
 1.679678153863241e+000	 2.620711723013178e-001	 1.393709164657317e+001
 1.677147816716104e+000	 2.778042490736650e-001	 1.392089816553089e+001
 1.674461810977640e+000	 2.935602893797770e-001	 1.388929921821006e+001
 1.671619126287902e+000	 3.093371890966585e-001	 1.384223029840527e+001
 1.718022217345382e+000	 1.549989053574217e-001	 1.344445820707467e+001
 1.716528982098648e+000	 1.707432386964976e-001	 1.354383846587258e+001
 1.714885846569825e+000	 1.865248861997483e-001	 1.362765504749509e+001
 1.713091572447198e+000	 2.023419490398953e-001	 1.369598933631003e+001
 1.711144948785307e+000	 2.181924933916186e-001	 1.374891308512231e+001
 1.709044793032979e+000	 2.340745507940402e-001	 1.378648721944136e+001
 1.706789952060757e+000	 2.499861185453471e-001	 1.380876063142870e+001
 1.704379303186644e+000	 2.659251601298770e-001	 1.381576896660241e+001
 1.701811755199113e+000	 2.818896056779543e-001	 1.380753340651208e+001
 1.699086249376236e+000	 2.978773524587258e-001	 1.378405945073062e+001
 1.696201760499832e+000	 3.138862654062104e-001	 1.374533570163558e+001
 1.742921090062065e+000	 1.572452663054261e-001	 1.328003333560845e+001
 1.741406213725087e+000	 1.732177783889446e-001	 1.338765927361636e+001
 1.739739264638117e+000	 1.892281454215079e-001	 1.347957669384674e+001
 1.737918986542895e+000	 2.052744410566007e-001	 1.355592154551935e+001
 1.735944150944025e+000	 2.213547034424477e-001	 1.361682036790127e+001
 1.733813558151911e+000	 2.374669355897513e-001	 1.366238900744195e+001
 1.731526038325072e+000	 2.536091057720335e-001	 1.369273132253596e+001
 1.729080452510761e+000	 2.697791479589110e-001	 1.370793787913602e+001
 1.726475693682788e+000	 2.859749622825957e-001	 1.370808464058553e+001
 1.723710687775429e+000	 3.021944155378737e-001	 1.369323165518235e+001
 1.720784394712270e+000	 3.184353417157770e-001	 1.366342174511991e+001
 1.474958052610726e+000	 2.729445786207708e-001	 1.533662757378029e+001
 1.472310693793589e+000	 2.868818936375483e-001	 1.539157969407701e+001
 1.469523396755786e+000	 3.008338184795506e-001	 1.543263222031446e+001
 1.466595362636951e+000	 3.147984152506358e-001	 1.545932115307254e+001
 1.463525825174173e+000	 3.287737200581074e-001	 1.547116348826238e+001
 1.460314051546808e+000	 3.427577436160288e-001	 1.546765677493706e+001
 1.456959343210722e+000	 3.567484718777407e-001	 1.544827870236306e+001
 1.453461036720863e+000	 3.707438666974944e-001	 1.541248671885400e+001
 1.449818504541093e+000	 3.847418665210725e-001	 1.535971768487069e+001
 1.446031155840162e+000	 3.987403871052225e-001	 1.528938756288629e+001
 1.442098437272754e+000	 4.127373222656903e-001	 1.520089114650081e+001
 1.499540686818598e+000	 2.774936549302055e-001	 1.506547815914693e+001
 1.496849205355224e+000	 2.916632585315759e-001	 1.512126668063676e+001
 1.494015453367372e+000	 3.058477154550846e-001	 1.516324528519810e+001
 1.491038618680334e+000	 3.200450555063186e-001	 1.519097157956891e+001
 1.487917922260149e+000	 3.342532820610352e-001	 1.520398339708081e+001
 1.484652619072495e+000	 3.484703726785304e-001	 1.520179829329064e+001
 1.481241998930835e+000	 3.626942797446991e-001	 1.518391307129522e+001
 1.477685387332699e+000	 3.769229311446956e-001	 1.514980333939525e+001
 1.473982146283009e+000	 3.911542309650635e-001	 1.509892310378034e+001
 1.470131675103331e+000	 4.053860602251622e-001	 1.503070439890487e+001
 1.466133411225922e+000	 4.196162776376646e-001	 1.494455695821168e+001
 1.524123321026977e+000	 2.820427312396547e-001	 1.482160006924389e+001
 1.521387716917276e+000	 2.964446234254375e-001	 1.487841670541083e+001
 1.518507509979304e+000	 3.108616124303102e-001	 1.492157037591679e+001
 1.515481874724011e+000	 3.252916957615901e-001	 1.495064117307962e+001
 1.512310019346388e+000	 3.397328440634879e-001	 1.496518858466193e+001
 1.508991186598434e+000	 3.541830017405329e-001	 1.496475092449460e+001
 1.505524654651208e+000	 3.686400876111746e-001	 1.494884479324910e+001
 1.501909737944822e+000	 3.831019955914700e-001	 1.491696457219647e+001
 1.498145788025261e+000	 3.975665954087249e-001	 1.486858195280025e+001
 1.494232194366904e+000	 4.120317333449101e-001	 1.480314550499111e+001
 1.490168385179583e+000	 4.264952330096262e-001	 1.472008028696047e+001
 1.548705955235862e+000	 2.865918075491187e-001	 1.460337607004628e+001
 1.545926228479745e+000	 3.012259883191330e-001	 1.466131261455647e+001
 1.542999566591581e+000	 3.158755094052278e-001	 1.470579106572081e+001
 1.539925130767982e+000	 3.305383360164504e-001	 1.473641493605468e+001
 1.536702116432889e+000	 3.452124060654656e-001	 1.475276623962582e+001
 1.533329754124622e+000	 3.598956308020363e-001	 1.475440485477216e+001
 1.529807310371839e+000	 3.745858954771669e-001	 1.474086791747646e+001
 1.526134088557231e+000	 3.892810600378177e-001	 1.471166924841534e+001
 1.522309429767849e+000	 4.039789598520567e-001	 1.466629881671299e+001
 1.518332713630881e+000	 4.186774064644661e-001	 1.460422224343247e+001
 1.514203359133739e+000	 4.333741883815753e-001	 1.452488034783029e+001
 1.573288589445256e+000	 2.911408838585972e-001	 1.440921573371564e+001
 1.570464740042631e+000	 3.060073532126624e-001	 1.446826721456013e+001
 1.567491623204205e+000	 3.208894063798373e-001	 1.451412408068445e+001
 1.564368386812248e+000	 3.357849762708993e-001	 1.454641425360898e+001
 1.561094213519653e+000	 3.506919680669683e-001	 1.456474319940364e+001
 1.557668321651062e+000	 3.656082598630407e-001	 1.456869322053304e+001
 1.554089966092728e+000	 3.805317033426761e-001	 1.455782277890937e+001
 1.550358439169927e+000	 3.954601244837385e-001	 1.453166585335713e+001
 1.546473071510771e+000	 4.103913242950586e-001	 1.448973133471051e+001
 1.542433232895262e+000	 4.253230795838303e-001	 1.443150246176969e+001
 1.538238333088388e+000	 4.402531437535119e-001	 1.435643630133779e+001
 1.597871223655156e+000	 2.956899601680906e-001	 1.423755337658574e+001
 1.595003251605933e+000	 3.107887181060257e-001	 1.429762096759676e+001
 1.591983679817174e+000	 3.259033033541385e-001	 1.434481674948860e+001
 1.588811642856809e+000	 3.410316165249370e-001	 1.437879409485577e+001
 1.585486310606679e+000	 3.561715300679960e-001	 1.439918290032900e+001
 1.582006889177752e+000	 3.713208889235460e-001	 1.440558880451279e+001
 1.578372621813876e+000	 3.864775112077023e-001	 1.439759243772329e+001
 1.574582789782909e+000	 4.016391889292326e-001	 1.437474870692500e+001
 1.570636713254029e+000	 4.168036887377308e-001	 1.433658611928580e+001
 1.566533752160047e+000	 4.319687527030027e-001	 1.428260614777733e+001
 1.562273307043531e+000	 4.471320991254358e-001	 1.421228264224609e+001
 1.622453857865564e+000	 3.002390364775985e-001	 1.408684618460380e+001
 1.619541763169654e+000	 3.155700829992230e-001	 1.414773989640190e+001
 1.616475736430489e+000	 3.309172003281314e-001	 1.419614468504163e+001
 1.613254898901664e+000	 3.462782567785635e-001	 1.423174046866434e+001
 1.609878407693968e+000	 3.616510920685486e-001	 1.425418260499393e+001
 1.606345456704692e+000	 3.770335179835523e-001	 1.426310103226350e+001
 1.602655277535283e+000	 3.924233190722453e-001	 1.425809944257623e+001
 1.598807140396178e+000	 4.078182533743000e-001	 1.423875449130198e+001
 1.594800354997622e+000	 4.232160531800731e-001	 1.420461504613450e+001
 1.590634271425236e+000	 4.386144258219835e-001	 1.415520147944606e+001
 1.586308280999167e+000	 4.540110544973471e-001	 1.409000500757658e+001
 1.647036492076480e+000	 3.047881127871212e-001	 1.395557250664314e+001
 1.644080274733790e+000	 3.203514478922541e-001	 1.401701367676703e+001
 1.640967793044150e+000	 3.359310973018163e-001	 1.406640967371594e+001
 1.637698154946812e+000	 3.515248970317786e-001	 1.410346810726021e+001
 1.634270504781519e+000	 3.671306540686263e-001	 1.412787087790115e+001
 1.630684024231883e+000	 3.827461470430594e-001	 1.413927323761505e+001
 1.626937933256947e+000	 3.983691269363053e-001	 1.413730288370710e+001
 1.623031491009734e+000	 4.139973178189407e-001	 1.412155908958683e+001
 1.618963996741549e+000	 4.296284176220855e-001	 1.409161187630376e+001
 1.614734790690830e+000	 4.452600989407723e-001	 1.404700122869808e+001
 1.610343254955297e+000	 4.608900098692461e-001	 1.398723636002237e+001
 1.671619126287902e+000	 3.093371890966585e-001	 1.384223029840527e+001
 1.668618786298344e+000	 3.251328127851191e-001	 1.390385389834431e+001
 1.665459849658157e+000	 3.409449942751929e-001	 1.395393775082863e+001
 1.662141410992255e+000	 3.567715372845824e-001	 1.399221835421383e+001
 1.658662601869333e+000	 3.726102160682289e-001	 1.401840528385310e+001
 1.655022591759324e+000	 3.884587761020676e-001	 1.403218016941951e+001
 1.651220588978870e+000	 4.043149347998821e-001	 1.403319570605474e+001
 1.647255841623576e+000	 4.201763822631545e-001	 1.402107470337376e+001
 1.643127638485812e+000	 4.360407820637685e-001	 1.399540917638727e+001
 1.638835309956827e+000	 4.519057720593693e-001	 1.395575948242142e+001
 1.634378228911922e+000	 4.677689652411324e-001	 1.390165350811967e+001
 1.696201760499832e+000	 3.138862654062104e-001	 1.374533570163558e+001
 1.693157297863315e+000	 3.299141776778182e-001	 1.380669247668561e+001
 1.689951906272511e+000	 3.459588912482614e-001	 1.385707744347156e+001
 1.686584667037993e+000	 3.620181775369750e-001	 1.389625723608205e+001
 1.683054698957409e+000	 3.780897780673563e-001	 1.392397028648079e+001
 1.679361159287015e+000	 3.941714051605766e-001	 1.393992571510029e+001
 1.675503244701052e+000	 4.102607426629759e-001	 1.394380225601884e+001
 1.671480192237705e+000	 4.263554467069415e-001	 1.393524722097752e+001
 1.667291280230411e+000	 4.424531465051215e-001	 1.391387550652902e+001
 1.662935829223229e+000	 4.585514451777745e-001	 1.387926864863209e+001
 1.658413202869040e+000	 4.746479206130062e-001	 1.383097392901280e+001
 1.720784394712270e+000	 3.184353417157770e-001	 1.366342174511991e+001
 1.717695809428702e+000	 3.346955425703510e-001	 1.372398020139247e+001
 1.714443962887209e+000	 3.509727882210215e-001	 1.377419816395588e+001
 1.711027923084025e+000	 3.672648177889562e-001	 1.381387369933766e+001
 1.707446796045747e+000	 3.835693400660090e-001	 1.384277532689904e+001
 1.703699726814957e+000	 3.998840342185866e-001	 1.386064081932554e+001
 1.699785900423492e+000	 4.162065505255865e-001	 1.386717603849847e+001
 1.695704542852120e+000	 4.325345111503018e-001	 1.386205381123900e+001
 1.691454921975343e+000	 4.488655109461448e-001	 1.384491284945549e+001
 1.687036348490034e+000	 4.651971182959880e-001	 1.381535671925047e+001
 1.682448176826651e+000	 4.815268759848673e-001	 1.377295286355364e+001
 1.442098437272754e+000	 4.127373222656903e-001	 1.520089114650081e+001
 1.438019833743952e+000	 4.267305446539297e-001	 1.526700415670628e+001
 1.433794869157610e+000	 4.407179065610665e-001	 1.531466474731919e+001
 1.429423107146426e+000	 4.546972407496674e-001	 1.534312914271651e+001
 1.424904151781651e+000	 4.686663613134735e-001	 1.535163006665294e+001
 1.420237648262862e+000	 4.826230645635711e-001	 1.533937674164313e+001
 1.415423283586218e+000	 4.965651299408992e-001	 1.530555494426314e+001
 1.410460787190097e+000	 5.104903209545468e-001	 1.524932711847033e+001
 1.405349931577071e+000	 5.243963861452563e-001	 1.516983254893987e+001
 1.400090532911170e+000	 5.382810600734965e-001	 1.506618759630640e+001
 1.394682451589383e+000	 5.521420643314209e-001	 1.493748599607651e+001
 1.466133411225922e+000	 4.196162776376646e-001	 1.494455695821168e+001
 1.461986830971045e+000	 4.338427203983612e-001	 1.501027023557321e+001
 1.457691450307712e+000	 4.480632050033768e-001	 1.505752943872660e+001
 1.453246825595835e+000	 4.622755280946553e-001	 1.508560934327356e+001
 1.448652554307850e+000	 4.764774673341675e-001	 1.509376020681892e+001
 1.443908275729996e+000	 4.906667823048521e-001	 1.508120771584846e+001
 1.439013671641701e+000	 5.048412154383311e-001	 1.504715299021969e+001
 1.433968466971982e+000	 5.189984929688458e-001	 1.499077264753308e+001
 1.428772430431791e+000	 5.331363259128183e-001	 1.491121892954885e+001
 1.423425375121222e+000	 5.472524110733928e-001	 1.480761989270213e+001
 1.417927159110548e+000	 5.613444320692591e-001	 1.467907966464473e+001
 1.490168385179583e+000	 4.264952330096262e-001	 1.472008028696047e+001
 1.485953828198727e+000	 4.409548961429656e-001	 1.478672399455256e+001
 1.481588031458489e+000	 4.554085034460164e-001	 1.483498463346532e+001
 1.477070544045993e+000	 4.698538154400996e-001	 1.486415549892598e+001
 1.472400956834864e+000	 4.842885733554153e-001	 1.487350425526928e+001
 1.467578903198001e+000	 4.987105000467546e-001	 1.486227282828767e+001
 1.462604059698101e+000	 5.131173009364222e-001	 1.482967735701532e+001
 1.457476146754822e+000	 5.275066649838112e-001	 1.477490820738870e+001
 1.452194929287489e+000	 5.418762656810237e-001	 1.469713005012310e+001
 1.446760217332268e+000	 5.562237620738787e-001	 1.459548200502927e+001
 1.441171866632713e+000	 5.705467998076025e-001	 1.446907785386708e+001
 1.514203359133739e+000	 4.333741883815753e-001	 1.452488034783029e+001
 1.509920825426997e+000	 4.480670718877428e-001	 1.459366818904313e+001
 1.505484612609940e+000	 4.627538018889853e-001	 1.464421733955207e+001
 1.500894262496902e+000	 4.774321027860001e-001	 1.467583963927264e+001
 1.496149359362695e+000	 4.920996793772168e-001	 1.468782008814815e+001
 1.491249530666879e+000	 5.067542177892784e-001	 1.467941668187959e+001
 1.486194447755420e+000	 5.213933864351719e-001	 1.464986030903761e+001
 1.480983826538614e+000	 5.360148369994428e-001	 1.459835471218214e+001
 1.475617428144168e+000	 5.506162054498723e-001	 1.452407651551049e+001
 1.470095059544309e+000	 5.651951130749543e-001	 1.442617532143648e+001
 1.464416574155878e+000	 5.797491675464509e-001	 1.430377387837340e+001
 1.538238333088388e+000	 4.402531437535119e-001	 1.435643630133779e+001
 1.533887822655857e+000	 4.551792476326931e-001	 1.442847059801437e+001
 1.529381193762066e+000	 4.700991003322836e-001	 1.448248472241517e+001
 1.524717980948561e+000	 4.850103901323571e-001	 1.451780913903284e+001
 1.519897761891341e+000	 4.999107853995722e-001	 1.453374616640745e+001
 1.514920158136628e+000	 5.147979355324236e-001	 1.452956975407490e+001
 1.509784835813656e+000	 5.296694719345808e-001	 1.450452532297341e+001
 1.504491506323362e+000	 5.445230090157410e-001	 1.445782967212450e+001
 1.499039927001826e+000	 5.593561452193643e-001	 1.438867095429780e+001
 1.493429901757345e+000	 5.741664640766193e-001	 1.429620872324843e+001
 1.487661281680043e+000	 5.889515352858046e-001	 1.417957405498210e+001
 1.562273307043531e+000	 4.471320991254358e-001	 1.421228264224609e+001
 1.557854819885305e+000	 4.622914233778162e-001	 1.428855902219322e+001
 1.553277774914866e+000	 4.774443987759112e-001	 1.434710870817054e+001
 1.548541699400969e+000	 4.925886774791703e-001	 1.438728092226777e+001
 1.543646164420804e+000	 5.077218914224814e-001	 1.440839533697551e+001
 1.538590785607250e+000	 5.228416532761903e-001	 1.440974179112294e+001
 1.533375223872810e+000	 5.379455574346489e-001	 1.439058007147814e+001
 1.527999186109062e+000	 5.530311810327057e-001	 1.435013976302632e+001
 1.522462425860463e+000	 5.680960849894998e-001	 1.428762017083087e+001
 1.516764743971375e+000	 5.831378150788741e-001	 1.420219031626012e+001
 1.510905989205208e+000	 5.981539030256633e-001	 1.409298901022415e+001
 1.586308280999167e+000	 4.540110544973471e-001	 1.409000500757658e+001
 1.581821817115343e+000	 4.694035991231121e-001	 1.417141673696149e+001
 1.577174356068340e+000	 4.847896972198681e-001	 1.423547107750919e+001
 1.572365417854129e+000	 5.001669648264399e-001	 1.428153619349110e+001
 1.567394566951083e+000	 5.155329974459444e-001	 1.430894919745582e+001
 1.562261413078743e+000	 5.308853710205784e-001	 1.431701580285954e+001
 1.556965611932882e+000	 5.462216429353760e-001	 1.430501004469320e+001
 1.551506865895716e+000	 5.615393530503365e-001	 1.427217407132781e+001
 1.545884924720079e+000	 5.768360247602785e-001	 1.421771801068718e+001
 1.540099586186401e+000	 5.921091660817186e-001	 1.414081991373123e+001
 1.534150696731373e+000	 6.073562707660271e-001	 1.404062577809198e+001
 1.610343254955297e+000	 4.608900098692461e-001	 1.398723636002237e+001
 1.605788814345970e+000	 4.765157748685813e-001	 1.407457835245618e+001
 1.601070937222489e+000	 4.921349956641541e-001	 1.414500899893771e+001
 1.596189136308037e+000	 5.077452521741657e-001	 1.419791564062022e+001
 1.591142969482178e+000	 5.233441034699612e-001	 1.423265296547965e+001
 1.585932040551108e+000	 5.389290887655879e-001	 1.424854259527532e+001
 1.580555999993871e+000	 5.544977284367622e-001	 1.424487274297088e+001
 1.575014545683324e+000	 5.700475250686340e-001	 1.422089794405194e+001
 1.569307423580675e+000	 5.855759645317006e-001	 1.417583886506162e+001
 1.563434428402421e+000	 6.010805170851528e-001	 1.410888219254548e+001
 1.557395404258538e+000	 6.165586385068962e-001	 1.401918060545250e+001
 1.634378228911922e+000	 4.677689652411324e-001	 1.390165350811967e+001
 1.629755811577185e+000	 4.836279506142233e-001	 1.399562603895518e+001
 1.624967518377312e+000	 4.994802941087698e-001	 1.407321095614512e+001
 1.620012854762696e+000	 5.153235395223481e-001	 1.413381506119663e+001
 1.614891372014088e+000	 5.311552094945315e-001	 1.417681080076281e+001
 1.609602668024345e+000	 5.469728065112188e-001	 1.420153578550422e+001
 1.604146388055779e+000	 5.627738139388071e-001	 1.420729238200587e+001
 1.598522225471886e+000	 5.785556970875978e-001	 1.419334738140844e+001
 1.592729922442250e+000	 5.943159043037660e-001	 1.415893174829443e+001
 1.586769270619437e+000	 6.100518680891768e-001	 1.410324045323808e+001
 1.580640111786703e+000	 6.257610062482703e-001	 1.401717236243179e+001
 1.658413202869040e+000	 4.746479206130062e-001	 1.383097392901280e+001
 1.653722808808989e+000	 4.907401263600381e-001	 1.393218608049038e+001
 1.648864099532809e+000	 5.068255925537145e-001	 1.401761302951106e+001
 1.643836573218106e+000	 5.229018268709867e-001	 1.408668136893491e+001
 1.638639774546815e+000	 5.389663155196558e-001	 1.413878153394012e+001
 1.633273295498454e+000	 5.550165242574712e-001	 1.417326725029134e+001
 1.627736776118604e+000	 5.710498994415113e-001	 1.418945505839024e+001
 1.622029905261401e+000	 5.870638691072282e-001	 1.418662391699768e+001
 1.616152421304804e+000	 6.030558440764750e-001	 1.416401489039688e+001
 1.610104112837447e+000	 6.190232190937902e-001	 1.412083092262973e+001
 1.603884819315868e+000	 6.349633739901497e-001	 1.393186049075783e+001
 1.682448176826651e+000	 4.815268759848673e-001	 1.377295286355364e+001
 1.677689806041381e+000	 4.978523021060258e-001	 1.388192572386514e+001
 1.672760680688981e+000	 5.141708909989885e-001	 1.397579549634241e+001
 1.667660291674265e+000	 5.304801142200816e-001	 1.405400894256748e+001
 1.662388177080357e+000	 5.467774215453338e-001	 1.411597476149975e+001
 1.656943922973434e+000	 5.630602420043449e-001	 1.416106296459219e+001
 1.651327164182347e+000	 5.793259849448744e-001	 1.418860432954909e+001
 1.645537585051869e+000	 5.955720411275246e-001	 1.419788993685425e+001
 1.639574920168338e+000	 6.117957838498270e-001	 1.418817079307469e+001
 1.633438955056451e+000	 6.279945700989932e-001	 1.411538963578125e+001
 1.627129526846032e+000	 6.441657417325339e-001	 1.383876725933828e+001
 1.394682451589383e+000	 5.521420643314209e-001	 1.493748599607651e+001
 1.389125592786738e+000	 5.659771085778665e-001	 1.502978220358498e+001
 1.383419906972935e+000	 5.797838915960679e-001	 1.508899807718715e+001
 1.377565390400310e+000	 5.935601023727932e-001	 1.511409140586135e+001
 1.371562085562787e+000	 6.073034211979437e-001	 1.510400494904319e+001
 1.365410081623910e+000	 6.210115207841032e-001	 1.505766720322698e+001
 1.359109514813409e+000	 6.346820674049267e-001	 1.504758605548769e+001
 1.352660568791450e+000	 6.483127220513680e-001	 1.504695573851336e+001
 1.346063474979750e+000	 6.619011416047153e-001	 1.502829782927356e+001
 1.339318512858777e+000	 6.754449800253558e-001	 1.499150222664756e+001
 1.332426010230286e+000	 6.889418895561570e-001	 1.493646220027757e+001
 1.417927159110548e+000	 5.613444320692591e-001	 1.467907966464473e+001
 1.412277685994379e+000	 5.754100603868140e-001	 1.477238957630623e+001
 1.406476905416908e+000	 5.894469564555901e-001	 1.483433159462776e+001
 1.400524813568007e+000	 6.034527707454684e-001	 1.486388125660632e+001
 1.394421453649835e+000	 6.174251448845148e-001	 1.485999634278568e+001
 1.388166916311995e+000	 6.313617127971891e-001	 1.485244271494397e+001
 1.381761340054712e+000	 6.452601018617064e-001	 1.486051326614621e+001
 1.375204911599155e+000	 6.591179340855367e-001	 1.485272572723831e+001
 1.368497866224071e+000	 6.729328272979888e-001	 1.482901720181019e+001
 1.361640488067934e+000	 6.867023963587896e-001	 1.478932668999646e+001
 1.354633110395864e+000	 7.004242543815206e-001	 1.473359494843054e+001
 1.441171866632713e+000	 5.705467998076025e-001	 1.446907785386708e+001
 1.435429779203020e+000	 5.848430121961762e-001	 1.456562174388910e+001
 1.429533903861879e+000	 5.991100213154565e-001	 1.463252747101653e+001
 1.423484236736704e+000	 6.133454391184368e-001	 1.466878689997986e+001
 1.417280821737884e+000	 6.275468685713480e-001	 1.467892918183403e+001
 1.410923751001080e+000	 6.417119048105253e-001	 1.469308061586602e+001
 1.404413165297016e+000	 6.558381363187456e-001	 1.469342289253578e+001
 1.397749254407861e+000	 6.699231461199932e-001	 1.467994263823502e+001
 1.390932257469392e+000	 6.839645129915990e-001	 1.465262705506438e+001
 1.383962463278092e+000	 6.979598126926295e-001	 1.461146369924995e+001
 1.376840210562442e+000	 7.119066192073804e-001	 1.455644026460948e+001
 1.464416574155878e+000	 5.797491675464509e-001	 1.430377387837340e+001
 1.458581872412662e+000	 5.942759640059531e-001	 1.440565672172542e+001
 1.452590902307852e+000	 6.087730861756671e-001	 1.447965207012558e+001
 1.446443659906401e+000	 6.232381074916983e-001	 1.452476675984666e+001
 1.440140189826932e+000	 6.376685922584428e-001	 1.454316505323803e+001
 1.433680585691165e+000	 6.520620968241120e-001	 1.454900370385599e+001
 1.427064990540319e+000	 6.664161707760433e-001	 1.454299984982336e+001
 1.420293597217567e+000	 6.807283581547378e-001	 1.452519120986634e+001
 1.413366648715714e+000	 6.949961986855464e-001	 1.449561460779737e+001
 1.406284438489250e+000	 7.092172290268760e-001	 1.445430567308501e+001
 1.399047310730021e+000	 7.233889840337363e-001	 1.440129854779729e+001
 1.487661281680043e+000	 5.889515352858046e-001	 1.417957405498210e+001
 1.481733965623303e+000	 6.037089158161452e-001	 1.428879159989496e+001
 1.475647900754824e+000	 6.184361510362219e-001	 1.437189678755424e+001
 1.469403083077098e+000	 6.331307758652531e-001	 1.440950936285173e+001
 1.462999557916980e+000	 6.477903159457994e-001	 1.441831619545588e+001
 1.456437420382251e+000	 6.624122888379495e-001	 1.441714184179566e+001
 1.449716815784622e+000	 6.769942052336005e-001	 1.440607669279404e+001
 1.442837940028272e+000	 6.915335701897700e-001	 1.438520915048202e+001
 1.435801039963035e+000	 7.060278843798309e-001	 1.435462524412103e+001
 1.428606413701408e+000	 7.204746453615288e-001	 1.431440825280046e+001
 1.421254410898599e+000	 7.348713488605884e-001	 1.426463833575315e+001
 1.510905989205208e+000	 5.981539030256633e-001	 1.409298901022415e+001
 1.504886058834944e+000	 6.131418676267519e-001	 1.421143338357396e+001
 1.498704899202796e+000	 6.280992158971205e-001	 1.429107581622099e+001
 1.492362506248795e+000	 6.430234442391006e-001	 1.430042650594404e+001
 1.485858926008029e+000	 6.579120396334177e-001	 1.430153825920531e+001
 1.479194255074336e+000	 6.727624808520369e-001	 1.429455613323442e+001
 1.472368641029925e+000	 6.875722396914169e-001	 1.427962225895731e+001
 1.465382282839978e+000	 7.023387822250905e-001	 1.425687537149692e+001
 1.458235431211356e+000	 7.170595700744521e-001	 1.422645034693260e+001
 1.450928388914565e+000	 7.317320616965878e-001	 1.418847774673107e+001
 1.443461511068178e+000	 7.463537136879365e-001	 1.414308337126031e+001
 1.534150696731373e+000	 6.073562707660271e-001	 1.404062577809198e+001
 1.528038152047586e+000	 6.225748194377736e-001	 1.417009066613371e+001
 1.521761897651768e+000	 6.377622807583635e-001	 1.419460412817500e+001
 1.515321929421492e+000	 6.529161126132413e-001	 1.419556108893004e+001
 1.508718294100077e+000	 6.680337633212981e-001	 1.419010342355069e+001
 1.501951089767421e+000	 6.831126728663752e-001	 1.417842897991455e+001
 1.495020466276229e+000	 6.981502741494924e-001	 1.416073134409824e+001
 1.487926625652684e+000	 7.131439942606987e-001	 1.413719929018891e+001
 1.480669822460677e+000	 7.280912557694104e-001	 1.410801623740064e+001
 1.473250364128723e+000	 7.429894780320531e-001	 1.407335971607796e+001
 1.465668611238756e+000	 7.578360785157806e-001	 1.403340084417013e+001
 1.557395404258538e+000	 6.165586385068962e-001	 1.401918060545250e+001
 1.551190245261227e+000	 6.320077712492102e-001	 1.410030785905033e+001
 1.544818896101740e+000	 6.474253456199506e-001	 1.409877101733937e+001
 1.538281352595190e+000	 6.628087809876754e-001	 1.409238050171520e+001
 1.531577662193125e+000	 6.781554870094403e-001	 1.408139169975745e+001
 1.524707924461506e+000	 6.934628648809639e-001	 1.406605502966722e+001
 1.517672291523532e+000	 7.087283086078271e-001	 1.404661530240615e+001
 1.510470968466389e+000	 7.239492062965950e-001	 1.402331109045564e+001
 1.503104213710998e+000	 7.391229414647057e-001	 1.399637410494491e+001
 1.495572339343881e+000	 7.542468943679248e-001	 1.396602858290398e+001
 1.487875711410334e+000	 7.693184433441207e-001	 1.393249068639693e+001
 1.580640111786703e+000	 6.257610062482703e-001	 1.401717236243179e+001
 1.574342338475868e+000	 6.414407230610618e-001	 1.401090435984249e+001
 1.567875894552713e+000	 6.570884104818822e-001	 1.400122466384751e+001
 1.561240775769887e+000	 6.727014493624023e-001	 1.398844785650715e+001
 1.554437030287174e+000	 6.882772106978443e-001	 1.397288300245401e+001
 1.547464759156591e+000	 7.038130568958031e-001	 1.395483292302349e+001
 1.540324116771835e+000	 7.193063430664207e-001	 1.393459347600377e+001
 1.533015311281095e+000	 7.347544183327792e-001	 1.391245284291574e+001
 1.525538604962319e+000	 7.501546271603378e-001	 1.388869082574719e+001
 1.517894314560039e+000	 7.655043107042028e-001	 1.386357815507022e+001
 1.510082811582912e+000	 7.808008081729571e-001	 1.383737581147222e+001
 1.603884819315868e+000	 6.349633739901497e-001	 1.393186049075783e+001
 1.597494431691509e+000	 6.508736748733279e-001	 1.391663633779912e+001
 1.590932893004685e+000	 6.667514753441572e-001	 1.389969807281507e+001
 1.584200198945584e+000	 6.825941177374224e-001	 1.388141505141704e+001
 1.577296398382222e+000	 6.983989343865102e-001	 1.386214991025732e+001
 1.570221593852676e+000	 7.141632489108927e-001	 1.384225775751160e+001
 1.562975942021138e+000	 7.298843775252738e-001	 1.382208536973464e+001
 1.555559654096801e+000	 7.455596303692514e-001	 1.380197039717574e+001
 1.547972996214641e+000	 7.611863128563071e-001	 1.378224057965285e+001
 1.540216289777197e+000	 7.767617270408870e-001	 1.376321297509138e+001
 1.532289911756491e+000	 7.922831730022893e-001	 1.374519320283358e+001
 1.627129526846032e+000	 6.441657417325339e-001	 1.383876725933828e+001
 1.620646524908150e+000	 6.603066266860092e-001	 1.381539465406861e+001
 1.613989891457657e+000	 6.764145402067768e-001	 1.379200301541285e+001
 1.607159622122281e+000	 6.924867861127355e-001	 1.376901642860909e+001
 1.600155766478270e+000	 7.085206580754376e-001	 1.374685104691675e+001
 1.592978428549761e+000	 7.245134409262326e-001	 1.372591419787120e+001
 1.585627767271441e+000	 7.404624119843859e-001	 1.370660349668306e+001
 1.578103996913506e+000	 7.563648424060113e-001	 1.368930596904498e+001
 1.570407387467962e+000	 7.722179985526131e-001	 1.367439718562325e+001
 1.562538264995355e+000	 7.880191433779775e-001	 1.366224041051760e+001
 1.554497011931069e+000	 8.037655378321177e-001	 1.365318576597404e+001
 1.332426010230286e+000	 6.889418895561570e-001	 1.493646220027757e+001
 1.325386343444616e+000	 7.023895219395790e-001	 1.484389897349834e+001
 1.318199937591758e+000	 7.157855296464768e-001	 1.474587765570483e+001
 1.310867266655738e+000	 7.291275671160524e-001	 1.464266359522008e+001
 1.303388853632028e+000	 7.424132920061468e-001	 1.453451671950204e+001
 1.295765270607128e+000	 7.556403664517626e-001	 1.442169103978812e+001
 1.287997138799943e+000	 7.688064583308102e-001	 1.430443416835168e+001
 1.280085128564544e+000	 7.819092425357328e-001	 1.418298684968617e+001
 1.272029959353938e+000	 7.949464022496643e-001	 1.405758250690869e+001
 1.263832399644536e+000	 8.079156302257311e-001	 1.392844680463946e+001
 1.255493266821059e+000	 8.208146300681053e-001	 1.379579722957826e+001
 1.354633110395864e+000	 7.004242543815206e-001	 1.473359494843054e+001
 1.347476115830716e+000	 7.140960139710572e-001	 1.465683214242505e+001
 1.340169936547323e+000	 7.277152884728084e-001	 1.457542539955049e+001
 1.332715054429446e+000	 7.412796932332970e-001	 1.448960752195683e+001
 1.325112001189150e+000	 7.547868468713277e-001	 1.439960467514084e+001
 1.317361358447709e+000	 7.682343725574868e-001	 1.430563590822179e+001
 1.309463757777677e+000	 7.816198993009831e-001	 1.420791268897686e+001
 1.301419880705692e+000	 7.949410632424675e-001	 1.410663845496734e+001
 1.293230458675645e+000	 8.081955089514599e-001	 1.400200818205394e+001
 1.284896272971888e+000	 8.213808907269713e-001	 1.389420797156150e+001
 1.276418154602220e+000	 8.344948738999106e-001	 1.378341465731187e+001
 1.376840210562442e+000	 7.119066192073804e-001	 1.455644026460948e+001
 1.369565888217805e+000	 7.258025060031214e-001	 1.449312851859441e+001
 1.362139935503848e+000	 7.396450472997969e-001	 1.442600590241875e+001
 1.354562842204066e+000	 7.534318193512493e-001	 1.435527401704901e+001
 1.346835148747114e+000	 7.671604017372470e-001	 1.428112659214522e+001
 1.338957446289043e+000	 7.808283786639605e-001	 1.420374902032603e+001
 1.330930376756053e+000	 7.944333402718963e-001	 1.412331790836758e+001
 1.322754632847352e+000	 8.079728839499136e-001	 1.404000064668399e+001
 1.314430957997716e+000	 8.214446156539170e-001	 1.395395499839931e+001
 1.305960146299434e+000	 8.348461512288039e-001	 1.386532870927843e+001
 1.297343042383386e+000	 8.481751177322187e-001	 1.377425913973569e+001
 1.399047310730021e+000	 7.233889840337363e-001	 1.440129854779729e+001
 1.391655660605885e+000	 7.375089980357721e-001	 1.434917678700996e+001
 1.384109934461334e+000	 7.515748061274421e-001	 1.429409702957258e+001
 1.376410629979597e+000	 7.655839454699087e-001	 1.423623098550081e+001
 1.368558296305920e+000	 7.795339566039048e-001	 1.417574123895334e+001
 1.360553534131128e+000	 7.934223847711835e-001	 1.411278079486213e+001
 1.352396995735073e+000	 8.072467812435503e-001	 1.404749264469775e+001
 1.344089384989528e+000	 8.210047046580712e-001	 1.398000935273777e+001
 1.335631457320152e+000	 8.346937223570364e-001	 1.391045266416313e+001
 1.327024019627176e+000	 8.483114117312290e-001	 1.383893313625940e+001
 1.318267930164557e+000	 8.618553615650291e-001	 1.376554979394667e+001
 1.421254410898599e+000	 7.348713488605884e-001	 1.426463833575315e+001
 1.413745432994954e+000	 7.492154900690090e-001	 1.422152745190670e+001
 1.406079933419780e+000	 7.635045649557442e-001	 1.417633212419985e+001
 1.398258417756039e+000	 7.777360715892759e-001	 1.412919545003388e+001
 1.390281443865568e+000	 7.919075114713012e-001	 1.408025012550456e+001
 1.382149621973968e+000	 8.060163908791563e-001	 1.402961800278882e+001
 1.373863614714737e+000	 8.200602222159444e-001	 1.397740966889641e+001
 1.365424137132218e+000	 8.340365253669401e-001	 1.392372404717817e+001
 1.356831956642953e+000	 8.479428290608180e-001	 1.386864802293418e+001
 1.348087892955113e+000	 8.617766722342464e-001	 1.381225609441183e+001
 1.339192817945733e+000	 8.755356053983423e-001	 1.375461005042541e+001
 1.443461511068178e+000	 7.463537136879365e-001	 1.414308337126031e+001
 1.435835205385014e+000	 7.609219821028320e-001	 1.410688038911825e+001
 1.428049932379187e+000	 7.754343237847031e-001	 1.406948804757336e+001
 1.420106205533392e+000	 7.898881977093510e-001	 1.403102208049380e+001
 1.412004591426058e+000	 8.042810663394361e-001	 1.399158652312386e+001
 1.403745709817559e+000	 8.186103969878783e-001	 1.395127327863172e+001
 1.395330233695044e+000	 8.328736631890795e-001	 1.391016170828220e+001
 1.386758889275422e+000	 8.470683460765203e-001	 1.386831824665277e+001
 1.378032455966119e+000	 8.611919357652613e-001	 1.382579604325873e+001
 1.369151766283244e+000	 8.752419327378566e-001	 1.378263463189400e+001
 1.360117705726915e+000	 8.892158492321584e-001	 1.373885962892970e+001
 1.465668611238756e+000	 7.578360785157806e-001	 1.403340084417013e+001
 1.457924977776064e+000	 7.726284741372415e-001	 1.400207353004651e+001
 1.450019931339554e+000	 7.873640826143186e-001	 1.397047430646868e+001
 1.441953993311656e+000	 8.020403238301334e-001	 1.393869276603773e+001
 1.433727738987390e+000	 8.166546212083096e-001	 1.390680548259868e+001
 1.425341797661905e+000	 8.312044030973501e-001	 1.387487558536476e+001
 1.416796852675995e+000	 8.456871041629548e-001	 1.384295235895811e+001
 1.408093641419141e+000	 8.601001667868119e-001	 1.381107087081640e+001
 1.399232955289649e+000	 8.744410424703668e-001	 1.377925162735578e+001
 1.390215639611571e+000	 8.887071932420589e-001	 1.374750026021721e+001
 1.381042593508102e+000	 9.028960930664768e-001	 1.371580724385228e+001
 1.487875711410334e+000	 7.693184433441207e-001	 1.393249068639693e+001
 1.480014750168104e+000	 7.843349661722373e-001	 1.390407255900767e+001
 1.471989930300882e+000	 7.992938414445910e-001	 1.387632315424598e+001
 1.463801781090832e+000	 8.141924499516234e-001	 1.384930712115592e+001
 1.455450886549564e+000	 8.290281760779216e-001	 1.382307474615952e+001
 1.446937885507002e+000	 8.437984092075713e-001	 1.379766153318257e+001
 1.438263471657589e+000	 8.585005451375706e-001	 1.377308781202157e+001
 1.429428393563373e+000	 8.731319874978146e-001	 1.374935837643525e+001
 1.420433454613544e+000	 8.876901491761344e-001	 1.372646215338049e+001
 1.411279512940094e+000	 9.021724537468541e-001	 1.370437190474197e+001
 1.401967481289294e+000	 9.165763369012980e-001	 1.368304396283032e+001
 1.510082811582912e+000	 7.808008081729571e-001	 1.383737581147222e+001
 1.502104522561134e+000	 7.960414582078191e-001	 1.380996151963537e+001
 1.493959929263171e+000	 8.112236002755202e-001	 1.378418056536604e+001
 1.485649568870919e+000	 8.263445760738210e-001	 1.376007382939737e+001
 1.477174034112580e+000	 8.414017309482721e-001	 1.373766646134441e+001
 1.468533973352852e+000	 8.563924153185419e-001	 1.371696746426393e+001
 1.459730090639828e+000	 8.713139861129269e-001	 1.369796930981490e+001
 1.450763145708120e+000	 8.861638082095288e-001	 1.368064758554038e+001
 1.441633953937804e+000	 9.009392558825639e-001	 1.366496067572286e+001
 1.432343386268811e+000	 9.156377142522415e-001	 1.365084947718899e+001
 1.422892369070492e+000	 9.302565807366219e-001	 1.363823715135963e+001
 1.532289911756491e+000	 7.922831730022893e-001	 1.374519320283358e+001
 1.524194294955155e+000	 8.077479502439875e-001	 1.371693423811876e+001
 1.515929928226421e+000	 8.231533591071066e-001	 1.369129799473073e+001
 1.507497356651917e+000	 8.384967021967261e-001	 1.366830273981487e+001
 1.498897181676438e+000	 8.537752858193610e-001	 1.364794961539697e+001
 1.490130061199455e+000	 8.689864214302620e-001	 1.363022222581623e+001
 1.481196709622709e+000	 8.841274270890236e-001	 1.361508625815401e+001
 1.472097897853381e+000	 8.991956289219540e-001	 1.360248913722020e+001
 1.462834453262429e+000	 9.141883625896555e-001	 1.359235971658502e+001
 1.453407259597724e+000	 9.291029747582215e-001	 1.358460800706235e+001
 1.443817256851695e+000	 9.439368245724484e-001	 1.357912494396464e+001
 1.554497011931069e+000	 8.037655378321177e-001	 1.365318576597404e+001
 1.546284067350165e+000	 8.194544422807419e-001	 1.362228648159143e+001
 1.537899927190630e+000	 8.350831179393493e-001	 1.359502484336596e+001
 1.529345144433827e+000	 8.506488283203390e-001	 1.357139764085751e+001
 1.520620329241138e+000	 8.661488406911884e-001	 1.355138311814447e+001
 1.511726149046811e+000	 8.815804275427317e-001	 1.353494056257349e+001
 1.502663328606235e+000	 8.969408680658606e-001	 1.352200992893745e+001
 1.493432649999157e+000	 9.122274496350907e-001	 1.351251150068777e+001
 1.484034952587419e+000	 9.274374692974090e-001	 1.350634558970888e+001
 1.474471132926831e+000	 9.425682352647938e-001	 1.350339227609370e+001
 1.464742144632903e+000	 9.576170684087775e-001	 1.350351118926746e+001
 1.255493266821059e+000	 8.208146300681053e-001	 1.379579722957826e+001
 1.247013427021299e+000	 8.336411175128567e-001	 1.369124948237713e+001
 1.238393794941728e+000	 8.463928217087881e-001	 1.360370062123941e+001
 1.229635333603122e+000	 8.590674864957387e-001	 1.352461218597831e+001
 1.220739054075391e+000	 8.716628716778431e-001	 1.345401921730180e+001
 1.211706015162792e+000	 8.841767542918880e-001	 1.339191703018961e+001
 1.202537323049252e+000	 8.966069298687865e-001	 1.333826142299805e+001
 1.193234130903926e+000	 9.089512136867101e-001	 1.329296898736808e+001
 1.183797638447231e+000	 9.212074420144203e-001	 1.325591751864469e+001
 1.174229091477602e+000	 9.333734733433585e-001	 1.322694652620249e+001
 1.164529781359323e+000	 9.454471896070471e-001	 1.320585784275676e+001
 1.276418154602220e+000	 8.344948738999106e-001	 1.378341465731187e+001
 1.267796984139968e+000	 8.475351361353408e-001	 1.370742916633292e+001
 1.259033691526449e+000	 8.604993687346023e-001	 1.362893123829031e+001
 1.250129255832787e+000	 8.733852779348663e-001	 1.354826651725232e+001
 1.241084704980055e+000	 8.861905862036694e-001	 1.349754000928128e+001
 1.231901115419247e+000	 8.989130335284119e-001	 1.345472571296203e+001
 1.222579611770688e+000	 9.115503786988560e-001	 1.341919700114617e+001
 1.213121366423021e+000	 9.241004005811426e-001	 1.339068342858836e+001
 1.203527599092000e+000	 9.365608993818464e-001	 1.336887461913222e+001
 1.193799576339370e+000	 9.489296979005988e-001	 1.335342099881049e+001
 1.183938611052150e+000	 9.612046427698152e-001	 1.334393463262447e+001
 1.297343042383386e+000	 8.481751177322187e-001	 1.377425913973569e+001
 1.288580541258456e+000	 8.614291547582270e-001	 1.372555933710562e+001
 1.279673588110835e+000	 8.746059157607186e-001	 1.367311157235650e+001
 1.270623178061991e+000	 8.877030693741960e-001	 1.361711147446904e+001
 1.261430355884161e+000	 9.007183007295984e-001	 1.355774474185851e+001
 1.252096215675079e+000	 9.136493127649382e-001	 1.349518680798893e+001
 1.242621900491466e+000	 9.264938275288278e-001	 1.346229541259610e+001
 1.233008601941450e+000	 9.392495874753767e-001	 1.344357413161420e+001
 1.223257559736129e+000	 9.519143567489735e-001	 1.343017705214983e+001
 1.213370061200551e+000	 9.644859224574407e-001	 1.342156732363176e+001
 1.203347440744476e+000	 9.769620959320846e-001	 1.341716888896658e+001
 1.318267930164557e+000	 8.618553615650291e-001	 1.376554979394667e+001
 1.309364098376765e+000	 8.753231733815162e-001	 1.373686332249177e+001
 1.300313484694886e+000	 8.887124627871380e-001	 1.370327311669284e+001
 1.291117100290733e+000	 9.020208608137287e-001	 1.366482845729424e+001
 1.281776006787710e+000	 9.152460152556287e-001	 1.362156872654514e+001
 1.272291315930287e+000	 9.283855920014663e-001	 1.357352322568507e+001
 1.262664189211584e+000	 9.414372763587010e-001	 1.352071101924072e+001
 1.252895837459215e+000	 9.543987743694128e-001	 1.346314080679997e+001
 1.242987520379617e+000	 9.672678141158025e-001	 1.343763113681850e+001
 1.232940546061146e+000	 9.800421470138834e-001	 1.342955279551394e+001
 1.222756270436300e+000	 9.927195490938553e-001	 1.342408710583508e+001
 1.339192817945733e+000	 8.755356053983423e-001	 1.375461005042541e+001
 1.330147655494894e+000	 8.892171920052078e-001	 1.373900051693273e+001
 1.320953381278601e+000	 9.028190098138600e-001	 1.371740949375314e+001
 1.311611022519015e+000	 9.163386522534630e-001	 1.368974341618657e+001
 1.302121657690702e+000	 9.297737297817619e-001	 1.365589879824968e+001
 1.292486416184872e+000	 9.431218712379964e-001	 1.361576219854672e+001
 1.282706477931043e+000	 9.563807251884761e-001	 1.356921021441690e+001
 1.272783072976315e+000	 9.695479612632503e-001	 1.351610950479038e+001
 1.262717481022464e+000	 9.826212714823327e-001	 1.345631684210113e+001
 1.252511030921155e+000	 9.955983715699281e-001	 1.338967919351448e+001
 1.242165100127623e+000	 1.008477002255128e+000	 1.336309992649423e+001
 1.360117705726915e+000	 8.892158492321584e-001	 1.373885962892970e+001
 1.350931212612843e+000	 9.031112106293023e-001	 1.372970550251788e+001
 1.341593277861981e+000	 9.169255568408841e-001	 1.371356855763101e+001
 1.332104944746835e+000	 9.306564436934002e-001	 1.369021573326089e+001
 1.322467308593137e+000	 9.443014443079969e-001	 1.365940396960150e+001
 1.312681516438834e+000	 9.578581504745287e-001	 1.362088031895575e+001
 1.302748766649842e+000	 9.713241740181526e-001	 1.357438208645491e+001
 1.292670308492750e+000	 9.846971481568895e-001	 1.351963700079859e+001
 1.282447441664671e+000	 9.979747288485644e-001	 1.345636341513067e+001
 1.272081515780578e+000	 1.011154596125574e+000	 1.338427053807297e+001
 1.261573929818444e+000	 1.024234455415901e+000	 1.330305869484351e+001
 1.381042593508102e+000	 9.028960930664768e-001	 1.371580724385228e+001
 1.371714769730612e+000	 9.170052292537990e-001	 1.370678235295073e+001
 1.362233174445025e+000	 9.310321038682110e-001	 1.368984828560240e+001
 1.352598866974193e+000	 9.449742351335395e-001	 1.366463568958675e+001
 1.342812959495014e+000	 9.588291588343345e-001	 1.363076508172812e+001
 1.332876616692172e+000	 9.725944297110627e-001	 1.358784710061412e+001
 1.322791055367983e+000	 9.862676228477315e-001	 1.353548279073728e+001
 1.312557544008519e+000	 9.998463350503301e-001	 1.347326391804770e+001
 1.302177402306237e+000	 1.013328186214498e+000	 1.340077331680614e+001
 1.291652000639415e+000	 1.026710820680821e+000	 1.331758526752794e+001
 1.280982759508765e+000	 1.039991908576176e+000	 1.322326590570832e+001
 1.401967481289294e+000	 9.165763369012980e-001	 1.368304396283032e+001
 1.392498326848202e+000	 9.308992478786984e-001	 1.366809944760761e+001
 1.382873071027734e+000	 9.451386508958402e-001	 1.364439303758961e+001
 1.373092789201091e+000	 9.592920265738815e-001	 1.361142215929655e+001
 1.363158610396335e+000	 9.733568733607741e-001	 1.356867392153124e+001
 1.353071716944887e+000	 9.873307089475989e-001	 1.351562550680352e+001
 1.342833344085464e+000	 1.001211071677212e+000	 1.345174459586298e+001
 1.332444779523623e+000	 1.014995521943573e+000	 1.337648982511309e+001
 1.321907362947162e+000	 1.028681643580133e+000	 1.328931127657576e+001
 1.311222485497665e+000	 1.042267045235670e+000	 1.318965099997083e+001
 1.300391589198583e+000	 1.055749361735952e+000	 1.307694356636909e+001
 1.422892369070492e+000	 9.302565807366219e-001	 1.363823715135963e+001
 1.413281883965611e+000	 9.447932665040006e-001	 1.361158474317923e+001
 1.403512967610108e+000	 9.592451979237719e-001	 1.357539014567241e+001
 1.393586711427527e+000	 9.736098180144256e-001	 1.352902050715420e+001
 1.383504261297097e+000	 9.878845878873159e-001	 1.347183241685044e+001
 1.373266817196979e+000	 1.002066988184137e+000	 1.340317243203398e+001
 1.362875632802286e+000	 1.016154520506594e+000	 1.332237764002875e+001
 1.352332015038063e+000	 1.030144708836617e+000	 1.322877625464653e+001
 1.341637323587446e+000	 1.044035100945469e+000	 1.312168824651043e+001
 1.330792970355329e+000	 1.057823269790120e+000	 1.300042600660851e+001
 1.319800418887901e+000	 1.071506814895229e+000	 1.286429504230906e+001
 1.443817256851695e+000	 9.439368245724484e-001	 1.357912494396464e+001
 1.434065441082840e+000	 9.586872851297054e-001	 1.353522145647409e+001
 1.424152864192146e+000	 9.733517449520065e-001	 1.348106680016384e+001
 1.414080633653502e+000	 9.879276094551719e-001	 1.341590066894420e+001
 1.403849912197303e+000	 1.002412302413960e+000	 1.333895190161261e+001
 1.393461917448448e+000	 1.016803267420677e+000	 1.324943914181004e+001
 1.382917921518449e+000	 1.031097969335878e+000	 1.314657153468153e+001
 1.372219250551837e+000	 1.045293895729462e+000	 1.302954945960260e+001
 1.361367284227090e+000	 1.059388558310507e+000	 1.289756529821515e+001
 1.350363455212408e+000	 1.073379494344171e+000	 1.274980423689977e+001
 1.339209248576718e+000	 1.087264268054008e+000	 1.258544510269580e+001
 1.464742144632903e+000	 9.576170684087775e-001	 1.350351118926746e+001
 1.454848998199890e+000	 9.725813037558125e-001	 1.343704411726727e+001
 1.444792760773848e+000	 9.874582919805434e-001	 1.335968720259341e+001
 1.434574555879015e+000	 1.002245400896121e+000	 1.327055539639887e+001
 1.424195563096951e+000	 1.016940016940706e+000	 1.316875244396871e+001
 1.413657017699293e+000	 1.031539546657219e+000	 1.305337167470242e+001
 1.402960210233953e+000	 1.046041418165064e+000	 1.292349683071480e+001
 1.392106486064946e+000	 1.060443082622109e+000	 1.277820293321724e+001
 1.381097244866092e+000	 1.074742015675246e+000	 1.261655718571946e+001
 1.369933940068900e+000	 1.088935718897824e+000	 1.243761991296634e+001
 1.358618078265032e+000	 1.103021721212288e+000	 1.224044553440387e+001
 1.164529781359323e+000	 9.454471896070471e-001	 1.320585784275676e+001
 1.154701044472046e+000	 9.574264973867980e-001	 1.307904394887899e+001
 1.144744261621738e+000	 9.693093291010768e-001	 1.294795073726961e+001
 1.134660857414088e+000	 9.810936441778935e-001	 1.281163734775900e+001
 1.124452299591371e+000	 9.927774302097262e-001	 1.266913879050328e+001
 1.114120098332700e+000	 1.004358704088371e+000	 1.251946773342740e+001
 1.103665805518577e+000	 1.015835513118795e+000	 1.236161636419606e+001
 1.093091013960508e+000	 1.027205936110678e+000	 1.219455832247362e+001
 1.082397356596456e+000	 1.038468084446387e+000	 1.201725069798969e+001
 1.071586505652983e+000	 1.049620103124114e+000	 1.182863608969562e+001
 1.060660171775000e+000	 1.060660171775000e+000	 1.162764472107957e+001
 1.183938611052150e+000	 9.612046427698152e-001	 1.334393463262447e+001
 1.173946061883105e+000	 9.733836056803343e-001	 1.320120152630769e+001
 1.163823332651751e+000	 9.854644845907676e-001	 1.305655962202155e+001
 1.153571871707206e+000	 9.974452049195915e-001	 1.290910809367381e+001
 1.143193171254116e+000	 1.009323720719159e+000	 1.275791830771252e+001
 1.132688766641246e+000	 1.021098015829463e+000	 1.260203560356045e+001
 1.122060235613774e+000	 1.032766105010551e+000	 1.244048115552685e+001
 1.111309197530064e+000	 1.044326035052265e+000	 1.227225391191253e+001
 1.100437312543711e+000	 1.055775885860012e+000	 1.209633260675944e+001
 1.089446280751720e+000	 1.067113771515287e+000	 1.191167783944558e+001
 1.078337841309750e+000	 1.078337841309750e+000	 1.171723421709127e+001
 1.203347440744476e+000	 9.769620959320846e-001	 1.341716888896658e+001
 1.193191079293752e+000	 9.893407139732818e-001	 1.326384885710344e+001
 1.182902403681423e+000	 1.001619640079799e+000	 1.311100945241827e+001
 1.172482886000033e+000	 1.013796765660581e+000	 1.295778529147290e+001
 1.161934042916601e+000	 1.025870011227853e+000	 1.280327942749749e+001
 1.151257434949542e+000	 1.037837327569805e+000	 1.264656512950530e+001
 1.140454665708711e+000	 1.049696696901566e+000	 1.248668775001678e+001
 1.129527381099329e+000	 1.061446133993143e+000	 1.232266667705072e+001
 1.118477268490625e+000	 1.073083687272977e+000	 1.215349736575741e+001
 1.107306055850046e+000	 1.084607439905871e+000	 1.197815344479727e+001
 1.096015510844000e+000	 1.096015510844000e+000	 1.179558889231695e+001
 1.222756270436300e+000	 9.927195490938553e-001	 1.342408710583508e+001
 1.212436096703989e+000	 1.005297822265641e+000	 1.326531317032536e+001
 1.201981474710754e+000	 1.017774795568173e+000	 1.310943281101176e+001
 1.191393900292569e+000	 1.030148326400862e+000	 1.295561156220003e+001
 1.180674914578825e+000	 1.042416301735808e+000	 1.280297955704846e+001
 1.169826103257588e+000	 1.054576639309397e+000	 1.265063331101612e+001
 1.158849095803388e+000	 1.066627288791843e+000	 1.249763760123881e+001
 1.147745564668305e+000	 1.078566232933311e+000	 1.234302743742244e+001
 1.136517224437199e+000	 1.090391488685283e+000	 1.218581011953942e+001
 1.125165830947962e+000	 1.102101108295864e+000	 1.202496737732366e+001
 1.113693180377750e+000	 1.113693180377750e+000	 1.185945758628678e+001
 1.242165100127623e+000	 1.008477002255128e+000	 1.336309992649423e+001
 1.231681114113813e+000	 1.021254930557411e+000	 1.320381983987016e+001
 1.221060545739743e+000	 1.033929951055887e+000	 1.304987426188620e+001
 1.210304914584814e+000	 1.046499887140433e+000	 1.290045517931801e+001
 1.199415786240788e+000	 1.058962592243023e+000	 1.275471525427121e+001
 1.188394771565383e+000	 1.071315951048240e+000	 1.261176961758385e+001
 1.177243525897804e+000	 1.083557880681380e+000	 1.247069776566959e+001
 1.165963748236990e+000	 1.095686331872769e+000	 1.233054555631005e+001
 1.154557180383433e+000	 1.107699290096929e+000	 1.219032729858129e+001
 1.143025606045469e+000	 1.119594776685267e+000	 1.204902793178891e+001
 1.131370849911000e+000	 1.131370849911000e+000	 1.190560528799403e+001
 1.261573929818444e+000	 1.024234455415901e+000	 1.330305869484351e+001
 1.250926131523227e+000	 1.037212038848592e+000	 1.308343332354462e+001
 1.240139616768392e+000	 1.050085106542942e+000	 1.293029712130945e+001
 1.229215928876769e+000	 1.062851447879295e+000	 1.279011578775402e+001
 1.218156657902490e+000	 1.075508882749499e+000	 1.265612690850154e+001
 1.206963439872927e+000	 1.088055262786334e+000	 1.252745964461032e+001
 1.195637955991960e+000	 1.100488472570177e+000	 1.240320354861980e+001
 1.184181931805385e+000	 1.112806430811517e+000	 1.228241059122509e+001
 1.172597136329328e+000	 1.125007091507914e+000	 1.216409728959240e+001
 1.160885381142565e+000	 1.137088445074080e+000	 1.204724693205648e+001
 1.149048519443750e+000	 1.149048519443750e+000	 1.193081189362886e+001
 1.280982759508765e+000	 1.039991908576176e+000	 1.322326590570832e+001
 1.270171148932229e+000	 1.053169147139185e+000	 1.301617144274388e+001
 1.259218687796699e+000	 1.066240262029339e+000	 1.281138257191431e+001
 1.248126943168432e+000	 1.079203008617448e+000	 1.262232960303067e+001
 1.236897529563932e+000	 1.092055173255236e+000	 1.250480299569986e+001
 1.225532108180221e+000	 1.104794574523678e+000	 1.239514843720301e+001
 1.214032386085855e+000	 1.117419064458234e+000	 1.229246090962557e+001
 1.202400115373489e+000	 1.129926529749554e+000	 1.219579379434525e+001
 1.190637092274881e+000	 1.142314892918240e+000	 1.210416104489217e+001
 1.178745156239252e+000	 1.154582113462304e+000	 1.201653946373365e+001
 1.166726188976000e+000	 1.166726188976000e+000	 1.193187107724520e+001
 1.300391589198583e+000	 1.055749361735952e+000	 1.307694356636909e+001
 1.289416166340821e+000	 1.069126255429189e+000	 1.288642443923298e+001
 1.278297758824666e+000	 1.082395417515077e+000	 1.269993687774606e+001
 1.267037957459805e+000	 1.095554569354892e+000	 1.251776374801890e+001
 1.255638401225113e+000	 1.108601463760233e+000	 1.234016714210898e+001
 1.244100776487265e+000	 1.121533886260272e+000	 1.221224351631643e+001
 1.232426816179491e+000	 1.134349656345552e+000	 1.213574865243180e+001
 1.220618298941304e+000	 1.147046628686883e+000	 1.206784947858423e+001
 1.208677048220095e+000	 1.159622694327906e+000	 1.200755263721517e+001
 1.196604931335528e+000	 1.172075781849937e+000	 1.195382363075736e+001
 1.184403858507750e+000	 1.184403858507750e+000	 1.190558926256201e+001
 1.319800418887901e+000	 1.071506814895229e+000	 1.286429504230906e+001
 1.308661183749000e+000	 1.085083363718604e+000	 1.269423139788499e+001
 1.297376829852291e+000	 1.098550573000156e+000	 1.252991643657168e+001
 1.285948971750886e+000	 1.111906130091627e+000	 1.237170199505385e+001
 1.274379272886033e+000	 1.125147754264492e+000	 1.221991687523038e+001
 1.262669444794058e+000	 1.138273197996117e+000	 1.207486651561127e+001
 1.250821246272865e+000	 1.151280248232129e+000	 1.193683271221792e+001
 1.238836482508829e+000	 1.164166727623501e+000	 1.189571626312584e+001
 1.226717004164970e+000	 1.176930495736912e+000	 1.187129976556301e+001
 1.214464706431394e+000	 1.189569450236981e+000	 1.185602033345852e+001
 1.202081528039000e+000	 1.202081528039000e+000	 1.184878468548806e+001
 1.339209248576718e+000	 1.087264268054008e+000	 1.258544510269580e+001
 1.327906201156769e+000	 1.101040472007430e+000	 1.243956230226894e+001
 1.316455900879575e+000	 1.114705728484576e+000	 1.230113884749154e+001
 1.304859986041677e+000	 1.128257690827653e+000	 1.217059355194919e+001
 1.293120144546692e+000	 1.141694044768010e+000	 1.204831991487706e+001
 1.281238113100600e+000	 1.155012509731212e+000	 1.193468571803838e+001
 1.269215676365980e+000	 1.168210840117968e+000	 1.183003267588128e+001
 1.257054666076063e+000	 1.181286826559410e+000	 1.173467613960739e+001
 1.244756960109503e+000	 1.194238297145258e+000	 1.169242421706931e+001
 1.232324481526850e+000	 1.207063118623434e+000	 1.172005306592474e+001
 1.219759197569750e+000	 1.219759197569750e+000	 1.175828653816621e+001
 1.358618078265032e+000	 1.103021721212288e+000	 1.224044553440387e+001
 1.347151218564126e+000	 1.116997580295668e+000	 1.212232297045744e+001
 1.335534971906517e+000	 1.130860883968336e+000	 1.201336626078458e+001
 1.323771000332176e+000	 1.144609251562969e+000	 1.191405927161672e+001
 1.311861016207091e+000	 1.158240335270790e+000	 1.182485825475547e+001
 1.299806781406893e+000	 1.171751821465558e+000	 1.174619137175272e+001
 1.287610106458834e+000	 1.185141432003066e+000	 1.167845827519811e+001
 1.275272849643007e+000	 1.198406925494609e+000	 1.162202974787166e+001
 1.262796916053697e+000	 1.211546098552944e+000	 1.157724740035726e+001
 1.250184256621897e+000	 1.224556787009298e+000	 1.154442342755069e+001
 1.237436867100000e+000	 1.237436867100000e+000	 1.163093418638511e+001
 1.060660171775000e+000	 1.060660171775000e+000	 1.162764472107957e+001
 1.049620103124114e+000	 1.071586505652983e+000	 1.148683118971260e+001
 1.038468084446386e+000	 1.082397356596456e+000	 1.133581048512170e+001
 1.027205936110678e+000	 1.093091013960509e+000	 1.117352407878416e+001
 1.015835513118795e+000	 1.103665805518577e+000	 1.099890488872039e+001
 1.004358704088371e+000	 1.114120098332699e+000	 1.081087956081816e+001
 9.927774302097263e-001	 1.124452299591371e+000	 1.060837078028664e+001
 9.810936441778935e-001	 1.134660857414088e+000	 1.039029960732792e+001
 9.693093291010766e-001	 1.144744261621738e+000	 1.015558783103078e+001
 9.574264973867980e-001	 1.154701044472046e+000	 9.903160335430249e+000
 9.454471896070471e-001	 1.164529781359323e+000	 9.631947471635270e+000
 1.078337841309750e+000	 1.078337841309750e+000	 1.171723421709127e+001
 1.067113771515287e+000	 1.089446280751720e+000	 1.158856876610910e+001
 1.055775885860012e+000	 1.100437312543710e+000	 1.145220389148164e+001
 1.044326035052265e+000	 1.111309197530064e+000	 1.130709473476267e+001
 1.032766105010551e+000	 1.122060235613774e+000	 1.115218446224988e+001
 1.021098015829463e+000	 1.132688766641246e+000	 1.098640659363880e+001
 1.009323720719159e+000	 1.143193171254116e+000	 1.080868736649989e+001
 9.974452049195917e-001	 1.153571871707205e+000	 1.061794813046900e+001
 9.854644845907675e-001	 1.163823332651751e+000	 1.041310776494667e+001
 9.733836056803344e-001	 1.173946061883105e+000	 1.019308511402584e+001
 9.612046427698152e-001	 1.183938611052150e+000	 9.956801432316313e+000
 1.096015510844000e+000	 1.096015510844000e+000	 1.179558889231695e+001
 1.084607439905871e+000	 1.107306055850046e+000	 1.168484936703270e+001
 1.073083687272977e+000	 1.118477268490624e+000	 1.156889162185904e+001
 1.061446133993143e+000	 1.129527381099330e+000	 1.144667914174559e+001
 1.049696696901566e+000	 1.140454665708711e+000	 1.131715999826542e+001
 1.037837327569805e+000	 1.151257434949542e+000	 1.117926923274403e+001
 1.025870011227853e+000	 1.161934042916601e+000	 1.103193128095579e+001
 1.013796765660581e+000	 1.172482886000033e+000	 1.087406243306473e+001
 1.001619640079799e+000	 1.182902403681423e+000	 1.070457332237938e+001
 9.893407139732818e-001	 1.193191079293752e+000	 1.052237143640395e+001
 9.769620959320847e-001	 1.203347440744476e+000	 1.032636364360318e+001
 1.113693180377750e+000	 1.113693180377750e+000	 1.185945758628678e+001
 1.102101108295864e+000	 1.125165830947962e+000	 1.177224883533904e+001
 1.090391488685283e+000	 1.136517224437199e+000	 1.168228147409981e+001
 1.078566232933311e+000	 1.147745564668305e+000	 1.158852204215922e+001
 1.066627288791843e+000	 1.158849095803387e+000	 1.148991820741337e+001
 1.054576639309397e+000	 1.169826103257588e+000	 1.138540121082685e+001
 1.042416301735808e+000	 1.180674914578825e+000	 1.127388835856032e+001
 1.030148326400862e+000	 1.191393900292569e+000	 1.115428555491530e+001
 1.017774795568173e+000	 1.201981474710754e+000	 1.102548986942270e+001
 1.005297822265641e+000	 1.212436096703989e+000	 1.088639213130415e+001
 9.927195490938553e-001	 1.222756270436300e+000	 1.073587954445878e+001
 1.131370849911000e+000	 1.131370849911000e+000	 1.190560528799403e+001
 1.119594776685267e+000	 1.143025606045469e+000	 1.184737267518789e+001
 1.107699290096929e+000	 1.154557180383433e+000	 1.178882420610637e+001
 1.095686331872768e+000	 1.165963748236990e+000	 1.172892421778506e+001
 1.083557880681380e+000	 1.177243525897804e+000	 1.166661469332192e+001
 1.071315951048240e+000	 1.188394771565383e+000	 1.160081777544577e+001
 1.058962592243023e+000	 1.199415786240788e+000	 1.153043833331123e+001
 1.046499887140433e+000	 1.210304914584814e+000	 1.145436657572703e+001
 1.033929951055887e+000	 1.221060545739743e+000	 1.137148070388865e+001
 1.021254930557411e+000	 1.231681114113813e+000	 1.128064959657449e+001
 1.008477002255128e+000	 1.242165100127623e+000	 1.118073552067584e+001
 1.149048519443750e+000	 1.149048519443750e+000	 1.193081189362886e+001
 1.137088445074080e+000	 1.160885381142565e+000	 1.190685377040484e+001
 1.125007091507914e+000	 1.172597136329327e+000	 1.188501023121768e+001
 1.112806430811516e+000	 1.184181931805385e+000	 1.186423817904059e+001
 1.100488472570177e+000	 1.195637955991960e+000	 1.184346865314072e+001
 1.088055262786333e+000	 1.206963439872927e+000	 1.182160941865043e+001
 1.075508882749499e+000	 1.218156657902490e+000	 1.179754761529101e+001
 1.062851447879295e+000	 1.229215928876769e+000	 1.177015245819648e+001
 1.050085106542942e+000	 1.240139616768392e+000	 1.173827798363737e+001
 1.037212038848592e+000	 1.250926131523227e+000	 1.166623098194309e+001
 1.024234455415901e+000	 1.261573929818444e+000	 1.123613094255754e+001
 1.166726188976000e+000	 1.166726188976000e+000	 1.193187107724520e+001
 1.154582113462304e+000	 1.178745156239252e+000	 1.194735031026401e+001
 1.142314892918240e+000	 1.190637092274882e+000	 1.196736661401007e+001
 1.129926529749554e+000	 1.202400115373490e+000	 1.199086424614303e+001
 1.117419064458234e+000	 1.214032386085856e+000	 1.201675805985000e+001
 1.104794574523678e+000	 1.225532108180221e+000	 1.204393617664156e+001
 1.092055173255236e+000	 1.236897529563932e+000	 1.207126272429701e+001
 1.079203008617448e+000	 1.248126943168432e+000	 1.209758063263239e+001
 1.066240262029339e+000	 1.259218687796699e+000	 1.175943958285092e+001
 1.053169147139185e+000	 1.270171148932229e+000	 1.136743554747020e+001
 1.039991908576176e+000	 1.280982759508765e+000	 1.099708559672627e+001
 1.184403858507750e+000	 1.184403858507750e+000	 1.190558926256201e+001
 1.172075781849937e+000	 1.196604931335528e+000	 1.196554390102200e+001
 1.159622694327906e+000	 1.208677048220096e+000	 1.203245433512981e+001
 1.147046628686883e+000	 1.220618298941304e+000	 1.210524698121385e+001
 1.134349656345552e+000	 1.232426816179491e+000	 1.218281527600465e+001
 1.121533886260272e+000	 1.244100776487265e+000	 1.226402243990879e+001
 1.108601463760233e+000	 1.255638401225113e+000	 1.211194119237142e+001
 1.095554569354892e+000	 1.267037957459804e+000	 1.173245440380524e+001
 1.082395417515077e+000	 1.278297758824666e+000	 1.137662118060658e+001
 1.069126255429189e+000	 1.289416166340821e+000	 1.104490846191209e+001
 1.055749361735952e+000	 1.300391589198583e+000	 1.073775709570860e+001
 1.202081528039000e+000	 1.202081528039000e+000	 1.184878468548806e+001
 1.189569450236981e+000	 1.214464706431394e+000	 1.195813784408077e+001
 1.176930495736912e+000	 1.226717004164969e+000	 1.207686579746486e+001
 1.164166727623501e+000	 1.238836482508828e+000	 1.220387193519790e+001
 1.151280248232129e+000	 1.250821246272865e+000	 1.230201303952232e+001
 1.138273197996117e+000	 1.262669444794058e+000	 1.192966524647390e+001
 1.125147754264492e+000	 1.274379272886033e+000	 1.158253801138083e+001
 1.111906130091627e+000	 1.285948971750886e+000	 1.126121797936047e+001
 1.098550573000156e+000	 1.297376829852291e+000	 1.096626498846066e+001
 1.085083363718604e+000	 1.308661183749000e+000	 1.069821118504776e+001
 1.071506814895229e+000	 1.319800418887901e+000	 1.045756016874282e+001
 1.219759197569750e+000	 1.219759197569750e+000	 1.175828653816621e+001
 1.207063118623434e+000	 1.232324481526850e+000	 1.192185556387596e+001
 1.194238297145258e+000	 1.244756960109503e+000	 1.209722254917072e+001
 1.181286826559410e+000	 1.257054666076063e+000	 1.196585841430994e+001
 1.168210840117968e+000	 1.269215676365980e+000	 1.162287409527447e+001
 1.155012509731212e+000	 1.281238113100600e+000	 1.130694280633913e+001
 1.141694044768010e+000	 1.293120144546692e+000	 1.101874812438081e+001
 1.128257690827653e+000	 1.304859986041677e+000	 1.075894559837374e+001
 1.114705728484575e+000	 1.316455900879575e+000	 1.052816174591706e+001
 1.101040472007430e+000	 1.327906201156769e+000	 1.032699307985196e+001
 1.087264268054008e+000	 1.339209248576718e+000	 1.015600516721781e+001
 1.237436867100000e+000	 1.237436867100000e+000	 1.163093418638511e+001
 1.224556787009298e+000	 1.250184256621897e+000	 1.184492938147847e+001
 1.211546098552944e+000	 1.262796916053697e+000	 1.150279729508721e+001
 1.198406925494609e+000	 1.275272849643007e+000	 1.118851295176000e+001
 1.185141432003067e+000	 1.287610106458834e+000	 1.090288683990919e+001
 1.171751821465558e+000	 1.299806781406892e+000	 1.064670161988390e+001
 1.158240335270790e+000	 1.311861016207091e+000	 1.042071097142338e+001
 1.144609251562970e+000	 1.323771000332176e+000	 1.022563846873179e+001
 1.130860883968336e+000	 1.335534971906517e+000	 1.006217648569193e+001
 1.116997580295668e+000	 1.347151218564126e+000	 9.930985133695657e+000
 1.103021721212288e+000	 1.358618078265032e+000	 9.832691234519190e+000
 9.454471896070471e-001	 1.164529781359323e+000	 9.631947471635270e+000
 9.333734733433584e-001	 1.174229091477602e+000	 9.519122642108856e+000
 9.212074420144205e-001	 1.183797638447231e+000	 9.405000856637313e+000
 9.089512136867100e-001	 1.193234130903926e+000	 9.289134638017636e+000
 8.966069298687863e-001	 1.202537323049252e+000	 9.171068554761572e+000
 8.841767542918877e-001	 1.211706015162792e+000	 9.050341011717423e+000
 8.716628716778431e-001	 1.220739054075391e+000	 8.926486044648250e+000
 8.590674864957389e-001	 1.229635333603122e+000	 8.799035113589969e+000
 8.463928217087879e-001	 1.238393794941728e+000	 8.667518889861997e+000
 8.336411175128569e-001	 1.247013427021299e+000	 8.531469031667886e+000
 8.208146300681053e-001	 1.255493266821059e+000	 8.307659601191935e+000
 9.612046427698152e-001	 1.183938611052150e+000	 9.956801432316313e+000
 9.489296979005989e-001	 1.193799576339370e+000	 9.907733087830378e+000
 9.365608993818463e-001	 1.203527599092000e+000	 9.853003969432390e+000
 9.241004005811425e-001	 1.213121366423021e+000	 9.791949559505676e+000
 9.115503786988560e-001	 1.222579611770688e+000	 9.723901914385177e+000
 8.989130335284119e-001	 1.231901115419247e+000	 9.648191720976016e+000
 8.861905862036693e-001	 1.241084704980054e+000	 9.564150349884210e+000
 8.733852779348664e-001	 1.250129255832787e+000	 9.468313369589282e+000
 8.604993687346021e-001	 1.259033691526450e+000	 9.186906736449533e+000
 8.475351361353408e-001	 1.267796984139968e+000	 8.926582910509163e+000
 8.344948738999105e-001	 1.276418154602220e+000	 8.687549610963313e+000
 9.769620959320847e-001	 1.203347440744476e+000	 1.032636364360318e+001
 9.644859224574407e-001	 1.213370061200551e+000	 1.033508238764759e+001
 9.519143567489734e-001	 1.223257559736129e+000	 1.033392211419622e+001
 9.392495874753767e-001	 1.233008601941451e+000	 1.032200096425218e+001
 9.264938275288278e-001	 1.242621900491465e+000	 1.029843807488259e+001
 9.136493127649381e-001	 1.252096215675078e+000	 1.020749476386794e+001
 9.007183007295984e-001	 1.261430355884161e+000	 9.929951949094111e+000
 8.877030693741963e-001	 1.270623178061991e+000	 9.669130529657839e+000
 8.746059157607187e-001	 1.279673588110835e+000	 9.425182955920789e+000
 8.614291547582271e-001	 1.288580541258457e+000	 9.198237103190035e+000
 8.481751177322187e-001	 1.297343042383386e+000	 8.988395983659659e+000
 9.927195490938553e-001	 1.222756270436300e+000	 1.073587954445878e+001
 9.800421470138834e-001	 1.232940546061146e+000	 1.079682906179997e+001
 9.672678141158025e-001	 1.242987520379617e+000	 1.084382132492442e+001
 9.543987743694127e-001	 1.252895837459215e+000	 1.078801764134492e+001
 9.414372763587008e-001	 1.262664189211584e+000	 1.052397701727386e+001
 9.283855920014663e-001	 1.272291315930287e+000	 1.027280395218478e+001
 9.152460152556287e-001	 1.281776006787710e+000	 1.003458024270992e+001
 9.020208608137285e-001	 1.291117100290733e+000	 9.809367917964160e+000
 8.887124627871379e-001	 1.300313484694886e+000	 9.597208963558760e+000
 8.753231733815161e-001	 1.309364098376765e+000	 9.398125072245513e+000
 8.618553615650291e-001	 1.318267930164557e+000	 9.212117422032806e+000
 1.008477002255128e+000	 1.242165100127623e+000	 1.118073552067584e+001
 9.955983715699281e-001	 1.252511030921155e+000	 1.120334824411080e+001
 9.826212714823328e-001	 1.262717481022464e+000	 1.096065056464535e+001
 9.695479612632501e-001	 1.272783072976315e+000	 1.072750039928394e+001
 9.563807251884761e-001	 1.282706477931043e+000	 1.050389467655762e+001
 9.431218712379964e-001	 1.292486416184872e+000	 1.028981505599465e+001
 9.297737297817619e-001	 1.302121657690702e+000	 1.008522768949253e+001
 9.163386522534633e-001	 1.311611022519015e+000	 9.890083001442189e+000
 9.028190098138598e-001	 1.320953381278601e+000	 9.704315488497693e+000
 8.892171920052078e-001	 1.330147655494894e+000	 9.527843539840578e+000
 8.755356053983423e-001	 1.339192817945733e+000	 9.360569278741604e+000
 1.024234455415901e+000	 1.261573929818444e+000	 1.123613094255754e+001
 1.011154596125574e+000	 1.272081515780578e+000	 1.102758297130559e+001
 9.979747288485645e-001	 1.282447441664671e+000	 1.082571841525444e+001
 9.846971481568890e-001	 1.292670308492749e+000	 1.063042526115769e+001
 9.713241740181527e-001	 1.302748766649842e+000	 1.044158018286463e+001
 9.578581504745288e-001	 1.312681516438834e+000	 1.025904837543734e+001
 9.443014443079969e-001	 1.322467308593137e+000	 1.008268340124539e+001
 9.306564436934003e-001	 1.332104944746835e+000	 9.912327048899375e+000
 9.169255568408840e-001	 1.341593277861981e+000	 9.747809205854860e+000
 9.031112106293021e-001	 1.350931212612843e+000	 9.588947745491446e+000
 8.892158492321584e-001	 1.360117705726915e+000	 9.435548429435478e+000
 1.039991908576176e+000	 1.280982759508765e+000	 1.099708559672627e+001
 1.026710820680821e+000	 1.291652000639415e+000	 1.082646333766324e+001
 1.013328186214498e+000	 1.302177402306237e+000	 1.065978554692116e+001
 9.998463350503299e-001	 1.312557544008519e+000	 1.049681944138804e+001
 9.862676228477315e-001	 1.322791055367983e+000	 1.033732455210392e+001
 9.725944297110627e-001	 1.332876616692172e+000	 1.018105264577194e+001
 9.588291588343344e-001	 1.342812959495014e+000	 1.002774765250118e+001
 9.449742351335397e-001	 1.352598866974193e+000	 9.877145600572108e+000
 9.310321038682108e-001	 1.362233174445026e+000	 9.728974559004691e+000
 9.170052292537991e-001	 1.371714769730612e+000	 9.582954588690589e+000
 9.028960930664768e-001	 1.381042593508102e+000	 9.438797702831279e+000
 1.055749361735952e+000	 1.300391589198583e+000	 1.073775709570860e+001
 1.042267045235670e+000	 1.311222485497665e+000	 1.059956475612774e+001
 1.028681643580133e+000	 1.321907362947162e+000	 1.046268570311205e+001
 1.014995521943572e+000	 1.332444779523623e+000	 1.032676946494900e+001
 1.001211071677212e+000	 1.342833344085464e+000	 1.019146144257109e+001
 9.873307089475989e-001	 1.353071716944887e+000	 1.005640291535308e+001
 9.733568733607741e-001	 1.363158610396335e+000	 9.921231047482058e+000
 9.592920265738814e-001	 1.373092789201091e+000	 9.785578895630763e+000
 9.451386508958403e-001	 1.382873071027735e+000	 9.649075418663765e+000
 9.308992478786984e-001	 1.392498326848202e+000	 9.511345490102412e+000
 9.165763369012980e-001	 1.401967481289294e+000	 9.372009914066309e+000
 1.071506814895229e+000	 1.319800418887901e+000	 1.045756016874282e+001
 1.057823269790120e+000	 1.330792970355330e+000	 1.034654938902730e+001
 1.044035100945469e+000	 1.341637323587446e+000	 1.023432332657751e+001
 1.030144708836616e+000	 1.352332015038063e+000	 1.012041680629650e+001
 1.016154520506594e+000	 1.362875632802286e+000	 1.000436401947926e+001
 1.002066988184137e+000	 1.373266817196979e+000	 9.885698610844479e+000
 9.878845878873158e-001	 1.383504261297097e+000	 9.763953760563812e+000
 9.736098180144256e-001	 1.393586711427527e+000	 9.638662261963969e+000
 9.592451979237719e-001	 1.403512967610108e+000	 9.509356595586489e+000
 9.447932665040006e-001	 1.413281883965611e+000	 9.375569000300661e+000
 9.302565807366219e-001	 1.422892369070492e+000	 9.236831542167185e+000
 1.087264268054008e+000	 1.339209248576718e+000	 1.015600516721781e+001
 1.073379494344171e+000	 1.350363455212408e+000	 1.006715986188669e+001
 1.059388558310507e+000	 1.361367284227090e+000	 9.974668436215394e+000
 1.045293895729462e+000	 1.372219250551837e+000	 9.877953907522073e+000
 1.031097969335878e+000	 1.382917921518449e+000	 9.776442092138458e+000
 1.016803267420677e+000	 1.393461917448448e+000	 9.669561770674669e+000
 1.002412302413960e+000	 1.403849912197303e+000	 9.556744842786477e+000
 9.879276094551723e-001	 1.414080633653502e+000	 9.437426472068770e+000
 9.733517449520063e-001	 1.424152864192145e+000	 9.311045221721848e+000
 9.586872851297054e-001	 1.434065441082840e+000	 9.177043181658933e+000
 9.439368245724484e-001	 1.443817256851695e+000	 9.034866087739419e+000
 1.103021721212288e+000	 1.358618078265032e+000	 9.832691234519190e+000
 1.088935718897824e+000	 1.369933940068900e+000	 9.761213516056403e+000
 1.074742015675246e+000	 1.381097244866093e+000	 9.683751943060067e+000
 1.060443082622109e+000	 1.392106486064946e+000	 9.599620537807205e+000
 1.046041418165064e+000	 1.402960210233953e+000	 9.508139496520268e+000
 1.031539546657219e+000	 1.413657017699293e+000	 9.408635429911064e+000
 1.016940016940706e+000	 1.424195563096952e+000	 9.300441587806750e+000
 1.002245400896121e+000	 1.434574555879015e+000	 9.182898068435495e+000
 9.874582919805433e-001	 1.444792760773848e+000	 9.055352012984805e+000
 9.725813037558126e-001	 1.454848998199890e+000	 8.917157786079434e+000
 9.576170684087774e-001	 1.464742144632903e+000	 8.767677142854314e+000
 8.208146300681053e-001	 1.255493266821059e+000	 8.307659601191935e+000
 8.079156302257311e-001	 1.263832399644536e+000	 8.101932500235995e+000
 7.949464022496643e-001	 1.272029959353938e+000	 7.904302063195928e+000
 7.819092425357326e-001	 1.280085128564544e+000	 7.714675673359750e+000
 7.688064583308100e-001	 1.287997138799943e+000	 7.532944213824409e+000
 7.556403664517627e-001	 1.295765270607128e+000	 7.358982040912752e+000
 7.424132920061469e-001	 1.303388853632028e+000	 7.192646982116708e+000
 7.291275671160526e-001	 1.310867266655738e+000	 7.033780358820233e+000
 7.157855296464767e-001	 1.318199937591758e+000	 6.882207033991244e+000
 7.023895219395790e-001	 1.325386343444616e+000	 6.737735484970328e+000
 6.889418895561570e-001	 1.332426010230286e+000	 6.600157901417128e+000
 8.344948738999105e-001	 1.276418154602220e+000	 8.687549610963313e+000
 8.213808907269712e-001	 1.284896272971888e+000	 8.495809835579696e+000
 8.081955089514598e-001	 1.293230458675645e+000	 8.310555038542725e+000
 7.949410632424674e-001	 1.301419880705692e+000	 8.131669038017334e+000
 7.816198993009829e-001	 1.309463757777676e+000	 7.959020793895515e+000
 7.682343725574868e-001	 1.317361358447709e+000	 7.792464374191573e+000
 7.547868468713275e-001	 1.325112001189150e+000	 7.631838943918445e+000
 7.412796932332971e-001	 1.332715054429446e+000	 7.476968776760788e+000
 7.277152884728083e-001	 1.340169936547323e+000	 7.327663289803544e+000
 7.140960139710570e-001	 1.347476115830716e+000	 7.183717101511462e+000
 7.004242543815207e-001	 1.354633110395864e+000	 7.044910113093887e+000
 8.481751177322187e-001	 1.297343042383386e+000	 8.988395983659659e+000
 8.348461512288039e-001	 1.305960146299434e+000	 8.809562239463004e+000
 8.214446156539169e-001	 1.314430957997715e+000	 8.635674171367258e+000
 8.079728839499134e-001	 1.322754632847353e+000	 8.466592971890119e+000
 7.944333402718964e-001	 1.330930376756053e+000	 8.302166569535530e+000
 7.808283786639605e-001	 1.338957446289043e+000	 8.142229587018379e+000
 7.671604017372471e-001	 1.346835148747114e+000	 7.986603319991501e+000
 7.534318193512494e-001	 1.354562842204066e+000	 7.835095736657958e+000
 7.396450472997966e-001	 1.362139935503848e+000	 7.687501498595812e+000
 7.258025060031215e-001	 1.369565888217805e+000	 7.543602003062656e+000
 7.119066192073804e-001	 1.376840210562442e+000	 7.403165446987387e+000
 8.618553615650291e-001	 1.318267930164557e+000	 9.212117422032806e+000
 8.483114117312290e-001	 1.327024019627176e+000	 9.045168648105742e+000
 8.346937223570364e-001	 1.335631457320152e+000	 8.881695296768680e+000
 8.210047046580711e-001	 1.344089384989528e+000	 8.721536870529013e+000
 8.072467812435503e-001	 1.352396995735073e+000	 8.564521156673569e+000
 7.934223847711834e-001	 1.360553534131128e+000	 8.410464176147663e+000
 7.795339566039047e-001	 1.368558296305920e+000	 8.259170151024069e+000
 7.655839454699089e-001	 1.376410629979596e+000	 8.110431491012772e+000
 7.515748061274420e-001	 1.384109934461334e+000	 7.964028799410020e+000
 7.375089980357721e-001	 1.391655660605885e+000	 7.819730898827487e+000
 7.233889840337364e-001	 1.399047310730021e+000	 7.677294876984839e+000
 8.755356053983423e-001	 1.339192817945733e+000	 9.360569278741604e+000
 8.617766722342464e-001	 1.348087892955113e+000	 9.204539769748218e+000
 8.479428290608178e-001	 1.356831956642953e+000	 9.050581335897196e+000
 8.340365253669401e-001	 1.365424137132218e+000	 8.898512723041074e+000
 8.200602222159444e-001	 1.373863614714737e+000	 8.748142467200456e+000
 8.060163908791562e-001	 1.382149621973968e+000	 8.599268832897435e+000
 7.919075114713012e-001	 1.390281443865568e+000	 8.451679768229287e+000
 7.777360715892763e-001	 1.398258417756038e+000	 8.305152877204629e+000
 7.635045649557438e-001	 1.406079933419780e+000	 8.159455409813560e+000
 7.492154900690090e-001	 1.413745432994954e+000	 8.014344270247204e+000
 7.348713488605884e-001	 1.421254410898599e+000	 7.869566043627963e+000
 8.892158492321584e-001	 1.360117705726915e+000	 9.435548429435478e+000
 8.752419327378564e-001	 1.369151766283244e+000	 9.289523332956762e+000
 8.611919357652612e-001	 1.378032455966118e+000	 9.144227904719161e+000
 8.470683460765199e-001	 1.386758889275422e+000	 8.999461066431376e+000
 8.328736631890795e-001	 1.395330233695044e+000	 8.855012993895130e+000
 8.186103969878784e-001	 1.403745709817559e+000	 8.710665043567250e+000
 8.042810663394361e-001	 1.412004591426058e+000	 8.566189694073385e+000
 7.898881977093509e-001	 1.420106205533392e+000	 8.421350503269586e+000
 7.754343237847030e-001	 1.428049932379187e+000	 8.275902081397751e+000
 7.609219821028321e-001	 1.435835205385014e+000	 8.129590080828699e+000
 7.463537136879365e-001	 1.443461511068178e+000	 7.982151202832032e+000
 9.028960930664768e-001	 1.381042593508102e+000	 9.438797702831279e+000
 8.887071932420589e-001	 1.390215639611572e+000	 9.301908857811560e+000
 8.744410424703669e-001	 1.399232955289649e+000	 9.164468412894950e+000
 8.601001667868115e-001	 1.408093641419141e+000	 9.026256398640957e+000
 8.456871041629548e-001	 1.416796852675995e+000	 8.887045523993354e+000
 8.312044030973500e-001	 1.425341797661905e+000	 8.746601089818412e+000
 8.166546212083097e-001	 1.433727738987390e+000	 8.604680915666238e+000
 8.020403238301335e-001	 1.441953993311656e+000	 8.461035280426508e+000
 7.873640826143185e-001	 1.450019931339554e+000	 8.315406877502982e+000
 7.726284741372415e-001	 1.457924977776064e+000	 8.167530785078723e+000
 7.578360785157806e-001	 1.465668611238756e+000	 8.017134451993366e+000
 9.165763369012980e-001	 1.401967481289294e+000	 9.372009914066309e+000
 9.021724537468538e-001	 1.411279512940094e+000	 9.243431999823359e+000
 8.876901491761343e-001	 1.420433454613544e+000	 9.113078706040342e+000
 8.731319874978143e-001	 1.429428393563374e+000	 8.980712106835263e+000
 8.585005451375706e-001	 1.438263471657590e+000	 8.846088341094131e+000
 8.437984092075714e-001	 1.446937885507002e+000	 8.708957511706775e+000
 8.290281760779216e-001	 1.455450886549564e+000	 8.569063596354589e+000
 8.141924499516234e-001	 1.463801781090832e+000	 8.426144370600662e+000
 7.992938414445910e-001	 1.471989930300882e+000	 8.279931343983584e+000
 7.843349661722372e-001	 1.480014750168104e+000	 8.130149709772514e+000
 7.693184433441208e-001	 1.487875711410334e+000	 7.976518308983772e+000
 9.302565807366219e-001	 1.422892369070492e+000	 9.236831542167185e+000
 9.156377142522415e-001	 1.432343386268811e+000	 9.115778510563532e+000
 9.009392558825640e-001	 1.441633953937804e+000	 8.991781298376877e+000
 8.861638082095283e-001	 1.450763145708120e+000	 8.864584960843496e+000
 8.713139861129269e-001	 1.459730090639828e+000	 8.733929968074113e+000
 8.563924153185422e-001	 1.468533973352852e+000	 8.599552088682762e+000
 8.414017309482721e-001	 1.477174034112580e+000	 8.461182283352136e+000
 8.263445760738212e-001	 1.485649568870919e+000	 8.318546609165820e+000
 8.112236002755201e-001	 1.493959929263171e+000	 8.171366135493996e+000
 7.960414582078192e-001	 1.502104522561134e+000	 8.019356872169569e+000
 7.808008081729572e-001	 1.510082811582913e+000	 7.862229710644521e+000
 9.439368245724484e-001	 1.443817256851695e+000	 9.034866087739419e+000
 9.291029747582215e-001	 1.453407259597724e+000	 8.920587853891711e+000
 9.141883625896556e-001	 1.462834453262429e+000	 8.802249237325817e+000
 8.991956289219539e-001	 1.472097897853381e+000	 8.679579215864024e+000
 8.841274270890236e-001	 1.481196709622710e+000	 8.552303497574679e+000
 8.689864214302620e-001	 1.490130061199455e+000	 8.420144387461946e+000
 8.537752858193610e-001	 1.498897181676438e+000	 8.282820662531245e+000
 8.384967021967261e-001	 1.507497356651917e+000	 8.140047456143661e+000
 8.231533591071064e-001	 1.515929928226421e+000	 7.991536152531404e+000
 8.077479502439875e-001	 1.524194294955155e+000	 7.836994292296949e+000
 7.922831730022893e-001	 1.532289911756491e+000	 7.676125489672813e+000
 9.576170684087774e-001	 1.464742144632903e+000	 8.767677142854314e+000
 9.425682352647938e-001	 1.474471132926832e+000	 8.659456512220624e+000
 9.274374692974090e-001	 1.484034952587418e+000	 8.546109636850833e+000
 9.122274496350906e-001	 1.493432649999157e+000	 8.427350363509534e+000
 8.969408680658606e-001	 1.502663328606234e+000	 8.302890551304321e+000
 8.815804275427316e-001	 1.511726149046811e+000	 8.172439920076831e+000
 8.661488406911885e-001	 1.520620329241137e+000	 8.035705905661972e+000
 8.506488283203392e-001	 1.529345144433827e+000	 7.892393523014675e+000
 8.350831179393492e-001	 1.537899927190630e+000	 7.742205238162068e+000
 8.194544422807419e-001	 1.546284067350165e+000	 7.584840849894661e+000
 8.037655378321177e-001	 1.554497011931069e+000	 7.419997382060517e+000
 6.889418895561570e-001	 1.332426010230286e+000	 6.600157901417128e+000
 6.754449800253557e-001	 1.339318512858777e+000	 6.359774492887632e+000
 6.619011416047155e-001	 1.346063474979750e+000	 6.146775632981987e+000
 6.483127220513681e-001	 1.352660568791450e+000	 5.960911659781614e+000
 6.346820674049267e-001	 1.359109514813409e+000	 5.801899517262071e+000
 6.210115207841032e-001	 1.365410081623910e+000	 5.656704490246519e+000
 6.073034211979438e-001	 1.371562085562787e+000	 5.522990302227183e+000
 5.935601023727934e-001	 1.377565390400310e+000	 5.439068942864695e+000
 5.797838915960678e-001	 1.383419906972935e+000	 5.403101118562811e+000
 5.659771085778667e-001	 1.389125592786738e+000	 5.413266486299356e+000
 5.521420643314210e-001	 1.394682451589383e+000	 5.467766854970410e+000
 7.004242543815207e-001	 1.354633110395864e+000	 7.044910113093887e+000
 6.867023963587897e-001	 1.361640488067934e+000	 6.808124918273183e+000
 6.729328272979888e-001	 1.368497866224071e+000	 6.596889985334642e+000
 6.591179340855365e-001	 1.375204911599156e+000	 6.410967038208331e+000
 6.452601018617065e-001	 1.381761340054712e+000	 6.250085560397738e+000
 6.313617127971891e-001	 1.388166916311995e+000	 6.113943184046726e+000
 6.174251448845149e-001	 1.394421453649835e+000	 5.982178071045261e+000
 6.034527707454686e-001	 1.400524813568007e+000	 5.875543625177970e+000
 5.894469564555900e-001	 1.406476905416907e+000	 5.814494189086586e+000
 5.754100603868140e-001	 1.412277685994379e+000	 5.797116842712622e+000
 5.613444320692591e-001	 1.417927159110548e+000	 5.821525645956883e+000
 7.119066192073804e-001	 1.376840210562442e+000	 7.403165446987387e+000
 6.979598126926294e-001	 1.383962463278092e+000	 7.170614065887692e+000
 6.839645129915994e-001	 1.390932257469392e+000	 6.961858433794053e+000
 6.699231461199932e-001	 1.397749254407861e+000	 6.776671637954689e+000
 6.558381363187454e-001	 1.404413165297016e+000	 6.614795626522671e+000
 6.417119048105254e-001	 1.410923751001080e+000	 6.475941558077492e+000
 6.275468685713479e-001	 1.417280821737884e+000	 6.359790193776206e+000
 6.133454391184368e-001	 1.423484236736704e+000	 6.241178424512037e+000
 5.991100213154564e-001	 1.429533903861880e+000	 6.158371202970067e+000
 5.848430121961761e-001	 1.435429779203020e+000	 6.116784088618537e+000
 5.705467998076025e-001	 1.441171866632713e+000	 6.114437597419043e+000
 7.233889840337364e-001	 1.399047310730021e+000	 7.677294876984839e+000
 7.092172290268761e-001	 1.406284438489250e+000	 7.449594323238621e+000
 6.949961986855466e-001	 1.413366648715713e+000	 7.244011489129059e+000
 6.807283581547375e-001	 1.420293597217567e+000	 7.060330840441444e+000
 6.664161707760433e-001	 1.427064990540319e+000	 6.898306754526950e+000
 6.520620968241121e-001	 1.433680585691165e+000	 6.757663830162960e+000
 6.376685922584428e-001	 1.440140189826932e+000	 6.638097239569885e+000
 6.232381074916984e-001	 1.446443659906401e+000	 6.535135534772428e+000
 6.087730861756668e-001	 1.452590902307852e+000	 6.433982827365994e+000
 5.942759640059532e-001	 1.458581872412662e+000	 6.371602730538847e+000
 5.797491675464509e-001	 1.464416574155878e+000	 6.345916341605658e+000
 7.348713488605884e-001	 1.421254410898599e+000	 7.869566043627963e+000
 7.204746453615288e-001	 1.428606413701408e+000	 7.647314687522798e+000
 7.060278843798309e-001	 1.435801039963035e+000	 7.445576417213886e+000
 6.915335701897699e-001	 1.442837940028273e+000	 7.264147128928157e+000
 6.769942052336005e-001	 1.449716815784622e+000	 7.102793632010099e+000
 6.624122888379495e-001	 1.456437420382251e+000	 6.961253918946418e+000
 6.477903159457994e-001	 1.462999557916980e+000	 6.839237477143511e+000
 6.331307758652531e-001	 1.469403083077098e+000	 6.736425641804720e+000
 6.184361510362216e-001	 1.475647900754824e+000	 6.640481539432159e+000
 6.037089158161451e-001	 1.481733965623303e+000	 6.560810610929551e+000
 5.889515352858046e-001	 1.487661281680043e+000	 6.515280563363390e+000
 7.463537136879365e-001	 1.443461511068178e+000	 7.982151202832032e+000
 7.317320616965880e-001	 1.450928388914566e+000	 7.765928718727635e+000
 7.170595700744522e-001	 1.458235431211356e+000	 7.568685180942962e+000
 7.023387822250904e-001	 1.465382282839978e+000	 7.390228003756159e+000
 6.875722396914169e-001	 1.472368641029925e+000	 7.230336468457574e+000
 6.727624808520369e-001	 1.479194255074336e+000	 7.088761953308075e+000
 6.579120396334177e-001	 1.485858926008029e+000	 6.965228204915444e+000
 6.430234442391007e-001	 1.492362506248796e+000	 6.859431650471201e+000
 6.280992158971204e-001	 1.498704899202796e+000	 6.771041750191470e+000
 6.131418676267521e-001	 1.504886058834944e+000	 6.683556343878299e+000
 5.981539030256632e-001	 1.510905989205208e+000	 6.621761303783018e+000
 7.578360785157806e-001	 1.465668611238756e+000	 8.017134451993366e+000
 7.429894780320530e-001	 1.473250364128723e+000	 7.807501769722067e+000
 7.280912557694106e-001	 1.480669822460677e+000	 7.615381660153768e+000
 7.131439942606986e-001	 1.487926625652684e+000	 7.440593178024222e+000
 6.981502741494924e-001	 1.495020466276229e+000	 7.282928152673282e+000
 6.831126728663752e-001	 1.501951089767421e+000	 7.142151377650111e+000
 6.680337633212981e-001	 1.508718294100077e+000	 7.018000841471475e+000
 6.529161126132416e-001	 1.515321929421493e+000	 6.910187999069040e+000
 6.377622807583634e-001	 1.521761897651768e+000	 6.818398083362380e+000
 6.225748194377736e-001	 1.528038152047585e+000	 6.738906074829330e+000
 6.073562707660272e-001	 1.534150696731373e+000	 6.664508599877896e+000
 7.693184433441208e-001	 1.487875711410334e+000	 7.976518308983772e+000
 7.542468943679248e-001	 1.495572339343881e+000	 7.774017568877954e+000
 7.391229414647058e-001	 1.503104213710998e+000	 7.587628224988998e+000
 7.239492062965948e-001	 1.510470968466389e+000	 7.417181128875223e+000
 7.087283086078270e-001	 1.517672291523532e+000	 7.262480769248475e+000
 6.934628648809639e-001	 1.524707924461506e+000	 7.123305420887608e+000
 6.781554870094402e-001	 1.531577662193125e+000	 6.999407334507156e+000
 6.628087809876755e-001	 1.538281352595190e+000	 6.890512967212726e+000
 6.474253456199506e-001	 1.544818896101741e+000	 6.796323253070842e+000
 6.320077712492103e-001	 1.551190245261227e+000	 6.716513913225396e+000
 6.165586385068961e-001	 1.557395404258538e+000	 6.642597529664363e+000
 7.808008081729572e-001	 1.510082811582913e+000	 7.862229710644521e+000
 7.655043107042029e-001	 1.517894314560039e+000	 7.667384221870676e+000
 7.501546271603380e-001	 1.525538604962319e+000	 7.487311729256721e+000
 7.347544183327789e-001	 1.533015311281095e+000	 7.321855070728345e+000
 7.193063430664208e-001	 1.540324116771835e+000	 7.170831540048125e+000
 7.038130568958031e-001	 1.547464759156591e+000	 7.034032994646133e+000
 6.882772106978443e-001	 1.554437030287174e+000	 6.911226004276212e+000
 6.727014493624025e-001	 1.561240775769887e+000	 6.802152040223048e+000
 6.570884104818818e-001	 1.567875894552713e+000	 6.706527704682686e+000
 6.414407230610617e-001	 1.574342338475868e+000	 6.624044999835988e+000
 6.257610062482705e-001	 1.580640111786703e+000	 6.554371636036622e+000
 7.922831730022893e-001	 1.532289911756491e+000	 7.676125489672813e+000
 7.767617270408872e-001	 1.540216289777197e+000	 7.489439691585012e+000
 7.611863128563070e-001	 1.547972996214641e+000	 7.316248982628475e+000
 7.455596303692513e-001	 1.555559654096801e+000	 7.156408409099647e+000
 7.298843775252739e-001	 1.562975942021138e+000	 7.009748249045946e+000
 7.141632489108927e-001	 1.570221593852676e+000	 6.876074078572607e+000
 6.983989343865100e-001	 1.577296398382222e+000	 6.755166878911823e+000
 6.825941177374223e-001	 1.584200198945584e+000	 6.646783184075920e+000
 6.667514753441572e-001	 1.590932893004685e+000	 6.550655268809028e+000
 6.508736748733278e-001	 1.597494431691509e+000	 6.466491376448217e+000
 6.349633739901497e-001	 1.603884819315868e+000	 6.393975986200808e+000
 8.037655378321177e-001	 1.554497011931069e+000	 7.419997382060517e+000
 7.880191433779774e-001	 1.562538264995355e+000	 7.241956808314650e+000
 7.722179985526132e-001	 1.570407387467961e+000	 7.076191753791565e+000
 7.563648424060112e-001	 1.578103996913506e+000	 6.922569726951751e+000
 7.404624119843859e-001	 1.585627767271441e+000	 6.780934202173926e+000
 7.245134409262326e-001	 1.592978428549761e+000	 6.651104644048036e+000
 7.085206580754377e-001	 1.600155766478270e+000	 6.532876572435837e+000
 6.924867861127356e-001	 1.607159622122281e+000	 6.426021668212490e+000
 6.764145402067767e-001	 1.613989891457657e+000	 6.330287919502915e+000
 6.603066266860092e-001	 1.620646524908150e+000	 6.245399808108957e+000
 6.441657417325339e-001	 1.627129526846032e+000	 6.171058535724631e+000
 5.521420643314210e-001	 1.394682451589383e+000	 5.467766854970410e+000
 5.382810600734966e-001	 1.400090532911170e+000	 5.289080808895743e+000
 5.243963861452564e-001	 1.405349931577071e+000	 5.126611626295341e+000
 5.104903209545467e-001	 1.410460787190097e+000	 4.978698942935276e+000
 4.965651299408992e-001	 1.415423283586218e+000	 4.843741846043228e+000
 4.826230645635711e-001	 1.420237648262862e+000	 4.720200902454486e+000
 4.686663613134736e-001	 1.424904151781651e+000	 4.606600009077902e+000
 4.546972407496676e-001	 1.429423107146426e+000	 4.501528065175671e+000
 4.407179065610664e-001	 1.433794869157610e+000	 4.403640466458993e+000
 4.267305446539296e-001	 1.438019833743952e+000	 4.311660421498943e+000
 4.127373222656903e-001	 1.442098437272754e+000	 4.224380091432414e+000
 5.613444320692591e-001	 1.417927159110548e+000	 5.821525645956883e+000
 5.472524110733930e-001	 1.423425375121222e+000	 5.604184504092030e+000
 5.331363259128185e-001	 1.428772430431791e+000	 5.406480833573705e+000
 5.189984929688456e-001	 1.433968466971982e+000	 5.226672409726479e+000
 5.048412154383311e-001	 1.439013671641701e+000	 5.063076456140604e+000
 4.906667823048521e-001	 1.443908275729996e+000	 4.914071826245939e+000
 4.764774673341676e-001	 1.448652554307849e+000	 4.778101001212415e+000
 4.622755280946555e-001	 1.453246825595835e+000	 4.653671903498784e+000
 4.480632050033767e-001	 1.457691450307712e+000	 4.539359525904305e+000
 4.338427203983611e-001	 1.461986830971045e+000	 4.433807376497005e+000
 4.196162776376646e-001	 1.466133411225922e+000	 4.335728740295969e+000
 5.705467998076025e-001	 1.441171866632713e+000	 6.114437597419043e+000
 5.562237620738787e-001	 1.446760217332268e+000	 5.863738976170803e+000
 5.418762656810238e-001	 1.452194929287489e+000	 5.635889408493448e+000
 5.275066649838111e-001	 1.457476146754822e+000	 5.429059907493732e+000
 5.131173009364219e-001	 1.462604059698101e+000	 5.241481193383118e+000
 4.987105000467546e-001	 1.467578903198001e+000	 5.071446031761219e+000
 4.842885733554154e-001	 1.472400956834864e+000	 4.917311381747767e+000
 4.698538154400997e-001	 1.477070544045993e+000	 4.777500353116921e+000
 4.554085034460164e-001	 1.481588031458489e+000	 4.650503972144757e+000
 4.409548961429655e-001	 1.485953828198727e+000	 4.534882756422435e+000
 4.264952330096262e-001	 1.490168385179584e+000	 4.429268099416899e+000
 5.797491675464509e-001	 1.464416574155878e+000	 6.345916341605658e+000
 5.651951130749543e-001	 1.470095059544309e+000	 6.067138685587407e+000
 5.506162054498724e-001	 1.475617428144168e+000	 5.814217359681954e+000
 5.360148369994428e-001	 1.480983826538614e+000	 5.585231624506588e+000
 5.213933864351719e-001	 1.486194447755420e+000	 5.378320968099616e+000
 5.067542177892783e-001	 1.491249530666879e+000	 5.191687604318350e+000
 4.920996793772169e-001	 1.496149359362695e+000	 5.023598774123145e+000
 4.774321027860003e-001	 1.500894262496901e+000	 4.872388848732602e+000
 4.627538018889852e-001	 1.505484612609940e+000	 4.736461234220688e+000
 4.480670718877427e-001	 1.509920825426997e+000	 4.614290077693902e+000
 4.333741883815754e-001	 1.514203359133739e+000	 4.504421775737947e+000
 5.889515352858046e-001	 1.487661281680043e+000	 6.515280563363390e+000
 5.741664640766192e-001	 1.493429901757344e+000	 6.213690895173050e+000
 5.593561452193646e-001	 1.499039927001826e+000	 5.940764836039342e+000
 5.445230090157408e-001	 1.504491506323362e+000	 5.694484814669173e+000
 5.296694719345807e-001	 1.509784835813656e+000	 5.472894268680360e+000
 5.147979355324236e-001	 1.514920158136628e+000	 5.274100306645364e+000
 4.999107853995723e-001	 1.519897761891342e+000	 5.096276165564608e+000
 4.850103901323571e-001	 1.524717980948561e+000	 4.937663462593486e+000
 4.700991003322835e-001	 1.529381193762065e+000	 4.796574240454973e+000
 4.551792476326930e-001	 1.533887822655857e+000	 4.671392806565655e+000
 4.402531437535119e-001	 1.538238333088388e+000	 4.560577366479798e+000
 5.981539030256632e-001	 1.510905989205208e+000	 6.621761303783018e+000
 5.831378150788742e-001	 1.516764743971375e+000	 6.302622377644368e+000
 5.680960849894999e-001	 1.522462425860463e+000	 6.014758269794685e+000
 5.530311810327054e-001	 1.527999186109062e+000	 5.756049407855119e+000
 5.379455574346488e-001	 1.533375223872810e+000	 5.524438270957030e+000
 5.228416532761903e-001	 1.538590785607250e+000	 5.317932219079886e+000
 5.077218914224815e-001	 1.543646164420804e+000	 5.134606109870777e+000
 4.925886774791704e-001	 1.548541699400969e+000	 4.972604701604432e+000
 4.774443987759110e-001	 1.553277774914866e+000	 4.830144841584891e+000
 4.622914233778161e-001	 1.557854819885305e+000	 4.705517439909376e+000
 4.471320991254359e-001	 1.562273307043531e+000	 4.597089229119703e+000
 6.073562707660272e-001	 1.534150696731373e+000	 6.664508599877896e+000
 5.921091660817187e-001	 1.540099586186401e+000	 6.333085513339337e+000
 5.768360247602784e-001	 1.545884924720079e+000	 6.035355961102119e+000
 5.615393530503365e-001	 1.551506865895716e+000	 5.769093110213789e+000
 5.462216429353760e-001	 1.556965611932881e+000	 5.532133483092915e+000
 5.308853710205784e-001	 1.562261413078743e+000	 5.322379957931509e+000
 5.155329974459445e-001	 1.567394566951083e+000	 5.137804548126758e+000
 5.001669648264401e-001	 1.572365417854128e+000	 4.976450959246944e+000
 4.847896972198679e-001	 1.577174356068340e+000	 4.836436922700327e+000
 4.694035991231121e-001	 1.581821817115343e+000	 4.715956305924962e+000
 4.540110544973472e-001	 1.586308280999167e+000	 4.613280999553660e+000
 6.165586385068961e-001	 1.557395404258538e+000	 6.642597529664363e+000
 6.010805170851529e-001	 1.563434428402422e+000	 6.304163841887323e+000
 5.855759645317007e-001	 1.569307423580675e+000	 6.001653162524383e+000
 5.700475250686339e-001	 1.575014545683324e+000	 5.732726047730760e+000
 5.544977284367619e-001	 1.580555999993871e+000	 5.495107974513927e+000
 5.389290887655879e-001	 1.585932040551108e+000	 5.286592516081231e+000
 5.233441034699612e-001	 1.591142969482178e+000	 5.105044287264969e+000
 5.077452521741660e-001	 1.596189136308038e+000	 4.948401658372388e+000
 4.921349956641541e-001	 1.601070937222489e+000	 4.814679236500968e+000
 4.765157748685812e-001	 1.605788814345970e+000	 4.701970114041166e+000
 4.608900098692462e-001	 1.610343254955298e+000	 4.608447884751986e+000
 6.257610062482705e-001	 1.580640111786703e+000	 6.554371636036622e+000
 6.100518680891768e-001	 1.586769270619437e+000	 6.214877124025795e+000
 5.943159043037662e-001	 1.592729922442250e+000	 5.912686714884336e+000
 5.785556970875977e-001	 1.598522225471885e+000	 5.646005000064291e+000
 5.627738139388071e-001	 1.604146388055779e+000	 5.412441231697907e+000
 5.469728065112188e-001	 1.609602668024345e+000	 5.209674764703697e+000
 5.311552094945315e-001	 1.614891372014088e+000	 5.035458171693714e+000
 5.153235395223481e-001	 1.620012854762696e+000	 4.887620116688943e+000
 4.994802941087695e-001	 1.624967518377312e+000	 4.764067986560408e+000
 4.836279506142232e-001	 1.629755811577185e+000	 4.662790279825417e+000
 4.677689652411324e-001	 1.634378228911922e+000	 4.581858753121066e+000
 6.349633739901497e-001	 1.603884819315868e+000	 6.393975986200808e+000
 6.190232190937902e-001	 1.610104112837447e+000	 6.064185963259368e+000
 6.030558440764752e-001	 1.616152421304804e+000	 5.767439280000493e+000
 5.870638691072279e-001	 1.622029905261401e+000	 5.507937266220585e+000
 5.710498994415113e-001	 1.627736776118604e+000	 5.283167678677702e+000
 5.550165242574712e-001	 1.633273295498454e+000	 5.090690650492623e+000
 5.389663155196559e-001	 1.638639774546815e+000	 4.928141979132795e+000
 5.229018268709867e-001	 1.643836573218105e+000	 4.793236163076757e+000
 5.068255925537144e-001	 1.648864099532809e+000	 4.683769185958245e+000
 4.907401263600380e-001	 1.653722808808989e+000	 4.597621047727210e+000
 4.746479206130062e-001	 1.658413202869040e+000	 4.532758043095090e+000
 6.441657417325339e-001	 1.627129526846032e+000	 6.171058535724631e+000
 6.279945700989932e-001	 1.633438955056451e+000	 5.850142166525118e+000
 6.117957838498271e-001	 1.639574920168338e+000	 5.564843210615455e+000
 5.955720411275246e-001	 1.645537585051869e+000	 5.317484198886073e+000
 5.793259849448744e-001	 1.651327164182347e+000	 5.106279895787642e+000
 5.630602420043449e-001	 1.656943922973434e+000	 4.928666118837881e+000
 5.467774215453342e-001	 1.662388177080358e+000	 4.782157068233107e+000
 5.304801142200817e-001	 1.667660291674265e+000	 4.664348529646524e+000
 5.141708909989884e-001	 1.672760680688981e+000	 4.572920813743947e+000
 4.978523021060256e-001	 1.677689806041381e+000	 4.505641431872171e+000
 4.815268759848673e-001	 1.682448176826651e+000	 4.460367508134185e+000
 4.127373222656903e-001	 1.442098437272754e+000	 4.224380091432414e+000
 3.987403871052226e-001	 1.446031155840163e+000	 4.069633952974203e+000
 3.847418665210725e-001	 1.449818504541092e+000	 3.928174722799224e+000
 3.707438666974943e-001	 1.453461036720863e+000	 3.798940172816974e+000
 3.567484718777406e-001	 1.456959343210722e+000	 3.680932059576446e+000
 3.427577436160288e-001	 1.460314051546808e+000	 3.573216616390542e+000
 3.287737200581075e-001	 1.463525825174173e+000	 3.474924888947925e+000
 3.147984152506359e-001	 1.466595362636951e+000	 3.385252917811057e+000
 3.008338184795505e-001	 1.469523396755786e+000	 3.303461771523889e+000
 2.868818936375482e-001	 1.472310693793589e+000	 3.228877434354669e+000
 2.729445786207708e-001	 1.474958052610726e+000	 3.160890552982617e+000
 4.196162776376646e-001	 1.466133411225922e+000	 4.335728740295969e+000
 4.053860602251623e-001	 1.470131675103331e+000	 4.172721443430160e+000
 3.911542309650638e-001	 1.473982146283010e+000	 4.023515819072174e+000
 3.769229311446954e-001	 1.477685387332699e+000	 3.886990906247128e+000
 3.626942797446991e-001	 1.481241998930835e+000	 3.762092504361142e+000
 3.484703726785304e-001	 1.484652619072495e+000	 3.647833709879937e+000
 3.342532820610353e-001	 1.487917922260149e+000	 3.543295288818372e+000
 3.200450555063187e-001	 1.491038618680334e+000	 3.447625888570708e+000
 3.058477154550844e-001	 1.494015453367372e+000	 3.360042092953612e+000
 2.916632585315760e-001	 1.496849205355224e+000	 3.279828324652109e+000
 2.774936549302054e-001	 1.499540686818598e+000	 3.206336599555411e+000
 4.264952330096262e-001	 1.490168385179584e+000	 4.429268099416899e+000
 4.120317333449102e-001	 1.494232194366904e+000	 4.260969198373471e+000
 3.975665954087251e-001	 1.498145788025262e+000	 4.106808791328707e+000
 3.831019955914699e-001	 1.501909737944822e+000	 3.965604461465868e+000
 3.686400876111745e-001	 1.505524654651208e+000	 3.836243568361949e+000
 3.541830017405329e-001	 1.508991186598434e+000	 3.717683828884369e+000
 3.397328440634880e-001	 1.512310019346387e+000	 3.608953725830460e+000
 3.252916957615902e-001	 1.515481874724011e+000	 3.509152747980915e+000
 3.108616124303101e-001	 1.518507509979303e+000	 3.417451465597254e+000
 2.964446234254375e-001	 1.521387716917276e+000	 3.333091445730311e+000
 2.820427312396547e-001	 1.524123321026976e+000	 3.255385012018059e+000
 4.333741883815754e-001	 1.514203359133739e+000	 4.504421775737947e+000
 4.186774064644662e-001	 1.518332713630881e+000	 4.333827173431753e+000
 4.039789598520567e-001	 1.522309429767849e+000	 4.177530529206837e+000
 3.892810600378176e-001	 1.526134088557231e+000	 4.034285183905093e+000
 3.745858954771669e-001	 1.529807310371839e+000	 3.902917513158628e+000
 3.598956308020363e-001	 1.533329754124623e+000	 3.782327552208945e+000
 3.452124060654657e-001	 1.536702116432889e+000	 3.671489440002648e+000
 3.305383360164506e-001	 1.539925130767982e+000	 3.569451686387025e+000
 3.158755094052277e-001	 1.542999566591581e+000	 3.475337266605057e+000
 3.012259883191330e-001	 1.545926228479745e+000	 3.388343547644983e+000
 2.865918075491187e-001	 1.548705955235862e+000	 3.307742051325948e+000
 4.402531437535119e-001	 1.538238333088388e+000	 4.560577366479798e+000
 4.253230795838304e-001	 1.542433232895262e+000	 4.390712799604433e+000
 4.103913242950587e-001	 1.546473071510771e+000	 4.235128677965212e+000
 3.954601244837385e-001	 1.550358439169927e+000	 4.092511250191016e+000
 3.805317033426760e-001	 1.554089966092728e+000	 3.961623302714054e+000
 3.656082598630407e-001	 1.557668321651062e+000	 3.841304828251901e+000
 3.506919680669683e-001	 1.561094213519653e+000	 3.730473504698091e+000
 3.357849762708995e-001	 1.564368386812248e+000	 3.628124988405067e+000
 3.208894063798372e-001	 1.567491623204204e+000	 3.533333026241214e+000
 3.060073532126624e-001	 1.570464740042631e+000	 3.445249391175997e+000
 2.911408838585973e-001	 1.573288589445256e+000	 3.363103646491005e+000
 4.471320991254359e-001	 1.562273307043531e+000	 4.597089229119703e+000
 4.319687527030028e-001	 1.566533752160047e+000	 4.431013485157709e+000
 4.168036887377308e-001	 1.570636713254029e+000	 4.279023888050542e+000
 4.016391889292326e-001	 1.574582789782909e+000	 4.139736681129125e+000
 3.864775112077022e-001	 1.578372621813877e+000	 4.011848395498308e+000
 3.713208889235461e-001	 1.582006889177752e+000	 3.894136561958636e+000
 3.561715300679961e-001	 1.585486310606679e+000	 3.785460224059510e+000
 3.410316165249372e-001	 1.588811642856808e+000	 3.684760256439385e+000
 3.259033033541383e-001	 1.591983679817173e+000	 3.591059493028624e+000
 3.107887181060257e-001	 1.595003251605934e+000	 3.503462670079074e+000
 2.956899601680905e-001	 1.597871223655156e+000	 3.421156189346493e+000
 4.540110544973472e-001	 1.586308280999167e+000	 4.613280999553660e+000
 4.386144258219834e-001	 1.590634271425237e+000	 4.454088890073730e+000
 4.232160531800732e-001	 1.594800354997621e+000	 4.308611860159369e+000
 4.078182533742999e-001	 1.598807140396178e+000	 4.175393171690662e+000
 3.924233190722452e-001	 1.602655277535282e+000	 4.053060373692906e+000
 3.770335179835524e-001	 1.606345456704692e+000	 3.940326057507851e+000
 3.616510920685486e-001	 1.609878407693968e+000	 3.835988403404743e+000
 3.462782567785636e-001	 1.613254898901663e+000	 3.738931522971394e+000
 3.309172003281313e-001	 1.616475736430489e+000	 3.648125602062999e+000
 3.155700829992229e-001	 1.619541763169653e+000	 3.562626849496959e+000
 3.002390364775985e-001	 1.622453857865564e+000	 3.481577257060803e+000
 4.608900098692462e-001	 1.610343254955298e+000	 4.608447884751986e+000
 4.452600989407723e-001	 1.614734790690830e+000	 4.459272996818170e+000
 4.296284176220858e-001	 1.618963996741549e+000	 4.323265207159423e+000
 4.139973178189405e-001	 1.623031491009734e+000	 4.198891757119664e+000
 3.983691269363052e-001	 1.626937933256947e+000	 4.084708426496057e+000
 3.827461470430595e-001	 1.630684024231883e+000	 3.979360331801452e+000
 3.671306540686263e-001	 1.634270504781519e+000	 3.881582505855651e+000
 3.515248970317787e-001	 1.637698154946812e+000	 3.790200263240536e+000
 3.359310973018162e-001	 1.640967793044150e+000	 3.704129356611633e+000
 3.203514478922541e-001	 1.644080274733791e+000	 3.622375929288892e+000
 3.047881127871212e-001	 1.647036492076480e+000	 3.544036269947887e+000
 4.677689652411324e-001	 1.634378228911922e+000	 4.581858753121066e+000
 4.519057720593694e-001	 1.638835309956827e+000	 4.445875998392906e+000
 4.360407820637686e-001	 1.643127638485812e+000	 4.322335151724343e+000
 4.201763822631544e-001	 1.647255841623576e+000	 4.209624332030442e+000
 4.043149347998820e-001	 1.651220588978870e+000	 4.106224702547582e+000
 3.884587761020676e-001	 1.655022591759324e+000	 4.010711312058357e+000
 3.726102160682288e-001	 1.658662601869332e+000	 3.921753706911043e+000
 3.567715372845826e-001	 1.662141410992255e+000	 3.838116318570815e+000
 3.409449942751927e-001	 1.665459849658157e+000	 3.758658631924647e+000
 3.251328127851191e-001	 1.668618786298344e+000	 3.682335140007032e+000
 3.093371890966585e-001	 1.671619126287902e+000	 3.608195091236387e+000
 4.746479206130062e-001	 1.658413202869040e+000	 4.532758043095090e+000
 4.585514451777746e-001	 1.662935829223229e+000	 4.413186022210053e+000
 4.424531465051217e-001	 1.667291280230410e+000	 4.305153076347521e+000
 4.263554467069414e-001	 1.671480192237705e+000	 4.206965037410117e+000
 4.102607426629757e-001	 1.675503244701052e+000	 4.117025544752281e+000
 3.941714051605766e-001	 1.679361159287015e+000	 4.033836929270117e+000
 3.780897780673564e-001	 1.683054698957408e+000	 3.956000857318093e+000
 3.620181775369751e-001	 1.686584667037993e+000	 3.882218739408306e+000
 3.459588912482612e-001	 1.689951906272510e+000	 3.811291909149045e+000
 3.299141776778181e-001	 1.693157297863315e+000	 3.742121578353646e+000
 3.138862654062104e-001	 1.696201760499832e+000	 3.673708574684255e+000
 4.815268759848673e-001	 1.682448176826651e+000	 4.460367508134185e+000
 4.651971182959880e-001	 1.687036348490034e+000	 4.360470706205414e+000
 4.488655109461449e-001	 1.691454921975343e+000	 4.271031940497911e+000
 4.325345111503017e-001	 1.695704542852121e+000	 4.190271528734201e+000
 4.162065505255864e-001	 1.699785900423492e+000	 4.116512619260967e+000
 3.998840342185866e-001	 1.703699726814957e+000	 4.048182117931268e+000
 3.835693400660090e-001	 1.707446796045747e+000	 3.983811363412234e+000
 3.672648177889564e-001	 1.711027923084024e+000	 3.922036556097896e+000
 3.509727882210215e-001	 1.714443962887209e+000	 3.861598946336204e+000
 3.346955425703510e-001	 1.717695809428702e+000	 3.801344788170504e+000
 3.184353417157770e-001	 1.720784394712270e+000	 3.740225065255314e+000
 2.729445786207708e-001	 1.474958052610726e+000	 3.160890552982617e+000
 2.590237847553507e-001	 1.477466303810354e+000	 3.039257569542443e+000
 2.451213962520330e-001	 1.479836308875993e+000	 2.925617673974542e+000
 2.312392696899343e-001	 1.482068959301720e+000	 2.819524645082718e+000
 2.173792335306681e-001	 1.484165175715300e+000	 2.720593894247127e+000
 2.035430876609109e-001	 1.486125906996327e+000	 2.628501616364737e+000
 1.897326029638495e-001	 1.487952129390019e+000	 2.542983830028122e+000
 1.759495209193236e-001	 1.489644845617649e+000	 2.463835312536646e+000
 1.621955532324464e-001	 1.491205083984588e+000	 2.390908435433651e+000
 1.484723814904554e-001	 1.492633897486894e+000	 2.324111906346416e+000
 1.347816568475081e-001	 1.493932362917365e+000	 2.263409422964517e+000
 2.774936549302054e-001	 1.499540686818598e+000	 3.206336599555411e+000
 2.633408478327074e-001	 1.502090742204176e+000	 3.080249188987134e+000
 2.492067528535041e-001	 1.504500247353678e+000	 2.964566680432774e+000
 2.350932575146957e-001	 1.506770108619411e+000	 2.858810683380141e+000
 2.210022207522548e-001	 1.508901261972938e+000	 2.762565314114854e+000
 2.069354724509679e-001	 1.510894672108512e+000	 2.675476366628010e+000
 1.928948130087401e-001	 1.512751331542102e+000	 2.597250368411006e+000
 1.788820129300737e-001	 1.514472259707000e+000	 2.527653526879751e+000
 1.648988124484991e-001	 1.516058502047001e+000	 2.466510572278970e+000
 1.509469211777063e-001	 1.517511129108093e+000	 2.413703503007914e+000
 1.370280177910873e-001	 1.518831235629623e+000	 2.369170239370192e+000
 2.820427312396547e-001	 1.524123321026976e+000	 3.255385012018059e+000
 2.676579109102633e-001	 1.526715180598594e+000	 3.127199259082575e+000
 2.532921094553274e-001	 1.529164185832027e+000	 3.011556135064650e+000
 2.389472453399318e-001	 1.531471257937816e+000	 2.907944928625834e+000
 2.246252079744082e-001	 1.533637348231319e+000	 2.815918572101958e+000
 2.103278572416531e-001	 1.535663437221448e+000	 2.735092827701571e+000
 1.960570230542905e-001	 1.537550533694922e+000	 2.665145353947953e+000
 1.818145049414855e-001	 1.539299673797057e+000	 2.605814658274267e+000
 1.676020716651859e-001	 1.540911920110067e+000	 2.556898941797797e+000
 1.534214608655345e-001	 1.542388360729875e+000	 2.518254842391702e+000
 1.392743787351581e-001	 1.543730108342372e+000	 2.489796082246160e+000
 2.865918075491187e-001	 1.548705955235862e+000	 3.307742051325948e+000
 2.719749739880180e-001	 1.551339618993610e+000	 3.179783652155460e+000
 2.573774660575030e-001	 1.553828124311042e+000	 3.066235361014805e+000
 2.428012331656426e-001	 1.556172407256935e+000	 2.966553942086623e+000
 2.282481951971282e-001	 1.558373434490442e+000	 2.880261203038672e+000
 2.137202420329666e-001	 1.560432202335132e+000	 2.806943191871347e+000
 1.992192331005008e-001	 1.562349735848480e+000	 2.746249269072559e+000
 1.847469969535590e-001	 1.564127087887819e+000	 2.697891061173380e+000
 1.703053308825067e-001	 1.565765338173787e+000	 2.661641301920640e+000
 1.558960005539401e-001	 1.567265592352239e+000	 2.637332567383274e+000
 1.415207396797206e-001	 1.568628981055612e+000	 2.624855911384494e+000
 2.911408838585973e-001	 1.573288589445256e+000	 3.363103646491005e+000
 2.762920370659718e-001	 1.575964057389222e+000	 3.237673116182669e+000
 2.614628226600309e-001	 1.578492062790723e+000	 3.128253329682770e+000
 2.466552209918282e-001	 1.580873556576769e+000	 3.034268272835802e+000
 2.318711824204148e-001	 1.583109520750306e+000	 2.955208638214622e+000
 2.171126268249082e-001	 1.585200967449566e+000	 2.890631028006585e+000
 2.023814431473708e-001	 1.587148938002775e+000	 2.840157026974647e+000
 1.876794889662942e-001	 1.588954501979286e+000	 2.803472151787687e+000
 1.730085901004617e-001	 1.590618756238160e+000	 2.780324683143682e+000
 1.583705402429229e-001	 1.592142823975185e+000	 2.770524387215960e+000
 1.437671006247749e-001	 1.593527853769345e+000	 2.773941133035453e+000
 2.956899601680905e-001	 1.597871223655156e+000	 3.421156189346493e+000
 2.806091001441247e-001	 1.600588495785431e+000	 3.300533668971678e+000
 2.655481792629111e-001	 1.603156001271070e+000	 3.197258687780296e+000
 2.505092088184885e-001	 1.605574705897316e+000	 3.110722150998781e+000
 2.354941696442679e-001	 1.607845607010913e+000	 3.040383597959051e+000
 2.205050116174781e-001	 1.609969732564750e+000	 2.985770406438026e+000
 2.055436531949007e-001	 1.611948140157806e+000	 2.946476861541363e+000
 1.906119809796910e-001	 1.613781916071458e+000	 2.922163095642217e+000
 1.757118493190508e-001	 1.615472174303186e+000	 2.912553906023056e+000
 1.608450799324832e-001	 1.617020055598714e+000	 2.917437456982628e+000
 1.460134615703208e-001	 1.618426726483569e+000	 2.936663873256836e+000
 3.002390364775985e-001	 1.622453857865564e+000	 3.481577257060803e+000
 2.849261632224765e-001	 1.625212934182237e+000	 3.368026956507238e+000
 2.696335358661434e-001	 1.627819939752082e+000	 3.272899781928892e+000
 2.543631966456235e-001	 1.630275855218577e+000	 3.195553208885364e+000
 2.391171568686878e-001	 1.632581693272261e+000	 3.135415539440697e+000
 2.238973964106763e-001	 1.634738497680683e+000	 3.091985103392816e+000
 2.087058632430904e-001	 1.636747342313575e+000	 3.064829318214051e+000
 1.935444729937496e-001	 1.638609330164335e+000	 3.053583614446711e+000
 1.784151085382740e-001	 1.640325592368866e+000	 3.057950233443569e+000
 1.633196196226208e-001	 1.641897287222824e+000	 3.077696904464689e+000
 1.482598225163585e-001	 1.643325599198285e+000	 3.112655408231760e+000
 3.047881127871212e-001	 1.647036492076480e+000	 3.544036269947887e+000
 2.892432263010272e-001	 1.649837372579640e+000	 3.439810579206470e+000
 2.737188924697281e-001	 1.652483878233760e+000	 3.354824681054760e+000
 2.582171844732333e-001	 1.654977004540552e+000	 3.288402227095461e+000
 2.427401440936743e-001	 1.657317779534351e+000	 3.239940153918399e+000
 2.272897812045027e-001	 1.659507262797366e+000	 3.208907876673572e+000
 2.118680732919400e-001	 1.661546544470082e+000	 3.194846335215237e+000
 1.964769650084698e-001	 1.663436744257918e+000	 3.197366899813065e+000
 1.811183677581314e-001	 1.665179010435199e+000	 3.216150143579030e+000
 1.657941593133357e-001	 1.666774518847517e+000	 3.250944488886399e+000
 1.505061834628878e-001	 1.668224471913492e+000	 3.301564735154631e+000
 3.093371890966585e-001	 1.671619126287902e+000	 3.608195091236387e+000
 2.935602893797771e-001	 1.674461810977640e+000	 3.515538389387083e+000
 2.778042490736651e-001	 1.677147816716104e+000	 3.442681196807404e+000
 2.620711723013177e-001	 1.679678153863241e+000	 3.388912903027094e+000
 2.463631313192274e-001	 1.682053865797183e+000	 3.353598908352609e+000
 2.306821659989573e-001	 1.684276027914798e+000	 3.336179805248771e+000
 2.150302833414495e-001	 1.686345746627326e+000	 3.336170405844005e+000
 1.994094570238518e-001	 1.688264158352205e+000	 3.353158622821192e+000
 1.838216269786228e-001	 1.690032428502185e+000	 3.386804211120850e+000
 1.682686990046280e-001	 1.691651750472792e+000	 3.436837378014995e+000
 1.527525444099089e-001	 1.693123344629191e+000	 3.503057269215795e+000
 3.138862654062104e-001	 1.696201760499832e+000	 3.673708574684255e+000
 2.978773524587259e-001	 1.699086249376236e+000	 3.594860762868918e+000
 2.818896056779544e-001	 1.701811755199113e+000	 3.536116902203018e+000
 2.659251601298770e-001	 1.704379303186644e+000	 3.496731639514411e+000
 2.499861185453471e-001	 1.706789952060757e+000	 3.476038626875567e+000
 2.340745507940402e-001	 1.709044793032979e+000	 3.473449686269190e+000
 2.181924933916187e-001	 1.711144948785307e+000	 3.488453813615565e+000
 2.023419490398955e-001	 1.713091572447198e+000	 3.520616029710104e+000
 1.865248861997483e-001	 1.714885846569825e+000	 3.569576085791493e+000
 1.707432386964976e-001	 1.716528982098648e+000	 3.635047031599327e+000
 1.549989053574216e-001	 1.718022217345382e+000	 3.716813653891650e+000
 3.184353417157770e-001	 1.720784394712270e+000	 3.740225065255314e+000
 3.021944155378737e-001	 1.723710687775430e+000	 3.677424847295157e+000
 2.859749622825958e-001	 1.726475693682788e+000	 3.634779148669498e+000
 2.697791479589108e-001	 1.729080452510761e+000	 3.611507351581779e+000
 2.536091057720334e-001	 1.731526038325072e+000	 3.606911108136713e+000
 2.374669355897513e-001	 1.733813558151911e+000	 3.620373483769712e+000
 2.213547034424477e-001	 1.735944150944025e+000	 3.651357932960033e+000
 2.052744410566008e-001	 1.737918986542895e+000	 3.699407115080450e+000
 1.892281454215078e-001	 1.739739264638117e+000	 3.764141558413620e+000
 1.732177783889445e-001	 1.741406213725087e+000	 3.845258180514216e+000
 1.572452663054261e-001	 1.742921090062064e+000	 3.942528673209769e+000
 1.347816568475081e-001	 1.493932362917365e+000	 2.263409422964517e+000
 1.211249997365069e-001	 1.495101579972037e+000	 2.167872355147380e+000
 1.075039996094458e-001	 1.496142670357773e+000	 2.074686226382325e+000
 9.392021470467503e-002	 1.497056776901965e+000	 1.983948564290610e+000
 8.037517183948716e-002	 1.497845062665274e+000	 1.895809981216556e+000
 6.687036622943404e-002	 1.498508710058030e+000	 1.810472395590017e+000
 5.340726133332937e-002	 1.499048919961125e+000	 1.728187197804777e+000
 3.998728872347066e-002	 1.499466910852138e+000	 1.649253366555211e+000
 2.661184798060209e-002	 1.499763917937434e+000	 1.574015541488109e+000
 1.328230661311983e-002	 1.499941192290897e+000	 1.502862057932862e+000
 0.000000000000000e+000	 1.500000000000000e+000	 1.436222949361764e+000
 1.370280177910873e-001	 1.518831235629623e+000	 2.369170239370192e+000
 1.231437497286795e-001	 1.520019939635790e+000	 2.287392181273178e+000
 1.092957329332651e-001	 1.521078381528475e+000	 2.209756060894832e+000
 9.548555161383344e-002	 1.522007723182194e+000	 2.136351451174352e+000
 8.171475803463187e-002	 1.522809147041951e+000	 2.067321934427481e+000
 6.798487233147164e-002	 1.523483855224919e+000	 2.002863292605499e+000
 5.429738235414672e-002	 1.524033068626668e+000	 1.943221639791013e+000
 4.065374353449300e-002	 1.524458026032741e+000	 1.888691503067791e+000
 2.705537877960047e-002	 1.524759983236272e+000	 1.839613857816611e+000
 1.350367838967197e-002	 1.524940212162383e+000	 1.796374123391731e+000
 0.000000000000000e+000	 1.525000000000000e+000	 1.759400125019240e+000
 1.392743787351581e-001	 1.543730108342372e+000	 2.489796082246160e+000
 1.251624997212492e-001	 1.544938299299939e+000	 2.422186844323718e+000
 1.110874662573970e-001	 1.546014092699489e+000	 2.360255127057152e+000
 9.705088852323032e-002	 1.546958669462661e+000	 2.304084388682994e+000
 8.305434422995120e-002	 1.547773231418804e+000	 2.253813227723073e+000
 6.909937843363008e-002	 1.548459000391928e+000	 2.209633535588769e+000
 5.518750337504116e-002	 1.549017217292289e+000	 2.171788589011880e+000
 4.132019834555854e-002	 1.549449141213387e+000	 2.140571088649822e+000
 2.749890957861798e-002	 1.549756048535131e+000	 2.116321150128957e+000
 1.372505016622889e-002	 1.549939232033873e+000	 2.099424253685202e+000
 0.000000000000000e+000	 1.550000000000000e+000	 2.090309158449786e+000
 1.415207396797206e-001	 1.568628981055612e+000	 2.624855911384494e+000
 1.271812497142158e-001	 1.569856658964486e+000	 2.571794292028819e+000
 1.128791995818416e-001	 1.570949803870817e+000	 2.525693267017282e+000
 9.861622543286573e-002	 1.571909615743366e+000	 2.486631990541591e+000
 8.439393042544517e-002	 1.572737315795831e+000	 2.454746094697095e+000
 7.021388453590939e-002	 1.573434145559059e+000	 2.430225797878403e+000
 5.607762439601265e-002	 1.574001365957986e+000	 2.413313950459117e+000
 4.198665315666728e-002	 1.574440256394075e+000	 2.404304024330908e+000
 2.794244037765462e-002	 1.574752113834009e+000	 2.403538052788724e+000
 1.394642194279057e-002	 1.574938251905368e+000	 2.411404527146972e+000
 0.000000000000000e+000	 1.575000000000000e+000	 2.428336256351977e+000
 1.437671006247749e-001	 1.593527853769345e+000	 2.773941133035453e+000
 1.291999997075793e-001	 1.594775018629429e+000	 2.735778183038502e+000
 1.146709329065987e-001	 1.595885515042456e+000	 2.705608918611081e+000
 1.001815623427396e-001	 1.596860562024310e+000	 2.683509973937604e+000
 8.573351662111377e-002	 1.597701400173032e+000	 2.669616006051443e+000
 7.132839063830955e-002	 1.598409290726310e+000	 2.664117752462090e+000
 5.696774541706121e-002	 1.598985514623761e+000	 2.667260023388977e+000
 4.265310796781922e-002	 1.599431371574808e+000	 2.679339635419298e+000
 2.838597117671039e-002	 1.599748179132905e+000	 2.700703293320142e+000
 1.416779371935701e-002	 1.599937271776868e+000	 2.731745426626591e+000
 0.000000000000000e+000	 1.600000000000000e+000	 2.772905987505661e+000
 1.460134615703208e-001	 1.618426726483569e+000	 2.936663873256836e+000
 1.312187497013398e-001	 1.619693378294770e+000	 2.913725909159965e+000
 1.164626662316684e-001	 1.620821226214409e+000	 2.899566915694398e+000
 1.017468992528521e-001	 1.621811508305493e+000	 2.894262766946611e+000
 8.707310281695702e-002	 1.622665484550409e+000	 2.897949112895272e+000
 7.244289674083054e-002	 1.623384435893682e+000	 2.910819379696810e+000
 5.785786643818686e-002	 1.623969663289613e+000	 2.933122701763515e+000
 4.331956277901437e-002	 1.624422486755583e+000	 2.965161792711323e+000
 2.882950197578529e-002	 1.624744244431821e+000	 3.007290762165027e+000
 1.438916549592822e-002	 1.624936291648372e+000	 3.059912885295995e+000
 0.000000000000000e+000	 1.625000000000000e+000	 3.123478331842718e+000
 1.482598225163585e-001	 1.643325599198285e+000	 3.112655408231760e+000
 1.332374996954973e-001	 1.644611737960508e+000	 3.105246797391009e+000
 1.182543995570507e-001	 1.645756937386673e+000	 3.107156488444285e+000
 1.033122361632030e-001	 1.646762454586915e+000	 3.118461333465382e+000
 8.841268901297489e-002	 1.647629568927960e+000	 3.139299922472106e+000
 7.355740284347240e-002	 1.648359581061175e+000	 3.169870519780206e+000
 5.874798745938958e-002	 1.648953811955542e+000	 3.210428929196793e+000
 4.398601759025272e-002	 1.649413601936402e+000	 3.261286295408922e+000
 2.927303277487933e-002	 1.649740309730756e+000	 3.322806848825409e+000
 1.461053727250419e-002	 1.649935311519882e+000	 3.395405601018992e+000
 0.000000000000000e+000	 1.650000000000000e+000	 3.479545997783901e+000
 1.505061834628878e-001	 1.668224471913492e+000	 3.301564735154631e+000
 1.352562496900517e-001	 1.669530097626642e+000	 3.309970472965812e+000
 1.200461328827456e-001	 1.670692648559252e+000	 3.327989442738081e+000
 1.048775730737925e-001	 1.671713400868574e+000	 3.355701192926349e+000
 8.975227520916734e-002	 1.672593653305685e+000	 3.393249182030258e+000
 7.467190894623507e-002	 1.673334726228788e+000	 3.440838644404469e+000
 5.963810848066937e-002	 1.673937960621547e+000	 3.498734381817150e+000
 4.465247240153425e-002	 1.674404717117263e+000	 3.567258488402920e+000
 2.971656357399250e-002	 1.674736375029710e+000	 3.646788016560494e+000
 1.483190904908494e-002	 1.674934331391396e+000	 3.737752591225091e+000
 0.000000000000000e+000	 1.675000000000000e+000	 3.840631979814341e+000
 1.527525444099089e-001	 1.693123344629191e+000	 3.503057269215795e+000
 1.372749996850031e-001	 1.694448457293173e+000	 3.527545366837095e+000
 1.218378662087531e-001	 1.695628359732141e+000	 3.561698500175478e+000
 1.064429099846205e-001	 1.696664347150472e+000	 3.605600614743957e+000
 9.109186140553449e-002	 1.697557737683585e+000	 3.659401949410695e+000
 7.578641504911862e-002	 1.698309871396523e+000	 3.723316825029064e+000
 6.052822950202623e-002	 1.698922109287630e+000	 3.797621355581954e+000
 4.531892721285900e-002	 1.699395832298168e+000	 3.882651089795820e+000
 3.016009437312479e-002	 1.699732440328683e+000	 3.978798591080906e+000
 1.505328082567045e-002	 1.699933351262915e+000	 4.086510963529478e+000
 0.000000000000000e+000	 1.700000000000000e+000	 4.206287331567098e+000
 1.549989053574216e-001	 1.718022217345382e+000	 3.716813653891650e+000
 1.392937496803514e-001	 1.719366816960102e+000	 3.757637352943600e+000
 1.236295995350731e-001	 1.720564070905344e+000	 3.807935782446655e+000
 1.080082468956869e-001	 1.721615293432609e+000	 3.867798969764909e+000
 9.243144760207625e-002	 1.722521822061660e+000	 3.937385831409862e+000
 7.690092115212303e-002	 1.723285016564378e+000	 4.016921877824777e+000
 6.141835052346017e-002	 1.723906257953791e+000	 4.106696837304720e+000
 4.598538202422694e-002	 1.724386947479117e+000	 4.207062207335763e+000
 3.060362517227623e-002	 1.724728505627676e+000	 4.318428741530709e+000
 1.527465260226072e-002	 1.724932371134438e+000	 4.441263880212534e+000
 0.000000000000000e+000	 1.725000000000000e+000	 4.576089132551559e+000
 1.572452663054261e-001	 1.742921090062064e+000	 3.942528673209769e+000
 1.413124996760967e-001	 1.744285176627427e+000	 3.999928502281636e+000
 1.254213328617058e-001	 1.745499782078859e+000	 4.066371425611304e+000
 1.095735838069919e-001	 1.746566239714984e+000	 4.141955223023150e+000
 9.377103379879261e-002	 1.747485906439909e+000	 4.226849373140204e+000
 7.801542725524828e-002	 1.748260161732354e+000	 4.321292667623101e+000
 6.230847154497118e-002	 1.748890406620027e+000	 4.425590741022398e+000
 4.665183683563808e-002	 1.749378062660108e+000	 4.540113524870352e+000
 3.104715597144679e-002	 1.749724570926687e+000	 4.665292634527730e+000
 1.549602437885576e-002	 1.749931391005967e+000	 4.801618697172214e+000
 0.000000000000000e+000	 1.750000000000000e+000	 4.949638629162212e+000
 1.750000000000000e+000	 0.000000000000000e+000	 1.291435108447240e+001
 1.749931391005967e+000	 1.549602437885581e-002	 1.302173661891756e+001
 1.749724570926687e+000	 3.104715597144690e-002	 1.311280448193371e+001
 1.749378062660108e+000	 4.665183683563796e-002	 1.318777162732746e+001
 1.748890406620027e+000	 6.230847154497113e-002	 1.324685674936059e+001
 1.748260161732354e+000	 7.801542725524827e-002	 1.329027920987901e+001
 1.747485906439909e+000	 9.377103379879266e-002	 1.331825792889580e+001
 1.746566239714984e+000	 1.095735838069920e-001	 1.333101024028836e+001
 1.745499782078859e+000	 1.254213328617057e-001	 1.332875071443718e+001
 1.744285176627427e+000	 1.413124996760966e-001	 1.331168994980285e+001
 1.742921090062065e+000	 1.572452663054261e-001	 1.328003333560845e+001
 1.775000000000000e+000	 0.000000000000000e+000	 1.294061295180857e+001
 1.774930410877498e+000	 1.571739615545324e-002	 1.303483512230147e+001
 1.774720636225708e+000	 3.149068677062703e-002	 1.311262185810644e+001
 1.774369177841122e+000	 4.731829164707072e-002	 1.317423380254867e+001
 1.773874555286303e+000	 6.319859256652068e-002	 1.321993368322240e+001
 1.773235306900391e+000	 7.912993335843395e-002	 1.324998516835920e+001
 1.772449990818246e+000	 9.511061999559638e-002	 1.326465168413728e+001
 1.771517185997479e+000	 1.111389207184163e-001	 1.326419519467282e+001
 1.770435493252530e+000	 1.272130661884946e-001	 1.324887494661064e+001
 1.769203536294951e+000	 1.433312496720404e-001	 1.321894618041047e+001
 1.767819962778993e+000	 1.594916272536765e-001	 1.317465881060451e+001
 1.800000000000000e+000	 0.000000000000000e+000	 1.300128447780893e+001
 1.799929430749029e+000	 1.593876793205066e-002	 1.308065470672337e+001
 1.799716701524729e+000	 3.193421756980716e-002	 1.314349809945300e+001
 1.799360293022134e+000	 4.798474645850345e-002	 1.319012099078921e+001
 1.798858703952579e+000	 6.408871358807022e-002	 1.322083214505349e+001
 1.798210452068427e+000	 8.024443946161963e-002	 1.323594153887586e+001
 1.797414075196582e+000	 9.645020619240008e-002	 1.323575910232012e+001
 1.796468132279973e+000	 1.127042576298405e-001	 1.322059342018014e+001
 1.795371204426202e+000	 1.290047995152836e-001	 1.319075039545862e+001
 1.794121895962475e+000	 1.453499996679842e-001	 1.314653187722747e+001
 1.792718835495921e+000	 1.617379882019268e-001	 1.308823425525857e+001
 1.825000000000000e+000	 0.000000000000000e+000	 1.309670841162144e+001
 1.824928450620559e+000	 1.616013970864808e-002	 1.315945539260744e+001
 1.824712766823750e+000	 3.237774836898728e-002	 1.320561053122226e+001
 1.824351408203147e+000	 4.865120126993620e-002	 1.323552790253832e+001
 1.823842852618854e+000	 6.497883460961976e-002	 1.324956435837347e+001
 1.823185597236464e+000	 8.135894556480529e-002	 1.324807823360653e+001
 1.822378159574919e+000	 9.778979238920375e-002	 1.323142800816157e+001
 1.821419078562467e+000	 1.142695945412647e-001	 1.319997092657236e+001
 1.820306915599873e+000	 1.307965328420725e-001	 1.315406157723569e+001
 1.819040255629999e+000	 1.473687496639279e-001	 1.309405043365965e+001
 1.817617708212850e+000	 1.639843491501772e-001	 1.302028236021270e+001
 1.850000000000000e+000	 0.000000000000000e+000	 1.322720897541313e+001
 1.849927470492090e+000	 1.638151148524551e-002	 1.327147959749583e+001
 1.849708832122770e+000	 3.282127916816741e-002	 1.329911981897132e+001
 1.849342523384160e+000	 4.931765608136893e-002	 1.331053355072743e+001
 1.848827001285130e+000	 6.586895563116930e-002	 1.330612783006174e+001
 1.848160742404501e+000	 8.247345166799097e-002	 1.328631144761631e+001
 1.847342243953256e+000	 9.912937858600747e-002	 1.325149352721807e+001
 1.846370024844962e+000	 1.158349314526890e-001	 1.320208206062666e+001
 1.845242626773545e+000	 1.325882661688614e-001	 1.313848239939904e+001
 1.843958615297522e+000	 1.493874996598717e-001	 1.306109570628820e+001
 1.842516580929779e+000	 1.662307100984275e-001	 1.297031736880276e+001
 1.875000000000000e+000	 0.000000000000000e+000	 1.339309309950208e+001
 1.874926490363621e+000	 1.660288326184293e-002	 1.341695330957396e+001
 1.874704897421792e+000	 3.326480996734755e-002	 1.342417107921153e+001
 1.874333638565173e+000	 4.998411089280167e-002	 1.341520229723415e+001
 1.873811149951405e+000	 6.675907665271885e-002	 1.339050633146693e+001
 1.873135887572538e+000	 8.358795777117666e-002	 1.335054457333210e+001
 1.872306328331592e+000	 1.004689647828112e-001	 1.329577893249601e+001
 1.871320971127457e+000	 1.174002683641133e-001	 1.322667028366768e+001
 1.870178337947217e+000	 1.343799994956504e-001	 1.314367686786165e+001
 1.868876974965046e+000	 1.514062496558155e-001	 1.304725265065806e+001
 1.867415453646707e+000	 1.684770710466778e-001	 1.293784564021227e+001
 1.900000000000000e+000	 0.000000000000000e+000	 1.308414972775023e+001
 1.899925510235152e+000	 1.682425503844034e-002	 1.313261116797989e+001
 1.899700962720813e+000	 3.370834076652769e-002	 1.316566095951335e+001
 1.899324753746186e+000	 5.065056570423442e-002	 1.318303853549895e+001
 1.898795298617681e+000	 6.764919767426841e-002	 1.318451547073503e+001
 1.898111032740575e+000	 8.470246387436235e-002	 1.316989598708415e+001
 1.897270412709929e+000	 1.018085509796149e-001	 1.313901739771054e+001
 1.896271917409951e+000	 1.189656052755375e-001	 1.309175048737194e+001
 1.895114049120888e+000	 1.361717328224394e-001	 1.302799982608106e+001
 1.893795334632570e+000	 1.534249996517592e-001	 1.294770401355039e+001
 1.892314326363635e+000	 1.707234319949282e-001	 1.285083585194258e+001
 1.925000000000000e+000	 0.000000000000000e+000	 1.278144176173862e+001
 1.924924530106683e+000	 1.704562681503777e-002	 1.285262672512965e+001
 1.924697028019834e+000	 3.415187156570781e-002	 1.290744656138388e+001
 1.924315868927199e+000	 5.131702051566717e-002	 1.294565412807213e+001
 1.923779447283957e+000	 6.853931869581796e-002	 1.296703642956320e+001
 1.923086177908611e+000	 8.581696997754799e-002	 1.297141513502027e+001
 1.922234497088266e+000	 1.031481371764186e-001	 1.295864703171509e+001
 1.921222863692445e+000	 1.205309421869617e-001	 1.292862441076040e+001
 1.920049760294560e+000	 1.379634661492283e-001	 1.288127538245284e+001
 1.918713694300094e+000	 1.554437496477030e-001	 1.281656411851990e+001
 1.917213199080564e+000	 1.729697929431785e-001	 1.273449101868043e+001
 1.950000000000000e+000	 0.000000000000000e+000	 1.248523073534059e+001
 1.949923549978213e+000	 1.726699859163519e-002	 1.257852148578915e+001
 1.949693093318855e+000	 3.459540236488794e-002	 1.265446045759475e+001
 1.949306984108212e+000	 5.198347532709990e-002	 1.271281481522909e+001
 1.948763595950232e+000	 6.942943971736749e-002	 1.275338793860117e+001
 1.948061323076648e+000	 8.693147608073369e-002	 1.277601995371649e+001
 1.947198581466602e+000	 1.044877233732223e-001	 1.278058819503767e+001
 1.946173809974940e+000	 1.220962790983860e-001	 1.276700759651528e+001
 1.944985471468231e+000	 1.397551994760172e-001	 1.273523100835237e+001
 1.943632053967617e+000	 1.574624996436468e-001	 1.268524943667436e+001
 1.942112071797492e+000	 1.752161538914288e-001	 1.261709220339784e+001
 1.975000000000000e+000	 0.000000000000000e+000	 1.219576494020802e+001
 1.974922569849744e+000	 1.748837036823261e-002	 1.231047893693559e+001
 1.974689158617876e+000	 3.503893316406807e-002	 1.240682016344354e+001
 1.974298099289225e+000	 5.264993013853264e-002	 1.248457099870791e+001
 1.973747744616508e+000	 7.031956073891704e-002	 1.254355217071961e+001
 1.973036468244684e+000	 8.804598218391936e-002	 1.258362329988927e+001
 1.972162665844939e+000	 1.058273095700260e-001	 1.260468337042641e+001
 1.971124756257434e+000	 1.236616160098102e-001	 1.260667112652429e+001
 1.969921182641903e+000	 1.415469328028062e-001	 1.258956539028365e+001
 1.968550413635141e+000	 1.594812496395905e-001	 1.255338529842106e+001
 1.967010944514421e+000	 1.774625148396792e-001	 1.249819045493636e+001
 2.000000000000000e+000	 0.000000000000000e+000	 1.191328025341023e+001
 1.999921589721275e+000	 1.770974214483003e-002	 1.204867077018487e+001
 1.999685223916896e+000	 3.548246396324820e-002	 1.216463203088063e+001
 1.999289214470237e+000	 5.331638494996539e-002	 1.226096256160763e+001
 1.998731893282784e+000	 7.120968176046658e-002	 1.233750143744445e+001
 1.998011613412721e+000	 8.916048828710503e-002	 1.239412883867533e+001
 1.997126750223276e+000	 1.071668957668297e-001	 1.243076653115992e+001
 1.996075702539929e+000	 1.252269529212345e-001	 1.244737826752761e+001
 1.994856893815574e+000	 1.433386661295951e-001	 1.244397010599448e+001
 1.993468773302665e+000	 1.614999996355343e-001	 1.242059064372002e+001
 1.991909817231349e+000	 1.797088757879295e-001	 1.237733116175605e+001
 1.742921090062065e+000	 1.572452663054261e-001	 1.328003333560845e+001
 1.741406213725087e+000	 1.732177783889446e-001	 1.338765927361636e+001
 1.739739264638117e+000	 1.892281454215079e-001	 1.347957669384674e+001
 1.737918986542895e+000	 2.052744410566007e-001	 1.355592154551935e+001
 1.735944150944025e+000	 2.213547034424477e-001	 1.361682036790127e+001
 1.733813558151911e+000	 2.374669355897513e-001	 1.366238900744195e+001
 1.731526038325072e+000	 2.536091057720335e-001	 1.369273132253596e+001
 1.729080452510761e+000	 2.697791479589110e-001	 1.370793787913602e+001
 1.726475693682788e+000	 2.859749622825957e-001	 1.370808464058553e+001
 1.723710687775429e+000	 3.021944155378737e-001	 1.369323165518235e+001
 1.720784394712270e+000	 3.184353417157770e-001	 1.366342174511991e+001
 1.767819962778993e+000	 1.594916272536765e-001	 1.317465881060451e+001
 1.766283445351817e+000	 1.756923180816826e-001	 1.326999030189991e+001
 1.764592682706737e+000	 1.919314046435942e-001	 1.335101276675401e+001
 1.762746400638945e+000	 2.082069330736586e-001	 1.341792075263959e+001
 1.760743353103111e+000	 2.245169134936453e-001	 1.347089830056323e+001
 1.758582323271217e+000	 2.408593203858371e-001	 1.351011754360579e+001
 1.756262124589759e+000	 2.572320929990908e-001	 1.353573729193202e+001
 1.753781601835235e+000	 2.736331357883018e-001	 1.354790160771036e+001
 1.751139632166796e+000	 2.900603188875701e-001	 1.354673837354192e+001
 1.748335126174922e+000	 3.065114786173200e-001	 1.353235785814777e+001
 1.745367028924961e+000	 3.229844180255974e-001	 1.350485128320892e+001
 1.792718835495921e+000	 1.617379882019268e-001	 1.308823425525857e+001
 1.791160676978547e+000	 1.781668577744254e-001	 1.317021759132748e+001
 1.789446100775357e+000	 1.946346638656997e-001	 1.323930862687343e+001
 1.787573814734996e+000	 2.111394250907598e-001	 1.329576200316349e+001
 1.785542555262198e+000	 2.276791235449204e-001	 1.333982073911569e+001
 1.783351088390523e+000	 2.442517051820443e-001	 1.337171470828155e+001
 1.780998210854445e+000	 2.608550802263231e-001	 1.339165910110235e+001
 1.778482751159709e+000	 2.774871236179320e-001	 1.339985287610507e+001
 1.775803570650804e+000	 2.941456754928579e-001	 1.339647720387080e+001
 1.772959564574414e+000	 3.108285416971641e-001	 1.338169390777062e+001
 1.769949663137651e+000	 3.275334943359103e-001	 1.335564390561551e+001
 1.817617708212850e+000	 1.639843491501772e-001	 1.302028236021270e+001
 1.816037908605277e+000	 1.806413974671730e-001	 1.308777202667841e+001
 1.814299518843977e+000	 1.973379230878244e-001	 1.314380505835118e+001
 1.812401228831046e+000	 2.140719171079046e-001	 1.318869775137699e+001
 1.810341757421285e+000	 2.308413335962729e-001	 1.322275364385049e+001
 1.808119853509829e+000	 2.476440899783728e-001	 1.324626186819570e+001
 1.805734297119132e+000	 2.644780674537310e-001	 1.325949548758751e+001
 1.803183900484183e+000	 2.813411114478014e-001	 1.326270982030964e+001
 1.800467509134813e+000	 2.982310320984592e-001	 1.325614075612340e+001
 1.797584002973906e+000	 3.151456047774062e-001	 1.324000306889163e+001
 1.794532297350343e+000	 3.320825706467159e-001	 1.321448872986542e+001
 1.842516580929779e+000	 1.662307100984275e-001	 1.297031736880276e+001
 1.840915140232007e+000	 1.831159371599254e-001	 1.302207777779194e+001
 1.839152936912596e+000	 2.000411823099683e-001	 1.306383781568418e+001
 1.837228642927095e+000	 2.170044091250926e-001	 1.309597705899763e+001
 1.835140959580371e+000	 2.340035436477027e-001	 1.311886117023724e+001
 1.832888618629136e+000	 2.510364747748227e-001	 1.313284012255043e+001
 1.830470383383819e+000	 2.681010546813139e-001	 1.313824640715178e+001
 1.827885049808657e+000	 2.851950992779101e-001	 1.313539322764813e+001
 1.825131447618820e+000	 3.023163887043739e-001	 1.312457268558502e+001
 1.822208441373398e+000	 3.194626678580461e-001	 1.310605396171598e+001
 1.819114931563034e+000	 3.366316469580142e-001	 1.308008149766902e+001
 1.867415453646707e+000	 1.684770710466778e-001	 1.293784564021227e+001
 1.865792371858737e+000	 1.855904768526825e-001	 1.297255274722995e+001
 1.864006354981215e+000	 2.027444415321315e-001	 1.299873795903007e+001
 1.862056057023146e+000	 2.199369011423241e-001	 1.301684582134580e+001
 1.859940161739458e+000	 2.371657536992100e-001	 1.302730578924470e+001
 1.857657383748442e+000	 2.544288595713938e-001	 1.303053032085836e+001
 1.855206469648505e+000	 2.717240419090722e-001	 1.302691295256843e+001
 1.852586199133131e+000	 2.890490871082580e-001	 1.301682636002346e+001
 1.849795386102828e+000	 3.064017453106019e-001	 1.300062040955940e+001
 1.846832879772890e+000	 3.237797309390840e-001	 1.297862020478917e+001
 1.843697565775724e+000	 3.411807232698052e-001	 1.295112413330898e+001
 1.892314326363635e+000	 1.707234319949282e-001	 1.285083585194258e+001
 1.890669603485467e+000	 1.880650165454445e-001	 1.289541210589190e+001
 1.888859773049835e+000	 2.054477007543139e-001	 1.292799504911327e+001
 1.886883471119196e+000	 2.228693931595989e-001	 1.294869839873128e+001
 1.884739363898545e+000	 2.403279637507947e-001	 1.295766735584294e+001
 1.882426148867748e+000	 2.578212443680862e-001	 1.295507829016679e+001
 1.879942555913192e+000	 2.753470291370056e-001	 1.294113834184530e+001
 1.877287348457605e+000	 2.929030749388451e-001	 1.291608493919286e+001
 1.874459324586836e+000	 3.104871019171435e-001	 1.288313485986754e+001
 1.871457318172382e+000	 3.280967940205197e-001	 1.285648008615866e+001
 1.868280199988416e+000	 3.457297995820888e-001	 1.282632433689214e+001
 1.917213199080564e+000	 1.729697929431785e-001	 1.273449101868043e+001
 1.915546835112197e+000	 1.905395562382112e-001	 1.279468513741742e+001
 1.913713191118454e+000	 2.081509599765155e-001	 1.284307500134638e+001
 1.911710885215246e+000	 2.258018851769172e-001	 1.287982077384007e+001
 1.909538566057632e+000	 2.434901738024567e-001	 1.290511548783380e+001
 1.907194913987054e+000	 2.612136291649000e-001	 1.291918467812933e+001
 1.904678642177879e+000	 2.789700163651143e-001	 1.292228592645764e+001
 1.901988497782079e+000	 2.967570627696715e-001	 1.291470831807810e+001
 1.899123263070844e+000	 3.145724585239985e-001	 1.289677180891118e+001
 1.896081756571874e+000	 3.324138571023532e-001	 1.286882650243143e+001
 1.892862834201107e+000	 3.502788758948651e-001	 1.283125183578958e+001
 1.942112071797492e+000	 1.752161538914288e-001	 1.261709220339784e+001
 1.940424066738927e+000	 1.930140959309828e-001	 1.269222280351398e+001
 1.938566609187074e+000	 2.108542191987363e-001	 1.275569407753268e+001
 1.936538299311297e+000	 2.287343771942789e-001	 1.280771384076042e+001
 1.934337768216718e+000	 2.466523838541962e-001	 1.284852423101356e+001
 1.931963679106360e+000	 2.646060139618350e-001	 1.287840128781669e+001
 1.929414728442565e+000	 2.825930035933981e-001	 1.289765443982877e+001
 1.926689647106553e+000	 3.006110506007372e-001	 1.290662589925835e+001
 1.923787201554853e+000	 3.186578151311669e-001	 1.290568996226038e+001
 1.920706194971366e+000	 3.367309201845847e-001	 1.289525221454909e+001
 1.917445468413798e+000	 3.548279522081341e-001	 1.287574864171565e+001
 1.967010944514421e+000	 1.774625148396792e-001	 1.249819045493636e+001
 1.965301298365657e+000	 1.954886356237591e-001	 1.258749259919942e+001
 1.963420027255694e+000	 2.135574784209764e-001	 1.266523622719829e+001
 1.961365713407346e+000	 2.316668692116840e-001	 1.273167806278186e+001
 1.959136970375805e+000	 2.498145939060130e-001	 1.278711067367439e+001
 1.956732444225666e+000	 2.679983987588914e-001	 1.283186199677340e+001
 1.954150814707252e+000	 2.862159908218573e-001	 1.286629476700494e+001
 1.951390796431027e+000	 3.044650384320420e-001	 1.289080584848013e+001
 1.948451140038860e+000	 3.227431717386488e-001	 1.290582546693867e+001
 1.945330633370858e+000	 3.410479832672140e-001	 1.291181634272067e+001
 1.942028102626488e+000	 3.593770285218957e-001	 1.290927272377451e+001
 1.991909817231349e+000	 1.797088757879295e-001	 1.237733116175605e+001
 1.990178529992387e+000	 1.979631753165402e-001	 1.247995751993608e+001
 1.988273445324313e+000	 2.162607376432357e-001	 1.257108202959565e+001
 1.986193127503396e+000	 2.345993612291324e-001	 1.265101162989744e+001
 1.983936172534892e+000	 2.529768039579072e-001	 1.272009069473094e+001
 1.981501209344972e+000	 2.713907835560691e-001	 1.277870050328088e+001
 1.978886900971938e+000	 2.898389780504918e-001	 1.282725860934132e+001
 1.976091945755501e+000	 3.083190262635862e-001	 1.286621810809952e+001
 1.973115078522868e+000	 3.268285283464439e-001	 1.289606679936748e+001
 1.969955071770350e+000	 3.453650463502412e-001	 1.291732624650805e+001
 1.966610736839180e+000	 3.639261048361500e-001	 1.293055073058127e+001
 1.720784394712270e+000	 3.184353417157770e-001	 1.366342174511991e+001
 1.717695809428702e+000	 3.346955425703510e-001	 1.372398020139247e+001
 1.714443962887209e+000	 3.509727882210215e-001	 1.377419816395588e+001
 1.711027923084025e+000	 3.672648177889562e-001	 1.381387369933766e+001
 1.707446796045747e+000	 3.835693400660090e-001	 1.384277532689904e+001
 1.703699726814957e+000	 3.998840342185866e-001	 1.386064081932554e+001
 1.699785900423492e+000	 4.162065505255865e-001	 1.386717603849847e+001
 1.695704542852120e+000	 4.325345111503018e-001	 1.386205381123900e+001
 1.691454921975343e+000	 4.488655109461448e-001	 1.384491284945549e+001
 1.687036348490034e+000	 4.651971182959880e-001	 1.381535671925047e+001
 1.682448176826651e+000	 4.815268759848673e-001	 1.377295286355364e+001
 1.745367028924961e+000	 3.229844180255974e-001	 1.350485128320892e+001
 1.742234320994296e+000	 3.394769074630900e-001	 1.355831263164982e+001
 1.738936019502071e+000	 3.559866851939452e-001	 1.360233791699667e+001
 1.735471179130182e+000	 3.725114580410630e-001	 1.363675733253277e+001
 1.731838893134178e+000	 3.890489020647538e-001	 1.366136989582110e+001
 1.728038294342964e+000	 4.055966632766609e-001	 1.367594215257702e+001
 1.724068556145973e+000	 4.221523583882385e-001	 1.368020691697612e+001
 1.719928893466559e+000	 4.387135755936855e-001	 1.367386205314143e+001
 1.715618563720287e+000	 4.552778753871785e-001	 1.365656930259795e+001
 1.711136867756843e+000	 4.718427914142040e-001	 1.362795316251116e+001
 1.706483150784262e+000	 4.884058313567285e-001	 1.358759981953890e+001
 1.769949663137651e+000	 3.275334943359103e-001	 1.335564390561551e+001
 1.766772832559885e+000	 3.442582723564071e-001	 1.340115825092976e+001
 1.763428076116914e+000	 3.610005821675034e-001	 1.343819911665871e+001
 1.759914435176295e+000	 3.777580982938316e-001	 1.346663022594591e+001
 1.756230990222532e+000	 3.945284640641585e-001	 1.348628243484117e+001
 1.752376861870848e+000	 4.113092923353629e-001	 1.349695233610582e+001
 1.748351211868279e+000	 4.280981662514561e-001	 1.349840090054331e+001
 1.744153244080758e+000	 4.448926400375424e-001	 1.349035216086163e+001
 1.739782205464916e+000	 4.616902398285626e-001	 1.347249194312003e+001
 1.735237387023252e+000	 4.784884645326170e-001	 1.344446665084612e+001
 1.730518124741380e+000	 4.952847867286022e-001	 1.340588210692463e+001
 1.794532297350343e+000	 3.320825706467159e-001	 1.321448872986542e+001
 1.791311344125469e+000	 3.490396372503026e-001	 1.325113565258938e+001
 1.787920132731737e+000	 3.660144791416965e-001	 1.328033104501826e+001
 1.784357691222366e+000	 3.830047385472624e-001	 1.330197361080073e+001
 1.780623087310808e+000	 4.000080260642229e-001	 1.331592743153784e+001
 1.776715429398611e+000	 4.170219213946925e-001	 1.332202046700177e+001
 1.772633867590407e+000	 4.340439741152393e-001	 1.332004309400677e+001
 1.768377594694717e+000	 4.510717044818725e-001	 1.330974668920849e+001
 1.763945847209231e+000	 4.681026042702974e-001	 1.329084226115934e+001
 1.759337906289263e+000	 4.851341376512272e-001	 1.326299913698257e+001
 1.754553098698004e+000	 5.021637421004885e-001	 1.322584370904780e+001
 1.819114931563034e+000	 3.366316469580142e-001	 1.308008149766902e+001
 1.815849855691049e+000	 3.538210021447762e-001	 1.310687119312357e+001
 1.812412189346542e+000	 3.710283761165244e-001	 1.312729188881871e+001
 1.808800947268392e+000	 3.882513788013551e-001	 1.314127876663709e+001
 1.805015184399005e+000	 4.054875880649471e-001	 1.314873056711165e+001
 1.801053996926252e+000	 4.227345504546500e-001	 1.314950798246893e+001
 1.796916523312362e+000	 4.399897819795882e-001	 1.314343208948840e+001
 1.792601945308435e+000	 4.572507689266762e-001	 1.313028282773236e+001
 1.788109488953231e+000	 4.745149687123825e-001	 1.310979752875670e+001
 1.783438425554874e+000	 4.917798107700342e-001	 1.308166950195235e+001
 1.778588072654134e+000	 5.090426974723874e-001	 1.304554668268956e+001
 1.843697565775724e+000	 3.411807232698052e-001	 1.295112413330898e+001
 1.840388367256623e+000	 3.586023670398280e-001	 1.296699847462260e+001
 1.836904245961327e+000	 3.760422730919869e-001	 1.297764814582592e+001
 1.833244203314375e+000	 3.934980190561098e-001	 1.298304635142337e+001
 1.829407281487125e+000	 4.109671500663311e-001	 1.298312797014379e+001
 1.825392564453771e+000	 4.284471795152351e-001	 1.297778783715101e+001
 1.821199179034139e+000	 4.459355898445028e-001	 1.296687906727083e+001
 1.816826295921914e+000	 4.634298333719529e-001	 1.295021142507561e+001
 1.812273130696917e+000	 4.809273331548182e-001	 1.292754974772931e+001
 1.807538944820087e+000	 4.984254838890382e-001	 1.289861242653831e+001
 1.802623046609771e+000	 5.159216528442988e-001	 1.286306995317896e+001
 1.868280199988416e+000	 3.457297995820888e-001	 1.282632433689214e+001
 1.864926878822192e+000	 3.633837319354581e-001	 1.283015786808818e+001
 1.861396302576093e+000	 3.810561700680843e-001	 1.282997407805060e+001
 1.857687459360314e+000	 3.987446593115266e-001	 1.282578578455455e+001
 1.853799378575168e+000	 4.164467120683748e-001	 1.281756552926826e+001
 1.849731131981168e+000	 4.341598085764479e-001	 1.280524374540527e+001
 1.845481834755741e+000	 4.518813977099830e-001	 1.278870696762903e+001
 1.841050646535152e+000	 4.696088978177032e-001	 1.276779609034825e+001
 1.836436772440289e+000	 4.873396975976045e-001	 1.274230468060656e+001
 1.831639464084901e+000	 5.050711570082392e-001	 1.271197735181696e+001
 1.826658020564913e+000	 5.228006082162227e-001	 1.267650820461998e+001
 1.892862834201107e+000	 3.502788758948651e-001	 1.283125183578958e+001
 1.889465390387757e+000	 3.681650968316664e-001	 1.281016673315237e+001
 1.885888359190838e+000	 3.860700670448166e-001	 1.277829617329915e+001
 1.882130715406210e+000	 4.039912995676054e-001	 1.273585063504866e+001
 1.878191475663132e+000	 4.219262740710784e-001	 1.268306308973340e+001
 1.874069699508443e+000	 4.398724376382885e-001	 1.263026948261970e+001
 1.869764490477167e+000	 4.578272055760289e-001	 1.260724972719433e+001
 1.865274997148151e+000	 4.757879622639268e-001	 1.258131236452597e+001
 1.860600414183345e+000	 4.937520620407412e-001	 1.255228095707710e+001
 1.855739983349315e+000	 5.117168301276374e-001	 1.251992752069776e+001
 1.850692994519563e+000	 5.296795635881593e-001	 1.248397085659456e+001
 1.917445468413798e+000	 3.548279522081341e-001	 1.287574864171565e+001
 1.914003901953317e+000	 3.729464617284529e-001	 1.286187377651516e+001
 1.910380415805565e+000	 3.910839640221834e-001	 1.283704456003375e+001
 1.906573971452062e+000	 4.092379398243463e-001	 1.280152211621758e+001
 1.902583572751019e+000	 4.274058360744416e-001	 1.275559137790367e+001
 1.898408267035597e+000	 4.455850667007569e-001	 1.269955993893552e+001
 1.894047146198417e+000	 4.637730134426403e-001	 1.263375682076465e+001
 1.889499347760909e+000	 4.819670267106236e-001	 1.255853115487627e+001
 1.884764055926089e+000	 5.001644264842287e-001	 1.247425078267652e+001
 1.879840502613331e+000	 5.183625032472324e-001	 1.238130077478168e+001
 1.874727968473718e+000	 5.365585189601085e-001	 1.228358111958043e+001
 1.942028102626488e+000	 3.593770285218957e-001	 1.290927272377451e+001
 1.938542413518873e+000	 3.777278266258178e-001	 1.290144172972692e+001
 1.934872472420273e+000	 3.960978610001851e-001	 1.288247940239019e+001
 1.931017227497870e+000	 4.144845800817491e-001	 1.285269957819085e+001
 1.926975669838828e+000	 4.328853980784645e-001	 1.281244126316520e+001
 1.922746834562629e+000	 4.512976957638528e-001	 1.276206740502003e+001
 1.918329801919492e+000	 4.697188213098174e-001	 1.270196357509658e+001
 1.913723698373428e+000	 4.881460911577938e-001	 1.263253656165665e+001
 1.908927697668517e+000	 5.065767909280664e-001	 1.255421287622390e+001
 1.903941021876948e+000	 5.250081763670245e-001	 1.246743717503012e+001
 1.898762942427380e+000	 5.434374743320701e-001	 1.237267059793827e+001
 1.966610736839180e+000	 3.639261048361500e-001	 1.293055073058127e+001
 1.963080925084422e+000	 3.825091915237607e-001	 1.292751792381102e+001
 1.959364529034961e+000	 4.011117579788214e-001	 1.291316846650750e+001
 1.955460483543635e+000	 4.197312203398140e-001	 1.288787102722144e+001
 1.951367766926559e+000	 4.383649600831472e-001	 1.285202085015570e+001
 1.947085402089539e+000	 4.570103248275765e-001	 1.280603844459513e+001
 1.942612457640390e+000	 4.756646291775601e-001	 1.275036817951827e+001
 1.937948048985706e+000	 4.943251556054372e-001	 1.268547678489289e+001
 1.933091339410632e+000	 5.129891553722545e-001	 1.261185176148564e+001
 1.928041541140166e+000	 5.316538494870133e-001	 1.252999970135054e+001
 1.922797916380548e+000	 5.503164297040443e-001	 1.244044452149540e+001
 1.682448176826651e+000	 4.815268759848673e-001	 1.377295286355364e+001
 1.677689806041381e+000	 4.978523021060258e-001	 1.388192572386514e+001
 1.672760680688981e+000	 5.141708909989885e-001	 1.397579549634241e+001
 1.667660291674265e+000	 5.304801142200816e-001	 1.405400894256748e+001
 1.662388177080357e+000	 5.467774215453338e-001	 1.411597476149975e+001
 1.656943922973434e+000	 5.630602420043449e-001	 1.416106296459219e+001
 1.651327164182347e+000	 5.793259849448744e-001	 1.418860432954909e+001
 1.645537585051869e+000	 5.955720411275246e-001	 1.419788993685425e+001
 1.639574920168338e+000	 6.117957838498270e-001	 1.418817079307469e+001
 1.633438955056451e+000	 6.279945700989932e-001	 1.411538963578125e+001
 1.627129526846032e+000	 6.441657417325339e-001	 1.383876725933828e+001
 1.706483150784262e+000	 4.884058313567285e-001	 1.358759981953890e+001
 1.701656803273777e+000	 5.049644778520136e-001	 1.370362221185625e+001
 1.696657261845163e+000	 5.215161894442626e-001	 1.380663661044288e+001
 1.691484010130446e+000	 5.380584015691765e-001	 1.389619381222668e+001
 1.686136579613939e+000	 5.545885275710122e-001	 1.397180448361390e+001
 1.680614550448477e+000	 5.711039597512186e-001	 1.403293837394281e+001
 1.674917552246178e+000	 5.876020704482375e-001	 1.407902360920493e+001
 1.669045264842459e+000	 6.040802131478213e-001	 1.410944607052344e+001
 1.662997419032029e+000	 6.205357236231791e-001	 1.412354886175715e+001
 1.656773797275656e+000	 6.369659211041964e-001	 1.392946822539636e+001
 1.650374234376445e+000	 6.533681094749184e-001	 1.365660575837523e+001
 1.730518124741380e+000	 4.952847867286022e-001	 1.340588210692463e+001
 1.725623800505588e+000	 5.120766535978284e-001	 1.353289161315744e+001
 1.720553843000689e+000	 5.288614878892073e-001	 1.364904200137404e+001
 1.715307728585921e+000	 5.456366889178151e-001	 1.375398680833613e+001
 1.709884982146783e+000	 5.623996335961364e-001	 1.384733726625998e+001
 1.704285177922769e+000	 5.791476774974711e-001	 1.392866135338334e+001
 1.698507940309269e+000	 5.958781559509419e-001	 1.399748292658523e+001
 1.692552944632335e+000	 6.125883851674518e-001	 1.405328094091598e+001
 1.686419917895057e+000	 6.292756633958879e-001	 1.401956280210296e+001
 1.680108639494266e+000	 6.459372721088098e-001	 1.375784901399393e+001
 1.673618941906352e+000	 6.625704772167977e-001	 1.349252654463463e+001
 1.754553098698004e+000	 5.021637421004885e-001	 1.322584370904780e+001
 1.749590797736816e+000	 5.191888293434703e-001	 1.336755095774037e+001
 1.744450424155561e+000	 5.362067863338228e-001	 1.350060401496460e+001
 1.739131447040690e+000	 5.532149762659974e-001	 1.362475797759666e+001
 1.733633384678889e+000	 5.702107396207068e-001	 1.373972335685132e+001
 1.727955805396312e+000	 5.871913952431019e-001	 1.384516496461464e+001
 1.722098328371618e+000	 6.041542414529869e-001	 1.394070088377366e+001
 1.716060624421499e+000	 6.210965571864153e-001	 1.402590152777658e+001
 1.709842416757420e+000	 6.380156031679536e-001	 1.385067048946220e+001
 1.703443481712282e+000	 6.549086231128335e-001	 1.359766754295282e+001
 1.696863649435754e+000	 6.717728449581719e-001	 1.334346465395195e+001
 1.778588072654134e+000	 5.090426974723874e-001	 1.304554668268956e+001
 1.773557794967459e+000	 5.263010050889394e-001	 1.320544571355481e+001
 1.768347005309778e+000	 5.435520847781091e-001	 1.335895376357374e+001
 1.762955165494752e+000	 5.607932636137233e-001	 1.350592642102599e+001
 1.757381787210257e+000	 5.780218456447235e-001	 1.364617229932505e+001
 1.751626432869105e+000	 5.952351129881115e-001	 1.377945175764871e+001
 1.745688716433225e+000	 6.124303269543728e-001	 1.390547570767089e+001
 1.739568304209950e+000	 6.296047292047129e-001	 1.392826640670753e+001
 1.733264915619120e+000	 6.467555429393755e-001	 1.368706541187996e+001
 1.726778323929701e+000	 6.638799741162677e-001	 1.344616900742139e+001
 1.720108356964651e+000	 6.809752126990409e-001	 1.320647464238044e+001
 1.802623046609771e+000	 5.159216528442988e-001	 1.286306995317896e+001
 1.797524792197518e+000	 5.334131808342354e-001	 1.304444789066333e+001
 1.792243586463340e+000	 5.508973832220659e-001	 1.322175854165552e+001
 1.786778883948108e+000	 5.683715509609929e-001	 1.339495702367090e+001
 1.781130189740887e+000	 5.858329516681863e-001	 1.356394898104038e+001
 1.775297060341149e+000	 6.032788307324996e-001	 1.372858913825463e+001
 1.769279104494092e+000	 6.207064124550999e-001	 1.388867994167340e+001
 1.763075983997688e+000	 6.381129012223440e-001	 1.375443420507971e+001
 1.756687414480155e+000	 6.554954827101543e-001	 1.352627815929539e+001
 1.750113166146527e+000	 6.728513251191122e-001	 1.330070094606662e+001
 1.743353064493043e+000	 6.901775804394048e-001	 1.307872261817665e+001
 1.826658020564913e+000	 5.228006082162227e-001	 1.267650820461998e+001
 1.821491789426993e+000	 5.405253565793585e-001	 1.288245429504984e+001
 1.816140167616247e+000	 5.582426816656935e-001	 1.308671944535813e+001
 1.810602602400759e+000	 5.759498383078062e-001	 1.328935744250013e+001
 1.804878592270780e+000	 5.936440576910959e-001	 1.349036999176418e+001
 1.798967687812444e+000	 6.113225484762662e-001	 1.368970510113238e+001
 1.792869492554218e+000	 6.289824979551683e-001	 1.379377319330096e+001
 1.786583663784714e+000	 6.466210732393084e-001	 1.357799649585236e+001
 1.780109913340527e+000	 6.642354224802897e-001	 1.336592626390372e+001
 1.773448008362758e+000	 6.818226761213670e-001	 1.315870650794778e+001
 1.766597772020930e+000	 6.993799481792635e-001	 1.295747890283979e+001
 1.850692994519563e+000	 5.296795635881593e-001	 1.248397085659456e+001
 1.845458786655884e+000	 5.476375323243089e-001	 1.271738491849453e+001
 1.840036748768498e+000	 5.655879801089916e-001	 1.295156917760843e+001
 1.834426320852702e+000	 5.835281256541628e-001	 1.318667532900667e+001
 1.828626994799934e+000	 6.014551637134510e-001	 1.342280026637146e+001
 1.822638315282989e+000	 6.193662662194115e-001	 1.365998429556679e+001
 1.816459880613602e+000	 6.372585834545771e-001	 1.359578657538944e+001
 1.810091343571026e+000	 6.551292452556065e-001	 1.339681979127833e+001
 1.803532412200234e+000	 6.729753622497818e-001	 1.320370855455512e+001
 1.796782850578393e+000	 6.907940271230321e-001	 1.301771824404938e+001
 1.789842479548311e+000	 7.085823159186171e-001	 1.284011126401807e+001
 1.874727968473718e+000	 5.365585189601085e-001	 1.228358111958043e+001
 1.869425783884192e+000	 5.547497080690862e-001	 1.254718145230514e+001
 1.863933329920095e+000	 5.729332785519605e-001	 1.281407002203665e+001
 1.858250039303940e+000	 5.911064130000635e-001	 1.308449576545634e+001
 1.852375397328351e+000	 6.092662697352526e-001	 1.335864998580040e+001
 1.846308942752784e+000	 6.274099839619353e-001	 1.357434634916453e+001
 1.840050268672245e+000	 6.455346689533268e-001	 1.338828373018607e+001
 1.833599023356627e+000	 6.636374172712384e-001	 1.320883904985467e+001
 1.826954911059277e+000	 6.817153020186303e-001	 1.303739994543086e+001
 1.820117692793435e+000	 6.997653781241078e-001	 1.287535237638871e+001
 1.813087187075188e+000	 7.177846836574655e-001	 1.272407866896088e+001
 1.898762942427380e+000	 5.434374743320701e-001	 1.237267059793827e+001
 1.893392781111915e+000	 5.618618838136904e-001	 1.260612812543489e+001
 1.887829911071037e+000	 5.802785769946003e-001	 1.283936933317809e+001
 1.882073757754471e+000	 5.986847003455079e-001	 1.307365522451277e+001
 1.876123799856030e+000	 6.170773757565005e-001	 1.331026087823146e+001
 1.869979570221829e+000	 6.354537017038378e-001	 1.333543206581447e+001
 1.863640656730146e+000	 6.538107544514179e-001	 1.316941783939319e+001
 1.857106703141514e+000	 6.721455892862038e-001	 1.301205334428189e+001
 1.850377409917658e+000	 6.904552417868358e-001	 1.286484662051592e+001
 1.843452535007881e+000	 7.087367291245936e-001	 1.272930350238080e+001
 1.836331894601559e+000	 7.269870513958089e-001	 1.260692551239201e+001
 1.922797916380548e+000	 5.503164297040443e-001	 1.244044452149540e+001
 1.917359778339054e+000	 5.689740595581219e-001	 1.271525786717507e+001
 1.911726492221324e+000	 5.876238754369104e-001	 1.299110760971080e+001
 1.905897476204296e+000	 6.062629876904956e-001	 1.326939696776373e+001
 1.899872202382971e+000	 6.248884817771944e-001	 1.355154397597844e+001
 1.893650197690125e+000	 6.434974194451185e-001	 1.332251970676247e+001
 1.887231044787306e+000	 6.620868399488497e-001	 1.309601984742393e+001
 1.880614382925689e+000	 6.806537613005026e-001	 1.287727305794705e+001
 1.873799908775373e+000	 6.991951815543976e-001	 1.268396157923634e+001
 1.866787377221732e+000	 7.177080801244898e-001	 1.257733969637619e+001
 1.859576602127425e+000	 7.361894191336469e-001	 1.248627627729271e+001
 1.627129526846032e+000	 6.441657417325339e-001	 1.383876725933828e+001
 1.620646524908150e+000	 6.603066266860092e-001	 1.381539465406861e+001
 1.613989891457657e+000	 6.764145402067768e-001	 1.379200301541285e+001
 1.607159622122281e+000	 6.924867861127355e-001	 1.376901642860909e+001
 1.600155766478270e+000	 7.085206580754376e-001	 1.374685104691675e+001
 1.592978428549761e+000	 7.245134409262326e-001	 1.372591419787120e+001
 1.585627767271441e+000	 7.404624119843859e-001	 1.370660349668306e+001
 1.578103996913506e+000	 7.563648424060113e-001	 1.368930596904498e+001
 1.570407387467962e+000	 7.722179985526131e-001	 1.367439718562325e+001
 1.562538264995355e+000	 7.880191433779775e-001	 1.366224041051760e+001
 1.554497011931069e+000	 8.037655378321177e-001	 1.365318576597404e+001
 1.650374234376445e+000	 6.533681094749184e-001	 1.365660575837523e+001
 1.643798618125084e+000	 6.697395784986904e-001	 1.363834350586984e+001
 1.637046889910957e+000	 6.860776050693965e-001	 1.362155797117717e+001
 1.630119045299332e+000	 7.023794544880486e-001	 1.360670137016523e+001
 1.623015134574688e+000	 7.186423817643655e-001	 1.359421680460236e+001
 1.615735263247221e+000	 7.348636329415729e-001	 1.358453731168984e+001
 1.608279592522115e+000	 7.510404464434979e-001	 1.357808492180448e+001
 1.600648339730568e+000	 7.671700544427713e-001	 1.357526972684927e+001
 1.592841778721614e+000	 7.832496842489193e-001	 1.357648896162662e+001
 1.584860240213809e+000	 7.992765597150682e-001	 1.358212610065223e+001
 1.576704112105899e+000	 8.152479026619461e-001	 1.359254997282875e+001
 1.673618941906352e+000	 6.625704772167977e-001	 1.349252654463463e+001
 1.666950711341602e+000	 6.791725303109569e-001	 1.347893521538453e+001
 1.660103888363913e+000	 6.957406699316719e-001	 1.346832686096763e+001
 1.653078468476089e+000	 7.122721228630686e-001	 1.346118243119487e+001
 1.645874502670843e+000	 7.287641054530314e-001	 1.345797256529916e+001
 1.638492097944430e+000	 7.452138249566624e-001	 1.345915658356330e+001
 1.630931417772530e+000	 7.616184809023511e-001	 1.346518148823563e+001
 1.623192682547341e+000	 7.779752664792435e-001	 1.347648097627131e+001
 1.615276169974930e+000	 7.942813699448884e-001	 1.349347446645230e+001
 1.607182215431857e+000	 8.105339760517526e-001	 1.351656614344283e+001
 1.598911212280233e+000	 8.267302674912782e-001	 1.354614402133613e+001
 1.696863649435754e+000	 6.717728449581719e-001	 1.334346465395195e+001
 1.690102804557706e+000	 6.886054821228079e-001	 1.333407911271552e+001
 1.683160886816524e+000	 7.054037347936031e-001	 1.332919432042433e+001
 1.676037891652553e+000	 7.221647912377959e-001	 1.332932058626055e+001
 1.668733870766737e+000	 7.388858291414352e-001	 1.333495669737311e+001
 1.661248932641389e+000	 7.555640169715016e-001	 1.334658885138524e+001
 1.653583243022685e+000	 7.721965153609446e-001	 1.336468959928127e+001
 1.645737025363827e+000	 7.887804785154277e-001	 1.338971680135315e+001
 1.637710561227908e+000	 8.053130556405206e-001	 1.342211259890133e+001
 1.629504190649500e+000	 8.217913923880303e-001	 1.346230240438845e+001
 1.621118312454071e+000	 8.382126323201146e-001	 1.351069391274218e+001
 1.720108356964651e+000	 6.809752126990409e-001	 1.320647464238044e+001
 1.713254897773396e+000	 6.980384339342446e-001	 1.320080448740407e+001
 1.706217885268792e+000	 7.150667996551905e-001	 1.320116535142671e+001
 1.698997314828725e+000	 7.320574596122298e-001	 1.320809755016682e+001
 1.691593238862369e+000	 7.490075528295773e-001	 1.322212865027503e+001
 1.684005767338098e+000	 7.659142089860902e-001	 1.324377234147342e+001
 1.676235068272581e+000	 7.827745498192793e-001	 1.327352732017968e+001
 1.668281368180025e+000	 7.995856905513239e-001	 1.331187618744188e+001
 1.660144952480551e+000	 8.163447413358161e-001	 1.335928436402385e+001
 1.651826165866736e+000	 8.330488087239021e-001	 1.341619902548423e+001
 1.643325412627414e+000	 8.496949971484549e-001	 1.348304806008840e+001
 1.743353064493043e+000	 6.901775804394048e-001	 1.307872261817665e+001
 1.736406990988670e+000	 7.074713857452664e-001	 1.307625259113425e+001
 1.729274883720716e+000	 7.247298645164334e-001	 1.308135729767774e+001
 1.721956738004603e+000	 7.419501279863703e-001	 1.309460772861072e+001
 1.714452606957739e+000	 7.591292765174578e-001	 1.311656088246830e+001
 1.706762602034556e+000	 7.762644010004286e-001	 1.314775857600825e+001
 1.698886893522218e+000	 7.933525842773548e-001	 1.318872626730707e+001
 1.690825710995935e+000	 8.103909025869324e-001	 1.323997189443571e+001
 1.682579343732855e+000	 8.273764270307743e-001	 1.330198473270261e+001
 1.674148141083565e+000	 8.443062250593675e-001	 1.337523427345512e+001
 1.665532512800260e+000	 8.611773619762990e-001	 1.346016912742526e+001
 1.766597772020930e+000	 6.993799481792635e-001	 1.295747890283979e+001
 1.759559084203529e+000	 7.169043375558731e-001	 1.295766927180255e+001
 1.752331882172295e+000	 7.343929293773324e-001	 1.296699245379439e+001
 1.744916161180188e+000	 7.518427963602180e-001	 1.298605080430728e+001
 1.737311975052847e+000	 7.692510002050763e-001	 1.301543142662548e+001
 1.729519436730763e+000	 7.866145930145163e-001	 1.305570491935746e+001
 1.721538718771596e+000	 8.039306187351714e-001	 1.310742413770798e+001
 1.713370053811557e+000	 8.211961146222525e-001	 1.317112297161638e+001
 1.705013734984823e+000	 8.384081127253954e-001	 1.324731514390076e+001
 1.696470116299988e+000	 8.555636413944264e-001	 1.333649303154999e+001
 1.687739612972610e+000	 8.726597268036471e-001	 1.343912651329871e+001
 1.789842479548311e+000	 7.085823159186171e-001	 1.284011126401807e+001
 1.782711177417973e+000	 7.263372893660650e-001	 1.284239818155603e+001
 1.775388880623530e+000	 7.440559942378869e-001	 1.285539125031345e+001
 1.767875584355480e+000	 7.617354647337727e-001	 1.287972490081967e+001
 1.760171343147694e+000	 7.793727238924330e-001	 1.291601703416005e+001
 1.752276271426720e+000	 7.969647850283536e-001	 1.296486770520690e+001
 1.744190544020715e+000	 8.145086531927284e-001	 1.302685782074022e+001
 1.735914396626891e+000	 8.320013266572851e-001	 1.310254785574097e+001
 1.727448126236454e+000	 8.494397984196800e-001	 1.319247659115020e+001
 1.718792091516004e+000	 8.668210577290790e-001	 1.329715987639045e+001
 1.709946713144463e+000	 8.841420916304991e-001	 1.341708941993849e+001
 1.813087187075188e+000	 7.177846836574655e-001	 1.272407866896088e+001
 1.805863270632003e+000	 7.357702411758422e-001	 1.272787450728910e+001
 1.798445879074421e+000	 7.537190590980976e-001	 1.274396596292730e+001
 1.790835007530479e+000	 7.716281331070343e-001	 1.277302027224829e+001
 1.783030711242278e+000	 7.894944475795277e-001	 1.281568684710226e+001
 1.775033106122427e+000	 8.073149770419402e-001	 1.287259589237342e+001
 1.766842369269574e+000	 8.250866876500262e-001	 1.294435703959313e+001
 1.758458739441937e+000	 8.428065386920296e-001	 1.303155800004990e+001
 1.749882517487748e+000	 8.604714841136272e-001	 1.313476324084815e+001
 1.741114066731615e+000	 8.780784740633254e-001	 1.325451268737026e+001
 1.732153813315821e+000	 8.956244564568551e-001	 1.339132045558604e+001
 1.836331894601559e+000	 7.269870513958089e-001	 1.260692551239201e+001
 1.829015363845618e+000	 7.452031929852042e-001	 1.261161917730523e+001
 1.821502877524968e+000	 7.633821239579639e-001	 1.263021489949943e+001
 1.813794430705185e+000	 7.815208014800026e-001	 1.266341347218422e+001
 1.805890079336601e+000	 7.996161712663606e-001	 1.271189655059146e+001
 1.797789940817883e+000	 8.176651690552764e-001	 1.277632520245488e+001
 1.789494194518175e+000	 8.356647221070653e-001	 1.285733847572882e+001
 1.781003082256695e+000	 8.536117507264862e-001	 1.295555198714769e+001
 1.772316908738705e+000	 8.715031698072376e-001	 1.307155653524075e+001
 1.763436041946819e+000	 8.893358903971655e-001	 1.320591674141647e+001
 1.754360913486683e+000	 9.071068212827148e-001	 1.335916972272182e+001
 1.859576602127425e+000	 7.361894191336469e-001	 1.248627627729271e+001
 1.852167457058817e+000	 7.546361447941515e-001	 1.249123350247882e+001
 1.844559875975171e+000	 7.730451888174859e-001	 1.251171702305392e+001
 1.836753853879596e+000	 7.914134698526777e-001	 1.254846195999114e+001
 1.828749447430661e+000	 8.097378949529318e-001	 1.260218296393202e+001
 1.820546775513088e+000	 8.280153610683620e-001	 1.267357269715629e+001
 1.812146019766516e+000	 8.462427565638450e-001	 1.276330033398990e+001
 1.803547425071165e+000	 8.644169627606547e-001	 1.287201008341784e+001
 1.794751299989325e+000	 8.825348555005110e-001	 1.300031973768214e+001
 1.785758017161617e+000	 9.005933067305992e-001	 1.314881925064348e+001
 1.776568013657048e+000	 9.185891861080785e-001	 1.331806934967501e+001
 1.554497011931069e+000	 8.037655378321177e-001	 1.365318576597404e+001
 1.546284067350165e+000	 8.194544422807419e-001	 1.362228648159143e+001
 1.537899927190630e+000	 8.350831179393493e-001	 1.359502484336596e+001
 1.529345144433827e+000	 8.506488283203390e-001	 1.357139764085751e+001
 1.520620329241138e+000	 8.661488406911884e-001	 1.355138311814447e+001
 1.511726149046811e+000	 8.815804275427317e-001	 1.353494056257349e+001
 1.502663328606235e+000	 8.969408680658606e-001	 1.352200992893745e+001
 1.493432649999157e+000	 9.122274496350907e-001	 1.351251150068777e+001
 1.484034952587419e+000	 9.274374692974090e-001	 1.350634558970888e+001
 1.474471132926831e+000	 9.425682352647938e-001	 1.350339227609370e+001
 1.464742144632903e+000	 9.576170684087775e-001	 1.350351118926746e+001
 1.576704112105899e+000	 8.152479026619461e-001	 1.359254997282875e+001
 1.568373839745379e+000	 8.311609343174989e-001	 1.356625082090175e+001
 1.559869926154992e+000	 8.470128767716022e-001	 1.354421496242100e+001
 1.551192932215838e+000	 8.628009544439740e-001	 1.352637673023649e+001
 1.542343476805889e+000	 8.785223955630552e-001	 1.351265061047802e+001
 1.533322236894168e+000	 8.941744336552632e-001	 1.350293087649293e+001
 1.524129947589711e+000	 9.097543090427868e-001	 1.349709126089335e+001
 1.514767402144833e+000	 9.252592703483490e-001	 1.349498466729487e+001
 1.505235451912260e+000	 9.406865760053215e-001	 1.349644292324157e+001
 1.495535006255741e+000	 9.560334957715677e-001	 1.350127657571758e+001
 1.485667032413862e+000	 9.712973122453554e-001	 1.350927473054678e+001
 1.598911212280233e+000	 8.267302674912782e-001	 1.354614402133613e+001
 1.590463612140005e+000	 8.428674263536746e-001	 1.352099519743251e+001
 1.581839925118697e+000	 8.589426356032174e-001	 1.350077517837279e+001
 1.573040719997142e+000	 8.749530805669458e-001	 1.348535781144069e+001
 1.564066624369902e+000	 8.908959504342628e-001	 1.347459576529077e+001
 1.554918324740777e+000	 9.067684397671688e-001	 1.346832020674115e+001
 1.545596566572447e+000	 9.225677500191508e-001	 1.346634051839373e+001
 1.536102154289799e+000	 9.382910910611387e-001	 1.346844405864336e+001
 1.526435951236438e+000	 9.539356827128893e-001	 1.347439596554323e+001
 1.516598879584058e+000	 9.694987562781512e-001	 1.348393900589327e+001
 1.506591920194319e+000	 9.849775560819279e-001	 1.349679347081040e+001
 1.621118312454071e+000	 8.382126323201146e-001	 1.351069391274218e+001
 1.612553384534045e+000	 8.545739183892687e-001	 1.348335999986694e+001
 1.603809924081746e+000	 8.708723944341963e-001	 1.346166047726351e+001
 1.594888507777738e+000	 8.871052066892542e-001	 1.344541062810046e+001
 1.585789771933177e+000	 9.032695053048107e-001	 1.343440319364393e+001
 1.576514412586634e+000	 9.193624458784484e-001	 1.342840809060522e+001
 1.567063185554443e+000	 9.353811909949529e-001	 1.342717217207191e+001
 1.557436906434053e+000	 9.513229117734602e-001	 1.343041903356791e+001
 1.547636450559955e+000	 9.671847894201127e-001	 1.343784886568664e+001
 1.537662752911782e+000	 9.829640167845446e-001	 1.344913835463456e+001
 1.527516807974274e+000	 9.986577999184951e-001	 1.346394063190757e+001
 1.643325412627414e+000	 8.496949971484549e-001	 1.348304806008840e+001
 1.634643156927498e+000	 8.662804104242817e-001	 1.345030115224390e+001
 1.625779923044137e+000	 8.828021532645378e-001	 1.342393452221985e+001
 1.616736295557627e+000	 8.992573328108996e-001	 1.340370676411045e+001
 1.607512919495713e+000	 9.156430601746993e-001	 1.338935253478384e+001
 1.598110500431744e+000	 9.319564519891023e-001	 1.338058230951581e+001
 1.588529804535698e+000	 9.481946319701923e-001	 1.337708218400136e+001
 1.578771658577596e+000	 9.643547324853129e-001	 1.337851372427873e+001
 1.568836949882811e+000	 9.804338961269921e-001	 1.338451386599214e+001
 1.558726626238913e+000	 9.964292772907482e-001	 1.339469486430510e+001
 1.548441695753725e+000	 1.012338043755057e+000	 1.340864429565439e+001
 1.665532512800260e+000	 8.611773619762990e-001	 1.346016912742526e+001
 1.656732929320366e+000	 8.779869024587131e-001	 1.341888241160069e+001
 1.647749922005872e+000	 8.947319120942419e-001	 1.338476240831442e+001
 1.638584083336808e+000	 9.114094589318817e-001	 1.335751285427880e+001
 1.629236067057511e+000	 9.280166150439282e-001	 1.333681212092962e+001
 1.619706588276103e+000	 9.445504580991300e-001	 1.332231300610440e+001
 1.609996423516213e+000	 9.610080729448697e-001	 1.331364257493309e+001
 1.600106410720428e+000	 9.773865531966974e-001	 1.331040205146977e+001
 1.590037449205004e+000	 9.936830028335265e-001	 1.331216676247806e+001
 1.579790499565453e+000	 1.009894537796761e+000	 1.331848613466177e+001
 1.569366583532674e+000	 1.026018287591614e+000	 1.332888374650246e+001
 1.687739612972610e+000	 8.726597268036471e-001	 1.343912651329871e+001
 1.678822701712647e+000	 8.896933944925635e-001	 1.338626827369702e+001
 1.669719920966950e+000	 9.066616709233090e-001	 1.334140398941129e+001
 1.660431871115281e+000	 9.235615850522007e-001	 1.330418433097753e+001
 1.650959214618570e+000	 9.403901699124976e-001	 1.327423314220922e+001
 1.641302676119713e+000	 9.571444642085322e-001	 1.325114726570329e+001
 1.631463042495988e+000	 9.738215139189845e-001	 1.323449642043552e+001
 1.621441162862548e+000	 9.904183739076136e-001	 1.322382313297130e+001
 1.611237948526535e+000	 1.006932109539717e+000	 1.321864272369633e+001
 1.600854372891399e+000	 1.023359798302585e+000	 1.321844334934207e+001
 1.590291471311120e+000	 1.039698531428165e+000	 1.322268610294470e+001
 1.709946713144463e+000	 8.841420916304991e-001	 1.341708941993849e+001
 1.700912474104342e+000	 9.013998865258321e-001	 1.334971743153945e+001
 1.691689919927371e+000	 9.185914297517391e-001	 1.329120772499762e+001
 1.682279658893047e+000	 9.357137111718564e-001	 1.324115965806712e+001
 1.672682362178891e+000	 9.527637247804074e-001	 1.319914426627582e+001
 1.662898763962574e+000	 9.697384703173081e-001	 1.316470412006631e+001
 1.652929661475022e+000	 9.866349548925372e-001	 1.313735323694506e+001
 1.642775915003957e+000	 1.003450194618061e+000	 1.311657705016961e+001
 1.632438447847403e+000	 1.020181216245563e+000	 1.310183243537325e+001
 1.621918246216753e+000	 1.036825058808218e+000	 1.309254779639145e+001
 1.611216359089064e+000	 1.053378775264711e+000	 1.308812321140873e+001
 1.732153813315821e+000	 8.956244564568551e-001	 1.339132045558604e+001
 1.723002246495451e+000	 9.131063785585198e-001	 1.330657673709620e+001
 1.713659918887135e+000	 9.305211885795319e-001	 1.323160500033611e+001
 1.704127446670105e+000	 9.478658372908487e-001	 1.316595500836496e+001
 1.694405509738473e+000	 9.651372796476579e-001	 1.310914667179980e+001
 1.684494851804685e+000	 9.823324764254584e-001	 1.306066993541882e+001
 1.674396280453315e+000	 9.994483958655278e-001	 1.301998472273643e+001
 1.664110667144655e+000	 1.016482015328040e+000	 1.298652094008669e+001
 1.653638947167610e+000	 1.033430322951064e+000	 1.295967854161624e+001
 1.642982119541515e+000	 1.050290319313661e+000	 1.293882765644226e+001
 1.632141246866505e+000	 1.067059019101252e+000	 1.292330877908158e+001
 1.754360913486683e+000	 9.071068212827148e-001	 1.335916972272182e+001
 1.745092018885974e+000	 9.248128705906259e-001	 1.325427562161612e+001
 1.735629917846243e+000	 9.424509474066879e-001	 1.316010487799828e+001
 1.725975234446456e+000	 9.600179634091781e-001	 1.307615934535724e+001
 1.716128657297317e+000	 9.775108345142488e-001	 1.300190945916380e+001
 1.706090939646046e+000	 9.949264825329823e-001	 1.293679415078228e+001
 1.695862899430868e+000	 1.012261836837956e+000	 1.288022082236313e+001
 1.685445419284641e+000	 1.029513836037550e+000	 1.283156538426448e+001
 1.674839446487155e+000	 1.046679429656221e+000	 1.279017235640886e+001
 1.664045992865684e+000	 1.063755579818914e+000	 1.275535503482857e+001
 1.653066134643443e+000	 1.080739262937787e+000	 1.272639572449478e+001
 1.776568013657048e+000	 9.185891861080785e-001	 1.331806934967501e+001
 1.767181791275910e+000	 9.365193626221506e-001	 1.319032093442368e+001
 1.757599916804693e+000	 9.543807062332065e-001	 1.307428924303249e+001
 1.747823022222099e+000	 9.721700895268440e-001	 1.296942987378199e+001
 1.737851804855421e+000	 9.898843893801800e-001	 1.287516540535583e+001
 1.727687027486658e+000	 1.007520488639881e+000	 1.279088533592451e+001
 1.717329518407680e+000	 1.025075277809822e+000	 1.271594608626517e+001
 1.706780171423915e+000	 1.042545656746593e+000	 1.264967106848193e+001
 1.696039945806038e+000	 1.059928536361033e+000	 1.259135082174348e+001
 1.685109866189261e+000	 1.077220840323977e+000	 1.254024321629234e+001
 1.673991022419878e+000	 1.094419506774317e+000	 1.249557372681511e+001
 1.464742144632903e+000	 9.576170684087775e-001	 1.350351118926746e+001
 1.454848998199890e+000	 9.725813037558125e-001	 1.343704411726727e+001
 1.444792760773848e+000	 9.874582919805434e-001	 1.335968720259341e+001
 1.434574555879015e+000	 1.002245400896121e+000	 1.327055539639887e+001
 1.424195563096951e+000	 1.016940016940706e+000	 1.316875244396871e+001
 1.413657017699293e+000	 1.031539546657219e+000	 1.305337167470242e+001
 1.402960210233953e+000	 1.046041418165064e+000	 1.292349683071480e+001
 1.392106486064946e+000	 1.060443082622109e+000	 1.277820293321724e+001
 1.381097244866092e+000	 1.074742015675246e+000	 1.261655718571946e+001
 1.369933940068900e+000	 1.088935718897824e+000	 1.243761991296634e+001
 1.358618078265032e+000	 1.103021721212288e+000	 1.224044553440387e+001
 1.485667032413862e+000	 9.712973122453554e-001	 1.350927473054678e+001
 1.475632555316646e+000	 9.864753223822117e-001	 1.342594468018108e+001
 1.465432657355221e+000	 1.001564839009399e+000	 1.333509678727584e+001
 1.455068478104174e+000	 1.016563192337401e+000	 1.323594013765890e+001
 1.444541213996230e+000	 1.031467731467781e+000	 1.312766955207048e+001
 1.433852117949764e+000	 1.046275825894074e+000	 1.300946625783945e+001
 1.423002498949086e+000	 1.060984866994530e+000	 1.288049860332556e+001
 1.411993721577700e+000	 1.075592269514990e+000	 1.273992281452140e+001
 1.400827205504765e+000	 1.090095473040156e+000	 1.258688379307873e+001
 1.389504424925096e+000	 1.104491943451570e+000	 1.242051595488856e+001
 1.378026907953097e+000	 1.118779174370570e+000	 1.223994410821285e+001
 1.506591920194319e+000	 9.849775560819279e-001	 1.349679347081040e+001
 1.496416112432994e+000	 1.000369341008790e+000	 1.340083204163793e+001
 1.486072553936271e+000	 1.015671386038590e+000	 1.330069552426900e+001
 1.475562400329086e+000	 1.030880983779144e+000	 1.319568506230496e+001
 1.464886864895328e+000	 1.045995445995415e+000	 1.308508446490124e+001
 1.454047218200109e+000	 1.061012105131552e+000	 1.296816076179576e+001
 1.443044787664139e+000	 1.075928315824656e+000	 1.284416480529650e+001
 1.431880957090408e+000	 1.090741456408535e+000	 1.271233191885442e+001
 1.420557166143417e+000	 1.105448930405707e+000	 1.257188259170697e+001
 1.409074909781287e+000	 1.120048168005903e+000	 1.242202321893442e+001
 1.397435737641161e+000	 1.134536627529352e+000	 1.226194688612892e+001
 1.527516807974274e+000	 9.986577999184951e-001	 1.346394063190757e+001
 1.517199669548935e+000	 1.014263359635549e+000	 1.335939778064526e+001
 1.506712450517001e+000	 1.029777933068117e+000	 1.325399661808568e+001
 1.496056322553752e+000	 1.045198775221347e+000	 1.314712836337828e+001
 1.485232515794244e+000	 1.060523160523605e+000	 1.303816381971313e+001
 1.474242318450327e+000	 1.075748384369653e+000	 1.292645381426396e+001
 1.463087076379111e+000	 1.090871764655441e+000	 1.281132968933303e+001
 1.451768192603071e+000	 1.105890643302746e+000	 1.269210384455419e+001
 1.440287126782049e+000	 1.120802387771899e+000	 1.256807032985829e+001
 1.428645394637474e+000	 1.135604392560822e+000	 1.243850548875443e+001
 1.416844567329225e+000	 1.150294080688636e+000	 1.230266865132539e+001
 1.548441695753725e+000	 1.012338043755057e+000	 1.340864429565439e+001
 1.537983226664468e+000	 1.028157378262487e+000	 1.329939777970810e+001
 1.527352347097408e+000	 1.043884480097980e+000	 1.319258687767518e+001
 1.516550244778170e+000	 1.059516566664012e+000	 1.308769099185601e+001
 1.505578166692977e+000	 1.075050875052352e+000	 1.298416601297886e+001
 1.494437418700419e+000	 1.090484663608378e+000	 1.288144464652920e+001
 1.483129365094002e+000	 1.105815213486885e+000	 1.277893679457578e+001
 1.471655428115688e+000	 1.121039830197622e+000	 1.267602999317682e+001
 1.460017087420660e+000	 1.136155845138731e+000	 1.257208990528919e+001
 1.448215879493655e+000	 1.151160617116327e+000	 1.246646086894146e+001
 1.436253397017289e+000	 1.166051533848422e+000	 1.235846650026750e+001
 1.569366583532674e+000	 1.026018287591614e+000	 1.332888374650246e+001
 1.558766783779593e+000	 1.042051396889605e+000	 1.321864793792924e+001
 1.547992243677491e+000	 1.057991027128178e+000	 1.311412180946097e+001
 1.537044167002341e+000	 1.073834358107138e+000	 1.301487113945555e+001
 1.525923817591530e+000	 1.089578589581657e+000	 1.292043508311021e+001
 1.514632518950385e+000	 1.105220942847726e+000	 1.283032638656284e+001
 1.503171653808812e+000	 1.120758662318988e+000	 1.274403166083815e+001
 1.491542663628261e+000	 1.136189017093163e+000	 1.266101171594915e+001
 1.479747048059252e+000	 1.151509302506205e+000	 1.258070195529166e+001
 1.467786364349831e+000	 1.166716841672418e+000	 1.250251283030067e+001
 1.455662226705354e+000	 1.181808987008709e+000	 1.242583035515975e+001
 1.590291471311120e+000	 1.039698531428165e+000	 1.322268610294470e+001
 1.579550340894311e+000	 1.055945415516904e+000	 1.311502022254902e+001
 1.568632140257253e+000	 1.072097574158711e+000	 1.301632109776989e+001
 1.557538089226265e+000	 1.088152149550725e+000	 1.292623915700671e+001
 1.546269468489901e+000	 1.104106304111520e+000	 1.284439507612019e+001
 1.534827619200224e+000	 1.119957222087697e+000	 1.277037988160900e+001
 1.523213942523541e+000	 1.135702111151751e+000	 1.270375511803591e+001
 1.511429899140787e+000	 1.151338203989368e+000	 1.264405308023734e+001
 1.499477008697823e+000	 1.166862759874319e+000	 1.259077711067098e+001
 1.487356849206002e+000	 1.182273066229095e+000	 1.254340196207290e+001
 1.475071056393418e+000	 1.197566440169497e+000	 1.250137422541031e+001
 1.611216359089064e+000	 1.053378775264711e+000	 1.308812321140873e+001
 1.600333898008621e+000	 1.069839434144381e+000	 1.298643902815709e+001
 1.589272036836692e+000	 1.086204121189579e+000	 1.289696443743612e+001
 1.578032011449942e+000	 1.102469940994773e+000	 1.281943286879539e+001
 1.566615119388090e+000	 1.118634018641939e+000	 1.275354485032406e+001
 1.555022719449937e+000	 1.134693501328291e+000	 1.269896800212795e+001
 1.543256231238189e+000	 1.150645559985172e+000	 1.265533709851794e+001
 1.531317134653268e+000	 1.166487390886239e+000	 1.262225419966795e+001
 1.519206969336373e+000	 1.182216217243073e+000	 1.259928885330993e+001
 1.506927334062168e+000	 1.197829290786359e+000	 1.258597836684102e+001
 1.494479886081482e+000	 1.213323893330786e+000	 1.258182815002032e+001
 1.632141246866505e+000	 1.067059019101252e+000	 1.292330877908158e+001
 1.621117455122524e+000	 1.083733452772039e+000	 1.283087781596513e+001
 1.609911933415809e+000	 1.100310668220784e+000	 1.275388768697363e+001
 1.598525933673372e+000	 1.116787732439283e+000	 1.269215324734176e+001
 1.586960770286098e+000	 1.133161733172916e+000	 1.264545328067910e+001
 1.575217819699524e+000	 1.149429780569508e+000	 1.261353038389744e+001
 1.563298519952757e+000	 1.165589008819253e+000	 1.259609092537194e+001
 1.551204370165703e+000	 1.181636577783775e+000	 1.259280507731612e+001
 1.538936929974904e+000	 1.197569674612469e+000	 1.260330692315084e+001
 1.526497818918329e+000	 1.213385515344209e+000	 1.262719464044410e+001
 1.513888715769546e+000	 1.229081346492577e+000	 1.266403075978943e+001
 1.653066134643443e+000	 1.080739262937787e+000	 1.272639572449478e+001
 1.641901012236020e+000	 1.097627471399877e+000	 1.264635600832410e+001
 1.630551829994604e+000	 1.114417215252323e+000	 1.258497931391294e+001
 1.619019855896556e+000	 1.131105523884254e+000	 1.254216041667686e+001
 1.607306421183923e+000	 1.147689447704449e+000	 1.251775482735153e+001
 1.595412919948984e+000	 1.164166059811349e+000	 1.251157856944857e+001
 1.583340808667244e+000	 1.180532457653993e+000	 1.252340803452968e+001
 1.571091605678093e+000	 1.196785764681977e+000	 1.255297991650017e+001
 1.558666890613415e+000	 1.212923131982505e+000	 1.259999122591324e+001
 1.546068303774484e+000	 1.228941739902645e+000	 1.266409938506206e+001
 1.533297545457611e+000	 1.244838799654869e+000	 1.274492240441693e+001
 1.673991022419878e+000	 1.094419506774317e+000	 1.249557372681511e+001
 1.662684569349107e+000	 1.111521490027895e+000	 1.243093611615358e+001
 1.651191726573076e+000	 1.128523762284198e+000	 1.238817710673774e+001
 1.639513778119492e+000	 1.145423315329686e+000	 1.236726995537306e+001
 1.627652072081567e+000	 1.162217162236540e+000	 1.236814543664096e+001
 1.615608020198319e+000	 1.178902339053813e+000	 1.239069151389342e+001
 1.603383097381649e+000	 1.195475906489392e+000	 1.243475309271400e+001
 1.590978841190437e+000	 1.211934951580843e+000	 1.250013185826630e+001
 1.578396851251905e+000	 1.228276589353182e+000	 1.258658619773287e+001
 1.565638788630636e+000	 1.244497964461667e+000	 1.269383120881970e+001
 1.552706375145675e+000	 1.260596252817663e+000	 1.237690340083745e+001
 1.358618078265032e+000	 1.103021721212288e+000	 1.224044553440387e+001
 1.347151218564126e+000	 1.116997580295668e+000	 1.212232297045744e+001
 1.335534971906517e+000	 1.130860883968336e+000	 1.201336626078458e+001
 1.323771000332176e+000	 1.144609251562969e+000	 1.191405927161672e+001
 1.311861016207091e+000	 1.158240335270790e+000	 1.182485825475547e+001
 1.299806781406893e+000	 1.171751821465558e+000	 1.174619137175272e+001
 1.287610106458834e+000	 1.185141432003066e+000	 1.167845827519811e+001
 1.275272849643007e+000	 1.198406925494609e+000	 1.162202974787166e+001
 1.262796916053697e+000	 1.211546098552944e+000	 1.157724740035726e+001
 1.250184256621897e+000	 1.224556787009298e+000	 1.154442342755069e+001
 1.237436867100000e+000	 1.237436867100000e+000	 1.163093418638511e+001
 1.378026907953097e+000	 1.118779174370570e+000	 1.223994410821285e+001
 1.366396235971277e+000	 1.132954688583815e+000	 1.220176154282288e+001
 1.354614042933289e+000	 1.147016039451929e+000	 1.217375753291764e+001
 1.342682014622530e+000	 1.160960812298055e+000	 1.215631314752835e+001
 1.330601887867360e+000	 1.174786625773290e+000	 1.214978029012189e+001
 1.318375449713059e+000	 1.188491133199592e+000	 1.215448132741996e+001
 1.306004536551559e+000	 1.202072023887835e+000	 1.217070877834155e+001
 1.293491033209806e+000	 1.215527024429475e+000	 1.219872506365299e+001
 1.280836871997721e+000	 1.228853899960310e+000	 1.223876231673833e+001
 1.268044031716738e+000	 1.242050455394869e+000	 1.229102225573359e+001
 1.255114536630000e+000	 1.255114536630000e+000	 1.211663443219145e+001
 1.397435737641161e+000	 1.134536627529352e+000	 1.226194688612892e+001
 1.385641253378430e+000	 1.148911796872367e+000	 1.230021617593847e+001
 1.373693113960062e+000	 1.163171194935842e+000	 1.234971000947591e+001
 1.361593028912884e+000	 1.177312373033386e+000	 1.241070816314213e+001
 1.349342759527628e+000	 1.191332916275971e+000	 1.248345965612021e+001
 1.336944118019226e+000	 1.205230444933752e+000	 1.256818248256533e+001
 1.324398966644283e+000	 1.219002615772685e+000	 1.266506340701059e+001
 1.311709216776605e+000	 1.232647123364387e+000	 1.277425782339823e+001
 1.298876827941744e+000	 1.246161701367696e+000	 1.289588967797097e+001
 1.285903806811579e+000	 1.259544123780445e+000	 1.258070915713373e+001
 1.272792206160000e+000	 1.272792206160000e+000	 1.210574069113546e+001
 1.416844567329225e+000	 1.150294080688636e+000	 1.230266865132539e+001
 1.404886270785581e+000	 1.164868905161327e+000	 1.241405804746594e+001
 1.392772184986834e+000	 1.179326350420076e+000	 1.253775194251102e+001
 1.380504043203239e+000	 1.193663933768963e+000	 1.267393024726466e+001
 1.368083631187897e+000	 1.207879206778833e+000	 1.282274048229987e+001
 1.355512786325393e+000	 1.221969756668037e+000	 1.298429761232224e+001
 1.342793396737007e+000	 1.235933207657614e+000	 1.315868394691723e+001
 1.329927400343404e+000	 1.249767222299344e+000	 1.334594910792110e+001
 1.316916783885768e+000	 1.263469502775102e+000	 1.290992236013252e+001
 1.303763581906420e+000	 1.277037792166026e+000	 1.248224200809520e+001
 1.290469875690000e+000	 1.290469875690000e+000	 1.207544284328600e+001
 1.436253397017289e+000	 1.166051533848422e+000	 1.235846650026750e+001
 1.424131288192732e+000	 1.180826013450692e+000	 1.253979216802625e+001
 1.411851256013606e+000	 1.195481505904632e+000	 1.273453693503094e+001
 1.399415057493593e+000	 1.210015494504787e+000	 1.294278220006575e+001
 1.386824502848165e+000	 1.224425497281876e+000	 1.316457529647737e+001
 1.374081454631560e+000	 1.238709068402448e+000	 1.339992942758089e+001
 1.361187826829731e+000	 1.252863799542624e+000	 1.351401639129366e+001
 1.348145583910203e+000	 1.266887321234346e+000	 1.311434009614551e+001
 1.334956739829792e+000	 1.280777304182529e+000	 1.273224635843959e+001
 1.321623357001262e+000	 1.294531460551612e+000	 1.236925655786556e+001
 1.308147545220000e+000	 1.308147545220000e+000	 1.202689223190658e+001
 1.455662226705354e+000	 1.181808987008709e+000	 1.242583035515975e+001
 1.443376305599884e+000	 1.196783121740464e+000	 1.267404845900250e+001
 1.430930327040378e+000	 1.211636661389509e+000	 1.293683558426982e+001
 1.418326071783947e+000	 1.226367055240856e+000	 1.321417590165477e+001
 1.405565374508434e+000	 1.240971787785099e+000	 1.350601779818538e+001
 1.392650122937726e+000	 1.255448380136984e+000	 1.355759546768977e+001
 1.379582256922456e+000	 1.269794391427715e+000	 1.320362342104138e+001
 1.366363767477001e+000	 1.284007420169394e+000	 1.286551208287584e+001
 1.352996695773816e+000	 1.298085105589976e+000	 1.254475465650696e+001
 1.339483132096103e+000	 1.312025128937203e+000	 1.224284890970542e+001
 1.325825214750000e+000	 1.325825214750000e+000	 1.196129426347910e+001
 1.475071056393418e+000	 1.197566440169497e+000	 1.250137422541031e+001
 1.462621323007036e+000	 1.212740230030642e+000	 1.281357353472603e+001
 1.450009398067151e+000	 1.227791816874707e+000	 1.314152778469900e+001
 1.437237086074301e+000	 1.242718615977171e+000	 1.348512513576848e+001
 1.424306246168702e+000	 1.257518078288504e+000	 1.349680348229517e+001
 1.411218791243893e+000	 1.272187691871646e+000	 1.318701742292590e+001
 1.397976687015180e+000	 1.286724983312886e+000	 1.289139444791078e+001
 1.384581951043800e+000	 1.301127519104486e+000	 1.261139721580521e+001
 1.371036651717839e+000	 1.315392906997442e+000	 1.234849743056937e+001
 1.357342907190944e+000	 1.329518797322799e+000	 1.210417295251228e+001
 1.343502884280000e+000	 1.343502884280000e+000	 1.187990485091293e+001
 1.494479886081482e+000	 1.213323893330786e+000	 1.258182815002032e+001
 1.481866340414187e+000	 1.228697338321226e+000	 1.295522312501274e+001
 1.469088469093923e+000	 1.243946972360227e+000	 1.334559563080401e+001
 1.456148100364656e+000	 1.259070176713732e+000	 1.334033091678129e+001
 1.443047117828970e+000	 1.274064368792089e+000	 1.307333957436117e+001
 1.429787459550060e+000	 1.288927003606433e+000	 1.281883338807176e+001
 1.416371117107903e+000	 1.303655575198137e+000	 1.257824184042227e+001
 1.402800134610599e+000	 1.318247618039624e+000	 1.235300801135076e+001
 1.389076607661863e+000	 1.332700708404929e+000	 1.214458572195177e+001
 1.375202682285786e+000	 1.347012465708400e+000	 1.195443660850642e+001
 1.361180553810000e+000	 1.361180553810000e+000	 1.178402713390703e+001
 1.513888715769546e+000	 1.229081346492577e+000	 1.266403075978943e+001
 1.501111357821339e+000	 1.244654446612217e+000	 1.309595508058034e+001
 1.488167540120696e+000	 1.260102127846067e+000	 1.309641750646616e+001
 1.475059114655010e+000	 1.275421737450539e+000	 1.287096761692001e+001
 1.461787989489239e+000	 1.290610659295855e+000	 1.265634072618945e+001
 1.448356127856227e+000	 1.305666315341346e+000	 1.245393023913589e+001
 1.434765547200628e+000	 1.320586167083469e+000	 1.226514777672389e+001
 1.421018318177398e+000	 1.335367716974808e+000	 1.209142036377211e+001
 1.407116563605887e+000	 1.350008509812436e+000	 1.193418753546115e+001
 1.393062457380627e+000	 1.364506134094006e+000	 1.179489836955632e+001
 1.378858223340000e+000	 1.378858223340000e+000	 1.167500845159138e+001
 1.533297545457611e+000	 1.244838799654869e+000	 1.274492240441693e+001
 1.520356375228491e+000	 1.260611554903613e+000	 1.277284058692278e+001
 1.507246611147468e+000	 1.276257283332229e+000	 1.258782717509627e+001
 1.493970128945364e+000	 1.291773298187593e+000	 1.241198707114699e+001
 1.480528861149507e+000	 1.307156949799801e+000	 1.224667442479790e+001
 1.466924796162393e+000	 1.322405627076385e+000	 1.209326628154227e+001
 1.453159977293352e+000	 1.337516758968881e+000	 1.195315982626051e+001
 1.439236501744197e+000	 1.352487815910036e+000	 1.182776953391530e+001
 1.425156519549911e+000	 1.367316311219963e+000	 1.171852423410287e+001
 1.410922232475468e+000	 1.381999802479618e+000	 1.162686409656805e+001
 1.396535892870000e+000	 1.396535892870000e+000	 1.155423754509490e+001
 1.552706375145675e+000	 1.260596252817663e+000	 1.237690340083745e+001
 1.539601392635642e+000	 1.276568663195416e+000	 1.223137928312989e+001
 1.526325682174240e+000	 1.292412438818711e+000	 1.209338857929224e+001
 1.512881143235718e+000	 1.308124858924892e+000	 1.196424272684826e+001
 1.499269732809776e+000	 1.323703240303929e+000	 1.184528079285064e+001
 1.485493464468560e+000	 1.339144938811550e+000	 1.173786678579170e+001
 1.471554407386076e+000	 1.354447350854373e+000	 1.164338686281776e+001
 1.457454685310996e+000	 1.369607914845310e+000	 1.156324643880127e+001
 1.443196475493934e+000	 1.384624112627510e+000	 1.149886720419306e+001
 1.428782007570309e+000	 1.399493470865234e+000	 1.145168405892043e+001
 1.414213562400000e+000	 1.414213562400000e+000	 1.142314196992025e+001
 1.237436867100000e+000	 1.237436867100000e+000	 1.163093418638511e+001
 1.224556787009298e+000	 1.250184256621897e+000	 1.184492938147847e+001
 1.211546098552944e+000	 1.262796916053697e+000	 1.150279729508721e+001
 1.198406925494609e+000	 1.275272849643007e+000	 1.118851295176000e+001
 1.185141432003067e+000	 1.287610106458834e+000	 1.090288683990919e+001
 1.171751821465558e+000	 1.299806781406892e+000	 1.064670161988390e+001
 1.158240335270790e+000	 1.311861016207091e+000	 1.042071097142338e+001
 1.144609251562970e+000	 1.323771000332176e+000	 1.022563846873179e+001
 1.130860883968336e+000	 1.335534971906517e+000	 1.006217648569193e+001
 1.116997580295668e+000	 1.347151218564126e+000	 9.930985133695657e+000
 1.103021721212288e+000	 1.358618078265032e+000	 9.832691234519190e+000
 1.255114536630000e+000	 1.255114536630000e+000	 1.211663443219145e+001
 1.242050455394869e+000	 1.268044031716738e+000	 1.178691059831035e+001
 1.228853899960310e+000	 1.280836871997720e+000	 1.152463749012890e+001
 1.215527024429475e+000	 1.293491033209806e+000	 1.128559006131135e+001
 1.202072023887835e+000	 1.306004536551558e+000	 1.107041918641496e+001
 1.188491133199592e+000	 1.318375449713059e+000	 1.087975301979400e+001
 1.174786625773290e+000	 1.330601887867360e+000	 1.071419597966540e+001
 1.160960812298055e+000	 1.342682014622530e+000	 1.057432775192476e+001
 1.147016039451929e+000	 1.354614042933290e+000	 1.046070231606433e+001
 1.132954688583815e+000	 1.366396235971277e+000	 1.037384699552127e+001
 1.118779174370570e+000	 1.378026907953097e+000	 1.031426153475286e+001
 1.272792206160000e+000	 1.272792206160000e+000	 1.210574069113546e+001
 1.259544123780445e+000	 1.285903806811580e+000	 1.177745676415583e+001
 1.246161701367696e+000	 1.298876827941744e+000	 1.150241394408138e+001
 1.232647123364387e+000	 1.311709216776605e+000	 1.133179821465681e+001
 1.219002615772685e+000	 1.324398966644282e+000	 1.118041703794134e+001
 1.205230444933752e+000	 1.336944118019226e+000	 1.104874782706419e+001
 1.191332916275971e+000	 1.349342759527628e+000	 1.093724942545667e+001
 1.177312373033386e+000	 1.361593028912884e+000	 1.084636123561707e+001
 1.163171194935842e+000	 1.373693113960062e+000	 1.077650236202305e+001
 1.148911796872367e+000	 1.385641253378430e+000	 1.072807077037812e+001
 1.134536627529353e+000	 1.397435737641161e+000	 1.070144246536504e+001
 1.290469875690000e+000	 1.290469875690000e+000	 1.207544284328600e+001
 1.277037792166026e+000	 1.303763581906420e+000	 1.181040077251633e+001
 1.263469502775103e+000	 1.316916783885768e+000	 1.156012130609039e+001
 1.249767222299344e+000	 1.329927400343403e+000	 1.132811802321507e+001
 1.235933207657614e+000	 1.342793396737007e+000	 1.123414028883174e+001
 1.221969756668037e+000	 1.355512786325393e+000	 1.115521856147622e+001
 1.207879206778833e+000	 1.368083631187897e+000	 1.109166967908819e+001
 1.193663933768963e+000	 1.380504043203239e+000	 1.104379625297928e+001
 1.179326350420076e+000	 1.392772184986834e+000	 1.101188592411392e+001
 1.164868905161327e+000	 1.404886270785581e+000	 1.099621062771195e+001
 1.150294080688636e+000	 1.416844567329225e+000	 1.099702586822813e+001
 1.308147545220000e+000	 1.308147545220000e+000	 1.202689223190658e+001
 1.294531460551612e+000	 1.321623357001262e+000	 1.181791384328062e+001
 1.280777304182529e+000	 1.334956739829792e+000	 1.161939437379988e+001
 1.266887321234346e+000	 1.348145583910202e+000	 1.143265032366030e+001
 1.252863799542624e+000	 1.361187826829731e+000	 1.125899808642565e+001
 1.238709068402448e+000	 1.374081454631560e+000	 1.120067582061720e+001
 1.224425497281876e+000	 1.386824502848165e+000	 1.117921819740661e+001
 1.210015494504787e+000	 1.399415057493593e+000	 1.116863857521375e+001
 1.195481505904632e+000	 1.411851256013606e+000	 1.116909644180994e+001
 1.180826013450691e+000	 1.424131288192732e+000	 1.118074093266718e+001
 1.166051533848422e+000	 1.436253397017289e+000	 1.120371019977723e+001
 1.325825214750000e+000	 1.325825214750000e+000	 1.196129426347910e+001
 1.312025128937203e+000	 1.339483132096103e+000	 1.180144617118189e+001
 1.298085105589976e+000	 1.352996695773815e+000	 1.164784851418923e+001
 1.284007420169393e+000	 1.366363767477001e+000	 1.150172563645162e+001
 1.269794391427715e+000	 1.379582256922455e+000	 1.136430706634003e+001
 1.255448380136984e+000	 1.392650122937726e+000	 1.123682468898945e+001
 1.240971787785100e+000	 1.405565374508434e+000	 1.120162198471060e+001
 1.226367055240856e+000	 1.418326071783947e+000	 1.122284584901918e+001
 1.211636661389509e+000	 1.430930327040379e+000	 1.125031588424935e+001
 1.196783121740463e+000	 1.443376305599884e+000	 1.128406156637355e+001
 1.181808987008709e+000	 1.455662226705354e+000	 1.132410675670641e+001
 1.343502884280000e+000	 1.343502884280000e+000	 1.187990485091293e+001
 1.329518797322799e+000	 1.357342907190944e+000	 1.176248398629053e+001
 1.315392906997442e+000	 1.371036651717839e+000	 1.164719435585885e+001
 1.301127519104486e+000	 1.384581951043800e+000	 1.153517351369963e+001
 1.286724983312886e+000	 1.397976687015179e+000	 1.142756946107596e+001
 1.272187691871646e+000	 1.411218791243893e+000	 1.132553783667848e+001
 1.257518078288504e+000	 1.424306246168702e+000	 1.123023906786319e+001
 1.242718615977171e+000	 1.437237086074301e+000	 1.120833076267653e+001
 1.227791816874707e+000	 1.450009398067151e+000	 1.125766879433644e+001
 1.212740230030642e+000	 1.462621323007036e+000	 1.130850282621034e+001
 1.197566440169497e+000	 1.475071056393418e+000	 1.136074541016173e+001
 1.361180553810000e+000	 1.361180553810000e+000	 1.178402713390703e+001
 1.347012465708400e+000	 1.375202682285786e+000	 1.170254721405776e+001
 1.332700708404929e+000	 1.389076607661863e+000	 1.161916294080291e+001
 1.318247618039624e+000	 1.402800134610599e+000	 1.153493037355682e+001
 1.303655575198137e+000	 1.416371117107904e+000	 1.145092125758112e+001
 1.288927003606433e+000	 1.429787459550060e+000	 1.136822022538698e+001
 1.274064368792089e+000	 1.443047117828970e+000	 1.128792195063857e+001
 1.259070176713732e+000	 1.456148100364655e+000	 1.121112826231844e+001
 1.243946972360226e+000	 1.469088469093923e+000	 1.119322601771827e+001
 1.228697338321226e+000	 1.481866340414187e+000	 1.125632994423195e+001
 1.213323893330786e+000	 1.494479886081482e+000	 1.131607989311494e+001
 1.378858223340000e+000	 1.378858223340000e+000	 1.167500845159138e+001
 1.364506134094007e+000	 1.393062457380627e+000	 1.162318731535481e+001
 1.350008509812436e+000	 1.407116563605887e+000	 1.156550441585835e+001
 1.335367716974807e+000	 1.421018318177398e+000	 1.150293954781510e+001
 1.320586167083468e+000	 1.434765547200628e+000	 1.143649341039616e+001
 1.305666315341347e+000	 1.448356127856227e+000	 1.136718481306754e+001
 1.290610659295855e+000	 1.461787989489239e+000	 1.129604782543364e+001
 1.275421737450539e+000	 1.475059114655010e+000	 1.122412887898360e+001
 1.260102127846067e+000	 1.488167540120696e+000	 1.115248382878874e+001
 1.244654446612217e+000	 1.501111357821339e+000	 1.112974725802186e+001
 1.229081346492577e+000	 1.513888715769546e+000	 1.119249268101546e+001
 1.396535892870000e+000	 1.396535892870000e+000	 1.155423754509490e+001
 1.381999802479617e+000	 1.410922232475468e+000	 1.152598529056059e+001
 1.367316311219963e+000	 1.425156519549910e+000	 1.148798682353792e+001
 1.352487815910036e+000	 1.439236501744197e+000	 1.144115084433351e+001
 1.337516758968881e+000	 1.453159977293352e+000	 1.138641216016127e+001
 1.322405627076385e+000	 1.466924796162393e+000	 1.132472888871124e+001
 1.307156949799802e+000	 1.480528861149507e+000	 1.125707959722223e+001
 1.291773298187593e+000	 1.493970128945364e+000	 1.118446038510306e+001
 1.276257283332228e+000	 1.507246611147467e+000	 1.110788191832037e+001
 1.260611554903613e+000	 1.520356375228491e+000	 1.102836642391284e+001
 1.244838799654869e+000	 1.533297545457611e+000	 1.099229950176042e+001
 1.414213562400000e+000	 1.414213562400000e+000	 1.142314196992025e+001
 1.399493470865234e+000	 1.428782007570309e+000	 1.141254983334225e+001
 1.384624112627510e+000	 1.443196475493934e+000	 1.138839498355013e+001
 1.369607914845309e+000	 1.457454685310996e+000	 1.135152014228433e+001
 1.354447350854374e+000	 1.471554407386076e+000	 1.130279932823506e+001
 1.339144938811549e+000	 1.485493464468560e+000	 1.124313505165745e+001
 1.323703240303929e+000	 1.499269732809775e+000	 1.117345543597118e+001
 1.308124858924892e+000	 1.512881143235718e+000	 1.109471127455588e+001
 1.292412438818710e+000	 1.526325682174240e+000	 1.100787303114256e+001
 1.276568663195416e+000	 1.539601392635642e+000	 1.091392779236389e+001
 1.260596252817662e+000	 1.552706375145675e+000	 1.081387618115548e+001
 1.103021721212288e+000	 1.358618078265032e+000	 9.832691234519190e+000
 1.088935718897824e+000	 1.369933940068900e+000	 9.761213516056403e+000
 1.074742015675246e+000	 1.381097244866093e+000	 9.683751943060067e+000
 1.060443082622109e+000	 1.392106486064946e+000	 9.599620537807205e+000
 1.046041418165064e+000	 1.402960210233953e+000	 9.508139496520268e+000
 1.031539546657219e+000	 1.413657017699293e+000	 9.408635429911064e+000
 1.016940016940706e+000	 1.424195563096952e+000	 9.300441587806750e+000
 1.002245400896121e+000	 1.434574555879015e+000	 9.182898068435495e+000
 9.874582919805433e-001	 1.444792760773848e+000	 9.055352012984805e+000
 9.725813037558126e-001	 1.454848998199890e+000	 8.917157786079434e+000
 9.576170684087774e-001	 1.464742144632903e+000	 8.767677142854314e+000
 1.118779174370570e+000	 1.378026907953097e+000	 1.031426153475286e+001
 1.104491943451570e+000	 1.389504424925096e+000	 1.022390575130583e+001
 1.090095473040156e+000	 1.400827205504764e+000	 1.012805104799045e+001
 1.075592269514990e+000	 1.411993721577700e+000	 1.002607230837741e+001
 1.060984866994530e+000	 1.423002498949086e+000	 9.917350148506213e+000
 1.046275825894074e+000	 1.433852117949764e+000	 9.801271075404694e+000
 1.031467731467781e+000	 1.444541213996230e+000	 9.677227630424124e+000
 1.016563192337402e+000	 1.455068478104174e+000	 9.544618518134381e+000
 1.001564839009399e+000	 1.465432657355221e+000	 9.402848721562897e+000
 9.864753223822116e-001	 1.475632555316646e+000	 9.251329604585722e+000
 9.712973122453553e-001	 1.485667032413862e+000	 9.089479002306240e+000
 1.134536627529353e+000	 1.397435737641161e+000	 1.070144246536504e+001
 1.120048168005903e+000	 1.409074909781287e+000	 1.059514473155246e+001
 1.105448930405707e+000	 1.420557166143416e+000	 1.048382136877476e+001
 1.090741456408535e+000	 1.431880957090409e+000	 1.036690749231489e+001
 1.075928315824656e+000	 1.443044787664139e+000	 1.024384353056679e+001
 1.061012105131552e+000	 1.454047218200108e+000	 1.011407530123070e+001
 1.045995445995415e+000	 1.464886864895328e+000	 9.977054073018090e+000
 1.030880983779144e+000	 1.475562400329086e+000	 9.832236613786131e+000
 1.015671386038590e+000	 1.486072553936272e+000	 9.679085226049631e+000
 1.000369341008790e+000	 1.496416112432994e+000	 9.517067770849168e+000
 9.849775560819279e-001	 1.506591920194319e+000	 9.345657680970499e+000
 1.150294080688636e+000	 1.416844567329225e+000	 1.099702586822813e+001
 1.135604392560822e+000	 1.428645394637474e+000	 1.087760241580602e+001
 1.120802387771899e+000	 1.440287126782048e+000	 1.075361496236616e+001
 1.105890643302746e+000	 1.451768192603071e+000	 1.062455829338827e+001
 1.090871764655441e+000	 1.463087076379111e+000	 1.048993211016370e+001
 1.075748384369653e+000	 1.474242318450326e+000	 1.034924102329545e+001
 1.060523160523605e+000	 1.485232515794244e+000	 1.020199453236617e+001
 1.045198775221347e+000	 1.496056322553752e+000	 1.004770699286745e+001
 1.029777933068117e+000	 1.506712450517001e+000	 9.885897571511537e+000
 1.014263359635548e+000	 1.517199669548935e+000	 9.716090191069354e+000
 9.986577999184951e-001	 1.527516807974274e+000	 9.537813465898395e+000
 1.166051533848422e+000	 1.436253397017289e+000	 1.120371019977723e+001
 1.151160617116327e+000	 1.448215879493655e+000	 1.107386309785574e+001
 1.136155845138731e+000	 1.460017087420660e+000	 1.093990191676182e+001
 1.121039830197621e+000	 1.471655428115688e+000	 1.080138061603556e+001
 1.105815213486885e+000	 1.483129365094002e+000	 1.065785769575392e+001
 1.090484663608378e+000	 1.494437418700419e+000	 1.050889610689472e+001
 1.075050875052352e+000	 1.505578166692977e+000	 1.035406314849210e+001
 1.059516566664012e+000	 1.516550244778170e+000	 1.019293035285044e+001
 1.043884480097980e+000	 1.527352347097408e+000	 1.002507336011250e+001
 1.028157378262487e+000	 1.537983226664468e+000	 9.850071783496340e+000
 1.012338043755057e+000	 1.548441695753725e+000	 9.667509066531567e+000
 1.181808987008709e+000	 1.455662226705354e+000	 1.132410675670641e+001
 1.166716841672418e+000	 1.467786364349831e+000	 1.118642925061908e+001
 1.151509302506204e+000	 1.479747048059251e+000	 1.104507581559975e+001
 1.136189017093162e+000	 1.491542663628260e+000	 1.089965915198627e+001
 1.120758662318988e+000	 1.503171653808812e+000	 1.074979614739032e+001
 1.105220942847726e+000	 1.514632518950385e+000	 1.059510770342073e+001
 1.089578589581657e+000	 1.525923817591530e+000	 1.043521854978308e+001
 1.073834358107138e+000	 1.537044167002341e+000	 1.026975704720257e+001
 1.057991027128178e+000	 1.547992243677491e+000	 1.009835498064059e+001
 1.042051396889605e+000	 1.558766783779593e+000	 9.920647344293812e+000
 1.026018287591614e+000	 1.569366583532674e+000	 9.736272119875601e+000
 1.197566440169497e+000	 1.475071056393418e+000	 1.136074541016173e+001
 1.182273066229095e+000	 1.487356849206002e+000	 1.121772690909329e+001
 1.166862759874319e+000	 1.499477008697823e+000	 1.107145877134066e+001
 1.151338203989368e+000	 1.511429899140787e+000	 1.092161206530783e+001
 1.135702111151751e+000	 1.523213942523541e+000	 1.076786171543263e+001
 1.119957222087697e+000	 1.534827619200224e+000	 1.060988624469812e+001
 1.104106304111520e+000	 1.546269468489901e+000	 1.044736750507099e+001
 1.088152149550725e+000	 1.557538089226265e+000	 1.027999039749241e+001
 1.072097574158711e+000	 1.568632140257253e+000	 1.010744258307219e+001
 1.055945415516903e+000	 1.579550340894311e+000	 9.929414187150188e+000
 1.039698531428165e+000	 1.590291471311120e+000	 9.745597497897229e+000
 1.213323893330786e+000	 1.494479886081482e+000	 1.131607989311494e+001
 1.197829290786359e+000	 1.506927334062168e+000	 1.117011063385705e+001
 1.182216217243073e+000	 1.519206969336373e+000	 1.102130606625335e+001
 1.166487390886239e+000	 1.531317134653268e+000	 1.086939531238403e+001
 1.150645559985172e+000	 1.543256231238189e+000	 1.071411104117649e+001
 1.134693501328291e+000	 1.555022719449937e+000	 1.055518912607265e+001
 1.118634018641939e+000	 1.566615119388090e+000	 1.039236829113600e+001
 1.102469940994773e+000	 1.578032011449942e+000	 1.022538974740909e+001
 1.086204121189579e+000	 1.589272036836692e+000	 1.005399682135198e+001
 1.069839434144381e+000	 1.600333898008621e+000	 9.877934577205316e+000
 1.053378775264711e+000	 1.611216359089064e+000	 9.696949435124253e+000
 1.229081346492577e+000	 1.513888715769546e+000	 1.119249268101546e+001
 1.213385515344209e+000	 1.526497818918328e+000	 1.104586809276406e+001
 1.197569674612469e+000	 1.538936929974904e+000	 1.089681043640131e+001
 1.181636577783775e+000	 1.551204370165703e+000	 1.074510662958657e+001
 1.165589008819253e+000	 1.563298519952757e+000	 1.059054684974257e+001
 1.149429780569508e+000	 1.575217819699524e+000	 1.043292410618546e+001
 1.133161733172916e+000	 1.586960770286098e+000	 1.027203380117122e+001
 1.116787732439283e+000	 1.598525933673372e+000	 1.010767328185678e+001
 1.100310668220784e+000	 1.609911933415809e+000	 9.939641385189850e+000
 1.083733452772039e+000	 1.621117455122524e+000	 9.767737977752489e+000
 1.067059019101252e+000	 1.632141246866505e+000	 9.591763492583691e+000
 1.244838799654869e+000	 1.533297545457611e+000	 1.099229950176042e+001
 1.228941739902645e+000	 1.546068303774485e+000	 1.084722429465959e+001
 1.212923131982505e+000	 1.558666890613415e+000	 1.070010603026376e+001
 1.196785764681976e+000	 1.571091605678093e+000	 1.055078921808645e+001
 1.180532457653993e+000	 1.583340808667244e+000	 1.039912136249244e+001
 1.164166059811349e+000	 1.595412919948985e+000	 1.024495244853677e+001
 1.147689447704450e+000	 1.607306421183923e+000	 1.008813441716205e+001
 1.131105523884254e+000	 1.619019855896555e+000	 9.928520631941694e+000
 1.114417215252323e+000	 1.630551829994604e+000	 9.765965339569434e+000
 1.097627471399877e+000	 1.641901012236019e+000	 9.600323126304549e+000
 1.080739262937787e+000	 1.653066134643443e+000	 9.431448372580551e+000
 1.260596252817662e+000	 1.552706375145675e+000	 1.081387618115548e+001
 1.244497964461667e+000	 1.565638788630635e+000	 1.057634550556882e+001
 1.228276589353182e+000	 1.578396851251904e+000	 1.043327207045911e+001
 1.211934951580842e+000	 1.590978841190437e+000	 1.028843515230374e+001
 1.195475906489392e+000	 1.603383097381649e+000	 1.014173945351375e+001
 1.178902339053813e+000	 1.615608020198319e+000	 9.993091827432050e+000
 1.162217162236540e+000	 1.627652072081567e+000	 9.842400666836182e+000
 1.145423315329686e+000	 1.639513778119491e+000	 9.689575284583796e+000
 1.128523762284198e+000	 1.651191726573076e+000	 9.534525288793146e+000
 1.111521490027895e+000	 1.662684569349107e+000	 9.377159954955133e+000
 1.094419506774317e+000	 1.673991022419878e+000	 9.217387597367821e+000
 9.576170684087774e-001	 1.464742144632903e+000	 8.767677142854314e+000
 9.425682352647938e-001	 1.474471132926832e+000	 8.659456512220624e+000
 9.274374692974090e-001	 1.484034952587418e+000	 8.546109636850833e+000
 9.122274496350906e-001	 1.493432649999157e+000	 8.427350363509534e+000
 8.969408680658606e-001	 1.502663328606234e+000	 8.302890551304321e+000
 8.815804275427316e-001	 1.511726149046811e+000	 8.172439920076831e+000
 8.661488406911885e-001	 1.520620329241137e+000	 8.035705905661972e+000
 8.506488283203392e-001	 1.529345144433827e+000	 7.892393523014675e+000
 8.350831179393492e-001	 1.537899927190630e+000	 7.742205238162068e+000
 8.194544422807419e-001	 1.546284067350165e+000	 7.584840849894661e+000
 8.037655378321177e-001	 1.554497011931069e+000	 7.419997382060517e+000
 9.712973122453553e-001	 1.485667032413862e+000	 9.089479002306240e+000
 9.560334957715676e-001	 1.495535006255741e+000	 8.983787040134182e+000
 9.406865760053216e-001	 1.505235451912260e+000	 8.872260819689183e+000
 9.252592703483489e-001	 1.514767402144833e+000	 8.754580337208672e+000
 9.097543090427869e-001	 1.524129947589711e+000	 8.630424647344842e+000
 8.941744336552631e-001	 1.533322236894168e+000	 8.499471714879622e+000
 8.785223955630551e-001	 1.542343476805889e+000	 8.361398271897603e+000
 8.628009544439742e-001	 1.551192932215838e+000	 8.215879681464424e+000
 8.470128767716021e-001	 1.559869926154992e+000	 8.062589808821507e+000
 8.311609343174988e-001	 1.568373839745379e+000	 7.901200901062487e+000
 8.152479026619462e-001	 1.576704112105899e+000	 7.731383476210201e+000
 9.849775560819279e-001	 1.506591920194319e+000	 9.345657680970499e+000
 9.694987562781512e-001	 1.516598879584058e+000	 9.241007921111544e+000
 9.539356827128893e-001	 1.526435951236438e+000	 9.129851649390572e+000
 9.382910910611386e-001	 1.536102154289799e+000	 9.011836400776845e+000
 9.225677500191511e-001	 1.545596566572448e+000	 8.886609788110022e+000
 9.067684397671688e-001	 1.554918324740777e+000	 8.753819355317532e+000
 8.908959504342630e-001	 1.564066624369903e+000	 8.613112434727514e+000
 8.749530805669459e-001	 1.573040719997142e+000	 8.464136009579432e+000
 8.589426356032175e-001	 1.581839925118697e+000	 8.306536582797197e+000
 8.428674263536745e-001	 1.590463612140005e+000	 8.139960053047190e+000
 8.267302674912782e-001	 1.598911212280233e+000	 7.964051599056038e+000
 9.986577999184951e-001	 1.527516807974274e+000	 9.537813465898395e+000
 9.829640167845446e-001	 1.537662752911782e+000	 9.432778315015863e+000
 9.671847894201128e-001	 1.547636450559955e+000	 9.320598641295799e+000
 9.513229117734601e-001	 1.557436906434053e+000	 9.200890897447362e+000
 9.353811909949530e-001	 1.567063185554444e+000	 9.073272607973111e+000
 9.193624458784483e-001	 1.576514412586634e+000	 8.937362222055064e+000
 9.032695053048108e-001	 1.585789771933177e+000	 8.792778969222860e+000
 8.871052066892545e-001	 1.594888507777738e+000	 8.639142718963502e+000
 8.708723944341962e-001	 1.603809924081746e+000	 8.476073845394785e+000
 8.545739183892688e-001	 1.612553384534045e+000	 8.303193098085014e+000
 8.382126323201147e-001	 1.621118312454072e+000	 8.120121480054932e+000
 1.012338043755057e+000	 1.548441695753725e+000	 9.667509066531567e+000
 9.964292772907482e-001	 1.558726626238913e+000	 9.560715658937074e+000
 9.804338961269921e-001	 1.568836949882811e+000	 9.446172510561040e+000
 9.643547324853131e-001	 1.578771658577597e+000	 9.323466362303419e+000
 9.481946319701924e-001	 1.588529804535698e+000	 9.192185996277562e+000
 9.319564519891022e-001	 1.598110500431744e+000	 9.051922086519168e+000
 9.156430601746993e-001	 1.607512919495713e+000	 8.902267051212304e+000
 8.992573328108996e-001	 1.616736295557627e+000	 8.742814907650081e+000
 8.828021532645374e-001	 1.625779923044137e+000	 8.573161131116295e+000
 8.662804104242817e-001	 1.634643156927498e+000	 8.392902518831267e+000
 8.496949971484549e-001	 1.643325412627414e+000	 8.201637060062595e+000
 1.026018287591614e+000	 1.569366583532674e+000	 9.736272119875601e+000
 1.009894537796761e+000	 1.579790499565452e+000	 9.626398448709507e+000
 9.936830028335265e-001	 1.590037449205004e+000	 9.508201225503132e+000
 9.773865531966974e-001	 1.600106410720428e+000	 9.381238842821528e+000
 9.610080729448697e-001	 1.609996423516213e+000	 9.245072680339190e+000
 9.445504580991300e-001	 1.619706588276103e+000	 9.099266951515423e+000
 9.280166150439282e-001	 1.629236067057511e+000	 8.943388550564519e+000
 9.114094589318817e-001	 1.638584083336808e+000	 8.777006901006550e+000
 8.947319120942419e-001	 1.647749922005872e+000	 8.599693807047370e+000
 8.779869024587131e-001	 1.656732929320366e+000	 8.411023308999216e+000
 8.611773619762990e-001	 1.665532512800259e+000	 8.210571543907266e+000
 1.039698531428165e+000	 1.590291471311120e+000	 9.745597497897229e+000
 1.023359798302585e+000	 1.600854372891399e+000	 9.631368800836773e+000
 1.006932109539717e+000	 1.611237948526535e+000	 9.508272819892158e+000
 9.904183739076133e-001	 1.621441162862548e+000	 9.375840957266400e+000
 9.738215139189845e-001	 1.631463042495988e+000	 9.233608525579603e+000
 9.571444642085322e-001	 1.641302676119713e+000	 9.081114588636808e+000
 9.403901699124976e-001	 1.650959214618570e+000	 8.917901801317292e+000
 9.235615850522009e-001	 1.660431871115281e+000	 8.743516249936054e+000
 9.066616709233090e-001	 1.669719920966950e+000	 8.557507294397961e+000
 8.896933944925634e-001	 1.678822701712647e+000	 8.359427413422226e+000
 8.726597268036471e-001	 1.687739612972610e+000	 8.148832054075385e+000
 1.053378775264711e+000	 1.611216359089064e+000	 9.696949435124253e+000
 1.036825058808218e+000	 1.621918246216753e+000	 9.577134814786025e+000
 1.020181216245563e+000	 1.632438447847403e+000	 9.447937986103257e+000
 1.003450194618061e+000	 1.642775915003957e+000	 9.308864714770024e+000
 9.866349548925373e-001	 1.652929661475022e+000	 9.159425578506117e+000
 9.697384703173082e-001	 1.662898763962574e+000	 8.999135800031306e+000
 9.527637247804074e-001	 1.672682362178891e+000	 8.827515078030137e+000
 9.357137111718565e-001	 1.682279658893047e+000	 8.644087417531233e+000
 9.185914297517390e-001	 1.691689919927371e+000	 8.448380961091038e+000
 9.013998865258323e-001	 1.700912474104342e+000	 8.239927822136378e+000
 8.841420916304991e-001	 1.709946713144463e+000	 8.018263921773141e+000
 1.067059019101252e+000	 1.632141246866505e+000	 9.591763492583691e+000
 1.050290319313661e+000	 1.642982119541515e+000	 9.465172753566888e+000
 1.033430322951064e+000	 1.653638947167610e+000	 9.328712468795999e+000
 1.016482015328040e+000	 1.664110667144655e+000	 9.181864118480792e+000
 9.994483958655278e-001	 1.674396280453315e+000	 9.024114875616641e+000
 9.823324764254584e-001	 1.684494851804685e+000	 8.854957429263022e+000
 9.651372796476581e-001	 1.694405509738473e+000	 8.673889804725215e+000
 9.478658372908492e-001	 1.704127446670105e+000	 8.480415182138563e+000
 9.305211885795318e-001	 1.713659918887135e+000	 8.274041714922932e+000
 9.131063785585197e-001	 1.723002246495451e+000	 8.054282349534880e+000
 8.956244564568551e-001	 1.732153813315821e+000	 7.820654647905710e+000
 1.080739262937787e+000	 1.653066134643443e+000	 9.431448372580551e+000
 1.063755579818914e+000	 1.664045992865685e+000	 9.296929058697472e+000
 1.046679429656221e+000	 1.674839446487155e+000	 9.152079276795108e+000
 1.029513836037550e+000	 1.685445419284641e+000	 8.996357571005563e+000
 1.012261836837956e+000	 1.695862899430868e+000	 8.829229038969794e+000
 9.949264825329823e-001	 1.706090939646046e+000	 8.650165143501781e+000
 9.775108345142487e-001	 1.716128657297317e+000	 8.458643520111028e+000
 9.600179634091781e-001	 1.725975234446456e+000	 8.254147781962969e+000
 9.424509474066878e-001	 1.735629917846243e+000	 8.036167323823385e+000
 9.248128705906260e-001	 1.745092018885973e+000	 7.804197126496748e+000
 9.071068212827147e-001	 1.754360913486683e+000	 7.557737563223038e+000
 1.094419506774317e+000	 1.673991022419878e+000	 9.217387597367821e+000
 1.077220840323977e+000	 1.685109866189261e+000	 9.073822214047182e+000
 1.059928536361034e+000	 1.696039945806038e+000	 8.919490729080083e+000
 1.042545656746592e+000	 1.706780171423916e+000	 8.753830099443549e+000
 1.025075277809822e+000	 1.717329518407680e+000	 8.576284677087223e+000
 1.007520488639881e+000	 1.727687027486658e+000	 8.386306007047043e+000
 9.898843893801798e-001	 1.737851804855421e+000	 8.183352620414727e+000
 9.721700895268441e-001	 1.747823022222099e+000	 7.966889823826233e+000
 9.543807062332064e-001	 1.757599916804693e+000	 7.736389487098223e+000
 9.365193626221506e-001	 1.767181791275909e+000	 7.491329830606595e+000
 9.185891861080785e-001	 1.776568013657048e+000	 7.231195213954546e+000
 8.037655378321177e-001	 1.554497011931069e+000	 7.419997382060517e+000
 7.880191433779774e-001	 1.562538264995355e+000	 7.241956808314650e+000
 7.722179985526132e-001	 1.570407387467961e+000	 7.076191753791565e+000
 7.563648424060112e-001	 1.578103996913506e+000	 6.922569726951751e+000
 7.404624119843859e-001	 1.585627767271441e+000	 6.780934202173926e+000
 7.245134409262326e-001	 1.592978428549761e+000	 6.651104644048036e+000
 7.085206580754377e-001	 1.600155766478270e+000	 6.532876572435837e+000
 6.924867861127356e-001	 1.607159622122281e+000	 6.426021668212490e+000
 6.764145402067767e-001	 1.613989891457657e+000	 6.330287919502915e+000
 6.603066266860092e-001	 1.620646524908150e+000	 6.245399808108957e+000
 6.441657417325339e-001	 1.627129526846032e+000	 6.171058535724631e+000
 8.152479026619462e-001	 1.576704112105899e+000	 7.731383476210201e+000
 7.992765597150681e-001	 1.584860240213809e+000	 7.562387371327822e+000
 7.832496842489194e-001	 1.592841778721614e+000	 7.404745866428871e+000
 7.671700544427713e-001	 1.600648339730568e+000	 7.258339998409713e+000
 7.510404464434980e-001	 1.608279592522115e+000	 7.123027133188545e+000
 7.348636329415730e-001	 1.615735263247221e+000	 6.998640951192487e+000
 7.186423817643655e-001	 1.623015134574688e+000	 6.884991474075671e+000
 7.023794544880488e-001	 1.630119045299332e+000	 6.781865132669522e+000
 6.860776050693965e-001	 1.637046889910957e+000	 6.689024876055230e+000
 6.697395784986904e-001	 1.643798618125084e+000	 6.606210321535250e+000
 6.533681094749184e-001	 1.650374234376445e+000	 6.533137945171017e+000
 8.267302674912782e-001	 1.598911212280233e+000	 7.964051599056038e+000
 8.105339760517525e-001	 1.607182215431857e+000	 7.804649435535068e+000
 7.942813699448886e-001	 1.615276169974930e+000	 7.655724137069131e+000
 7.779752664792434e-001	 1.623192682547341e+000	 7.517170597842958e+000
 7.616184809023511e-001	 1.630931417772530e+000	 7.388860371100573e+000
 7.452138249566627e-001	 1.638492097944431e+000	 7.270641615158737e+000
 7.287641054530313e-001	 1.645874502670843e+000	 7.162339081174299e+000
 7.122721228630689e-001	 1.653078468476088e+000	 7.063754142753065e+000
 6.957406699316717e-001	 1.660103888363913e+000	 6.974664867372275e+000
 6.791725303109568e-001	 1.666950711341602e+000	 6.894826129469418e+000
 6.625704772167977e-001	 1.673618941906352e+000	 6.823969764939266e+000
 8.382126323201147e-001	 1.621118312454072e+000	 8.120121480054932e+000
 8.217913923880305e-001	 1.629504190649500e+000	 7.970839545841460e+000
 8.053130556405208e-001	 1.637710561227909e+000	 7.831198561482911e+000
 7.887804785154277e-001	 1.645737025363827e+000	 7.701107636804516e+000
 7.721965153609446e-001	 1.653583243022685e+000	 7.580452838214408e+000
 7.555640169715016e-001	 1.661248932641390e+000	 7.469097094531947e+000
 7.388858291414354e-001	 1.668733870766737e+000	 7.366880145154762e+000
 7.221647912377959e-001	 1.676037891652553e+000	 7.273618530735789e+000
 7.054037347936031e-001	 1.683160886816524e+000	 7.189105626426267e+000
 6.886054821228080e-001	 1.690102804557706e+000	 7.113111717615739e+000
 6.717728449581719e-001	 1.696863649435754e+000	 7.045384117984053e+000
 8.496949971484549e-001	 1.643325412627414e+000	 8.201637060062595e+000
 8.330488087239021e-001	 1.651826165866735e+000	 8.062978657834234e+000
 8.163447413358160e-001	 1.660144952480551e+000	 7.933165816341568e+000
 7.995856905513239e-001	 1.668281368180025e+000	 7.812122248430021e+000
 7.827745498192792e-001	 1.676235068272581e+000	 7.699748889046956e+000
 7.659142089860902e-001	 1.684005767338098e+000	 7.595923760135480e+000
 7.490075528295773e-001	 1.691593238862369e+000	 7.500501878508383e+000
 7.320574596122299e-001	 1.698997314828725e+000	 7.413315206963682e+000
 7.150667996551902e-001	 1.706217885268792e+000	 7.334172648778167e+000
 6.980384339342446e-001	 1.713254897773396e+000	 7.262860085591921e+000
 6.809752126990409e-001	 1.720108356964651e+000	 7.199140458571080e+000
 8.611773619762990e-001	 1.665532512800259e+000	 8.210571543907266e+000
 8.443062250593676e-001	 1.674148141083565e+000	 8.083017177070321e+000
 8.273764270307743e-001	 1.682579343732855e+000	 7.963552280491004e+000
 8.103909025869323e-001	 1.690825710995935e+000	 7.852115585998944e+000
 7.933525842773548e-001	 1.698886893522218e+000	 7.748623281514115e+000
 7.762644010004286e-001	 1.706762602034556e+000	 7.652968834215474e+000
 7.591292765174578e-001	 1.714452606957738e+000	 7.565022857390467e+000
 7.419501279863707e-001	 1.721956738004602e+000	 7.484633021318143e+000
 7.247298645164333e-001	 1.729274883720716e+000	 7.411624008405133e+000
 7.074713857452664e-001	 1.736406990988670e+000	 7.345797512667514e+000
 6.901775804394048e-001	 1.743353064493043e+000	 7.286932283522932e+000
 8.726597268036471e-001	 1.687739612972610e+000	 8.148832054075385e+000
 8.555636413944262e-001	 1.696470116299987e+000	 8.032839600525957e+000
 8.384081127253956e-001	 1.705013734984823e+000	 7.924218659808656e+000
 8.211961146222525e-001	 1.713370053811557e+000	 7.822923426872610e+000
 8.039306187351712e-001	 1.721538718771596e+000	 7.728885755654113e+000
 7.866145930145163e-001	 1.729519436730763e+000	 7.642014939689022e+000
 7.692510002050763e-001	 1.737311975052847e+000	 7.562197537168393e+000
 7.518427963602182e-001	 1.744916161180188e+000	 7.489297240878319e+000
 7.343929293773319e-001	 1.752331882172295e+000	 7.423154793331070e+000
 7.169043375558730e-001	 1.759559084203529e+000	 7.363587947260982e+000
 6.993799481792635e-001	 1.766597772020930e+000	 7.310391471524429e+000
 8.841420916304991e-001	 1.709946713144463e+000	 8.018263921773141e+000
 8.668210577290790e-001	 1.718792091516004e+000	 7.914268796374794e+000
 8.494397984196800e-001	 1.727448126236454e+000	 7.816964251681549e+000
 8.320013266572851e-001	 1.735914396626891e+000	 7.726320417683390e+000
 8.145086531927284e-001	 1.744190544020715e+000	 7.642285255567459e+000
 7.969647850283536e-001	 1.752276271426720e+000	 7.564784294906231e+000
 7.793727238924330e-001	 1.760171343147694e+000	 7.493720416109466e+000
 7.617354647337727e-001	 1.767875584355480e+000	 7.428973678673764e+000
 7.440559942378868e-001	 1.775388880623530e+000	 7.370401195623412e+000
 7.263372893660650e-001	 1.782711177417973e+000	 7.317837054397349e+000
 7.085823159186171e-001	 1.789842479548311e+000	 7.271092284300365e+000
 8.956244564568551e-001	 1.732153813315821e+000	 7.820654647905710e+000
 8.780784740633255e-001	 1.741114066731615e+000	 7.729069954551658e+000
 8.604714841136274e-001	 1.749882517487748e+000	 7.643530881448550e+000
 8.428065386920294e-001	 1.758458739441937e+000	 7.564023992971576e+000
 8.250866876500261e-001	 1.766842369269574e+000	 7.490513826592902e+000
 8.073149770419402e-001	 1.775033106122427e+000	 7.422942585737225e+000
 7.894944475795276e-001	 1.783030711242278e+000	 7.361229878784444e+000
 7.716281331070344e-001	 1.790835007530478e+000	 7.305272504842409e+000
 7.537190590980973e-001	 1.798445879074421e+000	 7.254944286775155e+000
 7.357702411758421e-001	 1.805863270632003e+000	 7.210095951822954e+000
 7.177846836574655e-001	 1.813087187075188e+000	 7.170555060010400e+000
 9.071068212827147e-001	 1.754360913486683e+000	 7.557737563223038e+000
 8.893358903971655e-001	 1.763436041946819e+000	 7.478954237274667e+000
 8.715031698072377e-001	 1.772316908738705e+000	 7.405606539871418e+000
 8.536117507264860e-001	 1.781003082256695e+000	 7.337697996203862e+000
 8.356647221070652e-001	 1.789494194518175e+000	 7.275210216494486e+000
 8.176651690552765e-001	 1.797789940817883e+000	 7.218102543577790e+000
 7.996161712663608e-001	 1.805890079336600e+000	 7.166311747567502e+000
 7.815208014800027e-001	 1.813794430705184e+000	 7.119751768331765e+000
 7.633821239579636e-001	 1.821502877524968e+000	 7.078313506348660e+000
 7.452031929852043e-001	 1.829015363845618e+000	 7.041864662365187e+000
 7.269870513958089e-001	 1.836331894601559e+000	 7.010249626132752e+000
 9.185891861080785e-001	 1.776568013657048e+000	 7.231195213954546e+000
 9.005933067305993e-001	 1.785758017161617e+000	 7.165582155777220e+000
 8.825348555005111e-001	 1.794751299989325e+000	 7.104828747795850e+000
 8.644169627606544e-001	 1.803547425071165e+000	 7.048956029214708e+000
 8.462427565638450e-001	 1.812146019766516e+000	 6.997963206560177e+000
 8.280153610683619e-001	 1.820546775513088e+000	 6.951827255003598e+000
 8.097378949529317e-001	 1.828749447430662e+000	 6.910502567773539e+000
 7.914134698526779e-001	 1.836753853879597e+000	 6.873920654473521e+000
 7.730451888174857e-001	 1.844559875975171e+000	 6.841989888971190e+000
 7.546361447941516e-001	 1.852167457058818e+000	 6.814595307364629e+000
 7.361894191336470e-001	 1.859576602127425e+000	 6.791598456381983e+000
 6.441657417325339e-001	 1.627129526846032e+000	 6.171058535724631e+000
 6.279945700989932e-001	 1.633438955056451e+000	 5.850142166525118e+000
 6.117957838498271e-001	 1.639574920168338e+000	 5.564843210615455e+000
 5.955720411275246e-001	 1.645537585051869e+000	 5.317484198886073e+000
 5.793259849448744e-001	 1.651327164182347e+000	 5.106279895787642e+000
 5.630602420043449e-001	 1.656943922973434e+000	 4.928666118837881e+000
 5.467774215453342e-001	 1.662388177080358e+000	 4.782157068233107e+000
 5.304801142200817e-001	 1.667660291674265e+000	 4.664348529646524e+000
 5.141708909989884e-001	 1.672760680688981e+000	 4.572920813743947e+000
 4.978523021060256e-001	 1.677689806041381e+000	 4.505641431872171e+000
 4.815268759848673e-001	 1.682448176826651e+000	 4.460367508134185e+000
 6.533681094749184e-001	 1.650374234376445e+000	 6.533137945171017e+000
 6.369659211041965e-001	 1.656773797275656e+000	 6.222026389131113e+000
 6.205357236231793e-001	 1.662997419032029e+000	 5.950826170464097e+000
 6.040802131478212e-001	 1.669045264842459e+000	 5.717901268553463e+000
 5.876020704482374e-001	 1.674917552246178e+000	 5.520278771541745e+000
 5.711039597512188e-001	 1.680614550448476e+000	 5.355300477614795e+000
 5.545885275710121e-001	 1.686136579613939e+000	 5.220390902777803e+000
 5.380584015691767e-001	 1.691484010130446e+000	 5.113060596578497e+000
 5.215161894442625e-001	 1.696657261845163e+000	 5.030909182607470e+000
 5.049644778520135e-001	 1.701656803273777e+000	 4.971628123254797e+000
 4.884058313567285e-001	 1.706483150784262e+000	 4.933003208989623e+000
 6.625704772167977e-001	 1.673618941906352e+000	 6.823969764939266e+000
 6.459372721088099e-001	 1.680108639494266e+000	 6.525742552697598e+000
 6.292756633958880e-001	 1.686419917895057e+000	 6.268712244079641e+000
 6.125883851674517e-001	 1.692552944632335e+000	 6.054810449831557e+000
 5.958781559509419e-001	 1.698507940309268e+000	 5.876607853100004e+000
 5.791476774974711e-001	 1.704285177922769e+000	 5.729961111519387e+000
 5.623996335961363e-001	 1.709884982146782e+000	 5.612199245208372e+000
 5.456366889178153e-001	 1.715307728585921e+000	 5.520742011551542e+000
 5.288614878892073e-001	 1.720553843000689e+000	 5.453103050531486e+000
 5.120766535978284e-001	 1.725623800505588e+000	 5.406892741886479e+000
 4.952847867286022e-001	 1.730518124741380e+000	 5.379820774421587e+000
 6.717728449581719e-001	 1.696863649435754e+000	 7.045384117984053e+000
 6.549086231128336e-001	 1.703443481712282e+000	 6.762999546627029e+000
 6.380156031679536e-001	 1.709842416757420e+000	 6.523103341439146e+000
 6.210965571864152e-001	 1.716060624421499e+000	 6.327420196916672e+000
 6.041542414529868e-001	 1.722098328371618e+000	 6.174476667693615e+000
 5.871913952431019e-001	 1.727955805396312e+000	 6.051857956864861e+000
 5.702107396207070e-001	 1.733633384678889e+000	 5.956791721282163e+000
 5.532149762659975e-001	 1.739131447040689e+000	 5.886601316949728e+000
 5.362067863338227e-001	 1.744450424155561e+000	 5.838709053080160e+000
 5.191888293434702e-001	 1.749590797736816e+000	 5.810639145030152e+000
 5.021637421004885e-001	 1.754553098698004e+000	 5.800020366505067e+000
 6.809752126990409e-001	 1.720108356964651e+000	 7.199140458571080e+000
 6.638799741162675e-001	 1.726778323929701e+000	 6.935441111527815e+000
 6.467555429393755e-001	 1.733264915619120e+000	 6.715506693794245e+000
 6.296047292047127e-001	 1.739568304209950e+000	 6.539129318718836e+000
 6.124303269543728e-001	 1.745688716433225e+000	 6.413045695640521e+000
 5.952351129881115e-001	 1.751626432869106e+000	 6.320157111454939e+000
 5.780218456447236e-001	 1.757381787210257e+000	 6.253339244231167e+000
 5.607932636137233e-001	 1.762955165494752e+000	 6.209813384510677e+000
 5.435520847781089e-001	 1.768347005309777e+000	 6.186905111330540e+000
 5.263010050889393e-001	 1.773557794967459e+000	 6.182047344354738e+000
 5.090426974723873e-001	 1.778588072654134e+000	 6.192783081871339e+000
 6.901775804394048e-001	 1.743353064493043e+000	 7.286932283522932e+000
 6.728513251191122e-001	 1.750113166146527e+000	 7.044650182467210e+000
 6.554954827101545e-001	 1.756687414480155e+000	 6.847396060669975e+000
 6.381129012223437e-001	 1.763075983997688e+000	 6.695005464697418e+000
 6.207064124550999e-001	 1.769279104494092e+000	 6.591429640139940e+000
 6.032788307324996e-001	 1.775297060341149e+000	 6.533983757152287e+000
 5.858329516681865e-001	 1.781130189740887e+000	 6.500976595597294e+000
 5.683715509609929e-001	 1.786778883948108e+000	 6.489521660035813e+000
 5.508973832220657e-001	 1.792243586463340e+000	 6.496842346171853e+000
 5.334131808342354e-001	 1.797524792197518e+000	 6.520275095641652e+000
 5.159216528442988e-001	 1.802623046609771e+000	 6.557272222737870e+000
 6.993799481792635e-001	 1.766597772020930e+000	 7.310391471524429e+000
 6.818226761213673e-001	 1.773448008362758e+000	 7.092152889335686e+000
 6.642354224802897e-001	 1.780109913340527e+000	 6.920193143972018e+000
 6.466210732393083e-001	 1.786583663784714e+000	 6.794390890851219e+000
 6.289824979551680e-001	 1.792869492554218e+000	 6.714566235490545e+000
 6.113225484762662e-001	 1.798967687812444e+000	 6.692424851716126e+000
 5.936440576910957e-001	 1.804878592270780e+000	 6.698804802317024e+000
 5.759498383078062e-001	 1.810602602400758e+000	 6.724840230885432e+000
 5.582426816656934e-001	 1.816140167616246e+000	 6.767646841475462e+000
 5.405253565793585e-001	 1.821491789426993e+000	 6.824459362987577e+000
 5.228006082162227e-001	 1.826658020564913e+000	 6.892634467593420e+000
 7.085823159186171e-001	 1.789842479548311e+000	 7.271092284300365e+000
 6.907940271230324e-001	 1.796782850578394e+000	 7.079422245495053e+000
 6.729753622497819e-001	 1.803532412200234e+000	 6.935270968352021e+000
 6.551292452556067e-001	 1.810091343571027e+000	 6.838559939574018e+000
 6.372585834545769e-001	 1.816459880613602e+000	 6.789149594681147e+000
 6.193662662194115e-001	 1.822638315282988e+000	 6.794531610887210e+000
 6.014551637134511e-001	 1.828626994799934e+000	 6.845893328579248e+000
 5.835281256541632e-001	 1.834426320852702e+000	 6.914855732371989e+000
 5.655879801089915e-001	 1.840036748768498e+000	 6.998421269875697e+000
 5.476375323243088e-001	 1.845458786655884e+000	 7.093717668914340e+000
 5.296795635881594e-001	 1.850692994519563e+000	 7.198000950660883e+000
 7.177846836574655e-001	 1.813087187075188e+000	 7.170555060010400e+000
 6.997653781241079e-001	 1.820117692793435e+000	 7.007881552683748e+000
 6.817153020186306e-001	 1.826954911059278e+000	 6.893957001543796e+000
 6.636374172712383e-001	 1.833599023356627e+000	 6.828745492322088e+000
 6.455346689533268e-001	 1.840050268672245e+000	 6.812147555781277e+000
 6.274099839619352e-001	 1.846308942752784e+000	 6.844000734599248e+000
 6.092662697352527e-001	 1.852375397328350e+000	 6.941282099078109e+000
 5.911064130000636e-001	 1.858250039303940e+000	 7.058629107506146e+000
 5.729332785519605e-001	 1.863933329920095e+000	 7.188246393489911e+000
 5.547497080690861e-001	 1.869425783884191e+000	 7.327149340623612e+000
 5.365585189601084e-001	 1.874727968473718e+000	 7.472488258324600e+000
 7.269870513958089e-001	 1.836331894601559e+000	 7.010249626132752e+000
 7.087367291245936e-001	 1.843452535007881e+000	 6.878907547322346e+000
 6.904552417868359e-001	 1.850377409917658e+000	 6.797536037713285e+000
 6.721455892862036e-001	 1.857106703141514e+000	 6.766141593723535e+000
 6.538107544514177e-001	 1.863640656730146e+000	 6.784664649211101e+000
 6.354537017038378e-001	 1.869979570221829e+000	 6.852980117962187e+000
 6.170773757565004e-001	 1.876123799856030e+000	 6.918853811423343e+000
 5.986847003455080e-001	 1.882073757754471e+000	 6.744164846414911e+000
 5.802785769946002e-001	 1.887829911071037e+000	 6.591881702037616e+000
 5.618618838136904e-001	 1.893392781111915e+000	 6.463068088576234e+000
 5.434374743320700e-001	 1.898762942427380e+000	 6.358649405500954e+000
 7.361894191336470e-001	 1.859576602127425e+000	 6.791598456381983e+000
 7.177080801244898e-001	 1.866787377221733e+000	 6.693833310845830e+000
 6.991951815543979e-001	 1.873799908775373e+000	 6.647252864555667e+000
 6.806537613005025e-001	 1.880614382925689e+000	 6.335108895165020e+000
 6.620868399488495e-001	 1.887231044787307e+000	 6.011595150584099e+000
 6.434974194451185e-001	 1.893650197690125e+000	 5.744873504696423e+000
 6.248884817771946e-001	 1.899872202382971e+000	 5.536166957364910e+000
 6.062629876904958e-001	 1.905897476204296e+000	 5.410667753618883e+000
 5.876238754369104e-001	 1.911726492221324e+000	 5.309831401754516e+000
 5.689740595581216e-001	 1.917359778339053e+000	 5.234832253537125e+000
 5.503164297040443e-001	 1.922797916380548e+000	 5.186699341621396e+000
 4.815268759848673e-001	 1.682448176826651e+000	 4.460367508134185e+000
 4.651971182959880e-001	 1.687036348490034e+000	 4.360470706205414e+000
 4.488655109461449e-001	 1.691454921975343e+000	 4.271031940497911e+000
 4.325345111503017e-001	 1.695704542852121e+000	 4.190271528734201e+000
 4.162065505255864e-001	 1.699785900423492e+000	 4.116512619260967e+000
 3.998840342185866e-001	 1.703699726814957e+000	 4.048182117931268e+000
 3.835693400660090e-001	 1.707446796045747e+000	 3.983811363412234e+000
 3.672648177889564e-001	 1.711027923084024e+000	 3.922036556097896e+000
 3.509727882210215e-001	 1.714443962887209e+000	 3.861598946336204e+000
 3.346955425703510e-001	 1.717695809428702e+000	 3.801344788170504e+000
 3.184353417157770e-001	 1.720784394712270e+000	 3.740225065255314e+000
 4.884058313567285e-001	 1.706483150784262e+000	 4.933003208989623e+000
 4.718427914142042e-001	 1.711136867756843e+000	 4.837500967030461e+000
 4.552778753871787e-001	 1.715618563720287e+000	 4.750134952882747e+000
 4.387135755936854e-001	 1.719928893466560e+000	 4.669050098907611e+000
 4.221523583882384e-001	 1.724068556145973e+000	 4.592500201235051e+000
 4.055966632766609e-001	 1.728038294342964e+000	 4.518848863786727e+000
 3.890489020647540e-001	 1.731838893134178e+000	 4.446570178468698e+000
 3.725114580410631e-001	 1.735471179130182e+000	 4.374249147001260e+000
 3.559866851939451e-001	 1.738936019502071e+000	 4.300581850404391e+000
 3.394769074630900e-001	 1.742234320994296e+000	 4.224375372672671e+000
 3.229844180255973e-001	 1.745367028924961e+000	 4.144547485651900e+000
 4.952847867286022e-001	 1.730518124741380e+000	 5.379820774421587e+000
 4.784884645326171e-001	 1.735237387023252e+000	 5.292159818681630e+000
 4.616902398285628e-001	 1.739782205464916e+000	 5.210162610287374e+000
 4.448926400375421e-001	 1.744153244080758e+000	 5.131895072036352e+000
 4.280981662514560e-001	 1.748351211868278e+000	 5.055538275778402e+000
 4.113092923353628e-001	 1.752376861870848e+000	 4.979389404001257e+000
 3.945284640641586e-001	 1.756230990222532e+000	 4.901862434889337e+000
 3.777580982938318e-001	 1.759914435176296e+000	 4.821488556620712e+000
 3.610005821675032e-001	 1.763428076116914e+000	 4.736916317241598e+000
 3.442582723564071e-001	 1.766772832559885e+000	 4.646911516995906e+000
 3.275334943359103e-001	 1.769949663137652e+000	 4.550356850489855e+000
 5.021637421004885e-001	 1.754553098698004e+000	 5.800020366505067e+000
 4.851341376512272e-001	 1.759337906289263e+000	 5.723695544581907e+000
 4.681026042702975e-001	 1.763945847209230e+000	 5.650409226732758e+000
 4.510717044818723e-001	 1.768377594694717e+000	 5.578144650871405e+000
 4.340439741152393e-001	 1.772633867590408e+000	 5.505006744919056e+000
 4.170219213946925e-001	 1.776715429398611e+000	 5.429223106381772e+000
 4.000080260642230e-001	 1.780623087310807e+000	 5.349144692257016e+000
 3.830047385472624e-001	 1.784357691222366e+000	 5.263246225341925e+000
 3.660144791416964e-001	 1.787920132731738e+000	 5.170126323613978e+000
 3.490396372503025e-001	 1.791311344125469e+000	 5.068507359921088e+000
 3.320825706467159e-001	 1.794532297350343e+000	 4.957235059736027e+000
 5.090426974723873e-001	 1.778588072654134e+000	 6.192783081871339e+000
 4.917798107700342e-001	 1.783438425554874e+000	 6.131339199945238e+000
 4.745149687123827e-001	 1.788109488953231e+000	 6.070153692755000e+000
 4.572507689266760e-001	 1.792601945308436e+000	 6.007123386367819e+000
 4.399897819795881e-001	 1.796916523312362e+000	 5.940273597045267e+000
 4.227345504546500e-001	 1.801053996926252e+000	 5.867759129247153e+000
 4.054875880649472e-001	 1.805015184399005e+000	 5.787864970367796e+000
 3.882513788013552e-001	 1.808800947268393e+000	 5.699006688592891e+000
 3.710283761165242e-001	 1.812412189346542e+000	 5.599730540893371e+000
 3.538210021447761e-001	 1.815849855691048e+000	 5.488713298761947e+000
 3.366316469580142e-001	 1.819114931563034e+000	 5.364761799838080e+000
 5.159216528442988e-001	 1.802623046609771e+000	 6.557272222737870e+000
 4.984254838890382e-001	 1.807538944820087e+000	 6.514305760324376e+000
 4.809273331548185e-001	 1.812273130696917e+000	 6.468660503637178e+000
 4.634298333719529e-001	 1.816826295921914e+000	 6.418143087803983e+000
 4.459355898445027e-001	 1.821199179034140e+000	 6.360695701148002e+000
 4.284471795152351e-001	 1.825392564453770e+000	 6.294397102060750e+000
 4.109671500663312e-001	 1.829407281487125e+000	 6.217463318549597e+000
 3.934980190561099e-001	 1.833244203314375e+000	 6.128248037174314e+000
 3.760422730919868e-001	 1.836904245961326e+000	 6.025242688749703e+000
 3.586023670398280e-001	 1.840388367256623e+000	 5.907076238796083e+000
 3.411807232698052e-001	 1.843697565775724e+000	 5.772514691292365e+000
 5.228006082162227e-001	 1.826658020564913e+000	 6.892634467593420e+000
 5.050711570082394e-001	 1.831639464084900e+000	 6.871795179483044e+000
 4.873396975976047e-001	 1.836436772440289e+000	 6.845180706466095e+000
 4.696088978177030e-001	 1.841050646535153e+000	 6.810503661050264e+000
 4.518813977099829e-001	 1.845481834755742e+000	 6.765619538360411e+000
 4.341598085764480e-001	 1.849731131981168e+000	 6.708527752328961e+000
 4.164467120683749e-001	 1.853799378575167e+000	 6.637372340035197e+000
 3.987446593115267e-001	 1.857687459360314e+000	 6.550442341248720e+000
 3.810561700680842e-001	 1.861396302576092e+000	 6.446171860921395e+000
 3.633837319354580e-001	 1.864926878822192e+000	 6.323139823004395e+000
 3.457297995820888e-001	 1.868280199988415e+000	 6.180069424561637e+000
 5.296795635881594e-001	 1.850692994519563e+000	 7.198000950660883e+000
 5.117168301276374e-001	 1.855739983349315e+000	 7.202993364836763e+000
 4.937520620407415e-001	 1.860600414183346e+000	 7.198952773391263e+000
 4.757879622639266e-001	 1.865274997148151e+000	 7.183493881517299e+000
 4.578272055760287e-001	 1.869764490477167e+000	 7.154381876494094e+000
 4.398724376382885e-001	 1.874069699508443e+000	 7.109533483650187e+000
 4.219262740710783e-001	 1.878191475663132e+000	 6.896687587852698e+000
 4.039912995676055e-001	 1.882130715406210e+000	 6.646242123699582e+000
 3.860700670448163e-001	 1.885888359190838e+000	 6.403790447089014e+000
 3.681650968316665e-001	 1.889465390387757e+000	 6.168988451426277e+000
 3.502788758948651e-001	 1.892862834201107e+000	 5.941387285095325e+000
 5.365585189601084e-001	 1.874727968473718e+000	 7.472488258324600e+000
 5.183625032472324e-001	 1.879840502613331e+000	 7.236340944648653e+000
 5.001644264842287e-001	 1.884764055926089e+000	 6.994362352080429e+000
 4.819670267106234e-001	 1.889499347760910e+000	 6.762387305573464e+000
 4.637730134426401e-001	 1.894047146198417e+000	 6.540670362932940e+000
 4.455850667007568e-001	 1.898408267035597e+000	 6.329349660977894e+000
 4.274058360744414e-001	 1.902583572751019e+000	 6.128447622508563e+000
 4.092379398243464e-001	 1.906573971452062e+000	 5.937871906657394e+000
 3.910839640221832e-001	 1.910380415805565e+000	 5.757416595232173e+000
 3.729464617284529e-001	 1.914003901953317e+000	 5.586763607181297e+000
 3.548279522081341e-001	 1.917445468413798e+000	 5.425484332885984e+000
 5.434374743320700e-001	 1.898762942427380e+000	 6.358649405500954e+000
 5.250081763670245e-001	 1.903941021876948e+000	 6.155152323130719e+000
 5.065767909280665e-001	 1.908927697668517e+000	 5.963218489765385e+000
 4.881460911577936e-001	 1.913723698373428e+000	 5.783283071734735e+000
 4.697188213098173e-001	 1.918329801919491e+000	 5.615658306153625e+000
 4.512976957638528e-001	 1.922746834562629e+000	 5.460533943499262e+000
 4.328853980784645e-001	 1.926975669838828e+000	 5.317977952677037e+000
 4.144845800817492e-001	 1.931017227497871e+000	 5.187937481420496e+000
 3.960978610001849e-001	 1.934872472420273e+000	 5.070240064333283e+000
 3.777278266258177e-001	 1.938542413518872e+000	 4.964595070388006e+000
 3.593770285218957e-001	 1.942028102626488e+000	 4.870595381245169e+000
 5.503164297040443e-001	 1.922797916380548e+000	 5.186699341621396e+000
 5.316538494870134e-001	 1.928041541140166e+000	 5.031341816667159e+000
 5.129891553722548e-001	 1.933091339410632e+000	 4.889564756609380e+000
 4.943251556054371e-001	 1.937948048985706e+000	 4.761869604333772e+000
 4.756646291775600e-001	 1.942612457640390e+000	 4.648628644125064e+000
 4.570103248275765e-001	 1.947085402089539e+000	 4.550085429143226e+000
 4.383649600831473e-001	 1.951367766926559e+000	 4.466355483958221e+000
 4.197312203398141e-001	 1.955460483543635e+000	 4.397427274708207e+000
 4.011117579788213e-001	 1.959364529034961e+000	 4.343163438887448e+000
 3.825091915237606e-001	 1.963080925084422e+000	 4.303302266252693e+000
 3.639261048361499e-001	 1.966610736839179e+000	 4.277459421860820e+000
 3.184353417157770e-001	 1.720784394712270e+000	 3.740225065255314e+000
 3.021944155378737e-001	 1.723710687775430e+000	 3.677424847295157e+000
 2.859749622825958e-001	 1.726475693682788e+000	 3.634779148669498e+000
 2.697791479589108e-001	 1.729080452510761e+000	 3.611507351581779e+000
 2.536091057720334e-001	 1.731526038325072e+000	 3.606911108136713e+000
 2.374669355897513e-001	 1.733813558151911e+000	 3.620373483769712e+000
 2.213547034424477e-001	 1.735944150944025e+000	 3.651357932960033e+000
 2.052744410566008e-001	 1.737918986542895e+000	 3.699407115080450e+000
 1.892281454215078e-001	 1.739739264638117e+000	 3.764141558413620e+000
 1.732177783889445e-001	 1.741406213725087e+000	 3.845258180514216e+000
 1.572452663054261e-001	 1.742921090062064e+000	 3.942528673209769e+000
 3.229844180255973e-001	 1.745367028924961e+000	 4.144547485651900e+000
 3.065114786173200e-001	 1.748335126174922e+000	 4.068200807376605e+000
 2.900603188875702e-001	 1.751139632166796e+000	 4.006426873360639e+000
 2.736331357883017e-001	 1.753781601835235e+000	 3.958434107343691e+000
 2.572320929990906e-001	 1.756262124589759e+000	 3.923521035383946e+000
 2.408593203858371e-001	 1.758582323271217e+000	 3.901075291441903e+000
 2.245169134936454e-001	 1.760743353103111e+000	 3.890572445324429e+000
 2.082069330736587e-001	 1.762746400638945e+000	 3.891574661397621e+000
 1.919314046435941e-001	 1.764592682706737e+000	 3.903729196661451e+000
 1.756923180816825e-001	 1.766283445351817e+000	 3.926766746934244e+000
 1.594916272536765e-001	 1.767819962778993e+000	 3.960499650009772e+000
 3.275334943359103e-001	 1.769949663137652e+000	 4.550356850489855e+000
 3.108285416971643e-001	 1.772959564574414e+000	 4.461056877504610e+000
 2.941456754928580e-001	 1.775803570650804e+000	 4.380652193131533e+000
 2.774871236179319e-001	 1.778482751159709e+000	 4.308338877894668e+000
 2.608550802263231e-001	 1.780998210854445e+000	 4.243411143049036e+000
 2.442517051820443e-001	 1.783351088390523e+000	 4.185260195843770e+000
 2.276791235449205e-001	 1.785542555262198e+000	 4.133372916936088e+000
 2.111394250907600e-001	 1.787573814734995e+000	 4.087330358934869e+000
 1.946346638656996e-001	 1.789446100775357e+000	 4.046806075246149e+000
 1.781668577744253e-001	 1.791160676978547e+000	 4.011564288547877e+000
 1.617379882019268e-001	 1.792718835495921e+000	 3.981457908344452e+000
 3.320825706467159e-001	 1.794532297350343e+000	 4.957235059736027e+000
 3.151456047774062e-001	 1.797584002973905e+000	 4.855650184887375e+000
 2.982310320984593e-001	 1.800467509134812e+000	 4.757181734352479e+000
 2.813411114478012e-001	 1.803183900484183e+000	 4.661012054765749e+000
 2.644780674537309e-001	 1.805734297119132e+000	 4.566429852959607e+000
 2.476440899783729e-001	 1.808119853509829e+000	 4.472828918343165e+000
 2.308413335962730e-001	 1.810341757421285e+000	 4.379706646932478e+000
 2.140719171079047e-001	 1.812401228831045e+000	 4.286662376595281e+000
 1.973379230878242e-001	 1.814299518843976e+000	 4.193395543275261e+000
 1.806413974671729e-001	 1.816037908605277e+000	 4.099703668119911e+000
 1.639843491501772e-001	 1.817617708212850e+000	 4.005480185560342e+000
 3.366316469580142e-001	 1.819114931563034e+000	 5.364761799838080e+000
 3.194626678580462e-001	 1.822208441373398e+000	 5.251634438112647e+000
 3.023163887043739e-001	 1.825131447618820e+000	 5.135737640629061e+000
 2.851950992779099e-001	 1.827885049808657e+000	 5.016238622711771e+000
 2.681010546813138e-001	 1.830470383383818e+000	 4.892419395394745e+000
 2.510364747748227e-001	 1.832888618629135e+000	 4.763675342267348e+000
 2.340035436477028e-001	 1.835140959580371e+000	 4.629513587174841e+000
 2.170044091250927e-001	 1.837228642927095e+000	 4.489551162939542e+000
 2.000411823099683e-001	 1.839152936912596e+000	 4.343512991471106e+000
 1.831159371599253e-001	 1.840915140232007e+000	 4.191229685803629e+000
 1.662307100984275e-001	 1.842516580929779e+000	 4.032635184721613e+000
 3.411807232698052e-001	 1.843697565775724e+000	 5.772514691292365e+000
 3.237797309390840e-001	 1.846832879772890e+000	 5.648660155055325e+000
 3.064017453106021e-001	 1.849795386102829e+000	 5.516037871653266e+000
 2.890490871082579e-001	 1.852586199133131e+000	 5.373798520162942e+000
 2.717240419090721e-001	 1.855206469648505e+000	 5.221216221855092e+000
 2.544288595713937e-001	 1.857657383748441e+000	 5.057686968772253e+000
 2.371657536992101e-001	 1.859940161739458e+000	 4.882726832066503e+000
 2.199369011423242e-001	 1.862056057023146e+000	 4.695969960875535e+000
 2.027444415321314e-001	 1.864006354981216e+000	 4.497166382729168e+000
 1.855904768526824e-001	 1.865792371858737e+000	 4.286179616648091e+000
 1.684770710466778e-001	 1.867415453646707e+000	 4.062984110229087e+000
 3.457297995820888e-001	 1.868280199988415e+000	 6.180069424561637e+000
 3.280967940205198e-001	 1.871457318172382e+000	 6.046374872793409e+000
 3.104871019171435e-001	 1.874459324586836e+000	 5.897796478460417e+000
 2.929030749388450e-001	 1.877287348457605e+000	 5.676989712171811e+000
 2.753470291370055e-001	 1.879942555913192e+000	 5.450330405388094e+000
 2.578212443680862e-001	 1.882426148867748e+000	 5.232242298141125e+000
 2.403279637507948e-001	 1.884739363898545e+000	 5.021667701643133e+000
 2.228693931595991e-001	 1.886883471119196e+000	 4.817459027089811e+000
 2.054477007543138e-001	 1.888859773049835e+000	 4.618381795907921e+000
 1.880650165454444e-001	 1.890669603485467e+000	 4.423117771546876e+000
 1.707234319949282e-001	 1.892314326363635e+000	 4.230268202821425e+000
 3.502788758948651e-001	 1.892862834201107e+000	 5.941387285095325e+000
 3.324138571023533e-001	 1.896081756571874e+000	 5.752340671915403e+000
 3.145724585239986e-001	 1.899123263070844e+000	 5.574225741227506e+000
 2.967570627696715e-001	 1.901988497782079e+000	 5.406277126964053e+000
 2.789700163651142e-001	 1.904678642177878e+000	 5.247627929190347e+000
 2.612136291649000e-001	 1.907194913987054e+000	 5.097312346828585e+000
 2.434901738024568e-001	 1.909538566057631e+000	 4.954268468355012e+000
 2.258018851769174e-001	 1.911710885215246e+000	 4.817341210377061e+000
 2.081509599765154e-001	 1.913713191118455e+000	 4.685285393884333e+000
 1.905395562382111e-001	 1.915546835112197e+000	 4.556768947885109e+000
 1.729697929431785e-001	 1.917213199080564e+000	 4.430376230096101e+000
 3.548279522081341e-001	 1.917445468413798e+000	 5.425484332885984e+000
 3.367309201845848e-001	 1.920706194971366e+000	 5.305353254987493e+000
 3.186578151311670e-001	 1.923787201554852e+000	 5.196069263940687e+000
 3.006110506007370e-001	 1.926689647106553e+000	 5.096873420870095e+000
 2.825930035933981e-001	 1.929414728442565e+000	 5.006901622579272e+000
 2.646060139618350e-001	 1.931963679106360e+000	 4.925187283598938e+000
 2.466523838541962e-001	 1.934337768216718e+000	 4.850664183300900e+000
 2.287343771942790e-001	 1.936538299311296e+000	 4.782169467652889e+000
 2.108542191987363e-001	 1.938566609187074e+000	 4.718446795064165e+000
 1.930140959309827e-001	 1.940424066738927e+000	 4.658149615686908e+000
 1.752161538914289e-001	 1.942112071797492e+000	 4.599844573484718e+000
 3.593770285218957e-001	 1.942028102626488e+000	 4.870595381245169e+000
 3.410479832672141e-001	 1.945330633370858e+000	 4.819521745390812e+000
 3.227431717386489e-001	 1.948451140038860e+000	 4.779371563766501e+000
 3.044650384320420e-001	 1.951390796431027e+000	 4.749392866686399e+000
 2.862159908218573e-001	 1.954150814707252e+000	 4.728724688582738e+000
 2.679983987588914e-001	 1.956732444225666e+000	 4.716399802212040e+000
 2.498145939060131e-001	 1.959136970375806e+000	 4.711347625292121e+000
 2.316668692116841e-001	 1.961365713407346e+000	 4.712397288795230e+000
 2.135574784209763e-001	 1.963420027255694e+000	 4.718280855994690e+000
 1.954886356237590e-001	 1.965301298365657e+000	 4.727636681264994e+000
 1.774625148396792e-001	 1.967010944514421e+000	 4.739012897581260e+000
 3.639261048361499e-001	 1.966610736839179e+000	 4.277459421860820e+000
 3.453650463502414e-001	 1.969955071770350e+000	 4.295541800272931e+000
 3.268285283464441e-001	 1.973115078522868e+000	 4.324785504004678e+000
 3.083190262635861e-001	 1.976091945755501e+000	 4.364446114230230e+000
 2.898389780504916e-001	 1.978886900971938e+000	 4.413666181388162e+000
 2.713907835560691e-001	 1.981501209344972e+000	 4.471478014385363e+000
 2.529768039579073e-001	 1.983936172534892e+000	 4.536806649867841e+000
 2.345993612291326e-001	 1.986193127503396e+000	 4.608472990425550e+000
 2.162607376432356e-001	 1.988273445324313e+000	 4.685197100458258e+000
 1.979631753165401e-001	 1.990178529992387e+000	 4.765601648327412e+000
 1.797088757879294e-001	 1.991909817231349e+000	 4.848215483357500e+000
 1.572452663054261e-001	 1.742921090062064e+000	 3.942528673209769e+000
 1.413124996760967e-001	 1.744285176627427e+000	 3.999928502281636e+000
 1.254213328617058e-001	 1.745499782078859e+000	 4.066371425611304e+000
 1.095735838069919e-001	 1.746566239714984e+000	 4.141955223023150e+000
 9.377103379879261e-002	 1.747485906439909e+000	 4.226849373140204e+000
 7.801542725524828e-002	 1.748260161732354e+000	 4.321292667623101e+000
 6.230847154497118e-002	 1.748890406620027e+000	 4.425590741022398e+000
 4.665183683563808e-002	 1.749378062660108e+000	 4.540113524870352e+000
 3.104715597144679e-002	 1.749724570926687e+000	 4.665292634527730e+000
 1.549602437885576e-002	 1.749931391005967e+000	 4.801618697172214e+000
 0.000000000000000e+000	 1.750000000000000e+000	 4.949638629162212e+000
 1.594916272536765e-001	 1.767819962778993e+000	 3.960499650009772e+000
 1.433312496720404e-001	 1.769203536294951e+000	 3.952285894532438e+000
 1.272130661884947e-001	 1.770435493252530e+000	 3.951282506347695e+000
 1.111389207184162e-001	 1.771517185997479e+000	 3.957606625979751e+000
 9.511061999559632e-002	 1.772449990818246e+000	 3.971451092890643e+000
 7.912993335843395e-002	 1.773235306900391e+000	 3.993081933521152e+000
 6.319859256652072e-002	 1.773874555286303e+000	 4.022835760813371e+000
 4.731829164707083e-002	 1.774369177841121e+000	 4.061117094258563e+000
 3.149068677062692e-002	 1.774720636225708e+000	 4.108395609396343e+000
 1.571739615545318e-002	 1.774930410877498e+000	 4.165203325557261e+000
 0.000000000000000e+000	 1.775000000000000e+000	 4.232131740480016e+000
 1.617379882019268e-001	 1.792718835495921e+000	 3.981457908344452e+000
 1.453499996679842e-001	 1.794121895962475e+000	 3.907058190870753e+000
 1.290047995152837e-001	 1.795371204426202e+000	 3.837837375487711e+000
 1.127042576298404e-001	 1.796468132279973e+000	 3.773933482562850e+000
 9.645020619240004e-002	 1.797414075196582e+000	 3.715564427649508e+000
 8.024443946161963e-002	 1.798210452068428e+000	 3.663025377078242e+000
 6.408871358807028e-002	 1.798858703952579e+000	 3.616686010758973e+000
 4.798474645850356e-002	 1.799360293022134e+000	 3.576987701668442e+000
 3.193421756980704e-002	 1.799716701524729e+000	 3.544440621378894e+000
 1.593876793205060e-002	 1.799929430749029e+000	 3.519620780837637e+000
 0.000000000000000e+000	 1.800000000000000e+000	 3.503167015445048e+000
 1.639843491501772e-001	 1.817617708212850e+000	 4.005480185560342e+000
 1.473687496639280e-001	 1.819040255629999e+000	 3.864347355725930e+000
 1.307965328420726e-001	 1.820306915599874e+000	 3.726161667430300e+000
 1.142695945412646e-001	 1.821419078562468e+000	 3.591083535517711e+000
 9.778979238920371e-002	 1.822378159574918e+000	 3.459357664875159e+000
 8.135894556480529e-002	 1.823185597236464e+000	 3.331310267259521e+000
 6.497883460961983e-002	 1.823842852618854e+000	 3.207346180922895e+000
 4.865120126993631e-002	 1.824351408203147e+000	 3.087945902957204e+000
 3.237774836898717e-002	 1.824712766823750e+000	 2.973662544158862e+000
 1.616013970864802e-002	 1.824928450620559e+000	 2.865118716058999e+000
 0.000000000000000e+000	 1.825000000000000e+000	 2.763003359595813e+000
 1.662307100984275e-001	 1.842516580929779e+000	 4.032635184721613e+000
 1.493874996598718e-001	 1.843958615297522e+000	 3.824247102609915e+000
 1.325882661688616e-001	 1.845242626773545e+000	 3.616372461912597e+000
 1.158349314526889e-001	 1.846370024844962e+000	 3.409195583069647e+000
 9.912937858600741e-002	 1.847342243953256e+000	 3.202989672559438e+000
 8.247345166799099e-002	 1.848160742404501e+000	 2.998113894585037e+000
 6.586895563116936e-002	 1.848827001285130e+000	 2.795010340999030e+000
 4.931765608136905e-002	 1.849342523384160e+000	 2.594200909853970e+000
 3.282127916816730e-002	 1.849708832122771e+000	 2.396284102838970e+000
 1.638151148524544e-002	 1.849927470492090e+000	 2.201931751701885e+000
 0.000000000000000e+000	 1.850000000000000e+000	 2.011885683576858e+000
 1.684770710466778e-001	 1.867415453646707e+000	 4.062984110229087e+000
 1.514062496558155e-001	 1.868876974965046e+000	 3.786843444178267e+000
 1.343799994956505e-001	 1.870178337947216e+000	 3.508578854321158e+000
 1.174002683641131e-001	 1.871320971127456e+000	 3.228400075225071e+000
 1.004689647828111e-001	 1.872306328331592e+000	 2.946610527191833e+000
 8.358795777117667e-002	 1.873135887572538e+000	 2.663604236359829e+000
 6.675907665271889e-002	 1.873811149951406e+000	 2.379862648336760e+000
 4.998411089280181e-002	 1.874333638565173e+000	 2.095951346235322e+000
 3.326480996734743e-002	 1.874704897421792e+000	 1.812516683846248e+000
 1.660288326184286e-002	 1.874926490363621e+000	 1.530282344519393e+000
 0.000000000000000e+000	 1.875000000000000e+000	 1.250045836131686e+000
 1.707234319949282e-001	 1.892314326363635e+000	 4.230268202821425e+000
 1.534249996517593e-001	 1.893795334632570e+000	 4.000092487053464e+000
 1.361717328224395e-001	 1.895114049120888e+000	 3.782194168476230e+000
 1.189656052755374e-001	 1.896271917409951e+000	 3.574837126010503e+000
 1.018085509796148e-001	 1.897270412709929e+000	 3.376211245002834e+000
 8.470246387436235e-002	 1.898111032740575e+000	 3.184436339200618e+000
 6.764919767426847e-002	 1.898795298617682e+000	 2.997566126484319e+000
 5.065056570423454e-002	 1.899324753746186e+000	 2.813592248479253e+000
 3.370834076652756e-002	 1.899700962720813e+000	 2.630448324359628e+000
 1.682425503844029e-002	 1.899925510235152e+000	 2.446014029369499e+000
 0.000000000000000e+000	 1.900000000000000e+000	 2.258119188819709e+000
 1.729697929431785e-001	 1.917213199080564e+000	 4.430376230096101e+000
 1.554437496477031e-001	 1.918713694300094e+000	 4.268763082420462e+000
 1.379634661492284e-001	 1.920049760294560e+000	 4.122088668096577e+000
 1.205309421869616e-001	 1.921222863692445e+000	 3.988556485251930e+000
 1.031481371764185e-001	 1.922234497088266e+000	 3.866291459590385e+000
 8.581696997754799e-002	 1.923086177908611e+000	 3.753344042939630e+000
 6.853931869581802e-002	 1.923779447283957e+000	 3.647694369119152e+000
 5.131702051566729e-002	 1.924315868927198e+000	 3.547256456788891e+000
 3.415187156570769e-002	 1.924697028019834e+000	 3.449882449135672e+000
 1.704562681503771e-002	 1.924924530106683e+000	 3.353366880476025e+000
 0.000000000000000e+000	 1.925000000000000e+000	 3.255450960095531e+000
 1.752161538914289e-001	 1.942112071797492e+000	 4.599844573484718e+000
 1.574624996436468e-001	 1.943632053967618e+000	 4.508450192566883e+000
 1.397551994760174e-001	 1.944985471468231e+000	 4.434736280807799e+000
 1.220962790983859e-001	 1.946173809974940e+000	 4.376845476108235e+000
 1.044877233732222e-001	 1.947198581466602e+000	 4.332837133056255e+000
 8.693147608073368e-002	 1.948061323076648e+000	 4.300691601709261e+000
 6.942943971736756e-002	 1.948763595950233e+000	 4.278314567393351e+000
 5.198347532710004e-002	 1.949306984108212e+000	 4.263541440703444e+000
 3.459540236488781e-002	 1.949693093318855e+000	 4.254141787096192e+000
 1.726699859163513e-002	 1.949923549978213e+000	 4.247823785694876e+000
 0.000000000000000e+000	 1.950000000000000e+000	 4.242238707177618e+000
 1.774625148396792e-001	 1.967010944514421e+000	 4.739012897581260e+000
 1.594812496395906e-001	 1.968550413635142e+000	 4.719462013986885e+000
 1.415469328028063e-001	 1.969921182641903e+000	 4.720417396095428e+000
 1.236616160098101e-001	 1.971124756257434e+000	 4.739960329142443e+000
 1.058273095700259e-001	 1.972162665844939e+000	 4.776083969081481e+000
 8.804598218391936e-002	 1.973036468244684e+000	 4.826697805345144e+000
 7.031956073891711e-002	 1.973747744616509e+000	 4.889632188451153e+000
 5.264993013853277e-002	 1.974298099289225e+000	 4.962642911154252e+000
 3.503893316406794e-002	 1.974689158617876e+000	 5.043415832054734e+000
 1.748837036823255e-002	 1.974922569849744e+000	 5.129571530814224e+000
 0.000000000000000e+000	 1.975000000000000e+000	 5.218669984387336e+000
 1.797088757879294e-001	 1.991909817231349e+000	 4.848215483357500e+000
 1.614999996355343e-001	 1.993468773302665e+000	 4.902101214389163e+000
 1.433386661295952e-001	 1.994856893815574e+000	 4.979406671126553e+000
 1.252269529212343e-001	 1.996075702539928e+000	 5.078151281361907e+000
 1.071668957668296e-001	 1.997126750223276e+000	 5.196261359539103e+000
 8.916048828710503e-002	 1.998011613412721e+000	 5.331574757314113e+000
 7.120968176046663e-002	 1.998731893282784e+000	 5.481845582926410e+000
 5.331638494996551e-002	 1.999289214470238e+000	 5.644748977585169e+000
 3.548246396324807e-002	 1.999685223916897e+000	 5.817885937288497e+000
 1.770974214482997e-002	 1.999921589721275e+000	 5.998788168744286e+000
 0.000000000000000e+000	 2.000000000000000e+000	 6.184922968329958e+000
 2.000000000000000e+000	 0.000000000000000e+000	 1.191328025341023e+001
 1.999921589721275e+000	 1.770974214483003e-002	 1.204867077018487e+001
 1.999685223916896e+000	 3.548246396324820e-002	 1.216463203088063e+001
 1.999289214470237e+000	 5.331638494996539e-002	 1.226096256160763e+001
 1.998731893282784e+000	 7.120968176046658e-002	 1.233750143744445e+001
 1.998011613412721e+000	 8.916048828710503e-002	 1.239412883867533e+001
 1.997126750223276e+000	 1.071668957668297e-001	 1.243076653115992e+001
 1.996075702539929e+000	 1.252269529212345e-001	 1.244737826752761e+001
 1.994856893815574e+000	 1.433386661295951e-001	 1.244397010599448e+001
 1.993468773302665e+000	 1.614999996355343e-001	 1.242059064372002e+001
 1.991909817231349e+000	 1.797088757879295e-001	 1.237733116175605e+001
 2.025000000000000e+000	 0.000000000000000e+000	 1.191996623578751e+001
 2.024920609592803e+000	 1.793111392142746e-002	 1.203841842677457e+001
 2.024681289215908e+000	 3.592599476242833e-002	 1.213752284447894e+001
 2.024280329651229e+000	 5.398283976139813e-002	 1.221719416371204e+001
 2.023716041949021e+000	 7.209980278201615e-002	 1.227739084145000e+001
 2.022986758580697e+000	 9.027499439029070e-002	 1.231811561665946e+001
 2.022090834601524e+000	 1.085064819636334e-001	 1.233941592741102e+001
 2.021026648822303e+000	 1.267922898326587e-001	 1.234138424184913e+001
 2.019792604989089e+000	 1.451303994563841e-001	 1.232415829970344e+001
 2.018387132969990e+000	 1.635187496314781e-001	 1.228792126115971e+001
 2.016808689948031e+000	 1.819552367361798e-001	 1.223290176005446e+001
 2.050000000000000e+000	 0.000000000000000e+000	 1.192007981246072e+001
 2.049919629464327e+000	 1.815248569802488e-002	 1.202487544229770e+001
 2.049677354514900e+000	 3.636952556160845e-002	 1.211034815558116e+001
 2.049271444832177e+000	 5.464929457283087e-002	 1.217652799336892e+001
 2.048700190615181e+000	 7.298992380356566e-002	 1.222349206287594e+001
 2.047961903748552e+000	 9.138950049347636e-002	 1.225136498196569e+001
 2.047054918979599e+000	 1.098460681604371e-001	 1.226031923400930e+001
 2.045977595104440e+000	 1.283576267440829e-001	 1.225057542955341e+001
 2.044728316162292e+000	 1.469221327831730e-001	 1.222240247136639e+001
 2.043305492636919e+000	 1.655374996274218e-001	 1.217611761957619e+001
 2.041707562664222e+000	 1.842015976844301e-001	 1.211208645377401e+001
 2.075000000000000e+000	 0.000000000000000e+000	 1.191432969519383e+001
 2.074918649335845e+000	 1.837385747462230e-002	 1.200853779604250e+001
 2.074673419813873e+000	 3.681305636078857e-002	 1.208339077229169e+001
 2.074262560013082e+000	 5.531574938426360e-002	 1.213903333734532e+001
 2.073684339281264e+000	 7.388004482511520e-002	 1.217566060763489e+001
 2.072937048916287e+000	 9.250400659666205e-002	 1.219351849282024e+001
 2.072019003357499e+000	 1.111856543572408e-001	 1.219290398935997e+001
 2.070928541386338e+000	 1.299229636555072e-001	 1.217416537376038e+001
 2.069664027335182e+000	 1.487138661099619e-001	 1.213770229195242e+001
 2.068223852303450e+000	 1.675562496233655e-001	 1.208396574140259e+001
 2.066606435379921e+000	 1.864479586326804e-001	 1.201345794273746e+001
 2.100000000000000e+000	 0.000000000000000e+000	 1.190339084757165e+001
 2.099917669207360e+000	 1.859522925121972e-002	 1.198987535303367e+001
 2.099669485112827e+000	 3.725658715996871e-002	 1.205691499986972e+001
 2.099253675193943e+000	 5.598220419569634e-002	 1.210476856536973e+001
 2.098668487947270e+000	 7.477016584666477e-002	 1.213374862164255e+001
 2.097912194083901e+000	 9.361851269984771e-002	 1.214422187253932e+001
 2.096983087735225e+000	 1.125252405540445e-001	 1.213660938686589e+001
 2.095879487667998e+000	 1.314883005669314e-001	 1.211138672405742e+001
 2.094599738507759e+000	 1.505055994367509e-001	 1.206908394864066e+001
 2.093142211969584e+000	 1.695749996193093e-001	 1.201028552997821e+001
 2.091505308095129e+000	 1.886943195809308e-001	 1.193563012397672e+001
 2.125000000000000e+000	 0.000000000000000e+000	 1.188790647018677e+001
 2.124916689078869e+000	 1.881660102781714e-002	 1.196933340016534e+001
 2.124665550411762e+000	 3.770011795914884e-002	 1.203116772913187e+001
 2.124244790374762e+000	 5.664865900712907e-002	 1.207378177231067e+001
 2.123652636613198e+000	 7.566028686821431e-002	 1.209760508846452e+001
 2.122887339251394e+000	 9.473301880303341e-002	 1.210312476452405e+001
 2.121947172112776e+000	 1.138648267508482e-001	 1.209088558933962e+001
 2.120830433949419e+000	 1.330536374783557e-001	 1.206149011258977e+001
 2.119535449680023e+000	 1.522973327635398e-001	 1.201559858504324e+001
 2.118060571635321e+000	 1.715937496152530e-001	 1.195392877655387e+001
 2.116404180809845e+000	 1.909406805291811e-001	 1.187725566836746e+001
 2.150000000000000e+000	 0.000000000000000e+000	 1.186848984732518e+001
 2.149915708950374e+000	 1.903797280441457e-002	 1.194733407516219e+001
 2.149661615710677e+000	 3.814364875832895e-002	 1.200637944891972e+001
 2.149235905555537e+000	 5.731511381856181e-002	 1.204611137555232e+001
 2.148636785279050e+000	 7.655040788976383e-002	 1.206707601317410e+001
 2.147862484418765e+000	 9.584752490621906e-002	 1.206988050434859e+001
 2.146911256490152e+000	 1.152044129476518e-001	 1.205519309124690e+001
 2.145781380230602e+000	 1.346189743897799e-001	 1.202374310856265e+001
 2.144471160851976e+000	 1.540890660903287e-001	 1.197632085024995e+001
 2.142978931300662e+000	 1.736124996111968e-001	 1.191377730634378e+001
 2.141303053524069e+000	 1.931870414774315e-001	 1.183702376633599e+001
 2.175000000000000e+000	 0.000000000000000e+000	 1.184572606629427e+001
 2.174914728821873e+000	 1.925934458101199e-002	 1.192427769699168e+001
 2.174657681009575e+000	 3.858717955750909e-002	 1.198276518874224e+001
 2.174227020736269e+000	 5.798156862999455e-002	 1.202178667117190e+001
 2.173620933944825e+000	 7.744052891131339e-002	 1.204200459352967e+001
 2.172837629586016e+000	 9.696203100940473e-002	 1.204414590756617e+001
 2.171875340867353e+000	 1.165439991444556e-001	 1.202900212493362e+001
 2.170732326511546e+000	 1.361843113012042e-001	 1.199742924484728e+001
 2.169406872023615e+000	 1.558807994171177e-001	 1.195034754793857e+001
 2.167897290965605e+000	 1.756312496071406e-001	 1.188874125243552e+001
 2.166201926237801e+000	 1.954334024256818e-001	 1.181365802903447e+001
 2.199999999999999e+000	 0.000000000000000e+000	 1.182017361952378e+001
 2.199913748693369e+000	 1.948071635760941e-002	 1.190054400556592e+001
 2.199653746308452e+000	 3.903071035668922e-002	 1.196052539714668e+001
 2.199218135916958e+000	 5.864802344142729e-002	 1.200082835219559e+001
 2.198605082610522e+000	 7.833064993286293e-002	 1.202223137948151e+001
 2.197812774753146e+000	 9.807653711259042e-002	 1.202558107198308e+001
 2.196839425244380e+000	 1.178835853412592e-001	 1.201179210733705e+001
 2.195683272792251e+000	 1.377496482126284e-001	 1.198184711095431e+001
 2.194342583194943e+000	 1.576725327439066e-001	 1.193679637759159e+001
 2.192815650630152e+000	 1.776499996030843e-001	 1.187775744738821e+001
 2.191100798951041e+000	 1.976797633739321e-001	 1.180591453261786e+001
 2.224999999999999e+000	 0.000000000000000e+000	 1.179236589866017e+001
 2.224912768564859e+000	 1.970208813420683e-002	 1.187649331786842e+001
 2.224649811607310e+000	 3.947424115586935e-002	 1.193984676087399e+001
 2.224209251097604e+000	 5.931447825286004e-002	 1.198324899191597e+001
 2.223589231276143e+000	 7.922077095441249e-002	 1.200759442192494e+001
 2.222787919920156e+000	 9.919104321577608e-002	 1.201384919326239e+001
 2.221803509621232e+000	 1.192231715380629e-001	 1.200305112399768e+001
 2.220634219072718e+000	 1.393149851240526e-001	 1.197630950715518e+001
 2.219278294365958e+000	 1.594642660706956e-001	 1.193480476057453e+001
 2.217734010294301e+000	 1.796687495990280e-001	 1.187978792326225e+001
 2.215999671663790e+000	 1.999261243221825e-001	 1.181257999436739e+001
 2.250000000000000e+000	 0.000000000000000e+000	 1.176281258905452e+001
 2.249911788436345e+000	 1.992345991080426e-002	 1.185246760700589e+001
 2.249645876906150e+000	 3.991777195504948e-002	 1.192090296940342e+001
 2.249200366278207e+000	 5.998093306429280e-002	 1.196905349498855e+001
 2.248573379941687e+000	 8.011089197596205e-002	 1.199792941153670e+001
 2.247763065087045e+000	 1.003055493189618e-001	 1.200861639282073e+001
 2.246767593997911e+000	 1.205627577348667e-001	 1.200227544747000e+001
 2.245585165352948e+000	 1.408803220354769e-001	 1.198014265499543e+001
 2.244214005536660e+000	 1.612559993974846e-001	 1.194352874447576e+001
 2.242652369958055e+000	 1.816874995949719e-001	 1.189381851164693e+001
 2.240898544376048e+000	 2.021724852704328e-001	 1.183247007040564e+001
 1.991909817231349e+000	 1.797088757879295e-001	 1.237733116175605e+001
 1.990178529992387e+000	 1.979631753165402e-001	 1.247995751993608e+001
 1.988273445324313e+000	 2.162607376432357e-001	 1.257108202959565e+001
 1.986193127503396e+000	 2.345993612291324e-001	 1.265101162989744e+001
 1.983936172534892e+000	 2.529768039579072e-001	 1.272009069473094e+001
 1.981501209344972e+000	 2.713907835560691e-001	 1.277870050328088e+001
 1.978886900971938e+000	 2.898389780504918e-001	 1.282725860934132e+001
 1.976091945755501e+000	 3.083190262635862e-001	 1.286621810809952e+001
 1.973115078522868e+000	 3.268285283464439e-001	 1.289606679936748e+001
 1.969955071770350e+000	 3.453650463502412e-001	 1.291732624650805e+001
 1.966610736839180e+000	 3.639261048361500e-001	 1.293055073058127e+001
 2.016808689948031e+000	 1.819552367361798e-001	 1.223290176005446e+001
 2.015055761618825e+000	 2.004377150093213e-001	 1.232575325128670e+001
 2.013126863392606e+000	 2.189639968654950e-001	 1.240807765976999e+001
 2.011020541599093e+000	 2.375318532465808e-001	 1.248028379367401e+001
 2.008735374693610e+000	 2.561390140098015e-001	 1.254281972372802e+001
 2.006269974463903e+000	 2.747831683532467e-001	 1.259617215513862e+001
 2.003622987236254e+000	 2.934619652791260e-001	 1.264086569211529e+001
 2.000793095079618e+000	 3.121730140951303e-001	 1.267746199373882e+001
 1.997779017006543e+000	 3.309138849542393e-001	 1.270655882018105e+001
 1.994579510169543e+000	 3.496821094332685e-001	 1.272878896856684e+001
 1.991193371051617e+000	 3.684751811504042e-001	 1.274481909806682e+001
 2.041707562664222e+000	 1.842015976844301e-001	 1.211208645377401e+001
 2.039932993244682e+000	 2.029122547020977e-001	 1.219596415698994e+001
 2.037980281460246e+000	 2.216672560877351e-001	 1.227023092901980e+001
 2.035847955694086e+000	 2.404643452639859e-001	 1.233539799524283e+001
 2.033534576851590e+000	 2.593012240616183e-001	 1.239201773866676e+001
 2.031038739582086e+000	 2.781755531503031e-001	 1.244068297290441e+001
 2.028359073499827e+000	 2.970849525075852e-001	 1.248202610148941e+001
 2.025494244403021e+000	 3.160270019264352e-001	 1.251671816227860e+001
 2.022442955489552e+000	 3.349992415617211e-001	 1.254546775597463e+001
 2.019203948568140e+000	 3.539991725158979e-001	 1.256901985810472e+001
 2.015776005263546e+000	 3.730242574641658e-001	 1.258815451410317e+001
 2.066606435379921e+000	 1.864479586326804e-001	 1.201345794273746e+001
 2.064810224869957e+000	 2.053867943948692e-001	 1.208901819546959e+001
 2.062833699527232e+000	 2.243705153099559e-001	 1.215582546591677e+001
 2.060675369788373e+000	 2.433968372813475e-001	 1.221449402398854e+001
 2.058333779008834e+000	 2.624634341133577e-001	 1.226568126077313e+001
 2.055807504699517e+000	 2.815679379472381e-001	 1.231008686222759e+001
 2.053095159762659e+000	 3.007079397358691e-001	 1.234845186280685e+001
 2.050195393725710e+000	 3.198809897575008e-001	 1.238155757778807e+001
 2.047106893971896e+000	 3.390845981688895e-001	 1.241022441334885e+001
 2.043828386966140e+000	 3.583162355981293e-001	 1.243531055377663e+001
 2.040358639474969e+000	 3.775733337774347e-001	 1.245771052551655e+001
 2.091505308095129e+000	 1.886943195809308e-001	 1.193563012397672e+001
 2.089687456494649e+000	 2.078613340876359e-001	 1.200338854160133e+001
 2.087687117593565e+000	 2.270737745321575e-001	 1.206319408548428e+001
 2.085502783881955e+000	 2.463293292986658e-001	 1.211576477443785e+001
 2.083132981165341e+000	 2.656256441650198e-001	 1.216186378172673e+001
 2.080576269816200e+000	 2.849603227440519e-001	 1.220229850907430e+001
 2.077831246024749e+000	 3.043309269639778e-001	 1.223791953407289e+001
 2.074896543047684e+000	 3.237349775883271e-001	 1.226961942975999e+001
 2.071770832453574e+000	 3.431699547757445e-001	 1.229833145544326e+001
 2.068452825363542e+000	 3.626332986799628e-001	 1.232502811819015e+001
 2.064941273685884e+000	 3.821224100902110e-001	 1.235071960474896e+001
 2.116404180809845e+000	 1.909406805291811e-001	 1.187725566836746e+001
 2.114564688118759e+000	 2.103358737803979e-001	 1.193759092692135e+001
 2.112540535659244e+000	 2.297770337543398e-001	 1.199071589587681e+001
 2.110330197974833e+000	 2.492618213159407e-001	 1.203745312242769e+001
 2.107932183321109e+000	 2.687878542166045e-001	 1.207867241245760e+001
 2.105345034932133e+000	 2.883527075407443e-001	 1.211528980441458e+001
 2.102567332286097e+000	 3.079539141919111e-001	 1.214826640991595e+001
 2.099597692368946e+000	 3.275889654189144e-001	 1.217860711985066e+001
 2.096434770934586e+000	 3.472553113822861e-001	 1.220735917508136e+001
 2.093077263760348e+000	 3.669503617613985e-001	 1.223561060120233e+001
 2.089523907896292e+000	 3.866714864024947e-001	 1.226448850717492e+001
 2.141303053524069e+000	 1.931870414774315e-001	 1.183702376633599e+001
 2.139441919742287e+000	 2.128104134731551e-001	 1.189018116540198e+001
 2.137393953724270e+000	 2.324802929765030e-001	 1.193681360691878e+001
 2.135157612067005e+000	 2.521943133331721e-001	 1.197784901921498e+001
 2.132731385476141e+000	 2.719500642681118e-001	 1.201426476574804e+001
 2.130113800047317e+000	 2.917450923373155e-001	 1.204708651834988e+001
 2.127303418546704e+000	 3.115769014196694e-001	 1.207738699038849e+001
 2.124298841689493e+000	 3.314429532492622e-001	 1.210628452861409e+001
 2.121098709414933e+000	 3.513406679885141e-001	 1.213494156281197e+001
 2.117701702156558e+000	 3.712674248424363e-001	 1.216456291275391e+001
 2.114106542106193e+000	 3.912205627142856e-001	 1.219639395232616e+001
 2.166201926237801e+000	 1.954334024256818e-001	 1.181365802903447e+001
 2.164319151365234e+000	 2.152849531659074e-001	 1.185975284986329e+001
 2.162247371788644e+000	 2.351835521986470e-001	 1.189995102426145e+001
 2.159985026158471e+000	 2.551268053503602e-001	 1.193528678599287e+001
 2.157530587630436e+000	 2.751122743195416e-001	 1.196684605382727e+001
 2.154882565161751e+000	 2.951374771337652e-001	 1.199576520361152e+001
 2.152039504806568e+000	 3.151998886472523e-001	 1.202322969329896e+001
 2.148999991009326e+000	 3.352969410793709e-001	 1.205047253970376e+001
 2.145762647894614e+000	 3.554260245944288e-001	 1.207877264612058e+001
 2.142326140552170e+000	 3.755844879230763e-001	 1.210945298033575e+001
 2.138689176315586e+000	 3.957696390255839e-001	 1.214387860296321e+001
 2.191100798951041e+000	 1.976797633739321e-001	 1.180591453261786e+001
 2.189196382987598e+000	 2.177594928586550e-001	 1.184493520544777e+001
 2.187100789852363e+000	 2.378868114207716e-001	 1.187863071439272e+001
 2.184812440249233e+000	 2.580592973675048e-001	 1.190814259287143e+001
 2.182329789783993e+000	 2.782744843708940e-001	 1.193466638385724e+001
 2.179651330275434e+000	 2.985298619300937e-001	 1.195945031018381e+001
 2.176775591065690e+000	 3.188228758746600e-001	 1.198379379070294e+001
 2.173701140328445e+000	 3.391509289092403e-001	 1.200904580105986e+001
 2.170426586373628e+000	 3.595113812000300e-001	 1.203660307823946e+001
 2.166950578947184e+000	 3.799015510033183e-001	 1.206790816844620e+001
 2.163271810524472e+000	 4.003187153363895e-001	 1.210444731830063e+001
 2.215999671663790e+000	 1.999261243221825e-001	 1.181257999436739e+001
 2.214073614609379e+000	 2.202340325513978e-001	 1.184439108780430e+001
 2.211954207915429e+000	 2.405900706428771e-001	 1.187139182706208e+001
 2.209639854339290e+000	 2.609917893846062e-001	 1.189483210781509e+001
 2.207128991936814e+000	 2.814366944221691e-001	 1.191601823574566e+001
 2.204420095388370e+000	 3.019222467263009e-001	 1.193631149444704e+001
 2.201511677324071e+000	 3.224458631018926e-001	 1.195712655192297e+001
 2.198402289646850e+000	 3.430049167388704e-001	 1.197992970444365e+001
 2.195090524851978e+000	 3.635967378053179e-001	 1.200623695692628e+001
 2.191575017341604e+000	 3.842186140831624e-001	 1.203761193943330e+001
 2.187854444732851e+000	 4.048677916467026e-001	 1.207566365982450e+001
 2.240898544376048e+000	 2.021724852704328e-001	 1.183247007040564e+001
 2.238950846230580e+000	 2.227085722441359e-001	 1.185681511472701e+001
 2.236807625977843e+000	 2.432933298649635e-001	 1.187680806287720e+001
 2.234467268428642e+000	 2.639242814016641e-001	 1.189380830231712e+001
 2.231928194088898e+000	 2.845989044733669e-001	 1.190923410810420e+001
 2.229188860500556e+000	 3.053146315223868e-001	 1.192456110771129e+001
 2.226247763581711e+000	 3.260688503289499e-001	 1.194132057703360e+001
 2.223103438964543e+000	 3.468589045682615e-001	 1.196109756633650e+001
 2.219754463329662e+000	 3.676820944102923e-001	 1.198552885532337e+001
 2.216199455735425e+000	 3.885356771626088e-001	 1.201630073694756e+001
 2.212437078940723e+000	 4.094168679565229e-001	 1.205514663005483e+001
 1.966610736839180e+000	 3.639261048361500e-001	 1.293055073058127e+001
 1.963080925084422e+000	 3.825091915237607e-001	 1.292751792381102e+001
 1.959364529034961e+000	 4.011117579788214e-001	 1.291316846650750e+001
 1.955460483543635e+000	 4.197312203398140e-001	 1.288787102722144e+001
 1.951367766926559e+000	 4.383649600831472e-001	 1.285202085015570e+001
 1.947085402089539e+000	 4.570103248275765e-001	 1.280603844459513e+001
 1.942612457640390e+000	 4.756646291775601e-001	 1.275036817951827e+001
 1.937948048985706e+000	 4.943251556054372e-001	 1.268547678489289e+001
 1.933091339410632e+000	 5.129891553722545e-001	 1.261185176148564e+001
 1.928041541140166e+000	 5.316538494870133e-001	 1.252999970135054e+001
 1.922797916380548e+000	 5.503164297040443e-001	 1.244044452149540e+001
 1.991193371051617e+000	 3.684751811504042e-001	 1.274481909806682e+001
 1.987619436649766e+000	 3.872905564217012e-001	 1.273571180853680e+001
 1.983856585649486e+000	 4.061256549574481e-001	 1.271737967607223e+001
 1.979903739589275e+000	 4.249778605978571e-001	 1.269031860363999e+001
 1.975759864014198e+000	 4.438445220877911e-001	 1.265505181879696e+001
 1.971423969616384e+000	 4.627229538912393e-001	 1.261212839755309e+001
 1.966895113361246e+000	 4.816104370452149e-001	 1.256212168779627e+001
 1.962172399597961e+000	 5.005042200529607e-001	 1.250562763397402e+001
 1.957254981152735e+000	 5.194015198162856e-001	 1.244326300507580e+001
 1.952142060403382e+000	 5.382995226068029e-001	 1.237566352831281e+001
 1.946832890333715e+000	 5.571953850757715e-001	 1.230348193124803e+001
 2.015776005263546e+000	 3.730242574641658e-001	 1.258815451410317e+001
 2.012157948214703e+000	 3.920719213190587e-001	 1.257381918050881e+001
 2.008348642263703e+000	 4.111395519354208e-001	 1.255230096011082e+001
 2.004346995634707e+000	 4.302245008551945e-001	 1.252422393356364e+001
 2.000151961101730e+000	 4.493240840916974e-001	 1.249024031000643e+001
 1.995762537143223e+000	 4.684355829541524e-001	 1.245102878386470e+001
 1.991177769082197e+000	 4.875562449121281e-001	 1.240729278546260e+001
 1.986396750210409e+000	 5.066832844997706e-001	 1.235975862733500e+001
 1.981418622895133e+000	 5.258138842596519e-001	 1.230917354849836e+001
 1.976242579666991e+000	 5.449451957259967e-001	 1.225630365931130e+001
 1.970867864287377e+000	 5.640743404469928e-001	 1.220193178993334e+001
 2.040358639474969e+000	 3.775733337774347e-001	 1.245771052551655e+001
 2.036696459779233e+000	 3.968532862158332e-001	 1.243883501275422e+001
 2.032840698877614e+000	 4.161534489127393e-001	 1.241476995801066e+001
 2.028790251679932e+000	 4.354711411118263e-001	 1.238626866065004e+001
 2.024544058189155e+000	 4.548036460948662e-001	 1.235411340806392e+001
 2.020101104670055e+000	 4.741482120163162e-001	 1.231911366382741e+001
 2.015460424803240e+000	 4.935020527782997e-001	 1.228210414378080e+001
 2.010621100823052e+000	 5.128623489458674e-001	 1.224394278212184e+001
 2.005582264637823e+000	 5.322262487023532e-001	 1.220550858998294e+001
 2.000343098930994e+000	 5.515908688445943e-001	 1.216769940936251e+001
 1.994902838241532e+000	 5.709532958177074e-001	 1.213142956567382e+001
 2.064941273685884e+000	 3.821224100902110e-001	 1.235071960474896e+001
 2.061234971343355e+000	 4.016346511120246e-001	 1.232783766852730e+001
 2.057332755491217e+000	 4.211673458894039e-001	 1.230171209472811e+001
 2.053233507724950e+000	 4.407177813677524e-001	 1.227322653775711e+001
 2.048936155276472e+000	 4.602832080972975e-001	 1.224329455593843e+001
 2.044439672196880e+000	 4.798608410777303e-001	 1.221285762935401e+001
 2.039743080524377e+000	 4.994478606437299e-001	 1.218288305958678e+001
 2.034845451435887e+000	 5.190414133912505e-001	 1.215436175364984e+001
 2.029745906380808e+000	 5.386386131443897e-001	 1.212830589479373e+001
 2.024443618195390e+000	 5.582365419625962e-001	 1.210574650329847e+001
 2.018937812196181e+000	 5.778322511879159e-001	 1.208773089077526e+001
 2.089523907896292e+000	 3.866714864024947e-001	 1.226448850717492e+001
 2.085773482907070e+000	 4.064160160076331e-001	 1.223798399600192e+001
 2.081824812104512e+000	 4.261812428654142e-001	 1.221013541693141e+001
 2.077676763769761e+000	 4.459644216229730e-001	 1.218195800875484e+001
 2.073328252363683e+000	 4.657627700989913e-001	 1.215449788713014e+001
 2.068778239723698e+000	 4.855734701383949e-001	 1.212882989034840e+001
 2.064025736245607e+000	 5.053936685084186e-001	 1.210605530084332e+001
 2.059069802048916e+000	 5.252204778359205e-001	 1.208729944492355e+001
 2.053909548124086e+000	 5.450509775857613e-001	 1.207370917363920e+001
 2.048544137460181e+000	 5.648822150800023e-001	 1.206645022813052e+001
 2.042972786151324e+000	 5.847112065576181e-001	 1.206670449324529e+001
 2.114106542106193e+000	 3.912205627142856e-001	 1.219639395232616e+001
 2.110311994470377e+000	 4.111973809026583e-001	 1.216650476519481e+001
 2.106316868717501e+000	 4.311951398407705e-001	 1.213712578941299e+001
 2.102120019814365e+000	 4.512110618774877e-001	 1.210940516835017e+001
 2.097720349450787e+000	 4.712423320999476e-001	 1.208452295296476e+001
 2.093116807250509e+000	 4.912860991983100e-001	 1.206368877365929e+001
 2.088308391966931e+000	 5.113394763723657e-001	 1.204813938157469e+001
 2.083294152662138e+000	 5.313995422798771e-001	 1.203913606200332e+001
 2.078073189867658e+000	 5.514633420264679e-001	 1.203796192305334e+001
 2.072644656725364e+000	 5.715278881968122e-001	 1.204591906315524e+001
 2.067007760106961e+000	 5.915901619268141e-001	 1.206432562146197e+001
 2.138689176315586e+000	 3.957696390255839e-001	 1.214387860296321e+001
 2.134850506033278e+000	 4.159787457971007e-001	 1.211070041958364e+001
 2.130808925330182e+000	 4.362090368154726e-001	 1.207984242278327e+001
 2.126563275858760e+000	 4.564577021312969e-001	 1.205258706951011e+001
 2.122112446537785e+000	 4.767218941001664e-001	 1.203024981352347e+001
 2.117455374777315e+000	 4.969987282574756e-001	 1.201417660141708e+001
 2.112591047688348e+000	 5.172852842355712e-001	 1.200574123163324e+001
 2.107518503275554e+000	 5.375786067231203e-001	 1.200634257934720e+001
 2.102236831611524e+000	 5.578757064665098e-001	 1.201740169057822e+001
 2.096745175990942e+000	 5.781735613130266e-001	 1.204035874936356e+001
 2.091042734063091e+000	 5.984691172955039e-001	 1.207666992231379e+001
 2.163271810524472e+000	 4.003187153363895e-001	 1.210444731830063e+001
 2.159389017595771e+000	 4.207601106909599e-001	 1.206793711738770e+001
 2.155300981942557e+000	 4.412229337895208e-001	 1.203551370609466e+001
 2.151006531902950e+000	 4.617043423844006e-001	 1.200859535083335e+001
 2.146504543624674e+000	 4.822014560996477e-001	 1.198863446328148e+001
 2.141793942304112e+000	 5.027113573158916e-001	 1.197711491857441e+001
 2.136873703409858e+000	 5.232310920980352e-001	 1.197554922989103e+001
 2.131742853889163e+000	 5.437576711656499e-001	 1.198547558251554e+001
 2.126400473355683e+000	 5.642880709058865e-001	 1.200845473095670e+001
 2.120845695256914e+000	 5.848192344286448e-001	 1.204606676320800e+001
 2.115077708019714e+000	 6.053480726636871e-001	 1.209990773673852e+001
 2.187854444732851e+000	 4.048677916467026e-001	 1.207566365982450e+001
 2.183927529157856e+000	 4.255414755842361e-001	 1.203564303972846e+001
 2.179793038554623e+000	 4.462368307629148e-001	 1.200143332041224e+001
 2.175449787946933e+000	 4.669509826367985e-001	 1.197459015870574e+001
 2.170896640711457e+000	 4.876810180983915e-001	 1.195670456513111e+001
 2.166132509830903e+000	 5.084239863735580e-001	 1.194940004218595e+001
 2.161156359131462e+000	 5.291768999597576e-001	 1.195432957227233e+001
 2.155967204502966e+000	 5.499367356074664e-001	 1.197317245855861e+001
 2.150564115100135e+000	 5.707004353445986e-001	 1.200763102258186e+001
 2.144946214523278e+000	 5.914649075436670e-001	 1.205942716292527e+001
 2.139112681976832e+000	 6.122270280313643e-001	 1.213029877983327e+001
 2.212437078940723e+000	 4.094168679565229e-001	 1.205514663005483e+001
 2.208466040719535e+000	 4.303228404769294e-001	 1.201130494491262e+001
 2.204285095166384e+000	 4.512507277356548e-001	 1.197495661147963e+001
 2.199893043990709e+000	 4.721976228884910e-001	 1.194779634131202e+001
 2.195288737798134e+000	 4.931605800963979e-001	 1.193155546880291e+001
 2.190471077357688e+000	 5.141366154304753e-001	 1.192799890740272e+001
 2.185439014853160e+000	 5.351227078207387e-001	 1.193892194858425e+001
 2.180191555116963e+000	 5.561158000485696e-001	 1.196614690704489e+001
 2.174727756844883e+000	 5.771127997826460e-001	 1.201151961618320e+001
 2.169046733790038e+000	 5.981105806580939e-001	 1.207690577843713e+001
 2.163147655934445e+000	 6.191059833985354e-001	 1.216418717562321e+001
 1.922797916380548e+000	 5.503164297040443e-001	 1.244044452149540e+001
 1.917359778339054e+000	 5.689740595581219e-001	 1.271525786717507e+001
 1.911726492221324e+000	 5.876238754369104e-001	 1.299110760971080e+001
 1.905897476204296e+000	 6.062629876904956e-001	 1.326939696776373e+001
 1.899872202382971e+000	 6.248884817771944e-001	 1.355154397597844e+001
 1.893650197690125e+000	 6.434974194451185e-001	 1.332251970676247e+001
 1.887231044787306e+000	 6.620868399488497e-001	 1.309601984742393e+001
 1.880614382925689e+000	 6.806537613005026e-001	 1.287727305794705e+001
 1.873799908775373e+000	 6.991951815543976e-001	 1.268396157923634e+001
 1.866787377221732e+000	 7.177080801244898e-001	 1.257733969637619e+001
 1.859576602127425e+000	 7.361894191336469e-001	 1.248627627729271e+001
 1.946832890333715e+000	 5.571953850757715e-001	 1.230348193124803e+001
 1.941326775566192e+000	 5.760862353022611e-001	 1.263188191251031e+001
 1.935623073371612e+000	 5.949691738788934e-001	 1.296355809903857e+001
 1.929721194654121e+000	 6.138412750351303e-001	 1.329988204911777e+001
 1.923620604909912e+000	 6.326995877975195e-001	 1.342156423186264e+001
 1.917320825158422e+000	 6.515411371860248e-001	 1.322918226552081e+001
 1.910821432844467e+000	 6.703629254459109e-001	 1.304353010061474e+001
 1.904122062709863e+000	 6.891619333144453e-001	 1.286664200226437e+001
 1.897222407633088e+000	 7.079351213216275e-001	 1.270061005477120e+001
 1.890122219435584e+000	 7.266794311240884e-001	 1.254758362548683e+001
 1.882821309653291e+000	 7.453917868712325e-001	 1.240976869815057e+001
 1.970867864287377e+000	 5.640743404469928e-001	 1.220193178993334e+001
 1.965293772793916e+000	 5.831984110459895e-001	 1.257770196786346e+001
 1.959519654522553e+000	 6.023144723205506e-001	 1.295896228596906e+001
 1.953544913104652e+000	 6.214195623795151e-001	 1.334705703089107e+001
 1.947369007437591e+000	 6.405106938176605e-001	 1.328896693336620e+001
 1.940991452627468e+000	 6.595848549268030e-001	 1.313226143516679e+001
 1.934411820902369e+000	 6.786390109428899e-001	 1.298330157626234e+001
 1.927629742494750e+000	 6.976701053283412e-001	 1.284403596413608e+001
 1.920644906491468e+000	 7.166750610888371e-001	 1.271647110625199e+001
 1.913457061650030e+000	 7.356507821236820e-001	 1.260267099262478e+001
 1.906066017179662e+000	 7.545941546088181e-001	 1.250475654762751e+001
 1.994902838241532e+000	 5.709532958177074e-001	 1.213142956567382e+001
 1.989260770022222e+000	 5.903105867893066e-001	 1.254845081760942e+001
 1.983416235674150e+000	 6.096597707618821e-001	 1.297315206479187e+001
 1.977368631555889e+000	 6.289978497236500e-001	 1.328842016780985e+001
 1.971117409966007e+000	 6.483217998376174e-001	 1.315664404041546e+001
 1.964662080097262e+000	 6.676285726674528e-001	 1.303174173645465e+001
 1.958002208961012e+000	 6.869150964397868e-001	 1.291551894291131e+001
 1.951137422280350e+000	 7.061782773421911e-001	 1.280983961270627e+001
 1.944067405350511e+000	 7.254150008560256e-001	 1.271662579439182e+001
 1.936791903865071e+000	 7.446221331232703e-001	 1.263785733492027e+001
 1.929310724706539e+000	 7.637965223464036e-001	 1.257557145125422e+001
 2.018937812196181e+000	 5.778322511879159e-001	 1.208773089077526e+001
 2.013227767251113e+000	 5.974227625322126e-001	 1.253997369175727e+001
 2.007312816826402e+000	 6.170050692028881e-001	 1.300206398502095e+001
 2.001192350007833e+000	 6.365761370675350e-001	 1.312905845036307e+001
 1.994865812495162e+000	 6.561329058573907e-001	 1.302446874088417e+001
 1.988332707567807e+000	 6.756722904079746e-001	 1.292768857213599e+001
 1.981592597020396e+000	 6.951911819366016e-001	 1.284043970278140e+001
 1.974645102066663e+000	 7.146864493559948e-001	 1.276450234573627e+001
 1.967489904210219e+000	 7.341549406231938e-001	 1.270171511991550e+001
 1.960126746080707e+000	 7.535934841228537e-001	 1.265397487478337e+001
 1.952555432233920e+000	 7.729988900839893e-001	 1.262323638318573e+001
 2.042972786151324e+000	 5.847112065576181e-001	 1.206670449324529e+001
 2.037194764480589e+000	 6.045349382747075e-001	 1.254822165150112e+001
 2.031209397979309e+000	 6.243503676435684e-001	 1.304173309520516e+001
 2.025016068460483e+000	 6.441544244111701e-001	 1.297321454948234e+001
 2.018614215025054e+000	 6.639440118769794e-001	 1.289239786539053e+001
 2.012003335039101e+000	 6.837160081483684e-001	 1.282024346919494e+001
 2.005182985080521e+000	 7.034672674333340e-001	 1.275838990743374e+001
 1.998152781853688e+000	 7.231946213697519e-001	 1.270853448203891e+001
 1.990912403070590e+000	 7.428948803903411e-001	 1.267243332595587e+001
 1.983461588296937e+000	 7.625648351224317e-001	 1.265190135114225e+001
 1.975800139761806e+000	 7.822012578215748e-001	 1.264881206412526e+001
 2.067007760106961e+000	 5.915901619268141e-001	 1.206432562146197e+001
 2.061161761710647e+000	 6.116471140167914e-001	 1.256924543624442e+001
 2.055105979132871e+000	 6.316956660839231e-001	 1.288896041205500e+001
 2.048839786913839e+000	 6.517327117545553e-001	 1.282074631834974e+001
 2.042362617555685e+000	 6.717551178963842e-001	 1.276046702434734e+001
 2.035673962511146e+000	 6.917597258886344e-001	 1.270961965302101e+001
 2.028773373141388e+000	 7.117433529299845e-001	 1.266976017234400e+001
 2.021660461641427e+000	 7.317027933834631e-001	 1.264250371955700e+001
 2.014334901931626e+000	 7.516348201574681e-001	 1.262952480256518e+001
 2.006796430513763e+000	 7.715361861220047e-001	 1.263255737313392e+001
 1.999044847290198e+000	 7.914036255591603e-001	 1.265339476675771e+001
 2.091042734063091e+000	 5.984691172955039e-001	 1.207666992231379e+001
 2.085128758941291e+000	 6.187592897584642e-001	 1.259918973496726e+001
 2.079002560287087e+000	 6.390409645239521e-001	 1.272310243854554e+001
 2.072663505367901e+000	 6.593109990976906e-001	 1.267159248414219e+001
 2.066111020087052e+000	 6.795662239156050e-001	 1.262878608038730e+001
 2.059344589983939e+000	 6.998034436287718e-001	 1.259609792681100e+001
 2.052363761202996e+000	 7.200194384265526e-001	 1.257500196633264e+001
 2.045168141429878e+000	 7.402109653971277e-001	 1.256703183771225e+001
 2.037757400793325e+000	 7.603747599245742e-001	 1.257378120470807e+001
 2.030131272731183e+000	 7.805075371215725e-001	 1.259690395629912e+001
 2.022289554819095e+000	 8.006059932967460e-001	 1.263811427253215e+001
 2.115077708019714e+000	 6.053480726636871e-001	 1.209990773673852e+001
 2.109095756172518e+000	 6.258714654997258e-001	 1.260912586318126e+001
 2.102899141441959e+000	 6.463862629636555e-001	 1.256338956073661e+001
 2.096487223822670e+000	 6.668892864405760e-001	 1.252576805291807e+001
 2.089859422619158e+000	 6.873773299346419e-001	 1.249753492948706e+001
 2.083015217457481e+000	 7.078471613687812e-001	 1.248002283192093e+001
 2.075954149265344e+000	 7.282955239230385e-001	 1.247462415398863e+001
 2.068675821219042e+000	 7.487191374107457e-001	 1.248279162459388e+001
 2.061179899655688e+000	 7.691146996916595e-001	 1.250603876675535e+001
 2.053466114949198e+000	 7.894788881211350e-001	 1.254594022676400e+001
 2.045534262348497e+000	 8.098083610343312e-001	 1.260413196775505e+001
 2.139112681976832e+000	 6.122270280313643e-001	 1.213029877983327e+001
 2.133062753404329e+000	 6.329836412405763e-001	 1.244493685885792e+001
 2.126795722597485e+000	 6.537315614030334e-001	 1.240974956688708e+001
 2.120310942278145e+000	 6.744675737832115e-001	 1.238336002428697e+001
 2.113607825152002e+000	 6.951884359534946e-001	 1.236695956650977e+001
 2.106685844931774e+000	 7.158908791086626e-001	 1.236179906707052e+001
 2.099544537328435e+000	 7.365716094194423e-001	 1.236918977118796e+001
 2.092183501008918e+000	 7.572273094243178e-001	 1.239050401130336e+001
 2.084602398518716e+000	 7.778546394587245e-001	 1.242717579802298e+001
 2.076800957167808e+000	 7.984502391206924e-001	 1.248070128019611e+001
 2.068778969878404e+000	 8.190107287719171e-001	 1.255263906803626e+001
 2.163147655934445e+000	 6.191059833985354e-001	 1.216418717562321e+001
 2.157029750636725e+000	 6.400958169810158e-001	 1.228924032764599e+001
 2.150692303753667e+000	 6.610768598420859e-001	 1.226218375996773e+001
 2.144134660734327e+000	 6.820458611255974e-001	 1.224452339176778e+001
 2.137356227685584e+000	 7.029995419721637e-001	 1.223736841304473e+001
 2.130356472406817e+000	 7.239345968484161e-001	 1.224188814626769e+001
 2.123134925392267e+000	 7.448476949157644e-001	 1.225931301557781e+001
 2.115691180799508e+000	 7.657354814378435e-001	 1.229093539734247e+001
 2.108024897382408e+000	 7.865945792257689e-001	 1.233811034527508e+001
 2.100135799387014e+000	 8.074215901202450e-001	 1.240225618349635e+001
 2.092023677408817e+000	 8.282130965095027e-001	 1.248485496110563e+001
 1.859576602127425e+000	 7.361894191336469e-001	 1.248627627729271e+001
 1.852167457058817e+000	 7.546361447941515e-001	 1.249123350247882e+001
 1.844559875975171e+000	 7.730451888174859e-001	 1.251171702305392e+001
 1.836753853879596e+000	 7.914134698526777e-001	 1.254846195999114e+001
 1.828749447430661e+000	 8.097378949529318e-001	 1.260218296393202e+001
 1.820546775513088e+000	 8.280153610683620e-001	 1.267357269715629e+001
 1.812146019766516e+000	 8.462427565638450e-001	 1.276330033398990e+001
 1.803547425071165e+000	 8.644169627606547e-001	 1.287201008341784e+001
 1.794751299989325e+000	 8.825348555005110e-001	 1.300031973768214e+001
 1.785758017161617e+000	 9.005933067305992e-001	 1.314881925064348e+001
 1.776568013657048e+000	 9.185891861080785e-001	 1.331806934967501e+001
 1.882821309653291e+000	 7.453917868712325e-001	 1.240976869815057e+001
 1.875319550272018e+000	 7.640690966028914e-001	 1.233474060572430e+001
 1.867616874425373e+000	 7.827082536768358e-001	 1.236760067726526e+001
 1.859713277054009e+000	 8.013061382252066e-001	 1.242224779093810e+001
 1.851608815524723e+000	 8.198596186393719e-001	 1.249535538819835e+001
 1.843303610208294e+000	 8.383655530813226e-001	 1.258757761341688e+001
 1.834797845014858e+000	 8.568207910204950e-001	 1.269954301935290e+001
 1.826091767885635e+000	 8.752221747946792e-001	 1.283185308759825e+001
 1.817185691239944e+000	 8.935665411936157e-001	 1.298508077818410e+001
 1.808079992376415e+000	 9.118507230638301e-001	 1.315976911221348e+001
 1.798775113827414e+000	 9.300715509331942e-001	 1.335642979136504e+001
 1.906066017179662e+000	 7.545941546088181e-001	 1.250475654762751e+001
 1.898471643485632e+000	 7.735020484116312e-001	 1.243893949544632e+001
 1.890673872875920e+000	 7.923713185361859e-001	 1.238980280078933e+001
 1.882672700228714e+000	 8.111988065977350e-001	 1.235887552270865e+001
 1.874468183619045e+000	 8.299813423258119e-001	 1.235414855764978e+001
 1.866060444903750e+000	 8.487157450942829e-001	 1.246389255621758e+001
 1.857449670263458e+000	 8.673988254771451e-001	 1.259480674815575e+001
 1.848636110700393e+000	 8.860273868287037e-001	 1.274745185132520e+001
 1.839620082490902e+000	 9.045982268867205e-001	 1.292235794142620e+001
 1.830401967591619e+000	 9.231081393970605e-001	 1.312002303651383e+001
 1.820982213998275e+000	 9.415539157583098e-001	 1.334091172173320e+001
 1.929310724706539e+000	 7.637965223464036e-001	 1.257557145125422e+001
 1.921623736699662e+000	 7.829350002203711e-001	 1.251679303594951e+001
 1.913730871326810e+000	 8.020343833955359e-001	 1.247495412147013e+001
 1.905632123403714e+000	 8.210914749702638e-001	 1.245154971724421e+001
 1.897327551713629e+000	 8.401030660122524e-001	 1.244812491786332e+001
 1.888817279599456e+000	 8.590659371072436e-001	 1.246627445466754e+001
 1.880101495512317e+000	 8.779768599337953e-001	 1.250764211106734e+001
 1.871180453515440e+000	 8.968325988627283e-001	 1.261765568373222e+001
 1.862054473742195e+000	 9.156299125798255e-001	 1.281108191423286e+001
 1.852723942807229e+000	 9.343655557302910e-001	 1.302859387025979e+001
 1.843189314169633e+000	 9.530362805834256e-001	 1.327061089893743e+001
 1.952555432233920e+000	 7.729988900839893e-001	 1.262323638318573e+001
 1.944775829914107e+000	 7.923679520291109e-001	 1.256943670513934e+001
 1.936787869778046e+000	 8.116974482548862e-001	 1.253276802917983e+001
 1.928591546579006e+000	 8.309841433427924e-001	 1.251469202662012e+001
 1.920186919808475e+000	 8.502247896986922e-001	 1.251672214303860e+001
 1.911574114295413e+000	 8.694161291202041e-001	 1.254042322542999e+001
 1.902753320761436e+000	 8.885548943904453e-001	 1.258741100941778e+001
 1.893724796330773e+000	 9.076378108967529e-001	 1.265935146323212e+001
 1.884488864993826e+000	 9.266615982729306e-001	 1.275795998550279e+001
 1.875045918023246e+000	 9.456229720635218e-001	 1.288500045428413e+001
 1.865396414341487e+000	 9.645186454085410e-001	 1.314461807452973e+001
 1.975800139761806e+000	 7.822012578215748e-001	 1.264881206412526e+001
 1.967927923128965e+000	 8.018009038378509e-001	 1.259803957262292e+001
 1.959844868229625e+000	 8.213605131142362e-001	 1.256452100383318e+001
 1.951550969754590e+000	 8.408768117153210e-001	 1.254968534994872e+001
 1.943046287903584e+000	 8.603465133851326e-001	 1.255501517675817e+001
 1.934330948991620e+000	 8.797663211331644e-001	 1.258204632757795e+001
 1.925405146010814e+000	 8.991329288470956e-001	 1.263236748338854e+001
 1.916269139146394e+000	 9.184430229307773e-001	 1.270761957562647e+001
 1.906923256245794e+000	 9.376932839660355e-001	 1.280949504843758e+001
 1.897367893239668e+000	 9.568803883967523e-001	 1.293973696757342e+001
 1.887603514513837e+000	 9.760010102336569e-001	 1.310013797350846e+001
 1.999044847290198e+000	 7.914036255591603e-001	 1.265339476675771e+001
 1.991080016344239e+000	 8.112338556465905e-001	 1.260380234670326e+001
 1.982901866681548e+000	 8.310235779735863e-001	 1.257151722719069e+001
 1.974510392930468e+000	 8.507694800878497e-001	 1.255793632941916e+001
 1.965905655998953e+000	 8.704682370715726e-001	 1.256451205864182e+001
 1.957087783688078e+000	 8.901165131461248e-001	 1.259275208615556e+001
 1.948056971260451e+000	 9.097109633037456e-001	 1.264421898345395e+001
 1.938813481962304e+000	 9.292482349648019e-001	 1.272052970473593e+001
 1.929357647498099e+000	 9.487249696591404e-001	 1.282335491432627e+001
 1.919689868456498e+000	 9.681378047299827e-001	 1.295441815594809e+001
 1.909810614686682e+000	 9.874833750587725e-001	 1.311549486119561e+001
 2.022289554819095e+000	 8.006059932967460e-001	 1.263811427253215e+001
 2.014232109559929e+000	 8.206668074553304e-001	 1.258795555606310e+001
 2.005958865133816e+000	 8.406866428329364e-001	 1.255508699079871e+001
 1.997469816106639e+000	 8.606621484603785e-001	 1.254087398575273e+001
 1.988765024094585e+000	 8.805899607580128e-001	 1.254673945650586e+001
 1.979844618384786e+000	 9.004667051590853e-001	 1.257416368658943e+001
 1.970708796510346e+000	 9.202889977603954e-001	 1.262468403680635e+001
 1.961357824778502e+000	 9.400534469988263e-001	 1.269989449841695e+001
 1.951792038750740e+000	 9.597566553522452e-001	 1.280144508648894e+001
 1.942011843673734e+000	 9.793952210632133e-001	 1.293104107010543e+001
 1.932017714860024e+000	 9.989657398838882e-001	 1.309044203654382e+001
 2.045534262348497e+000	 8.098083610343312e-001	 1.260413196775505e+001
 2.037384202776032e+000	 8.300997592640702e-001	 1.255175785542551e+001
 2.029015863586428e+000	 8.503497076922865e-001	 1.251658521247870e+001
 2.020429239283104e+000	 8.705548168329071e-001	 1.249994844669537e+001
 2.011624392190479e+000	 8.907116844444528e-001	 1.250324160794300e+001
 2.002601453081745e+000	 9.108168971720461e-001	 1.252791833034869e+001
 1.993360621760502e+000	 9.308670322170456e-001	 1.257549161799709e+001
 1.983902167594988e+000	 9.508586590328508e-001	 1.264753346980971e+001
 1.974226430003719e+000	 9.707883410453503e-001	 1.274567433964170e+001
 1.964333818891376e+000	 9.906526373964438e-001	 1.287160242803810e+001
 1.954224815033862e+000	 1.010448104709004e+000	 1.302706280252058e+001
 2.068778969878404e+000	 8.190107287719171e-001	 1.255263906803626e+001
 2.060536295992551e+000	 8.395327110728100e-001	 1.249649444543906e+001
 2.052072862039382e+000	 8.600127725516363e-001	 1.245739005282874e+001
 2.043388662459861e+000	 8.804474852054359e-001	 1.243662976122969e+001
 2.034483760286634e+000	 9.008334081308931e-001	 1.243557933325615e+001
 2.025358287778955e+000	 9.211670891850063e-001	 1.245566644752690e+001
 2.016012447010916e+000	 9.414450666736958e-001	 1.249838056200622e+001
 2.006446510411762e+000	 9.616638710668756e-001	 1.256527261164801e+001
 1.996660821257034e+000	 9.818200267384549e-001	 1.265795453611064e+001
 1.986655794109423e+000	 1.001910053729674e+000	 1.277809863372568e+001
 1.976431915208197e+000	 1.021930469534119e+000	 1.292743673834523e+001
 2.092023677408817e+000	 8.282130965095027e-001	 1.248485496110563e+001
 2.083688389209485e+000	 8.489656628815500e-001	 1.242347559790430e+001
 2.075129860492684e+000	 8.696758374109872e-001	 1.237890162395815e+001
 2.066348085636912e+000	 8.903401535779647e-001	 1.235240679283980e+001
 2.057343128383052e+000	 9.109551318173336e-001	 1.234532911419682e+001
 2.048115122476415e+000	 9.315172811979672e-001	 1.235907096191849e+001
 2.038664272261591e+000	 9.520231011303464e-001	 1.239509901644093e+001
 2.028990853228824e+000	 9.724690831009004e-001	 1.245494403628192e+001
 2.019095212510688e+000	 9.928517124315603e-001	 1.254020045429766e+001
 2.008977769327879e+000	 1.013167470062905e+000	 1.265252579457959e+001
 1.998639015383027e+000	 1.033412834359236e+000	 1.279363990636384e+001
 1.776568013657048e+000	 9.185891861080785e-001	 1.331806934967501e+001
 1.767181791275910e+000	 9.365193626221506e-001	 1.319032093442368e+001
 1.757599916804693e+000	 9.543807062332065e-001	 1.307428924303249e+001
 1.747823022222099e+000	 9.721700895268440e-001	 1.296942987378199e+001
 1.737851804855421e+000	 9.898843893801800e-001	 1.287516540535583e+001
 1.727687027486658e+000	 1.007520488639881e+000	 1.279088533592451e+001
 1.717329518407680e+000	 1.025075277809822e+000	 1.271594608626517e+001
 1.706780171423915e+000	 1.042545656746593e+000	 1.264967106848193e+001
 1.696039945806038e+000	 1.059928536361033e+000	 1.259135082174348e+001
 1.685109866189261e+000	 1.077220840323977e+000	 1.254024321629234e+001
 1.673991022419878e+000	 1.094419506774317e+000	 1.249557372681511e+001
 1.798775113827414e+000	 9.300715509331942e-001	 1.335642979136504e+001
 1.789271563665848e+000	 9.482258546533824e-001	 1.322004737477911e+001
 1.779569915763154e+000	 9.663104650593969e-001	 1.309740765836356e+001
 1.769670809997764e+000	 9.843222156441563e-001	 1.298809702092812e+001
 1.759574952413566e+000	 1.002257944245742e+000	 1.289166750267556e+001
 1.749283115327332e+000	 1.020114494746404e+000	 1.280763658276015e+001
 1.738796137384582e+000	 1.037888718781318e+000	 1.273548702184198e+001
 1.728114923563311e+000	 1.055577477455279e+000	 1.267466677151205e+001
 1.717240445125080e+000	 1.073177643065515e+000	 1.262458895231209e+001
 1.706173739513039e+000	 1.090686100828744e+000	 1.258463190191224e+001
 1.694915910196563e+000	 1.108099750610596e+000	 1.255413929484256e+001
 1.820982213998275e+000	 9.415539157583098e-001	 1.334091172173320e+001
 1.811361336056378e+000	 9.599323466846091e-001	 1.320016857048069e+001
 1.801539914722290e+000	 9.782402238855674e-001	 1.307521642276702e+001
 1.791518597774181e+000	 9.964743417614238e-001	 1.296577076343168e+001
 1.781298099972527e+000	 1.014631499111225e+000	 1.287151137478305e+001
 1.770879203168879e+000	 1.032708500852804e+000	 1.279208195334015e+001
 1.760262756362402e+000	 1.050702159752635e+000	 1.272708979261287e+001
 1.749449675703662e+000	 1.068609298163722e+000	 1.267610553410522e+001
 1.738440944445101e+000	 1.086426749769679e+000	 1.263866298857422e+001
 1.727237612837812e+000	 1.104151361333108e+000	 1.261425902941701e+001
 1.715840797974247e+000	 1.121779994446377e+000	 1.260235355988683e+001
 1.843189314169633e+000	 9.530362805834256e-001	 1.327061089893743e+001
 1.833451108447498e+000	 9.716388387158305e-001	 1.312959555681460e+001
 1.823509913682104e+000	 9.901699827117182e-001	 1.300644293031256e+001
 1.813366385551350e+000	 1.008626467878648e+000	 1.290099602917459e+001
 1.803021247532308e+000	 1.027005053976629e+000	 1.281306075142498e+001
 1.792475291011298e+000	 1.045302506959080e+000	 1.274240533991273e+001
 1.781729375341141e+000	 1.063515600723774e+000	 1.268875990601871e+001
 1.770784427844967e+000	 1.081641118871923e+000	 1.265181602302095e+001
 1.759641443766101e+000	 1.099675856473525e+000	 1.263122639146030e+001
 1.748301486163579e+000	 1.117616621837070e+000	 1.262660457868761e+001
 1.736765685752931e+000	 1.135460238281661e+000	 1.263752483459952e+001
 1.865396414341487e+000	 9.645186454085410e-001	 1.314461807452973e+001
 1.855540880839211e+000	 9.833453307470476e-001	 1.300724254799334e+001
 1.845479912642593e+000	 1.002099741537849e+000	 1.288982591402334e+001
 1.835214173329270e+000	 1.020778593995827e+000	 1.279233721559257e+001
 1.824744395092904e+000	 1.039378608841954e+000	 1.271470692914503e+001
 1.814071378854591e+000	 1.057896513065233e+000	 1.265682626147365e+001
 1.803195994320799e+000	 1.076329041694735e+000	 1.261854651496905e+001
 1.792119179987226e+000	 1.094672939579881e+000	 1.259967852404431e+001
 1.780841943088082e+000	 1.112924963177054e+000	 1.259999216538862e+001
 1.769365359490342e+000	 1.131081882340630e+000	 1.261921594453977e+001
 1.757690573532616e+000	 1.149140482116448e+000	 1.265703666108994e+001
 1.887603514513837e+000	 9.760010102336569e-001	 1.310013797350846e+001
 1.877630653231514e+000	 9.950518227782595e-001	 1.285980794640390e+001
 1.867449911603760e+000	 1.014029500363961e+000	 1.272411477887877e+001
 1.857061961107944e+000	 1.032930720112961e+000	 1.263837704440726e+001
 1.846467542654319e+000	 1.051752163707200e+000	 1.257486714970744e+001
 1.835667466698757e+000	 1.070490519171262e+000	 1.253359776807509e+001
 1.824662613301375e+000	 1.089142482665518e+000	 1.251453985046163e+001
 1.813453932130439e+000	 1.107704760287595e+000	 1.251762190557243e+001
 1.802042442411042e+000	 1.126174069880265e+000	 1.254272935570695e+001
 1.790429232818099e+000	 1.144547142843787e+000	 1.258970397113955e+001
 1.778615461313300e+000	 1.162820725950737e+000	 1.265834338566277e+001
 1.909810614686682e+000	 9.874833750587725e-001	 1.311549486119561e+001
 1.899720425624409e+000	 1.006758314809467e+000	 1.287302771321333e+001
 1.889419910565603e+000	 1.025959259190053e+000	 1.265950851373784e+001
 1.878909748887369e+000	 1.045082846230052e+000	 1.247691711627948e+001
 1.868190690216551e+000	 1.064125718572367e+000	 1.239198309165393e+001
 1.857263554543797e+000	 1.083084525277168e+000	 1.237100449134571e+001
 1.846129232282870e+000	 1.101955923636123e+000	 1.237486883332145e+001
 1.834788684274606e+000	 1.120736580995068e+000	 1.240362079404408e+001
 1.823242941734981e+000	 1.139423176583158e+000	 1.245725979049916e+001
 1.811493106146852e+000	 1.158012403346542e+000	 1.253573926308743e+001
 1.799540349094984e+000	 1.176500969784529e+000	 1.263896604229512e+001
 1.932017714860024e+000	 9.989657398838882e-001	 1.309044203654382e+001
 1.921810198017894e+000	 1.018464806840669e+000	 1.284962817974318e+001
 1.911389909528122e+000	 1.037889018016125e+000	 1.263837820503826e+001
 1.900757536667546e+000	 1.057234972347098e+000	 1.245883043502853e+001
 1.889913837779600e+000	 1.076499273437455e+000	 1.231317807828372e+001
 1.878859642389709e+000	 1.095678531382949e+000	 1.220366729177193e+001
 1.867595851265284e+000	 1.114769364606549e+000	 1.219769885064735e+001
 1.856123436419727e+000	 1.133768401702297e+000	 1.225569294416705e+001
 1.844443441059901e+000	 1.152672283285734e+000	 1.234145504709436e+001
 1.832556979476599e+000	 1.171477663848894e+000	 1.245504875091067e+001
 1.820465236877668e+000	 1.190181213617824e+000	 1.259648852001148e+001
 1.954224815033862e+000	 1.010448104709004e+000	 1.302706280252058e+001
 1.943899970411971e+000	 1.030171298871866e+000	 1.279156636335703e+001
 1.933359908491318e+000	 1.049818776842177e+000	 1.258617972741601e+001
 1.922605324448474e+000	 1.069387098464099e+000	 1.241319853557906e+001
 1.911636985343467e+000	 1.088872828302464e+000	 1.227497664315574e+001
 1.900455730236494e+000	 1.108272537488608e+000	 1.217392403998122e+001
 1.889062470248617e+000	 1.127582805576798e+000	 1.211250457883800e+001
 1.877458188565803e+000	 1.146800222409283e+000	 1.209323351302075e+001
 1.865643940385800e+000	 1.165921389987992e+000	 1.219323362540538e+001
 1.853620852807341e+000	 1.184942924350843e+000	 1.234541249072645e+001
 1.841390124661353e+000	 1.203861457450621e+000	 1.252855399157419e+001
 1.976431915208197e+000	 1.021930469534119e+000	 1.292743673834523e+001
 1.965989742806639e+000	 1.041877790903058e+000	 1.270080164579944e+001
 1.955329907455190e+000	 1.061748535668210e+000	 1.250475112255697e+001
 1.944453112230155e+000	 1.081539224581056e+000	 1.234173703811477e+001
 1.933360132908152e+000	 1.101246383167394e+000	 1.221427291247794e+001
 1.922051818084153e+000	 1.120866543594143e+000	 1.212493169556533e+001
 1.910529089232867e+000	 1.140396246546868e+000	 1.207634334571668e+001
 1.898792940712833e+000	 1.159832043116027e+000	 1.207119220823651e+001
 1.886844439712678e+000	 1.179170496689933e+000	 1.211221419553539e+001
 1.874684726139078e+000	 1.198408184852391e+000	 1.220466067965815e+001
 1.862315012446037e+000	 1.217541701282921e+000	 1.243286158293634e+001
 1.998639015383027e+000	 1.033412834359236e+000	 1.279363990636384e+001
 1.988079515201900e+000	 1.053584282934246e+000	 1.257929564184138e+001
 1.977299906419740e+000	 1.073678294494223e+000	 1.239593839715726e+001
 1.966300900012589e+000	 1.093691350697970e+000	 1.224617523914247e+001
 1.955083280473655e+000	 1.113619938032245e+000	 1.213267843072567e+001
 1.943647905932685e+000	 1.133460549699554e+000	 1.205818307124652e+001
 1.931995708218038e+000	 1.153209687516760e+000	 1.202548452644306e+001
 1.920127692860818e+000	 1.172863863822527e+000	 1.203743564915955e+001
 1.908044939040537e+000	 1.192419603391557e+000	 1.209694379247404e+001
 1.895748599471811e+000	 1.211873445353536e+000	 1.220696761760710e+001
 1.883239900231722e+000	 1.231221945114724e+000	 1.237051369964098e+001
 1.673991022419878e+000	 1.094419506774317e+000	 1.249557372681511e+001
 1.662684569349107e+000	 1.111521490027895e+000	 1.243093611615358e+001
 1.651191726573076e+000	 1.128523762284198e+000	 1.238817710673774e+001
 1.639513778119492e+000	 1.145423315329686e+000	 1.236726995537306e+001
 1.627652072081567e+000	 1.162217162236540e+000	 1.236814543664096e+001
 1.615608020198319e+000	 1.178902339053813e+000	 1.239069151389342e+001
 1.603383097381649e+000	 1.195475906489392e+000	 1.243475309271400e+001
 1.590978841190437e+000	 1.211934951580843e+000	 1.250013185826630e+001
 1.578396851251905e+000	 1.228276589353182e+000	 1.258658619773287e+001
 1.565638788630636e+000	 1.244497964461667e+000	 1.269383120881970e+001
 1.552706375145675e+000	 1.260596252817663e+000	 1.237690340083745e+001
 1.694915910196563e+000	 1.108099750610596e+000	 1.255413929484256e+001
 1.683468126462488e+000	 1.125415508655709e+000	 1.253425699119994e+001
 1.671831623151878e+000	 1.142630309315913e+000	 1.253710236210314e+001
 1.660007700342781e+000	 1.159741106774995e+000	 1.256259502954590e+001
 1.647997722979581e+000	 1.176744876768540e+000	 1.261061063460925e+001
 1.635803120448028e+000	 1.193638618296214e+000	 1.268098054983670e+001
 1.623425386096425e+000	 1.210419355324751e+000	 1.277349167723923e+001
 1.610866076703136e+000	 1.227084138479686e+000	 1.288788633331529e+001
 1.598126811890725e+000	 1.243630046723849e+000	 1.302386222224458e+001
 1.585209273487081e+000	 1.260054189020686e+000	 1.277533268902766e+001
 1.572115204833990e+000	 1.276353705980456e+000	 1.227672879509681e+001
 1.715840797974247e+000	 1.121779994446377e+000	 1.260235355988683e+001
 1.704251683576865e+000	 1.139309527282935e+000	 1.262534833949616e+001
 1.692471519731658e+000	 1.156736856346968e+000	 1.267197536566211e+001
 1.680501622567026e+000	 1.174058898219595e+000	 1.274210166768711e+001
 1.668343373878515e+000	 1.191272591299802e+000	 1.283554874006733e+001
 1.655998220698613e+000	 1.208374897537865e+000	 1.295209229491193e+001
 1.643467674812022e+000	 1.225362804159370e+000	 1.309146210324389e+001
 1.630753312216592e+000	 1.242233325377819e+000	 1.325334192653711e+001
 1.617856772530227e+000	 1.258983504093854e+000	 1.309127193802645e+001
 1.604779758344124e+000	 1.275610413579115e+000	 1.263589304206358e+001
 1.591524034522806e+000	 1.292111159142748e+000	 1.218122994700972e+001
 1.736765685752931e+000	 1.135460238281661e+000	 1.263752483459952e+001
 1.725035240692236e+000	 1.153203545909574e+000	 1.270157620913950e+001
 1.713111416312420e+000	 1.170843403377367e+000	 1.279022001627789e+001
 1.700995544792228e+000	 1.188376689663487e+000	 1.290327170768741e+001
 1.688689024778370e+000	 1.205800305830324e+000	 1.304049959066545e+001
 1.676193320950074e+000	 1.223111176778767e+000	 1.320162461927972e+001
 1.663509963528440e+000	 1.240306252993249e+000	 1.338632027773919e+001
 1.650640547730804e+000	 1.257382512275241e+000	 1.332496503496586e+001
 1.637586733170410e+000	 1.274336961463199e+000	 1.291561983222789e+001
 1.624350243201763e+000	 1.291166638136952e+000	 1.250416536447238e+001
 1.610932864212123e+000	 1.307868612304539e+000	 1.209184311344943e+001
 1.757690573532616e+000	 1.149140482116448e+000	 1.265703666108994e+001
 1.745818797808603e+000	 1.167097564535626e+000	 1.276037879801938e+001
 1.733751312894162e+000	 1.184949950407107e+000	 1.288932930746802e+001
 1.721489467018384e+000	 1.202694481106671e+000	 1.304365305300787e+001
 1.709034675679145e+000	 1.220328020360107e+000	 1.322306608811024e+001
 1.696388421202410e+000	 1.237847456018919e+000	 1.342723548471922e+001
 1.683552252245678e+000	 1.255249701826387e+000	 1.347630045888966e+001
 1.670527783245771e+000	 1.272531699171952e+000	 1.311593783245697e+001
 1.657316693811274e+000	 1.289690418831883e+000	 1.275063638925264e+001
 1.643920728059998e+000	 1.306722862694198e+000	 1.238159084409793e+001
 1.630341693901942e+000	 1.323626065465828e+000	 1.201005026858574e+001
 1.778615461313300e+000	 1.162820725950737e+000	 1.265834338566277e+001
 1.766602354925964e+000	 1.180991583161090e+000	 1.279926220971231e+001
 1.754391209476883e+000	 1.199056497436190e+000	 1.296686126301315e+001
 1.741983389245496e+000	 1.217012272549147e+000	 1.316085578646979e+001
 1.729380326580841e+000	 1.234855734889153e+000	 1.338091048851449e+001
 1.716583521455622e+000	 1.252583735258322e+000	 1.354479673310502e+001
 1.703594540963738e+000	 1.270193150658786e+000	 1.323650902175002e+001
 1.690415018761495e+000	 1.287680886067954e+000	 1.292045261236765e+001
 1.677046654452819e+000	 1.305043876199906e+000	 1.259776808271350e+001
 1.663491212918830e+000	 1.322279087250852e+000	 1.226965633679687e+001
 1.649750523592262e+000	 1.339383518626616e+000	 1.193737641463247e+001
 1.799540349094984e+000	 1.176500969784529e+000	 1.263896604229512e+001
 1.787385912044321e+000	 1.194885601785967e+000	 1.281579650547650e+001
 1.775031106060586e+000	 1.213163044464615e+000	 1.302043515612751e+001
 1.762477311473562e+000	 1.231330063990914e+000	 1.325254855517560e+001
 1.749725977483457e+000	 1.249383449417458e+000	 1.351175095155952e+001
 1.736778621709710e+000	 1.267320014496975e+000	 1.327661445798463e+001
 1.723636829682618e+000	 1.285136599490444e+000	 1.301304553391579e+001
 1.710302254277975e+000	 1.302830072963244e+000	 1.273996131410129e+001
 1.696776615095046e+000	 1.320397333567267e+000	 1.245850691785627e+001
 1.683061697778257e+000	 1.337835311806915e+000	 1.216989171132167e+001
 1.669159353283084e+000	 1.355140971786903e+000	 1.187538708021700e+001
 1.820465236877668e+000	 1.190181213617824e+000	 1.259648852001148e+001
 1.808169469163672e+000	 1.208779620410255e+000	 1.280761202852319e+001
 1.795671002645268e+000	 1.227269591492382e+000	 1.304772798937668e+001
 1.782971233702584e+000	 1.245647855431973e+000	 1.331645520474549e+001
 1.770071628386993e+000	 1.263911163945025e+000	 1.323514145714869e+001
 1.756973721964674e+000	 1.282056293734879e+000	 1.302745466516420e+001
 1.743679118402319e+000	 1.300080048321363e+000	 1.280736741932735e+001
 1.730189489795211e+000	 1.317979259857824e+000	 1.257596119512347e+001
 1.716506575737954e+000	 1.335750790933969e+000	 1.233438781479925e+001
 1.702632182638282e+000	 1.353391536362387e+000	 1.208386737731514e+001
 1.688568182974407e+000	 1.370898424946689e+000	 1.182568599127619e+001
 1.841390124661353e+000	 1.203861457450621e+000	 1.252855399157419e+001
 1.828953026284019e+000	 1.222673639033957e+000	 1.277239597890541e+001
 1.816310899230930e+000	 1.241376138519491e+000	 1.304647121460064e+001
 1.803465155932562e+000	 1.259965646872324e+000	 1.311057223035101e+001
 1.790417279291451e+000	 1.278438878471852e+000	 1.296231507933335e+001
 1.777168822220513e+000	 1.296792572972034e+000	 1.279878013313242e+001
 1.763721407122842e+000	 1.315023497151540e+000	 1.262097713815020e+001
 1.750076725313204e+000	 1.333128446751693e+000	 1.242999225607200e+001
 1.736236536381543e+000	 1.351104248300008e+000	 1.222698617018829e+001
 1.722202667498902e+000	 1.368947760917268e+000	 1.201319198185082e+001
 1.707977012666231e+000	 1.386655878105973e+000	 1.178991290075468e+001
 1.862315012446037e+000	 1.217541701282921e+000	 1.243286158293634e+001
 1.849736583405360e+000	 1.236567657657071e+000	 1.270788921931354e+001
 1.836950795817573e+000	 1.255482685545942e+000	 1.290097401869079e+001
 1.823959078163495e+000	 1.274283438311965e+000	 1.281584645480147e+001
 1.810762930196829e+000	 1.292966592997942e+000	 1.271257798549243e+001
 1.797363922477228e+000	 1.311528852208439e+000	 1.259209833454343e+001
 1.783763695844185e+000	 1.329966945980979e+000	 1.245541965664998e+001
 1.769963960831952e+000	 1.348277633644852e+000	 1.230363483945543e+001
 1.755966497025814e+000	 1.366457705665388e+000	 1.213791558323463e+001
 1.741773152360119e+000	 1.384503985471558e+000	 1.195951026126290e+001
 1.727385842358557e+000	 1.402413331264755e+000	 1.176974156461574e+001
 1.883239900231722e+000	 1.231221945114724e+000	 1.237051369964098e+001
 1.870520140527698e+000	 1.250461676279598e+000	 1.260399076069344e+001
 1.857590692405196e+000	 1.269589232571736e+000	 1.258584364917398e+001
 1.844453000395384e+000	 1.288601229750900e+000	 1.254671376951174e+001
 1.831108581103128e+000	 1.307494307523293e+000	 1.248744234074104e+001
 1.817559022734820e+000	 1.326265131444095e+000	 1.240895895320771e+001
 1.803805984566350e+000	 1.344910394809678e+000	 1.231228008574236e+001
 1.789851196351457e+000	 1.363426820537300e+000	 1.219850738843773e+001
 1.775696457670766e+000	 1.381811163030106e+000	 1.206882573335009e+001
 1.761343637221933e+000	 1.400060210025257e+000	 1.192450103618708e+001
 1.746794672051384e+000	 1.418170784423037e+000	 1.176687785278478e+001
 1.552706375145675e+000	 1.260596252817663e+000	 1.237690340083745e+001
 1.539601392635642e+000	 1.276568663195416e+000	 1.223137928312989e+001
 1.526325682174240e+000	 1.292412438818711e+000	 1.209338857929224e+001
 1.512881143235718e+000	 1.308124858924892e+000	 1.196424272684826e+001
 1.499269732809776e+000	 1.323703240303929e+000	 1.184528079285064e+001
 1.485493464468560e+000	 1.339144938811550e+000	 1.173786678579170e+001
 1.471554407386076e+000	 1.354447350854373e+000	 1.164338686281776e+001
 1.457454685310996e+000	 1.369607914845310e+000	 1.156324643880127e+001
 1.443196475493934e+000	 1.384624112627510e+000	 1.149886720419306e+001
 1.428782007570309e+000	 1.399493470865234e+000	 1.145168405892043e+001
 1.414213562400000e+000	 1.414213562400000e+000	 1.142314196992025e+001
 1.572115204833990e+000	 1.276353705980456e+000	 1.227672879509681e+001
 1.558846410042997e+000	 1.292525771487219e+000	 1.217440575687427e+001
 1.545404753201173e+000	 1.308567594305194e+000	 1.207599533567029e+001
 1.531792157526195e+000	 1.324476419662191e+000	 1.198275273579946e+001
 1.518010604470134e+000	 1.340249530808056e+000	 1.189596590037563e+001
 1.504062132774790e+000	 1.355884250546714e+000	 1.181695283842621e+001
 1.489948837478840e+000	 1.371377942739865e+000	 1.174705883794517e+001
 1.475672868877818e+000	 1.386728013780583e+000	 1.168765357148356e+001
 1.461236431437968e+000	 1.401931914035057e+000	 1.164012810127077e+001
 1.446641782665152e+000	 1.416987139250850e+000	 1.160589179122795e+001
 1.431891231930000e+000	 1.431891231930000e+000	 1.158636913358257e+001
 1.591524034522806e+000	 1.292111159142748e+000	 1.218122994700972e+001
 1.578091427450757e+000	 1.308482879778616e+000	 1.211793606248044e+001
 1.564483824228427e+000	 1.324722749791355e+000	 1.205495014540297e+001
 1.550703171816918e+000	 1.340827980399244e+000	 1.199347506857552e+001
 1.536751476130674e+000	 1.356795821312003e+000	 1.193475160454248e+001
 1.522630801081145e+000	 1.372623562281752e+000	 1.188005576294030e+001
 1.508343267571685e+000	 1.388308534625278e+000	 1.183069600427118e+001
 1.493891052444684e+000	 1.403848112715812e+000	 1.178801033676060e+001
 1.479276387382022e+000	 1.419239715442584e+000	 1.175336330337153e+001
 1.464501557760002e+000	 1.434480807636461e+000	 1.172814286644377e+001
 1.449568901460000e+000	 1.449568901460000e+000	 1.171375719779869e+001
 1.610932864212123e+000	 1.307868612304539e+000	 1.209184311344943e+001
 1.597336444858925e+000	 1.324439988069607e+000	 1.206353780268014e+001
 1.583562895256001e+000	 1.340877905277195e+000	 1.203194783285918e+001
 1.569614186107887e+000	 1.357179541136051e+000	 1.199822760330518e+001
 1.555492347791394e+000	 1.373342111815769e+000	 1.196357462899885e+001
 1.541199469387625e+000	 1.389362874016665e+000	 1.192922688321166e+001
 1.526737697664610e+000	 1.405239126510609e+000	 1.189646000690358e+001
 1.512109236011596e+000	 1.420968211650994e+000	 1.186658439160954e+001
 1.497316343326096e+000	 1.436547516850091e+000	 1.184094214298077e+001
 1.482361332854855e+000	 1.451974476022067e+000	 1.182090393256588e+001
 1.467246570990000e+000	 1.467246570990000e+000	 1.180786574581445e+001
 1.630341693901942e+000	 1.323626065465828e+000	 1.201005026858574e+001
 1.616581462267498e+000	 1.340397096360191e+000	 1.201281724155930e+001
 1.602641966283898e+000	 1.357033060762714e+000	 1.200871495336903e+001
 1.588525200399102e+000	 1.373531101872612e+000	 1.199885314774198e+001
 1.574233219452295e+000	 1.389888402319353e+000	 1.198438995816778e+001
 1.559768137694231e+000	 1.406102185751452e+000	 1.196652925088366e+001
 1.545132127757616e+000	 1.422169718395860e+000	 1.194651782481432e+001
 1.530327419578553e+000	 1.438088310586132e+000	 1.192564247526284e+001
 1.515356299270190e+000	 1.453855318257577e+000	 1.190522692861894e+001
 1.500221107949714e+000	 1.469468144407668e+000	 1.188662865579995e+001
 1.484924240520000e+000	 1.484924240520000e+000	 1.187123557255936e+001
 1.649750523592262e+000	 1.339383518626616e+000	 1.193737641463247e+001
 1.635826479676479e+000	 1.356354204650368e+000	 1.196741703036072e+001
 1.621721037312116e+000	 1.373188216247912e+000	 1.198700792669677e+001
 1.607436214690563e+000	 1.389882662608927e+000	 1.199721797281559e+001
 1.592974091113377e+000	 1.406434692822758e+000	 1.199916976308462e+001
 1.578336806000964e+000	 1.422841497486115e+000	 1.199403695549628e+001
 1.563526557850701e+000	 1.439100310281031e+000	 1.198304145708271e+001
 1.548545603145556e+000	 1.455208409521225e+000	 1.196745046319328e+001
 1.533396255214304e+000	 1.471163119665044e+000	 1.194857335801589e+001
 1.518080883044578e+000	 1.486961812793264e+000	 1.192775848419407e+001
 1.502601910049999e+000	 1.502601910049999e+000	 1.190638978984176e+001
 1.669159353283084e+000	 1.355140971786903e+000	 1.187538708021700e+001
 1.655071497085865e+000	 1.372311312940140e+000	 1.192901409195184e+001
 1.640800108340654e+000	 1.389343371732789e+000	 1.196861130073648e+001
 1.626347228982270e+000	 1.406234223344997e+000	 1.199521044849372e+001
 1.611714962774640e+000	 1.422980983325981e+000	 1.200990240217532e+001
 1.596905474307821e+000	 1.439580809220651e+000	 1.201383448274860e+001
 1.581920987943868e+000	 1.456030902166122e+000	 1.200820763102860e+001
 1.566763786712603e+000	 1.472328508456272e+000	 1.199427341733255e+001
 1.551436211158438e+000	 1.488470921072491e+000	 1.197333090245931e+001
 1.535940658139447e+000	 1.504455481178855e+000	 1.194672335799701e+001
 1.520279579580000e+000	 1.520279579580000e+000	 1.191583485443725e+001
 1.688568182974407e+000	 1.370898424946689e+000	 1.182568599127619e+001
 1.674316514495657e+000	 1.388268421229506e+000	 1.189931765119111e+001
 1.659879179369514e+000	 1.405498527217345e+000	 1.195533613495293e+001
 1.645258243274223e+000	 1.422585784080820e+000	 1.199473977372257e+001
 1.630455834436084e+000	 1.439527273829024e+000	 1.201859149094671e+001
 1.615474142614804e+000	 1.456320120955061e+000	 1.202801611701777e+001
 1.600315418037114e+000	 1.472961494051132e+000	 1.202419753047469e+001
 1.584981970279697e+000	 1.489448607391275e+000	 1.200837563282662e+001
 1.569476167102593e+000	 1.505778722479917e+000	 1.198184316463608e+001
 1.553800433234320e+000	 1.521949149564441e+000	 1.194594237102562e+001
 1.537957249110000e+000	 1.537957249110000e+000	 1.190206152527452e+001
 1.707977012666231e+000	 1.386655878105973e+000	 1.178991290075468e+001
 1.693561531905856e+000	 1.404225529518465e+000	 1.188006739958765e+001
 1.678958250398694e+000	 1.421653682701579e+000	 1.194901849404240e+001
 1.664169257566422e+000	 1.438937344816397e+000	 1.199773479296205e+001
 1.649196706097708e+000	 1.456073564331886e+000	 1.202725503510682e+001
 1.634042810921913e+000	 1.473059432689346e+000	 1.203868538461643e+001
 1.618709848130441e+000	 1.489892085936062e+000	 1.203319654253592e+001
 1.603200153846835e+000	 1.506568706326231e+000	 1.201202068160284e+001
 1.587516123046767e+000	 1.523086523887323e+000	 1.197644821207557e+001
 1.571660208329199e+000	 1.539442817950022e+000	 1.192782438693969e+001
 1.555634918639999e+000	 1.555634918639999e+000	 1.186754575535843e+001
 1.727385842358557e+000	 1.402413331264755e+000	 1.176974156461574e+001
 1.712806549316460e+000	 1.420182637807017e+000	 1.187303178369176e+001
 1.698037321428197e+000	 1.437808838185493e+000	 1.195151804314433e+001
 1.683080271858867e+000	 1.455288905551728e+000	 1.200614289250532e+001
 1.667937577759513e+000	 1.472619854834567e+000	 1.203792462212670e+001
 1.652611479229147e+000	 1.489798744423506e+000	 1.204795453458251e+001
 1.637104278223849e+000	 1.506822677820911e+000	 1.203739402147959e+001
 1.621418337414018e+000	 1.523688805261143e+000	 1.200747145300045e+001
 1.605556078990962e+000	 1.540394325294709e+000	 1.195947888811351e+001
 1.589519983424083e+000	 1.556936486335598e+000	 1.189476861396977e+001
 1.573312588170000e+000	 1.573312588170000e+000	 1.181474952356350e+001
 1.746794672051384e+000	 1.418170784423037e+000	 1.176687785278478e+001
 1.732051566727472e+000	 1.436139746095164e+000	 1.188000640759257e+001
 1.717116392458020e+000	 1.453963993669085e+000	 1.196471673670580e+001
 1.701991286151559e+000	 1.471640466286814e+000	 1.202192897037697e+001
 1.686678449421499e+000	 1.489166145337068e+000	 1.205264466669802e+001
 1.671180147536507e+000	 1.506538056157541e+000	 1.205794405408365e+001
 1.655498708317337e+000	 1.523753269705680e+000	 1.203898306832785e+001
 1.639636520981247e+000	 1.540808904196010e+000	 1.199699019169197e+001
 1.623596034935177e+000	 1.557702126702076e+000	 1.193326310212506e+001
 1.607379758518973e+000	 1.574430154721170e+000	 1.184916514132985e+001
 1.590990257700000e+000	 1.590990257700000e+000	 1.174612161097451e+001
 1.414213562400000e+000	 1.414213562400000e+000	 1.142314196992025e+001
 1.399493470865234e+000	 1.428782007570309e+000	 1.141254983334225e+001
 1.384624112627510e+000	 1.443196475493934e+000	 1.138839498355013e+001
 1.369607914845309e+000	 1.457454685310996e+000	 1.135152014228433e+001
 1.354447350854374e+000	 1.471554407386076e+000	 1.130279932823506e+001
 1.339144938811549e+000	 1.485493464468560e+000	 1.124313505165745e+001
 1.323703240303929e+000	 1.499269732809775e+000	 1.117345543597118e+001
 1.308124858924892e+000	 1.512881143235718e+000	 1.109471127455588e+001
 1.292412438818710e+000	 1.526325682174240e+000	 1.100787303114256e+001
 1.276568663195416e+000	 1.539601392635642e+000	 1.091392779236389e+001
 1.260596252817662e+000	 1.552706375145675e+000	 1.081387618115548e+001
 1.431891231930000e+000	 1.431891231930000e+000	 1.158636913358257e+001
 1.416987139250849e+000	 1.446641782665152e+000	 1.156071356467655e+001
 1.401931914035057e+000	 1.461236431437968e+000	 1.152384063393274e+001
 1.386728013780583e+000	 1.475672868877818e+000	 1.147670024794956e+001
 1.371377942739865e+000	 1.489948837478840e+000	 1.142027250624560e+001
 1.355884250546714e+000	 1.504062132774790e+000	 1.135556471379547e+001
 1.340249530808056e+000	 1.518010604470134e+000	 1.128360832087844e+001
 1.324476419662191e+000	 1.531792157526195e+000	 1.120545579887830e+001
 1.308567594305193e+000	 1.545404753201172e+000	 1.112217746086601e+001
 1.292525771487219e+000	 1.558846410042997e+000	 1.103485823595494e+001
 1.276353705980456e+000	 1.572115204833990e+000	 1.094459440654827e+001
 1.449568901460000e+000	 1.449568901460000e+000	 1.171375719779869e+001
 1.434480807636461e+000	 1.464501557760002e+000	 1.167387943157180e+001
 1.419239715442584e+000	 1.479276387382022e+000	 1.162503354082697e+001
 1.403848112715811e+000	 1.493891052444684e+000	 1.156827865399058e+001
 1.388308534625277e+000	 1.508343267571685e+000	 1.150470308593526e+001
 1.372623562281752e+000	 1.522630801081145e+000	 1.143542116426137e+001
 1.356795821312003e+000	 1.536751476130674e+000	 1.136156998306421e+001
 1.340827980399244e+000	 1.550703171816917e+000	 1.128430609326676e+001
 1.324722749791355e+000	 1.564483824228426e+000	 1.120480213878801e+001
 1.308482879778616e+000	 1.578091427450757e+000	 1.112424344797907e+001
 1.292111159142748e+000	 1.591524034522806e+000	 1.104382458988239e+001
 1.467246570990000e+000	 1.467246570990000e+000	 1.180786574581445e+001
 1.451974476022067e+000	 1.482361332854855e+000	 1.175452672441698e+001
 1.436547516850091e+000	 1.497316343326095e+000	 1.169437382040587e+001
 1.420968211650994e+000	 1.512109236011596e+000	 1.162857748822782e+001
 1.405239126510609e+000	 1.526737697664610e+000	 1.155833645953222e+001
 1.389362874016665e+000	 1.541199469387626e+000	 1.148487437893516e+001
 1.373342111815768e+000	 1.555492347791394e+000	 1.140943636728966e+001
 1.357179541136051e+000	 1.569614186107887e+000	 1.133328552199146e+001
 1.340877905277195e+000	 1.583562895256002e+000	 1.125769936404389e+001
 1.324439988069607e+000	 1.597336444858925e+000	 1.118396624176386e+001
 1.307868612304539e+000	 1.610932864212123e+000	 1.111338170113403e+001
 1.484924240520000e+000	 1.484924240520000e+000	 1.187123557255936e+001
 1.469468144407668e+000	 1.500221107949714e+000	 1.180511833244653e+001
 1.453855318257577e+000	 1.515356299270189e+000	 1.173424746837846e+001
 1.438088310586132e+000	 1.530327419578554e+000	 1.165990693116269e+001
 1.422169718395860e+000	 1.545132127757616e+000	 1.158340813653997e+001
 1.406102185751452e+000	 1.559768137694231e+000	 1.150608640608190e+001
 1.389888402319353e+000	 1.574233219452295e+000	 1.142929733546236e+001
 1.373531101872612e+000	 1.588525200399102e+000	 1.135441310009212e+001
 1.357033060762714e+000	 1.602641966283898e+000	 1.128281870830437e+001
 1.340397096360191e+000	 1.616581462267498e+000	 1.121590821243510e+001
 1.323626065465828e+000	 1.630341693901942e+000	 1.115508088826594e+001
 1.502601910049999e+000	 1.502601910049999e+000	 1.190638978984176e+001
 1.486961812793264e+000	 1.518080883044577e+000	 1.182810170851429e+001
 1.471163119665044e+000	 1.533396255214303e+000	 1.174702719060531e+001
 1.455208409521225e+000	 1.548545603145556e+000	 1.166456591876109e+001
 1.439100310281031e+000	 1.563526557850701e+000	 1.158214432507405e+001
 1.422841497486115e+000	 1.578336806000964e+000	 1.150121183268168e+001
 1.406434692822758e+000	 1.592974091113377e+000	 1.142323702445144e+001
 1.389882662608928e+000	 1.607436214690563e+000	 1.134970374921517e+001
 1.373188216247912e+000	 1.621721037312115e+000	 1.128210717621428e+001
 1.356354204650369e+000	 1.635826479676478e+000	 1.122194980857548e+001
 1.339383518626616e+000	 1.649750523592262e+000	 1.117073746675734e+001
 1.520279579580000e+000	 1.520279579580000e+000	 1.191583485443725e+001
 1.504455481178855e+000	 1.535940658139447e+000	 1.182590976655729e+001
 1.488470921072491e+000	 1.551436211158438e+000	 1.173507317576426e+001
 1.472328508456272e+000	 1.566763786712603e+000	 1.164484279620523e+001
 1.456030902166122e+000	 1.581920987943868e+000	 1.155676247264039e+001
 1.439580809220651e+000	 1.596905474307821e+000	 1.147239821822537e+001
 1.422980983325981e+000	 1.611714962774640e+000	 1.139333417893864e+001
 1.406234223344997e+000	 1.626347228982270e+000	 1.132116853560149e+001
 1.389343371732789e+000	 1.640800108340654e+000	 1.125750935463843e+001
 1.372311312940140e+000	 1.655071497085865e+000	 1.120397039888431e+001
 1.355140971786903e+000	 1.669159353283084e+000	 1.116216690986468e+001
 1.537957249110000e+000	 1.537957249110000e+000	 1.190206152527452e+001
 1.521949149564441e+000	 1.553800433234320e+000	 1.180096171716586e+001
 1.505778722479917e+000	 1.569476167102593e+000	 1.170073381472872e+001
 1.489448607391274e+000	 1.584981970279696e+000	 1.160301592655972e+001
 1.472961494051132e+000	 1.600315418037114e+000	 1.150947176961864e+001
 1.456320120955061e+000	 1.615474142614804e+000	 1.142178649859331e+001
 1.439527273829024e+000	 1.630455834436083e+000	 1.134166246131404e+001
 1.422585784080820e+000	 1.645258243274223e+000	 1.127081489166173e+001
 1.405498527217345e+000	 1.659879179369514e+000	 1.121096755161456e+001
 1.388268421229505e+000	 1.674316514495657e+000	 1.116384833423971e+001
 1.370898424946689e+000	 1.688568182974407e+000	 1.113118483955394e+001
 1.555634918639999e+000	 1.555634918639999e+000	 1.186754575535843e+001
 1.539442817950022e+000	 1.571660208329199e+000	 1.175566384618275e+001
 1.523086523887323e+000	 1.587516123046767e+000	 1.164634637089735e+001
 1.506568706326231e+000	 1.603200153846835e+000	 1.154135425793701e+001
 1.489892085936062e+000	 1.618709848130441e+000	 1.144247361841712e+001
 1.473059432689346e+000	 1.634042810921913e+000	 1.135151136239678e+001
 1.456073564331886e+000	 1.649196706097708e+000	 1.127029074044271e+001
 1.438937344816397e+000	 1.664169257566422e+000	 1.120064682244363e+001
 1.421653682701579e+000	 1.678958250398695e+000	 1.114442192583192e+001
 1.404225529518465e+000	 1.693561531905856e+000	 1.110346100552919e+001
 1.386655878105973e+000	 1.707977012666231e+000	 1.107960701805119e+001
 1.573312588170000e+000	 1.573312588170000e+000	 1.181474952356350e+001
 1.556936486335598e+000	 1.589519983424083e+000	 1.169241024081263e+001
 1.540394325294709e+000	 1.605556078990961e+000	 1.157423760533314e+001
 1.523688805261142e+000	 1.621418337414017e+000	 1.146211785242753e+001
 1.506822677820910e+000	 1.637104278223849e+000	 1.135796207099910e+001
 1.489798744423506e+000	 1.652611479229147e+000	 1.126370160194821e+001
 1.472619854834567e+000	 1.667937577759513e+000	 1.118128336096376e+001
 1.455288905551728e+000	 1.683080271858867e+000	 1.111266509818076e+001
 1.437808838185492e+000	 1.698037321428197e+000	 1.105981060738142e+001
 1.420182637807018e+000	 1.712806549316460e+000	 1.102468489758194e+001
 1.402413331264755e+000	 1.727385842358557e+000	 1.100924933996294e+001
 1.590990257700000e+000	 1.590990257700000e+000	 1.174612161097451e+001
 1.574430154721170e+000	 1.607379758518973e+000	 1.161358346732411e+001
 1.557702126702076e+000	 1.623596034935176e+000	 1.148672436022659e+001
 1.540808904196010e+000	 1.639636520981247e+000	 1.136755837976734e+001
 1.523753269705680e+000	 1.655498708317338e+000	 1.125812423724108e+001
 1.506538056157540e+000	 1.671180147536507e+000	 1.116048044083321e+001
 1.489166145337068e+000	 1.686678449421500e+000	 1.107670039463635e+001
 1.471640466286814e+000	 1.701991286151559e+000	 1.100886743400418e+001
 1.453963993669085e+000	 1.717116392458020e+000	 1.095906981045530e+001
 1.436139746095164e+000	 1.732051566727472e+000	 1.092939563950513e+001
 1.418170784423037e+000	 1.746794672051384e+000	 1.092192782492151e+001
 1.260596252817662e+000	 1.552706375145675e+000	 1.081387618115548e+001
 1.244497964461667e+000	 1.565638788630635e+000	 1.057634550556882e+001
 1.228276589353182e+000	 1.578396851251904e+000	 1.043327207045911e+001
 1.211934951580842e+000	 1.590978841190437e+000	 1.028843515230374e+001
 1.195475906489392e+000	 1.603383097381649e+000	 1.014173945351375e+001
 1.178902339053813e+000	 1.615608020198319e+000	 9.993091827432050e+000
 1.162217162236540e+000	 1.627652072081567e+000	 9.842400666836182e+000
 1.145423315329686e+000	 1.639513778119491e+000	 9.689575284583796e+000
 1.128523762284198e+000	 1.651191726573076e+000	 9.534525288793146e+000
 1.111521490027895e+000	 1.662684569349107e+000	 9.377159954955133e+000
 1.094419506774317e+000	 1.673991022419878e+000	 9.217387597367821e+000
 1.276353705980456e+000	 1.572115204833990e+000	 1.094459440654827e+001
 1.260054189020686e+000	 1.585209273487081e+000	 1.068376023873295e+001
 1.243630046723849e+000	 1.598126811890726e+000	 1.048819228879151e+001
 1.227084138479686e+000	 1.610866076703136e+000	 1.037954833792070e+001
 1.210419355324751e+000	 1.623425386096425e+000	 1.026811587865782e+001
 1.193638618296214e+000	 1.635803120448028e+000	 1.015377028655968e+001
 1.176744876768540e+000	 1.647997722979581e+000	 1.003638995030158e+001
 1.159741106774995e+000	 1.660007700342782e+000	 9.915855645218977e+000
 1.142630309315912e+000	 1.671831623151877e+000	 9.792049899078767e+000
 1.125415508655709e+000	 1.683468126462488e+000	 9.664856352561943e+000
 1.108099750610596e+000	 1.694915910196563e+000	 9.534159116936172e+000
 1.292111159142748e+000	 1.591524034522806e+000	 1.104382458988239e+001
 1.275610413579115e+000	 1.604779758344124e+000	 1.080471908923506e+001
 1.258983504093854e+000	 1.617856772530227e+000	 1.057674245453480e+001
 1.242233325377819e+000	 1.630753312216592e+000	 1.042473532398952e+001
 1.225362804159370e+000	 1.643467674812022e+000	 1.034717611557568e+001
 1.208374897537865e+000	 1.655998220698613e+000	 1.026577029073462e+001
 1.191272591299802e+000	 1.668343373878515e+000	 1.018036771296475e+001
 1.174058898219595e+000	 1.680501622567027e+000	 1.009082208636052e+001
 1.156736856346968e+000	 1.692471519731658e+000	 9.996990309841703e+000
 1.139309527282935e+000	 1.704251683576865e+000	 9.898731823893710e+000
 1.121779994446377e+000	 1.715840797974247e+000	 9.795907952391149e+000
 1.307868612304539e+000	 1.610932864212123e+000	 1.111338170113403e+001
 1.291166638136952e+000	 1.624350243201763e+000	 1.089357924521727e+001
 1.274336961463199e+000	 1.637586733170410e+000	 1.068443692633737e+001
 1.257382512275241e+000	 1.650640547730804e+000	 1.048744616890471e+001
 1.240306252993249e+000	 1.663509963528440e+000	 1.038015893433203e+001
 1.223111176778767e+000	 1.676193320950074e+000	 1.033037139599989e+001
 1.205800305830324e+000	 1.688689024778370e+000	 1.027565277001266e+001
 1.188376689663488e+000	 1.700995544792227e+000	 1.021583115171140e+001
 1.170843403377367e+000	 1.713111416312420e+000	 1.015073925999983e+001
 1.153203545909574e+000	 1.725035240692236e+000	 1.008021376821539e+001
 1.135460238281661e+000	 1.736765685752931e+000	 1.000409462799989e+001
 1.323626065465828e+000	 1.630341693901942e+000	 1.115508088826594e+001
 1.306722862694197e+000	 1.643920728059998e+000	 1.095217464267932e+001
 1.289690418831883e+000	 1.657316693811274e+000	 1.075947958513428e+001
 1.272531699171953e+000	 1.670527783245771e+000	 1.057853540184052e+001
 1.255249701826387e+000	 1.683552252245678e+000	 1.041087000934483e+001
 1.237847456018919e+000	 1.696388421202410e+000	 1.034883934523508e+001
 1.220328020360108e+000	 1.709034675679145e+000	 1.032354748337744e+001
 1.202694481106672e+000	 1.721489467018384e+000	 1.029222034705456e+001
 1.184949950407107e+000	 1.733751312894162e+000	 1.025466792239696e+001
 1.167097564535626e+000	 1.745818797808602e+000	 1.021070554811834e+001
 1.149140482116448e+000	 1.757690573532615e+000	 1.016015321931426e+001
 1.339383518626616e+000	 1.649750523592262e+000	 1.117073746675734e+001
 1.322279087250852e+000	 1.663491212918830e+000	 1.098233665611154e+001
 1.305043876199906e+000	 1.677046654452820e+000	 1.080371629439069e+001
 1.287680886067953e+000	 1.690415018761495e+000	 1.063646816392325e+001
 1.270193150658786e+000	 1.703594540963738e+000	 1.048217318381928e+001
 1.252583735258322e+000	 1.716583521455622e+000	 1.034239730333228e+001
 1.234855734889152e+000	 1.729380326580841e+000	 1.032533872957477e+001
 1.217012272549147e+000	 1.741983389245496e+000	 1.032130926013055e+001
 1.199056497436190e+000	 1.754391209476884e+000	 1.031012717239492e+001
 1.180991583161090e+000	 1.766602354925964e+000	 1.029158790344227e+001
 1.162820725950737e+000	 1.778615461313300e+000	 1.026549290897768e+001
 1.355140971786903e+000	 1.669159353283084e+000	 1.116216690986468e+001
 1.337835311806915e+000	 1.683061697778258e+000	 1.098589424741951e+001
 1.320397333567268e+000	 1.696776615095046e+000	 1.081898797843742e+001
 1.302830072963244e+000	 1.710302254277975e+000	 1.066309584527198e+001
 1.285136599490444e+000	 1.723636829682618e+000	 1.051985562398130e+001
 1.267320014496975e+000	 1.736778621709710e+000	 1.039089086221236e+001
 1.249383449417458e+000	 1.749725977483457e+000	 1.028229880001900e+001
 1.231330063990914e+000	 1.762477311473562e+000	 1.030440060238423e+001
 1.213163044464615e+000	 1.775031106060586e+000	 1.031844876796013e+001
 1.194885601785966e+000	 1.787385912044321e+000	 1.032422026655140e+001
 1.176500969784529e+000	 1.799540349094984e+000	 1.032149943398767e+001
 1.370898424946689e+000	 1.688568182974407e+000	 1.113118483955394e+001
 1.353391536362387e+000	 1.702632182638281e+000	 1.096467410457870e+001
 1.335750790933969e+000	 1.716506575737954e+000	 1.080713090632870e+001
 1.317979259857824e+000	 1.730189489795212e+000	 1.066026284174265e+001
 1.300080048321363e+000	 1.743679118402319e+000	 1.052576842988019e+001
 1.282056293734879e+000	 1.756973721964673e+000	 1.040533268829492e+001
 1.263911163945025e+000	 1.770071628386993e+000	 1.030062274214697e+001
 1.245647855431973e+000	 1.782971233702584e+000	 1.024278117886676e+001
 1.227269591492381e+000	 1.795671002645267e+000	 1.028094644836443e+001
 1.208779620410255e+000	 1.808169469163672e+000	 1.030994198690226e+001
 1.190181213617824e+000	 1.820465236877668e+000	 1.032953643314631e+001
 1.386655878105973e+000	 1.707977012666231e+000	 1.107960701805119e+001
 1.368947760917268e+000	 1.722202667498902e+000	 1.092050077083471e+001
 1.351104248300009e+000	 1.736236536381543e+000	 1.076997695634692e+001
 1.333128446751693e+000	 1.750076725313204e+000	 1.062980695232898e+001
 1.315023497151541e+000	 1.763721407122842e+000	 1.050175393954173e+001
 1.296792572972033e+000	 1.777168822220513e+000	 1.038756831052863e+001
 1.278438878471853e+000	 1.790417279291451e+000	 1.028898311061481e+001
 1.259965646872324e+000	 1.803465155932562e+000	 1.020770952330745e+001
 1.241376138519491e+000	 1.816310899230930e+000	 1.019891695797420e+001
 1.222673639033957e+000	 1.828953026284019e+000	 1.025007347211768e+001
 1.203861457450621e+000	 1.841390124661353e+000	 1.029094670263973e+001
 1.402413331264755e+000	 1.727385842358557e+000	 1.100924933996294e+001
 1.384503985471558e+000	 1.741773152360119e+000	 1.085519676519395e+001
 1.366457705665388e+000	 1.755966497025814e+000	 1.070935386267506e+001
 1.348277633644851e+000	 1.769963960831952e+000	 1.057355974977295e+001
 1.329966945980979e+000	 1.783763695844185e+000	 1.044964622121637e+001
 1.311528852208438e+000	 1.797363922477228e+000	 1.033943298408623e+001
 1.292966592997942e+000	 1.810762930196829e+000	 1.024472292457560e+001
 1.274283438311966e+000	 1.823959078163495e+000	 1.016729741914365e+001
 1.255482685545942e+000	 1.836950795817573e+000	 1.010891170248742e+001
 1.236567657657071e+000	 1.849736583405361e+000	 1.014591725213523e+001
 1.217541701282921e+000	 1.862315012446037e+000	 1.020705336697174e+001
 1.418170784423037e+000	 1.746794672051384e+000	 1.092192782492151e+001
 1.400060210025256e+000	 1.761343637221932e+000	 1.077058269488101e+001
 1.381811163030106e+000	 1.775696457670766e+000	 1.062708544562427e+001
 1.363426820537300e+000	 1.789851196351457e+000	 1.049334692646769e+001
 1.344910394809678e+000	 1.803805984566350e+000	 1.037127153281137e+001
 1.326265131444094e+000	 1.817559022734820e+000	 1.026275226112971e+001
 1.307494307523293e+000	 1.831108581103128e+000	 1.016966579530046e+001
 1.288601229750900e+000	 1.844453000395384e+000	 1.009386763737159e+001
 1.269589232571736e+000	 1.857590692405196e+000	 1.003718729565661e+001
 1.250461676279598e+000	 1.870520140527698e+000	 1.000142354280397e+001
 1.231221945114724e+000	 1.883239900231722e+000	 9.898361164234194e+000
 1.094419506774317e+000	 1.673991022419878e+000	 9.217387597367821e+000
 1.077220840323977e+000	 1.685109866189261e+000	 9.073822214047182e+000
 1.059928536361034e+000	 1.696039945806038e+000	 8.919490729080083e+000
 1.042545656746592e+000	 1.706780171423916e+000	 8.753830099443549e+000
 1.025075277809822e+000	 1.717329518407680e+000	 8.576284677087223e+000
 1.007520488639881e+000	 1.727687027486658e+000	 8.386306007047043e+000
 9.898843893801798e-001	 1.737851804855421e+000	 8.183352620414727e+000
 9.721700895268441e-001	 1.747823022222099e+000	 7.966889823826233e+000
 9.543807062332064e-001	 1.757599916804693e+000	 7.736389487098223e+000
 9.365193626221506e-001	 1.767181791275909e+000	 7.491329830606595e+000
 9.185891861080785e-001	 1.776568013657048e+000	 7.231195213954546e+000
 1.108099750610596e+000	 1.694915910196563e+000	 9.534159116936172e+000
 1.090686100828744e+000	 1.706173739513039e+000	 9.404156969736157e+000
 1.073177643065515e+000	 1.717240445125080e+000	 9.267367317751340e+000
 1.055577477455279e+000	 1.728114923563312e+000	 9.123330433258015e+000
 1.037888718781318e+000	 1.738796137384582e+000	 8.971589608464715e+000
 1.020114494746404e+000	 1.749283115327332e+000	 8.811690851946867e+000
 1.002257944245742e+000	 1.759574952413566e+000	 8.643182586733378e+000
 9.843222156441563e-001	 1.769670809997763e+000	 8.465615351843264e+000
 9.663104650593967e-001	 1.779569915763154e+000	 8.278541509027065e+000
 9.482258546533824e-001	 1.789271563665848e+000	 8.081514956407021e+000
 9.300715509331942e-001	 1.798775113827414e+000	 7.874090850656148e+000
 1.121779994446377e+000	 1.715840797974247e+000	 9.795907952391149e+000
 1.104151361333108e+000	 1.727237612837812e+000	 9.684059635800537e+000
 1.086426749769679e+000	 1.738440944445100e+000	 9.569310380135013e+000
 1.068609298163722e+000	 1.749449675703662e+000	 9.451302906898613e+000
 1.050702159752635e+000	 1.760262756362402e+000	 9.329678650889200e+000
 1.032708500852804e+000	 1.770879203168879e+000	 9.204077354257102e+000
 1.014631499111225e+000	 1.781298099972527e+000	 9.074136668936298e+000
 9.964743417614242e-001	 1.791518597774181e+000	 8.939491769389035e+000
 9.782402238855672e-001	 1.801539914722290e+000	 8.799774977541526e+000
 9.599323466846091e-001	 1.811361336056378e+000	 8.654615401715937e+000
 9.415539157583097e-001	 1.820982213998275e+000	 8.503638591287324e+000
 1.135460238281661e+000	 1.736765685752931e+000	 1.000409462799989e+001
 1.117616621837070e+000	 1.748301486163579e+000	 9.914814278972637e+000
 1.099675856473525e+000	 1.759641443766101e+000	 9.826430682675287e+000
 1.081641118871923e+000	 1.770784427844967e+000	 9.738688226425976e+000
 1.063515600723775e+000	 1.781729375341141e+000	 9.651325770167080e+000
 1.045302506959080e+000	 1.792475291011298e+000	 9.564076137385118e+000
 1.027005053976629e+000	 1.803021247532308e+000	 9.476665621053741e+000
 1.008626467878648e+000	 1.813366385551350e+000	 9.388813506686397e+000
 9.901699827117181e-001	 1.823509913682104e+000	 9.300231614503808e+000
 9.716388387158305e-001	 1.833451108447498e+000	 9.210623862635128e+000
 9.530362805834256e-001	 1.843189314169633e+000	 9.119685853174298e+000
 1.149140482116448e+000	 1.757690573532615e+000	 1.016015321931426e+001
 1.131081882340630e+000	 1.769365359490342e+000	 1.009768607178494e+001
 1.112924963177054e+000	 1.780841943088082e+000	 1.003982748921967e+001
 1.094672939579880e+000	 1.792119179987226e+000	 9.986422821062142e+000
 1.076329041694736e+000	 1.803195994320799e+000	 9.937307712367284e+000
 1.057896513065233e+000	 1.814071378854591e+000	 9.892307490755652e+000
 1.039378608841954e+000	 1.824744395092904e+000	 9.851236574975498e+000
 1.020778593995827e+000	 1.835214173329271e+000	 9.813897907307149e+000
 1.002099741537849e+000	 1.845479912642594e+000	 9.780082411946989e+000
 9.833453307470476e-001	 1.855540880839211e+000	 9.749568481404580e+000
 9.645186454085410e-001	 1.865396414341487e+000	 9.722121492835244e+000
 1.162820725950737e+000	 1.778615461313300e+000	 1.026549290897768e+001
 1.144547142843787e+000	 1.790429232818099e+000	 1.023392240399347e+001
 1.126174069880265e+000	 1.802042442411042e+000	 1.021058923764181e+001
 1.107704760287596e+000	 1.813453932130439e+000	 1.019543909476893e+001
 1.089142482665518e+000	 1.824662613301375e+000	 1.018840384027614e+001
 1.070490519171262e+000	 1.835667466698757e+000	 1.018940080122109e+001
 1.051752163707200e+000	 1.846467542654319e+000	 1.019833207704720e+001
 1.032930720112961e+000	 1.857061961107944e+000	 1.021508388032809e+001
 1.014029500363961e+000	 1.867449911603760e+000	 1.023952591030003e+001
 9.950518227782594e-001	 1.877630653231514e+000	 1.016269292342968e+001
 9.760010102336569e-001	 1.887603514513837e+000	 9.773228482939251e+000
 1.176500969784529e+000	 1.799540349094984e+000	 1.032149943398767e+001
 1.158012403346542e+000	 1.811493106146852e+000	 1.032475391646049e+001
 1.139423176583158e+000	 1.823242941734981e+000	 1.033979416925917e+001
 1.120736580995067e+000	 1.834788684274606e+000	 1.036666566027492e+001
 1.101955923636123e+000	 1.846129232282870e+000	 1.040539598126288e+001
 1.083084525277168e+000	 1.857263554543797e+000	 1.045599402414156e+001
 1.064125718572367e+000	 1.868190690216551e+000	 1.051844919188114e+001
 1.045082846230052e+000	 1.878909748887369e+000	 1.044482014732061e+001
 1.025959259190052e+000	 1.889419910565603e+000	 1.011270613069285e+001
 1.006758314809466e+000	 1.899720425624409e+000	 9.772002362008495e+000
 9.874833750587725e-001	 1.909810614686682e+000	 9.424967102873652e+000
 1.190181213617824e+000	 1.820465236877668e+000	 1.032953643314631e+001
 1.171477663848894e+000	 1.832556979476599e+000	 1.037139546373418e+001
 1.152672283285734e+000	 1.844443441059900e+000	 1.042851091484154e+001
 1.133768401702297e+000	 1.856123436419727e+000	 1.050102755696234e+001
 1.114769364606549e+000	 1.867595851265284e+000	 1.058906828563674e+001
 1.095678531382950e+000	 1.878859642389709e+000	 1.056175923993650e+001
 1.076499273437455e+000	 1.889913837779600e+000	 1.028273746145164e+001
 1.057234972347098e+000	 1.900757536667546e+000	 9.993956665401239e+000
 1.037889018016124e+000	 1.911389909528122e+000	 9.697957480256935e+000
 1.018464806840669e+000	 1.921810198017894e+000	 9.397227397049365e+000
 9.989657398838883e-001	 1.932017714860024e+000	 9.094195860538001e+000
 1.203861457450621e+000	 1.841390124661353e+000	 1.029094670263973e+001
 1.184942924350843e+000	 1.853620852807342e+000	 1.037504701099866e+001
 1.165921389987992e+000	 1.865643940385799e+000	 1.047779904066521e+001
 1.146800222409283e+000	 1.877458188565803e+000	 1.052652618999828e+001
 1.127582805576798e+000	 1.889062470248617e+000	 1.029919298711004e+001
 1.108272537488608e+000	 1.900455730236494e+000	 1.005991725855384e+001
 1.088872828302464e+000	 1.911636985343468e+000	 9.811527572013782e+000
 1.069387098464099e+000	 1.922605324448475e+000	 9.556804303025276e+000
 1.049818776842177e+000	 1.933359908491318e+000	 9.298474124080055e+000
 1.030171298871866e+000	 1.943899970411971e+000	 9.039204671104278e+000
 1.010448104709004e+000	 1.954224815033862e+000	 8.781599398524547e+000
 1.217541701282921e+000	 1.862315012446037e+000	 1.020705336697174e+001
 1.198408184852391e+000	 1.874684726139078e+000	 1.033689447055502e+001
 1.179170496689933e+000	 1.886844439712678e+000	 1.017072834347136e+001
 1.159832043116026e+000	 1.898792940712833e+000	 9.981501022449216e+000
 1.140396246546868e+000	 1.910529089232867e+000	 9.780215804285975e+000
 1.120866543594143e+000	 1.922051818084153e+000	 9.569948870868455e+000
 1.101246383167394e+000	 1.933360132908152e+000	 9.353728785104348e+000
 1.081539224581056e+000	 1.944453112230155e+000	 9.134530537699330e+000
 1.061748535668210e+000	 1.955329907455190e+000	 8.915269770732902e+000
 1.041877790903058e+000	 1.965989742806639e+000	 8.698797190394378e+000
 1.021930469534119e+000	 1.976431915208196e+000	 8.487893180530362e+000
 1.231221945114724e+000	 1.883239900231722e+000	 9.898361164234194e+000
 1.211873445353537e+000	 1.895748599471812e+000	 9.762817023323944e+000
 1.192419603391557e+000	 1.908044939040537e+000	 9.611193524528824e+000
 1.172863863822527e+000	 1.920127692860818e+000	 9.446860969595974e+000
 1.153209687516760e+000	 1.931995708218037e+000	 9.273149933728410e+000
 1.133460549699554e+000	 1.943647905932685e+000	 9.093344694672233e+000
 1.113619938032245e+000	 1.955083280473655e+000	 8.910676822216701e+000
 1.093691350697970e+000	 1.966300900012589e+000	 8.728318942334822e+000
 1.073678294494223e+000	 1.977299906419740e+000	 8.549378689519573e+000
 1.053584282934246e+000	 1.988079515201899e+000	 8.376892860161634e+000
 1.033412834359236e+000	 1.998639015383027e+000	 8.213821779073573e+000
 9.185891861080785e-001	 1.776568013657048e+000	 7.231195213954546e+000
 9.005933067305993e-001	 1.785758017161617e+000	 7.165582155777220e+000
 8.825348555005111e-001	 1.794751299989325e+000	 7.104828747795850e+000
 8.644169627606544e-001	 1.803547425071165e+000	 7.048956029214708e+000
 8.462427565638450e-001	 1.812146019766516e+000	 6.997963206560177e+000
 8.280153610683619e-001	 1.820546775513088e+000	 6.951827255003598e+000
 8.097378949529317e-001	 1.828749447430662e+000	 6.910502567773539e+000
 7.914134698526779e-001	 1.836753853879597e+000	 6.873920654473521e+000
 7.730451888174857e-001	 1.844559875975171e+000	 6.841989888971190e+000
 7.546361447941516e-001	 1.852167457058818e+000	 6.814595307364629e+000
 7.361894191336470e-001	 1.859576602127425e+000	 6.791598456381983e+000
 9.300715509331942e-001	 1.798775113827414e+000	 7.874090850656148e+000
 9.118507230638300e-001	 1.808079992376415e+000	 7.887476951932086e+000
 8.935665411936159e-001	 1.817185691239944e+000	 7.903847579658510e+000
 8.752221747946789e-001	 1.826091767885635e+000	 7.923169700684621e+000
 8.568207910204949e-001	 1.834797845014857e+000	 7.945390584702623e+000
 8.383655530813224e-001	 1.843303610208294e+000	 7.970437402242207e+000
 8.198596186393719e-001	 1.851608815524722e+000	 7.998216868534345e+000
 8.013061382252067e-001	 1.859713277054009e+000	 8.028614934143889e+000
 7.827082536768359e-001	 1.867616874425373e+000	 8.061496523119958e+000
 7.640690966028914e-001	 1.875319550272018e+000	 8.079564962868997e+000
 7.453917868712325e-001	 1.882821309653291e+000	 7.709067490236506e+000
 9.415539157583097e-001	 1.820982213998275e+000	 8.503638591287324e+000
 9.231081393970605e-001	 1.830401967591619e+000	 8.593573588130802e+000
 9.045982268867207e-001	 1.839620082490901e+000	 8.684691086388462e+000
 8.860273868287035e-001	 1.848636110700393e+000	 8.776905645203049e+000
 8.673988254771451e-001	 1.857449670263458e+000	 8.870114198766409e+000
 8.487157450942829e-001	 1.866060444903749e+000	 8.964195649383651e+000
 8.299813423258120e-001	 1.874468183619045e+000	 9.059010504295335e+000
 8.111988065977354e-001	 1.882672700228715e+000	 8.757872094208123e+000
 7.923713185361858e-001	 1.890673872875920e+000	 8.427321962114478e+000
 7.735020484116313e-001	 1.898471643485632e+000	 8.095812225696625e+000
 7.545941546088181e-001	 1.906066017179662e+000	 7.764699700105026e+000
 9.530362805834256e-001	 1.843189314169633e+000	 9.119685853174298e+000
 9.343655557302909e-001	 1.852723942807229e+000	 9.283798118136600e+000
 9.156299125798257e-001	 1.862054473742195e+000	 9.447361651578515e+000
 8.968325988627280e-001	 1.871180453515439e+000	 9.610240257243468e+000
 8.779768599337953e-001	 1.880101495512317e+000	 9.525241686738204e+000
 8.590659371072434e-001	 1.888817279599456e+000	 9.250550183171566e+000
 8.401030660122520e-001	 1.897327551713629e+000	 8.968833437919493e+000
 8.210914749702639e-001	 1.905632123403714e+000	 8.681688668678614e+000
 8.020343833955359e-001	 1.913730871326810e+000	 8.390646627522701e+000
 7.829350002203710e-001	 1.921623736699662e+000	 8.097168969736538e+000
 7.637965223464035e-001	 1.929310724706538e+000	 7.802645822390494e+000
 9.645186454085410e-001	 1.865396414341487e+000	 9.722121492835244e+000
 9.456229720635219e-001	 1.875045918023246e+000	 9.956067825670004e+000
 9.266615982729306e-001	 1.884488864993826e+000	 9.758154168870183e+000
 9.076378108967527e-001	 1.893724796330773e+000	 9.546459183495605e+000
 8.885548943904454e-001	 1.902753320761436e+000	 9.322800966361653e+000
 8.694161291202039e-001	 1.911574114295413e+000	 9.088940053541963e+000
 8.502247896986922e-001	 1.920186919808475e+000	 8.846576089648520e+000
 8.309841433427926e-001	 1.928591546579006e+000	 8.597344689360950e+000
 8.116974482548860e-001	 1.936787869778045e+000	 8.342814496015857e+000
 7.923679520291109e-001	 1.944775829914106e+000	 8.084484441405095e+000
 7.729988900839893e-001	 1.952555432233920e+000	 7.823781210271677e+000
 9.760010102336569e-001	 1.887603514513837e+000	 9.773228482939251e+000
 9.568803883967524e-001	 1.897367893239669e+000	 9.634460805377584e+000
 9.376932839660355e-001	 1.906923256245794e+000	 9.478489043830614e+000
 9.184430229307771e-001	 1.916269139146395e+000	 9.307228794187832e+000
 8.991329288470956e-001	 1.925405146010814e+000	 9.122541463206403e+000
 8.797663211331644e-001	 1.934330948991620e+000	 8.926230619427104e+000
 8.603465133851326e-001	 1.943046287903584e+000	 8.720038535242722e+000
 8.408768117153213e-001	 1.951550969754591e+000	 8.505642925837256e+000
 8.213605131142361e-001	 1.959844868229625e+000	 8.284653890034626e+000
 8.018009038378509e-001	 1.967927923128965e+000	 8.058611057415229e+000
 7.822012578215748e-001	 1.975800139761806e+000	 7.828980945374811e+000
 9.874833750587725e-001	 1.909810614686682e+000	 9.424967102873652e+000
 9.681378047299829e-001	 1.919689868456498e+000	 9.326085038812826e+000
 9.487249696591404e-001	 1.929357647498098e+000	 9.208530207874837e+000
 9.292482349648017e-001	 1.938813481962305e+000	 9.074265909465249e+000
 9.097109633037455e-001	 1.948056971260451e+000	 8.925200986381054e+000
 8.901165131461248e-001	 1.957087783688078e+000	 8.763186039323379e+000
 8.704682370715724e-001	 1.965905655998953e+000	 8.590009837208323e+000
 8.507694800878499e-001	 1.974510392930469e+000	 8.407395929247013e+000
 8.310235779735861e-001	 1.982901866681548e+000	 8.216999464068772e+000
 8.112338556465903e-001	 1.991080016344239e+000	 8.020404220456584e+000
 7.914036255591603e-001	 1.999044847290198e+000	 7.819119853561840e+000
 9.989657398838883e-001	 1.932017714860024e+000	 9.094195860538001e+000
 9.793952210632133e-001	 1.942011843673734e+000	 9.031621035659065e+000
 9.597566553522451e-001	 1.951792038750740e+000	 8.948985219786991e+000
 9.400534469988262e-001	 1.961357824778502e+000	 8.848303693930658e+000
 9.202889977603954e-001	 1.970708796510346e+000	 8.731536893673974e+000
 9.004667051590855e-001	 1.979844618384786e+000	 8.600586482410110e+000
 8.805899607580128e-001	 1.988765024094585e+000	 8.457291625291708e+000
 8.606621484603786e-001	 1.997469816106639e+000	 8.303425470128877e+000
 8.406866428329360e-001	 2.005958865133815e+000	 8.140691840746250e+000
 8.206668074553302e-001	 2.014232109559928e+000	 7.970722147587832e+000
 8.006059932967459e-001	 2.022289554819095e+000	 7.795072519629188e+000
 1.010448104709004e+000	 1.954224815033862e+000	 8.781599398524547e+000
 9.906526373964438e-001	 1.964333818891375e+000	 8.751778278741419e+000
 9.707883410453504e-001	 1.974226430003719e+000	 8.700587013535980e+000
 9.508586590328508e-001	 1.983902167594988e+000	 8.630097175251295e+000
 9.308670322170456e-001	 1.993360621760502e+000	 8.542324980833115e+000
 9.108168971720461e-001	 2.002601453081745e+000	 8.439227218851690e+000
 8.907116844444528e-001	 2.011624392190479e+000	 8.322697382432253e+000
 8.705548168329073e-001	 2.020429239283104e+000	 8.194562014590991e+000
 8.503497076922864e-001	 2.029015863586428e+000	 8.056577271734433e+000
 8.300997592640701e-001	 2.037384202776032e+000	 7.910425710329625e+000
 8.098083610343312e-001	 2.045534262348497e+000	 7.757713301004969e+000
 1.021930469534119e+000	 1.976431915208196e+000	 8.487893180530362e+000
 1.001910053729674e+000	 1.986655794109423e+000	 8.487293596321781e+000
 9.818200267384550e-001	 1.996660821257034e+000	 8.464092472702879e+000
 9.616638710668755e-001	 2.006446510411762e+000	 8.420422015896659e+000
 9.414450666736958e-001	 2.016012447010916e+000	 8.358358445725445e+000
 9.211670891850065e-001	 2.025358287778955e+000	 8.279917771427796e+000
 9.008334081308931e-001	 2.034483760286634e+000	 8.187051778851854e+000
 8.804474852054359e-001	 2.043388662459861e+000	 8.081644235795949e+000
 8.600127725516362e-001	 2.052072862039383e+000	 7.965507321502085e+000
 8.395327110728100e-001	 2.060536295992551e+000	 7.840378285536942e+000
 8.190107287719169e-001	 2.068778969878404e+000	 7.707916340522290e+000
 1.033412834359236e+000	 1.998639015383027e+000	 8.213821779073573e+000
 1.013167470062905e+000	 2.008977769327879e+000	 8.238929642908419e+000
 9.928517124315605e-001	 2.019095212510688e+000	 8.240281099946992e+000
 9.724690831009004e-001	 2.028990853228825e+000	 8.220073366760422e+000
 9.520231011303464e-001	 2.038664272261591e+000	 8.180446921552706e+000
 9.315172811979672e-001	 2.048115122476415e+000	 8.123481123721222e+000
 9.109551318173336e-001	 2.057343128383053e+000	 8.051190050539811e+000
 8.903401535779651e-001	 2.066348085636912e+000	 7.965518558013200e+000
 8.696758374109869e-001	 2.075129860492684e+000	 7.868338572163466e+000
 8.489656628815501e-001	 2.083688389209486e+000	 7.761445616214484e+000
 8.282130965095028e-001	 2.092023677408817e+000	 7.646555578341377e+000
 7.361894191336470e-001	 1.859576602127425e+000	 6.791598456381983e+000
 7.177080801244898e-001	 1.866787377221733e+000	 6.693833310845830e+000
 6.991951815543979e-001	 1.873799908775373e+000	 6.647252864555667e+000
 6.806537613005025e-001	 1.880614382925689e+000	 6.335108895165020e+000
 6.620868399488495e-001	 1.887231044787307e+000	 6.011595150584099e+000
 6.434974194451185e-001	 1.893650197690125e+000	 5.744873504696423e+000
 6.248884817771946e-001	 1.899872202382971e+000	 5.536166957364910e+000
 6.062629876904958e-001	 1.905897476204296e+000	 5.410667753618883e+000
 5.876238754369104e-001	 1.911726492221324e+000	 5.309831401754516e+000
 5.689740595581216e-001	 1.917359778339053e+000	 5.234832253537125e+000
 5.503164297040443e-001	 1.922797916380548e+000	 5.186699341621396e+000
 7.453917868712325e-001	 1.882821309653291e+000	 7.709067490236506e+000
 7.266794311240886e-001	 1.890122219435584e+000	 7.284470582857344e+000
 7.079351213216277e-001	 1.897222407633088e+000	 6.906497920272376e+000
 6.891619333144451e-001	 1.904122062709863e+000	 6.576495053979027e+000
 6.703629254459107e-001	 1.910821432844467e+000	 6.295689393096625e+000
 6.515411371860247e-001	 1.917320825158422e+000	 6.065189315946482e+000
 6.326995877975195e-001	 1.923620604909912e+000	 5.885983522324120e+000
 6.138412750351305e-001	 1.929721194654120e+000	 5.780469554265459e+000
 5.949691738788933e-001	 1.935623073371612e+000	 5.715119939145315e+000
 5.760862353022610e-001	 1.941326775566192e+000	 5.669152176502667e+000
 5.571953850757716e-001	 1.946832890333715e+000	 5.643671254430916e+000
 7.545941546088181e-001	 1.906066017179662e+000	 7.764699700105026e+000
 7.356507821236820e-001	 1.913457061650030e+000	 7.397390015018189e+000
 7.166750610888373e-001	 1.920644906491468e+000	 7.070425910780202e+000
 6.976701053283412e-001	 1.927629742494750e+000	 6.785165184231376e+000
 6.786390109428899e-001	 1.934411820902370e+000	 6.542851004857998e+000
 6.595848549268030e-001	 1.940991452627468e+000	 6.344610904568302e+000
 6.405106938176606e-001	 1.947369007437590e+000	 6.191456008709690e+000
 6.214195623795155e-001	 1.953544913104652e+000	 6.093124554669796e+000
 6.023144723205504e-001	 1.959519654522554e+000	 6.059282126929736e+000
 5.831984110459895e-001	 1.965293772793916e+000	 6.038651043119036e+000
 5.640743404469928e-001	 1.970867864287377e+000	 6.032415435309933e+000
 7.637965223464035e-001	 1.929310724706538e+000	 7.802645822390494e+000
 7.446221331232706e-001	 1.936791903865071e+000	 7.487767193057580e+000
 7.254150008560258e-001	 1.944067405350511e+000	 7.207196426846867e+000
 7.061782773421910e-001	 1.951137422280350e+000	 6.962306494249848e+000
 6.869150964397867e-001	 1.958002208961012e+000	 6.754359023228628e+000
 6.676285726674527e-001	 1.964662080097262e+000	 6.584503166231101e+000
 6.483217998376176e-001	 1.971117409966008e+000	 6.453774709358020e+000
 6.289978497236503e-001	 1.977368631555889e+000	 6.363095421535522e+000
 6.096597707618819e-001	 1.983416235674151e+000	 6.344959252093055e+000
 5.903105867893064e-001	 1.989260770022222e+000	 6.345986934672405e+000
 5.709532958177076e-001	 1.994902838241532e+000	 6.355601497311194e+000
 7.729988900839893e-001	 1.952555432233920e+000	 7.823781210271677e+000
 7.535934841228538e-001	 1.960126746080707e+000	 7.556579930131402e+000
 7.341549406231938e-001	 1.967489904210219e+000	 7.317884029366121e+000
 7.146864493559947e-001	 1.974645102066663e+000	 7.109084602867207e+000
 6.951911819366015e-001	 1.981592597020396e+000	 6.931464460201157e+000
 6.756722904079747e-001	 1.988332707567807e+000	 6.786196868835157e+000
 6.561329058573906e-001	 1.994865812495162e+000	 6.674344540784039e+000
 6.365761370675354e-001	 2.001192350007833e+000	 6.596858860739989e+000
 6.170050692028878e-001	 2.007312816826402e+000	 6.574742170791389e+000
 5.974227625322126e-001	 2.013227767251113e+000	 6.593762735403569e+000
 5.778322511879159e-001	 2.018937812196181e+000	 6.615839423839200e+000
 7.822012578215748e-001	 1.975800139761806e+000	 7.828980945374811e+000
 7.625648351224317e-001	 1.983461588296937e+000	 7.604798773404589e+000
 7.428948803903412e-001	 1.990912403070590e+000	 7.403549330249373e+000
 7.231946213697519e-001	 1.998152781853689e+000	 7.226644809391368e+000
 7.034672674333340e-001	 2.005182985080521e+000	 7.075391950952064e+000
 6.837160081483685e-001	 2.012003335039102e+000	 6.950990660028012e+000
 6.639440118769794e-001	 2.018614215025054e+000	 6.854532870076631e+000
 6.441544244111706e-001	 2.025016068460483e+000	 6.787001649616582e+000
 6.243503676435681e-001	 2.031209397979309e+000	 6.751174274871320e+000
 6.045349382747075e-001	 2.037194764480589e+000	 6.784529379392684e+000
 5.847112065576183e-001	 2.042972786151324e+000	 6.815683076276670e+000
 7.914036255591603e-001	 1.999044847290198e+000	 7.819119853561840e+000
 7.715361861220045e-001	 2.006796430513762e+000	 7.633387426492342e+000
 7.516348201574682e-001	 2.014334901931625e+000	 7.465239803412853e+000
 7.317027933834626e-001	 2.021660461641427e+000	 7.316113274973103e+000
 7.117433529299844e-001	 2.028773373141388e+000	 7.187341287377103e+000
 6.917597258886344e-001	 2.035673962511146e+000	 7.080152934660624e+000
 6.717551178963843e-001	 2.042362617555685e+000	 6.995671698005349e+000
 6.517327117545556e-001	 2.048839786913839e+000	 6.934914430552428e+000
 6.316956660839228e-001	 2.055105979132870e+000	 6.898790585528319e+000
 6.116471140167912e-001	 2.061161761710648e+000	 6.920788870917588e+000
 5.915901619268141e-001	 2.067007760106961e+000	 6.957633456892840e+000
 8.006059932967459e-001	 2.022289554819095e+000	 7.795072519629188e+000
 7.805075371215724e-001	 2.030131272731183e+000	 7.643303142767283e+000
 7.603747599245743e-001	 2.037757400793325e+000	 7.503990539834885e+000
 7.402109653971273e-001	 2.045168141429878e+000	 7.378598122499998e+000
 7.200194384265524e-001	 2.052363761202996e+000	 7.268488845866043e+000
 6.998034436287717e-001	 2.059344589983939e+000	 7.174923573454167e+000
 6.795662239156052e-001	 2.066111020087053e+000	 7.099059691567079e+000
 6.593109990976909e-001	 2.072663505367901e+000	 7.041949971692131e+000
 6.390409645239520e-001	 2.079002560287087e+000	 7.004541678934369e+000
 6.187592897584640e-001	 2.085128758941291e+000	 7.004997096511017e+000
 5.984691172955038e-001	 2.091042734063091e+000	 7.044141746723157e+000
 8.098083610343312e-001	 2.045534262348497e+000	 7.757713301004969e+000
 7.894788881211350e-001	 2.053466114949198e+000	 7.635497091850819e+000
 7.691146996916598e-001	 2.061179899655689e+000	 7.520824951131899e+000
 7.487191374107456e-001	 2.068675821219042e+000	 7.415190461498028e+000
 7.282955239230385e-001	 2.075954149265344e+000	 7.319988917729375e+000
 7.078471613687812e-001	 2.083015217457482e+000	 7.236515563120660e+000
 6.873773299346420e-001	 2.089859422619159e+000	 7.165964077950671e+000
 6.668892864405763e-001	 2.096487223822670e+000	 7.109425318883510e+000
 6.463862629636555e-001	 2.102899141441959e+000	 7.067886307468889e+000
 6.258714654997256e-001	 2.109095756172518e+000	 7.042229465245431e+000
 6.053480726636872e-001	 2.115077708019714e+000	 7.077612136321449e+000
 8.190107287719169e-001	 2.068778969878404e+000	 7.707916340522290e+000
 7.984502391206926e-001	 2.076800957167808e+000	 7.610914701396769e+000
 7.778546394587247e-001	 2.084602398518716e+000	 7.516755425702376e+000
 7.572273094243175e-001	 2.092183501008918e+000	 7.426965343938303e+000
 7.365716094194423e-001	 2.099544537328435e+000	 7.342974949932805e+000
 7.158908791086626e-001	 2.106685844931774e+000	 7.266116507262750e+000
 6.951884359534948e-001	 2.113607825152002e+000	 7.197622410818147e+000
 6.744675737832118e-001	 2.120310942278145e+000	 7.138623802548384e+000
 6.537315614030331e-001	 2.126795722597485e+000	 7.090149439724001e+000
 6.329836412405760e-001	 2.133062753404329e+000	 7.053124813371047e+000
 6.122270280313643e-001	 2.139112681976832e+000	 7.060404465674517e+000
 8.282130965095028e-001	 2.092023677408817e+000	 7.646555578341377e+000
 8.074215901202451e-001	 2.100135799387014e+000	 7.570495976089680e+000
 7.865945792257691e-001	 2.108024897382408e+000	 7.492783941127700e+000
 7.657354814378435e-001	 2.115691180799508e+000	 7.414982656323200e+000
 7.448476949157643e-001	 2.123134925392267e+000	 7.338560703116885e+000
 7.239345968484162e-001	 2.130356472406817e+000	 7.264890036546076e+000
 7.029995419721640e-001	 2.137356227685585e+000	 7.195244218833861e+000
 6.820458611255976e-001	 2.144134660734327e+000	 7.130796910761537e+000
 6.610768598420856e-001	 2.150692303753668e+000	 7.072620619324830e+000
 6.400958169810156e-001	 2.157029750636725e+000	 7.021685699478223e+000
 6.191059833985354e-001	 2.163147655934445e+000	 6.994836688122270e+000
 5.503164297040443e-001	 1.922797916380548e+000	 5.186699341621396e+000
 5.316538494870134e-001	 1.928041541140166e+000	 5.031341816667159e+000
 5.129891553722548e-001	 1.933091339410632e+000	 4.889564756609380e+000
 4.943251556054371e-001	 1.937948048985706e+000	 4.761869604333772e+000
 4.756646291775600e-001	 1.942612457640390e+000	 4.648628644125064e+000
 4.570103248275765e-001	 1.947085402089539e+000	 4.550085429143226e+000
 4.383649600831473e-001	 1.951367766926559e+000	 4.466355483958221e+000
 4.197312203398141e-001	 1.955460483543635e+000	 4.397427274708207e+000
 4.011117579788213e-001	 1.959364529034961e+000	 4.343163438887448e+000
 3.825091915237606e-001	 1.963080925084422e+000	 4.303302266252693e+000
 3.639261048361499e-001	 1.966610736839179e+000	 4.277459421860820e+000
 5.571953850757716e-001	 1.946832890333715e+000	 5.643671254430916e+000
 5.382995226068030e-001	 1.952142060403382e+000	 5.497087112648024e+000
 5.194015198162859e-001	 1.957254981152735e+000	 5.361854474933791e+000
 5.005042200529605e-001	 1.962172399597961e+000	 5.238575120255448e+000
 4.816104370452148e-001	 1.966895113361246e+000	 5.127718518396661e+000
 4.627229538912394e-001	 1.971423969616384e+000	 5.029622154835204e+000
 4.438445220877912e-001	 1.975759864014198e+000	 4.944492141352569e+000
 4.249778605978571e-001	 1.979903739589275e+000	 4.872404104838811e+000
 4.061256549574479e-001	 1.983856585649486e+000	 4.813304346177069e+000
 3.872905564217011e-001	 1.987619436649766e+000	 4.767011260542144e+000
 3.684751811504043e-001	 1.991193371051617e+000	 4.733217009954669e+000
 5.640743404469928e-001	 1.970867864287377e+000	 6.032415435309933e+000
 5.449451957259967e-001	 1.976242579666991e+000	 5.893960296039921e+000
 5.258138842596520e-001	 1.981418622895133e+000	 5.764818337666473e+000
 5.066832844997705e-001	 1.986396750210409e+000	 5.645693740591476e+000
 4.875562449121281e-001	 1.991177769082196e+000	 5.537154989640873e+000
 4.684355829541524e-001	 1.995762537143223e+000	 5.439635096639167e+000
 4.493240840916975e-001	 2.000151961101730e+000	 5.353432119779833e+000
 4.302245008551946e-001	 2.004346995634707e+000	 5.278709972149556e+000
 4.111395519354207e-001	 2.008348642263703e+000	 5.215499511151296e+000
 3.920719213190586e-001	 2.012157948214703e+000	 5.163699900002631e+000
 3.730242574641658e-001	 2.015776005263546e+000	 5.123080231962159e+000
 5.709532958177076e-001	 1.994902838241532e+000	 6.355601497311194e+000
 5.515908688445944e-001	 2.000343098930994e+000	 6.224548000434942e+000
 5.322262487023534e-001	 2.005582264637824e+000	 6.100958611865893e+000
 5.128623489458671e-001	 2.010621100823051e+000	 5.985642066887612e+000
 4.935020527782997e-001	 2.015460424803240e+000	 5.879267781509624e+000
 4.741482120163162e-001	 2.020101104670055e+000	 5.782365972962931e+000
 4.548036460948663e-001	 2.024544058189155e+000	 5.695328088452763e+000
 4.354711411118264e-001	 2.028790251679932e+000	 5.618407534411424e+000
 4.161534489127392e-001	 2.032840698877613e+000	 5.551720697849079e+000
 3.968532862158330e-001	 2.036696459779233e+000	 5.495248250804539e+000
 3.775733337774348e-001	 2.040358639474969e+000	 5.448836728354261e+000
 5.778322511879159e-001	 2.018937812196181e+000	 6.615839423839200e+000
 5.582365419625962e-001	 2.024443618195390e+000	 6.491377383880409e+000
 5.386386131443897e-001	 2.029745906380808e+000	 6.372718398382165e+000
 5.190414133912504e-001	 2.034845451435887e+000	 6.260777997722715e+000
 4.994478606437299e-001	 2.039743080524377e+000	 6.156328530431624e+000
 4.798608410777303e-001	 2.044439672196880e+000	 6.059999181760694e+000
 4.602832080972976e-001	 2.048936155276472e+000	 5.972276312379928e+000
 4.407177813677526e-001	 2.053233507724950e+000	 5.893504109308883e+000
 4.211673458894036e-001	 2.057332755491216e+000	 5.823885540527948e+000
 4.016346511120245e-001	 2.061234971343355e+000	 5.763483604088585e+000
 3.821224100902110e-001	 2.064941273685884e+000	 5.712222861967778e+000
 5.847112065576183e-001	 2.042972786151324e+000	 6.815683076276670e+000
 5.648822150800023e-001	 2.048544137460180e+000	 6.696919627439621e+000
 5.450509775857614e-001	 2.053909548124086e+000	 6.582485112221710e+000
 5.252204778359204e-001	 2.059069802048916e+000	 6.473404181824344e+000
 5.053936685084186e-001	 2.064025736245608e+000	 6.370554202506761e+000
 4.855734701383949e-001	 2.068778239723698e+000	 6.274665172323808e+000
 4.657627700989915e-001	 2.073328252363683e+000	 6.186319970260605e+000
 4.459644216229731e-001	 2.077676763769761e+000	 6.105954929738620e+000
 4.261812428654140e-001	 2.081824812104512e+000	 6.033860727768889e+000
 4.064160160076329e-001	 2.085773482907070e+000	 5.970183580378982e+000
 3.866714864024947e-001	 2.089523907896292e+000	 5.914926734337458e+000
 5.915901619268141e-001	 2.067007760106961e+000	 6.957633456892840e+000
 5.715278881968123e-001	 2.072644656725364e+000	 6.843593189668165e+000
 5.514633420264680e-001	 2.078073189867658e+000	 6.732593720096722e+000
 5.313995422798770e-001	 2.083294152662138e+000	 6.625771230269292e+000
 5.113394763723655e-001	 2.088308391966931e+000	 6.524110272014672e+000
 4.912860991983100e-001	 2.093116807250509e+000	 6.428443581831162e+000
 4.712423320999477e-001	 2.097720349450787e+000	 6.339452240897846e+000
 4.512110618774879e-001	 2.102120019814364e+000	 6.257666171995323e+000
 4.311951398407702e-001	 2.106316868717501e+000	 6.183464964433982e+000
 4.111973809026582e-001	 2.110311994470378e+000	 6.117079017410662e+000
 3.912205627142856e-001	 2.114106542106192e+000	 6.058590991584829e+000
 5.984691172955038e-001	 2.091042734063091e+000	 7.044141746723157e+000
 5.781735613130264e-001	 2.096745175990942e+000	 6.933766836642608e+000
 5.578757064665099e-001	 2.102236831611523e+000	 6.825329754694613e+000
 5.375786067231200e-001	 2.107518503275554e+000	 6.720080707152880e+000
 5.172852842355711e-001	 2.112591047688348e+000	 6.619113680714086e+000
 4.969987282574755e-001	 2.117455374777314e+000	 6.523366155585538e+000
 4.767218941001665e-001	 2.122112446537784e+000	 6.433619176755565e+000
 4.564577021312972e-001	 2.126563275858761e+000	 6.350497775116267e+000
 4.362090368154725e-001	 2.130808925330182e+000	 6.274471729351805e+000
 4.159787457971005e-001	 2.134850506033278e+000	 6.205856658794876e+000
 3.957696390255839e-001	 2.138689176315586e+000	 6.144815436799204e+000
 6.053480726636872e-001	 2.115077708019714e+000	 7.077612136321449e+000
 5.848192344286449e-001	 2.120845695256914e+000	 6.969762465397270e+000
 5.642880709058868e-001	 2.126400473355683e+000	 6.862932123429484e+000
 5.437576711656498e-001	 2.131742853889163e+000	 6.758487916349951e+000
 5.232310920980349e-001	 2.136873703409858e+000	 6.657635595372612e+000
 5.027113573158917e-001	 2.141793942304112e+000	 6.561419468142937e+000
 4.822014560996478e-001	 2.146504543624674e+000	 6.470722381591809e+000
 4.617043423844007e-001	 2.151006531902950e+000	 6.386266067998602e+000
 4.412229337895206e-001	 2.155300981942556e+000	 6.308611844978185e+000
 4.207601106909599e-001	 2.159389017595771e+000	 6.238161659367149e+000
 4.003187153363895e-001	 2.163271810524472e+000	 6.175159464300234e+000
 6.122270280313643e-001	 2.139112681976832e+000	 7.060404465674517e+000
 5.914649075436671e-001	 2.144946214523278e+000	 6.953857737015829e+000
 5.707004353445987e-001	 2.150564115100135e+000	 6.847595727839440e+000
 5.499367356074661e-001	 2.155967204502966e+000	 6.743104500402843e+000
 5.291768999597574e-001	 2.161156359131462e+000	 6.641703979395318e+000
 5.084239863735580e-001	 2.166132509830903e+000	 6.544547460994591e+000
 4.876810180983916e-001	 2.170896640711457e+000	 6.452621507576559e+000
 4.669509826367987e-001	 2.175449787946933e+000	 6.366746219406789e+000
 4.462368307629146e-001	 2.179793038554623e+000	 6.287575873821817e+000
 4.255414755842360e-001	 2.183927529157856e+000	 6.215599921635849e+000
 4.048677916467025e-001	 2.187854444732851e+000	 6.151144329793765e+000
 6.191059833985354e-001	 2.163147655934445e+000	 6.994836688122270e+000
 5.981105806580939e-001	 2.169046733790038e+000	 6.888288534184668e+000
 5.771127997826462e-001	 2.174727756844882e+000	 6.781473908357540e+000
 5.561158000485695e-001	 2.180191555116964e+000	 6.676000866151339e+000
 5.351227078207386e-001	 2.185439014853160e+000	 6.573305993011623e+000
 5.141366154304752e-001	 2.190471077357688e+000	 6.474653811071287e+000
 4.931605800963980e-001	 2.195288737798134e+000	 6.381136585936098e+000
 4.721976228884912e-001	 2.199893043990708e+000	 6.293674524646897e+000
 4.512507277356547e-001	 2.204285095166384e+000	 6.213016355107977e+000
 4.303228404769293e-001	 2.208466040719535e+000	 6.139740276466319e+000
 4.094168679565230e-001	 2.212437078940723e+000	 6.074255269183862e+000
 3.639261048361499e-001	 1.966610736839179e+000	 4.277459421860820e+000
 3.453650463502414e-001	 1.969955071770350e+000	 4.295541800272931e+000
 3.268285283464441e-001	 1.973115078522868e+000	 4.324785504004678e+000
 3.083190262635861e-001	 1.976091945755501e+000	 4.364446114230230e+000
 2.898389780504916e-001	 1.978886900971938e+000	 4.413666181388162e+000
 2.713907835560691e-001	 1.981501209344972e+000	 4.471478014385363e+000
 2.529768039579073e-001	 1.983936172534892e+000	 4.536806649867841e+000
 2.345993612291326e-001	 1.986193127503396e+000	 4.608472990425550e+000
 2.162607376432356e-001	 1.988273445324313e+000	 4.685197100458258e+000
 1.979631753165401e-001	 1.990178529992387e+000	 4.765601648327412e+000
 1.797088757879294e-001	 1.991909817231349e+000	 4.848215483357500e+000
 3.684751811504043e-001	 1.991193371051617e+000	 4.733217009954669e+000
 3.496821094332686e-001	 1.994579510169543e+000	 4.740790276204487e+000
 3.309138849542394e-001	 1.997779017006543e+000	 4.757364640333891e+000
 3.121730140951302e-001	 2.000793095079617e+000	 4.782270365897539e+000
 2.934619652791259e-001	 2.003622987236254e+000	 4.814721484291016e+000
 2.747831683532466e-001	 2.006269974463903e+000	 4.853818561238496e+000
 2.561390140098016e-001	 2.008735374693610e+000	 4.898551651847543e+000
 2.375318532465809e-001	 2.011020541599093e+000	 4.947803432825340e+000
 2.189639968654948e-001	 2.013126863392606e+000	 5.000352500305470e+000
 2.004377150093212e-001	 2.015055761618825e+000	 5.054876821614163e+000
 1.819552367361798e-001	 2.016808689948031e+000	 5.109957329235345e+000
 3.730242574641658e-001	 2.015776005263546e+000	 5.123080231962159e+000
 3.539991725158979e-001	 2.019203948568140e+000	 5.121550652743871e+000
 3.349992415617213e-001	 2.022442955489553e+000	 5.127081687231237e+000
 3.160270019264351e-001	 2.025494244403021e+000	 5.139077837149060e+000
 2.970849525075851e-001	 2.028359073499827e+000	 5.156823946414427e+000
 2.781755531503031e-001	 2.031038739582085e+000	 5.179487948936473e+000
 2.593012240616184e-001	 2.033534576851590e+000	 5.206123813753819e+000
 2.404643452639860e-001	 2.035847955694086e+000	 5.235674675822985e+000
 2.216672560877349e-001	 2.037980281460246e+000	 5.266976140606135e+000
 2.029122547020976e-001	 2.039932993244682e+000	 5.298759750480739e+000
 1.842015976844301e-001	 2.041707562664222e+000	 5.329656600910627e+000
 3.775733337774348e-001	 2.040358639474969e+000	 5.448836728354261e+000
 3.583162355981294e-001	 2.043828386966140e+000	 5.439514618898713e+000
 3.390845981688897e-001	 2.047106893971896e+000	 5.435531116436644e+000
 3.198809897575006e-001	 2.050195393725709e+000	 5.436364594755009e+000
 3.007079397358689e-001	 2.053095159762659e+000	 5.441370118247857e+000
 2.815679379472381e-001	 2.055807504699517e+000	 5.449782175019569e+000
 2.624634341133578e-001	 2.058333779008834e+000	 5.460717616373988e+000
 2.433968372813476e-001	 2.060675369788373e+000	 5.473178790704446e+000
 2.243705153099558e-001	 2.062833699527232e+000	 5.486056859620667e+000
 2.053867943948690e-001	 2.064810224869957e+000	 5.498135284010541e+000
 1.864479586326805e-001	 2.066606435379921e+000	 5.508093467641785e+000
 3.821224100902110e-001	 2.064941273685884e+000	 5.712222861967778e+000
 3.626332986799630e-001	 2.068452825363543e+000	 5.696324361001310e+000
 3.431699547757446e-001	 2.071770832453574e+000	 5.684259843454093e+000
 3.237349775883270e-001	 2.074896543047685e+000	 5.675581264839587e+000
 3.043309269639776e-001	 2.077831246024749e+000	 5.669713391981558e+000
 2.849603227440518e-001	 2.080576269816199e+000	 5.665956525378558e+000
 2.656256441650199e-001	 2.083132981165341e+000	 5.663489437284563e+000
 2.463293292986659e-001	 2.085502783881956e+000	 5.661372513205886e+000
 2.270737745321574e-001	 2.087687117593565e+000	 5.658551084323243e+000
 2.078613340876359e-001	 2.089687456494650e+000	 5.653858938198090e+000
 1.886943195809308e-001	 2.091505308095129e+000	 5.646021995015723e+000
 3.866714864024947e-001	 2.089523907896292e+000	 5.914926734337458e+000
 3.669503617613986e-001	 2.093077263760348e+000	 5.893575474630455e+000
 3.472553113822862e-001	 2.096434770934586e+000	 5.874770024976453e+000
 3.275889654189143e-001	 2.099597692368946e+000	 5.858135705859751e+000
 3.079539141919111e-001	 2.102567332286097e+000	 5.843166540230108e+000
 2.883527075407443e-001	 2.105345034932133e+000	 5.829227969057700e+000
 2.687878542166046e-001	 2.107932183321109e+000	 5.815559792217107e+000
 2.492618213159407e-001	 2.110330197974833e+000	 5.801279322075474e+000
 2.297770337543397e-001	 2.112540535659244e+000	 5.785384736947868e+000
 2.103358737803978e-001	 2.114564688118759e+000	 5.766758621424742e+000
 1.909406805291811e-001	 2.116404180809844e+000	 5.744171680458157e+000
 3.912205627142856e-001	 2.114106542106192e+000	 6.058590991584829e+000
 3.712674248424364e-001	 2.117701702156558e+000	 6.032819673376138e+000
 3.513406679885142e-001	 2.121098709414933e+000	 6.008521661142731e+000
 3.314429532492620e-001	 2.124298841689493e+000	 5.985395495097889e+000
 3.115769014196693e-001	 2.127303418546704e+000	 5.963004077636303e+000
 2.917450923373154e-001	 2.130113800047317e+000	 5.940777385978306e+000
 2.719500642681118e-001	 2.132731385476141e+000	 5.918015420048830e+000
 2.521943133331722e-001	 2.135157612067004e+000	 5.893891372619512e+000
 2.324802929765029e-001	 2.137393953724271e+000	 5.867455008520060e+000
 2.128104134731550e-001	 2.139441919742288e+000	 5.837636239552633e+000
 1.931870414774315e-001	 2.141303053524068e+000	 5.803248881614549e+000
 3.957696390255839e-001	 2.138689176315586e+000	 6.144815436799204e+000
 3.755844879230763e-001	 2.142326140552169e+000	 6.115567310793271e+000
 3.554260245944290e-001	 2.145762647894614e+000	 6.086935018328006e+000
 3.352969410793707e-001	 2.148999991009326e+000	 6.058690243671799e+000
 3.151998886472523e-001	 2.152039504806568e+000	 6.030464459604262e+000
 2.951374771337652e-001	 2.154882565161751e+000	 6.001751641026315e+000
 2.751122743195417e-001	 2.157530587630436e+000	 5.971911224001435e+000
 2.551268053503603e-001	 2.159985026158472e+000	 5.940171296899780e+000
 2.351835521986468e-001	 2.162247371788644e+000	 5.905632010075206e+000
 2.152849531659073e-001	 2.164319151365234e+000	 5.867269190322495e+000
 1.954334024256818e-001	 2.166201926237801e+000	 5.823938146223082e+000
 4.003187153363895e-001	 2.163271810524472e+000	 6.175159464300234e+000
 3.799015510033184e-001	 2.166950578947185e+000	 6.143289730403232e+000
 3.595113812000301e-001	 2.170426586373628e+000	 6.111392886743998e+000
 3.391509289092402e-001	 2.173701140328445e+000	 6.079313753703027e+000
 3.188228758746600e-001	 2.176775591065690e+000	 6.046752131120677e+000
 2.985298619300936e-001	 2.179651330275434e+000	 6.013265516724466e+000
 2.782744843708941e-001	 2.182329789783993e+000	 5.978272080484692e+000
 2.580592973675050e-001	 2.184812440249233e+000	 5.941053881191056e+000
 2.378868114207716e-001	 2.187100789852363e+000	 5.900760311294996e+000
 2.177594928586549e-001	 2.189196382987598e+000	 5.856411755859838e+000
 1.976797633739321e-001	 2.191100798951041e+000	 5.806903451313644e+000
 4.048677916467025e-001	 2.187854444732851e+000	 6.151144329793765e+000
 3.842186140831626e-001	 2.191575017341604e+000	 6.117421457269540e+000
 3.635967378053180e-001	 2.195090524851978e+000	 6.083242685841437e+000
 3.430049167388702e-001	 2.198402289646850e+000	 6.048526030058386e+000
 3.224458631018924e-001	 2.201511677324071e+000	 6.013039437451718e+000
 3.019222467263009e-001	 2.204420095388370e+000	 5.976403515612940e+000
 2.814366944221692e-001	 2.207128991936814e+000	 5.938094525996720e+000
 2.609917893846063e-001	 2.209639854339290e+000	 5.897447630351008e+000
 2.405900706428770e-001	 2.211954207915429e+000	 5.853660375414703e+000
 2.202340325513977e-001	 2.214073614609379e+000	 5.805796401305854e+000
 1.999261243221825e-001	 2.215999671663790e+000	 5.752789358865511e+000
 4.094168679565230e-001	 2.212437078940723e+000	 6.074255269183862e+000
 3.885356771626090e-001	 2.216199455735425e+000	 6.039362243466677e+000
 3.676820944102924e-001	 2.219754463329662e+000	 6.003798429352152e+000
 3.468589045682614e-001	 2.223103438964542e+000	 5.967555157975017e+000
 3.260688503289498e-001	 2.226247763581711e+000	 5.930468407461318e+000
 3.053146315223869e-001	 2.229188860500556e+000	 5.892221542470086e+000
 2.845989044733670e-001	 2.231928194088898e+000	 5.852348331562890e+000
 2.639242814016642e-001	 2.234467268428643e+000	 5.810236227898549e+000
 2.432933298649634e-001	 2.236807625977843e+000	 5.765129898469829e+000
 2.227085722441358e-001	 2.238950846230580e+000	 5.716134986871885e+000
 2.021724852704328e-001	 2.240898544376048e+000	 5.662222094421514e+000
 1.797088757879294e-001	 1.991909817231349e+000	 4.848215483357500e+000
 1.614999996355343e-001	 1.993468773302665e+000	 4.902101214389163e+000
 1.433386661295952e-001	 1.994856893815574e+000	 4.979406671126553e+000
 1.252269529212343e-001	 1.996075702539928e+000	 5.078151281361907e+000
 1.071668957668296e-001	 1.997126750223276e+000	 5.196261359539103e+000
 8.916048828710503e-002	 1.998011613412721e+000	 5.331574757314113e+000
 7.120968176046663e-002	 1.998731893282784e+000	 5.481845582926410e+000
 5.331638494996551e-002	 1.999289214470238e+000	 5.644748977585169e+000
 3.548246396324807e-002	 1.999685223916897e+000	 5.817885937288497e+000
 1.770974214482997e-002	 1.999921589721275e+000	 5.998788168744286e+000
 0.000000000000000e+000	 2.000000000000000e+000	 6.184922968329958e+000
 1.819552367361798e-001	 2.016808689948031e+000	 5.109957329235345e+000
 1.635187496314781e-001	 2.018387132969990e+000	 5.135388461340852e+000
 1.451303994563842e-001	 2.019792604989089e+000	 5.182194341701636e+000
 1.267922898326586e-001	 2.021026648822303e+000	 5.248455618931174e+000
 1.085064819636333e-001	 2.022090834601524e+000	 5.332156629348759e+000
 9.027499439029070e-002	 2.022986758580697e+000	 5.431190083419026e+000
 7.209980278201619e-002	 2.023716041949021e+000	 5.543361826876232e+000
 5.398283976139826e-002	 2.024280329651229e+000	 5.666395664396627e+000
 3.592599476242820e-002	 2.024681289215908e+000	 5.797938233902023e+000
 1.793111392142740e-002	 2.024920609592803e+000	 5.935563919824508e+000
 0.000000000000000e+000	 2.025000000000000e+000	 6.076779793932547e+000
 1.842015976844301e-001	 2.041707562664222e+000	 5.329656600910627e+000
 1.655374996274219e-001	 2.043305492636919e+000	 5.330857573439579e+000
 1.469221327831731e-001	 2.044728316162292e+000	 5.351603755675230e+000
 1.283576267440828e-001	 2.045977595104440e+000	 5.390034181248729e+000
 1.098460681604370e-001	 2.047054918979600e+000	 5.444188199568111e+000
 9.138950049347637e-002	 2.047961903748552e+000	 5.512010204477364e+000
 7.298992380356573e-002	 2.048700190615181e+000	 5.591354443585182e+000
 5.464929457283099e-002	 2.049271444832177e+000	 5.679989895775770e+000
 3.636952556160832e-002	 2.049677354514901e+000	 5.775605204631509e+000
 1.815248569802481e-002	 2.049919629464327e+000	 5.875813655746640e+000
 0.000000000000000e+000	 2.050000000000000e+000	 5.978158186177979e+000
 1.864479586326805e-001	 2.066606435379921e+000	 5.508093467641785e+000
 1.675562496233656e-001	 2.068223852303450e+000	 5.489159314596758e+000
 1.487138661099620e-001	 2.069664027335182e+000	 5.488155356039758e+000
 1.299229636555070e-001	 2.070928541386338e+000	 5.503276247669140e+000
 1.111856543572407e-001	 2.072019003357500e+000	 5.532613414131681e+000
 9.250400659666205e-002	 2.072937048916287e+000	 5.574159826231096e+000
 7.388004482511527e-002	 2.073684339281264e+000	 5.625814864908534e+000
 5.531574938426372e-002	 2.074262560013082e+000	 5.685389259139872e+000
 3.681305636078845e-002	 2.074673419813873e+000	 5.750610085114433e+000
 1.837385747462224e-002	 2.074918649335846e+000	 5.819125814304115e+000
 0.000000000000000e+000	 2.075000000000000e+000	 5.888511398306406e+000
 1.886943195809308e-001	 2.091505308095129e+000	 5.646021995015723e+000
 1.695749996193094e-001	 2.093142211969584e+000	 5.610922870480248e+000
 1.505055994367510e-001	 2.094599738507759e+000	 5.592352695317499e+000
 1.314883005669313e-001	 2.095879487667999e+000	 5.588559053742581e+000
 1.125252405540444e-001	 2.096983087735225e+000	 5.597682575240079e+000
 9.361851269984771e-002	 2.097912194083901e+000	 5.617761766647162e+000
 7.477016584666481e-002	 2.098668487947270e+000	 5.646737937229103e+000
 5.598220419569647e-002	 2.099253675193944e+000	 5.682460203514159e+000
 3.725658715996857e-002	 2.099669485112828e+000	 5.722690560866491e+000
 1.859522925121965e-002	 2.099917669207359e+000	 5.765109009025929e+000
 0.000000000000000e+000	 2.100000000000000e+000	 5.807318719118181e+000
 1.909406805291811e-001	 2.116404180809844e+000	 5.744171680458157e+000
 1.715937496152531e-001	 2.118060571635321e+000	 5.696757117822201e+000
 1.522973327635400e-001	 2.119535449680024e+000	 5.664683429117457e+000
 1.330536374783555e-001	 2.120830433949419e+000	 5.646248499673621e+000
 1.138648267508481e-001	 2.121947172112775e+000	 5.639639357579870e+000
 9.473301880303341e-002	 2.122887339251393e+000	 5.642937066962469e+000
 7.566028686821437e-002	 2.123652636613199e+000	 5.654121720602691e+000
 5.664865900712922e-002	 2.124244790374762e+000	 5.671077518260661e+000
 3.770011795914870e-002	 2.124665550411762e+000	 5.691597917289252e+000
 1.881660102781707e-002	 2.124916689078869e+000	 5.713390842368470e+000
 0.000000000000000e+000	 2.125000000000000e+000	 5.734083941469944e+000
 1.931870414774315e-001	 2.141303053524068e+000	 5.803248881614549e+000
 1.736124996111969e-001	 2.142978931300661e+000	 5.747251805172023e+000
 1.540890660903289e-001	 2.144471160851976e+000	 5.705620240374920e+000
 1.346189743897798e-001	 2.145781380230602e+000	 5.676699809353482e+000
 1.152044129476518e-001	 2.146911256490151e+000	 5.658721193643476e+000
 9.584752490621905e-002	 2.147862484418765e+000	 5.649805094982441e+000
 7.655040788976392e-002	 2.148636785279050e+000	 5.647967301916721e+000
 5.731511381856196e-002	 2.149235905555537e+000	 5.651123848175124e+000
 3.814364875832882e-002	 2.149661615710678e+000	 5.657096248979017e+000
 1.903797280441450e-002	 2.149915708950374e+000	 5.663616801708079e+000
 0.000000000000000e+000	 2.150000000000000e+000	 5.668333937620334e+000
 1.954334024256818e-001	 2.166201926237801e+000	 5.823938146223082e+000
 1.756312496071406e-001	 2.167897290965605e+000	 5.762978652216416e+000
 1.558807994171179e-001	 2.169406872023616e+000	 5.715621699849561e+000
 1.361843113012040e-001	 2.170732326511546e+000	 5.680258143940460e+000
 1.165439991444555e-001	 2.171875340867353e+000	 5.655159632476785e+000
 9.696203100940475e-002	 2.172837629586016e+000	 5.638483641255374e+000
 7.744052891131344e-002	 2.173620933944824e+000	 5.628278620934070e+000
 5.798156862999471e-002	 2.174227020736269e+000	 5.622489242024781e+000
 3.858717955750896e-002	 2.174657681009574e+000	 5.618961723566094e+000
 1.925934458101192e-002	 2.174914728821873e+000	 5.615449231471899e+000
 0.000000000000000e+000	 2.175000000000000e+000	 5.609617332827599e+000
 1.976797633739321e-001	 2.191100798951041e+000	 5.806903451313644e+000
 1.776499996030844e-001	 2.192815650630152e+000	 5.744492374146752e+000
 1.576725327439068e-001	 2.194342583194942e+000	 5.695133067953765e+000
 1.377496482126283e-001	 2.195683272792251e+000	 5.657259173606801e+000
 1.178835853412592e-001	 2.196839425244380e+000	 5.629180673965275e+000
 9.807653711259042e-002	 2.197812774753146e+000	 5.609089008688690e+000
 7.833064993286298e-002	 2.198605082610522e+000	 5.595062308198541e+000
 5.864802344142745e-002	 2.199218135916958e+000	 5.585070731868988e+000
 3.903071035668908e-002	 2.199653746308452e+000	 5.576981895747137e+000
 1.948071635760934e-002	 2.199913748693368e+000	 5.568566375351367e+000
 0.000000000000000e+000	 2.199999999999999e+000	 5.557503269383595e+000
 1.999261243221825e-001	 2.215999671663790e+000	 5.752789358865511e+000
 1.796687495990281e-001	 2.217734010294301e+000	 5.692331636968266e+000
 1.594642660706957e-001	 2.219278294365957e+000	 5.644587042524973e+000
 1.393149851240525e-001	 2.220634219072718e+000	 5.608029610739863e+000
 1.192231715380629e-001	 2.221803509621232e+000	 5.581005080584690e+000
 9.919104321577608e-002	 2.222787919920156e+000	 5.561736096125253e+000
 7.922077095441255e-002	 2.223589231276142e+000	 5.548327533866470e+000
 5.931447825286017e-002	 2.224209251097604e+000	 5.538771940738599e+000
 3.947424115586921e-002	 2.224649811607310e+000	 5.530955067562032e+000
 1.970208813420676e-002	 2.224912768564858e+000	 5.522661483084671e+000
 0.000000000000000e+000	 2.224999999999999e+000	 5.511580253971680e+000
 2.021724852704328e-001	 2.240898544376048e+000	 5.662222094421514e+000
 1.816874995949720e-001	 2.242652369958055e+000	 5.607019949120792e+000
 1.612559993974847e-001	 2.244214005536660e+000	 5.564404456746459e+000
 1.408803220354768e-001	 2.245585165352947e+000	 5.532887707597012e+000
 1.205627577348666e-001	 2.246767593997911e+000	 5.510848668368790e+000
 1.003055493189618e-001	 2.247763065087045e+000	 5.496538476346124e+000
 8.011089197596211e-002	 2.248573379941687e+000	 5.488085866618015e+000
 5.998093306429295e-002	 2.249200366278207e+000	 5.483502716471371e+000
 3.991777195504935e-002	 2.249645876906150e+000	 5.480689691319384e+000
 1.992345991080419e-002	 2.249911788436346e+000	 5.477441976787834e+000
 0.000000000000000e+000	 2.250000000000000e+000	 5.471455081867000e+000
 2.250000000000000e+000	 0.000000000000000e+000	 1.176281258905452e+001
 2.249911788436345e+000	 1.992345991080426e-002	 1.185246760700589e+001
 2.249645876906150e+000	 3.991777195504948e-002	 1.192090296940342e+001
 2.249200366278207e+000	 5.998093306429280e-002	 1.196905349498855e+001
 2.248573379941687e+000	 8.011089197596205e-002	 1.199792941153670e+001
 2.247763065087045e+000	 1.003055493189618e-001	 1.200861639282073e+001
 2.246767593997911e+000	 1.205627577348667e-001	 1.200227544747000e+001
 2.245585165352948e+000	 1.408803220354769e-001	 1.198014265499543e+001
 2.244214005536660e+000	 1.612559993974846e-001	 1.194352874447576e+001
 2.242652369958055e+000	 1.816874995949719e-001	 1.189381851164693e+001
 2.240898544376048e+000	 2.021724852704328e-001	 1.183247007040564e+001
 2.275000000000000e+000	 0.000000000000000e+000	 1.167804257464998e+001
 2.274910808307830e+000	 2.014483168749044e-002	 1.176655981913284e+001
 2.274641942204990e+000	 4.036130275438817e-002	 1.183416235013100e+001
 2.274191481458810e+000	 6.064738787593468e-002	 1.188189737757440e+001
 2.273557528607231e+000	 8.100101299775192e-002	 1.191089067615295e+001
 2.272738210253934e+000	 1.014200554223994e-001	 1.192234655968308e+001
 2.271731678374588e+000	 1.219023439319140e-001	 1.191754770001500e+001
 2.270536111633176e+000	 1.424456589471165e-001	 1.189785478561981e+001
 2.269149716707362e+000	 1.630477327244404e-001	 1.186470601523361e+001
 2.267570729621808e+000	 1.837062495910136e-001	 1.181961642219494e+001
 2.265797417088305e+000	 2.044188462186914e-001	 1.176417702539748e+001
 2.300000000000000e+000	 0.000000000000000e+000	 1.159779466923780e+001
 2.299909828179320e+000	 2.036620346435412e-002	 1.168621384193863e+001
 2.299638007503847e+000	 4.080483355404389e-002	 1.175394245556871e+001
 2.299182596639455e+000	 6.131384268799480e-002	 1.180214004961577e+001
 2.298541677272850e+000	 8.189113402002239e-002	 1.183204796373461e+001
 2.297713355420944e+000	 1.025345615263407e-001	 1.184498925055504e+001
 2.296695762751440e+000	 1.232419301294487e-001	 1.184236842556387e+001
 2.295487057913643e+000	 1.440109958591868e-001	 1.182567104906397e+001
 2.294085427878376e+000	 1.648394660517298e-001	 1.179646313546336e+001
 2.292489089285958e+000	 1.857249995872509e-001	 1.175639038542223e+001
 2.290696289801054e+000	 2.066652071669667e-001	 1.170717723668409e+001
 2.325000000000000e+000	 0.000000000000000e+000	 1.152234349148041e+001
 2.324908848050816e+000	 2.058757524139532e-002	 1.161156421433061e+001
 2.324634072802724e+000	 4.124836435401671e-002	 1.168023774084806e+001
 2.324173711820144e+000	 6.198029750047319e-002	 1.172963594418383e+001
 2.323525825938548e+000	 8.278125504277356e-002	 1.176111581421846e+001
 2.322688500588074e+000	 1.036490676307858e-001	 1.177611930982264e+001
 2.321659847128467e+000	 1.245815163274705e-001	 1.177617304061011e+001
 2.320438004194349e+000	 1.455763327716879e-001	 1.176288777304506e+001
 2.319021139049703e+000	 1.666311993793530e-001	 1.173795775602775e+001
 2.317407448950504e+000	 1.877437495836841e-001	 1.170315986137296e+001
 2.315595162514295e+000	 2.089115681152584e-001	 1.166035253490781e+001
 2.350000000000000e+000	 0.000000000000000e+000	 1.145195197414017e+001
 2.349907867922315e+000	 2.080894701861403e-002	 1.154273751950748e+001
 2.349630138101621e+000	 4.169189515430661e-002	 1.161303839698232e+001
 2.349164827000877e+000	 6.264675231336984e-002	 1.166423888140838e+001
 2.348509974604323e+000	 8.367137606600532e-002	 1.169781176354255e+001
 2.347663645755325e+000	 1.047635737357348e-001	 1.171531814275368e+001
 2.346623931505669e+000	 1.259211025259797e-001	 1.171840704151336e+001
 2.345388950475293e+000	 1.471416696846196e-001	 1.170881483639589e+001
 2.343956850221343e+000	 1.684229327073098e-001	 1.168836450057762e+001
 2.342325808615447e+000	 1.897624995803131e-001	 1.165896465313092e+001
 2.340494035228027e+000	 2.111579290635668e-001	 1.162260841073642e+001
 2.375000000000000e+000	 0.000000000000000e+000	 1.138687197912668e+001
 2.374906887793820e+000	 2.103031879601026e-002	 1.147985280368081e+001
 2.374626203400537e+000	 4.213542595491358e-002	 1.155233057529393e+001
 2.374155942181652e+000	 6.331320712668474e-002	 1.160580210073800e+001
 2.373494123270174e+000	 8.456149708971776e-002	 1.164185618596219e+001
 2.372638790922697e+000	 1.058780798411875e-001	 1.166217337018863e+001
 2.371588015883045e+000	 1.272606887249762e-001	 1.166852547398049e+001
 2.370339896756476e+000	 1.487070065979821e-001	 1.166277495584860e+001
 2.368892561393295e+000	 1.702146660356002e-001	 1.164687407224729e+001
 2.367244168280787e+000	 1.917812495771377e-001	 1.162286383613290e+001
 2.365392907942251e+000	 2.134042900118918e-001	 1.159287276959803e+001
 2.400000000000000e+000	 0.000000000000000e+000	 1.132734487410374e+001
 2.399905907665330e+000	 2.125169057358399e-002	 1.142302196862653e+001
 2.399622268699472e+000	 4.257895675583762e-002	 1.149809659781466e+001
 2.399147057362470e+000	 6.397966194041792e-002	 1.155417829118378e+001
 2.398478271936103e+000	 8.545161811391080e-002	 1.159297214622083e+001
 2.397613936090189e+000	 1.069925859471440e-001	 1.161627850481242e+001
 2.396552100260595e+000	 1.286002749244599e-001	 1.162599243570348e+001
 2.395290843037896e+000	 1.502723435117752e-001	 1.162410301739351e+001
 2.393828272565559e+000	 1.720063993642244e-001	 1.161269241618146e+001
 2.392162527946526e+000	 1.937999995741583e-001	 1.159393475440058e+001
 2.390291780656967e+000	 2.156506509602334e-001	 1.157009476424611e+001
 2.425000000000000e+000	 0.000000000000000e+000	 1.127360207342983e+001
 2.424904927536844e+000	 2.147306235133523e-002	 1.137235013995474e+001
 2.424618333998425e+000	 4.302248755707874e-002	 1.145031515467217e+001
 2.424138172543332e+000	 6.464611675456937e-002	 1.150921961969245e+001
 2.423462420602109e+000	 8.634173913858451e-002	 1.155088526086491e+001
 2.422589081257803e+000	 1.081070920536042e-001	 1.157723264745150e+001
 2.421516184638321e+000	 1.299398611244310e-001	 1.159028060976231e+001
 2.420241789319556e+000	 1.518376804259992e-001	 1.159214544899838e+001
 2.418763983738137e+000	 1.737981326931822e-001	 1.158503993386450e+001
 2.417080887612659e+000	 1.958187495713745e-001	 1.157127207886060e+001
 2.415190653372174e+000	 2.178970119085915e-001	 1.155324369953606e+001
 2.449999999999999e+000	 0.000000000000000e+000	 1.122586554597970e+001
 2.449903947408363e+000	 2.169443412926399e-002	 1.132793601283226e+001
 2.449614399297399e+000	 4.346601835863694e-002	 1.140896148939089e+001
 2.449129287724237e+000	 6.531257156913906e-002	 1.147077775778233e+001
 2.448446569268191e+000	 8.723186016373882e-002	 1.151532356805012e+001
 2.447564226425537e+000	 1.092215981605683e-001	 1.154464020196419e+001
 2.446480269016221e+000	 1.312794473248893e-001	 1.156087082659495e+001
 2.445192735601454e+000	 1.534030173406537e-001	 1.156625963173142e+001
 2.443699694911027e+000	 1.755898660224738e-001	 1.156315074555207e+001
 2.441999247279191e+000	 1.978374995687865e-001	 1.155398692331896e+001
 2.440089526087873e+000	 2.201433728569663e-001	 1.154130800425716e+001
 2.474999999999999e+000	 0.000000000000000e+000	 1.118434829218912e+001
 2.474902967279886e+000	 2.191580590737025e-002	 1.128987217675276e+001
 2.474610464596390e+000	 4.390954916051220e-002	 1.137400757296303e+001
 2.474120402905185e+000	 6.597902638412702e-002	 1.143870390656478e+001
 2.473430717934352e+000	 8.812198118937382e-002	 1.148601740523778e+001
 2.472539371593392e+000	 1.103361042680361e-001	 1.151811060741108e+001
 2.471444353394296e+000	 1.326190335258349e-001	 1.153725165251468e+001
 2.470143681883590e+000	 1.549683542557390e-001	 1.154581334657477e+001
 2.468635406084229e+000	 1.773815993520990e-001	 1.154627199740391e+001
 2.466917606946119e+000	 1.998562495663942e-001	 1.154120601401240e+001
 2.464988398804064e+000	 2.223897338053576e-001	 1.153329426527684e+001
 2.500000000000000e+000	 0.000000000000000e+000	 1.114925479247668e+001
 2.499901987151415e+000	 2.213717768565403e-002	 1.125824542082039e+001
 2.499606529895403e+000	 4.435307996270457e-002	 1.134542226747511e+001
 2.499111518086177e+000	 6.664548119953326e-002	 1.141284882026470e+001
 2.498414866600589e+000	 8.901210221548944e-002	 1.146269929422934e+001
 2.497514516761369e+000	 1.114506103760078e-001	 1.149725808629470e+001
 2.496408437772546e+000	 1.339586197272678e-001	 1.151891900291614e+001
 2.495094628165966e+000	 1.565336911712552e-001	 1.153018425442863e+001
 2.493571117257746e+000	 1.791733326820579e-001	 1.153366321018853e+001
 2.491835966613445e+000	 2.018749995641979e-001	 1.153207090898694e+001
 2.489887271520747e+000	 2.246360947537655e-001	 1.152822631963695e+001
 2.240898544376048e+000	 2.021724852704328e-001	 1.183247007040564e+001
 2.238950846230580e+000	 2.227085722441359e-001	 1.185681511472701e+001
 2.236807625977843e+000	 2.432933298649635e-001	 1.187680806287720e+001
 2.234467268428642e+000	 2.639242814016641e-001	 1.189380830231712e+001
 2.231928194088898e+000	 2.845989044733669e-001	 1.190923410810420e+001
 2.229188860500556e+000	 3.053146315223868e-001	 1.192456110771129e+001
 2.226247763581711e+000	 3.260688503289499e-001	 1.194132057703360e+001
 2.223103438964543e+000	 3.468589045682615e-001	 1.196109756633650e+001
 2.219754463329662e+000	 3.676820944102923e-001	 1.198552885532337e+001
 2.216199455735425e+000	 3.885356771626088e-001	 1.201630073694756e+001
 2.212437078940723e+000	 4.094168679565229e-001	 1.205514663005483e+001
 2.265797417088305e+000	 2.044188462186914e-001	 1.176417702539748e+001
 2.263828077851779e+000	 2.251831119367893e-001	 1.178141853897099e+001
 2.261661044040257e+000	 2.459965890868868e-001	 1.179502847291848e+001
 2.259294682517994e+000	 2.668567734184952e-001	 1.180652162355848e+001
 2.256727396240981e+000	 2.877611145242887e-001	 1.181747481703638e+001
 2.253957625612741e+000	 3.087070163181624e-001	 1.182952523950502e+001
 2.250983849839349e+000	 3.296918375556777e-001	 1.184436858950292e+001
 2.247804588282233e+000	 3.507128923973187e-001	 1.186375705128284e+001
 2.244418401807346e+000	 3.717674510149442e-001	 1.188949708829312e+001
 2.240823894129246e+000	 3.928527402417593e-001	 1.192344705648148e+001
 2.237019713148594e+000	 4.139659442660895e-001	 1.196751463757646e+001
 2.290696289801054e+000	 2.066652071669667e-001	 1.170717723668409e+001
 2.288705309473562e+000	 2.276576516292786e-001	 1.171859402928377e+001
 2.286514462103322e+000	 2.486998483085035e-001	 1.172704283998046e+001
 2.284122096608051e+000	 2.697892654349161e-001	 1.173419442309729e+001
 2.281526598393801e+000	 2.909233245747359e-001	 1.174178477452862e+001
 2.278726390725677e+000	 3.120994011134391e-001	 1.175161332689969e+001
 2.275719936097731e+000	 3.333148247819217e-001	 1.176554095779279e+001
 2.272505737600639e+000	 3.545668802259481e-001	 1.178548780979188e+001
 2.269082340285696e+000	 3.758528076192647e-001	 1.181343092156888e+001
 2.265448332523665e+000	 3.971698033207161e-001	 1.185140166972527e+001
 2.261602347356972e+000	 4.185150205756415e-001	 1.190148302161104e+001
 2.315595162514295e+000	 2.089115681152584e-001	 1.166035253490781e+001
 2.313582541095926e+000	 2.301321913216035e-001	 1.166705287630387e+001
 2.311367880167042e+000	 2.514031075298135e-001	 1.167139195953759e+001
 2.308949510698812e+000	 2.727217574509268e-001	 1.167519713202577e+001
 2.306325800547358e+000	 2.940855346247087e-001	 1.168036426556679e+001
 2.303495155839361e+000	 3.154917859082165e-001	 1.168885581604227e+001
 2.300456022356852e+000	 3.369378120076821e-001	 1.170269868691114e+001
 2.297206886919757e+000	 3.584208680541495e-001	 1.172398189524538e+001
 2.293746278764711e+000	 3.799381642232538e-001	 1.175485403954844e+001
 2.290072770918681e+000	 4.014868663994788e-001	 1.179752056911283e+001
 2.286184981565858e+000	 4.230640968851787e-001	 1.185424085520537e+001
 2.340494035228027e+000	 2.111579290635668e-001	 1.162260841073642e+001
 2.338459772718871e+000	 2.326067310137641e-001	 1.162553472017173e+001
 2.336221298231414e+000	 2.541063667508168e-001	 1.162664963764307e+001
 2.333776924790280e+000	 2.756542494665273e-001	 1.162793782255477e+001
 2.331125002701654e+000	 2.972477446742071e-001	 1.163145581410563e+001
 2.328263920953794e+000	 3.188841707024949e-001	 1.163932995504307e+001
 2.325192108616717e+000	 3.405607992329587e-001	 1.165375410978996e+001
 2.321908036239590e+000	 3.622748558819228e-001	 1.167698717568647e+001
 2.318410217244391e+000	 3.840235208269115e-001	 1.171135038660647e+001
 2.314697209314292e+000	 4.058039294780479e-001	 1.175922440874356e+001
 2.310767615775252e+000	 4.276131731947014e-001	 1.182304622892114e+001
 2.365392907942251e+000	 2.134042900118918e-001	 1.159287276959803e+001
 2.363337004342399e+000	 2.350812707057606e-001	 1.159280605845050e+001
 2.361074716296441e+000	 2.568096259715135e-001	 1.159142095352981e+001
 2.358604338882452e+000	 2.785867414817178e-001	 1.159086022690211e+001
 2.355924204856684e+000	 3.004099547232310e-001	 1.159334195996506e+001
 2.353032686068978e+000	 3.222765554962742e-001	 1.160115733071486e+001
 2.349928194877323e+000	 3.441837864577516e-001	 1.161666818581545e+001
 2.346609185560137e+000	 3.661288437092684e-001	 1.164230439620581e+001
 2.343074155724738e+000	 3.881088774302378e-001	 1.168056099551723e+001
 2.339321647710501e+000	 4.101209925564233e-001	 1.173399510113687e+001
 2.335350249985152e+000	 4.321622495042093e-001	 1.180522261833418e+001
 2.390291780656967e+000	 2.156506509602334e-001	 1.157009476424611e+001
 2.388214235966510e+000	 2.375558103975928e-001	 1.156765884730196e+001
 2.385928134362120e+000	 2.595128851919036e-001	 1.156434063079925e+001
 2.383431752975329e+000	 2.815192334964979e-001	 1.156244188000070e+001
 2.380723407012454e+000	 3.035721647717806e-001	 1.156434317467071e+001
 2.377801451184912e+000	 3.256689402895543e-001	 1.157250155926503e+001
 2.374664281138672e+000	 3.478067736820609e-001	 1.158944796820054e+001
 2.371310334881398e+000	 3.699828315361859e-001	 1.161778442492879e+001
 2.367738094205750e+000	 3.921942340332325e-001	 1.166018101410011e+001
 2.363946086107307e+000	 4.144380556346049e-001	 1.171937262668957e+001
 2.359932884195560e+000	 4.367113258137025e-001	 1.179815547856520e+001
 2.415190653372174e+000	 2.178970119085915e-001	 1.155324369953606e+001
 2.413091467591202e+000	 2.400303500892606e-001	 1.154890918918753e+001
 2.410781552428453e+000	 2.622161444119870e-001	 1.154407150936077e+001
 2.408259167068910e+000	 2.844517255108678e-001	 1.154119237709034e+001
 2.405522609168961e+000	 3.067343748198555e-001	 1.154281590621108e+001
 2.402570216301593e+000	 3.290613250823354e-001	 1.155156611983235e+001
 2.399400367400762e+000	 3.514297609058863e-001	 1.157014422801409e+001
 2.396011484203374e+000	 3.738368193626756e-001	 1.160132566935405e+001
 2.392402032687428e+000	 3.962795906358960e-001	 1.164795691578475e+001
 2.388570524504710e+000	 4.187551187125926e-001	 1.171295204048646e+001
 2.384515518406475e+000	 4.412604021231812e-001	 1.179928904945799e+001
 2.440089526087873e+000	 2.201433728569663e-001	 1.154130800425716e+001
 2.437968699216476e+000	 2.425048897807643e-001	 1.153539610091425e+001
 2.435634970495439e+000	 2.649194036317638e-001	 1.152930311092634e+001
 2.433086581163198e+000	 2.873842175248277e-001	 1.152565173798793e+001
 2.430321811326203e+000	 3.098965848674560e-001	 1.152715074350392e+001
 2.427338981419026e+000	 3.324537098746174e-001	 1.153659232066375e+001
 2.424136453663594e+000	 3.550527481292280e-001	 1.155684922367837e+001
 2.420712633526063e+000	 3.776908071887373e-001	 1.159087165087519e+001
 2.417065971169772e+000	 4.003649472382279e-001	 1.164168388095719e+001
 2.413194962902710e+000	 4.230721817903866e-001	 1.171238066236734e+001
 2.409098152617898e+000	 4.458094784326451e-001	 1.180612335635897e+001
 2.464988398804064e+000	 2.223897338053576e-001	 1.153329426527684e+001
 2.462845930842334e+000	 2.449794294721036e-001	 1.152598035634449e+001
 2.460488388563079e+000	 2.676226628512339e-001	 1.151875029144465e+001
 2.457913995258191e+000	 2.903167095383774e-001	 1.151438887049246e+001
 2.455121013484185e+000	 3.130587949145821e-001	 1.151577069210684e+001
 2.452107746537208e+000	 3.358460946664003e-001	 1.152585738855331e+001
 2.448872539927168e+000	 3.586757353520861e-001	 1.154769460564806e+001
 2.445413782849465e+000	 3.815447950143708e-001	 1.158440872630135e+001
 2.441729909652781e+000	 4.044503038402285e-001	 1.163920333701296e+001
 2.437819401301307e+000	 4.273892448679869e-001	 1.171535543729298e+001
 2.433680786829828e+000	 4.503585547420945e-001	 1.181621139266763e+001
 2.489887271520747e+000	 2.246360947537655e-001	 1.152822631963695e+001
 2.487723162468774e+000	 2.474539691632789e-001	 1.151954339854317e+001
 2.485341806631373e+000	 2.703259220703974e-001	 1.151115197438933e+001
 2.482741409353889e+000	 2.932492015515169e-001	 1.150600012598602e+001
 2.479920215642903e+000	 3.162210049612338e-001	 1.150712955338522e+001
 2.476876511656140e+000	 3.392384794576842e-001	 1.151767267291498e+001
 2.473608626191484e+000	 3.622987225744604e-001	 1.154084944680866e+001
 2.470114932173583e+000	 3.853987828395769e-001	 1.157996394608647e+001
 2.466393848136456e+000	 4.085356604418977e-001	 1.163840064600636e+001
 2.462443839700501e+000	 4.317063079453934e-001	 1.171962045408923e+001
 2.458263421042266e+000	 4.549076310515292e-001	 1.182715647143410e+001
 2.212437078940723e+000	 4.094168679565229e-001	 1.205514663005483e+001
 2.208466040719535e+000	 4.303228404769294e-001	 1.201130494491262e+001
 2.204285095166384e+000	 4.512507277356548e-001	 1.197495661147963e+001
 2.199893043990709e+000	 4.721976228884910e-001	 1.194779634131202e+001
 2.195288737798134e+000	 4.931605800963979e-001	 1.193155546880291e+001
 2.190471077357688e+000	 5.141366154304753e-001	 1.192799890740272e+001
 2.185439014853160e+000	 5.351227078207387e-001	 1.193892194858425e+001
 2.180191555116963e+000	 5.561158000485696e-001	 1.196614690704489e+001
 2.174727756844883e+000	 5.771127997826460e-001	 1.201151961618320e+001
 2.169046733790038e+000	 5.981105806580939e-001	 1.207690577843713e+001
 2.163147655934445e+000	 6.191059833985354e-001	 1.216418717562321e+001
 2.237019713148594e+000	 4.139659442660895e-001	 1.196751463757646e+001
 2.233004552281214e+000	 4.351042053694189e-001	 1.192417127844061e+001
 2.228777151778144e+000	 4.562646247082412e-001	 1.189077077189516e+001
 2.224336300034484e+000	 4.774442631400798e-001	 1.186913531123486e+001
 2.219680834884810e+000	 4.986401420943507e-001	 1.186112419500206e+001
 2.214809644884473e+000	 5.198492444873888e-001	 1.186863059722391e+001
 2.209721670574856e+000	 5.410685156817662e-001	 1.189357817434185e+001
 2.204415905730960e+000	 5.622948644897695e-001	 1.193791751255772e+001
 2.198891398589630e+000	 5.835251642208400e-001	 1.200362241988799e+001
 2.193147253056797e+000	 6.047562537727171e-001	 1.209268606779070e+001
 2.187182629892056e+000	 6.259849387659531e-001	 1.218121637286422e+001
 2.261602347356972e+000	 4.185150205756415e-001	 1.190148302161104e+001
 2.257543063843300e+000	 4.398855702620842e-001	 1.185731058850975e+001
 2.253269208390209e+000	 4.612785216811742e-001	 1.182547417893344e+001
 2.248779556078466e+000	 4.826909033921670e-001	 1.180792547961219e+001
 2.244072931971593e+000	 5.041197040929338e-001	 1.180665383901054e+001
 2.239148212411263e+000	 5.255618735450450e-001	 1.182368284931396e+001
 2.234004326296460e+000	 5.470143235436286e-001	 1.186106675888331e+001
 2.228640256344763e+000	 5.684739289318761e-001	 1.192088671913494e+001
 2.223055040334082e+000	 5.899375286599926e-001	 1.200524687039482e+001
 2.217247772323163e+000	 6.114019268883302e-001	 1.211627027187114e+001
 2.211217603849173e+000	 6.328638941343707e-001	 1.205786517517785e+001
 2.286184981565858e+000	 4.230640968851787e-001	 1.185424085520537e+001
 2.282081575405792e+000	 4.446669351549252e-001	 1.180781267087715e+001
 2.277761265002584e+000	 4.662924186544543e-001	 1.177605857459719e+001
 2.273222812122656e+000	 4.879375436447528e-001	 1.176106183099591e+001
 2.268465029058483e+000	 5.095992660921478e-001	 1.176494399738340e+001
 2.263486779938061e+000	 5.312745026034440e-001	 1.178986131514379e+001
 2.258286982017970e+000	 5.529601314063258e-001	 1.183800092519917e+001
 2.252864606958372e+000	 5.746529933748896e-001	 1.191157691173637e+001
 2.247218682078240e+000	 5.963498931001033e-001	 1.201282617900316e+001
 2.241348291589134e+000	 6.180476000049325e-001	 1.214400416660081e+001
 2.235252577805797e+000	 6.397428495037884e-001	 1.195419881883731e+001
 2.310767615775252e+000	 4.276131731947014e-001	 1.182304622892114e+001
 2.306620086968692e+000	 4.494483000479418e-001	 1.177283780521186e+001
 2.302253321615266e+000	 4.713063156280811e-001	 1.173958759000525e+001
 2.297666068167052e+000	 4.931841838978370e-001	 1.172551258194716e+001
 2.292857126145480e+000	 5.150788280919920e-001	 1.173286877816999e+001
 2.287825347464866e+000	 5.369871316625857e-001	 1.176394737268122e+001
 2.282569637739387e+000	 5.589059392698582e-001	 1.182107077224733e+001
 2.277088957571788e+000	 5.808320578188099e-001	 1.190658843420280e+001
 2.271382323822107e+000	 6.027622575411730e-001	 1.202287253125198e+001
 2.265448810854711e+000	 6.246932731225248e-001	 1.217231344897484e+001
 2.259287551761927e+000	 6.466218048742060e-001	 1.186990755783187e+001
 2.335350249985152e+000	 4.321622495042093e-001	 1.180522261833418e+001
 2.331158598532001e+000	 4.542296649411343e-001	 1.174961304541545e+001
 2.326745378228254e+000	 4.763202126020547e-001	 1.171319296175523e+001
 2.322109324211656e+000	 4.984308241514198e-001	 1.169831532672042e+001
 2.317249223232583e+000	 5.205583900924671e-001	 1.170737287925649e+001
 2.312163914991677e+000	 5.426997607224701e-001	 1.174279414078604e+001
 2.306852293460711e+000	 5.648517471342254e-001	 1.180703922884957e+001
 2.301313308185010e+000	 5.870111222636373e-001	 1.190259548615705e+001
 2.295545965565678e+000	 6.091746219832008e-001	 1.203197293038075e+001
 2.289549330119896e+000	 6.313389462411065e-001	 1.206776119430593e+001
 2.283322525717564e+000	 6.535007602456238e-001	 1.180475819204150e+001
 2.359932884195560e+000	 4.367113258137025e-001	 1.179815547856520e+001
 2.355697110095715e+000	 4.590110298345022e-001	 1.173542874179762e+001
 2.351237434841551e+000	 4.813341095763753e-001	 1.169407098476334e+001
 2.346552580256467e+000	 5.036774644055011e-001	 1.167657342384185e+001
 2.341641320319795e+000	 5.260379520935724e-001	 1.168546791181187e+001
 2.336502482518495e+000	 5.484123897830971e-001	 1.172332274270525e+001
 2.331134949181941e+000	 5.707975549994273e-001	 1.179273826046968e+001
 2.325537658798040e+000	 5.931901867093714e-001	 1.189634227634855e+001
 2.319709607308956e+000	 6.155869864261873e-001	 1.203678530057435e+001
 2.313649849384685e+000	 6.379846193606776e-001	 1.197351882663763e+001
 2.307357499672707e+000	 6.603797156180414e-001	 1.175859008047193e+001
 2.384515518406475e+000	 4.412604021231812e-001	 1.179928904945799e+001
 2.380235621659837e+000	 4.637923947280462e-001	 1.172763527837467e+001
 2.375729491455153e+000	 4.863480065510425e-001	 1.167947918451581e+001
 2.370995836301484e+000	 5.089241046600809e-001	 1.165745260619858e+001
 2.366033417407113e+000	 5.315175140953082e-001	 1.166422895114978e+001
 2.360841050045321e+000	 5.541250188444671e-001	 1.170251880069229e+001
 2.355417604903078e+000	 5.767433628654642e-001	 1.177506531062343e+001
 2.349762009410875e+000	 5.993692511560124e-001	 1.188463941393572e+001
 2.343873249051941e+000	 6.219993508701321e-001	 1.203403483124426e+001
 2.337750368649083e+000	 6.446302924812387e-001	 1.189625284997304e+001
 2.331392473627356e+000	 6.672586709914591e-001	 1.173131140109357e+001
 2.409098152617898e+000	 4.458094784326451e-001	 1.180612335635897e+001
 2.404774133224367e+000	 4.685737596217657e-001	 1.172364000992563e+001
 2.400221548069064e+000	 4.913619035260567e-001	 1.166673319306068e+001
 2.395439092346710e+000	 5.141707449151590e-001	 1.163817779867340e+001
 2.390425514494538e+000	 5.369970760976746e-001	 1.164079129876198e+001
 2.385179617572153e+000	 5.598376479065795e-001	 1.167742914524157e+001
 2.379700260624122e+000	 5.826891707323360e-001	 1.175097996016202e+001
 2.373986360023517e+000	 6.055483156035603e-001	 1.186436052070984e+001
 2.368036890794632e+000	 6.284117153150356e-001	 1.197215994745348e+001
 2.361850887913085e+000	 6.512759656027892e-001	 1.183591481825711e+001
 2.355427447581511e+000	 6.741376263658767e-001	 1.172289563966974e+001
 2.433680786829828e+000	 4.503585547420945e-001	 1.181621139266763e+001
 2.429312644789304e+000	 4.733551245156609e-001	 1.172090438468091e+001
 2.424713604683281e+000	 4.963758005014177e-001	 1.165320381433273e+001
 2.419882348392142e+000	 5.194173851707360e-001	 1.161603012865009e+001
 2.414817611582069e+000	 5.424766381006717e-001	 1.161234744059229e+001
 2.409518185098991e+000	 5.655502769694349e-001	 1.164515872376309e+001
 2.403982916345072e+000	 5.886349786000428e-001	 1.171750078902251e+001
 2.398210710635965e+000	 6.117273800520151e-001	 1.183243904863900e+001
 2.392200532537029e+000	 6.348240797608977e-001	 1.187627758907243e+001
 2.385951407176694e+000	 6.579216387253293e-001	 1.179251762151214e+001
 2.379462421535173e+000	 6.810165817412944e-001	 1.173337829138348e+001
 2.458263421042266e+000	 4.549076310515292e-001	 1.182715647143410e+001
 2.453851156354649e+000	 4.781364894097321e-001	 1.171694123964989e+001
 2.449205661297807e+000	 5.013896974771258e-001	 1.163631426555936e+001
 2.444325604437782e+000	 5.246640254268113e-001	 1.158834411588844e+001
 2.439209708669709e+000	 5.479562001042994e-001	 1.157614418781400e+001
 2.433856752625838e+000	 5.712629060330331e-001	 1.160286769473680e+001
 2.428265572065930e+000	 5.945807864685845e-001	 1.167170242627378e+001
 2.422435061248221e+000	 6.179064445013770e-001	 1.178586528835916e+001
 2.416364174279133e+000	 6.412364442077183e-001	 1.179532538956487e+001
 2.410051926439911e+000	 6.645673118488592e-001	 1.176613241903417e+001
 2.403497395488342e+000	 6.878955371177123e-001	 1.176285376036643e+001
 2.163147655934445e+000	 6.191059833985354e-001	 1.216418717562321e+001
 2.157029750636725e+000	 6.400958169810158e-001	 1.228924032764599e+001
 2.150692303753667e+000	 6.610768598420859e-001	 1.226218375996773e+001
 2.144134660734327e+000	 6.820458611255974e-001	 1.224452339176778e+001
 2.137356227685584e+000	 7.029995419721637e-001	 1.223736841304473e+001
 2.130356472406817e+000	 7.239345968484161e-001	 1.224188814626769e+001
 2.123134925392267e+000	 7.448476949157644e-001	 1.225931301557781e+001
 2.115691180799508e+000	 7.657354814378435e-001	 1.229093539734247e+001
 2.108024897382408e+000	 7.865945792257689e-001	 1.233811034527508e+001
 2.100135799387014e+000	 8.074215901202450e-001	 1.240225618349635e+001
 2.092023677408817e+000	 8.282130965095027e-001	 1.248485496110563e+001
 2.187182629892056e+000	 6.259849387659531e-001	 1.218121637286422e+001
 2.180996747869119e+000	 6.472079927217472e-001	 1.216209118365591e+001
 2.174588884909840e+000	 6.684221582814655e-001	 1.215075052798729e+001
 2.167958379190486e+000	 6.896241484683361e-001	 1.214811666236628e+001
 2.161104630219127e+000	 7.108106479912013e-001	 1.215517195576756e+001
 2.154027099881797e+000	 7.319783145885442e-001	 1.217296016235304e+001
 2.146725313456010e+000	 7.531237804124568e-001	 1.220258758238652e+001
 2.139198860589977e+000	 7.742436534517255e-001	 1.224522410400221e+001
 2.131447396245942e+000	 7.953345189931451e-001	 1.230210411861465e+001
 2.123470641606019e+000	 8.163929411200948e-001	 1.237452730291534e+001
 2.115268384938982e+000	 8.374154642473412e-001	 1.246385926058966e+001
 2.211217603849173e+000	 6.328638941343707e-001	 1.205786517517785e+001
 2.204963745100923e+000	 6.543201684634740e-001	 1.205162123048776e+001
 2.198485466065337e+000	 6.757674567218257e-001	 1.205253937780914e+001
 2.191782097645896e+000	 6.972024358120310e-001	 1.206141461369636e+001
 2.184853032751853e+000	 7.186217540111608e-001	 1.207910320716679e+001
 2.177697727355906e+000	 7.400220323295500e-001	 1.210652416625722e+001
 2.170315701518835e+000	 7.613998659099726e-001	 1.214466059256508e+001
 2.162706540379492e+000	 7.827518254663665e-001	 1.219456091600705e+001
 2.154869895108496e+000	 8.040744587612061e-001	 1.225734000214925e+001
 2.146805483824029e+000	 8.253642921205442e-001	 1.233418012461629e+001
 2.138513092468148e+000	 8.466178319856844e-001	 1.242633179526986e+001
 2.235252577805797e+000	 6.397428495037884e-001	 1.195419881883731e+001
 2.228930742332137e+000	 6.614323442061955e-001	 1.195762308529538e+001
 2.222382047220159e+000	 6.831127551631664e-001	 1.196752506326621e+001
 2.215605816100554e+000	 7.047807231566821e-001	 1.198457301924613e+001
 2.208601435283763e+000	 7.264328600320422e-001	 1.200949775150432e+001
 2.201368354829143e+000	 7.480657500714333e-001	 1.204309425261294e+001
 2.193906089580742e+000	 7.696759514083115e-001	 1.208622325962348e+001
 2.186214220168053e+000	 7.912599974817667e-001	 1.213981268368712e+001
 2.178292393970071e+000	 8.128143985299516e-001	 1.220485891103212e+001
 2.170140326041044e+000	 8.343356431215937e-001	 1.228242796735826e+001
 2.161757799996312e+000	 8.558201997245328e-001	 1.237365653789011e+001
 2.259287551761927e+000	 6.466218048742060e-001	 1.186990755783187e+001
 2.252897739562764e+000	 6.685445199499122e-001	 1.187996396215730e+001
 2.246278628374308e+000	 6.904580536054878e-001	 1.189575072608374e+001
 2.239429534554463e+000	 7.123590105022891e-001	 1.191780982650814e+001
 2.232349837814859e+000	 7.342439660538456e-001	 1.194674713099780e+001
 2.225038982301508e+000	 7.561094678141940e-001	 1.198323425852474e+001
 2.217496477641732e+000	 7.779520369074738e-001	 1.202801032737948e+001
 2.209721899955661e+000	 7.997681694979260e-001	 1.208188358161918e+001
 2.201714892830666e+000	 8.215543382993816e-001	 1.214573288751257e+001
 2.193475168257064e+000	 8.433069941232433e-001	 1.222050909158842e+001
 2.185002507523477e+000	 8.650225674638863e-001	 1.230723623206971e+001
 2.283322525717564e+000	 6.535007602456238e-001	 1.180475819204150e+001
 2.276864736792801e+000	 6.756566956946243e-001	 1.181858174592278e+001
 2.270175209527782e+000	 6.978033520487897e-001	 1.183732429651659e+001
 2.263253253007622e+000	 7.199372978488524e-001	 1.186140188466350e+001
 2.256098240345136e+000	 7.420550720765704e-001	 1.189129590066509e+001
 2.248709609773001e+000	 7.641531855578325e-001	 1.192755514554411e+001
 2.241086865701803e+000	 7.862281224074595e-001	 1.197079777888998e+001
 2.233229579742315e+000	 8.082763415148443e-001	 1.202171314419249e+001
 2.225137391690283e+000	 8.302942780694964e-001	 1.208106346266795e+001
 2.216810010472089e+000	 8.522783451254928e-001	 1.214968538672165e+001
 2.208247215049642e+000	 8.742249352037450e-001	 1.222849140436258e+001
 2.307357499672707e+000	 6.603797156180414e-001	 1.175859008047193e+001
 2.300831734022249e+000	 6.827688714403316e-001	 1.177348131144268e+001
 2.294071790680583e+000	 7.051486504930723e-001	 1.179241511894657e+001
 2.287076971460031e+000	 7.275155851963721e-001	 1.181568187678549e+001
 2.279846642874599e+000	 7.498661781002173e-001	 1.184363886724090e+001
 2.272380237243623e+000	 7.721969033023488e-001	 1.187671254527125e+001
 2.264677253760957e+000	 7.945042079082688e-001	 1.191540068857380e+001
 2.256737259528015e+000	 8.167845135325214e-001	 1.196027442395198e+001
 2.248559890548920e+000	 8.390342178402960e-001	 1.201198012052706e+001
 2.240144852686120e+000	 8.612496961283428e-001	 1.207124114046517e+001
 2.231491922574806e+000	 8.834273029441089e-001	 1.213885943806263e+001
 2.331392473627356e+000	 6.672586709914591e-001	 1.173131140109357e+001
 2.324798731251109e+000	 6.898810471870337e-001	 1.174473107047648e+001
 2.317968371832708e+000	 7.124939489383351e-001	 1.176125078620596e+001
 2.310900689911690e+000	 7.350938725448476e-001	 1.178103544180402e+001
 2.303595045403246e+000	 7.576772841247863e-001	 1.180431849888207e+001
 2.296050864713372e+000	 7.802406210477424e-001	 1.183140445677519e+001
 2.288267641819193e+000	 8.027802934099013e-001	 1.186267120719300e+001
 2.280244939312762e+000	 8.252926855509580e-001	 1.189857226385821e+001
 2.271982389406578e+000	 8.477741576117798e-001	 1.193963885719623e+001
 2.263479694899156e+000	 8.702210471317924e-001	 1.198648188426718e+001
 2.254736630098972e+000	 8.926296706849779e-001	 1.203979370429965e+001
 2.355427447581511e+000	 6.741376263658767e-001	 1.172289563966974e+001
 2.348765728479379e+000	 6.969932229347312e-001	 1.173245973001322e+001
 2.341864952984159e+000	 7.198392473845788e-001	 1.174411416771757e+001
 2.334724408362598e+000	 7.426721598942792e-001	 1.175789847267608e+001
 2.327343447931077e+000	 7.654883901502769e-001	 1.177392249346242e+001
 2.319721492182249e+000	 7.882843387940137e-001	 1.179236908498830e+001
 2.311858029876512e+000	 8.110563789123574e-001	 1.181349667020288e+001
 2.303752619096555e+000	 8.338008575701533e-001	 1.183764167532734e+001
 2.295404888263255e+000	 8.565140973839485e-001	 1.186522082820251e+001
 2.286814537111197e+000	 8.791923981358417e-001	 1.189673330945269e+001
 2.277981337622136e+000	 9.018320384263519e-001	 1.193276274633351e+001
 2.379462421535173e+000	 6.810165817412944e-001	 1.173337829138348e+001
 2.372732725707062e+000	 7.041053986834239e-001	 1.173685324705817e+001
 2.365761534134936e+000	 7.271845458318029e-001	 1.174134061774802e+001
 2.358548126812757e+000	 7.502504472446673e-001	 1.174675457830360e+001
 2.351091850458091e+000	 7.732994961766895e-001	 1.175308149424356e+001
 2.343392119650255e+000	 7.963280565411630e-001	 1.176038281010693e+001
 2.335448417932912e+000	 8.193324644156368e-001	 1.176879782074701e+001
 2.327260298879394e+000	 8.423090295901077e-001	 1.177854631457178e+001
 2.318827387118954e+000	 8.652540371568016e-001	 1.178993107781563e+001
 2.310149379322243e+000	 8.881637491404915e-001	 1.180334024904786e+001
 2.301226045144301e+000	 9.110344061682311e-001	 1.181924951328469e+001
 2.403497395488342e+000	 6.878955371177123e-001	 1.176285376036643e+001
 2.396699722934155e+000	 7.112175744331118e-001	 1.175815196613179e+001
 2.389658115285039e+000	 7.345298442800079e-001	 1.175331535116537e+001
 2.382371845262166e+000	 7.578287345960115e-001	 1.174813269773629e+001
 2.374840252984291e+000	 7.811106022040242e-001	 1.174246694260553e+001
 2.367062747117390e+000	 8.043717742891897e-001	 1.173625827882850e+001
 2.359038805988395e+000	 8.276085499197395e-001	 1.172952713927304e+001
 2.350767978661280e+000	 8.508172016108215e-001	 1.172237705036033e+001
 2.342249885973674e+000	 8.739939769303398e-001	 1.171499734461102e+001
 2.333484221532295e+000	 8.971351001457415e-001	 1.170766572069481e+001
 2.324470752665467e+000	 9.202367739106158e-001	 1.170075063984147e+001
 2.092023677408817e+000	 8.282130965095027e-001	 1.248485496110563e+001
 2.083688389209485e+000	 8.489656628815500e-001	 1.242347559790430e+001
 2.075129860492684e+000	 8.696758374109872e-001	 1.237890162395815e+001
 2.066348085636912e+000	 8.903401535779647e-001	 1.235240679283980e+001
 2.057343128383052e+000	 9.109551318173336e-001	 1.234532911419682e+001
 2.048115122476415e+000	 9.315172811979672e-001	 1.235907096191849e+001
 2.038664272261591e+000	 9.520231011303464e-001	 1.239509901644093e+001
 2.028990853228824e+000	 9.724690831009004e-001	 1.245494403628192e+001
 2.019095212510688e+000	 9.928517124315603e-001	 1.254020045429766e+001
 2.008977769327879e+000	 1.013167470062905e+000	 1.265252579457959e+001
 1.998639015383027e+000	 1.033412834359236e+000	 1.279363990636384e+001
 2.115268384938982e+000	 8.374154642473412e-001	 1.246385926058966e+001
 2.106840482426126e+000	 8.583986146904973e-001	 1.239669716796226e+001
 2.098186858945656e+000	 8.793389022705094e-001	 1.234626153075381e+001
 2.089307508813610e+000	 9.002328219506403e-001	 1.231390245697873e+001
 2.080202496479101e+000	 9.210768555039048e-001	 1.230103775686136e+001
 2.070871957173500e+000	 9.418674732110530e-001	 1.230915303765830e+001
 2.061316097511894e+000	 9.626011355871261e-001	 1.233980162507577e+001
 2.051535196045530e+000	 9.832742951350688e-001	 1.239460430620694e+001
 2.041529603764009e+000	 1.003883398124834e+000	 1.247524888933021e+001
 2.031299744546037e+000	 1.024424886396339e+000	 1.258348957635577e+001
 2.020846115557606e+000	 1.044895199184599e+000	 1.272114614418040e+001
 2.138513092468148e+000	 8.466178319856844e-001	 1.242633179526986e+001
 2.129992575641768e+000	 8.678315664998595e-001	 1.235589205183242e+001
 2.121243857397628e+000	 8.890019671303757e-001	 1.230202682211527e+001
 2.112266931989306e+000	 9.101254903236083e-001	 1.226616119432869e+001
 2.103061864574149e+000	 9.311985791907376e-001	 1.224979150577229e+001
 2.093628791869585e+000	 9.522176652243891e-001	 1.225448542723703e+001
 2.083967922761197e+000	 9.731791700441648e-001	 1.228188186630361e+001
 2.074079538861235e+000	 9.940795071695255e-001	 1.233369068428485e+001
 2.063963995016330e+000	 1.014915083818444e+000	 1.241169222199540e+001
 2.053621719763194e+000	 1.035682302730179e+000	 1.251773662999564e+001
 2.043053215731184e+000	 1.056377564010459e+000	 1.265374299945027e+001
 2.161757799996312e+000	 8.558201997245328e-001	 1.237365653789011e+001
 2.153144668856409e+000	 8.772645183096366e-001	 1.230240432490762e+001
 2.144300855848600e+000	 8.986650319905861e-001	 1.224750049403715e+001
 2.135226355164004e+000	 9.200181586968700e-001	 1.221044375282520e+001
 2.125921232668198e+000	 9.413203028778325e-001	 1.219280770711669e+001
 2.116385626564670e+000	 9.625678572379758e-001	 1.219624093797431e+001
 2.106619748009500e+000	 9.837572045014627e-001	 1.222246688963570e+001
 2.096623881675941e+000	 1.004884719204270e+000	 1.227328356307184e+001
 2.086398386267651e+000	 1.025946769512391e+000	 1.235056301016200e+001
 2.075943694979352e+000	 1.046939719064425e+000	 1.245625062398545e+001
 2.065260315903762e+000	 1.067859928836815e+000	 1.259236422124125e+001
 2.185002507523477e+000	 8.650225674638863e-001	 1.230723623206971e+001
 2.176296762070050e+000	 8.866974701198287e-001	 1.223759956156701e+001
 2.167357854298572e+000	 9.083280968511407e-001	 1.218400975841244e+001
 2.158185778337701e+000	 9.299108270704242e-001	 1.214803780071565e+001
 2.148780600761245e+000	 9.514420265651888e-001	 1.213133331800546e+001
 2.139142461258755e+000	 9.729180492518131e-001	 1.213562466361692e+001
 2.129271573256803e+000	 9.943352389590200e-001	 1.216271879009700e+001
 2.119168224489647e+000	 1.015689931239302e+000	 1.221450092199768e+001
 2.108832777517973e+000	 1.036978455206676e+000	 1.229293402089672e+001
 2.098265670194510e+000	 1.058197135399078e+000	 1.240005803798993e+001
 2.087467416075340e+000	 1.079342293663667e+000	 1.253798895013081e+001
 2.208247215049642e+000	 8.742249352037450e-001	 1.222849140436258e+001
 2.199448855282691e+000	 8.961304219304351e-001	 1.216286370365054e+001
 2.190414852747545e+000	 9.179911617120395e-001	 1.211290476851129e+001
 2.181145201510397e+000	 9.398034954442720e-001	 1.208025650970067e+001
 2.171639968853294e+000	 9.615637502528075e-001	 1.206664334800331e+001
 2.161899295951840e+000	 9.832682412659006e-001	 1.207387228505306e+001
 2.151923398503107e+000	 1.004913273416836e+000	 1.210383276898840e+001
 2.141712567302352e+000	 1.026495143274622e+000	 1.215849634910921e+001
 2.131267168767293e+000	 1.048010140901297e+000	 1.223991611419042e+001
 2.120587645408667e+000	 1.069454551734137e+000	 1.235022590963222e+001
 2.109674516245919e+000	 1.090824658491015e+000	 1.249163932917925e+001
 2.231491922574806e+000	 8.834273029441089e-001	 1.213885943806263e+001
 2.222600948494332e+000	 9.055633737414569e-001	 1.207960199965352e+001
 2.213471851195517e+000	 9.276542265732823e-001	 1.203555742411770e+001
 2.204104624682095e+000	 9.496961638184127e-001	 1.200843722662931e+001
 2.194499336944342e+000	 9.716854739406875e-001	 1.200003939806370e+001
 2.184656130643925e+000	 9.936184332802385e-001	 1.201224847723209e+001
 2.174575223748410e+000	 1.015491307874912e+000	 1.204703540960165e+001
 2.164256910114057e+000	 1.037300355310231e+000	 1.210645718645494e+001
 2.153701560015615e+000	 1.059041826596255e+000	 1.219265625895180e+001
 2.142909620621825e+000	 1.080711968069603e+000	 1.230785972210021e+001
 2.131881616415496e+000	 1.102307023318859e+000	 1.245437826421719e+001
 2.254736630098972e+000	 8.926296706849779e-001	 1.203979370429965e+001
 2.245753041704973e+000	 9.149963255528933e-001	 1.198923800953837e+001
 2.236528849642489e+000	 9.373172914348695e-001	 1.195336025057516e+001
 2.227064047852791e+000	 9.595888321928466e-001	 1.193394022735732e+001
 2.217358705034390e+000	 9.818071976288297e-001	 1.193284828983844e+001
 2.207412965335010e+000	 1.003968625294827e+000	 1.195204541462523e+001
 2.197227048992712e+000	 1.026069342333246e+000	 1.199358305959085e+001
 2.186801252924763e+000	 1.048105567346127e+000	 1.205960279018794e+001
 2.176135951262936e+000	 1.070073512291550e+000	 1.215233567172292e+001
 2.165231595833983e+000	 1.091969384405474e+000	 1.227410142241645e+001
 2.154088716584075e+000	 1.113789388147199e+000	 1.242730732267178e+001
 2.277981337622136e+000	 9.018320384263519e-001	 1.193276274633351e+001
 2.268905134914614e+000	 9.244292773647448e-001	 1.189321267047589e+001
 2.259585848088461e+000	 9.469803562968008e-001	 1.186772534646222e+001
 2.250023471022489e+000	 9.694815005675737e-001	 1.185814754689989e+001
 2.240218073123438e+000	 9.919289213172337e-001	 1.186642077890757e+001
 2.230169800025096e+000	 1.014318817309666e+000	 1.189458136818881e+001
 2.219878874236016e+000	 1.036647376791840e+000	 1.194476031238260e+001
 2.209345595734469e+000	 1.058910779382311e+000	 1.201918289719324e+001
 2.198570342509257e+000	 1.081105197987183e+000	 1.212016806935101e+001
 2.187553571045141e+000	 1.103226800741752e+000	 1.225012756103839e+001
 2.176295816751653e+000	 1.125271752976035e+000	 1.241156476103626e+001
 2.301226045144301e+000	 9.110344061682311e-001	 1.181924951328469e+001
 2.292057228123256e+000	 9.338622291770110e-001	 1.179298341920858e+001
 2.282642846533432e+000	 9.566434211590759e-001	 1.178008339504513e+001
 2.272982894191186e+000	 9.793741689425937e-001	 1.178246188048414e+001
 2.263077441211487e+000	 1.002050645005900e+000	 1.180213034599491e+001
 2.252926634714180e+000	 1.024669009324756e+000	 1.184119938735988e+001
 2.242530699478319e+000	 1.047225411250693e+000	 1.190187858062182e+001
 2.231889938543174e+000	 1.069715991418783e+000	 1.198647609070743e+001
 2.221004733754577e+000	 1.092136883683151e+000	 1.209739802755889e+001
 2.209875546255298e+000	 1.114484217078436e+000	 1.223714754421029e+001
 2.198502916918232e+000	 1.136754117805368e+000	 1.240832367188696e+001
 2.324470752665467e+000	 9.202367739106158e-001	 1.170075063984147e+001
 2.315209321330897e+000	 9.432951809896923e-001	 1.169002336707197e+001
 2.305699844977406e+000	 9.663064860216960e-001	 1.169188273504343e+001
 2.295942317358884e+000	 9.892668373179072e-001	 1.170830555053851e+001
 2.285936809298535e+000	 1.012172368694827e+000	 1.174137206071098e+001
 2.275683469402266e+000	 1.035019201340097e+000	 1.179326606113214e+001
 2.265182524719623e+000	 1.057803445709805e+000	 1.186627475521076e+001
 2.254434281350881e+000	 1.080521203455544e+000	 1.196278835800097e+001
 2.243439124998900e+000	 1.103168569379458e+000	 1.208529943800118e+001
 2.232197521464457e+000	 1.125741633415527e+000	 1.223640199117366e+001
 2.220710017083810e+000	 1.148236482635196e+000	 1.241879024207903e+001
 1.998639015383027e+000	 1.033412834359236e+000	 1.279363990636384e+001
 1.988079515201900e+000	 1.053584282934246e+000	 1.257929564184138e+001
 1.977299906419740e+000	 1.073678294494223e+000	 1.239593839715726e+001
 1.966300900012589e+000	 1.093691350697970e+000	 1.224617523914247e+001
 1.955083280473655e+000	 1.113619938032245e+000	 1.213267843072567e+001
 1.943647905932685e+000	 1.133460549699554e+000	 1.205818307124652e+001
 1.931995708218038e+000	 1.153209687516760e+000	 1.202548452644306e+001
 1.920127692860818e+000	 1.172863863822527e+000	 1.203743564915955e+001
 1.908044939040537e+000	 1.192419603391557e+000	 1.209694379247404e+001
 1.895748599471811e+000	 1.211873445353536e+000	 1.220696761760710e+001
 1.883239900231722e+000	 1.231221945114724e+000	 1.237051369964098e+001
 2.020846115557606e+000	 1.044895199184599e+000	 1.272114614418040e+001
 2.010169287596954e+000	 1.065290774965724e+000	 1.252417348709855e+001
 1.999269905384127e+000	 1.085608053320555e+000	 1.235812285994375e+001
 1.988148687794898e+000	 1.105843476815214e+000	 1.222555412945256e+001
 1.976806428039066e+000	 1.125993492897426e+000	 1.212909492016714e+001
 1.965243993781153e+000	 1.146054555805278e+000	 1.207143832088589e+001
 1.953462327203166e+000	 1.166023128486933e+000	 1.205534037449076e+001
 1.941462445008779e+000	 1.185895684529262e+000	 1.208361735199809e+001
 1.929245438368386e+000	 1.205668710093352e+000	 1.215914281234975e+001
 1.916812472804541e+000	 1.225338705854776e+000	 1.228484445014243e+001
 1.904164788017406e+000	 1.244902188946530e+000	 1.246370073418069e+001
 2.043053215731184e+000	 1.056377564010459e+000	 1.265374299945027e+001
 2.032259059991009e+000	 1.076997266997788e+000	 1.247037355917093e+001
 2.021239904347514e+000	 1.097537812147543e+000	 1.231779012402664e+001
 2.009996475576207e+000	 1.117995602933166e+000	 1.219850771211284e+001
 1.998529575603476e+000	 1.138367047763346e+000	 1.211511179245644e+001
 1.986840081628621e+000	 1.158648561911752e+000	 1.207025605639540e+001
 1.974928946187295e+000	 1.178836569457846e+000	 1.206665996578133e+001
 1.962797197155740e+000	 1.198927505236708e+000	 1.210710607864957e+001
 1.950445937695233e+000	 1.218917816795809e+000	 1.219443715369168e+001
 1.937876346136270e+000	 1.238803966356609e+000	 1.233155303556385e+001
 1.925089675802090e+000	 1.258582432778837e+000	 1.242495699707847e+001
 2.065260315903762e+000	 1.067859928836815e+000	 1.259236422124125e+001
 2.054348832384064e+000	 1.088703759030439e+000	 1.241895591659115e+001
 2.043209903309902e+000	 1.109467570975188e+000	 1.227612523101867e+001
 2.031844263356515e+000	 1.130147729051826e+000	 1.216634463082075e+001
 2.020252723166887e+000	 1.150740602630004e+000	 1.209215985905460e+001
 2.008436169475090e+000	 1.171242568018975e+000	 1.205618777069495e+001
 1.996395565170424e+000	 1.191650010429500e+000	 1.206111393780044e+001
 1.984131949301701e+000	 1.211959325944866e+000	 1.210969002513202e+001
 1.971646437021081e+000	 1.232166923498929e+000	 1.220473093737362e+001
 1.958940219467000e+000	 1.252269226859034e+000	 1.233142415176084e+001
 1.946014563585775e+000	 1.272262676611648e+000	 1.234261523241341e+001
 2.087467416075340e+000	 1.079342293663667e+000	 1.253798895013081e+001
 2.076438604776118e+000	 1.100410251063676e+000	 1.237102102496784e+001
 2.065179902271289e+000	 1.121397329803490e+000	 1.223434863584258e+001
 2.053692051135824e+000	 1.142299855171193e+000	 1.213040394177314e+001
 2.041975870729298e+000	 1.163114157497399e+000	 1.206169533837551e+001
 2.030032257320558e+000	 1.183836574126948e+000	 1.203080535570066e+001
 2.017862184152553e+000	 1.204463451401894e+000	 1.204038831900654e+001
 2.005466701446662e+000	 1.224991146653735e+000	 1.209316777270301e+001
 1.992846936345929e+000	 1.245416030202710e+000	 1.219193366843606e+001
 1.980004092796729e+000	 1.265734487362052e+000	 1.224880018851837e+001
 1.966939451368459e+000	 1.285942920444961e+000	 1.228486895389682e+001
 2.109674516245919e+000	 1.090824658491015e+000	 1.249163932917925e+001
 2.098528377167173e+000	 1.112116743097499e+000	 1.232770763029732e+001
 2.087149901231675e+000	 1.133327088632449e+000	 1.219371434287258e+001
 2.075539838914133e+000	 1.154451981291268e+000	 1.209205351300856e+001
 2.063699018290710e+000	 1.175487712365535e+000	 1.202519851857773e+001
 2.051628345165026e+000	 1.196430580235669e+000	 1.199570002869355e+001
 2.039328803133683e+000	 1.217276892375029e+000	 1.200618371877956e+001
 2.026801453590623e+000	 1.238022967363314e+000	 1.205934774126809e+001
 2.014047435669777e+000	 1.258665136907154e+000	 1.213560317667171e+001
 2.001067966125458e+000	 1.279199747865661e+000	 1.219402228900513e+001
 1.987864339150143e+000	 1.299623164278777e+000	 1.225156297592854e+001
 2.131881616415496e+000	 1.102307023318859e+000	 1.245437826421719e+001
 2.120618149557228e+000	 1.123823235131908e+000	 1.229019076519349e+001
 2.109119900191063e+000	 1.145256847462065e+000	 1.215550815856706e+001
 2.097387626691442e+000	 1.166604107412050e+000	 1.205268852379039e+001
 2.085422165851120e+000	 1.187861267234408e+000	 1.198417250393210e+001
 2.073224433008494e+000	 1.209024586345141e+000	 1.195248132578999e+001
 2.060795422113812e+000	 1.230090333348904e+000	 1.196021456799792e+001
 2.048136205733585e+000	 1.251054788073606e+000	 1.201050432625401e+001
 2.035247934992624e+000	 1.271914243612259e+000	 1.208944727908812e+001
 2.022131839453188e+000	 1.292665008369864e+000	 1.216683061246328e+001
 2.008789226930828e+000	 1.313303408113096e+000	 1.224253798695485e+001
 2.154088716584075e+000	 1.113789388147199e+000	 1.242730732267178e+001
 2.142707921946283e+000	 1.135529727166903e+000	 1.225967987844371e+001
 2.131089899149450e+000	 1.157186606292337e+000	 1.212104605218608e+001
 2.119235414467751e+000	 1.178756233533540e+000	 1.201373005681181e+001
 2.107145313410531e+000	 1.200234822104020e+000	 1.194014203873339e+001
 2.094820520850962e+000	 1.221618592455362e+000	 1.190277615767205e+001
 2.082262041092940e+000	 1.242903774323520e+000	 1.190420840659019e+001
 2.069470957875546e+000	 1.264086608784609e+000	 1.197843725700700e+001
 2.056448434314472e+000	 1.285163350318026e+000	 1.207383046346191e+001
 2.043195712779917e+000	 1.306130268874659e+000	 1.216696565042674e+001
 2.029714114710512e+000	 1.326983651947917e+000	 1.225763076214628e+001
 2.176295816751653e+000	 1.125271752976035e+000	 1.241156476103626e+001
 2.164797694334338e+000	 1.147236219202485e+000	 1.223741707908147e+001
 2.153059898106836e+000	 1.169116365123266e+000	 1.209167261687274e+001
 2.141083202243059e+000	 1.190908359655738e+000	 1.197662377659218e+001
 2.128868460968942e+000	 1.212608376974370e+000	 1.189465240321736e+001
 2.116416608692430e+000	 1.234212598566333e+000	 1.184822792312980e+001
 2.103728660071070e+000	 1.255717215298876e+000	 1.186831569719831e+001
 2.090805710016507e+000	 1.277118429496323e+000	 1.197967962706105e+001
 2.077648933635321e+000	 1.298412457024456e+000	 1.208840122994832e+001
 2.064259586105647e+000	 1.319595529380046e+000	 1.219416820976730e+001
 2.050639002489196e+000	 1.340663895783240e+000	 1.229667436305473e+001
 2.198502916918232e+000	 1.136754117805368e+000	 1.240832367188696e+001
 2.186887466721392e+000	 1.158942711238653e+000	 1.222467548687913e+001
 2.175029897063224e+000	 1.181046123954852e+000	 1.206875962400259e+001
 2.162930990017368e+000	 1.203060485778642e+000	 1.194283868797071e+001
 2.150591608526352e+000	 1.224981931845459e+000	 1.184926837639222e+001
 2.138012696532898e+000	 1.246806604678053e+000	 1.179049567632872e+001
 2.125195279048199e+000	 1.268530656274973e+000	 1.189153425747826e+001
 2.112140462156468e+000	 1.290150250208748e+000	 1.201379559091821e+001
 2.098849432955169e+000	 1.311661563731547e+000	 1.213281221082515e+001
 2.085323459430376e+000	 1.333060789886026e+000	 1.224817939676863e+001
 2.071563890266881e+000	 1.354344139619067e+000	 1.235949832516975e+001
 2.220710017083810e+000	 1.148236482635196e+000	 1.241879024207903e+001
 2.208977239107448e+000	 1.170649203275409e+000	 1.222275768181083e+001
 2.196999896018612e+000	 1.192975882787096e+000	 1.205370466427207e+001
 2.184778777790678e+000	 1.215212611902256e+000	 1.191386596909046e+001
 2.172314756082765e+000	 1.237355486717287e+000	 1.180557326109978e+001
 2.159608784372368e+000	 1.259400610790523e+000	 1.181659125503524e+001
 2.146661898024328e+000	 1.281344097251810e+000	 1.195014699296012e+001
 2.133475214295430e+000	 1.303182070921886e+000	 1.208035687480527e+001
 2.120049932274017e+000	 1.324910670439301e+000	 1.220671996388655e+001
 2.106387332754106e+000	 1.346526050392599e+000	 1.232874060215556e+001
 2.092488778043565e+000	 1.368024383455396e+000	 1.244592883422189e+001
 1.883239900231722e+000	 1.231221945114724e+000	 1.237051369964098e+001
 1.870520140527698e+000	 1.250461676279598e+000	 1.260399076069344e+001
 1.857590692405196e+000	 1.269589232571736e+000	 1.258584364917398e+001
 1.844453000395384e+000	 1.288601229750900e+000	 1.254671376951174e+001
 1.831108581103128e+000	 1.307494307523293e+000	 1.248744234074104e+001
 1.817559022734820e+000	 1.326265131444095e+000	 1.240895895320771e+001
 1.803805984566350e+000	 1.344910394809678e+000	 1.231228008574236e+001
 1.789851196351457e+000	 1.363426820537300e+000	 1.219850738843773e+001
 1.775696457670766e+000	 1.381811163030106e+000	 1.206882573335009e+001
 1.761343637221933e+000	 1.400060210025257e+000	 1.192450103618708e+001
 1.746794672051384e+000	 1.418170784423037e+000	 1.176687785278478e+001
 1.904164788017406e+000	 1.244902188946530e+000	 1.246370073418069e+001
 1.891303697650032e+000	 1.264355694902035e+000	 1.245456292160486e+001
 1.878230588992809e+000	 1.283695779597362e+000	 1.237528989570630e+001
 1.864946922627249e+000	 1.302919021189603e+000	 1.235216855219605e+001
 1.851454232009386e+000	 1.322022022048363e+000	 1.232774424652160e+001
 1.837754122992348e+000	 1.341001410679438e+000	 1.228155124684919e+001
 1.823848273288425e+000	 1.359853843638046e+000	 1.221463471260289e+001
 1.809738431870839e+000	 1.378576007429416e+000	 1.212812988913624e+001
 1.795426418315558e+000	 1.397164620394503e+000	 1.202326010483651e+001
 1.780914122083544e+000	 1.415616434578662e+000	 1.190133452874859e+001
 1.766203501743962e+000	 1.433928237581068e+000	 1.176374569261765e+001
 1.925089675802090e+000	 1.258582432778837e+000	 1.242495699707847e+001
 1.912087254771367e+000	 1.278249713524880e+000	 1.235994688748743e+001
 1.898870485579421e+000	 1.297802326623310e+000	 1.229204866619454e+001
 1.885440844858115e+000	 1.317236812628554e+000	 1.222106670272770e+001
 1.871799882914645e+000	 1.336549736573617e+000	 1.216460604474182e+001
 1.857949223248877e+000	 1.355737689914908e+000	 1.215047047699368e+001
 1.843890562009499e+000	 1.374797292466495e+000	 1.211301763532067e+001
 1.829625667389222e+000	 1.393725194321577e+000	 1.205341803819928e+001
 1.815156378959350e+000	 1.412518077758921e+000	 1.197293526721425e+001
 1.800484606944155e+000	 1.431172659132072e+000	 1.187292365831975e+001
 1.785612331435539e+000	 1.449685690739098e+000	 1.175482574690087e+001
 1.946014563585775e+000	 1.272262676611648e+000	 1.234261523241341e+001
 1.932870811891701e+000	 1.292143732148131e+000	 1.228946081136408e+001
 1.919510382165034e+000	 1.311908873649581e+000	 1.223233316874130e+001
 1.905934767087982e+000	 1.331554604067751e+000	 1.217101806838253e+001
 1.892145533818904e+000	 1.351077451099052e+000	 1.210530980167064e+001
 1.878144323504406e+000	 1.370473969150504e+000	 1.203501139113685e+001
 1.863932850729574e+000	 1.389740741295026e+000	 1.201007887696098e+001
 1.849512902906604e+000	 1.408874381213783e+000	 1.197702504847127e+001
 1.834886339602143e+000	 1.427871535123359e+000	 1.192050548706958e+001
 1.820055091803766e+000	 1.446728883685488e+000	 1.184192162456426e+001
 1.805021161126117e+000	 1.465443143897129e+000	 1.174276804525669e+001
 1.966939451368459e+000	 1.285942920444961e+000	 1.228486895389682e+001
 1.953654369011035e+000	 1.306037750771791e+000	 1.224296775067490e+001
 1.940150278749647e+000	 1.326015420676173e+000	 1.219602000905459e+001
 1.926428689316847e+000	 1.345872395507195e+000	 1.214379326919858e+001
 1.912491184722163e+000	 1.365605165624668e+000	 1.208606430580069e+001
 1.898339423758935e+000	 1.385210248386226e+000	 1.202261935026431e+001
 1.883975139448649e+000	 1.404684190123637e+000	 1.195325430747525e+001
 1.869400138422987e+000	 1.424023568106036e+000	 1.190159495809073e+001
 1.854616300243935e+000	 1.443224992487817e+000	 1.186861529214362e+001
 1.839625576662378e+000	 1.462285108238908e+000	 1.181097134771844e+001
 1.824429990815695e+000	 1.481200597055160e+000	 1.173021182115807e+001
 1.987864339150143e+000	 1.299623164278777e+000	 1.225156297592854e+001
 1.974437926129370e+000	 1.319931769395858e+000	 1.222032572865925e+001
 1.960790175333260e+000	 1.340121967703088e+000	 1.218298009704646e+001
 1.946922611544713e+000	 1.360190186946887e+000	 1.213927577321998e+001
 1.932836835624422e+000	 1.380132880150467e+000	 1.208897237937102e+001
 1.918534524012464e+000	 1.399946527622075e+000	 1.203183970802300e+001
 1.904017428166724e+000	 1.419627638952329e+000	 1.196765795635520e+001
 1.889287373938369e+000	 1.439172754998333e+000	 1.189621795435928e+001
 1.874346260884727e+000	 1.458578449852296e+000	 1.181989998390302e+001
 1.859196061519989e+000	 1.477841332792333e+000	 1.178270600961383e+001
 1.843838820504272e+000	 1.496958050213191e+000	 1.171978608014696e+001
 2.008789226930828e+000	 1.313303408113096e+000	 1.224253798695485e+001
 1.995221483246704e+000	 1.333825788020332e+000	 1.222138799655363e+001
 1.981430071915873e+000	 1.354228514730326e+000	 1.219307894348888e+001
 1.967416533771579e+000	 1.374507978386825e+000	 1.215734304148013e+001
 1.953182486525680e+000	 1.394660594676446e+000	 1.211392311849386e+001
 1.938729624264992e+000	 1.414682806858050e+000	 1.206257287462916e+001
 1.924059716883799e+000	 1.434571087781102e+000	 1.200305713353215e+001
 1.909174609452752e+000	 1.454321941890676e+000	 1.193515208709532e+001
 1.894076221524519e+000	 1.473931907216794e+000	 1.185864553319424e+001
 1.878766546376600e+000	 1.493397557345764e+000	 1.177333710621073e+001
 1.863247650191850e+000	 1.512715503371221e+000	 1.171411013253905e+001
 2.029714114710512e+000	 1.326983651947917e+000	 1.225763076214628e+001
 2.016005040363038e+000	 1.347719806645214e+000	 1.224600327957119e+001
 2.002069968497485e+000	 1.368335061757886e+000	 1.222617693832015e+001
 1.987910455997445e+000	 1.388825769827011e+000	 1.219786683764131e+001
 1.973528137425939e+000	 1.409188309202607e+000	 1.216079936397220e+001
 1.958924724516521e+000	 1.429419086094151e+000	 1.211471246596623e+001
 1.944102005599874e+000	 1.449514536609956e+000	 1.205935592254259e+001
 1.929061844966134e+000	 1.469471128783065e+000	 1.199449160369239e+001
 1.913806182163312e+000	 1.489285364581314e+000	 1.191989372377057e+001
 1.898337031232211e+000	 1.508953781899199e+000	 1.183534908700076e+001
 1.882656479878427e+000	 1.528472956529252e+000	 1.174065732491596e+001
 2.050639002489196e+000	 1.340663895783240e+000	 1.229667436305473e+001
 2.036788597478372e+000	 1.361613825270504e+000	 1.229401600782137e+001
 2.022709865078098e+000	 1.382441608785768e+000	 1.228212961191169e+001
 2.008404378222311e+000	 1.403143561267443e+000	 1.226071351867703e+001
 1.993873788325197e+000	 1.423716023728950e+000	 1.222947802044835e+001
 1.979119824767050e+000	 1.444155365330379e+000	 1.218814565023443e+001
 1.964144294314947e+000	 1.464457985438890e+000	 1.213645146595594e+001
 1.948949080478517e+000	 1.484620315675500e+000	 1.207414332692598e+001
 1.933536142801104e+000	 1.504638821945853e+000	 1.200098216228555e+001
 1.917907516086823e+000	 1.524510006452640e+000	 1.191674223109891e+001
 1.902065309564005e+000	 1.544230409687283e+000	 1.182121137381146e+001
 2.071563890266881e+000	 1.354344139619067e+000	 1.235949832516975e+001
 2.057572154592707e+000	 1.375507843896201e+000	 1.236526653323424e+001
 2.043349761657711e+000	 1.396548155813973e+000	 1.236078788050090e+001
 2.028898300446177e+000	 1.417461352708123e+000	 1.234574430793702e+001
 2.014219439223457e+000	 1.438243738255475e+000	 1.231983035620993e+001
 1.999314925016579e+000	 1.458891644566733e+000	 1.228275347359142e+001
 1.984186583029022e+000	 1.479401434267905e+000	 1.223423431592832e+001
 1.968836315989899e+000	 1.499769502567979e+000	 1.217400703836941e+001
 1.953266103437896e+000	 1.519992279310412e+000	 1.210181957853594e+001
 1.937478000940434e+000	 1.540066231006086e+000	 1.201743393082060e+001
 1.921474139248582e+000	 1.559987862845314e+000	 1.192062641149726e+001
 2.092488778043565e+000	 1.368024383455396e+000	 1.244592883422189e+001
 2.078355711706041e+000	 1.389401862522306e+000	 1.245959133346955e+001
 2.063989658236324e+000	 1.410654702842501e+000	 1.246199827689776e+001
 2.049392222669044e+000	 1.431779144149050e+000	 1.245281555182843e+001
 2.034565090120716e+000	 1.452771452782182e+000	 1.243172228500769e+001
 2.019510025265108e+000	 1.473627923803213e+000	 1.239841116625433e+001
 2.004228871742098e+000	 1.494344883097002e+000	 1.235258876372330e+001
 1.988723551500282e+000	 1.514918689460505e+000	 1.229397583045390e+001
 1.972996064073689e+000	 1.535345736674993e+000	 1.222230760187085e+001
 1.957048485793046e+000	 1.555622455559538e+000	 1.213733408390315e+001
 1.940882968932161e+000	 1.575745316003345e+000	 1.203882033138429e+001
 1.746794672051384e+000	 1.418170784423037e+000	 1.176687785278478e+001
 1.732051566727472e+000	 1.436139746095164e+000	 1.188000640759257e+001
 1.717116392458020e+000	 1.453963993669085e+000	 1.196471673670580e+001
 1.701991286151559e+000	 1.471640466286814e+000	 1.202192897037697e+001
 1.686678449421499e+000	 1.489166145337068e+000	 1.205264466669802e+001
 1.671180147536507e+000	 1.506538056157541e+000	 1.205794405408365e+001
 1.655498708317337e+000	 1.523753269705680e+000	 1.203898306832785e+001
 1.639636520981247e+000	 1.540808904196010e+000	 1.199699019169197e+001
 1.623596034935177e+000	 1.557702126702076e+000	 1.193326310212506e+001
 1.607379758518973e+000	 1.574430154721170e+000	 1.184916514132985e+001
 1.590990257700000e+000	 1.590990257700000e+000	 1.174612161097451e+001
 1.766203501743962e+000	 1.433928237581068e+000	 1.176374569261765e+001
 1.751296584138190e+000	 1.452096854383105e+000	 1.187561477202238e+001
 1.736195463487515e+000	 1.470119149152507e+000	 1.195790377378302e+001
 1.720902300443896e+000	 1.487992027021754e+000	 1.201164748940006e+001
 1.705419321083115e+000	 1.505712435839437e+000	 1.203796561306769e+001
 1.689748815843492e+000	 1.523277367891449e+000	 1.203805980373685e+001
 1.673893138410455e+000	 1.540683861590319e+000	 1.201321053360960e+001
 1.657854704548121e+000	 1.557929003130732e+000	 1.196477373091993e+001
 1.641635990879061e+000	 1.575009928109272e+000	 1.189417722552327e+001
 1.625239533613567e+000	 1.591923823106536e+000	 1.180291700645172e+001
 1.608667927229750e+000	 1.608667927229750e+000	 1.169255330120260e+001
 1.785612331435539e+000	 1.449685690739098e+000	 1.175482574690087e+001
 1.770541601547911e+000	 1.468053962671041e+000	 1.186671631144565e+001
 1.755274534516028e+000	 1.486274304635909e+000	 1.194778831757838e+001
 1.739813314735277e+000	 1.504343587756648e+000	 1.199919264539994e+001
 1.724160192743812e+000	 1.522258726341727e+000	 1.202216866750870e+001
 1.708317484149602e+000	 1.540016679625232e+000	 1.201804112777930e+001
 1.692287568502753e+000	 1.557614453474778e+000	 1.198821679820314e+001
 1.676072888114239e+000	 1.575049102065208e+000	 1.193418092205042e+001
 1.659675946822266e+000	 1.592317729516148e+000	 1.185749345230338e+001
 1.643099308707566e+000	 1.609417491491496e+000	 1.175978509497190e+001
 1.626345596759000e+000	 1.626345596759000e+000	 1.164275316753223e+001
 1.805021161126117e+000	 1.465443143897129e+000	 1.174276804525669e+001
 1.789786618956639e+000	 1.484011070958972e+000	 1.185589514032081e+001
 1.774353605543562e+000	 1.502429460119290e+000	 1.193688723954455e+001
 1.758724329025703e+000	 1.520695148491498e+000	 1.198701279273566e+001
 1.742901064403588e+000	 1.538805016843938e+000	 1.200763244857986e+001
 1.726886152454837e+000	 1.556755991358891e+000	 1.200019574720598e+001
 1.710681998594231e+000	 1.574545045359056e+000	 1.196623758221361e+001
 1.694291071679603e+000	 1.592169200999440e+000	 1.190737444083320e+001
 1.677715902764791e+000	 1.609625530922704e+000	 1.182530043160516e+001
 1.660959083800970e+000	 1.626911159876052e+000	 1.172178310964966e+001
 1.644023266287750e+000	 1.644023266287750e+000	 1.159865911025189e+001
 1.824429990815695e+000	 1.481200597055160e+000	 1.173021182115807e+001
 1.809031636364370e+000	 1.499968179246898e+000	 1.184572666573250e+001
 1.793432676570115e+000	 1.518584615602651e+000	 1.192771078573420e+001
 1.777635343315174e+000	 1.537046709226303e+000	 1.197755173452733e+001
 1.761641936062444e+000	 1.555351307346068e+000	 1.199673308894070e+001
 1.745454820759197e+000	 1.573495303092425e+000	 1.198683095262678e+001
 1.729076428684889e+000	 1.591475637243156e+000	 1.194951022004982e+001
 1.712509255244211e+000	 1.609289299933426e+000	 1.188652061019168e+001
 1.695755858706635e+000	 1.626933332328940e+000	 1.179969247980551e+001
 1.678818858893778e+000	 1.644404828260203e+000	 1.169093242675915e+001
 1.661700935816000e+000	 1.661700935816000e+000	 1.156221869468475e+001
 1.843838820504272e+000	 1.496958050213191e+000	 1.171978608014696e+001
 1.828276653771107e+000	 1.515925287534819e+000	 1.183877804567420e+001
 1.812511747595690e+000	 1.534739771085994e+000	 1.192276292550535e+001
 1.796546357603691e+000	 1.553398269961063e+000	 1.197324896219486e+001
 1.780382807720380e+000	 1.571897597848118e+000	 1.199184436618820e+001
 1.764023489062681e+000	 1.590234614825835e+000	 1.198025362691812e+001
 1.747470858774727e+000	 1.608406229127074e+000	 1.194027357546100e+001
 1.730727438808065e+000	 1.626409398867167e+000	 1.187378920826633e+001
 1.713795814647800e+000	 1.644241133734857e+000	 1.178276928224283e+001
 1.696678633985992e+000	 1.661898496643949e+000	 1.166926169221975e+001
 1.679378605343750e+000	 1.679378605343750e+000	 1.153538864250250e+001
 1.863247650191850e+000	 1.512715503371221e+000	 1.171411013253905e+001
 1.847521671176849e+000	 1.531882395822735e+000	 1.183760861868867e+001
 1.831590818620283e+000	 1.550894926569315e+000	 1.192454167843244e+001
 1.815457371891252e+000	 1.569749830695778e+000	 1.197653988002572e+001
 1.799123679377395e+000	 1.588443888350088e+000	 1.199533782551632e+001
 1.782592157365291e+000	 1.606973926559119e+000	 1.198277026645929e+001
 1.765865288863745e+000	 1.625336821010814e+000	 1.194076796188352e+001
 1.748945622371163e+000	 1.643529497800664e+000	 1.187135328845547e+001
 1.731835770588284e+000	 1.661548935140453e+000	 1.177663561358360e+001
 1.714538409077612e+000	 1.679392165027290e+000	 1.165880644296893e+001
 1.697056274871000e+000	 1.697056274871000e+000	 1.152013435483220e+001
 1.882656479878427e+000	 1.528472956529252e+000	 1.174065732491596e+001
 1.866766688581596e+000	 1.547839504110645e+000	 1.184477030693215e+001
 1.850669889643896e+000	 1.567050082052617e+000	 1.193553942099614e+001
 1.834368386177858e+000	 1.586101391430449e+000	 1.198985601585187e+001
 1.817864551033491e+000	 1.604990178851979e+000	 1.200958289478832e+001
 1.801160825667026e+000	 1.623713238292278e+000	 1.199668700105475e+001
 1.784259718951942e+000	 1.642267412894373e+000	 1.195323506771488e+001
 1.767163805933506e+000	 1.660649596733916e+000	 1.188138901058755e+001
 1.749875726528089e+000	 1.678856736545729e+000	 1.178340107548580e+001
 1.732398184168636e+000	 1.696885833410226e+000	 1.166160875175503e+001
 1.714733944397750e+000	 1.714733944397750e+000	 1.151842946486161e+001
 1.902065309564005e+000	 1.544230409687283e+000	 1.182121137381146e+001
 1.886011705985348e+000	 1.563796612398551e+000	 1.189439822513190e+001
 1.869748960666530e+000	 1.583205237535899e+000	 1.195824317449634e+001
 1.853279400463509e+000	 1.602452952165073e+000	 1.201562521882798e+001
 1.836605422688667e+000	 1.621536469353789e+000	 1.203694699256376e+001
 1.819729493967885e+000	 1.640452550025312e+000	 1.202430961263703e+001
 1.802654149039319e+000	 1.659198004777752e+000	 1.197991788616246e+001
 1.785381989495094e+000	 1.677769695666923e+000	 1.190607548242975e+001
 1.767915682467214e+000	 1.696164537950685e+000	 1.180517985032391e+001
 1.750257959259064e+000	 1.714379501792757e+000	 1.167971689367747e+001
 1.732411613923999e+000	 1.732411613923999e+000	 1.153225541783615e+001
 1.921474139248582e+000	 1.559987862845314e+000	 1.192062641149726e+001
 1.905256723388105e+000	 1.579753720686452e+000	 1.198589429994479e+001
 1.888828031688184e+000	 1.599360393019160e+000	 1.202938024851837e+001
 1.872190414748205e+000	 1.618804512899654e+000	 1.205627184522325e+001
 1.855346294342923e+000	 1.638082759855520e+000	 1.207979562957849e+001
 1.838298162267870e+000	 1.657191861758221e+000	 1.206794355283591e+001
 1.821048579125877e+000	 1.676128596660951e+000	 1.202306064934406e+001
 1.803600173055928e+000	 1.694889794599684e+000	 1.194759461080212e+001
 1.785955638405658e+000	 1.713472339355322e+000	 1.184409046983945e+001
 1.768117734348898e+000	 1.731873170174883e+000	 1.171518503293672e+001
 1.750089283449750e+000	 1.750089283449750e+000	 1.156360107651040e+001
 1.940882968932161e+000	 1.575745316003345e+000	 1.203882033138429e+001
 1.924501740789867e+000	 1.595710828974349e+000	 1.209721296739024e+001
 1.907907102708858e+000	 1.615515548502403e+000	 1.213359742758622e+001
 1.891101429031947e+000	 1.635156073634189e+000	 1.214763409331044e+001
 1.874087165996259e+000	 1.654629050357171e+000	 1.214049250413582e+001
 1.856866830566979e+000	 1.673931173491006e+000	 1.212989395949365e+001
 1.839443009211615e+000	 1.693059188543971e+000	 1.208490876634239e+001
 1.821818356616007e+000	 1.712009893532202e+000	 1.200813096162498e+001
 1.803995594343423e+000	 1.730780140759638e+000	 1.190225559767267e+001
 1.785977509438138e+000	 1.749366838556605e+000	 1.177007292837913e+001
 1.767766952975000e+000	 1.767766952975000e+000	 1.161446235027272e+001
 1.590990257700000e+000	 1.590990257700000e+000	 1.174612161097451e+001
 1.574430154721170e+000	 1.607379758518973e+000	 1.161358346732411e+001
 1.557702126702076e+000	 1.623596034935176e+000	 1.148672436022659e+001
 1.540808904196010e+000	 1.639636520981247e+000	 1.136755837976734e+001
 1.523753269705680e+000	 1.655498708317338e+000	 1.125812423724108e+001
 1.506538056157540e+000	 1.671180147536507e+000	 1.116048044083321e+001
 1.489166145337068e+000	 1.686678449421500e+000	 1.107670039463635e+001
 1.471640466286814e+000	 1.701991286151559e+000	 1.100886743400418e+001
 1.453963993669085e+000	 1.717116392458020e+000	 1.095906981045530e+001
 1.436139746095164e+000	 1.732051566727472e+000	 1.092939563950513e+001
 1.418170784423037e+000	 1.746794672051384e+000	 1.092192782492151e+001
 1.608667927229750e+000	 1.608667927229750e+000	 1.169255330120260e+001
 1.591923823106535e+000	 1.625239533613567e+000	 1.156758463806039e+001
 1.575009928109272e+000	 1.641635990879061e+000	 1.144820651231109e+001
 1.557929003130731e+000	 1.657854704548121e+000	 1.133653702883577e+001
 1.540683861590319e+000	 1.673893138410455e+000	 1.123472036292954e+001
 1.523277367891449e+000	 1.689748815843492e+000	 1.114492173227604e+001
 1.505712435839437e+000	 1.705419321083115e+000	 1.106932228883915e+001
 1.487992027021754e+000	 1.720902300443896e+000	 1.101011394418353e+001
 1.470119149152507e+000	 1.736195463487515e+000	 1.096949414195811e+001
 1.452096854383105e+000	 1.751296584138189e+000	 1.094966059144569e+001
 1.433928237581068e+000	 1.766203501743962e+000	 1.095280597620732e+001
 1.626345596759000e+000	 1.626345596759000e+000	 1.164275316753223e+001
 1.609417491491496e+000	 1.643099308707566e+000	 1.152463450324447e+001
 1.592317729516148e+000	 1.659675946822266e+000	 1.141196463150118e+001
 1.575049102065208e+000	 1.676072888114239e+000	 1.130696872380701e+001
 1.557614453474778e+000	 1.692287568502753e+000	 1.121189954481501e+001
 1.540016679625233e+000	 1.708317484149602e+000	 1.112903221528198e+001
 1.522258726341728e+000	 1.724160192743811e+000	 1.106065889139422e+001
 1.504343587756648e+000	 1.739813314735276e+000	 1.100908337450036e+001
 1.486274304635908e+000	 1.755274534516028e+000	 1.097661566551656e+001
 1.468053962671041e+000	 1.770541601547911e+000	 1.096556647844935e+001
 1.449685690739099e+000	 1.785612331435539e+000	 1.097824172760823e+001
 1.644023266287750e+000	 1.644023266287750e+000	 1.159865911025189e+001
 1.626911159876052e+000	 1.660959083800970e+000	 1.148663667654624e+001
 1.609625530922704e+000	 1.677715902764791e+000	 1.137986717981513e+001
 1.592169200999439e+000	 1.694291071679603e+000	 1.128068595647929e+001
 1.574545045359056e+000	 1.710681998594231e+000	 1.119145753334563e+001
 1.556755991358892e+000	 1.726886152454837e+000	 1.111457017616000e+001
 1.538805016843937e+000	 1.742901064403588e+000	 1.105243035085503e+001
 1.520695148491499e+000	 1.758724329025703e+000	 1.100745711206633e+001
 1.502429460119290e+000	 1.774353605543562e+000	 1.098207643372873e+001
 1.484011070958972e+000	 1.789786618956639e+000	 1.097871549675088e+001
 1.465443143897129e+000	 1.805021161126117e+000	 1.099979694889985e+001
 1.661700935816000e+000	 1.661700935816000e+000	 1.156221869468475e+001
 1.644404828260203e+000	 1.678818858893778e+000	 1.145550461216638e+001
 1.626933332328940e+000	 1.695755858706635e+000	 1.135379262456514e+001
 1.609289299933426e+000	 1.712509255244212e+000	 1.125953137789843e+001
 1.591475637243155e+000	 1.729076428684889e+000	 1.117520038129116e+001
 1.573495303092426e+000	 1.745454820759197e+000	 1.110330433567235e+001
 1.555351307346068e+000	 1.761641936062443e+000	 1.104636737136153e+001
 1.537046709226303e+000	 1.777635343315174e+000	 1.100692720966632e+001
 1.518584615602652e+000	 1.793432676570116e+000	 1.098752926386411e+001
 1.499968179246898e+000	 1.809031636364370e+000	 1.099072069513212e+001
 1.481200597055160e+000	 1.824429990815695e+000	 1.101904443913094e+001
 1.679378605343750e+000	 1.679378605343750e+000	 1.153538864250250e+001
 1.661898496643949e+000	 1.696678633985992e+000	 1.143316108691348e+001
 1.644241133734857e+000	 1.713795814647799e+000	 1.133562891176293e+001
 1.626409398867167e+000	 1.730727438808065e+000	 1.124535726366068e+001
 1.608406229127074e+000	 1.747470858774727e+000	 1.116494390151546e+001
 1.590234614825835e+000	 1.764023489062681e+000	 1.109701329985274e+001
 1.571897597848118e+000	 1.780382807720380e+000	 1.104421065708301e+001
 1.553398269961063e+000	 1.796546357603691e+000	 1.100919582440693e+001
 1.534739771085993e+000	 1.812511747595689e+000	 1.099463717130169e+001
 1.515925287534819e+000	 1.828276653771107e+000	 1.100320540373501e+001
 1.496958050213191e+000	 1.843838820504272e+000	 1.103756735139820e+001
 1.697056274871000e+000	 1.697056274871000e+000	 1.152013435483220e+001
 1.679392165027290e+000	 1.714538409077612e+000	 1.142153771465168e+001
 1.661548935140453e+000	 1.731835770588284e+000	 1.132727297243752e+001
 1.643529497800664e+000	 1.748945622371163e+000	 1.124002501263379e+001
 1.625336821010814e+000	 1.765865288863745e+000	 1.116251315863834e+001
 1.606973926559118e+000	 1.782592157365291e+000	 1.109748504514828e+001
 1.588443888350088e+000	 1.799123679377395e+000	 1.104771039138322e+001
 1.569749830695779e+000	 1.815457371891252e+000	 1.101597469144981e+001
 1.550894926569315e+000	 1.831590818620283e+000	 1.100507283837858e+001
 1.531882395822735e+000	 1.847521671176849e+000	 1.101780269857428e+001
 1.512715503371221e+000	 1.863247650191850e+000	 1.105695865357304e+001
 1.714733944397750e+000	 1.714733944397750e+000	 1.151842946486161e+001
 1.696885833410226e+000	 1.732398184168635e+000	 1.142257449078226e+001
 1.678856736545729e+000	 1.749875726528089e+000	 1.133063025949004e+001
 1.660649596733915e+000	 1.767163805933506e+000	 1.124540467668556e+001
 1.642267412894373e+000	 1.784259718951942e+000	 1.116974199214086e+001
 1.623713238292277e+000	 1.801160825667026e+000	 1.110651643540869e+001
 1.604990178851979e+000	 1.817864551033491e+000	 1.105862574820213e+001
 1.586101391430448e+000	 1.834368386177858e+000	 1.102898463029760e+001
 1.567050082052617e+000	 1.850669889643897e+000	 1.102051811609313e+001
 1.547839504110645e+000	 1.866766688581596e+000	 1.103615489917282e+001
 1.528472956529252e+000	 1.882656479878427e+000	 1.108978404691146e+001
 1.732411613923999e+000	 1.732411613923999e+000	 1.153225541783615e+001
 1.714379501792757e+000	 1.750257959259064e+000	 1.143821936461413e+001
 1.696164537950685e+000	 1.767915682467214e+000	 1.134761431290406e+001
 1.677769695666923e+000	 1.785381989495095e+000	 1.126337451920402e+001
 1.659198004777752e+000	 1.802654149039319e+000	 1.118847256866824e+001
 1.640452550025312e+000	 1.819729493967885e+000	 1.112591276844719e+001
 1.621536469353789e+000	 1.836605422688667e+000	 1.107872443335294e+001
 1.602452952165073e+000	 1.853279400463509e+000	 1.104995508130681e+001
 1.583205237535899e+000	 1.869748960666530e+000	 1.104266355631607e+001
 1.563796612398551e+000	 1.886011705985348e+000	 1.109580914660753e+001
 1.544230409687283e+000	 1.902065309564005e+000	 1.116418090444230e+001
 1.750089283449750e+000	 1.750089283449750e+000	 1.156360107651040e+001
 1.731873170174883e+000	 1.768117734348898e+000	 1.147042783765136e+001
 1.713472339355322e+000	 1.785955638405657e+000	 1.138014635130736e+001
 1.694889794599684e+000	 1.803600173055928e+000	 1.129582060037426e+001
 1.676128596660951e+000	 1.821048579125876e+000	 1.122055496146609e+001
 1.657191861758222e+000	 1.838298162267869e+000	 1.115748735008284e+001
 1.638082759855519e+000	 1.855346294342923e+000	 1.110978225361950e+001
 1.618804512899654e+000	 1.872190414748205e+000	 1.108062367029153e+001
 1.599360393019160e+000	 1.888828031688184e+000	 1.114099208387001e+001
 1.579753720686452e+000	 1.905256723388104e+000	 1.121023044469853e+001
 1.559987862845314e+000	 1.921474139248582e+000	 1.127226768585031e+001
 1.767766952975000e+000	 1.767766952975000e+000	 1.161446235027272e+001
 1.749366838556605e+000	 1.785977509438138e+000	 1.152116258598331e+001
 1.730780140759639e+000	 1.803995594343423e+000	 1.143015488803949e+001
 1.712009893532202e+000	 1.821818356616006e+000	 1.134463638733848e+001
 1.693059188543972e+000	 1.839443009211615e+000	 1.126784675505031e+001
 1.673931173491006e+000	 1.856866830566979e+000	 1.120306109374019e+001
 1.654629050357171e+000	 1.874087165996259e+000	 1.115358271170768e+001
 1.635156073634190e+000	 1.891101429031947e+000	 1.122503603412339e+001
 1.615515548502402e+000	 1.907907102708858e+000	 1.129532538152927e+001
 1.595710828974349e+000	 1.924501740789867e+000	 1.135812339473529e+001
 1.575745316003345e+000	 1.940882968932160e+000	 1.141361177469752e+001
 1.418170784423037e+000	 1.746794672051384e+000	 1.092192782492151e+001
 1.400060210025256e+000	 1.761343637221932e+000	 1.077058269488101e+001
 1.381811163030106e+000	 1.775696457670766e+000	 1.062708544562427e+001
 1.363426820537300e+000	 1.789851196351457e+000	 1.049334692646769e+001
 1.344910394809678e+000	 1.803805984566350e+000	 1.037127153281137e+001
 1.326265131444094e+000	 1.817559022734820e+000	 1.026275226112971e+001
 1.307494307523293e+000	 1.831108581103128e+000	 1.016966579530046e+001
 1.288601229750900e+000	 1.844453000395384e+000	 1.009386763737159e+001
 1.269589232571736e+000	 1.857590692405196e+000	 1.003718729565661e+001
 1.250461676279598e+000	 1.870520140527698e+000	 1.000142354280397e+001
 1.231221945114724e+000	 1.883239900231722e+000	 9.898361164234194e+000
 1.433928237581068e+000	 1.766203501743962e+000	 1.095280597620732e+001
 1.415616434578662e+000	 1.780914122083543e+000	 1.080787559393789e+001
 1.397164620394504e+000	 1.795426418315558e+000	 1.067465533927883e+001
 1.378576007429416e+000	 1.809738431870839e+000	 1.055519934315774e+001
 1.359853843638046e+000	 1.823848273288425e+000	 1.045155183048244e+001
 1.341001410679438e+000	 1.837754122992348e+000	 1.036574193929891e+001
 1.322022022048364e+000	 1.851454232009386e+000	 1.029977857694659e+001
 1.302919021189604e+000	 1.864946922627249e+000	 1.025564532683391e+001
 1.283695779597362e+000	 1.878230588992809e+000	 1.018102231839135e+001
 1.264355694902035e+000	 1.891303697650033e+000	 9.935219344023638e+000
 1.244902188946530e+000	 1.904164788017406e+000	 9.694530752050302e+000
 1.449685690739099e+000	 1.785612331435539e+000	 1.097824172760823e+001
 1.431172659132072e+000	 1.800484606944155e+000	 1.084008054910547e+001
 1.412518077758921e+000	 1.815156378959350e+000	 1.071740874894843e+001
 1.393725194321577e+000	 1.829625667389222e+000	 1.061242672083344e+001
 1.374797292466496e+000	 1.843890562009499e+000	 1.052732155882252e+001
 1.355737689914908e+000	 1.857949223248877e+000	 1.046426163497163e+001
 1.336549736573617e+000	 1.871799882914645e+000	 1.042539121957188e+001
 1.317236812628554e+000	 1.885440844858115e+000	 1.026901782569022e+001
 1.297802326623310e+000	 1.898870485579421e+000	 1.005597549627645e+001
 1.278249713524879e+000	 1.912087254771366e+000	 9.824935834261559e+000
 1.258582432778837e+000	 1.925089675802090e+000	 9.576164292515712e+000
 1.465443143897129e+000	 1.805021161126117e+000	 1.099979694889985e+001
 1.446728883685487e+000	 1.820055091803766e+000	 1.086867154439825e+001
 1.427871535123359e+000	 1.834886339602142e+000	 1.075673343714731e+001
 1.408874381213783e+000	 1.849512902906605e+000	 1.066633233553568e+001
 1.389740741295026e+000	 1.863932850729574e+000	 1.059980131204849e+001
 1.370473969150504e+000	 1.878144323504406e+000	 1.053042976526630e+001
 1.351077451099052e+000	 1.892145533818904e+000	 1.036074177114788e+001
 1.331554604067751e+000	 1.905934767087982e+000	 1.017547442847371e+001
 1.311908873649580e+000	 1.919510382165034e+000	 9.974872208477084e+000
 1.292143732148131e+000	 1.932870811891701e+000	 9.759199374698305e+000
 1.272262676611648e+000	 1.946014563585775e+000	 9.528739727447801e+000
 1.481200597055160e+000	 1.824429990815695e+000	 1.101904443913094e+001
 1.462285108238908e+000	 1.839625576662378e+000	 1.089513556467770e+001
 1.443224992487817e+000	 1.854616300243934e+000	 1.079403214126473e+001
 1.424023568106035e+000	 1.869400138422987e+000	 1.071823631389488e+001
 1.404684190123637e+000	 1.883975139448649e+000	 1.061091987510915e+001
 1.385210248386226e+000	 1.898339423758935e+000	 1.046169856463072e+001
 1.365605165624668e+000	 1.912491184722163e+000	 1.029945641136049e+001
 1.345872395507196e+000	 1.926428689316847e+000	 1.012444474121618e+001
 1.326015420676173e+000	 1.940150278749647e+000	 9.936932001718498e+000
 1.306037750771791e+000	 1.953654369011035e+000	 9.737203523825134e+000
 1.285942920444961e+000	 1.966939451368459e+000	 9.525561266061326e+000
 1.496958050213191e+000	 1.843838820504272e+000	 1.103756735139820e+001
 1.477841332792333e+000	 1.859196061519989e+000	 1.092097191139747e+001
 1.458578449852296e+000	 1.874346260884727e+000	 1.083072178541327e+001
 1.439172754998333e+000	 1.889287373938369e+000	 1.071018674277105e+001
 1.419627638952329e+000	 1.904017428166724e+000	 1.057702780588638e+001
 1.399946527622075e+000	 1.918534524012464e+000	 1.043329881684990e+001
 1.380132880150467e+000	 1.932836835624422e+000	 1.027926318686357e+001
 1.360190186946887e+000	 1.946922611544713e+000	 1.011519881371025e+001
 1.340121967703088e+000	 1.960790175333260e+000	 9.941397853254332e+000
 1.319931769395857e+000	 1.974437926129369e+000	 9.758166477052756e+000
 1.299623164278777e+000	 1.987864339150143e+000	 9.565824616273542e+000
 1.512715503371221e+000	 1.863247650191850e+000	 1.105695865357304e+001
 1.493397557345764e+000	 1.878766546376600e+000	 1.094551902772964e+001
 1.473931907216795e+000	 1.894076221524520e+000	 1.083276359573167e+001
 1.454321941890676e+000	 1.909174609452752e+000	 1.071150757003358e+001
 1.434571087781102e+000	 1.924059716883799e+000	 1.058201943801685e+001
 1.414682806858050e+000	 1.938729624264992e+000	 1.044457980049165e+001
 1.394660594676446e+000	 1.953182486525680e+000	 1.029948115537833e+001
 1.374507978386825e+000	 1.967416533771579e+000	 1.014702767119942e+001
 1.354228514730326e+000	 1.981430071915873e+000	 9.987534950526666e+000
 1.333825788020332e+000	 1.995221483246704e+000	 9.821329783538557e+000
 1.313303408113096e+000	 2.008789226930828e+000	 9.648749891853349e+000
 1.528472956529252e+000	 1.882656479878427e+000	 1.108978404691146e+001
 1.508953781899199e+000	 1.898337031232211e+000	 1.098282327532818e+001
 1.489285364581314e+000	 1.913806182163311e+000	 1.086955735138690e+001
 1.469471128783065e+000	 1.929061844966134e+000	 1.075027944554827e+001
 1.449514536609955e+000	 1.944102005599874e+000	 1.062529231704621e+001
 1.429419086094151e+000	 1.958924724516521e+000	 1.049490808806782e+001
 1.409188309202607e+000	 1.973528137425939e+000	 1.035944801161397e+001
 1.388825769827011e+000	 1.987910455997445e+000	 1.021924223316938e+001
 1.368335061757886e+000	 2.002069968497485e+000	 1.007462954631094e+001
 1.347719806645214e+000	 2.016005040363038e+000	 9.925957142385178e+000
 1.326983651947916e+000	 2.029714114710512e+000	 9.773580354387326e+000
 1.544230409687283e+000	 1.902065309564005e+000	 1.116418090444230e+001
 1.524510006452640e+000	 1.917907516086823e+000	 1.105524071298322e+001
 1.504638821945853e+000	 1.933536142801104e+000	 1.094238602901461e+001
 1.484620315675499e+000	 1.948949080478517e+000	 1.082594659436343e+001
 1.464457985438890e+000	 1.964144294314948e+000	 1.070625904459301e+001
 1.444155365330379e+000	 1.979119824767049e+000	 1.058366666369021e+001
 1.423716023728950e+000	 1.993873788325197e+000	 1.045851913640107e+001
 1.403143561267443e+000	 2.008404378222311e+000	 1.033117229833550e+001
 1.382441608785768e+000	 2.022709865078098e+000	 1.020198788395384e+001
 1.361613825270504e+000	 2.036788597478373e+000	 1.007133327254120e+001
 1.340663895783240e+000	 2.050639002489196e+000	 9.939581232268822e+000
 1.559987862845314e+000	 1.921474139248582e+000	 1.127226768585031e+001
 1.540066231006086e+000	 1.937478000940434e+000	 1.116229476795887e+001
 1.519992279310412e+000	 1.953266103437896e+000	 1.105073896594077e+001
 1.499769502567978e+000	 1.968836315989899e+000	 1.093796617364929e+001
 1.479401434267905e+000	 1.984186583029022e+000	 1.082434651794094e+001
 1.458891644566733e+000	 1.999314925016578e+000	 1.071025409420190e+001
 1.438243738255475e+000	 2.014219439223457e+000	 1.059606670345307e+001
 1.417461352708123e+000	 2.028898300446177e+000	 1.048216559114649e+001
 1.396548155813973e+000	 2.043349761657711e+000	 1.036893518774878e+001
 1.375507843896201e+000	 2.057572154592706e+000	 1.025676285119293e+001
 1.354344139619067e+000	 2.071563890266881e+000	 1.014603861126323e+001
 1.575745316003345e+000	 1.940882968932160e+000	 1.141361177469752e+001
 1.555622455559537e+000	 1.957048485793046e+000	 1.130351834624482e+001
 1.535345736674993e+000	 1.972996064073689e+000	 1.119411641745135e+001
 1.514918689460505e+000	 1.988723551500282e+000	 1.108580762609189e+001
 1.494344883097002e+000	 2.004228871742098e+000	 1.097899521525566e+001
 1.473627923803213e+000	 2.019510025265108e+000	 1.087408375004073e+001
 1.452771452782182e+000	 2.034565090120716e+000	 1.077147883972221e+001
 1.431779144149050e+000	 2.049392222669044e+000	 1.067158686549763e+001
 1.410654702842500e+000	 2.063989658236325e+000	 1.057481471388834e+001
 1.389401862522307e+000	 2.078355711706042e+000	 1.048156951585214e+001
 1.368024383455396e+000	 2.092488778043565e+000	 1.039225839163934e+001
 1.231221945114724e+000	 1.883239900231722e+000	 9.898361164234194e+000
 1.211873445353537e+000	 1.895748599471812e+000	 9.762817023323944e+000
 1.192419603391557e+000	 1.908044939040537e+000	 9.611193524528824e+000
 1.172863863822527e+000	 1.920127692860818e+000	 9.446860969595974e+000
 1.153209687516760e+000	 1.931995708218037e+000	 9.273149933728410e+000
 1.133460549699554e+000	 1.943647905932685e+000	 9.093344694672233e+000
 1.113619938032245e+000	 1.955083280473655e+000	 8.910676822216701e+000
 1.093691350697970e+000	 1.966300900012589e+000	 8.728318942334822e+000
 1.073678294494223e+000	 1.977299906419740e+000	 8.549378689519573e+000
 1.053584282934246e+000	 1.988079515201899e+000	 8.376892860161634e+000
 1.033412834359236e+000	 1.998639015383027e+000	 8.213821779073573e+000
 1.244902188946530e+000	 1.904164788017406e+000	 9.694530752050302e+000
 1.225338705854776e+000	 1.916812472804541e+000	 9.620345327677354e+000
 1.205668710093352e+000	 1.929245438368385e+000	 9.524043066851769e+000
 1.185895684529262e+000	 1.941462445008779e+000	 9.409028323645341e+000
 1.166023128486933e+000	 1.953462327203166e+000	 9.278670589857457e+000
 1.146054555805278e+000	 1.965243993781153e+000	 9.136297724917627e+000
 1.125993492897426e+000	 1.976806428039066e+000	 8.985189343159044e+000
 1.105843476815214e+000	 1.988148687794897e+000	 8.828570373238284e+000
 1.085608053320554e+000	 1.999269905384127e+000	 8.669604803798483e+000
 1.065290774965724e+000	 2.010169287596954e+000	 8.511389628754593e+000
 1.044895199184599e+000	 2.020846115557606e+000	 8.356949004829870e+000
 1.258582432778837e+000	 1.925089675802090e+000	 9.576164292515712e+000
 1.238803966356609e+000	 1.937876346136270e+000	 9.512430043834893e+000
 1.218917816795809e+000	 1.950445937695232e+000	 9.465591065504821e+000
 1.198927505236708e+000	 1.962797197155740e+000	 9.394153671505771e+000
 1.178836569457846e+000	 1.974928946187295e+000	 9.301532082011860e+000
 1.158648561911752e+000	 1.986840081628621e+000	 9.191103427788358e+000
 1.138367047763346e+000	 1.998529575603476e+000	 9.066200927966925e+000
 1.117995602933166e+000	 2.009996475576207e+000	 8.930107237728254e+000
 1.097537812147543e+000	 2.021239904347514e+000	 8.786047980542344e+000
 1.076997266997788e+000	 2.032259059991009e+000	 8.637185478892652e+000
 1.056377564010459e+000	 2.043053215731184e+000	 8.486612696646452e+000
 1.272262676611648e+000	 1.946014563585775e+000	 9.528739727447801e+000
 1.252269226859034e+000	 1.958940219467000e+000	 9.450702450043236e+000
 1.232166923498929e+000	 1.971646437021081e+000	 9.437270588267202e+000
 1.211959325944866e+000	 1.984131949301702e+000	 9.403748015129537e+000
 1.191650010429500e+000	 1.996395565170425e+000	 9.343319177221291e+000
 1.171242568018975e+000	 2.008436169475090e+000	 9.259416185678520e+000
 1.150740602630003e+000	 2.020252723166887e+000	 9.155431446408528e+000
 1.130147729051826e+000	 2.031844263356515e+000	 9.034710788947466e+000
 1.109467570975188e+000	 2.043209903309902e+000	 8.900546778456979e+000
 1.088703759030439e+000	 2.054348832384064e+000	 8.756172225343480e+000
 1.067859928836815e+000	 2.065260315903762e+000	 8.604753906209323e+000
 1.285942920444961e+000	 1.966939451368459e+000	 9.525561266061326e+000
 1.265734487362051e+000	 1.980004092796729e+000	 9.478174502214186e+000
 1.245416030202710e+000	 1.992846936345929e+000	 9.440530192079041e+000
 1.224991146653734e+000	 2.005466701446662e+000	 9.439332256823230e+000
 1.204463451401894e+000	 2.017862184152554e+000	 9.405621126946805e+000
 1.183836574126947e+000	 2.030032257320558e+000	 9.342889624276808e+000
 1.163114157497400e+000	 2.041975870729298e+000	 9.254594946976894e+000
 1.142299855171193e+000	 2.053692051135825e+000	 9.144151572420864e+000
 1.121397329803490e+000	 2.065179902271288e+000	 9.014924342051135e+000
 1.100410251063676e+000	 2.076438604776118e+000	 8.870221743275899e+000
 1.079342293663667e+000	 2.087467416075340e+000	 8.713289402672494e+000
 1.299623164278777e+000	 1.987864339150143e+000	 9.565824616273542e+000
 1.279199747865662e+000	 2.001067966125458e+000	 9.544876259706269e+000
 1.258665136907154e+000	 2.014047435669777e+000	 9.510669388045859e+000
 1.238022967363315e+000	 2.026801453590624e+000	 9.502436678176348e+000
 1.217276892375029e+000	 2.039328803133683e+000	 9.490031431057940e+000
 1.196430580235670e+000	 2.051628345165026e+000	 9.443176652392769e+000
 1.175487712365535e+000	 2.063699018290709e+000	 9.365399963272907e+000
 1.154451981291268e+000	 2.075539838914133e+000	 9.260189989614396e+000
 1.133327088632449e+000	 2.087149901231676e+000	 9.130989212909926e+000
 1.112116743097499e+000	 2.098528377167173e+000	 8.981187017712452e+000
 1.090824658491015e+000	 2.109674516245919e+000	 8.814112950685765e+000
 1.313303408113096e+000	 2.008789226930828e+000	 9.648749891853349e+000
 1.292665008369864e+000	 2.022131839453188e+000	 9.650153144197651e+000
 1.271914243612259e+000	 2.035247934992624e+000	 9.633098042397604e+000
 1.251054788073606e+000	 2.048136205733585e+000	 9.598025640265472e+000
 1.230090333348904e+000	 2.060795422113812e+000	 9.598147616561562e+000
 1.209024586345141e+000	 2.073224433008494e+000	 9.561929499294552e+000
 1.187861267234408e+000	 2.085422165851120e+000	 9.489549801239265e+000
 1.166604107412051e+000	 2.097387626691442e+000	 9.384576826271307e+000
 1.145256847462064e+000	 2.109119900191063e+000	 9.250536090264006e+000
 1.123823235131908e+000	 2.120618149557228e+000	 9.090903127391199e+000
 1.102307023318859e+000	 2.131881616415496e+000	 8.909096508546194e+000
 1.326983651947916e+000	 2.029714114710512e+000	 9.773580354387326e+000
 1.306130268874659e+000	 2.043195712779917e+000	 9.793368675764043e+000
 1.285163350318026e+000	 2.056448434314472e+000	 9.789601275246293e+000
 1.264086608784608e+000	 2.069470957875546e+000	 9.762632706745681e+000
 1.242903774323520e+000	 2.082262041092940e+000	 9.731571030017575e+000
 1.221618592455362e+000	 2.094820520850962e+000	 9.700799749736698e+000
 1.200234822104020e+000	 2.107145313410531e+000	 9.628742808627449e+000
 1.178756233533540e+000	 2.119235414467751e+000	 9.519053748068254e+000
 1.157186606292337e+000	 2.131089899149450e+000	 9.375346544512651e+000
 1.135529727166903e+000	 2.142707921946283e+000	 9.201188167770082e+000
 1.113789388147199e+000	 2.154088716584075e+000	 9.000091352236696e+000
 1.340663895783240e+000	 2.050639002489196e+000	 9.939581232268822e+000
 1.319595529380046e+000	 2.064259586105647e+000	 9.973903549490970e+000
 1.298412457024456e+000	 2.077648933635320e+000	 9.979672136995381e+000
 1.277118429496323e+000	 2.090805710016507e+000	 9.957156337773981e+000
 1.255717215298876e+000	 2.103728660071070e+000	 9.906655348176205e+000
 1.234212598566333e+000	 2.116416608692430e+000	 9.861438376843530e+000
 1.212608376974370e+000	 2.128868460968942e+000	 9.784672627966648e+000
 1.190908359655738e+000	 2.141083202243059e+000	 9.665353765924511e+000
 1.169116365123266e+000	 2.153059898106837e+000	 9.507189687062407e+000
 1.147236219202485e+000	 2.164797694334338e+000	 9.313844117520706e+000
 1.125271752976035e+000	 2.176295816751653e+000	 9.088929130646303e+000
 1.354344139619067e+000	 2.071563890266881e+000	 1.014603861126323e+001
 1.333060789886026e+000	 2.085323459430376e+000	 1.019115476804927e+001
 1.311661563731547e+000	 2.098849432955168e+000	 1.020281556533037e+001
 1.290150250208748e+000	 2.112140462156468e+000	 1.018120638192150e+001
 1.268530656274973e+000	 2.125195279048199e+000	 1.012654775985193e+001
 1.246806604678053e+000	 2.138012696532898e+000	 1.004549577299960e+001
 1.224981931845459e+000	 2.150591608526352e+000	 9.959028434201271e+000
 1.203060485778643e+000	 2.162930990017368e+000	 9.825201673111177e+000
 1.181046123954852e+000	 2.175029897063225e+000	 9.647822799569019e+000
 1.158942711238653e+000	 2.186887466721392e+000	 9.430657652507671e+000
 1.136754117805368e+000	 2.198502916918232e+000	 9.177422856837431e+000
 1.368024383455396e+000	 2.092488778043565e+000	 1.039225839163934e+001
 1.346526050392599e+000	 2.106387332754106e+000	 1.044453482631556e+001
 1.324910670439301e+000	 2.120049932274017e+000	 1.045854779085474e+001
 1.303182070921885e+000	 2.133475214295430e+000	 1.043439990596111e+001
 1.281344097251810e+000	 2.146661898024328e+000	 1.037223419551070e+001
 1.259400610790523e+000	 2.159608784372367e+000	 1.027223381170729e+001
 1.237355486717287e+000	 2.172314756082764e+000	 1.015349515807015e+001
 1.215212611902256e+000	 2.184778777790678e+000	 1.000031445613344e+001
 1.192975882787095e+000	 2.196999896018612e+000	 9.798991925424971e+000
 1.170649203275408e+000	 2.208977239107448e+000	 9.553400910928614e+000
 1.148236482635196e+000	 2.220710017083810e+000	 9.267367839837172e+000
 1.033412834359236e+000	 1.998639015383027e+000	 8.213821779073573e+000
 1.013167470062905e+000	 2.008977769327879e+000	 8.238929642908419e+000
 9.928517124315605e-001	 2.019095212510688e+000	 8.240281099946992e+000
 9.724690831009004e-001	 2.028990853228825e+000	 8.220073366760422e+000
 9.520231011303464e-001	 2.038664272261591e+000	 8.180446921552706e+000
 9.315172811979672e-001	 2.048115122476415e+000	 8.123481123721222e+000
 9.109551318173336e-001	 2.057343128383053e+000	 8.051190050539811e+000
 8.903401535779651e-001	 2.066348085636912e+000	 7.965518558013200e+000
 8.696758374109869e-001	 2.075129860492684e+000	 7.868338572163466e+000
 8.489656628815501e-001	 2.083688389209486e+000	 7.761445616214484e+000
 8.282130965095028e-001	 2.092023677408817e+000	 7.646555578341377e+000
 1.044895199184599e+000	 2.020846115557606e+000	 8.356949004829870e+000
 1.024424886396339e+000	 2.031299744546037e+000	 8.365973784214745e+000
 1.003883398124834e+000	 2.041529603764009e+000	 8.353905804251800e+000
 9.832742951350687e-001	 2.051535196045530e+000	 8.323104852134799e+000
 9.626011355871260e-001	 2.061316097511893e+000	 8.275868450842250e+000
 9.418674732110530e-001	 2.070871957173500e+000	 8.214427281068234e+000
 9.210768555039048e-001	 2.080202496479101e+000	 8.140940832837492e+000
 9.002328219506405e-001	 2.089307508813609e+000	 8.057493294091588e+000
 8.793389022705090e-001	 2.098186858945657e+000	 7.966089682708573e+000
 8.583986146904973e-001	 2.106840482426127e+000	 7.868652227581950e+000
 8.374154642473412e-001	 2.115268384938982e+000	 7.767017003554687e+000
 1.056377564010459e+000	 2.043053215731184e+000	 8.486612696646452e+000
 1.035682302730179e+000	 2.053621719763194e+000	 8.479930391105590e+000
 1.014915083818444e+000	 2.063963995016330e+000	 8.454799788300740e+000
 9.940795071695253e-001	 2.074079538861235e+000	 8.413746416655858e+000
 9.731791700441648e-001	 2.083967922761197e+000	 8.359227962261763e+000
 9.522176652243890e-001	 2.093628791869585e+000	 8.293629488373982e+000
 9.311985791907377e-001	 2.103061864574149e+000	 8.219258897352225e+000
 9.101254903236087e-001	 2.112266931989306e+000	 8.138342642576053e+000
 8.890019671303754e-001	 2.121243857397628e+000	 8.053021697001126e+000
 8.678315664998596e-001	 2.129992575641768e+000	 7.965347784155156e+000
 8.466178319856844e-001	 2.138513092468148e+000	 7.877279876497189e+000
 1.067859928836815e+000	 2.065260315903762e+000	 8.604753906209323e+000
 1.046939719064425e+000	 2.075943694979352e+000	 8.582625170659178e+000
 1.025946769512391e+000	 2.086398386267651e+000	 8.544675397800400e+000
 1.004884719204270e+000	 2.096623881675941e+000	 8.493599105973637e+000
 9.837572045014625e-001	 2.106619748009500e+000	 8.432017338499730e+000
 9.625678572379757e-001	 2.116385626564670e+000	 8.362472675869633e+000
 9.413203028778324e-001	 2.125921232668197e+000	 8.287424503335277e+000
 9.200181586968702e-001	 2.135226355164004e+000	 8.209244541686170e+000
 8.986650319905858e-001	 2.144300855848600e+000	 8.130212648091389e+000
 8.772645183096365e-001	 2.153144668856409e+000	 8.052512892978241e+000
 8.558201997245326e-001	 2.161757799996312e+000	 7.978229918010202e+000
 1.079342293663667e+000	 2.087467416075340e+000	 8.713289402672494e+000
 1.058197135399078e+000	 2.098265670194510e+000	 8.675862221941859e+000
 1.036978455206676e+000	 2.108832777517972e+000	 8.625225977059015e+000
 1.015689931239302e+000	 2.119168224489647e+000	 8.564247502179542e+000
 9.943352389590202e-001	 2.129271573256804e+000	 8.495714466934388e+000
 9.729180492518130e-001	 2.139142461258755e+000	 8.422330176366311e+000
 9.514420265651888e-001	 2.148780600761245e+000	 8.346708639430574e+000
 9.299108270704248e-001	 2.158185778337701e+000	 8.271369914103282e+000
 9.083280968511405e-001	 2.167357854298573e+000	 8.198735736197477e+000
 8.866974701198286e-001	 2.176296762070050e+000	 8.131125438038914e+000
 8.650225674638863e-001	 2.185002507523477e+000	 8.070752162205332e+000
 1.090824658491015e+000	 2.109674516245919e+000	 8.814112950685765e+000
 1.069454551734137e+000	 2.120587645408667e+000	 8.761425173272329e+000
 1.048010140901297e+000	 2.131267168767293e+000	 8.698126869060291e+000
 1.026495143274622e+000	 2.141712567302352e+000	 8.627260590309264e+000
 1.004913273416837e+000	 2.151923398503107e+000	 8.551783976228922e+000
 9.832682412659006e-001	 2.161899295951840e+000	 8.474564335645177e+000
 9.615637502528075e-001	 2.171639968853294e+000	 8.398373511601792e+000
 9.398034954442724e-001	 2.181145201510398e+000	 8.325883036209220e+000
 9.179911617120392e-001	 2.190414852747545e+000	 8.259659583065067e+000
 8.961304219304351e-001	 2.199448855282691e+000	 8.202160723587221e+000
 8.742249352037450e-001	 2.208247215049642e+000	 8.155730992608296e+000
 1.102307023318859e+000	 2.131881616415496e+000	 8.909096508546194e+000
 1.080711968069602e+000	 2.142909620621825e+000	 8.841078248406001e+000
 1.059041826596255e+000	 2.153701560015614e+000	 8.765036353032118e+000
 1.037300355310231e+000	 2.164256910114058e+000	 8.684192570689463e+000
 1.015491307874912e+000	 2.174575223748410e+000	 8.601677926889822e+000
 9.936184332802385e-001	 2.184656130643925e+000	 8.520527084698609e+000
 9.716854739406875e-001	 2.194499336944342e+000	 8.443673000563440e+000
 9.496961638184130e-001	 2.204104624682095e+000	 8.373941884247785e+000
 9.276542265732820e-001	 2.213471851195517e+000	 8.314048470429519e+000
 9.055633737414567e-001	 2.222600948494331e+000	 8.266591608496833e+000
 8.834273029441089e-001	 2.231491922574806e+000	 8.234050176043473e+000
 1.113789388147199e+000	 2.154088716584075e+000	 9.000091352236696e+000
 1.091969384405474e+000	 2.165231595833983e+000	 8.916567266770391e+000
 1.070073512291550e+000	 2.176135951262935e+000	 8.827596524021500e+000
 1.048105567346127e+000	 2.186801252924763e+000	 8.736583621036257e+000
 1.026069342333246e+000	 2.197227048992712e+000	 8.646836459109734e+000
 1.003968625294827e+000	 2.207412965335011e+000	 8.561560476575208e+000
 9.818071976288297e-001	 2.217358705034390e+000	 8.483853090917462e+000
 9.595888321928467e-001	 2.227064047852791e+000	 8.416698459074263e+000
 9.373172914348692e-001	 2.236528849642488e+000	 8.362962563727681e+000
 9.149963255528931e-001	 2.245753041704973e+000	 8.325388632315443e+000
 8.926296706849778e-001	 2.254736630098971e+000	 8.306592894422545e+000
 1.125271752976035e+000	 2.176295816751653e+000	 9.088929130646303e+000
 1.103226800741752e+000	 2.187553571045140e+000	 8.989620582461484e+000
 1.081105197987183e+000	 2.198570342509257e+000	 8.887434118618421e+000
 1.058910779382311e+000	 2.209345595734469e+000	 8.785960611894375e+000
 1.036647376791840e+000	 2.219878874236016e+000	 8.688688400946838e+000
 1.014318817309667e+000	 2.230169800025096e+000	 8.598997190356382e+000
 9.919289213172337e-001	 2.240218073123438e+000	 8.520152274016139e+000
 9.694815005675739e-001	 2.250023471022488e+000	 8.455299091021969e+000
 9.469803562968006e-001	 2.259585848088461e+000	 8.407458122113118e+000
 9.244292773647449e-001	 2.268905134914614e+000	 8.379520133597845e+000
 9.018320384263519e-001	 2.277981337622136e+000	 8.374241774587290e+000
 1.136754117805368e+000	 2.198502916918232e+000	 9.177422856837431e+000
 1.114484217078436e+000	 2.209875546255298e+000	 9.061949966330936e+000
 1.092136883683152e+000	 2.221004733754577e+000	 8.946161290635349e+000
 1.069715991418783e+000	 2.231889938543174e+000	 8.833837778716680e+000
 1.047225411250693e+000	 2.242530699478319e+000	 8.728651839644812e+000
 1.024669009324756e+000	 2.252926634714180e+000	 8.634161004589053e+000
 1.002050645005900e+000	 2.263077441211487e+000	 8.553801926408976e+000
 9.793741689425939e-001	 2.272982894191185e+000	 8.490884726292412e+000
 9.566434211590758e-001	 2.282642846533433e+000	 8.448587695743342e+000
 9.338622291770110e-001	 2.292057228123256e+000	 8.429952361066965e+000
 9.110344061682311e-001	 2.301226045144301e+000	 8.437878916343085e+000
 1.148236482635196e+000	 2.220710017083810e+000	 9.267367839837172e+000
 1.125741633415527e+000	 2.232197521464456e+000	 9.135251435148659e+000
 1.103168569379458e+000	 2.243439124998900e+000	 9.005376340245910e+000
 1.080521203455544e+000	 2.254434281350881e+000	 8.881717353618663e+000
 1.057803445709805e+000	 2.265182524719623e+000	 8.768134658673533e+000
 1.035019201340097e+000	 2.275683469402266e+000	 8.668367242312264e+000
 1.012172368694828e+000	 2.285936809298536e+000	 8.586026665582951e+000
 9.892668373179073e-001	 2.295942317358883e+000	 8.524591196161820e+000
 9.663064860216958e-001	 2.305699844977406e+000	 8.487400311229274e+000
 9.432951809896925e-001	 2.315209321330897e+000	 8.477649578105641e+000
 9.202367739106159e-001	 2.324470752665467e+000	 8.498385918811037e+000
 8.282130965095028e-001	 2.092023677408817e+000	 7.646555578341377e+000
 8.074215901202451e-001	 2.100135799387014e+000	 7.570495976089680e+000
 7.865945792257691e-001	 2.108024897382408e+000	 7.492783941127700e+000
 7.657354814378435e-001	 2.115691180799508e+000	 7.414982656323200e+000
 7.448476949157643e-001	 2.123134925392267e+000	 7.338560703116885e+000
 7.239345968484162e-001	 2.130356472406817e+000	 7.264890036546076e+000
 7.029995419721640e-001	 2.137356227685585e+000	 7.195244218833861e+000
 6.820458611255976e-001	 2.144134660734327e+000	 7.130796910761537e+000
 6.610768598420856e-001	 2.150692303753668e+000	 7.072620619324830e+000
 6.400958169810156e-001	 2.157029750636725e+000	 7.021685699478223e+000
 6.191059833985354e-001	 2.163147655934445e+000	 6.994836688122270e+000
 8.374154642473412e-001	 2.115268384938982e+000	 7.767017003554687e+000
 8.163929411200946e-001	 2.123470641606018e+000	 7.708202997638457e+000
 7.953345189931456e-001	 2.131447396245942e+000	 7.645268061121687e+000
 7.742436534517254e-001	 2.139198860589977e+000	 7.579830584457170e+000
 7.531237804124565e-001	 2.146725313456010e+000	 7.513413978026013e+000
 7.319783145885441e-001	 2.154027099881797e+000	 7.447444527330742e+000
 7.108106479912013e-001	 2.161104630219127e+000	 7.383249512713608e+000
 6.896241484683363e-001	 2.167958379190486e+000	 7.322055592934018e+000
 6.684221582814655e-001	 2.174588884909840e+000	 7.264987451197645e+000
 6.472079927217471e-001	 2.180996747869119e+000	 7.213066701514193e+000
 6.259849387659531e-001	 2.187182629892056e+000	 7.167211052565922e+000
 8.466178319856844e-001	 2.138513092468148e+000	 7.877279876497189e+000
 8.253642921205442e-001	 2.146805483824028e+000	 7.832619833384615e+000
 8.040744587612064e-001	 2.154869895108496e+000	 7.781527563742356e+000
 7.827518254663666e-001	 2.162706540379492e+000	 7.725679640054672e+000
 7.613998659099723e-001	 2.170315701518835e+000	 7.666657090358001e+000
 7.400220323295501e-001	 2.177697727355906e+000	 7.605943131839242e+000
 7.186217540111608e-001	 2.184853032751853e+000	 7.544921175249864e+000
 6.972024358120313e-001	 2.191782097645895e+000	 7.484873099582783e+000
 6.757674567218255e-001	 2.198485466065336e+000	 7.426977795696010e+000
 6.543201684634735e-001	 2.204963745100923e+000	 7.372309976824720e+000
 6.328638941343707e-001	 2.211217603849173e+000	 7.321839253212735e+000
 8.558201997245326e-001	 2.161757799996312e+000	 7.978229918010202e+000
 8.343356431215939e-001	 2.170140326041044e+000	 7.944649955270055e+000
 8.128143985299519e-001	 2.178292393970071e+000	 7.902481564735047e+000
 7.912599974817666e-001	 2.186214220168053e+000	 7.853462511071456e+000
 7.696759514083115e-001	 2.193906089580742e+000	 7.799234264643850e+000
 7.480657500714332e-001	 2.201368354829143e+000	 7.741339611700151e+000
 7.264328600320423e-001	 2.208601435283764e+000	 7.681220541997200e+000
 7.047807231566823e-001	 2.215605816100554e+000	 7.620216413422998e+000
 6.831127551631663e-001	 2.222382047220160e+000	 7.559562392386667e+000
 6.614323442061953e-001	 2.228930742332137e+000	 7.500388167981953e+000
 6.397428495037884e-001	 2.235252577805797e+000	 7.443716937193954e+000
 8.650225674638863e-001	 2.185002507523477e+000	 8.070752162205332e+000
 8.433069941232435e-001	 2.193475168257064e+000	 8.045193428381721e+000
 8.215543382993820e-001	 2.201714892830667e+000	 8.009043181090473e+000
 7.997681694979255e-001	 2.209721899955661e+000	 7.964103423376868e+000
 7.779520369074738e-001	 2.217496477641732e+000	 7.912078928823443e+000
 7.561094678141941e-001	 2.225038982301508e+000	 7.854574726452531e+000
 7.342439660538457e-001	 2.232349837814859e+000	 7.793093870028073e+000
 7.123590105022895e-001	 2.239429534554463e+000	 7.729035491420760e+000
 6.904580536054876e-001	 2.246278628374308e+000	 7.663693136890471e+000
 6.685445199499123e-001	 2.252897739562764e+000	 7.598253384350920e+000
 6.466218048742060e-001	 2.259287551761928e+000	 7.533794738922621e+000
 8.742249352037450e-001	 2.208247215049642e+000	 8.155730992608296e+000
 8.522783451254931e-001	 2.216810010472089e+000	 8.135147090259336e+000
 8.302942780694966e-001	 2.225137391690283e+000	 8.102119846769018e+000
 8.082763415148440e-001	 2.233229579742315e+000	 8.058518586127210e+000
 7.862281224074597e-001	 2.241086865701804e+000	 8.006114282487506e+000
 7.641531855578327e-001	 2.248709609773001e+000	 7.946576917866299e+000
 7.420550720765707e-001	 2.256098240345137e+000	 7.881473131536485e+000
 7.199372978488527e-001	 2.263253253007622e+000	 7.812264160885308e+000
 6.978033520487897e-001	 2.270175209527783e+000	 7.740304072668817e+000
 6.756566956946242e-001	 2.276864736792801e+000	 7.666838282784503e+000
 6.535007602456237e-001	 2.283322525717564e+000	 7.593002361899235e+000
 8.834273029441089e-001	 2.231491922574806e+000	 8.234050176043473e+000
 8.612496961283427e-001	 2.240144852686119e+000	 8.215404718997204e+000
 8.390342178402960e-001	 2.248559890548920e+000	 8.182613608691765e+000
 8.167845135325212e-001	 2.256737259528015e+000	 8.137616609302647e+000
 7.945042079082687e-001	 2.264677253760957e+000	 8.082253829603856e+000
 7.721969033023489e-001	 2.272380237243623e+000	 8.018262951492725e+000
 7.498661781002176e-001	 2.279846642874599e+000	 7.947276757842562e+000
 7.275155851963721e-001	 2.287076971460030e+000	 7.870820959555221e+000
 7.051486504930720e-001	 2.294071790680583e+000	 7.790312320823585e+000
 6.827688714403313e-001	 2.300831734022249e+000	 7.707057080775447e+000
 6.603797156180413e-001	 2.307357499672706e+000	 7.622249668863401e+000
 8.926296706849778e-001	 2.254736630098971e+000	 8.306592894422545e+000
 8.702210471317924e-001	 2.263479694899155e+000	 8.286857190947369e+000
 8.477741576117799e-001	 2.271982389406577e+000	 8.251421404423075e+000
 8.252926855509575e-001	 2.280244939312762e+000	 8.202298895417295e+000
 8.027802934099011e-001	 2.288267641819194e+000	 8.141401878291813e+000
 7.802406210477425e-001	 2.296050864713372e+000	 8.070538518531551e+000
 7.576772841247863e-001	 2.303595045403246e+000	 7.991410337375370e+000
 7.350938725448477e-001	 2.310900689911689e+000	 7.905609923720645e+000
 7.124939489383351e-001	 2.317968371832708e+000	 7.814618952383864e+000
 6.898810471870336e-001	 2.324798731251109e+000	 7.719806506938500e+000
 6.672586709914591e-001	 2.331392473627356e+000	 7.622427704513257e+000
 9.018320384263519e-001	 2.277981337622136e+000	 8.374241774587290e+000
 8.791923981358421e-001	 2.286814537111197e+000	 8.350392628767843e+000
 8.565140973839484e-001	 2.295404888263255e+000	 8.309435322851861e+000
 8.338008575701530e-001	 2.303752619096555e+000	 8.253460007247263e+000
 8.110563789123574e-001	 2.311858029876512e+000	 8.184454009998332e+000
 7.882843387940139e-001	 2.319721492182250e+000	 8.104298800848772e+000
 7.654883901502770e-001	 2.327343447931077e+000	 8.014767270922871e+000
 7.426721598942795e-001	 2.334724408362598e+000	 7.917521328093033e+000
 7.198392473845785e-001	 2.341864952984159e+000	 7.814109807187333e+000
 6.969932229347310e-001	 2.348765728479380e+000	 7.705966693300392e+000
 6.741376263658767e-001	 2.355427447581511e+000	 7.594409655609922e+000
 9.110344061682311e-001	 2.301226045144301e+000	 8.437878916343085e+000
 8.881637491404917e-001	 2.310149379322243e+000	 8.406896540497986e+000
 8.652540371568017e-001	 2.318827387118954e+000	 8.357542849074408e+000
 8.423090295901076e-001	 2.327260298879394e+000	 8.291988013272020e+000
 8.193324644156366e-001	 2.335448417932912e+000	 8.212297520238950e+000
 7.963280565411631e-001	 2.343392119650255e+000	 8.120429001751246e+000
 7.732994961766895e-001	 2.351091850458091e+000	 8.018229387169090e+000
 7.502504472446673e-001	 2.358548126812756e+000	 7.907432380834624e+000
 7.271845458318026e-001	 2.365761534134935e+000	 7.789656263131975e+000
 7.041053986834237e-001	 2.372732725707061e+000	 7.666402013511346e+000
 6.810165817412944e-001	 2.379462421535173e+000	 7.539051752893420e+000
 9.202367739106159e-001	 2.324470752665467e+000	 8.498385918811037e+000
 8.971351001457416e-001	 2.333484221532295e+000	 8.457251950289475e+000
 8.739939769303398e-001	 2.342249885973674e+000	 8.396627094583975e+000
 8.508172016108214e-001	 2.350767978661281e+000	 8.318764812388908e+000
 8.276085499197395e-001	 2.359038805988396e+000	 8.225811832894321e+000
 8.043717742891899e-001	 2.367062747117389e+000	 8.119804844914526e+000
 7.811106022040244e-001	 2.374840252984292e+000	 8.002667521299326e+000
 7.578287345960116e-001	 2.382371845262165e+000	 7.876207876885720e+000
 7.345298442800076e-001	 2.389658115285039e+000	 7.742115959273342e+000
 7.112175744331116e-001	 2.396699722934155e+000	 7.601961870763591e+000
 6.878955371177123e-001	 2.403497395488342e+000	 7.457194118883670e+000
 6.191059833985354e-001	 2.163147655934445e+000	 6.994836688122270e+000
 5.981105806580939e-001	 2.169046733790038e+000	 6.888288534184668e+000
 5.771127997826462e-001	 2.174727756844882e+000	 6.781473908357540e+000
 5.561158000485695e-001	 2.180191555116964e+000	 6.676000866151339e+000
 5.351227078207386e-001	 2.185439014853160e+000	 6.573305993011623e+000
 5.141366154304752e-001	 2.190471077357688e+000	 6.474653811071287e+000
 4.931605800963980e-001	 2.195288737798134e+000	 6.381136585936098e+000
 4.721976228884912e-001	 2.199893043990708e+000	 6.293674524646897e+000
 4.512507277356547e-001	 2.204285095166384e+000	 6.213016355107977e+000
 4.303228404769293e-001	 2.208466040719535e+000	 6.139740276466319e+000
 4.094168679565230e-001	 2.212437078940723e+000	 6.074255269183862e+000
 6.259849387659531e-001	 2.187182629892056e+000	 7.167211052565922e+000
 6.047562537727171e-001	 2.193147253056797e+000	 7.072877775559927e+000
 5.835251642208401e-001	 2.198891398589630e+000	 6.978805712945063e+000
 5.622948644897693e-001	 2.204415905730961e+000	 6.883890114969399e+000
 5.410685156817661e-001	 2.209721670574856e+000	 6.789674819648652e+000
 5.198492444873888e-001	 2.214809644884473e+000	 6.697527831273471e+000
 4.986401420943507e-001	 2.219680834884810e+000	 6.608641014961751e+000
 4.774442631400799e-001	 2.224336300034484e+000	 6.524030195180699e+000
 4.562646247082410e-001	 2.228777151778144e+000	 6.444535648379063e+000
 4.351042053694189e-001	 2.233004552281214e+000	 6.370822979036052e+000
 4.139659442660896e-001	 2.237019713148595e+000	 6.303384367663091e+000
 6.328638941343707e-001	 2.211217603849173e+000	 7.321839253212735e+000
 6.114019268883301e-001	 2.217247772323162e+000	 7.219420785512317e+000
 5.899375286599927e-001	 2.223055040334081e+000	 7.135776643697161e+000
 5.684739289318760e-001	 2.228640256344763e+000	 7.049334136893209e+000
 5.470143235436286e-001	 2.234004326296461e+000	 6.961747067880536e+000
 5.255618735450450e-001	 2.239148212411264e+000	 6.874489354201141e+000
 5.041197040929339e-001	 2.244072931971593e+000	 6.788854610980900e+000
 4.826909033921672e-001	 2.248779556078466e+000	 6.705956150966210e+000
 4.612785216811740e-001	 2.253269208390210e+000	 6.626727391759235e+000
 4.398855702620841e-001	 2.257543063843300e+000	 6.551922659365837e+000
 4.185150205756415e-001	 2.261602347356972e+000	 6.482118376370919e+000
 6.397428495037884e-001	 2.235252577805797e+000	 7.443716937193954e+000
 6.180476000049326e-001	 2.241348291589134e+000	 7.329807013801273e+000
 5.963498931001037e-001	 2.247218682078241e+000	 7.254227391849621e+000
 5.746529933748895e-001	 2.252864606958372e+000	 7.174123324278000e+000
 5.529601314063259e-001	 2.258286982017971e+000	 7.091261364211190e+000
 5.312745026034441e-001	 2.263486779938062e+000	 7.007223845667024e+000
 5.095992660921479e-001	 2.268465029058483e+000	 6.923408355088802e+000
 4.879375436447530e-001	 2.273222812122655e+000	 6.841027633798473e+000
 4.662924186544541e-001	 2.277761265002585e+000	 6.761109901181383e+000
 4.446669351549250e-001	 2.282081575405792e+000	 6.684499587513818e+000
 4.230640968851787e-001	 2.286184981565858e+000	 6.611858464515233e+000
 6.466218048742060e-001	 2.259287551761928e+000	 7.533794738922621e+000
 6.246932731225249e-001	 2.265448810854711e+000	 7.405902429224351e+000
 6.027622575411730e-001	 2.271382323822106e+000	 7.335973928870321e+000
 5.808320578188099e-001	 2.277088957571788e+000	 7.260022258708758e+000
 5.589059392698581e-001	 2.282569637739387e+000	 7.179929580484148e+000
 5.369871316625857e-001	 2.287825347464866e+000	 7.097389219274475e+000
 5.150788280919921e-001	 2.292857126145480e+000	 7.013905024119556e+000
 4.931841838978373e-001	 2.297666068167052e+000	 6.930791173736171e+000
 4.713063156280809e-001	 2.302253321615265e+000	 6.849172416949888e+000
 4.494483000479417e-001	 2.306620086968693e+000	 6.769984736539374e+000
 4.276131731947014e-001	 2.310767615775252e+000	 6.693976424325251e+000
 6.535007602456237e-001	 2.283322525717564e+000	 7.593002361899235e+000
 6.313389462411063e-001	 2.289549330119895e+000	 7.464605512186000e+000
 6.091746219832009e-001	 2.295545965565678e+000	 7.382808807499506e+000
 5.870111222636369e-001	 2.301313308185011e+000	 7.308771069461844e+000
 5.648517471342254e-001	 2.306852293460712e+000	 7.229438242021836e+000
 5.426997607224701e-001	 2.312163914991678e+000	 7.146617286534154e+000
 5.205583900924672e-001	 2.317249223232584e+000	 7.061920675081050e+000
 4.984308241514200e-001	 2.322109324211656e+000	 6.976766100245071e+000
 4.763202126020544e-001	 2.326745378228254e+000	 6.892376634037212e+000
 4.542296649411342e-001	 2.331158598532000e+000	 6.809781324450316e+000
 4.321622495042093e-001	 2.335350249985153e+000	 6.729816217208164e+000
 6.603797156180413e-001	 2.307357499672706e+000	 7.622249668863401e+000
 6.379846193606776e-001	 2.313649849384685e+000	 7.492685095467458e+000
 6.155869864261875e-001	 2.319709607308956e+000	 7.396502381475218e+000
 5.931901867093712e-001	 2.325537658798039e+000	 7.322086707062552e+000
 5.707975549994272e-001	 2.331134949181941e+000	 7.241449847757398e+000
 5.484123897830971e-001	 2.336502482518495e+000	 7.156515116347775e+000
 5.260379520935724e-001	 2.341641320319795e+000	 7.069006036812596e+000
 5.036774644055012e-001	 2.346552580256466e+000	 6.980445958895919e+000
 4.813341095763750e-001	 2.351237434841550e+000	 6.892158136736128e+000
 4.590110298345023e-001	 2.355697110095716e+000	 6.805266259778965e+000
 4.367113258137025e-001	 2.359932884195560e+000	 6.720695423270972e+000
 6.672586709914591e-001	 2.331392473627356e+000	 7.622427704513257e+000
 6.446302924812386e-001	 2.337750368649082e+000	 7.490292840769114e+000
 6.219993508701324e-001	 2.343873249051940e+000	 7.378803949811897e+000
 5.993692511560121e-001	 2.349762009410875e+000	 7.301664138066065e+000
 5.767433628654640e-001	 2.355417604903078e+000	 7.217604108708133e+000
 5.541250188444671e-001	 2.360841050045321e+000	 7.128666310400336e+000
 5.315175140953082e-001	 2.366033417407112e+000	 7.036687815560256e+000
 5.089241046600811e-001	 2.370995836301485e+000	 6.943299840431011e+000
 4.863480065510423e-001	 2.375729491455153e+000	 6.849927744571517e+000
 4.637923947280460e-001	 2.380235621659838e+000	 6.757791497740115e+000
 4.412604021231812e-001	 2.384515518406475e+000	 6.667906601181531e+000
 6.741376263658767e-001	 2.355427447581511e+000	 7.594409655609922e+000
 6.512759656027893e-001	 2.361850887913085e+000	 7.458292934937389e+000
 6.284117153150359e-001	 2.368036890794632e+000	 7.336581696698948e+000
 6.055483156035602e-001	 2.373986360023517e+000	 7.249177466688927e+000
 5.826891707323358e-001	 2.379700260624121e+000	 7.159519110624292e+000
 5.598376479065796e-001	 2.385179617572153e+000	 7.064632200467457e+000
 5.369970760976748e-001	 2.390425514494537e+000	 6.966469920619897e+000
 5.141707449151594e-001	 2.395439092346710e+000	 6.866773628459534e+000
 4.913619035260565e-001	 2.400221548069064e+000	 6.767072775808386e+000
 4.685737596217657e-001	 2.404774133224367e+000	 6.668685313359481e+000
 4.458094784326451e-001	 2.409098152617898e+000	 6.572718564772250e+000
 6.810165817412944e-001	 2.379462421535173e+000	 7.539051752893420e+000
 6.579216387253294e-001	 2.385951407176694e+000	 7.397531544163008e+000
 6.348240797608978e-001	 2.392200532537029e+000	 7.269251649147705e+000
 6.117273800520149e-001	 2.398210710635965e+000	 7.166280988462274e+000
 5.886349786000426e-001	 2.403982916345072e+000	 7.068792406174377e+000
 5.655502769694349e-001	 2.409518185098991e+000	 6.965952973157460e+000
 5.424766381006718e-001	 2.414817611582069e+000	 6.859834615697594e+000
 5.194173851707361e-001	 2.419882348392142e+000	 6.752291171534986e+000
 4.963758005014176e-001	 2.424713604683281e+000	 6.644958234384576e+000
 4.733551245156609e-001	 2.429312644789304e+000	 6.539253497443170e+000
 4.503585547420944e-001	 2.433680786829828e+000	 6.436377582274105e+000
 6.878955371177123e-001	 2.403497395488342e+000	 7.457194118883670e+000
 6.645673118488593e-001	 2.410051926439911e+000	 7.308837715014135e+000
 6.412364442077186e-001	 2.416364174279133e+000	 7.172735680242387e+000
 6.179064445013768e-001	 2.422435061248221e+000	 7.054610180666062e+000
 5.945807864685845e-001	 2.428265572065930e+000	 6.947002041599051e+000
 5.712629060330331e-001	 2.433856752625838e+000	 6.834148727170758e+000
 5.479562001042996e-001	 2.439209708669709e+000	 6.718243601189964e+000
 5.246640254268117e-001	 2.444325604437782e+000	 6.601255384907860e+000
 5.013896974771256e-001	 2.449205661297807e+000	 6.484927925627140e+000
 4.781364894097321e-001	 2.453851156354649e+000	 6.370780480788216e+000
 4.549076310515292e-001	 2.458263421042266e+000	 6.260108503597169e+000
 4.094168679565230e-001	 2.212437078940723e+000	 6.074255269183862e+000
 3.885356771626090e-001	 2.216199455735425e+000	 6.039362243466677e+000
 3.676820944102924e-001	 2.219754463329662e+000	 6.003798429352152e+000
 3.468589045682614e-001	 2.223103438964542e+000	 5.967555157975017e+000
 3.260688503289498e-001	 2.226247763581711e+000	 5.930468407461318e+000
 3.053146315223869e-001	 2.229188860500556e+000	 5.892221542470086e+000
 2.845989044733670e-001	 2.231928194088898e+000	 5.852348331562890e+000
 2.639242814016642e-001	 2.234467268428643e+000	 5.810236227898549e+000
 2.432933298649634e-001	 2.236807625977843e+000	 5.765129898469829e+000
 2.227085722441358e-001	 2.238950846230580e+000	 5.716134986871885e+000
 2.021724852704328e-001	 2.240898544376048e+000	 5.662222094421514e+000
 4.139659442660896e-001	 2.237019713148595e+000	 6.303384367663091e+000
 3.928527402417594e-001	 2.240823894129246e+000	 6.265865711846588e+000
 3.717674510149444e-001	 2.244418401807346e+000	 6.227299695631116e+000
 3.507128923973185e-001	 2.247804588282233e+000	 6.187758107876733e+000
 3.296918375556776e-001	 2.250983849839349e+000	 6.147152042163491e+000
 3.087070163181624e-001	 2.253957625612741e+000	 6.105234642304778e+000
 2.877611145242888e-001	 2.256727396240981e+000	 6.061604137123535e+000
 2.668567734184953e-001	 2.259294682517994e+000	 6.015707149579952e+000
 2.459965890868866e-001	 2.261661044040255e+000	 5.966842265045715e+000
 2.251831119367892e-001	 2.263828077851780e+000	 5.914163843276928e+000
 2.044188462186914e-001	 2.265797417088305e+000	 5.856686058455310e+000
 4.185150205756415e-001	 2.261602347356972e+000	 6.482118376370919e+000
 3.971698033207161e-001	 2.265448332523665e+000	 6.442615312429715e+000
 3.758528076192648e-001	 2.269082340285696e+000	 6.401909231416202e+000
 3.545668802259480e-001	 2.272505737600639e+000	 6.360152507809779e+000
 3.333148247819216e-001	 2.275719936097731e+000	 6.317331232344244e+000
 3.120994011134391e-001	 2.278726390725677e+000	 6.273267967414259e+000
 2.909233245747360e-001	 2.281526598393801e+000	 6.227624803492767e+000
 2.697892654349163e-001	 2.284122096608050e+000	 6.179906701224539e+000
 2.486998483085034e-001	 2.286514462103323e+000	 6.129465103551210e+000
 2.276576516292784e-001	 2.288705309473562e+000	 6.075501801967119e+000
 2.066652071669667e-001	 2.290696289801054e+000	 6.017073040809957e+000
 4.230640968851787e-001	 2.286184981565858e+000	 6.611858464515233e+000
 4.014868663994790e-001	 2.290072770918680e+000	 6.570926021624219e+000
 3.799381642232539e-001	 2.293746278764711e+000	 6.528855657237887e+000
 3.584208680541493e-001	 2.297206886919757e+000	 6.485880523145836e+000
 3.369378120076820e-001	 2.300456022356852e+000	 6.442061650599811e+000
 3.154917859082165e-001	 2.303495155839361e+000	 6.397290719517793e+000
 2.940855346247088e-001	 2.306325800547358e+000	 6.351293140763709e+000
 2.727217574509270e-001	 2.308949510698813e+000	 6.303631435730640e+000
 2.514031075298134e-001	 2.311367880167042e+000	 6.253708897126077e+000
 2.301321913216034e-001	 2.313582541095925e+000	 6.200773514587414e+000
 2.089115681152584e-001	 2.315595162514295e+000	 6.143922148551013e+000
 4.276131731947014e-001	 2.310767615775252e+000	 6.693976424325251e+000
 4.058039294780481e-001	 2.314697209314293e+000	 6.652084609729951e+000
 3.840235208269116e-001	 2.318410217244391e+000	 6.609340664702270e+000
 3.622748558819228e-001	 2.321908036239591e+000	 6.566058772356471e+000
 3.405607992329587e-001	 2.325192108616718e+000	 6.522374907978795e+000
 3.188841707024949e-001	 2.328263920953794e+000	 6.478249625916947e+000
 2.972477446742072e-001	 2.331125002701653e+000	 6.433471171934345e+000
 2.756542494665275e-001	 2.333776924790280e+000	 6.387658904798337e+000
 2.541063667508167e-001	 2.336221298231415e+000	 6.340267010531595e+000
 2.326067310137641e-001	 2.338459772718871e+000	 6.290588492466299e+000
 2.111579290635668e-001	 2.340494035228026e+000	 6.237759420023732e+000
 4.321622495042093e-001	 2.335350249985153e+000	 6.729816217208164e+000
 4.101209925564234e-001	 2.339321647710502e+000	 6.687351125470275e+000
 3.881088774302378e-001	 2.343074155724738e+000	 6.644540433802426e+000
 3.661288437092683e-001	 2.346609185560138e+000	 6.601779671586706e+000
 3.441837864577516e-001	 2.349928194877323e+000	 6.559279820378833e+000
 3.222765554962742e-001	 2.353032686068978e+000	 6.517070122360032e+000
 3.004099547232311e-001	 2.355924204856685e+000	 6.475001226965768e+000
 2.785867414817179e-001	 2.358604338882451e+000	 6.432748658992370e+000
 2.568096259715134e-001	 2.361074716296441e+000	 6.389816591117730e+000
 2.350812707057604e-001	 2.363337004342399e+000	 6.345541903474392e+000
 2.134042900118918e-001	 2.365392907942251e+000	 6.299098512681089e+000
 4.367113258137025e-001	 2.359932884195560e+000	 6.720695423270972e+000
 4.144380556346050e-001	 2.363946086107308e+000	 6.677960287740548e+000
 3.921942340332327e-001	 2.367738094205750e+000	 6.635606961648897e+000
 3.699828315361858e-001	 2.371310334881399e+000	 6.594112695193254e+000
 3.478067736820607e-001	 2.374664281138672e+000	 6.553763595794984e+000
 3.256689402895543e-001	 2.377801451184912e+000	 6.514657461976771e+000
 3.035721647717806e-001	 2.380723407012454e+000	 6.476706968460952e+000
 2.815192334964980e-001	 2.383431752975329e+000	 6.439643185301677e+000
 2.595128851919035e-001	 2.385928134362120e+000	 6.403019413479550e+000
 2.375558103975927e-001	 2.388214235966510e+000	 6.366215319079541e+000
 2.156506509602334e-001	 2.390291780656967e+000	 6.328441347921016e+000
 4.412604021231812e-001	 2.384515518406475e+000	 6.667906601181531e+000
 4.187551187125927e-001	 2.388570524504710e+000	 6.625122791269675e+000
 3.962795906358961e-001	 2.392402032687428e+000	 6.583669309009355e+000
 3.738368193626754e-001	 2.396011484203374e+000	 6.544105558310453e+000
 3.514297609058862e-001	 2.399400367400761e+000	 6.506792948128219e+000
 3.290613250823354e-001	 2.402570216301594e+000	 6.471897755619777e+000
 3.067343748198556e-001	 2.405522609168960e+000	 6.439394353899921e+000
 2.844517255108681e-001	 2.408259167068911e+000	 6.409068786704562e+000
 2.622161444119869e-001	 2.410781552428453e+000	 6.380522671867726e+000
 2.400303500892606e-001	 2.413091467591202e+000	 6.353177415192798e+000
 2.178970119085915e-001	 2.415190653372174e+000	 6.326278716038579e+000
 4.458094784326451e-001	 2.409098152617898e+000	 6.572718564772250e+000
 4.230721817903867e-001	 2.413194962902710e+000	 6.530026532342672e+000
 4.003649472382280e-001	 2.417065971169771e+000	 6.489834770530499e+000
 3.776908071887371e-001	 2.420712633526063e+000	 6.452785327014779e+000
 3.550527481292279e-001	 2.424136453663593e+000	 6.419315142803000e+000
 3.324537098746174e-001	 2.427338981419025e+000	 6.389658948510985e+000
 3.098965848674561e-001	 2.430321811326204e+000	 6.363852538961752e+000
 2.873842175248279e-001	 2.433086581163198e+000	 6.341736407884385e+000
 2.649194036317636e-001	 2.435634970495439e+000	 6.322959724083765e+000
 2.425048897807642e-001	 2.437968699216476e+000	 6.306984630104314e+000
 2.201433728569663e-001	 2.440089526087873e+000	 6.293090844139122e+000
 4.503585547420944e-001	 2.433680786829828e+000	 6.436377582274105e+000
 4.273892448679870e-001	 2.437819401301307e+000	 6.393837760237321e+000
 4.044503038402286e-001	 2.441729909652781e+000	 6.355189974037008e+000
 3.815447950143708e-001	 2.445413782849466e+000	 6.321159461206849e+000
 3.586757353520860e-001	 2.448872539927167e+000	 6.292258979013082e+000
 3.358460946664003e-001	 2.452107746537208e+000	 6.268791737698132e+000
 3.130587949145822e-001	 2.455121013484185e+000	 6.250854726101042e+000
 2.903167095383775e-001	 2.457913995258191e+000	 6.238342410900211e+000
 2.676226628512337e-001	 2.460488388563079e+000	 6.230950790290275e+000
 2.449794294721036e-001	 2.462845930842334e+000	 6.228181782545477e+000
 2.223897338053576e-001	 2.464988398804064e+000	 6.229347929632303e+000
 4.549076310515292e-001	 2.458263421042266e+000	 6.260108503597169e+000
 4.317063079453936e-001	 2.462443839700501e+000	 6.217702159574087e+000
 4.085356604418978e-001	 2.466393848136456e+000	 6.180801913872433e+000
 3.853987828395767e-001	 2.470114932173584e+000	 6.150216794919473e+000
 3.622987225744604e-001	 2.473608626191484e+000	 6.126535713033681e+000
 3.392384794576842e-001	 2.476876511656140e+000	 6.110130434463371e+000
 3.162210049612340e-001	 2.479920215642903e+000	 6.101158962208922e+000
 2.932492015515172e-001	 2.482741409353889e+000	 6.099569304318202e+000
 2.703259220703973e-001	 2.485341806631373e+000	 6.105103609893060e+000
 2.474539691632788e-001	 2.487723162468773e+000	 6.117302652667111e+000
 2.246360947537655e-001	 2.489887271520747e+000	 6.135510641717600e+000
 2.021724852704328e-001	 2.240898544376048e+000	 5.662222094421514e+000
 1.816874995949720e-001	 2.242652369958055e+000	 5.607019949120792e+000
 1.612559993974847e-001	 2.244214005536660e+000	 5.564404456746459e+000
 1.408803220354768e-001	 2.245585165352947e+000	 5.532887707597012e+000
 1.205627577348666e-001	 2.246767593997911e+000	 5.510848668368790e+000
 1.003055493189618e-001	 2.247763065087045e+000	 5.496538476346124e+000
 8.011089197596211e-002	 2.248573379941687e+000	 5.488085866618015e+000
 5.998093306429295e-002	 2.249200366278207e+000	 5.483502716471371e+000
 3.991777195504935e-002	 2.249645876906150e+000	 5.480689691319384e+000
 1.992345991080419e-002	 2.249911788436346e+000	 5.477441976787834e+000
 0.000000000000000e+000	 2.250000000000000e+000	 5.471455081867000e+000
 2.044188462186914e-001	 2.265797417088305e+000	 5.856686058455310e+000
 1.837062495910136e-001	 2.267570729621807e+000	 5.803031618675337e+000
 1.630477327244405e-001	 2.269149716707362e+000	 5.760278527274526e+000
 1.424456589471164e-001	 2.270536111633176e+000	 5.726967917550199e+000
 1.219023439319140e-001	 2.271731678374588e+000	 5.701504420159089e+000
 1.014200554223994e-001	 2.272738210253934e+000	 5.682161524965574e+000
 8.100101299775198e-002	 2.273557528607231e+000	 5.667087081997670e+000
 6.064738787593482e-002	 2.274191481458810e+000	 5.654308925239434e+000
 4.036130275438802e-002	 2.274641942204989e+000	 5.641740603210288e+000
 2.014483168749037e-002	 2.274910808307830e+000	 5.627187200537884e+000
 0.000000000000000e+000	 2.275000000000000e+000	 5.608351235025789e+000
 2.066652071669667e-001	 2.290696289801054e+000	 6.017073040809957e+000
 1.857249995872511e-001	 2.292489089285958e+000	 5.966904466896518e+000
 1.648394660517300e-001	 2.294085427878376e+000	 5.926206856941618e+000
 1.440109958591867e-001	 2.295487057913643e+000	 5.893548156941702e+000
 1.232419301294486e-001	 2.296695762751441e+000	 5.867356214391373e+000
 1.025345615263407e-001	 2.297713355420943e+000	 5.845924214637096e+000
 8.189113402002246e-002	 2.298541677272851e+000	 5.827416262573149e+000
 6.131384268799495e-002	 2.299182596639456e+000	 5.809873092979983e+000
 4.080483355404375e-002	 2.299638007503848e+000	 5.791217893019516e+000
 2.036620346435405e-002	 2.299909828179321e+000	 5.769262220669561e+000
 0.000000000000000e+000	 2.300000000000000e+000	 5.741712003169254e+000
 2.089115681152584e-001	 2.315595162514295e+000	 6.143922148551013e+000
 1.877437495836842e-001	 2.317407448950504e+000	 6.099121077603845e+000
 1.666311993793531e-001	 2.319021139049704e+000	 6.062614488165632e+000
 1.455763327716877e-001	 2.320438004194348e+000	 6.032994954258882e+000
 1.245815163274705e-001	 2.321659847128467e+000	 6.008711137298627e+000
 1.036490676307859e-001	 2.322688500588074e+000	 5.988073303799440e+000
 8.278125504277363e-002	 2.323525825938548e+000	 5.969258994819401e+000
 6.198029750047333e-002	 2.324173711820144e+000	 5.950318829993943e+000
 4.124836435401658e-002	 2.324634072802725e+000	 5.929182429225060e+000
 2.058757524139525e-002	 2.324908848050816e+000	 5.903664435360637e+000
 0.000000000000000e+000	 2.325000000000000e+000	 5.871470621494709e+000
 2.111579290635668e-001	 2.340494035228026e+000	 6.237759420023732e+000
 1.897624995803131e-001	 2.342325808615447e+000	 6.200151908529772e+000
 1.684229327073099e-001	 2.343956850221343e+000	 6.169915429351333e+000
 1.471416696846195e-001	 2.345388950475293e+000	 6.145665043562300e+000
 1.259211025259797e-001	 2.346623931505669e+000	 6.125867865806952e+000
 1.047635737357348e-001	 2.347663645755325e+000	 6.108848670211536e+000
 8.367137606600540e-002	 2.348509974604322e+000	 6.092795654592235e+000
 6.264675231337000e-002	 2.349164827000876e+000	 6.075766345342997e+000
 4.169189515430646e-002	 2.349630138101622e+000	 6.055693625607352e+000
 2.080894701861396e-002	 2.349907867922315e+000	 6.030391869599924e+000
 0.000000000000000e+000	 2.350000000000000e+000	 5.997563166254619e+000
 2.134042900118918e-001	 2.365392907942251e+000	 6.299098512681089e+000
 1.917812495771378e-001	 2.367244168280787e+000	 6.270455929534860e+000
 1.702146660356004e-001	 2.368892561393295e+000	 6.248513235627769e+000
 1.487070065979819e-001	 2.370339896756475e+000	 6.231905879981579e+000
 1.272606887249762e-001	 2.371588015883045e+000	 6.219117110130064e+000
 1.058780798411875e-001	 2.372638790922696e+000	 6.208483673092859e+000
 8.456149708971783e-002	 2.373494123270175e+000	 6.198201681371499e+000
 6.331320712668491e-002	 2.374155942181651e+000	 6.186332625862488e+000
 4.213542595491342e-002	 2.374626203400537e+000	 6.170809517812237e+000
 2.103031879601018e-002	 2.374906887793820e+000	 6.149443142196965e+000
 0.000000000000000e+000	 2.375000000000000e+000	 6.119928405227666e+000
 2.156506509602334e-001	 2.390291780656967e+000	 6.328441347921016e+000
 1.937999995741583e-001	 2.392162527946525e+000	 6.310481220935471e+000
 1.720063993642245e-001	 2.393828272565560e+000	 6.298801553290078e+000
 1.502723435117751e-001	 2.395290843037896e+000	 6.292056122993151e+000
 1.286002749244599e-001	 2.396552100260596e+000	 6.288742028702536e+000
 1.069925859471440e-001	 2.397613936090189e+000	 6.287205492630978e+000
 8.545161811391089e-002	 2.398478271936103e+000	 6.285647835364038e+000
 6.397966194041810e-002	 2.399147057362470e+000	 6.282131603984788e+000
 4.257895675583746e-002	 2.399622268699472e+000	 6.274586835128633e+000
 2.125169057358391e-002	 2.399905907665330e+000	 6.260817434854054e+000
 0.000000000000000e+000	 2.400000000000000e+000	 6.238507657535050e+000
 2.178970119085915e-001	 2.415190653372174e+000	 6.326278716038579e+000
 1.958187495713746e-001	 2.417080887612659e+000	 6.320665534819023e+000
 1.737981326931824e-001	 2.418763983738137e+000	 6.321164630563903e+000
 1.518376804259990e-001	 2.420241789319556e+000	 6.326446089804382e+000
 1.299398611244309e-001	 2.421516184638321e+000	 6.335018617447036e+000
 1.081070920536042e-001	 2.422589081257802e+000	 6.345235448488418e+000
 8.634173913858456e-002	 2.423462420602109e+000	 6.355300438703399e+000
 6.464611675456952e-002	 2.424138172543332e+000	 6.363274315183667e+000
 4.302248755707858e-002	 2.424618333998426e+000	 6.367081067826780e+000
 2.147306235133515e-002	 2.424904927536844e+000	 6.364514463150885e+000
 0.000000000000000e+000	 2.425000000000000e+000	 6.353244662127849e+000
 2.201433728569663e-001	 2.440089526087873e+000	 6.293090844139122e+000
 1.978374995687866e-001	 2.441999247279191e+000	 6.301436821995485e+000
 1.755898660224739e-001	 2.443699694911027e+000	 6.315977797098425e+000
 1.534030173406536e-001	 2.445192735601454e+000	 6.335398180979325e+000
 1.312794473248892e-001	 2.446480269016221e+000	 6.358216075208134e+000
 1.092215981605683e-001	 2.447564226425537e+000	 6.382789298808589e+000
 8.723186016373889e-002	 2.448446569268192e+000	 6.407321601882504e+000
 6.531257156913924e-002	 2.449129287724237e+000	 6.429869045778379e+000
 4.346601835863679e-002	 2.449614399297399e+000	 6.448346530373354e+000
 2.169443412926390e-002	 2.449903947408363e+000	 6.460534449305990e+000
 0.000000000000000e+000	 2.449999999999999e+000	 6.464085454326311e+000
 2.223897338053576e-001	 2.464988398804064e+000	 6.229347929632303e+000
 1.998562495663943e-001	 2.466917606946119e+000	 6.253213727011353e+000
 1.773815993520991e-001	 2.468635406084229e+000	 6.283607914400466e+000
 1.549683542557389e-001	 2.470143681883590e+000	 6.319227280269844e+000
 1.326190335258348e-001	 2.471444353394296e+000	 6.358597147039439e+000
 1.103361042680361e-001	 2.472539371593392e+000	 6.400077521101508e+000
 8.812198118937387e-002	 2.473430717934352e+000	 6.441869436461469e+000
 6.597902638412719e-002	 2.474120402905185e+000	 6.482021471778750e+000
 4.390954916051204e-002	 2.474610464596391e+000	 6.518436420815595e+000
 2.191580590737017e-002	 2.474902967279886e+000	 6.548878096589115e+000
 0.000000000000000e+000	 2.474999999999999e+000	 6.570978249841853e+000
 2.246360947537655e-001	 2.489887271520747e+000	 6.135510641717600e+000
 2.018749995641979e-001	 2.491835966613445e+000	 6.176406053461902e+000
 1.791733326820581e-001	 2.493571117257746e+000	 6.224413799240395e+000
 1.565336911712550e-001	 2.495094628165966e+000	 6.278241130455763e+000
 1.339586197272678e-001	 2.496408437772546e+000	 6.336418446893100e+000
 1.114506103760078e-001	 2.497514516761370e+000	 6.397305576274349e+000
 8.901210221548951e-002	 2.498414866600589e+000	 6.459098255016145e+000
 6.664548119953342e-002	 2.499111518086177e+000	 6.519834789401797e+000
 4.435307996270441e-002	 2.499606529895403e+000	 6.577402876602011e+000
 2.213717768565395e-002	 2.499901987151415e+000	 6.629546565268675e+000
 0.000000000000000e+000	 2.500000000000000e+000	 6.673873335757466e+000
 2.500000000000000e+000	 0.000000000000000e+000	 1.114925479247668e+001
 2.499901987151415e+000	 2.213717768565403e-002	 1.125824542082039e+001
 2.499606529895403e+000	 4.435307996270457e-002	 1.134542226747511e+001
 2.499111518086177e+000	 6.664548119953326e-002	 1.141284882026470e+001
 2.498414866600589e+000	 8.901210221548944e-002	 1.146269929422934e+001
 2.497514516761369e+000	 1.114506103760078e-001	 1.149725808629470e+001
 2.496408437772546e+000	 1.339586197272678e-001	 1.151891900291614e+001
 2.495094628165966e+000	 1.565336911712552e-001	 1.153018425442863e+001
 2.493571117257746e+000	 1.791733326820579e-001	 1.153366321018853e+001
 2.491835966613445e+000	 2.018749995641979e-001	 1.153207090898694e+001
 2.489887271520747e+000	 2.246360947537655e-001	 1.152822631963695e+001
 2.525000000000000e+000	 0.000000000000000e+000	 1.112932187692952e+001
 2.524901007022946e+000	 2.235854946393780e-002	 1.123320251792227e+001
 2.524602595194425e+000	 4.479661076489691e-002	 1.130786325428026e+001
 2.524102633267189e+000	 6.731193601493948e-002	 1.135660841772804e+001
 2.523399015266865e+000	 8.990222324160507e-002	 1.138280252818314e+001
 2.522489661929406e+000	 1.125651164839795e-001	 1.138987049220413e+001
 2.521372522150882e+000	 1.352982059287007e-001	 1.138129780153205e+001
 2.520045574448461e+000	 1.580990280867712e-001	 1.136063073016022e+001
 2.518506828431417e+000	 1.809650660120168e-001	 1.133147652815288e+001
 2.516754326280969e+000	 2.038937495620014e-001	 1.129750361021665e+001
 2.514786144237676e+000	 2.268824557021734e-001	 1.126244173680295e+001
 2.550000000000000e+000	 0.000000000000000e+000	 1.111367313368758e+001
 2.549900026894477e+000	 2.257992124204407e-002	 1.121604141479290e+001
 2.549598660493445e+000	 4.524014156677218e-002	 1.129040328716261e+001
 2.549093748448203e+000	 6.797839082992745e-002	 1.134002941895278e+001
 2.548383163933140e+000	 9.079234426724003e-002	 1.136824874695124e+001
 2.547464807097442e+000	 1.136796225914473e-001	 1.137844872830795e+001
 2.546336606529218e+000	 1.366377921296463e-001	 1.137407559791819e+001
 2.544996520730955e+000	 1.596643650018565e-001	 1.135863462993288e+001
 2.543442539605088e+000	 1.827567993416420e-001	 1.133569040163873e+001
 2.541672685948493e+000	 2.059124995596092e-001	 1.130886705772167e+001
 2.539685016954604e+000	 2.291288166505647e-001	 1.128184857268309e+001
 2.575000000000000e+000	 0.000000000000000e+000	 1.110051828928667e+001
 2.574899046766007e+000	 2.280129301997283e-002	 1.120034711458524e+001
 2.574594725792466e+000	 4.568367236833036e-002	 1.127338208121541e+001
 2.574084863629216e+000	 6.864484564449713e-002	 1.132285889796049e+001
 2.573367312599416e+000	 9.168246529239436e-002	 1.135206958935439e+001
 2.572439952265480e+000	 1.147941286984114e-001	 1.136436280247569e+001
 2.571300690907555e+000	 1.379773783301046e-001	 1.136314412508055e+001
 2.569947467013449e+000	 1.612297019165111e-001	 1.135187641358561e+001
 2.568378250778760e+000	 1.845485326709336e-001	 1.133408012916597e+001
 2.566591045616016e+000	 2.079312495570212e-001	 1.131333367999078e+001
 2.564583889671532e+000	 2.313751775989394e-001	 1.129327376735810e+001
 2.600000000000000e+000	 0.000000000000000e+000	 1.108813592693755e+001
 2.599898066637538e+000	 2.302266479772407e-002	 1.118451880873234e+001
 2.599590791091487e+000	 4.612720316957149e-002	 1.125532032497929e+001
 2.599075978810229e+000	 6.931130045864856e-002	 1.130373987676110e+001
 2.598351461265692e+000	 9.257258631706805e-002	 1.133303119324757e+001
 2.597415097433516e+000	 1.159086348048716e-001	 1.134650269536108e+001
 2.596264775285892e+000	 1.393169645300756e-001	 1.134751787659431e+001
 2.594898413295944e+000	 1.627950388307350e-001	 1.133949569952746e+001
 2.593313961952431e+000	 1.863402659998913e-001	 1.132591100633465e+001
 2.591509405283540e+000	 2.099499995542374e-001	 1.131029494130726e+001
 2.589482762388461e+000	 2.336215385472976e-001	 1.129623538314927e+001
 2.625000000000000e+000	 0.000000000000000e+000	 1.107487020763678e+001
 2.624897086509069e+000	 2.324403657529780e-002	 1.116701927370829e+001
 2.624586856390508e+000	 4.657073397049554e-002	 1.123480027918066e+001
 2.624067093991241e+000	 6.997775527238173e-002	 1.128137491712427e+001
 2.623335609931968e+000	 9.346270734126111e-002	 1.130995718480831e+001
 2.622390242601552e+000	 1.170231409108282e-001	 1.132381380607090e+001
 2.621228859664228e+000	 1.406565507295594e-001	 1.132626467678421e+001
 2.619849359578439e+000	 1.643603757445282e-001	 1.132068333199905e+001
 2.618249673126103e+000	 1.881319993285156e-001	 1.131049743308118e+001
 2.616427764951064e+000	 2.119687495512579e-001	 1.129918927287531e+001
 2.614381635105390e+000	 2.358678994956392e-001	 1.129029629664030e+001
 2.650000000000000e+000	 0.000000000000000e+000	 1.105912777687462e+001
 2.649896106380600e+000	 2.346540835269402e-002	 1.114637187173362e+001
 2.649582921689528e+000	 4.701426477110250e-002	 1.121046287238331e+001
 2.649058209172255e+000	 7.064421008569664e-002	 1.125452331210019e+001
 2.648319758598243e+000	 9.435282836497354e-002	 1.128172596682303e+001
 2.647365387769589e+000	 1.181376470162808e-001	 1.129529433808649e+001
 2.646192944042564e+000	 1.419961369285558e-001	 1.129850316512348e+001
 2.644800305860933e+000	 1.659257126578906e-001	 1.129467896475964e+001
 2.643185384299773e+000	 1.899237326568060e-001	 1.128720059743589e+001
 2.641346124618587e+000	 2.139874995480826e-001	 1.127949985739941e+001
 2.639280507822317e+000	 2.381142604439641e-001	 1.127506208479727e+001
 2.675000000000000e+000	 0.000000000000000e+000	 1.103937484479881e+001
 2.674895126252130e+000	 2.368678012991273e-002	 1.112115771966559e+001
 2.674578986988550e+000	 4.745779557139240e-002	 1.118100495950072e+001
 2.674049324353267e+000	 7.131066489859329e-002	 1.122199843502478e+001
 2.673303907264519e+000	 9.524294938820532e-002	 1.124726815903242e+001
 2.672340532937625e+000	 1.192521531212298e-001	 1.125999283176990e+001
 2.671157028420902e+000	 1.433357231270650e-001	 1.126340042169383e+001
 2.669751252143427e+000	 1.674910495708224e-001	 1.126076878026884e+001
 2.668121095473446e+000	 1.917154659847628e-001	 1.125542628916388e+001
 2.666264484286111e+000	 2.160062495447115e-001	 1.125075253789298e+001
 2.664179380539246e+000	 2.403606213922725e-001	 1.125017902962380e+001
 2.699999999999999e+000	 0.000000000000000e+000	 1.101413442859141e+001
 2.699894146123661e+000	 2.390815190695394e-002	 1.109001301517260e+001
 2.699575052287571e+000	 4.790132637136522e-002	 1.114517673261260e+001
 2.699040439534280e+000	 7.197711971107168e-002	 1.118266523580337e+001
 2.698288055930795e+000	 9.613307041095645e-002	 1.120556418068004e+001
 2.697315678105662e+000	 1.203666592256749e-001	 1.121700583395256e+001
 2.696121112799238e+000	 1.446753093250869e-001	 1.122016972456488e+001
 2.694702198425921e+000	 1.690563864833234e-001	 1.121828333557981e+001
 2.693056806647117e+000	 1.935071993123860e-001	 1.121462283486952e+001
 2.691182843953635e+000	 2.180249995411447e-001	 1.121251384266404e+001
 2.689078253256174e+000	 2.426069823405643e-001	 1.121533223366862e+001
 2.724999999999999e+000	 0.000000000000000e+000	 1.098198374664138e+001
 2.724893165995192e+000	 2.412952368381761e-002	 1.105162651009093e+001
 2.724571117586591e+000	 4.834485717102095e-002	 1.110177927430641e+001
 2.724031554715293e+000	 7.264357452313183e-002	 1.113543787501218e+001
 2.723272204597070e+000	 9.702319143322696e-002	 1.115564196613113e+001
 2.722290823273699e+000	 1.214811653296163e-001	 1.116547569580365e+001
 2.721085197177575e+000	 1.460148955226216e-001	 1.116806843062042e+001
 2.719653144708416e+000	 1.706217233953938e-001	 1.116659552680776e+001
 2.717992517820789e+000	 1.952989326396755e-001	 1.116427914676569e+001
 2.716101203621158e+000	 2.200437495373821e-001	 1.116438911901721e+001
 2.713977125973103e+000	 2.448533432888396e-001	 1.117024383926655e+001
 2.750000000000000e+000	 0.000000000000000e+000	 1.094155175485327e+001
 2.749892185866724e+000	 2.435089546050380e-002	 1.100473712159910e+001
 2.749567182885613e+000	 4.878838797035964e-002	 1.104966224447211e+001
 2.749022669896307e+000	 7.331002933477374e-002	 1.107927748705008e+001
 2.748256353263346e+000	 9.791331245501686e-002	 1.109657480509444e+001
 2.747265968441735e+000	 1.225956714330539e-001	 1.110458849081464e+001
 2.746049281555912e+000	 1.473544817196689e-001	 1.110639597197583e+001
 2.744604090990912e+000	 1.721870603070334e-001	 1.110511866462695e+001
 2.742928228994461e+000	 1.970906659666313e-001	 1.110392287787320e+001
 2.741019563288683e+000	 2.220624995334238e-001	 1.110602076875425e+001
 2.738875998690032e+000	 2.470997042370982e-001	 1.111467134491219e+001
 2.489887271520747e+000	 2.246360947537655e-001	 1.152822631963695e+001
 2.487723162468774e+000	 2.474539691632789e-001	 1.151954339854317e+001
 2.485341806631373e+000	 2.703259220703974e-001	 1.151115197438933e+001
 2.482741409353889e+000	 2.932492015515169e-001	 1.150600012598602e+001
 2.479920215642903e+000	 3.162210049612338e-001	 1.150712955338522e+001
 2.476876511656140e+000	 3.392384794576842e-001	 1.151767267291498e+001
 2.473608626191484e+000	 3.622987225744604e-001	 1.154084944680866e+001
 2.470114932173583e+000	 3.853987828395769e-001	 1.157996394608647e+001
 2.466393848136456e+000	 4.085356604418977e-001	 1.163840064600636e+001
 2.462443839700501e+000	 4.317063079453934e-001	 1.171962045408923e+001
 2.458263421042266e+000	 4.549076310515292e-001	 1.182715647143410e+001
 2.514786144237676e+000	 2.268824557021734e-001	 1.126244173680295e+001
 2.512600394095503e+000	 2.499285088544540e-001	 1.121951490293833e+001
 2.510195224699992e+000	 2.730291812895608e-001	 1.117974117615883e+001
 2.507568823449939e+000	 2.961816935646565e-001	 1.114688490621937e+001
 2.504719417801990e+000	 3.193832150078854e-001	 1.112477198969650e+001
 2.501645276775446e+000	 3.426308642489679e-001	 1.111729010475886e+001
 2.498344712456170e+000	 3.659217097968348e-001	 1.115801000240091e+001
 2.494816081498057e+000	 3.892527706647826e-001	 1.124677134825697e+001
 2.491057786620465e+000	 4.126210170435669e-001	 1.135495266495789e+001
 2.487068278099993e+000	 4.360233710227999e-001	 1.148608313196723e+001
 2.482846055254957e+000	 4.594567073609637e-001	 1.164376608345180e+001
 2.539685016954604e+000	 2.291288166505647e-001	 1.128184857268309e+001
 2.537477625722233e+000	 2.524030485457934e-001	 1.124351202890716e+001
 2.535048642768611e+000	 2.757324405090310e-001	 1.120912455377824e+001
 2.532396237545989e+000	 2.991141855782061e-001	 1.118241968318133e+001
 2.529518619961077e+000	 3.225454250550114e-001	 1.116719173070982e+001
 2.526414041894753e+000	 3.460232490407508e-001	 1.116729612086234e+001
 2.523080798720856e+000	 3.695446970196928e-001	 1.118664970468288e+001
 2.519517230822531e+000	 3.931067584904164e-001	 1.122923105373342e+001
 2.515721725104473e+000	 4.167063736455674e-001	 1.129908072802283e+001
 2.511692716499485e+000	 4.403404341004001e-001	 1.140030151326020e+001
 2.507428689467647e+000	 4.640057836704130e-001	 1.153705862254354e+001
 2.564583889671532e+000	 2.313751775989394e-001	 1.129327376735810e+001
 2.562354857348963e+000	 2.548775882372970e-001	 1.125916753720102e+001
 2.559902060837231e+000	 2.784356997288078e-001	 1.122979347781348e+001
 2.557223651642040e+000	 3.020466775921658e-001	 1.120885250467637e+001
 2.554317822120163e+000	 3.257076351026120e-001	 1.120010552663854e+001
 2.551182807014058e+000	 3.494156338330328e-001	 1.120737388065349e+001
 2.547816884985543e+000	 3.731676842430345e-001	 1.123453975362788e+001
 2.544218380147005e+000	 3.969607463164779e-001	 1.128554658713759e+001
 2.540385663588481e+000	 4.207917302478994e-001	 1.136439946048367e+001
 2.536317154898976e+000	 4.446574971781940e-001	 1.147516544728516e+001
 2.532011323680339e+000	 4.685548599798769e-001	 1.162197394053210e+001
 2.589482762388461e+000	 2.336215385472976e-001	 1.129623538314927e+001
 2.587232088975693e+000	 2.573521279289648e-001	 1.126610515180637e+001
 2.584755478905850e+000	 2.811389589488911e-001	 1.124147756889606e+001
 2.582051065738090e+000	 3.049791696065358e-001	 1.122601906513060e+001
 2.579117024279250e+000	 3.288698451506871e-001	 1.122345526408386e+001
 2.575951572133364e+000	 3.528080186258139e-001	 1.123757152162892e+001
 2.572552971250230e+000	 3.767906714668600e-001	 1.127221345727682e+001
 2.568919529471479e+000	 4.008147341429675e-001	 1.133128747303438e+001
 2.565049602072488e+000	 4.248770868505627e-001	 1.141876125509754e+001
 2.560941593298468e+000	 4.489745602561819e-001	 1.153866425340230e+001
 2.556593957893029e+000	 4.731039362893555e-001	 1.169508813376305e+001
 2.614381635105390e+000	 2.358678994956392e-001	 1.129029629664030e+001
 2.612109320602422e+000	 2.598266676207970e-001	 1.126399205528521e+001
 2.609608896974470e+000	 2.838422181692812e-001	 1.124394853924454e+001
 2.606878479834139e+000	 3.079116616213161e-001	 1.123379577270105e+001
 2.603916226438337e+000	 3.320320551992365e-001	 1.123722215510034e+001
 2.600720337252670e+000	 3.562004034190940e-001	 1.125797510849867e+001
 2.597289057514916e+000	 3.804136586911692e-001	 1.129986172172437e+001
 2.593620678795953e+000	 4.046687219698851e-001	 1.136674938682818e+001
 2.589713540556496e+000	 4.289624434535576e-001	 1.146256642297971e+001
 2.585566031697960e+000	 4.532916233343634e-001	 1.159130268265239e+001
 2.581176592105721e+000	 4.776530125988487e-001	 1.175701013462757e+001
 2.639280507822317e+000	 2.381142604439641e-001	 1.127506208479727e+001
 2.636986552229153e+000	 2.623012073127934e-001	 1.125253683884262e+001
 2.634462315043090e+000	 2.865454773899779e-001	 1.123701820721259e+001
 2.631705893930190e+000	 3.108441536365064e-001	 1.123209782881674e+001
 2.628715428597424e+000	 3.351942652482604e-001	 1.124142488222162e+001
 2.625489102371976e+000	 3.595927882128733e-001	 1.126870684416678e+001
 2.622025143779603e+000	 3.840366459159622e-001	 1.131771024993108e+001
 2.618321828120427e+000	 4.085227097972307e-001	 1.139226145087921e+001
 2.614377479040503e+000	 4.330478000568838e-001	 1.149624736418217e+001
 2.610190470097453e+000	 4.576086864127387e-001	 1.163361620936852e+001
 2.605759226318411e+000	 4.822020889083566e-001	 1.180837822603503e+001
 2.664179380539246e+000	 2.403606213922725e-001	 1.125017902962380e+001
 2.661863783855882e+000	 2.647757470049541e-001	 1.123148756734308e+001
 2.659315733111709e+000	 2.892487366109813e-001	 1.122053662317039e+001
 2.656533308026239e+000	 3.137766456521069e-001	 1.122087741540885e+001
 2.653514630756510e+000	 3.383564752977588e-001	 1.123611784750350e+001
 2.650257867491282e+000	 3.629851730071516e-001	 1.126992338103066e+001
 2.646761230044289e+000	 3.876596331412388e-001	 1.132601791570160e+001
 2.643022977444901e+000	 4.123766976250041e-001	 1.140818467156195e+001
 2.639041417524512e+000	 4.371331566605415e-001	 1.152026706821065e+001
 2.634814908496945e+000	 4.619257494913079e-001	 1.166616959550832e+001
 2.630341860531103e+000	 4.867511652178794e-001	 1.184985866989328e+001
 2.689078253256174e+000	 2.426069823405643e-001	 1.121533223366862e+001
 2.686741015482612e+000	 2.672502866972791e-001	 1.120062995182678e+001
 2.684169151180328e+000	 2.919519958322913e-001	 1.119439029950399e+001
 2.681360722122289e+000	 3.167091376681177e-001	 1.120012198285064e+001
 2.678313832915597e+000	 3.415186853477316e-001	 1.122138951884251e+001
 2.675026632610588e+000	 3.663775578019290e-001	 1.126181422609718e+001
 2.671497316308975e+000	 3.912826203669991e-001	 1.132507522799769e+001
 2.667724126769374e+000	 4.162306854532055e-001	 1.141491046315302e+001
 2.663705356008520e+000	 4.412185132645305e-001	 1.153511769784602e+001
 2.659439346896436e+000	 4.662428125700707e-001	 1.168955553474522e+001
 2.654924494743793e+000	 4.913002415274165e-001	 1.188214441178468e+001
 2.713977125973103e+000	 2.448533432888396e-001	 1.117024383926655e+001
 2.711618247109342e+000	 2.697248263897683e-001	 1.115978562262058e+001
 2.709022569248949e+000	 2.946552550539079e-001	 1.115850053804602e+001
 2.706188136218340e+000	 3.196416296845386e-001	 1.116985263213897e+001
 2.703113035074684e+000	 3.446808953981789e-001	 1.119736086732251e+001
 2.699795397729894e+000	 3.697699425972057e-001	 1.124460023389044e+001
 2.696233402573662e+000	 3.949056075932432e-001	 1.131520287978391e+001
 2.692425276093848e+000	 4.200846732818348e-001	 1.141285925297353e+001
 2.688369294492528e+000	 4.453038698688511e-001	 1.154131925092090e+001
 2.684063785295928e+000	 4.705598756490275e-001	 1.170439337119720e+001
 2.679507128956485e+000	 4.958493178369686e-001	 1.190595385694424e+001
 2.738875998690032e+000	 2.470997042370982e-001	 1.111467134491219e+001
 2.736495478736073e+000	 2.721993660824219e-001	 1.110881049664350e+001
 2.733875987317568e+000	 2.973585142758314e-001	 1.111282184873689e+001
 2.731015550314390e+000	 3.225741217013698e-001	 1.113012258532042e+001
 2.727912237233771e+000	 3.478431054491007e-001	 1.116418388979712e+001
 2.724564162849201e+000	 3.731623273929815e-001	 1.121853218156470e+001
 2.720969488838349e+000	 3.985285948199711e-001	 1.129675037602769e+001
 2.717126425418324e+000	 4.239386611108923e-001	 1.140247916261418e+001
 2.713033232976536e+000	 4.493892264735031e-001	 1.153941829508972e+001
 2.708688223695421e+000	 4.748769387281779e-001	 1.171132788804280e+001
 2.704089763169176e+000	 5.003983941465353e-001	 1.192202971300264e+001
 2.458263421042266e+000	 4.549076310515292e-001	 1.182715647143410e+001
 2.453851156354649e+000	 4.781364894097321e-001	 1.171694123964989e+001
 2.449205661297807e+000	 5.013896974771258e-001	 1.163631426555936e+001
 2.444325604437782e+000	 5.246640254268113e-001	 1.158834411588844e+001
 2.439209708669709e+000	 5.479562001042994e-001	 1.157614418781400e+001
 2.433856752625838e+000	 5.712629060330331e-001	 1.160286769473680e+001
 2.428265572065930e+000	 5.945807864685845e-001	 1.167170242627378e+001
 2.422435061248221e+000	 6.179064445013770e-001	 1.178586528835916e+001
 2.416364174279133e+000	 6.412364442077183e-001	 1.179532538956487e+001
 2.410051926439911e+000	 6.645673118488592e-001	 1.176613241903417e+001
 2.403497395488342e+000	 6.878955371177123e-001	 1.176285376036643e+001
 2.482846055254957e+000	 4.594567073609637e-001	 1.164376608345180e+001
 2.478389667920199e+000	 4.829178543038031e-001	 1.155728836326761e+001
 2.473697717912495e+000	 5.064035944528337e-001	 1.149845332598689e+001
 2.468768860483547e+000	 5.299106656828868e-001	 1.147030771023386e+001
 2.463601805757441e+000	 5.534357621079268e-001	 1.147594497809329e+001
 2.458195320152747e+000	 5.769755350966310e-001	 1.151850026989034e+001
 2.452548227786828e+000	 6.005265943371260e-001	 1.160114512810948e+001
 2.446659411860499e+000	 6.240855089507388e-001	 1.172708199636998e+001
 2.440527816021247e+000	 6.476488086545389e-001	 1.174486841601867e+001
 2.434152445703129e+000	 6.712129849723890e-001	 1.177734391714513e+001
 2.427532369441510e+000	 6.947744924941302e-001	 1.183169418752869e+001
 2.507428689467647e+000	 4.640057836704130e-001	 1.153705862254354e+001
 2.502928179485754e+000	 4.876992191976984e-001	 1.140974619486146e+001
 2.498189774527202e+000	 5.114174914281946e-001	 1.133465001218768e+001
 2.493212116529355e+000	 5.351573059384635e-001	 1.131923504444605e+001
 2.487993902845249e+000	 5.589153241109238e-001	 1.133564192645228e+001
 2.482533887679780e+000	 5.826881641594864e-001	 1.138699311784553e+001
 2.476830883507901e+000	 6.064724022048327e-001	 1.147644937078398e+001
 2.470883762473018e+000	 6.302645733991934e-001	 1.158915243666054e+001
 2.464691457763676e+000	 6.540611731004009e-001	 1.166463778592432e+001
 2.458252964966746e+000	 6.778586580949291e-001	 1.175661275362450e+001
 2.451567343395171e+000	 7.016534478695476e-001	 1.186640436686928e+001
 2.532011323680339e+000	 4.685548599798769e-001	 1.162197394053210e+001
 2.527466691051314e+000	 4.924805840914179e-001	 1.147308531196057e+001
 2.522681831141929e+000	 5.164313884032088e-001	 1.135781618482813e+001
 2.517655372575207e+000	 5.404039461935419e-001	 1.127954389634901e+001
 2.512385999933136e+000	 5.643948861132903e-001	 1.124170241329851e+001
 2.506872455206933e+000	 5.884007932215989e-001	 1.124778324809696e+001
 2.501113539229152e+000	 6.124182100717046e-001	 1.130133633303803e+001
 2.495108113085776e+000	 6.364436378467416e-001	 1.141926223968877e+001
 2.488855099506419e+000	 6.604735375453044e-001	 1.155614733554265e+001
 2.482353484230762e+000	 6.845043312164795e-001	 1.170560302440330e+001
 2.475602317349326e+000	 7.085324032439653e-001	 1.186879619180025e+001
 2.556593957893029e+000	 4.731039362893555e-001	 1.169508813376305e+001
 2.552005202616878e+000	 4.972619489849618e-001	 1.152158371755633e+001
 2.547173887756675e+000	 5.214452853778763e-001	 1.137987801834671e+001
 2.542098628621103e+000	 5.456505864481217e-001	 1.127321805919995e+001
 2.536778097021101e+000	 5.698744481150262e-001	 1.120490833542429e+001
 2.531211022734208e+000	 5.941134222829687e-001	 1.117831197682048e+001
 2.525396194950578e+000	 6.183640179377414e-001	 1.119685187224339e+001
 2.519332463698774e+000	 6.426227022933823e-001	 1.130960902249170e+001
 2.513018741249476e+000	 6.668859019892494e-001	 1.146441064149909e+001
 2.506454003495175e+000	 6.911500043370404e-001	 1.164095006350335e+001
 2.499637291303976e+000	 7.154113586173830e-001	 1.184066987594429e+001
 2.581176592105721e+000	 4.776530125988487e-001	 1.175701013462757e+001
 2.576543714182448e+000	 5.020433138783298e-001	 1.155602774303357e+001
 2.571665944371440e+000	 5.264591823521967e-001	 1.138502394675308e+001
 2.566541884667042e+000	 5.508972267022031e-001	 1.124711483676530e+001
 2.561170194109142e+000	 5.753540101161317e-001	 1.114547483664106e+001
 2.555549590261605e+000	 5.998260513435957e-001	 1.108333811405378e+001
 2.549678850672180e+000	 6.243098258029435e-001	 1.106399995881666e+001
 2.543556814312013e+000	 6.488017667391167e-001	 1.122356027114092e+001
 2.537182382992848e+000	 6.732982664322358e-001	 1.140566049998635e+001
 2.530554522759990e+000	 6.977956774566119e-001	 1.160684346171405e+001
 2.523672265259118e+000	 7.222903139898007e-001	 1.182792217915655e+001
 2.605759226318411e+000	 4.822020889083566e-001	 1.180837822603503e+001
 2.601082225748022e+000	 5.068246787715222e-001	 1.157722891581964e+001
 2.596158000986225e+000	 5.314730793261705e-001	 1.137423742638310e+001
 2.590985140713025e+000	 5.561438669557857e-001	 1.120238819772753e+001
 2.585562291197262e+000	 5.808335721166065e-001	 1.106472488019508e+001
 2.579888157789124e+000	 6.055386804034800e-001	 1.096435199843625e+001
 2.573961506393957e+000	 6.302556336673105e-001	 1.095224121396153e+001
 2.567781164925491e+000	 6.549808311839438e-001	 1.114314002467704e+001
 2.561346024736533e+000	 6.797106308742636e-001	 1.134982705553843e+001
 2.554655042025202e+000	 7.044413505751934e-001	 1.157296903681543e+001
 2.547707239214755e+000	 7.291692693612185e-001	 1.181323694737783e+001
 2.630341860531103e+000	 4.867511652178794e-001	 1.184985866989328e+001
 2.625620737313602e+000	 5.116060436645390e-001	 1.158602278199923e+001
 2.620650057601029e+000	 5.364869762997971e-001	 1.134852200060188e+001
 2.615428396759051e+000	 5.613905072088699e-001	 1.114020829677917e+001
 2.609954388285460e+000	 5.863131341164509e-001	 1.096399374683619e+001
 2.604226725316765e+000	 6.112513094626221e-001	 1.082285245202577e+001
 2.598244162115911e+000	 6.362014415308429e-001	 1.085363884143870e+001
 2.592005515539210e+000	 6.611598956278643e-001	 1.106899284782495e+001
 2.585509666480534e+000	 6.861229953153332e-001	 1.129767527713776e+001
 2.578755561290814e+000	 7.110870236927857e-001	 1.154021089358779e+001
 2.571742213170885e+000	 7.360482247316361e-001	 1.179712914856178e+001
 2.654924494743793e+000	 4.913002415274165e-001	 1.188214441178468e+001
 2.650159248879185e+000	 5.163874085573799e-001	 1.158326779433951e+001
 2.645142114215853e+000	 5.415008732730773e-001	 1.130890036984870e+001
 2.639871652805121e+000	 5.666371474614557e-001	 1.106176072527080e+001
 2.634346485373736e+000	 5.917926961156647e-001	 1.084462846456308e+001
 2.628565292844528e+000	 6.169639385210207e-001	 1.066034638754794e+001
 2.622526817838040e+000	 6.421472493935402e-001	 1.076445387140553e+001
 2.616229866153168e+000	 6.673389600708776e-001	 1.100176418860227e+001
 2.609673308224848e+000	 6.925353597554441e-001	 1.124996746992241e+001
 2.602856080556824e+000	 7.177326968093881e-001	 1.150944696596932e+001
 2.595777187127509e+000	 7.429271801010537e-001	 1.178059105012085e+001
 2.679507128956485e+000	 4.958493178369686e-001	 1.190595385694424e+001
 2.674697760444774e+000	 5.211687734500451e-001	 1.156984426152471e+001
 2.669634170830695e+000	 5.465147702460103e-001	 1.125641351287213e+001
 2.664314908851235e+000	 5.718837877135429e-001	 1.096824580310732e+001
 2.658738582462088e+000	 5.972722581142480e-001	 1.070798726975852e+001
 2.652903860372413e+000	 6.226765675786770e-001	 1.047834843726438e+001
 2.646809473560346e+000	 6.480930572554026e-001	 1.068521799717241e+001
 2.640454216767366e+000	 6.735180245129845e-001	 1.094210033780110e+001
 2.633836949969477e+000	 6.989477241945965e-001	 1.120746339738073e+001
 2.626956599823234e+000	 7.243783699250009e-001	 1.148154930012212e+001
 2.619812161084627e+000	 7.498061354694716e-001	 1.176460572560675e+001
 2.704089763169176e+000	 5.003983941465353e-001	 1.192202971300264e+001
 2.699236272010369e+000	 5.259501383425348e-001	 1.154665335470535e+001
 2.694126227445558e+000	 5.515286672185968e-001	 1.119211985589773e+001
 2.688758164897393e+000	 5.771304279651318e-001	 1.086087790926813e+001
 2.683130679550521e+000	 6.027518201122009e-001	 1.055543909771740e+001
 2.677242427900420e+000	 6.283891966355909e-001	 1.034827930475513e+001
 2.671092129282827e+000	 6.540388651164305e-001	 1.061646698199471e+001
 2.664678567381807e+000	 6.796970889541842e-001	 1.089064839068030e+001
 2.658000591714422e+000	 7.053600886327908e-001	 1.117092039688092e+001
 2.651057119090043e+000	 7.310240430396247e-001	 1.145738432205850e+001
 2.643847135042239e+000	 7.566850908368894e-001	 1.175014747261310e+001
 2.403497395488342e+000	 6.878955371177123e-001	 1.176285376036643e+001
 2.396699722934155e+000	 7.112175744331118e-001	 1.175815196613179e+001
 2.389658115285039e+000	 7.345298442800079e-001	 1.175331535116537e+001
 2.382371845262166e+000	 7.578287345960115e-001	 1.174813269773629e+001
 2.374840252984291e+000	 7.811106022040242e-001	 1.174246694260553e+001
 2.367062747117390e+000	 8.043717742891897e-001	 1.173625827882850e+001
 2.359038805988395e+000	 8.276085499197395e-001	 1.172952713927304e+001
 2.350767978661280e+000	 8.508172016108215e-001	 1.172237705036033e+001
 2.342249885973674e+000	 8.739939769303398e-001	 1.171499734461102e+001
 2.333484221532295e+000	 8.971351001457415e-001	 1.170766572069481e+001
 2.324470752665467e+000	 9.202367739106158e-001	 1.170075063984147e+001
 2.427532369441510e+000	 6.947744924941302e-001	 1.183169418752869e+001
 2.420666720161247e+000	 7.183297501827995e-001	 1.181935769754092e+001
 2.413554696435142e+000	 7.418751427282125e-001	 1.180551748873668e+001
 2.406195563711574e+000	 7.654070219473556e-001	 1.179003140736537e+001
 2.398588655510490e+000	 7.889217082313585e-001	 1.177283610625904e+001
 2.390733374584523e+000	 8.124154920372166e-001	 1.175395020187969e+001
 2.382629194043878e+000	 8.358846354238423e-001	 1.173347730576559e+001
 2.374275658443167e+000	 8.593253736315351e-001	 1.171160891852923e+001
 2.365672384828394e+000	 8.827339167038775e-001	 1.168862717464255e+001
 2.356819063742346e+000	 9.061064511509911e-001	 1.166490742637315e+001
 2.347715460186632e+000	 9.294391416530003e-001	 1.164092065540666e+001
 2.451567343395171e+000	 7.016534478695476e-001	 1.186640436686928e+001
 2.444633717388931e+000	 7.254419259314924e-001	 1.185130851314868e+001
 2.437451277585918e+000	 7.492204411754367e-001	 1.183327914483585e+001
 2.430019282161732e+000	 7.729853092977435e-001	 1.181224012655055e+001
 2.422337058037504e+000	 7.967328142577710e-001	 1.178819884738188e+001
 2.414404002052529e+000	 8.204592097843656e-001	 1.176124943801926e+001
 2.406219582100278e+000	 8.441607209271217e-001	 1.173157585491337e+001
 2.397783338226005e+000	 8.678335456514896e-001	 1.169945481925203e+001
 2.389094883684092e+000	 8.914738564767305e-001	 1.166525859862980e+001
 2.380153905953393e+000	 9.150778021556406e-001	 1.162945761942812e+001
 2.370960167708796e+000	 9.386415093948796e-001	 1.159262289810805e+001
 2.475602317349326e+000	 7.085324032439653e-001	 1.186879619180025e+001
 2.468600714617200e+000	 7.325541016791896e-001	 1.185575530139241e+001
 2.461347858737369e+000	 7.565657396216802e-001	 1.183828881040189e+001
 2.453843000612641e+000	 7.805635966471753e-001	 1.181638356839771e+001
 2.446085460565335e+000	 8.045439202832617e-001	 1.179011473468282e+001
 2.438074629521406e+000	 8.285029275306370e-001	 1.175964906037289e+001
 2.429809970157597e+000	 8.524368064295774e-001	 1.172524803008010e+001
 2.421291018009799e+000	 8.763417176706848e-001	 1.168727085060863e+001
 2.412517382540770e+000	 9.002137962488993e-001	 1.164617727417186e+001
 2.403488748165433e+000	 9.240491531596902e-001	 1.160253024379035e+001
 2.394204875231962e+000	 9.478438771362537e-001	 1.155699834872688e+001
 2.499637291303976e+000	 7.154113586173830e-001	 1.184066987594429e+001
 2.492567711846060e+000	 7.396662774258920e-001	 1.183444105672611e+001
 2.485244439889495e+000	 7.639110380669433e-001	 1.182223087554113e+001
 2.477666719064299e+000	 7.881418839956509e-001	 1.180408614406941e+001
 2.469833863093982e+000	 8.123550263078306e-001	 1.178014683792830e+001
 2.461745256991155e+000	 8.365466452760307e-001	 1.175064944858861e+001
 2.453400358215832e+000	 8.607128919312103e-001	 1.171593018741284e+001
 2.444798697794545e+000	 8.848498896891213e-001	 1.167642802883388e+001
 2.435939881398428e+000	 9.089537360203831e-001	 1.163268757980242e+001
 2.426823590378469e+000	 9.330205041631400e-001	 1.158536176279364e+001
 2.417449582756126e+000	 9.570462448771225e-001	 1.153521429987205e+001
 2.523672265259118e+000	 7.222903139898007e-001	 1.182792217915655e+001
 2.516534709075509e+000	 7.467784531715990e-001	 1.180411069926806e+001
 2.509141021042295e+000	 7.712563365112256e-001	 1.178676061262916e+001
 2.501490437516708e+000	 7.957201713431702e-001	 1.177567905461315e+001
 2.493582265623444e+000	 8.201661323314773e-001	 1.175986156122547e+001
 2.485415884461776e+000	 8.445903630205468e-001	 1.173575794090705e+001
 2.476990746274987e+000	 8.689889774320192e-001	 1.170506926666178e+001
 2.468306377580246e+000	 8.933580617067987e-001	 1.166831157792930e+001
 2.459362380257065e+000	 9.176936757911827e-001	 1.162611172351661e+001
 2.450158432592499e+000	 9.419918551659895e-001	 1.157921008682253e+001
 2.440694290281292e+000	 9.662486126174865e-001	 1.152846310303590e+001
 2.547707239214755e+000	 7.291692693612185e-001	 1.181323694737783e+001
 2.540501706305546e+000	 7.538906289163111e-001	 1.177805762936522e+001
 2.533037602195769e+000	 7.786016349545277e-001	 1.174906653939693e+001
 2.525314155969867e+000	 8.032984586897336e-001	 1.172613341713800e+001
 2.517330668153723e+000	 8.279772383542027e-001	 1.170913592345155e+001
 2.509086511933270e+000	 8.526340807641855e-001	 1.169796135755402e+001
 2.500581134335059e+000	 8.772650629320051e-001	 1.169250839230265e+001
 2.491814057366899e+000	 9.018662337237170e-001	 1.166432025948541e+001
 2.482784879116681e+000	 9.264336155612974e-001	 1.162778890175871e+001
 2.473493274807526e+000	 9.509632061682394e-001	 1.158535356165890e+001
 2.463938997807456e+000	 9.754509803573452e-001	 1.153796098657152e+001
 2.571742213170885e+000	 7.360482247316361e-001	 1.179712914856178e+001
 2.564468703536172e+000	 7.610028046600280e-001	 1.175419588835496e+001
 2.556934183349918e+000	 7.859469333968490e-001	 1.171716823296883e+001
 2.549137874423776e+000	 8.108767460353409e-001	 1.168597610004949e+001
 2.541079070684818e+000	 8.357883443760058e-001	 1.166055886749294e+001
 2.532757139405634e+000	 8.606777985069464e-001	 1.164086709514079e+001
 2.524171522396048e+000	 8.855411484311676e-001	 1.162686426270727e+001
 2.515321737154507e+000	 9.103744057398762e-001	 1.161852851896139e+001
 2.506207377977277e+000	 9.351735553307274e-001	 1.161585443700742e+001
 2.496828117023545e+000	 9.599345571698887e-001	 1.160509001355702e+001
 2.487183705334621e+000	 9.846533480966988e-001	 1.156494693995157e+001
 2.595777187127509e+000	 7.429271801010537e-001	 1.178059105012085e+001
 2.588435700767387e+000	 7.681149804027497e-001	 1.173346055664255e+001
 2.580830764504741e+000	 7.932922318381895e-001	 1.169194318591778e+001
 2.572961592878435e+000	 8.184550333799915e-001	 1.165602662215377e+001
 2.564827473216728e+000	 8.435994503968870e-001	 1.162570953909132e+001
 2.556427766878871e+000	 8.687215162488297e-001	 1.160100332911155e+001
 2.547761910457955e+000	 8.938172339295065e-001	 1.158193384673006e+001
 2.538829416943069e+000	 9.188825777552762e-001	 1.156854316138505e+001
 2.529629876838851e+000	 9.439134950994730e-001	 1.156089131424620e+001
 2.520162959240561e+000	 9.689059081709385e-001	 1.155905807360286e+001
 2.510428412862785e+000	 9.938557158355472e-001	 1.156314468324074e+001
 2.619812161084627e+000	 7.498061354694716e-001	 1.176460572560675e+001
 2.612402697999191e+000	 7.752271561444764e-001	 1.171678050080694e+001
 2.604727345660238e+000	 8.006375302785499e-001	 1.167426566280607e+001
 2.596785311333844e+000	 8.260333207236867e-001	 1.163710426457942e+001
 2.588575875749454e+000	 8.514105564168467e-001	 1.160535186863127e+001
 2.580098394352981e+000	 8.767652339898353e-001	 1.157907828638697e+001
 2.571352298520781e+000	 9.020933194270221e-001	 1.155836933018491e+001
 2.562337096732584e+000	 9.273907497699172e-001	 1.154332857265234e+001
 2.553052375701406e+000	 9.526534348675338e-001	 1.153407910807000e+001
 2.543497801458571e+000	 9.778772591713880e-001	 1.153076531016265e+001
 2.533673120391951e+000	 1.003058083573891e+000	 1.153355458060270e+001
 2.643847135042239e+000	 7.566850908368894e-001	 1.175014747261310e+001
 2.636369695231585e+000	 7.823393318852079e-001	 1.170507865604737e+001
 2.628623926816410e+000	 8.079828287179298e-001	 1.166500684691299e+001
 2.620609029790003e+000	 8.336116080664255e-001	 1.163002808158101e+001
 2.612324278282998e+000	 8.592216624358847e-001	 1.160025241712153e+001
 2.603769021827961e+000	 8.848089517299635e-001	 1.157580568386117e+001
 2.594942686584525e+000	 9.103694049237149e-001	 1.155683124880684e+001
 2.585844776523053e+000	 9.358989217837994e-001	 1.154349178459510e+001
 2.576474874564940e+000	 9.613933746349104e-001	 1.153597103844308e+001
 2.566832643677576e+000	 9.868486101712379e-001	 1.153447559541213e+001
 2.556917827922116e+000	 1.012260451311729e+000	 1.153923663014424e+001
 2.324470752665467e+000	 9.202367739106158e-001	 1.170075063984147e+001
 2.315209321330897e+000	 9.432951809896923e-001	 1.169002336707197e+001
 2.305699844977406e+000	 9.663064860216960e-001	 1.169188273504343e+001
 2.295942317358884e+000	 9.892668373179072e-001	 1.170830555053851e+001
 2.285936809298535e+000	 1.012172368694827e+000	 1.174137206071098e+001
 2.275683469402266e+000	 1.035019201340097e+000	 1.179326606113214e+001
 2.265182524719623e+000	 1.057803445709805e+000	 1.186627475521076e+001
 2.254434281350881e+000	 1.080521203455544e+000	 1.196278835800097e+001
 2.243439124998900e+000	 1.103168569379458e+000	 1.208529943800118e+001
 2.232197521464457e+000	 1.125741633415527e+000	 1.223640199117366e+001
 2.220710017083810e+000	 1.148236482635196e+000	 1.241879024207903e+001
 2.347715460186632e+000	 9.294391416530003e-001	 1.164092065540666e+001
 2.338361414538539e+000	 9.527281328023738e-001	 1.165016280936942e+001
 2.328756843421378e+000	 9.759695508843156e-001	 1.167034933358869e+001
 2.318901740526581e+000	 9.991595056932203e-001	 1.170332278887502e+001
 2.308796177385584e+000	 1.022294092383755e+000	 1.175103228366196e+001
 2.298440304090351e+000	 1.045369393355437e+000	 1.181553378674617e+001
 2.287834349960926e+000	 1.068381480168918e+000	 1.189899018650891e+001
 2.276978624158587e+000	 1.091326415492304e+000	 1.200367108912811e+001
 2.265873516243221e+000	 1.114200255075764e+000	 1.213195234888713e+001
 2.254519496673615e+000	 1.136999049752618e+000	 1.228631532432221e+001
 2.242917117249388e+000	 1.159718847465025e+000	 1.246934585462694e+001
 2.370960167708796e+000	 9.386415093948796e-001	 1.159262289810805e+001
 2.361513507747179e+000	 9.621610846146400e-001	 1.161775330525894e+001
 2.351813841866350e+000	 9.856326157465911e-001	 1.165210456367384e+001
 2.341861163695277e+000	 1.009052174068240e+000	 1.169738657407544e+001
 2.331655545473632e+000	 1.032415816072421e+000	 1.175541903064047e+001
 2.321197138779436e+000	 1.055719585370526e+000	 1.182813193927348e+001
 2.310486175203229e+000	 1.078959514627770e+000	 1.191756587723537e+001
 2.299522966967292e+000	 1.102131627528776e+000	 1.202587198612450e+001
 2.288307907488542e+000	 1.125231940771733e+000	 1.215531169081279e+001
 2.276841471883772e+000	 1.148256466089302e+000	 1.230825613758588e+001
 2.265124217415967e+000	 1.171201212294357e+000	 1.248718534542375e+001
 2.394204875231962e+000	 9.478438771362537e-001	 1.155699834872688e+001
 2.384665600956820e+000	 9.715940364264912e-001	 1.159410104749538e+001
 2.374870840312321e+000	 9.952956806085224e-001	 1.163861844150909e+001
 2.364820586864975e+000	 1.018944842442968e+000	 1.169212927649715e+001
 2.354514913562681e+000	 1.042537539760825e+000	 1.175632547696051e+001
 2.343953973469522e+000	 1.066069777385366e+000	 1.183301287090548e+001
 2.333138000446533e+000	 1.089537549086364e+000	 1.192411165057123e+001
 2.322067309776998e+000	 1.112936839564960e+000	 1.203165656062946e+001
 2.310742298734863e+000	 1.136263626467365e+000	 1.215779680594953e+001
 2.299163447094930e+000	 1.159513882425580e+000	 1.230479567167801e+001
 2.287331317583545e+000	 1.182683577123193e+000	 1.247502984908351e+001
 2.417449582756126e+000	 9.570462448771225e-001	 1.153521429987205e+001
 2.407817694167462e+000	 9.810269882379279e-001	 1.158053311763394e+001
 2.397927838759294e+000	 1.004958745470109e+000	 1.163137644689660e+001
 2.387780010035672e+000	 1.028837510817401e+000	 1.168919330514803e+001
 2.377374281652728e+000	 1.052659263448967e+000	 1.175554941438176e+001
 2.366710808160606e+000	 1.076419969399954e+000	 1.183212813330194e+001
 2.355789825690836e+000	 1.100115583544699e+000	 1.192073111992499e+001
 2.344611652587703e+000	 1.123742051600856e+000	 1.202327871553094e+001
 2.333176689982184e+000	 1.147295312162661e+000	 1.214181004154031e+001
 2.321485422307088e+000	 1.170771298761451e+000	 1.227848280156129e+001
 2.309538417752123e+000	 1.194165941951533e+000	 1.243557278156441e+001
 2.440694290281292e+000	 9.662486126174865e-001	 1.152846310303590e+001
 2.430969787379103e+000	 9.904599400489497e-001	 1.157839649132541e+001
 2.420984837207266e+000	 1.014621810331353e+000	 1.163187878686900e+001
 2.410739433207368e+000	 1.038730179191542e+000	 1.169023062965520e+001
 2.400233649743777e+000	 1.062780987136847e+000	 1.175489303127873e+001
 2.389467642852692e+000	 1.086770161414292e+000	 1.182742851571144e+001
 2.378441650936139e+000	 1.110693618002774e+000	 1.190952198463611e+001
 2.367155995399409e+000	 1.134547263636464e+000	 1.200298129776306e+001
 2.355611081230504e+000	 1.158326997857619e+000	 1.210973755918221e+001
 2.343807397520245e+000	 1.182028715096917e+000	 1.223184510148348e+001
 2.331745517921702e+000	 1.205648306779377e+000	 1.237148116010482e+001
 2.463938997807456e+000	 9.754509803573452e-001	 1.153796098657152e+001
 2.454121880591744e+000	 9.998928918595564e-001	 1.158905709991537e+001
 2.444041835656238e+000	 1.024284875192251e+000	 1.164163970100870e+001
 2.433698856380065e+000	 1.048622847565389e+000	 1.169690232929268e+001
 2.423093017835825e+000	 1.072902710824466e+000	 1.175616270525341e+001
 2.412224477545776e+000	 1.097120353428380e+000	 1.182086408093435e+001
 2.401093476182441e+000	 1.121271652460590e+000	 1.189257630894049e+001
 2.389700338212113e+000	 1.145352475671785e+000	 1.197299661981353e+001
 2.378045472479827e+000	 1.169358683552240e+000	 1.206395009830009e+001
 2.366129372734403e+000	 1.193286131431976e+000	 1.216738984972804e+001
 2.353952618092280e+000	 1.217130671606725e+000	 1.228539684844599e+001
 2.487183705334621e+000	 9.846533480966988e-001	 1.156494693995157e+001
 2.477273973805385e+000	 1.009325843669748e+000	 1.161389894466422e+001
 2.467098834106210e+000	 1.033947940052806e+000	 1.166218680572124e+001
 2.456658279553762e+000	 1.058515515938944e+000	 1.171087816729683e+001
 2.445952385928873e+000	 1.083024434511822e+000	 1.176116880737690e+001
 2.434981312239862e+000	 1.107470545442217e+000	 1.181438419926882e+001
 2.423745301429745e+000	 1.131849686918147e+000	 1.187198078529305e+001
 2.412244681025819e+000	 1.156157687706817e+000	 1.193554695198743e+001
 2.400479863730147e+000	 1.180390369246524e+000	 1.200680369680906e+001
 2.388451347949561e+000	 1.204543547766628e+000	 1.208760497702389e+001
 2.376159718263858e+000	 1.228613036433577e+000	 1.217993773222912e+001
 2.510428412862785e+000	 9.938557158355472e-001	 1.156314468324074e+001
 2.500426067020026e+000	 1.018758795479525e+000	 1.165216700078378e+001
 2.490155832557182e+000	 1.043611004913016e+000	 1.169506047493805e+001
 2.479617702728460e+000	 1.068408184312206e+000	 1.173383618883114e+001
 2.468811754022921e+000	 1.093146158198917e+000	 1.177172551730662e+001
 2.457738146934947e+000	 1.117820737455804e+000	 1.180993758057128e+001
 2.446397126678048e+000	 1.142427721375446e+000	 1.184981698306143e+001
 2.434789023840525e+000	 1.166962899741562e+000	 1.189284498732315e+001
 2.422914254981468e+000	 1.191422054940472e+000	 1.194064037173978e+001
 2.410773323165719e+000	 1.215800964100875e+000	 1.199495996226536e+001
 2.398366818436436e+000	 1.240095401259933e+000	 1.205769882909258e+001
 2.533673120391951e+000	 1.003058083573891e+000	 1.153355458060270e+001
 2.523578160235667e+000	 1.028191747288888e+000	 1.159960969237371e+001
 2.513212831009153e+000	 1.053274069772882e+000	 1.167294719542138e+001
 2.502577125904157e+000	 1.078300852685174e+000	 1.175300188131220e+001
 2.491671122117970e+000	 1.103267881885750e+000	 1.178965064858057e+001
 2.480494981631032e+000	 1.128170929469140e+000	 1.180947230455182e+001
 2.469048951927351e+000	 1.153005755832484e+000	 1.182816158352988e+001
 2.457333366656231e+000	 1.177768111776018e+000	 1.184709428091647e+001
 2.445348646233789e+000	 1.202453740634082e+000	 1.186778876239846e+001
 2.433095298382876e+000	 1.227058380434715e+000	 1.189190667892678e+001
 2.420573918610014e+000	 1.251577766085793e+000	 1.195617984520391e+001
 2.556917827922116e+000	 1.012260451311729e+000	 1.153923663014424e+001
 2.546730253452309e+000	 1.037624699097835e+000	 1.157902236937166e+001
 2.536269829462127e+000	 1.062937134632405e+000	 1.162525065976479e+001
 2.525536549080854e+000	 1.088193521057849e+000	 1.167720364294522e+001
 2.514530490214019e+000	 1.113389605572322e+000	 1.173418366124618e+001
 2.503251816328117e+000	 1.138521121482226e+000	 1.179551579672525e+001
 2.491700777177656e+000	 1.163583790289265e+000	 1.180908660208493e+001
 2.479877709472937e+000	 1.188573323810187e+000	 1.180048966528177e+001
 2.467783037487111e+000	 1.213485426327356e+000	 1.179056473844513e+001
 2.455417273601035e+000	 1.238315796768149e+000	 1.178088019530881e+001
 2.442781018784593e+000	 1.263060130911157e+000	 1.207159606851552e+001
 2.220710017083810e+000	 1.148236482635196e+000	 1.241879024207903e+001
 2.208977239107448e+000	 1.170649203275409e+000	 1.222275768181083e+001
 2.196999896018612e+000	 1.192975882787096e+000	 1.205370466427207e+001
 2.184778777790678e+000	 1.215212611902256e+000	 1.191386596909046e+001
 2.172314756082765e+000	 1.237355486717287e+000	 1.180557326109978e+001
 2.159608784372368e+000	 1.259400610790523e+000	 1.181659125503524e+001
 2.146661898024328e+000	 1.281344097251810e+000	 1.195014699296012e+001
 2.133475214295430e+000	 1.303182070921886e+000	 1.208035687480527e+001
 2.120049932274017e+000	 1.324910670439301e+000	 1.220671996388655e+001
 2.106387332754106e+000	 1.346526050392599e+000	 1.232874060215556e+001
 2.092488778043565e+000	 1.368024383455396e+000	 1.244592883422189e+001
 2.242917117249388e+000	 1.159718847465025e+000	 1.246934585462694e+001
 2.231067011493503e+000	 1.182355695312165e+000	 1.224743286299998e+001
 2.218969894973999e+000	 1.204905641619348e+000	 1.204919124565445e+001
 2.206626565563987e+000	 1.227364738025891e+000	 1.187686514848668e+001
 2.194037903639175e+000	 1.249729041589154e+000	 1.173280184551426e+001
 2.181204872211835e+000	 1.271994616903055e+000	 1.185176327331863e+001
 2.168128517000457e+000	 1.294157538228737e+000	 1.196822239317929e+001
 2.154809966434391e+000	 1.316213891635144e+000	 1.207855018860079e+001
 2.141250431592865e+000	 1.338159777147214e+000	 1.218220310065949e+001
 2.127451206077835e+000	 1.359991310899373e+000	 1.227864475718327e+001
 2.113413665820249e+000	 1.381704627291974e+000	 1.236734645051393e+001
 2.265124217415967e+000	 1.171201212294357e+000	 1.248718534542375e+001
 2.253156783880558e+000	 1.194062187348341e+000	 1.223804965112012e+001
 2.240939893930386e+000	 1.216835400450964e+000	 1.200923277974090e+001
 2.228474353338295e+000	 1.239516864148863e+000	 1.180298966701699e+001
 2.215761051196585e+000	 1.262102596460362e+000	 1.177597166356343e+001
 2.202800960052304e+000	 1.284588623014960e+000	 1.188238733485913e+001
 2.189595135977586e+000	 1.306970979205101e+000	 1.198051676259930e+001
 2.176144718574352e+000	 1.329245712347933e+000	 1.206976602702747e+001
 2.162450930912713e+000	 1.351408883854782e+000	 1.214954974706869e+001
 2.148515079402566e+000	 1.373456571405956e+000	 1.221929161197583e+001
 2.134338553597934e+000	 1.395384871128547e+000	 1.227842491183918e+001
 2.287331317583545e+000	 1.182683577123193e+000	 1.247502984908351e+001
 2.275246556268613e+000	 1.205768679383935e+000	 1.219737612673342e+001
 2.262909892887774e+000	 1.228765159281942e+000	 1.193664171889159e+001
 2.250322141113604e+000	 1.251668990271171e+000	 1.171970598397563e+001
 2.237484198754997e+000	 1.274476151330910e+000	 1.181956886373521e+001
 2.224397047893772e+000	 1.297182629126240e+000	 1.190912164398810e+001
 2.211061754955715e+000	 1.319784420180902e+000	 1.198771780297174e+001
 2.197479470715314e+000	 1.342277533060255e+000	 1.205472057649915e+001
 2.183651430233561e+000	 1.364657990562005e+000	 1.210950354519698e+001
 2.169578952728295e+000	 1.386921831912350e+000	 1.215145121956445e+001
 2.155263441376618e+000	 1.409065114965114e+000	 1.217995962225296e+001
 2.309538417752123e+000	 1.194165941951533e+000	 1.243557278156441e+001
 2.297336328657668e+000	 1.217475171418948e+000	 1.212815119902779e+001
 2.284879891846161e+000	 1.240694918112284e+000	 1.183419993093021e+001
 2.272169928889912e+000	 1.263821116392816e+000	 1.177672557588940e+001
 2.259207346314407e+000	 1.286849706200797e+000	 1.186110911999449e+001
 2.245993135736240e+000	 1.309776635236893e+000	 1.193258982662183e+001
 2.232528373934845e+000	 1.332597861156142e+000	 1.199047739086545e+001
 2.218814222857275e+000	 1.355309353772108e+000	 1.203409299501547e+001
 2.204851929555409e+000	 1.377907097268884e+000	 1.206276994974770e+001
 2.190642826055024e+000	 1.400387092418553e+000	 1.207585433160782e+001
 2.176188329156302e+000	 1.422745358801676e+000	 1.207270561609895e+001
 2.331745517921702e+000	 1.205648306779377e+000	 1.237148116010482e+001
 2.319426101047722e+000	 1.229181663453380e+000	 1.203308599493008e+001
 2.306849890805548e+000	 1.252624676941988e+000	 1.175105580235561e+001
 2.294017716667222e+000	 1.275973242513798e+000	 1.183346429637918e+001
 2.280930493874819e+000	 1.299223261070027e+000	 1.190115515067661e+001
 2.267589223579708e+000	 1.322370641346921e+000	 1.195338257685285e+001
 2.253994992914973e+000	 1.345411302130819e+000	 1.198941328362760e+001
 2.240148975000236e+000	 1.368341174483492e+000	 1.200852717541953e+001
 2.226052428878258e+000	 1.391156203975419e+000	 1.201001804649126e+001
 2.211706699382753e+000	 1.413852352924567e+000	 1.199319426988609e+001
 2.197113216936987e+000	 1.436425602638232e+000	 1.195737948037635e+001
 2.353952618092280e+000	 1.217130671606725e+000	 1.228539684844599e+001
 2.341515873438778e+000	 1.240888155487230e+000	 1.191486516959007e+001
 2.328819889765935e+000	 1.264554435771055e+000	 1.182341141402162e+001
 2.315865504445531e+000	 1.288125368634117e+000	 1.189042699131676e+001
 2.302653641436229e+000	 1.311596815938596e+000	 1.194023946589337e+001
 2.289185311424177e+000	 1.334964647456323e+000	 1.197205921033771e+001
 2.275461611896103e+000	 1.358224743104934e+000	 1.198511072878090e+001
 2.261483727144197e+000	 1.381372995194408e+000	 1.197863340884873e+001
 2.247252928202105e+000	 1.404405310681609e+000	 1.195188226778081e+001
 2.232770572711483e+000	 1.427317613430390e+000	 1.190412869186109e+001
 2.218038104718671e+000	 1.450105846474784e+000	 1.183466116829373e+001
 2.376159718263858e+000	 1.228613036433577e+000	 1.217993773222912e+001
 2.363605645830832e+000	 1.252594647520498e+000	 1.182841198417109e+001
 2.350789888727322e+000	 1.276484194599485e+000	 1.189765705826861e+001
 2.337713292224839e+000	 1.300277494753773e+000	 1.194809086181786e+001
 2.324376788998640e+000	 1.323970370806505e+000	 1.197886577913213e+001
 2.310781399269644e+000	 1.347558653565099e+000	 1.198914913057914e+001
 2.296928230878231e+000	 1.371038184078486e+000	 1.197812398317425e+001
 2.282818479289158e+000	 1.394404815904855e+000	 1.194498995490788e+001
 2.268453427526953e+000	 1.417654417387455e+000	 1.188896401187072e+001
 2.253834446041212e+000	 1.440782873936023e+000	 1.180928125723323e+001
 2.238962992501355e+000	 1.463786090311330e+000	 1.170519571112853e+001
 2.398366818436436e+000	 1.240095401259933e+000	 1.205769882909258e+001
 2.385695418223886e+000	 1.264301139553186e+000	 1.192033369818762e+001
 2.372759887689709e+000	 1.288413953427277e+000	 1.197421738380818e+001
 2.359561080005148e+000	 1.312429620872765e+000	 1.200690674409194e+001
 2.346099936562051e+000	 1.336343925673756e+000	 1.201751034043301e+001
 2.332377487116112e+000	 1.360152659673249e+000	 1.200515321374785e+001
 2.318394849861361e+000	 1.383851625051477e+000	 1.196897774773616e+001
 2.304153231435119e+000	 1.407436636614834e+000	 1.190814452461050e+001
 2.289653926852801e+000	 1.430903524092956e+000	 1.182183317227305e+001
 2.274898319371942e+000	 1.454248134441466e+000	 1.170924320191187e+001
 2.259887880285039e+000	 1.477466334147870e+000	 1.156959483498280e+001
 2.420573918610014e+000	 1.251577766085793e+000	 1.195617984520391e+001
 2.407785190617942e+000	 1.276007631585292e+000	 1.201613561747521e+001
 2.394729886653096e+000	 1.300343712254434e+000	 1.205349296443370e+001
 2.381408867786457e+000	 1.324581746991095e+000	 1.206730031884165e+001
 2.367823084126462e+000	 1.348717480540346e+000	 1.205662319617994e+001
 2.353973574963581e+000	 1.372746665780774e+000	 1.202054511727584e+001
 2.339861468845490e+000	 1.396665066023905e+000	 1.195816852325089e+001
 2.325487983582081e+000	 1.420468457324345e+000	 1.186861568169029e+001
 2.310854426179648e+000	 1.444152630798113e+000	 1.175102958292914e+001
 2.295962192703671e+000	 1.467713394946719e+000	 1.160457482534514e+001
 2.280812768069723e+000	 1.491146577984406e+000	 1.142843848854375e+001
 2.442781018784593e+000	 1.263060130911157e+000	 1.207159606851552e+001
 2.429874963012998e+000	 1.287714123616817e+000	 1.211617056264338e+001
 2.416699885617484e+000	 1.312273471080953e+000	 1.213586139333486e+001
 2.403256655568766e+000	 1.336733873108761e+000	 1.212967325469487e+001
 2.389546231691873e+000	 1.361091035406278e+000	 1.209662938017601e+001
 2.375569662812049e+000	 1.385340671887672e+000	 1.203577251707180e+001
 2.361328087830619e+000	 1.409478506995772e+000	 1.194616589218317e+001
 2.346822735730042e+000	 1.433500278033387e+000	 1.182689416747749e+001
 2.332054925507497e+000	 1.457401737502926e+000	 1.167706438455365e+001
 2.317026066036402e+000	 1.481178655451782e+000	 1.149580689672269e+001
 2.301737655855408e+000	 1.504826821820936e+000	 1.128227628751145e+001
 2.092488778043565e+000	 1.368024383455396e+000	 1.244592883422189e+001
 2.078355711706041e+000	 1.389401862522306e+000	 1.245959133346955e+001
 2.063989658236324e+000	 1.410654702842501e+000	 1.246199827689776e+001
 2.049392222669044e+000	 1.431779144149050e+000	 1.245281555182843e+001
 2.034565090120716e+000	 1.452771452782182e+000	 1.243172228500769e+001
 2.019510025265108e+000	 1.473627923803213e+000	 1.239841116625433e+001
 2.004228871742098e+000	 1.494344883097002e+000	 1.235258876372330e+001
 1.988723551500282e+000	 1.514918689460505e+000	 1.229397583045390e+001
 1.972996064073689e+000	 1.535345736674993e+000	 1.222230760187085e+001
 1.957048485793046e+000	 1.555622455559538e+000	 1.213733408390315e+001
 1.940882968932161e+000	 1.575745316003345e+000	 1.203882033138429e+001
 2.113413665820249e+000	 1.381704627291974e+000	 1.236734645051393e+001
 2.099139268819376e+000	 1.403295881148705e+000	 1.235941295868842e+001
 2.084629554814937e+000	 1.424761249871356e+000	 1.234206701103263e+001
 2.069886144891909e+000	 1.446096935590330e+000	 1.231516559227381e+001
 2.054910741017975e+000	 1.467299167309258e+000	 1.227857765522346e+001
 2.039705125513637e+000	 1.488364203040068e+000	 1.223218423083998e+001
 2.024271160455173e+000	 1.509288331926469e+000	 1.217587853079350e+001
 2.008610787010665e+000	 1.530067876353385e+000	 1.210956604257686e+001
 1.992726024709482e+000	 1.550699194039903e+000	 1.203316461720254e+001
 1.976618970645657e+000	 1.571178680113284e+000	 1.194660454952271e+001
 1.960291798615738e+000	 1.591502769161626e+000	 1.184982865120443e+001
 2.134338553597934e+000	 1.395384871128547e+000	 1.227842491183918e+001
 2.119922825933710e+000	 1.417189899775284e+000	 1.225442855448044e+001
 2.105269451394550e+000	 1.438867796900547e+000	 1.222281690601497e+001
 2.090380067115775e+000	 1.460414727032072e+000	 1.218363537323078e+001
 2.075256391916233e+000	 1.481826881836891e+000	 1.213694007273199e+001
 2.059900225763165e+000	 1.503100482277546e+000	 1.208279772974633e+001
 2.044313449169247e+000	 1.524231780756594e+000	 1.202128557032628e+001
 2.028498022522047e+000	 1.545217063246931e+000	 1.195249120735720e+001
 2.012455985346274e+000	 1.566052651405454e+000	 1.187651252078163e+001
 1.996189455499269e+000	 1.586734904667616e+000	 1.179345753244462e+001
 1.979700628300315e+000	 1.607260222320409e+000	 1.170344427595795e+001
 2.155263441376618e+000	 1.409065114965114e+000	 1.217995962225296e+001
 2.140706383049044e+000	 1.431083918402042e+000	 1.214526628770201e+001
 2.125909347975163e+000	 1.452974343930074e+000	 1.210471031668817e+001
 2.110873989340641e+000	 1.474732518474275e+000	 1.205852294654803e+001
 2.095602042815492e+000	 1.496354596365081e+000	 1.200694487859019e+001
 2.080095326013694e+000	 1.517836761515647e+000	 1.195022596790029e+001
 2.064355737884322e+000	 1.539175229587379e+000	 1.188862490743519e+001
 2.048385258034430e+000	 1.560366250141141e+000	 1.182240890718541e+001
 2.032185945984066e+000	 1.581406108771645e+000	 1.175185336918131e+001
 2.015759940353880e+000	 1.602291129222535e+000	 1.167724155911223e+001
 1.999109457985893e+000	 1.623017675479693e+000	 1.159886427531883e+001
 2.176188329156302e+000	 1.422745358801676e+000	 1.207270561609895e+001
 2.161489940165379e+000	 1.444977937028980e+000	 1.203252029937665e+001
 2.146549244556775e+000	 1.467080890959936e+000	 1.198818186619302e+001
 2.131367911566507e+000	 1.489050309916940e+000	 1.194010487361086e+001
 2.115947693715750e+000	 1.510882310893829e+000	 1.188871210861717e+001
 2.100290426265223e+000	 1.532573040754371e+000	 1.183443407110281e+001
 2.084398026600397e+000	 1.554118678418823e+000	 1.177770845203123e+001
 2.068272493547812e+000	 1.575515437036017e+000	 1.171897960793793e+001
 2.051915906622858e+000	 1.596759566138478e+000	 1.165869803289923e+001
 2.035330425209491e+000	 1.617847353778040e+000	 1.159731982910076e+001
 2.018518287672471e+000	 1.638775128639479e+000	 1.153530617712456e+001
 2.197113216936987e+000	 1.436425602638232e+000	 1.195737948037635e+001
 2.182273497282713e+000	 1.458871955656099e+000	 1.191675232497272e+001
 2.167189141139388e+000	 1.481187437990134e+000	 1.187363976652486e+001
 2.151861833793373e+000	 1.503368101360066e+000	 1.182863724869656e+001
 2.136293344617010e+000	 1.525410025423134e+000	 1.178234722221507e+001
 2.120485526517752e+000	 1.547309319993719e+000	 1.173537842313009e+001
 2.104440315317472e+000	 1.569062127250926e+000	 1.168834514716575e+001
 2.088159729062195e+000	 1.590664623931558e+000	 1.164186652166830e+001
 2.071645867262650e+000	 1.612113023505951e+000	 1.159656577664696e+001
 2.054900910066102e+000	 1.633403578334131e+000	 1.155306951639670e+001
 2.037927117360048e+000	 1.654532581799765e+000	 1.151200699317779e+001
 2.218038104718671e+000	 1.450105846474784e+000	 1.183466116829373e+001
 2.203057054401048e+000	 1.472765974283397e+000	 1.179849322296729e+001
 2.187829037723001e+000	 1.495293985020668e+000	 1.176146706434238e+001
 2.172355756021239e+000	 1.517685892803653e+000	 1.172435666440400e+001
 2.156638995519268e+000	 1.539937739952995e+000	 1.168794178993603e+001
 2.140680626771280e+000	 1.562045599233690e+000	 1.165300707809331e+001
 2.124482604035547e+000	 1.584005576083688e+000	 1.162034110897674e+001
 2.108046964577577e+000	 1.605813810827764e+000	 1.159073547707056e+001
 2.091375827903442e+000	 1.627466480874065e+000	 1.156498386339635e+001
 2.074471394923713e+000	 1.648959802890808e+000	 1.154388111022744e+001
 2.057335947048625e+000	 1.670290034960553e+000	 1.152822230019135e+001
 2.238962992501355e+000	 1.463786090311330e+000	 1.170519571112853e+001
 2.223840611520382e+000	 1.486659992910875e+000	 1.167824441769615e+001
 2.208468934307614e+000	 1.509400532051536e+000	 1.165202281691781e+001
 2.192849678250105e+000	 1.532003684247701e+000	 1.162748112294705e+001
 2.176984646422527e+000	 1.554465454483415e+000	 1.160557414249360e+001
 2.160875727025809e+000	 1.576781878474284e+000	 1.158726014967517e+001
 2.144524892754621e+000	 1.598949024917110e+000	 1.157349975878748e+001
 2.127934200093959e+000	 1.620962997724635e+000	 1.156525479720624e+001
 2.111105788545235e+000	 1.642819938242820e+000	 1.156348718062910e+001
 2.094041879782325e+000	 1.664516027448072e+000	 1.156915779285374e+001
 2.076744776738203e+000	 1.686047488121843e+000	 1.158322537226913e+001
 2.259887880285039e+000	 1.477466334147870e+000	 1.156959483498280e+001
 2.244624168640716e+000	 1.500554011538533e+000	 1.155647926204549e+001
 2.229108830893227e+000	 1.523507079082740e+000	 1.154564320275670e+001
 2.213343600479971e+000	 1.546321475692211e+000	 1.153821089682046e+001
 2.197330297326785e+000	 1.568993169014391e+000	 1.153530998371845e+001
 2.181070827281339e+000	 1.591518157715502e+000	 1.153807017874243e+001
 2.164567181474695e+000	 1.613892473751191e+000	 1.154762194786656e+001
 2.147821435611342e+000	 1.636112184622171e+000	 1.156509518402442e+001
 2.130835749188027e+000	 1.658173395612215e+000	 1.159161788735024e+001
 2.113612364641936e+000	 1.680072252005922e+000	 1.162831485192939e+001
 2.096153606428781e+000	 1.701804941283633e+000	 1.167630636158235e+001
 2.280812768069723e+000	 1.491146577984406e+000	 1.142843848854375e+001
 2.265407725762050e+000	 1.514448030166370e+000	 1.143364432513310e+001
 2.249748727479839e+000	 1.537613626114280e+000	 1.144264257108255e+001
 2.233837522710837e+000	 1.560639267137182e+000	 1.145672934208977e+001
 2.217675948232044e+000	 1.583520883545925e+000	 1.147720296977305e+001
 2.201265927537867e+000	 1.606254436957342e+000	 1.150536248072276e+001
 2.184609470195770e+000	 1.628835922585931e+000	 1.154250607532024e+001
 2.167708671129724e+000	 1.651261371520372e+000	 1.158992960923847e+001
 2.150565709831819e+000	 1.673526852982251e+000	 1.164892508053196e+001
 2.133182849502547e+000	 1.695628476564357e+000	 1.172077912520781e+001
 2.115562436120359e+000	 1.717562394445926e+000	 1.180677152414627e+001
 2.301737655855408e+000	 1.504826821820936e+000	 1.128227628751145e+001
 2.286191282884384e+000	 1.528342048794389e+000	 1.131016060975221e+001
 2.270388624067453e+000	 1.551720173146156e+000	 1.134331443407696e+001
 2.254331444942703e+000	 1.574957058582615e+000	 1.138320366731985e+001
 2.238021599138304e+000	 1.598048598078017e+000	 1.143129525677300e+001
 2.221461027795396e+000	 1.620990716199807e+000	 1.148905547403377e+001
 2.204651758917846e+000	 1.643779371421331e+000	 1.155794819955443e+001
 2.187595906649108e+000	 1.666410558419238e+000	 1.163943321115489e+001
 2.170295670476612e+000	 1.688880310352929e+000	 1.173496447975140e+001
 2.152753334364159e+000	 1.711184701123381e+000	 1.184598847553755e+001
 2.134971265812936e+000	 1.733319847608720e+000	 1.197394248782735e+001
 1.940882968932161e+000	 1.575745316003345e+000	 1.203882033138429e+001
 1.924501740789867e+000	 1.595710828974349e+000	 1.209721296739024e+001
 1.907907102708858e+000	 1.615515548502403e+000	 1.213359742758622e+001
 1.891101429031947e+000	 1.635156073634189e+000	 1.214763409331044e+001
 1.874087165996259e+000	 1.654629050357171e+000	 1.214049250413582e+001
 1.856866830566979e+000	 1.673931173491006e+000	 1.212989395949365e+001
 1.839443009211615e+000	 1.693059188543971e+000	 1.208490876634239e+001
 1.821818356616007e+000	 1.712009893532202e+000	 1.200813096162498e+001
 1.803995594343423e+000	 1.730780140759638e+000	 1.190225559767267e+001
 1.785977509438138e+000	 1.749366838556605e+000	 1.177007292837913e+001
 1.767766952975000e+000	 1.767766952975000e+000	 1.161446235027272e+001
 1.960291798615738e+000	 1.591502769161626e+000	 1.184982865120443e+001
 1.943746758191629e+000	 1.611667937262448e+000	 1.190494243639122e+001
 1.926986173729532e+000	 1.631670703985806e+000	 1.193873130471746e+001
 1.910012443315688e+000	 1.651507634368848e+000	 1.195080901573725e+001
 1.892828037649595e+000	 1.671175340858912e+000	 1.194081116896525e+001
 1.875435498866089e+000	 1.690670485223853e+000	 1.190839563503552e+001
 1.857837439297352e+000	 1.709989780427031e+000	 1.186940417852151e+001
 1.840036540176085e+000	 1.729129992464742e+000	 1.179838013208756e+001
 1.822035550281187e+000	 1.748087942163965e+000	 1.169752903840454e+001
 1.803837284527377e+000	 1.766860506938328e+000	 1.156971053036925e+001
 1.785444622500250e+000	 1.785444622500250e+000	 1.141787634251898e+001
 1.979700628300315e+000	 1.607260222320409e+000	 1.170344427595795e+001
 1.962991775594386e+000	 1.627625045550958e+000	 1.175372460666410e+001
 1.946065244751185e+000	 1.647825859469549e+000	 1.178334542077053e+001
 1.928923457600384e+000	 1.667859195103797e+000	 1.179187459686631e+001
 1.911568909303850e+000	 1.687721631360913e+000	 1.177890102775692e+001
 1.894004167166073e+000	 1.707409796956951e+000	 1.174403509904487e+001
 1.876231869383909e+000	 1.726920372310351e+000	 1.168690915057898e+001
 1.858254723736918e+000	 1.746250091397571e+000	 1.161809721399649e+001
 1.840075506219632e+000	 1.765395743568632e+000	 1.151978950148511e+001
 1.821697059617210e+000	 1.784354175320462e+000	 1.139377503089581e+001
 1.803122292026000e+000	 1.803122292026000e+000	 1.124308189258806e+001
 1.999109457985893e+000	 1.623017675479693e+000	 1.159886427531883e+001
 1.982236792998138e+000	 1.643582153839881e+000	 1.164279685390401e+001
 1.965144315773818e+000	 1.663981014953634e+000	 1.166671811083294e+001
 1.947834471886035e+000	 1.684210755839037e+000	 1.167015076581101e+001
 1.930309780959026e+000	 1.704267921863176e+000	 1.165263773226312e+001
 1.912572835466933e+000	 1.724149108690299e+000	 1.161374264267545e+001
 1.894626299471287e+000	 1.743850964193931e+000	 1.155305035833041e+001
 1.876472907298506e+000	 1.763370190330692e+000	 1.147016746259067e+001
 1.858115462158756e+000	 1.782703544973638e+000	 1.137106963528421e+001
 1.839556834707639e+000	 1.801847843703006e+000	 1.124431597894614e+001
 1.820799961552250e+000	 1.820799961552250e+000	 1.109214459005266e+001
 2.018518287672471e+000	 1.638775128639479e+000	 1.153530617712456e+001
 2.001481810402884e+000	 1.659539262129213e+000	 1.157141542711487e+001
 1.984223386797432e+000	 1.680136170438059e+000	 1.158814497895330e+001
 1.966745486172641e+000	 1.700562316574568e+000	 1.158497309755093e+001
 1.949050652615121e+000	 1.720814212365699e+000	 1.156139742579023e+001
 1.931141503768667e+000	 1.740888420423898e+000	 1.151693555598256e+001
 1.913020729559484e+000	 1.760781556077771e+000	 1.145112558724604e+001
 1.894691090860849e+000	 1.780490289264101e+000	 1.136352666788472e+001
 1.876155418098561e+000	 1.800011346378985e+000	 1.125371952185241e+001
 1.857416609798663e+000	 1.819341512085959e+000	 1.112338848048381e+001
 1.838477631079000e+000	 1.838477631079000e+000	 1.096713384906394e+001
 2.037927117360048e+000	 1.654532581799765e+000	 1.151200699317779e+001
 2.020726827808627e+000	 1.675496370418957e+000	 1.153885454988027e+001
 2.003302457822026e+000	 1.696291325922827e+000	 1.154693807580981e+001
 1.985656500460202e+000	 1.716913877310390e+000	 1.153569206789065e+001
 1.967791524272137e+000	 1.737360502868483e+000	 1.150456958953322e+001
 1.949710172071277e+000	 1.757627732157748e+000	 1.145304288757728e+001
 1.931415159648502e+000	 1.777712147961873e+000	 1.138060399668452e+001
 1.912909274423948e+000	 1.797610388197801e+000	 1.128676533018937e+001
 1.894195374039045e+000	 1.817319147784671e+000	 1.117106025641401e+001
 1.875276384890282e+000	 1.836835180469323e+000	 1.103304365945279e+001
 1.856155300606249e+000	 1.856155300606249e+000	 1.087012272622870e+001
 2.057335947048625e+000	 1.670290034960553e+000	 1.152822230019135e+001
 2.039971845215364e+000	 1.691453478709113e+000	 1.154440557250596e+001
 2.022381528847599e+000	 1.712446481407935e+000	 1.154242512292602e+001
 2.004567514748718e+000	 1.733265438046503e+000	 1.152167235059052e+001
 1.986532395930073e+000	 1.753906793371528e+000	 1.148155641342999e+001
 1.968278840374762e+000	 1.774367043891847e+000	 1.142150488997765e+001
 1.949809589738340e+000	 1.794642739846234e+000	 1.134096443016400e+001
 1.931127457987801e+000	 1.814730487131792e+000	 1.123940139403091e+001
 1.912235329980210e+000	 1.834626949190698e+000	 1.111630247729506e+001
 1.893136159982496e+000	 1.854328848853096e+000	 1.097117532268602e+001
 1.873832970134000e+000	 1.873832970134000e+000	 1.080318774879542e+001
 2.076744776738203e+000	 1.686047488121843e+000	 1.158322537226913e+001
 2.059216862623095e+000	 1.707410586999680e+000	 1.158737617170579e+001
 2.041460599874153e+000	 1.728601636893384e+000	 1.157394878038802e+001
 2.023478529038190e+000	 1.749616998782907e+000	 1.154229215391091e+001
 2.005273267588929e+000	 1.770453083874833e+000	 1.149177220229487e+001
 1.986847508679121e+000	 1.791106355626198e+000	 1.142177249606161e+001
 1.968204019828998e+000	 1.811573331730855e+000	 1.133169496283140e+001
 1.949345641552410e+000	 1.831850586066073e+000	 1.122096057330687e+001
 1.930275285922055e+000	 1.851934750597065e+000	 1.108901001549765e+001
 1.910995935075305e+000	 1.871822517237279e+000	 1.093530435603203e+001
 1.891510639662249e+000	 1.891510639662249e+000	 1.093804502906166e+001
 2.096153606428781e+000	 1.701804941283633e+000	 1.167630636158235e+001
 2.078461880031822e+000	 1.723367695290657e+000	 1.166708959474932e+001
 2.060539670901687e+000	 1.744756792379175e+000	 1.164086595524455e+001
 2.042389543328616e+000	 1.765968559519602e+000	 1.159694259401489e+001
 2.024014139248705e+000	 1.786999374378399e+000	 1.153464281494471e+001
 2.005416176984356e+000	 1.807845667360798e+000	 1.145330682460584e+001
 1.986598449920475e+000	 1.828503923615737e+000	 1.135229247407209e+001
 1.967563825117773e+000	 1.848970685000643e+000	 1.123097599159295e+001
 1.948315241864579e+000	 1.869242552003771e+000	 1.108875270490702e+001
 1.928855710168709e+000	 1.889316185621873e+000	 1.107909764619930e+001
 1.909188309190999e+000	 1.909188309190999e+000	 1.110751717799246e+001
 2.115562436120359e+000	 1.717562394445926e+000	 1.180677152414627e+001
 2.097706897441544e+000	 1.739324803582046e+000	 1.178288394521626e+001
 2.079618741930201e+000	 1.760911947865306e+000	 1.174254714797655e+001
 2.061300557619997e+000	 1.782320120256587e+000	 1.168502710286271e+001
 2.042755010909402e+000	 1.803545664882226e+000	 1.160960513419875e+001
 2.023984845290466e+000	 1.824584979095650e+000	 1.151557871304277e+001
 2.004992880012773e+000	 1.845434515500879e+000	 1.140226224364579e+001
 1.985782008683892e+000	 1.866090783935504e+000	 1.126898784224945e+001
 1.966355197807784e+000	 1.886550353410819e+000	 1.123807409227635e+001
 1.946715485262708e+000	 1.906809854006877e+000	 1.128000284842551e+001
 1.926865978720250e+000	 1.926865978720250e+000	 1.129860380151716e+001
 2.134971265812936e+000	 1.733319847608720e+000	 1.197394248782735e+001
 2.116951914852261e+000	 1.755281911873847e+000	 1.193411150770962e+001
 2.098697812959695e+000	 1.777067103351779e+000	 1.187837583461380e+001
 2.080211571912335e+000	 1.798671680993865e+000	 1.180596086840265e+001
 2.061495882571018e+000	 1.820091955386313e+000	 1.171610656578763e+001
 2.042553513597452e+000	 1.841324290830752e+000	 1.160806827570351e+001
 2.023387310105892e+000	 1.862365107386282e+000	 1.148111756985137e+001
 2.004000192250766e+000	 1.883210882870656e+000	 1.142058006542610e+001
 1.984395153751669e+000	 1.903858154818207e+000	 1.147222862754341e+001
 1.964575260357303e+000	 1.924303522392292e+000	 1.150290163069522e+001
 1.944543648250000e+000	 1.944543648250000e+000	 1.151063359401999e+001
 1.767766952975000e+000	 1.767766952975000e+000	 1.161446235027272e+001
 1.749366838556605e+000	 1.785977509438138e+000	 1.152116258598331e+001
 1.730780140759639e+000	 1.803995594343423e+000	 1.143015488803949e+001
 1.712009893532202e+000	 1.821818356616006e+000	 1.134463638733848e+001
 1.693059188543972e+000	 1.839443009211615e+000	 1.126784675505031e+001
 1.673931173491006e+000	 1.856866830566979e+000	 1.120306109374019e+001
 1.654629050357171e+000	 1.874087165996259e+000	 1.115358271170768e+001
 1.635156073634190e+000	 1.891101429031947e+000	 1.122503603412339e+001
 1.615515548502402e+000	 1.907907102708858e+000	 1.129532538152927e+001
 1.595710828974349e+000	 1.924501740789867e+000	 1.135812339473529e+001
 1.575745316003345e+000	 1.940882968932160e+000	 1.141361177469752e+001
 1.785444622500250e+000	 1.785444622500250e+000	 1.141787634251898e+001
 1.766860506938328e+000	 1.803837284527377e+000	 1.133031211437847e+001
 1.748087942163965e+000	 1.822035550281187e+000	 1.124185026908467e+001
 1.729129992464742e+000	 1.840036540176085e+000	 1.115575830873798e+001
 1.709989780427031e+000	 1.857837439297352e+000	 1.107535103453767e+001
 1.690670485223853e+000	 1.875435498866089e+000	 1.100758144476082e+001
 1.671175340858912e+000	 1.892828037649594e+000	 1.108071026603452e+001
 1.651507634368848e+000	 1.910012443315688e+000	 1.114304095160473e+001
 1.631670703985806e+000	 1.926986173729532e+000	 1.119469095570704e+001
 1.611667937262448e+000	 1.943746758191629e+000	 1.123578949240602e+001
 1.591502769161626e+000	 1.960291798615738e+000	 1.126647747697378e+001
 1.803122292026000e+000	 1.803122292026000e+000	 1.124308189258806e+001
 1.784354175320462e+000	 1.821697059617210e+000	 1.115814160864229e+001
 1.765395743568632e+000	 1.840075506219632e+000	 1.106910111688568e+001
 1.746250091397571e+000	 1.858254723736918e+000	 1.097930276020104e+001
 1.726920372310351e+000	 1.876231869383909e+000	 1.090347746136727e+001
 1.707409796956950e+000	 1.894004167166073e+000	 1.097575249047239e+001
 1.687721631360913e+000	 1.911568909303850e+000	 1.103424704004071e+001
 1.667859195103797e+000	 1.928923457600383e+000	 1.107901889883557e+001
 1.647825859469549e+000	 1.946065244751185e+000	 1.111014021972186e+001
 1.627625045550958e+000	 1.962991775594386e+000	 1.112769751616064e+001
 1.607260222320409e+000	 1.979700628300316e+000	 1.113179164806513e+001
 1.820799961552250e+000	 1.820799961552250e+000	 1.109214459005266e+001
 1.801847843703005e+000	 1.839556834707639e+000	 1.100674366006381e+001
 1.782703544973638e+000	 1.858115462158756e+000	 1.091402463460508e+001
 1.763370190330691e+000	 1.876472907298506e+000	 1.083204655584925e+001
 1.743850964193931e+000	 1.894626299471287e+000	 1.090719682087417e+001
 1.724149108690299e+000	 1.912572835466933e+000	 1.096573989601528e+001
 1.704267921863176e+000	 1.930309780959026e+000	 1.100766970870240e+001
 1.684210755839037e+000	 1.947834471886035e+000	 1.103299701044792e+001
 1.663981014953634e+000	 1.965144315773819e+000	 1.104174943411575e+001
 1.643582153839880e+000	 1.982236792998137e+000	 1.103397153761414e+001
 1.623017675479693e+000	 1.999109457985893e+000	 1.100972483374478e+001
 1.838477631079000e+000	 1.838477631079000e+000	 1.096713384906394e+001
 1.819341512085959e+000	 1.857416609798663e+000	 1.087821248588834e+001
 1.800011346378985e+000	 1.876155418098561e+000	 1.079082718264604e+001
 1.780490289264101e+000	 1.894691090860850e+000	 1.087233811117268e+001
 1.760781556077771e+000	 1.913020729559484e+000	 1.093457435201111e+001
 1.740888420423898e+000	 1.931141503768667e+000	 1.097746202316111e+001
 1.720814212365699e+000	 1.949050652615121e+000	 1.100094637585550e+001
 1.700562316574568e+000	 1.966745486172641e+000	 1.100499191787823e+001
 1.680136170438060e+000	 1.984223386797433e+000	 1.098958252059027e+001
 1.659539262129213e+000	 2.001481810402884e+000	 1.095472150930379e+001
 1.638775128639479e+000	 2.018518287672471e+000	 1.090043173665904e+001
 1.856155300606249e+000	 1.856155300606249e+000	 1.087012272622870e+001
 1.836835180469322e+000	 1.875276384890282e+000	 1.077762217026730e+001
 1.817319147784672e+000	 1.894195374039045e+000	 1.086873393492122e+001
 1.797610388197801e+000	 1.912909274423948e+000	 1.093806601809620e+001
 1.777712147961873e+000	 1.931415159648502e+000	 1.098547303396726e+001
 1.757627732157748e+000	 1.949710172071277e+000	 1.101083088226463e+001
 1.737360502868483e+000	 1.967791524272137e+000	 1.101403694251683e+001
 1.716913877310390e+000	 1.985656500460202e+000	 1.099501024951950e+001
 1.696291325922827e+000	 2.003302457822026e+000	 1.095369164957023e+001
 1.675496370418957e+000	 2.020726827808626e+000	 1.089004393702619e+001
 1.654532581799765e+000	 2.037927117360048e+000	 1.080405197076190e+001
 1.873832970134000e+000	 1.873832970134000e+000	 1.080318774879542e+001
 1.854328848853096e+000	 1.893136159982496e+000	 1.089420637034586e+001
 1.834626949190698e+000	 1.912235329980210e+000	 1.097379329857142e+001
 1.814730487131792e+000	 1.931127457987802e+000	 1.102904072697919e+001
 1.794642739846235e+000	 1.949809589738340e+000	 1.105975160613867e+001
 1.774367043891847e+000	 1.968278840374762e+000	 1.106575243185893e+001
 1.753906793371527e+000	 1.986532395930073e+000	 1.104689349380961e+001
 1.733265438046503e+000	 2.004567514748718e+000	 1.100304910256304e+001
 1.712446481407935e+000	 2.022381528847600e+000	 1.093411779450921e+001
 1.691453478709112e+000	 2.039971845215364e+000	 1.084002251411753e+001
 1.670290034960553e+000	 2.057335947048625e+000	 1.072071077304581e+001
 1.891510639662249e+000	 1.891510639662249e+000	 1.093804502906166e+001
 1.871822517237279e+000	 1.910995935075305e+000	 1.103959920561456e+001
 1.851934750597065e+000	 1.930275285922054e+000	 1.110576593527318e+001
 1.831850586066072e+000	 1.949345641552410e+000	 1.114507041877903e+001
 1.811573331730855e+000	 1.968204019828998e+000	 1.115726476624941e+001
 1.791106355626197e+000	 1.986847508679121e+000	 1.114212686145076e+001
 1.770453083874833e+000	 2.005273267588930e+000	 1.109946066419200e+001
 1.749616998782907e+000	 2.023478529038189e+000	 1.102909648838163e+001
 1.728601636893384e+000	 2.041460599874153e+000	 1.093089125511256e+001
 1.707410586999679e+000	 2.059216862623095e+000	 1.080472872016666e+001
 1.686047488121843e+000	 2.076744776738203e+000	 1.065051967536234e+001
 1.909188309190999e+000	 1.909188309190999e+000	 1.110751717799246e+001
 1.889316185621873e+000	 1.928855710168709e+000	 1.120228682286630e+001
 1.869242552003772e+000	 1.948315241864579e+000	 1.126441207463144e+001
 1.848970685000643e+000	 1.967563825117773e+000	 1.128596111011598e+001
 1.828503923615737e+000	 1.986598449920475e+000	 1.127786335746594e+001
 1.807845667360798e+000	 2.005416176984356e+000	 1.123984885860514e+001
 1.786999374378399e+000	 2.024014139248705e+000	 1.117167598239545e+001
 1.765968559519602e+000	 2.042389543328615e+000	 1.107313175316930e+001
 1.744756792379174e+000	 2.060539670901687e+000	 1.094403215149236e+001
 1.723367695290657e+000	 2.078461880031822e+000	 1.078422238646636e+001
 1.701804941283634e+000	 2.096153606428781e+000	 1.059357713891943e+001
 1.926865978720250e+000	 1.926865978720250e+000	 1.129860380151716e+001
 1.906809854006877e+000	 1.946715485262708e+000	 1.138338479768339e+001
 1.886550353410819e+000	 1.966355197807783e+000	 1.143786256062526e+001
 1.866090783935504e+000	 1.985782008683892e+000	 1.145151675255479e+001
 1.845434515500879e+000	 2.004992880012773e+000	 1.142139454521180e+001
 1.824584979095649e+000	 2.023984845290466e+000	 1.135880786132798e+001
 1.803545664882226e+000	 2.042755010909402e+000	 1.126347019737529e+001
 1.782320120256588e+000	 2.061300557619997e+000	 1.113512597542661e+001
 1.760911947865306e+000	 2.079618741930201e+000	 1.097355089112128e+001
 1.739324803582046e+000	 2.097706897441543e+000	 1.077855223033889e+001
 1.717562394445926e+000	 2.115562436120359e+000	 1.054996915385222e+001
 1.944543648250000e+000	 1.944543648250000e+000	 1.151063359401999e+001
 1.924303522392292e+000	 1.964575260357303e+000	 1.158405480277094e+001
 1.903858154818207e+000	 1.984395153751669e+000	 1.162505326685773e+001
 1.883210882870656e+000	 2.004000192250766e+000	 1.163169422102158e+001
 1.862365107386283e+000	 2.023387310105892e+000	 1.158770198433762e+001
 1.841324290830751e+000	 2.042553513597451e+000	 1.149888829668241e+001
 1.820091955386314e+000	 2.061495882571018e+000	 1.137476758648256e+001
 1.798671680993865e+000	 2.080211571912334e+000	 1.121504234176490e+001
 1.777067103351779e+000	 2.098697812959695e+000	 1.101944861031621e+001
 1.755281911873847e+000	 2.116951914852261e+000	 1.078775636031643e+001
 1.733319847608720e+000	 2.134971265812937e+000	 1.051976980608998e+001
 1.575745316003345e+000	 1.940882968932160e+000	 1.141361177469752e+001
 1.555622455559537e+000	 1.957048485793046e+000	 1.130351834624482e+001
 1.535345736674993e+000	 1.972996064073689e+000	 1.119411641745135e+001
 1.514918689460505e+000	 1.988723551500282e+000	 1.108580762609189e+001
 1.494344883097002e+000	 2.004228871742098e+000	 1.097899521525566e+001
 1.473627923803213e+000	 2.019510025265108e+000	 1.087408375004073e+001
 1.452771452782182e+000	 2.034565090120716e+000	 1.077147883972221e+001
 1.431779144149050e+000	 2.049392222669044e+000	 1.067158686549763e+001
 1.410654702842500e+000	 2.063989658236325e+000	 1.057481471388834e+001
 1.389401862522307e+000	 2.078355711706042e+000	 1.048156951585214e+001
 1.368024383455396e+000	 2.092488778043565e+000	 1.039225839163934e+001
 1.591502769161626e+000	 1.960291798615738e+000	 1.126647747697378e+001
 1.571178680113283e+000	 1.976618970645657e+000	 1.113997101134422e+001
 1.550699194039903e+000	 1.992726024709482e+000	 1.101629866076748e+001
 1.530067876353385e+000	 2.008610787010665e+000	 1.089600641045518e+001
 1.509288331926469e+000	 2.024271160455173e+000	 1.077963874507030e+001
 1.488364203040068e+000	 2.039705125513637e+000	 1.066773823518601e+001
 1.467299167309258e+000	 2.054910741017975e+000	 1.056084513448953e+001
 1.446096935590331e+000	 2.069886144891909e+000	 1.045949698800232e+001
 1.424761249871356e+000	 2.084629554814938e+000	 1.036422825154791e+001
 1.403295881148705e+000	 2.099139268819376e+000	 1.027556992266301e+001
 1.381704627291974e+000	 2.113413665820249e+000	 1.019404918311022e+001
 1.607260222320409e+000	 1.979700628300316e+000	 1.113179164806513e+001
 1.586734904667616e+000	 1.996189455499269e+000	 1.099296626316759e+001
 1.566052651405454e+000	 2.012455985346274e+000	 1.085906071621415e+001
 1.545217063246930e+000	 2.028498022522047e+000	 1.073076340403129e+001
 1.524231780756594e+000	 2.044313449169247e+000	 1.060875815530249e+001
 1.503100482277546e+000	 2.059900225763165e+000	 1.049372368845333e+001
 1.481826881836891e+000	 2.075256391916233e+000	 1.038633308550493e+001
 1.460414727032072e+000	 2.090380067115775e+000	 1.028725328232945e+001
 1.438867796900547e+000	 2.105269451394550e+000	 1.019714457569093e+001
 1.417189899775284e+000	 2.119922825933710e+000	 1.011666014740422e+001
 1.395384871128547e+000	 2.134338553597933e+000	 1.004644560589516e+001
 1.623017675479693e+000	 1.999109457985893e+000	 1.100972483374478e+001
 1.602291129222535e+000	 2.015759940353880e+000	 1.086254970788357e+001
 1.581406108771645e+000	 2.032185945984065e+000	 1.072232497511139e+001
 1.560366250141141e+000	 2.048385258034430e+000	 1.058987956287197e+001
 1.539175229587379e+000	 2.064355737884322e+000	 1.046603479978732e+001
 1.517836761515647e+000	 2.080095326013694e+000	 1.035160374659122e+001
 1.496354596365081e+000	 2.095602042815492e+000	 1.024739054820610e+001
 1.474732518474276e+000	 2.110873989340641e+000	 1.015418980755791e+001
 1.452974343930074e+000	 2.125909347975163e+000	 1.007278598166127e+001
 1.431083918402042e+000	 2.140706383049044e+000	 1.000395280044265e+001
 1.409065114965114e+000	 2.155263441376618e+000	 9.948452708707741e+000
 1.638775128639479e+000	 2.018518287672471e+000	 1.090043173665904e+001
 1.617847353778040e+000	 2.035330425209491e+000	 1.074875598201592e+001
 1.596759566138478e+000	 2.051915906622858e+000	 1.060600767089489e+001
 1.575515437036017e+000	 2.068272493547812e+000	 1.047315443299106e+001
 1.554118678418823e+000	 2.084398026600397e+000	 1.035115330410980e+001
 1.532573040754372e+000	 2.100290426265223e+000	 1.024094993173133e+001
 1.510882310893829e+000	 2.115947693715751e+000	 1.014347780684763e+001
 1.489050309916940e+000	 2.131367911566507e+000	 1.005965752282531e+001
 1.467080890959936e+000	 2.146549244556776e+000	 9.990396061972593e+000
 1.444977937028980e+000	 2.161489940165378e+000	 9.936586110411964e+000
 1.422745358801676e+000	 2.176188329156302e+000	 9.899105401784707e+000
 1.654532581799765e+000	 2.037927117360048e+000	 1.080405197076190e+001
 1.633403578334131e+000	 2.054900910066102e+000	 1.065160927480765e+001
 1.612113023505951e+000	 2.071645867262650e+000	 1.051001917234856e+001
 1.590664623931557e+000	 2.088159729062194e+000	 1.038038621750922e+001
 1.569062127250926e+000	 2.104440315317472e+000	 1.026380140980716e+001
 1.547309319993719e+000	 2.120485526517752e+000	 1.016134127589388e+001
 1.525410025423134e+000	 2.136293344617009e+000	 1.007406698265250e+001
 1.503368101360066e+000	 2.151861833793373e+000	 1.000302348256312e+001
 1.481187437990134e+000	 2.167189141139388e+000	 9.949238692157335e+000
 1.458871955656099e+000	 2.182273497282713e+000	 9.913722704295191e+000
 1.436425602638232e+000	 2.197113216936987e+000	 9.897467034908731e+000
 1.670290034960553e+000	 2.057335947048625e+000	 1.072071077304581e+001
 1.648959802890809e+000	 2.074471394923714e+000	 1.057112382101720e+001
 1.627466480874065e+000	 2.091375827903443e+000	 1.043426426023899e+001
 1.605813810827764e+000	 2.108046964577577e+000	 1.031137183999780e+001
 1.584005576083689e+000	 2.124482604035547e+000	 1.020366982738997e+001
 1.562045599233690e+000	 2.140680626771280e+000	 1.011236396674774e+001
 1.539937739952996e+000	 2.156638995519268e+000	 1.003864147546458e+001
 1.517685892803653e+000	 2.172355756021238e+000	 9.983670077284812e+000
 1.495293985020667e+000	 2.187829037723001e+000	 9.948597074020617e+000
 1.472765974283397e+000	 2.203057054401047e+000	 9.934548456559252e+000
 1.450105846474784e+000	 2.218038104718671e+000	 9.942628055920507e+000
 1.686047488121843e+000	 2.076744776738203e+000	 1.065051967536234e+001
 1.664516027448072e+000	 2.094041879782325e+000	 1.050730436608135e+001
 1.642819938242820e+000	 2.111105788545235e+000	 1.037864238843783e+001
 1.620962997724635e+000	 2.127934200093960e+000	 1.026590700427109e+001
 1.598949024917110e+000	 2.144524892754621e+000	 1.017045209760508e+001
 1.576781878474284e+000	 2.160875727025809e+000	 1.009361101323422e+001
 1.554465454483415e+000	 2.176984646422527e+000	 1.003669543671020e+001
 1.532003684247701e+000	 2.192849678250105e+000	 1.000099431694644e+001
 1.509400532051535e+000	 2.208468934307614e+000	 9.987772832543364e+000
 1.486659992910875e+000	 2.223840611520382e+000	 9.998271402823965e+000
 1.463786090311330e+000	 2.238962992501355e+000	 1.003370474445436e+001
 1.701804941283634e+000	 2.096153606428781e+000	 1.059357713891943e+001
 1.680072252005922e+000	 2.113612364641936e+000	 1.046014660543560e+001
 1.658173395612215e+000	 2.130835749188027e+000	 1.034304793053719e+001
 1.636112184622171e+000	 2.147821435611342e+000	 1.024378625085635e+001
 1.613892473751191e+000	 2.164567181474696e+000	 1.016384446040613e+001
 1.591518157715502e+000	 2.181070827281338e+000	 1.010468192976753e+001
 1.568993169014391e+000	 2.197330297326785e+000	 1.006773327163981e+001
 1.546321475692211e+000	 2.213343600479971e+000	 1.005440715412073e+001
 1.523507079082740e+000	 2.229108830893226e+000	 1.006608516295756e+001
 1.500554011538533e+000	 2.244624168640716e+000	 1.010412071388273e+001
 1.477466334147870e+000	 2.259887880285039e+000	 1.016983801602189e+001
 1.717562394445926e+000	 2.115562436120359e+000	 1.054996915385222e+001
 1.695628476564358e+000	 2.133182849502547e+000	 1.042963759965190e+001
 1.673526852982252e+000	 2.150565709831819e+000	 1.032737041289010e+001
 1.651261371520371e+000	 2.167708671129724e+000	 1.024480301035567e+001
 1.628835922585931e+000	 2.184609470195770e+000	 1.018354573113675e+001
 1.606254436957342e+000	 2.201265927537867e+000	 1.014518243781851e+001
 1.583520883545925e+000	 2.217675948232044e+000	 1.013126916896896e+001
 1.560639267137182e+000	 2.233837522710837e+000	 1.014333284442744e+001
 1.537613626114279e+000	 2.249748727479839e+000	 1.018287002477142e+001
 1.514448030166371e+000	 2.265407725762050e+000	 1.025134572619921e+001
 1.491146577984406e+000	 2.280812768069723e+000	 1.035019229192590e+001
 1.733319847608720e+000	 2.134971265812937e+000	 1.051976980608998e+001
 1.711184701123380e+000	 2.152753334364159e+000	 1.041575616693244e+001
 1.688880310352929e+000	 2.170295670476612e+000	 1.033149473493947e+001
 1.666410558419238e+000	 2.187595906649107e+000	 1.026874965389713e+001
 1.643779371421331e+000	 2.204651758917846e+000	 1.022925718346740e+001
 1.620990716199807e+000	 2.221461027795396e+000	 1.021472418377572e+001
 1.598048598078017e+000	 2.238021599138304e+000	 1.022682665617549e+001
 1.574957058582615e+000	 2.254331444942703e+000	 1.026720834184940e+001
 1.551720173146155e+000	 2.270388624067453e+000	 1.033747937975688e+001
 1.528342048794388e+000	 2.286191282884385e+000	 1.043921502528598e+001
 1.504826821820936e+000	 2.301737655855408e+000	 1.057395443081547e+001
 1.368024383455396e+000	 2.092488778043565e+000	 1.039225839163934e+001
 1.346526050392599e+000	 2.106387332754106e+000	 1.044453482631556e+001
 1.324910670439301e+000	 2.120049932274017e+000	 1.045854779085474e+001
 1.303182070921885e+000	 2.133475214295430e+000	 1.043439990596111e+001
 1.281344097251810e+000	 2.146661898024328e+000	 1.037223419551070e+001
 1.259400610790523e+000	 2.159608784372367e+000	 1.027223381170729e+001
 1.237355486717287e+000	 2.172314756082764e+000	 1.015349515807015e+001
 1.215212611902256e+000	 2.184778777790678e+000	 1.000031445613344e+001
 1.192975882787095e+000	 2.196999896018612e+000	 9.798991925424971e+000
 1.170649203275408e+000	 2.208977239107448e+000	 9.553400910928614e+000
 1.148236482635196e+000	 2.220710017083810e+000	 9.267367839837172e+000
 1.381704627291974e+000	 2.113413665820249e+000	 1.019404918311022e+001
 1.359991310899373e+000	 2.127451206077835e+000	 1.024066762927509e+001
 1.338159777147214e+000	 2.141250431592865e+000	 1.025217277825919e+001
 1.316213891635144e+000	 2.154809966434392e+000	 1.022867699095874e+001
 1.294157538228737e+000	 2.168128517000457e+000	 1.017033015082719e+001
 1.271994616903055e+000	 2.181204872211835e+000	 1.007731941021221e+001
 1.249729041589154e+000	 2.194037903639175e+000	 9.950232720804582e+000
 1.227364738025891e+000	 2.206626565563986e+000	 9.812007158820595e+000
 1.204905641619348e+000	 2.218969894973999e+000	 9.629458719797341e+000
 1.182355695312165e+000	 2.231067011493503e+000	 9.406616538146983e+000
 1.159718847465025e+000	 2.242917117249388e+000	 9.147456941691518e+000
 1.395384871128547e+000	 2.134338553597933e+000	 1.004644560589516e+001
 1.373456571405956e+000	 2.148515079402566e+000	 1.008779941927491e+001
 1.351408883854781e+000	 2.162450930912713e+000	 1.009712434526208e+001
 1.329245712347933e+000	 2.176144718574352e+000	 1.007454240602553e+001
 1.306970979205101e+000	 2.189595135977586e+000	 1.002021030414058e+001
 1.284588623014960e+000	 2.202800960052304e+000	 9.934319190049926e+000
 1.262102596460361e+000	 2.215761051196586e+000	 9.817094388822822e+000
 1.239516864148863e+000	 2.228474353338295e+000	 9.678062909829190e+000
 1.216835400450963e+000	 2.240939893930387e+000	 9.512334971121438e+000
 1.194062187348341e+000	 2.253156783880558e+000	 9.310244884397946e+000
 1.171201212294357e+000	 2.265124217415967e+000	 9.075923732456019e+000
 1.409065114965114e+000	 2.155263441376618e+000	 9.948452708707741e+000
 1.386921831912350e+000	 2.169578952728295e+000	 9.984918674524304e+000
 1.364657990562005e+000	 2.183651430233561e+000	 9.992376357390151e+000
 1.342277533060255e+000	 2.197479470715314e+000	 9.970957360577005e+000
 1.319784420180902e+000	 2.211061754955715e+000	 9.920825162810674e+000
 1.297182629126240e+000	 2.224397047893772e+000	 9.842174906811398e+000
 1.274476151330910e+000	 2.237484198754997e+000	 9.735233150683275e+000
 1.251668990271171e+000	 2.250322141113604e+000	 9.600257582505257e+000
 1.228765159281942e+000	 2.262909892887774e+000	 9.448217395681958e+000
 1.205768679383935e+000	 2.275246556268613e+000	 9.264825048968026e+000
 1.182683577123193e+000	 2.287331317583545e+000	 9.053251810411382e+000
 1.422745358801676e+000	 2.176188329156302e+000	 9.899105401784707e+000
 1.400387092418553e+000	 2.190642826055024e+000	 9.931044482062475e+000
 1.377907097268885e+000	 2.204851929555409e+000	 9.936933964596589e+000
 1.355309353772107e+000	 2.218814222857275e+000	 9.916914952266637e+000
 1.332597861156142e+000	 2.232528373934845e+000	 9.871157654432977e+000
 1.309776635236893e+000	 2.245993135736240e+000	 9.799861196524876e+000
 1.286849706200797e+000	 2.259207346314407e+000	 9.703253395988469e+000
 1.263821116392817e+000	 2.272169928889913e+000	 9.581590504858458e+000
 1.240694918112283e+000	 2.284879891846162e+000	 9.437736540870628e+000
 1.217475171418949e+000	 2.297336328657668e+000	 9.270930136332300e+000
 1.194165941951533e+000	 2.309538417752123e+000	 9.079958882065220e+000
 1.436425602638232e+000	 2.197113216936987e+000	 9.897467034908731e+000
 1.413852352924566e+000	 2.211706699382753e+000	 9.925225080195409e+000
 1.391156203975419e+000	 2.226052428878257e+000	 9.929832111526260e+000
 1.368341174483492e+000	 2.240148975000236e+000	 9.911438648497885e+000
 1.345411302130819e+000	 2.253994992914973e+000	 9.870221583018003e+000
 1.322370641346921e+000	 2.267589223579708e+000	 9.806384009920755e+000
 1.299223261070027e+000	 2.280930493874819e+000	 9.720155027416137e+000
 1.275973242513798e+000	 2.294017716667222e+000	 9.611789507546833e+000
 1.252624676941988e+000	 2.306849890805548e+000	 9.481567836882112e+000
 1.229181663453380e+000	 2.319426101047722e+000	 9.329165636859829e+000
 1.205648306779377e+000	 2.331745517921702e+000	 9.156595137950770e+000
 1.450105846474784e+000	 2.218038104718671e+000	 9.942628055920507e+000
 1.427317613430390e+000	 2.232770572711484e+000	 9.966536483436109e+000
 1.404405310681609e+000	 2.247252928202105e+000	 9.970134132105814e+000
 1.381372995194407e+000	 2.261483727144197e+000	 9.953580853889243e+000
 1.358224743104934e+000	 2.275461611896103e+000	 9.917060172556548e+000
 1.334964647456323e+000	 2.289185311424177e+000	 9.860779135323007e+000
 1.311596815938596e+000	 2.302653641436229e+000	 9.784968137755078e+000
 1.288125368634117e+000	 2.315865504445530e+000	 9.689880722031258e+000
 1.264554435771055e+000	 2.328819889765935e+000	 9.575793348692333e+000
 1.240888155487230e+000	 2.341515873438777e+000	 9.440167899176917e+000
 1.217130671606725e+000	 2.353952618092280e+000	 9.283741720361560e+000
 1.463786090311330e+000	 2.238962992501355e+000	 1.003370474445436e+001
 1.440782873936023e+000	 2.253834446041212e+000	 1.005408118455108e+001
 1.417654417387455e+000	 2.268453427526952e+000	 1.005693042294179e+001
 1.394404815904855e+000	 2.282818479289158e+000	 1.004242155806768e+001
 1.371038184078486e+000	 2.296928230878231e+000	 1.001074469225437e+001
 1.347558653565099e+000	 2.310781399269645e+000	 9.962110804369161e+000
 1.323970370806506e+000	 2.324376788998640e+000	 9.896751599152061e+000
 1.300277494753773e+000	 2.337713292224839e+000	 9.814919333213741e+000
 1.276484194599485e+000	 2.350789888727322e+000	 9.716886617739782e+000
 1.252594647520499e+000	 2.363605645830832e+000	 9.602946197985734e+000
 1.228613036433577e+000	 2.376159718263858e+000	 9.462009277007386e+000
 1.477466334147870e+000	 2.259887880285039e+000	 1.016983801602189e+001
 1.454248134441466e+000	 2.274898319371942e+000	 1.018698692871515e+001
 1.430903524092956e+000	 2.289653926852800e+000	 1.018933719041876e+001
 1.407436636614834e+000	 2.304153231435119e+000	 1.017706705858510e+001
 1.383851625051477e+000	 2.318394849861361e+000	 1.015037315814255e+001
 1.360152659673249e+000	 2.332377487116113e+000	 1.010947037519021e+001
 1.336343925673756e+000	 2.346099936562051e+000	 1.005459173073441e+001
 1.312429620872765e+000	 2.359561080005148e+000	 9.985988234370652e+000
 1.288413953427277e+000	 2.372759887689710e+000	 9.903928717854363e+000
 1.264301139553186e+000	 2.385695418223887e+000	 9.808699648544739e+000
 1.240095401259933e+000	 2.398366818436436e+000	 9.692036595022762e+000
 1.491146577984406e+000	 2.280812768069723e+000	 1.035019229192590e+001
 1.467713394946719e+000	 2.295962192703671e+000	 1.036440555514435e+001
 1.444152630798113e+000	 2.310854426179648e+000	 1.036649526676461e+001
 1.420468457324345e+000	 2.325487983582081e+000	 1.035664875413272e+001
 1.396665066023905e+000	 2.339861468845490e+000	 1.033506910615896e+001
 1.372746665780774e+000	 2.353973574963581e+000	 1.030197508807600e+001
 1.348717480540346e+000	 2.367823084126461e+000	 1.025760103957400e+001
 1.324581746991095e+000	 2.381408867786456e+000	 1.020219675612629e+001
 1.300343712254433e+000	 2.394729886653097e+000	 1.013602735335408e+001
 1.276007631585292e+000	 2.407785190617942e+000	 1.005937311431314e+001
 1.251577766085793e+000	 2.420573918610014e+000	 9.972529319622353e+000
 1.504826821820936e+000	 2.301737655855408e+000	 1.057395443081547e+001
 1.481178655451783e+000	 2.317026066036402e+000	 1.058551190191207e+001
 1.457401737502926e+000	 2.332054925507497e+000	 1.058756899069406e+001
 1.433500278033387e+000	 2.346822735730042e+000	 1.058032200358033e+001
 1.409478506995772e+000	 2.361328087830619e+000	 1.056398043215253e+001
 1.385340671887672e+000	 2.375569662812049e+000	 1.053876688901361e+001
 1.361091035406278e+000	 2.389546231691873e+000	 1.050491703032619e+001
 1.336733873108761e+000	 2.403256655568767e+000	 1.046267946475531e+001
 1.312273471080952e+000	 2.416699885617484e+000	 1.041231564856811e+001
 1.287714123616817e+000	 2.429874963012997e+000	 1.035409976667275e+001
 1.263060130911157e+000	 2.442781018784593e+000	 1.028831859941127e+001
 1.148236482635196e+000	 2.220710017083810e+000	 9.267367839837172e+000
 1.125741633415527e+000	 2.232197521464456e+000	 9.135251435148659e+000
 1.103168569379458e+000	 2.243439124998900e+000	 9.005376340245910e+000
 1.080521203455544e+000	 2.254434281350881e+000	 8.881717353618663e+000
 1.057803445709805e+000	 2.265182524719623e+000	 8.768134658673533e+000
 1.035019201340097e+000	 2.275683469402266e+000	 8.668367242312264e+000
 1.012172368694828e+000	 2.285936809298536e+000	 8.586026665582951e+000
 9.892668373179073e-001	 2.295942317358883e+000	 8.524591196161820e+000
 9.663064860216958e-001	 2.305699844977406e+000	 8.487400311229274e+000
 9.432951809896925e-001	 2.315209321330897e+000	 8.477649578105641e+000
 9.202367739106159e-001	 2.324470752665467e+000	 8.498385918811037e+000
 1.159718847465025e+000	 2.242917117249388e+000	 9.147456941691518e+000
 1.136999049752618e+000	 2.254519496673615e+000	 9.057547134512513e+000
 1.114200255075764e+000	 2.265873516243221e+000	 8.963430413315992e+000
 1.091326415492304e+000	 2.276978624158587e+000	 8.869124836419568e+000
 1.068381480168917e+000	 2.287834349960926e+000	 8.778537958467373e+000
 1.045369393355437e+000	 2.298440304090351e+000	 8.695460030231063e+000
 1.022294092383755e+000	 2.308796177385585e+000	 8.623557551494546e+000
 9.991595056932207e-001	 2.318901740526581e+000	 8.566367187267691e+000
 9.759695508843156e-001	 2.328756843421378e+000	 8.527290056360302e+000
 9.527281328023738e-001	 2.338361414538538e+000	 8.509586400127587e+000
 9.294391416530002e-001	 2.347715460186632e+000	 8.516370637976504e+000
 1.171201212294357e+000	 2.265124217415967e+000	 9.075923732456019e+000
 1.148256466089302e+000	 2.276841471883772e+000	 9.021239952507616e+000
 1.125231940771734e+000	 2.288307907488541e+000	 8.956091821163234e+000
 1.102131627528776e+000	 2.299522966967292e+000	 8.884546442417193e+000
 1.078959514627770e+000	 2.310486175203229e+000	 8.810564319334413e+000
 1.055719585370526e+000	 2.321197138779436e+000	 8.737992329397924e+000
 1.032415816072421e+000	 2.331655545473632e+000	 8.670557054348411e+000
 1.009052174068241e+000	 2.341861163695277e+000	 8.611858475253495e+000
 9.856326157465907e-001	 2.351813841866350e+000	 8.565364042311147e+000
 9.621610846146402e-001	 2.361513507747179e+000	 8.534403127647749e+000
 9.386415093948795e-001	 2.370960167708796e+000	 8.522161868127686e+000
 1.182683577123193e+000	 2.287331317583545e+000	 9.053251810411382e+000
 1.159513882425580e+000	 2.299163447094930e+000	 9.026903224562606e+000
 1.136263626467366e+000	 2.310742298734863e+000	 8.984019461824232e+000
 1.112936839564960e+000	 2.322067309776998e+000	 8.928722474454341e+000
 1.089537549086364e+000	 2.333138000446533e+000	 8.865031309897976e+000
 1.066069777385366e+000	 2.343953973469521e+000	 8.796854855940531e+000
 1.042537539760825e+000	 2.354514913562680e+000	 8.727984942156770e+000
 1.018944842442968e+000	 2.364820586864975e+000	 8.662089808893581e+000
 9.952956806085219e-001	 2.374870840312322e+000	 8.602707953767217e+000
 9.715940364264912e-001	 2.384665600956820e+000	 8.553242364389478e+000
 9.478438771362536e-001	 2.394204875231962e+000	 8.516955144769932e+000
 1.194165941951533e+000	 2.309538417752123e+000	 9.079958882065220e+000
 1.170771298761452e+000	 2.321485422307088e+000	 9.075138923928211e+000
 1.147295312162661e+000	 2.333176689982184e+000	 9.047895576212882e+000
 1.123742051600856e+000	 2.344611652587703e+000	 9.002411460342078e+000
 1.100115583544699e+000	 2.355789825690836e+000	 8.942769784330443e+000
 1.076419969399954e+000	 2.366710808160607e+000	 8.872946851937460e+000
 1.052659263448967e+000	 2.377374281652728e+000	 8.796804930315428e+000
 1.028837510817402e+000	 2.387780010035671e+000	 8.718085487896810e+000
 1.004958745470109e+000	 2.397927838759294e+000	 8.640402812983504e+000
 9.810269882379279e-001	 2.407817694167462e+000	 8.567238022210253e+000
 9.570462448771225e-001	 2.417449582756126e+000	 8.501933466762003e+000
 1.205648306779377e+000	 2.331745517921702e+000	 9.156595137950770e+000
 1.182028715096917e+000	 2.343807397520245e+000	 9.166576297971480e+000
 1.158326997857619e+000	 2.355611081230504e+000	 9.148424636554747e+000
 1.134547263636464e+000	 2.367155995399408e+000	 9.106389285004081e+000
 1.110693618002774e+000	 2.378441650936139e+000	 9.044623249707922e+000
 1.086770161414292e+000	 2.389467642852691e+000	 8.967175679420528e+000
 1.062780987136847e+000	 2.400233649743777e+000	 8.877984493632926e+000
 1.038730179191542e+000	 2.410739433207368e+000	 8.780869384290375e+000
 1.014621810331352e+000	 2.420984837207266e+000	 8.679525201805188e+000
 9.904599400489497e-001	 2.430969787379103e+000	 8.577515735000526e+000
 9.662486126174865e-001	 2.440694290281291e+000	 8.478267893299170e+000
 1.217130671606725e+000	 2.353952618092280e+000	 9.283741720361560e+000
 1.193286131431976e+000	 2.366129372734403e+000	 9.301870581660692e+000
 1.169358683552240e+000	 2.378045472479826e+000	 9.286332297740158e+000
 1.145352475671785e+000	 2.389700338212114e+000	 9.241448371744991e+000
 1.121271652460591e+000	 2.401093476182442e+000	 9.171447269175253e+000
 1.097120353428380e+000	 2.412224477545776e+000	 9.080456437358063e+000
 1.072902710824466e+000	 2.423093017835825e+000	 8.972494688999943e+000
 1.048622847565390e+000	 2.433698856380066e+000	 8.851464962593516e+000
 1.024284875192251e+000	 2.444041835656238e+000	 8.721147471120743e+000
 9.998928918595562e-001	 2.454121880591744e+000	 8.585193249153409e+000
 9.754509803573452e-001	 2.463938997807456e+000	 8.447118107104911e+000
 1.228613036433577e+000	 2.376159718263858e+000	 9.462009277007386e+000
 1.204543547766628e+000	 2.388451347949561e+000	 9.481701783191658e+000
 1.180390369246525e+000	 2.400479863730146e+000	 9.462364407480209e+000
 1.156157687706817e+000	 2.412244681025820e+000	 9.408396909428785e+000
 1.131849686918147e+000	 2.423745301429745e+000	 9.324108898578215e+000
 1.107470545442217e+000	 2.434981312239862e+000	 9.213711600115849e+000
 1.083024434511822e+000	 2.445952385928873e+000	 9.081309988002049e+000
 1.058515515938944e+000	 2.456658279553762e+000	 8.930895298860087e+000
 1.033947940052805e+000	 2.467098834106210e+000	 8.766337938570326e+000
 1.009325843669748e+000	 2.477273973805384e+000	 8.591380792139605e+000
 9.846533480966987e-001	 2.487183705334621e+000	 8.409632946041731e+000
 1.240095401259933e+000	 2.398366818436436e+000	 9.692036595022762e+000
 1.215800964100875e+000	 2.410773323165718e+000	 9.706773537078730e+000
 1.191422054940472e+000	 2.422914254981468e+000	 9.677286071453803e+000
 1.166962899741561e+000	 2.434789023840525e+000	 9.608058122591793e+000
 1.142427721375445e+000	 2.446397126678048e+000	 9.503486154394148e+000
 1.117820737455804e+000	 2.457738146934947e+000	 9.367870676003626e+000
 1.093146158198917e+000	 2.468811754022922e+000	 9.205408118832207e+000
 1.068408184312206e+000	 2.479617702728460e+000	 9.020183098662827e+000
 1.043611004913016e+000	 2.490155832557182e+000	 8.816161075270140e+000
 1.018758795479525e+000	 2.500426067020026e+000	 8.607508937829243e+000
 9.938557158355471e-001	 2.510428412862785e+000	 8.606296071022856e+000
 1.251577766085793e+000	 2.420573918610014e+000	 9.972529319622353e+000
 1.227058380434714e+000	 2.433095298382876e+000	 9.977812020378956e+000
 1.202453740634082e+000	 2.445348646233789e+000	 9.931880769914731e+000
 1.177768111776018e+000	 2.457333366656231e+000	 9.841269581732867e+000
 1.153005755832484e+000	 2.469048951927352e+000	 9.710467510950517e+000
 1.128170929469140e+000	 2.480494981631032e+000	 9.543869884616962e+000
 1.103267881885750e+000	 2.491671122117969e+000	 9.345769916904965e+000
 1.078300852685174e+000	 2.502577125904156e+000	 9.188824911695624e+000
 1.053274069772882e+000	 2.513212831009154e+000	 9.210424473730326e+000
 1.028191747288888e+000	 2.523578160235667e+000	 9.182555041561152e+000
 1.003058083573891e+000	 2.533673120391951e+000	 9.105072232968931e+000
 1.263060130911157e+000	 2.442781018784593e+000	 1.028831859941127e+001
 1.238315796768149e+000	 2.455417273601034e+000	 1.029556492803090e+001
 1.213485426327356e+000	 2.467783037487111e+000	 1.022694952248357e+001
 1.188573323810187e+000	 2.479877709472937e+000	 1.010888255122441e+001
 1.163583790289265e+000	 2.491700777177656e+000	 9.945951425068362e+000
 1.138521121482226e+000	 2.503251816328117e+000	 9.833866478838484e+000
 1.113389605572322e+000	 2.514530490214019e+000	 9.902704824036848e+000
 1.088193521057850e+000	 2.525536549080854e+000	 9.915730799452540e+000
 1.062937134632405e+000	 2.536269829462127e+000	 9.872536104211667e+000
 1.037624699097835e+000	 2.546730253452309e+000	 9.772806301514404e+000
 1.012260451311729e+000	 2.556917827922117e+000	 9.616321599285680e+000
 9.202367739106159e-001	 2.324470752665467e+000	 8.498385918811037e+000
 8.971351001457416e-001	 2.333484221532295e+000	 8.457251950289475e+000
 8.739939769303398e-001	 2.342249885973674e+000	 8.396627094583975e+000
 8.508172016108214e-001	 2.350767978661281e+000	 8.318764812388908e+000
 8.276085499197395e-001	 2.359038805988396e+000	 8.225811832894321e+000
 8.043717742891899e-001	 2.367062747117389e+000	 8.119804844914526e+000
 7.811106022040244e-001	 2.374840252984292e+000	 8.002667521299326e+000
 7.578287345960116e-001	 2.382371845262165e+000	 7.876207876885720e+000
 7.345298442800076e-001	 2.389658115285039e+000	 7.742115959273342e+000
 7.112175744331116e-001	 2.396699722934155e+000	 7.601961870763591e+000
 6.878955371177123e-001	 2.403497395488342e+000	 7.457194118883670e+000
 9.294391416530002e-001	 2.347715460186632e+000	 8.516370637976504e+000
 9.061064511509912e-001	 2.356819063742346e+000	 8.439761997672449e+000
 8.827339167038776e-001	 2.365672384828394e+000	 8.351620169506509e+000
 8.593253736315348e-001	 2.374275658443167e+000	 8.254356860180559e+000
 8.358846354238423e-001	 2.382629194043878e+000	 8.150265629603460e+000
 8.124154920372165e-001	 2.390733374584523e+000	 8.041518511341035e+000
 7.889217082313587e-001	 2.398588655510490e+000	 7.930162986115917e+000
 7.654070219473557e-001	 2.406195563711574e+000	 7.818119308386132e+000
 7.418751427282125e-001	 2.413554696435142e+000	 7.707178185015754e+000
 7.183297501827994e-001	 2.420666720161248e+000	 7.598998804063309e+000
 6.947744924941302e-001	 2.427532369441510e+000	 7.495107210758311e+000
 9.386415093948795e-001	 2.370960167708796e+000	 8.522161868127686e+000
 9.150778021556407e-001	 2.380153905953393e+000	 8.411451704617438e+000
 8.914738564767309e-001	 2.389094883684093e+000	 8.297122549075032e+000
 8.678335456514892e-001	 2.397783338226005e+000	 8.181746995200740e+000
 8.441607209271217e-001	 2.406219582100279e+000	 8.067768007645180e+000
 8.204592097843656e-001	 2.414404002052529e+000	 7.957495468511699e+000
 7.967328142577711e-001	 2.422337058037504e+000	 7.853103096904482e+000
 7.729853092977437e-001	 2.430019282161732e+000	 7.756625741327518e+000
 7.492204411754364e-001	 2.437451277585918e+000	 7.669957043675605e+000
 7.254419259314923e-001	 2.444633717388931e+000	 7.594847472531458e+000
 7.016534478695476e-001	 2.451567343395171e+000	 7.532902722486718e+000
 9.478438771362536e-001	 2.394204875231962e+000	 8.516955144769932e+000
 9.240491531596904e-001	 2.403488748165434e+000	 8.373384661311739e+000
 9.002137962488996e-001	 2.412517382540771e+000	 8.234070173095658e+000
 8.763417176706848e-001	 2.421291018009799e+000	 8.101747860740092e+000
 8.524368064295773e-001	 2.429809970157597e+000	 7.979012722714900e+000
 8.285029275306370e-001	 2.438074629521406e+000	 7.868315044607866e+000
 8.045439202832618e-001	 2.446085460565335e+000	 7.771957261671989e+000
 7.805635966471756e-001	 2.453843000612641e+000	 7.692091214230723e+000
 7.565657396216801e-001	 2.461347858737370e+000	 7.630715794415770e+000
 7.325541016791896e-001	 2.468600714617200e+000	 7.589674981637199e+000
 7.085324032439653e-001	 2.475602317349326e+000	 7.570656263151122e+000
 9.570462448771225e-001	 2.417449582756126e+000	 8.501933466762003e+000
 9.330205041631401e-001	 2.426823590378469e+000	 8.326615220275508e+000
 9.089537360203834e-001	 2.435939881398428e+000	 8.163392912343793e+000
 8.848498896891212e-001	 2.444798697794545e+000	 8.015169068767580e+000
 8.607128919312100e-001	 2.453400358215833e+000	 7.884693405467028e+000
 8.365466452760307e-001	 2.461745256991155e+000	 7.774559217208437e+000
 8.123550263078306e-001	 2.469833863093982e+000	 7.687200180086864e+000
 7.881418839956511e-001	 2.477666719064299e+000	 7.624887567119786e+000
 7.639110380669429e-001	 2.485244439889494e+000	 7.589727875155528e+000
 7.396662774258919e-001	 2.492567711846060e+000	 7.583660860185318e+000
 7.154113586173831e-001	 2.499637291303976e+000	 7.608457977070128e+000
 9.662486126174865e-001	 2.440694290281291e+000	 8.478267893299170e+000
 9.419918551659895e-001	 2.450158432592499e+000	 8.272188936250670e+000
 9.176936757911829e-001	 2.459362380257065e+000	 8.086014857565724e+000
 8.933580617067983e-001	 2.468306377580246e+000	 7.922817344278831e+000
 8.689889774320192e-001	 2.476990746274987e+000	 7.785503567469684e+000
 8.445903630205469e-001	 2.485415884461776e+000	 7.676812487127744e+000
 8.201661323314775e-001	 2.493582265623445e+000	 7.599311591495139e+000
 7.957201713431706e-001	 2.501490437516709e+000	 7.566917988831197e+000
 7.712563365112256e-001	 2.509141021042295e+000	 7.594270381101044e+000
 7.467784531715992e-001	 2.516534709075509e+000	 7.616730500525903e+000
 7.222903139898008e-001	 2.523672265259119e+000	 7.635009097813898e+000
 9.754509803573452e-001	 2.463938997807456e+000	 8.447118107104911e+000
 9.509632061682393e-001	 2.473493274807525e+000	 8.211142981190401e+000
 9.264336155612976e-001	 2.482784879116681e+000	 8.002854592121659e+000
 9.018662337237166e-001	 2.491814057366900e+000	 7.825496661474237e+000
 8.772650629320052e-001	 2.500581134335059e+000	 7.690961039477922e+000
 8.526340807641855e-001	 2.509086511933270e+000	 7.694369997739913e+000
 8.279772383542029e-001	 2.517330668153723e+000	 7.695839580311169e+000
 8.032984586897338e-001	 2.525314155969867e+000	 7.695963659977767e+000
 7.786016349545272e-001	 2.533037602195769e+000	 7.695377311108162e+000
 7.538906289163110e-001	 2.540501706305546e+000	 7.694756587486878e+000
 7.291692693612184e-001	 2.547707239214755e+000	 7.694818201405541e+000
 9.846533480966987e-001	 2.487183705334621e+000	 8.409632946041731e+000
 9.599345571698887e-001	 2.496828117023545e+000	 8.144506535978417e+000
 9.351735553307278e-001	 2.506207377977277e+000	 8.035592614138160e+000
 9.103744057398758e-001	 2.515321737154508e+000	 7.994731543714547e+000
 8.855411484311674e-001	 2.524171522396048e+000	 7.955525591905741e+000
 8.606777985069464e-001	 2.532757139405634e+000	 7.918509114837921e+000
 8.357883443760058e-001	 2.541079070684818e+000	 7.884254065616143e+000
 8.108767460353409e-001	 2.549137874423776e+000	 7.853370049751553e+000
 7.859469333968487e-001	 2.556934183349918e+000	 7.826504281426860e+000
 7.610028046600279e-001	 2.564468703536173e+000	 7.804341441451861e+000
 7.360482247316361e-001	 2.571742213170885e+000	 7.787603438054513e+000
 9.938557158355471e-001	 2.510428412862785e+000	 8.606296071022856e+000
 9.689059081709385e-001	 2.520162959240560e+000	 8.507004897617877e+000
 9.439134950994733e-001	 2.529629876838852e+000	 8.412902840415280e+000
 9.188825777552759e-001	 2.538829416943069e+000	 8.324479028710730e+000
 8.938172339295064e-001	 2.547761910457955e+000	 8.242255980774328e+000
 8.687215162488298e-001	 2.556427766878871e+000	 8.166789931623859e+000
 8.435994503968872e-001	 2.564827473216728e+000	 8.098671063080877e+000
 8.184550333799922e-001	 2.572961592878435e+000	 8.038523636138343e+000
 7.932922318381895e-001	 2.580830764504741e+000	 7.987006025986423e+000
 7.681149804027495e-001	 2.588435700767387e+000	 7.944810660351295e+000
 7.429271801010537e-001	 2.595777187127509e+000	 7.912663862102621e+000
 1.003058083573891e+000	 2.533673120391951e+000	 9.105072232968931e+000
 9.778772591713881e-001	 2.543497801458570e+000	 8.951583245694101e+000
 9.526534348675341e-001	 2.553052375701406e+000	 8.807666824924306e+000
 9.273907497699170e-001	 2.562337096732584e+000	 8.673840029536445e+000
 9.020933194270221e-001	 2.571352298520781e+000	 8.550649604115865e+000
 8.767652339898353e-001	 2.580098394352981e+000	 8.438672380323348e+000
 8.514105564168467e-001	 2.588575875749455e+000	 8.338515582616852e+000
 8.260333207236869e-001	 2.596785311333844e+000	 8.250817038154219e+000
 8.006375302785497e-001	 2.604727345660237e+000	 8.176245291024273e+000
 7.752271561444761e-001	 2.612402697999191e+000	 8.115499621266482e+000
 7.498061354694716e-001	 2.619812161084627e+000	 8.069309969445998e+000
 1.012260451311729e+000	 2.556917827922117e+000	 9.616321599285680e+000
 9.868486101712383e-001	 2.566832643677576e+000	 9.410965150129423e+000
 9.613933746349105e-001	 2.576474874564940e+000	 9.219460009589392e+000
 9.358989217837993e-001	 2.585844776523053e+000	 9.042349686660321e+000
 9.103694049237148e-001	 2.594942686584524e+000	 8.880203766009741e+000
 8.848089517299635e-001	 2.603769021827962e+000	 8.733618383866112e+000
 8.592216624358849e-001	 2.612324278282999e+000	 8.603216610183603e+000
 8.336116080664260e-001	 2.620609029790004e+000	 8.489648736707634e+000
 8.079828287179296e-001	 2.628623926816410e+000	 8.393592470890217e+000
 7.823393318852077e-001	 2.636369695231585e+000	 8.315753035922876e+000
 7.566850908368894e-001	 2.643847135042238e+000	 8.256863177464597e+000
 6.878955371177123e-001	 2.403497395488342e+000	 7.457194118883670e+000
 6.645673118488593e-001	 2.410051926439911e+000	 7.308837715014135e+000
 6.412364442077186e-001	 2.416364174279133e+000	 7.172735680242387e+000
 6.179064445013768e-001	 2.422435061248221e+000	 7.054610180666062e+000
 5.945807864685845e-001	 2.428265572065930e+000	 6.947002041599051e+000
 5.712629060330331e-001	 2.433856752625838e+000	 6.834148727170758e+000
 5.479562001042996e-001	 2.439209708669709e+000	 6.718243601189964e+000
 5.246640254268117e-001	 2.444325604437782e+000	 6.601255384907860e+000
 5.013896974771256e-001	 2.449205661297807e+000	 6.484927925627140e+000
 4.781364894097321e-001	 2.453851156354649e+000	 6.370780480788216e+000
 4.549076310515292e-001	 2.458263421042266e+000	 6.260108503597169e+000
 6.947744924941302e-001	 2.427532369441510e+000	 7.495107210758311e+000
 6.712129849723891e-001	 2.434152445703129e+000	 7.404870867326727e+000
 6.476488086545391e-001	 2.440527816021247e+000	 7.332010875112262e+000
 6.240855089507384e-001	 2.446659411860499e+000	 7.278170884801644e+000
 6.005265943371260e-001	 2.452548227786828e+000	 7.242131465810023e+000
 5.769755350966310e-001	 2.458195320152748e+000	 7.206945991089885e+000
 5.534357621079269e-001	 2.463601805757440e+000	 7.174868614789206e+000
 5.299106656828870e-001	 2.468768860483547e+000	 7.147917856682567e+000
 5.064035944528335e-001	 2.473697717912495e+000	 7.127876431657135e+000
 4.829178543038030e-001	 2.478389667920199e+000	 7.116291613855944e+000
 4.594567073609638e-001	 2.482846055254957e+000	 7.114476120939192e+000
 7.016534478695476e-001	 2.451567343395171e+000	 7.532902722486718e+000
 6.778586580949291e-001	 2.458252964966745e+000	 7.499665157388876e+000
 6.540611731004010e-001	 2.464691457763677e+000	 7.488986707871328e+000
 6.302645733991933e-001	 2.470883762473018e+000	 7.502170537197745e+000
 6.064724022048327e-001	 2.476830883507902e+000	 7.534698118152496e+000
 5.826881641594863e-001	 2.482533887679780e+000	 7.574878714938522e+000
 5.589153241109239e-001	 2.487993902845249e+000	 7.624444844299536e+000
 5.351573059384638e-001	 2.493212116529355e+000	 7.685468376946675e+000
 5.114174914281945e-001	 2.498189774527202e+000	 7.759774204216441e+000
 4.876992191976983e-001	 2.502928179485755e+000	 7.744915761955412e+000
 4.640057836704129e-001	 2.507428689467647e+000	 7.657625632133270e+000
 7.085324032439653e-001	 2.475602317349326e+000	 7.570656263151122e+000
 6.845043312164796e-001	 2.482353484230761e+000	 7.593272574498331e+000
 6.604735375453047e-001	 2.488855099506419e+000	 7.643693891002579e+000
 6.364436378467412e-001	 2.495108113085776e+000	 7.723243502325523e+000
 6.124182100717045e-001	 2.501113539229152e+000	 7.808821691779672e+000
 5.884007932215989e-001	 2.506872455206933e+000	 7.810864813357976e+000
 5.643948861132904e-001	 2.512385999933136e+000	 7.790400387376998e+000
 5.404039461935422e-001	 2.517655372575207e+000	 7.749751798014141e+000
 5.164313884032087e-001	 2.522681831141930e+000	 7.691197642661979e+000
 4.924805840914177e-001	 2.527466691051314e+000	 7.616970754570288e+000
 4.685548599798770e-001	 2.532011323680339e+000	 7.529257328867142e+000
 7.154113586173831e-001	 2.499637291303976e+000	 7.608457977070128e+000
 6.911500043370404e-001	 2.506454003495176e+000	 7.658450103002632e+000
 6.668859019892492e-001	 2.513018741249476e+000	 7.699609239162788e+000
 6.426227022933821e-001	 2.519332463698774e+000	 7.733294492170453e+000
 6.183640179377414e-001	 2.525396194950578e+000	 7.754317066201714e+000
 5.941134222829687e-001	 2.531211022734208e+000	 7.742851011432852e+000
 5.698744481150263e-001	 2.536778097021101e+000	 7.711228840448262e+000
 5.456505864481219e-001	 2.542098628621103e+000	 7.661776609376706e+000
 5.214452853778759e-001	 2.547173887756675e+000	 7.596772711557390e+000
 4.972619489849617e-001	 2.552005202616879e+000	 7.518446966908981e+000
 4.731039362893555e-001	 2.556593957893029e+000	 7.428979817512774e+000
 7.222903139898008e-001	 2.523672265259119e+000	 7.635009097813898e+000
 6.977956774566120e-001	 2.530554522759990e+000	 7.669866242577701e+000
 6.732982664322361e-001	 2.537182382992848e+000	 7.697723270991061e+000
 6.488017667391163e-001	 2.543556814312013e+000	 7.719478199576305e+000
 6.243098258029436e-001	 2.549678850672180e+000	 7.735209386182253e+000
 5.998260513435958e-001	 2.555549590261605e+000	 7.708947029928390e+000
 5.753540101161317e-001	 2.561170194109143e+000	 7.664876027821460e+000
 5.508972267022031e-001	 2.566541884667042e+000	 7.605325691640037e+000
 5.264591823521964e-001	 2.571665944371441e+000	 7.532574765022626e+000
 5.020433138783298e-001	 2.576543714182449e+000	 7.448850579980284e+000
 4.776530125988488e-001	 2.581176592105721e+000	 7.356328322500080e+000
 7.291692693612184e-001	 2.547707239214755e+000	 7.694818201405541e+000
 7.044413505751935e-001	 2.554655042025202e+000	 7.714361457119222e+000
 6.797106308742640e-001	 2.561346024736534e+000	 7.728253421244650e+000
 6.549808311839437e-001	 2.567781164925491e+000	 7.737361900675890e+000
 6.302556336673104e-001	 2.573961506393957e+000	 7.742600275908934e+000
 6.055386804034801e-001	 2.579888157789124e+000	 7.708566891086806e+000
 5.808335721166065e-001	 2.585562291197262e+000	 7.650779079831703e+000
 5.561438669557858e-001	 2.590985140713024e+000	 7.579860617728092e+000
 5.314730793261701e-001	 2.596158000986225e+000	 7.498091131532354e+000
 5.068246787715222e-001	 2.601082225748022e+000	 7.407695968530960e+000
 4.822020889083566e-001	 2.605759226318411e+000	 7.310845532655538e+000
 7.360482247316361e-001	 2.571742213170885e+000	 7.787603438054513e+000
 7.110870236927857e-001	 2.578755561290814e+000	 7.791251346796391e+000
 6.861229953153335e-001	 2.585509666480533e+000	 7.790544467381239e+000
 6.611598956278639e-001	 2.592005515539210e+000	 7.786320164039737e+000
 6.362014415308428e-001	 2.598244162115910e+000	 7.779461838537466e+000
 6.112513094626219e-001	 2.604226725316765e+000	 7.741134885646659e+000
 5.863131341164509e-001	 2.609954388285460e+000	 7.668384830491400e+000
 5.613905072088702e-001	 2.615428396759051e+000	 7.584852066007076e+000
 5.364869762997969e-001	 2.620650057601029e+000	 7.492817613881438e+000
 5.116060436645389e-001	 2.625620737313602e+000	 7.394505318160203e+000
 4.867511652178794e-001	 2.630341860531103e+000	 7.292081252398512e+000
 7.429271801010537e-001	 2.595777187127509e+000	 7.912663862102621e+000
 7.177326968093882e-001	 2.602856080556824e+000	 7.899863131209233e+000
 6.925353597554443e-001	 2.609673308224849e+000	 7.883952399892550e+000
 6.673389600708776e-001	 2.616229866153168e+000	 7.865738331114983e+000
 6.421472493935400e-001	 2.622526817838040e+000	 7.846074144046622e+000
 6.169639385210209e-001	 2.628565292844528e+000	 7.806085097449783e+000
 5.917926961156648e-001	 2.634346485373736e+000	 7.717149368246713e+000
 5.666371474614558e-001	 2.639871652805121e+000	 7.619779398737704e+000
 5.415008732730768e-001	 2.645142114215853e+000	 7.516258096855374e+000
 5.163874085573799e-001	 2.650159248879186e+000	 7.408808263706502e+000
 4.913002415274165e-001	 2.654924494743793e+000	 7.299592072315900e+000
 7.498061354694716e-001	 2.619812161084627e+000	 8.069309969445998e+000
 7.243783699250013e-001	 2.626956599823234e+000	 8.039535116387128e+000
 6.989477241945968e-001	 2.633836949969477e+000	 8.007843907944992e+000
 6.735180245129840e-001	 2.640454216767367e+000	 7.975012022056605e+000
 6.480930572554026e-001	 2.646809473560346e+000	 7.941862266455197e+000
 6.226765675786771e-001	 2.652903860372412e+000	 7.902860954215840e+000
 5.972722581142479e-001	 2.658738582462089e+000	 7.796537611461410e+000
 5.718837877135431e-001	 2.664314908851234e+000	 7.684130263730824e+000
 5.465147702460100e-001	 2.669634170830696e+000	 7.567924176496833e+000
 5.211687734500450e-001	 2.674697760444775e+000	 7.450141547539285e+000
 4.958493178369686e-001	 2.679507128956484e+000	 7.332941057869475e+000
 7.566850908368894e-001	 2.643847135042238e+000	 8.256863177464597e+000
 7.310240430396248e-001	 2.651057119090043e+000	 8.209616190860208e+000
 7.053600886327910e-001	 2.658000591714422e+000	 8.161595893076196e+000
 6.796970889541841e-001	 2.664678567381807e+000	 8.113546668513388e+000
 6.540388651164302e-001	 2.671092129282827e+000	 8.066260660062790e+000
 6.283891966355909e-001	 2.677242427900419e+000	 8.020577005939312e+000
 6.027518201122010e-001	 2.683130679550521e+000	 7.906022907057577e+000
 5.771304279651321e-001	 2.688758164897392e+000	 7.777400217731937e+000
 5.515286672185965e-001	 2.694126227445559e+000	 7.647334809593959e+000
 5.259501383425347e-001	 2.699236272010369e+000	 7.518048696489220e+000
 5.003983941465354e-001	 2.704089763169176e+000	 7.391697455084086e+000
 4.549076310515292e-001	 2.458263421042266e+000	 6.260108503597169e+000
 4.317063079453936e-001	 2.462443839700501e+000	 6.217702159574087e+000
 4.085356604418978e-001	 2.466393848136456e+000	 6.180801913872433e+000
 3.853987828395767e-001	 2.470114932173584e+000	 6.150216794919473e+000
 3.622987225744604e-001	 2.473608626191484e+000	 6.126535713033681e+000
 3.392384794576842e-001	 2.476876511656140e+000	 6.110130434463371e+000
 3.162210049612340e-001	 2.479920215642903e+000	 6.101158962208922e+000
 2.932492015515172e-001	 2.482741409353889e+000	 6.099569304318202e+000
 2.703259220703973e-001	 2.485341806631373e+000	 6.105103609893060e+000
 2.474539691632788e-001	 2.487723162468773e+000	 6.117302652667111e+000
 2.246360947537655e-001	 2.489887271520747e+000	 6.135510641717600e+000
 4.594567073609638e-001	 2.482846055254957e+000	 7.114476120939192e+000
 4.360233710227999e-001	 2.487068278099993e+000	 7.193272050783547e+000
 4.126210170435670e-001	 2.491057786620465e+000	 7.282312449112451e+000
 3.892527706647824e-001	 2.494816081498056e+000	 7.382393314971822e+000
 3.659217097968348e-001	 2.498344712456170e+000	 7.494081655409103e+000
 3.426308642489678e-001	 2.501645276775445e+000	 7.510629359381009e+000
 3.193832150078855e-001	 2.504719417801990e+000	 7.421286316911361e+000
 2.961816935646566e-001	 2.507568823449939e+000	 7.327331832174663e+000
 2.730291812895607e-001	 2.510195224699992e+000	 7.230771261818200e+000
 2.499285088544538e-001	 2.512600394095503e+000	 7.133560311780088e+000
 2.268824557021734e-001	 2.514786144237676e+000	 7.037604794097057e+000
 4.640057836704129e-001	 2.507428689467647e+000	 7.657625632133270e+000
 4.403404341004001e-001	 2.511692716499485e+000	 7.631909371371132e+000
 4.167063736455675e-001	 2.515721725104473e+000	 7.591629059948772e+000
 3.931067584904162e-001	 2.519517230822531e+000	 7.539018505158363e+000
 3.695446970196927e-001	 2.523080798720857e+000	 7.476263219217657e+000
 3.460232490407508e-001	 2.526414041894752e+000	 7.405499806987584e+000
 3.225454250550116e-001	 2.529518619961077e+000	 7.328815443961417e+000
 2.991141855782062e-001	 2.532396237545989e+000	 7.248247441657910e+000
 2.757324405090309e-001	 2.535048642768612e+000	 7.165782897477871e+000
 2.524030485457932e-001	 2.537477625722233e+000	 7.083358426020084e+000
 2.291288166505648e-001	 2.539685016954604e+000	 7.002859968800288e+000
 4.685548599798770e-001	 2.532011323680339e+000	 7.529257328867142e+000
 4.446574971781941e-001	 2.536317154898977e+000	 7.510424510437455e+000
 4.207917302478996e-001	 2.540385663588481e+000	 7.477859824086169e+000
 3.969607463164778e-001	 2.544218380147005e+000	 7.433784158553717e+000
 3.731676842430345e-001	 2.547816884985543e+000	 7.380368973458433e+000
 3.494156338330328e-001	 2.551182807014058e+000	 7.319735738980054e+000
 3.257076351026121e-001	 2.554317822120163e+000	 7.253955466483825e+000
 3.020466775921660e-001	 2.557223651642039e+000	 7.185048327083747e+000
 2.784356997288076e-001	 2.559902060837231e+000	 7.114983355068800e+000
 2.548775882372969e-001	 2.562354857348963e+000	 7.045678233057501e+000
 2.313751775989394e-001	 2.564583889671531e+000	 6.978999155699163e+000
 4.731039362893555e-001	 2.556593957893029e+000	 7.428979817512774e+000
 4.489745602561820e-001	 2.560941593298469e+000	 7.415181743260903e+000
 4.248770868505629e-001	 2.565049602072488e+000	 7.388511782013255e+000
 4.008147341429674e-001	 2.568919529471479e+000	 7.351178275122612e+000
 3.767906714668599e-001	 2.572552971250230e+000	 7.305338958993781e+000
 3.528080186258139e-001	 2.575951572133364e+000	 7.253100457673200e+000
 3.288698451506871e-001	 2.579117024279251e+000	 7.196517867090184e+000
 3.049791696065360e-001	 2.582051065738089e+000	 7.137594427801821e+000
 2.811389589488911e-001	 2.584755478905851e+000	 7.078281283030919e+000
 2.573521279289648e-001	 2.587232088975693e+000	 7.020477318729255e+000
 2.336215385472976e-001	 2.589482762388461e+000	 6.966029082353249e+000
 4.776530125988488e-001	 2.581176592105721e+000	 7.356328322500080e+000
 4.532916233343635e-001	 2.585566031697960e+000	 7.345761347902752e+000
 4.289624434535578e-001	 2.589713540556496e+000	 7.323210662233727e+000
 4.046687219698851e-001	 2.593620678795953e+000	 7.290872407249333e+000
 3.804136586911692e-001	 2.597289057514916e+000	 7.250890902063537e+000
 3.562004034190940e-001	 2.600720337252670e+000	 7.205358189614461e+000
 3.320320551992365e-001	 2.603916226438336e+000	 7.156313675524009e+000
 3.079116616213161e-001	 2.606878479834139e+000	 7.105743856062947e+000
 2.838422181692811e-001	 2.609608896974470e+000	 7.055582131866610e+000
 2.598266676207969e-001	 2.612109320602423e+000	 7.007708703998929e+000
 2.358678994956391e-001	 2.614381635105389e+000	 6.963950548917934e+000
 4.822020889083566e-001	 2.605759226318411e+000	 7.310845532655538e+000
 4.576086864127388e-001	 2.610190470097453e+000	 7.301749748750718e+000
 4.330478000568840e-001	 2.614377479040504e+000	 7.281587021632751e+000
 4.085227097972305e-001	 2.618321828120427e+000	 7.252541618416817e+000
 3.840366459159620e-001	 2.622025143779603e+000	 7.216744723917949e+000
 3.595927882128733e-001	 2.625489102371976e+000	 7.176274041987943e+000
 3.351942652482605e-001	 2.628715428597424e+000	 7.133153490021888e+000
 3.108441536365066e-001	 2.631705893930189e+000	 7.089352983203107e+000
 2.865454773899778e-001	 2.634462315043089e+000	 7.046788304986905e+000
 2.623012073127933e-001	 2.636986552229153e+000	 7.007321060280518e+000
 2.381142604439641e-001	 2.639280507822317e+000	 6.972758707737603e+000
 4.867511652178794e-001	 2.630341860531103e+000	 7.292081252398512e+000
 4.619257494913080e-001	 2.634814908496944e+000	 7.282739229307829e+000
 4.371331566605418e-001	 2.639041417524512e+000	 7.263276019851714e+000
 4.123766976250038e-001	 2.643022977444900e+000	 7.235864319136756e+000
 3.876596331412386e-001	 2.646761230044289e+000	 7.202622438246262e+000
 3.629851730071516e-001	 2.650257867491282e+000	 7.165613961463420e+000
 3.383564752977588e-001	 2.653514630756510e+000	 7.126847497477968e+000
 3.137766456521071e-001	 2.656533308026239e+000	 7.088276520994715e+000
 2.892487366109812e-001	 2.659315733111709e+000	 7.051799301098606e+000
 2.647757470049540e-001	 2.661863783855882e+000	 7.019258912689108e+000
 2.403606213922725e-001	 2.664179380539246e+000	 6.992443327263080e+000
 4.913002415274165e-001	 2.654924494743793e+000	 7.299592072315900e+000
 4.662428125700708e-001	 2.659439346896436e+000	 7.288327660936786e+000
 4.412185132645307e-001	 2.663705356008520e+000	 7.267917206197303e+000
 4.162306854532054e-001	 2.667724126769375e+000	 7.240522111994705e+000
 3.912826203669990e-001	 2.671497316308976e+000	 7.208248054304842e+000
 3.663775578019290e-001	 2.675026632610588e+000	 7.173144695330731e+000
 3.415186853477317e-001	 2.678313832915596e+000	 7.137205492486935e+000
 3.167091376681179e-001	 2.681360722122289e+000	 7.102367598478139e+000
 2.919519958322911e-001	 2.684169151180329e+000	 7.070511848681985e+000
 2.672502866972790e-001	 2.686741015482613e+000	 7.043462831998418e+000
 2.426069823405643e-001	 2.689078253256174e+000	 7.022989041305386e+000
 4.958493178369686e-001	 2.679507128956484e+000	 7.332941057869475e+000
 4.705598756490275e-001	 2.684063785295928e+000	 7.318118246536506e+000
 4.453038698688512e-001	 2.688369294492528e+000	 7.295154318280833e+000
 4.200846732818347e-001	 2.692425276093848e+000	 7.266199645224923e+000
 3.949056075932431e-001	 2.696233402573662e+000	 7.233347485377450e+000
 3.697699425972056e-001	 2.699795397729895e+000	 7.198633754774736e+000
 3.446808953981790e-001	 2.703113035074684e+000	 7.164036895339891e+000
 3.196416296845388e-001	 2.706188136218339e+000	 7.131477834564119e+000
 2.946552550539079e-001	 2.709022569248949e+000	 7.102820033064513e+000
 2.697248263897681e-001	 2.711618247109342e+000	 7.079869616033352e+000
 2.448533432888395e-001	 2.713977125973103e+000	 7.064375584569788e+000
 5.003983941465354e-001	 2.704089763169176e+000	 7.391697455084086e+000
 4.748769387281781e-001	 2.708688223695421e+000	 7.371719278198854e+000
 4.493892264735033e-001	 2.713033232976536e+000	 7.344635091640910e+000
 4.239386611108921e-001	 2.717126425418323e+000	 7.312584474271060e+000
 3.985285948199710e-001	 2.720969488838350e+000	 7.277648462228553e+000
 3.731623273929815e-001	 2.724564162849201e+000	 7.241849380152364e+000
 3.478431054491009e-001	 2.727912237233771e+000	 7.207150769038242e+000
 3.225741217013700e-001	 2.731015550314390e+000	 7.175457406675989e+000
 2.973585142758312e-001	 2.733875987317568e+000	 7.148615416564973e+000
 2.721993660824217e-001	 2.736495478736074e+000	 7.128412461167073e+000
 2.470997042370982e-001	 2.738875998690031e+000	 7.116578015342656e+000
 2.246360947537655e-001	 2.489887271520747e+000	 6.135510641717600e+000
 2.018749995641979e-001	 2.491835966613445e+000	 6.176406053461902e+000
 1.791733326820581e-001	 2.493571117257746e+000	 6.224413799240395e+000
 1.565336911712550e-001	 2.495094628165966e+000	 6.278241130455763e+000
 1.339586197272678e-001	 2.496408437772546e+000	 6.336418446893100e+000
 1.114506103760078e-001	 2.497514516761370e+000	 6.397305576274349e+000
 8.901210221548951e-002	 2.498414866600589e+000	 6.459098255016145e+000
 6.664548119953342e-002	 2.499111518086177e+000	 6.519834789401797e+000
 4.435307996270441e-002	 2.499606529895403e+000	 6.577402876602011e+000
 2.213717768565395e-002	 2.499901987151415e+000	 6.629546565268675e+000
 0.000000000000000e+000	 2.500000000000000e+000	 6.673873335757466e+000
 2.268824557021734e-001	 2.514786144237676e+000	 7.037604794097057e+000
 2.038937495620015e-001	 2.516754326280969e+000	 6.959649648968482e+000
 1.809650660120170e-001	 2.518506828431417e+000	 6.887323243761391e+000
 1.580990280867710e-001	 2.520045574448461e+000	 6.822336718889830e+000
 1.352982059287006e-001	 2.521372522150883e+000	 6.766349855850073e+000
 1.125651164839795e-001	 2.522489661929406e+000	 6.720971266277011e+000
 8.990222324160513e-002	 2.523399015266865e+000	 6.687758640372418e+000
 6.731193601493965e-002	 2.524102633267190e+000	 6.668219051561744e+000
 4.479661076489676e-002	 2.524602595194425e+000	 6.663809314262562e+000
 2.235854946393773e-002	 2.524901007022946e+000	 6.675936391682921e+000
 0.000000000000000e+000	 2.525000000000000e+000	 6.705957850605079e+000
 2.291288166505648e-001	 2.539685016954604e+000	 7.002859968800288e+000
 2.059124995596093e-001	 2.541672685948493e+000	 6.938794184318177e+000
 1.827567993416422e-001	 2.543442539605088e+000	 6.878757295640424e+000
 1.596643650018564e-001	 2.544996520730955e+000	 6.824472755589392e+000
 1.366377921296462e-001	 2.546336606529218e+000	 6.777613246319224e+000
 1.136796225914473e-001	 2.547464807097442e+000	 6.739800861659622e+000
 9.079234426724010e-002	 2.548383163933141e+000	 6.712607348498158e+000
 6.797839082992760e-002	 2.549093748448203e+000	 6.697554404044284e+000
 4.524014156677202e-002	 2.549598660493445e+000	 6.696114025845527e+000
 2.257992124204399e-002	 2.549900026894477e+000	 6.709708911464111e+000
 0.000000000000000e+000	 2.550000000000000e+000	 6.739712904761396e+000
 2.313751775989394e-001	 2.564583889671531e+000	 6.978999155699163e+000
 2.079312495570213e-001	 2.566591045616016e+000	 6.927621229619688e+000
 1.845485326709337e-001	 2.568378250778760e+000	 6.878744070613467e+000
 1.612297019165109e-001	 2.569947467013449e+000	 6.834102868950216e+000
 1.379773783301045e-001	 2.571300690907556e+000	 6.795382587807621e+000
 1.147941286984114e-001	 2.572439952265480e+000	 6.764218140782240e+000
 9.168246529239445e-002	 2.573367312599417e+000	 6.742194628109547e+000
 6.864484564449729e-002	 2.574084863629215e+000	 6.730847628417611e+000
 4.568367236833022e-002	 2.574594725792466e+000	 6.731663542870833e+000
 2.280129301997274e-002	 2.574899046766007e+000	 6.746079988598483e+000
 0.000000000000000e+000	 2.575000000000000e+000	 6.775486238341575e+000
 2.336215385472976e-001	 2.589482762388461e+000	 6.966029082353249e+000
 2.099499995542375e-001	 2.591509405283540e+000	 6.926175104566468e+000
 1.863402659998916e-001	 2.593313961952431e+000	 6.887364422093819e+000
 1.627950388307349e-001	 2.594898413295944e+000	 6.851343381293513e+000
 1.393169645300756e-001	 2.596264775285893e+000	 6.819808600873921e+000
 1.159086348048716e-001	 2.597415097433516e+000	 6.794407146451131e+000
 9.257258631706813e-002	 2.598351461265692e+000	 6.776736763487754e+000
 6.931130045864874e-002	 2.599075978810228e+000	 6.768346165418185e+000
 4.612720316957133e-002	 2.599590791091487e+000	 6.770735373797635e+000
 2.302266479772398e-002	 2.599898066637537e+000	 6.785356107350138e+000
 0.000000000000000e+000	 2.600000000000000e+000	 6.813612216840709e+000
 2.358678994956391e-001	 2.614381635105389e+000	 6.963950548917934e+000
 2.119687495512579e-001	 2.616427764951064e+000	 6.934493290669471e+000
 1.881319993285157e-001	 2.618249673126103e+000	 6.904691506200234e+000
 1.643603757445280e-001	 2.619849359578438e+000	 6.876302110013278e+000
 1.406565507295593e-001	 2.621228859664228e+000	 6.851032744784586e+000
 1.170231409108281e-001	 2.622390242601553e+000	 6.830541954846014e+000
 9.346270734126122e-002	 2.623335609931968e+000	 6.816439417724872e+000
 6.997775527238191e-002	 2.624067093991241e+000	 6.810286230519417e+000
 4.657073397049537e-002	 2.624586856390508e+000	 6.813595247927772e+000
 2.324403657529772e-002	 2.624897086509069e+000	 6.827831468785791e+000
 0.000000000000000e+000	 2.625000000000000e+000	 6.854412468019865e+000
 2.381142604439641e-001	 2.639280507822317e+000	 6.972758707737603e+000
 2.139874995480826e-001	 2.641346124618587e+000	 6.952606753813535e+000
 1.899237326568062e-001	 2.643185384299774e+000	 6.930791144837412e+000
 1.659257126578905e-001	 2.644800305860932e+000	 6.909078768752104e+000
 1.419961369285558e-001	 2.646192944042565e+000	 6.889187654366697e+000
 1.181376470162809e-001	 2.647365387769589e+000	 6.872787145644930e+000
 9.435282836497362e-002	 2.648319758598243e+000	 6.861498133724441e+000
 7.064421008569682e-002	 2.649058209172255e+000	 6.856893343424096e+000
 4.701426477110234e-002	 2.649582921689528e+000	 6.860497671026499e+000
 2.346540835269394e-002	 2.649896106380600e+000	 6.873788570171065e+000
 0.000000000000000e+000	 2.650000000000000e+000	 6.898196482742957e+000
 2.403606213922725e-001	 2.664179380539246e+000	 6.992443327263080e+000
 2.160062495447116e-001	 2.666264484286111e+000	 6.980540248724951e+000
 1.917154659847630e-001	 2.668121095473445e+000	 6.965722168415597e+000
 1.674910495708223e-001	 2.669751252143427e+000	 6.949765346081085e+000
 1.433357231270650e-001	 2.671157028420902e+000	 6.934397552366010e+000
 1.192521531212298e-001	 2.672340532937625e+000	 6.921298245785021e+000
 9.524294938820538e-002	 2.673303907264518e+000	 6.912098807106266e+000
 7.131066489859349e-002	 2.674049324353268e+000	 6.908382827867417e+000
 4.745779557139222e-002	 2.674578986988549e+000	 6.911686449786730e+000
 2.368678012991264e-002	 2.674895126252130e+000	 6.923498751876331e+000
 0.000000000000000e+000	 2.675000000000000e+000	 6.945262182121410e+000
 2.426069823405643e-001	 2.689078253256174e+000	 7.022989041305386e+000
 2.180249995411448e-001	 2.691182843953635e+000	 7.018312606525476e+000
 1.935071993123861e-001	 2.693056806647117e+000	 7.009536739531011e+000
 1.690563864833233e-001	 2.694702198425921e+000	 6.998446463142541e+000
 1.446753093250869e-001	 2.696121112799239e+000	 6.986778638894172e+000
 1.203666592256749e-001	 2.697315678105662e+000	 6.976222148571733e+000
 9.613307041095653e-002	 2.698288055930794e+000	 6.968418132840906e+000
 7.197711971107187e-002	 2.699040439534281e+000	 6.964960283652475e+000
 4.790132637136506e-002	 2.699575052287571e+000	 6.967395187156408e+000
 2.390815190695384e-002	 2.699894146123661e+000	 6.977222713900299e+000
 0.000000000000000e+000	 2.699999999999999e+000	 6.995896453150938e+000
 2.448533432888395e-001	 2.713977125973103e+000	 7.064375584569788e+000
 2.200437495373822e-001	 2.716101203621158e+000	 7.065937006457647e+000
 1.952989326396756e-001	 2.717992517820788e+000	 7.062280658829254e+000
 1.706217233953936e-001	 2.719653144708416e+000	 7.055199711604745e+000
 1.460148955226215e-001	 2.721085197177575e+000	 7.046439459440231e+000
 1.214811653296163e-001	 2.722290823273699e+000	 7.037697509716758e+000
 9.702319143322702e-002	 2.723272204597070e+000	 7.030624027296972e+000
 7.264357452313200e-002	 2.724031554715293e+000	 7.026822032701948e+000
 4.834485717102078e-002	 2.724571117586591e+000	 7.027847750400433e+000
 2.412952368381753e-002	 2.724893165995192e+000	 7.035211003959958e+000
 0.000000000000000e+000	 2.724999999999999e+000	 7.050375654863431e+000
 2.470997042370982e-001	 2.738875998690031e+000	 7.116578015342656e+000
 2.220624995334239e-001	 2.741019563288683e+000	 7.123421232787602e+000
 1.970906659666314e-001	 2.742928228994460e+000	 7.123993654184577e+000
 1.721870603070332e-001	 2.744604090990911e+000	 7.120095973183945e+000
 1.473544817196688e-001	 2.746049281555912e+000	 7.113481252807659e+000
 1.225956714330539e-001	 2.747265968441736e+000	 7.105855121773928e+000
 9.791331245501693e-002	 2.748256353263346e+000	 7.098876027269639e+000
 7.331002933477392e-002	 2.749022669896307e+000	 7.094155540779966e+000
 4.878838797035946e-002	 2.749567182885613e+000	 7.093258713631365e+000
 2.435089546050372e-002	 2.749892185866723e+000	 7.097704478958717e+000
 0.000000000000000e+000	 2.750000000000000e+000	 7.108966096871111e+000
 2.750000000000000e+000	 0.000000000000000e+000	 1.094155175485327e+001
 2.749892185866724e+000	 2.435089546050380e-002	 1.100473712159910e+001
 2.749567182885613e+000	 4.878838797035964e-002	 1.104966224447211e+001
 2.749022669896307e+000	 7.331002933477374e-002	 1.107927748705008e+001
 2.748256353263346e+000	 9.791331245501686e-002	 1.109657480509444e+001
 2.747265968441735e+000	 1.225956714330539e-001	 1.110458849081464e+001
 2.746049281555912e+000	 1.473544817196689e-001	 1.110639597197583e+001
 2.744604090990912e+000	 1.721870603070334e-001	 1.110511866462695e+001
 2.742928228994461e+000	 1.970906659666313e-001	 1.110392287787320e+001
 2.741019563288683e+000	 2.220624995334238e-001	 1.110602076875425e+001
 2.738875998690032e+000	 2.470997042370982e-001	 1.111467134491219e+001
 2.775000000000000e+000	 0.000000000000000e+000	 1.092070509279623e+001
 2.774891205738252e+000	 2.457226723710123e-002	 1.097981885850417e+001
 2.774563248184625e+000	 4.923191876953977e-002	 1.102199198847501e+001
 2.774013785077298e+000	 7.397648414620646e-002	 1.105007829631035e+001
 2.773240501929583e+000	 9.880343347656641e-002	 1.106696990376580e+001
 2.772241113609713e+000	 1.237101775362395e-001	 1.107559807875788e+001
 2.771013365934162e+000	 1.486940679164726e-001	 1.107893413678082e+001
 2.769555037273286e+000	 1.737523972184576e-001	 1.107999040456358e+001
 2.767863940167976e+000	 1.988823992934202e-001	 1.108182124442726e+001
 2.765937922956008e+000	 2.240812495293676e-001	 1.108752413741771e+001
 2.763774871406714e+000	 2.493460651853486e-001	 1.110024082289121e+001
 2.800000000000000e+000	 0.000000000000000e+000	 1.091264487075821e+001
 2.799890225609775e+000	 2.479363901369865e-002	 1.096582249103548e+001
 2.799559313483616e+000	 4.967544956871989e-002	 1.100338083026895e+001
 2.799004900258245e+000	 7.464293895763922e-002	 1.102807605269631e+001
 2.798224650595743e+000	 9.969355449811596e-002	 1.104269931395997e+001
 2.797216258777568e+000	 1.248246836394252e-001	 1.105007769462993e+001
 2.795977450312236e+000	 1.500336541132763e-001	 1.105307520582954e+001
 2.794505983555422e+000	 1.753177341298819e-001	 1.105459386585030e+001
 2.792799651341178e+000	 2.006741326202092e-001	 1.105757484625025e+001
 2.790856282622937e+000	 2.260999995253114e-001	 1.106499968552541e+001
 2.788673744122905e+000	 2.515924261335989e-001	 1.107989156802260e+001
 2.825000000000000e+000	 0.000000000000000e+000	 1.091551352267379e+001
 2.824889245481293e+000	 2.501501079029607e-002	 1.096104544739591e+001
 2.824555378782589e+000	 5.011898036790001e-002	 1.099228205393952e+001
 2.823996015439152e+000	 7.530939376907195e-002	 1.101188069201579e+001
 2.823208799261825e+000	 1.005836755196655e-001	 1.102253035160998e+001
 2.822191403945302e+000	 1.259391897426109e-001	 1.102695269382430e+001
 2.820941534690137e+000	 1.513732403100800e-001	 1.102790316264666e+001
 2.819456929837322e+000	 1.768830710413061e-001	 1.102817217658928e+001
 2.817735362514068e+000	 2.024658659469981e-001	 1.103058639872491e+001
 2.815774642289468e+000	 2.281187495212551e-001	 1.103801008322375e+001
 2.813572616838604e+000	 2.538387870818492e-001	 1.105334649605018e+001
 2.850000000000000e+000	 0.000000000000000e+000	 1.092751866023413e+001
 2.849888265352808e+000	 2.523638256689349e-002	 1.096384729159516e+001
 2.849551444081544e+000	 5.056251116708015e-002	 1.098720801986276e+001
 2.848987130620012e+000	 7.597584858050469e-002	 1.100015815024697e+001
 2.848192947927832e+000	 1.014737965412150e-001	 1.100528324108281e+001
 2.847166549112915e+000	 1.270536958457965e-001	 1.100519823382715e+001
 2.845905619067861e+000	 1.527128265068837e-001	 1.100254867294062e+001
 2.844407876118980e+000	 1.784484079527304e-001	 1.100001201465150e+001
 2.842671073686645e+000	 2.042575992737870e-001	 1.100029902316674e+001
 2.840693001955603e+000	 2.301374995171989e-001	 1.100615525244408e+001
 2.838471489553812e+000	 2.560851480300996e-001	 1.102036261117490e+001
 2.875000000000000e+000	 0.000000000000000e+000	 1.094693023907148e+001
 2.874887285224318e+000	 2.545775434349091e-002	 1.097264702189249e+001
 2.874547509380478e+000	 5.100604196626029e-002	 1.098672759617112e+001
 2.873978245800831e+000	 7.664230339193742e-002	 1.099162792874906e+001
 2.873177096593761e+000	 1.023639175627646e-001	 1.098982881481258e+001
 2.872141694280408e+000	 1.281682019489822e-001	 1.098383710890917e+001
 2.870869703445413e+000	 1.540524127036874e-001	 1.097618705494384e+001
 2.869358822400401e+000	 1.800137448641546e-001	 1.096944171420870e+001
 2.867606784858911e+000	 2.060493326005760e-001	 1.096619449004425e+001
 2.865611361621340e+000	 2.321562495131426e-001	 1.096907074725933e+001
 2.863370362268527e+000	 2.583315089783499e-001	 1.098072952394787e+001
 2.900000000000000e+000	 0.000000000000000e+000	 1.097207787152034e+001
 2.899886305095822e+000	 2.567912612008834e-002	 1.098592050897617e+001
 2.899543574679393e+000	 5.144957276544040e-002	 1.098946372307406e+001
 2.898969360981606e+000	 7.730875820337015e-002	 1.098506078540911e+001
 2.898161245259613e+000	 1.032540385843141e-001	 1.097508633191876e+001
 2.897116839447780e+000	 1.292827080521679e-001	 1.096193769681566e+001
 2.895833787822788e+000	 1.553919989004911e-001	 1.094803635473471e+001
 2.894309768681584e+000	 1.815790817755789e-001	 1.093582947020296e+001
 2.892542496030862e+000	 2.078410659273649e-001	 1.092779155306725e+001
 2.890529721286680e+000	 2.341749995090864e-001	 1.092642621801633e+001
 2.888269234982751e+000	 2.605778699266002e-001	 1.093426804582440e+001
 2.925000000000000e+000	 0.000000000000000e+000	 1.100134827718577e+001
 2.924885324967321e+000	 2.590049789668575e-002	 1.100219806551741e+001
 2.924539639978291e+000	 5.189310356462054e-002	 1.099409110208587e+001
 2.923960476162338e+000	 7.797521301480291e-002	 1.097927654419239e+001
 2.923145393925387e+000	 1.041441596058637e-001	 1.096002140868926e+001
 2.922091984615031e+000	 1.303972141553536e-001	 1.093861201075515e+001
 2.920797872199990e+000	 1.567315850972948e-001	 1.091735552026142e+001
 2.919260714962528e+000	 1.831444186870031e-001	 1.089858163489510e+001
 2.917478207202502e+000	 2.096327992541539e-001	 1.088464436870644e+001
 2.915448080951624e+000	 2.361937495050301e-001	 1.087792395422982e+001
 2.913168107696484e+000	 2.628242308748505e-001	 1.088082885579184e+001
 2.949999999999999e+000	 0.000000000000000e+000	 1.103318286314363e+001
 2.949884344838818e+000	 2.612186967328318e-002	 1.102006213930685e+001
 2.949535705277168e+000	 5.233663436380066e-002	 1.099933400274962e+001
 2.948951591343028e+000	 7.864166782623562e-002	 1.097314201607121e+001
 2.948129542591084e+000	 1.050342806274132e-001	 1.094364405429399e+001
 2.947067129782162e+000	 1.315117202585392e-001	 1.091301385043869e+001
 2.945761956577017e+000	 1.580711712940985e-001	 1.088344266821180e+001
 2.944211661243234e+000	 1.847097555984273e-001	 1.085714110102911e+001
 2.942413918373829e+000	 2.114245325809428e-001	 1.083634099607633e+001
 2.940366440616171e+000	 2.382124995009739e-001	 1.082329750156684e+001
 2.938066980409724e+000	 2.650705918231008e-001	 1.082029123479636e+001
 2.974999999999999e+000	 0.000000000000000e+000	 1.106607542614804e+001
 2.974883364710307e+000	 2.634324144988059e-002	 1.103814512270319e+001
 2.974531770576026e+000	 5.278016516298079e-002	 1.100396417994721e+001
 2.973942706523673e+000	 7.930812263766840e-002	 1.096556902478081e+001
 2.973113691256705e+000	 1.059244016489628e-001	 1.092500680553744e+001
 2.972042274949171e+000	 1.326262263617249e-001	 1.088433704634468e+001
 2.970726040953869e+000	 1.594107574909022e-001	 1.084563343826797e+001
 2.969162607523700e+000	 1.862750925098516e-001	 1.081098576651771e+001
 2.967349629544844e+000	 2.132162659077317e-001	 1.078250197245455e+001
 2.965284800280319e+000	 2.402312494969177e-001	 1.076231034856319e+001
 2.962965853122473e+000	 2.673169527713512e-001	 1.075256186397983e+001
 3.000000000000000e+000	 0.000000000000000e+000	 1.109856996972767e+001
 2.999882384581794e+000	 2.656461322647803e-002	 1.105512727160972e+001
 2.999527835874867e+000	 5.322369596216094e-002	 1.100679889534344e+001
 2.998933821704276e+000	 7.997457744910114e-002	 1.095551253128776e+001
 2.998097839922249e+000	 1.068145226705123e-001	 1.090320295487407e+001
 2.997017420116060e+000	 1.337407324649106e-001	 1.085181379177018e+001
 2.995690125330548e+000	 1.607503436877060e-001	 1.080329942964824e+001
 2.994113553803930e+000	 1.878404294212759e-001	 1.075962707589372e+001
 2.992285340715547e+000	 2.150079992345207e-001	 1.072277896002499e+001
 2.990203159944073e+000	 2.422499994928615e-001	 1.069475467900372e+001
 2.987864725834731e+000	 2.695633137196016e-001	 1.067757368300511e+001
 2.738875998690032e+000	 2.470997042370982e-001	 1.111467134491219e+001
 2.736495478736073e+000	 2.721993660824219e-001	 1.110881049664350e+001
 2.733875987317568e+000	 2.973585142758314e-001	 1.111282184873689e+001
 2.731015550314390e+000	 3.225741217013698e-001	 1.113012258532042e+001
 2.727912237233771e+000	 3.478431054491007e-001	 1.116418388979712e+001
 2.724564162849201e+000	 3.731623273929815e-001	 1.121853218156470e+001
 2.720969488838349e+000	 3.985285948199711e-001	 1.129675037602769e+001
 2.717126425418324e+000	 4.239386611108923e-001	 1.140247916261418e+001
 2.713033232976536e+000	 4.493892264735031e-001	 1.153941829508972e+001
 2.708688223695421e+000	 4.748769387281779e-001	 1.171132788804280e+001
 2.704089763169176e+000	 5.003983941465353e-001	 1.192202971300264e+001
 2.763774871406714e+000	 2.493460651853486e-001	 1.110024082289121e+001
 2.761372710362509e+000	 2.746739057751574e-001	 1.110089061131944e+001
 2.758729405385852e+000	 3.000617734979081e-001	 1.111207025281770e+001
 2.755842964410066e+000	 3.255066137184060e-001	 1.113710771987243e+001
 2.752711439392450e+000	 3.510053155002597e-001	 1.117938333065793e+001
 2.749332927968071e+000	 3.765547121890066e-001	 1.124233113780897e+001
 2.745705575102577e+000	 4.021515820469407e-001	 1.132944034759752e+001
 2.741827574742320e+000	 4.277926489401635e-001	 1.144425676406092e+001
 2.737697171460054e+000	 4.534745830783209e-001	 1.159038425218573e+001
 2.733312662094416e+000	 4.791940018074253e-001	 1.177148621380740e+001
 2.728672397381367e+000	 5.049474704561092e-001	 1.199128706944820e+001
 2.788673744122905e+000	 2.515924261335989e-001	 1.107989156802260e+001
 2.786249941988360e+000	 2.771484454678931e-001	 1.108622286328281e+001
 2.783582823453462e+000	 3.027650327199847e-001	 1.110372718714834e+001
 2.780670378504993e+000	 3.284391057354422e-001	 1.113564150432504e+001
 2.777510641550315e+000	 3.541675255514188e-001	 1.118525345780041e+001
 2.774101693086072e+000	 3.799470969850319e-001	 1.125590291297206e+001
 2.770441661365888e+000	 4.057745692739103e-001	 1.135098353941456e+001
 2.766528724065365e+000	 4.316466367694348e-001	 1.147394442466507e+001
 2.762361109942594e+000	 4.575599396831384e-001	 1.162829171393681e+001
 2.757937100492415e+000	 4.835110648866727e-001	 1.181759026920398e+001
 2.753255031592557e+000	 5.094965467656832e-001	 1.204546534063467e+001
 2.813572616838604e+000	 2.538387870818492e-001	 1.105334649605018e+001
 2.811127173613622e+000	 2.796229851606287e-001	 1.106466219455574e+001
 2.808436241520400e+000	 3.054682919420613e-001	 1.108777985958946e+001
 2.805497792599171e+000	 3.313715977524783e-001	 1.112584358364079e+001
 2.802309843707365e+000	 3.573297356025775e-001	 1.118204645516159e+001
 2.798870458203201e+000	 3.833394817810571e-001	 1.125963226140621e+001
 2.795177747628281e+000	 4.093975565008799e-001	 1.136189723627133e+001
 2.791229873387456e+000	 4.355006245987061e-001	 1.149219184734271e+001
 2.787025048424154e+000	 4.616452962879561e-001	 1.165392261586111e+001
 2.782561538889420e+000	 4.878281279659200e-001	 1.185055396282642e+001
 2.777837665802749e+000	 5.140456230752573e-001	 1.208561007396802e+001
 2.838471489553812e+000	 2.560851480300996e-001	 1.102036261117490e+001
 2.836004405238297e+000	 2.820975248533642e-001	 1.103609546188397e+001
 2.833289659586666e+000	 3.081715511641379e-001	 1.106424520842148e+001
 2.830325206692602e+000	 3.343040897695145e-001	 1.110786113909513e+001
 2.827109045863600e+000	 3.604919456537367e-001	 1.117003983986511e+001
 2.823639223319458e+000	 3.867318665770823e-001	 1.125392705930574e+001
 2.819913833889759e+000	 4.130205437278497e-001	 1.136271962605633e+001
 2.815931022708593e+000	 4.393546124279774e-001	 1.149966741279242e+001
 2.811688986904735e+000	 4.657306528927737e-001	 1.166807534022732e+001
 2.807185977285430e+000	 4.921451910451673e-001	 1.187130541413386e+001
 2.802420300011939e+000	 5.185946993848312e-001	 1.211277878786040e+001
 2.863370362268527e+000	 2.583315089783499e-001	 1.098072952394787e+001
 2.860881636862386e+000	 2.845720645460999e-001	 1.100044004913995e+001
 2.858143077652259e+000	 3.108748103862145e-001	 1.103316860971765e+001
 2.855152620785284e+000	 3.372365817865506e-001	 1.108186769104533e+001
 2.851908248019021e+000	 3.636541557048956e-001	 1.114953536077843e+001
 2.848407988434845e+000	 3.901242513731075e-001	 1.123921729940937e+001
 2.844649920150318e+000	 4.166435309548192e-001	 1.135400889092380e+001
 2.840632172028778e+000	 4.432086002572487e-001	 1.149705736741778e+001
 2.836352925384337e+000	 4.698160094975914e-001	 1.167156400097871e+001
 2.831810415680446e+000	 4.964622541244146e-001	 1.188078633558701e+001
 2.827002934220130e+000	 5.231437756944052e-001	 1.212804045125156e+001
 2.888269234982751e+000	 2.605778699266002e-001	 1.093426804582440e+001
 2.885758868485888e+000	 2.870466042388355e-001	 1.095764255149837e+001
 2.882996495717179e+000	 3.135780696082912e-001	 1.099462265157709e+001
 2.879980034877217e+000	 3.401690738035869e-001	 1.104806196362535e+001
 2.876707450173627e+000	 3.668163657560546e-001	 1.112085795404103e+001
 2.873176753549362e+000	 3.935166361691326e-001	 1.121595413770092e+001
 2.869386006409960e+000	 4.202665181817890e-001	 1.133634234547201e+001
 2.865333321348009e+000	 4.470625880865199e-001	 1.148506505325377e+001
 2.861016863862960e+000	 4.739013661024089e-001	 1.166521776564358e+001
 2.856434854074466e+000	 5.007793172036621e-001	 1.187995144674288e+001
 2.851585568427321e+000	 5.276928520039791e-001	 1.213247499005167e+001
 2.913168107696484e+000	 2.628242308748505e-001	 1.088082885579184e+001
 2.910636100108802e+000	 2.895211439315710e-001	 1.090767752709015e+001
 2.907849913781428e+000	 3.162813288303679e-001	 1.094870597121785e+001
 2.904807448968402e+000	 3.431015658206231e-001	 1.100666680766133e+001
 2.901506652327419e+000	 3.699785758072136e-001	 1.108435475215542e+001
 2.897945518663007e+000	 3.969090209651578e-001	 1.118460898899723e+001
 2.894122092668686e+000	 4.238895054087586e-001	 1.131031561911730e+001
 2.890034470666287e+000	 4.509165759157913e-001	 1.146441017738434e+001
 2.885680802340603e+000	 4.779867227072266e-001	 1.164988021201974e+001
 2.881059292467493e+000	 5.050963802829094e-001	 1.186976791839594e+001
 2.876168202633513e+000	 5.322419283135530e-001	 1.212717281889469e+001
 2.938066980409724e+000	 2.650705918231008e-001	 1.082029123479636e+001
 2.935513331731131e+000	 2.919956836243067e-001	 1.085054631213117e+001
 2.932703331845003e+000	 3.189845880524445e-001	 1.089554215120048e+001
 2.929634863058839e+000	 3.460340578376592e-001	 1.095792817835413e+001
 2.926305854480396e+000	 3.731407858583725e-001	 1.104039414346320e+001
 2.922714283775782e+000	 4.003014057611831e-001	 1.114567266852286e+001
 2.918858178926494e+000	 4.275124926357282e-001	 1.127654188004257e+001
 2.914735619983612e+000	 4.547705637450625e-001	 1.143582811850805e+001
 2.910344740817267e+000	 4.820720793120442e-001	 1.162640871756976e+001
 2.905683730859523e+000	 5.094134433621567e-001	 1.185121484498341e+001
 2.900750836838703e+000	 5.367910046231269e-001	 1.211323439670090e+001
 2.962965853122473e+000	 2.673169527713512e-001	 1.075256186397983e+001
 2.960390563352871e+000	 2.944702233170423e-001	 1.078627589579279e+001
 2.957556749907905e+000	 3.216878472745211e-001	 1.083527867130450e+001
 2.954462277148527e+000	 3.489665498546954e-001	 1.090211416450720e+001
 2.951105056632558e+000	 3.763029959095315e-001	 1.098936487904270e+001
 2.947483048887686e+000	 4.036937905572083e-001	 1.109965457676704e+001
 2.943594265183386e+000	 4.311354798626978e-001	 1.123565109827423e+001
 2.939436769299982e+000	 4.586245515743337e-001	 1.140006926846689e+001
 2.935008679292953e+000	 4.861574359168619e-001	 1.159567387960325e+001
 2.930308169250560e+000	 5.137305064414041e-001	 1.182528274359163e+001
 2.925333471042894e+000	 5.413400809327010e-001	 1.209176980464806e+001
 2.987864725834731e+000	 2.695633137196016e-001	 1.067757368300511e+001
 2.985267794974027e+000	 2.969447630097781e-001	 1.071491785132862e+001
 2.982410167970137e+000	 3.243911064965979e-001	 1.076808591281098e+001
 2.979289691237467e+000	 3.518990418717317e-001	 1.083951406629322e+001
 2.975904258783907e+000	 3.794652059606906e-001	 1.093167522426146e+001
 2.972251813998720e+000	 4.070861753532337e-001	 1.104708192509759e+001
 2.968330351439361e+000	 4.347584670896677e-001	 1.118828934560541e+001
 2.964137918615402e+000	 4.624785394036052e-001	 1.135789840669862e+001
 2.959672617767659e+000	 4.902427925216796e-001	 1.155855896444979e+001
 2.954932607640603e+000	 5.180475695206515e-001	 1.179297307801265e+001
 2.949916105246086e+000	 5.458891572422751e-001	 1.206389834524407e+001
 2.704089763169176e+000	 5.003983941465353e-001	 1.192202971300264e+001
 2.699236272010369e+000	 5.259501383425348e-001	 1.154665335470535e+001
 2.694126227445558e+000	 5.515286672185968e-001	 1.119211985589773e+001
 2.688758164897393e+000	 5.771304279651318e-001	 1.086087790926813e+001
 2.683130679550521e+000	 6.027518201122009e-001	 1.055543909771740e+001
 2.677242427900420e+000	 6.283891966355909e-001	 1.034827930475513e+001
 2.671092129282827e+000	 6.540388651164305e-001	 1.061646698199471e+001
 2.664678567381807e+000	 6.796970889541842e-001	 1.089064839068030e+001
 2.658000591714422e+000	 7.053600886327908e-001	 1.117092039688092e+001
 2.651057119090043e+000	 7.310240430396247e-001	 1.145738432205850e+001
 2.643847135042239e+000	 7.566850908368894e-001	 1.175014747261310e+001
 2.728672397381367e+000	 5.049474704561092e-001	 1.199128706944820e+001
 2.723774783575466e+000	 5.307315032349365e-001	 1.157449857203533e+001
 2.718618284059930e+000	 5.565425641910099e-001	 1.117666808167981e+001
 2.713201420943072e+000	 5.823770682164715e-001	 1.080008002249268e+001
 2.707522776638490e+000	 6.082313821098384e-001	 1.044708219238254e+001
 2.701580995427986e+000	 6.341018256921329e-001	 1.033130703580499e+001
 2.695374785004896e+000	 6.599846729770404e-001	 1.061609994354655e+001
 2.688902917995866e+000	 6.858761533949309e-001	 1.090447381934123e+001
 2.682164233459023e+000	 7.117724530705056e-001	 1.119635498300289e+001
 2.675157638356550e+000	 7.376697161537531e-001	 1.149167407046904e+001
 2.667882108999597e+000	 7.635640462038071e-001	 1.179036777524617e+001
 2.753255031592557e+000	 5.094965467656832e-001	 1.204546534063467e+001
 2.748313295139561e+000	 5.355128681273381e-001	 1.158464814499307e+001
 2.743110340673302e+000	 5.615564611634224e-001	 1.114089239537183e+001
 2.737644676987751e+000	 5.876237084678108e-001	 1.071631730187131e+001
 2.731914873725461e+000	 6.137109441074760e-001	 1.031310595445173e+001
 2.725919562954553e+000	 6.398144547486752e-001	 1.031459876529106e+001
 2.719657440725966e+000	 6.659304808376506e-001	 1.061301244800940e+001
 2.713127268608924e+000	 6.920552178356770e-001	 1.091261222671676e+001
 2.706327875202623e+000	 7.181848175082201e-001	 1.121315445309449e+001
 2.699258157622058e+000	 7.443153892678818e-001	 1.151439965740828e+001
 2.691917082955955e+000	 7.704430015707247e-001	 1.181611450235547e+001
 2.777837665802749e+000	 5.140456230752573e-001	 1.208561007396802e+001
 2.772851806702656e+000	 5.402942330197397e-001	 1.157832028986889e+001
 2.767602397285674e+000	 5.665703581358352e-001	 1.108618264080859e+001
 2.762087933031431e+000	 5.928703487191503e-001	 1.061115007899119e+001
 2.756306970811430e+000	 6.191905061051134e-001	 1.015523996462337e+001
 2.750258130480121e+000	 6.455270838052173e-001	 1.029895338916898e+001
 2.743940096446035e+000	 6.718762886982608e-001	 1.060813074332864e+001
 2.737351619220983e+000	 6.982342822764235e-001	 1.091611632900967e+001
 2.730491516945223e+000	 7.245971819459348e-001	 1.122249703905749e+001
 2.723358676886565e+000	 7.509610623820101e-001	 1.152686380885801e+001
 2.715952056911313e+000	 7.773219569376425e-001	 1.182881378315108e+001
 2.802420300011939e+000	 5.185946993848312e-001	 1.211277878786040e+001
 2.797390318264753e+000	 5.450755979121414e-001	 1.155674149699489e+001
 2.792094453897046e+000	 5.715842551082483e-001	 1.101393325622880e+001
 2.786531189074109e+000	 5.981169889704898e-001	 1.048613961922385e+001
 2.780699067896400e+000	 6.246700681027507e-001	 9.975211097481930e+000
 2.774596698004689e+000	 6.512397128617596e-001	 1.028516347981766e+001
 2.768222752165104e+000	 6.778220965588708e-001	 1.060237116056701e+001
 2.761575969832041e+000	 7.044133467171696e-001	 1.091602535812186e+001
 2.754655158686825e+000	 7.310095463836497e-001	 1.122554394869844e+001
 2.747459196150072e+000	 7.576067354961386e-001	 1.153034871627573e+001
 2.739987030865671e+000	 7.842009123045602e-001	 1.182986773300077e+001
 2.827002934220130e+000	 5.231437756944052e-001	 1.212804045125156e+001
 2.821928829825849e+000	 5.498569628045430e-001	 1.152114617100401e+001
 2.816586510507418e+000	 5.765981520806611e-001	 1.092554307451836e+001
 2.810974445115789e+000	 6.033636292218294e-001	 1.034284808112577e+001
 2.805091164980371e+000	 6.301496301003884e-001	 9.946242699973936e+000
 2.798935265528256e+000	 6.569523419183018e-001	 1.027401556097729e+001
 2.792505407883173e+000	 6.837679044194810e-001	 1.059664054507350e+001
 2.785800320442101e+000	 7.105924111579159e-001	 1.091336564792815e+001
 2.778818800427425e+000	 7.374219108213642e-001	 1.122344010590656e+001
 2.771559715412582e+000	 7.642524086102674e-001	 1.152611692940016e+001
 2.764022004819029e+000	 7.910798676714779e-001	 1.182065549751014e+001
 2.851585568427321e+000	 5.276928520039791e-001	 1.213247499005167e+001
 2.846467341385945e+000	 5.546383276969448e-001	 1.147277628969630e+001
 2.841078567116790e+000	 5.816120490530741e-001	 1.082241513378592e+001
 2.835417701156467e+000	 6.086102694731688e-001	 1.018283847793908e+001
 2.829483262063339e+000	 6.356291920980257e-001	 9.933432287667090e+000
 2.823273833050822e+000	 6.626649709748439e-001	 1.026629036846664e+001
 2.816788063600243e+000	 6.897137122800909e-001	 1.059183666535020e+001
 2.810024671051159e+000	 7.167714755986622e-001	 1.090915119022588e+001
 2.802982442167025e+000	 7.438342752590790e-001	 1.121731485254675e+001
 2.795660234674088e+000	 7.708980817243958e-001	 1.151541220287717e+001
 2.788056978771388e+000	 7.979588230383955e-001	 1.180253424259856e+001
 2.876168202633513e+000	 5.322419283135530e-001	 1.212717281889469e+001
 2.871005852945042e+000	 5.594196925893464e-001	 1.141288108039932e+001
 2.865570623725160e+000	 5.866259460254867e-001	 1.070595649765244e+001
 2.859860957196146e+000	 6.138569097245082e-001	 1.000767464106639e+001
 2.853875359145309e+000	 6.411087540956634e-001	 9.927215372964051e+000
 2.847612400572390e+000	 6.683776000313862e-001	 1.026276309752994e+001
 2.841070719316312e+000	 6.956595201407011e-001	 1.058884860095189e+001
 2.834249021659218e+000	 7.229505400394086e-001	 1.090438416217396e+001
 2.827146083905626e+000	 7.502466396967937e-001	 1.120828261435807e+001
 2.819760753934596e+000	 7.775437548385245e-001	 1.149946029946854e+001
 2.812091952722746e+000	 8.048377784053130e-001	 1.177684009380196e+001
 2.900750836838703e+000	 5.367910046231269e-001	 1.211323439670090e+001
 2.895544364503137e+000	 5.642010574817481e-001	 1.134271671278484e+001
 2.890062680332532e+000	 5.916398429978996e-001	 1.057757808467865e+001
 2.884304213234825e+000	 6.191035499758476e-001	 9.818921185403152e+000
 2.878267456226280e+000	 6.465883160933008e-001	 9.928250271570859e+000
 2.871950968092957e+000	 6.740902290879284e-001	 1.026420363760723e+001
 2.865353375031381e+000	 7.016053280013114e-001	 1.058855711066159e+001
 2.858473372266276e+000	 7.291296044801550e-001	 1.090005542691320e+001
 2.851309725643227e+000	 7.566590041345083e-001	 1.119744353299306e+001
 2.843861273194104e+000	 7.841894279526529e-001	 1.147946975242026e+001
 2.836126926673104e+000	 8.117167337722308e-001	 1.174488902781457e+001
 2.925333471042894e+000	 5.413400809327010e-001	 1.209176980464806e+001
 2.920082876060233e+000	 5.689824223741498e-001	 1.126354600717353e+001
 2.914554736938903e+000	 5.966537399703125e-001	 1.043869450639284e+001
 2.908747469272504e+000	 6.243501902271872e-001	 9.618143476417602e+000
 2.902659553306250e+000	 6.520678780909385e-001	 9.937193124027813e+000
 2.896289535612524e+000	 6.798028581444705e-001	 1.027137679526710e+001
 2.889636030745451e+000	 7.075511358619213e-001	 1.059183498210301e+001
 2.882697722872336e+000	 7.353086689209013e-001	 1.089714500894524e+001
 2.875473367379827e+000	 7.630713685722230e-001	 1.118588406618924e+001
 2.867961792452611e+000	 7.908351010667813e-001	 1.145663258939159e+001
 2.860161900622463e+000	 8.185956891391486e-001	 1.170797771907880e+001
 2.949916105246086e+000	 5.458891572422751e-001	 1.206389834524407e+001
 2.944621387616330e+000	 5.737637872665515e-001	 1.117663815742473e+001
 2.939046793544276e+000	 6.016676369427255e-001	 1.029072391341711e+001
 2.933190725309185e+000	 6.295968304785270e-001	 9.610099838835639e+000
 2.927051650385220e+000	 6.575474400885762e-001	 9.954697986341408e+000
 2.920628103131092e+000	 6.855154872010129e-001	 1.028504250599308e+001
 2.913918686458521e+000	 7.134969437225319e-001	 1.059954736387199e+001
 2.906922073477395e+000	 7.414877333616478e-001	 1.089662254574251e+001
 2.899637009115429e+000	 7.694837330099380e-001	 1.117467755793239e+001
 2.892062311710120e+000	 7.974807741809101e-001	 1.143212502018784e+001
 2.884196874570821e+000	 8.254746445060665e-001	 1.166738434404584e+001
 2.643847135042239e+000	 7.566850908368894e-001	 1.175014747261310e+001
 2.636369695231585e+000	 7.823393318852079e-001	 1.170507865604737e+001
 2.628623926816410e+000	 8.079828287179298e-001	 1.166500684691299e+001
 2.620609029790003e+000	 8.336116080664255e-001	 1.163002808158101e+001
 2.612324278282998e+000	 8.592216624358847e-001	 1.160025241712153e+001
 2.603769021827961e+000	 8.848089517299635e-001	 1.157580568386117e+001
 2.594942686584525e+000	 9.103694049237149e-001	 1.155683124880684e+001
 2.585844776523053e+000	 9.358989217837994e-001	 1.154349178459510e+001
 2.576474874564940e+000	 9.613933746349104e-001	 1.153597103844308e+001
 2.566832643677576e+000	 9.868486101712379e-001	 1.153447559541213e+001
 2.556917827922116e+000	 1.012260451311729e+000	 1.153923663014424e+001
 2.667882108999597e+000	 7.635640462038071e-001	 1.179036777524617e+001
 2.660336692463774e+000	 7.894515076254417e-001	 1.174865911152710e+001
 2.652520507972429e+000	 8.153281271568192e-001	 1.171162119450186e+001
 2.644432748246060e+000	 8.411898954086864e-001	 1.167930777254783e+001
 2.636072680816487e+000	 8.670327684544612e-001	 1.165178668722529e+001
 2.627439649302940e+000	 8.928526694696530e-001	 1.162914171382804e+001
 2.618533074648314e+000	 9.186454904199954e-001	 1.161147441418458e+001
 2.609352456313619e+000	 9.444070937973019e-001	 1.159890599617711e+001
 2.599897373428621e+000	 9.701333144019442e-001	 1.159157917425780e+001
 2.590167485896779e+000	 9.958199611707879e-001	 1.158966002506647e+001
 2.580162535452529e+000	 1.021462819049315e+000	 1.159333983209749e+001
 2.691917082955955e+000	 7.704430015707247e-001	 1.181611450235547e+001
 2.684303689694970e+000	 7.965636833656756e-001	 1.177823076686740e+001
 2.676417089127467e+000	 8.226734255957088e-001	 1.174466879029049e+001
 2.668256466701160e+000	 8.487681827509469e-001	 1.171543885588279e+001
 2.659821083349055e+000	 8.748438744730380e-001	 1.169056542419686e+001
 2.651110276777040e+000	 9.008963872093422e-001	 1.167008906377117e+001
 2.642123462711282e+000	 9.269215759162762e-001	 1.165406839547594e+001
 2.632860136103426e+000	 9.529152658108043e-001	 1.164258204478663e+001
 2.623319872291618e+000	 9.788732541689782e-001	 1.163573059606113e+001
 2.613502328115380e+000	 1.004791312170337e+000	 1.163363854271474e+001
 2.603407242982436e+000	 1.030665186786900e+000	 1.163645622702267e+001
 2.715952056911313e+000	 7.773219569376425e-001	 1.182881378315108e+001
 2.708270686925169e+000	 8.036758591059093e-001	 1.179525295077725e+001
 2.700313670281525e+000	 8.300187240345980e-001	 1.176564208861283e+001
 2.692080185155304e+000	 8.563464700932075e-001	 1.173994681527840e+001
 2.683569485880700e+000	 8.826549804916148e-001	 1.171814702232803e+001
 2.674780904250262e+000	 9.089401049490314e-001	 1.170023889725498e+001
 2.665713850773425e+000	 9.351976614125567e-001	 1.168623696157727e+001
 2.656367815892474e+000	 9.614234378243067e-001	 1.167617611807740e+001
 2.646742371153929e+000	 9.876131939360121e-001	 1.167011370106453e+001
 2.636837170333382e+000	 1.013762663169887e+000	 1.166813152333834e+001
 2.626651950511838e+000	 1.039867554524486e+000	 1.167033791336126e+001
 2.739987030865671e+000	 7.842009123045602e-001	 1.182986773300077e+001
 2.732237684154373e+000	 8.107880348461433e-001	 1.180116065599817e+001
 2.724210251434601e+000	 8.373640224734873e-001	 1.177600887976574e+001
 2.715903903608492e+000	 8.639247574354683e-001	 1.175433213647602e+001
 2.707317888411426e+000	 8.904660865101918e-001	 1.173606453830518e+001
 2.698451531722607e+000	 9.169838226887206e-001	 1.172115669495330e+001
 2.689304238834745e+000	 9.434737469088372e-001	 1.170957784769160e+001
 2.679875495680763e+000	 9.699316098378094e-001	 1.170131801380792e+001
 2.670164870015556e+000	 9.963531337030460e-001	 1.169639013510595e+001
 2.660172012550785e+000	 1.022734014169437e+000	 1.169483222391783e+001
 2.649896658040735e+000	 1.049069922262071e+000	 1.169670949990897e+001
 2.764022004819029e+000	 7.910798676714779e-001	 1.182065549751014e+001
 2.756204681382582e+000	 8.179002105863771e-001	 1.179736559738973e+001
 2.748106832586698e+000	 8.447093209123768e-001	 1.177721336235852e+001
 2.739727622060723e+000	 8.715030447777287e-001	 1.176007139413341e+001
 2.731066290941226e+000	 8.982771925287681e-001	 1.174582679284449e+001
 2.722122159194074e+000	 9.250275404284097e-001	 1.173438337129674e+001
 2.712894626895241e+000	 9.517498324051178e-001	 1.172566388722833e+001
 2.703383175468293e+000	 9.784397818513119e-001	 1.171961228722826e+001
 2.693587368876499e+000	 1.005093073470080e+000	 1.171619595575311e+001
 2.683506854767586e+000	 1.031705365168986e+000	 1.171540796247639e+001
 2.673141365569126e+000	 1.058272289999657e+000	 1.171726930101758e+001
 2.788056978771388e+000	 7.979588230383955e-001	 1.180253424259856e+001
 2.780171678609796e+000	 8.250123863266109e-001	 1.178525721528653e+001
 2.772003413737814e+000	 8.520546193512663e-001	 1.177067716019598e+001
 2.763551340511999e+000	 8.790813321199895e-001	 1.175861828247472e+001
 2.754814693470107e+000	 9.060882985473449e-001	 1.174891941534558e+001
 2.745792786664665e+000	 9.330712581680993e-001	 1.174143633336257e+001
 2.736485014954916e+000	 9.600259179013982e-001	 1.173604408515648e+001
 2.726890855255064e+000	 9.869479538648145e-001	 1.173263933911925e+001
 2.717009867736757e+000	 1.013833013237114e+000	 1.173114273524607e+001
 2.706841696983789e+000	 1.040676716168536e+000	 1.173150123613819e+001
 2.696386073097013e+000	 1.067474657737242e+000	 1.173369046997629e+001
 2.812091952722746e+000	 8.048377784053130e-001	 1.177684009380196e+001
 2.804138675836015e+000	 8.321245620668447e-001	 1.176620362740094e+001
 2.795899994887949e+000	 8.593999177901556e-001	 1.175780028701362e+001
 2.787375058962318e+000	 8.866596194622501e-001	 1.175140459308700e+001
 2.778563095998065e+000	 9.138994045659217e-001	 1.174680583497367e+001
 2.769463414134377e+000	 9.411149759077884e-001	 1.174381048546240e+001
 2.760075403013765e+000	 9.683020033976790e-001	 1.174224463631403e+001
 2.750398535041076e+000	 9.954561258783168e-001	 1.174195644803468e+001
 2.740432366596330e+000	 1.022572953004148e+000	 1.174281860687889e+001
 2.730176539199392e+000	 1.049648067168086e+000	 1.174473078185083e+001
 2.719630780624395e+000	 1.076677025474828e+000	 1.174762207427073e+001
 2.836126926673104e+000	 8.117167337722308e-001	 1.174488902781457e+001
 2.828105673061239e+000	 8.392367378070784e-001	 1.174155253232408e+001
 2.819796576037104e+000	 8.667452162290449e-001	 1.173996206215858e+001
 2.811198777411680e+000	 8.942379068045107e-001	 1.173984114299786e+001
 2.802311498525101e+000	 9.217105105844983e-001	 1.174092822134726e+001
 2.793134041603210e+000	 9.491586936474775e-001	 1.174297918264915e+001
 2.783665791071792e+000	 9.765780888939597e-001	 1.174576989193891e+001
 2.773906214826328e+000	 1.003964297891819e+000	 1.174909875005673e+001
 2.763854865455220e+000	 1.031312892771182e+000	 1.175278925817520e+001
 2.753511381414393e+000	 1.058619418167635e+000	 1.175669258317228e+001
 2.742875488151270e+000	 1.085879393212413e+000	 1.176069011616792e+001
 2.860161900622463e+000	 8.185956891391486e-001	 1.170797771907880e+001
 2.852072670285467e+000	 8.463489135473123e-001	 1.171263206747208e+001
 2.843693157185278e+000	 8.740905146679343e-001	 1.171852198010176e+001
 2.835022495860089e+000	 9.018161941467713e-001	 1.172531865595955e+001
 2.826059901051216e+000	 9.295216166030752e-001	 1.173270837779660e+001
 2.816804669071168e+000	 9.572024113871669e-001	 1.174039513614817e+001
 2.807256179128995e+000	 9.848541743902404e-001	 1.174810327746739e+001
 2.797413894610821e+000	 1.012472469905322e+000	 1.175558016915188e+001
 2.787277364313424e+000	 1.040052832538216e+000	 1.176259887398784e+001
 2.776846223628796e+000	 1.067590769167185e+000	 1.176896082629573e+001
 2.766120195677642e+000	 1.095081760949999e+000	 1.177449850184301e+001
 2.884196874570821e+000	 8.254746445060665e-001	 1.166738434404584e+001
 2.876039667508701e+000	 8.534610892875464e-001	 1.168075162413500e+001
 2.867589738332473e+000	 8.814358131068238e-001	 1.169482053647424e+001
 2.858846214307540e+000	 9.093944814890321e-001	 1.170920859966878e+001
 2.849808303576410e+000	 9.373327226216522e-001	 1.172354858995882e+001
 2.840475296538248e+000	 9.652461291268560e-001	 1.173749127351672e+001
 2.830846567185376e+000	 9.931302598865213e-001	 1.175070816444238e+001
 2.820921574394557e+000	 1.020980641918824e+000	 1.176289430100913e+001
 2.810699863170943e+000	 1.048792772305250e+000	 1.177377103244351e+001
 2.800181065842598e+000	 1.076562120166735e+000	 1.178308880827313e+001
 2.789364903203508e+000	 1.104284128687585e+000	 1.179062996204992e+001
 2.556917827922116e+000	 1.012260451311729e+000	 1.153923663014424e+001
 2.546730253452309e+000	 1.037624699097835e+000	 1.157902236937166e+001
 2.536269829462127e+000	 1.062937134632405e+000	 1.162525065976479e+001
 2.525536549080854e+000	 1.088193521057849e+000	 1.167720364294522e+001
 2.514530490214019e+000	 1.113389605572322e+000	 1.173418366124618e+001
 2.503251816328117e+000	 1.138521121482226e+000	 1.179551579672525e+001
 2.491700777177656e+000	 1.163583790289265e+000	 1.180908660208493e+001
 2.479877709472937e+000	 1.188573323810187e+000	 1.180048966528177e+001
 2.467783037487111e+000	 1.213485426327356e+000	 1.179056473844513e+001
 2.455417273601035e+000	 1.238315796768149e+000	 1.178088019530881e+001
 2.442781018784593e+000	 1.263060130911157e+000	 1.207159606851552e+001
 2.580162535452529e+000	 1.021462819049315e+000	 1.159333983209749e+001
 2.569882346669243e+000	 1.047057650906575e+000	 1.159991678617340e+001
 2.559326827915428e+000	 1.072600199491755e+000	 1.160958126084613e+001
 2.548495972257904e+000	 1.098086189430378e+000	 1.162163183725383e+001
 2.537389858310436e+000	 1.123511329258762e+000	 1.163539129487054e+001
 2.526008651025577e+000	 1.148871313495187e+000	 1.165020922562862e+001
 2.514352602428330e+000	 1.174161824745915e+000	 1.166546462134089e+001
 2.502422052289998e+000	 1.199378535844212e+000	 1.168056842664425e+001
 2.490217428740764e+000	 1.224517112020461e+000	 1.163396897346745e+001
 2.477739248819489e+000	 1.249573213101380e+000	 1.156827774455443e+001
 2.464988118959423e+000	 1.274542495736273e+000	 1.207694243810603e+001
 2.603407242982436e+000	 1.030665186786900e+000	 1.163645622702267e+001
 2.593034439885761e+000	 1.056490602715315e+000	 1.161215297671422e+001
 2.582383826368382e+000	 1.082263264351105e+000	 1.158759878816421e+001
 2.571455395434662e+000	 1.107978857802907e+000	 1.156210702520087e+001
 2.560249226406592e+000	 1.133633052945202e+000	 1.153501924405821e+001
 2.548765485722786e+000	 1.159221505508147e+000	 1.150570788495888e+001
 2.537004427678744e+000	 1.184739859202564e+000	 1.147357893208318e+001
 2.524966395106771e+000	 1.210183747878236e+000	 1.143807453386264e+001
 2.512651819994079e+000	 1.235548797713566e+000	 1.139867557548963e+001
 2.500061224037538e+000	 1.260830629434610e+000	 1.161687403231259e+001
 2.487195219133758e+000	 1.286024860561388e+000	 1.209675620918970e+001
 2.626651950511838e+000	 1.039867554524486e+000	 1.167033791336126e+001
 2.616186533101865e+000	 1.065923554524055e+000	 1.161745761370013e+001
 2.605440824820995e+000	 1.091926329210455e+000	 1.156100285462483e+001
 2.594414818611126e+000	 1.117871526175436e+000	 1.150030012210612e+001
 2.583108594502486e+000	 1.143754776631642e+000	 1.143470808620216e+001
 2.571522320419745e+000	 1.169571697521108e+000	 1.136362037247705e+001
 2.559656252928899e+000	 1.195317893659215e+000	 1.128646829690729e+001
 2.547510737923258e+000	 1.220988959912261e+000	 1.120272355592673e+001
 2.535086211247058e+000	 1.246580483406670e+000	 1.111190086321974e+001
 2.522383199255179e+000	 1.272088045767840e+000	 1.155804778982179e+001
 2.509402319307596e+000	 1.297507225386504e+000	 1.207581225210494e+001
 2.649896658040735e+000	 1.049069922262071e+000	 1.169670949990897e+001
 2.639338626317554e+000	 1.075356506332795e+000	 1.161753149918990e+001
 2.628497823273262e+000	 1.101589394069805e+000	 1.153146886358718e+001
 2.617374241787297e+000	 1.127764194547964e+000	 1.143785953644316e+001
 2.605967962598117e+000	 1.153876500318082e+000	 1.133607763561723e+001
 2.594279155116454e+000	 1.179921889534068e+000	 1.122553630713913e+001
 2.582308078178794e+000	 1.205895928115864e+000	 1.110569053746672e+001
 2.570055080739456e+000	 1.231794171946285e+000	 1.097603991570518e+001
 2.557520602499700e+000	 1.257612169099776e+000	 1.102678097858092e+001
 2.544705174472416e+000	 1.283345462101071e+000	 1.152059183141213e+001
 2.531609419480937e+000	 1.308989590211620e+000	 1.199990554980511e+001
 2.673141365569126e+000	 1.058272289999657e+000	 1.171726930101758e+001
 2.662490719532829e+000	 1.084789458141534e+000	 1.161405068940589e+001
 2.651554821725186e+000	 1.111252458929156e+000	 1.150064906145271e+001
 2.640333664963175e+000	 1.137656862920493e+000	 1.137641214839784e+001
 2.628827330693487e+000	 1.163998224004522e+000	 1.124072784628256e+001
 2.617035989812912e+000	 1.190272081547028e+000	 1.109302715426158e+001
 2.604959903428432e+000	 1.216473962572515e+000	 1.093278706664869e+001
 2.592599423555365e+000	 1.242599383980309e+000	 1.075953340975551e+001
 2.579954993752004e+000	 1.268643854792880e+000	 1.104512557842042e+001
 2.567027149689244e+000	 1.294602878434302e+000	 1.150352077484835e+001
 2.553816519653783e+000	 1.320471955036735e+000	 1.194579789906158e+001
 2.696386073097013e+000	 1.067474657737242e+000	 1.173369046997629e+001
 2.685642812747688e+000	 1.094222409950274e+000	 1.160866756136479e+001
 2.674611820176765e+000	 1.120915523788506e+000	 1.147017353580991e+001
 2.663293088138760e+000	 1.147549531293022e+000	 1.131756423781172e+001
 2.651686698788594e+000	 1.174119947690962e+000	 1.115023966789071e+001
 2.639792824509118e+000	 1.200622273559989e+000	 1.096764700800584e+001
 2.627611728677810e+000	 1.227051997029165e+000	 1.076928359584872e+001
 2.615143766370987e+000	 1.253404596014334e+000	 1.064140681299358e+001
 2.602389385003972e+000	 1.279675540485985e+000	 1.108158554920554e+001
 2.589349124905667e+000	 1.305860294767532e+000	 1.150583875875045e+001
 2.576023619826133e+000	 1.331954319861851e+000	 1.191243055435853e+001
 2.719630780624395e+000	 1.076677025474828e+000	 1.174762207427073e+001
 2.708794905962132e+000	 1.103655361759014e+000	 1.160301182480965e+001
 2.697668818628000e+000	 1.130578588647856e+000	 1.144165116239210e+001
 2.686252511314052e+000	 1.157442199665550e+000	 1.126290236453875e+001
 2.674546066883441e+000	 1.184241671377402e+000	 1.106617585799646e+001
 2.662549659205076e+000	 1.210972465572949e+000	 1.085093333373527e+001
 2.650263553926928e+000	 1.237630031485815e+000	 1.061669080597431e+001
 2.637688109186321e+000	 1.264209808048359e+000	 1.072645035310379e+001
 2.624823776255603e+000	 1.290707226179090e+000	 1.113521606194574e+001
 2.611671100121684e+000	 1.317117711100763e+000	 1.152653989042046e+001
 2.598230719997987e+000	 1.343436684686967e+000	 1.189873647134186e+001
 2.742875488151270e+000	 1.085879393212413e+000	 1.176069011616792e+001
 2.731946999176162e+000	 1.113088313567753e+000	 1.159869148268743e+001
 2.720725817078890e+000	 1.140241653507206e+000	 1.141667050388487e+001
 2.709211934489051e+000	 1.167334868038079e+000	 1.121399420403784e+001
 2.697405434978025e+000	 1.194363395063843e+000	 1.099008175287032e+001
 2.685306493900782e+000	 1.221322657585910e+000	 1.074440767262538e+001
 2.672915379175787e+000	 1.248208065942465e+000	 1.047650498433013e+001
 2.660232452001367e+000	 1.275015020082383e+000	 1.082663280188525e+001
 2.647258167506897e+000	 1.301738911872195e+000	 1.120506105357008e+001
 2.633993075337294e+000	 1.328375127433993e+000	 1.156460867089830e+001
 2.620437820169345e+000	 1.354919049512082e+000	 1.190364065846498e+001
 2.766120195677642e+000	 1.095081760949999e+000	 1.177449850184301e+001
 2.755099092389776e+000	 1.122521265376493e+000	 1.159729374319940e+001
 2.743782815529437e+000	 1.149904718366556e+000	 1.139680066341549e+001
 2.732171357663757e+000	 1.177227536410608e+000	 1.117238934083495e+001
 2.720264803072348e+000	 1.204485118750283e+000	 1.092348599948510e+001
 2.708063328596237e+000	 1.231672849598870e+000	 1.064957631074720e+001
 2.695567204424388e+000	 1.258786100399115e+000	 1.057321489757328e+001
 2.682776794816125e+000	 1.285820232116408e+000	 1.094104515736458e+001
 2.669692558757854e+000	 1.312770597565300e+000	 1.129015369894733e+001
 2.656315050552498e+000	 1.339632543767224e+000	 1.161902039858610e+001
 2.642644920340206e+000	 1.366401414337198e+000	 1.192606051090437e+001
 2.789364903203508e+000	 1.104284128687585e+000	 1.179062996204992e+001
 2.778251185602976e+000	 1.131954217185233e+000	 1.160038588624875e+001
 2.766839813979641e+000	 1.159567783225906e+000	 1.138359209536783e+001
 2.755130780838170e+000	 1.187120204783136e+000	 1.113962002231190e+001
 2.743124171166410e+000	 1.214606842436723e+000	 1.086790125090336e+001
 2.730820163291444e+000	 1.242023041611831e+000	 1.056793091469669e+001
 2.718219029672730e+000	 1.269364134855766e+000	 1.072796027374175e+001
 2.705321137630596e+000	 1.296625444150433e+000	 1.106876663871892e+001
 2.692126950008475e+000	 1.323802283258405e+000	 1.138951685930523e+001
 2.678637025767297e+000	 1.350889960100455e+000	 1.168874155269165e+001
 2.664852020510573e+000	 1.377883779162314e+000	 1.196490612777951e+001
 2.442781018784593e+000	 1.263060130911157e+000	 1.207159606851552e+001
 2.429874963012998e+000	 1.287714123616817e+000	 1.211617056264338e+001
 2.416699885617484e+000	 1.312273471080953e+000	 1.213586139333486e+001
 2.403256655568766e+000	 1.336733873108761e+000	 1.212967325469487e+001
 2.389546231691873e+000	 1.361091035406278e+000	 1.209662938017601e+001
 2.375569662812049e+000	 1.385340671887672e+000	 1.203577251707180e+001
 2.361328087830619e+000	 1.409478506995772e+000	 1.194616589218317e+001
 2.346822735730042e+000	 1.433500278033387e+000	 1.182689416747749e+001
 2.332054925507497e+000	 1.457401737502926e+000	 1.167706438455365e+001
 2.317026066036402e+000	 1.481178655451782e+000	 1.149580689672269e+001
 2.301737655855408e+000	 1.504826821820936e+000	 1.128227628751145e+001
 2.464988118959423e+000	 1.274542495736273e+000	 1.207694243810603e+001
 2.451964735408257e+000	 1.299420615648048e+000	 1.208718373484167e+001
 2.438669884582033e+000	 1.324203229907143e+000	 1.207509792262091e+001
 2.425104443351200e+000	 1.348885999226073e+000	 1.203987022924308e+001
 2.411269379257375e+000	 1.373464590271840e+000	 1.198070318478430e+001
 2.397165750660581e+000	 1.397934677994196e+000	 1.189681738929032e+001
 2.382794706815789e+000	 1.422291947967267e+000	 1.178745227159460e+001
 2.368157487878027e+000	 1.446532098742073e+000	 1.165186683843878e+001
 2.353255424835356e+000	 1.470650844207407e+000	 1.148934041307219e+001
 2.338089939369133e+000	 1.494643915956549e+000	 1.129917336250495e+001
 2.322662543641093e+000	 1.518507065657215e+000	 1.108068781258886e+001
 2.487195219133758e+000	 1.286024860561388e+000	 1.209675620918970e+001
 2.474054507802924e+000	 1.311127107679275e+000	 1.207737140156266e+001
 2.460639883545905e+000	 1.336132988733313e+000	 1.203816625523874e+001
 2.446952231132880e+000	 1.361038125343341e+000	 1.197850426915008e+001
 2.432992526822060e+000	 1.385838145137323e+000	 1.189776501967942e+001
 2.418761838508240e+000	 1.410528684100595e+000	 1.179534472345452e+001
 2.404261325800040e+000	 1.435105388938585e+000	 1.167065679122593e+001
 2.389492240025056e+000	 1.459563919450517e+000	 1.152313237236208e+001
 2.374455924162234e+000	 1.483899950911571e+000	 1.135222088949802e+001
 2.359153812700870e+000	 1.508109176460914e+000	 1.115739056287489e+001
 2.343587431425777e+000	 1.532187309492996e+000	 1.093812892390872e+001
 2.509402319307596e+000	 1.297507225386504e+000	 1.207581225210494e+001
 2.496144280197001e+000	 1.322833599710497e+000	 1.208664675814886e+001
 2.482609882509102e+000	 1.348062747559464e+000	 1.202484877076692e+001
 2.468800018913809e+000	 1.373190251460564e+000	 1.194522837985180e+001
 2.454715674385927e+000	 1.398211700002727e+000	 1.184734002570998e+001
 2.440357926355025e+000	 1.423122690206872e+000	 1.173075337276674e+001
 2.425727944783372e+000	 1.447918829909724e+000	 1.159505366034690e+001
 2.410826992171133e+000	 1.472595740158718e+000	 1.143984204439239e+001
 2.395656423488133e+000	 1.497149057615417e+000	 1.126473593001012e+001
 2.380217686031612e+000	 1.521574436964876e+000	 1.106936929474733e+001
 2.364512319209461e+000	 1.545867553328280e+000	 1.085339300249477e+001
 2.531609419480937e+000	 1.308989590211620e+000	 1.199990554980511e+001
 2.518234052590487e+000	 1.334540091741714e+000	 1.201069309907658e+001
 2.504579881471621e+000	 1.359992506385595e+000	 1.200877637907150e+001
 2.490647806693985e+000	 1.385342377577743e+000	 1.193969950865125e+001
 2.476438821948976e+000	 1.410585254868052e+000	 1.182896166160377e+001
 2.461954014200937e+000	 1.435716696313025e+000	 1.170245483296717e+001
 2.447194563765786e+000	 1.460732270880685e+000	 1.155993400183138e+001
 2.432161744316254e+000	 1.485627560866675e+000	 1.140116825853378e+001
 2.416856922813052e+000	 1.510398164318946e+000	 1.122594093689345e+001
 2.401281559361360e+000	 1.535039697468435e+000	 1.103404973820950e+001
 2.385437206992146e+000	 1.559547797163067e+000	 1.082530684728333e+001
 2.553816519653783e+000	 1.320471955036735e+000	 1.194579789906158e+001
 2.540323824983382e+000	 1.346246583772926e+000	 1.193781365564216e+001
 2.526549880433464e+000	 1.371922265211707e+000	 1.192037535462209e+001
 2.512495594473410e+000	 1.397494503694878e+000	 1.189228299305568e+001
 2.498161969511209e+000	 1.422958809733299e+000	 1.184217134232078e+001
 2.483550102045977e+000	 1.448310702419053e+000	 1.170987269265836e+001
 2.468661182747281e+000	 1.473545711851468e+000	 1.156460511678331e+001
 2.453496496460421e+000	 1.498659381574390e+000	 1.140630362900332e+001
 2.438057422136993e+000	 1.523647271022157e+000	 1.123491549914294e+001
 2.422345432690112e+000	 1.548504957971592e+000	 1.105040017899185e+001
 2.406362094773829e+000	 1.573228040997356e+000	 1.085272922217061e+001
 2.576023619826133e+000	 1.331954319861851e+000	 1.191243055435853e+001
 2.562413597375686e+000	 1.357953075804133e+000	 1.188951895508674e+001
 2.548519879394630e+000	 1.383852024037799e+000	 1.186040291592348e+001
 2.534343382252084e+000	 1.409646629811968e+000	 1.182403731797671e+001
 2.519885117072623e+000	 1.435332364598465e+000	 1.177931053541114e+001
 2.505146189890143e+000	 1.460904708524959e+000	 1.172504447569041e+001
 2.490127801727857e+000	 1.486359152822073e+000	 1.160838978719920e+001
 2.474831248603634e+000	 1.511691202281862e+000	 1.145446010910117e+001
 2.459257921459952e+000	 1.536896377725050e+000	 1.129076234993291e+001
 2.443409306017870e+000	 1.561970218474346e+000	 1.111741579701778e+001
 2.427286982554514e+000	 1.586908284831148e+000	 1.093454947821253e+001
 2.598230719997987e+000	 1.343436684686967e+000	 1.189873647134186e+001
 2.584503369767397e+000	 1.369659567835335e+000	 1.186461879551697e+001
 2.570489878355120e+000	 1.395781782863870e+000	 1.182754765757634e+001
 2.556191170030006e+000	 1.421798755929015e+000	 1.178663095113379e+001
 2.541608264633220e+000	 1.447705919463553e+000	 1.174090590342611e+001
 2.526742277733436e+000	 1.473498714630741e+000	 1.168933890279012e+001
 2.511594420707514e+000	 1.499172593792499e+000	 1.163082552728915e+001
 2.496166000745893e+000	 1.524723022989092e+000	 1.154486816475411e+001
 2.480458420781933e+000	 1.550145484427626e+000	 1.139260637754960e+001
 2.464473179344632e+000	 1.575435478976699e+000	 1.123411751707921e+001
 2.448211870334198e+000	 1.600588528664443e+000	 1.106968624648137e+001
 2.620437820169345e+000	 1.354919049512082e+000	 1.190364065846498e+001
 2.606593142158518e+000	 1.381366059866532e+000	 1.186191881739540e+001
 2.592459877314933e+000	 1.407711541689923e+000	 1.182049776871706e+001
 2.578038957807175e+000	 1.433950882046016e+000	 1.177863660920346e+001
 2.563331412193000e+000	 1.460079474328562e+000	 1.173551954759826e+001
 2.548338365575855e+000	 1.486092720736399e+000	 1.169025552010096e+001
 2.533061039686254e+000	 1.511986034762747e+000	 1.164187801355357e+001
 2.517500752887197e+000	 1.537754843696078e+000	 1.158934510124546e+001
 2.501658920102933e+000	 1.563394591129885e+000	 1.153153969565774e+001
 2.485537052670400e+000	 1.588900739478649e+000	 1.139955091795228e+001
 2.469136758112883e+000	 1.614268772497240e+000	 1.125708619738682e+001
 2.642644920340206e+000	 1.366401414337198e+000	 1.192606051090437e+001
 2.628682914549048e+000	 1.393072551897724e+000	 1.188022067823150e+001
 2.614429876274070e+000	 1.419641300515956e+000	 1.183794105005409e+001
 2.599886745583591e+000	 1.446103008162973e+000	 1.179863017732283e+001
 2.585054559751962e+000	 1.472453029193492e+000	 1.176161743786139e+001
 2.569934453417402e+000	 1.498686726841934e+000	 1.172615244056894e+001
 2.554527658664074e+000	 1.524799475732817e+000	 1.169140464401636e+001
 2.538835505027548e+000	 1.550786664402821e+000	 1.165646319483124e+001
 2.522859419422954e+000	 1.576643697831826e+000	 1.162033699065762e+001
 2.506600925995173e+000	 1.602365999980196e+000	 1.158195497183727e+001
 2.490061645890567e+000	 1.627949016329540e+000	 1.149572286255279e+001
 2.664852020510573e+000	 1.377883779162314e+000	 1.196490612777951e+001
 2.650772686938987e+000	 1.404779043928912e+000	 1.191832221853801e+001
 2.636399875232532e+000	 1.431571059341969e+000	 1.187856493005245e+001
 2.621734533359257e+000	 1.458255134279886e+000	 1.184519057707051e+001
 2.606777707310106e+000	 1.484826584058344e+000	 1.181767195145636e+001
 2.591530541258077e+000	 1.511280732947345e+000	 1.179539751575497e+001
 2.575994277640976e+000	 1.537612916702709e+000	 1.177767081798450e+001
 2.560170257166945e+000	 1.563818485109322e+000	 1.176371013353234e+001
 2.544059918741996e+000	 1.589892804533449e+000	 1.175264833940505e+001
 2.527664799318952e+000	 1.615831260481341e+000	 1.174353302542873e+001
 2.510986533667252e+000	 1.641629260161343e+000	 1.173532684631196e+001
 2.301737655855408e+000	 1.504826821820936e+000	 1.128227628751145e+001
 2.286191282884384e+000	 1.528342048794389e+000	 1.131016060975221e+001
 2.270388624067453e+000	 1.551720173146156e+000	 1.134331443407696e+001
 2.254331444942703e+000	 1.574957058582615e+000	 1.138320366731985e+001
 2.238021599138304e+000	 1.598048598078017e+000	 1.143129525677300e+001
 2.221461027795396e+000	 1.620990716199807e+000	 1.148905547403377e+001
 2.204651758917846e+000	 1.643779371421331e+000	 1.155794819955443e+001
 2.187595906649108e+000	 1.666410558419238e+000	 1.163943321115489e+001
 2.170295670476612e+000	 1.688880310352929e+000	 1.173496447975140e+001
 2.152753334364159e+000	 1.711184701123381e+000	 1.184598847553755e+001
 2.134971265812936e+000	 1.733319847608720e+000	 1.197394248782735e+001
 2.322662543641093e+000	 1.518507065657215e+000	 1.108068781258886e+001
 2.306974840006722e+000	 1.542236067422203e+000	 1.116091981130008e+001
 2.291028520655075e+000	 1.565826720177869e+000	 1.124297574455116e+001
 2.274825367174591e+000	 1.589274850027924e+000	 1.132803020194636e+001
 2.258367250044602e+000	 1.612576312610017e+000	 1.141726045589372e+001
 2.241656128052987e+000	 1.635726995442208e+000	 1.151184505570346e+001
 2.224694047640010e+000	 1.658722820256690e+000	 1.161296242227604e+001
 2.207483142168611e+000	 1.681559745318081e+000	 1.172178944613155e+001
 2.190025631121564e+000	 1.704233767723595e+000	 1.183950009151979e+001
 2.172323819225972e+000	 1.726740925682400e+000	 1.196726400933250e+001
 2.154380095505764e+000	 1.749077300771513e+000	 1.210624516151082e+001
 2.343587431425777e+000	 1.532187309492996e+000	 1.093812892390872e+001
 2.327758397128064e+000	 1.556130086049429e+000	 1.106233347141458e+001
 2.311668417241718e+000	 1.579933267208925e+000	 1.118496868960591e+001
 2.295319289405525e+000	 1.603592641472524e+000	 1.130692204517512e+001
 2.278712900949980e+000	 1.627104027141278e+000	 1.142908530607994e+001
 2.261851228309702e+000	 1.650463274683859e+000	 1.155235344194453e+001
 2.244736336361353e+000	 1.673666269091308e+000	 1.167762352495488e+001
 2.227370377687360e+000	 1.696708932216214e+000	 1.180579363349648e+001
 2.209755591765835e+000	 1.719587225093602e+000	 1.193776176076787e+001
 2.191894304087189e+000	 1.742297150240828e+000	 1.207442473058191e+001
 2.173788925198088e+000	 1.764834753933805e+000	 1.221667712253861e+001
 2.364512319209461e+000	 1.545867553328280e+000	 1.085339300249477e+001
 2.348541954248410e+000	 1.570024104676068e+000	 1.101341096646668e+001
 2.332308313827380e+000	 1.594039814239324e+000	 1.116851737853614e+001
 2.315813211635502e+000	 1.617910432916416e+000	 1.131931667158860e+001
 2.299058551854437e+000	 1.641631741671801e+000	 1.146641917469515e+001
 2.282046328565542e+000	 1.665199553924761e+000	 1.161044031596216e+001
 2.264778625081876e+000	 1.688609717925187e+000	 1.175199982579646e+001
 2.247257613205352e+000	 1.711858119113637e+000	 1.189172094233767e+001
 2.229485552409424e+000	 1.734940682462946e+000	 1.203022962079062e+001
 2.211464788947809e+000	 1.757853374798665e+000	 1.216815374836759e+001
 2.193197754889913e+000	 1.780592207095596e+000	 1.230612236652053e+001
 2.385437206992146e+000	 1.559547797163067e+000	 1.082530684728333e+001
 2.369325511367762e+000	 1.583918123302120e+000	 1.101318743138232e+001
 2.352948210412062e+000	 1.608146361269064e+000	 1.119286406875142e+001
 2.336307133864524e+000	 1.632228224359600e+000	 1.136466214612742e+001
 2.319404202757974e+000	 1.656159456201584e+000	 1.152891451813810e+001
 2.302241428820505e+000	 1.679935833164913e+000	 1.168596100883661e+001
 2.284820913801577e+000	 1.703553166758326e+000	 1.183614791359005e+001
 2.267144848722588e+000	 1.727007306010348e+000	 1.197982750258287e+001
 2.249215513052331e+000	 1.750294139831630e+000	 1.211735752717466e+001
 2.231035273807834e+000	 1.773409599355911e+000	 1.224910073032526e+001
 2.212606584581236e+000	 1.796349660256885e+000	 1.237542436227019e+001
 2.406362094773829e+000	 1.573228040997356e+000	 1.085272922217061e+001
 2.390109068486118e+000	 1.597812141927584e+000	 1.106072263970512e+001
 2.373588106995764e+000	 1.622252908298146e+000	 1.125726837672746e+001
 2.356801056092591e+000	 1.646546015802076e+000	 1.144241666364005e+001
 2.339749853660591e+000	 1.670687170730629e+000	 1.161622674753682e+001
 2.322436529074593e+000	 1.694672112404316e+000	 1.177876668874613e+001
 2.304863202520457e+000	 1.718496615590724e+000	 1.193011315768324e+001
 2.287032084239069e+000	 1.742156492906350e+000	 1.207035123278919e+001
 2.268945473694558e+000	 1.765647597199653e+000	 1.219957420030732e+001
 2.250605758667262e+000	 1.788965823912565e+000	 1.231788335662038e+001
 2.232015414272057e+000	 1.812107113417673e+000	 1.242538781383967e+001
 2.427286982554514e+000	 1.586908284831148e+000	 1.093454947821253e+001
 2.410892625603480e+000	 1.611706160552461e+000	 1.115509994158705e+001
 2.394228003578486e+000	 1.636359455326572e+000	 1.136100652977055e+001
 2.377294978319703e+000	 1.660863807243843e+000	 1.155204811224881e+001
 2.360095504562286e+000	 1.685214885258934e+000	 1.172801410138974e+001
 2.342631629327805e+000	 1.709408391642969e+000	 1.188870454040237e+001
 2.324905491238517e+000	 1.733440064422383e+000	 1.203393019157864e+001
 2.306919319754793e+000	 1.757305679801640e+000	 1.216351262511601e+001
 2.288675434336103e+000	 1.781001054567014e+000	 1.227728430879043e+001
 2.270176243526093e+000	 1.804522048468628e+000	 1.237508869871848e+001
 2.251424243962378e+000	 1.827864566577960e+000	 1.245678033141426e+001
 2.448211870334198e+000	 1.600588528664443e+000	 1.106968624648137e+001
 2.431676182719846e+000	 1.625600179176749e+000	 1.129542525624095e+001
 2.414867900160228e+000	 1.650466002354339e+000	 1.150337065615292e+001
 2.397788900545859e+000	 1.675181598684902e+000	 1.169303365910746e+001
 2.380441155463061e+000	 1.699742599786501e+000	 1.186393752473774e+001
 2.362826729580141e+000	 1.724144670880873e+000	 1.201561793528394e+001
 2.344947779955755e+000	 1.748383513253301e+000	 1.214762337173063e+001
 2.326806555269760e+000	 1.772454866696219e+000	 1.225951549004276e+001
 2.308405394976968e+000	 1.796354511933715e+000	 1.235086949729431e+001
 2.289746728384328e+000	 1.820078273024101e+000	 1.242127452744920e+001
 2.270833073652197e+000	 1.843622019737746e+000	 1.247033401652062e+001
 2.469136758112883e+000	 1.614268772497240e+000	 1.125708619738682e+001
 2.452459739835218e+000	 1.639494197800451e+000	 1.148082611562448e+001
 2.435507796740989e+000	 1.664572549381448e+000	 1.168366811134308e+001
 2.418282822771059e+000	 1.689499390125252e+000	 1.186485935722185e+001
 2.400786806362916e+000	 1.714270314313329e+000	 1.202366055448026e+001
 2.383021829831602e+000	 1.738880950118028e+000	 1.215934659321418e+001
 2.364990068672173e+000	 1.763326962083479e+000	 1.227120721301348e+001
 2.346693790783972e+000	 1.787604053590089e+000	 1.235854766321986e+001
 2.328135355617151e+000	 1.811707969299755e+000	 1.242068936214826e+001
 2.309317213241967e+000	 1.835634497578981e+000	 1.245697055455874e+001
 2.290241903341514e+000	 1.859379472897029e+000	 1.246674696663080e+001
 2.490061645890567e+000	 1.627949016329540e+000	 1.149572286255279e+001
 2.473243296949594e+000	 1.653388216423565e+000	 1.171045075634156e+001
 2.456147693320771e+000	 1.678679096407900e+000	 1.190122083820754e+001
 2.438776744995305e+000	 1.703817181564894e+000	 1.206701977209477e+001
 2.421132457261850e+000	 1.728798028839418e+000	 1.220684921047368e+001
 2.403216930082187e+000	 1.753617229354432e+000	 1.231972673579202e+001
 2.385032357387770e+000	 1.778270410912917e+000	 1.240468680223322e+001
 2.366581026297428e+000	 1.802753240483248e+000	 1.246078167667997e+001
 2.347865316256653e+000	 1.827061426665134e+000	 1.248708237774127e+001
 2.328887698099010e+000	 1.851190722133271e+000	 1.248267961166288e+001
 2.309650733030330e+000	 1.875136926055812e+000	 1.244766718694958e+001
 2.510986533667252e+000	 1.641629260161343e+000	 1.173532684631196e+001
 2.494026854062975e+000	 1.667282235046092e+000	 1.198346725694872e+001
 2.476787589899573e+000	 1.692785643433693e+000	 1.215536475920266e+001
 2.459270667218596e+000	 1.718134973003829e+000	 1.229901762703867e+001
 2.441478108159864e+000	 1.743325743364769e+000	 1.241317189207473e+001
 2.423412030331897e+000	 1.768353508590088e+000	 1.249659123215129e+001
 2.405074646102547e+000	 1.793213859741616e+000	 1.254805819096372e+001
 2.386468261810128e+000	 1.817902427375696e+000	 1.256637539648875e+001
 2.367595276895474e+000	 1.842414884029853e+000	 1.255036677660302e+001
 2.348458182955457e+000	 1.866746946686970e+000	 1.249887877025244e+001
 2.329059562718645e+000	 1.890894379214094e+000	 1.252015684909313e+001
 2.134971265812936e+000	 1.733319847608720e+000	 1.197394248782735e+001
 2.116951914852261e+000	 1.755281911873847e+000	 1.193411150770962e+001
 2.098697812959695e+000	 1.777067103351779e+000	 1.187837583461380e+001
 2.080211571912335e+000	 1.798671680993865e+000	 1.180596086840265e+001
 2.061495882571018e+000	 1.820091955386313e+000	 1.171610656578763e+001
 2.042553513597452e+000	 1.841324290830752e+000	 1.160806827570351e+001
 2.023387310105892e+000	 1.862365107386282e+000	 1.148111756985137e+001
 2.004000192250766e+000	 1.883210882870656e+000	 1.142058006542610e+001
 1.984395153751669e+000	 1.903858154818207e+000	 1.147222862754341e+001
 1.964575260357303e+000	 1.924303522392292e+000	 1.150290163069522e+001
 1.944543648250000e+000	 1.944543648250000e+000	 1.151063359401999e+001
 2.154380095505764e+000	 1.749077300771513e+000	 1.210624516151082e+001
 2.136196932263273e+000	 1.771239020165651e+000	 1.201864077608234e+001
 2.117776883989519e+000	 1.793222258838262e+000	 1.191603517464933e+001
 2.099122586205026e+000	 1.815023241731164e+000	 1.179780432556813e+001
 2.080236754233004e+000	 1.836638245890441e+000	 1.166333753404144e+001
 2.061122181904811e+000	 1.858063602565916e+000	 1.151203811662097e+001
 2.041781740199379e+000	 1.879295699271775e+000	 1.138738344009416e+001
 2.022218375817995e+000	 1.900330981805929e+000	 1.141920836976034e+001
 2.002435109695884e+000	 1.921165956225754e+000	 1.143410308107063e+001
 1.982435035452191e+000	 1.941797190777908e+000	 1.143019270203985e+001
 1.962221317780000e+000	 1.962221317780000e+000	 1.140560342739597e+001
 2.173788925198088e+000	 1.764834753933805e+000	 1.221667712253861e+001
 2.155441949673878e+000	 1.787196128457048e+000	 1.208523344395630e+001
 2.136855955019021e+000	 1.809377414324423e+000	 1.193966441769932e+001
 2.118033600497470e+000	 1.831374802468217e+000	 1.177949467204234e+001
 2.098977625894809e+000	 1.853184536394387e+000	 1.160426095986756e+001
 2.079690850212045e+000	 1.874802914300954e+000	 1.141351267398599e+001
 2.060176170292787e+000	 1.896226291157187e+000	 1.142168394849593e+001
 2.040436559385177e+000	 1.917451080741158e+000	 1.141871995465705e+001
 2.020475065640079e+000	 1.938473757633281e+000	 1.140087567466552e+001
 2.000294810547075e+000	 1.959290859163519e+000	 1.136636782930900e+001
 1.979898987310000e+000	 1.979898987310000e+000	 1.131341135816294e+001
 2.193197754889913e+000	 1.780592207095596e+000	 1.230612236652053e+001
 2.174686967084077e+000	 1.803153236748038e+000	 1.213466420928653e+001
 2.155935026048201e+000	 1.825532569810263e+000	 1.194992987034138e+001
 2.136944614789670e+000	 1.847726363205024e+000	 1.175159078278994e+001
 2.117718497556434e+000	 1.869730826898153e+000	 1.153932929929313e+001
 2.098259518519154e+000	 1.891542226035867e+000	 1.147535161448947e+001
 2.078570600386115e+000	 1.913156883042519e+000	 1.145271318780251e+001
 2.058654742952316e+000	 1.934571179676341e+000	 1.141890646229581e+001
 2.038515021584253e+000	 1.955781559040788e+000	 1.137224479790676e+001
 2.018154585641954e+000	 1.976784527549125e+000	 1.131103361474807e+001
 1.997576656840000e+000	 1.997576656840000e+000	 1.123357370212928e+001
 2.212606584581236e+000	 1.796349660256885e+000	 1.237542436227019e+001
 2.193931984493869e+000	 1.819110345038622e+000	 1.216767104665130e+001
 2.175014097077061e+000	 1.841687725295783e+000	 1.194746489253892e+001
 2.155855629081623e+000	 1.864077923941585e+000	 1.171462233441314e+001
 2.136459369217877e+000	 1.886277117401738e+000	 1.157574770709226e+001
 2.116828186826137e+000	 1.908281537770655e+000	 1.153187888281109e+001
 2.096965030479361e+000	 1.930087474927769e+000	 1.148033933836468e+001
 2.076872926519409e+000	 1.951691278611478e+000	 1.141954500785629e+001
 2.056554977528407e+000	 1.973089360448274e+000	 1.134789789182880e+001
 2.036014360736828e+000	 1.994278195934725e+000	 1.126378925124361e+001
 2.015254326370000e+000	 2.015254326370001e+000	 1.116560286394248e+001
 2.232015414272057e+000	 1.812107113417673e+000	 1.242538781383967e+001
 2.213177001903255e+000	 1.835067453328800e+000	 1.218495680392070e+001
 2.194093168105600e+000	 1.857842880780981e+000	 1.193287133010264e+001
 2.174766643373330e+000	 1.880429484677900e+000	 1.171825691881007e+001
 2.155200240879140e+000	 1.902823407905143e+000	 1.165185666517716e+001
 2.135396855132995e+000	 1.925020849505317e+000	 1.158106734754673e+001
 2.115359460572527e+000	 1.947018066812941e+000	 1.150441322637405e+001
 2.095091110086457e+000	 1.968811377546571e+000	 1.142039881112684e+001
 2.074594933472542e+000	 1.990397161855741e+000	 1.132751192494560e+001
 2.053874135831696e+000	 2.011771864320322e+000	 1.122422684446940e+001
 2.032931995899999e+000	 2.032931995899999e+000	 1.110900750713948e+001
 2.251424243962378e+000	 1.827864566577960e+000	 1.245678033141426e+001
 2.232422019312235e+000	 1.851024561618572e+000	 1.218719071633883e+001
 2.213172239133817e+000	 1.873998036265858e+000	 1.190672087305929e+001
 2.193677657664791e+000	 1.896781045413969e+000	 1.180813798899324e+001
 2.173941112540222e+000	 1.919369698408366e+000	 1.171683070940188e+001
 2.153965523439727e+000	 1.941760161239853e+000	 1.162283681354818e+001
 2.133753890665613e+000	 1.963948658698031e+000	 1.152476907188728e+001
 2.113309293653459e+000	 1.985931476481618e+000	 1.142121779544383e+001
 2.092634889416655e+000	 2.007704963263187e+000	 1.131075384465226e+001
 2.071733910926561e+000	 2.029265532705913e+000	 1.119193171836974e+001
 2.050609665430000e+000	 2.050609665430000e+000	 1.106329271540153e+001
 2.270833073652197e+000	 1.843622019737746e+000	 1.247033401652062e+001
 2.251667036720809e+000	 1.866981669907937e+000	 1.217500984296089e+001
 2.232251310161713e+000	 1.890153191750413e+000	 1.199607436378132e+001
 2.212588671956006e+000	 1.913132606149793e+000	 1.188322515040193e+001
 2.192681984201123e+000	 1.935915988911409e+000	 1.177065415841266e+001
 2.172534191746333e+000	 1.958499472974264e+000	 1.165708798961661e+001
 2.152148320758618e+000	 1.980879250583041e+000	 1.154122519848987e+001
 2.131527477220416e+000	 2.003051575416621e+000	 1.142173915591605e+001
 2.110674845360750e+000	 2.025012764670614e+000	 1.129728100547805e+001
 2.089593686021419e+000	 2.046759201091499e+000	 1.116648270497700e+001
 2.068287334960000e+000	 2.068287334960000e+000	 1.102796014553944e+001
 2.290241903341514e+000	 1.859379472897029e+000	 1.246674696663080e+001
 2.270912054128976e+000	 1.882938778196897e+000	 1.221088547692983e+001
 2.251330381189289e+000	 1.906308347234647e+000	 1.207571013813042e+001
 2.231499686246975e+000	 1.929484166885370e+000	 1.194356302419937e+001
 2.211422855861843e+000	 1.952462279414270e+000	 1.181328995144573e+001
 2.191102860052813e+000	 1.975238784708549e+000	 1.168370329765724e+001
 2.170542750851543e+000	 1.997809842467971e+000	 1.155358470687548e+001
 2.149745660787328e+000	 2.020171674351577e+000	 1.142168789875645e+001
 2.128714801304823e+000	 2.042320566078020e+000	 1.128674157556374e+001
 2.107453461116273e+000	 2.064252869477080e+000	 1.114745241949258e+001
 2.085965004490000e+000	 2.085965004490000e+000	 1.100250817270000e+001
 2.309650733030330e+000	 1.875136926055812e+000	 1.244766718694958e+001
 2.290157071536736e+000	 1.898895886485449e+000	 1.228961699240089e+001
 2.270409452216542e+000	 1.922463502718561e+000	 1.213712877706757e+001
 2.250410700537698e+000	 1.945835727620701e+000	 1.198917276199592e+001
 2.230163727522383e+000	 1.969008569916952e+000	 1.184468054662194e+001
 2.209671528359169e+000	 1.991978096442708e+000	 1.170254764103633e+001
 2.188937180944388e+000	 2.014740434352820e+000	 1.156163611446325e+001
 2.167963844354194e+000	 2.037291773286489e+000	 1.142077735342053e+001
 2.146754757248877e+000	 2.059628367485406e+000	 1.127877492264429e+001
 2.125313236211122e+000	 2.081746537862656e+000	 1.113440752149829e+001
 2.103642674020000e+000	 2.103642674020000e+000	 1.098643202825086e+001
 2.329059562718645e+000	 1.890894379214094e+000	 1.252015684909313e+001
 2.309402088944092e+000	 1.914852994773596e+000	 1.234679247358920e+001
 2.289488523243476e+000	 1.938618658202153e+000	 1.218040585452683e+001
 2.269321714828176e+000	 1.962187288355787e+000	 1.202005302374700e+001
 2.248904599182742e+000	 1.985554860419452e+000	 1.186474877432642e+001
 2.228240196665399e+000	 2.008717408176743e+000	 1.171346913452024e+001
 2.207331611037153e+000	 2.031671026237589e+000	 1.156515396303422e+001
 2.186182027921017e+000	 2.054411872221357e+000	 1.141870965913799e+001
 2.164794713192912e+000	 2.076936168892773e+000	 1.127301198073251e+001
 2.143173011305966e+000	 2.099240206248227e+000	 1.112690896310719e+001
 2.121320343550000e+000	 2.121320343550000e+000	 1.097922393077160e+001
 1.944543648250000e+000	 1.944543648250000e+000	 1.151063359401999e+001
 1.924303522392292e+000	 1.964575260357303e+000	 1.158405480277094e+001
 1.903858154818207e+000	 1.984395153751669e+000	 1.162505326685773e+001
 1.883210882870656e+000	 2.004000192250766e+000	 1.163169422102158e+001
 1.862365107386283e+000	 2.023387310105892e+000	 1.158770198433762e+001
 1.841324290830751e+000	 2.042553513597451e+000	 1.149888829668241e+001
 1.820091955386314e+000	 2.061495882571018e+000	 1.137476758648256e+001
 1.798671680993865e+000	 2.080211571912334e+000	 1.121504234176490e+001
 1.777067103351779e+000	 2.098697812959695e+000	 1.101944861031621e+001
 1.755281911873847e+000	 2.116951914852261e+000	 1.078775636031643e+001
 1.733319847608720e+000	 2.134971265812937e+000	 1.051976980608998e+001
 1.962221317780000e+000	 1.962221317780000e+000	 1.140560342739597e+001
 1.941797190777907e+000	 1.982435035452191e+000	 1.145126918903477e+001
 1.921165956225753e+000	 2.002435109695884e+000	 1.146894621806263e+001
 1.900330981805929e+000	 2.022218375817995e+000	 1.145685330478599e+001
 1.879295699271775e+000	 2.041781740199379e+000	 1.141322603220156e+001
 1.858063602565916e+000	 2.061122181904811e+000	 1.131488510027579e+001
 1.836638245890441e+000	 2.080236754233004e+000	 1.118037239420204e+001
 1.815023241731165e+000	 2.099122586205026e+000	 1.101541690994051e+001
 1.793222258838262e+000	 2.117776883989519e+000	 1.081993643690343e+001
 1.771239020165651e+000	 2.136196932263273e+000	 1.059387714848705e+001
 1.749077300771513e+000	 2.154380095505764e+000	 1.033721375837845e+001
 1.979898987310000e+000	 1.979898987310000e+000	 1.131341135816294e+001
 1.959290859163519e+000	 2.000294810547075e+000	 1.133726118774824e+001
 1.938473757633281e+000	 2.020475065640078e+000	 1.133748323222085e+001
 1.917451080741157e+000	 2.040436559385178e+000	 1.131244597704507e+001
 1.896226291157187e+000	 2.060176170292787e+000	 1.126052968980557e+001
 1.874802914300954e+000	 2.079690850212046e+000	 1.117983685019030e+001
 1.853184536394388e+000	 2.098977625894809e+000	 1.103998534146900e+001
 1.831374802468217e+000	 2.118033600497470e+000	 1.087475625880249e+001
 1.809377414324423e+000	 2.136855955019021e+000	 1.068424676149664e+001
 1.787196128457048e+000	 2.155441949673878e+000	 1.046857691781143e+001
 1.764834753933805e+000	 2.173788925198089e+000	 1.022788969384100e+001
 1.997576656840000e+000	 1.997576656840000e+000	 1.123357370212928e+001
 1.976784527549125e+000	 2.018154585641954e+000	 1.124140472805849e+001
 1.955781559040787e+000	 2.038515021584253e+000	 1.122989835887928e+001
 1.934571179676340e+000	 2.058654742952317e+000	 1.119756897223750e+001
 1.913156883042519e+000	 2.078570600386115e+000	 1.114293775285438e+001
 1.891542226035867e+000	 2.098259518519154e+000	 1.106453593970478e+001
 1.869730826898153e+000	 2.117718497556434e+000	 1.095259241181213e+001
 1.847726363205024e+000	 2.136944614789669e+000	 1.079190978372040e+001
 1.825532569810264e+000	 2.155935026048202e+000	 1.061109512780958e+001
 1.803153236748038e+000	 2.174686967084077e+000	 1.041044015710365e+001
 1.780592207095596e+000	 2.193197754889913e+000	 1.019025390143197e+001
 2.015254326370000e+000	 2.015254326370001e+000	 1.116560286394248e+001
 1.994278195934726e+000	 2.036014360736828e+000	 1.116307516542302e+001
 1.973089360448274e+000	 2.056554977528407e+000	 1.114543233410278e+001
 1.951691278611479e+000	 2.076872926519410e+000	 1.111133089174477e+001
 1.930087474927769e+000	 2.096965030479361e+000	 1.105942922591526e+001
 1.908281537770655e+000	 2.116828186826137e+000	 1.098839073945320e+001
 1.886277117401738e+000	 2.136459369217877e+000	 1.089688701863264e+001
 1.864077923941585e+000	 2.155855629081622e+000	 1.076575862238577e+001
 1.841687725295782e+000	 2.175014097077062e+000	 1.059923356751984e+001
 1.819110345038622e+000	 2.193931984493869e+000	 1.041809249506477e+001
 1.796349660256885e+000	 2.212606584581236e+000	 1.022280836608869e+001
 2.032931995899999e+000	 2.032931995899999e+000	 1.110900750713948e+001
 2.011771864320322e+000	 2.053874135831696e+000	 1.110164921959627e+001
 1.990397161855741e+000	 2.074594933472541e+000	 1.108333228975600e+001
 1.968811377546571e+000	 2.095091110086456e+000	 1.105285168793702e+001
 1.947018066812941e+000	 2.115359460572527e+000	 1.100899934106020e+001
 1.925020849505317e+000	 2.135396855132995e+000	 1.095056718864472e+001
 1.902823407905143e+000	 2.155200240879140e+000	 1.087635026514966e+001
 1.880429484677901e+000	 2.174766643373330e+000	 1.078514980035317e+001
 1.857842880780981e+000	 2.194093168105600e+000	 1.064744901383578e+001
 1.835067453328800e+000	 2.213177001903255e+000	 1.049019891159206e+001
 1.812107113417673e+000	 2.232015414272058e+000	 1.032409878194971e+001
 2.050609665430000e+000	 2.050609665430000e+000	 1.106329271540153e+001
 2.029265532705913e+000	 2.071733910926561e+000	 1.105650491582369e+001
 2.007704963263187e+000	 2.092634889416655e+000	 1.104285147782226e+001
 1.985931476481618e+000	 2.113309293653459e+000	 1.102126217490640e+001
 1.963948658698031e+000	 2.133753890665613e+000	 1.099065885840443e+001
 1.941760161239853e+000	 2.153965523439727e+000	 1.094995842418855e+001
 1.919369698408366e+000	 2.173941112540221e+000	 1.089807581336837e+001
 1.896781045413970e+000	 2.193677657664791e+000	 1.083392703869063e+001
 1.873998036265857e+000	 2.213172239133817e+000	 1.075456179712011e+001
 1.851024561618572e+000	 2.232422019312235e+000	 1.062546204160685e+001
 1.827864566577960e+000	 2.251424243962378e+000	 1.049271266833749e+001
 2.068287334960000e+000	 2.068287334960000e+000	 1.102796014553944e+001
 2.046759201091498e+000	 2.089593686021419e+000	 1.102702152905152e+001
 2.025012764670613e+000	 2.110674845360750e+000	 1.102324900886015e+001
 2.003051575416620e+000	 2.131527477220416e+000	 1.101570356429089e+001
 1.980879250583041e+000	 2.152148320758619e+000	 1.100343340251494e+001
 1.958499472974264e+000	 2.172534191746333e+000	 1.098547684017372e+001
 1.935915988911409e+000	 2.192681984201123e+000	 1.096086522656805e+001
 1.913132606149792e+000	 2.212588671956005e+000	 1.092862590018689e+001
 1.890153191750413e+000	 2.232251310161714e+000	 1.088778517023950e+001
 1.866981669907937e+000	 2.251667036720808e+000	 1.082262056586533e+001
 1.843622019737746e+000	 2.270833073652197e+000	 1.072727758235737e+001
 2.085965004490000e+000	 2.085965004490000e+000	 1.100250817270000e+001
 2.064252869477080e+000	 2.107453461116273e+000	 1.101257953097335e+001
 2.042320566078020e+000	 2.128714801304823e+000	 1.102378960375876e+001
 2.020171674351578e+000	 2.149745660787329e+000	 1.103532702470023e+001
 1.997809842467971e+000	 2.170542750851543e+000	 1.104636283256065e+001
 1.975238784708549e+000	 2.191102860052813e+000	 1.105605327188691e+001
 1.952462279414270e+000	 2.211422855861843e+000	 1.106354264281096e+001
 1.929484166885370e+000	 2.231499686246975e+000	 1.106796619179081e+001
 1.906308347234647e+000	 2.251330381189289e+000	 1.106845303496661e+001
 1.882938778196897e+000	 2.270912054128976e+000	 1.106412910570906e+001
 1.859379472897029e+000	 2.290241903341515e+000	 1.102645942238137e+001
 2.103642674020000e+000	 2.103642674020000e+000	 1.098643202825086e+001
 2.081746537862656e+000	 2.125313236211122e+000	 1.101256053974671e+001
 2.059628367485406e+000	 2.146754757248877e+000	 1.104374335800947e+001
 2.037291773286489e+000	 2.167963844354194e+000	 1.107929326335594e+001
 2.014740434352820e+000	 2.188937180944388e+000	 1.111850064422010e+001
 1.991978096442708e+000	 2.209671528359169e+000	 1.116063622097219e+001
 1.969008569916952e+000	 2.230163727522383e+000	 1.120495382642194e+001
 1.945835727620701e+000	 2.250410700537698e+000	 1.125069323483082e+001
 1.922463502718561e+000	 2.270409452216543e+000	 1.129708303111265e+001
 1.898895886485449e+000	 2.290157071536736e+000	 1.134334351178552e+001
 1.875136926055812e+000	 2.309650733030330e+000	 1.138868960915440e+001
 2.121320343550000e+000	 2.121320343550000e+000	 1.097922393077160e+001
 2.099240206248228e+000	 2.143173011305966e+000	 1.102634727222358e+001
 2.076936168892773e+000	 2.164794713192911e+000	 1.108238551776421e+001
 2.054411872221356e+000	 2.186182027921017e+000	 1.114677212864899e+001
 2.031671026237590e+000	 2.207331611037154e+000	 1.121891340149340e+001
 2.008717408176743e+000	 2.228240196665399e+000	 1.129819111933290e+001
 1.985554860419452e+000	 2.248904599182742e+000	 1.138396526689420e+001
 1.962187288355787e+000	 2.269321714828175e+000	 1.147557680191597e+001
 1.938618658202153e+000	 2.289488523243476e+000	 1.157235047419373e+001
 1.914852994773596e+000	 2.309402088944092e+000	 1.167359768389064e+001
 1.890894379214094e+000	 2.329059562718646e+000	 1.177861937055469e+001
 1.733319847608720e+000	 2.134971265812937e+000	 1.051976980608998e+001
 1.711184701123380e+000	 2.152753334364159e+000	 1.041575616693244e+001
 1.688880310352929e+000	 2.170295670476612e+000	 1.033149473493947e+001
 1.666410558419238e+000	 2.187595906649107e+000	 1.026874965389713e+001
 1.643779371421331e+000	 2.204651758917846e+000	 1.022925718346740e+001
 1.620990716199807e+000	 2.221461027795396e+000	 1.021472418377572e+001
 1.598048598078017e+000	 2.238021599138304e+000	 1.022682665617549e+001
 1.574957058582615e+000	 2.254331444942703e+000	 1.026720834184940e+001
 1.551720173146155e+000	 2.270388624067453e+000	 1.033747937975688e+001
 1.528342048794388e+000	 2.286191282884385e+000	 1.043921502528598e+001
 1.504826821820936e+000	 2.301737655855408e+000	 1.057395443081547e+001
 1.749077300771513e+000	 2.154380095505764e+000	 1.033721375837845e+001
 1.726740925682399e+000	 2.172323819225972e+000	 1.029542717665354e+001
 1.704233767723596e+000	 2.190025631121564e+000	 1.026558807831903e+001
 1.681559745318081e+000	 2.207483142168611e+000	 1.024918736025833e+001
 1.658722820256690e+000	 2.224694047640010e+000	 1.024769654277532e+001
 1.635726995442208e+000	 2.241656128052987e+000	 1.026256650081702e+001
 1.612576312610017e+000	 2.258367250044602e+000	 1.029522623880031e+001
 1.589274850027924e+000	 2.274825367174592e+000	 1.034708171037521e+001
 1.565826720177869e+000	 2.291028520655076e+000	 1.041951468433471e+001
 1.542236067422203e+000	 2.306974840006722e+000	 1.051388165775952e+001
 1.518507065657215e+000	 2.322662543641092e+000	 1.063151281736341e+001
 1.764834753933805e+000	 2.173788925198089e+000	 1.022788969384100e+001
 1.742297150240828e+000	 2.191894304087189e+000	 1.023969290355524e+001
 1.719587225093601e+000	 2.209755591765834e+000	 1.025578252989097e+001
 1.696708932216214e+000	 2.227370377687360e+000	 1.027737991235321e+001
 1.673666269091309e+000	 2.244736336361353e+000	 1.030569541053664e+001
 1.650463274683859e+000	 2.261851228309702e+000	 1.034192737937684e+001
 1.627104027141278e+000	 2.278712900949980e+000	 1.038726117558781e+001
 1.603592641472524e+000	 2.295319289405525e+000	 1.044286819629329e+001
 1.579933267208925e+000	 2.311668417241718e+000	 1.050990495076507e+001
 1.556130086049429e+000	 2.327758397128064e+000	 1.058951216608875e+001
 1.532187309492996e+000	 2.343587431425777e+000	 1.068281392748415e+001
 1.780592207095596e+000	 2.193197754889913e+000	 1.019025390143197e+001
 1.757853374798665e+000	 2.211464788947809e+000	 1.024723438180561e+001
 1.734940682462946e+000	 2.229485552409423e+000	 1.030098015931272e+001
 1.711858119113637e+000	 2.247257613205353e+000	 1.035244660546111e+001
 1.688609717925187e+000	 2.264778625081876e+000	 1.040258640032663e+001
 1.665199553924761e+000	 2.282046328565542e+000	 1.045234874930369e+001
 1.641631741671801e+000	 2.299058551854437e+000	 1.050267861877591e+001
 1.617910432916417e+000	 2.315813211635502e+000	 1.055451599139140e+001
 1.594039814239324e+000	 2.332308313827380e+000	 1.060879514156207e+001
 1.570024104676068e+000	 2.348541954248410e+000	 1.066644393174088e+001
 1.545867553328280e+000	 2.364512319209462e+000	 1.072838312996722e+001
 1.796349660256885e+000	 2.212606584581236e+000	 1.022280836608869e+001
 1.773409599355911e+000	 2.231035273807834e+000	 1.031677051789670e+001
 1.750294139831630e+000	 2.249215513052330e+000	 1.040011321928259e+001
 1.727007306010348e+000	 2.267144848722589e+000	 1.047352936643276e+001
 1.703553166758326e+000	 2.284820913801577e+000	 1.053771734697511e+001
 1.679935833164913e+000	 2.302241428820505e+000	 1.059338049577457e+001
 1.656159456201584e+000	 2.319404202757974e+000	 1.064122655753022e+001
 1.632228224359600e+000	 2.336307133864525e+000	 1.068196715653865e+001
 1.608146361269064e+000	 2.352948210412063e+000	 1.071631727395031e+001
 1.583918123302120e+000	 2.369325511367762e+000	 1.074499473280918e+001
 1.559547797163067e+000	 2.385437206992145e+000	 1.076871969112980e+001
 1.812107113417673e+000	 2.232015414272058e+000	 1.032409878194971e+001
 1.788965823912565e+000	 2.250605758667261e+000	 1.044705644402171e+001
 1.765647597199653e+000	 2.268945473694558e+000	 1.055214283323371e+001
 1.742156492906349e+000	 2.287032084239069e+000	 1.063979176970897e+001
 1.718496615590724e+000	 2.304863202520457e+000	 1.071045064477276e+001
 1.694672112404316e+000	 2.322436529074593e+000	 1.076458011341094e+001
 1.670687170730629e+000	 2.339749853660591e+000	 1.080265378155593e+001
 1.646546015802076e+000	 2.356801056092591e+000	 1.082515788824723e+001
 1.622252908298147e+000	 2.373588106995765e+000	 1.083259098270354e+001
 1.597812141927584e+000	 2.390109068486118e+000	 1.082546359633373e+001
 1.573228040997356e+000	 2.406362094773829e+000	 1.080429790970680e+001
 1.827864566577960e+000	 2.251424243962378e+000	 1.049271266833749e+001
 1.804522048468628e+000	 2.270176243526093e+000	 1.063688195662240e+001
 1.781001054567015e+000	 2.288675434336103e+000	 1.075605775090579e+001
 1.757305679801640e+000	 2.306919319754793e+000	 1.085041810423478e+001
 1.733440064422383e+000	 2.324905491238517e+000	 1.092016261990815e+001
 1.709408391642969e+000	 2.342631629327805e+000	 1.096551237828561e+001
 1.685214885258934e+000	 2.360095504562286e+000	 1.098670984659169e+001
 1.660863807243843e+000	 2.377294978319702e+000	 1.098401877144635e+001
 1.636359455326572e+000	 2.394228003578486e+000	 1.095772405387102e+001
 1.611706160552460e+000	 2.410892625603480e+000	 1.090813160653639e+001
 1.586908284831148e+000	 2.427286982554514e+000	 1.083556819303979e+001
 1.843622019737746e+000	 2.270833073652197e+000	 1.072727758235737e+001
 1.820078273024101e+000	 2.289746728384328e+000	 1.088507003501094e+001
 1.796354511933716e+000	 2.308405394976967e+000	 1.101087316773371e+001
 1.772454866696219e+000	 2.326806555269760e+000	 1.110461248822434e+001
 1.748383513253301e+000	 2.344947779955755e+000	 1.116624293508754e+001
 1.724144670880873e+000	 2.362826729580141e+000	 1.119574903674945e+001
 1.699742599786501e+000	 2.380441155463061e+000	 1.119314504167315e+001
 1.675181598684902e+000	 2.397788900545858e+000	 1.115847501929352e+001
 1.650466002354339e+000	 2.414867900160228e+000	 1.109181293113319e+001
 1.625600179176749e+000	 2.431676182719846e+000	 1.099326267160799e+001
 1.600588528664443e+000	 2.448211870334198e+000	 1.086295807807684e+001
 1.859379472897029e+000	 2.290241903341515e+000	 1.102645942238137e+001
 1.835634497578981e+000	 2.309317213241967e+000	 1.119047543531610e+001
 1.811707969299756e+000	 2.328135355617151e+000	 1.131562960426721e+001
 1.787604053590088e+000	 2.346693790783972e+000	 1.140159802893755e+001
 1.763326962083479e+000	 2.364990068672173e+000	 1.144809402442811e+001
 1.738880950118027e+000	 2.383021829831602e+000	 1.145486851008075e+001
 1.714270314313329e+000	 2.400786806362916e+000	 1.142171035806127e+001
 1.689499390125252e+000	 2.418282822771059e+000	 1.134844670079198e+001
 1.664572549381448e+000	 2.435507796740990e+000	 1.123494319641061e+001
 1.639494197800451e+000	 2.452459739835218e+000	 1.108110425150615e+001
 1.614268772497240e+000	 2.469136758112883e+000	 1.088687320045680e+001
 1.875136926055812e+000	 2.309650733030330e+000	 1.138868960915440e+001
 1.851190722133271e+000	 2.328887698099010e+000	 1.155198335532277e+001
 1.827061426665134e+000	 2.347865316256653e+000	 1.166939184209046e+001
 1.802753240483247e+000	 2.366581026297427e+000	 1.174061602482106e+001
 1.778270410912917e+000	 2.385032357387770e+000	 1.176513055684419e+001
 1.753617229354432e+000	 2.403216930082187e+000	 1.174245561402596e+001
 1.728798028839418e+000	 2.421132457261850e+000	 1.167215745973670e+001
 1.703817181564894e+000	 2.438776744995305e+000	 1.155384895693171e+001
 1.678679096407899e+000	 2.456147693320771e+000	 1.138719002624048e+001
 1.653388216423565e+000	 2.473243296949593e+000	 1.117188804905766e+001
 1.627949016329540e+000	 2.490061645890567e+000	 1.090769821473260e+001
 1.890894379214094e+000	 2.329059562718646e+000	 1.177861937055469e+001
 1.866746946686970e+000	 2.348458182955457e+000	 1.196850816606990e+001
 1.842414884029853e+000	 2.367595276895474e+000	 1.207124791294565e+001
 1.817902427375696e+000	 2.386468261810128e+000	 1.212092520754211e+001
 1.793213859741616e+000	 2.405074646102547e+000	 1.211677892626386e+001
 1.768353508590088e+000	 2.423412030331897e+000	 1.205810129236371e+001
 1.743325743364769e+000	 2.441478108159864e+000	 1.194423865537007e+001
 1.718134973003829e+000	 2.459270667218596e+000	 1.177459220602320e+001
 1.692785643433693e+000	 2.476787589899573e+000	 1.154861862533411e+001
 1.667282235046092e+000	 2.494026854062976e+000	 1.126583066650559e+001
 1.641629260161343e+000	 2.510986533667252e+000	 1.115790165493465e+001
 1.504826821820936e+000	 2.301737655855408e+000	 1.057395443081547e+001
 1.481178655451783e+000	 2.317026066036402e+000	 1.058551190191207e+001
 1.457401737502926e+000	 2.332054925507497e+000	 1.058756899069406e+001
 1.433500278033387e+000	 2.346822735730042e+000	 1.058032200358033e+001
 1.409478506995772e+000	 2.361328087830619e+000	 1.056398043215253e+001
 1.385340671887672e+000	 2.375569662812049e+000	 1.053876688901361e+001
 1.361091035406278e+000	 2.389546231691873e+000	 1.050491703032619e+001
 1.336733873108761e+000	 2.403256655568767e+000	 1.046267946475531e+001
 1.312273471080952e+000	 2.416699885617484e+000	 1.041231564856811e+001
 1.287714123616817e+000	 2.429874963012997e+000	 1.035409976667275e+001
 1.263060130911157e+000	 2.442781018784593e+000	 1.028831859941127e+001
 1.518507065657215e+000	 2.322662543641092e+000	 1.063151281736341e+001
 1.494643915956549e+000	 2.338089939369133e+000	 1.058330076907810e+001
 1.470650844207407e+000	 2.353255424835356e+000	 1.052595913004668e+001
 1.446532098742074e+000	 2.368157487878027e+000	 1.045976293189106e+001
 1.422291947967267e+000	 2.382794706815789e+000	 1.038499913937776e+001
 1.397934677994196e+000	 2.397165750660582e+000	 1.030196652831484e+001
 1.373464590271840e+000	 2.411269379257375e+000	 1.021097555254336e+001
 1.348885999226073e+000	 2.425104443351199e+000	 1.011234819979558e+001
 1.324203229907142e+000	 2.438669884582033e+000	 1.000641783621480e+001
 1.299420615648048e+000	 2.451964735408257e+000	 9.893529039355771e+000
 1.274542495736273e+000	 2.464988118959423e+000	 9.774037419510574e+000
 1.532187309492996e+000	 2.343587431425777e+000	 1.068281392748415e+001
 1.508109176460914e+000	 2.359153812700871e+000	 1.057656052258107e+001
 1.483899950911571e+000	 2.374455924162234e+000	 1.046152870491520e+001
 1.459563919450516e+000	 2.389492240025056e+000	 1.033807132864652e+001
 1.435105388938585e+000	 2.404261325800040e+000	 1.020655194298720e+001
 1.410528684100595e+000	 2.418761838508240e+000	 1.006734461301092e+001
 1.385838145137323e+000	 2.432992526822060e+000	 9.920833731950165e+000
 1.361038125343342e+000	 2.446952231132881e+000	 9.767413824800045e+000
 1.336132988733313e+000	 2.460639883545905e+000	 9.607489343064374e+000
 1.311127107679275e+000	 2.474054507802925e+000	 9.441474450497424e+000
 1.286024860561388e+000	 2.487195219133758e+000	 9.269792799717017e+000
 1.545867553328280e+000	 2.364512319209462e+000	 1.072838312996722e+001
 1.521574436964876e+000	 2.380217686031613e+000	 1.056576700197111e+001
 1.497149057615418e+000	 2.395656423488133e+000	 1.039470461800680e+001
 1.472595740158718e+000	 2.410826992171133e+000	 1.021562577171035e+001
 1.447918829909724e+000	 2.425727944783372e+000	 1.002896972707466e+001
 1.423122690206872e+000	 2.440357926355025e+000	 9.835184983034056e+000
 1.398211700002727e+000	 2.454715674385927e+000	 9.634729031909908e+000
 1.373190251460564e+000	 2.468800018913809e+000	 9.428068111580181e+000
 1.348062747559464e+000	 2.482609882509102e+000	 9.215676951248202e+000
 1.322833599710497e+000	 2.496144280197001e+000	 8.998038510698830e+000
 1.297507225386504e+000	 2.509402319307596e+000	 9.037909883722854e+000
 1.559547797163067e+000	 2.385437206992145e+000	 1.076871969112980e+001
 1.535039697468435e+000	 2.401281559361360e+000	 1.055137178252637e+001
 1.510398164318946e+000	 2.416856922813052e+000	 1.032589132844679e+001
 1.485627560866675e+000	 2.432161744316253e+000	 1.009278419774426e+001
 1.460732270880685e+000	 2.447194563765786e+000	 9.852564517818166e+000
 1.435716696313025e+000	 2.461954014200937e+000	 9.605754383826376e+000
 1.410585254868052e+000	 2.476438821948977e+000	 9.352883564110746e+000
 1.385342377577744e+000	 2.490647806693986e+000	 9.094489201743668e+000
 1.359992506385595e+000	 2.504579881471621e+000	 8.955101094809189e+000
 1.334540091741714e+000	 2.518234052590487e+000	 9.062541954148914e+000
 1.308989590211620e+000	 2.531609419480937e+000	 9.165719843994475e+000
 1.573228040997356e+000	 2.406362094773829e+000	 1.080429790970680e+001
 1.548504957971592e+000	 2.422345432690113e+000	 1.053380323022151e+001
 1.523647271022157e+000	 2.438057422136991e+000	 1.025547182758642e+001
 1.498659381574390e+000	 2.453496496460421e+000	 9.969884799651382e+000
 1.473545711851468e+000	 2.468661182747281e+000	 9.677630303389556e+000
 1.448310702419053e+000	 2.483550102045977e+000	 9.379303209578685e+000
 1.422958809733299e+000	 2.498161969511209e+000	 9.075504756029730e+000
 1.397494503694878e+000	 2.512495594473410e+000	 9.097407270041856e+000
 1.371922265211707e+000	 2.526549880433465e+000	 9.165659743922964e+000
 1.346246583772926e+000	 2.540323824983382e+000	 9.231213220723049e+000
 1.320471955036735e+000	 2.553816519653783e+000	 9.292983701926909e+000
 1.586908284831148e+000	 2.427286982554514e+000	 1.083556819303979e+001
 1.561970218474347e+000	 2.443409306017870e+000	 1.051346750212863e+001
 1.536896377725050e+000	 2.459257921459952e+000	 1.018380856433794e+001
 1.511691202281862e+000	 2.474831248603634e+000	 9.847246877600568e+000
 1.486359152822073e+000	 2.490127801727857e+000	 9.504443811454523e+000
 1.460904708524959e+000	 2.505146189890143e+000	 9.286489272330659e+000
 1.435332364598465e+000	 2.519885117072623e+000	 9.315370294826241e+000
 1.409646629811969e+000	 2.534343382252084e+000	 9.344283319828026e+000
 1.383852024037798e+000	 2.548519879394630e+000	 9.372053634991962e+000
 1.357953075804133e+000	 2.562413597375685e+000	 9.397555266366414e+000
 1.331954319861851e+000	 2.576023619826133e+000	 9.419713531315194e+000
 1.600588528664443e+000	 2.448211870334198e+000	 1.086295807807684e+001
 1.575435478976699e+000	 2.464473179344633e+000	 1.049074949551576e+001
 1.550145484427626e+000	 2.480458420781932e+000	 1.011124432305678e+001
 1.524723022989091e+000	 2.496166000745893e+000	 9.725171646408052e+000
 1.499172593792499e+000	 2.511594420707515e+000	 9.617978206835605e+000
 1.473498714630741e+000	 2.526742277733436e+000	 9.605835593938950e+000
 1.447705919463553e+000	 2.541608264633220e+000	 9.595317022780352e+000
 1.421798755929015e+000	 2.556191170030004e+000	 9.585208575174921e+000
 1.395781782863870e+000	 2.570489878355120e+000	 9.574342517515591e+000
 1.369659567835335e+000	 2.584503369767397e+000	 9.561600043343837e+000
 1.343436684686967e+000	 2.598230719997987e+000	 9.545913870041233e+000
 1.614268772497240e+000	 2.469136758112883e+000	 1.088687320045680e+001
 1.588900739478649e+000	 2.485537052670400e+000	 1.046601374868605e+001
 1.563394591129885e+000	 2.501658920102933e+000	 1.007648660119017e+001
 1.537754843696077e+000	 2.517500752887198e+000	 1.001876759711537e+001
 1.511986034762747e+000	 2.533061039686253e+000	 9.965557863882605e+000
 1.486092720736399e+000	 2.548338365575855e+000	 9.915564431366471e+000
 1.460079474328563e+000	 2.563331412193000e+000	 9.867534703785406e+000
 1.433950882046016e+000	 2.578038957807174e+000	 9.820259528776523e+000
 1.407711541689923e+000	 2.592459877314933e+000	 9.772576130450524e+000
 1.381366059866532e+000	 2.606593142158518e+000	 9.723370900181134e+000
 1.354919049512082e+000	 2.620437820169344e+000	 9.671582039392074e+000
 1.627949016329540e+000	 2.490061645890567e+000	 1.090769821473260e+001
 1.602365999980196e+000	 2.506600925995173e+000	 1.058592833074109e+001
 1.576643697831826e+000	 2.522859419422954e+000	 1.048550212911135e+001
 1.550786664402821e+000	 2.538835505027548e+000	 1.039121655272905e+001
 1.524799475732817e+000	 2.554527658664074e+000	 1.030174375305137e+001
 1.498686726841934e+000	 2.569934453417402e+000	 1.021579313422684e+001
 1.472453029193492e+000	 2.585054559751961e+000	 1.013211460797999e+001
 1.446103008162973e+000	 2.599886745583591e+000	 1.004950171741157e+001
 1.419641300515955e+000	 2.614429876274071e+000	 9.966794622821734e+000
 1.393072551897724e+000	 2.628682914549047e+000	 9.882882943166669e+000
 1.366401414337198e+000	 2.642644920340206e+000	 9.796708447278256e+000
 1.641629260161343e+000	 2.510986533667252e+000	 1.115790165493465e+001
 1.615831260481341e+000	 2.527664799318952e+000	 1.101477714433283e+001
 1.589892804533449e+000	 2.544059918741996e+000	 1.087943168600877e+001
 1.563818485109322e+000	 2.560170257166945e+000	 1.075050359668862e+001
 1.537612916702709e+000	 2.575994277640975e+000	 1.062666512361169e+001
 1.511280732947345e+000	 2.591530541258076e+000	 1.050662588415645e+001
 1.484826584058343e+000	 2.606777707310107e+000	 1.038913618002504e+001
 1.458255134279887e+000	 2.621734533359257e+000	 1.027299017844002e+001
 1.431571059341969e+000	 2.636399875232532e+000	 1.015702895330299e+001
 1.404779043928912e+000	 2.650772686938987e+000	 1.004014337977793e+001
 1.377883779162314e+000	 2.664852020510572e+000	 9.921276876291120e+000
 1.263060130911157e+000	 2.442781018784593e+000	 1.028831859941127e+001
 1.238315796768149e+000	 2.455417273601034e+000	 1.029556492803090e+001
 1.213485426327356e+000	 2.467783037487111e+000	 1.022694952248357e+001
 1.188573323810187e+000	 2.479877709472937e+000	 1.010888255122441e+001
 1.163583790289265e+000	 2.491700777177656e+000	 9.945951425068362e+000
 1.138521121482226e+000	 2.503251816328117e+000	 9.833866478838484e+000
 1.113389605572322e+000	 2.514530490214019e+000	 9.902704824036848e+000
 1.088193521057850e+000	 2.525536549080854e+000	 9.915730799452540e+000
 1.062937134632405e+000	 2.536269829462127e+000	 9.872536104211667e+000
 1.037624699097835e+000	 2.546730253452309e+000	 9.772806301514404e+000
 1.012260451311729e+000	 2.556917827922117e+000	 9.616321599285680e+000
 1.274542495736273e+000	 2.464988118959423e+000	 9.774037419510574e+000
 1.249573213101380e+000	 2.477739248819489e+000	 9.723426753298833e+000
 1.224517112020461e+000	 2.490217428740764e+000	 9.576878206269333e+000
 1.199378535844211e+000	 2.502422052289999e+000	 9.461100987138201e+000
 1.174161824745915e+000	 2.514352602428329e+000	 9.581180500072156e+000
 1.148871313495187e+000	 2.526008651025577e+000	 9.655800030707232e+000
 1.123511329258762e+000	 2.537389858310436e+000	 9.684423458784270e+000
 1.098086189430378e+000	 2.548495972257904e+000	 9.666598045147454e+000
 1.072600199491755e+000	 2.559326827915428e+000	 9.601955665185244e+000
 1.047057650906575e+000	 2.569882346669242e+000	 9.490213876545512e+000
 1.021462819049315e+000	 2.580162535452528e+000	 9.331176819559312e+000
 1.286024860561388e+000	 2.487195219133758e+000	 9.269792799717017e+000
 1.260830629434610e+000	 2.500061224037538e+000	 9.153232736655090e+000
 1.235548797713566e+000	 2.512651819994079e+000	 9.314430618459561e+000
 1.210183747878236e+000	 2.524966395106772e+000	 9.415989054239248e+000
 1.184739859202564e+000	 2.537004427678743e+000	 9.481724358106416e+000
 1.159221505508147e+000	 2.548765485722786e+000	 9.511081374893358e+000
 1.133633052945202e+000	 2.560249226406592e+000	 9.503578575235917e+000
 1.107978857802907e+000	 2.571455395434662e+000	 9.458809549755303e+000
 1.082263264351105e+000	 2.582383826368382e+000	 9.376444347879289e+000
 1.056490602715315e+000	 2.593034439885762e+000	 9.256230658881021e+000
 1.030665186786900e+000	 2.603407242982436e+000	 9.097994833193628e+000
 1.297507225386504e+000	 2.509402319307596e+000	 9.037909883722854e+000
 1.272088045767840e+000	 2.522383199255179e+000	 9.222879496974555e+000
 1.246580483406671e+000	 2.535086211247057e+000	 9.351939492952722e+000
 1.220988959912261e+000	 2.547510737923258e+000	 9.394653270678687e+000
 1.195317893659215e+000	 2.559656252928899e+000	 9.410393181900378e+000
 1.169571697521108e+000	 2.571522320419745e+000	 9.398664616821092e+000
 1.143754776631642e+000	 2.583108594502486e+000	 9.359038365244640e+000
 1.117871526175436e+000	 2.594414818611126e+000	 9.291152209578319e+000
 1.091926329210455e+000	 2.605440824820994e+000	 9.194712370592141e+000
 1.065923554524055e+000	 2.616186533101865e+000	 9.069494803140955e+000
 1.039867554524486e+000	 2.626651950511838e+000	 8.915346339530622e+000
 1.308989590211620e+000	 2.531609419480937e+000	 9.165719843994475e+000
 1.283345462101071e+000	 2.544705174472416e+000	 9.296732909129235e+000
 1.257612169099776e+000	 2.557520602499699e+000	 9.387461522150678e+000
 1.231794171946285e+000	 2.570055080739456e+000	 9.396237955173623e+000
 1.205895928115865e+000	 2.582308078178795e+000	 9.366240213989887e+000
 1.179921889534068e+000	 2.594279155116453e+000	 9.317516372593049e+000
 1.153876500318082e+000	 2.605967962598117e+000	 9.249687272448687e+000
 1.127764194547964e+000	 2.617374241787297e+000	 9.162432751261019e+000
 1.101589394069805e+000	 2.628497823273261e+000	 9.055493197265685e+000
 1.075356506332795e+000	 2.639338626317554e+000	 8.928670961035371e+000
 1.049069922262071e+000	 2.649896658040735e+000	 8.781831622101240e+000
 1.320471955036735e+000	 2.553816519653783e+000	 9.292983701926909e+000
 1.294602878434302e+000	 2.567027149689244e+000	 9.374705718101561e+000
 1.268643854792880e+000	 2.579954993752005e+000	 9.423855100421116e+000
 1.242599383980310e+000	 2.592599423555365e+000	 9.419891773040179e+000
 1.216473962572515e+000	 2.604959903428432e+000	 9.348326930490959e+000
 1.190272081547028e+000	 2.617035989812912e+000	 9.266615225047678e+000
 1.163998224004522e+000	 2.628827330693487e+000	 9.174425285672360e+000
 1.137656862920493e+000	 2.640333664963175e+000	 9.071476869601368e+000
 1.111252458929155e+000	 2.651554821725185e+000	 8.957542526805124e+000
 1.084789458141534e+000	 2.662490719532829e+000	 8.832449129317082e+000
 1.058272289999657e+000	 2.673141365569126e+000	 8.696079262356232e+000
 1.331954319861851e+000	 2.576023619826133e+000	 9.419713531315194e+000
 1.305860294767532e+000	 2.589349124905667e+000	 9.456706951519090e+000
 1.279675540485985e+000	 2.602389385003972e+000	 9.468667465721175e+000
 1.253404596014334e+000	 2.615143766370987e+000	 9.454533539335232e+000
 1.227051997029165e+000	 2.627611728677810e+000	 9.355722686204016e+000
 1.200622273559989e+000	 2.639792824509118e+000	 9.244951207951718e+000
 1.174119947690962e+000	 2.651686698788595e+000	 9.132167268874895e+000
 1.147549531293022e+000	 2.663293088138761e+000	 9.017128409958024e+000
 1.120915523788505e+000	 2.674611820176764e+000	 8.899637334675438e+000
 1.094222409950274e+000	 2.685642812747688e+000	 8.779543557322835e+000
 1.067474657737242e+000	 2.696386073097013e+000	 8.656744919928251e+000
 1.343436684686967e+000	 2.598230719997987e+000	 9.545913870041233e+000
 1.317117711100763e+000	 2.611671100121684e+000	 9.542642078515833e+000
 1.290707226179090e+000	 2.624823776255602e+000	 9.521708686117441e+000
 1.264209808048359e+000	 2.637688109186322e+000	 9.482115311879172e+000
 1.237630031485815e+000	 2.650263553926928e+000	 9.387504377918022e+000
 1.210972465572949e+000	 2.662549659205076e+000	 9.251525316644242e+000
 1.184241671377402e+000	 2.674546066883441e+000	 9.121842325460900e+000
 1.157442199665550e+000	 2.686252511314052e+000	 8.998248592585306e+000
 1.130578588647855e+000	 2.697668818627999e+000	 8.880574963646637e+000
 1.103655361759014e+000	 2.708794905962132e+000	 8.768691710538128e+000
 1.076677025474828e+000	 2.719630780624395e+000	 8.662510175444561e+000
 1.354919049512082e+000	 2.620437820169344e+000	 9.671582039392074e+000
 1.328375127433993e+000	 2.633993075337294e+000	 9.632413160515874e+000
 1.301738911872195e+000	 2.647258167506897e+000	 9.582789098776907e+000
 1.275015020082383e+000	 2.660232452001367e+000	 9.521772310284382e+000
 1.248208065942465e+000	 2.672915379175787e+000	 9.442756124834682e+000
 1.221322657585910e+000	 2.685306493900782e+000	 9.285349043563320e+000
 1.194363395063843e+000	 2.697405434978026e+000	 9.142393194914035e+000
 1.167334868038079e+000	 2.709211934489050e+000	 9.013715276408815e+000
 1.140241653507206e+000	 2.720725817078891e+000	 8.899172260772403e+000
 1.113088313567753e+000	 2.731946999176162e+000	 8.798653286862068e+000
 1.085879393212413e+000	 2.742875488151270e+000	 8.712081432179815e+000
 1.366401414337198e+000	 2.642644920340206e+000	 9.796708447278256e+000
 1.339632543767224e+000	 2.656315050552498e+000	 9.725918994414535e+000
 1.312770597565300e+000	 2.669692558757853e+000	 9.651719298660300e+000
 1.285820232116408e+000	 2.682776794816125e+000	 9.573230350329736e+000
 1.258786100399115e+000	 2.695567204424388e+000	 9.489634349748334e+000
 1.231672849598870e+000	 2.708063328596238e+000	 9.345443937191353e+000
 1.204485118750283e+000	 2.720264803072348e+000	 9.192775679852581e+000
 1.177227536410608e+000	 2.732171357663756e+000	 9.062422259921551e+000
 1.149904718366555e+000	 2.743782815529437e+000	 8.954264757882340e+000
 1.122521265376493e+000	 2.755099092389776e+000	 8.868209282472343e+000
 1.095081760949999e+000	 2.766120195677642e+000	 8.804188873087652e+000
 1.377883779162314e+000	 2.664852020510572e+000	 9.921276876291120e+000
 1.350889960100455e+000	 2.678637025767296e+000	 9.823055248600209e+000
 1.323802283258406e+000	 2.692126950008474e+000	 9.728310127780638e+000
 1.296625444150432e+000	 2.705321137630596e+000	 9.636218748193913e+000
 1.269364134855766e+000	 2.718219029672730e+000	 9.546013375738180e+000
 1.242023041611831e+000	 2.730820163291444e+000	 9.430841183053314e+000
 1.214606842436724e+000	 2.743124171166410e+000	 9.271958101732043e+000
 1.187120204783137e+000	 2.755130780838170e+000	 9.143278617035366e+000
 1.159567783225906e+000	 2.766839813979641e+000	 9.044705893049652e+000
 1.131954217185234e+000	 2.778251185602977e+000	 8.976161104396955e+000
 1.104284128687585e+000	 2.789364903203509e+000	 8.937585469980785e+000
 1.012260451311729e+000	 2.556917827922117e+000	 9.616321599285680e+000
 9.868486101712383e-001	 2.566832643677576e+000	 9.410965150129423e+000
 9.613933746349105e-001	 2.576474874564940e+000	 9.219460009589392e+000
 9.358989217837993e-001	 2.585844776523053e+000	 9.042349686660321e+000
 9.103694049237148e-001	 2.594942686584524e+000	 8.880203766009741e+000
 8.848089517299635e-001	 2.603769021827962e+000	 8.733618383866112e+000
 8.592216624358849e-001	 2.612324278282999e+000	 8.603216610183603e+000
 8.336116080664260e-001	 2.620609029790004e+000	 8.489648736707634e+000
 8.079828287179296e-001	 2.628623926816410e+000	 8.393592470890217e+000
 7.823393318852077e-001	 2.636369695231585e+000	 8.315753035922876e+000
 7.566850908368894e-001	 2.643847135042238e+000	 8.256863177464597e+000
 1.021462819049315e+000	 2.580162535452528e+000	 9.331176819559312e+000
 9.958199611707879e-001	 2.590167485896778e+000	 9.155146373073261e+000
 9.701333144019444e-001	 2.599897373428621e+000	 8.990423668891951e+000
 9.444070937973018e-001	 2.609352456313620e+000	 8.837472903791626e+000
 9.186454904199952e-001	 2.618533074648314e+000	 8.696788546831396e+000
 8.928526694696530e-001	 2.627439649302940e+000	 8.568895871833012e+000
 8.670327684544615e-001	 2.636072680816487e+000	 8.454351388500761e+000
 8.411898954086866e-001	 2.644432748246060e+000	 8.353743171824593e+000
 8.153281271568190e-001	 2.652520507972429e+000	 8.267691089753743e+000
 7.894515076254415e-001	 2.660336692463774e+000	 8.196846929463593e+000
 7.635640462038073e-001	 2.667882108999597e+000	 8.141894422866102e+000
 1.030665186786900e+000	 2.603407242982436e+000	 9.097994833193628e+000
 1.004791312170337e+000	 2.613502328115380e+000	 8.949278386150731e+000
 9.788732541689785e-001	 2.623319872291618e+000	 8.809360505962676e+000
 9.529152658108042e-001	 2.632860136103427e+000	 8.678625567530217e+000
 9.269215759162761e-001	 2.642123462711282e+000	 8.557492413530053e+000
 9.008963872093423e-001	 2.651110276777040e+000	 8.446414944879100e+000
 8.748438744730380e-001	 2.659821083349055e+000	 8.345882602150970e+000
 8.487681827509470e-001	 2.668256466701160e+000	 8.256420737606087e+000
 8.226734255957083e-001	 2.676417089127467e+000	 8.178590877858001e+000
 7.965636833656755e-001	 2.684303689694970e+000	 8.112990877552543e+000
 7.704430015707247e-001	 2.691917082955955e+000	 8.060254964781956e+000
 1.039867554524486e+000	 2.626651950511838e+000	 8.915346339530622e+000
 1.013762663169887e+000	 2.636837170333383e+000	 8.792006489231000e+000
 9.876131939360127e-001	 2.646742371153929e+000	 8.674989065308706e+000
 9.614234378243066e-001	 2.656367815892474e+000	 8.564598076500724e+000
 9.351976614125565e-001	 2.665713850773424e+000	 8.461176195013820e+000
 9.089401049490314e-001	 2.674780904250262e+000	 8.365105406385689e+000
 8.826549804916150e-001	 2.683569485880700e+000	 8.276807542558229e+000
 8.563464700932076e-001	 2.692080185155304e+000	 8.196744697839351e+000
 8.300187240345979e-001	 2.700313670281525e+000	 8.125419527810353e+000
 8.036758591059092e-001	 2.708270686925169e+000	 8.063375431607856e+000
 7.773219569376425e-001	 2.715952056911313e+000	 8.011196618371889e+000
 1.049069922262071e+000	 2.649896658040735e+000	 8.781831622101240e+000
 1.022734014169437e+000	 2.660172012550785e+000	 8.682003665717788e+000
 9.963531337030465e-001	 2.670164870015556e+000	 8.586053717876817e+000
 9.699316098378089e-001	 2.679875495680763e+000	 8.494204842783685e+000
 9.434737469088371e-001	 2.689304238834746e+000	 8.406722965293332e+000
 9.169838226887206e-001	 2.698451531722607e+000	 8.323917581601132e+000
 8.904660865101917e-001	 2.707317888411425e+000	 8.246142345350465e+000
 8.639247574354684e-001	 2.715903903608491e+000	 8.173795528847531e+000
 8.373640224734872e-001	 2.724210251434602e+000	 8.107320359471734e+000
 8.107880348461430e-001	 2.732237684154373e+000	 8.047205231762668e+000
 7.842009123045602e-001	 2.739987030865671e+000	 7.993983796042579e+000
 1.058272289999657e+000	 2.673141365569126e+000	 8.696079262356232e+000
 1.031705365168986e+000	 2.683506854767587e+000	 8.617969378917449e+000
 1.005093073470081e+000	 2.693587368876500e+000	 8.541323538164800e+000
 9.784397818513116e-001	 2.703383175468292e+000	 8.466283247852285e+000
 9.517498324051178e-001	 2.712894626895242e+000	 8.393037076303660e+000
 9.250275404284100e-001	 2.722122159194075e+000	 8.321821425385762e+000
 8.982771925287684e-001	 2.731066290941226e+000	 8.252921171046378e+000
 8.715030447777293e-001	 2.739727622060724e+000	 8.186670171118516e+000
 8.447093209123765e-001	 2.748106832586698e+000	 8.123451640510714e+000
 8.179002105863769e-001	 2.756204681382582e+000	 8.063698394312288e+000
 7.910798676714780e-001	 2.764022004819030e+000	 8.007892959741326e+000
 1.067474657737242e+000	 2.696386073097013e+000	 8.656744919928251e+000
 1.040676716168536e+000	 2.706841696983788e+000	 8.598628430663799e+000
 1.013833013237114e+000	 2.717009867736757e+000	 8.539591239413213e+000
 9.869479538648138e-001	 2.726890855255063e+000	 8.479692652512266e+000
 9.600259179013986e-001	 2.736485014954916e+000	 8.419043240752167e+000
 9.330712581680992e-001	 2.745792786664665e+000	 8.357805676107937e+000
 9.060882985473451e-001	 2.754814693470107e+000	 8.296195428120395e+000
 8.790813321199896e-001	 2.763551340511998e+000	 8.234481319642867e+000
 8.520546193512658e-001	 2.772003413737813e+000	 8.172985942101455e+000
 8.250123863266107e-001	 2.780171678609796e+000	 8.112085930845131e+000
 7.979588230383954e-001	 2.788056978771388e+000	 8.052212101579302e+000
 1.076677025474828e+000	 2.719630780624395e+000	 8.662510175444561e+000
 1.049648067168086e+000	 2.730176539199391e+000	 8.622729878475111e+000
 1.022572953004148e+000	 2.740432366596331e+000	 8.579672163402634e+000
 9.954561258783166e-001	 2.750398535041075e+000	 8.533313457614197e+000
 9.683020033976790e-001	 2.760075403013765e+000	 8.483685662000132e+000
 9.411149759077881e-001	 2.769463414134377e+000	 8.430877052930020e+000
 9.138994045659219e-001	 2.778563095998065e+000	 8.375033035910628e+000
 8.866596194622503e-001	 2.787375058962318e+000	 8.316356750644189e+000
 8.593999177901553e-001	 2.795899994887950e+000	 8.255109527662809e+000
 8.321245620668445e-001	 2.804138675836015e+000	 8.191611197161812e+000
 8.048377784053131e-001	 2.812091952722746e+000	 8.126240251089465e+000
 1.085879393212413e+000	 2.742875488151270e+000	 8.712081432179815e+000
 1.058619418167635e+000	 2.753511381414393e+000	 8.689046007770848e+000
 1.031312892771182e+000	 2.763854865455219e+000	 8.660403321617306e+000
 1.003964297891819e+000	 2.773906214826328e+000	 8.626046212526241e+000
 9.765780888939597e-001	 2.783665791071792e+000	 8.585927208187551e+000
 9.491586936474775e-001	 2.793134041603211e+000	 8.540059493910240e+000
 9.217105105844986e-001	 2.802311498525102e+000	 8.488517725005977e+000
 8.942379068045111e-001	 2.811198777411681e+000	 8.431438682544039e+000
 8.667452162290448e-001	 2.819796576037104e+000	 8.369021772678590e+000
 8.392367378070782e-001	 2.828105673061239e+000	 8.301529370215341e+000
 8.117167337722309e-001	 2.836126926673104e+000	 8.229287007539249e+000
 1.095081760949999e+000	 2.766120195677642e+000	 8.804188873087652e+000
 1.067590769167185e+000	 2.776846223628796e+000	 8.796371355909407e+000
 1.040052832538216e+000	 2.787277364313423e+000	 8.780642484753290e+000
 1.012472469905321e+000	 2.797413894610821e+000	 8.756810768557667e+000
 9.848541743902404e-001	 2.807256179128995e+000	 8.724748627998782e+000
 9.572024113871669e-001	 2.816804669071168e+000	 8.684393432519789e+000
 9.295216166030752e-001	 2.826059901051216e+000	 8.635748372907861e+000
 9.018161941467714e-001	 2.835022495860088e+000	 8.578883169146874e+000
 8.740905146679339e-001	 2.843693157185277e+000	 8.513934613770219e+000
 8.463489135473121e-001	 2.852072670285467e+000	 8.441106951424027e+000
 8.185956891391485e-001	 2.860161900622463e+000	 8.360672095824022e+000
 1.104284128687585e+000	 2.789364903203509e+000	 8.937585469980785e+000
 1.076562120166735e+000	 2.800181065842599e+000	 8.943521785024036e+000
 1.048792772305250e+000	 2.810699863170943e+000	 8.939267317751400e+000
 1.020980641918824e+000	 2.820921574394557e+000	 8.924545474711369e+000
 9.931302598865212e-001	 2.830846567185376e+000	 8.899147805639785e+000
 9.652461291268561e-001	 2.840475296538248e+000	 8.862935110333904e+000
 9.373327226216525e-001	 2.849808303576410e+000	 8.815838372908868e+000
 9.093944814890325e-001	 2.858846214307540e+000	 8.757859523165591e+000
 8.814358131068237e-001	 2.867589738332473e+000	 8.689072025316156e+000
 8.534610892875463e-001	 2.876039667508701e+000	 8.609621294818757e+000
 8.254746445060665e-001	 2.884196874570822e+000	 8.519724944566017e+000
 7.566850908368894e-001	 2.643847135042238e+000	 8.256863177464597e+000
 7.310240430396248e-001	 2.651057119090043e+000	 8.209616190860208e+000
 7.053600886327910e-001	 2.658000591714422e+000	 8.161595893076196e+000
 6.796970889541841e-001	 2.664678567381807e+000	 8.113546668513388e+000
 6.540388651164302e-001	 2.671092129282827e+000	 8.066260660062790e+000
 6.283891966355909e-001	 2.677242427900419e+000	 8.020577005939312e+000
 6.027518201122010e-001	 2.683130679550521e+000	 7.906022907057577e+000
 5.771304279651321e-001	 2.688758164897392e+000	 7.777400217731937e+000
 5.515286672185965e-001	 2.694126227445559e+000	 7.647334809593959e+000
 5.259501383425347e-001	 2.699236272010369e+000	 7.518048696489220e+000
 5.003983941465354e-001	 2.704089763169176e+000	 7.391697455084086e+000
 7.635640462038073e-001	 2.667882108999597e+000	 8.141894422866102e+000
 7.376697161537533e-001	 2.675157638356550e+000	 8.090830216393229e+000
 7.117724530705057e-001	 2.682164233459022e+000	 8.041753073132782e+000
 6.858761533949306e-001	 2.688902917995866e+000	 7.995368764551315e+000
 6.599846729770403e-001	 2.695374785004896e+000	 7.952430130311638e+000
 6.341018256921330e-001	 2.701580995427987e+000	 7.913736393378019e+000
 6.082313821098385e-001	 2.707522776638490e+000	 7.821931531212969e+000
 5.823770682164716e-001	 2.713201420943071e+000	 7.699935726378129e+000
 5.565425641910096e-001	 2.718618284059930e+000	 7.580463331242553e+000
 5.307315032349363e-001	 2.723774783575466e+000	 7.465721825398475e+000
 5.049474704561093e-001	 2.728672397381367e+000	 7.357848123618067e+000
 7.704430015707247e-001	 2.691917082955955e+000	 8.060254964781956e+000
 7.443153892678818e-001	 2.699258157622057e+000	 8.005220960144976e+000
 7.181848175082203e-001	 2.706327875202622e+000	 7.954854923045338e+000
 6.920552178356768e-001	 2.713127268608924e+000	 7.909823772993216e+000
 6.659304808376505e-001	 2.719657440725967e+000	 7.870840879032259e+000
 6.398144547486752e-001	 2.725919562954553e+000	 7.838665452772577e+000
 6.137109441074761e-001	 2.731914873725461e+000	 7.771959533185480e+000
 5.876237084678111e-001	 2.737644676987750e+000	 7.655569944719107e+000
 5.615564611634222e-001	 2.743110340673302e+000	 7.545646698696220e+000
 5.355128681273379e-001	 2.748313295139560e+000	 7.444383329749750e+000
 5.094965467656832e-001	 2.753255031592557e+000	 7.353898660930271e+000
 7.773219569376425e-001	 2.715952056911313e+000	 8.011196618371889e+000
 7.509610623820103e-001	 2.723358676886565e+000	 7.952059042329747e+000
 7.245971819459354e-001	 2.730491516945223e+000	 7.900192117499694e+000
 6.982342822764233e-001	 2.737351619220983e+000	 7.856223645622547e+000
 6.718762886982608e-001	 2.743940096446035e+000	 7.820827330738897e+000
 6.455270838052174e-001	 2.750258130480121e+000	 7.794722249836918e+000
 6.191905061051134e-001	 2.756306970811430e+000	 7.755469227931705e+000
 5.928703487191506e-001	 2.762087933031430e+000	 7.643682938533742e+000
 5.665703581358352e-001	 2.767602397285674e+000	 7.542284608406153e+000
 5.402942330197397e-001	 2.772851806702656e+000	 7.453454392036326e+000
 5.140456230752573e-001	 2.777837665802749e+000	 7.379293565477701e+000
 7.842009123045602e-001	 2.739987030865671e+000	 7.993983796042579e+000
 7.576067354961388e-001	 2.747459196150073e+000	 7.930627669287844e+000
 7.310095463836498e-001	 2.754655158686824e+000	 7.877067852399010e+000
 7.044133467171695e-001	 2.761575969832042e+000	 7.833892737185948e+000
 6.778220965588707e-001	 2.768222752165104e+000	 7.801736141778110e+000
 6.512397128617596e-001	 2.774596698004689e+000	 7.781276858603128e+000
 6.246700681027508e-001	 2.780699067896399e+000	 7.771834663346717e+000
 5.981169889704902e-001	 2.786531189074110e+000	 7.663666179837191e+000
 5.715842551082480e-001	 2.792094453897045e+000	 7.569787785598454e+000
 5.450755979121412e-001	 2.797390318264753e+000	 7.492366795894133e+000
 5.185946993848312e-001	 2.802420300011939e+000	 7.433487459663939e+000
 7.910798676714780e-001	 2.764022004819030e+000	 8.007892959741326e+000
 7.642524086102673e-001	 2.771559715412581e+000	 7.940222086262304e+000
 7.374219108213646e-001	 2.778818800427425e+000	 7.884797300462582e+000
 7.105924111579157e-001	 2.785800320442100e+000	 7.842167266134053e+000
 6.837679044194811e-001	 2.792505407883174e+000	 7.812925668509848e+000
 6.569523419183018e-001	 2.798935265528256e+000	 7.797710839320533e+000
 6.301496301003886e-001	 2.805091164980371e+000	 7.797205265502377e+000
 6.033636292218295e-001	 2.810974445115789e+000	 7.714922050957053e+000
 5.765981520806607e-001	 2.816586510507417e+000	 7.627577504762050e+000
 5.498569628045430e-001	 2.821928829825850e+000	 7.560562465181941e+000
 5.231437756944052e-001	 2.827002934220130e+000	 7.515944649667292e+000
 7.979588230383954e-001	 2.788056978771388e+000	 8.052212101579302e+000
 7.708980817243957e-001	 2.795660234674088e+000	 7.980149058480971e+000
 7.438342752590791e-001	 2.802982442167025e+000	 7.922707094984099e+000
 7.167714755986623e-001	 2.810024671051159e+000	 7.880394803254636e+000
 6.897137122800909e-001	 2.816788063600243e+000	 7.853765462996684e+000
 6.626649709748439e-001	 2.823273833050822e+000	 7.843416743360157e+000
 6.356291920980260e-001	 2.829483262063339e+000	 7.849990285590819e+000
 6.086102694731691e-001	 2.835417701156467e+000	 7.796863374261618e+000
 5.816120490530735e-001	 2.841078567116789e+000	 7.715085134939240e+000
 5.546383276969445e-001	 2.846467341385945e+000	 7.657493026903142e+000
 5.276928520039791e-001	 2.851585568427321e+000	 7.626138708036639e+000
 8.048377784053131e-001	 2.812091952722746e+000	 8.126240251089465e+000
 7.775437548385245e-001	 2.819760753934596e+000	 8.049726378849217e+000
 7.502466396967938e-001	 2.827146083905626e+000	 7.990134840063383e+000
 7.229505400394083e-001	 2.834249021659217e+000	 7.947933786530488e+000
 6.956595201407010e-001	 2.841070719316312e+000	 7.923635794554920e+000
 6.683776000313861e-001	 2.847612400572389e+000	 7.917797643508503e+000
 6.411087540956635e-001	 2.853875359145309e+000	 7.931019972113694e+000
 6.138569097245084e-001	 2.859860957196147e+000	 7.908912966004102e+000
 5.866259460254865e-001	 2.865570623725161e+000	 7.831751708334571e+000
 5.594196925893462e-001	 2.871005852945041e+000	 7.782619396541292e+000
 5.322419283135530e-001	 2.876168202633512e+000	 7.763552077693013e+000
 8.117167337722309e-001	 2.836126926673104e+000	 8.229287007539249e+000
 7.841894279526530e-001	 2.843861273194103e+000	 8.148282400675702e+000
 7.566590041345087e-001	 2.851309725643227e+000	 8.086428645741734e+000
 7.291296044801549e-001	 2.858473372266277e+000	 8.044153060664531e+000
 7.016053280013110e-001	 2.865353375031381e+000	 8.021927195633602e+000
 6.740902290879285e-001	 2.871950968092957e+000	 8.020266688145185e+000
 6.465883160933009e-001	 2.878267456226280e+000	 8.039730992636752e+000
 6.191035499758479e-001	 2.884304213234826e+000	 8.050503212853114e+000
 5.916398429978994e-001	 2.890062680332532e+000	 7.977027510858660e+000
 5.642010574817480e-001	 2.895544364503138e+000	 7.935411384480389e+000
 5.367910046231269e-001	 2.900750836838703e+000	 7.927675696066070e+000
 8.185956891391485e-001	 2.860161900622463e+000	 8.360672095824022e+000
 7.908351010667816e-001	 2.867961792452611e+000	 8.275155593957786e+000
 7.630713685722232e-001	 2.875473367379827e+000	 8.210946686575863e+000
 7.353086689209010e-001	 2.882697722872336e+000	 8.168431439823106e+000
 7.075511358619213e-001	 2.889636030745451e+000	 8.148040030590607e+000
 6.798028581444705e-001	 2.896289535612524e+000	 8.150246677898419e+000
 6.520678780909384e-001	 2.902659553306250e+000	 8.175569445625188e+000
 6.243501902271874e-001	 2.908747469272504e+000	 8.221075669774271e+000
 5.966537399703122e-001	 2.914554736938904e+000	 8.150371693317156e+000
 5.689824223741495e-001	 2.920082876060233e+000	 8.115347322269823e+000
 5.413400809327010e-001	 2.925333471042894e+000	 8.118008638182056e+000
 8.254746445060665e-001	 2.884196874570822e+000	 8.519724944566017e+000
 7.974807741809102e-001	 2.892062311710120e+000	 8.429694123852940e+000
 7.694837330099383e-001	 2.899637009115428e+000	 8.363056782283023e+000
 7.414877333616478e-001	 2.906922073477395e+000	 8.320157292241438e+000
 7.134969437225316e-001	 2.913918686458521e+000	 8.301384086029637e+000
 6.855154872010129e-001	 2.920628103131092e+000	 8.307169663468153e+000
 6.575474400885762e-001	 2.927051650385220e+000	 8.337990467489696e+000
 6.295968304785271e-001	 2.933190725309185e+000	 8.394366630509220e+000
 6.016676369427254e-001	 2.939046793544277e+000	 8.351251902040049e+000
 5.737637872665514e-001	 2.944621387616330e+000	 8.321913707575485e+000
 5.458891572422751e-001	 2.949916105246086e+000	 8.334057777597458e+000
 5.003983941465354e-001	 2.704089763169176e+000	 7.391697455084086e+000
 4.748769387281781e-001	 2.708688223695421e+000	 7.371719278198854e+000
 4.493892264735033e-001	 2.713033232976536e+000	 7.344635091640910e+000
 4.239386611108921e-001	 2.717126425418323e+000	 7.312584474271060e+000
 3.985285948199710e-001	 2.720969488838350e+000	 7.277648462228553e+000
 3.731623273929815e-001	 2.724564162849201e+000	 7.241849380152364e+000
 3.478431054491009e-001	 2.727912237233771e+000	 7.207150769038242e+000
 3.225741217013700e-001	 2.731015550314390e+000	 7.175457406675989e+000
 2.973585142758312e-001	 2.733875987317568e+000	 7.148615416564973e+000
 2.721993660824217e-001	 2.736495478736074e+000	 7.128412461167073e+000
 2.470997042370982e-001	 2.738875998690031e+000	 7.116578015342656e+000
 5.049474704561093e-001	 2.728672397381367e+000	 7.357848123618067e+000
 4.791940018074254e-001	 2.733312662094415e+000	 7.358669562849650e+000
 4.534745830783211e-001	 2.737697171460055e+000	 7.350142970589968e+000
 4.277926489401633e-001	 2.741827574742321e+000	 7.334404237903824e+000
 4.021515820469407e-001	 2.745705575102577e+000	 7.313531956772235e+000
 3.765547121890066e-001	 2.749332927968071e+000	 7.289547246698394e+000
 3.510053155002598e-001	 2.752711439392450e+000	 7.264413677215088e+000
 3.255066137184062e-001	 2.755842964410066e+000	 7.240037282219529e+000
 3.000617734979079e-001	 2.758729405385851e+000	 7.218266662010938e+000
 2.746739057751573e-001	 2.761372710362509e+000	 7.200893168880529e+000
 2.493460651853486e-001	 2.763774871406714e+000	 7.189651172079374e+000
 5.094965467656832e-001	 2.753255031592557e+000	 7.353898660930271e+000
 4.835110648866728e-001	 2.757937100492415e+000	 7.373291821135692e+000
 4.575599396831386e-001	 2.762361109942594e+000	 7.381186582329365e+000
 4.316466367694347e-001	 2.766528724065365e+000	 7.379715067361791e+000
 4.057745692739102e-001	 2.770441661365888e+000	 7.370953270424542e+000
 3.799470969850319e-001	 2.774101693086072e+000	 7.356920880954590e+000
 3.541675255514188e-001	 2.777510641550315e+000	 7.339581202757714e+000
 3.284391057354423e-001	 2.780670378504993e+000	 7.320841164247853e+000
 3.027650327199846e-001	 2.783582823453463e+000	 7.302551415658579e+000
 2.771484454678929e-001	 2.786249941988359e+000	 7.286506509051104e+000
 2.515924261335989e-001	 2.788673744122905e+000	 7.274445156929615e+000
 5.140456230752573e-001	 2.777837665802749e+000	 7.379293565477701e+000
 4.878281279659201e-001	 2.782561538889420e+000	 7.415085349875724e+000
 4.616452962879563e-001	 2.787025048424154e+000	 7.437318808769131e+000
 4.355006245987059e-001	 2.791229873387455e+000	 7.448122204067147e+000
 4.093975565008799e-001	 2.795177747628282e+000	 7.449568766900359e+000
 3.833394817810571e-001	 2.798870458203201e+000	 7.443676520741401e+000
 3.573297356025777e-001	 2.802309843707365e+000	 7.432408199108803e+000
 3.313715977524785e-001	 2.805497792599171e+000	 7.417671253722189e+000
 3.054682919420611e-001	 2.808436241520401e+000	 7.401317948935457e+000
 2.796229851606286e-001	 2.811127173613622e+000	 7.385145538247318e+000
 2.538387870818492e-001	 2.813572616838604e+000	 7.370896518676484e+000
 5.185946993848312e-001	 2.802420300011939e+000	 7.433487459663939e+000
 4.921451910451676e-001	 2.807185977285431e+000	 7.483558002340859e+000
 4.657306528927738e-001	 2.811688986904735e+000	 7.518099577387572e+000
 4.393546124279772e-001	 2.815931022708593e+000	 7.539236480848017e+000
 4.130205437278496e-001	 2.819913833889759e+000	 7.549039003959560e+000
 3.867318665770823e-001	 2.823639223319458e+000	 7.549523257408664e+000
 3.604919456537368e-001	 2.827109045863601e+000	 7.542651089583675e+000
 3.343040897695147e-001	 2.830325206692602e+000	 7.530330094657435e+000
 3.081715511641378e-001	 2.833289659586666e+000	 7.514413706291570e+000
 2.820975248533642e-001	 2.836004405238298e+000	 7.496701372733665e+000
 2.560851480300995e-001	 2.838471489553812e+000	 7.478938809064244e+000
 5.231437756944052e-001	 2.827002934220130e+000	 7.515944649667292e+000
 4.964622541244147e-001	 2.831810415680446e+000	 7.578225816234989e+000
 4.698160094975916e-001	 2.836352925384337e+000	 7.623095554902094e+000
 4.432086002572486e-001	 2.840632172028778e+000	 7.652674078834489e+000
 4.166435309548192e-001	 2.844649920150318e+000	 7.669028551057401e+000
 3.901242513731075e-001	 2.848407988434846e+000	 7.674172911769443e+000
 3.636541557048957e-001	 2.851908248019020e+000	 7.670067799115261e+000
 3.372365817865509e-001	 2.855152620785284e+000	 7.658620559207520e+000
 3.108748103862144e-001	 2.858143077652259e+000	 7.641685341155474e+000
 2.845720645460997e-001	 2.860881636862386e+000	 7.621063272831683e+000
 2.583315089783498e-001	 2.863370362268527e+000	 7.598502713104424e+000
 5.276928520039791e-001	 2.851585568427321e+000	 7.626138708036639e+000
 5.007793172036622e-001	 2.856434854074466e+000	 7.698612660917187e+000
 4.739013661024092e-001	 2.861016863862959e+000	 7.751879856784891e+000
 4.470625880865198e-001	 2.865333321348009e+000	 7.788056296927896e+000
 4.202665181817888e-001	 2.869386006409961e+000	 7.809205816426418e+000
 3.935166361691326e-001	 2.873176753549362e+000	 7.817339916451070e+000
 3.668163657560547e-001	 2.876707450173628e+000	 7.814417689528779e+000
 3.401690738035870e-001	 2.879980034877217e+000	 7.802345833521379e+000
 3.135780696082910e-001	 2.882996495717180e+000	 7.782978750029630e+000
 2.870466042388354e-001	 2.885758868485888e+000	 7.758118722917134e+000
 2.605778699266002e-001	 2.888269234982751e+000	 7.729516172641247e+000
 5.322419283135530e-001	 2.876168202633512e+000	 7.763552077693013e+000
 5.050963802829095e-001	 2.881059292467493e+000	 7.844249902716106e+000
 4.779867227072269e-001	 2.885680802340604e+000	 7.904031771674968e+000
 4.509165759157910e-001	 2.890034470666286e+000	 7.945009333092935e+000
 4.238895054087584e-001	 2.894122092668686e+000	 7.969242883026336e+000
 3.969090209651579e-001	 2.897945518663008e+000	 7.978741204278724e+000
 3.699785758072137e-001	 2.901506652327419e+000	 7.975461498136777e+000
 3.431015658206232e-001	 2.904807448968402e+000	 7.961309404324059e+000
 3.162813288303678e-001	 2.907849913781428e+000	 7.938139104837688e+000
 2.895211439315709e-001	 2.910636100108803e+000	 7.907753507315944e+000
 2.628242308748505e-001	 2.913168107696484e+000	 7.871904503582107e+000
 5.367910046231269e-001	 2.900750836838703e+000	 7.927675696066070e+000
 5.094134433621568e-001	 2.905683730859524e+000	 8.014676087261391e+000
 4.820720793120443e-001	 2.910344740817267e+000	 8.079136499803623e+000
 4.547705637450623e-001	 2.914735619983611e+000	 8.123164076769994e+000
 4.275124926357281e-001	 2.918858178926494e+000	 8.148815352835088e+000
 4.003014057611831e-001	 2.922714283775782e+000	 8.158096102334918e+000
 3.731407858583726e-001	 2.926305854480396e+000	 8.152961279454765e+000
 3.460340578376594e-001	 2.929634863058839e+000	 8.135315046180764e+000
 3.189845880524443e-001	 2.932703331845003e+000	 8.107010883627474e+000
 2.919956836243065e-001	 2.935513331731130e+000	 8.069851782339269e+000
 2.650705918231008e-001	 2.938066980409724e+000	 8.025590507165076e+000
 5.413400809327010e-001	 2.925333471042894e+000	 8.118008638182056e+000
 5.137305064414042e-001	 2.930308169250560e+000	 8.209436637832560e+000
 4.861574359168621e-001	 2.935008679292952e+000	 8.276784904607693e+000
 4.586245515743336e-001	 2.939436769299983e+000	 8.322155911754589e+000
 4.311354798626977e-001	 2.943594265183386e+000	 8.347602198991030e+000
 4.036937905572083e-001	 2.947483048887686e+000	 8.355126231360536e+000
 3.763029959095316e-001	 2.951105056632559e+000	 8.346680349857360e+000
 3.489665498546956e-001	 2.954462277148526e+000	 8.324166809402625e+000
 3.216878472745210e-001	 2.957556749907905e+000	 8.289437899724732e+000
 2.944702233170422e-001	 2.960390563352872e+000	 8.244296144688136e+000
 2.673169527713512e-001	 2.962965853122473e+000	 8.190494575617800e+000
 5.458891572422751e-001	 2.949916105246086e+000	 8.334057777597458e+000
 5.180475695206517e-001	 2.954932607640603e+000	 8.428083568790209e+000
 4.902427925216797e-001	 2.959672617767659e+000	 8.496573276763218e+000
 4.624785394036050e-001	 2.964137918615402e+000	 8.541624528932339e+000
 4.347584670896675e-001	 2.968330351439361e+000	 8.565285625327945e+000
 4.070861753532337e-001	 2.972251813998719e+000	 8.569555410185840e+000
 3.794652059606907e-001	 2.975904258783907e+000	 8.556383235000654e+000
 3.518990418717319e-001	 2.979289691237467e+000	 8.527669008557218e+000
 3.243911064965978e-001	 2.982410167970138e+000	 8.485263329430291e+000
 2.969447630097779e-001	 2.985267794974027e+000	 8.430967696436953e+000
 2.695633137196015e-001	 2.987864725834731e+000	 8.366534792532782e+000
 2.470997042370982e-001	 2.738875998690031e+000	 7.116578015342656e+000
 2.220624995334239e-001	 2.741019563288683e+000	 7.123421232787602e+000
 1.970906659666314e-001	 2.742928228994460e+000	 7.123993654184577e+000
 1.721870603070332e-001	 2.744604090990911e+000	 7.120095973183945e+000
 1.473544817196688e-001	 2.746049281555912e+000	 7.113481252807659e+000
 1.225956714330539e-001	 2.747265968441736e+000	 7.105855121773928e+000
 9.791331245501693e-002	 2.748256353263346e+000	 7.098876027269639e+000
 7.331002933477392e-002	 2.749022669896307e+000	 7.094155540779966e+000
 4.878838797035946e-002	 2.749567182885613e+000	 7.093258713631365e+000
 2.435089546050372e-002	 2.749892185866723e+000	 7.097704478958717e+000
 0.000000000000000e+000	 2.750000000000000e+000	 7.108966096871111e+000
 2.493460651853486e-001	 2.763774871406714e+000	 7.189651172079374e+000
 2.240812495293676e-001	 2.765937922956008e+000	 7.197510273752612e+000
 1.988823992934204e-001	 2.767863940167976e+000	 7.199040240456390e+000
 1.737523972184575e-001	 2.769555037273286e+000	 7.196010448051666e+000
 1.486940679164726e-001	 2.771013365934161e+000	 7.190142864326925e+000
 1.237101775362395e-001	 2.772241113609713e+000	 7.183112290772558e+000
 9.880343347656646e-002	 2.773240501929583e+000	 7.176546659526192e+000
 7.397648414620664e-002	 2.774013785077298e+000	 7.172027382029223e+000
 4.923191876953960e-002	 2.774563248184625e+000	 7.171089745989971e+000
 2.457226723710114e-002	 2.774891205738252e+000	 7.175223357308317e+000
 0.000000000000000e+000	 2.775000000000000e+000	 7.185872623684865e+000
 2.515924261335989e-001	 2.788673744122905e+000	 7.274445156929615e+000
 2.260999995253115e-001	 2.790856282622937e+000	 7.281392386503793e+000
 2.006741326202093e-001	 2.792799651341178e+000	 7.282003037785989e+000
 1.753177341298817e-001	 2.794505983555423e+000	 7.278015067708531e+000
 1.500336541132762e-001	 2.795977450312236e+000	 7.271119205482598e+000
 1.248246836394252e-001	 2.797216258777567e+000	 7.262959241335250e+000
 9.969355449811602e-002	 2.798224650595743e+000	 7.255132369148035e+000
 7.464293895763939e-002	 2.799004900258246e+000	 7.249189579470942e+000
 4.967544956871973e-002	 2.799559313483616e+000	 7.246636099437043e+000
 2.479363901369855e-002	 2.799890225609775e+000	 7.248931876177758e+000
 0.000000000000000e+000	 2.800000000000000e+000	 7.257492100407136e+000
 2.538387870818492e-001	 2.813572616838604e+000	 7.370896518676484e+000
 2.281187495212552e-001	 2.815774642289468e+000	 7.375062358553948e+000
 2.024658659469983e-001	 2.817735362514068e+000	 7.372934745913896e+000
 1.768830710413059e-001	 2.819456929837321e+000	 7.366220095556722e+000
 1.513732403100800e-001	 2.820941534690137e+000	 7.356577733100240e+000
 1.259391897426109e-001	 2.822191403945301e+000	 7.345620232204528e+000
 1.005836755196656e-001	 2.823208799261826e+000	 7.334913804441245e+000
 7.530939376907211e-002	 2.823996015439151e+000	 7.325978738203935e+000
 5.011898036789984e-002	 2.824555378782589e+000	 7.320289883120590e+000
 2.501501079029598e-002	 2.824889245481295e+000	 7.319277176503292e+000
 0.000000000000000e+000	 2.825000000000000e+000	 7.324326208447380e+000
 2.560851480300995e-001	 2.838471489553812e+000	 7.478938809064244e+000
 2.301374995171990e-001	 2.840693001955602e+000	 7.478510417061123e+000
 2.042575992737872e-001	 2.842671073686646e+000	 7.471881962815388e+000
 1.784484079527302e-001	 2.844407876118981e+000	 7.460728174106796e+000
 1.527128265068837e-001	 2.845905619067862e+000	 7.446676786630272e+000
 1.270536958457965e-001	 2.847166549112915e+000	 7.431308931250896e+000
 1.014737965412151e-001	 2.848192947927832e+000	 7.416159572651339e+000
 7.597584858050487e-002	 2.848987130620012e+000	 7.402717995694392e+000
 5.056251116707998e-002	 2.849551444081544e+000	 7.392428335888497e+000
 2.523638256689339e-002	 2.849888265352807e+000	 7.386690150427860e+000
 0.000000000000000e+000	 2.850000000000000e+000	 7.386859026358607e+000
 2.583315089783498e-001	 2.863370362268527e+000	 7.598502713104424e+000
 2.321562495131427e-001	 2.865611361621340e+000	 7.591722427104474e+000
 2.060493326005761e-001	 2.867606784858910e+000	 7.578885449994935e+000
 1.800137448641544e-001	 2.869358822400401e+000	 7.561634656320365e+000
 1.540524127036873e-001	 2.870869703445412e+000	 7.541565984555890e+000
 1.281682019489822e-001	 2.872141694280408e+000	 7.520228875944659e+000
 1.023639175627647e-001	 2.873177096593761e+000	 7.499126763487959e+000
 7.664230339193760e-002	 2.873978245800831e+000	 7.479717607325406e+000
 5.100604196626010e-002	 2.874547509380479e+000	 7.463414472823040e+000
 2.545775434349082e-002	 2.874887285224317e+000	 7.451586147770780e+000
 0.000000000000000e+000	 2.875000000000000e+000	 7.445557795178991e+000
 2.605778699266002e-001	 2.888269234982751e+000	 7.729516172641247e+000
 2.341749995090864e-001	 2.890529721286680e+000	 7.714680079705781e+000
 2.078410659273651e-001	 2.892542496030862e+000	 7.693980384057547e+000
 1.815790817755787e-001	 2.894309768681583e+000	 7.669027919814912e+000
 1.553919989004910e-001	 2.895833787822788e+000	 7.641386600296181e+000
 1.292827080521679e-001	 2.897116839447781e+000	 7.612573910011595e+000
 1.032540385843142e-001	 2.898161245259612e+000	 7.584061445570148e+000
 7.730875820337035e-002	 2.898969360981606e+000	 7.557275501658802e+000
 5.144957276544022e-002	 2.899543574679394e+000	 7.533597698334449e+000
 2.567912612008824e-002	 2.899886305095822e+000	 7.514365645956260e+000
 0.000000000000000e+000	 2.900000000000000e+000	 7.500873644186682e+000
 2.628242308748505e-001	 2.913168107696484e+000	 7.871904503582107e+000
 2.361937495050302e-001	 2.915448080951624e+000	 7.847361070206802e+000
 2.096327992541540e-001	 2.917478207202503e+000	 7.817196595380165e+000
 1.831444186870029e-001	 2.919260714962529e+000	 7.782989664954982e+000
 1.567315850972948e-001	 2.920797872199990e+000	 7.746271918833519e+000
 1.303972141553536e-001	 2.922091984615031e+000	 7.708528597695396e+000
 1.041441596058637e-001	 2.923145393925386e+000	 7.671199137412873e+000
 7.797521301480311e-002	 2.923960476162339e+000	 7.635677807222574e+000
 5.189310356462035e-002	 2.924539639978291e+000	 7.603314387813266e+000
 2.590049789668566e-002	 2.924885324967322e+000	 7.575414885584501e+000
 0.000000000000000e+000	 2.925000000000000e+000	 7.553242279436733e+000
 2.650705918231008e-001	 2.938066980409724e+000	 8.025590507165076e+000
 2.382124995009740e-001	 2.940366440616170e+000	 7.989739267578836e+000
 2.114245325809429e-001	 2.942413918373830e+000	 7.948558794646817e+000
 1.847097555984271e-001	 2.944211661243234e+000	 7.903595197787820e+000
 1.580711712940984e-001	 2.945761956577017e+000	 7.856347575206221e+000
 1.315117202585392e-001	 2.947067129782162e+000	 7.808268616955767e+000
 1.050342806274133e-001	 2.948129542591085e+000	 7.760765254465915e+000
 7.864166782623584e-002	 2.948951591343027e+000	 7.715199352512610e+000
 5.233663436380049e-002	 2.949535705277169e+000	 7.672888439707704e+000
 2.612186967328308e-002	 2.949884344838817e+000	 7.635106473687990e+000
 0.000000000000000e+000	 2.949999999999999e+000	 7.603084637287560e+000
 2.673169527713512e-001	 2.962965853122473e+000	 8.190494575617800e+000
 2.402312494969177e-001	 2.965284800280320e+000	 8.141784875193826e+000
 2.132162659077319e-001	 2.967349629544843e+000	 8.088086787961451e+000
 1.862750925098514e-001	 2.969162607523701e+000	 8.030913698710599e+000
 1.594107574909021e-001	 2.970726040953869e+000	 7.971731875934849e+000
 1.326262263617249e-001	 2.972042274949171e+000	 7.911961132842293e+000
 1.059244016489628e-001	 2.973113691256704e+000	 7.852975533611994e+000
 7.930812263766857e-002	 2.973942706523673e+000	 7.796104140783080e+000
 5.278016516298060e-002	 2.974531770576026e+000	 7.742631799765168e+000
 2.634324144988050e-002	 2.974883364710307e+000	 7.693799956569850e+000
 0.000000000000000e+000	 2.974999999999999e+000	 7.650807504976038e+000
 2.695633137196015e-001	 2.987864725834731e+000	 8.366534792532782e+000
 2.422499994928616e-001	 2.990203159944074e+000	 8.303464583557933e+000
 2.150079992345209e-001	 2.992285340715546e+000	 8.235795681205444e+000
 1.878404294212756e-001	 2.994113553803930e+000	 8.165008477707088e+000
 1.607503436877059e-001	 2.995690125330548e+000	 8.092536104377134e+000
 1.337407324649106e-001	 2.997017420116060e+000	 8.019765152198543e+000
 1.068145226705124e-001	 2.998097839922249e+000	 7.948036436440424e+000
 7.997457744910133e-002	 2.998933821704276e+000	 7.878645801098999e+000
 5.322369596216075e-002	 2.999527835874867e+000	 7.812844959060297e+000
 2.656461322647793e-002	 2.999882384581794e+000	 7.751842364001166e+000
 0.000000000000000e+000	 3.000000000000000e+000	 7.696804110164820e+000
 3.000000000000000e+000	 0.000000000000000e+000	 1.109856996972767e+001
 2.999882384581794e+000	 2.656461322647803e-002	 1.105512727160972e+001
 2.999527835874867e+000	 5.322369596216094e-002	 1.100679889534344e+001
 2.998933821704276e+000	 7.997457744910114e-002	 1.095551253128776e+001
 2.998097839922249e+000	 1.068145226705123e-001	 1.090320295487407e+001
 2.997017420116060e+000	 1.337407324649106e-001	 1.085181379177018e+001
 2.995690125330548e+000	 1.607503436877060e-001	 1.080329942964824e+001
 2.994113553803930e+000	 1.878404294212759e-001	 1.075962707589372e+001
 2.992285340715547e+000	 2.150079992345207e-001	 1.072277896002499e+001
 2.990203159944073e+000	 2.422499994928615e-001	 1.069475467900372e+001
 2.987864725834731e+000	 2.695633137196016e-001	 1.067757368300511e+001
 3.025000000000000e+000	 0.000000000000000e+000	 1.104289920194681e+001
 3.024881404453279e+000	 2.678598500307306e-002	 1.100353207317960e+001
 3.024523901173706e+000	 5.366722676133150e-002	 1.095973987793863e+001
 3.023924936884879e+000	 8.064103226051231e-002	 1.091333543655196e+001
 3.023081988587793e+000	 1.077046436920233e-001	 1.086613569621807e+001
 3.021992565282949e+000	 1.348552385680359e-001	 1.081996362946010e+001
 3.020654209707225e+000	 1.620899298844223e-001	 1.077665028881765e+001
 3.019064500084158e+000	 1.894057663325809e-001	 1.073803701713010e+001
 3.017221051886248e+000	 2.167997325611534e-001	 1.070597781217535e+001
 3.015121519607826e+000	 2.442687494886068e-001	 1.068234184381075e+001
 3.012763598546988e+000	 2.718096746676061e-001	 1.066901612112793e+001
 3.050000000000000e+000	 0.000000000000000e+000	 1.098304188713865e+001
 3.049880424324768e+000	 2.700735677966334e-002	 1.094757542772794e+001
 3.049519966472564e+000	 5.411075756048293e-002	 1.090817126030822e+001
 3.048916052065525e+000	 8.130748707188022e-002	 1.086652569769598e+001
 3.048066137253413e+000	 1.085947647134573e-001	 1.082433616507601e+001
 3.046967710449958e+000	 1.359697446710402e-001	 1.078330323359792e+001
 3.045618294084077e+000	 1.634295160809641e-001	 1.074513282000310e+001
 3.044015446364626e+000	 1.909711032436473e-001	 1.071153855165448e+001
 3.042156763057263e+000	 2.185914658874734e-001	 1.068424429572573e+001
 3.040039879271977e+000	 2.462874994839551e-001	 1.066498685066560e+001
 3.037662471259737e+000	 2.740560356151188e-001	 1.065551879738926e+001
 3.075000000000000e+000	 0.000000000000000e+000	 1.091770545616213e+001
 3.074879444196264e+000	 2.722872855624884e-002	 1.088608815934082e+001
 3.074516031771441e+000	 5.455428835961522e-002	 1.085104755895994e+001
 3.073907167246214e+000	 8.197394188320498e-002	 1.081416176306807e+001
 3.073050285919110e+000	 1.094848857348141e-001	 1.077700692002021e+001
 3.071942855617088e+000	 1.370842507739238e-001	 1.074115938910396e+001
 3.070582378461104e+000	 1.647691022773312e-001	 1.070819808715063e+001
 3.068966392645331e+000	 1.925364401544753e-001	 1.067970701052272e+001
 3.067092474228589e+000	 2.203831992134809e-001	 1.065727793122848e+001
 3.064958238936522e+000	 2.483062494789064e-001	 1.064251326524705e+001
 3.062561343972977e+000	 2.763023965621398e-001	 1.063702911045714e+001
 3.100000000000000e+000	 0.000000000000000e+000	 1.084563903565491e+001
 3.099878464067764e+000	 2.745010033282959e-002	 1.081794101064004e+001
 3.099512097070338e+000	 5.499781915872840e-002	 1.078736143368763e+001
 3.098898282426945e+000	 8.264039669448649e-002	 1.075535845173681e+001
 3.098034434584885e+000	 1.103750067560939e-001	 1.072338512116283e+001
 3.096918000784339e+000	 1.381987568766865e-001	 1.069289171735432e+001
 3.095546462838306e+000	 1.661086884735237e-001	 1.066532823039445e+001
 3.093917338926274e+000	 1.941017770650647e-001	 1.064214704625753e+001
 3.092028185400229e+000	 2.221749325391758e-001	 1.062480581226581e+001
 3.089876598601465e+000	 2.503249994734608e-001	 1.061477048485807e+001
 3.087460216686710e+000	 2.785487575086693e-001	 1.061351855700330e+001
 3.125000000000000e+000	 0.000000000000000e+000	 1.076563178020202e+001
 3.124877483939268e+000	 2.767147210940556e-002	 1.074204304604188e+001
 3.124508162369254e+000	 5.544134995782243e-002	 1.071614216183977e+001
 3.123889397607720e+000	 8.330685150572482e-002	 1.068926549866240e+001
 3.123018583250737e+000	 1.112651277772966e-001	 1.066274114609446e+001
 3.121893145951711e+000	 1.393132629793284e-001	 1.063789136272261e+001
 3.120510547215681e+000	 1.674482746695415e-001	 1.061603522300942e+001
 3.118868285207457e+000	 1.956671139754157e-001	 1.059849145998974e+001
 3.116963896572181e+000	 2.239666658645581e-001	 1.058658150252863e+001
 3.114794958266806e+000	 2.523437494676183e-001	 1.058163270516053e+001
 3.112359089400934e+000	 2.807951184547070e-001	 1.058498176778300e+001
 3.150000000000000e+000	 0.000000000000000e+000	 1.082274486979027e+001
 3.149876503810778e+000	 2.789284388597678e-002	 1.078044339078995e+001
 3.149504227668188e+000	 5.588488075689733e-002	 1.073664866520460e+001
 3.148880512788539e+000	 8.397330631691997e-002	 1.069316464534734e+001
 3.148002731916666e+000	 1.121552487984223e-001	 1.065172967522282e+001
 3.146868291119204e+000	 1.404277690818493e-001	 1.061401755252349e+001
 3.145474631593232e+000	 1.687878608653847e-001	 1.058163889476106e+001
 3.143819231488878e+000	 1.972324508855280e-001	 1.055614281559486e+001
 3.141899607744445e+000	 2.257583991896278e-001	 1.053901891663964e+001
 3.139713317932544e+000	 2.543624994613788e-001	 1.053169959920511e+001
 3.137257962115649e+000	 2.830414794002528e-001	 1.053556269953892e+001
 3.175000000000000e+000	 0.000000000000000e+000	 1.088258596892263e+001
 3.174875523682292e+000	 2.811421566254322e-002	 1.082285168500659e+001
 3.174500292967143e+000	 5.632841155595311e-002	 1.076323743734403e+001
 3.173871627969401e+000	 8.463976112807191e-002	 1.070542425632860e+001
 3.172986880582672e+000	 1.130453698194708e-001	 1.065102202905423e+001
 3.171843436286817e+000	 1.415422751842494e-001	 1.060157066184800e+001
 3.170438715970958e+000	 1.701274470610533e-001	 1.055854156079953e+001
 3.168770177770539e+000	 1.987977877954020e-001	 1.052333943656354e+001
 3.166835318917023e+000	 2.275501325143849e-001	 1.049730443890777e+001
 3.164631677598678e+000	 2.563812494547423e-001	 1.048171462561552e+001
 3.162156834830856e+000	 2.852878403453070e-001	 1.047778876944031e+001
 3.199999999999999e+000	 0.000000000000000e+000	 1.094405508163132e+001
 3.199874543553811e+000	 2.833558743910490e-002	 1.086772439730450e+001
 3.199496358266115e+000	 5.677194235498975e-002	 1.079319214546189e+001
 3.198862743150305e+000	 8.530621593918064e-002	 1.072201422921705e+001
 3.197971029248754e+000	 1.139354908404423e-001	 1.065566975727692e+001
 3.196818581454552e+000	 1.426567812865288e-001	 1.059556230823434e+001
 3.195402800348857e+000	 1.714670332565473e-001	 1.054302152695900e+001
 3.193721124052436e+000	 2.003631247050374e-001	 1.049930505958576e+001
 3.191771030089914e+000	 2.293418658388294e-001	 1.046560083276310e+001
 3.189550037265210e+000	 2.583999994477089e-001	 1.044302968193437e+001
 3.187055707546556e+000	 2.875342012898696e-001	 1.043264833247627e+001
 3.224999999999999e+000	 0.000000000000000e+000	 1.100608632035073e+001
 3.224873563425334e+000	 2.855695921566181e-002	 1.091412446814988e+001
 3.224492423565108e+000	 5.721547315400726e-002	 1.082570536067249e+001
 3.223853858331254e+000	 8.597267075024617e-002	 1.074225750798956e+001
 3.222955177914915e+000	 1.148256118613368e-001	 1.066512685677182e+001
 3.221793726622407e+000	 1.437712873886872e-001	 1.059557815758990e+001
 3.220366884726932e+000	 1.728066194518667e-001	 1.053479667865996e+001
 3.218672070334573e+000	 2.019284616144343e-001	 1.048389027275982e+001
 3.216706741263116e+000	 2.311335991629614e-001	 1.044389180317491e+001
 3.214468396932137e+000	 2.604187494402785e-001	 1.041576193361109e+001
 3.211954580262747e+000	 2.897805622339404e-001	 1.040039228603141e+001
 3.250000000000000e+000	 0.000000000000000e+000	 1.106764659405549e+001
 3.249872583296864e+000	 2.877833099221397e-002	 1.096114623662784e+001
 3.249488488864120e+000	 5.765900395300565e-002	 1.085999965635550e+001
 3.248844973512246e+000	 8.663912556126854e-002	 1.076550564464606e+001
 3.247939326581152e+000	 1.157157328821541e-001	 1.067887454086320e+001
 3.246768871790384e+000	 1.448857934907248e-001	 1.060122970390782e+001
 3.245330969105183e+000	 1.741462056470114e-001	 1.053360934483934e+001
 3.243623016616949e+000	 2.034937985235927e-001	 1.047696872749396e+001
 3.241642452436632e+000	 2.329253324867808e-001	 1.043218274315885e+001
 3.239386756599463e+000	 2.624374994324513e-001	 1.040004886440833e+001
 3.236853452979430e+000	 2.920269231775197e-001	 1.038129048219427e+001
 2.987864725834731e+000	 2.695633137196016e-001	 1.067757368300511e+001
 2.985267794974027e+000	 2.969447630097781e-001	 1.071491785132862e+001
 2.982410167970137e+000	 3.243911064965979e-001	 1.076808591281098e+001
 2.979289691237467e+000	 3.518990418717317e-001	 1.083951406629322e+001
 2.975904258783907e+000	 3.794652059606906e-001	 1.093167522426146e+001
 2.972251813998720e+000	 4.070861753532337e-001	 1.104708192509759e+001
 2.968330351439361e+000	 4.347584670896677e-001	 1.118828934560541e+001
 2.964137918615402e+000	 4.624785394036052e-001	 1.135789840669862e+001
 2.959672617767659e+000	 4.902427925216796e-001	 1.155855896444979e+001
 2.954932607640603e+000	 5.180475695206515e-001	 1.179297307801265e+001
 2.949916105246086e+000	 5.458891572422751e-001	 1.206389834524407e+001
 3.012763598546988e+000	 2.718096746676061e-001	 1.066901612112793e+001
 3.010145026595181e+000	 2.994193027022249e-001	 1.071987718595314e+001
 3.007263586032368e+000	 3.270943657183575e-001	 1.078539776317898e+001
 3.004117105326406e+000	 3.548315338884370e-001	 1.086784188598542e+001
 3.000703460935255e+000	 3.826274160115196e-001	 1.096950877534188e+001
 2.997020579109752e+000	 4.104785601489446e-001	 1.109273600578158e+001
 2.993066437695334e+000	 4.383814543163540e-001	 1.123990278105728e+001
 2.988839067930820e+000	 4.663325272326390e-001	 1.141343331228714e+001
 2.984336556242365e+000	 4.943281491263212e-001	 1.161580029047940e+001
 2.979557046030644e+000	 5.223646325997994e-001	 1.184952844460318e+001
 2.974498739449277e+000	 5.504382335518415e-001	 1.211719817565324e+001
 3.037662471259737e+000	 2.740560356151188e-001	 1.065551879738926e+001
 3.035022258216923e+000	 3.018938423940945e-001	 1.071885981545443e+001
 3.032117004095270e+000	 3.297976249394829e-001	 1.079570694025045e+001
 3.028944519416094e+000	 3.577640259044806e-001	 1.088815038687098e+001
 3.025502663087416e+000	 3.857896260616888e-001	 1.099831400661556e+001
 3.021789344221656e+000	 4.138709449440277e-001	 1.112835870945082e+001
 3.017802523952225e+000	 4.420044415424736e-001	 1.128048600609569e+001
 3.013540217247193e+000	 4.701865150611983e-001	 1.145694166205805e+001
 3.009000494718050e+000	 4.984135057306104e-001	 1.166001945519723e+001
 3.004181484421681e+000	 5.266816956787482e-001	 1.189206502762962e+001
 2.999081373653468e+000	 5.549873098613937e-001	 1.215547982204198e+001
 3.062561343972977e+000	 2.763023965621398e-001	 1.063702911045714e+001
 3.059899489839250e+000	 3.043683820853868e-001	 1.071196228813022e+001
 3.056970422158845e+000	 3.325008841599744e-001	 1.079925872118920e+001
 3.053771933506530e+000	 3.606965179198625e-001	 1.090083307286322e+001
 3.050301865240394e+000	 3.889518361111982e-001	 1.101863206436408e+001
 3.046558109334430e+000	 4.172633297384822e-001	 1.115463815726496e+001
 3.042538610210034e+000	 4.456274287680267e-001	 1.131087336538488e+001
 3.038241366564517e+000	 4.740405028892827e-001	 1.148940318822242e+001
 3.033664433194715e+000	 5.024988623345474e-001	 1.169234065719317e+001
 3.028805922813712e+000	 5.309987587574979e-001	 1.192185048513520e+001
 3.023664007858659e+000	 5.595363861709308e-001	 1.218015330875686e+001
 3.087460216686710e+000	 2.785487575086693e-001	 1.061351855700330e+001
 3.084776721462165e+000	 3.068429217761016e-001	 1.069930269948317e+001
 3.081823840223093e+000	 3.352041433798316e-001	 1.079631739114818e+001
 3.078599347597715e+000	 3.636290099345828e-001	 1.090629992935812e+001
 3.075101067394186e+000	 3.921140461600479e-001	 1.103101806369060e+001
 3.071326874448076e+000	 4.206557145323085e-001	 1.117227394153459e+001
 3.067274696468759e+000	 4.492504159930132e-001	 1.133190819321358e+001
 3.062942515882794e+000	 4.778944907168924e-001	 1.151180414839450e+001
 3.058328371672358e+000	 5.065842189381320e-001	 1.171389217471262e+001
 3.053430361206737e+000	 5.353158218360486e-001	 1.194015412871841e+001
 3.048246642064849e+000	 5.640854624804536e-001	 1.219262790842652e+001
 3.112359089400934e+000	 2.807951184547070e-001	 1.058498176778300e+001
 3.109653953085667e+000	 3.093174614662391e-001	 1.068101983033232e+001
 3.106677258288014e+000	 3.379074025990548e-001	 1.078716548294970e+001
 3.103426761689649e+000	 3.665615019486414e-001	 1.090497676397495e+001
 3.099900269548792e+000	 3.952762562082375e-001	 1.103604052976698e+001
 3.096095639562592e+000	 4.240480993255067e-001	 1.118197666687516e+001
 3.092010782728402e+000	 4.528734032174330e-001	 1.134444245390989e+001
 3.087643665202025e+000	 4.817484785440275e-001	 1.152513706457567e+001
 3.082992310150981e+000	 5.106695755413645e-001	 1.172580620247017e+001
 3.078054799600758e+000	 5.396328849144005e-001	 1.194824685739091e+001
 3.072829276272041e+000	 5.686345387899614e-001	 1.219431217203055e+001
 3.137257962115649e+000	 2.830414794002528e-001	 1.053556269953892e+001
 3.134531184709755e+000	 3.117920011557995e-001	 1.064030525831331e+001
 3.131530676353606e+000	 3.406106618176438e-001	 1.075758060689921e+001
 3.128254175782331e+000	 3.694939939620383e-001	 1.088876016680810e+001
 3.124699471704213e+000	 3.984384662557674e-001	 1.103428086568810e+001
 3.120864404677979e+000	 4.274404841180766e-001	 1.118446751321087e+001
 3.116746868988962e+000	 4.564963904412862e-001	 1.134933639937951e+001
 3.112344814522210e+000	 4.856024663706877e-001	 1.153040047456764e+001
 3.107656248630582e+000	 5.147549321442445e-001	 1.172921869623431e+001
 3.102679237995774e+000	 5.439499479925535e-001	 1.194740109458489e+001
 3.097411910480231e+000	 5.731836150994546e-001	 1.218661395753629e+001
 3.162156834830856e+000	 2.852878403453070e-001	 1.047778876944031e+001
 3.159408416334431e+000	 3.142665408447823e-001	 1.057946018847479e+001
 3.156384094419872e+000	 3.433139210355989e-001	 1.069346949460429e+001
 3.153081589875761e+000	 3.724264859747735e-001	 1.082098371484020e+001
 3.149498673860448e+000	 4.016006763026375e-001	 1.096312860503455e+001
 3.145633169794237e+000	 4.308328689100182e-001	 1.112099312851151e+001
 3.141482955250439e+000	 4.601193776645729e-001	 1.129563426793554e+001
 3.137045963843347e+000	 4.894564541968733e-001	 1.148808216631523e+001
 3.132320187111163e+000	 5.188402887467722e-001	 1.169934559178256e+001
 3.127303676391783e+000	 5.482670110705071e-001	 1.193041771949983e+001
 3.121994544689422e+000	 5.777326914089332e-001	 1.217094045718271e+001
 3.187055707546556e+000	 2.875342012898696e-001	 1.043264833247627e+001
 3.184285647959694e+000	 3.167410805331879e-001	 1.053171563260098e+001
 3.181237512486811e+000	 3.460171802529198e-001	 1.064296644168612e+001
 3.177909003969940e+000	 3.753589779868468e-001	 1.076736049591537e+001
 3.174297876017498e+000	 4.047628863488477e-001	 1.090581198234873e+001
 3.170401934911366e+000	 4.342252537013316e-001	 1.105919429092029e+001
 3.166219041512832e+000	 4.637423648872926e-001	 1.122834511539856e+001
 3.161747113165439e+000	 4.933104420225841e-001	 1.141407189905028e+001
 3.156984125592723e+000	 5.229256453489479e-001	 1.161715761944305e+001
 3.151928114788789e+000	 5.525840741482619e-001	 1.183836690548597e+001
 3.146577178899613e+000	 5.822817677183971e-001	 1.207845247844401e+001
 3.211954580262747e+000	 2.897805622339404e-001	 1.040039228603141e+001
 3.209162879585543e+000	 3.192156202210161e-001	 1.049747752618345e+001
 3.206090930554421e+000	 3.487204394696066e-001	 1.060663248642168e+001
 3.202736418064867e+000	 3.782914699982586e-001	 1.072860663023251e+001
 3.199097078175363e+000	 4.079250963943981e-001	 1.086409950419744e+001
 3.195170700029366e+000	 4.376176384920169e-001	 1.101376576697467e+001
 3.190955127776143e+000	 4.673653521094461e-001	 1.117822058322662e+001
 3.186448262488482e+000	 4.971644298478201e-001	 1.135804537807462e+001
 3.181648064075263e+000	 5.270110019507712e-001	 1.155379394630986e+001
 3.176552553186789e+000	 5.569011372258178e-001	 1.176599890920463e+001
 3.171159813110805e+000	 5.868308440278466e-001	 1.199517851035479e+001
 3.236853452979430e+000	 2.920269231775197e-001	 1.038129048219427e+001
 3.234040111211981e+000	 3.216901599082671e-001	 1.047716875304241e+001
 3.230944348622705e+000	 3.514236986856594e-001	 1.058504361815237e+001
 3.227563832160543e+000	 3.812239620090088e-001	 1.070545120178735e+001
 3.223896280334043e+000	 4.110873064392887e-001	 1.083887325224779e+001
 3.219939465148238e+000	 4.410100232820740e-001	 1.098574245151745e+001
 3.215691214040372e+000	 4.709883393310329e-001	 1.114644810610026e+001
 3.211149411812481e+000	 5.010184176725818e-001	 1.132134221446739e+001
 3.206312002558781e+000	 5.310963585522424e-001	 1.151074590513583e+001
 3.201176991585784e+000	 5.612182003031746e-001	 1.171495623796412e+001
 3.195742447322996e+000	 5.913799203372813e-001	 1.193425335978866e+001
 2.949916105246086e+000	 5.458891572422751e-001	 1.206389834524407e+001
 2.944621387616330e+000	 5.737637872665515e-001	 1.117663815742473e+001
 2.939046793544276e+000	 6.016676369427255e-001	 1.029072391341711e+001
 2.933190725309185e+000	 6.295968304785270e-001	 9.610099838835639e+000
 2.927051650385220e+000	 6.575474400885762e-001	 9.954697986341408e+000
 2.920628103131092e+000	 6.855154872010129e-001	 1.028504250599308e+001
 2.913918686458521e+000	 7.134969437225319e-001	 1.059954736387199e+001
 2.906922073477395e+000	 7.414877333616478e-001	 1.089662254574251e+001
 2.899637009115429e+000	 7.694837330099380e-001	 1.117467755793239e+001
 2.892062311710120e+000	 7.974807741809101e-001	 1.143212502018784e+001
 2.884196874570821e+000	 8.254746445060665e-001	 1.166738434404584e+001
 2.974498739449277e+000	 5.504382335518415e-001	 1.211719817565324e+001
 2.969159899172426e+000	 5.785451521590409e-001	 1.116194188682655e+001
 2.963538850149648e+000	 6.066815339153120e-001	 1.020660493080470e+001
 2.957633981345865e+000	 6.348434707301158e-001	 9.705687581751560e+000
 2.951443747464190e+000	 6.630270020865289e-001	 1.004055799883641e+001
 2.944966670649659e+000	 6.912281162579265e-001	 1.035991457135519e+001
 2.938201342171590e+000	 7.194427515835593e-001	 1.066202250613951e+001
 2.931146424082455e+000	 7.476667978028477e-001	 1.094514207303343e+001
 2.923800650851029e+000	 7.758960974481320e-001	 1.120753228999650e+001
 2.916162830967627e+000	 8.041264472955334e-001	 1.144745470542398e+001
 2.908231848519180e+000	 8.323535998734841e-001	 1.166317727097315e+001
 2.999081373653468e+000	 5.549873098613937e-001	 1.215547982204198e+001
 2.993698410729522e+000	 5.833265170517062e-001	 1.113158065093549e+001
 2.988030906756019e+000	 6.116954308882450e-001	 1.010614135085535e+001
 2.982077237383543e+000	 6.400901109822029e-001	 9.803280064549558e+000
 2.975835844544160e+000	 6.685065640851121e-001	 1.012690372095550e+001
 2.969305238169227e+000	 6.969407453155827e-001	 1.043375129651097e+001
 2.962483997885658e+000	 7.253885594454217e-001	 1.072193895513579e+001
 2.955370774688512e+000	 7.538458622449542e-001	 1.098957696882019e+001
 2.947964292587630e+000	 7.823084618872844e-001	 1.123477358822998e+001
 2.940263350226135e+000	 8.107721204111466e-001	 1.145563901580353e+001
 2.932266822468538e+000	 8.392325552419018e-001	 1.165028947437285e+001
 3.023664007858659e+000	 5.595363861709308e-001	 1.218015330875686e+001
 3.018236922287618e+000	 5.881078819445471e-001	 1.108709694943558e+001
 3.012522963363392e+000	 6.167093278615249e-001	 9.991007529515201e+000
 3.006520493422222e+000	 6.453367512347887e-001	 9.903664285195568e+000
 3.000227941625130e+000	 6.739861260843260e-001	 1.021461219909959e+001
 2.993643805689794e+000	 7.026533743739816e-001	 1.050751951251216e+001
 2.986766653600728e+000	 7.313343673081191e-001	 1.078035301490938e+001
 2.979595125295572e+000	 7.600249266879678e-001	 1.103107265023071e+001
 2.972127934325230e+000	 7.887208263273955e-001	 1.125763557430769e+001
 2.964363869485642e+000	 8.174177935277489e-001	 1.145800032009275e+001
 2.956301796418896e+000	 8.461115106113193e-001	 1.163013106346075e+001
 3.048246642064849e+000	 5.640854624804536e-001	 1.219262790842652e+001
 3.042775433846714e+000	 5.928892468375639e-001	 1.103003042803709e+001
 3.037015019971764e+000	 6.217232248351519e-001	 9.862872868808632e+000
 3.030963749461900e+000	 6.505833914878728e-001	 1.000762019099288e+001
 3.024620038707100e+000	 6.794656880841702e-001	 1.030455133638399e+001
 3.017982373211360e+000	 7.083660034331233e-001	 1.058217481953912e+001
 3.011049309316797e+000	 7.372801751716513e-001	 1.083830767701745e+001
 3.003819475903630e+000	 7.662039911318881e-001	 1.107075914718397e+001
 2.996291576063832e+000	 7.951331907684649e-001	 1.127733491582489e+001
 2.988464388746150e+000	 8.240634666453409e-001	 1.145584147490618e+001
 2.980336770370254e+000	 8.529904659817371e-001	 1.160409058698511e+001
 3.072829276272041e+000	 5.686345387899614e-001	 1.219431217203055e+001
 3.067313945406811e+000	 5.976706117307563e-001	 1.096191799263563e+001
 3.061507076581136e+000	 6.267371218091253e-001	 9.816004223980778e+000
 3.055407005502580e+000	 6.558300317414558e-001	 1.011592096060857e+001
 3.049012135790070e+000	 6.849452500846451e-001	 1.039758025836987e+001
 3.042320940733928e+000	 7.140786324930076e-001	 1.065866203613571e+001
 3.035331965033867e+000	 7.432259830360184e-001	 1.089683315302539e+001
 3.028043826512689e+000	 7.723830555767155e-001	 1.110975171787826e+001
 3.020455217803432e+000	 8.015455552104926e-001	 1.129507152446047e+001
 3.012564908007658e+000	 8.307091397639227e-001	 1.145044660519276e+001
 3.004371744322612e+000	 8.598694213531548e-001	 1.157353589564546e+001
 3.097411910480231e+000	 5.731836150994546e-001	 1.218661395753629e+001
 3.091852456967906e+000	 6.024519766241243e-001	 1.088429391803482e+001
 3.085999133191508e+000	 6.317510187834460e-001	 9.944736051953564e+000
 3.079850261544259e+000	 6.610766719955370e-001	 1.022933327267028e+001
 3.073404232874039e+000	 6.904248120857505e-001	 1.049454966137981e+001
 3.066659508257495e+000	 7.197912615536347e-001	 1.073791562705209e+001
 3.059614620751936e+000	 7.491717909012203e-001	 1.095694738164936e+001
 3.052268177122748e+000	 7.785621200224495e-001	 1.114915143497069e+001
 3.044618859544032e+000	 8.079579196534793e-001	 1.131202922089421e+001
 3.036665427270165e+000	 8.373548128834938e-001	 1.144308184755589e+001
 3.028406718275971e+000	 8.667483767255725e-001	 1.153981496344370e+001
 3.121994544689422e+000	 5.777326914089332e-001	 1.217094045718271e+001
 3.116390968530002e+000	 6.072333415176683e-001	 1.079868995153262e+001
 3.110491189802878e+000	 6.367649157581131e-001	 1.008042597623718e+001
 3.104293517586937e+000	 6.663233122501168e-001	 1.034861756167318e+001
 3.097796329959009e+000	 6.959043740874864e-001	 1.059630214435769e+001
 3.090998075782062e+000	 7.255038906150046e-001	 1.082086011087424e+001
 3.083897276471005e+000	 7.551175987672573e-001	 1.101965651193935e+001
 3.076492527733806e+000	 7.847411844690906e-001	 1.119004574406300e+001
 3.068782501285633e+000	 8.143702840974244e-001	 1.132937636831071e+001
 3.060765946533673e+000	 8.440004860040550e-001	 1.143499605845600e+001
 3.052441692230329e+000	 8.736273320989901e-001	 1.150425667023131e+001
 3.146577178899613e+000	 5.822817677183971e-001	 1.207845247844401e+001
 3.140929480093099e+000	 6.120147064113878e-001	 1.065422662109279e+001
 3.134983246415251e+000	 6.417788127331275e-001	 1.019070504914616e+001
 3.128736773630616e+000	 6.715699525051951e-001	 1.046209844427929e+001
 3.122188427044979e+000	 7.013839360898527e-001	 1.070367252517245e+001
 3.115336643307630e+000	 7.312165196771172e-001	 1.090841044854613e+001
 3.108179932191074e+000	 7.610634066341291e-001	 1.108595536381301e+001
 3.100716878345864e+000	 7.909202489166383e-001	 1.123350899600840e+001
 3.092946143028234e+000	 8.207826485423276e-001	 1.134826647620787e+001
 3.084866465798181e+000	 8.506461591256057e-001	 1.142742148921615e+001
 3.076476666185687e+000	 8.805062874734078e-001	 1.146817154757457e+001
 3.171159813110805e+000	 5.868308440278466e-001	 1.199517851035479e+001
 3.165467991657194e+000	 6.167960713052830e-001	 1.049854256593408e+001
 3.159475303028622e+000	 6.467927097084883e-001	 1.027852361171556e+001
 3.153180029675296e+000	 6.768165927607718e-001	 1.052651536861823e+001
 3.146580524131949e+000	 7.068634980928498e-001	 1.075404921509287e+001
 3.139675210834197e+000	 7.369291487399725e-001	 1.095787354799409e+001
 3.132462587912143e+000	 7.670092145018358e-001	 1.113461517783384e+001
 3.124941228958924e+000	 7.970993133650932e-001	 1.128060295445998e+001
 3.117109784771834e+000	 8.271950129881898e-001	 1.136983877612106e+001
 3.108966985063688e+000	 8.572918322481455e-001	 1.142157442963205e+001
 3.100511640142045e+000	 8.873852428488256e-001	 1.143285248992841e+001
 3.195742447322996e+000	 5.913799203372813e-001	 1.193425335978866e+001
 3.190006503222291e+000	 6.215774361993541e-001	 1.036653568561740e+001
 3.183967359642995e+000	 6.518066066841965e-001	 1.039862426892393e+001
 3.177623285720976e+000	 6.820632330168475e-001	 1.061950110874304e+001
 3.170972621219920e+000	 7.123430600964775e-001	 1.081998786862420e+001
 3.164013778361765e+000	 7.426417778035708e-001	 1.099678059258465e+001
 3.156745243634213e+000	 7.729550223703776e-001	 1.114645034876014e+001
 3.149165579572983e+000	 8.032783778144551e-001	 1.126544037774189e+001
 3.141273426516435e+000	 8.336073774350103e-001	 1.135006339412770e+001
 3.133067504330196e+000	 8.639375053716755e-001	 1.139649905666027e+001
 3.124546614099405e+000	 8.942641982252434e-001	 1.139957543298693e+001
 2.884196874570821e+000	 8.254746445060665e-001	 1.166738434404584e+001
 2.876039667508701e+000	 8.534610892875464e-001	 1.168075162413500e+001
 2.867589738332473e+000	 8.814358131068238e-001	 1.169482053647424e+001
 2.858846214307540e+000	 9.093944814890321e-001	 1.170920859966878e+001
 2.849808303576410e+000	 9.373327226216522e-001	 1.172354858995882e+001
 2.840475296538248e+000	 9.652461291268560e-001	 1.173749127351672e+001
 2.830846567185376e+000	 9.931302598865213e-001	 1.175070816444238e+001
 2.820921574394557e+000	 1.020980641918824e+000	 1.176289430100913e+001
 2.810699863170943e+000	 1.048792772305250e+000	 1.177377103244351e+001
 2.800181065842598e+000	 1.076562120166735e+000	 1.178308880827313e+001
 2.789364903203508e+000	 1.104284128687585e+000	 1.179062996204992e+001
 2.908231848519180e+000	 8.323535998734841e-001	 1.166317727097315e+001
 2.900006664731933e+000	 8.605732650282778e-001	 1.168357430154468e+001
 2.891486319479657e+000	 8.887811115462038e-001	 1.170236265432579e+001
 2.882669932754969e+000	 9.169727688317708e-001	 1.171907465645656e+001
 2.873556706101564e+000	 9.451438286406897e-001	 1.173325920192970e+001
 2.864145924005266e+000	 9.732898468669844e-001	 1.174448464215797e+001
 2.854436955241667e+000	 1.001406345383214e+000	 1.175234170323298e+001
 2.844429254178170e+000	 1.029488813932706e+000	 1.175644642210392e+001
 2.834122362028305e+000	 1.057532712072626e+000	 1.175644309362447e+001
 2.823515908056201e+000	 1.085533471166585e+000	 1.175200722015921e+001
 2.812609610729128e+000	 1.113486496425423e+000	 1.174284845520293e+001
 2.932266822468538e+000	 8.392325552419018e-001	 1.165028947437285e+001
 2.923973661956154e+000	 8.676854407700045e-001	 1.167796395434952e+001
 2.915382900627801e+000	 8.961264099865641e-001	 1.170172145364911e+001
 2.906493651203310e+000	 9.245510561754659e-001	 1.172100812359506e+001
 2.897305108627561e+000	 9.529549346606492e-001	 1.173528799131149e+001
 2.887816551473040e+000	 9.813335646079899e-001	 1.174404601047722e+001
 2.878027343298606e+000	 1.009682430880729e+000	 1.174679113979596e+001
 2.867936933962303e+000	 1.037996985947347e+000	 1.174305944108189e+001
 2.857544860886037e+000	 1.066272651840687e+000	 1.173241718857143e+001
 2.846850750270003e+000	 1.094504822167034e+000	 1.171446398080318e+001
 2.835854318254756e+000	 1.122688864163766e+000	 1.168883584616337e+001
 2.956301796418896e+000	 8.461115106113193e-001	 1.163013106346075e+001
 2.947940659181365e+000	 8.747976165127259e-001	 1.166537429770261e+001
 2.939279481776907e+000	 9.034717084279046e-001	 1.169439350527536e+001
 2.930317369652564e+000	 9.321293435201169e-001	 1.171654764570339e+001
 2.921053511154402e+000	 9.607660406815306e-001	 1.173121486319805e+001
 2.911487178941568e+000	 9.893772823498731e-001	 1.173779569955362e+001
 2.901617731356190e+000	 1.017958516379068e+000	 1.173571633581492e+001
 2.891444613746952e+000	 1.046505157962747e+000	 1.172443185428379e+001
 2.880967359744136e+000	 1.075012591609432e+000	 1.170342951213197e+001
 2.870185592484005e+000	 1.103476173168083e+000	 1.167223201760995e+001
 2.859099025780396e+000	 1.131891231902615e+000	 1.163040079958733e+001
 2.980336770370254e+000	 8.529904659817371e-001	 1.160409058698511e+001
 2.971907656407567e+000	 8.819097922564430e-001	 1.164723685445060e+001
 2.963176062926975e+000	 9.108170068702260e-001	 1.168185257224431e+001
 2.954141088102730e+000	 9.397076308657238e-001	 1.170720846086794e+001
 2.944801913682087e+000	 9.685771467033343e-001	 1.172259573453697e+001
 2.935157806410852e+000	 9.974210000926341e-001	 1.172732947821205e+001
 2.925208119414423e+000	 1.026234601878231e+000	 1.172075205448859e+001
 2.914952293532121e+000	 1.055013329978907e+000	 1.170223653157659e+001
 2.904389858602606e+000	 1.083752531378863e+000	 1.167119012329029e+001
 2.893520434698208e+000	 1.112447524169733e+000	 1.162705763167997e+001
 2.882343733306045e+000	 1.141093599641968e+000	 1.156932488267571e+001
 3.004371744322612e+000	 8.598694213531548e-001	 1.157353589564546e+001
 2.995874653634759e+000	 8.890219680011550e-001	 1.162496184282603e+001
 2.987072644078003e+000	 9.181623053135278e-001	 1.166555052211605e+001
 2.977964806553807e+000	 9.472859182122873e-001	 1.169448333690366e+001
 2.968550316210615e+000	 9.763882527260589e-001	 1.171096349365548e+001
 2.958828433880890e+000	 1.005464717836273e+000	 1.171421954511351e+001
 2.948798507473301e+000	 1.034510687378216e+000	 1.170350896447033e+001
 2.938459973317807e+000	 1.063521501995825e+000	 1.167812174141264e+001
 2.927812357461445e+000	 1.092492471148977e+000	 1.163738399060174e+001
 2.916855276912610e+000	 1.121418875171983e+000	 1.158066156286155e+001
 2.905588440831705e+000	 1.150295967381827e+000	 1.150736364907252e+001
 3.028406718275971e+000	 8.667483767255725e-001	 1.153981496344370e+001
 3.019841650862942e+000	 8.961341437468621e-001	 1.159993902186853e+001
 3.010969225229993e+000	 9.255076037578103e-001	 1.164691819583912e+001
 3.001788525005797e+000	 9.548642055598066e-001	 1.167984346303164e+001
 2.992298718739988e+000	 9.841993587497060e-001	 1.169782891409441e+001
 2.982499061351686e+000	 1.013508435580789e+000	 1.170001546407894e+001
 2.972388895532826e+000	 1.042786772879026e+000	 1.168557459600086e+001
 2.961967653104012e+000	 1.072029674013502e+000	 1.165371212707615e+001
 2.951234856320653e+000	 1.101232410919777e+000	 1.160367198784474e+001
 2.940190119127212e+000	 1.130390226174832e+000	 1.153474000408609e+001
 2.928833148357375e+000	 1.159498335122191e+000	 1.144624767114880e+001
 3.052441692230329e+000	 8.736273320989901e-001	 1.150425667023131e+001
 3.043808648092115e+000	 9.032463194935644e-001	 1.157353849690482e+001
 3.034865806382944e+000	 9.328529022030734e-001	 1.162736623557001e+001
 3.025612243458701e+000	 9.624424929082823e-001	 1.166473929942995e+001
 3.016047121270204e+000	 9.920104647742746e-001	 1.168468152526934e+001
 3.006169688823235e+000	 1.021552153326183e+000	 1.168624505522476e+001
 2.995979283592998e+000	 1.051062858380658e+000	 1.166851425186939e+001
 2.985475332890736e+000	 1.080537846031939e+000	 1.163060963680800e+001
 2.974657355180231e+000	 1.109972350691261e+000	 1.157169184263415e+001
 2.963524961342014e+000	 1.139361577178282e+000	 1.149096556778233e+001
 2.952077855883055e+000	 1.168700702863060e+000	 1.138768352351740e+001
 3.076476666185687e+000	 8.805062874734078e-001	 1.146817154757457e+001
 3.067775645322278e+000	 9.103584952412617e-001	 1.154711148727195e+001
 3.058762387536855e+000	 9.401982006493168e-001	 1.160828587368848e+001
 3.049435961912515e+000	 9.700207802577138e-001	 1.165060138696196e+001
 3.039795523801263e+000	 9.998215707997652e-001	 1.167299044231905e+001
 3.029840316295539e+000	 1.029595871072454e+000	 1.167441524432630e+001
 3.019569671653817e+000	 1.059338943883114e+000	 1.165387187567344e+001
 3.008983012677976e+000	 1.089046018051134e+000	 1.161039441033092e+001
 2.998079854040177e+000	 1.118712290463429e+000	 1.154305904056816e+001
 2.986859803557016e+000	 1.148332928182332e+000	 1.145098820698963e+001
 2.975322563408745e+000	 1.177903070604434e+000	 1.133335472044528e+001
 3.100511640142045e+000	 8.873852428488256e-001	 1.143285248992841e+001
 3.091742642553431e+000	 9.174706709899544e-001	 1.152199105833241e+001
 3.082658968691728e+000	 9.475434990965410e-001	 1.159104968511437e+001
 3.073259680367243e+000	 9.775990676081021e-001	 1.163884111924275e+001
 3.063543926333167e+000	 1.007632676826178e+000	 1.166420515735670e+001
 3.053510943768600e+000	 1.037639588819603e+000	 1.166601287267601e+001
 3.043160059715283e+000	 1.067615029386393e+000	 1.164317087969455e+001
 3.032490692465736e+000	 1.097554190071088e+000	 1.159462562414079e+001
 3.021502352900493e+000	 1.127452230236283e+000	 1.151936768732206e+001
 3.010194645772218e+000	 1.157304279186981e+000	 1.141643609362887e+001
 2.998567270934446e+000	 1.187105438346313e+000	 1.128492260966556e+001
 3.124546614099405e+000	 8.942641982252434e-001	 1.139957543298693e+001
 3.115709639785576e+000	 9.245828467396423e-001	 1.149949281970390e+001
 3.106555549847563e+000	 9.548887975447460e-001	 1.157701230490241e+001
 3.097083398822883e+000	 9.851773549594461e-001	 1.163085147907185e+001
 3.087292328865915e+000	 1.015443782853513e+000	 1.165975629420154e+001
 3.077181571242415e+000	 1.045683306567630e+000	 1.166250546956358e+001
 3.066750447777396e+000	 1.075891114890496e+000	 1.163791493456428e+001
 3.055998372254012e+000	 1.106062362091802e+000	 1.158484229778474e+001
 3.044924851761178e+000	 1.136192170009821e+000	 1.150219133095294e+001
 3.033529487987621e+000	 1.166275630192231e+000	 1.138891645623794e+001
 3.021811978460158e+000	 1.196307806088698e+000	 1.124402722493639e+001
 2.789364903203508e+000	 1.104284128687585e+000	 1.179062996204992e+001
 2.778251185602976e+000	 1.131954217185233e+000	 1.160038588624875e+001
 2.766839813979641e+000	 1.159567783225906e+000	 1.138359209536783e+001
 2.755130780838170e+000	 1.187120204783136e+000	 1.113962002231190e+001
 2.743124171166410e+000	 1.214606842436723e+000	 1.086790125090336e+001
 2.730820163291444e+000	 1.242023041611831e+000	 1.056793091469669e+001
 2.718219029672730e+000	 1.269364134855766e+000	 1.072796027374175e+001
 2.705321137630596e+000	 1.296625444150433e+000	 1.106876663871892e+001
 2.692126950008475e+000	 1.323802283258405e+000	 1.138951685930523e+001
 2.678637025767297e+000	 1.350889960100455e+000	 1.168874155269165e+001
 2.664852020510573e+000	 1.377883779162314e+000	 1.196490612777951e+001
 2.812609610729128e+000	 1.113486496425423e+000	 1.174284845520293e+001
 2.801403278815884e+000	 1.141387168994181e+000	 1.152355999291810e+001
 2.789896812429516e+000	 1.169230848085429e+000	 1.127721703388757e+001
 2.778090204012230e+000	 1.197012873155812e+000	 1.100324484864798e+001
 2.765983539260103e+000	 1.224728566123295e+000	 1.070113079002769e+001
 2.753576997986275e+000	 1.252373233624917e+000	 1.042916097795046e+001
 2.740870854920701e+000	 1.279942169312546e+000	 1.075986228760660e+001
 2.727865480444710e+000	 1.307430656184601e+000	 1.107360636323982e+001
 2.714561341258762e+000	 1.334833968951679e+000	 1.136908309414283e+001
 2.700959000981798e+000	 1.362147376433889e+000	 1.164491439893209e+001
 2.687059120680686e+000	 1.389366143987678e+000	 1.189965376876364e+001
 2.835854318254756e+000	 1.122688864163766e+000	 1.168883584616337e+001
 2.824555372028621e+000	 1.150820120803543e+000	 1.144365512501085e+001
 2.812953810879079e+000	 1.178893912945295e+000	 1.117087135285017e+001
 2.801049627185874e+000	 1.206905541528780e+000	 1.086996121204407e+001
 2.788842907353316e+000	 1.234850289810127e+000	 1.054046542767040e+001
 2.776333832680607e+000	 1.262723425638253e+000	 1.049272045633925e+001
 2.763522680168190e+000	 1.290520203769584e+000	 1.079614030976439e+001
 2.750409823258400e+000	 1.318235868219058e+000	 1.108432570245914e+001
 2.736995732508725e+000	 1.345865654645289e+000	 1.135606043869486e+001
 2.723280976196111e+000	 1.373404792767729e+000	 1.161005722328806e+001
 2.709266220850791e+000	 1.400848508813537e+000	 1.184495704508066e+001
 2.859099025780396e+000	 1.131891231902615e+000	 1.163040079958733e+001
 2.847707465241187e+000	 1.160253072613320e+000	 1.136244323888872e+001
 2.836010809328330e+000	 1.188556977805505e+000	 1.106629012973238e+001
 2.824009050359106e+000	 1.216798209902042e+000	 1.074146714997543e+001
 2.811702275446057e+000	 1.244972013497222e+000	 1.038756601003752e+001
 2.799090667374439e+000	 1.273073617651840e+000	 1.055850427726336e+001
 2.786174505415197e+000	 1.301098238226882e+000	 1.083604663406859e+001
 2.772954166071666e+000	 1.329041080253802e+000	 1.110010684147765e+001
 2.759430123758361e+000	 1.356897340339236e+000	 1.134956221138950e+001
 2.745602951410237e+000	 1.384662209101975e+000	 1.158321575813818e+001
 2.731473321020889e+000	 1.412330873639893e+000	 1.179979542132723e+001
 2.882343733306045e+000	 1.141093599641968e+000	 1.156932488267571e+001
 2.870859558453585e+000	 1.169686024423512e+000	 1.128167104584594e+001
 2.859067807777270e+000	 1.198220042666060e+000	 1.096518504082877e+001
 2.846968473531923e+000	 1.226690878275596e+000	 1.061943913323122e+001
 2.834561643538319e+000	 1.255093737184579e+000	 1.036207281730982e+001
 2.821847502067773e+000	 1.283423809665677e+000	 1.062581811659301e+001
 2.808826330661722e+000	 1.311676272684440e+000	 1.087881742593615e+001
 2.795498508884507e+000	 1.339846292288835e+000	 1.112011762499086e+001
 2.781864515007672e+000	 1.367929026033521e+000	 1.134868916443563e+001
 2.767924926624177e+000	 1.395919625436628e+000	 1.156342492909280e+001
 2.753680421190979e+000	 1.423813238466745e+000	 1.176313929916011e+001
 2.905588440831705e+000	 1.150295967381827e+000	 1.150736364907252e+001
 2.894011651665810e+000	 1.179118976234119e+000	 1.120306102191190e+001
 2.882124806225897e+000	 1.207883107526959e+000	 1.086924529729914e+001
 2.869927896704327e+000	 1.236583546649444e+000	 1.050553292858185e+001
 2.857421011630105e+000	 1.265215460872197e+000	 1.045520048342097e+001
 2.844604336760608e+000	 1.293774001679765e+000	 1.069395043795352e+001
 2.831478155907767e+000	 1.322254307142256e+000	 1.092367336748485e+001
 2.818042851696924e+000	 1.350651504324155e+000	 1.114351213090527e+001
 2.804298906256655e+000	 1.378960711728142e+000	 1.135252998647184e+001
 2.790246901837927e+000	 1.407177041771687e+000	 1.154970928726479e+001
 2.775887521361062e+000	 1.435295603294094e+000	 1.173395037981369e+001
 2.928833148357375e+000	 1.159498335122191e+000	 1.144624767114880e+001
 2.917163744877866e+000	 1.188551928045140e+000	 1.112831236956801e+001
 2.905181804674214e+000	 1.217546172388202e+000	 1.078013853664198e+001
 2.892887319876317e+000	 1.246476215023584e+000	 1.040138442036712e+001
 2.880280379721415e+000	 1.275337184560077e+000	 1.054725131358280e+001
 2.867361171452942e+000	 1.304124193694102e+000	 1.076217317575088e+001
 2.854129981153329e+000	 1.332832341600331e+000	 1.096982027195009e+001
 2.840587194508918e+000	 1.361456716359763e+000	 1.116943121663948e+001
 2.826733297505314e+000	 1.389992397423100e+000	 1.136016178127930e+001
 2.812568877051491e+000	 1.418434458107152e+000	 1.154108342095588e+001
 2.798094621531136e+000	 1.446777968121937e+000	 1.171118200935481e+001
 2.952077855883055e+000	 1.168700702863060e+000	 1.138768352351740e+001
 2.940315838089752e+000	 1.197984879856577e+000	 1.105910193402916e+001
 2.928238803122218e+000	 1.227209237249789e+000	 1.069951167205126e+001
 2.915846743047894e+000	 1.256368883398018e+000	 1.044044503930922e+001
 2.903139747812249e+000	 1.285458908248220e+000	 1.063754700698509e+001
 2.890118006144780e+000	 1.314474385708691e+000	 1.082974238592839e+001
 2.876781806398410e+000	 1.343410376058666e+000	 1.101644966907385e+001
 2.863131537320488e+000	 1.372261928395659e+000	 1.119700303961582e+001
 2.849167688753645e+000	 1.401024083118395e+000	 1.137065052387863e+001
 2.834890852264868e+000	 1.429691874443023e+000	 1.153655234789335e+001
 2.820301721701203e+000	 1.458260332950277e+000	 1.169377950762648e+001
 2.975322563408745e+000	 1.177903070604434e+000	 1.133335472044528e+001
 2.963467931301467e+000	 1.207417831668428e+000	 1.099708507657437e+001
 2.951295801569911e+000	 1.236872302111720e+000	 1.062899170195961e+001
 2.938806166219057e+000	 1.266261551772745e+000	 1.055170302861285e+001
 2.925999115902606e+000	 1.295580631936623e+000	 1.072539246167662e+001
 2.912874840836117e+000	 1.324824577723530e+000	 1.089589886621918e+001
 2.899433631643009e+000	 1.353988410517259e+000	 1.106273936305367e+001
 2.885675880131633e+000	 1.383067140431844e+000	 1.122534355335406e+001
 2.871602080001652e+000	 1.412055768814028e+000	 1.138305149524711e+001
 2.857212827478058e+000	 1.440949290779302e+000	 1.153511188908065e+001
 2.842508821871260e+000	 1.469742697779114e+000	 1.168068048177217e+001
 2.998567270934446e+000	 1.187105438346313e+000	 1.128492260966556e+001
 2.986620024513012e+000	 1.216850783480695e+000	 1.094389650725761e+001
 2.974352800017291e+000	 1.246535366973995e+000	 1.057018648192827e+001
 2.961765589389805e+000	 1.276154220147765e+000	 1.065886129424537e+001
 2.948858483992487e+000	 1.305702355625290e+000	 1.081007642577243e+001
 2.935631675526955e+000	 1.335174769738620e+000	 1.095986874754962e+001
 2.922085456887126e+000	 1.364566444976112e+000	 1.110785396454056e+001
 2.908220222942354e+000	 1.393872352468316e+000	 1.125355698049077e+001
 2.894036471249331e+000	 1.423087454509997e+000	 1.139640969681642e+001
 2.879534802691059e+000	 1.452206707115986e+000	 1.153574902525941e+001
 2.864715922041312e+000	 1.481225062608446e+000	 1.167081512517758e+001
 3.021811978460158e+000	 1.196307806088698e+000	 1.124402722493639e+001
 3.009772117724388e+000	 1.226283735293376e+000	 1.090115107918556e+001
 2.997409798464362e+000	 1.256198431836615e+000	 1.063220774980619e+001
 2.984725012560141e+000	 1.286046888523079e+000	 1.076125529866873e+001
 2.971717852081893e+000	 1.315824079314217e+000	 1.089087211860489e+001
 2.958388510217295e+000	 1.345524961753960e+000	 1.102086405814736e+001
 2.944737282130763e+000	 1.375144479435225e+000	 1.115094539808302e+001
 2.930764565752652e+000	 1.404677564505076e+000	 1.128073626396720e+001
 2.916470862496686e+000	 1.434119140206303e+000	 1.140976024583983e+001
 2.901856777903874e+000	 1.463464123453077e+000	 1.153744223691968e+001
 2.886923022211355e+000	 1.492707427438275e+000	 1.166310650261530e+001
 2.664852020510573e+000	 1.377883779162314e+000	 1.196490612777951e+001
 2.650772686938987e+000	 1.404779043928912e+000	 1.191832221853801e+001
 2.636399875232532e+000	 1.431571059341969e+000	 1.187856493005245e+001
 2.621734533359257e+000	 1.458255134279886e+000	 1.184519057707051e+001
 2.606777707310106e+000	 1.484826584058344e+000	 1.181767195145636e+001
 2.591530541258077e+000	 1.511280732947345e+000	 1.179539751575497e+001
 2.575994277640976e+000	 1.537612916702709e+000	 1.177767081798450e+001
 2.560170257166945e+000	 1.563818485109322e+000	 1.176371013353234e+001
 2.544059918741996e+000	 1.589892804533449e+000	 1.175264833940505e+001
 2.527664799318952e+000	 1.615831260481341e+000	 1.174353302542873e+001
 2.510986533667252e+000	 1.641629260161343e+000	 1.173532684631196e+001
 2.687059120680686e+000	 1.389366143987678e+000	 1.189965376876364e+001
 2.672862459328722e+000	 1.416485535960390e+000	 1.186119808542029e+001
 2.658369874190830e+000	 1.443500818168300e+000	 1.182944281293825e+001
 2.643582321134799e+000	 1.470407260397131e+000	 1.180389584822513e+001
 2.628500854868160e+000	 1.497200138923525e+000	 1.178397875237846e+001
 2.613126629098687e+000	 1.523874739053070e+000	 1.176902595302799e+001
 2.597460896617837e+000	 1.550426357672883e+000	 1.175828417485166e+001
 2.581505009306319e+000	 1.576850305816057e+000	 1.175091210425711e+001
 2.565260418061028e+000	 1.603141911235244e+000	 1.174598029357749e+001
 2.548728672642727e+000	 1.629296520982581e+000	 1.174247130945567e+001
 2.531911421443936e+000	 1.655309503993148e+000	 1.173928012938695e+001
 2.709266220850791e+000	 1.400848508813537e+000	 1.184495704508066e+001
 2.694952231718638e+000	 1.428192027992455e+000	 1.181301252308876e+001
 2.680339873149483e+000	 1.455430576995289e+000	 1.178769987208225e+001
 2.665430108910844e+000	 1.482559386515083e+000	 1.176847941107623e+001
 2.650224002426849e+000	 1.509573693789444e+000	 1.175472222874171e+001
 2.634722716940044e+000	 1.536468745159543e+000	 1.174570939281448e+001
 2.618927515595535e+000	 1.563239798643796e+000	 1.174063139476566e+001
 2.602839761446600e+000	 1.589882126523503e+000	 1.173858783584792e+001
 2.586460917381019e+000	 1.616391017937702e+000	 1.173858735996930e+001
 2.569792545967492e+000	 1.642761781484414e+000	 1.173954783815081e+001
 2.552836309221620e+000	 1.668989747825456e+000	 1.174029680860004e+001
 2.731473321020889e+000	 1.412330873639893e+000	 1.179979542132723e+001
 2.717042004108736e+000	 1.439898520025105e+000	 1.177275883590953e+001
 2.702309872108486e+000	 1.467360335822935e+000	 1.175234385543842e+001
 2.687277896687393e+000	 1.494711512633743e+000	 1.173796405574597e+001
 2.671947149986172e+000	 1.521947248656102e+000	 1.172894080534825e+001
 2.656318804782146e+000	 1.549062751266766e+000	 1.172450248020431e+001
 2.640394134574071e+000	 1.576053239615449e+000	 1.172378392096927e+001
 2.624174513587791e+000	 1.602913947231661e+000	 1.172582613898306e+001
 2.607661416701968e+000	 1.629640124640821e+000	 1.172957627655373e+001
 2.590856419293248e+000	 1.656227041986839e+000	 1.173388782637961e+001
 2.573761197000304e+000	 1.682669991658267e+000	 1.173752111420792e+001
 2.753680421190979e+000	 1.423813238466745e+000	 1.176313929916011e+001
 2.739131776499018e+000	 1.451605012058342e+000	 1.173942045222392e+001
 2.724279871067844e+000	 1.479290094651236e+000	 1.172237182984585e+001
 2.709125684464445e+000	 1.506863638753109e+000	 1.171136109455799e+001
 2.693670297546130e+000	 1.534320803523498e+000	 1.170566064133337e+001
 2.677914892624994e+000	 1.561656757374739e+000	 1.170444681597377e+001
 2.661860753553444e+000	 1.588866680587844e+000	 1.170679938336989e+001
 2.645509265729889e+000	 1.615945767940529e+000	 1.171170125200759e+001
 2.628861916023877e+000	 1.642889231344602e+000	 1.171803846039260e+001
 2.611920292619992e+000	 1.669692302489857e+000	 1.172460043032867e+001
 2.594686084779988e+000	 1.696350235491580e+000	 1.173008049121775e+001
 2.775887521361062e+000	 1.435295603294094e+000	 1.173395037981369e+001
 2.761221548889481e+000	 1.463311504092165e+000	 1.171197131938954e+001
 2.746249870027555e+000	 1.491219853480195e+000	 1.169677060827346e+001
 2.730973472242002e+000	 1.519015764873184e+000	 1.168767082114929e+001
 2.715393445106724e+000	 1.546694358391633e+000	 1.168389612079209e+001
 2.699510980468590e+000	 1.574250763483461e+000	 1.168457147835826e+001
 2.683327372533654e+000	 1.601680121560979e+000	 1.168872215107282e+001
 2.666844017872895e+000	 1.628977588650109e+000	 1.169527342382675e+001
 2.650062415346746e+000	 1.656138338049046e+000	 1.170305062047282e+001
 2.632984165947726e+000	 1.683157562993467e+000	 1.171077938985270e+001
 2.615610972560673e+000	 1.710030479325396e+000	 1.171708627079714e+001
 2.798094621531136e+000	 1.446777968121937e+000	 1.171118200935481e+001
 2.783311321280128e+000	 1.475017996126575e+000	 1.168937628000969e+001
 2.768219868987619e+000	 1.503149612309811e+000	 1.167451715671950e+001
 2.752821260020063e+000	 1.531167890993967e+000	 1.166588294771968e+001
 2.737116592667952e+000	 1.559067913260507e+000	 1.166265032004281e+001
 2.721107068312932e+000	 1.586844769592933e+000	 1.166389351997836e+001
 2.704793991514703e+000	 1.614493562534854e+000	 1.166858385860373e+001
 2.688178770016811e+000	 1.642009409360401e+000	 1.167558946904231e+001
 2.671262914670573e+000	 1.669387444754151e+000	 1.168367534136006e+001
 2.654048039276451e+000	 1.696622823497669e+000	 1.169150364023385e+001
 2.636535860342357e+000	 1.723710723159714e+000	 1.169763430971227e+001
 2.820301721701203e+000	 1.458260332950277e+000	 1.169377950762648e+001
 2.805401093670956e+000	 1.486724488161570e+000	 1.167059143038833e+001
 2.790189867948035e+000	 1.515079371140083e+000	 1.165457898188764e+001
 2.774669047798628e+000	 1.543320017115457e+000	 1.164497702162387e+001
 2.758839740229814e+000	 1.571441468130118e+000	 1.164091545281519e+001
 2.742703156158019e+000	 1.599438775703154e+000	 1.164141844128933e+001
 2.726260610496587e+000	 1.627307003509469e+000	 1.164540390726991e+001
 2.709513522161635e+000	 1.655041230071403e+000	 1.165168329686232e+001
 2.692463413995360e+000	 1.682636551459918e+000	 1.165896163927843e+001
 2.675111912606165e+000	 1.710088084002464e+000	 1.166583789503885e+001
 2.657460748125041e+000	 1.737390966994536e+000	 1.167080559955625e+001
 2.842508821871260e+000	 1.469742697779114e+000	 1.168068048177217e+001
 2.827490866061967e+000	 1.498430980197152e+000	 1.165456446218231e+001
 2.812159866908804e+000	 1.527009129971012e+000	 1.163591450069056e+001
 2.796516835577696e+000	 1.555472143237654e+000	 1.162392282243565e+001
 2.780562887792313e+000	 1.583815023000468e+000	 1.161767329457012e+001
 2.764299244003852e+000	 1.612032781814124e+000	 1.161614064183750e+001
 2.747727229479309e+000	 1.640120444484826e+000	 1.161818994302040e+001
 2.730848274307367e+000	 1.668073050783117e+000	 1.162257641521785e+001
 2.713663913321106e+000	 1.695885658166348e+000	 1.162794549212368e+001
 2.696175785936869e+000	 1.723553344507852e+000	 1.163283320165474e+001
 2.678385635908726e+000	 1.751071210829859e+000	 1.163566684741993e+001
 2.864715922041312e+000	 1.481225062608446e+000	 1.167081512517758e+001
 2.849580638453159e+000	 1.510137472233320e+000	 1.164023498816298e+001
 2.834129865869927e+000	 1.538938888802599e+000	 1.161747339256752e+001
 2.818364623357268e+000	 1.567624269360559e+000	 1.160168074054404e+001
 2.802286035355447e+000	 1.596188577871557e+000	 1.159189558708375e+001
 2.785895331850432e+000	 1.624626787925845e+000	 1.158704385052808e+001
 2.769193848462869e+000	 1.652933885460923e+000	 1.158593831208009e+001
 2.752183026454008e+000	 1.681104871495543e+000	 1.158727841143284e+001
 2.734864412647811e+000	 1.709134764873439e+000	 1.158965034482486e+001
 2.717239659268562e+000	 1.737018605013831e+000	 1.159152747098580e+001
 2.699310523693410e+000	 1.764751454665686e+000	 1.159127102955483e+001
 2.886923022211355e+000	 1.492707427438275e+000	 1.166310650261530e+001
 2.871670410844536e+000	 1.521843964270075e+000	 1.162653485294246e+001
 2.856099864831404e+000	 1.550868647634841e+000	 1.159819693554099e+001
 2.840212411137345e+000	 1.579776395484173e+000	 1.157720213827586e+001
 2.824009182919216e+000	 1.608562132743385e+000	 1.156254442435841e+001
 2.807491419697759e+000	 1.637220794038314e+000	 1.155310153603442e+001
 2.790660467447267e+000	 1.665747326437760e+000	 1.154763449555434e+001
 2.773517778601557e+000	 1.694136692208680e+000	 1.154478741070880e+001
 2.756064911975476e+000	 1.722383871581193e+000	 1.154308759138149e+001
 2.738303532601247e+000	 1.750483865520404e+000	 1.154094598270281e+001
 2.720235411479095e+000	 1.778431698502015e+000	 1.153665791948226e+001
 2.510986533667252e+000	 1.641629260161343e+000	 1.173532684631196e+001
 2.494026854062975e+000	 1.667282235046092e+000	 1.198346725694872e+001
 2.476787589899573e+000	 1.692785643433693e+000	 1.215536475920266e+001
 2.459270667218596e+000	 1.718134973003829e+000	 1.229901762703867e+001
 2.441478108159864e+000	 1.743325743364769e+000	 1.241317189207473e+001
 2.423412030331897e+000	 1.768353508590088e+000	 1.249659123215129e+001
 2.405074646102547e+000	 1.793213859741616e+000	 1.254805819096372e+001
 2.386468261810128e+000	 1.817902427375696e+000	 1.256637539648875e+001
 2.367595276895474e+000	 1.842414884029853e+000	 1.255036677660302e+001
 2.348458182955457e+000	 1.866746946686970e+000	 1.249887877025244e+001
 2.329059562718645e+000	 1.890894379214094e+000	 1.252015684909313e+001
 2.531911421443936e+000	 1.655309503993148e+000	 1.173928012938695e+001
 2.514810411176357e+000	 1.681176253668529e+000	 1.197081482355768e+001
 2.497427486478374e+000	 1.706892190459319e+000	 1.215959041255749e+001
 2.479764589441885e+000	 1.732452764442532e+000	 1.225775327531615e+001
 2.461823759057878e+000	 1.757853457889840e+000	 1.232778987973380e+001
 2.443607130581607e+000	 1.783089787825432e+000	 1.236860343035040e+001
 2.425116934817322e+000	 1.808157308569985e+000	 1.237911484247021e+001
 2.406355497322827e+000	 1.833051614267811e+000	 1.235826380473696e+001
 2.387325237534295e+000	 1.857768341394250e+000	 1.230500984021954e+001
 2.368028667811903e+000	 1.882303171240376e+000	 1.226343239185218e+001
 2.348468392406961e+000	 1.906651832372125e+000	 1.230547369518156e+001
 2.552836309221620e+000	 1.668989747825456e+000	 1.174029680860004e+001
 2.535593968290734e+000	 1.695070272291373e+000	 1.193320287717089e+001
 2.518067383058155e+000	 1.720998737485267e+000	 1.209571688844592e+001
 2.500258511666131e+000	 1.746770555881482e+000	 1.222473015850499e+001
 2.482169409956812e+000	 1.772381172415094e+000	 1.225489897149823e+001
 2.463802230832191e+000	 1.797826067060902e+000	 1.225634354263615e+001
 2.445159223532919e+000	 1.823100757398434e+000	 1.222910665384314e+001
 2.426242732836283e+000	 1.848200801159972e+000	 1.217226350785918e+001
 2.407055198173796e+000	 1.873121798758668e+000	 1.208490768325691e+001
 2.387599152668946e+000	 1.897859395793786e+000	 1.209978174504624e+001
 2.367877222095776e+000	 1.922409285530155e+000	 1.211229525520976e+001
 2.573761197000304e+000	 1.682669991658267e+000	 1.173752111420792e+001
 2.556377525406104e+000	 1.708964290914625e+000	 1.189512154883527e+001
 2.538707279638917e+000	 1.735105284511537e+000	 1.202433221392004e+001
 2.520752433891332e+000	 1.761088347320680e+000	 1.212213392344486e+001
 2.502515060856666e+000	 1.786908886940528e+000	 1.218543426757120e+001
 2.483997331083652e+000	 1.812562346296498e+000	 1.215964525014827e+001
 2.465201512249337e+000	 1.838044206226964e+000	 1.209778335119636e+001
 2.446129968350495e+000	 1.863349988052179e+000	 1.200804122293925e+001
 2.426785158813979e+000	 1.888475256123106e+000	 1.195767645004794e+001
 2.407169637526585e+000	 1.913415620347201e+000	 1.195340985900555e+001
 2.387286051785095e+000	 1.938166738688187e+000	 1.193964354317206e+001
 2.594686084779988e+000	 1.696350235491580e+000	 1.173008049121775e+001
 2.577161082522472e+000	 1.722858309538284e+000	 1.185561268798467e+001
 2.559347176220658e+000	 1.749211831538130e+000	 1.195478293126666e+001
 2.541246356117488e+000	 1.775406138760124e+000	 1.202465937326159e+001
 2.522860711757442e+000	 1.801436601466145e+000	 1.206223272315235e+001
 2.504192431335988e+000	 1.827298625532221e+000	 1.206441965291131e+001
 2.485243800966575e+000	 1.852987655055575e+000	 1.198489415431243e+001
 2.466017203865462e+000	 1.878499174944431e+000	 1.187991700436544e+001
 2.446515119454843e+000	 1.903828713487564e+000	 1.185379383053756e+001
 2.426740122384820e+000	 1.928971844900622e+000	 1.182341938631522e+001
 2.406694881474913e+000	 1.953924191846217e+000	 1.178655041811205e+001
 2.615610972560673e+000	 1.710030479325396e+000	 1.171708627079714e+001
 2.597944639639833e+000	 1.736752328162351e+000	 1.181370468534228e+001
 2.579987072803379e+000	 1.763318378565045e+000	 1.188601593363001e+001
 2.561740278344600e+000	 1.789723930199816e+000	 1.193117338388688e+001
 2.543206362659138e+000	 1.815964315991943e+000	 1.194624866359402e+001
 2.524387531589200e+000	 1.842034904768069e+000	 1.192823496929031e+001
 2.505286089684636e+000	 1.867931103884267e+000	 1.187405065395972e+001
 2.485904439381187e+000	 1.893648361836729e+000	 1.181432016405679e+001
 2.466245080096388e+000	 1.919182170852043e+000	 1.176228557608556e+001
 2.446310607243651e+000	 1.944528069454047e+000	 1.170891998825742e+001
 2.426103711165233e+000	 1.969681645004247e+000	 1.165205719032069e+001
 2.636535860342357e+000	 1.723710723159714e+000	 1.169763430971227e+001
 2.618728196758190e+000	 1.750646346786826e+000	 1.176841300699626e+001
 2.600626969387082e+000	 1.777424925592283e+000	 1.181696772155636e+001
 2.582234200572667e+000	 1.804041721639754e+000	 1.184053495170442e+001
 2.563552013561753e+000	 1.830492030517922e+000	 1.183626507754059e+001
 2.544582631843289e+000	 1.856771184004044e+000	 1.180122557654723e+001
 2.525328378403515e+000	 1.882874552713040e+000	 1.175501899387809e+001
 2.505791674897666e+000	 1.908797548729072e+000	 1.174123332813402e+001
 2.485975040738615e+000	 1.934535628216541e+000	 1.168233537022377e+001
 2.465881092103079e+000	 1.960084294007477e+000	 1.160902805668845e+001
 2.445512540856055e+000	 1.985439098162278e+000	 1.153521424628672e+001
 2.657460748125041e+000	 1.737390966994536e+000	 1.167080559955625e+001
 2.639511753877541e+000	 1.764540365411708e+000	 1.171874070324374e+001
 2.621266865971764e+000	 1.791531472619843e+000	 1.174656481215138e+001
 2.602728122801689e+000	 1.818359513079940e+000	 1.175159550376839e+001
 2.583897664465291e+000	 1.845019745044084e+000	 1.173105977897677e+001
 2.564777732098252e+000	 1.871507463240145e+000	 1.168209718519405e+001
 2.545370667123217e+000	 1.897818001541894e+000	 1.165915832241523e+001
 2.525678910414902e+000	 1.923946735621460e+000	 1.163414287023974e+001
 2.505705001381524e+000	 1.949889085581060e+000	 1.159907203974107e+001
 2.485451576963103e+000	 1.975640518560913e+000	 1.152286644905558e+001
 2.464921370547378e+000	 2.001196551320309e+000	 1.143508069136606e+001
 2.678385635908726e+000	 1.751071210829859e+000	 1.163566684741993e+001
 2.660295310997888e+000	 1.778434384036998e+000	 1.166367889358268e+001
 2.641906762557427e+000	 1.805638019647725e+000	 1.167372412905832e+001
 2.623222045031667e+000	 1.832677304520372e+000	 1.166319919348034e+001
 2.604243315369748e+000	 1.859547459570427e+000	 1.162940560936275e+001
 2.584972832354091e+000	 1.886243742476373e+000	 1.158935622942529e+001
 2.565412955843738e+000	 1.912761450370828e+000	 1.156356248117928e+001
 2.545566145932895e+000	 1.939095922513895e+000	 1.153030915527104e+001
 2.525434962025113e+000	 1.965242542945600e+000	 1.148891077160954e+001
 2.505022061823724e+000	 1.991196743114353e+000	 1.143869041060620e+001
 2.484330200239203e+000	 2.016954004478340e+000	 1.135072400920110e+001
 2.699310523693410e+000	 1.764751454665686e+000	 1.159127102955483e+001
 2.681078868119230e+000	 1.792328402662695e+000	 1.160220722914584e+001
 2.662546659144069e+000	 1.819744566675930e+000	 1.159735337429759e+001
 2.643715967262600e+000	 1.846995095961051e+000	 1.157418318251367e+001
 2.624588966275126e+000	 1.874075174096952e+000	 1.153007063036783e+001
 2.605167932610806e+000	 1.900980021712726e+000	 1.150125995563331e+001
 2.585455244565083e+000	 1.927704899199844e+000	 1.146838530447792e+001
 2.565453381451643e+000	 1.954245109406375e+000	 1.142982052610865e+001
 2.545164922669383e+000	 1.980596000310159e+000	 1.138498750440012e+001
 2.524592546684941e+000	 2.006752967667799e+000	 1.133331550144993e+001
 2.503739029931528e+000	 2.032711457636371e+000	 1.127424212644876e+001
 2.720235411479095e+000	 1.778431698502015e+000	 1.153665791948226e+001
 2.701862425241567e+000	 1.806222421288800e+000	 1.153329433379181e+001
 2.683186555731693e+000	 1.833851113704457e+000	 1.151635138294457e+001
 2.664209889494488e+000	 1.861312887401978e+000	 1.148337790972632e+001
 2.644934617181425e+000	 1.888602888623658e+000	 1.144442841666042e+001
 2.625363032868398e+000	 1.915716300949207e+000	 1.141084147488979e+001
 2.605497533287247e+000	 1.942648348028941e+000	 1.137378022835524e+001
 2.585340616971148e+000	 1.969394296298900e+000	 1.133276699609794e+001
 2.564894883314335e+000	 1.995949457674740e+000	 1.128732944041433e+001
 2.544163031546755e+000	 2.022309192221251e+000	 1.123700143888066e+001
 2.523147859624355e+000	 2.048468910794402e+000	 1.118132394389747e+001
 2.329059562718645e+000	 1.890894379214094e+000	 1.252015684909313e+001
 2.309402088944092e+000	 1.914852994773596e+000	 1.234679247358920e+001
 2.289488523243476e+000	 1.938618658202153e+000	 1.218040585452683e+001
 2.269321714828176e+000	 1.962187288355787e+000	 1.202005302374700e+001
 2.248904599182742e+000	 1.985554860419452e+000	 1.186474877432642e+001
 2.228240196665399e+000	 2.008717408176743e+000	 1.171346913452024e+001
 2.207331611037153e+000	 2.031671026237589e+000	 1.156515396303422e+001
 2.186182027921017e+000	 2.054411872221357e+000	 1.141870965913799e+001
 2.164794713192912e+000	 2.076936168892773e+000	 1.127301198073251e+001
 2.143173011305966e+000	 2.099240206248227e+000	 1.112690896310719e+001
 2.121320343550000e+000	 2.121320343550000e+000	 1.097922393077160e+001
 2.348468392406961e+000	 1.906651832372125e+000	 1.230547369518156e+001
 2.328647106351446e+000	 1.930810103061539e+000	 1.214233408972423e+001
 2.308567594270409e+000	 1.954773813685585e+000	 1.198657958589107e+001
 2.288232729118653e+000	 1.978538849090749e+000	 1.183721394656410e+001
 2.267645470843101e+000	 2.002101150921862e+000	 1.169319816819278e+001
 2.246808864971628e+000	 2.025456719910714e+000	 1.155345304524541e+001
 2.225726041129918e+000	 2.048601618122318e+000	 1.141686185980224e+001
 2.204400211487839e+000	 2.071531971156200e+000	 1.128227318959291e+001
 2.182834669136945e+000	 2.094243970300128e+000	 1.114850382736993e+001
 2.161032786400810e+000	 2.116733874633796e+000	 1.101434180412249e+001
 2.138998013080000e+000	 2.138998013080000e+000	 1.087854950827247e+001
 2.367877222095776e+000	 1.922409285530155e+000	 1.211229525520976e+001
 2.347892123759207e+000	 1.946767211349483e+000	 1.195929131736222e+001
 2.327646665297662e+000	 1.970928969169017e+000	 1.181410676404362e+001
 2.307143743409376e+000	 1.994890409825711e+000	 1.167569222169819e+001
 2.286386342503640e+000	 2.018647441424272e+000	 1.154295397969190e+001
 2.265377533277983e+000	 2.042196031644684e+000	 1.141475664677037e+001
 2.244120471222762e+000	 2.065532210007047e+000	 1.128992593655738e+001
 2.222618395054706e+000	 2.088652070091044e+000	 1.116725157518365e+001
 2.200874625080999e+000	 2.111551771707485e+000	 1.104549032371331e+001
 2.178892561495658e+000	 2.134227543019364e+000	 1.092336910763642e+001
 2.156675682610000e+000	 2.156675682610000e+000	 1.079958824532283e+001
 2.387286051785095e+000	 1.938166738688187e+000	 1.193964354317206e+001
 2.367137141167375e+000	 1.962724319637426e+000	 1.179669706443054e+001
 2.346725736325238e+000	 1.987084124652448e+000	 1.166203155270486e+001
 2.326054757700345e+000	 2.011241970560673e+000	 1.153454361787896e+001
 2.305127214164361e+000	 2.035193731926682e+000	 1.141308391868337e+001
 2.283946201584464e+000	 2.058935343378656e+000	 1.129645991267469e+001
 2.262514901315687e+000	 2.082462801891776e+000	 1.118343873924151e+001
 2.240836578621618e+000	 2.105772169025888e+000	 1.107275022851088e+001
 2.218914581025073e+000	 2.128859573114841e+000	 1.096309002859403e+001
 2.196752336590512e+000	 2.151721211404932e+000	 1.085312284319987e+001
 2.174353352140000e+000	 2.174353352140000e+000	 1.074148577126136e+001
 2.406694881474913e+000	 1.953924191846217e+000	 1.178655041811205e+001
 2.386382158575948e+000	 1.978681427925369e+000	 1.165359392517284e+001
 2.365804807353134e+000	 2.003239280135879e+000	 1.152940764529068e+001
 2.344965771991560e+000	 2.027593531295636e+000	 1.141283327910143e+001
 2.323868085825262e+000	 2.051740022429092e+000	 1.130266491812962e+001
 2.302514869891070e+000	 2.075674655112627e+000	 1.119765188982140e+001
 2.280909331408693e+000	 2.099393393776504e+000	 1.109650173967821e+001
 2.259054762188574e+000	 2.122892267960731e+000	 1.099788334314557e+001
 2.236954536969167e+000	 2.146167374522197e+000	 1.090043013946395e+001
 2.214612111685371e+000	 2.169214879790501e+000	 1.080274347926591e+001
 2.192031021670000e+000	 2.192031021670000e+000	 1.070339607731008e+001
 2.426103711165233e+000	 1.969681645004247e+000	 1.165205719032069e+001
 2.405627175984928e+000	 1.994638536213313e+000	 1.152903379269641e+001
 2.384883878381352e+000	 2.019394435619311e+000	 1.141529788372471e+001
 2.363876786283021e+000	 2.043945092030598e+000	 1.130963534961543e+001
 2.342608957486344e+000	 2.068286312931502e+000	 1.121078276517176e+001
 2.321083538197802e+000	 2.092413966846599e+000	 1.111743033542571e+001
 2.299303761501779e+000	 2.116323985661233e+000	 1.102822497853745e+001
 2.277272945755577e+000	 2.140012366895575e+000	 1.094177354239015e+001
 2.254994492913282e+000	 2.163475175929552e+000	 1.085664614685075e+001
 2.232471886780234e+000	 2.186708548176069e+000	 1.077137964323378e+001
 2.209708691200000e+000	 2.209708691200000e+000	 1.068448118209897e+001
 2.445512540856055e+000	 1.985439098162278e+000	 1.153521424628672e+001
 2.424872193394315e+000	 2.010595644501256e+000	 1.142207748996962e+001
 2.403962949409890e+000	 2.035549591102742e+000	 1.131877389540235e+001
 2.382787800574729e+000	 2.060296652765560e+000	 1.122403261677265e+001
 2.361349829147607e+000	 2.084832603433911e+000	 1.113653174977332e+001
 2.339652206504660e+000	 2.109153278580569e+000	 1.105490137140601e+001
 2.317698191594945e+000	 2.133254577545962e+000	 1.097772672530207e+001
 2.295491129322625e+000	 2.157132465830419e+000	 1.090355154476532e+001
 2.273034448857415e+000	 2.180782977336909e+000	 1.083088150526743e+001
 2.250331661875104e+000	 2.204202216561638e+000	 1.075818779768106e+001
 2.227386360730000e+000	 2.227386360730000e+000	 1.068391081311809e+001
 2.464921370547378e+000	 2.001196551320309e+000	 1.143508069136606e+001
 2.444117210804107e+000	 2.026552752789199e+000	 1.133179441825265e+001
 2.423042020438750e+000	 2.051704746586175e+000	 1.123891574730598e+001
 2.401698814866681e+000	 2.076648213500522e+000	 1.115511617074696e+001
 2.380090700809050e+000	 2.101378893936321e+000	 1.107901432996344e+001
 2.358220874811643e+000	 2.125892590314541e+000	 1.100917915506497e+001
 2.336092621688192e+000	 2.150185169430690e+000	 1.094413315429874e+001
 2.313709312889718e+000	 2.174252564765263e+000	 1.088235584530075e+001
 2.291074404801570e+000	 2.198090778744265e+000	 1.082228731966972e+001
 2.268191436969977e+000	 2.221695884947206e+000	 1.076233193189223e+001
 2.245064030260000e+000	 2.245064030260000e+000	 1.070086210321911e+001
 2.484330200239203e+000	 2.016954004478340e+000	 1.135072400920110e+001
 2.463362228214306e+000	 2.042509861077142e+000	 1.125726222200789e+001
 2.442121091467931e+000	 2.067859902069606e+000	 1.117481161633363e+001
 2.420609829158880e+000	 2.092999774235484e+000	 1.110198508020554e+001
 2.398831572470674e+000	 2.117925184438732e+000	 1.103734081277185e+001
 2.376789543118751e+000	 2.142631902048512e+000	 1.097938556520725e+001
 2.354487051781519e+000	 2.167115761315419e+000	 1.092657803591490e+001
 2.331927496456856e+000	 2.191372663700107e+000	 1.087733241176514e+001
 2.309114360745745e+000	 2.215398580151621e+000	 1.083002204661064e+001
 2.286051212064856e+000	 2.239189553332774e+000	 1.078298326784657e+001
 2.262741699790000e+000	 2.262741699790000e+000	 1.073451930134335e+001
 2.503739029931528e+000	 2.032711457636371e+000	 1.127424212644876e+001
 2.482607245624910e+000	 2.058466969365085e+000	 1.119756646939605e+001
 2.461200162497433e+000	 2.084015057553037e+000	 1.112555747496118e+001
 2.439520843451326e+000	 2.109351334970447e+000	 1.106374608306483e+001
 2.417572444132480e+000	 2.134471474941141e+000	 1.101062905000400e+001
 2.395358211425986e+000	 2.159371213782483e+000	 1.096464990285654e+001
 2.372881481874926e+000	 2.184046353200148e+000	 1.092420244217802e+001
 2.350145680024039e+000	 2.208492762634951e+000	 1.088763439502518e+001
 2.327154316689939e+000	 2.232706381558977e+000	 1.085325120929477e+001
 2.303910987159740e+000	 2.256683221718343e+000	 1.081931997988119e+001
 2.280419369320000e+000	 2.280419369320000e+000	 1.078407349670442e+001
 2.523147859624355e+000	 2.048468910794402e+000	 1.118132394389747e+001
 2.501852263035922e+000	 2.074424077653029e+000	 1.114889393659298e+001
 2.480279233527257e+000	 2.100170213036469e+000	 1.109025679141243e+001
 2.458431857744017e+000	 2.125702895705409e+000	 1.103951329151949e+001
 2.436313315794466e+000	 2.151017765443552e+000	 1.099800414805737e+001
 2.413926879733346e+000	 2.176110525516454e+000	 1.096410860578557e+001
 2.391275911968414e+000	 2.200976945084877e+000	 1.093615446592308e+001
 2.368363863591268e+000	 2.225612861569795e+000	 1.091242185277262e+001
 2.345194272634154e+000	 2.250014182966334e+000	 1.089114712578413e+001
 2.321770762254630e+000	 2.274176890103913e+000	 1.087052692729267e+001
 2.298097038850000e+000	 2.298097038850000e+000	 1.084872235570076e+001
 2.121320343550000e+000	 2.121320343550000e+000	 1.097922393077160e+001
 2.099240206248228e+000	 2.143173011305966e+000	 1.102634727222358e+001
 2.076936168892773e+000	 2.164794713192911e+000	 1.108238551776421e+001
 2.054411872221356e+000	 2.186182027921017e+000	 1.114677212864899e+001
 2.031671026237590e+000	 2.207331611037154e+000	 1.121891340149340e+001
 2.008717408176743e+000	 2.228240196665399e+000	 1.129819111933290e+001
 1.985554860419452e+000	 2.248904599182742e+000	 1.138396526689420e+001
 1.962187288355787e+000	 2.269321714828175e+000	 1.147557680191597e+001
 1.938618658202153e+000	 2.289488523243476e+000	 1.157235047419373e+001
 1.914852994773596e+000	 2.309402088944092e+000	 1.167359768389064e+001
 1.890894379214094e+000	 2.329059562718646e+000	 1.177861937055469e+001
 2.138998013080000e+000	 2.138998013080000e+000	 1.087854950827247e+001
 2.116733874633795e+000	 2.161032786400810e+000	 1.095197832694553e+001
 2.094243970300128e+000	 2.182834669136945e+000	 1.103009655717201e+001
 2.071531971156200e+000	 2.204400211487839e+000	 1.111212109124893e+001
 2.048601618122318e+000	 2.225726041129918e+000	 1.119724519414208e+001
 2.025456719910714e+000	 2.246808864971628e+000	 1.128464142862726e+001
 2.002101150921862e+000	 2.267645470843101e+000	 1.137346464019932e+001
 1.978538849090749e+000	 2.288232729118653e+000	 1.146285499305258e+001
 1.954773813685585e+000	 2.308567594270409e+000	 1.155194104828122e+001
 1.930810103061539e+000	 2.328647106351446e+000	 1.163984287532805e+001
 1.906651832372125e+000	 2.348468392406962e+000	 1.172567518762060e+001
 2.156675682610000e+000	 2.156675682610000e+000	 1.079958824532283e+001
 2.134227543019364e+000	 2.178892561495658e+000	 1.089536608052639e+001
 2.111551771707485e+000	 2.200874625080999e+000	 1.099169019498462e+001
 2.088652070091043e+000	 2.222618395054705e+000	 1.108756161853982e+001
 2.065532210007047e+000	 2.244120471222762e+000	 1.118196122190521e+001
 2.042196031644685e+000	 2.265377533277983e+000	 1.127385291642239e+001
 2.018647441424272e+000	 2.286386342503640e+000	 1.136218690924361e+001
 1.994890409825711e+000	 2.307143743409375e+000	 1.144590300470392e+001
 1.970928969169016e+000	 2.327646665297662e+000	 1.152393394250409e+001
 1.946767211349483e+000	 2.347892123759207e+000	 1.159520876321459e+001
 1.922409285530155e+000	 2.367877222095777e+000	 1.165865619153528e+001
 2.174353352140000e+000	 2.174353352140000e+000	 1.074148577126136e+001
 2.151721211404932e+000	 2.196752336590512e+000	 1.085576988169873e+001
 2.128859573114841e+000	 2.218914581025073e+000	 1.096653811091531e+001
 2.105772169025888e+000	 2.240836578621618e+000	 1.107257626950715e+001
 2.082462801891776e+000	 2.262514901315687e+000	 1.117265340887516e+001
 2.058935343378656e+000	 2.283946201584464e+000	 1.126552529619751e+001
 2.035193731926682e+000	 2.305127214164361e+000	 1.134993794058333e+001
 2.011241970560673e+000	 2.326054757700345e+000	 1.142463116063074e+001
 1.987084124652448e+000	 2.346725736325238e+000	 1.148834218347919e+001
 1.962724319637426e+000	 2.367137141167375e+000	 1.153980926534512e+001
 1.938166738688187e+000	 2.387286051785094e+000	 1.157777532346788e+001
 2.192031021670000e+000	 2.192031021670000e+000	 1.070339607731008e+001
 2.169214879790501e+000	 2.214612111685371e+000	 1.083245408662285e+001
 2.146167374522197e+000	 2.236954536969167e+000	 1.095401369227714e+001
 2.122892267960732e+000	 2.259054762188575e+000	 1.106664606711460e+001
 2.099393393776504e+000	 2.280909331408693e+000	 1.116890895724864e+001
 2.075674655112627e+000	 2.302514869891070e+000	 1.125935043291381e+001
 2.051740022429092e+000	 2.323868085825262e+000	 1.133651268634969e+001
 2.027593531295636e+000	 2.344965771991560e+000	 1.139893586639995e+001
 2.003239280135879e+000	 2.365804807353134e+000	 1.144516193937989e+001
 1.978681427925369e+000	 2.386382158575948e+000	 1.147373856567854e+001
 1.953924191846217e+000	 2.406694881474913e+000	 1.148322298150965e+001
 2.209708691200000e+000	 2.209708691200000e+000	 1.068448118209897e+001
 2.186708548176069e+000	 2.232471886780235e+000	 1.082468785858976e+001
 2.163475175929553e+000	 2.254994492913281e+000	 1.095349196567908e+001
 2.140012366895575e+000	 2.277272945755577e+000	 1.106925055974474e+001
 2.116323985661233e+000	 2.299303761501779e+000	 1.117031053620261e+001
 2.092413966846598e+000	 2.321083538197802e+000	 1.125501265695515e+001
 2.068286312931502e+000	 2.342608957486344e+000	 1.132169562082582e+001
 2.043945092030598e+000	 2.363876786283021e+000	 1.136870016611223e+001
 2.019394435619311e+000	 2.384883878381352e+000	 1.139437319427377e+001
 1.994638536213312e+000	 2.405627175984928e+000	 1.139707190369114e+001
 1.969681645004248e+000	 2.426103711165233e+000	 1.137516792239712e+001
 2.227386360730000e+000	 2.227386360730000e+000	 1.068391081311809e+001
 2.204202216561638e+000	 2.250331661875104e+000	 1.083174497726195e+001
 2.180782977336909e+000	 2.273034448857415e+000	 1.096434953197445e+001
 2.157132465830419e+000	 2.295491129322625e+000	 1.107986787971432e+001
 2.133254577545962e+000	 2.317698191594946e+000	 1.117643646177592e+001
 2.109153278580569e+000	 2.339652206504660e+000	 1.125218906311941e+001
 2.084832603433911e+000	 2.361349829147606e+000	 1.130526115623436e+001
 2.060296652765560e+000	 2.382787800574728e+000	 1.133379427261900e+001
 2.035549591102742e+000	 2.403962949409890e+000	 1.133594039034907e+001
 2.010595644501256e+000	 2.424872193394315e+000	 1.130986632614190e+001
 1.985439098162278e+000	 2.445512540856055e+000	 1.125375812029602e+001
 2.245064030260000e+000	 2.245064030260000e+000	 1.070086210321911e+001
 2.221695884947205e+000	 2.268191436969977e+000	 1.085290365692650e+001
 2.198090778744265e+000	 2.291074404801570e+000	 1.098596450428289e+001
 2.174252564765263e+000	 2.313709312889717e+000	 1.109797479902482e+001
 2.150185169430690e+000	 2.336092621688192e+000	 1.118686086825272e+001
 2.125892590314540e+000	 2.358220874811642e+000	 1.125054979548381e+001
 2.101378893936321e+000	 2.380090700809050e+000	 1.128697403888153e+001
 2.076648213500522e+000	 2.401698814866680e+000	 1.129407607268973e+001
 2.051704746586174e+000	 2.423042020438750e+000	 1.126981303979968e+001
 2.026552752789199e+000	 2.444117210804107e+000	 1.121216140332108e+001
 2.001196551320309e+000	 2.464921370547378e+000	 1.111912158501267e+001
 2.262741699790000e+000	 2.262741699790000e+000	 1.073451930134335e+001
 2.239189553332774e+000	 2.286051212064856e+000	 1.088744637326764e+001
 2.215398580151621e+000	 2.309114360745745e+000	 1.101771644891740e+001
 2.191372663700107e+000	 2.331927496456856e+000	 1.112304678249973e+001
 2.167115761315419e+000	 2.354487051781518e+000	 1.120115387151227e+001
 2.142631902048512e+000	 2.376789543118751e+000	 1.124975831891765e+001
 2.117925184438731e+000	 2.398831572470674e+000	 1.126658972673213e+001
 2.092999774235484e+000	 2.420609829158880e+000	 1.124939160849942e+001
 2.067859902069606e+000	 2.442121091467931e+000	 1.119592630802807e+001
 2.042509861077142e+000	 2.463362228214305e+000	 1.110397991172484e+001
 2.016954004478340e+000	 2.484330200239203e+000	 1.097136714185181e+001
 2.280419369320000e+000	 2.280419369320000e+000	 1.078407349670442e+001
 2.256683221718343e+000	 2.303910987159740e+000	 1.093465969819617e+001
 2.232706381558977e+000	 2.327154316689938e+000	 1.105898632905903e+001
 2.208492762634950e+000	 2.350145680024038e+000	 1.115455803845044e+001
 2.184046353200148e+000	 2.372881481874926e+000	 1.121888172478110e+001
 2.159371213782483e+000	 2.395358211425986e+000	 1.124947167796619e+001
 2.134471474941142e+000	 2.417572444132480e+000	 1.124385474942261e+001
 2.109351334970446e+000	 2.439520843451325e+000	 1.119957553672150e+001
 2.084015057553037e+000	 2.461200162497433e+000	 1.111420156972243e+001
 2.058466969365085e+000	 2.482607245624910e+000	 1.098532848497746e+001
 2.032711457636371e+000	 2.503739029931528e+000	 1.084113392482091e+001
 2.298097038850000e+000	 2.298097038850000e+000	 1.084872235570076e+001
 2.274176890103912e+000	 2.321770762254630e+000	 1.099383414230238e+001
 2.250014182966333e+000	 2.345194272634154e+000	 1.110915645103124e+001
 2.225612861569795e+000	 2.368363863591268e+000	 1.119198156700359e+001
 2.200976945084877e+000	 2.391275911968415e+000	 1.123960696719650e+001
 2.176110525516454e+000	 2.413926879733345e+000	 1.124934074378635e+001
 2.151017765443552e+000	 2.436313315794466e+000	 1.121850705165839e+001
 2.125702895705410e+000	 2.458431857744016e+000	 1.114445156643168e+001
 2.100170213036469e+000	 2.480279233527257e+000	 1.102454693926873e+001
 2.074424077653029e+000	 2.501852263035922e+000	 1.086902153973364e+001
 2.048468910794402e+000	 2.523147859624355e+000	 1.081551055965858e+001
 1.890894379214094e+000	 2.329059562718646e+000	 1.177861937055469e+001
 1.866746946686970e+000	 2.348458182955457e+000	 1.196850816606990e+001
 1.842414884029853e+000	 2.367595276895474e+000	 1.207124791294565e+001
 1.817902427375696e+000	 2.386468261810128e+000	 1.212092520754211e+001
 1.793213859741616e+000	 2.405074646102547e+000	 1.211677892626386e+001
 1.768353508590088e+000	 2.423412030331897e+000	 1.205810129236371e+001
 1.743325743364769e+000	 2.441478108159864e+000	 1.194423865537007e+001
 1.718134973003829e+000	 2.459270667218596e+000	 1.177459220602320e+001
 1.692785643433693e+000	 2.476787589899573e+000	 1.154861862533411e+001
 1.667282235046092e+000	 2.494026854062976e+000	 1.126583066650559e+001
 1.641629260161343e+000	 2.510986533667252e+000	 1.115790165493465e+001
 1.906651832372125e+000	 2.348468392406962e+000	 1.172567518762060e+001
 1.882303171240375e+000	 2.368028667811902e+000	 1.185402632805996e+001
 1.857768341394251e+000	 2.387325237534294e+000	 1.188891207900452e+001
 1.833051614267811e+000	 2.406355497322827e+000	 1.186083520756563e+001
 1.808157308569985e+000	 2.425116934817322e+000	 1.178434487720416e+001
 1.783089787825431e+000	 2.443607130581606e+000	 1.165891975884651e+001
 1.757853457889840e+000	 2.461823759057878e+000	 1.148408634266583e+001
 1.732452764442532e+000	 2.479764589441885e+000	 1.125941950709743e+001
 1.706892190459319e+000	 2.497427486478374e+000	 1.098454303169144e+001
 1.681176253668529e+000	 2.514810411176357e+000	 1.095553475329074e+001
 1.655309503993148e+000	 2.531911421443936e+000	 1.094454137929805e+001
 1.922409285530155e+000	 2.367877222095777e+000	 1.165865619153528e+001
 1.897859395793785e+000	 2.387599152668946e+000	 1.171572415414318e+001
 1.873121798758668e+000	 2.407055198173796e+000	 1.170964205624972e+001
 1.848200801159972e+000	 2.426242732836283e+000	 1.160864461388412e+001
 1.823100757398434e+000	 2.445159223532919e+000	 1.146454504291173e+001
 1.797826067060902e+000	 2.463802230832191e+000	 1.127700627288369e+001
 1.772381172415094e+000	 2.482169409956812e+000	 1.104573281180792e+001
 1.746770555881482e+000	 2.500258511666131e+000	 1.077512905497344e+001
 1.720998737485267e+000	 2.518067383058155e+000	 1.079115146872205e+001
 1.695070272291373e+000	 2.535593968290734e+000	 1.078482392111071e+001
 1.668989747825456e+000	 2.552836309221620e+000	 1.075348870241156e+001
 1.938166738688187e+000	 2.387286051785094e+000	 1.157777532346788e+001
 1.913415620347201e+000	 2.407169637526585e+000	 1.156906514505424e+001
 1.888475256123106e+000	 2.426785158813978e+000	 1.150530188028160e+001
 1.863349988052179e+000	 2.446129968350495e+000	 1.136443975566496e+001
 1.838044206226964e+000	 2.465201512249337e+000	 1.115734704930928e+001
 1.812562346296498e+000	 2.483997331083652e+000	 1.091221234572295e+001
 1.786908886940528e+000	 2.502515060856667e+000	 1.067091961117307e+001
 1.761088347320680e+000	 2.520752433891332e+000	 1.067185615220319e+001
 1.735105284511538e+000	 2.538707279638917e+000	 1.065942032534223e+001
 1.708964290914625e+000	 2.556377525406104e+000	 1.063097158664893e+001
 1.682669991658267e+000	 2.573761197000304e+000	 1.058392330719444e+001
 1.953924191846217e+000	 2.406694881474913e+000	 1.148322298150965e+001
 1.928971844900621e+000	 2.426740122384820e+000	 1.141412799748162e+001
 1.903828713487564e+000	 2.446515119454843e+000	 1.129442104404622e+001
 1.878499174944431e+000	 2.466017203865463e+000	 1.112173464582660e+001
 1.852987655055575e+000	 2.485243800966576e+000	 1.086271203178439e+001
 1.827298625532221e+000	 2.504192431335988e+000	 1.062855174985224e+001
 1.801436601466145e+000	 2.522860711757442e+000	 1.060423586262107e+001
 1.775406138760124e+000	 2.541246356117489e+000	 1.057531469423887e+001
 1.749211831538130e+000	 2.559347176220658e+000	 1.053917832553834e+001
 1.722858309538284e+000	 2.577161082522472e+000	 1.049325974657137e+001
 1.696350235491580e+000	 2.594686084779988e+000	 1.043504003980869e+001
 1.969681645004248e+000	 2.426103711165233e+000	 1.137516792239712e+001
 1.944528069454047e+000	 2.446310607243651e+000	 1.125097372851817e+001
 1.919182170852043e+000	 2.466245080096388e+000	 1.108052023756438e+001
 1.893648361836729e+000	 2.485904439381185e+000	 1.086155738118133e+001
 1.867931103884267e+000	 2.505286089684635e+000	 1.065369500185550e+001
 1.842034904768069e+000	 2.524387531589201e+000	 1.059436824434736e+001
 1.815964315991943e+000	 2.543206362659138e+000	 1.053898296623992e+001
 1.789723930199816e+000	 2.561740278344599e+000	 1.048497329424870e+001
 1.763318378565046e+000	 2.579987072803380e+000	 1.042980517399423e+001
 1.736752328162351e+000	 2.597944639639833e+000	 1.037098169491222e+001
 1.710030479325396e+000	 2.615610972560673e+000	 1.030604830312935e+001
 1.985439098162278e+000	 2.445512540856055e+000	 1.125375812029602e+001
 1.960084294007477e+000	 2.465881092103079e+000	 1.107964637723220e+001
 1.934535628216542e+000	 2.485975040738615e+000	 1.086354181292889e+001
 1.908797548729072e+000	 2.505791674897666e+000	 1.067465173706772e+001
 1.882874552713040e+000	 2.525328378403515e+000	 1.063375054114777e+001
 1.856771184004044e+000	 2.544582631843288e+000	 1.055640085203446e+001
 1.830492030517922e+000	 2.563552013561753e+000	 1.047472189874402e+001
 1.804041721639754e+000	 2.582234200572666e+000	 1.040030491387420e+001
 1.777424925592283e+000	 2.600626969387082e+000	 1.033068821382627e+001
 1.750646346786826e+000	 2.618728196758190e+000	 1.026344157476570e+001
 1.723710723159714e+000	 2.636535860342358e+000	 1.019617147909706e+001
 2.001196551320309e+000	 2.464921370547378e+000	 1.111912158501267e+001
 1.975640518560913e+000	 2.485451576963104e+000	 1.090017367309375e+001
 1.949889085581061e+000	 2.505705001381523e+000	 1.070542506195464e+001
 1.923946735621460e+000	 2.525678910414903e+000	 1.064998931743869e+001
 1.897818001541894e+000	 2.545370667123217e+000	 1.058823372111958e+001
 1.871507463240145e+000	 2.564777732098252e+000	 1.051429857071213e+001
 1.845019745044084e+000	 2.583897664465290e+000	 1.041101457877286e+001
 1.818359513079940e+000	 2.602728122801688e+000	 1.032078669203041e+001
 1.791531472619842e+000	 2.621266865971764e+000	 1.024122212585773e+001
 1.764540365411708e+000	 2.639511753877541e+000	 1.016995395115771e+001
 1.737390966994536e+000	 2.657460748125041e+000	 1.010464637836117e+001
 2.016954004478340e+000	 2.484330200239203e+000	 1.097136714185181e+001
 1.991196743114353e+000	 2.505022061823724e+000	 1.076020774271319e+001
 1.965242542945600e+000	 2.525434962025112e+000	 1.068397975110124e+001
 1.939095922513894e+000	 2.545566145932895e+000	 1.060696858441033e+001
 1.912761450370828e+000	 2.565412955843739e+000	 1.052873158830073e+001
 1.886243742476373e+000	 2.584972832354091e+000	 1.044883200056212e+001
 1.859547459570427e+000	 2.604243315369748e+000	 1.034742383009707e+001
 1.832677304520372e+000	 2.623222045031667e+000	 1.024589978173123e+001
 1.805638019647725e+000	 2.641906762557427e+000	 1.016080864198960e+001
 1.778434384036998e+000	 2.660295310997888e+000	 1.008984340393911e+001
 1.751071210829859e+000	 2.678385635908726e+000	 1.003072271572086e+001
 2.032711457636371e+000	 2.503739029931528e+000	 1.084113392482091e+001
 2.006752967667799e+000	 2.524592546684941e+000	 1.073848312196838e+001
 1.980596000310160e+000	 2.545164922669383e+000	 1.064018898928031e+001
 1.954245109406374e+000	 2.565453381451643e+000	 1.054596373726676e+001
 1.927704899199844e+000	 2.585455244565083e+000	 1.045551955595260e+001
 1.900980021712726e+000	 2.605167932610806e+000	 1.036856921902430e+001
 1.874075174096952e+000	 2.624588966275126e+000	 1.028351334653568e+001
 1.846995095961051e+000	 2.643715967262599e+000	 1.017512919450410e+001
 1.819744566675930e+000	 2.662546659144069e+000	 1.008885627190296e+001
 1.792328402662695e+000	 2.681078868119229e+000	 1.002244413961412e+001
 1.764751454665686e+000	 2.699310523693410e+000	 9.973662609964157e+000
 2.048468910794402e+000	 2.523147859624355e+000	 1.081551055965858e+001
 2.022309192221251e+000	 2.544163031546754e+000	 1.069052968048180e+001
 1.995949457674740e+000	 2.564894883314335e+000	 1.057451638608456e+001
 1.969394296298900e+000	 2.585340616971148e+000	 1.046734080427507e+001
 1.942648348028941e+000	 2.605497533287247e+000	 1.036886793209298e+001
 1.915716300949207e+000	 2.625363032868398e+000	 1.027895810769839e+001
 1.888602888623659e+000	 2.644934617181425e+000	 1.019746747189460e+001
 1.861312887401978e+000	 2.664209889494488e+000	 1.010796365198568e+001
 1.833851113704457e+000	 2.683186555731693e+000	 1.002478004237513e+001
 1.806222421288800e+000	 2.701862425241568e+000	 9.967099621084561e+000
 1.778431698502015e+000	 2.720235411479095e+000	 9.932740106791524e+000
 1.641629260161343e+000	 2.510986533667252e+000	 1.115790165493465e+001
 1.615831260481341e+000	 2.527664799318952e+000	 1.101477714433283e+001
 1.589892804533449e+000	 2.544059918741996e+000	 1.087943168600877e+001
 1.563818485109322e+000	 2.560170257166945e+000	 1.075050359668862e+001
 1.537612916702709e+000	 2.575994277640975e+000	 1.062666512361169e+001
 1.511280732947345e+000	 2.591530541258076e+000	 1.050662588415645e+001
 1.484826584058343e+000	 2.606777707310107e+000	 1.038913618002504e+001
 1.458255134279887e+000	 2.621734533359257e+000	 1.027299017844002e+001
 1.431571059341969e+000	 2.636399875232532e+000	 1.015702895330299e+001
 1.404779043928912e+000	 2.650772686938987e+000	 1.004014337977793e+001
 1.377883779162314e+000	 2.664852020510572e+000	 9.921276876291120e+000
 1.655309503993148e+000	 2.531911421443936e+000	 1.094454137929805e+001
 1.629296520982582e+000	 2.548728672642727e+000	 1.081469904489304e+001
 1.603141911235245e+000	 2.565260418061028e+000	 1.069202571547396e+001
 1.576850305816056e+000	 2.581505009306319e+000	 1.057507768401517e+001
 1.550426357672883e+000	 2.597460896617837e+000	 1.046244700973172e+001
 1.523874739053070e+000	 2.613126629098687e+000	 1.035276508527629e+001
 1.497200138923525e+000	 2.628500854868160e+000	 1.024470607366697e+001
 1.470407260397131e+000	 2.643582321134798e+000	 1.013699020716124e+001
 1.443500818168300e+000	 2.658369874190830e+000	 1.002838694080457e+001
 1.416485535960391e+000	 2.672862459328722e+000	 9.917717953912373e+000
 1.389366143987678e+000	 2.687059120680686e+000	 9.803859993289860e+000
 1.668989747825456e+000	 2.552836309221620e+000	 1.075348870241156e+001
 1.642761781484414e+000	 2.569792545967492e+000	 1.063685788995535e+001
 1.616391017937702e+000	 2.586460917381019e+000	 1.052678928442284e+001
 1.589882126523502e+000	 2.602839761446600e+000	 1.042175575636902e+001
 1.563239798643796e+000	 2.618927515595535e+000	 1.032026779518732e+001
 1.536468745159543e+000	 2.634722716940044e+000	 1.022087720618701e+001
 1.509573693789444e+000	 2.650224002426849e+000	 1.012218067250936e+001
 1.482559386515083e+000	 2.665430108910843e+000	 1.002282317385565e+001
 1.455430576995289e+000	 2.680339873149482e+000	 9.921501254529634e+000
 1.428192027992455e+000	 2.694952231718638e+000	 9.816966133844899e+000
 1.400848508813537e+000	 2.709266220850791e+000	 9.708026652511435e+000
 1.682669991658267e+000	 2.573761197000304e+000	 1.058392330719444e+001
 1.656227041986839e+000	 2.590856419293247e+000	 1.048045947302115e+001
 1.629640124640821e+000	 2.607661416701968e+000	 1.038295398734096e+001
 1.602913947231660e+000	 2.624174513587791e+000	 1.028979487677143e+001
 1.576053239615450e+000	 2.640394134574071e+000	 1.019940965665685e+001
 1.549062751266767e+000	 2.656318804782146e+000	 1.011026916036233e+001
 1.521947248656102e+000	 2.671947149986172e+000	 1.002089122844964e+001
 1.494711512633743e+000	 2.687277896687392e+000	 9.929844249460611e+000
 1.467360335822934e+000	 2.702309872108487e+000	 9.835750544581284e+000
 1.439898520025105e+000	 2.717042004108736e+000	 9.737289589024476e+000
 1.412330873639893e+000	 2.731473321020890e+000	 9.633201063551127e+000
 1.696350235491580e+000	 2.594686084779988e+000	 1.043504003980869e+001
 1.669692302489857e+000	 2.611920292619992e+000	 1.034472438162528e+001
 1.642889231344602e+000	 2.628861916023877e+000	 1.025976585166853e+001
 1.615945767940529e+000	 2.645509265729889e+000	 1.017846618839267e+001
 1.588866680587844e+000	 2.661860753553444e+000	 1.009916850657175e+001
 1.561656757374739e+000	 2.677914892624994e+000	 1.002026126117362e+001
 1.534320803523498e+000	 2.693670297546130e+000	 9.940182066092195e+000
 1.506863638753110e+000	 2.709125684464445e+000	 9.857421359212752e+000
 1.479290094651236e+000	 2.724279871067844e+000	 9.770525905849210e+000
 1.451605012058342e+000	 2.739131776499018e+000	 9.678102133174544e+000
 1.423813238466745e+000	 2.753680421190979e+000	 9.578819288866663e+000
 1.710030479325396e+000	 2.615610972560673e+000	 1.030604830312935e+001
 1.683157562993467e+000	 2.632984165947726e+000	 1.022888740557482e+001
 1.656138338049046e+000	 2.650062415346746e+000	 1.015648476048241e+001
 1.628977588650109e+000	 2.666844017872896e+000	 1.008705435134615e+001
 1.601680121560979e+000	 2.683327372533654e+000	 1.001885344368661e+001
 1.574250763483461e+000	 2.699510980468590e+000	 9.950186685894089e+000
 1.546694358391633e+000	 2.715393445106724e+000	 9.879410059840115e+000
 1.519015764873185e+000	 2.730973472242002e+000	 9.804934672476005e+000
 1.491219853480195e+000	 2.746249870027555e+000	 9.725230380218257e+000
 1.463311504092165e+000	 2.761221548889481e+000	 9.638829238522151e+000
 1.435295603294094e+000	 2.775887521361062e+000	 9.544328769663778e+000
 1.723710723159714e+000	 2.636535860342358e+000	 1.019617147909706e+001
 1.696622823497669e+000	 2.654048039276451e+000	 1.013219697336673e+001
 1.669387444754151e+000	 2.671262914670574e+000	 1.007238390266907e+001
 1.642009409360400e+000	 2.688178770016811e+000	 1.001485700630180e+001
 1.614493562534854e+000	 2.704793991514702e+000	 9.957786229812260e+000
 1.586844769592933e+000	 2.721107068312931e+000	 9.899390965226287e+000
 1.559067913260507e+000	 2.737116592667952e+000	 9.837944135887277e+000
 1.531167890993967e+000	 2.752821260020063e+000	 9.771776116863604e+000
 1.503149612309810e+000	 2.768219868987618e+000	 9.699278482481288e+000
 1.475017996126574e+000	 2.783311321280127e+000	 9.618907573158902e+000
 1.446777968121937e+000	 2.798094621531136e+000	 9.529187874358527e+000
 1.737390966994536e+000	 2.657460748125041e+000	 1.010464637836117e+001
 1.710088084002464e+000	 2.675111912606165e+000	 1.005391461523159e+001
 1.682636551459918e+000	 2.692463413995360e+000	 1.000674924907395e+001
 1.655041230071403e+000	 2.709513522161635e+000	 9.961184263440433e+000
 1.627307003509469e+000	 2.726260610496586e+000	 9.915300791270253e+000
 1.599438775703154e+000	 2.742703156158019e+000	 9.867231496946848e+000
 1.571441468130118e+000	 2.758839740229814e+000	 9.815164797738408e+000
 1.543320017115457e+000	 2.774669047798627e+000	 9.757348915314729e+000
 1.515079371140083e+000	 2.790189867948035e+000	 9.692095748649924e+000
 1.486724488161570e+000	 2.805401093670956e+000	 9.617784560258869e+000
 1.458260332950278e+000	 2.820301721701202e+000	 9.532865468372172e+000
 1.751071210829859e+000	 2.678385635908726e+000	 1.003072271572086e+001
 1.723553344507851e+000	 2.696175785936869e+000	 9.993314451347183e+000
 1.695885658166348e+000	 2.713663913321106e+000	 9.958879053206118e+000
 1.668073050783117e+000	 2.730848274307367e+000	 9.925358215363533e+000
 1.640120444484825e+000	 2.747727229479309e+000	 9.890742743716691e+000
 1.612032781814124e+000	 2.764299244003852e+000	 9.853077082348737e+000
 1.583815023000468e+000	 2.780562887792313e+000	 9.810463673970284e+000
 1.555472143237654e+000	 2.796516835577696e+000	 9.761067144870951e+000
 1.527009129971012e+000	 2.812159866908805e+000	 9.703118305438087e+000
 1.498430980197152e+000	 2.827490866061967e+000	 9.634917957958214e+000
 1.469742697779114e+000	 2.842508821871260e+000	 9.554840504091953e+000
 1.764751454665686e+000	 2.699310523693410e+000	 9.973662609964157e+000
 1.737018605013831e+000	 2.717239659268562e+000	 9.949682703855897e+000
 1.709134764873440e+000	 2.734864412647811e+000	 9.928083375165967e+000
 1.681104871495542e+000	 2.752183026454008e+000	 9.906712472658318e+000
 1.652933885460923e+000	 2.769193848462869e+000	 9.883468939067212e+000
 1.624626787925844e+000	 2.785895331850432e+000	 9.856307484244500e+000
 1.596188577871557e+000	 2.802286035355447e+000	 9.823243087027521e+000
 1.567624269360560e+000	 2.818364623357268e+000	 9.782355315974531e+000
 1.538938888802598e+000	 2.834129865869928e+000	 9.731792459769764e+000
 1.510137472233320e+000	 2.849580638453159e+000	 9.669775458775192e+000
 1.481225062608446e+000	 2.864715922041312e+000	 9.594601629903330e+000
 1.778431698502015e+000	 2.720235411479095e+000	 9.932740106791524e+000
 1.750483865520404e+000	 2.738303532601247e+000	 9.922317231404657e+000
 1.722383871581194e+000	 2.756064911975476e+000	 9.913683627545650e+000
 1.694136692208680e+000	 2.773517778601557e+000	 9.904591720898281e+000
 1.665747326437760e+000	 2.790660467447267e+000	 9.892847033333093e+000
 1.637220794038314e+000	 2.807491419697759e+000	 9.876313005369422e+000
 1.608562132743385e+000	 2.824009182919216e+000	 9.852915641919809e+000
 1.579776395484173e+000	 2.840212411137346e+000	 9.820647971183806e+000
 1.550868647634841e+000	 2.856099864831404e+000	 9.777574307232403e+000
 1.521843964270075e+000	 2.871670410844536e+000	 9.721834307518586e+000
 1.492707427438275e+000	 2.886923022211355e+000	 9.651646817267094e+000
 1.377883779162314e+000	 2.664852020510572e+000	 9.921276876291120e+000
 1.350889960100455e+000	 2.678637025767296e+000	 9.823055248600209e+000
 1.323802283258406e+000	 2.692126950008474e+000	 9.728310127780638e+000
 1.296625444150432e+000	 2.705321137630596e+000	 9.636218748193913e+000
 1.269364134855766e+000	 2.718219029672730e+000	 9.546013375738180e+000
 1.242023041611831e+000	 2.730820163291444e+000	 9.430841183053314e+000
 1.214606842436724e+000	 2.743124171166410e+000	 9.271958101732043e+000
 1.187120204783137e+000	 2.755130780838170e+000	 9.143278617035366e+000
 1.159567783225906e+000	 2.766839813979641e+000	 9.044705893049652e+000
 1.131954217185234e+000	 2.778251185602977e+000	 8.976161104396955e+000
 1.104284128687585e+000	 2.789364903203509e+000	 8.937585469980785e+000
 1.389366143987678e+000	 2.687059120680686e+000	 9.803859993289860e+000
 1.362147376433888e+000	 2.700959000981797e+000	 9.713282225064315e+000
 1.334833968951679e+000	 2.714561341258762e+000	 9.626380605433983e+000
 1.307430656184601e+000	 2.727865480444711e+000	 9.542277485087622e+000
 1.279942169312546e+000	 2.740870854920701e+000	 9.460151603223419e+000
 1.252373233624917e+000	 2.753576997986275e+000	 9.379240094077815e+000
 1.224728566123295e+000	 2.765983539260102e+000	 9.223303172256570e+000
 1.197012873155812e+000	 2.778090204012229e+000	 9.089885801517392e+000
 1.169230848085428e+000	 2.789896812429516e+000	 8.987265410480035e+000
 1.141387168994181e+000	 2.801403278815884e+000	 8.915311980149980e+000
 1.113486496425423e+000	 2.812609610729128e+000	 8.873916143569565e+000
 1.400848508813537e+000	 2.709266220850791e+000	 9.708026652511435e+000
 1.373404792767729e+000	 2.723280976196111e+000	 9.625320335234637e+000
 1.345865654645289e+000	 2.736995732508725e+000	 9.546454402893733e+000
 1.318235868219058e+000	 2.750409823258400e+000	 9.470495175895431e+000
 1.290520203769584e+000	 2.763522680168190e+000	 9.396566772774001e+000
 1.262723425638253e+000	 2.776333832680606e+000	 9.323853203124850e+000
 1.234850289810128e+000	 2.788842907353317e+000	 9.202615579791445e+000
 1.206905541528780e+000	 2.801049627185874e+000	 9.064619081106544e+000
 1.178893912945294e+000	 2.812953810879079e+000	 8.958088527112462e+000
 1.150820120803543e+000	 2.824555372028621e+000	 8.882841416930813e+000
 1.122688864163766e+000	 2.835854318254756e+000	 8.838716546320804e+000
 1.412330873639893e+000	 2.731473321020890e+000	 9.633201063551127e+000
 1.384662209101975e+000	 2.745602951410237e+000	 9.558607874735436e+000
 1.356897340339236e+000	 2.759430123758361e+000	 9.487984012212328e+000
 1.329041080253802e+000	 2.772954166071666e+000	 9.420338602227973e+000
 1.301098238226882e+000	 2.786174505415197e+000	 9.354740031669749e+000
 1.273073617651840e+000	 2.799090667374439e+000	 9.290318128761317e+000
 1.244972013497222e+000	 2.811702275446057e+000	 9.208869046475035e+000
 1.216798209902042e+000	 2.824009050359106e+000	 9.066475660809505e+000
 1.188556977805505e+000	 2.836010809328329e+000	 8.956196218561708e+000
 1.160253072613320e+000	 2.847707465241187e+000	 8.877794425130086e+000
 1.131891231902615e+000	 2.859099025780396e+000	 8.831055964142841e+000
 1.423813238466745e+000	 2.753680421190979e+000	 9.578819288866663e+000
 1.395919625436628e+000	 2.767924926624177e+000	 9.512594966483409e+000
 1.367929026033521e+000	 2.781864515007671e+000	 9.450433716231816e+000
 1.339846292288834e+000	 2.795498508884507e+000	 9.391286289120393e+000
 1.311676272684440e+000	 2.808826330661723e+000	 9.334164212464541e+000
 1.283423809665677e+000	 2.821847502067772e+000	 9.278142059719222e+000
 1.255093737184579e+000	 2.834561643538319e+000	 9.222359532601184e+000
 1.226690878275597e+000	 2.846968473531924e+000	 9.094464192602262e+000
 1.198220042666059e+000	 2.859067807777269e+000	 8.980620807007700e+000
 1.169686024423512e+000	 2.870859558453585e+000	 8.899227250986545e+000
 1.141093599641968e+000	 2.882343733306045e+000	 8.850014797873341e+000
 1.435295603294094e+000	 2.775887521361062e+000	 9.544328769663778e+000
 1.407177041771687e+000	 2.790246901837927e+000	 9.486743087595993e+000
 1.378960711728142e+000	 2.804298906256655e+000	 9.433279116952171e+000
 1.350651504324155e+000	 2.818042851696924e+000	 9.382828035295402e+000
 1.322254307142256e+000	 2.831478155907767e+000	 9.334343365575466e+000
 1.293774001679765e+000	 2.844604336760608e+000	 9.286843336494988e+000
 1.265215460872197e+000	 2.857421011630105e+000	 9.239413050055600e+000
 1.236583546649444e+000	 2.869927896704327e+000	 9.147604317551304e+000
 1.207883107526959e+000	 2.882124806225897e+000	 9.030405507332905e+000
 1.179118976234119e+000	 2.894011651665810e+000	 8.946206927153133e+000
 1.150295967381827e+000	 2.905588440831705e+000	 8.894684118682129e+000
 1.446777968121937e+000	 2.798094621531136e+000	 9.529187874358527e+000
 1.418434458107152e+000	 2.812568877051492e+000	 9.480524618827857e+000
 1.389992397423100e+000	 2.826733297505313e+000	 9.436006686358461e+000
 1.361456716359763e+000	 2.840587194508919e+000	 9.394464465794659e+000
 1.332832341600331e+000	 2.854129981153329e+000	 9.354792314129398e+000
 1.304124193694102e+000	 2.867361171452942e+000	 9.315951008819077e+000
 1.275337184560077e+000	 2.880280379721414e+000	 9.276970002052046e+000
 1.246476215023585e+000	 2.892887319876318e+000	 9.224926229738664e+000
 1.217546172388201e+000	 2.905181804674213e+000	 9.104603994872228e+000
 1.188551928045140e+000	 2.917163744877866e+000	 9.017810844664631e+000
 1.159498335122191e+000	 2.928833148357375e+000	 8.964165244645274e+000
 1.458260332950278e+000	 2.820301721701202e+000	 9.532865468372172e+000
 1.429691874443023e+000	 2.834890852264868e+000	 9.493422415293798e+000
 1.401024083118395e+000	 2.849167688753644e+000	 9.458113338468637e+000
 1.372261928395659e+000	 2.863131537320488e+000	 9.425706605745821e+000
 1.343410376058666e+000	 2.876781806398410e+000	 9.395036229840654e+000
 1.314474385708691e+000	 2.890118006144780e+000	 9.365004414032589e+000
 1.285458908248220e+000	 2.903139747812248e+000	 9.334583894472928e+000
 1.256368883398019e+000	 2.915846743047894e+000	 9.302820076072328e+000
 1.227209237249788e+000	 2.928238803122218e+000	 9.202279993584156e+000
 1.197984879856576e+000	 2.940315838089752e+000	 9.113126345127379e+000
 1.168700702863060e+000	 2.952077855883055e+000	 9.057569337323665e+000
 1.469742697779114e+000	 2.842508821871260e+000	 9.554840504091953e+000
 1.440949290779301e+000	 2.857212827478057e+000	 9.524929397314116e+000
 1.412055768814028e+000	 2.871602080001652e+000	 9.499106021441635e+000
 1.383067140431843e+000	 2.885675880131633e+000	 9.476075474109104e+000
 1.353988410517259e+000	 2.899433631643008e+000	 9.454610228769253e+000
 1.324824577723530e+000	 2.912874840836117e+000	 9.433552775227543e+000
 1.295580631936623e+000	 2.925999115902606e+000	 9.411818051324335e+000
 1.266261551772745e+000	 2.938806166219056e+000	 9.388395662615343e+000
 1.236872302111720e+000	 2.951295801569911e+000	 9.322506883526422e+000
 1.207417831668428e+000	 2.963467931301467e+000	 9.231250332025072e+000
 1.177903070604434e+000	 2.975322563408745e+000	 9.174017017251781e+000
 1.481225062608446e+000	 2.864715922041312e+000	 9.594601629903330e+000
 1.452206707115985e+000	 2.879534802691059e+000	 9.574548160290304e+000
 1.423087454509997e+000	 2.894036471249331e+000	 9.558501328657133e+000
 1.393872352468315e+000	 2.908220222942355e+000	 9.545101696319485e+000
 1.364566444976112e+000	 2.922085456887126e+000	 9.533058985881157e+000
 1.335174769738620e+000	 2.935631675526955e+000	 9.521154818078143e+000
 1.305702355625289e+000	 2.948858483992487e+000	 9.508245234188637e+000
 1.276154220147765e+000	 2.961765589389805e+000	 9.493263000738981e+000
 1.246535366973995e+000	 2.974352800017292e+000	 9.464367326588542e+000
 1.216850783480694e+000	 2.986620024513012e+000	 9.371288900103336e+000
 1.187105438346313e+000	 2.998567270934446e+000	 9.312637997310839e+000
 1.492707427438275e+000	 2.886923022211355e+000	 9.651646817267094e+000
 1.463464123453077e+000	 2.901856777903874e+000	 9.641790602586548e+000
 1.434119140206303e+000	 2.916470862496686e+000	 9.635825127745616e+000
 1.404677564505076e+000	 2.930764565752653e+000	 9.632325134806884e+000
 1.375144479435225e+000	 2.944737282130762e+000	 9.629936367398045e+000
 1.345524961753960e+000	 2.958388510217295e+000	 9.627378405356941e+000
 1.315824079314217e+000	 2.971717852081893e+000	 9.623447279240734e+000
 1.286046888523079e+000	 2.984725012560141e+000	 9.617017861307536e+000
 1.256198431836615e+000	 2.997409798464362e+000	 9.607046030301948e+000
 1.226283735293376e+000	 3.009772117724388e+000	 9.532356981859650e+000
 1.196307806088698e+000	 3.021811978460158e+000	 9.472570733023179e+000
 1.104284128687585e+000	 2.789364903203509e+000	 8.937585469980785e+000
 1.076562120166735e+000	 2.800181065842599e+000	 8.943521785024036e+000
 1.048792772305250e+000	 2.810699863170943e+000	 8.939267317751400e+000
 1.020980641918824e+000	 2.820921574394557e+000	 8.924545474711369e+000
 9.931302598865212e-001	 2.830846567185376e+000	 8.899147805639785e+000
 9.652461291268561e-001	 2.840475296538248e+000	 8.862935110333904e+000
 9.373327226216525e-001	 2.849808303576410e+000	 8.815838372908868e+000
 9.093944814890325e-001	 2.858846214307540e+000	 8.757859523165591e+000
 8.814358131068237e-001	 2.867589738332473e+000	 8.689072025316156e+000
 8.534610892875463e-001	 2.876039667508701e+000	 8.609621294818757e+000
 8.254746445060665e-001	 2.884196874570822e+000	 8.519724944566017e+000
 1.113486496425423e+000	 2.812609610729128e+000	 8.873916143569565e+000
 1.085533471166585e+000	 2.823515908056200e+000	 8.862966373351309e+000
 1.057532712072626e+000	 2.834122362028305e+000	 8.845237092630404e+000
 1.029488813932706e+000	 2.844429254178170e+000	 8.820421920954955e+000
 1.001406345383213e+000	 2.854436955241667e+000	 8.788280907905625e+000
 9.732898468669844e-001	 2.864145924005266e+000	 8.748641747428549e+000
 9.451438286406900e-001	 2.873556706101563e+000	 8.701400818208558e+000
 9.169727688317710e-001	 2.882669932754969e+000	 8.646524049615101e+000
 8.887811115462034e-001	 2.891486319479657e+000	 8.584047613282149e+000
 8.605732650282777e-001	 2.900006664731933e+000	 8.514078440900413e+000
 8.323535998734841e-001	 2.908231848519181e+000	 8.436794569303975e+000
 1.122688864163766e+000	 2.835854318254756e+000	 8.838716546320804e+000
 1.094504822167034e+000	 2.846850750270003e+000	 8.812103734602570e+000
 1.066272651840688e+000	 2.857544860886037e+000	 8.782046853086929e+000
 1.037996985947347e+000	 2.867936933962302e+000	 8.748208425573001e+000
 1.009682430880729e+000	 2.878027343298606e+000	 8.710315768203200e+000
 9.813335646079902e-001	 2.887816551473039e+000	 8.668162312379169e+000
 9.529549346606492e-001	 2.897305108627561e+000	 8.621608752239657e+000
 9.245510561754662e-001	 2.906493651203310e+000	 8.570584016036280e+000
 8.961264099865637e-001	 2.915382900627801e+000	 8.515086061283528e+000
 8.676854407700044e-001	 2.923973661956154e+000	 8.455182494088374e+000
 8.392325552419019e-001	 2.932266822468538e+000	 8.391011013581014e+000
 1.131891231902615e+000	 2.859099025780396e+000	 8.831055964142841e+000
 1.103476173168084e+000	 2.870185592484005e+000	 8.789999431058366e+000
 1.075012591609433e+000	 2.880967359744138e+000	 8.748759843242624e+000
 1.046505157962747e+000	 2.891444613746952e+000	 8.706967301522200e+000
 1.017958516379068e+000	 2.901617731356191e+000	 8.664315136315240e+000
 9.893772823498731e-001	 2.911487178941568e+000	 8.620561340286050e+000
 9.607660406815307e-001	 2.921053511154402e+000	 8.575529823946617e+000
 9.321293435201170e-001	 2.930317369652563e+000	 8.529111493344672e+000
 9.034717084279045e-001	 2.939279481776909e+000	 8.481265149529893e+000
 8.747976165127258e-001	 2.947940659181365e+000	 8.432018210031570e+000
 8.461115106113193e-001	 2.956301796418897e+000	 8.381467253108589e+000
 1.141093599641968e+000	 2.882343733306045e+000	 8.850014797873341e+000
 1.112447524169733e+000	 2.893520434698208e+000	 8.795730919138487e+000
 1.083752531378863e+000	 2.904389858602606e+000	 8.744451931538871e+000
 1.055013329978906e+000	 2.914952293532121e+000	 8.695774167215831e+000
 1.026234601878231e+000	 2.925208119414423e+000	 8.649355699590403e+000
 9.974210000926342e-001	 2.935157806410852e+000	 8.604917886942639e+000
 9.685771467033342e-001	 2.944801913682086e+000	 8.562246737186463e+000
 9.397076308657241e-001	 2.954141088102729e+000	 8.521194092783006e+000
 9.108170068702257e-001	 2.963176062926975e+000	 8.481678635299298e+000
 8.819097922564428e-001	 2.971907656407568e+000	 8.443686709673832e+000
 8.529904659817370e-001	 2.980336770370254e+000	 8.407272968791304e+000
 1.150295967381827e+000	 2.905588440831705e+000	 8.894684118682129e+000
 1.121418875171983e+000	 2.916855276912609e+000	 8.828387073636375e+000
 1.092492471148978e+000	 2.927812357461445e+000	 8.768211105763854e+000
 1.063521501995824e+000	 2.938459973317808e+000	 8.713717414305567e+000
 1.034510687378216e+000	 2.948798507473302e+000	 8.664527525440773e+000
 1.005464717836273e+000	 2.958828433880891e+000	 8.620324948007799e+000
 9.763882527260590e-001	 2.968550316210615e+000	 8.580856648532233e+000
 9.472859182122877e-001	 2.977964806553808e+000	 8.545934344308133e+000
 9.181623053135277e-001	 2.987072644078004e+000	 8.515435613855305e+000
 8.890219680011547e-001	 2.995874653634759e+000	 8.489304824642264e+000
 8.598694213531549e-001	 3.004371744322613e+000	 8.467553878519080e+000
 1.159498335122191e+000	 2.928833148357375e+000	 8.964165244645274e+000
 1.130390226174833e+000	 2.940190119127211e+000	 8.887067734609042e+000
 1.101232410919777e+000	 2.951234856320653e+000	 8.819136992126206e+000
 1.072029674013502e+000	 2.961967653104012e+000	 8.759897700806901e+000
 1.042786772879025e+000	 2.972388895532827e+000	 8.708933530386874e+000
 1.013508435580789e+000	 2.982499061351686e+000	 8.665888905836592e+000
 9.841993587497061e-001	 2.992298718739987e+000	 8.630470593752481e+000
 9.548642055598070e-001	 3.001788525005797e+000	 8.602449104578518e+000
 9.255076037578098e-001	 3.010969225229992e+000	 8.581659909797013e+000
 8.961341437468618e-001	 3.019841650862941e+000	 8.568004473807266e+000
 8.667483767255724e-001	 3.028406718275971e+000	 8.561451100778886e+000
 1.168700702863060e+000	 2.952077855883055e+000	 9.057569337323665e+000
 1.139361577178282e+000	 2.963524961342014e+000	 8.970883275673792e+000
 1.109972350691261e+000	 2.974657355180230e+000	 8.896340397049434e+000
 1.080537846031938e+000	 2.985475332890735e+000	 8.833427468171436e+000
 1.051062858380658e+000	 2.995979283592999e+000	 8.781688974187281e+000
 1.021552153326183e+000	 3.006169688823234e+000	 8.740729002444921e+000
 9.920104647742748e-001	 3.016047121270203e+000	 8.710212941386290e+000
 9.624424929082825e-001	 3.025612243458701e+000	 8.689868992910826e+000
 9.328529022030730e-001	 3.034865806382944e+000	 8.679489497163639e+000
 9.032463194935642e-001	 3.043808648092115e+000	 8.678932069296584e+000
 8.736273320989901e-001	 3.052441692230329e+000	 8.688120548331986e+000
 1.177903070604434e+000	 2.975322563408745e+000	 9.174017017251781e+000
 1.148332928182332e+000	 2.986859803557016e+000	 9.078954192541039e+000
 1.118712290463430e+000	 2.998079854040177e+000	 8.998942870444722e+000
 1.089046018051134e+000	 3.008983012677976e+000	 8.933430480996385e+000
 1.059338943883114e+000	 3.019569671653818e+000	 8.881920977680856e+000
 1.029595871072454e+000	 3.029840316295539e+000	 8.843976837179039e+000
 9.998215707997656e-001	 3.039795523801263e+000	 8.819220871931870e+000
 9.700207802577143e-001	 3.049435961912515e+000	 8.807337853676128e+000
 9.401982006493166e-001	 3.058762387536855e+000	 8.808075946722301e+000
 9.103584952412615e-001	 3.067775645322277e+000	 8.821247950352595e+000
 8.805062874734078e-001	 3.076476666185687e+000	 8.846732350312626e+000
 1.187105438346313e+000	 2.998567270934446e+000	 9.312637997310839e+000
 1.157304279186982e+000	 3.010194645772219e+000	 9.210410710685041e+000
 1.127452230236283e+000	 3.021502352900493e+000	 9.126076289296750e+000
 1.097554190071088e+000	 3.032490692465735e+000	 9.059041388142941e+000
 1.067615029386393e+000	 3.043160059715283e+000	 9.008768063054969e+000
 1.037639588819603e+000	 3.053510943768599e+000	 8.974775887749260e+000
 1.007632676826178e+000	 3.063543926333166e+000	 8.956643881259014e+000
 9.775990676081021e-001	 3.073259680367242e+000	 8.954012243700889e+000
 9.475434990965406e-001	 3.082658968691728e+000	 8.966583898962837e+000
 9.174706709899542e-001	 3.091742642553431e+000	 8.994125843521376e+000
 8.873852428488256e-001	 3.100511640142046e+000	 9.036470301205753e+000
 1.196307806088698e+000	 3.021811978460158e+000	 9.472570733023179e+000
 1.166275630192232e+000	 3.033529487987621e+000	 9.364392411122296e+000
 1.136192170009821e+000	 3.044924851761178e+000	 9.276882460468515e+000
 1.106062362091802e+000	 3.055998372254013e+000	 9.209405304110780e+000
 1.075891114890496e+000	 3.066750447777396e+000	 9.161379715332046e+000
 1.045683306567630e+000	 3.077181571242415e+000	 9.132281053369781e+000
 1.015443782853513e+000	 3.087292328865915e+000	 9.121643306940943e+000
 9.851773549594465e-001	 3.097083398822883e+000	 9.129060943326310e+000
 9.548887975447457e-001	 3.106555549847563e+000	 9.154190561416307e+000
 9.245828467396422e-001	 3.115709639785575e+000	 9.196752347756693e+000
 8.942641982252435e-001	 3.124546614099404e+000	 9.256531335256682e+000
 8.254746445060665e-001	 2.884196874570822e+000	 8.519724944566017e+000
 7.974807741809102e-001	 2.892062311710120e+000	 8.429694123852940e+000
 7.694837330099383e-001	 2.899637009115428e+000	 8.363056782283023e+000
 7.414877333616478e-001	 2.906922073477395e+000	 8.320157292241438e+000
 7.134969437225316e-001	 2.913918686458521e+000	 8.301384086029637e+000
 6.855154872010129e-001	 2.920628103131092e+000	 8.307169663468153e+000
 6.575474400885762e-001	 2.927051650385220e+000	 8.337990467489696e+000
 6.295968304785271e-001	 2.933190725309185e+000	 8.394366630509220e+000
 6.016676369427254e-001	 2.939046793544277e+000	 8.351251902040049e+000
 5.737637872665514e-001	 2.944621387616330e+000	 8.321913707575485e+000
 5.458891572422751e-001	 2.949916105246086e+000	 8.334057777597458e+000
 8.323535998734841e-001	 2.908231848519181e+000	 8.436794569303975e+000
 8.041264472955336e-001	 2.916162830967627e+000	 8.362514307603179e+000
 7.758960974481322e-001	 2.923800650851029e+000	 8.306031570857225e+000
 7.476667978028474e-001	 2.931146424082455e+000	 8.267617419471785e+000
 7.194427515835592e-001	 2.938201342171590e+000	 8.247594344966004e+000
 6.912281162579265e-001	 2.944966670649659e+000	 8.246336249160201e+000
 6.630270020865289e-001	 2.951443747464190e+000	 8.264268280987338e+000
 6.348434707301159e-001	 2.957633981345864e+000	 8.301866533991438e+000
 6.066815339153117e-001	 2.963538850149649e+000	 8.257774750305826e+000
 5.785451521590409e-001	 2.969159899172426e+000	 8.192121099801700e+000
 5.504382335518416e-001	 2.974498739449277e+000	 8.164077547914515e+000
 8.392325552419019e-001	 2.932266822468538e+000	 8.391011013581014e+000
 8.107721204111463e-001	 2.940263350226134e+000	 8.329814782921734e+000
 7.823084618872848e-001	 2.947964292587630e+000	 8.280883736031747e+000
 7.538458622449540e-001	 2.955370774688512e+000	 8.244415211284048e+000
 7.253885594454216e-001	 2.962483997885659e+000	 8.220665340809646e+000
 6.969407453155827e-001	 2.969305238169226e+000	 8.209949002401732e+000
 6.685065640851122e-001	 2.975835844544160e+000	 8.212639618627179e+000
 6.400901109822031e-001	 2.982077237383543e+000	 8.229168806485280e+000
 6.116954308882447e-001	 2.988030906756019e+000	 8.183689288670344e+000
 5.833265170517062e-001	 2.993698410729522e+000	 8.079209703891266e+000
 5.549873098613937e-001	 2.999081373653468e+000	 8.008593559876481e+000
 8.461115106113193e-001	 2.956301796418897e+000	 8.381467253108589e+000
 8.174177935277489e-001	 2.964363869485642e+000	 8.330773129944310e+000
 7.887208263273956e-001	 2.972127934325231e+000	 8.286873028170223e+000
 7.600249266879676e-001	 2.979595125295572e+000	 8.249890129018061e+000
 7.313343673081191e-001	 2.986766653600728e+000	 8.220013763516114e+000
 7.026533743739817e-001	 2.993643805689793e+000	 8.197499338235826e+000
 6.739861260843261e-001	 3.000227941625130e+000	 8.182668097778015e+000
 6.453367512347888e-001	 3.006520493422221e+000	 8.175906727613871e+000
 6.167093278615247e-001	 3.012522963363392e+000	 8.128659873454822e+000
 5.881078819445469e-001	 3.018236922287618e+000	 7.982901858984989e+000
 5.595363861709308e-001	 3.023664007858659e+000	 7.867384353677956e+000
 8.529904659817370e-001	 2.980336770370254e+000	 8.407272968791304e+000
 8.240634666453410e-001	 2.988464388746150e+000	 8.364581501215071e+000
 7.951331907684651e-001	 2.996291576063831e+000	 8.323271706636495e+000
 7.662039911318878e-001	 3.003819475903630e+000	 8.283392149332785e+000
 7.372801751716512e-001	 3.011049309316797e+000	 8.245064894711048e+000
 7.083660034331233e-001	 3.017982373211360e+000	 8.208485410019373e+000
 6.794656880841703e-001	 3.024620038707100e+000	 8.173922291274810e+000
 6.505833914878733e-001	 3.030963749461901e+000	 8.141716820299740e+000
 6.217232248351515e-001	 3.037015019971764e+000	 8.092352462923074e+000
 5.928892468375637e-001	 3.042775433846714e+000	 7.902919935704604e+000
 5.640854624804536e-001	 3.048246642064849e+000	 7.740227001472743e+000
 8.598694213531549e-001	 3.004371744322613e+000	 8.467553878519080e+000
 8.307091397639229e-001	 3.012564908007657e+000	 8.430446038790128e+000
 8.015455552104932e-001	 3.020455217803432e+000	 8.389364039434437e+000
 7.723830555767151e-001	 3.028043826512689e+000	 8.344281343593240e+000
 7.432259830360183e-001	 3.035331965033867e+000	 8.295252264023416e+000
 7.140786324930076e-001	 3.042320940733928e+000	 8.242411839890618e+000
 6.849452500846452e-001	 3.049012135790070e+000	 8.185975529200276e+000
 6.558300317414558e-001	 3.055407005502579e+000	 8.126238721033108e+000
 6.267371218091252e-001	 3.061507076581135e+000	 8.063576072166507e+000
 5.976706117307562e-001	 3.067313945406811e+000	 7.838986334893541e+000
 5.686345387899615e-001	 3.072829276272041e+000	 7.626897166095493e+000
 8.667483767255724e-001	 3.028406718275971e+000	 8.561451100778886e+000
 8.373548128834940e-001	 3.036665427270165e+000	 8.527586319098258e+000
 8.079579196534796e-001	 3.044618859544032e+000	 8.484445826674888e+000
 7.785621200224494e-001	 3.052268177122748e+000	 8.431927477287218e+000
 7.491717909012202e-001	 3.059614620751936e+000	 8.370017321783763e+000
 7.197912615536347e-001	 3.066659508257495e+000	 8.298789462071438e+000
 6.904248120857505e-001	 3.073404232874039e+000	 8.218405710105063e+000
 6.610766719955372e-001	 3.079850261544258e+000	 8.129115056317326e+000
 6.317510187834454e-001	 3.085999133191507e+000	 8.031252952363554e+000
 6.024519766241242e-001	 3.091852456967906e+000	 7.790823486417714e+000
 5.731836150994546e-001	 3.097411910480231e+000	 7.527169156987179e+000
 8.736273320989901e-001	 3.052441692230329e+000	 8.688120548331986e+000
 8.440004860040550e-001	 3.060765946533674e+000	 8.655234824028574e+000
 8.143702840974244e-001	 3.068782501285632e+000	 8.607823946555392e+000
 7.847411844690904e-001	 3.076492527733806e+000	 8.545709628366735e+000
 7.551175987672572e-001	 3.083897276471005e+000	 8.468809127185455e+000
 7.255038906150046e-001	 3.090998075782062e+000	 8.377135078297123e+000
 6.959043740874865e-001	 3.097796329959009e+000	 8.270795121146803e+000
 6.663233122501171e-001	 3.104293517586938e+000	 8.149991324952017e+000
 6.367649157581130e-001	 3.110491189802879e+000	 8.015019418497047e+000
 6.072333415176682e-001	 3.116390968530002e+000	 7.758153848022661e+000
 5.777326914089334e-001	 3.121994544689422e+000	 7.440815983478061e+000
 8.805062874734078e-001	 3.076476666185687e+000	 8.846732350312626e+000
 8.506461591256057e-001	 3.084866465798181e+000	 8.812636436811017e+000
 8.207826485423281e-001	 3.092946143028234e+000	 8.758815922622597e+000
 7.909202489166383e-001	 3.100716878345866e+000	 8.685015823479890e+000
 7.610634066341288e-001	 3.108179932191074e+000	 8.591084051063666e+000
 7.312165196771172e-001	 3.115336643307630e+000	 8.476971224710310e+000
 7.013839360898529e-001	 3.122188427044979e+000	 8.342730266660206e+000
 6.715699525051954e-001	 3.128736773630617e+000	 8.299164978929021e+000
 6.417788127331272e-001	 3.134983246415251e+000	 8.319441715679384e+000
 6.120147064113878e-001	 3.140929480093099e+000	 8.241077661273282e+000
 5.822817677183971e-001	 3.146577178899613e+000	 8.060305590275881e+000
 8.873852428488256e-001	 3.100511640142046e+000	 9.036470301205753e+000
 8.572918322481457e-001	 3.108966985063688e+000	 8.999047961344157e+000
 8.271950129881900e-001	 3.117109784771833e+000	 8.936749511161896e+000
 7.970993133650929e-001	 3.124941228958924e+000	 8.849242691122269e+000
 7.670092145018357e-001	 3.132462587912143e+000	 8.933550732955869e+000
 7.369291487399725e-001	 3.139675210834196e+000	 9.000883693065980e+000
 7.068634980928500e-001	 3.146580524131949e+000	 9.048060132230276e+000
 6.768165927607722e-001	 3.153180029675296e+000	 9.073580681086769e+000
 6.467927097084881e-001	 3.159475303028622e+000	 9.076136064793346e+000
 6.167960713052829e-001	 3.165467991657194e+000	 9.002454469876104e+000
 5.868308440278466e-001	 3.171159813110805e+000	 8.782608824111252e+000
 8.942641982252435e-001	 3.124546614099404e+000	 9.256531335256682e+000
 8.639375053716756e-001	 3.133067504330197e+000	 9.398549588858248e+000
 8.336073774350107e-001	 3.141273426516435e+000	 9.532437672473233e+000
 8.032783778144549e-001	 3.149165579572983e+000	 9.645969115848619e+000
 7.729550223703774e-001	 3.156745243634214e+000	 9.736969844850782e+000
 7.426417778035707e-001	 3.164013778361765e+000	 9.803468920995027e+000
 7.123430600964776e-001	 3.170972621219920e+000	 9.843697753620686e+000
 6.820632330168476e-001	 3.177623285720976e+000	 9.856088921003988e+000
 6.518066066841962e-001	 3.183967359642995e+000	 9.839274613000779e+000
 6.215774361993540e-001	 3.190006503222291e+000	 9.769976809701490e+000
 5.913799203372813e-001	 3.195742447322996e+000	 9.510462643470358e+000
 5.458891572422751e-001	 2.949916105246086e+000	 8.334057777597458e+000
 5.180475695206517e-001	 2.954932607640603e+000	 8.428083568790209e+000
 4.902427925216797e-001	 2.959672617767659e+000	 8.496573276763218e+000
 4.624785394036050e-001	 2.964137918615402e+000	 8.541624528932339e+000
 4.347584670896675e-001	 2.968330351439361e+000	 8.565285625327945e+000
 4.070861753532337e-001	 2.972251813998719e+000	 8.569555410185840e+000
 3.794652059606907e-001	 2.975904258783907e+000	 8.556383235000654e+000
 3.518990418717319e-001	 2.979289691237467e+000	 8.527669008557218e+000
 3.243911064965978e-001	 2.982410167970138e+000	 8.485263329430291e+000
 2.969447630097779e-001	 2.985267794974027e+000	 8.430967696436953e+000
 2.695633137196015e-001	 2.987864725834731e+000	 8.366534792532782e+000
 5.504382335518416e-001	 2.974498739449277e+000	 8.164077547914515e+000
 5.223646325997995e-001	 2.979557046030643e+000	 8.212094828466187e+000
 4.943281491263213e-001	 2.984336556242365e+000	 8.241495681312969e+000
 4.663325272326387e-001	 2.988839067930820e+000	 8.254354206319500e+000
 4.383814543163538e-001	 2.993066437695334e+000	 8.252688920285351e+000
 4.104785601489446e-001	 2.997020579109751e+000	 8.238462805170089e+000
 3.826274160115197e-001	 3.000703460935255e+000	 8.213583451764354e+000
 3.548315338884371e-001	 3.004117105326406e+000	 8.179903293893933e+000
 3.270943657183573e-001	 3.007263586032367e+000	 8.139219928223479e+000
 2.994193027022248e-001	 3.010145026595181e+000	 8.093276514728931e+000
 2.718096746676061e-001	 3.012763598546989e+000	 8.043762252921232e+000
 5.549873098613937e-001	 2.999081373653468e+000	 8.008593559876481e+000
 5.266816956787482e-001	 3.004181484421681e+000	 8.010546505001784e+000
 4.984135057306106e-001	 3.009000494718050e+000	 8.000744913396314e+000
 4.701865150611981e-001	 3.013540217247192e+000	 7.981239772630357e+000
 4.420044415424734e-001	 3.017802523952225e+000	 7.954020234247822e+000
 4.138709449440277e-001	 3.021789344221657e+000	 7.921013838802073e+000
 3.857896260616890e-001	 3.025502663087416e+000	 7.884086840330159e+000
 3.577640259044809e-001	 3.028944519416094e+000	 7.845044624918392e+000
 3.297976249394828e-001	 3.032117004095270e+000	 7.805632218006157e+000
 3.018938423940943e-001	 3.035022258216922e+000	 7.767534875075089e+000
 2.740560356151188e-001	 3.037662471259737e+000	 7.732378750398224e+000
 5.595363861709308e-001	 3.023664007858659e+000	 7.867384353677956e+000
 5.309987587574980e-001	 3.028805922813711e+000	 7.823217797087664e+000
 5.024988623345476e-001	 3.033664433194716e+000	 7.774103490048337e+000
 4.740405028892825e-001	 3.038241366564517e+000	 7.722069696733990e+000
 4.456274287680266e-001	 3.042538610210034e+000	 7.669076593714968e+000
 4.172633297384822e-001	 3.046558109334430e+000	 7.617016672032827e+000
 3.889518361111983e-001	 3.050301865240394e+000	 7.567715242711498e+000
 3.606965179198629e-001	 3.053771933506530e+000	 7.522931039927438e+000
 3.325008841599741e-001	 3.056970422158845e+000	 7.484356916057297e+000
 3.043683820853866e-001	 3.059899489839250e+000	 7.453620622832958e+000
 2.763023965621398e-001	 3.062561343972977e+000	 7.432285672866207e+000
 5.640854624804536e-001	 3.048246642064849e+000	 7.740227001472743e+000
 5.353158218360488e-001	 3.053430361206738e+000	 7.649886740737657e+000
 5.065842189381322e-001	 3.058328371672358e+000	 7.561352998097007e+000
 4.778944907168923e-001	 3.062942515882795e+000	 7.476631677423246e+000
 4.492504159930130e-001	 3.067274696468759e+000	 7.397654343493004e+000
 4.206557145323085e-001	 3.071326874448076e+000	 7.326278801376451e+000
 3.921140461600480e-001	 3.075101067394186e+000	 7.264289783270410e+000
 3.636290099345831e-001	 3.078599347597715e+000	 7.213399736563473e+000
 3.352041433798315e-001	 3.081823840223094e+000	 7.175249706923270e+000
 3.068429217761015e-001	 3.084776721462165e+000	 7.151410310216247e+000
 2.785487575086692e-001	 3.087460216686710e+000	 7.143382787107423e+000
 5.686345387899615e-001	 3.072829276272041e+000	 7.626897166095493e+000
 5.396328849144008e-001	 3.078054799600758e+000	 7.490330255795985e+000
 5.106695755413646e-001	 3.082992310150981e+000	 7.362274131370759e+000
 4.817484785440273e-001	 3.087643665202026e+000	 7.244712674217407e+000
 4.528734032174329e-001	 3.092010782728402e+000	 7.139549173962067e+000
 4.240480993255067e-001	 3.096095639562592e+000	 7.048607085488071e+000
 3.952762562082376e-001	 3.099900269548792e+000	 6.973630897423483e+000
 3.665615019486416e-001	 3.103426761689649e+000	 6.916287105440508e+000
 3.379074025990547e-001	 3.106677258288014e+000	 6.878165283727567e+000
 3.093174614662391e-001	 3.109653953085666e+000	 6.860779248020828e+000
 2.807951184547069e-001	 3.112359089400934e+000	 6.865568303628692e+000
 5.731836150994546e-001	 3.097411910480231e+000	 7.527169156987179e+000
 5.439499479925536e-001	 3.102679237995774e+000	 7.344324190229689e+000
 5.147549321442447e-001	 3.107656248630582e+000	 7.176646726135715e+000
 4.856024663706874e-001	 3.112344814522210e+000	 7.026098936698912e+000
 4.564963904412860e-001	 3.116746868988962e+000	 6.894556147046010e+000
 4.274404841180766e-001	 3.120864404677980e+000	 6.783807770475718e+000
 3.984384662557676e-001	 3.124699471704213e+000	 6.695558358980743e+000
 3.694939939620384e-001	 3.128254175782330e+000	 6.732849437764153e+000
 3.406106618176438e-001	 3.131530676353607e+000	 6.790176127116576e+000
 3.117920011557994e-001	 3.134531184709755e+000	 6.858365348930786e+000
 2.830414794002528e-001	 3.137257962115649e+000	 6.938098137602815e+000
 5.777326914089334e-001	 3.121994544689422e+000	 7.440815983478061e+000
 5.482670110705072e-001	 3.127303676391783e+000	 7.286972351683327e+000
 5.188402887467726e-001	 3.132320187111164e+000	 7.245432527367916e+000
 4.894564541968731e-001	 3.137045963843348e+000	 7.217970783328996e+000
 4.601193776645727e-001	 3.141482955250438e+000	 7.203563861940935e+000
 4.308328689100183e-001	 3.145633169794238e+000	 7.201478105717251e+000
 4.016006763026376e-001	 3.149498673860448e+000	 7.211264666166006e+000
 3.724264859747737e-001	 3.153081589875761e+000	 7.232754215979263e+000
 3.433139210355988e-001	 3.156384094419873e+000	 7.266051190948658e+000
 3.142665408447822e-001	 3.159408416334431e+000	 7.311527588431003e+000
 2.852878403453070e-001	 3.162156834830856e+000	 7.369816349521927e+000
 5.822817677183971e-001	 3.146577178899613e+000	 8.060305590275881e+000
 5.525840741482619e-001	 3.151928114788789e+000	 7.969455608814096e+000
 5.229256453489481e-001	 3.156984125592723e+000	 7.895605935184093e+000
 4.933104420225839e-001	 3.161747113165438e+000	 7.837353093292840e+000
 4.637423648872925e-001	 3.166219041512832e+000	 7.793593141796277e+000
 4.342252537013316e-001	 3.170401934911366e+000	 7.763517399695145e+000
 4.047628863488477e-001	 3.174297876017497e+000	 7.746607636376112e+000
 3.753589779868471e-001	 3.177909003969940e+000	 7.742630752436629e+000
 3.460171802529196e-001	 3.181237512486811e+000	 7.751632978181887e+000
 3.167410805331877e-001	 3.184285647959694e+000	 7.773933617128975e+000
 2.875342012898696e-001	 3.187055707546556e+000	 7.810118362202460e+000
 5.868308440278466e-001	 3.171159813110805e+000	 8.782608824111252e+000
 5.569011372258178e-001	 3.176552553186789e+000	 8.658996457207504e+000
 5.270110019507714e-001	 3.181648064075263e+000	 8.553791972934654e+000
 4.971644298478201e-001	 3.186448262488483e+000	 8.465504859932610e+000
 4.673653521094459e-001	 3.190955127776143e+000	 8.392950034122919e+000
 4.376176384920170e-001	 3.195170700029367e+000	 8.335243555244597e+000
 4.079250963943982e-001	 3.199097078175363e+000	 8.291797794518773e+000
 3.782914699982589e-001	 3.202736418064867e+000	 8.262316080272630e+000
 3.487204394696065e-001	 3.206090930554421e+000	 8.246786848921616e+000
 3.192156202210159e-001	 3.209162879585544e+000	 8.245477329171777e+000
 2.897805622339404e-001	 3.211954580262747e+000	 8.258926787666631e+000
 5.913799203372813e-001	 3.195742447322996e+000	 9.510462643470358e+000
 5.612182003031748e-001	 3.201176991585784e+000	 9.355266835334634e+000
 5.310963585522425e-001	 3.206312002558782e+000	 9.219689299903703e+000
 5.010184176725815e-001	 3.211149411812481e+000	 9.102151774902001e+000
 4.709883393310327e-001	 3.215691214040372e+000	 9.001387545463610e+000
 4.410100232820740e-001	 3.219939465148238e+000	 8.916437148341240e+000
 4.110873064392889e-001	 3.223896280334044e+000	 8.846643513637051e+000
 3.812239620090090e-001	 3.227563832160544e+000	 8.791646571392338e+000
 3.514236986856592e-001	 3.230944348622705e+000	 8.751377350959732e+000
 3.216901599082669e-001	 3.234040111211981e+000	 8.726051601561981e+000
 2.920269231775196e-001	 3.236853452979430e+000	 8.716162962816178e+000
 2.695633137196015e-001	 2.987864725834731e+000	 8.366534792532782e+000
 2.422499994928616e-001	 2.990203159944074e+000	 8.303464583557933e+000
 2.150079992345209e-001	 2.992285340715546e+000	 8.235795681205444e+000
 1.878404294212756e-001	 2.994113553803930e+000	 8.165008477707088e+000
 1.607503436877059e-001	 2.995690125330548e+000	 8.092536104377134e+000
 1.337407324649106e-001	 2.997017420116060e+000	 8.019765152198543e+000
 1.068145226705124e-001	 2.998097839922249e+000	 7.948036436440424e+000
 7.997457744910133e-002	 2.998933821704276e+000	 7.878645801098999e+000
 5.322369596216075e-002	 2.999527835874867e+000	 7.812844959060297e+000
 2.656461322647793e-002	 2.999882384581794e+000	 7.751842364001166e+000
 0.000000000000000e+000	 3.000000000000000e+000	 7.696804110164820e+000
 2.718096746676061e-001	 3.012763598546989e+000	 8.043762252921232e+000
 2.442687494886068e-001	 3.015121519607826e+000	 7.996848589272067e+000
 2.167997325611536e-001	 3.017221051886249e+000	 7.947920567242947e+000
 1.894057663325807e-001	 3.019064500084158e+000	 7.898429039360485e+000
 1.620899298844222e-001	 3.020654209707225e+000	 7.849775468990797e+000
 1.348552385680359e-001	 3.021992565282949e+000	 7.803312752527214e+000
 1.077046436920234e-001	 3.023081988587792e+000	 7.760346085621607e+000
 8.064103226051250e-002	 3.023924936884879e+000	 7.722133869055626e+000
 5.366722676133132e-002	 3.024523901173706e+000	 7.689888649965074e+000
 2.678598500307297e-002	 3.024881404453279e+000	 7.664778094251949e+000
 0.000000000000000e+000	 3.025000000000000e+000	 7.647925986152615e+000
 2.740560356151188e-001	 3.037662471259737e+000	 7.732378750398224e+000
 2.462874994839552e-001	 3.040039879271976e+000	 7.701246561362783e+000
 2.185914658874736e-001	 3.042156763057263e+000	 7.670693362076647e+000
 1.909711032436471e-001	 3.044015446364626e+000	 7.642140170412276e+000
 1.634295160809640e-001	 3.045618294084078e+000	 7.616956469278372e+000
 1.359697446710402e-001	 3.046967710449958e+000	 7.596461131619077e+000
 1.085947647134573e-001	 3.048066137253413e+000	 7.581923389461068e+000
 8.130748707188042e-002	 3.048916052065525e+000	 7.574563842408363e+000
 5.411075756048274e-002	 3.049519966472564e+000	 7.575555501106465e+000
 2.700735677966324e-002	 3.049880424324769e+000	 7.586024861331122e+000
 0.000000000000000e+000	 3.050000000000000e+000	 7.607053004495639e+000
 2.763023965621398e-001	 3.062561343972977e+000	 7.432285672866207e+000
 2.483062494789065e-001	 3.064958238936522e+000	 7.416579971380804e+000
 2.203831992134811e-001	 3.067092474228589e+000	 7.404056439319271e+000
 1.925364401544751e-001	 3.068966392645331e+000	 7.396105945737397e+000
 1.647691022773311e-001	 3.070582378461104e+000	 7.394065661080615e+000
 1.370842507739238e-001	 3.071942855617088e+000	 7.399220086231439e+000
 1.094848857348142e-001	 3.073050285919111e+000	 7.412802125600471e+000
 8.197394188320514e-002	 3.073907167246214e+000	 7.435994199461010e+000
 5.455428835961503e-002	 3.074516031771442e+000	 7.469929390857440e+000
 2.722872855624875e-002	 3.074879444196264e+000	 7.515692622559805e+000
 0.000000000000000e+000	 3.075000000000000e+000	 7.574321859681579e+000
 2.785487575086692e-001	 3.087460216686710e+000	 7.143382787107423e+000
 2.503249994734609e-001	 3.089876598601465e+000	 7.142768463323233e+000
 2.221749325391760e-001	 3.092028185400229e+000	 7.147950121803359e+000
 1.941017770650646e-001	 3.093917338926275e+000	 7.160288149665605e+000
 1.661086884735236e-001	 3.095546462838306e+000	 7.181087053650858e+000
 1.381987568766865e-001	 3.096918000784339e+000	 7.211596594480493e+000
 1.103750067560940e-001	 3.098034434584885e+000	 7.253012965244212e+000
 8.264039669448670e-002	 3.098898282426946e+000	 7.306480008816108e+000
 5.499781915872820e-002	 3.099512097070338e+000	 7.373090469436465e+000
 2.745010033282948e-002	 3.099878464067764e+000	 7.453887273743727e+000
 0.000000000000000e+000	 3.100000000000000e+000	 7.549864836698463e+000
 2.807951184547069e-001	 3.112359089400934e+000	 6.865568303628692e+000
 2.523437494676183e-001	 3.114794958266807e+000	 6.879729926736001e+000
 2.239666658645582e-001	 3.116963896572182e+000	 6.902312763612650e+000
 1.956671139754155e-001	 3.118868285207458e+000	 6.934646367603687e+000
 1.674482746695415e-001	 3.120510547215681e+000	 6.978002211518830e+000
 1.393132629793283e-001	 3.121893145951711e+000	 7.033594928586592e+000
 1.112651277772967e-001	 3.123018583250737e+000	 7.102583597416574e+000
 8.330685150572503e-002	 3.123889397607721e+000	 7.186073065763519e+000
 5.544134995782223e-002	 3.124508162369253e+000	 7.285115308033994e+000
 2.767147210940546e-002	 3.124877483939268e+000	 7.400710811633452e+000
 0.000000000000000e+000	 3.125000000000000e+000	 7.533809987414968e+000
 2.830414794002528e-001	 3.137257962115649e+000	 6.938098137602815e+000
 2.543624994613788e-001	 3.139713317932543e+000	 7.012015769973118e+000
 2.257583991896280e-001	 3.141899607744446e+000	 7.079620890091852e+000
 1.972324508855279e-001	 3.143819231488879e+000	 7.142468833679192e+000
 1.687878608653847e-001	 3.145474631593233e+000	 7.202353737377407e+000
 1.404277690818493e-001	 3.146868291119204e+000	 7.261299931485131e+000
 1.121552487984223e-001	 3.148002731916666e+000	 7.321553085262395e+000
 8.397330631692018e-002	 3.148880512788539e+000	 7.385571131990736e+000
 5.588488075689713e-002	 3.149504227668189e+000	 7.456015000620640e+000
 2.789284388597667e-002	 3.149876503810777e+000	 7.535739180421575e+000
 0.000000000000000e+000	 3.150000000000000e+000	 7.627782144569113e+000
 2.852878403453070e-001	 3.162156834830856e+000	 7.369816349521927e+000
 2.563812494547424e-001	 3.164631677598678e+000	 7.419607921589494e+000
 2.275501325143851e-001	 3.166835318917024e+000	 7.460787539120879e+000
 1.987977877954018e-001	 3.168770177770539e+000	 7.494921700084028e+000
 1.701274470610533e-001	 3.170438715970958e+000	 7.523822710684387e+000
 1.415422751842495e-001	 3.171843436286817e+000	 7.549539880072979e+000
 1.130453698194709e-001	 3.172986880582671e+000	 7.574350460014188e+000
 8.463976112807213e-002	 3.173871627969401e+000	 7.600750357379638e+000
 5.632841155595290e-002	 3.174500292967142e+000	 7.631444646976648e+000
 2.811421566254312e-002	 3.174875523682292e+000	 7.669337911795059e+000
 0.000000000000000e+000	 3.175000000000000e+000	 7.717524437266550e+000
 2.875342012898696e-001	 3.187055707546556e+000	 7.810118362202460e+000
 2.583999994477090e-001	 3.189550037265209e+000	 7.835134874275798e+000
 2.293418658388295e-001	 3.191771030089913e+000	 7.849099248006850e+000
 2.003631247050372e-001	 3.193721124052436e+000	 7.853589919613178e+000
 1.714670332565472e-001	 3.195402800348858e+000	 7.850438303225691e+000
 1.426567812865288e-001	 3.196818581454552e+000	 7.841719782972558e+000
 1.139354908404424e-001	 3.197971029248754e+000	 7.829744442270936e+000
 8.530621593918086e-002	 3.198862743150305e+000	 7.817047558887750e+000
 5.677194235498956e-002	 3.199496358266116e+000	 7.806379893969751e+000
 2.833558743910480e-002	 3.199874543553810e+000	 7.800697802806713e+000
 0.000000000000000e+000	 3.199999999999999e+000	 7.803153194592253e+000
 2.897805622339404e-001	 3.211954580262747e+000	 8.258926787666631e+000
 2.604187494402786e-001	 3.214468396932137e+000	 8.258543305591283e+000
 2.311335991629615e-001	 3.216706741263115e+000	 8.244525643656477e+000
 2.019284616144341e-001	 3.218672070334574e+000	 8.218464947196202e+000
 1.728066194518666e-001	 3.220366884726932e+000	 8.182212672958633e+000
 1.437712873886872e-001	 3.221793726622408e+000	 8.137871373936113e+000
 1.148256118613368e-001	 3.222955177914914e+000	 8.087785213508832e+000
 8.597267075024639e-002	 3.223853858331254e+000	 8.034530238173312e+000
 5.721547315400705e-002	 3.224492423565107e+000	 7.980904437758156e+000
 2.855695921566170e-002	 3.224873563425334e+000	 7.929917621585223e+000
 0.000000000000000e+000	 3.224999999999999e+000	 7.884781138527599e+000
 2.920269231775196e-001	 3.236853452979430e+000	 8.716162962816178e+000
 2.624374994324514e-001	 3.239386756599464e+000	 8.689778455601317e+000
 2.329253324867810e-001	 3.241642452436632e+000	 8.647034739899750e+000
 2.034937985235925e-001	 3.243623016616949e+000	 8.589536436094871e+000
 1.741462056470113e-001	 3.245330969105182e+000	 8.519155974778114e+000
 1.448857934907249e-001	 3.246768871790385e+000	 8.438024169664132e+000
 1.157157328821542e-001	 3.247939326581152e+000	 8.348520511781706e+000
 8.663912556126877e-002	 3.248844973512246e+000	 8.253263214935130e+000
 5.765900395300546e-002	 3.249488488864120e+000	 8.155099042054868e+000
 2.877833099221386e-002	 3.249872583296864e+000	 8.057092941603553e+000
 0.000000000000000e+000	 3.250000000000000e+000	 7.962517522685383e+000
 3.250000000000000e+000	 0.000000000000000e+000	 1.106764659405549e+001
 3.249872583296864e+000	 2.877833099221397e-002	 1.096114623662784e+001
 3.249488488864120e+000	 5.765900395300565e-002	 1.085999965635550e+001
 3.248844973512246e+000	 8.663912556126854e-002	 1.076550564464606e+001
 3.247939326581152e+000	 1.157157328821541e-001	 1.067887454086320e+001
 3.246768871790384e+000	 1.448857934907248e-001	 1.060122970390782e+001
 3.245330969105183e+000	 1.741462056470114e-001	 1.053360934483934e+001
 3.243623016616949e+000	 2.034937985235927e-001	 1.047696872749396e+001
 3.241642452436632e+000	 2.329253324867808e-001	 1.043218274315885e+001
 3.239386756599463e+000	 2.624374994324513e-001	 1.040004886440833e+001
 3.236853452979430e+000	 2.920269231775197e-001	 1.038129048219427e+001
 3.275000000000000e+000	 0.000000000000000e+000	 1.104865457458547e+001
 3.274871603168394e+000	 2.899970276876611e-002	 1.094738201993624e+001
 3.274484554163141e+000	 5.810253475200403e-002	 1.085273246106605e+001
 3.273836088693259e+000	 8.730558037229089e-002	 1.076577908903371e+001
 3.272923475247428e+000	 1.166058539029715e-001	 1.068749922531166e+001
 3.271744016958421e+000	 1.460002995927624e-001	 1.061877595294416e+001
 3.270295053483519e+000	 1.754857918421561e-001	 1.056040012662171e+001
 3.268573962899444e+000	 2.050591354327511e-001	 1.051307276887035e+001
 3.266578163610304e+000	 2.347170658106001e-001	 1.047740785862233e+001
 3.264305116266987e+000	 2.644562494246239e-001	 1.045393551744230e+001
 3.261752325696358e+000	 2.942732841210988e-001	 1.044310559762966e+001
 3.300000000000000e+000	 0.000000000000000e+000	 1.103075239453518e+001
 3.299870623039924e+000	 2.922107454532303e-002	 1.093337763490253e+001
 3.299480619462162e+000	 5.854606555102154e-002	 1.084396416706999e+001
 3.298827203874272e+000	 8.797203518335642e-002	 1.076335815373082e+001
 3.297907623913702e+000	 1.174959749238659e-001	 1.069230236339810e+001
 3.296719162126458e+000	 1.471148056949209e-001	 1.063143796200694e+001
 3.295259137861856e+000	 1.768253780374754e-001	 1.058130670153573e+001
 3.293524909181938e+000	 2.066244723421480e-001	 1.054235351309177e+001
 3.291513874783975e+000	 2.365087991347321e-001	 1.051492951093880e+001
 3.289223475934511e+000	 2.664749994171936e-001	 1.049929541291286e+001
 3.286651198413287e+000	 2.965196450651695e-001	 1.049562538157930e+001
 3.324999999999999e+000	 0.000000000000000e+000	 1.101291836237442e+001
 3.324869642911456e+000	 2.944244632188471e-002	 1.091829524249400e+001
 3.324476684761182e+000	 5.898959635005818e-002	 1.083304157958075e+001
 3.323818319055285e+000	 8.863848999446515e-002	 1.075777499868485e+001
 3.322891772579979e+000	 1.183860959448374e-001	 1.069300209692676e+001
 3.321694307294494e+000	 1.482293117972002e-001	 1.063912039644553e+001
 3.320223222240192e+000	 1.781649642329694e-001	 1.059642071269870e+001
 3.318475855464432e+000	 2.081898092517834e-001	 1.056508994581166e+001
 3.316449585957646e+000	 2.383005324591765e-001	 1.054521430166873e+001
 3.314141835602035e+000	 2.684937494101602e-001	 1.053678294836860e+001
 3.311550071130215e+000	 2.987660060097320e-001	 1.053969211253195e+001
 3.350000000000000e+000	 0.000000000000000e+000	 1.099416128482762e+001
 3.349868662782986e+000	 2.966381809845116e-002	 1.090132450321872e+001
 3.349472750060204e+000	 5.943312714911397e-002	 1.081933600648403e+001
 3.348809434236297e+000	 8.930494480561710e-002	 1.074858329264219e+001
 3.347875921246254e+000	 1.192762169658859e-001	 1.068933508679071e+001
 3.346669452462531e+000	 1.493438178996003e-001	 1.064174345633565e+001
 3.345187306618529e+000	 1.795045504286380e-001	 1.060584636014075e+001
 3.343426801746927e+000	 2.097551461616573e-001	 1.058157063954926e+001
 3.341385297131318e+000	 2.400922657839337e-001	 1.056873545819080e+001
 3.339060195269558e+000	 2.705124994035237e-001	 1.056705619637534e+001
 3.336448943847143e+000	 3.010123669547863e-001	 1.057614880470099e+001
 3.375000000000000e+000	 0.000000000000000e+000	 1.097351933730878e+001
 3.374867682654517e+000	 2.988518987502237e-002	 1.088168155862400e+001
 3.374468815359225e+000	 5.987665794818887e-002	 1.080224235083128e+001
 3.373800549417310e+000	 8.997139961681223e-002	 1.073535741652620e+001
 3.372860069912530e+000	 1.201663379870116e-001	 1.068105582707960e+001
 3.371644597630567e+000	 1.504583240021213e-001	 1.063924230111898e+001
 3.370151390996865e+000	 1.808441366244812e-001	 1.060969993573393e+001
 3.368377748029421e+000	 2.113204830717697e-001	 1.059209339862060e+001
 3.366321008304989e+000	 2.418839991090034e-001	 1.058597258830118e+001
 3.363978554937082e+000	 2.725312493972842e-001	 1.059077676840449e+001
 3.361347816564072e+000	 3.032587279003323e-001	 1.060583918077568e+001
 3.400000000000000e+000	 0.000000000000000e+000	 1.095005898419032e+001
 3.399866702526047e+000	 3.010656165159834e-002	 1.085860805772873e+001
 3.399464880658245e+000	 6.032018874728289e-002	 1.078117824337072e+001
 3.398791664598323e+000	 9.063785442805056e-002	 1.071769170196003e+001
 3.397844218578805e+000	 1.210564590082143e-001	 1.066793598944750e+001
 3.396619742798603e+000	 1.515728301047631e-001	 1.063156649962663e+001
 3.395115475375202e+000	 1.821837228204991e-001	 1.060810937863935e+001
 3.393328694311914e+000	 2.128858199821206e-001	 1.059696491973417e+001
 3.391256719478661e+000	 2.436757324343857e-001	 1.059741144563942e+001
 3.388896914604606e+000	 2.745499993914417e-001	 1.060860968472615e+001
 3.386246689281000e+000	 3.055050888463699e-001	 1.062960764587399e+001
 3.425000000000000e+000	 0.000000000000000e+000	 1.092287394635927e+001
 3.424865722397579e+000	 3.032793342817908e-002	 1.083137022609380e+001
 3.424460945957267e+000	 6.076371954639608e-002	 1.075558321306887e+001
 3.423782779779336e+000	 9.130430923933212e-002	 1.069519970313885e+001
 3.422828367245081e+000	 1.219465800294941e-001	 1.064976379619457e+001
 3.421594887966640e+000	 1.526873362075258e-001	 1.061867950418887e+001
 3.420079559753539e+000	 1.835233090166916e-001	 1.060121385022351e+001
 3.418279640594410e+000	 2.144511568927102e-001	 1.059650046745110e+001
 3.416192430652332e+000	 2.454674657600806e-001	 1.060354370538752e+001
 3.413815274272130e+000	 2.765687493859961e-001	 1.062122325000051e+001
 3.411145561997928e+000	 3.077514497928993e-001	 1.064829926263660e+001
 3.449999999999999e+000	 0.000000000000000e+000	 1.089108421366246e+001
 3.449864742269110e+000	 3.054930520476459e-002	 1.079925797536773e+001
 3.449457011256287e+000	 6.120725034552838e-002	 1.072491789369737e+001
 3.448773894960349e+000	 9.197076405065684e-002	 1.066751350035992e+001
 3.447812515911356e+000	 1.228367010508510e-001	 1.062634342060580e+001
 3.446570033134677e+000	 1.538018423104094e-001	 1.060055814760995e+001
 3.445043644131875e+000	 1.848628952130587e-001	 1.058916332745675e+001
 3.443230586876903e+000	 2.160164938035381e-001	 1.059102356375573e+001
 3.441128141826004e+000	 2.472591990860880e-001	 1.060486674972142e+001
 3.438733633939654e+000	 2.785874993809474e-001	 1.062928893427812e+001
 3.436044434714856e+000	 3.099978107399203e-001	 1.066275972740360e+001
 3.474999999999999e+000	 0.000000000000000e+000	 1.085383509997979e+001
 3.474863762140640e+000	 3.077067698135486e-002	 1.076158405126906e+001
 3.474453076555308e+000	 6.165078114467980e-002	 1.068866326466691e+001
 3.473765010141362e+000	 9.263721886202479e-002	 1.063428303361610e+001
 3.472796664577632e+000	 1.237268220722849e-001	 1.059749441317476e+001
 3.471545178302714e+000	 1.549163484134138e-001	 1.057719216185604e+001
 3.470007728510212e+000	 1.862024814096004e-001	 1.057211821386274e+001
 3.468181533159398e+000	 2.175818307146046e-001	 1.058086569102595e+001
 3.466063852999675e+000	 2.490509324124081e-001	 1.060188346252343e+001
 3.463651993607177e+000	 2.806062493762958e-001	 1.063348125913703e+001
 3.460943307431786e+000	 3.122441716874331e-001	 1.067383534741950e+001
 3.500000000000000e+000	 0.000000000000000e+000	 1.081029633879466e+001
 3.499862782012172e+000	 3.099204875794991e-002	 1.071768321808385e+001
 3.499449141854330e+000	 6.209431194385037e-002	 1.064631992439754e+001
 3.498756125322376e+000	 9.330367367343595e-002	 1.059517546474947e+001
 3.497780813243909e+000	 1.246169430937959e-001	 1.056305115241749e+001
 3.496520323470751e+000	 1.560308545165391e-001	 1.054858371737090e+001
 3.494971812888549e+000	 1.875420676063169e-001	 1.055024896714155e+001
 3.493132479441893e+000	 2.191471676259096e-001	 1.056636600773351e+001
 3.490999564173347e+000	 2.508426657390408e-001	 1.059510203289265e+001
 3.488570353274701e+000	 2.826249993720411e-001	 1.063447768869964e+001
 3.485842180148715e+000	 3.144905326354376e-001	 1.068237301901539e+001
 3.236853452979430e+000	 2.920269231775197e-001	 1.038129048219427e+001
 3.234040111211981e+000	 3.216901599082671e-001	 1.047716875304241e+001
 3.230944348622705e+000	 3.514236986856594e-001	 1.058504361815237e+001
 3.227563832160543e+000	 3.812239620090088e-001	 1.070545120178735e+001
 3.223896280334043e+000	 4.110873064392887e-001	 1.083887325224779e+001
 3.219939465148238e+000	 4.410100232820740e-001	 1.098574245151745e+001
 3.215691214040372e+000	 4.709883393310329e-001	 1.114644810610026e+001
 3.211149411812481e+000	 5.010184176725818e-001	 1.132134221446739e+001
 3.206312002558781e+000	 5.310963585522424e-001	 1.151074590513583e+001
 3.201176991585784e+000	 5.612182003031746e-001	 1.171495623796412e+001
 3.195742447322996e+000	 5.913799203372813e-001	 1.193425335978866e+001
 3.261752325696358e+000	 2.942732841210988e-001	 1.044310559762966e+001
 3.258917342838710e+000	 3.241646995955180e-001	 1.054572756722750e+001
 3.255797766691325e+000	 3.541269579017121e-001	 1.065778971486317e+001
 3.252391246256594e+000	 3.841564540197591e-001	 1.077945729749836e+001
 3.248695482493130e+000	 4.142495164841794e-001	 1.091083576318858e+001
 3.244708230267543e+000	 4.444024080721309e-001	 1.105197647381761e+001
 3.240427300305057e+000	 4.746113265526195e-001	 1.120288282958982e+001
 3.235850561136954e+000	 5.048724054973430e-001	 1.136351679044764e+001
 3.230975941042790e+000	 5.351817151537135e-001	 1.153380578812218e+001
 3.225801429985276e+000	 5.655352633805314e-001	 1.171365002103038e+001
 3.220325081535687e+000	 5.959289966467158e-001	 1.190293012270744e+001
 3.286651198413287e+000	 2.965196450651695e-001	 1.049562538157930e+001
 3.283794574465441e+000	 3.266392392833462e-001	 1.060223084995975e+001
 3.280651184759944e+000	 3.568302171183990e-001	 1.071578221640397e+001
 3.277218660352643e+000	 3.870889460311707e-001	 1.083607236720232e+001
 3.273494684652216e+000	 4.174117265297296e-001	 1.096282886583649e+001
 3.269476995386850e+000	 4.477947928628163e-001	 1.109572009146873e+001
 3.265163386569745e+000	 4.782343137747729e-001	 1.123436179998613e+001
 3.260551710461429e+000	 5.087263933225793e-001	 1.137832410251317e+001
 3.255639879526798e+000	 5.392670717555368e-001	 1.152713885478716e+001
 3.250425868384768e+000	 5.698523264580871e-001	 1.168030744923464e+001
 3.244907715748377e+000	 6.004780729561651e-001	 1.183730900000159e+001
 3.311550071130215e+000	 2.987660060097320e-001	 1.053969211253195e+001
 3.308671806092171e+000	 3.291137789717518e-001	 1.064775485621701e+001
 3.305504602828564e+000	 3.595334763357197e-001	 1.076033097289709e+001
 3.302046074448694e+000	 3.900214380432441e-001	 1.087683935360400e+001
 3.298293886811303e+000	 4.205739365759399e-001	 1.099662796996321e+001
 3.294245760506156e+000	 4.511871776541295e-001	 1.111898043119158e+001
 3.289899472834430e+000	 4.818573009974929e-001	 1.124312298468176e+001
 3.285252859785903e+000	 5.125803811482900e-001	 1.136823195483129e+001
 3.280303818010806e+000	 5.433524283577124e-001	 1.149344161319563e+001
 3.275050306784260e+000	 5.741693895358420e-001	 1.161785247142744e+001
 3.269490349961068e+000	 6.050271492656288e-001	 1.174053998681435e+001
 3.336448943847143e+000	 3.010123669547863e-001	 1.057614880470099e+001
 3.333549037718900e+000	 3.315883186607346e-001	 1.068337227384937e+001
 3.330358020897183e+000	 3.622367355536747e-001	 1.079273798663710e+001
 3.326873488544744e+000	 3.929539300559794e-001	 1.090328909495797e+001
 3.323093088970390e+000	 4.237361466228101e-001	 1.101399215028482e+001
 3.319014525625462e+000	 4.545795624460712e-001	 1.112374408201703e+001
 3.314635559099118e+000	 4.854802882207795e-001	 1.123137964068352e+001
 3.309954009110376e+000	 5.164343689744756e-001	 1.133567930040465e+001
 3.304967756494813e+000	 5.474377849602401e-001	 1.143537761337551e+001
 3.299674745183751e+000	 5.784864526137957e-001	 1.152917200745426e+001
 3.294072984173759e+000	 6.095762255751076e-001	 1.161573201622551e+001
 3.361347816564072e+000	 3.032587279003323e-001	 1.060583918077568e+001
 3.358426269345630e+000	 3.340628583502949e-001	 1.071015235569458e+001
 3.355211438965803e+000	 3.649399947722639e-001	 1.081429770275126e+001
 3.351700902640793e+000	 3.958864220693762e-001	 1.091694077338162e+001
 3.347892291129476e+000	 4.268983566703398e-001	 1.101666475146392e+001
 3.343783290744768e+000	 4.579719472386412e-001	 1.111197785594132e+001
 3.339371645363804e+000	 4.891032754446326e-001	 1.120132122981191e+001
 3.334655158434851e+000	 5.202883568011358e-001	 1.128307730963313e+001
 3.329631694978821e+000	 5.515231415631203e-001	 1.135557866798583e+001
 3.324299183583244e+000	 5.828035156919486e-001	 1.141711731960020e+001
 3.318655618386451e+000	 6.141253018846009e-001	 1.146595448006883e+001
 3.386246689281000e+000	 3.055050888463699e-001	 1.062960764587399e+001
 3.383303500972360e+000	 3.365373980404324e-001	 1.072916104586560e+001
 3.380064857034422e+000	 3.676432539914870e-001	 1.082629728703640e+001
 3.376528316736844e+000	 3.988189140834348e-001	 1.091930234338958e+001
 3.372691493288563e+000	 4.300605667185297e-001	 1.100637396642033e+001
 3.368552055864074e+000	 4.613643320318394e-001	 1.108562951502295e+001
 3.364107731628490e+000	 4.927262626690525e-001	 1.115511429352425e+001
 3.359356307759325e+000	 5.241423446282708e-001	 1.121281039173308e+001
 3.354295633462829e+000	 5.556084981663527e-001	 1.125664601913190e+001
 3.348923621982736e+000	 5.871205787703004e-001	 1.128450532352984e+001
 3.343238252599141e+000	 6.186743781941089e-001	 1.129423868265429e+001
 3.411145561997928e+000	 3.077514497928993e-001	 1.064829926263660e+001
 3.408180732599090e+000	 3.390119377311472e-001	 1.074146110050693e+001
 3.404918275103042e+000	 3.703465132113444e-001	 1.083001689162802e+001
 3.401355730832894e+000	 4.017514060981550e-001	 1.091187094166033e+001
 3.397490695447650e+000	 4.332227767673792e-001	 1.098483338931450e+001
 3.393320820983380e+000	 4.647567168256657e-001	 1.104662846663584e+001
 3.388843817893178e+000	 4.963492498940390e-001	 1.109490328942429e+001
 3.384057457083798e+000	 5.279963324558805e-001	 1.112723717142281e+001
 3.378959571946838e+000	 5.596938547699373e-001	 1.114115145407886e+001
 3.373548060382228e+000	 5.914376418488513e-001	 1.113411984181351e+001
 3.367820886811832e+000	 6.232234545036315e-001	 1.110357923082370e+001
 3.436044434714856e+000	 3.099978107399203e-001	 1.066275972740360e+001
 3.433057964225819e+000	 3.414864774224395e-001	 1.074811220330065e+001
 3.429771693171661e+000	 3.730497724318357e-001	 1.082672990911850e+001
 3.426183144928944e+000	 4.046838981135369e-001	 1.089613327898674e+001
 3.422289897606735e+000	 4.363849868168885e-001	 1.095374254448810e+001
 3.418089586102685e+000	 4.681491016201202e-001	 1.099688642849422e+001
 3.413579904157863e+000	 4.999722371195919e-001	 1.102281139140188e+001
 3.408758606408273e+000	 5.318503202839651e-001	 1.102869142314365e+001
 3.403623510430845e+000	 5.637792113738743e-001	 1.101163837245628e+001
 3.398172498781719e+000	 5.957547049276010e-001	 1.096871280295257e+001
 3.392403521024523e+000	 6.277725308131688e-001	 1.106693133624426e+001
 3.460943307431786e+000	 3.122441716874331e-001	 1.067383534741950e+001
 3.457935195852550e+000	 3.439610171143091e-001	 1.075017107598675e+001
 3.454625111240281e+000	 3.757530316529612e-001	 1.081770321570609e+001
 3.451010559024994e+000	 4.076163901295806e-001	 1.087356601530801e+001
 3.447089099765823e+000	 4.395471968670578e-001	 1.091478739257255e+001
 3.442858351221993e+000	 4.715414864152032e-001	 1.093829806497136e+001
 3.438315990422550e+000	 5.035952243457118e-001	 1.094094125523415e+001
 3.433459755732745e+000	 5.357043081125240e-001	 1.091948296495487e+001
 3.428287448914853e+000	 5.678645679781635e-001	 1.087062280739601e+001
 3.422796937181212e+000	 6.000717680065498e-001	 1.079100538864816e+001
 3.416986155237214e+000	 6.323216071227208e-001	 1.112070171120851e+001
 3.485842180148715e+000	 3.144905326354376e-001	 1.068237301901539e+001
 3.482812427479281e+000	 3.464355568067562e-001	 1.074869158414671e+001
 3.479478529308901e+000	 3.784562908747209e-001	 1.080419740392328e+001
 3.475837973121044e+000	 4.105488821462860e-001	 1.084563611866867e+001
 3.471888301924910e+000	 4.427094069178869e-001	 1.086964081490739e+001
 3.467627116341299e+000	 4.749338712109144e-001	 1.087274159614744e+001
 3.463052076687238e+000	 5.072182115723981e-001	 1.085137575137545e+001
 3.458160905057221e+000	 5.395582959415582e-001	 1.080189851411866e+001
 3.452951387398861e+000	 5.719499245828053e-001	 1.072059440290722e+001
 3.447421375580704e+000	 6.043888310856977e-001	 1.060368913190114e+001
 3.441568789449906e+000	 6.368706834322875e-001	 1.115522102445854e+001
 3.195742447322996e+000	 5.913799203372813e-001	 1.193425335978866e+001
 3.190006503222291e+000	 6.215774361993541e-001	 1.036653568561740e+001
 3.183967359642995e+000	 6.518066066841965e-001	 1.039862426892393e+001
 3.177623285720976e+000	 6.820632330168475e-001	 1.061950110874304e+001
 3.170972621219920e+000	 7.123430600964775e-001	 1.081998786862420e+001
 3.164013778361765e+000	 7.426417778035708e-001	 1.099678059258465e+001
 3.156745243634213e+000	 7.729550223703776e-001	 1.114645034876014e+001
 3.149165579572983e+000	 8.032783778144551e-001	 1.126544037774189e+001
 3.141273426516435e+000	 8.336073774350103e-001	 1.135006339412770e+001
 3.133067504330196e+000	 8.639375053716755e-001	 1.139649905666027e+001
 3.124546614099405e+000	 8.942641982252434e-001	 1.139957543298693e+001
 3.220325081535687e+000	 5.959289966467158e-001	 1.190293012270744e+001
 3.214545014787886e+000	 6.263588010934251e-001	 1.033161339214208e+001
 3.208459416257858e+000	 6.568205036599045e-001	 1.052239567716615e+001
 3.202066541767134e+000	 6.873098732729227e-001	 1.069702626614295e+001
 3.195364718308351e+000	 7.178226221001052e-001	 1.085259697672681e+001
 3.188352345889771e+000	 7.483544068671686e-001	 1.098607841015273e+001
 3.181027899356695e+000	 7.789008302389191e-001	 1.109431660694895e+001
 3.173389930187422e+000	 8.094574422638170e-001	 1.117402983387513e+001
 3.165437068261379e+000	 8.400197418818309e-001	 1.122180551786954e+001
 3.157168023597005e+000	 8.705831784952052e-001	 1.123409734299652e+001
 3.148581588057016e+000	 9.011431536016611e-001	 1.120722252654487e+001
 3.244907715748377e+000	 6.004780729561651e-001	 1.183730900000159e+001
 3.239083526353474e+000	 6.311401659873205e-001	 1.048535544261501e+001
 3.232951472872700e+000	 6.618344006352653e-001	 1.063367467928151e+001
 3.226509797813247e+000	 6.925565135284995e-001	 1.076694615919022e+001
 3.219756815396703e+000	 7.233021841031020e-001	 1.088253496593724e+001
 3.212690913417656e+000	 7.540670359300240e-001	 1.097768566047737e+001
 3.205310555079000e+000	 7.848466381066257e-001	 1.104951857966503e+001
 3.197614280801620e+000	 8.156365067122716e-001	 1.109502625928238e+001
 3.189600710006009e+000	 8.464321063276927e-001	 1.111106999793484e+001
 3.181268542863414e+000	 8.772288516177456e-001	 1.109437657843068e+001
 3.172616562014134e+000	 9.080221089770787e-001	 1.104153516344976e+001
 3.269490349961068e+000	 6.050271492656288e-001	 1.174053998681435e+001
 3.263622037919057e+000	 6.359215308810399e-001	 1.062207215659942e+001
 3.257443529487524e+000	 6.668482976102796e-001	 1.073258235520417e+001
 3.250953053859317e+000	 6.978031537835777e-001	 1.082919677008019e+001
 3.244148912484980e+000	 7.287817461054684e-001	 1.090955332015482e+001
 3.237029480945418e+000	 7.597796649921365e-001	 1.097117002001572e+001
 3.229593210801129e+000	 7.907924459734975e-001	 1.101144091863336e+001
 3.221838631415580e+000	 8.218155711598196e-001	 1.102763215588569e+001
 3.213764351750323e+000	 8.528444707725963e-001	 1.101687815386942e+001
 3.205369062129424e+000	 8.838745247392957e-001	 1.097617796024884e+001
 3.196651535970757e+000	 9.149010643514963e-001	 1.090239176110971e+001
 3.294072984173759e+000	 6.095762255751076e-001	 1.161573201622551e+001
 3.288160549484637e+000	 6.407028957745838e-001	 1.074203351145890e+001
 3.281935586102328e+000	 6.718621945849470e-001	 1.081920743475241e+001
 3.275396309905343e+000	 7.030497940381575e-001	 1.088368609342103e+001
 3.268541009573177e+000	 7.342613081072044e-001	 1.093337990019342e+001
 3.261368048473059e+000	 7.654922940535064e-001	 1.096607990678499e+001
 3.253875866523083e+000	 7.967382538395345e-001	 1.097945338007563e+001
 3.246062982029298e+000	 8.279946356064606e-001	 1.097103948945590e+001
 3.237927993494324e+000	 8.592568352165414e-001	 1.093824512293854e+001
 3.229469581395036e+000	 8.905201978598566e-001	 1.087834084992866e+001
 3.220686509926887e+000	 9.217800197249140e-001	 1.078845704879097e+001
 3.318655618386451e+000	 6.141253018846009e-001	 1.146595448006883e+001
 3.312699061050211e+000	 6.454842606679520e-001	 1.084547413527745e+001
 3.306427642717112e+000	 6.768760915592673e-001	 1.089360749578121e+001
 3.299839565951326e+000	 7.082964342922389e-001	 1.093029517281105e+001
 3.292933106661296e+000	 7.397408701083097e-001	 1.095371981871049e+001
 3.285706616000578e+000	 7.712049231141334e-001	 1.096194519363801e+001
 3.278158522244861e+000	 8.026840617047366e-001	 1.095291137639545e+001
 3.270287332642777e+000	 8.341737000521948e-001	 1.092443007984044e+001
 3.262091635238009e+000	 8.656691996595277e-001	 1.087418008910034e+001
 3.253570100660249e+000	 8.971658709794281e-001	 1.079970284113235e+001
 3.244721483882524e+000	 9.286589750973319e-001	 1.069839816444722e+001
 3.343238252599141e+000	 6.186743781941089e-001	 1.129423868265429e+001
 3.337237572615780e+000	 6.502656255611442e-001	 1.093259460646536e+001
 3.330919699331878e+000	 6.818899885332411e-001	 1.095581010947489e+001
 3.324282821997265e+000	 7.135430745458216e-001	 1.096887909168474e+001
 3.317325203749339e+000	 7.452204321087845e-001	 1.097025627653646e+001
 3.310045183527974e+000	 7.769175521740177e-001	 1.095827789007082e+001
 3.302441177966462e+000	 8.086298695691037e-001	 1.093115650352475e+001
 3.294511683256015e+000	 8.403527644970220e-001	 1.088697597397524e+001
 3.286255276981380e+000	 8.720815641015558e-001	 1.082368650187734e+001
 3.277670619925062e+000	 9.038115440980098e-001	 1.073909982469980e+001
 3.268756457837667e+000	 9.355379304687496e-001	 1.063088456616467e+001
 3.367820886811832e+000	 6.232234545036315e-001	 1.110357923082370e+001
 3.361776084181346e+000	 6.550469904541610e-001	 1.100356269644817e+001
 3.355411755946624e+000	 6.869038855068678e-001	 1.100581393548135e+001
 3.348726078043160e+000	 7.187897147989056e-001	 1.099926792076403e+001
 3.341717300837303e+000	 7.506999941086290e-001	 1.098265136237638e+001
 3.334383751055251e+000	 7.826301812331595e-001	 1.095457279416996e+001
 3.326723833687888e+000	 8.145756774326358e-001	 1.091351704517445e+001
 3.318736033869013e+000	 8.465318289409424e-001	 1.085783980256037e+001
 3.310418918724438e+000	 8.784939285426251e-001	 1.078576228564245e+001
 3.301771139189478e+000	 9.104572172156019e-001	 1.069536605079547e+001
 3.292791431792316e+000	 9.424168858391672e-001	 1.058458794748586e+001
 3.392403521024523e+000	 6.277725308131688e-001	 1.106693133624426e+001
 3.386314595746905e+000	 6.598283553470019e-001	 1.105851455832552e+001
 3.379903812561350e+000	 6.919177824801479e-001	 1.104358976943134e+001
 3.373169334089012e+000	 7.240363550514914e-001	 1.102126762431601e+001
 3.366109397925190e+000	 7.561795561078428e-001	 1.099054681774213e+001
 3.358722318582403e+000	 7.883428102915583e-001	 1.095030811621433e+001
 3.351006489409138e+000	 8.205214852953331e-001	 1.089930845516146e+001
 3.342960384481771e+000	 8.527108933839557e-001	 1.083617512122803e+001
 3.334582560467180e+000	 8.849062929827362e-001	 1.075940003980562e+001
 3.325871658453493e+000	 9.171028903322045e-001	 1.066733418835313e+001
 3.316826405746471e+000	 9.492958412085848e-001	 1.055818215641486e+001
 3.416986155237214e+000	 6.323216071227208e-001	 1.112070171120851e+001
 3.410853107312460e+000	 6.646097202396671e-001	 1.109755586422113e+001
 3.404395869176057e+000	 6.969316794530809e-001	 1.106908154524149e+001
 3.397612590134821e+000	 7.292829953035789e-001	 1.103466092729165e+001
 3.390501495013000e+000	 7.616591181064262e-001	 1.099356476886585e+001
 3.383060886109436e+000	 7.940554393492147e-001	 1.094494607535896e+001
 3.375289145130212e+000	 8.264672931571958e-001	 1.088783381891562e+001
 3.367184735094290e+000	 8.588899578260625e-001	 1.082112673698381e+001
 3.358746202209609e+000	 8.913186574218885e-001	 1.074358723035924e+001
 3.349972177717109e+000	 9.237485634478172e-001	 1.065383538195469e+001
 3.340861379700133e+000	 9.561747965770026e-001	 1.055034311791861e+001
 3.441568789449906e+000	 6.368706834322875e-001	 1.115522102445854e+001
 3.435391618878011e+000	 6.693910851321568e-001	 1.112076289388914e+001
 3.428887925790747e+000	 7.019455764256674e-001	 1.108220729446117e+001
 3.422055846180587e+000	 7.345296355551677e-001	 1.103920814530146e+001
 3.414893592100732e+000	 7.671386801043790e-001	 1.099130842724562e+001
 3.407399453636346e+000	 7.997680684061285e-001	 1.093793347074655e+001
 3.399571800851111e+000	 8.324131010182234e-001	 1.087838429520782e+001
 3.391409085706569e+000	 8.650690222672625e-001	 1.081183102065772e+001
 3.382909843951724e+000	 8.977310218600828e-001	 1.073730637321451e+001
 3.374072696980329e+000	 9.303942365624409e-001	 1.065369930627137e+001
 3.364896353653301e+000	 9.630537519444204e-001	 1.055974875974971e+001
 3.124546614099405e+000	 8.942641982252434e-001	 1.139957543298693e+001
 3.115709639785576e+000	 9.245828467396423e-001	 1.149949281970390e+001
 3.106555549847563e+000	 9.548887975447460e-001	 1.157701230490241e+001
 3.097083398822883e+000	 9.851773549594461e-001	 1.163085147907185e+001
 3.087292328865915e+000	 1.015443782853513e+000	 1.165975629420154e+001
 3.077181571242415e+000	 1.045683306567630e+000	 1.166250546956358e+001
 3.066750447777396e+000	 1.075891114890496e+000	 1.163791493456428e+001
 3.055998372254012e+000	 1.106062362091802e+000	 1.158484229778474e+001
 3.044924851761178e+000	 1.136192170009821e+000	 1.150219133095294e+001
 3.033529487987621e+000	 1.166275630192231e+000	 1.138891645623794e+001
 3.021811978460158e+000	 1.196307806088698e+000	 1.124402722493639e+001
 3.148581588057016e+000	 9.011431536016611e-001	 1.120722252654487e+001
 3.139676637017926e+000	 9.316950224893300e-001	 1.134092509686572e+001
 3.130452131003560e+000	 9.622340959929508e-001	 1.145048916486968e+001
 3.120907117278647e+000	 9.927556423107905e-001	 1.152336126328167e+001
 3.111040731398753e+000	 1.023254888880847e+000	 1.155517426243618e+001
 3.100852198716295e+000	 1.053727024315657e+000	 1.155860152224519e+001
 3.090340835839549e+000	 1.084167200394599e+000	 1.153237936654167e+001
 3.079506052042313e+000	 1.114570534112516e+000	 1.147528766983259e+001
 3.068347350621874e+000	 1.144932109783358e+000	 1.138615451240593e+001
 3.056864330203026e+000	 1.175246981197481e+000	 1.126386083871524e+001
 3.045056685985869e+000	 1.205510173831083e+000	 1.110734510672338e+001
 3.172616562014134e+000	 9.080221089770787e-001	 1.104153516344976e+001
 3.163643634249695e+000	 9.388071982380229e-001	 1.118469751254668e+001
 3.154348712158920e+000	 9.695793944401748e-001	 1.130381561934061e+001
 3.144730835733751e+000	 1.000333929661178e+000	 1.139628809269853e+001
 3.134789133930934e+000	 1.031065994907259e+000	 1.145936550900071e+001
 3.124522826189546e+000	 1.061770742062806e+000	 1.148902612121144e+001
 3.113931223901139e+000	 1.092443285897878e+000	 1.146204271867390e+001
 3.103013731830142e+000	 1.123078706132470e+000	 1.140179099194878e+001
 3.091769849482220e+000	 1.153672049556212e+000	 1.130702196418240e+001
 3.080199172418235e+000	 1.184218332202131e+000	 1.117654174870995e+001
 3.068301393511570e+000	 1.214712541572961e+000	 1.100921637154956e+001
 3.196651535970757e+000	 9.149010643514963e-001	 1.090239176110971e+001
 3.187610631480886e+000	 9.459193739857201e-001	 1.105342241296122e+001
 3.178245293313646e+000	 9.769246928864183e-001	 1.118057997113913e+001
 3.168554554188189e+000	 1.007912217010610e+000	 1.128125932785958e+001
 3.158537536462453e+000	 1.038877100932750e+000	 1.135270386037061e+001
 3.148193453662171e+000	 1.069814459809077e+000	 1.139200203876634e+001
 3.137521611962162e+000	 1.100719371400334e+000	 1.139608429299060e+001
 3.126521411617497e+000	 1.131586878151666e+000	 1.136172015768828e+001
 3.115192348342218e+000	 1.162411989328380e+000	 1.126569432221189e+001
 3.103534014633251e+000	 1.193189683206180e+000	 1.112788682541207e+001
 3.091546101037261e+000	 1.223914909314336e+000	 1.095059483925092e+001
 3.220686509926887e+000	 9.217800197249140e-001	 1.078845704879097e+001
 3.211577628711498e+000	 9.530315497324225e-001	 1.094574013605641e+001
 3.202141874467737e+000	 9.842699913316814e-001	 1.107939869368405e+001
 3.192378272641967e+000	 1.015490504359086e+000	 1.118682587656337e+001
 3.182285938993314e+000	 1.046688206957319e+000	 1.126525975730415e+001
 3.171864081134169e+000	 1.077858177554471e+000	 1.131177979470070e+001
 3.161112000022622e+000	 1.108995456901967e+000	 1.132330356641884e+001
 3.150029091404383e+000	 1.140095050170102e+000	 1.129658378507435e+001
 3.138614847201868e+000	 1.171151929099864e+000	 1.122820561664218e+001
 3.126868856848072e+000	 1.202161034209630e+000	 1.111458431983226e+001
 3.114790808562941e+000	 1.233117277055205e+000	 1.093243477216223e+001
 3.244721483882524e+000	 9.286589750973319e-001	 1.069839816444722e+001
 3.235544625941530e+000	 9.601437254781297e-001	 1.086029317909320e+001
 3.226038455621191e+000	 9.916152897759637e-001	 1.099889018122414e+001
 3.216201991095082e+000	 1.023068791706605e+000	 1.111158258776701e+001
 3.206034341523513e+000	 1.054499312980966e+000	 1.119560508067187e+001
 3.195534708605540e+000	 1.085901895298987e+000	 1.124802993157856e+001
 3.184702388082517e+000	 1.117271542402776e+000	 1.126576359581642e+001
 3.173536771190797e+000	 1.148603222187779e+000	 1.124554359542717e+001
 3.162037346061168e+000	 1.179891868870663e+000	 1.118393571066960e+001
 3.150203699062697e+000	 1.211132385212480e+000	 1.107733149915840e+001
 3.138035516088611e+000	 1.242319644795568e+000	 1.092194616140241e+001
 3.268756457837667e+000	 9.355379304687496e-001	 1.063088456616467e+001
 3.259511623170984e+000	 9.672559012228417e-001	 1.079572611925982e+001
 3.249935036774011e+000	 9.989605882192657e-001	 1.093767467821928e+001
 3.240025709547534e+000	 1.030647079053168e+000	 1.105412594158960e+001
 3.229782744053054e+000	 1.062310419003691e+000	 1.114231313429743e+001
 3.219205336076284e+000	 1.093945613042626e+000	 1.119930318403452e+001
 3.208292776141848e+000	 1.125547627902762e+000	 1.122199317216342e+001
 3.197044450976738e+000	 1.157111394204698e+000	 1.120710707936629e+001
 3.185459844920121e+000	 1.188631808640778e+000	 1.115119284602683e+001
 3.173538541277128e+000	 1.220103736214729e+000	 1.105061976702512e+001
 3.161280223614271e+000	 1.251522012535427e+000	 1.091398165684990e+001
 3.292791431792316e+000	 9.424168858391672e-001	 1.058458794748586e+001
 3.283478620399857e+000	 9.743680769665586e-001	 1.075068553776211e+001
 3.273831617926194e+000	 1.006305886661587e+000	 1.089437421181459e+001
 3.263849427999325e+000	 1.038225366398776e+000	 1.101305398978082e+001
 3.253531146581935e+000	 1.070121525025494e+000	 1.110395859302501e+001
 3.242875963546400e+000	 1.101989330785387e+000	 1.116415146772088e+001
 3.231883164200613e+000	 1.133823713401924e+000	 1.119052208821994e+001
 3.220552130762207e+000	 1.165619566220857e+000	 1.117978256097182e+001
 3.208882343778725e+000	 1.197371748410209e+000	 1.112846454952994e+001
 3.196873383491363e+000	 1.229075087216379e+000	 1.103291654086088e+001
 3.184524931139920e+000	 1.260724380274781e+000	 1.096258632565998e+001
 3.316826405746471e+000	 9.492958412085848e-001	 1.055818215641486e+001
 3.307445617628153e+000	 9.814802527092802e-001	 1.072381994721411e+001
 3.297728199077743e+000	 1.013651185102928e+000	 1.086761252725047e+001
 3.287673146450452e+000	 1.045803653743426e+000	 1.098696629877777e+001
 3.277279549110157e+000	 1.077932631046375e+000	 1.107911745304465e+001
 3.266546591015890e+000	 1.110033048527270e+000	 1.114112783651722e+001
 3.255473552258815e+000	 1.142099798900263e+000	 1.116988110222976e+001
 3.244059810547205e+000	 1.174127738236257e+000	 1.116207916758656e+001
 3.232304842636979e+000	 1.206111688178954e+000	 1.111423899970192e+001
 3.220208225705404e+000	 1.238046438217428e+000	 1.102268974904809e+001
 3.207769638665559e+000	 1.269926748013629e+000	 1.099505712535470e+001
 3.340861379700133e+000	 9.561747965770026e-001	 1.055034311791861e+001
 3.331412614855868e+000	 9.885924284510067e-001	 1.071377972216307e+001
 3.321624780228655e+000	 1.020996483543288e+000	 1.085601502606050e+001
 3.311496864900918e+000	 1.053381941087122e+000	 1.097446389521983e+001
 3.301027951637719e+000	 1.085743737066335e+000	 1.106636698436194e+001
 3.290217218484751e+000	 1.118076766268275e+000	 1.112878644158691e+001
 3.279063940316452e+000	 1.150375884397779e+000	 1.115860190319073e+001
 3.267567490331730e+000	 1.182635910250898e+000	 1.115250680092166e+001
 3.255727341494886e+000	 1.214851627947015e+000	 1.110700500333003e+001
 3.243543067919250e+000	 1.247017789217878e+000	 1.101840781254351e+001
 3.231014346191188e+000	 1.279129115751972e+000	 1.101201105278118e+001
 3.364896353653301e+000	 9.630537519444204e-001	 1.055974875974971e+001
 3.355379612083005e+000	 9.957046041917383e-001	 1.071921703259175e+001
 3.345521361378934e+000	 1.028341781982668e+000	 1.085820870691820e+001
 3.335320583350721e+000	 1.060960228429860e+000	 1.097414921379861e+001
 3.324776354164621e+000	 1.093554843085373e+000	 1.106428568530448e+001
 3.313887845952988e+000	 1.126120484008404e+000	 1.112568249218852e+001
 3.302654328373525e+000	 1.158651969894472e+000	 1.115521707761359e+001
 3.291075170115785e+000	 1.191144082264780e+000	 1.114957610940067e+001
 3.279149840352444e+000	 1.223591567714391e+000	 1.110525197302775e+001
 3.266877910132902e+000	 1.255989140217728e+000	 1.103566161778456e+001
 3.254259053716807e+000	 1.288331483489811e+000	 1.101406545909014e+001
 3.021811978460158e+000	 1.196307806088698e+000	 1.124402722493639e+001
 3.009772117724388e+000	 1.226283735293376e+000	 1.090115107918556e+001
 2.997409798464362e+000	 1.256198431836615e+000	 1.063220774980619e+001
 2.984725012560141e+000	 1.286046888523079e+000	 1.076125529866873e+001
 2.971717852081893e+000	 1.315824079314217e+000	 1.089087211860489e+001
 2.958388510217295e+000	 1.345524961753960e+000	 1.102086405814736e+001
 2.944737282130763e+000	 1.375144479435225e+000	 1.115094539808302e+001
 2.930764565752652e+000	 1.404677564505076e+000	 1.128073626396720e+001
 2.916470862496686e+000	 1.434119140206303e+000	 1.140976024583983e+001
 2.901856777903874e+000	 1.463464123453077e+000	 1.153744223691968e+001
 2.886923022211355e+000	 1.492707427438275e+000	 1.166310650261530e+001
 3.045056685985869e+000	 1.205510173831083e+000	 1.110734510672338e+001
 3.032924210935764e+000	 1.235716687106057e+000	 1.076646014277477e+001
 3.020466796911431e+000	 1.265861496699235e+000	 1.064950115646757e+001
 3.007684435730476e+000	 1.295939556898392e+000	 1.075863598830784e+001
 2.994577220171298e+000	 1.325945803003145e+000	 1.087081022239643e+001
 2.981145344907635e+000	 1.355875153769300e+000	 1.098587125599564e+001
 2.967389107374398e+000	 1.385722513894337e+000	 1.110357054982841e+001
 2.953308908562949e+000	 1.415482776541836e+000	 1.122356090600393e+001
 2.938905253744040e+000	 1.445150825902609e+000	 1.134539396006088e+001
 2.924178753116689e+000	 1.474721539790167e+000	 1.146851789933094e+001
 2.909130122381398e+000	 1.504189792268103e+000	 1.159227541937544e+001
 3.068301393511570e+000	 1.214712541572961e+000	 1.100921637154956e+001
 3.056076304147308e+000	 1.245149638918323e+000	 1.067160775037898e+001
 3.043523795358812e+000	 1.275524561561510e+000	 1.068457354804522e+001
 3.030643858901224e+000	 1.305832225273412e+000	 1.077291593019566e+001
 3.017436588261178e+000	 1.336067526691811e+000	 1.086679818664201e+001
 3.003902179598474e+000	 1.366225345784390e+000	 1.096611007576910e+001
 2.990040932618514e+000	 1.396300548353190e+000	 1.107064098965081e+001
 2.975853251373670e+000	 1.426287988578308e+000	 1.118007709523714e+001
 2.961339644991720e+000	 1.456182511598578e+000	 1.129399869667318e+001
 2.946500728329691e+000	 1.485978956126852e+000	 1.141187783138517e+001
 2.931337222551448e+000	 1.515672157097435e+000	 1.153307611210749e+001
 3.091546101037261e+000	 1.223914909314336e+000	 1.095059483925092e+001
 3.079228397359024e+000	 1.254582590730175e+000	 1.067760715592474e+001
 3.066580793806505e+000	 1.285187626423441e+000	 1.073621680294457e+001
 3.053603282072387e+000	 1.315724893648139e+000	 1.080286374449432e+001
 3.040295956351537e+000	 1.346189250380215e+000	 1.087758257684978e+001
 3.026659014289811e+000	 1.376575537799230e+000	 1.096030625074496e+001
 3.012692757863114e+000	 1.406878582811784e+000	 1.105086285888652e+001
 2.998397594184816e+000	 1.437093200614492e+000	 1.114897263822047e+001
 2.983774036239725e+000	 1.467214197294210e+000	 1.125424520044403e+001
 2.968822703542879e+000	 1.497236372463129e+000	 1.136617700383789e+001
 2.953544322721507e+000	 1.527154521926272e+000	 1.148414907901931e+001
 3.114790808562941e+000	 1.233117277055205e+000	 1.093243477216223e+001
 3.102380490570910e+000	 1.264015542541612e+000	 1.076975178892710e+001
 3.089637792254510e+000	 1.294850691285028e+000	 1.080322360658526e+001
 3.076562705243963e+000	 1.325617562022573e+000	 1.084724902113460e+001
 3.063155324442370e+000	 1.356310974068357e+000	 1.090191107784649e+001
 3.049415848981648e+000	 1.386925729813818e+000	 1.096718676972100e+001
 3.035344583108194e+000	 1.417456617270118e+000	 1.104294367711019e+001
 3.020941936996386e+000	 1.447898412650389e+000	 1.112893682885037e+001
 3.006208427488057e+000	 1.478245882989506e+000	 1.122480579885319e+001
 2.991144678756257e+000	 1.508493788799001e+000	 1.133007205167781e+001
 2.975751422891574e+000	 1.538636886754612e+000	 1.144413655011748e+001
 3.138035516088611e+000	 1.242319644795568e+000	 1.092194616140241e+001
 3.125532583782966e+000	 1.273448494352633e+000	 1.087585902982287e+001
 3.112694790702826e+000	 1.304513756146272e+000	 1.088438742151196e+001
 3.099522128415953e+000	 1.335510230396713e+000	 1.090484228389874e+001
 3.086014692533679e+000	 1.366432697756237e+000	 1.093853245232129e+001
 3.072172683673983e+000	 1.397275921828156e+000	 1.098547983051478e+001
 3.057996408353757e+000	 1.428034651728194e+000	 1.104559229108893e+001
 3.043486279808379e+000	 1.458703624685997e+000	 1.111866039327935e+001
 3.028642818736715e+000	 1.489277568684464e+000	 1.120435434347394e+001
 3.013466653969821e+000	 1.519751205134466e+000	 1.130222121248856e+001
 2.997958523061648e+000	 1.550119251582456e+000	 1.141168242306658e+001
 3.161280223614271e+000	 1.251522012535427e+000	 1.091398165684990e+001
 3.148684676995192e+000	 1.282881446163240e+000	 1.093057748858286e+001
 3.135751789151454e+000	 1.314176821007170e+000	 1.095216874199833e+001
 3.122481551588358e+000	 1.345402898770561e+000	 1.097441495608763e+001
 3.108874060625466e+000	 1.376554421443856e+000	 1.098619650119840e+001
 3.094929518366817e+000	 1.407626113842244e+000	 1.101391479551448e+001
 3.080648233599801e+000	 1.438612686186010e+000	 1.105751882598842e+001
 3.066030622620796e+000	 1.469508836721317e+000	 1.111683543725956e+001
 3.051077209985699e+000	 1.500309254379085e+000	 1.119156615394018e+001
 3.035788629183572e+000	 1.531008621469525e+000	 1.128128426752975e+001
 3.020165623231730e+000	 1.561601616409804e+000	 1.138543220187837e+001
 3.184524931139920e+000	 1.260724380274781e+000	 1.096258632565998e+001
 3.171836770207588e+000	 1.292314397973432e+000	 1.096921595023071e+001
 3.158808787600394e+000	 1.323839885867725e+000	 1.098186270799716e+001
 3.145440974761175e+000	 1.355295567144116e+000	 1.100139779582372e+001
 3.131733428717729e+000	 1.386676145131212e+000	 1.102872706710842e+001
 3.117686353060151e+000	 1.417976305856081e+000	 1.105122214917618e+001
 3.103300058846326e+000	 1.449190720643567e+000	 1.107743463871612e+001
 3.088574965433638e+000	 1.480314048756350e+000	 1.112215539579231e+001
 3.073511601235010e+000	 1.511340940073369e+000	 1.118511796436756e+001
 3.058110604397510e+000	 1.542266037804178e+000	 1.126592248539845e+001
 3.042372723401820e+000	 1.573083981236655e+000	 1.136403293828581e+001
 3.207769638665559e+000	 1.269926748013629e+000	 1.099505712535470e+001
 3.194988863420155e+000	 1.301747349783208e+000	 1.099239825021790e+001
 3.181865786049645e+000	 1.333502950727936e+000	 1.099674399025807e+001
 3.168400397934406e+000	 1.365188235517377e+000	 1.100897016448120e+001
 3.154592796810468e+000	 1.396797868818307e+000	 1.102998747518596e+001
 3.140443187753983e+000	 1.428326497869668e+000	 1.106074270783776e+001
 3.125951884093334e+000	 1.459768755100865e+000	 1.110221985732537e+001
 3.111119308246904e+000	 1.491119260791094e+000	 1.113331498496699e+001
 3.095945992484646e+000	 1.522372625767317e+000	 1.118368787210421e+001
 3.080432579611637e+000	 1.553523454138424e+000	 1.125479856814018e+001
 3.064579823571918e+000	 1.584566346063012e+000	 1.134613317566636e+001
 3.231014346191188e+000	 1.279129115751972e+000	 1.101201105278118e+001
 3.218140956632892e+000	 1.311180301592571e+000	 1.100074874811340e+001
 3.204922784499208e+000	 1.343166015587802e+000	 1.099744435615303e+001
 3.191359821108052e+000	 1.375080903890346e+000	 1.100297736177348e+001
 3.177452164903683e+000	 1.406919592505140e+000	 1.101826239261867e+001
 3.163200022448315e+000	 1.438676689883004e+000	 1.104425045857790e+001
 3.148603709340823e+000	 1.470346789557903e+000	 1.108193011678309e+001
 3.133663651060593e+000	 1.501924472825550e+000	 1.113232855531789e+001
 3.118380383734608e+000	 1.533404311460927e+000	 1.118595528869353e+001
 3.102754554825951e+000	 1.564780870472264e+000	 1.124657659968590e+001
 3.086786923742023e+000	 1.596048710888871e+000	 1.133038289538559e+001
 3.254259053716807e+000	 1.288331483489811e+000	 1.101406545909014e+001
 3.241293049845800e+000	 1.320613253401518e+000	 1.099489230888496e+001
 3.227979782949084e+000	 1.352829080447324e+000	 1.098459621922121e+001
 3.214319244282112e+000	 1.384973572263021e+000	 1.098405937803840e+001
 3.200311532997376e+000	 1.417041316191711e+000	 1.099419940830958e+001
 3.185956857143146e+000	 1.449026881896090e+000	 1.101597064900441e+001
 3.171255534588795e+000	 1.480924824014684e+000	 1.105036536068266e+001
 3.156207993874709e+000	 1.512729684859719e+000	 1.109841484874325e+001
 3.140814774984898e+000	 1.544435997154201e+000	 1.116119049744135e+001
 3.125076530040452e+000	 1.576038286805698e+000	 1.123980470790259e+001
 3.108994023912139e+000	 1.607531075714235e+000	 1.131543346544058e+001
 2.886923022211355e+000	 1.492707427438275e+000	 1.166310650261530e+001
 2.871670410844536e+000	 1.521843964270075e+000	 1.162653485294246e+001
 2.856099864831404e+000	 1.550868647634841e+000	 1.159819693554099e+001
 2.840212411137345e+000	 1.579776395484173e+000	 1.157720213827586e+001
 2.824009182919216e+000	 1.608562132743385e+000	 1.156254442435841e+001
 2.807491419697759e+000	 1.637220794038314e+000	 1.155310153603442e+001
 2.790660467447267e+000	 1.665747326437760e+000	 1.154763449555434e+001
 2.773517778601557e+000	 1.694136692208680e+000	 1.154478741070880e+001
 2.756064911975476e+000	 1.722383871581193e+000	 1.154308759138149e+001
 2.738303532601247e+000	 1.750483865520404e+000	 1.154094598270281e+001
 2.720235411479095e+000	 1.778431698502015e+000	 1.153665791948226e+001
 2.909130122381398e+000	 1.504189792268103e+000	 1.159227541937544e+001
 2.893760183235911e+000	 1.533550456306829e+000	 1.155605415197184e+001
 2.878069863792879e+000	 1.562798406467084e+000	 1.152891136939756e+001
 2.862060198917423e+000	 1.591928521607786e+000	 1.150993600994992e+001
 2.845732330482985e+000	 1.620935687615213e+000	 1.149809785075240e+001
 2.829087507545085e+000	 1.649814800150784e+000	 1.149224668126641e+001
 2.812127086431664e+000	 1.678560767414597e+000	 1.149111178238025e+001
 2.794852530749106e+000	 1.707168512921817e+000	 1.149330171856250e+001
 2.777265411303141e+000	 1.735632978288948e+000	 1.149730444971521e+001
 2.759367405933931e+000	 1.763949126026977e+000	 1.150148776847050e+001
 2.741160299264779e+000	 1.792111942338345e+000	 1.150410006774427e+001
 2.931337222551448e+000	 1.515672157097435e+000	 1.153307611210749e+001
 2.915849955627105e+000	 1.545256948342998e+000	 1.149616997157120e+001
 2.900039862754003e+000	 1.574728165298670e+000	 1.146924906406016e+001
 2.883907986696995e+000	 1.604080647730691e+000	 1.145138245209214e+001
 2.867455478046118e+000	 1.633309242486302e+000	 1.144151621032009e+001
 2.850683595391665e+000	 1.662408806262504e+000	 1.143847256729560e+001
 2.833593705415224e+000	 1.691374208390694e+000	 1.144094936126344e+001
 2.816187282895747e+000	 1.720200333634242e+000	 1.144751981768432e+001
 2.798465910629847e+000	 1.748882084996039e+000	 1.145663265530945e+001
 2.780431279265625e+000	 1.777414386532957e+000	 1.146661252671439e+001
 2.762085187049463e+000	 1.805792186174171e+000	 1.147566079824689e+001
 2.953544322721507e+000	 1.527154521926272e+000	 1.148414907901931e+001
 2.937939728018115e+000	 1.556963440378580e+000	 1.144551906731516e+001
 2.922009861714772e+000	 1.586657924129600e+000	 1.141784374945557e+001
 2.905755774476064e+000	 1.616232773852888e+000	 1.140017288938805e+001
 2.889178625608617e+000	 1.645682797356652e+000	 1.139142934548582e+001
 2.872279683237499e+000	 1.675002812373475e+000	 1.139040817897830e+001
 2.855060324397947e+000	 1.704187649366050e+000	 1.139577608502731e+001
 2.837522035041479e+000	 1.733232154345956e+000	 1.140607115436122e+001
 2.819666409955593e+000	 1.762131191702468e+000	 1.141970297248342e+001
 2.801495152596329e+000	 1.790879647038344e+000	 1.143495306253188e+001
 2.783010074833148e+000	 1.819472430009495e+000	 1.144997567688851e+001
 2.975751422891574e+000	 1.538636886754612e+000	 1.144413655011748e+001
 2.960029500408944e+000	 1.568669932413575e+000	 1.140273969901819e+001
 2.943979860675189e+000	 1.598587682959872e+000	 1.137333043621149e+001
 2.927603562254629e+000	 1.628384899974378e+000	 1.135493980782762e+001
 2.910901773170480e+000	 1.658056352226264e+000	 1.134646794484480e+001
 2.893875771082586e+000	 1.687596818483696e+000	 1.134668313658988e+001
 2.876526943379831e+000	 1.717001090340666e+000	 1.135422123566091e+001
 2.858856787186303e+000	 1.746263975056959e+000	 1.136758540240514e+001
 2.840866909280380e+000	 1.775380298408235e+000	 1.138514619616608e+001
 2.822559025926043e+000	 1.804344907543139e+000	 1.140514201955017e+001
 2.803934962615832e+000	 1.833152673844316e+000	 1.142567992096010e+001
 2.997958523061648e+000	 1.550119251582456e+000	 1.141168242306658e+001
 2.982119272799590e+000	 1.580376424447985e+000	 1.136647157502204e+001
 2.965949859635252e+000	 1.610517441789487e+000	 1.133434536822328e+001
 2.949451350032689e+000	 1.640537026095161e+000	 1.131431671539770e+001
 2.932624920731709e+000	 1.670429907095137e+000	 1.130526351182352e+001
 2.915471858926927e+000	 1.700190824593167e+000	 1.130592767229069e+001
 2.897993562360879e+000	 1.729814531314541e+000	 1.131491450842377e+001
 2.880191539330218e+000	 1.759295795767250e+000	 1.133069245472626e+001
 2.862067408604207e+000	 1.788629405113341e+000	 1.135159315076261e+001
 2.843622899254766e+000	 1.817810168047342e+000	 1.137581188590672e+001
 2.824859850397516e+000	 1.846832917678635e+000	 1.140140841205669e+001
 3.020165623231730e+000	 1.561601616409804e+000	 1.138543220187837e+001
 3.004209045190053e+000	 1.592082916481808e+000	 1.133535579894102e+001
 2.987919858594963e+000	 1.622447200618447e+000	 1.129952597731310e+001
 2.971299137810247e+000	 1.652689152215236e+000	 1.127693810450862e+001
 2.954348068292302e+000	 1.682803461963273e+000	 1.126644833472266e+001
 2.937067946770523e+000	 1.712784830701890e+000	 1.126677260763034e+001
 2.919460181341089e+000	 1.742627972287676e+000	 1.127648599665226e+001
 2.901526291473225e+000	 1.772327616476831e+000	 1.129402241527788e+001
 2.883267907927075e+000	 1.801878511817784e+000	 1.131767468907055e+001
 2.864686772582501e+000	 1.831275428550951e+000	 1.134559499996576e+001
 2.845784738178201e+000	 1.860513161512450e+000	 1.137579570841903e+001
 3.042372723401820e+000	 1.573083981236655e+000	 1.136403293828581e+001
 3.026298817580335e+000	 1.603789408515045e+000	 1.130803481873973e+001
 3.009889857554320e+000	 1.634376959446748e+000	 1.126751083987510e+001
 2.993146925587299e+000	 1.664841278334603e+000	 1.124143941606634e+001
 2.976071215852259e+000	 1.695177016830668e+000	 1.122865545807213e+001
 2.958664034613371e+000	 1.725378836809862e+000	 1.122784933203716e+001
 2.940926800320462e+000	 1.755441413260070e+000	 1.123756617723117e+001
 2.922861043615324e+000	 1.785359437185700e+000	 1.125620559135414e+001
 2.904468407248984e+000	 1.815127618521566e+000	 1.128202169124378e+001
 2.885750645909246e+000	 1.844740689053969e+000	 1.131312355578445e+001
 2.866709625957885e+000	 1.874193405345763e+000	 1.134747605673502e+001
 3.064579823571918e+000	 1.584566346063012e+000	 1.134613317566636e+001
 3.048388589970434e+000	 1.615495900547695e+000	 1.128315237802462e+001
 3.031859856513325e+000	 1.646306718274394e+000	 1.123693963540528e+001
 3.014994713363848e+000	 1.676993404453262e+000	 1.120645700510664e+001
 2.997794363411584e+000	 1.707550571697327e+000	 1.119051865523141e+001
 2.980260122455474e+000	 1.737972842917085e+000	 1.118778978224286e+001
 2.962393419298998e+000	 1.768254854231724e+000	 1.119678589669710e+001
 2.944195795756514e+000	 1.798391257893857e+000	 1.121587248622260e+001
 2.925668906569935e+000	 1.828376725224685e+000	 1.124326506380119e+001
 2.906814519235000e+000	 1.858205949556393e+000	 1.127702960834148e+001
 2.887634513736569e+000	 1.887873649178574e+000	 1.132060782466859e+001
 3.086786923742023e+000	 1.596048710888871e+000	 1.133038289538559e+001
 3.070478362360350e+000	 1.627202392579759e+000	 1.125935346943829e+001
 3.053829855471977e+000	 1.658236477101382e+000	 1.120645310682167e+001
 3.036842501139893e+000	 1.689145530571214e+000	 1.117062810791283e+001
 3.019517510970271e+000	 1.719924126563246e+000	 1.115067240217272e+001
 3.001856210296831e+000	 1.750566849023559e+000	 1.114522642259541e+001
 2.983860038276696e+000	 1.781068295202637e+000	 1.115277635794160e+001
 2.965530547896796e+000	 1.811423078601303e+000	 1.117165379207490e+001
 2.946869405889925e+000	 1.841625831927142e+000	 1.120003573867847e+001
 2.927878392559766e+000	 1.871671210058226e+000	 1.123594507853988e+001
 2.908559401514253e+000	 1.901553893010882e+000	 1.129504017638109e+001
 3.108994023912139e+000	 1.607531075714235e+000	 1.131543346544058e+001
 3.092568134750085e+000	 1.638908884611238e+000	 1.123528429005097e+001
 3.075799854430276e+000	 1.670166235927714e+000	 1.117469302248492e+001
 3.058690288915435e+000	 1.701297656688459e+000	 1.113259081054261e+001
 3.041240658528325e+000	 1.732297681428427e+000	 1.110775185238769e+001
 3.023452298137441e+000	 1.763160855129283e+000	 1.109879222621562e+001
 3.005326657253558e+000	 1.793881736172811e+000	 1.110416910748428e+001
 2.986865300036170e+000	 1.824454899308038e+000	 1.112218038327937e+001
 2.968069905208957e+000	 1.854874938628938e+000	 1.115096467232024e+001
 2.948942265883543e+000	 1.885136470559467e+000	 1.119895164825449e+001
 2.929484289290938e+000	 1.915234136842687e+000	 1.127073030992125e+001
 2.720235411479095e+000	 1.778431698502015e+000	 1.153665791948226e+001
 2.701862425241567e+000	 1.806222421288800e+000	 1.153329433379181e+001
 2.683186555731693e+000	 1.833851113704457e+000	 1.151635138294457e+001
 2.664209889494488e+000	 1.861312887401978e+000	 1.148337790972632e+001
 2.644934617181425e+000	 1.888602888623658e+000	 1.144442841666042e+001
 2.625363032868398e+000	 1.915716300949207e+000	 1.141084147488979e+001
 2.605497533287247e+000	 1.942648348028941e+000	 1.137378022835524e+001
 2.585340616971148e+000	 1.969394296298900e+000	 1.133276699609794e+001
 2.564894883314335e+000	 1.995949457674740e+000	 1.128732944041433e+001
 2.544163031546755e+000	 2.022309192221251e+000	 1.123700143888066e+001
 2.523147859624355e+000	 2.048468910794402e+000	 1.118132394389747e+001
 2.741160299264779e+000	 1.792111942338345e+000	 1.150410006774427e+001
 2.722645982363904e+000	 1.820116439914905e+000	 1.149908520411204e+001
 2.703826452319316e+000	 1.847957660732984e+000	 1.148116212696874e+001
 2.684703811726376e+000	 1.875630678842904e+000	 1.144814793884794e+001
 2.665280268087723e+000	 1.903130603150365e+000	 1.141800714446226e+001
 2.645558133125989e+000	 1.930452580185686e+000	 1.138448698887963e+001
 2.625539822009412e+000	 1.957591796858037e+000	 1.134711129337931e+001
 2.605227852490652e+000	 1.984543483191425e+000	 1.130540888382318e+001
 2.584624843959287e+000	 2.011302915039319e+000	 1.125891447709003e+001
 2.563733516408568e+000	 2.037865416774702e+000	 1.120716955628127e+001
 2.542556689317182e+000	 2.064226363952433e+000	 1.114972323250393e+001
 2.762085187049463e+000	 1.805792186174171e+000	 1.147566079824689e+001
 2.743429539485246e+000	 1.834010458540603e+000	 1.146927300393753e+001
 2.724466348905958e+000	 1.862064207761188e+000	 1.145070928638737e+001
 2.705197733957309e+000	 1.889948470283585e+000	 1.142303321427347e+001
 2.685625918993101e+000	 1.917658317676889e+000	 1.139388992733860e+001
 2.665753233382703e+000	 1.945188859422040e+000	 1.136098102766527e+001
 2.645582110730754e+000	 1.972535245687052e+000	 1.132383588738569e+001
 2.625115088009400e+000	 1.999692670083905e+000	 1.128198942812462e+001
 2.604354804603557e+000	 2.026656372403878e+000	 1.123498301206117e+001
 2.583304001269784e+000	 2.053421641328147e+000	 1.118236532084171e+001
 2.561965519009508e+000	 2.079983817110463e+000	 1.112369322012335e+001
 2.783010074833148e+000	 1.819472430009495e+000	 1.144997567688851e+001
 2.764213096605592e+000	 1.847904477165892e+000	 1.144248146203341e+001
 2.745106245491620e+000	 1.876170754789071e+000	 1.142372749069777e+001
 2.725691656187286e+000	 1.904266261724016e+000	 1.139979800409113e+001
 2.705971569897559e+000	 1.932186032203232e+000	 1.137218811180869e+001
 2.685948333638542e+000	 1.959925138658268e+000	 1.134042713790322e+001
 2.665624399451278e+000	 1.987478694515987e+000	 1.130404959519778e+001
 2.645002323527393e+000	 2.014841856976339e+000	 1.126259609230016e+001
 2.624084765247146e+000	 2.042009829768418e+000	 1.121561422982088e+001
 2.602874486130406e+000	 2.068977865881588e+000	 1.116265948351928e+001
 2.581374348701332e+000	 2.095741270268494e+000	 1.110329607212850e+001
 2.803934962615832e+000	 1.833152673844316e+000	 1.142567992096010e+001
 2.784996653724944e+000	 1.861798495790774e+000	 1.141733423361218e+001
 2.765746142076302e+000	 1.890277301816630e+000	 1.140004029433775e+001
 2.746185578416309e+000	 1.918584053164202e+000	 1.137856177764007e+001
 2.726317220801094e+000	 1.946713746729394e+000	 1.135301381678263e+001
 2.706143433893507e+000	 1.974661417894369e+000	 1.132292992713267e+001
 2.685666688170978e+000	 2.002422143344840e+000	 1.128784935405438e+001
 2.664889559044628e+000	 2.029991043868728e+000	 1.124731798650396e+001
 2.643814725890054e+000	 2.057363287132937e+000	 1.120088925893296e+001
 2.622444970990429e+000	 2.084534090435024e+000	 1.114812503919273e+001
 2.600783178392654e+000	 2.111498723426525e+000	 1.108859650016192e+001
 2.824859850397516e+000	 1.846832917678635e+000	 1.140140841205669e+001
 2.805780210843301e+000	 1.875692514415249e+000	 1.139246881773890e+001
 2.786386038660004e+000	 1.904383848843868e+000	 1.137795143018465e+001
 2.766679500644376e+000	 1.932901844604140e+000	 1.135944447328943e+001
 2.746662871703712e+000	 1.961241461255374e+000	 1.133647990495432e+001
 2.726338534147595e+000	 1.989397697130344e+000	 1.130859502448370e+001
 2.705708976889859e+000	 2.017365592173614e+000	 1.127533340352022e+001
 2.684776794561109e+000	 2.045140230761071e+000	 1.123624580675182e+001
 2.663544686532281e+000	 2.072716744497436e+000	 1.119089110002926e+001
 2.642015455849857e+000	 2.100090314988454e+000	 1.113883714355418e+001
 2.620192008083476e+000	 2.127256176584556e+000	 1.107966166782957e+001
 2.845784738178201e+000	 1.860513161512450e+000	 1.137579570841903e+001
 2.826563767960662e+000	 1.889586533039316e+000	 1.136822953934133e+001
 2.807025935242726e+000	 1.918490395870783e+000	 1.135758794283109e+001
 2.787173422871487e+000	 1.947219636043832e+000	 1.134256648119474e+001
 2.767008522605407e+000	 1.975769175781172e+000	 1.132269995545643e+001
 2.746533634400807e+000	 2.004133976366193e+000	 1.129752904311869e+001
 2.725751265607919e+000	 2.032309041002305e+000	 1.126660123760634e+001
 2.704664030076832e+000	 2.060289417653369e+000	 1.122947177661742e+001
 2.683274647173826e+000	 2.088070201861914e+000	 1.118570455698362e+001
 2.661585940708688e+000	 2.115646539541879e+000	 1.113487303366733e+001
 2.639600837773796e+000	 2.143013629742586e+000	 1.107656110055513e+001
 2.866709625957885e+000	 1.874193405345763e+000	 1.134747605673502e+001
 2.847347325077028e+000	 1.903480551662975e+000	 1.134533629855209e+001
 2.827665831824468e+000	 1.932596942897376e+000	 1.133907706012137e+001
 2.807667345097644e+000	 1.961537427483276e+000	 1.132804862680919e+001
 2.787354173506182e+000	 1.990296890306788e+000	 1.131178823771304e+001
 2.766728734653143e+000	 2.018870255601915e+000	 1.128983954431874e+001
 2.745793554325158e+000	 2.047252489830916e+000	 1.126175355898740e+001
 2.724551265591801e+000	 2.075438604545620e+000	 1.122708959148196e+001
 2.703004607814691e+000	 2.103423659226372e+000	 1.118541617110010e+001
 2.681156425566923e+000	 2.131202764095300e+000	 1.113631195200506e+001
 2.659009667463616e+000	 2.158771082900617e+000	 1.107936659938226e+001
 2.887634513736569e+000	 1.887873649178574e+000	 1.132060782466859e+001
 2.868130882192400e+000	 1.917374570286227e+000	 1.132392250721646e+001
 2.848305728405229e+000	 1.946703489923646e+000	 1.132254618651208e+001
 2.828161267322845e+000	 1.975855218922473e+000	 1.131601215511217e+001
 2.807699824406037e+000	 2.004824604832223e+000	 1.130385968642901e+001
 2.786923834904604e+000	 2.033606534837511e+000	 1.128563500313157e+001
 2.765835843041575e+000	 2.062195938659446e+000	 1.126089223520944e+001
 2.744438501106012e+000	 2.090587791437828e+000	 1.122919436520795e+001
 2.722734568454874e+000	 2.118777116590811e+000	 1.119011415816268e+001
 2.700726910424563e+000	 2.146758988648715e+000	 1.114323507378963e+001
 2.678418497152933e+000	 2.174528536058647e+000	 1.108815215852465e+001
 2.908559401514253e+000	 1.901553893010882e+000	 1.129504017638109e+001
 2.888914439306776e+000	 1.931268588909071e+000	 1.130412151610531e+001
 2.868945624985010e+000	 1.960810036949595e+000	 1.130812289671901e+001
 2.848655189547090e+000	 1.990173010361424e+000	 1.130657871551819e+001
 2.828045475304971e+000	 2.019352319357477e+000	 1.129902987765915e+001
 2.807118935155189e+000	 2.048342814072982e+000	 1.128502477550222e+001
 2.785878131757172e+000	 2.077139387487895e+000	 1.126412025678811e+001
 2.764325736619468e+000	 2.105736978329988e+000	 1.123588257911453e+001
 2.742464529094375e+000	 2.134130573955228e+000	 1.119988834820212e+001
 2.720297395281605e+000	 2.162315213202126e+000	 1.115572543746936e+001
 2.697827326841749e+000	 2.190285989216679e+000	 1.110299388647494e+001
 2.929484289290938e+000	 1.915234136842687e+000	 1.127073030992125e+001
 2.909697996420158e+000	 1.945162607531509e+000	 1.128606661709638e+001
 2.889585521563812e+000	 1.974916583975221e+000	 1.129593492963655e+001
 2.869149111770381e+000	 2.004490801800127e+000	 1.129987034743294e+001
 2.848391126202986e+000	 2.033880033882548e+000	 1.129741500590270e+001
 2.827314035404899e+000	 2.063079093308326e+000	 1.128811906681237e+001
 2.805920420471948e+000	 2.092082836316265e+000	 1.127154169710261e+001
 2.784212972132169e+000	 2.120886165222105e+000	 1.124725203313988e+001
 2.762194489733197e+000	 2.149484031319626e+000	 1.121483012784428e+001
 2.739867880138053e+000	 2.177871437755532e+000	 1.117386787817481e+001
 2.717236156530065e+000	 2.206043442374710e+000	 1.112396993049484e+001
 2.523147859624355e+000	 2.048468910794402e+000	 1.118132394389747e+001
 2.501852263035922e+000	 2.074424077653029e+000	 1.114889393659298e+001
 2.480279233527257e+000	 2.100170213036469e+000	 1.109025679141243e+001
 2.458431857744017e+000	 2.125702895705409e+000	 1.103951329151949e+001
 2.436313315794466e+000	 2.151017765443552e+000	 1.099800414805737e+001
 2.413926879733346e+000	 2.176110525516454e+000	 1.096410860578557e+001
 2.391275911968414e+000	 2.200976945084877e+000	 1.093615446592308e+001
 2.368363863591268e+000	 2.225612861569795e+000	 1.091242185277262e+001
 2.345194272634154e+000	 2.250014182966334e+000	 1.089114712578413e+001
 2.321770762254630e+000	 2.274176890103913e+000	 1.087052692729267e+001
 2.298097038850000e+000	 2.298097038850000e+000	 1.084872235570076e+001
 2.542556689317182e+000	 2.064226363952433e+000	 1.114972323250393e+001
 2.521097280446934e+000	 2.090381185940973e+000	 1.112610436903525e+001
 2.499358304557080e+000	 2.116325368519902e+000	 1.109923332542478e+001
 2.477342872036707e+000	 2.142054456440371e+000	 1.104930952904998e+001
 2.455054187456451e+000	 2.167564055945962e+000	 1.100839011324455e+001
 2.432495548040706e+000	 2.192849837250425e+000	 1.097475354266854e+001
 2.409670342061902e+000	 2.217907536969605e+000	 1.094662572351083e+001
 2.386582047158496e+000	 2.242732960504639e+000	 1.092218392504919e+001
 2.363234228578369e+000	 2.267321984373689e+000	 1.089956085004823e+001
 2.339630537349519e+000	 2.291670558489480e+000	 1.087684884388945e+001
 2.315774708380000e+000	 2.315774708380000e+000	 1.085210423185217e+001
 2.561965519009508e+000	 2.079983817110463e+000	 1.112369322012335e+001
 2.540342297857539e+000	 2.106338294228916e+000	 1.110793245813958e+001
 2.518437375586582e+000	 2.132480524003333e+000	 1.108883704885310e+001
 2.496253886329152e+000	 2.158406017175334e+000	 1.106266029420663e+001
 2.473795059118257e+000	 2.184110346448371e+000	 1.102157792924650e+001
 2.451064216347939e+000	 2.209589148984396e+000	 1.098748539970051e+001
 2.428064772155310e+000	 2.234838128854334e+000	 1.095850600470030e+001
 2.404800230725679e+000	 2.259853059439483e+000	 1.093271339788329e+001
 2.381274184522563e+000	 2.284629785781046e+000	 1.090813581768891e+001
 2.357490312444403e+000	 2.309164226875049e+000	 1.088276045953545e+001
 2.333452377910000e+000	 2.333452377910000e+000	 1.085453797894021e+001
 2.581374348701332e+000	 2.095741270268494e+000	 1.110329607212850e+001
 2.559587315267738e+000	 2.122295402516860e+000	 1.109446534716202e+001
 2.537516446615764e+000	 2.148635679486764e+000	 1.108140421300474e+001
 2.515164900621352e+000	 2.174757577910296e+000	 1.106401950393911e+001
 2.492535930779882e+000	 2.200656636950781e+000	 1.103692840098940e+001
 2.469632884655048e+000	 2.226328460718368e+000	 1.100169504061865e+001
 2.446459202248637e+000	 2.251768720739063e+000	 1.097121632115379e+001
 2.423018414292818e+000	 2.276973158374327e+000	 1.094346149699583e+001
 2.399314140466738e+000	 2.301937587188402e+000	 1.091635351139834e+001
 2.375350087539282e+000	 2.326657895260617e+000	 1.088777353337314e+001
 2.351130047440000e+000	 2.351130047440000e+000	 1.085556562841908e+001
 2.600783178392654e+000	 2.111498723426525e+000	 1.108859650016192e+001
 2.578832332677530e+000	 2.138252510804803e+000	 1.108579202398359e+001
 2.556595517644623e+000	 2.164790834970196e+000	 1.107786660948583e+001
 2.534075914913305e+000	 2.191109138645258e+000	 1.106467605434821e+001
 2.511276802441324e+000	 2.217202927453191e+000	 1.104608646539993e+001
 2.488201552962031e+000	 2.243067772452339e+000	 1.101677244502985e+001
 2.464853632341883e+000	 2.268699312623791e+000	 1.098417613935782e+001
 2.441236597859911e+000	 2.294093257309171e+000	 1.095387725100205e+001
 2.417354096410892e+000	 2.319245388595757e+000	 1.092369257426799e+001
 2.393209862634155e+000	 2.344151563646185e+000	 1.089139635219801e+001
 2.368807716970000e+000	 2.368807716970000e+000	 1.085472511670616e+001
 2.620192008083476e+000	 2.127256176584556e+000	 1.107966166782957e+001
 2.598077350086916e+000	 2.154209619092746e+000	 1.108200325279085e+001
 2.575674588673162e+000	 2.180945990453628e+000	 1.107833829628178e+001
 2.552986929205012e+000	 2.207460699380221e+000	 1.106847185406814e+001
 2.530017674102587e+000	 2.233749217955601e+000	 1.105222025651861e+001
 2.506770221268889e+000	 2.259807084186310e+000	 1.102941164910982e+001
 2.483248062435050e+000	 2.285629904508520e+000	 1.099680343785200e+001
 2.459454781426959e+000	 2.311213356244015e+000	 1.096340757278576e+001
 2.435394052355027e+000	 2.336553190003114e+000	 1.092962891495903e+001
 2.411069637729024e+000	 2.361645232031754e+000	 1.089313385906408e+001
 2.386485386499999e+000	 2.386485386500000e+000	 1.085155043685006e+001
 2.639600837773796e+000	 2.143013629742586e+000	 1.107656110055513e+001
 2.617322367495897e+000	 2.170166727380690e+000	 1.108319150877047e+001
 2.594753659701379e+000	 2.197101145937059e+000	 1.108293439846193e+001
 2.571897943496473e+000	 2.223812260115183e+000	 1.107554436586547e+001
 2.548758545763669e+000	 2.250295508458011e+000	 1.106078824897310e+001
 2.525338889575621e+000	 2.276546395920281e+000	 1.103844573055102e+001
 2.501642492528136e+000	 2.302560496393249e+000	 1.100830991191094e+001
 2.477672964993961e+000	 2.328333455178859e+000	 1.097149733728360e+001
 2.453434008299141e+000	 2.353860991410470e+000	 1.093363580823280e+001
 2.428929412823889e+000	 2.379138900417323e+000	 1.089248777621545e+001
 2.404163056029999e+000	 2.404163056029999e+000	 1.084557178350739e+001
 2.659009667463616e+000	 2.158771082900617e+000	 1.107936659938226e+001
 2.636567384904470e+000	 2.186123835668633e+000	 1.108945091566409e+001
 2.613832730729275e+000	 2.213256301420491e+000	 1.109177106923490e+001
 2.590808957787688e+000	 2.240163820850145e+000	 1.108603146718751e+001
 2.567499417424571e+000	 2.266841798960421e+000	 1.107194972742775e+001
 2.543907557882227e+000	 2.293285707654253e+000	 1.104925734409861e+001
 2.520036922621142e+000	 2.319491088277978e+000	 1.101770032222958e+001
 2.495891148560918e+000	 2.345453554113703e+000	 1.097758945586269e+001
 2.471473964243236e+000	 2.371168792817826e+000	 1.093518399107866e+001
 2.446789187918747e+000	 2.396632568802891e+000	 1.088895672263422e+001
 2.421840725560000e+000	 2.421840725560000e+000	 1.083631569157024e+001
 2.678418497152933e+000	 2.174528536058647e+000	 1.108815215852465e+001
 2.655812402312637e+000	 2.202080943956577e+000	 1.110087718603795e+001
 2.632911801756850e+000	 2.229411456903923e+000	 1.110496545269709e+001
 2.609719972078657e+000	 2.256515381585107e+000	 1.110007143513767e+001
 2.586240289085291e+000	 2.283388089462831e+000	 1.108586379196907e+001
 2.562476226188708e+000	 2.310025019388224e+000	 1.106202609150974e+001
 2.538431352714066e+000	 2.336421680162706e+000	 1.102825750721073e+001
 2.514109332127830e+000	 2.362573653048547e+000	 1.098427347890557e+001
 2.489513920187309e+000	 2.388476594225181e+000	 1.093374175466213e+001
 2.464648963013601e+000	 2.414126237188460e+000	 1.088203632647748e+001
 2.439518395090000e+000	 2.439518395090000e+000	 1.082330516876628e+001
 2.697827326841749e+000	 2.190285989216679e+000	 1.110299388647494e+001
 2.675057419720397e+000	 2.218038052244520e+000	 1.111756756413097e+001
 2.651990872784105e+000	 2.245566612387354e+000	 1.112263564818933e+001
 2.628630986369380e+000	 2.272866942320069e+000	 1.111780293209926e+001
 2.604981160745831e+000	 2.299934379965241e+000	 1.110268936474524e+001
 2.581044894495063e+000	 2.326764331122195e+000	 1.107693084040951e+001
 2.556825782806911e+000	 2.353352272047435e+000	 1.104017995487755e+001
 2.532327515694697e+000	 2.379693751983390e+000	 1.099210672570459e+001
 2.507553876131363e+000	 2.405784395632538e+000	 1.093239927476236e+001
 2.482508738108449e+000	 2.431619905574028e+000	 1.087121933266093e+001
 2.457196064620000e+000	 2.457196064620000e+000	 1.080605982253526e+001
 2.717236156530065e+000	 2.206043442374710e+000	 1.112396993049484e+001
 2.694302437127753e+000	 2.233995160532463e+000	 1.113962077115219e+001
 2.671069943811038e+000	 2.261721767870786e+000	 1.114490067618098e+001
 2.647542000659858e+000	 2.289218503055032e+000	 1.113936499197557e+001
 2.623722032406190e+000	 2.316480670467651e+000	 1.112258519632101e+001
 2.599613562801293e+000	 2.343503642856166e+000	 1.109414975050992e+001
 2.575220212899676e+000	 2.370282863932164e+000	 1.105366491604866e+001
 2.550545699261519e+000	 2.396813850918235e+000	 1.100075553384999e+001
 2.525593832075397e+000	 2.423092197039895e+000	 1.093506576391549e+001
 2.500368513203295e+000	 2.449113573959597e+000	 1.085625978362330e+001
 2.474873734150000e+000	 2.474873734150000e+000	 1.078409598146779e+001
 2.298097038850000e+000	 2.298097038850000e+000	 1.084872235570076e+001
 2.274176890103912e+000	 2.321770762254630e+000	 1.099383414230238e+001
 2.250014182966333e+000	 2.345194272634154e+000	 1.110915645103124e+001
 2.225612861569795e+000	 2.368363863591268e+000	 1.119198156700359e+001
 2.200976945084877e+000	 2.391275911968415e+000	 1.123960696719650e+001
 2.176110525516454e+000	 2.413926879733345e+000	 1.124934074378635e+001
 2.151017765443552e+000	 2.436313315794466e+000	 1.121850705165839e+001
 2.125702895705410e+000	 2.458431857744016e+000	 1.114445156643168e+001
 2.100170213036469e+000	 2.480279233527257e+000	 1.102454693926873e+001
 2.074424077653029e+000	 2.501852263035922e+000	 1.086902153973364e+001
 2.048468910794402e+000	 2.523147859624355e+000	 1.081551055965858e+001
 2.315774708380000e+000	 2.315774708380000e+000	 1.085210423185217e+001
 2.291670558489480e+000	 2.339630537349518e+000	 1.097667264053138e+001
 2.267321984373690e+000	 2.363234228578369e+000	 1.107266454550416e+001
 2.242732960504639e+000	 2.386582047158496e+000	 1.113736024131485e+001
 2.217907536969605e+000	 2.409670342061902e+000	 1.116804321570086e+001
 2.192849837250426e+000	 2.432495548040706e+000	 1.116200565040892e+001
 2.167564055945962e+000	 2.455054187456451e+000	 1.111655394975465e+001
 2.142054456440372e+000	 2.477342872036708e+000	 1.102901428302342e+001
 2.116325368519901e+000	 2.499358304557081e+000	 1.089673812672731e+001
 2.090381185940973e+000	 2.521097280446934e+000	 1.085409387630039e+001
 2.064226363952433e+000	 2.542556689317182e+000	 1.079720710473259e+001
 2.333452377910000e+000	 2.333452377910000e+000	 1.085453797894021e+001
 2.309164226875049e+000	 2.357490312444403e+000	 1.096037706964159e+001
 2.284629785781046e+000	 2.381274184522563e+000	 1.103885034034165e+001
 2.259853059439483e+000	 2.404800230725679e+000	 1.108722398466289e+001
 2.234838128854334e+000	 2.428064772155310e+000	 1.110276537803492e+001
 2.209589148984396e+000	 2.451064216347939e+000	 1.108274865903118e+001
 2.184110346448371e+000	 2.473795059118257e+000	 1.102446034204900e+001
 2.158406017175333e+000	 2.496253886329152e+000	 1.092520494717816e+001
 2.132480524003332e+000	 2.518437375586582e+000	 1.088074599232558e+001
 2.106338294228916e+000	 2.540342297857539e+000	 1.083815464187241e+001
 2.079983817110463e+000	 2.561965519009508e+000	 1.077921892529089e+001
 2.351130047440000e+000	 2.351130047440000e+000	 1.085556562841908e+001
 2.326657895260617e+000	 2.375350087539281e+000	 1.094446739472921e+001
 2.301937587188402e+000	 2.399314140466737e+000	 1.100721245141691e+001
 2.276973158374327e+000	 2.423018414292818e+000	 1.104105078151669e+001
 2.251768720739063e+000	 2.446459202248637e+000	 1.104323152517734e+001
 2.226328460718368e+000	 2.469632884655048e+000	 1.101100864457080e+001
 2.200656636950781e+000	 2.492535930779882e+000	 1.094164662377324e+001
 2.174757577910297e+000	 2.515164900621352e+000	 1.089698544800606e+001
 2.148635679486764e+000	 2.537516446615764e+000	 1.086607528168071e+001
 2.122295402516860e+000	 2.559587315267738e+000	 1.082117539941456e+001
 2.095741270268495e+000	 2.581374348701332e+000	 1.076149115541162e+001
 2.368807716970000e+000	 2.368807716970000e+000	 1.085472511670616e+001
 2.344151563646185e+000	 2.393209862634155e+000	 1.092846043503669e+001
 2.319245388595758e+000	 2.417354096410892e+000	 1.097724728563102e+001
 2.294093257309171e+000	 2.441236597859911e+000	 1.099831733150456e+001
 2.268699312623791e+000	 2.464853632341883e+000	 1.098889935420669e+001
 2.243067772452339e+000	 2.488201552962031e+000	 1.094622500536342e+001
 2.217202927453191e+000	 2.511276802441325e+000	 1.090417394630267e+001
 2.191109138645258e+000	 2.534075914913305e+000	 1.088246164597756e+001
 2.164790834970196e+000	 2.556595517644623e+000	 1.084904038413235e+001
 2.138252510804803e+000	 2.578832332677530e+000	 1.080313168005009e+001
 2.111498723426525e+000	 2.600783178392654e+000	 1.074397372039421e+001
 2.386485386499999e+000	 2.386485386500000e+000	 1.085155043685006e+001
 2.361645232031754e+000	 2.411069637729024e+000	 1.091186998046566e+001
 2.336553190003114e+000	 2.435394052355026e+000	 1.094844912272681e+001
 2.311213356244014e+000	 2.459454781426959e+000	 1.095849909700083e+001
 2.285629904508520e+000	 2.483248062435050e+000	 1.093922620214966e+001
 2.259807084186310e+000	 2.506770221268889e+000	 1.090351707517056e+001
 2.233749217955601e+000	 2.530017674102588e+000	 1.088865061250261e+001
 2.207460699380221e+000	 2.552986929205012e+000	 1.086428006996409e+001
 2.180945990453627e+000	 2.575674588673162e+000	 1.082964588967181e+001
 2.154209619092746e+000	 2.598077350086916e+000	 1.078400283609187e+001
 2.127256176584556e+000	 2.620192008083476e+000	 1.072662115930683e+001
 2.404163056029999e+000	 2.404163056029999e+000	 1.084557178350739e+001
 2.379138900417322e+000	 2.428929412823889e+000	 1.089420690294995e+001
 2.353860991410470e+000	 2.453434008299141e+000	 1.092031019349304e+001
 2.328333455178858e+000	 2.477672964993961e+000	 1.092107034861318e+001
 2.302560496393249e+000	 2.501642492528136e+000	 1.089606521625441e+001
 2.276546395920281e+000	 2.525338889575621e+000	 1.088582407525815e+001
 2.250295508458011e+000	 2.548758545763669e+000	 1.086820601564769e+001
 2.223812260115183e+000	 2.571897943496473e+000	 1.084247307258094e+001
 2.197101145937059e+000	 2.594753659701379e+000	 1.080789929105115e+001
 2.170166727380690e+000	 2.617322367495896e+000	 1.076377190055739e+001
 2.143013629742586e+000	 2.639600837773797e+000	 1.070939245536243e+001
 2.421840725560000e+000	 2.421840725560000e+000	 1.083631569157024e+001
 2.396632568802890e+000	 2.446789187918747e+000	 1.087497926295063e+001
 2.371168792817826e+000	 2.471473964243235e+000	 1.089232075454390e+001
 2.345453554113702e+000	 2.495891148560919e+000	 1.088550420867768e+001
 2.319491088277978e+000	 2.520036922621141e+000	 1.087500989082368e+001
 2.293285707654252e+000	 2.543907557882227e+000	 1.086197594647442e+001
 2.266841798960421e+000	 2.567499417424571e+000	 1.084289901546995e+001
 2.240163820850145e+000	 2.590808957787687e+000	 1.081707504007954e+001
 2.213256301420490e+000	 2.613832730729275e+000	 1.078381087784299e+001
 2.186123835668633e+000	 2.636567384904469e+000	 1.074242545283657e+001
 2.158771082900617e+000	 2.659009667463616e+000	 1.069225087372377e+001
 2.439518395090000e+000	 2.439518395090000e+000	 1.082330516876628e+001
 2.414126237188460e+000	 2.464648963013600e+000	 1.085369241132103e+001
 2.388476594225182e+000	 2.489513920187309e+000	 1.086396915984700e+001
 2.362573653048546e+000	 2.514109332127830e+000	 1.085708301000915e+001
 2.336421680162706e+000	 2.538431352714067e+000	 1.084659473813974e+001
 2.310025019388224e+000	 2.562476226188708e+000	 1.083205683974587e+001
 2.283388089462831e+000	 2.586240289085291e+000	 1.081278968332177e+001
 2.256515381585107e+000	 2.609719972078657e+000	 1.078812231866498e+001
 2.229411456903922e+000	 2.632911801756850e+000	 1.075739363510653e+001
 2.202080943956577e+000	 2.655812402312637e+000	 1.071995349019993e+001
 2.174528536058648e+000	 2.678418497152933e+000	 1.067516380636023e+001
 2.457196064620000e+000	 2.457196064620000e+000	 1.080605982253526e+001
 2.431619905574028e+000	 2.482508738108450e+000	 1.082984908677460e+001
 2.405784395632538e+000	 2.507553876131362e+000	 1.083276679348944e+001
 2.379693751983389e+000	 2.532327515694696e+000	 1.082291558525422e+001
 2.353352272047435e+000	 2.556825782806911e+000	 1.081092802287782e+001
 2.326764331122194e+000	 2.581044894495063e+000	 1.079615134061579e+001
 2.299934379965241e+000	 2.604981160745831e+000	 1.077793925859240e+001
 2.272866942320070e+000	 2.628630986369379e+000	 1.075565314399399e+001
 2.245566612387353e+000	 2.651990872784105e+000	 1.072866314642753e+001
 2.218038052244520e+000	 2.675057419720398e+000	 1.069634930485325e+001
 2.190285989216679e+000	 2.697827326841749e+000	 1.065810262360157e+001
 2.474873734150000e+000	 2.474873734150000e+000	 1.078409598146779e+001
 2.449113573959596e+000	 2.500368513203294e+000	 1.080263450936248e+001
 2.423092197039895e+000	 2.525593832075397e+000	 1.079164135294268e+001
 2.396813850918235e+000	 2.550545699261519e+000	 1.078034360368845e+001
 2.370282863932165e+000	 2.575220212899676e+000	 1.076811771033557e+001
 2.343503642856166e+000	 2.599613562801293e+000	 1.075434445372223e+001
 2.316480670467651e+000	 2.623722032406190e+000	 1.073841010699234e+001
 2.289218503055032e+000	 2.647542000659858e+000	 1.071970757369461e+001
 2.261721767870785e+000	 2.671069943811037e+000	 1.069763750111377e+001
 2.233995160532464e+000	 2.694302437127753e+000	 1.067160936626139e+001
 2.206043442374710e+000	 2.717236156530064e+000	 1.064104253205362e+001
 2.048468910794402e+000	 2.523147859624355e+000	 1.081551055965858e+001
 2.022309192221251e+000	 2.544163031546754e+000	 1.069052968048180e+001
 1.995949457674740e+000	 2.564894883314335e+000	 1.057451638608456e+001
 1.969394296298900e+000	 2.585340616971148e+000	 1.046734080427507e+001
 1.942648348028941e+000	 2.605497533287247e+000	 1.036886793209298e+001
 1.915716300949207e+000	 2.625363032868398e+000	 1.027895810769839e+001
 1.888602888623659e+000	 2.644934617181425e+000	 1.019746747189460e+001
 1.861312887401978e+000	 2.664209889494488e+000	 1.010796365198568e+001
 1.833851113704457e+000	 2.683186555731693e+000	 1.002478004237513e+001
 1.806222421288800e+000	 2.701862425241568e+000	 9.967099621084561e+000
 1.778431698502015e+000	 2.720235411479095e+000	 9.932740106791524e+000
 2.064226363952433e+000	 2.542556689317182e+000	 1.079720710473259e+001
 2.037865416774701e+000	 2.563733516408568e+000	 1.068639171640546e+001
 2.011302915039320e+000	 2.584624843959287e+000	 1.058308886334746e+001
 1.984543483191425e+000	 2.605227852490652e+000	 1.048710503033570e+001
 1.957591796858037e+000	 2.625539822009412e+000	 1.039824348678715e+001
 1.930452580185686e+000	 2.645558133125988e+000	 1.031630482152012e+001
 1.903130603150365e+000	 2.665280268087723e+000	 1.024108746383150e+001
 1.875630678842904e+000	 2.684703811726376e+000	 1.017238818972487e+001
 1.847957660732984e+000	 2.703826452319316e+000	 1.008323728425022e+001
 1.820116439914905e+000	 2.722645982363904e+000	 1.001692812007099e+001
 1.792111942338345e+000	 2.741160299264779e+000	 9.971998972034399e+000
 2.079983817110463e+000	 2.561965519009508e+000	 1.077921892529089e+001
 2.053421641328147e+000	 2.583304001269784e+000	 1.068135257831694e+001
 2.026656372403879e+000	 2.604354804603557e+000	 1.058956471720708e+001
 1.999692670083905e+000	 2.625115088009401e+000	 1.050359854754692e+001
 1.972535245687052e+000	 2.645582110730755e+000	 1.042319596504857e+001
 1.945188859422041e+000	 2.665753233382704e+000	 1.034809815303328e+001
 1.917658317676889e+000	 2.685625918993101e+000	 1.027804616291760e+001
 1.889948470283585e+000	 2.705197733957309e+000	 1.021278147645118e+001
 1.862064207761188e+000	 2.724466348905958e+000	 1.013739505118289e+001
 1.834010458540603e+000	 2.743429539485246e+000	 1.006190147297572e+001
 1.805792186174171e+000	 2.762085187049463e+000	 1.000587107068847e+001
 2.095741270268495e+000	 2.581374348701332e+000	 1.076149115541162e+001
 2.068977865881588e+000	 2.602874486130406e+000	 1.067538820539821e+001
 2.042009829768418e+000	 2.624084765247146e+000	 1.059395007799275e+001
 2.014841856976339e+000	 2.645002323527393e+000	 1.051685704879041e+001
 1.987478694515987e+000	 2.665624399451278e+000	 1.044378997956028e+001
 1.959925138658268e+000	 2.685948333638543e+000	 1.037443097830940e+001
 1.932186032203233e+000	 2.705971569897559e+000	 1.030846403904335e+001
 1.904266261724017e+000	 2.725691656187287e+000	 1.024557565988449e+001
 1.876170754789071e+000	 2.745106245491620e+000	 1.018545543830003e+001
 1.847904477165892e+000	 2.764213096605592e+000	 1.010174125827125e+001
 1.819472430009494e+000	 2.783010074833148e+000	 1.003411710825961e+001
 2.111498723426525e+000	 2.600783178392654e+000	 1.074397372039421e+001
 2.084534090435024e+000	 2.622444970990429e+000	 1.066847844053327e+001
 2.057363287132937e+000	 2.643814725890054e+000	 1.059625410838700e+001
 2.029991043868728e+000	 2.664889559044628e+000	 1.052691840451052e+001
 2.002422143344841e+000	 2.685666688170979e+000	 1.046009148271184e+001
 1.974661417894369e+000	 2.706143433893507e+000	 1.039539669256864e+001
 1.946713746729394e+000	 2.726317220801095e+000	 1.033246127833992e+001
 1.918584053164202e+000	 2.746185578416309e+000	 1.027091705284516e+001
 1.890277301816630e+000	 2.765746142076302e+000	 1.021040104498525e+001
 1.861798495790774e+000	 2.784996653724944e+000	 1.013616647117501e+001
 1.833152673844316e+000	 2.803934962615831e+000	 1.005649447795338e+001
 2.127256176584556e+000	 2.620192008083476e+000	 1.072662115930683e+001
 2.100090314988453e+000	 2.642015455849857e+000	 1.066060688572658e+001
 2.072716744497436e+000	 2.663544686532280e+000	 1.059648889111622e+001
 2.045140230761070e+000	 2.684776794561108e+000	 1.053382258206387e+001
 2.017365592173613e+000	 2.705708976889859e+000	 1.047216771698043e+001
 1.989397697130344e+000	 2.726338534147595e+000	 1.041108919095201e+001
 1.961241461255374e+000	 2.746662871703712e+000	 1.035015779368888e+001
 1.932901844604140e+000	 2.766679500644376e+000	 1.028895093905628e+001
 1.904383848843868e+000	 2.786386038660005e+000	 1.022705336478272e+001
 1.875692514415249e+000	 2.805780210843301e+000	 1.016405780105269e+001
 1.846832917678635e+000	 2.824859850397516e+000	 1.007275738335273e+001
 2.143013629742586e+000	 2.639600837773797e+000	 1.070939245536243e+001
 2.115646539541880e+000	 2.661585940708688e+000	 1.065176076390019e+001
 2.088070201861914e+000	 2.683274647173827e+000	 1.059466932159609e+001
 2.060289417653368e+000	 2.704664030076833e+000	 1.053761156862688e+001
 2.032309041002305e+000	 2.725751265607919e+000	 1.048008716750127e+001
 2.004133976366192e+000	 2.746533634400806e+000	 1.042160285014189e+001
 1.975769175781172e+000	 2.767008522605407e+000	 1.036167323476801e+001
 1.947219636043831e+000	 2.787173422871487e+000	 1.029982161097818e+001
 1.918490395870783e+000	 2.807025935242726e+000	 1.023558069154904e+001
 1.889586533039316e+000	 2.826563767960661e+000	 1.016849332958733e+001
 1.860513161512450e+000	 2.845784738178200e+000	 1.008265695568343e+001
 2.158771082900617e+000	 2.659009667463616e+000	 1.069225087372377e+001
 2.131202764095300e+000	 2.681156425566923e+000	 1.064193078674330e+001
 2.103423659226372e+000	 2.703004607814691e+000	 1.059081300527868e+001
 2.075438604545620e+000	 2.724551265591801e+000	 1.053832929747971e+001
 2.047252489830916e+000	 2.745793554325158e+000	 1.048391951671510e+001
 2.018870255601915e+000	 2.766728734653143e+000	 1.042703251078758e+001
 1.990296890306788e+000	 2.787354173506182e+000	 1.036712699765739e+001
 1.961537427483276e+000	 2.807667345097644e+000	 1.030367240598589e+001
 1.932596942897376e+000	 2.827665831824468e+000	 1.023614967893661e+001
 1.903480551662975e+000	 2.847347325077028e+000	 1.016405203980136e+001
 1.874193405345763e+000	 2.866709625957885e+000	 1.008594136594411e+001
 2.174528536058648e+000	 2.678418497152933e+000	 1.067516380636023e+001
 2.146758988648715e+000	 2.700726910424563e+000	 1.063111102830781e+001
 2.118777116590811e+000	 2.722734568454874e+000	 1.058494015946272e+001
 2.090587791437827e+000	 2.744438501106012e+000	 1.053602157749539e+001
 2.062195938659447e+000	 2.765835843041575e+000	 1.048373560098753e+001
 2.033606534837511e+000	 2.786923834904604e+000	 1.042747346069486e+001
 2.004824604832223e+000	 2.807699824406037e+000	 1.036663823402767e+001
 1.975855218922474e+000	 2.828161267322844e+000	 1.030064574097362e+001
 1.946703489923646e+000	 2.848305728405229e+000	 1.022892539982150e+001
 1.917374570286227e+000	 2.868130882192400e+000	 1.015092104118318e+001
 1.887873649178574e+000	 2.887634513736569e+000	 1.006609167895248e+001
 2.190285989216679e+000	 2.697827326841749e+000	 1.065810262360157e+001
 2.162315213202126e+000	 2.720297395281605e+000	 1.061929880405987e+001
 2.134130573955228e+000	 2.742464529094375e+000	 1.057707351934228e+001
 2.105736978329988e+000	 2.764325736619468e+000	 1.053073602567230e+001
 2.077139387487895e+000	 2.785878131757172e+000	 1.047960736910094e+001
 2.048342814072981e+000	 2.807118935155188e+000	 1.042302141874125e+001
 2.019352319357476e+000	 2.828045475304971e+000	 1.036032585993176e+001
 1.990173010361424e+000	 2.848655189547090e+000	 1.029088314546569e+001
 1.960810036949594e+000	 2.868945624985010e+000	 1.021407140316567e+001
 1.931268588909071e+000	 2.888914439306776e+000	 1.012928529823145e+001
 1.901553893010882e+000	 2.908559401514253e+000	 1.003593684893795e+001
 2.206043442374710e+000	 2.717236156530064e+000	 1.064104253205362e+001
 2.177871437755532e+000	 2.739867880138052e+000	 1.060649455511528e+001
 2.149484031319626e+000	 2.762194489733196e+000	 1.056723824808193e+001
 2.120886165222104e+000	 2.784212972132168e+000	 1.052252200255838e+001
 2.092082836316265e+000	 2.805920420471948e+000	 1.047160784252539e+001
 2.063079093308326e+000	 2.827314035404899e+000	 1.041377251948059e+001
 2.033880033882548e+000	 2.848391126202985e+000	 1.034830856421980e+001
 2.004490801800128e+000	 2.869149111770381e+000	 1.027452529330823e+001
 1.974916583975221e+000	 2.889585521563813e+000	 1.019174976844265e+001
 1.945162607531509e+000	 2.909697996420158e+000	 1.009932770706200e+001
 1.915234136842688e+000	 2.929484289290938e+000	 9.996624342722241e+000
 1.778431698502015e+000	 2.720235411479095e+000	 9.932740106791524e+000
 1.750483865520404e+000	 2.738303532601247e+000	 9.922317231404657e+000
 1.722383871581194e+000	 2.756064911975476e+000	 9.913683627545650e+000
 1.694136692208680e+000	 2.773517778601557e+000	 9.904591720898281e+000
 1.665747326437760e+000	 2.790660467447267e+000	 9.892847033333093e+000
 1.637220794038314e+000	 2.807491419697759e+000	 9.876313005369422e+000
 1.608562132743385e+000	 2.824009182919216e+000	 9.852915641919809e+000
 1.579776395484173e+000	 2.840212411137346e+000	 9.820647971183806e+000
 1.550868647634841e+000	 2.856099864831404e+000	 9.777574307232403e+000
 1.521843964270075e+000	 2.871670410844536e+000	 9.721834307518586e+000
 1.492707427438275e+000	 2.886923022211355e+000	 9.651646817267094e+000
 1.792111942338345e+000	 2.741160299264779e+000	 9.971998972034399e+000
 1.763949126026976e+000	 2.759367405933930e+000	 9.946576096072496e+000
 1.735632978288948e+000	 2.777265411303141e+000	 9.924674952910815e+000
 1.707168512921817e+000	 2.794852530749107e+000	 9.904004518948771e+000
 1.678560767414597e+000	 2.812127086431664e+000	 9.882326130322401e+000
 1.649814800150784e+000	 2.829087507545086e+000	 9.857458427994175e+000
 1.620935687615213e+000	 2.845732330482985e+000	 9.827282124564999e+000
 1.591928521607785e+000	 2.862060198917422e+000	 9.789744582391233e+000
 1.562798406467084e+000	 2.878069863792879e+000	 9.742864193272618e+000
 1.533550456306829e+000	 2.893760183235912e+000	 9.684734550685612e+000
 1.504189792268103e+000	 2.909130122381397e+000	 9.613528406263777e+000
 1.805792186174171e+000	 2.762085187049463e+000	 1.000587107068847e+001
 1.777414386532957e+000	 2.780431279265624e+000	 9.967044408925005e+000
 1.748882084996038e+000	 2.798465910629846e+000	 9.933432115001597e+000
 1.720200333634242e+000	 2.816187282895747e+000	 9.902697580660592e+000
 1.691374208390694e+000	 2.833593705415225e+000	 9.872555870344048e+000
 1.662408806262504e+000	 2.850683595391665e+000	 9.840778791713671e+000
 1.633309242486302e+000	 2.867455478046118e+000	 9.805199786224156e+000
 1.604080647730691e+000	 2.883907986696995e+000	 9.763718629042510e+000
 1.574728165298670e+000	 2.900039862754003e+000	 9.714305928300712e+000
 1.545256948342998e+000	 2.915849955627105e+000	 9.655007414389420e+000
 1.515672157097435e+000	 2.931337222551448e+000	 9.583948010741032e+000
 1.819472430009494e+000	 2.783010074833148e+000	 1.003411710825961e+001
 1.790879647038344e+000	 2.801495152596328e+000	 9.983473834855460e+000
 1.762131191702469e+000	 2.819666409955593e+000	 9.939698406095973e+000
 1.733232154345956e+000	 2.837522035041479e+000	 9.900406483636594e+000
 1.704187649366050e+000	 2.855060324397947e+000	 9.863264763933868e+000
 1.675002812373475e+000	 2.872279683237500e+000	 9.825996177019020e+000
 1.645682797356652e+000	 2.889178625608618e+000	 9.786384903547104e+000
 1.616232773852888e+000	 2.905755774476063e+000	 9.742281199118793e+000
 1.586657924129600e+000	 2.922009861714772e+000	 9.691606015579433e+000
 1.556963440378580e+000	 2.937939728018115e+000	 9.632355409731572e+000
 1.527154521926272e+000	 2.953544322721507e+000	 9.562604730652526e+000
 1.833152673844316e+000	 2.803934962615831e+000	 1.005649447795338e+001
 1.804344907543139e+000	 2.822559025926043e+000	 9.995613434089867e+000
 1.775380298408235e+000	 2.840866909280380e+000	 9.943215199779445e+000
 1.746263975056959e+000	 2.858856787186303e+000	 9.896865550853907e+000
 1.717001090340666e+000	 2.876526943379832e+000	 9.854180708925931e+000
 1.687596818483696e+000	 2.893875771082586e+000	 9.812832671261319e+000
 1.658056352226264e+000	 2.910901773170480e+000	 9.770554357039250e+000
 1.628384899974379e+000	 2.927603562254629e+000	 9.725144558697782e+000
 1.598587682959872e+000	 2.943979860675189e+000	 9.674472687781263e+000
 1.568669932413575e+000	 2.960029500408944e+000	 9.616483305451201e+000
 1.538636886754612e+000	 2.975751422891574e+000	 9.549200428590112e+000
 1.846832917678635e+000	 2.824859850397516e+000	 1.007275738335273e+001
 1.817810168047342e+000	 2.843622899254767e+000	 1.000320975865609e+001
 1.788629405113341e+000	 2.862067408604207e+000	 9.943722022007863e+000
 1.759295795767250e+000	 2.880191539330219e+000	 9.891807897131644e+000
 1.729814531314541e+000	 2.897993562360880e+000	 9.845031013145263e+000
 1.700190824593167e+000	 2.915471858926927e+000	 9.801010368397671e+000
 1.670429907095137e+000	 2.932624920731709e+000	 9.757425608696709e+000
 1.640537026095160e+000	 2.949451350032689e+000	 9.712022108320477e+000
 1.610517441789488e+000	 2.965949859635252e+000	 9.662615842936200e+000
 1.580376424447985e+000	 2.982119272799590e+000	 9.607098044308867e+000
 1.550119251582456e+000	 2.997958523061648e+000	 9.543439627463963e+000
 1.860513161512450e+000	 2.845784738178200e+000	 1.008265695568343e+001
 1.831275428550952e+000	 2.864686772582501e+000	 1.000600694459707e+001
 1.801878511817784e+000	 2.883267907927075e+000	 9.940956619034905e+000
 1.772327616476830e+000	 2.901526291473225e+000	 9.884965473548402e+000
 1.742627972287676e+000	 2.919460181341089e+000	 9.835542416099280e+000
 1.712784830701890e+000	 2.937067946770523e+000	 9.790251368748214e+000
 1.682803461963272e+000	 2.954348068292302e+000	 9.746716680627836e+000
 1.652689152215236e+000	 2.971299137810246e+000	 9.702628341283099e+000
 1.622447200618446e+000	 2.987919858594963e+000	 9.655746983205408e+000
 1.592082916481808e+000	 3.004209045190053e+000	 9.603908663159288e+000
 1.561601616409804e+000	 3.020165623231730e+000	 9.545029412696653e+000
 1.874193405345763e+000	 2.866709625957885e+000	 1.008594136594411e+001
 1.844740689053969e+000	 2.885750645909246e+000	 1.000374680014542e+001
 1.815127618521566e+000	 2.904468407248984e+000	 9.934655022364712e+000
 1.785359437185699e+000	 2.922861043615324e+000	 9.876069109914591e+000
 1.755441413260070e+000	 2.940926800320462e+000	 9.825441109719383e+000
 1.725378836809862e+000	 2.958664034613371e+000	 9.780277778763958e+000
 1.695177016830668e+000	 2.976071215852259e+000	 9.738146134611203e+000
 1.664841278334603e+000	 2.993146925587299e+000	 9.696678803755392e+000
 1.634376959446748e+000	 3.009889857554320e+000	 9.653579156336233e+000
 1.603789408515045e+000	 3.026298817580335e+000	 9.606626216524569e+000
 1.573083981236656e+000	 3.042372723401821e+000	 9.553679338700913e+000
 1.887873649178574e+000	 2.887634513736569e+000	 1.006609167895248e+001
 1.858205949556393e+000	 2.906814519235001e+000	 9.996168890064425e+000
 1.828376725224685e+000	 2.925668906569934e+000	 9.924551610880513e+000
 1.798391257893857e+000	 2.944195795756514e+000	 9.864848555398124e+000
 1.768254854231724e+000	 2.962393419298998e+000	 9.814452758200591e+000
 1.737972842917085e+000	 2.980260122455474e+000	 9.770811710804653e+000
 1.707550571697327e+000	 2.997794363411583e+000	 9.731433052542402e+000
 1.676993404453262e+000	 3.014994713363848e+000	 9.693890056633091e+000
 1.646306718274393e+000	 3.031859856513325e+000	 9.655826899662770e+000
 1.615495900547695e+000	 3.048388589970434e+000	 9.614963703490247e+000
 1.584566346063012e+000	 3.064579823571918e+000	 9.569101339423394e+000
 1.901553893010882e+000	 2.908559401514253e+000	 1.003593684893795e+001
 1.871671210058226e+000	 2.927878392559766e+000	 9.983010616348325e+000
 1.841625831927143e+000	 2.946869405889925e+000	 9.910379170291416e+000
 1.811423078601302e+000	 2.965530547896796e+000	 9.851032517396366e+000
 1.781068295202637e+000	 2.983860038276696e+000	 9.802302516984954e+000
 1.750566849023559e+000	 3.001856210296831e+000	 9.761575282926225e+000
 1.719924126563246e+000	 3.019517510970271e+000	 9.726297017724702e+000
 1.689145530571214e+000	 3.036842501139892e+000	 9.693979639036975e+000
 1.658236477101382e+000	 3.053829855471977e+000	 9.662206186523559e+000
 1.627202392579759e+000	 3.070478362360350e+000	 9.628635997757066e+000
 1.596048710888871e+000	 3.086786923742023e+000	 9.591009642749953e+000
 1.915234136842688e+000	 2.929484289290938e+000	 9.996624342722241e+000
 1.885136470559467e+000	 2.948942265883543e+000	 9.951422650704856e+000
 1.854874938628939e+000	 2.968069905208957e+000	 9.891868950031483e+000
 1.824454899308038e+000	 2.986865300036170e+000	 9.834348698742309e+000
 1.793881736172811e+000	 3.005326657253558e+000	 9.788715050931240e+000
 1.763160855129283e+000	 3.023452298137441e+000	 9.752290618677385e+000
 1.732297681428427e+000	 3.041240658528325e+000	 9.722458096961718e+000
 1.701297656688460e+000	 3.058690288915435e+000	 9.696666033376310e+000
 1.670166235927714e+000	 3.075799854430276e+000	 9.672434374975710e+000
 1.638908884611238e+000	 3.092568134750086e+000	 9.647359780690366e+000
 1.607531075714235e+000	 3.108994023912138e+000	 9.619120688579264e+000
 1.492707427438275e+000	 2.886923022211355e+000	 9.651646817267094e+000
 1.463464123453077e+000	 2.901856777903874e+000	 9.641790602586548e+000
 1.434119140206303e+000	 2.916470862496686e+000	 9.635825127745616e+000
 1.404677564505076e+000	 2.930764565752653e+000	 9.632325134806884e+000
 1.375144479435225e+000	 2.944737282130762e+000	 9.629936367398045e+000
 1.345524961753960e+000	 2.958388510217295e+000	 9.627378405356941e+000
 1.315824079314217e+000	 2.971717852081893e+000	 9.623447279240734e+000
 1.286046888523079e+000	 2.984725012560141e+000	 9.617017861307536e+000
 1.256198431836615e+000	 2.997409798464362e+000	 9.607046030301948e+000
 1.226283735293376e+000	 3.009772117724388e+000	 9.532356981859650e+000
 1.196307806088698e+000	 3.021811978460158e+000	 9.472570733023179e+000
 1.504189792268103e+000	 2.909130122381397e+000	 9.613528406263777e+000
 1.474721539790167e+000	 2.924178753116689e+000	 9.607686578084486e+000
 1.445150825902609e+000	 2.938905253744039e+000	 9.603617257044940e+000
 1.415482776541836e+000	 2.953308908562949e+000	 9.599818828160524e+000
 1.385722513894337e+000	 2.967389107374397e+000	 9.594864467172661e+000
 1.355875153769300e+000	 2.981145344907636e+000	 9.587405061954556e+000
 1.325945803003145e+000	 2.994577220171298e+000	 9.576171905688025e+000
 1.295939556898392e+000	 3.007684435730476e+000	 9.559979158352627e+000
 1.265861496699235e+000	 3.020466796911432e+000	 9.537726073814048e+000
 1.235716687106057e+000	 3.032924210935764e+000	 9.471424431742149e+000
 1.205510173831083e+000	 3.045056685985870e+000	 9.386388689913487e+000
 1.515672157097435e+000	 2.931337222551448e+000	 9.583948010741032e+000
 1.485978956126852e+000	 2.946500728329692e+000	 9.581956673821068e+000
 1.456182511598578e+000	 2.961339644991719e+000	 9.579614172221472e+000
 1.426287988578308e+000	 2.975853251373670e+000	 9.575341304506768e+000
 1.396300548353190e+000	 2.990040932618514e+000	 9.567637485602774e+000
 1.366225345784390e+000	 3.003902179598473e+000	 9.555083756619728e+000
 1.336067526691811e+000	 3.017436588261179e+000	 9.536345558251771e+000
 1.305832225273413e+000	 3.030643858901224e+000	 9.510175264224790e+000
 1.275524561561510e+000	 3.043523795358813e+000	 9.475414472034238e+000
 1.245149638918324e+000	 3.056076304147309e+000	 9.418286058237626e+000
 1.214712541572961e+000	 3.068301393511570e+000	 9.308063845871969e+000
 1.527154521926272e+000	 2.953544322721507e+000	 9.562604730652526e+000
 1.497236372463129e+000	 2.968822703542879e+000	 9.564325845208284e+000
 1.467214197294211e+000	 2.983774036239725e+000	 9.563566041586133e+000
 1.437093200614492e+000	 2.998397594184816e+000	 9.558667283857471e+000
 1.406878582811784e+000	 3.012692757863114e+000	 9.548054015293962e+000
 1.376575537799229e+000	 3.026659014289811e+000	 9.530236258280223e+000
 1.346189250380215e+000	 3.040295956351536e+000	 9.503812469505185e+000
 1.315724893648139e+000	 3.053603282072388e+000	 9.467472146833471e+000
 1.285187626423441e+000	 3.066580793806505e+000	 9.419998185050670e+000
 1.254582590730175e+000	 3.079228397359024e+000	 9.360268978462521e+000
 1.223914909314336e+000	 3.091546101037260e+000	 9.237024123494139e+000
 1.538636886754612e+000	 2.975751422891574e+000	 9.549200428590112e+000
 1.508493788799001e+000	 2.991144678756257e+000	 9.554521435308347e+000
 1.478245882989506e+000	 3.006208427488057e+000	 9.555225058471274e+000
 1.447898412650388e+000	 3.020941936996385e+000	 9.549573161082947e+000
 1.417456617270118e+000	 3.035344583108195e+000	 9.535913986110703e+000
 1.386925729813818e+000	 3.049415848981647e+000	 9.512685348175486e+000
 1.356310974068357e+000	 3.063155324442370e+000	 9.478417572119064e+000
 1.325617562022573e+000	 3.076562705243963e+000	 9.431736174776596e+000
 1.294850691285028e+000	 3.089637792254510e+000	 9.371364287099317e+000
 1.264015542541612e+000	 3.102380490570910e+000	 9.296124814581480e+000
 1.233117277055205e+000	 3.114790808562941e+000	 9.172697025259748e+000
 1.550119251582456e+000	 2.997958523061648e+000	 9.543439627463963e+000
 1.519751205134466e+000	 3.013466653969821e+000	 9.552273086402055e+000
 1.489277568684464e+000	 3.028642818736715e+000	 9.554345366229946e+000
 1.458703624685996e+000	 3.043486279808379e+000	 9.547836943880274e+000
 1.428034651728194e+000	 3.057996408353757e+000	 9.531018615648232e+000
 1.397275921828156e+000	 3.072172683673983e+000	 9.502254782363639e+000
 1.366432697756237e+000	 3.086014692533680e+000	 9.460006472932214e+000
 1.335510230396714e+000	 3.099522128415953e+000	 9.402834102500210e+000
 1.304513756146271e+000	 3.112694790702827e+000	 9.329399962336366e+000
 1.273448494352633e+000	 3.125532583782966e+000	 9.240961704571683e+000
 1.242319644795568e+000	 3.138035516088611e+000	 9.196870219793972e+000
 1.561601616409804e+000	 3.020165623231730e+000	 9.545029412696653e+000
 1.531008621469525e+000	 3.035788629183572e+000	 9.557312655458768e+000
 1.500309254379085e+000	 3.051077209985700e+000	 9.560682986543984e+000
 1.469508836721317e+000	 3.066030622620796e+000	 9.553238193478116e+000
 1.438612686186010e+000	 3.080648233599801e+000	 9.533170361889564e+000
 1.407626113842244e+000	 3.094929518366817e+000	 9.498769255882630e+000
 1.376554421443855e+000	 3.108874060625466e+000	 9.448425428165850e+000
 1.345402898770562e+000	 3.122481551588358e+000	 9.380633056112846e+000
 1.314176821007170e+000	 3.135751789151454e+000	 9.324464223387386e+000
 1.282881446163240e+000	 3.148684676995191e+000	 9.291265554678002e+000
 1.251522012535427e+000	 3.161280223614271e+000	 9.278084770156518e+000
 1.573083981236656e+000	 3.042372723401821e+000	 9.553679338700913e+000
 1.542266037804178e+000	 3.058110604397511e+000	 9.569374133308372e+000
 1.511340940073370e+000	 3.073511601235009e+000	 9.573995750871827e+000
 1.480314048756349e+000	 3.088574965433638e+000	 9.565557967938565e+000
 1.449190720643567e+000	 3.103300058846326e+000	 9.542172877935782e+000
 1.417976305856081e+000	 3.117686353060152e+000	 9.502054368480735e+000
 1.386676145131212e+000	 3.131733428717729e+000	 9.441520613900783e+000
 1.355295567144116e+000	 3.145440974761175e+000	 9.387237120330157e+000
 1.323839885867724e+000	 3.158808787600393e+000	 9.351487757619706e+000
 1.292314397973432e+000	 3.171836770207588e+000	 9.334811355215622e+000
 1.260724380274781e+000	 3.184524931139920e+000	 9.337685934916010e+000
 1.584566346063012e+000	 3.064579823571918e+000	 9.569101339423394e+000
 1.553523454138424e+000	 3.080432579611637e+000	 9.588193567327441e+000
 1.522372625767317e+000	 3.095945992484646e+000	 9.594043234876908e+000
 1.491119260791094e+000	 3.111119308246904e+000	 9.584578767923979e+000
 1.459768755100865e+000	 3.125951884093334e+000	 9.554924038329364e+000
 1.428326497869667e+000	 3.140443187753983e+000	 9.483397056405265e+000
 1.396797868818307e+000	 3.154592796810469e+000	 9.428668361629409e+000
 1.365188235517377e+000	 3.168400397934406e+000	 9.391407386946257e+000
 1.333502950727935e+000	 3.181865786049646e+000	 9.372224028550992e+000
 1.301747349783209e+000	 3.194988863420155e+000	 9.371667769411790e+000
 1.269926748013629e+000	 3.207769638665559e+000	 9.390226940793855e+000
 1.596048710888871e+000	 3.086786923742023e+000	 9.591009642749953e+000
 1.564780870472264e+000	 3.102754554825951e+000	 9.613508987462787e+000
 1.533404311460927e+000	 3.118380383734608e+000	 9.620586695686457e+000
 1.501924472825550e+000	 3.133663651060593e+000	 9.571975491424871e+000
 1.470346789557904e+000	 3.148603709340823e+000	 9.502290485036321e+000
 1.438676689883004e+000	 3.163200022448315e+000	 9.448213728845184e+000
 1.406919592505140e+000	 3.177452164903683e+000	 9.410485340535983e+000
 1.375080903890346e+000	 3.191359821108051e+000	 9.389786632415781e+000
 1.343166015587801e+000	 3.204922784499208e+000	 9.386739062969209e+000
 1.311180301592571e+000	 3.218140956632892e+000	 9.401903328079623e+000
 1.279129115751972e+000	 3.231014346191188e+000	 9.435778592183953e+000
 1.607531075714235e+000	 3.108994023912138e+000	 9.619120688579264e+000
 1.576038286805698e+000	 3.125076530040452e+000	 9.644559107612885e+000
 1.544435997154201e+000	 3.140814774984898e+000	 9.564384113227966e+000
 1.512729684859719e+000	 3.156207993874709e+000	 9.497704971091078e+000
 1.480924824014684e+000	 3.171255534588795e+000	 9.445389061186523e+000
 1.449026881896090e+000	 3.185956857143146e+000	 9.408247229135409e+000
 1.417041316191712e+000	 3.200311532997376e+000	 9.387032422330035e+000
 1.384973572263021e+000	 3.214319244282112e+000	 9.382438465814934e+000
 1.352829080447324e+000	 3.227979782949084e+000	 9.395098979059302e+000
 1.320613253401519e+000	 3.241293049845800e+000	 9.425586434347100e+000
 1.288331483489811e+000	 3.254259053716808e+000	 9.474411357098251e+000
 1.196307806088698e+000	 3.021811978460158e+000	 9.472570733023179e+000
 1.166275630192232e+000	 3.033529487987621e+000	 9.364392411122296e+000
 1.136192170009821e+000	 3.044924851761178e+000	 9.276882460468515e+000
 1.106062362091802e+000	 3.055998372254013e+000	 9.209405304110780e+000
 1.075891114890496e+000	 3.066750447777396e+000	 9.161379715332046e+000
 1.045683306567630e+000	 3.077181571242415e+000	 9.132281053369781e+000
 1.015443782853513e+000	 3.087292328865915e+000	 9.121643306940943e+000
 9.851773549594465e-001	 3.097083398822883e+000	 9.129060943326310e+000
 9.548887975447457e-001	 3.106555549847563e+000	 9.154190561416307e+000
 9.245828467396422e-001	 3.115709639785575e+000	 9.196752347756693e+000
 8.942641982252435e-001	 3.124546614099404e+000	 9.256531335256682e+000
 1.205510173831083e+000	 3.045056685985870e+000	 9.386388689913487e+000
 1.175246981197481e+000	 3.056864330203026e+000	 9.244780083340844e+000
 1.144932109783359e+000	 3.068347350621874e+000	 9.121530995114913e+000
 1.114570534112516e+000	 3.079506052042313e+000	 9.015934213796594e+000
 1.084167200394599e+000	 3.090340835839550e+000	 8.927340861632411e+000
 1.053727024315657e+000	 3.100852198716295e+000	 8.855162705409823e+000
 1.023254888880847e+000	 3.111040731398753e+000	 8.798874266879349e+000
 9.927556423107906e-001	 3.120907117278648e+000	 8.758014730480461e+000
 9.622340959929506e-001	 3.130452131003561e+000	 8.835885711302867e+000
 9.316950224893299e-001	 3.139676637017925e+000	 9.018816737378023e+000
 9.011431536016610e-001	 3.148581588057016e+000	 9.231791247620457e+000
 1.214712541572961e+000	 3.068301393511570e+000	 9.308063845871969e+000
 1.184218332202131e+000	 3.080199172418236e+000	 9.132489199419354e+000
 1.153672049556212e+000	 3.091769849482220e+000	 8.972979864301452e+000
 1.123078706132470e+000	 3.103013731830142e+000	 8.828755749163793e+000
 1.092443285897879e+000	 3.113931223901139e+000	 8.699099101008279e+000
 1.061770742062806e+000	 3.124522826189546e+000	 8.583356893067434e+000
 1.031065994907259e+000	 3.134789133930934e+000	 8.638897109902016e+000
 1.000333929661179e+000	 3.144730835733750e+000	 8.736408651378001e+000
 9.695793944401745e-001	 3.154348712158920e+000	 8.865932850913508e+000
 9.388071982380229e-001	 3.163643634249695e+000	 9.024707391074385e+000
 9.080221089770787e-001	 3.172616562014134e+000	 9.210133387520777e+000
 1.223914909314336e+000	 3.091546101037260e+000	 9.237024123494139e+000
 1.193189683206180e+000	 3.103534014633252e+000	 9.026990055380320e+000
 1.162411989328381e+000	 3.115192348342218e+000	 8.830740962018313e+000
 1.131586878151665e+000	 3.126521411617498e+000	 8.665042119454542e+000
 1.100719371400334e+000	 3.137521611962162e+000	 8.639819404723612e+000
 1.069814459809077e+000	 3.148193453662171e+000	 8.652915948207294e+000
 1.038877100932750e+000	 3.158537536462453e+000	 8.700983615405731e+000
 1.007912217010610e+000	 3.168554554188189e+000	 8.780837152602203e+000
 9.769246928864181e-001	 3.178245293313647e+000	 8.889457149400354e+000
 9.459193739857200e-001	 3.187610631480886e+000	 9.023992563070834e+000
 9.149010643514963e-001	 3.196651535970757e+000	 9.181762809033096e+000
 1.233117277055205e+000	 3.114790808562941e+000	 9.172697025259748e+000
 1.202161034209630e+000	 3.126868856848071e+000	 8.943111790232853e+000
 1.171151929099864e+000	 3.138614847201867e+000	 8.827661265065277e+000
 1.140095050170102e+000	 3.150029091404383e+000	 8.754987197196494e+000
 1.108995456901967e+000	 3.161112000022622e+000	 8.721301388308914e+000
 1.077858177554471e+000	 3.171864081134169e+000	 8.722978096540523e+000
 1.046688206957319e+000	 3.182285938993313e+000	 8.756557967672030e+000
 1.015490504359086e+000	 3.192378272641967e+000	 8.818751508911435e+000
 9.842699913316808e-001	 3.202141874467737e+000	 8.906442107389720e+000
 9.530315497324224e-001	 3.211577628711497e+000	 9.016688596704176e+000
 9.217800197249140e-001	 3.220686509926887e+000	 9.146727376027096e+000
 1.242319644795568e+000	 3.138035516088611e+000	 9.196870219793972e+000
 1.211132385212480e+000	 3.150203699062697e+000	 9.034513586750617e+000
 1.179891868870664e+000	 3.162037346061168e+000	 8.916283428739099e+000
 1.148603222187779e+000	 3.173536771190796e+000	 8.838099900542973e+000
 1.117271542402776e+000	 3.184702388082517e+000	 8.796048028577156e+000
 1.085901895298987e+000	 3.195534708605540e+000	 8.786382200170445e+000
 1.054499312980966e+000	 3.206034341523514e+000	 8.805530180269539e+000
 1.023068791706606e+000	 3.216201991095082e+000	 8.850096656507164e+000
 9.916152897759637e-001	 3.226038455621192e+000	 8.916866314875184e+000
 9.601437254781294e-001	 3.235544625941530e+000	 9.002806449501074e+000
 9.286589750973320e-001	 3.244721483882524e+000	 9.105069111238715e+000
 1.251522012535427e+000	 3.161280223614271e+000	 9.278084770156518e+000
 1.220103736214729e+000	 3.173538541277126e+000	 9.118552862803522e+000
 1.188631808640779e+000	 3.185459844920121e+000	 8.997714638573607e+000
 1.157111394204697e+000	 3.197044450976737e+000	 8.914175899346560e+000
 1.125547627902761e+000	 3.208292776141848e+000	 8.863893054340643e+000
 1.093945613042626e+000	 3.219205336076285e+000	 8.842998857078944e+000
 1.062310419003691e+000	 3.229782744053054e+000	 8.847806509209461e+000
 1.030647079053169e+000	 3.240025709547533e+000	 8.874813278268251e+000
 9.989605882192654e-001	 3.249935036774010e+000	 8.920703631755515e+000
 9.672559012228416e-001	 3.259511623170983e+000	 8.982351891185708e+000
 9.355379304687495e-001	 3.268756457837667e+000	 9.056824411017766e+000
 1.260724380274781e+000	 3.184524931139920e+000	 9.337685934916010e+000
 1.229075087216379e+000	 3.196873383491363e+000	 9.194944732135012e+000
 1.197371748410209e+000	 3.208882343778725e+000	 9.071709809810800e+000
 1.165619566220856e+000	 3.220552130762207e+000	 8.983008784985138e+000
 1.133823713401924e+000	 3.231883164200613e+000	 8.924667583898618e+000
 1.101989330785386e+000	 3.242875963546399e+000	 8.892695540718195e+000
 1.070121525025494e+000	 3.253531146581936e+000	 8.883289590082777e+000
 1.038225366398776e+000	 3.263849427999324e+000	 8.892837958981749e+000
 1.006305886661587e+000	 3.273831617926195e+000	 8.917923360465878e+000
 9.743680769665584e-001	 3.283478620399857e+000	 8.955325693015636e+000
 9.424168858391672e-001	 3.292791431792316e+000	 9.002024250670507e+000
 1.269926748013629e+000	 3.207769638665559e+000	 9.390226940793855e+000
 1.238046438217428e+000	 3.220208225705404e+000	 9.263403382487184e+000
 1.206111688178954e+000	 3.232304842636979e+000	 9.138022384542333e+000
 1.174127738236257e+000	 3.244059810547205e+000	 9.044390145668919e+000
 1.142099798900263e+000	 3.255473552258815e+000	 8.978200219621293e+000
 1.110033048527270e+000	 3.266546591015890e+000	 8.935336713218300e+000
 1.077932631046376e+000	 3.277279549110157e+000	 8.911878569234824e+000
 1.045803653743427e+000	 3.287673146450453e+000	 8.904103333824434e+000
 1.013651185102928e+000	 3.297728199077743e+000	 8.908490411103273e+000
 9.814802527092800e-001	 3.307445617628152e+000	 8.921723808885728e+000
 9.492958412085848e-001	 3.316826405746471e+000	 8.940694380874273e+000
 1.279129115751972e+000	 3.231014346191188e+000	 9.435778592183953e+000
 1.247017789217878e+000	 3.243543067919251e+000	 9.323642108910191e+000
 1.214851627947015e+000	 3.255727341494886e+000	 9.196404384700703e+000
 1.182635910250898e+000	 3.267567490331730e+000	 9.098109638496890e+000
 1.150375884397779e+000	 3.279063940316452e+000	 9.024317138450718e+000
 1.118076766268276e+000	 3.290217218484752e+000	 8.970783933708136e+000
 1.085743737066335e+000	 3.301027951637718e+000	 8.933469229277794e+000
 1.053381941087122e+000	 3.311496864900918e+000	 8.908538230435212e+000
 1.020996483543287e+000	 3.321624780228655e+000	 8.892365459424436e+000
 9.885924284510065e-001	 3.331412614855867e+000	 8.881537548614478e+000
 9.561747965770026e-001	 3.340861379700133e+000	 8.872855515613692e+000
 1.288331483489811e+000	 3.254259053716808e+000	 9.474411357098251e+000
 1.255989140217728e+000	 3.266877910132902e+000	 9.368804497370897e+000
 1.223591567714392e+000	 3.279149840352444e+000	 9.246606462779024e+000
 1.191144082264780e+000	 3.291075170115786e+000	 9.143955058425018e+000
 1.158651969894471e+000	 3.302654328373525e+000	 9.062842178523313e+000
 1.126120484008404e+000	 3.313887845952988e+000	 8.998895961994059e+000
 1.093554843085373e+000	 3.324776354164622e+000	 8.947954109223996e+000
 1.060960228429861e+000	 3.335320583350722e+000	 8.906067804898498e+000
 1.028341781982668e+000	 3.345521361378934e+000	 8.869505098072184e+000
 9.957046041917382e-001	 3.355379612083005e+000	 8.834753743803994e+000
 9.630537519444204e-001	 3.364896353653301e+000	 8.798523512062699e+000
 8.942641982252435e-001	 3.124546614099404e+000	 9.256531335256682e+000
 8.639375053716756e-001	 3.133067504330197e+000	 9.398549588858248e+000
 8.336073774350107e-001	 3.141273426516435e+000	 9.532437672473233e+000
 8.032783778144549e-001	 3.149165579572983e+000	 9.645969115848619e+000
 7.729550223703774e-001	 3.156745243634214e+000	 9.736969844850782e+000
 7.426417778035707e-001	 3.164013778361765e+000	 9.803468920995027e+000
 7.123430600964776e-001	 3.170972621219920e+000	 9.843697753620686e+000
 6.820632330168476e-001	 3.177623285720976e+000	 9.856088921003988e+000
 6.518066066841962e-001	 3.183967359642995e+000	 9.839274613000779e+000
 6.215774361993540e-001	 3.190006503222291e+000	 9.769976809701490e+000
 5.913799203372813e-001	 3.195742447322996e+000	 9.510462643470358e+000
 9.011431536016610e-001	 3.148581588057016e+000	 9.231791247620457e+000
 8.705831784952053e-001	 3.157168023597005e+000	 9.336589880029951e+000
 8.400197418818312e-001	 3.165437068261379e+000	 9.429040247269452e+000
 8.094574422638166e-001	 3.173389930187422e+000	 9.506767882405994e+000
 7.789008302389191e-001	 3.181027899356694e+000	 9.567599759605313e+000
 7.483544068671686e-001	 3.188352345889772e+000	 9.609563973984999e+000
 7.178226221001053e-001	 3.195364718308351e+000	 9.630889016058607e+000
 6.873098732729230e-001	 3.202066541767132e+000	 9.630002652644034e+000
 6.568205036599041e-001	 3.208459416257858e+000	 9.605530426834191e+000
 6.263588010934251e-001	 3.214545014787885e+000	 9.556293790291990e+000
 5.959289966467158e-001	 3.220325081535687e+000	 9.302585313928166e+000
 9.080221089770787e-001	 3.172616562014134e+000	 9.210133387520777e+000
 8.772288516177454e-001	 3.181268542863414e+000	 9.271547522268646e+000
 8.464321063276931e-001	 3.189600710006008e+000	 9.326071608710739e+000
 8.156365067122714e-001	 3.197614280801621e+000	 9.371332811308783e+000
 7.848466381066257e-001	 3.205310555079000e+000	 9.405157829852698e+000
 7.540670359300239e-001	 3.212690913417656e+000	 9.425572642965916e+000
 7.233021841031021e-001	 3.219756815396703e+000	 9.430801843495948e+000
 6.925565135284997e-001	 3.226509797813246e+000	 9.419267577665876e+000
 6.618344006352651e-001	 3.232951472872700e+000	 9.389588100598338e+000
 6.311401659873202e-001	 3.239083526353473e+000	 9.340575961498182e+000
 6.004780729561651e-001	 3.244907715748377e+000	 9.118504278967262e+000
 9.149010643514963e-001	 3.196651535970757e+000	 9.181762809033096e+000
 8.838745247392960e-001	 3.205369062129424e+000	 9.203420291090547e+000
 8.528444707725966e-001	 3.213764351750323e+000	 9.223475322559338e+000
 8.218155711598192e-001	 3.221838631415580e+000	 9.239555201155543e+000
 7.907924459734976e-001	 3.229593210801130e+000	 9.249485027098677e+000
 7.597796649921365e-001	 3.237029480945418e+000	 9.251287509201292e+000
 7.287817461054688e-001	 3.244148912484980e+000	 9.243182359899974e+000
 6.978031537835781e-001	 3.250953053859317e+000	 9.223585291113626e+000
 6.668482976102793e-001	 3.257443529487524e+000	 9.191106623562490e+000
 6.359215308810396e-001	 3.263622037919057e+000	 9.144549522866463e+000
 6.050271492656288e-001	 3.269490349961068e+000	 8.957434268919096e+000
 9.217800197249140e-001	 3.220686509926887e+000	 9.146727376027096e+000
 8.905201978598567e-001	 3.229469581395036e+000	 9.132202034795235e+000
 8.592568352165415e-001	 3.237927993494322e+000	 9.121193087675776e+000
 8.279946356064604e-001	 3.246062982029298e+000	 9.111326465415734e+000
 7.967382538395343e-001	 3.253875866523083e+000	 9.100424340719384e+000
 7.654922940535065e-001	 3.261368048473059e+000	 9.086504995869420e+000
 7.342613081072044e-001	 3.268541009573177e+000	 9.067782276108135e+000
 7.030497940381579e-001	 3.275396309905343e+000	 9.042664640682377e+000
 6.718621945849467e-001	 3.281935586102327e+000	 9.009753824214792e+000
 6.407028957745837e-001	 3.288160549484636e+000	 8.967843121760868e+000
 6.095762255751076e-001	 3.294072984173759e+000	 8.818601788907298e+000
 9.286589750973320e-001	 3.244721483882524e+000	 9.105069111238715e+000
 8.971658709794282e-001	 3.253570100660248e+000	 9.057882819918310e+000
 8.656691996595282e-001	 3.262091635238010e+000	 9.019164805163349e+000
 8.341737000521943e-001	 3.270287332642776e+000	 8.986538128175422e+000
 8.026840617047365e-001	 3.278158522244862e+000	 8.957820703225591e+000
 7.712049231141334e-001	 3.285706616000578e+000	 8.931025225770085e+000
 7.397408701083099e-001	 3.292933106661297e+000	 8.904358682906850e+000
 7.082964342922391e-001	 3.299839565951325e+000	 8.876221458101599e+000
 6.768760915592670e-001	 3.306427642717112e+000	 8.845206042883707e+000
 6.454842606679518e-001	 3.312699061050212e+000	 8.810095368920104e+000
 6.141253018846009e-001	 3.318655618386451e+000	 8.701244682744129e+000
 9.355379304687495e-001	 3.268756457837667e+000	 9.056824411017766e+000
 9.038115440980098e-001	 3.277670619925062e+000	 8.980449070266689e+000
 8.720815641015560e-001	 3.286255276981380e+000	 8.917328644462154e+000
 8.403527644970217e-001	 3.294511683256016e+000	 8.865081820070339e+000
 8.086298695691034e-001	 3.302441177966462e+000	 8.821520918823760e+000
 7.769175521740177e-001	 3.310045183527975e+000	 8.784651885309199e+000
 7.452204321087848e-001	 3.317325203749339e+000	 8.752673853239338e+000
 7.135430745458218e-001	 3.324282821997265e+000	 8.723978302369096e+000
 6.818899885332407e-001	 3.330919699331877e+000	 8.697147818802749e+000
 6.502656255611443e-001	 3.337237572615780e+000	 8.670954472156884e+000
 6.186743781941089e-001	 3.343238252599141e+000	 8.604611716066980e+000
 9.424168858391672e-001	 3.292791431792316e+000	 9.002024250670507e+000
 9.104572172156019e-001	 3.301771139189477e+000	 8.899883699865022e+000
 8.784939285426255e-001	 3.310418918724437e+000	 8.815621106548511e+000
 8.465318289409420e-001	 3.318736033869013e+000	 8.746849274397338e+000
 8.145756774326358e-001	 3.326723833687888e+000	 8.691373595106095e+000
 7.826301812331594e-001	 3.334383751055250e+000	 8.647192094440142e+000
 7.506999941086291e-001	 3.341717300837304e+000	 8.612495053075767e+000
 7.187897147989062e-001	 3.348726078043161e+000	 8.585664214230269e+000
 6.869038855068675e-001	 3.355411755946624e+000	 8.565271590880306e+000
 6.550469904541608e-001	 3.361776084181345e+000	 8.550077886099839e+000
 6.232234545036314e-001	 3.367820886811832e+000	 8.527962177731544e+000
 9.492958412085848e-001	 3.316826405746471e+000	 8.940694380874273e+000
 9.171028903322046e-001	 3.325871658453493e+000	 8.816166240121614e+000
 8.849062929827364e-001	 3.334582560467181e+000	 8.713977084386519e+000
 8.527108933839558e-001	 3.342960384481772e+000	 8.631732323394656e+000
 8.205214852953330e-001	 3.351006489409139e+000	 8.567229077710454e+000
 7.883428102915585e-001	 3.358722318582404e+000	 8.518456282259782e+000
 7.561795561078429e-001	 3.366109397925190e+000	 8.483594360506462e+000
 7.240363550514918e-001	 3.373169334089012e+000	 8.461014481332146e+000
 6.919177824801477e-001	 3.379903812561350e+000	 8.449277411479581e+000
 6.598283553470018e-001	 3.386314595746906e+000	 8.447131977163901e+000
 6.277725308131688e-001	 3.392403521024523e+000	 8.453513149134169e+000
 9.561747965770026e-001	 3.340861379700133e+000	 8.872855515613692e+000
 9.237485634478174e-001	 3.349972177717110e+000	 8.729272961505371e+000
 8.913186574218889e-001	 3.358746202209609e+000	 8.612329920770222e+000
 8.588899578260621e-001	 3.367184735094290e+000	 8.519622894682994e+000
 8.264672931571956e-001	 3.375289145130211e+000	 8.448939387800680e+000
 7.940554393492146e-001	 3.383060886109435e+000	 8.398258067974709e+000
 7.616591181064262e-001	 3.390501495012999e+000	 8.365748492644146e+000
 7.292829953035791e-001	 3.397612590134821e+000	 8.349770413514770e+000
 6.969316794530807e-001	 3.404395869176058e+000	 8.348872672553238e+000
 6.646097202396671e-001	 3.410853107312461e+000	 8.361791702982400e+000
 6.323216071227208e-001	 3.416986155237214e+000	 8.387449649654510e+000
 9.630537519444204e-001	 3.364896353653301e+000	 8.798523512062699e+000
 9.303942365624410e-001	 3.374072696980329e+000	 8.639176990007854e+000
 8.977310218600831e-001	 3.382909843951724e+000	 8.510611463686841e+000
 8.650690222672622e-001	 3.391409085706569e+000	 8.410413007858958e+000
 8.324131010182233e-001	 3.399571800851111e+000	 8.336358162226462e+000
 7.997680684061285e-001	 3.407399453636346e+000	 8.286414146968587e+000
 7.671386801043791e-001	 3.414893592100732e+000	 8.258738639944417e+000
 7.345296355551679e-001	 3.422055846180586e+000	 8.251679127732803e+000
 7.019455764256671e-001	 3.428887925790747e+000	 8.263771843515233e+000
 6.693910851321567e-001	 3.435391618878011e+000	 8.293740305577899e+000
 6.368706834322875e-001	 3.441568789449906e+000	 8.340493470911847e+000
 5.913799203372813e-001	 3.195742447322996e+000	 9.510462643470358e+000
 5.612182003031748e-001	 3.201176991585784e+000	 9.355266835334634e+000
 5.310963585522425e-001	 3.206312002558782e+000	 9.219689299903703e+000
 5.010184176725815e-001	 3.211149411812481e+000	 9.102151774902001e+000
 4.709883393310327e-001	 3.215691214040372e+000	 9.001387545463610e+000
 4.410100232820740e-001	 3.219939465148238e+000	 8.916437148341240e+000
 4.110873064392889e-001	 3.223896280334044e+000	 8.846643513637051e+000
 3.812239620090090e-001	 3.227563832160544e+000	 8.791646571392338e+000
 3.514236986856592e-001	 3.230944348622705e+000	 8.751377350959732e+000
 3.216901599082669e-001	 3.234040111211981e+000	 8.726051601561981e+000
 2.920269231775196e-001	 3.236853452979430e+000	 8.716162962816178e+000
 5.959289966467158e-001	 3.220325081535687e+000	 9.302585313928166e+000
 5.655352633805315e-001	 3.225801429985276e+000	 9.157383377245857e+000
 5.351817151537136e-001	 3.230975941042790e+000	 9.031822140913890e+000
 5.048724054973427e-001	 3.235850561136954e+000	 8.924209057096389e+000
 4.746113265526194e-001	 3.240427300305058e+000	 8.833170871322469e+000
 4.444024080721309e-001	 3.244708230267543e+000	 8.757649303388069e+000
 4.142495164841795e-001	 3.248695482493129e+000	 8.696896150421802e+000
 3.841564540197592e-001	 3.252391246256594e+000	 8.650467840025165e+000
 3.541269579017118e-001	 3.255797766691325e+000	 8.618219462003745e+000
 3.241646995955179e-001	 3.258917342838711e+000	 8.600298307703149e+000
 2.942732841210988e-001	 3.261752325696358e+000	 8.597136946354139e+000
 6.004780729561651e-001	 3.244907715748377e+000	 9.118504278967262e+000
 5.698523264580873e-001	 3.250425868384768e+000	 8.983681554901901e+000
 5.392670717555369e-001	 3.255639879526798e+000	 8.868345461252025e+000
 5.087263933225791e-001	 3.260551710461429e+000	 8.770688548227149e+000
 4.782343137747728e-001	 3.265163386569744e+000	 8.689230621361213e+000
 4.477947928628162e-001	 3.269476995386849e+000	 8.622814395978452e+000
 4.174117265297299e-001	 3.273494684652216e+000	 8.570600558182594e+000
 3.870889460311708e-001	 3.277218660352643e+000	 8.532062260867138e+000
 3.568302171183988e-001	 3.280651184759945e+000	 8.506979083870016e+000
 3.266392392833460e-001	 3.283794574465440e+000	 8.495430487911637e+000
 2.965196450651695e-001	 3.286651198413287e+000	 8.497788792359408e+000
 6.050271492656288e-001	 3.269490349961068e+000	 8.957434268919096e+000
 5.741693895358421e-001	 3.275050306784259e+000	 8.833422251304379e+000
 5.433524283577125e-001	 3.280303818010806e+000	 8.728566024066410e+000
 5.125803811482899e-001	 3.285252859785903e+000	 8.640942586622190e+000
 4.818573009974927e-001	 3.289899472834430e+000	 8.568964373114774e+000
 4.511871776541295e-001	 3.294245760506156e+000	 8.511374877316227e+000
 4.205739365759401e-001	 3.298293886811303e+000	 8.467243668128338e+000
 3.900214380432444e-001	 3.302046074448694e+000	 8.435960824779286e+000
 3.595334763357196e-001	 3.305504602828564e+000	 8.417230821461592e+000
 3.291137789717515e-001	 3.308671806092170e+000	 8.411065891688942e+000
 2.987660060097320e-001	 3.311550071130214e+000	 8.417778903069767e+000
 6.095762255751076e-001	 3.294072984173759e+000	 8.818601788907298e+000
 5.784864526137959e-001	 3.299674745183752e+000	 8.705877759842787e+000
 5.474377849602403e-001	 3.304967756494813e+000	 8.611801602908837e+000
 5.164343689744753e-001	 3.309954009110377e+000	 8.534334085930375e+000
 4.854802882207794e-001	 3.314635559099118e+000	 8.471779809753256e+000
 4.545795624460711e-001	 3.319014525625462e+000	 8.422782800459457e+000
 4.237361466228101e-001	 3.323093088970389e+000	 8.386321475965689e+000
 3.929539300559796e-001	 3.326873488544744e+000	 8.361703016719837e+000
 3.622367355536746e-001	 3.330358020897184e+000	 8.348557170875802e+000
 3.315883186607344e-001	 3.333549037718901e+000	 8.346829524878134e+000
 3.010123669547862e-001	 3.336448943847143e+000	 8.356774270823577e+000
 6.141253018846009e-001	 3.318655618386451e+000	 8.701244682744129e+000
 5.828035156919487e-001	 3.324299183583244e+000	 8.600331361687459e+000
 5.515231415631204e-001	 3.329631694978822e+000	 8.517380573941923e+000
 5.202883568011357e-001	 3.334655158434851e+000	 8.450236143442885e+000
 4.891032754446326e-001	 3.339371645363804e+000	 8.397094345799280e+000
 4.579719472386412e-001	 3.343783290744768e+000	 8.356499464696181e+000
 4.268983566703400e-001	 3.347892291129476e+000	 8.327338706176930e+000
 3.958864220693765e-001	 3.351700902640793e+000	 8.308836501147935e+000
 3.649399947722636e-001	 3.355211438965803e+000	 8.300548227137876e+000
 3.340628583502946e-001	 3.358426269345630e+000	 8.302353380910468e+000
 3.032587279003322e-001	 3.361347816564072e+000	 8.314448233981976e+000
 6.186743781941089e-001	 3.343238252599141e+000	 8.604611716066980e+000
 5.871205787703006e-001	 3.348923621982736e+000	 8.516076921827077e+000
 5.556084981663528e-001	 3.354295633462829e+000	 8.444641526137104e+000
 5.241423446282706e-001	 3.359356307759324e+000	 8.388031665694630e+000
 4.927262626690523e-001	 3.364107731628491e+000	 8.344334769357461e+000
 4.613643320318393e-001	 3.368552055864074e+000	 8.311995075609499e+000
 4.300605667185297e-001	 3.372691493288563e+000	 8.289808491109065e+000
 3.988189140834350e-001	 3.376528316736843e+000	 8.276916821306653e+000
 3.676432539914868e-001	 3.380064857034423e+000	 8.272801404828503e+000
 3.365373980404323e-001	 3.383303500972360e+000	 8.277276183908700e+000
 3.055050888463698e-001	 3.386246689281000e+000	 8.290480243619257e+000
 6.232234545036314e-001	 3.367820886811832e+000	 8.527962177731544e+000
 5.914376418488513e-001	 3.373548060382227e+000	 8.452418502797899e+000
 5.596938547699376e-001	 3.378959571946838e+000	 8.392932888544484e+000
 5.279963324558803e-001	 3.384057457083798e+000	 8.347113010462637e+000
 4.963492498940388e-001	 3.388843817893178e+000	 8.312936900013035e+000
 4.647567168256657e-001	 3.393320820983380e+000	 8.288748420030260e+000
 4.332227767673793e-001	 3.397490695447649e+000	 8.273252064117497e+000
 4.017514060981554e-001	 3.401355730832893e+000	 8.265507111676248e+000
 3.703465132113441e-001	 3.404918275103043e+000	 8.264921170946890e+000
 3.390119377311472e-001	 3.408180732599090e+000	 8.271243143041453e+000
 3.077514497928993e-001	 3.411145561997928e+000	 8.284555640431121e+000
 6.277725308131688e-001	 3.392403521024523e+000	 8.453513149134169e+000
 5.957547049276010e-001	 3.398172498781718e+000	 8.408669995207333e+000
 5.637792113738745e-001	 3.403623510430845e+000	 8.361612573768124e+000
 5.318503202839647e-001	 3.408758606408273e+000	 8.326881644329724e+000
 4.999722371195919e-001	 3.413579904157864e+000	 8.302345261604190e+000
 4.681491016201202e-001	 3.418089586102685e+000	 8.286246555122343e+000
 4.363849868168886e-001	 3.422289897606736e+000	 8.277198466051230e+000
 4.046838981135373e-001	 3.426183144928944e+000	 8.274177822929184e+000
 3.730497724318355e-001	 3.429771693171662e+000	 8.276518789388193e+000
 3.414864774224393e-001	 3.433057964225819e+000	 8.283905717557811e+000
 3.099978107399203e-001	 3.436044434714856e+000	 8.296365441342559e+000
 6.323216071227208e-001	 3.416986155237214e+000	 8.387449649654510e+000
 6.000717680065499e-001	 3.422796937181211e+000	 8.384154764206208e+000
 5.678645679781637e-001	 3.428287448914853e+000	 8.350047636831082e+000
 5.357043081125240e-001	 3.433459755732746e+000	 8.326747815029538e+000
 5.035952243457116e-001	 3.438315990422550e+000	 8.312012769119484e+000
 4.715414864152032e-001	 3.442858351221992e+000	 8.303984510888585e+000
 4.395471968670580e-001	 3.447089099765823e+000	 8.301184264407652e+000
 4.076163901295808e-001	 3.451010559024994e+000	 8.302506458757888e+000
 3.757530316529610e-001	 3.454625111240281e+000	 8.307212076450988e+000
 3.439610171143090e-001	 3.457935195852550e+000	 8.314921391964234e+000
 3.122441716874331e-001	 3.460943307431786e+000	 8.325606135326988e+000
 6.368706834322875e-001	 3.441568789449906e+000	 8.340493470911847e+000
 6.043888310856980e-001	 3.447421375580705e+000	 8.378205311112270e+000
 5.719499245828054e-001	 3.452951387398861e+000	 8.357613948660390e+000
 5.395582959415579e-001	 3.458160905057221e+000	 8.346130237834158e+000
 5.072182115723980e-001	 3.463052076687238e+000	 8.341400429013856e+000
 4.749338712109144e-001	 3.467627116341299e+000	 8.341465005426553e+000
 4.427094069178871e-001	 3.471888301924911e+000	 8.344753284523797e+000
 4.105488821462863e-001	 3.475837973121045e+000	 8.350077323981122e+000
 3.784562908747207e-001	 3.479478529308901e+000	 8.356625166822761e+000
 3.464355568067561e-001	 3.482812427479280e+000	 8.363953460836806e+000
 3.144905326354376e-001	 3.485842180148714e+000	 8.371979487976084e+000
 2.920269231775196e-001	 3.236853452979430e+000	 8.716162962816178e+000
 2.624374994324514e-001	 3.239386756599464e+000	 8.689778455601317e+000
 2.329253324867810e-001	 3.241642452436632e+000	 8.647034739899750e+000
 2.034937985235925e-001	 3.243623016616949e+000	 8.589536436094871e+000
 1.741462056470113e-001	 3.245330969105182e+000	 8.519155974778114e+000
 1.448857934907249e-001	 3.246768871790385e+000	 8.438024169664132e+000
 1.157157328821542e-001	 3.247939326581152e+000	 8.348520511781706e+000
 8.663912556126877e-002	 3.248844973512246e+000	 8.253263214935130e+000
 5.765900395300546e-002	 3.249488488864120e+000	 8.155099042054868e+000
 2.877833099221386e-002	 3.249872583296864e+000	 8.057092941603553e+000
 0.000000000000000e+000	 3.250000000000000e+000	 7.962517522685383e+000
 2.942732841210988e-001	 3.261752325696358e+000	 8.597136946354139e+000
 2.644562494246240e-001	 3.264305116266987e+000	 8.576883471099773e+000
 2.347170658106003e-001	 3.266578163610304e+000	 8.542372380998472e+000
 2.050591354327509e-001	 3.268573962899443e+000	 8.495151674417064e+000
 1.754857918421560e-001	 3.270295053483519e+000	 8.437042106255628e+000
 1.460002995927624e-001	 3.271744016958421e+000	 8.370127671406301e+000
 1.166058539029716e-001	 3.272923475247428e+000	 8.296745801129623e+000
 8.730558037229109e-002	 3.273836088693259e+000	 8.219477302902853e+000
 5.810253475200383e-002	 3.274484554163141e+000	 8.141136073913676e+000
 2.899970276876601e-002	 3.274871603168394e+000	 8.064758617921457e+000
 0.000000000000000e+000	 3.275000000000000e+000	 7.993593394684178e+000
 2.965196450651695e-001	 3.286651198413287e+000	 8.497788792359408e+000
 2.664749994171937e-001	 3.289223475934511e+000	 8.482712067268775e+000
 2.365087991347322e-001	 3.291513874783975e+000	 8.455260948849508e+000
 2.066244723421478e-001	 3.293524909181937e+000	 8.416928489485288e+000
 1.768253780374754e-001	 3.295259137861856e+000	 8.369485637873959e+000
 1.471148056949209e-001	 3.296719162126458e+000	 8.314971627083414e+000
 1.174959749238660e-001	 3.297907623913702e+000	 8.255684067026536e+000
 8.797203518335663e-002	 3.298827203874272e+000	 8.194168772479731e+000
 5.854606555102134e-002	 3.299480619462162e+000	 8.133209357393353e+000
 2.922107454532293e-002	 3.299870623039924e+000	 8.075816625782649e+000
 0.000000000000000e+000	 3.300000000000000e+000	 8.025217788964481e+000
 2.987660060097320e-001	 3.311550071130214e+000	 8.417778903069767e+000
 2.684937494101602e-001	 3.314141835602035e+000	 8.406957134426673e+000
 2.383005324591768e-001	 3.316449585957646e+000	 8.385426304373281e+000
 2.081898092517832e-001	 3.318475855464431e+000	 8.354626170230707e+000
 1.781649642329693e-001	 3.320223222240192e+000	 8.316279719780333e+000
 1.482293117972002e-001	 3.321694307294495e+000	 8.272383457967607e+000
 1.183860959448375e-001	 3.322891772579979e+000	 8.225197389380627e+000
 8.863848999446536e-002	 3.323818319055284e+000	 8.177234728216929e+000
 5.898959635005797e-002	 3.324476684761183e+000	 8.131251367072386e+000
 2.944244632188460e-002	 3.324869642911456e+000	 8.090235135428141e+000
 0.000000000000000e+000	 3.324999999999999e+000	 8.057394878178041e+000
 3.010123669547862e-001	 3.336448943847143e+000	 8.356774270823577e+000
 2.705124994035238e-001	 3.339060195269558e+000	 8.349317744046569e+000
 2.400922657839339e-001	 3.341385297131319e+000	 8.332600020161625e+000
 2.097551461616571e-001	 3.343426801746927e+000	 8.308009188025689e+000
 1.795045504286379e-001	 3.345187306618529e+000	 8.277222096398782e+000
 1.493438178996003e-001	 3.346669452462530e+000	 8.242194533339994e+000
 1.192762169658860e-001	 3.347875921246255e+000	 8.205151092588078e+000
 8.930494480561731e-002	 3.348809434236298e+000	 8.168574759244907e+000
 5.943312714911376e-002	 3.349472750060204e+000	 8.135196246696962e+000
 2.966381809845104e-002	 3.349868662782986e+000	 8.107983116250724e+000
 0.000000000000000e+000	 3.350000000000000e+000	 8.090128710419656e+000
 3.032587279003322e-001	 3.361347816564072e+000	 8.314448233981976e+000
 2.725312493972843e-001	 3.363978554937082e+000	 8.309498919824806e+000
 2.418839991090036e-001	 3.366321008304990e+000	 8.296519168934447e+000
 2.113204830717695e-001	 3.368377748029420e+000	 8.276847004742047e+000
 1.808441366244811e-001	 3.370151390996865e+000	 8.252114936272150e+000
 1.504583240021213e-001	 3.371644597630567e+000	 8.224240024268351e+000
 1.201663379870117e-001	 3.372860069912531e+000	 8.195413625366417e+000
 8.997139961681246e-002	 3.373800549417310e+000	 8.168090847252657e+000
 5.987665794818865e-002	 3.374468815359224e+000	 8.144979747360500e+000
 2.988518987502226e-002	 3.374867682654517e+000	 8.129030307196263e+000
 0.000000000000000e+000	 3.375000000000000e+000	 8.123423213840727e+000
 3.055050888463698e-001	 3.386246689281000e+000	 8.290480243619257e+000
 2.745499993914417e-001	 3.388896914604605e+000	 8.287211418849333e+000
 2.436757324343858e-001	 3.391256719478660e+000	 8.276926121328922e+000
 2.128858199821205e-001	 3.393328694311915e+000	 8.260913889276139e+000
 1.821837228204990e-001	 3.395115475375202e+000	 8.240764669410114e+000
 1.515728301047632e-001	 3.396619742798604e+000	 8.218358763835575e+000
 1.210564590082144e-001	 3.397844218578805e+000	 8.195856445890088e+000
 9.063785442805079e-002	 3.398791664598323e+000	 8.175687278525320e+000
 6.032018874728268e-002	 3.399464880658245e+000	 8.160539168409560e+000
 3.010656165159823e-002	 3.399866702526048e+000	 8.153347188471777e+000
 0.000000000000000e+000	 3.400000000000000e+000	 8.157282201058742e+000
 3.077514497928993e-001	 3.411145561997928e+000	 8.284555640431121e+000
 2.765687493859962e-001	 3.413815274272130e+000	 8.282171522351609e+000
 2.454674657600808e-001	 3.416192430652333e+000	 8.273568352544947e+000
 2.144511568927100e-001	 3.418279640594410e+000	 8.259988742110675e+000
 1.835233090166915e-001	 3.420079559753539e+000	 8.242981831761677e+000
 1.526873362075258e-001	 3.421594887966641e+000	 8.224393113489423e+000
 1.219465800294942e-001	 3.422828367245081e+000	 8.206353911956073e+000
 9.130430923933233e-002	 3.423782779779336e+000	 8.191270559835250e+000
 6.076371954639585e-002	 3.424460945957266e+000	 8.181813300938583e+000
 3.032793342817898e-002	 3.424865722397578e+000	 8.180904954491895e+000
 0.000000000000000e+000	 3.425000000000000e+000	 8.191709373373765e+000
 3.099978107399203e-001	 3.436044434714856e+000	 8.296365441342559e+000
 2.785874993809475e-001	 3.438733633939654e+000	 8.294100835556764e+000
 2.472591990860882e-001	 3.441128141826003e+000	 8.286198257397405e+000
 2.160164938035379e-001	 3.443230586876903e+000	 8.273854927503226e+000
 1.848628952130586e-001	 3.445043644131875e+000	 8.258580916449008e+000
 1.538018423104094e-001	 3.446570033134677e+000	 8.242188835203237e+000
 1.228367010508511e-001	 3.447812515911356e+000	 8.226783175925108e+000
 9.197076405065707e-002	 3.448773894960349e+000	 8.214749337989462e+000
 6.120725034552816e-002	 3.449457011256288e+000	 8.208742373740806e+000
 3.054930520476448e-002	 3.449864742269110e+000	 8.211675488001713e+000
 0.000000000000000e+000	 3.449999999999999e+000	 8.226708324802047e+000
 3.122441716874331e-001	 3.460943307431786e+000	 8.325606135326988e+000
 2.806062493762958e-001	 3.463651993607177e+000	 8.322726096172781e+000
 2.490509324124082e-001	 3.466063852999674e+000	 8.314572973351297e+000
 2.175818307146044e-001	 3.468181533159398e+000	 8.302300112918765e+000
 1.862024814096004e-001	 3.470007728510212e+000	 8.287380231423022e+000
 1.549163484134138e-001	 3.471545178302714e+000	 8.271594969154805e+000
 1.237268220722850e-001	 3.472796664577632e+000	 8.257024084198033e+000
 9.263721886202500e-002	 3.473765010141362e+000	 8.246034322849988e+000
 6.165078114467958e-002	 3.474453076555308e+000	 8.241268001592729e+000
 3.077067698135475e-002	 3.474863762140640e+000	 8.245631335316933e+000
 0.000000000000000e+000	 3.474999999999999e+000	 8.262282545934701e+000
 3.144905326354376e-001	 3.485842180148714e+000	 8.371979487976084e+000
 2.826249993720412e-001	 3.488570353274702e+000	 8.367778991087706e+000
 2.508426657390410e-001	 3.490999564173347e+000	 8.358454211141535e+000
 2.191471676259094e-001	 3.493132479441893e+000	 8.345116115344011e+000
 1.875420676063168e-001	 3.494971812888549e+000	 8.329201763219865e+000
 1.560308545165391e-001	 3.496520323470751e+000	 8.312463716647779e+000
 1.246169430937960e-001	 3.497780813243908e+000	 8.296959080999727e+000
 9.330367367343619e-002	 3.498756125322376e+000	 8.285038213653190e+000
 6.209431194385016e-002	 3.499449141854330e+000	 8.279333135754413e+000
 3.099204875794980e-002	 3.499862782012172e+000	 8.282745682624556e+000
 0.000000000000000e+000	 3.500000000000000e+000	 8.298435427631736e+000
 3.500000000000000e+000	 0.000000000000000e+000	 1.081029633879466e+001
 3.499862782012172e+000	 3.099204875794991e-002	 1.071768321808385e+001
 3.499449141854330e+000	 6.209431194385037e-002	 1.064631992439754e+001
 3.498756125322376e+000	 9.330367367343595e-002	 1.059517546474947e+001
 3.497780813243909e+000	 1.246169430937959e-001	 1.056305115241749e+001
 3.496520323470751e+000	 1.560308545165391e-001	 1.054858371737090e+001
 3.494971812888549e+000	 1.875420676063169e-001	 1.055024896714155e+001
 3.493132479441893e+000	 2.191471676259096e-001	 1.056636600773351e+001
 3.490999564173347e+000	 2.508426657390408e-001	 1.059510203289265e+001
 3.488570353274701e+000	 2.826249993720411e-001	 1.063447768869964e+001
 3.485842180148715e+000	 3.144905326354376e-001	 1.068237301901539e+001
 3.525000000000000e+000	 0.000000000000000e+000	 1.078871507014112e+001
 3.524861801883700e+000	 3.121342053454733e-002	 1.070268662062040e+001
 3.524445207153342e+000	 6.253784274303052e-002	 1.063901528738713e+001
 3.523747240503367e+000	 9.397012848486869e-002	 1.059632173295355e+001
 3.522764961910145e+000	 1.255070641153455e-001	 1.057304895710813e+001
 3.521495468638728e+000	 1.571453606197247e-001	 1.056746564332497e+001
 3.519935897266799e+000	 1.888816538031206e-001	 1.057767007925954e+001
 3.518083425724269e+000	 2.207125045373338e-001	 1.060159466121594e+001
 3.515935275346863e+000	 2.526343990658297e-001	 1.063701099114796e+001
 3.513488712942027e+000	 2.846437493679848e-001	 1.068153557335059e+001
 3.510741052865397e+000	 3.167368935836880e-001	 1.073263611651069e+001
 3.549999999999999e+000	 0.000000000000000e+000	 1.077431460606701e+001
 3.549860821755223e+000	 3.143479231114475e-002	 1.069246997434842e+001
 3.549441272452333e+000	 6.298137354221063e-002	 1.063417146302296e+001
 3.548738355684315e+000	 9.463658329630142e-002	 1.059769029596942e+001
 3.547749110576305e+000	 1.263971851368950e-001	 1.058110995332751e+001
 3.546470613806581e+000	 1.582598667229104e-001	 1.058232975454583e+001
 3.544899981644873e+000	 1.902212399999243e-001	 1.059906903939430e+001
 3.543034372006405e+000	 2.222778414487581e-001	 1.062887195711878e+001
 3.540870986520065e+000	 2.544261323926187e-001	 1.066911287254821e+001
 3.538407072608955e+000	 2.866624993639286e-001	 1.071700239650625e+001
 3.535639925581588e+000	 3.189832545319382e-001	 1.076959404634166e+001
 3.574999999999999e+000	 0.000000000000000e+000	 1.076601691951645e+001
 3.574859841626743e+000	 3.165616408774217e-002	 1.068617204062115e+001
 3.574437337751306e+000	 6.342490434139073e-002	 1.063114471108827e+001
 3.573729470865220e+000	 9.530303810773416e-002	 1.059885552749372e+001
 3.572733259242388e+000	 1.272873061584445e-001	 1.058702714735593e+001
 3.571445758974317e+000	 1.593743728260961e-001	 1.059318810952100e+001
 3.569864066022773e+000	 1.915608261967280e-001	 1.061467727662807e+001
 3.567985318288304e+000	 2.238431783601823e-001	 1.064864891013207e+001
 3.565806697692955e+000	 2.562178657194076e-001	 1.069207838694421e+001
 3.563325432275486e+000	 2.886812493598724e-001	 1.074176856524483e+001
 3.560538798297286e+000	 3.212296154801885e-001	 1.079435680542900e+001
 3.600000000000000e+000	 0.000000000000000e+000	 1.076277392862957e+001
 3.599858861498257e+000	 3.187753586433959e-002	 1.068295782063162e+001
 3.599433403050260e+000	 6.386843514057089e-002	 1.062931382983721e+001
 3.598720586046081e+000	 9.596949291916691e-002	 1.059941064375151e+001
 3.597717407908394e+000	 1.281774271799941e-001	 1.059060869894621e+001
 3.596420904141930e+000	 1.604888789292818e-001	 1.060006423952129e+001
 3.594828150400499e+000	 1.929004123935317e-001	 1.062473402200484e+001
 3.592936264569962e+000	 2.254085152716066e-001	 1.066138067747274e+001
 3.590742408865532e+000	 2.580095990461965e-001	 1.070657874020398e+001
 3.588243791941620e+000	 2.906999993558161e-001	 1.075672135063184e+001
 3.585437671012494e+000	 3.234759764284390e-001	 1.080802763870271e+001
 3.625000000000000e+000	 0.000000000000000e+000	 1.076356646414955e+001
 3.624857881369765e+000	 3.209890764093702e-002	 1.068201765059064e+001
 3.624429468349195e+000	 6.431196593975101e-002	 1.062807937880625e+001
 3.623711701226900e+000	 9.663594773059965e-002	 1.059896705375390e+001
 3.622701556574323e+000	 1.290675482015436e-001	 1.059167739878995e+001
 3.621396049309424e+000	 1.616033850324674e-001	 1.060299275298755e+001
 3.619792234778049e+000	 1.942399985903353e-001	 1.062948603949700e+001
 3.617887210851384e+000	 2.269738521830308e-001	 1.066752641603893e+001
 3.615678120037797e+000	 2.598013323729855e-001	 1.071328561710853e+001
 3.613162151607358e+000	 2.927187493517598e-001	 1.076274499585849e+001
 3.610336543727210e+000	 3.257223373766893e-001	 1.081170327192940e+001
 3.650000000000000e+000	 0.000000000000000e+000	 1.076740327926487e+001
 3.649856901241271e+000	 3.232027941753444e-002	 1.068256633408903e+001
 3.649425533648110e+000	 6.475549673893113e-002	 1.062686293356497e+001
 3.648702816407675e+000	 9.730240254203239e-002	 1.059715373625767e+001
 3.647685705240175e+000	 1.299576692230932e-001	 1.059007016745797e+001
 3.646371194476795e+000	 1.627178911356531e-001	 1.060201895617557e+001
 3.644756319155425e+000	 1.955795847871390e-001	 1.062918736802830e+001
 3.642838157132565e+000	 2.285391890944550e-001	 1.066754914543470e+001
 3.640613831209749e+000	 2.615930656997744e-001	 1.071287116495091e+001
 3.638080511272699e+000	 2.947374993477036e-001	 1.076072081993593e+001
 3.635235416441434e+000	 3.279686983249396e-001	 1.080647413497121e+001
 3.675000000000000e+000	 0.000000000000000e+000	 1.077332009986631e+001
 3.674855921112770e+000	 3.254165119413186e-002	 1.068384230987394e+001
 3.674421598947007e+000	 6.519902753811127e-002	 1.062510637088455e+001
 3.673693931588407e+000	 9.796885735346513e-002	 1.059361664215453e+001
 3.672669853905949e+000	 1.308477902446427e-001	 1.058563757479240e+001
 3.671346339644046e+000	 1.638323972388388e-001	 1.059719848928464e+001
 3.669720403532627e+000	 1.969191709839428e-001	 1.062409907402672e+001
 3.667789103413511e+000	 2.301045260058793e-001	 1.066191561658522e+001
 3.665549542381389e+000	 2.633847990265633e-001	 1.070600797780434e+001
 3.662998870937642e+000	 2.967562493436474e-001	 1.075152731715721e+001
 3.660134289155166e+000	 3.302150592731899e-001	 1.079342457593242e+001
 3.699999999999999e+000	 0.000000000000000e+000	 1.078037871330712e+001
 3.699854940984265e+000	 3.276302297072929e-002	 1.068510685336388e+001
 3.699417664245885e+000	 6.564255833729141e-002	 1.062227118288685e+001
 3.698685046769097e+000	 9.863531216489786e-002	 1.058801812108837e+001
 3.697654002571647e+000	 1.317379112661923e-001	 1.057824337878222e+001
 3.696321484811177e+000	 1.649469033420245e-001	 1.058859697733814e+001
 3.694684487909653e+000	 1.982587571807465e-001	 1.061448901400869e+001
 3.692740049694216e+000	 2.316698629173035e-001	 1.065109618567898e+001
 3.690485253552716e+000	 2.651765323533523e-001	 1.069336908142838e+001
 3.687917230602189e+000	 2.987749993395912e-001	 1.073604025252696e+001
 3.685033161868407e+000	 3.324614202214402e-001	 1.077363306662399e+001
 3.724999999999999e+000	 0.000000000000000e+000	 1.078766609385712e+001
 3.724853960855755e+000	 3.298439474732670e-002	 1.068564331031734e+001
 3.724413729544743e+000	 6.608608913647153e-002	 1.061783781881087e+001
 3.723676161949742e+000	 9.930176697633060e-002	 1.058003637116167e+001
 3.722638151237268e+000	 1.326280322877418e-001	 1.056776408300848e+001
 3.721296629978185e+000	 1.660614094452101e-001	 1.057628969512205e+001
 3.719648572286506e+000	 1.995983433775501e-001	 1.060063160672367e+001
 3.717690995974683e+000	 2.332351998287278e-001	 1.063556469318546e+001
 3.715420964723730e+000	 2.669682656801413e-001	 1.067562791878279e+001
 3.712835590266338e+000	 3.007937493355349e-001	 1.071513275334823e+001
 3.709932034581156e+000	 3.347077811696906e-001	 1.074817239975475e+001
 3.750000000000000e+000	 0.000000000000000e+000	 1.079429356313890e+001
 3.749852980727241e+000	 3.320576652392414e-002	 1.068475636115478e+001
 3.749409794843583e+000	 6.652961993565168e-002	 1.061130505310896e+001
 3.748667277130346e+000	 9.996822178776336e-002	 1.056936491065340e+001
 3.747622299902811e+000	 1.335181533092914e-001	 1.055408851179091e+001
 3.746271775145075e+000	 1.671759155483958e-001	 1.056036124552643e+001
 3.744612656663185e+000	 2.009379295743539e-001	 1.058280761441324e+001
 3.742641942254912e+000	 2.348005367401521e-001	 1.061579834771260e+001
 3.740356675894433e+000	 2.687599990069302e-001	 1.065345833612082e+001
 3.737753949930092e+000	 3.028124993314787e-001	 1.068967539714581e+001
 3.734830907293414e+000	 3.369541421179410e-001	 1.071810987823480e+001
 3.485842180148715e+000	 3.144905326354376e-001	 1.068237301901539e+001
 3.482812427479281e+000	 3.464355568067562e-001	 1.074869158414671e+001
 3.479478529308901e+000	 3.784562908747209e-001	 1.080419740392328e+001
 3.475837973121044e+000	 4.105488821462860e-001	 1.084563611866867e+001
 3.471888301924910e+000	 4.427094069178869e-001	 1.086964081490739e+001
 3.467627116341299e+000	 4.749338712109144e-001	 1.087274159614744e+001
 3.463052076687238e+000	 5.072182115723981e-001	 1.085137575137545e+001
 3.458160905057221e+000	 5.395582959415582e-001	 1.080189851411866e+001
 3.452951387398861e+000	 5.719499245828053e-001	 1.072059440290722e+001
 3.447421375580704e+000	 6.043888310856977e-001	 1.060368913190114e+001
 3.441568789449906e+000	 6.368706834322875e-001	 1.115522102445854e+001
 3.510741052865397e+000	 3.167368935836880e-001	 1.073263611651069e+001
 3.507689659105719e+000	 3.489100964994941e-001	 1.078460188895281e+001
 3.504331947377194e+000	 3.811595500968071e-001	 1.082408008827565e+001
 3.500665387216742e+000	 4.134813741633439e-001	 1.084750461771744e+001
 3.496687504083628e+000	 4.458716169690846e-001	 1.085119169871078e+001
 3.492395881460230e+000	 4.783262560070001e-001	 1.083134983286782e+001
 3.487788162951552e+000	 5.108411987994553e-001	 1.078409038208707e+001
 3.482862054381337e+000	 5.434122837709491e-001	 1.070543875938861e+001
 3.477615325882536e+000	 5.760352811877795e-001	 1.059134622100160e+001
 3.472045813979897e+000	 6.087058941651440e-001	 1.043770224809720e+001
 3.466151423662342e+000	 6.414197597421076e-001	 1.120085457025648e+001
 3.535639925581588e+000	 3.189832545319382e-001	 1.076959404634166e+001
 3.532566890731576e+000	 3.513846361922370e-001	 1.080870697185808e+001
 3.529185365444834e+000	 3.838628093189126e-001	 1.083371776080938e+001
 3.525492801311734e+000	 4.164138661804452e-001	 1.084074511662134e+001
 3.521486706241609e+000	 4.490338270203597e-001	 1.082578482257882e+001
 3.517164646578412e+000	 4.817186408032074e-001	 1.078472009893346e+001
 3.512524249215127e+000	 5.144641860266879e-001	 1.071333259883726e+001
 3.507563203704741e+000	 5.472662716005793e-001	 1.060731403545912e+001
 3.502279264365546e+000	 5.801206377930674e-001	 1.046227843049736e+001
 3.496670252378495e+000	 6.130229572449882e-001	 1.027377497210735e+001
 3.490734057874272e+000	 6.459688360524207e-001	 1.123605802989347e+001
 3.560538798297286e+000	 3.212296154801885e-001	 1.079435680542900e+001
 3.557444122356851e+000	 3.538591758849846e-001	 1.082227019812092e+001
 3.554038783511820e+000	 3.865660685410373e-001	 1.083452694063251e+001
 3.550320215406021e+000	 4.193463581975898e-001	 1.082692698633967e+001
 3.546285908398853e+000	 4.521960370717121e-001	 1.079514201847448e+001
 3.541933411695844e+000	 4.851110255995358e-001	 1.073472620634367e+001
 3.537260335477958e+000	 5.180871732540956e-001	 1.064112762137511e+001
 3.532264353027430e+000	 5.511202594304486e-001	 1.050970030509899e+001
 3.526943202847890e+000	 5.842059943986687e-001	 1.033571697896349e+001
 3.521294690776494e+000	 6.173400203252302e-001	 1.011438238362793e+001
 3.515316692085695e+000	 6.505179123632263e-001	 1.126079738284846e+001
 3.585437671012494e+000	 3.234759764284390e-001	 1.080802763870271e+001
 3.582321353981543e+000	 3.563337155777368e-001	 1.082654641608071e+001
 3.578892201578153e+000	 3.892693277631812e-001	 1.082791388098553e+001
 3.575147629499604e+000	 4.222788502147779e-001	 1.080760759984974e+001
 3.571085110555359e+000	 4.553582471231420e-001	 1.076097140595625e+001
 3.566702176812527e+000	 4.885034103959857e-001	 1.068322655882313e+001
 3.561996421740048e+000	 5.217101604816786e-001	 1.056948358472017e+001
 3.556965502349404e+000	 5.549742472605573e-001	 1.041475479017202e+001
 3.551607141329567e+000	 5.882913510045832e-001	 1.021396743803322e+001
 3.545919129173896e+000	 6.216570834058701e-001	 9.961977573398670e+000
 3.539899326296611e+000	 6.550669886745246e-001	 1.127501502949750e+001
 3.610336543727210e+000	 3.257223373766893e-001	 1.081170327192940e+001
 3.607198585605653e+000	 3.588082552704940e-001	 1.082278225084460e+001
 3.603745619643832e+000	 3.919725869853444e-001	 1.081527492323678e+001
 3.599975043592481e+000	 4.252113422320094e-001	 1.078433274587036e+001
 3.595884312711128e+000	 4.585204571746492e-001	 1.072496786501953e+001
 3.591470941928460e+000	 4.918957951925567e-001	 1.063206468314158e+001
 3.586732508001396e+000	 5.253331477094367e-001	 1.050039212829085e+001
 3.581666651670666e+000	 5.588282350909053e-001	 1.032461661787500e+001
 3.576271079810581e+000	 5.923767076108114e-001	 1.009931570602246e+001
 3.570543567570702e+000	 6.259741464869079e-001	 9.869417177877763e+000
 3.564481960507018e+000	 6.596160649863155e-001	 1.127863060418629e+001
 3.635235416441434e+000	 3.279686983249396e-001	 1.080647413497121e+001
 3.632075817229181e+000	 3.612827949632560e-001	 1.081221638590516e+001
 3.628599037708858e+000	 3.946758462075267e-001	 1.079799683633014e+001
 3.624802457684653e+000	 4.281438342492843e-001	 1.075863702558302e+001
 3.620683514866161e+000	 4.616826672262339e-001	 1.068881348950634e+001
 3.616239707043643e+000	 4.952881799892492e-001	 1.058306973859863e+001
 3.611468594262003e+000	 5.289561349373702e-001	 1.043582896082249e+001
 3.606367800991213e+000	 5.626822229214923e-001	 1.024140744041824e+001
 3.600935018290927e+000	 5.964620642173529e-001	 9.994028681673516e+000
 3.595168005966912e+000	 6.302912095683437e-001	 9.950453453004801e+000
 3.589064594716919e+000	 6.641651412985992e-001	 1.127154175488883e+001
 3.660134289155166e+000	 3.302150592731899e-001	 1.079342457593242e+001
 3.656953048852127e+000	 3.637573346560227e-001	 1.079607983326331e+001
 3.653452455773231e+000	 3.973791054297284e-001	 1.077745714237772e+001
 3.649629871776120e+000	 4.310763262666025e-001	 1.073204423316038e+001
 3.645482717020455e+000	 4.648448772778959e-001	 1.065417802200855e+001
 3.641008472158077e+000	 4.986805647860629e-001	 1.053805700571323e+001
 3.636204680521868e+000	 5.325791221654790e-001	 1.037775440222714e+001
 3.631068950311046e+000	 5.665362107523188e-001	 1.016723202941264e+001
 3.625598956770607e+000	 6.005474208242078e-001	 9.900354910399100e+000
 3.619792444362524e+000	 6.346082726501773e-001	 1.002544210818424e+001
 3.613647228926312e+000	 6.687142176113755e-001	 1.125362489104300e+001
 3.685033161868407e+000	 3.324614202214402e-001	 1.077363306662399e+001
 3.681830280474491e+000	 3.662318743487942e-001	 1.077559619260026e+001
 3.678305873836951e+000	 4.000823646519492e-001	 1.075502442905274e+001
 3.674457285866882e+000	 4.340088182839642e-001	 1.070606772086788e+001
 3.670281919174012e+000	 4.680070873296354e-001	 1.062271927113980e+001
 3.665777237271761e+000	 5.020729495829980e-001	 1.049882835510130e+001
 3.660940766780990e+000	 5.362021093937627e-001	 1.032811390348632e+001
 3.655770099630165e+000	 5.703901985833844e-001	 1.010417884616045e+001
 3.650262895249622e+000	 6.046327774313762e-001	 9.820525204327296e+000
 3.644416882757539e+000	 6.389253357324086e-001	 1.009422997696661e+001
 3.638229863135198e+000	 6.732632939246445e-001	 1.122473590106871e+001
 3.709932034581156e+000	 3.347077811696906e-001	 1.074817239975475e+001
 3.706707512096273e+000	 3.687064140415705e-001	 1.075198190001312e+001
 3.703159291900017e+000	 4.027856238741893e-001	 1.073205864940299e+001
 3.699284699956938e+000	 4.369413103013691e-001	 1.068221074946334e+001
 3.695081121326833e+000	 4.711692973814522e-001	 1.059608351200456e+001
 3.690546002384696e+000	 5.054653343800544e-001	 1.046717269747263e+001
 3.685676853039371e+000	 5.398250966222219e-001	 1.028883854560836e+001
 3.680471248948569e+000	 5.742441864146891e-001	 1.005432058898086e+001
 3.674926833727972e+000	 6.087181340388581e-001	 9.756753237378053e+000
 3.669041321151958e+000	 6.432423988150380e-001	 1.015664539798179e+001
 3.662812497343578e+000	 6.778123702384060e-001	 1.118471084099280e+001
 3.734830907293414e+000	 3.369541421179410e-001	 1.071810987823480e+001
 3.731584743717474e+000	 3.711809537343518e-001	 1.072644646680098e+001
 3.728012709962431e+000	 4.054888830964487e-001	 1.070991140967163e+001
 3.724112114046291e+000	 4.398738023188177e-001	 1.066196682458055e+001
 3.719880323478916e+000	 4.743315074333465e-001	 1.057590587064840e+001
 3.715314767496883e+000	 5.088577191772322e-001	 1.044486641562752e+001
 3.710412939297010e+000	 5.434480838508564e-001	 1.026184551862758e+001
 3.705172398266262e+000	 5.780981742462336e-001	 1.001971471864287e+001
 3.699590772205656e+000	 6.128034906466535e-001	 9.711236116536938e+000
 3.693665759545779e+000	 6.475594618980652e-001	 1.021249883143619e+001
 3.687395131551449e+000	 6.823614465526605e-001	 1.113336659552842e+001
 3.441568789449906e+000	 6.368706834322875e-001	 1.115522102445854e+001
 3.435391618878011e+000	 6.693910851321568e-001	 1.112076289388914e+001
 3.428887925790747e+000	 7.019455764256674e-001	 1.108220729446117e+001
 3.422055846180587e+000	 7.345296355551677e-001	 1.103920814530146e+001
 3.414893592100732e+000	 7.671386801043790e-001	 1.099130842724562e+001
 3.407399453636346e+000	 7.997680684061285e-001	 1.093793347074655e+001
 3.399571800851111e+000	 8.324131010182234e-001	 1.087838429520782e+001
 3.391409085706569e+000	 8.650690222672625e-001	 1.081183102065772e+001
 3.382909843951724e+000	 8.977310218600828e-001	 1.073730637321451e+001
 3.374072696980329e+000	 9.303942365624409e-001	 1.065369930627137e+001
 3.364896353653301e+000	 9.630537519444204e-001	 1.055974875974971e+001
 3.466151423662342e+000	 6.414197597421076e-001	 1.120085457025648e+001
 3.459930130443355e+000	 6.741724500248499e-001	 1.115824654830571e+001
 3.453379982405272e+000	 7.069594733984075e-001	 1.111226771600578e+001
 3.446499102226226e+000	 7.397762758068601e-001	 1.106274897704724e+001
 3.439285689188370e+000	 7.726182421023854e-001	 1.100940966899979e+001
 3.431738021163191e+000	 8.054806974630454e-001	 1.095185055047210e+001
 3.423854456571968e+000	 8.383589088792042e-001	 1.088954683554712e+001
 3.415633436318824e+000	 8.712480867083656e-001	 1.082184129699234e+001
 3.407073485693827e+000	 9.041433862981300e-001	 1.074793746030380e+001
 3.398173216243544e+000	 9.370399096768673e-001	 1.066689291114544e+001
 3.388931327606469e+000	 9.699327073115912e-001	 1.057761273918638e+001
 3.490734057874272e+000	 6.459688360524207e-001	 1.123605802989347e+001
 3.484468642008293e+000	 6.789538149181262e-001	 1.118606826598673e+001
 3.477872039019489e+000	 7.119733703718012e-001	 1.113348885063315e+001
 3.470942358271659e+000	 7.450229160592580e-001	 1.107832905250908e+001
 3.463677786275902e+000	 7.780978041011289e-001	 1.102048588943543e+001
 3.456076588690030e+000	 8.111933265207119e-001	 1.095973681079286e+001
 3.448137112292918e+000	 8.443047167409267e-001	 1.089573242306686e+001
 3.439857786931271e+000	 8.774271511501820e-001	 1.082798928061582e+001
 3.431237127436225e+000	 9.105557507368419e-001	 1.075588276433849e+001
 3.422273735507154e+000	 9.436855827918899e-001	 1.067864007144436e+001
 3.412966301560131e+000	 9.768116626792683e-001	 1.059533333999518e+001
 3.515316692085695e+000	 6.505179123632263e-001	 1.126079738284846e+001
 3.509007153572822e+000	 6.837351798119854e-001	 1.120409417685047e+001
 3.502364095633400e+000	 7.169872673458494e-001	 1.114563739985539e+001
 3.495385614316884e+000	 7.502695563123617e-001	 1.108561612014312e+001
 3.488069883363327e+000	 7.835773661006105e-001	 1.102410641364167e+001
 3.480415156216862e+000	 8.169059555791279e-001	 1.096106373754459e+001
 3.472419768013961e+000	 8.502505246033906e-001	 1.089631534291714e+001
 3.464082137543915e+000	 8.836062155927117e-001	 1.082955274898510e+001
 3.455400769178915e+000	 9.169681151762189e-001	 1.076032430241079e+001
 3.446374254771156e+000	 9.503312559075078e-001	 1.068802784541179e+001
 3.437001275514286e+000	 9.836906180474516e-001	 1.061190351706533e+001
 3.539899326296611e+000	 6.550669886745246e-001	 1.127501502949750e+001
 3.533545665136944e+000	 6.885165447064279e-001	 1.121216848885206e+001
 3.526856152247003e+000	 7.220011643205517e-001	 1.114845980545086e+001
 3.519828870361901e+000	 7.555161965661709e-001	 1.108425933533884e+001
 3.512461980450645e+000	 7.890569281008292e-001	 1.101982364408138e+001
 3.504753723743688e+000	 8.226185846382935e-001	 1.095528756747636e+001
 3.496702423735099e+000	 8.561963324665961e-001	 1.089065630711469e+001
 3.488306488156749e+000	 8.897852800359548e-001	 1.082579758409528e+001
 3.479564410921900e+000	 9.233804796162607e-001	 1.076043387483598e+001
 3.470474774035552e+000	 9.569769290237220e-001	 1.069413475349785e+001
 3.461036249468935e+000	 9.905695734161415e-001	 1.062630936605107e+001
 3.564481960507018e+000	 6.596160649863155e-001	 1.127863060418629e+001
 3.558084176700659e+000	 6.932979096014533e-001	 1.121011424391313e+001
 3.551348208860298e+000	 7.270150612959079e-001	 1.114168294807584e+001
 3.544272126406713e+000	 7.607628368206859e-001	 1.107388990155906e+001
 3.536854077537856e+000	 7.945364901017854e-001	 1.100717364413008e+001
 3.529092291270506e+000	 8.283312136982085e-001	 1.094184981408119e+001
 3.520985079456329e+000	 8.621421403305435e-001	 1.087810292258197e+001
 3.512530838769779e+000	 8.959643444799115e-001	 1.081597818266811e+001
 3.503728052665179e+000	 9.297928440569673e-001	 1.075537341745497e+001
 3.494575293300343e+000	 9.636226021405324e-001	 1.069603107276576e+001
 3.485071223424078e+000	 9.974485287853374e-001	 1.063753035989721e+001
 3.589064594716919e+000	 6.641651412985992e-001	 1.127154175488883e+001
 3.582622688263967e+000	 6.980792744970616e-001	 1.119773404278609e+001
 3.575840265473288e+000	 7.320289582719184e-001	 1.112501481716573e+001
 3.568715382451316e+000	 7.660094770759063e-001	 1.105412168513209e+001
 3.561246174624959e+000	 8.000160521034790e-001	 1.098567669763368e+001
 3.553430858797317e+000	 8.340438427588731e-001	 1.092017777181706e+001
 3.545267735177652e+000	 8.680879481952318e-001	 1.085799013995175e+001
 3.536755189383001e+000	 9.021434089245812e-001	 1.079933784948315e+001
 3.527891694408750e+000	 9.362052084983389e-001	 1.074429533945886e+001
 3.518675812565527e+000	 9.702682752579382e-001	 1.069277911919961e+001
 3.509106197379714e+000	 1.004327484155040e+000	 1.064453957564412e+001
 3.613647228926312e+000	 6.687142176113755e-001	 1.125362489104300e+001
 3.607161199826867e+000	 7.028606393932529e-001	 1.117481074033187e+001
 3.600332322085968e+000	 7.370428552485825e-001	 1.109814515349377e+001
 3.593158638495712e+000	 7.712561173318322e-001	 1.102455180495009e+001
 3.585638271711956e+000	 8.054956141059104e-001	 1.095483784562715e+001
 3.577769426324122e+000	 8.397564718202876e-001	 1.088968499974763e+001
 3.569550390899070e+000	 8.740337560606620e-001	 1.082964068405313e+001
 3.560979539996417e+000	 9.083224733699646e-001	 1.077510917465482e+001
 3.552055336152617e+000	 9.426175729403754e-001	 1.072634284742452e+001
 3.542776331831104e+000	 9.769139483759401e-001	 1.068343351848938e+001
 3.533141171335844e+000	 1.011206439525248e+000	 1.064630391197554e+001
 3.638229863135198e+000	 6.732632939246445e-001	 1.122473590106871e+001
 3.631699711389360e+000	 7.076420042900274e-001	 1.114110811261087e+001
 3.624824378698343e+000	 7.420567522259013e-001	 1.106074606567979e+001
 3.617601894539901e+000	 7.765027575884640e-001	 1.098476119826087e+001
 3.610030368798846e+000	 8.109751761090793e-001	 1.091414740129435e+001
 3.602107993850920e+000	 8.454691008824511e-001	 1.084977178557577e+001
 3.593833046620580e+000	 8.799795639268339e-001	 1.079236546694544e+001
 3.585203890610026e+000	 9.145015378160613e-001	 1.074251439561419e+001
 3.576218977896775e+000	 9.490299373830767e-001	 1.070065025621381e+001
 3.566876851097076e+000	 9.835596214945378e-001	 1.066704146583818e+001
 3.557176145292468e+000	 1.018085394895963e+000	 1.064178429794689e+001
 3.662812497343578e+000	 6.778123702384060e-001	 1.118471084099280e+001
 3.656238222951446e+000	 7.124233691873849e-001	 1.109637149711120e+001
 3.649316435310409e+000	 7.470706492038739e-001	 1.101247262187317e+001
 3.642045150583884e+000	 7.817493978458017e-001	 1.093431516367602e+001
 3.634422465885629e+000	 8.164547381129856e-001	 1.086308144419125e+001
 3.626446561377711e+000	 8.511817299453643e-001	 1.079982559099124e+001
 3.618115702342184e+000	 8.859253717937471e-001	 1.074546398431999e+001
 3.609428241223830e+000	 9.206806022628714e-001	 1.070076574451463e+001
 3.600382619641227e+000	 9.554423018264429e-001	 1.066634328735325e+001
 3.590977370363441e+000	 9.902052946137316e-001	 1.064264297530737e+001
 3.581211119249587e+000	 1.024964350267184e+000	 1.062993589330827e+001
 3.687395131551449e+000	 6.823614465526605e-001	 1.113336659552842e+001
 3.680776734513125e+000	 7.172047340853256e-001	 1.104032840736764e+001
 3.673808491922170e+000	 7.520845461825008e-001	 1.095296341776864e+001
 3.666488406627660e+000	 7.869960381038449e-001	 1.087276388245889e+001
 3.658814562972306e+000	 8.219343001176298e-001	 1.080110229470013e+001
 3.650785128904496e+000	 8.568943590090273e-001	 1.073922147920444e+001
 3.642398358063882e+000	 8.918711796614021e-001	 1.068822469604550e+001
 3.633652591837826e+000	 9.268596667103950e-001	 1.064906578174092e+001
 3.624546261385975e+000	 9.618546662704742e-001	 1.062253935547855e+001
 3.615077889630201e+000	 9.968509677335213e-001	 1.060927111918807e+001
 3.605246093207198e+000	 1.031843305638912e+000	 1.060970828081468e+001
 3.364896353653301e+000	 9.630537519444204e-001	 1.055974875974971e+001
 3.355379612083005e+000	 9.957046041917383e-001	 1.071921703259175e+001
 3.345521361378934e+000	 1.028341781982668e+000	 1.085820870691820e+001
 3.335320583350721e+000	 1.060960228429860e+000	 1.097414921379861e+001
 3.324776354164621e+000	 1.093554843085373e+000	 1.106428568530448e+001
 3.313887845952988e+000	 1.126120484008404e+000	 1.112568249218852e+001
 3.302654328373525e+000	 1.158651969894472e+000	 1.115521707761359e+001
 3.291075170115785e+000	 1.191144082264780e+000	 1.114957610940067e+001
 3.279149840352444e+000	 1.223591567714391e+000	 1.110525197302775e+001
 3.266877910132902e+000	 1.255989140217728e+000	 1.103566161778456e+001
 3.254259053716807e+000	 1.288331483489811e+000	 1.101406545909014e+001
 3.388931327606469e+000	 9.699327073115912e-001	 1.057761273918638e+001
 3.379346609310144e+000	 1.002816779932178e+000	 1.072509270815573e+001
 3.369417942529220e+000	 1.035687080421720e+000	 1.085435169630826e+001
 3.359144301800547e+000	 1.068538515772246e+000	 1.096293758443633e+001
 3.348524756691562e+000	 1.101365949104042e+000	 1.104821586899067e+001
 3.337558473421284e+000	 1.134164201748157e+000	 1.110736491765279e+001
 3.326244716430685e+000	 1.166928055390793e+000	 1.113737152457876e+001
 3.314582849899959e+000	 1.199652254278306e+000	 1.113502678851861e+001
 3.302572339210160e+000	 1.232331507481435e+000	 1.109692233678256e+001
 3.290212752346754e+000	 1.264960491217280e+000	 1.104784727833696e+001
 3.277503761242674e+000	 1.297533851227396e+000	 1.101049419293407e+001
 3.412966301560131e+000	 9.768116626792683e-001	 1.059533333999518e+001
 3.403313606537867e+000	 1.009928955673029e+000	 1.073143871079461e+001
 3.393314523680163e+000	 1.043032378861098e+000	 1.085164374732319e+001
 3.382968020251078e+000	 1.076116803114882e+000	 1.095361974235740e+001
 3.372273159219241e+000	 1.109177055122894e+000	 1.103485142713610e+001
 3.361229100890329e+000	 1.142207919488038e+000	 1.109263194108428e+001
 3.349835104488588e+000	 1.175204140887197e+000	 1.112405810492776e+001
 3.338090529684847e+000	 1.208160426291878e+000	 1.112602602114775e+001
 3.325994838068540e+000	 1.241071447248501e+000	 1.109522702549764e+001
 3.313547594561200e+000	 1.273931842216838e+000	 1.105248432825422e+001
 3.300748468769045e+000	 1.306736218964982e+000	 1.100193369567407e+001
 3.437001275514286e+000	 9.836906180474516e-001	 1.061190351706533e+001
 3.427280603766174e+000	 1.017041131414290e+000	 1.073717061736738e+001
 3.417211104831760e+000	 1.050377677300802e+000	 1.084892402637604e+001
 3.406791738702316e+000	 1.083695090457767e+000	 1.094495945720613e+001
 3.396021561747658e+000	 1.116988161141931e+000	 1.102288179185118e+001
 3.384899728360125e+000	 1.150251637228048e+000	 1.108009976125886e+001
 3.373425492547229e+000	 1.183480226383683e+000	 1.111382093261405e+001
 3.361598209470447e+000	 1.216668598305496e+000	 1.112104702853486e+001
 3.349417336927582e+000	 1.249811387015586e+000	 1.109856960266510e+001
 3.336882436776240e+000	 1.282903193216400e+000	 1.105003934598466e+001
 3.323993176295922e+000	 1.315938586702568e+000	 1.098882032399843e+001
 3.461036249468935e+000	 9.905695734161415e-001	 1.062630936605107e+001
 3.451247600995065e+000	 1.024153307155963e+000	 1.074119838356370e+001
 3.441107685984012e+000	 1.057722975740830e+000	 1.084502731474072e+001
 3.430615457154259e+000	 1.091273377800902e+000	 1.093571734692671e+001
 3.419769964276813e+000	 1.124799267161153e+000	 1.101099447383368e+001
 3.408570355830670e+000	 1.158295354968185e+000	 1.106838388211064e+001
 3.397015880606614e+000	 1.191756311880251e+000	 1.110520464903497e+001
 3.385105889256760e+000	 1.225176770319161e+000	 1.111856477679840e+001
 3.372839835787290e+000	 1.258551326782692e+000	 1.109859582937189e+001
 3.360217278991877e+000	 1.291874544215968e+000	 1.104098307282754e+001
 3.347237883823303e+000	 1.325140954440153e+000	 1.097159579683948e+001
 3.485071223424078e+000	 9.974485287853374e-001	 1.063753035989721e+001
 3.475214598224541e+000	 1.031265482898046e+000	 1.074242653773736e+001
 3.465004267136918e+000	 1.065068274181185e+000	 1.083878415976372e+001
 3.454439175606909e+000	 1.098851665144287e+000	 1.092465098644262e+001
 3.443518366806704e+000	 1.132610373180557e+000	 1.099787512862436e+001
 3.432240983301964e+000	 1.166339072708451e+000	 1.105609913669202e+001
 3.420606268666739e+000	 1.200032397376902e+000	 1.109675440484379e+001
 3.408613569043786e+000	 1.233684942332872e+000	 1.111705591676045e+001
 3.396262334647661e+000	 1.267291266549819e+000	 1.108996363258263e+001
 3.383552121208107e+000	 1.300845895215541e+000	 1.102579026938645e+001
 3.370482591351189e+000	 1.334343322177739e+000	 1.095070701046872e+001
 3.509106197379714e+000	 1.004327484155040e+000	 1.064453957564412e+001
 3.499181595454600e+000	 1.038377658640541e+000	 1.073975436677382e+001
 3.488900848290481e+000	 1.072413572621866e+000	 1.082902101986159e+001
 3.478262894060265e+000	 1.106429952487922e+000	 1.091051501186962e+001
 3.467266769337335e+000	 1.140421479200146e+000	 1.098220762013972e+001
 3.455911610774009e+000	 1.174382790448845e+000	 1.104185971014908e+001
 3.444196656727606e+000	 1.208308482873634e+000	 1.108701584250957e+001
 3.432121248831523e+000	 1.242193114346629e+000	 1.111499872625145e+001
 3.419684833508697e+000	 1.276031206316967e+000	 1.107319934595575e+001
 3.406886963424933e+000	 1.309817246215119e+000	 1.100493957792197e+001
 3.393727298879581e+000	 1.343545689915324e+000	 1.092660586119058e+001
 3.533141171335844e+000	 1.011206439525248e+000	 1.064630391197554e+001
 3.523148592685243e+000	 1.045489834383448e+000	 1.073207609437158e+001
 3.512797429444697e+000	 1.079758871062871e+000	 1.081456040360017e+001
 3.502086612514328e+000	 1.114008239831808e+000	 1.089206122047525e+001
 3.491015171868703e+000	 1.148232585219919e+000	 1.096267408161159e+001
 3.479582238246801e+000	 1.182426508189367e+000	 1.102427916175919e+001
 3.467787044789213e+000	 1.216584568370449e+000	 1.107453507958869e+001
 3.455628928619976e+000	 1.250701286360433e+000	 1.110914526365042e+001
 3.443107332370397e+000	 1.284771146084134e+000	 1.104881094513170e+001
 3.430221805642353e+000	 1.318788597214702e+000	 1.097891339032243e+001
 3.416972006408479e+000	 1.352748057652910e+000	 1.089974907527338e+001
 3.557176145292468e+000	 1.018085394895963e+000	 1.064178429794689e+001
 3.547115589916470e+000	 1.052602010126765e+000	 1.071828105209576e+001
 3.536694010599569e+000	 1.087104169504203e+000	 1.079422100313556e+001
 3.525910330969095e+000	 1.121586527175942e+000	 1.086803866658574e+001
 3.514763574400809e+000	 1.156043691239876e+000	 1.093795497405616e+001
 3.503252865720343e+000	 1.190470225930017e+000	 1.100197044607526e+001
 3.491377432851563e+000	 1.224860653867346e+000	 1.105785869267461e+001
 3.479136608409139e+000	 1.259209458374282e+000	 1.107757531183552e+001
 3.466529831232760e+000	 1.293511085851323e+000	 1.101730897912780e+001
 3.453556647860368e+000	 1.327759948214290e+000	 1.094819772142736e+001
 3.440216713937880e+000	 1.361950425390495e+000	 1.087059804577478e+001
 3.581211119249587e+000	 1.024964350267184e+000	 1.062993589330827e+001
 3.571082587148281e+000	 1.059714185870493e+000	 1.069725384354357e+001
 3.560590591755095e+000	 1.094449467945860e+000	 1.076681782228148e+001
 3.549734049424571e+000	 1.129164814520327e+000	 1.083719375363112e+001
 3.538511976933652e+000	 1.163854797260017e+000	 1.090672914238869e+001
 3.526923493194636e+000	 1.198513943670795e+000	 1.097354593321844e+001
 3.514967820914652e+000	 1.233136739364325e+000	 1.103553370199387e+001
 3.502644288199015e+000	 1.267717630388179e+000	 1.103697712259412e+001
 3.489952330095787e+000	 1.302251025618533e+000	 1.097920648398334e+001
 3.476891490078978e+000	 1.336731299213884e+000	 1.091328208745194e+001
 3.463461421467788e+000	 1.371152793128081e+000	 1.083961867593816e+001
 3.605246093207198e+000	 1.031843305638912e+000	 1.060970828081468e+001
 3.595049584380677e+000	 1.066826361614633e+000	 1.066787450194331e+001
 3.584487172911277e+000	 1.101794766387843e+000	 1.073116229945405e+001
 3.573557767880753e+000	 1.136743101864962e+000	 1.079827032250841e+001
 3.562260379467235e+000	 1.171665903280343e+000	 1.086767386929343e+001
 3.550594120669679e+000	 1.206557661411701e+000	 1.093761742835921e+001
 3.538558208978485e+000	 1.241412824861386e+000	 1.100610755661839e+001
 3.526151967989605e+000	 1.276225802402121e+000	 1.098788857107914e+001
 3.513374828959480e+000	 1.310990965385763e+000	 1.093501889985880e+001
 3.500226332298183e+000	 1.345702650213483e+000	 1.087465938927448e+001
 3.486706128998200e+000	 1.380355160865667e+000	 1.080728122885314e+001
 3.254259053716807e+000	 1.288331483489811e+000	 1.101406545909014e+001
 3.241293049845800e+000	 1.320613253401518e+000	 1.099489230888496e+001
 3.227979782949084e+000	 1.352829080447324e+000	 1.098459621922121e+001
 3.214319244282112e+000	 1.384973572263021e+000	 1.098405937803840e+001
 3.200311532997376e+000	 1.417041316191711e+000	 1.099419940830958e+001
 3.185956857143146e+000	 1.449026881896090e+000	 1.101597064900441e+001
 3.171255534588795e+000	 1.480924824014684e+000	 1.105036536068266e+001
 3.156207993874709e+000	 1.512729684859719e+000	 1.109841484874325e+001
 3.140814774984898e+000	 1.544435997154201e+000	 1.116119049744135e+001
 3.125076530040452e+000	 1.576038286805698e+000	 1.123980470790259e+001
 3.108994023912139e+000	 1.607531075714235e+000	 1.131543346544058e+001
 3.277503761242674e+000	 1.297533851227396e+000	 1.101049419293407e+001
 3.264445143058997e+000	 1.330046205210258e+000	 1.099408656677515e+001
 3.251036781399276e+000	 1.362492145306674e+000	 1.098631705666399e+001
 3.237278667456502e+000	 1.394866240635550e+000	 1.098803683234762e+001
 3.223170901091398e+000	 1.427163039878151e+000	 1.100013359701895e+001
 3.208713691838290e+000	 1.459377073909050e+000	 1.102353295484672e+001
 3.193907359837047e+000	 1.491502858471334e+000	 1.105919970175224e+001
 3.178752336689058e+000	 1.523534896893744e+000	 1.110813903221189e+001
 3.163249166235359e+000	 1.555467682847305e+000	 1.117139765495121e+001
 3.147398505255051e+000	 1.587295703138930e+000	 1.125006481051413e+001
 3.131201124082256e+000	 1.619013440539351e+000	 1.134527318383810e+001
 3.300748468769045e+000	 1.306736218964982e+000	 1.100193369567407e+001
 3.287597236272605e+000	 1.339479157018998e+000	 1.098840318062492e+001
 3.274093779849794e+000	 1.372155210166024e+000	 1.098325423344243e+001
 3.260238090631141e+000	 1.404758909008078e+000	 1.098730639112247e+001
 3.246030269185602e+000	 1.437284763564591e+000	 1.100141684834254e+001
 3.231470526533562e+000	 1.469727265922011e+000	 1.102648191308266e+001
 3.216559185085382e+000	 1.502080892927984e+000	 1.106343838408088e+001
 3.201296679503453e+000	 1.534340108927768e+000	 1.111326484265140e+001
 3.185683557485841e+000	 1.566499368540411e+000	 1.117698285148086e+001
 3.169720480469652e+000	 1.598553119472159e+000	 1.125565805313648e+001
 3.153408224252373e+000	 1.630495805364467e+000	 1.135040116116897e+001
 3.323993176295922e+000	 1.315938586702568e+000	 1.098882032399843e+001
 3.310749329486621e+000	 1.348912108827738e+000	 1.097829895604962e+001
 3.297150778300636e+000	 1.381818275025375e+000	 1.097588466372775e+001
 3.283197513806030e+000	 1.414651577380607e+000	 1.098236472225423e+001
 3.268889637279991e+000	 1.447406487251032e+000	 1.099856521482096e+001
 3.254227361228962e+000	 1.480077457934971e+000	 1.102535257784662e+001
 3.239211010333798e+000	 1.512658927384634e+000	 1.106363506662605e+001
 3.223841022317894e+000	 1.545145320961793e+000	 1.111436413364599e+001
 3.208117948736344e+000	 1.577531054233515e+000	 1.117853571192825e+001
 3.192042455684259e+000	 1.609810535805390e+000	 1.125719139587980e+001
 3.175615324422491e+000	 1.641978170189583e+000	 1.135141951228085e+001
 3.347237883823303e+000	 1.325140954440153e+000	 1.097159579683948e+001
 3.333901422701049e+000	 1.358345060636478e+000	 1.096423584430115e+001
 3.320207776751802e+000	 1.391481339884725e+000	 1.096469019138703e+001
 3.306156936981168e+000	 1.424544245753136e+000	 1.097371320815808e+001
 3.291749005374561e+000	 1.457528210937472e+000	 1.099209924921799e+001
 3.276984195924488e+000	 1.490427649947932e+000	 1.102068429016939e+001
 3.261862835582296e+000	 1.523236961841284e+000	 1.106034748299182e+001
 3.246385365132381e+000	 1.555950532995818e+000	 1.111201262235700e+001
 3.230552339986867e+000	 1.588562739926620e+000	 1.117664951498264e+001
 3.214364430898872e+000	 1.621067952138621e+000	 1.125527524424678e+001
 3.197822424592608e+000	 1.653460535014698e+000	 1.134895532243711e+001
 3.370482591351189e+000	 1.334343322177739e+000	 1.095070701046872e+001
 3.357053515915887e+000	 1.367778012445218e+000	 1.094668076483213e+001
 3.343264775203294e+000	 1.401144404744075e+000	 1.095015741999364e+001
 3.329116360156554e+000	 1.434436914125664e+000	 1.096185778320327e+001
 3.314608373469317e+000	 1.467649934623912e+000	 1.098254384934051e+001
 3.299741030620142e+000	 1.500777841960892e+000	 1.101302053015410e+001
 3.284514660830876e+000	 1.533814996297935e+000	 1.105413730092387e+001
 3.268929707946914e+000	 1.566755745029842e+000	 1.110678975629619e+001
 3.252986731237411e+000	 1.599594425619725e+000	 1.117192106713191e+001
 3.236686406113489e+000	 1.632325368471851e+000	 1.125052333032610e+001
 3.220029524762726e+000	 1.664942899839814e+000	 1.134363880371367e+001
 3.393727298879581e+000	 1.343545689915324e+000	 1.092660586119058e+001
 3.380205609131133e+000	 1.377210964253957e+000	 1.092610543515211e+001
 3.366321773655109e+000	 1.410807469603425e+000	 1.093277754982359e+001
 3.352075783332190e+000	 1.444329582498193e+000	 1.094730877782438e+001
 3.337467741564254e+000	 1.477771658310352e+000	 1.097042810923554e+001
 3.322497865315922e+000	 1.511128033973852e+000	 1.100290877522725e+001
 3.307166486079536e+000	 1.544393030754585e+000	 1.104556998757856e+001
 3.291474050761494e+000	 1.577560957063867e+000	 1.109927858557389e+001
 3.275421122487976e+000	 1.610626111312830e+000	 1.116495058184741e+001
 3.259008381328112e+000	 1.643582784805082e+000	 1.124355259886831e+001
 3.242236624932843e+000	 1.676425264664929e+000	 1.133610318791623e+001
 3.416972006408479e+000	 1.352748057652910e+000	 1.089974907527338e+001
 3.403357702346791e+000	 1.386643916062697e+000	 1.090298620762839e+001
 3.389378772107251e+000	 1.420470534462775e+000	 1.091304622150515e+001
 3.375035206508074e+000	 1.454222250870722e+000	 1.093058076899520e+001
 3.360327109659375e+000	 1.487893381996793e+000	 1.095628517646115e+001
 3.345254700011832e+000	 1.521478225986813e+000	 1.099090036417527e+001
 3.329818311328278e+000	 1.554971065211234e+000	 1.103521468029130e+001
 3.314018393576120e+000	 1.588366169097891e+000	 1.109006564036172e+001
 3.297855513738560e+000	 1.621657797005935e+000	 1.115634156370024e+001
 3.281330356542740e+000	 1.654840201138312e+000	 1.123498309801152e+001
 3.264443725102960e+000	 1.687907629490045e+000	 1.132698462386853e+001
 3.440216713937880e+000	 1.361950425390495e+000	 1.087059804577478e+001
 3.426509795562858e+000	 1.396076867871437e+000	 1.087780391290287e+001
 3.412435770559715e+000	 1.430133599322125e+000	 1.089146336600688e+001
 3.397994629684208e+000	 1.464114919243250e+000	 1.091219243676460e+001
 3.383186477754680e+000	 1.498015105683233e+000	 1.094065211514333e+001
 3.368011534707869e+000	 1.531828417999774e+000	 1.097755036669318e+001
 3.352470136577104e+000	 1.565549099667885e+000	 1.102364406258401e+001
 3.336562736390792e+000	 1.599171381131916e+000	 1.107974081332294e+001
 3.320289904989166e+000	 1.632689482699040e+000	 1.114670069717545e+001
 3.303652331757374e+000	 1.666097617471543e+000	 1.122543787443731e+001
 3.286650825273078e+000	 1.699389994315161e+000	 1.131692207886436e+001
 3.463461421467788e+000	 1.371152793128081e+000	 1.083961867593816e+001
 3.449661888779335e+000	 1.405509819680177e+000	 1.085104370961454e+001
 3.435492769012504e+000	 1.439796664181475e+000	 1.086853306066661e+001
 3.420954052860590e+000	 1.474007587615779e+000	 1.089266642656945e+001
 3.406045845850167e+000	 1.508136829369673e+000	 1.092406977454772e+001
 3.390768369404032e+000	 1.542178610012734e+000	 1.096341745818632e+001
 3.375121961826010e+000	 1.576127134124535e+000	 1.101143424516558e+001
 3.359107079205510e+000	 1.609976593165940e+000	 1.106889724677713e+001
 3.342724296239791e+000	 1.643721168392145e+000	 1.113663773996347e+001
 3.325974306972011e+000	 1.677355033804773e+000	 1.121554287274835e+001
 3.308857925443196e+000	 1.710872359140276e+000	 1.130655724408798e+001
 3.486706128998200e+000	 1.380355160865667e+000	 1.080728122885314e+001
 3.472813981996224e+000	 1.414942771488917e+000	 1.082319494013277e+001
 3.458549767465619e+000	 1.449459729040826e+000	 1.084476339097898e+001
 3.443913476037222e+000	 1.483900255988308e+000	 1.087252921705501e+001
 3.428905213945839e+000	 1.518258553056113e+000	 1.090708266290816e+001
 3.413525204100325e+000	 1.552528802025695e+000	 1.094906379958006e+001
 3.397773787075000e+000	 1.586705168581185e+000	 1.099916465169229e+001
 3.381651422020273e+000	 1.620781805199965e+000	 1.105813122437836e+001
 3.365158687490438e+000	 1.654752854085250e+000	 1.112676542051998e+001
 3.348296282186655e+000	 1.688612450138004e+000	 1.120592683887118e+001
 3.331065025613314e+000	 1.722354723965393e+000	 1.129653444381790e+001
 3.108994023912139e+000	 1.607531075714235e+000	 1.131543346544058e+001
 3.092568134750085e+000	 1.638908884611238e+000	 1.123528429005097e+001
 3.075799854430276e+000	 1.670166235927714e+000	 1.117469302248492e+001
 3.058690288915435e+000	 1.701297656688459e+000	 1.113259081054261e+001
 3.041240658528325e+000	 1.732297681428427e+000	 1.110775185238769e+001
 3.023452298137441e+000	 1.763160855129283e+000	 1.109879222621562e+001
 3.005326657253558e+000	 1.793881736172811e+000	 1.110416910748428e+001
 2.986865300036170e+000	 1.824454899308038e+000	 1.112218038327937e+001
 2.968069905208957e+000	 1.854874938628938e+000	 1.115096467232024e+001
 2.948942265883543e+000	 1.885136470559467e+000	 1.119895164825449e+001
 2.929484289290938e+000	 1.915234136842687e+000	 1.127073030992125e+001
 3.131201124082256e+000	 1.619013440539351e+000	 1.134527318383810e+001
 3.114657907139728e+000	 1.650615376642425e+000	 1.126154957809139e+001
 3.097769853388399e+000	 1.682095994753727e+000	 1.118980210892446e+001
 3.080538076690724e+000	 1.713449782805372e+000	 1.113767167774321e+001
 3.062963806086062e+000	 1.744671236293278e+000	 1.110389148018948e+001
 3.045048385977678e+000	 1.775754861234694e+000	 1.108703205357170e+001
 3.026793276230001e+000	 1.806695177142703e+000	 1.108550048245095e+001
 3.008200052175089e+000	 1.837486720014539e+000	 1.109754001155015e+001
 2.989270404527509e+000	 1.868124045330562e+000	 1.112123007468386e+001
 2.970006139206822e+000	 1.898601731060612e+000	 1.118698876125059e+001
 2.950409177067122e+000	 1.928914380674490e+000	 1.126307766455075e+001
 3.153408224252373e+000	 1.630495805364467e+000	 1.135040116116897e+001
 3.136747679529372e+000	 1.662321868673618e+000	 1.127338693880466e+001
 3.119739852346521e+000	 1.694025753579760e+000	 1.120346741098032e+001
 3.102385864466013e+000	 1.725601908922329e+000	 1.113989734839800e+001
 3.084686953643797e+000	 1.757044791158208e+000	 1.109583990465692e+001
 3.066644473817915e+000	 1.788348867340229e+000	 1.106982072815850e+001
 3.048259895206442e+000	 1.819508618112772e+000	 1.106019736084401e+001
 3.029534804314007e+000	 1.850518540721283e+000	 1.106515884807723e+001
 3.010470903846060e+000	 1.881373152032502e+000	 1.109501802705085e+001
 2.991070012530103e+000	 1.912066991562159e+000	 1.117600386333382e+001
 2.971334064843307e+000	 1.942594624506790e+000	 1.125590484466074e+001
 3.175615324422491e+000	 1.641978170189583e+000	 1.135141951228085e+001
 3.158837451919014e+000	 1.674028360704815e+000	 1.126891056180250e+001
 3.141709851304642e+000	 1.705955512405812e+000	 1.119756926357885e+001
 3.124233652241302e+000	 1.737754035039331e+000	 1.113786475900865e+001
 3.106410101201532e+000	 1.769418346023218e+000	 1.108220037766433e+001
 3.088240561658153e+000	 1.800942873445888e+000	 1.104576847041225e+001
 3.069726514182884e+000	 1.832322059083021e+000	 1.102687758172766e+001
 3.050869556452927e+000	 1.863550361428269e+000	 1.102366299663802e+001
 3.031671403164613e+000	 1.894622258734760e+000	 1.108082423007193e+001
 3.012133885853384e+000	 1.925532252064109e+000	 1.116614118600178e+001
 2.992258952619491e+000	 1.956274868339587e+000	 1.124937189148303e+001
 3.197822424592608e+000	 1.653460535014698e+000	 1.134895532243711e+001
 3.180927224308658e+000	 1.685734852736017e+000	 1.126051541530632e+001
 3.163679850262765e+000	 1.717885271231884e+000	 1.118219816207888e+001
 3.146081440016591e+000	 1.749906161156377e+000	 1.111501436983703e+001
 3.128133248759268e+000	 1.781791900888305e+000	 1.106003265879846e+001
 3.109836649498389e+000	 1.813536879551669e+000	 1.101348661329558e+001
 3.091193133159327e+000	 1.845135500053447e+000	 1.098415968946596e+001
 3.072204308591847e+000	 1.876582182135497e+000	 1.097662297333150e+001
 3.052871902483164e+000	 1.907871365437336e+000	 1.106837189940011e+001
 3.033197759176664e+000	 1.938997512566462e+000	 1.115754448421348e+001
 3.013183840395675e+000	 1.969955112172882e+000	 1.124363798974567e+001
 3.220029524762726e+000	 1.664942899839814e+000	 1.134363880371367e+001
 3.203016996698300e+000	 1.697441344767224e+000	 1.124885559970834e+001
 3.185649849220887e+000	 1.729815030057976e+000	 1.116313218388206e+001
 3.167929227791881e+000	 1.762058287273467e+000	 1.108744284704613e+001
 3.149856396317004e+000	 1.794165455753472e+000	 1.102282205513603e+001
 3.131432737338627e+000	 1.826130885657575e+000	 1.097036531345453e+001
 3.112659752135769e+000	 1.857948941024052e+000	 1.093066290940207e+001
 3.093539060730765e+000	 1.889614002842969e+000	 1.096170555153767e+001
 3.074072401801717e+000	 1.921120472140230e+000	 1.105778897821477e+001
 3.054261632499945e+000	 1.952462773069216e+000	 1.115035705282178e+001
 3.034108728171860e+000	 1.983635356006674e+000	 1.123886149720750e+001
 3.242236624932843e+000	 1.676425264664929e+000	 1.133610318791623e+001
 3.225106769087943e+000	 1.709147836798436e+000	 1.123458782818287e+001
 3.207619848179009e+000	 1.741744788884088e+000	 1.114105093375360e+001
 3.189777015567170e+000	 1.774210413390602e+000	 1.105643013618623e+001
 3.171579543874740e+000	 1.806539010618718e+000	 1.098172564263271e+001
 3.153028825178865e+000	 1.838724891763604e+000	 1.091800119059262e+001
 3.134126371112211e+000	 1.870762381994835e+000	 1.086638483575633e+001
 3.114873812869684e+000	 1.902645823550685e+000	 1.094923849127918e+001
 3.095272901120267e+000	 1.934369578843441e+000	 1.104920332629269e+001
 3.075325505823225e+000	 1.965928033572373e+000	 1.114472174233039e+001
 3.055033615948044e+000	 1.997315599840964e+000	 1.123519997297905e+001
 3.264443725102960e+000	 1.687907629490045e+000	 1.132698462386853e+001
 3.247196541477585e+000	 1.720854328829652e+000	 1.121837133781624e+001
 3.229589847137131e+000	 1.753674547710219e+000	 1.111663615212302e+001
 3.211624803342460e+000	 1.786362539507781e+000	 1.102267988125730e+001
 3.193302691432475e+000	 1.818912565484043e+000	 1.093746835469977e+001
 3.174624913019101e+000	 1.851318897869757e+000	 1.086203346315841e+001
 3.155592990088653e+000	 1.883575822965795e+000	 1.084225706225544e+001
 3.136208565008604e+000	 1.915677644258642e+000	 1.094460872105502e+001
 3.116473400438819e+000	 1.947618685546969e+000	 1.104274272284505e+001
 3.096389379146505e+000	 1.979393294075933e+000	 1.114078097400782e+001
 3.075958503724228e+000	 2.010995843675750e+000	 1.123281020468749e+001
 3.286650825273078e+000	 1.699389994315161e+000	 1.131692207886436e+001
 3.269286313867229e+000	 1.732560820860875e+000	 1.120086780433934e+001
 3.251559846095252e+000	 1.765604306536369e+000	 1.109057164293326e+001
 3.233472591117748e+000	 1.798514665625005e+000	 1.098689741953189e+001
 3.215025838990211e+000	 1.831286120349447e+000	 1.089077645286496e+001
 3.196221000859339e+000	 1.863912903976033e+000	 1.080320869415379e+001
 3.177059609065095e+000	 1.896389263936935e+000	 1.084917937412219e+001
 3.157543317147523e+000	 1.928709464966843e+000	 1.095345017186536e+001
 3.137673899757371e+000	 1.960867792250816e+000	 1.104806118107961e+001
 3.117453252469785e+000	 1.992858554579895e+000	 1.113867675438855e+001
 3.096883391500412e+000	 2.024676087511034e+000	 1.123184823454015e+001
 3.308857925443196e+000	 1.710872359140276e+000	 1.130655724408798e+001
 3.291376086256872e+000	 1.744267312892101e+000	 1.118274126029410e+001
 3.273529845053375e+000	 1.777534065362540e+000	 1.106354320439536e+001
 3.255320378893036e+000	 1.810666791742272e+000	 1.094978972473395e+001
 3.236748986547946e+000	 1.843659675214930e+000	 1.084237748220490e+001
 3.217817088699575e+000	 1.876506910082433e+000	 1.075219616618520e+001
 3.198526228041538e+000	 1.909202704908252e+000	 1.086701692241339e+001
 3.178878069286442e+000	 1.941741285675286e+000	 1.097241453862978e+001
 3.158874399075922e+000	 1.974116898954979e+000	 1.106767181563889e+001
 3.138517125793066e+000	 2.006323815084259e+000	 1.115203167154707e+001
 3.117808279276597e+000	 2.038356331346816e+000	 1.123246938433875e+001
 3.331065025613314e+000	 1.722354723965393e+000	 1.129653444381790e+001
 3.313465858646516e+000	 1.755973804923333e+000	 1.116465801647301e+001
 3.295499844011498e+000	 1.789463824188730e+000	 1.103623856251282e+001
 3.277168166668326e+000	 1.822818917859585e+000	 1.091206535249046e+001
 3.258472134105683e+000	 1.856033230080492e+000	 1.079300022856003e+001
 3.239413176539813e+000	 1.889100916188957e+000	 1.077961066008088e+001
 3.219992847017981e+000	 1.922016145879749e+000	 1.089519522503963e+001
 3.200212821425362e+000	 1.954773106383973e+000	 1.100093445248080e+001
 3.180074898394475e+000	 1.987366005659461e+000	 1.109608279718509e+001
 3.159580999116347e+000	 2.019789075589026e+000	 1.117985381317243e+001
 3.138733167052782e+000	 2.052036575183095e+000	 1.125141988116310e+001
 2.929484289290938e+000	 1.915234136842687e+000	 1.127073030992125e+001
 2.909697996420158e+000	 1.945162607531509e+000	 1.128606661709638e+001
 2.889585521563812e+000	 1.974916583975221e+000	 1.129593492963655e+001
 2.869149111770381e+000	 2.004490801800127e+000	 1.129987034743294e+001
 2.848391126202986e+000	 2.033880033882548e+000	 1.129741500590270e+001
 2.827314035404899e+000	 2.063079093308326e+000	 1.128811906681237e+001
 2.805920420471948e+000	 2.092082836316265e+000	 1.127154169710261e+001
 2.784212972132169e+000	 2.120886165222105e+000	 1.124725203313988e+001
 2.762194489733197e+000	 2.149484031319626e+000	 1.121483012784428e+001
 2.739867880138053e+000	 2.177871437755532e+000	 1.117386787817481e+001
 2.717236156530065e+000	 2.206043442374710e+000	 1.112396993049484e+001
 2.950409177067122e+000	 1.928914380674490e+000	 1.126307766455075e+001
 2.930481553533042e+000	 1.959056626154036e+000	 1.127893095464919e+001
 2.910225418142123e+000	 1.989023131001015e+000	 1.128881004921560e+001
 2.889643033993194e+000	 2.018808593239061e+000	 1.129223045563539e+001
 2.868736777100538e+000	 2.048407748407898e+000	 1.128871523927554e+001
 2.847509135654170e+000	 2.077815372543980e+000	 1.127779604798393e+001
 2.825962709186313e+000	 2.107026285144964e+000	 1.125901412389334e+001
 2.804100207644490e+000	 2.136035352114552e+000	 1.123192129987676e+001
 2.781924450371677e+000	 2.164837488684344e+000	 1.119608097802595e+001
 2.759438364994201e+000	 2.193427662309230e+000	 1.115106908755800e+001
 2.736644986218128e+000	 2.221800895532991e+000	 1.109647501959869e+001
 2.971334064843307e+000	 1.942594624506790e+000	 1.125590484466074e+001
 2.951265110645926e+000	 1.972950644777149e+000	 1.127229646041038e+001
 2.930865314720434e+000	 2.003129678027466e+000	 1.128220910400649e+001
 2.910136956216006e+000	 2.033126384678703e+000	 1.128513850919769e+001
 2.889082427998092e+000	 2.062935462933988e+000	 1.128058849139659e+001
 2.867704235903441e+000	 2.092551651780386e+000	 1.126807200620098e+001
 2.846004997900678e+000	 2.121969733974401e+000	 1.124711219452013e+001
 2.823987443156810e+000	 2.151184539007711e+000	 1.121724341157337e+001
 2.801654411010157e+000	 2.180190946049723e+000	 1.117801223705414e+001
 2.779008849850348e+000	 2.208983886863519e+000	 1.112897846378737e+001
 2.756053815906193e+000	 2.237558348691773e+000	 1.106971606225433e+001
 2.992258952619491e+000	 1.956274868339587e+000	 1.124937189148303e+001
 2.972048667758809e+000	 1.986844663400851e+000	 1.126632796817817e+001
 2.951505211298744e+000	 2.017236225054575e+000	 1.127630156423780e+001
 2.930630878438818e+000	 2.047444176119054e+000	 1.127876845473744e+001
 2.909428078895645e+000	 2.077463177460815e+000	 1.127321302143069e+001
 2.887899336152713e+000	 2.107287931017540e+000	 1.125912934564335e+001
 2.866047286615044e+000	 2.136913182804580e+000	 1.123602228707022e+001
 2.843874678669133e+000	 2.166333725901581e+000	 1.120340854566140e+001
 2.821384371648636e+000	 2.195544403415763e+000	 1.116081770381141e+001
 2.798579334706496e+000	 2.224540111418400e+000	 1.110779324610196e+001
 2.775462645594258e+000	 2.253315801851058e+000	 1.104389355389587e+001
 3.013183840395675e+000	 1.969955112172882e+000	 1.124363798974567e+001
 2.992832224871694e+000	 2.000738682025141e+000	 1.126118937996515e+001
 2.972145107877057e+000	 2.031342772082342e+000	 1.127125589599202e+001
 2.951124800661630e+000	 2.061761967560113e+000	 1.127329316533025e+001
 2.929773729793199e+000	 2.091990891988382e+000	 1.126676594861072e+001
 2.908094436401984e+000	 2.122024210255444e+000	 1.125114926721451e+001
 2.886089575329409e+000	 2.151856631635498e+000	 1.122592951609345e+001
 2.863761914181453e+000	 2.181482912796160e+000	 1.119060555889336e+001
 2.841114332287117e+000	 2.210897860782464e+000	 1.114468980251303e+001
 2.818149819562645e+000	 2.240096335973872e+000	 1.108770924827102e+001
 2.794871475282322e+000	 2.269073255010843e+000	 1.101920651690110e+001
 3.034108728171860e+000	 1.983635356006674e+000	 1.123886149720750e+001
 3.013615781984577e+000	 2.014632700650016e+000	 1.125704369812872e+001
 2.992785004455367e+000	 2.045449319110766e+000	 1.126723959583119e+001
 2.971618722884444e+000	 2.076079759001881e+000	 1.126888447752839e+001
 2.950119380690753e+000	 2.106518606516688e+000	 1.126142329154565e+001
 2.928289536651255e+000	 2.136760489494098e+000	 1.124431181003390e+001
 2.906131864043775e+000	 2.166800080467156e+000	 1.121701777617249e+001
 2.883649149693775e+000	 2.196632099691451e+000	 1.117902203288340e+001
 2.860844292925597e+000	 2.226251318149826e+000	 1.112981963010936e+001
 2.837720304418793e+000	 2.255652560529936e+000	 1.106892090774821e+001
 2.814280304970386e+000	 2.284830708171129e+000	 1.099585255138660e+001
 3.055033615948044e+000	 1.997315599840964e+000	 1.123519997297905e+001
 3.034399339097461e+000	 2.028526719275481e+000	 1.125405305618126e+001
 3.013424901033678e+000	 2.059555866139850e+000	 1.126441922399978e+001
 2.992112645107255e+000	 2.090397550444356e+000	 1.126571322685827e+001
 2.970465031588305e+000	 2.121046321045732e+000	 1.125736000591306e+001
 2.948484636900526e+000	 2.151496768733500e+000	 1.123879589122400e+001
 2.926174152758140e+000	 2.181743529299555e+000	 1.120946978370259e+001
 2.903536385206096e+000	 2.211781286587452e+000	 1.116884431777633e+001
 2.880574253564076e+000	 2.241604775517848e+000	 1.111639700174000e+001
 2.857290789274941e+000	 2.271208785086590e+000	 1.105162133280556e+001
 2.833689134658449e+000	 2.300588161331918e+000	 1.097402788391528e+001
 3.075958503724228e+000	 2.010995843675750e+000	 1.123281020468749e+001
 3.055182896210345e+000	 2.042420737901532e+000	 1.125237874834260e+001
 3.034064797611990e+000	 2.073662413169590e+000	 1.126296043627210e+001
 3.012606567330068e+000	 2.104715341887540e+000	 1.126394928186881e+001
 2.990810682485858e+000	 2.135574035575516e+000	 1.125475002061335e+001
 2.968679737149798e+000	 2.166233047973652e+000	 1.123477934407351e+001
 2.946216441472506e+000	 2.196686978132694e+000	 1.120346711696590e+001
 2.923423620718417e+000	 2.226930473484163e+000	 1.116025757413437e+001
 2.900304214202556e+000	 2.256958232886532e+000	 1.110461049433294e+001
 2.876861274131089e+000	 2.286765009643835e+000	 1.103600234774388e+001
 2.853097964346514e+000	 2.316345614493208e+000	 1.095392741421585e+001
 3.096883391500412e+000	 2.024676087511034e+000	 1.123184823454015e+001
 3.075966453323229e+000	 2.056314756528171e+000	 1.125218125789462e+001
 3.054704694190301e+000	 2.087768960199989e+000	 1.126302801450882e+001
 3.033100489552880e+000	 2.119033133331432e+000	 1.126376157679972e+001
 3.011156333383411e+000	 2.150101750106038e+000	 1.125376627245812e+001
 2.988874837399069e+000	 2.180969327214555e+000	 1.123243895465337e+001
 2.966258730186870e+000	 2.211630426966571e+000	 1.119919025458136e+001
 2.943310856230740e+000	 2.242079660381585e+000	 1.115344581312577e+001
 2.920034174841036e+000	 2.272311690255878e+000	 1.109464748843593e+001
 2.896431758987238e+000	 2.302321234201673e+000	 1.102225453627006e+001
 2.872506794034578e+000	 2.332103067654998e+000	 1.093574476000835e+001
 3.117808279276597e+000	 2.038356331346816e+000	 1.123246938433875e+001
 3.096750010436112e+000	 2.070208775155397e+000	 1.125362028439379e+001
 3.075344590768612e+000	 2.101875507231044e+000	 1.126478589598289e+001
 3.053594411775693e+000	 2.133350924776032e+000	 1.126531814293406e+001
 3.031501984280965e+000	 2.164629464637300e+000	 1.125458073946178e+001
 3.009069937648340e+000	 2.195705606456206e+000	 1.123195049695827e+001
 2.986301018901236e+000	 2.226573875801191e+000	 1.119681861240605e+001
 2.963198091743061e+000	 2.257228847279718e+000	 1.114859193509506e+001
 2.939764135479516e+000	 2.287665147625883e+000	 1.108669420836350e+001
 2.916002243843385e+000	 2.317877458760101e+000	 1.101056728312778e+001
 2.891915623722642e+000	 2.347860520817291e+000	 1.091967230002460e+001
 3.138733167052782e+000	 2.052036575183095e+000	 1.125141988116310e+001
 3.117533567548996e+000	 2.084102793783212e+000	 1.125685476979549e+001
 3.095984487346924e+000	 2.115982054262759e+000	 1.126839720153247e+001
 3.074088333998507e+000	 2.147668716221342e+000	 1.126878613869687e+001
 3.051847635178519e+000	 2.179157179169301e+000	 1.125736447280136e+001
 3.029265037897612e+000	 2.210441885698607e+000	 1.123348876664257e+001
 3.006343307615602e+000	 2.241517324636550e+000	 1.119653057896061e+001
 2.983085327255383e+000	 2.272378034178562e+000	 1.114587776659047e+001
 2.959494096117997e+000	 2.303018604996550e+000	 1.108093576073812e+001
 2.935572728699535e+000	 2.333433683319122e+000	 1.100112881406298e+001
 2.911324453410707e+000	 2.363617973980084e+000	 1.090590121530772e+001
 2.717236156530065e+000	 2.206043442374710e+000	 1.112396993049484e+001
 2.694302437127753e+000	 2.233995160532463e+000	 1.113962077115219e+001
 2.671069943811038e+000	 2.261721767870786e+000	 1.114490067618098e+001
 2.647542000659858e+000	 2.289218503055032e+000	 1.113936499197557e+001
 2.623722032406190e+000	 2.316480670467651e+000	 1.112258519632101e+001
 2.599613562801293e+000	 2.343503642856166e+000	 1.109414975050992e+001
 2.575220212899676e+000	 2.370282863932164e+000	 1.105366491604866e+001
 2.550545699261519e+000	 2.396813850918235e+000	 1.100075553384999e+001
 2.525593832075397e+000	 2.423092197039895e+000	 1.093506576391549e+001
 2.500368513203295e+000	 2.449113573959597e+000	 1.085625978362330e+001
 2.474873734150000e+000	 2.474873734150000e+000	 1.078409598146779e+001
 2.736644986218128e+000	 2.221800895532991e+000	 1.109647501959869e+001
 2.713547454534904e+000	 2.249952268820610e+000	 1.110678963334541e+001
 2.690149014837810e+000	 2.277876923354378e+000	 1.110838724713554e+001
 2.666453014950212e+000	 2.305570063790118e+000	 1.110086918557519e+001
 2.642462904066458e+000	 2.333026960970151e+000	 1.108385159199258e+001
 2.618182231107459e+000	 2.360242954590201e+000	 1.105696623695388e+001
 2.593614642992400e+000	 2.387213455816933e+000	 1.101986129271861e+001
 2.568763882828318e+000	 2.413933949853102e+000	 1.097220207159460e+001
 2.543633788019420e+000	 2.440399998447261e+000	 1.091367172625495e+001
 2.518228288298135e+000	 2.466607242345167e+000	 1.084397191019043e+001
 2.492551403680000e+000	 2.492551403680000e+000	 1.076976142036392e+001
 2.756053815906193e+000	 2.237558348691773e+000	 1.106971606225433e+001
 2.732792471942056e+000	 2.265909377109163e+000	 1.107599487640205e+001
 2.709228085864582e+000	 2.294032078838291e+000	 1.107517841588568e+001
 2.685364029240567e+000	 2.321921624525449e+000	 1.106691318893276e+001
 2.661203775726726e+000	 2.349573251472833e+000	 1.105085923392670e+001
 2.636750899413626e+000	 2.376982266324359e+000	 1.102669088520242e+001
 2.612009073085125e+000	 2.404144047701782e+000	 1.099409750609888e+001
 2.586982066395117e+000	 2.431054048788012e+000	 1.095278418728820e+001
 2.561673743963445e+000	 2.457707799854648e+000	 1.090247240850261e+001
 2.536088063392976e+000	 2.484100910730744e+000	 1.084290066188821e+001
 2.510229073210000e+000	 2.510229073210000e+000	 1.075811273573405e+001
 2.775462645594258e+000	 2.253315801851058e+000	 1.104389355389587e+001
 2.752037489349208e+000	 2.281866485398122e+000	 1.104741336331463e+001
 2.728307156891355e+000	 2.310187234322526e+000	 1.104542789274110e+001
 2.704275043530920e+000	 2.338273185261025e+000	 1.103762805023729e+001
 2.679944647386995e+000	 2.366119541975694e+000	 1.102371700929518e+001
 2.655319567719793e+000	 2.393721578058645e+000	 1.100341093278427e+001
 2.630403503177848e+000	 2.421074639586712e+000	 1.097643966543982e+001
 2.605200249961916e+000	 2.448174147722970e+000	 1.094254739297003e+001
 2.579713699907468e+000	 2.475015601262054e+000	 1.090149326595971e+001
 2.553947838487818e+000	 2.501594579116325e+000	 1.084986742140062e+001
 2.527906742740000e+000	 2.527906742740000e+000	 1.074940297498422e+001
 2.794871475282322e+000	 2.269073255010843e+000	 1.101920651690110e+001
 2.771282506756359e+000	 2.297823593687487e+000	 1.102122118138670e+001
 2.747386227918126e+000	 2.326342389807081e+000	 1.101928929435952e+001
 2.723186057821274e+000	 2.354624745996849e+000	 1.101314539038318e+001
 2.698685519047263e+000	 2.382665832478737e+000	 1.100253502831321e+001
 2.673888236025959e+000	 2.410460889793056e+000	 1.098721547425985e+001
 2.648797933270572e+000	 2.438005231471722e+000	 1.096695635434229e+001
 2.623418433528714e+000	 2.465294246657972e+000	 1.094154027536915e+001
 2.597753655851491e+000	 2.492323402669479e+000	 1.091076341167832e+001
 2.571807613582659e+000	 2.519088247501911e+000	 1.083297764417226e+001
 2.545584412270000e+000	 2.545584412270000e+000	 1.074673981672322e+001
 2.814280304970386e+000	 2.284830708171129e+000	 1.099585255138660e+001
 2.790527524163510e+000	 2.313780701977259e+000	 1.099759366898086e+001
 2.766465298944899e+000	 2.342497545291958e+000	 1.099691614697607e+001
 2.742097072111628e+000	 2.370976306732918e+000	 1.099359738322170e+001
 2.717426390707531e+000	 2.399212122981961e+000	 1.098742458206528e+001
 2.692456904332127e+000	 2.427200201527592e+000	 1.097819539718566e+001
 2.667192363363296e+000	 2.454935823356812e+000	 1.096571854543508e+001
 2.641636617095514e+000	 2.482414345593019e+000	 1.094981438988076e+001
 2.615793611795516e+000	 2.509631204076926e+000	 1.090492509296646e+001
 2.589667388677500e+000	 2.536581915887501e+000	 1.082112156615670e+001
 2.563262081800000e+000	 2.563262081800000e+000	 1.074997905927736e+001
 2.833689134658449e+000	 2.300588161331918e+000	 1.097402788391528e+001
 2.809772541570663e+000	 2.329737810267437e+000	 1.097670544116730e+001
 2.785544369971670e+000	 2.358652700777156e+000	 1.097846188949998e+001
 2.761008086401982e+000	 2.387327867469233e+000	 1.097911673662416e+001
 2.736167262367800e+000	 2.415758413485365e+000	 1.097849810206456e+001
 2.711025572638294e+000	 2.443939513262254e+000	 1.097644332071029e+001
 2.685586793456021e+000	 2.471866415241984e+000	 1.097279951855905e+001
 2.659854800662312e+000	 2.499534444528111e+000	 1.096742415889943e+001
 2.633833567739539e+000	 2.526939005484393e+000	 1.088426163923379e+001
 2.607527163772341e+000	 2.554075584273098e+000	 1.081417819901618e+001
 2.580939751329999e+000	 2.580939751329999e+000	 1.075898094960162e+001
 2.853097964346514e+000	 2.316345614493208e+000	 1.095392741421585e+001
 2.829017558977814e+000	 2.345694918558022e+000	 1.095873041432570e+001
 2.804623440998443e+000	 2.374807856262675e+000	 1.096407987648484e+001
 2.779919100692337e+000	 2.403679428205794e+000	 1.096983667431795e+001
 2.754908134028069e+000	 2.432304703988950e+000	 1.097586912146274e+001
 2.729594240944460e+000	 2.460678824997042e+000	 1.098205353667677e+001
 2.703981223548745e+000	 2.488797007127235e+000	 1.098827478229037e+001
 2.678072984229111e+000	 2.516654543463250e+000	 1.093971299095362e+001
 2.651873523683563e+000	 2.544246806891879e+000	 1.086753469111710e+001
 2.625386938867182e+000	 2.571569252658699e+000	 1.081203035843976e+001
 2.598617420860000e+000	 2.598617420860000e+000	 1.077361003196591e+001
 2.872506794034578e+000	 2.332103067654998e+000	 1.093574476000835e+001
 2.848262576384966e+000	 2.361652026849011e+000	 1.094384182974950e+001
 2.823702512025215e+000	 2.390963011748516e+000	 1.095392338097842e+001
 2.798830114982690e+000	 2.420030988942601e+000	 1.096589091845896e+001
 2.773649005688337e+000	 2.448850994492715e+000	 1.097965223783254e+001
 2.748162909250627e+000	 2.477418136731954e+000	 1.099512195311259e+001
 2.722375653641469e+000	 2.505727599012566e+000	 1.099074638013950e+001
 2.696291167795910e+000	 2.533774642398433e+000	 1.091353341941651e+001
 2.669913479627586e+000	 2.561554608299386e+000	 1.085464908301399e+001
 2.643246713962023e+000	 2.589062921044305e+000	 1.081456453562882e+001
 2.616295090390000e+000	 2.616295090390000e+000	 1.079373500277542e+001
 2.891915623722642e+000	 2.347860520817291e+000	 1.091967230002460e+001
 2.867507593792117e+000	 2.377609135140408e+000	 1.093221227629995e+001
 2.842781583051987e+000	 2.407118167234677e+000	 1.094814559725779e+001
 2.817741129273045e+000	 2.436382549679655e+000	 1.096741367290585e+001
 2.792389877348605e+000	 2.465397284996662e+000	 1.098996307744890e+001
 2.766731577556794e+000	 2.494157448466993e+000	 1.101574603999535e+001
 2.740770083734193e+000	 2.522658190897978e+000	 1.095537760974882e+001
 2.714509351362709e+000	 2.550894741333661e+000	 1.089025432770229e+001
 2.687953435571610e+000	 2.578862409706913e+000	 1.084551272585770e+001
 2.661106489056865e+000	 2.606556589429915e+000	 1.082167077395780e+001
 2.633972759920000e+000	 2.633972759920000e+000	 1.081922857123727e+001
 2.911324453410707e+000	 2.363617973980084e+000	 1.090590121530772e+001
 2.886752611199269e+000	 2.393566243432211e+000	 1.092401371215374e+001
 2.861860654078760e+000	 2.423273322721160e+000	 1.094689964345504e+001
 2.836652143563399e+000	 2.452734110416955e+000	 1.097453960716319e+001
 2.811130749008874e+000	 2.481943575500790e+000	 1.100691826099889e+001
 2.785300245862961e+000	 2.510896760202158e+000	 1.099598598433101e+001
 2.759164513826918e+000	 2.539588782783472e+000	 1.092198213749011e+001
 2.732727534929508e+000	 2.568014840268935e+000	 1.086980451825383e+001
 2.705993391515634e+000	 2.596170211114460e+000	 1.084003650456596e+001
 2.678966264151707e+000	 2.624050257815533e+000	 1.083324255056841e+001
 2.651650429450000e+000	 2.651650429450000e+000	 1.084996732560041e+001
 2.474873734150000e+000	 2.474873734150000e+000	 1.078409598146779e+001
 2.449113573959596e+000	 2.500368513203294e+000	 1.080263450936248e+001
 2.423092197039895e+000	 2.525593832075397e+000	 1.079164135294268e+001
 2.396813850918235e+000	 2.550545699261519e+000	 1.078034360368845e+001
 2.370282863932165e+000	 2.575220212899676e+000	 1.076811771033557e+001
 2.343503642856166e+000	 2.599613562801293e+000	 1.075434445372223e+001
 2.316480670467651e+000	 2.623722032406190e+000	 1.073841010699234e+001
 2.289218503055032e+000	 2.647542000659858e+000	 1.071970757369461e+001
 2.261721767870785e+000	 2.671069943811037e+000	 1.069763750111377e+001
 2.233995160532464e+000	 2.694302437127753e+000	 1.067160936626139e+001
 2.206043442374710e+000	 2.717236156530064e+000	 1.064104253205362e+001
 2.492551403680000e+000	 2.492551403680000e+000	 1.076976142036392e+001
 2.466607242345168e+000	 2.518228288298135e+000	 1.078431228159010e+001
 2.440399998447261e+000	 2.543633788019420e+000	 1.078709653984057e+001
 2.413933949853101e+000	 2.568763882828318e+000	 1.078758406156455e+001
 2.387213455816933e+000	 2.593614642992400e+000	 1.078506593354550e+001
 2.360242954590201e+000	 2.618182231107459e+000	 1.077883994018416e+001
 2.333026960970151e+000	 2.642462904066458e+000	 1.076821181949309e+001
 2.305570063790118e+000	 2.666453014950212e+000	 1.075249649320760e+001
 2.277876923354377e+000	 2.690149014837810e+000	 1.073101926818498e+001
 2.249952268820610e+000	 2.713547454534904e+000	 1.070311700636540e+001
 2.221800895532991e+000	 2.736644986218128e+000	 1.066813926067684e+001
 2.510229073210000e+000	 2.510229073210000e+000	 1.075811273573405e+001
 2.484100910730744e+000	 2.536088063392976e+000	 1.076574958078196e+001
 2.457707799854647e+000	 2.561673743963444e+000	 1.078093120522866e+001
 2.431054048788012e+000	 2.586982066395117e+000	 1.079185362769096e+001
 2.404144047701782e+000	 2.612009073085125e+000	 1.079772298790314e+001
 2.376982266324359e+000	 2.636750899413626e+000	 1.079775447278531e+001
 2.349573251472832e+000	 2.661203775726727e+000	 1.079117366808238e+001
 2.321921624525448e+000	 2.685364029240566e+000	 1.077721788035372e+001
 2.294032078838291e+000	 2.709228085864582e+000	 1.075513742632204e+001
 2.265909377109162e+000	 2.732792471942056e+000	 1.072419688669962e+001
 2.237558348691774e+000	 2.756053815906193e+000	 1.068367632172970e+001
 2.527906742740000e+000	 2.527906742740000e+000	 1.074940297498422e+001
 2.501594579116325e+000	 2.553947838487817e+000	 1.074892709596922e+001
 2.475015601262053e+000	 2.579713699907468e+000	 1.077313246051365e+001
 2.448174147722970e+000	 2.605200249961916e+000	 1.079317211879225e+001
 2.421074639586712e+000	 2.630403503177848e+000	 1.080614067339555e+001
 2.393721578058645e+000	 2.655319567719793e+000	 1.081117109614216e+001
 2.366119541975694e+000	 2.679944647386995e+000	 1.080740918731404e+001
 2.338273185261026e+000	 2.704275043530920e+000	 1.079401498940720e+001
 2.310187234322525e+000	 2.728307156891355e+000	 1.077016416432561e+001
 2.281866485398122e+000	 2.752037489349207e+000	 1.073504933098170e+001
 2.253315801851058e+000	 2.775462645594258e+000	 1.068788136039640e+001
 2.545584412270000e+000	 2.545584412270000e+000	 1.074673981672322e+001
 2.519088247501911e+000	 2.571807613582659e+000	 1.075463709018227e+001
 2.492323402669479e+000	 2.597753655851491e+000	 1.076369040508179e+001
 2.465294246657972e+000	 2.623418433528715e+000	 1.079156147503517e+001
 2.438005231471722e+000	 2.648797933270572e+000	 1.081037206741194e+001
 2.410460889793055e+000	 2.673888236025959e+000	 1.081917330512795e+001
 2.382665832478737e+000	 2.698685519047263e+000	 1.081703155413300e+001
 2.354624745996849e+000	 2.723186057821274e+000	 1.080302992881934e+001
 2.326342389807081e+000	 2.747386227918127e+000	 1.077626975697002e+001
 2.297823593687487e+000	 2.771282506756359e+000	 1.073587200105570e+001
 2.269073255010843e+000	 2.794871475282322e+000	 1.068097863282785e+001
 2.563262081800000e+000	 2.563262081800000e+000	 1.074997905927736e+001
 2.536581915887501e+000	 2.589667388677499e+000	 1.076478594527567e+001
 2.509631204076926e+000	 2.615793611795515e+000	 1.076780991830179e+001
 2.482414345593019e+000	 2.641636617095514e+000	 1.078704568680645e+001
 2.454935823356812e+000	 2.667192363363296e+000	 1.081047148069527e+001
 2.427200201527592e+000	 2.692456904332126e+000	 1.082184502934658e+001
 2.399212122981961e+000	 2.717426390707532e+000	 1.082015360020664e+001
 2.370976306732918e+000	 2.742097072111629e+000	 1.080440370072976e+001
 2.342497545291958e+000	 2.766465298944899e+000	 1.077362263100430e+001
 2.313780701977259e+000	 2.790527524163510e+000	 1.072685998868082e+001
 2.284830708171130e+000	 2.814280304970386e+000	 1.066318912300496e+001
 2.580939751329999e+000	 2.580939751329999e+000	 1.075898094960162e+001
 2.554075584273098e+000	 2.607527163772341e+000	 1.077926306354876e+001
 2.526939005484393e+000	 2.633833567739539e+000	 1.078595240575321e+001
 2.499534444528111e+000	 2.659854800662312e+000	 1.077965072449987e+001
 2.471866415241984e+000	 2.685586793456022e+000	 1.080649441510411e+001
 2.443939513262254e+000	 2.711025572638294e+000	 1.081927061824464e+001
 2.415758413485365e+000	 2.736167262367800e+000	 1.081688782374932e+001
 2.387327867469234e+000	 2.761008086401982e+000	 1.079827623885362e+001
 2.358652700777156e+000	 2.785544369971671e+000	 1.076238942844063e+001
 2.329737810267437e+000	 2.809772541570662e+000	 1.070820590354803e+001
 2.300588161331918e+000	 2.833689134658449e+000	 1.063473065479925e+001
 2.598617420860000e+000	 2.598617420860000e+000	 1.077361003196591e+001
 2.571569252658698e+000	 2.625386938867181e+000	 1.079796133369169e+001
 2.544246806891880e+000	 2.651873523683562e+000	 1.080693773058702e+001
 2.516654543463250e+000	 2.678072984229111e+000	 1.080027560155681e+001
 2.488797007127235e+000	 2.703981223548745e+000	 1.079849752309853e+001
 2.460678824997041e+000	 2.729594240944460e+000	 1.081153482683098e+001
 2.432304703988950e+000	 2.754908134028068e+000	 1.080734640086434e+001
 2.403679428205795e+000	 2.779919100692336e+000	 1.078478644482278e+001
 2.374807856262675e+000	 2.804623440998443e+000	 1.074273506725976e+001
 2.345694918558021e+000	 2.829017558977813e+000	 1.068009995770410e+001
 2.316345614493208e+000	 2.853097964346514e+000	 1.059581799945956e+001
 2.616295090390000e+000	 2.616295090390000e+000	 1.079373500277542e+001
 2.589062921044304e+000	 2.643246713962023e+000	 1.082077701300205e+001
 2.561554608299387e+000	 2.669913479627586e+000	 1.083068914868876e+001
 2.533774642398432e+000	 2.696291167795910e+000	 1.082314742210201e+001
 2.505727599012566e+000	 2.722375653641469e+000	 1.079784524500881e+001
 2.477418136731954e+000	 2.748162909250627e+000	 1.079872280197528e+001
 2.448850994492716e+000	 2.773649005688336e+000	 1.079164119642610e+001
 2.420030988942601e+000	 2.798830114982690e+000	 1.076407222305329e+001
 2.390963011748515e+000	 2.823702512025216e+000	 1.071482279965523e+001
 2.361652026849012e+000	 2.848262576384966e+000	 1.064273004655317e+001
 2.332103067654998e+000	 2.872506794034578e+000	 1.054666297874114e+001
 2.633972759920000e+000	 2.633972759920000e+000	 1.081922857123727e+001
 2.606556589429916e+000	 2.661106489056865e+000	 1.084760961434423e+001
 2.578862409706913e+000	 2.687953435571610e+000	 1.085713242913466e+001
 2.550894741333660e+000	 2.714509351362708e+000	 1.084741338647844e+001
 2.522658190897978e+000	 2.740770083734193e+000	 1.081808821784512e+001
 2.494157448466993e+000	 2.766731577556793e+000	 1.078092006925843e+001
 2.465397284996662e+000	 2.792389877348606e+000	 1.076988377452400e+001
 2.436382549679655e+000	 2.817741129273045e+000	 1.073627051420918e+001
 2.407118167234677e+000	 2.842781583051988e+000	 1.067881426793232e+001
 2.377609135140408e+000	 2.867507593792117e+000	 1.059628182659637e+001
 2.347860520817291e+000	 2.891915623722642e+000	 1.048747456388206e+001
 2.651650429450000e+000	 2.651650429450000e+000	 1.084996732560041e+001
 2.624050257815533e+000	 2.678966264151706e+000	 1.087836179763065e+001
 2.596170211114461e+000	 2.705993391515634e+000	 1.088619577041869e+001
 2.568014840268935e+000	 2.732727534929508e+000	 1.087302668711328e+001
 2.539588782783472e+000	 2.759164513826918e+000	 1.083843329546033e+001
 2.510896760202157e+000	 2.785300245862960e+000	 1.078201582763123e+001
 2.481943575500790e+000	 2.811130749008874e+000	 1.074218540848854e+001
 2.452734110416955e+000	 2.836652143563399e+000	 1.070151732732739e+001
 2.423273322721160e+000	 2.861860654078760e+000	 1.063486955817099e+001
 2.393566243432212e+000	 2.886752611199269e+000	 1.054093879006202e+001
 2.363617973980084e+000	 2.911324453410707e+000	 1.041845897062034e+001
 2.206043442374710e+000	 2.717236156530064e+000	 1.064104253205362e+001
 2.177871437755532e+000	 2.739867880138052e+000	 1.060649455511528e+001
 2.149484031319626e+000	 2.762194489733196e+000	 1.056723824808193e+001
 2.120886165222104e+000	 2.784212972132168e+000	 1.052252200255838e+001
 2.092082836316265e+000	 2.805920420471948e+000	 1.047160784252539e+001
 2.063079093308326e+000	 2.827314035404899e+000	 1.041377251948059e+001
 2.033880033882548e+000	 2.848391126202985e+000	 1.034830856421980e+001
 2.004490801800128e+000	 2.869149111770381e+000	 1.027452529330823e+001
 1.974916583975221e+000	 2.889585521563813e+000	 1.019174976844265e+001
 1.945162607531509e+000	 2.909697996420158e+000	 1.009932770706200e+001
 1.915234136842688e+000	 2.929484289290938e+000	 9.996624342722241e+000
 2.221800895532991e+000	 2.736644986218128e+000	 1.066813926067684e+001
 2.193427662309230e+000	 2.759438364994201e+000	 1.062542224472561e+001
 2.164837488684345e+000	 2.781924450371677e+000	 1.057945342794579e+001
 2.136035352114552e+000	 2.804100207644489e+000	 1.052953015951559e+001
 2.107026285144963e+000	 2.825962709186313e+000	 1.047496204817231e+001
 2.077815372543980e+000	 2.847509135654169e+000	 1.041507202076664e+001
 2.048407748407898e+000	 2.868736777100538e+000	 1.034919733909143e+001
 2.018808593239061e+000	 2.889643033993193e+000	 1.027669057307381e+001
 1.989023131001014e+000	 2.910225418142124e+000	 1.019692052856807e+001
 1.959056626154036e+000	 2.930481553533042e+000	 1.010927312814009e+001
 1.928914380674490e+000	 2.950409177067122e+000	 1.001315224339044e+001
 2.237558348691774e+000	 2.756053815906193e+000	 1.068367632172970e+001
 2.208983886863519e+000	 2.779008849850348e+000	 1.063437672525711e+001
 2.180190946049723e+000	 2.801654411010157e+000	 1.058325558622403e+001
 2.151184539007711e+000	 2.823987443156810e+000	 1.052965832868396e+001
 2.121969733974401e+000	 2.846004997900678e+000	 1.047294128862590e+001
 2.092551651780386e+000	 2.867704235903441e+000	 1.041247273673930e+001
 2.062935462933988e+000	 2.889082427998092e+000	 1.034763386104517e+001
 2.033126384678703e+000	 2.910136956216005e+000	 1.027781970752044e+001
 2.003129678027465e+000	 2.930865314720434e+000	 1.020244007698863e+001
 1.972950644777149e+000	 2.951265110645926e+000	 1.012092037669999e+001
 1.942594624506790e+000	 2.971334064843307e+000	 1.003270242517895e+001
 2.253315801851058e+000	 2.775462645594258e+000	 1.068788136039640e+001
 2.224540111418400e+000	 2.798579334706496e+000	 1.063355579072709e+001
 2.195544403415763e+000	 2.821384371648636e+000	 1.057881306623763e+001
 2.166333725901581e+000	 2.843874678669132e+000	 1.052304581523402e+001
 2.136913182804580e+000	 2.866047286615044e+000	 1.046565625526475e+001
 2.107287931017540e+000	 2.887899336152712e+000	 1.040605718088470e+001
 2.077463177460816e+000	 2.909428078895646e+000	 1.034367291283531e+001
 2.047444176119055e+000	 2.930630878438818e+000	 1.027794020680482e+001
 2.017236225054575e+000	 2.951505211298745e+000	 1.020830912007607e+001
 1.986844663400851e+000	 2.972048667758809e+000	 1.013424383451737e+001
 1.956274868339587e+000	 2.992258952619491e+000	 1.005522343452283e+001
 2.269073255010843e+000	 2.794871475282322e+000	 1.068097863282785e+001
 2.240096335973872e+000	 2.818149819562644e+000	 1.062315470513011e+001
 2.210897860782464e+000	 2.841114332287116e+000	 1.056629252716417e+001
 2.181482912796160e+000	 2.863761914181454e+000	 1.050983107256023e+001
 2.151856631635498e+000	 2.886089575329409e+000	 1.045321760617501e+001
 2.122024210255444e+000	 2.908094436401985e+000	 1.039590863763515e+001
 2.091990891988382e+000	 2.929773729793199e+000	 1.033737083780505e+001
 2.061761967560114e+000	 2.951124800661631e+000	 1.027708191637893e+001
 2.031342772082342e+000	 2.972145107877056e+000	 1.021453145893806e+001
 2.000738682025140e+000	 2.992832224871693e+000	 1.014922172196000e+001
 1.969955112172882e+000	 3.013183840395675e+000	 1.008066838441429e+001
 2.284830708171130e+000	 2.814280304970386e+000	 1.066318912300496e+001
 2.255652560529935e+000	 2.837720304418793e+000	 1.060336628968007e+001
 2.226251318149826e+000	 2.860844292925596e+000	 1.054585900211182e+001
 2.196632099691450e+000	 2.883649149693774e+000	 1.049015173165249e+001
 2.166800080467156e+000	 2.906131864043775e+000	 1.043573596729833e+001
 2.136760489494098e+000	 2.928289536651255e+000	 1.038211113578478e+001
 2.106518606516688e+000	 2.950119380690753e+000	 1.032878548607308e+001
 2.076079759001881e+000	 2.971618722884443e+000	 1.027527693646263e+001
 2.045449319110767e+000	 2.992785004455368e+000	 1.022111388270308e+001
 2.014632700650016e+000	 3.013615781984577e+000	 1.016583596562259e+001
 1.983635356006674e+000	 3.034108728171860e+000	 1.010899479693518e+001
 2.300588161331918e+000	 2.833689134658449e+000	 1.063473065479925e+001
 2.271208785086590e+000	 2.857290789274941e+000	 1.057438100646718e+001
 2.241604775517849e+000	 2.880574253564076e+000	 1.051767595380662e+001
 2.211781286587451e+000	 2.903536385206097e+000	 1.046414462926075e+001
 2.181743529299555e+000	 2.926174152758140e+000	 1.041332193353275e+001
 2.151496768733500e+000	 2.948484636900527e+000	 1.036474942299773e+001
 2.121046321045732e+000	 2.970465031588305e+000	 1.031797616293165e+001
 2.090397550444356e+000	 2.992112645107255e+000	 1.027255954482560e+001
 2.059555866139849e+000	 3.013424901033678e+000	 1.022806606619094e+001
 2.028526719275481e+000	 3.034399339097460e+000	 1.018407207140120e+001
 1.997315599840964e+000	 3.055033615948044e+000	 1.014016445226068e+001
 2.316345614493208e+000	 2.853097964346514e+000	 1.059581799945956e+001
 2.286765009643835e+000	 2.876861274131089e+000	 1.053638703870015e+001
 2.256958232886533e+000	 2.900304214202556e+000	 1.048190532800684e+001
 2.226930473484163e+000	 2.923423620718418e+000	 1.043194583490993e+001
 2.196686978132694e+000	 2.946216441472505e+000	 1.038608606978858e+001
 2.166233047973652e+000	 2.968679737149798e+000	 1.034390894135676e+001
 2.135574035575516e+000	 2.990810682485858e+000	 1.030500357935096e+001
 2.104715341887540e+000	 3.012606567330067e+000	 1.026896612272100e+001
 2.073662413169589e+000	 3.034064797611989e+000	 1.023540047176004e+001
 2.042420737901532e+000	 3.055182896210345e+000	 1.020391900274827e+001
 2.010995843675750e+000	 3.075958503724228e+000	 1.017414324382636e+001
 2.332103067654998e+000	 2.872506794034578e+000	 1.054666297874114e+001
 2.302321234201673e+000	 2.896431758987238e+000	 1.048957036769554e+001
 2.272311690255878e+000	 2.920034174841036e+000	 1.043870760475193e+001
 2.242079660381585e+000	 2.943310856230740e+000	 1.039369067681972e+001
 2.211630426966572e+000	 2.966258730186870e+000	 1.035413891200152e+001
 2.180969327214554e+000	 2.988874837399069e+000	 1.031967580390318e+001
 2.150101750106038e+000	 3.011156333383411e+000	 1.028992980448996e+001
 2.119033133331432e+000	 3.033100489552880e+000	 1.026453508382185e+001
 2.087768960199988e+000	 3.054704694190300e+000	 1.024313225513381e+001
 2.056314756528171e+000	 3.075966453323229e+000	 1.022536906386330e+001
 2.024676087511034e+000	 3.096883391500412e+000	 1.021090103936657e+001
 2.347860520817291e+000	 2.891915623722642e+000	 1.048747456388206e+001
 2.317877458760101e+000	 2.916002243843385e+000	 1.043411484676666e+001
 2.287665147625883e+000	 2.939764135479516e+000	 1.038824184754764e+001
 2.257228847279718e+000	 2.963198091743061e+000	 1.034951376678060e+001
 2.226573875801191e+000	 2.986301018901236e+000	 1.031759096810495e+001
 2.195705606456205e+000	 3.009069937648340e+000	 1.029213677212142e+001
 2.164629464637300e+000	 3.031501984280965e+000	 1.027281822011954e+001
 2.133350924776032e+000	 3.053594411775692e+000	 1.025930680601896e+001
 2.101875507231044e+000	 3.075344590768612e+000	 1.025127917501924e+001
 2.070208775155397e+000	 3.096750010436112e+000	 1.024841778758724e+001
 2.038356331346816e+000	 3.117808279276597e+000	 1.025041154754873e+001
 2.363617973980084e+000	 2.911324453410707e+000	 1.041845897062034e+001
 2.333433683319122e+000	 2.935572728699535e+000	 1.037020227215712e+001
 2.303018604996550e+000	 2.959494096117997e+000	 1.033066575058386e+001
 2.272378034178562e+000	 2.983085327255383e+000	 1.029954902403472e+001
 2.241517324636550e+000	 3.006343307615601e+000	 1.027655271896331e+001
 2.210441885698607e+000	 3.029265037897612e+000	 1.026137923432434e+001
 2.179157179169300e+000	 3.051847635178518e+000	 1.025373347686889e+001
 2.147668716221342e+000	 3.074088333998506e+000	 1.025332356594714e+001
 2.115982054262759e+000	 3.095984487346924e+000	 1.025986150634083e+001
 2.084102793783212e+000	 3.117533567548997e+000	 1.027306382778116e+001
 2.052036575183095e+000	 3.138733167052782e+000	 1.014300131990039e+001
 1.915234136842688e+000	 2.929484289290938e+000	 9.996624342722241e+000
 1.885136470559467e+000	 2.948942265883543e+000	 9.951422650704856e+000
 1.854874938628939e+000	 2.968069905208957e+000	 9.891868950031483e+000
 1.824454899308038e+000	 2.986865300036170e+000	 9.834348698742309e+000
 1.793881736172811e+000	 3.005326657253558e+000	 9.788715050931240e+000
 1.763160855129283e+000	 3.023452298137441e+000	 9.752290618677385e+000
 1.732297681428427e+000	 3.041240658528325e+000	 9.722458096961718e+000
 1.701297656688460e+000	 3.058690288915435e+000	 9.696666033376310e+000
 1.670166235927714e+000	 3.075799854430276e+000	 9.672434374975710e+000
 1.638908884611238e+000	 3.092568134750086e+000	 9.647359780690366e+000
 1.607531075714235e+000	 3.108994023912138e+000	 9.619120688579264e+000
 1.928914380674490e+000	 2.950409177067122e+000	 1.001315224339044e+001
 1.898601731060612e+000	 2.970006139206823e+000	 9.988476578465411e+000
 1.868124045330562e+000	 2.989270404527509e+000	 9.963097349455909e+000
 1.837486720014539e+000	 3.008200052175089e+000	 9.920690760062426e+000
 1.806695177142703e+000	 3.026793276230001e+000	 9.889349975027216e+000
 1.775754861234695e+000	 3.045048385977679e+000	 9.866273290021587e+000
 1.744671236293278e+000	 3.062963806086061e+000	 9.848721614010970e+000
 1.713449782805372e+000	 3.080538076690723e+000	 9.834024421875849e+000
 1.682095994753727e+000	 3.097769853388399e+000	 9.819585477189717e+000
 1.650615376642425e+000	 3.114657907139728e+000	 9.802888313254536e+000
 1.619013440539351e+000	 3.131201124082256e+000	 9.734647658490667e+000
 1.942594624506790e+000	 2.971334064843307e+000	 1.003270242517895e+001
 1.912066991562159e+000	 2.991070012530103e+000	 1.002790998122316e+001
 1.881373152032502e+000	 3.010470903846060e+000	 1.003017624796495e+001
 1.850518540721282e+000	 3.029534804314007e+000	 1.001083723073904e+001
 1.819508618112772e+000	 3.048259895206442e+000	 9.993757655874216e+000
 1.788348867340229e+000	 3.066644473817915e+000	 9.983988878732054e+000
 1.757044791158208e+000	 3.084686953643796e+000	 9.978668469667571e+000
 1.725601908922329e+000	 3.102385864466013e+000	 9.975005310182491e+000
 1.694025753579759e+000	 3.119739852346521e+000	 9.970285494033915e+000
 1.662321868673618e+000	 3.136747679529371e+000	 9.862779659728275e+000
 1.630495805364467e+000	 3.153408224252373e+000	 9.727854010700559e+000
 1.956274868339587e+000	 2.992258952619491e+000	 1.005522343452283e+001
 1.925532252064109e+000	 3.012133885853384e+000	 1.006968655886136e+001
 1.894622258734761e+000	 3.031671403164613e+000	 1.009084746061144e+001
 1.863550361428269e+000	 3.050869556452928e+000	 1.010436154636447e+001
 1.832322059083021e+000	 3.069726514182885e+000	 1.010154050578759e+001
 1.800942873445888e+000	 3.088240561658154e+000	 1.010506853997270e+001
 1.769418346023218e+000	 3.106410101201532e+000	 1.011195830412753e+001
 1.737754035039331e+000	 3.124233652241302e+000	 1.011929654219023e+001
 1.705955512405812e+000	 3.141709851304644e+000	 9.970771213217455e+000
 1.674028360704815e+000	 3.158837451919015e+000	 9.833757741801989e+000
 1.641978170189583e+000	 3.175615324422491e+000	 9.717020125775717e+000
 1.969955112172882e+000	 3.013183840395675e+000	 1.008066838441429e+001
 1.938997512566461e+000	 3.033197759176664e+000	 1.011377416488231e+001
 1.907871365437337e+000	 3.052871902483164e+000	 1.015321567776710e+001
 1.876582182135497e+000	 3.072204308591847e+000	 1.019878390179887e+001
 1.845135500053447e+000	 3.091193133159327e+000	 1.021230386965782e+001
 1.813536879551670e+000	 3.109836649498390e+000	 1.022914596099442e+001
 1.781791900888305e+000	 3.128133248759268e+000	 1.021627680677717e+001
 1.749906161156377e+000	 3.146081440016592e+000	 1.005999441121224e+001
 1.717885271231884e+000	 3.163679850262765e+000	 9.921304654226256e+000
 1.685734852736017e+000	 3.180927224308658e+000	 9.801606969879435e+000
 1.653460535014698e+000	 3.197822424592608e+000	 9.702240117296295e+000
 1.983635356006674e+000	 3.034108728171860e+000	 1.010899479693518e+001
 1.952462773069216e+000	 3.054261632499945e+000	 1.016014466317910e+001
 1.921120472140230e+000	 3.074072401801716e+000	 1.021726692397852e+001
 1.889614002842969e+000	 3.093539060730766e+000	 1.028011271843898e+001
 1.857948941024052e+000	 3.112659752135769e+000	 1.032565592382733e+001
 1.826130885657575e+000	 3.131432737338627e+000	 1.028786821341011e+001
 1.794165455753472e+000	 3.149856396317004e+000	 1.013178969963970e+001
 1.762058287273467e+000	 3.167929227791880e+000	 9.991885181768046e+000
 1.729815030057976e+000	 3.185649849220887e+000	 9.869623613028550e+000
 1.697441344767224e+000	 3.203016996698300e+000	 9.766415150382846e+000
 1.664942899839814e+000	 3.220029524762726e+000	 9.683608665000499e+000
 1.997315599840964e+000	 3.055033615948044e+000	 1.014016445226068e+001
 1.965928033572373e+000	 3.075325505823225e+000	 1.020877379069347e+001
 1.934369578843441e+000	 3.095272901120267e+000	 1.028299071444396e+001
 1.902645823550684e+000	 3.114873812869684e+000	 1.036252667682931e+001
 1.870762381994835e+000	 3.134126371112212e+000	 1.034274638569267e+001
 1.838724891763604e+000	 3.153028825178865e+000	 1.018745640554371e+001
 1.806539010618718e+000	 3.171579543874740e+000	 1.004685450551335e+001
 1.774210413390602e+000	 3.189777015567169e+000	 9.922478679623543e+000
 1.741744788884087e+000	 3.207619848179009e+000	 9.815810210637537e+000
 1.709147836798436e+000	 3.225106769087943e+000	 9.728270991789739e+000
 1.676425264664929e+000	 3.242236624932843e+000	 9.661220995395619e+000
 2.010995843675750e+000	 3.075958503724228e+000	 1.017414324382636e+001
 1.979393294075933e+000	 3.096389379146505e+000	 1.025964102567944e+001
 1.947618685546970e+000	 3.116473400438819e+000	 1.035037993628379e+001
 1.915677644258642e+000	 3.136208565008604e+000	 1.032389063017097e+001
 1.883575822965795e+000	 3.155592990088653e+000	 1.021594786749886e+001
 1.851318897869757e+000	 3.174624913019101e+000	 1.008752296067125e+001
 1.818912565484043e+000	 3.193302691432475e+000	 9.961541877683075e+000
 1.786362539507781e+000	 3.211624803342458e+000	 9.851851936011377e+000
 1.753674547710218e+000	 3.229589847137131e+000	 9.759947786443735e+000
 1.720854328829653e+000	 3.247196541477585e+000	 9.687264073950786e+000
 1.687907629490045e+000	 3.264443725102961e+000	 9.635172863160436e+000
 2.024676087511034e+000	 3.096883391500412e+000	 1.021090103936657e+001
 1.992858554579895e+000	 3.117453252469786e+000	 1.031272946130769e+001
 1.960867792250816e+000	 3.137673899757371e+000	 1.028062822136732e+001
 1.928709464966843e+000	 3.157543317147523e+000	 1.017613327566033e+001
 1.896389263936935e+000	 3.177059609065096e+000	 1.008359445642416e+001
 1.863912903976033e+000	 3.196221000859338e+000	 9.988134285916042e+000
 1.831286120349447e+000	 3.215025838990211e+000	 9.875924327671346e+000
 1.798514665625005e+000	 3.233472591117748e+000	 9.780083498195378e+000
 1.765604306536369e+000	 3.251559846095253e+000	 9.702120857053590e+000
 1.732560820860875e+000	 3.269286313867229e+000	 9.643484818651475e+000
 1.699389994315161e+000	 3.286650825273078e+000	 9.605560533301603e+000
 2.038356331346816e+000	 3.117808279276597e+000	 1.025041154754873e+001
 2.006323815084259e+000	 3.138517125793066e+000	 1.021998323337976e+001
 1.974116898954979e+000	 3.158874399075922e+000	 1.011971386642348e+001
 1.941741285675286e+000	 3.178878069286442e+000	 1.002980617648542e+001
 1.909202704908252e+000	 3.198526228041538e+000	 9.951771267287116e+000
 1.876506910082433e+000	 3.217817088699575e+000	 9.887085023991745e+000
 1.843659675214930e+000	 3.236748986547947e+000	 9.790076162881219e+000
 1.810666791742272e+000	 3.255320378893037e+000	 9.707253378597036e+000
 1.777534065362540e+000	 3.273529845053375e+000	 9.642415076785587e+000
 1.744267312892101e+000	 3.291376086256872e+000	 9.597024461359341e+000
 1.710872359140276e+000	 3.308857925443196e+000	 9.572480764028523e+000
 2.052036575183095e+000	 3.138733167052782e+000	 1.014300131990039e+001
 2.019789075589026e+000	 3.159580999116348e+000	 1.004781182550499e+001
 1.987366005659461e+000	 3.180074898394475e+000	 9.961327124450451e+000
 1.954773106383973e+000	 3.200212821425363e+000	 9.885107343615175e+000
 1.922016145879748e+000	 3.219992847017981e+000	 9.820680825356750e+000
 1.889100916188957e+000	 3.239413176539813e+000	 9.769540670479257e+000
 1.856033230080492e+000	 3.258472134105683e+000	 9.704073426733618e+000
 1.822818917859585e+000	 3.277168166668327e+000	 9.633443005956950e+000
 1.789463824188730e+000	 3.295499844011498e+000	 9.580917199746518e+000
 1.755973804923333e+000	 3.313465858646516e+000	 9.547975024101145e+000
 1.722354723965393e+000	 3.331065025613313e+000	 9.536030790313291e+000
 1.607531075714235e+000	 3.108994023912138e+000	 9.619120688579264e+000
 1.576038286805698e+000	 3.125076530040452e+000	 9.644559107612885e+000
 1.544435997154201e+000	 3.140814774984898e+000	 9.564384113227966e+000
 1.512729684859719e+000	 3.156207993874709e+000	 9.497704971091078e+000
 1.480924824014684e+000	 3.171255534588795e+000	 9.445389061186523e+000
 1.449026881896090e+000	 3.185956857143146e+000	 9.408247229135409e+000
 1.417041316191712e+000	 3.200311532997376e+000	 9.387032422330035e+000
 1.384973572263021e+000	 3.214319244282112e+000	 9.382438465814934e+000
 1.352829080447324e+000	 3.227979782949084e+000	 9.395098979059302e+000
 1.320613253401519e+000	 3.241293049845800e+000	 9.425586434347100e+000
 1.288331483489811e+000	 3.254259053716808e+000	 9.474411357098251e+000
 1.619013440539351e+000	 3.131201124082256e+000	 9.734647658490667e+000
 1.587295703138929e+000	 3.147398505255050e+000	 9.654970807564347e+000
 1.555467682847306e+000	 3.163249166235358e+000	 9.586203945941730e+000
 1.523534896893743e+000	 3.178752336689058e+000	 9.529274725838786e+000
 1.491502858471334e+000	 3.193907359837046e+000	 9.485056747020094e+000
 1.459377073909050e+000	 3.208713691838291e+000	 9.454368008927279e+000
 1.427163039878152e+000	 3.223170901091399e+000	 9.437969501318701e+000
 1.394866240635550e+000	 3.237278667456502e+000	 9.436563935087021e+000
 1.362492145306674e+000	 3.251036781399277e+000	 9.450794614494127e+000
 1.330046205210258e+000	 3.264445143058997e+000	 9.481244451639524e+000
 1.297533851227396e+000	 3.277503761242674e+000	 9.528435123560207e+000
 1.630495805364467e+000	 3.153408224252373e+000	 9.727854010700559e+000
 1.598553119472159e+000	 3.169720480469653e+000	 9.660246779131089e+000
 1.566499368540411e+000	 3.185683557485841e+000	 9.601928443931458e+000
 1.534340108927768e+000	 3.201296679503453e+000	 9.553832756765583e+000
 1.502080892927984e+000	 3.216559185085382e+000	 9.516840353540149e+000
 1.469727265922010e+000	 3.231470526533562e+000	 9.491777159951186e+000
 1.437284763564592e+000	 3.246030269185602e+000	 9.479412935949869e+000
 1.404758909008079e+000	 3.260238090631141e+000	 9.480459960894406e+000
 1.372155210166024e+000	 3.274093779849795e+000	 9.495571860722627e+000
 1.339479157018998e+000	 3.287597236272605e+000	 9.525342578051339e+000
 1.306736218964982e+000	 3.300748468769045e+000	 9.570305485684662e+000
 1.641978170189583e+000	 3.175615324422491e+000	 9.717020125775717e+000
 1.609810535805390e+000	 3.192042455684259e+000	 9.660492018564113e+000
 1.577531054233516e+000	 3.208117948736343e+000	 9.611673488743497e+000
 1.545145320961793e+000	 3.223841022317894e+000	 9.571505249257124e+000
 1.512658927384634e+000	 3.239211010333797e+000	 9.540875791087622e+000
 1.480077457934971e+000	 3.254227361228961e+000	 9.520619741457571e+000
 1.447406487251032e+000	 3.268889637279991e+000	 9.511516361433865e+000
 1.414651577380608e+000	 3.283197513806030e+000	 9.514288184803240e+000
 1.381818275025374e+000	 3.297150778300636e+000	 9.529599799649239e+000
 1.348912108827738e+000	 3.310749329486621e+000	 9.558056773626459e+000
 1.315938586702568e+000	 3.323993176295921e+000	 9.600204723498804e+000
 1.653460535014698e+000	 3.197822424592608e+000	 9.702240117296295e+000
 1.621067952138621e+000	 3.214364430898872e+000	 9.655811622762364e+000
 1.588562739926621e+000	 3.230552339986867e+000	 9.615554595399907e+000
 1.555950532995817e+000	 3.246385365132382e+000	 9.582417573684209e+000
 1.523236961841284e+000	 3.261862835582296e+000	 9.557297725290948e+000
 1.490427649947932e+000	 3.276984195924488e+000	 9.541039157178551e+000
 1.457528210937472e+000	 3.291749005374561e+000	 9.534431365634966e+000
 1.424544245753136e+000	 3.306156936981168e+000	 9.538207828257907e+000
 1.391481339884724e+000	 3.320207776751802e+000	 9.553044739394316e+000
 1.358345060636478e+000	 3.333901422701050e+000	 9.579559890125220e+000
 1.325140954440153e+000	 3.347237883823303e+000	 9.618311693446465e+000
 1.664942899839814e+000	 3.220029524762726e+000	 9.683608665000499e+000
 1.632325368471851e+000	 3.236686406113489e+000	 9.646310785802164e+000
 1.599594425619725e+000	 3.252986731237410e+000	 9.613686925037245e+000
 1.566755745029842e+000	 3.268929707946914e+000	 9.586694313506659e+000
 1.533814996297935e+000	 3.284514660830876e+000	 9.566239619987181e+000
 1.500777841960892e+000	 3.299741030620142e+000	 9.553177212414752e+000
 1.467649934623912e+000	 3.314608373469317e+000	 9.548307559669542e+000
 1.434436914125665e+000	 3.329116360156554e+000	 9.552375776033443e+000
 1.401144404744074e+000	 3.343264775203294e+000	 9.566070309941948e+000
 1.367778012445217e+000	 3.357053515915887e+000	 9.590021778206578e+000
 1.334343322177739e+000	 3.370482591351189e+000	 9.624801946442737e+000
 1.676425264664929e+000	 3.242236624932843e+000	 9.661220995395619e+000
 1.643582784805082e+000	 3.259008381328112e+000	 9.632094795609174e+000
 1.610626111312830e+000	 3.275421122487975e+000	 9.606185297025856e+000
 1.577560957063866e+000	 3.291474050761495e+000	 9.584459292222379e+000
 1.544393030754585e+000	 3.307166486079536e+000	 9.567833778379194e+000
 1.511128033973852e+000	 3.322497865315922e+000	 9.557174168776099e+000
 1.477771658310352e+000	 3.337467741564254e+000	 9.553292645602893e+000
 1.444329582498193e+000	 3.352075783332190e+000	 9.556946656258527e+000
 1.410807469603424e+000	 3.366321773655109e+000	 9.568837554856851e+000
 1.377210964253957e+000	 3.380205609131133e+000	 9.589609390205546e+000
 1.343545689915324e+000	 3.393727298879581e+000	 9.619847841076988e+000
 1.687907629490045e+000	 3.264443725102961e+000	 9.635172863160436e+000
 1.654840201138312e+000	 3.281330356542740e+000	 9.613269030766221e+000
 1.621657797005935e+000	 3.297855513738559e+000	 9.593164200594671e+000
 1.588366169097891e+000	 3.314018393576120e+000	 9.575835599216385e+000
 1.554971065211234e+000	 3.329818311328278e+000	 9.562211382513103e+000
 1.521478225986813e+000	 3.345254700011833e+000	 9.553168796688311e+000
 1.487893381996792e+000	 3.360327109659375e+000	 9.549532481382915e+000
 1.454222250870722e+000	 3.375035206508074e+000	 9.552072917172033e+000
 1.420470534462774e+000	 3.389378772107250e+000	 9.561505019257883e+000
 1.386643916062697e+000	 3.403357702346791e+000	 9.578486878715644e+000
 1.352748057652909e+000	 3.416972006408478e+000	 9.603618652195403e+000
 1.699389994315161e+000	 3.286650825273078e+000	 9.605560533301603e+000
 1.666097617471543e+000	 3.303652331757373e+000	 9.589938957450654e+000
 1.632689482699040e+000	 3.320289904989165e+000	 9.574737805984558e+000
 1.599171381131915e+000	 3.336562736390792e+000	 9.560945614561916e+000
 1.565549099667884e+000	 3.352470136577104e+000	 9.549502531155099e+000
 1.531828417999774e+000	 3.368011534707868e+000	 9.541298425770732e+000
 1.498015105683233e+000	 3.383186477754680e+000	 9.537171143141437e+000
 1.464114919243251e+000	 3.397994629684207e+000	 9.537904900768121e+000
 1.430133599322125e+000	 3.412435770559716e+000	 9.544228834224958e+000
 1.396076867871437e+000	 3.426509795562858e+000	 9.556815691174746e+000
 1.361950425390495e+000	 3.440216713937880e+000	 9.576280675081476e+000
 1.710872359140276e+000	 3.308857925443196e+000	 9.572480764028523e+000
 1.677355033804773e+000	 3.325974306972011e+000	 9.562210126494824e+000
 1.643721168392145e+000	 3.342724296239791e+000	 9.551019975152673e+000
 1.609976593165940e+000	 3.359107079205510e+000	 9.539911032822849e+000
 1.576127134124535e+000	 3.375121961826010e+000	 9.529836276143168e+000
 1.542178610012734e+000	 3.390768369404033e+000	 9.521698993185567e+000
 1.508136829369672e+000	 3.406045845850167e+000	 9.516350984986698e+000
 1.474007587615779e+000	 3.420954052860590e+000	 9.514590913475457e+000
 1.439796664181474e+000	 3.435492769012503e+000	 9.517162797807092e+000
 1.405509819680177e+000	 3.449661888779335e+000	 9.524754660642131e+000
 1.371152793128081e+000	 3.463461421467788e+000	 9.537997325441321e+000
 1.722354723965393e+000	 3.331065025613313e+000	 9.536030790313291e+000
 1.688612450138004e+000	 3.348296282186655e+000	 9.530188170564273e+000
 1.654752854085250e+000	 3.365158687490438e+000	 9.522124272048529e+000
 1.620781805199965e+000	 3.381651422020275e+000	 9.512852885904001e+000
 1.586705168581185e+000	 3.397773787075000e+000	 9.503340657284733e+000
 1.552528802025695e+000	 3.413525204100325e+000	 9.494505090053091e+000
 1.518258553056114e+000	 3.428905213945840e+000	 9.487212696404034e+000
 1.483900255988309e+000	 3.443913476037222e+000	 9.482277294009448e+000
 1.449459729040825e+000	 3.458549767465619e+000	 9.480458452790089e+000
 1.414942771488917e+000	 3.472813981996224e+000	 9.482460092944422e+000
 1.380355160865667e+000	 3.486706128998200e+000	 9.488929235389602e+000
 1.288331483489811e+000	 3.254259053716808e+000	 9.474411357098251e+000
 1.255989140217728e+000	 3.266877910132902e+000	 9.368804497370897e+000
 1.223591567714392e+000	 3.279149840352444e+000	 9.246606462779024e+000
 1.191144082264780e+000	 3.291075170115786e+000	 9.143955058425018e+000
 1.158651969894471e+000	 3.302654328373525e+000	 9.062842178523313e+000
 1.126120484008404e+000	 3.313887845952988e+000	 8.998895961994059e+000
 1.093554843085373e+000	 3.324776354164622e+000	 8.947954109223996e+000
 1.060960228429861e+000	 3.335320583350722e+000	 8.906067804898498e+000
 1.028341781982668e+000	 3.345521361378934e+000	 8.869505098072184e+000
 9.957046041917382e-001	 3.355379612083005e+000	 8.834753743803994e+000
 9.630537519444204e-001	 3.364896353653301e+000	 8.798523512062699e+000
 1.297533851227396e+000	 3.277503761242674e+000	 9.528435123560207e+000
 1.264960491217280e+000	 3.290212752346754e+000	 9.411500572720721e+000
 1.232331507481436e+000	 3.302572339210159e+000	 9.287678194941865e+000
 1.199652254278306e+000	 3.314582849899959e+000	 9.176004682123276e+000
 1.166928055390793e+000	 3.326244716430685e+000	 9.087255670159435e+000
 1.134164201748157e+000	 3.337558473421284e+000	 9.016972651342570e+000
 1.101365949104042e+000	 3.348524756691562e+000	 8.960909560699733e+000
 1.068538515772246e+000	 3.359144301800546e+000	 8.915036807539138e+000
 1.035687080421720e+000	 3.369417942529221e+000	 8.875544754266775e+000
 1.002816779932178e+000	 3.379346609310144e+000	 8.838846646813828e+000
 9.699327073115912e-001	 3.388931327606469e+000	 8.801581002423355e+000
 1.306736218964982e+000	 3.300748468769045e+000	 9.570305485684662e+000
 1.273931842216838e+000	 3.313547594561200e+000	 9.443186902502303e+000
 1.241071447248501e+000	 3.325994838068540e+000	 9.318549767287234e+000
 1.208160426291877e+000	 3.338090529684847e+000	 9.200063998179118e+000
 1.175204140887197e+000	 3.349835104488588e+000	 9.105797491420328e+000
 1.142207919488038e+000	 3.361229100890329e+000	 9.031202847890304e+000
 1.109177055122894e+000	 3.372273159219242e+000	 8.971948123967247e+000
 1.076116803114882e+000	 3.382968020251078e+000	 8.923920972940657e+000
 1.043032378861098e+000	 3.393314523680163e+000	 8.883232223483606e+000
 1.009928955673028e+000	 3.403313606537868e+000	 8.846218899541809e+000
 9.768116626792683e-001	 3.412966301560131e+000	 8.809446687434324e+000
 1.315938586702568e+000	 3.323993176295921e+000	 9.600204723498804e+000
 1.282903193216400e+000	 3.336882436776241e+000	 9.464016105833466e+000
 1.249811387015587e+000	 3.349417336927583e+000	 9.338999845574794e+000
 1.216668598305496e+000	 3.361598209470447e+000	 9.215909023364771e+000
 1.183480226383683e+000	 3.373425492547229e+000	 9.118241327792052e+000
 1.150251637228048e+000	 3.384899728360124e+000	 9.041358208905168e+000
 1.116988161141931e+000	 3.396021561747658e+000	 8.980839716847099e+000
 1.083695090457767e+000	 3.406791738702315e+000	 8.932488754302289e+000
 1.050377677300801e+000	 3.417211104831760e+000	 8.892334755547859e+000
 1.017041131414290e+000	 3.427280603766174e+000	 8.856636796486921e+000
 9.836906180474517e-001	 3.437001275514286e+000	 8.821886141507909e+000
 1.325140954440153e+000	 3.347237883823303e+000	 9.618311693446465e+000
 1.291874544215968e+000	 3.360217278991877e+000	 9.474138066256815e+000
 1.258551326782692e+000	 3.372839835787290e+000	 9.344642474487968e+000
 1.225176770319160e+000	 3.385105889256760e+000	 9.223314342933422e+000
 1.191756311880251e+000	 3.397015880606614e+000	 9.124360049017744e+000
 1.158295354968185e+000	 3.408570355830670e+000	 9.047210167365144e+000
 1.124799267161153e+000	 3.419769964276813e+000	 8.987354599904030e+000
 1.091273377800902e+000	 3.430615457154258e+000	 8.940509490101841e+000
 1.057722975740830e+000	 3.441107685984012e+000	 8.902621003533046e+000
 1.024153307155962e+000	 3.451247600995065e+000	 8.869868528751987e+000
 9.905695734161415e-001	 3.461036249468935e+000	 8.838667304367309e+000
 1.334343322177739e+000	 3.370482591351189e+000	 9.624801946442737e+000
 1.300845895215541e+000	 3.383552121208107e+000	 9.473700026069878e+000
 1.267291266549819e+000	 3.396262334647662e+000	 9.340655742602761e+000
 1.233684942332871e+000	 3.408613569043786e+000	 9.222053159981995e+000
 1.200032397376902e+000	 3.420606268666740e+000	 9.123925737226520e+000
 1.166339072708451e+000	 3.432240983301965e+000	 9.048529939692447e+000
 1.132610373180557e+000	 3.443518366806705e+000	 8.991263364628154e+000
 1.098851665144288e+000	 3.454439175606909e+000	 8.947753373568826e+000
 1.065068274181185e+000	 3.465004267136919e+000	 8.913860975373103e+000
 1.031265482898046e+000	 3.475214598224541e+000	 8.885684118643590e+000
 9.974485287853375e-001	 3.485071223424078e+000	 8.859560399484145e+000
 1.343545689915324e+000	 3.393727298879581e+000	 9.619847841076988e+000
 1.309817246215119e+000	 3.406886963424932e+000	 9.462846676778744e+000
 1.276031206316967e+000	 3.419684833508697e+000	 9.327261475261850e+000
 1.242193114346628e+000	 3.432121248831524e+000	 9.211897342785180e+000
 1.208308482873634e+000	 3.444196656727606e+000	 9.116709713906609e+000
 1.174382790448845e+000	 3.455911610774008e+000	 9.045088533169894e+000
 1.140421479200146e+000	 3.467266769337335e+000	 8.992336922101927e+000
 1.106429952487922e+000	 3.478262894060265e+000	 8.953991423412115e+000
 1.072413572621865e+000	 3.488900848290479e+000	 8.925825987463053e+000
 1.038377658640541e+000	 3.499181595454599e+000	 8.903855356959502e+000
 1.004327484155040e+000	 3.509106197379714e+000	 8.884337855867875e+000
 1.352748057652909e+000	 3.416972006408478e+000	 9.603618652195403e+000
 1.318788597214702e+000	 3.430221805642352e+000	 9.441720245859644e+000
 1.284771146084135e+000	 3.443107332370397e+000	 9.304575766551022e+000
 1.250701286360432e+000	 3.455628928619975e+000	 9.192524971015054e+000
 1.216584568370449e+000	 3.467787044789213e+000	 9.102482565777539e+000
 1.182426508189367e+000	 3.479582238246800e+000	 9.036656753054375e+000
 1.148232585219919e+000	 3.491015171868703e+000	 8.990346492129650e+000
 1.114008239831808e+000	 3.502086612514327e+000	 8.958995455742432e+000
 1.079758871062871e+000	 3.512797429444697e+000	 8.938288620153566e+000
 1.045489834383447e+000	 3.523148592685243e+000	 8.924155742836067e+000
 1.011206439525248e+000	 3.533141171335845e+000	 8.912774233047522e+000
 1.361950425390495e+000	 3.440216713937880e+000	 9.576280675081476e+000
 1.327759948214291e+000	 3.453556647860368e+000	 9.410460580003203e+000
 1.293511085851323e+000	 3.466529831232760e+000	 9.272712907713661e+000
 1.259209458374282e+000	 3.479136608409139e+000	 9.163424302616020e+000
 1.224860653867346e+000	 3.491377432851563e+000	 9.081014169613349e+000
 1.190470225930017e+000	 3.503252865720344e+000	 9.023005209402172e+000
 1.156043691239876e+000	 3.514763574400809e+000	 8.985063592807663e+000
 1.121586527175943e+000	 3.525910330969096e+000	 8.962538057133139e+000
 1.087104169504203e+000	 3.536694010599568e+000	 8.951022675049700e+000
 1.052602010126764e+000	 3.547115589916470e+000	 8.946360426033925e+000
 1.018085394895963e+000	 3.557176145292468e+000	 8.944646149094634e+000
 1.371152793128081e+000	 3.463461421467788e+000	 9.537997325441321e+000
 1.336731299213884e+000	 3.476891490078979e+000	 9.369205225006592e+000
 1.302251025618533e+000	 3.489952330095787e+000	 9.231785447648766e+000
 1.267717630388178e+000	 3.502644288199015e+000	 9.126171745581944e+000
 1.233136739364325e+000	 3.514967820914653e+000	 9.052073716066269e+000
 1.198513943670795e+000	 3.526923493194636e+000	 9.003904323619167e+000
 1.163854797260017e+000	 3.538511976933652e+000	 8.976260030514561e+000
 1.129164814520327e+000	 3.549734049424570e+000	 8.964392558765667e+000
 1.094449467945860e+000	 3.560590591755095e+000	 8.963803134029202e+000
 1.059714185870493e+000	 3.571082587148281e+000	 8.970246151547988e+000
 1.024964350267184e+000	 3.581211119249587e+000	 8.979732211544715e+000
 1.380355160865667e+000	 3.486706128998200e+000	 9.488929235389602e+000
 1.345702650213483e+000	 3.500226332298184e+000	 9.318089502469990e+000
 1.310990965385763e+000	 3.513374828959480e+000	 9.181904250989160e+000
 1.276225802402121e+000	 3.526151967989605e+000	 9.080854570106023e+000
 1.241412824861386e+000	 3.538558208978484e+000	 9.015429732537470e+000
 1.206557661411701e+000	 3.550594120669679e+000	 8.979124334749342e+000
 1.171665903280343e+000	 3.562260379467235e+000	 8.963707890301803e+000
 1.136743101864962e+000	 3.573557767880753e+000	 8.964333011609377e+000
 1.101794766387843e+000	 3.584487172911278e+000	 8.976406119900181e+000
 1.066826361614632e+000	 3.595049584380677e+000	 8.995591206433012e+000
 1.031843305638912e+000	 3.605246093207198e+000	 9.017812951081668e+000
 9.630537519444204e-001	 3.364896353653301e+000	 8.798523512062699e+000
 9.303942365624410e-001	 3.374072696980329e+000	 8.639176990007854e+000
 8.977310218600831e-001	 3.382909843951724e+000	 8.510611463686841e+000
 8.650690222672622e-001	 3.391409085706569e+000	 8.410413007858958e+000
 8.324131010182233e-001	 3.399571800851111e+000	 8.336358162226462e+000
 7.997680684061285e-001	 3.407399453636346e+000	 8.286414146968587e+000
 7.671386801043791e-001	 3.414893592100732e+000	 8.258738639944417e+000
 7.345296355551679e-001	 3.422055846180586e+000	 8.251679127732803e+000
 7.019455764256671e-001	 3.428887925790747e+000	 8.263771843515233e+000
 6.693910851321567e-001	 3.435391618878011e+000	 8.293740305577899e+000
 6.368706834322875e-001	 3.441568789449906e+000	 8.340493470911847e+000
 9.699327073115912e-001	 3.388931327606469e+000	 8.801581002423355e+000
 9.370399096768675e-001	 3.398173216243544e+000	 8.653379342521559e+000
 9.041433862981303e-001	 3.407073485693827e+000	 8.533875761130251e+000
 8.712480867083653e-001	 3.415633436318824e+000	 8.440590304239985e+000
 8.383589088792042e-001	 3.423854456571968e+000	 8.371239434694184e+000
 8.054806974630456e-001	 3.431738021163193e+000	 8.323736239067644e+000
 7.726182421023856e-001	 3.439285689188370e+000	 8.296190184885852e+000
 7.397762758068605e-001	 3.446499102226226e+000	 8.286906440675601e+000
 7.069594733984072e-001	 3.453379982405272e+000	 8.294384772194533e+000
 6.741724500248497e-001	 3.459930130443356e+000	 8.317318028977104e+000
 6.414197597421077e-001	 3.466151423662343e+000	 8.354590236052301e+000
 9.768116626792683e-001	 3.412966301560131e+000	 8.809446687434324e+000
 9.436855827918899e-001	 3.422273735507152e+000	 8.673040426590859e+000
 9.105557507368421e-001	 3.431237127436225e+000	 8.563185649532274e+000
 8.774271511501816e-001	 3.439857786931272e+000	 8.477335191932879e+000
 8.443047167409266e-001	 3.448137112292918e+000	 8.413144367825966e+000
 8.111933265207117e-001	 3.456076588690030e+000	 8.368471167541257e+000
 7.780978041011291e-001	 3.463677786275902e+000	 8.341375994468464e+000
 7.450229160592582e-001	 3.470942358271658e+000	 8.330120953464359e+000
 7.119733703718011e-001	 3.477872039019489e+000	 8.333168704599281e+000
 6.789538149181261e-001	 3.484468642008292e+000	 8.349180896746624e+000
 6.459688360524208e-001	 3.490734057874272e+000	 8.377016196254912e+000
 9.836906180474517e-001	 3.437001275514286e+000	 8.821886141507909e+000
 9.503312559075080e-001	 3.446374254771155e+000	 8.697941560764841e+000
 9.169681151762193e-001	 3.455400769178916e+000	 8.598337526204958e+000
 8.836062155927114e-001	 3.464082137543914e+000	 8.520458470223787e+000
 8.502505246033907e-001	 3.472419768013962e+000	 8.461897475619455e+000
 8.169059555791279e-001	 3.480415156216863e+000	 8.420456464301781e+000
 7.835773661006105e-001	 3.488069883363327e+000	 8.394145913123889e+000
 7.502695563123619e-001	 3.495385614316883e+000	 8.381184109986593e+000
 7.169872673458493e-001	 3.502364095633400e+000	 8.379995964265239e+000
 6.837351798119852e-001	 3.509007153572822e+000	 8.389211386435092e+000
 6.505179123632263e-001	 3.515316692085695e+000	 8.407663252524648e+000
 9.905695734161415e-001	 3.461036249468935e+000	 8.838667304367309e+000
 9.569769290237222e-001	 3.470474774035552e+000	 8.727866421792863e+000
 9.233804796162610e-001	 3.479564410921900e+000	 8.639130139217029e+000
 8.897852800359546e-001	 3.488306488156749e+000	 8.569773281384565e+000
 8.561963324665962e-001	 3.496702423735099e+000	 8.517325606965734e+000
 8.226185846382935e-001	 3.504753723743688e+000	 8.479531987747352e+000
 7.890569281008294e-001	 3.512461980450646e+000	 8.454352103052580e+000
 7.555161965661713e-001	 3.519828870361902e+000	 8.439959662878517e+000
 7.220011643205513e-001	 3.526856152247003e+000	 8.434741174160127e+000
 6.885165447064278e-001	 3.533545665136944e+000	 8.437294265415821e+000
 6.550669886745246e-001	 3.539899326296611e+000	 8.446425585800057e+000
 9.974485287853375e-001	 3.485071223424078e+000	 8.859560399484145e+000
 9.636226021405323e-001	 3.494575293300343e+000	 8.762600963307346e+000
 9.297928440569677e-001	 3.503728052665179e+000	 8.685364506333306e+000
 8.959643444799109e-001	 3.512530838769778e+000	 8.625095029880251e+000
 8.621421403305434e-001	 3.520985079456330e+000	 8.579257865135860e+000
 8.283312136982085e-001	 3.529092291270506e+000	 8.545539842538243e+000
 7.945364901017857e-001	 3.536854077537856e+000	 8.521848964300753e+000
 7.607628368206859e-001	 3.544272126406711e+000	 8.506313593913056e+000
 7.270150612959075e-001	 3.551348208860298e+000	 8.497281177392775e+000
 6.932979096014529e-001	 3.558084176700660e+000	 8.493316511927429e+000
 6.596160649863155e-001	 3.564481960507018e+000	 8.493199578334913e+000
 1.004327484155040e+000	 3.509106197379714e+000	 8.884337855867875e+000
 9.702682752579384e-001	 3.518675812565526e+000	 8.801933337848269e+000
 9.362052084983391e-001	 3.527891694408750e+000	 8.736843837285338e+000
 9.021434089245810e-001	 3.536755189383001e+000	 8.686241304896669e+000
 8.680879481952318e-001	 3.545267735177653e+000	 8.647525530575944e+000
 8.340438427588731e-001	 3.553430858797317e+000	 8.618324302670089e+000
 8.000160521034795e-001	 3.561246174624960e+000	 8.596493058121794e+000
 7.660094770759065e-001	 3.568715382451315e+000	 8.580114037659596e+000
 7.320289582719179e-001	 3.575840265473287e+000	 8.567494961180984e+000
 6.980792744970613e-001	 3.582622688263967e+000	 8.557167239359156e+000
 6.641651412985992e-001	 3.589064594716919e+000	 8.547883738310766e+000
 1.011206439525248e+000	 3.533141171335845e+000	 8.912774233047522e+000
 9.769139483759403e-001	 3.542776331831105e+000	 8.845653822070419e+000
 9.426175729403755e-001	 3.552055336152616e+000	 8.793373459214799e+000
 9.083224733699642e-001	 3.560979539996417e+000	 8.753031806030174e+000
 8.740337560606618e-001	 3.569550390899069e+000	 8.721961986853676e+000
 8.397564718202875e-001	 3.577769426324121e+000	 8.697731737686976e+000
 8.054956141059108e-001	 3.585638271711956e+000	 8.678143033465812e+000
 7.712561173318328e-001	 3.593158638495712e+000	 8.661231208259524e+000
 7.370428552485824e-001	 3.600332322085968e+000	 8.645263583922597e+000
 7.028606393932527e-001	 3.607161199826867e+000	 8.628737623626789e+000
 6.687142176113755e-001	 3.613647228926312e+000	 8.610378627526361e+000
 1.018085394895963e+000	 3.557176145292468e+000	 8.944646149094634e+000
 9.835596214945382e-001	 3.566876851097076e+000	 8.893554744982749e+000
 9.490299373830770e-001	 3.576218977896776e+000	 8.854760745139281e+000
 9.145015378160609e-001	 3.585203890610027e+000	 8.825288271990036e+000
 8.799795639268335e-001	 3.593833046620580e+000	 8.802402649606838e+000
 8.454691008824512e-001	 3.602107993850920e+000	 8.783610541885784e+000
 8.109751761090794e-001	 3.610030368798847e+000	 8.766659556449403e+000
 7.765027575884643e-001	 3.617601894539902e+000	 8.749537329170492e+000
 7.420567522259008e-001	 3.624824378698343e+000	 8.730470105223199e+000
 7.076420042900276e-001	 3.631699711389361e+000	 8.707920833492661e+000
 6.732632939246444e-001	 3.638229863135198e+000	 8.680586792018753e+000
 1.024964350267184e+000	 3.581211119249587e+000	 8.979732211544715e+000
 9.902052946137315e-001	 3.590977370363441e+000	 8.945430419077407e+000
 9.554423018264432e-001	 3.600382619641227e+000	 8.920815045298724e+000
 9.206806022628710e-001	 3.609428241223829e+000	 8.902834412171803e+000
 8.859253717937469e-001	 3.618115702342183e+000	 8.888684898353102e+000
 8.511817299453643e-001	 3.626446561377711e+000	 8.875811066371631e+000
 8.164547381129858e-001	 3.634422465885629e+000	 8.861905242665397e+000
 7.817493978458019e-001	 3.642045150583884e+000	 8.844906565739677e+000
 7.470706492038737e-001	 3.649316435310409e+000	 8.822999518741513e+000
 7.124233691873848e-001	 3.656238222951445e+000	 8.794611963691613e+000
 6.778123702384060e-001	 3.662812497343578e+000	 8.758412695478127e+000
 1.031843305638912e+000	 3.605246093207198e+000	 9.017812951081668e+000
 9.968509677335214e-001	 3.615077889630200e+000	 9.001077074213658e+000
 9.618546662704745e-001	 3.624546261385974e+000	 8.991347621248091e+000
 9.268596667103948e-001	 3.633652591837827e+000	 8.985495840967712e+000
 8.918711796614018e-001	 3.642398358063881e+000	 8.980648011027302e+000
 8.568943590090273e-001	 3.650785128904496e+000	 8.974185553830784e+000
 8.219343001176299e-001	 3.658814562972306e+000	 8.963744592200381e+000
 7.869960381038450e-001	 3.666488406627660e+000	 8.947214960474099e+000
 7.520845461825005e-001	 3.673808491922170e+000	 8.922738687720935e+000
 7.172047340853255e-001	 3.680776734513124e+000	 8.888707970731909e+000
 6.823614465526605e-001	 3.687395131551449e+000	 8.843762655325998e+000
 6.368706834322875e-001	 3.441568789449906e+000	 8.340493470911847e+000
 6.043888310856980e-001	 3.447421375580705e+000	 8.378205311112270e+000
 5.719499245828054e-001	 3.452951387398861e+000	 8.357613948660390e+000
 5.395582959415579e-001	 3.458160905057221e+000	 8.346130237834158e+000
 5.072182115723980e-001	 3.463052076687238e+000	 8.341400429013856e+000
 4.749338712109144e-001	 3.467627116341299e+000	 8.341465005426553e+000
 4.427094069178871e-001	 3.471888301924911e+000	 8.344753284523797e+000
 4.105488821462863e-001	 3.475837973121045e+000	 8.350077323981122e+000
 3.784562908747207e-001	 3.479478529308901e+000	 8.356625166822761e+000
 3.464355568067561e-001	 3.482812427479280e+000	 8.363953460836806e+000
 3.144905326354376e-001	 3.485842180148714e+000	 8.371979487976084e+000
 6.414197597421077e-001	 3.466151423662343e+000	 8.354590236052301e+000
 6.087058941651441e-001	 3.472045813979897e+000	 8.400480585948774e+000
 5.760352811877797e-001	 3.477615325882537e+000	 8.366023020565635e+000
 5.434122837709488e-001	 3.482862054381337e+000	 8.342787307103269e+000
 5.108411987994552e-001	 3.487788162951553e+000	 8.328323910433550e+000
 4.783262560070001e-001	 3.492395881460230e+000	 8.320583696640099e+000
 4.458716169690847e-001	 3.496687504083629e+000	 8.317912526996668e+000
 4.134813741633441e-001	 3.500665387216742e+000	 8.319045141863333e+000
 3.811595500968069e-001	 3.504331947377193e+000	 8.323098369565527e+000
 3.489100964994940e-001	 3.507689659105719e+000	 8.329563696002841e+000
 3.167368935836879e-001	 3.510741052865397e+000	 8.338299231281692e+000
 6.459688360524208e-001	 3.490734057874272e+000	 8.377016196254912e+000
 6.130229572449885e-001	 3.496670252378494e+000	 8.431326957349093e+000
 5.801206377930676e-001	 3.502279264365547e+000	 8.385020164454021e+000
 5.472662716005791e-001	 3.507563203704741e+000	 8.351807354616483e+000
 5.144641860266878e-001	 3.512524249215126e+000	 8.329142533106200e+000
 4.817186408032074e-001	 3.517164646578412e+000	 8.314886536642717e+000
 4.490338270203598e-001	 3.521486706241609e+000	 8.307301615889390e+000
 4.164138661804455e-001	 3.525492801311734e+000	 8.305045292845254e+000
 3.838628093189125e-001	 3.529185365444834e+000	 8.307163528779102e+000
 3.513846361922368e-001	 3.532566890731576e+000	 8.313083239050622e+000
 3.189832545319382e-001	 3.535639925581587e+000	 8.322604191727800e+000
 6.505179123632263e-001	 3.515316692085695e+000	 8.407663252524648e+000
 6.173400203252304e-001	 3.521294690776494e+000	 8.470284665146956e+000
 5.842059943986689e-001	 3.526943202847890e+000	 8.414159444570252e+000
 5.511202594304484e-001	 3.532264353027429e+000	 8.372758933886635e+000
 5.180871732540955e-001	 3.537260335477958e+000	 8.343439977541580e+000
 4.851110255995359e-001	 3.541933411695844e+000	 8.323972944374637e+000
 4.521960370717122e-001	 3.546285908398853e+000	 8.312536294551357e+000
 4.193463581975900e-001	 3.550320215406021e+000	 8.307710406056174e+000
 3.865660685410371e-001	 3.554038783511820e+000	 8.308470696985635e+000
 3.538591758849843e-001	 3.557444122356851e+000	 8.314180080602425e+000
 3.212296154801886e-001	 3.560538798297287e+000	 8.324580790691563e+000
 6.550669886745246e-001	 3.539899326296611e+000	 8.446425585800057e+000
 6.216570834058705e-001	 3.545919129173898e+000	 8.516896807263237e+000
 5.882913510045833e-001	 3.551607141329567e+000	 8.452998301475798e+000
 5.549742472605570e-001	 3.556965502349404e+000	 8.405214433372517e+000
 5.217101604816784e-001	 3.561996421740048e+000	 8.370804158577155e+000
 4.885034103959856e-001	 3.566702176812526e+000	 8.347446913619773e+000
 4.553582471231421e-001	 3.571085110555359e+000	 8.333237163235669e+000
 4.222788502147781e-001	 3.575147629499604e+000	 8.326678191569416e+000
 3.892693277631811e-001	 3.578892201578153e+000	 8.326675174134683e+000
 3.563337155777367e-001	 3.582321353981544e+000	 8.332527568122847e+000
 3.234759764284389e-001	 3.585437671012494e+000	 8.343920859251162e+000
 6.596160649863155e-001	 3.564481960507018e+000	 8.493199578334913e+000
 6.259741464869081e-001	 3.570543567570702e+000	 8.565853753872732e+000
 5.923767076108115e-001	 3.576271079810580e+000	 8.501097435624224e+000
 5.588282350909050e-001	 3.581666651670666e+000	 8.448749944239260e+000
 5.253331477094367e-001	 3.586732508001397e+000	 8.410827079366754e+000
 4.918957951925567e-001	 3.591470941928460e+000	 8.384916855252513e+000
 4.585204571746493e-001	 3.595884312711128e+000	 8.369029511619631e+000
 4.252113422320096e-001	 3.599975043592481e+000	 8.361591265197369e+000
 3.919725869853442e-001	 3.603745619643832e+000	 8.361437326657660e+000
 3.588082552704939e-001	 3.607198585605653e+000	 8.367804221200183e+000
 3.257223373766892e-001	 3.610336543727210e+000	 8.380321451644260e+000
 6.641651412985992e-001	 3.589064594716919e+000	 8.547883738310766e+000
 6.302912095683438e-001	 3.595168005966912e+000	 8.606236591857796e+000
 5.964620642173529e-001	 3.600935018290926e+000	 8.558020695720945e+000
 5.626822229214921e-001	 3.606367800991212e+000	 8.502945133553427e+000
 5.289561349373702e-001	 3.611468594262003e+000	 8.463104691369717e+000
 4.952881799892492e-001	 3.616239707043643e+000	 8.435995445967601e+000
 4.616826672262341e-001	 3.620683514866161e+000	 8.419543158208034e+000
 4.281438342492845e-001	 3.624802457684652e+000	 8.412096980486725e+000
 3.946758462075265e-001	 3.628599037708859e+000	 8.412422413958078e+000
 3.612827949632559e-001	 3.632075817229181e+000	 8.419693554418849e+000
 3.279686983249396e-001	 3.635235416441434e+000	 8.433484666392825e+000
 6.687142176113755e-001	 3.613647228926312e+000	 8.610378627526361e+000
 6.346082726501774e-001	 3.619792444362524e+000	 8.655356490240735e+000
 6.005474208242082e-001	 3.625598956770607e+000	 8.623334971639935e+000
 5.665362107523185e-001	 3.631068950311045e+000	 8.567383122653615e+000
 5.325791221654787e-001	 3.636204680521868e+000	 8.527236760054805e+000
 4.986805647860629e-001	 3.641008472158078e+000	 8.500299483184064e+000
 4.648448772778961e-001	 3.645482717020455e+000	 8.484412296291447e+000
 4.310763262666027e-001	 3.649629871776120e+000	 8.477847267571034e+000
 3.973791054297283e-001	 3.653452455773232e+000	 8.479300421983991e+000
 3.637573346560226e-001	 3.656953048852127e+000	 8.487883907461459e+000
 3.302150592731899e-001	 3.660134289155166e+000	 8.503117474728761e+000
 6.732632939246444e-001	 3.638229863135198e+000	 8.680586792018753e+000
 6.389253357324087e-001	 3.644416882757539e+000	 8.713106203745491e+000
 6.046327774313762e-001	 3.650262895249622e+000	 8.696610091681453e+000
 5.703901985833841e-001	 3.655770099630165e+000	 8.641650370452194e+000
 5.362021093937626e-001	 3.660940766780990e+000	 8.602826736048584e+000
 5.020729495829980e-001	 3.665777237271762e+000	 8.577449745831677e+000
 4.680070873296354e-001	 3.670281919174012e+000	 8.563275346149439e+000
 4.340088182839644e-001	 3.674457285866882e+000	 8.558498478556285e+000
 4.000823646519490e-001	 3.678305873836951e+000	 8.561745903547443e+000
 3.662318743487941e-001	 3.681830280474491e+000	 8.572068282099027e+000
 3.324614202214402e-001	 3.685033161868407e+000	 8.588931555975297e+000
 6.778123702384060e-001	 3.662812497343578e+000	 8.758412695478127e+000
 6.432423988150381e-001	 3.669041321151957e+000	 8.779380891034327e+000
 6.087181340388583e-001	 3.674926833727972e+000	 8.777418723967225e+000
 5.742441864146889e-001	 3.680471248948570e+000	 8.725336561436022e+000
 5.398250966222218e-001	 3.685676853039371e+000	 8.689481631472310e+000
 5.054653343800544e-001	 3.690546002384696e+000	 8.667070860743122e+000
 4.711692973814524e-001	 3.695081121326833e+000	 8.655774813205133e+000
 4.369413103013694e-001	 3.699284699956939e+000	 8.653711239132607e+000
 4.027856238741890e-001	 3.703159291900017e+000	 8.659437825073805e+000
 3.687064140415705e-001	 3.706707512096273e+000	 8.671944185744755e+000
 3.347077811696906e-001	 3.709932034581156e+000	 8.690643139557450e+000
 6.823614465526605e-001	 3.687395131551449e+000	 8.843762655325998e+000
 6.475594618980655e-001	 3.693665759545780e+000	 8.854078034576657e+000
 6.128034906466536e-001	 3.699590772205656e+000	 8.865336281779671e+000
 5.780981742462332e-001	 3.705172398266263e+000	 8.818034498147501e+000
 5.434480838508562e-001	 3.710412939297010e+000	 8.786811901225539e+000
 5.088577191772321e-001	 3.715314767496883e+000	 8.768791174390609e+000
 4.743315074333467e-001	 3.719880323478916e+000	 8.761557151854007e+000
 4.398738023188180e-001	 3.724112114046291e+000	 8.763150306121490e+000
 4.054888830964485e-001	 3.728012709962431e+000	 8.772059419481634e+000
 3.711809537343516e-001	 3.731584743717474e+000	 8.787213481266084e+000
 3.369541421179410e-001	 3.734830907293413e+000	 8.807972853331913e+000
 3.144905326354376e-001	 3.485842180148714e+000	 8.371979487976084e+000
 2.826249993720412e-001	 3.488570353274702e+000	 8.367778991087706e+000
 2.508426657390410e-001	 3.490999564173347e+000	 8.358454211141535e+000
 2.191471676259094e-001	 3.493132479441893e+000	 8.345116115344011e+000
 1.875420676063168e-001	 3.494971812888549e+000	 8.329201763219865e+000
 1.560308545165391e-001	 3.496520323470751e+000	 8.312463716647779e+000
 1.246169430937960e-001	 3.497780813243908e+000	 8.296959080999727e+000
 9.330367367343619e-002	 3.498756125322376e+000	 8.285038213653190e+000
 6.209431194385016e-002	 3.499449141854330e+000	 8.279333135754413e+000
 3.099204875794980e-002	 3.499862782012172e+000	 8.282745682624556e+000
 0.000000000000000e+000	 3.500000000000000e+000	 8.298435427631736e+000
 3.167368935836879e-001	 3.510741052865397e+000	 8.338299231281692e+000
 2.846437493679849e-001	 3.513488712942027e+000	 8.338015806070677e+000
 2.526343990658300e-001	 3.515935275346863e+000	 8.332972293457322e+000
 2.207125045373336e-001	 3.518083425724269e+000	 8.324226243427168e+000
 1.888816538031205e-001	 3.519935897266799e+000	 8.313168114563039e+000
 1.571453606197248e-001	 3.521495468638728e+000	 8.301510548662161e+000
 1.255070641153455e-001	 3.522764961910145e+000	 8.291277266371596e+000
 9.397012848486894e-002	 3.523747240503367e+000	 8.284791620813458e+000
 6.253784274303029e-002	 3.524445207153342e+000	 8.284664845776876e+000
 3.121342053454722e-002	 3.524861801883700e+000	 8.293784034565308e+000
 0.000000000000000e+000	 3.525000000000000e+000	 8.315299885011124e+000
 3.189832545319382e-001	 3.535639925581587e+000	 8.322604191727800e+000
 2.866624993639287e-001	 3.538407072608955e+000	 8.325390712152196e+000
 2.544261323926189e-001	 3.540870986520065e+000	 8.323559950353527e+000
 2.222778414487579e-001	 3.543034372006406e+000	 8.318117630509567e+000
 1.902212399999242e-001	 3.544899981644873e+000	 8.310409405846970e+000
 1.582598667229104e-001	 3.546470613806582e+000	 8.302109991686058e+000
 1.263971851368951e-001	 3.547749110576305e+000	 8.295211909264205e+000
 9.463658329630166e-002	 3.548738355684315e+000	 8.292013878025966e+000
 6.298137354221041e-002	 3.549441272452334e+000	 8.295108893672911e+000
 3.143479231114464e-002	 3.549860821755225e+000	 8.307372028773383e+000
 0.000000000000000e+000	 3.549999999999999e+000	 8.331947992150409e+000
 3.212296154801886e-001	 3.560538798297287e+000	 8.324580790691563e+000
 2.886812493598724e-001	 3.563325432275487e+000	 8.329623354370693e+000
 2.562178657194078e-001	 3.565806697692955e+000	 8.329970130324245e+000
 2.238431783601821e-001	 3.567985318288303e+000	 8.326576587145251e+000
 1.915608261967279e-001	 3.569864066022773e+000	 8.320745348167398e+000
 1.593743728260961e-001	 3.571445758974317e+000	 8.314115176773870e+000
 1.272873061584447e-001	 3.572733259242388e+000	 8.308649562087121e+000
 9.530303810773438e-002	 3.573729470865220e+000	 8.306624943462227e+000
 6.342490434139052e-002	 3.574437337751307e+000	 8.310618611808456e+000
 3.165616408774206e-002	 3.574859841626743e+000	 8.323496325267042e+000
 0.000000000000000e+000	 3.574999999999999e+000	 8.348399676184030e+000
 3.234759764284389e-001	 3.585437671012494e+000	 8.343920859251162e+000
 2.906999993558162e-001	 3.588243791941620e+000	 8.350438386486079e+000
 2.580095990461968e-001	 3.590742408865532e+000	 8.351960344458586e+000
 2.254085152716064e-001	 3.592936264569963e+000	 8.349393495837180e+000
 1.929004123935316e-001	 3.594828150400499e+000	 8.343999190045921e+000
 1.604888789292818e-001	 3.596420904141930e+000	 8.337382194661444e+000
 1.281774271799942e-001	 3.597717407908395e+000	 8.331479116634402e+000
 9.596949291916714e-002	 3.598720586046082e+000	 8.328546452510311e+000
 6.386843514057067e-002	 3.599433403050261e+000	 8.331148306420085e+000
 3.187753586433948e-002	 3.599858861498256e+000	 8.342143814114412e+000
 0.000000000000000e+000	 3.600000000000000e+000	 8.364674310714987e+000
 3.257223373766892e-001	 3.610336543727210e+000	 8.380321451644260e+000
 2.927187493517600e-001	 3.613162151607358e+000	 8.387565298265265e+000
 2.598013323729857e-001	 3.615678120037797e+000	 8.389292509109858e+000
 2.269738521830306e-001	 3.617887210851384e+000	 8.386362670625454e+000
 1.942399985903353e-001	 3.619792234778049e+000	 8.379997595449904e+000
 1.616033850324674e-001	 3.621396049309423e+000	 8.371769993707838e+000
 1.290675482015437e-001	 3.622701556574323e+000	 8.363591723416169e+000
 9.663594773059987e-002	 3.623711701226900e+000	 8.357701659939783e+000
 6.431196593975078e-002	 3.624429468349195e+000	 8.356653224033343e+000
 3.209890764093690e-002	 3.624857881369766e+000	 8.363301607500935e+000
 0.000000000000000e+000	 3.625000000000000e+000	 8.380790734902094e+000
 3.279686983249396e-001	 3.635235416441434e+000	 8.433484666392825e+000
 2.947374993477037e-001	 3.638080511272698e+000	 8.440738249865330e+000
 2.615930656997746e-001	 3.640613831209749e+000	 8.441732795030152e+000
 2.285391890944548e-001	 3.642838157132567e+000	 8.437282222445456e+000
 1.955795847871390e-001	 3.644756319155425e+000	 8.428570526824919e+000
 1.627178911356531e-001	 3.646371194476795e+000	 8.417140282031662e+000
 1.299576692230933e-001	 3.647685705240175e+000	 8.404880714305046e+000
 9.730240254203262e-002	 3.648702816407676e+000	 8.394015384443508e+000
 6.475549673893091e-002	 3.649425533648111e+000	 8.387089519260700e+000
 3.232027941753433e-002	 3.649856901241271e+000	 8.386957032122581e+000
 0.000000000000000e+000	 3.650000000000000e+000	 8.396767271762681e+000
 3.302150592731899e-001	 3.660134289155166e+000	 8.503117474728761e+000
 2.967562493436475e-001	 3.662998870937642e+000	 8.509695912976811e+000
 2.633847990265636e-001	 3.665549542381390e+000	 8.509051482663203e+000
 2.301045260058791e-001	 3.667789103413511e+000	 8.501953929982031e+000
 1.969191709839427e-001	 3.669720403532627e+000	 8.489551132901697e+000
 1.638323972388388e-001	 3.671346339644046e+000	 8.473357433641549e+000
 1.308477902446428e-001	 3.672669853905949e+000	 8.455241528340672e+000
 9.796885735346539e-002	 3.673693931588408e+000	 8.437413955443054e+000
 6.519902753811104e-002	 3.674421598947007e+000	 8.422414223914659e+000
 3.254165119413175e-002	 3.674855921112770e+000	 8.413097621889605e+000
 0.000000000000000e+000	 3.675000000000000e+000	 8.412621745728702e+000
 3.324614202214402e-001	 3.685033161868407e+000	 8.588931555975297e+000
 2.987749993395912e-001	 3.687917230602189e+000	 8.594181318407170e+000
 2.651765323533525e-001	 3.690485253552716e+000	 8.591022823303211e+000
 2.316698629173033e-001	 3.692740049694216e+000	 8.580183115758565e+000
 1.982587571807463e-001	 3.694684487909653e+000	 8.562775641051639e+000
 1.649469033420244e-001	 3.696321484811176e+000	 8.540288398372722e+000
 1.317379112661924e-001	 3.697654002571646e+000	 8.514571640540979e+000
 9.863531216489810e-002	 3.698685046769097e+000	 8.487825162050100e+000
 6.564255833729117e-002	 3.699417664245885e+000	 8.462585217372308e+000
 3.276302297072916e-002	 3.699854940984265e+000	 8.441711110925875e+000
 0.000000000000000e+000	 3.699999999999999e+000	 8.428371499490696e+000
 3.347077811696906e-001	 3.709932034581156e+000	 8.690643139557450e+000
 3.007937493355350e-001	 3.712835590266338e+000	 8.693941709801447e+000
 2.669682656801414e-001	 3.715420964723729e+000	 8.687424905845020e+000
 2.332351998287276e-001	 3.717690995974684e+000	 8.671778527216718e+000
 1.995983433775501e-001	 3.719648572286506e+000	 8.648083253976189e+000
 1.660614094452101e-001	 3.721296629978185e+000	 8.617802615449206e+000
 1.326280322877419e-001	 3.722638151237267e+000	 8.582770493581332e+000
 9.930176697633084e-002	 3.723676161949741e+000	 8.545178204084376e+000
 6.608608913647129e-002	 3.724413729544744e+000	 8.507561198133818e+000
 3.298439474732658e-002	 3.724853960855755e+000	 8.472785426850528e+000
 0.000000000000000e+000	 3.724999999999999e+000	 8.444033410163566e+000
 3.369541421179410e-001	 3.734830907293413e+000	 8.807972853331913e+000
 3.028124993314788e-001	 3.737753949930092e+000	 8.808728403214500e+000
 2.687599990069305e-001	 3.740356675894433e+000	 8.798039528863713e+000
 2.348005367401518e-001	 3.742641942254912e+000	 8.776552222552091e+000
 2.009379295743538e-001	 3.744612656663184e+000	 8.745316050529667e+000
 1.671759155483958e-001	 3.746271775145075e+000	 8.705771930504668e+000
 1.335181533092915e-001	 3.747622299902811e+000	 8.659739432205742e+000
 9.996822178776361e-002	 3.748667277130346e+000	 8.609403645049090e+000
 6.652961993565144e-002	 3.749409794843583e+000	 8.557301656518192e+000
 3.320576652392401e-002	 3.749852980727242e+000	 8.506308684327818e+000
 0.000000000000000e+000	 3.750000000000000e+000	 8.459623904805834e+000
 3.750000000000000e+000	 0.000000000000000e+000	 1.079429356313890e+001
 3.749852980727241e+000	 3.320576652392414e-002	 1.068475636115478e+001
 3.749409794843583e+000	 6.652961993565168e-002	 1.061130505310896e+001
 3.748667277130346e+000	 9.996822178776336e-002	 1.056936491065340e+001
 3.747622299902811e+000	 1.335181533092914e-001	 1.055408851179091e+001
 3.746271775145075e+000	 1.671759155483958e-001	 1.056036124552643e+001
 3.744612656663185e+000	 2.009379295743539e-001	 1.058280761441324e+001
 3.742641942254912e+000	 2.348005367401521e-001	 1.061579834771260e+001
 3.740356675894433e+000	 2.687599990069302e-001	 1.065345833612082e+001
 3.737753949930092e+000	 3.028124993314787e-001	 1.068967539714581e+001
 3.734830907293414e+000	 3.369541421179410e-001	 1.071810987823480e+001
 3.775000000000000e+000	 0.000000000000000e+000	 1.078271309236364e+001
 3.774852000598727e+000	 3.342713830051917e-002	 1.067796013761460e+001
 3.774405860142423e+000	 6.697315073482224e-002	 1.061789910054111e+001
 3.773658392310948e+000	 1.006346765991745e-001	 1.059560859653500e+001
 3.772606448568355e+000	 1.344082743308024e-001	 1.060411828523717e+001
 3.771246920311963e+000	 1.682904216515211e-001	 1.063640707636917e+001
 3.769576741039862e+000	 2.022775157710703e-001	 1.068540105932045e+001
 3.767592888535142e+000	 2.363658736514571e-001	 1.074397115436615e+001
 3.765292387065134e+000	 2.705517323335629e-001	 1.080493048446730e+001
 3.762672309593844e+000	 3.048312493272240e-001	 1.086103146774124e+001
 3.759729780005671e+000	 3.392005030659454e-001	 1.090496263188205e+001
 3.800000000000000e+000	 0.000000000000000e+000	 1.076646144983907e+001
 3.799851020470218e+000	 3.364851007710944e-002	 1.066204206818762e+001
 3.799401925441280e+000	 6.741668153397368e-002	 1.060039083209743e+001
 3.798649507491594e+000	 1.013011314105425e-001	 1.057477445218959e+001
 3.797590597233974e+000	 1.352983953522363e-001	 1.057841776370270e+001
 3.796222065478973e+000	 1.694049277545255e-001	 1.060450176500082e+001
 3.794540825416714e+000	 2.036171019676120e-001	 1.064616136151583e+001
 3.792543834815608e+000	 2.379312105625235e-001	 1.069648281278606e+001
 3.790228098236149e+000	 2.723434656598830e-001	 1.074850088137730e+001
 3.787590669257994e+000	 3.068499993225723e-001	 1.079519568364762e+001
 3.784628652718419e+000	 3.414468640134583e-001	 1.082948924355296e+001
 3.824999999999999e+000	 0.000000000000000e+000	 1.074656987727791e+001
 3.824850040341712e+000	 3.386988185369495e-002	 1.064402668365322e+001
 3.824397990740157e+000	 6.786021233310595e-002	 1.058229423831669e+001
 3.823640622672282e+000	 1.019675862218672e-001	 1.055482924493217e+001
 3.822574745899673e+000	 1.361885163735932e-001	 1.055505369901901e+001
 3.821197210646104e+000	 1.705194338574090e-001	 1.057635275720133e+001
 3.819504909793741e+000	 2.049566881639791e-001	 1.061207229333798e+001
 3.817494781096314e+000	 2.394965474733515e-001	 1.065551613898486e+001
 3.815163809407477e+000	 2.741351989858904e-001	 1.069994300680566e+001
 3.812509028922540e+000	 3.088687493175237e-001	 1.073856309676331e+001
 3.809527525431660e+000	 3.436932249604792e-001	 1.076453438620706e+001
 3.850000000000000e+000	 0.000000000000000e+000	 1.072404283089356e+001
 3.849849060213212e+000	 3.409125363027569e-002	 1.062476545416825e+001
 3.849394056039055e+000	 6.830374313221913e-002	 1.056430687384790e+001
 3.848631737853014e+000	 1.026340410331487e-001	 1.053631575099154e+001
 3.847558894565447e+000	 1.370786373948730e-001	 1.053441329445707e+001
 3.846172355813355e+000	 1.716339399601717e-001	 1.055219095892604e+001
 3.844468994170942e+000	 2.062962743601716e-001	 1.058320781102296e+001
 3.842445727377257e+000	 2.410618843839409e-001	 1.062098756076920e+001
 3.840099520579115e+000	 2.759269323115853e-001	 1.065901525681250e+001
 3.837427388587484e+000	 3.108874993120782e-001	 1.069073364513639e+001
 3.834426398145392e+000	 3.459395859070087e-001	 1.070953919228022e+001
 3.875000000000000e+000	 0.000000000000000e+000	 1.069985884544916e+001
 3.874848080084717e+000	 3.431262540685167e-002	 1.060508588780146e+001
 3.874390121337971e+000	 6.874727393131318e-002	 1.054710429840140e+001
 3.873622853033790e+000	 1.033004958443871e-001	 1.051975672593818e+001
 3.872543043231299e+000	 1.379687584160757e-001	 1.051686571336881e+001
 3.871147500980726e+000	 1.727484460628136e-001	 1.053223122272328e+001
 3.869433078548318e+000	 2.076358605561895e-001	 1.055962780898422e+001
 3.867396673658440e+000	 2.426272212942919e-001	 1.059280144006394e+001
 3.865035231751068e+000	 2.777186656369676e-001	 1.062546596114457e+001
 3.862345748252824e+000	 3.129062493062356e-001	 1.065129920295539e+001
 3.859325270859617e+000	 3.481859468530463e-001	 1.066393873493095e+001
 3.900000000000000e+000	 0.000000000000000e+000	 1.067497136507263e+001
 3.899847099956226e+000	 3.453399718342289e-002	 1.058579229854854e+001
 3.899386186636904e+000	 6.919080473038806e-002	 1.053134078171450e+001
 3.898613968214608e+000	 1.039669506555822e-001	 1.050565554637194e+001
 3.897527191897228e+000	 1.388588794372014e-001	 1.050276265738975e+001
 3.896122646148219e+000	 1.738629521653345e-001	 1.051667286226719e+001
 3.894397162925869e+000	 2.089754467520327e-001	 1.054137857051222e+001
 3.892347619939861e+000	 2.441925582044043e-001	 1.057085045963926e+001
 3.889970942923333e+000	 2.795103989620373e-001	 1.059903370587396e+001
 3.887264107918563e+000	 3.149249992999961e-001	 1.061984383900604e+001
 3.884224143574332e+000	 3.504323077985923e-001	 1.062716222224792e+001
 3.924999999999999e+000	 0.000000000000000e+000	 1.065030954232195e+001
 3.924846119827740e+000	 3.475536895998933e-002	 1.056766654499705e+001
 3.924382251935859e+000	 6.963433552944384e-002	 1.051764998157610e+001
 3.923605083395470e+000	 1.046334054667341e-001	 1.049449682708656e+001
 3.922511340563233e+000	 1.397490004582499e-001	 1.049243892254482e+001
 3.921097791315832e+000	 1.749774582677347e-001	 1.050570014722625e+001
 3.919361247303594e+000	 2.103150329477013e-001	 1.052849320124956e+001
 3.917298566221521e+000	 2.457578951142783e-001	 1.055501599505823e+001
 3.914906654095910e+000	 2.813021322867944e-001	 1.057944764370581e+001
 3.912182467584696e+000	 3.169437492933596e-001	 1.059594406525127e+001
 3.909123016289540e+000	 3.526786687436464e-001	 1.059863318403554e+001
 3.949999999999999e+000	 0.000000000000000e+000	 1.062677900690542e+001
 3.949845139699260e+000	 3.497674073655101e-002	 1.055146874094057e+001
 3.949378317234833e+000	 7.007786632848050e-002	 1.050664559610397e+001
 3.948596198576375e+000	 1.052998602778429e-001	 1.048674701479793e+001
 3.947495489229316e+000	 1.406391214792214e-001	 1.048621293423584e+001
 3.946072936483568e+000	 1.760919643700140e-001	 1.049948277933916e+001
 3.944325331681494e+000	 2.116546191431953e-001	 1.052099204620521e+001
 3.942249512503419e+000	 2.473232320239136e-001	 1.054516847249996e+001
 3.939842365268800e+000	 2.830938656112390e-001	 1.056642779250275e+001
 3.937100827251228e+000	 3.189624992863262e-001	 1.057916907597088e+001
 3.934021889005238e+000	 3.549250296882090e-001	 1.057776965150670e+001
 3.974999999999999e+000	 0.000000000000000e+000	 1.060526260539416e+001
 3.974844159570782e+000	 3.519811251310792e-002	 1.053793793917747e+001
 3.974374382533824e+000	 7.052139712749800e-002	 1.049892199140683e+001
 3.973587313757323e+000	 1.059663150889084e-001	 1.048285495946729e+001
 3.972479637895477e+000	 1.415292425001158e-001	 1.048438726204105e+001
 3.971048081651422e+000	 1.772064704721724e-001	 1.049817635052626e+001
 3.969289416059570e+000	 2.129942053385146e-001	 1.051888309103233e+001
 3.967200458785555e+000	 2.488885689333105e-001	 1.054116771307968e+001
 3.964778076442002e+000	 2.848855989353709e-001	 1.055968532254422e+001
 3.962019186918155e+000	 3.209812492788958e-001	 1.056908097787760e+001
 3.958920761721430e+000	 3.571713906322798e-001	 1.056398433019429e+001
 4.000000000000000e+000	 0.000000000000000e+000	 1.058662111319501e+001
 3.999843179442312e+000	 3.541948428966008e-002	 1.052779278966634e+001
 3.999370447832837e+000	 7.096492792649639e-002	 1.049505480571007e+001
 3.998578428938315e+000	 1.066327698999308e-001	 1.048325246419964e+001
 3.997463786561714e+000	 1.424193635209332e-001	 1.048724911520979e+001
 3.996023226819399e+000	 1.783209765742101e-001	 1.050192278382106e+001
 3.994253500437819e+000	 2.143337915336594e-001	 1.052216234825819e+001
 3.992151405067931e+000	 2.504539058424689e-001	 1.054286326425704e+001
 3.989713787615519e+000	 2.866773322591902e-001	 1.055892283301324e+001
 3.986937546585482e+000	 3.229999992710685e-001	 1.056523501160355e+001
 3.983819634438112e+000	 3.594177515758590e-001	 1.055668476637898e+001
 3.734830907293414e+000	 3.369541421179410e-001	 1.071810987823480e+001
 3.731584743717474e+000	 3.711809537343518e-001	 1.072644646680098e+001
 3.728012709962431e+000	 4.054888830964487e-001	 1.070991140967163e+001
 3.724112114046291e+000	 4.398738023188177e-001	 1.066196682458055e+001
 3.719880323478916e+000	 4.743315074333465e-001	 1.057590587064840e+001
 3.715314767496883e+000	 5.088577191772322e-001	 1.044486641562752e+001
 3.710412939297010e+000	 5.434480838508564e-001	 1.026184551862758e+001
 3.705172398266262e+000	 5.780981742462336e-001	 1.001971471864287e+001
 3.699590772205656e+000	 6.128034906466535e-001	 9.711236116536938e+000
 3.693665759545779e+000	 6.475594618980652e-001	 1.021249883143619e+001
 3.687395131551449e+000	 6.823614465526605e-001	 1.113336659552842e+001
 3.759729780005671e+000	 3.392005030659454e-001	 1.090496263188205e+001
 3.756461975338673e+000	 3.736554934268418e-001	 1.093552618477187e+001
 3.752866128024844e+000	 4.081921423183813e-001	 1.093677171368732e+001
 3.748939528135643e+000	 4.428062943359137e-001	 1.088837904347138e+001
 3.744679525630999e+000	 4.774937174848721e-001	 1.076475285077575e+001
 3.740083532609068e+000	 5.122501039740349e-001	 1.059928458969547e+001
 3.735149025554648e+000	 5.470710710791199e-001	 1.038487072368607e+001
 3.729873547583952e+000	 5.819521620774205e-001	 1.011427755125392e+001
 3.724254710683340e+000	 6.168888472541159e-001	 9.780157539252611e+000
 3.718290197939601e+000	 6.518765249807942e-001	 1.034406988084444e+001
 3.711977765759320e+000	 6.869105228666610e-001	 1.114809329321259e+001
 3.784628652718419e+000	 3.414468640134583e-001	 1.082948924355296e+001
 3.781339206960455e+000	 3.761300331187450e-001	 1.086135902282634e+001
 3.777719546087910e+000	 4.108954015396414e-001	 1.086559109860458e+001
 3.773766942225699e+000	 4.457387863522611e-001	 1.083527889169864e+001
 3.769478727783819e+000	 4.806559275355832e-001	 1.076344935528132e+001
 3.764852297722004e+000	 5.156424887699671e-001	 1.064305793028824e+001
 3.759885111813030e+000	 5.506940583064662e-001	 1.046698322549436e+001
 3.754574696902358e+000	 5.858061499076545e-001	 1.022802143332489e+001
 3.748918649161690e+000	 6.209742038605992e-001	 9.911723281823351e+000
 3.742914636334020e+000	 6.561935880625283e-001	 1.051380462324650e+001
 3.736560399967698e+000	 6.914595991796617e-001	 1.120128454310862e+001
 3.809527525431660e+000	 3.436932249604792e-001	 1.076453438620706e+001
 3.806216438582819e+000	 3.786045728100612e-001	 1.079802836287821e+001
 3.802572964151630e+000	 4.135986607602288e-001	 1.080553235661825e+001
 3.798594356316461e+000	 4.486712783678600e-001	 1.078036743832276e+001
 3.794277929937377e+000	 4.838181375854795e-001	 1.071579118464565e+001
 3.789621062835688e+000	 5.190348735650283e-001	 1.060499226281909e+001
 3.784621198072152e+000	 5.543170455328953e-001	 1.044108472327300e+001
 3.779275846221477e+000	 5.896601377369352e-001	 1.021710201145791e+001
 3.773582587640705e+000	 6.250595604661032e-001	 9.927719092144606e+000
 3.767539074729034e+000	 6.605106511432674e-001	 1.060376354156082e+001
 3.761143034176585e+000	 6.960086754916621e-001	 1.122829120611286e+001
 3.834426398145392e+000	 3.459395859070087e-001	 1.070953919228022e+001
 3.831093670205765e+000	 3.810791125007904e-001	 1.074483542840660e+001
 3.827426382216002e+000	 4.163019199801439e-001	 1.075575703703130e+001
 3.823421770407928e+000	 4.516037703827104e-001	 1.073585565861564e+001
 3.819077132091671e+000	 4.869803476345613e-001	 1.067862248581698e+001
 3.814389827950121e+000	 5.224272583592186e-001	 1.057748247350125e+001
 3.809357284332017e+000	 5.579400327584075e-001	 1.042578823943121e+001
 3.803976995541309e+000	 5.935141255652625e-001	 1.021681366738338e+001
 3.798246526120385e+000	 6.291449170706281e-001	 1.005073627374104e+001
 3.792163513124647e+000	 6.648277142230117e-001	 1.064125339370032e+001
 3.785725668385978e+000	 7.005577518026629e-001	 1.118263235440817e+001
 3.859325270859617e+000	 3.481859468530463e-001	 1.066393873493095e+001
 3.855970901829293e+000	 3.835536521909328e-001	 1.070107689499972e+001
 3.852279800281028e+000	 4.190051791993862e-001	 1.071542364237076e+001
 3.848249184500101e+000	 4.545362623968124e-001	 1.070076418538029e+001
 3.843876334246703e+000	 4.901425576828284e-001	 1.065082640514310e+001
 3.839158593065305e+000	 5.258196431525382e-001	 1.055927468646652e+001
 3.834093370592623e+000	 5.615630199830025e-001	 1.041970342206694e+001
 3.828678144861857e+000	 5.973681133926371e-001	 1.022563020219251e+001
 3.822910464600732e+000	 6.332302736741742e-001	 1.015781995770781e+001
 3.816787951520856e+000	 6.691447773017615e-001	 1.066663397143425e+001
 3.810308302595879e+000	 7.051068281126635e-001	 1.112863377752232e+001
 3.884224143574332e+000	 3.504323077985923e-001	 1.062716222224792e+001
 3.880848133453403e+000	 3.860281918804883e-001	 1.066604503612039e+001
 3.877133218346707e+000	 4.217084384179560e-001	 1.068368772604046e+001
 3.873076598592977e+000	 4.574687544101659e-001	 1.067411214467979e+001
 3.868675536402474e+000	 4.933047677302810e-001	 1.063128601331444e+001
 3.863927358181238e+000	 5.292120279449866e-001	 1.054911636928641e+001
 3.858829456853972e+000	 5.651860072066807e-001	 1.042144266914095e+001
 3.853379294183119e+000	 6.012221012190580e-001	 1.024202955989763e+001
 3.847574403081743e+000	 6.373156302767409e-001	 1.024922558371986e+001
 3.841412389917662e+000	 6.734618403795164e-001	 1.068013283785888e+001
 3.834890936806286e+000	 7.096559044216639e-001	 1.106649543013250e+001
 3.909123016289540e+000	 3.526786687436464e-001	 1.059863318403554e+001
 3.905725365078095e+000	 3.885027315694568e-001	 1.063902786330126e+001
 3.901986636413041e+000	 4.244116976358535e-001	 1.065970198624250e+001
 3.897904012686559e+000	 4.604012464227708e-001	 1.065491720382265e+001
 3.893474738558979e+000	 4.964669777769188e-001	 1.061888430777348e+001
 3.888696123297920e+000	 5.326044127365643e-001	 1.054575629018742e+001
 3.883565543116061e+000	 5.688089944294416e-001	 1.042962104090179e+001
 3.878080443505094e+000	 6.050760890445258e-001	 1.026449369549185e+001
 3.872238341563422e+000	 6.414009868783283e-001	 1.032521393751466e+001
 3.866036828315065e+000	 6.777789034562765e-001	 1.068198422293128e+001
 3.859473571017202e+000	 7.142049807296647e-001	 1.099642523961655e+001
 3.934021889005238e+000	 3.549250296882090e-001	 1.057776965150670e+001
 3.930602596703371e+000	 3.909772712578384e-001	 1.061930926101603e+001
 3.926840054480028e+000	 4.271149568530782e-001	 1.064261635633159e+001
 3.922731426780846e+000	 4.633337384346273e-001	 1.064219561752587e+001
 3.918273940716221e+000	 4.996291878227420e-001	 1.061250421503291e+001
 3.913464888415352e+000	 5.359967975272711e-001	 1.054794447689112e+001
 3.908301629378892e+000	 5.724319816512853e-001	 1.044285617563599e+001
 3.902781592827783e+000	 6.089300768690403e-001	 1.029150844801953e+001
 3.896902280045765e+000	 6.454863434789369e-001	 1.038605098171305e+001
 3.890661266713064e+000	 6.820959665320419e-001	 1.067242881249278e+001
 3.884056205228624e+000	 7.187540570366653e-001	 1.091863885375236e+001
 3.958920761721430e+000	 3.571713906322798e-001	 1.056398433019429e+001
 3.955479828329226e+000	 3.934518109456330e-001	 1.060616911646119e+001
 3.951693472547667e+000	 4.298182160696303e-001	 1.063157809175994e+001
 3.947558840875840e+000	 4.662662304457353e-001	 1.063496227233619e+001
 3.943073142874203e+000	 5.027913978677507e-001	 1.061102859290596e+001
 3.938233653533534e+000	 5.393891823171072e-001	 1.055443217700742e+001
 3.933037715642466e+000	 5.760549688722120e-001	 1.045976820859785e+001
 3.927482742151185e+000	 6.127840646926016e-001	 1.032156341843615e+001
 3.921566218528775e+000	 6.495717000785660e-001	 1.043200769302411e+001
 3.915285705111661e+000	 6.864130296068124e-001	 1.065171354525371e+001
 3.908638839440555e+000	 7.233031333426659e-001	 1.083335939793793e+001
 3.983819634438112e+000	 3.594177515758590e-001	 1.055668476637898e+001
 3.980357059955668e+000	 3.959263506328409e-001	 1.059888344447077e+001
 3.976546890615960e+000	 4.325214752855101e-001	 1.062573185376179e+001
 3.972386254971537e+000	 4.691987224560948e-001	 1.063223072938536e+001
 3.967872345032922e+000	 5.059536079119448e-001	 1.061334023265336e+001
 3.963002418652467e+000	 5.427815671060725e-001	 1.056397181991302e+001
 3.957773801906783e+000	 5.796779560922217e-001	 1.047897969397910e+001
 3.952183891475304e+000	 6.166380525152101e-001	 1.035315185204872e+001
 3.946230157012450e+000	 6.536570566772162e-001	 1.046335990555489e+001
 3.939910143510855e+000	 6.907300926805884e-001	 1.062009141739119e+001
 3.933221473652993e+000	 7.278522096476667e-001	 1.074081724151575e+001
 3.687395131551449e+000	 6.823614465526605e-001	 1.113336659552842e+001
 3.680776734513125e+000	 7.172047340853256e-001	 1.104032840736764e+001
 3.673808491922170e+000	 7.520845461825008e-001	 1.095296341776864e+001
 3.666488406627660e+000	 7.869960381038449e-001	 1.087276388245889e+001
 3.658814562972306e+000	 8.219343001176298e-001	 1.080110229470013e+001
 3.650785128904496e+000	 8.568943590090273e-001	 1.073922147920444e+001
 3.642398358063882e+000	 8.918711796614021e-001	 1.068822469604550e+001
 3.633652591837826e+000	 9.268596667103950e-001	 1.064906578174092e+001
 3.624546261385975e+000	 9.618546662704742e-001	 1.062253935547855e+001
 3.615077889630201e+000	 9.968509677335213e-001	 1.060927111918807e+001
 3.605246093207198e+000	 1.031843305638912e+000	 1.060970828081468e+001
 3.711977765759320e+000	 6.869105228666610e-001	 1.114809329321259e+001
 3.705315246074803e+000	 7.219860989830625e-001	 1.104507395767507e+001
 3.698300548533930e+000	 7.570984431609740e-001	 1.095025844089095e+001
 3.690931662671435e+000	 7.922426783617844e-001	 1.086519250875901e+001
 3.683206660058982e+000	 8.274138621222201e-001	 1.079129789280070e+001
 3.675123696431280e+000	 8.626069880726867e-001	 1.072986212713240e+001
 3.666681013785578e+000	 8.978169875291034e-001	 1.068202839681122e+001
 3.657876942451824e+000	 9.330387311580154e-001	 1.064878542539451e+001
 3.648709903130721e+000	 9.682670307146521e-001	 1.063095743036659e+001
 3.639178408896959e+000	 1.003496640853508e+000	 1.062919417583001e+001
 3.629281067164810e+000	 1.038722261010886e+000	 1.064396115252672e+001
 3.736560399967698e+000	 6.914595991796617e-001	 1.120128454310862e+001
 3.729853757636888e+000	 7.267674638798090e-001	 1.108448861738198e+001
 3.722792605145995e+000	 7.621123401384855e-001	 1.097846738266951e+001
 3.715374918715418e+000	 7.974893186188110e-001	 1.088482337918224e+001
 3.707598757145765e+000	 8.328934241259659e-001	 1.080503081328704e+001
 3.699462263958071e+000	 8.683196171355897e-001	 1.074042513231396e+001
 3.690963669507182e+000	 9.037627953961568e-001	 1.069219261206490e+001
 3.682101293065626e+000	 9.392177956051155e-001	 1.066135998553876e+001
 3.672873544875174e+000	 9.746793951584587e-001	 1.064878414221776e+001
 3.663278928163325e+000	 1.010142313973292e+000	 1.065514192801842e+001
 3.653316041121927e+000	 1.045601216382847e+000	 1.068092007669329e+001
 3.761143034176585e+000	 6.960086754916621e-001	 1.122829120611286e+001
 3.754392269199381e+000	 7.315488287755653e-001	 1.113631061264030e+001
 3.747284661758370e+000	 7.671262371150364e-001	 1.103634104535315e+001
 3.739818174759607e+000	 8.027359588749251e-001	 1.093039463066156e+001
 3.731990854232656e+000	 8.383729861288674e-001	 1.084102740177451e+001
 3.723800831484869e+000	 8.740322461977362e-001	 1.076962594372886e+001
 3.715246325228692e+000	 9.097086032625616e-001	 1.071742280892559e+001
 3.706325643679236e+000	 9.453968600516960e-001	 1.068548588166893e+001
 3.697037186619333e+000	 9.810917596018941e-001	 1.067470781593136e+001
 3.687379447429296e+000	 1.016787987092874e+000	 1.068579557716528e+001
 3.677351015078551e+000	 1.052480171754797e+000	 1.071926011967853e+001
 3.785725668385978e+000	 7.005577518026629e-001	 1.118263235440817e+001
 3.778930780762281e+000	 7.363301936703310e-001	 1.109999315121966e+001
 3.771776718371052e+000	 7.721401340906254e-001	 1.102026885103597e+001
 3.764261430804003e+000	 8.079825991301263e-001	 1.094560914248436e+001
 3.756382951319652e+000	 8.438525481309243e-001	 1.087827836097240e+001
 3.748139399011674e+000	 8.797448752591266e-001	 1.081618538879201e+001
 3.739528980950109e+000	 9.156544111283187e-001	 1.075642913464867e+001
 3.730549994292652e+000	 9.515759244977564e-001	 1.071986351045832e+001
 3.721200828363199e+000	 9.875041240449581e-001	 1.070742004623111e+001
 3.711479966694873e+000	 1.023433660212254e+000	 1.071983888302750e+001
 3.701385989034681e+000	 1.059359127126733e+000	 1.075765819086176e+001
 3.810308302595879e+000	 7.051068281126635e-001	 1.112863377752232e+001
 3.803469292325589e+000	 7.411115585641065e-001	 1.105517216793013e+001
 3.796268774984041e+000	 7.771540310652531e-001	 1.098476976186697e+001
 3.788704686848607e+000	 8.132292393844147e-001	 1.091949924339582e+001
 3.780775048406756e+000	 8.493321101321366e-001	 1.086154859937164e+001
 3.772477966538485e+000	 8.854575043197607e-001	 1.081322510255274e+001
 3.763811636671433e+000	 9.216002189934274e-001	 1.077695919235098e+001
 3.754774344905874e+000	 9.577549889432973e-001	 1.075530823741442e+001
 3.745364470106770e+000	 9.939164884876511e-001	 1.074561559218692e+001
 3.735580485960059e+000	 1.030079333331432e+000	 1.075595808117977e+001
 3.725420962990317e+000	 1.066238082498657e+000	 1.079479298318547e+001
 3.834890936806286e+000	 7.096559044216639e-001	 1.106649543013250e+001
 3.828007803889303e+000	 7.458929234568915e-001	 1.100209482000758e+001
 3.820760831597337e+000	 7.821679280389193e-001	 1.094085953563319e+001
 3.813147942893418e+000	 8.184758796377905e-001	 1.088478419579867e+001
 3.805167145493967e+000	 8.548116721325045e-001	 1.083597941446272e+001
 3.796816534065303e+000	 8.911701333796380e-001	 1.079667595432171e+001
 3.788094292392663e+000	 9.275460268578878e-001	 1.076922877975923e+001
 3.778998695518902e+000	 9.639340533883180e-001	 1.075612099299639e+001
 3.769528111850048e+000	 1.000328852929973e+000	 1.075996763696702e+001
 3.759681005224847e+000	 1.036725006450407e+000	 1.078351934819262e+001
 3.749455936945461e+000	 1.073117037870568e+000	 1.082934491598979e+001
 3.859473571017202e+000	 7.142049807296647e-001	 1.099642523961655e+001
 3.852546315453426e+000	 7.506742883486862e-001	 1.094101562862974e+001
 3.845252888210939e+000	 7.871818250116243e-001	 1.088883913653090e+001
 3.837591198938435e+000	 8.237225198902530e-001	 1.084181123023184e+001
 3.829559242581285e+000	 8.602912341320280e-001	 1.080196410049205e+001
 3.821155101592128e+000	 8.968827624387593e-001	 1.077145098867186e+001
 3.812376948113800e+000	 9.334918347217001e-001	 1.075255041460909e+001
 3.803223046131738e+000	 9.701131178328188e-001	 1.074767028905886e+001
 3.793691753593033e+000	 1.006741217371923e+000	 1.075935189382619e+001
 3.783781524489245e+000	 1.043370679569180e+000	 1.079027371245792e+001
 3.773490910900110e+000	 1.079995993242467e+000	 1.084325509414856e+001
 3.884056205228624e+000	 7.187540570366653e-001	 1.091863885375236e+001
 3.877084827017956e+000	 7.554556532394905e-001	 1.087219624587986e+001
 3.869744944824850e+000	 7.921957219833682e-001	 1.082901606499828e+001
 3.862034454983661e+000	 8.289691601418032e-001	 1.079093351384733e+001
 3.853951339668710e+000	 8.657707961307067e-001	 1.075990128393528e+001
 3.845493669118960e+000	 9.025953914971242e-001	 1.073799405823283e+001
 3.836659603834844e+000	 9.394376425848642e-001	 1.072741291673341e+001
 3.827447396744379e+000	 9.762921822767998e-001	 1.073048962793359e+001
 3.817855395335724e+000	 1.013153581813502e+000	 1.074969080896234e+001
 3.807882043753248e+000	 1.050016352687751e+000	 1.078762193681105e+001
 3.797525884854265e+000	 1.086874948614353e+000	 1.084703119289072e+001
 3.908638839440555e+000	 7.233031333426659e-001	 1.083335939793793e+001
 3.901623338582893e+000	 7.602370181293046e-001	 1.079590523050463e+001
 3.894237001439066e+000	 7.972096189541506e-001	 1.076170415217310e+001
 3.886477711029093e+000	 8.342158003924406e-001	 1.073250996372412e+001
 3.878343436756242e+000	 8.712503581285412e-001	 1.071019475581708e+001
 3.869832236645799e+000	 9.083080205547327e-001	 1.069675359040872e+001
 3.860942259555794e+000	 9.453834504473802e-001	 1.069430908678237e+001
 3.851671747356828e+000	 9.824712467202609e-001	 1.070511589484938e+001
 3.842019037078121e+000	 1.019565946254710e+000	 1.073156503804389e+001
 3.831982563016857e+000	 1.056662025806120e+000	 1.077618810784175e+001
 3.821560858807927e+000	 1.093753903986227e+000	 1.084166129169574e+001
 3.933221473652993e+000	 7.278522096476667e-001	 1.074081724151575e+001
 3.926161850148238e+000	 7.650183830181283e-001	 1.071241783208086e+001
 3.918729058053593e+000	 8.022235159239719e-001	 1.068722336205850e+001
 3.910920967074733e+000	 8.394624406421654e-001	 1.066690506718311e+001
 3.902735533843881e+000	 8.767299201255313e-001	 1.065325331031904e+001
 3.894170804172645e+000	 9.140206496115850e-001	 1.064818244441632e+001
 3.885224915276652e+000	 9.513292583092481e-001	 1.065373558182296e+001
 3.875896097969084e+000	 9.886503111632025e-001	 1.067208925221666e+001
 3.866182678820226e+000	 1.025978310695547e+000	 1.070555793106370e+001
 3.856083082280073e+000	 1.063307698924287e+000	 1.075659842020754e+001
 3.845595832761096e+000	 1.100632859358089e+000	 1.082781406193863e+001
 3.605246093207198e+000	 1.031843305638912e+000	 1.060970828081468e+001
 3.595049584380677e+000	 1.066826361614633e+000	 1.066787450194331e+001
 3.584487172911277e+000	 1.101794766387843e+000	 1.073116229945405e+001
 3.573557767880753e+000	 1.136743101864962e+000	 1.079827032250841e+001
 3.562260379467235e+000	 1.171665903280343e+000	 1.086767386929343e+001
 3.550594120669679e+000	 1.206557661411701e+000	 1.093761742835921e+001
 3.538558208978485e+000	 1.241412824861386e+000	 1.100610755661839e+001
 3.526151967989605e+000	 1.276225802402121e+000	 1.098788857107914e+001
 3.513374828959480e+000	 1.310990965385763e+000	 1.093501889985880e+001
 3.500226332298183e+000	 1.345702650213483e+000	 1.087465938927448e+001
 3.486706128998200e+000	 1.380355160865667e+000	 1.080728122885314e+001
 3.629281067164810e+000	 1.038722261010886e+000	 1.064396115252672e+001
 3.619016581613070e+000	 1.073938537359064e+000	 1.069415739956894e+001
 3.608383754067449e+000	 1.109140064830154e+000	 1.075192961879474e+001
 3.597381486336913e+000	 1.144321389209950e+000	 1.081601206165941e+001
 3.586008782000778e+000	 1.179477009301036e+000	 1.088490977374557e+001
 3.574264748144659e+000	 1.214601379152982e+000	 1.095689090237432e+001
 3.562148597042228e+000	 1.249688910358818e+000	 1.102997934800218e+001
 3.549659647780074e+000	 1.284733974416420e+000	 1.098946205152101e+001
 3.536797327823013e+000	 1.319730905153324e+000	 1.093954275728162e+001
 3.523561174517189e+000	 1.354674001213380e+000	 1.088157181826667e+001
 3.509950836528365e+000	 1.389557528603505e+000	 1.081597276093516e+001
 3.653316041121927e+000	 1.045601216382847e+000	 1.068092007669329e+001
 3.642983578844875e+000	 1.081050713103668e+000	 1.072085983951579e+001
 3.632280335222947e+000	 1.116485363272793e+000	 1.077090778998953e+001
 3.621205204792322e+000	 1.151899676555394e+000	 1.082983615703763e+001
 3.609757184533504e+000	 1.187288115322284e+000	 1.089618201995146e+001
 3.597935375618768e+000	 1.222645096894885e+000	 1.096823937725783e+001
 3.585738985105053e+000	 1.257964995856909e+000	 1.101947231417728e+001
 3.573167327569588e+000	 1.293242146431385e+000	 1.098168704475809e+001
 3.560219826685567e+000	 1.328470844921530e+000	 1.093494712054130e+001
 3.546896016735199e+000	 1.363645352213865e+000	 1.087957645142103e+001
 3.533195544057530e+000	 1.398759896341848e+000	 1.081595014068993e+001
 3.677351015078551e+000	 1.052480171754797e+000	 1.071926011967853e+001
 3.666950576076089e+000	 1.088162888848445e+000	 1.074663285731277e+001
 3.656176916377769e+000	 1.123830661715762e+000	 1.078672470508277e+001
 3.645028923246980e+000	 1.159477963901295e+000	 1.083834826674902e+001
 3.633505587065415e+000	 1.195099221344086e+000	 1.090007496307674e+001
 3.621606003092005e+000	 1.230688814637408e+000	 1.097022685690119e+001
 3.609329373166961e+000	 1.266241081355659e+000	 1.099895172021339e+001
 3.596675007358150e+000	 1.301750318447017e+000	 1.096514340642133e+001
 3.583642325547142e+000	 1.337210784690379e+000	 1.092183402366687e+001
 3.570230858952213e+000	 1.372616703214940e+000	 1.086929718362176e+001
 3.556440251585695e+000	 1.407962264080697e+000	 1.080785879079331e+001
 3.701385989034681e+000	 1.059359127126733e+000	 1.075765819086176e+001
 3.690917573306717e+000	 1.095275064593396e+000	 1.077012910353415e+001
 3.680073497531918e+000	 1.131175960159060e+000	 1.079800964337520e+001
 3.668852641700889e+000	 1.167056251247652e+000	 1.084015520864872e+001
 3.657253989596510e+000	 1.202910327366441e+000	 1.089517389091298e+001
 3.645276630564371e+000	 1.238732532380554e+000	 1.096141805118516e+001
 3.632919761227950e+000	 1.274517166855068e+000	 1.096995236302174e+001
 3.620182687145758e+000	 1.310258490463315e+000	 1.094041124673343e+001
 3.607064824407738e+000	 1.345950724459871e+000	 1.090080553072772e+001
 3.593565701168235e+000	 1.381588054216606e+000	 1.085135771614782e+001
 3.579684959112860e+000	 1.417164631820050e+000	 1.079234371768216e+001
 3.725420962990317e+000	 1.066238082498657e+000	 1.079479298318547e+001
 3.714884570536753e+000	 1.102387240338519e+000	 1.079000279170140e+001
 3.703970078685392e+000	 1.138521258602688e+000	 1.080339322667373e+001
 3.692676360154048e+000	 1.174634538594465e+000	 1.083386492292984e+001
 3.681002392126787e+000	 1.210721433389350e+000	 1.088006499379297e+001
 3.668947258035864e+000	 1.246776250124320e+000	 1.094037835320597e+001
 3.656510149288022e+000	 1.282793252355136e+000	 1.093303256237464e+001
 3.643690366932412e+000	 1.318766662480280e+000	 1.090807092229621e+001
 3.630487323267354e+000	 1.354690664230006e+000	 1.087246373486464e+001
 3.616900543383260e+000	 1.390559405218861e+000	 1.082638156291824e+001
 3.602929666639025e+000	 1.426366999559909e+000	 1.077004952498144e+001
 3.749455936945461e+000	 1.073117037870568e+000	 1.082934491598979e+001
 3.738851567766202e+000	 1.109499416083815e+000	 1.080490964818864e+001
 3.727866659838193e+000	 1.145866557046645e+000	 1.080150737626241e+001
 3.716500078606456e+000	 1.182212825941734e+000	 1.081808643615111e+001
 3.704750794656250e+000	 1.218532539412813e+000	 1.085333533566313e+001
 3.692617885506486e+000	 1.254819967868708e+000	 1.089748951930695e+001
 3.680100537347176e+000	 1.291069337855863e+000	 1.088875108761889e+001
 3.667198046718112e+000	 1.327274834497911e+000	 1.086870302819386e+001
 3.653909822125992e+000	 1.363430604000785e+000	 1.083741075735794e+001
 3.640235385597291e+000	 1.399530756221705e+000	 1.079499205649722e+001
 3.626174374164190e+000	 1.435569367300273e+000	 1.074162042641481e+001
 3.773490910900110e+000	 1.079995993242467e+000	 1.084325509414856e+001
 3.762818564995062e+000	 1.116611591829284e+000	 1.080866394284413e+001
 3.751763240990317e+000	 1.153211855490931e+000	 1.079071936832471e+001
 3.740323797058115e+000	 1.189791113289460e+000	 1.079142982663925e+001
 3.728499197184896e+000	 1.226343645436830e+000	 1.081357282626136e+001
 3.716288512976234e+000	 1.262863685613718e+000	 1.084057428885167e+001
 3.703690925405412e+000	 1.299345423357249e+000	 1.083766714335815e+001
 3.690705726502859e+000	 1.335783006516208e+000	 1.082288839039791e+001
 3.677332320983649e+000	 1.372170543772207e+000	 1.079624874673137e+001
 3.663570227810326e+000	 1.408502107225139e+000	 1.075781235386979e+001
 3.649419081688355e+000	 1.444771735041142e+000	 1.070770025822194e+001
 3.797525884854265e+000	 1.086874948614353e+000	 1.084703119289072e+001
 3.786785562223331e+000	 1.123723767574926e+000	 1.079944774414384e+001
 3.775659822141769e+000	 1.160557153935546e+000	 1.076744954325686e+001
 3.764147515509023e+000	 1.197369400637642e+000	 1.075335514342334e+001
 3.752247599712727e+000	 1.234154751461400e+000	 1.075963728045705e+001
 3.739959140445111e+000	 1.270907403359349e+000	 1.077702164599412e+001
 3.727281313462729e+000	 1.307621508859294e+000	 1.078034035567896e+001
 3.714213406286651e+000	 1.344291178535172e+000	 1.077120805846075e+001
 3.700754819840327e+000	 1.380910483544272e+000	 1.074957987788996e+001
 3.686905070022366e+000	 1.417473458229163e+000	 1.071546544199814e+001
 3.672663789211519e+000	 1.453974102782516e+000	 1.066893249110408e+001
 3.821560858807927e+000	 1.093753903986227e+000	 1.084166129169574e+001
 3.810752559451014e+000	 1.130835943320741e+000	 1.078151565867149e+001
 3.799556403292546e+000	 1.167902452380491e+000	 1.073585181816535e+001
 3.787971233959183e+000	 1.204947687986281e+000	 1.070695636166630e+001
 3.775996002239742e+000	 1.241965857486524e+000	 1.069727346106873e+001
 3.763629767913117e+000	 1.278951121105601e+000	 1.071107370785384e+001
 3.750871701519130e+000	 1.315897594361998e+000	 1.071752081163882e+001
 3.737721086069491e+000	 1.352799350554802e+000	 1.071424329848471e+001
 3.724177318696026e+000	 1.389650423316981e+000	 1.069800635129040e+001
 3.710239912233413e+000	 1.426444809233777e+000	 1.066857414316815e+001
 3.695908496733685e+000	 1.463176470524395e+000	 1.062596024171912e+001
 3.845595832761096e+000	 1.100632859358089e+000	 1.082781406193863e+001
 3.834719556678107e+000	 1.137948119066728e+000	 1.075556266526712e+001
 3.823452984442649e+000	 1.175247750825766e+000	 1.069664695055123e+001
 3.811794952408592e+000	 1.212525975335376e+000	 1.065332055040254e+001
 3.799744404765942e+000	 1.249776963512203e+000	 1.062799813222088e+001
 3.787300395380251e+000	 1.286994838852475e+000	 1.064882441004341e+001
 3.774462089574614e+000	 1.324173679865361e+000	 1.065834464435040e+001
 3.761228765851377e+000	 1.361307522575099e+000	 1.065601634168405e+001
 3.747599817550746e+000	 1.398390363090333e+000	 1.064213039214256e+001
 3.733574754443465e+000	 1.435416160238980e+000	 1.061776112013565e+001
 3.719153204254849e+000	 1.472378838266780e+000	 1.057942628374534e+001
 3.486706128998200e+000	 1.380355160865667e+000	 1.080728122885314e+001
 3.472813981996224e+000	 1.414942771488917e+000	 1.082319494013277e+001
 3.458549767465619e+000	 1.449459729040826e+000	 1.084476339097898e+001
 3.443913476037222e+000	 1.483900255988308e+000	 1.087252921705501e+001
 3.428905213945839e+000	 1.518258553056113e+000	 1.090708266290816e+001
 3.413525204100325e+000	 1.552528802025695e+000	 1.094906379958006e+001
 3.397773787075000e+000	 1.586705168581185e+000	 1.099916465169229e+001
 3.381651422020273e+000	 1.620781805199965e+000	 1.105813122437836e+001
 3.365158687490438e+000	 1.654752854085250e+000	 1.112676542051998e+001
 3.348296282186655e+000	 1.688612450138004e+000	 1.120592683887118e+001
 3.331065025613314e+000	 1.722354723965393e+000	 1.129653444381790e+001
 3.509950836528365e+000	 1.389557528603505e+000	 1.081597276093516e+001
 3.495966075212821e+000	 1.424375723297864e+000	 1.083067986268731e+001
 3.481606765918415e+000	 1.459122793900348e+000	 1.085069522338186e+001
 3.466872899213523e+000	 1.493792924360984e+000	 1.087656440145988e+001
 3.451764582041180e+000	 1.528380276742684e+000	 1.090888222412922e+001
 3.436282038796304e+000	 1.562878994038781e+000	 1.094829506884963e+001
 3.420425612323706e+000	 1.597283203037965e+000	 1.099550305173880e+001
 3.404195764834802e+000	 1.631587017234134e+000	 1.105126211303245e+001
 3.387593078740911e+000	 1.665784539778523e+000	 1.111638598982090e+001
 3.370618257401203e+000	 1.699869866471439e+000	 1.119174806641347e+001
 3.353272125783427e+000	 1.733837088790756e+000	 1.127828309285107e+001
 3.533195544057530e+000	 1.398759896341848e+000	 1.081595014068993e+001
 3.519118168428428e+000	 1.433808675107226e+000	 1.083062255659029e+001
 3.504663764370251e+000	 1.468785858760214e+000	 1.085023471285555e+001
 3.489832322388910e+000	 1.503685592733951e+000	 1.087533393760411e+001
 3.474623950135680e+000	 1.538502000429517e+000	 1.090651851299151e+001
 3.459038873491527e+000	 1.573229186052117e+000	 1.094444002260648e+001
 3.443077437571767e+000	 1.607861237495004e+000	 1.098980560321009e+001
 3.426740107648815e+000	 1.642392229268590e+000	 1.104338009070830e+001
 3.410027469991016e+000	 1.676816225472134e+000	 1.110598805033958e+001
 3.392940232615552e+000	 1.711127282805278e+000	 1.117851568119259e+001
 3.375479225953534e+000	 1.745319453616616e+000	 1.126191258534126e+001
 3.556440251585695e+000	 1.407962264080697e+000	 1.080785879079331e+001
 3.542270261643044e+000	 1.443241626917004e+000	 1.082367007346474e+001
 3.527720762821125e+000	 1.478448923620425e+000	 1.084403022608241e+001
 3.512791745563388e+000	 1.513578261107214e+000	 1.086948718755961e+001
 3.497483318229335e+000	 1.548623724116612e+000	 1.090064156179260e+001
 3.481795708185998e+000	 1.583579378065704e+000	 1.093814903301688e+001
 3.465729262819184e+000	 1.618439271952301e+000	 1.098272268290492e+001
 3.449284450462312e+000	 1.653197441303335e+000	 1.103513519904780e+001
 3.432461861240755e+000	 1.687847911166081e+000	 1.109622096455732e+001
 3.415262207829704e+000	 1.722384699139524e+000	 1.116687801866108e+001
 3.397686326123631e+000	 1.756801818442972e+000	 1.124806987834114e+001
 3.579684959112860e+000	 1.417164631820050e+000	 1.079234371768216e+001
 3.565422354856672e+000	 1.452674578727196e+000	 1.081046933498322e+001
 3.550777761271038e+000	 1.488111988480979e+000	 1.083273028601851e+001
 3.535751168736951e+000	 1.523470929480768e+000	 1.085967395570158e+001
 3.520342686322147e+000	 1.558745447803968e+000	 1.089190213083721e+001
 3.504552542879714e+000	 1.593929570079541e+000	 1.093007348550002e+001
 3.488381088065955e+000	 1.629017306409859e+000	 1.097490596552943e+001
 3.471828793275291e+000	 1.664002653338367e+000	 1.102717906152975e+001
 3.454896252490127e+000	 1.698879596860366e+000	 1.108773595986204e+001
 3.437584183043659e+000	 1.733642115474177e+000	 1.115748556125310e+001
 3.419893426293720e+000	 1.768284183269824e+000	 1.123740435682980e+001
 3.602929666639025e+000	 1.426366999559909e+000	 1.077004952498144e+001
 3.588574448069307e+000	 1.462107530537802e+000	 1.079166713705978e+001
 3.573834759719991e+000	 1.497775053341878e+000	 1.081698356685249e+001
 3.558710591909605e+000	 1.533363597854615e+000	 1.084654447444077e+001
 3.543202054414117e+000	 1.568867171491587e+000	 1.088095168495314e+001
 3.527309377572676e+000	 1.604279762093628e+000	 1.092086574604244e+001
 3.511032913312080e+000	 1.639595340867676e+000	 1.096700838182927e+001
 3.494373136087754e+000	 1.674807865373687e+000	 1.102016483244284e+001
 3.477330643739132e+000	 1.709911282554987e+000	 1.108118606839009e+001
 3.459906158257415e+000	 1.744899531809236e+000	 1.115099086912701e+001
 3.442100526463804e+000	 1.779766548097172e+000	 1.123056775539249e+001
 3.626174374164190e+000	 1.435569367300273e+000	 1.074162042641481e+001
 3.611726541280953e+000	 1.471540482348824e+000	 1.076791015388063e+001
 3.596891758167983e+000	 1.507438118203121e+000	 1.079743888915844e+001
 3.581670015081345e+000	 1.543256266228756e+000	 1.083074939050431e+001
 3.566061422505243e+000	 1.578988895179467e+000	 1.086844237091039e+001
 3.550066212264883e+000	 1.614629954107966e+000	 1.091117912976954e+001
 3.533684738557561e+000	 1.650173375325751e+000	 1.095968407833189e+001
 3.516917478899702e+000	 1.685613077409295e+000	 1.101474714782120e+001
 3.499765034987770e+000	 1.720942968249945e+000	 1.107722606918165e+001
 3.482228133470974e+000	 1.756156948144701e+000	 1.114804851357165e+001
 3.464307626633878e+000	 1.791248912925016e+000	 1.122821408291275e+001
 3.649419081688355e+000	 1.444771735041142e+000	 1.070770025822194e+001
 3.634878634491609e+000	 1.480973434160260e+000	 1.073984494178087e+001
 3.619948756615013e+000	 1.517101183064708e+000	 1.077474521523388e+001
 3.604629438252175e+000	 1.553148934603190e+000	 1.081293975174093e+001
 3.588920790595527e+000	 1.589110618867609e+000	 1.085502699570325e+001
 3.572823046956338e+000	 1.624980146122555e+000	 1.090166787071833e+001
 3.556336563802396e+000	 1.660751409784085e+000	 1.095358837862734e+001
 3.539461821711133e+000	 1.696418289445192e+000	 1.101158207825508e+001
 3.522199426236039e+000	 1.731974653945240e+000	 1.107651243254689e+001
 3.504550108684335e+000	 1.767414364480573e+000	 1.114931501295757e+001
 3.486514726803943e+000	 1.802731277753356e+000	 1.123099955014256e+001
 3.672663789211519e+000	 1.453974102782516e+000	 1.066893249110408e+001
 3.658030727701275e+000	 1.490406385972112e+000	 1.070811794297393e+001
 3.643005755061083e+000	 1.526764247926639e+000	 1.074955164461486e+001
 3.627588861422094e+000	 1.563041602977917e+000	 1.079376699442727e+001
 3.611780158684968e+000	 1.599232342556013e+000	 1.084135900565714e+001
 3.595579881647038e+000	 1.635330338137394e+000	 1.089298709275781e+001
 3.578988389046586e+000	 1.671329444242679e+000	 1.094937774611952e+001
 3.562006164522048e+000	 1.707223501481376e+000	 1.101132708349353e+001
 3.544633817483943e+000	 1.743006339640873e+000	 1.107970326654478e+001
 3.526872083897499e+000	 1.778671780816851e+000	 1.115544877112056e+001
 3.508721826974002e+000	 1.814213642582192e+000	 1.123958250002290e+001
 3.695908496733685e+000	 1.463176470524395e+000	 1.062596024171912e+001
 3.681182820909950e+000	 1.499839337784378e+000	 1.067337548914030e+001
 3.666062753506191e+000	 1.536427312788914e+000	 1.072250740976028e+001
 3.650548284591099e+000	 1.572934271352937e+000	 1.077388293105311e+001
 3.634639526773566e+000	 1.609354066244679e+000	 1.082809246632382e+001
 3.618336716336984e+000	 1.645680530152484e+000	 1.088579278160695e+001
 3.601640214290131e+000	 1.681907478701532e+000	 1.094770974818289e+001
 3.584550507332447e+000	 1.718028713517848e+000	 1.101464096876009e+001
 3.567068208731479e+000	 1.754038025336841e+000	 1.108745826548155e+001
 3.549194059110464e+000	 1.789929197153535e+000	 1.116711001807023e+001
 3.530928927144053e+000	 1.825696007411524e+000	 1.125462334063386e+001
 3.719153204254849e+000	 1.472378838266780e+000	 1.057942628374534e+001
 3.704334914117635e+000	 1.509272289597060e+000	 1.063626380488168e+001
 3.689119751950341e+000	 1.546090377651535e+000	 1.069426187189807e+001
 3.673507707759193e+000	 1.582826939728250e+000	 1.075393973856480e+001
 3.657498894861322e+000	 1.619475789933607e+000	 1.081588204313060e+001
 3.641093551026176e+000	 1.656030722167824e+000	 1.088074175790182e+001
 3.624292039533033e+000	 1.692485513160644e+000	 1.094924302166347e+001
 3.607094850142330e+000	 1.728833925554609e+000	 1.102218384270682e+001
 3.589502599978649e+000	 1.765069711033148e+000	 1.110043866034043e+001
 3.571516034323234e+000	 1.801186613490626e+000	 1.118496075292216e+001
 3.553136027314097e+000	 1.837178372241353e+000	 1.127678448065897e+001
 3.331065025613314e+000	 1.722354723965393e+000	 1.129653444381790e+001
 3.313465858646516e+000	 1.755973804923333e+000	 1.116465801647301e+001
 3.295499844011498e+000	 1.789463824188730e+000	 1.103623856251282e+001
 3.277168166668326e+000	 1.822818917859585e+000	 1.091206535249046e+001
 3.258472134105683e+000	 1.856033230080492e+000	 1.079300022856003e+001
 3.239413176539813e+000	 1.889100916188957e+000	 1.077961066008088e+001
 3.219992847017981e+000	 1.922016145879749e+000	 1.089519522503963e+001
 3.200212821425362e+000	 1.954773106383973e+000	 1.100093445248080e+001
 3.180074898394475e+000	 1.987366005659461e+000	 1.109608279718509e+001
 3.159580999116347e+000	 2.019789075589026e+000	 1.117985381317243e+001
 3.138733167052782e+000	 2.052036575183095e+000	 1.125141988116310e+001
 3.353272125783427e+000	 1.733837088790756e+000	 1.127828309285107e+001
 3.335555631036250e+000	 1.767680296954858e+000	 1.113381774423271e+001
 3.317469842969797e+000	 1.801393583015249e+000	 1.099153468436381e+001
 3.299015954443869e+000	 1.834971043977251e+000	 1.085216115889679e+001
 3.280195281663736e+000	 1.868406784946424e+000	 1.071649946675014e+001
 3.261009264380423e+000	 1.901694922295855e+000	 1.078595671327713e+001
 3.241459465994842e+000	 1.934829586851615e+000	 1.089653841413695e+001
 3.221547573564735e+000	 1.967804927093015e+000	 1.099666663269530e+001
 3.201275397713506e+000	 2.000615112364274e+000	 1.108554329953174e+001
 3.180644872440122e+000	 2.033254336094089e+000	 1.116232840001795e+001
 3.159658054829465e+000	 2.065716819019625e+000	 1.122613973379323e+001
 3.375479225953534e+000	 1.745319453616616e+000	 1.126191258534126e+001
 3.357645403426167e+000	 1.779386788986964e+000	 1.110407771805526e+001
 3.339439841928447e+000	 1.813323341842405e+000	 1.094712884718239e+001
 3.320863742219913e+000	 1.847123170095580e+000	 1.079173121022009e+001
 3.301918429222424e+000	 1.880780339813014e+000	 1.068544193560024e+001
 3.282605352221780e+000	 1.914288928403380e+000	 1.079992167457737e+001
 3.262926084972539e+000	 1.947643027824043e+000	 1.090417805001604e+001
 3.242882325705017e+000	 1.980836747802526e+000	 1.099740399015881e+001
 3.222475897033497e+000	 2.013864219069431e+000	 1.107874974018626e+001
 3.201708745764888e+000	 2.046719596599342e+000	 1.114732251850748e+001
 3.180582942607150e+000	 2.079397062856160e+000	 1.120218630700030e+001
 3.397686326123631e+000	 1.756801818442972e+000	 1.124806987834114e+001
 3.379735175816265e+000	 1.791093281019651e+000	 1.107611617619256e+001
 3.361409840887453e+000	 1.825253100670198e+000	 1.090373000570665e+001
 3.342711529996462e+000	 1.859275296214572e+000	 1.073151459437710e+001
 3.323641576781748e+000	 1.893153894680265e+000	 1.071362900184600e+001
 3.304201440063882e+000	 1.926882934511530e+000	 1.082097319161600e+001
 3.284392703951075e+000	 1.960456468797033e+000	 1.091759806367847e+001
 3.264217077846207e+000	 1.993868568512505e+000	 1.100264683810172e+001
 3.243676396354447e+000	 2.027113325774932e+000	 1.107521890686083e+001
 3.222772619090644e+000	 2.060184857104785e+000	 1.113436951624047e+001
 3.201507830385834e+000	 2.093077306692701e+000	 1.117910958659248e+001
 3.419893426293720e+000	 1.768284183269824e+000	 1.123740435682980e+001
 3.401824948206546e+000	 1.802799773052920e+000	 1.105061320699242e+001
 3.383379839846811e+000	 1.837182859498628e+000	 1.086204839092655e+001
 3.364559317773515e+000	 1.871427422334228e+000	 1.067225110596453e+001
 3.345364724341706e+000	 1.905527449548174e+000	 1.074969083535496e+001
 3.325797527906732e+000	 1.939476940620305e+000	 1.084857849351826e+001
 3.305859322930448e+000	 1.973269909770586e+000	 1.093628141256646e+001
 3.285551829988306e+000	 2.006900389222952e+000	 1.101189396654975e+001
 3.264876895676356e+000	 2.040362432480778e+000	 1.107446552010210e+001
 3.243836492417388e+000	 2.073650117610419e+000	 1.112300013565168e+001
 3.222432718165519e+000	 2.106757550529247e+000	 1.115645642145112e+001
 3.442100526463804e+000	 1.779766548097172e+000	 1.123056775539249e+001
 3.423914720597010e+000	 1.814506265086770e+000	 1.102825068921798e+001
 3.405349838806521e+000	 1.849112618327695e+000	 1.082279546891447e+001
 3.386407105551071e+000	 1.883579548454547e+000	 1.069324224940990e+001
 3.367087871902299e+000	 1.917901004416744e+000	 1.079307918438333e+001
 3.347393615750326e+000	 1.952070946729707e+000	 1.088220440440049e+001
 3.327325941910659e+000	 1.986083350744701e+000	 1.095971011196800e+001
 3.306886582131312e+000	 2.019932209933868e+000	 1.102464269145971e+001
 3.286077394999225e+000	 2.053611539186969e+000	 1.107600229997396e+001
 3.264900365745122e+000	 2.087115378116242e+000	 1.111274259804883e+001
 3.243357605946203e+000	 2.120437794365798e+000	 1.113377062472200e+001
 3.464307626633878e+000	 1.791248912925016e+000	 1.122821408291275e+001
 3.446004492987656e+000	 1.826212757121202e+000	 1.100971223466269e+001
 3.427319837766585e+000	 1.861042377157399e+000	 1.078668390123925e+001
 3.408254893329133e+000	 1.895731674575529e+000	 1.075410464889357e+001
 3.388811019463529e+000	 1.930274559285973e+000	 1.084324592988815e+001
 3.368989703594667e+000	 1.964664952839736e+000	 1.092131735635124e+001
 3.348792560891706e+000	 1.998896791719378e+000	 1.098736526521414e+001
 3.328221334275228e+000	 2.032964030645252e+000	 1.104038890196516e+001
 3.307277894323051e+000	 2.066860645893502e+000	 1.107934003017555e+001
 3.285964239073846e+000	 2.100580638622255e+000	 1.110312268441795e+001
 3.264282493727888e+000	 2.134118038202354e+000	 1.111059307111453e+001
 3.486514726803943e+000	 1.802731277753356e+000	 1.123099955014256e+001
 3.468094265378485e+000	 1.837919249156214e+000	 1.099568313295820e+001
 3.449289836727001e+000	 1.872972135987741e+000	 1.075442750689302e+001
 3.430102681107698e+000	 1.907883800697174e+000	 1.082250477835441e+001
 3.410534167025391e+000	 1.942648114155861e+000	 1.089964308130113e+001
 3.390585791439755e+000	 1.977258958950389e+000	 1.096538340191616e+001
 3.370259179873592e+000	 2.011710232694617e+000	 1.101872709272214e+001
 3.349556086420052e+000	 2.045995851357105e+000	 1.105862710581672e+001
 3.328478393647839e+000	 2.080109752600381e+000	 1.108398761970901e+001
 3.307028112403561e+000	 2.114045899128458e+000	 1.109366381314062e+001
 3.285207381510571e+000	 2.147798282038917e+000	 1.108646179048252e+001
 3.508721826974002e+000	 1.814213642582192e+000	 1.123958250002290e+001
 3.490184037769495e+000	 1.849625741191809e+000	 1.098685029847825e+001
 3.471259835687771e+000	 1.884901894818718e+000	 1.082333748524963e+001
 3.451950468886766e+000	 1.920035926819483e+000	 1.089788135451695e+001
 3.432257314587890e+000	 1.955021669026409e+000	 1.096172277246300e+001
 3.412181879285589e+000	 1.989852965061668e+000	 1.101386822610890e+001
 3.391725798856314e+000	 2.024523673670419e+000	 1.105327495993582e+001
 3.370890838565784e+000	 2.059027672069426e+000	 1.107885047309666e+001
 3.349678892973585e+000	 2.093358859307605e+000	 1.108945216220519e+001
 3.328091985734264e+000	 2.127511159634852e+000	 1.108388711475990e+001
 3.306132269294255e+000	 2.161478525875483e+000	 1.106091205785124e+001
 3.530928927144053e+000	 1.825696007411524e+000	 1.125462334063386e+001
 3.512273810160687e+000	 1.861332233227984e+000	 1.098390221924614e+001
 3.493229834648894e+000	 1.896831653650335e+000	 1.091948182758812e+001
 3.473798256666338e+000	 1.932188052942454e+000	 1.097967369519134e+001
 3.453980462151023e+000	 1.967395223897617e+000	 1.102893725771128e+001
 3.433777967132169e+000	 2.002446971173574e+000	 1.106623715796867e+001
 3.413192417839874e+000	 2.037337114646784e+000	 1.109048740421150e+001
 3.392225590712425e+000	 2.072059492782216e+000	 1.110055087828400e+001
 3.370879392300290e+000	 2.106607966015173e+000	 1.109523899301093e+001
 3.349155859065959e+000	 2.140976420141436e+000	 1.107331150392502e+001
 3.327057157078940e+000	 2.175158769712056e+000	 1.103347648004731e+001
 3.553136027314097e+000	 1.837178372241353e+000	 1.127678448065897e+001
 3.534363582552064e+000	 1.873038725264742e+000	 1.098752890775820e+001
 3.515199833610370e+000	 1.908761412482587e+000	 1.102277985769497e+001
 3.495646044446416e+000	 1.944340179066090e+000	 1.106732170048947e+001
 3.475703609714793e+000	 1.979768778769484e+000	 1.110073890811474e+001
 3.455374054979496e+000	 2.015040977286106e+000	 1.112195518168448e+001
 3.434659036824272e+000	 2.050150555623710e+000	 1.112984216069573e+001
 3.413560342859975e+000	 2.085091313495475e+000	 1.112321894074208e+001
 3.392079891627955e+000	 2.119857072723085e+000	 1.110085174413536e+001
 3.370219732398642e+000	 2.154441680648209e+000	 1.106145374863796e+001
 3.347982044864625e+000	 2.188839013548634e+000	 1.100368507907985e+001
 3.138733167052782e+000	 2.052036575183095e+000	 1.125141988116310e+001
 3.117533567548996e+000	 2.084102793783212e+000	 1.125685476979549e+001
 3.095984487346924e+000	 2.115982054262759e+000	 1.126839720153247e+001
 3.074088333998507e+000	 2.147668716221342e+000	 1.126878613869687e+001
 3.051847635178519e+000	 2.179157179169301e+000	 1.125736447280136e+001
 3.029265037897612e+000	 2.210441885698607e+000	 1.123348876664257e+001
 3.006343307615602e+000	 2.241517324636550e+000	 1.119653057896061e+001
 2.983085327255383e+000	 2.272378034178562e+000	 1.114587776659047e+001
 2.959494096117997e+000	 2.303018604996550e+000	 1.108093576073812e+001
 2.935572728699535e+000	 2.333433683319122e+000	 1.100112881406298e+001
 2.911324453410707e+000	 2.363617973980084e+000	 1.090590121530772e+001
 3.159658054829465e+000	 2.065716819019625e+000	 1.122613973379323e+001
 3.138317124662376e+000	 2.097996812411230e+000	 1.121732593583274e+001
 3.116624383925715e+000	 2.130088601294634e+000	 1.120828735463082e+001
 3.094582256221773e+000	 2.161986507666774e+000	 1.120782451370525e+001
 3.072193286076493e+000	 2.193684893701391e+000	 1.119688806463667e+001
 3.049460138147258e+000	 2.225178164941071e+000	 1.117488185144340e+001
 3.026385596330288e+000	 2.256460773471950e+000	 1.114122381059334e+001
 3.002972562767960e+000	 2.287527221077428e+000	 1.109534722963865e+001
 2.979224056756658e+000	 2.318372062367228e+000	 1.103670198071986e+001
 2.955143213555779e+000	 2.348989907878144e+000	 1.096475572567715e+001
 2.930733283098773e+000	 2.379375427142877e+000	 1.087899508956629e+001
 3.180582942607150e+000	 2.079397062856160e+000	 1.120218630700030e+001
 3.159100681776744e+000	 2.111890831039068e+000	 1.118982161040078e+001
 3.137264280505466e+000	 2.144195148326173e+000	 1.116684487606469e+001
 3.115076178445952e+000	 2.176304299111745e+000	 1.114818413382912e+001
 3.092538936975307e+000	 2.208212608232925e+000	 1.113909894013596e+001
 3.069655238397657e+000	 2.239914444182912e+000	 1.112030328046597e+001
 3.046427885045616e+000	 2.271404222306690e+000	 1.109126058810059e+001
 3.022859798281050e+000	 2.302676407975629e+000	 1.105144871726025e+001
 2.998954017395681e+000	 2.333725519737263e+000	 1.100036113486330e+001
 2.974713698412216e+000	 2.364546132436579e+000	 1.093750808467288e+001
 2.950142112786840e+000	 2.395132880305170e+000	 1.086241772068297e+001
 3.201507830385834e+000	 2.093077306692701e+000	 1.117910958659248e+001
 3.179884238892103e+000	 2.125784849666726e+000	 1.116430271568926e+001
 3.157904177086178e+000	 2.158301695357377e+000	 1.114061857282908e+001
 3.135570100671041e+000	 2.190622090556254e+000	 1.110736002098035e+001
 3.112884587874963e+000	 2.222740322763901e+000	 1.108415812629235e+001
 3.089850338648807e+000	 2.254650723424129e+000	 1.106989265596537e+001
 3.066470173761587e+000	 2.286347671140771e+000	 1.104675943429071e+001
 3.042747033794652e+000	 2.317825594873165e+000	 1.101428002784123e+001
 3.018683978035067e+000	 2.349078977106659e+000	 1.097199066172121e+001
 2.994284183268845e+000	 2.380102356994429e+000	 1.091944334374734e+001
 2.969550942474911e+000	 2.410890333466961e+000	 1.085620695868109e+001
 3.222432718165519e+000	 2.106757550529247e+000	 1.115645642145112e+001
 3.200667796008453e+000	 2.139678868294204e+000	 1.114028844349877e+001
 3.178544073667850e+000	 2.172408242388246e+000	 1.111698285583733e+001
 3.156064022897041e+000	 2.204939882000303e+000	 1.108589992730783e+001
 3.133230238775460e+000	 2.237268037294321e+000	 1.104634833325620e+001
 3.110045438900709e+000	 2.269387002664723e+000	 1.102378956679347e+001
 3.086512462478198e+000	 2.301291119974192e+000	 1.100783945295726e+001
 3.062634269308765e+000	 2.332974781770036e+000	 1.098394012430248e+001
 3.038413938674816e+000	 2.364432434475414e+000	 1.095166973678927e+001
 3.013854668125669e+000	 2.395658581551693e+000	 1.091062125350999e+001
 2.988959772162985e+000	 2.426647786628250e+000	 1.086040350073666e+001
 3.243357605946203e+000	 2.120437794365798e+000	 1.113377062472200e+001
 3.221451353125792e+000	 2.153572886921502e+000	 1.111729557296709e+001
 3.199183970250482e+000	 2.186514789418779e+000	 1.109542813230060e+001
 3.176557945123952e+000	 2.219257673443890e+000	 1.106758549294299e+001
 3.153575889676799e+000	 2.251795751824183e+000	 1.103313039342357e+001
 3.130240539153362e+000	 2.284123281904694e+000	 1.099137103183807e+001
 3.106554751195452e+000	 2.316234568806955e+000	 1.097462031013755e+001
 3.082521504823393e+000	 2.348123968666242e+000	 1.096052909653424e+001
 3.058143899314926e+000	 2.379785891843527e+000	 1.093947921647570e+001
 3.033425152982683e+000	 2.411214806108370e+000	 1.091110378835647e+001
 3.008368601851061e+000	 2.442405239789038e+000	 1.087505079933472e+001
 3.264282493727888e+000	 2.134118038202354e+000	 1.111059307111453e+001
 3.242234910244121e+000	 2.167466905548621e+000	 1.109483854789825e+001
 3.219823866834076e+000	 2.200621336448978e+000	 1.107544306854197e+001
 3.197051867351773e+000	 2.233575464887016e+000	 1.105188027437167e+001
 3.173921540578977e+000	 2.266323466353488e+000	 1.102356646761801e+001
 3.150435639406766e+000	 2.298859561144042e+000	 1.098986043766126e+001
 3.126597039913347e+000	 2.331178017639058e+000	 1.095006346234370e+001
 3.102408740338531e+000	 2.363273155561783e+000	 1.094414812527520e+001
 3.077873859955401e+000	 2.395139349211001e+000	 1.093550158422588e+001
 3.052995637839890e+000	 2.426771030664460e+000	 1.092095507519329e+001
 3.027777431539140e+000	 2.458162692949324e+000	 1.090019497395812e+001
 3.285207381510571e+000	 2.147798282038917e+000	 1.108646179048252e+001
 3.263018467363441e+000	 2.181360924175559e+000	 1.107242955113610e+001
 3.240463763418629e+000	 2.214727883478840e+000	 1.105651464543859e+001
 3.217545789580505e+000	 2.247893256329681e+000	 1.103824670946836e+001
 3.194267191481998e+000	 2.280851180882235e+000	 1.101709512308634e+001
 3.170630739660923e+000	 2.313595840382766e+000	 1.099246875128623e+001
 3.146639328631884e+000	 2.346121466470502e+000	 1.096371586605429e+001
 3.122295975854181e+000	 2.378422342456659e+000	 1.093489944737218e+001
 3.097603820596237e+000	 2.410492806577833e+000	 1.093982089870584e+001
 3.072566122697291e+000	 2.442327255219966e+000	 1.094024132488666e+001
 3.047186261227222e+000	 2.473920146109110e+000	 1.093588472615130e+001
 3.306132269294255e+000	 2.161478525875483e+000	 1.106091205785124e+001
 3.283802024483750e+000	 2.195254942802317e+000	 1.104957857611378e+001
 3.261103660004143e+000	 2.228834430508366e+000	 1.103812821175872e+001
 3.238039711810148e+000	 2.262211047771884e+000	 1.102614615289521e+001
 3.214612842385859e+000	 2.295378895410425e+000	 1.101315438406943e+001
 3.190825839915830e+000	 2.328332119620868e+000	 1.099861134282253e+001
 3.166681617351064e+000	 2.361064915301286e+000	 1.098191176226676e+001
 3.142183211370345e+000	 2.393571529350870e+000	 1.096238670278967e+001
 3.117333781237435e+000	 2.425846263944024e+000	 1.095252274395355e+001
 3.092136607554884e+000	 2.457883479774885e+000	 1.096903076631427e+001
 3.066595090915306e+000	 2.489677599268394e+000	 1.098217125780950e+001
 3.327057157078940e+000	 2.175158769712056e+000	 1.103347648004731e+001
 3.304585581605049e+000	 2.209148961428895e+000	 1.102579349570302e+001
 3.281743556590617e+000	 2.242940977537558e+000	 1.101976753548583e+001
 3.258533634040701e+000	 2.276528839213626e+000	 1.101503891016531e+001
 3.234958493290562e+000	 2.309906609938059e+000	 1.101118174887790e+001
 3.211020940171490e+000	 2.343068398858346e+000	 1.100770357097916e+001
 3.186723906070885e+000	 2.376008364131412e+000	 1.100404504949172e+001
 3.162070446887021e+000	 2.408720716244415e+000	 1.099957996946124e+001
 3.137063741878996e+000	 2.441199721309576e+000	 1.099361538393182e+001
 3.111707092412668e+000	 2.473439704329218e+000	 1.100739358290591e+001
 3.086003920603393e+000	 2.505435052427177e+000	 1.099799829532535e+001
 3.347982044864625e+000	 2.188839013548634e+000	 1.100368507907985e+001
 3.325369138727341e+000	 2.223042980055294e+000	 1.100058012848179e+001
 3.302383453178052e+000	 2.257047524566414e+000	 1.100091485321808e+001
 3.279027556272166e+000	 2.290846630654907e+000	 1.100438427042865e+001
 3.255304144196106e+000	 2.324434324465135e+000	 1.101061420632726e+001
 3.231216040427900e+000	 2.357804678095201e+000	 1.101916078342090e+001
 3.206766194791349e+000	 2.390951812960879e+000	 1.102951010496970e+001
 3.181957682404208e+000	 2.423869903137296e+000	 1.104107814020465e+001
 3.156793702520920e+000	 2.456553178674487e+000	 1.105321081320420e+001
 3.131277577270648e+000	 2.488995928882965e+000	 1.106518429769657e+001
 3.105412750291483e+000	 2.521192505585459e+000	 1.094159022329167e+001
 2.911324453410707e+000	 2.363617973980084e+000	 1.090590121530772e+001
 2.886752611199269e+000	 2.393566243432211e+000	 1.092401371215374e+001
 2.861860654078760e+000	 2.423273322721160e+000	 1.094689964345504e+001
 2.836652143563399e+000	 2.452734110416955e+000	 1.097453960716319e+001
 2.811130749008874e+000	 2.481943575500790e+000	 1.100691826099889e+001
 2.785300245862961e+000	 2.510896760202158e+000	 1.099598598433101e+001
 2.759164513826918e+000	 2.539588782783472e+000	 1.092198213749011e+001
 2.732727534929508e+000	 2.568014840268935e+000	 1.086980451825383e+001
 2.705993391515634e+000	 2.596170211114460e+000	 1.084003650456596e+001
 2.678966264151707e+000	 2.624050257815533e+000	 1.083324255056841e+001
 2.651650429450000e+000	 2.651650429450000e+000	 1.084996732560041e+001
 2.930733283098773e+000	 2.379375427142877e+000	 1.087899508956629e+001
 2.905997628606329e+000	 2.409523351724013e+000	 1.091595231812714e+001
 2.880939725105363e+000	 2.439428478207633e+000	 1.095643249546381e+001
 2.855563157853521e+000	 2.469085671154231e+000	 1.100036642082052e+001
 2.829871620668864e+000	 2.498489866004878e+000	 1.104769029206724e+001
 2.803868914168815e+000	 2.527636071937260e+000	 1.097097216175829e+001
 2.777558943919312e+000	 2.556519374668874e+000	 1.090708907775599e+001
 2.750945718495975e+000	 2.585134939204087e+000	 1.086396910496705e+001
 2.724033347459338e+000	 2.613478012521847e+000	 1.084216841089595e+001
 2.696826039246255e+000	 2.641543926200947e+000	 1.084222527744869e+001
 2.669328098979750e+000	 2.669328098979750e+000	 1.086465926336478e+001
 2.950142112786840e+000	 2.395132880305170e+000	 1.086241772068297e+001
 2.925242646013206e+000	 2.425480460015402e+000	 1.091757649582334e+001
 2.900018796131630e+000	 2.455583633693764e+000	 1.097501445183581e+001
 2.874474172143181e+000	 2.485437231891217e+000	 1.103461275455689e+001
 2.848612492328293e+000	 2.515036156508704e+000	 1.101995342160515e+001
 2.822437582474045e+000	 2.544375383672111e+000	 1.094631217278345e+001
 2.795953374011047e+000	 2.573449966554016e+000	 1.089184052511802e+001
 2.769163902061778e+000	 2.602255038138947e+000	 1.085708389353587e+001
 2.742073303402402e+000	 2.630785813928895e+000	 1.084257166907803e+001
 2.714685814340219e+000	 2.659037594585950e+000	 1.084881638668130e+001
 2.687005768509000e+000	 2.687005768509000e+000	 1.087631291057546e+001
 2.969550942474911e+000	 2.410890333466961e+000	 1.085620695868109e+001
 2.944487663419903e+000	 2.441437568306380e+000	 1.092894050251740e+001
 2.919097867157557e+000	 2.471738789179554e+000	 1.100271584334331e+001
 2.893385186432377e+000	 2.501788792627911e+000	 1.106746118139058e+001
 2.867353363987166e+000	 2.531582447012270e+000	 1.098590975865230e+001
 2.841006250778652e+000	 2.561114695406711e+000	 1.092198962422284e+001
 2.814347804102123e+000	 2.590380558438898e+000	 1.087623305190099e+001
 2.787382085626915e+000	 2.619375137073518e+000	 1.084915811137262e+001
 2.760113259344826e+000	 2.648093615335601e+000	 1.084126784551200e+001
 2.732545589433598e+000	 2.676531262970544e+000	 1.085304946207937e+001
 2.704683438037750e+000	 2.704683438037750e+000	 1.088497354162014e+001
 2.988959772162985e+000	 2.426647786628250e+000	 1.086040350073666e+001
 2.963732680826416e+000	 2.457394676596947e+000	 1.095010105472878e+001
 2.938176938183147e+000	 2.487893944665003e+000	 1.103960907889011e+001
 2.912296200721112e+000	 2.518140353364315e+000	 1.102444969632628e+001
 2.886094235645479e+000	 2.548128737515575e+000	 1.095288584544308e+001
 2.859574919082636e+000	 2.577854007141061e+000	 1.089798910036332e+001
 2.832742234192540e+000	 2.607311150323519e+000	 1.086026385585323e+001
 2.805600269191387e+000	 2.636495236007798e+000	 1.084020126698225e+001
 2.778153215286610e+000	 2.665401416741968e+000	 1.083827845124572e+001
 2.750405364526391e+000	 2.694024931354727e+000	 1.085495770371136e+001
 2.722361107566000e+000	 2.722361107566000e+000	 1.089068572696152e+001
 3.008368601851061e+000	 2.442405239789038e+000	 1.087505079933472e+001
 2.982977698232747e+000	 2.473351784887102e+000	 1.098111724889096e+001
 2.957256009208400e+000	 2.504049100150113e+000	 1.106063177582307e+001
 2.931207215009381e+000	 2.534491914100428e+000	 1.098312934686771e+001
 2.904835107303235e+000	 2.564675028018620e+000	 1.092085464972942e+001
 2.878143587385996e+000	 2.594593318875161e+000	 1.087429613143084e+001
 2.851136664282297e+000	 2.624241742207880e+000	 1.084393073997170e+001
 2.823818452755195e+000	 2.653615334941789e+000	 1.083022314089484e+001
 2.796193171227755e+000	 2.682709218147996e+000	 1.083362494376070e+001
 2.768265139618600e+000	 2.711518599738501e+000	 1.085457394028001e+001
 2.740038777093750e+000	 2.740038777093750e+000	 1.089349335584458e+001
 3.027777431539140e+000	 2.458162692949324e+000	 1.090019497395812e+001
 3.002222715638894e+000	 2.489308893176847e+000	 1.102205048507201e+001
 2.976335080233315e+000	 2.520204255634879e+000	 1.101145103766879e+001
 2.950118229297189e+000	 2.550843474836250e+000	 1.094346185049540e+001
 2.923575978960431e+000	 2.581221318521404e+000	 1.088979039171830e+001
 2.896712255688731e+000	 2.611332630609010e+000	 1.085089716327198e+001
 2.869531094371395e+000	 2.641172334091981e+000	 1.082723209310301e+001
 2.842036636318339e+000	 2.670735433875489e+000	 1.081923377694689e+001
 2.814233127168260e+000	 2.700017019553682e+000	 1.082732872868893e+001
 2.786124914710225e+000	 2.729012268121865e+000	 1.085193064102507e+001
 2.757716446621000e+000	 2.757716446620999e+000	 1.089343965813042e+001
 3.047186261227222e+000	 2.473920146109110e+000	 1.093588472615130e+001
 3.021467733044860e+000	 2.505266001466179e+000	 1.103671251702858e+001
 2.995414151257892e+000	 2.536359411119305e+000	 1.096457244124145e+001
 2.969029243584533e+000	 2.567195035571781e+000	 1.090541047004061e+001
 2.942316850617070e+000	 2.597767609023927e+000	 1.085966850418473e+001
 2.915280923990842e+000	 2.628071942342609e+000	 1.082777952819398e+001
 2.887925524459833e+000	 2.658102925975822e+000	 1.081016687128576e+001
 2.860254819880818e+000	 2.687855532808900e+000	 1.080724347389564e+001
 2.832273083108124e+000	 2.717324820959029e+000	 1.081941116146416e+001
 2.803984689801263e+000	 2.746505936504818e+000	 1.084705992717116e+001
 2.775394116147749e+000	 2.775394116147750e+000	 1.089056722529582e+001
 3.066595090915306e+000	 2.489677599268394e+000	 1.098217125780950e+001
 3.040712750450644e+000	 2.521223109755101e+000	 1.098307769982491e+001
 3.014493222282131e+000	 2.552514566603390e+000	 1.091994863958119e+001
 2.987940257871414e+000	 2.583546596307021e+000	 1.086893996478200e+001
 2.961057722273150e+000	 2.614313899526189e+000	 1.083046559409937e+001
 2.933849592292329e+000	 2.644811254075957e+000	 1.080493141691225e+001
 2.906319954547613e+000	 2.675033517859402e+000	 1.079273457980138e+001
 2.878473003442633e+000	 2.704975631742019e+000	 1.079426277735214e+001
 2.850313039047349e+000	 2.734632622364035e+000	 1.080989354891043e+001
 2.821844464891718e+000	 2.763999604887362e+000	 1.083999358294089e+001
 2.793071785673999e+000	 2.793071785673999e+000	 1.088491803063522e+001
 3.086003920603393e+000	 2.505435052427177e+000	 1.099799829532535e+001
 3.059957767856244e+000	 2.537180218043611e+000	 1.093232557639300e+001
 3.033572293306033e+000	 2.568669722087134e+000	 1.087753405333962e+001
 3.006851272157832e+000	 2.599898157041971e+000	 1.083401654338746e+001
 2.979798593928671e+000	 2.630860190028191e+000	 1.080215940570406e+001
 2.952418260593193e+000	 2.661550565809055e+000	 1.078234185155636e+001
 2.924714384634734e+000	 2.691964109742721e+000	 1.077493525590244e+001
 2.896691187003782e+000	 2.722095730674849e+000	 1.078030247201834e+001
 2.868352994985935e+000	 2.751940423768701e+000	 1.079879715077072e+001
 2.839704239981586e+000	 2.781493273269495e+000	 1.083076306615250e+001
 2.810749455199750e+000	 2.810749455199749e+000	 1.087653344870044e+001
 3.105412750291483e+000	 2.521192505585459e+000	 1.094159022329167e+001
 3.079202785261663e+000	 2.553137326331711e+000	 1.088440055874013e+001
 3.052651364329597e+000	 2.584824877570536e+000	 1.083728481554195e+001
 3.025762286443788e+000	 2.616249717776630e+000	 1.080060781862073e+001
 2.998539465583634e+000	 2.647406480529932e+000	 1.077472878497213e+001
 2.970986928893433e+000	 2.678289877541903e+000	 1.076000065968837e+001
 2.943108814721196e+000	 2.708894701625782e+000	 1.075676945218850e+001
 2.914909370564268e+000	 2.739215829607388e+000	 1.076537357421569e+001
 2.886392950923881e+000	 2.769248225173028e+000	 1.078614318117819e+001
 2.857564015070872e+000	 2.798986941651220e+000	 1.081939951841981e+001
 2.828427124725000e+000	 2.828427124725000e+000	 1.086545427401141e+001
 2.651650429450000e+000	 2.651650429450000e+000	 1.084996732560041e+001
 2.624050257815533e+000	 2.678966264151706e+000	 1.087836179763065e+001
 2.596170211114461e+000	 2.705993391515634e+000	 1.088619577041869e+001
 2.568014840268935e+000	 2.732727534929508e+000	 1.087302668711328e+001
 2.539588782783472e+000	 2.759164513826918e+000	 1.083843329546033e+001
 2.510896760202157e+000	 2.785300245862960e+000	 1.078201582763123e+001
 2.481943575500790e+000	 2.811130749008874e+000	 1.074218540848854e+001
 2.452734110416955e+000	 2.836652143563399e+000	 1.070151732732739e+001
 2.423273322721160e+000	 2.861860654078760e+000	 1.063486955817099e+001
 2.393566243432212e+000	 2.886752611199269e+000	 1.054093879006202e+001
 2.363617973980084e+000	 2.911324453410707e+000	 1.041845897062034e+001
 2.669328098979750e+000	 2.669328098979750e+000	 1.086465926336478e+001
 2.641543926200946e+000	 2.696826039246255e+000	 1.087986825710582e+001
 2.613478012521847e+000	 2.724033347459337e+000	 1.087680617410715e+001
 2.585134939204086e+000	 2.750945718495975e+000	 1.085509700867559e+001
 2.556519374668874e+000	 2.777558943919311e+000	 1.081438392454409e+001
 2.527636071937259e+000	 2.803868914168815e+000	 1.075432936314121e+001
 2.498489866004878e+000	 2.829871620668864e+000	 1.067801853883529e+001
 2.469085671154231e+000	 2.855563157853522e+000	 1.064299588292081e+001
 2.439428478207632e+000	 2.880939725105363e+000	 1.058453346028272e+001
 2.409523351724013e+000	 2.905997628606329e+000	 1.050135671313606e+001
 2.379375427142877e+000	 2.930733283098773e+000	 1.039222628168216e+001
 2.687005768509000e+000	 2.687005768509000e+000	 1.087631291057546e+001
 2.659037594585950e+000	 2.714685814340219e+000	 1.087965197767437e+001
 2.630785813928895e+000	 2.742073303402402e+000	 1.086698099535126e+001
 2.602255038138947e+000	 2.769163902061777e+000	 1.083798998932860e+001
 2.573449966554016e+000	 2.795953374011047e+000	 1.079238603893186e+001
 2.544375383672111e+000	 2.822437582474046e+000	 1.072989331414632e+001
 2.515036156508704e+000	 2.848612492328293e+000	 1.065025308825486e+001
 2.485437231891216e+000	 2.874474172143180e+000	 1.058671867395334e+001
 2.455583633693764e+000	 2.900018796131629e+000	 1.053769605045354e+001
 2.425480460015402e+000	 2.925242646013206e+000	 1.046649139715192e+001
 2.395132880305170e+000	 2.950142112786840e+000	 1.037189129822547e+001
 2.704683438037750e+000	 2.704683438037750e+000	 1.088497354162014e+001
 2.676531262970543e+000	 2.732545589433597e+000	 1.087773144492874e+001
 2.648093615335602e+000	 2.760113259344826e+000	 1.085671248627744e+001
 2.619375137073518e+000	 2.787382085626915e+000	 1.082167221620776e+001
 2.590380558438898e+000	 2.814347804102123e+000	 1.077238114201989e+001
 2.561114695406711e+000	 2.841006250778652e+000	 1.070862469395172e+001
 2.531582447012270e+000	 2.867353363987166e+000	 1.063020316985519e+001
 2.501788792627911e+000	 2.893385186432378e+000	 1.053693165895391e+001
 2.471738789179555e+000	 2.919097867157557e+000	 1.049429502451381e+001
 2.441437568306380e+000	 2.944487663419903e+000	 1.043626044067571e+001
 2.410890333466960e+000	 2.969550942474911e+000	 1.035735210353238e+001
 2.722361107566000e+000	 2.722361107566000e+000	 1.089068572696152e+001
 2.694024931354727e+000	 2.750405364526391e+000	 1.087412511956707e+001
 2.665401416741969e+000	 2.778153215286610e+000	 1.084599353849559e+001
 2.636495236007799e+000	 2.805600269191388e+000	 1.080611156533979e+001
 2.607311150323519e+000	 2.832742234192540e+000	 1.075431266022647e+001
 2.577854007141061e+000	 2.859574919082636e+000	 1.069044305744117e+001
 2.548128737515575e+000	 2.886094235645479e+000	 1.061436164244269e+001
 2.518140353364315e+000	 2.912296200721112e+000	 1.052593981097021e+001
 2.487893944665004e+000	 2.938176938183148e+000	 1.045427237928144e+001
 2.457394676596946e+000	 2.963732680826416e+000	 1.041058629675909e+001
 2.426647786628250e+000	 2.988959772162985e+000	 1.034851217196800e+001
 2.740038777093750e+000	 2.740038777093750e+000	 1.089349335584458e+001
 2.711518599738501e+000	 2.768265139618600e+000	 1.086885143819629e+001
 2.682709218147995e+000	 2.796193171227754e+000	 1.083481766247062e+001
 2.653615334941789e+000	 2.823818452755196e+000	 1.079127716006565e+001
 2.624241742207880e+000	 2.851136664282297e+000	 1.073812588095900e+001
 2.594593318875161e+000	 2.878143587385995e+000	 1.067527041909051e+001
 2.564675028018620e+000	 2.904835107303235e+000	 1.060262782200389e+001
 2.534491914100429e+000	 2.931207215009382e+000	 1.052012538556871e+001
 2.504049100150112e+000	 2.957256009208400e+000	 1.042770043463488e+001
 2.473351784887102e+000	 2.982977698232746e+000	 1.038939611634297e+001
 2.442405239789038e+000	 3.008368601851061e+000	 1.034528019507456e+001
 2.757716446621000e+000	 2.757716446620999e+000	 1.089343965813042e+001
 2.729012268121864e+000	 2.786124914710225e+000	 1.086192881410421e+001
 2.700017019553682e+000	 2.814233127168259e+000	 1.082317896768734e+001
 2.670735433875489e+000	 2.842036636318339e+000	 1.077713933106241e+001
 2.641172334091982e+000	 2.869531094371395e+000	 1.072376789296686e+001
 2.611332630609010e+000	 2.896712255688730e+000	 1.066303117413471e+001
 2.581221318521404e+000	 2.923575978960431e+000	 1.059490396984405e+001
 2.550843474836251e+000	 2.950118229297189e+000	 1.051936908050926e+001
 2.520204255634879e+000	 2.976335080233315e+000	 1.043641703128218e+001
 2.489308893176847e+000	 3.002222715638894e+000	 1.037262159768421e+001
 2.458162692949325e+000	 3.027777431539140e+000	 1.034756991435418e+001
 2.775394116147749e+000	 2.775394116147750e+000	 1.089056722529582e+001
 2.746505936504817e+000	 2.803984689801263e+000	 1.085337563800228e+001
 2.717324820959029e+000	 2.832273083108124e+000	 1.081107214357336e+001
 2.687855532808899e+000	 2.860254819880818e+000	 1.076366957789313e+001
 2.658102925975822e+000	 2.887925524459834e+000	 1.071118752897382e+001
 2.628071942342609e+000	 2.915280923990842e+000	 1.065365202274741e+001
 2.597767609023927e+000	 2.942316850617070e+000	 1.059109519878714e+001
 2.567195035571781e+000	 2.969029243584532e+000	 1.052355497701573e+001
 2.536359411119304e+000	 2.995414151257892e+000	 1.045107471647590e+001
 2.505266001466179e+000	 3.021467733044860e+000	 1.037370286725334e+001
 2.473920146109110e+000	 3.047186261227222e+000	 1.035529996044217e+001
 2.793071785673999e+000	 2.793071785673999e+000	 1.088491803063522e+001
 2.763999604887362e+000	 2.821844464891717e+000	 1.084321027873988e+001
 2.734632622364035e+000	 2.850313039047350e+000	 1.079849244114651e+001
 2.704975631742019e+000	 2.878473003442633e+000	 1.075084053201678e+001
 2.675033517859402e+000	 2.906319954547613e+000	 1.070033531048902e+001
 2.644811254075957e+000	 2.933849592292329e+000	 1.064706189709989e+001
 2.614313899526189e+000	 2.961057722273150e+000	 1.059110938293800e+001
 2.583546596307021e+000	 2.987940257871413e+000	 1.053257043270431e+001
 2.552514566603390e+000	 3.014493222282131e+000	 1.047154088286569e+001
 2.521223109755101e+000	 3.040712750450644e+000	 1.040811933609672e+001
 2.489677599268394e+000	 3.066595090915306e+000	 1.036839369838755e+001
 2.810749455199750e+000	 2.810749455199749e+000	 1.087653344870044e+001
 2.781493273269495e+000	 2.839704239981586e+000	 1.083145108399196e+001
 2.751940423768702e+000	 2.868352994985934e+000	 1.078543565535474e+001
 2.722095730674848e+000	 2.896691187003782e+000	 1.073862592119398e+001
 2.691964109742721e+000	 2.924714384634734e+000	 1.069116339470052e+001
 2.661550565809055e+000	 2.952418260593193e+000	 1.064319189117242e+001
 2.630860190028191e+000	 2.979798593928671e+000	 1.059485707084956e+001
 2.599898157041970e+000	 3.006851272157832e+000	 1.054630597855238e+001
 2.568669722087133e+000	 3.033572293306033e+000	 1.049768658142358e+001
 2.537180218043611e+000	 3.059957767856244e+000	 1.044914730607119e+001
 2.505435052427177e+000	 3.086003920603393e+000	 1.040083657640978e+001
 2.828427124725000e+000	 2.828427124725000e+000	 1.086545427401141e+001
 2.798986941651219e+000	 2.857564015070872e+000	 1.081811638092061e+001
 2.769248225173028e+000	 2.886392950923880e+000	 1.077189810807834e+001
 2.739215829607388e+000	 2.914909370564268e+000	 1.072700053522766e+001
 2.708894701625783e+000	 2.943108814721196e+000	 1.068362552336023e+001
 2.678289877541903e+000	 2.970986928893433e+000	 1.064197519319782e+001
 2.647406480529932e+000	 2.998539465583634e+000	 1.060225140194632e+001
 2.616249717776630e+000	 3.025762286443787e+000	 1.056465521973091e+001
 2.584824877570536e+000	 3.052651364329597e+000	 1.052938640712134e+001
 2.553137326331711e+000	 3.079202785261663e+000	 1.049664289515090e+001
 2.521192505585459e+000	 3.105412750291483e+000	 1.046662026922287e+001
 2.363617973980084e+000	 2.911324453410707e+000	 1.041845897062034e+001
 2.333433683319122e+000	 2.935572728699535e+000	 1.037020227215712e+001
 2.303018604996550e+000	 2.959494096117997e+000	 1.033066575058386e+001
 2.272378034178562e+000	 2.983085327255383e+000	 1.029954902403472e+001
 2.241517324636550e+000	 3.006343307615601e+000	 1.027655271896331e+001
 2.210441885698607e+000	 3.029265037897612e+000	 1.026137923432434e+001
 2.179157179169300e+000	 3.051847635178518e+000	 1.025373347686889e+001
 2.147668716221342e+000	 3.074088333998506e+000	 1.025332356594714e+001
 2.115982054262759e+000	 3.095984487346924e+000	 1.025986150634083e+001
 2.084102793783212e+000	 3.117533567548997e+000	 1.027306382778116e+001
 2.052036575183095e+000	 3.138733167052782e+000	 1.014300131990039e+001
 2.379375427142877e+000	 2.930733283098773e+000	 1.039222628168216e+001
 2.348989907878144e+000	 2.955143213555779e+000	 1.037705240163975e+001
 2.318372062367228e+000	 2.979224056756658e+000	 1.036856059565031e+001
 2.287527221077428e+000	 3.002972562767960e+000	 1.036638828152413e+001
 2.256460773471950e+000	 3.026385596330287e+000	 1.037017646486755e+001
 2.225178164941071e+000	 3.049460138147258e+000	 1.037957056150522e+001
 2.193684893701392e+000	 3.072193286076492e+000	 1.039422118671818e+001
 2.161986507666774e+000	 3.094582256221773e+000	 1.041378490961744e+001
 2.130088601294634e+000	 3.116624383925715e+000	 1.043792497111280e+001
 2.097996812411230e+000	 3.138317124662376e+000	 1.032268501416879e+001
 2.065716819019625e+000	 3.159658054829465e+000	 1.012247205768176e+001
 2.395132880305170e+000	 2.950142112786840e+000	 1.037189129822547e+001
 2.364546132436579e+000	 2.974713698412216e+000	 1.038891798736096e+001
 2.333725519737264e+000	 2.998954017395681e+000	 1.041061238637120e+001
 2.302676407975629e+000	 3.022859798281050e+000	 1.043654988405716e+001
 2.271404222306690e+000	 3.046427885045616e+000	 1.046631202625423e+001
 2.239914444182912e+000	 3.069655238397657e+000	 1.049948739653514e+001
 2.208212608232925e+000	 3.092538936975307e+000	 1.053567245943484e+001
 2.176304299111745e+000	 3.115076178445951e+000	 1.057447236444325e+001
 2.144195148326173e+000	 3.137264280505467e+000	 1.048531219654455e+001
 2.111890831039068e+000	 3.159100681776744e+000	 1.029259817533039e+001
 2.079397062856160e+000	 3.180582942607150e+000	 1.010211992470664e+001
 2.410890333466960e+000	 2.969550942474911e+000	 1.035735210353238e+001
 2.380102356994429e+000	 2.994284183268845e+000	 1.040571789910346e+001
 2.349078977106659e+000	 3.018683978035067e+000	 1.045676015385654e+001
 2.317825594873165e+000	 3.042747033794653e+000	 1.050999238908655e+001
 2.286347671140771e+000	 3.066470173761587e+000	 1.056493684259514e+001
 2.254650723424129e+000	 3.089850338648807e+000	 1.062112540772155e+001
 2.222740322763901e+000	 3.112884587874964e+000	 1.067810053060551e+001
 2.190622090556255e+000	 3.135570100671041e+000	 1.062562916521777e+001
 2.158301695357377e+000	 3.157904177086178e+000	 1.044577676031047e+001
 2.125784849666726e+000	 3.179884238892103e+000	 1.026401620916054e+001
 2.093077306692701e+000	 3.201507830385834e+000	 1.008222779261295e+001
 2.426647786628250e+000	 2.988959772162985e+000	 1.034851217196800e+001
 2.395658581551693e+000	 3.013854668125669e+000	 1.042737588569946e+001
 2.364432434475413e+000	 3.038413938674816e+000	 1.050694731059413e+001
 2.332974781770036e+000	 3.062634269308767e+000	 1.058667825234492e+001
 2.301291119974192e+000	 3.086512462478199e+000	 1.066603178331979e+001
 2.269387002664723e+000	 3.110045438900708e+000	 1.074448323997558e+001
 2.237268037294321e+000	 3.133230238775461e+000	 1.073841475405297e+001
 2.204939882000303e+000	 3.156064022897041e+000	 1.057678907971870e+001
 2.172408242388246e+000	 3.178544073667851e+000	 1.040908604453505e+001
 2.139678868294204e+000	 3.200667796008453e+000	 1.023721602669555e+001
 2.106757550529247e+000	 3.222432718165518e+000	 1.006307947338885e+001
 2.442405239789038e+000	 3.008368601851061e+000	 1.034528019507456e+001
 2.411214806108369e+000	 3.033425152982682e+000	 1.045382041764203e+001
 2.379785891843528e+000	 3.058143899314927e+000	 1.056112150911487e+001
 2.348123968666241e+000	 3.082521504823392e+000	 1.066657370209378e+001
 2.316234568806955e+000	 3.106554751195452e+000	 1.076958103717184e+001
 2.284123281904694e+000	 3.130240539153362e+000	 1.081847906499727e+001
 2.251795751824183e+000	 3.153575889676799e+000	 1.068044380420319e+001
 2.219257673443891e+000	 3.176557945123951e+000	 1.053214352507690e+001
 2.186514789418780e+000	 3.199183970250483e+000	 1.037551103091851e+001
 2.153572886921501e+000	 3.221451353125791e+000	 1.021247581285515e+001
 2.120437794365798e+000	 3.243357605946203e+000	 1.004495968903878e+001
 2.458162692949325e+000	 3.027777431539140e+000	 1.034756991435418e+001
 2.426771030664461e+000	 3.052995637839891e+000	 1.048498453574983e+001
 2.395139349211001e+000	 3.077873859955400e+000	 1.061923450609381e+001
 2.363273155561783e+000	 3.102408740338531e+000	 1.074964861820923e+001
 2.331178017639058e+000	 3.126597039913347e+000	 1.086066257037566e+001
 2.298859561144042e+000	 3.150435639406766e+000	 1.075157579976225e+001
 2.266323466353488e+000	 3.173921540578977e+000	 1.062802502929515e+001
 2.233575464887016e+000	 3.197051867351772e+000	 1.049195759172977e+001
 2.200621336448977e+000	 3.219823866834076e+000	 1.034532430119404e+001
 2.167466905548620e+000	 3.242234910244121e+000	 1.019007498561287e+001
 2.134118038202355e+000	 3.264282493727888e+000	 1.002815404241630e+001
 2.473920146109110e+000	 3.047186261227222e+000	 1.035529996044217e+001
 2.442327255219966e+000	 3.072566122697290e+000	 1.052080570561527e+001
 2.410492806577833e+000	 3.097603820596236e+000	 1.068124203164509e+001
 2.378422342456658e+000	 3.122295975854182e+000	 1.083587641588833e+001
 2.346121466470502e+000	 3.146639328631884e+000	 1.078504529655984e+001
 2.313595840382766e+000	 3.170630739660922e+000	 1.069158807120784e+001
 2.280851180882235e+000	 3.194267191481998e+000	 1.058141767220368e+001
 2.247893256329681e+000	 3.217545789580505e+000	 1.045649828866038e+001
 2.214727883478839e+000	 3.240463763418629e+000	 1.031879998617145e+001
 2.181360924175558e+000	 3.263018467363440e+000	 1.017029415672685e+001
 2.147798282038917e+000	 3.285207381510571e+000	 1.001294898917158e+001
 2.489677599268394e+000	 3.066595090915306e+000	 1.036839369838755e+001
 2.457883479774885e+000	 3.092136607554884e+000	 1.056122567758018e+001
 2.425846263944025e+000	 3.117333781237435e+000	 1.074710366358004e+001
 2.393571529350869e+000	 3.142183211370345e+000	 1.077573744434912e+001
 2.361064915301287e+000	 3.166681617351064e+000	 1.071771053591227e+001
 2.328332119620868e+000	 3.190825839915830e+000	 1.063876932287887e+001
 2.295378895410425e+000	 3.214612842385859e+000	 1.054088320500916e+001
 2.262211047771884e+000	 3.238039711810147e+000	 1.042603448268398e+001
 2.228834430508366e+000	 3.261103660004143e+000	 1.029621371671563e+001
 2.195254942802317e+000	 3.283802024483750e+000	 1.015341509396178e+001
 2.161478525875483e+000	 3.306132269294256e+000	 9.999631810764166e+000
 2.505435052427177e+000	 3.086003920603393e+000	 1.040083657640978e+001
 2.473439704329218e+000	 3.111707092412669e+000	 1.060619035199507e+001
 2.441199721309576e+000	 3.137063741878996e+000	 1.071856226313298e+001
 2.408720716244414e+000	 3.162070446887020e+000	 1.070129030924788e+001
 2.376008364131412e+000	 3.186723906070886e+000	 1.065890598439981e+001
 2.343068398858345e+000	 3.211020940171488e+000	 1.059337553015162e+001
 2.309906609938059e+000	 3.234958493290562e+000	 1.050668525889667e+001
 2.276528839213626e+000	 3.258533634040700e+000	 1.040083684002554e+001
 2.242940977537558e+000	 3.281743556590617e+000	 1.027784257657510e+001
 2.209148961428895e+000	 3.304585581605049e+000	 1.013972068473658e+001
 2.175158769712056e+000	 3.327057157078940e+000	 9.988490588494111e+000
 2.521192505585459e+000	 3.105412750291483e+000	 1.046662026922287e+001
 2.488995928882964e+000	 3.131277577270647e+000	 1.060845499664386e+001
 2.456553178674486e+000	 3.156793702520920e+000	 1.063724531032003e+001
 2.423869903137295e+000	 3.181957682404208e+000	 1.063673619189816e+001
 2.390951812960879e+000	 3.206766194791349e+000	 1.060888216426335e+001
 2.357804678095201e+000	 3.231216040427900e+000	 1.055566512111412e+001
 2.324434324465135e+000	 3.255304144196106e+000	 1.047908955668395e+001
 2.290846630654907e+000	 3.279027556272165e+000	 1.038117777008824e+001
 2.257047524566414e+000	 3.302383453178052e+000	 1.026396505697932e+001
 2.223042980055295e+000	 3.325369138727341e+000	 1.012949490113513e+001
 2.188839013548634e+000	 3.347982044864625e+000	 9.979814178506969e+000
 2.052036575183095e+000	 3.138733167052782e+000	 1.014300131990039e+001
 2.019789075589026e+000	 3.159580999116348e+000	 1.004781182550499e+001
 1.987366005659461e+000	 3.180074898394475e+000	 9.961327124450451e+000
 1.954773106383973e+000	 3.200212821425363e+000	 9.885107343615175e+000
 1.922016145879748e+000	 3.219992847017981e+000	 9.820680825356750e+000
 1.889100916188957e+000	 3.239413176539813e+000	 9.769540670479257e+000
 1.856033230080492e+000	 3.258472134105683e+000	 9.704073426733618e+000
 1.822818917859585e+000	 3.277168166668327e+000	 9.633443005956950e+000
 1.789463824188730e+000	 3.295499844011498e+000	 9.580917199746518e+000
 1.755973804923333e+000	 3.313465858646516e+000	 9.547975024101145e+000
 1.722354723965393e+000	 3.331065025613313e+000	 9.536030790313291e+000
 2.065716819019625e+000	 3.159658054829465e+000	 1.012247205768176e+001
 2.033254336094089e+000	 3.180644872440123e+000	 1.003356926811958e+001
 2.000615112364274e+000	 3.201275397713506e+000	 9.953680360587280e+000
 1.967804927093015e+000	 3.221547573564735e+000	 9.884401214413138e+000
 1.934829586851615e+000	 3.241459465994842e+000	 9.827295377396005e+000
 1.901694922295856e+000	 3.261009264380424e+000	 9.783890532049133e+000
 1.868406784946424e+000	 3.280195281663736e+000	 9.745400361789299e+000
 1.834971043977251e+000	 3.299015954443868e+000	 9.682207783366476e+000
 1.801393583015249e+000	 3.317469842969797e+000	 9.637770781770565e+000
 1.767680296954858e+000	 3.335555631036250e+000	 9.613598942000126e+000
 1.733837088790757e+000	 3.353272125783427e+000	 9.611135746463093e+000
 2.079397062856160e+000	 3.180582942607150e+000	 1.010211992470664e+001
 2.046719596599342e+000	 3.201708745764888e+000	 1.001898922244755e+001
 2.013864219069431e+000	 3.222475897033497e+000	 9.945175712955296e+000
 1.980836747802525e+000	 3.242882325705017e+000	 9.882312053486722e+000
 1.947643027824043e+000	 3.262926084972539e+000	 9.831998021352502e+000
 1.914288928403380e+000	 3.282605352221780e+000	 9.795796901831780e+000
 1.880780339813014e+000	 3.301918429222424e+000	 9.775231970943461e+000
 1.847123170095580e+000	 3.320863742219913e+000	 9.728133383452377e+000
 1.813323341842404e+000	 3.339439841928448e+000	 9.691311228671005e+000
 1.779386788986964e+000	 3.357645403426167e+000	 9.675442606977672e+000
 1.745319453616616e+000	 3.375479225953533e+000	 9.682001062089197e+000
 2.093077306692701e+000	 3.201507830385834e+000	 1.008222779261295e+001
 2.060184857104785e+000	 3.222772619090644e+000	 1.000435114341823e+001
 2.027113325774932e+000	 3.243676396354447e+000	 9.936089206056634e+000
 1.993868568512505e+000	 3.264217077846208e+000	 9.879112447892268e+000
 1.960456468797033e+000	 3.284392703951076e+000	 9.835057906494074e+000
 1.926882934511530e+000	 3.304201440063883e+000	 9.805525497604744e+000
 1.893153894680265e+000	 3.323641576781748e+000	 9.792074419742578e+000
 1.859275296214572e+000	 3.342711529996462e+000	 9.771344932295360e+000
 1.825253100670198e+000	 3.361409840887453e+000	 9.741661669371437e+000
 1.791093281019651e+000	 3.379735175816265e+000	 9.733627257818618e+000
 1.756801818442972e+000	 3.397686326123631e+000	 9.748746197916084e+000
 2.106757550529247e+000	 3.222432718165518e+000	 1.006307947338885e+001
 2.073650117610419e+000	 3.243836492417388e+000	 9.989935325962923e+000
 2.040362432480778e+000	 3.264876895676356e+000	 9.926697602520932e+000
 2.006900389222952e+000	 3.285551829988306e+000	 9.875075619466326e+000
 1.973269909770586e+000	 3.305859322930449e+000	 9.836744712102304e+000
 1.939476940620305e+000	 3.325797527906732e+000	 9.813342461028473e+000
 1.905527449548174e+000	 3.345364724341706e+000	 9.806465016967463e+000
 1.871427422334229e+000	 3.364559317773515e+000	 9.811967763724375e+000
 1.837182859498628e+000	 3.383379839846811e+000	 9.788945330651485e+000
 1.802799773052920e+000	 3.401824948206546e+000	 9.788274120129973e+000
 1.768284183269824e+000	 3.419893426293720e+000	 9.811490489371794e+000
 2.120437794365798e+000	 3.243357605946203e+000	 1.004495968903878e+001
 2.087115378116242e+000	 3.264900365745122e+000	 9.976022877918080e+000
 2.053611539186969e+000	 3.286077394999225e+000	 9.917278379294853e+000
 2.019932209933868e+000	 3.306886582131313e+000	 9.870475404348825e+000
 1.986083350744701e+000	 3.327325941910659e+000	 9.837328630375394e+000
 1.952070946729707e+000	 3.347393615750327e+000	 9.819514343972656e+000
 1.917901004416744e+000	 3.367087871902299e+000	 9.818666684476938e+000
 1.883579548454547e+000	 3.386407105551073e+000	 9.836373996613665e+000
 1.849112618327695e+000	 3.405349838806522e+000	 9.833285533990161e+000
 1.814506265086770e+000	 3.423914720597010e+000	 9.839504406766142e+000
 1.779766548097172e+000	 3.442100526463804e+000	 9.870353150629713e+000
 2.134118038202355e+000	 3.264282493727888e+000	 1.002815404241630e+001
 2.100580638622255e+000	 3.285964239073846e+000	 9.962895693970609e+000
 2.066860645893503e+000	 3.307277894323052e+000	 9.908109704747234e+000
 2.032964030645252e+000	 3.328221334275228e+000	 9.865586233293881e+000
 1.998896791719378e+000	 3.348792560891706e+000	 9.837080349988449e+000
 1.964664952839736e+000	 3.368989703594667e+000	 9.824308095368515e+000
 1.930274559285973e+000	 3.388811019463529e+000	 9.828942640549347e+000
 1.895731674575529e+000	 3.408254893329133e+000	 9.852610558890863e+000
 1.861042377157399e+000	 3.427319837766585e+000	 9.874805692530671e+000
 1.826212757121202e+000	 3.446004492987656e+000	 9.887439318237567e+000
 1.791248912925016e+000	 3.464307626633877e+000	 9.925453278494947e+000
 2.147798282038917e+000	 3.285207381510571e+000	 1.001294898917158e+001
 2.114045899128458e+000	 3.307028112403561e+000	 9.950836430599010e+000
 2.080109752600382e+000	 3.328478393647839e+000	 9.899470416649326e+000
 2.045995851357105e+000	 3.349556086420052e+000	 9.860683112733039e+000
 2.011710232694617e+000	 3.370259179873592e+000	 9.836271040282169e+000
 1.977258958950389e+000	 3.390585791439756e+000	 9.827991048563503e+000
 1.942648114155861e+000	 3.410534167025391e+000	 9.837556390442467e+000
 1.907883800697174e+000	 3.430102681107697e+000	 9.866632911454097e+000
 1.872972135987740e+000	 3.449289836727001e+000	 9.913629308161118e+000
 1.837919249156214e+000	 3.468094265378485e+000	 9.932200043103888e+000
 1.802731277753356e+000	 3.486514726803944e+000	 9.976909856142161e+000
 2.161478525875483e+000	 3.306132269294256e+000	 9.999631810764166e+000
 2.127511159634852e+000	 3.328091985734265e+000	 9.940128481966015e+000
 2.093358859307605e+000	 3.349678892973584e+000	 9.891640000991119e+000
 2.059027672069426e+000	 3.370890838565784e+000	 9.856041606557648e+000
 2.024523673670419e+000	 3.391725798856314e+000	 9.835172336051871e+000
 1.989852965061668e+000	 3.412181879285589e+000	 9.830830909156301e+000
 1.955021669026409e+000	 3.432257314587890e+000	 9.844771717311780e+000
 1.920035926819483e+000	 3.451950468886766e+000	 9.878700928570652e+000
 1.884901894818718e+000	 3.471259835687771e+000	 9.934272716968025e+000
 1.849625741191809e+000	 3.490184037769495e+000	 9.973907758352151e+000
 1.814213642582192e+000	 3.508721826974003e+000	 1.002484175671150e+001
 2.175158769712056e+000	 3.327057157078940e+000	 9.988490588494111e+000
 2.140976420141436e+000	 3.349155859065959e+000	 9.931055956720927e+000
 2.106607966015173e+000	 3.370879392300290e+000	 9.884898571597187e+000
 2.072059492782216e+000	 3.392225590712425e+000	 9.851937818588658e+000
 2.037337114646783e+000	 3.413192417839874e+000	 9.834056322910598e+000
 2.002446971173574e+000	 3.433777967132169e+000	 9.833095743290743e+000
 1.967395223897617e+000	 3.453980462151022e+000	 9.850852673471701e+000
 1.932188052942454e+000	 3.473798256666338e+000	 9.889074661213778e+000
 1.896831653650335e+000	 3.493229834648894e+000	 9.949456354120732e+000
 1.861332233227984e+000	 3.512273810160688e+000	 1.001268362976066e+001
 1.825696007411525e+000	 3.530928927144053e+000	 1.006936774676878e+001
 2.188839013548634e+000	 3.347982044864625e+000	 9.979814178506969e+000
 2.154441680648210e+000	 3.370219732398643e+000	 9.923903655671989e+000
 2.119857072723086e+000	 3.392079891627955e+000	 9.879526850506789e+000
 2.085091313495474e+000	 3.413560342859974e+000	 9.848648375703821e+000
 2.050150555623710e+000	 3.434659036824271e+000	 9.833195523201026e+000
 2.015040977286106e+000	 3.455374054979496e+000	 9.835053966388779e+000
 1.979768778769484e+000	 3.475703609714792e+000	 9.856063571984208e+000
 1.944340179066090e+000	 3.495646044446416e+000	 9.898014331540686e+000
 1.908761412482587e+000	 3.515199833610370e+000	 9.962642422114014e+000
 1.873038725264741e+000	 3.534363582552064e+000	 1.004864881224935e+001
 1.837178372241353e+000	 3.553136027314097e+000	 1.011060648963592e+001
 1.722354723965393e+000	 3.331065025613313e+000	 9.536030790313291e+000
 1.688612450138004e+000	 3.348296282186655e+000	 9.530188170564273e+000
 1.654752854085250e+000	 3.365158687490438e+000	 9.522124272048529e+000
 1.620781805199965e+000	 3.381651422020275e+000	 9.512852885904001e+000
 1.586705168581185e+000	 3.397773787075000e+000	 9.503340657284733e+000
 1.552528802025695e+000	 3.413525204100325e+000	 9.494505090053091e+000
 1.518258553056114e+000	 3.428905213945840e+000	 9.487212696404034e+000
 1.483900255988309e+000	 3.443913476037222e+000	 9.482277294009448e+000
 1.449459729040825e+000	 3.458549767465619e+000	 9.480458452790089e+000
 1.414942771488917e+000	 3.472813981996224e+000	 9.482460092944422e+000
 1.380355160865667e+000	 3.486706128998200e+000	 9.488929235389602e+000
 1.733837088790757e+000	 3.353272125783427e+000	 9.611135746463093e+000
 1.699869866471438e+000	 3.370618257401203e+000	 9.606817010971469e+000
 1.665784539778524e+000	 3.387593078740911e+000	 9.599358277618290e+000
 1.631587017234133e+000	 3.404195764834802e+000	 9.589791150651706e+000
 1.597283203037965e+000	 3.420425612323706e+000	 9.579100269411303e+000
 1.562878994038781e+000	 3.436282038796304e+000	 9.568221260078547e+000
 1.528380276742684e+000	 3.451764582041180e+000	 9.558038833933656e+000
 1.493792924360984e+000	 3.466872899213522e+000	 9.549385034802937e+000
 1.459122793900348e+000	 3.481606765918416e+000	 9.543037637892367e+000
 1.424375723297864e+000	 3.495966075212821e+000	 9.539718701717373e+000
 1.389557528603505e+000	 3.509950836528365e+000	 9.540093274356327e+000
 1.745319453616616e+000	 3.375479225953533e+000	 9.682001062089197e+000
 1.711127282805278e+000	 3.392940232615552e+000	 9.678418210677531e+000
 1.676816225472134e+000	 3.410027469991017e+000	 9.670808885647642e+000
 1.642392229268590e+000	 3.426740107648814e+000	 9.660223364150550e+000
 1.607861237495004e+000	 3.443077437571767e+000	 9.647665101923069e+000
 1.573229186052117e+000	 3.459038873491527e+000	 9.634088631246929e+000
 1.538502000429517e+000	 3.474623950135680e+000	 9.620397607061175e+000
 1.503685592733952e+000	 3.489832322388910e+000	 9.607443004008619e+000
 1.468785858760214e+000	 3.504663764370250e+000	 9.596021466700845e+000
 1.433808675107226e+000	 3.519118168428429e+000	 9.586873814992737e+000
 1.398759896341848e+000	 3.533195544057530e+000	 9.580683705566601e+000
 1.756801818442972e+000	 3.397686326123631e+000	 9.748746197916084e+000
 1.722384699139524e+000	 3.415262207829704e+000	 9.745116181342187e+000
 1.687847911166081e+000	 3.432461861240755e+000	 9.736605133498889e+000
 1.653197441303334e+000	 3.449284450462311e+000	 9.724282868141597e+000
 1.618439271952301e+000	 3.465729262819184e+000	 9.709172483625501e+000
 1.583579378065703e+000	 3.481795708185998e+000	 9.692248206215968e+000
 1.548623724116612e+000	 3.497483318229334e+000	 9.674433383271634e+000
 1.513578261107214e+000	 3.512791745563388e+000	 9.656598629178454e+000
 1.478448923620424e+000	 3.527720762821125e+000	 9.639560126408641e+000
 1.443241626917003e+000	 3.542270261643044e+000	 9.624078083576256e+000
 1.407962264080697e+000	 3.556440251585694e+000	 9.610855351862796e+000
 1.768284183269824e+000	 3.419893426293720e+000	 9.811490489371794e+000
 1.733642115474177e+000	 3.437584183043659e+000	 9.807034924441267e+000
 1.698879596860366e+000	 3.454896252490127e+000	 9.796875374100843e+000
 1.664002653338367e+000	 3.471828793275292e+000	 9.782102056394720e+000
 1.629017306409859e+000	 3.488381088065955e+000	 9.763758542593829e+000
 1.593929570079541e+000	 3.504552542879714e+000	 9.742839544992258e+000
 1.558745447803969e+000	 3.520342686322147e+000	 9.720288856368608e+000
 1.523470929480768e+000	 3.535751168736953e+000	 9.696997444088519e+000
 1.488111988480978e+000	 3.550777761271039e+000	 9.673801701312378e+000
 1.452674578727196e+000	 3.565422354856672e+000	 9.651481857261391e+000
 1.417164631820050e+000	 3.579684959112860e+000	 9.630760547988086e+000
 1.779766548097172e+000	 3.442100526463804e+000	 9.870353150629713e+000
 1.744899531809236e+000	 3.459906158257415e+000	 9.864298044498387e+000
 1.709911282554987e+000	 3.477330643739131e+000	 9.851747298027281e+000
 1.674807865373687e+000	 3.494373136087755e+000	 9.833812405288285e+000
 1.639595340867676e+000	 3.511032913312080e+000	 9.811558244906228e+000
 1.604279762093628e+000	 3.527309377572676e+000	 9.786000811468441e+000
 1.568867171491587e+000	 3.543202054414117e+000	 9.758105100464052e+000
 1.533363597854616e+000	 3.558710591909605e+000	 9.728783149828516e+000
 1.497775053341877e+000	 3.573834759719990e+000	 9.698892240647531e+000
 1.462107530537802e+000	 3.588574448069307e+000	 9.669233259055503e+000
 1.426366999559909e+000	 3.602929666639025e+000	 9.640549220847717e+000
 1.791248912925016e+000	 3.464307626633877e+000	 9.925453278494947e+000
 1.756156948144701e+000	 3.482228133470974e+000	 9.917028761807798e+000
 1.720942968249945e+000	 3.499765034987769e+000	 9.901347954726299e+000
 1.685613077409295e+000	 3.516917478899702e+000	 9.879544503212724e+000
 1.650173375325751e+000	 3.533684738557561e+000	 9.852705431887371e+000
 1.614629954107966e+000	 3.550066212264883e+000	 9.821868818170414e+000
 1.578988895179467e+000	 3.566061422505243e+000	 9.788021621891442e+000
 1.543256266228757e+000	 3.581670015081346e+000	 9.752097673541757e+000
 1.507438118203120e+000	 3.596891758167982e+000	 9.714975823814697e+000
 1.471540482348824e+000	 3.611726541280953e+000	 9.677478256551227e+000
 1.435569367300273e+000	 3.626174374164190e+000	 9.640368966683303e+000
 1.802731277753356e+000	 3.486514726803944e+000	 9.976909856142161e+000
 1.767414364480573e+000	 3.504550108684335e+000	 9.965349924670985e+000
 1.731974653945240e+000	 3.522199426236039e+000	 9.945803772938358e+000
 1.696418289445191e+000	 3.539461821711133e+000	 9.919428078850451e+000
 1.660751409784085e+000	 3.556336563802396e+000	 9.887332855928525e+000
 1.624980146122555e+000	 3.572823046956338e+000	 9.850579069294462e+000
 1.589110618867609e+000	 3.588920790595527e+000	 9.810176409134998e+000
 1.553148934603190e+000	 3.604629438252175e+000	 9.767081224920256e+000
 1.517101183064707e+000	 3.619948756615012e+000	 9.722194623113262e+000
 1.480973434160260e+000	 3.634878634491609e+000	 9.676360730570249e+000
 1.444771735041142e+000	 3.649419081688354e+000	 9.630365125297820e+000
 1.814213642582192e+000	 3.508721826974003e+000	 1.002484175671150e+001
 1.778671780816851e+000	 3.526872083897497e+000	 1.000938402116861e+001
 1.743006339640873e+000	 3.544633817483943e+000	 9.985240580338838e+000
 1.707223501481376e+000	 3.562006164522048e+000	 9.953592028381753e+000
 1.671329444242679e+000	 3.578988389046586e+000	 9.915572214947554e+000
 1.635330338137394e+000	 3.595579881647038e+000	 9.872265802110153e+000
 1.599232342556013e+000	 3.611780158684968e+000	 9.824705980862946e+000
 1.563041602977918e+000	 3.627588861422092e+000	 9.773872350554495e+000
 1.526764247926639e+000	 3.643005755061083e+000	 9.720688964092695e+000
 1.490406385972112e+000	 3.658030727701275e+000	 9.666022541200366e+000
 1.453974102782516e+000	 3.672663789211519e+000	 9.610680851461828e+000
 1.825696007411525e+000	 3.530928927144053e+000	 1.006936774676878e+001
 1.789929197153535e+000	 3.549194059110465e+000	 1.004925319048819e+001
 1.754038025336842e+000	 3.567068208731479e+000	 1.001978362243958e+001
 1.718028713517848e+000	 3.584550507332447e+000	 9.982164441664125e+000
 1.681907478701532e+000	 3.601640214290131e+000	 9.937554185548414e+000
 1.645680530152484e+000	 3.618336716336984e+000	 9.887062026800775e+000
 1.609354066244679e+000	 3.634639526773566e+000	 9.831745432148130e+000
 1.572934271352937e+000	 3.650548284591098e+000	 9.772607986232135e+000
 1.536427312788914e+000	 3.666062753506191e+000	 9.710597383626389e+000
 1.499839337784378e+000	 3.681182820909950e+000	 9.646603591340574e+000
 1.463176470524395e+000	 3.695908496733685e+000	 9.581457183625243e+000
 1.837178372241353e+000	 3.553136027314097e+000	 1.011060648963592e+001
 1.801186613490626e+000	 3.571516034323234e+000	 1.008507923382699e+001
 1.765069711033149e+000	 3.589502599978649e+000	 1.004955758078139e+001
 1.728833925554609e+000	 3.607094850142331e+000	 1.000527262742991e+001
 1.692485513160644e+000	 3.624292039533032e+000	 9.953408454937238e+000
 1.656030722167824e+000	 3.641093551026176e+000	 9.895099564809804e+000
 1.619475789933607e+000	 3.657498894861323e+000	 9.831428478955337e+000
 1.582826939728251e+000	 3.673507707759193e+000	 9.763423507275679e+000
 1.546090377651534e+000	 3.689119751950341e+000	 9.692056685807849e+000
 1.509272289597059e+000	 3.704334914117636e+000	 9.618241887863219e+000
 1.472378838266780e+000	 3.719153204254850e+000	 9.542833110052362e+000
 1.380355160865667e+000	 3.486706128998200e+000	 9.488929235389602e+000
 1.345702650213483e+000	 3.500226332298184e+000	 9.318089502469990e+000
 1.310990965385763e+000	 3.513374828959480e+000	 9.181904250989160e+000
 1.276225802402121e+000	 3.526151967989605e+000	 9.080854570106023e+000
 1.241412824861386e+000	 3.538558208978484e+000	 9.015429732537470e+000
 1.206557661411701e+000	 3.550594120669679e+000	 8.979124334749342e+000
 1.171665903280343e+000	 3.562260379467235e+000	 8.963707890301803e+000
 1.136743101864962e+000	 3.573557767880753e+000	 8.964333011609377e+000
 1.101794766387843e+000	 3.584487172911278e+000	 8.976406119900181e+000
 1.066826361614632e+000	 3.595049584380677e+000	 8.995591206433012e+000
 1.031843305638912e+000	 3.605246093207198e+000	 9.017812951081668e+000
 1.389557528603505e+000	 3.509950836528365e+000	 9.540093274356327e+000
 1.354674001213380e+000	 3.523561174517189e+000	 9.368152292187364e+000
 1.319730905153325e+000	 3.536797327823012e+000	 9.232078926920108e+000
 1.284733974416420e+000	 3.549659647780074e+000	 9.132390172035876e+000
 1.249688910358818e+000	 3.562148597042228e+000	 9.069538808765007e+000
 1.214601379152982e+000	 3.574264748144659e+000	 9.038900409785430e+000
 1.179477009301037e+000	 3.586008782000778e+000	 9.027334344268203e+000
 1.144321389209951e+000	 3.597381486336912e+000	 9.029888338565618e+000
 1.109140064830153e+000	 3.608383754067450e+000	 9.041870312560386e+000
 1.073938537359064e+000	 3.619016581613070e+000	 9.058852209378980e+000
 1.038722261010886e+000	 3.629281067164810e+000	 9.076673168216086e+000
 1.398759896341848e+000	 3.533195544057530e+000	 9.580683705566601e+000
 1.363645352213865e+000	 3.546896016735199e+000	 9.407928703043048e+000
 1.328470844921530e+000	 3.560219826685568e+000	 9.272266319098399e+000
 1.293242146431385e+000	 3.573167327569589e+000	 9.174249770457553e+000
 1.257964995856909e+000	 3.585738985105054e+000	 9.114343344187629e+000
 1.222645096894885e+000	 3.597935375618769e+000	 9.089774754011090e+000
 1.187288115322284e+000	 3.609757184533504e+000	 9.083546809254401e+000
 1.151899676555395e+000	 3.621205204792322e+000	 9.089449747388349e+000
 1.116485363272793e+000	 3.632280335222947e+000	 9.102690986920761e+000
 1.081050713103668e+000	 3.642983578844875e+000	 9.118748544804371e+000
 1.045601216382847e+000	 3.653316041121927e+000	 9.133374264303441e+000
 1.407962264080697e+000	 3.556440251585694e+000	 9.610855351862796e+000
 1.372616703214941e+000	 3.570230858952214e+000	 9.437561349218498e+000
 1.337210784690379e+000	 3.583642325547142e+000	 9.302597083793087e+000
 1.301750318447017e+000	 3.596675007358150e+000	 9.206552321713055e+000
 1.266241081355659e+000	 3.609329373166961e+000	 9.149925440976144e+000
 1.230688814637408e+000	 3.621606003092005e+000	 9.131571262958024e+000
 1.195099221344086e+000	 3.633505587065414e+000	 9.132181101043750e+000
 1.159477963901295e+000	 3.645028923246981e+000	 9.142864486306937e+000
 1.123830661715762e+000	 3.656176916377770e+000	 9.158726321997106e+000
 1.088162888848445e+000	 3.666950576076089e+000	 9.175148807836550e+000
 1.052480171754797e+000	 3.677351015078551e+000	 9.187794723736582e+000
 1.417164631820050e+000	 3.579684959112860e+000	 9.630760547988086e+000
 1.381588054216606e+000	 3.593565701168235e+000	 9.457190546823174e+000
 1.345950724459871e+000	 3.607064824407739e+000	 9.323199766432905e+000
 1.310258490463315e+000	 3.620182687145757e+000	 9.229414855674497e+000
 1.274517166855068e+000	 3.632919761227950e+000	 9.176368591318363e+000
 1.238732532380554e+000	 3.645276630564371e+000	 9.164112265594259e+000
 1.202910327366441e+000	 3.657253989596509e+000	 9.173071644272229e+000
 1.167056251247652e+000	 3.668852641700889e+000	 9.189978584719496e+000
 1.131175960159060e+000	 3.680073497531919e+000	 9.209833447136335e+000
 1.095275064593396e+000	 3.690917573306717e+000	 9.227920709891482e+000
 1.059359127126733e+000	 3.701385989034681e+000	 9.239812309900840e+000
 1.426366999559909e+000	 3.602929666639025e+000	 9.640549220847717e+000
 1.390559405218861e+000	 3.616900543383259e+000	 9.466954388025844e+000
 1.354690664230007e+000	 3.630487323267354e+000	 9.334200869697884e+000
 1.318766662480280e+000	 3.643690366932413e+000	 9.242952537888387e+000
 1.282793252355136e+000	 3.656510149288022e+000	 9.193776882771482e+000
 1.246776250124320e+000	 3.668947258035864e+000	 9.187218574858436e+000
 1.210721433389350e+000	 3.681002392126788e+000	 9.206051517304177e+000
 1.174634538594466e+000	 3.692676360154049e+000	 9.230636892510068e+000
 1.138521258602688e+000	 3.703970078685392e+000	 9.255868475876772e+000
 1.102387240338519e+000	 3.714884570536753e+000	 9.276931107180525e+000
 1.066238082498657e+000	 3.725420962990318e+000	 9.289304088432369e+000
 1.435569367300273e+000	 3.626174374164190e+000	 9.640368966683303e+000
 1.399530756221705e+000	 3.640235385597289e+000	 9.466988812334712e+000
 1.363430604000785e+000	 3.653909822125991e+000	 9.335724918992064e+000
 1.327274834497910e+000	 3.667198046718112e+000	 9.247278729329590e+000
 1.291069337855863e+000	 3.680100537347176e+000	 9.202252768285964e+000
 1.254819967868708e+000	 3.692617885506485e+000	 9.201150377555255e+000
 1.218532539412814e+000	 3.704750794656250e+000	 9.230952495381942e+000
 1.182212825941735e+000	 3.716500078606457e+000	 9.264683117853464e+000
 1.145866557046644e+000	 3.727866659838192e+000	 9.296686538506149e+000
 1.109499416083815e+000	 3.738851567766201e+000	 9.322046028120910e+000
 1.073117037870568e+000	 3.749455936945461e+000	 9.336146449581900e+000
 1.444771735041142e+000	 3.649419081688354e+000	 9.630365125297820e+000
 1.408502107225139e+000	 3.663570227810325e+000	 9.457427675153577e+000
 1.372170543772207e+000	 3.677332320983648e+000	 9.327894525414040e+000
 1.335783006516208e+000	 3.690705726502858e+000	 9.242505043871812e+000
 1.299345423357249e+000	 3.703690925405412e+000	 9.201897118263043e+000
 1.262863685613718e+000	 3.716288512976234e+000	 9.206606869628628e+000
 1.226343645436830e+000	 3.728499197184897e+000	 9.247605092126673e+000
 1.189791113289461e+000	 3.740323797058116e+000	 9.291959863575537e+000
 1.153211855490931e+000	 3.751763240990319e+000	 9.327777790896899e+000
 1.116611591829284e+000	 3.762818564995061e+000	 9.323661109555316e+000
 1.079995993242467e+000	 3.773490910900110e+000	 9.297777532294390e+000
 1.453974102782516e+000	 3.672663789211519e+000	 9.610680851461828e+000
 1.417473458229163e+000	 3.686905070022366e+000	 9.438402813734410e+000
 1.380910483544273e+000	 3.700754819840327e+000	 9.310830446336309e+000
 1.344291178535171e+000	 3.714213406286652e+000	 9.228741403575580e+000
 1.307621508859294e+000	 3.727281313462730e+000	 9.192809270635365e+000
 1.270907403359349e+000	 3.739959140445111e+000	 9.203603255540909e+000
 1.234154751461400e+000	 3.752247599712728e+000	 9.254584929780096e+000
 1.197369400637643e+000	 3.764147515509024e+000	 9.290478026207078e+000
 1.160557153935546e+000	 3.775659822141769e+000	 9.301729485804826e+000
 1.123723767574925e+000	 3.786785562223331e+000	 9.290235507913030e+000
 1.086874948614353e+000	 3.797525884854265e+000	 9.257793188672306e+000
 1.463176470524395e+000	 3.695908496733685e+000	 9.581457183625243e+000
 1.426444809233777e+000	 3.710239912233413e+000	 9.410044110641319e+000
 1.389650423316982e+000	 3.724177318696026e+000	 9.284651643698535e+000
 1.352799350554802e+000	 3.737721086069491e+000	 9.206096091889892e+000
 1.315897594361998e+000	 3.750871701519130e+000	 9.176694417423118e+000
 1.278951121105601e+000	 3.763629767913117e+000	 9.202663518053862e+000
 1.241965857486524e+000	 3.775996002239742e+000	 9.245951047122054e+000
 1.204947687986281e+000	 3.787971233959182e+000	 9.272956356614277e+000
 1.167902452380490e+000	 3.799556403292545e+000	 9.276050228940864e+000
 1.130835943320740e+000	 3.810752559451013e+000	 9.257182052021173e+000
 1.093753903986227e+000	 3.821560858807927e+000	 9.218199146280080e+000
 1.472378838266780e+000	 3.719153204254850e+000	 9.542833110052362e+000
 1.435416160238980e+000	 3.733574754443465e+000	 9.372479554834500e+000
 1.398390363090334e+000	 3.747599817550745e+000	 9.249475340114708e+000
 1.361307522575099e+000	 3.761228765851378e+000	 9.208931940526174e+000
 1.324173679865361e+000	 3.774462089574614e+000	 9.198719888513530e+000
 1.286994838852475e+000	 3.787300395380251e+000	 9.208576130210334e+000
 1.249776963512203e+000	 3.799744404765943e+000	 9.237827182827974e+000
 1.212525975335377e+000	 3.811794952408592e+000	 9.255907882125603e+000
 1.175247750825765e+000	 3.823452984442649e+000	 9.250821706907486e+000
 1.137948119066728e+000	 3.834719556678107e+000	 9.224571765857755e+000
 1.100632859358089e+000	 3.845595832761096e+000	 9.179056099394167e+000
 1.031843305638912e+000	 3.605246093207198e+000	 9.017812951081668e+000
 9.968509677335214e-001	 3.615077889630200e+000	 9.001077074213658e+000
 9.618546662704745e-001	 3.624546261385974e+000	 8.991347621248091e+000
 9.268596667103948e-001	 3.633652591837827e+000	 8.985495840967712e+000
 8.918711796614018e-001	 3.642398358063881e+000	 8.980648011027302e+000
 8.568943590090273e-001	 3.650785128904496e+000	 8.974185553830784e+000
 8.219343001176299e-001	 3.658814562972306e+000	 8.963744592200381e+000
 7.869960381038450e-001	 3.666488406627660e+000	 8.947214960474099e+000
 7.520845461825005e-001	 3.673808491922170e+000	 8.922738687720935e+000
 7.172047340853255e-001	 3.680776734513124e+000	 8.888707970731909e+000
 6.823614465526605e-001	 3.687395131551449e+000	 8.843762655325998e+000
 1.038722261010886e+000	 3.629281067164810e+000	 9.076673168216086e+000
 1.003496640853508e+000	 3.639178408896960e+000	 9.059172785426298e+000
 9.682670307146524e-001	 3.648709903130721e+000	 9.046609649940157e+000
 9.330387311580148e-001	 3.657876942451823e+000	 9.035781496887397e+000
 8.978169875291034e-001	 3.666681013785578e+000	 9.023747498860599e+000
 8.626069880726867e-001	 3.675123696431280e+000	 9.007828379137381e+000
 8.274138621222203e-001	 3.683206660058982e+000	 8.985605952066422e+000
 7.922426783617848e-001	 3.690931662671435e+000	 8.954922106602611e+000
 7.570984431609736e-001	 3.698300548533930e+000	 8.913877250052131e+000
 7.219860989830624e-001	 3.705315246074803e+000	 8.860828230077713e+000
 6.869105228666611e-001	 3.711977765759321e+000	 8.794385753915288e+000
 1.045601216382847e+000	 3.653316041121927e+000	 9.133374264303441e+000
 1.010142313973292e+000	 3.663278928163324e+000	 9.116098702839548e+000
 9.746793951584590e-001	 3.672873544875174e+000	 9.101611234960647e+000
 9.392177956051151e-001	 3.682101293065625e+000	 9.086634787109016e+000
 9.037627953961567e-001	 3.690963669507182e+000	 9.068160256466660e+000
 8.683196171355896e-001	 3.699462263958071e+000	 9.043446621124200e+000
 8.328934241259661e-001	 3.707598757145765e+000	 9.010020464579341e+000
 7.974893186188113e-001	 3.715374918715417e+000	 8.965674930904330e+000
 7.621123401384853e-001	 3.722792605145996e+000	 8.908468128021340e+000
 7.267674638798087e-001	 3.729853757636888e+000	 8.836720997535007e+000
 6.914595991796617e-001	 3.736560399967698e+000	 8.749014670492409e+000
 1.052480171754797e+000	 3.677351015078551e+000	 9.187794723736582e+000
 1.016787987092874e+000	 3.687379447429296e+000	 9.171745432197666e+000
 9.810917596018945e-001	 3.697037186619333e+000	 9.156254624031716e+000
 9.453968600516957e-001	 3.706325643679235e+000	 9.137969110585296e+000
 9.097086032625616e-001	 3.715246325228693e+000	 9.113810332738774e+000
 8.740322461977363e-001	 3.723800831484869e+000	 9.080974467623607e+000
 8.383729861288674e-001	 3.731990854232656e+000	 9.036931936626603e+000
 8.027359588749252e-001	 3.739818174759607e+000	 8.979426331381220e+000
 7.671262371150359e-001	 3.747284661758370e+000	 8.906472775569135e+000
 7.315488287755649e-001	 3.754392269199381e+000	 8.819318047531695e+000
 6.960086754916622e-001	 3.761143034176585e+000	 8.729610104355990e+000
 1.059359127126733e+000	 3.701385989034681e+000	 9.239812309900840e+000
 1.023433660212254e+000	 3.711479966694873e+000	 9.226002945686874e+000
 9.875041240449586e-001	 3.721200828363198e+000	 9.210441513624419e+000
 9.515759244977561e-001	 3.730549994292652e+000	 9.189697392186409e+000
 9.156544111283184e-001	 3.739528980950109e+000	 9.160621374525332e+000
 8.797448752591266e-001	 3.748139399011674e+000	 9.120345771339949e+000
 8.438525481309244e-001	 3.756382951319652e+000	 9.051521706314230e+000
 8.079825991301267e-001	 3.764261430804004e+000	 8.974670382961044e+000
 7.721401340906250e-001	 3.771776718371052e+000	 8.896235864221541e+000
 7.363301936703308e-001	 3.778930780762282e+000	 8.817059718696205e+000
 7.005577518026629e-001	 3.785725668385978e+000	 8.737883609731913e+000
 1.066238082498657e+000	 3.725420962990318e+000	 9.289304088432369e+000
 1.030079333331432e+000	 3.735580485960057e+000	 9.278760602372776e+000
 9.939164884876516e-001	 3.745364470106771e+000	 9.264073066741014e+000
 9.577549889432969e-001	 3.754774344905874e+000	 9.223803899999242e+000
 9.216002189934274e-001	 3.763811636671434e+000	 9.160755705498410e+000
 8.854575043197607e-001	 3.772477966538485e+000	 9.094208834067391e+000
 8.493321101321368e-001	 3.780775048406757e+000	 9.025333093668712e+000
 8.132292393844149e-001	 3.788704686848607e+000	 8.955192986178435e+000
 7.771540310652526e-001	 3.796268774984041e+000	 8.884748342528289e+000
 7.411115585641064e-001	 3.803469292325590e+000	 8.814855161006648e+000
 7.051068281126635e-001	 3.810308302595879e+000	 8.746266641206915e+000
 1.073117037870568e+000	 3.749455936945461e+000	 9.336146449581900e+000
 1.036725006450407e+000	 3.759681005224847e+000	 9.293057906285480e+000
 1.000328852929973e+000	 3.769528111850049e+000	 9.241523020673908e+000
 9.639340533883177e-001	 3.778998695518903e+000	 9.185006482217265e+000
 9.275460268578878e-001	 3.788094292392663e+000	 9.124919540737086e+000
 8.911701333796380e-001	 3.796816534065304e+000	 9.062564442186355e+000
 8.548116721325048e-001	 3.805167145493967e+000	 8.999134654105468e+000
 8.184758796377906e-001	 3.813147942893417e+000	 8.935715313366782e+000
 7.821679280389191e-001	 3.820760831597336e+000	 8.873283889227382e+000
 7.458929234568915e-001	 3.828007803889304e+000	 8.812711054332597e+000
 7.096559044216639e-001	 3.834890936806286e+000	 8.754761755969279e+000
 1.079995993242467e+000	 3.773490910900110e+000	 9.297777532294390e+000
 1.043370679569180e+000	 3.783781524489244e+000	 9.252112678481172e+000
 1.006741217371923e+000	 3.793691753593033e+000	 9.201099140502961e+000
 9.701131178328185e-001	 3.803223046131738e+000	 9.146290470811698e+000
 9.334918347216998e-001	 3.812376948113800e+000	 9.089128108938176e+000
 8.968827624387593e-001	 3.821155101592128e+000	 9.030941390585161e+000
 8.602912341320280e-001	 3.829559242581284e+000	 8.972947790955754e+000
 8.237225198902534e-001	 3.837591198938436e+000	 8.916253395581535e+000
 7.871818250116240e-001	 3.845252888210939e+000	 8.861853591494365e+000
 7.506742883486861e-001	 3.852546315453426e+000	 8.810633971199485e+000
 7.142049807296647e-001	 3.859473571017202e+000	 8.763371441557769e+000
 1.086874948614353e+000	 3.797525884854265e+000	 9.257793188672306e+000
 1.050016352687752e+000	 3.807882043753248e+000	 9.211414557192260e+000
 1.013153581813503e+000	 3.817855395335725e+000	 9.160852899497641e+000
 9.762921822767995e-001	 3.827447396744380e+000	 9.107695525521949e+000
 9.394376425848640e-001	 3.836659603834843e+000	 9.053414484728663e+000
 9.025953914971243e-001	 3.845493669118960e+000	 8.999366587719724e+000
 8.657707961307070e-001	 3.853951339668710e+000	 8.946793667523927e+000
 8.289691601418034e-001	 3.862034454983661e+000	 8.896823073660075e+000
 7.921957219833679e-001	 3.869744944824850e+000	 8.850468391640375e+000
 7.554556532394906e-001	 3.877084827017957e+000	 8.808630380185539e+000
 7.187540570366653e-001	 3.884056205228624e+000	 8.772098118065827e+000
 1.093753903986227e+000	 3.821560858807927e+000	 9.218199146280080e+000
 1.056662025806120e+000	 3.831982563016857e+000	 9.171017079912074e+000
 1.019565946254710e+000	 3.842019037078121e+000	 9.120830490073439e+000
 9.824712467202608e-001	 3.851671747356828e+000	 9.069260902843608e+000
 9.453834504473798e-001	 3.860942259555793e+000	 9.017811400765273e+000
 9.083080205547327e-001	 3.869832236645799e+000	 8.967866656993554e+000
 8.712503581285412e-001	 3.878343436756241e+000	 8.920693214635476e+000
 8.342158003924408e-001	 3.886477711029093e+000	 8.877440004203427e+000
 7.972096189541502e-001	 3.894237001439067e+000	 8.839139091667580e+000
 7.602370181293044e-001	 3.901623338582893e+000	 8.806706649190526e+000
 7.233031333426661e-001	 3.908638839440555e+000	 8.780944140262459e+000
 1.100632859358089e+000	 3.845595832761096e+000	 9.179056099394167e+000
 1.063307698924287e+000	 3.856083082280073e+000	 9.130973262084217e+000
 1.025978310695547e+000	 3.866182678820226e+000	 9.081077650416722e+000
 9.886503111632020e-001	 3.875896097969085e+000	 9.031025468629768e+000
 9.513292583092478e-001	 3.885224915276651e+000	 8.982351258421007e+000
 9.140206496115850e-001	 3.894170804172645e+000	 8.936467945665710e+000
 8.767299201255315e-001	 3.902735533843882e+000	 8.894667137901950e+000
 8.394624406421656e-001	 3.910920967074734e+000	 8.858119665333598e+000
 8.022235159239715e-001	 3.918729058053593e+000	 8.827876357653862e+000
 7.650183830181282e-001	 3.926161850148238e+000	 8.804869048581995e+000
 7.278522096476668e-001	 3.933221473652993e+000	 8.789911799633599e+000
 6.823614465526605e-001	 3.687395131551449e+000	 8.843762655325998e+000
 6.475594618980655e-001	 3.693665759545780e+000	 8.854078034576657e+000
 6.128034906466536e-001	 3.699590772205656e+000	 8.865336281779671e+000
 5.780981742462332e-001	 3.705172398266263e+000	 8.818034498147501e+000
 5.434480838508562e-001	 3.710412939297010e+000	 8.786811901225539e+000
 5.088577191772321e-001	 3.715314767496883e+000	 8.768791174390609e+000
 4.743315074333467e-001	 3.719880323478916e+000	 8.761557151854007e+000
 4.398738023188180e-001	 3.724112114046291e+000	 8.763150306121490e+000
 4.054888830964485e-001	 3.728012709962431e+000	 8.772059419481634e+000
 3.711809537343516e-001	 3.731584743717474e+000	 8.787213481266084e+000
 3.369541421179410e-001	 3.734830907293413e+000	 8.807972853331913e+000
 6.869105228666611e-001	 3.711977765759321e+000	 8.794385753915288e+000
 6.518765249807942e-001	 3.718290197939601e+000	 8.776403622259311e+000
 6.168888472541161e-001	 3.724254710683340e+000	 8.770151274012356e+000
 5.819521620774202e-001	 3.729873547583952e+000	 8.689948135377120e+000
 5.470710710791198e-001	 3.735149025554649e+000	 8.614993493675193e+000
 5.122501039740348e-001	 3.740083532609068e+000	 8.542385949491029e+000
 4.774937174848724e-001	 3.744679525630999e+000	 8.469702785737489e+000
 4.428062943359139e-001	 3.748939528135642e+000	 8.394993157916796e+000
 4.081921423183810e-001	 3.752866128024844e+000	 8.378481114647023e+000
 3.736554934268416e-001	 3.756461975338673e+000	 8.397924280048461e+000
 3.392005030659454e-001	 3.759729780005672e+000	 8.433296153752711e+000
 6.914595991796617e-001	 3.736560399967698e+000	 8.749014670492409e+000
 6.561935880625281e-001	 3.742914636334019e+000	 8.702380693470300e+000
 6.209742038605993e-001	 3.748918649161690e+000	 8.675567606817282e+000
 5.858061499076541e-001	 3.754574696902358e+000	 8.595471582618270e+000
 5.506940583064660e-001	 3.759885111813030e+000	 8.536642418483163e+000
 5.156424887699670e-001	 3.764852297722003e+000	 8.493571864399318e+000
 4.806559275355834e-001	 3.769478727783819e+000	 8.466104280625311e+000
 4.457387863522613e-001	 3.773766942225699e+000	 8.453899442543154e+000
 4.108954015396412e-001	 3.777719546087911e+000	 8.456435969680488e+000
 3.761300331187448e-001	 3.781339206960455e+000	 8.473015060704906e+000
 3.414468640134582e-001	 3.784628652718419e+000	 8.502764517756095e+000
 6.960086754916622e-001	 3.761143034176585e+000	 8.729610104355990e+000
 6.605106511432675e-001	 3.767539074729034e+000	 8.692149622357414e+000
 6.250595604661036e-001	 3.773582587640705e+000	 8.700033398500011e+000
 5.896601377369348e-001	 3.779275846221478e+000	 8.639701434895407e+000
 5.543170455328952e-001	 3.784621198072152e+000	 8.591927736811652e+000
 5.190348735650283e-001	 3.789621062835687e+000	 8.556970582050267e+000
 4.838181375854797e-001	 3.794277929937377e+000	 8.534735329948992e+000
 4.486712783678602e-001	 3.798594356316461e+000	 8.524941111349195e+000
 4.135986607602287e-001	 3.802572964151630e+000	 8.527124215366497e+000
 3.786045728100609e-001	 3.806216438582819e+000	 8.540641788496414e+000
 3.436932249604792e-001	 3.809527525431660e+000	 8.564675829249667e+000
 7.005577518026629e-001	 3.785725668385978e+000	 8.737883609731913e+000
 6.648277142230121e-001	 3.792163513124647e+000	 8.706483642805917e+000
 6.291449170706286e-001	 3.798246526120384e+000	 8.716827609814157e+000
 5.935141255652624e-001	 3.803976995541310e+000	 8.679454837437012e+000
 5.579400327584075e-001	 3.809357284332017e+000	 8.642004735312368e+000
 5.224272583592184e-001	 3.814389827950121e+000	 8.614532705043759e+000
 4.869803476345614e-001	 3.819077132091672e+000	 8.597005384984767e+000
 4.516037703827107e-001	 3.823421770407929e+000	 8.589201434915871e+000
 4.163019199801437e-001	 3.827426382216003e+000	 8.590714882106346e+000
 3.810791125007904e-001	 3.831093670205766e+000	 8.600958786203666e+000
 3.459395859070087e-001	 3.834426398145392e+000	 8.619169205967747e+000
 7.051068281126635e-001	 3.810308302595879e+000	 8.746266641206915e+000
 6.691447773017617e-001	 3.816787951520856e+000	 8.720525177762504e+000
 6.332302736741743e-001	 3.822910464600731e+000	 8.733006293831302e+000
 5.973681133926367e-001	 3.828678144861858e+000	 8.714965708181277e+000
 5.615630199830025e-001	 3.834093370592623e+000	 8.687095231487081e+000
 5.258196431525382e-001	 3.839158593065305e+000	 8.666467399191577e+000
 4.901425576828286e-001	 3.843876334246704e+000	 8.653110425286679e+000
 4.545362623968127e-001	 3.848249184500100e+000	 8.646862688430753e+000
 4.190051791993861e-001	 3.852279800281029e+000	 8.647376038834370e+000
 3.835536521909326e-001	 3.855970901829293e+000	 8.654119430596163e+000
 3.481859468530463e-001	 3.859325270859617e+000	 8.666382862322845e+000
 7.096559044216639e-001	 3.834890936806286e+000	 8.754761755969279e+000
 6.734618403795165e-001	 3.841412389917662e+000	 8.734282168291466e+000
 6.373156302767410e-001	 3.847574403081744e+000	 8.748581962640666e+000
 6.012221012190578e-001	 3.853379294183118e+000	 8.746467363912757e+000
 5.651860072066806e-001	 3.858829456853971e+000	 8.727420321089060e+000
 5.292120279449868e-001	 3.863927358181238e+000	 8.712983015534713e+000
 4.933047677302811e-001	 3.868675536402473e+000	 8.703245549969314e+000
 4.574687544101661e-001	 3.873076598592977e+000	 8.698106228096185e+000
 4.217084384179559e-001	 3.877133218346708e+000	 8.697274823834155e+000
 3.860281918804882e-001	 3.880848133453403e+000	 8.700276182753184e+000
 3.504323077985923e-001	 3.884224143574332e+000	 8.706454138358438e+000
 7.142049807296647e-001	 3.859473571017202e+000	 8.763371441557769e+000
 6.777789034562769e-001	 3.866036828315065e+000	 8.747762287824893e+000
 6.414009868783286e-001	 3.872238341563422e+000	 8.763566689970922e+000
 6.050760890445256e-001	 3.878080443505093e+000	 8.774192539407396e+000
 5.688089944294413e-001	 3.883565543116061e+000	 8.763200401108845e+000
 5.326044127365643e-001	 3.888696123297920e+000	 8.754287116291408e+000
 4.964669777769190e-001	 3.893474738558979e+000	 8.747605005747271e+000
 4.604012464227710e-001	 3.897904012686559e+000	 8.743112520396524e+000
 4.244116976358532e-001	 3.901986636413041e+000	 8.740577474377155e+000
 3.885027315694566e-001	 3.905725365078096e+000	 8.739580617225608e+000
 3.526786687436464e-001	 3.909123016289539e+000	 8.739519527595011e+000
 7.187540570366653e-001	 3.884056205228624e+000	 8.772098118065827e+000
 6.820959665320421e-001	 3.890661266713064e+000	 8.760972950632088e+000
 6.454863434789370e-001	 3.896902280045765e+000	 8.777972125062309e+000
 6.089300768690401e-001	 3.902781592827782e+000	 8.798373405850551e+000
 5.724319816512852e-001	 3.908301629378893e+000	 8.794655191886871e+000
 5.359967975272713e-001	 3.913464888415352e+000	 8.790586499820021e+000
 4.996291878227421e-001	 3.918273940716222e+000	 8.786382213909979e+000
 4.633337384346276e-001	 3.922731426780847e+000	 8.782061170253497e+000
 4.271149568530779e-001	 3.926840054480027e+000	 8.777449355235632e+000
 3.909772712578382e-001	 3.930602596703370e+000	 8.772183450091013e+000
 3.549250296882090e-001	 3.934021889005239e+000	 8.765714703818761e+000
 7.233031333426661e-001	 3.908638839440555e+000	 8.780944140262459e+000
 6.864130296068128e-001	 3.915285705111661e+000	 8.773921319969343e+000
 6.495717000785661e-001	 3.921566218528774e+000	 8.791809506015378e+000
 6.127840646926014e-001	 3.927482742151186e+000	 8.819241588559862e+000
 5.760549688722118e-001	 3.933037715642467e+000	 8.822003758391864e+000
 5.393891823171073e-001	 3.938233653533534e+000	 8.822087224639645e+000
 5.027913978677507e-001	 3.943073142874203e+000	 8.819769796278234e+000
 4.662662304457357e-001	 3.947558840875840e+000	 8.815130948119579e+000
 4.298182160696302e-001	 3.951693472547667e+000	 8.808054986119815e+000
 3.934518109456329e-001	 3.955479828329227e+000	 8.798234565949326e+000
 3.571713906322799e-001	 3.958920761721430e+000	 8.785174546859460e+000
 7.278522096476668e-001	 3.933221473652993e+000	 8.789911799633599e+000
 6.907300926805886e-001	 3.939910143510855e+000	 8.786614315924126e+000
 6.536570566772164e-001	 3.946230157012450e+000	 8.805089672639049e+000
 6.166380525152096e-001	 3.952183891475303e+000	 8.837028184043728e+000
 5.796779560922215e-001	 3.957773801906784e+000	 8.845464530701079e+000
 5.427815671060725e-001	 3.963002418652466e+000	 8.848994632550101e+000
 5.059536079119449e-001	 3.967872345032923e+000	 8.847959600187759e+000
 4.691987224560952e-001	 3.972386254971538e+000	 8.842499816055071e+000
 4.325214752855099e-001	 3.976546890615961e+000	 8.832558068086069e+000
 3.959263506328407e-001	 3.980357059955667e+000	 8.817883043906642e+000
 3.594177515758589e-001	 3.983819634438112e+000	 8.798033167401487e+000
 3.369541421179410e-001	 3.734830907293413e+000	 8.807972853331913e+000
 3.028124993314788e-001	 3.737753949930092e+000	 8.808728403214500e+000
 2.687599990069305e-001	 3.740356675894433e+000	 8.798039528863713e+000
 2.348005367401518e-001	 3.742641942254912e+000	 8.776552222552091e+000
 2.009379295743538e-001	 3.744612656663184e+000	 8.745316050529667e+000
 1.671759155483958e-001	 3.746271775145075e+000	 8.705771930504668e+000
 1.335181533092915e-001	 3.747622299902811e+000	 8.659739432205742e+000
 9.996822178776361e-002	 3.748667277130346e+000	 8.609403645049090e+000
 6.652961993565144e-002	 3.749409794843583e+000	 8.557301656518192e+000
 3.320576652392401e-002	 3.749852980727242e+000	 8.506308684327818e+000
 0.000000000000000e+000	 3.750000000000000e+000	 8.459623904805834e+000
 3.392005030659454e-001	 3.759729780005672e+000	 8.433296153752711e+000
 3.048312493272241e-001	 3.762672309593844e+000	 8.456603108963806e+000
 2.705517323335631e-001	 3.765292387065135e+000	 8.480339772454842e+000
 2.363658736514568e-001	 3.767592888535141e+000	 8.503123993142415e+000
 2.022775157710701e-001	 3.769576741039862e+000	 8.523431769549132e+000
 1.682904216515211e-001	 3.771246920311963e+000	 8.539602170256796e+000
 1.344082743308025e-001	 3.772606448568355e+000	 8.549842430345882e+000
 1.006346765991747e-001	 3.773658392310948e+000	 8.552233207358265e+000
 6.697315073482200e-002	 3.774405860142423e+000	 8.544733980434810e+000
 3.342713830051906e-002	 3.774852000598727e+000	 8.525188576438838e+000
 0.000000000000000e+000	 3.775000000000000e+000	 8.491330807079859e+000
 3.414468640134582e-001	 3.784628652718419e+000	 8.502764517756095e+000
 3.068499993225725e-001	 3.787590669257995e+000	 8.516863353042231e+000
 2.723434656598832e-001	 3.790228098236149e+000	 8.532561869009605e+000
 2.379312105625233e-001	 3.792543834815608e+000	 8.548509018778544e+000
 2.036171019676119e-001	 3.794540825416714e+000	 8.563207394624048e+000
 1.694049277545255e-001	 3.796222065478974e+000	 8.575018225817164e+000
 1.352983953522364e-001	 3.797590597233975e+000	 8.582166558429728e+000
 1.013011314105427e-001	 3.798649507491593e+000	 8.582746600269164e+000
 6.741668153397343e-002	 3.799401925441281e+000	 8.574727214226302e+000
 3.364851007710933e-002	 3.799851020470218e+000	 8.555957543477875e+000
 0.000000000000000e+000	 3.800000000000000e+000	 8.524172752188862e+000
 3.436932249604792e-001	 3.809527525431660e+000	 8.564675829249667e+000
 3.088687493175238e-001	 3.812509028922540e+000	 8.570193697618981e+000
 2.741351989858907e-001	 3.815163809407477e+000	 8.578533137000331e+000
 2.394965474733513e-001	 3.817494781096314e+000	 8.588374064457511e+000
 2.049566881639790e-001	 3.819504909793741e+000	 8.598245456424705e+000
 1.705194338574090e-001	 3.821197210646104e+000	 8.606530425540687e+000
 1.361885163735933e-001	 3.822574745899673e+000	 8.611471485497077e+000
 1.019675862218674e-001	 3.823640622672282e+000	 8.611175986695100e+000
 6.786021233310573e-002	 3.824397990740158e+000	 8.603621705616051e+000
 3.386988185369484e-002	 3.824850040341713e+000	 8.586662570974626e+000
 0.000000000000000e+000	 3.824999999999999e+000	 8.558034509925539e+000
 3.459395859070087e-001	 3.834426398145392e+000	 8.619169205967747e+000
 3.108874993120783e-001	 3.837427388587484e+000	 8.616705574472583e+000
 2.759269323115856e-001	 3.840099520579116e+000	 8.618337867588330e+000
 2.410618843839407e-001	 3.842445727377258e+000	 8.622776835361734e+000
 2.062962743601715e-001	 3.844468994170943e+000	 8.628577637360451e+000
 1.716339399601717e-001	 3.846172355813355e+000	 8.634145000111689e+000
 1.370786373948731e-001	 3.847558894565447e+000	 8.637738568683130e+000
 1.026340410331490e-001	 3.848631737853014e+000	 8.637478434819636e+000
 6.830374313221890e-002	 3.849394056039055e+000	 8.631350824161059e+000
 3.409125363027557e-002	 3.849849060213211e+000	 8.617213925228990e+000
 0.000000000000000e+000	 3.850000000000000e+000	 8.592803843075080e+000
 3.481859468530463e-001	 3.859325270859617e+000	 8.666382862322845e+000
 3.129062493062357e-001	 3.862345748252824e+000	 8.656509891355464e+000
 2.777186656369678e-001	 3.865035231751069e+000	 8.652060207753069e+000
 2.426272212942916e-001	 3.867396673658439e+000	 8.651775272732202e+000
 2.076358605561894e-001	 3.869433078548318e+000	 8.654236236384366e+000
 1.727484460628136e-001	 3.871147500980726e+000	 8.657869177340164e+000
 1.379687584160758e-001	 3.872543043231299e+000	 8.660950542780364e+000
 1.033004958443873e-001	 3.873622853033789e+000	 8.661612770821630e+000
 6.874727393131293e-002	 3.874390121337970e+000	 8.657850077416304e+000
 3.431262540685155e-002	 3.874848080084716e+000	 8.647524390067396e+000
 0.000000000000000e+000	 3.875000000000000e+000	 8.628371410866830e+000
 3.504323077985923e-001	 3.884224143574332e+000	 8.706454138358438e+000
 3.149249992999961e-001	 3.887264107918561e+000	 8.689717048789422e+000
 2.795103989620376e-001	 3.889970942923332e+000	 8.679784164913500e+000
 2.441925582044041e-001	 3.892347619939861e+000	 8.675427546302576e+000
 2.089754467520326e-001	 3.894397162925869e+000	 8.675254149232512e+000
 1.738629521653346e-001	 3.896122646148220e+000	 8.677711150202443e+000
 1.388588794372014e-001	 3.897527191897228e+000	 8.681091476082774e+000
 1.039669506555825e-001	 3.898613968214609e+000	 8.683539522529255e+000
 6.919080473038783e-002	 3.899386186636904e+000	 8.683057042409434e+000
 3.453399718342276e-002	 3.899847099956226e+000	 8.677509186152557e+000
 0.000000000000000e+000	 3.900000000000000e+000	 8.664630676139732e+000
 3.526786687436464e-001	 3.909123016289539e+000	 8.739519527595011e+000
 3.169437492933597e-001	 3.912182467584696e+000	 8.716436956219781e+000
 2.813021322867946e-001	 3.914906654095911e+000	 8.701593611372813e+000
 2.457578951142780e-001	 3.917298566221521e+000	 8.693792047022201e+000
 2.103150329477012e-001	 3.919361247303594e+000	 8.691664849417748e+000
 1.749774582677347e-001	 3.921097791315833e+000	 8.693680046103292e+000
 1.397490004582500e-001	 3.922511340563233e+000	 8.698146727917980e+000
 1.046334054667344e-001	 3.923605083395470e+000	 8.703220865227316e+000
 6.963433552944359e-002	 3.924382251935859e+000	 8.706911299733612e+000
 3.475536895998920e-002	 3.924846119827740e+000	 8.707085893377748e+000
 0.000000000000000e+000	 3.924999999999999e+000	 8.701477816055185e+000
 3.549250296882090e-001	 3.934021889005239e+000	 8.765714703818761e+000
 3.189624992863263e-001	 3.937100827251227e+000	 8.736779047555498e+000
 2.830938656112391e-001	 3.939842365268800e+000	 8.717572288593919e+000
 2.473232320239134e-001	 3.942249512503419e+000	 8.706927380055561e+000
 2.116546191431952e-001	 3.944325331681494e+000	 8.703502369945994e+000
 1.760919643700140e-001	 3.946072936483568e+000	 8.705785897305832e+000
 1.406391214792215e-001	 3.947495489229316e+000	 8.712102907791385e+000
 1.052998602778431e-001	 3.948596198576375e+000	 8.720620569522541e+000
 7.007786632848025e-002	 3.949378317234833e+000	 8.729354370143717e+000
 3.497674073655088e-002	 3.949845139699259e+000	 8.736174376207243e+000
 0.000000000000000e+000	 3.949999999999999e+000	 8.738811636201032e+000
 3.571713906322799e-001	 3.958920761721430e+000	 8.785174546859460e+000
 3.209812492788959e-001	 3.962019186918155e+000	 8.750852296123416e+000
 2.848855989353711e-001	 3.964778076442002e+000	 8.727803811314145e+000
 2.488885689333103e-001	 3.967200458785556e+000	 8.714892358046217e+000
 2.129942053385145e-001	 3.969289416059570e+000	 8.710801285721889e+000
 1.772064704721725e-001	 3.971048081651423e+000	 8.714039612476265e+000
 1.415292425001159e-001	 3.972479637895476e+000	 8.722947836072690e+000
 1.059663150889087e-001	 3.973587313757323e+000	 8.735703951176383e+000
 7.052139712749775e-002	 3.974374382533824e+000	 8.750329653544963e+000
 3.519811251310778e-002	 3.974844159570782e+000	 8.764696711834429e+000
 0.000000000000000e+000	 3.974999999999999e+000	 8.776533487936334e+000
 3.594177515758589e-001	 3.983819634438112e+000	 8.798033167401487e+000
 3.229999992710687e-001	 3.986937546585482e+000	 8.758765229061293e+000
 2.866773322591905e-001	 3.989713787615519e+000	 8.732371671505398e+000
 2.504539058424687e-001	 3.992151405067931e+000	 8.717745994632754e+000
 2.143337915336593e-001	 3.994253500437819e+000	 8.713596696614477e+000
 1.783209765742101e-001	 3.996023226819399e+000	 8.718452949296811e+000
 1.424193635209333e-001	 3.997463786561714e+000	 8.730670506156054e+000
 1.066327698999310e-001	 3.998578428938315e+000	 8.748437822818685e+000
 7.096492792649614e-002	 3.999370447832837e+000	 8.769782370269553e+000
 3.541948428965995e-002	 3.999843179442312e+000	 8.792577121034276e+000
 0.000000000000000e+000	 4.000000000000000e+000	 8.814547188836254e+000
 4.000000000000000e+000	 0.000000000000000e+000	 1.058662111319501e+001
 3.999843179442312e+000	 3.541948428966008e-002	 1.052779278966634e+001
 3.999370447832837e+000	 7.096492792649639e-002	 1.049505480571007e+001
 3.998578428938315e+000	 1.066327698999308e-001	 1.048325246419964e+001
 3.997463786561714e+000	 1.424193635209332e-001	 1.048724911520979e+001
 3.996023226819399e+000	 1.783209765742101e-001	 1.050192278382106e+001
 3.994253500437819e+000	 2.143337915336594e-001	 1.052216234825819e+001
 3.992151405067931e+000	 2.504539058424689e-001	 1.054286326425704e+001
 3.989713787615519e+000	 2.866773322591902e-001	 1.055892283301324e+001
 3.986937546585482e+000	 3.229999992710685e-001	 1.056523501160355e+001
 3.983819634438112e+000	 3.594177515758590e-001	 1.055668476637898e+001
 4.025000000000000e+000	 0.000000000000000e+000	 1.060922732611959e+001
 4.024842199313842e+000	 3.564085606630336e-002	 1.054623242342977e+001
 4.024366513131858e+000	 7.140845872566287e-002	 1.050843822960787e+001
 4.023569544119328e+000	 1.072992247111839e-001	 1.049094861670471e+001
 4.022447935227990e+000	 1.433094845420294e-001	 1.048889327765638e+001
 4.020998371987436e+000	 1.794354826765600e-001	 1.049742411686409e+001
 4.019217584816155e+000	 2.156733777291350e-001	 1.051171116947023e+001
 4.017102351350426e+000	 2.520192427519619e-001	 1.052693804503311e+001
 4.014649498789190e+000	 2.884690655833327e-001	 1.053829689281306e+001
 4.011855906253005e+000	 3.250187492635375e-001	 1.054098288746667e+001
 4.008718507155041e+000	 3.616641125196922e-001	 1.053018823561144e+001
 4.050000000000000e+000	 0.000000000000000e+000	 1.062776946283871e+001
 4.049841219185373e+000	 3.586222784313369e-002	 1.056174621444171e+001
 4.049362578430878e+000	 7.185198952518471e-002	 1.051997686984500e+001
 4.048560659300342e+000	 1.079656795229416e-001	 1.049782584060982e+001
 4.047432083894265e+000	 1.441996055637604e-001	 1.049069123594730e+001
 4.045973517155471e+000	 1.805499887796554e-001	 1.049400101427672e+001
 4.044181669194492e+000	 2.170129639254472e-001	 1.050320864159402e+001
 4.042053297632920e+000	 2.535845796623626e-001	 1.051378825215845e+001
 4.039585209962861e+000	 2.902607989084342e-001	 1.052122930856434e+001
 4.036774265920530e+000	 3.270374992569963e-001	 1.052103075990150e+001
 4.033617379871969e+000	 3.639104734645255e-001	 1.050869469842585e+001
 4.074999999999999e+000	 0.000000000000000e+000	 1.064320432515422e+001
 4.074840239056903e+000	 3.608359962015106e-002	 1.057513684857945e+001
 4.074358643729899e+000	 7.229552032506183e-002	 1.053031871303318e+001
 4.073551774481353e+000	 1.086321343352040e-001	 1.050437691052585e+001
 4.072416232560542e+000	 1.450897265861261e-001	 1.049298011227557e+001
 4.070948662323509e+000	 1.816644948834962e-001	 1.049183457941440e+001
 4.069145753572830e+000	 2.183525501225959e-001	 1.049667955836539e+001
 4.067004243915415e+000	 2.551499165736712e-001	 1.050328215620456e+001
 4.064520921136532e+000	 2.920525322344943e-001	 1.050743169292338e+001
 4.061692625588053e+000	 3.290562492514447e-001	 1.050493352920045e+001
 4.058516252588897e+000	 3.661568344103587e-001	 1.049160237006153e+001
 4.100000000000000e+000	 0.000000000000000e+000	 1.065646537824016e+001
 4.099839258928435e+000	 3.630497139735547e-002	 1.058718555448611e+001
 4.099354709028920e+000	 7.273905112529436e-002	 1.054009216686221e+001
 4.098542889662367e+000	 1.092985891479710e-001	 1.051107689865221e+001
 4.097400381226816e+000	 1.459798476091267e-001	 1.049608120040146e+001
 4.095923807491546e+000	 1.827790009880826e-001	 1.049109195790363e+001
 4.094109837951166e+000	 2.196921363205812e-001	 1.049213662246851e+001
 4.091955190197909e+000	 2.567152534858873e-001	 1.049527779858000e+001
 4.089456632310204e+000	 2.938442655615133e-001	 1.049660728571135e+001
 4.086610985255576e+000	 3.310749992468828e-001	 1.049223957280641e+001
 4.083415125305826e+000	 3.684031953571920e-001	 1.047830478576189e+001
 4.125000000000000e+000	 0.000000000000000e+000	 1.066846345781359e+001
 4.124838278799966e+000	 3.652634317474693e-002	 1.059865275379009e+001
 4.124350774327941e+000	 7.318258192588219e-002	 1.054990665340034e+001
 4.123534004843379e+000	 1.099650439612427e-001	 1.051838371121390e+001
 4.122384529893092e+000	 1.468699686327621e-001	 1.050030044530124e+001
 4.120898952659583e+000	 1.838935070934145e-001	 1.049192676060312e+001
 4.119073922329502e+000	 2.210317225194031e-001	 1.048958081193124e+001
 4.116906136480403e+000	 2.582805903990113e-001	 1.048962330150474e+001
 4.114392343483875e+000	 2.956359988894912e-001	 1.048845120763652e+001
 4.111529344923100e+000	 3.330937492433104e-001	 1.048249094297499e+001
 4.108313998022755e+000	 3.706495563050253e-001	 1.046819094259276e+001
 4.150000000000000e+000	 0.000000000000000e+000	 1.068008745174438e+001
 4.149837298671496e+000	 3.674771495232542e-002	 1.061027868782209e+001
 4.149346839626961e+000	 7.362611272682534e-002	 1.056035318095073e+001
 4.148525120024392e+000	 1.106314987750191e-001	 1.052673860550846e+001
 4.147368678559367e+000	 1.477600896570322e-001	 1.050592890548042e+001
 4.145874097827618e+000	 1.850080131994918e-001	 1.049447947127776e+001
 4.144038006707839e+000	 2.223713087190614e-001	 1.048900173327752e+001
 4.141857082762897e+000	 2.598459273130429e-001	 1.048615716678119e+001
 4.139328054657547e+000	 2.974277322184279e-001	 1.048265070484570e+001
 4.136447704590624e+000	 3.351124992407279e-001	 1.047522355729219e+001
 4.133212870739683e+000	 3.728959172538585e-001	 1.046064543613425e+001
 4.175000000000000e+000	 0.000000000000000e+000	 1.069220495717639e+001
 4.174836318543028e+000	 3.696908673009096e-002	 1.062278402181546e+001
 4.174342904925982e+000	 7.406964352812387e-002	 1.057200489536124e+001
 4.173516235205405e+000	 1.112979535893001e-001	 1.053656668837709e+001
 4.172352827225644e+000	 1.486502106819371e-001	 1.051324319867625e+001
 4.170849242995654e+000	 1.861225193063147e-001	 1.049887783962485e+001
 4.169002091086175e+000	 2.237108949195564e-001	 1.049037796199158e+001
 4.166808029045392e+000	 2.614112642279824e-001	 1.048470856383038e+001
 4.164263765831218e+000	 2.992194655483236e-001	 1.047888538468969e+001
 4.161366064258147e+000	 3.371312492391351e-001	 1.046996738234701e+001
 4.158111743456611e+000	 3.751422782036917e-001	 1.045504859226175e+001
 4.199999999999999e+000	 0.000000000000000e+000	 1.070566291418024e+001
 4.199835338414558e+000	 3.719045850804355e-002	 1.063687042752860e+001
 4.199338970225004e+000	 7.451317432977773e-002	 1.058541761164547e+001
 4.198507350386417e+000	 1.119644084040858e-001	 1.054827739687281e+001
 4.197336975891918e+000	 1.495403317074768e-001	 1.052250593164253e+001
 4.195824388163693e+000	 1.872370254138830e-001	 1.050523726026479e+001
 4.193966175464511e+000	 2.250504811208879e-001	 1.049367737082253e+001
 4.191758975327885e+000	 2.629766011438295e-001	 1.048509760744154e+001
 4.189199477004890e+000	 3.010111988791780e-001	 1.047682744306832e+001
 4.186284423925671e+000	 3.391499992385318e-001	 1.046624661084458e+001
 4.183010616173539e+000	 3.773886391545250e-001	 1.045077659422054e+001
 4.224999999999999e+000	 0.000000000000000e+000	 1.072128821690890e+001
 4.224834358286089e+000	 3.741183028618317e-002	 1.065322114518155e+001
 4.224335035524025e+000	 7.495670513178691e-002	 1.060113032672915e+001
 4.223498465567432e+000	 1.126308632193762e-001	 1.056226496186371e+001
 4.222321124558195e+000	 1.504304527336513e-001	 1.053396611467555e+001
 4.220799533331729e+000	 1.883515315221968e-001	 1.051366113827558e+001
 4.218930259842849e+000	 2.263900673230559e-001	 1.049885744643336e+001
 4.216709921610381e+000	 2.645419380605845e-001	 1.048713562566043e+001
 4.214135188178561e+000	 3.028029322109914e-001	 1.047614188370411e+001
 4.211202783593194e+000	 3.411687492389183e-001	 1.046357983243094e+001
 4.207909488890469e+000	 3.796350001063583e-001	 1.044720160518870e+001
 4.250000000000000e+000	 0.000000000000000e+000	 1.073988830318369e+001
 4.249833378157620e+000	 3.763320206450985e-002	 1.067250152556029e+001
 4.249331100823047e+000	 7.540023593415146e-002	 1.061966571409979e+001
 4.248489580748444e+000	 1.132973180351712e-001	 1.057890885527383e+001
 4.247305273224471e+000	 1.513205737604606e-001	 1.054785956151009e+001
 4.245774678499766e+000	 1.894660376312561e-001	 1.052424124182625e+001
 4.243894344221186e+000	 2.277296535260605e-001	 1.050586559487419e+001
 4.241660867892875e+000	 2.661072749782472e-001	 1.049062541822323e+001
 4.239070899352234e+000	 3.045946655437636e-001	 1.047648672967683e+001
 4.236121143260720e+000	 3.431874992402945e-001	 1.046148019848904e+001
 4.232808361607396e+000	 3.818813610591916e-001	 1.044369188651448e+001
 3.983819634438112e+000	 3.594177515758590e-001	 1.055668476637898e+001
 3.980357059955668e+000	 3.959263506328409e-001	 1.059888344447077e+001
 3.976546890615960e+000	 4.325214752855101e-001	 1.062573185376179e+001
 3.972386254971537e+000	 4.691987224560948e-001	 1.063223072938536e+001
 3.967872345032922e+000	 5.059536079119448e-001	 1.061334023265336e+001
 3.963002418652467e+000	 5.427815671060725e-001	 1.056397181991302e+001
 3.957773801906783e+000	 5.796779560922217e-001	 1.047897969397910e+001
 3.952183891475304e+000	 6.166380525152101e-001	 1.035315185204872e+001
 3.946230157012450e+000	 6.536570566772162e-001	 1.046335990555489e+001
 3.939910143510855e+000	 6.907300926805884e-001	 1.062009141739119e+001
 3.933221473652993e+000	 7.278522096476667e-001	 1.074081724151575e+001
 4.008718507155041e+000	 3.616641125196922e-001	 1.053018823561144e+001
 4.005234291582396e+000	 3.984008903202551e-001	 1.057414701775476e+001
 4.001400308684580e+000	 4.352247345015535e-001	 1.060451530344346e+001
 3.997213669067587e+000	 4.721312144665802e-001	 1.061660808018873e+001
 3.992671547192009e+000	 5.091158179562314e-001	 1.060570420692536e+001
 3.987771183771772e+000	 5.461739518951022e-001	 1.056703783562929e+001
 3.982509888171469e+000	 5.833009433122727e-001	 1.049578939457791e+001
 3.976885040799777e+000	 6.204920403378413e-001	 1.038707614754273e+001
 3.970894095496459e+000	 6.577424132758768e-001	 1.048906921710879e+001
 3.964534581910347e+000	 6.950471557543668e-001	 1.059368702501011e+001
 3.957804107865683e+000	 7.324012859526673e-001	 1.066517555705251e+001
 4.033617379871969e+000	 3.639104734645255e-001	 1.050869469842585e+001
 4.030111523209127e+000	 4.008754300086695e-001	 1.055491941193912e+001
 4.026253726753200e+000	 4.379279937185969e-001	 1.058928296623590e+001
 4.022041083163638e+000	 4.750637064780655e-001	 1.060741758057542e+001
 4.017470749351095e+000	 5.122780280015181e-001	 1.060492386434433e+001
 4.012539948891079e+000	 5.495663366851321e-001	 1.057736178699952e+001
 4.007245974436156e+000	 5.869239305333237e-001	 1.052024118846486e+001
 4.001586190124251e+000	 6.243460281614731e-001	 1.042901184465718e+001
 3.995558033980466e+000	 6.618277698755375e-001	 1.051160798507878e+001
 3.989159020309840e+000	 6.993642188291455e-001	 1.056915121453886e+001
 3.982386742078373e+000	 7.369503622586678e-001	 1.059638424193290e+001
 4.058516252588897e+000	 3.661568344103587e-001	 1.049160237006153e+001
 4.054988754835856e+000	 4.033499696980837e-001	 1.054044523559821e+001
 4.051107144821818e+000	 4.406312529366403e-001	 1.057912598996978e+001
 4.046868497259687e+000	 4.779961984905507e-001	 1.060359714770287e+001
 4.042269951510182e+000	 5.154402380478047e-001	 1.060978420683977e+001
 4.037308714010385e+000	 5.529587214761617e-001	 1.059357616270428e+001
 4.031982060700842e+000	 5.905469177553746e-001	 1.055081554067461e+001
 4.026287339448724e+000	 6.282000159861044e-001	 1.048951504195958e+001
 4.020221972464475e+000	 6.659131264761979e-001	 1.053106570247896e+001
 4.013783458709330e+000	 7.036812819049237e-001	 1.054652855604636e+001
 4.006969376291065e+000	 7.414994385656684e-001	 1.053444319416508e+001
 4.083415125305826e+000	 3.684031953571920e-001	 1.047830478576189e+001
 4.079865986462586e+000	 4.058245093884980e-001	 1.052996617984537e+001
 4.075960562890438e+000	 4.433345121556837e-001	 1.057313436000898e+001
 4.071695911355738e+000	 4.809286905040360e-001	 1.060408528294212e+001
 4.067069153669269e+000	 5.186024480950915e-001	 1.061907255813986e+001
 4.062077479129690e+000	 5.563511062681913e-001	 1.061431750092566e+001
 4.056718146965530e+000	 5.941699049784259e-001	 1.058599868277058e+001
 4.050988488773198e+000	 6.320540038117360e-001	 1.054569815263608e+001
 4.044885910948482e+000	 6.699984830778581e-001	 1.054754102768024e+001
 4.038407897108822e+000	 7.079983449817023e-001	 1.052587446514621e+001
 4.031552010503756e+000	 7.460485148736690e-001	 1.047936482359107e+001
 4.108313998022755e+000	 3.706495563050253e-001	 1.046819094259276e+001
 4.104743218089316e+000	 4.082990490799123e-001	 1.052272110674091e+001
 4.100813980959058e+000	 4.460377713757270e-001	 1.057039693447727e+001
 4.096523325451788e+000	 4.838611825185213e-001	 1.060782105417429e+001
 4.091868355828354e+000	 5.217646581433781e-001	 1.063157849341394e+001
 4.086846244248997e+000	 5.597434910612210e-001	 1.063822626663512e+001
 4.081454233230216e+000	 5.977928922024768e-001	 1.062428243810165e+001
 4.075689638097673e+000	 6.359079916383678e-001	 1.059404385948959e+001
 4.069549849432490e+000	 6.740838396805191e-001	 1.056114150667236e+001
 4.063032335508314e+000	 7.123154080594807e-001	 1.050725487434382e+001
 4.056134644716447e+000	 7.505975911826697e-001	 1.043117367274025e+001
 4.133212870739683e+000	 3.728959172538585e-001	 1.046064543613425e+001
 4.129620449716046e+000	 4.107735887723266e-001	 1.051794613450451e+001
 4.125667399027677e+000	 4.487410305967704e-001	 1.057000147821089e+001
 4.121350739547837e+000	 4.867936745340066e-001	 1.061374407872694e+001
 4.116667557987442e+000	 5.249268681926648e-001	 1.064609377145793e+001
 4.111615009368302e+000	 5.631358758552508e-001	 1.066394673331669e+001
 4.106190319494902e+000	 6.014158794275279e-001	 1.066416405337486e+001
 4.100390787422146e+000	 6.397619794659991e-001	 1.063470855936624e+001
 4.094213787916497e+000	 6.781691962841794e-001	 1.057198330536442e+001
 4.087656773907807e+000	 7.166324711382593e-001	 1.049074591626252e+001
 4.080717278929137e+000	 7.551466674926702e-001	 1.038990605138703e+001
 4.158111743456611e+000	 3.751422782036917e-001	 1.045504859226175e+001
 4.154497681342774e+000	 4.132481284657408e-001	 1.051487471966610e+001
 4.150520817096297e+000	 4.514442898188139e-001	 1.057103469549194e+001
 4.146178153643887e+000	 4.897261665504918e-001	 1.062079450692367e+001
 4.141466760146528e+000	 5.280890782429515e-001	 1.066141226931638e+001
 4.136383774487609e+000	 5.665282606502805e-001	 1.069012686893963e+001
 4.130926405759589e+000	 6.050388666535790e-001	 1.070414603627940e+001
 4.125091936746621e+000	 6.436159672946306e-001	 1.066785546612367e+001
 4.118877726400505e+000	 6.822545528888399e-001	 1.058019095150351e+001
 4.112281212307298e+000	 7.209495342180373e-001	 1.047643361825088e+001
 4.105299913141828e+000	 7.596957438036709e-001	 1.035560968423805e+001
 4.183010616173539e+000	 3.773886391545250e-001	 1.045077659422054e+001
 4.179374912969506e+000	 4.157226681601551e-001	 1.051273773628277e+001
 4.175374235164916e+000	 4.541475490418572e-001	 1.057258226161235e+001
 4.171005567739937e+000	 4.926586585679771e-001	 1.062791300622105e+001
 4.166265962305615e+000	 5.312512882942381e-001	 1.067632991923920e+001
 4.161152539606915e+000	 5.699206454463102e-001	 1.071541822600340e+001
 4.155662492024274e+000	 6.086618538806299e-001	 1.074273599890975e+001
 4.149793086071094e+000	 6.474699551242622e-001	 1.069365440774373e+001
 4.143541664884514e+000	 6.863399094945004e-001	 1.058589708581057e+001
 4.136905650706790e+000	 7.252665972988159e-001	 1.046441360789683e+001
 4.129882547354518e+000	 7.642448201156715e-001	 1.032834337120214e+001
 4.207909488890469e+000	 3.796350001063583e-001	 1.044720160518870e+001
 4.204252144596236e+000	 4.181972078555695e-001	 1.051076355234338e+001
 4.200227653233535e+000	 4.568508082659006e-001	 1.057372885331746e+001
 4.195832981835988e+000	 4.955911505864624e-001	 1.063404074590880e+001
 4.191065164464702e+000	 5.344134983465247e-001	 1.068964464787683e+001
 4.185921304726221e+000	 5.733130302433399e-001	 1.073847583548660e+001
 4.180398578288962e+000	 6.122848411086811e-001	 1.077844650674769e+001
 4.174494235395567e+000	 6.513239429548936e-001	 1.071228163064847e+001
 4.168205603368522e+000	 6.904252661011610e-001	 1.058924222195140e+001
 4.161530089106282e+000	 7.295836603805944e-001	 1.045479082899690e+001
 4.154465181567210e+000	 7.687938964286721e-001	 1.030817665972155e+001
 4.232808361607396e+000	 3.818813610591916e-001	 1.044369188651448e+001
 4.229129376222968e+000	 4.206717475519838e-001	 1.050817810347623e+001
 4.225081071302157e+000	 4.595540674909441e-001	 1.057355817817484e+001
 4.220660395932038e+000	 4.985236426059477e-001	 1.063811938235005e+001
 4.215864366623790e+000	 5.375757083998116e-001	 1.070015631762138e+001
 4.210690069845527e+000	 5.767054150413699e-001	 1.075795810453862e+001
 4.205134664553649e+000	 6.159078283377322e-001	 1.080979493297451e+001
 4.199195384720043e+000	 6.551779307865254e-001	 1.072391961092233e+001
 4.192869541852530e+000	 6.945106227088215e-001	 1.059037451497966e+001
 4.186154527505775e+000	 7.339007234633730e-001	 1.044767926755008e+001
 4.179047815779902e+000	 7.733429727426728e-001	 1.029518952866810e+001
 3.933221473652993e+000	 7.278522096476667e-001	 1.074081724151575e+001
 3.926161850148238e+000	 7.650183830181283e-001	 1.071241783208086e+001
 3.918729058053593e+000	 8.022235159239719e-001	 1.068722336205850e+001
 3.910920967074733e+000	 8.394624406421654e-001	 1.066690506718311e+001
 3.902735533843881e+000	 8.767299201255313e-001	 1.065325331031904e+001
 3.894170804172645e+000	 9.140206496115850e-001	 1.064818244441632e+001
 3.885224915276652e+000	 9.513292583092481e-001	 1.065373558182296e+001
 3.875896097969084e+000	 9.886503111632025e-001	 1.067208925221666e+001
 3.866182678820226e+000	 1.025978310695547e+000	 1.070555793106370e+001
 3.856083082280073e+000	 1.063307698924287e+000	 1.075659842020754e+001
 3.845595832761096e+000	 1.100632859358089e+000	 1.082781406193863e+001
 3.957804107865683e+000	 7.324012859526673e-001	 1.066517555705251e+001
 3.950700361713788e+000	 7.697997479069519e-001	 1.065266179052143e+001
 3.943221114668281e+000	 8.072374128937929e-001	 1.064244279163266e+001
 3.935364223120499e+000	 8.447090808918899e-001	 1.063603646800227e+001
 3.927127630931612e+000	 8.822094821225209e-001	 1.063508042406128e+001
 3.918509371699555e+000	 9.197332786684371e-001	 1.064133707259538e+001
 3.909507570997550e+000	 9.572750661711155e-001	 1.065669865603989e+001
 3.900120448581363e+000	 9.948293756061437e-001	 1.068319215932305e+001
 3.890346320562340e+000	 1.032390675136383e+000	 1.072298409567561e+001
 3.880183601543291e+000	 1.069953372042453e+000	 1.077838514650033e+001
 3.869630806714263e+000	 1.107511814729950e+000	 1.085185463612525e+001
 3.982386742078373e+000	 7.369503622586678e-001	 1.059638424193290e+001
 3.975238873279343e+000	 7.745811127967659e-001	 1.059850405859678e+001
 3.967713171282988e+000	 8.122513098645752e-001	 1.060197782278743e+001
 3.959807479166307e+000	 8.499557211425273e-001	 1.060816956030298e+001
 3.951519728019422e+000	 8.876890441203553e-001	 1.061856360293405e+001
 3.942847939226587e+000	 9.254459077260456e-001	 1.063476995096727e+001
 3.933790226718623e+000	 9.632208740336313e-001	 1.065852954883279e+001
 3.924344799193880e+000	 1.001008440049605e+000	 1.069171945521317e+001
 3.914509962304769e+000	 1.038803039577591e+000	 1.073635788853541e+001
 3.904284120806908e+000	 1.076599045160823e+000	 1.079460912842476e+001
 3.893665780667924e+000	 1.114390770101823e+000	 1.086878825341047e+001
 4.006969376291065e+000	 7.414994385656684e-001	 1.053444319416508e+001
 3.999777384844903e+000	 7.793624776875702e-001	 1.055001374311059e+001
 3.992205227897715e+000	 8.172652068363189e-001	 1.056596643503677e+001
 3.984250735212159e+000	 8.552023613940772e-001	 1.058351082332749e+001
 3.975911825107308e+000	 8.931686061190344e-001	 1.060397741593267e+001
 3.967186506753740e+000	 9.311585367844105e-001	 1.062882329125266e+001
 3.958072882439873e+000	 9.691666818967953e-001	 1.065963763054597e+001
 3.948569149806640e+000	 1.007187504493586e+000	 1.069814714769564e+001
 3.938673604047511e+000	 1.045215404019170e+000	 1.074622139675467e+001
 3.928384640070924e+000	 1.083244718279393e+000	 1.080587793732707e+001
 3.917700754622081e+000	 1.121269725473710e+000	 1.087928733753531e+001
 4.031552010503756e+000	 7.460485148736690e-001	 1.047936482359107e+001
 4.024315896410468e+000	 7.841438425793651e-001	 1.050727134318772e+001
 4.016697284512461e+000	 8.222791038090240e-001	 1.053455688024253e+001
 4.008693991258054e+000	 8.604490016465400e-001	 1.056227588869708e+001
 4.000303922195272e+000	 8.986481681185579e-001	 1.059160446493866e+001
 3.991525074281016e+000	 9.368711658435318e-001	 1.062384621951919e+001
 3.982355538161299e+000	 9.751124897606078e-001	 1.066043806876778e+001
 3.972793500419638e+000	 1.013366568938087e+000	 1.070295592664511e+001
 3.962837245790567e+000	 1.051627768461120e+000	 1.075312027675122e+001
 3.952485159335338e+000	 1.089890391398166e+000	 1.081280160401631e+001
 3.941735728576730e+000	 1.128148680845609e+000	 1.088402566527834e+001
 4.056134644716447e+000	 7.505975911826697e-001	 1.043117367274025e+001
 4.048854407976037e+000	 7.889252074721501e-001	 1.047036840505245e+001
 4.041189341127226e+000	 8.272930007826903e-001	 1.050790737133109e+001
 4.033137247303994e+000	 8.656956418999159e-001	 1.054468926306714e+001
 4.024696019283315e+000	 9.041277301189258e-001	 1.058173514129893e+001
 4.015863641808413e+000	 9.425837949034094e-001	 1.062019456665562e+001
 4.006638193882901e+000	 9.810582976250684e-001	 1.066135165265657e+001
 3.997017851032876e+000	 1.019545633383107e+000	 1.070663102212148e+001
 3.987000887533940e+000	 1.058040132903442e+000	 1.075760364608839e+001
 3.976585678600152e+000	 1.096536064517142e+000	 1.081599254423506e+001
 3.965770702531872e+000	 1.135027636217520e+000	 1.088367832545477e+001
 4.080717278929137e+000	 7.551466674926702e-001	 1.038990605138703e+001
 4.073392919541611e+000	 7.937065723659253e-001	 1.043940718928439e+001
 4.065681397742011e+000	 8.323068977573183e-001	 1.048618578226135e+001
 4.057580503349977e+000	 8.709422821542041e-001	 1.053098406080695e+001
 4.049088116371435e+000	 9.096072921201380e-001	 1.057466739120335e+001
 4.040202209335932e+000	 9.482964239640432e-001	 1.061823066641948e+001
 4.030920849604678e+000	 9.870041054901769e-001	 1.066280462361620e+001
 4.021242201646355e+000	 1.025724697828648e+000	 1.070966206761734e+001
 4.011164529277626e+000	 1.064452497346135e+000	 1.076022397922361e+001
 4.000686197865364e+000	 1.103181737636319e+000	 1.081606548682404e+001
 3.989805676487509e+000	 1.141906591589444e+000	 1.087892167939720e+001
 4.105299913141828e+000	 7.596957438036709e-001	 1.035560968423805e+001
 4.097931431107191e+000	 7.984879372606913e-001	 1.041450035002955e+001
 4.090173454356815e+000	 8.373207947329071e-001	 1.046956935877219e+001
 4.082023759396002e+000	 8.761889224094052e-001	 1.052140174628370e+001
 4.073480213459632e+000	 9.150868541221949e-001	 1.057070648949182e+001
 4.064540776863573e+000	 9.540090530254336e-001	 1.061832316074041e+001
 4.055203505326632e+000	 9.929499133559337e-001	 1.066522851205525e+001
 4.045466552260073e+000	 1.031903762274709e+000	 1.071254296821868e+001
 4.035328171021626e+000	 1.070864861789199e+000	 1.076153700700256e+001
 4.024786717130976e+000	 1.109827410755699e+000	 1.081363740446778e+001
 4.013840650443639e+000	 1.148785546961380e+000	 1.087043332285625e+001
 4.129882547354518e+000	 7.642448201156715e-001	 1.032834337120214e+001
 4.122469942672774e+000	 8.032693021564474e-001	 1.039577062566788e+001
 4.114665510971639e+000	 8.423346917094579e-001	 1.045824443946053e+001
 4.106467015442071e+000	 8.814355626655193e-001	 1.051619188535056e+001
 4.097872310547907e+000	 9.205664161250964e-001	 1.057016482153971e+001
 4.088879344391335e+000	 9.597216820875801e-001	 1.062084681197686e+001
 4.079486161048761e+000	 9.988957212223389e-001	 1.066905997997611e+001
 4.069690902874030e+000	 1.038082826721289e+000	 1.071577177347410e+001
 4.059491812765941e+000	 1.077277226232634e+000	 1.076210161974295e+001
 4.048887236396987e+000	 1.116473083875281e+000	 1.080932744691345e+001
 4.037875624400262e+000	 1.155664502333329e+000	 1.085889204926196e+001
 4.154465181567210e+000	 7.687938964286721e-001	 1.030817665972155e+001
 4.147008454238363e+000	 8.080506670531940e-001	 1.038335054046323e+001
 4.139157567586481e+000	 8.473485886869693e-001	 1.045240618676184e+001
 4.130910271488186e+000	 8.866822029225459e-001	 1.051561190565787e+001
 4.122264407636262e+000	 9.260459781288420e-001	 1.057336167288701e+001
 4.113217911919220e+000	 9.654343111504832e-001	 1.062618232183843e+001
 4.103768816771067e+000	 1.004841529089392e+000	 1.067474066915270e+001
 4.093915253488230e+000	 1.044261891168389e+000	 1.071985055477758e+001
 4.083655454510570e+000	 1.083689590676441e+000	 1.076247977375891e+001
 4.072987755663395e+000	 1.123118756995065e+000	 1.080375687656079e+001
 4.061910598357380e+000	 1.162543457705291e+000	 1.084497781428953e+001
 4.179047815779902e+000	 7.733429727426728e-001	 1.029518952866810e+001
 4.171546965803959e+000	 8.128320319509310e-001	 1.037738211674322e+001
 4.163649624201344e+000	 8.523624856654427e-001	 1.045225832742546e+001
 4.155353527534343e+000	 8.919288431804857e-001	 1.051992686542372e+001
 4.146656504724693e+000	 9.315255401334327e-001	 1.058062302629220e+001
 4.137556479447227e+000	 9.711469402141428e-001	 1.063471615669894e+001
 4.128051472493549e+000	 1.010787336957094e+000	 1.068271705466657e+001
 4.118139604102669e+000	 1.050440955616010e+000	 1.072528528707893e+001
 4.107819096255514e+000	 1.090101955120619e+000	 1.076323640118470e+001
 4.097088274930205e+000	 1.129764430115052e+000	 1.079754900632523e+001
 4.085945572314992e+000	 1.169422413077266e+000	 1.082937170167554e+001
 3.845595832761096e+000	 1.100632859358089e+000	 1.082781406193863e+001
 3.834719556678107e+000	 1.137948119066728e+000	 1.075556266526712e+001
 3.823452984442649e+000	 1.175247750825766e+000	 1.069664695055123e+001
 3.811794952408592e+000	 1.212525975335376e+000	 1.065332055040254e+001
 3.799744404765942e+000	 1.249776963512203e+000	 1.062799813222088e+001
 3.787300395380251e+000	 1.286994838852475e+000	 1.064882441004341e+001
 3.774462089574614e+000	 1.324173679865361e+000	 1.065834464435040e+001
 3.761228765851377e+000	 1.361307522575099e+000	 1.065601634168405e+001
 3.747599817550746e+000	 1.398390363090333e+000	 1.064213039214256e+001
 3.733574754443465e+000	 1.435416160238980e+000	 1.061776112013565e+001
 3.719153204254849e+000	 1.472378838266780e+000	 1.057942628374534e+001
 3.869630806714263e+000	 1.107511814729950e+000	 1.085185463612525e+001
 3.858686553905200e+000	 1.145060294812716e+000	 1.076517499395529e+001
 3.847349565592751e+000	 1.182593049271040e+000	 1.069125558099639e+001
 3.835618670858001e+000	 1.220104262684471e+000	 1.063233525609940e+001
 3.823492807292140e+000	 1.257588069537881e+000	 1.060376700954557e+001
 3.810971022847386e+000	 1.295038556599349e+000	 1.062732115518209e+001
 3.798052477630097e+000	 1.332449765368725e+000	 1.063999053297641e+001
 3.784736445633263e+000	 1.369815694595396e+000	 1.064148190360252e+001
 3.771022316405465e+000	 1.407130302863685e+000	 1.063149322189036e+001
 3.756909596653517e+000	 1.444387511244183e+000	 1.060971370877170e+001
 3.742397911776015e+000	 1.481581206009164e+000	 1.057747571076367e+001
 3.893665780667924e+000	 1.114390770101823e+000	 1.086878825341047e+001
 3.882653551132883e+000	 1.152172470558531e+000	 1.076850476446364e+001
 3.871246146743528e+000	 1.189938347715985e+000	 1.068035547202140e+001
 3.859442389308159e+000	 1.227682550033110e+000	 1.060656324178500e+001
 3.847241209819154e+000	 1.265399175563005e+000	 1.058409585761614e+001
 3.834641650315390e+000	 1.303082274345601e+000	 1.061003691295165e+001
 3.821642865686497e+000	 1.340725850871429e+000	 1.062576443929324e+001
 3.808244125416103e+000	 1.378323866615026e+000	 1.063098202230376e+001
 3.794444815261164e+000	 1.415870242636394e+000	 1.062538356528693e+001
 3.780244438864563e+000	 1.453358862248796e+000	 1.060865335043618e+001
 3.765642619298180e+000	 1.490783573751044e+000	 1.058046613015788e+001
 3.917700754622081e+000	 1.121269725473710e+000	 1.087928733753531e+001
 3.906620548361152e+000	 1.159284646304173e+000	 1.076624436443081e+001
 3.895142727894979e+000	 1.197283646160600e+000	 1.066465857317544e+001
 3.883266107759067e+000	 1.235260837381292e+000	 1.057673560225503e+001
 3.870989612346986e+000	 1.273210281587576e+000	 1.056863769772694e+001
 3.858312277784268e+000	 1.311125992091232e+000	 1.059687797634837e+001
 3.845233253743815e+000	 1.349001936373474e+000	 1.061557366823907e+001
 3.831751805199895e+000	 1.386832038633990e+000	 1.062442518463974e+001
 3.817867314117842e+000	 1.424610182408460e+000	 1.062312237523649e+001
 3.803579281076603e+000	 1.462330213252820e+000	 1.061134457864783e+001
 3.788887326821345e+000	 1.499985941492418e+000	 1.058876070424828e+001
 3.941735728576730e+000	 1.128148680845609e+000	 1.088402566527834e+001
 3.930587545590011e+000	 1.166396822049642e+000	 1.075908751057113e+001
 3.919039309047104e+000	 1.204628944604886e+000	 1.064487813616999e+001
 3.907089826210726e+000	 1.242839124729018e+000	 1.054358470459279e+001
 3.894738014875633e+000	 1.281021387611592e+000	 1.055729921978834e+001
 3.881982905254017e+000	 1.319169709836242e+000	 1.058775184199134e+001
 3.868823641802051e+000	 1.357278021874860e+000	 1.060932668957347e+001
 3.855259484984642e+000	 1.395340210652287e+000	 1.062172100049824e+001
 3.841289812975500e+000	 1.433350122179882e+000	 1.062462056917779e+001
 3.826914123289639e+000	 1.471301564256254e+000	 1.061769978613077e+001
 3.812132034345510e+000	 1.509188309233287e+000	 1.060062171024592e+001
 3.965770702531872e+000	 1.135027636217520e+000	 1.088367832545477e+001
 3.954554542819460e+000	 1.173508997794938e+000	 1.074772920839950e+001
 3.942935890199904e+000	 1.211974243048843e+000	 1.062172867541930e+001
 3.930913544663134e+000	 1.250417412076288e+000	 1.050949013762199e+001
 3.918486417405095e+000	 1.288832493635055e+000	 1.054998831559507e+001
 3.905653532724638e+000	 1.327213427580630e+000	 1.058256717364916e+001
 3.892414029861204e+000	 1.365554107375587e+000	 1.060693310257980e+001
 3.878767164770343e+000	 1.403848382669918e+000	 1.062278016877154e+001
 3.864712311834136e+000	 1.442090061950661e+000	 1.062979011013980e+001
 3.850248965503670e+000	 1.480272915259099e+000	 1.062763236489055e+001
 3.835376741870674e+000	 1.518390676973651e+000	 1.061596413416148e+001
 3.989805676487509e+000	 1.141906591589444e+000	 1.087892167939720e+001
 3.978521540049498e+000	 1.180621173540061e+000	 1.073286571341220e+001
 3.966832471353379e+000	 1.219319541492470e+000	 1.059592593000719e+001
 3.954737263116293e+000	 1.257995699423101e+000	 1.050474033144522e+001
 3.942234819935373e+000	 1.296643599657964e+000	 1.054661404262491e+001
 3.929324160196132e+000	 1.335257145324397e+000	 1.058123376708474e+001
 3.916004417921276e+000	 1.373830192875655e+000	 1.060830360204342e+001
 3.902274844556996e+000	 1.412356554686883e+000	 1.062751444455502e+001
 3.888134810693753e+000	 1.450830001720796e+000	 1.063854397524797e+001
 3.873583807718696e+000	 1.489244266261354e+000	 1.064105667611533e+001
 3.858621449396840e+000	 1.527593044713509e+000	 1.063470388346927e+001
 4.013840650443639e+000	 1.148785546961380e+000	 1.087043332285625e+001
 4.002488537280124e+000	 1.187733349285011e+000	 1.071519449366221e+001
 3.990729052507526e+000	 1.226664839935768e+000	 1.056818682702029e+001
 3.978560981570202e+000	 1.265573986769458e+000	 1.050392035486421e+001
 3.965983222466468e+000	 1.304454705680320e+000	 1.054708658913807e+001
 3.952994787668497e+000	 1.343300863067542e+000	 1.058366251616326e+001
 3.939594805982265e+000	 1.382106278375064e+000	 1.061334994545223e+001
 3.925782524344604e+000	 1.420864726703181e+000	 1.063583660752432e+001
 3.911557309554348e+000	 1.459569941490288e+000	 1.065079612536207e+001
 3.896918649934715e+000	 1.498215617263019e+000	 1.065788802115846e+001
 3.881866156924004e+000	 1.536795412452863e+000	 1.065675775951854e+001
 4.037875624400262e+000	 1.155664502333329e+000	 1.085889204926196e+001
 4.026455534511339e+000	 1.194845525029789e+000	 1.069541419367123e+001
 4.014625633662350e+000	 1.234010138378737e+000	 1.053922944619086e+001
 4.002384700024860e+000	 1.273152274115358e+000	 1.050694097409162e+001
 3.989731624998377e+000	 1.312265811702121e+000	 1.055131724052285e+001
 3.976665415141733e+000	 1.351344580810065e+000	 1.058976538017059e+001
 3.963185194044173e+000	 1.390382363873814e+000	 1.062198492136857e+001
 3.949290204133165e+000	 1.429372898718813e+000	 1.064766043144192e+001
 3.934979808415923e+000	 1.468309881259137e+000	 1.066646147579840e+001
 3.920253492151731e+000	 1.507186968264094e+000	 1.067804261355730e+001
 3.905110864452169e+000	 1.545997780191711e+000	 1.068204343093001e+001
 4.061910598357380e+000	 1.162543457705291e+000	 1.084497781428953e+001
 4.050422531743143e+000	 1.201957700774393e+000	 1.067422459962300e+001
 4.038522214817848e+000	 1.241355436821377e+000	 1.050977298579477e+001
 4.026208418480270e+000	 1.280730561460802e+000	 1.051371404822168e+001
 4.013480027531105e+000	 1.320076917723369e+000	 1.055921834683632e+001
 4.000336042615841e+000	 1.359388298551968e+000	 1.059945535229198e+001
 3.986775582106998e+000	 1.398658449371905e+000	 1.063412231892413e+001
 3.972797883922680e+000	 1.437881070733778e+000	 1.066290065474622e+001
 3.958402307278478e+000	 1.477049821027342e+000	 1.068545586809141e+001
 3.943588334369740e+000	 1.516158319264580e+000	 1.070143755204562e+001
 3.928355571981333e+000	 1.555200147930054e+000	 1.071047940793701e+001
 4.085945572314992e+000	 1.169422413077266e+000	 1.082937170167554e+001
 4.074389528975536e+000	 1.209069876518825e+000	 1.065232660578485e+001
 4.062418795974019e+000	 1.248700735263687e+000	 1.048053772975323e+001
 4.050032136936430e+000	 1.288308848805790e+000	 1.052415249708669e+001
 4.037228430064649e+000	 1.327888023744063e+000	 1.057070329149045e+001
 4.024006670090824e+000	 1.367432016293249e+000	 1.061264642920319e+001
 4.010365970170742e+000	 1.406934534869337e+000	 1.064967689839139e+001
 3.996305563713150e+000	 1.446389242748077e+000	 1.068147295217879e+001
 3.981824806142011e+000	 1.485789760794904e+000	 1.070769604275199e+001
 3.966923176588746e+000	 1.525129670264476e+000	 1.072799079451833e+001
 3.951600279511499e+000	 1.564402515667893e+000	 1.074198501763208e+001
 3.719153204254849e+000	 1.472378838266780e+000	 1.057942628374534e+001
 3.704334914117635e+000	 1.509272289597060e+000	 1.063626380488168e+001
 3.689119751950341e+000	 1.546090377651535e+000	 1.069426187189807e+001
 3.673507707759193e+000	 1.582826939728250e+000	 1.075393973856480e+001
 3.657498894861322e+000	 1.619475789933607e+000	 1.081588204313060e+001
 3.641093551026176e+000	 1.656030722167824e+000	 1.088074175790182e+001
 3.624292039533033e+000	 1.692485513160644e+000	 1.094924302166347e+001
 3.607094850142330e+000	 1.728833925554609e+000	 1.102218384270682e+001
 3.589502599978649e+000	 1.765069711033148e+000	 1.110043866034043e+001
 3.571516034323234e+000	 1.801186613490626e+000	 1.118496075292216e+001
 3.553136027314097e+000	 1.837178372241353e+000	 1.127678448065897e+001
 3.742397911776015e+000	 1.481581206009164e+000	 1.057747571076367e+001
 3.727487007325320e+000	 1.518705241409741e+000	 1.064645414008680e+001
 3.712176750394489e+000	 1.555753442514154e+000	 1.071422836708790e+001
 3.696467130927288e+000	 1.592719608103564e+000	 1.078117740966616e+001
 3.680358262949079e+000	 1.629597513622535e+000	 1.084774780918042e+001
 3.663850385715369e+000	 1.666380914183165e+000	 1.091445680393709e+001
 3.646943864775933e+000	 1.703063547619757e+000	 1.098189538428280e+001
 3.629639192952212e+000	 1.739639137591369e+000	 1.105073121657154e+001
 3.611936991225818e+000	 1.776101396729453e+000	 1.112171142338462e+001
 3.593838009536003e+000	 1.812444029827717e+000	 1.119566520753983e+001
 3.575343127484140e+000	 1.848660737071182e+000	 1.127350630763475e+001
 3.765642619298180e+000	 1.490783573751044e+000	 1.058046613015788e+001
 3.750639100533996e+000	 1.528138193222007e+000	 1.065604892332209e+001
 3.735233748839598e+000	 1.565416507376430e+000	 1.073215336384869e+001
 3.719426554096293e+000	 1.602612276478584e+000	 1.080505076671121e+001
 3.703217631037676e+000	 1.639719237311201e+000	 1.087491835236120e+001
 3.686607220405314e+000	 1.676731106198254e+000	 1.094213769733111e+001
 3.669595690019477e+000	 1.713641582078609e+000	 1.100716674616346e+001
 3.652183535762613e+000	 1.750444349627840e+000	 1.107054295734394e+001
 3.634371382473355e+000	 1.787133082425423e+000	 1.113288630320973e+001
 3.616159984748968e+000	 1.823701446164401e+000	 1.119490211086495e+001
 3.597550227654190e+000	 1.860143101900514e+000	 1.125738373134199e+001
 3.788887326821345e+000	 1.499985941492418e+000	 1.058876070424828e+001
 3.773791193743661e+000	 1.537571145033858e+000	 1.067096499242697e+001
 3.758290747285668e+000	 1.575079572238361e+000	 1.075002716701016e+001
 3.742385977266211e+000	 1.612504944853311e+000	 1.082629787119886e+001
 3.726076999127117e+000	 1.649840960999605e+000	 1.089818001142045e+001
 3.709364055096013e+000	 1.687081298213093e+000	 1.096461833838279e+001
 3.692247515263667e+000	 1.724219616537203e+000	 1.102593782482554e+001
 3.674727878573526e+000	 1.761249561664025e+000	 1.108254582718082e+001
 3.656805773721258e+000	 1.798164768121055e+000	 1.113493530618289e+001
 3.638481959962131e+000	 1.834958862500678e+000	 1.118368788565162e+001
 3.619757327824249e+000	 1.871625466729350e+000	 1.122947673617964e+001
 3.812132034345510e+000	 1.509188309233287e+000	 1.060062171024592e+001
 3.796943286954317e+000	 1.547004096845295e+000	 1.068749454887962e+001
 3.781347745732699e+000	 1.584742637099948e+000	 1.076968717066645e+001
 3.765345400437040e+000	 1.622397613227745e+000	 1.084677561238553e+001
 3.748936367217401e+000	 1.659962684687746e+000	 1.091831648417469e+001
 3.732120889787467e+000	 1.697431490227682e+000	 1.098272910256445e+001
 3.714899340508502e+000	 1.734797650995538e+000	 1.103908493848960e+001
 3.697272221384958e+000	 1.772054773699921e+000	 1.108766132434167e+001
 3.679240164969529e+000	 1.809196453816351e+000	 1.112882432050098e+001
 3.660803935175493e+000	 1.846216278836551e+000	 1.116303199298300e+001
 3.641964427994314e+000	 1.883107831557690e+000	 1.126840401605644e+001
 3.835376741870674e+000	 1.518390676973651e+000	 1.061596413416148e+001
 3.820095380165963e+000	 1.556437048656317e+000	 1.070558803313473e+001
 3.804404744180690e+000	 1.594405701961191e+000	 1.078901388766914e+001
 3.788304823608781e+000	 1.632290281601885e+000	 1.086570898393911e+001
 3.771795735308528e+000	 1.670084408375627e+000	 1.093512331289618e+001
 3.754877724479676e+000	 1.707781682242020e+000	 1.099668989674056e+001
 3.737551165753983e+000	 1.745375685453613e+000	 1.104748013938882e+001
 3.719816564196904e+000	 1.782859985735529e+000	 1.108680584270061e+001
 3.701674556218166e+000	 1.820228139511309e+000	 1.111551330158979e+001
 3.683125910389052e+000	 1.857473695172016e+000	 1.113393714323099e+001
 3.664171528164389e+000	 1.894590196385535e+000	 1.132676745848551e+001
 3.858621449396840e+000	 1.527593044713509e+000	 1.063470388346927e+001
 3.843247473378598e+000	 1.565870000466923e+000	 1.072519594465451e+001
 3.827461742629643e+000	 1.604068766822089e+000	 1.080799216910118e+001
 3.811264246781434e+000	 1.642182949975733e+000	 1.088245200662905e+001
 3.794655103400497e+000	 1.680206132063246e+000	 1.094791752326496e+001
 3.777634559172637e+000	 1.718131874256107e+000	 1.100371383866305e+001
 3.760202991000109e+000	 1.755953719911430e+000	 1.104914961244978e+001
 3.742360907009368e+000	 1.793665197770850e+000	 1.108089082549303e+001
 3.724108947467171e+000	 1.831259825205930e+000	 1.109595645080189e+001
 3.705447885602809e+000	 1.868731111507075e+000	 1.109739949939093e+001
 3.686378628334472e+000	 1.906072561212882e+000	 1.137164066334815e+001
 3.881866156924004e+000	 1.536795412452863e+000	 1.065675775951854e+001
 3.866399566592226e+000	 1.575302952277115e+000	 1.074626884014199e+001
 3.850518741079557e+000	 1.613731831682644e+000	 1.082660609358362e+001
 3.834223669954998e+000	 1.652075618349287e+000	 1.089702203065349e+001
 3.817514471493309e+000	 1.690327855750602e+000	 1.095675168086381e+001
 3.800391393866355e+000	 1.728482066269945e+000	 1.100501313992522e+001
 3.782854816246879e+000	 1.766531754368986e+000	 1.104100816812249e+001
 3.764905249822348e+000	 1.804470409805882e+000	 1.106392283971297e+001
 3.746543338716543e+000	 1.842291510900214e+000	 1.107110238769429e+001
 3.727769860816763e+000	 1.879988527841727e+000	 1.109819498251289e+001
 3.708585728504561e+000	 1.917554926039734e+000	 1.140279479354562e+001
 3.905110864452169e+000	 1.545997780191711e+000	 1.068204343093001e+001
 3.889551659806843e+000	 1.584735904086892e+000	 1.076875733183744e+001
 3.873575739530430e+000	 1.623394896542854e+000	 1.084483899026561e+001
 3.857183093129475e+000	 1.661968286722549e+000	 1.090943485885986e+001
 3.840373839586965e+000	 1.700449579437697e+000	 1.096167380250061e+001
 3.823148228560824e+000	 1.738832258283531e+000	 1.100066775501673e+001
 3.805506641494295e+000	 1.777109788826284e+000	 1.102551242873849e+001
 3.787449592635845e+000	 1.815275621840626e+000	 1.103528807688721e+001
 3.768977729966282e+000	 1.853323196594162e+000	 1.102906030865280e+001
 3.750091836030915e+000	 1.891245944175974e+000	 1.114371723516782e+001
 3.730792828674659e+000	 1.929037290866090e+000	 1.141999411293987e+001
 3.928355571981333e+000	 1.555200147930054e+000	 1.071047940793701e+001
 3.912703753022449e+000	 1.594168855896254e+000	 1.079261208587524e+001
 3.896632737982265e+000	 1.633057961402721e+000	 1.086267346099803e+001
 3.880142516304864e+000	 1.671860955095518e+000	 1.091970479252450e+001
 3.863233207681463e+000	 1.710571303124530e+000	 1.096272963645134e+001
 3.845905063256048e+000	 1.749182450296868e+000	 1.099075461063834e+001
 3.828158466742356e+000	 1.787687823283323e+000	 1.100277021469855e+001
 3.809993935449857e+000	 1.826080833875083e+000	 1.099775170454662e+001
 3.791412121216387e+000	 1.864354882287772e+000	 1.097466002130442e+001
 3.772413811245263e+000	 1.902503360509814e+000	 1.115736868777120e+001
 3.752999928844765e+000	 1.940519655691950e+000	 1.142020885765018e+001
 3.951600279511499e+000	 1.564402515667893e+000	 1.074198501763208e+001
 3.935855846239047e+000	 1.603601807705202e+000	 1.081778382069876e+001
 3.919689736435062e+000	 1.642721026262243e+000	 1.088009140172471e+001
 3.903101939481164e+000	 1.681753623468193e+000	 1.092784467551642e+001
 3.886092575776805e+000	 1.720693026811101e+000	 1.095996272918160e+001
 3.868661897952027e+000	 1.759532642309954e+000	 1.097534769475444e+001
 3.850810291991064e+000	 1.798265857740103e+000	 1.097288567859717e+001
 3.832538278264387e+000	 1.836886045909252e+000	 1.095144774728768e+001
 3.813846512466861e+000	 1.875386567981046e+000	 1.091285475751804e+001
 3.794735786459811e+000	 1.913760776843248e+000	 1.115229915143605e+001
 3.775207029014879e+000	 1.952002020517314e+000	 1.138488041742899e+001
 3.553136027314097e+000	 1.837178372241353e+000	 1.127678448065897e+001
 3.534363582552064e+000	 1.873038725264742e+000	 1.098752890775820e+001
 3.515199833610370e+000	 1.908761412482587e+000	 1.102277985769497e+001
 3.495646044446416e+000	 1.944340179066090e+000	 1.106732170048947e+001
 3.475703609714793e+000	 1.979768778769484e+000	 1.110073890811474e+001
 3.455374054979496e+000	 2.015040977286106e+000	 1.112195518168448e+001
 3.434659036824272e+000	 2.050150555623710e+000	 1.112984216069573e+001
 3.413560342859975e+000	 2.085091313495475e+000	 1.112321894074208e+001
 3.392079891627955e+000	 2.119857072723085e+000	 1.110085174413536e+001
 3.370219732398642e+000	 2.154441680648209e+000	 1.106145374863796e+001
 3.347982044864625e+000	 2.188839013548634e+000	 1.100368507907985e+001
 3.575343127484140e+000	 1.848660737071182e+000	 1.127350630763475e+001
 3.556453354943440e+000	 1.884745217301496e+000	 1.104512635481720e+001
 3.537169832571846e+000	 1.920691171314831e+000	 1.106900925633425e+001
 3.517493832226493e+000	 1.956492305189702e+000	 1.108538382999479e+001
 3.497426757278562e+000	 1.992142333641312e+000	 1.109337939265412e+001
 3.476970142826822e+000	 2.027634983398575e+000	 1.109207111867996e+001
 3.456125655808669e+000	 2.062963996600547e+000	 1.108047920095324e+001
 3.434895095007523e+000	 2.098123134208612e+000	 1.105756816258120e+001
 3.413280390955621e+000	 2.133106179430840e+000	 1.102224632536708e+001
 3.391283605731326e+000	 2.167906941154782e+000	 1.097336544067464e+001
 3.368906932650309e+000	 2.202519257384963e+000	 1.090972048789154e+001
 3.597550227654190e+000	 1.860143101900514e+000	 1.125738373134199e+001
 3.578543127334634e+000	 1.896451709337664e+000	 1.111175593095461e+001
 3.559139831532968e+000	 1.932620930146416e+000	 1.110716817860743e+001
 3.539341620006065e+000	 1.968644431312608e+000	 1.109766104779105e+001
 3.519149904841695e+000	 2.004515888512400e+000	 1.108251716675162e+001
 3.498566230673402e+000	 2.040228989510295e+000	 1.106096228571445e+001
 3.477592274792229e+000	 2.075777437576643e+000	 1.103216422866068e+001
 3.456229847154164e+000	 2.111154954921037e+000	 1.099523199927834e+001
 3.434480890282325e+000	 2.146355286137931e+000	 1.094921504757440e+001
 3.412347479063020e+000	 2.181372201660762e+000	 1.089310270322393e+001
 3.389831820434993e+000	 2.216199501220790e+000	 1.082582378129064e+001
 3.619757327824249e+000	 1.871625466729350e+000	 1.122947673617964e+001
 3.600632899725644e+000	 1.908158201373246e+000	 1.116777196070301e+001
 3.581109830493738e+000	 1.944550688977346e+000	 1.113694634779313e+001
 3.561189407785134e+000	 1.980796557434805e+000	 1.110378855243235e+001
 3.540873052404193e+000	 2.016889443382751e+000	 1.106773367192261e+001
 3.520162318519235e+000	 2.052822995621266e+000	 1.102815716452427e+001
 3.499058893774951e+000	 2.088590878552000e+000	 1.098437359215918e+001
 3.477564599299897e+000	 2.124186775632751e+000	 1.093563552080570e+001
 3.455681389608072e+000	 2.159604392844361e+000	 1.088113258551658e+001
 3.433411352393724e+000	 2.194837462166150e+000	 1.081999072657454e+001
 3.410756708218677e+000	 2.229879745056114e+000	 1.075127160285077e+001
 3.641964427994314e+000	 1.883107831557690e+000	 1.126840401605644e+001
 3.622722672116472e+000	 1.919864693408242e+000	 1.121291284120976e+001
 3.603079829454155e+000	 1.956480447807618e+000	 1.115802809364748e+001
 3.583037195563698e+000	 1.992948683556295e+000	 1.110339733299312e+001
 3.562596199966056e+000	 2.029262998252362e+000	 1.104860731266000e+001
 3.541758406364323e+000	 2.065417001731487e+000	 1.099318236009708e+001
 3.520525512756837e+000	 2.101404319526616e+000	 1.093658291053714e+001
 3.498899351444720e+000	 2.137218596343754e+000	 1.087820420201089e+001
 3.476881888932859e+000	 2.172853499550128e+000	 1.081737513900388e+001
 3.454475225723438e+000	 2.208302722670944e+000	 1.075335733170987e+001
 3.431681596001361e+000	 2.243559988890935e+000	 1.068534431737882e+001
 3.664171528164389e+000	 1.894590196385535e+000	 1.132676745848551e+001
 3.644812444507119e+000	 1.931571185442651e+000	 1.124691058072611e+001
 3.625049828414218e+000	 1.968410206637234e+000	 1.117009251584439e+001
 3.604884983341758e+000	 2.005100809677078e+000	 1.109611429662820e+001
 3.584319347527286e+000	 2.041636553121236e+000	 1.102471354846545e+001
 3.563354494208663e+000	 2.078011007840959e+000	 1.095556265754314e+001
 3.541992131737885e+000	 2.114217760500491e+000	 1.088826709572872e+001
 3.520234103588635e+000	 2.150250417054045e+000	 1.082236391034800e+001
 3.498082388256686e+000	 2.186102606255233e+000	 1.075732038668393e+001
 3.475539099052162e+000	 2.221767983175147e+000	 1.069253289059004e+001
 3.452606483783046e+000	 2.257240232725254e+000	 1.062732589815031e+001
 3.686378628334472e+000	 1.906072561212882e+000	 1.137164066334815e+001
 3.666902216897582e+000	 1.943277677476475e+000	 1.126949099104382e+001
 3.647019827373930e+000	 1.980339965466193e+000	 1.117281364150800e+001
 3.626732771119317e+000	 2.017252935797153e+000	 1.108156239152211e+001
 3.606042495087878e+000	 2.054010107989371e+000	 1.099562498255370e+001
 3.584950582052259e+000	 2.090605013949682e+000	 1.091482107691082e+001
 3.563458750718094e+000	 2.127031201473626e+000	 1.083890037381376e+001
 3.541568855731642e+000	 2.163282237763625e+000	 1.076754089405211e+001
 3.519282887579553e+000	 2.199351712959676e+000	 1.070034744149844e+001
 3.496602972379896e+000	 2.235233243678757e+000	 1.063685024931527e+001
 3.473531371563731e+000	 2.270920476559069e+000	 1.057650381822057e+001
 3.708585728504561e+000	 1.917554926039734e+000	 1.140279479354562e+001
 3.688991989287863e+000	 1.954984169509711e+000	 1.128037387301788e+001
 3.668989826333287e+000	 1.992269724294494e+000	 1.116586057708549e+001
 3.648580558896370e+000	 2.029405061916520e+000	 1.105936072542115e+001
 3.627765642647836e+000	 2.066383662856767e+000	 1.096091144737036e+001
 3.606546669895108e+000	 2.103199020057653e+000	 1.087047892603277e+001
 3.584925369697467e+000	 2.139844642446019e+000	 1.078795630555232e+001
 3.562903607873741e+000	 2.176314058472495e+000	 1.071316177073865e+001
 3.540483386901463e+000	 2.212600819663458e+000	 1.064583680774029e+001
 3.517666845706641e+000	 2.248698504181774e+000	 1.058564465404978e+001
 3.494456259343415e+000	 2.284600720392382e+000	 1.053216894564099e+001
 3.730792828674659e+000	 1.929037290866090e+000	 1.141999411293987e+001
 3.711081761677962e+000	 1.966690661542362e+000	 1.127927319546349e+001
 3.690959825292291e+000	 2.004199483122140e+000	 1.114889765479582e+001
 3.670428346672918e+000	 2.041557188035180e+000	 1.102912467993218e+001
 3.649488790207160e+000	 2.078757217723425e+000	 1.092014008705514e+001
 3.628142757737210e+000	 2.115793026164877e+000	 1.082205585148477e+001
 3.606391988676003e+000	 2.152658083417674e+000	 1.073490780618585e+001
 3.584238360014931e+000	 2.189345879180652e+000	 1.065865351640991e+001
 3.561683886222414e+000	 2.225849926366578e+000	 1.059317033964421e+001
 3.538730719032396e+000	 2.262163764684199e+000	 1.053825367959135e+001
 3.515381147122099e+000	 2.298280964225193e+000	 1.049361544241735e+001
 3.752999928844765e+000	 1.940519655691950e+000	 1.142020885765018e+001
 3.733171534067878e+000	 1.978397153574426e+000	 1.126589726770162e+001
 3.712929824250943e+000	 2.016129241949128e+000	 1.112158457387903e+001
 3.692276134448962e+000	 2.053709314153131e+000	 1.099046602076339e+001
 3.671211937765847e+000	 2.091130772589344e+000	 1.087287543697754e+001
 3.649738845578567e+000	 2.128387032271351e+000	 1.076906988773533e+001
 3.627858607653701e+000	 2.165471524388587e+000	 1.067922716453535e+001
 3.605573112155213e+000	 2.202377699888097e+000	 1.060344345485196e+001
 3.582884385542403e+000	 2.239099033069035e+000	 1.054173120144771e+001
 3.559794592357162e+000	 2.275629025186031e+000	 1.049401716047689e+001
 3.536306034899783e+000	 2.311961208057501e+000	 1.046014066705571e+001
 3.775207029014879e+000	 1.952002020517314e+000	 1.138488041742899e+001
 3.755261306457614e+000	 1.990103645605905e+000	 1.123421449906467e+001
 3.734899823209242e+000	 2.028059000775460e+000	 1.108357653686037e+001
 3.714123922224505e+000	 2.065861440270376e+000	 1.094299300407430e+001
 3.692935085323902e+000	 2.103504327454526e+000	 1.081867950046548e+001
 3.671334933419178e+000	 2.140981038377075e+000	 1.071103750456058e+001
 3.649325226630563e+000	 2.178284965358760e+000	 1.062038606142557e+001
 3.626907864294587e+000	 2.215409520594833e+000	 1.054695924740568e+001
 3.604084884861436e+000	 2.252348139770831e+000	 1.049090382886164e+001
 3.580858465680938e+000	 2.289094285687272e+000	 1.045227712451941e+001
 3.557230922676468e+000	 2.325641451889307e+000	 1.043104508054756e+001
 3.347982044864625e+000	 2.188839013548634e+000	 1.100368507907985e+001
 3.325369138727341e+000	 2.223042980055294e+000	 1.100058012848179e+001
 3.302383453178052e+000	 2.257047524566414e+000	 1.100091485321808e+001
 3.279027556272166e+000	 2.290846630654907e+000	 1.100438427042865e+001
 3.255304144196106e+000	 2.324434324465135e+000	 1.101061420632726e+001
 3.231216040427900e+000	 2.357804678095201e+000	 1.101916078342090e+001
 3.206766194791349e+000	 2.390951812960879e+000	 1.102951010496970e+001
 3.181957682404208e+000	 2.423869903137296e+000	 1.104107814020465e+001
 3.156793702520920e+000	 2.456553178674487e+000	 1.105321081320420e+001
 3.131277577270648e+000	 2.488995928882965e+000	 1.106518429769657e+001
 3.105412750291483e+000	 2.521192505585459e+000	 1.094159022329167e+001
 3.368906932650309e+000	 2.202519257384963e+000	 1.090972048789154e+001
 3.346152695849630e+000	 2.236936998681402e+000	 1.092440896135461e+001
 3.323023349765487e+000	 2.271154071594951e+000	 1.094338145305198e+001
 3.299521478503630e+000	 2.305164422095855e+000	 1.096630406393883e+001
 3.275649795101650e+000	 2.338962038991882e+000	 1.099277130040773e+001
 3.251411140684310e+000	 2.372540957331743e+000	 1.102230556847396e+001
 3.226808483511812e+000	 2.405895261790065e+000	 1.105435687053511e+001
 3.201844917921395e+000	 2.439019090029943e+000	 1.108830270827092e+001
 3.176523663162844e+000	 2.471906636039226e+000	 1.112344819461907e+001
 3.150848062128626e+000	 2.504552153436617e+000	 1.112154229976252e+001
 3.124821579979573e+000	 2.536949958743739e+000	 1.089791249519633e+001
 3.389831820434993e+000	 2.216199501220790e+000	 1.082582378129064e+001
 3.366936252970930e+000	 2.250831017307106e+000	 1.085764420199430e+001
 3.343663246351960e+000	 2.285260618623185e+000	 1.089461582263470e+001
 3.320015400734183e+000	 2.319482213536602e+000	 1.093637620289054e+001
 3.295995446006352e+000	 2.353489753518526e+000	 1.098248886675399e+001
 3.271606240939970e+000	 2.387277236568283e+000	 1.103244280302130e+001
 3.246850772231634e+000	 2.420838710619349e+000	 1.108565217376364e+001
 3.221732153438071e+000	 2.454168276922789e+000	 1.114145623439539e+001
 3.196253623804405e+000	 2.487260093404263e+000	 1.119911946831104e+001
 3.170418546986411e+000	 2.520108377990668e+000	 1.108811327258314e+001
 3.144230409667659e+000	 2.552707411902517e+000	 1.088212430483056e+001
 3.410756708218677e+000	 2.229879745056114e+000	 1.075127160285077e+001
 3.387719810091239e+000	 2.264725035932409e+000	 1.079956816848159e+001
 3.364303142937474e+000	 2.299367165651117e+000	 1.085390631761189e+001
 3.340509322963825e+000	 2.333800004977146e+000	 1.091389544177262e+001
 3.316341096910214e+000	 2.368017468045067e+000	 1.097906841780709e+001
 3.291801341194878e+000	 2.402013515804821e+000	 1.104888111400497e+001
 3.266893060950814e+000	 2.435782159448731e+000	 1.112271210969552e+001
 3.241619388954234e+000	 2.469317463815833e+000	 1.119986263197055e+001
 3.215983584445602e+000	 2.502613550769600e+000	 1.125657000678584e+001
 3.189989031844004e+000	 2.535664602545118e+000	 1.105312453531185e+001
 3.163639239355744e+000	 2.568464865061795e+000	 1.086456414632995e+001
 3.431681596001361e+000	 2.243559988890935e+000	 1.068534431737882e+001
 3.408503367210559e+000	 2.278619054557308e+000	 1.074946667604474e+001
 3.384943039522027e+000	 2.313473712678746e+000	 1.082054456574958e+001
 3.361003245192558e+000	 2.348117796417488e+000	 1.089815958133011e+001
 3.336686747813234e+000	 2.382545182571506e+000	 1.098181428566842e+001
 3.311996441449033e+000	 2.416749795041357e+000	 1.107093172080606e+001
 3.286935349669350e+000	 2.450725608278211e+000	 1.116485513807023e+001
 3.261506624469884e+000	 2.484466650709074e+000	 1.126284795093778e+001
 3.235713545086438e+000	 2.517967008135234e+000	 1.120316999147878e+001
 3.209559516701404e+000	 2.551220827099967e+000	 1.101662530348280e+001
 3.183048069043826e+000	 2.584222318221571e+000	 1.084503128175181e+001
 3.452606483783046e+000	 2.257240232725254e+000	 1.062732589815031e+001
 3.429286924328888e+000	 2.292513073181805e+000	 1.070662893108528e+001
 3.405582936105619e+000	 2.327580259706072e+000	 1.079382536777897e+001
 3.381497167420379e+000	 2.362435587857628e+000	 1.088846937625348e+001
 3.357032398715414e+000	 2.397072897097844e+000	 1.099003353665551e+001
 3.332191541702438e+000	 2.431486074277891e+000	 1.109790835668593e+001
 3.306977638387247e+000	 2.465669057107790e+000	 1.121140201166902e+001
 3.281393859985023e+000	 2.499615837602515e+000	 1.132974031304353e+001
 3.255443505726912e+000	 2.533320465501167e+000	 1.114875955579280e+001
 3.229130001558612e+000	 2.566777051655214e+000	 1.097866642118817e+001
 3.202456898731904e+000	 2.599979771381846e+000	 1.082358527136271e+001
 3.473531371563731e+000	 2.270920476559069e+000	 1.057650381822057e+001
 3.450070481446228e+000	 2.306407091805899e+000	 1.067034742903432e+001
 3.426222832688253e+000	 2.341686806733097e+000	 1.077304660182523e+001
 3.401991089647289e+000	 2.376753379297564e+000	 1.088412844620432e+001
 3.377378049616752e+000	 2.411600611624079e+000	 1.100303588894602e+001
 3.352386641955091e+000	 2.446222353514424e+000	 1.112912719306696e+001
 3.327019927104500e+000	 2.480612505937467e+000	 1.126167570724731e+001
 3.301281095499650e+000	 2.514765024496154e+000	 1.126197307133818e+001
 3.275173466367022e+000	 2.548673922867399e+000	 1.109338255635036e+001
 3.248700486415626e+000	 2.582333276210859e+000	 1.093930031202525e+001
 3.221865728419981e+000	 2.615737224542619e+000	 1.080028703981657e+001
 3.494456259343415e+000	 2.284600720392382e+000	 1.053216894564099e+001
 3.470854038562576e+000	 2.320301110429591e+000	 1.063991785587859e+001
 3.446862729269925e+000	 2.355793353759819e+000	 1.075750913126989e+001
 3.422485011873289e+000	 2.391071170737299e+000	 1.088444319003786e+001
 3.397723700517249e+000	 2.426128326150212e+000	 1.102013363318090e+001
 3.372581742206992e+000	 2.460958632750953e+000	 1.116390676653365e+001
 3.347062215821112e+000	 2.495555954767242e+000	 1.131500135894873e+001
 3.321168331013763e+000	 2.529914211389992e+000	 1.119016934928391e+001
 3.294903427006771e+000	 2.564027380233930e+000	 1.103708459058908e+001
 3.268270971272449e+000	 2.597889500766904e+000	 1.089858093180584e+001
 3.241274558108055e+000	 2.631494677703892e+000	 1.077519883530473e+001
 3.515381147122099e+000	 2.298280964225193e+000	 1.049361544241735e+001
 3.491637595677935e+000	 2.334195129052880e+000	 1.061463899320341e+001
 3.467502625850638e+000	 2.369899900786238e+000	 1.074651671590410e+001
 3.442978934098379e+000	 2.405388962176831e+000	 1.088872270308878e+001
 3.418069351416905e+000	 2.440656040676242e+000	 1.104064155590279e+001
 3.392776842458142e+000	 2.475694911987481e+000	 1.120156790844097e+001
 3.367104504537082e+000	 2.510499403597115e+000	 1.127003961902800e+001
 3.341055566527366e+000	 2.545063398284028e+000	 1.111791135298627e+001
 3.314633387646158e+000	 2.579380837600758e+000	 1.097991294495172e+001
 3.287841456129079e+000	 2.613445725323347e+000	 1.085656372295468e+001
 3.260683387796125e+000	 2.647252130865662e+000	 1.074838419016496e+001
 3.536306034899783e+000	 2.311961208057501e+000	 1.046014066705571e+001
 3.512421152792304e+000	 2.348089147675766e+000	 1.059381262660697e+001
 3.488142522430389e+000	 2.384006447812355e+000	 1.073937592623584e+001
 3.463472856322557e+000	 2.419706753616161e+000	 1.089627869739379e+001
 3.438415002315720e+000	 2.455183755202171e+000	 1.106387686571297e+001
 3.412971942708541e+000	 2.490431191224007e+000	 1.124143367702170e+001
 3.387146793252410e+000	 2.525442852427087e+000	 1.118277649632839e+001
 3.360942802040456e+000	 2.560212585178262e+000	 1.104523998563238e+001
 3.334363348285181e+000	 2.594734294967886e+000	 1.092191654491568e+001
 3.307411940985515e+000	 2.629001949880189e+000	 1.081330557052672e+001
 3.280092217484194e+000	 2.663009584027932e+000	 1.071990788288893e+001
 3.557230922676468e+000	 2.325641451889307e+000	 1.043104508054756e+001
 3.533204709905683e+000	 2.361983166298250e+000	 1.057674345734701e+001
 3.508782419009181e+000	 2.398112994838169e+000	 1.073539606082191e+001
 3.483966778545826e+000	 2.434024545055289e+000	 1.090642542472976e+001
 3.458760653213694e+000	 2.469711469727998e+000	 1.108915912203420e+001
 3.433167042958189e+000	 2.505167470460532e+000	 1.123269806394343e+001
 3.407189081967098e+000	 2.540386301257156e+000	 1.109554110622726e+001
 3.380830037553034e+000	 2.575361772072695e+000	 1.097219793170369e+001
 3.354093308923843e+000	 2.610087752335312e+000	 1.086314590678607e+001
 3.326982425841761e+000	 2.644558174437430e+000	 1.076886475977694e+001
 3.299501047172259e+000	 2.678767037190700e+000	 1.068983590147071e+001
 3.105412750291483e+000	 2.521192505585459e+000	 1.094159022329167e+001
 3.079202785261663e+000	 2.553137326331711e+000	 1.088440055874013e+001
 3.052651364329597e+000	 2.584824877570536e+000	 1.083728481554195e+001
 3.025762286443788e+000	 2.616249717776630e+000	 1.080060781862073e+001
 2.998539465583634e+000	 2.647406480529932e+000	 1.077472878497213e+001
 2.970986928893433e+000	 2.678289877541903e+000	 1.076000065968837e+001
 2.943108814721196e+000	 2.708894701625782e+000	 1.075676945218850e+001
 2.914909370564268e+000	 2.739215829607388e+000	 1.076537357421569e+001
 2.886392950923881e+000	 2.769248225173028e+000	 1.078614318117819e+001
 2.857564015070872e+000	 2.798986941651220e+000	 1.081939951841981e+001
 2.828427124725000e+000	 2.828427124725000e+000	 1.086545427401141e+001
 3.124821579979573e+000	 2.536949958743739e+000	 1.089791249519633e+001
 3.098447802667084e+000	 2.569094434619900e+000	 1.084935091111848e+001
 3.071730435353171e+000	 2.600980033054108e+000	 1.080991708259974e+001
 3.044673300729765e+000	 2.632601278511519e+000	 1.077996362753741e+001
 3.017280337238636e+000	 2.663952771031953e+000	 1.075983856099088e+001
 2.989555597193735e+000	 2.695029189275061e+000	 1.074988464034793e+001
 2.961503244807746e+000	 2.725825293509172e+000	 1.075043870923171e+001
 2.933127554124876e+000	 2.756335928540261e+000	 1.076183104170159e+001
 2.904432906861986e+000	 2.786556026577674e+000	 1.078438468831836e+001
 2.875423790160358e+000	 2.816480610033235e+000	 1.081841482565850e+001
 2.846104794250500e+000	 2.846104794250500e+000	 1.086422811086957e+001
 3.144230409667659e+000	 2.552707411902517e+000	 1.088212430483056e+001
 3.117692820072692e+000	 2.585051542908685e+000	 1.081594184237077e+001
 3.090809506377104e+000	 2.617135188538358e+000	 1.078385158790193e+001
 3.063584315016250e+000	 2.648952839247163e+000	 1.076029557742963e+001
 3.036021208894278e+000	 2.680499061534792e+000	 1.074561088762035e+001
 3.008124265494786e+000	 2.711768501009096e+000	 1.074013034541941e+001
 2.979897674895137e+000	 2.742755885393480e+000	 1.074418187931236e+001
 2.951345737686393e+000	 2.773456027474087e+000	 1.075808786941191e+001
 2.922472862801051e+000	 2.803863827983302e+000	 1.078216449793676e+001
 2.893283565250835e+000	 2.833974278416246e+000	 1.081672110166518e+001
 2.863782463777000e+000	 2.863782463776999e+000	 1.086205952795776e+001
 3.163639239355744e+000	 2.568464865061795e+000	 1.086456414632995e+001
 3.136937837478489e+000	 2.601008651198063e+000	 1.079904072580762e+001
 3.109888577401392e+000	 2.633290344023286e+000	 1.075906365171275e+001
 3.082495329303243e+000	 2.665304399983560e+000	 1.074158403235370e+001
 3.054762080550558e+000	 2.697045352038451e+000	 1.073203091597243e+001
 3.026692933796586e+000	 2.728507812744004e+000	 1.073072745433728e+001
 2.998292104983366e+000	 2.759686477278709e+000	 1.073799290962866e+001
 2.969563921248820e+000	 2.790576126408869e+000	 1.075414201009660e+001
 2.940512818741076e+000	 2.821171629389907e+000	 1.077948430464317e+001
 2.911143340342301e+000	 2.851467946800253e+000	 1.081432351791249e+001
 2.881460133304500e+000	 2.881460133304500e+000	 1.085895690748455e+001
 3.183048069043826e+000	 2.584222318221571e+000	 1.084503128175181e+001
 3.156182854884472e+000	 2.616965759488034e+000	 1.078973301912621e+001
 3.128967648426040e+000	 2.649445499508894e+000	 1.074010995254717e+001
 3.101406343590746e+000	 2.681655960720713e+000	 1.072381038096221e+001
 3.073502952207474e+000	 2.713591642542929e+000	 1.071908469136371e+001
 3.045261602099134e+000	 2.745247124479786e+000	 1.072166641629196e+001
 3.016686535072434e+000	 2.776617069164856e+000	 1.073186639869434e+001
 2.987782104812156e+000	 2.807696225344604e+000	 1.074999195545017e+001
 2.958552774682061e+000	 2.838479430797494e+000	 1.077634623574840e+001
 2.929003115434757e+000	 2.868961615185254e+000	 1.081122757851139e+001
 2.899137802833000e+000	 2.899137802833000e+000	 1.085492887046498e+001
 3.202456898731904e+000	 2.599979771381846e+000	 1.082358527136271e+001
 3.175427872290643e+000	 2.632922867778599e+000	 1.077822523791708e+001
 3.148046719451044e+000	 2.665600654995181e+000	 1.073760600435146e+001
 3.120317357878754e+000	 2.698007521458619e+000	 1.070695700545562e+001
 3.092243823865031e+000	 2.730137933048226e+000	 1.070675912621834e+001
 3.063830270402432e+000	 2.761986436216443e+000	 1.071293842690396e+001
 3.035080965162342e+000	 2.793547661051924e+000	 1.072579757660174e+001
 3.006000288376402e+000	 2.824816324281296e+000	 1.074563671978012e+001
 2.976592730624005e+000	 2.855787232206059e+000	 1.077275283815206e+001
 2.946862890528204e+000	 2.886455283571249e+000	 1.080743911013136e+001
 2.916815472362500e+000	 2.916815472362500e+000	 1.084998426948408e+001
 3.221865728419981e+000	 2.615737224542619e+000	 1.080028703981657e+001
 3.194672889697001e+000	 2.648879976069759e+000	 1.076458365641004e+001
 3.167125790476407e+000	 2.681755810482147e+000	 1.073269451323058e+001
 3.139228372167272e+000	 2.714359082197278e+000	 1.070484469830698e+001
 3.110984695523225e+000	 2.746684223554342e+000	 1.069504197395028e+001
 3.082398938706478e+000	 2.778725747953974e+000	 1.070453540574093e+001
 3.053475395253089e+000	 2.810478252939912e+000	 1.071978228599838e+001
 3.024218471941557e+000	 2.841936423218941e+000	 1.074107582426554e+001
 2.994632686566910e+000	 2.873095033615605e+000	 1.076870706570445e+001
 2.964722665622640e+000	 2.903948951958240e+000	 1.080296425228461e+001
 2.934493141892999e+000	 2.934493141893000e+000	 1.084413218172186e+001
 3.241274558108055e+000	 2.631494677703892e+000	 1.077519883530473e+001
 3.213917907103547e+000	 2.664837084361511e+000	 1.074887573753705e+001
 3.186204861502127e+000	 2.697910965969791e+000	 1.072544787603109e+001
 3.158139386456297e+000	 2.730710642936693e+000	 1.070512827968302e+001
 3.129725567182059e+000	 2.763230514061278e+000	 1.068813874541593e+001
 3.100967607011273e+000	 2.795465059692380e+000	 1.069644997464273e+001
 3.071869825344674e+000	 2.827408844828819e+000	 1.071381696374702e+001
 3.042436655507622e+000	 2.859056522157542e+000	 1.073630928178131e+001
 3.012672642510774e+000	 2.890402835026131e+000	 1.076421226702231e+001
 2.982582440718066e+000	 2.921442620346226e+000	 1.079780944795968e+001
 2.952170811424500e+000	 2.952170811424500e+000	 1.083738190222888e+001
 3.260683387796125e+000	 2.647252130865662e+000	 1.074838419016496e+001
 3.233162924510279e+000	 2.680794192653857e+000	 1.073117009755415e+001
 3.205283932528204e+000	 2.714066121458115e+000	 1.071593951716914e+001
 3.177050400745831e+000	 2.747062203676860e+000	 1.070289365718049e+001
 3.148466438841530e+000	 2.779776804569033e+000	 1.069224374503219e+001
 3.119536275316816e+000	 2.812204371431659e+000	 1.068867543682034e+001
 3.090264255437100e+000	 2.844339436718645e+000	 1.070789862324064e+001
 3.060654839074597e+000	 2.876176621097097e+000	 1.073133758226431e+001
 3.030712598455597e+000	 2.907710636437636e+000	 1.075927217373987e+001
 3.000442215814482e+000	 2.938936288735206e+000	 1.079198143458933e+001
 2.969848480956999e+000	 2.969848480956999e+000	 1.082974293744201e+001
 3.280092217484194e+000	 2.663009584027932e+000	 1.071990788288893e+001
 3.252407941917199e+000	 2.696751300946797e+000	 1.071153647191952e+001
 3.224363003554640e+000	 2.730221276947117e+000	 1.070424385822899e+001
 3.195961415035872e+000	 2.763413764417782e+000	 1.069821966565152e+001
 3.167207310501641e+000	 2.796323095077607e+000	 1.069366478965763e+001
 3.138104943623110e+000	 2.828943683171814e+000	 1.069079089635375e+001
 3.108658685530364e+000	 2.861270028609391e+000	 1.070202483734534e+001
 3.078873022642481e+000	 2.893296720037607e+000	 1.072616167859916e+001
 3.048752554401381e+000	 2.925018437850121e+000	 1.075389088917700e+001
 3.018301990911889e+000	 2.956429957125182e+000	 1.078548723533919e+001
 2.987526150490500e+000	 2.987526150490500e+000	 1.082122499893046e+001
 3.299501047172259e+000	 2.678767037190700e+000	 1.068983590147071e+001
 3.271652959324307e+000	 2.712708409240331e+000	 1.069004568237567e+001
 3.243442074581433e+000	 2.746376432436798e+000	 1.069043628863454e+001
 3.214872429326423e+000	 2.779765325159458e+000	 1.069118599417984e+001
 3.185948182162389e+000	 2.812869385587000e+000	 1.069248559825979e+001
 3.156673611930151e+000	 2.845682994912844e+000	 1.069453793264119e+001
 3.127053115624468e+000	 2.878200620501057e+000	 1.069755732429450e+001
 3.097091206211275e+000	 2.910416818979073e+000	 1.072078297300212e+001
 3.066792510348125e+000	 2.942326239263588e+000	 1.074807287740720e+001
 3.036161766010286e+000	 2.973923625516154e+000	 1.077833415070384e+001
 3.005203820025000e+000	 3.005203820025000e+000	 1.081183799736236e+001
 2.828427124725000e+000	 2.828427124725000e+000	 1.086545427401141e+001
 2.798986941651219e+000	 2.857564015070872e+000	 1.081811638092061e+001
 2.769248225173028e+000	 2.886392950923880e+000	 1.077189810807834e+001
 2.739215829607388e+000	 2.914909370564268e+000	 1.072700053522766e+001
 2.708894701625783e+000	 2.943108814721196e+000	 1.068362552336023e+001
 2.678289877541903e+000	 2.970986928893433e+000	 1.064197519319782e+001
 2.647406480529932e+000	 2.998539465583634e+000	 1.060225140194632e+001
 2.616249717776630e+000	 3.025762286443787e+000	 1.056465521973091e+001
 2.584824877570536e+000	 3.052651364329597e+000	 1.052938640712134e+001
 2.553137326331711e+000	 3.079202785261663e+000	 1.049664289515090e+001
 2.521192505585459e+000	 3.105412750291483e+000	 1.046662026922287e+001
 2.846104794250500e+000	 2.846104794250500e+000	 1.086422811086957e+001
 2.816480610033235e+000	 2.875423790160357e+000	 1.081514427378484e+001
 2.786556026577674e+000	 2.904432906861986e+000	 1.076874038539006e+001
 2.756335928540261e+000	 2.933127554124876e+000	 1.072525702978975e+001
 2.725825293509172e+000	 2.961503244807746e+000	 1.068493411242375e+001
 2.695029189275062e+000	 2.989555597193736e+000	 1.064801029311795e+001
 2.663952771031954e+000	 3.017280337238637e+000	 1.061472241941983e+001
 2.632601278511519e+000	 3.044673300729766e+000	 1.058530496170809e+001
 2.600980033054107e+000	 3.071730435353172e+000	 1.055998945156062e+001
 2.569094434619901e+000	 3.098447802667084e+000	 1.053900392485597e+001
 2.536949958743739e+000	 3.124821579979572e+000	 1.052257237106753e+001
 2.863782463777000e+000	 2.863782463776999e+000	 1.086205952795776e+001
 2.833974278416246e+000	 2.893283565250835e+000	 1.081186531450823e+001
 2.803863827983302e+000	 2.922472862801051e+000	 1.076589398863398e+001
 2.773456027474087e+000	 2.951345737686393e+000	 1.072442544536453e+001
 2.742755885393480e+000	 2.979897674895137e+000	 1.068773745308170e+001
 2.711768501009095e+000	 3.008124265494786e+000	 1.065610504120116e+001
 2.680499061534792e+000	 3.036021208894278e+000	 1.062979989013654e+001
 2.648952839247162e+000	 3.063584315016250e+000	 1.060908972511531e+001
 2.617135188538357e+000	 3.090809506377103e+000	 1.059423771540693e+001
 2.585051542908685e+000	 3.117692820072692e+000	 1.058550188050890e+001
 2.552707411902518e+000	 3.144230409667660e+000	 1.045506499912970e+001
 2.881460133304500e+000	 2.881460133304500e+000	 1.085895690748455e+001
 2.851467946800252e+000	 2.911143340342301e+000	 1.080827509647623e+001
 2.821171629389907e+000	 2.940512818741075e+000	 1.076334203891290e+001
 2.790576126408868e+000	 2.969563921248820e+000	 1.072447675387766e+001
 2.759686477278708e+000	 2.998292104983366e+000	 1.069199469754517e+001
 2.728507812744004e+000	 3.026692933796586e+000	 1.066620710554987e+001
 2.697045352038451e+000	 3.054762080550558e+000	 1.064742033961969e+001
 2.665304399983561e+000	 3.082495329303243e+000	 1.063593524012465e+001
 2.633290344023287e+000	 3.109888577401393e+000	 1.063204648617689e+001
 2.601008651198063e+000	 3.136937837478489e+000	 1.056393411186207e+001
 2.568464865061795e+000	 3.163639239355744e+000	 1.039834481037685e+001
 2.899137802833000e+000	 2.899137802833000e+000	 1.085492887046498e+001
 2.868961615185253e+000	 2.929003115434757e+000	 1.080436974804447e+001
 2.838479430797494e+000	 2.958552774682060e+000	 1.076106848052811e+001
 2.807696225344605e+000	 2.987782104812157e+000	 1.072538303060906e+001
 2.776617069164856e+000	 3.016686535072434e+000	 1.069766637333094e+001
 2.745247124479786e+000	 3.045261602099134e+000	 1.067826579319280e+001
 2.713591642542929e+000	 3.073502952207475e+000	 1.066752218748757e+001
 2.681655960720712e+000	 3.101406343590744e+000	 1.066576937760455e+001
 2.649445499508894e+000	 3.128967648426040e+000	 1.065168673052512e+001
 2.616965759488034e+000	 3.156182854884472e+000	 1.050789733755707e+001
 2.584222318221571e+000	 3.183048069043826e+000	 1.035328960346546e+001
 2.916815472362500e+000	 2.916815472362500e+000	 1.084998426948408e+001
 2.886455283571249e+000	 2.946862890528204e+000	 1.080014591632752e+001
 2.855787232206061e+000	 2.976592730624005e+000	 1.075905805603398e+001
 2.824816324281295e+000	 3.006000288376402e+000	 1.072711742075792e+001
 2.793547661051924e+000	 3.035080965162342e+000	 1.070471434158558e+001
 2.761986436216443e+000	 3.063830270402431e+000	 1.069223200042050e+001
 2.730137933048226e+000	 3.092243823865031e+000	 1.069004569005671e+001
 2.698007521458619e+000	 3.120317357878755e+000	 1.069852208425043e+001
 2.665600654995181e+000	 3.148046719451045e+000	 1.059626946863017e+001
 2.632922867778599e+000	 3.175427872290642e+000	 1.046256286844320e+001
 2.599979771381846e+000	 3.202456898731905e+000	 1.031955644811612e+001
 2.934493141892999e+000	 2.934493141893000e+000	 1.084413218172186e+001
 2.903948951958240e+000	 2.964722665622640e+000	 1.079560075157368e+001
 2.873095033615605e+000	 2.994632686566909e+000	 1.075729628219418e+001
 2.841936423218941e+000	 3.024218471941557e+000	 1.072965410721629e+001
 2.810478252939913e+000	 3.053475395253089e+000	 1.071310175691588e+001
 2.778725747953974e+000	 3.082398938706477e+000	 1.070805816491614e+001
 2.746684223554341e+000	 3.110984695523225e+000	 1.071493288501960e+001
 2.714359082197279e+000	 3.139228372167272e+000	 1.066662255400753e+001
 2.681755810482146e+000	 3.167125790476407e+000	 1.055059240114313e+001
 2.648879976069758e+000	 3.194672889697001e+000	 1.042759568509432e+001
 2.615737224542619e+000	 3.221865728419981e+000	 1.029680507377952e+001
 2.952170811424500e+000	 2.952170811424500e+000	 1.083738190222888e+001
 2.921442620346225e+000	 2.982582440718066e+000	 1.079073189210103e+001
 2.890402835026131e+000	 3.012672642510772e+000	 1.075576942680172e+001
 2.859056522157541e+000	 3.042436655507622e+000	 1.073296827950033e+001
 2.827408844828819e+000	 3.071869825344675e+000	 1.072279302866249e+001
 2.795465059692380e+000	 3.100967607011272e+000	 1.072569821960587e+001
 2.763230514061278e+000	 3.129725567182059e+000	 1.072208245784745e+001
 2.730710642936692e+000	 3.158139386456296e+000	 1.062052667494174e+001
 2.697910965969791e+000	 3.186204861502127e+000	 1.051432837550111e+001
 2.664837084361510e+000	 3.213917907103546e+000	 1.040266314722802e+001
 2.631494677703891e+000	 3.241274558108055e+000	 1.028469779000374e+001
 2.969848480956999e+000	 2.969848480956999e+000	 1.082974293744201e+001
 2.938936288735207e+000	 3.000442215814482e+000	 1.078553744977160e+001
 2.907710636437637e+000	 3.030712598455597e+000	 1.075446448632697e+001
 2.876176621097097e+000	 3.060654839074597e+000	 1.073703610379135e+001
 2.844339436718645e+000	 3.090264255437100e+000	 1.073375378355661e+001
 2.812204371431660e+000	 3.119536275316816e+000	 1.074510754815769e+001
 2.779776804569033e+000	 3.148466438841531e+000	 1.067548117188544e+001
 2.747062203676861e+000	 3.177050400745830e+000	 1.058289141722692e+001
 2.714066121458115e+000	 3.205283932528205e+000	 1.048715234464434e+001
 2.680794192653857e+000	 3.233162924510279e+000	 1.038743492289774e+001
 2.647252130865662e+000	 3.260683387796125e+000	 1.028289940964568e+001
 2.987526150490500e+000	 2.987526150490500e+000	 1.082122499893046e+001
 2.956429957125182e+000	 3.018301990911889e+000	 1.078001599598115e+001
 2.925018437850121e+000	 3.048752554401380e+000	 1.075336916435908e+001
 2.893296720037606e+000	 3.078873022642481e+000	 1.074183469404032e+001
 2.861270028609391e+000	 3.108658685530364e+000	 1.074595082970261e+001
 2.828943683171814e+000	 3.138104943623109e+000	 1.071853635853194e+001
 2.796323095077607e+000	 3.167207310501641e+000	 1.063639119411322e+001
 2.763413764417782e+000	 3.195961415035872e+000	 1.055339928761601e+001
 2.730221276947116e+000	 3.224363003554640e+000	 1.046874130472325e+001
 2.696751300946797e+000	 3.252407941917199e+000	 1.038158292019876e+001
 2.663009584027932e+000	 3.280092217484194e+000	 1.029107717480867e+001
 3.005203820025000e+000	 3.005203820025000e+000	 1.081183799736236e+001
 2.973923625516154e+000	 3.036161766010285e+000	 1.077416654814349e+001
 2.942326239263588e+000	 3.066792510348125e+000	 1.075247185080844e+001
 2.910416818979071e+000	 3.097091206211275e+000	 1.074734208409237e+001
 2.878200620501058e+000	 3.127053115624469e+000	 1.075273543706122e+001
 2.845682994912843e+000	 3.156673611930151e+000	 1.067790147800237e+001
 2.812869385587000e+000	 3.185948182162389e+000	 1.060450254375537e+001
 2.779765325159459e+000	 3.214872429326423e+000	 1.053173457761417e+001
 2.746376432436797e+000	 3.243442074581434e+000	 1.045877423500400e+001
 2.712708409240331e+000	 3.271652959324307e+000	 1.038478122138466e+001
 2.678767037190700e+000	 3.299501047172260e+000	 1.030890068539403e+001
 2.521192505585459e+000	 3.105412750291483e+000	 1.046662026922287e+001
 2.488995928882964e+000	 3.131277577270647e+000	 1.060845499664386e+001
 2.456553178674486e+000	 3.156793702520920e+000	 1.063724531032003e+001
 2.423869903137295e+000	 3.181957682404208e+000	 1.063673619189816e+001
 2.390951812960879e+000	 3.206766194791349e+000	 1.060888216426335e+001
 2.357804678095201e+000	 3.231216040427900e+000	 1.055566512111412e+001
 2.324434324465135e+000	 3.255304144196106e+000	 1.047908955668395e+001
 2.290846630654907e+000	 3.279027556272165e+000	 1.038117777008824e+001
 2.257047524566414e+000	 3.302383453178052e+000	 1.026396505697932e+001
 2.223042980055295e+000	 3.325369138727341e+000	 1.012949490113513e+001
 2.188839013548634e+000	 3.347982044864625e+000	 9.979814178506969e+000
 2.536949958743739e+000	 3.124821579979572e+000	 1.052257237106753e+001
 2.504552153436617e+000	 3.150848062128625e+000	 1.051070526795139e+001
 2.471906636039226e+000	 3.176523663162843e+000	 1.054316944673239e+001
 2.439019090029943e+000	 3.201844917921395e+000	 1.055773242029142e+001
 2.405895261790065e+000	 3.226808483511813e+000	 1.054470737528053e+001
 2.372540957331742e+000	 3.251411140684310e+000	 1.050611311739540e+001
 2.338962038991882e+000	 3.275649795101650e+000	 1.044399156655339e+001
 2.305164422095856e+000	 3.299521478503630e+000	 1.036040286851276e+001
 2.271154071594951e+000	 3.323023349765487e+000	 1.025742049337758e+001
 2.236936998681402e+000	 3.346152695849630e+000	 1.013712633385930e+001
 2.202519257384963e+000	 3.368906932650309e+000	 1.000160581606396e+001
 2.552707411902518e+000	 3.144230409667660e+000	 1.045506499912970e+001
 2.520108377990668e+000	 3.170418546986411e+000	 1.045278946630582e+001
 2.487260093404263e+000	 3.196253623804405e+000	 1.045922588097399e+001
 2.454168276922788e+000	 3.221732153438071e+000	 1.048825026445774e+001
 2.420838710619349e+000	 3.246850772231634e+000	 1.048943109220309e+001
 2.387277236568283e+000	 3.271606240939970e+000	 1.046482518992907e+001
 2.353489753518525e+000	 3.295995446006352e+000	 1.041651302205401e+001
 2.319482213536602e+000	 3.320015400734183e+000	 1.034659370878523e+001
 2.285260618623185e+000	 3.343663246351960e+000	 1.025718002966581e+001
 2.250831017307107e+000	 3.366936252970930e+000	 1.015039342669862e+001
 2.216199501220790e+000	 3.389831820434993e+000	 1.002835902006436e+001
 2.568464865061795e+000	 3.163639239355744e+000	 1.039834481037685e+001
 2.535664602545119e+000	 3.189989031844004e+000	 1.040676164810715e+001
 2.502613550769600e+000	 3.215983584445602e+000	 1.039226755358927e+001
 2.469317463815832e+000	 3.241619388954234e+000	 1.042855669348968e+001
 2.435782159448731e+000	 3.266893060950813e+000	 1.044331900602199e+001
 2.402013515804821e+000	 3.291801341194877e+000	 1.043206563404272e+001
 2.368017468045067e+000	 3.316341096910215e+000	 1.039691671113181e+001
 2.333800004977147e+000	 3.340509322963826e+000	 1.034001146568621e+001
 2.299367165651117e+000	 3.364303142937474e+000	 1.026350312768995e+001
 2.264725035932409e+000	 3.387719810091239e+000	 1.016955383487970e+001
 2.229879745056114e+000	 3.410756708218677e+000	 1.006032955157450e+001
 2.584222318221571e+000	 3.183048069043826e+000	 1.035328960346546e+001
 2.551220827099967e+000	 3.209559516701404e+000	 1.037228444793063e+001
 2.517967008135234e+000	 3.235713545086438e+000	 1.036843106980420e+001
 2.484466650709074e+000	 3.261506624469885e+000	 1.037892112302287e+001
 2.450725608278212e+000	 3.286935349669351e+000	 1.040663912616577e+001
 2.416749795041357e+000	 3.311996441449034e+000	 1.040810093502778e+001
 2.382545182571506e+000	 3.336686747813235e+000	 1.038546748291679e+001
 2.348117796417489e+000	 3.361003245192557e+000	 1.034091924615648e+001
 2.313473712678746e+000	 3.384943039522027e+000	 1.027665105225048e+001
 2.278619054557308e+000	 3.408503367210559e+000	 1.019486688725805e+001
 2.243559988890935e+000	 3.431681596001361e+000	 1.009777471590572e+001
 2.599979771381846e+000	 3.202456898731905e+000	 1.031955644811612e+001
 2.566777051655214e+000	 3.229130001558612e+000	 1.034902311989118e+001
 2.533320465501168e+000	 3.255443505726912e+000	 1.035570782102519e+001
 2.499615837602515e+000	 3.281393859985023e+000	 1.033961534109825e+001
 2.465669057107791e+000	 3.306977638387247e+000	 1.037966171024487e+001
 2.431486074277891e+000	 3.332191541702438e+000	 1.039319970177698e+001
 2.397072897097844e+000	 3.357032398715414e+000	 1.038243218526289e+001
 2.362435587857628e+000	 3.381497167420379e+000	 1.034958203074673e+001
 2.327580259706072e+000	 3.405582936105621e+000	 1.029688681646740e+001
 2.292513073181805e+000	 3.429286924328888e+000	 1.022659353560201e+001
 2.257240232725254e+000	 3.452606483783046e+000	 1.014095331581910e+001
 2.615737224542619e+000	 3.221865728419981e+000	 1.029680507377952e+001
 2.582333276210860e+000	 3.248700486415626e+000	 1.033664545874173e+001
 2.548673922867399e+000	 3.275173466367023e+000	 1.035377378764262e+001
 2.514765024496154e+000	 3.301281095499650e+000	 1.034720539736835e+001
 2.480612505937467e+000	 3.327019927104500e+000	 1.036265919633532e+001
 2.446222353514423e+000	 3.352386641955090e+000	 1.038763260282045e+001
 2.411600611624079e+000	 3.377378049616752e+000	 1.038807960454526e+001
 2.376753379297564e+000	 3.401991089647289e+000	 1.036626661718347e+001
 2.341686806733097e+000	 3.426222832688254e+000	 1.032447512912004e+001
 2.306407091805899e+000	 3.450070481446227e+000	 1.026499630570992e+001
 2.270920476559069e+000	 3.473531371563730e+000	 1.019012560642148e+001
 2.631494677703891e+000	 3.241274558108055e+000	 1.028469779000374e+001
 2.597889500766904e+000	 3.268270971272449e+000	 1.033482172380612e+001
 2.564027380233929e+000	 3.294903427006771e+000	 1.036230729858545e+001
 2.529914211389991e+000	 3.321168331013764e+000	 1.036612564352730e+001
 2.495555954767242e+000	 3.347062215821112e+000	 1.035590613769531e+001
 2.460958632750953e+000	 3.372581742206992e+000	 1.039167230465995e+001
 2.426128326150212e+000	 3.397723700517249e+000	 1.040268040762094e+001
 2.391071170737299e+000	 3.422485011873289e+000	 1.039124156596260e+001
 2.355793353759818e+000	 3.446862729269924e+000	 1.035968234387879e+001
 2.320301110429590e+000	 3.470854038562576e+000	 1.031033925028335e+001
 2.284600720392382e+000	 3.494456259343415e+000	 1.024555325168211e+001
 2.647252130865662e+000	 3.260683387796125e+000	 1.028289940964568e+001
 2.613445725323347e+000	 3.287841456129079e+000	 1.034322456562884e+001
 2.579380837600759e+000	 3.314633387646157e+000	 1.038098896142415e+001
 2.545063398284027e+000	 3.341055566527366e+000	 1.039511913617860e+001
 2.510499403597115e+000	 3.367104504537082e+000	 1.038455517065961e+001
 2.475694911987481e+000	 3.392776842458142e+000	 1.040559341230538e+001
 2.440656040676242e+000	 3.418069351416904e+000	 1.042650708586202e+001
 2.405388962176831e+000	 3.442978934098378e+000	 1.042477714788608e+001
 2.369899900786238e+000	 3.467502625850638e+000	 1.040277641034998e+001
 2.334195129052880e+000	 3.491637595677935e+000	 1.036288790348369e+001
 2.298280964225193e+000	 3.515381147122099e+000	 1.030749928250224e+001
 2.663009584027932e+000	 3.280092217484194e+000	 1.029107717480867e+001
 2.629001949880189e+000	 3.307411940985516e+000	 1.036152895522880e+001
 2.594734294967886e+000	 3.334363348285180e+000	 1.040950159495536e+001
 2.560212585178261e+000	 3.360942802040456e+000	 1.043387665430743e+001
 2.525442852427085e+000	 3.387146793252410e+000	 1.043354899403110e+001
 2.490431191224007e+000	 3.412971942708540e+000	 1.042967241192252e+001
 2.455183755202171e+000	 3.438415002315720e+000	 1.045983390117587e+001
 2.419706753616161e+000	 3.463472856322557e+000	 1.046714529346107e+001
 2.384006447812355e+000	 3.488142522430389e+000	 1.045402682685895e+001
 2.348089147675766e+000	 3.512421152792304e+000	 1.042290923710180e+001
 2.311961208057501e+000	 3.536306034899784e+000	 1.037622805627324e+001
 2.678767037190700e+000	 3.299501047172260e+000	 1.030890068539403e+001
 2.644558174437429e+000	 3.326982425841761e+000	 1.038941211585013e+001
 2.610087752335312e+000	 3.354093308923843e+000	 1.044753016416572e+001
 2.575361772072694e+000	 3.380830037553033e+000	 1.048209101664328e+001
 2.540386301257157e+000	 3.407189081967098e+000	 1.049194391138657e+001
 2.505167470460533e+000	 3.433167042958189e+000	 1.047595389795686e+001
 2.469711469727998e+000	 3.458760653213694e+000	 1.050293683393065e+001
 2.434024545055289e+000	 3.483966778545826e+000	 1.051861954408514e+001
 2.398112994838169e+000	 3.508782419009181e+000	 1.051370459489934e+001
 2.361983166298250e+000	 3.533204709905684e+000	 1.049067161827501e+001
 2.325641451889307e+000	 3.557230922676468e+000	 1.045200521786232e+001
 2.188839013548634e+000	 3.347982044864625e+000	 9.979814178506969e+000
 2.154441680648210e+000	 3.370219732398643e+000	 9.923903655671989e+000
 2.119857072723086e+000	 3.392079891627955e+000	 9.879526850506789e+000
 2.085091313495474e+000	 3.413560342859974e+000	 9.848648375703821e+000
 2.050150555623710e+000	 3.434659036824271e+000	 9.833195523201026e+000
 2.015040977286106e+000	 3.455374054979496e+000	 9.835053966388779e+000
 1.979768778769484e+000	 3.475703609714792e+000	 9.856063571984208e+000
 1.944340179066090e+000	 3.495646044446416e+000	 9.898014331540686e+000
 1.908761412482587e+000	 3.515199833610370e+000	 9.962642422114014e+000
 1.873038725264741e+000	 3.534363582552064e+000	 1.004864881224935e+001
 1.837178372241353e+000	 3.553136027314097e+000	 1.011060648963592e+001
 2.202519257384963e+000	 3.368906932650309e+000	 1.000160581606396e+001
 2.167906941154782e+000	 3.391283605731326e+000	 9.958930125122187e+000
 2.133106179430840e+000	 3.413280390955621e+000	 9.924486419478134e+000
 2.098123134208612e+000	 3.434895095007524e+000	 9.900252895812781e+000
 2.062963996600547e+000	 3.456125655808669e+000	 9.888173496944091e+000
 2.027634983398576e+000	 3.476970142826822e+000	 9.890153522351080e+000
 1.992142333641311e+000	 3.497426757278562e+000	 9.908055345529039e+000
 1.956492305189702e+000	 3.517493832226492e+000	 9.943694248409448e+000
 1.920691171314830e+000	 3.537169832571846e+000	 9.998834382632108e+000
 1.884745217301497e+000	 3.556453354943440e+000	 1.007518486698299e+001
 1.848660737071182e+000	 3.575343127484140e+000	 1.013596714272705e+001
 2.216199501220790e+000	 3.389831820434993e+000	 1.002835902006436e+001
 2.181372201660762e+000	 3.412347479063020e+000	 9.997466747284516e+000
 2.146355286137931e+000	 3.434480890282324e+000	 9.971543599778682e+000
 2.111154954921036e+000	 3.456229847154164e+000	 9.952582702801303e+000
 2.075777437576643e+000	 3.477592274792229e+000	 9.942545963155020e+000
 2.040228989510295e+000	 3.498566230673402e+000	 9.943359586332914e+000
 2.004515888512400e+000	 3.519149904841695e+000	 9.956909697713199e+000
 1.968644431312608e+000	 3.539341620006065e+000	 9.985038078308927e+000
 1.932620930146416e+000	 3.559139831532969e+000	 1.002953802512935e+001
 1.896451709337664e+000	 3.578543127334634e+000	 1.009215034573541e+001
 1.860143101900514e+000	 3.597550227654190e+000	 1.015325162778640e+001
 2.229879745056114e+000	 3.410756708218677e+000	 1.006032955157450e+001
 2.194837462166150e+000	 3.433411352393724e+000	 1.003978153124728e+001
 2.159604392844361e+000	 3.455681389608071e+000	 1.002097779607107e+001
 2.124186775632751e+000	 3.477564599299897e+000	 1.000592774702217e+001
 2.088590878552000e+000	 3.499058893774952e+000	 9.996612571086859e+000
 2.052822995621267e+000	 3.520162318519236e+000	 9.994980663311514e+000
 2.016889443382751e+000	 3.540873052404194e+000	 1.000294315018394e+001
 1.980796557434805e+000	 3.561189407785133e+000	 1.002236952512009e+001
 1.944550688977346e+000	 3.581109830493739e+000	 1.005508340638539e+001
 1.908158201373246e+000	 3.600632899725644e+000	 1.010285842730434e+001
 1.871625466729350e+000	 3.619757327824249e+000	 1.016267081932851e+001
 2.243559988890935e+000	 3.431681596001361e+000	 1.009777471590572e+001
 2.208302722670944e+000	 3.454475225723438e+000	 1.008614355404777e+001
 2.172853499550128e+000	 3.476881888932858e+000	 1.007306902369458e+001
 2.137218596343753e+000	 3.498899351444720e+000	 1.006057815140710e+001
 2.101404319526616e+000	 3.520525512756837e+000	 1.005067272378630e+001
 2.065417001731487e+000	 3.541758406364323e+000	 1.004532461271008e+001
 2.029262998252363e+000	 3.562596199966057e+000	 1.004647119923645e+001
 1.992948683556296e+000	 3.583037195563699e+000	 1.005601090722255e+001
 1.956480447807618e+000	 3.603079829454155e+000	 1.007579885726389e+001
 1.919864693408242e+000	 3.622722672116473e+000	 1.010764265108206e+001
 1.883107831557690e+000	 3.641964427994314e+000	 1.015329829598432e+001
 2.257240232725254e+000	 3.452606483783046e+000	 1.014095331581910e+001
 2.221767983175147e+000	 3.475539099052162e+000	 1.013682292831020e+001
 2.186102606255234e+000	 3.498082388256686e+000	 1.012809789015977e+001
 2.150250417054045e+000	 3.520234103588635e+000	 1.011682420623691e+001
 2.114217760500491e+000	 3.541992131737884e+000	 1.010502558555444e+001
 2.078011007840959e+000	 3.563354494208663e+000	 1.009469866796010e+001
 2.041636553121236e+000	 3.584319347527285e+000	 1.008780834688525e+001
 2.005100809677078e+000	 3.604884983341758e+000	 1.008628319947944e+001
 1.968410206637234e+000	 3.625049828414220e+000	 1.009201103501308e+001
 1.931571185442651e+000	 3.644812444507119e+000	 1.010683457195413e+001
 1.894590196385535e+000	 3.664171528164389e+000	 1.013254725361746e+001
 2.270920476559069e+000	 3.473531371563730e+000	 1.019012560642148e+001
 2.235233243678757e+000	 3.496602972379897e+000	 1.019209077105333e+001
 2.199351712959677e+000	 3.519282887579554e+000	 1.018634557731207e+001
 2.163282237763625e+000	 3.541568855731642e+000	 1.017495636410105e+001
 2.127031201473626e+000	 3.563458750718094e+000	 1.015997008913796e+001
 2.090605013949681e+000	 3.584950582052259e+000	 1.014340945535638e+001
 2.054010107989371e+000	 3.606042495087878e+000	 1.012726813081225e+001
 2.017252935797153e+000	 3.626732771119316e+000	 1.011350607370477e+001
 1.980339965466192e+000	 3.647019827373930e+000	 1.010404497367583e+001
 1.943277677476475e+000	 3.666902216897582e+000	 1.010076382007360e+001
 1.906072561212882e+000	 3.686378628334472e+000	 1.010549460735738e+001
 2.284600720392382e+000	 3.494456259343415e+000	 1.024555325168211e+001
 2.248698504181774e+000	 3.517666845706641e+000	 1.025221917361872e+001
 2.212600819663458e+000	 3.540483386901463e+000	 1.024809382413596e+001
 2.176314058472493e+000	 3.562903607873740e+000	 1.023526523503796e+001
 2.139844642446020e+000	 3.584925369697467e+000	 1.021580494266188e+001
 2.103199020057654e+000	 3.606546669895108e+000	 1.019176301223498e+001
 2.066383662856767e+000	 3.627765642647836e+000	 1.016516315323910e+001
 2.029405061916520e+000	 3.648580558896368e+000	 1.013799793767691e+001
 1.992269724294494e+000	 3.668989826333287e+000	 1.011222413268863e+001
 1.954984169509711e+000	 3.688991989287863e+000	 1.008975815848773e+001
 1.917554926039734e+000	 3.708585728504561e+000	 1.007247168207404e+001
 2.298280964225193e+000	 3.515381147122099e+000	 1.030749928250224e+001
 2.262163764684199e+000	 3.538730719032396e+000	 1.031748117267309e+001
 2.225849926366577e+000	 3.561683886222412e+000	 1.031362491017362e+001
 2.189345879180651e+000	 3.584238360014931e+000	 1.029804158184911e+001
 2.152658083417674e+000	 3.606391988676003e+000	 1.027282863631469e+001
 2.115793026164877e+000	 3.628142757737210e+000	 1.024006480450160e+001
 2.078757217723425e+000	 3.649488790207160e+000	 1.020180510876820e+001
 2.041557188035180e+000	 3.670428346672918e+000	 1.016007597275866e+001
 2.004199483122139e+000	 3.690959825292292e+000	 1.011687044374481e+001
 1.966690661542362e+000	 3.711081761677962e+000	 1.007414353870671e+001
 1.929037290866090e+000	 3.730792828674659e+000	 1.003380772489316e+001
 2.311961208057501e+000	 3.536306034899784e+000	 1.037622805627324e+001
 2.275629025186031e+000	 3.559794592357162e+000	 1.038815072224011e+001
 2.239099033069035e+000	 3.582884385542403e+000	 1.038322163953200e+001
 2.202377699888097e+000	 3.605573112155213e+000	 1.036357631557939e+001
 2.165471524388587e+000	 3.627858607653701e+000	 1.033133944879626e+001
 2.128387032271351e+000	 3.649738845578567e+000	 1.028861974353783e+001
 2.091130772589344e+000	 3.671211937765847e+000	 1.023750481123543e+001
 2.053709314153131e+000	 3.692276134448962e+000	 1.018005617018172e+001
 2.016129241949128e+000	 3.712929824250944e+000	 1.011830435599411e+001
 1.978397153574426e+000	 3.733171534067878e+000	 1.005424415429932e+001
 1.940519655691950e+000	 3.752999928844765e+000	 1.002239659331923e+001
 2.325641451889307e+000	 3.557230922676468e+000	 1.045200521786232e+001
 2.289094285687273e+000	 3.580858465680938e+000	 1.046450266671926e+001
 2.252348139770831e+000	 3.604084884861436e+000	 1.045716732545445e+001
 2.215409520594833e+000	 3.626907864294587e+000	 1.043216049115700e+001
 2.178284965358760e+000	 3.649325226630563e+000	 1.039163545353792e+001
 2.140981038377075e+000	 3.671334933419178e+000	 1.033773220251073e+001
 2.103504327454525e+000	 3.692935085323902e+000	 1.027257221961484e+001
 2.065861440270377e+000	 3.714123922224504e+000	 1.019825336605061e+001
 2.028059000775460e+000	 3.734899823209243e+000	 1.011684487964691e+001
 1.990103645605905e+000	 3.755261306457614e+000	 1.008772164671560e+001
 1.952002020517314e+000	 3.775207029014879e+000	 1.021496833304511e+001
 1.837178372241353e+000	 3.553136027314097e+000	 1.011060648963592e+001
 1.801186613490626e+000	 3.571516034323234e+000	 1.008507923382699e+001
 1.765069711033149e+000	 3.589502599978649e+000	 1.004955758078139e+001
 1.728833925554609e+000	 3.607094850142331e+000	 1.000527262742991e+001
 1.692485513160644e+000	 3.624292039533032e+000	 9.953408454937238e+000
 1.656030722167824e+000	 3.641093551026176e+000	 9.895099564809804e+000
 1.619475789933607e+000	 3.657498894861323e+000	 9.831428478955337e+000
 1.582826939728251e+000	 3.673507707759193e+000	 9.763423507275679e+000
 1.546090377651534e+000	 3.689119751950341e+000	 9.692056685807849e+000
 1.509272289597059e+000	 3.704334914117636e+000	 9.618241887863219e+000
 1.472378838266780e+000	 3.719153204254850e+000	 9.542833110052362e+000
 1.848660737071182e+000	 3.575343127484140e+000	 1.013596714272705e+001
 1.812444029827717e+000	 3.593838009536003e+000	 1.008430024172979e+001
 1.776101396729454e+000	 3.611936991225818e+000	 1.002533909838228e+001
 1.739639137591368e+000	 3.629639192952213e+000	 9.960382454472850e+000
 1.703063547619757e+000	 3.646943864775932e+000	 9.890678296120026e+000
 1.666380914183164e+000	 3.663850385715369e+000	 9.817421230179869e+000
 1.629597513622535e+000	 3.680358262949078e+000	 9.741750031464552e+000
 1.592719608103564e+000	 3.696467130927287e+000	 9.664745364379895e+000
 1.555753442514154e+000	 3.712176750394490e+000	 9.587427682005790e+000
 1.518705241409741e+000	 3.727487007325320e+000	 9.510755305060787e+000
 1.481581206009164e+000	 3.742397911776015e+000	 9.435622682613138e+000
 1.860143101900514e+000	 3.597550227654190e+000	 1.015325162778640e+001
 1.823701446164401e+000	 3.616159984748968e+000	 1.007584422005495e+001
 1.787133082425423e+000	 3.634371382473355e+000	 9.993829074760638e+000
 1.750444349627840e+000	 3.652183535762612e+000	 9.908573182830159e+000
 1.713641582078610e+000	 3.669595690019477e+000	 9.821389031982097e+000
 1.676731106198254e+000	 3.686607220405314e+000	 9.733531922450874e+000
 1.639719237311201e+000	 3.703217631037676e+000	 9.646197460421986e+000
 1.602612276478584e+000	 3.719426554096293e+000	 9.560519232813753e+000
 1.565416507376429e+000	 3.735233748839598e+000	 9.477566666439927e+000
 1.528138193222007e+000	 3.750639100533996e+000	 9.402679174671336e+000
 1.490783573751044e+000	 3.765642619298180e+000	 9.418297590056344e+000
 1.871625466729350e+000	 3.619757327824249e+000	 1.016267081932851e+001
 1.834958862500679e+000	 3.638481959962132e+000	 1.005990336471518e+001
 1.798164768121055e+000	 3.656805773721259e+000	 9.955201587305671e+000
 1.761249561664024e+000	 3.674727878573526e+000	 9.850001341475794e+000
 1.724219616537203e+000	 3.692247515263667e+000	 9.745680222720115e+000
 1.687081298213093e+000	 3.709364055096013e+000	 9.643554821702923e+000
 1.649840960999605e+000	 3.726076999127117e+000	 9.544878162961624e+000
 1.612504944853311e+000	 3.742385977266211e+000	 9.450837331927366e+000
 1.575079572238360e+000	 3.758290747285667e+000	 9.425643213926861e+000
 1.537571145033858e+000	 3.773791193743661e+000	 9.446200851388470e+000
 1.499985941492418e+000	 3.788887326821345e+000	 9.448726602691497e+000
 1.883107831557690e+000	 3.641964427994314e+000	 1.015329829598432e+001
 1.846216278836551e+000	 3.660803935175493e+000	 1.003666783317606e+001
 1.809196453816351e+000	 3.679240164969528e+000	 9.909628972169591e+000
 1.772054773699920e+000	 3.697272221384957e+000	 9.784822003673328e+000
 1.734797650995538e+000	 3.714899340508502e+000	 9.663690246591575e+000
 1.697431490227682e+000	 3.732120889787467e+000	 9.547612188028543e+000
 1.659962684687746e+000	 3.748936367217401e+000	 9.437898866305705e+000
 1.622397613227745e+000	 3.765345400437040e+000	 9.463896542890824e+000
 1.584742637099947e+000	 3.781347745732699e+000	 9.485536672837538e+000
 1.547004096845295e+000	 3.796943286954317e+000	 9.492036428712513e+000
 1.509188309233287e+000	 3.812132034345510e+000	 9.482129834178945e+000
 1.894590196385535e+000	 3.664171528164389e+000	 1.013254725361746e+001
 1.857473695172016e+000	 3.683125910389052e+000	 1.000632580622708e+001
 1.820228139511309e+000	 3.701674556218166e+000	 9.857281877032312e+000
 1.782859985735529e+000	 3.719816564196905e+000	 9.713188831088413e+000
 1.745375685453613e+000	 3.737551165753983e+000	 9.575556335731147e+000
 1.707781682242020e+000	 3.754877724479676e+000	 9.491908595052035e+000
 1.670084408375627e+000	 3.771795735308528e+000	 9.521453994147663e+000
 1.632290281601885e+000	 3.788304823608780e+000	 9.540276101374847e+000
 1.594405701961191e+000	 3.804404744180690e+000	 9.546936971232046e+000
 1.556437048656317e+000	 3.820095380165963e+000	 9.540071707427408e+000
 1.518390676973651e+000	 3.835376741870674e+000	 9.518390544469087e+000
 1.906072561212882e+000	 3.686378628334472e+000	 1.010549460735738e+001
 1.868731111507075e+000	 3.705447885602808e+000	 9.969063547520049e+000
 1.831259825205930e+000	 3.724108947467171e+000	 9.798329311959105e+000
 1.793665197770849e+000	 3.742360907009368e+000	 9.635254116306809e+000
 1.755953719911430e+000	 3.760202991000109e+000	 9.582682767557644e+000
 1.718131874256107e+000	 3.777634559172637e+000	 9.602305512253219e+000
 1.680206132063246e+000	 3.794655103400498e+000	 9.614364048933759e+000
 1.642182949975733e+000	 3.811264246781434e+000	 9.617326876771477e+000
 1.604068766822089e+000	 3.827461742629643e+000	 9.609732647095001e+000
 1.565870000466923e+000	 3.843247473378598e+000	 9.590192496419405e+000
 1.527593044713509e+000	 3.858621449396840e+000	 9.557392191748912e+000
 1.917554926039734e+000	 3.708585728504561e+000	 1.007247168207404e+001
 1.879988527841727e+000	 3.727769860816763e+000	 9.919094118889605e+000
 1.842291510900214e+000	 3.746543338716541e+000	 9.732938698430987e+000
 1.804470409805881e+000	 3.764905249822348e+000	 9.704794564350031e+000
 1.766531754368986e+000	 3.782854816246879e+000	 9.710421052509252e+000
 1.728482066269945e+000	 3.800391393866355e+000	 9.711724339363785e+000
 1.690327855750602e+000	 3.817514471493310e+000	 9.707082385516481e+000
 1.652075618349288e+000	 3.834223669954998e+000	 9.694940125147333e+000
 1.613731831682643e+000	 3.850518741079555e+000	 9.673812050859837e+000
 1.575302952277115e+000	 3.866399566592225e+000	 9.642284612434484e+000
 1.536795412452863e+000	 3.881866156924004e+000	 9.599018426506790e+000
 1.929037290866090e+000	 3.730792828674659e+000	 1.003380772489316e+001
 1.891245944175973e+000	 3.750091836030914e+000	 9.856865830211724e+000
 1.853323196594162e+000	 3.768977729966281e+000	 9.862243872169696e+000
 1.815275621840626e+000	 3.787449592635845e+000	 9.849755395705532e+000
 1.777109788826284e+000	 3.805506641494296e+000	 9.836264687182645e+000
 1.738832258283531e+000	 3.823148228560824e+000	 9.820062462603364e+000
 1.700449579437697e+000	 3.840373839586965e+000	 9.799502948935411e+000
 1.661968286722549e+000	 3.857183093129475e+000	 9.773006720384364e+000
 1.623394896542854e+000	 3.873575739530430e+000	 9.739063350990685e+000
 1.584735904086892e+000	 3.889551659806843e+000	 9.696233879844346e+000
 1.545997780191711e+000	 3.905110864452169e+000	 9.643153085809214e+000
 1.940519655691950e+000	 3.752999928844765e+000	 1.002239659331923e+001
 1.902503360509814e+000	 3.772413811245263e+000	 1.002898526149920e+001
 1.864354882287772e+000	 3.791412121216387e+000	 1.002425285928148e+001
 1.826080833875083e+000	 3.809993935449858e+000	 9.991881588627821e+000
 1.787687823283323e+000	 3.828158466742356e+000	 9.960113857869272e+000
 1.749182450296868e+000	 3.845905063256049e+000	 9.927216477931978e+000
 1.710571303124530e+000	 3.863233207681463e+000	 9.891519108782987e+000
 1.671860955095518e+000	 3.880142516304862e+000	 9.851417165487014e+000
 1.633057961402721e+000	 3.896632737982265e+000	 9.805374539366063e+000
 1.594168855896254e+000	 3.912703753022449e+000	 9.751926130420937e+000
 1.555200147930054e+000	 3.928355571981333e+000	 9.689680187780757e+000
 1.952002020517314e+000	 3.775207029014879e+000	 1.021496833304511e+001
 1.913760776843248e+000	 3.794735786459811e+000	 1.019773179930145e+001
 1.875386567981046e+000	 3.813846512466861e+000	 1.018208280645267e+001
 1.836886045909252e+000	 3.832538278264387e+000	 1.013107607408458e+001
 1.798265857740103e+000	 3.850810291991064e+000	 1.008186776544833e+001
 1.759532642309953e+000	 3.868661897952027e+000	 1.003308221429299e+001
 1.720693026811101e+000	 3.886092575776806e+000	 9.983023676129479e+000
 1.681753623468193e+000	 3.903101939481164e+000	 9.930061603490495e+000
 1.642721026262243e+000	 3.919689736435062e+000	 9.872633436472647e+000
 1.603601807705202e+000	 3.935855846239047e+000	 9.809247203118712e+000
 1.564402515667893e+000	 3.951600279511499e+000	 9.738483926278814e+000
 1.472378838266780e+000	 3.719153204254850e+000	 9.542833110052362e+000
 1.435416160238980e+000	 3.733574754443465e+000	 9.372479554834500e+000
 1.398390363090334e+000	 3.747599817550745e+000	 9.249475340114708e+000
 1.361307522575099e+000	 3.761228765851378e+000	 9.208931940526174e+000
 1.324173679865361e+000	 3.774462089574614e+000	 9.198719888513530e+000
 1.286994838852475e+000	 3.787300395380251e+000	 9.208576130210334e+000
 1.249776963512203e+000	 3.799744404765943e+000	 9.237827182827974e+000
 1.212525975335377e+000	 3.811794952408592e+000	 9.255907882125603e+000
 1.175247750825765e+000	 3.823452984442649e+000	 9.250821706907486e+000
 1.137948119066728e+000	 3.834719556678107e+000	 9.224571765857755e+000
 1.100632859358089e+000	 3.845595832761096e+000	 9.179056099394167e+000
 1.481581206009164e+000	 3.742397911776015e+000	 9.435622682613138e+000
 1.444387511244183e+000	 3.756909596653516e+000	 9.313557714514396e+000
 1.407130302863686e+000	 3.771022316405464e+000	 9.257894992552547e+000
 1.369815694595395e+000	 3.784736445633263e+000	 9.223197608322595e+000
 1.332449765368725e+000	 3.798052477630096e+000	 9.208732084434921e+000
 1.295038556599349e+000	 3.810971022847385e+000	 9.213806798630190e+000
 1.257588069537881e+000	 3.823492807292140e+000	 9.237773211084472e+000
 1.220104262684472e+000	 3.835618670858000e+000	 9.258316330336895e+000
 1.182593049271040e+000	 3.847349565592752e+000	 9.254830931670373e+000
 1.145060294812716e+000	 3.858686553905200e+000	 9.230609929932978e+000
 1.107511814729950e+000	 3.869630806714263e+000	 9.187588780493259e+000
 1.490783573751044e+000	 3.765642619298180e+000	 9.418297590056344e+000
 1.453358862248797e+000	 3.780244438864562e+000	 9.338204009559457e+000
 1.415870242636395e+000	 3.794444815261164e+000	 9.279394893550373e+000
 1.378323866615026e+000	 3.808244125416103e+000	 9.241066452749955e+000
 1.340725850871429e+000	 3.821642865686497e+000	 9.222456818040193e+000
 1.303082274345601e+000	 3.834641650315390e+000	 9.222847439889414e+000
 1.265399175563005e+000	 3.847241209819155e+000	 9.241564345539103e+000
 1.227682550033110e+000	 3.859442389308159e+000	 9.263386185738916e+000
 1.189938347715984e+000	 3.871246146743527e+000	 9.261122095068552e+000
 1.152172470558531e+000	 3.882653551132882e+000	 9.238571668320883e+000
 1.114390770101823e+000	 3.893665780667925e+000	 9.197708386061715e+000
 1.499985941492418e+000	 3.788887326821345e+000	 9.448726602691497e+000
 1.462330213252820e+000	 3.803579281076603e+000	 9.366090145557907e+000
 1.424610182408461e+000	 3.817867314117842e+000	 9.304272761957289e+000
 1.386832038633989e+000	 3.831751805199896e+000	 9.262440322339646e+000
 1.349001936373474e+000	 3.845233253743816e+000	 9.239802071010372e+000
 1.311125992091232e+000	 3.858312277784268e+000	 9.235612059456630e+000
 1.273210281587576e+000	 3.870989612346985e+000	 9.249170433852692e+000
 1.235260837381292e+000	 3.883266107759067e+000	 9.271170378459107e+000
 1.197283646160599e+000	 3.895142727894979e+000	 9.269743704096925e+000
 1.159284646304173e+000	 3.906620548361152e+000	 9.248501281957132e+000
 1.121269725473710e+000	 3.917700754622081e+000	 9.209455232071079e+000
 1.509188309233287e+000	 3.812132034345510e+000	 9.482129834178945e+000
 1.471301564256254e+000	 3.826914123289639e+000	 9.397105579583149e+000
 1.433350122179882e+000	 3.841289812975499e+000	 9.332424362921840e+000
 1.395340210652287e+000	 3.855259484984642e+000	 9.287221191425671e+000
 1.357278021874860e+000	 3.868823641802051e+000	 9.260675922707430e+000
 1.319169709836242e+000	 3.881982905254017e+000	 9.252014732481515e+000
 1.281021387611593e+000	 3.894738014875633e+000	 9.260511432828734e+000
 1.242839124729018e+000	 3.907089826210725e+000	 9.281721852717420e+000
 1.204628944604885e+000	 3.919039309047104e+000	 9.280744252276691e+000
 1.166396822049642e+000	 3.930587545590012e+000	 9.260443030904289e+000
 1.128148680845609e+000	 3.941735728576730e+000	 9.222869566397728e+000
 1.518390676973651e+000	 3.835376741870674e+000	 9.518390544469087e+000
 1.480272915259099e+000	 3.850248965503670e+000	 9.431139945546706e+000
 1.442090061950661e+000	 3.864712311834137e+000	 9.363745610959217e+000
 1.403848382669918e+000	 3.878767164770343e+000	 9.315311156332500e+000
 1.365554107375587e+000	 3.892414029861205e+000	 9.284986547214260e+000
 1.327213427580630e+000	 3.905653532724638e+000	 9.271969601683210e+000
 1.288832493635056e+000	 3.918486417405096e+000	 9.275507339818082e+000
 1.250417412076288e+000	 3.930913544663135e+000	 9.294897179800646e+000
 1.211974243048843e+000	 3.942935890199906e+000	 9.294172220063762e+000
 1.173508997794938e+000	 3.954554542819460e+000	 9.274441135590399e+000
 1.135027636217520e+000	 3.965770702531872e+000	 9.237991570886363e+000
 1.527593044713509e+000	 3.858621449396840e+000	 9.557392191748912e+000
 1.489244266261353e+000	 3.873583807718694e+000	 9.468083048871767e+000
 1.450830001720796e+000	 3.888134810693752e+000	 9.398132565452322e+000
 1.412356554686882e+000	 3.902274844556997e+000	 9.346612431700594e+000
 1.373830192875655e+000	 3.916004417921276e+000	 9.312642210481599e+000
 1.335257145324396e+000	 3.929324160196132e+000	 9.295390875315121e+000
 1.296643599657965e+000	 3.942234819935373e+000	 9.294078191497635e+000
 1.257995699423101e+000	 3.954737263116293e+000	 9.307975940120782e+000
 1.219319541492470e+000	 3.966832471353379e+000	 9.310076075242185e+000
 1.180621173540061e+000	 3.978521540049497e+000	 9.290539778002801e+000
 1.141906591589444e+000	 3.989805676487508e+000	 9.254861363338865e+000
 1.536795412452863e+000	 3.881866156924004e+000	 9.599018426506790e+000
 1.498215617263019e+000	 3.896918649934715e+000	 9.507824861358165e+000
 1.459569941490289e+000	 3.911557309554347e+000	 9.435481426314418e+000
 1.420864726703181e+000	 3.925782524344604e+000	 9.381027346944055e+000
 1.382106278375064e+000	 3.939594805982265e+000	 9.343551267577540e+000
 1.343300863067541e+000	 3.952994787668497e+000	 9.322192825202810e+000
 1.304454705680320e+000	 3.965983222466468e+000	 9.316144062692906e+000
 1.265573986769458e+000	 3.978560981570202e+000	 9.324650681140229e+000
 1.226664839935768e+000	 3.990729052507527e+000	 9.328504273303615e+000
 1.187733349285011e+000	 4.002488537280124e+000	 9.308783102839069e+000
 1.148785546961380e+000	 4.013840650443639e+000	 9.273518999431811e+000
 1.545997780191711e+000	 3.905110864452169e+000	 9.643153085809214e+000
 1.507186968264094e+000	 3.920253492151730e+000	 9.550255516230614e+000
 1.468309881259137e+000	 3.934979808415923e+000	 9.475688529806646e+000
 1.429372898718812e+000	 3.949290204133165e+000	 9.418458342834736e+000
 1.390382363873814e+000	 3.963185194044173e+000	 9.377622160035207e+000
 1.351344580810065e+000	 3.976665415141734e+000	 9.352289784851978e+000
 1.312265811702122e+000	 3.989731624998379e+000	 9.341625065242663e+000
 1.273152274115359e+000	 4.002384700024861e+000	 9.344847174732502e+000
 1.234010138378737e+000	 4.014625633662349e+000	 9.349505257813139e+000
 1.194845525029788e+000	 4.026455534511339e+000	 9.329215218616797e+000
 1.155664502333329e+000	 4.037875624400262e+000	 9.294004474565394e+000
 1.555200147930054e+000	 3.928355571981333e+000	 9.689680187780757e+000
 1.516158319264580e+000	 3.943588334369741e+000	 9.595265303362899e+000
 1.477049821027342e+000	 3.958402307278478e+000	 9.518650344504085e+000
 1.437881070733778e+000	 3.972797883922680e+000	 9.458807968207619e+000
 1.398658449371905e+000	 3.986775582106998e+000	 9.414763413294603e+000
 1.359388298551968e+000	 4.000336042615841e+000	 9.385596147623572e+000
 1.320076917723369e+000	 4.013480027531105e+000	 9.370441346903833e+000
 1.280730561460803e+000	 4.026208418480270e+000	 9.368491204876417e+000
 1.241355436821376e+000	 4.038522214817848e+000	 9.373127460762122e+000
 1.201957700774393e+000	 4.050422531743143e+000	 9.351880198744015e+000
 1.162543457705291e+000	 4.061910598357380e+000	 9.316357725646778e+000
 1.564402515667893e+000	 3.951600279511499e+000	 9.738483926278814e+000
 1.525129670264477e+000	 3.966923176588746e+000	 9.642744664670467e+000
 1.485789760794904e+000	 3.981824806142011e+000	 9.564263467404111e+000
 1.446389242748077e+000	 3.996305563713150e+000	 9.501978876782506e+000
 1.406934534869337e+000	 4.010365970170742e+000	 9.454883634234770e+000
 1.367432016293249e+000	 4.024006670090824e+000	 9.422026364973396e+000
 1.327888023744064e+000	 4.037228430064649e+000	 9.402513090295123e+000
 1.288308848805791e+000	 4.050032136936430e+000	 9.395508567300139e+000
 1.248700735263687e+000	 4.062418795974020e+000	 9.399419302908610e+000
 1.209069876518824e+000	 4.074389528975535e+000	 9.376822082551820e+000
 1.169422413077266e+000	 4.085945572314992e+000	 9.340618632810452e+000
 1.100632859358089e+000	 3.845595832761096e+000	 9.179056099394167e+000
 1.063307698924287e+000	 3.856083082280073e+000	 9.130973262084217e+000
 1.025978310695547e+000	 3.866182678820226e+000	 9.081077650416722e+000
 9.886503111632020e-001	 3.875896097969085e+000	 9.031025468629768e+000
 9.513292583092478e-001	 3.885224915276651e+000	 8.982351258421007e+000
 9.140206496115850e-001	 3.894170804172645e+000	 8.936467945665710e+000
 8.767299201255315e-001	 3.902735533843882e+000	 8.894667137901950e+000
 8.394624406421656e-001	 3.910920967074734e+000	 8.858119665333598e+000
 8.022235159239715e-001	 3.918729058053593e+000	 8.827876357653862e+000
 7.650183830181282e-001	 3.926161850148238e+000	 8.804869048581995e+000
 7.278522096476668e-001	 3.933221473652993e+000	 8.789911799633599e+000
 1.107511814729950e+000	 3.869630806714263e+000	 9.187588780493259e+000
 1.069953372042454e+000	 3.880183601543291e+000	 9.146155868790288e+000
 1.032390675136383e+000	 3.890346320562340e+000	 9.102162981527531e+000
 9.948293756061433e-001	 3.900120448581363e+000	 9.057284910344713e+000
 9.572750661711154e-001	 3.909507570997550e+000	 9.013073529904295e+000
 9.197332786684372e-001	 3.918509371699555e+000	 8.970957836803581e+000
 8.822094821225213e-001	 3.927127630931612e+000	 8.932244242858948e+000
 8.447090808918900e-001	 3.935364223120498e+000	 8.898117115417918e+000
 8.072374128937925e-001	 3.943221114668281e+000	 8.869639556898960e+000
 7.697997479069518e-001	 3.950700361713788e+000	 8.847754415342365e+000
 7.324012859526674e-001	 3.957804107865683e+000	 8.833285517376851e+000
 1.114390770101823e+000	 3.893665780667925e+000	 9.197708386061715e+000
 1.076599045160822e+000	 3.904284120806908e+000	 9.162109905079918e+000
 1.038803039577591e+000	 3.914509962304769e+000	 9.123243940714973e+000
 1.001008440049604e+000	 3.924344799193880e+000	 9.082804433597820e+000
 9.632208740336311e-001	 3.933790226718624e+000	 9.042361099890321e+000
 9.254459077260457e-001	 3.942847939226587e+000	 9.003359462608792e+000
 8.876890441203557e-001	 3.951519728019421e+000	 8.967121141007096e+000
 8.499557211425274e-001	 3.959807479166306e+000	 8.934844390577281e+000
 8.122513098645748e-001	 3.967713171282988e+000	 8.907604885762217e+000
 7.745811127967657e-001	 3.975238873279342e+000	 8.886356737051580e+000
 7.369503622586678e-001	 3.982386742078373e+000	 8.871933733747307e+000
 1.121269725473710e+000	 3.917700754622081e+000	 9.209455232071079e+000
 1.083244718279394e+000	 3.928384640070924e+000	 9.178881149973307e+000
 1.045215404019170e+000	 3.938673604047511e+000	 9.144371687484036e+000
 1.007187504493585e+000	 3.948569149806639e+000	 9.107640497464196e+000
 9.691666818967955e-001	 3.958072882439874e+000	 9.070275647646220e+000
 9.311585367844106e-001	 3.967186506753740e+000	 9.033739644586014e+000
 8.931686061190346e-001	 3.975911825107308e+000	 8.999369719444445e+000
 8.552023613940775e-001	 3.984250735212159e+000	 8.968378368055822e+000
 8.172652068363187e-001	 3.992205227897716e+000	 8.941854137270404e+000
 7.793624776875701e-001	 3.999777384844903e+000	 8.920762649127029e+000
 7.414994385656684e-001	 4.006969376291065e+000	 8.905947854020646e+000
 1.128148680845609e+000	 3.941735728576730e+000	 9.222869566397728e+000
 1.089890391398167e+000	 3.952485159335339e+000	 9.196515062404783e+000
 1.051627768461121e+000	 3.962837245790567e+000	 9.165596817040761e+000
 1.013366568938086e+000	 3.972793500419637e+000	 9.131848760329159e+000
 9.751124897606076e-001	 3.982355538161299e+000	 9.096877823220552e+000
 9.368711658435319e-001	 3.991525074281015e+000	 9.062163954389225e+000
 8.986481681185581e-001	 4.000303922195272e+000	 9.029060402712224e+000
 8.604490016465405e-001	 4.008693991258054e+000	 8.998794257785397e+000
 8.222791038090236e-001	 4.016697284512461e+000	 8.972467240352827e+000
 7.841438425793649e-001	 4.024315896410467e+000	 8.951056734088333e+000
 7.460485148736690e-001	 4.031552010503755e+000	 8.935417049769390e+000
 1.135027636217520e+000	 3.965770702531872e+000	 9.237991570886363e+000
 1.096536064517142e+000	 3.976585678600152e+000	 9.215056790922485e+000
 1.058040132903442e+000	 3.987000887533941e+000	 9.186969377392206e+000
 1.019545633383107e+000	 3.997017851032875e+000	 9.155484104151624e+000
 9.810582976250684e-001	 4.006638193882902e+000	 9.122227278631776e+000
 9.425837949034094e-001	 4.015863641808413e+000	 9.088696751695869e+000
 9.041277301189261e-001	 4.024696019283316e+000	 9.056262197114757e+000
 8.656956418999160e-001	 4.033137247303993e+000	 9.026165652910224e+000
 8.272930007826900e-001	 4.041189341127226e+000	 8.999522316329095e+000
 7.889252074721500e-001	 4.048854407976037e+000	 8.977321583766409e+000
 7.505975911826697e-001	 4.056134644716447e+000	 8.960428326550909e+000
 1.141906591589444e+000	 3.989805676487508e+000	 9.254861363338865e+000
 1.103181737636320e+000	 4.000686197865364e+000	 9.234551183037228e+000
 1.064452497346135e+000	 4.011164529277626e+000	 9.208538885828292e+000
 1.025724697828648e+000	 4.021242201646355e+000	 9.178600657850369e+000
 9.870041054901767e-001	 4.030920849604678e+000	 9.146382697929420e+000
 9.482964239640432e-001	 4.040202209335932e+000	 9.113401220712257e+000
 9.096072921201384e-001	 4.049088116371435e+000	 9.081042733437391e+000
 8.709422821542044e-001	 4.057580503349976e+000	 9.050564578485266e+000
 8.323068977573177e-001	 4.065681397742011e+000	 9.023095733355230e+000
 7.937065723659252e-001	 4.073392919541612e+000	 8.999637859263956e+000
 7.551466674926702e-001	 4.080717278929137e+000	 8.981066589148838e+000
 1.148785546961380e+000	 4.013840650443639e+000	 9.273518999431811e+000
 1.109827410755699e+000	 4.024786717130976e+000	 9.255042794235676e+000
 1.070864861789199e+000	 4.035328171021625e+000	 9.230354344811628e+000
 1.031903762274708e+000	 4.045466552260072e+000	 9.201251819850219e+000
 9.929499133559335e-001	 4.055203505326632e+000	 9.169401826175134e+000
 9.540090530254335e-001	 4.064540776863572e+000	 9.136339405367274e+000
 9.150868541221949e-001	 4.073480213459632e+000	 9.103468308129743e+000
 8.761889224094058e-001	 4.082023759396003e+000	 9.072061538425066e+000
 8.373207947329068e-001	 4.090173454356815e+000	 9.043262158913588e+000
 7.984879372606911e-001	 4.097931431107191e+000	 9.018084348761725e+000
 7.596957438036709e-001	 4.105299913141828e+000	 8.997414704470508e+000
 1.155664502333329e+000	 4.037875624400262e+000	 9.294004474565394e+000
 1.116473083875282e+000	 4.048887236396987e+000	 9.276575896671510e+000
 1.077277226232635e+000	 4.059491812765941e+000	 9.252464257299705e+000
 1.038082826721289e+000	 4.069690902874031e+000	 9.223490279822910e+000
 9.988957212223386e-001	 4.079486161048761e+000	 9.191341497388796e+000
 9.597216820875802e-001	 4.088879344391336e+000	 9.157572243249232e+000
 9.205664161250965e-001	 4.097872310547908e+000	 9.123603923018072e+000
 8.814355626655196e-001	 4.106467015442072e+000	 9.090725560775715e+000
 8.423346917094572e-001	 4.114665510971639e+000	 9.060094610428147e+000
 8.032693021564474e-001	 4.122469942672775e+000	 9.032738023260206e+000
 7.642448201156715e-001	 4.129882547354518e+000	 9.009553562197997e+000
 1.162543457705291e+000	 4.061910598357380e+000	 9.316357725646778e+000
 1.123118756995066e+000	 4.072987755663395e+000	 9.299194487548045e+000
 1.083689590676441e+000	 4.083655454510569e+000	 9.274916641523124e+000
 1.044261891168389e+000	 4.093915253488230e+000	 9.245368039656105e+000
 1.004841529089392e+000	 4.103768816771066e+000	 9.212257661502397e+000
 9.654343111504832e-001	 4.113217911919220e+000	 9.177159598337799e+000
 9.260459781288423e-001	 4.122264407636261e+000	 9.141513323607725e+000
 8.866822029225463e-001	 4.130910271488186e+000	 9.106624241379686e+000
 8.473485886869692e-001	 4.139157567586482e+000	 9.073664504082784e+000
 8.080506670531938e-001	 4.147008454238363e+000	 9.043674090342350e+000
 7.687938964286722e-001	 4.154465181567210e+000	 9.017562133285912e+000
 1.169422413077266e+000	 4.085945572314992e+000	 9.340618632810452e+000
 1.129764430115052e+000	 4.097088274930204e+000	 9.322942297205062e+000
 1.090101955120620e+000	 4.107819096255514e+000	 9.297759045242350e+000
 1.050440955616010e+000	 4.118139604102670e+000	 9.266936433682364e+000
 1.010787336957094e+000	 4.128051472493549e+000	 9.232205410362649e+000
 9.711469402141429e-001	 4.137556479447227e+000	 9.195160292580784e+000
 9.315255401334329e-001	 4.146656504724693e+000	 9.157259036033782e+000
 8.919288431804859e-001	 4.155353527534343e+000	 9.119823785999387e+000
 8.523624856654425e-001	 4.163649624201344e+000	 9.084041701916599e+000
 8.128320319509309e-001	 4.171546965803958e+000	 9.050966046038877e+000
 7.733429727426728e-001	 4.179047815779902e+000	 9.021517526394614e+000
 7.278522096476668e-001	 3.933221473652993e+000	 8.789911799633599e+000
 6.907300926805886e-001	 3.939910143510855e+000	 8.786614315924126e+000
 6.536570566772164e-001	 3.946230157012450e+000	 8.805089672639049e+000
 6.166380525152096e-001	 3.952183891475303e+000	 8.837028184043728e+000
 5.796779560922215e-001	 3.957773801906784e+000	 8.845464530701079e+000
 5.427815671060725e-001	 3.963002418652466e+000	 8.848994632550101e+000
 5.059536079119449e-001	 3.967872345032923e+000	 8.847959600187759e+000
 4.691987224560952e-001	 3.972386254971538e+000	 8.842499816055071e+000
 4.325214752855099e-001	 3.976546890615961e+000	 8.832558068086069e+000
 3.959263506328407e-001	 3.980357059955667e+000	 8.817883043906642e+000
 3.594177515758589e-001	 3.983819634438112e+000	 8.798033167401487e+000
 7.324012859526674e-001	 3.957804107865683e+000	 8.833285517376851e+000
 6.950471557543670e-001	 3.964534581910347e+000	 8.823440578317523e+000
 6.577424132758770e-001	 3.970894095496459e+000	 8.834038859979060e+000
 6.204920403378411e-001	 3.976885040799776e+000	 8.861763039509976e+000
 5.833009433122726e-001	 3.982509888171469e+000	 8.870401511435313e+000
 5.461739518951021e-001	 3.987771183771772e+000	 8.873781927993035e+000
 5.091158179562316e-001	 3.992671547192009e+000	 8.872319336396195e+000
 4.721312144665805e-001	 3.997213669067587e+000	 8.866223820615295e+000
 4.352247345015533e-001	 4.001400308684579e+000	 8.855503632915653e+000
 3.984008903202549e-001	 4.005234291582396e+000	 8.839968694730935e+000
 3.616641125196922e-001	 4.008718507155041e+000	 8.819234448387777e+000
 7.369503622586678e-001	 3.982386742078373e+000	 8.871933733747307e+000
 6.993642188291456e-001	 3.989159020309839e+000	 8.855894239373987e+000
 6.618277698755376e-001	 3.995558033980466e+000	 8.859018216942827e+000
 6.243460281614728e-001	 4.001586190124251e+000	 8.881117024916453e+000
 5.869239305333236e-001	 4.007245974436156e+000	 8.889774892353318e+000
 5.495663366851321e-001	 4.012539948891078e+000	 8.892898682030168e+000
 5.122780280015182e-001	 4.017470749351095e+000	 8.890977757549878e+000
 4.750637064780657e-001	 4.022041083163638e+000	 8.884292189599201e+000
 4.379279937185968e-001	 4.026253726753200e+000	 8.872915886600927e+000
 4.008754300086693e-001	 4.030111523209127e+000	 8.856720103614771e+000
 3.639104734645255e-001	 4.033617379871969e+000	 8.835377310693959e+000
 7.414994385656684e-001	 4.006969376291065e+000	 8.905947854020646e+000
 7.036812819049239e-001	 4.013783458709330e+000	 8.884057552928814e+000
 6.659131264761982e-001	 4.020221972464474e+000	 8.880100647670391e+000
 6.282000159861042e-001	 4.026287339448725e+000	 8.894286275916194e+000
 5.905469177553745e-001	 4.031982060700842e+000	 8.903840164067411e+000
 5.529587214761617e-001	 4.037308714010385e+000	 8.906575563447124e+000
 5.154402380478049e-001	 4.042269951510182e+000	 8.904140816712692e+000
 4.779961984905510e-001	 4.046868497259687e+000	 8.896886281512838e+000
 4.406312529366401e-001	 4.051107144821819e+000	 8.884951728737319e+000
 4.033499696980836e-001	 4.054988754835856e+000	 8.868269860796350e+000
 3.661568344103588e-001	 4.058516252588897e+000	 8.846570198081443e+000
 7.460485148736690e-001	 4.031552010503755e+000	 8.935417049769390e+000
 7.079983449817026e-001	 4.038407897108823e+000	 8.908010704101860e+000
 6.699984830778585e-001	 4.044885910948482e+000	 8.897357163674853e+000
 6.320540038117358e-001	 4.050988488773197e+000	 8.903708951141962e+000
 5.941699049784256e-001	 4.056718146965529e+000	 8.912851309353572e+000
 5.563511062681912e-001	 4.062077479129690e+000	 8.915041941540990e+000
 5.186024480950916e-001	 4.067069153669269e+000	 8.912013386201211e+000
 4.809286905040363e-001	 4.071695911355738e+000	 8.904186603063884e+000
 4.433345121556834e-001	 4.075960562890439e+000	 8.891767446090270e+000
 4.058245093884980e-001	 4.079865986462586e+000	 8.874750192480033e+000
 3.684031953571920e-001	 4.083415125305826e+000	 8.852921448708171e+000
 7.505975911826697e-001	 4.056134644716447e+000	 8.960428326550909e+000
 7.123154080594807e-001	 4.063032335508314e+000	 8.927831871985868e+000
 6.740838396805190e-001	 4.069549849432490e+000	 8.910856941194773e+000
 6.359079916383675e-001	 4.075689638097673e+000	 8.909799141000176e+000
 5.977928922024768e-001	 4.081454233230216e+000	 8.917060848843368e+000
 5.597434910612210e-001	 4.086846244248997e+000	 8.918525925498798e+000
 5.217646581433783e-001	 4.091868355828354e+000	 8.914799290334507e+000
 4.838611825185215e-001	 4.096523325451788e+000	 8.906372834973638e+000
 4.460377713757269e-001	 4.100813980959058e+000	 8.893518731165637e+000
 4.082990490799122e-001	 4.104743218089316e+000	 8.876292971867654e+000
 3.706495563050253e-001	 4.108313998022754e+000	 8.854539298328724e+000
 7.551466674926702e-001	 4.080717278929137e+000	 8.981066589148838e+000
 7.166324711382593e-001	 4.087656773907806e+000	 8.943597290069020e+000
 6.781691962841796e-001	 4.094213787916498e+000	 8.920667376473409e+000
 6.397619794659990e-001	 4.100390787422146e+000	 8.912615245431699e+000
 6.014158794275277e-001	 4.106190319494902e+000	 8.916719885064484e+000
 5.631358758552507e-001	 4.111615009368303e+000	 8.917254402352606e+000
 5.249268681926650e-001	 4.116667557987442e+000	 8.912701337000460e+000
 4.867936745340067e-001	 4.121350739547837e+000	 8.903623856856223e+000
 4.487410305967702e-001	 4.125667399027678e+000	 8.890360700109184e+000
 4.107735887723265e-001	 4.129620449716046e+000	 8.873029729791243e+000
 3.728959172538585e-001	 4.133212870739683e+000	 8.851531883378856e+000
 7.596957438036709e-001	 4.105299913141828e+000	 8.997414704470508e+000
 7.209495342180375e-001	 4.112281212307298e+000	 8.955381304486462e+000
 6.822545528888403e-001	 4.118877726400506e+000	 8.926854139052097e+000
 6.436159672946303e-001	 4.125091936746619e+000	 8.912214108297778e+000
 6.050388666535788e-001	 4.130926405759588e+000	 8.912078144898912e+000
 5.665282606502805e-001	 4.136383774487609e+000	 8.911453073571000e+000
 5.280890782429517e-001	 4.141466760146528e+000	 8.905921348087697e+000
 4.897261665504921e-001	 4.146178153643888e+000	 8.896117771203814e+000
 4.514442898188136e-001	 4.150520817096297e+000	 8.882447909962847e+000
 4.132481284657408e-001	 4.154497681342776e+000	 8.865091664963421e+000
 3.751422782036917e-001	 4.158111743456611e+000	 8.844007243949008e+000
 7.642448201156715e-001	 4.129882547354518e+000	 9.009553562197997e+000
 7.252665972988160e-001	 4.136905650706790e+000	 8.963256430191670e+000
 6.863399094945006e-001	 4.143541664884513e+000	 8.929481223160080e+000
 6.474699551242620e-001	 4.149793086071095e+000	 8.908651063691931e+000
 6.086618538806298e-001	 4.155662492024274e+000	 8.903384020524822e+000
 5.699206454463102e-001	 4.161152539606915e+000	 8.901346490343709e+000
 5.312512882942383e-001	 4.166265962305615e+000	 8.894660188830976e+000
 4.926586585679774e-001	 4.171005567739938e+000	 8.884031926515172e+000
 4.541475490418570e-001	 4.175374235164916e+000	 8.869934375304695e+000
 4.157226681601550e-001	 4.179374912969506e+000	 8.852609653862146e+000
 3.773886391545250e-001	 4.183010616173539e+000	 8.832073326651802e+000
 7.687938964286722e-001	 4.154465181567210e+000	 9.017562133285912e+000
 7.295836603805946e-001	 4.161530089106282e+000	 8.967293405133324e+000
 6.904252661011612e-001	 4.168205603368522e+000	 8.928610997280122e+000
 6.513239429548935e-001	 4.174494235395568e+000	 8.901979980607543e+000
 6.122848411086810e-001	 4.180398578288962e+000	 8.890884608904839e+000
 5.733130302433399e-001	 4.185921304726221e+000	 8.887158087613560e+000
 5.344134983465251e-001	 4.191065164464702e+000	 8.879117796114427e+000
 4.955911505864627e-001	 4.195832981835988e+000	 8.867542939603270e+000
 4.568508082659004e-001	 4.200227653233536e+000	 8.852973584298246e+000
 4.181972078555694e-001	 4.204252144596237e+000	 8.835714260264110e+000
 3.796350001063584e-001	 4.207909488890468e+000	 8.815837987387640e+000
 7.733429727426728e-001	 4.179047815779902e+000	 9.021517526394614e+000
 7.339007234633732e-001	 4.186154527505775e+000	 8.967561242520178e+000
 6.945106227088217e-001	 4.192869541852530e+000	 8.924304251964381e+000
 6.551779307865252e-001	 4.199195384720043e+000	 8.892253306029179e+000
 6.159078283377321e-001	 4.205134664553649e+000	 8.874825749880554e+000
 5.767054150413697e-001	 4.210690069845527e+000	 8.869110216907192e+000
 5.375757083998120e-001	 4.215864366623790e+000	 8.859493205776017e+000
 4.985236426059480e-001	 4.220660395932039e+000	 8.846826717115437e+000
 4.595540674909438e-001	 4.225081071302157e+000	 8.831718514175153e+000
 4.206717475519837e-001	 4.229129376222966e+000	 8.814535744441846e+000
 3.818813610591916e-001	 4.232808361607396e+000	 8.795408994012696e+000
 3.594177515758589e-001	 3.983819634438112e+000	 8.798033167401487e+000
 3.229999992710687e-001	 3.986937546585482e+000	 8.758765229061293e+000
 2.866773322591905e-001	 3.989713787615519e+000	 8.732371671505398e+000
 2.504539058424687e-001	 3.992151405067931e+000	 8.717745994632754e+000
 2.143337915336593e-001	 3.994253500437819e+000	 8.713596696614477e+000
 1.783209765742101e-001	 3.996023226819399e+000	 8.718452949296811e+000
 1.424193635209333e-001	 3.997463786561714e+000	 8.730670506156054e+000
 1.066327698999310e-001	 3.998578428938315e+000	 8.748437822818685e+000
 7.096492792649614e-002	 3.999370447832837e+000	 8.769782370269553e+000
 3.541948428965995e-002	 3.999843179442312e+000	 8.792577121034276e+000
 0.000000000000000e+000	 4.000000000000000e+000	 8.814547188836254e+000
 3.616641125196922e-001	 4.008718507155041e+000	 8.819234448387777e+000
 3.250187492635377e-001	 4.011855906253005e+000	 8.780541123294290e+000
 2.884690655833330e-001	 4.014649498789190e+000	 8.753402786819606e+000
 2.520192427519617e-001	 4.017102351350427e+000	 8.736760956057703e+000
 2.156733777291349e-001	 4.019217584816156e+000	 8.729369113871446e+000
 1.794354826765600e-001	 4.020998371987436e+000	 8.729798410023715e+000
 1.433094845420295e-001	 4.022447935227990e+000	 8.736443600835614e+000
 1.072992247111841e-001	 4.023569544119328e+000	 8.747529207085560e+000
 7.140845872566262e-002	 4.024366513131858e+000	 8.761115869964698e+000
 3.564085606630323e-002	 4.024842199313843e+000	 8.775106885066673e+000
 0.000000000000000e+000	 4.025000000000000e+000	 8.787254894602945e+000
 3.639104734645255e-001	 4.033617379871969e+000	 8.835377310693959e+000
 3.270374992569964e-001	 4.036774265920530e+000	 8.797318261029332e+000
 2.902607989084344e-001	 4.039585209962862e+000	 8.769589432847717e+000
 2.535845796623624e-001	 4.042053297632919e+000	 8.751180032439425e+000
 2.170129639254471e-001	 4.044181669194493e+000	 8.740888107099767e+000
 1.805499887796554e-001	 4.045973517155472e+000	 8.737326274207264e+000
 1.441996055637605e-001	 4.047432083894266e+000	 8.738927694893800e+000
 1.079656795229418e-001	 4.048560659300342e+000	 8.743952271708601e+000
 7.185198952518444e-002	 4.049362578430879e+000	 8.750493049780729e+000
 3.586222784313356e-002	 4.049841219185373e+000	 8.756482801142123e+000
 0.000000000000000e+000	 4.050000000000000e+000	 8.759700772087887e+000
 3.661568344103588e-001	 4.058516252588897e+000	 8.846570198081443e+000
 3.290562492514448e-001	 4.061692625588052e+000	 8.809186504789826e+000
 2.920525322344945e-001	 4.064520921136532e+000	 8.781002745223010e+000
 2.551499165736709e-001	 4.067004243915415e+000	 8.761055499855452e+000
 2.183525501225958e-001	 4.069145753572829e+000	 8.748186972727313e+000
 1.816644948834962e-001	 4.070948662323509e+000	 8.741050750690585e+000
 1.450897265861263e-001	 4.072416232560541e+000	 8.738117813396601e+000
 1.086321343352042e-001	 4.073551774481353e+000	 8.737682773112839e+000
 7.229552032506161e-002	 4.074358643729899e+000	 8.737870323553009e+000
 3.608359962015094e-002	 4.074840239056904e+000	 8.736641877061688e+000
 0.000000000000000e+000	 4.074999999999999e+000	 8.731802369706999e+000
 3.684031953571920e-001	 4.083415125305826e+000	 8.852921448708171e+000
 3.310749992468829e-001	 4.086610985255576e+000	 8.816235747910010e+000
 2.938442655615136e-001	 4.089456632310205e+000	 8.787714044176193e+000
 2.567152534858871e-001	 4.091955190197909e+000	 8.766439989904329e+000
 2.196921363205811e-001	 4.094109837951166e+000	 8.751299550524857e+000
 1.827790009880826e-001	 4.095923807491546e+000	 8.740986796132718e+000
 1.459798476091268e-001	 4.097400381226817e+000	 8.734009950099891e+000
 1.092985891479713e-001	 4.098542889662366e+000	 8.728697673432334e+000
 7.273905112529411e-002	 4.099354709028921e+000	 8.723205563730197e+000
 3.630497139735534e-002	 4.099839258928435e+000	 8.715522847763880e+000
 0.000000000000000e+000	 4.100000000000000e+000	 8.703479246890362e+000
 3.706495563050253e-001	 4.108313998022754e+000	 8.854539298328724e+000
 3.330937492433106e-001	 4.111529344923100e+000	 8.818555913601404e+000
 2.956359988894915e-001	 4.114392343483876e+000	 8.789794828941183e+000
 2.582805903990110e-001	 4.116906136480403e+000	 8.767386478932705e+000
 2.210317225194030e-001	 4.119073922329502e+000	 8.750260207140929e+000
 1.838935070934145e-001	 4.120898952659582e+000	 8.737150092347632e+000
 1.468699686327622e-001	 4.122384529893093e+000	 8.726601038095307e+000
 1.099650439612430e-001	 4.123534004843380e+000	 8.716975103973606e+000
 7.318258192588194e-002	 4.124350774327941e+000	 8.706458057173583e+000
 3.652634317474679e-002	 4.124838278799965e+000	 8.693066122987526e+000
 0.000000000000000e+000	 4.125000000000000e+000	 8.674652913142209e+000
 3.728959172538585e-001	 4.133212870739683e+000	 8.851531883378856e+000
 3.351124992407280e-001	 4.136447704590624e+000	 8.816236954052574e+000
 2.974277322184281e-001	 4.139328054657547e+000	 8.787316772363713e+000
 2.598459273130427e-001	 4.141857082762898e+000	 8.763948277651105e+000
 2.223713087190614e-001	 4.144038006707839e+000	 8.745103820232195e+000
 1.850080131994918e-001	 4.145874097827619e+000	 8.729557024462054e+000
 1.477600896570323e-001	 4.147368678559368e+000	 8.715888921516781e+000
 1.106314987750194e-001	 4.148525120024393e+000	 8.702494329999601e+000
 7.362611272682511e-002	 4.149346839626961e+000	 8.687588462554613e+000
 3.674771495232530e-002	 4.149837298671496e+000	 8.669213736825773e+000
 0.000000000000000e+000	 4.150000000000000e+000	 8.645246769303972e+000
 3.751422782036917e-001	 4.158111743456611e+000	 8.844007243949008e+000
 3.371312492391351e-001	 4.161366064258147e+000	 8.809368849561867e+000
 2.992194655483239e-001	 4.164263765831219e+000	 8.780351715703278e+000
 2.614112642279822e-001	 4.166808029045393e+000	 8.756179021123250e+000
 2.237108949195563e-001	 4.169002091086175e+000	 8.735865763163632e+000
 1.861225193063147e-001	 4.170849242995655e+000	 8.718224659858274e+000
 1.486502106819372e-001	 4.172352827225643e+000	 8.701872328264251e+000
 1.112979535893004e-001	 4.173516235205406e+000	 8.685235716778989e+000
 7.406964352812362e-002	 4.174342904925982e+000	 8.666558769282599e+000
 3.696908673009083e-002	 4.174836318543028e+000	 8.643909299092874e+000
 0.000000000000000e+000	 4.175000000000000e+000	 8.615186050927390e+000
 3.773886391545250e-001	 4.183010616173539e+000	 8.832073326651802e+000
 3.391499992385319e-001	 4.186284423925672e+000	 8.798041607700776e+000
 3.010111988791782e-001	 4.189199477004890e+000	 8.768971663620846e+000
 2.629766011438293e-001	 4.191758975327886e+000	 8.744132659112438e+000
 2.250504811208877e-001	 4.193966175464512e+000	 8.722581890255462e+000
 1.872370254138830e-001	 4.195824388163692e+000	 8.703170727869106e+000
 1.495403317074769e-001	 4.197336975891918e+000	 8.684550843700599e+000
 1.119644084040861e-001	 4.198507350386419e+000	 8.665180696847695e+000
 7.451317432977747e-002	 4.199338970225004e+000	 8.643332257899305e+000
 3.719045850804342e-002	 4.199835338414558e+000	 8.617097948427601e+000
 0.000000000000000e+000	 4.199999999999999e+000	 8.584397773669823e+000
 3.796350001063584e-001	 4.207909488890468e+000	 8.815837987387640e+000
 3.411687492389183e-001	 4.211202783593194e+000	 8.782345262506784e+000
 3.028029322109916e-001	 4.214135188178561e+000	 8.753248779344446e+000
 2.645419380605842e-001	 4.216709921610382e+000	 8.727863446771218e+000
 2.263900673230558e-001	 4.218930259842849e+000	 8.705288522553628e+000
 1.883515315221968e-001	 4.220799533331729e+000	 8.684413600193091e+000
 1.504304527336514e-001	 4.222321124558194e+000	 8.663924885283356e+000
 1.126308632193765e-001	 4.223498465567431e+000	 8.642311738433232e+000
 7.495670513178664e-002	 4.224335035524025e+000	 8.617873461879841e+000
 3.741183028618303e-002	 4.224834358286088e+000	 8.588726307061860e+000
 0.000000000000000e+000	 4.224999999999999e+000	 8.552810680628745e+000
 3.818813610591916e-001	 4.232808361607396e+000	 8.795408994012696e+000
 3.431874992402947e-001	 4.236121143260720e+000	 8.762369873705367e+000
 3.045946655437639e-001	 4.239070899352234e+000	 8.733255380005540e+000
 2.661072749782468e-001	 4.241660867892875e+000	 8.707425935659023e+000
 2.277296535260604e-001	 4.243894344221186e+000	 8.684022434102554e+000
 1.894660376312561e-001	 4.245774678499766e+000	 8.661972272001940e+000
 1.513205737604607e-001	 4.247305273224471e+000	 8.639995678091035e+000
 1.132973180351715e-001	 4.248489580748445e+000	 8.616612314992954e+000
 7.540023593415120e-002	 4.249331100823047e+000	 8.590148130781872e+000
 3.763320206450971e-002	 4.249833378157621e+000	 8.558742437185629e+000
 0.000000000000000e+000	 4.250000000000000e+000	 8.520355191534483e+000
 4.250000000000000e+000	 0.000000000000000e+000	 1.073988830318369e+001
 4.249833378157620e+000	 3.763320206450985e-002	 1.067250152556029e+001
 4.249331100823047e+000	 7.540023593415146e-002	 1.061966571409979e+001
 4.248489580748444e+000	 1.132973180351712e-001	 1.057890885527383e+001
 4.247305273224471e+000	 1.513205737604606e-001	 1.054785956151009e+001
 4.245774678499766e+000	 1.894660376312561e-001	 1.052424124182625e+001
 4.243894344221186e+000	 2.277296535260605e-001	 1.050586559487419e+001
 4.241660867892875e+000	 2.661072749782472e-001	 1.049062541822323e+001
 4.239070899352234e+000	 3.045946655437636e-001	 1.047648672967683e+001
 4.236121143260720e+000	 3.431874992402945e-001	 1.046148019848904e+001
 4.232808361607396e+000	 3.818813610591916e-001	 1.044369188651448e+001
 4.275000000000000e+000	 0.000000000000000e+000	 1.059408669102060e+001
 4.274832398029148e+000	 3.785457384283890e-002	 1.054286065403661e+001
 4.274327166122059e+000	 7.584376673652557e-002	 1.050430467921180e+001
 4.273480695929435e+000	 1.139637728509879e-001	 1.047620686663685e+001
 4.272289421890708e+000	 1.522106947873084e-001	 1.045646481411394e+001
 4.270749823667742e+000	 1.905805437403758e-001	 1.044307955105243e+001
 4.268858428599435e+000	 2.290692397291523e-001	 1.043414877102178e+001
 4.266611814175251e+000	 2.676726118960291e-001	 1.042785935654850e+001
 4.264006610525748e+000	 3.063863988766921e-001	 1.042247919176199e+001
 4.261039502928045e+000	 3.452062492418692e-001	 1.041634826062086e+001
 4.257707234324079e+000	 3.841277220122707e-001	 1.040786903067789e+001
 4.300000000000000e+000	 0.000000000000000e+000	 1.046263694564375e+001
 4.299831417900671e+000	 3.807594562098566e-002	 1.042687992715705e+001
 4.299323231421049e+000	 7.628729753856345e-002	 1.040185455721268e+001
 4.298471811110385e+000	 1.146302276663430e-001	 1.038561189261552e+001
 4.297273570556867e+000	 1.531008158135985e-001	 1.037632147956763e+001
 4.295724968835596e+000	 1.916950498488709e-001	 1.037226504855030e+001
 4.293822512977509e+000	 2.304088259315823e-001	 1.037182948382867e+001
 4.291562760457388e+000	 2.692379488131417e-001	 1.037349906091771e+001
 4.288942321698952e+000	 3.081781322089743e-001	 1.037584694742307e+001
 4.285957862594973e+000	 3.472249992428511e-001	 1.037752596485109e+001
 4.282606107040270e+000	 3.863740829648416e-001	 1.037725861126826e+001
 4.324999999999999e+000	 0.000000000000000e+000	 1.034612121079844e+001
 4.324830437772191e+000	 3.829731739895016e-002	 1.032501019698562e+001
 4.324319296720021e+000	 7.673082834026511e-002	 1.031263421954825e+001
 4.323462926291289e+000	 1.152966824812367e-001	 1.030731019599096e+001
 4.322257719222951e+000	 1.539909368393309e-001	 1.030748264644314e+001
 4.320700114003333e+000	 1.928095559567414e-001	 1.031171714722452e+001
 4.318786597355409e+000	 2.317484121333504e-001	 1.031869303471124e+001
 4.316513706739286e+000	 2.708032857295852e-001	 1.032719535259170e+001
 4.313878032871841e+000	 3.099698655406102e-001	 1.033610603773044e+001
 4.310876222261504e+000	 3.492437492432403e-001	 1.034439434209447e+001
 4.307504979755969e+000	 3.886204439169040e-001	 1.035110649054295e+001
 4.350000000000000e+000	 0.000000000000000e+000	 1.024510824761391e+001
 4.349829457643704e+000	 3.851868917673237e-002	 1.023769017965834e+001
 4.349315362018976e+000	 7.717435914163061e-002	 1.023695164983238e+001
 4.348454041472150e+000	 1.159631372956689e-001	 1.024147840076102e+001
 4.347241867888956e+000	 1.548810578645055e-001	 1.024999301406781e+001
 4.345675259170945e+000	 1.939240620639871e-001	 1.026134812029170e+001
 4.343750681733135e+000	 2.330879983344565e-001	 1.027451883449323e+001
 4.341464653020945e+000	 2.723686226453594e-001	 1.028859441038654e+001
 4.338813744044418e+000	 3.117615988715999e-001	 1.030276910801594e+001
 4.335794581927638e+000	 3.512624992430367e-001	 1.031633227229080e+001
 4.332403852471177e+000	 3.908668048684583e-001	 1.032865762209703e+001
 4.374999999999999e+000	 0.000000000000000e+000	 1.016015381696405e+001
 4.374828477515215e+000	 3.874006095433233e-002	 1.016534680212404e+001
 4.374311427317912e+000	 7.761788994265988e-002	 1.017510425492784e+001
 4.373445156652968e+000	 1.166295921096397e-001	 1.018828376753425e+001
 4.372226016554885e+000	 1.557711788891225e-001	 1.020388913221678e+001
 4.370650404338438e+000	 1.950385681706083e-001	 1.022106330527110e+001
 4.368714766110685e+000	 2.344275845349007e-001	 1.023908057170839e+001
 4.366415599302367e+000	 2.739339595604644e-001	 1.025733790331488e+001
 4.363749455216683e+000	 3.135533322019433e-001	 1.027534550489416e+001
 4.360712941593376e+000	 3.532812492422404e-001	 1.029271654586148e+001
 4.357302725185893e+000	 3.931131658195044e-001	 1.030915607682525e+001
 4.400000000000000e+000	 0.000000000000000e+000	 1.034170460827936e+001
 4.399827497386720e+000	 3.896143273174999e-002	 1.032651066364275e+001
 4.399307492616827e+000	 7.806142074335290e-002	 1.031350988877297e+001
 4.398436271833743e+000	 1.172960469231490e-001	 1.030278727969597e+001
 4.397210165220737e+000	 1.566612999131817e-001	 1.029443696725849e+001
 4.395625549505810e+000	 1.961530742766048e-001	 1.028856315027660e+001
 4.393678850488062e+000	 2.357671707346830e-001	 1.028528105629540e+001
 4.391366545583549e+000	 2.754992964749001e-001	 1.028471792865053e+001
 4.388685166388635e+000	 3.153450655316404e-001	 1.028701403837935e+001
 4.385631301258717e+000	 3.552999992408514e-001	 1.029232371938681e+001
 4.382201597900116e+000	 3.953595267700419e-001	 1.030081642512557e+001
 4.425000000000000e+000	 0.000000000000000e+000	 1.049508250255251e+001
 4.424826517258218e+000	 3.918280450898538e-002	 1.046424916058040e+001
 4.424303557915724e+000	 7.850495154370979e-002	 1.043572063265131e+001
 4.423427387014476e+000	 1.179625017361969e-001	 1.040969590894876e+001
 4.422194313886513e+000	 1.575514209366833e-001	 1.038638529351268e+001
 4.420600694673061e+000	 1.972675803819767e-001	 1.036601129293667e+001
 4.418642934865264e+000	 2.371067569338034e-001	 1.034880952924022e+001
 4.416317491864494e+000	 2.770646333886667e-001	 1.033502967556300e+001
 4.413620877560275e+000	 3.171367988606913e-001	 1.032493641318921e+001
 4.410549660923660e+000	 3.573187492388697e-001	 1.031881040827194e+001
 4.407100470613848e+000	 3.976058877200713e-001	 1.031694930648643e+001
 4.449999999999999e+000	 0.000000000000000e+000	 1.062080642625814e+001
 4.449825537129715e+000	 3.940417628603850e-002	 1.057738955978712e+001
 4.449299623214602e+000	 7.894848234373043e-002	 1.053639150242367e+001
 4.448418502195165e+000	 1.186289565487833e-001	 1.049812394573996e+001
 4.447178462552209e+000	 1.584415419596271e-001	 1.046291205215290e+001
 4.445575839840191e+000	 1.983820864867240e-001	 1.043109529988478e+001
 4.443607019242291e+000	 2.384463431322619e-001	 1.040302834870684e+001
 4.441268438145198e+000	 2.786299703017640e-001	 1.037908192506838e+001
 4.438556588731602e+000	 3.189285321890960e-001	 1.035964372508046e+001
 4.435468020588207e+000	 3.593374992362953e-001	 1.034511933368848e+001
 4.431999343327089e+000	 3.998522486695924e-001	 1.033593315823164e+001
 4.474999999999999e+000	 0.000000000000000e+000	 1.071938370974770e+001
 4.474824557001205e+000	 3.962554806290932e-002	 1.066639586510571e+001
 4.474295688513459e+000	 7.939201314341488e-002	 1.061594312521870e+001
 4.473409617375811e+000	 1.192954113609082e-001	 1.056844860515035e+001
 4.472162611217830e+000	 1.593316629820132e-001	 1.052435102602041e+001
 4.470550985007201e+000	 1.994965925908466e-001	 1.048410551693850e+001
 4.468571103619143e+000	 2.397859293300585e-001	 1.044818443437206e+001
 4.466219384425665e+000	 2.801953072141921e-001	 1.041707819750689e+001
 4.463492299902617e+000	 3.207202655168542e-001	 1.039129613803008e+001
 4.460386380252356e+000	 3.613562492331280e-001	 1.037136736263390e+001
 4.456898216039838e+000	 4.020986096186052e-001	 1.035784162640745e+001
 4.500000000000000e+000	 0.000000000000000e+000	 1.079131040936388e+001
 4.499823576872690e+000	 3.984691983959790e-002	 1.073172185662592e+001
 4.499291753812299e+000	 7.983554394276311e-002	 1.067478695585392e+001
 4.498400732556415e+000	 1.199618661725717e-001	 1.062103898219432e+001
 4.497146759883374e+000	 1.602217840038417e-001	 1.057102893054723e+001
 4.495526130174089e+000	 2.006110986943446e-001	 1.052532627517855e+001
 4.493535187995821e+000	 2.411255155271932e-001	 1.048451974345990e+001
 4.491170330705895e+000	 2.817606441259510e-001	 1.044921810225181e+001
 4.488428011073320e+000	 3.225119988439664e-001	 1.042005095531948e+001
 4.485304739916110e+000	 3.633749992293683e-001	 1.039766955004466e+001
 4.481797088752097e+000	 4.043449705671097e-001	 1.038274759156927e+001
 4.232808361607396e+000	 3.818813610591916e-001	 1.044369188651448e+001
 4.229129376222968e+000	 4.206717475519838e-001	 1.050817810347623e+001
 4.225081071302157e+000	 4.595540674909441e-001	 1.057355817817484e+001
 4.220660395932038e+000	 4.985236426059477e-001	 1.063811938235005e+001
 4.215864366623790e+000	 5.375757083998116e-001	 1.070015631762138e+001
 4.210690069845527e+000	 5.767054150413699e-001	 1.075795810453862e+001
 4.205134664553649e+000	 6.159078283377322e-001	 1.080979493297451e+001
 4.199195384720043e+000	 6.551779307865254e-001	 1.072391961092233e+001
 4.192869541852530e+000	 6.945106227088215e-001	 1.059037451497966e+001
 4.186154527505775e+000	 7.339007234633730e-001	 1.044767926755008e+001
 4.179047815779902e+000	 7.733429727426728e-001	 1.029518952866810e+001
 4.257707234324079e+000	 3.841277220122707e-001	 1.040786903067789e+001
 4.254006607849405e+000	 4.231462872486892e-001	 1.048235056182934e+001
 4.249934489370448e+000	 4.622573267163141e-001	 1.055798225546878e+001
 4.245487810027736e+000	 5.014561346257856e-001	 1.063332001744699e+001
 4.240663568782507e+000	 5.407379184534669e-001	 1.070693192555969e+001
 4.235458834964459e+000	 5.800977998397743e-001	 1.077738499229388e+001
 4.229870750817964e+000	 6.195308155671542e-001	 1.084323126732156e+001
 4.223896534044159e+000	 6.590319186185139e-001	 1.073815089075732e+001
 4.217533480336205e+000	 6.985959793168148e-001	 1.059862565105160e+001
 4.210778965904968e+000	 7.382177865464500e-001	 1.045039552032509e+001
 4.203630449992338e+000	 7.778920490569271e-001	 1.029283890786769e+001
 4.282606107040270e+000	 3.863740829648416e-001	 1.037725861126826e+001
 4.278883839475262e+000	 4.256208269449768e-001	 1.045926779301362e+001
 4.274787907438089e+000	 4.649605859413375e-001	 1.054266443405972e+001
 4.270315224122728e+000	 5.043886266453285e-001	 1.062627756227464e+001
 4.265462770940488e+000	 5.439001285068594e-001	 1.070895330935131e+001
 4.260227600082641e+000	 5.834901846379283e-001	 1.078954124169769e+001
 4.254606837081538e+000	 6.231538027963179e-001	 1.086688000917617e+001
 4.248597683367563e+000	 6.628859064502164e-001	 1.074186326698272e+001
 4.242197418819215e+000	 7.026813359244741e-001	 1.059964578850645e+001
 4.235403404303566e+000	 7.425348496291238e-001	 1.044913186411475e+001
 4.228213084204269e+000	 7.824411253706887e-001	 1.028972003110953e+001
 4.307504979755969e+000	 3.886204439169040e-001	 1.035110649054295e+001
 4.303761071100537e+000	 4.280953666408464e-001	 1.043806368747786e+001
 4.299641325505075e+000	 4.676638451660142e-001	 1.052662653417239e+001
 4.295142638217016e+000	 5.073211186645764e-001	 1.061590173366530e+001
 4.290261973097732e+000	 5.470623385599891e-001	 1.070501811560268e+001
 4.284996365200072e+000	 5.868825694358318e-001	 1.079311252966569e+001
 4.279342923344370e+000	 6.267767900252236e-001	 1.086970795333536e+001
 4.273298832690252e+000	 6.667398942816329e-001	 1.073532468511405e+001
 4.266861357301559e+000	 7.067666925317988e-001	 1.059369723735860e+001
 4.260027842701565e+000	 7.468519127113943e-001	 1.044414483007665e+001
 4.252795718415691e+000	 7.869902016839576e-001	 1.028608350289892e+001
 4.332403852471177e+000	 3.908668048684583e-001	 1.032865762209703e+001
 4.328638302725228e+000	 4.305699063362981e-001	 1.041787193112515e+001
 4.324494743571407e+000	 4.703671043903442e-001	 1.050889087411213e+001
 4.319970052310598e+000	 5.102536106835296e-001	 1.060110344737354e+001
 4.315061175254238e+000	 5.502245486128563e-001	 1.069392588860078e+001
 4.309765130316756e+000	 5.902749542334850e-001	 1.078678712716789e+001
 4.304079009606459e+000	 6.303997772538713e-001	 1.084964454457270e+001
 4.297999982012226e+000	 6.705938821127633e-001	 1.071880706909328e+001
 4.291525295783236e+000	 7.108520491387893e-001	 1.058104697342986e+001
 4.284652281098967e+000	 7.511689757932618e-001	 1.043569629893702e+001
 4.277378352626607e+000	 7.915392779967340e-001	 1.028218595713632e+001
 4.357302725185893e+000	 3.931131658195044e-001	 1.030915607682525e+001
 4.353515534349339e+000	 4.330444460313320e-001	 1.039782601115703e+001
 4.349348161637088e+000	 4.730703636143275e-001	 1.048848025603418e+001
 4.344797466403474e+000	 5.131861027021878e-001	 1.058079478382117e+001
 4.339860377410006e+000	 5.533867586654604e-001	 1.067447801609376e+001
 4.334533895432689e+000	 5.936673390308876e-001	 1.076925582511283e+001
 4.328815095867808e+000	 6.340227644822606e-001	 1.081657023784436e+001
 4.322701131333488e+000	 6.744478699436078e-001	 1.069258620761955e+001
 4.316189234264249e+000	 7.149374057454456e-001	 1.056196650504062e+001
 4.309276719495773e+000	 7.554860388747262e-001	 1.042405334814593e+001
 4.301960986837014e+000	 7.960883543090176e-001	 1.027828988484883e+001
 4.382201597900116e+000	 3.953595267700419e-001	 1.030081642512557e+001
 4.378392765972867e+000	 4.355189857259480e-001	 1.037949873450282e+001
 4.374201579702113e+000	 4.757736228379642e-001	 1.046441795219785e+001
 4.369624880495647e+000	 5.161185947205511e-001	 1.055388895501008e+001
 4.364659579565039e+000	 5.565489687178018e-001	 1.064547767691981e+001
 4.359302660547873e+000	 5.970597238280400e-001	 1.073921186275849e+001
 4.353551182128414e+000	 6.376457517103920e-001	 1.077076806002416e+001
 4.347402280654035e+000	 6.783018577741661e-001	 1.065694164435484e+001
 4.340853172744595e+000	 7.190227623517677e-001	 1.053673174424583e+001
 4.333901157891982e+000	 7.598031019557877e-001	 1.040948810424312e+001
 4.326543621046915e+000	 8.006374306208084e-001	 1.027466346779459e+001
 4.407100470613848e+000	 3.976058877200713e-001	 1.031694930648643e+001
 4.403269997595813e+000	 4.379935254201460e-001	 1.037870230933766e+001
 4.399054997766486e+000	 4.784768820612543e-001	 1.044704251606441e+001
 4.394452294587114e+000	 5.190510867386193e-001	 1.052196735645045e+001
 4.389458781719333e+000	 5.597111787698805e-001	 1.060348723211803e+001
 4.384071425662305e+000	 6.004521086249417e-001	 1.069162674137621e+001
 4.378287268388279e+000	 6.412687389382651e-001	 1.071039846182878e+001
 4.372103429973867e+000	 6.821558456044385e-001	 1.061215657185166e+001
 4.365517111224276e+000	 7.231081189577551e-001	 1.050562288243552e+001
 4.358525596287595e+000	 7.641201650364460e-001	 1.039227760022828e+001
 4.351126255256309e+000	 8.051865069321068e-001	 1.027158041770764e+001
 4.431999343327089e+000	 3.998522486695924e-001	 1.033593315823164e+001
 4.428147229218177e+000	 4.404680651139264e-001	 1.038256491455935e+001
 4.423908415830206e+000	 4.811801412841976e-001	 1.043631956116929e+001
 4.419279708677876e+000	 5.219835787563928e-001	 1.049726363224792e+001
 4.414257983872892e+000	 5.628733888216964e-001	 1.056547765809875e+001
 4.408840190775990e+000	 6.038444934215930e-001	 1.064105736049925e+001
 4.403023354647401e+000	 6.448917261658800e-001	 1.064020690047031e+001
 4.396804579292986e+000	 6.860098334344249e-001	 1.055113945755226e+001
 4.390181049703291e+000	 7.271934755634086e-001	 1.046016850503627e+001
 4.383150034682610e+000	 7.684372281167010e-001	 1.036633566487037e+001
 4.375708889465193e+000	 8.097355832429123e-001	 1.026864650021815e+001
 4.456898216039838e+000	 4.020986096186052e-001	 1.035784162640745e+001
 4.453024460839959e+000	 4.429426048072887e-001	 1.039113735858127e+001
 4.448761833893272e+000	 4.838834005067942e-001	 1.043208474261483e+001
 4.444107122767933e+000	 5.249160707738714e-001	 1.048081847495491e+001
 4.439057186025712e+000	 5.660355988732495e-001	 1.053748826473226e+001
 4.433608955888926e+000	 6.072368782179941e-001	 1.060226000044131e+001
 4.427759440905781e+000	 6.485147133932370e-001	 1.058634309592148e+001
 4.421505728611392e+000	 6.898638212641249e-001	 1.050505289363236e+001
 4.414844988181640e+000	 7.312788321687278e-001	 1.042317366378568e+001
 4.407774473077028e+000	 7.727542911965529e-001	 1.033984648682265e+001
 4.400291523673573e+000	 8.142846595532255e-001	 1.025417652895740e+001
 4.481797088752097e+000	 4.043449705671097e-001	 1.038274759156927e+001
 4.477901692461161e+000	 4.454171445002335e-001	 1.040447027749976e+001
 4.473615251955685e+000	 4.865866597290443e-001	 1.043436648510444e+001
 4.468934536857284e+000	 5.278485627910551e-001	 1.047263813919930e+001
 4.463856388177794e+000	 5.691978089245400e-001	 1.051950318625326e+001
 4.458377721001112e+000	 6.106292630141444e-001	 1.057519673320133e+001
 4.452495527163421e+000	 6.521377006203358e-001	 1.054852423762955e+001
 4.446206877929084e+000	 6.937178090935396e-001	 1.047610703978511e+001
 4.439508926659324e+000	 7.353641887737125e-001	 1.040441360818288e+001
 4.432398911470851e+000	 7.770713542760019e-001	 1.033268446195975e+001
 4.424874157881446e+000	 8.188337358630459e-001	 1.026012434563060e+001
 4.179047815779902e+000	 7.733429727426728e-001	 1.029518952866810e+001
 4.171546965803959e+000	 8.128320319509310e-001	 1.037738211674322e+001
 4.163649624201344e+000	 8.523624856654427e-001	 1.045225832742546e+001
 4.155353527534343e+000	 8.919288431804857e-001	 1.051992686542372e+001
 4.146656504724693e+000	 9.315255401334327e-001	 1.058062302629220e+001
 4.137556479447227e+000	 9.711469402141428e-001	 1.063471615669894e+001
 4.128051472493549e+000	 1.010787336957094e+000	 1.068271705466657e+001
 4.118139604102669e+000	 1.050440955616010e+000	 1.072528528707893e+001
 4.107819096255514e+000	 1.090101955120619e+000	 1.076323640118470e+001
 4.097088274930205e+000	 1.129764430115052e+000	 1.079754900632523e+001
 4.085945572314992e+000	 1.169422413077266e+000	 1.082937170167554e+001
 4.203630449992338e+000	 7.778920490569271e-001	 1.029283890786769e+001
 4.196085477369345e+000	 8.176133968488740e-001	 1.037783239731756e+001
 4.188141680816043e+000	 8.573763826440791e-001	 1.045481988885115e+001
 4.179796783580376e+000	 8.971754834385506e-001	 1.052377865138410e+001
 4.171048601813031e+000	 9.370051021381152e-001	 1.058481342859142e+001
 4.161895046975168e+000	 9.768595692778664e-001	 1.063816414248768e+001
 4.152334128215989e+000	 1.016733144824837e+000	 1.068421353979788e+001
 4.142363954717085e+000	 1.056620020063654e+000	 1.072349475791975e+001
 4.131982738000447e+000	 1.096514319564807e+000	 1.075669878669470e+001
 4.121188794197010e+000	 1.136410103235041e+000	 1.078468180168300e+001
 4.109980546272603e+000	 1.176301368449240e+000	 1.080847234418180e+001
 4.228213084204269e+000	 7.824411253706887e-001	 1.028972003110953e+001
 4.220623988934317e+000	 8.223947617462386e-001	 1.037742532948888e+001
 4.212633737430396e+000	 8.623902796220805e-001	 1.045639467475177e+001
 4.204240039626114e+000	 9.024221236959534e-001	 1.052647272795101e+001
 4.195440698901107e+000	 9.424846641421384e-001	 1.058763254786392e+001
 4.186233614502861e+000	 9.825721983409623e-001	 1.063998354084648e+001
 4.176616783938171e+000	 1.022678952692014e+000	 1.068377935629757e+001
 4.166588305331214e+000	 1.062799084510823e+000	 1.071942570403367e+001
 4.156146379745046e+000	 1.102926684008645e+000	 1.074748806927115e+001
 4.145289313463413e+000	 1.143055776354834e+000	 1.076869930037245e+001
 4.134015520229721e+000	 1.183180323821201e+000	 1.078396704403779e+001
 4.252795718415691e+000	 7.869902016839576e-001	 1.028608350289892e+001
 4.245162500498869e+000	 8.271761266430252e-001	 1.037646194829888e+001
 4.237125794044403e+000	 8.674041765994475e-001	 1.045733391994319e+001
 4.228683295671557e+000	 9.076687639526941e-001	 1.052841027079112e+001
 4.219832795988922e+000	 9.479642261455015e-001	 1.058953121349606e+001
 4.210572182030301e+000	 9.882848274034306e-001	 1.064067451952672e+001
 4.200899439660092e+000	 1.028624760558625e+000	 1.068196366671887e+001
 4.190812655945056e+000	 1.068978148957520e+000	 1.071367591105090e+001
 4.180310021489308e+000	 1.109339048452132e+000	 1.073625025781332e+001
 4.169389832729409e+000	 1.149701449474428e+000	 1.075029530678211e+001
 4.158050494186345e+000	 1.190059279193150e+000	 1.075659694551368e+001
 4.277378352626607e+000	 7.915392779967340e-001	 1.028218595713632e+001
 4.269701012063006e+000	 8.319574915392335e-001	 1.037524869469550e+001
 4.261617850658065e+000	 8.724180735761798e-001	 1.045799363880318e+001
 4.253126551716705e+000	 9.129154042087730e-001	 1.052999660617092e+001
 4.244224893076472e+000	 9.534437881482050e-001	 1.059096377413670e+001
 4.234910749557492e+000	 9.939974564652715e-001	 1.064074013207666e+001
 4.225182095381759e+000	 1.034570568424671e+000	 1.067931788406954e+001
 4.215037006558611e+000	 1.075157213403744e+000	 1.070684477809282e+001
 4.204473663233235e+000	 1.115751412895269e+000	 1.072363233638716e+001
 4.193490351995003e+000	 1.156347122593826e+000	 1.073016396104570e+001
 4.182085468142476e+000	 1.196938234565087e+000	 1.072710288837399e+001
 4.301960986837014e+000	 7.960883543090176e-001	 1.027828988484883e+001
 4.294239523626727e+000	 8.367388564348637e-001	 1.037409726107843e+001
 4.286109907271380e+000	 8.774319705522771e-001	 1.045873448871252e+001
 4.277569807761561e+000	 9.181620444641898e-001	 1.053164109236819e+001
 4.268616990163762e+000	 9.589233501502488e-001	 1.059238799714680e+001
 4.259249317084431e+000	 9.997100855264841e-001	 1.064068623539015e+001
 4.249464751103164e+000	 1.040516376290151e+000	 1.067639560751318e+001
 4.239261357171881e+000	 1.081336277849494e+000	 1.069953327167211e+001
 4.228637304976828e+000	 1.122163777338055e+000	 1.071028223636342e+001
 4.217590871260192e+000	 1.162992795713027e+000	 1.070899972944942e+001
 4.206120442098111e+000	 1.203817189937011e+000	 1.069622541657793e+001
 4.326543621046915e+000	 8.006374306208084e-001	 1.027466346779459e+001
 4.318778035190028e+000	 8.415202213299152e-001	 1.037332444211012e+001
 4.310601963884349e+000	 8.824458675277399e-001	 1.045992163815138e+001
 4.302013063806120e+000	 9.234086847189446e-001	 1.053375700512613e+001
 4.293009087250787e+000	 9.644029121516327e-001	 1.059426497147702e+001
 4.283587884611121e+000	 1.005422714587069e+000	 1.064102141006609e+001
 4.273747406824311e+000	 1.046462184155065e+000	 1.067375256026245e+001
 4.263485707784863e+000	 1.087515342294771e+000	 1.069234388116472e+001
 4.252800946720086e+000	 1.128576141780491e+000	 1.069684880950549e+001
 4.241691390524975e+000	 1.169638468832031e+000	 1.068749739516613e+001
 4.230155416053255e+000	 1.210696145308922e+000	 1.066470478668286e+001
 4.351126255256309e+000	 8.051865069321068e-001	 1.027158041770764e+001
 4.343316546752915e+000	 8.463015862243891e-001	 1.037325199058407e+001
 4.335094020496972e+000	 8.874597645025674e-001	 1.046192463926729e+001
 4.326456319850386e+000	 9.286553249730370e-001	 1.053676142699064e+001
 4.317401184337552e+000	 9.698824741523567e-001	 1.059705901383741e+001
 4.307926452137561e+000	 1.011135343647027e+000	 1.064225688346762e+001
 4.298030062545202e+000	 1.052407992019414e+000	 1.067194652957778e+001
 4.287710058397559e+000	 1.093694406739574e+000	 1.068588057579102e+001
 4.276964588463008e+000	 1.134988506222576e+000	 1.068398180196970e+001
 4.265791909789358e+000	 1.176284141950839e+000	 1.066635204930392e+001
 4.254190390007903e+000	 1.217575100680821e+000	 1.063328097596297e+001
 4.375708889465193e+000	 8.097355832429123e-001	 1.026864650021815e+001
 4.367855058315383e+000	 8.510829511182845e-001	 1.037420647815146e+001
 4.359586077109249e+000	 8.924736614767607e-001	 1.046511730473824e+001
 4.350899575894356e+000	 9.339019652264679e-001	 1.054107514037749e+001
 4.341793281424052e+000	 9.753620361524212e-001	 1.060123757803001e+001
 4.332265019663749e+000	 1.016847972706356e+000	 1.064490645537481e+001
 4.322312718265833e+000	 1.058353799883198e+000	 1.067153730878844e+001
 4.311934409009967e+000	 1.099873471183904e+000	 1.068074876304721e+001
 4.301128230205594e+000	 1.141400870664311e+000	 1.067233182918189e+001
 4.289892429053334e+000	 1.182929815069449e+000	 1.064625908225613e+001
 4.278225363962058e+000	 1.224454056052707e+000	 1.060269369025438e+001
 4.400291523673573e+000	 8.142846595532255e-001	 1.025417652895740e+001
 4.392393569877434e+000	 8.558643160116016e-001	 1.036390181815175e+001
 4.384078133721181e+000	 8.974875584503188e-001	 1.046210333318364e+001
 4.375342831938033e+000	 9.391486054792365e-001	 1.054679900750853e+001
 4.366185378510290e+000	 9.808415981518260e-001	 1.060727116732063e+001
 4.356603587189687e+000	 1.022560601765058e+000	 1.064948642612943e+001
 4.346595373986204e+000	 1.064299607746415e+000	 1.067308664125710e+001
 4.336158759622090e+000	 1.106052535627761e+000	 1.067755524852996e+001
 4.325291871947847e+000	 1.147813235105695e+000	 1.066255035155611e+001
 4.313992948316907e+000	 1.189575488187861e+000	 1.062791417534147e+001
 4.302260337915721e+000	 1.231333011424581e+000	 1.057368237153716e+001
 4.424874157881446e+000	 8.188337358630459e-001	 1.026012434563060e+001
 4.416932081439071e+000	 8.606456809043407e-001	 1.036454717697035e+001
 4.408570190332767e+000	 9.025014554232427e-001	 1.045798358799637e+001
 4.399786087981418e+000	 9.443952457313434e-001	 1.053840150002111e+001
 4.390577475596269e+000	 9.863211601505711e-001	 1.060371274370981e+001
 4.380942154715376e+000	 1.028273230823133e+000	 1.065177157138901e+001
 4.370878029706319e+000	 1.070245415609068e+000	 1.067715816621225e+001
 4.360383110233927e+000	 1.112231600071145e+000	 1.067690819710036e+001
 4.349455513689765e+000	 1.154225599546729e+000	 1.065528965102277e+001
 4.338093467580077e+000	 1.196221161306078e+000	 1.061201329272269e+001
 4.326295311868889e+000	 1.238211966796443e+000	 1.054698620526464e+001
 4.085945572314992e+000	 1.169422413077266e+000	 1.082937170167554e+001
 4.074389528975536e+000	 1.209069876518825e+000	 1.065232660578485e+001
 4.062418795974019e+000	 1.248700735263687e+000	 1.048053772975323e+001
 4.050032136936430e+000	 1.288308848805790e+000	 1.052415249708669e+001
 4.037228430064649e+000	 1.327888023744063e+000	 1.057070329149045e+001
 4.024006670090824e+000	 1.367432016293249e+000	 1.061264642920319e+001
 4.010365970170742e+000	 1.406934534869337e+000	 1.064967689839139e+001
 3.996305563713150e+000	 1.446389242748077e+000	 1.068147295217879e+001
 3.981824806142011e+000	 1.485789760794904e+000	 1.070769604275199e+001
 3.966923176588746e+000	 1.525129670264476e+000	 1.072799079451833e+001
 3.951600279511499e+000	 1.564402515667893e+000	 1.074198501763208e+001
 4.109980546272603e+000	 1.176301368449240e+000	 1.080847234418180e+001
 4.098356526207931e+000	 1.216182052263254e+000	 1.062815142579081e+001
 4.086315377130201e+000	 1.256046033705988e+000	 1.048608327416447e+001
 4.073855855392611e+000	 1.295887136150756e+000	 1.053794036251655e+001
 4.060976832598230e+000	 1.335699129764719e+000	 1.058543655129143e+001
 4.047677297565866e+000	 1.375475734034469e+000	 1.062825842530849e+001
 4.033956358234573e+000	 1.415210620366680e+000	 1.066607534661237e+001
 4.019813243503739e+000	 1.454897414762255e+000	 1.069853936513589e+001
 4.005247305005702e+000	 1.494529700562308e+000	 1.072528516833052e+001
 3.990258018807951e+000	 1.534101021264173e+000	 1.074593007116534e+001
 3.974844987041911e+000	 1.573604883405484e+000	 1.076007404781751e+001
 4.134015520229721e+000	 1.183180323821201e+000	 1.078396704403779e+001
 4.122323523439744e+000	 1.223294228007851e+000	 1.060099925466779e+001
 4.110211958285729e+000	 1.263391332148599e+000	 1.049839648406795e+001
 4.097679573848086e+000	 1.303465423496135e+000	 1.055077890999305e+001
 4.084725235131073e+000	 1.343510235785849e+000	 1.059876430521210e+001
 4.071347925040157e+000	 1.383519451776188e+000	 1.064201444340476e+001
 4.057546746297664e+000	 1.423486705864506e+000	 1.068017327895410e+001
 4.043320923293615e+000	 1.463405586776860e+000	 1.071286687152944e+001
 4.028669803868731e+000	 1.503269640330041e+000	 1.073970335094899e+001
 4.013592861026560e+000	 1.543072372264059e+000	 1.076027292373384e+001
 3.998089694571819e+000	 1.582807251143084e+000	 1.077414792268400e+001
 4.158050494186345e+000	 1.190059279193150e+000	 1.075659694551368e+001
 4.146290520670970e+000	 1.230406403752616e+000	 1.057163782463388e+001
 4.134108539440599e+000	 1.270736630591519e+000	 1.051020816588165e+001
 4.121503292302855e+000	 1.311043710841926e+000	 1.056266111625416e+001
 4.108473637663178e+000	 1.351321341807455e+000	 1.061068642766992e+001
 4.095018552513700e+000	 1.391563169518405e+000	 1.065392128344387e+001
 4.081137134360011e+000	 1.431762791362815e+000	 1.069198444576486e+001
 4.066828603082779e+000	 1.471913758791889e+000	 1.072447619390119e+001
 4.052092302731094e+000	 1.512009580098101e+000	 1.075097830400406e+001
 4.036927703244575e+000	 1.552043723264134e+000	 1.077105407193204e+001
 4.021334402101221e+000	 1.592009618880696e+000	 1.078424838043580e+001
 4.182085468142476e+000	 1.196938234565087e+000	 1.072710288837399e+001
 4.170257517901614e+000	 1.237518579497549e+000	 1.054083438853967e+001
 4.158005120594816e+000	 1.278081929034749e+000	 1.052150377540680e+001
 4.145327010756917e+000	 1.318621998188129e+000	 1.057357912961761e+001
 4.132222040194549e+000	 1.359132447829537e+000	 1.062120179062776e+001
 4.118689179986494e+000	 1.399606887261122e+000	 1.066398456932208e+001
 4.104727522421620e+000	 1.440038876861605e+000	 1.070152124824966e+001
 4.090336282871229e+000	 1.480421930807344e+000	 1.073338653315563e+001
 4.075514801592792e+000	 1.520749519866489e+000	 1.075913604743569e+001
 4.060262545461995e+000	 1.561015074264399e+000	 1.077830637094800e+001
 4.044579109630118e+000	 1.601211986618317e+000	 1.079041512453106e+001
 4.206120442098111e+000	 1.203817189937011e+000	 1.069622541657793e+001
 4.194224515131673e+000	 1.244630755242650e+000	 1.050935573356460e+001
 4.181901701748377e+000	 1.285427227478289e+000	 1.053226813309960e+001
 4.169150729210273e+000	 1.326200285534745e+000	 1.058352429365014e+001
 4.155970442725177e+000	 1.366943553852094e+000	 1.063030829223538e+001
 4.142359807458537e+000	 1.407650605004338e+000	 1.067220878248163e+001
 4.128317910482487e+000	 1.448314962360878e+000	 1.070879477701713e+001
 4.113843962658969e+000	 1.488930102823224e+000	 1.073961561203531e+001
 4.098937300453828e+000	 1.529489459635205e+000	 1.076420095611168e+001
 4.083597387678821e+000	 1.569986425264854e+000	 1.078206086472156e+001
 4.067823817158510e+000	 1.610414354355949e+000	 1.079268588181735e+001
 4.230155416053255e+000	 1.210696145308922e+000	 1.066470478668286e+001
 4.218191512361147e+000	 1.251742930987919e+000	 1.048841279947687e+001
 4.205798282901285e+000	 1.292772525922139e+000	 1.054248544212091e+001
 4.192974447662923e+000	 1.333778572881773e+000	 1.059248717002966e+001
 4.179718845255071e+000	 1.374754659875128e+000	 1.063800288449466e+001
 4.166030434929832e+000	 1.415694322748053e+000	 1.067859729436682e+001
 4.151908298542612e+000	 1.456591047860634e+000	 1.071381484931242e+001
 4.137351642445993e+000	 1.497438274839530e+000	 1.074317971711408e+001
 4.122359799314200e+000	 1.538229399404250e+000	 1.076619580656258e+001
 4.106932229895052e+000	 1.578957776265498e+000	 1.078234683740029e+001
 4.091068524686397e+000	 1.619616722093591e+000	 1.079109645868545e+001
 4.254190390007903e+000	 1.217575100680821e+000	 1.063328097596297e+001
 4.242158509590039e+000	 1.258855106733357e+000	 1.049976503412779e+001
 4.229694864053536e+000	 1.300117824366298e+000	 1.055213930577385e+001
 4.216798166114867e+000	 1.341356860229214e+000	 1.060045756063252e+001
 4.203467247784223e+000	 1.382565765898636e+000	 1.064428159998690e+001
 4.189701062400376e+000	 1.423738040492267e+000	 1.068315239777988e+001
 4.175498686601996e+000	 1.464867133360872e+000	 1.071659004498791e+001
 4.160859322232307e+000	 1.505946446856262e+000	 1.074409373936686e+001
 4.145782298173908e+000	 1.546969339173621e+000	 1.076514182213255e+001
 4.130267072110688e+000	 1.587929127266332e+000	 1.077919186305119e+001
 4.114313232213778e+000	 1.628819089831244e+000	 1.078568079531948e+001
 4.278225363962058e+000	 1.224454056052707e+000	 1.060269369025438e+001
 4.266125506818345e+000	 1.265967282478963e+000	 1.051096531016693e+001
 4.253591445205132e+000	 1.307463122810768e+000	 1.056121274435388e+001
 4.240621884566103e+000	 1.348935147577067e+000	 1.060742452887627e+001
 4.227215650312640e+000	 1.390376871922621e+000	 1.064913957769924e+001
 4.213371689870171e+000	 1.431781758236980e+000	 1.068587533717993e+001
 4.199089074660639e+000	 1.473143218861593e+000	 1.071712774126145e+001
 4.184367002017906e+000	 1.514454618873418e+000	 1.074237121337180e+001
 4.169204797032951e+000	 1.555709278943321e+000	 1.076105871660818e+001
 4.153601914325729e+000	 1.596900478267356e+000	 1.077262185369658e+001
 4.137557939740653e+000	 1.638021457568906e+000	 1.077647101811849e+001
 4.302260337915721e+000	 1.231333011424581e+000	 1.057368237153716e+001
 4.290092504046069e+000	 1.273079458224736e+000	 1.052199022431371e+001
 4.277488026356076e+000	 1.314808421255548e+000	 1.056968821143381e+001
 4.264445603016635e+000	 1.356513434925334e+000	 1.061337642034702e+001
 4.250964052840319e+000	 1.398187977947081e+000	 1.065257108798538e+001
 4.237042317339218e+000	 1.439825475982193e+000	 1.068676633796626e+001
 4.222679462718540e+000	 1.481419304362795e+000	 1.071543414630946e+001
 4.207874681802794e+000	 1.522962790891000e+000	 1.073802435519855e+001
 4.192627295891330e+000	 1.564449218713350e+000	 1.075396473638486e+001
 4.176936756540174e+000	 1.605871829268569e+000	 1.076266110573999e+001
 4.160802647267024e+000	 1.647223825306579e+000	 1.076349749036083e+001
 4.326295311868889e+000	 1.238211966796443e+000	 1.054698620526464e+001
 4.314059501273209e+000	 1.280191633970678e+000	 1.053281596945079e+001
 4.301384607506363e+000	 1.322153719700637e+000	 1.057754760960613e+001
 4.288269321466461e+000	 1.364091722274012e+000	 1.061830088273914e+001
 4.274712455367262e+000	 1.405999083972017e+000	 1.065456955669433e+001
 4.260712944807515e+000	 1.447869193727904e+000	 1.068582463478559e+001
 4.246269850775702e+000	 1.489695389864481e+000	 1.071151433174035e+001
 4.231382361586969e+000	 1.531470962909008e+000	 1.073106409903338e+001
 4.216049794749047e+000	 1.573189158483706e+000	 1.074387670122766e+001
 4.200271598754028e+000	 1.614843180269973e+000	 1.074933234484447e+001
 4.184047354792891e+000	 1.656426193044263e+000	 1.074678886117972e+001
 3.951600279511499e+000	 1.564402515667893e+000	 1.074198501763208e+001
 3.935855846239047e+000	 1.603601807705202e+000	 1.081778382069876e+001
 3.919689736435062e+000	 1.642721026262243e+000	 1.088009140172471e+001
 3.903101939481164e+000	 1.681753623468193e+000	 1.092784467551642e+001
 3.886092575776805e+000	 1.720693026811101e+000	 1.095996272918160e+001
 3.868661897952027e+000	 1.759532642309954e+000	 1.097534769475444e+001
 3.850810291991064e+000	 1.798265857740103e+000	 1.097288567859717e+001
 3.832538278264387e+000	 1.836886045909252e+000	 1.095144774728768e+001
 3.813846512466861e+000	 1.875386567981046e+000	 1.091285475751804e+001
 3.794735786459811e+000	 1.913760776843248e+000	 1.115229915143605e+001
 3.775207029014879e+000	 1.952002020517314e+000	 1.138488041742899e+001
 3.974844987041911e+000	 1.573604883405484e+000	 1.076007404781751e+001
 3.959007939455936e+000	 1.613034759513854e+000	 1.082466216476948e+001
 3.942746734888186e+000	 1.652384091121428e+000	 1.087569149262054e+001
 3.926061362657818e+000	 1.691646291840493e+000	 1.091212460802498e+001
 3.908951943872515e+000	 1.730814750497264e+000	 1.093290626241895e+001
 3.891418732648381e+000	 1.769882834322603e+000	 1.093696422861677e+001
 3.873462117240142e+000	 1.808843892196424e+000	 1.092321020423752e+001
 3.855082621079272e+000	 1.847691257942943e+000	 1.089054077172095e+001
 3.836280903717666e+000	 1.886418253673829e+000	 1.092197799325876e+001
 3.817057761674656e+000	 1.925018193176184e+000	 1.114285346497332e+001
 3.797414129185245e+000	 1.963484385342178e+000	 1.135707634843622e+001
 3.998089694571819e+000	 1.582807251143084e+000	 1.077414792268400e+001
 3.982160032672422e+000	 1.622467711322332e+000	 1.082819387299471e+001
 3.965803733341005e+000	 1.662047155980281e+000	 1.086862047729680e+001
 3.949020785834266e+000	 1.701538960212334e+000	 1.089441565730963e+001
 3.931811311968122e+000	 1.740936474182872e+000	 1.090454950046431e+001
 3.914175567344729e+000	 1.780233026334631e+000	 1.089797508061933e+001
 3.896113942489314e+000	 1.819421926652086e+000	 1.087362933568110e+001
 3.877626963894351e+000	 1.858496469975969e+000	 1.083043400193786e+001
 3.858715294968766e+000	 1.897449939365970e+000	 1.092610537654229e+001
 3.839379736889895e+000	 1.936275609508532e+000	 1.112906455799534e+001
 3.819621229356107e+000	 1.974966750166537e+000	 1.132558138068562e+001
 4.021334402101221e+000	 1.592009618880696e+000	 1.078424838043580e+001
 4.005312125888501e+000	 1.631900663130633e+000	 1.082840897717199e+001
 3.988860731793518e+000	 1.671710220838803e+000	 1.085889668847428e+001
 3.971980209010511e+000	 1.711431628583718e+000	 1.087472446938929e+001
 3.954670680063623e+000	 1.751058197867925e+000	 1.087488742006687e+001
 3.936932402041073e+000	 1.790583218346036e+000	 1.085836358073892e+001
 3.918765767738582e+000	 1.829999961107088e+000	 1.082411478369875e+001
 3.900171306709628e+000	 1.869301682008328e+000	 1.077108756213817e+001
 3.881149686220161e+000	 1.908481625057469e+000	 1.092528809727497e+001
 3.861701712105531e+000	 1.947533025840291e+000	 1.111097292457283e+001
 3.841828329527464e+000	 1.986449114990393e+000	 1.129042528575807e+001
 4.044579109630118e+000	 1.601211986618317e+000	 1.079041512453106e+001
 4.028464219104175e+000	 1.641333614938760e+000	 1.082533573570723e+001
 4.011917730245727e+000	 1.681373285696994e+000	 1.084653694779500e+001
 3.994939632186549e+000	 1.721324296954644e+000	 1.085305644236208e+001
 3.977530048159018e+000	 1.761179921552422e+000	 1.084391401394319e+001
 3.959689236737413e+000	 1.800933410356820e+000	 1.081811233942194e+001
 3.941417592987946e+000	 1.840577995561431e+000	 1.077463780452932e+001
 3.922715649525100e+000	 1.880106894040022e+000	 1.074464725929005e+001
 3.903584077471855e+000	 1.919513310748325e+000	 1.091957742183955e+001
 3.884023687321564e+000	 1.958790442171462e+000	 1.108861940102137e+001
 3.864035429699317e+000	 1.997931479813745e+000	 1.125163844326100e+001
 4.067823817158510e+000	 1.610414354355949e+000	 1.079268588181735e+001
 4.051616312319444e+000	 1.650766566746712e+000	 1.081900068428307e+001
 4.034974728697631e+000	 1.691036350554854e+000	 1.083155660899591e+001
 4.017899055362382e+000	 1.731216965325112e+000	 1.082941576206021e+001
 4.000389416254310e+000	 1.771301645236366e+000	 1.081162231889253e+001
 3.982446071433747e+000	 1.811283602366981e+000	 1.077720326814239e+001
 3.964069418237406e+000	 1.851156030015116e+000	 1.072516921286633e+001
 3.945259992340768e+000	 1.890912106071049e+000	 1.075028989515123e+001
 3.926018468723842e+000	 1.930544996438538e+000	 1.090902469091020e+001
 3.906345662537991e+000	 1.970047858502044e+000	 1.106204515612292e+001
 3.886242529871669e+000	 2.009413844636593e+000	 1.120925182345621e+001
 4.091068524686397e+000	 1.619616722093591e+000	 1.079109645868545e+001
 4.074768405534308e+000	 1.660199518554488e+000	 1.080942868479986e+001
 4.058031727149230e+000	 1.700699415412381e+000	 1.081396959961077e+001
 4.040858478538012e+000	 1.741109633695123e+000	 1.080380543648936e+001
 4.023248784349496e+000	 1.781423368919754e+000	 1.077800444295347e+001
 4.005202906130077e+000	 1.821633794376520e+000	 1.073561759925906e+001
 3.986721243486961e+000	 1.861734064468140e+000	 1.067567939440185e+001
 3.967804335156631e+000	 1.901717318101411e+000	 1.075053039139684e+001
 3.948452859976127e+000	 1.941576682128110e+000	 1.089368131734196e+001
 3.928667637754816e+000	 1.981305274832037e+000	 1.103129168168082e+001
 3.908449630044514e+000	 2.020896209458937e+000	 1.116329697047991e+001
 4.114313232213778e+000	 1.628819089831244e+000	 1.078568079531948e+001
 4.097920498748768e+000	 1.669632470362090e+000	 1.079664297265767e+001
 4.081088725600525e+000	 1.710362480269579e+000	 1.079378846125833e+001
 4.063817901713436e+000	 1.751002302064675e+000	 1.077622732910059e+001
 4.046108152444578e+000	 1.791545092602588e+000	 1.074305159164021e+001
 4.027959740826403e+000	 1.831983986385438e+000	 1.069333590519954e+001
 4.009373068736611e+000	 1.872312098920506e+000	 1.062613831794525e+001
 3.990348677972690e+000	 1.912522530131107e+000	 1.074542987767018e+001
 3.970887251228708e+000	 1.952608367817038e+000	 1.087359878413170e+001
 3.950989612972036e+000	 1.992562691161443e+000	 1.099640078339492e+001
 3.930656730217855e+000	 2.032378574280777e+000	 1.111380598613157e+001
 4.137557939740653e+000	 1.638021457568906e+000	 1.077647101811849e+001
 4.121072591962822e+000	 1.679065422169517e+000	 1.078066520244447e+001
 4.104145724051513e+000	 1.720025545126444e+000	 1.077102438857257e+001
 4.086777324888655e+000	 1.760894970433769e+000	 1.074668219094079e+001
 4.068967520539554e+000	 1.801666816284866e+000	 1.070675409329428e+001
 4.050716575522725e+000	 1.842334178393734e+000	 1.065033811699767e+001
 4.032024893986358e+000	 1.882890133372213e+000	 1.061607871515715e+001
 4.012893020788947e+000	 1.923327742160137e+000	 1.073504931499954e+001
 3.993321642481584e+000	 1.963640053505324e+000	 1.084882864244786e+001
 3.973311588189652e+000	 2.003820107490259e+000	 1.095741457204414e+001
 3.952863830391693e+000	 2.043860939102113e+000	 1.106081151420921e+001
 4.160802647267024e+000	 1.647223825306579e+000	 1.076349749036083e+001
 4.144224685176470e+000	 1.688498373976768e+000	 1.076151549209297e+001
 4.127202722502195e+000	 1.729688609982978e+000	 1.074568726682795e+001
 4.109736748063670e+000	 1.770787638802406e+000	 1.071516969172540e+001
 4.091826888634428e+000	 1.811788539966590e+000	 1.066910142358663e+001
 4.073473410219042e+000	 1.852684370401407e+000	 1.060660354220953e+001
 4.054676719236199e+000	 1.893468167823261e+000	 1.061442492723631e+001
 4.035437363605398e+000	 1.934132954188501e+000	 1.071944950050800e+001
 4.015756033734755e+000	 1.974671739192967e+000	 1.081942250972623e+001
 3.995633563407664e+000	 2.015077523818487e+000	 1.091437545496481e+001
 3.975070930566027e+000	 2.055343303922946e+000	 1.100434672536981e+001
 4.184047354792891e+000	 1.656426193044263e+000	 1.074678886117972e+001
 4.167376778389714e+000	 1.697931325783844e+000	 1.073921246556539e+001
 4.150259720952576e+000	 1.739351674839182e+000	 1.071778570831052e+001
 4.132696171238480e+000	 1.780680307170585e+000	 1.068168844987540e+001
 4.114686256729197e+000	 1.821910263647759e+000	 1.063008222920291e+001
 4.096230244915354e+000	 1.863034562408459e+000	 1.056211088223225e+001
 4.077328544486139e+000	 1.904046202273650e+000	 1.060703833147040e+001
 4.057981706422046e+000	 1.944938166216198e+000	 1.069869107196646e+001
 4.038190424988224e+000	 1.985703424879969e+000	 1.078543206782918e+001
 4.017955538626072e+000	 2.026334940146126e+000	 1.086732612781296e+001
 3.997278030740859e+000	 2.066825668743275e+000	 1.094444530249432e+001
 3.775207029014879e+000	 1.952002020517314e+000	 1.138488041742899e+001
 3.755261306457614e+000	 1.990103645605905e+000	 1.123421449906467e+001
 3.734899823209242e+000	 2.028059000775460e+000	 1.108357653686037e+001
 3.714123922224505e+000	 2.065861440270376e+000	 1.094299300407430e+001
 3.692935085323902e+000	 2.103504327454526e+000	 1.081867950046548e+001
 3.671334933419178e+000	 2.140981038377075e+000	 1.071103750456058e+001
 3.649325226630563e+000	 2.178284965358760e+000	 1.062038606142557e+001
 3.626907864294587e+000	 2.215409520594833e+000	 1.054695924740568e+001
 3.604084884861436e+000	 2.252348139770831e+000	 1.049090382886164e+001
 3.580858465680938e+000	 2.289094285687272e+000	 1.045227712451941e+001
 3.557230922676468e+000	 2.325641451889307e+000	 1.043104508054756e+001
 3.797414129185245e+000	 1.963484385342178e+000	 1.135707634843622e+001
 3.777351078847552e+000	 2.001810137636888e+000	 1.120783686532481e+001
 3.756869822167703e+000	 2.039988759601311e+000	 1.107623482070924e+001
 3.735971710000170e+000	 2.078013566387165e+000	 1.094566464539728e+001
 3.714658232882046e+000	 2.115877882319285e+000	 1.082421769038659e+001
 3.692931021259852e+000	 2.153575044482422e+000	 1.072070272135982e+001
 3.670791845607464e+000	 2.191098406328612e+000	 1.063545855506235e+001
 3.648242616433983e+000	 2.228441341301310e+000	 1.056873641840465e+001
 3.625285384180478e+000	 2.265597246472443e+000	 1.052069754039052e+001
 3.601922339004716e+000	 2.302559546188415e+000	 1.049141095260727e+001
 3.578155810453152e+000	 2.339321695721108e+000	 1.048085150760968e+001
 3.819621229356107e+000	 1.974966750166537e+000	 1.132558138068562e+001
 3.799440851238083e+000	 2.013516629667467e+000	 1.117782211651069e+001
 3.778839821126840e+000	 2.051918518426859e+000	 1.104829470480804e+001
 3.757819497776587e+000	 2.090165692503750e+000	 1.093793447495794e+001
 3.736381380441008e+000	 2.128251437183941e+000	 1.082935780842358e+001
 3.714527109101399e+000	 2.166169050587767e+000	 1.072965791719269e+001
 3.692258464585284e+000	 2.203911847298560e+000	 1.064953030477862e+001
 3.669577368574334e+000	 2.241473162007985e+000	 1.058924372002043e+001
 3.646485883500498e+000	 2.278846353174354e+000	 1.054897419040742e+001
 3.622986212329488e+000	 2.316024806689955e+000	 1.052880275980698e+001
 3.599080698230837e+000	 2.353001939553409e+000	 1.052871344931646e+001
 3.841828329527464e+000	 1.986449114990393e+000	 1.129042528575807e+001
 3.821530623629203e+000	 2.025223121697641e+000	 1.114419964744864e+001
 3.800809820086653e+000	 2.063848277252102e+000	 1.101679501780566e+001
 3.779667285553756e+000	 2.102317818620132e+000	 1.090915629320378e+001
 3.758104528000788e+000	 2.140624992048494e+000	 1.082222145591239e+001
 3.736123196943818e+000	 2.178763056693108e+000	 1.073732309019864e+001
 3.713725083564023e+000	 2.216725288268604e+000	 1.066201546625713e+001
 3.690912120715638e+000	 2.254504982714857e+000	 1.060788986122945e+001
 3.667686382821499e+000	 2.292095459876561e+000	 1.057513744172925e+001
 3.644050085655257e+000	 2.329490067191892e+000	 1.056385156774926e+001
 3.620005586009521e+000	 2.366682183386207e+000	 1.057402569513436e+001
 3.864035429699317e+000	 1.997931479813745e+000	 1.125163844326100e+001
 3.843620396020914e+000	 2.036929613727413e+000	 1.110699948832273e+001
 3.822779819047143e+000	 2.075778036077042e+000	 1.098176549569436e+001
 3.801515073331677e+000	 2.114469944736309e+000	 1.087689083985568e+001
 3.779827675561385e+000	 2.152998546912943e+000	 1.079332265677994e+001
 3.757719284787112e+000	 2.191357062798446e+000	 1.073200001507286e+001
 3.735191702543681e+000	 2.229538729238746e+000	 1.067232893755493e+001
 3.712246872857897e+000	 2.267536803421926e+000	 1.062408430872944e+001
 3.688886882143479e+000	 2.305344566579065e+000	 1.059859172818491e+001
 3.665113958982019e+000	 2.342955327694226e+000	 1.059595718029774e+001
 3.640930473789205e+000	 2.380362427219501e+000	 1.061618382590143e+001
 3.886242529871669e+000	 2.009413844636593e+000	 1.120925182345621e+001
 3.865710168413219e+000	 2.048636105756780e+000	 1.106625228652169e+001
 3.844749818008309e+000	 2.087707794901678e+000	 1.094323651632742e+001
 3.823362861110349e+000	 2.126622070852284e+000	 1.084116827668523e+001
 3.801550823122800e+000	 2.165372101777289e+000	 1.076100377332193e+001
 3.779315372631277e+000	 2.203951068903780e+000	 1.070369081659054e+001
 3.756658321524258e+000	 2.242352170208985e+000	 1.067016797729112e+001
 3.733581625001110e+000	 2.280568624129191e+000	 1.063723726529023e+001
 3.710087381466440e+000	 2.318593673281867e+000	 1.061874223258647e+001
 3.686177832309777e+000	 2.356420588196958e+000	 1.062452016119947e+001
 3.661855361569890e+000	 2.394042671053293e+000	 1.065458419121666e+001
 3.908449630044514e+000	 2.020896209458937e+000	 1.116329697047991e+001
 3.887799940806113e+000	 2.060342597785744e+000	 1.102198928910467e+001
 3.866719816970153e+000	 2.099637553726011e+000	 1.090123908118457e+001
 3.845210648889776e+000	 2.138774196968054e+000	 1.080201941118683e+001
 3.823273970685031e+000	 2.177745656641532e+000	 1.072529547071863e+001
 3.800911460476317e+000	 2.216545075009111e+000	 1.067202373298784e+001
 3.778124940505752e+000	 2.255165611179321e+000	 1.064315110053299e+001
 3.754916377145277e+000	 2.293600444836655e+000	 1.063961404702631e+001
 3.731287880790379e+000	 2.331842779984966e+000	 1.063499486545113e+001
 3.707241705638529e+000	 2.369885848700087e+000	 1.064894181249729e+001
 3.682780249351574e+000	 2.407722914887582e+000	 1.068862388760012e+001
 3.930656730217855e+000	 2.032378574280777e+000	 1.111380598613157e+001
 3.909889713199599e+000	 2.072049089814303e+000	 1.097424232586142e+001
 3.888689815932672e+000	 2.111567312550039e+000	 1.085580479775530e+001
 3.867058436669952e+000	 2.150926323083621e+000	 1.075947567833694e+001
 3.844997118248081e+000	 2.190119211505671e+000	 1.068622906127971e+001
 3.822507548322229e+000	 2.229139081114439e+000	 1.063703000379457e+001
 3.799591559488166e+000	 2.267979052149753e+000	 1.061283366644035e+001
 3.776251129290399e+000	 2.306632265544315e+000	 1.061458444716583e+001
 3.752488380115298e+000	 2.345091886688362e+000	 1.064321511043068e+001
 3.728305578968275e+000	 2.383351109203613e+000	 1.066862415367403e+001
 3.703705137134258e+000	 2.421403158722369e+000	 1.071770073739358e+001
 3.952863830391693e+000	 2.043860939102113e+000	 1.106081151420921e+001
 3.931979485593676e+000	 2.083755581842459e+000	 1.092304379294342e+001
 3.910659814895868e+000	 2.123497071373763e+000	 1.080696586251621e+001
 3.888906224450881e+000	 2.163078449198984e+000	 1.071356912296816e+001
 3.866720265811948e+000	 2.202492766369706e+000	 1.064383648626644e+001
 3.844103636169014e+000	 2.241733087219764e+000	 1.059874151479763e+001
 3.821058178471498e+000	 2.280792493120282e+000	 1.057924755342971e+001
 3.797585881436475e+000	 2.319664086252172e+000	 1.058630685595762e+001
 3.773688879441198e+000	 2.358340993392056e+000	 1.062085970678484e+001
 3.749369452299018e+000	 2.396816369707536e+000	 1.068296990149968e+001
 3.724630024917941e+000	 2.435083402557653e+000	 1.074121326837216e+001
 3.975070930566027e+000	 2.055343303922946e+000	 1.100434672536981e+001
 3.954069257988343e+000	 2.095462073870210e+000	 1.086842663704376e+001
 3.932629813859740e+000	 2.135426830197184e+000	 1.075475504447879e+001
 3.910754012232562e+000	 2.175230575314143e+000	 1.066433238273416e+001
 3.888443413376632e+000	 2.214866321233638e+000	 1.059815029832320e+001
 3.865699724016673e+000	 2.254327093325085e+000	 1.055719077998905e+001
 3.842524797455749e+000	 2.293605934090909e+000	 1.054242528318980e+001
 3.818920633583504e+000	 2.332695906960226e+000	 1.055481384911231e+001
 3.794889378768076e+000	 2.371590100096046e+000	 1.059530421907174e+001
 3.770433325630755e+000	 2.410281630211857e+000	 1.066483094519119e+001
 3.745554912702627e+000	 2.448763646393434e+000	 1.075856069403958e+001
 3.997278030740859e+000	 2.066825668743275e+000	 1.094444530249432e+001
 3.976159030383603e+000	 2.107168565897559e+000	 1.081042434010432e+001
 3.954599812824289e+000	 2.147356589020302e+000	 1.069920566928574e+001
 3.932601800014995e+000	 2.187382701429100e+000	 1.061179867164244e+001
 3.910166560942136e+000	 2.227239876097467e+000	 1.054920364449468e+001
 3.887295811865205e+000	 2.266921099430403e+000	 1.051241092411590e+001
 3.863991416440920e+000	 2.306419375061632e+000	 1.050240000281296e+001
 3.840255385731489e+000	 2.345727727668478e+000	 1.052013864067300e+001
 3.816089878095935e+000	 2.384839206800335e+000	 1.056658197283846e+001
 3.791497198963488e+000	 2.423746890716576e+000	 1.064267161320898e+001
 3.766479800488311e+000	 2.462443890229713e+000	 1.074933475550699e+001
 3.557230922676468e+000	 2.325641451889307e+000	 1.043104508054756e+001
 3.533204709905683e+000	 2.361983166298250e+000	 1.057674345734701e+001
 3.508782419009181e+000	 2.398112994838169e+000	 1.073539606082191e+001
 3.483966778545826e+000	 2.434024545055289e+000	 1.090642542472976e+001
 3.458760653213694e+000	 2.469711469727998e+000	 1.108915912203420e+001
 3.433167042958189e+000	 2.505167470460532e+000	 1.123269806394343e+001
 3.407189081967098e+000	 2.540386301257156e+000	 1.109554110622726e+001
 3.380830037553034e+000	 2.575361772072695e+000	 1.097219793170369e+001
 3.354093308923843e+000	 2.610087752335312e+000	 1.086314590678607e+001
 3.326982425841761e+000	 2.644558174437430e+000	 1.076886475977694e+001
 3.299501047172259e+000	 2.678767037190700e+000	 1.068983590147071e+001
 3.578155810453152e+000	 2.339321695721108e+000	 1.048085150760968e+001
 3.553988267019065e+000	 2.375877184920824e+000	 1.063412637325255e+001
 3.529422315587982e+000	 2.412219541864152e+000	 1.080129947857468e+001
 3.504460700769116e+000	 2.448342336494647e+000	 1.098179041080412e+001
 3.479106304111708e+000	 2.484239184254102e+000	 1.117492119046804e+001
 3.453362143207897e+000	 2.519903749697368e+000	 1.118665074058219e+001
 3.427231370681873e+000	 2.555329750087556e+000	 1.105887179824449e+001
 3.400717273065733e+000	 2.590510958967459e+000	 1.094496735255526e+001
 3.373823269562664e+000	 2.625441209703058e+000	 1.084541812130968e+001
 3.346552910698207e+000	 2.660114398994963e+000	 1.076070750813515e+001
 3.318909876860575e+000	 2.694524490353718e+000	 1.069132091675716e+001
 3.599080698230837e+000	 2.353001939553409e+000	 1.052871344931646e+001
 3.574771824133441e+000	 2.389771203543980e+000	 1.068935444520390e+001
 3.550062212167763e+000	 2.426326088890771e+000	 1.086486512283589e+001
 3.524954622993362e+000	 2.462660127934669e+000	 1.105466229471049e+001
 3.499451955010642e+000	 2.498766898780868e+000	 1.125806255800960e+001
 3.473557243458482e+000	 2.534640028934829e+000	 1.113817710516184e+001
 3.447273659397470e+000	 2.570273198918516e+000	 1.101980526828442e+001
 3.420604508579188e+000	 2.605660145862692e+000	 1.091536318079091e+001
 3.393553230202165e+000	 2.640794667071146e+000	 1.082533496428330e+001
 3.366123395555250e+000	 2.675670623552684e+000	 1.075020775945064e+001
 3.338318706549391e+000	 2.710281943516740e+000	 1.069047103393543e+001
 3.620005586009521e+000	 2.366682183386207e+000	 1.057402569513436e+001
 3.595555381248813e+000	 2.403665222167719e+000	 1.074181917405193e+001
 3.570702108748524e+000	 2.440432635918028e+000	 1.092548154333312e+001
 3.545448545218561e+000	 2.476977919375354e+000	 1.112442701496838e+001
 3.519797605910497e+000	 2.513294613308291e+000	 1.120979174049759e+001
 3.493752343709943e+000	 2.549376308172915e+000	 1.108736052769103e+001
 3.467315948113888e+000	 2.585216647750037e+000	 1.097842524267491e+001
 3.440491744093401e+000	 2.620809332758390e+000	 1.088346944140727e+001
 3.413283190842348e+000	 2.656148124439577e+000	 1.080298070189590e+001
 3.385693880412889e+000	 2.691226848110592e+000	 1.073744996387306e+001
 3.357727536238708e+000	 2.726039396679764e+000	 1.068737083019914e+001
 3.640930473789205e+000	 2.380362427219501e+000	 1.061618382590143e+001
 3.616338938365180e+000	 2.417559240792040e+000	 1.079091284686056e+001
 3.591342005330266e+000	 2.454539182945925e+000	 1.098253807054895e+001
 3.565942467444719e+000	 2.491295710816703e+000	 1.119047128509650e+001
 3.540143256811271e+000	 2.527822327836374e+000	 1.114729101206993e+001
 3.513947443962280e+000	 2.564112587411626e+000	 1.103428514078049e+001
 3.487358236831126e+000	 2.600160096582118e+000	 1.093481620370887e+001
 3.460378979608368e+000	 2.635958519654555e+000	 1.084937090844000e+001
 3.433013151483213e+000	 2.671501581808350e+000	 1.077844034216329e+001
 3.405264365271124e+000	 2.706783072668689e+000	 1.072251930588317e+001
 3.377136365928527e+000	 2.741796849842790e+000	 1.068210560929706e+001
 3.661855361569890e+000	 2.394042671053293e+000	 1.065458419121666e+001
 3.637122495482541e+000	 2.431453259416944e+000	 1.083602851444350e+001
 3.611981901912987e+000	 2.468645729974458e+000	 1.103542479341365e+001
 3.586436389671830e+000	 2.505613502258716e+000	 1.119921297972266e+001
 3.560488907712968e+000	 2.542350042365117e+000	 1.108258053039159e+001
 3.534142544215492e+000	 2.578848866650963e+000	 1.097903581785443e+001
 3.507400525549186e+000	 2.615103545414763e+000	 1.088906336804532e+001
 3.480266215124092e+000	 2.651107706551187e+000	 1.081315308356282e+001
 3.452743112124757e+000	 2.686855039177465e+000	 1.075179961373303e+001
 3.424834850129956e+000	 2.722339297226972e+000	 1.070550168331200e+001
 3.396545195618846e+000	 2.757554303005819e+000	 1.067476138077432e+001
 3.682780249351574e+000	 2.407722914887582e+000	 1.068862388760012e+001
 3.657906052600898e+000	 2.445347278042430e+000	 1.087655996966681e+001
 3.632621798496690e+000	 2.482752277003630e+000	 1.108353253775838e+001
 3.606930311899896e+000	 2.519931293701393e+000	 1.112290730553869e+001
 3.580834558615584e+000	 2.556877756894518e+000	 1.101574549308022e+001
 3.554337644469579e+000	 2.593585145890925e+000	 1.092169815210469e+001
 3.527442814268066e+000	 2.630046994247966e+000	 1.084125266584672e+001
 3.500153450640571e+000	 2.666256893448285e+000	 1.077490217541585e+001
 3.472473072766985e+000	 2.702208496546922e+000	 1.072314494541197e+001
 3.444405334989382e+000	 2.737895521785442e+000	 1.068648368707520e+001
 3.415954025309669e+000	 2.773311756168852e+000	 1.066542483992147e+001
 3.703705137134258e+000	 2.421403158722369e+000	 1.071770073739358e+001
 3.678689609720249e+000	 2.459241296668499e+000	 1.091190172648693e+001
 3.653261695081372e+000	 2.496858824033440e+000	 1.112625284549882e+001
 3.627424234128919e+000	 2.534249085144733e+000	 1.104452054676465e+001
 3.601180209519121e+000	 2.571405471424580e+000	 1.094687180300861e+001
 3.574532744724543e+000	 2.608321425131512e+000	 1.086235843615834e+001
 3.547485102987768e+000	 2.644990443081732e+000	 1.079147072062345e+001
 3.520040686157808e+000	 2.681406080345850e+000	 1.073470507963490e+001
 3.492203033409893e+000	 2.717561953916722e+000	 1.069256344638773e+001
 3.463975819849408e+000	 2.753451746344102e+000	 1.066555258159434e+001
 3.435362855000992e+000	 2.789069209331887e+000	 1.065418334840302e+001
 3.724630024917941e+000	 2.435083402557653e+000	 1.074121326837216e+001
 3.699473166840595e+000	 2.473135315295151e+000	 1.094144899969543e+001
 3.673901591667034e+000	 2.510965371063888e+000	 1.106489599019103e+001
 3.647918156358897e+000	 2.548566876588737e+000	 1.096413884844565e+001
 3.621525860423578e+000	 2.585933185955301e+000	 1.087604604849414e+001
 3.594727844980382e+000	 2.623057704372725e+000	 1.080110364243058e+001
 3.567527391708289e+000	 2.659933891916058e+000	 1.073980482975781e+001
 3.539927921675801e+000	 2.696555267243883e+000	 1.069264935955374e+001
 3.511932994053483e+000	 2.732915411286863e+000	 1.066014288711687e+001
 3.483546304710028e+000	 2.769007970902949e+000	 1.064279628587825e+001
 3.454771684692816e+000	 2.804826662494924e+000	 1.064112491553918e+001
 3.745554912702627e+000	 2.448763646393434e+000	 1.075856069403958e+001
 3.720256723961937e+000	 2.487029333922384e+000	 1.096459768534250e+001
 3.694541488253677e+000	 2.525071918094974e+000	 1.097301343602536e+001
 3.668412078589830e+000	 2.562884668033404e+000	 1.088184902716877e+001
 3.641871511328957e+000	 2.600460900486682e+000	 1.080335548415230e+001
 3.614922945237098e+000	 2.637793983614563e+000	 1.073802140413628e+001
 3.587569680429633e+000	 2.674877340750946e+000	 1.068634294568073e+001
 3.559815157194549e+000	 2.711704454142382e+000	 1.064882322755346e+001
 3.531662954697752e+000	 2.748268868657348e+000	 1.062597168085370e+001
 3.503116789571245e+000	 2.784564195461981e+000	 1.061830335523845e+001
 3.474180514385142e+000	 2.820584115657964e+000	 1.062633818021487e+001
 3.766479800488311e+000	 2.462443890229713e+000	 1.074933475550699e+001
 3.741040281084275e+000	 2.500923352550201e+000	 1.097297108244520e+001
 3.715181384841300e+000	 2.539178465126699e+000	 1.087926045071428e+001
 3.688906000821719e+000	 2.577202459478736e+000	 1.079773855240912e+001
 3.662217162235255e+000	 2.614988615018722e+000	 1.072888801238837e+001
 3.635118045494690e+000	 2.652530262857026e+000	 1.067319999693446e+001
 3.607611969151798e+000	 2.689820789586394e+000	 1.063117365767603e+001
 3.579702392714054e+000	 2.726853641041348e+000	 1.060331552703325e+001
 3.551392915342705e+000	 2.763622326028175e+000	 1.059013886579478e+001
 3.522687274433059e+000	 2.800120420021205e+000	 1.059216296361408e+001
 3.493589344077969e+000	 2.836341568821007e+000	 1.060991239339181e+001
 3.299501047172259e+000	 2.678767037190700e+000	 1.068983590147071e+001
 3.271652959324307e+000	 2.712708409240331e+000	 1.069004568237567e+001
 3.243442074581433e+000	 2.746376432436798e+000	 1.069043628863454e+001
 3.214872429326423e+000	 2.779765325159458e+000	 1.069118599417984e+001
 3.185948182162389e+000	 2.812869385587000e+000	 1.069248559825979e+001
 3.156673611930151e+000	 2.845682994912844e+000	 1.069453793264119e+001
 3.127053115624468e+000	 2.878200620501057e+000	 1.069755732429450e+001
 3.097091206211275e+000	 2.910416818979073e+000	 1.072078297300212e+001
 3.066792510348125e+000	 2.942326239263588e+000	 1.074807287740720e+001
 3.036161766010286e+000	 2.973923625516154e+000	 1.077833415070384e+001
 3.005203820025000e+000	 3.005203820025000e+000	 1.081183799736236e+001
 3.318909876860575e+000	 2.694524490353718e+000	 1.069132091675716e+001
 3.290897976731710e+000	 2.728665517534071e+000	 1.069561947313963e+001
 3.262521145608556e+000	 2.762531587926649e+000	 1.069960787729012e+001
 3.233783443617327e+000	 2.796116885901280e+000	 1.070346133504825e+001
 3.204689053823507e+000	 2.829415676096524e+000	 1.070736844798462e+001
 3.175242280237567e+000	 2.862422306653998e+000	 1.071153071955481e+001
 3.145447545718942e+000	 2.895131212392854e+000	 1.071616201504002e+001
 3.115309389780423e+000	 2.927536917920682e+000	 1.072731816741210e+001
 3.084832466295199e+000	 2.959634040677222e+000	 1.075266102903484e+001
 3.054021541108976e+000	 2.991417293907330e+000	 1.078053952101467e+001
 3.022881489559751e+000	 3.022881489559750e+000	 1.081122716884211e+001
 3.338318706549391e+000	 2.710281943516740e+000	 1.069047103393543e+001
 3.310142994139513e+000	 2.744622625827627e+000	 1.069873550301646e+001
 3.281600216635980e+000	 2.778686743416163e+000	 1.070620025181325e+001
 3.252694457908432e+000	 2.812468446642638e+000	 1.071303758228828e+001
 3.223429925484727e+000	 2.845961966605489e+000	 1.071943406726197e+001
 3.193810948544984e+000	 2.879161618394527e+000	 1.072559005529703e+001
 3.163841975813316e+000	 2.912061804283989e+000	 1.073171912766047e+001
 3.133527573349372e+000	 2.944657016861628e+000	 1.073804750865162e+001
 3.102872422241972e+000	 2.976941842090219e+000	 1.075684391944266e+001
 3.071881316207268e+000	 3.008910962297920e+000	 1.078221200874524e+001
 3.040559159093999e+000	 3.040559159093999e+000	 1.080996211974197e+001
 3.357727536238708e+000	 2.726039396679764e+000	 1.068737083019914e+001
 3.329388011547718e+000	 2.760579734121002e+000	 1.069948059196023e+001
 3.300679287663705e+000	 2.794841898905339e+000	 1.071030230585199e+001
 3.271605472199738e+000	 2.828820007383533e+000	 1.072000553355378e+001
 3.242170797146046e+000	 2.862508257113895e+000	 1.072877498758115e+001
 3.212379616852402e+000	 2.895900930134435e+000	 1.073681003467963e+001
 3.182236405907591e+000	 2.928992396174468e+000	 1.074432414957417e+001
 3.151745756918121e+000	 2.961777115801909e+000	 1.075154432037166e+001
 3.120912378188446e+000	 2.994249643502574e+000	 1.076062666034423e+001
 3.089741091305159e+000	 3.026404630687927e+000	 1.078335778088922e+001
 3.058236828627750e+000	 3.058236828627750e+000	 1.080804995198955e+001
 3.377136365928527e+000	 2.741796849842790e+000	 1.068210560929706e+001
 3.348633028956324e+000	 2.776536842414193e+000	 1.069794222849032e+001
 3.319758358691729e+000	 2.810997054394176e+000	 1.071200354595369e+001
 3.290516486491244e+000	 2.845171568123966e+000	 1.072445654608580e+001
 3.260911668807467e+000	 2.879054547621742e+000	 1.073548424908883e+001
 3.230948285159820e+000	 2.912640241873717e+000	 1.074528521265122e+001
 3.200630836001766e+000	 2.945922988064285e+000	 1.075407298225065e+001
 3.169963940486670e+000	 2.978897214741524e+000	 1.076207549138381e+001
 3.138952334134619e+000	 3.011557444914291e+000	 1.076953441320433e+001
 3.107600866402650e+000	 3.043898299077347e+000	 1.078398329507593e+001
 3.075914498161000e+000	 3.075914498161000e+000	 1.080549802202620e+001
 3.396545195618846e+000	 2.757554303005819e+000	 1.067476138077432e+001
 3.367878046365330e+000	 2.792493950707203e+000	 1.069420855058954e+001
 3.338837429720058e+000	 2.827152209882677e+000	 1.071139407405359e+001
 3.309427500782953e+000	 2.861523128863934e+000	 1.072648252072430e+001
 3.279652540468988e+000	 2.895600838129032e+000	 1.073965538605585e+001
 3.249516953467239e+000	 2.929379553612376e+000	 1.075111059115046e+001
 3.219025266095842e+000	 2.962853579953444e+000	 1.076106192938062e+001
 3.188182124055020e+000	 2.996017313680476e+000	 1.076973846119909e+001
 3.156992290080493e+000	 3.028865246325366e+000	 1.077738385863258e+001
 3.125460641499740e+000	 3.061391967466183e+000	 1.078425570112928e+001
 3.093592167693749e+000	 3.093592167693749e+000	 1.080231393353519e+001
 3.415954025309669e+000	 2.773311756168852e+000	 1.066542483992147e+001
 3.387123063774741e+000	 2.808451059000032e+000	 1.068836832725343e+001
 3.357916500748686e+000	 2.843307365370840e+000	 1.070856457056043e+001
 3.328338515074862e+000	 2.877874689603440e+000	 1.072617588646501e+001
 3.298393412130610e+000	 2.912147128635764e+000	 1.074138241283971e+001
 3.268085621774659e+000	 2.946118865350410e+000	 1.075438160640747e+001
 3.237419696189817e+000	 2.979784171841943e+000	 1.076538768544923e+001
 3.206400307623169e+000	 3.013137412618762e+000	 1.077463101894662e+001
 3.175032246026067e+000	 3.046173047735802e+000	 1.078235746367093e+001
 3.143320416596433e+000	 3.078885635854434e+000	 1.078882765090910e+001
 3.111269837226000e+000	 3.111269837226000e+000	 1.079850553041782e+001
 3.435362855000992e+000	 2.789069209331887e+000	 1.065418334840302e+001
 3.406368081184549e+000	 2.824408167292675e+000	 1.068051094066510e+001
 3.376995571777615e+000	 2.859462520858666e+000	 1.070360627801532e+001
 3.347249529366973e+000	 2.894226250342483e+000	 1.072362958553983e+001
 3.317134283792334e+000	 2.928693419141936e+000	 1.074075981032277e+001
 3.286654290082080e+000	 2.962858177087821e+000	 1.075519411667573e+001
 3.255814126283694e+000	 2.996714763729783e+000	 1.076714732469667e+001
 3.224618491191120e+000	 3.030257511556385e+000	 1.077685129349746e+001
 3.193072201971343e+000	 3.063480849145600e+000	 1.078455425062735e+001
 3.161180191692723e+000	 3.096379304242100e+000	 1.079052006940365e+001
 3.128947506757750e+000	 3.128947506757750e+000	 1.078816976039533e+001
 3.454771684692816e+000	 2.804826662494924e+000	 1.064112491553918e+001
 3.425613098594761e+000	 2.840365275585138e+000	 1.067072636897079e+001
 3.396074642806846e+000	 2.875617676346153e+000	 1.069661098530160e+001
 3.366160543659284e+000	 2.910577811081063e+000	 1.071893705900002e+001
 3.335875155454158e+000	 2.945239709647550e+000	 1.073788251280758e+001
 3.305222958389500e+000	 2.979597488824607e+000	 1.075364439037749e+001
 3.274208556377471e+000	 3.013645355616964e+000	 1.076643829045088e+001
 3.242836674758870e+000	 3.047377610493343e+000	 1.077649774392130e+001
 3.211112157916316e+000	 3.080788650554756e+000	 1.078407353533110e+001
 3.179039966788615e+000	 3.113872972629181e+000	 1.078943297053270e+001
 3.146625176289000e+000	 3.146625176289000e+000	 1.075649416892077e+001
 3.474180514385142e+000	 2.820584115657964e+000	 1.062633818021487e+001
 3.444858116005373e+000	 2.856322383877417e+000	 1.065910516963294e+001
 3.415153713836379e+000	 2.891772831833303e+000	 1.068767101238379e+001
 3.385071557951797e+000	 2.926929371819181e+000	 1.071219223278275e+001
 3.354616027116084e+000	 2.961786000152606e+000	 1.073284589535154e+001
 3.323791626696921e+000	 2.996336800560770e+000	 1.074982909464649e+001
 3.292602986471148e+000	 3.030575947503486e+000	 1.076335838481786e+001
 3.261054858326421e+000	 3.064497709429636e+000	 1.077366915026299e+001
 3.229152113860990e+000	 3.098096451963273e+000	 1.078101491893382e+001
 3.196899741884107e+000	 3.131366641015677e+000	 1.077626399107843e+001
 3.164302845819750e+000	 3.164302845819750e+000	 1.072395825854341e+001
 3.493589344077969e+000	 2.836341568821007e+000	 1.060991239339181e+001
 3.464103133416387e+000	 2.872279492169516e+000	 1.064573846333799e+001
 3.434232784866212e+000	 2.907927987320115e+000	 1.067687919555539e+001
 3.403982572244511e+000	 2.943280932556834e+000	 1.070348950424199e+001
 3.373356898778110e+000	 2.978332290657103e+000	 1.072574576152373e+001
 3.342360295004344e+000	 3.013076112296310e+000	 1.074384528425275e+001
 3.310997416564726e+000	 3.047506539389349e+000	 1.075800575871563e+001
 3.279273041893773e+000	 3.081617808365265e+000	 1.076846460462662e+001
 3.247192069805366e+000	 3.115404253371150e+000	 1.077547827998391e+001
 3.214759516979199e+000	 3.148860309401589e+000	 1.074532402369970e+001
 3.181980515350000e+000	 3.181980515350000e+000	 1.069059788862695e+001
 3.005203820025000e+000	 3.005203820025000e+000	 1.081183799736236e+001
 2.973923625516154e+000	 3.036161766010285e+000	 1.077416654814349e+001
 2.942326239263588e+000	 3.066792510348125e+000	 1.075247185080844e+001
 2.910416818979071e+000	 3.097091206211275e+000	 1.074734208409237e+001
 2.878200620501058e+000	 3.127053115624469e+000	 1.075273543706122e+001
 2.845682994912843e+000	 3.156673611930151e+000	 1.067790147800237e+001
 2.812869385587000e+000	 3.185948182162389e+000	 1.060450254375537e+001
 2.779765325159459e+000	 3.214872429326423e+000	 1.053173457761417e+001
 2.746376432436797e+000	 3.243442074581434e+000	 1.045877423500400e+001
 2.712708409240331e+000	 3.271652959324307e+000	 1.038478122138466e+001
 2.678767037190700e+000	 3.299501047172260e+000	 1.030890068539403e+001
 3.022881489559751e+000	 3.022881489559750e+000	 1.081122716884211e+001
 2.991417293907329e+000	 3.054021541108976e+000	 1.077689032943840e+001
 2.959634040677222e+000	 3.084832466295199e+000	 1.075927229402311e+001
 2.927536917920681e+000	 3.115309389780423e+000	 1.075897539651631e+001
 2.895131212392853e+000	 3.145447545718942e+000	 1.071312235645902e+001
 2.862422306653998e+000	 3.175242280237567e+000	 1.064268798172144e+001
 2.829415676096524e+000	 3.204689053823507e+000	 1.057441216178632e+001
 2.796116885901280e+000	 3.233783443617327e+000	 1.050746725766260e+001
 2.762531587926648e+000	 3.262521145608556e+000	 1.044100510477955e+001
 2.728665517534071e+000	 3.290897976731710e+000	 1.037415940506079e+001
 2.694524490353718e+000	 3.318909876860575e+000	 1.030604817643123e+001
 3.040559159093999e+000	 3.040559159093999e+000	 1.080996211974197e+001
 3.008910962297920e+000	 3.071881316207268e+000	 1.077903826778014e+001
 2.976941842090219e+000	 3.102872422241972e+000	 1.076556832547881e+001
 2.944657016861627e+000	 3.133527573349372e+000	 1.074684042988703e+001
 2.912061804283990e+000	 3.163841975813316e+000	 1.067731568787363e+001
 2.879161618394527e+000	 3.193810948544984e+000	 1.061150160730559e+001
 2.845961966605489e+000	 3.223429925484727e+000	 1.054857063294076e+001
 2.812468446642638e+000	 3.252694457908431e+000	 1.048767105744174e+001
 2.778686743416162e+000	 3.281600216635980e+000	 1.042792940188334e+001
 2.744622625827627e+000	 3.310142994139513e+000	 1.036845286282535e+001
 2.710281943516740e+000	 3.338318706549391e+000	 1.030833181902777e+001
 3.058236828627750e+000	 3.058236828627750e+000	 1.080804995198955e+001
 3.026404630687927e+000	 3.089741091305159e+000	 1.078061492837570e+001
 2.994249643502575e+000	 3.120912378188445e+000	 1.077136208877387e+001
 2.961777115801909e+000	 3.151745756918122e+000	 1.071047948683973e+001
 2.928992396174468e+000	 3.182236405907591e+000	 1.064504784981761e+001
 2.895900930134435e+000	 3.212379616852402e+000	 1.058407594594281e+001
 2.862508257113895e+000	 3.242170797146047e+000	 1.052671297041521e+001
 2.828820007383534e+000	 3.271605472199738e+000	 1.047208265837190e+001
 2.794841898905339e+000	 3.300679287663704e+000	 1.041928571885281e+001
 2.760579734121003e+000	 3.329388011547718e+000	 1.036740233770550e+001
 2.726039396679764e+000	 3.357727536238708e+000	 1.031549474235964e+001
 3.075914498161000e+000	 3.075914498161000e+000	 1.080549802202620e+001
 3.043898299077347e+000	 3.107600866402649e+000	 1.078162517440813e+001
 3.011557444914291e+000	 3.138952334134619e+000	 1.074434271611329e+001
 2.978897214741524e+000	 3.169963940486671e+000	 1.067716911681925e+001
 2.945922988064285e+000	 3.200630836001766e+000	 1.061605167199995e+001
 2.912640241873717e+000	 3.230948285159820e+000	 1.056014503197862e+001
 2.879054547621743e+000	 3.260911668807467e+000	 1.050857465961168e+001
 2.845171568123966e+000	 3.290516486491244e+000	 1.046043924020226e+001
 2.810997054394177e+000	 3.319758358691731e+000	 1.041481316974338e+001
 2.776536842414193e+000	 3.348633028956324e+000	 1.037074911449378e+001
 2.741796849842790e+000	 3.377136365928527e+000	 1.032728063466808e+001
 3.093592167693749e+000	 3.093592167693749e+000	 1.080231393353519e+001
 3.061391967466183e+000	 3.125460641499740e+000	 1.078113609107487e+001
 3.028865246325367e+000	 3.156992290080494e+000	 1.071005504696624e+001
 2.996017313680475e+000	 3.188182124055019e+000	 1.064664155982246e+001
 2.962853579953444e+000	 3.219025266095841e+000	 1.059006038357751e+001
 2.929379553612376e+000	 3.249516953467239e+000	 1.053944333025446e+001
 2.895600838129033e+000	 3.279652540468989e+000	 1.049389164464611e+001
 2.861523128863935e+000	 3.309427500782953e+000	 1.045247846677285e+001
 2.827152209882678e+000	 3.338837429720058e+000	 1.041425137522802e+001
 2.792493950707203e+000	 3.367878046365331e+000	 1.037823500426915e+001
 2.757554303005820e+000	 3.396545195618847e+000	 1.034343372728641e+001
 3.111269837226000e+000	 3.111269837226000e+000	 1.079850553041782e+001
 3.078885635854434e+000	 3.143320416596433e+000	 1.074596445720528e+001
 3.046173047735802e+000	 3.175032246026067e+000	 1.067806265579026e+001
 3.013137412618761e+000	 3.206400307623170e+000	 1.061862941104321e+001
 2.979784171841943e+000	 3.237419696189817e+000	 1.056680760180710e+001
 2.946118865350409e+000	 3.268085621774659e+000	 1.052170572387768e+001
 2.912147128635763e+000	 3.298393412130610e+000	 1.048240031531673e+001
 2.877874689603441e+000	 3.328338515074862e+000	 1.044793847226198e+001
 2.843307365370841e+000	 3.357916500748686e+000	 1.041734044820457e+001
 2.808451059000031e+000	 3.387123063774740e+000	 1.038960232944563e+001
 2.773311756168852e+000	 3.415954025309669e+000	 1.036369877921121e+001
 3.128947506757750e+000	 3.128947506757750e+000	 1.078816976039533e+001
 3.096379304242098e+000	 3.161180191692723e+000	 1.071260297211649e+001
 3.063480849145600e+000	 3.193072201971341e+000	 1.064809767278595e+001
 3.030257511556384e+000	 3.224618491191119e+000	 1.059286561083854e+001
 2.996714763729783e+000	 3.255814126283694e+000	 1.054602732108227e+001
 2.962858177087820e+000	 3.286654290082079e+000	 1.050666750240611e+001
 2.928693419141936e+000	 3.317134283792334e+000	 1.047383749451410e+001
 2.894226250342483e+000	 3.347249529366971e+000	 1.044655784789989e+001
 2.859462520858665e+000	 3.376995571777615e+000	 1.042382097989126e+001
 2.824408167292675e+000	 3.406368081184549e+000	 1.040459390932786e+001
 2.789069209331887e+000	 3.435362855000992e+000	 1.038782106219659e+001
 3.146625176289000e+000	 3.146625176289000e+000	 1.075649416892077e+001
 3.113872972629181e+000	 3.179039966788615e+000	 1.068078346789068e+001
 3.080788650554756e+000	 3.211112157916316e+000	 1.061989252997462e+001
 3.047377610493343e+000	 3.242836674758871e+000	 1.056908343503305e+001
 3.013645355616964e+000	 3.274208556377471e+000	 1.052745390233949e+001
 2.979597488824608e+000	 3.305222958389499e+000	 1.049406435043096e+001
 2.945239709647550e+000	 3.335875155454158e+000	 1.046794042605571e+001
 2.910577811081063e+000	 3.366160543659283e+000	 1.044807562913015e+001
 2.875617676346153e+000	 3.396074642806847e+000	 1.043343402639059e+001
 2.840365275585138e+000	 3.425613098594761e+000	 1.042295304615344e+001
 2.804826662494924e+000	 3.454771684692816e+000	 1.041554634635088e+001
 3.164302845819750e+000	 3.164302845819750e+000	 1.072395825854341e+001
 3.131366641015677e+000	 3.196899741884106e+000	 1.065117327699658e+001
 3.098096451963273e+000	 3.229152113860990e+000	 1.059317995276762e+001
 3.064497709429635e+000	 3.261054858326420e+000	 1.054701648554834e+001
 3.030575947503486e+000	 3.292602986471148e+000	 1.051082206281959e+001
 2.996336800560770e+000	 3.323791626696921e+000	 1.048363233654227e+001
 2.961786000152606e+000	 3.354616027116084e+000	 1.046444676292816e+001
 2.926929371819180e+000	 3.385071557951795e+000	 1.045223128320149e+001
 2.891772831833303e+000	 3.415153713836379e+000	 1.044592109570382e+001
 2.856322383877417e+000	 3.444858116005373e+000	 1.044442351160323e+001
 2.820584115657964e+000	 3.474180514385142e+000	 1.044662088621617e+001
 3.181980515350000e+000	 3.181980515350000e+000	 1.069059788862695e+001
 3.148860309401589e+000	 3.214759516979199e+000	 1.062306249150141e+001
 3.115404253371151e+000	 3.247192069805366e+000	 1.056769295181655e+001
 3.081617808365265e+000	 3.279273041893773e+000	 1.052639868134478e+001
 3.047506539389349e+000	 3.310997416564727e+000	 1.049586686617037e+001
 3.013076112296310e+000	 3.342360295004343e+000	 1.047510790266239e+001
 2.978332290657103e+000	 3.373356898778110e+000	 1.046309455592137e+001
 2.943280932556834e+000	 3.403982572244511e+000	 1.045876469717323e+001
 2.907927987320115e+000	 3.434232784866213e+000	 1.046102413517821e+001
 2.872279492169515e+000	 3.464103133416387e+000	 1.046874953376123e+001
 2.836341568821007e+000	 3.493589344077969e+000	 1.048079140731172e+001
 2.678767037190700e+000	 3.299501047172260e+000	 1.030890068539403e+001
 2.644558174437429e+000	 3.326982425841761e+000	 1.038941211585013e+001
 2.610087752335312e+000	 3.354093308923843e+000	 1.044753016416572e+001
 2.575361772072694e+000	 3.380830037553033e+000	 1.048209101664328e+001
 2.540386301257157e+000	 3.407189081967098e+000	 1.049194391138657e+001
 2.505167470460533e+000	 3.433167042958189e+000	 1.047595389795686e+001
 2.469711469727998e+000	 3.458760653213694e+000	 1.050293683393065e+001
 2.434024545055289e+000	 3.483966778545826e+000	 1.051861954408514e+001
 2.398112994838169e+000	 3.508782419009181e+000	 1.051370459489934e+001
 2.361983166298250e+000	 3.533204709905684e+000	 1.049067161827501e+001
 2.325641451889307e+000	 3.557230922676468e+000	 1.045200521786232e+001
 2.694524490353718e+000	 3.318909876860575e+000	 1.030604817643123e+001
 2.660114398994962e+000	 3.346552910698207e+000	 1.038831656660086e+001
 2.625441209703059e+000	 3.373823269562664e+000	 1.044751667466378e+001
 2.590510958967459e+000	 3.400717273065733e+000	 1.048242257617021e+001
 2.555329750087555e+000	 3.427231370681872e+000	 1.049182191118934e+001
 2.519903749697367e+000	 3.453362143207897e+000	 1.047451873600310e+001
 2.484239184254103e+000	 3.479106304111708e+000	 1.046485163790631e+001
 2.448342336494647e+000	 3.504460700769116e+000	 1.047517093441743e+001
 2.412219541864151e+000	 3.529422315587982e+000	 1.046386480056971e+001
 2.375877184920824e+000	 3.553988267019066e+000	 1.043345142883385e+001
 2.339321695721108e+000	 3.578155810453152e+000	 1.038645499953434e+001
 2.710281943516740e+000	 3.338318706549391e+000	 1.030833181902777e+001
 2.675670623552684e+000	 3.366123395555250e+000	 1.039194829493788e+001
 2.640794667071147e+000	 3.393553230202165e+000	 1.045183426607269e+001
 2.605660145862692e+000	 3.420604508579189e+000	 1.048670144113223e+001
 2.570273198918516e+000	 3.447273659397471e+000	 1.049527559258337e+001
 2.534640028934828e+000	 3.473557243458482e+000	 1.047629950110306e+001
 2.498766898780867e+000	 3.499451955010643e+000	 1.043123031971385e+001
 2.462660127934669e+000	 3.524954622993361e+000	 1.043520613423658e+001
 2.426326088890771e+000	 3.550062212167763e+000	 1.041652892726040e+001
 2.389771203543980e+000	 3.574771824133441e+000	 1.037775677074088e+001
 2.353001939553409e+000	 3.599080698230837e+000	 1.032145473835607e+001
 2.726039396679764e+000	 3.357727536238708e+000	 1.031549474235964e+001
 2.691226848110592e+000	 3.385693880412889e+000	 1.040006394276441e+001
 2.656148124439577e+000	 3.413283190842348e+000	 1.046025306613620e+001
 2.620809332758390e+000	 3.440491744093401e+000	 1.049471118934219e+001
 2.585216647750037e+000	 3.467315948113888e+000	 1.050210193880709e+001
 2.549376308172915e+000	 3.493752343709943e+000	 1.048110652842795e+001
 2.513294613308291e+000	 3.519797605910497e+000	 1.043042678362590e+001
 2.476977919375355e+000	 3.545448545218562e+000	 1.039911030551051e+001
 2.440432635918028e+000	 3.570702108748525e+000	 1.037208442084962e+001
 2.403665222167719e+000	 3.595555381248814e+000	 1.032397711884488e+001
 2.366682183386207e+000	 3.620005586009521e+000	 1.025739568800560e+001
 2.741796849842790e+000	 3.377136365928527e+000	 1.032728063466808e+001
 2.706783072668689e+000	 3.405264365271124e+000	 1.041242047494190e+001
 2.671501581808350e+000	 3.433013151483212e+000	 1.047254329234814e+001
 2.635958519654555e+000	 3.460378979608368e+000	 1.050623525816013e+001
 2.600160096582119e+000	 3.487358236831126e+000	 1.051209756555262e+001
 2.564112587411626e+000	 3.513947443962280e+000	 1.048874956172049e+001
 2.527822327836374e+000	 3.540143256811272e+000	 1.043483186537957e+001
 2.491295710816703e+000	 3.565942467444719e+000	 1.036726758104374e+001
 2.454539182945924e+000	 3.591342005330265e+000	 1.033091748439061e+001
 2.417559240792040e+000	 3.616338938365180e+000	 1.027250049510209e+001
 2.380362427219501e+000	 3.640930473789204e+000	 1.019466744288389e+001
 2.757554303005820e+000	 3.396545195618847e+000	 1.034343372728641e+001
 2.722339297226972e+000	 3.424834850129955e+000	 1.042877517006273e+001
 2.686855039177465e+000	 3.452743112124757e+000	 1.048847524938813e+001
 2.651107706551186e+000	 3.480266215124091e+000	 1.052105694850615e+001
 2.615103545414763e+000	 3.507400525549186e+000	 1.052505873146706e+001
 2.578848866650963e+000	 3.534142544215492e+000	 1.049903777019282e+001
 2.542350042365117e+000	 3.560488907712968e+000	 1.044157315618745e+001
 2.505613502258716e+000	 3.586436389671829e+000	 1.035126908844421e+001
 2.468645729974459e+000	 3.611981901912988e+000	 1.029341311362090e+001
 2.431453259416943e+000	 3.637122495482540e+000	 1.022371351008731e+001
 2.394042671053293e+000	 3.661855361569890e+000	 1.013365798552270e+001
 2.773311756168852e+000	 3.415954025309669e+000	 1.036369877921121e+001
 2.737895521785443e+000	 3.444405334989383e+000	 1.044888561153736e+001
 2.702208496546922e+000	 3.472473072766984e+000	 1.050781932664471e+001
 2.666256893448285e+000	 3.500153450640572e+000	 1.053895942873661e+001
 2.630046994247966e+000	 3.527442814268066e+000	 1.054078134829582e+001
 2.593585145890925e+000	 3.554337644469579e+000	 1.051177976484843e+001
 2.556877756894519e+000	 3.580834558615584e+000	 1.045047191365389e+001
 2.519931293701393e+000	 3.606930311899896e+000	 1.035540086766337e+001
 2.482752277003631e+000	 3.632621798496690e+000	 1.025995513126109e+001
 2.445347278042431e+000	 3.657906052600898e+000	 1.017800140309012e+001
 2.407722914887582e+000	 3.682780249351574e+000	 1.007475373237628e+001
 2.789069209331887e+000	 3.435362855000992e+000	 1.038782106219659e+001
 2.753451746344101e+000	 3.463975819849408e+000	 1.047250967898368e+001
 2.717561953916722e+000	 3.492203033409893e+000	 1.053034599582249e+001
 2.681406080345851e+000	 3.520040686157808e+000	 1.055972573838881e+001
 2.644990443081732e+000	 3.547485102987768e+000	 1.055906099068215e+001
 2.608321425131512e+000	 3.574532744724543e+000	 1.052678361425077e+001
 2.571405471424580e+000	 3.601180209519120e+000	 1.046134865064190e+001
 2.534249085144733e+000	 3.627424234128919e+000	 1.036123769820732e+001
 2.496858824033439e+000	 3.653261695081372e+000	 1.023092622015081e+001
 2.459241296668499e+000	 3.678689609720248e+000	 1.013574808085162e+001
 2.421403158722368e+000	 3.703705137134258e+000	 1.001833957806093e+001
 2.804826662494924e+000	 3.454771684692816e+000	 1.041554634635088e+001
 2.769007970902948e+000	 3.483546304710028e+000	 1.049940553990654e+001
 2.732915411286864e+000	 3.511932994053482e+000	 1.055582580862979e+001
 2.696555267243883e+000	 3.539927921675801e+000	 1.058313879179953e+001
 2.659933891916058e+000	 3.567527391708290e+000	 1.057969290563621e+001
 2.623057704372724e+000	 3.594727844980382e+000	 1.054385685976027e+001
 2.585933185955301e+000	 3.621525860423578e+000	 1.047402315619277e+001
 2.548566876588737e+000	 3.647918156358897e+000	 1.036861156181410e+001
 2.510965371063888e+000	 3.673901591667035e+000	 1.022607254528274e+001
 2.473135315295151e+000	 3.699473166840596e+000	 1.009733615499563e+001
 2.435083402557653e+000	 3.724630024917941e+000	 9.964798938103177e+000
 2.820584115657964e+000	 3.474180514385142e+000	 1.044662088621617e+001
 2.784564195461982e+000	 3.503116789571245e+000	 1.052933164165622e+001
 2.748268868657348e+000	 3.531662954697752e+000	 1.058402939454400e+001
 2.711704454142381e+000	 3.559815157194549e+000	 1.060898138160229e+001
 2.674877340750945e+000	 3.587569680429633e+000	 1.060247202168690e+001
 2.637793983614562e+000	 3.614922945237098e+000	 1.056280653026075e+001
 2.600460900486682e+000	 3.641871511328956e+000	 1.048831451574463e+001
 2.562884668033405e+000	 3.668412078589829e+000	 1.037735354844485e+001
 2.525071918094973e+000	 3.694541488253677e+000	 1.022831269284627e+001
 2.487029333922384e+000	 3.720256723961937e+000	 1.006314697820515e+001
 2.448763646393434e+000	 3.745554912702627e+000	 9.914513790255167e+000
 2.836341568821007e+000	 3.493589344077969e+000	 1.048079140731172e+001
 2.800120420021204e+000	 3.522687274433059e+000	 1.056204670365502e+001
 2.763622326028175e+000	 3.551392915342705e+000	 1.061472745865125e+001
 2.726853641041347e+000	 3.579702392714053e+000	 1.063703618210787e+001
 2.689820789586394e+000	 3.607611969151798e+000	 1.062719295772856e+001
 2.652530262857026e+000	 3.635118045494689e+000	 1.058343915639486e+001
 2.614988615018723e+000	 3.662217162235256e+000	 1.050404113067688e+001
 2.577202459478736e+000	 3.688906000821718e+000	 1.038729388105526e+001
 2.539178465126699e+000	 3.715181384841301e+000	 1.023152468442734e+001
 2.500923352550201e+000	 3.741040281084275e+000	 1.003509667559475e+001
 2.462443890229713e+000	 3.766479800488312e+000	 9.989028268721910e+000
 2.325641451889307e+000	 3.557230922676468e+000	 1.045200521786232e+001
 2.289094285687273e+000	 3.580858465680938e+000	 1.046450266671926e+001
 2.252348139770831e+000	 3.604084884861436e+000	 1.045716732545445e+001
 2.215409520594833e+000	 3.626907864294587e+000	 1.043216049115700e+001
 2.178284965358760e+000	 3.649325226630563e+000	 1.039163545353792e+001
 2.140981038377075e+000	 3.671334933419178e+000	 1.033773220251073e+001
 2.103504327454525e+000	 3.692935085323902e+000	 1.027257221961484e+001
 2.065861440270377e+000	 3.714123922224504e+000	 1.019825336605061e+001
 2.028059000775460e+000	 3.734899823209243e+000	 1.011684487964691e+001
 1.990103645605905e+000	 3.755261306457614e+000	 1.008772164671560e+001
 1.952002020517314e+000	 3.775207029014879e+000	 1.021496833304511e+001
 2.339321695721108e+000	 3.578155810453152e+000	 1.038645499953434e+001
 2.302559546188415e+000	 3.601922339004716e+000	 1.038374999913892e+001
 2.265597246472444e+000	 3.625285384180478e+000	 1.036031600881489e+001
 2.228441341301310e+000	 3.648242616433984e+000	 1.031839010132031e+001
 2.191098406328612e+000	 3.670791845607464e+000	 1.026020174607497e+001
 2.153575044482423e+000	 3.692931021259852e+000	 1.018796737856022e+001
 2.115877882319285e+000	 3.714658232882046e+000	 1.010388505470278e+001
 2.078013566387165e+000	 3.735971710000169e+000	 1.001012920331630e+001
 2.039988759601311e+000	 3.756869822167703e+000	 9.983461226441161e+000
 2.001810137636888e+000	 3.777351078847552e+000	 1.010017678810798e+001
 1.963484385342178e+000	 3.797414129185244e+000	 1.020832122208555e+001
 2.353001939553409e+000	 3.599080698230837e+000	 1.032145473835607e+001
 2.316024806689954e+000	 3.622986212329489e+000	 1.030321712987992e+001
 2.278846353174354e+000	 3.646485883500497e+000	 1.026335957949031e+001
 2.241473162007985e+000	 3.669577368574334e+000	 1.020419593193693e+001
 2.203911847298559e+000	 3.692258464585284e+000	 1.012803282462244e+001
 2.166169050587767e+000	 3.714527109101399e+000	 1.003716411719795e+001
 2.128251437183941e+000	 3.736381380441009e+000	 9.933865407313474e+000
 2.090165692503751e+000	 3.757819497776587e+000	 9.904400249723290e+000
 2.051918518426859e+000	 3.778839821126840e+000	 1.001154267610640e+001
 2.013516629667467e+000	 3.799440851238082e+000	 1.011014524635157e+001
 1.974966750166537e+000	 3.819621229356107e+000	 1.019951519460017e+001
 2.366682183386207e+000	 3.620005586009521e+000	 1.025739568800560e+001
 2.329490067191891e+000	 3.644050085655256e+000	 1.022328572567397e+001
 2.292095459876561e+000	 3.667686382821499e+000	 1.016666988041928e+001
 2.254504982714857e+000	 3.690912120715639e+000	 1.008993977578336e+001
 2.216725288268604e+000	 3.713725083564024e+000	 9.995480215997560e+000
 2.178763056693108e+000	 3.736123196943818e+000	 9.885663474135834e+000
 2.140624992048494e+000	 3.758104528000788e+000	 9.848302073667490e+000
 2.102317818620132e+000	 3.779667285553756e+000	 9.946774951823523e+000
 2.063848277252102e+000	 3.800809820086653e+000	 1.003677187216235e+001
 2.025223121697641e+000	 3.821530623629203e+000	 1.011757825820621e+001
 1.986449114990393e+000	 3.841828329527464e+000	 1.018850016354119e+001
 2.380362427219501e+000	 3.640930473789204e+000	 1.019466744288389e+001
 2.342955327694226e+000	 3.665113958982019e+000	 1.014433584700633e+001
 2.305344566579066e+000	 3.688886882143479e+000	 1.007061720510298e+001
 2.267536803421926e+000	 3.712246872857897e+000	 9.975981936746747e+000
 2.229538729238746e+000	 3.735191702543681e+000	 9.862894022373455e+000
 2.191357062798446e+000	 3.757719284787112e+000	 9.813022229784080e+000
 2.152998546912944e+000	 3.779827675561386e+000	 9.903671392076193e+000
 2.114469944736310e+000	 3.801515073331678e+000	 9.985942936918654e+000
 2.075778036077042e+000	 3.822779819047144e+000	 1.005910011038783e+001
 2.036929613727413e+000	 3.843620396020915e+000	 1.012242601086126e+001
 1.997931479813745e+000	 3.864035429699317e+000	 1.017522507772575e+001
 2.394042671053293e+000	 3.661855361569890e+000	 1.013365798552270e+001
 2.356420588196958e+000	 3.686177832309777e+000	 1.006674599400837e+001
 2.318593673281868e+000	 3.710087381466440e+000	 9.975570341874933e+000
 2.280568624129192e+000	 3.733581625001111e+000	 9.862681272364748e+000
 2.242352170208985e+000	 3.756658321524258e+000	 9.796513017467863e+000
 2.203951068903780e+000	 3.779315372631278e+000	 9.880123318891268e+000
 2.165372101777289e+000	 3.801550823122800e+000	 9.955490480363757e+000
 2.126622070852283e+000	 3.823362861110350e+000	 1.002185530430230e+001
 2.087707794901678e+000	 3.844749818008310e+000	 1.007847758729128e+001
 2.048636105756780e+000	 3.865710168413219e+000	 1.012463767192333e+001
 2.009413844636593e+000	 3.886242529871669e+000	 1.015963794938259e+001
 2.407722914887582e+000	 3.682780249351574e+000	 1.007475373237628e+001
 2.369885848700086e+000	 3.707241705638530e+000	 9.990893150785992e+000
 2.331842779984966e+000	 3.731287880790379e+000	 9.881896616661344e+000
 2.293600444836655e+000	 3.754916377145277e+000	 9.796827968866676e+000
 2.255165611179321e+000	 3.778124940505752e+000	 9.874120205464266e+000
 2.216545075009111e+000	 3.800911460476316e+000	 9.943341483896884e+000
 2.177745656641532e+000	 3.823273970685031e+000	 1.000371000188291e+001
 2.138774196968055e+000	 3.845210648889775e+000	 1.005446201106652e+001
 2.099637553726010e+000	 3.866719816970152e+000	 1.009485343133997e+001
 2.060342597785744e+000	 3.887799940806113e+000	 1.012416141838169e+001
 2.020896209458937e+000	 3.908449630044514e+000	 1.014168588075964e+001
 2.421403158722368e+000	 3.703705137134258e+000	 1.001833957806093e+001
 2.383351109203613e+000	 3.728305578968275e+000	 9.917152828245092e+000
 2.345091886688362e+000	 3.752488380115298e+000	 9.812126169304541e+000
 2.306632265544314e+000	 3.776251129290399e+000	 9.883754148764586e+000
 2.267979052149753e+000	 3.799591559488166e+000	 9.947522487953052e+000
 2.229139081114439e+000	 3.822507548322229e+000	 1.000262672825228e+001
 2.190119211505671e+000	 3.844997118248081e+000	 1.004827944120343e+001
 2.150926323083621e+000	 3.867058436669951e+000	 1.008371190436723e+001
 2.111567312550038e+000	 3.888689815932671e+000	 1.010817573313071e+001
 2.072049089814303e+000	 3.909889713199599e+000	 1.012094446459184e+001
 2.032378574280778e+000	 3.930656730217856e+000	 1.012131508982980e+001
 2.435083402557653e+000	 3.724630024917941e+000	 9.964798938103177e+000
 2.396816369707536e+000	 3.749369452299018e+000	 9.845899105473643e+000
 2.358340993392056e+000	 3.773688879441198e+000	 9.907224192938587e+000
 2.319664086252171e+000	 3.797585881436474e+000	 9.966164071288581e+000
 2.280792493120282e+000	 3.821058178471498e+000	 1.001666899948693e+001
 2.241733087219764e+000	 3.844103636169014e+000	 1.005792784599727e+001
 2.202492766369706e+000	 3.866720265811948e+000	 1.008914713722384e+001
 2.163078449198984e+000	 3.888906224450881e+000	 1.010955275260231e+001
 2.123497071373763e+000	 3.910659814895868e+000	 1.011839157454349e+001
 2.083755581842459e+000	 3.931979485593676e+000	 1.011493308931577e+001
 2.043860939102113e+000	 3.952863830391693e+000	 1.009847093513000e+001
 2.448763646393434e+000	 3.745554912702627e+000	 9.914513790255167e+000
 2.410281630211857e+000	 3.770433325630755e+000	 9.942840488003006e+000
 2.371590100096047e+000	 3.794889378768076e+000	 9.997505176308000e+000
 2.332695906960225e+000	 3.818920633583504e+000	 1.004400580754666e+001
 2.293605934090909e+000	 3.842524797455749e+000	 1.008150764015520e+001
 2.254327093325085e+000	 3.865699724016673e+000	 1.010919245554258e+001
 2.214866321233638e+000	 3.888443413376632e+000	 1.012626031517361e+001
 2.175230575314143e+000	 3.910754012232561e+000	 1.013193127554442e+001
 2.135426830197184e+000	 3.932629813859740e+000	 1.012544705691789e+001
 2.095462073870210e+000	 3.954069257988343e+000	 1.010607266185584e+001
 2.055343303922946e+000	 3.975070930566027e+000	 1.007309793976789e+001
 2.462443890229713e+000	 3.766479800488312e+000	 9.989028268721910e+000
 2.423746890716576e+000	 3.791497198963489e+000	 1.003989726491987e+001
 2.384839206800335e+000	 3.816089878095935e+000	 1.008291594648810e+001
 2.345727727668478e+000	 3.840255385731489e+000	 1.011722617435158e+001
 2.306419375061632e+000	 3.863991416440919e+000	 1.014198510987434e+001
 2.266921099430403e+000	 3.887295811865205e+000	 1.015636703232621e+001
 2.227239876097467e+000	 3.910166560942135e+000	 1.015956511754824e+001
 2.187382701429100e+000	 3.932601800014995e+000	 1.015079317346962e+001
 2.147356589020302e+000	 3.954599812824290e+000	 1.012928732829038e+001
 2.107168565897559e+000	 3.976159030383603e+000	 1.009430766731759e+001
 2.066825668743274e+000	 3.997278030740858e+000	 1.004513981462814e+001
 1.952002020517314e+000	 3.775207029014879e+000	 1.021496833304511e+001
 1.913760776843248e+000	 3.794735786459811e+000	 1.019773179930145e+001
 1.875386567981046e+000	 3.813846512466861e+000	 1.018208280645267e+001
 1.836886045909252e+000	 3.832538278264387e+000	 1.013107607408458e+001
 1.798265857740103e+000	 3.850810291991064e+000	 1.008186776544833e+001
 1.759532642309953e+000	 3.868661897952027e+000	 1.003308221429299e+001
 1.720693026811101e+000	 3.886092575776806e+000	 9.983023676129479e+000
 1.681753623468193e+000	 3.903101939481164e+000	 9.930061603490495e+000
 1.642721026262243e+000	 3.919689736435062e+000	 9.872633436472647e+000
 1.603601807705202e+000	 3.935855846239047e+000	 9.809247203118712e+000
 1.564402515667893e+000	 3.951600279511499e+000	 9.738483926278814e+000
 1.963484385342178e+000	 3.797414129185244e+000	 1.020832122208555e+001
 1.925018193176184e+000	 3.817057761674655e+000	 1.017470479329008e+001
 1.886418253673830e+000	 3.836280903717665e+000	 1.014503571540041e+001
 1.847691257942943e+000	 3.855082621079272e+000	 1.009402432730273e+001
 1.808843892196424e+000	 3.873462117240140e+000	 1.003662514067772e+001
 1.769882834322603e+000	 3.891418732648380e+000	 9.981729195714005e+000
 1.730814750497264e+000	 3.908951943872516e+000	 9.927614290357179e+000
 1.691646291840493e+000	 3.926061362657818e+000	 9.872622398565436e+000
 1.652384091121428e+000	 3.942746734888187e+000	 9.815162536980045e+000
 1.613034759513854e+000	 3.959007939455937e+000	 9.753713440499864e+000
 1.573604883405484e+000	 3.974844987041912e+000	 9.686826043252486e+000
 1.974966750166537e+000	 3.819621229356107e+000	 1.019951519460017e+001
 1.936275609508532e+000	 3.839379736889895e+000	 1.015031217223666e+001
 1.897449939365971e+000	 3.858715294968765e+000	 1.010738927035354e+001
 1.858496469975968e+000	 3.877626963894351e+000	 1.005608478308695e+001
 1.819421926652086e+000	 3.896113942489314e+000	 9.991410762661124e+000
 1.780233026334630e+000	 3.914175567344729e+000	 9.931285557677391e+000
 1.740936474182872e+000	 3.931811311968122e+000	 9.873959659004264e+000
 1.701538960212335e+000	 3.949020785834266e+000	 9.817746750147322e+000
 1.662047155980281e+000	 3.965803733341005e+000	 9.761026650843226e+000
 1.622467711322332e+000	 3.982160032672422e+000	 9.702248068551249e+000
 1.582807251143084e+000	 3.998089694571819e+000	 9.639931154188178e+000
 1.986449114990393e+000	 3.841828329527464e+000	 1.018850016354119e+001
 1.947533025840291e+000	 3.861701712105530e+000	 1.012449448091092e+001
 1.908481625057469e+000	 3.881149686220162e+000	 1.006907513760793e+001
 1.869301682008328e+000	 3.900171306709628e+000	 1.001711806865797e+001
 1.829999961107088e+000	 3.918765767738582e+000	 9.946080675862454e+000
 1.790583218346036e+000	 3.936932402041073e+000	 9.881603198609767e+000
 1.751058197867925e+000	 3.954670680063622e+000	 9.821907967021661e+000
 1.711431628583719e+000	 3.971980209010510e+000	 9.765279557932729e+000
 1.671710220838802e+000	 3.988860731793519e+000	 9.710067816211453e+000
 1.631900663130633e+000	 4.005312125888501e+000	 9.654690682902134e+000
 1.592009618880696e+000	 4.021334402101220e+000	 9.597636826386049e+000
 1.997931479813745e+000	 3.864035429699317e+000	 1.017522507772575e+001
 1.958790442171462e+000	 3.884023687321564e+000	 1.009719157059397e+001
 1.919513310748325e+000	 3.903584077471854e+000	 1.003002454958373e+001
 1.880106894040022e+000	 3.922715649525100e+000	 9.973172746110146e+000
 1.840577995561431e+000	 3.941417592987946e+000	 9.900490976741217e+000
 1.800933410356819e+000	 3.959689236737412e+000	 9.832534295083162e+000
 1.761179921552422e+000	 3.977530048159018e+000	 9.771307892405101e+000
 1.721324296954645e+000	 3.994939632186549e+000	 9.715066418276031e+000
 1.681373285696993e+000	 4.011917730245727e+000	 9.662128960189765e+000
 1.641333614938760e+000	 4.028464219104175e+000	 9.610881949099145e+000
 1.601211986618317e+000	 4.044579109630118e+000	 9.559781866674378e+000
 2.009413844636593e+000	 3.886242529871669e+000	 1.015963794938259e+001
 1.970047858502044e+000	 3.906345662537992e+000	 1.006834261889231e+001
 1.930544996438539e+000	 3.926018468723842e+000	 9.990168317221819e+000
 1.890912106071049e+000	 3.945259992340768e+000	 9.924570478084851e+000
 1.851156030015116e+000	 3.964069418237406e+000	 9.854497812266828e+000
 1.811283602366981e+000	 3.982446071433747e+000	 9.783931293868015e+000
 1.771301645236366e+000	 4.000389416254310e+000	 9.722008592108123e+000
 1.731216965325113e+000	 4.017899055362383e+000	 9.666953604284869e+000
 1.691036350554853e+000	 4.034974728697631e+000	 9.617053873440222e+000
 1.650766566746712e+000	 4.051616312319444e+000	 9.570663572037082e+000
 1.610414354355949e+000	 4.067823817158510e+000	 9.526206285994476e+000
 2.020896209458937e+000	 3.908449630044514e+000	 1.014168588075964e+001
 1.981305274832037e+000	 3.928667637754816e+000	 1.003788614887617e+001
 1.941576682128110e+000	 3.948452859976126e+000	 9.949436841957645e+000
 1.901717318101411e+000	 3.967804335156631e+000	 9.875799639957409e+000
 1.861734064468140e+000	 3.986721243486961e+000	 9.807957378483730e+000
 1.821633794376520e+000	 4.005202906130077e+000	 9.735646904257084e+000
 1.781423368919754e+000	 4.023248784349496e+000	 9.673859688435318e+000
 1.741109633695123e+000	 4.040858478538012e+000	 9.620788046594285e+000
 1.700699415412381e+000	 4.058031727149230e+000	 9.574687185649083e+000
 1.660199518554488e+000	 4.074768405534308e+000	 9.533878266432120e+000
 1.619616722093591e+000	 4.091068524686397e+000	 9.496751265192929e+000
 2.032378574280778e+000	 3.930656730217856e+000	 1.012131508982980e+001
 1.992562691161443e+000	 3.950989612972036e+000	 1.000576004756942e+001
 1.952608367817038e+000	 3.970887251228706e+000	 9.907760127289196e+000
 1.912522530131106e+000	 3.990348677972691e+000	 9.826782799167447e+000
 1.872312098920506e+000	 4.009373068736611e+000	 9.760725919125029e+000
 1.831983986385438e+000	 4.027959740826404e+000	 9.687534090649585e+000
 1.791545092602588e+000	 4.046108152444578e+000	 9.626711255896820e+000
 1.751002302064675e+000	 4.063817901713436e+000	 9.576417314792384e+000
 1.710362480269578e+000	 4.081088725600523e+000	 9.534874341825471e+000
 1.669632470362090e+000	 4.097920498748767e+000	 9.500369728295672e+000
 1.628819089831244e+000	 4.114313232213777e+000	 9.471259121973418e+000
 2.043860939102113e+000	 3.952863830391693e+000	 1.009847093513000e+001
 2.003820107490259e+000	 3.973311588189652e+000	 9.971901583815892e+000
 1.963640053505324e+000	 3.993321642481583e+000	 9.865067789954981e+000
 1.923327742160136e+000	 4.012893020788947e+000	 9.777442357921967e+000
 1.882890133372213e+000	 4.032024893986358e+000	 9.708497267942779e+000
 1.842334178393734e+000	 4.050716575522725e+000	 9.639446065385204e+000
 1.801666816284866e+000	 4.068967520539554e+000	 9.580413808505924e+000
 1.760894970433770e+000	 4.086777324888655e+000	 9.533689599472313e+000
 1.720025545126444e+000	 4.104145724051513e+000	 9.497461579399159e+000
 1.679065422169517e+000	 4.121072591962822e+000	 9.469982607369968e+000
 1.638021457568906e+000	 4.137557939740653e+000	 9.449573278962559e+000
 2.055343303922946e+000	 3.975070930566027e+000	 1.007309793976789e+001
 2.015077523818487e+000	 3.995633563407664e+000	 9.936247425547082e+000
 1.974671739192968e+000	 4.015756033734754e+000	 9.821289070737388e+000
 1.934132954188500e+000	 4.035437363605398e+000	 9.727700557810891e+000
 1.893468167823261e+000	 4.054676719236199e+000	 9.654956728812655e+000
 1.852684370401407e+000	 4.073473410219042e+000	 9.591236281818501e+000
 1.811788539966590e+000	 4.091826888634428e+000	 9.534818287502439e+000
 1.770787638802406e+000	 4.109736748063669e+000	 9.492453694885672e+000
 1.729688609982978e+000	 4.127202722502196e+000	 9.462295906085799e+000
 1.688498373976768e+000	 4.144224685176470e+000	 9.442562480487485e+000
 1.647223825306579e+000	 4.160802647267024e+000	 9.431538232846073e+000
 2.066825668743274e+000	 3.997278030740858e+000	 1.004513981462814e+001
 2.026334940146127e+000	 4.017955538626073e+000	 9.898733656474077e+000
 1.985703424879969e+000	 4.038190424988225e+000	 9.776352844905956e+000
 1.944938166216198e+000	 4.057981706422046e+000	 9.677479484268618e+000
 1.904046202273650e+000	 4.077328544486139e+000	 9.601590841333280e+000
 1.863034562408458e+000	 4.096230244915353e+000	 9.542758427623944e+000
 1.821910263647759e+000	 4.114686256729197e+000	 9.489776049485267e+000
 1.780680307170585e+000	 4.132696171238480e+000	 9.452558982174319e+000
 1.739351674839182e+000	 4.150259720952576e+000	 9.429225078490195e+000
 1.697931325783844e+000	 4.167376778389715e+000	 9.417955825818529e+000
 1.656426193044263e+000	 4.184047354792892e+000	 9.416999524533891e+000
 1.564402515667893e+000	 3.951600279511499e+000	 9.738483926278814e+000
 1.525129670264477e+000	 3.966923176588746e+000	 9.642744664670467e+000
 1.485789760794904e+000	 3.981824806142011e+000	 9.564263467404111e+000
 1.446389242748077e+000	 3.996305563713150e+000	 9.501978876782506e+000
 1.406934534869337e+000	 4.010365970170742e+000	 9.454883634234770e+000
 1.367432016293249e+000	 4.024006670090824e+000	 9.422026364973396e+000
 1.327888023744064e+000	 4.037228430064649e+000	 9.402513090295123e+000
 1.288308848805791e+000	 4.050032136936430e+000	 9.395508567300139e+000
 1.248700735263687e+000	 4.062418795974020e+000	 9.399419302908610e+000
 1.209069876518824e+000	 4.074389528975535e+000	 9.376822082551820e+000
 1.169422413077266e+000	 4.085945572314992e+000	 9.340618632810452e+000
 1.573604883405484e+000	 3.974844987041912e+000	 9.686826043252486e+000
 1.534101021264173e+000	 3.990258018807951e+000	 9.601323305841534e+000
 1.494529700562309e+000	 4.005247305005702e+000	 9.531562573230449e+000
 1.454897414762255e+000	 4.019813243503740e+000	 9.476437312548489e+000
 1.415210620366680e+000	 4.033956358234573e+000	 9.434897864079828e+000
 1.375475734034469e+000	 4.047677297565866e+000	 9.405953157751192e+000
 1.335699129764719e+000	 4.060976832598230e+000	 9.388672252065714e+000
 1.295887136150757e+000	 4.073855855392611e+000	 9.382185695291758e+000
 1.256046033705988e+000	 4.086315377130202e+000	 9.385686709237916e+000
 1.216182052263253e+000	 4.098356526207932e+000	 9.368309102611232e+000
 1.176301368449240e+000	 4.109980546272603e+000	 9.333458301778308e+000
 1.582807251143084e+000	 3.998089694571819e+000	 9.639931154188178e+000
 1.543072372264059e+000	 4.013592861026560e+000	 9.564562752404061e+000
 1.503269640330041e+000	 4.028669803868731e+000	 9.503421052994762e+000
 1.463405586776859e+000	 4.043320923293615e+000	 9.455353936340435e+000
 1.423486705864506e+000	 4.057546746297664e+000	 9.419268846334873e+000
 1.383519451776188e+000	 4.071347925040158e+000	 9.394134539290832e+000
 1.343510235785849e+000	 4.084725235131073e+000	 9.378982650048254e+000
 1.303465423496135e+000	 4.097679573848086e+000	 9.372909075127170e+000
 1.263391332148598e+000	 4.110211958285729e+000	 9.375075173303316e+000
 1.223294228007851e+000	 4.122323523439744e+000	 9.362551348220780e+000
 1.183180323821201e+000	 4.134015520229720e+000	 9.328478635082886e+000
 1.592009618880696e+000	 4.021334402101220e+000	 9.597636826386049e+000
 1.552043723264134e+000	 4.036927703244576e+000	 9.532312086010526e+000
 1.512009580098102e+000	 4.052092302731094e+000	 9.479699199295910e+000
 1.471913758791888e+000	 4.066828603082779e+000	 9.438599941996554e+000
 1.431762791362814e+000	 4.081137134360013e+000	 9.407878360386258e+000
 1.391563169518405e+000	 4.095018552513700e+000	 9.386462553172162e+000
 1.351321341807455e+000	 4.108473637663178e+000	 9.373346265320897e+000
 1.311043710841926e+000	 4.121503292302855e+000	 9.367590293672594e+000
 1.270736630591518e+000	 4.134108539440599e+000	 9.368323704766723e+000
 1.230406403752616e+000	 4.146290520670970e+000	 9.359585993394017e+000
 1.190059279193150e+000	 4.158050494186345e+000	 9.325715998310871e+000
 1.601211986618317e+000	 4.044579109630118e+000	 9.559781866674378e+000
 1.561015074264399e+000	 4.060262545461995e+000	 9.504421484175387e+000
 1.520749519866489e+000	 4.075514801592793e+000	 9.460258261834539e+000
 1.480421930807344e+000	 4.090336282871230e+000	 9.426047346633197e+000
 1.440038876861605e+000	 4.104727522421621e+000	 9.400608880039014e+000
 1.399606887261122e+000	 4.118689179986494e+000	 9.382829813522353e+000
 1.359132447829537e+000	 4.132222040194547e+000	 9.371665530646906e+000
 1.318621998188130e+000	 4.145327010756917e+000	 9.366141275643807e+000
 1.278081929034748e+000	 4.158005120594816e+000	 9.365353388939319e+000
 1.237518579497549e+000	 4.170257517901614e+000	 9.359450337457735e+000
 1.196938234565087e+000	 4.182085468142475e+000	 9.325206783680745e+000
 1.610414354355949e+000	 4.067823817158510e+000	 9.526206285994476e+000
 1.569986425264854e+000	 4.083597387678821e+000	 9.480742188964745e+000
 1.529489459635206e+000	 4.098937300453828e+000	 9.444960420067277e+000
 1.488930102823224e+000	 4.113843962658969e+000	 9.417568967122634e+000
 1.448314962360878e+000	 4.128317910482487e+000	 9.397343553676295e+000
 1.407650605004338e+000	 4.142359807458538e+000	 9.383129488714596e+000
 1.366943553852095e+000	 4.155970442725177e+000	 9.373843317569342e+000
 1.326200285534746e+000	 4.169150729210274e+000	 9.368474273953328e+000
 1.285427227478289e+000	 4.181901701748378e+000	 9.366085533643021e+000
 1.244630755242650e+000	 4.194224515131674e+000	 9.362181801471575e+000
 1.203817189937011e+000	 4.206120442098112e+000	 9.326987409281820e+000
 1.619616722093591e+000	 4.091068524686397e+000	 9.496751265192929e+000
 1.578957776265498e+000	 4.106932229895052e+000	 9.461126476753396e+000
 1.538229399404250e+000	 4.122359799314200e+000	 9.433668756793235e+000
 1.497438274839530e+000	 4.137351642445993e+000	 9.413038397372812e+000
 1.456591047860634e+000	 4.151908298542613e+000	 9.397966185095251e+000
 1.415694322748053e+000	 4.166030434929833e+000	 9.387255285622450e+000
 1.374754659875128e+000	 4.179718845255070e+000	 9.379782923945761e+000
 1.333778572881774e+000	 4.192974447662922e+000	 9.374501860386621e+000
 1.292772525922138e+000	 4.205798282901284e+000	 9.370441662889201e+000
 1.251742930987919e+000	 4.218191512361147e+000	 9.366709776737654e+000
 1.210696145308922e+000	 4.230155416053254e+000	 9.331094318339352e+000
 1.628819089831244e+000	 4.114313232213777e+000	 9.471259121973418e+000
 1.587929127266333e+000	 4.130267072110688e+000	 9.445427629007041e+000
 1.546969339173622e+000	 4.145782298173907e+000	 9.426247232635820e+000
 1.505946446856261e+000	 4.160859322232307e+000	 9.412329986377081e+000
 1.464867133360872e+000	 4.175498686601997e+000	 9.402361214992485e+000
 1.423738040492267e+000	 4.189701062400376e+000	 9.395101434407943e+000
 1.382565765898636e+000	 4.203467247784224e+000	 9.389388061905425e+000
 1.341356860229215e+000	 4.216798166114867e+000	 9.384136916594427e+000
 1.300117824366298e+000	 4.229694864053538e+000	 9.378343510771604e+000
 1.258855106733357e+000	 4.242158509590039e+000	 9.371084133359318e+000
 1.217575100680821e+000	 4.254190390007903e+000	 9.337563978504432e+000
 1.638021457568906e+000	 4.137557939740653e+000	 9.449573278962559e+000
 1.596900478267356e+000	 4.153601914325729e+000	 9.433499904049437e+000
 1.555709278943322e+000	 4.169204797032950e+000	 9.422560661384788e+000
 1.514454618873417e+000	 4.184367002017907e+000	 9.415318817003980e+000
 1.473143218861592e+000	 4.199089074660639e+000	 9.410413703073623e+000
 1.431781758236980e+000	 4.213371689870171e+000	 9.406562673822547e+000
 1.390376871922621e+000	 4.227215650312640e+000	 9.402562846212426e+000
 1.348935147577068e+000	 4.240621884566104e+000	 9.397292625388621e+000
 1.307463122810768e+000	 4.253591445205132e+000	 9.389713015565160e+000
 1.265967282478963e+000	 4.266125506818345e+000	 9.378868717593923e+000
 1.224454056052708e+000	 4.278225363962058e+000	 9.346432881167871e+000
 1.647223825306579e+000	 4.160802647267024e+000	 9.431538232846073e+000
 1.605871829268570e+000	 4.176936756540175e+000	 9.425198509775818e+000
 1.564449218713350e+000	 4.192627295891330e+000	 9.422474686164772e+000
 1.522962790891000e+000	 4.207874681802794e+000	 9.421880685497943e+000
 1.481419304362795e+000	 4.222679462718541e+000	 9.422009310762585e+000
 1.439825475982193e+000	 4.237042317339218e+000	 9.421534237000651e+000
 1.398187977947081e+000	 4.250964052840319e+000	 9.419211783018957e+000
 1.356513434925333e+000	 4.264445603016635e+000	 9.413882462329937e+000
 1.314808421255547e+000	 4.277488026356075e+000	 9.404472314022632e+000
 1.273079458224736e+000	 4.290092504046069e+000	 9.389994014872844e+000
 1.231333011424581e+000	 4.302260337915721e+000	 9.357737540797135e+000
 1.656426193044263e+000	 4.184047354792892e+000	 9.416999524533891e+000
 1.614843180269973e+000	 4.200271598754027e+000	 9.420379577275950e+000
 1.573189158483706e+000	 4.216049794749046e+000	 9.425855756398157e+000
 1.531470962909008e+000	 4.231382361586969e+000	 9.431892081663250e+000
 1.489695389864481e+000	 4.246269850775701e+000	 9.437034284487133e+000
 1.447869193727904e+000	 4.260712944807515e+000	 9.439911837726781e+000
 1.405999083972017e+000	 4.274712455367262e+000	 9.439239758993372e+000
 1.364091722274012e+000	 4.288269321466461e+000	 9.433820187596055e+000
 1.322153719700637e+000	 4.301384607506363e+000	 9.422543735861307e+000
 1.280191633970678e+000	 4.314059501273208e+000	 9.404390616195972e+000
 1.238211966796443e+000	 4.326295311868889e+000	 9.371514494295193e+000
 1.169422413077266e+000	 4.085945572314992e+000	 9.340618632810452e+000
 1.129764430115052e+000	 4.097088274930204e+000	 9.322942297205062e+000
 1.090101955120620e+000	 4.107819096255514e+000	 9.297759045242350e+000
 1.050440955616010e+000	 4.118139604102670e+000	 9.266936433682364e+000
 1.010787336957094e+000	 4.128051472493549e+000	 9.232205410362649e+000
 9.711469402141429e-001	 4.137556479447227e+000	 9.195160292580784e+000
 9.315255401334329e-001	 4.146656504724693e+000	 9.157259036033782e+000
 8.919288431804859e-001	 4.155353527534343e+000	 9.119823785999387e+000
 8.523624856654425e-001	 4.163649624201344e+000	 9.084041701916599e+000
 8.128320319509309e-001	 4.171546965803958e+000	 9.050966046038877e+000
 7.733429727426728e-001	 4.179047815779902e+000	 9.021517526394614e+000
 1.176301368449240e+000	 4.109980546272603e+000	 9.333458301778308e+000
 1.136410103235041e+000	 4.121188794197010e+000	 9.317029699741568e+000
 1.096514319564808e+000	 4.131982738000447e+000	 9.293515087415576e+000
 1.056620020063653e+000	 4.142363954717085e+000	 9.264814151763108e+000
 1.016733144824837e+000	 4.152334128215989e+000	 9.232687359843011e+000
 9.768595692778667e-001	 4.161895046975169e+000	 9.198755938496115e+000
 9.370051021381155e-001	 4.171048601813031e+000	 9.164502149901175e+000
 8.971754834385509e-001	 4.179796783580375e+000	 9.131269854533990e+000
 8.573763826440788e-001	 4.188141680816043e+000	 9.100265352525256e+000
 8.176133968488739e-001	 4.196085477369345e+000	 9.072558493920978e+000
 7.778920490569271e-001	 4.203630449992339e+000	 9.049084047901312e+000
 1.183180323821201e+000	 4.134015520229720e+000	 9.328478635082886e+000
 1.143055776354833e+000	 4.145289313463412e+000	 9.312833050371951e+000
 1.102926684008646e+000	 4.156146379745046e+000	 9.290551822213519e+000
 1.062799084510823e+000	 4.166588305331214e+000	 9.263567295339561e+000
 1.022678952692014e+000	 4.176616783938171e+000	 9.233669935596375e+000
 9.825721983409622e-001	 4.186233614502861e+000	 9.202508311088259e+000
 9.424846641421387e-001	 4.195440698901107e+000	 9.171589374583842e+000
 9.024221236959535e-001	 4.204240039626113e+000	 9.142279038563929e+000
 8.623902796220803e-001	 4.212633737430396e+000	 9.115803033742688e+000
 8.223947617462384e-001	 4.220623988934316e+000	 9.093248041392833e+000
 7.824411253706887e-001	 4.228213084204269e+000	 9.075563089350167e+000
 1.190059279193150e+000	 4.158050494186345e+000	 9.325715998310871e+000
 1.149701449474428e+000	 4.169389832729408e+000	 9.310386653401274e+000
 1.109339048452133e+000	 4.180310021489308e+000	 9.288901646951457e+000
 1.068978148957520e+000	 4.190812655945056e+000	 9.263226511979052e+000
 1.028624760558625e+000	 4.200899439660094e+000	 9.235182195365587e+000
 9.882848274034307e-001	 4.210572182030302e+000	 9.206445040613014e+000
 9.479642261455018e-001	 4.219832795988921e+000	 9.178547077335633e+000
 9.076687639526946e-001	 4.228683295671557e+000	 9.152876608709420e+000
 8.674041765994472e-001	 4.237125794044403e+000	 9.130679087544332e+000
 8.271761266430249e-001	 4.245162500498869e+000	 9.113058271134769e+000
 7.869902016839576e-001	 4.252795718415691e+000	 9.100977644579711e+000
 1.196938234565087e+000	 4.182085468142475e+000	 9.325206783680745e+000
 1.156347122593826e+000	 4.193490351995003e+000	 9.309724775231105e+000
 1.115751412895269e+000	 4.204473663233235e+000	 9.288596858391449e+000
 1.075157213403743e+000	 4.215037006558612e+000	 9.263822287943864e+000
 1.034570568424671e+000	 4.225182095381759e+000	 9.237252976745527e+000
 9.939974564652714e-001	 4.234910749557492e+000	 9.210593480254159e+000
 9.534437881482052e-001	 4.244224893076473e+000	 9.185401293341780e+000
 9.129154042087735e-001	 4.253126551716706e+000	 9.163087450460129e+000
 8.724180735761793e-001	 4.261617850658064e+000	 9.144917419654048e+000
 8.319574915392334e-001	 4.269701012063005e+000	 9.132012280400176e+000
 7.915392779967340e-001	 4.277378352626607e+000	 9.125350174775793e+000
 1.203817189937011e+000	 4.206120442098112e+000	 9.326987409281820e+000
 1.162992795713028e+000	 4.217590871260192e+000	 9.310881645442391e+000
 1.122163777338056e+000	 4.228637304976828e+000	 9.289669655615189e+000
 1.081336277849493e+000	 4.239261357171881e+000	 9.265384952799840e+000
 1.040516376290151e+000	 4.249464751103165e+000	 9.239910903473101e+000
 9.997100855264841e-001	 4.259249317084431e+000	 9.214980714039859e+000
 9.589233501502491e-001	 4.268616990163762e+000	 9.192177735206583e+000
 9.181620444641900e-001	 4.277569807761560e+000	 9.172936075178871e+000
 8.774319705522766e-001	 4.286109907271379e+000	 9.158541512008368e+000
 8.367388564348636e-001	 4.294239523626726e+000	 9.150132694884903e+000
 7.960883543090176e-001	 4.301960986837015e+000	 9.148702623690202e+000
 1.210696145308922e+000	 4.230155416053254e+000	 9.331094318339352e+000
 1.169638468832031e+000	 4.241691390524976e+000	 9.313891457841590e+000
 1.128576141780491e+000	 4.252800946720085e+000	 9.292152142799056e+000
 1.087515342294771e+000	 4.263485707784863e+000	 9.267944683868054e+000
 1.046462184155065e+000	 4.273747406824311e+000	 9.243184391502684e+000
 1.005422714587069e+000	 4.283587884611121e+000	 9.219633564489095e+000
 9.644029121516329e-001	 4.293009087250787e+000	 9.198901802117545e+000
 9.234086847189448e-001	 4.302013063806120e+000	 9.182446630730281e+000
 8.824458675277391e-001	 4.310601963884349e+000	 9.171574434795980e+000
 8.415202213299152e-001	 4.318778035190028e+000	 9.167441682123707e+000
 8.006374306208084e-001	 4.326543621046915e+000	 9.171056432340487e+000
 1.217575100680821e+000	 4.254190390007903e+000	 9.337563978504432e+000
 1.176284141950838e+000	 4.265791909789358e+000	 9.318788371471195e+000
 1.134988506222576e+000	 4.276964588463007e+000	 9.296076331895101e+000
 1.093694406739574e+000	 4.287710058397558e+000	 9.271531510525534e+000
 1.052407992019414e+000	 4.298030062545201e+000	 9.247101654875776e+000
 1.011135343647027e+000	 4.307926452137560e+000	 9.224578599998935e+000
 9.698824741523568e-001	 4.317401184337551e+000	 9.205598588699122e+000
 9.286553249730376e-001	 4.326456319850386e+000	 9.191642911749083e+000
 8.874597645025671e-001	 4.335094020496972e+000	 9.184038858088982e+000
 8.463015862243888e-001	 4.343316546752914e+000	 9.183960964432748e+000
 8.051865069321068e-001	 4.351126255256308e+000	 9.192432553211530e+000
 1.224454056052708e+000	 4.278225363962058e+000	 9.346432881167871e+000
 1.182929815069449e+000	 4.289892429053334e+000	 9.325606511586267e+000
 1.141400870664311e+000	 4.301128230205595e+000	 9.301474145221555e+000
 1.099873471183904e+000	 4.311934409009968e+000	 9.276175318360917e+000
 1.058353799883197e+000	 4.322312718265831e+000	 9.251690711392575e+000
 1.016847972706357e+000	 4.332265019663750e+000	 9.229842141982839e+000
 9.753620361524213e-001	 4.341793281424052e+000	 9.212292893567717e+000
 9.339019652264682e-001	 4.350899575894357e+000	 9.200548369562254e+000
 8.924736614767602e-001	 4.359586077109249e+000	 9.195957063082110e+000
 8.510829511182841e-001	 4.367855058315384e+000	 9.199711831415661e+000
 8.097355832429123e-001	 4.375708889465194e+000	 9.210748125707731e+000
 1.231333011424581e+000	 4.302260337915721e+000	 9.357737540797135e+000
 1.189575488187862e+000	 4.313992948316907e+000	 9.334379970598191e+000
 1.147813235105695e+000	 4.325291871947846e+000	 9.308377417966563e+000
 1.106052535627761e+000	 4.336158759622090e+000	 9.281905853190926e+000
 1.064299607746415e+000	 4.346595373986204e+000	 9.256979388093736e+000
 1.022560601765058e+000	 4.356603587189687e+000	 9.235450271769507e+000
 9.808415981518260e-001	 4.366185378510290e+000	 9.219009227600106e+000
 9.391486054792371e-001	 4.375342831938033e+000	 9.208061188088434e+000
 8.974875584503186e-001	 4.384078133721181e+000	 9.178772480635676e+000
 8.558643160116015e-001	 4.392393569877434e+000	 9.161526355955520e+000
 8.142846595532254e-001	 4.400291523673573e+000	 9.156188449545734e+000
 1.238211966796443e+000	 4.326295311868889e+000	 9.371514494295193e+000
 1.196221161306078e+000	 4.338093467580077e+000	 9.345142808987067e+000
 1.154225599546729e+000	 4.349455513689764e+000	 9.316817900608525e+000
 1.112231600071145e+000	 4.360383110233927e+000	 9.288752724942942e+000
 1.070245415609067e+000	 4.370878029706319e+000	 9.262995326559119e+000
 1.028273230823133e+000	 4.380942154715376e+000	 9.219262442826841e+000
 9.863211601505714e-001	 4.390577475596269e+000	 9.171138512399223e+000
 9.443952457313436e-001	 4.399786087981417e+000	 9.135084509530255e+000
 9.025014554232422e-001	 4.408570190332767e+000	 9.111043910150302e+000
 8.606456809043406e-001	 4.416932081439071e+000	 9.098922648786010e+000
 8.188337358630459e-001	 4.424874157881446e+000	 9.098589490880841e+000
 7.733429727426728e-001	 4.179047815779902e+000	 9.021517526394614e+000
 7.339007234633732e-001	 4.186154527505775e+000	 8.967561242520178e+000
 6.945106227088217e-001	 4.192869541852530e+000	 8.924304251964381e+000
 6.551779307865252e-001	 4.199195384720043e+000	 8.892253306029179e+000
 6.159078283377321e-001	 4.205134664553649e+000	 8.874825749880554e+000
 5.767054150413697e-001	 4.210690069845527e+000	 8.869110216907192e+000
 5.375757083998120e-001	 4.215864366623790e+000	 8.859493205776017e+000
 4.985236426059480e-001	 4.220660395932039e+000	 8.846826717115437e+000
 4.595540674909438e-001	 4.225081071302157e+000	 8.831718514175153e+000
 4.206717475519837e-001	 4.229129376222966e+000	 8.814535744441846e+000
 3.818813610591916e-001	 4.232808361607396e+000	 8.795408994012696e+000
 7.778920490569271e-001	 4.203630449992339e+000	 9.049084047901312e+000
 7.382177865464501e-001	 4.210778965904968e+000	 9.001488496588351e+000
 6.985959793168153e-001	 4.217533480336205e+000	 8.963644442822332e+000
 6.590319186185135e-001	 4.223896534044159e+000	 8.936082190268804e+000
 6.195308155671541e-001	 4.229870750817963e+000	 8.921403493879810e+000
 5.800977998397743e-001	 4.235458834964458e+000	 8.922605400330316e+000
 5.407379184534670e-001	 4.240663568782507e+000	 8.920217456797724e+000
 5.014561346257858e-001	 4.245487810027735e+000	 8.915148736328519e+000
 4.622573267163138e-001	 4.249934489370448e+000	 8.908059325817025e+000
 4.231462872486891e-001	 4.254006607849405e+000	 8.899363972852322e+000
 3.841277220122707e-001	 4.257707234324079e+000	 8.889236174412634e+000
 7.824411253706887e-001	 4.228213084204269e+000	 9.075563089350167e+000
 7.425348496291238e-001	 4.235403404303565e+000	 9.034211117997042e+000
 7.026813359244744e-001	 4.242197418819215e+000	 9.001713671457914e+000
 6.628859064502161e-001	 4.248597683367562e+000	 8.978624484711565e+000
 6.231538027963176e-001	 4.254606837081536e+000	 8.966200474361955e+000
 5.834901846379285e-001	 4.260227600082640e+000	 8.973598611821640e+000
 5.439001285068597e-001	 4.265462770940489e+000	 8.977799179969681e+000
 5.043886266453288e-001	 4.270315224122728e+000	 8.979768873296790e+000
 4.649605859413373e-001	 4.274787907438089e+000	 8.980220548615661e+000
 4.256208269449765e-001	 4.278883839475261e+000	 8.979616898451479e+000
 3.863740829648416e-001	 4.282606107040270e+000	 8.978174575505161e+000
 7.869902016839576e-001	 4.252795718415691e+000	 9.100977644579711e+000
 7.468519127113944e-001	 4.260027842701565e+000	 9.065751077436593e+000
 7.067666925317991e-001	 4.266861357301558e+000	 9.038532741501637e+000
 6.667398942816325e-001	 4.273298832690252e+000	 9.019899685571431e+000
 6.267767900252235e-001	 4.279342923344370e+000	 9.010295616046074e+000
 5.868825694358320e-001	 4.284996365200073e+000	 9.022293255394734e+000
 5.470623385599893e-001	 4.290261973097732e+000	 9.032425425495482e+000
 5.073211186645767e-001	 4.295142638217016e+000	 9.040857981014405e+000
 4.676638451660140e-001	 4.299641325505075e+000	 9.048357005752047e+000
 4.280953666408461e-001	 4.303761071100536e+000	 9.055433492258693e+000
 3.886204439169041e-001	 4.307504979755969e+000	 9.062347503514607e+000
 7.915392779967340e-001	 4.277378352626607e+000	 9.125350174775793e+000
 7.511689757932621e-001	 4.284652281098968e+000	 9.096129781592971e+000
 7.108520491387896e-001	 4.291525295783235e+000	 9.074121870441569e+000
 6.705938821127631e-001	 4.297999982012227e+000	 9.059926689922136e+000
 6.303997772538712e-001	 4.304079009606460e+000	 9.054009654441616e+000
 5.902749542334850e-001	 4.309765130316754e+000	 9.068892137034142e+000
 5.502245486128563e-001	 4.315061175254239e+000	 9.084282659491695e+000
 5.102536106835299e-001	 4.319970052310598e+000	 9.098586351136980e+000
 4.703671043903441e-001	 4.324494743571407e+000	 9.112622990530916e+000
 4.305699063362979e-001	 4.328638302725230e+000	 9.126952235496342e+000
 3.908668048684583e-001	 4.332403852471176e+000	 9.141877823465233e+000
 7.960883543090176e-001	 4.301960986837015e+000	 9.148702623690202e+000
 7.554860388747265e-001	 4.309276719495773e+000	 9.125368089262260e+000
 7.149374057454458e-001	 4.316189234264248e+000	 9.108500706370334e+000
 6.744478699436075e-001	 4.322701131333488e+000	 9.098723812815544e+000
 6.340227644822606e-001	 4.328815095867808e+000	 9.096524369183936e+000
 5.936673390308876e-001	 4.334533895432689e+000	 9.113597481781952e+000
 5.533867586654606e-001	 4.339860377410007e+000	 9.133556780676010e+000
 5.131861027021881e-001	 4.344797466403474e+000	 9.153123730019834e+000
 4.730703636143274e-001	 4.349348161637087e+000	 9.173172281519852e+000
 4.330444460313317e-001	 4.353515534349339e+000	 9.194311133583895e+000
 3.931131658195043e-001	 4.357302725185893e+000	 9.216887971786809e+000
 8.006374306208084e-001	 4.326543621046915e+000	 9.171056432340487e+000
 7.598031019557878e-001	 4.333901157891983e+000	 9.153486326915585e+000
 7.190227623517680e-001	 4.340853172744595e+000	 9.141688344161031e+000
 6.783018577741659e-001	 4.347402280654034e+000	 9.136308803816332e+000
 6.376457517103917e-001	 4.353551182128414e+000	 9.137856054039824e+000
 5.970597238280400e-001	 4.359302660547872e+000	 9.156610950241774e+000
 5.565489687178020e-001	 4.364659579565039e+000	 9.180433136486622e+000
 5.161185947205512e-001	 4.369624880495647e+000	 9.204639334209473e+000
 4.757736228379639e-001	 4.374201579702113e+000	 9.230158157172516e+000
 4.355189857259478e-001	 4.378392765972867e+000	 9.241015848676701e+000
 3.953595267700419e-001	 4.382201597900117e+000	 9.247645781912558e+000
 8.051865069321068e-001	 4.351126255256308e+000	 9.192432553211530e+000
 7.641201650364461e-001	 4.358525596287595e+000	 9.180504303736671e+000
 7.231081189577555e-001	 4.365517111224277e+000	 9.173703341094983e+000
 6.821558456044382e-001	 4.372103429973867e+000	 9.172698862976205e+000
 6.412687389382651e-001	 4.378287268388280e+000	 9.167660303541986e+000
 6.004521086249417e-001	 4.384071425662305e+000	 9.168040983812240e+000
 5.597111787698806e-001	 4.389458781719333e+000	 9.173480444436940e+000
 5.190510867386197e-001	 4.394452294587114e+000	 9.177152959608812e+000
 4.784768820612541e-001	 4.399054997766486e+000	 9.179059134935692e+000
 4.379935254201459e-001	 4.403269997595814e+000	 9.179138960058561e+000
 3.976058877200713e-001	 4.407100470613849e+000	 9.177273470550812e+000
 8.097355832429123e-001	 4.375708889465194e+000	 9.210748125707731e+000
 7.684372281167010e-001	 4.383150034682610e+000	 9.182296211113251e+000
 7.271934755634087e-001	 4.390181049703290e+000	 9.159025043936184e+000
 6.860098334344247e-001	 4.396804579292988e+000	 9.140794070570887e+000
 6.448917261658799e-001	 4.403023354647401e+000	 9.127432245106771e+000
 6.038444934215930e-001	 4.408840190775990e+000	 9.124829251641645e+000
 5.628733888216966e-001	 4.414257983872890e+000	 9.126737032036576e+000
 5.219835787563931e-001	 4.419279708677876e+000	 9.125652686647772e+000
 4.811801412841973e-001	 4.423908415830206e+000	 9.121596701444805e+000
 4.404680651139261e-001	 4.428147229218177e+000	 9.114528726039213e+000
 3.998522486695924e-001	 4.431999343327089e+000	 9.104349225438236e+000
 8.142846595532254e-001	 4.400291523673573e+000	 9.156188449545734e+000
 7.727542911965530e-001	 4.407774473077029e+000	 9.132799827604160e+000
 7.312788321687278e-001	 4.414844988181641e+000	 9.113030255297927e+000
 6.898638212641248e-001	 4.421505728611392e+000	 9.096756583912253e+000
 6.485147133932367e-001	 4.427759440905782e+000	 9.083825800413482e+000
 6.072368782179939e-001	 4.433608955888925e+000	 9.078519945940908e+000
 5.660355988732496e-001	 4.439057186025711e+000	 9.076941904480133e+000
 5.249160707738717e-001	 4.444107122767933e+000	 9.071180165802602e+000
 4.838834005067940e-001	 4.448761833893272e+000	 9.061274870964880e+000
 4.429426048072886e-001	 4.453024460839959e+000	 9.047205077336580e+000
 4.020986096186051e-001	 4.456898216039838e+000	 9.028890400975314e+000
 8.188337358630459e-001	 4.424874157881446e+000	 9.098589490880841e+000
 7.770713542760024e-001	 4.432398911470850e+000	 9.080151718571518e+000
 7.353641887737129e-001	 4.439508926659324e+000	 9.063797434124137e+000
 6.937178090935393e-001	 4.446206877929084e+000	 9.049420844044361e+000
 6.521377006203357e-001	 4.452495527163421e+000	 9.036886899109902e+000
 6.106292630141446e-001	 4.458377721001112e+000	 9.029140783666286e+000
 5.691978089245402e-001	 4.463856388177795e+000	 9.024121027198293e+000
 5.278485627910554e-001	 4.468934536857286e+000	 9.013759409918173e+000
 4.865866597290441e-001	 4.473615251955685e+000	 8.998115506096548e+000
 4.454171445002333e-001	 4.477901692461161e+000	 8.977187532045535e+000
 4.043449705671096e-001	 4.481797088752095e+000	 8.950913979879296e+000
 3.818813610591916e-001	 4.232808361607396e+000	 8.795408994012696e+000
 3.431874992402947e-001	 4.236121143260720e+000	 8.762369873705367e+000
 3.045946655437639e-001	 4.239070899352234e+000	 8.733255380005540e+000
 2.661072749782468e-001	 4.241660867892875e+000	 8.707425935659023e+000
 2.277296535260604e-001	 4.243894344221186e+000	 8.684022434102554e+000
 1.894660376312561e-001	 4.245774678499766e+000	 8.661972272001940e+000
 1.513205737604607e-001	 4.247305273224471e+000	 8.639995678091035e+000
 1.132973180351715e-001	 4.248489580748445e+000	 8.616612314992954e+000
 7.540023593415120e-002	 4.249331100823047e+000	 8.590148130781872e+000
 3.763320206450971e-002	 4.249833378157621e+000	 8.558742437185629e+000
 0.000000000000000e+000	 4.250000000000000e+000	 8.520355191534483e+000
 3.841277220122707e-001	 4.257707234324079e+000	 8.889236174412634e+000
 3.452062492418693e-001	 4.261039502928045e+000	 8.865500458688889e+000
 3.063863988766923e-001	 4.264006610525749e+000	 8.846547259884078e+000
 2.676726118960288e-001	 4.266611814175250e+000	 8.831775448665074e+000
 2.290692397291523e-001	 4.268858428599435e+000	 8.820359459652478e+000
 1.905805437403758e-001	 4.270749823667742e+000	 8.811255399760412e+000
 1.522106947873085e-001	 4.272289421890708e+000	 8.803207460066366e+000
 1.139637728509881e-001	 4.273480695929435e+000	 8.794754607470434e+000
 7.584376673652529e-002	 4.274327166122059e+000	 8.784237532477635e+000
 3.785457384283875e-002	 4.274832398029149e+000	 8.769805829577235e+000
 0.000000000000000e+000	 4.275000000000000e+000	 8.749425386901097e+000
 3.863740829648416e-001	 4.282606107040270e+000	 8.978174575505161e+000
 3.472249992428512e-001	 4.285957862594974e+000	 8.963801738127973e+000
 3.081781322089745e-001	 4.288942321698952e+000	 8.955147634601131e+000
 2.692379488131415e-001	 4.291562760457388e+000	 8.951649468412441e+000
 2.304088259315822e-001	 4.293822512977510e+000	 8.952515010662051e+000
 1.916950498488709e-001	 4.295724968835596e+000	 8.956728786211833e+000
 1.531008158135986e-001	 4.297273570556868e+000	 8.963058570686426e+000
 1.146302276663433e-001	 4.298471811110384e+000	 8.970062174155181e+000
 7.628729753856317e-002	 4.299323231421051e+000	 8.976094487398175e+000
 3.807594562098553e-002	 4.299831417900672e+000	 8.979314766797533e+000
 0.000000000000000e+000	 4.300000000000000e+000	 8.977694134105365e+000
 3.886204439169041e-001	 4.307504979755969e+000	 9.062347503514607e+000
 3.492437492432404e-001	 4.310876222261504e+000	 9.057376511272841e+000
 3.099698655406105e-001	 4.313878032871843e+000	 9.059139072838432e+000
 2.708032857295849e-001	 4.316513706739285e+000	 9.067110618743000e+000
 2.317484121333502e-001	 4.318786597355409e+000	 9.080532060599008e+000
 1.928095559567414e-001	 4.320700114003333e+000	 9.098416057072422e+000
 1.539909368393310e-001	 4.322257719222951e+000	 9.119553598120540e+000
 1.152966824812370e-001	 4.323462926291288e+000	 9.142520882889096e+000
 7.673082834026486e-002	 4.324319296720024e+000	 9.165686466732195e+000
 3.829731739895002e-002	 4.324830437772191e+000	 9.187218652958853e+000
 0.000000000000000e+000	 4.324999999999999e+000	 9.205093105119026e+000
 3.908668048684583e-001	 4.332403852471176e+000	 9.141877823465233e+000
 3.512624992430367e-001	 4.335794581927638e+000	 9.146327309017801e+000
 3.117615988716001e-001	 4.338813744044420e+000	 9.158604054437218e+000
 2.723686226453592e-001	 4.341464653020945e+000	 9.178221620708026e+000
 2.330879983344563e-001	 4.343750681733136e+000	 9.204453872586649e+000
 1.939240620639871e-001	 4.345675259170945e+000	 9.236341326416374e+000
 1.548810578645057e-001	 4.347241867888957e+000	 9.272697823714674e+000
 1.159631372956692e-001	 4.348454041472150e+000	 9.312117505483398e+000
 7.717435914163033e-002	 4.349315362018977e+000	 9.352982062261384e+000
 3.851868917673224e-002	 4.349829457643704e+000	 9.393468235077714e+000
 0.000000000000000e+000	 4.350000000000000e+000	 9.431555542673310e+000
 3.931131658195043e-001	 4.357302725185893e+000	 9.216887971786809e+000
 3.532812492422405e-001	 4.360712941593376e+000	 9.230756401568431e+000
 3.135533322019435e-001	 4.363749455216683e+000	 9.253624972936512e+000
 2.739339595604641e-001	 4.366415599302365e+000	 9.285045289790768e+000
 2.344275845349006e-001	 4.368714766110686e+000	 9.324323991127809e+000
 1.950385681706083e-001	 4.370650404338438e+000	 9.370529182723209e+000
 1.557711788891227e-001	 4.372226016554885e+000	 9.422497202186516e+000
 1.166295921096400e-001	 4.373445156652969e+000	 9.478839691890746e+000
 7.761788994265960e-002	 4.374311427317911e+000	 9.537950954343454e+000
 3.874006095433218e-002	 4.374828477515214e+000	 9.598015564706600e+000
 0.000000000000000e+000	 4.374999999999999e+000	 9.657016215379946e+000
 3.953595267700419e-001	 4.382201597900117e+000	 9.247645781912558e+000
 3.552999992408514e-001	 4.385631301258716e+000	 9.244254462537912e+000
 3.153450655316407e-001	 4.388685166388635e+000	 9.247555749494680e+000
 2.754992964748999e-001	 4.391366545583549e+000	 9.257211551182314e+000
 2.357671707346829e-001	 4.393678850488063e+000	 9.272826779717962e+000
 1.961530742766049e-001	 4.395625549505810e+000	 9.293951508146062e+000
 1.566612999131819e-001	 4.397210165220737e+000	 9.320083176187316e+000
 1.172960469231493e-001	 4.398436271833745e+000	 9.350668838219221e+000
 7.806142074335265e-002	 4.399307492616828e+000	 9.385107447291151e+000
 3.896143273174985e-002	 4.399827497386719e+000	 9.422752169101273e+000
 0.000000000000000e+000	 4.400000000000000e+000	 9.462912719998361e+000
 3.976058877200713e-001	 4.407100470613849e+000	 9.177273470550812e+000
 3.573187492388698e-001	 4.410549660923660e+000	 9.165631701785010e+000
 3.171367988606916e-001	 4.413620877560275e+000	 9.159772864820484e+000
 2.770646333886664e-001	 4.416317491864493e+000	 9.159386825264130e+000
 2.371067569338033e-001	 4.418642934865265e+000	 9.164105798219982e+000
 1.972675803819767e-001	 4.420600694673062e+000	 9.173506502265537e+000
 1.575514209366834e-001	 4.422194313886511e+000	 9.187112363470599e+000
 1.179625017361972e-001	 4.423427387014477e+000	 9.204395763082429e+000
 7.850495154370950e-002	 4.424303557915724e+000	 9.224780322610986e+000
 3.918280450898524e-002	 4.424826517258219e+000	 9.247643220171174e+000
 0.000000000000000e+000	 4.425000000000000e+000	 9.272317532076093e+000
 3.998522486695924e-001	 4.431999343327089e+000	 9.104349225438236e+000
 3.593374992362954e-001	 4.435468020588207e+000	 9.084933169761401e+000
 3.189285321890961e-001	 4.438556588731601e+000	 9.070419080079795e+000
 2.786299703017637e-001	 4.441268438145198e+000	 9.060524360633954e+000
 2.384463431322618e-001	 4.443607019242291e+000	 9.054908091088992e+000
 1.983820864867240e-001	 4.445575839840192e+000	 9.053173178118652e+000
 1.584415419596272e-001	 4.447178462552208e+000	 9.054868558544085e+000
 1.186289565487836e-001	 4.448418502195166e+000	 9.059491447580625e+000
 7.894848234373017e-002	 4.449299623214603e+000	 9.066489625854654e+000
 3.940417628603835e-002	 4.449825537129714e+000	 9.075263758976755e+000
 0.000000000000000e+000	 4.449999999999999e+000	 9.085169743593289e+000
 4.020986096186051e-001	 4.456898216039838e+000	 9.028890400975314e+000
 3.613562492331282e-001	 4.460386380252357e+000	 9.002169058791303e+000
 3.207202655168545e-001	 4.463492299902615e+000	 8.979497296465805e+000
 2.801953072141918e-001	 4.466219384425667e+000	 8.960619642803936e+000
 2.397859293300584e-001	 4.468571103619143e+000	 8.945221608046964e+000
 1.994965925908466e-001	 4.470550985007201e+000	 8.932931833904371e+000
 1.593316629820133e-001	 4.472162611217828e+000	 8.923324296660958e+000
 1.192954113609085e-001	 4.473409617375810e+000	 8.915920556840547e+000
 7.939201314341458e-002	 4.474295688513459e+000	 8.910192049015697e+000
 3.962554806290918e-002	 4.474824557001202e+000	 8.905562405475829e+000
 0.000000000000000e+000	 4.474999999999999e+000	 8.901409807603271e+000
 4.043449705671096e-001	 4.481797088752095e+000	 8.950913979879296e+000
 3.633749992293684e-001	 4.485304739916109e+000	 8.917349335126042e+000
 3.225119988439666e-001	 4.488428011073319e+000	 8.887010340329326e+000
 2.817606441259506e-001	 4.491170330705894e+000	 8.859668239178944e+000
 2.411255155271930e-001	 4.493535187995821e+000	 8.835034542832362e+000
 2.006110986943447e-001	 4.495526130174090e+000	 8.812763179232695e+000
 1.602217840038418e-001	 4.497146759883373e+000	 8.792452697031928e+000
 1.199618661725720e-001	 4.498400732556415e+000	 8.773648517525931e+000
 7.983554394276284e-002	 4.499291753812300e+000	 8.755845228116527e+000
 3.984691983959775e-002	 4.499823576872690e+000	 8.738488910938381e+000
 0.000000000000000e+000	 4.500000000000000e+000	 8.720979500424937e+000
 4.500000000000000e+000	 0.000000000000000e+000	 1.079131040936388e+001
 4.499823576872690e+000	 3.984691983959790e-002	 1.073172185662592e+001
 4.499291753812299e+000	 7.983554394276311e-002	 1.067478695585392e+001
 4.498400732556415e+000	 1.199618661725717e-001	 1.062103898219432e+001
 4.497146759883374e+000	 1.602217840038417e-001	 1.057102893054723e+001
 4.495526130174089e+000	 2.006110986943446e-001	 1.052532627517855e+001
 4.493535187995821e+000	 2.411255155271932e-001	 1.048451974345990e+001
 4.491170330705895e+000	 2.817606441259510e-001	 1.044921810225181e+001
 4.488428011073320e+000	 3.225119988439664e-001	 1.042005095531948e+001
 4.485304739916110e+000	 3.633749992293683e-001	 1.039766955004466e+001
 4.481797088752097e+000	 4.043449705671097e-001	 1.038274759156927e+001
 4.525000000000000e+000	 0.000000000000000e+000	 1.070612170805165e+001
 4.524822596744175e+000	 4.006829161619294e-002	 1.065691042732930e+001
 4.524287819111140e+000	 8.027907474193370e-002	 1.061046959953629e+001
 4.523391847737016e+000	 1.206283209839829e-001	 1.056726229051956e+001
 4.522130908548917e+000	 1.611119050253527e-001	 1.052776785619915e+001
 4.520501275340979e+000	 2.017256047974699e-001	 1.049248274790447e+001
 4.518499272372498e+000	 2.424651017239095e-001	 1.046192133494197e+001
 4.516121276986123e+000	 2.833259810372560e-001	 1.043661674291857e+001
 4.513363722244021e+000	 3.243037321705991e-001	 1.041712170621338e+001
 4.510223099579862e+000	 3.653937492251135e-001	 1.040400943285649e+001
 4.506695961464353e+000	 4.065913315151141e-001	 1.039787447994037e+001
 4.550000000000000e+000	 0.000000000000000e+000	 1.063017657200615e+001
 4.549821616615666e+000	 4.028966339278321e-002	 1.059016632937383e+001
 4.549283884409996e+000	 8.072260554108510e-002	 1.055303633394033e+001
 4.548382962917662e+000	 1.212947757953508e-001	 1.051917964285761e+001
 4.547115057214538e+000	 1.620020260467866e-001	 1.048900418098075e+001
 4.545476420507988e+000	 2.028401109004743e-001	 1.046293359209205e+001
 4.543463356749350e+000	 2.438046879204513e-001	 1.044140811046015e+001
 4.541072223266592e+000	 2.848913179483225e-001	 1.042488545126714e+001
 4.538299433415035e+000	 3.260954654969191e-001	 1.041384171829852e+001
 4.535141459244013e+000	 3.674124992204619e-001	 1.040877232715010e+001
 4.531594834177102e+000	 4.088376924626270e-001	 1.041019294206674e+001
 4.574999999999999e+000	 0.000000000000000e+000	 1.056336636475291e+001
 4.574820636487161e+000	 4.051103516936872e-002	 1.053140826964630e+001
 4.574279949708873e+000	 8.116613634021740e-002	 1.050243331388511e+001
 4.573374078098351e+000	 1.219612306066755e-001	 1.047676473638751e+001
 4.572099205880235e+000	 1.628921470681435e-001	 1.045473922849508e+001
 4.570451565675120e+000	 2.039546170033579e-001	 1.043670783125275e+001
 4.568427441126377e+000	 2.451442741168184e-001	 1.042303685612775e+001
 4.566023169547297e+000	 2.864566548591504e-001	 1.041410882770874e+001
 4.563235144586362e+000	 3.278871988229265e-001	 1.041032344678154e+001
 4.560059818908559e+000	 3.694312492154132e-001	 1.041209857203139e+001
 4.556493706890342e+000	 4.110840534096479e-001	 1.041987121847419e+001
 4.600000000000000e+000	 0.000000000000000e+000	 1.050558481147991e+001
 4.599819656358659e+000	 4.073240694594946e-002	 1.048055680781838e+001
 4.599276015007772e+000	 8.160966713933057e-002	 1.045860803589265e+001
 4.598365193279084e+000	 1.226276854179570e-001	 1.043999209687375e+001
 4.597083354546009e+000	 1.637822680894232e-001	 1.042497463595019e+001
 4.595426710842369e+000	 2.050691231061205e-001	 1.041383428583616e+001
 4.593391525503580e+000	 2.464838603130109e-001	 1.040686363682316e+001
 4.590974115828240e+000	 2.880219917697399e-001	 1.040437023192445e+001
 4.588170855758003e+000	 3.296789321486214e-001	 1.040667758550957e+001
 4.584978178573501e+000	 3.714499992099676e-001	 1.041412622367446e+001
 4.581392579604074e+000	 4.133304143561773e-001	 1.042707474443685e+001
 4.624999999999999e+000	 0.000000000000000e+000	 1.045672793520893e+001
 4.624818676230165e+000	 4.095377872252544e-002	 1.043753430627125e+001
 4.624272080306688e+000	 8.205319793842462e-002	 1.042150930192565e+001
 4.623356308459858e+000	 1.232941402291954e-001	 1.040883705627209e+001
 4.622067503211861e+000	 1.646723891106260e-001	 1.039971234568336e+001
 4.620401856009741e+000	 2.061836292087624e-001	 1.039434157871807e+001
 4.618355609880956e+000	 2.478234465090287e-001	 1.039294381568257e+001
 4.615925062109422e+000	 2.895873286800908e-001	 1.039575181639847e+001
 4.613106566929955e+000	 3.314706654740037e-001	 1.040301311457457e+001
 4.609896538238842e+000	 3.734687492041251e-001	 1.041499111702266e+001
 4.606291452318299e+000	 4.155767753022150e-001	 1.043196622579477e+001
 4.650000000000000e+000	 0.000000000000000e+000	 1.041669399502576e+001
 4.649817696101674e+000	 4.117515049909665e-002	 1.040226488163577e+001
 4.649268145605621e+000	 8.249672873749950e-002	 1.039108718429505e+001
 4.648347423640677e+000	 1.239605950403905e-001	 1.038327573105770e+001
 4.647051651877790e+000	 1.655625101317516e-001	 1.037895459695858e+001
 4.645377001177234e+000	 2.072981353112834e-001	 1.037825814051168e+001
 4.643319694258506e+000	 2.491630327048719e-001	 1.038133207296407e+001
 4.640876008390843e+000	 2.911526655902032e-001	 1.038833455886967e+001
 4.638042278102219e+000	 3.332623987990734e-001	 1.039943734638196e+001
 4.634814897904581e+000	 3.754874991978856e-001	 1.041482692549901e+001
 4.631190325033014e+000	 4.178231362477610e-001	 1.043470571232589e+001
 4.675000000000000e+000	 0.000000000000000e+000	 1.038538342629247e+001
 4.674816715973187e+000	 4.139652227566309e-002	 1.037467435788734e+001
 4.674264210904576e+000	 8.294025953655530e-002	 1.036729299169340e+001
 4.673338538821540e+000	 1.246270498515425e-001	 1.036328500124877e+001
 4.672035800543796e+000	 1.664526311528002e-001	 1.036270391802756e+001
 4.670352146344847e+000	 2.084126414136835e-001	 1.036561221470825e+001
 4.668283778636232e+000	 2.505026189005405e-001	 1.037208242430635e+001
 4.665826954672503e+000	 2.927180025000771e-001	 1.038219829374189e+001
 4.662977989274797e+000	 3.350541321238305e-001	 1.039605597024125e+001
 4.659733257570715e+000	 3.775062491912492e-001	 1.041376521880088e+001
 4.656089197748221e+000	 4.200694971928152e-001	 1.043545066876361e+001
 4.699999999999999e+000	 0.000000000000000e+000	 1.036269878276765e+001
 4.699815735844708e+000	 4.161789405222478e-002	 1.035469022093778e+001
 4.699260276203549e+000	 8.338379033559194e-002	 1.035007923631245e+001
 4.698329654002444e+000	 1.252935046626512e-001	 1.034884249009948e+001
 4.697019949209880e+000	 1.673427521737716e-001	 1.035096311844361e+001
 4.695327291512582e+000	 2.095271475159629e-001	 1.035643186265376e+001
 4.693247863014131e+000	 2.518422050960345e-001	 1.036524823840491e+001
 4.690777900954401e+000	 2.942833394097125e-001	 1.037742174249173e+001
 4.687913700447686e+000	 3.368458654482751e-001	 1.039297309553346e+001
 4.684651617237247e+000	 3.795249991842158e-001	 1.041193551885012e+001
 4.680988070463921e+000	 4.223158581373777e-001	 1.043435604354809e+001
 4.725000000000000e+000	 0.000000000000000e+000	 1.034854468056420e+001
 4.724814755716230e+000	 4.183926582878168e-002	 1.034224157466889e+001
 4.724256341502540e+000	 8.382732113460945e-002	 1.033939960200456e+001
 4.723320769183393e+000	 1.259599594737167e-001	 1.033992654443768e+001
 4.722004097876039e+000	 1.682328731946661e-001	 1.034373528162005e+001
 4.720302436680437e+000	 2.106416536181213e-001	 1.035074496836758e+001
 4.718211947392206e+000	 2.531817912913539e-001	 1.036088225412674e+001
 4.715728847236537e+000	 2.958486763191094e-001	 1.037408254311118e+001
 4.712849411620889e+000	 3.386375987724070e-001	 1.039029129350811e+001
 4.709569976904174e+000	 3.815437491767853e-001	 1.040946535396708e+001
 4.705886943180112e+000	 4.245622190814485e-001	 1.043157433539484e+001
 4.750000000000000e+000	 0.000000000000000e+000	 1.034282774387688e+001
 4.749813775587761e+000	 4.206063760533384e-002	 1.033725909835409e+001
 4.749252406801552e+000	 8.427085193360784e-002	 1.033520891344943e+001
 4.748311884364385e+000	 1.266264142847391e-001	 1.033651621562348e+001
 4.746988246542277e+000	 1.691229942154834e-001	 1.034102375762318e+001
 4.745277581848414e+000	 2.117561597201589e-001	 1.034857924320896e+001
 4.743176031770457e+000	 2.545213774864986e-001	 1.035903659708492e+001
 4.740679793518913e+000	 2.974140132282679e-001	 1.037225727862026e+001
 4.737785122794405e+000	 3.404293320962264e-001	 1.038811163776045e+001
 4.734488336571500e+000	 3.835624991689580e-001	 1.040648031133371e+001
 4.730785815896796e+000	 4.268085800250276e-001	 1.042725565776111e+001
 4.481797088752097e+000	 4.043449705671097e-001	 1.038274759156927e+001
 4.477901692461161e+000	 4.454171445002335e-001	 1.040447027749976e+001
 4.473615251955685e+000	 4.865866597290443e-001	 1.043436648510444e+001
 4.468934536857284e+000	 5.278485627910551e-001	 1.047263813919930e+001
 4.463856388177794e+000	 5.691978089245400e-001	 1.051950318625326e+001
 4.458377721001112e+000	 6.106292630141444e-001	 1.057519673320133e+001
 4.452495527163421e+000	 6.521377006203358e-001	 1.054852423762955e+001
 4.446206877929084e+000	 6.937178090935396e-001	 1.047610703978511e+001
 4.439508926659324e+000	 7.353641887737125e-001	 1.040441360818288e+001
 4.432398911470851e+000	 7.770713542760019e-001	 1.033268446195975e+001
 4.424874157881446e+000	 8.188337358630459e-001	 1.026012434563060e+001
 4.506695961464353e+000	 4.065913315151141e-001	 1.039787447994037e+001
 4.502778924082358e+000	 4.478916841926803e-001	 1.041696884578256e+001
 4.498468670018098e+000	 4.892899189508039e-001	 1.044367832203565e+001
 4.493761950946638e+000	 5.307810548077605e-001	 1.047818600613164e+001
 4.488655590329879e+000	 5.723600189753691e-001	 1.052069129297574e+001
 4.483146486113297e+000	 6.140216478098557e-001	 1.057141105279985e+001
 4.477231613421060e+000	 6.557606878470222e-001	 1.053902759299168e+001
 4.470908027246774e+000	 6.975717969225734e-001	 1.047601671256864e+001
 4.464172865137007e+000	 7.394495453783541e-001	 1.041344716220759e+001
 4.457023349864672e+000	 7.813884173551499e-001	 1.035057045359614e+001
 4.449456792089316e+000	 8.233828121726123e-001	 1.028660216476679e+001
 4.531594834177102e+000	 4.088376924626270e-001	 1.041019294206674e+001
 4.527656155704141e+000	 4.503662238845501e-001	 1.042679046559112e+001
 4.523322088081165e+000	 4.919931781719293e-001	 1.045044341525456e+001
 4.518589365036693e+000	 5.337135468238041e-001	 1.048131582872606e+001
 4.513454792482697e+000	 5.755222290255383e-001	 1.051958831645932e+001
 4.507915251226233e+000	 6.174140326049386e-001	 1.056545927896882e+001
 4.501967699679440e+000	 6.593836750731418e-001	 1.052963361174007e+001
 4.495609176565180e+000	 7.014257847511327e-001	 1.047551062267753e+001
 4.488836803615358e+000	 7.435349019826434e-001	 1.042155497300358e+001
 4.481647788259091e+000	 7.857054804340988e-001	 1.036702990409689e+001
 4.474039426297694e+000	 8.279318884821644e-001	 1.031116256401036e+001
 4.556493706890342e+000	 4.110840534096479e-001	 1.041987121847419e+001
 4.552533387326506e+000	 4.528407635758423e-001	 1.043410886102112e+001
 4.548175506144884e+000	 4.946964373924208e-001	 1.045484091084414e+001
 4.543416779127454e+000	 5.366460388391861e-001	 1.048221210977537e+001
 4.538253994636254e+000	 5.786844390750475e-001	 1.051638404722716e+001
 4.532684016339916e+000	 6.208064173993930e-001	 1.055753641727715e+001
 4.526703785938562e+000	 6.630066622986948e-001	 1.052031955104441e+001
 4.520310325884299e+000	 7.052797725792170e-001	 1.047455755574830e+001
 4.513500742094372e+000	 7.476202585865805e-001	 1.042869737509667e+001
 4.506272226654104e+000	 7.900225435128486e-001	 1.038201472344796e+001
 4.498622060506580e+000	 8.324809647917016e-001	 1.033374906156635e+001
 4.581392579604074e+000	 4.133304143561773e-001	 1.042707474443685e+001
 4.577410618949450e+000	 4.553153032665570e-001	 1.043909491551698e+001
 4.573028924209256e+000	 4.973996966122780e-001	 1.045704707969327e+001
 4.568244193218922e+000	 5.395785308539063e-001	 1.048105644321448e+001
 4.563053196790550e+000	 5.818466491238972e-001	 1.051126533418178e+001
 4.557452781454350e+000	 6.241988021932194e-001	 1.054783449983296e+001
 4.551439872198428e+000	 6.666296495236814e-001	 1.051105966371834e+001
 4.545011475204132e+000	 7.091337604068270e-001	 1.047312326313189e+001
 4.538164680574053e+000	 7.517056151901649e-001	 1.043483163978466e+001
 4.530896665049717e+000	 7.943396065913994e-001	 1.039547373047296e+001
 4.523204694715974e+000	 8.370300411012241e-001	 1.035430205757184e+001
 4.606291452318299e+000	 4.155767753022150e-001	 1.043196622579477e+001
 4.602287850572980e+000	 4.577898429566946e-001	 1.044191674864615e+001
 4.597882342274283e+000	 5.001029558315012e-001	 1.045723539520472e+001
 4.593071607311094e+000	 5.425110228679648e-001	 1.047802759273826e+001
 4.587852398945581e+000	 5.850088591720870e-001	 1.050441616410829e+001
 4.582221546569533e+000	 6.275911869864177e-001	 1.053253938757061e+001
 4.576175958459033e+000	 6.702526367481011e-001	 1.050182527941826e+001
 4.569712624524680e+000	 7.129877482339619e-001	 1.047117054390132e+001
 4.562828619054401e+000	 7.557909717933975e-001	 1.043991205792735e+001
 4.555521103445927e+000	 7.986566696697511e-001	 1.040735273637815e+001
 4.547787328925875e+000	 8.415791174107322e-001	 1.037275891836803e+001
 4.631190325033014e+000	 4.178231362477610e-001	 1.043470571232589e+001
 4.627165082197091e+000	 4.602643826462549e-001	 1.044273979039702e+001
 4.622735760339963e+000	 5.028062150500903e-001	 1.045557660849640e+001
 4.617899021403972e+000	 5.454435148813617e-001	 1.047330156788313e+001
 4.612651601101352e+000	 5.881710692196168e-001	 1.049601773861288e+001
 4.606990311685467e+000	 6.309835717789875e-001	 1.051631498010970e+001
 4.600912044720382e+000	 6.738756239719543e-001	 1.049258488322277e+001
 4.594413773845941e+000	 7.168417360606222e-001	 1.046865932421413e+001
 4.587492557535411e+000	 7.598763283962775e-001	 1.044389002006585e+001
 4.580145541842733e+000	 8.029737327479041e-001	 1.041759462560235e+001
 4.572369963136282e+000	 8.461281937202254e-001	 1.038905405805393e+001
 4.656089197748221e+000	 4.200694971928152e-001	 1.043545066876361e+001
 4.652042313821781e+000	 4.627389223352377e-001	 1.044172685309273e+001
 4.647589178406296e+000	 5.055094742680454e-001	 1.045223882118973e+001
 4.642726435497553e+000	 5.483760068940968e-001	 1.046705169766779e+001
 4.637450803257858e+000	 5.913332792664869e-001	 1.048624854859310e+001
 4.631759076802149e+000	 6.343759565709292e-001	 1.050061914225227e+001
 4.625648130982473e+000	 6.774986111952410e-001	 1.048330419169098e+001
 4.619114923167915e+000	 7.206957238868077e-001	 1.046554673412817e+001
 4.612156496017089e+000	 7.639616849988052e-001	 1.044671409397108e+001
 4.604769980240135e+000	 8.072907958258577e-001	 1.042613943407270e+001
 4.596952597347198e+000	 8.506772700297042e-001	 1.040311901742325e+001
 4.680988070463921e+000	 4.223158581373777e-001	 1.043435604354809e+001
 4.676919545447057e+000	 4.652134620236433e-001	 1.043903820100990e+001
 4.672442596473283e+000	 5.082127334853662e-001	 1.044738755587495e+001
 4.667553849591841e+000	 5.513084989061704e-001	 1.045944870188345e+001
 4.662250005415101e+000	 5.944954893126971e-001	 1.047528444633092e+001
 4.656527841919582e+000	 6.377683413622425e-001	 1.048542352791443e+001
 4.650384217245303e+000	 6.811215984179608e-001	 1.047394622649327e+001
 4.643816072490604e+000	 7.245497117125186e-001	 1.046178718196602e+001
 4.636820434499433e+000	 7.680470416009809e-001	 1.044833009971761e+001
 4.629394418638134e+000	 8.116078589036125e-001	 1.043292442496299e+001
 4.621535231558619e+000	 8.552263463391679e-001	 1.041488254038217e+001
 4.705886943180112e+000	 4.245622190814485e-001	 1.043157433539484e+001
 4.701796777072913e+000	 4.676880017114715e-001	 1.043483161778732e+001
 4.697296014540922e+000	 5.109159927020530e-001	 1.044118582433945e+001
 4.692381263686833e+000	 5.542409909175822e-001	 1.045066076012112e+001
 4.687049207573082e+000	 5.976576993582475e-001	 1.046329871529749e+001
 4.681296607037764e+000	 6.411607261529279e-001	 1.047069719439680e+001
 4.675120303508878e+000	 6.847445856401142e-001	 1.046447138570465e+001
 4.668517221814007e+000	 7.284036995377544e-001	 1.045733242631853e+001
 4.661484372982444e+000	 7.721323982028043e-001	 1.044868118237392e+001
 4.654018857036731e+000	 8.159249219811683e-001	 1.043788416204691e+001
 4.646117865770552e+000	 8.597754226486175e-001	 1.042427064794097e+001
 4.730785815896796e+000	 4.268085800250276e-001	 1.042725565776111e+001
 4.726674008699353e+000	 4.701625413987225e-001	 1.042926247170590e+001
 4.722149432609216e+000	 5.136192519181058e-001	 1.043379419364158e+001
 4.717208677782531e+000	 5.571734829283322e-001	 1.044085357861895e+001
 4.711848409731801e+000	 6.008199094031381e-001	 1.045046213775347e+001
 4.706065372156695e+000	 6.445531109429850e-001	 1.045640667071654e+001
 4.699856389773195e+000	 6.883675728617011e-001	 1.045483751284682e+001
 4.693218371138125e+000	 7.322576873625162e-001	 1.045213164577466e+001
 4.686148311466118e+000	 7.762177548042752e-001	 1.044770788239737e+001
 4.678643295435926e+000	 8.202419850585251e-001	 1.044095058073488e+001
 4.670700499982989e+000	 8.643244989580522e-001	 1.043120670986927e+001
 4.424874157881446e+000	 8.188337358630459e-001	 1.026012434563060e+001
 4.416932081439071e+000	 8.606456809043407e-001	 1.036454717697035e+001
 4.408570190332767e+000	 9.025014554232427e-001	 1.045798358799637e+001
 4.399786087981418e+000	 9.443952457313434e-001	 1.053840150002111e+001
 4.390577475596269e+000	 9.863211601505711e-001	 1.060371274370981e+001
 4.380942154715376e+000	 1.028273230823133e+000	 1.065177157138901e+001
 4.370878029706319e+000	 1.070245415609068e+000	 1.067715816621225e+001
 4.360383110233927e+000	 1.112231600071145e+000	 1.067690819710036e+001
 4.349455513689765e+000	 1.154225599546729e+000	 1.065528965102277e+001
 4.338093467580077e+000	 1.196221161306078e+000	 1.061201329272269e+001
 4.326295311868889e+000	 1.238211966796443e+000	 1.054698620526464e+001
 4.449456792089316e+000	 8.233828121726123e-001	 1.028660216476679e+001
 4.441470593000705e+000	 8.654270457968737e-001	 1.037960988715548e+001
 4.433062246944354e+000	 9.075153523960031e-001	 1.046216664460872e+001
 4.424229344024801e+000	 9.496418859833248e-001	 1.053232959493244e+001
 4.414969572682244e+000	 9.918007221492236e-001	 1.058810001995456e+001
 4.405280722241064e+000	 1.033985859881143e+000	 1.062742171004787e+001
 4.395160685426433e+000	 1.076191223471678e+000	 1.064817938631325e+001
 4.384607460845764e+000	 1.118410664514506e+000	 1.064819716793051e+001
 4.373619155431682e+000	 1.160637963987752e+000	 1.062450544983390e+001
 4.362193986843246e+000	 1.202866834424291e+000	 1.057212619146529e+001
 4.350330285822056e+000	 1.245090922168304e+000	 1.049694216416213e+001
 4.474039426297694e+000	 8.279318884821644e-001	 1.031116256401036e+001
 4.466009104562758e+000	 8.702084106895727e-001	 1.039380289331852e+001
 4.457554303556283e+000	 9.125292493690713e-001	 1.046653461365560e+001
 4.448672600068478e+000	 9.548885262357172e-001	 1.052750416963769e+001
 4.439361669768483e+000	 9.972802841483512e-001	 1.057480233309733e+001
 4.429619289767003e+000	 1.039698488939652e+000	 1.060646245902110e+001
 4.419443341146805e+000	 1.082137031334772e+000	 1.062045877635750e+001
 4.408831811457884e+000	 1.124589728958293e+000	 1.061470472141249e+001
 4.397782797173934e+000	 1.167050328429105e+000	 1.058705132176815e+001
 4.386294506106820e+000	 1.209512507542697e+000	 1.053528563885906e+001
 4.374365259775718e+000	 1.251969877540177e+000	 1.046633202725333e+001
 4.498622060506580e+000	 8.324809647917016e-001	 1.033374906156635e+001
 4.490547616125227e+000	 8.749897755824375e-001	 1.040703631265464e+001
 4.482046360168561e+000	 9.175431463424479e-001	 1.047096433007017e+001
 4.473115856112449e+000	 9.601351664885212e-001	 1.052376891291880e+001
 4.463753766854984e+000	 1.002759846147954e+000	 1.056363037934952e+001
 4.453957857293191e+000	 1.045411117998660e+000	 1.058867169309195e+001
 4.443725996867436e+000	 1.088082839198348e+000	 1.059695662207085e+001
 4.433056162070295e+000	 1.130768793402506e+000	 1.058648793702697e+001
 4.421946438916522e+000	 1.173462692870788e+000	 1.055520565830524e+001
 4.410395025370796e+000	 1.216158180661293e+000	 1.050098535918079e+001
 4.398400233729874e+000	 1.258848832912064e+000	 1.046082282679859e+001
 4.523204694715974e+000	 8.370300411012241e-001	 1.035430205757184e+001
 4.515086127688112e+000	 8.797711404754689e-001	 1.041921766296050e+001
 4.506538416781186e+000	 9.225570433161329e-001	 1.047533054752735e+001
 4.497559112156714e+000	 9.653818067417361e-001	 1.052096594968851e+001
 4.488145863941748e+000	 1.008239408148032e+000	 1.055439380746722e+001
 4.478296424819630e+000	 1.051123747058167e+000	 1.057382675480056e+001
 4.468008652588325e+000	 1.094028647062409e+000	 1.057741814712633e+001
 4.457280512682991e+000	 1.136947857847147e+000	 1.056326012439390e+001
 4.446110080659444e+000	 1.179875057312801e+000	 1.052938171988677e+001
 4.434495544635175e+000	 1.222803853780082e+000	 1.047374702346638e+001
 4.422435207684522e+000	 1.265727788283963e+000	 1.045918698303094e+001
 4.547787328925875e+000	 8.415791174107322e-001	 1.037275891836803e+001
 4.539624639251415e+000	 8.845525053686660e-001	 1.043025193288834e+001
 4.531030473394155e+000	 9.275709402901259e-001	 1.047950599469394e+001
 4.522002368201274e+000	 9.706284469953628e-001	 1.051893588325714e+001
 4.512537961028774e+000	 1.013718970148584e+000	 1.054690124706089e+001
 4.502634992346319e+000	 1.056836376118173e+000	 1.056170446882882e+001
 4.492291308309473e+000	 1.099974454926952e+000	 1.056158855723429e+001
 4.481504863295973e+000	 1.143126922292215e+000	 1.054473507344942e+001
 4.470273722402700e+000	 1.186287421755143e+000	 1.050926210115054e+001
 4.458596063899961e+000	 1.229449526899063e+000	 1.045322226883074e+001
 4.446470181639666e+000	 1.272606743655874e+000	 1.046140135520978e+001
 4.572369963136282e+000	 8.461281937202254e-001	 1.038905405805393e+001
 4.564163150815135e+000	 8.893338702620293e-001	 1.044004164993364e+001
 4.555522530007471e+000	 9.325848372644270e-001	 1.048336142966433e+001
 4.546445624246128e+000	 9.758750872494004e-001	 1.051751783623576e+001
 4.536930058116062e+000	 1.019198532149612e+000	 1.054096033599170e+001
 4.526973559873261e+000	 1.062549005178678e+000	 1.055208115592138e+001
 4.516573964030878e+000	 1.105920262791978e+000	 1.054921304062528e+001
 4.505729213909241e+000	 1.149305986737708e+000	 1.053062704153423e+001
 4.494437364146294e+000	 1.192699786197815e+000	 1.049453034722974e+001
 4.482696583165150e+000	 1.236095200018235e+000	 1.043906416395928e+001
 4.470505155595303e+000	 1.279485699027798e+000	 1.046731209670327e+001
 4.596952597347198e+000	 8.506772700297042e-001	 1.040311901742325e+001
 4.588701662379272e+000	 8.941152351555588e-001	 1.044848694624150e+001
 4.580014586621130e+000	 9.375987342390362e-001	 1.048676569264958e+001
 4.570888880291276e+000	 9.811217275038490e-001	 1.051654949012723e+001
 4.561322155203613e+000	 1.024678094151114e+000	 1.053637774688885e+001
 4.551312127400451e+000	 1.068261634239683e+000	 1.054473264635981e+001
 4.540856619752543e+000	 1.111866070657487e+000	 1.054003676851738e+001
 4.529953564522796e+000	 1.155485051183629e+000	 1.052065074089610e+001
 4.518601005890221e+000	 1.199112150640817e+000	 1.048487092833848e+001
 4.506797102430744e+000	 1.242740873137600e+000	 1.043092717083057e+001
 4.494540129551432e+000	 1.286364654399735e+000	 1.047676722020571e+001
 4.621535231558619e+000	 8.552263463391679e-001	 1.041488254038217e+001
 4.613240173943826e+000	 8.988966000492542e-001	 1.045548562231272e+001
 4.604506643235138e+000	 9.426126312139539e-001	 1.048958575698497e+001
 4.595332136336720e+000	 9.863683677587093e-001	 1.051586712365343e+001
 4.585714252291426e+000	 1.030157656153092e+000	 1.053295921282071e+001
 4.575650694927891e+000	 1.073974263301186e+000	 1.053943429300690e+001
 4.565139275474467e+000	 1.117811878523479e+000	 1.053380489556870e+001
 4.554177915136639e+000	 1.161664115629977e+000	 1.051452132659128e+001
 4.542764647634484e+000	 1.205524515084149e+000	 1.047996921516873e+001
 4.530897621696742e+000	 1.249386546257156e+000	 1.042846710766077e+001
 4.518575103508055e+000	 1.293243609771683e+000	 1.048961654828735e+001
 4.646117865770552e+000	 8.597754226486175e-001	 1.042427064794097e+001
 4.637778685508796e+000	 9.036779649431156e-001	 1.046093320868756e+001
 4.628998699849491e+000	 9.476265281891795e-001	 1.049168677851826e+001
 4.619775392382458e+000	 9.916150080139811e-001	 1.051530564986591e+001
 4.610106349379503e+000	 1.035637218155545e+000	 1.053050955215089e+001
 4.599989262455583e+000	 1.079686892363189e+000	 1.053596098393675e+001
 4.589421931196649e+000	 1.123757686389955e+000	 1.053026256031547e+001
 4.578402265750768e+000	 1.167843180076751e+000	 1.051195438476998e+001
 4.566928289379082e+000	 1.211936879527810e+000	 1.047951145506804e+001
 4.554998140963142e+000	 1.256032219376903e+000	 1.044723650383154e+001
 4.542610077465175e+000	 1.300122565143645e+000	 1.050571166551402e+001
 4.670700499982989e+000	 8.643244989580522e-001	 1.043120670986927e+001
 4.662317197074184e+000	 9.084593298371435e-001	 1.046472302568148e+001
 4.653490756464190e+000	 9.526404251647136e-001	 1.049293214343829e+001
 4.644218648428491e+000	 9.968616482696640e-001	 1.051469865208458e+001
 4.634498446467842e+000	 1.041116780158473e+000	 1.052883269260939e+001
 4.624327829983526e+000	 1.085399521425691e+000	 1.053408715466610e+001
 4.613704586919089e+000	 1.129703494256913e+000	 1.052915488559626e+001
 4.602626616365184e+000	 1.174022244523953e+000	 1.051266592133187e+001
 4.591091931124016e+000	 1.218349243971801e+000	 1.048318474896971e+001
 4.579098660229949e+000	 1.262677892496843e+000	 1.046972191068179e+001
 4.566645051422785e+000	 1.307001520515620e+000	 1.052490587207887e+001
 4.326295311868889e+000	 1.238211966796443e+000	 1.054698620526464e+001
 4.314059501273209e+000	 1.280191633970678e+000	 1.053281596945079e+001
 4.301384607506363e+000	 1.322153719700637e+000	 1.057754760960613e+001
 4.288269321466461e+000	 1.364091722274012e+000	 1.061830088273914e+001
 4.274712455367262e+000	 1.405999083972017e+000	 1.065456955669433e+001
 4.260712944807515e+000	 1.447869193727904e+000	 1.068582463478559e+001
 4.246269850775702e+000	 1.489695389864481e+000	 1.071151433174035e+001
 4.231382361586969e+000	 1.531470962909008e+000	 1.073106409903338e+001
 4.216049794749047e+000	 1.573189158483706e+000	 1.074387670122766e+001
 4.200271598754028e+000	 1.614843180269973e+000	 1.074933234484447e+001
 4.184047354792891e+000	 1.656426193044263e+000	 1.074678886117972e+001
 4.350330285822056e+000	 1.245090922168304e+000	 1.049694216416213e+001
 4.338026498500345e+000	 1.287303809716620e+000	 1.051719688476646e+001
 4.325281188656641e+000	 1.329499018145727e+000	 1.055903756189857e+001
 4.312093039916264e+000	 1.371670009622690e+000	 1.059725333409181e+001
 4.298460857894163e+000	 1.413810189996952e+000	 1.063132589582925e+001
 4.284383572275750e+000	 1.455912911473615e+000	 1.066071343868111e+001
 4.269860238832774e+000	 1.497971475366166e+000	 1.068485062605060e+001
 4.254890041371023e+000	 1.539979134927016e+000	 1.070314861856966e+001
 4.239472293606604e+000	 1.581929098254062e+000	 1.071499515179741e+001
 4.223606440967679e+000	 1.623814531271376e+000	 1.071975466777654e+001
 4.207292062318510e+000	 1.665628560781946e+000	 1.071676850189600e+001
 4.374365259775718e+000	 1.251969877540177e+000	 1.046633202725333e+001
 4.361993495728061e+000	 1.294415985462394e+000	 1.050779232977173e+001
 4.349177769807554e+000	 1.336844316590506e+000	 1.054649109545040e+001
 4.335916758366730e+000	 1.379248296970956e+000	 1.058192223853319e+001
 4.322209260421725e+000	 1.421621296021412e+000	 1.061355550337084e+001
 4.308054199744611e+000	 1.463956629218827e+000	 1.064083638760912e+001
 4.293450626890412e+000	 1.506247560867369e+000	 1.066318611551305e+001
 4.278397721155549e+000	 1.548487306944598e+000	 1.068000166320806e+001
 4.262894792464511e+000	 1.590669038024090e+000	 1.069065583752762e+001
 4.246941283181525e+000	 1.632785882272589e+000	 1.069449741005611e+001
 4.230536769844139e+000	 1.674830928519619e+000	 1.069085130784679e+001
 4.398400233729874e+000	 1.258848832912064e+000	 1.046082282679859e+001
 4.385960492956355e+000	 1.301528161207999e+000	 1.050382936176124e+001
 4.373074350959102e+000	 1.344189615034976e+000	 1.053978006666403e+001
 4.359740476817858e+000	 1.386826584318810e+000	 1.057218226972852e+001
 4.345957662949947e+000	 1.429432402045397e+000	 1.060113593482126e+001
 4.331724827214101e+000	 1.472000346963540e+000	 1.062607398257411e+001
 4.317041014948612e+000	 1.514523646368089e+000	 1.064640430931788e+001
 4.301905400940546e+000	 1.556995478961755e+000	 1.066150981195233e+001
 4.286317291322765e+000	 1.599408977793790e+000	 1.067074846773409e+001
 4.270276125395565e+000	 1.641757233273613e+000	 1.067345347060595e+001
 4.253781477369779e+000	 1.684033296257282e+000	 1.066893342557931e+001
 4.422435207684522e+000	 1.265727788283963e+000	 1.045918698303094e+001
 4.409927490185231e+000	 1.308640336953436e+000	 1.050342297849515e+001
 4.396970932111286e+000	 1.351534913479136e+000	 1.054048691601630e+001
 4.383564195269647e+000	 1.394404871666250e+000	 1.057004720741506e+001
 4.369706065478828e+000	 1.437243508068906e+000	 1.059394645681613e+001
 4.355395454684218e+000	 1.480044064707754e+000	 1.061630835807028e+001
 4.340631403007379e+000	 1.522799731868327e+000	 1.063439027216449e+001
 4.325413080726016e+000	 1.565503650978486e+000	 1.064756112103044e+001
 4.309739790181369e+000	 1.608148917563162e+000	 1.065516415040026e+001
 4.293610967609801e+000	 1.650728584274447e+000	 1.065651706822187e+001
 4.277026184895429e+000	 1.693235663994934e+000	 1.065091224251467e+001
 4.446470181639666e+000	 1.272606743655874e+000	 1.046140135520978e+001
 4.433894487414683e+000	 1.315752512698706e+000	 1.050657595537870e+001
 4.420867513264104e+000	 1.358880211922986e+000	 1.054470362552421e+001
 4.407387913722100e+000	 1.401983159013279e+000	 1.057545005891642e+001
 4.393454468008369e+000	 1.445054614091939e+000	 1.059848470429840e+001
 4.379066082154961e+000	 1.488087782451469e+000	 1.061348035933155e+001
 4.364221791066709e+000	 1.531075817368083e+000	 1.062703058222069e+001
 4.348920760511957e+000	 1.574011822994792e+000	 1.063804508396964e+001
 4.333162289040321e+000	 1.616888857332206e+000	 1.064379535437550e+001
 4.316945809824232e+000	 1.659699935275091e+000	 1.064358370590034e+001
 4.300270892421088e+000	 1.702438031732576e+000	 1.063668635341080e+001
 4.470505155595303e+000	 1.279485699027798e+000	 1.046731209670327e+001
 4.457861484644715e+000	 1.322864688443807e+000	 1.051313527661882e+001
 4.444764094417560e+000	 1.366225510366526e+000	 1.055203567025849e+001
 4.431211632175215e+000	 1.409561446359894e+000	 1.058367654026104e+001
 4.417202870538570e+000	 1.452865720114496e+000	 1.060772481386054e+001
 4.402736709626333e+000	 1.496131500194685e+000	 1.062385066450189e+001
 4.387812179126605e+000	 1.539351902867356e+000	 1.063172707014646e+001
 4.372428440298370e+000	 1.582519995010672e+000	 1.063285259295938e+001
 4.356584787899623e+000	 1.625628797100923e+000	 1.063653587279261e+001
 4.340280652038858e+000	 1.668671286275547e+000	 1.063455013631708e+001
 4.323515599946758e+000	 1.711640399470208e+000	 1.062615552790716e+001
 4.494540129551432e+000	 1.286364654399735e+000	 1.047676722020571e+001
 4.481828481875328e+000	 1.329976864188740e+000	 1.052294971572891e+001
 4.468660675571649e+000	 1.373570808809755e+000	 1.056233260885787e+001
 4.455035350628992e+000	 1.417139733706098e+000	 1.059457702026190e+001
 4.440951273069429e+000	 1.460676826136578e+000	 1.061934764828708e+001
 4.426407337098330e+000	 1.504175217937402e+000	 1.063631233837941e+001
 4.411402567187063e+000	 1.547627988366147e+000	 1.064514162891220e+001
 4.395936120085256e+000	 1.591028167026127e+000	 1.064550827484525e+001
 4.380007286759272e+000	 1.634368736869311e+000	 1.063708675076610e+001
 4.363615494253677e+000	 1.677642637275812e+000	 1.062931432841317e+001
 4.346760307472438e+000	 1.720842767207830e+000	 1.061922067911074e+001
 4.518575103508055e+000	 1.293243609771683e+000	 1.048961654828735e+001
 4.505795479106517e+000	 1.337089039933506e+000	 1.053586978794090e+001
 4.492557256726375e+000	 1.380916107252676e+000	 1.057544567310912e+001
 4.478859069083431e+000	 1.424718021051889e+000	 1.060800347192334e+001
 4.464699675600949e+000	 1.468487932158184e+000	 1.063320594722773e+001
 4.450077964570954e+000	 1.512218935679619e+000	 1.065071891344581e+001
 4.434992955248088e+000	 1.555904073864455e+000	 1.066021076955257e+001
 4.419443799872613e+000	 1.599536339041156e+000	 1.066135200961303e+001
 4.403429785619270e+000	 1.643108676637371e+000	 1.065381471247328e+001
 4.386950336468694e+000	 1.686613988275887e+000	 1.063727201231090e+001
 4.370005014998127e+000	 1.730045134945440e+000	 1.061578383318473e+001
 4.542610077465175e+000	 1.300122565143645e+000	 1.050571166551402e+001
 4.529762476338289e+000	 1.344201215678103e+000	 1.055174770412810e+001
 4.516453837881738e+000	 1.388261405695286e+000	 1.059122772368386e+001
 4.502682787538535e+000	 1.432296308397268e+000	 1.062380943000215e+001
 4.488448078133128e+000	 1.476299038179315e+000	 1.064915394460309e+001
 4.473748592044207e+000	 1.520262653421338e+000	 1.066692534865020e+001
 4.458583343309677e+000	 1.564180159362281e+000	 1.067679020268844e+001
 4.442951479660441e+000	 1.608044511055760e+000	 1.067841704367163e+001
 4.426852284479617e+000	 1.651848616405103e+000	 1.067147586090049e+001
 4.410285178683902e+000	 1.695585339275773e+000	 1.065563755261698e+001
 4.393249722523829e+000	 1.739247502683042e+000	 1.063057336512024e+001
 4.566645051422785e+000	 1.307001520515620e+000	 1.052490587207887e+001
 4.553729473570638e+000	 1.351313391422532e+000	 1.057043732618294e+001
 4.540350419037734e+000	 1.395606704137587e+000	 1.060953320727315e+001
 4.526506505994300e+000	 1.439874595742233e+000	 1.064184994990880e+001
 4.512196480665969e+000	 1.484110144199970e+000	 1.066704732928174e+001
 4.497419219518086e+000	 1.528306371162558e+000	 1.068478799187046e+001
 4.482173731371831e+000	 1.572456244859625e+000	 1.069473696156403e+001
 4.466459159448741e+000	 1.616552683069939e+000	 1.069656112278539e+001
 4.450274783340313e+000	 1.660588556172508e+000	 1.068992868227258e+001
 4.433620020899308e+000	 1.704556690275469e+000	 1.067450861130162e+001
 4.416494430049541e+000	 1.748449870420633e+000	 1.064997007025740e+001
 4.184047354792891e+000	 1.656426193044263e+000	 1.074678886117972e+001
 4.167376778389714e+000	 1.697931325783844e+000	 1.073921246556539e+001
 4.150259720952576e+000	 1.739351674839182e+000	 1.071778570831052e+001
 4.132696171238480e+000	 1.780680307170585e+000	 1.068168844987540e+001
 4.114686256729197e+000	 1.821910263647759e+000	 1.063008222920291e+001
 4.096230244915354e+000	 1.863034562408459e+000	 1.056211088223225e+001
 4.077328544486139e+000	 1.904046202273650e+000	 1.060703833147040e+001
 4.057981706422046e+000	 1.944938166216198e+000	 1.069869107196646e+001
 4.038190424988224e+000	 1.985703424879969e+000	 1.078543206782918e+001
 4.017955538626072e+000	 2.026334940146126e+000	 1.086732612781296e+001
 3.997278030740859e+000	 2.066825668743275e+000	 1.094444530249432e+001
 4.207292062318510e+000	 1.665628560781946e+000	 1.071676850189600e+001
 4.190528871602665e+000	 1.707364277590921e+000	 1.070763236197693e+001
 4.173316719402627e+000	 1.749014739695385e+000	 1.068516755496770e+001
 4.155655594412936e+000	 1.790572975538764e+000	 1.064855402212988e+001
 4.137545624823596e+000	 1.832031987328928e+000	 1.059695262134371e+001
 4.118987079611292e+000	 1.873384754415510e+000	 1.052950573681622e+001
 4.099980369735707e+000	 1.914624236724039e+000	 1.061247920117504e+001
 4.080526049238336e+000	 1.955743378243896e+000	 1.069754845282908e+001
 4.060624816241361e+000	 1.996735110566970e+000	 1.077821940927085e+001
 4.040277513844186e+000	 2.037592356473766e+000	 1.085456361144384e+001
 4.019485130915437e+000	 2.078308033563603e+000	 1.092665965606758e+001
 4.230536769844139e+000	 1.674830928519619e+000	 1.069085130784679e+001
 4.213680964815437e+000	 1.716797229398172e+000	 1.068026188728324e+001
 4.196373717852327e+000	 1.758677804551920e+000	 1.065686754840160e+001
 4.178615017586889e+000	 1.800465643907400e+000	 1.061984822101715e+001
 4.160404992917361e+000	 1.842153711010651e+000	 1.056836398287125e+001
 4.141743914306484e+000	 1.883734946423183e+000	 1.053478383662373e+001
 4.122632194984438e+000	 1.925202271175087e+000	 1.061730335960919e+001
 4.103070392053720e+000	 1.966548590272260e+000	 1.069586256925174e+001
 4.083059207493538e+000	 2.007766796254614e+000	 1.077053304826793e+001
 4.062599489061308e+000	 2.048849772801994e+000	 1.084139296507219e+001
 4.041692231089015e+000	 2.089790398384435e+000	 1.090852736141125e+001
 4.253781477369779e+000	 1.684033296257282e+000	 1.066893342557931e+001
 4.236833058028028e+000	 1.726230181205598e+000	 1.065699526158131e+001
 4.219430716301676e+000	 1.768340869408785e+000	 1.063277808114752e+001
 4.201574440760344e+000	 1.810358312276495e+000	 1.059546171151336e+001
 4.183264361010494e+000	 1.852275434692931e+000	 1.054420535224138e+001
 4.164500749000932e+000	 1.894085138431479e+000	 1.054591411599301e+001
 4.145284020232332e+000	 1.935780305626794e+000	 1.062149767189148e+001
 4.125614734868195e+000	 1.977353802301289e+000	 1.069361992588879e+001
 4.105493598744756e+000	 2.018798481942899e+000	 1.076235916005965e+001
 4.084921464277438e+000	 2.060107189130810e+000	 1.082780006558991e+001
 4.063899331261593e+000	 2.101272763205771e+000	 1.089003402814774e+001
 4.277026184895429e+000	 1.693235663994934e+000	 1.065091224251467e+001
 4.259985151240440e+000	 1.735663133013200e+000	 1.063772798038483e+001
 4.242487714750675e+000	 1.778003934265982e+000	 1.061279285461591e+001
 4.224533863933292e+000	 1.820250980646047e+000	 1.057528649982264e+001
 4.206123729102991e+000	 1.862397158375764e+000	 1.052436714036375e+001
 4.187257583694635e+000	 1.904435330440397e+000	 1.055632637628805e+001
 4.167935845479390e+000	 1.946358340079160e+000	 1.062505043458300e+001
 4.148159077681762e+000	 1.988159014330985e+000	 1.069080848656016e+001
 4.127927989995017e+000	 2.029830167631828e+000	 1.075368540556767e+001
 4.107243439492581e+000	 2.071364605460215e+000	 1.081377230086354e+001
 4.086106431433171e+000	 2.112755128027612e+000	 1.087116680092368e+001
 4.300270892421088e+000	 1.702438031732576e+000	 1.063668635341080e+001
 4.283137244452671e+000	 1.745096084820976e+000	 1.062235678015334e+001
 4.265544713199322e+000	 1.787666999123511e+000	 1.059680684371751e+001
 4.247493287105740e+000	 1.830143649016057e+000	 1.055921589712771e+001
 4.228983097194856e+000	 1.872518882059152e+000	 1.050874109350847e+001
 4.210014418387591e+000	 1.914785522449936e+000	 1.056601064127106e+001
 4.190587670725612e+000	 1.956936374532185e+000	 1.062795133699968e+001
 4.170703420494421e+000	 1.998964226361346e+000	 1.068741763481454e+001
 4.150362381244316e+000	 2.040861853321399e+000	 1.074450089124258e+001
 4.129565414706734e+000	 2.082622021790209e+000	 1.079929852889701e+001
 4.108313531603750e+000	 2.124237492849956e+000	 1.085191431792288e+001
 4.323515599946758e+000	 1.711640399470208e+000	 1.062615552790716e+001
 4.306289337664721e+000	 1.754529036628928e+000	 1.061077960493357e+001
 4.288601711647619e+000	 1.797330063981370e+000	 1.058471626262930e+001
 4.270452710277685e+000	 1.840036317386525e+000	 1.054714448450981e+001
 4.251842465286088e+000	 1.882640605743095e+000	 1.051764652976697e+001
 4.232771253079803e+000	 1.925135714460097e+000	 1.057495826264649e+001
 4.213239495970997e+000	 1.967514408985869e+000	 1.063019142377263e+001
 4.193247763306173e+000	 2.009769438392374e+000	 1.068343813576456e+001
 4.172796772492658e+000	 2.051893539011612e+000	 1.073479613020548e+001
 4.151887389919897e+000	 2.093879438120791e+000	 1.078436903831189e+001
 4.130520631773328e+000	 2.135719857672803e+000	 1.083226667071736e+001
 4.346760307472438e+000	 1.720842767207830e+000	 1.061922067911074e+001
 4.329441430876592e+000	 1.763961988437055e+000	 1.060289557407099e+001
 4.311658710095564e+000	 1.806993128839561e+000	 1.057641853165914e+001
 4.293412133449130e+000	 1.849928985757451e+000	 1.053896807899418e+001
 4.274701833376684e+000	 1.892762329427593e+000	 1.053296002589078e+001
 4.255528087771272e+000	 1.935485906470881e+000	 1.058316188455459e+001
 4.235891321215544e+000	 1.978092443440212e+000	 1.063176305860981e+001
 4.215792106117018e+000	 2.020574650424067e+000	 1.067886209914657e+001
 4.195231163740042e+000	 2.062925224702469e+000	 1.072456300463656e+001
 4.174209365132069e+000	 2.105136854451962e+000	 1.076897551009556e+001
 4.152727731941906e+000	 2.147202222496155e+000	 1.081221536540680e+001
 4.370005014998127e+000	 1.730045134945440e+000	 1.061578383318473e+001
 4.352593524088284e+000	 1.773394940245357e+000	 1.059860495095184e+001
 4.334715708543159e+000	 1.816656193698083e+000	 1.057181224516786e+001
 4.316371556620072e+000	 1.859821654128835e+000	 1.053458370067921e+001
 4.297561201466650e+000	 1.902884053112646e+000	 1.054744463533327e+001
 4.278284922461995e+000	 1.945836098482287e+000	 1.059061540919806e+001
 4.258543146459256e+000	 1.988670477895215e+000	 1.063265988921414e+001
 4.238336448926953e+000	 2.031379862456427e+000	 1.067368294355942e+001
 4.217665554986465e+000	 2.073956910393967e+000	 1.071379472936390e+001
 4.196531340343253e+000	 2.116394270783720e+000	 1.075311098057017e+001
 4.174934832109484e+000	 2.158684587320011e+000	 1.079175328499803e+001
 4.393249722523829e+000	 1.739247502683042e+000	 1.063057336512024e+001
 4.375745617299795e+000	 1.782827892053834e+000	 1.059846653830377e+001
 4.357772706990403e+000	 1.826319258556935e+000	 1.057079714050957e+001
 4.339330979790511e+000	 1.869714322500677e+000	 1.053388954090916e+001
 4.320420569555981e+000	 1.913005776798254e+000	 1.056109573876270e+001
 4.301041757151972e+000	 1.956186290494314e+000	 1.059731396356004e+001
 4.281194971702131e+000	 1.999248512350876e+000	 1.063287681331543e+001
 4.260880791735981e+000	 2.042185074489453e+000	 1.066789536183846e+001
 4.240099946231929e+000	 2.084988596086108e+000	 1.070248581660828e+001
 4.218853315553446e+000	 2.127651687116068e+000	 1.073676980553727e+001
 4.197141932276062e+000	 2.170166952144371e+000	 1.077087465297900e+001
 4.416494430049541e+000	 1.748449870420633e+000	 1.064997007025740e+001
 4.398897710511125e+000	 1.792260843862486e+000	 1.061983330016178e+001
 4.380829705437297e+000	 1.835982323416121e+000	 1.057833314081717e+001
 4.362290402960451e+000	 1.879606990872977e+000	 1.054426551411338e+001
 4.343279937644680e+000	 1.923127500484417e+000	 1.057390988382172e+001
 4.323798591841205e+000	 1.966536482506963e+000	 1.060325386717302e+001
 4.303846796944172e+000	 2.009826546807197e+000	 1.063240994577488e+001
 4.283425134544102e+000	 2.052990286523145e+000	 1.066149528752295e+001
 4.262534337476436e+000	 2.096020281778892e+000	 1.069063204184125e+001
 4.241175290762651e+000	 2.138909103449004e+000	 1.071994762555466e+001
 4.219349032441642e+000	 2.181649316969236e+000	 1.074957499804288e+001
 3.997278030740859e+000	 2.066825668743275e+000	 1.094444530249432e+001
 3.976159030383603e+000	 2.107168565897559e+000	 1.081042434010432e+001
 3.954599812824289e+000	 2.147356589020302e+000	 1.069920566928574e+001
 3.932601800014995e+000	 2.187382701429100e+000	 1.061179867164244e+001
 3.910166560942136e+000	 2.227239876097467e+000	 1.054920364449468e+001
 3.887295811865205e+000	 2.266921099430403e+000	 1.051241092411590e+001
 3.863991416440920e+000	 2.306419375061632e+000	 1.050240000281296e+001
 3.840255385731489e+000	 2.345727727668478e+000	 1.052013864067300e+001
 3.816089878095935e+000	 2.384839206800335e+000	 1.056658197283846e+001
 3.791497198963488e+000	 2.423746890716576e+000	 1.064267161320898e+001
 3.766479800488311e+000	 2.462443890229713e+000	 1.074933475550699e+001
 4.019485130915437e+000	 2.078308033563603e+000	 1.092665965606758e+001
 3.998248802778659e+000	 2.118875057924907e+000	 1.080174464358246e+001
 3.976569811788677e+000	 2.159286347843419e+000	 1.069958759310256e+001
 3.954449587797304e+000	 2.199534827544055e+000	 1.062117865267034e+001
 3.931889708507547e+000	 2.239613430961295e+000	 1.056749896708818e+001
 3.908891899713674e+000	 2.279515105535722e+000	 1.053951982630464e+001
 3.885458035426050e+000	 2.319232816032355e+000	 1.053820180757627e+001
 3.861590137879450e+000	 2.358759548376729e+000	 1.056449391217589e+001
 3.837290377423783e+000	 2.398088313504623e+000	 1.061933269745645e+001
 3.812561072296218e+000	 2.437212151221294e+000	 1.070364140511686e+001
 3.787404688273996e+000	 2.476124134065992e+000	 1.081832908655413e+001
 4.041692231089015e+000	 2.089790398384435e+000	 1.090852736141125e+001
 4.020338575172714e+000	 2.130581549952659e+000	 1.079233024738081e+001
 3.998539810752065e+000	 2.171216106666840e+000	 1.069884838696370e+001
 3.976297375578612e+000	 2.211686953659215e+000	 1.062905283705606e+001
 3.953612856071957e+000	 2.251986985825227e+000	 1.058390573444510e+001
 3.930487987561142e+000	 2.292109111641043e+000	 1.056435946930076e+001
 3.906924654410178e+000	 2.332046257002981e+000	 1.057135585237007e+001
 3.882924890026412e+000	 2.371791369084783e+000	 1.060582527659238e+001
 3.858490876750631e+000	 2.411337420208613e+000	 1.066868587389219e+001
 3.833624945627947e+000	 2.450677411725616e+000	 1.076084266794338e+001
 3.808329576058680e+000	 2.489804377901773e+000	 1.088318672373725e+001
 4.063899331261593e+000	 2.101272763205771e+000	 1.089003402814774e+001
 4.042428347565767e+000	 2.142288041980814e+000	 1.078217382567367e+001
 4.020509809714452e+000	 2.183145865490565e+000	 1.069698772390626e+001
 3.998145163358921e+000	 2.223839079774579e+000	 1.063542782720019e+001
 3.975336003635368e+000	 2.264360540689263e+000	 1.059843740504963e+001
 3.952084075407610e+000	 2.304703117746367e+000	 1.058695009064560e+001
 3.928391273393306e+000	 2.344859697973511e+000	 1.060188907305741e+001
 3.904259642172373e+000	 2.384823189792640e+000	 1.064416628370442e+001
 3.879691376076479e+000	 2.424586526912307e+000	 1.071468157782171e+001
 3.854688818958677e+000	 2.464142672229539e+000	 1.081432191166139e+001
 3.829254463842364e+000	 2.503484621737058e+000	 1.091750271048672e+001
 4.086106431433171e+000	 2.112755128027612e+000	 1.087116680092368e+001
 4.064518119957823e+000	 2.153994534009374e+000	 1.077126945173789e+001
 4.042479808675838e+000	 2.195075624314593e+000	 1.069400654097563e+001
 4.019992951138230e+000	 2.235991205890145e+000	 1.064031135531145e+001
 3.997059151197778e+000	 2.276734095553401e+000	 1.061110843395495e+001
 3.973680163253078e+000	 2.317297123851696e+000	 1.060731279223764e+001
 3.949857892375436e+000	 2.357673138943944e+000	 1.062982913874024e+001
 3.925594394317334e+000	 2.397855010500301e+000	 1.067955108657414e+001
 3.900891875401327e+000	 2.437835633615703e+000	 1.075736035946786e+001
 3.875752692288405e+000	 2.477607932733065e+000	 1.086412599334749e+001
 3.850179351625048e+000	 2.517164865571844e+000	 1.087401197444392e+001
 4.108313531603750e+000	 2.124237492849956e+000	 1.085191431792288e+001
 4.086607892348878e+000	 2.165701026038337e+000	 1.075961256013922e+001
 4.064449807636225e+000	 2.207005383138925e+000	 1.068990700506303e+001
 4.041840738916539e+000	 2.248143332005916e+000	 1.064371225287144e+001
 4.018782298759190e+000	 2.289107650417644e+000	 1.062193424584894e+001
 3.995276251097546e+000	 2.329891129957026e+000	 1.062546951697149e+001
 3.971324511356565e+000	 2.370486579914279e+000	 1.065520443194211e+001
 3.946929146461295e+000	 2.410886831207763e+000	 1.071201442523906e+001
 3.922092374725175e+000	 2.451084740318802e+000	 1.079676323077468e+001
 3.896816565617135e+000	 2.491073193236195e+000	 1.091030210780085e+001
 3.871104239406733e+000	 2.530845109406134e+000	 1.083230864116864e+001
 4.130520631773328e+000	 2.135719857672803e+000	 1.083226667071736e+001
 4.108697664738933e+000	 2.177407518067704e+000	 1.074719991013857e+001
 4.086419806595614e+000	 2.218935141963562e+000	 1.068469247984518e+001
 4.063688526693849e+000	 2.260295458121890e+000	 1.064564042108421e+001
 4.040505446319600e+000	 2.301481205281990e+000	 1.063093120898872e+001
 4.016872338941014e+000	 2.342485136062361e+000	 1.064144302613052e+001
 3.992791130336694e+000	 2.383300020884518e+000	 1.067804402943024e+001
 3.968263898604257e+000	 2.423918651915029e+000	 1.074159161093315e+001
 3.943292874048022e+000	 2.464333847021603e+000	 1.083293165299549e+001
 3.917880438944865e+000	 2.504538453738926e+000	 1.092220205437442e+001
 3.892029127187417e+000	 2.544525353239926e+000	 1.079240370930980e+001
 4.152727731941906e+000	 2.147202222496155e+000	 1.081221536540680e+001
 4.130787437127987e+000	 2.189114010097476e+000	 1.073402955027233e+001
 4.108389805554000e+000	 2.230864900788501e+000	 1.067836749378464e+001
 4.085536314470158e+000	 2.272447584238068e+000	 1.064610680227412e+001
 4.062228593879011e+000	 2.313854760146438e+000	 1.063811660997155e+001
 4.038468426783481e+000	 2.355079142167698e+000	 1.065525687750471e+001
 4.014257749315822e+000	 2.396113461854660e+000	 1.069837768365278e+001
 3.989598650746218e+000	 2.436950472622099e+000	 1.076831851081420e+001
 3.964493373369870e+000	 2.477582953724108e+000	 1.086590752467935e+001
 3.938944312271593e+000	 2.518003714241261e+000	 1.087398857909290e+001
 3.912954014967101e+000	 2.558205597073220e+000	 1.075430838118289e+001
 4.174934832109484e+000	 2.158684587320011e+000	 1.079175328499803e+001
 4.152877209516043e+000	 2.200820502127651e+000	 1.072010078406315e+001
 4.130359804511387e+000	 2.242794659613744e+000	 1.067093770915154e+001
 4.107384102245466e+000	 2.284599710354449e+000	 1.064512335219640e+001
 4.083951741437423e+000	 2.326228315010992e+000	 1.064350862931087e+001
 4.060064514624950e+000	 2.367673148273040e+000	 1.066693540420705e+001
 4.035724368293952e+000	 2.408926902824705e+000	 1.071623580476865e+001
 4.010933402887178e+000	 2.449982293328970e+000	 1.079223153317859e+001
 3.985693872690719e+000	 2.490832060426315e+000	 1.089573317004080e+001
 3.960008185597324e+000	 2.531468974743198e+000	 1.082793572223513e+001
 3.933878902745785e+000	 2.571885840906018e+000	 1.071803405735330e+001
 4.197141932276062e+000	 2.170166952144371e+000	 1.077087465297900e+001
 4.174966981903096e+000	 2.212526994158230e+000	 1.070541413681920e+001
 4.152329803467773e+000	 2.254724418439292e+000	 1.066240989202859e+001
 4.129231890019774e+000	 2.296751836471034e+000	 1.064270301322690e+001
 4.105674888994832e+000	 2.338601869875647e+000	 1.064712631778768e+001
 4.081660602465419e+000	 2.380267154378384e+000	 1.067650369416231e+001
 4.057190987271081e+000	 2.421740343794653e+000	 1.073164944324767e+001
 4.032268155027139e+000	 2.463014114035645e+000	 1.081336761314548e+001
 4.006894372010566e+000	 2.504081167128225e+000	 1.089824422880614e+001
 3.981072058922053e+000	 2.544934235244737e+000	 1.078405054267230e+001
 3.954803790523469e+000	 2.585566084738318e+000	 1.068359233139167e+001
 4.219349032441642e+000	 2.181649316969236e+000	 1.074957499804288e+001
 4.197056754289153e+000	 2.224233486189214e+000	 1.068997132348198e+001
 4.174299802423162e+000	 2.266654177265144e+000	 1.065279188326340e+001
 4.151079677793083e+000	 2.308903962587823e+000	 1.063885968839829e+001
 4.127398036551244e+000	 2.350975424740408e+000	 1.064898957354885e+001
 4.103256690304887e+000	 2.392861160483732e+000	 1.068398757024357e+001
 4.078657606247210e+000	 2.434553784764504e+000	 1.074465027302043e+001
 4.053602907166101e+000	 2.476045934742123e+000	 1.083176419879307e+001
 4.028094871329415e+000	 2.517330273829839e+000	 1.084694903971395e+001
 4.002135932245784e+000	 2.558399495745880e+000	 1.074234039441209e+001
 3.975728678300154e+000	 2.599246328570120e+000	 1.065099498479470e+001
 3.766479800488311e+000	 2.462443890229713e+000	 1.074933475550699e+001
 3.741040281084275e+000	 2.500923352550201e+000	 1.097297108244520e+001
 3.715181384841300e+000	 2.539178465126699e+000	 1.087926045071428e+001
 3.688906000821719e+000	 2.577202459478736e+000	 1.079773855240912e+001
 3.662217162235255e+000	 2.614988615018722e+000	 1.072888801238837e+001
 3.635118045494690e+000	 2.652530262857026e+000	 1.067319999693446e+001
 3.607611969151798e+000	 2.689820789586394e+000	 1.063117365767603e+001
 3.579702392714054e+000	 2.726853641041348e+000	 1.060331552703325e+001
 3.551392915342705e+000	 2.763622326028175e+000	 1.059013886579478e+001
 3.522687274433059e+000	 2.800120420021205e+000	 1.059216296361408e+001
 3.493589344077969e+000	 2.836341568821007e+000	 1.060991239339181e+001
 3.787404688273996e+000	 2.476124134065992e+000	 1.081832908655413e+001
 3.761823838206611e+000	 2.514817371178015e+000	 1.094199239500527e+001
 3.735821281428924e+000	 2.553285012158413e+000	 1.086998505296817e+001
 3.709399923053605e+000	 2.591520250924044e+000	 1.079637651021112e+001
 3.682562813141554e+000	 2.629516329550723e+000	 1.073450172419182e+001
 3.655313145752280e+000	 2.667266542099426e+000	 1.068483824048376e+001
 3.627654257873963e+000	 2.704764238421754e+000	 1.064787281965149e+001
 3.599589628233558e+000	 2.742002827940190e+000	 1.062410085040803e+001
 3.571122875987657e+000	 2.778975783398840e+000	 1.061402571274602e+001
 3.542257759294872e+000	 2.815676644580224e+000	 1.061815809179037e+001
 3.512998173770796e+000	 2.852099021983801e+000	 1.063701524330475e+001
 3.808329576058680e+000	 2.489804377901773e+000	 1.088318672373725e+001
 3.782607395327954e+000	 2.528711389805241e+000	 1.090172934753720e+001
 3.756461178015566e+000	 2.567391559189468e+000	 1.085106365847421e+001
 3.729893845284539e+000	 2.605838042368645e+000	 1.079152568521660e+001
 3.702908464046931e+000	 2.644044044081984e+000	 1.073642633681315e+001
 3.675508246008995e+000	 2.682002821341078e+000	 1.069259058584218e+001
 3.647696546595306e+000	 2.719707687256372e+000	 1.066049297228596e+001
 3.619476863752306e+000	 2.757152014838323e+000	 1.064061791597665e+001
 3.590852836631927e+000	 2.794329240768847e+000	 1.063345909511495e+001
 3.561828244156089e+000	 2.831232869138651e+000	 1.063951877329860e+001
 3.532407003463121e+000	 2.867856475146093e+000	 1.065930707595835e+001
 3.829254463842364e+000	 2.503484621737058e+000	 1.091750271048672e+001
 3.803390952448300e+000	 2.542605408431881e+000	 1.086293428668469e+001
 3.777101074601228e+000	 2.581498106219867e+000	 1.081785207360954e+001
 3.750387767514517e+000	 2.620155833812537e+000	 1.078296037802471e+001
 3.723254114951389e+000	 2.658571758612506e+000	 1.073478585114369e+001
 3.695703346264835e+000	 2.696739100581980e+000	 1.069658524884643e+001
 3.667738835315829e+000	 2.734651136090251e+000	 1.066916632568555e+001
 3.639364099270299e+000	 2.772301201735746e+000	 1.065300270542284e+001
 3.610582797275516e+000	 2.809682698138192e+000	 1.064857854162434e+001
 3.581398729016709e+000	 2.846789093696489e+000	 1.065638785768606e+001
 3.551815833154945e+000	 2.883613928307883e+000	 1.067693383400739e+001
 3.850179351625048e+000	 2.517164865571844e+000	 1.087401197444392e+001
 3.824174509567652e+000	 2.556499427057932e+000	 1.082562175679708e+001
 3.797740971185911e+000	 2.595604653249608e+000	 1.078583450418992e+001
 3.770881689743538e+000	 2.634473625255720e+000	 1.075534655446658e+001
 3.743599765854925e+000	 2.673099473142290e+000	 1.072970410295005e+001
 3.715898446519798e+000	 2.711475379822133e+000	 1.069695019158020e+001
 3.687781124035530e+000	 2.749594584923389e+000	 1.067402475084120e+001
 3.659251334787534e+000	 2.787450388632457e+000	 1.066139077926759e+001
 3.630312757918424e+000	 2.825036155506876e+000	 1.065952308114757e+001
 3.600969213876734e+000	 2.862345318253735e+000	 1.066890761936971e+001
 3.571224662846269e+000	 2.899371381469173e+000	 1.069004081314325e+001
 3.871104239406733e+000	 2.530845109406134e+000	 1.083230864116864e+001
 3.844958066686008e+000	 2.570393445683397e+000	 1.078980641882927e+001
 3.818380867769611e+000	 2.609711200278689e+000	 1.075502932423279e+001
 3.791375611971606e+000	 2.648791416698197e+000	 1.072866600259866e+001
 3.763945416757542e+000	 2.687627187671335e+000	 1.071141409282490e+001
 3.736093546773887e+000	 2.726211659061535e+000	 1.069381312923235e+001
 3.707823412754411e+000	 2.764538033755788e+000	 1.067519978879396e+001
 3.679138570304015e+000	 2.802599575528459e+000	 1.066591728825184e+001
 3.650042718560651e+000	 2.840389612874898e+000	 1.066643125621815e+001
 3.620539698736161e+000	 2.877901542810390e+000	 1.067721977318027e+001
 3.590633492537089e+000	 2.915128834629961e+000	 1.069877267957944e+001
 3.892029127187417e+000	 2.544525353239926e+000	 1.079240370930980e+001
 3.865741623803371e+000	 2.584287464308273e+000	 1.075550304720717e+001
 3.839020764352334e+000	 2.623817747307115e+000	 1.072545492832721e+001
 3.811869534198717e+000	 2.663109208139963e+000	 1.070294058005526e+001
 3.784291067659237e+000	 2.702154902199640e+000	 1.068865118127051e+001
 3.756288647027098e+000	 2.740947938300189e+000	 1.068328672426850e+001
 3.727865701472470e+000	 2.779481482587446e+000	 1.067282265950451e+001
 3.699025805819738e+000	 2.817748762423748e+000	 1.066671698435214e+001
 3.669772679202196e+000	 2.855743070242260e+000	 1.066944113610336e+001
 3.640110183594993e+000	 2.893457767366452e+000	 1.068146548940481e+001
 3.610042322227410e+000	 2.930886287790248e+000	 1.070327348697303e+001
 3.912954014967101e+000	 2.558205597073220e+000	 1.075430838118289e+001
 3.886525180919736e+000	 2.598181482932562e+000	 1.072272652679371e+001
 3.859660660934076e+000	 2.637924294334882e+000	 1.069712973108399e+001
 3.832363456424874e+000	 2.677426999581023e+000	 1.067819207694254e+001
 3.804636718560013e+000	 2.716682616727206e+000	 1.066659855682200e+001
 3.776483747279435e+000	 2.755684217538093e+000	 1.066304393920542e+001
 3.747907990189709e+000	 2.794424931418365e+000	 1.066702427043834e+001
 3.718913041334707e+000	 2.832897949318328e+000	 1.066392423144275e+001
 3.689502639843060e+000	 2.871096527608962e+000	 1.066869032945841e+001
 3.659680668453228e+000	 2.909013991921924e+000	 1.068178540834675e+001
 3.629451151917229e+000	 2.946643740950033e+000	 1.070368669280320e+001
 3.933878902745785e+000	 2.571885840906018e+000	 1.071803405735330e+001
 3.907308738035108e+000	 2.612075501556264e+000	 1.069149184995166e+001
 3.880300557514837e+000	 2.652030841361991e+000	 1.067007216660307e+001
 3.852857378650074e+000	 2.691744791021373e+000	 1.065444221763445e+001
 3.824982369459867e+000	 2.731210331254034e+000	 1.064528108136496e+001
 3.796678847530896e+000	 2.770420496775247e+000	 1.064327857477482e+001
 3.767950278906125e+000	 2.809368380248543e+000	 1.064913408425780e+001
 3.738800276848919e+000	 2.848047136212198e+000	 1.065767301561753e+001
 3.709232600483243e+000	 2.886449984975001e+000	 1.066431599657681e+001
 3.679251153310866e+000	 2.924570216476806e+000	 1.067831965442120e+001
 3.648859981606546e+000	 2.962401194109317e+000	 1.070015517422699e+001
 3.954803790523469e+000	 2.585566084738318e+000	 1.068359233139167e+001
 3.928092295149484e+000	 2.625969520179377e+000	 1.066181411369977e+001
 3.900940454094618e+000	 2.666137388388442e+000	 1.064430068795796e+001
 3.873351300874320e+000	 2.706062582461015e+000	 1.063171266251172e+001
 3.845328020358802e+000	 2.745738045780124e+000	 1.062472347258757e+001
 3.816873947781481e+000	 2.785156776011651e+000	 1.062401825482374e+001
 3.787992567621723e+000	 2.824311829077982e+000	 1.063029268035181e+001
 3.758687512362374e+000	 2.863196323105357e+000	 1.064425174881168e+001
 3.728962561122744e+000	 2.901803442340380e+000	 1.065645486125169e+001
 3.698821638167910e+000	 2.940126441031095e+000	 1.067120784980279e+001
 3.668268811295363e+000	 2.978158647268101e+000	 1.069282124343175e+001
 3.975728678300154e+000	 2.599246328570120e+000	 1.065099498479470e+001
 3.948875852262866e+000	 2.639863538801905e+000	 1.063370851695861e+001
 3.921580350673420e+000	 2.680243935414237e+000	 1.061983376669649e+001
 3.893845223097611e+000	 2.720380373899949e+000	 1.061002500964585e+001
 3.865673671256816e+000	 2.760265760305475e+000	 1.060495030777527e+001
 3.837069048031190e+000	 2.799893055247307e+000	 1.060529038743725e+001
 3.808034856336499e+000	 2.839255277906680e+000	 1.061173747443382e+001
 3.778574747875074e+000	 2.878345509997806e+000	 1.062499408847373e+001
 3.748692521761566e+000	 2.917156899705098e+000	 1.064524322226277e+001
 3.718392123024357e+000	 2.955682665584794e+000	 1.066058912764248e+001
 3.687677640983678e+000	 2.993916100426382e+000	 1.068182666250278e+001
 3.493589344077969e+000	 2.836341568821007e+000	 1.060991239339181e+001
 3.464103133416387e+000	 2.872279492169516e+000	 1.064573846333799e+001
 3.434232784866212e+000	 2.907927987320115e+000	 1.067687919555539e+001
 3.403982572244511e+000	 2.943280932556834e+000	 1.070348950424199e+001
 3.373356898778110e+000	 2.978332290657103e+000	 1.072574576152373e+001
 3.342360295004344e+000	 3.013076112296310e+000	 1.074384528425275e+001
 3.310997416564726e+000	 3.047506539389349e+000	 1.075800575871563e+001
 3.279273041893773e+000	 3.081617808365265e+000	 1.076846460462662e+001
 3.247192069805366e+000	 3.115404253371150e+000	 1.077547827998391e+001
 3.214759516979199e+000	 3.148860309401589e+000	 1.074532402369970e+001
 3.181980515350000e+000	 3.181980515350000e+000	 1.069059788862695e+001
 3.512998173770796e+000	 2.852099021983801e+000	 1.063701524330475e+001
 3.483348150827399e+000	 2.888236600461318e+000	 1.066758576201030e+001
 3.453311855896036e+000	 2.924083142806598e+000	 1.069420248119122e+001
 3.422893586537202e+000	 2.959632493294133e+000	 1.071704687281189e+001
 3.392097770440096e+000	 2.994878581161231e+000	 1.073632162460505e+001
 3.360928963311704e+000	 3.029815424031474e+000	 1.075225009217186e+001
 3.329391846658214e+000	 3.064437131274841e+000	 1.076507568868102e+001
 3.297491225461001e+000	 3.098737907300539e+000	 1.077506121360934e+001
 3.265232025749580e+000	 3.132712054778697e+000	 1.077299987971902e+001
 3.232619292074088e+000	 3.166353977787205e+000	 1.073083108072102e+001
 3.199658184880000e+000	 3.199658184880000e+000	 1.067724489194784e+001
 3.532407003463121e+000	 2.867856475146093e+000	 1.065930707595835e+001
 3.502593168238003e+000	 2.904193708752715e+000	 1.068496410098160e+001
 3.472390926925538e+000	 2.940238298292760e+000	 1.070738482164771e+001
 3.441804600829647e+000	 2.975984054031186e+000	 1.072677720055753e+001
 3.410838642101900e+000	 3.011424871665177e+000	 1.074337018856482e+001
 3.379497631618938e+000	 3.046554735766512e+000	 1.075741314217337e+001
 3.347786276751621e+000	 3.081367723160253e+000	 1.076917517819693e+001
 3.315709409028185e+000	 3.115858006235766e+000	 1.077894446719221e+001
 3.283271981693775e+000	 3.150019856186225e+000	 1.075745288378488e+001
 3.250479067168972e+000	 3.183847646172816e+000	 1.071579839225194e+001
 3.217335854410000e+000	 3.217335854410000e+000	 1.066358772376209e+001
 3.551815833154945e+000	 2.883613928307883e+000	 1.067693383400739e+001
 3.521838185648202e+000	 2.920150817043707e+000	 1.069801386030909e+001
 3.491469997954719e+000	 2.956393453778600e+000	 1.071656111301856e+001
 3.460715615121846e+000	 2.992335614767994e+000	 1.073280998159720e+001
 3.429579513763525e+000	 3.027971162168943e+000	 1.074701563087350e+001
 3.398066299926047e+000	 3.063294047501425e+000	 1.075945338372896e+001
 3.366180706844948e+000	 3.098298315045585e+000	 1.077041804068553e+001
 3.333927592595323e+000	 3.132978105170950e+000	 1.077226207649370e+001
 3.301311937637951e+000	 3.167327657593731e+000	 1.074115619791259e+001
 3.268338842263851e+000	 3.201341314558423e+000	 1.070025932320777e+001
 3.235013523940000e+000	 3.235013523940000e+000	 1.064965550846891e+001
 3.571224662846269e+000	 2.899371381469173e+000	 1.069004081314325e+001
 3.541083203057994e+000	 2.936107925334290e+000	 1.070687488793005e+001
 3.510549068983578e+000	 2.972548609264119e+000	 1.072186583093387e+001
 3.479626629413799e+000	 3.008687175504555e+000	 1.073527439799653e+001
 3.448320385424968e+000	 3.044517452672528e+000	 1.074738192205829e+001
 3.416634968233030e+000	 3.080033359236213e+000	 1.075848966112104e+001
 3.384575136938195e+000	 3.115228906930835e+000	 1.076891808272611e+001
 3.352145776162415e+000	 3.150098204106087e+000	 1.075507663283554e+001
 3.319351893582104e+000	 3.184635459001217e+000	 1.072414774746739e+001
 3.286198617358724e+000	 3.218834982944023e+000	 1.068424750576648e+001
 3.252691193470001e+000	 3.252691193470001e+000	 1.063547772196930e+001
 3.590633492537089e+000	 2.915128834629961e+000	 1.069877267957944e+001
 3.560328220467381e+000	 2.952065033624467e+000	 1.071168651404352e+001
 3.529628140012117e+000	 2.988703764749317e+000	 1.072343304192398e+001
 3.498537643705506e+000	 3.025038736240870e+000	 1.073429932820226e+001
 3.467061257086232e+000	 3.061063743175933e+000	 1.074459283129625e+001
 3.435203636539888e+000	 3.096772670970875e+000	 1.075464071628566e+001
 3.402969567031362e+000	 3.132159498816006e+000	 1.075920638811174e+001
 3.370363959729464e+000	 3.167218303041180e+000	 1.073697106265683e+001
 3.337391849526239e+000	 3.201943260408684e+000	 1.070646563239473e+001
 3.304058392453593e+000	 3.236328651329619e+000	 1.066779683214543e+001
 3.270368862999999e+000	 3.270368862999999e+000	 1.062108418216603e+001
 3.610042322227410e+000	 2.930886287790248e+000	 1.070327348697303e+001
 3.579573237876362e+000	 2.968022141914240e+000	 1.071258756502799e+001
 3.548707211040334e+000	 3.004858920234193e+000	 1.072139641441683e+001
 3.517448657996967e+000	 3.041390296976938e+000	 1.073001335520413e+001
 3.485802128747313e+000	 3.077610033679156e+000	 1.073877193182690e+001
 3.453772304846619e+000	 3.113511982705412e+000	 1.074802519156376e+001
 3.421363997124448e+000	 3.149090090701097e+000	 1.074033575933211e+001
 3.388582143296465e+000	 3.184338401976227e+000	 1.071798788799842e+001
 3.355431805470352e+000	 3.219251061816131e+000	 1.068814812252721e+001
 3.321918167548457e+000	 3.253822319715210e+000	 1.065094144761101e+001
 3.288046532530000e+000	 3.288046532530000e+000	 1.060650503976998e+001
 3.629451151917229e+000	 2.946643740950033e+000	 1.070368669280320e+001
 3.598818255284934e+000	 2.983979250203605e+000	 1.070971637691250e+001
 3.567786282068231e+000	 3.021014075718749e+000	 1.071588922938235e+001
 3.536359672288182e+000	 3.057741857712763e+000	 1.072254477443475e+001
 3.504543000408214e+000	 3.094156324182198e+000	 1.073004260619124e+001
 3.472340973153226e+000	 3.130251294439822e+000	 1.073573556951942e+001
 3.439758427217453e+000	 3.166020682586108e+000	 1.072038074301318e+001
 3.406800326863423e+000	 3.201458500911230e+000	 1.069816971203566e+001
 3.373471761414447e+000	 3.236558863223558e+000	 1.066923365304222e+001
 3.339777942643316e+000	 3.271315988100797e+000	 1.063371574371269e+001
 3.305724202060000e+000	 3.305724202060000e+000	 1.059177076940159e+001
 3.648859981606546e+000	 2.962401194109317e+000	 1.070015517422699e+001
 3.618063272693102e+000	 2.999936358492565e+000	 1.070321080841790e+001
 3.586865353095805e+000	 3.037169231202984e+000	 1.070704439063722e+001
 3.555270686579151e+000	 3.074093418448340e+000	 1.071202160141740e+001
 3.523283872068934e+000	 3.110702614685061e+000	 1.071852805130345e+001
 3.490909641459706e+000	 3.146990606174107e+000	 1.071509798221307e+001
 3.458152857310378e+000	 3.182951274471037e+000	 1.069938822616413e+001
 3.425018510430335e+000	 3.218578599846186e+000	 1.067755921692055e+001
 3.391511717358520e+000	 3.253866664630963e+000	 1.064976082006439e+001
 3.357637717738170e+000	 3.288809656486378e+000	 1.061615435173284e+001
 3.323401871590000e+000	 3.323401871590000e+000	 1.057691216097623e+001
 3.668268811295363e+000	 2.978158647268101e+000	 1.069282124343175e+001
 3.637308290100862e+000	 3.015893466781117e+000	 1.069320825358400e+001
 3.605944424123059e+000	 3.053324386686897e+000	 1.069499443482250e+001
 3.574181700869874e+000	 3.090444979183671e+000	 1.069857157917104e+001
 3.542024743729475e+000	 3.127248905187742e+000	 1.070347972383197e+001
 3.509478309766061e+000	 3.163729917908267e+000	 1.069321766761969e+001
 3.476547287403223e+000	 3.199881866355886e+000	 1.067740508981843e+001
 3.443236693997201e+000	 3.235698698781098e+000	 1.065619916169241e+001
 3.409551673302575e+000	 3.271174466038350e+000	 1.062976837640778e+001
 3.375497492833019e+000	 3.306303324871954e+000	 1.059829213634472e+001
 3.341079541120000e+000	 3.341079541120000e+000	 1.056196031136304e+001
 3.687677640983678e+000	 2.993916100426382e+000	 1.068182666250278e+001
 3.656553307508218e+000	 3.031850575069264e+000	 1.067984565399807e+001
 3.625023495149993e+000	 3.069479542170490e+000	 1.067987154106609e+001
 3.593092715160351e+000	 3.106796539918756e+000	 1.068232218538150e+001
 3.560765615389833e+000	 3.143795195690242e+000	 1.068095846366233e+001
 3.528046978072291e+000	 3.180469229642301e+000	 1.067014565271866e+001
 3.494941717495987e+000	 3.216812458240656e+000	 1.065447820919111e+001
 3.461454877564024e+000	 3.252818797715965e+000	 1.063413238025456e+001
 3.427591629246608e+000	 3.288482267445716e+000	 1.060929522745244e+001
 3.393357267927863e+000	 3.323796993257525e+000	 1.058016418947048e+001
 3.358757210650000e+000	 3.358757210650000e+000	 1.054694661630720e+001
 3.181980515350000e+000	 3.181980515350000e+000	 1.069059788862695e+001
 3.148860309401589e+000	 3.214759516979199e+000	 1.062306249150141e+001
 3.115404253371151e+000	 3.247192069805366e+000	 1.056769295181655e+001
 3.081617808365265e+000	 3.279273041893773e+000	 1.052639868134478e+001
 3.047506539389349e+000	 3.310997416564727e+000	 1.049586686617037e+001
 3.013076112296310e+000	 3.342360295004343e+000	 1.047510790266239e+001
 2.978332290657103e+000	 3.373356898778110e+000	 1.046309455592137e+001
 2.943280932556834e+000	 3.403982572244511e+000	 1.045876469717323e+001
 2.907927987320115e+000	 3.434232784866213e+000	 1.046102413517821e+001
 2.872279492169515e+000	 3.464103133416387e+000	 1.046874953376123e+001
 2.836341568821007e+000	 3.493589344077969e+000	 1.048079140731172e+001
 3.199658184880000e+000	 3.199658184880000e+000	 1.067724489194784e+001
 3.166353977787205e+000	 3.232619292074087e+000	 1.061809610603846e+001
 3.132712054778697e+000	 3.265232025749580e+000	 1.056892785232953e+001
 3.098737907300538e+000	 3.297491225461001e+000	 1.053191155269560e+001
 3.064437131274841e+000	 3.329391846658215e+000	 1.050525804691863e+001
 3.029815424031474e+000	 3.360928963311704e+000	 1.048739304375125e+001
 2.994878581161231e+000	 3.392097770440096e+000	 1.047723000084628e+001
 2.959632493294133e+000	 3.422893586537202e+000	 1.047364783652788e+001
 2.924083142806598e+000	 3.453311855896037e+000	 1.047549385094812e+001
 2.888236600461318e+000	 3.483348150827398e+000	 1.048158673346966e+001
 2.852099021983801e+000	 3.512998173770796e+000	 1.049071964792051e+001
 3.217335854410000e+000	 3.217335854410000e+000	 1.066358772376209e+001
 3.183847646172816e+000	 3.250479067168972e+000	 1.061226079153343e+001
 3.150019856186225e+000	 3.283271981693775e+000	 1.056978573860543e+001
 3.115858006235766e+000	 3.315709409028184e+000	 1.053688307234850e+001
 3.081367723160253e+000	 3.347786276751621e+000	 1.051373898796141e+001
 3.046554735766512e+000	 3.379497631618938e+000	 1.049842191740605e+001
 3.011424871665177e+000	 3.410838642101901e+000	 1.048978576998401e+001
 2.975984054031187e+000	 3.441804600829646e+000	 1.048665024640988e+001
 2.940238298292759e+000	 3.472390926925538e+000	 1.048780385037315e+001
 2.904193708752715e+000	 3.502593168238004e+000	 1.049200698646874e+001
 2.867856475146093e+000	 3.532407003463121e+000	 1.049799513593829e+001
 3.235013523940000e+000	 3.235013523940000e+000	 1.064965550846891e+001
 3.201341314558423e+000	 3.268338842263850e+000	 1.060559449553524e+001
 3.167327657593731e+000	 3.301311937637950e+000	 1.056926665310389e+001
 3.132978105170949e+000	 3.333927592595323e+000	 1.054108734940465e+001
 3.098298315045584e+000	 3.366180706844948e+000	 1.052107947388905e+001
 3.063294047501425e+000	 3.398066299926047e+000	 1.050797526780731e+001
 3.027971162168943e+000	 3.429579513763525e+000	 1.050055347554824e+001
 2.992335614767994e+000	 3.460715615121845e+000	 1.049757430814280e+001
 2.956393453778600e+000	 3.491469997954719e+000	 1.049776717762103e+001
 2.920150817043706e+000	 3.521838185648203e+000	 1.049983388619460e+001
 2.883613928307883e+000	 3.551815833154945e+000	 1.050245189322486e+001
 3.252691193470001e+000	 3.252691193470001e+000	 1.063547772196930e+001
 3.218834982944023e+000	 3.286198617358724e+000	 1.059813531681309e+001
 3.184635459001219e+000	 3.319351893582104e+000	 1.056741710027140e+001
 3.150098204106087e+000	 3.352145776162416e+000	 1.054371252814974e+001
 3.115228906930835e+000	 3.384575136938195e+000	 1.052704886583456e+001
 3.080033359236213e+000	 3.416634968233030e+000	 1.051583323314340e+001
 3.044517452672528e+000	 3.448320385424968e+000	 1.050932394588141e+001
 3.008687175504555e+000	 3.479626629413798e+000	 1.050622144603721e+001
 2.972548609264119e+000	 3.510549068983579e+000	 1.050519575152045e+001
 2.936107925334290e+000	 3.541083203057994e+000	 1.050488973730915e+001
 2.899371381469173e+000	 3.571224662846268e+000	 1.050392249439350e+001
 3.270368862999999e+000	 3.270368862999999e+000	 1.062108418216603e+001
 3.236328651329619e+000	 3.304058392453593e+000	 1.058992150126944e+001
 3.201943260408684e+000	 3.337391849526239e+000	 1.056428354100241e+001
 3.167218303041179e+000	 3.370363959729463e+000	 1.054453416781795e+001
 3.132159498816006e+000	 3.402969567031361e+000	 1.053103532780887e+001
 3.096772670970875e+000	 3.435203636539887e+000	 1.052177536198868e+001
 3.061063743175933e+000	 3.467061257086232e+000	 1.051588724664043e+001
 3.025038736240870e+000	 3.498537643705505e+000	 1.051239215325592e+001
 2.988703764749316e+000	 3.529628140012117e+000	 1.050990039597562e+001
 2.952065033624467e+000	 3.560328220467380e+000	 1.050699559053189e+001
 2.915128834629961e+000	 3.590633492537090e+000	 1.050223810592572e+001
 3.288046532530000e+000	 3.288046532530000e+000	 1.060650503976998e+001
 3.253822319715210e+000	 3.321918167548457e+000	 1.058099143798480e+001
 3.219251061816132e+000	 3.355431805470353e+000	 1.055991239380992e+001
 3.184338401976227e+000	 3.388582143296467e+000	 1.054360650397512e+001
 3.149090090701098e+000	 3.421363997124448e+000	 1.053241163561995e+001
 3.113511982705411e+000	 3.453772304846619e+000	 1.052558062915338e+001
 3.077610033679155e+000	 3.485802128747312e+000	 1.052003270129896e+001
 3.041390296976939e+000	 3.517448657996968e+000	 1.051588601684474e+001
 3.004858920234194e+000	 3.548707211040334e+000	 1.051169086939973e+001
 2.968022141914239e+000	 3.579573237876362e+000	 1.050597127634801e+001
 2.930886287790248e+000	 3.610042322227410e+000	 1.049722852402431e+001
 3.305724202060000e+000	 3.305724202060000e+000	 1.059177076940159e+001
 3.271315988100795e+000	 3.339777942643316e+000	 1.057138365538947e+001
 3.236558863223558e+000	 3.373471761414446e+000	 1.055435003595877e+001
 3.201458500911229e+000	 3.406800326863423e+000	 1.054098355438897e+001
 3.166020682586108e+000	 3.439758427217453e+000	 1.053159831083226e+001
 3.130251294439821e+000	 3.472340973153225e+000	 1.052650821472703e+001
 3.094156324182199e+000	 3.504543000408214e+000	 1.052154891099187e+001
 3.057741857712761e+000	 3.536359672288181e+000	 1.051650174196031e+001
 3.021014075718749e+000	 3.567786282068231e+000	 1.051037589320404e+001
 2.983979250203605e+000	 3.598818255284934e+000	 1.050163543763495e+001
 2.946643740950033e+000	 3.629451151917229e+000	 1.048872221125173e+001
 3.323401871590000e+000	 3.323401871590000e+000	 1.057691216097623e+001
 3.288809656486377e+000	 3.357637717738170e+000	 1.056113681755740e+001
 3.253866664630964e+000	 3.391511717358519e+000	 1.054764280456264e+001
 3.218578599846186e+000	 3.425018510430335e+000	 1.053671912482151e+001
 3.182951274471037e+000	 3.458152857310378e+000	 1.052865642033560e+001
 3.146990606174107e+000	 3.490909641459706e+000	 1.052374634351422e+001
 3.110702614685061e+000	 3.523283872068934e+000	 1.052022377372640e+001
 3.074093418448340e+000	 3.555270686579151e+000	 1.051403717532452e+001
 3.037169231202984e+000	 3.586865353095806e+000	 1.050576317937765e+001
 2.999936358492564e+000	 3.618063272693102e+000	 1.049380556124775e+001
 2.962401194109317e+000	 3.648859981606546e+000	 1.047654633199937e+001
 3.341079541120000e+000	 3.341079541120000e+000	 1.056196031136304e+001
 3.306303324871953e+000	 3.375497492833018e+000	 1.055028972061774e+001
 3.271174466038349e+000	 3.409551673302574e+000	 1.053983699764624e+001
 3.235698698781097e+000	 3.443236693997201e+000	 1.053086681463768e+001
 3.199881866355886e+000	 3.476547287403222e+000	 1.052364666122980e+001
 3.163729917908266e+000	 3.509478309766061e+000	 1.051844623422920e+001
 3.127248905187742e+000	 3.542024743729475e+000	 1.051553681400776e+001
 3.090444979183671e+000	 3.574181700869873e+000	 1.050828932793449e+001
 3.053324386686897e+000	 3.605944424123060e+000	 1.049765945719185e+001
 3.015893466781116e+000	 3.637308290100862e+000	 1.048229800860165e+001
 2.978158647268101e+000	 3.668268811295363e+000	 1.046052678683057e+001
 3.358757210650000e+000	 3.358757210650000e+000	 1.054694661630720e+001
 3.323796993257525e+000	 3.393357267927863e+000	 1.053888128927970e+001
 3.288482267445717e+000	 3.427591629246607e+000	 1.053097887517398e+001
 3.252818797715964e+000	 3.461454877564024e+000	 1.052348002223691e+001
 3.216812458240656e+000	 3.494941717495988e+000	 1.051662937055612e+001
 3.180469229642301e+000	 3.528046978072291e+000	 1.051067495992945e+001
 3.143795195690242e+000	 3.560765615389833e+000	 1.050586762260382e+001
 3.106796539918756e+000	 3.593092715160352e+000	 1.049905439705526e+001
 3.069479542170489e+000	 3.625023495149993e+000	 1.048587049906112e+001
 3.031850575069263e+000	 3.656553307508218e+000	 1.046692804528889e+001
 2.993916100426382e+000	 3.687677640983678e+000	 1.044048824573938e+001
 2.836341568821007e+000	 3.493589344077969e+000	 1.048079140731172e+001
 2.800120420021204e+000	 3.522687274433059e+000	 1.056204670365502e+001
 2.763622326028175e+000	 3.551392915342705e+000	 1.061472745865125e+001
 2.726853641041347e+000	 3.579702392714053e+000	 1.063703618210787e+001
 2.689820789586394e+000	 3.607611969151798e+000	 1.062719295772856e+001
 2.652530262857026e+000	 3.635118045494689e+000	 1.058343915639486e+001
 2.614988615018723e+000	 3.662217162235256e+000	 1.050404113067688e+001
 2.577202459478736e+000	 3.688906000821718e+000	 1.038729388105526e+001
 2.539178465126699e+000	 3.715181384841301e+000	 1.023152468442734e+001
 2.500923352550201e+000	 3.741040281084275e+000	 1.003509667559475e+001
 2.462443890229713e+000	 3.766479800488312e+000	 9.989028268721910e+000
 2.852099021983801e+000	 3.512998173770796e+000	 1.049071964792051e+001
 2.815676644580223e+000	 3.542257759294872e+000	 1.055775174144457e+001
 2.778975783398841e+000	 3.571122875987657e+000	 1.059718737658045e+001
 2.742002827940190e+000	 3.599589628233558e+000	 1.060721875846730e+001
 2.704764238421754e+000	 3.627654257873963e+000	 1.058605428230744e+001
 2.667266542099426e+000	 3.655313145752280e+000	 1.053192229849031e+001
 2.629516329550723e+000	 3.682562813141554e+000	 1.044307486097544e+001
 2.591520250924044e+000	 3.709399923053606e+000	 1.031779144925521e+001
 2.553285012158413e+000	 3.735821281428924e+000	 1.015438265430646e+001
 2.514817371178015e+000	 3.761823838206612e+000	 1.002840695995488e+001
 2.476124134065992e+000	 3.787404688273996e+000	 1.001490564336275e+001
 2.867856475146093e+000	 3.532407003463121e+000	 1.049799513593829e+001
 2.831232869138651e+000	 3.561828244156089e+000	 1.055149693976777e+001
 2.794329240768847e+000	 3.590852836631926e+000	 1.057837475241298e+001
 2.757152014838323e+000	 3.619476863752307e+000	 1.057680970797707e+001
 2.719707687256372e+000	 3.647696546595306e+000	 1.054499774650292e+001
 2.682002821341078e+000	 3.675508246008995e+000	 1.048115343206607e+001
 2.644044044081984e+000	 3.702908464046931e+000	 1.038351375615641e+001
 2.605838042368645e+000	 3.729893845284539e+000	 1.025034191650631e+001
 2.567391559189468e+000	 3.756461178015566e+000	 1.011696513890758e+001
 2.528711389805241e+000	 3.782607395327954e+000	 1.007588640931258e+001
 2.489804377901773e+000	 3.808329576058680e+000	 1.003899669513354e+001
 2.883613928307883e+000	 3.551815833154945e+000	 1.050245189322486e+001
 2.846789093696489e+000	 3.581398729016709e+000	 1.054311174137722e+001
 2.809682698138191e+000	 3.610582797275515e+000	 1.055811474594882e+001
 2.772301201735745e+000	 3.639364099270299e+000	 1.054563020267466e+001
 2.734651136090251e+000	 3.667738835315829e+000	 1.050384082859324e+001
 2.696739100581980e+000	 3.695703346264835e+000	 1.043094663423906e+001
 2.658571758612506e+000	 3.723254114951389e+000	 1.032516878315453e+001
 2.620155833812537e+000	 3.750387767514517e+000	 1.018669022237975e+001
 2.581498106219867e+000	 3.777101074601228e+000	 1.015735657456649e+001
 2.542605408431881e+000	 3.803390952448300e+000	 1.011699547912351e+001
 2.503484621737058e+000	 3.829254463842364e+000	 1.006614482546157e+001
 2.899371381469173e+000	 3.571224662846268e+000	 1.050392249439350e+001
 2.862345318253735e+000	 3.600969213876733e+000	 1.053242431180466e+001
 2.825036155506875e+000	 3.630312757918423e+000	 1.053623140551130e+001
 2.787450388632457e+000	 3.659251334787535e+000	 1.051350046451235e+001
 2.749594584923389e+000	 3.687781124035531e+000	 1.046240021374140e+001
 2.711475379822133e+000	 3.715898446519798e+000	 1.038111534149406e+001
 2.673099473142290e+000	 3.743599765854926e+000	 1.026785041620597e+001
 2.634473625255721e+000	 3.770881689743539e+000	 1.022086898885382e+001
 2.595604653249607e+000	 3.797740971185911e+000	 1.019122566296132e+001
 2.556499427057932e+000	 3.824174509567651e+000	 1.015185367224174e+001
 2.517164865571844e+000	 3.850179351625048e+000	 1.010333083950086e+001
 2.915128834629961e+000	 3.590633492537090e+000	 1.050223810592572e+001
 2.877901542810389e+000	 3.620539698736160e+000	 1.051926157388043e+001
 2.840389612874899e+000	 3.650042718560650e+000	 1.051254769798707e+001
 2.802599575528457e+000	 3.679138570304013e+000	 1.048023979103518e+001
 2.764538033755787e+000	 3.707823412754410e+000	 1.042049181543068e+001
 2.726211659061535e+000	 3.736093546773887e+000	 1.033147236699793e+001
 2.687627187671335e+000	 3.763945416757542e+000	 1.026898944094742e+001
 2.648791416698197e+000	 3.791375611971605e+000	 1.024837774171870e+001
 2.609711200278690e+000	 3.818380867769612e+000	 1.021870048082216e+001
 2.570393445683396e+000	 3.844958066686008e+000	 1.018058041682568e+001
 2.530845109406134e+000	 3.871104239406732e+000	 1.013463558588679e+001
 2.930886287790248e+000	 3.610042322227410e+000	 1.049722852402431e+001
 2.893457767366452e+000	 3.640110183594993e+000	 1.050344924113936e+001
 2.855743070242261e+000	 3.669772679202195e+000	 1.048688553789694e+001
 2.817748762423749e+000	 3.699025805819739e+000	 1.044566658023063e+001
 2.779481482587447e+000	 3.727865701472469e+000	 1.037793079620878e+001
 2.740947938300188e+000	 3.756288647027098e+000	 1.030407022581910e+001
 2.702154902199640e+000	 3.784291067659237e+000	 1.029096293904513e+001
 2.663109208139963e+000	 3.811869534198717e+000	 1.026935305178387e+001
 2.623817747307115e+000	 3.839020764352334e+000	 1.023990890537198e+001
 2.584287464308273e+000	 3.865741623803370e+000	 1.020329506834597e+001
 2.544525353239926e+000	 3.892029127187417e+000	 1.016017007570228e+001
 2.946643740950033e+000	 3.629451151917229e+000	 1.048872221125173e+001
 2.909013991921924e+000	 3.659680668453228e+000	 1.048481185015498e+001
 2.871096527608962e+000	 3.689502639843060e+000	 1.045906581553406e+001
 2.832897949318328e+000	 3.718913041334707e+000	 1.040959835458093e+001
 2.794424931418365e+000	 3.747907990189709e+000	 1.033453158776629e+001
 2.755684217538092e+000	 3.776483747279435e+000	 1.032127712671197e+001
 2.716682616727207e+000	 3.804636718560013e+000	 1.030626789485063e+001
 2.677426999581023e+000	 3.832363456424874e+000	 1.028393116791044e+001
 2.637924294334881e+000	 3.859660660934076e+000	 1.025497861966112e+001
 2.598181482932562e+000	 3.886525180919735e+000	 1.022011691152904e+001
 2.558205597073221e+000	 3.912954014967101e+000	 1.018004536832135e+001
 2.962401194109317e+000	 3.648859981606546e+000	 1.047654633199937e+001
 2.924570216476806e+000	 3.679251153310866e+000	 1.046317279184159e+001
 2.886449984975001e+000	 3.709232600483242e+000	 1.042890842420398e+001
 2.848047136212198e+000	 3.738800276848918e+000	 1.037185178434785e+001
 2.809368380248543e+000	 3.767950278906126e+000	 1.034139523131617e+001
 2.770420496775246e+000	 3.796678847530895e+000	 1.033168428380615e+001
 2.731210331254034e+000	 3.824982369459867e+000	 1.031504884296601e+001
 2.691744791021373e+000	 3.852857378650074e+000	 1.029224802557358e+001
 2.652030841361991e+000	 3.880300557514837e+000	 1.026403711773147e+001
 2.612075501556264e+000	 3.907308738035108e+000	 1.023116516223862e+001
 2.571885840906018e+000	 3.933878902745785e+000	 1.019437257012484e+001
 2.978158647268101e+000	 3.668268811295363e+000	 1.046052678683057e+001
 2.940126441031095e+000	 3.698821638167910e+000	 1.043835434176275e+001
 2.901803442340381e+000	 3.728962561122744e+000	 1.039623228659997e+001
 2.863196323105356e+000	 3.758687512362373e+000	 1.035316603531087e+001
 2.824311829077981e+000	 3.787992567621723e+000	 1.034761869187791e+001
 2.785156776011651e+000	 3.816873947781481e+000	 1.033544442340655e+001
 2.745738045780124e+000	 3.845328020358802e+000	 1.031744988773753e+001
 2.706062582461016e+000	 3.873351300874320e+000	 1.029443925515314e+001
 2.666137388388442e+000	 3.900940454094619e+000	 1.026721170961658e+001
 2.625969520179377e+000	 3.928092295149483e+000	 1.023655896929742e+001
 2.585566084738318e+000	 3.954803790523470e+000	 1.020326283325677e+001
 2.993916100426382e+000	 3.687677640983678e+000	 1.044048824573938e+001
 2.955682665584793e+000	 3.718392123024356e+000	 1.041017768948263e+001
 2.917156899705098e+000	 3.748692521761566e+000	 1.036085538034547e+001
 2.878345509997805e+000	 3.778574747875074e+000	 1.035585962752922e+001
 2.839255277906680e+000	 3.808034856336499e+000	 1.034707572165174e+001
 2.799893055247307e+000	 3.837069048031190e+000	 1.033270972709915e+001
 2.760265760305475e+000	 3.865673671256816e+000	 1.031361471457801e+001
 2.720380373899950e+000	 3.893845223097610e+000	 1.029064018996253e+001
 2.680243935414236e+000	 3.921580350673420e+000	 1.026462952618413e+001
 2.639863538801905e+000	 3.948875852262866e+000	 1.023641741625149e+001
 2.599246328570120e+000	 3.975728678300154e+000	 1.020682735442012e+001
 2.462443890229713e+000	 3.766479800488312e+000	 9.989028268721910e+000
 2.423746890716576e+000	 3.791497198963489e+000	 1.003989726491987e+001
 2.384839206800335e+000	 3.816089878095935e+000	 1.008291594648810e+001
 2.345727727668478e+000	 3.840255385731489e+000	 1.011722617435158e+001
 2.306419375061632e+000	 3.863991416440919e+000	 1.014198510987434e+001
 2.266921099430403e+000	 3.887295811865205e+000	 1.015636703232621e+001
 2.227239876097467e+000	 3.910166560942135e+000	 1.015956511754824e+001
 2.187382701429100e+000	 3.932601800014995e+000	 1.015079317346962e+001
 2.147356589020302e+000	 3.954599812824290e+000	 1.012928732829038e+001
 2.107168565897559e+000	 3.976159030383603e+000	 1.009430766731759e+001
 2.066825668743274e+000	 3.997278030740858e+000	 1.004513981462814e+001
 2.476124134065992e+000	 3.787404688273996e+000	 1.001490564336275e+001
 2.437212151221294e+000	 3.812561072296217e+000	 1.005911316370779e+001
 2.398088313504623e+000	 3.837290377423782e+000	 1.009615525641958e+001
 2.358759548376729e+000	 3.861590137879451e+000	 1.012515366076793e+001
 2.319232816032355e+000	 3.885458035426049e+000	 1.014524495936856e+001
 2.279515105535722e+000	 3.908891899713674e+000	 1.015558243897731e+001
 2.239613430961295e+000	 3.931889708507546e+000	 1.015533791263115e+001
 2.199534827544056e+000	 3.954449587797303e+000	 1.014370349868545e+001
 2.159286347843419e+000	 3.976569811788677e+000	 1.011989335245872e+001
 2.118875057924907e+000	 3.998248802778659e+000	 1.008314534637250e+001
 2.078308033563603e+000	 4.019485130915437e+000	 1.003272269466067e+001
 2.489804377901773e+000	 3.808329576058680e+000	 1.003899669513354e+001
 2.450677411725615e+000	 3.833624945627947e+000	 1.007667447176745e+001
 2.411337420208613e+000	 3.858490876750630e+000	 1.010787128071780e+001
 2.371791369084783e+000	 3.882924890026412e+000	 1.013168842775515e+001
 2.332046257002981e+000	 3.906924654410177e+000	 1.014724160538884e+001
 2.292109111641043e+000	 3.930487987561142e+000	 1.015366279750822e+001
 2.251986985825227e+000	 3.953612856071957e+000	 1.015010214551384e+001
 2.211686953659216e+000	 3.976297375578613e+000	 1.013572977138272e+001
 2.171216106666839e+000	 3.998539810752065e+000	 1.010973755327588e+001
 2.130581549952659e+000	 4.020338575172714e+000	 1.007134084947350e+001
 2.089790398384435e+000	 4.041692231089016e+000	 1.001978016661287e+001
 2.503484621737058e+000	 3.829254463842364e+000	 1.006614482546157e+001
 2.464142672229539e+000	 3.854688818958676e+000	 1.009246566843065e+001
 2.424586526912307e+000	 3.879691376076478e+000	 1.011795046929808e+001
 2.384823189792641e+000	 3.904259642172373e+000	 1.013671900077596e+001
 2.344859697973511e+000	 3.928391273393308e+000	 1.014786575116255e+001
 2.304703117746368e+000	 3.952084075407610e+000	 1.015050108832484e+001
 2.264360540689263e+000	 3.975336003635369e+000	 1.014375317033854e+001
 2.223839079774579e+000	 3.998145163358921e+000	 1.012676981309370e+001
 2.183145865490564e+000	 4.020509809714451e+000	 1.009872031036958e+001
 2.142288041980814e+000	 4.042428347565767e+000	 1.005879720206117e+001
 2.101272763205771e+000	 4.063899331261593e+000	 1.000621798643223e+001
 2.517164865571844e+000	 3.850179351625048e+000	 1.010333083950086e+001
 2.477607932733066e+000	 3.875752692288406e+000	 1.010637129201368e+001
 2.437835633615703e+000	 3.900891875401327e+000	 1.012627933607182e+001
 2.397855010500300e+000	 3.925594394317334e+000	 1.014013397273568e+001
 2.357673138943943e+000	 3.949857892375436e+000	 1.014700816924506e+001
 2.317297123851696e+000	 3.973680163253078e+000	 1.014599036149025e+001
 2.276734095553401e+000	 3.997059151197778e+000	 1.013618640968365e+001
 2.235991205890146e+000	 4.019992951138231e+000	 1.011672151102223e+001
 2.195075624314593e+000	 4.042479808675838e+000	 1.008674206473867e+001
 2.153994534009374e+000	 4.064518119957823e+000	 1.004541748511968e+001
 2.112755128027612e+000	 4.086106431433171e+000	 9.991941958264627e+000
 2.530845109406134e+000	 3.871104239406732e+000	 1.013463558588679e+001
 2.491073193236195e+000	 3.896816565617135e+000	 1.011827593822319e+001
 2.451084740318802e+000	 3.922092374725174e+000	 1.013274445721690e+001
 2.410886831207764e+000	 3.946929146461295e+000	 1.014182200215945e+001
 2.370486579914279e+000	 3.971324511356565e+000	 1.014455969964603e+001
 2.329891129957026e+000	 3.995276251097546e+000	 1.014002373484215e+001
 2.289107650417644e+000	 4.018782298759190e+000	 1.012729735271404e+001
 2.248143332005916e+000	 4.041840738916538e+000	 1.010548281626868e+001
 2.207005383138925e+000	 4.064449807636226e+000	 1.007370331709438e+001
 2.165701026038338e+000	 4.086607892348878e+000	 1.003110483367551e+001
 2.124237492849956e+000	 4.108313531603750e+000	 9.976857933151711e+000
 2.544525353239926e+000	 3.892029127187417e+000	 1.016017007570228e+001
 2.504538453738926e+000	 3.917880438944866e+000	 1.013355248084380e+001
 2.464333847021603e+000	 3.943292874048022e+000	 1.013723246950385e+001
 2.423918651915029e+000	 3.968263898604256e+000	 1.014167181142831e+001
 2.383300020884518e+000	 3.992791130336694e+000	 1.014041124801614e+001
 2.342485136062361e+000	 4.016872338941014e+000	 1.013249439217097e+001
 2.301481205281990e+000	 4.040505446319600e+000	 1.011698155339115e+001
 2.260295458121890e+000	 4.063688526693848e+000	 1.009295174211240e+001
 2.218935141963561e+000	 4.086419806595613e+000	 1.005950462625518e+001
 2.177407518067704e+000	 4.108697664738933e+000	 1.001576243534478e+001
 2.135719857672804e+000	 4.130520631773328e+000	 9.960871807770198e+000
 2.558205597073221e+000	 3.912954014967101e+000	 1.018004536832135e+001
 2.518003714241260e+000	 3.938944312271593e+000	 1.015507845702428e+001
 2.477582953724108e+000	 3.964493373369870e+000	 1.013963006867570e+001
 2.436950472622098e+000	 3.989598650746217e+000	 1.013957218507175e+001
 2.396113461854660e+000	 4.014257749315822e+000	 1.013445378389193e+001
 2.355079142167699e+000	 4.038468426783482e+000	 1.012329558145635e+001
 2.313854760146438e+000	 4.062228593879011e+000	 1.010513462874043e+001
 2.272447584238069e+000	 4.085536314470157e+000	 1.007902636234914e+001
 2.230864900788501e+000	 4.108389805554000e+000	 1.004404660759313e+001
 2.189114010097476e+000	 4.130787437127987e+000	 9.999293528927083e+000
 2.147202222496156e+000	 4.152727731941907e+000	 9.943889523211741e+000
 2.571885840906018e+000	 3.933878902745785e+000	 1.019437257012484e+001
 2.531468974743198e+000	 3.960008185597324e+000	 1.017097033253981e+001
 2.490832060426316e+000	 3.985693872690718e+000	 1.013982400787955e+001
 2.449982293328969e+000	 4.010933402887178e+000	 1.013541196811488e+001
 2.408926902824705e+000	 4.035724368293952e+000	 1.012657833899678e+001
 2.367673148273040e+000	 4.060064514624950e+000	 1.011232061316012e+001
 2.326228315010992e+000	 4.083951741437423e+000	 1.009165225717410e+001
 2.284599710354450e+000	 4.107384102245465e+000	 1.006360480968156e+001
 2.242794659613744e+000	 4.130359804511387e+000	 1.002722993152977e+001
 2.200820502127651e+000	 4.152877209516042e+000	 9.981601403044255e+000
 2.158684587320011e+000	 4.174934832109484e+000	 9.925817063801670e+000
 2.585566084738318e+000	 3.954803790523470e+000	 1.020326283325677e+001
 2.544934235244737e+000	 3.981072058922053e+000	 1.018133618969333e+001
 2.504081167128226e+000	 4.006894372010565e+000	 1.014185298823103e+001
 2.463014114035644e+000	 4.032268155027139e+000	 1.012908006447801e+001
 2.421740343794653e+000	 4.057190987271081e+000	 1.011667600559569e+001
 2.380267154378384e+000	 4.081660602465419e+000	 1.009946285857319e+001
 2.338601869875647e+000	 4.105674888994832e+000	 1.007643017686713e+001
 2.296751836471034e+000	 4.129231890019774e+000	 1.004658527416090e+001
 2.254724418439292e+000	 4.152329803467775e+000	 1.000895532207979e+001
 2.212526994158230e+000	 4.174966981903096e+000	 9.962589394822246e+000
 2.170166952144371e+000	 4.197141932276062e+000	 9.906560455955219e+000
 2.599246328570120e+000	 3.975728678300154e+000	 1.020682735442012e+001
 2.558399495745880e+000	 4.002135932245784e+000	 1.018628416094127e+001
 2.517330273829839e+000	 4.028094871329415e+000	 1.014879532180504e+001
 2.476045934742123e+000	 4.053602907166102e+000	 1.012046543542674e+001
 2.434553784764504e+000	 4.078657606247210e+000	 1.010463793490213e+001
 2.392861160483732e+000	 4.103256690304888e+000	 1.008461574821484e+001
 2.350975424740408e+000	 4.127398036551245e+000	 1.005936418418468e+001
 2.308903962587824e+000	 4.151079677793084e+000	 1.002786600167773e+001
 2.266654177265143e+000	 4.174299802423162e+000	 9.989123555440683e+000
 2.224233486189214e+000	 4.197056754289153e+000	 9.942160888614810e+000
 2.181649316969235e+000	 4.219349032441642e+000	 9.886025767069944e+000
 2.066825668743274e+000	 3.997278030740858e+000	 1.004513981462814e+001
 2.026334940146127e+000	 4.017955538626073e+000	 9.898733656474077e+000
 1.985703424879969e+000	 4.038190424988225e+000	 9.776352844905956e+000
 1.944938166216198e+000	 4.057981706422046e+000	 9.677479484268618e+000
 1.904046202273650e+000	 4.077328544486139e+000	 9.601590841333280e+000
 1.863034562408458e+000	 4.096230244915353e+000	 9.542758427623944e+000
 1.821910263647759e+000	 4.114686256729197e+000	 9.489776049485267e+000
 1.780680307170585e+000	 4.132696171238480e+000	 9.452558982174319e+000
 1.739351674839182e+000	 4.150259720952576e+000	 9.429225078490195e+000
 1.697931325783844e+000	 4.167376778389715e+000	 9.417955825818529e+000
 1.656426193044263e+000	 4.184047354792892e+000	 9.416999524533891e+000
 2.078308033563603e+000	 4.019485130915437e+000	 1.003272269466067e+001
 2.037592356473766e+000	 4.040277513844186e+000	 9.891436856986752e+000
 1.996735110566970e+000	 4.060624816241361e+000	 9.774257553997515e+000
 1.955743378243896e+000	 4.080526049238337e+000	 9.680647908208028e+000
 1.914624236724039e+000	 4.099980369735707e+000	 9.610066368271179e+000
 1.873384754415510e+000	 4.118987079611292e+000	 9.561330180487207e+000
 1.832031987328928e+000	 4.137545624823596e+000	 9.516207425854484e+000
 1.790572975538764e+000	 4.155655594412936e+000	 9.486406436020037e+000
 1.749014739695385e+000	 4.173316719402627e+000	 9.469996402535610e+000
 1.707364277590921e+000	 4.190528871602666e+000	 9.465111765813184e+000
 1.665628560781946e+000	 4.207292062318510e+000	 9.469955458251690e+000
 2.089790398384435e+000	 4.041692231089016e+000	 1.001978016661287e+001
 2.048849772801994e+000	 4.062599489061308e+000	 9.883743120713797e+000
 2.007766796254614e+000	 4.083059207493538e+000	 9.771894476369385e+000
 1.966548590272259e+000	 4.103070392053720e+000	 9.683678060649394e+000
 1.925202271175087e+000	 4.122632194984438e+000	 9.618533193460332e+000
 1.883734946423183e+000	 4.141743914306483e+000	 9.575896328508767e+000
 1.842153711010652e+000	 4.160404992917361e+000	 9.541927802660647e+000
 1.800465643907401e+000	 4.178615017586891e+000	 9.519886422454036e+000
 1.758677804551919e+000	 4.196373717852327e+000	 9.510734117980716e+000
 1.716797229398172e+000	 4.213680964815437e+000	 9.512557550799572e+000
 1.674830928519619e+000	 4.230536769844139e+000	 9.523513576860303e+000
 2.101272763205771e+000	 4.063899331261593e+000	 1.000621798643223e+001
 2.060107189130810e+000	 4.084921464277438e+000	 9.875560771868438e+000
 2.018798481942900e+000	 4.105493598744757e+000	 9.769174515166478e+000
 1.977353802301289e+000	 4.125614734868196e+000	 9.686483431709069e+000
 1.935780305626794e+000	 4.145284020232332e+000	 9.626907399421651e+000
 1.894085138431479e+000	 4.164500749000931e+000	 9.589863635086628e+000
 1.852275434692931e+000	 4.183264361010493e+000	 9.566805587305820e+000
 1.810358312276495e+000	 4.201574440760342e+000	 9.552873088426139e+000
 1.768340869408785e+000	 4.219430716301676e+000	 9.551318043267127e+000
 1.726230181205598e+000	 4.236833058028028e+000	 9.560178596965008e+000
 1.684033296257282e+000	 4.253781477369778e+000	 9.577564815010593e+000
 2.112755128027612e+000	 4.086106431433171e+000	 9.991941958264627e+000
 2.071364605460215e+000	 4.107243439492581e+000	 9.866798179311800e+000
 2.029830167631828e+000	 4.127927989995016e+000	 9.766008614611073e+000
 1.988159014330985e+000	 4.148159077681763e+000	 9.688977548991957e+000
 1.946358340079160e+000	 4.167935845479390e+000	 9.635105102559425e+000
 1.904435330440397e+000	 4.187257583694634e+000	 9.603788942835410e+000
 1.862397158375764e+000	 4.206123729102990e+000	 9.590709213822363e+000
 1.820250980646048e+000	 4.224533863933293e+000	 9.585240603872249e+000
 1.778003934265982e+000	 4.242487714750674e+000	 9.591628016168693e+000
 1.735663133013200e+000	 4.259985151240440e+000	 9.607860336167247e+000
 1.693235663994934e+000	 4.277026184895429e+000	 9.632000119356061e+000
 2.124237492849956e+000	 4.108313531603750e+000	 9.976857933151711e+000
 2.082622021790209e+000	 4.129565414706734e+000	 9.857363755346109e+000
 2.040861853321399e+000	 4.150362381244316e+000	 9.762307758892558e+000
 1.998964226361346e+000	 4.170703420494422e+000	 9.691073976578322e+000
 1.956936374532185e+000	 4.190587670725612e+000	 9.643042452245451e+000
 1.914785522449936e+000	 4.210014418387591e+000	 9.617590989239101e+000
 1.872518882059152e+000	 4.228983097194856e+000	 9.613507142153274e+000
 1.830143649016057e+000	 4.247493287105740e+000	 9.616863161092974e+000
 1.787666999123510e+000	 4.265544713199322e+000	 9.631543893268900e+000
 1.745096084820976e+000	 4.283137244452671e+000	 9.655488215510975e+000
 1.702438031732576e+000	 4.300270892421088e+000	 9.686710448228320e+000
 2.135719857672804e+000	 4.130520631773328e+000	 9.960871807770198e+000
 2.093879438120791e+000	 4.151887389919897e+000	 9.847165954547016e+000
 2.051893539011612e+000	 4.172796772492658e+000	 9.757982971093039e+000
 2.009769438392373e+000	 4.193247763306173e+000	 9.692686314043248e+000
 1.967514408985869e+000	 4.213239495970997e+000	 9.650635629932877e+000
 1.925135714460097e+000	 4.232771253079803e+000	 9.631188540435538e+000
 1.882640605743095e+000	 4.251842465286088e+000	 9.633702389948816e+000
 1.840036317386526e+000	 4.270452710277686e+000	 9.647614974152591e+000
 1.797330063981369e+000	 4.288601711647618e+000	 9.670945549455304e+000
 1.754529036628928e+000	 4.306289337664721e+000	 9.702947696937962e+000
 1.711640399470208e+000	 4.323515599946758e+000	 9.741586771323298e+000
 2.147202222496156e+000	 4.152727731941907e+000	 9.943889523211741e+000
 2.105136854451962e+000	 4.174209365132070e+000	 9.836113272633188e+000
 2.062925224702469e+000	 4.195231163740040e+000	 9.752945312147441e+000
 2.020574650424067e+000	 4.215792106117017e+000	 9.693728195507630e+000
 1.978092443440212e+000	 4.235891321215544e+000	 9.657800848298411e+000
 1.935485906470881e+000	 4.255528087771273e+000	 9.644500390450320e+000
 1.892762329427593e+000	 4.274701833376684e+000	 9.653163920098113e+000
 1.849928985757451e+000	 4.293412133449130e+000	 9.677370278297005e+000
 1.806993128839560e+000	 4.311658710095563e+000	 9.709712877430073e+000
 1.763961988437054e+000	 4.329441430876592e+000	 9.750124256830347e+000
 1.720842767207830e+000	 4.346760307472438e+000	 9.796520069397300e+000
 2.158684587320011e+000	 4.174934832109484e+000	 9.925817063801670e+000
 2.116394270783720e+000	 4.196531340343253e+000	 9.824114245372154e+000
 2.073956910393968e+000	 4.217665554986464e+000	 9.747105879836807e+000
 2.031379862456427e+000	 4.238336448926953e+000	 9.694113288719336e+000
 1.988670477895215e+000	 4.258543146459256e+000	 9.664454350411850e+000
 1.945836098482286e+000	 4.278284922461995e+000	 9.657445360455002e+000
 1.902884053112646e+000	 4.297561201466650e+000	 9.672402852145288e+000
 1.859821654128836e+000	 4.316371556620072e+000	 9.706003329390443e+000
 1.816656193698082e+000	 4.334715708543159e+000	 9.747725787236279e+000
 1.773394940245357e+000	 4.352593524088284e+000	 9.796903385626518e+000
 1.730045134945440e+000	 4.370005014998127e+000	 9.851401333972854e+000
 2.170166952144371e+000	 4.197141932276062e+000	 9.906560455955219e+000
 2.127651687116068e+000	 4.218853315553446e+000	 9.811077447520797e+000
 2.084988596086108e+000	 4.240099946231929e+000	 9.740375807813486e+000
 2.042185074489452e+000	 4.260880791735981e+000	 9.693755294163635e+000
 1.999248512350876e+000	 4.281194971702131e+000	 9.670512408932089e+000
 1.956186290494314e+000	 4.301041757151972e+000	 9.669942298049039e+000
 1.913005776798254e+000	 4.320420569555981e+000	 9.691340608849856e+000
 1.869714322500677e+000	 4.339330979790511e+000	 9.733388403370009e+000
 1.826319258556935e+000	 4.357772706990403e+000	 9.784864205798984e+000
 1.782827892053834e+000	 4.375745617299795e+000	 9.837442492040642e+000
 1.739247502683042e+000	 4.393249722523829e+000	 9.763596710791921e+000
 2.181649316969235e+000	 4.219349032441642e+000	 9.886025767069944e+000
 2.138909103449004e+000	 4.241175290762651e+000	 9.796911491799300e+000
 2.096020281778892e+000	 4.262534337476436e+000	 9.732666264657185e+000
 2.052990286523145e+000	 4.283425134544102e+000	 9.692567944201700e+000
 2.009826546807197e+000	 4.303846796944171e+000	 9.675891325328422e+000
 1.966536482506964e+000	 4.323798591841205e+000	 9.681910076564309e+000
 1.923127500484418e+000	 4.343279937644681e+000	 9.709898635614628e+000
 1.879606990872978e+000	 4.362290402960451e+000	 9.759134059018306e+000
 1.835982323416120e+000	 4.380829705437297e+000	 9.777562081073072e+000
 1.792260843862487e+000	 4.398897710511126e+000	 9.706116937478496e+000
 1.748449870420633e+000	 4.416494430049542e+000	 9.637575519618522e+000
 1.656426193044263e+000	 4.184047354792892e+000	 9.416999524533891e+000
 1.614843180269973e+000	 4.200271598754027e+000	 9.420379577275950e+000
 1.573189158483706e+000	 4.216049794749046e+000	 9.425855756398157e+000
 1.531470962909008e+000	 4.231382361586969e+000	 9.431892081663250e+000
 1.489695389864481e+000	 4.246269850775701e+000	 9.437034284487133e+000
 1.447869193727904e+000	 4.260712944807515e+000	 9.439911837726781e+000
 1.405999083972017e+000	 4.274712455367262e+000	 9.439239758993372e+000
 1.364091722274012e+000	 4.288269321466461e+000	 9.433820187596055e+000
 1.322153719700637e+000	 4.301384607506363e+000	 9.422543735861307e+000
 1.280191633970678e+000	 4.314059501273208e+000	 9.404390616195972e+000
 1.238211966796443e+000	 4.326295311868889e+000	 9.371514494295193e+000
 1.665628560781946e+000	 4.207292062318510e+000	 9.469955458251690e+000
 1.623814531271376e+000	 4.223606440967679e+000	 9.478189443314861e+000
 1.581929098254062e+000	 4.239472293606605e+000	 9.488456045108750e+000
 1.539979134927016e+000	 4.254890041371023e+000	 9.499186477617991e+000
 1.497971475366166e+000	 4.269860238832774e+000	 9.508894923204800e+000
 1.455912911473615e+000	 4.284383572275750e+000	 9.516180607132171e+000
 1.413810189996953e+000	 4.298460857894164e+000	 9.519729641829265e+000
 1.371670009622691e+000	 4.312093039916263e+000	 9.518316640986326e+000
 1.329499018145727e+000	 4.325281188656642e+000	 9.510806104218855e+000
 1.287303809716620e+000	 4.338026498500345e+000	 9.496153573673032e+000
 1.245090922168304e+000	 4.350330285822056e+000	 9.470727974212407e+000
 1.674830928519619e+000	 4.230536769844139e+000	 9.523513576860303e+000
 1.632785882272589e+000	 4.246941283181525e+000	 9.537119957757577e+000
 1.590669038024091e+000	 4.262894792464511e+000	 9.552675913262481e+000
 1.548487306944598e+000	 4.278397721155550e+000	 9.568579168866009e+000
 1.506247560867369e+000	 4.293450626890412e+000	 9.583311706270212e+000
 1.463956629218827e+000	 4.308054199744612e+000	 9.595441883202058e+000
 1.421621296021413e+000	 4.322209260421725e+000	 9.603626319122494e+000
 1.379248296970957e+000	 4.335916758366730e+000	 9.606611546900995e+000
 1.336844316590506e+000	 4.349177769807553e+000	 9.603235431189285e+000
 1.294415985462393e+000	 4.361993495728061e+000	 9.592428354871636e+000
 1.251969877540177e+000	 4.374365259775718e+000	 9.573214175592256e+000
 1.684033296257282e+000	 4.253781477369778e+000	 9.577564815010593e+000
 1.641757233273613e+000	 4.270276125395566e+000	 9.597063916575658e+000
 1.599408977793790e+000	 4.286317291322766e+000	 9.618410044269679e+000
 1.556995478961755e+000	 4.301905400940547e+000	 9.639966748138079e+000
 1.514523646368089e+000	 4.317041014948612e+000	 9.660183153475261e+000
 1.472000346963540e+000	 4.331724827214101e+000	 9.677596126489007e+000
 1.429432402045397e+000	 4.345957662949947e+000	 9.690832201949123e+000
 1.386826584318810e+000	 4.359740476817858e+000	 9.698609272873647e+000
 1.344189615034976e+000	 4.373074350959102e+000	 9.699738042980750e+000
 1.301528161207999e+000	 4.385960492956356e+000	 9.625371565103963e+000
 1.258848832912064e+000	 4.398400233729873e+000	 9.543559010686783e+000
 1.693235663994934e+000	 4.277026184895429e+000	 9.632000119356061e+000
 1.650728584274448e+000	 4.293610967609801e+000	 9.657914201733560e+000
 1.608148917563162e+000	 4.309739790181370e+000	 9.685553278999686e+000
 1.565503650978485e+000	 4.325413080726016e+000	 9.713246034549952e+000
 1.522799731868327e+000	 4.340631403007379e+000	 9.739408077368498e+000
 1.480044064707754e+000	 4.355395454684218e+000	 9.762544154107308e+000
 1.437243508068906e+000	 4.369706065478828e+000	 9.781250119174477e+000
 1.394404871666251e+000	 4.383564195269647e+000	 9.734499175598828e+000
 1.351534913479135e+000	 4.396970932111286e+000	 9.654441866498555e+000
 1.308640336953436e+000	 4.409927490185231e+000	 9.579988208911844e+000
 1.265727788283963e+000	 4.422435207684523e+000	 9.511579283665448e+000
 1.702438031732576e+000	 4.300270892421088e+000	 9.686710448228320e+000
 1.659699935275092e+000	 4.316945809824232e+000	 9.719563778864554e+000
 1.616888857332206e+000	 4.333162289040322e+000	 9.754000611525205e+000
 1.574011822994792e+000	 4.348920760511958e+000	 9.788314067483825e+000
 1.531075817368083e+000	 4.364221791066709e+000	 9.820885575342800e+000
 1.488087782451469e+000	 4.379066082154962e+000	 9.819577101558341e+000
 1.445054614091940e+000	 4.393454468008369e+000	 9.740041907690129e+000
 1.401983159013279e+000	 4.407387913722100e+000	 9.665886417000445e+000
 1.358880211922985e+000	 4.420867513264106e+000	 9.597648922658877e+000
 1.315752512698706e+000	 4.433894487414682e+000	 9.535826092252439e+000
 1.272606743655874e+000	 4.446470181639666e+000	 9.480872541645615e+000
 1.711640399470208e+000	 4.323515599946758e+000	 9.741586771323298e+000
 1.668671286275546e+000	 4.340280652038856e+000	 9.781905695021518e+000
 1.625628797100923e+000	 4.356584787899623e+000	 9.823647185003884e+000
 1.582519995010671e+000	 4.372428440298371e+000	 9.865068100667191e+000
 1.539351902867356e+000	 4.387812179126605e+000	 9.805514308014727e+000
 1.496131500194685e+000	 4.402736709626333e+000	 9.730717510345011e+000
 1.452865720114497e+000	 4.417202870538569e+000	 9.661481033110677e+000
 1.409561446359895e+000	 4.431211632175214e+000	 9.598402051212258e+000
 1.366225510366525e+000	 4.444764094417558e+000	 9.542035291853829e+000
 1.322864688443807e+000	 4.457861484644716e+000	 9.492892503290175e+000
 1.279485699027798e+000	 4.470505155595302e+000	 9.451442023946184e+000
 1.720842767207830e+000	 4.346760307472438e+000	 9.796520069397300e+000
 1.677642637275812e+000	 4.363615494253677e+000	 9.844833076499979e+000
 1.634368736869311e+000	 4.380007286759271e+000	 9.854799608277590e+000
 1.591028167026127e+000	 4.395936120085256e+000	 9.778975015714268e+000
 1.547627988366146e+000	 4.411402567187063e+000	 9.708109543915157e+000
 1.504175217937402e+000	 4.426407337098329e+000	 9.642903924702209e+000
 1.460676826136578e+000	 4.440951273069429e+000	 9.584016478598031e+000
 1.417139733706099e+000	 4.455035350628992e+000	 9.532062368506754e+000
 1.373570808809755e+000	 4.468660675571651e+000	 9.487612957488093e+000
 1.329976864188740e+000	 4.481828481875327e+000	 9.451195270119765e+000
 1.286364654399735e+000	 4.494540129551433e+000	 9.423291556668266e+000
 1.730045134945440e+000	 4.370005014998127e+000	 9.851401333972854e+000
 1.686613988275887e+000	 4.386950336468694e+000	 9.813876176833247e+000
 1.643108676637371e+000	 4.403429785619270e+000	 9.741328809449957e+000
 1.599536339041156e+000	 4.419443799872612e+000	 9.673691477282425e+000
 1.555904073864455e+000	 4.434992955248088e+000	 9.611728674801512e+000
 1.512218935679620e+000	 4.450077964570956e+000	 9.556162015415406e+000
 1.468487932158185e+000	 4.464699675600949e+000	 9.507669365706958e+000
 1.424718021051890e+000	 4.478859069083432e+000	 9.466884086511392e+000
 1.380916107252676e+000	 4.492557256726376e+000	 9.434394380595096e+000
 1.337089039933505e+000	 4.505795479106518e+000	 9.410742746406347e+000
 1.293243609771684e+000	 4.518575103508055e+000	 9.396425537089348e+000
 1.739247502683042e+000	 4.393249722523829e+000	 9.763596710791921e+000
 1.695585339275773e+000	 4.410285178683903e+000	 9.693822944119107e+000
 1.651848616405103e+000	 4.426852284479617e+000	 9.628819731407196e+000
 1.608044511055760e+000	 4.442951479660441e+000	 9.569417214651802e+000
 1.564180159362281e+000	 4.458583343309677e+000	 9.516402319480749e+000
 1.520262653421339e+000	 4.473748592044207e+000	 9.470517764642503e+000
 1.476299038179315e+000	 4.488448078133128e+000	 9.432461180832375e+000
 1.432296308397268e+000	 4.502682787538533e+000	 9.402884338902894e+000
 1.388261405695286e+000	 4.516453837881736e+000	 9.382392487201280e+000
 1.344201215678103e+000	 4.529762476338287e+000	 9.371543797481548e+000
 1.300122565143645e+000	 4.542610077465175e+000	 9.370848918552740e+000
 1.748449870420633e+000	 4.416494430049542e+000	 9.637575519618522e+000
 1.704556690275469e+000	 4.433620020899308e+000	 9.574726754567340e+000
 1.660588556172508e+000	 4.450274783340313e+000	 9.517312813491547e+000
 1.616552683069939e+000	 4.466459159448743e+000	 9.466187814362698e+000
 1.572456244859625e+000	 4.482173731371831e+000	 9.422161345685854e+000
 1.528306371162558e+000	 4.497419219518086e+000	 9.385997457719787e+000
 1.484110144199970e+000	 4.512196480665969e+000	 9.358413765608409e+000
 1.439874595742234e+000	 4.526506505994299e+000	 9.340080664458563e+000
 1.395606704137587e+000	 4.540350419037734e+000	 9.331620656089523e+000
 1.351313391422532e+000	 4.553729473570638e+000	 9.333607786878513e+000
 1.307001520515620e+000	 4.566645051422786e+000	 9.346567195834279e+000
 1.238211966796443e+000	 4.326295311868889e+000	 9.371514494295193e+000
 1.196221161306078e+000	 4.338093467580077e+000	 9.345142808987067e+000
 1.154225599546729e+000	 4.349455513689764e+000	 9.316817900608525e+000
 1.112231600071145e+000	 4.360383110233927e+000	 9.288752724942942e+000
 1.070245415609067e+000	 4.370878029706319e+000	 9.262995326559119e+000
 1.028273230823133e+000	 4.380942154715376e+000	 9.219262442826841e+000
 9.863211601505714e-001	 4.390577475596269e+000	 9.171138512399223e+000
 9.443952457313436e-001	 4.399786087981417e+000	 9.135084509530255e+000
 9.025014554232422e-001	 4.408570190332767e+000	 9.111043910150302e+000
 8.606456809043406e-001	 4.416932081439071e+000	 9.098922648786010e+000
 8.188337358630459e-001	 4.424874157881446e+000	 9.098589490880841e+000
 1.245090922168304e+000	 4.350330285822056e+000	 9.470727974212407e+000
 1.202866834424291e+000	 4.362193986843245e+000	 9.449286312594809e+000
 1.160637963987752e+000	 4.373619155431682e+000	 9.424927339483961e+000
 1.118410664514505e+000	 4.384607460845763e+000	 9.357929959533321e+000
 1.076191223471678e+000	 4.395160685426433e+000	 9.294598905641559e+000
 1.033985859881143e+000	 4.405280722241064e+000	 9.241535723086360e+000
 9.918007221492238e-001	 4.414969572682244e+000	 9.198772529355262e+000
 9.496418859833251e-001	 4.424229344024799e+000	 9.166304370059045e+000
 9.075153523960025e-001	 4.433062246944354e+000	 9.144089402768360e+000
 8.654270457968732e-001	 4.441470593000706e+000	 9.132049156019296e+000
 8.233828121726124e-001	 4.449456792089316e+000	 9.130068861398506e+000
 1.251969877540177e+000	 4.374365259775718e+000	 9.573214175592256e+000
 1.209512507542697e+000	 4.386294506106817e+000	 9.498245721686978e+000
 1.167050328429106e+000	 4.397782797173934e+000	 9.426821705476696e+000
 1.124589728958293e+000	 4.408831811457885e+000	 9.363693580034619e+000
 1.082137031334772e+000	 4.419443341146804e+000	 9.308978614539655e+000
 1.039698488939652e+000	 4.429619289767003e+000	 9.262757924702079e+000
 9.972802841483516e-001	 4.439361669768482e+000	 9.225076459764747e+000
 9.548885262357177e-001	 4.448672600068478e+000	 9.195943068486049e+000
 9.125292493690708e-001	 4.457554303556283e+000	 9.175330642411975e+000
 8.702084106895723e-001	 4.466009104562757e+000	 9.163176334569565e+000
 8.279318884821645e-001	 4.474039426297694e+000	 9.159381851549702e+000
 1.258848832912064e+000	 4.398400233729873e+000	 9.543559010686783e+000
 1.216158180661293e+000	 4.410395025370794e+000	 9.481781368845864e+000
 1.173462692870789e+000	 4.421946438916520e+000	 9.422167574295848e+000
 1.130768793402506e+000	 4.433056162070294e+000	 9.369080650313620e+000
 1.088082839198348e+000	 4.443725996867436e+000	 9.322648777109754e+000
 1.045411117998660e+000	 4.453957857293191e+000	 9.282965012089489e+000
 1.002759846147954e+000	 4.463753766854984e+000	 9.250087236083914e+000
 9.601351664885216e-001	 4.473115856112448e+000	 9.224038178720386e+000
 9.175431463424475e-001	 4.482046360168563e+000	 9.204805521302585e+000
 8.749897755824373e-001	 4.490547616125227e+000	 9.192342075392403e+000
 8.324809647917018e-001	 4.498622060506580e+000	 9.186566035118345e+000
 1.265727788283963e+000	 4.422435207684523e+000	 9.511579283665448e+000
 1.222803853780082e+000	 4.434495544635175e+000	 9.465717517582359e+000
 1.179875057312801e+000	 4.446110080659443e+000	 9.417528682526950e+000
 1.136947857847147e+000	 4.457280512682990e+000	 9.374124528540818e+000
 1.094028647062408e+000	 4.468008652588325e+000	 9.335644294233509e+000
 1.051123747058167e+000	 4.478296424819630e+000	 9.302193103835712e+000
 1.008239408148032e+000	 4.488145863941748e+000	 9.273841872768918e+000
 9.653818067417367e-001	 4.497559112156714e+000	 9.250627292541616e+000
 9.225570433161322e-001	 4.506538416781186e+000	 9.232551893404581e+000
 8.797711404754686e-001	 4.515086127688112e+000	 9.219584183016641e+000
 8.370300411012241e-001	 4.523204694715973e+000	 9.211658859201386e+000
 1.272606743655874e+000	 4.446470181639666e+000	 9.480872541645615e+000
 1.229449526899063e+000	 4.458596063899961e+000	 9.450083963362989e+000
 1.186287421755143e+000	 4.470273722402702e+000	 9.412936925526823e+000
 1.143126922292214e+000	 4.481504863295973e+000	 9.378858886943879e+000
 1.099974454926952e+000	 4.492291308309474e+000	 9.348000294878288e+000
 1.056836376118173e+000	 4.502634992346319e+000	 9.320478468532683e+000
 1.013718970148585e+000	 4.512537961028775e+000	 9.296377464059615e+000
 9.706284469953630e-001	 4.522002368201274e+000	 9.275748019116694e+000
 9.275709402901251e-001	 4.531030473394154e+000	 9.258607575459266e+000
 8.845525053686659e-001	 4.539624639251416e+000	 9.244940377880276e+000
 8.415791174107322e-001	 4.547787328925875e+000	 9.234697647632853e+000
 1.279485699027798e+000	 4.470505155595302e+000	 9.451442023946184e+000
 1.236095200018235e+000	 4.482696583165149e+000	 9.434910997723776e+000
 1.192699786197815e+000	 4.494437364146294e+000	 9.408424595631566e+000
 1.149305986737708e+000	 4.505729213909241e+000	 9.383317703365181e+000
 1.105920262791978e+000	 4.516573964030878e+000	 9.359752129965829e+000
 1.062549005178678e+000	 4.526973559873260e+000	 9.337857520744777e+000
 1.019198532149612e+000	 4.536930058116062e+000	 9.317731181834882e+000
 9.758750872494005e-001	 4.546445624246128e+000	 9.299437984532657e+000
 9.325848372644264e-001	 4.555522530007470e+000	 9.283010347985494e+000
 8.893338702620292e-001	 4.564163150815134e+000	 9.268448298590897e+000
 8.461281937202254e-001	 4.572369963136283e+000	 9.255719604297301e+000
 1.286364654399735e+000	 4.494540129551433e+000	 9.423291556668266e+000
 1.242740873137600e+000	 4.506797102430743e+000	 9.420229395006462e+000
 1.199112150640817e+000	 4.518601005890221e+000	 9.404024371542210e+000
 1.155485051183629e+000	 4.529953564522797e+000	 9.387535253090341e+000
 1.111866070657487e+000	 4.540856619752544e+000	 9.370935366437628e+000
 1.068261634239683e+000	 4.551312127400450e+000	 9.354366817105792e+000
 1.024678094151114e+000	 4.561322155203613e+000	 9.337940273536644e+000
 9.811217275038495e-001	 4.570888880291277e+000	 9.321734831344134e+000
 9.375987342390358e-001	 4.580014586621130e+000	 9.305797956248210e+000
 8.941152351555585e-001	 4.588701662379271e+000	 9.290145504113704e+000
 8.506772700297042e-001	 4.596952597347197e+000	 9.274761816337074e+000
 1.293243609771684e+000	 4.518575103508055e+000	 9.396425537089348e+000
 1.249386546257156e+000	 4.530897621696742e+000	 9.406070399517882e+000
 1.205524515084149e+000	 4.542764647634485e+000	 9.399769308048981e+000
 1.161664115629977e+000	 4.554177915136640e+000	 9.391546100937523e+000
 1.117811878523479e+000	 4.565139275474467e+000	 9.381585781509756e+000
 1.073974263301186e+000	 4.575650694927892e+000	 9.370043052540529e+000
 1.030157656153092e+000	 4.585714252291426e+000	 9.357042060160289e+000
 9.863683677587096e-001	 4.595332136336720e+000	 9.342676218135436e+000
 9.426126312139533e-001	 4.604506643235137e+000	 9.327008111196008e+000
 8.988966000492540e-001	 4.613240173943826e+000	 9.310069475889643e+000
 8.552263463391679e-001	 4.621535231558619e+000	 9.291861257257109e+000
 1.300122565143645e+000	 4.542610077465175e+000	 9.370848918552740e+000
 1.256032219376904e+000	 4.554998140963141e+000	 9.390691680798557e+000
 1.211936879527810e+000	 4.566928289379082e+000	 9.395692826081930e+000
 1.167843180076751e+000	 4.578402265750768e+000	 9.395385093597794e+000
 1.123757686389954e+000	 4.589421931196648e+000	 9.391739357110046e+000
 1.079686892363189e+000	 4.599989262455583e+000	 9.384923056606269e+000
 1.035637218155545e+000	 4.610106349379503e+000	 9.375073934308748e+000
 9.916150080139813e-001	 4.619775392382458e+000	 9.362299819096435e+000
 9.476265281891790e-001	 4.628998699849491e+000	 9.346678490368960e+000
 9.036779649431154e-001	 4.637778685508796e+000	 9.328257619886337e+000
 8.597754226486175e-001	 4.646117865770551e+000	 9.307054789931232e+000
 1.307001520515620e+000	 4.566645051422786e+000	 9.346567195834279e+000
 1.262677892496843e+000	 4.579098660229949e+000	 9.376045185595086e+000
 1.218349243971802e+000	 4.591091931124016e+000	 9.391828703075602e+000
 1.174022244523952e+000	 4.602626616365185e+000	 9.399087352217419e+000
 1.129703494256913e+000	 4.613704586919090e+000	 9.401432274490864e+000
 1.085399521425690e+000	 4.624327829983526e+000	 9.399043789949818e+000
 1.041116780158473e+000	 4.634498446467843e+000	 9.392073358308128e+000
 9.968616482696642e-001	 4.644218648428491e+000	 9.380643323611977e+000
 9.526404251647134e-001	 4.653490756464190e+000	 9.364846738777889e+000
 9.084593298371433e-001	 4.662317197074184e+000	 9.344747268584195e+000
 8.643244989580522e-001	 4.670700499982988e+000	 9.320379169513513e+000
 8.188337358630459e-001	 4.424874157881446e+000	 9.098589490880841e+000
 7.770713542760024e-001	 4.432398911470850e+000	 9.080151718571518e+000
 7.353641887737129e-001	 4.439508926659324e+000	 9.063797434124137e+000
 6.937178090935393e-001	 4.446206877929084e+000	 9.049420844044361e+000
 6.521377006203357e-001	 4.452495527163421e+000	 9.036886899109902e+000
 6.106292630141446e-001	 4.458377721001112e+000	 9.029140783666286e+000
 5.691978089245402e-001	 4.463856388177795e+000	 9.024121027198293e+000
 5.278485627910554e-001	 4.468934536857286e+000	 9.013759409918173e+000
 4.865866597290441e-001	 4.473615251955685e+000	 8.998115506096548e+000
 4.454171445002333e-001	 4.477901692461161e+000	 8.977187532045535e+000
 4.043449705671096e-001	 4.481797088752095e+000	 8.950913979879296e+000
 8.233828121726124e-001	 4.449456792089316e+000	 9.130068861398506e+000
 7.813884173551501e-001	 4.457023349864672e+000	 9.110155348130402e+000
 7.394495453783545e-001	 4.464172865137007e+000	 9.092616361671711e+000
 6.975717969225731e-001	 4.470908027246774e+000	 9.077354584206058e+000
 6.557606878470220e-001	 4.477231613421060e+000	 9.064242647764925e+000
 6.140216478098556e-001	 4.483146486113297e+000	 9.055131991261327e+000
 5.723600189753694e-001	 4.488655590329879e+000	 9.049301477017339e+000
 5.307810548077608e-001	 4.493761950946637e+000	 9.038747274449047e+000
 4.892899189508035e-001	 4.498468670018098e+000	 9.023532803489223e+000
 4.478916841926801e-001	 4.502778924082358e+000	 9.003658636026888e+000
 4.065913315151142e-001	 4.506695961464353e+000	 8.979064162450413e+000
 8.279318884821645e-001	 4.474039426297694e+000	 9.159381851549702e+000
 7.857054804340988e-001	 4.481647788259090e+000	 9.138035309864982e+000
 7.435349019826437e-001	 4.488836803615357e+000	 9.119359943329078e+000
 7.014257847511325e-001	 4.495609176565181e+000	 9.103266990200611e+000
 6.593836750731416e-001	 4.501967699679441e+000	 9.089636834517327e+000
 6.174140326049386e-001	 4.507915251226232e+000	 9.079465874630525e+000
 5.755222290255385e-001	 4.513454792482698e+000	 9.072923869825900e+000
 5.337135468238045e-001	 4.518589365036694e+000	 9.062290114193017e+000
 4.919931781719292e-001	 4.523322088081166e+000	 9.047631825630141e+000
 4.503662238845498e-001	 4.527656155704141e+000	 9.028951865143627e+000
 4.088376924626270e-001	 4.531594834177102e+000	 9.006190436644168e+000
 8.324809647917018e-001	 4.498622060506580e+000	 9.186566035118345e+000
 7.900225435128486e-001	 4.506272226654105e+000	 9.163825568705953e+000
 7.476202585865805e-001	 4.513500742094372e+000	 9.144058593618485e+000
 7.052797725792167e-001	 4.520310325884299e+000	 9.127184986348013e+000
 6.630066622986947e-001	 4.526703785938562e+000	 9.113092955364524e+000
 6.208064173993930e-001	 4.532684016339916e+000	 9.102146449623659e+000
 5.786844390750477e-001	 4.538253994636254e+000	 9.094989542140569e+000
 5.366460388391863e-001	 4.543416779127455e+000	 9.084386722100183e+000
 4.946964373924205e-001	 4.548175506144885e+000	 9.070408958101750e+000
 4.528407635758420e-001	 4.552533387326506e+000	 9.053061334093918e+000
 4.110840534096479e-001	 4.556493706890342e+000	 9.032284782897433e+000
 8.370300411012241e-001	 4.523204694715973e+000	 9.211658859201386e+000
 7.943396065913998e-001	 4.530896665049719e+000	 9.187559995267083e+000
 7.517056151901652e-001	 4.538164680574053e+000	 9.166742664944884e+000
 7.091337604068266e-001	 4.545011475204132e+000	 9.149135466868621e+000
 6.666296495236811e-001	 4.551439872198428e+000	 9.134634508028476e+000
 6.241988021932194e-001	 4.557452781454349e+000	 9.123177765434708e+000
 5.818466491238974e-001	 4.563053196790550e+000	 9.115499895226499e+000
 5.395785308539065e-001	 4.568244193218922e+000	 9.105035987047518e+000
 4.973996966122779e-001	 4.573028924209257e+000	 9.091860713355516e+000
 4.553153032665570e-001	 4.577410618949452e+000	 9.075981315140759e+000
 4.133304143561772e-001	 4.581392579604075e+000	 9.057339369651887e+000
 8.415791174107322e-001	 4.547787328925875e+000	 9.234697647632853e+000
 7.986566696697515e-001	 4.555521103445926e+000	 9.209272368394291e+000
 7.557909717933976e-001	 4.562828619054400e+000	 9.187442449274785e+000
 7.129877482339616e-001	 4.569712624524679e+000	 9.169145296696575e+000
 6.702526367481011e-001	 4.576175958459034e+000	 9.154284991909066e+000
 6.275911869864177e-001	 4.582221546569534e+000	 9.142732758206011e+000
 5.850088591720872e-001	 4.587852398945581e+000	 9.134456393347346e+000
 5.425110228679650e-001	 4.593071607311093e+000	 9.124236891246252e+000
 5.001029558315010e-001	 4.597882342274283e+000	 9.111983727282967e+000
 4.577898429566945e-001	 4.602287850572979e+000	 9.097706233853518e+000
 4.155767753022150e-001	 4.606291452318299e+000	 9.081346548272681e+000
 8.461281937202254e-001	 4.572369963136283e+000	 9.255719604297301e+000
 8.029737327479043e-001	 4.580145541842733e+000	 9.228996377632550e+000
 7.598763283962778e-001	 4.587492557535412e+000	 9.206188179760920e+000
 7.168417360606217e-001	 4.594413773845941e+000	 9.187241312267117e+000
 6.738756239719542e-001	 4.600912044720382e+000	 9.172067908038954e+000
 6.309835717789875e-001	 4.606990311685467e+000	 9.160546401761426e+000
 5.881710692196170e-001	 4.612651601101351e+000	 9.151860562071832e+000
 5.454435148813620e-001	 4.617899021403971e+000	 9.141988507732899e+000
 5.028062150500900e-001	 4.622735760339963e+000	 9.130774755897456e+000
 4.602643826462547e-001	 4.627165082197090e+000	 9.118230664986754e+000
 4.178231362477610e-001	 4.631190325033014e+000	 9.104298848131251e+000
 8.506772700297042e-001	 4.596952597347197e+000	 9.274761816337074e+000
 8.072907958258579e-001	 4.604769980240135e+000	 9.246765625613591e+000
 7.639616849988057e-001	 4.612156496017090e+000	 9.223010032314788e+000
 7.206957238868073e-001	 4.619114923167915e+000	 9.203450322278565e+000
 6.774986111952407e-001	 4.625648130982472e+000	 9.188006759039970e+000
 6.343759565709292e-001	 4.631759076802148e+000	 9.176565057651395e+000
 5.913332792664872e-001	 4.637450803257858e+000	 9.167713986634542e+000
 5.483760068940971e-001	 4.642726435497554e+000	 9.158289997940704e+000
 5.055094742680453e-001	 4.647589178406296e+000	 9.148230672122324e+000
 4.627389223352376e-001	 4.652042313821782e+000	 9.137549328491302e+000
 4.200694971928152e-001	 4.656089197748221e+000	 9.126188971845776e+000
 8.552263463391679e-001	 4.621535231558619e+000	 9.291861257257109e+000
 8.116078589036128e-001	 4.629394418638134e+000	 9.262613630367465e+000
 7.680470416009811e-001	 4.636820434499433e+000	 9.237938127129082e+000
 7.245497117125181e-001	 4.643816072490604e+000	 9.217799108430002e+000
 6.811215984179607e-001	 4.650384217245303e+000	 9.202125049080863e+000
 6.377683413622425e-001	 4.656527841919581e+000	 9.190809015010160e+000
 5.944954893126973e-001	 4.662250005415101e+000	 9.182018310349079e+000
 5.513084989061706e-001	 4.667553849591840e+000	 9.173140609348740e+000
 5.082127334853660e-001	 4.672442596473283e+000	 9.164348462681602e+000
 4.652134620236431e-001	 4.676919545447056e+000	 9.155657085652731e+000
 4.223158581373777e-001	 4.680988070463921e+000	 9.147009790673499e+000
 8.597754226486175e-001	 4.646117865770551e+000	 9.307054789931232e+000
 8.159249219811684e-001	 4.654018857036731e+000	 9.276573827560613e+000
 7.721323982028044e-001	 4.661484372982442e+000	 9.251002530151700e+000
 7.284036995377543e-001	 4.668517221814007e+000	 9.230314426135566e+000
 6.847445856401141e-001	 4.675120303508878e+000	 9.214446283836312e+000
 6.411607261529279e-001	 4.681296607037764e+000	 9.203298592090212e+000
 5.976576993582478e-001	 4.687049207573082e+000	 9.194775233071587e+000
 5.542409909175825e-001	 4.692381263686833e+000	 9.186539673205548e+000
 5.109159927020528e-001	 4.697296014540922e+000	 9.179125225089386e+000
 4.676880017114714e-001	 4.701796777072913e+000	 9.172548935352221e+000
 4.245622190814485e-001	 4.705886943180112e+000	 9.166754340049383e+000
 8.643244989580522e-001	 4.670700499982988e+000	 9.320379169513513e+000
 8.202419850585254e-001	 4.678643295435927e+000	 9.288679572663391e+000
 7.762177548042755e-001	 4.686148311466118e+000	 9.262233254513212e+000
 7.322576873625158e-001	 4.693218371138126e+000	 9.241023005216126e+000
 6.883675728617010e-001	 4.699856389773195e+000	 9.224993970447340e+000
 6.445531109429850e-001	 4.706065372156695e+000	 9.214054135496086e+000
 6.008199094031385e-001	 4.711848409731801e+000	 9.205986509712739e+000
 5.571734829283327e-001	 4.717208677782532e+000	 9.198486602324641e+000
 5.136192519181055e-001	 4.722149432609216e+000	 9.192558164734345e+000
 4.701625413987223e-001	 4.726674008699353e+000	 9.188220010445754e+000
 4.268085800250276e-001	 4.730785815896795e+000	 9.185415815265721e+000
 4.043449705671096e-001	 4.481797088752095e+000	 8.950913979879296e+000
 3.633749992293684e-001	 4.485304739916109e+000	 8.917349335126042e+000
 3.225119988439666e-001	 4.488428011073319e+000	 8.887010340329326e+000
 2.817606441259506e-001	 4.491170330705894e+000	 8.859668239178944e+000
 2.411255155271930e-001	 4.493535187995821e+000	 8.835034542832362e+000
 2.006110986943447e-001	 4.495526130174090e+000	 8.812763179232695e+000
 1.602217840038418e-001	 4.497146759883373e+000	 8.792452697031928e+000
 1.199618661725720e-001	 4.498400732556415e+000	 8.773648517525931e+000
 7.983554394276284e-002	 4.499291753812300e+000	 8.755845228116527e+000
 3.984691983959775e-002	 4.499823576872690e+000	 8.738488910938381e+000
 0.000000000000000e+000	 4.500000000000000e+000	 8.720979500424937e+000
 4.065913315151142e-001	 4.506695961464353e+000	 8.979064162450413e+000
 3.653937492251137e-001	 4.510223099579862e+000	 8.949399537649008e+000
 3.243037321705993e-001	 4.513363722244021e+000	 8.922677255168637e+000
 2.833259810372557e-001	 4.516121276986122e+000	 8.898661344531741e+000
 2.424651017239094e-001	 4.518499272372497e+000	 8.877055609229835e+000
 2.017256047974699e-001	 4.520501275340979e+000	 8.857505801356750e+000
 1.611119050253528e-001	 4.522130908548917e+000	 8.839601851452962e+000
 1.206283209839831e-001	 4.523391847737017e+000	 8.822880146883485e+000
 8.027907474193338e-002	 4.524287819111140e+000	 8.806825852181206e+000
 4.006829161619280e-002	 4.524822596744175e+000	 8.790875264911632e+000
 0.000000000000000e+000	 4.525000000000000e+000	 8.774418200754322e+000
 4.088376924626270e-001	 4.531594834177102e+000	 9.006190436644168e+000
 3.674124992204621e-001	 4.535141459244013e+000	 8.980283925707600e+000
 3.260954654969194e-001	 4.538299433415035e+000	 8.957060680544910e+000
 2.848913179483222e-001	 4.541072223266592e+000	 8.936277386223569e+000
 2.438046879204512e-001	 4.543463356749351e+000	 8.917629985984288e+000
 2.028401109004743e-001	 4.545476420507987e+000	 8.900755881861775e+000
 1.620020260467867e-001	 4.547115057214537e+000	 8.885236191138112e+000
 1.212947757953511e-001	 4.548382962917662e+000	 8.870598051864748e+000
 8.072260554108483e-002	 4.549283884409997e+000	 8.856316970800467e+000
 4.028966339278307e-002	 4.549821616615666e+000	 8.841819207237894e+000
 0.000000000000000e+000	 4.550000000000000e+000	 8.826484186332623e+000
 4.110840534096479e-001	 4.556493706890342e+000	 9.032284782897433e+000
 3.694312492154133e-001	 4.560059818908559e+000	 9.009997553182423e+000
 3.278871988229268e-001	 4.563235144586363e+000	 8.990158701781066e+000
 2.864566548591501e-001	 4.566023169547295e+000	 8.972517438638658e+000
 2.451442741168182e-001	 4.568427441126377e+000	 8.956761693748430e+000
 2.039546170033579e-001	 4.570451565675120e+000	 8.942520344433682e+000
 1.628921470681436e-001	 4.572099205880234e+000	 8.929365499099369e+000
 1.219612306066758e-001	 4.573374078098350e+000	 8.916814830601721e+000
 8.116613634021710e-002	 4.574279949708876e+000	 8.904333952495666e+000
 4.051103516936858e-002	 4.574820636487162e+000	 8.891338831548572e+000
 0.000000000000000e+000	 4.574999999999999e+000	 8.877198230051249e+000
 4.133304143561772e-001	 4.581392579604075e+000	 9.057339369651887e+000
 3.714499992099677e-001	 4.584978178573502e+000	 9.038535581892399e+000
 3.296789321486217e-001	 4.588170855758004e+000	 9.021969435677377e+000
 2.880219917697396e-001	 4.590974115828240e+000	 9.007382534776610e+000
 2.464838603130108e-001	 4.593391525503579e+000	 8.994454642518820e+000
 2.050691231061205e-001	 4.595426710842369e+000	 8.982805936410612e+000
 1.637822680894234e-001	 4.597083354546010e+000	 8.971999319877670e+000
 1.226276854179574e-001	 4.598365193279084e+000	 8.961542784186378e+000
 8.160966713933031e-002	 4.599276015007772e+000	 8.950891813717835e+000
 4.073240694594931e-002	 4.599819656358660e+000	 8.939451827896150e+000
 0.000000000000000e+000	 4.600000000000000e+000	 8.926580653217021e+000
 4.155767753022150e-001	 4.606291452318299e+000	 9.081346548272681e+000
 3.734687492041253e-001	 4.609896538238842e+000	 9.065893278677477e+000
 3.314706654740040e-001	 4.613106566929956e+000	 9.052491029660738e+000
 2.895873286800905e-001	 4.615925062109422e+000	 9.040873667370846e+000
 2.478234465090286e-001	 4.618355609880955e+000	 9.030712634626404e+000
 2.061836292087624e-001	 4.620401856009741e+000	 9.021619233549279e+000
 1.646723891106261e-001	 4.622067503211863e+000	 9.013146965988151e+000
 1.232941402291957e-001	 4.623356308459859e+000	 9.004793924698715e+000
 8.205319793842432e-002	 4.624272080306686e+000	 8.996005228363170e+000
 4.095377872252528e-002	 4.624818676230165e+000	 8.986175493661815e+000
 0.000000000000000e+000	 4.624999999999999e+000	 8.974651337757125e+000
 4.178231362477610e-001	 4.631190325033014e+000	 9.104298848131251e+000
 3.754874991978857e-001	 4.634814897904579e+000	 9.092066012575510e+000
 3.332623987990737e-001	 4.638042278102219e+000	 9.081721660961332e+000
 2.911526655902029e-001	 4.640876008390843e+000	 9.072991789971010e+000
 2.491630327048718e-001	 4.643319694258506e+000	 9.065539367630834e+000
 2.072981353112834e-001	 4.645377001177234e+000	 9.058966644637266e+000
 1.655625101317517e-001	 4.647051651877790e+000	 9.052817524157305e+000
 1.239605950403908e-001	 4.648347423640677e+000	 9.046579982976001e+000
 8.249672873749922e-002	 4.649268145605621e+000	 9.039688536981469e+000
 4.117515049909649e-002	 4.649817696101675e+000	 9.031526744111039e+000
 0.000000000000000e+000	 4.650000000000000e+000	 9.021429738030436e+000
 4.200694971928152e-001	 4.656089197748221e+000	 9.126188971845776e+000
 3.775062491912493e-001	 4.659733257570714e+000	 9.117049252089720e+000
 3.350541321238309e-001	 4.662977989274798e+000	 9.109659535815847e+000
 2.927180025000769e-001	 4.665826954672504e+000	 9.103737817990741e+000
 2.505026189005404e-001	 4.668283778636232e+000	 9.098938437121825e+000
 2.084126414136835e-001	 4.670352146344848e+000	 9.094854415957386e+000
 1.664526311528003e-001	 4.672035800543796e+000	 9.091019861360229e+000
 1.246270498515428e-001	 4.673338538821540e+000	 9.086912416132545e+000
 8.294025953655498e-002	 4.674264210904576e+000	 9.081955755689101e+000
 4.139652227566294e-002	 4.674816715973188e+000	 9.075522122610630e+000
 0.000000000000000e+000	 4.675000000000000e+000	 9.066934892259809e+000
 4.223158581373777e-001	 4.680988070463921e+000	 9.147009790673499e+000
 3.795249991842159e-001	 4.684651617237246e+000	 9.140838562543271e+000
 3.368458654482753e-001	 4.687913700447686e+000	 9.136302888695878e+000
 2.942833394097122e-001	 4.690777900954401e+000	 9.133112629721818e+000
 2.518422050960344e-001	 4.693247863014131e+000	 9.130913339431087e+000
 2.095271475159629e-001	 4.695327291512582e+000	 9.129288635609758e+000
 1.673427521737718e-001	 4.697019949209878e+000	 9.127762630664991e+000
 1.252935046626515e-001	 4.698329654002444e+000	 9.125802414839592e+000
 8.338379033559164e-002	 4.699260276203551e+000	 9.122820584797609e+000
 4.161789405222462e-002	 4.699815735844708e+000	 9.118177810519674e+000
 0.000000000000000e+000	 4.699999999999999e+000	 9.111185433599511e+000
 4.245622190814485e-001	 4.705886943180112e+000	 9.166754340049383e+000
 3.815437491767854e-001	 4.709569976904174e+000	 9.163429603517963e+000
 3.386375987724072e-001	 4.712849411620889e+000	 9.161649981561135e+000
 2.958486763191092e-001	 4.715728847236538e+000	 9.161117067316326e+000
 2.531817912913537e-001	 4.718211947392206e+000	 9.161467474258272e+000
 2.106416536181213e-001	 4.720302436680438e+000	 9.162275237696436e+000
 1.682328731946662e-001	 4.722004097876039e+000	 9.163054276891600e+000
 1.259599594737171e-001	 4.723320769183392e+000	 9.163260910374087e+000
 8.382732113460913e-002	 4.724256341502541e+000	 9.162296417168218e+000
 4.183926582878153e-002	 4.724814755716230e+000	 9.159509636766357e+000
 0.000000000000000e+000	 4.725000000000000e+000	 9.154199600851381e+000
 4.268085800250276e-001	 4.730785815896795e+000	 9.185415815265721e+000
 3.835624991689582e-001	 4.734488336571500e+000	 9.184818126373715e+000
 3.404293320962267e-001	 4.737785122794405e+000	 9.185699103135940e+000
 2.974140132282676e-001	 4.740679793518913e+000	 9.187751937737627e+000
 2.545213774864985e-001	 4.743176031770457e+000	 9.190604147213847e+000
 2.117561597201589e-001	 4.745277581848414e+000	 9.193820006373992e+000
 1.691229942154836e-001	 4.746988246542276e+000	 9.196903042092139e+000
 1.266264142847394e-001	 4.748311884364385e+000	 9.199298581444882e+000
 8.427085193360755e-002	 4.749252406801554e+000	 9.200396346302886e+000
 4.206063760533369e-002	 4.749813775587760e+000	 9.199533087122642e+000
 0.000000000000000e+000	 4.750000000000000e+000	 9.195995248842433e+000
 4.750000000000000e+000	 0.000000000000000e+000	 1.034282774387688e+001
 4.749813775587761e+000	 4.206063760533384e-002	 1.033725909835409e+001
 4.749252406801552e+000	 8.427085193360784e-002	 1.033520891344943e+001
 4.748311884364385e+000	 1.266264142847391e-001	 1.033651621562348e+001
 4.746988246542277e+000	 1.691229942154834e-001	 1.034102375762318e+001
 4.745277581848414e+000	 2.117561597201589e-001	 1.034857924320896e+001
 4.743176031770457e+000	 2.545213774864986e-001	 1.035903659708492e+001
 4.740679793518913e+000	 2.974140132282679e-001	 1.037225727862026e+001
 4.737785122794405e+000	 3.404293320962264e-001	 1.038811163776045e+001
 4.734488336571500e+000	 3.835624991689580e-001	 1.040648031133371e+001
 4.730785815896796e+000	 4.268085800250276e-001	 1.042725565776111e+001
 4.775000000000001e+000	 0.000000000000000e+000	 1.036197916121940e+001
 4.774812795459289e+000	 4.228200938188836e-002	 1.035422262636797e+001
 4.774248472100565e+000	 8.471438273261578e-002	 1.034984552757964e+001
 4.773302999545376e+000	 1.272928690957831e-001	 1.034867211304375e+001
 4.771972395208514e+000	 1.700131152363393e-001	 1.035053021267320e+001
 4.770252727016390e+000	 2.128706658222569e-001	 1.035525248778333e+001
 4.768140116148707e+000	 2.558609636817307e-001	 1.036267772708006e+001
 4.765630739801289e+000	 2.989793501375455e-001	 1.037265218752712e+001
 4.762720833967920e+000	 3.422210654202020e-001	 1.038503097846852e+001
 4.759406696238825e+000	 3.855812491613292e-001	 1.039967948718572e+001
 4.755684688613478e+000	 4.290549409688527e-001	 1.041647484386864e+001
 4.800000000000001e+000	 0.000000000000000e+000	 1.037871509244085e+001
 4.799811815330812e+000	 4.250338115845243e-002	 1.036905491871788e+001
 4.799244537399557e+000	 8.515791353166197e-002	 1.036263388672369e+001
 4.798294114726322e+000	 1.279593239069134e-001	 1.035926116736260e+001
 4.796956543874674e+000	 1.709032362573494e-001	 1.035874936478739e+001
 4.795227872184246e+000	 2.139851719245966e-001	 1.036091579136051e+001
 4.793104200526780e+000	 2.572005498773120e-001	 1.036558379004625e+001
 4.790581686083425e+000	 3.005446870473001e-001	 1.037258410278588e+001
 4.787656545141124e+000	 3.440127987448029e-001	 1.038175628320877e+001
 4.784325055905753e+000	 3.875999991544943e-001	 1.039295015183304e+001
 4.780583561329669e+000	 4.313013019136611e-001	 1.040602729170459e+001
 4.825000000000000e+000	 0.000000000000000e+000	 1.039311375867739e+001
 4.824810835202331e+000	 4.272475293502601e-002	 1.038183823685874e+001
 4.824240602698530e+000	 8.560144433074646e-002	 1.037366030329141e+001
 4.823285229907229e+000	 1.286257787181301e-001	 1.036837375023499e+001
 4.821940692540756e+000	 1.717933572785135e-001	 1.036577565076783e+001
 4.820203017351980e+000	 2.150996780271781e-001	 1.036566765936231e+001
 4.818068284904680e+000	 2.585401360732425e-001	 1.036785736102998e+001
 4.815532632365324e+000	 3.021100239575318e-001	 1.037215966756827e+001
 4.812592256314012e+000	 3.458045320700288e-001	 1.037839825924005e+001
 4.809243415572285e+000	 3.896187491484532e-001	 1.038640707001258e+001
 4.805482434045368e+000	 4.335476628594529e-001	 1.039603181427468e+001
 4.850000000000000e+000	 0.000000000000000e+000	 1.040525176825827e+001
 4.849809855073845e+000	 4.294612471160915e-002	 1.039265322726680e+001
 4.849236667997485e+000	 8.604497512986921e-002	 1.038300947238838e+001
 4.848276345088090e+000	 1.292922335294333e-001	 1.037609861353159e+001
 4.846924841206762e+000	 1.726834782998319e-001	 1.037170188499660e+001
 4.845178162519593e+000	 2.162141841300012e-001	 1.036960497199909e+001
 4.843032369282406e+000	 2.598797222695223e-001	 1.036959938691819e+001
 4.840483578646983e+000	 3.036753608682405e-001	 1.037148389378131e+001
 4.837527967486590e+000	 3.475962653958800e-001	 1.037506597929372e+001
 4.834161775238419e+000	 3.916374991432062e-001	 1.038016336851329e+001
 4.830381306760575e+000	 4.357940238062281e-001	 1.038660558305794e+001
 4.875000000000000e+000	 0.000000000000000e+000	 1.041520415805982e+001
 4.874808874945352e+000	 4.316749648820179e-002	 1.040157896284938e+001
 4.874232733296419e+000	 8.648850592903019e-002	 1.039076451328534e+001
 4.873267460268909e+000	 1.299586883408228e-001	 1.038252293087156e+001
 4.871908989872691e+000	 1.735735993213043e-001	 1.037661930103646e+001
 4.870153307687087e+000	 2.173286902330660e-001	 1.037282302594186e+001
 4.867996453659956e+000	 2.612193084661514e-001	 1.037090922818600e+001
 4.865434524928405e+000	 3.052406977794263e-001	 1.037066020389456e+001
 4.862463678658855e+000	 3.493879987223564e-001	 1.037186692348472e+001
 4.859080134904157e+000	 3.936562491387530e-001	 1.037433057817483e+001
 4.855280179475290e+000	 4.380403847539867e-001	 1.037786417009719e+001
 4.900000000000000e+000	 0.000000000000000e+000	 1.042304443359357e+001
 4.899807894816859e+000	 4.338886826480400e-002	 1.040869298308684e+001
 4.899228798595335e+000	 8.693203672822945e-002	 1.039700700961801e+001
 4.898258575449684e+000	 1.306251431522988e-001	 1.038773233788409e+001
 4.896893138538543e+000	 1.744637203429310e-001	 1.038061759195776e+001
 4.895128452854458e+000	 2.184431963363725e-001	 1.037541557471874e+001
 4.892960538037332e+000	 2.625588946631297e-001	 1.037188469936632e+001
 4.890385471209588e+000	 3.068060346910890e-001	 1.036979047148709e+001
 4.887399389830808e+000	 3.511797320494579e-001	 1.036890701993948e+001
 4.883998494569497e+000	 3.956749991350937e-001	 1.036901867460051e+001
 4.880179052189514e+000	 4.402867457027287e-001	 1.036992158880097e+001
 4.925000000000000e+000	 0.000000000000000e+000	 1.042884460787334e+001
 4.924806914688357e+000	 4.361024004141571e-002	 1.041407133295219e+001
 4.924224863894231e+000	 8.737556752746696e-002	 1.040181704836257e+001
 4.923249690630416e+000	 1.312915979638611e-001	 1.039181097124374e+001
 4.921877287204318e+000	 1.753538413647117e-001	 1.038378494943726e+001
 4.920103598021710e+000	 2.195577024399207e-001	 1.037747486788093e+001
 4.917924622414534e+000	 2.638984808604573e-001	 1.037262210828703e+001
 4.915336417490530e+000	 3.083713716032288e-001	 1.036897506055934e+001
 4.912335101002447e+000	 3.529714653771846e-001	 1.036629068418651e+001
 4.908916854234440e+000	 3.976937491322283e-001	 1.036433611763035e+001
 4.905077924903247e+000	 4.425331066524542e-001	 1.036289033350275e+001
 4.949999999999999e+000	 0.000000000000000e+000	 1.043267523910462e+001
 4.949805934559854e+000	 4.383161181803696e-002	 1.041778860065102e+001
 4.949220929193109e+000	 8.781909832674277e-002	 1.040527325763013e+001
 4.948240805811104e+000	 1.319580527755098e-001	 1.039484150652277e+001
 4.946861435870015e+000	 1.762439623866466e-001	 1.038620810167213e+001
 4.945078743188839e+000	 2.206722085437106e-001	 1.037909168898200e+001
 4.942888706791562e+000	 2.652380670581341e-001	 1.037321629411910e+001
 4.940287363771237e+000	 3.099367085158457e-001	 1.036831286365380e+001
 4.937270812173773e+000	 3.547631987055365e-001	 1.036412085735333e+001
 4.933835213898987e+000	 3.997124991301568e-001	 1.036038988961787e+001
 4.929976797616488e+000	 4.447794676031630e-001	 1.035688141782151e+001
 4.975000000000000e+000	 0.000000000000000e+000	 1.043460546723748e+001
 4.974804954431343e+000	 4.405298359466774e-002	 1.041991795422385e+001
 4.974216994491966e+000	 8.826262912605680e-002	 1.040745284332165e+001
 4.973231920991751e+000	 1.326245075872450e-001	 1.039690519490227e+001
 4.971845584535635e+000	 1.771340834087357e-001	 1.038797235015072e+001
 4.970053888355849e+000	 2.217867146477423e-001	 1.038035539241196e+001
 4.967852791168413e+000	 2.665776532561602e-001	 1.037376066427741e+001
 4.965238310051703e+000	 3.115020454289394e-001	 1.036790133882635e+001
 4.962206523344788e+000	 3.565549320345135e-001	 1.036249904321170e+001
 4.958753573563137e+000	 4.017312491288793e-001	 1.035728553255291e+001
 4.954875670329236e+000	 4.470258285548553e-001	 1.035200441186548e+001
 5.000000000000000e+000	 0.000000000000000e+000	 1.043470304942300e+001
 4.999803974302830e+000	 4.427435537130806e-002	 1.042053117705010e+001
 4.999213059790807e+000	 8.870615992540913e-002	 1.040843162468315e+001
 4.998223036172354e+000	 1.332909623990665e-001	 1.039808189878195e+001
 4.996829733201179e+000	 1.780242044309789e-001	 1.038916160532041e+001
 4.995029033522738e+000	 2.229012207520156e-001	 1.038135393912636e+001
 4.992816875545091e+000	 2.679172394545357e-001	 1.037434723021477e+001
 4.990189256331933e+000	 3.130673823425104e-001	 1.036783654550837e+001
 4.987142234515491e+000	 3.583466653641159e-001	 1.036152534411149e+001
 4.983671933226891e+000	 4.037499991283957e-001	 1.035512718407072e+001
 4.979774543041494e+000	 4.492721895075311e-001	 1.034836747832000e+001
 4.730785815896796e+000	 4.268085800250276e-001	 1.042725565776111e+001
 4.726674008699353e+000	 4.701625413987225e-001	 1.042926247170590e+001
 4.722149432609216e+000	 5.136192519181058e-001	 1.043379419364158e+001
 4.717208677782531e+000	 5.571734829283322e-001	 1.044085357861895e+001
 4.711848409731801e+000	 6.008199094031381e-001	 1.045046213775347e+001
 4.706065372156695e+000	 6.445531109429850e-001	 1.045640667071654e+001
 4.699856389773195e+000	 6.883675728617011e-001	 1.045483751284682e+001
 4.693218371138125e+000	 7.322576873625162e-001	 1.045213164577466e+001
 4.686148311466118e+000	 7.762177548042752e-001	 1.044770788239737e+001
 4.678643295435926e+000	 8.202419850585251e-001	 1.044095058073488e+001
 4.670700499982989e+000	 8.643244989580522e-001	 1.043120670986927e+001
 4.755684688613478e+000	 4.290549409688527e-001	 1.041647484386864e+001
 4.751551240325787e+000	 4.726370810862668e-001	 1.041552921300792e+001
 4.747002850677490e+000	 5.163225111344948e-001	 1.041675429116046e+001
 4.742036091878186e+000	 5.601059749394566e-001	 1.042014637053825e+001
 4.736647611890442e+000	 6.039821194484362e-001	 1.042572087208978e+001
 4.730834137275503e+000	 6.479454957334772e-001	 1.043038019851791e+001
 4.724592476037334e+000	 6.919905600837464e-001	 1.043223009050601e+001
 4.717919520462004e+000	 7.361116751877541e-001	 1.043302236223208e+001
 4.710812249949480e+000	 7.803031114062359e-001	 1.043220980555203e+001
 4.703267733834722e+000	 8.245590481363794e-001	 1.042921070001608e+001
 4.695283134194934e+000	 8.688735752679868e-001	 1.042340579728368e+001
 4.780583561329669e+000	 4.313013019136611e-001	 1.040602729170459e+001
 4.776428471951631e+000	 4.751116207749754e-001	 1.040256888905082e+001
 4.771856268745071e+000	 5.190257703521903e-001	 1.040092394692990e+001
 4.766863505973048e+000	 5.630384669519912e-001	 1.040108191344105e+001
 4.761446814048191e+000	 6.071443294952085e-001	 1.040305173653293e+001
 4.755602902393323e+000	 6.513378805254688e-001	 1.040755330434103e+001
 4.749328562300383e+000	 6.956135473072753e-001	 1.041245768002873e+001
 4.742620669784687e+000	 7.399656630144201e-001	 1.041638964702025e+001
 4.735476188431549e+000	 7.843884680095280e-001	 1.041883665768541e+001
 4.727892172232125e+000	 8.288761112154274e-001	 1.041925159503711e+001
 4.719865768405383e+000	 8.734226515789357e-001	 1.041704967449255e+001
 4.805482434045368e+000	 4.335476628594529e-001	 1.039603181427468e+001
 4.801305703576881e+000	 4.775861604648483e-001	 1.039050152069066e+001
 4.796709686811962e+000	 5.217290295711926e-001	 1.038642435428349e+001
 4.791690920067119e+000	 5.659709589659360e-001	 1.038378253602242e+001
 4.786246016205046e+000	 6.103065395434554e-001	 1.038257815628680e+001
 4.780371667510148e+000	 6.547302653189593e-001	 1.038784120677491e+001
 4.774064648562337e+000	 6.992365345322879e-001	 1.039542288912613e+001
 4.767321819106181e+000	 7.438196508425139e-001	 1.040212354738512e+001
 4.760140126912325e+000	 7.884738246141514e-001	 1.040746598409899e+001
 4.752516610628136e+000	 8.331931742956691e-001	 1.041093837583733e+001
 4.744448402614344e+000	 8.779717278908998e-001	 1.041199109116207e+001
 4.830381306760575e+000	 4.357940238062281e-001	 1.038660558305794e+001
 4.826182935201540e+000	 4.800607001558854e-001	 1.037944554184106e+001
 4.821563104878160e+000	 5.244322887915016e-001	 1.037337517446884e+001
 4.816518334160396e+000	 5.689034509812907e-001	 1.036836909000098e+001
 4.811045218361012e+000	 6.134687495931764e-001	 1.036442213492168e+001
 4.805140432625982e+000	 6.581226501139490e-001	 1.037115775833092e+001
 4.798800734823201e+000	 7.028595217587843e-001	 1.038102701518084e+001
 4.792022968426482e+000	 7.476736386720355e-001	 1.039011285616521e+001
 4.784804065391810e+000	 7.925591812201062e-001	 1.039797413175862e+001
 4.777141049022752e+000	 8.375102373771044e-001	 1.040413501032138e+001
 4.769031036821811e+000	 8.825208042038785e-001	 1.040808171113160e+001
 4.855280179475290e+000	 4.380403847539867e-001	 1.037786417009719e+001
 4.851060166825605e+000	 4.825352398480867e-001	 1.036951784016409e+001
 4.846416522943666e+000	 5.271355480131171e-001	 1.036189457593187e+001
 4.841345748252882e+000	 5.718359429980557e-001	 1.035496098799003e+001
 4.835844420516085e+000	 6.166309596443722e-001	 1.034870429082638e+001
 4.829909197740824e+000	 6.615150349104378e-001	 1.035741548047048e+001
 4.823536821082973e+000	 7.064825089867645e-001	 1.036917007884519e+001
 4.816724117745589e+000	 7.515276265029854e-001	 1.038024514395597e+001
 4.809468003870002e+000	 7.966445378273926e-001	 1.039023628002112e+001
 4.801765487415977e+000	 8.418273004597336e-001	 1.039870435354458e+001
 4.793613671027784e+000	 8.870698805178717e-001	 1.040517214025528e+001
 4.880179052189514e+000	 4.402867457027287e-001	 1.036992158880097e+001
 4.875937398449081e+000	 4.850097795414525e-001	 1.036083379651543e+001
 4.871269941008482e+000	 5.298388072360395e-001	 1.035209927239846e+001
 4.866173162344577e+000	 5.747684350162309e-001	 1.034367624020945e+001
 4.860643622670264e+000	 6.197931696970424e-001	 1.033554389254450e+001
 4.854677962854673e+000	 6.649074197084256e-001	 1.034652559756046e+001
 4.848272907341651e+000	 7.101054962162283e-001	 1.035975085661082e+001
 4.841425267063504e+000	 7.553816143353630e-001	 1.037240679028937e+001
 4.834131942346900e+000	 8.007298944360103e-001	 1.038412647042018e+001
 4.826389925807810e+000	 8.461443635435569e-001	 1.039450817610211e+001
 4.818196305232266e+000	 8.916189568328796e-001	 1.040311195339145e+001
 4.905077924903247e+000	 4.425331066524542e-001	 1.036289033350275e+001
 4.900814630071965e+000	 4.874843192359823e-001	 1.035350732318821e+001
 4.896123359072603e+000	 5.325420664602684e-001	 1.034410455979634e+001
 4.891000576435481e+000	 5.777009270358166e-001	 1.033463149007944e+001
 4.885442824823554e+000	 6.229553797511870e-001	 1.032505889303444e+001
 4.879446727967530e+000	 6.682998045079126e-001	 1.033839806979430e+001
 4.873008993599238e+000	 7.137284834471758e-001	 1.035266691238637e+001
 4.866126416380227e+000	 7.592356021691689e-001	 1.036648301386396e+001
 4.858795880822505e+000	 8.048152510459594e-001	 1.037951763554515e+001
 4.851014364198249e+000	 8.504614266285735e-001	 1.039140719165320e+001
 4.842778939435253e+000	 8.961680331489021e-001	 1.040174972057014e+001
 4.929976797616488e+000	 4.447794676031630e-001	 1.035688141782151e+001
 4.925691861694258e+000	 4.899588589316765e-001	 1.034765090099788e+001
 4.920976777136034e+000	 5.352453256858037e-001	 1.033802435205800e+001
 4.915827990525591e+000	 5.806334190568120e-001	 1.032794204873570e+001
 4.910242026975950e+000	 6.261175898068060e-001	 1.031799736340938e+001
 4.904215493079395e+000	 6.716921893088987e-001	 1.033294162511558e+001
 4.897745079855732e+000	 7.173514706796073e-001	 1.034781462811828e+001
 4.890827565695758e+000	 7.630895900044026e-001	 1.036235790185887e+001
 4.883459819296819e+000	 8.089006076572398e-001	 1.037628162704468e+001
 4.875638802587297e+000	 8.547784897147842e-001	 1.038926108361155e+001
 4.867361573636751e+000	 9.007171094659396e-001	 1.040093303236740e+001
 4.954875670329236e+000	 4.470258285548553e-001	 1.035200441186548e+001
 4.950569093315958e+000	 4.924333986285350e-001	 1.034337561524903e+001
 4.945830195198775e+000	 5.379485849126460e-001	 1.033397121584419e+001
 4.940655404614911e+000	 5.835659110792179e-001	 1.032372192850381e+001
 4.935041229127454e+000	 6.292797998638995e-001	 1.031505695721688e+001
 4.928984258190267e+000	 6.750845741113840e-001	 1.033006379017912e+001
 4.922481166111133e+000	 7.209744579135221e-001	 1.034508923348831e+001
 4.915528715010096e+000	 7.669435778410640e-001	 1.035991443836394e+001
 4.908123757769840e+000	 8.129859642698519e-001	 1.037428924278600e+001
 4.900263240974951e+000	 8.590955528021886e-001	 1.038792853103086e+001
 4.891944207836753e+000	 9.052661857839915e-001	 1.040050852451485e+001
 4.979774543041494e+000	 4.492721895075311e-001	 1.034836747832000e+001
 4.975446324937067e+000	 4.949079383265578e-001	 1.034079119062311e+001
 4.970683613260823e+000	 5.406518441407948e-001	 1.033205640422581e+001
 4.965482818703437e+000	 5.864984031030339e-001	 1.032208387536964e+001
 4.959840431278067e+000	 6.324420099224676e-001	 1.031507127205719e+001
 4.953753023300148e+000	 6.784769589153683e-001	 1.032967092038313e+001
 4.947217252365444e+000	 7.245974451489210e-001	 1.034438483472016e+001
 4.940229864323243e+000	 7.707975656791538e-001	 1.035903453195691e+001
 4.932787696241570e+000	 8.170713208837953e-001	 1.037341025319952e+001
 4.924887679361214e+000	 8.634126158907869e-001	 1.038726723371382e+001
 4.916526842035265e+000	 9.098152621030583e-001	 1.040032190177063e+001
 4.670700499982989e+000	 8.643244989580522e-001	 1.043120670986927e+001
 4.662317197074184e+000	 9.084593298371435e-001	 1.046472302568148e+001
 4.653490756464190e+000	 9.526404251647136e-001	 1.049293214343829e+001
 4.644218648428491e+000	 9.968616482696640e-001	 1.051469865208458e+001
 4.634498446467842e+000	 1.041116780158473e+000	 1.052883269260939e+001
 4.624327829983526e+000	 1.085399521425691e+000	 1.053408715466610e+001
 4.613704586919089e+000	 1.129703494256913e+000	 1.052915488559626e+001
 4.602626616365184e+000	 1.174022244523953e+000	 1.051266592133187e+001
 4.591091931124016e+000	 1.218349243971801e+000	 1.048318474896971e+001
 4.579098660229949e+000	 1.262677892496843e+000	 1.046972191068179e+001
 4.566645051422785e+000	 1.307001520515620e+000	 1.052490587207887e+001
 4.695283134194934e+000	 8.688735752679868e-001	 1.042340579728368e+001
 4.686855708638989e+000	 9.132406947316664e-001	 1.045478569422985e+001
 4.677982813078237e+000	 9.576543221407282e-001	 1.048124490390318e+001
 4.668661904473816e+000	 1.002108288525803e+000	 1.050170080706380e+001
 4.658890543555444e+000	 1.046596342161823e+000	 1.051501604951858e+001
 4.648666397510717e+000	 1.091112150488570e+000	 1.051999563291823e+001
 4.637987242640787e+000	 1.135649302124196e+000	 1.051538401622629e+001
 4.626850966978887e+000	 1.180201308971414e+000	 1.049986223753975e+001
 4.615255572868284e+000	 1.224761608415978e+000	 1.047204506627052e+001
 4.603199179496159e+000	 1.269323565616884e+000	 1.047278906730725e+001
 4.590680025379892e+000	 1.313880475887600e+000	 1.052265590490921e+001
 4.719865768405383e+000	 8.734226515789357e-001	 1.041704967449255e+001
 4.711394220202210e+000	 9.180220596270136e-001	 1.044634213168014e+001
 4.702474869690624e+000	 9.626682191173959e-001	 1.047110944357685e+001
 4.693105160517438e+000	 1.007354928782444e+000	 1.049032229299559e+001
 4.683282640641308e+000	 1.052075904165542e+000	 1.050289633349773e+001
 4.673004965036161e+000	 1.096824779551707e+000	 1.050768917322343e+001
 4.662269898360744e+000	 1.141595109991644e+000	 1.050349736764858e+001
 4.651075317590875e+000	 1.186380373418968e+000	 1.048905343115520e+001
 4.639419214610887e+000	 1.231173972860196e+000	 1.046302287764237e+001
 4.627299698760771e+000	 1.275969238736935e+000	 1.047550372391484e+001
 4.614714999335491e+000	 1.320759431259581e+000	 1.052048914943707e+001
 4.744448402614344e+000	 8.779717278908998e-001	 1.041199109116207e+001
 4.735932731763849e+000	 9.228034245231848e-001	 1.043922696405558e+001
 4.726966926301361e+000	 9.676821160947169e-001	 1.046234236388092e+001
 4.717548416559353e+000	 1.012601569039586e+000	 1.048036179654051e+001
 4.707674737725433e+000	 1.057555466169631e+000	 1.049225443712106e+001
 4.697343532559855e+000	 1.102537408615102e+000	 1.049693100560223e+001
 4.686552554078959e+000	 1.147540917859256e+000	 1.049324064973243e+001
 4.675299668201152e+000	 1.192559437866616e+000	 1.047996784516836e+001
 4.663582856351827e+000	 1.237586337304456e+000	 1.045582932332567e+001
 4.651400218023791e+000	 1.282614911856996e+000	 1.047777731015327e+001
 4.638749973289582e+000	 1.327638386631561e+000	 1.051830618437535e+001
 4.769031036821811e+000	 8.825208042038785e-001	 1.040808171113160e+001
 4.760471243323902e+000	 9.275847894201803e-001	 1.043327390848931e+001
 4.751458982910444e+000	 9.726960130726908e-001	 1.045475953418801e+001
 4.741991672599561e+000	 1.017848209297229e+000	 1.047161744898049e+001
 4.732066834807823e+000	 1.063035028174090e+000	 1.048287087400807e+001
 4.721682100081798e+000	 1.108250037678753e+000	 1.048748415722119e+001
 4.710835209795434e+000	 1.153486725727034e+000	 1.048435954519321e+001
 4.699524018809713e+000	 1.198738502314355e+000	 1.047233397063664e+001
 4.687746498091099e+000	 1.243998701748758e+000	 1.045017586629139e+001
 4.675500737285211e+000	 1.289260584977068e+000	 1.047952175242770e+001
 4.662784947242169e+000	 1.334517342003541e+000	 1.051600825850180e+001
 4.793613671027784e+000	 8.870698805178717e-001	 1.040517214025528e+001
 4.785009754882376e+000	 9.323661543180003e-001	 1.042831579652923e+001
 4.775951039517873e+000	 9.777099100513179e-001	 1.044817611059220e+001
 4.766434928638065e+000	 1.023094849555374e+000	 1.046388684045929e+001
 4.756458931888474e+000	 1.068514590178917e+000	 1.047452578854032e+001
 4.746020667601993e+000	 1.113962666742662e+000	 1.047911145759422e+001
 4.735117865510166e+000	 1.159432533594977e+000	 1.047659971028859e+001
 4.723748369416560e+000	 1.204917566762189e+000	 1.046588044288804e+001
 4.711910139828708e+000	 1.250411066193100e+000	 1.044631793537743e+001
 4.699601256545038e+000	 1.295906258097151e+000	 1.048064946116244e+001
 4.686819921193249e+000	 1.341396297375522e+000	 1.051349727347789e+001
 4.818196305232266e+000	 8.916189568328796e-001	 1.040311195339145e+001
 4.809548266439266e+000	 9.371475192166445e-001	 1.042418459672951e+001
 4.800443096123647e+000	 9.827238070305986e-001	 1.044240655410494e+001
 4.790878184674864e+000	 1.028341489814021e+000	 1.045696703378713e+001
 4.780851028967387e+000	 1.073994152184114e+000	 1.046699896528080e+001
 4.770359235120436e+000	 1.119675295806828e+000	 1.047157554362482e+001
 4.759400521223157e+000	 1.165378341463086e+000	 1.046970677549355e+001
 4.747972720021696e+000	 1.211096631210116e+000	 1.046033603784088e+001
 4.736073781564651e+000	 1.256823430637485e+000	 1.045029812332591e+001
 4.723701775803269e+000	 1.302551931217243e+000	 1.048107331845349e+001
 4.710854895142822e+000	 1.348275252747503e+000	 1.051067576719358e+001
 4.842778939435253e+000	 8.961680331489021e-001	 1.040174972057014e+001
 4.834086777994573e+000	 9.419288841161130e-001	 1.042071143655398e+001
 4.824935152727766e+000	 9.877377040105320e-001	 1.043726464829671e+001
 4.815321440709956e+000	 1.033588130073170e+000	 1.045065457782471e+001
 4.805243126044563e+000	 1.079473714189681e+000	 1.046006983810631e+001
 4.794697802637132e+000	 1.125387924871252e+000	 1.046463886449460e+001
 4.783683176934406e+000	 1.171324149331358e+000	 1.046342634615467e+001
 4.772197070625118e+000	 1.217275695658136e+000	 1.045542966843546e+001
 4.760237423298931e+000	 1.263235795081910e+000	 1.045310241031323e+001
 4.747802295059902e+000	 1.309197604337347e+000	 1.048070666609718e+001
 4.734889869090889e+000	 1.355154208119483e+000	 1.050744689761939e+001
 4.867361573636751e+000	 9.007171094659396e-001	 1.040093303236740e+001
 4.858625289548295e+000	 9.467102490164057e-001	 1.041772662361570e+001
 4.849427209330234e+000	 9.927516009911185e-001	 1.043256351640413e+001
 4.839764696743343e+000	 1.038834770332819e+000	 1.044474552046175e+001
 4.829635223120001e+000	 1.084953276195618e+000	 1.045351749906329e+001
 4.819036370152078e+000	 1.131100553935933e+000	 1.045806368640376e+001
 4.807965832643914e+000	 1.177269957199797e+000	 1.045750400312477e+001
 4.796421421226826e+000	 1.223454760106248e+000	 1.045089038117391e+001
 4.784401065031545e+000	 1.269648159526378e+000	 1.045465464605502e+001
 4.771902814314941e+000	 1.315843277457460e+000	 1.047946329398157e+001
 4.758924843037452e+000	 1.362033163491464e+000	 1.050371442714783e+001
 4.891944207836753e+000	 9.052661857839915e-001	 1.040050852451485e+001
 4.883163801100436e+000	 9.514916139175227e-001	 1.041505966627636e+001
 4.873919265931045e+000	 9.977654979723585e-001	 1.042811563792125e+001
 4.864207952775024e+000	 1.044081410592970e+000	 1.043903542120422e+001
 4.854027320193703e+000	 1.090432838201923e+000	 1.044712070695639e+001
 4.843374937665274e+000	 1.136813183000871e+000	 1.045161209716865e+001
 4.832248488351680e+000	 1.183215765068400e+000	 1.045168530337828e+001
 4.820645771826822e+000	 1.229633824554455e+000	 1.044644735276438e+001
 4.808564706762494e+000	 1.276060523970886e+000	 1.045487896406678e+001
 4.796003333568383e+000	 1.322488950577584e+000	 1.047725742882792e+001
 4.782959816982506e+000	 1.368912118863444e+000	 1.049938270740689e+001
 4.916526842035265e+000	 9.098152621030583e-001	 1.040032190177063e+001
 4.907702312650993e+000	 9.562729788194643e-001	 1.041253929362749e+001
 4.898411322530204e+000	 1.002779394954252e+000	 1.042373286469317e+001
 4.888651208805000e+000	 1.049328050853623e+000	 1.043331936338393e+001
 4.878419417265667e+000	 1.095912400208599e+000	 1.044065789567961e+001
 4.867713505176722e+000	 1.142525812066066e+000	 1.044504601068130e+001
 4.856531144057706e+000	 1.189161572937169e+000	 1.044571578060823e+001
 4.844870122425104e+000	 1.235812889002754e+000	 1.044182988686589e+001
 4.832728348491778e+000	 1.282472888415437e+000	 1.045369977456877e+001
 4.820103852820230e+000	 1.329134623697718e+000	 1.047400372326978e+001
 4.806994790926056e+000	 1.375791074235425e+000	 1.049435666452918e+001
 4.566645051422785e+000	 1.307001520515620e+000	 1.052490587207887e+001
 4.553729473570638e+000	 1.351313391422532e+000	 1.057043732618294e+001
 4.540350419037734e+000	 1.395606704137587e+000	 1.060953320727315e+001
 4.526506505994300e+000	 1.439874595742233e+000	 1.064184994990880e+001
 4.512196480665969e+000	 1.484110144199970e+000	 1.066704732928174e+001
 4.497419219518086e+000	 1.528306371162558e+000	 1.068478799187046e+001
 4.482173731371831e+000	 1.572456244859625e+000	 1.069473696156403e+001
 4.466459159448741e+000	 1.616552683069939e+000	 1.069656112278539e+001
 4.450274783340313e+000	 1.660588556172508e+000	 1.068992868227258e+001
 4.433620020899308e+000	 1.704556690275469e+000	 1.067450861130162e+001
 4.416494430049541e+000	 1.748449870420633e+000	 1.064997007025740e+001
 4.590680025379892e+000	 1.313880475887600e+000	 1.052265590490921e+001
 4.577696470802579e+000	 1.358425567166879e+000	 1.056473418124687e+001
 4.564247000193416e+000	 1.402952002579742e+000	 1.060087873226644e+001
 4.550330224449836e+000	 1.447452883087015e+000	 1.063077530456810e+001
 4.535944883198662e+000	 1.491921250220426e+000	 1.065411295840037e+001
 4.521089846991900e+000	 1.536350088903590e+000	 1.067058355444537e+001
 4.505764119433992e+000	 1.580732330356816e+000	 1.067988121517943e+001
 4.489966839237115e+000	 1.625060855084026e+000	 1.068170176241213e+001
 4.473697282201146e+000	 1.669328495939906e+000	 1.067574213273980e+001
 4.456954863114908e+000	 1.713528041275270e+000	 1.066169977277884e+001
 4.439739137575500e+000	 1.757652238158466e+000	 1.063927201617062e+001
 4.614714999335491e+000	 1.320759431259581e+000	 1.052048914943707e+001
 4.601663468033124e+000	 1.365537742911231e+000	 1.055932433345698e+001
 4.588143581347830e+000	 1.410297301021918e+000	 1.059272357265651e+001
 4.574153942904254e+000	 1.455031170431841e+000	 1.062040197886326e+001
 4.559693285730408e+000	 1.499732356240961e+000	 1.064207795388134e+001
 4.544760474464951e+000	 1.544393806644744e+000	 1.065747263223108e+001
 4.529354507495598e+000	 1.589008415854183e+000	 1.066630929756045e+001
 4.513474519025167e+000	 1.633569027098352e+000	 1.066831277440492e+001
 4.497119781061903e+000	 1.678068435707619e+000	 1.066320879711012e+001
 4.480289705330702e+000	 1.722499392275472e+000	 1.065072335786442e+001
 4.462983845101943e+000	 1.766854605896794e+000	 1.063058203591879e+001
 4.638749973289582e+000	 1.327638386631561e+000	 1.051830618437535e+001
 4.625630465262270e+000	 1.372649918655588e+000	 1.055410102121621e+001
 4.612040162500976e+000	 1.417642599464112e+000	 1.058495369861756e+001
 4.597977661357555e+000	 1.462609457776710e+000	 1.061060875143921e+001
 4.583441688261202e+000	 1.507543462261573e+000	 1.063081398416566e+001
 4.568431101937241e+000	 1.552437524386020e+000	 1.064531986941883e+001
 4.552944895556653e+000	 1.597284501351727e+000	 1.065387891922946e+001
 4.536982198812894e+000	 1.642077199112920e+000	 1.065624503081826e+001
 4.520542279922586e+000	 1.686808375475648e+000	 1.065217280877945e+001
 4.503624547546691e+000	 1.731470743276073e+000	 1.064141686569620e+001
 4.486228552628871e+000	 1.776056973635617e+000	 1.062373110335160e+001
 4.662784947242169e+000	 1.334517342003541e+000	 1.051600825850180e+001
 4.649597462490021e+000	 1.379762094399950e+000	 1.054895825397654e+001
 4.635936743652853e+000	 1.424987897906325e+000	 1.057745595097164e+001
 4.621801379809735e+000	 1.470187745121623e+000	 1.060127536974837e+001
 4.607190090791048e+000	 1.515354568282263e+000	 1.062019378316877e+001
 4.592101729408772e+000	 1.560481242127419e+000	 1.063399107079526e+001
 4.576535283617155e+000	 1.605560586849447e+000	 1.064244904482652e+001
 4.560489878600299e+000	 1.650585371127729e+000	 1.064535074969541e+001
 4.543964778783195e+000	 1.695548315243992e+000	 1.064247973730020e+001
 4.526959389762876e+000	 1.740442094277074e+000	 1.063361931998162e+001
 4.509473260156283e+000	 1.785259341374934e+000	 1.061855180349578e+001
 4.686819921193249e+000	 1.341396297375522e+000	 1.051349727347789e+001
 4.673564459716376e+000	 1.386874270144317e+000	 1.054379079246850e+001
 4.659833324803467e+000	 1.432333196348558e+000	 1.057011801886432e+001
 4.645625098260800e+000	 1.477766032466580e+000	 1.059228252520939e+001
 4.630938493319944e+000	 1.523165674303032e+000	 1.061009112296063e+001
 4.615772356879539e+000	 1.568524959868940e+000	 1.062335317198358e+001
 4.600125671677105e+000	 1.613836672347344e+000	 1.063187986095250e+001
 4.583997558387379e+000	 1.659093543142780e+000	 1.063548346055575e+001
 4.567387277643730e+000	 1.704288255012652e+000	 1.063397655155674e+001
 4.550294231979255e+000	 1.749413445278476e+000	 1.062717122990619e+001
 4.532717967684180e+000	 1.794461709114747e+000	 1.061487829124287e+001
 4.710854895142822e+000	 1.348275252747503e+000	 1.051067576719358e+001
 4.697531456941334e+000	 1.393986445888689e+000	 1.053849412953588e+001
 4.683729905952809e+000	 1.439678494790811e+000	 1.056282841812379e+001
 4.669448816710744e+000	 1.485344319811581e+000	 1.058351182912638e+001
 4.654686895847891e+000	 1.530976780323879e+000	 1.060038078728220e+001
 4.639442984349548e+000	 1.576568677610583e+000	 1.061327421059568e+001
 4.623716059736505e+000	 1.622112757845418e+000	 1.062203274499660e+001
 4.607505238174135e+000	 1.667601715158070e+000	 1.062649797093884e+001
 4.590809776504189e+000	 1.713028194781626e+000	 1.062651158406819e+001
 4.573629074195829e+000	 1.758384796280277e+000	 1.062191455223859e+001
 4.555962675212561e+000	 1.803664076855054e+000	 1.061254625130163e+001
 4.734889869090889e+000	 1.355154208119483e+000	 1.050744689761939e+001
 4.721498454164894e+000	 1.401098621633065e+000	 1.053296447155420e+001
 4.707626487100888e+000	 1.447023793233083e+000	 1.055547647027908e+001
 4.693272535159571e+000	 1.492922607156626e+000	 1.057484578934163e+001
 4.678435298374886e+000	 1.538787886344804e+000	 1.059093854586855e+001
 4.663113611818793e+000	 1.584612395352348e+000	 1.060362329826289e+001
 4.647306447795349e+000	 1.630388843343668e+000	 1.061277023491329e+001
 4.631012917960569e+000	 1.676109887173602e+000	 1.061825033396730e+001
 4.614232275364576e+000	 1.721768134550916e+000	 1.061993449637837e+001
 4.596963916412597e+000	 1.767356147282478e+000	 1.061769265459005e+001
 4.579207382741428e+000	 1.812866444595856e+000	 1.061139285937018e+001
 4.758924843037452e+000	 1.362033163491464e+000	 1.050371442714783e+001
 4.745465451387058e+000	 1.408210797377446e+000	 1.052709872041227e+001
 4.731523068247697e+000	 1.454369091675374e+000	 1.054795228221408e+001
 4.717096253607278e+000	 1.500500894501714e+000	 1.056616778759564e+001
 4.702183700900934e+000	 1.546598992365807e+000	 1.058164112954995e+001
 4.686784239287278e+000	 1.592656113094236e+000	 1.059427059351427e+001
 4.670896835853643e+000	 1.638664928842095e+000	 1.060395599991515e+001
 4.654520597746678e+000	 1.684618059189374e+000	 1.061059781689272e+001
 4.637654774224886e+000	 1.730508074320521e+000	 1.061409624549459e+001
 4.620298758629560e+000	 1.776327498285080e+000	 1.061435027978698e+001
 4.602452090270778e+000	 1.822068812337153e+000	 1.061125674448478e+001
 4.782959816982506e+000	 1.368912118863444e+000	 1.049938270740689e+001
 4.769432448607826e+000	 1.415322973121832e+000	 1.052079445603691e+001
 4.755419649393240e+000	 1.461714390117685e+000	 1.054014672643499e+001
 4.740919972053868e+000	 1.508079181846846e+000	 1.055736205756999e+001
 4.725932103426031e+000	 1.554410098386889e+000	 1.057236620610381e+001
 4.710454866755004e+000	 1.600699830836247e+000	 1.058508727547268e+001
 4.694487223911384e+000	 1.646941014340699e+000	 1.059545481204924e+001
 4.678028277532466e+000	 1.693126231205388e+000	 1.060339887058991e+001
 4.661077273085121e+000	 1.739248014090443e+000	 1.060884905133829e+001
 4.643633600846719e+000	 1.785298849288081e+000	 1.061173351131784e+001
 4.625696797800613e+000	 1.831271180078945e+000	 1.061197795250375e+001
 4.806994790926056e+000	 1.375791074235425e+000	 1.049435666452918e+001
 4.793399445827198e+000	 1.422435148866224e+000	 1.051394991944200e+001
 4.779316230537516e+000	 1.469059688560016e+000	 1.053195142192977e+001
 4.764743690499341e+000	 1.515657469192023e+000	 1.054831366358875e+001
 4.749680505950178e+000	 1.562221204408048e+000	 1.056299235683096e+001
 4.734125494221968e+000	 1.608743548578379e+000	 1.057594551833985e+001
 4.718077611968574e+000	 1.655217099839479e+000	 1.058713251862629e+001
 4.701535957317930e+000	 1.701634403221643e+000	 1.059651309996626e+001
 4.684499771945284e+000	 1.747987953860679e+000	 1.060404636517222e+001
 4.666968443064072e+000	 1.794270200291483e+000	 1.060968973981655e+001
 4.648941505330933e+000	 1.840473547821232e+000	 1.061339791068700e+001
 4.416494430049541e+000	 1.748449870420633e+000	 1.064997007025740e+001
 4.398897710511125e+000	 1.792260843862486e+000	 1.061983330016178e+001
 4.380829705437297e+000	 1.835982323416121e+000	 1.057833314081717e+001
 4.362290402960451e+000	 1.879606990872977e+000	 1.054426551411338e+001
 4.343279937644680e+000	 1.923127500484417e+000	 1.057390988382172e+001
 4.323798591841205e+000	 1.966536482506963e+000	 1.060325386717302e+001
 4.303846796944172e+000	 2.009826546807197e+000	 1.063240994577488e+001
 4.283425134544102e+000	 2.052990286523145e+000	 1.066149528752295e+001
 4.262534337476436e+000	 2.096020281778892e+000	 1.069063204184125e+001
 4.241175290762651e+000	 2.138909103449004e+000	 1.071994762555466e+001
 4.219349032441642e+000	 2.181649316969236e+000	 1.074957499804288e+001
 4.439739137575500e+000	 1.757652238158466e+000	 1.063927201617062e+001
 4.422049803722750e+000	 1.801693795671522e+000	 1.061302573526754e+001
 4.403886703884518e+000	 1.845645388275808e+000	 1.057591832194219e+001
 4.385249826130742e+000	 1.889499659245882e+000	 1.054802752752847e+001
 4.366139305733747e+000	 1.933249224171266e+000	 1.056408377358571e+001
 4.346555426530812e+000	 1.976886674520361e+000	 1.058896804695981e+001
 4.326498622186580e+000	 2.020404581264306e+000	 1.061420313939241e+001
 4.305969477352577e+000	 2.063795498557647e+000	 1.063990072532199e+001
 4.284968728721273e+000	 2.107051967472487e+000	 1.066617714545279e+001
 4.263497265972151e+000	 2.150166519782733e+000	 1.069315370206794e+001
 4.241556132607472e+000	 2.193131681794851e+000	 1.072095694398945e+001
 4.462983845101943e+000	 1.766854605896794e+000	 1.063058203591879e+001
 4.445201896935138e+000	 1.811126747481146e+000	 1.060802428064817e+001
 4.426943702332747e+000	 1.855308453136171e+000	 1.057510641766379e+001
 4.408209249302242e+000	 1.899392327619536e+000	 1.056064415531519e+001
 4.388998673824184e+000	 1.943370947858931e+000	 1.056597753834399e+001
 4.369312261221915e+000	 1.987236866534630e+000	 1.057501182441621e+001
 4.349150447430568e+000	 2.030982615722334e+000	 1.059620319723098e+001
 4.328513820162675e+000	 2.074600710593102e+000	 1.061838601464636e+001
 4.307403119967730e+000	 2.118083653167060e+000	 1.064167078719113e+001
 4.285819241183235e+000	 2.161423936117456e+000	 1.066617268561247e+001
 4.263763232774805e+000	 2.204614046621467e+000	 1.069201183577990e+001
 4.486228552628871e+000	 1.776056973635617e+000	 1.062373110335160e+001
 4.468353990148293e+000	 1.820559699291361e+000	 1.060465931384694e+001
 4.450000700781981e+000	 1.864971517997210e+000	 1.057572729339822e+001
 4.431168672474952e+000	 1.909284995993943e+000	 1.057069162837800e+001
 4.411858041915995e+000	 1.953492671547413e+000	 1.057308389366418e+001
 4.392069095914511e+000	 1.997587058549771e+000	 1.057456538472521e+001
 4.371802272676131e+000	 2.041560650181279e+000	 1.057839578793853e+001
 4.351058162974390e+000	 2.085405922629511e+000	 1.059693978790370e+001
 4.329837511215814e+000	 2.129115338862615e+000	 1.061710459406277e+001
 4.308141216395904e+000	 2.172681352453174e+000	 1.063899922711550e+001
 4.285970332943644e+000	 2.216096411449083e+000	 1.066273737604710e+001
 4.509473260156283e+000	 1.785259341374934e+000	 1.061855180349578e+001
 4.491506083362213e+000	 1.829992651102166e+000	 1.060276278842901e+001
 4.473057699232222e+000	 1.874634582858924e+000	 1.057761235422063e+001
 4.454128095648871e+000	 1.919177664369100e+000	 1.057832523466163e+001
 4.434717410009177e+000	 1.963614395236711e+000	 1.057784048865367e+001
 4.414825930608602e+000	 2.007937250565786e+000	 1.057655259969728e+001
 4.394454097923272e+000	 2.052138684641143e+000	 1.057517889066449e+001
 4.373602505787726e+000	 2.096211134666875e+000	 1.057555201758134e+001
 4.352271902465517e+000	 2.140147024559147e+000	 1.059247148976756e+001
 4.330463191610154e+000	 2.183938768789886e+000	 1.061162922968561e+001
 4.308177433113985e+000	 2.227578776277698e+000	 1.063313247398270e+001
 4.532717967684180e+000	 1.794461709114747e+000	 1.061487829124287e+001
 4.514658176576894e+000	 1.839425602913561e+000	 1.060216819357056e+001
 4.496114697683470e+000	 1.884297647721313e+000	 1.058563368752746e+001
 4.477087518823996e+000	 1.929070332745008e+000	 1.058370172569292e+001
 4.457576778103729e+000	 1.973736118926827e+000	 1.058040915243893e+001
 4.437582765304186e+000	 2.018287442582672e+000	 1.057640472076390e+001
 4.417105923171991e+000	 2.062716719101926e+000	 1.057239999073565e+001
 4.396146848602681e+000	 2.107016346705192e+000	 1.056917050459392e+001
 4.374706293716842e+000	 2.151178710256660e+000	 1.056776566145008e+001
 4.352785166825989e+000	 2.195196185127593e+000	 1.058405981650550e+001
 4.330384533285831e+000	 2.239061141107313e+000	 1.060319721439979e+001
 4.555962675212561e+000	 1.803664076855054e+000	 1.061254625130163e+001
 4.537810269792344e+000	 1.848858554725545e+000	 1.060271051488516e+001
 4.519171696135725e+000	 1.893960712584378e+000	 1.059172662760257e+001
 4.500046942000333e+000	 1.938963001121667e+000	 1.058697927924456e+001
 4.480436146199654e+000	 1.983857842617759e+000	 1.058095310359894e+001
 4.460339600001269e+000	 2.028637634600432e+000	 1.057428991640963e+001
 4.439757748422287e+000	 2.073294753563626e+000	 1.056769533049684e+001
 4.418691191419258e+000	 2.117821558744463e+000	 1.056193996894003e+001
 4.397140684969789e+000	 2.162210395955152e+000	 1.055786053433185e+001
 4.375107142043407e+000	 2.206453601466296e+000	 1.055636072707996e+001
 4.352591633459181e+000	 2.250543505937929e+000	 1.057293282774249e+001
 4.579207382741428e+000	 1.812866444595856e+000	 1.061139285937018e+001
 4.560962363008558e+000	 1.858291506538120e+000	 1.060422619644302e+001
 4.542228694588986e+000	 1.903623777448119e+000	 1.059578464808901e+001
 4.523006365177878e+000	 1.948855669499078e+000	 1.058831746313592e+001
 4.503295514296950e+000	 1.993979566309508e+000	 1.057963691489995e+001
 4.483096434699841e+000	 2.038987826619063e+000	 1.057037767235703e+001
 4.462409573674160e+000	 2.083872788026245e+000	 1.056123921353442e+001
 4.441235534237453e+000	 2.128626770784688e+000	 1.055298707741735e+001
 4.419575076224358e+000	 2.173242081654624e+000	 1.054645396986346e+001
 4.397429117262409e+000	 2.217711017805993e+000	 1.054254071636085e+001
 4.374798733634036e+000	 2.262025870769545e+000	 1.054234166100907e+001
 4.602452090270778e+000	 1.822068812337153e+000	 1.061125674448478e+001
 4.584114456225539e+000	 1.867724458351285e+000	 1.060655310394134e+001
 4.565285693043254e+000	 1.913286842312534e+000	 1.059796361189549e+001
 4.545965788356632e+000	 1.958748337877239e+000	 1.058787720013092e+001
 4.526154882395620e+000	 2.004101290002073e+000	 1.057662647909884e+001
 4.505853269399911e+000	 2.049338018638567e+000	 1.056483875830329e+001
 4.485061398927612e+000	 2.094450822489782e+000	 1.055320719034161e+001
 4.463779877057269e+000	 2.139431982825867e+000	 1.054249206218341e+001
 4.442009467480550e+000	 2.184273767355075e+000	 1.053352193836118e+001
 4.419751092482993e+000	 2.228968434146685e+000	 1.052719464876576e+001
 4.397005833810392e+000	 2.273508235602161e+000	 1.052447811405593e+001
 4.625696797800613e+000	 1.831271180078945e+000	 1.061197795250375e+001
 4.607266549443284e+000	 1.877157410165040e+000	 1.060933467305083e+001
 4.588342691498530e+000	 1.922949907177626e+000	 1.059842073586202e+001
 4.568925211536596e+000	 1.968641006256151e+000	 1.058582073389413e+001
 4.549014250495659e+000	 2.014223013695456e+000	 1.057208897577750e+001
 4.528610104101475e+000	 2.059688210658944e+000	 1.055784519565941e+001
 4.507713224182639e+000	 2.105028856954237e+000	 1.054377602698915e+001
 4.486324219878704e+000	 2.150237194868000e+000	 1.053063633382283e+001
 4.464443858738362e+000	 2.195305453056506e+000	 1.051925039191072e+001
 4.442073067705160e+000	 2.240225850488372e+000	 1.051051291211605e+001
 4.419212933988254e+000	 2.284990600435776e+000	 1.050538989903357e+001
 4.648941505330933e+000	 1.840473547821232e+000	 1.061339791068700e+001
 4.630418642661795e+000	 1.886590361979385e+000	 1.061065624356461e+001
 4.611399689954812e+000	 1.932612972043392e+000	 1.059731455691151e+001
 4.591884634717767e+000	 1.978533674635814e+000	 1.058231159596832e+001
 4.571873618597071e+000	 2.024344737389655e+000	 1.056619283917225e+001
 4.551366938804532e+000	 2.070038402680193e+000	 1.054957022625739e+001
 4.530365049439246e+000	 2.115606891419611e+000	 1.053312367473588e+001
 4.508868562701760e+000	 2.161042406911087e+000	 1.051760245188664e+001
 4.486878249997798e+000	 2.206337138758916e+000	 1.050382639436531e+001
 4.464395042928913e+000	 2.251483266831054e+000	 1.049268696783668e+001
 4.441420034167620e+000	 2.296472965270393e+000	 1.048514815935583e+001
 4.219349032441642e+000	 2.181649316969236e+000	 1.074957499804288e+001
 4.197056754289153e+000	 2.224233486189214e+000	 1.068997132348198e+001
 4.174299802423162e+000	 2.266654177265144e+000	 1.065279188326340e+001
 4.151079677793083e+000	 2.308903962587823e+000	 1.063885968839829e+001
 4.127398036551244e+000	 2.350975424740408e+000	 1.064898957354885e+001
 4.103256690304887e+000	 2.392861160483732e+000	 1.068398757024357e+001
 4.078657606247210e+000	 2.434553784764504e+000	 1.074465027302043e+001
 4.053602907166101e+000	 2.476045934742123e+000	 1.083176419879307e+001
 4.028094871329415e+000	 2.517330273829839e+000	 1.084694903971395e+001
 4.002135932245784e+000	 2.558399495745880e+000	 1.074234039441209e+001
 3.975728678300154e+000	 2.599246328570120e+000	 1.065099498479470e+001
 4.241556132607472e+000	 2.193131681794851e+000	 1.072095694398945e+001
 4.219146526675409e+000	 2.235939978220896e+000	 1.066959045556303e+001
 4.196269801378700e+000	 2.278583936091637e+000	 1.064042315442045e+001
 4.172927465566493e+000	 2.321056088705192e+000	 1.063427147386484e+001
 4.149121184107708e+000	 2.363348979605680e+000	 1.065194405868783e+001
 4.124852778144358e+000	 2.405455166589521e+000	 1.069424115354745e+001
 4.100124225223292e+000	 2.447367225734718e+000	 1.076195398368196e+001
 4.074937659304964e+000	 2.489077755448880e+000	 1.085586412821247e+001
 4.049295370648115e+000	 2.530579380531644e+000	 1.080816774144701e+001
 4.023199805569314e+000	 2.571864756247123e+000	 1.071430883901085e+001
 3.996653566076591e+000	 2.612926572401926e+000	 1.063314556542111e+001
 4.263763232774805e+000	 2.204614046621467e+000	 1.069201183577990e+001
 4.241236299063069e+000	 2.247646470253574e+000	 1.064877002755073e+001
 4.218239800335544e+000	 2.290513694919111e+000	 1.062750581212003e+001
 4.194775253341109e+000	 2.333208214823516e+000	 1.062902906382363e+001
 4.170844331665272e+000	 2.375722534471873e+000	 1.065414225660698e+001
 4.146448865984831e+000	 2.418049172696184e+000	 1.070363986762029e+001
 4.121590844200274e+000	 2.460180666705753e+000	 1.077830777255533e+001
 4.096272411444629e+000	 2.502109576156395e+000	 1.086817223171346e+001
 4.070495869967517e+000	 2.543828487234132e+000	 1.077374674732170e+001
 4.044263678893447e+000	 2.585330016748963e+000	 1.069054305398198e+001
 4.017578453853528e+000	 2.626606816234234e+000	 1.061946914133509e+001
 4.285970332943644e+000	 2.216096411449083e+000	 1.066273737604710e+001
 4.263326071452134e+000	 2.259352962287246e+000	 1.062751032582152e+001
 4.240209799293691e+000	 2.302443453747564e+000	 1.061404263000383e+001
 4.216623041116926e+000	 2.345360340942796e+000	 1.062313762085948e+001
 4.192567479223943e+000	 2.388096089338987e+000	 1.065559161872983e+001
 4.168044953826307e+000	 2.430643178803724e+000	 1.071219335090165e+001
 4.143057463178162e+000	 2.472994107677610e+000	 1.079372336162155e+001
 4.117607163585097e+000	 2.515141396864667e+000	 1.082695764093785e+001
 4.091696369287622e+000	 2.557077593937303e+000	 1.074366133479468e+001
 4.065327552218183e+000	 2.598795277251401e+000	 1.067101897671694e+001
 4.038503341630969e+000	 2.640287060067045e+000	 1.060994220752597e+001
 4.308177433113985e+000	 2.227578776277698e+000	 1.063313247398270e+001
 4.285415843842603e+000	 2.271059454321914e+000	 1.060581280678300e+001
 4.262179798253142e+000	 2.314373212576999e+000	 1.060003751663666e+001
 4.238470828893949e+000	 2.357512467063032e+000	 1.061660340881469e+001
 4.214290626783716e+000	 2.400469644207023e+000	 1.065630066553620e+001
 4.189641041668788e+000	 2.443237184912142e+000	 1.071991228017190e+001
 4.164524082156950e+000	 2.485807548650289e+000	 1.080821348199303e+001
 4.138941915726369e+000	 2.528173217573695e+000	 1.079014948768885e+001
 4.112896868608430e+000	 2.570326700641155e+000	 1.071788773663078e+001
 4.086391425543521e+000	 2.612260537754436e+000	 1.065571347533843e+001
 4.059428229408913e+000	 2.653967303900358e+000	 1.060454216671657e+001
 4.330384533285831e+000	 2.239061141107313e+000	 1.060319721439979e+001
 4.307505616234475e+000	 2.282765946357576e+000	 1.058368006687310e+001
 4.284149797213895e+000	 2.326302971407414e+000	 1.058549548640591e+001
 4.260318616672175e+000	 2.369664593184222e+000	 1.060943376455176e+001
 4.236013774344592e+000	 2.412843199075978e+000	 1.065627895915064e+001
 4.211237129512270e+000	 2.455831191021434e+000	 1.072680834392813e+001
 4.185990701136643e+000	 2.498620989623790e+000	 1.082179184803834e+001
 4.160276667868444e+000	 2.541205038283482e+000	 1.075772422491135e+001
 4.134097367929940e+000	 2.583575807345691e+000	 1.069640311640796e+001
 4.107455298869463e+000	 2.625725798258069e+000	 1.064460432483539e+001
 4.080353117187359e+000	 2.667647547734174e+000	 1.060324730608797e+001
 4.352591633459181e+000	 2.250543505937929e+000	 1.057293282774249e+001
 4.329595388627752e+000	 2.294472438394234e+000	 1.056111581347776e+001
 4.306119796175953e+000	 2.338232730238807e+000	 1.057042263131172e+001
 4.282166404451602e+000	 2.381816719306368e+000	 1.060163707058037e+001
 4.257736921906572e+000	 2.425216753945855e+000	 1.065553707676971e+001
 4.232833217356756e+000	 2.468425197131603e+000	 1.073289421657499e+001
 4.207457320117240e+000	 2.511434430598112e+000	 1.078818207397568e+001
 4.181611420011322e+000	 2.554236858994026e+000	 1.072965923743751e+001
 4.155297867252153e+000	 2.596824914050908e+000	 1.067918554477213e+001
 4.128519172196008e+000	 2.639191058762300e+000	 1.063767018392875e+001
 4.101278004966307e+000	 2.681327791568492e+000	 1.060603677471673e+001
 4.374798733634036e+000	 2.262025870769545e+000	 1.054234166100907e+001
 4.351685161022432e+000	 2.306178930431887e+000	 1.053812483673416e+001
 4.328089795139316e+000	 2.350162489071184e+000	 1.055482609361651e+001
 4.304014192232235e+000	 2.393968845429471e+000	 1.059322272851817e+001
 4.279460069469656e+000	 2.437590308816654e+000	 1.065408658489886e+001
 4.254429305202245e+000	 2.481019203242649e+000	 1.073818353340168e+001
 4.228923939098740e+000	 2.524247871573257e+000	 1.075313436310956e+001
 4.202946172155001e+000	 2.567268679705326e+000	 1.070593281833486e+001
 4.176498366575069e+000	 2.610074020756808e+000	 1.066621397641504e+001
 4.149583045523155e+000	 2.652656319267127e+000	 1.063489057264163e+001
 4.122202892745759e+000	 2.695008035403313e+000	 1.061289056169947e+001
 4.397005833810392e+000	 2.273508235602161e+000	 1.052447811405593e+001
 4.373774933418516e+000	 2.317885422470535e+000	 1.051471298218863e+001
 4.350059794103981e+000	 2.362092247904539e+000	 1.053871403932306e+001
 4.325861980014071e+000	 2.406120971553529e+000	 1.058420113335567e+001
 4.301183217033842e+000	 2.449963863688372e+000	 1.065194001436979e+001
 4.276025393048738e+000	 2.493613209354572e+000	 1.074269086631723e+001
 4.250390558081142e+000	 2.537061312549223e+000	 1.072249715483066e+001
 4.224280924299484e+000	 2.580300500417384e+000	 1.068652414597098e+001
 4.197698865898687e+000	 2.623323127463390e+000	 1.065746822774995e+001
 4.170646918850905e+000	 2.666121579772553e+000	 1.063624585054927e+001
 4.143127780525714e+000	 2.708688279238637e+000	 1.062378947494019e+001
 4.419212933988254e+000	 2.284990600435776e+000	 1.050538989903357e+001
 4.395864705816003e+000	 2.329591914510178e+000	 1.050232007423521e+001
 4.372029793069951e+000	 2.374022006738874e+000	 1.052209563245257e+001
 4.347709767797110e+000	 2.418273097678542e+000	 1.057458364849715e+001
 4.322906364599133e+000	 2.462337418561012e+000	 1.064911083611119e+001
 4.297621480896234e+000	 2.506207215467371e+000	 1.072653628141815e+001
 4.271857177064447e+000	 2.549874753526011e+000	 1.069624978200286e+001
 4.245615676444769e+000	 2.593332321130198e+000	 1.067141326176983e+001
 4.218899365223009e+000	 2.636572234170655e+000	 1.065292895526031e+001
 4.191710792179257e+000	 2.679586840278577e+000	 1.064171719568484e+001
 4.164052668306169e+000	 2.722368523074463e+000	 1.063871512057723e+001
 4.441420034167620e+000	 2.296472965270393e+000	 1.048514815935583e+001
 4.417954478214896e+000	 2.341298406550817e+000	 1.048947021850777e+001
 4.393999792037223e+000	 2.385951765574191e+000	 1.051444389637585e+001
 4.369557555581356e+000	 2.430425223804512e+000	 1.056438258155034e+001
 4.344629512165527e+000	 2.474710973434573e+000	 1.064561343764632e+001
 4.319217568744735e+000	 2.518801221581046e+000	 1.069304633504162e+001
 4.293323796048657e+000	 2.562688194503620e+000	 1.067437244270569e+001
 4.266950428590860e+000	 2.606364141843771e+000	 1.066058104863535e+001
 4.240099864548035e+000	 2.649821340878603e+000	 1.065257763449801e+001
 4.212774665508213e+000	 2.693052100785198e+000	 1.065128658407788e+001
 4.184977556087130e+000	 2.736048766910793e+000	 1.065764988302737e+001
 3.975728678300154e+000	 2.599246328570120e+000	 1.065099498479470e+001
 3.948875852262866e+000	 2.639863538801905e+000	 1.063370851695861e+001
 3.921580350673420e+000	 2.680243935414237e+000	 1.061983376669649e+001
 3.893845223097611e+000	 2.720380373899949e+000	 1.061002500964585e+001
 3.865673671256816e+000	 2.760265760305475e+000	 1.060495030777527e+001
 3.837069048031190e+000	 2.799893055247307e+000	 1.060529038743725e+001
 3.808034856336499e+000	 2.839255277906680e+000	 1.061173747443382e+001
 3.778574747875074e+000	 2.878345509997806e+000	 1.062499408847373e+001
 3.748692521761566e+000	 2.917156899705098e+000	 1.064524322226277e+001
 3.718392123024357e+000	 2.955682665584794e+000	 1.066058912764248e+001
 3.687677640983678e+000	 2.993916100426382e+000	 1.068182666250278e+001
 3.996653566076591e+000	 2.612926572401926e+000	 1.063314556542111e+001
 3.969659409375954e+000	 2.653757557424342e+000	 1.062113236806549e+001
 3.942220247251891e+000	 2.694350482439861e+000	 1.061166971226357e+001
 3.914339145320547e+000	 2.734698165338652e+000	 1.060538309621042e+001
 3.886019322154460e+000	 2.774793474830546e+000	 1.060291268797132e+001
 3.857264148280524e+000	 2.814629334482651e+000	 1.060491223052109e+001
 3.828077145050906e+000	 2.854198726735049e+000	 1.061204790247934e+001
 3.798461983387418e+000	 2.893494696889920e+000	 1.062499713688018e+001
 3.768422482400056e+000	 2.932510357069496e+000	 1.064444740046401e+001
 3.737962607880508e+000	 2.971238890138200e+000	 1.066657885209454e+001
 3.707086470671743e+000	 3.009673553584413e+000	 1.068740517164347e+001
 4.017578453853528e+000	 2.626606816234234e+000	 1.061946914133509e+001
 3.990442966489449e+000	 2.667651576047185e+000	 1.061209372249631e+001
 3.962860143830686e+000	 2.708457029465810e+000	 1.060641220910769e+001
 3.934833067543730e+000	 2.749015956777603e+000	 1.060302176513953e+001
 3.906364973052286e+000	 2.789321189355799e+000	 1.060253510930128e+001
 3.877459248529986e+000	 2.829365613718122e+000	 1.060557944657566e+001
 3.848119433765391e+000	 2.869142175563498e+000	 1.061279535412464e+001
 3.818349218899807e+000	 2.908643883782081e+000	 1.062483562386539e+001
 3.788152443038567e+000	 2.947863814433914e+000	 1.064236406416732e+001
 3.757533092736663e+000	 2.986795114691609e+000	 1.066605426326711e+001
 3.726495300359807e+000	 3.025431006742444e+000	 1.068823973537124e+001
 4.038503341630969e+000	 2.640287060067045e+000	 1.060994220752597e+001
 4.011226523603352e+000	 2.681545594670439e+000	 1.060657799659861e+001
 3.983500040409804e+000	 2.722563576492080e+000	 1.060405545497527e+001
 3.955326989767160e+000	 2.763333748216801e+000	 1.060294385170488e+001
 3.926710623950293e+000	 2.803848903881234e+000	 1.060382889686171e+001
 3.897654348779572e+000	 2.844101892953717e+000	 1.060731169908614e+001
 3.868161722479959e+000	 2.884085624392029e+000	 1.061400767616534e+001
 3.838236454412243e+000	 2.923793070674288e+000	 1.062454542091278e+001
 3.807882403677097e+000	 2.963217271798351e+000	 1.063956552476147e+001
 3.777103577592825e+000	 3.002351339245025e+000	 1.065971936163544e+001
 3.745904130047871e+000	 3.041188459900474e+000	 1.068449177121874e+001
 4.059428229408913e+000	 2.653967303900358e+000	 1.060454216671657e+001
 4.032010080717662e+000	 2.695439613294097e+000	 1.060457131849329e+001
 4.004139936989243e+000	 2.736670123518673e+000	 1.060459416581595e+001
 3.975820911990837e+000	 2.777651539656246e+000	 1.060515251830033e+001
 3.947056274848481e+000	 2.818376618406850e+000	 1.060680551437734e+001
 3.917849449029285e+000	 2.858838172189440e+000	 1.061012860435567e+001
 3.888204011194607e+000	 2.899029073220639e+000	 1.061571248518431e+001
 3.858123689924724e+000	 2.938942257566541e+000	 1.062416198913567e+001
 3.827612364315648e+000	 2.978570729162809e+000	 1.063609492878918e+001
 3.796674062448990e+000	 3.017907563798445e+000	 1.065214090084791e+001
 3.765312959735935e+000	 3.056945913058504e+000	 1.067294005146634e+001
 4.080353117187359e+000	 2.667647547734174e+000	 1.060324730608797e+001
 4.052793637832379e+000	 2.709333631918165e+000	 1.060606050982407e+001
 4.024779833569005e+000	 2.750776670545589e+000	 1.060802356249534e+001
 3.996314834214761e+000	 2.791969331095936e+000	 1.060965124605403e+001
 3.967401925746852e+000	 2.832904332932649e+000	 1.061147656064637e+001
 3.938044549279125e+000	 2.873574451425288e+000	 1.061404973271520e+001
 3.908246299909336e+000	 2.913972522049331e+000	 1.061793717345456e+001
 3.878010925437250e+000	 2.954091444458838e+000	 1.062372038979964e+001
 3.847342324954219e+000	 2.993924186527288e+000	 1.063199485029738e+001
 3.816244547305160e+000	 3.033463788351871e+000	 1.064336880835993e+001
 3.784721789423999e+000	 3.072703366216536e+000	 1.065846208555118e+001
 4.101278004966307e+000	 2.681327791568492e+000	 1.060603677471673e+001
 4.073577194947506e+000	 2.723227650542639e+000	 1.061103306806555e+001
 4.045419730149089e+000	 2.764883217572826e+000	 1.061433935791449e+001
 4.016808756438932e+000	 2.806287122535875e+000	 1.061644382669756e+001
 3.987747576645405e+000	 2.847432047458629e+000	 1.061785376609482e+001
 3.958239649529091e+000	 2.888310730661264e+000	 1.061909460969620e+001
 3.928288588624146e+000	 2.928915970878104e+000	 1.062070891466145e+001
 3.897898160949821e+000	 2.969240631351181e+000	 1.062325529452264e+001
 3.867072285592810e+000	 3.009277643891787e+000	 1.062730730544167e+001
 3.835815032161337e+000	 3.049020012905301e+000	 1.063345228839433e+001
 3.804130619112063e+000	 3.088460819374566e+000	 1.064229016990544e+001
 4.122202892745759e+000	 2.695008035403313e+000	 1.061289056169947e+001
 4.094360752063038e+000	 2.737121669167521e+000	 1.061947714937016e+001
 4.066059626729495e+000	 2.778989764600386e+000	 1.062353774452167e+001
 4.037302678663349e+000	 2.820604913976060e+000	 1.062553435468252e+001
 4.008093227544139e+000	 2.861959761984790e+000	 1.062594898943565e+001
 3.978434749779182e+000	 2.903047009897365e+000	 1.062528271716773e+001
 3.948330877339037e+000	 2.943859419706958e+000	 1.062405466945052e+001
 3.917785396462439e+000	 2.984389818243570e+000	 1.062280099516464e+001
 3.886802246231421e+000	 3.024631101256305e+000	 1.062207376664605e+001
 3.855385517017517e+000	 3.064576237458736e+000	 1.062243984029759e+001
 3.823539448800127e+000	 3.104218272532597e+000	 1.062447967426461e+001
 4.143127780525714e+000	 2.708688279238637e+000	 1.062378947494019e+001
 4.115144309178978e+000	 2.751015687792811e+000	 1.063138155193488e+001
 4.086699523310224e+000	 2.793096311628269e+000	 1.063561538220263e+001
 4.057796600888015e+000	 2.834922705416493e+000	 1.063692721953613e+001
 4.028438878443055e+000	 2.876487476511133e+000	 1.063577421442922e+001
 3.998629850029400e+000	 2.917783289133592e+000	 1.063263349443906e+001
 3.968373166054009e+000	 2.958802868535892e+000	 1.062800119080740e+001
 3.937672631975101e+000	 2.999539005136004e+000	 1.062239141341736e+001
 3.906532206870053e+000	 3.039984558620845e+000	 1.061633517633345e+001
 3.874956001873704e+000	 3.080132462012177e+000	 1.061037927633972e+001
 3.842948278488191e+000	 3.119975725690628e+000	 1.060508512705022e+001
 4.164052668306169e+000	 2.722368523074463e+000	 1.063871512057723e+001
 4.135927866295327e+000	 2.764909706418508e+000	 1.064673569986943e+001
 4.107339419891274e+000	 2.807202858656473e+000	 1.065056938653593e+001
 4.078290523112927e+000	 2.849240496857172e+000	 1.065062709844723e+001
 4.048784529342152e+000	 2.891015191037657e+000	 1.064734154674145e+001
 4.018824950279744e+000	 2.932519568369946e+000	 1.064116633932890e+001
 3.988415454769062e+000	 2.973746317364908e+000	 1.063257502927530e+001
 3.957559867487810e+000	 3.014688192028483e+000	 1.062206011010508e+001
 3.926262167508706e+000	 3.055338015985404e+000	 1.061013196024241e+001
 3.894526486729895e+000	 3.095688686565624e+000	 1.059731773897747e+001
 3.862357108176255e+000	 3.135733178848658e+000	 1.058667647830513e+001
 4.184977556087130e+000	 2.736048766910793e+000	 1.065764988302737e+001
 4.156711423412083e+000	 2.778803725044614e+000	 1.066552962754849e+001
 4.127979316472649e+000	 2.821309405685001e+000	 1.066839731740058e+001
 4.098784445338088e+000	 2.863558288298099e+000	 1.066663894907479e+001
 4.069130180241431e+000	 2.905542905564365e+000	 1.066066321089605e+001
 4.039020050530216e+000	 2.947255847606427e+000	 1.065090060920281e+001
 4.008457743484196e+000	 2.988689766194005e+000	 1.063780253801614e+001
 3.977447103000564e+000	 3.029837378921009e+000	 1.062184029420623e+001
 3.945992128147378e+000	 3.070691473349985e+000	 1.060350404034412e+001
 3.914096971586092e+000	 3.111244911119074e+000	 1.058330171759971e+001
 3.881765937864321e+000	 3.151490632006690e+000	 1.056825813392598e+001
 3.687677640983678e+000	 2.993916100426382e+000	 1.068182666250278e+001
 3.656553307508218e+000	 3.031850575069264e+000	 1.067984565399807e+001
 3.625023495149993e+000	 3.069479542170490e+000	 1.067987154106609e+001
 3.593092715160351e+000	 3.106796539918756e+000	 1.068232218538150e+001
 3.560765615389833e+000	 3.143795195690242e+000	 1.068095846366233e+001
 3.528046978072291e+000	 3.180469229642301e+000	 1.067014565271866e+001
 3.494941717495987e+000	 3.216812458240656e+000	 1.065447820919111e+001
 3.461454877564024e+000	 3.252818797715965e+000	 1.063413238025456e+001
 3.427591629246608e+000	 3.288482267445716e+000	 1.060929522745244e+001
 3.393357267927863e+000	 3.323796993257525e+000	 1.058016418947048e+001
 3.358757210650000e+000	 3.358757210650000e+000	 1.054694661630720e+001
 3.707086470671743e+000	 3.009673553584413e+000	 1.068740517164347e+001
 3.675798324915369e+000	 3.047807683357208e+000	 1.068353765775928e+001
 3.644102566176765e+000	 3.085634697653921e+000	 1.068217553219072e+001
 3.612003729450705e+000	 3.123148100653718e+000	 1.068376774692908e+001
 3.579506487050102e+000	 3.160341486192652e+000	 1.067732243037475e+001
 3.546615646378458e+000	 3.197208541376272e+000	 1.066604667924705e+001
 3.513336147588712e+000	 3.233743050125384e+000	 1.065052634882677e+001
 3.479673061130822e+000	 3.269938896650809e+000	 1.063096205678499e+001
 3.445631585190633e+000	 3.305790068853073e+000	 1.060756479829003e+001
 3.411217043022704e+000	 3.341290661643094e+000	 1.058055547853322e+001
 3.376434880180000e+000	 3.376434880180000e+000	 1.055016441700229e+001
 3.726495300359807e+000	 3.025431006742444e+000	 1.068823973537124e+001
 3.695043342322521e+000	 3.063764791645150e+000	 1.068286054487273e+001
 3.663181637203538e+000	 3.101789853137353e+000	 1.068047258563744e+001
 3.630914743741059e+000	 3.139499661388680e+000	 1.067886207689442e+001
 3.598247358710370e+000	 3.176887776695062e+000	 1.067131931974959e+001
 3.565184314684625e+000	 3.213947853110243e+000	 1.065991748912769e+001
 3.531730577681437e+000	 3.250673642010113e+000	 1.064487104996710e+001
 3.497891244697621e+000	 3.287058995585653e+000	 1.062640488515288e+001
 3.463671541134656e+000	 3.323097870260429e+000	 1.060475382695837e+001
 3.429076818117546e+000	 3.358784330028662e+000	 1.058016215936707e+001
 3.394112549710000e+000	 3.394112549710000e+000	 1.055288309247917e+001
 3.745904130047871e+000	 3.041188459900474e+000	 1.068449177121874e+001
 3.714288359729673e+000	 3.079721899933094e+000	 1.067796989110510e+001
 3.682260708230310e+000	 3.117945008620785e+000	 1.067491247422124e+001
 3.649825758031414e+000	 3.155851222123643e+000	 1.067092263378753e+001
 3.616988230370638e+000	 3.193434067197471e+000	 1.066301987553108e+001
 3.583752982990791e+000	 3.230687164844214e+000	 1.065182347101339e+001
 3.550125007774159e+000	 3.267604233894841e+000	 1.063757243698375e+001
 3.516109428264420e+000	 3.304179094520496e+000	 1.062051581917534e+001
 3.481711497078680e+000	 3.340405671667785e+000	 1.060091219331790e+001
 3.446936593212385e+000	 3.376277998414230e+000	 1.057902913729670e+001
 3.411790219240000e+000	 3.411790219240000e+000	 1.055514267571948e+001
 3.765312959735935e+000	 3.056945913058504e+000	 1.067294005146634e+001
 3.733533377136824e+000	 3.095679008221037e+000	 1.066902045421847e+001
 3.701339779257081e+000	 3.134100164104216e+000	 1.066535644376434e+001
 3.668736772321768e+000	 3.172202782858605e+000	 1.066042106216964e+001
 3.635729102030907e+000	 3.209980357699882e+000	 1.065249435405944e+001
 3.602321651296959e+000	 3.247426476578185e+000	 1.064182963168754e+001
 3.568519437866884e+000	 3.284534825779570e+000	 1.062869035549135e+001
 3.534327611831219e+000	 3.321299193455340e+000	 1.061334963455119e+001
 3.499751453022703e+000	 3.357713473075141e+000	 1.059608969722581e+001
 3.464796368307228e+000	 3.393771666799799e+000	 1.057720133318639e+001
 3.429467888769999e+000	 3.429467888769999e+000	 1.055698330816882e+001
 3.784721789423999e+000	 3.072703366216536e+000	 1.065846208555118e+001
 3.752778394543975e+000	 3.111636116508981e+000	 1.065555894569758e+001
 3.720418850283854e+000	 3.150255319587647e+000	 1.065258212375716e+001
 3.687647786612123e+000	 3.188554343593568e+000	 1.064743237337631e+001
 3.654469973691175e+000	 3.226526648202291e+000	 1.063981253676836e+001
 3.620890319603124e+000	 3.264165788312155e+000	 1.063000060585568e+001
 3.586913867959608e+000	 3.301465417664299e+000	 1.061828437949515e+001
 3.552545795398018e+000	 3.338419292390185e+000	 1.060496093342805e+001
 3.517791408966728e+000	 3.375021274482496e+000	 1.059033606058726e+001
 3.482656143402068e+000	 3.411265335185366e+000	 1.057472368304169e+001
 3.447145558300000e+000	 3.447145558300000e+000	 1.055844523695556e+001
 3.804130619112063e+000	 3.088460819374566e+000	 1.064229016990544e+001
 3.772023411951127e+000	 3.127593224796924e+000	 1.063634805670347e+001
 3.739497921310627e+000	 3.166410475071080e+000	 1.063705991858559e+001
 3.706558800902476e+000	 3.204905904328530e+000	 1.063203101349652e+001
 3.673210845351445e+000	 3.243072938704702e+000	 1.062504374230004e+001
 3.639458987909292e+000	 3.280905100046127e+000	 1.061640066563728e+001
 3.605308298052332e+000	 3.318396009549028e+000	 1.060641381831984e+001
 3.570763978964817e+000	 3.355539391325028e+000	 1.059540414882967e+001
 3.535831364910751e+000	 3.392329075889852e+000	 1.058370092934406e+001
 3.500515918496910e+000	 3.428759003570936e+000	 1.057164113762307e+001
 3.464823227830000e+000	 3.464823227830000e+000	 1.055956881219487e+001
 3.823539448800127e+000	 3.104218272532597e+000	 1.062447967426461e+001
 3.791268429358279e+000	 3.143550333084867e+000	 1.061753581396173e+001
 3.758576992337398e+000	 3.182565630554511e+000	 1.061744898693577e+001
 3.725469815192830e+000	 3.221257465063492e+000	 1.061429087771897e+001
 3.691951717011711e+000	 3.259619229207110e+000	 1.060825683825108e+001
 3.658027656215458e+000	 3.297644411780099e+000	 1.060109372976839e+001
 3.623702728145057e+000	 3.335326601433757e+000	 1.059313772332729e+001
 3.588982162531615e+000	 3.372659490259871e+000	 1.058473354894841e+001
 3.553871320854773e+000	 3.409636877297208e+000	 1.057623387540267e+001
 3.518375693591751e+000	 3.446252671956504e+000	 1.056799866207149e+001
 3.482500897360000e+000	 3.482500897360000e+000	 1.056039448437486e+001
 3.842948278488191e+000	 3.119975725690628e+000	 1.060508512705022e+001
 3.810513446765430e+000	 3.159507441372810e+000	 1.059793990292421e+001
 3.777656063364171e+000	 3.198720786037943e+000	 1.059504076583253e+001
 3.744380829483184e+000	 3.237609025798454e+000	 1.059428532424371e+001
 3.710692588671981e+000	 3.276165519709522e+000	 1.058952025256257e+001
 3.676596324521625e+000	 3.314383723514069e+000	 1.058414337252551e+001
 3.642097158237780e+000	 3.352257193318485e+000	 1.057851489443083e+001
 3.607200346098414e+000	 3.389779589194716e+000	 1.057300324130769e+001
 3.571911276798798e+000	 3.426944678704564e+000	 1.056798439850368e+001
 3.536235468686593e+000	 3.463746340342071e+000	 1.056384123554523e+001
 3.500178566889999e+000	 3.500178566889999e+000	 1.056096280182189e+001
 3.862357108176255e+000	 3.135733178848658e+000	 1.058667647830513e+001
 3.829758464172582e+000	 3.175464549660754e+000	 1.057754864719244e+001
 3.796735134390942e+000	 3.214875941521374e+000	 1.057215637280248e+001
 3.763291843773539e+000	 3.253960586533416e+000	 1.057049872666862e+001
 3.729433460332249e+000	 3.292711810211932e+000	 1.056890198456674e+001
 3.695164992827791e+000	 3.331123035248041e+000	 1.056561283238031e+001
 3.660491588330504e+000	 3.369187785203213e+000	 1.056260388641300e+001
 3.625418529665213e+000	 3.406899688129559e+000	 1.056026717679884e+001
 3.589951232742822e+000	 3.444252480111921e+000	 1.055900192803518e+001
 3.554095243781433e+000	 3.481240008727640e+000	 1.055921385086768e+001
 3.517856236419999e+000	 3.517856236419999e+000	 1.056131440824232e+001
 3.881765937864321e+000	 3.151490632006690e+000	 1.056825813392598e+001
 3.849003481579734e+000	 3.191421657948697e+000	 1.055634966902188e+001
 3.815814205417716e+000	 3.231031097004806e+000	 1.054877887348914e+001
 3.782202858063893e+000	 3.270312147268379e+000	 1.054556230284650e+001
 3.748174331992518e+000	 3.309258100714341e+000	 1.054646961570209e+001
 3.713733661133959e+000	 3.347862346982013e+000	 1.054556502039479e+001
 3.678886018423229e+000	 3.386118377087943e+000	 1.054546301505384e+001
 3.643636713232013e+000	 3.424019787064404e+000	 1.054657915359694e+001
 3.607991188686845e+000	 3.461560281519278e+000	 1.054933582479141e+001
 3.571955018876275e+000	 3.498733677113209e+000	 1.055416151418577e+001
 3.535533905950000e+000	 3.535533905950000e+000	 1.056149004033800e+001
 3.358757210650000e+000	 3.358757210650000e+000	 1.054694661630720e+001
 3.323796993257525e+000	 3.393357267927863e+000	 1.053888128927970e+001
 3.288482267445717e+000	 3.427591629246607e+000	 1.053097887517398e+001
 3.252818797715964e+000	 3.461454877564024e+000	 1.052348002223691e+001
 3.216812458240656e+000	 3.494941717495988e+000	 1.051662937055612e+001
 3.180469229642301e+000	 3.528046978072291e+000	 1.051067495992945e+001
 3.143795195690242e+000	 3.560765615389833e+000	 1.050586762260382e+001
 3.106796539918756e+000	 3.593092715160352e+000	 1.049905439705526e+001
 3.069479542170489e+000	 3.625023495149993e+000	 1.048587049906112e+001
 3.031850575069263e+000	 3.656553307508218e+000	 1.046692804528889e+001
 2.993916100426382e+000	 3.687677640983678e+000	 1.044048824573938e+001
 3.376434880180000e+000	 3.376434880180000e+000	 1.055016441700229e+001
 3.341290661643093e+000	 3.411217043022703e+000	 1.054484878583628e+001
 3.305790068853073e+000	 3.445631585190631e+000	 1.053889206143087e+001
 3.269938896650808e+000	 3.479673061130823e+000	 1.053252020881522e+001
 3.233743050125384e+000	 3.513336147588712e+000	 1.052596410254846e+001
 3.197208541376273e+000	 3.546615646378458e+000	 1.051945894320982e+001
 3.160341486192652e+000	 3.579506487050102e+000	 1.051324365731674e+001
 3.123148100653718e+000	 3.612003729450705e+000	 1.050724785275790e+001
 3.085634697653921e+000	 3.644102566176766e+000	 1.049283679682957e+001
 3.047807683357207e+000	 3.675798324915369e+000	 1.047196137657654e+001
 3.009673553584413e+000	 3.707086470671743e+000	 1.044282889877654e+001
 3.394112549710000e+000	 3.394112549710000e+000	 1.055288309247917e+001
 3.358784330028662e+000	 3.429076818117545e+000	 1.054998147322671e+001
 3.323097870260429e+000	 3.463671541134656e+000	 1.054564025426052e+001
 3.287058995585653e+000	 3.497891244697622e+000	 1.054007094800851e+001
 3.250673642010113e+000	 3.531730577681437e+000	 1.053349089227534e+001
 3.213947853110243e+000	 3.565184314684625e+000	 1.052612267508150e+001
 3.176887776695062e+000	 3.598247358710370e+000	 1.051819354148969e+001
 3.139499661388681e+000	 3.630914743741060e+000	 1.050993478405769e+001
 3.101789853137353e+000	 3.663181637203538e+000	 1.049634214415276e+001
 3.063764791645150e+000	 3.695043342322521e+000	 1.047350149741106e+001
 3.025431006742444e+000	 3.726495300359807e+000	 1.044166136628989e+001
 3.411790219240000e+000	 3.411790219240000e+000	 1.055514267571948e+001
 3.376277998414230e+000	 3.446936593212386e+000	 1.055432410890758e+001
 3.340405671667785e+000	 3.481711497078680e+000	 1.055127279319083e+001
 3.304179094520497e+000	 3.516109428264421e+000	 1.054618601721685e+001
 3.267604233894842e+000	 3.550125007774160e+000	 1.053926780911809e+001
 3.230687164844214e+000	 3.583752982990791e+000	 1.053072836942948e+001
 3.193434067197472e+000	 3.616988230370639e+000	 1.052078348455261e+001
 3.155851222123643e+000	 3.649825758031414e+000	 1.050965392240694e+001
 3.117945008620784e+000	 3.682260708230310e+000	 1.049618002252233e+001
 3.079721899933094e+000	 3.714288359729672e+000	 1.047134902324858e+001
 3.041188459900474e+000	 3.745904130047871e+000	 1.043679336973010e+001
 3.429467888769999e+000	 3.429467888769999e+000	 1.055698330816882e+001
 3.393771666799799e+000	 3.464796368307228e+000	 1.055792145335042e+001
 3.357713473075141e+000	 3.499751453022703e+000	 1.055583891776274e+001
 3.321299193455340e+000	 3.534327611831218e+000	 1.055091899334754e+001
 3.284534825779571e+000	 3.568519437866885e+000	 1.054335262400311e+001
 3.247426476578186e+000	 3.602321651296958e+000	 1.053333784631090e+001
 3.209980357699882e+000	 3.635729102030906e+000	 1.052107920936842e+001
 3.172202782858606e+000	 3.668736772321768e+000	 1.050678717536980e+001
 3.134100164104216e+000	 3.701339779257082e+000	 1.049067750263724e+001
 3.095679008221037e+000	 3.733533377136823e+000	 1.046530382097545e+001
 3.056945913058505e+000	 3.765312959735935e+000	 1.044841096184054e+001
 3.447145558300000e+000	 3.447145558300000e+000	 1.055844523695556e+001
 3.411265335185366e+000	 3.482656143402068e+000	 1.056081826996441e+001
 3.375021274482497e+000	 3.517791408966727e+000	 1.055938777009399e+001
 3.338419292390183e+000	 3.552545795398019e+000	 1.055432325795598e+001
 3.301465417664299e+000	 3.586913867959607e+000	 1.054580281705448e+001
 3.264165788312155e+000	 3.620890319603124e+000	 1.053401254205329e+001
 3.226526648202291e+000	 3.654469973691175e+000	 1.051914596470891e+001
 3.188554343593566e+000	 3.687647786612121e+000	 1.050140345911262e+001
 3.150255319587648e+000	 3.720418850283854e+000	 1.048099162794996e+001
 3.111636116508981e+000	 3.752778394543975e+000	 1.045846429552465e+001
 3.072703366216536e+000	 3.784721789423999e+000	 1.045952885930050e+001
 3.464823227830000e+000	 3.464823227830000e+000	 1.055956881219487e+001
 3.428759003570936e+000	 3.500515918496910e+000	 1.056305932502147e+001
 3.392329075889854e+000	 3.535831364910751e+000	 1.056196839736445e+001
 3.355539391325027e+000	 3.570763978964816e+000	 1.055645200222910e+001
 3.318396009549028e+000	 3.605308298052332e+000	 1.054667558501246e+001
 3.280905100046127e+000	 3.639458987909291e+000	 1.053281351904358e+001
 3.243072938704701e+000	 3.673210845351444e+000	 1.051504853734906e+001
 3.204905904328530e+000	 3.706558800902475e+000	 1.049357114228932e+001
 3.166410475071079e+000	 3.739497921310626e+000	 1.046857899477986e+001
 3.127593224796923e+000	 3.772023411951127e+000	 1.046569722494523e+001
 3.088460819374566e+000	 3.804130619112063e+000	 1.046462739437154e+001
 3.482500897360000e+000	 3.482500897360000e+000	 1.056039448437486e+001
 3.446252671956504e+000	 3.518375693591751e+000	 1.056468938758357e+001
 3.409636877297208e+000	 3.553871320854773e+000	 1.056362975422563e+001
 3.372659490259871e+000	 3.588982162531616e+000	 1.055735823181707e+001
 3.335326601433757e+000	 3.623702728145057e+000	 1.054602784842595e+001
 3.297644411780098e+000	 3.658027656215457e+000	 1.052980147521900e+001
 3.259619229207111e+000	 3.691951717011712e+000	 1.050885126379278e+001
 3.221257465063493e+000	 3.725469815192830e+000	 1.048335805993766e+001
 3.182565630554511e+000	 3.758576992337399e+000	 1.046262961352019e+001
 3.143550333084867e+000	 3.791268429358279e+000	 1.046587021705175e+001
 3.104218272532596e+000	 3.823539448800127e+000	 1.046388304357349e+001
 3.500178566889999e+000	 3.500178566889999e+000	 1.056096280182189e+001
 3.463746340342071e+000	 3.536235468686592e+000	 1.056575322943228e+001
 3.426944678704565e+000	 3.571911276798797e+000	 1.056442070513731e+001
 3.389779589194716e+000	 3.607200346098415e+000	 1.055709477151856e+001
 3.352257193318486e+000	 3.642097158237780e+000	 1.054391625862697e+001
 3.314383723514069e+000	 3.676596324521625e+000	 1.052503675327026e+001
 3.276165519709521e+000	 3.710692588671980e+000	 1.050061804164339e+001
 3.237609025798454e+000	 3.744380829483184e+000	 1.047083152695434e+001
 3.198720786037942e+000	 3.777656063364171e+000	 1.046443566029392e+001
 3.159507441372810e+000	 3.810513446765430e+000	 1.046203667537114e+001
 3.119975725690628e+000	 3.842948278488191e+000	 1.045747153440350e+001
 3.517856236419999e+000	 3.517856236419999e+000	 1.056131440824232e+001
 3.481240008727641e+000	 3.554095243781433e+000	 1.056629562500043e+001
 3.444252480111921e+000	 3.589951232742822e+000	 1.056439002663365e+001
 3.406899688129559e+000	 3.625418529665214e+000	 1.055571426982475e+001
 3.369187785203214e+000	 3.660491588330505e+000	 1.054039720449502e+001
 3.331123035248041e+000	 3.695164992827792e+000	 1.051857934956745e+001
 3.292711810211932e+000	 3.729433460332249e+000	 1.049041234063128e+001
 3.253960586533416e+000	 3.763291843773537e+000	 1.046863495857767e+001
 3.214875941521374e+000	 3.796735134390943e+000	 1.046261086915256e+001
 3.175464549660754e+000	 3.829758464172582e+000	 1.045429709797568e+001
 3.135733178848659e+000	 3.862357108176256e+000	 1.044396192349562e+001
 3.535533905950000e+000	 3.535533905950000e+000	 1.056149004033800e+001
 3.498733677113209e+000	 3.571955018876275e+000	 1.056636135130586e+001
 3.461560281519278e+000	 3.607991188686845e+000	 1.056358640952134e+001
 3.424019787064404e+000	 3.643636713232013e+000	 1.055326920332703e+001
 3.386118377087943e+000	 3.678886018423229e+000	 1.053552681901826e+001
 3.347862346982013e+000	 3.713733661133959e+000	 1.051048892281799e+001
 3.309258100714341e+000	 3.748174331992518e+000	 1.047829721331074e+001
 3.270312147268379e+000	 3.782202858063893e+000	 1.046866113921551e+001
 3.231031097004806e+000	 3.815814205417716e+000	 1.045725232041021e+001
 3.191421657948698e+000	 3.849003481579734e+000	 1.044275134112398e+001
 3.151490632006690e+000	 3.881765937864321e+000	 1.042542245096787e+001
 2.993916100426382e+000	 3.687677640983678e+000	 1.044048824573938e+001
 2.955682665584793e+000	 3.718392123024356e+000	 1.041017768948263e+001
 2.917156899705098e+000	 3.748692521761566e+000	 1.036085538034547e+001
 2.878345509997805e+000	 3.778574747875074e+000	 1.035585962752922e+001
 2.839255277906680e+000	 3.808034856336499e+000	 1.034707572165174e+001
 2.799893055247307e+000	 3.837069048031190e+000	 1.033270972709915e+001
 2.760265760305475e+000	 3.865673671256816e+000	 1.031361471457801e+001
 2.720380373899950e+000	 3.893845223097610e+000	 1.029064018996253e+001
 2.680243935414236e+000	 3.921580350673420e+000	 1.026462952618413e+001
 2.639863538801905e+000	 3.948875852262866e+000	 1.023641741625149e+001
 2.599246328570120e+000	 3.975728678300154e+000	 1.020682735442012e+001
 3.009673553584413e+000	 3.707086470671743e+000	 1.044282889877654e+001
 2.971238890138199e+000	 3.737962607880507e+000	 1.040689185338589e+001
 2.932510357069496e+000	 3.768422482400055e+000	 1.038774965182997e+001
 2.893494696889920e+000	 3.798461983387418e+000	 1.038230568771600e+001
 2.854198726735048e+000	 3.828077145050905e+000	 1.037088706257179e+001
 2.814629334482651e+000	 3.857264148280524e+000	 1.035438321592607e+001
 2.774793474830546e+000	 3.886019322154459e+000	 1.033368217403950e+001
 2.734698165338653e+000	 3.914339145320546e+000	 1.030966790570068e+001
 2.694350482439861e+000	 3.942220247251892e+000	 1.028321769288606e+001
 2.653757557424342e+000	 3.969659409375954e+000	 1.025519952355714e+001
 2.612926572401926e+000	 3.996653566076591e+000	 1.022646951375479e+001
 3.025431006742444e+000	 3.726495300359807e+000	 1.044166136628989e+001
 2.986795114691609e+000	 3.757533092736663e+000	 1.041273519416213e+001
 2.947863814433914e+000	 3.788152443038567e+000	 1.041069718992770e+001
 2.908643883782081e+000	 3.818349218899807e+000	 1.040221401939701e+001
 2.869142175563498e+000	 3.848119433765391e+000	 1.038820999660554e+001
 2.829365613718121e+000	 3.877459248529986e+000	 1.036961031318798e+001
 2.789321189355799e+000	 3.906364973052286e+000	 1.034733832315286e+001
 2.749015956777603e+000	 3.934833067543729e+000	 1.032231283586985e+001
 2.708457029465810e+000	 3.962860143830687e+000	 1.029544542478016e+001
 2.667651576047185e+000	 3.990442966489449e+000	 1.026763775924896e+001
 2.626606816234234e+000	 4.017578453853528e+000	 1.023977896686114e+001
 3.041188459900474e+000	 3.745904130047871e+000	 1.043679336973010e+001
 3.002351339245025e+000	 3.777103577592825e+000	 1.043265449245337e+001
 2.963217271798352e+000	 3.807882403677097e+000	 1.042721956464287e+001
 2.923793070674288e+000	 3.838236454412244e+000	 1.041574915970205e+001
 2.884085624392029e+000	 3.868161722479959e+000	 1.039920406801218e+001
 2.844101892953717e+000	 3.897654348779572e+000	 1.037854560359680e+001
 2.803848903881234e+000	 3.926710623950293e+000	 1.035473282466182e+001
 2.763333748216802e+000	 3.955326989767160e+000	 1.032871976305336e+001
 2.722563576492080e+000	 3.983500040409804e+000	 1.030145267029360e+001
 2.681545594670438e+000	 4.011226523603352e+000	 1.027386728776046e+001
 2.640287060067045e+000	 4.038503341630969e+000	 1.024688614845643e+001
 3.056945913058505e+000	 3.765312959735935e+000	 1.044841096184054e+001
 3.017907563798445e+000	 3.796674062448990e+000	 1.044626247889094e+001
 2.978570729162810e+000	 3.827612364315648e+000	 1.043748561280396e+001
 2.938942257566540e+000	 3.858123689924723e+000	 1.042307497527769e+001
 2.899029073220639e+000	 3.888204011194608e+000	 1.040402820071213e+001
 2.858838172189439e+000	 3.917849449029285e+000	 1.038134310005926e+001
 2.818376618406850e+000	 3.947056274848481e+000	 1.035601481640838e+001
 2.777651539656245e+000	 3.975820911990836e+000	 1.032903299018798e+001
 2.736670123518674e+000	 4.004139936989244e+000	 1.030137894179635e+001
 2.695439613294097e+000	 4.032010080717662e+000	 1.027402287937554e+001
 2.653967303900358e+000	 4.059428229408913e+000	 1.024792113931928e+001
 3.072703366216536e+000	 3.784721789423999e+000	 1.045952885930050e+001
 3.033463788351870e+000	 3.816244547305160e+000	 1.045373222803368e+001
 2.993924186527289e+000	 3.847342324954219e+000	 1.044166346754008e+001
 2.954091444458838e+000	 3.878010925437250e+000	 1.042435467947914e+001
 2.913972522049332e+000	 3.908246299909337e+000	 1.040284071419299e+001
 2.873574451425288e+000	 3.938044549279125e+000	 1.037815625833856e+001
 2.832904332932649e+000	 3.967401925746852e+000	 1.035133292479194e+001
 2.791969331095936e+000	 3.996314834214760e+000	 1.032339635286250e+001
 2.750776670545588e+000	 4.024779833569006e+000	 1.029536332678214e+001
 2.709333631918164e+000	 4.052793637832379e+000	 1.026823892033494e+001
 2.667647547734174e+000	 4.080353117187359e+000	 1.024301367536503e+001
 3.088460819374566e+000	 3.804130619112063e+000	 1.046462739437154e+001
 3.049020012905300e+000	 3.835815032161337e+000	 1.045523607808112e+001
 3.009277643891787e+000	 3.867072285592808e+000	 1.043992057623246e+001
 2.969240631351180e+000	 3.897898160949821e+000	 1.041975084903577e+001
 2.928915970878104e+000	 3.928288588624146e+000	 1.039579933892883e+001
 2.888310730661264e+000	 3.958239649529090e+000	 1.036913799126723e+001
 2.847432047458628e+000	 3.987747576645405e+000	 1.034083527781626e+001
 2.806287122535875e+000	 4.016808756438931e+000	 1.031195323123991e+001
 2.764883217572826e+000	 4.045419730149088e+000	 1.028354449870712e+001
 2.723227650542639e+000	 4.073577194947505e+000	 1.025664942263324e+001
 2.681327791568492e+000	 4.101278004966307e+000	 1.023229315644329e+001
 3.104218272532596e+000	 3.823539448800127e+000	 1.046388304357349e+001
 3.064576237458737e+000	 3.855385517017518e+000	 1.045094564956283e+001
 3.024631101256306e+000	 3.886802246231421e+000	 1.043242371791922e+001
 2.984389818243570e+000	 3.917785396462439e+000	 1.040942544020923e+001
 2.943859419706957e+000	 3.948330877339037e+000	 1.038306123132979e+001
 2.903047009897364e+000	 3.978434749779182e+000	 1.035444068252707e+001
 2.861959761984790e+000	 4.008093227544139e+000	 1.032466951773909e+001
 2.820604913976060e+000	 4.037302678663349e+000	 1.029484656161640e+001
 2.778989764600386e+000	 4.066059626729496e+000	 1.026606072749845e+001
 2.737121669167521e+000	 4.094360752063039e+000	 1.023938803351752e+001
 2.695008035403313e+000	 4.122202892745759e+000	 1.021588865486751e+001
 3.119975725690628e+000	 3.842948278488191e+000	 1.045747153440350e+001
 3.080132462012176e+000	 3.874956001873703e+000	 1.044103186346137e+001
 3.039984558620846e+000	 3.906532206870053e+000	 1.041933902017276e+001
 2.999539005136003e+000	 3.937672631975102e+000	 1.039353980446182e+001
 2.958802868535893e+000	 3.968373166054009e+000	 1.036478298823857e+001
 2.917783289133592e+000	 3.998629850029400e+000	 1.033421620001158e+001
 2.876487476511133e+000	 4.028438878443054e+000	 1.030298281333849e+001
 2.834922705416493e+000	 4.057796600888015e+000	 1.027221884763011e+001
 2.793096311628267e+000	 4.086699523310224e+000	 1.024304988974440e+001
 2.751015687792810e+000	 4.115144309178978e+000	 1.021658804469814e+001
 2.708688279238637e+000	 4.143127780525714e+000	 1.019392892368610e+001
 3.135733178848659e+000	 3.862357108176256e+000	 1.044396192349562e+001
 3.095688686565623e+000	 3.894526486729895e+000	 1.042566495878893e+001
 3.055338015985406e+000	 3.926262167508705e+000	 1.040083197546819e+001
 3.014688192028483e+000	 3.957559867487810e+000	 1.037225470365234e+001
 2.973746317364908e+000	 3.988415454769062e+000	 1.034112066098996e+001
 2.932519568369945e+000	 4.018824950279744e+000	 1.030861590878543e+001
 2.891015191037657e+000	 4.048784529342152e+000	 1.027592187180933e+001
 2.849240496857172e+000	 4.078290523112926e+000	 1.024421217113198e+001
 2.807202858656473e+000	 4.107339419891274e+000	 1.021464947857725e+001
 2.764909706418508e+000	 4.135927866295328e+000	 1.018838240128180e+001
 2.722368523074464e+000	 4.164052668306170e+000	 1.016654240470417e+001
 3.151490632006690e+000	 3.881765937864321e+000	 1.042542245096787e+001
 3.111244911119075e+000	 3.914096971586092e+000	 1.040501450963648e+001
 3.070691473349985e+000	 3.945992128147378e+000	 1.037706745706080e+001
 3.029837378921009e+000	 3.977447103000565e+000	 1.034573032477631e+001
 2.988689766194005e+000	 4.008457743484196e+000	 1.031222976904856e+001
 2.947255847606426e+000	 4.039020050530216e+000	 1.027779068365521e+001
 2.905542905564364e+000	 4.069130180241432e+000	 1.024363295030281e+001
 2.863558288298099e+000	 4.098784445338088e+000	 1.021096820273040e+001
 2.821309405685000e+000	 4.127979316472649e+000	 1.018099661325972e+001
 2.778803725044614e+000	 4.156711423412083e+000	 1.015490371043668e+001
 2.736048766910793e+000	 4.184977556087130e+000	 1.013385723626460e+001
 2.599246328570120e+000	 3.975728678300154e+000	 1.020682735442012e+001
 2.558399495745880e+000	 4.002135932245784e+000	 1.018628416094127e+001
 2.517330273829839e+000	 4.028094871329415e+000	 1.014879532180504e+001
 2.476045934742123e+000	 4.053602907166102e+000	 1.012046543542674e+001
 2.434553784764504e+000	 4.078657606247210e+000	 1.010463793490213e+001
 2.392861160483732e+000	 4.103256690304888e+000	 1.008461574821484e+001
 2.350975424740408e+000	 4.127398036551245e+000	 1.005936418418468e+001
 2.308903962587824e+000	 4.151079677793084e+000	 1.002786600167773e+001
 2.266654177265143e+000	 4.174299802423162e+000	 9.989123555440683e+000
 2.224233486189214e+000	 4.197056754289153e+000	 9.942160888614810e+000
 2.181649316969235e+000	 4.219349032441642e+000	 9.886025767069944e+000
 2.612926572401926e+000	 3.996653566076591e+000	 1.022646951375479e+001
 2.571864756247123e+000	 4.023199805569313e+000	 1.020475435635801e+001
 2.530579380531644e+000	 4.049295370648115e+000	 1.016786275580349e+001
 2.489077755448880e+000	 4.074937659304963e+000	 1.012687392885900e+001
 2.447367225734718e+000	 4.100124225223292e+000	 1.010885880348015e+001
 2.405455166589521e+000	 4.124852778144358e+000	 1.008848453955077e+001
 2.363348979605680e+000	 4.149121184107708e+000	 1.006470940027614e+001
 2.321056088705193e+000	 4.172927465566493e+000	 1.003650748367697e+001
 2.278583936091637e+000	 4.196269801378701e+000	 1.000287091139797e+001
 2.235939978220896e+000	 4.219146526675410e+000	 9.962811965728438e+000
 2.193131681794851e+000	 4.241556132607472e+000	 9.915365169852477e+000
 2.626606816234234e+000	 4.017578453853528e+000	 1.023977896686114e+001
 2.585330016748962e+000	 4.044263678893447e+000	 1.021722340036128e+001
 2.543828487234133e+000	 4.070495869967516e+000	 1.018124487785454e+001
 2.502109576156395e+000	 4.096272411444630e+000	 1.013258119755504e+001
 2.460180666705753e+000	 4.121590844200274e+000	 1.011113914414968e+001
 2.418049172696184e+000	 4.146448865984830e+000	 1.009094172616141e+001
 2.375722534471873e+000	 4.170844331665272e+000	 1.006915787039433e+001
 2.333208214823517e+000	 4.194775253341109e+000	 1.004475256131909e+001
 2.290513694919110e+000	 4.218239800335543e+000	 1.001670724606863e+001
 2.247646470253574e+000	 4.241236299063070e+000	 9.984022016519925e+000
 2.204614046621467e+000	 4.263763232774805e+000	 9.945717735993323e+000
 2.640287060067045e+000	 4.038503341630969e+000	 1.024688614845643e+001
 2.598795277251401e+000	 4.065327552218183e+000	 1.022381199834421e+001
 2.557077593937302e+000	 4.091696369287622e+000	 1.018905289898623e+001
 2.515141396864667e+000	 4.117607163585098e+000	 1.014339217702572e+001
 2.472994107677610e+000	 4.143057463178161e+000	 1.011136386031254e+001
 2.430643178803725e+000	 4.168044953826307e+000	 1.009186861617959e+001
 2.388096089338987e+000	 4.192567479223944e+000	 1.007258759685808e+001
 2.345360340942797e+000	 4.216623041116926e+000	 1.005247621954083e+001
 2.302443453747564e+000	 4.240209799293691e+000	 1.003050481423832e+001
 2.259352962287246e+000	 4.263326071452134e+000	 1.000566085147902e+001
 2.216096411449083e+000	 4.285970332943644e+000	 9.976951115995503e+000
 2.653967303900358e+000	 4.059428229408913e+000	 1.024792113931928e+001
 2.612260537754436e+000	 4.086391425543521e+000	 1.022464064454940e+001
 2.570326700641156e+000	 4.112896868608430e+000	 1.019139795658231e+001
 2.528173217573696e+000	 4.138941915726369e+000	 1.014902222669116e+001
 2.485807548650290e+000	 4.164524082156951e+000	 1.010941804070887e+001
 2.443237184912141e+000	 4.189641041668788e+000	 1.009114682447012e+001
 2.400469644207022e+000	 4.214290626783716e+000	 1.007487700466412e+001
 2.357512467063031e+000	 4.238470828893948e+000	 1.005955397642294e+001
 2.314373212576998e+000	 4.262179798253141e+000	 1.004413650879389e+001
 2.271059454321914e+000	 4.285415843842602e+000	 1.002759901862020e+001
 2.227578776277698e+000	 4.308177433113985e+000	 1.000893379175518e+001
 2.667647547734174e+000	 4.080353117187359e+000	 1.024301367536503e+001
 2.625725798258069e+000	 4.107455298869463e+000	 1.021982962748315e+001
 2.583575807345691e+000	 4.134097367929940e+000	 1.018839111627056e+001
 2.541205038283481e+000	 4.160276667868444e+000	 1.014957341940950e+001
 2.498620989623790e+000	 4.185990701136644e+000	 1.010518695466499e+001
 2.455831191021434e+000	 4.211237129512269e+000	 1.008865826476491e+001
 2.412843199075978e+000	 4.236013774344592e+000	 1.007590493064925e+001
 2.369664593184222e+000	 4.260318616672175e+000	 1.006586186951972e+001
 2.326302971407413e+000	 4.284149797213895e+000	 1.005747584436185e+001
 2.282765946357576e+000	 4.307505616234475e+000	 1.004970778457180e+001
 2.239061141107313e+000	 4.330384533285831e+000	 1.004153505524389e+001
 2.681327791568492e+000	 4.101278004966307e+000	 1.023229315644329e+001
 2.639191058762300e+000	 4.128519172196009e+000	 1.020949903516367e+001
 2.596824914050908e+000	 4.155297867252152e+000	 1.018014337375330e+001
 2.554236858994026e+000	 4.181611420011321e+000	 1.014514788361618e+001
 2.511434430598112e+000	 4.207457320117239e+000	 1.010541878030513e+001
 2.468425197131604e+000	 4.232833217356756e+000	 1.008428514203883e+001
 2.425216753945855e+000	 4.257736921906573e+000	 1.007555061298431e+001
 2.381816719306369e+000	 4.282166404451602e+000	 1.007127644260718e+001
 2.338232730238807e+000	 4.306119796175953e+000	 1.007039694144763e+001
 2.294472438394234e+000	 4.329595388627752e+000	 1.007185911624408e+001
 2.250543505937929e+000	 4.352591633459181e+000	 1.007462498784338e+001
 2.695008035403313e+000	 4.122202892745759e+000	 1.021588865486751e+001
 2.652656319267128e+000	 4.149583045523155e+000	 1.019376876020977e+001
 2.610074020756808e+000	 4.176498366575068e+000	 1.016676565658217e+001
 2.567268679705326e+000	 4.202946172155001e+000	 1.013584780191346e+001
 2.524247871573256e+000	 4.228923939098740e+000	 1.010196626665548e+001
 2.481019203242650e+000	 4.254429305202246e+000	 1.007790994511767e+001
 2.437590308816653e+000	 4.279460069469656e+000	 1.007369368098790e+001
 2.393968845429471e+000	 4.304014192232235e+000	 1.007567473283480e+001
 2.350162489071183e+000	 4.328089795139315e+000	 1.008277451105800e+001
 2.306178930431887e+000	 4.351685161022433e+000	 1.009392566305550e+001
 2.262025870769545e+000	 4.374798733634035e+000	 1.010807444030976e+001
 2.708688279238637e+000	 4.143127780525714e+000	 1.019392892368610e+001
 2.666121579772554e+000	 4.170646918850905e+000	 1.017275850477513e+001
 2.623323127463390e+000	 4.197698865898687e+000	 1.014836882587906e+001
 2.580300500417384e+000	 4.224280924299485e+000	 1.012177540970249e+001
 2.537061312549223e+000	 4.250390558081143e+000	 1.009397450692589e+001
 2.493613209354573e+000	 4.276025393048738e+000	 1.006941543951030e+001
 2.449963863688373e+000	 4.301183217033843e+000	 1.007021414524899e+001
 2.406120971553529e+000	 4.325861980014071e+000	 1.007893425826655e+001
 2.362092247904538e+000	 4.350059794103981e+000	 1.009448383978935e+001
 2.317885422470535e+000	 4.373774933418515e+000	 1.011578073969764e+001
 2.273508235602161e+000	 4.397005833810392e+000	 1.003821840535858e+001
 2.722368523074464e+000	 4.164052668306170e+000	 1.016654240470417e+001
 2.679586840278577e+000	 4.191710792179257e+000	 1.014658778533379e+001
 2.636572234170655e+000	 4.218899365223009e+000	 1.012506367800527e+001
 2.593332321130198e+000	 4.245615676444770e+000	 1.010303299385674e+001
 2.549874753526011e+000	 4.271857177064447e+000	 1.008153749437098e+001
 2.506207215467371e+000	 4.297621480896234e+000	 1.006159495634217e+001
 2.462337418561012e+000	 4.322906364599133e+000	 1.006499238804721e+001
 2.418273097678543e+000	 4.347709767797111e+000	 1.008093300579762e+001
 2.374022006738874e+000	 4.372029793069950e+000	 1.010540077536568e+001
 2.329591914510179e+000	 4.395864705816004e+000	 1.004683021691945e+001
 2.284990600435776e+000	 4.419212933988255e+000	 9.970888298213524e+000
 2.736048766910793e+000	 4.184977556087130e+000	 1.013385723626460e+001
 2.693052100785198e+000	 4.212774665508213e+000	 1.011537593732226e+001
 2.649821340878603e+000	 4.240099864548034e+000	 1.009696094618045e+001
 2.606364141843770e+000	 4.266950428590860e+000	 1.007972289143523e+001
 2.562688194503621e+000	 4.293323796048657e+000	 1.006474938115209e+001
 2.518801221581046e+000	 4.319217568744734e+000	 1.005310210393023e+001
 2.474710973434573e+000	 4.344629512165527e+000	 1.005790915406064e+001
 2.430425223804512e+000	 4.369557555581356e+000	 1.008154941943371e+001
 2.385951765574191e+000	 4.393999792037224e+000	 1.004012855486580e+001
 2.341298406550817e+000	 4.417954478214896e+000	 9.975463785407751e+000
 2.296472965270393e+000	 4.441420034167621e+000	 9.906924014142351e+000
 2.181649316969235e+000	 4.219349032441642e+000	 9.886025767069944e+000
 2.138909103449004e+000	 4.241175290762651e+000	 9.796911491799300e+000
 2.096020281778892e+000	 4.262534337476436e+000	 9.732666264657185e+000
 2.052990286523145e+000	 4.283425134544102e+000	 9.692567944201700e+000
 2.009826546807197e+000	 4.303846796944171e+000	 9.675891325328422e+000
 1.966536482506964e+000	 4.323798591841205e+000	 9.681910076564309e+000
 1.923127500484418e+000	 4.343279937644681e+000	 9.709898635614628e+000
 1.879606990872978e+000	 4.362290402960451e+000	 9.759134059018306e+000
 1.835982323416120e+000	 4.380829705437297e+000	 9.777562081073072e+000
 1.792260843862487e+000	 4.398897710511126e+000	 9.706116937478496e+000
 1.748449870420633e+000	 4.416494430049542e+000	 9.637575519618522e+000
 2.193131681794851e+000	 4.241556132607472e+000	 9.915365169852477e+000
 2.150166519782733e+000	 4.263497265972152e+000	 9.841661583378565e+000
 2.107051967472487e+000	 4.284968728721272e+000	 9.792534925685668e+000
 2.063795498557646e+000	 4.305969477352578e+000	 9.767233194131263e+000
 2.020404581264306e+000	 4.326498622186580e+000	 9.765001965514097e+000
 1.976886674520360e+000	 4.346555426530812e+000	 9.785086374315691e+000
 1.933249224171266e+000	 4.366139305733747e+000	 9.826733047536205e+000
 1.889499659245882e+000	 4.385249826130742e+000	 9.815959756570722e+000
 1.845645388275808e+000	 4.403886703884519e+000	 9.753592283019877e+000
 1.801693795671522e+000	 4.422049803722750e+000	 9.692876209215386e+000
 1.757652238158466e+000	 4.439739137575500e+000	 9.634718823768242e+000
 2.204614046621467e+000	 4.263763232774805e+000	 9.945717735993323e+000
 2.161423936117456e+000	 4.285819241183235e+000	 9.887435009160939e+000
 2.118083653167060e+000	 4.307403119967731e+000	 9.853442339258846e+000
 2.074600710593102e+000	 4.328513820162675e+000	 9.842957564884653e+000
 2.030982615722333e+000	 4.349150447430567e+000	 9.855196747240834e+000
 1.987236866534630e+000	 4.369312261221915e+000	 9.889376189823619e+000
 1.943370947858931e+000	 4.388998673824185e+000	 9.849362417045224e+000
 1.899392327619537e+000	 4.408209249302242e+000	 9.785256901903161e+000
 1.855308453136171e+000	 4.426943702332746e+000	 9.732393424170063e+000
 1.811126747481146e+000	 4.445201896935138e+000	 9.682145216226409e+000
 1.766854605896794e+000	 4.462983845101943e+000	 9.634118397775033e+000
 2.216096411449083e+000	 4.285970332943644e+000	 9.976951115995503e+000
 2.172681352453174e+000	 4.308141216395904e+000	 9.934104192144512e+000
 2.129115338862615e+000	 4.329837511215812e+000	 9.915265641986878e+000
 2.085405922629511e+000	 4.351058162974391e+000	 9.919622844533814e+000
 2.041560650181279e+000	 4.371802272676131e+000	 9.946362044692865e+000
 1.997587058549771e+000	 4.392069095914510e+000	 9.884178914351409e+000
 1.953492671547413e+000	 4.411858041915995e+000	 9.815069749423087e+000
 1.909284995993943e+000	 4.431168672474952e+000	 9.758535496297178e+000
 1.864971517997210e+000	 4.450000700781982e+000	 9.713997628487626e+000
 1.820559699291361e+000	 4.468353990148293e+000	 9.673955644395550e+000
 1.776056973635617e+000	 4.486228552628871e+000	 9.635805441092973e+000
 2.227578776277698e+000	 4.308177433113985e+000	 1.000893379175518e+001
 2.183938768789886e+000	 4.330463191610154e+000	 9.981542337904932e+000
 2.140147024559148e+000	 4.352271902465517e+000	 9.977882705657040e+000
 2.096211134666874e+000	 4.373602505787726e+000	 9.997111510357168e+000
 2.052138684641143e+000	 4.394454097923273e+000	 9.919135549264153e+000
 2.007937250565785e+000	 4.414825930608601e+000	 9.845715235720419e+000
 1.963614395236711e+000	 4.434717410009177e+000	 9.784682860312273e+000
 1.919177664369100e+000	 4.454128095648869e+000	 9.735698573255203e+000
 1.874634582858924e+000	 4.473057699232222e+000	 9.698437501189517e+000
 1.829992651102166e+000	 4.491506083362213e+000	 9.668339623724910e+000
 1.785259341374934e+000	 4.509473260156284e+000	 9.639811561665240e+000
 2.239061141107313e+000	 4.330384533285831e+000	 1.004153505524389e+001
 2.195196185127593e+000	 4.352785166825989e+000	 1.002962341452937e+001
 2.151178710256661e+000	 4.374706293716842e+000	 1.004117211838297e+001
 2.107016346705191e+000	 4.396146848602682e+000	 9.953051307038363e+000
 2.062716719101926e+000	 4.417105923171991e+000	 9.875938422989394e+000
 2.018287442582672e+000	 4.437582765304187e+000	 9.811077304453903e+000
 1.973736118926827e+000	 4.457576778103730e+000	 9.758101234877925e+000
 1.929070332745009e+000	 4.477087518823997e+000	 9.716649672835123e+000
 1.884297647721313e+000	 4.496114697683471e+000	 9.686369589724638e+000
 1.839425602913561e+000	 4.514658176576894e+000	 9.665329716946967e+000
 1.794461709114746e+000	 4.532717967684179e+000	 9.646168765449964e+000
 2.250543505937929e+000	 4.352591633459181e+000	 1.007462498784338e+001
 2.206453601466296e+000	 4.375107142043407e+000	 1.007767109731716e+001
 2.162210395955153e+000	 4.397140684969789e+000	 9.984841954539284e+000
 2.117821558744462e+000	 4.418691191419257e+000	 9.904578480504798e+000
 2.073294753563626e+000	 4.439757748422287e+000	 9.836482797523534e+000
 2.028637634600432e+000	 4.460339600001269e+000	 9.780161056121616e+000
 1.983857842617759e+000	 4.480436146199654e+000	 9.735224890014521e+000
 1.938963001121667e+000	 4.500046942000331e+000	 9.701292828727933e+000
 1.893960712584378e+000	 4.519171696135725e+000	 9.677991664599066e+000
 1.848858554725545e+000	 4.537810269792345e+000	 9.664958908485550e+000
 1.803664076855054e+000	 4.555962675212561e+000	 9.654909446266885e+000
 2.262025870769545e+000	 4.374798733634035e+000	 1.010807444030976e+001
 2.217711017805993e+000	 4.397429117262409e+000	 1.001352398636928e+001
 2.173242081654625e+000	 4.419575076224358e+000	 9.930572790432256e+000
 2.128626770784688e+000	 4.441235534237453e+000	 9.859758854222079e+000
 2.083872788026245e+000	 4.462409573674162e+000	 9.800661061849652e+000
 2.038987826619063e+000	 4.483096434699841e+000	 9.752862983025221e+000
 1.993979566309508e+000	 4.503295514296951e+000	 9.715954360850072e+000
 1.948855669499078e+000	 4.523006365177878e+000	 9.689532555729018e+000
 1.903623777448118e+000	 4.542228694588987e+000	 9.673203942083019e+000
 1.858291506538120e+000	 4.560962363008559e+000	 9.667260593753039e+000
 1.812866444595856e+000	 4.579207382741427e+000	 9.666066375953047e+000
 2.273508235602161e+000	 4.397005833810392e+000	 1.003821840535858e+001
 2.228968434146685e+000	 4.419751092482993e+000	 9.952960898982939e+000
 2.184273767355075e+000	 4.442009467480548e+000	 9.879864649227768e+000
 2.139431982825867e+000	 4.463779877057269e+000	 9.818481277782519e+000
 2.094450822489782e+000	 4.485061398927612e+000	 9.768366186474552e+000
 2.049338018638567e+000	 4.505853269399911e+000	 9.729080120139336e+000
 2.004101290002073e+000	 4.526154882395619e+000	 9.700190687659513e+000
 1.958748337877239e+000	 4.545965788356631e+000	 9.681273837589021e+000
 1.913286842312534e+000	 4.565285693043253e+000	 9.671915284987643e+000
 1.867724458351285e+000	 4.584114456225539e+000	 9.672268568771871e+000
 1.822068812337153e+000	 4.602452090270778e+000	 9.679672694816992e+000
 2.284990600435776e+000	 4.419212933988255e+000	 9.970888298213524e+000
 2.240225850488372e+000	 4.442073067705161e+000	 9.895862972942698e+000
 2.195305453056506e+000	 4.464443858738362e+000	 9.832602852432052e+000
 2.150237194868000e+000	 4.486324219878704e+000	 9.780635206846538e+000
 2.105028856954237e+000	 4.507713224182639e+000	 9.739491708817596e+000
 2.059688210658944e+000	 4.528610104101474e+000	 9.708710031476548e+000
 2.014223013695456e+000	 4.549014250495659e+000	 9.687835403172530e+000
 1.968641006256151e+000	 4.568925211536594e+000	 9.676422115231079e+000
 1.922949907177625e+000	 4.588342691498529e+000	 9.674034979323787e+000
 1.877157410165040e+000	 4.607266549443284e+000	 9.680250731240502e+000
 1.831271180078945e+000	 4.625696797800614e+000	 9.695761902380609e+000
 2.296472965270393e+000	 4.441420034167621e+000	 9.906924014142351e+000
 2.251483266831054e+000	 4.464395042928913e+000	 9.842112017004677e+000
 2.206337138758916e+000	 4.486878249997798e+000	 9.788673351882361e+000
 2.161042406911087e+000	 4.508868562701761e+000	 9.746110687990949e+000
 2.115606891419611e+000	 4.530365049439245e+000	 9.713931719037872e+000
 2.070038402680193e+000	 4.551366938804532e+000	 9.691650796861467e+000
 2.024344737389655e+000	 4.571873618597071e+000	 9.678790520262215e+000
 1.978533674635815e+000	 4.591884634717767e+000	 9.674883275321426e+000
 1.932612972043392e+000	 4.611399689954811e+000	 9.679472723722148e+000
 1.886590361979385e+000	 4.630418642661794e+000	 9.692115235812823e+000
 1.840473547821232e+000	 4.648941505330933e+000	 9.714367848398871e+000
 1.748449870420633e+000	 4.416494430049542e+000	 9.637575519618522e+000
 1.704556690275469e+000	 4.433620020899308e+000	 9.574726754567340e+000
 1.660588556172508e+000	 4.450274783340313e+000	 9.517312813491547e+000
 1.616552683069939e+000	 4.466459159448743e+000	 9.466187814362698e+000
 1.572456244859625e+000	 4.482173731371831e+000	 9.422161345685854e+000
 1.528306371162558e+000	 4.497419219518086e+000	 9.385997457719787e+000
 1.484110144199970e+000	 4.512196480665969e+000	 9.358413765608409e+000
 1.439874595742234e+000	 4.526506505994299e+000	 9.340080664458563e+000
 1.395606704137587e+000	 4.540350419037734e+000	 9.331620656089523e+000
 1.351313391422532e+000	 4.553729473570638e+000	 9.333607786878513e+000
 1.307001520515620e+000	 4.566645051422786e+000	 9.346567195834279e+000
 1.757652238158466e+000	 4.439739137575500e+000	 9.634718823768242e+000
 1.713528041275271e+000	 4.456954863114908e+000	 9.582475625586660e+000
 1.669328495939905e+000	 4.473697282201146e+000	 9.534070600077367e+000
 1.625060855084024e+000	 4.489966839237116e+000	 9.490364526906518e+000
 1.580732330356815e+000	 4.505764119433992e+000	 9.452174643209220e+000
 1.536350088903590e+000	 4.521089846991899e+000	 9.420273598658410e+000
 1.491921250220426e+000	 4.535944883198664e+000	 9.395388522426245e+000
 1.447452883087016e+000	 4.550330224449835e+000	 9.378200202142166e+000
 1.402952002579742e+000	 4.564247000193416e+000	 9.369342374639466e+000
 1.358425567166879e+000	 4.577696470802579e+000	 9.369401127977726e+000
 1.313880475887600e+000	 4.590680025379892e+000	 9.378914413933424e+000
 1.766854605896794e+000	 4.462983845101943e+000	 9.634118397775033e+000
 1.722499392275472e+000	 4.480289705330701e+000	 9.591931651461785e+000
 1.678068435707619e+000	 4.497119781061904e+000	 9.552008706945951e+000
 1.633569027098352e+000	 4.513474519025167e+000	 9.515217341754131e+000
 1.589008415854182e+000	 4.529354507495599e+000	 9.482382756354408e+000
 1.544393806644744e+000	 4.544760474464952e+000	 9.454286492904123e+000
 1.499732356240960e+000	 4.559693285730408e+000	 9.431665465906058e+000
 1.455031170431841e+000	 4.574153942904255e+000	 9.415211104946106e+000
 1.410297301021917e+000	 4.588143581347830e+000	 9.405568609369995e+000
 1.365537742911231e+000	 4.601663468033123e+000	 9.403336314449446e+000
 1.320759431259581e+000	 4.614714999335489e+000	 9.409065168289565e+000
 1.776056973635617e+000	 4.486228552628871e+000	 9.635805441092973e+000
 1.731470743276074e+000	 4.503624547546692e+000	 9.603130219549072e+000
 1.686808375475648e+000	 4.520542279922586e+000	 9.571166448378948e+000
 1.642077199112920e+000	 4.536982198812895e+000	 9.540789240314048e+000
 1.597284501351727e+000	 4.552944895556654e+000	 9.512832075159665e+000
 1.552437524386020e+000	 4.568431101937240e+000	 9.488085682048373e+000
 1.507543462261574e+000	 4.583441688261202e+000	 9.467297033652246e+000
 1.462609457776710e+000	 4.597977661357555e+000	 9.451168452595635e+000
 1.417642599464111e+000	 4.612040162500976e+000	 9.440356829991712e+000
 1.372649918655588e+000	 4.625630465262271e+000	 9.435472955715259e+000
 1.327638386631561e+000	 4.638749973289583e+000	 9.437080959723087e+000
 1.785259341374934e+000	 4.509473260156284e+000	 9.639811561665240e+000
 1.740442094277075e+000	 4.526959389762877e+000	 9.616106994240729e+000
 1.695548315243992e+000	 4.543964778783195e+000	 9.591583290218813e+000
 1.650585371127729e+000	 4.560489878600298e+000	 9.567123236076748e+000
 1.605560586849447e+000	 4.576535283617154e+000	 9.543568908276766e+000
 1.560481242127419e+000	 4.592101729408770e+000	 9.521720518848415e+000
 1.515354568282264e+000	 4.607190090791048e+000	 9.502335373014571e+000
 1.470187745121624e+000	 4.621801379809735e+000	 9.486126939171285e+000
 1.424987897906324e+000	 4.635936743652854e+000	 9.473764031209919e+000
 1.379762094399950e+000	 4.649597462490021e+000	 9.465870102856203e+000
 1.334517342003541e+000	 4.662784947242169e+000	 9.463022653395937e+000
 1.794461709114746e+000	 4.532717967684179e+000	 9.646168765449964e+000
 1.749413445278476e+000	 4.550294231979255e+000	 9.630897909861361e+000
 1.704288255012651e+000	 4.567387277643729e+000	 9.613298845982730e+000
 1.659093543142779e+000	 4.583997558387379e+000	 9.594262373792125e+000
 1.613836672347344e+000	 4.600125671677105e+000	 9.574639485057830e+000
 1.568524959868940e+000	 4.615772356879540e+000	 9.555240172069155e+000
 1.523165674303032e+000	 4.630938493319944e+000	 9.536832348530604e+000
 1.477766032466580e+000	 4.645625098260799e+000	 9.520140882997117e+000
 1.432333196348558e+000	 4.659833324803467e+000	 9.505846744904234e+000
 1.386874270144317e+000	 4.673564459716376e+000	 9.494586262929134e+000
 1.341396297375522e+000	 4.686819921193250e+000	 9.486950495110589e+000
 1.803664076855054e+000	 4.555962675212561e+000	 9.654909446266885e+000
 1.758384796280277e+000	 4.573629074195829e+000	 9.647539163781847e+000
 1.713028194781627e+000	 4.590809776504190e+000	 9.636352873095275e+000
 1.667601715158070e+000	 4.607505238174136e+000	 9.622249728672074e+000
 1.622112757845418e+000	 4.623716059736503e+000	 9.606089957578316e+000
 1.576568677610583e+000	 4.639442984349548e+000	 9.588693631176888e+000
 1.530976780323879e+000	 4.654686895847889e+000	 9.570839549140279e+000
 1.485344319811581e+000	 4.669448816710744e+000	 9.553264236226385e+000
 1.439678494790811e+000	 4.683729905952811e+000	 9.536661051935360e+000
 1.393986445888689e+000	 4.697531456941334e+000	 9.521679412844929e+000
 1.348275252747503e+000	 4.710854895142822e+000	 9.508924127109959e+000
 1.812866444595856e+000	 4.579207382741427e+000	 9.666066375953047e+000
 1.767356147282479e+000	 4.596963916412597e+000	 9.666067209743147e+000
 1.721768134550916e+000	 4.614232275364574e+000	 9.660785269236044e+000
 1.676109887173601e+000	 4.631012917960568e+000	 9.651128405617278e+000
 1.630388843343668e+000	 4.647306447795351e+000	 9.637966402598345e+000
 1.584612395352348e+000	 4.663113611818793e+000	 9.622129710889958e+000
 1.538787886344805e+000	 4.678435298374887e+000	 9.604408295180797e+000
 1.492922607156626e+000	 4.693272535159570e+000	 9.585550594135224e+000
 1.447023793233082e+000	 4.707626487100887e+000	 9.566262593592256e+000
 1.401098621633065e+000	 4.721498454164895e+000	 9.547207012823948e+000
 1.355154208119483e+000	 4.734889869090891e+000	 9.529002603396222e+000
 1.822068812337153e+000	 4.602452090270778e+000	 9.679672694816992e+000
 1.776327498285080e+000	 4.620298758629560e+000	 9.686518751382279e+000
 1.730508074320522e+000	 4.637654774224886e+000	 9.686636068797798e+000
 1.684618059189374e+000	 4.654520597746678e+000	 9.680941538467547e+000
 1.638664928842095e+000	 4.670896835853642e+000	 9.670314823464606e+000
 1.592656113094236e+000	 4.686784239287280e+000	 9.655597055591642e+000
 1.546598992365808e+000	 4.702183700900934e+000	 9.637589645169458e+000
 1.500500894501714e+000	 4.717096253607278e+000	 9.617053204134638e+000
 1.454369091675374e+000	 4.731523068247697e+000	 9.594706582692476e+000
 1.408210797377446e+000	 4.745465451387059e+000	 9.571226019443783e+000
 1.362033163491464e+000	 4.758924843037452e+000	 9.547244404585401e+000
 1.831271180078945e+000	 4.625696797800614e+000	 9.695761902380609e+000
 1.785298849288082e+000	 4.643633600846719e+000	 9.708930735953459e+000
 1.739248014090443e+000	 4.661077273085121e+000	 9.713945439451514e+000
 1.693126231205387e+000	 4.678028277532466e+000	 9.711732289274675e+000
 1.646941014340698e+000	 4.694487223911383e+000	 9.703181151954885e+000
 1.600699830836247e+000	 4.710454866755005e+000	 9.689144143609910e+000
 1.554410098386889e+000	 4.725932103426031e+000	 9.670434402382151e+000
 1.508079181846847e+000	 4.740919972053868e+000	 9.647824974510906e+000
 1.461714390117684e+000	 4.755419649393240e+000	 9.622047814347736e+000
 1.415322973121832e+000	 4.769432448607827e+000	 9.593792898293605e+000
 1.368912118863444e+000	 4.782959816982506e+000	 9.563707452313992e+000
 1.840473547821232e+000	 4.648941505330933e+000	 9.714367848398871e+000
 1.794270200291483e+000	 4.666968443064073e+000	 9.733340348237775e+000
 1.747987953860680e+000	 4.684499771945285e+000	 9.742753678814387e+000
 1.701634403221643e+000	 4.701535957317928e+000	 9.743543847597161e+000
 1.655217099839479e+000	 4.718077611968575e+000	 9.736611250067329e+000
 1.608743548578379e+000	 4.734125494221968e+000	 9.722819291368779e+000
 1.562221204408049e+000	 4.749680505950178e+000	 9.702993121234297e+000
 1.515657469192024e+000	 4.764743690499341e+000	 9.677918482903658e+000
 1.469059688560015e+000	 4.779316230537515e+000	 9.648340676406603e+000
 1.422435148866224e+000	 4.793399445827199e+000	 9.614963636248852e+000
 1.375791074235425e+000	 4.806994790926056e+000	 9.578449123213504e+000
 1.307001520515620e+000	 4.566645051422786e+000	 9.346567195834279e+000
 1.262677892496843e+000	 4.579098660229949e+000	 9.376045185595086e+000
 1.218349243971802e+000	 4.591091931124016e+000	 9.391828703075602e+000
 1.174022244523952e+000	 4.602626616365185e+000	 9.399087352217419e+000
 1.129703494256913e+000	 4.613704586919090e+000	 9.401432274490864e+000
 1.085399521425690e+000	 4.624327829983526e+000	 9.399043789949818e+000
 1.041116780158473e+000	 4.634498446467843e+000	 9.392073358308128e+000
 9.968616482696642e-001	 4.644218648428491e+000	 9.380643323611977e+000
 9.526404251647134e-001	 4.653490756464190e+000	 9.364846738777889e+000
 9.084593298371433e-001	 4.662317197074184e+000	 9.344747268584195e+000
 8.643244989580522e-001	 4.670700499982988e+000	 9.320379169513513e+000
 1.313880475887600e+000	 4.590680025379892e+000	 9.378914413933424e+000
 1.269323565616884e+000	 4.603199179496159e+000	 9.400989353148878e+000
 1.224761608415979e+000	 4.615255572868285e+000	 9.412515241097866e+000
 1.180201308971413e+000	 4.626850966978888e+000	 9.414982607502012e+000
 1.135649302124196e+000	 4.637987242640786e+000	 9.413334623411135e+000
 1.091112150488570e+000	 4.648666397510717e+000	 9.407772673512346e+000
 1.046596342161823e+000	 4.658890543555444e+000	 9.398467878411539e+000
 1.002108288525804e+000	 4.668661904473817e+000	 9.385560834144572e+000
 9.576543221407279e-001	 4.677982813078235e+000	 9.369161433984329e+000
 9.132406947316660e-001	 4.686855708638988e+000	 9.349348771083461e+000
 8.688735752679867e-001	 4.695283134194933e+000	 9.326171120297447e+000
 1.320759431259581e+000	 4.614714999335489e+000	 9.409065168289565e+000
 1.275969238736935e+000	 4.627299698760772e+000	 9.423929349306679e+000
 1.231173972860197e+000	 4.639419214610888e+000	 9.431059038043268e+000
 1.186380373418968e+000	 4.651075317590875e+000	 9.428889871788803e+000
 1.141595109991643e+000	 4.662269898360744e+000	 9.423402517666290e+000
 1.096824779551707e+000	 4.673004965036161e+000	 9.414819577032878e+000
 1.052075904165542e+000	 4.683282640641307e+000	 9.403331977243903e+000
 1.007354928782444e+000	 4.693105160517438e+000	 9.389098705851673e+000
 9.626682191173955e-001	 4.702474869690625e+000	 9.372246629547542e+000
 9.180220596270133e-001	 4.711394220202210e+000	 9.352870396339155e+000
 8.734226515789358e-001	 4.719865768405385e+000	 9.331032419254438e+000
 1.327638386631561e+000	 4.638749973289583e+000	 9.437080959723087e+000
 1.282614911856997e+000	 4.651400218023791e+000	 9.444920453535270e+000
 1.237586337304457e+000	 4.663582856351826e+000	 9.447532559917308e+000
 1.192559437866615e+000	 4.675299668201150e+000	 9.440874927590523e+000
 1.147540917859256e+000	 4.686552554078961e+000	 9.431695193949013e+000
 1.102537408615102e+000	 4.697343532559854e+000	 9.420237331830851e+000
 1.057555466169631e+000	 4.707674737725433e+000	 9.406712223830130e+000
 1.012601569039586e+000	 4.717548416559352e+000	 9.391297391031250e+000
 9.676821160947164e-001	 4.726966926301362e+000	 9.374136808951613e+000
 9.228034245231843e-001	 4.735932731763849e+000	 9.355340809136481e+000
 8.779717278908999e-001	 4.744448402614344e+000	 9.334986064644294e+000
 1.334517342003541e+000	 4.662784947242169e+000	 9.463022653395937e+000
 1.289260584977069e+000	 4.675500737285212e+000	 9.464017400527112e+000
 1.243998701748758e+000	 4.687746498091098e+000	 9.462007816826269e+000
 1.198738502314355e+000	 4.699524018809712e+000	 9.451003188364247e+000
 1.153486725727034e+000	 4.710835209795433e+000	 9.438271604687060e+000
 1.108250037678753e+000	 4.721682100081797e+000	 9.424078567679088e+000
 1.063035028174089e+000	 4.732066834807822e+000	 9.408655066276110e+000
 1.017848209297230e+000	 4.741991672599561e+000	 9.392197299582284e+000
 9.726960130726905e-001	 4.751458982910444e+000	 9.374866489678816e+000
 9.275847894201801e-001	 4.760471243323902e+000	 9.356788782519239e+000
 8.825208042038785e-001	 4.769031036821811e+000	 9.338055235096459e+000
 1.341396297375522e+000	 4.686819921193250e+000	 9.486950495110589e+000
 1.295906258097151e+000	 4.699601256545038e+000	 9.481274394168864e+000
 1.250411066193101e+000	 4.711910139828708e+000	 9.474489011661753e+000
 1.204917566762189e+000	 4.723748369416562e+000	 9.459339707974314e+000
 1.159432533594977e+000	 4.735117865510166e+000	 9.443190425332100e+000
 1.113962666742662e+000	 4.746020667601992e+000	 9.426395717971687e+000
 1.068514590178917e+000	 4.756458931888473e+000	 9.409206834869204e+000
 1.023094849555375e+000	 4.766434928638065e+000	 9.391838800091957e+000
 9.777099100513177e-001	 4.775951039517873e+000	 9.374470222337902e+000
 9.323661543180000e-001	 4.785009754882377e+000	 9.357243195013927e+000
 8.870698805178715e-001	 4.793613671027785e+000	 9.340263284985060e+000
 1.348275252747503e+000	 4.710854895142822e+000	 9.508924127109959e+000
 1.302551931217244e+000	 4.723701775803268e+000	 9.496745121082357e+000
 1.256823430637485e+000	 4.736073781564651e+000	 9.484253689369194e+000
 1.211096631210115e+000	 4.747972720021696e+000	 9.465949189865658e+000
 1.165378341463085e+000	 4.759400521223156e+000	 9.446510061425494e+000
 1.119675295806828e+000	 4.770359235120436e+000	 9.427241024733666e+000
 1.073994152184115e+000	 4.780851028967388e+000	 9.408413745083809e+000
 1.028341489814022e+000	 4.790878184674862e+000	 9.390262220889534e+000
 9.827238070305978e-001	 4.800443096123647e+000	 9.372982589819005e+000
 9.371475192166442e-001	 4.809548266439267e+000	 9.356733027938869e+000
 8.916189568328796e-001	 4.818196305232266e+000	 9.341633739945728e+000
 1.355154208119483e+000	 4.734889869090891e+000	 9.529002603396222e+000
 1.309197604337347e+000	 4.747802295059902e+000	 9.510482763753192e+000
 1.263235795081911e+000	 4.760237423298930e+000	 9.492447755222488e+000
 1.217275695658135e+000	 4.772197070625118e+000	 9.470895995957649e+000
 1.171324149331358e+000	 4.783683176934406e+000	 9.448288655448755e+000
 1.125387924871252e+000	 4.794697802637133e+000	 9.426666543478047e+000
 1.079473714189682e+000	 4.805243126044564e+000	 9.406321900495403e+000
 1.033588130073170e+000	 4.815321440709956e+000	 9.387507851068094e+000
 9.877377040105315e-001	 4.824935152727767e+000	 9.370438206474351e+000
 9.419288841161128e-001	 4.834086777994572e+000	 9.355287362795252e+000
 8.961680331489021e-001	 4.842778939435253e+000	 9.342190292528814e+000
 1.362033163491464e+000	 4.758924843037452e+000	 9.547244404585401e+000
 1.315843277457460e+000	 4.771902814314941e+000	 9.522540013261382e+000
 1.269648159526378e+000	 4.784401065031544e+000	 9.499118245132937e+000
 1.223454760106248e+000	 4.796421421226827e+000	 9.474244155268497e+000
 1.177269957199797e+000	 4.807965832643913e+000	 9.448584093466478e+000
 1.131100553935933e+000	 4.819036370152078e+000	 9.424724147915741e+000
 1.084953276195618e+000	 4.829635223120002e+000	 9.402977295606288e+000
 1.038834770332819e+000	 4.839764696743343e+000	 9.383615941475359e+000
 9.927516009911181e-001	 4.849427209330234e+000	 9.366871717323747e+000
 9.467102490164057e-001	 4.858625289548296e+000	 9.352935378737358e+000
 9.007171094659395e-001	 4.867361573636750e+000	 9.341956797984343e+000
 1.368912118863444e+000	 4.782959816982506e+000	 9.563707452313992e+000
 1.322488950577584e+000	 4.796003333568383e+000	 9.532969081628261e+000
 1.276060523970887e+000	 4.808564706762494e+000	 9.504311794107380e+000
 1.229633824554454e+000	 4.820645771826822e+000	 9.476057372279632e+000
 1.183215765068400e+000	 4.832248488351680e+000	 9.447454011569018e+000
 1.136813183000870e+000	 4.843374937665274e+000	 9.421465534523492e+000
 1.090432838201924e+000	 4.854027320193703e+000	 9.398425818586086e+000
 1.044081410592971e+000	 4.864207952775024e+000	 9.378626705674694e+000
 9.977654979723580e-001	 4.873919265931046e+000	 9.362317797284026e+000
 9.514916139175227e-001	 4.883163801100436e+000	 9.349706350118826e+000
 9.052661857839915e-001	 4.891944207836753e+000	 9.340957270174116e+000
 1.375791074235425e+000	 4.806994790926056e+000	 9.578449123213504e+000
 1.329134623697719e+000	 4.820103852820232e+000	 9.541821713792958e+000
 1.282472888415437e+000	 4.832728348491778e+000	 9.508074646270757e+000
 1.235812889002754e+000	 4.844870122425104e+000	 9.476399035049056e+000
 1.189161572937169e+000	 4.856531144057705e+000	 9.444955802121795e+000
 1.142525812066066e+000	 4.867713505176722e+000	 9.416942226974660e+000
 1.095912400208599e+000	 4.878419417265667e+000	 9.392713253930062e+000
 1.049328050853623e+000	 4.888651208805000e+000	 9.372580320877079e+000
 1.002779394954251e+000	 4.898411322530205e+000	 9.356811150421621e+000
 9.562729788194642e-001	 4.907702312650993e+000	 9.345629644112790e+000
 9.098152621030583e-001	 4.916526842035265e+000	 9.339215877606421e+000
 8.643244989580522e-001	 4.670700499982988e+000	 9.320379169513513e+000
 8.202419850585254e-001	 4.678643295435927e+000	 9.288679572663391e+000
 7.762177548042755e-001	 4.686148311466118e+000	 9.262233254513212e+000
 7.322576873625158e-001	 4.693218371138126e+000	 9.241023005216126e+000
 6.883675728617010e-001	 4.699856389773195e+000	 9.224993970447340e+000
 6.445531109429850e-001	 4.706065372156695e+000	 9.214054135496086e+000
 6.008199094031385e-001	 4.711848409731801e+000	 9.205986509712739e+000
 5.571734829283327e-001	 4.717208677782532e+000	 9.198486602324641e+000
 5.136192519181055e-001	 4.722149432609216e+000	 9.192558164734345e+000
 4.701625413987223e-001	 4.726674008699353e+000	 9.188220010445754e+000
 4.268085800250276e-001	 4.730785815896795e+000	 9.185415815265721e+000
 8.688735752679867e-001	 4.695283134194933e+000	 9.326171120297447e+000
 8.245590481363796e-001	 4.703267733834722e+000	 9.298189201278124e+000
 7.803031114062362e-001	 4.710812249949480e+000	 9.274788712604527e+000
 7.361116751877538e-001	 4.717919520462003e+000	 9.255959414351406e+000
 6.919905600837462e-001	 4.724592476037333e+000	 9.241653454592871e+000
 6.479454957334770e-001	 4.730834137275505e+000	 9.231785839687371e+000
 6.039821194484363e-001	 4.736647611890442e+000	 9.224146103475613e+000
 5.601059749394569e-001	 4.742036091878187e+000	 9.216250944101907e+000
 5.163225111344945e-001	 4.747002850677489e+000	 9.209670182435376e+000
 4.726370810862667e-001	 4.751551240325788e+000	 9.204427237463333e+000
 4.290549409688527e-001	 4.755684688613479e+000	 9.200469557544261e+000
 8.734226515789358e-001	 4.719865768405385e+000	 9.331032419254438e+000
 8.288761112154275e-001	 4.727892172232124e+000	 9.306549343243475e+000
 7.843884680095284e-001	 4.735476188431549e+000	 9.285993313623106e+000
 7.399656630144197e-001	 4.742620669784688e+000	 9.269361145317422e+000
 6.956135473072752e-001	 4.749328562300383e+000	 9.256612056973058e+000
 6.513378805254688e-001	 4.755602902393324e+000	 9.247668127609888e+000
 6.071443294952086e-001	 4.761446814048191e+000	 9.240436947123150e+000
 5.630384669519916e-001	 4.766863505973046e+000	 9.232075977886131e+000
 5.190257703521901e-001	 4.771856268745071e+000	 9.224798514722050e+000
 4.751116207749753e-001	 4.776428471951631e+000	 9.218632469965387e+000
 4.313013019136611e-001	 4.780583561329669e+000	 9.213528927220262e+000
 8.779717278908999e-001	 4.744448402614344e+000	 9.334986064644294e+000
 8.331931742956691e-001	 4.752516610628134e+000	 9.313783201112255e+000
 7.884738246141516e-001	 4.760140126912325e+000	 9.295870346045387e+000
 7.438196508425135e-001	 4.767321819106181e+000	 9.281251455998474e+000
 6.992365345322877e-001	 4.774064648562337e+000	 9.269892890229375e+000
 6.547302653189593e-001	 4.780371667510148e+000	 9.261723853886092e+000
 6.103065395434555e-001	 4.786246016205046e+000	 9.254866031636626e+000
 5.659709589659362e-001	 4.791690920067119e+000	 9.245968906695476e+000
 5.217290295711923e-001	 4.796709686811960e+000	 9.237950538039231e+000
 4.775861604648481e-001	 4.801305703576880e+000	 9.230843220156762e+000
 4.335476628594530e-001	 4.805482434045368e+000	 9.224601535477419e+000
 8.825208042038785e-001	 4.769031036821811e+000	 9.338055235096459e+000
 8.375102373771048e-001	 4.777141049022752e+000	 9.319914109886762e+000
 7.925591812201065e-001	 4.784804065391811e+000	 9.304443186361187e+000
 7.476736386720354e-001	 4.792022968426481e+000	 9.291653651327342e+000
 7.028595217587842e-001	 4.798800734823201e+000	 9.281519076543267e+000
 6.581226501139491e-001	 4.805140432625983e+000	 9.273975848609656e+000
 6.134687495931768e-001	 4.811045218361013e+000	 9.267440292821370e+000
 5.689034509812911e-001	 4.816518334160397e+000	 9.257936851126759e+000
 5.244322887915013e-001	 4.821563104878159e+000	 9.249133522545439e+000
 4.800607001558850e-001	 4.826182935201539e+000	 9.241066873447970e+000
 4.357940238062281e-001	 4.830381306760575e+000	 9.233694849529758e+000
 8.870698805178715e-001	 4.793613671027785e+000	 9.340263284985060e+000
 8.418273004597338e-001	 4.801765487415977e+000	 9.324965533622605e+000
 7.966445378273929e-001	 4.809468003870001e+000	 9.311735296817009e+000
 7.515276265029854e-001	 4.816724117745588e+000	 9.300591082078896e+000
 7.064825089867642e-001	 4.823536821082972e+000	 9.291513747391399e+000
 6.615150349104378e-001	 4.829909197740824e+000	 9.284446917974321e+000
 6.166309596443723e-001	 4.835844420516084e+000	 9.278166612721536e+000
 5.718359429980561e-001	 4.841345748252881e+000	 9.267986851468928e+000
 5.271355480131169e-001	 4.846416522943665e+000	 9.258354634838076e+000
 4.825352398480866e-001	 4.851060166825606e+000	 9.249310691706409e+000
 4.380403847539867e-001	 4.855280179475290e+000	 9.240816196313181e+000
 8.916189568328796e-001	 4.818196305232266e+000	 9.341633739945728e+000
 8.461443635435570e-001	 4.826389925807810e+000	 9.328961062136544e+000
 8.007298944360106e-001	 4.834131942346899e+000	 9.317770223228321e+000
 7.553816143353628e-001	 4.841425267063504e+000	 9.308087143700661e+000
 7.101054962162282e-001	 4.848272907341652e+000	 9.299900043308604e+000
 6.649074197084257e-001	 4.854677962854673e+000	 9.293159844883643e+000
 6.197931696970425e-001	 4.860643622670265e+000	 9.287051820991561e+000
 5.747684350162314e-001	 4.866173162344577e+000	 9.276125869751660e+000
 5.298388072360390e-001	 4.871269941008480e+000	 9.265620940595317e+000
 4.850097795414523e-001	 4.875937398449082e+000	 9.255581816407874e+000
 4.402867457027287e-001	 4.880179052189514e+000	 9.245972766063980e+000
 8.961680331489021e-001	 4.842778939435253e+000	 9.342190292528814e+000
 8.504614266285739e-001	 4.851014364198250e+000	 9.331924407814602e+000
 8.048152510459596e-001	 4.858795880822506e+000	 9.322571592858566e+000
 7.592356021691685e-001	 4.866126416380228e+000	 9.314165275178999e+000
 7.137284834471757e-001	 4.873008993599236e+000	 9.306701113657983e+000
 6.682998045079127e-001	 4.879446727967530e+000	 9.300137389542103e+000
 6.229553797511871e-001	 4.885442824823553e+000	 9.294102696225892e+000
 5.777009270358168e-001	 4.891000576435481e+000	 9.282360791731691e+000
 5.325420664602679e-001	 4.896123359072603e+000	 9.270939407137547e+000
 4.874843192359822e-001	 4.900814630071966e+000	 9.259887271692227e+000
 4.425331066524542e-001	 4.905077924903247e+000	 9.249171615788400e+000
 9.007171094659395e-001	 4.867361573636750e+000	 9.341956797984343e+000
 8.547784897147843e-001	 4.875638802587297e+000	 9.333879402516827e+000
 8.089006076572401e-001	 4.883459819296819e+000	 9.326163112362323e+000
 7.630895900044020e-001	 4.890827565695757e+000	 9.318848957939647e+000
 7.173514706796069e-001	 4.897745079855731e+000	 9.311940116407962e+000
 6.716921893088989e-001	 4.904215493079394e+000	 9.305402290028306e+000
 6.261175898068063e-001	 4.910242026975950e+000	 9.299164163071170e+000
 5.806334190568124e-001	 4.915827990525591e+000	 9.286698428818852e+000
 5.352453256858034e-001	 4.920976777136034e+000	 9.274316905911073e+000
 4.899588589316763e-001	 4.925691861694258e+000	 9.262233967326454e+000
 4.447794676031630e-001	 4.929976797616488e+000	 9.250419672626961e+000
 9.052661857839915e-001	 4.891944207836753e+000	 9.340957270174116e+000
 8.590955528021887e-001	 4.900263240974951e+000	 9.334849994575519e+000
 8.129859642698522e-001	 4.908123757769840e+000	 9.328568565790643e+000
 7.669435778410637e-001	 4.915528715010096e+000	 9.322161714781405e+000
 7.209744579135220e-001	 4.922481166111133e+000	 9.315640217916045e+000
 6.750845741113839e-001	 4.928984258190266e+000	 9.308977262850940e+000
 6.292797998638997e-001	 4.935041229127454e+000	 9.302108894006913e+000
 5.835659110792182e-001	 4.940655404614911e+000	 9.289145519944100e+000
 5.379485849126456e-001	 4.945830195198774e+000	 9.275760214897090e+000
 4.924333986285348e-001	 4.950569093315958e+000	 9.262628701578306e+000
 4.470258285548553e-001	 4.954875670329237e+000	 9.249723737117517e+000
 9.098152621030583e-001	 4.916526842035265e+000	 9.339215877606421e+000
 8.634126158907872e-001	 4.924887679361214e+000	 9.334860245883325e+000
 8.170713208837958e-001	 4.932787696241570e+000	 9.329811812656065e+000
 7.707975656791535e-001	 4.940229864323243e+000	 9.324127108841791e+000
 7.245974451489209e-001	 4.947217252365443e+000	 9.317824592719131e+000
 6.784769589153683e-001	 4.953753023300147e+000	 9.310885003487980e+000
 6.324420099224679e-001	 4.959840431278068e+000	 9.303251795494175e+000
 5.864984031030343e-001	 4.965482818703439e+000	 9.289708733371510e+000
 5.406518441407947e-001	 4.970683613260823e+000	 9.275276020948244e+000
 4.949079383265576e-001	 4.975446324937067e+000	 9.261078164003774e+000
 4.492721895075311e-001	 4.979774543041494e+000	 9.247090486360229e+000
 4.268085800250276e-001	 4.730785815896795e+000	 9.185415815265721e+000
 3.835624991689582e-001	 4.734488336571500e+000	 9.184818126373715e+000
 3.404293320962267e-001	 4.737785122794405e+000	 9.185699103135940e+000
 2.974140132282676e-001	 4.740679793518913e+000	 9.187751937737627e+000
 2.545213774864985e-001	 4.743176031770457e+000	 9.190604147213847e+000
 2.117561597201589e-001	 4.745277581848414e+000	 9.193820006373992e+000
 1.691229942154836e-001	 4.746988246542276e+000	 9.196903042092139e+000
 1.266264142847394e-001	 4.748311884364385e+000	 9.199298581444882e+000
 8.427085193360755e-002	 4.749252406801554e+000	 9.200396346302886e+000
 4.206063760533369e-002	 4.749813775587760e+000	 9.199533087122642e+000
 0.000000000000000e+000	 4.750000000000000e+000	 9.195995248842433e+000
 4.290549409688527e-001	 4.755684688613479e+000	 9.200469557544261e+000
 3.855812491613293e-001	 4.759406696238825e+000	 9.197956344631702e+000
 3.422210654202023e-001	 4.762720833967920e+000	 9.196996035811203e+000
 2.989793501375452e-001	 4.765630739801289e+000	 9.197286310911508e+000
 2.558609636817305e-001	 4.768140116148707e+000	 9.198458094628053e+000
 2.128706658222569e-001	 4.770252727016390e+000	 9.200078018089483e+000
 1.700131152363395e-001	 4.771972395208514e+000	 9.201650943058603e+000
 1.272928690957834e-001	 4.773302999545376e+000	 9.202622541136904e+000
 8.471438273261547e-002	 4.774248472100564e+000	 9.202381920467767e+000
 4.228200938188822e-002	 4.774812795459289e+000	 9.200264292575344e+000
 0.000000000000000e+000	 4.775000000000001e+000	 9.195553672134665e+000
 4.313013019136611e-001	 4.780583561329669e+000	 9.213528927220262e+000
 3.875999991544945e-001	 4.784325055905754e+000	 9.209272667048753e+000
 3.440127987448031e-001	 4.787656545141123e+000	 9.206665396536048e+000
 3.005446870472999e-001	 4.790581686083426e+000	 9.205409059457956e+000
 2.572005498773117e-001	 4.793104200526780e+000	 9.205137744376112e+000
 2.139851719245966e-001	 4.795227872184246e+000	 9.205420175552543e+000
 1.709032362573495e-001	 4.796956543874674e+000	 9.205762267779470e+000
 1.279593239069137e-001	 4.798294114726324e+000	 9.205609737380428e+000
 8.515791353166169e-002	 4.799244537399557e+000	 9.204350761764092e+000
 4.250338115845228e-002	 4.799811815330811e+000	 9.201318680056753e+000
 0.000000000000000e+000	 4.800000000000001e+000	 9.195794727499827e+000
 4.335476628594530e-001	 4.805482434045368e+000	 9.224601535477419e+000
 3.896187491484534e-001	 4.809243415572285e+000	 9.218772605882021e+000
 3.458045320700291e-001	 4.812592256314011e+000	 9.214710621541133e+000
 3.021100239575316e-001	 4.815532632365324e+000	 9.212121567431613e+000
 2.585401360732423e-001	 4.818068284904680e+000	 9.210642453048441e+000
 2.150996780271780e-001	 4.820203017351980e+000	 9.209843833374547e+000
 1.717933572785137e-001	 4.821940692540757e+000	 9.209232395060303e+000
 1.286257787181304e-001	 4.823285229907229e+000	 9.208253599952395e+000
 8.560144433074615e-002	 4.824240602698530e+000	 9.206294378239450e+000
 4.272475293502587e-002	 4.824810835202332e+000	 9.202685863627131e+000
 0.000000000000000e+000	 4.825000000000000e+000	 9.196706163117558e+000
 4.357940238062281e-001	 4.830381306760575e+000	 9.233694849529758e+000
 3.916374991432063e-001	 4.834161775238420e+000	 9.226461560126554e+000
 3.475962653958803e-001	 4.837527967486588e+000	 9.221135066583956e+000
 3.036753608682403e-001	 4.840483578646984e+000	 9.217425173250792e+000
 2.598797222695222e-001	 4.843032369282405e+000	 9.214971568449313e+000
 2.162141841300012e-001	 4.845178162519593e+000	 9.213346376209829e+000
 1.726834782998320e-001	 4.846924841206762e+000	 9.212056774521928e+000
 1.292922335294336e-001	 4.848276345088089e+000	 9.210547672124786e+000
 8.604497512986886e-002	 4.849236667997482e+000	 9.208204435987673e+000
 4.294612471160900e-002	 4.849809855073845e+000	 9.204355661778447e+000
 0.000000000000000e+000	 4.850000000000000e+000	 9.198275979782304e+000
 4.380403847539867e-001	 4.855280179475290e+000	 9.240816196313181e+000
 3.936562491387531e-001	 4.859080134904158e+000	 9.232344818419344e+000
 3.493879987223567e-001	 4.862463678658854e+000	 9.225942009012226e+000
 3.052406977794260e-001	 4.865434524928404e+000	 9.221321170867462e+000
 2.612193084661512e-001	 4.867996453659956e+000	 9.218124429822183e+000
 2.173286902330660e-001	 4.870153307687087e+000	 9.215925217985282e+000
 1.735735993213044e-001	 4.871908989872691e+000	 9.214230924784687e+000
 1.299586883408231e-001	 4.873267460268909e+000	 9.212485607754669e+000
 8.648850592902987e-002	 4.874232733296418e+000	 9.210072755096338e+000
 4.316749648820165e-002	 4.874808874945355e+000	 9.206318092192717e+000
 0.000000000000000e+000	 4.875000000000000e+000	 9.200492424426077e+000
 4.402867457027287e-001	 4.880179052189514e+000	 9.245972766063980e+000
 3.956749991350939e-001	 4.883998494569498e+000	 9.236427561854640e+000
 3.511797320494583e-001	 4.887399389830808e+000	 9.229134649764118e+000
 3.068060346910887e-001	 4.890385471209587e+000	 9.223810810901773e+000
 2.625588946631296e-001	 4.892960538037332e+000	 9.220100368068117e+000
 2.184431963363725e-001	 4.895128452854459e+000	 9.217577801153620e+000
 1.744637203429311e-001	 4.896893138538542e+000	 9.215750431708152e+000
 1.306251431522991e-001	 4.898258575449684e+000	 9.214061168462965e+000
 8.693203672822913e-002	 4.899228798595334e+000	 9.211891305718289e+000
 4.338886826480384e-002	 4.899807894816859e+000	 9.208563366660423e+000
 0.000000000000000e+000	 4.900000000000000e+000	 9.203343983839382e+000
 4.425331066524542e-001	 4.905077924903247e+000	 9.249171615788400e+000
 3.976937491322284e-001	 4.908916854234440e+000	 9.238714866713501e+000
 3.529714653771849e-001	 4.912335101002447e+000	 9.230716115307580e+000
 3.083713716032285e-001	 4.915336417490530e+000	 9.224895301741713e+000
 2.638984808604571e-001	 4.917924622414534e+000	 9.220898705957470e+000
 2.195577024399207e-001	 4.920103598021710e+000	 9.218301595969390e+000
 1.753538413647119e-001	 4.921877287204317e+000	 9.216610946684682e+000
 1.312915979638614e-001	 4.923249690630415e+000	 9.215268220899448e+000
 8.737556752746666e-002	 4.924224863894231e+000	 9.213652204262983e+000
 4.361024004141555e-002	 4.924806914688358e+000	 9.211081886154137e+000
 0.000000000000000e+000	 4.925000000000000e+000	 9.206819378583544e+000
 4.447794676031630e-001	 4.929976797616488e+000	 9.250419672626961e+000
 3.997124991301571e-001	 4.933835213898987e+000	 9.239211707110473e+000
 3.547631987055368e-001	 4.937270812173773e+000	 9.230689459521008e+000
 3.099367085158453e-001	 4.940287363771237e+000	 9.224575810609654e+000
 2.652380670581340e-001	 4.942888706791560e+000	 9.220518758335196e+000
 2.206722085437106e-001	 4.945078743188839e+000	 9.218094099786860e+000
 1.762439623866468e-001	 4.946861435870015e+000	 9.216808184984444e+000
 1.319580527755102e-001	 4.948240805811105e+000	 9.216100734090496e+000
 8.781909832674244e-002	 4.949220929193108e+000	 9.215347709703003e+000
 4.383161181803680e-002	 4.949805934559853e+000	 9.213864236051009e+000
 0.000000000000000e+000	 4.949999999999999e+000	 9.210907557087243e+000
 4.470258285548553e-001	 4.954875670329237e+000	 9.249723737117517e+000
 4.017312491288794e-001	 4.958753573563137e+000	 9.237922957560711e+000
 3.565549320345138e-001	 4.962206523344788e+000	 9.229057665516940e+000
 3.115020454289392e-001	 4.965238310051703e+000	 9.222853464596614e+000
 2.665776532561601e-001	 4.967852791168413e+000	 9.218959832320069e+000
 2.217867146477423e-001	 4.970053888355850e+000	 9.216952836379230e+000
 1.771340834087358e-001	 4.971845584535635e+000	 9.216337924150491e+000
 1.326245075872453e-001	 4.973231920991751e+000	 9.216552776866733e+000
 8.826262912605648e-002	 4.974216994491966e+000	 9.216970219992239e+000
 4.405298359466758e-002	 4.974804954431344e+000	 9.216901181499567e+000
 0.000000000000000e+000	 4.975000000000000e+000	 9.215597689921399e+000
 4.492721895075311e-001	 4.979774543041494e+000	 9.247090486360229e+000
 4.037499991283959e-001	 4.983671933226891e+000	 9.234853395469866e+000
 3.583466653641162e-001	 4.987142234515491e+000	 9.225823647411318e+000
 3.130673823425100e-001	 4.990189256331933e+000	 9.219729351665610e+000
 2.679172394545356e-001	 4.992816875545092e+000	 9.216221227497725e+000
 2.229012207520157e-001	 4.995029033522739e+000	 9.214875355278018e+000
 1.780242044309790e-001	 4.996829733201179e+000	 9.215196002441916e+000
 1.332909623990669e-001	 4.998223036172353e+000	 9.216618515368014e+000
 8.870615992540883e-002	 4.999213059790806e+000	 9.218512268591219e+000
 4.427435537130790e-002	 4.999803974302830e+000	 9.220183662925402e+000
 0.000000000000000e+000	 5.000000000000000e+000	 9.220879164245430e+000
