x	y	stress_xx
 1.0000000000e+000	 0.0000000000e+000	 1.4933773041e+000
 9.9996079486e-001	 8.8548710816e-003	 1.4902527215e+000
 9.9984261196e-001	 1.7741231999e-002	 1.4931944182e+000
 9.9964460724e-001	 2.6658192499e-002	 1.5022071247e+000
 9.9936594664e-001	 3.5604840910e-002	 1.5172901180e+000
 9.9900580671e-001	 4.4580244178e-002	 1.5384371174e+000
 9.9856337512e-001	 5.3583447921e-002	 1.5656361830e+000
 9.9803785128e-001	 6.2613476500e-002	 1.5988696185e+000
 9.9742844692e-001	 7.1669333105e-002	 1.6381138767e+000
 9.9673438666e-001	 8.0749999857e-002	 1.6833394701e+000
 9.9595490863e-001	 8.9854437932e-002	 1.7345108843e+000
 1.0250000000e+000	 0.0000000000e+000	 1.4063821071e+000
 1.0249598147e+000	 9.0762428582e-003	 1.4046829361e+000
 1.0248386773e+000	 1.8184762798e-002	 1.4077054118e+000
 1.0246357224e+000	 2.7324647310e-002	 1.4154323425e+000
 1.0243500953e+000	 3.6494961931e-002	 1.4278417480e+000
 1.0239809519e+000	 4.5694750280e-002	 1.4449067934e+000
 1.0235274595e+000	 5.4923034116e-002	 1.4665957268e+000
 1.0229887976e+000	 6.4178813409e-002	 1.4928718201e+000
 1.0223641581e+000	 7.3461066429e-002	 1.5236933140e+000
 1.0216527463e+000	 8.2768749849e-002	 1.5590133670e+000
 1.0208537813e+000	 9.2100798875e-002	 1.5987800081e+000
 1.0500000000e+000	 0.0000000000e+000	 1.4110519418e+000
 1.0499588346e+000	 9.2976146348e-003	 1.4107473521e+000
 1.0498347426e+000	 1.8628293597e-002	 1.4138663228e+000
 1.0496268376e+000	 2.7991102121e-002	 1.4203700849e+000
 1.0493342440e+000	 3.7385082952e-002	 1.4302157324e+000
 1.0489560970e+000	 4.6809256382e-002	 1.4433561943e+000
 1.0484915439e+000	 5.6262620311e-002	 1.4597402105e+000
 1.0479397438e+000	 6.5744150319e-002	 1.4793123113e+000
 1.0472998693e+000	 7.5252799753e-002	 1.5020128007e+000
 1.0465711060e+000	 8.4787499842e-002	 1.5277777443e+000
 1.0457526541e+000	 9.4347159819e-002	 1.5565389604e+000
 1.0750000000e+000	 0.0000000000e+000	 1.5008536551e+000
 1.0749578545e+000	 9.5189864113e-003	 1.5019554208e+000
 1.0748308079e+000	 1.9071824396e-002	 1.5052248987e+000
 1.0746179528e+000	 2.8657556932e-002	 1.5106020223e+000
 1.0743183926e+000	 3.8275203973e-002	 1.5180232275e+000
 1.0739312422e+000	 4.7923762484e-002	 1.5274214630e+000
 1.0734556282e+000	 5.7602206507e-002	 1.5387262040e+000
 1.0728906901e+000	 6.7309487228e-002	 1.5518634699e+000
 1.0722355804e+000	 7.7044533077e-002	 1.5667558467e+000
 1.0714894657e+000	 8.6806249835e-002	 1.5833225127e+000
 1.0706515268e+000	 9.6593520764e-002	 1.6014792681e+000
 1.1000000000e+000	 0.0000000000e+000	 1.6698480170e+000
 1.0999568743e+000	 9.7403581879e-003	 1.6724081740e+000
 1.0998268732e+000	 1.9515355195e-002	 1.6759184901e+000
 1.0996090680e+000	 2.9324011743e-002	 1.6802978201e+000
 1.0993025413e+000	 3.9165324994e-002	 1.6854621506e+000
 1.0989063874e+000	 4.9038268587e-002	 1.6913246478e+000
 1.0984197126e+000	 5.8941792703e-002	 1.6977957092e+000
 1.0978416364e+000	 6.8874824138e-002	 1.7047830201e+000
 1.0971712916e+000	 7.8836266402e-002	 1.7121916137e+000
 1.0964078253e+000	 8.8824999828e-002	 1.7199239349e+000
 1.0955503995e+000	 9.8839881709e-002	 1.7278799093e+000
 1.1250000000e+000	 0.0000000000e+000	 1.9126237288e+000
 1.1249558942e+000	 9.9617299645e-003	 1.9167324931e+000
 1.1248229385e+000	 1.9958885994e-002	 1.9206085390e+000
 1.1246001831e+000	 2.9990466555e-002	 1.9241498057e+000
 1.1242866900e+000	 4.0055446015e-002	 1.9272519838e+000
 1.1238815325e+000	 5.0152774689e-002	 1.9298086011e+000
 1.1233837970e+000	 6.0281378898e-002	 1.9317111125e+000
 1.1227925827e+000	 7.0440161048e-002	 1.9328489943e+000
 1.1221070028e+000	 8.0627999727e-002	 1.9331098426e+000
 1.1213261850e+000	 9.0843749822e-002	 1.9323794758e+000
 1.1204492722e+000	 1.0108624265e-001	 1.9305420411e+000
 1.1500000000e+000	 0.0000000000e+000	 2.2242400397e+000
 1.1499549141e+000	 1.0183101741e-002	 2.2300239514e+000
 1.1498190038e+000	 2.0402416793e-002	 2.2344236127e+000
 1.1495912983e+000	 3.0656921366e-002	 2.2373161573e+000
 1.1492708386e+000	 4.0945567036e-002	 2.2385770821e+000
 1.1488566777e+000	 5.1267280792e-002	 2.2380803707e+000
 1.1483478814e+000	 6.1620965094e-002	 2.2356986209e+000
 1.1477435290e+000	 7.2005497959e-002	 2.2313031777e+000
 1.1470427139e+000	 8.2419733053e-002	 2.2247642695e+000
 1.1462445446e+000	 9.2862499816e-002	 2.2159511498e+000
 1.1453481449e+000	 1.0333260360e-001	 2.2047322413e+000
 1.1750000000e+000	 0.0000000000e+000	 2.6001766884e+000
 1.1749539340e+000	 1.0404473518e-002	 2.6077969532e+000
 1.1748150691e+000	 2.0845947592e-002	 2.6129097090e+000
 1.1745824135e+000	 3.1323376177e-002	 2.6153713455e+000
 1.1742549873e+000	 4.1835688057e-002	 2.6150372196e+000
 1.1738318229e+000	 5.2381786895e-002	 2.6117618174e+000
 1.1733119658e+000	 6.2960551291e-002	 2.6053989196e+000
 1.1726944752e+000	 7.3570834869e-002	 2.5958017726e+000
 1.1719784251e+000	 8.4211466378e-002	 2.5828232639e+000
 1.1711629043e+000	 9.4881249811e-002	 2.5663161010e+000
 1.1702470176e+000	 1.0557896455e-001	 2.5461329950e+000
 1.2000000000e+000	 0.0000000000e+000	 3.0362901018e+000
 1.1999529538e+000	 1.0625845294e-002	 3.0459411056e+000
 1.1998111344e+000	 2.1289478391e-002	 3.0519867747e+000
 1.1995735287e+000	 3.1989830989e-002	 3.0542627695e+000
 1.1992391360e+000	 4.2725809079e-002	 3.0526043159e+000
 1.1988069680e+000	 5.3496292997e-002	 3.0468464049e+000
 1.1982760501e+000	 6.4300137487e-002	 3.0368239968e+000
 1.1976454215e+000	 7.5136171780e-002	 3.0223722307e+000
 1.1969141363e+000	 8.6003199704e-002	 3.0033266377e+000
 1.1960812640e+000	 9.6899999806e-002	 2.9795233599e+000
 1.1951458903e+000	 1.0782532549e-001	 2.9507993714e+000
 1.2250000000e+000	 0.0000000000e+000	 3.5287749580e+000
 1.2249519737e+000	 1.0847217071e-002	 3.5406829326e+000
 1.2248071996e+000	 2.1733009191e-002	 3.5479105469e+000
 1.2245646439e+000	 3.2656285800e-002	 3.5502727031e+000
 1.2242232846e+000	 4.3615930100e-002	 3.5475844623e+000
 1.2237821132e+000	 5.4610799100e-002	 3.5396612814e+000
 1.2232401345e+000	 6.5639723683e-002	 3.5263192563e+000
 1.2225963678e+000	 7.6701508691e-002	 3.5073753696e+000
 1.2218498475e+000	 8.7794933031e-002	 3.4826477435e+000
 1.2209996236e+000	 9.8918749801e-002	 3.4519558966e+000
 1.2200447631e+000	 1.1007168644e-001	 3.4151210048e+000
 1.2500000000e+000	 0.0000000000e+000	 4.0741303605e+000
 1.2499509936e+000	 1.1068588847e-002	 4.0885521834e+000
 1.2498032649e+000	 2.2176539990e-002	 4.0972389740e+000
 1.2495557590e+000	 3.3322740611e-002	 4.0999848073e+000
 1.2492074333e+000	 4.4506051122e-002	 4.0965845048e+000
 1.2487572584e+000	 5.5725305204e-002	 4.0868339111e+000
 1.2482042189e+000	 6.6979309880e-002	 4.0705301751e+000
 1.2475473141e+000	 7.8266845602e-002	 4.0474720369e+000
 1.2467855586e+000	 8.9586666357e-002	 4.0174601198e+000
 1.2459179833e+000	 1.0093749980e-001	 3.9802972263e+000
 1.2449436358e+000	 1.1231804739e-001	 3.9357886382e+000
 9.9595490863e-001	 8.9854437932e-002	 1.7345108843e+000
 9.9508926501e-001	 9.8981587693e-002	 1.7909311031e+000
 9.9413672268e-001	 1.0813036885e-001	 1.8491746361e+000
 9.9309656377e-001	 1.1729968064e-001	 1.9092219145e+000
 9.9196808628e-001	 1.2648840201e-001	 1.9710511912e+000
 9.9075060469e-001	 1.3569539180e-001	 2.0346385314e+000
 9.8944345050e-001	 1.4491948905e-001	 2.0999578042e+000
 9.8804597288e-001	 1.5415951315e-001	 2.1669806755e+000
 9.8655753926e-001	 1.6341426419e-001	 2.2356766024e+000
 9.8497753588e-001	 1.7268252319e-001	 2.3060128280e+000
 9.8330536841e-001	 1.8196305243e-001	 2.3779543781e+000
 1.0208537813e+000	 9.2100798875e-002	 1.5987800081e+000
 1.0199664966e+000	 1.0145612738e-001	 1.6490182291e+000
 1.0189901407e+000	 1.1083362807e-001	 1.7002233941e+000
 1.0179239779e+000	 1.2023217266e-001	 1.7523596393e+000
 1.0167672884e+000	 1.2965061205e-001	 1.8053894032e+000
 1.0155193698e+000	 1.3908777659e-001	 1.8592734460e+000
 1.0141795368e+000	 1.4854247627e-001	 1.9139708692e+000
 1.0127471222e+000	 1.5801350098e-001	 1.9694391379e+000
 1.0112214777e+000	 1.6749962079e-001	 2.0256341024e+000
 1.0096019743e+000	 1.7699958627e-001	 2.0825100222e+000
 1.0078880026e+000	 1.8651212874e-001	 2.1400195902e+000
 1.0457526541e+000	 9.4347159819e-002	 1.5565389604e+000
 1.0448437283e+000	 1.0393066707e-001	 1.6001417432e+000
 1.0438435588e+000	 1.1353688729e-001	 1.6438704078e+000
 1.0427513919e+000	 1.2316466467e-001	 1.6876730333e+000
 1.0415664906e+000	 1.3281282210e-001	 1.7314964860e+000
 1.0402881349e+000	 1.4248016138e-001	 1.7752864669e+000
 1.0389156230e+000	 1.5216546349e-001	 1.8189875606e+000
 1.0374482715e+000	 1.6186748880e-001	 1.8625432852e+000
 1.0358854162e+000	 1.7158497739e-001	 1.9058961436e+000
 1.0342264127e+000	 1.8131664935e-001	 1.9489876748e+000
 1.0324706368e+000	 1.9106120505e-001	 1.9917585065e+000
 1.0706515268e+000	 9.6593520764e-002	 1.6014792681e+000
 1.0697209599e+000	 1.0640520676e-001	 1.6380528784e+000
 1.0686969769e+000	 1.1624014650e-001	 1.6739241073e+000
 1.0675788060e+000	 1.2609715668e-001	 1.7090251653e+000
 1.0663656927e+000	 1.3597503214e-001	 1.7432875396e+000
 1.0650569000e+000	 1.4587254618e-001	 1.7766420705e+000
 1.0636517093e+000	 1.5578845071e-001	 1.8090190291e+000
 1.0621494208e+000	 1.6572147663e-001	 1.8403481959e+000
 1.0605493547e+000	 1.7567033400e-001	 1.8705589402e+000
 1.0588508511e+000	 1.8563371242e-001	 1.8995803009e+000
 1.0570532710e+000	 1.9561028136e-001	 1.9273410665e+000
 1.0955503995e+000	 9.8839881709e-002	 1.7278799093e+000
 1.0945981915e+000	 1.0887974645e-001	 1.7570860999e+000
 1.0935503949e+000	 1.1894340572e-001	 1.7847721256e+000
 1.0924062201e+000	 1.2902964869e-001	 1.8108544706e+000
 1.0911648949e+000	 1.3913724219e-001	 1.8352493911e+000
 1.0898256651e+000	 1.4926493097e-001	 1.8578730207e+000
 1.0883877955e+000	 1.5941143794e-001	 1.8786414771e+000
 1.0868505702e+000	 1.6957546445e-001	 1.8974709695e+000
 1.0852132932e+000	 1.7975569060e-001	 1.9142779076e+000
 1.0834752895e+000	 1.8995077550e-001	 1.9289790095e+000
 1.0816359052e+000	 2.0015935767e-001	 1.9414914115e+000
 1.1204492722e+000	 1.0108624265e-001	 1.9305420411e+000
 1.1194754231e+000	 1.1135428614e-001	 1.9520943017e+000
 1.1184038130e+000	 1.2164666494e-001	 1.9713169429e+000
 1.1172336342e+000	 1.3196214071e-001	 1.9881108219e+000
 1.1159640970e+000	 1.4229945224e-001	 2.0023770698e+000
 1.1145944303e+000	 1.5265731576e-001	 2.0140172260e+000
 1.1131238818e+000	 1.6303442516e-001	 2.0229333746e+000
 1.1115517195e+000	 1.7342945228e-001	 2.0290282808e+000
 1.1098772317e+000	 1.8384104720e-001	 2.0322055289e+000
 1.1080997279e+000	 1.9426783858e-001	 2.0323696595e+000
 1.1062185395e+000	 2.0470843398e-001	 2.0294263072e+000
 1.1453481449e+000	 1.0333260360e-001	 2.2047322413e+000
 1.1443526547e+000	 1.1382882583e-001	 2.2183924557e+000
 1.1432572311e+000	 1.2434992416e-001	 2.2289199249e+000
 1.1420610483e+000	 1.3489463272e-001	 2.2361999382e+000
 1.1407632992e+000	 1.4546166229e-001	 2.2401185676e+000
 1.1393631954e+000	 1.5604970055e-001	 2.2405628326e+000
 1.1378599681e+000	 1.6665741239e-001	 2.2374208654e+000
 1.1362528688e+000	 1.7728344011e-001	 2.2305820774e+000
 1.1345411701e+000	 1.8792640381e-001	 2.2199373263e+000
 1.1327241663e+000	 1.9858490166e-001	 2.2053790828e+000
 1.1308011737e+000	 2.0925751029e-001	 2.1868015970e+000
 1.1702470176e+000	 1.0557896455e-001	 2.5461329950e+000
 1.1692298864e+000	 1.1630336552e-001	 2.5517084540e+000
 1.1681106491e+000	 1.2705318338e-001	 2.5533525049e+000
 1.1668884624e+000	 1.3782712473e-001	 2.5509348900e+000
 1.1655625014e+000	 1.4862387233e-001	 2.5443266516e+000
 1.1641319605e+000	 1.5944208535e-001	 2.5334003266e+000
 1.1625960543e+000	 1.7028039961e-001	 2.5180301418e+000
 1.1609540181e+000	 1.8113742794e-001	 2.4980922104e+000
 1.1592051086e+000	 1.9201176041e-001	 2.4734647288e+000
 1.1573486046e+000	 2.0290196474e-001	 2.4440281724e+000
 1.1553838079e+000	 2.1380658660e-001	 2.4096654920e+000
 1.1951458903e+000	 1.0782532549e-001	 2.9507993714e+000
 1.1941071180e+000	 1.1877790521e-001	 2.9481400971e+000
 1.1929640672e+000	 1.2975644260e-001	 2.9407534688e+000
 1.1917158765e+000	 1.4075961675e-001	 2.9284936674e+000
 1.1903617035e+000	 1.5178608238e-001	 2.9112166998e+000
 1.1889007256e+000	 1.6283447014e-001	 2.8887806236e+000
 1.1873321406e+000	 1.7390338684e-001	 2.8610457732e+000
 1.1856551674e+000	 1.8499141576e-001	 2.8278749866e+000
 1.1838690471e+000	 1.9609711701e-001	 2.7891338319e+000
 1.1819730430e+000	 2.0721902781e-001	 2.7446908339e+000
 1.1799664421e+000	 2.1835566291e-001	 2.6944176993e+000
 1.2200447631e+000	 1.1007168644e-001	 3.4151210048e+000
 1.2189843496e+000	 1.2125244490e-001	 3.4041173477e+000
 1.2178174853e+000	 1.3245970182e-001	 3.3875914700e+000
 1.2165432906e+000	 1.4369210877e-001	 3.3653819434e+000
 1.2151609057e+000	 1.5494829243e-001	 3.3373297004e+000
 1.2136694907e+000	 1.6622685494e-001	 3.3032782904e+000
 1.2120682268e+000	 1.7752637406e-001	 3.2630741369e+000
 1.2103563168e+000	 1.8884540359e-001	 3.2165667947e+000
 1.2085329856e+000	 2.0018247362e-001	 3.1636092075e+000
 1.2065974814e+000	 2.1153609089e-001	 3.1040579642e+000
 1.2045490763e+000	 2.2290473922e-001	 3.0377735547e+000
 1.2449436358e+000	 1.1231804739e-001	 3.9357886382e+000
 1.2438615812e+000	 1.2372698459e-001	 3.9163691143e+000
 1.2426709033e+000	 1.3516296104e-001	 3.8906320427e+000
 1.2413707047e+000	 1.4662460078e-001	 3.8584003053e+000
 1.2399601078e+000	 1.5811050249e-001	 3.8194996902e+000
 1.2384382558e+000	 1.6961923973e-001	 3.7737591795e+000
 1.2368043131e+000	 1.8114936129e-001	 3.7210112371e+000
 1.2350574661e+000	 1.9269939142e-001	 3.6610920979e+000
 1.2331969241e+000	 2.0426783022e-001	 3.5938420560e+000
 1.2312219198e+000	 2.1585315397e-001	 3.5191057522e+000
 1.2291317105e+000	 2.2745381553e-001	 3.4367324604e+000
 9.8330536841e-001	 1.8196305243e-001	 2.3779543781e+000
 9.8154046252e-001	 1.9125459577e-001	 2.4637443128e+000
 9.7968226449e-001	 2.0055587900e-001	 2.5494848595e+000
 9.7773024174e-001	 2.0986561017e-001	 2.6352137883e+000
 9.7568388343e-001	 2.1918248004e-001	 2.7209695569e+000
 9.7354270101e-001	 2.2850516241e-001	 2.8067912873e+000
 9.7130622879e-001	 2.3783231458e-001	 2.8927187379e+000
 9.6897402446e-001	 2.4716257779e-001	 2.9787922724e+000
 9.6654566967e-001	 2.5649457767e-001	 3.0650528256e+000
 9.6402077054e-001	 2.6582692472e-001	 3.1515418646e+000
 9.6139895816e-001	 2.7515821483e-001	 3.2383013467e+000
 1.0078880026e+000	 1.8651212874e-001	 2.1400195902e+000
 1.0060789741e+000	 1.9603596067e-001	 2.2185402643e+000
 1.0041743211e+000	 2.0556977597e-001	 2.2961345542e+000
 1.0021734978e+000	 2.1511225043e-001	 2.3728218622e+000
 1.0000759805e+000	 2.2466204205e-001	 2.4486228429e+000
 9.9788126854e-001	 2.3421779148e-001	 2.5235594093e+000
 9.9558888451e-001	 2.4377812245e-001	 2.5976547354e+000
 9.9319837507e-001	 2.5334164224e-001	 2.6709332550e+000
 9.9070931141e-001	 2.6290694212e-001	 2.7434206569e+000
 9.8812128980e-001	 2.7247259785e-001	 2.8151438751e+000
 9.8543393212e-001	 2.8203717021e-001	 2.8861310758e+000
 1.0324706368e+000	 1.9106120505e-001	 1.9917585065e+000
 1.0306174856e+000	 2.0081732556e-001	 2.0618333559e+000
 1.0286663777e+000	 2.1058367295e-001	 2.1301155804e+000
 1.0266167538e+000	 2.2035889069e-001	 2.1966068097e+000
 1.0244680776e+000	 2.3014160405e-001	 2.2613105025e+000
 1.0222198361e+000	 2.3993042054e-001	 2.3242319829e+000
 1.0198715402e+000	 2.4972393032e-001	 2.3853784733e+000
 1.0174227257e+000	 2.5952070669e-001	 2.4447591226e+000
 1.0148729532e+000	 2.6931930657e-001	 2.5023850308e+000
 1.0122218091e+000	 2.7911827098e-001	 2.5582692680e+000
 1.0094689061e+000	 2.8891612559e-001	 2.6124268896e+000
 1.0570532710e+000	 1.9561028136e-001	 1.9273410665e+000
 1.0551559972e+000	 2.0559869045e-001	 1.9878879464e+000
 1.0531584343e+000	 2.1559756992e-001	 2.0457842571e+000
 1.0510600099e+000	 2.2560553094e-001	 2.1010143909e+000
 1.0488601747e+000	 2.3562116605e-001	 2.1535651593e+000
 1.0465584036e+000	 2.4564304960e-001	 2.2034258606e+000
 1.0441541959e+000	 2.5566973819e-001	 2.2505883414e+000
 1.0416470763e+000	 2.6569977114e-001	 2.2950470558e+000
 1.0390365949e+000	 2.7573167102e-001	 2.3367991179e+000
 1.0363223283e+000	 2.8576394410e-001	 2.3758443504e+000
 1.0335038800e+000	 2.9579508097e-001	 2.4121853273e+000
 1.0816359052e+000	 2.0015935767e-001	 1.9414914115e+000
 1.0796945088e+000	 2.1038005535e-001	 1.9915147953e+000
 1.0776504909e+000	 2.2061146690e-001	 2.0380356787e+000
 1.0755032659e+000	 2.3085217120e-001	 2.0810216969e+000
 1.0732522718e+000	 2.4110072806e-001	 2.1204435097e+000
 1.0708969711e+000	 2.5135567866e-001	 2.1562748988e+000
 1.0684368517e+000	 2.6161554606e-001	 2.1884928601e+000
 1.0658714269e+000	 2.7187883559e-001	 2.2170776915e+000
 1.0632002366e+000	 2.8214403546e-001	 2.2420130750e+000
 1.0604228476e+000	 2.9240961722e-001	 2.2632861539e+000
 1.0575388540e+000	 3.0267403634e-001	 2.2808876029e+000
 1.1062185395e+000	 2.0470843398e-001	 2.0294263072e+000
 1.1042330203e+000	 2.1516142024e-001	 2.0680103514e+000
 1.1021425476e+000	 2.2562536387e-001	 2.1022438507e+000
 1.0999465220e+000	 2.3609881145e-001	 2.1320781130e+000
 1.0976443689e+000	 2.4658029006e-001	 2.1574680918e+000
 1.0952355386e+000	 2.5706830773e-001	 2.1783725133e+000
 1.0927195074e+000	 2.6756135392e-001	 2.1947539992e+000
 1.0900957775e+000	 2.7805790004e-001	 2.2065791836e+000
 1.0873638784e+000	 2.8855639991e-001	 2.2138188246e+000
 1.0845233669e+000	 2.9905529035e-001	 2.2164479094e+000
 1.0815738279e+000	 3.0955299172e-001	 2.2144457529e+000
 1.1308011737e+000	 2.0925751029e-001	 2.1868015970e+000
 1.1287715319e+000	 2.1994278513e-001	 2.2131039604e+000
 1.1266346042e+000	 2.3063926085e-001	 2.2342096343e+000
 1.1243897780e+000	 2.4134545170e-001	 2.2500539823e+000
 1.1220364660e+000	 2.5205985206e-001	 2.2605766508e+000
 1.1195741062e+000	 2.6278093679e-001	 2.2657217267e+000
 1.1170021631e+000	 2.7350716179e-001	 2.2654378898e+000
 1.1143201281e+000	 2.8423696448e-001	 2.2596785598e+000
 1.1115275201e+000	 2.9496876435e-001	 2.2484020366e+000
 1.1086238861e+000	 3.0570096347e-001	 2.2315716343e+000
 1.1056088019e+000	 3.1643194709e-001	 2.2091558072e+000
 1.1553838079e+000	 2.1380658660e-001	 2.4096654920e+000
 1.1533100435e+000	 2.2472415003e-001	 2.4229118123e+000
 1.1511266608e+000	 2.3565315782e-001	 2.4301153364e+000
 1.1488330341e+000	 2.4659209196e-001	 2.4311958229e+000
 1.1464285630e+000	 2.5753941406e-001	 2.4260779680e+000
 1.1439126737e+000	 2.6849356585e-001	 2.4146915932e+000
 1.1412848188e+000	 2.7945296965e-001	 2.3969718283e+000
 1.1385444787e+000	 2.9041602893e-001	 2.3728592879e+000
 1.1356911619e+000	 3.0138112879e-001	 2.3423002407e+000
 1.1327244054e+000	 3.1234663659e-001	 2.3052467723e+000
 1.1296437758e+000	 3.2331090246e-001	 2.2616569393e+000
 1.1799664421e+000	 2.1835566291e-001	 2.6944176993e+000
 1.1778485550e+000	 2.2950551492e-001	 2.6938966450e+000
 1.1756187174e+000	 2.4066705479e-001	 2.6864849753e+000
 1.1732762901e+000	 2.5183873221e-001	 2.6720871432e+000
 1.1708206601e+000	 2.6301897606e-001	 2.6506132112e+000
 1.1682512412e+000	 2.7420619490e-001	 2.6219790709e+000
 1.1655674746e+000	 2.8539877752e-001	 2.5861066556e+000
 1.1627688294e+000	 2.9659509337e-001	 2.5429241470e+000
 1.1598548036e+000	 3.0779349323e-001	 2.4923661738e+000
 1.1568249247e+000	 3.1899230970e-001	 2.4343740029e+000
 1.1536787498e+000	 3.3018985783e-001	 2.3688957218e+000
 1.2045490763e+000	 2.2290473922e-001	 3.0377735547e+000
 1.2023870666e+000	 2.3428687981e-001	 3.0228323821e+000
 1.2001107740e+000	 2.4568095177e-001	 3.0001494127e+000
 1.1977195461e+000	 2.5708537246e-001	 2.9696140548e+000
 1.1952127572e+000	 2.6849853806e-001	 2.9311220176e+000
 1.1925898088e+000	 2.7991882396e-001	 2.8845755615e+000
 1.1898501303e+000	 2.9134458538e-001	 2.8298837417e+000
 1.1869931800e+000	 3.0277415782e-001	 2.7669626446e+000
 1.1840184454e+000	 3.1420585767e-001	 2.6957356165e+000
 1.1809254439e+000	 3.2563798282e-001	 2.6161334829e+000
 1.1777137238e+000	 3.3706881320e-001	 2.5280947592e+000
 1.2291317105e+000	 2.2745381553e-001	 3.4367324604e+000
 1.2269255782e+000	 2.3906824470e-001	 3.4067730146e+000
 1.2246028306e+000	 2.5069484874e-001	 3.3682156689e+000
 1.2221628022e+000	 2.6233201271e-001	 3.3209350126e+000
 1.2196048543e+000	 2.7397810005e-001	 3.2648126470e+000
 1.2169283763e+000	 2.8563145302e-001	 3.1997374664e+000
 1.2141327860e+000	 2.9729039324e-001	 3.1256059330e+000
 1.2112175306e+000	 3.0895322226e-001	 3.0423223437e+000
 1.2081820871e+000	 3.2061822211e-001	 2.9497990884e+000
 1.2050259632e+000	 3.3228365593e-001	 2.8479568983e+000
 1.2017486977e+000	 3.4394776857e-001	 2.7367250850e+000
 9.6139895816e-001	 2.7515821483e-001	 3.2383013467e+000
 9.5867988915e-001	 2.8448702975e-001	 3.3493995620e+000
 9.5586324609e-001	 2.9381193769e-001	 3.4551537957e+000
 9.5294873809e-001	 3.0313149381e-001	 3.5556475035e+000
 9.4993610118e-001	 3.1244424085e-001	 3.6509703827e+000
 9.4682509884e-001	 3.2174870969e-001	 3.7412183597e+000
 9.4361552239e-001	 3.3104341994e-001	 3.8264935657e+000
 9.4030719147e-001	 3.4032688062e-001	 3.9069043016e+000
 9.3689995439e-001	 3.4959759075e-001	 3.9825649913e+000
 9.3339368862e-001	 3.5885404004e-001	 4.0535961234e+000
 9.2978830108e-001	 3.6809470955e-001	 4.1201241811e+000
 9.8543393212e-001	 2.8203717021e-001	 2.8861310758e+000
 9.8264688638e-001	 2.9159920551e-001	 2.9877059169e+000
 9.7975982724e-001	 3.0115723614e-001	 3.0838410798e+000
 9.7677245654e-001	 3.1070978117e-001	 3.1746117288e+000
 9.7368450371e-001	 3.2025534689e-001	 3.2600994031e+000
 9.7049572631e-001	 3.2979242744e-001	 3.3403920150e+000
 9.6720591045e-001	 3.3931950545e-001	 3.4155838369e+000
 9.6381487125e-001	 3.4883505265e-001	 3.4857754770e+000
 9.6032245325e-001	 3.5833753053e-001	 3.5510738433e+000
 9.5672853083e-001	 3.6782539105e-001	 3.6115920951e+000
 9.5303300860e-001	 3.7729707730e-001	 3.6674495831e+000
 1.0094689061e+000	 2.8891612559e-001	 2.6124268896e+000
 1.0066138836e+000	 2.9871138126e-001	 2.7030982236e+000
 1.0036564084e+000	 3.0850253459e-001	 2.7882068816e+000
 1.0005961750e+000	 3.1828806852e-001	 2.8678202898e+000
 9.9743290624e-001	 3.2806645292e-001	 2.9420124182e+000
 9.9416635378e-001	 3.3783614519e-001	 3.0108637891e+000
 9.9079629851e-001	 3.4759559096e-001	 3.0744614761e+000
 9.8732255103e-001	 3.5734322467e-001	 3.1328990899e+000
 9.8374495210e-001	 3.6707747030e-001	 3.1862767527e+000
 9.8006337304e-001	 3.7679674206e-001	 3.2347010601e+000
 9.7627771612e-001	 3.8649944504e-001	 3.2782850308e+000
 1.0335038800e+000	 2.9579508097e-001	 2.4121853273e+000
 1.0305808808e+000	 3.0582355701e-001	 2.4906639771e+000
 1.0275529895e+000	 3.1584783304e-001	 2.5634297573e+000
 1.0244198934e+000	 3.2586635588e-001	 2.6305428741e+000
 1.0211813088e+000	 3.3587755895e-001	 2.6920702811e+000
 1.0178369812e+000	 3.4587986295e-001	 2.7480856994e+000
 1.0143866866e+000	 3.5587167647e-001	 2.7986696272e+000
 1.0108302308e+000	 3.6585139669e-001	 2.8439093368e+000
 1.0071674510e+000	 3.7581741008e-001	 2.8838988590e+000
 1.0033982153e+000	 3.8576809306e-001	 2.9187389553e+000
 9.9952242364e-001	 3.9570181278e-001	 2.9485370762e+000
 1.0575388540e+000	 3.0267403634e-001	 2.2808876029e+000
 1.0545478781e+000	 3.1293573276e-001	 2.3459673620e+000
 1.0514495707e+000	 3.2319313149e-001	 2.4051569063e+000
 1.0482436119e+000	 3.3344464323e-001	 2.4585097073e+000
 1.0449297113e+000	 3.4368866498e-001	 2.5060862225e+000
 1.0415076087e+000	 3.5392358070e-001	 2.5479539274e+000
 1.0379770746e+000	 3.6414776197e-001	 2.5841873362e+000
 1.0343379106e+000	 3.7435956871e-001	 2.6148680089e+000
 1.0305899498e+000	 3.8455734985e-001	 2.6400845469e+000
 1.0267330575e+000	 3.9473944407e-001	 2.6599325740e+000
 1.0227671312e+000	 4.0490418052e-001	 2.6745147049e+000
 1.0815738279e+000	 3.0955299172e-001	 2.2144457529e+000
 1.0785148753e+000	 3.2004790851e-001	 2.2649962874e+000
 1.0753461519e+000	 3.3053842994e-001	 2.3094520998e+000
 1.0720673303e+000	 3.4102293058e-001	 2.3478603820e+000
 1.0686781138e+000	 3.5149977101e-001	 2.3802755860e+000
 1.0651782362e+000	 3.6196729844e-001	 2.4067594676e+000
 1.0615674627e+000	 3.7242384748e-001	 2.4273811181e+000
 1.0578455904e+000	 3.8286774073e-001	 2.4422169822e+000
 1.0540124487e+000	 3.9329728963e-001	 2.4513508635e+000
 1.0500678997e+000	 4.0371079507e-001	 2.4548739159e+000
 1.0460118387e+000	 4.1410654826e-001	 2.4528846206e+000
 1.1056088019e+000	 3.1643194709e-001	 2.2091558072e+000
 1.1024818725e+000	 3.2716008426e-001	 2.2441163296e+000
 1.0992427330e+000	 3.3788372839e-001	 2.2727504009e+000
 1.0958910488e+000	 3.4860121793e-001	 2.2950993612e+000
 1.0924265164e+000	 3.5931087703e-001	 2.3112121202e+000
 1.0888488637e+000	 3.7001101619e-001	 2.3211452126e+000
 1.0851578507e+000	 3.8069993298e-001	 2.3249628405e+000
 1.0813532702e+000	 3.9137591275e-001	 2.3227369031e+000
 1.0774349475e+000	 4.0203722940e-001	 2.3145470116e+000
 1.0734027419e+000	 4.1268214607e-001	 2.3004804903e+000
 1.0692565462e+000	 4.2330891600e-001	 2.2806323631e+000
 1.1296437758e+000	 3.2331090246e-001	 2.2616569393e+000
 1.1264488698e+000	 3.3427226000e-001	 2.2800305551e+000
 1.1231393142e+000	 3.4522902683e-001	 2.2918186659e+000
 1.1197147673e+000	 3.5617950528e-001	 2.2970571627e+000
 1.1161749189e+000	 3.6712198306e-001	 2.2957898509e+000
 1.1125194911e+000	 3.7805473393e-001	 2.2880685171e+000
 1.1087482388e+000	 3.8897601848e-001	 2.2739529839e+000
 1.1048609500e+000	 3.9988408477e-001	 2.2535111497e+000
 1.1008574464e+000	 4.1077716917e-001	 2.2268190139e+000
 1.0967375841e+000	 4.2165349708e-001	 2.1939606877e+000
 1.0925012537e+000	 4.3251128374e-001	 2.1550283895e+000
 1.1536787498e+000	 3.3018985783e-001	 2.3688957218e+000
 1.1504158670e+000	 3.4138443575e-001	 2.3697443650e+000
 1.1470358953e+000	 3.5257432527e-001	 2.3637209823e+000
 1.1435384857e+000	 3.6375779263e-001	 2.3508563948e+000
 1.1399233214e+000	 3.7493308908e-001	 2.3311897181e+000
 1.1361901186e+000	 3.8609845168e-001	 2.3047684417e+000
 1.1323386269e+000	 3.9725210398e-001	 2.2716484947e+000
 1.1283686297e+000	 4.0839225679e-001	 2.2318942969e+000
 1.1242799453e+000	 4.1951710894e-001	 2.1855787944e+000
 1.1200724263e+000	 4.3062484808e-001	 2.1327834795e+000
 1.1157459613e+000	 4.4171365148e-001	 2.0735983951e+000
 1.1777137238e+000	 3.3706881320e-001	 2.5280947592e+000
 1.1743828642e+000	 3.4849661149e-001	 2.5105346447e+000
 1.1709324765e+000	 3.5991962372e-001	 2.4857883390e+000
 1.1673622042e+000	 3.7133607997e-001	 2.4538819511e+000
 1.1636717239e+000	 3.8274419510e-001	 2.4148503000e+000
 1.1598607461e+000	 3.9414216942e-001	 2.3687370073e+000
 1.1559290149e+000	 4.0552818948e-001	 2.3155945742e+000
 1.1518763095e+000	 4.1690042880e-001	 2.2554844434e+000
 1.1477024441e+000	 4.2825704871e-001	 2.1884770455e+000
 1.1434072685e+000	 4.3959619908e-001	 2.1146518281e+000
 1.1389906688e+000	 4.5091601922e-001	 2.0340972691e+000
 1.2017486977e+000	 3.4394776857e-001	 2.7367250850e+000
 1.1983498614e+000	 3.5560878723e-001	 2.6999226154e+000
 1.1948290576e+000	 3.6726492216e-001	 2.6555919365e+000
 1.1911859226e+000	 3.7891436731e-001	 2.6037547821e+000
 1.1874201265e+000	 3.9055530112e-001	 2.5444420486e+000
 1.1835313736e+000	 4.0218588716e-001	 2.4776938991e+000
 1.1795194030e+000	 4.1380427497e-001	 2.4035598532e+000
 1.1753839893e+000	 4.2540860082e-001	 2.3220988591e+000
 1.1711249430e+000	 4.3699698847e-001	 2.2333793511e+000
 1.1667421108e+000	 4.4856755008e-001	 2.1374792879e+000
 1.1622353763e+000	 4.6011838696e-001	 2.0344861747e+000
 9.2978830108e-001	 3.6809470955e-001	 4.1201241811e+000
 9.2608372854e-001	 3.7731807239e-001	 4.2077550156e+000
 9.2227993800e-001	 3.8652259441e-001	 4.2894978458e+000
 9.1837692696e-001	 3.9570673493e-001	 4.3655558770e+000
 9.1437472374e-001	 4.0486894748e-001	 4.4361403339e+000
 9.1027338778e-001	 4.1400768054e-001	 4.5014702967e+000
 9.0607300991e-001	 4.2312137829e-001	 4.5617725218e+000
 9.0177371256e-001	 4.3220848139e-001	 4.6172812471e+000
 8.9737565002e-001	 4.4126742776e-001	 4.6682379810e+000
 8.9287900861e-001	 4.5029665337e-001	 4.7148912765e+000
 8.8828400685e-001	 4.5929459305e-001	 4.7574964892e+000
 9.5303300860e-001	 3.7729707730e-001	 3.6674495831e+000
 9.4923582175e-001	 3.8675102420e-001	 3.7504304594e+000
 9.4533693645e-001	 3.9618565927e-001	 3.8271048386e+000
 9.4133635013e-001	 4.0559940330e-001	 3.8976782424e+000
 9.3723409182e-001	 4.1499067117e-001	 3.9623648185e+000
 9.3303022247e-001	 4.2435787255e-001	 4.0213871799e+000
 9.2872483515e-001	 4.3369941274e-001	 4.0749762282e+000
 9.2431805537e-001	 4.4301369342e-001	 4.1233709592e+000
 9.1981004127e-001	 4.5229911345e-001	 4.1668182526e+000
 9.1520098382e-001	 4.6155406970e-001	 4.2055726446e+000
 9.1049110702e-001	 4.7077695788e-001	 4.2398960842e+000
 9.7627771612e-001	 3.8649944504e-001	 3.2782850308e+000
 9.7238791496e-001	 3.9618397601e-001	 3.3557168828e+000
 9.6839393489e-001	 4.0584872413e-001	 3.4264175902e+000
 9.6429577330e-001	 4.1549207167e-001	 3.4905956425e+000
 9.6009345991e-001	 4.2511239485e-001	 3.5484687840e+000
 9.5578705716e-001	 4.3470806456e-001	 3.6002638562e+000
 9.5137666039e-001	 4.4427744720e-001	 3.6462166229e+000
 9.4686239818e-001	 4.5381890545e-001	 3.6865715763e+000
 9.4224443251e-001	 4.6333079914e-001	 3.7215817257e+000
 9.3752295903e-001	 4.7281148603e-001	 3.7515083689e+000
 9.3269820719e-001	 4.8225932270e-001	 3.7766208457e+000
 9.9952242364e-001	 3.9570181278e-001	 2.9485370762e+000
 9.9554000817e-001	 4.0561692782e-001	 3.0195606593e+000
 9.9145093334e-001	 4.1551178899e-001	 3.0834210639e+000
 9.8725519647e-001	 4.2538474004e-001	 3.1403303801e+000
 9.8295282800e-001	 4.3523411854e-001	 3.1905106054e+000
 9.7854389185e-001	 4.4505825657e-001	 3.2341934896e+000
 9.7402848564e-001	 4.5485548165e-001	 3.2716203605e+000
 9.6940674099e-001	 4.6462411748e-001	 3.3030419303e+000
 9.6467882376e-001	 4.7436248483e-001	 3.3287180836e+000
 9.5984493424e-001	 4.8406890236e-001	 3.3489176458e+000
 9.5490530736e-001	 4.9374168753e-001	 3.3639181333e+000
 1.0227671312e+000	 4.0490418052e-001	 2.6745147049e+000
 1.0186921014e+000	 4.1504987963e-001	 2.7383067383e+000
 1.0145079318e+000	 4.2517485385e-001	 2.7944950019e+000
 1.0102146196e+000	 4.3527740842e-001	 2.8432958034e+000
 1.0058121961e+000	 4.4535584222e-001	 2.8849360351e+000
 1.0013007265e+000	 4.5540844858e-001	 2.9196530203e+000
 9.9668031088e-001	 4.6543351611e-001	 2.9476943394e+000
 9.9195108380e-001	 4.7542932951e-001	 2.9693176365e+000
 9.8711321501e-001	 4.8539417052e-001	 2.9847904051e+000
 9.8216690946e-001	 4.9532631870e-001	 2.9943897542e+000
 9.7711240753e-001	 5.0522405235e-001	 2.9984021536e+000
 1.0460118387e+000	 4.1410654826e-001	 2.4528846206e+000
 1.0418441946e+000	 4.2448283144e-001	 2.5086543588e+000
 1.0375649302e+000	 4.3483791871e-001	 2.5563700615e+000
 1.0331740428e+000	 4.4517007679e-001	 2.5962528573e+000
 1.0286715642e+000	 4.5547756591e-001	 2.6285351612e+000
 1.0240575612e+000	 4.6575864059e-001	 2.6534605229e+000
 1.0193321361e+000	 4.7601155056e-001	 2.6712834529e+000
 1.0144954266e+000	 4.8623454155e-001	 2.6822692283e+000
 1.0095476063e+000	 4.9642585621e-001	 2.6866936760e+000
 1.0044888847e+000	 5.0658373503e-001	 2.6848429354e+000
 9.9931950770e-001	 5.1670641718e-001	 2.6770131994e+000
 1.0692565462e+000	 4.2330891600e-001	 2.2806323631e+000
 1.0649962878e+000	 4.3391578325e-001	 2.3276185396e+000
 1.0606219287e+000	 4.4450098357e-001	 2.3660896721e+000
 1.0561334660e+000	 4.5506274516e-001	 2.3962723006e+000
 1.0515309323e+000	 4.6559928959e-001	 2.4184049795e+000
 1.0468143959e+000	 4.7610883261e-001	 2.4327381269e+000
 1.0419839614e+000	 4.8658958502e-001	 2.4395338509e+000
 1.0370397694e+000	 4.9703975358e-001	 2.4390657536e+000
 1.0319819975e+000	 5.0745754190e-001	 2.4316187120e+000
 1.0268108599e+000	 5.1784115136e-001	 2.4174886363e+000
 1.0215266079e+000	 5.2818878200e-001	 2.3969822053e+000
 1.0925012537e+000	 4.3251128374e-001	 2.1550283895e+000
 1.0881483810e+000	 4.4334873506e-001	 2.1924964858e+000
 1.0836789271e+000	 4.5416404842e-001	 2.2209767614e+000
 1.0790928892e+000	 4.6495541353e-001	 2.2407017473e+000
 1.0743903004e+000	 4.7572101328e-001	 2.2519167436e+000
 1.0695712306e+000	 4.8645902462e-001	 2.2548796698e+000
 1.0646357866e+000	 4.9716761947e-001	 2.2498608905e+000
 1.0595841122e+000	 5.0784496561e-001	 2.2371430177e+000
 1.0544163888e+000	 5.1848922760e-001	 2.2170206882e+000
 1.0491328351e+000	 5.2909856769e-001	 2.1898003173e+000
 1.0437337080e+000	 5.3967114683e-001	 2.1557998285e+000
 1.1157459613e+000	 4.4171365148e-001	 2.0735983951e+000
 1.1113004742e+000	 4.5278168687e-001	 2.1008381942e+000
 1.1067359256e+000	 4.6382711328e-001	 2.1186046412e+000
 1.1020523123e+000	 4.7484808190e-001	 2.1271368277e+000
 1.0972496685e+000	 4.8584273696e-001	 2.1266873970e+000
 1.0923280653e+000	 4.9680921663e-001	 2.1175223949e+000
 1.0872876119e+000	 5.0774565393e-001	 2.0999210946e+000
 1.0821284551e+000	 5.1865017764e-001	 2.0741757962e+000
 1.0768507800e+000	 5.2952091329e-001	 2.0405916009e+000
 1.0714548103e+000	 5.4035598403e-001	 1.9994861593e+000
 1.0659408082e+000	 5.5115351165e-001	 1.9511893944e+000
 1.1389906688e+000	 4.5091601922e-001	 2.0340972691e+000
 1.1344525674e+000	 4.6221463868e-001	 2.0504206586e+000
 1.1297929240e+000	 4.7349017814e-001	 2.0567714578e+000
 1.1250117355e+000	 4.8474075028e-001	 2.0533958802e+000
 1.1201090366e+000	 4.9596446065e-001	 2.0405545020e+000
 1.1150849000e+000	 5.0715940864e-001	 2.0185221135e+000
 1.1099394371e+000	 5.1832368838e-001	 1.9875875421e+000
 1.1046727979e+000	 5.2945538968e-001	 1.9480534499e+000
 1.0992851713e+000	 5.4055259898e-001	 1.9002361025e+000
 1.0937767855e+000	 5.5161340036e-001	 1.8444651126e+000
 1.0881479084e+000	 5.6263587648e-001	 1.7810831550e+000
 1.1622353763e+000	 4.6011838696e-001	 2.0344861747e+000
 1.1576046607e+000	 4.7164759049e-001	 2.0392251698e+000
 1.1528499225e+000	 4.8315324300e-001	 2.0334777087e+000
 1.1479711587e+000	 4.9463341865e-001	 2.0174976806e+000
 1.1429684047e+000	 5.0608618433e-001	 1.9915541781e+000
 1.1378417347e+000	 5.1750960065e-001	 1.9559313481e+000
 1.1325912624e+000	 5.2890172284e-001	 1.9109282133e+000
 1.1272171407e+000	 5.4026060171e-001	 1.8568584668e+000
 1.1217195625e+000	 5.5158428467e-001	 1.7940502360e+000
 1.1160987607e+000	 5.6287081669e-001	 1.7228458198e+000
 1.1103550086e+000	 5.7411824131e-001	 1.6436013961e+000
 8.8828400685e-001	 4.5929459305e-001	 4.7574964892e+000
 8.8359089566e-001	 4.6825968131e-001	 4.8258639466e+000
 8.7879995843e-001	 4.7719035311e-001	 4.8976924313e+000
 8.7391151114e-001	 4.8608504475e-001	 4.9733082824e+000
 8.6892590245e-001	 4.9494219467e-001	 5.0530375808e+000
 8.6384351377e-001	 5.0376024430e-001	 5.1372057265e+000
 8.5866475923e-001	 5.1253763888e-001	 5.2261370088e+000
 8.5339008574e-001	 5.2127282835e-001	 5.3201541706e+000
 8.4801997294e-001	 5.2996426816e-001	 5.4195779676e+000
 8.4255493313e-001	 5.3861042014e-001	 5.5247267227e+000
 8.3699551125e-001	 5.4720975336e-001	 5.6359158773e+000
 9.1049110702e-001	 4.7077695788e-001	 4.2398960842e+000
 9.0568066805e-001	 4.7996617334e-001	 4.3008475194e+000
 9.0076995739e-001	 4.8912011194e-001	 4.3619341237e+000
 8.9575929892e-001	 4.9823717087e-001	 4.4234830173e+000
 8.9064905002e-001	 5.0731574954e-001	 4.4858243189e+000
 8.8543960162e-001	 5.1635425041e-001	 4.5492907456e+000
 8.8013137822e-001	 5.2535107986e-001	 4.6142172029e+000
 8.7472483789e-001	 5.3430464906e-001	 4.6809403628e+000
 8.6922047226e-001	 5.4321337486e-001	 4.7497982335e+000
 8.6361880646e-001	 5.5207568064e-001	 4.8211297197e+000
 8.5792039903e-001	 5.6088999720e-001	 4.8952741743e+000
 9.3269820719e-001	 4.8225932270e-001	 3.7766208457e+000
 9.2777044045e-001	 4.9167266537e-001	 3.8294476148e+000
 9.2273995635e-001	 5.0104987077e-001	 3.8792263612e+000
 9.1760708670e-001	 5.1038929699e-001	 3.9262863031e+000
 9.1237219758e-001	 5.1968930441e-001	 3.9709628437e+000
 9.0703568946e-001	 5.2894825652e-001	 4.0135971917e+000
 9.0159799720e-001	 5.3816452084e-001	 4.0545359687e+000
 8.9605959003e-001	 5.4733646978e-001	 4.0941308003e+000
 8.9042097158e-001	 5.5646248157e-001	 4.1327378934e+000
 8.8468267979e-001	 5.6554094115e-001	 4.1707176011e+000
 8.7884528681e-001	 5.7457024104e-001	 4.2084339732e+000
 9.5490530736e-001	 4.9374168753e-001	 3.3639181333e+000
 9.4986021284e-001	 5.0337915740e-001	 3.4079230422e+000
 9.4470995531e-001	 5.1297962959e-001	 3.4458281715e+000
 9.3945487447e-001	 5.2254142311e-001	 3.4779661144e+000
 9.3409534514e-001	 5.3206285928e-001	 3.5046787712e+000
 9.2863177731e-001	 5.4154226263e-001	 3.5263169907e+000
 9.2306461618e-001	 5.5097796181e-001	 3.5432401916e+000
 9.1739434218e-001	 5.6036829049e-001	 3.5558159654e+000
 9.1162147091e-001	 5.6971158828e-001	 3.5644196601e+000
 9.0574655311e-001	 5.7900620166e-001	 3.5694339466e+000
 8.9977017459e-001	 5.8825048487e-001	 3.5712483680e+000
 9.7711240753e-001	 5.0522405235e-001	 2.9984021536e+000
 9.7194998523e-001	 5.1508564944e-001	 3.0328976966e+000
 9.6667995427e-001	 5.2490938842e-001	 3.0583628846e+000
 9.6130266225e-001	 5.3469354923e-001	 3.0751349257e+000
 9.5581849270e-001	 5.4443641415e-001	 3.0835634018e+000
 9.5022786515e-001	 5.5413626874e-001	 3.0840099267e+000
 9.4453123516e-001	 5.6379140279e-001	 3.0768477818e+000
 9.3872909432e-001	 5.7340011120e-001	 3.0624615274e+000
 9.3282197023e-001	 5.8296069499e-001	 3.0412465919e+000
 9.2681042644e-001	 5.9247146216e-001	 3.0136088385e+000
 9.2069506237e-001	 6.0193072871e-001	 2.9799641102e+000
 9.9931950770e-001	 5.1670641718e-001	 2.6770131994e+000
 9.9403975762e-001	 5.2679214147e-001	 2.7013199939e+000
 9.8864995323e-001	 5.3683914725e-001	 2.7137776538e+000
 9.8315045003e-001	 5.4684567535e-001	 2.7147292114e+000
 9.7754164026e-001	 5.5680996902e-001	 2.7045330882e+000
 9.7182395300e-001	 5.6673027485e-001	 2.6835627691e+000
 9.6599785414e-001	 5.7660484376e-001	 2.6522064496e+000
 9.6006384646e-001	 5.8643193191e-001	 2.6108666550e+000
 9.5402246955e-001	 5.9620980169e-001	 2.5599598325e+000
 9.4787429977e-001	 6.0593672267e-001	 2.4999159165e+000
 9.4161995015e-001	 6.1561097254e-001	 2.4311778690e+000
 1.0215266079e+000	 5.2818878200e-001	 2.3969822053e+000
 1.0161295300e+000	 5.3849863350e-001	 2.4104275965e+000
 1.0106199522e+000	 5.4876890608e-001	 2.4093082583e+000
 1.0049982378e+000	 5.5899780147e-001	 2.3939742285e+000
 9.9926478782e-001	 5.6918352389e-001	 2.3647939040e+000
 9.9342004084e-001	 5.7932428096e-001	 2.3221537302e+000
 9.8746447312e-001	 5.8941828473e-001	 2.2664578575e+000
 9.8139859860e-001	 5.9946375262e-001	 2.1981277665e+000
 9.7522296887e-001	 6.0945890840e-001	 2.1176018619e+000
 9.6893817309e-001	 6.1940198317e-001	 2.0253350351e+000
 9.6254483793e-001	 6.2929121638e-001	 1.9890910676e+000
 1.0437337080e+000	 5.3967114683e-001	 2.1557998285e+000
 1.0382193024e+000	 5.5020512553e-001	 2.1577166424e+000
 1.0325899511e+000	 5.6069866491e-001	 2.1424483980e+000
 1.0268460256e+000	 5.7114992759e-001	 2.1103532949e+000
 1.0209879354e+000	 5.8155707876e-001	 2.0618108224e+000
 1.0150161287e+000	 5.9191828707e-001	 1.9972214613e+000
 1.0089310921e+000	 6.0223172571e-001	 1.9170063487e+000
 1.0027333507e+000	 6.1249557333e-001	 1.8216069073e+000
 9.9642346820e-001	 6.2270801510e-001	 1.7114844399e+000
 9.9000204642e-001	 6.3286724368e-001	 1.7091005725e+000
 9.8346972570e-001	 6.4297146022e-001	 1.7326241198e+000
 1.0659408082e+000	 5.5115351165e-001	 1.9511893944e+000
 1.0603090748e+000	 5.6191161756e-001	 1.9409148211e+000
 1.0545599501e+000	 5.7262842373e-001	 1.9109228266e+000
 1.0486938134e+000	 5.8330205371e-001	 1.8615809081e+000
 1.0427110829e+000	 5.9393063362e-001	 1.7932807472e+000
 1.0366122165e+000	 6.0451229318e-001	 1.7064379231e+000
 1.0303977111e+000	 6.1504516668e-001	 1.6014915844e+000
 1.0240681029e+000	 6.2552739404e-001	 1.4867573322e+000
 1.0176239675e+000	 6.3595712181e-001	 1.5060058656e+000
 1.0110659197e+000	 6.4633250419e-001	 1.5144867889e+000
 1.0043946135e+000	 6.5665170405e-001	 1.5122069766e+000
 1.0881479084e+000	 5.6263587648e-001	 1.7810831550e+000
 1.0823988472e+000	 5.7361810960e-001	 1.7579577452e+000
 1.0765299491e+000	 5.8455818256e-001	 1.7126637751e+000
 1.0705416011e+000	 5.9545417983e-001	 1.6455791555e+000
 1.0644342305e+000	 6.0630418849e-001	 1.5571088464e+000
 1.0582083044e+000	 6.1710629929e-001	 1.4476845788e+000
 1.0518643301e+000	 6.2785860765e-001	 1.3590992567e+000
 1.0454028550e+000	 6.3855921475e-001	 1.3691062152e+000
 1.0388244668e+000	 6.4920622851e-001	 1.3666914983e+000
 1.0321297931e+000	 6.5979776469e-001	 1.3518501812e+000
 1.0253195013e+000	 6.7033194789e-001	 1.3245819408e+000
 1.1103550086e+000	 5.7411824131e-001	 1.6436013961e+000
 1.1044886196e+000	 5.8532460163e-001	 1.6069681588e+000
 1.0984999480e+000	 5.9648794139e-001	 1.5457902035e+000
 1.0923893889e+000	 6.0760630594e-001	 1.4604569554e+000
 1.0861573781e+000	 6.1867774335e-001	 1.3513877262e+000
 1.0798043922e+000	 6.2970030539e-001	 1.2844506560e+000
 1.0733309490e+000	 6.4067204862e-001	 1.2887848060e+000
 1.0667376072e+000	 6.5159103546e-001	 1.2791932049e+000
 1.0600249662e+000	 6.6245533522e-001	 1.2556559540e+000
 1.0531936664e+000	 6.7326302520e-001	 1.2181587291e+000
 1.0462443890e+000	 6.8401219173e-001	 1.1666930914e+000
 8.3699551125e-001	 5.4720975336e-001	 5.6359158773e+000
 8.3134228471e-001	 5.5576074499e-001	 5.7079158901e+000
 8.2559586333e-001	 5.6426188112e-001	 5.7580252844e+000
 8.1975688910e-001	 5.7271165764e-001	 5.7865007915e+000
 8.1382603608e-001	 5.8110858109e-001	 5.7936212097e+000
 8.0780401013e-001	 5.8945116950e-001	 5.7796871455e+000
 8.0169154872e-001	 5.9773795322e-001	 5.7450207223e+000
 7.9548942062e-001	 6.0596747576e-001	 5.6899652558e+000
 7.8919842564e-001	 6.1413829464e-001	 5.6148848987e+000
 7.8281939432e-001	 6.2224898220e-001	 5.5201642522e+000
 7.7635318757e-001	 6.3029812637e-001	 5.4844087941e+000
 8.5792039903e-001	 5.6088999720e-001	 4.8952741743e+000
 8.5212584183e-001	 5.6965476362e-001	 4.9294143466e+000
 8.4623575991e-001	 5.7836842815e-001	 4.9442533497e+000
 8.4025081132e-001	 5.8702944908e-001	 4.9400828167e+000
 8.3417168698e-001	 5.9563629562e-001	 4.9172146174e+000
 8.2799911038e-001	 6.0418744874e-001	 4.8759805498e+000
 8.2173383744e-001	 6.1268140204e-001	 4.8167320012e+000
 8.1537665613e-001	 6.2111666265e-001	 4.7398395780e+000
 8.0892838628e-001	 6.2949175201e-001	 4.7141859213e+000
 8.0238987918e-001	 6.3780520675e-001	 4.7298323159e+000
 7.9576201726e-001	 6.4605557953e-001	 4.7276257581e+000
 8.7884528681e-001	 5.7457024104e-001	 4.2084339732e+000
 8.7290939895e-001	 5.8354878224e-001	 4.2046210756e+000
 8.6687565649e-001	 5.9247497517e-001	 4.1839737115e+000
 8.6074473355e-001	 6.0134724052e-001	 4.1468186764e+000
 8.5451733788e-001	 6.1016401015e-001	 4.0935012597e+000
 8.4819421063e-001	 6.1892372797e-001	 4.0243848860e+000
 8.4177612615e-001	 6.2762485087e-001	 3.9807538624e+000
 8.3526389165e-001	 6.3626584955e-001	 4.0163060532e+000
 8.2865834692e-001	 6.4484520937e-001	 4.0366979451e+000
 8.2196036404e-001	 6.5336143130e-001	 4.0419538474e+000
 8.1517084695e-001	 6.6181303269e-001	 4.0321088938e+000
 8.9977017459e-001	 5.8825048487e-001	 3.5712483680e+000
 8.9369295606e-001	 5.9744280087e-001	 3.5293474672e+000
 8.8751555307e-001	 6.0658152220e-001	 3.4729639465e+000
 8.8123865577e-001	 6.1566503196e-001	 3.4024600766e+000
 8.7486298878e-001	 6.2469172467e-001	 3.3182149615e+000
 8.6838931088e-001	 6.3366000721e-001	 3.3578437233e+000
 8.6181841487e-001	 6.4256829971e-001	 3.3898453176e+000
 8.5515112716e-001	 6.5141503644e-001	 3.4093614428e+000
 8.4838830756e-001	 6.6019866674e-001	 3.4163978318e+000
 8.4153084889e-001	 6.6891765586e-001	 3.4109682962e+000
 8.3457967664e-001	 6.7757048585e-001	 3.3930949714e+000
 9.2069506237e-001	 6.0193072871e-001	 2.9799641102e+000
 9.1447651318e-001	 6.1133681950e-001	 2.8998012576e+000
 9.0815544965e-001	 6.2068806923e-001	 2.8073999181e+000
 9.0173257800e-001	 6.2998282341e-001	 2.7823572477e+000
 8.9520863967e-001	 6.3921943920e-001	 2.8153803549e+000
 8.8858441113e-001	 6.4839628645e-001	 2.8385458773e+000
 8.8186070358e-001	 6.5751174854e-001	 2.8518399501e+000
 8.7503836267e-001	 6.6656422333e-001	 2.8552537770e+000
 8.6811826820e-001	 6.7555212411e-001	 2.8487838928e+000
 8.6110133375e-001	 6.8447388041e-001	 2.8324324281e+000
 8.5398850633e-001	 6.9332793901e-001	 2.8062073730e+000
 9.4161995015e-001	 6.1561097254e-001	 2.4311778690e+000
 9.3526007029e-001	 6.2523083812e-001	 2.3161807733e+000
 9.2879534623e-001	 6.3479461626e-001	 2.3400280692e+000
 9.2222650022e-001	 6.4430061485e-001	 2.3566061029e+000
 9.1555429057e-001	 6.5374715373e-001	 2.3658911648e+000
 9.0877951138e-001	 6.6313256569e-001	 2.3678615916e+000
 9.0190299230e-001	 6.7245519737e-001	 2.3624980317e+000
 8.9492559818e-001	 6.8171341023e-001	 2.3497837160e+000
 8.8784822884e-001	 6.9090558147e-001	 2.3297047353e+000
 8.8067181861e-001	 7.0003010497e-001	 2.3022503218e+000
 8.7339733601e-001	 7.0908539217e-001	 2.2674131356e+000
 9.6254483793e-001	 6.2929121638e-001	 1.9890910676e+000
 9.5604362741e-001	 6.3912485675e-001	 1.9892130456e+000
 9.4943524281e-001	 6.4890116329e-001	 1.9845735929e+000
 9.4272042245e-001	 6.5861840629e-001	 1.9751478613e+000
 9.3589994147e-001	 6.6827486826e-001	 1.9609103007e+000
 9.2897461163e-001	 6.7786884493e-001	 1.9418349210e+000
 9.2194528101e-001	 6.8739864620e-001	 1.9178955661e+000
 9.1481283370e-001	 6.9686259713e-001	 1.8890661972e+000
 9.0757818948e-001	 7.0625903884e-001	 1.8553211863e+000
 9.0024230346e-001	 7.1558632953e-001	 1.8166356177e+000
 8.9280616570e-001	 7.2484284533e-001	 1.7729855973e+000
 9.8346972570e-001	 6.4297146022e-001	 1.7326241198e+000
 9.7682718452e-001	 6.5301887538e-001	 1.7021814410e+000
 9.7007513939e-001	 6.6300771033e-001	 1.6694041064e+000
 9.6321434467e-001	 6.7293619774e-001	 1.6342665468e+000
 9.5624559237e-001	 6.8280258279e-001	 1.5967400090e+000
 9.4916971188e-001	 6.9260512417e-001	 1.5567928258e+000
 9.4198756973e-001	 7.0234209504e-001	 1.5143906996e+000
 9.3470006921e-001	 7.1201178402e-001	 1.4694970007e+000
 9.2730815011e-001	 7.2161249621e-001	 1.4220730784e+000
 9.1981278832e-001	 7.3114255408e-001	 1.3720785853e+000
 9.1221499539e-001	 7.4060029849e-001	 1.3194718123e+000
 1.0043946135e+000	 6.5665170405e-001	 1.5122069766e+000
 9.9761074164e-001	 6.6691289401e-001	 1.4516044469e+000
 9.9071503597e-001	 6.7711425736e-001	 1.3910445265e+000
 9.8370826689e-001	 6.8725398918e-001	 1.3304995459e+000
 9.7659124327e-001	 6.9733029732e-001	 1.2699361753e+000
 9.6936481213e-001	 7.0734140341e-001	 1.2093157029e+000
 9.6202985844e-001	 7.1728554387e-001	 1.1485943320e+000
 9.5458730472e-001	 7.2716097092e-001	 1.0877234951e+000
 9.4703811075e-001	 7.3696595358e-001	 1.0266501861e+000
 9.3938327317e-001	 7.4669877864e-001	 9.6531730850e-001
 9.3162382508e-001	 7.5635775165e-001	 9.0366403830e-001
 1.0253195013e+000	 6.7033194789e-001	 1.3245819408e+000
 1.0183942987e+000	 6.8080691263e-001	 1.2342262774e+000
 1.0113549325e+000	 6.9122080439e-001	 1.1462466017e+000
 1.0042021891e+000	 7.0157178063e-001	 1.0606117549e+000
 9.9693689417e-001	 7.1185801186e-001	 9.7728244293e-001
 9.8955991238e-001	 7.2207768265e-001	 8.9621152490e-001
 9.8207214715e-001	 7.3222899270e-001	 8.1734432489e-001
 9.7447454023e-001	 7.4231015782e-001	 7.4061896544e-001
 9.6676807139e-001	 7.5231941095e-001	 6.6596672201e-001
 9.5895375803e-001	 7.6225500320e-001	 5.9331239758e-001
 9.5103265477e-001	 7.7211520481e-001	 5.2257471634e-001
 1.0462443890e+000	 6.8401219173e-001	 1.1666930914e+000
 1.0391778559e+000	 6.9470093126e-001	 1.0469943012e+000
 1.0319948291e+000	 7.0532735142e-001	 9.3196622932e-001
 1.0246961113e+000	 7.1588957207e-001	 8.2157282860e-001
 1.0172825451e+000	 7.2638572639e-001	 7.1576743752e-001
 1.0097550126e+000	 7.3681396190e-001	 6.1449308235e-001
 1.0021144359e+000	 7.4717244154e-001	 5.1768280577e-001
 9.9436177575e-001	 7.5745934472e-001	 4.2526002125e-001
 9.8649803203e-001	 7.6767286832e-001	 3.3713889255e-001
 9.7852424289e-001	 7.7781122776e-001	 2.5322473705e-001
 9.7044148445e-001	 7.8787265798e-001	 1.7341445206e-001
 7.7635318757e-001	 6.3029812637e-001	 5.4844087941e+000
 7.6980069631e-001	 6.3828433156e-001	 5.4029259434e+000
 7.6316284107e-001	 6.4620621937e-001	 5.3192218690e+000
 7.5644057159e-001	 6.5406242942e-001	 5.2335609697e+000
 7.4963486637e-001	 6.6185162011e-001	 5.1462074516e+000
 7.4274673220e-001	 6.6957246936e-001	 5.0574252508e+000
 7.3577720365e-001	 6.7722367538e-001	 4.9674779597e+000
 7.2872734261e-001	 6.8480395737e-001	 4.8766287553e+000
 7.2159823770e-001	 6.9231205626e-001	 4.7851403320e+000
 7.1439100374e-001	 6.9974673538e-001	 4.6932748358e+000
 7.0710678115e-001	 7.0710678115e-001	 4.6012938018e+000
 7.9576201726e-001	 6.4605557953e-001	 4.7276257581e+000
 7.8904571372e-001	 6.5424143985e-001	 4.6511219073e+000
 7.8224191210e-001	 6.6236137485e-001	 4.5724963050e+000
 7.7535158588e-001	 6.7041399015e-001	 4.4919863618e+000
 7.6837573803e-001	 6.7839791061e-001	 4.4098291539e+000
 7.6131540050e-001	 6.8631178109e-001	 4.3262613892e+000
 7.5417163374e-001	 6.9415426726e-001	 4.2415193774e+000
 7.4694552618e-001	 7.0192405631e-001	 4.1558390040e+000
 7.3963819364e-001	 7.0961985767e-001	 4.0694557072e+000
 7.3225077883e-001	 7.1724040377e-001	 3.9826044572e+000
 7.2478445068e-001	 7.2478445068e-001	 3.8955197389e+000
 8.1517084695e-001	 6.6181303269e-001	 4.0321088938e+000
 8.0829073112e-001	 6.7019854813e-001	 3.9593861796e+000
 8.0132098312e-001	 6.7851653033e-001	 3.8846650041e+000
 7.9426260017e-001	 6.8676555089e-001	 3.8081552978e+000
 7.8711660969e-001	 6.9494420111e-001	 3.7300664880e+000
 7.7988406881e-001	 7.0305109283e-001	 3.6506075107e+000
 7.7256606384e-001	 7.1108485915e-001	 3.5699868264e+000
 7.6516370974e-001	 7.1904415524e-001	 3.4884124399e+000
 7.5767814959e-001	 7.2692765908e-001	 3.4060919233e+000
 7.5011055393e-001	 7.3473407215e-001	 3.3232324429e+000
 7.4246212021e-001	 7.4246212021e-001	 3.2400407872e+000
 8.3457967664e-001	 6.7757048585e-001	 3.3930949714e+000
 8.2753574853e-001	 6.8615565642e-001	 3.3230792446e+000
 8.2040005415e-001	 6.9467168582e-001	 3.2512119380e+000
 8.1317361446e-001	 7.0311711162e-001	 3.1776749227e+000
 8.0585748135e-001	 7.1149049161e-001	 3.1026493725e+000
 7.9845273712e-001	 7.1979040456e-001	 3.0263158211e+000
 7.9096049393e-001	 7.2801545103e-001	 2.9488542261e+000
 7.8338189331e-001	 7.3616425418e-001	 2.8704440359e+000
 7.7571810553e-001	 7.4423546049e-001	 2.7912642609e+000
 7.6797032902e-001	 7.5222774054e-001	 2.7114935482e+000
 7.6013978974e-001	 7.6013978974e-001	 2.6313102586e+000
 8.5398850633e-001	 6.9332793901e-001	 2.8062073730e+000
 8.4678076594e-001	 7.0211276471e-001	 2.7379393148e+000
 8.3947912518e-001	 7.1082684130e-001	 2.6679899872e+000
 8.3208462875e-001	 7.1946867236e-001	 2.5965125419e+000
 8.2459835301e-001	 7.2803678212e-001	 2.5236592110e+000
 8.1702140542e-001	 7.3652971630e-001	 2.4495814139e+000
 8.0935492402e-001	 7.4494604292e-001	 2.3744298689e+000
 8.0160007688e-001	 7.5328435311e-001	 2.2983547100e+000
 7.9375806148e-001	 7.6154326189e-001	 2.2215056075e+000
 7.8583010412e-001	 7.6972140893e-001	 2.1440318927e+000
 7.7781745927e-001	 7.7781745927e-001	 2.0660826848e+000
 8.7339733601e-001	 7.0908539217e-001	 2.2674131356e+000
 8.6602578334e-001	 7.1806987300e-001	 2.2000403607e+000
 8.5855819620e-001	 7.2698199679e-001	 2.1311799521e+000
 8.5099564304e-001	 7.3582023310e-001	 2.0609556030e+000
 8.4333922467e-001	 7.4458307262e-001	 1.9894898385e+000
 8.3559007373e-001	 7.5326902803e-001	 1.9169041721e+000
 8.2774935411e-001	 7.6187663480e-001	 1.8433192681e+000
 8.1981826044e-001	 7.7040445205e-001	 1.7688551090e+000
 8.1179801742e-001	 7.7885106330e-001	 1.6936311683e+000
 8.0368987921e-001	 7.8721507731e-001	 1.6177665861e+000
 7.9549512880e-001	 7.9549512880e-001	 1.5413803485e+000
 8.9280616570e-001	 7.2484284533e-001	 1.7729855973e+000
 8.8527080075e-001	 7.3402698129e-001	 1.7057556155e+000
 8.7763726723e-001	 7.4313715227e-001	 1.6372549088e+000
 8.6990665733e-001	 7.5217179383e-001	 1.5675768984e+000
 8.6208009633e-001	 7.6112936312e-001	 1.4968135613e+000
 8.5415874203e-001	 7.7000833977e-001	 1.4250556388e+000
 8.4614378421e-001	 7.7880722669e-001	 1.3523928507e+000
 8.3803644401e-001	 7.8752455098e-001	 1.2789141162e+000
 8.2983797336e-001	 7.9615886471e-001	 1.2047077794e+000
 8.2154965430e-001	 8.0470874570e-001	 1.1298618386e+000
 8.1317279833e-001	 8.1317279833e-001	 1.0544641799e+000
 9.1221499539e-001	 7.4060029849e-001	 1.3194718123e+000
 9.0451581816e-001	 7.4998408958e-001	 1.2517257388e+000
 8.9671633826e-001	 7.5929230776e-001	 1.1829491164e+000
 8.8881767162e-001	 7.6852335457e-001	 1.1132042087e+000
 8.8082096799e-001	 7.7767565363e-001	 1.0425515322e+000
 8.7272741034e-001	 7.8674765150e-001	 9.7105011687e-001
 8.6453821430e-001	 7.9573781857e-001	 8.9875777572e-001
 8.5625462758e-001	 8.0464464992e-001	 8.2573137959e-001
 8.4787792931e-001	 8.1346666612e-001	 7.5202713821e-001
 8.3940942940e-001	 8.2220241408e-001	 6.7770088559e-001
 8.3085046786e-001	 8.3085046786e-001	 6.0280836874e-001
 9.3162382508e-001	 7.5635775165e-001	 9.0366403830e-001
 9.2376083557e-001	 7.6594119787e-001	 8.3483095961e-001
 9.1579540928e-001	 7.7544746325e-001	 7.6523081006e-001
 9.0772868592e-001	 7.8487491531e-001	 6.9489374208e-001
 8.9956183966e-001	 7.9422194413e-001	 6.2384782907e-001
 8.9129607865e-001	 8.0348696323e-001	 5.5211938193e-001
 8.8293264439e-001	 8.1266841046e-001	 4.7973327407e-001
 8.7447281114e-001	 8.2176474885e-001	 4.0671327349e-001
 8.6591788525e-001	 8.3077446752e-001	 3.3308238100e-001
 8.5726920449e-001	 8.3969608247e-001	 2.5886317332e-001
 8.4852813739e-001	 8.4852813739e-001	 1.8407814984e-001
 9.5103265477e-001	 7.7211520481e-001	 5.2257471634e-001
 9.4300585297e-001	 7.8189830617e-001	 4.5216663032e-001
 9.3487448031e-001	 7.9160261873e-001	 3.8127832629e-001
 9.2663970021e-001	 8.0122647604e-001	 3.0990682492e-001
 9.1830271132e-001	 8.1076823464e-001	 2.3804670773e-001
 9.0986474695e-001	 8.2022627497e-001	 1.6569049099e-001
 9.0132707449e-001	 8.2959900235e-001	 9.2829008875e-002
 8.9269099471e-001	 8.3888484779e-001	 1.9451804462e-002
 8.8395784120e-001	 8.4808226893e-001	-5.4452472617e-002
 8.7512897959e-001	 8.5718975085e-001	-1.2889566317e-001
 8.6620580692e-001	 8.6620580692e-001	-2.0388969141e-001
 9.7044148445e-001	 7.8787265798e-001	 1.7341445206e-001
 9.6225087038e-001	 7.9785541446e-001	 1.0102171455e-001
 9.5395355134e-001	 8.0775777422e-001	 2.8459092527e-002
 9.4555071450e-001	 8.1757803678e-001	-4.4310609791e-002
 9.3704358298e-001	 8.2731452514e-001	-1.1732741630e-001
 9.2843341526e-001	 8.3696558670e-001	-1.9063374565e-001
 9.1972150458e-001	 8.4652959423e-001	-2.6427396784e-001
 9.1090917828e-001	 8.5600494672e-001	-3.3829395214e-001
 9.0199779714e-001	 8.6539007034e-001	-4.1274060777e-001
 8.9298875468e-001	 8.7468341924e-001	-4.8766141868e-001
 8.8388347645e-001	 8.8388347645e-001	-5.6310397408e-001
 7.0710678115e-001	 7.0710678115e-001	 4.6012938018e+000
 6.9974673538e-001	 7.1439100374e-001	 4.4782835806e+000
 6.9231205626e-001	 7.2159823770e-001	 4.3429853072e+000
 6.8480395737e-001	 7.2872734261e-001	 4.1957470119e+000
 6.7722367538e-001	 7.3577720365e-001	 4.0369272859e+000
 6.6957246936e-001	 7.4274673220e-001	 3.8668951138e+000
 6.6185162011e-001	 7.4963486637e-001	 3.6860296936e+000
 6.5406242942e-001	 7.5644057159e-001	 3.4947202419e+000
 6.4620621937e-001	 7.6316284107e-001	 3.2933657855e+000
 6.3828433156e-001	 7.6980069631e-001	 3.0823749384e+000
 6.3029812637e-001	 7.7635318757e-001	 2.8621656662e+000
 7.2478445068e-001	 7.2478445068e-001	 3.8955197389e+000
 7.1724040377e-001	 7.3225077883e-001	 3.7831478873e+000
 7.0961985767e-001	 7.3963819364e-001	 3.6602700586e+000
 7.0192405631e-001	 7.4694552618e-001	 3.5271975393e+000
 6.9415426726e-001	 7.5417163374e-001	 3.3842507785e+000
 6.8631178109e-001	 7.6131540050e-001	 3.2317592787e+000
 6.7839791061e-001	 7.6837573803e-001	 3.0700614738e+000
 6.7041399015e-001	 7.7535158588e-001	 2.8995045947e+000
 6.6236137485e-001	 7.8224191210e-001	 2.7204445230e+000
 6.5424143985e-001	 7.8904571372e-001	 2.5332456312e+000
 6.4605557953e-001	 7.9576201726e-001	 2.3382806101e+000
 7.4246212021e-001	 7.4246212021e-001	 3.2400407872e+000
 7.3473407215e-001	 7.5011055393e-001	 3.1366426610e+000
 7.2692765908e-001	 7.5767814959e-001	 3.0244454150e+000
 7.1904415524e-001	 7.6516370974e-001	 2.9037232985e+000
 7.1108485915e-001	 7.7256606384e-001	 2.7747583739e+000
 7.0305109283e-001	 7.7988406881e-001	 2.6378404660e+000
 6.9494420111e-001	 7.8711660969e-001	 2.4932671001e+000
 6.8676555089e-001	 7.9426260017e-001	 2.3413434291e+000
 6.7851653033e-001	 8.0132098312e-001	 2.1823821497e+000
 6.7019854813e-001	 8.0829073112e-001	 2.0167034067e+000
 6.6181303269e-001	 8.1517084695e-001	 1.8446346855e+000
 7.6013978974e-001	 7.6013978974e-001	 2.6313102586e+000
 7.5222774054e-001	 7.6797032902e-001	 2.5353862052e+000
 7.4423546049e-001	 7.7571810553e-001	 2.4323000790e+000
 7.3616425418e-001	 7.8338189331e-001	 2.3222886869e+000
 7.2801545103e-001	 7.9096049393e-001	 2.2055953450e+000
 7.1979040456e-001	 7.9845273712e-001	 2.0824698869e+000
 7.1149049161e-001	 8.0585748135e-001	 1.9531686635e+000
 7.0311711162e-001	 8.1317361446e-001	 1.8179545331e+000
 6.9467168582e-001	 8.2040005415e-001	 1.6770968408e+000
 6.8615565642e-001	 8.2753574853e-001	 1.5308713882e+000
 6.7757048585e-001	 8.3457967664e-001	 1.3795603916e+000
 7.7781745927e-001	 7.7781745927e-001	 2.0660826848e+000
 7.6972140893e-001	 7.8583010412e-001	 1.9762856888e+000
 7.6154326189e-001	 7.9375806148e-001	 1.8808987799e+000
 7.5328435311e-001	 8.0160007688e-001	 1.7801208127e+000
 7.4494604292e-001	 8.0935492402e-001	 1.6741558883e+000
 7.3652971630e-001	 8.1702140542e-001	 1.5632134247e+000
 7.2803678212e-001	 8.2459835301e-001	 1.4475082190e+000
 7.1946867236e-001	 8.3208462875e-001	 1.3272605008e+000
 7.1082684130e-001	 8.3947912518e-001	 1.2026959779e+000
 7.0211276471e-001	 8.4678076594e-001	 1.0740458716e+000
 6.9332793901e-001	 8.5398850633e-001	 9.4154694208e-001
 7.9549512880e-001	 7.9549512880e-001	 1.5413803485e+000
 7.8721507731e-001	 8.0368987921e-001	 1.4565050502e+000
 7.7885106330e-001	 8.1179801742e-001	 1.3675516049e+000
 7.7040445205e-001	 8.1981826044e-001	 1.2746803048e+000
 7.6187663480e-001	 8.2774935411e-001	 1.1780554660e+000
 7.5326902803e-001	 8.3559007373e-001	 1.0778455607e+000
 7.4458307262e-001	 8.4333922467e-001	 9.7422334465e-001
 7.3582023310e-001	 8.5099564304e-001	 8.6736597570e-001
 7.2698199679e-001	 8.5855819620e-001	 7.5745512588e-001
 7.1806987300e-001	 8.6602578334e-001	 6.4467708439e-001
 7.0908539217e-001	 8.7339733601e-001	 5.2922285153e-001
 8.1317279833e-001	 8.1317279833e-001	 1.0544641799e+000
 8.0470874570e-001	 8.2154965430e-001	 9.7343708704e-001
 7.9615886471e-001	 8.2983797336e-001	 8.8978732880e-001
 7.8752455098e-001	 8.3803644401e-001	 8.0363593052e-001
 7.7880722669e-001	 8.4614378421e-001	 7.1510675497e-001
 7.7000833977e-001	 8.5415874203e-001	 6.2432669975e-001
 7.6112936312e-001	 8.6208009633e-001	 5.3142588966e-001
 7.5217179383e-001	 8.6990665733e-001	 4.3653786315e-001
 7.4313715227e-001	 8.7763726723e-001	 3.3979975203e-001
 7.3402698129e-001	 8.8527080075e-001	 2.4135245365e-001
 7.2484284533e-001	 8.9280616570e-001	 1.4134079462e-001
 8.3085046786e-001	 8.3085046786e-001	 6.0280836874e-001
 8.2220241408e-001	 8.3940942940e-001	 5.2467911012e-001
 8.1346666612e-001	 8.4787792931e-001	 4.4533015016e-001
 8.0464464992e-001	 8.5625462758e-001	 3.6484245264e-001
 7.9573781857e-001	 8.6453821430e-001	 2.8329866689e-001
 7.8674765150e-001	 8.7272741034e-001	 2.0078339154e-001
 7.7767565363e-001	 8.8082096799e-001	 1.1738343449e-001
 7.6852335457e-001	 8.8881767162e-001	 3.3188068188e-002
 7.5929230776e-001	 8.9671633826e-001	-5.1710720898e-002
 7.4998408958e-001	 9.0451581816e-001	-1.3721798953e-001
 7.4060029849e-001	 9.1221499539e-001	-2.2323560263e-001
 8.4852813739e-001	 8.4852813739e-001	 1.8407814984e-001
 8.3969608247e-001	 8.5726920449e-001	 1.0801163945e-001
 8.3077446752e-001	 8.6591788525e-001	 3.2079334174e-002
 8.2176474885e-001	 8.7447281114e-001	-4.3678744685e-002
 8.1266841046e-001	 8.8293264439e-001	-1.1922200987e-001
 8.0348696323e-001	 8.9129607865e-001	-1.9450897619e-001
 7.9422194413e-001	 8.9956183966e-001	-2.6949693102e-001
 7.8487491531e-001	 9.0772868592e-001	-3.4414160849e-001
 7.7544746325e-001	 9.1579540928e-001	-4.1839686844e-001
 7.6594119787e-001	 9.2376083557e-001	-4.9221438133e-001
 7.5635775165e-001	 9.3162382508e-001	-5.6554332028e-001
 8.6620580692e-001	 8.6620580692e-001	-2.0388969141e-001
 8.5718975085e-001	 8.7512897959e-001	-2.7862029036e-001
 8.4808226893e-001	 8.8395784120e-001	-3.5190865110e-001
 8.3888484779e-001	 8.9269099471e-001	-4.2375665830e-001
 8.2959900235e-001	 9.0132707449e-001	-4.9416671997e-001
 8.2022627497e-001	 9.0986474695e-001	-5.6314136521e-001
 8.1076823464e-001	 9.1830271132e-001	-6.3068284328e-001
 8.0122647604e-001	 9.2663970021e-001	-6.9679272523e-001
 7.9160261873e-001	 9.3487448031e-001	-7.6147150947e-001
 7.8189830617e-001	 9.4300585297e-001	-8.2471823259e-001
 7.7211520481e-001	 9.5103265477e-001	-8.8653008666e-001
 8.8388347645e-001	 8.8388347645e-001	-5.6310397408e-001
 8.7468341924e-001	 8.9298875468e-001	-6.3712358159e-001
 8.6539007034e-001	 9.0199779714e-001	-7.0843585504e-001
 8.5600494672e-001	 9.1090917828e-001	-7.7708562791e-001
 8.4652959423e-001	 9.1972150458e-001	-8.4311931782e-001
 8.3696558670e-001	 9.2843341526e-001	-9.0658445191e-001
 8.2731452514e-001	 9.3704358298e-001	-9.6752919235e-001
 8.1757803678e-001	 9.4555071450e-001	-1.0260018635e+000
 8.0775777422e-001	 9.5395355134e-001	-1.0820504819e+000
 7.9785541446e-001	 9.6225087038e-001	-1.1357222914e+000
 7.8787265798e-001	 9.7044148445e-001	-1.1870633036e+000
 6.3029812637e-001	 7.7635318757e-001	 2.8621656662e+000
 6.2224898220e-001	 7.8281939432e-001	 2.6901479872e+000
 6.1413829464e-001	 7.8919842564e-001	 2.4357959512e+000
 6.0596747576e-001	 7.9548942062e-001	 2.1817272453e+000
 5.9773795322e-001	 8.0169154872e-001	 1.9284445409e+000
 5.8945116950e-001	 8.0780401013e-001	 1.6764472005e+000
 5.8110858109e-001	 8.1382603608e-001	 1.4262306650e+000
 5.7271165764e-001	 8.1975688910e-001	 1.1782858513e+000
 5.6426188112e-001	 8.2559586333e-001	 9.3309856005e-001
 5.5576074499e-001	 8.3134228471e-001	 6.9114889469e-001
 5.4720975336e-001	 8.3699551125e-001	 4.5291069347e-001
 6.4605557953e-001	 7.9576201726e-001	 2.3382806101e+000
 6.3780520675e-001	 8.0238987918e-001	 2.2176999192e+000
 6.2949175201e-001	 8.0892838628e-001	 2.0988837049e+000
 6.2111666265e-001	 8.1537665613e-001	 1.9198135660e+000
 6.1268140204e-001	 8.2173383744e-001	 1.6695949026e+000
 6.0418744874e-001	 8.2799911038e-001	 1.4204470970e+000
 5.9563629562e-001	 8.3417168698e-001	 1.1728717793e+000
 5.8702944908e-001	 8.4025081132e-001	 9.2736620670e-001
 5.7836842815e-001	 8.4623575991e-001	 6.8442265509e-001
 5.6965476362e-001	 8.5212584183e-001	 4.4452782093e-001
 5.6088999720e-001	 8.5792039903e-001	 2.0816223661e-001
 6.6181303269e-001	 8.1517084695e-001	 1.8446346855e+000
 6.5336143130e-001	 8.2196036404e-001	 1.7316716444e+000
 6.4484520937e-001	 8.2865834692e-001	 1.6202767195e+000
 6.3626584955e-001	 8.3526389165e-001	 1.5105631988e+000
 6.2762485087e-001	 8.4177612615e-001	 1.4026451001e+000
 6.1892372797e-001	 8.4819421063e-001	 1.1975211999e+000
 6.1016401015e-001	 8.5451733788e-001	 9.5093824292e-001
 6.0134724052e-001	 8.6074473355e-001	 7.0623194285e-001
 5.9247497517e-001	 8.6687565649e-001	 4.6390243034e-001
 5.8354878224e-001	 8.7290939895e-001	 2.2444435951e-001
 5.7457024104e-001	 8.7884528681e-001	-1.1653695324e-002
 6.7757048585e-001	 8.3457967664e-001	 1.3795603916e+000
 6.6891765586e-001	 8.4153084889e-001	 1.2733760584e+000
 6.6019866674e-001	 8.4838830756e-001	 1.1685603935e+000
 6.5141503644e-001	 8.5515112716e-001	 1.0651983583e+000
 6.4256829971e-001	 8.6181841487e-001	 9.6337616323e-001
 6.3366000721e-001	 8.6838931088e-001	 8.6318142044e-001
 6.2469172467e-001	 8.7486298878e-001	 7.5960373787e-001
 6.1566503196e-001	 8.8123865577e-001	 5.1411708471e-001
 6.0658152220e-001	 8.8751555307e-001	 2.7083141164e-001
 5.9744280087e-001	 8.9369295606e-001	 3.0250684197e-002
 5.8825048487e-001	 8.9977017459e-001	-2.0712714397e-001
 6.9332793901e-001	 8.5398850633e-001	 9.4154694208e-001
 6.8447388041e-001	 8.6110133375e-001	 8.4140566711e-001
 6.7555212411e-001	 8.6811826820e-001	 7.4242959729e-001
 6.6656422333e-001	 8.7503836267e-001	 6.4467457523e-001
 6.5751174854e-001	 8.8186070358e-001	 5.4819822763e-001
 6.4839628645e-001	 8.8858441113e-001	 4.5306016284e-001
 6.3921943920e-001	 8.9520863967e-001	 3.5932215977e-001
 6.2998282341e-001	 9.0173257800e-001	 2.6704834745e-001
 6.2068806923e-001	 9.0815544965e-001	 1.0460149534e-001
 6.1133681950e-001	 9.1447651318e-001	-1.3860961507e-001
 6.0193072871e-001	 9.2069506237e-001	-3.7876360328e-001
 7.0908539217e-001	 8.7339733601e-001	 5.2922285153e-001
 7.0003010497e-001	 8.8067181861e-001	 4.3448558845e-001
 6.9090558147e-001	 8.8784822884e-001	 3.4070517697e-001
 6.8171341023e-001	 8.9492559818e-001	 2.4790747768e-001
 6.7245519737e-001	 9.0190299230e-001	 1.5612068703e-001
 6.6313256569e-001	 9.0877951138e-001	 6.5375581482e-002
 6.5374715373e-001	 9.1555429057e-001	-2.4294248433e-002
 6.4430061485e-001	 9.2222650022e-001	-1.1285217485e-001
 6.3479461626e-001	 9.2879534623e-001	-2.0025832079e-001
 6.2523083812e-001	 9.3526007029e-001	-2.8646936063e-001
 6.1561097254e-001	 9.4161995015e-001	-5.2699341371e-001
 7.2484284533e-001	 8.9280616570e-001	 1.4134079462e-001
 7.1558632953e-001	 9.0024230346e-001	 5.1459138031e-002
 7.0625903884e-001	 9.0757818948e-001	-3.7679738739e-002
 6.9686259713e-001	 9.1481283370e-001	-1.2608088869e-001
 6.8739864620e-001	 9.2194528101e-001	-2.1374645944e-001
 6.7786884493e-001	 9.2897461163e-001	-3.0067540084e-001
 6.6827486826e-001	 9.3589994147e-001	-3.8686318396e-001
 6.5861840629e-001	 9.4272042245e-001	-4.7230153250e-001
 6.4890116329e-001	 9.4943524281e-001	-5.5697816726e-001
 6.3912485675e-001	 9.5604362741e-001	-6.4087656457e-001
 6.2929121638e-001	 9.6254483793e-001	-7.2397572931e-001
 7.4060029849e-001	 9.1221499539e-001	-2.2323560263e-001
 7.3114255408e-001	 9.1981278832e-001	-3.0872474510e-001
 7.2161249621e-001	 9.2730815011e-001	-3.9369168337e-001
 7.1201178402e-001	 9.3470006921e-001	-4.7817338147e-001
 7.0234209504e-001	 9.4198756973e-001	-5.6220330989e-001
 6.9260512417e-001	 9.4916971188e-001	-6.4581110303e-001
 6.8280258279e-001	 9.5624559237e-001	-7.2902222955e-001
 6.7293619774e-001	 9.6321434467e-001	-8.1185767662e-001
 6.6300771033e-001	 9.7007513939e-001	-8.9433364904e-001
 6.5301887538e-001	 9.7682718452e-001	-9.7646128399e-001
 6.4297146022e-001	 9.8346972570e-001	-1.0582463823e+000
 7.5635775165e-001	 9.3162382508e-001	-5.6554332028e-001
 7.4669877864e-001	 9.3938327317e-001	-6.4702250090e-001
 7.3696595358e-001	 9.4703811075e-001	-7.2820730458e-001
 7.2716097092e-001	 9.5458730472e-001	-8.0916766749e-001
 7.1728554387e-001	 9.6202985844e-001	-8.8996942455e-001
 7.0734140341e-001	 9.6936481213e-001	-9.7067391471e-001
 6.9733029732e-001	 9.7659124327e-001	-1.0513376008e+000
 6.8725398918e-001	 9.8370826689e-001	-1.1320117049e+000
 6.7711425736e-001	 9.9071503597e-001	-1.2127418602e+000
 6.6691289401e-001	 9.9761074164e-001	-1.2935677806e+000
 6.5665170405e-001	 1.0043946135e+000	-1.3745229484e+000
 7.7211520481e-001	 9.5103265477e-001	-8.8653008666e-001
 7.6225500320e-001	 9.5895375803e-001	-9.6430560353e-001
 7.5231941095e-001	 9.6676807139e-001	-1.0420225362e+000
 7.4231015782e-001	 9.7447454023e-001	-1.1197849158e+000
 7.3222899270e-001	 9.8207214715e-001	-1.1976920439e+000
 7.2207768265e-001	 9.8955991238e-001	-1.2758380441e+000
 7.1185801186e-001	 9.9693689417e-001	-1.3543114285e+000
 7.0157178063e-001	 1.0042021891e+000	-1.4331946832e+000
 6.9122080439e-001	 1.0113549325e+000	-1.5125638707e+000
 6.8080691263e-001	 1.0183942987e+000	-1.5924882526e+000
 6.7033194789e-001	 1.0253195013e+000	-1.6730299322e+000
 7.8787265798e-001	 9.7044148445e-001	-1.1870633036e+000
 7.7781122776e-001	 9.7852424289e-001	-1.2613690579e+000
 7.6767286832e-001	 9.8649803203e-001	-1.3358606694e+000
 7.5745934472e-001	 9.9436177575e-001	-1.4106774472e+000
 7.4717244154e-001	 1.0021144359e+000	-1.4859533208e+000
 7.3681396190e-001	 1.0097550126e+000	-1.5618163361e+000
 7.2638572639e-001	 1.0172825451e+000	-1.6383881672e+000
 7.1588957207e-001	 1.0246961113e+000	-1.7157836490e+000
 7.0532735142e-001	 1.0319948291e+000	-1.7941103292e+000
 6.9470093126e-001	 1.0391778559e+000	-1.8734680415e+000
 6.8401219173e-001	 1.0462443890e+000	-1.9539485018e+000
 5.4720975336e-001	 8.3699551125e-001	 4.5291069347e-001
 5.3861042014e-001	 8.4255493313e-001	 2.4081828219e-001
 5.2996426816e-001	 8.4801997294e-001	 1.8223224344e-002
 5.2127282835e-001	 8.5339008574e-001	-2.1414816452e-001
 5.1253763888e-001	 8.5866475923e-001	-4.5556587873e-001
 5.0376024430e-001	 8.6384351377e-001	-7.0529710958e-001
 4.9494219467e-001	 8.6892590245e-001	-9.6260712609e-001
 4.8608504475e-001	 8.7391151114e-001	-1.2267601480e+000
 4.7719035311e-001	 8.7879995843e-001	-1.4970202092e+000
 4.6825968131e-001	 8.8359089566e-001	-1.7726520109e+000
 4.5929459305e-001	 8.8828400685e-001	-2.0529217619e+000
 5.6088999720e-001	 8.5792039903e-001	 2.0816223661e-001
 5.5207568064e-001	 8.6361880646e-001	 1.4760940389e-002
 5.4321337486e-001	 8.6922047226e-001	-1.8592199800e-001
 5.3430464906e-001	 8.7472483789e-001	-3.9320387624e-001
 5.2535107986e-001	 8.8013137822e-001	-6.0640091868e-001
 5.1635425041e-001	 8.8543960162e-001	-8.2482910496e-001
 5.0731574954e-001	 8.9064905002e-001	-1.0478049893e+000
 4.9823717087e-001	 8.9575929892e-001	-1.2746465092e+000
 4.8912011194e-001	 9.0076995739e-001	-1.5046737819e+000
 4.7996617334e-001	 9.0568066805e-001	-1.7372098878e+000
 4.7077695788e-001	 9.1049110702e-001	-1.9715816385e+000
 5.7457024104e-001	 8.7884528681e-001	-1.1653695324e-002
 5.6554094115e-001	 8.8468267979e-001	-1.9089659889e-001
 5.5646248157e-001	 8.9042097158e-001	-3.7434402904e-001
 5.4733646978e-001	 8.9605959003e-001	-5.6135360155e-001
 5.3816452084e-001	 9.0159799720e-001	-7.5128441010e-001
 5.2894825652e-001	 9.0703568946e-001	-9.4349780030e-001
 5.1968930441e-001	 9.1237219758e-001	-1.1373581315e+000
 5.1038929699e-001	 9.1760708670e-001	-1.3322335251e+000
 5.0104987077e-001	 9.2273995635e-001	-1.5274965980e+000
 4.9167266537e-001	 9.2777044045e-001	-1.7225251801e+000
 4.8225932270e-001	 9.3269820719e-001	-1.9167030147e+000
 5.8825048487e-001	 8.9977017459e-001	-2.0712714397e-001
 5.7900620166e-001	 9.0574655311e-001	-3.7648221387e-001
 5.6971158828e-001	 9.1162147091e-001	-5.4709833763e-001
 5.6036829049e-001	 9.1739434218e-001	-7.1837030289e-001
 5.5097796181e-001	 9.2306461618e-001	-8.8969686658e-001
 5.4154226263e-001	 9.2863177731e-001	-1.0604814781e+000
 5.3206285928e-001	 9.3409534514e-001	-1.2301329874e+000
 5.2254142311e-001	 9.3945487447e-001	-1.3980663365e+000
 5.1297962959e-001	 9.4470995531e-001	-1.5637032341e+000
 5.0337915740e-001	 9.4986021284e-001	-1.7264728109e+000
 4.9374168753e-001	 9.5490530736e-001	-1.8858122557e+000
 6.0193072871e-001	 9.2069506237e-001	-3.7876360328e-001
 5.9247146216e-001	 9.2681042644e-001	-5.4226467409e-001
 5.8296069499e-001	 9.3282197023e-001	-7.0420764287e-001
 5.7340011120e-001	 9.3872909432e-001	-8.6402145627e-001
 5.6379140279e-001	 9.4453123516e-001	-1.0211414669e+000
 5.5413626874e-001	 9.5022786515e-001	-1.1750101095e+000
 5.4443641415e-001	 9.5581849270e-001	-1.3250775584e+000
 5.3469354923e-001	 9.6130266225e-001	-1.4708023667e+000
 5.2490938842e-001	 9.6667995427e-001	-1.6116520847e+000
 5.1508564944e-001	 9.7194998523e-001	-1.7471038575e+000
 5.0522405235e-001	 9.7711240753e-001	-1.8766449999e+000
 6.1561097254e-001	 9.4161995015e-001	-5.2699341371e-001
 6.0593672267e-001	 9.4787429977e-001	-6.8846020798e-001
 5.9620980169e-001	 9.5402246955e-001	-8.4566555295e-001
 5.8643193191e-001	 9.6006384646e-001	-9.9806966087e-001
 5.7660484376e-001	 9.6599785414e-001	-1.1451415369e+000
 5.6673027485e-001	 9.7182395300e-001	-1.2863596111e+000
 5.5680996902e-001	 9.7754164026e-001	-1.4212123500e+000
 5.4684567535e-001	 9.8315045003e-001	-1.5491988458e+000
 5.3683914725e-001	 9.8864995323e-001	-1.6698293825e+000
 5.2679214147e-001	 9.9403975762e-001	-1.7826259790e+000
 5.1670641718e-001	 9.9931950770e-001	-1.8871229070e+000
 6.2929121638e-001	 9.6254483793e-001	-7.2397572931e-001
 6.1940198317e-001	 9.6893817309e-001	-8.1523821391e-001
 6.0945890840e-001	 9.7522296887e-001	-9.7143972939e-001
 5.9946375262e-001	 9.8139859860e-001	-1.1202731691e+000
 5.8941828473e-001	 9.8746447312e-001	-1.2612383590e+000
 5.7932428096e-001	 9.9342004084e-001	-1.3938468509e+000
 5.6918352389e-001	 9.9926478782e-001	-1.5176224909e+000
 5.5899780147e-001	 1.0049982378e+000	-1.6321019620e+000
 5.4876890608e-001	 1.0106199522e+000	-1.7368353024e+000
 5.3849863350e-001	 1.0161295300e+000	-1.8313863961e+000
 5.2818878200e-001	 1.0215266079e+000	-1.9153334378e+000
 6.4297146022e-001	 9.8346972570e-001	-1.0582463823e+000
 6.3286724368e-001	 9.9000204642e-001	-1.0539727227e+000
 6.2270801510e-001	 9.9642346820e-001	-1.0814746473e+000
 6.1249557333e-001	 1.0027333507e+000	-1.2303863491e+000
 6.0223172571e-001	 1.0089310921e+000	-1.3689892626e+000
 5.9191828707e-001	 1.0150161287e+000	-1.4968252919e+000
 5.8155707876e-001	 1.0209879354e+000	-1.6134508577e+000
 5.7114992759e-001	 1.0268460256e+000	-1.7184373982e+000
 5.6069866491e-001	 1.0325899511e+000	-1.8113718407e+000
 5.5020512553e-001	 1.0382193024e+000	-1.8918570447e+000
 5.3967114683e-001	 1.0437337080e+000	-1.9595122159e+000
 6.5665170405e-001	 1.0043946135e+000	-1.3745229484e+000
 6.4633250419e-001	 1.0110659197e+000	-1.3697931902e+000
 6.3595712181e-001	 1.0176239675e+000	-1.3571717797e+000
 6.2552739404e-001	 1.0240681029e+000	-1.3367521950e+000
 6.1504516668e-001	 1.0303977111e+000	-1.4679659522e+000
 6.0451229318e-001	 1.0366122165e+000	-1.5946811798e+000
 5.9393063362e-001	 1.0427110829e+000	-1.7078920603e+000
 5.8330205371e-001	 1.0486938134e+000	-1.8072020511e+000
 5.7262842373e-001	 1.0545599501e+000	-1.8922322081e+000
 5.6191161756e-001	 1.0603090748e+000	-1.9626215841e+000
 5.5115351165e-001	 1.0659408082e+000	-2.0180275943e+000
 6.7033194789e-001	 1.0253195013e+000	-1.6730299322e+000
 6.5979776469e-001	 1.0321297931e+000	-1.6701108167e+000
 6.4920622851e-001	 1.0388244668e+000	-1.6574668119e+000
 6.3855921475e-001	 1.0454028550e+000	-1.6352547373e+000
 6.2785860765e-001	 1.0518643301e+000	-1.6036320990e+000
 6.1710629929e-001	 1.0582083044e+000	-1.6868301981e+000
 6.0630418849e-001	 1.0644342305e+000	-1.8001871621e+000
 5.9545417983e-001	 1.0705416011e+000	-1.8974567643e+000
 5.8455818256e-001	 1.0765299491e+000	-1.9782915226e+000
 5.7361810960e-001	 1.0823988472e+000	-2.0423639971e+000
 5.6263587648e-001	 1.0881479084e+000	-2.0893671113e+000
 6.8401219173e-001	 1.0462443890e+000	-1.9539485018e+000
 6.7326302520e-001	 1.0531936664e+000	-1.9549337946e+000
 6.6245533522e-001	 1.0600249662e+000	-1.9444736655e+000
 6.5159103546e-001	 1.0667376072e+000	-1.9227879834e+000
 6.4067204862e-001	 1.0733309490e+000	-1.8900982158e+000
 6.2970030539e-001	 1.0798043922e+000	-1.8466268967e+000
 6.1867774335e-001	 1.0861573781e+000	-1.8896190355e+000
 6.0760630594e-001	 1.0923893889e+000	-1.9883199342e+000
 5.9648794139e-001	 1.0984999480e+000	-2.0684986185e+000
 5.8532460163e-001	 1.1044886196e+000	-2.1298585575e+000
 5.7411824131e-001	 1.1103550086e+000	-2.1721255720e+000
 4.5929459305e-001	 8.8828400685e-001	-2.0529217619e+000
 4.5029665337e-001	 8.9287900861e-001	-2.3518780075e+000
 4.4126742776e-001	 8.9737565002e-001	-2.6476034013e+000
 4.3220848139e-001	 9.0177371256e-001	-2.9396025944e+000
 4.2312137829e-001	 9.0607300991e-001	-3.2273884196e+000
 4.1400768054e-001	 9.1027338778e-001	-3.5104823715e+000
 4.0486894748e-001	 9.1437472374e-001	-3.7884150672e+000
 3.9570673493e-001	 9.1837692696e-001	-4.0607266864e+000
 3.8652259441e-001	 9.2227993800e-001	-4.3269673903e+000
 3.7731807239e-001	 9.2608372854e-001	-4.5866977195e+000
 3.6809470955e-001	 9.2978830108e-001	-4.8394889694e+000
 4.7077695788e-001	 9.1049110702e-001	-1.9715816385e+000
 4.6155406970e-001	 9.1520098382e-001	-2.2370261672e+000
 4.5229911345e-001	 9.1981004127e-001	-2.4990021890e+000
 4.4301369342e-001	 9.2431805537e-001	-2.7570199062e+000
 4.3369941274e-001	 9.2872483515e-001	-3.0105980351e+000
 4.2435787255e-001	 9.3303022247e-001	-3.2592642851e+000
 4.1499067117e-001	 9.3723409182e-001	-3.5025558178e+000
 4.0559940330e-001	 9.4133635013e-001	-3.7400196843e+000
 3.9618565927e-001	 9.4533693645e-001	-3.9712132408e+000
 3.8675102420e-001	 9.4923582175e-001	-4.1957045424e+000
 3.7729707730e-001	 9.5303300860e-001	-4.4130727146e+000
 4.8225932270e-001	 9.3269820719e-001	-1.9167030147e+000
 4.7281148603e-001	 9.3752295903e-001	-2.1505863781e+000
 4.6333079914e-001	 9.4224443251e-001	-2.3807604218e+000
 4.5381890545e-001	 9.4686239818e-001	-2.6067395079e+000
 4.4427744720e-001	 9.5137666039e-001	-2.8280468686e+000
 4.3470806456e-001	 9.5578705716e-001	-3.0442150854e+000
 4.2511239485e-001	 9.6009345991e-001	-3.2547865472e+000
 4.1549207167e-001	 9.6429577330e-001	-3.4593138861e+000
 4.0584872413e-001	 9.6839393489e-001	-3.6573603918e+000
 3.9618397601e-001	 9.7238791496e-001	-3.8485004018e+000
 3.8649944504e-001	 9.7627771612e-001	-4.0323196690e+000
 4.9374168753e-001	 9.5490530736e-001	-1.8858122557e+000
 4.8406890236e-001	 9.5984493424e-001	-2.0899974352e+000
 4.7436248483e-001	 9.6467882376e-001	-2.2902285908e+000
 4.6462411748e-001	 9.6940674099e-001	-2.4860228856e+000
 4.5485548165e-001	 9.7402848564e-001	-2.6769067323e+000
 4.4505825657e-001	 9.7854389185e-001	-2.8624162739e+000
 4.3523411854e-001	 9.8295282800e-001	-3.0420978425e+000
 4.2538474004e-001	 9.8725519647e-001	-3.2155083952e+000
 4.1551178899e-001	 9.9145093334e-001	-3.3822159266e+000
 4.0561692782e-001	 9.9554000817e-001	-3.5417998582e+000
 3.9570181278e-001	 9.9952242364e-001	-3.6938514030e+000
 5.0522405235e-001	 9.7711240753e-001	-1.8766449999e+000
 4.9532631870e-001	 9.8216690946e-001	-2.0529167715e+000
 4.8539417052e-001	 9.8711321501e-001	-2.2249852268e+000
 4.7542932951e-001	 9.9195108380e-001	-2.3923689982e+000
 4.6543351611e-001	 9.9668031088e-001	-2.5545963713e+000
 4.5540844858e-001	 1.0013007265e+000	-2.7112057686e+000
 4.4535584222e-001	 1.0058121961e+000	-2.8617462101e+000
 4.3527740842e-001	 1.0102146196e+000	-3.0057777502e+000
 4.2517485385e-001	 1.0145079318e+000	-3.1428718899e+000
 4.1504987963e-001	 1.0186921014e+000	-3.2726119658e+000
 4.0490418052e-001	 1.0227671312e+000	-3.3945935131e+000
 5.1670641718e-001	 9.9931950770e-001	-1.8871229070e+000
 5.0658373503e-001	 1.0044888847e+000	-2.0371961649e+000
 4.9642585621e-001	 1.0095476063e+000	-2.1828115619e+000
 4.8623454155e-001	 1.0144954266e+000	-2.3234878909e+000
 4.7601155056e-001	 1.0193321361e+000	-2.4587540269e+000
 4.6575864059e-001	 1.0240575612e+000	-2.5881494139e+000
 4.5547756591e-001	 1.0286715642e+000	-2.7112245291e+000
 4.4517007679e-001	 1.0331740428e+000	-2.8275413215e+000
 4.3483791871e-001	 1.0375649302e+000	-2.9366736257e+000
 4.2448283144e-001	 1.0418441946e+000	-3.0382075503e+000
 4.1410654826e-001	 1.0460118387e+000	-3.1317418411e+000
 5.2818878200e-001	 1.0215266079e+000	-1.9153334378e+000
 5.1784115136e-001	 1.0268108599e+000	-2.0408606142e+000
 5.0745754190e-001	 1.0319819975e+000	-2.1616694972e+000
 4.9703975358e-001	 1.0370397694e+000	-2.2772777516e+000
 4.8658958502e-001	 1.0419839614e+000	-2.3872135781e+000
 4.7610883261e-001	 1.0468143959e+000	-2.4910162055e+000
 4.6559928959e-001	 1.0515309323e+000	-2.5882363582e+000
 4.5506274516e-001	 1.0561334660e+000	-2.6784366991e+000
 4.4450098357e-001	 1.0606219287e+000	-2.7611922448e+000
 4.3391578325e-001	 1.0649962878e+000	-2.8360907558e+000
 4.2330891600e-001	 1.0692565462e+000	-2.9027330994e+000
 5.3967114683e-001	 1.0437337080e+000	-1.9595122159e+000
 5.2909856769e-001	 1.0491328351e+000	-2.0620899109e+000
 5.1848922760e-001	 1.0544163888e+000	-2.1596823824e+000
 5.0784496561e-001	 1.0595841122e+000	-2.2518048953e+000
 4.9716761947e-001	 1.0646357866e+000	-2.3379837295e+000
 4.8645902462e-001	 1.0695712306e+000	-2.4177566787e+000
 4.7572101328e-001	 1.0743903004e+000	-2.4906735233e+000
 4.6495541353e-001	 1.0790928892e+000	-2.5562964772e+000
 4.5416404842e-001	 1.0836789271e+000	-2.6142006070e+000
 4.4334873506e-001	 1.0881483810e+000	-2.6639742237e+000
 4.3251128374e-001	 1.0925012537e+000	-2.7052192469e+000
 5.5115351165e-001	 1.0659408082e+000	-2.0180275943e+000
 5.4035598403e-001	 1.0714548103e+000	-2.0992025151e+000
 5.2952091329e-001	 1.0768507800e+000	-2.1751181985e+000
 5.1865017764e-001	 1.0821284551e+000	-2.2452862511e+000
 5.0774565393e-001	 1.0872876119e+000	-2.3092297998e+000
 4.9680921663e-001	 1.0923280653e+000	-2.3664839981e+000
 4.8584273696e-001	 1.0972496685e+000	-2.4165965061e+000
 4.7484808190e-001	 1.1020523123e+000	-2.4591279420e+000
 4.6382711328e-001	 1.1067359256e+000	-2.4936523058e+000
 4.5278168687e-001	 1.1113004742e+000	-2.5197573742e+000
 4.4171365148e-001	 1.1157459613e+000	-2.5370450669e+000
 5.6263587648e-001	 1.0881479084e+000	-2.0893671113e+000
 5.5161340036e-001	 1.0937767855e+000	-2.1506414057e+000
 5.4055259898e-001	 1.0992851713e+000	-2.2063747993e+000
 5.2945538968e-001	 1.1046727979e+000	-2.2560739933e+000
 5.1832368838e-001	 1.1099394371e+000	-2.2992577409e+000
 5.0715940864e-001	 1.1150849000e+000	-2.3354573629e+000
 4.9596446065e-001	 1.1201090366e+000	-2.3642172348e+000
 4.8474075028e-001	 1.1250117355e+000	-2.3850952455e+000
 4.7349017814e-001	 1.1297929240e+000	-2.3976632257e+000
 4.6221463868e-001	 1.1344525674e+000	-2.4015073472e+000
 4.5091601922e-001	 1.1389906688e+000	-2.3962284918e+000
 5.7411824131e-001	 1.1103550086e+000	-2.1721255720e+000
 5.6287081669e-001	 1.1160987607e+000	-2.2149616284e+000
 5.5158428467e-001	 1.1217195625e+000	-2.2519669243e+000
 5.4026060171e-001	 1.1272171407e+000	-2.2826420170e+000
 5.2890172284e-001	 1.1325912624e+000	-2.3065000749e+000
 5.1750960065e-001	 1.1378417347e+000	-2.3230674030e+000
 5.0608618433e-001	 1.1429684047e+000	-2.3318839389e+000
 4.9463341865e-001	 1.1479711587e+000	-2.3325037191e+000
 4.8315324300e-001	 1.1528499225e+000	-2.3244953136e+000
 4.7164759049e-001	 1.1576046607e+000	-2.3074422303e+000
 4.6011838696e-001	 1.1622353763e+000	-2.2809432875e+000
 3.6809470955e-001	 9.2978830108e-001	-4.8394889694e+000
 3.5885404004e-001	 9.3339368862e-001	-5.1388005285e+000
 3.4959759075e-001	 9.3689995439e-001	-5.4330511685e+000
 3.4032688062e-001	 9.4030719147e-001	-5.7216857292e+000
 3.3104341994e-001	 9.4361552239e-001	-6.0041605829e+000
 3.2174870969e-001	 9.4682509884e-001	-6.2799440661e+000
 3.1244424085e-001	 9.4993610118e-001	-6.5485168856e+000
 3.0313149381e-001	 9.5294873809e-001	-6.8093725004e+000
 2.9381193769e-001	 9.5586324609e-001	-7.0620174772e+000
 2.8448702975e-001	 9.5867988915e-001	-7.3059718215e+000
 2.7515821483e-001	 9.6139895816e-001	-7.5407692823e+000
 3.7729707730e-001	 9.5303300860e-001	-4.4130727146e+000
 3.6782539105e-001	 9.5672853083e-001	-4.6676031707e+000
 3.5833753053e-001	 9.6032245325e-001	-4.9167929274e+000
 3.4883505265e-001	 9.6381487125e-001	-5.1601468229e+000
 3.3931950545e-001	 9.6720591045e-001	-5.3971809120e+000
 3.2979242744e-001	 9.7049572631e-001	-5.6274228482e+000
 3.2025534689e-001	 9.7368450371e-001	-5.8504122415e+000
 3.1070978117e-001	 9.7677245654e-001	-6.0657009924e+000
 3.0115723614e-001	 9.7975982724e-001	-6.2728536009e+000
 2.9159920551e-001	 9.8264688638e-001	-6.4714474518e+000
 2.8203717021e-001	 9.8543393212e-001	-6.6610730756e+000
 3.8649944504e-001	 9.7627771612e-001	-4.0323196690e+000
 3.7679674206e-001	 9.8006337304e-001	-4.2481435514e+000
 3.6707747030e-001	 9.8374495210e-001	-4.4583292321e+000
 3.5734322467e-001	 9.8732255103e-001	-4.6624385733e+000
 3.4759559096e-001	 9.9079629851e-001	-4.8600443928e+000
 3.3783614519e-001	 9.9416635378e-001	-5.0507307979e+000
 3.2806645292e-001	 9.9743290624e-001	-5.2340934971e+000
 3.1828806852e-001	 1.0005961750e+000	-5.4097400875e+000
 3.0850253459e-001	 1.0036564084e+000	-5.5772903194e+000
 2.9871138126e-001	 1.0066138836e+000	-5.7363763373e+000
 2.8891612559e-001	 1.0094689061e+000	-5.8866428984e+000
 3.9570181278e-001	 9.9952242364e-001	-3.6938514030e+000
 3.8576809306e-001	 1.0033982153e+000	-3.8766557417e+000
 3.7581741008e-001	 1.0071674510e+000	-4.0535063850e+000
 3.6585139669e-001	 1.0108302308e+000	-4.2240194102e+000
 3.5587167647e-001	 1.0143866866e+000	-4.3878216424e+000
 3.4587986295e-001	 1.0178369812e+000	-4.5445509426e+000
 3.3587755895e-001	 1.0211813088e+000	-4.6938564739e+000
 3.2586635588e-001	 1.0244198934e+000	-4.8353989448e+000
 3.1584783304e-001	 1.0275529895e+000	-4.9688508309e+000
 3.0582355701e-001	 1.0305808808e+000	-5.0938965729e+000
 2.9579508097e-001	 1.0335038800e+000	-5.2102327531e+000
 4.0490418052e-001	 1.0227671312e+000	-3.3945935131e+000
 3.9473944407e-001	 1.0267330575e+000	-3.5497141023e+000
 3.8455734985e-001	 1.0305899498e+000	-3.6985472223e+000
 3.7435956871e-001	 1.0343379106e+000	-3.8407605062e+000
 3.6414776197e-001	 1.0379770746e+000	-3.9760321790e+000
 3.5392358070e-001	 1.0415076087e+000	-4.1040513018e+000
 3.4368866498e-001	 1.0449297113e+000	-4.2245179944e+000
 3.3344464323e-001	 1.0482436119e+000	-4.3371436361e+000
 3.2319313149e-001	 1.0514495707e+000	-4.4416510452e+000
 3.1293573276e-001	 1.0545478781e+000	-4.5377746359e+000
 3.0267403634e-001	 1.0575388540e+000	-4.6252605543e+000
 4.1410654826e-001	 1.0460118387e+000	-3.1317418411e+000
 4.0371079507e-001	 1.0500678997e+000	-3.2641954734e+000
 3.9329728963e-001	 1.0540124487e+000	-3.3900092771e+000
 3.8286774073e-001	 1.0578455904e+000	-3.5088999167e+000
 3.7242384748e-001	 1.0615674627e+000	-3.6205945438e+000
 3.6196729844e-001	 1.0651782362e+000	-3.7248309992e+000
 3.5149977101e-001	 1.0686781138e+000	-3.8213579934e+000
 3.4102293058e-001	 1.0720673303e+000	-3.9099352665e+000
 3.3053842994e-001	 1.0753461519e+000	-3.9903337264e+000
 3.2004790851e-001	 1.0785148753e+000	-4.0623355661e+000
 3.0955299172e-001	 1.0815738279e+000	-4.1257343610e+000
 4.2330891600e-001	 1.0692565462e+000	-2.9027330994e+000
 4.1268214607e-001	 1.0734027419e+000	-3.0172462966e+000
 4.0203722940e-001	 1.0774349475e+000	-3.1247483992e+000
 3.9137591275e-001	 1.0813532702e+000	-3.2250027011e+000
 3.8069993298e-001	 1.0851578507e+000	-3.3177829290e+000
 3.7001101619e-001	 1.0888488637e+000	-3.4028734035e+000
 3.5931087703e-001	 1.0924265164e+000	-3.4800691796e+000
 3.4860121793e-001	 1.0958910488e+000	-3.5491761665e+000
 3.3788372839e-001	 1.0992427330e+000	-3.6100112262e+000
 3.2716008426e-001	 1.1024818725e+000	-3.6624022527e+000
 3.1643194709e-001	 1.1056088019e+000	-3.7061882300e+000
 4.3251128374e-001	 1.0925012537e+000	-2.7052192469e+000
 4.2165349708e-001	 1.0967375841e+000	-2.8062539337e+000
 4.1077716917e-001	 1.1008574464e+000	-2.8998870193e+000
 3.9988408477e-001	 1.1048609500e+000	-2.9859261356e+000
 3.8897601848e-001	 1.1087482388e+000	-3.0641893429e+000
 3.7805473393e-001	 1.1125194911e+000	-3.1345052515e+000
 3.6712198306e-001	 1.1161749189e+000	-3.1967131234e+000
 3.5617950528e-001	 1.1197147673e+000	-3.2506629530e+000
 3.4522902683e-001	 1.1231393142e+000	-3.2962155282e+000
 3.3427226000e-001	 1.1264488698e+000	-3.3332424710e+000
 3.2331090246e-001	 1.1296437758e+000	-3.3616262591e+000
 4.4171365148e-001	 1.1157459613e+000	-2.5370450669e+000
 4.3062484808e-001	 1.1200724263e+000	-2.6288215713e+000
 4.1951710894e-001	 1.1242799453e+000	-2.7127863801e+000
 4.0839225679e-001	 1.1283686297e+000	-2.7887892733e+000
 3.9725210398e-001	 1.1323386269e+000	-2.8566905034e+000
 3.8609845168e-001	 1.1361901186e+000	-2.9163608802e+000
 3.7493308908e-001	 1.1399233214e+000	-2.9676818337e+000
 3.6375779263e-001	 1.1435384857e+000	-3.0105454582e+000
 3.5257432527e-001	 1.1470358953e+000	-3.0448545358e+000
 3.4138443575e-001	 1.1504158670e+000	-3.0705225408e+000
 3.3018985783e-001	 1.1536787498e+000	-3.0874736245e+000
 4.5091601922e-001	 1.1389906688e+000	-2.3962284918e+000
 4.3959619908e-001	 1.1434072685e+000	-2.4827461972e+000
 4.2825704871e-001	 1.1477024441e+000	-2.5610221678e+000
 4.1690042880e-001	 1.1518763095e+000	-2.6309462327e+000
 4.0552818948e-001	 1.1559290149e+000	-2.6924187869e+000
 3.9414216942e-001	 1.1598607461e+000	-2.7453508394e+000
 3.8274419510e-001	 1.1636717239e+000	-2.7896640399e+000
 3.7133607997e-001	 1.1673622042e+000	-2.8252906866e+000
 3.5991962372e-001	 1.1709324765e+000	-2.8521737132e+000
 3.4849661149e-001	 1.1743828642e+000	-2.8702666580e+000
 3.3706881320e-001	 1.1777137238e+000	-2.8795336132e+000
 4.6011838696e-001	 1.1622353763e+000	-2.2809432875e+000
 4.4856755008e-001	 1.1667421108e+000	-2.3659992209e+000
 4.3699698847e-001	 1.1711249430e+000	-2.4423630678e+000
 4.2540860082e-001	 1.1753839893e+000	-2.5099626911e+000
 4.1380427497e-001	 1.1795194030e+000	-2.5687366616e+000
 4.0218588716e-001	 1.1835313736e+000	-2.6186342702e+000
 3.9055530112e-001	 1.1874201265e+000	-2.6596155200e+000
 3.7891436731e-001	 1.1911859226e+000	-2.6916510983e+000
 3.6726492216e-001	 1.1948290576e+000	-2.7147223292e+000
 3.5560878723e-001	 1.1983498614e+000	-2.7288211072e+000
 3.4394776857e-001	 1.2017486977e+000	-2.7339498124e+000
 2.7515821483e-001	 9.6139895816e-001	-7.5407692823e+000
 2.6582692472e-001	 9.6402077054e-001	-7.7840982142e+000
 2.5649457767e-001	 9.6654566967e-001	-8.0198302448e+000
 2.4716257779e-001	 9.6897402446e-001	-8.2476583217e+000
 2.3783231458e-001	 9.7130622879e-001	-8.4672858773e+000
 2.2850516241e-001	 9.7354270101e-001	-8.6784269695e+000
 2.1918248004e-001	 9.7568388343e-001	-8.8808064046e+000
 2.0986561017e-001	 9.7773024174e-001	-9.0741598422e+000
 2.0055587900e-001	 9.7968226449e-001	-9.2582338812e+000
 1.9125459577e-001	 9.8154046252e-001	-9.4327861301e+000
 1.8196305243e-001	 9.8330536841e-001	-9.5975852580e+000
 2.8203717021e-001	 9.8543393212e-001	-6.6610730756e+000
 2.7247259785e-001	 9.8812128980e-001	-6.8711237530e+000
 2.6290694212e-001	 9.9070931141e-001	-7.0735894914e+000
 2.5334164224e-001	 9.9319837507e-001	-7.2682031433e+000
 2.4377812245e-001	 9.9558888451e-001	-7.4547077170e+000
 2.3421779148e-001	 9.9788126854e-001	-7.6328564866e+000
 2.2466204205e-001	 1.0000759805e+000	-7.8024130839e+000
 2.1511225043e-001	 1.0021734978e+000	-7.9631515734e+000
 2.0556977597e-001	 1.0041743211e+000	-8.1148565102e+000
 1.9603596067e-001	 1.0060789741e+000	-8.2573229809e+000
 1.8651212874e-001	 1.0078880026e+000	-8.3903566288e+000
 2.8891612559e-001	 1.0094689061e+000	-5.8866428984e+000
 2.7911827098e-001	 1.0122218091e+000	-6.0675859018e+000
 2.6931930657e-001	 1.0148729532e+000	-6.2409273331e+000
 2.5952070669e-001	 1.0174227257e+000	-6.4064381504e+000
 2.4972393032e-001	 1.0198715402e+000	-6.5638991915e+000
 2.3993042054e-001	 1.0222198361e+000	-6.7131012532e+000
 2.3014160405e-001	 1.0244680776e+000	-6.8538451536e+000
 2.2035889069e-001	 1.0266167538e+000	-6.9859417775e+000
 2.1058367295e-001	 1.0286663777e+000	-7.1092121058e+000
 2.0081732556e-001	 1.0306174856e+000	-7.2234872288e+000
 1.9106120505e-001	 1.0324706368e+000	-7.3286083440e+000
 2.9579508097e-001	 1.0335038800e+000	-5.2102327531e+000
 2.8576394410e-001	 1.0363223283e+000	-5.3659673493e+000
 2.7573167102e-001	 1.0390365949e+000	-5.5140553278e+000
 2.6569977114e-001	 1.0416470763e+000	-5.6543040618e+000
 2.5566973819e-001	 1.0441541959e+000	-5.7865305799e+000
 2.4564304960e-001	 1.0465584036e+000	-5.9105616151e+000
 2.3562116605e-001	 1.0488601747e+000	-6.0262336376e+000
 2.2560553094e-001	 1.0510600099e+000	-6.1333928716e+000
 2.1559756992e-001	 1.0531584343e+000	-6.2318952962e+000
 2.0559869045e-001	 1.0551559972e+000	-6.3216066313e+000
 1.9561028136e-001	 1.0570532710e+000	-6.4024023090e+000
 3.0267403634e-001	 1.0575388540e+000	-4.6252605543e+000
 2.9240961722e-001	 1.0604228476e+000	-4.7594399229e+000
 2.8214403546e-001	 1.0632002366e+000	-4.8858993308e+000
 2.7187883559e-001	 1.0658714269e+000	-5.0044809747e+000
 2.6161554606e-001	 1.0684368517e+000	-5.1150365330e+000
 2.5135567866e-001	 1.0708969711e+000	-5.2174271848e+000
 2.4110072806e-001	 1.0732522718e+000	-5.3115236140e+000
 2.3085217120e-001	 1.0755032659e+000	-5.3972059974e+000
 2.2061146690e-001	 1.0776504909e+000	-5.4743639780e+000
 2.1038005535e-001	 1.0796945088e+000	-5.5428966232e+000
 2.0015935767e-001	 1.0816359052e+000	-5.6027123699e+000
 3.0955299172e-001	 1.0815738279e+000	-4.1257343610e+000
 2.9905529035e-001	 1.0845233669e+000	-4.2417880176e+000
 2.8855639991e-001	 1.0873638784e+000	-4.3500201283e+000
 2.7805790004e-001	 1.0900957775e+000	-4.4503062116e+000
 2.6756135392e-001	 1.0927195074e+000	-4.5425311429e+000
 2.5706830773e-001	 1.0952355386e+000	-4.6265891454e+000
 2.4658029006e-001	 1.0976443689e+000	-4.7023837650e+000
 2.3609881145e-001	 1.0999465220e+000	-4.7698278303e+000
 2.2562536387e-001	 1.1021425476e+000	-4.8288433983e+000
 2.1516142024e-001	 1.1042330203e+000	-4.8793616857e+000
 2.0470843398e-001	 1.1062185395e+000	-4.9213229869e+000
 3.1643194709e-001	 1.1056088019e+000	-3.7061882300e+000
 3.0570096347e-001	 1.1086238861e+000	-3.8073420125e+000
 2.9496876435e-001	 1.1115275201e+000	-3.9005444237e+000
 2.8423696448e-001	 1.1143201281e+000	-3.9857028828e+000
 2.7350716179e-001	 1.1170021631e+000	-4.0627340909e+000
 2.6278093679e-001	 1.1195741062e+000	-4.1315639929e+000
 2.5205985206e-001	 1.1220364660e+000	-4.1921277241e+000
 2.4134545170e-001	 1.1243897780e+000	-4.2443695425e+000
 2.3063926085e-001	 1.1266346042e+000	-4.2882427466e+000
 2.1994278513e-001	 1.1287715319e+000	-4.3237095804e+000
 2.0925751029e-001	 1.1308011737e+000	-4.3507411242e+000
 3.2331090246e-001	 1.1296437758e+000	-3.3616262591e+000
 3.1234663659e-001	 1.1327244054e+000	-3.4509201877e+000
 3.0138112879e-001	 1.1356911619e+000	-3.5321046329e+000
 2.9041602893e-001	 1.1385444787e+000	-3.6051175685e+000
 2.7945296965e-001	 1.1412848188e+000	-3.6699062229e+000
 2.6849356585e-001	 1.1439126737e+000	-3.7264270134e+000
 2.5753941406e-001	 1.1464285630e+000	-3.7746454643e+000
 2.4659209196e-001	 1.1488330341e+000	-3.8145361121e+000
 2.3565315782e-001	 1.1511266608e+000	-3.8460823953e+000
 2.2472415003e-001	 1.1533100435e+000	-3.8692765327e+000
 2.1380658660e-001	 1.1553838079e+000	-3.8841193878e+000
 3.3018985783e-001	 1.1536787498e+000	-3.0874736245e+000
 3.1899230970e-001	 1.1568249247e+000	-3.1677779009e+000
 3.0779349323e-001	 1.1598548036e+000	-3.2397862066e+000
 2.9659509337e-001	 1.1627688294e+000	-3.3034657906e+000
 2.8539877752e-001	 1.1655674746e+000	-3.3587931781e+000
 2.7420619490e-001	 1.1682512412e+000	-3.4057540757e+000
 2.6301897606e-001	 1.1708206601e+000	-3.4443432629e+000
 2.5183873221e-001	 1.1732762901e+000	-3.4745644685e+000
 2.4066705479e-001	 1.1756187174e+000	-3.4964302345e+000
 2.2950551492e-001	 1.1778485550e+000	-3.5099617662e+000
 2.1835566291e-001	 1.1799664421e+000	-3.5151887710e+000
 3.3706881320e-001	 1.1777137238e+000	-2.8795336132e+000
 3.2563798282e-001	 1.1809254439e+000	-2.9535629880e+000
 3.1420585767e-001	 1.1840184454e+000	-3.0190814017e+000
 3.0277415782e-001	 1.1869931800e+000	-3.0760841618e+000
 2.9134458538e-001	 1.1898501303e+000	-3.1245759203e+000
 2.7991882396e-001	 1.1925898088e+000	-3.1645705519e+000
 2.6849853806e-001	 1.1952127572e+000	-3.1960910170e+000
 2.5708537246e-001	 1.1977195461e+000	-3.2191692115e+000
 2.4568095177e-001	 1.2001107740e+000	-3.2338458029e+000
 2.3428687981e-001	 1.2023870666e+000	-3.2401700542e+000
 2.2290473922e-001	 1.2045490763e+000	-3.2381996356e+000
 3.4394776857e-001	 1.2017486977e+000	-2.7339498124e+000
 3.3228365593e-001	 1.2050259632e+000	-2.8042765149e+000
 3.2061822211e-001	 1.2081820871e+000	-2.8658486010e+000
 3.0895322226e-001	 1.2112175306e+000	-2.9186882761e+000
 2.9729039324e-001	 1.2141327860e+000	-2.9628272059e+000
 2.8563145302e-001	 1.2169283763e+000	-2.9983063667e+000
 2.7397810005e-001	 1.2196048543e+000	-3.0251758819e+000
 2.6233201271e-001	 1.2221628022e+000	-3.0434948439e+000
 2.5069484874e-001	 1.2246028306e+000	-3.0533311232e+000
 2.3906824470e-001	 1.2269255782e+000	-3.0547611650e+000
 2.2745381553e-001	 1.2291317105e+000	-3.0478697745e+000
 1.8196305243e-001	 9.8330536841e-001	-9.5975852580e+000
 1.7268252319e-001	 9.8497753588e-001	-9.7637693447e+000
 1.6341426419e-001	 9.8655753926e-001	-9.9208383229e+000
 1.5415951315e-001	 9.8804597288e-001	-1.0068714941e+001
 1.4491948905e-001	 9.8944345050e-001	-1.0207329777e+001
 1.3569539180e-001	 9.9075060469e-001	-1.0336621164e+001
 1.2648840201e-001	 9.9196808628e-001	-1.0456535103e+001
 1.1729968064e-001	 9.9309656377e-001	-1.0567025173e+001
 1.0813036885e-001	 9.9413672268e-001	-1.0668052424e+001
 9.8981587693e-002	 9.9508926501e-001	-1.0759585270e+001
 8.9854437932e-002	 9.9595490863e-001	-1.0841599367e+001
 1.8651212874e-001	 1.0078880026e+000	-8.3903566288e+000
 1.7699958627e-001	 1.0096019743e+000	-8.5369399461e+000
 1.6749962079e-001	 1.0112214777e+000	-8.6747239040e+000
 1.5801350098e-001	 1.0127471222e+000	-8.8036514888e+000
 1.4854247627e-001	 1.0141795368e+000	-8.9236732129e+000
 1.3908777659e-001	 1.0155193698e+000	-9.0347470248e+000
 1.2965061205e-001	 1.0167672884e+000	-9.1368382101e+000
 1.2023217266e-001	 1.0179239779e+000	-9.2299192838e+000
 1.1083362807e-001	 1.0189901407e+000	-9.3139698754e+000
 1.0145612738e-001	 1.0199664966e+000	-9.3889766048e+000
 9.2100798875e-002	 1.0208537813e+000	-9.4549329526e+000
 1.9106120505e-001	 1.0324706368e+000	-7.3286083440e+000
 1.8131664935e-001	 1.0342264127e+000	-7.4578488312e+000
 1.7158497739e-001	 1.0358854162e+000	-7.5785679777e+000
 1.6186748880e-001	 1.0374482715e+000	-7.6907283311e+000
 1.5216546349e-001	 1.0389156230e+000	-7.7942997045e+000
 1.4248016138e-001	 1.0402881349e+000	-7.8892590717e+000
 1.3281282210e-001	 1.0415664906e+000	-7.9755904546e+000
 1.2316466467e-001	 1.0427513919e+000	-8.0532848009e+000
 1.1353688729e-001	 1.0438435588e+000	-8.1223398554e+000
 1.0393066707e-001	 1.0448437283e+000	-8.1827600234e+000
 9.4347159819e-002	 1.0457526541e+000	-8.2345562281e+000
 1.9561028136e-001	 1.0570532710e+000	-6.4024023090e+000
 1.8563371242e-001	 1.0588508511e+000	-6.5164014591e+000
 1.7567033400e-001	 1.0605493547e+000	-6.6221203215e+000
 1.6572147663e-001	 1.0621494208e+000	-6.7195403815e+000
 1.5578845071e-001	 1.0636517093e+000	-6.8086501729e+000
 1.4587254618e-001	 1.0650569000e+000	-6.8894451575e+000
 1.3597503214e-001	 1.0663656927e+000	-6.9619275973e+000
 1.2609715668e-001	 1.0675788060e+000	-7.0261064182e+000
 1.1624014650e-001	 1.0686969769e+000	-7.0819970669e+000
 1.0640520676e-001	 1.0697209599e+000	-7.1296213609e+000
 9.6593520764e-002	 1.0706515268e+000	-7.1690073325e+000
 2.0015935767e-001	 1.0816359052e+000	-5.6027123699e+000
 1.8995077550e-001	 1.0834752895e+000	-5.7034294958e+000
 1.7975569060e-001	 1.0852132932e+000	-5.7960710633e+000
 1.6957546445e-001	 1.0868505702e+000	-5.8806369225e+000
 1.5941143794e-001	 1.0883877955e+000	-5.9571337965e+000
 1.4926493097e-001	 1.0898256651e+000	-6.0255751452e+000
 1.3913724219e-001	 1.0911648949e+000	-6.0859810221e+000
 1.2902964869e-001	 1.0924062201e+000	-6.1383779233e+000
 1.1894340572e-001	 1.0935503949e+000	-6.1827986292e+000
 1.0887974645e-001	 1.0945981915e+000	-6.2192820409e+000
 9.8839881709e-002	 1.0955503995e+000	-6.2478730099e+000
 2.0470843398e-001	 1.1062185395e+000	-4.9213229869e+000
 1.9426783858e-001	 1.1080997279e+000	-5.0105879018e+000
 1.8384104720e-001	 1.1098772317e+000	-5.0919461988e+000
 1.7342945228e-001	 1.1115517195e+000	-5.1654155651e+000
 1.6303442516e-001	 1.1131238818e+000	-5.2310204264e+000
 1.5265731576e-001	 1.1145944303e+000	-5.2887917954e+000
 1.4229945224e-001	 1.1159640970e+000	-5.3387671118e+000
 1.3196214071e-001	 1.1172336342e+000	-5.3809900761e+000
 1.2164666494e-001	 1.1184038130e+000	-5.4155104765e+000
 1.1135428614e-001	 1.1194754231e+000	-5.4423840100e+000
 1.0108624265e-001	 1.1204492722e+000	-5.4616720975e+000
 2.0925751029e-001	 1.1308011737e+000	-4.3507411242e+000
 1.9858490166e-001	 1.1327241663e+000	-4.4302654436e+000
 1.8792640381e-001	 1.1345411701e+000	-4.5020167357e+000
 1.7728344011e-001	 1.1362528688e+000	-4.5660300386e+000
 1.6665741239e-001	 1.1378599681e+000	-4.6223470356e+000
 1.5604970055e-001	 1.1393631954e+000	-4.6710158866e+000
 1.4546166229e-001	 1.1407632992e+000	-4.7120910524e+000
 1.3489463272e-001	 1.1420610483e+000	-4.7456331120e+000
 1.2434992416e-001	 1.1432572311e+000	-4.7717085737e+000
 1.1382882583e-001	 1.1443526547e+000	-4.7903896806e+000
 1.0333260360e-001	 1.1453481449e+000	-4.8017542115e+000
 2.1380658660e-001	 1.1553838079e+000	-3.8841193878e+000
 2.0290196474e-001	 1.1573486046e+000	-3.9555066295e+000
 1.9201176041e-001	 1.1592051086e+000	-4.0192194375e+000
 1.8113742794e-001	 1.1609540181e+000	-4.0753097532e+000
 1.7028039961e-001	 1.1625960543e+000	-4.1238361098e+000
 1.5944208535e-001	 1.1641319605e+000	-4.1648634470e+000
 1.4862387233e-001	 1.1655625014e+000	-4.1984629182e+000
 1.3782712473e-001	 1.1668884624e+000	-4.2247116911e+000
 1.2705318338e-001	 1.1681106491e+000	-4.2436927426e+000
 1.1630336552e-001	 1.1692298864e+000	-4.2554946481e+000
 1.0557896455e-001	 1.1702470176e+000	-4.2602113657e+000
 2.1835566291e-001	 1.1799664421e+000	-3.5151887710e+000
 2.0721902781e-001	 1.1819730430e+000	-3.5799434029e+000
 1.9609711701e-001	 1.1838690471e+000	-3.6370874739e+000
 1.8499141576e-001	 1.1856551674e+000	-3.6866894159e+000
 1.7390338684e-001	 1.1873321406e+000	-3.7288242399e+000
 1.6283447014e-001	 1.1889007256e+000	-3.7635733325e+000
 1.5178608238e-001	 1.1903617035e+000	-3.7910242453e+000
 1.4075961675e-001	 1.1917158765e+000	-3.8112704792e+000
 1.2975644260e-001	 1.1929640672e+000	-3.8244112609e+000
 1.1877790521e-001	 1.1941071180e+000	-3.8305513166e+000
 1.0782532549e-001	 1.1951458903e+000	-3.8298006393e+000
 2.2290473922e-001	 1.2045490763e+000	-3.2381996356e+000
 2.1153609089e-001	 1.2065974814e+000	-3.2977352002e+000
 2.0018247362e-001	 1.2085329856e+000	-3.3496895625e+000
 1.8884540359e-001	 1.2103563168e+000	-3.3941472658e+000
 1.7752637406e-001	 1.2120682268e+000	-3.4311994586e+000
 1.6622685494e-001	 1.2136694907e+000	-3.4609436732e+000
 1.5494829243e-001	 1.2151609057e+000	-3.4834835976e+000
 1.4369210877e-001	 1.2165432906e+000	-3.4989288407e+000
 1.3245970182e-001	 1.2178174853e+000	-3.5073946925e+000
 1.2125244490e-001	 1.2189843496e+000	-3.5090018787e+000
 1.1007168644e-001	 1.2200447631e+000	-3.5038763121e+000
 2.2745381553e-001	 1.2291317105e+000	-3.0478697745e+000
 2.1585315397e-001	 1.2312219198e+000	-3.1035162012e+000
 2.0426783022e-001	 1.2331969241e+000	-3.1515764150e+000
 1.9269939142e-001	 1.2350574661e+000	-3.1921507211e+000
 1.8114936129e-001	 1.2368043131e+000	-3.2253460957e+000
 1.6961923973e-001	 1.2384382558e+000	-3.2512759460e+000
 1.5811050249e-001	 1.2399601078e+000	-3.2700598632e+000
 1.4662460078e-001	 1.2413707047e+000	-3.2818233694e+000
 1.3516296104e-001	 1.2426709033e+000	-3.2866976590e+000
 1.2372698459e-001	 1.2438615812e+000	-3.2848193358e+000
 1.1231804739e-001	 1.2449436358e+000	-3.2763301453e+000
 8.9854437932e-002	 9.9595490863e-001	-1.0841599367e+001
 8.0749999857e-002	 9.9673438666e-001	-1.0902893123e+001
 7.1669333105e-002	 9.9742844692e-001	-1.0956510314e+001
 6.2613476500e-002	 9.9803785128e-001	-1.1002616538e+001
 5.3583447921e-002	 9.9856337512e-001	-1.1041379056e+001
 4.4580244178e-002	 9.9900580671e-001	-1.1072966599e+001
 3.5604840910e-002	 9.9936594664e-001	-1.1097549182e+001
 2.6658192499e-002	 9.9964460724e-001	-1.1115297917e+001
 1.7741231999e-002	 9.9984261196e-001	-1.1126384830e+001
 8.8548710816e-003	 9.9996079486e-001	-1.1130982679e+001
 0.0000000000e+000	 1.0000000000e+000	-1.1129264774e+001
 9.2100798875e-002	 1.0208537813e+000	-9.4549329526e+000
 8.2768749849e-002	 1.0216527463e+000	-9.5179264618e+000
 7.3461066429e-002	 1.0223641581e+000	-9.5734284967e+000
 6.4178813409e-002	 1.0229887976e+000	-9.6215941946e+000
 5.4923034116e-002	 1.0235274595e+000	-9.6625806897e+000
 4.5694750280e-002	 1.0239809519e+000	-9.6965469212e+000
 3.6494961931e-002	 1.0243500953e+000	-9.7236534422e+000
 2.7324647310e-002	 1.0246357224e+000	-9.7440622306e+000
 1.8184762798e-002	 1.0248386773e+000	-9.7579365021e+000
 9.0762428582e-003	 1.0249598147e+000	-9.7654405255e+000
 0.0000000000e+000	 1.0250000000e+000	-9.7667394399e+000
 9.4347159819e-002	 1.0457526541e+000	-8.2345562281e+000
 8.4787499842e-002	 1.0465711060e+000	-8.2979912375e+000
 7.5252799753e-002	 1.0472998693e+000	-8.3540996935e+000
 6.5744150319e-002	 1.0479397438e+000	-8.4030269850e+000
 5.6262620311e-002	 1.0484915439e+000	-8.4449208431e+000
 4.6809256382e-002	 1.0489560970e+000	-8.4799311457e+000
 3.7385082952e-002	 1.0493342440e+000	-8.5082097235e+000
 2.7991102121e-002	 1.0496268376e+000	-8.5299101671e+000
 1.8628293597e-002	 1.0498347426e+000	-8.5451876356e+000
 9.2976146348e-003	 1.0499588346e+000	-8.5541986673e+000
 0.0000000000e+000	 1.0500000000e+000	-8.5571009922e+000
 9.6593520764e-002	 1.0706515268e+000	-7.1690073325e+000
 8.6806249835e-002	 1.0714894657e+000	-7.2316963360e+000
 7.7044533077e-002	 1.0722355804e+000	-7.2872032360e+000
 6.7309487228e-002	 1.0728906901e+000	-7.3356643615e+000
 5.7602206507e-002	 1.0734556282e+000	-7.3772187392e+000
 4.7923762484e-002	 1.0739312422e+000	-7.4120078951e+000
 3.8275203973e-002	 1.0743183926e+000	-7.4401756554e+000
 2.8657556932e-002	 1.0746179528e+000	-7.4618679493e+000
 1.9071824396e-002	 1.0748308079e+000	-7.4772326127e+000
 9.5189864113e-003	 1.0749578545e+000	-7.4864191925e+000
 0.0000000000e+000	 1.0750000000e+000	-7.4895787547e+000
 9.8839881709e-002	 1.0955503995e+000	-6.2478730099e+000
 8.8824999828e-002	 1.0964078253e+000	-6.3086923588e+000
 7.8836266402e-002	 1.0971712916e+000	-6.3624532617e+000
 6.8874824138e-002	 1.0978416364e+000	-6.4092836545e+000
 5.8941792703e-002	 1.0984197126e+000	-6.4493145387e+000
 4.9038268587e-002	 1.0989063874e+000	-6.4826797776e+000
 3.9165324994e-002	 1.0993025413e+000	-6.5095158922e+000
 2.9324011743e-002	 1.0996090680e+000	-6.5299618585e+000
 1.9515355195e-002	 1.0998268732e+000	-6.5441589046e+000
 9.7403581879e-003	 1.0999568743e+000	-6.5522503094e+000
 0.0000000000e+000	 1.1000000000e+000	-6.5543812033e+000
 1.0108624265e-001	 1.1204492722e+000	-5.4616720975e+000
 9.0843749822e-002	 1.1213261850e+000	-5.5195558762e+000
 8.0627999727e-002	 1.1221070028e+000	-5.5704837346e+000
 7.0440161048e-002	 1.1227925827e+000	-5.6145758644e+000
 6.0281378898e-002	 1.1233837970e+000	-5.6519559028e+000
 5.0152774689e-002	 1.1238815325e+000	-5.6827507225e+000
 4.0055446015e-002	 1.1242866900e+000	-5.7070902225e+000
 2.9990466555e-002	 1.1246001831e+000	-5.7251071177e+000
 1.9958885994e-002	 1.1248229385e+000	-5.7369367295e+000
 9.9617299645e-003	 1.1249558942e+000	-5.7427167774e+000
 0.0000000000e+000	 1.1250000000e+000	-5.7425871715e+000
 1.0333260360e-001	 1.1453481449e+000	-4.8017542115e+000
 9.2862499816e-002	 1.1462445446e+000	-4.8556887786e+000
 8.2419733053e-002	 1.1470427139e+000	-4.9027484648e+000
 7.2005497959e-002	 1.1477435290e+000	-4.9430463498e+000
 6.1620965094e-002	 1.1483478814e+000	-4.9766993517e+000
 5.1267280792e-002	 1.1488566777e+000	-5.0038280104e+000
 4.0945567036e-002	 1.1492708386e+000	-5.0245562714e+000
 3.0656921366e-002	 1.1495912983e+000	-5.0390112673e+000
 2.0402416793e-002	 1.1498190038e+000	-5.0473231012e+000
 1.0183101741e-002	 1.1499549141e+000	-5.0496246297e+000
 0.0000000000e+000	 1.1500000000e+000	-5.0460512466e+000
 1.0557896455e-001	 1.1702470176e+000	-4.2602113657e+000
 9.4881249811e-002	 1.1711629043e+000	-4.3092304767e+000
 8.4211466378e-002	 1.1719784251e+000	-4.3514338907e+000
 7.3570834869e-002	 1.1726944752e+000	-4.3869281935e+000
 6.2960551291e-002	 1.1733119658e+000	-4.4158242160e+000
 5.2381786895e-002	 1.1738318229e+000	-4.4382368103e+000
 4.1835688057e-002	 1.1742549873e+000	-4.4542846243e+000
 3.1323376177e-002	 1.1745824135e+000	-4.4640898762e+000
 2.0845947592e-002	 1.1748150691e+000	-4.4677781280e+000
 1.0404473518e-002	 1.1749539340e+000	-4.4654780593e+000
 0.0000000000e+000	 1.1750000000e+000	-4.4573212423e+000
 1.0782532549e-001	 1.1951458903e+000	-3.8298006393e+000
 9.6899999806e-002	 1.1960812640e+000	-3.8729810761e+000
 8.6003199704e-002	 1.1969141363e+000	-3.9093827630e+000
 7.5136171780e-002	 1.1976454215e+000	-3.9391063978e+000
 6.4300137487e-002	 1.1982760501e+000	-3.9622573440e+000
 5.3496292997e-002	 1.1988069680e+000	-3.9789453993e+000
 4.2725809079e-002	 1.1992391360e+000	-3.9892845605e+000
 3.1989830989e-002	 1.1995735287e+000	-3.9933927888e+000
 2.1289478391e-002	 1.1998111344e+000	-3.9913917729e+000
 1.0625845294e-002	 1.1999529538e+000	-3.9834066938e+000
 0.0000000000e+000	 1.2000000000e+000	-3.9695659880e+000
 1.1007168644e-001	 1.2200447631e+000	-3.5038763121e+000
 9.8918749801e-002	 1.2209996236e+000	-3.5403339596e+000
 8.7794933031e-002	 1.2218498475e+000	-3.5700271749e+000
 7.6701508691e-002	 1.2225963678e+000	-3.5930513622e+000
 6.5639723683e-002	 1.2232401345e+000	-3.6095070281e+000
 5.4610799100e-002	 1.2237821132e+000	-3.6194995398e+000
 4.3615930100e-002	 1.2242232846e+000	-3.6231388803e+000
 3.2656285800e-002	 1.2245646439e+000	-3.6205394027e+000
 2.1733009191e-002	 1.2248071996e+000	-3.6118195837e+000
 1.0847217071e-002	 1.2249519737e+000	-3.5971017756e+000
 0.0000000000e+000	 1.2250000000e+000	-3.5765119595e+000
 1.1231804739e-001	 1.2449436358e+000	-3.2763301453e+000
 1.0093749980e-001	 1.2459179833e+000	-3.3052164598e+000
 8.9586666357e-002	 1.2467855586e+000	-3.3273296271e+000
 7.8266845602e-002	 1.2475473141e+000	-3.3427603438e+000
 6.6979309880e-002	 1.2482042189e+000	-3.3516048608e+000
 5.5725305204e-002	 1.2487572584e+000	-3.3539647307e+000
 4.4506051122e-002	 1.2492074333e+000	-3.3499465525e+000
 3.3322740611e-002	 1.2495557590e+000	-3.3396617141e+000
 2.2176539990e-002	 1.2498032649e+000	-3.3232261337e+000
 1.1068588847e-002	 1.2499509936e+000	-3.3007600005e+000
 0.0000000000e+000	 1.2500000000e+000	-3.2723875147e+000
 1.2500000000e+000	 0.0000000000e+000	 4.0741303605e+000
 1.2499509936e+000	 1.1068588847e-002	 4.0885521834e+000
 1.2498032649e+000	 2.2176539990e-002	 4.0972389740e+000
 1.2495557590e+000	 3.3322740611e-002	 4.0999848073e+000
 1.2492074333e+000	 4.4506051122e-002	 4.0965845048e+000
 1.2487572584e+000	 5.5725305204e-002	 4.0868339111e+000
 1.2482042189e+000	 6.6979309880e-002	 4.0705301751e+000
 1.2475473141e+000	 7.8266845602e-002	 4.0474720369e+000
 1.2467855586e+000	 8.9586666357e-002	 4.0174601198e+000
 1.2459179833e+000	 1.0093749980e-001	 3.9802972263e+000
 1.2449436358e+000	 1.1231804739e-001	 3.9357886382e+000
 1.2750000000e+000	 0.0000000000e+000	 3.9634247789e+000
 1.2749500134e+000	 1.1289960624e-002	 3.9811080466e+000
 1.2747993302e+000	 2.2620070789e-002	 3.9947512977e+000
 1.2745468742e+000	 3.3989195423e-002	 4.0043383556e+000
 1.2741915820e+000	 4.5396172143e-002	 4.0098398344e+000
 1.2737324036e+000	 5.6839811307e-002	 4.0112125515e+000
 1.2731683033e+000	 6.8318896077e-002	 4.0083989491e+000
 1.2724982604e+000	 7.9832182514e-002	 4.0013265234e+000
 1.2717212698e+000	 9.1378399684e-002	 3.9899072665e+000
 1.2708363430e+000	 1.0295624979e-001	 3.9740371191e+000
 1.2698425085e+000	 1.1456440834e-001	 3.9535954398e+000
 1.3000000000e+000	 0.0000000000e+000	 3.8788656353e+000
 1.2999490333e+000	 1.1511332401e-002	 3.8974374972e+000
 1.2997953955e+000	 2.3063601588e-002	 3.9116060140e+000
 1.2995379894e+000	 3.4655650234e-002	 3.9213541578e+000
 1.2991757306e+000	 4.6286293165e-002	 3.9266511575e+000
 1.2987075487e+000	 5.7954317410e-002	 3.9274518849e+000
 1.2981323876e+000	 6.9658482273e-002	 3.9236962482e+000
 1.2974492067e+000	 8.1397519425e-002	 3.9153085956e+000
 1.2966569810e+000	 9.3170133010e-002	 3.9021971300e+000
 1.2957547027e+000	 1.0497499979e-001	 3.8842533372e+000
 1.2947413812e+000	 1.1681076929e-001	 3.8613514294e+000
 1.3250000000e+000	 0.0000000000e+000	 3.8200100020e+000
 1.3249480532e+000	 1.1732704177e-002	 3.8380907571e+000
 1.3247914608e+000	 2.3507132387e-002	 3.8514695476e+000
 1.3245291046e+000	 3.5322105045e-002	 3.8601299945e+000
 1.3241598793e+000	 4.7176414186e-002	 3.8640413979e+000
 1.3236826939e+000	 5.9068823513e-002	 3.8631580928e+000
 1.3230964720e+000	 7.0998068470e-002	 3.8574188124e+000
 1.3224001529e+000	 8.2962856336e-002	 3.8467460624e+000
 1.3215926922e+000	 9.4961866336e-002	 3.8310455067e+000
 1.3206730623e+000	 1.0699374978e-001	 3.8102053676e+000
 1.3196402539e+000	 1.1905713023e-001	 3.7840958412e+000
 1.3500000000e+000	 0.0000000000e+000	 3.7864477607e+000
 1.3499470731e+000	 1.1954075954e-002	 3.8026544916e+000
 1.3497875261e+000	 2.3950663186e-002	 3.8139252152e+000
 1.3495202198e+000	 3.5988559857e-002	 3.8202457076e+000
 1.3491440280e+000	 4.8066535207e-002	 3.8215868014e+000
 1.3486578391e+000	 6.0183329615e-002	 3.8179037080e+000
 1.3480605564e+000	 7.2337654666e-002	 3.8091353487e+000
 1.3473510992e+000	 8.4528193246e-002	 3.7952036961e+000
 1.3465284033e+000	 9.6753599662e-002	 3.7760131280e+000
 1.3455914220e+000	 1.0901249978e-001	 3.7514497967e+000
 1.3445391266e+000	 1.2130349118e-001	 3.7213810141e+000
 1.3750000000e+000	 0.0000000000e+000	 3.7777986197e+000
 1.3749460929e+000	 1.2175447730e-002	 3.7907434213e+000
 1.3747835914e+000	 2.4394193985e-002	 3.7985827211e+000
 1.3745113349e+000	 3.6655014668e-002	 3.8013059638e+000
 1.3741281766e+000	 4.8956656228e-002	 3.7988869826e+000
 1.3736329842e+000	 6.1297835718e-002	 3.7912832852e+000
 1.3730246408e+000	 7.3677240862e-002	 3.7784353494e+000
 1.3723020455e+000	 8.6093530156e-002	 3.7602659290e+000
 1.3714641145e+000	 9.8545332987e-002	 3.7366793735e+000
 1.3705097816e+000	 1.1103124977e-001	 3.7075609625e+000
 1.3694379994e+000	 1.2354985212e-001	 3.6727762583e+000
 1.4000000000e+000	 0.0000000000e+000	 3.7937094513e+000
 1.3999451128e+000	 1.2396819507e-002	 3.8019978177e+000
 1.3997796567e+000	 2.4837724784e-002	 3.8050758015e+000
 1.3995024501e+000	 3.7321469479e-002	 3.8029380386e+000
 1.3991123253e+000	 4.9846777250e-002	 3.7955628392e+000
 1.3986081294e+000	 6.2412341821e-002	 3.7829114350e+000
 1.3979887252e+000	 7.5016827058e-002	 3.7649272359e+000
 1.3972529918e+000	 8.7658867067e-002	 3.7415350981e+000
 1.3963998257e+000	 1.0033706631e-001	 3.7126406059e+000
 1.3954281413e+000	 1.1304999977e-001	 3.6781293694e+000
 1.3943368721e+000	 1.2579621307e-001	 3.6378663402e+000
 1.4250000000e+000	 0.0000000000e+000	 3.8338519086e+000
 1.4249441327e+000	 1.2618191283e-002	 3.8360812615e+000
 1.4247757220e+000	 2.5281255584e-002	 3.8330601163e+000
 1.4244935653e+000	 3.7987924290e-002	 3.8247898330e+000
 1.4240964740e+000	 5.0736898271e-002	 3.8112546848e+000
 1.4235832746e+000	 6.3526847923e-002	 3.7924210644e+000
 1.4229528095e+000	 7.6356413254e-002	 3.7682366983e+000
 1.4222039381e+000	 8.9224203976e-002	 3.7386298741e+000
 1.4213355368e+000	 1.0212879964e-001	 3.7035086815e+000
 1.4203465010e+000	 1.1506874976e-001	 3.6627602702e+000
 1.4192357448e+000	 1.2804257402e-001	 3.6162501263e+000
 1.4500000000e+000	 0.0000000000e+000	 3.8979202891e+000
 1.4499431525e+000	 1.2839563060e-002	 3.8926786333e+000
 1.4497717873e+000	 2.5724786383e-002	 3.8822113592e+000
 1.4494846805e+000	 3.8654379101e-002	 3.8665280950e+000
 1.4490806226e+000	 5.1627019292e-002	 3.8456205749e+000
 1.4485584197e+000	 6.4641354025e-002	 3.8194617997e+000
 1.4479168939e+000	 7.7695999449e-002	 3.7880052070e+000
 1.4471548843e+000	 9.0789540886e-002	 3.7511838537e+000
 1.4462712480e+000	 1.0392053296e-001	 3.7089096142e+000
 1.4452648606e+000	 1.1708749975e-001	 3.6610723947e+000
 1.4441346175e+000	 1.3028893496e-001	 3.6075393679e+000
 1.4750000000e+000	 0.0000000000e+000	 3.9856296161e+000
 1.4749421724e+000	 1.3060934837e-002	 3.9714943088e+000
 1.4747678526e+000	 2.6168317182e-002	 3.9522235596e+000
 1.4744757957e+000	 3.9320833912e-002	 3.9278368229e+000
 1.4740647713e+000	 5.2517140313e-002	 3.8983348035e+000
 1.4735335649e+000	 6.5755860127e-002	 3.8636985696e+000
 1.4728809783e+000	 7.9035585644e-002	 3.8238886748e+000
 1.4721058306e+000	 9.2354877796e-002	 3.7788442945e+000
 1.4712069592e+000	 1.0571226629e-001	 3.7284823758e+000
 1.4701832203e+000	 1.1910624974e-001	 3.6726968076e+000
 1.4690334902e+000	 1.3253529590e-001	 3.6113576090e+000
 1.5000000000e+000	 0.0000000000e+000	 4.0967139114e+000
 1.4999411923e+000	 1.3282306613e-002	 4.0722505336e+000
 1.4997639179e+000	 2.6611847981e-002	 4.0428075550e+000
 1.4994669109e+000	 3.9987288723e-002	 4.0084158276e+000
 1.4990489200e+000	 5.3407261333e-002	 3.9690865501e+000
 1.4985087101e+000	 6.6870366229e-002	 3.9248103298e+000
 1.4978450627e+000	 8.0375171839e-002	 3.8755562543e+000
 1.4970567769e+000	 9.3920214705e-002	 3.8212709765e+000
 1.4961426704e+000	 1.0750399961e-001	 3.7618778165e+000
 1.4951015800e+000	 1.2112499974e-001	 3.6972758806e+000
 1.4939323629e+000	 1.3478165685e-001	 3.6273392036e+000
 1.2449436358e+000	 1.1231804739e-001	 3.9357886382e+000
 1.2438615812e+000	 1.2372698459e-001	 3.9163691143e+000
 1.2426709033e+000	 1.3516296104e-001	 3.8906320427e+000
 1.2413707047e+000	 1.4662460078e-001	 3.8584003053e+000
 1.2399601078e+000	 1.5811050249e-001	 3.8194996902e+000
 1.2384382558e+000	 1.6961923973e-001	 3.7737591795e+000
 1.2368043131e+000	 1.8114936129e-001	 3.7210112371e+000
 1.2350574661e+000	 1.9269939142e-001	 3.6610920979e+000
 1.2331969241e+000	 2.0426783022e-001	 3.5938420560e+000
 1.2312219198e+000	 2.1585315397e-001	 3.5191057522e+000
 1.2291317105e+000	 2.2745381553e-001	 3.4367324604e+000
 1.2698425085e+000	 1.1456440834e-001	 3.9535954398e+000
 1.2687388129e+000	 1.2620152428e-001	 3.9611640196e+000
 1.2675243214e+000	 1.3786622027e-001	 3.9649273475e+000
 1.2661981188e+000	 1.4955709280e-001	 3.9647239628e+000
 1.2647593100e+000	 1.6127271254e-001	 3.9603734395e+000
 1.2632070210e+000	 1.7301162453e-001	 3.9516759355e+000
 1.2615403994e+000	 1.8477234852e-001	 3.9384117669e+000
 1.2597586154e+000	 1.9655337925e-001	 3.9203410105e+000
 1.2578608626e+000	 2.0835318683e-001	 3.8972031357e+000
 1.2558463582e+000	 2.2017021705e-001	 3.8687166690e+000
 1.2537143447e+000	 2.3200289184e-001	 3.8345788909e+000
 1.2947413812e+000	 1.1681076929e-001	 3.8613514294e+000
 1.2936160445e+000	 1.2867606398e-001	 3.8666696832e+000
 1.2923777395e+000	 1.4056947949e-001	 3.8674492871e+000
 1.2910255329e+000	 1.5248958481e-001	 3.8635249765e+000
 1.2895585122e+000	 1.6443492259e-001	 3.8547120954e+000
 1.2879757861e+000	 1.7640400932e-001	 3.8408061285e+000
 1.2862764856e+000	 1.8839533574e-001	 3.8215822614e+000
 1.2844597647e+000	 2.0040736708e-001	 3.7967949684e+000
 1.2825248010e+000	 2.1243854343e-001	 3.7661776323e+000
 1.2804707966e+000	 2.2448728013e-001	 3.7294421961e+000
 1.2782969789e+000	 2.3655196814e-001	 3.6862788506e+000
 1.3196402539e+000	 1.1905713023e-001	 3.7840958412e+000
 1.3184932761e+000	 1.3115060367e-001	 3.7869734255e+000
 1.3172311575e+000	 1.4327273871e-001	 3.7846706955e+000
 1.3158529470e+000	 1.5542207683e-001	 3.7770194562e+000
 1.3143577143e+000	 1.6759713264e-001	 3.7638316130e+000
 1.3127445512e+000	 1.7979639412e-001	 3.7448986856e+000
 1.3110125719e+000	 1.9201832297e-001	 3.7199913501e+000
 1.3091609141e+000	 2.0426135491e-001	 3.6888590104e+000
 1.3071887395e+000	 2.1652390003e-001	 3.6512294025e+000
 1.3050952350e+000	 2.2880434321e-001	 3.6068082321e+000
 1.3028796131e+000	 2.4110104445e-001	 3.5552788493e+000
 1.3445391266e+000	 1.2130349118e-001	 3.7213810141e+000
 1.3433705078e+000	 1.3362514336e-001	 3.7215965324e+000
 1.3420845756e+000	 1.4597599793e-001	 3.7160809068e+000
 1.3406803611e+000	 1.5835456884e-001	 3.7046638875e+000
 1.3391569165e+000	 1.7075934268e-001	 3.6871547355e+000
 1.3375133163e+000	 1.8318877891e-001	 3.6633417154e+000
 1.3357486582e+000	 1.9564131019e-001	 3.6329916167e+000
 1.3338620634e+000	 2.0811534273e-001	 3.5958493063e+000
 1.3318526780e+000	 2.2060925664e-001	 3.5516373144e+000
 1.3297196734e+000	 2.3312140629e-001	 3.5000554562e+000
 1.3274622474e+000	 2.4565012076e-001	 3.4407804906e+000
 1.3694379994e+000	 1.2354985212e-001	 3.6727762583e+000
 1.3682477394e+000	 1.3609968305e-001	 3.6700785413e+000
 1.3669379937e+000	 1.4867925715e-001	 3.6611889639e+000
 1.3655077752e+000	 1.6128706086e-001	 3.6459361010e+000
 1.3639561186e+000	 1.7392155273e-001	 3.6241273668e+000
 1.3622820814e+000	 1.8658116370e-001	 3.5955484838e+000
 1.3604847444e+000	 1.9926429742e-001	 3.5599629802e+000
 1.3585632127e+000	 2.1196933056e-001	 3.5171117216e+000
 1.3565166165e+000	 2.2469461324e-001	 3.4667124757e+000
 1.3543441118e+000	 2.3743846937e-001	 3.4084595146e+000
 1.3520448816e+000	 2.5019919707e-001	 3.3420232570e+000
 1.3943368721e+000	 1.2579621307e-001	 3.6378663402e+000
 1.3931249710e+000	 1.3857422274e-001	 3.6319756113e+000
 1.3917914117e+000	 1.5138251636e-001	 3.6195218587e+000
 1.3903351893e+000	 1.6421955287e-001	 3.6003333662e+000
 1.3887553208e+000	 1.7708376278e-001	 3.5742165035e+000
 1.3870508465e+000	 1.8997354850e-001	 3.5409551672e+000
 1.3852208307e+000	 2.0288728464e-001	 3.5003102540e+000
 1.3832643620e+000	 2.1582331839e-001	 3.4520191663e+000
 1.3811805550e+000	 2.2877996984e-001	 3.3957953546e+000
 1.3789685502e+000	 2.4175553244e-001	 3.3313278983e+000
 1.3766275158e+000	 2.5474827338e-001	 3.2582811276e+000
 1.4192357448e+000	 1.2804257402e-001	 3.6162501263e+000
 1.4180022026e+000	 1.4104876243e-001	 3.6068590650e+000
 1.4166448298e+000	 1.5408577558e-001	 3.5906229576e+000
 1.4151626033e+000	 1.6715204489e-001	 3.5673706866e+000
 1.4135545229e+000	 1.8024597283e-001	 3.5369083843e+000
 1.4118196117e+000	 1.9336593329e-001	 3.4990188436e+000
 1.4099569169e+000	 2.0651027186e-001	 3.4534609624e+000
 1.4079655113e+000	 2.1967730621e-001	 3.3999692222e+000
 1.4058444934e+000	 2.3286532645e-001	 3.3382532050e+000
 1.4035929886e+000	 2.4607259552e-001	 3.2679971498e+000
 1.4012101500e+000	 2.5929734969e-001	 3.1888595519e+000
 1.4441346175e+000	 1.3028893496e-001	 3.6075393679e+000
 1.4428794342e+000	 1.4352330212e-001	 3.5943140817e+000
 1.4414982479e+000	 1.5678903480e-001	 3.5740505899e+000
 1.4399900174e+000	 1.7008453690e-001	 3.5465792706e+000
 1.4383537251e+000	 1.8340818287e-001	 3.5117068319e+000
 1.4365883768e+000	 1.9675831808e-001	 3.4692156901e+000
 1.4346930032e+000	 2.1013325909e-001	 3.4188633825e+000
 1.4326666607e+000	 2.2353129404e-001	 3.3603820163e+000
 1.4305084319e+000	 2.3695068305e-001	 3.2934777570e+000
 1.4282174270e+000	 2.5038965860e-001	 3.2178303584e+000
 1.4257927842e+000	 2.6384642600e-001	 3.1330927372e+000
 1.4690334902e+000	 1.3253529590e-001	 3.6113576090e+000
 1.4677566659e+000	 1.4599784180e-001	 3.5939385228e+000
 1.4663516659e+000	 1.5949229402e-001	 3.5693767799e+000
 1.4648174315e+000	 1.7301702891e-001	 3.5375051584e+000
 1.4631529272e+000	 1.8657039292e-001	 3.4981317624e+000
 1.4613571419e+000	 2.0015070287e-001	 3.4510393647e+000
 1.4594290895e+000	 2.1375624631e-001	 3.3959847858e+000
 1.4573678100e+000	 2.2738528187e-001	 3.3326983100e+000
 1.4551723704e+000	 2.4103603965e-001	 3.2608831426e+000
 1.4528418654e+000	 2.5470672168e-001	 3.1802149109e+000
 1.4503754184e+000	 2.6839550231e-001	 3.0903412115e+000
 1.4939323629e+000	 1.3478165685e-001	 3.6273392036e+000
 1.4926338975e+000	 1.4847238149e-001	 3.6053418748e+000
 1.4912050840e+000	 1.6219555323e-001	 3.5761861055e+000
 1.4896448456e+000	 1.7594952092e-001	 3.5397079860e+000
 1.4879521294e+000	 1.8973260296e-001	 3.4957178440e+000
 1.4861259070e+000	 2.0354308766e-001	 3.4439995492e+000
 1.4841651757e+000	 2.1737923353e-001	 3.3843098552e+000
 1.4820689593e+000	 2.3123926969e-001	 3.3163777799e+000
 1.4798363089e+000	 2.4512139625e-001	 3.2399040291e+000
 1.4774663038e+000	 2.5902378476e-001	 3.1545604664e+000
 1.4749580526e+000	 2.7294457862e-001	 3.0599896297e+000
 1.2291317105e+000	 2.2745381553e-001	 3.4367324604e+000
 1.2269255782e+000	 2.3906824470e-001	 3.4067730146e+000
 1.2246028306e+000	 2.5069484874e-001	 3.3682156689e+000
 1.2221628022e+000	 2.6233201271e-001	 3.3209350126e+000
 1.2196048543e+000	 2.7397810005e-001	 3.2648126470e+000
 1.2169283763e+000	 2.8563145302e-001	 3.1997374664e+000
 1.2141327860e+000	 2.9729039324e-001	 3.1256059330e+000
 1.2112175306e+000	 3.0895322226e-001	 3.0423223437e+000
 1.2081820871e+000	 3.2061822211e-001	 2.9497990884e+000
 1.2050259632e+000	 3.3228365593e-001	 2.8479568983e+000
 1.2017486977e+000	 3.4394776857e-001	 2.7367250850e+000
 1.2537143447e+000	 2.3200289184e-001	 3.8345788909e+000
 1.2514640897e+000	 2.4384960960e-001	 3.8565213857e+000
 1.2490948872e+000	 2.5570874571e-001	 3.8474177560e+000
 1.2466060582e+000	 2.6757865297e-001	 3.7886541439e+000
 1.2439969514e+000	 2.7945766205e-001	 3.7196676944e+000
 1.2412669438e+000	 2.9134408208e-001	 3.6403494960e+000
 1.2384154417e+000	 3.0323620110e-001	 3.5505996112e+000
 1.2354418812e+000	 3.1513228670e-001	 3.4503273689e+000
 1.2323457289e+000	 3.2703058655e-001	 3.3394516460e+000
 1.2291264825e+000	 3.3892932905e-001	 3.2179011375e+000
 1.2257836717e+000	 3.5082672394e-001	 3.0856146161e+000
 1.2782969789e+000	 2.3655196814e-001	 3.6862788506e+000
 1.2760026013e+000	 2.4863097449e-001	 3.7001721789e+000
 1.2735869439e+000	 2.6072264268e-001	 3.7070872601e+000
 1.2710493143e+000	 2.7282529322e-001	 3.7066613566e+000
 1.2683890485e+000	 2.8493722405e-001	 3.6985097574e+000
 1.2656055113e+000	 2.9705671113e-001	 3.6822256675e+000
 1.2626980974e+000	 3.0918200896e-001	 3.6573801419e+000
 1.2596662318e+000	 3.2131135114e-001	 3.6235220668e+000
 1.2565093706e+000	 3.3344295099e-001	 3.5801781897e+000
 1.2532270017e+000	 3.4557500216e-001	 3.5268531987e+000
 1.2498186456e+000	 3.5770567931e-001	 3.4583667752e+000
 1.3028796131e+000	 2.4110104445e-001	 3.5552788493e+000
 1.3005411129e+000	 2.5341233938e-001	 3.5617859981e+000
 1.2980790005e+000	 2.6573653966e-001	 3.5610010555e+000
 1.2954925703e+000	 2.7807193347e-001	 3.5525544914e+000
 1.2927811456e+000	 2.9041678605e-001	 3.5360538647e+000
 1.2899440789e+000	 3.0276934019e-001	 3.5110837005e+000
 1.2869807532e+000	 3.1512781682e-001	 3.4772054136e+000
 1.2838905824e+000	 3.2749041558e-001	 3.4339572829e+000
 1.2806730123e+000	 3.3985531543e-001	 3.3808544750e+000
 1.2773275210e+000	 3.5222067528e-001	 3.3173891210e+000
 1.2738536196e+000	 3.6458463467e-001	 3.2430304472e+000
 1.3274622474e+000	 2.4565012076e-001	 3.4407804906e+000
 1.3250796244e+000	 2.5819370428e-001	 3.4405296508e+000
 1.3225710571e+000	 2.7075043663e-001	 3.4327542527e+000
 1.3199358264e+000	 2.8331857372e-001	 3.4170778392e+000
 1.3171732427e+000	 2.9589634805e-001	 3.3931000064e+000
 1.3142826464e+000	 3.0848196925e-001	 3.3603962668e+000
 1.3112634089e+000	 3.2107362469e-001	 3.3185179621e+000
 1.3081149330e+000	 3.3366948003e-001	 3.2669922277e+000
 1.3048366541e+000	 3.4626767987e-001	 3.2053220100e+000
 1.3014280403e+000	 3.5886634840e-001	 3.1329861392e+000
 1.2978885935e+000	 3.7146359004e-001	 3.0494394575e+000
 1.3520448816e+000	 2.5019919707e-001	 3.3420232570e+000
 1.3496181360e+000	 2.6297506917e-001	 3.3356105440e+000
 1.3470631137e+000	 2.7576433361e-001	 3.3215222574e+000
 1.3443790824e+000	 2.8856521398e-001	 3.2993748823e+000
 1.3415653397e+000	 3.0137591005e-001	 3.2687598222e+000
 1.3386212139e+000	 3.1419459831e-001	 3.2292432468e+000
 1.3355460646e+000	 3.2701943255e-001	 3.1803659920e+000
 1.3323392837e+000	 3.3984854447e-001	 3.1216435142e+000
 1.3290002958e+000	 3.5268004431e-001	 3.0525658992e+000
 1.3255285595e+000	 3.6551202151e-001	 2.9725979299e+000
 1.3219235675e+000	 3.7834254541e-001	 2.8811792125e+000
 1.3766275158e+000	 2.5474827338e-001	 3.2582811276e+000
 1.3741566475e+000	 2.6775643406e-001	 3.2462730590e+000
 1.3715551703e+000	 2.8077823058e-001	 3.2265200407e+000
 1.3688223385e+000	 2.9381185423e-001	 3.1986313726e+000
 1.3659574368e+000	 3.0685547205e-001	 3.1621900384e+000
 1.3629597814e+000	 3.1990722737e-001	 3.1167525365e+000
 1.3598287203e+000	 3.3296524041e-001	 3.0618487655e+000
 1.3565636343e+000	 3.4602760891e-001	 2.9969819664e+000
 1.3531639376e+000	 3.5909240875e-001	 2.9216287228e+000
 1.3496290788e+000	 3.7215769463e-001	 2.8352390220e+000
 1.3459585415e+000	 3.8522150078e-001	 2.7372363779e+000
 1.4012101500e+000	 2.5929734969e-001	 3.1888595519e+000
 1.3986951591e+000	 2.7253779896e-001	 3.1717953085e+000
 1.3960472269e+000	 2.8579212755e-001	 3.1469986686e+000
 1.3932655945e+000	 2.9905849449e-001	 3.1140716235e+000
 1.3903495339e+000	 3.1233503405e-001	 3.0725885127e+000
 1.3872983490e+000	 3.2561985643e-001	 3.0220958360e+000
 1.3841113760e+000	 3.3891104828e-001	 2.9621121235e+000
 1.3807879849e+000	 3.5220667336e-001	 2.8921278642e+000
 1.3773275793e+000	 3.6550477319e-001	 2.8116054959e+000
 1.3737295980e+000	 3.7880336775e-001	 2.7199794588e+000
 1.3699935154e+000	 3.9210045615e-001	 2.6166563143e+000
 1.4257927842e+000	 2.6384642600e-001	 3.1330927372e+000
 1.4232336707e+000	 2.7731916385e-001	 3.1114862285e+000
 1.4205392835e+000	 2.9080602453e-001	 3.0822421906e+000
 1.4177088505e+000	 3.0430513474e-001	 3.0449551861e+000
 1.4147416310e+000	 3.1781459605e-001	 2.9991906883e+000
 1.4116369165e+000	 3.3133248549e-001	 2.9444848730e+000
 1.4083940318e+000	 3.4485685614e-001	 2.8803444704e+000
 1.4050123355e+000	 3.5838573780e-001	 2.8062466798e+000
 1.4014912211e+000	 3.7191713763e-001	 2.7216391475e+000
 1.3978301173e+000	 3.8544904087e-001	 2.6259400118e+000
 1.3940284894e+000	 3.9897941152e-001	 2.5185380169e+000
 1.4503754184e+000	 2.6839550231e-001	 3.0903412115e+000
 1.4477721822e+000	 2.8210052874e-001	 3.0646829661e+000
 1.4450313401e+000	 2.9581992150e-001	 3.0315648439e+000
 1.4421521066e+000	 3.0955177499e-001	 2.9905738626e+000
 1.4391337281e+000	 3.2329415806e-001	 2.9412664092e+000
 1.4359754840e+000	 3.3704511455e-001	 2.8831680108e+000
 1.4326766875e+000	 3.5080266401e-001	 2.8157731669e+000
 1.4292366861e+000	 3.6456480225e-001	 2.7385452479e+000
 1.4256548628e+000	 3.7832950208e-001	 2.6509164602e+000
 1.4219306366e+000	 3.9209471399e-001	 2.5522878821e+000
 1.4180634633e+000	 4.0585836689e-001	 2.4420295705e+000
 1.4749580526e+000	 2.7294457862e-001	 3.0599896297e+000
 1.4723106938e+000	 2.8688189364e-001	 3.0307485285e+000
 1.4695233968e+000	 3.0083381848e-001	 2.9943085383e+000
 1.4665953626e+000	 3.1479841525e-001	 2.9502490185e+000
 1.4635258252e+000	 3.2877372006e-001	 2.8981170527e+000
 1.4603140515e+000	 3.4275774362e-001	 2.8374271953e+000
 1.4569593432e+000	 3.5674847188e-001	 2.7676612836e+000
 1.4534610367e+000	 3.7074386670e-001	 2.6882683186e+000
 1.4498185045e+000	 3.8474186652e-001	 2.5986644161e+000
 1.4460311558e+000	 3.9874038711e-001	 2.4982328311e+000
 1.4420984373e+000	 4.1273732227e-001	 2.3863240584e+000
 1.2017486977e+000	 3.4394776857e-001	 2.7367250850e+000
 1.1983498614e+000	 3.5560878723e-001	 2.6999226154e+000
 1.1948290576e+000	 3.6726492216e-001	 2.6555919365e+000
 1.1911859226e+000	 3.7891436731e-001	 2.6037547821e+000
 1.1874201265e+000	 3.9055530112e-001	 2.5444420486e+000
 1.1835313736e+000	 4.0218588716e-001	 2.4776938991e+000
 1.1795194030e+000	 4.1380427497e-001	 2.4035598532e+000
 1.1753839893e+000	 4.2540860082e-001	 2.3220988591e+000
 1.1711249430e+000	 4.3699698847e-001	 2.2333793511e+000
 1.1667421108e+000	 4.4856755008e-001	 2.1374792879e+000
 1.1622353763e+000	 4.6011838696e-001	 2.0344861747e+000
 1.2257836717e+000	 3.5082672394e-001	 3.0856146161e+000
 1.2223168587e+000	 3.6272096297e-001	 3.0305706881e+000
 1.2187256388e+000	 3.7461022059e-001	 2.9668437441e+000
 1.2150096411e+000	 3.8649265466e-001	 2.8944582748e+000
 1.2111685290e+000	 3.9836640714e-001	 2.8134491763e+000
 1.2072020010e+000	 4.1022960490e-001	 2.7238618713e+000
 1.2031097911e+000	 4.2208036047e-001	 2.6257524139e+000
 1.1988916691e+000	 4.3391677283e-001	 2.5191875754e+000
 1.1945474418e+000	 4.4573692824e-001	 2.4042449131e+000
 1.1900769530e+000	 4.5753890108e-001	 2.2810128192e+000
 1.1854800839e+000	 4.6932075469e-001	 2.1495905501e+000
 1.2498186456e+000	 3.5770567931e-001	 3.4583667752e+000
 1.2462838559e+000	 3.6983313871e-001	 3.3851587330e+000
 1.2426222199e+000	 3.8195551903e-001	 3.3021125785e+000
 1.2388333595e+000	 3.9407094200e-001	 3.2092556960e+000
 1.2349169315e+000	 4.0617751316e-001	 3.1066271360e+000
 1.2308726285e+000	 4.1827332264e-001	 2.9942777532e+000
 1.2267001791e+000	 4.3035644597e-001	 2.8722703267e+000
 1.2223993489e+000	 4.4242494484e-001	 2.7406796598e+000
 1.2179699407e+000	 4.5447686801e-001	 2.5995926600e+000
 1.2134117952e+000	 4.6651025208e-001	 2.4491083981e+000
 1.2087247914e+000	 4.7852312243e-001	 2.2893381457e+000
 1.2738536196e+000	 3.6458463467e-001	 3.2430304472e+000
 1.2702508531e+000	 3.7694531445e-001	 3.2509952289e+000
 1.2665188011e+000	 3.8930081747e-001	 3.2493930864e+000
 1.2626570780e+000	 4.0164922934e-001	 3.2376582901e+000
 1.2586653341e+000	 4.1398861918e-001	 3.2152021134e+000
 1.2545432560e+000	 4.2631704038e-001	 3.1814131975e+000
 1.2502905672e+000	 4.3863253146e-001	 3.1356579778e+000
 1.2459070287e+000	 4.5093311686e-001	 2.9857699667e+000
 1.2413924396e+000	 4.6321680778e-001	 2.8185978768e+000
 1.2367466374e+000	 4.7548160308e-001	 2.6409198472e+000
 1.2319694989e+000	 4.8772549017e-001	 2.4528594317e+000
 1.2978885935e+000	 3.7146359004e-001	 3.0494394575e+000
 1.2942178504e+000	 3.8405749020e-001	 3.0495700582e+000
 1.2904153822e+000	 3.9664611591e-001	 3.0399286572e+000
 1.2864807964e+000	 4.0922751669e-001	 3.0199215261e+000
 1.2824137366e+000	 4.2179972519e-001	 2.9889305855e+000
 1.2782138834e+000	 4.3436075812e-001	 2.9463137888e+000
 1.2738809552e+000	 4.4690861696e-001	 2.8914055697e+000
 1.2694147085e+000	 4.5944128887e-001	 2.8235173556e+000
 1.2648149384e+000	 4.7195674754e-001	 2.7419381459e+000
 1.2600814796e+000	 4.8445295408e-001	 2.6459351569e+000
 1.2552142064e+000	 4.9692785791e-001	 2.5347545328e+000
 1.3219235675e+000	 3.7834254541e-001	 2.8811792125e+000
 1.3181848476e+000	 3.9116966594e-001	 2.8741365201e+000
 1.3143119634e+000	 4.0399141435e-001	 2.8571852380e+000
 1.3103045149e+000	 4.1680580403e-001	 2.8297027340e+000
 1.3061621391e+000	 4.2961083121e-001	 2.7910405702e+000
 1.3018845109e+000	 4.4240447586e-001	 2.7405249046e+000
 1.2974713433e+000	 4.5518470246e-001	 2.6774569608e+000
 1.2929223883e+000	 4.6794946089e-001	 2.6011135663e+000
 1.2882374373e+000	 4.8069668731e-001	 2.5107477606e+000
 1.2834163219e+000	 4.9342430508e-001	 2.4055894728e+000
 1.2784589140e+000	 5.0613022564e-001	 2.2848462693e+000
 1.3459585415e+000	 3.8522150078e-001	 2.7372363779e+000
 1.3421518448e+000	 3.9828184168e-001	 2.7236927984e+000
 1.3382085446e+000	 4.1133671280e-001	 2.7001730852e+000
 1.3341282333e+000	 4.2438409137e-001	 2.6660247769e+000
 1.3299105417e+000	 4.3742193723e-001	 2.6205680481e+000
 1.3255551384e+000	 4.5044819360e-001	 2.5630961299e+000
 1.3210617314e+000	 4.6346078795e-001	 2.4928758009e+000
 1.3164300681e+000	 4.7645763290e-001	 2.4091479513e+000
 1.3116599362e+000	 4.8943662708e-001	 2.3111282210e+000
 1.3067511641e+000	 5.0239565608e-001	 2.1980077104e+000
 1.3017036215e+000	 5.1533259338e-001	 2.0689537658e+000
 1.3699935154e+000	 3.9210045615e-001	 2.6166563143e+000
 1.3661188421e+000	 4.0539401742e-001	 2.5972963011e+000
 1.3621051257e+000	 4.1868201124e-001	 2.5679622828e+000
 1.3579519518e+000	 4.3196237872e-001	 2.5279710213e+000
 1.3536589442e+000	 4.4523304325e-001	 2.4766102526e+000
 1.3492257659e+000	 4.5849191134e-001	 2.4131391248e+000
 1.3446521194e+000	 4.7173687345e-001	 2.3367887112e+000
 1.3399377478e+000	 4.8496580491e-001	 2.2467626004e+000
 1.3350824350e+000	 4.9817656684e-001	 2.1422375639e+000
 1.3300860063e+000	 5.1136700707e-001	 2.0223643018e+000
 1.3249483290e+000	 5.2453496112e-001	 1.8862682661e+000
 1.3940284894e+000	 3.9897941152e-001	 2.5185380169e+000
 1.3900858393e+000	 4.1250619317e-001	 2.4940585554e+000
 1.3860017069e+000	 4.2602730968e-001	 2.4596775841e+000
 1.3817756702e+000	 4.3954066606e-001	 2.4146801207e+000
 1.3774073467e+000	 4.5304414927e-001	 2.3583203886e+000
 1.3728963933e+000	 4.6653562908e-001	 2.2898222731e+000
 1.3682425075e+000	 4.8001295895e-001	 2.2083798563e+000
 1.3634454276e+000	 4.9347397693e-001	 2.1131580332e+000
 1.3585049339e+000	 5.0691650661e-001	 2.0032932103e+000
 1.3534208485e+000	 5.2033835807e-001	 1.8778940852e+000
 1.3481930365e+000	 5.3373732886e-001	 1.7360425098e+000
 1.4180634633e+000	 4.0585836689e-001	 2.4420295705e+000
 1.4140528365e+000	 4.1961836891e-001	 2.4131406207e+000
 1.4098982880e+000	 4.3337260812e-001	 2.3744937793e+000
 1.4055993887e+000	 4.4711895341e-001	 2.3253413306e+000
 1.4011557493e+000	 4.6085525529e-001	 2.2649028898e+000
 1.3965670208e+000	 4.7457934682e-001	 2.1923658755e+000
 1.3918328955e+000	 4.8828904444e-001	 2.1068860672e+000
 1.3869531074e+000	 5.0198214894e-001	 2.0075882479e+000
 1.3819274327e+000	 5.1565644638e-001	 1.8935669329e+000
 1.3767556907e+000	 5.2930970907e-001	 1.7638871856e+000
 1.3714377441e+000	 5.4293969659e-001	 1.6175855202e+000
 1.4420984373e+000	 4.1273732227e-001	 2.3863240584e+000
 1.4380198337e+000	 4.2673054465e-001	 2.3537489616e+000
 1.4337948692e+000	 4.4071790656e-001	 2.3116315252e+000
 1.4294231071e+000	 4.5469724075e-001	 2.2591902915e+000
 1.4249041518e+000	 4.6866636131e-001	 2.1956091492e+000
 1.4202376483e+000	 4.8262306456e-001	 2.1200378228e+000
 1.4154232836e+000	 4.9656512994e-001	 2.0315924527e+000
 1.4104607872e+000	 5.1049032095e-001	 1.9293562639e+000
 1.4053499316e+000	 5.2439638615e-001	 1.8123803266e+000
 1.4000905329e+000	 5.3828106007e-001	 1.6796844076e+000
 1.3946824516e+000	 5.5214206433e-001	 1.5302579143e+000
 1.1622353763e+000	 4.6011838696e-001	 2.0344861747e+000
 1.1576046607e+000	 4.7164759049e-001	 2.0392251698e+000
 1.1528499225e+000	 4.8315324300e-001	 2.0334777087e+000
 1.1479711587e+000	 4.9463341865e-001	 2.0174976806e+000
 1.1429684047e+000	 5.0608618433e-001	 1.9915541781e+000
 1.1378417347e+000	 5.1750960065e-001	 1.9559313481e+000
 1.1325912624e+000	 5.2890172284e-001	 1.9109282133e+000
 1.1272171407e+000	 5.4026060171e-001	 1.8568584668e+000
 1.1217195625e+000	 5.5158428467e-001	 1.7940502360e+000
 1.1160987607e+000	 5.6287081669e-001	 1.7228458198e+000
 1.1103550086e+000	 5.7411824131e-001	 1.6436013961e+000
 1.1854800839e+000	 4.6932075469e-001	 2.1495905501e+000
 1.1807567539e+000	 4.8108054230e-001	 2.1356116045e+000
 1.1759069209e+000	 4.9281630786e-001	 2.1091464889e+000
 1.1709305819e+000	 5.0452608702e-001	 2.0704548584e+000
 1.1658277727e+000	 5.1620790802e-001	 2.0198137438e+000
 1.1605985694e+000	 5.2785979267e-001	 1.9575174193e+000
 1.1552430876e+000	 5.3947975730e-001	 1.8838772403e+000
 1.1497614835e+000	 5.5106581375e-001	 1.7992214489e+000
 1.1441539538e+000	 5.6261597037e-001	 1.7038949479e+000
 1.1384207360e+000	 5.7412823303e-001	 1.5982590427e+000
 1.1325621087e+000	 5.8560060613e-001	 1.4826911517e+000
 1.2087247914e+000	 4.7852312243e-001	 2.2893381457e+000
 1.2039088471e+000	 4.9051349411e-001	 2.2562791783e+000
 1.1989639194e+000	 5.0247937272e-001	 2.2087719326e+000
 1.1938900050e+000	 5.1441875539e-001	 2.1470825471e+000
 1.1886871408e+000	 5.2632963171e-001	 2.0714967063e+000
 1.1833554041e+000	 5.3820998468e-001	 1.9823195265e+000
 1.1778949129e+000	 5.5005779175e-001	 1.8798754075e+000
 1.1723058263e+000	 5.6187102578e-001	 1.7645078492e+000
 1.1665883450e+000	 5.7364765606e-001	 1.6365792341e+000
 1.1607427112e+000	 5.8538564936e-001	 1.4964705738e+000
 1.1547692089e+000	 5.9708297096e-001	 1.3445812210e+000
 1.2319694989e+000	 4.8772549017e-001	 2.4528594317e+000
 1.2270609403e+000	 4.9994644592e-001	 2.4003583038e+000
 1.2220209178e+000	 5.1214243758e-001	 2.3314804950e+000
 1.2168494282e+000	 5.2431142377e-001	 2.2464993291e+000
 1.2115465089e+000	 5.3645135539e-001	 2.1457098483e+000
 1.2061122388e+000	 5.4856017669e-001	 2.0294287158e+000
 1.2005467381e+000	 5.6063582621e-001	 1.8979940809e+000
 1.1948501691e+000	 5.7267623781e-001	 1.7517654061e+000
 1.1890227363e+000	 5.8467934175e-001	 1.5911232565e+000
 1.1830646864e+000	 5.9664306569e-001	 1.4164690510e+000
 1.1769763091e+000	 6.0856533578e-001	 1.2282247742e+000
 1.2552142064e+000	 4.9692785791e-001	 2.5347545328e+000
 1.2502130335e+000	 5.0937939773e-001	 2.5629610673e+000
 1.2450779163e+000	 5.2180550244e-001	 2.4764876001e+000
 1.2398088514e+000	 5.3420409214e-001	 2.3679130626e+000
 1.2344058770e+000	 5.4657307908e-001	 2.2416497852e+000
 1.2288690735e+000	 5.5891036871e-001	 2.0980266744e+000
 1.2231985634e+000	 5.7121386067e-001	 1.9373963284e+000
 1.2173945119e+000	 5.8348144985e-001	 1.7601348735e+000
 1.2114571275e+000	 5.9571102745e-001	 1.5666417603e+000
 1.2053866616e+000	 6.0790048203e-001	 1.3573395173e+000
 1.1991834092e+000	 6.2004770061e-001	 1.1326734638e+000
 1.2784589140e+000	 5.0613022564e-001	 2.2848462693e+000
 1.2733651267e+000	 5.1881234953e-001	 2.3122027883e+000
 1.2681349147e+000	 5.3146856730e-001	 2.3144160473e+000
 1.2627682746e+000	 5.4409676051e-001	 2.2907234424e+000
 1.2572652451e+000	 5.5669480277e-001	 2.2403534824e+000
 1.2516259082e+000	 5.6926056072e-001	 2.1625269029e+000
 1.2458503886e+000	 5.8179189512e-001	 1.9973285831e+000
 1.2399388547e+000	 5.9428666188e-001	 1.7888415650e+000
 1.2338915188e+000	 6.0674271314e-001	 1.5623354749e+000
 1.2277086368e+000	 6.1915789836e-001	 1.3182546566e+000
 1.2213905094e+000	 6.3153006543e-001	 1.1185414637e+000
 1.3017036215e+000	 5.1533259338e-001	 2.0689537658e+000
 1.2965172200e+000	 5.2824530134e-001	 2.0964144701e+000
 1.2911919132e+000	 5.4113163216e-001	 2.0975286693e+000
 1.2857276977e+000	 5.5398942888e-001	 2.0714814467e+000
 1.2801246132e+000	 5.6681652645e-001	 2.0174485546e+000
 1.2743827429e+000	 5.7961075273e-001	 1.9345976033e+000
 1.2685022138e+000	 5.9236992958e-001	 1.8220893078e+000
 1.2624831976e+000	 6.0509187392e-001	 1.6790787904e+000
 1.2563259100e+000	 6.1777439883e-001	 1.5047169375e+000
 1.2500306120e+000	 6.3041531469e-001	 1.3421673449e+000
 1.2435976096e+000	 6.4301243026e-001	 1.1606174337e+000
 1.3249483290e+000	 5.2453496112e-001	 1.8862682661e+000
 1.3196693132e+000	 5.3767825315e-001	 1.9148232184e+000
 1.3142489116e+000	 5.5079469702e-001	 1.9159109225e+000
 1.3086871209e+000	 5.6388209726e-001	 1.8886624753e+000
 1.3029839813e+000	 5.7693825014e-001	 1.8321990877e+000
 1.2971395776e+000	 5.8996094475e-001	 1.7456333498e+000
 1.2911540391e+000	 6.0294796403e-001	 1.6280705574e+000
 1.2850275404e+000	 6.1589708595e-001	 1.4786100972e+000
 1.2787603012e+000	 6.2880608453e-001	 1.3220778836e+000
 1.2723525872e+000	 6.4167273103e-001	 1.2053447386e+000
 1.2658047097e+000	 6.5449479508e-001	 1.0733047970e+000
 1.3481930365e+000	 5.3373732886e-001	 1.7360425098e+000
 1.3428214064e+000	 5.4711120496e-001	 1.7667175039e+000
 1.3373059101e+000	 5.6045776188e-001	 1.7688860297e+000
 1.3316465441e+000	 5.7377476563e-001	 1.7416234729e+000
 1.3258433494e+000	 5.8705997383e-001	 1.6839946657e+000
 1.3198964122e+000	 6.0031113676e-001	 1.5950552301e+000
 1.3138058643e+000	 6.1352599849e-001	 1.4738529857e+000
 1.3075718832e+000	 6.2670229798e-001	 1.3286614289e+000
 1.3011946925e+000	 6.3983777022e-001	 1.2215252531e+000
 1.2946745624e+000	 6.5293014736e-001	 1.0978006073e+000
 1.2880118099e+000	 6.6597715991e-001	 9.5746643697e-001
 1.3714377441e+000	 5.4293969659e-001	 1.6175855202e+000
 1.3659734996e+000	 5.5654415677e-001	 1.6514419616e+000
 1.3603629085e+000	 5.7012082674e-001	 1.6558334152e+000
 1.3546059672e+000	 5.8366743400e-001	 1.6297777796e+000
 1.3487027175e+000	 5.9718169751e-001	 1.5722816196e+000
 1.3426532469e+000	 6.1066132877e-001	 1.4823415892e+000
 1.3364576896e+000	 6.2410403295e-001	 1.3589459227e+000
 1.3301162260e+000	 6.3750751002e-001	 1.2606610570e+000
 1.3236290837e+000	 6.5086945591e-001	 1.1482476968e+000
 1.3169965376e+000	 6.6418756369e-001	 1.0179802927e+000
 1.3102189101e+000	 6.7745952473e-001	 8.6984370041e-001
 1.3946824516e+000	 5.5214206433e-001	 1.5302579143e+000
 1.3891255928e+000	 5.6597710858e-001	 1.5683927105e+000
 1.3834199070e+000	 5.7978389160e-001	 1.5761840208e+000
 1.3775653904e+000	 5.9356010237e-001	 1.5525904307e+000
 1.3715620856e+000	 6.0730342120e-001	 1.4965582984e+000
 1.3654100816e+000	 6.2101152078e-001	 1.4070232587e+000
 1.3591095148e+000	 6.3468206740e-001	 1.3163523778e+000
 1.3526605688e+000	 6.4831272205e-001	 1.2180905672e+000
 1.3460634750e+000	 6.6190114160e-001	 1.1007772266e+000
 1.3393185129e+000	 6.7544498003e-001	 9.6438496011e-001
 1.3324260102e+000	 6.8894188956e-001	 8.0890502211e-001
 1.1103550086e+000	 5.7411824131e-001	 1.6436013961e+000
 1.1044886196e+000	 5.8532460163e-001	 1.6069681588e+000
 1.0984999480e+000	 5.9648794139e-001	 1.5457902035e+000
 1.0923893889e+000	 6.0760630594e-001	 1.4604569554e+000
 1.0861573781e+000	 6.1867774335e-001	 1.3513877262e+000
 1.0798043922e+000	 6.2970030539e-001	 1.2844506560e+000
 1.0733309490e+000	 6.4067204862e-001	 1.2887848060e+000
 1.0667376072e+000	 6.5159103546e-001	 1.2791932049e+000
 1.0600249662e+000	 6.6245533522e-001	 1.2556559540e+000
 1.0531936664e+000	 6.7326302520e-001	 1.2181587291e+000
 1.0462443890e+000	 6.8401219173e-001	 1.1666930914e+000
 1.1325621087e+000	 5.8560060613e-001	 1.4826911517e+000
 1.1265783920e+000	 5.9703109366e-001	 1.4133617949e+000
 1.1204699470e+000	 6.0841770021e-001	 1.3216137252e+000
 1.1142371767e+000	 6.1975843206e-001	 1.2078695961e+000
 1.1078805256e+000	 6.3105129822e-001	 1.1528314371e+000
 1.1014004800e+000	 6.4229431150e-001	 1.1539498774e+000
 1.0947975680e+000	 6.5348548960e-001	 1.1442801872e+000
 1.0880723593e+000	 6.6462285617e-001	 1.1237886030e+000
 1.0812254655e+000	 6.7570444192e-001	 1.0924434293e+000
 1.0742575397e+000	 6.8672828570e-001	 1.0502153445e+000
 1.0671692768e+000	 6.9769243556e-001	 9.9707772015e-001
 1.1547692089e+000	 5.9708297096e-001	 1.3445812210e+000
 1.1486681643e+000	 6.0873758569e-001	 1.2419797065e+000
 1.1424399459e+000	 6.2034745904e-001	 1.1189767433e+000
 1.1360849645e+000	 6.3191055818e-001	 1.0623199359e+000
 1.1296036732e+000	 6.4342485309e-001	 1.0535595631e+000
 1.1229965679e+000	 6.5488831761e-001	 1.0371098670e+000
 1.1162641870e+000	 6.6629893057e-001	 1.0129289506e+000
 1.1094071114e+000	 6.7765467688e-001	 9.8097349279e-001
 1.1024259648e+000	 6.8895354863e-001	 9.4119904002e-001
 1.0953214130e+000	 7.0019354621e-001	 8.9356031598e-001
 1.0880941646e+000	 7.1137267940e-001	 8.3801155009e-001
 1.1769763091e+000	 6.0856533578e-001	 1.2282247742e+000
 1.1707579367e+000	 6.2044407772e-001	 1.0917708678e+000
 1.1644099449e+000	 6.3227721786e-001	 1.0211697966e+000
 1.1579327522e+000	 6.4406268430e-001	 9.9604283184e-001
 1.1513268207e+000	 6.5579840795e-001	 9.6628586199e-001
 1.1445926557e+000	 6.6748232371e-001	 9.3185455108e-001
 1.1377308060e+000	 6.7911237154e-001	 8.9269966845e-001
 1.1307418636e+000	 6.9068649759e-001	 8.4876735602e-001
 1.1236264641e+000	 7.0220265533e-001	 7.9999942006e-001
 1.1163852864e+000	 7.1365880671e-001	 7.4633364694e-001
 1.1090190524e+000	 7.2505292324e-001	 6.8770414231e-001
 1.1991834092e+000	 6.2004770061e-001	 1.1326734638e+000
 1.1928477091e+000	 6.3215056975e-001	 1.0373395404e+000
 1.1863799439e+000	 6.4420697669e-001	 9.8951489616e-001
 1.1797805400e+000	 6.5621481041e-001	 9.4007906559e-001
 1.1730499683e+000	 6.6817196282e-001	 8.8899093813e-001
 1.1661887436e+000	 6.8007632982e-001	 8.3620106528e-001
 1.1591974249e+000	 6.9192581251e-001	 7.8165189501e-001
 1.1520766157e+000	 7.0371831829e-001	 7.2527803605e-001
 1.1448269634e+000	 7.1545176204e-001	 6.6700655184e-001
 1.1374491597e+000	 7.2712406721e-001	 6.0675728358e-001
 1.1299439401e+000	 7.3873316707e-001	 5.4444320188e-001
 1.2213905094e+000	 6.3153006543e-001	 1.1185414637e+000
 1.2149374815e+000	 6.4385706178e-001	 1.0418280371e+000
 1.2083499428e+000	 6.5613673552e-001	 9.6648040707e-001
 1.2016283278e+000	 6.6836693653e-001	 8.9246632609e-001
 1.1947731158e+000	 6.8054551768e-001	 8.1974180010e-001
 1.1877848314e+000	 6.9267033592e-001	 7.4825128120e-001
 1.1806640439e+000	 7.0473925348e-001	 6.7792789533e-001
 1.1734113679e+000	 7.1675013900e-001	 6.0869370513e-001
 1.1660274628e+000	 7.2870086874e-001	 5.4046000746e-001
 1.1585130330e+000	 7.4058932772e-001	 4.7312766540e-001
 1.1508688279e+000	 7.5241341090e-001	 4.0658747390e-001
 1.2435976096e+000	 6.4301243026e-001	 1.1606174337e+000
 1.2370272539e+000	 6.5556355381e-001	 1.0532484618e+000
 1.2303199418e+000	 6.6806649434e-001	 9.5016100757e-001
 1.2234761156e+000	 6.8051906265e-001	 8.5132218727e-001
 1.2164962634e+000	 6.9291907255e-001	 7.5668414614e-001
 1.2093809192e+000	 7.0526434203e-001	 6.6618424053e-001
 1.2021306629e+000	 7.1755269445e-001	 5.7974526043e-001
 1.1947461200e+000	 7.2978195971e-001	 4.9727569214e-001
 1.1872279621e+000	 7.4194997544e-001	 4.1867002106e-001
 1.1795769063e+000	 7.5405458822e-001	 3.4380907399e-001
 1.1717937157e+000	 7.6609365474e-001	 2.7256040061e-001
 1.2658047097e+000	 6.5449479508e-001	 1.0733047970e+000
 1.2591170263e+000	 6.6727004585e-001	 1.0027823997e+000
 1.2522899407e+000	 6.7999625317e-001	 9.2453000091e-001
 1.2453239033e+000	 6.9267118877e-001	 8.1483710061e-001
 1.2382194110e+000	 7.0529262741e-001	 6.9803546150e-001
 1.2309770071e+000	 7.1785834814e-001	 5.8824938581e-001
 1.2235972819e+000	 7.3036613542e-001	 4.8539029970e-001
 1.2160808721e+000	 7.4281378042e-001	 3.8935206535e-001
 1.2084284614e+000	 7.5519908214e-001	 3.0001129035e-001
 1.2006407797e+000	 7.6751984872e-001	 2.1722768202e-001
 1.1927186035e+000	 7.7977389857e-001	 1.4084444625e-001
 1.2880118099e+000	 6.6597715991e-001	 9.5746643697e-001
 1.2812067987e+000	 6.7897653788e-001	 8.7915158248e-001
 1.2742599397e+000	 6.9192601199e-001	 7.9487582258e-001
 1.2671716911e+000	 7.0482331488e-001	 7.0469386655e-001
 1.2599425585e+000	 7.1766618228e-001	 6.0866810195e-001
 1.2525730949e+000	 7.3045235424e-001	 5.0686840412e-001
 1.2450639008e+000	 7.4317957639e-001	 3.9321211696e-001
 1.2374156243e+000	 7.5584560112e-001	 2.8331187902e-001
 1.2296289607e+000	 7.6844818885e-001	 1.8291741944e-001
 1.2217046530e+000	 7.8098510922e-001	 9.1866217764e-002
 1.2136434913e+000	 7.9345414240e-001	 9.9760089175e-003
 1.3102189101e+000	 6.7745952473e-001	 8.6984370041e-001
 1.3032965711e+000	 6.9068302991e-001	 7.8384886536e-001
 1.2962299386e+000	 7.0385577082e-001	 6.9360188894e-001
 1.2890194789e+000	 7.1697544100e-001	 5.9917050058e-001
 1.2816657061e+000	 7.3003973714e-001	 5.0062854638e-001
 1.2741691828e+000	 7.4304636035e-001	 3.9805576017e-001
 1.2665305198e+000	 7.5599301736e-001	 2.9153752497e-001
 1.2587503764e+000	 7.6887742183e-001	 1.8116462520e-001
 1.2508294600e+000	 7.8169729555e-001	 6.7032990556e-002
 1.2427685263e+000	 7.9445036972e-001	-3.3740827719e-002
 1.2345683790e+000	 8.0713438624e-001	-1.2145915009e-001
 1.3324260102e+000	 6.8894188956e-001	 8.0890502211e-001
 1.3253863434e+000	 7.0238952194e-001	 7.1532922499e-001
 1.3181999376e+000	 7.1578552965e-001	 6.1915307767e-001
 1.3108672667e+000	 7.2912756712e-001	 5.2045752917e-001
 1.3033888536e+000	 7.4241329201e-001	 4.1932811661e-001
 1.2957652706e+000	 7.5564036645e-001	 3.1585469758e-001
 1.2879971388e+000	 7.6880645833e-001	 2.1013117450e-001
 1.2800851286e+000	 7.8190924254e-001	 1.0225521168e-001
 1.2720299594e+000	 7.9494640225e-001	-7.6720541840e-003
 1.2638323996e+000	 8.0791563023e-001	-1.1954630908e-001
 1.2554932668e+000	 8.2081463007e-001	-2.3326036164e-001
 1.0462443890e+000	 6.8401219173e-001	 1.1666930914e+000
 1.0391778559e+000	 6.9470093126e-001	 1.0469943012e+000
 1.0319948291e+000	 7.0532735142e-001	 9.3196622932e-001
 1.0246961113e+000	 7.1588957207e-001	 8.2157282860e-001
 1.0172825451e+000	 7.2638572639e-001	 7.1576743752e-001
 1.0097550126e+000	 7.3681396190e-001	 6.1449308235e-001
 1.0021144359e+000	 7.4717244154e-001	 5.1768280577e-001
 9.9436177575e-001	 7.5745934472e-001	 4.2526002125e-001
 9.8649803203e-001	 7.6767286832e-001	 3.3713889255e-001
 9.7852424289e-001	 7.7781122776e-001	 2.5322473705e-001
 9.7044148445e-001	 7.8787265798e-001	 1.7341445206e-001
 1.0671692768e+000	 6.9769243556e-001	 9.9707772015e-001
 1.0599614130e+000	 7.0859494989e-001	 8.7280681771e-001
 1.0526347257e+000	 7.1943389845e-001	 7.5336522197e-001
 1.0451900336e+000	 7.3020736352e-001	 6.3872195301e-001
 1.0376281960e+000	 7.4091344092e-001	 5.2883499496e-001
 1.0299501129e+000	 7.5155024114e-001	 4.2365160996e-001
 1.0221567246e+000	 7.6211589037e-001	 3.2310867987e-001
 1.0142490113e+000	 7.7260853162e-001	 2.2713307521e-001
 1.0062279927e+000	 7.8302632569e-001	 1.3564205012e-001
 9.9809472774e-001	 7.9336745232e-001	 4.8543662527e-002
 9.8985031414e-001	 8.0363011114e-001	-3.4262781778e-002
 1.0880941646e+000	 7.1137267940e-001	 8.3801155009e-001
 1.0807449701e+000	 7.2248896852e-001	 7.1078015704e-001
 1.0732746223e+000	 7.3354044548e-001	 5.8858786528e-001
 1.0656839558e+000	 7.4452515496e-001	 4.7140696782e-001
 1.0579738469e+000	 7.5544115545e-001	 3.5919823727e-001
 1.0501452131e+000	 7.6628652038e-001	 2.5191125387e-001
 1.0421990133e+000	 7.7705933921e-001	 1.4948476280e-001
 1.0341362468e+000	 7.8775771852e-001	 5.1847059924e-002
 1.0259579533e+000	 7.9837978306e-001	-4.1083595010e-002
 1.0176652126e+000	 8.0892367688e-001	-1.2939853883e-001
 1.0092591438e+000	 8.1938756430e-001	-2.1319824025e-001
 1.1090190524e+000	 7.2505292324e-001	 6.8770414231e-001
 1.1015285272e+000	 7.3638298714e-001	 5.5906311399e-001
 1.0939145189e+000	 7.4764699251e-001	 4.3572193648e-001
 1.0861778780e+000	 7.5884294641e-001	 3.1765438699e-001
 1.0783194978e+000	 7.6996886998e-001	 2.0482217483e-001
 1.0703403134e+000	 7.8102279962e-001	 9.7175285746e-002
 1.0622413020e+000	 7.9200278804e-001	-5.3476428115e-003
 1.0540234823e+000	 8.0290690541e-001	-1.0281891662e-001
 1.0456879139e+000	 8.1373324043e-001	-1.9532135072e-001
 1.0372356975e+000	 8.2447990144e-001	-2.8294780776e-001
 1.0286679735e+000	 8.3514501747e-001	-3.6580070988e-001
 1.1299439401e+000	 7.3873316707e-001	 5.4444320188e-001
 1.1223120843e+000	 7.5027700577e-001	 4.1588854610e-001
 1.1145544154e+000	 7.6175353954e-001	 2.9294527443e-001
 1.1066718002e+000	 7.7316073785e-001	 1.7558686261e-001
 1.0986651487e+000	 7.8449658451e-001	 6.3774107545e-002
 1.0905354136e+000	 7.9575907886e-001	-4.2544509672e-002
 1.0822835907e+000	 8.0694623688e-001	-1.4343242829e-001
 1.0739107178e+000	 8.1805609231e-001	-2.3896458093e-001
 1.0654178746e+000	 8.2908669780e-001	-3.2922693628e-001
 1.0568061823e+000	 8.4003612600e-001	-4.1431601259e-001
 1.0480768032e+000	 8.5090247063e-001	-4.9433836335e-001
 1.1508688279e+000	 7.5241341090e-001	 4.0658747390e-001
 1.1430956414e+000	 7.6417102439e-001	 2.7956573156e-001
 1.1351943120e+000	 7.7586008657e-001	 1.5851759220e-001
 1.1271657225e+000	 7.8747852929e-001	 4.3414445038e-002
 1.1190107996e+000	 7.9902429904e-001	-6.5785674191e-002
 1.1107305139e+000	 8.1049535810e-001	-1.6913769937e-001
 1.1023258794e+000	 8.2188968571e-001	-2.6670911583e-001
 1.0937979533e+000	 8.3320527921e-001	-3.5857950904e-001
 1.0851478352e+000	 8.4444015517e-001	-4.4484008131e-001
 1.0763766672e+000	 8.5559235055e-001	-5.2559313768e-001
 1.0674856329e+000	 8.6665992379e-001	-6.0095154261e-001
 1.1717937157e+000	 7.6609365474e-001	 2.7256040061e-001
 1.1638791986e+000	 7.7806504302e-001	 1.4847354596e-001
 1.1558342086e+000	 7.8996663360e-001	 3.0773166854e-002
 1.1476596447e+000	 8.0179632073e-001	-8.0573220487e-002
 1.1393564505e+000	 8.1355201357e-001	-1.8561219225e-001
 1.1309256141e+000	 8.2523163734e-001	-2.8440400994e-001
 1.1223681682e+000	 8.3683313454e-001	-3.7702217715e-001
 1.1136851888e+000	 8.4835446610e-001	-4.6355296137e-001
 1.1048777959e+000	 8.5979361254e-001	-5.4409488198e-001
 1.0959471520e+000	 8.7114857511e-001	-6.1875816591e-001
 1.0868944626e+000	 8.8241737695e-001	-6.8766417233e-001
 1.1927186035e+000	 7.7977389857e-001	 1.4084444625e-001
 1.1846627557e+000	 7.9195906164e-001	 2.1054357213e-002
 1.1764741052e+000	 8.0407318063e-001	-9.1885701232e-002
 1.1681535669e+000	 8.1611411218e-001	-1.9801387587e-001
 1.1597021014e+000	 8.2807972810e-001	-2.9738320950e-001
 1.1511207144e+000	 8.3996791658e-001	-3.9006120834e-001
 1.1424104569e+000	 8.5177658338e-001	-4.7612937131e-001
 1.1335724243e+000	 8.6350365300e-001	-5.5568268235e-001
 1.1246077565e+000	 8.7514706991e-001	-6.2882906713e-001
 1.1155176369e+000	 8.8670479967e-001	-6.9568881562e-001
 1.1063032923e+000	 8.9817483012e-001	-7.5639397192e-001
 1.2136434913e+000	 7.9345414240e-001	 9.9760089175e-003
 1.2054463128e+000	 8.0585308027e-001	-1.0419144789e-001
 1.1971140018e+000	 8.1817972766e-001	-2.1099455246e-001
 1.1886474891e+000	 8.3043190362e-001	-3.1047890987e-001
 1.1800477523e+000	 8.4260744262e-001	-4.0270589005e-001
 1.1713158147e+000	 8.5470419582e-001	-4.8775216735e-001
 1.1624527456e+000	 8.6672003221e-001	-5.6570921986e-001
 1.1534596599e+000	 8.7865283990e-001	-6.3668278971e-001
 1.1443377172e+000	 8.9050052728e-001	-7.0079230579e-001
 1.1350881218e+000	 9.0226102423e-001	-7.5817027036e-001
 1.1257121220e+000	 9.1393228328e-001	-8.0896161119e-001
 1.2345683790e+000	 8.0713438624e-001	-1.2145915009e-001
 1.2262298699e+000	 8.1974709889e-001	-2.2871038054e-001
 1.2177538984e+000	 8.3228627468e-001	-3.2803203574e-001
 1.2091414114e+000	 8.4474969506e-001	-4.1947898129e-001
 1.2003934032e+000	 8.5713515715e-001	-5.0312278224e-001
 1.1915109149e+000	 8.6944047506e-001	-5.7905121257e-001
 1.1824950343e+000	 8.8166348104e-001	-6.4736772195e-001
 1.1733468954e+000	 8.9380202679e-001	-7.0819086154e-001
 1.1640676778e+000	 9.0585398465e-001	-7.6165366987e-001
 1.1546586066e+000	 9.1781724879e-001	-8.0790302078e-001
 1.1451209517e+000	 9.2968973644e-001	-8.4709893485e-001
 1.2554932668e+000	 8.2081463007e-001	-2.3326036164e-001
 1.2470134270e+000	 8.3364111751e-001	-3.5390027508e-001
 1.2383937949e+000	 8.4639282171e-001	-4.4442464945e-001
 1.2296353336e+000	 8.5906748650e-001	-5.2646907974e-001
 1.2207390541e+000	 8.7166287168e-001	-6.0011720325e-001
 1.2117060152e+000	 8.8417675429e-001	-6.6546983463e-001
 1.2025373230e+000	 8.9660692987e-001	-7.2264439783e-001
 1.1932341309e+000	 9.0895121369e-001	-7.7177431452e-001
 1.1837976384e+000	 9.2120744201e-001	-8.1300835058e-001
 1.1742290915e+000	 9.3337347334e-001	-8.4650992239e-001
 1.1645297814e+000	 9.4544718961e-001	-8.7245636465e-001
 9.7044148445e-001	 7.8787265798e-001	 1.7341445206e-001
 9.6225087038e-001	 7.9785541446e-001	 1.0102171455e-001
 9.5395355134e-001	 8.0775777422e-001	 2.8459092527e-002
 9.4555071450e-001	 8.1757803678e-001	-4.4310609791e-002
 9.3704358298e-001	 8.2731452514e-001	-1.1732741630e-001
 9.2843341526e-001	 8.3696558670e-001	-1.9063374565e-001
 9.1972150458e-001	 8.4652959423e-001	-2.6427396784e-001
 9.1090917828e-001	 8.5600494672e-001	-3.3829395214e-001
 9.0199779714e-001	 8.6539007034e-001	-4.1274060777e-001
 8.9298875468e-001	 8.7468341924e-001	-4.8766141868e-001
 8.8388347645e-001	 8.8388347645e-001	-5.6310397408e-001
 9.8985031414e-001	 8.0363011114e-001	-3.4262781778e-002
 9.8149588779e-001	 8.1381252275e-001	-1.0535300107e-001
 9.7303262236e-001	 8.2391292970e-001	-1.7585150623e-001
 9.6446172879e-001	 8.3392959752e-001	-2.4585212000e-001
 9.5578445464e-001	 8.4386081564e-001	-3.1545236958e-001
 9.4700208356e-001	 8.5370489844e-001	-3.8475297002e-001
 9.3811593467e-001	 8.6346018612e-001	-4.5385729609e-001
 9.2912736184e-001	 8.7312504566e-001	-5.2287084393e-001
 9.2003775308e-001	 8.8269787175e-001	-5.9190068424e-001
 9.1084852978e-001	 8.9217708762e-001	-6.6105490854e-001
 9.0156114598e-001	 9.0156114598e-001	-7.3044207023e-001
 1.0092591438e+000	 8.1938756430e-001	-2.1319824025e-001
 1.0007409052e+000	 8.2976963104e-001	-2.8449219416e-001
 9.9211169339e-001	 8.4006808519e-001	-3.5442637137e-001
 9.8337274308e-001	 8.5028115826e-001	-4.2315184670e-001
 9.7452532630e-001	 8.6040710615e-001	-4.9082429352e-001
 9.6557075187e-001	 8.7044421018e-001	-5.5760338230e-001
 9.5651036476e-001	 8.8039077800e-001	-6.2365216583e-001
 9.4734554541e-001	 8.9024514460e-001	-6.8913645286e-001
 9.3807770903e-001	 9.0000567316e-001	-7.5422417198e-001
 9.2870830487e-001	 9.0967075601e-001	-8.1908472748e-001
 9.1923881551e-001	 9.1923881551e-001	-8.8388834911e-001
 1.0286679735e+000	 8.3514501747e-001	-3.6580070988e-001
 1.0199859226e+000	 8.4572673933e-001	-4.3866720685e-001
 1.0111907644e+000	 8.5622324068e-001	-5.0939823250e-001
 1.0022837574e+000	 8.6663271899e-001	-5.7820283054e-001
 9.9326619796e-001	 8.7695339665e-001	-6.4529555625e-001
 9.8413942018e-001	 8.8718352191e-001	-7.1089578832e-001
 9.7490479486e-001	 8.9732136989e-001	-7.7522702558e-001
 9.6556372898e-001	 9.0736524353e-001	-8.3851617074e-001
 9.5611766497e-001	 9.1731347456e-001	-9.0099280296e-001
 9.4656807997e-001	 9.2716442440e-001	-9.6288844138e-001
 9.3691648504e-001	 9.3691648504e-001	-1.0244358015e+000
 1.0480768032e+000	 8.5090247063e-001	-4.9433836335e-001
 1.0392309400e+000	 8.6168384763e-001	-5.7001702318e-001
 1.0302698354e+000	 8.7237839617e-001	-6.4277576709e-001
 1.0211947717e+000	 8.8298427973e-001	-7.1288241226e-001
 1.0120070696e+000	 8.9349968716e-001	-7.8061122050e-001
 1.0027080885e+000	 9.0392283365e-001	-8.4624212135e-001
 9.9329922495e-001	 9.1425196178e-001	-9.1005991846e-001
 9.8378191255e-001	 9.2448534247e-001	-9.7235348133e-001
 9.7415762092e-001	 9.3462127597e-001	-1.0334149246e+000
 9.6442785507e-001	 9.4465809279e-001	-1.0935387770e+000
 9.5459415457e-001	 9.5459415457e-001	-1.1530211427e+000
 1.0674856329e+000	 8.6665992379e-001	-6.0095154261e-001
 1.0584759574e+000	 8.7764095592e-001	-6.8056030168e-001
 1.0493489065e+000	 8.8853355166e-001	-7.5645487794e-001
 1.0401057860e+000	 8.9933584047e-001	-8.2896275088e-001
 1.0307479413e+000	 9.1004597767e-001	-8.9841879865e-001
 1.0212767568e+000	 9.2066214539e-001	-9.6516443055e-001
 1.0116936550e+000	 9.3118255367e-001	-1.0295467009e+000
 1.0020000961e+000	 9.4160544141e-001	-1.0919174065e+000
 9.9219757686e-001	 9.5192907738e-001	-1.1526321710e+000
 9.8228763016e-001	 9.6215176117e-001	-1.2120495167e+000
 9.7227182411e-001	 9.7227182411e-001	-1.2705299282e+000
 1.0868944626e+000	 8.8241737695e-001	-6.8766417233e-001
 1.0777209748e+000	 8.9359806421e-001	-7.7220611866e-001
 1.0684279775e+000	 9.0468870714e-001	-8.5222876235e-001
 1.0590168002e+000	 9.1568740121e-001	-9.2812021488e-001
 1.0494888129e+000	 9.2659226817e-001	-1.0002769626e+000
 1.0398454251e+000	 9.3740145713e-001	-1.0691029063e+000
 1.0300880851e+000	 9.4811314556e-001	-1.1350083805e+000
 1.0202182797e+000	 9.5872554035e-001	-1.1984091547e+000
 1.0102375328e+000	 9.6923687880e-001	-1.2597254197e+000
 1.0001474053e+000	 9.7964542956e-001	-1.3193807609e+000
 9.8994949364e-001	 9.8994949364e-001	-1.3778011218e+000
 1.1063032923e+000	 8.9817483012e-001	-7.5639397192e-001
 1.0969659922e+000	 9.0955517251e-001	-8.4676358076e-001
 1.0875070485e+000	 9.2084386263e-001	-9.3179692136e-001
 1.0779278145e+000	 9.3203896195e-001	-1.0119437849e+000
 1.0682296846e+000	 9.4313855868e-001	-1.0876633368e+000
 1.0584140934e+000	 9.5414076887e-001	-1.1594230609e+000
 1.0484825152e+000	 9.6504373745e-001	-1.2276976822e+000
 1.0384364633e+000	 9.7584563929e-001	-1.2929680694e+000
 1.0282774888e+000	 9.8654468021e-001	-1.3557201209e+000
 1.0180071804e+000	 9.9713909795e-001	-1.4164436374e+000
 1.0076271632e+000	 1.0076271632e+000	-1.4756311825e+000
 1.1257121220e+000	 9.1393228328e-001	-8.0896161119e-001
 1.1162110097e+000	 9.2551228080e-001	-9.0595044297e-001
 1.1065861196e+000	 9.3699901812e-001	-9.9677323703e-001
 1.0968388288e+000	 9.4839052269e-001	-1.0819425873e+000
 1.0869705563e+000	 9.5968484919e-001	-1.1619814851e+000
 1.0769827617e+000	 9.7088008061e-001	-1.2374221662e+000
 1.0668769453e+000	 9.8197432934e-001	-1.3088049343e+000
 1.0566546468e+000	 9.9296573823e-001	-1.3766769622e+000
 1.0463174447e+000	 1.0038524816e+000	-1.4415910760e+000
 1.0358669555e+000	 1.0146327663e+000	-1.5041045230e+000
 1.0253048327e+000	 1.0253048327e+000	-1.5647777285e+000
 1.1451209517e+000	 9.2968973644e-001	-8.4709893485e-001
 1.1354560271e+000	 9.4146938909e-001	-9.5140085034e-001
 1.1256651906e+000	 9.5315417361e-001	-1.0486932283e+000
 1.1157498431e+000	 9.6474208344e-001	-1.1395526612e+000
 1.1057114279e+000	 9.7623113970e-001	-1.2245671869e+000
 1.0955514300e+000	 9.8761939235e-001	-1.3043350368e+000
 1.0852713754e+000	 9.9890492123e-001	-1.3794633564e+000
 1.0748728304e+000	 1.0100858372e+000	-1.4505669040e+000
 1.0643574006e+000	 1.0211602830e+000	-1.5182667296e+000
 1.0537267306e+000	 1.0321264347e+000	-1.5831888361e+000
 1.0429825022e+000	 1.0429825022e+000	-1.6459628293e+000
 1.1645297814e+000	 9.4544718961e-001	-8.7245636465e-001
 1.1547010445e+000	 9.5742649739e-001	-9.8467230543e-001
 1.1447442616e+000	 9.6930932910e-001	-1.0890205812e+000
 1.1346608574e+000	 9.8109364418e-001	-1.1861430492e+000
 1.1244522996e+000	 9.9277743021e-001	-1.2766940863e+000
 1.1141200983e+000	 1.0043587041e+000	-1.3613392347e+000
 1.1036658055e+000	 1.0158355131e+000	-1.4407538185e+000
 1.0930910140e+000	 1.0272059361e+000	-1.5156215364e+000
 1.0823973566e+000	 1.0384680844e+000	-1.5866330326e+000
 1.0715865057e+000	 1.0496201031e+000	-1.6544844496e+000
 1.0606601718e+000	 1.0606601718e+000	-1.7198759674e+000
 8.8388347645e-001	 8.8388347645e-001	-5.6310397408e-001
 8.7468341924e-001	 8.9298875468e-001	-6.3712358159e-001
 8.6539007034e-001	 9.0199779714e-001	-7.0843585504e-001
 8.5600494672e-001	 9.1090917828e-001	-7.7708562791e-001
 8.4652959423e-001	 9.1972150458e-001	-8.4311931782e-001
 8.3696558670e-001	 9.2843341526e-001	-9.0658445191e-001
 8.2731452514e-001	 9.3704358298e-001	-9.6752919235e-001
 8.1757803678e-001	 9.4555071450e-001	-1.0260018635e+000
 8.0775777422e-001	 9.5395355134e-001	-1.0820504819e+000
 7.9785541446e-001	 9.6225087038e-001	-1.1357222914e+000
 7.8787265798e-001	 9.7044148445e-001	-1.1870633036e+000
 9.0156114598e-001	 9.0156114598e-001	-7.3044207023e-001
 8.9217708762e-001	 9.1084852978e-001	-7.9807701465e-001
 8.8269787175e-001	 9.2003775308e-001	-8.6265415348e-001
 8.7312504566e-001	 9.2912736184e-001	-9.2429064499e-001
 8.6346018612e-001	 9.3811593467e-001	-9.8310543793e-001
 8.5370489844e-001	 9.4700208356e-001	-1.0392186941e+000
 8.4386081564e-001	 9.5578445464e-001	-1.0927512109e+000
 8.3392959752e-001	 9.6446172879e-001	-1.1438238461e+000
 8.2391292970e-001	 9.7303262236e-001	-1.1925569455e+000
 8.1381252275e-001	 9.8149588779e-001	-1.2390697767e+000
 8.0363011114e-001	 9.8985031414e-001	-1.2834799690e+000
 9.1923881551e-001	 9.1923881551e-001	-8.8388834911e-001
 9.0967075601e-001	 9.2870830487e-001	-9.4724121693e-001
 9.0000567316e-001	 9.3807770903e-001	-1.0071933726e+000
 8.9024514460e-001	 9.4734554541e-001	-1.0639347110e+000
 8.8039077800e-001	 9.5651036476e-001	-1.1176571187e+000
 8.7044421018e-001	 9.6557075187e-001	-1.1685537922e+000
 8.6040710615e-001	 9.7452532630e-001	-1.2168185561e+000
 8.5028115826e-001	 9.8337274308e-001	-1.2626451833e+000
 8.4006808519e-001	 9.9211169339e-001	-1.3062267193e+000
 8.2976963104e-001	 1.0007409052e+000	-1.3477548128e+000
 8.1938756430e-001	 1.0092591438e+000	-1.3874190536e+000
 9.3691648504e-001	 9.3691648504e-001	-1.0244358015e+000
 9.2716442440e-001	 9.4656807997e-001	-1.0854285715e+000
 9.1731347456e-001	 9.5611766497e-001	-1.1426846675e+000
 9.0736524353e-001	 9.6556372898e-001	-1.1964672482e+000
 8.9732136989e-001	 9.7490479486e-001	-1.2470416609e+000
 8.8718352191e-001	 9.8413942018e-001	-1.2946746529e+000
 8.7695339665e-001	 9.9326619796e-001	-1.3396335836e+000
 8.6663271899e-001	 1.0022837574e+000	-1.3821856391e+000
 8.5622324068e-001	 1.0111907644e+000	-1.4225970509e+000
 8.4572673933e-001	 1.0199859226e+000	-1.4611323213e+000
 8.3514501747e-001	 1.0286679735e+000	-1.4980534581e+000
 9.5459415457e-001	 9.5459415457e-001	-1.1530211427e+000
 9.4465809279e-001	 9.6442785507e-001	-1.2134064090e+000
 9.3462127597e-001	 9.7415762092e-001	-1.2697254037e+000
 9.2448534247e-001	 9.8378191255e-001	-1.3223151870e+000
 9.1425196178e-001	 9.9329922495e-001	-1.3715151997e+000
 9.0392283365e-001	 1.0027080885e+000	-1.4176663667e+000
 8.9349968716e-001	 1.0120070696e+000	-1.4611102009e+000
 8.8298427973e-001	 1.0211947717e+000	-1.5021879099e+000
 8.7237839617e-001	 1.0302698354e+000	-1.5412395070e+000
 8.6168384763e-001	 1.0392309400e+000	-1.5786029313e+000
 8.5090247063e-001	 1.0480768032e+000	-1.6146131756e+000
 9.7227182411e-001	 9.7227182411e-001	-1.2705299282e+000
 9.6215176117e-001	 9.8228763016e-001	-1.3319011037e+000
 9.5192907738e-001	 9.9219757686e-001	-1.3888822296e+000
 9.4160544141e-001	 1.0020000961e+000	-1.4418850106e+000
 9.3118255367e-001	 1.0116936550e+000	-1.4913237198e+000
 9.2066214539e-001	 1.0212767568e+000	-1.5376141920e+000
 9.1004597767e-001	 1.0307479413e+000	-1.5811728175e+000
 8.9933584047e-001	 1.0401057860e+000	-1.6224155390e+000
 8.8853355166e-001	 1.0493489065e+000	-1.6617568538e+000
 8.7764095592e-001	 1.0584759574e+000	-1.6996088248e+000
 8.6665992379e-001	 1.0674856329e+000	-1.7363801012e+000
 9.8994949364e-001	 9.8994949364e-001	-1.3778011218e+000
 9.7964542956e-001	 1.0001474053e+000	-1.4416017296e+000
 9.6923687880e-001	 1.0102375328e+000	-1.5006938185e+000
 9.5872554035e-001	 1.0202182797e+000	-1.5555645810e+000
 9.4811314556e-001	 1.0300880851e+000	-1.6067039620e+000
 9.3740145713e-001	 1.0398454251e+000	-1.6546035396e+000
 9.2659226817e-001	 1.0494888129e+000	-1.6997554067e+000
 9.1568740121e-001	 1.0590168002e+000	-1.7426510560e+000
 9.0468870714e-001	 1.0684279775e+000	-1.7837802709e+000
 8.9359806421e-001	 1.0777209748e+000	-1.8236300258e+000
 8.8241737695e-001	 1.0868944626e+000	-1.8626833979e+000
 1.0076271632e+000	 1.0076271632e+000	-1.4756311825e+000
 9.9713909795e-001	 1.0180071804e+000	-1.5431633332e+000
 9.8654468021e-001	 1.0282774888e+000	-1.6056733227e+000
 9.7584563929e-001	 1.0384364633e+000	-1.6637247718e+000
 9.6504373745e-001	 1.0484825152e+000	-1.7178842334e+000
 9.5414076887e-001	 1.0584140934e+000	-1.7687199594e+000
 9.4313855868e-001	 1.0682296846e+000	-1.8168006672e+000
 9.3203896195e-001	 1.0779278145e+000	-1.8626943110e+000
 9.2084386263e-001	 1.0875070485e+000	-1.9069668591e+000
 9.0955517251e-001	 1.0969659922e+000	-1.9501810816e+000
 8.9817483012e-001	 1.1063032923e+000	-1.9928953505e+000
 1.0253048327e+000	 1.0253048327e+000	-1.5647777285e+000
 1.0146327663e+000	 1.0358669555e+000	-1.6372098664e+000
 1.0038524816e+000	 1.0463174447e+000	-1.7043105739e+000
 9.9296573823e-001	 1.0566546468e+000	-1.7667209333e+000
 9.8197432934e-001	 1.0668769453e+000	-1.8250851353e+000
 9.7088008061e-001	 1.0769827617e+000	-1.8800491287e+000
 9.5968484919e-001	 1.0869705563e+000	-1.9322592707e+000
 9.4839052269e-001	 1.0968388288e+000	-1.9823609815e+000
 9.3699901812e-001	 1.1065861196e+000	-2.0309974059e+000
 9.2551228080e-001	 1.1162110097e+000	-2.0788080861e+000
 9.1393228328e-001	 1.1257121220e+000	-2.1264276479e+000
 1.0429825022e+000	 1.0429825022e+000	-1.6459628293e+000
 1.0321264347e+000	 1.0537267306e+000	-1.7243368215e+000
 1.0211602830e+000	 1.0643574006e+000	-1.7970740590e+000
 1.0100858372e+000	 1.0748728304e+000	-1.8648942079e+000
 9.9890492123e-001	 1.0852713754e+000	-1.9285202155e+000
 9.8761939235e-001	 1.0955514300e+000	-1.9886768409e+000
 9.7623113970e-001	 1.1057114279e+000	-2.0460891860e+000
 9.6474208344e-001	 1.1157498431e+000	-2.1014812309e+000
 9.5315417361e-001	 1.1256651906e+000	-2.1555743780e+000
 9.4146938909e-001	 1.1354560271e+000	-2.2090860067e+000
 9.2968973644e-001	 1.1451209517e+000	-2.2627280441e+000
 1.0606601718e+000	 1.0606601718e+000	-1.7198759674e+000
 1.0496201031e+000	 1.0715865057e+000	-1.8051136035e+000
 1.0384680844e+000	 1.0823973566e+000	-1.8844126994e+000
 1.0272059361e+000	 1.0930910140e+000	-1.9585727138e+000
 1.0158355131e+000	 1.1036658055e+000	-2.0283965564e+000
 1.0043587041e+000	 1.1141200983e+000	-2.0946889964e+000
 9.9277743021e-001	 1.1244522996e+000	-2.1582550713e+000
 9.8109364418e-001	 1.1346608574e+000	-2.2198985019e+000
 9.6930932910e-001	 1.1447442616e+000	-2.2804201148e+000
 9.5742649739e-001	 1.1547010445e+000	-2.3406162779e+000
 9.4544718961e-001	 1.1645297814e+000	-2.4012773525e+000
 7.8787265798e-001	 9.7044148445e-001	-1.1870633036e+000
 7.7781122776e-001	 9.7852424289e-001	-1.2613690579e+000
 7.6767286832e-001	 9.8649803203e-001	-1.3358606694e+000
 7.5745934472e-001	 9.9436177575e-001	-1.4106774472e+000
 7.4717244154e-001	 1.0021144359e+000	-1.4859533208e+000
 7.3681396190e-001	 1.0097550126e+000	-1.5618163361e+000
 7.2638572639e-001	 1.0172825451e+000	-1.6383881672e+000
 7.1588957207e-001	 1.0246961113e+000	-1.7157836490e+000
 7.0532735142e-001	 1.0319948291e+000	-1.7941103292e+000
 6.9470093126e-001	 1.0391778559e+000	-1.8734680415e+000
 6.8401219173e-001	 1.0462443890e+000	-1.9539485018e+000
 8.0363011114e-001	 9.8985031414e-001	-1.2834799690e+000
 7.9336745232e-001	 9.9809472774e-001	-1.3557092954e+000
 7.8302632569e-001	 1.0062279927e+000	-1.4277182824e+000
 7.7260853162e-001	 1.0142490113e+000	-1.4996554996e+000
 7.6211589037e-001	 1.0221567246e+000	-1.5716643304e+000
 7.5155024114e-001	 1.0299501129e+000	-1.6438824332e+000
 7.4091344092e-001	 1.0376281960e+000	-1.7164412199e+000
 7.3020736352e-001	 1.0451900336e+000	-1.7894653550e+000
 7.1943389845e-001	 1.0526347257e+000	-1.8630722744e+000
 7.0859494989e-001	 1.0599614130e+000	-1.9373717272e+000
 6.9769243556e-001	 1.0671692768e+000	-2.0124653399e+000
 8.1938756430e-001	 1.0092591438e+000	-1.3874190536e+000
 8.0892367688e-001	 1.0176652126e+000	-1.4559450771e+000
 7.9837978306e-001	 1.0259579533e+000	-1.5238870451e+000
 7.8775771852e-001	 1.0341362468e+000	-1.5914048374e+000
 7.7705933921e-001	 1.0421990133e+000	-1.6586532944e+000
 7.6628652038e-001	 1.0501452131e+000	-1.7257816406e+000
 7.5544115545e-001	 1.0579738469e+000	-1.7929329272e+000
 7.4452515496e-001	 1.0656839558e+000	-1.8602434951e+000
 7.3354044548e-001	 1.0732746223e+000	-1.9278424584e+000
 7.2248896852e-001	 1.0807449701e+000	-1.9958512115e+000
 7.1137267940e-001	 1.0880941646e+000	-2.0643829601e+000
 8.3514501747e-001	 1.0286679735e+000	-1.4980534581e+000
 8.2447990144e-001	 1.0372356975e+000	-1.5612840814e+000
 8.1373324043e-001	 1.0456879139e+000	-1.6236081797e+000
 8.0290690541e-001	 1.0540234823e+000	-1.6851990058e+000
 7.9200278804e-001	 1.0622413020e+000	-1.7462248734e+000
 7.8102279962e-001	 1.0703403134e+000	-1.8068485409e+000
 7.6996886998e-001	 1.0783194978e+000	-1.8672266148e+000
 7.5884294641e-001	 1.0861778780e+000	-1.9275089739e+000
 7.4764699251e-001	 1.0939145189e+000	-1.9878382155e+000
 7.3638298714e-001	 1.1015285272e+000	-2.0483491253e+000
 7.2505292324e-001	 1.1090190524e+000	-2.1091681722e+000
 8.5090247063e-001	 1.0480768032e+000	-1.6146131756e+000
 8.4003612600e-001	 1.0568061823e+000	-1.6709864263e+000
 8.2908669780e-001	 1.0654178746e+000	-1.7261708108e+000
 8.1805609231e-001	 1.0739107178e+000	-1.7803550331e+000
 8.0694623688e-001	 1.0822835907e+000	-1.8337229119e+000
 7.9575907886e-001	 1.0905354136e+000	-1.8864527230e+000
 7.8449658451e-001	 1.0986651487e+000	-1.9387165602e+000
 7.7316073785e-001	 1.1066718002e+000	-1.9906797185e+000
 7.6175353954e-001	 1.1145544154e+000	-2.0425000999e+000
 7.5027700577e-001	 1.1223120843e+000	-2.0943276440e+000
 7.3873316707e-001	 1.1299439401e+000	-2.1463037848e+000
 8.6665992379e-001	 1.0674856329e+000	-1.7363801012e+000
 8.5559235055e-001	 1.0763766672e+000	-1.7843599016e+000
 8.4444015517e-001	 1.0851478352e+000	-1.8309076108e+000
 8.3320527921e-001	 1.0937979533e+000	-1.8762294779e+000
 8.2188968571e-001	 1.1023258794e+000	-1.9205268762e+000
 8.1049535810e-001	 1.1107305139e+000	-1.9639955996e+000
 7.9902429904e-001	 1.1190107996e+000	-2.0068251790e+000
 7.8747852929e-001	 1.1271657225e+000	-2.0491982217e+000
 7.7586008657e-001	 1.1351943120e+000	-2.0912897743e+000
 7.6417102439e-001	 1.1430956414e+000	-2.1332667113e+000
 7.5241341090e-001	 1.1508688279e+000	-2.1752871516e+000
 8.8241737695e-001	 1.0868944626e+000	-1.8626833979e+000
 8.7114857511e-001	 1.0959471520e+000	-1.9007557128e+000
 8.5979361254e-001	 1.1048777959e+000	-1.9371909109e+000
 8.4835446610e-001	 1.1136851888e+000	-1.9722148994e+000
 8.3683313454e-001	 1.1223681682e+000	-2.0060486738e+000
 8.2523163734e-001	 1.1309256141e+000	-2.0389075659e+000
 8.1355201357e-001	 1.1393564505e+000	-2.0710005128e+000
 8.0179632073e-001	 1.1476596447e+000	-2.1025293494e+000
 7.8996663360e-001	 1.1558342086e+000	-2.1336881259e+000
 7.7806504302e-001	 1.1638791986e+000	-2.1646624524e+000
 7.6609365474e-001	 1.1717937157e+000	-2.1956288722e+000
 8.9817483012e-001	 1.1063032923e+000	-1.9928953505e+000
 8.8670479967e-001	 1.1155176369e+000	-2.0195646729e+000
 8.7514706991e-001	 1.1246077565e+000	-2.0444292233e+000
 8.6350365300e-001	 1.1335724243e+000	-2.0677366996e+000
 8.5177658338e-001	 1.1424104569e+000	-2.0897298078e+000
 8.3996791658e-001	 1.1511207144e+000	-2.1106454574e+000
 8.2807972810e-001	 1.1597021014e+000	-2.1307139811e+000
 8.1611411218e-001	 1.1681535669e+000	-2.1501583772e+000
 8.0407318063e-001	 1.1764741052e+000	-2.1691935795e+000
 7.9195906164e-001	 1.1846627557e+000	-2.1880257548e+000
 7.7977389857e-001	 1.1927186035e+000	-2.2068516305e+000
 9.1393228328e-001	 1.1257121220e+000	-2.1264276479e+000
 9.0226102423e-001	 1.1350881218e+000	-2.1402137875e+000
 8.9050052728e-001	 1.1443377172e+000	-2.1520641211e+000
 8.7865283990e-001	 1.1534596599e+000	-2.1622502920e+000
 8.6672003221e-001	 1.1624527456e+000	-2.1710388253e+000
 8.5470419582e-001	 1.1713158147e+000	-2.1786902703e+000
 8.4260744262e-001	 1.1800477523e+000	-2.1854583658e+000
 8.3043190362e-001	 1.1886474891e+000	-2.1915892315e+000
 8.1817972766e-001	 1.1971140018e+000	-2.1973205859e+000
 8.0585308027e-001	 1.2054463128e+000	-2.2028809953e+000
 7.9345414240e-001	 1.2136434913e+000	-2.2084891529e+000
 9.2968973644e-001	 1.1451209517e+000	-2.2627280441e+000
 9.1781724879e-001	 1.1546586066e+000	-2.2621631878e+000
 9.0585398465e-001	 1.1640676778e+000	-2.2595674376e+000
 8.9380202679e-001	 1.1733468954e+000	-2.2552385581e+000
 8.8166348104e-001	 1.1824950343e+000	-2.2494690259e+000
 8.6944047506e-001	 1.1915109149e+000	-2.2425451139e+000
 8.5713515715e-001	 1.2003934032e+000	-2.2347460013e+000
 8.4474969506e-001	 1.2091414114e+000	-2.2263429086e+000
 8.3228627468e-001	 1.2177538984e+000	-2.2175982637e+000
 8.1974709889e-001	 1.2262298699e+000	-2.2087648973e+000
 8.0713438624e-001	 1.2345683790e+000	-2.2000852724e+000
 9.4544718961e-001	 1.1645297814e+000	-2.4012773525e+000
 9.3337347334e-001	 1.1742290915e+000	-2.3849033703e+000
 9.2120744201e-001	 1.1837976384e+000	-2.3664387436e+000
 9.0895121369e-001	 1.1932341309e+000	-2.3462095586e+000
 8.9660692987e-001	 1.2025373230e+000	-2.3245363986e+000
 8.8417675429e-001	 1.2117060152e+000	-2.3017333685e+000
 8.7166287168e-001	 1.2207390541e+000	-2.2781071445e+000
 8.5906748650e-001	 1.2296353336e+000	-2.2539560526e+000
 8.4639282171e-001	 1.2383937949e+000	-2.2295691770e+000
 8.3364111751e-001	 1.2470134270e+000	-2.2052255016e+000
 8.2081463007e-001	 1.2554932668e+000	-2.2165237186e+000
 6.8401219173e-001	 1.0462443890e+000	-1.9539485018e+000
 6.7326302520e-001	 1.0531936664e+000	-1.9549337946e+000
 6.6245533522e-001	 1.0600249662e+000	-1.9444736655e+000
 6.5159103546e-001	 1.0667376072e+000	-1.9227879834e+000
 6.4067204862e-001	 1.0733309490e+000	-1.8900982158e+000
 6.2970030539e-001	 1.0798043922e+000	-1.8466268967e+000
 6.1867774335e-001	 1.0861573781e+000	-1.8896190355e+000
 6.0760630594e-001	 1.0923893889e+000	-1.9883199342e+000
 5.9648794139e-001	 1.0984999480e+000	-2.0684986185e+000
 5.8532460163e-001	 1.1044886196e+000	-2.1298585575e+000
 5.7411824131e-001	 1.1103550086e+000	-2.1721255720e+000
 6.9769243556e-001	 1.0671692768e+000	-2.0124653399e+000
 6.8672828570e-001	 1.0742575397e+000	-2.0147050067e+000
 6.7570444192e-001	 1.0812254655e+000	-2.0074699708e+000
 6.6462285617e-001	 1.0880723593e+000	-1.9909940304e+000
 6.5348548960e-001	 1.0947975680e+000	-1.9655104050e+000
 6.4229431150e-001	 1.1014004800e+000	-1.9312511887e+000
 6.3105129822e-001	 1.1078805256e+000	-1.8884468217e+000
 6.1975843206e-001	 1.1142371767e+000	-1.9153518637e+000
 6.0841770021e-001	 1.1204699470e+000	-2.0176261559e+000
 5.9703109366e-001	 1.1265783920e+000	-2.1022657339e+000
 5.8560060613e-001	 1.1325621087e+000	-2.1689585849e+000
 7.1137267940e-001	 1.0880941646e+000	-2.0643829601e+000
 7.0019354621e-001	 1.0953214130e+000	-2.0675498389e+000
 6.8895354863e-001	 1.1024259648e+000	-2.0631846573e+000
 6.7765467688e-001	 1.1094071114e+000	-2.0515365854e+000
 6.6629893057e-001	 1.1162641870e+000	-2.0328520244e+000
 6.5488831761e-001	 1.1229965679e+000	-2.0073740429e+000
 6.4342485309e-001	 1.1296036732e+000	-1.9753418365e+000
 6.3191055818e-001	 1.1360849645e+000	-1.9369902102e+000
 6.2034745904e-001	 1.1424399459e+000	-1.9592375848e+000
 6.0873758569e-001	 1.1486681643e+000	-2.0673321795e+000
 5.9708297096e-001	 1.1547692089e+000	-2.1585614079e+000
 7.2505292324e-001	 1.1090190524e+000	-2.1091681722e+000
 7.1365880671e-001	 1.1163852864e+000	-2.1129135276e+000
 7.0220265533e-001	 1.1236264641e+000	-2.1110453199e+000
 6.9068649759e-001	 1.1307418636e+000	-2.1038295526e+000
 6.7911237154e-001	 1.1377308060e+000	-2.0915272529e+000
 6.6748232371e-001	 1.1445926557e+000	-2.0743938906e+000
 6.5579840795e-001	 1.1513268207e+000	-2.0526788220e+000
 6.4406268430e-001	 1.1579327522e+000	-2.0266247627e+000
 6.3227721786e-001	 1.1644099449e+000	-1.9964672873e+000
 6.2044407772e-001	 1.1707579367e+000	-2.0247828179e+000
 6.0856533578e-001	 1.1769763091e+000	-2.1407046776e+000
 7.3873316707e-001	 1.1299439401e+000	-2.1463037848e+000
 7.2712406721e-001	 1.1374491597e+000	-2.1502572006e+000
 7.1545176204e-001	 1.1448269634e+000	-2.1504950984e+000
 7.0371831829e-001	 1.1520766157e+000	-2.1473017946e+000
 6.9192581251e-001	 1.1591974249e+000	-2.1409544037e+000
 6.8007632982e-001	 1.1661887436e+000	-2.1317222358e+000
 6.6817196282e-001	 1.1730499683e+000	-2.1198662249e+000
 6.5621481041e-001	 1.1797805400e+000	-2.1056383878e+000
 6.4420697669e-001	 1.1863799439e+000	-2.0892813165e+000
 6.3215056975e-001	 1.1928477091e+000	-2.0710277022e+000
 6.2004770061e-001	 1.1991834092e+000	-2.1151633074e+000
 7.5241341090e-001	 1.1508688279e+000	-2.1752871516e+000
 7.4058932772e-001	 1.1585130330e+000	-2.1790564330e+000
 7.2870086874e-001	 1.1660274628e+000	-2.1809912632e+000
 7.1675013900e-001	 1.1734113679e+000	-2.1813957719e+000
 7.0473925348e-001	 1.1806640439e+000	-2.1805646386e+000
 6.9267033592e-001	 1.1877848314e+000	-2.1787824679e+000
 6.8054551768e-001	 1.1947731158e+000	-2.1763231988e+000
 6.6836693653e-001	 1.2016283278e+000	-2.1734495501e+000
 6.5613673552e-001	 1.2083499428e+000	-2.1704125009e+000
 6.4385706178e-001	 1.2149374815e+000	-2.1674508091e+000
 6.3153006543e-001	 1.2213905094e+000	-2.1647905674e+000
 7.6609365474e-001	 1.1717937157e+000	-2.1956288722e+000
 7.5405458822e-001	 1.1795769063e+000	-2.1987999567e+000
 7.4194997544e-001	 1.1872279621e+000	-2.2020039545e+000
 7.2978195971e-001	 1.1947461200e+000	-2.2055663292e+000
 7.1755269445e-001	 1.2021306629e+000	-2.2098008213e+000
 7.0526434203e-001	 1.2093809192e+000	-2.2150087993e+000
 6.9291907255e-001	 1.2164962634e+000	-2.2214786483e+000
 6.8051906265e-001	 1.2234761156e+000	-2.2294851989e+000
 6.6806649434e-001	 1.2303199418e+000	-2.2392891952e+000
 6.5556355381e-001	 1.2370272539e+000	-2.2511368052e+000
 6.4301243026e-001	 1.2435976096e+000	-2.2652591725e+000
 7.7977389857e-001	 1.1927186035e+000	-2.2068516305e+000
 7.6751984872e-001	 1.2006407797e+000	-2.2089885067e+000
 7.5519908214e-001	 1.2084284614e+000	-2.2130150529e+000
 7.4281378042e-001	 1.2160808721e+000	-2.2192796086e+000
 7.3036613542e-001	 1.2235972819e+000	-2.2281164906e+000
 7.1785834814e-001	 1.2309770071e+000	-2.2398453169e+000
 7.0529262741e-001	 1.2382194110e+000	-2.2547703735e+000
 6.9267118877e-001	 1.2453239033e+000	-2.2731800239e+000
 6.7999625317e-001	 1.2522899407e+000	-2.2891676042e+000
 6.6727004585e-001	 1.2591170263e+000	-2.2877534910e+000
 6.5449479508e-001	 1.2658047097e+000	-2.2771024101e+000
 7.9345414240e-001	 1.2136434913e+000	-2.2084891529e+000
 7.8098510922e-001	 1.2217046530e+000	-2.2091337863e+000
 7.6844818885e-001	 1.2296289607e+000	-2.2135171675e+000
 7.5584560112e-001	 1.2374156243e+000	-2.2220120763e+000
 7.4317957639e-001	 1.2450639008e+000	-2.2349749403e+000
 7.3045235424e-001	 1.2525730949e+000	-2.2549175255e+000
 7.1766618228e-001	 1.2599425585e+000	-2.2747848443e+000
 7.0482331488e-001	 1.2671716911e+000	-2.2860504999e+000
 6.9192601199e-001	 1.2742599397e+000	-2.2888239208e+000
 6.7897653788e-001	 1.2812067987e+000	-2.2832207467e+000
 6.6597715991e-001	 1.2880118099e+000	-2.2693627839e+000
 8.0713438624e-001	 1.2345683790e+000	-2.2000852724e+000
 7.9445036972e-001	 1.2427685263e+000	-2.1987575374e+000
 7.8169729555e-001	 1.2508294600e+000	-2.2064558548e+000
 7.6887742183e-001	 1.2587503764e+000	-2.2421368934e+000
 7.5599301736e-001	 1.2665305198e+000	-2.2699170942e+000
 7.4304636035e-001	 1.2741691828e+000	-2.2898827711e+000
 7.3003973714e-001	 1.2816657061e+000	-2.3021254896e+000
 7.1697544100e-001	 1.2890194789e+000	-2.3067420606e+000
 7.0385577082e-001	 1.2962299386e+000	-2.3038345298e+000
 6.9068302991e-001	 1.3032965711e+000	-2.2935101639e+000
 6.7745952473e-001	 1.3102189101e+000	-2.2758814328e+000
 8.2081463007e-001	 1.2554932668e+000	-2.2165237186e+000
 8.0791563023e-001	 1.2638323996e+000	-2.2554024780e+000
 7.9494640225e-001	 1.2720299594e+000	-2.2871902274e+000
 7.8190924254e-001	 1.2800851286e+000	-2.3119607044e+000
 7.6880645833e-001	 1.2879971388e+000	-2.3297918108e+000
 7.5564036645e-001	 1.2957652706e+000	-2.3407656310e+000
 7.4241329201e-001	 1.3033888536e+000	-2.3449684507e+000
 7.2912756712e-001	 1.3108672667e+000	-2.3424907719e+000
 7.1578552965e-001	 1.3181999376e+000	-2.3334273277e+000
 7.0238952194e-001	 1.3253863434e+000	-2.3178770931e+000
 6.8894188956e-001	 1.3324260102e+000	-2.2959432941e+000
 5.7411824131e-001	 1.1103550086e+000	-2.1721255720e+000
 5.6287081669e-001	 1.1160987607e+000	-2.2149616284e+000
 5.5158428467e-001	 1.1217195625e+000	-2.2519669243e+000
 5.4026060171e-001	 1.1272171407e+000	-2.2826420170e+000
 5.2890172284e-001	 1.1325912624e+000	-2.3065000749e+000
 5.1750960065e-001	 1.1378417347e+000	-2.3230674030e+000
 5.0608618433e-001	 1.1429684047e+000	-2.3318839389e+000
 4.9463341865e-001	 1.1479711587e+000	-2.3325037191e+000
 4.8315324300e-001	 1.1528499225e+000	-2.3244953136e+000
 4.7164759049e-001	 1.1576046607e+000	-2.3074422303e+000
 4.6011838696e-001	 1.1622353763e+000	-2.2809432875e+000
 5.8560060613e-001	 1.1325621087e+000	-2.1689585849e+000
 5.7412823303e-001	 1.1384207360e+000	-2.2236878880e+000
 5.6261597037e-001	 1.1441539538e+000	-2.2705099234e+000
 5.5106581375e-001	 1.1497614835e+000	-2.3089514149e+000
 5.3947975730e-001	 1.1552430876e+000	-2.3385535107e+000
 5.2785979267e-001	 1.1605985694e+000	-2.3588722683e+000
 5.1620790802e-001	 1.1658277727e+000	-2.3694791088e+000
 5.0452608702e-001	 1.1709305819e+000	-2.3699612376e+000
 4.9281630786e-001	 1.1759069209e+000	-2.3599220337e+000
 4.8108054230e-001	 1.1807567539e+000	-2.3389814054e+000
 4.6932075469e-001	 1.1854800839e+000	-2.3067761126e+000
 5.9708297096e-001	 1.1547692089e+000	-2.1585614079e+000
 5.8538564936e-001	 1.1607427112e+000	-2.2283338596e+000
 5.7364765606e-001	 1.1665883450e+000	-2.2881742874e+000
 5.6187102578e-001	 1.1723058263e+000	-2.3376332183e+000
 5.5005779175e-001	 1.1778949129e+000	-2.3762774166e+000
 5.3820998468e-001	 1.1833554041e+000	-2.4036903312e+000
 5.2632963171e-001	 1.1886871408e+000	-2.4194725093e+000
 5.1441875539e-001	 1.1938900050e+000	-2.4232419762e+000
 5.0247937272e-001	 1.1989639194e+000	-2.4146345796e+000
 4.9051349411e-001	 1.2039088471e+000	-2.3933042993e+000
 4.7852312243e-001	 1.2087247914e+000	-2.3589235225e+000
 6.0856533578e-001	 1.1769763091e+000	-2.1407046776e+000
 5.9664306569e-001	 1.1830646864e+000	-2.2285428977e+000
 5.8467934175e-001	 1.1890227363e+000	-2.3044721354e+000
 5.7267623781e-001	 1.1948501691e+000	-2.3680644252e+000
 5.6063582621e-001	 1.2005467381e+000	-2.4189098534e+000
 5.4856017669e-001	 1.2061122388e+000	-2.4566169702e+000
 5.3645135539e-001	 1.2115465089e+000	-2.4808131666e+000
 5.2431142377e-001	 1.2168494282e+000	-2.4911450132e+000
 5.1214243758e-001	 1.2220209178e+000	-2.4872785637e+000
 4.9994644592e-001	 1.2270609403e+000	-2.4688996202e+000
 4.8772549017e-001	 1.2319694989e+000	-2.4357139631e+000
 6.2004770061e-001	 1.1991834092e+000	-2.1151633074e+000
 6.0790048203e-001	 1.2053866616e+000	-2.2239732055e+000
 5.9571102745e-001	 1.2114571275e+000	-2.3189412757e+000
 5.8348144985e-001	 1.2173945119e+000	-2.3996588251e+000
 5.7121386067e-001	 1.2231985634e+000	-2.4657370309e+000
 5.5891036871e-001	 1.2288690735e+000	-2.5168073206e+000
 5.4657307908e-001	 1.2344058770e+000	-2.5525217123e+000
 5.3420409214e-001	 1.2398088514e+000	-2.5725531171e+000
 5.2180550244e-001	 1.2450779163e+000	-2.5765956023e+000
 5.0937939773e-001	 1.2502130335e+000	-2.5612781890e+000
 4.9692785791e-001	 1.2552142064e+000	-2.4566106525e+000
 6.3153006543e-001	 1.2213905094e+000	-2.1647905674e+000
 6.1915789836e-001	 1.2277086368e+000	-2.2142964856e+000
 6.0674271314e-001	 1.2338915188e+000	-2.3311428707e+000
 5.9428666188e-001	 1.2399388547e+000	-2.4318636542e+000
 5.8179189512e-001	 1.2458503886e+000	-2.5160889313e+000
 5.6926056072e-001	 1.2516259082e+000	-2.5656553400e+000
 5.5669480277e-001	 1.2572652451e+000	-2.5478278025e+000
 5.4409676051e-001	 1.2627682746e+000	-2.5050868653e+000
 5.3146856730e-001	 1.2681349147e+000	-2.4381797074e+000
 5.1881234953e-001	 1.2733651267e+000	-2.3478468050e+000
 5.0613022564e-001	 1.2784589140e+000	-2.2348208366e+000
 6.4301243026e-001	 1.2435976096e+000	-2.2652591725e+000
 6.3041531469e-001	 1.2500306120e+000	-2.2629879603e+000
 6.1777439883e-001	 1.2563259100e+000	-2.2931439469e+000
 6.0509187392e-001	 1.2624831976e+000	-2.3575782090e+000
 5.9236992958e-001	 1.2685022138e+000	-2.3931556470e+000
 5.7961075273e-001	 1.2743827429e+000	-2.4007276497e+000
 5.6681652645e-001	 1.2801246132e+000	-2.3811422316e+000
 5.5398942888e-001	 1.2857276977e+000	-2.3352426744e+000
 5.4113163216e-001	 1.2911919132e+000	-2.2638662186e+000
 5.2824530134e-001	 1.2965172200e+000	-2.1678428048e+000
 5.1533259338e-001	 1.3017036215e+000	-2.0479938682e+000
 6.5449479508e-001	 1.2658047097e+000	-2.2771024101e+000
 6.4167273103e-001	 1.2723525872e+000	-2.2412605372e+000
 6.2880608453e-001	 1.2787603012e+000	-2.1904361287e+000
 6.1589708595e-001	 1.2850275404e+000	-2.2175409175e+000
 6.0294796403e-001	 1.2911540391e+000	-2.2553981885e+000
 5.8996094475e-001	 1.2971395776e+000	-2.2637336357e+000
 5.7693825014e-001	 1.3029839813e+000	-2.2434871250e+000
 5.6388209726e-001	 1.3086871209e+000	-2.1955933394e+000
 5.5079469702e-001	 1.3142489116e+000	-2.1209803518e+000
 5.3767825315e-001	 1.3196693132e+000	-2.0205682521e+000
 5.2453496112e-001	 1.3249483290e+000	-1.8952678313e+000
 6.6597715991e-001	 1.2880118099e+000	-2.2693627839e+000
 6.5293014736e-001	 1.2946745624e+000	-2.2361039259e+000
 6.3983777022e-001	 1.3011946925e+000	-2.1863750068e+000
 6.2670229798e-001	 1.3075718832e+000	-2.1204923429e+000
 6.1352599849e-001	 1.3138058643e+000	-2.1446810490e+000
 6.0031113676e-001	 1.3198964122e+000	-2.1546605503e+000
 5.8705997383e-001	 1.3258433494e+000	-2.1346989426e+000
 5.7377476563e-001	 1.3316465441e+000	-2.0858232726e+000
 5.6045776188e-001	 1.3373059101e+000	-2.0090533227e+000
 5.4711120496e-001	 1.3428214064e+000	-1.9054001228e+000
 5.3373732886e-001	 1.3481930365e+000	-1.7758645226e+000
 6.7745952473e-001	 1.3102189101e+000	-2.2758814328e+000
 6.6418756369e-001	 1.3169965376e+000	-2.2467206293e+000
 6.5086945591e-001	 1.3236290837e+000	-2.1996505403e+000
 6.3750751002e-001	 1.3301162260e+000	-2.1350269755e+000
 6.2410403295e-001	 1.3364576896e+000	-2.0611713272e+000
 6.1066132877e-001	 1.3426532469e+000	-2.0735333936e+000
 5.9718169751e-001	 1.3487027175e+000	-2.0546593769e+000
 5.8366743400e-001	 1.3546059672e+000	-2.0056697529e+000
 5.7012082674e-001	 1.3603629085e+000	-1.9276769924e+000
 5.5654415677e-001	 1.3659734996e+000	-1.8217839565e+000
 5.4293969659e-001	 1.3714377441e+000	-1.6890823565e+000
 6.8894188956e-001	 1.3324260102e+000	-2.2959432941e+000
 6.7544498003e-001	 1.3393185129e+000	-2.2723217485e+000
 6.6190114160e-001	 1.3460634750e+000	-2.2293980801e+000
 6.4831272205e-001	 1.3526605688e+000	-2.1675663870e+000
 6.3468206740e-001	 1.3591095148e+000	-2.0872335064e+000
 6.2101152078e-001	 1.3654100816e+000	-2.0204117678e+000
 6.0730342120e-001	 1.3715620856e+000	-2.0032915839e+000
 5.9356010237e-001	 1.3775653904e+000	-1.9549185204e+000
 5.7978389160e-001	 1.3834199070e+000	-1.8764988131e+000
 5.6597710858e-001	 1.3891255928e+000	-1.7692281427e+000
 5.5214206433e-001	 1.3946824516e+000	-1.6342899808e+000
 4.6011838696e-001	 1.1622353763e+000	-2.2809432875e+000
 4.4856755008e-001	 1.1667421108e+000	-2.3659992209e+000
 4.3699698847e-001	 1.1711249430e+000	-2.4423630678e+000
 4.2540860082e-001	 1.1753839893e+000	-2.5099626911e+000
 4.1380427497e-001	 1.1795194030e+000	-2.5687366616e+000
 4.0218588716e-001	 1.1835313736e+000	-2.6186342702e+000
 3.9055530112e-001	 1.1874201265e+000	-2.6596155200e+000
 3.7891436731e-001	 1.1911859226e+000	-2.6916510983e+000
 3.6726492216e-001	 1.1948290576e+000	-2.7147223292e+000
 3.5560878723e-001	 1.1983498614e+000	-2.7288211072e+000
 3.4394776857e-001	 1.2017486977e+000	-2.7339498124e+000
 4.6932075469e-001	 1.1854800839e+000	-2.3067761126e+000
 4.5753890108e-001	 1.1900769530e+000	-2.4042318651e+000
 4.4573692824e-001	 1.1945474418e+000	-2.4927456938e+000
 4.3391677283e-001	 1.1988916691e+000	-2.5722141038e+000
 4.2208036047e-001	 1.2031097911e+000	-2.6425451790e+000
 4.1022960490e-001	 1.2072020010e+000	-2.7036586184e+000
 3.9836640714e-001	 1.2111685290e+000	-2.7554857488e+000
 3.8649265466e-001	 1.2150096411e+000	-2.7979695172e+000
 3.7461022059e-001	 1.2187256388e+000	-2.8310644608e+000
 3.6272096297e-001	 1.2223168587e+000	-2.8547366563e+000
 3.5082672394e-001	 1.2257836717e+000	-2.8689636488e+000
 4.7852312243e-001	 1.2087247914e+000	-2.3589235225e+000
 4.6651025208e-001	 1.2134117952e+000	-2.4680330291e+000
 4.5447686801e-001	 1.2179699407e+000	-2.5679286506e+000
 4.4242494484e-001	 1.2223993489e+000	-2.6584755396e+000
 4.3035644597e-001	 1.2267001791e+000	-2.7395513277e+000
 4.1827332264e-001	 1.2308726285e+000	-2.8110461844e+000
 4.0617751316e-001	 1.2349169315e+000	-2.8728628519e+000
 3.9407094200e-001	 1.2388333595e+000	-2.9249166559e+000
 3.8195551903e-001	 1.2426222199e+000	-2.9671354939e+000
 3.6983313871e-001	 1.2462838559e+000	-2.9994597992e+000
 3.5770567931e-001	 1.2498186456e+000	-3.0218424842e+000
 4.8772549017e-001	 1.2319694989e+000	-2.4357139631e+000
 4.7548160308e-001	 1.2367466374e+000	-2.5558114478e+000
 4.6321680778e-001	 1.2413924396e+000	-2.6664006298e+000
 4.5093311686e-001	 1.2459070287e+000	-2.7673152720e+000
 4.3863253146e-001	 1.2502905672e+000	-2.8532963571e+000
 4.2631704038e-001	 1.2545432560e+000	-2.8577249253e+000
 4.1398861918e-001	 1.2586653341e+000	-2.8511466763e+000
 4.0164922934e-001	 1.2626570780e+000	-2.8340895969e+000
 3.8930081747e-001	 1.2665188011e+000	-2.8070626913e+000
 3.7694531445e-001	 1.2702508531e+000	-2.7705555801e+000
 3.6458463467e-001	 1.2738536196e+000	-2.7250381525e+000
 4.9692785791e-001	 1.2552142064e+000	-2.4566106525e+000
 4.8445295408e-001	 1.2600814796e+000	-2.5071295986e+000
 4.7195674754e-001	 1.2648149384e+000	-2.5445939289e+000
 4.5944128887e-001	 1.2694147085e+000	-2.5696209346e+000
 4.4690861696e-001	 1.2738809552e+000	-2.5828097047e+000
 4.3436075812e-001	 1.2782138834e+000	-2.5847404905e+000
 4.2179972519e-001	 1.2824137366e+000	-2.5759741285e+000
 4.0922751669e-001	 1.2864807964e+000	-2.5570515213e+000
 3.9664611591e-001	 1.2904153822e+000	-2.5284931767e+000
 3.8405749020e-001	 1.2942178504e+000	-2.4907988040e+000
 3.7146359004e-001	 1.2978885935e+000	-2.4444469666e+000
 5.0613022564e-001	 1.2784589140e+000	-2.2348208366e+000
 4.9342430508e-001	 1.2834163219e+000	-2.2799131668e+000
 4.8069668731e-001	 1.2882374373e+000	-2.3122248554e+000
 4.6794946089e-001	 1.2929223883e+000	-2.3323937018e+000
 4.5518470246e-001	 1.2974713433e+000	-2.3410378520e+000
 4.4240447586e-001	 1.3018845109e+000	-2.3387551470e+000
 4.2961083121e-001	 1.3061621391e+000	-2.3261225322e+000
 4.1680580403e-001	 1.3103045149e+000	-2.3036955292e+000
 4.0399141435e-001	 1.3143119634e+000	-2.2720077676e+000
 3.9116966594e-001	 1.3181848476e+000	-2.2315705787e+000
 3.7834254541e-001	 1.3219235675e+000	-2.1828726487e+000
 5.1533259338e-001	 1.3017036215e+000	-2.0479938682e+000
 5.0239565608e-001	 1.3067511641e+000	-2.0858319219e+000
 4.8943662708e-001	 1.3116599362e+000	-2.1111944999e+000
 4.7645763290e-001	 1.3164300681e+000	-2.1247419470e+000
 4.6346078795e-001	 1.3210617314e+000	-2.1271134229e+000
 4.5044819360e-001	 1.3255551384e+000	-2.1189262319e+000
 4.3742193723e-001	 1.3299105417e+000	-2.1007752189e+000
 4.2438409137e-001	 1.3341282333e+000	-2.0732322290e+000
 4.1133671280e-001	 1.3382085446e+000	-2.0368456334e+000
 3.9828184168e-001	 1.3421518448e+000	-1.9921399183e+000
 3.8522150078e-001	 1.3459585415e+000	-1.9396153378e+000
 5.2453496112e-001	 1.3249483290e+000	-1.8952678313e+000
 5.1136700707e-001	 1.3300860063e+000	-1.9240397401e+000
 4.9817656684e-001	 1.3350824350e+000	-1.9406737773e+000
 4.8496580491e-001	 1.3399377478e+000	-1.9458548815e+000
 4.7173687345e-001	 1.3446521194e+000	-1.9402451913e+000
 4.5849191134e-001	 1.3492257659e+000	-1.9244833558e+000
 4.4523304325e-001	 1.3536589442e+000	-1.8991839148e+000
 4.3196237872e-001	 1.3579519518e+000	-1.8649367466e+000
 4.1868201124e-001	 1.3621051257e+000	-1.8223065857e+000
 4.0539401742e-001	 1.3661188421e+000	-1.7718326068e+000
 3.9210045615e-001	 1.3699935154e+000	-1.7140280771e+000
 5.3373732886e-001	 1.3481930365e+000	-1.7758645226e+000
 5.2033835807e-001	 1.3534208485e+000	-1.7937706879e+000
 5.0691650661e-001	 1.3585049339e+000	-1.7999102635e+000
 4.9347397693e-001	 1.3634454276e+000	-1.7949948420e+000
 4.8001295895e-001	 1.3682425075e+000	-1.7797115168e+000
 4.6653562908e-001	 1.3728963933e+000	-1.7547221721e+000
 4.5304414927e-001	 1.3774073467e+000	-1.7206628454e+000
 4.3954066606e-001	 1.3817756702e+000	-1.6781431636e+000
 4.2602730968e-001	 1.3860017069e+000	-1.6277458499e+000
 4.1250619317e-001	 1.3900858393e+000	-1.5700263043e+000
 3.9897941152e-001	 1.3940284894e+000	-1.5055122527e+000
 5.4293969659e-001	 1.3714377441e+000	-1.6890823565e+000
 5.2930970907e-001	 1.3767556907e+000	-1.6943322262e+000
 5.1565644638e-001	 1.3819274327e+000	-1.6882216984e+000
 5.0198214894e-001	 1.3869531074e+000	-1.6714910934e+000
 4.8828904444e-001	 1.3918328955e+000	-1.6448544475e+000
 4.7457934682e-001	 1.3965670208e+000	-1.6089987801e+000
 4.6085525529e-001	 1.4011557493e+000	-1.5645834390e+000
 4.4711895341e-001	 1.4055993887e+000	-1.5122395209e+000
 4.3337260812e-001	 1.4098982880e+000	-1.4525693701e+000
 4.1961836891e-001	 1.4140528365e+000	-1.3861461510e+000
 4.0585836689e-001	 1.4180634633e+000	-1.3135134970e+000
 5.5214206433e-001	 1.3946824516e+000	-1.6342899808e+000
 5.3828106007e-001	 1.4000905329e+000	-1.6250990947e+000
 5.2439638615e-001	 1.4053499316e+000	-1.6049901393e+000
 5.1049032095e-001	 1.4104607872e+000	-1.5747342518e+000
 4.9656512994e-001	 1.4154232836e+000	-1.5350744124e+000
 4.8262306456e-001	 1.4202376483e+000	-1.4867246884e+000
 4.6866636131e-001	 1.4249041518e+000	-1.4303695592e+000
 4.5469724075e-001	 1.4294231071e+000	-1.3666633226e+000
 4.4071790656e-001	 1.4337948692e+000	-1.2962295814e+000
 4.2673054465e-001	 1.4380198337e+000	-1.2196608104e+000
 4.1273732227e-001	 1.4420984373e+000	-1.1375180015e+000
 3.4394776857e-001	 1.2017486977e+000	-2.7339498124e+000
 3.3228365593e-001	 1.2050259632e+000	-2.8042765149e+000
 3.2061822211e-001	 1.2081820871e+000	-2.8658486010e+000
 3.0895322226e-001	 1.2112175306e+000	-2.9186882761e+000
 2.9729039324e-001	 1.2141327860e+000	-2.9628272059e+000
 2.8563145302e-001	 1.2169283763e+000	-2.9983063667e+000
 2.7397810005e-001	 1.2196048543e+000	-3.0251758819e+000
 2.6233201271e-001	 1.2221628022e+000	-3.0434948439e+000
 2.5069484874e-001	 1.2246028306e+000	-3.0533311232e+000
 2.3906824470e-001	 1.2269255782e+000	-3.0547611650e+000
 2.2745381553e-001	 1.2291317105e+000	-3.0478697745e+000
 3.5082672394e-001	 1.2257836717e+000	-2.8689636488e+000
 3.3892932905e-001	 1.2291264825e+000	-2.9481078889e+000
 3.2703058655e-001	 1.2323457289e+000	-3.0173045994e+000
 3.1513228670e-001	 1.2354418812e+000	-3.0765708417e+000
 3.0323620110e-001	 1.2384154417e+000	-3.1259344820e+000
 2.9134408208e-001	 1.2412669438e+000	-3.1654340248e+000
 2.7945766205e-001	 1.2439969514e+000	-3.1951184289e+000
 2.6757865297e-001	 1.2466060582e+000	-3.2150469091e+000
 2.5570874571e-001	 1.2490948872e+000	-3.2252887229e+000
 2.4384960960e-001	 1.2514640897e+000	-3.1967854054e+000
 2.3200289184e-001	 1.2537143447e+000	-3.1436997172e+000
 3.5770567931e-001	 1.2498186456e+000	-3.0218424842e+000
 3.4557500216e-001	 1.2532270017e+000	-3.0456428717e+000
 3.3344295099e-001	 1.2565093706e+000	-3.0562915632e+000
 3.2131135114e-001	 1.2596662318e+000	-3.0577778932e+000
 3.0918200896e-001	 1.2626980974e+000	-3.0505104516e+000
 2.9705671113e-001	 1.2656055113e+000	-3.0348785278e+000
 2.8493722405e-001	 1.2683890485e+000	-3.0112520263e+000
 2.7282529322e-001	 1.2710493143e+000	-2.9799814282e+000
 2.6072264268e-001	 1.2735869439e+000	-2.9413977959e+000
 2.4863097449e-001	 1.2760026013e+000	-2.8958128205e+000
 2.3655196814e-001	 1.2782969789e+000	-2.8435189103e+000
 3.6458463467e-001	 1.2738536196e+000	-2.7250381525e+000
 3.5222067528e-001	 1.2773275210e+000	-2.7479887806e+000
 3.3985531543e-001	 1.2806730123e+000	-2.7610455734e+000
 3.2749041558e-001	 1.2838905824e+000	-2.7646552290e+000
 3.1512781682e-001	 1.2869807532e+000	-2.7592442876e+000
 3.0276934019e-001	 1.2899440789e+000	-2.7452189950e+000
 2.9041678605e-001	 1.2927811456e+000	-2.7229652140e+000
 2.7807193347e-001	 1.2954925703e+000	-2.6928483845e+000
 2.6573653966e-001	 1.2980790005e+000	-2.6552135287e+000
 2.5341233938e-001	 1.3005411129e+000	-2.6103853018e+000
 2.4110104445e-001	 1.3028796131e+000	-2.5586680850e+000
 3.7146359004e-001	 1.2978885935e+000	-2.4444469666e+000
 3.5886634840e-001	 1.3014280403e+000	-2.4692778938e+000
 3.4626767987e-001	 1.3048366541e+000	-2.4839779144e+000
 3.3366948003e-001	 1.3081149330e+000	-2.4890133999e+000
 3.2107362469e-001	 1.3112634089e+000	-2.4848294849e+000
 3.0848196925e-001	 1.3142826464e+000	-2.4718499244e+000
 2.9589634805e-001	 1.3171732427e+000	-2.4504770021e+000
 2.8331857372e-001	 1.3199358264e+000	-2.4210914901e+000
 2.7075043663e-001	 1.3225710571e+000	-2.3840526552e+000
 2.5819370428e-001	 1.3250796244e+000	-2.3396983144e+000
 2.4565012076e-001	 1.3274622474e+000	-2.2883449339e+000
 3.7834254541e-001	 1.3219235675e+000	-2.1828726487e+000
 3.6551202151e-001	 1.3255285595e+000	-2.2087523613e+000
 3.5268004431e-001	 1.3290002958e+000	-2.2243308334e+000
 3.3984854447e-001	 1.3323392837e+000	-2.2300948621e+000
 3.2701943255e-001	 1.3355460646e+000	-2.2265088358e+000
 3.1419459831e-001	 1.3386212139e+000	-2.2140145861e+000
 3.0137591005e-001	 1.3415653397e+000	-2.1930312939e+000
 2.8856521398e-001	 1.3443790824e+000	-2.1639554487e+000
 2.7576433361e-001	 1.3470631137e+000	-2.1271608584e+000
 2.6297506917e-001	 1.3496181360e+000	-2.0829987093e+000
 2.5019919707e-001	 1.3520448816e+000	-2.0317976739e+000
 3.8522150078e-001	 1.3459585415e+000	-1.9396153378e+000
 3.7215769463e-001	 1.3496290788e+000	-1.9657107104e+000
 3.5909240875e-001	 1.3531639376e+000	-1.9814014336e+000
 3.4602760891e-001	 1.3565636343e+000	-1.9871954993e+000
 3.3296524041e-001	 1.3598287203e+000	-1.9835772247e+000
 3.1990722737e-001	 1.3629597814e+000	-1.9710070997e+000
 3.0685547205e-001	 1.3659574368e+000	-1.9499216915e+000
 2.9381185423e-001	 1.3688223385e+000	-1.9207336044e+000
 2.8077823058e-001	 1.3715551703e+000	-1.8838314944e+000
 2.6775643406e-001	 1.3741566475e+000	-1.8395801351e+000
 2.5474827338e-001	 1.3766275158e+000	-1.7883205346e+000
 3.9210045615e-001	 1.3699935154e+000	-1.7140280771e+000
 3.7880336775e-001	 1.3737295980e+000	-1.7395028997e+000
 3.6550477319e-001	 1.3773275793e+000	-1.7545368623e+000
 3.5220667336e-001	 1.3807879849e+000	-1.7596599367e+000
 3.3891104828e-001	 1.3841113760e+000	-1.7553770592e+000
 3.2561985643e-001	 1.3872983490e+000	-1.7421679738e+000
 3.1233503405e-001	 1.3903495339e+000	-1.7204871359e+000
 2.9905849449e-001	 1.3932655945e+000	-1.6907636744e+000
 2.8579212755e-001	 1.3960472269e+000	-1.6534014108e+000
 2.7253779896e-001	 1.3986951591e+000	-1.6087789330e+000
 2.5929734969e-001	 1.4012101500e+000	-1.5572497228e+000
 3.9897941152e-001	 1.3940284894e+000	-1.5055122527e+000
 3.8544904087e-001	 1.3978301173e+000	-1.5295258857e+000
 3.7191713763e-001	 1.4014912211e+000	-1.5431299963e+000
 3.5838573780e-001	 1.4050123355e+000	-1.5468773383e+000
 3.4485685614e-001	 1.4083940318e+000	-1.5412941724e+000
 3.3133248549e-001	 1.4116369165e+000	-1.5268801064e+000
 3.1781459605e-001	 1.4147416310e+000	-1.5041079990e+000
 3.0430513474e-001	 1.4177088505e+000	-1.4734239242e+000
 2.9080602453e-001	 1.4205392835e+000	-1.4352471971e+000
 2.7731916385e-001	 1.4232336707e+000	-1.3899704562e+000
 2.6384642600e-001	 1.4257927842e+000	-1.3379598030e+000
 4.0585836689e-001	 1.4180634633e+000	-1.3135134970e+000
 3.9209471399e-001	 1.4219306366e+000	-1.3352196398e+000
 3.7832950208e-001	 1.4256548628e+000	-1.3466155673e+000
 3.6456480225e-001	 1.4292366861e+000	-1.3482776332e+000
 3.5080266401e-001	 1.4326766875e+000	-1.3407541435e+000
 3.3704511455e-001	 1.4359754840e+000	-1.3245651934e+000
 3.2329415806e-001	 1.4391337281e+000	-1.3002025721e+000
 3.0955177499e-001	 1.4421521066e+000	-1.2681297312e+000
 2.9581992150e-001	 1.4450313401e+000	-1.2287818171e+000
 2.8210052874e-001	 1.4477721822e+000	-1.1825657644e+000
 2.6839550231e-001	 1.4503754184e+000	-1.1298604474e+000
 4.1273732227e-001	 1.4420984373e+000	-1.1375180015e+000
 3.9874038711e-001	 1.4460311558e+000	-1.1560635637e+000
 3.8474186652e-001	 1.4498185045e+000	-1.1644666731e+000
 3.7074386670e-001	 1.4534610367e+000	-1.1633281181e+000
 3.5674847188e-001	 1.4569593432e+000	-1.1532189853e+000
 3.4275774362e-001	 1.4603140515e+000	-1.1346804948e+000
 3.2877372006e-001	 1.4635258252e+000	-1.1082239061e+000
 3.1479841525e-001	 1.4665953626e+000	-1.0743304917e+000
 3.0083381848e-001	 1.4695233968e+000	-1.0334515775e+000
 2.8688189364e-001	 1.4723106938e+000	-9.8600864742e-001
 2.7294457862e-001	 1.4749580526e+000	-9.3239350981e-001
 2.2745381553e-001	 1.2291317105e+000	-3.0478697745e+000
 2.1585315397e-001	 1.2312219198e+000	-3.1035162012e+000
 2.0426783022e-001	 1.2331969241e+000	-3.1515764150e+000
 1.9269939142e-001	 1.2350574661e+000	-3.1921507211e+000
 1.8114936129e-001	 1.2368043131e+000	-3.2253460957e+000
 1.6961923973e-001	 1.2384382558e+000	-3.2512759460e+000
 1.5811050249e-001	 1.2399601078e+000	-3.2700598632e+000
 1.4662460078e-001	 1.2413707047e+000	-3.2818233694e+000
 1.3516296104e-001	 1.2426709033e+000	-3.2866976590e+000
 1.2372698459e-001	 1.2438615812e+000	-3.2848193358e+000
 1.1231804739e-001	 1.2449436358e+000	-3.2763301453e+000
 2.3200289184e-001	 1.2537143447e+000	-3.1436997172e+000
 2.2017021705e-001	 1.2558463582e+000	-3.1558047481e+000
 2.0835318683e-001	 1.2578608626e+000	-3.1622845862e+000
 1.9655337925e-001	 1.2597586154e+000	-3.1633627663e+000
 1.8477234852e-001	 1.2615403994e+000	-3.1592444896e+000
 1.7301162453e-001	 1.2632070210e+000	-3.1501168957e+000
 1.6127271254e-001	 1.2647593100e+000	-3.1361493648e+000
 1.4955709280e-001	 1.2661981188e+000	-3.1174938481e+000
 1.3786622027e-001	 1.2675243214e+000	-3.0942852256e+000
 1.2620152428e-001	 1.2687388129e+000	-3.0666416880e+000
 1.1456440834e-001	 1.2698425085e+000	-3.0346651431e+000
 2.3655196814e-001	 1.2782969789e+000	-2.8435189103e+000
 2.2448728013e-001	 1.2804707966e+000	-2.8570386692e+000
 2.1243854343e-001	 1.2825248010e+000	-2.8644976896e+000
 2.0040736708e-001	 1.2844597647e+000	-2.8661339730e+000
 1.8839533574e-001	 1.2862764856e+000	-2.8621663868e+000
 1.7640400932e-001	 1.2879757861e+000	-2.8527949434e+000
 1.6443492259e-001	 1.2895585122e+000	-2.8382011103e+000
 1.5248958481e-001	 1.2910255329e+000	-2.8185481507e+000
 1.4056947949e-001	 1.2923777395e+000	-2.7939814923e+000
 1.2867606398e-001	 1.2936160445e+000	-2.7646291228e+000
 1.1681076929e-001	 1.2947413812e+000	-2.7306020091e+000
 2.4110104445e-001	 1.3028796131e+000	-2.5586680850e+000
 2.2880434321e-001	 1.3050952350e+000	-2.5736846222e+000
 2.1652390003e-001	 1.3071887395e+000	-2.5822818113e+000
 2.0426135491e-001	 1.3091609141e+000	-2.5847118176e+000
 1.9201832297e-001	 1.3110125719e+000	-2.5812067917e+000
 1.7979639412e-001	 1.3127445512e+000	-2.5719791571e+000
 1.6759713264e-001	 1.3143577143e+000	-2.5572219308e+000
 1.5542207683e-001	 1.3158529470e+000	-2.5371090758e+000
 1.4327273871e-001	 1.3172311575e+000	-2.5117958833e+000
 1.3115060367e-001	 1.3184932761e+000	-2.4814193831e+000
 1.1905713023e-001	 1.3196402539e+000	-2.4460987798e+000
 2.4565012076e-001	 1.3274622474e+000	-2.2883449339e+000
 2.3312140629e-001	 1.3297196734e+000	-2.3049300113e+000
 2.2060925664e-001	 1.3318526780e+000	-2.3148137881e+000
 2.0811534273e-001	 1.3338620634e+000	-2.3182623063e+000
 1.9564131019e-001	 1.3357486582e+000	-2.3155206312e+000
 1.8318877891e-001	 1.3375133163e+000	-2.3068131497e+000
 1.7075934268e-001	 1.3391569165e+000	-2.2923439034e+000
 1.5835456884e-001	 1.3406803611e+000	-2.2722969548e+000
 1.4597599793e-001	 1.3420845756e+000	-2.2468367856e+000
 1.3362514336e-001	 1.3433705078e+000	-2.2161087241e+000
 1.2130349118e-001	 1.3445391266e+000	-2.1802394002e+000
 2.5019919707e-001	 1.3520448816e+000	-2.0317976739e+000
 2.3743846937e-001	 1.3543441118e+000	-2.0500129203e+000
 2.2469461324e-001	 1.3565166165e+000	-2.0613214196e+000
 2.1196933056e-001	 1.3585632127e+000	-2.0660028172e+000
 1.9926429742e-001	 1.3604847444e+000	-2.0643147382e+000
 1.8658116370e-001	 1.3622820814e+000	-2.0564930976e+000
 1.7392155273e-001	 1.3639561186e+000	-2.0427524478e+000
 1.6128706086e-001	 1.3655077752e+000	-2.0232863617e+000
 1.4867925715e-001	 1.3669379937e+000	-1.9982678481e+000
 1.3609968305e-001	 1.3682477394e+000	-1.9678497990e+000
 1.2354985212e-001	 1.3694379994e+000	-1.9321654656e+000
 2.5474827338e-001	 1.3766275158e+000	-1.7883205346e+000
 2.4175553244e-001	 1.3789685502e+000	-1.8082175880e+000
 2.2877996984e-001	 1.3811805550e+000	-1.8210789181e+000
 2.1582331839e-001	 1.3832643620e+000	-1.8271975139e+000
 2.0288728464e-001	 1.3852208307e+000	-1.8268432173e+000
 1.8997354850e-001	 1.3870508465e+000	-1.8202630473e+000
 1.7708376278e-001	 1.3887553208e+000	-1.8076815641e+000
 1.6421955287e-001	 1.3903351893e+000	-1.7893012703e+000
 1.5138251636e-001	 1.3917914117e+000	-1.7653030473e+000
 1.3857422274e-001	 1.3931249710e+000	-1.7358466235e+000
 1.2579621307e-001	 1.3943368721e+000	-1.7010710741e+000
 2.5929734969e-001	 1.4012101500e+000	-1.5572497228e+000
 2.4607259552e-001	 1.4035929886e+000	-1.5788703595e+000
 2.3286532645e-001	 1.4058444934e+000	-1.5934028373e+000
 2.1967730621e-001	 1.4079655113e+000	-1.6011532415e+000
 2.0651027186e-001	 1.4099569169e+000	-1.6024032983e+000
 1.9336593329e-001	 1.4118196117e+000	-1.5974107167e+000
 1.8024597283e-001	 1.4135545229e+000	-1.5864095707e+000
 1.6715204489e-001	 1.4151626033e+000	-1.5696107207e+000
 1.5408577558e-001	 1.4166448298e+000	-1.5472022728e+000
 1.4104876243e-001	 1.4180022026e+000	-1.5193500707e+000
 1.2804257402e-001	 1.4192357448e+000	-1.4861982217e+000
 2.6384642600e-001	 1.4257927842e+000	-1.3379598030e+000
 2.5038965860e-001	 1.4282174270e+000	-1.3613360559e+000
 2.3695068305e-001	 1.4305084319e+000	-1.3776484224e+000
 2.2353129404e-001	 1.4326666607e+000	-1.3872158468e+000
 2.1013325909e-001	 1.4346930032e+000	-1.3903316181e+000
 1.9675831808e-001	 1.4365883768e+000	-1.3872637302e+000
 1.8340818287e-001	 1.4383537251e+000	-1.3782552844e+000
 1.7008453690e-001	 1.4399900174e+000	-1.3635249343e+000
 1.5678903480e-001	 1.4414982479e+000	-1.3432673687e+000
 1.4352330212e-001	 1.4428794342e+000	-1.3176538310e+000
 1.3028893496e-001	 1.4441346175e+000	-1.2868326727e+000
 2.6839550231e-001	 1.4503754184e+000	-1.1298604474e+000
 2.5470672168e-001	 1.4528418654e+000	-1.1550147143e+000
 2.4103603965e-001	 1.4551723704e+000	-1.1732063307e+000
 2.2738528187e-001	 1.4573678100e+000	-1.1847668735e+000
 2.1375624631e-001	 1.4594290895e+000	-1.1900008815e+000
 2.0015070287e-001	 1.4613571419e+000	-1.1891862364e+000
 1.8657039292e-001	 1.4631529272e+000	-1.1825745880e+000
 1.7301702891e-001	 1.4648174315e+000	-1.1703918237e+000
 1.5949229402e-001	 1.4663516659e+000	-1.1528385788e+000
 1.4599784180e-001	 1.4677566659e+000	-1.1300907842e+000
 1.3253529590e-001	 1.4690334902e+000	-1.1023002505e+000
 2.7294457862e-001	 1.4749580526e+000	-9.3239350981e-001
 2.5902378476e-001	 1.4774663038e+000	-9.5933865281e-001
 2.4512139625e-001	 1.4798363089e+000	-9.7949968116e-001
 2.3123926969e-001	 1.4820689593e+000	-9.9322058715e-001
 2.1737923353e-001	 1.4841651757e+000	-1.0008168553e+000
 2.0354308766e-001	 1.4861259070e+000	-1.0025758650e+000
 1.8973260296e-001	 1.4879521294e+000	-9.9875734153e-001
 1.7594952092e-001	 1.4896448456e+000	-9.8959385235e-001
 1.6219555323e-001	 1.4912050840e+000	-9.7529134632e-001
 1.4847238149e-001	 1.4926338975e+000	-9.5602973309e-001
 1.3478165685e-001	 1.4939323629e+000	-9.3196349978e-001
 1.1231804739e-001	 1.2449436358e+000	-3.2763301453e+000
 1.0093749980e-001	 1.2459179833e+000	-3.3052164598e+000
 8.9586666357e-002	 1.2467855586e+000	-3.3273296271e+000
 7.8266845602e-002	 1.2475473141e+000	-3.3427603438e+000
 6.6979309880e-002	 1.2482042189e+000	-3.3516048608e+000
 5.5725305204e-002	 1.2487572584e+000	-3.3539647307e+000
 4.4506051122e-002	 1.2492074333e+000	-3.3499465525e+000
 3.3322740611e-002	 1.2495557590e+000	-3.3396617141e+000
 2.2176539990e-002	 1.2498032649e+000	-3.3232261337e+000
 1.1068588847e-002	 1.2499509936e+000	-3.3007600005e+000
 0.0000000000e+000	 1.2500000000e+000	-3.2723875147e+000
 1.1456440834e-001	 1.2698425085e+000	-3.0346651431e+000
 1.0295624979e-001	 1.2708363430e+000	-3.0381819532e+000
 9.1378399684e-002	 1.2717212698e+000	-3.0372862436e+000
 7.9832182514e-002	 1.2724982604e+000	-3.0319892618e+000
 6.8318896077e-002	 1.2731683033e+000	-3.0222887034e+000
 5.6839811307e-002	 1.2737324036e+000	-3.0081692286e+000
 4.5396172143e-002	 1.2741915820e+000	-2.9896029893e+000
 3.3989195423e-002	 1.2745468742e+000	-2.9665501678e+000
 2.2620070789e-002	 1.2747993302e+000	-2.9389595221e+000
 1.1289960624e-002	 1.2749500134e+000	-2.9067689392e+000
 0.0000000000e+000	 1.2750000000e+000	-2.8699059927e+000
 1.1681076929e-001	 1.2947413812e+000	-2.7306020091e+000
 1.0497499979e-001	 1.2957547027e+000	-2.7294463639e+000
 9.3170133010e-002	 1.2966569810e+000	-2.7237624633e+000
 8.1397519425e-002	 1.2974492067e+000	-2.7135883307e+000
 6.9658482273e-002	 1.2981323876e+000	-2.6989471863e+000
 5.7954317410e-002	 1.2987075487e+000	-2.6798479781e+000
 4.6286293165e-002	 1.2991757306e+000	-2.6562859262e+000
 3.4655650234e-002	 1.2995379894e+000	-2.6282430778e+000
 2.3063601588e-002	 1.2997953955e+000	-2.5956888728e+000
 1.1511332401e-002	 1.2999490333e+000	-2.5585807170e+000
 0.0000000000e+000	 1.3000000000e+000	-2.5168645618e+000
 1.1905713023e-001	 1.3196402539e+000	-2.4460987798e+000
 1.0699374978e-001	 1.3206730623e+000	-2.4428076998e+000
 9.4961866336e-002	 1.3215926922e+000	-2.4349300815e+000
 8.2962856336e-002	 1.3224001529e+000	-2.4225291868e+000
 7.0998068470e-002	 1.3230964720e+000	-2.4056521815e+000
 5.9068823513e-002	 1.3236826939e+000	-2.3843306826e+000
 4.7176414186e-002	 1.3241598793e+000	-2.3585813220e+000
 3.5322105045e-002	 1.3245291046e+000	-2.3284063215e+000
 2.3507132387e-002	 1.3247914608e+000	-2.2937940805e+000
 1.1732704177e-002	 1.3249480532e+000	-2.2547197716e+000
 0.0000000000e+000	 1.3250000000e+000	-2.2111459453e+000
 1.2130349118e-001	 1.3445391266e+000	-2.1802394002e+000
 1.0901249978e-001	 1.3455914220e+000	-2.1772425124e+000
 9.6753599662e-002	 1.3465284033e+000	-2.1696588219e+000
 8.4528193246e-002	 1.3473510992e+000	-2.1575753293e+000
 7.2337654666e-002	 1.3480605564e+000	-2.1410616014e+000
 6.0183329615e-002	 1.3486578391e+000	-2.1201703391e+000
 4.8066535207e-002	 1.3491440280e+000	-2.0949379618e+000
 3.5988559857e-002	 1.3495202198e+000	-2.0653852062e+000
 2.3950663186e-002	 1.3497875261e+000	-2.0315177372e+000
 1.1954075954e-002	 1.3499470731e+000	-1.9933267701e+000
 0.0000000000e+000	 1.3500000000e+000	-1.9507897018e+000
 1.2354985212e-001	 1.3694379994e+000	-1.9321654656e+000
 1.1103124977e-001	 1.3705097816e+000	-1.9317932728e+000
 9.8545332987e-002	 1.3714641145e+000	-1.9268926575e+000
 8.6093530156e-002	 1.3723020455e+000	-1.9175728913e+000
 7.3677240862e-002	 1.3730246408e+000	-1.9039244293e+000
 6.1297835718e-002	 1.3736329842e+000	-1.8860195008e+000
 4.8956656228e-002	 1.3741281766e+000	-1.8639127170e+000
 3.6655014668e-002	 1.3745113349e+000	-1.8376416958e+000
 2.4394193985e-002	 1.3747835914e+000	-1.8072276996e+000
 1.2175447730e-002	 1.3749460929e+000	-1.7726762860e+000
 0.0000000000e+000	 1.3750000000e+000	-1.7339779677e+000
 1.2579621307e-001	 1.3943368721e+000	-1.7010710741e+000
 1.1304999977e-001	 1.3954281413e+000	-1.7055624863e+000
 1.0033706631e-001	 1.3963998257e+000	-1.7056431806e+000
 8.7658867067e-002	 1.3972529918e+000	-1.7014432616e+000
 7.5016827058e-002	 1.3979887252e+000	-1.6930725882e+000
 6.2412341821e-002	 1.3986081294e+000	-1.6806213883e+000
 4.9846777250e-002	 1.3991123253e+000	-1.6641608943e+000
 3.7321469479e-002	 1.3995024501e+000	-1.6437439953e+000
 2.4837724784e-002	 1.3997796567e+000	-1.6194059049e+000
 1.2396819507e-002	 1.3999451128e+000	-1.5911648428e+000
 0.0000000000e+000	 1.4000000000e+000	-1.5590227265e+000
 1.2804257402e-001	 1.4192357448e+000	-1.4861982217e+000
 1.1506874976e-001	 1.4203465010e+000	-1.4977074261e+000
 1.0212879964e-001	 1.4213355368e+000	-1.5049836715e+000
 8.9224203976e-002	 1.4222039381e+000	-1.5081764838e+000
 7.6356413254e-002	 1.4229528095e+000	-1.5074136651e+000
 6.3526847923e-002	 1.4235832746e+000	-1.5028019363e+000
 5.0736898271e-002	 1.4240964740e+000	-1.4944276014e+000
 3.7987924290e-002	 1.4244935653e+000	-1.4823572313e+000
 2.5281255584e-002	 1.4247757220e+000	-1.4666383635e+000
 1.2618191283e-002	 1.4249441327e+000	-1.4473002170e+000
 0.0000000000e+000	 1.4250000000e+000	-1.4243544191e+000
 1.3028893496e-001	 1.4441346175e+000	-1.2868326727e+000
 1.1708749975e-001	 1.4452648606e+000	-1.3074354121e+000
 1.0392053296e-001	 1.4462712480e+000	-1.3240437807e+000
 9.0789540886e-002	 1.4471548843e+000	-1.3368253373e+000
 7.7695999449e-002	 1.4479168939e+000	-1.3459243886e+000
 6.4641354025e-002	 1.4485584197e+000	-1.3514626628e+000
 5.1627019292e-002	 1.4490806226e+000	-1.3535400055e+000
 3.8654379101e-002	 1.4494846805e+000	-1.3522350970e+000
 2.5724786383e-002	 1.4497717873e+000	-1.3476061873e+000
 1.2839563060e-002	 1.4499431525e+000	-1.3396918471e+000
 0.0000000000e+000	 1.4500000000e+000	-1.3285117320e+000
 1.3253529590e-001	 1.4690334902e+000	-1.1023002505e+000
 1.1910624974e-001	 1.4701832203e+000	-1.1339995695e+000
 1.0571226629e-001	 1.4712069592e+000	-1.1620047517e+000
 9.2354877796e-002	 1.4721058306e+000	-1.1865000207e+000
 7.9035585644e-002	 1.4728809783e+000	-1.2076447691e+000
 6.5755860127e-002	 1.4735335649e+000	-1.2255742640e+000
 5.2517140313e-002	 1.4740647713e+000	-1.2404003788e+000
 3.9320833912e-002	 1.4744757957e+000	-1.2522123459e+000
 2.6168317182e-002	 1.4747678526e+000	-1.2610775302e+000
 1.3060934837e-002	 1.4749421724e+000	-1.2670422183e+000
 0.0000000000e+000	 1.4750000000e+000	-1.2701324236e+000
 1.3478165685e-001	 1.4939323629e+000	-9.3196349978e-001
 1.2112499974e-001	 1.4951015800e+000	-9.7669501177e-001
 1.0750399961e-001	 1.4961426704e+000	-1.0180951213e+000
 9.3920214705e-002	 1.4970567769e+000	-1.0563633674e+000
 8.0375171839e-002	 1.4978450627e+000	-1.0916728256e+000
 6.6870366229e-002	 1.4985087101e+000	-1.1241708495e+000
 5.3407261333e-002	 1.4990489200e+000	-1.1539798401e+000
 3.9987288723e-002	 1.4994669109e+000	-1.1811980374e+000
 2.6611847981e-002	 1.4997639179e+000	-1.2059003345e+000
 1.3282306613e-002	 1.4999411923e+000	-1.2281391085e+000
 0.0000000000e+000	 1.5000000000e+000	-1.2479450685e+000
 1.5000000000e+000	 0.0000000000e+000	 4.0967139114e+000
 1.4999411923e+000	 1.3282306613e-002	 4.0722505336e+000
 1.4997639179e+000	 2.6611847981e-002	 4.0428075550e+000
 1.4994669109e+000	 3.9987288723e-002	 4.0084158276e+000
 1.4990489200e+000	 5.3407261333e-002	 3.9690865501e+000
 1.4985087101e+000	 6.6870366229e-002	 3.9248103298e+000
 1.4978450627e+000	 8.0375171839e-002	 3.8755562543e+000
 1.4970567769e+000	 9.3920214705e-002	 3.8212709765e+000
 1.4961426704e+000	 1.0750399961e-001	 3.7618778165e+000
 1.4951015800e+000	 1.2112499974e-001	 3.6972758806e+000
 1.4939323629e+000	 1.3478165685e-001	 3.6273392036e+000
 1.5250000000e+000	 0.0000000000e+000	 3.9290522147e+000
 1.5249402122e+000	 1.3503678390e-002	 3.9203529340e+000
 1.5247599832e+000	 2.7055378780e-002	 3.9055052051e+000
 1.5244580260e+000	 4.0653743534e-002	 3.8845514480e+000
 1.5240330686e+000	 5.4297382354e-002	 3.8575146409e+000
 1.5234838552e+000	 6.7984872331e-002	 3.8243973542e+000
 1.5228091470e+000	 8.1714758035e-002	 3.7851807953e+000
 1.5220077232e+000	 9.5485551614e-002	 3.7398238655e+000
 1.5210783815e+000	 1.0929573293e-001	 3.6882622338e+000
 1.5200199396e+000	 1.2314374973e-001	 3.6304074280e+000
 1.5188312356e+000	 1.3702801779e-001	 3.5661459482e+000
 1.5500000000e+000	 0.0000000000e+000	 3.7582241759e+000
 1.5499392320e+000	 1.3725050166e-002	 3.7649451481e+000
 1.5497560485e+000	 2.7498909579e-002	 3.7644642225e+000
 1.5494491412e+000	 4.1320198346e-002	 3.7568370824e+000
 1.5490172173e+000	 5.5187503375e-002	 3.7421001056e+000
 1.5484590004e+000	 6.9099378434e-002	 3.7202693681e+000
 1.5477732314e+000	 8.3054344230e-002	 3.6913396567e+000
 1.5469586695e+000	 9.7050888523e-002	 3.6552834956e+000
 1.5460140927e+000	 1.1108746626e-001	 3.6120501872e+000
 1.5449382993e+000	 1.2516249972e-001	 3.5615648722e+000
 1.5437301083e+000	 1.3927437874e-001	 3.5037276113e+000
 1.5750000000e+000	 0.0000000000e+000	 3.5852530197e+000
 1.5749382519e+000	 1.3946421943e-002	 3.6069825626e+000
 1.5747521138e+000	 2.7942440378e-002	 3.6205703660e+000
 1.5744402564e+000	 4.1986653157e-002	 3.6260870840e+000
 1.5740013660e+000	 5.6077624396e-002	 3.6235841276e+000
 1.5734341456e+000	 7.0213884536e-002	 3.6130926337e+000
 1.5727373158e+000	 8.4393930425e-002	 3.5946224430e+000
 1.5719096157e+000	 9.8616225433e-002	 3.5681610908e+000
 1.5709498039e+000	 1.1287919958e-001	 3.5336728131e+000
 1.5698566590e+000	 1.2718124971e-001	 3.4910975706e+000
 1.5686289811e+000	 1.4152073968e-001	 3.4403500947e+000
 1.6000000000e+000	 0.0000000000e+000	 3.4110980195e+000
 1.5999372718e+000	 1.4167793719e-002	 3.4473591296e+000
 1.5997481791e+000	 2.8385971177e-002	 3.4746506688e+000
 1.5994313716e+000	 4.2653107968e-002	 3.4930599832e+000
 1.5989855146e+000	 5.6967745417e-002	 3.5026551643e+000
 1.5984092907e+000	 7.1328390638e-002	 3.5034839802e+000
 1.5977014002e+000	 8.5733516621e-002	 3.4955728143e+000
 1.5968605620e+000	 1.0018156234e-001	 3.4789256173e+000
 1.5958855150e+000	 1.1467093291e-001	 3.4535228737e+000
 1.5947750186e+000	 1.2919999971e-001	 3.4193205873e+000
 1.5935278538e+000	 1.4376710062e-001	 3.3762492877e+000
 1.6250000000e+000	 0.0000000000e+000	 3.2366594165e+000
 1.6249362916e+000	 1.4389165496e-002	 3.2869120921e+000
 1.6247442444e+000	 2.8829501976e-002	 3.3274779560e+000
 1.6244224868e+000	 4.3319562779e-002	 3.3584627815e+000
 1.6239696633e+000	 5.7857866438e-002	 3.3799530036e+000
 1.6233844359e+000	 7.2442896741e-002	 3.3920146067e+000
 1.6226654846e+000	 8.7073102817e-002	 3.3946920214e+000
 1.6218115083e+000	 1.0174689925e-001	 3.3880070337e+000
 1.6208212262e+000	 1.1646266623e-001	 3.3719577084e+000
 1.6196933783e+000	 1.3121874970e-001	 3.3465173316e+000
 1.6184267265e+000	 1.4601346157e-001	 3.3116333748e+000
 1.6500000000e+000	 0.0000000000e+000	 3.0627828917e+000
 1.6499353115e+000	 1.4610537273e-002	 3.1264262802e+000
 1.6497403097e+000	 2.9273032775e-002	 3.1797749506e+000
 1.6494136019e+000	 4.3986017590e-002	 3.2229548553e+000
 1.6489538120e+000	 5.8747987459e-002	 3.2560724505e+000
 1.6483595811e+000	 7.3557402843e-002	 3.2792135384e+000
 1.6476295689e+000	 8.8412689013e-002	 3.2924421179e+000
 1.6467624546e+000	 1.0331223616e-001	 3.2957992463e+000
 1.6457569374e+000	 1.1825439956e-001	 3.2893019173e+000
 1.6446117380e+000	 1.3323749970e-001	 3.2729419557e+000
 1.6433255992e+000	 1.4825982252e-001	 3.2466849355e+000
 1.6750000000e+000	 0.0000000000e+000	 2.8902636377e+000
 1.6749343314e+000	 1.4831909049e-002	 2.9666380224e+000
 1.6747363750e+000	 2.9716563574e-002	 3.0322180136e+000
 1.6744047171e+000	 4.4652472402e-002	 3.0871515101e+000
 1.6739379606e+000	 5.9638108481e-002	 3.1315666843e+000
 1.6733347262e+000	 7.4671908946e-002	 3.1655707746e+000
 1.6725936533e+000	 8.9752275209e-002	 3.1892488855e+000
 1.6717134009e+000	 1.0487757307e-001	 3.2026627998e+000
 1.6706926486e+000	 1.2004613288e-001	 3.2058498049e+000
 1.6695300976e+000	 1.3525624969e-001	 3.1988215382e+000
 1.6682244719e+000	 1.5050618346e-001	 3.1815628543e+000
 1.7000000000e+000	 0.0000000000e+000	 2.7198500711e+000
 1.6999333513e+000	 1.5053280826e-002	 2.8082387119e+000
 1.6997324403e+000	 3.0160094373e-002	 2.8854405519e+000
 1.6993958323e+000	 4.5318927213e-002	 2.9516272208e+000
 1.6989221093e+000	 6.0528229502e-002	 3.0069503194e+000
 1.6983098714e+000	 7.5786415049e-002	 3.0515401578e+000
 1.6975577377e+000	 9.1091861406e-002	 3.0855045016e+000
 1.6966643472e+000	 1.0644290998e-001	 3.1089273299e+000
 1.6956283597e+000	 1.2183786621e-001	 3.1218676072e+000
 1.6944484573e+000	 1.3727499969e-001	 3.1243580747e+000
 1.6931233446e+000	 1.5275254441e-001	 3.1164040638e+000
 1.7250000000e+000	 0.0000000000e+000	 2.5522472221e+000
 1.7249323711e+000	 1.5274652602e-002	 2.6518780631e+000
 1.7247285056e+000	 3.0603625172e-002	 2.7400361314e+000
 1.7243869475e+000	 4.5985382024e-002	 2.8169185905e+000
 1.7239062580e+000	 6.1418350523e-002	 2.8827021995e+000
 1.7232850166e+000	 7.6900921152e-002	 2.9375419938e+000
 1.7225218221e+000	 9.2431447602e-002	 2.9815699736e+000
 1.7216152934e+000	 1.0800824690e-001	 3.0148938034e+000
 1.7205640709e+000	 1.2362959954e-001	 3.0375955259e+000
 1.7193668170e+000	 1.3929374968e-001	 3.0497302958e+000
 1.7180222173e+000	 1.5499890536e-001	 3.0513251346e+000
 1.7500000000e+000	 0.0000000000e+000	 2.3881198334e+000
 1.7499313910e+000	 1.5496024379e-002	 2.4981670882e+000
 1.7497245709e+000	 3.1047155971e-002	 2.5965613229e+000
 1.7493780627e+000	 4.6651836836e-002	 2.6835270558e+000
 1.7488904066e+000	 6.2308471545e-002	 2.7592679530e+000
 1.7482601617e+000	 7.8015427255e-002	 2.8239654475e+000
 1.7474859064e+000	 9.3771033799e-002	 2.8777773659e+000
 1.7465662397e+000	 1.0957358381e-001	 2.9208365658e+000
 1.7454997821e+000	 1.2542133286e-001	 2.9532495881e+000
 1.7442851766e+000	 1.4131249968e-001	 2.9750953284e+000
 1.7429210901e+000	 1.5724526631e-001	 2.9864237302e+000
 1.4939323629e+000	 1.3478165685e-001	 3.6273392036e+000
 1.4926338975e+000	 1.4847238149e-001	 3.6053418748e+000
 1.4912050840e+000	 1.6219555323e-001	 3.5761861055e+000
 1.4896448456e+000	 1.7594952092e-001	 3.5397079860e+000
 1.4879521294e+000	 1.8973260296e-001	 3.4957178440e+000
 1.4861259070e+000	 2.0354308766e-001	 3.4439995492e+000
 1.4841651757e+000	 2.1737923353e-001	 3.3843098552e+000
 1.4820689593e+000	 2.3123926969e-001	 3.3163777799e+000
 1.4798363089e+000	 2.4512139625e-001	 3.2399040291e+000
 1.4774663038e+000	 2.5902378476e-001	 3.1545604664e+000
 1.4749580526e+000	 2.7294457862e-001	 3.0599896297e+000
 1.5188312356e+000	 1.3702801779e-001	 3.5661459482e+000
 1.5175111291e+000	 1.5094692118e-001	 3.5524669995e+000
 1.5160585020e+000	 1.6489881245e-001	 3.5302947212e+000
 1.5144722597e+000	 1.7888201293e-001	 3.4994684427e+000
 1.5127513315e+000	 1.9289481301e-001	 3.4598017669e+000
 1.5108946721e+000	 2.0693547245e-001	 3.4110818586e+000
 1.5089012620e+000	 2.2100222075e-001	 3.3530687704e+000
 1.5067701086e+000	 2.3509325751e-001	 3.2854948094e+000
 1.5045002474e+000	 2.4920675285e-001	 3.2080639468e+000
 1.5020907422e+000	 2.6334084783e-001	 3.1204512743e+000
 1.4995406868e+000	 2.7749365493e-001	 3.0223025096e+000
 1.5437301083e+000	 1.3927437874e-001	 3.5037276113e+000
 1.5423883607e+000	 1.5342146087e-001	 3.4988002676e+000
 1.5409119201e+000	 1.6760207167e-001	 3.4841814203e+000
 1.5392996738e+000	 1.8181450494e-001	 3.4597146755e+000
 1.5375505337e+000	 1.9605702305e-001	 3.4252178368e+000
 1.5356634372e+000	 2.1032785724e-001	 3.3804821741e+000
 1.5336373482e+000	 2.2462520797e-001	 3.3252717315e+000
 1.5314712579e+000	 2.3894724534e-001	 3.2593226753e+000
 1.5291641858e+000	 2.5329210946e-001	 3.1823426867e+000
 1.5267151806e+000	 2.6765791091e-001	 3.0940104024e+000
 1.5241233210e+000	 2.8204273124e-001	 2.9939749054e+000
 1.5686289811e+000	 1.4152073968e-001	 3.4403500947e+000
 1.5672655924e+000	 1.5589600055e-001	 3.4445435827e+000
 1.5657653382e+000	 1.7030533088e-001	 3.4379820766e+000
 1.5641270879e+000	 1.8474699695e-001	 3.4205145014e+000
 1.5623497358e+000	 1.9921923310e-001	 3.3919637920e+000
 1.5604322023e+000	 2.1372024203e-001	 3.3521261404e+000
 1.5583734345e+000	 2.2824819520e-001	 3.3007702799e+000
 1.5561724073e+000	 2.4280123317e-001	 3.2376368126e+000
 1.5538281243e+000	 2.5737746606e-001	 3.1624375819e+000
 1.5513396190e+000	 2.7197497399e-001	 3.0748550936e+000
 1.5487059552e+000	 2.8659180755e-001	 2.9745419892e+000
 1.5935278538e+000	 1.4376710062e-001	 3.3762492877e+000
 1.5921428240e+000	 1.5837054024e-001	 3.3898719948e+000
 1.5906187562e+000	 1.7300859010e-001	 3.3918090925e+000
 1.5889545020e+000	 1.8767948897e-001	 3.3819158720e+000
 1.5871489380e+000	 2.0238144315e-001	 3.3600213376e+000
 1.5852009674e+000	 2.1711262682e-001	 3.3259274253e+000
 1.5831095208e+000	 2.3187118242e-001	 3.2794082629e+000
 1.5808735566e+000	 2.4665522099e-001	 3.2202094720e+000
 1.5784920628e+000	 2.6146282266e-001	 3.1480475172e+000
 1.5759640574e+000	 2.7629203707e-001	 3.0626091053e+000
 1.5732885894e+000	 2.9114088386e-001	 2.9635506370e+000
 1.6184267265e+000	 1.4601346157e-001	 3.3116333748e+000
 1.6170200556e+000	 1.6084507993e-001	 3.3349357658e+000
 1.6154721743e+000	 1.7571184932e-001	 3.3457532040e+000
 1.6137819161e+000	 1.9061198098e-001	 3.3439484025e+000
 1.6119481402e+000	 2.0554365319e-001	 3.3293573781e+000
 1.6099697326e+000	 2.2050501162e-001	 3.3017886414e+000
 1.6078456070e+000	 2.3549416964e-001	 3.2610224262e+000
 1.6055747059e+000	 2.5050920882e-001	 3.2068099648e+000
 1.6031560013e+000	 2.6554817926e-001	 3.1388728099e+000
 1.6005884958e+000	 2.8060910014e-001	 3.0569022081e+000
 1.5978712237e+000	 2.9568996017e-001	 2.9605585285e+000
 1.6433255992e+000	 1.4825982252e-001	 3.2466849355e+000
 1.6418972872e+000	 1.6331961962e-001	 3.2798622469e+000
 1.6403255924e+000	 1.7841510854e-001	 3.2998851228e+000
 1.6386093302e+000	 1.9354447299e-001	 3.3066247599e+000
 1.6367473423e+000	 2.0870586324e-001	 3.2999251394e+000
 1.6347384977e+000	 2.2389739641e-001	 3.2796021832e+000
 1.6325816933e+000	 2.3911715687e-001	 3.2454429515e+000
 1.6302758552e+000	 2.5436319665e-001	 3.1972048857e+000
 1.6278199398e+000	 2.6963353587e-001	 3.1346151008e+000
 1.6252129342e+000	 2.8492616322e-001	 3.0573697306e+000
 1.6224538579e+000	 3.0023903648e-001	 2.9651333286e+000
 1.6682244719e+000	 1.5050618346e-001	 3.1815628543e+000
 1.6667745188e+000	 1.6579415931e-001	 3.2247575889e+000
 1.6651790104e+000	 1.8111836776e-001	 3.2542570302e+000
 1.6634367443e+000	 1.9647696501e-001	 3.2699419284e+000
 1.6615465445e+000	 2.1186807329e-001	 3.2716651888e+000
 1.6595072628e+000	 2.2728978120e-001	 3.2592509903e+000
 1.6573177795e+000	 2.4274014409e-001	 3.2324939466e+000
 1.6549770045e+000	 2.5821718447e-001	 3.1911583153e+000
 1.6524838782e+000	 2.7371889247e-001	 3.1349772560e+000
 1.6498373726e+000	 2.8924322630e-001	 3.0636521442e+000
 1.6470364921e+000	 3.0478811279e-001	 2.9768519424e+000
 1.6931233446e+000	 1.5275254441e-001	 3.1164040638e+000
 1.6916517505e+000	 1.6826869900e-001	 3.1697083011e+000
 1.6900324285e+000	 1.8382162698e-001	 3.2089039397e+000
 1.6882641584e+000	 1.9940945702e-001	 3.2338823624e+000
 1.6863457466e+000	 2.1503028334e-001	 3.2445063666e+000
 1.6842760279e+000	 2.3068216600e-001	 3.2406092419e+000
 1.6820538658e+000	 2.4636313132e-001	 3.2219938920e+000
 1.6796781539e+000	 2.6207117230e-001	 3.1884320052e+000
 1.6771478167e+000	 2.7780424907e-001	 3.1396632763e+000
 1.6744618110e+000	 2.9356028938e-001	 3.0753946853e+000
 1.6716191263e+000	 3.0933718910e-001	 2.9952998354e+000
 1.7180222173e+000	 1.5499890536e-001	 3.0513251346e+000
 1.7165289821e+000	 1.7074323870e-001	 3.1147826739e+000
 1.7148858466e+000	 1.8652488620e-001	 3.1638449410e+000
 1.7130915724e+000	 2.0234194904e-001	 3.1984150392e+000
 1.7111449488e+000	 2.1819249339e-001	 3.2183666351e+000
 1.7090447930e+000	 2.3407455079e-001	 3.2235429921e+000
 1.7067899521e+000	 2.4998611855e-001	 3.2137560484e+000
 1.7043793032e+000	 2.6592516013e-001	 3.1887855467e+000
 1.7018117552e+000	 2.8188960568e-001	 3.1483782154e+000
 1.6990862494e+000	 2.9787735246e-001	 3.0922470098e+000
 1.6962017605e+000	 3.1388626541e-001	 3.0200704134e+000
 1.7429210901e+000	 1.5724526631e-001	 2.9864237302e+000
 1.7414062137e+000	 1.7321777839e-001	 3.0600320810e+000
 1.7397392646e+000	 1.8922814542e-001	 3.1190843376e+000
 1.7379189865e+000	 2.0527444106e-001	 3.1634964218e+000
 1.7359441509e+000	 2.2135470344e-001	 3.1931538563e+000
 1.7338135582e+000	 2.3746693559e-001	 3.2079107500e+000
 1.7315260383e+000	 2.5360910577e-001	 3.2075888300e+000
 1.7290804525e+000	 2.6977914796e-001	 3.1919765250e+000
 1.7264756937e+000	 2.8597496228e-001	 3.1608281044e+000
 1.7237106878e+000	 3.0219441554e-001	 3.1138628773e+000
 1.7207843947e+000	 3.1843534172e-001	 3.0507644555e+000
 1.4749580526e+000	 2.7294457862e-001	 3.0599896297e+000
 1.4723106938e+000	 2.8688189364e-001	 3.0307485285e+000
 1.4695233968e+000	 3.0083381848e-001	 2.9943085383e+000
 1.4665953626e+000	 3.1479841525e-001	 2.9502490185e+000
 1.4635258252e+000	 3.2877372006e-001	 2.8981170527e+000
 1.4603140515e+000	 3.4275774362e-001	 2.8374271953e+000
 1.4569593432e+000	 3.5674847188e-001	 2.7676612836e+000
 1.4534610367e+000	 3.7074386670e-001	 2.6882683186e+000
 1.4498185045e+000	 3.8474186652e-001	 2.5986644161e+000
 1.4460311558e+000	 3.9874038711e-001	 2.4982328311e+000
 1.4420984373e+000	 4.1273732227e-001	 2.3863240584e+000
 1.4995406868e+000	 2.7749365493e-001	 3.0223025096e+000
 1.4968492054e+000	 2.9166325853e-001	 2.9891931088e+000
 1.4940154534e+000	 3.0584771546e-001	 2.9487577298e+000
 1.4910386187e+000	 3.2004505551e-001	 2.9005699923e+000
 1.4879179223e+000	 3.3425328206e-001	 2.8441699403e+000
 1.4846526191e+000	 3.4847037268e-001	 2.7790637689e+000
 1.4812419989e+000	 3.6269427974e-001	 2.7047236200e+000
 1.4776853873e+000	 3.7692293114e-001	 2.6205874491e+000
 1.4739821463e+000	 3.9115423097e-001	 2.5260589661e+000
 1.4701316751e+000	 4.0538606023e-001	 2.4205076524e+000
 1.4661334112e+000	 4.1961627764e-001	 2.3032688563e+000
 1.5241233210e+000	 2.8204273124e-001	 2.9939749054e+000
 1.5213877169e+000	 2.9644462343e-001	 2.9577618265e+000
 1.5185075100e+000	 3.1086161243e-001	 2.9141962294e+000
 1.5154818747e+000	 3.2529169576e-001	 2.8628458786e+000
 1.5123100193e+000	 3.3973284406e-001	 2.8032435463e+000
 1.5089911866e+000	 3.5418300174e-001	 2.7348867178e+000
 1.5055246547e+000	 3.6864008761e-001	 2.6572373692e+000
 1.5019097379e+000	 3.8310199559e-001	 2.5697218186e+000
 1.4981457880e+000	 3.9756659541e-001	 2.4717306551e+000
 1.4942321944e+000	 4.1203173334e-001	 2.3626187464e+000
 1.4901683852e+000	 4.2649523301e-001	 2.2417053294e+000
 1.5487059552e+000	 2.8659180755e-001	 2.9745419892e+000
 1.5459262285e+000	 3.0122598832e-001	 2.9359566829e+000
 1.5429995666e+000	 3.1587550941e-001	 2.8900928616e+000
 1.5399251308e+000	 3.3053833602e-001	 2.8365123223e+000
 1.5367021164e+000	 3.4521240607e-001	 2.7747403360e+000
 1.5333297541e+000	 3.5989563080e-001	 2.7042653300e+000
 1.5298073104e+000	 3.7458589548e-001	 2.6245386450e+000
 1.5261340886e+000	 3.8928106004e-001	 2.5349743699e+000
 1.5223094298e+000	 4.0397895985e-001	 2.4349492564e+000
 1.5183327136e+000	 4.1867740646e-001	 2.3238027176e+000
 1.5142033591e+000	 4.3337418838e-001	 2.2008369111e+000
 1.5732885894e+000	 2.9114088386e-001	 2.9635506370e+000
 1.5704647400e+000	 3.0600735321e-001	 2.9232936200e+000
 1.5674916232e+000	 3.2088940638e-001	 2.8759327318e+000
 1.5643683868e+000	 3.3578497627e-001	 2.8210236937e+000
 1.5610942135e+000	 3.5069196807e-001	 2.7580840489e+000
 1.5576683217e+000	 3.6560825986e-001	 2.6865928195e+000
 1.5540899661e+000	 3.8053170334e-001	 2.6059902424e+000
 1.5503584392e+000	 3.9546012448e-001	 2.5156775846e+000
 1.5464730715e+000	 4.1039132430e-001	 2.4150170435e+000
 1.5424332329e+000	 4.2532307958e-001	 2.3033317335e+000
 1.5382383331e+000	 4.4025314375e-001	 2.1799057618e+000
 1.5978712237e+000	 2.9568996017e-001	 2.9605585285e+000
 1.5950032516e+000	 3.1078871811e-001	 2.9193014477e+000
 1.5919836798e+000	 3.2590330335e-001	 2.8712159744e+000
 1.5888116429e+000	 3.4103161652e-001	 2.8158516488e+000
 1.5854863106e+000	 3.5617153007e-001	 2.7527180619e+000
 1.5820068892e+000	 3.7132088892e-001	 2.6812844857e+000
 1.5783726218e+000	 3.8647751121e-001	 2.6009795847e+000
 1.5745827898e+000	 4.0163918893e-001	 2.5111912112e+000
 1.5706367133e+000	 4.1680368874e-001	 2.4112662894e+000
 1.5665337522e+000	 4.3196875270e-001	 2.3005107884e+000
 1.5622733070e+000	 4.4713209913e-001	 2.1781897900e+000
 1.6224538579e+000	 3.0023903648e-001	 2.9651333286e+000
 1.6195417632e+000	 3.1557008300e-001	 2.9235208697e+000
 1.6164757364e+000	 3.3091720033e-001	 2.8754566140e+000
 1.6132548989e+000	 3.4627825678e-001	 2.8204838190e+000
 1.6098784077e+000	 3.6165109207e-001	 2.7581039019e+000
 1.6063454567e+000	 3.7703351798e-001	 2.6877760403e+000
 1.6026552775e+000	 3.9242331907e-001	 2.6089168582e+000
 1.5988071404e+000	 4.0781825337e-001	 2.5209001998e+000
 1.5948003550e+000	 4.2321605318e-001	 2.4230569944e+000
 1.5906342714e+000	 4.3861442582e-001	 2.3146752167e+000
 1.5863082810e+000	 4.5401105450e-001	 2.1949999436e+000
 1.6470364921e+000	 3.0478811279e-001	 2.9768519424e+000
 1.6440802747e+000	 3.2035144789e-001	 2.9355035952e+000
 1.6409677930e+000	 3.3593109730e-001	 2.8881815288e+000
 1.6376981549e+000	 3.5152489703e-001	 2.8344226196e+000
 1.6342705048e+000	 3.6713065407e-001	 2.7737198911e+000
 1.6306840242e+000	 3.8274614704e-001	 2.7055220838e+000
 1.6269379333e+000	 3.9836912694e-001	 2.6292333134e+000
 1.6230314910e+000	 4.1399731782e-001	 2.5442128205e+000
 1.6189639967e+000	 4.2962841762e-001	 2.4497748168e+000
 1.6147347907e+000	 4.4526009894e-001	 2.3451884290e+000
 1.6103432550e+000	 4.6089000987e-001	 2.2296777452e+000
 1.6716191263e+000	 3.0933718910e-001	 2.9952998354e+000
 1.6686187863e+000	 3.2513281279e-001	 2.9548115301e+000
 1.6654598497e+000	 3.4094499428e-001	 2.9089295055e+000
 1.6621414110e+000	 3.5677153728e-001	 2.8571841620e+000
 1.6586626019e+000	 3.7261021607e-001	 2.7990599120e+000
 1.6550225918e+000	 3.8845877610e-001	 2.7339947170e+000
 1.6512205890e+000	 4.0431493480e-001	 2.6613797158e+000
 1.6472558416e+000	 4.2017638226e-001	 2.5805589495e+000
 1.6431276385e+000	 4.3604078206e-001	 2.4908291859e+000
 1.6388353100e+000	 4.5190577206e-001	 2.3914398470e+000
 1.6343782289e+000	 4.6776896524e-001	 2.2815930428e+000
 1.6962017605e+000	 3.1388626541e-001	 3.0200704134e+000
 1.6931572979e+000	 3.2991417768e-001	 2.9810160378e+000
 1.6899519063e+000	 3.4595889125e-001	 2.9372503766e+000
 1.6865846670e+000	 3.6201817754e-001	 2.8882972620e+000
 1.6830546990e+000	 3.7808977807e-001	 2.8336322803e+000
 1.6793611593e+000	 3.9417140516e-001	 2.7726822726e+000
 1.6755032447e+000	 4.1026074266e-001	 2.7048249324e+000
 1.6714801922e+000	 4.2635544671e-001	 2.6293885032e+000
 1.6672912802e+000	 4.4245314651e-001	 2.5456515802e+000
 1.6629358292e+000	 4.5855144518e-001	 2.4528430194e+000
 1.6584132029e+000	 4.7464792061e-001	 2.3501419583e+000
 1.7207843947e+000	 3.1843534172e-001	 3.0507644555e+000
 1.7176958094e+000	 3.3469554257e-001	 3.0136972639e+000
 1.7144439629e+000	 3.5097278822e-001	 2.9727042309e+000
 1.7110279231e+000	 3.6726481779e-001	 2.9273025319e+000
 1.7074467960e+000	 3.8356934007e-001	 2.8769587133e+000
 1.7036997268e+000	 3.9988403422e-001	 2.8210881557e+000
 1.6997859004e+000	 4.1620655053e-001	 2.7590546380e+000
 1.6957045429e+000	 4.3253451115e-001	 2.6901700065e+000
 1.6914549220e+000	 4.4886551095e-001	 2.6136939516e+000
 1.6870363485e+000	 4.6519711830e-001	 2.5288338979e+000
 1.6824481768e+000	 4.8152687598e-001	 2.4347450100e+000
 1.4420984373e+000	 4.1273732227e-001	 2.3863240584e+000
 1.4380198337e+000	 4.2673054465e-001	 2.3537489616e+000
 1.4337948692e+000	 4.4071790656e-001	 2.3116315252e+000
 1.4294231071e+000	 4.5469724075e-001	 2.2591902915e+000
 1.4249041518e+000	 4.6866636131e-001	 2.1956091492e+000
 1.4202376483e+000	 4.8262306456e-001	 2.1200378228e+000
 1.4154232836e+000	 4.9656512994e-001	 2.0315924527e+000
 1.4104607872e+000	 5.1049032095e-001	 1.9293562639e+000
 1.4053499316e+000	 5.2439638615e-001	 1.8123803266e+000
 1.4000905329e+000	 5.3828106007e-001	 1.6796844076e+000
 1.3946824516e+000	 5.5214206433e-001	 1.5302579143e+000
 1.4661334112e+000	 4.1961627764e-001	 2.3032688563e+000
 1.4619868310e+000	 4.3384272040e-001	 2.2625421874e+000
 1.4576914503e+000	 4.4806320500e-001	 2.2112853170e+000
 1.4532468256e+000	 4.6227552809e-001	 2.1487018706e+000
 1.4486525543e+000	 4.7647746733e-001	 2.0739601775e+000
 1.4439082757e+000	 4.9066678230e-001	 1.9861937815e+000
 1.4390136716e+000	 5.0484121544e-001	 1.8845020419e+000
 1.4339684670e+000	 5.1899849297e-001	 1.7679508293e+000
 1.4287724304e+000	 5.3313632591e-001	 1.6355733143e+000
 1.4234253751e+000	 5.4725241107e-001	 1.4863708506e+000
 1.4179271591e+000	 5.6134443207e-001	 1.3193139538e+000
 1.4901683852e+000	 4.2649523301e-001	 2.2417053294e+000
 1.4859538282e+000	 4.4095489614e-001	 2.1951156197e+000
 1.4815880315e+000	 4.5540850345e-001	 2.1371269908e+000
 1.4770705440e+000	 4.6985381544e-001	 2.0669267437e+000
 1.4724009568e+000	 4.8428857336e-001	 1.9836660982e+000
 1.4675789032e+000	 4.9871050005e-001	 1.8864607215e+000
 1.4626040597e+000	 5.1311730094e-001	 1.7743913537e+000
 1.4574761468e+000	 5.2750666498e-001	 1.6465045280e+000
 1.4521949293e+000	 5.4187626568e-001	 1.5018133889e+000
 1.4467602173e+000	 5.5622376207e-001	 1.3392986084e+000
 1.4411718666e+000	 5.7054679981e-001	 1.1579093999e+000
 1.5142033591e+000	 4.3337418838e-001	 2.2008369111e+000
 1.5099208254e+000	 4.4806707189e-001	 2.1506138979e+000
 1.5054846126e+000	 4.6275380189e-001	 2.0882411811e+000
 1.5008942625e+000	 4.7743210279e-001	 2.0128883278e+000
 1.4961493594e+000	 4.9209967938e-001	 1.9236878939e+000
 1.4912495307e+000	 5.0675421779e-001	 1.8197359723e+000
 1.4861944478e+000	 5.2139338644e-001	 1.7000928409e+000
 1.4809838265e+000	 5.3601483700e-001	 1.5637837090e+000
 1.4756174281e+000	 5.5061620545e-001	 1.4097995654e+000
 1.4700950595e+000	 5.6519511307e-001	 1.2370981273e+000
 1.4644165742e+000	 5.7974916755e-001	 1.0446048910e+000
 1.5382383331e+000	 4.4025314375e-001	 2.1799057618e+000
 1.5338878227e+000	 4.5517924763e-001	 2.1282252542e+000
 1.5293811938e+000	 4.7009910033e-001	 2.0637611574e+000
 1.5247179809e+000	 4.8501039013e-001	 1.9856638906e+000
 1.5198977619e+000	 4.9991078540e-001	 1.8930457877e+000
 1.5149201581e+000	 5.1479793553e-001	 1.7849816646e+000
 1.5097848358e+000	 5.2966947193e-001	 1.6605094899e+000
 1.5044915063e+000	 5.4452300902e-001	 1.5186311576e+000
 1.4990399270e+000	 5.5935614522e-001	 1.3583133649e+000
 1.4934299018e+000	 5.7416646408e-001	 1.1784885957e+000
 1.4876612817e+000	 5.8895153529e-001	 9.7805620854e-001
 1.5622733070e+000	 4.4713209913e-001	 2.1781897900e+000
 1.5578548199e+000	 4.6229142338e-001	 2.1271781614e+000
 1.5532777749e+000	 4.7744439878e-001	 2.0628650832e+000
 1.5485416994e+000	 4.9258867748e-001	 1.9843804084e+000
 1.5436461644e+000	 5.0772189142e-001	 1.8908146858e+000
 1.5385907856e+000	 5.2284165328e-001	 1.7812197464e+000
 1.5333752239e+000	 5.3794555743e-001	 1.6546093959e+000
 1.5279991861e+000	 5.5303118103e-001	 1.5099602151e+000
 1.5224624259e+000	 5.6809608499e-001	 1.3462124676e+000
 1.5167647440e+000	 5.8313781508e-001	 1.1622711179e+000
 1.5109059892e+000	 5.9815390303e-001	 9.5700695845e-001
 1.5863082810e+000	 4.5401105450e-001	 2.1949999436e+000
 1.5818218171e+000	 4.6940359912e-001	 2.1467382833e+000
 1.5771743561e+000	 4.8478969722e-001	 2.0847726144e+000
 1.5723654179e+000	 5.0016696483e-001	 2.0082108001e+000
 1.5673945670e+000	 5.1553299745e-001	 1.9161200351e+000
 1.5622614131e+000	 5.3088537102e-001	 1.8075274506e+000
 1.5569656119e+000	 5.4622164294e-001	 1.6814208296e+000
 1.5515068659e+000	 5.6153935305e-001	 1.5367494339e+000
 1.5458849247e+000	 5.7683602476e-001	 1.3724249431e+000
 1.5400995862e+000	 5.9210916608e-001	 1.1873225081e+000
 1.5341506967e+000	 6.0735627077e-001	 9.8028191761e-001
 1.6103432550e+000	 4.6089000987e-001	 2.2296777452e+000
 1.6057888143e+000	 4.7651577487e-001	 2.1862057000e+000
 1.6010709372e+000	 4.9213499566e-001	 2.1287418034e+000
 1.5961891363e+000	 5.0774525217e-001	 2.0563704989e+000
 1.5911429695e+000	 5.2334410347e-001	 1.9681340513e+000
 1.5859320406e+000	 5.3892908877e-001	 1.8630331700e+000
 1.5805560000e+000	 5.5449772844e-001	 1.7400277470e+000
 1.5750145457e+000	 5.7004752507e-001	 1.5980377108e+000
 1.5693074236e+000	 5.8557596453e-001	 1.4359439977e+000
 1.5634344284e+000	 6.0108051709e-001	 1.2525896404e+000
 1.5573954043e+000	 6.1655863851e-001	 1.0467809763e+000
 1.6343782289e+000	 4.6776896524e-001	 2.2815930428e+000
 1.6297558116e+000	 4.8362795061e-001	 2.2449123769e+000
 1.6249675184e+000	 4.9948029411e-001	 2.1940662756e+000
 1.6200128548e+000	 5.1532353952e-001	 2.1281143261e+000
 1.6148913720e+000	 5.3115520949e-001	 2.0460722802e+000
 1.6096026680e+000	 5.4697280651e-001	 1.9469126951e+000
 1.6041463881e+000	 5.6277381394e-001	 1.8295656947e+000
 1.5985222255e+000	 5.7855569709e-001	 1.6929198503e+000
 1.5927299224e+000	 5.9431590430e-001	 1.5358231848e+000
 1.5867692706e+000	 6.1005186809e-001	 1.3570842979e+000
 1.5806401118e+000	 6.2576100625e-001	 1.1519334103e+000
 1.6584132029e+000	 4.7464792061e-001	 2.3501419583e+000
 1.6537228088e+000	 4.9074012636e-001	 2.3222198543e+000
 1.6488640995e+000	 5.0682559255e-001	 2.2800726515e+000
 1.6438365732e+000	 5.2290182687e-001	 2.2227336370e+000
 1.6386397745e+000	 5.3896631552e-001	 2.1491904577e+000
 1.6332732955e+000	 5.5501652426e-001	 2.0583857796e+000
 1.6277367761e+000	 5.7104989944e-001	 1.9492180713e+000
 1.6220299053e+000	 5.8706386911e-001	 1.8205425129e+000
 1.6161524213e+000	 6.0305584408e-001	 1.6711720322e+000
 1.6101041128e+000	 6.1902321909e-001	 1.4998784681e+000
 1.6038848193e+000	 6.3496337399e-001	 1.2518421592e+000
 1.6824481768e+000	 4.8152687598e-001	 2.4347450100e+000
 1.6776898060e+000	 4.9785230211e-001	 2.4175171350e+000
 1.6727606807e+000	 5.1417089100e-001	 2.3861181904e+000
 1.6676602917e+000	 5.3048011422e-001	 2.3395537112e+000
 1.6623881771e+000	 5.4677742155e-001	 2.2767816392e+000
 1.6569439230e+000	 5.6306024200e-001	 2.1967130002e+000
 1.6513271642e+000	 5.7932598494e-001	 2.0982127098e+000
 1.6455375851e+000	 5.9557204113e-001	 1.9801005111e+000
 1.6395749202e+000	 6.1179578385e-001	 1.8411520432e+000
 1.6334389551e+000	 6.2799457010e-001	 1.6615096310e+000
 1.6271295268e+000	 6.4416574173e-001	 1.3783166819e+000
 1.3946824516e+000	 5.5214206433e-001	 1.5302579143e+000
 1.3891255928e+000	 5.6597710858e-001	 1.5683927105e+000
 1.3834199070e+000	 5.7978389160e-001	 1.5761840208e+000
 1.3775653904e+000	 5.9356010237e-001	 1.5525904307e+000
 1.3715620856e+000	 6.0730342120e-001	 1.4965582984e+000
 1.3654100816e+000	 6.2101152078e-001	 1.4070232587e+000
 1.3591095148e+000	 6.3468206740e-001	 1.3163523778e+000
 1.3526605688e+000	 6.4831272205e-001	 1.2180905672e+000
 1.3460634750e+000	 6.6190114160e-001	 1.1007772266e+000
 1.3393185129e+000	 6.7544498003e-001	 9.6438496011e-001
 1.3324260102e+000	 6.8894188956e-001	 8.0890502211e-001
 1.4179271591e+000	 5.6134443207e-001	 1.3193139538e+000
 1.4122776860e+000	 5.7541006039e-001	 1.3472300824e+000
 1.4064769054e+000	 5.8944695646e-001	 1.3468175839e+000
 1.4005248136e+000	 6.0345277075e-001	 1.3170033194e+000
 1.3944214536e+000	 6.1742514488e-001	 1.2566986618e+000
 1.3881669163e+000	 6.3136171280e-001	 1.1787230240e+000
 1.3817613401e+000	 6.4526010186e-001	 1.0960151897e+000
 1.3752049116e+000	 6.5911793409e-001	 9.9604408536e-001
 1.3684978662e+000	 6.7293282730e-001	 8.7878566393e-001
 1.3616404881e+000	 6.8670239636e-001	 7.4423329028e-001
 1.3546331104e+000	 7.0042425438e-001	 5.9239771026e-001
 1.4411718666e+000	 5.7054679981e-001	 1.1579093999e+000
 1.4354297792e+000	 5.8484301220e-001	 1.1774320648e+000
 1.4295339039e+000	 5.9911002132e-001	 1.1706341914e+000
 1.4234842367e+000	 6.1334543912e-001	 1.1364082214e+000
 1.4172808217e+000	 6.2754686857e-001	 1.0761061380e+000
 1.4109237510e+000	 6.4171190481e-001	 1.0059725468e+000
 1.4044131653e+000	 6.5583813632e-001	 9.2028322535e-001
 1.3977492544e+000	 6.6992314612e-001	 8.1901986314e-001
 1.3909322575e+000	 6.8396451299e-001	 7.0218042448e-001
 1.3839624633e+000	 6.9795981269e-001	 5.6977909447e-001
 1.3768402106e+000	 7.1190661921e-001	 4.2184620131e-001
 1.4644165742e+000	 5.7974916755e-001	 1.0446048910e+000
 1.4585818724e+000	 5.9427596401e-001	 1.0575632067e+000
 1.4525909023e+000	 6.0877308618e-001	 1.0462060737e+000
 1.4464436599e+000	 6.2323810749e-001	 1.0093888081e+000
 1.4401401898e+000	 6.3766859226e-001	 9.4935220325e-001
 1.4336805857e+000	 6.5206209682e-001	 8.7505732191e-001
 1.4270649905e+000	 6.6641617078e-001	 7.8682245145e-001
 1.4202935972e+000	 6.8072835815e-001	 6.8465246980e-001
 1.4133666487e+000	 6.9499619869e-001	 5.6856741709e-001
 1.4062844385e+000	 7.0921722903e-001	 4.3860239356e-001
 1.3990473107e+000	 7.2338898403e-001	 2.9480743464e-001
 1.4876612817e+000	 5.8895153529e-001	 9.7805620854e-001
 1.4817339656e+000	 6.0370891582e-001	 9.8628507898e-001
 1.4756479008e+000	 6.1843615104e-001	 9.7220420875e-001
 1.4694030831e+000	 6.3313077587e-001	 9.2740520108e-001
 1.4629995579e+000	 6.4779031595e-001	 8.6178580805e-001
 1.4564374204e+000	 6.6241228884e-001	 7.8378040578e-001
 1.4497168158e+000	 6.7699420523e-001	 6.9340292482e-001
 1.4428379400e+000	 6.9153357019e-001	 5.9068150242e-001
 1.4358010400e+000	 7.0602788438e-001	 4.7565835459e-001
 1.4286064137e+000	 7.2047464536e-001	 3.4838962572e-001
 1.4212544109e+000	 7.3487134886e-001	 2.0894521610e-001
 1.5109059892e+000	 5.9815390303e-001	 9.5700695845e-001
 1.5048860588e+000	 6.1314186763e-001	 9.6234881086e-001
 1.4987048992e+000	 6.2809921590e-001	 9.4124962997e-001
 1.4923625062e+000	 6.4302344424e-001	 8.8175097090e-001
 1.4858589260e+000	 6.5791203963e-001	 8.1133941994e-001
 1.4791942551e+000	 6.7276248085e-001	 7.3003992397e-001
 1.4723686410e+000	 6.8757223969e-001	 6.3789078534e-001
 1.4653822828e+000	 7.0233878223e-001	 5.3494350694e-001
 1.4582354312e+000	 7.1705957007e-001	 4.2126261509e-001
 1.4509283889e+000	 7.3173206170e-001	 2.9692546042e-001
 1.4434615111e+000	 7.4635371369e-001	 1.6202199748e-001
 1.5341506967e+000	 6.0735627077e-001	 9.8028191761e-001
 1.5280381520e+000	 6.2257481944e-001	 9.8458830542e-001
 1.5217618977e+000	 6.3776228076e-001	 9.3610305823e-001
 1.5153219294e+000	 6.5291611261e-001	 8.7080948392e-001
 1.5087182941e+000	 6.6803376332e-001	 7.9603230056e-001
 1.5019510898e+000	 6.8311267287e-001	 7.1182186903e-001
 1.4950204663e+000	 6.9815027415e-001	 6.1824097689e-001
 1.4879266257e+000	 7.1314399426e-001	 5.1536463349e-001
 1.4806698225e+000	 7.2809125577e-001	 4.0327984307e-001
 1.4732503641e+000	 7.4298947803e-001	 2.8208535671e-001
 1.4656686112e+000	 7.5783607852e-001	 1.5189140338e-001
 1.5573954043e+000	 6.1655863851e-001	 1.0467809763e+000
 1.5511902453e+000	 6.3200777125e-001	 1.0258645090e+000
 1.5448188961e+000	 6.4742534562e-001	 9.6336952845e-001
 1.5382813526e+000	 6.6280878099e-001	 8.9271465563e-001
 1.5315776622e+000	 6.7815548701e-001	 8.1396402853e-001
 1.5247079245e+000	 6.9346286488e-001	 7.2719354318e-001
 1.5176722915e+000	 7.0872830861e-001	 6.3249062024e-001
 1.5104709685e+000	 7.2394920630e-001	 5.2995394952e-001
 1.5031042137e+000	 7.3912294146e-001	 4.1969321314e-001
 1.4955723393e+000	 7.5424689437e-001	 3.0182878786e-001
 1.4878757114e+000	 7.6931844334e-001	 1.7649142724e-001
 1.5806401118e+000	 6.2576100625e-001	 1.1519334103e+000
 1.5743423385e+000	 6.4144072306e-001	 1.0900712423e+000
 1.5678758946e+000	 6.5708841048e-001	 1.0212915451e+000
 1.5612407758e+000	 6.7270144936e-001	 9.4567377768e-001
 1.5544370303e+000	 6.8827721070e-001	 8.6330859369e-001
 1.5474647592e+000	 7.0381305690e-001	 7.7429757972e-001
 1.5403241168e+000	 7.1930634307e-001	 6.7875297058e-001
 1.5330153113e+000	 7.3475441833e-001	 5.7679734296e-001
 1.5255386050e+000	 7.5015462716e-001	 4.6856328804e-001
 1.5178943146e+000	 7.6550431070e-001	 3.5419306381e-001
 1.5100828116e+000	 7.8080080817e-001	 2.3383822776e-001
 1.6038848193e+000	 6.3496337399e-001	 1.2518421592e+000
 1.5974944317e+000	 6.5087367487e-001	 1.1828408873e+000
 1.5909328930e+000	 6.6675147534e-001	 1.1081786058e+000
 1.5842001989e+000	 6.8259411774e-001	 1.0279622008e+000
 1.5772963984e+000	 6.9839893439e-001	 9.4230900505e-001
 1.5702215939e+000	 7.1416324891e-001	 8.5134648421e-001
 1.5629759420e+000	 7.2988437753e-001	 7.5521190059e-001
 1.5555596541e+000	 7.4555963037e-001	 6.5405195550e-001
 1.5479729962e+000	 7.6118631286e-001	 5.4802241088e-001
 1.5402162898e+000	 7.7676172704e-001	 4.3728769090e-001
 1.5322899118e+000	 7.9228317300e-001	 3.2202046474e-001
 1.6271295268e+000	 6.4416574173e-001	 1.3783166819e+000
 1.6206465249e+000	 6.6030662669e-001	 1.3025799801e+000
 1.6139898915e+000	 6.7641454021e-001	 1.2224024157e+000
 1.6071596221e+000	 6.9248678611e-001	 1.1379184733e+000
 1.6001557665e+000	 7.0852065808e-001	 1.0492723608e+000
 1.5929784285e+000	 7.2451344093e-001	 9.5661764362e-001
 1.5856277673e+000	 7.4046241198e-001	 8.6011685628e-001
 1.5781039969e+000	 7.5636484241e-001	 7.5994109306e-001
 1.5704073875e+000	 7.7221799855e-001	 6.5626957791e-001
 1.5625382650e+000	 7.8801914338e-001	 5.4928921492e-001
 1.5544970119e+000	 8.0376553783e-001	 4.3919412044e-001
 1.3324260102e+000	 6.8894188956e-001	 8.0890502211e-001
 1.3253863434e+000	 7.0238952194e-001	 7.1532922499e-001
 1.3181999376e+000	 7.1578552965e-001	 6.1915307767e-001
 1.3108672667e+000	 7.2912756712e-001	 5.2045752917e-001
 1.3033888536e+000	 7.4241329201e-001	 4.1932811661e-001
 1.2957652706e+000	 7.5564036645e-001	 3.1585469758e-001
 1.2879971388e+000	 7.6880645833e-001	 2.1013117450e-001
 1.2800851286e+000	 7.8190924254e-001	 1.0225521168e-001
 1.2720299594e+000	 7.9494640225e-001	-7.6720541840e-003
 1.2638323996e+000	 8.0791563023e-001	-1.1954630908e-001
 1.2554932668e+000	 8.2081463007e-001	-2.3326036164e-001
 1.3546331104e+000	 7.0042425438e-001	 5.9239771026e-001
 1.3474761158e+000	 7.1409601397e-001	 5.0250155697e-001
 1.3401699365e+000	 7.2771528847e-001	 4.1088174064e-001
 1.3327150544e+000	 7.4127969323e-001	 3.1760522402e-001
 1.3251120012e+000	 7.5478684687e-001	 2.2274263735e-001
 1.3173613584e+000	 7.6823437256e-001	 1.2636800520e-001
 1.3094637578e+000	 7.8161989930e-001	 2.8558466433e-002
 1.3014198807e+000	 7.9494106324e-001	-7.0606011920e-002
 1.2932304587e+000	 8.0819550895e-001	-1.7104292594e-001
 1.2848962730e+000	 8.2138089073e-001	-2.7266753051e-001
 1.2764181546e+000	 8.3449487390e-001	-3.7539313836e-001
 1.3768402106e+000	 7.1190661921e-001	 4.2184620131e-001
 1.3695658882e+000	 7.2580250600e-001	 3.3450678784e-001
 1.3621399355e+000	 7.3964504730e-001	 2.4629651781e-001
 1.3545628422e+000	 7.5343181935e-001	 1.5726928664e-001
 1.3468351487e+000	 7.6716040174e-001	 6.7481753329e-002
 1.3389574463e+000	 7.8082837866e-001	-2.3006939569e-002
 1.3309303768e+000	 7.9443334027e-001	-1.1413545153e-001
 1.3227546328e+000	 8.0797288395e-001	-2.0584053456e-001
 1.3144309580e+000	 8.2144461565e-001	-2.9805732766e-001
 1.3059601463e+000	 8.3484615123e-001	-3.9071965427e-001
 1.2973430424e+000	 8.4817511773e-001	-4.8376032187e-001
 1.3990473107e+000	 7.2338898403e-001	 2.9480743464e-001
 1.3916556606e+000	 7.3750899804e-001	 2.0894487762e-001
 1.3841099345e+000	 7.5157480613e-001	 1.2304189418e-001
 1.3764106300e+000	 7.6558394547e-001	 3.7140225468e-002
 1.3685582963e+000	 7.7953395660e-001	-4.8716512246e-002
 1.3605535341e+000	 7.9342238477e-001	-1.3448311544e-001
 1.3523969957e+000	 8.0724678124e-001	-2.2011308583e-001
 1.3440893850e+000	 8.2100470466e-001	-3.0555892652e-001
 1.3356314573e+000	 8.3469372236e-001	-3.9077244081e-001
 1.3270240196e+000	 8.4831141173e-001	-4.7570503284e-001
 1.3182679302e+000	 8.6185536157e-001	-5.6030800898e-001
 1.4212544109e+000	 7.3487134886e-001	 2.0894521610e-001
 1.4137454330e+000	 7.4921549007e-001	 1.2351898300e-001
 1.4060799334e+000	 7.6350456496e-001	 3.8861801072e-002
 1.3982584178e+000	 7.7773607159e-001	-4.4995834434e-002
 1.3902814439e+000	 7.9190751147e-001	-1.2802242691e-001
 1.3821496220e+000	 8.0601639088e-001	-2.1018577552e-001
 1.3738636147e+000	 8.2006022222e-001	-2.9145327569e-001
 1.3654241371e+000	 8.3403652537e-001	-3.7179222226e-001
 1.3568319566e+000	 8.4794282906e-001	-4.5117011392e-001
 1.3480878930e+000	 8.6177667223e-001	-5.2955495832e-001
 1.3391928179e+000	 8.7553560540e-001	-6.0691557655e-001
 1.4434615111e+000	 7.4635371369e-001	 1.6202199748e-001
 1.4358352054e+000	 7.6092198210e-001	 7.6027519146e-002
 1.4280499324e+000	 7.7543432378e-001	-8.4080336741e-003
 1.4201062055e+000	 7.8988819771e-001	-9.1264506472e-002
 1.4120045914e+000	 8.0428106634e-001	-1.7252160353e-001
 1.4037457098e+000	 8.1861039699e-001	-2.5215919545e-001
 1.3953302337e+000	 8.3287366319e-001	-3.3015762906e-001
 1.3867588893e+000	 8.4706834608e-001	-4.0649803865e-001
 1.3780324560e+000	 8.6119193577e-001	-4.8116265747e-001
 1.3691517663e+000	 8.7524193274e-001	-5.5413512858e-001
 1.3601177057e+000	 8.8921584923e-001	-6.2540081377e-001
 1.4656686112e+000	 7.5783607852e-001	 1.5189140338e-001
 1.4579249778e+000	 7.7262847414e-001	 6.4356943133e-002
 1.4500199313e+000	 7.8736408261e-001	-2.0847039934e-002
 1.4419539933e+000	 8.0204032383e-001	-1.0370982901e-001
 1.4337277390e+000	 8.1665462121e-001	-1.8422141347e-001
 1.4253417977e+000	 8.3120440310e-001	-2.6237280806e-001
 1.4167968527e+000	 8.4568710416e-001	-3.3815637343e-001
 1.4080936414e+000	 8.6010016679e-001	-4.1156613681e-001
 1.3992329553e+000	 8.7444104247e-001	-4.8259811187e-001
 1.3902156396e+000	 8.8870719324e-001	-5.5125061656e-001
 1.3810425935e+000	 9.0289609307e-001	-6.1752458790e-001
 1.4878757114e+000	 7.6931844334e-001	 1.7649142724e-001
 1.4800147502e+000	 7.8433496617e-001	 8.6475183656e-002
 1.4719899303e+000	 7.9929384144e-001	-4.5613682882e-004
 1.4638017811e+000	 8.1419244995e-001	-8.4300353070e-002
 1.4554508865e+000	 8.2902817608e-001	-1.6505682558e-001
 1.4469378855e+000	 8.4379840921e-001	-2.4272678866e-001
 1.4382634717e+000	 8.5850054514e-001	-3.1731368278e-001
 1.4294283936e+000	 8.7313198750e-001	-3.8882348608e-001
 1.4204334546e+000	 8.8769014918e-001	-4.5726504378e-001
 1.4112795129e+000	 9.0217245375e-001	-5.2265039450e-001
 1.4019674813e+000	 9.1657633690e-001	-5.8499509217e-001
 1.5100828116e+000	 7.8080080817e-001	 2.3383822776e-001
 1.5021045226e+000	 7.9604145821e-001	 1.4042565047e-001
 1.4939599293e+000	 8.1122360028e-001	 5.0836494429e-002
 1.4856495689e+000	 8.2634457607e-001	-3.4934692854e-002
 1.4771740341e+000	 8.4140173095e-001	-1.1689572988e-001
 1.4685339734e+000	 8.5639241532e-001	-1.9505714749e-001
 1.4597300906e+000	 8.7131398611e-001	-2.6943253444e-001
 1.4507631457e+000	 8.8616380821e-001	-3.4003888094e-001
 1.4416339539e+000	 9.0093925588e-001	-4.0689691912e-001
 1.4323433863e+000	 9.1563771425e-001	-4.7003145900e-001
 1.4228923691e+000	 9.3025658074e-001	-5.2947171889e-001
 1.5322899118e+000	 7.9228317300e-001	 3.2202046474e-001
 1.5241942950e+000	 8.0774795024e-001	 2.2432176475e-001
 1.5159299282e+000	 8.2315335911e-001	 1.3117013967e-001
 1.5074973567e+000	 8.3849670220e-001	 4.2553406357e-002
 1.4988971817e+000	 8.5377528582e-001	-4.1543798337e-002
 1.4901300612e+000	 8.6898642143e-001	-1.2114037938e-001
 1.4811967096e+000	 8.8412742709e-001	-1.9625914360e-001
 1.4720978979e+000	 8.9919562892e-001	-2.6692715670e-001
 1.4628344533e+000	 9.1418836259e-001	-3.3317609596e-001
 1.4534072596e+000	 9.2910297476e-001	-3.9504259733e-001
 1.4438172569e+000	 9.4393682457e-001	-4.5256859574e-001
 1.5544970119e+000	 8.0376553783e-001	 4.3919412044e-001
 1.5462840674e+000	 8.1945444228e-001	 3.3634195828e-001
 1.5378999272e+000	 8.3508311794e-001	 2.3874673270e-001
 1.5293451444e+000	 8.5064882832e-001	 1.4639043471e-001
 1.5206203292e+000	 8.6614884069e-001	 5.9251070976e-002
 1.5117261490e+000	 8.8158042754e-001	-2.2697714817e-002
 1.5026633286e+000	 8.9694086807e-001	-9.9487017789e-002
 1.4934326500e+000	 9.1222744964e-001	-1.7115304364e-001
 1.4840349526e+000	 9.2743746930e-001	-2.3773747500e-001
 1.4744711329e+000	 9.4256823526e-001	-2.9928783104e-001
 1.4647421446e+000	 9.5761706841e-001	-3.5585781892e-001
 1.2554932668e+000	 8.2081463007e-001	-2.3326036164e-001
 1.2470134270e+000	 8.3364111751e-001	-3.5390027508e-001
 1.2383937949e+000	 8.4639282171e-001	-4.4442464945e-001
 1.2296353336e+000	 8.5906748650e-001	-5.2646907974e-001
 1.2207390541e+000	 8.7166287168e-001	-6.0011720325e-001
 1.2117060152e+000	 8.8417675429e-001	-6.6546983463e-001
 1.2025373230e+000	 8.9660692987e-001	-7.2264439783e-001
 1.1932341309e+000	 9.0895121369e-001	-7.7177431452e-001
 1.1837976384e+000	 9.2120744201e-001	-8.1300835058e-001
 1.1742290915e+000	 9.3337347334e-001	-8.4650992239e-001
 1.1645297814e+000	 9.4544718961e-001	-8.7245636465e-001
 1.2764181546e+000	 8.3449487390e-001	-3.7539313836e-001
 1.2677969841e+000	 8.4753513614e-001	-4.8699821187e-001
 1.2590336915e+000	 8.6049936873e-001	-6.0493979158e-001
 1.2501292558e+000	 8.7338527793e-001	-7.2894305818e-001
 1.2410847050e+000	 8.8619058620e-001	-7.8766488202e-001
 1.2319011154e+000	 8.9891303353e-001	-8.3575946272e-001
 1.2225796118e+000	 9.1155037870e-001	-8.7439932037e-001
 1.2131213664e+000	 9.2410040058e-001	-9.0384877047e-001
 1.2035275991e+000	 9.3656089938e-001	-9.2438952036e-001
 1.1937995763e+000	 9.4892969790e-001	-9.3631981414e-001
 1.1839386111e+000	 9.6120464277e-001	-9.3995353508e-001
 1.2973430424e+000	 8.4817511773e-001	-4.8376032187e-001
 1.2885805413e+000	 8.6142915476e-001	-5.7651486093e-001
 1.2796735881e+000	 8.7460591576e-001	-6.7482477806e-001
 1.2706231781e+000	 8.8770306937e-001	-7.7849815645e-001
 1.2614303559e+000	 9.0071830073e-001	-8.8733781934e-001
 1.2520962157e+000	 9.1364931276e-001	-1.0011417295e+000
 1.2426219005e+000	 9.2649382753e-001	-1.0451783483e+000
 1.2330086019e+000	 9.3924958748e-001	-1.0592311429e+000
 1.2232575597e+000	 9.5191435675e-001	-1.0633467026e+000
 1.2133700612e+000	 9.6448592246e-001	-1.0579575620e+000
 1.2033474407e+000	 9.7696209593e-001	-1.0435136454e+000
 1.3182679302e+000	 8.6185536157e-001	-5.6030800898e-001
 1.3093640984e+000	 8.7532317338e-001	-6.3859285705e-001
 1.3003134847e+000	 8.8871246279e-001	-7.2167131024e-001
 1.2911171003e+000	 9.0202086081e-001	-8.0943187404e-001
 1.2817760068e+000	 9.1524601526e-001	-9.0175904928e-001
 1.2722913159e+000	 9.2838559200e-001	-9.9853366529e-001
 1.2626641892e+000	 9.4143727636e-001	-1.0996332149e+000
 1.2528958375e+000	 9.5439877437e-001	-1.2049321903e+000
 1.2429875204e+000	 9.6726781412e-001	-1.2296641536e+000
 1.2329405461e+000	 9.8004214701e-001	-1.2109481377e+000
 1.2227562704e+000	 9.9271954909e-001	-1.1824013232e+000
 1.3391928179e+000	 8.7553560540e-001	-6.0691557655e-001
 1.3301476555e+000	 8.8921719201e-001	-6.7491207094e-001
 1.3209533813e+000	 9.0281900981e-001	-7.4695810830e-001
 1.3116110225e+000	 9.1633865225e-001	-8.2302022002e-001
 1.3021216577e+000	 9.2977372978e-001	-9.0306217712e-001
 1.2924864162e+000	 9.4312187124e-001	-9.8704525963e-001
 1.2827064779e+000	 9.5638072519e-001	-1.0749285256e+000
 1.2727830730e+000	 9.6954796126e-001	-1.1666690785e+000
 1.2627174810e+000	 9.8262127148e-001	-1.2622223331e+000
 1.2525110309e+000	 9.9559837157e-001	-1.3615422768e+000
 1.2421651001e+000	 1.0084770023e+000	-1.3559590629e+000
 1.3601177057e+000	 8.8921584923e-001	-6.2540081377e-001
 1.3509312126e+000	 9.0311121063e-001	-6.8710385283e-001
 1.3415932779e+000	 9.1692555684e-001	-7.5212851761e-001
 1.3321049447e+000	 9.3065644369e-001	-8.2051704671e-001
 1.3224673086e+000	 9.4430144431e-001	-8.9231015309e-001
 1.3126815164e+000	 9.5785815047e-001	-9.6754723221e-001
 1.3027487666e+000	 9.7132417402e-001	-1.0462665675e+000
 1.2926703085e+000	 9.8469714816e-001	-1.1285055322e+000
 1.2824474417e+000	 9.9797472885e-001	-1.2143007869e+000
 1.2720815158e+000	 1.0111545961e+000	-1.3036884715e+000
 1.2615739298e+000	 1.0242344554e+000	-1.3967043917e+000
 1.3810425935e+000	 9.0289609307e-001	-6.1752458790e-001
 1.3717147697e+000	 9.1700522925e-001	-6.7675470829e-001
 1.3622331744e+000	 9.3103210387e-001	-7.3859318866e-001
 1.3525988670e+000	 9.4497423513e-001	-8.0315572823e-001
 1.3428129595e+000	 9.5882915883e-001	-8.7055772719e-001
 1.3328766167e+000	 9.7259442971e-001	-9.4091443602e-001
 1.3227910554e+000	 9.8626762285e-001	-1.0143410999e+000
 1.3125575440e+000	 9.9984633505e-001	-1.0909530973e+000
 1.3021774023e+000	 1.0133281862e+000	-1.1708660720e+000
 1.2916520006e+000	 1.0267108207e+000	-1.2541960580e+000
 1.2809827595e+000	 1.0399919086e+000	-1.3410595958e+000
 1.4019674813e+000	 9.1657633690e-001	-5.8499509217e-001
 1.3924983268e+000	 9.3089924788e-001	-6.4540964485e-001
 1.3828730710e+000	 9.4513865090e-001	-7.0773251695e-001
 1.3730927892e+000	 9.5929202657e-001	-7.7215068875e-001
 1.3631586104e+000	 9.7335687336e-001	-8.3885206121e-001
 1.3530717169e+000	 9.8733070895e-001	-9.0802554901e-001
 1.3428333441e+000	 1.0012110717e+000	-9.7986116621e-001
 1.3324447795e+000	 1.0149955219e+000	-1.0545501041e+000
 1.3219073629e+000	 1.0286816436e+000	-1.1322848001e+000
 1.3112224855e+000	 1.0422670452e+000	-1.2132589976e+000
 1.3003915892e+000	 1.0557493617e+000	-1.2976677955e+000
 1.4228923691e+000	 9.3025658074e-001	-5.2947171889e-001
 1.4132818840e+000	 9.4479326650e-001	-5.9457522331e-001
 1.4035129676e+000	 9.5924519792e-001	-6.6089886764e-001
 1.3935867114e+000	 9.7360981801e-001	-7.2869879580e-001
 1.3835042613e+000	 9.8788458789e-001	-7.9823328662e-001
 1.3732668172e+000	 1.0020669882e+000	-8.6976279278e-001
 1.3628756328e+000	 1.0161545205e+000	-9.4354997027e-001
 1.3523320150e+000	 1.0301447088e+000	-1.0198596977e+000
 1.3416373236e+000	 1.0440351009e+000	-1.0989590846e+000
 1.3307929704e+000	 1.0578232698e+000	-1.1811174685e+000
 1.3198004189e+000	 1.0715068149e+000	-1.2666064000e+000
 1.4438172569e+000	 9.4393682457e-001	-4.5256859574e-001
 1.4340654411e+000	 9.5868728513e-001	-5.2572234376e-001
 1.4241528642e+000	 9.7335174495e-001	-5.9941860671e-001
 1.4140806337e+000	 9.8792760946e-001	-6.7398063257e-001
 1.4038499122e+000	 1.0024123024e+000	-7.4973501404e-001
 1.3934619174e+000	 1.0168032674e+000	-8.2701167583e-001
 1.3829179215e+000	 1.0310979693e+000	-9.0614385013e-001
 1.3722192506e+000	 1.0452938957e+000	-9.8746803976e-001
 1.3613672842e+000	 1.0593885583e+000	-1.0713239683e+000
 1.3503634552e+000	 1.0733794943e+000	-1.1580545166e+000
 1.3392092486e+000	 1.0872642681e+000	-1.2480056456e+000
 1.4647421446e+000	 9.5761706841e-001	-3.5585781892e-001
 1.4548489982e+000	 9.7258130376e-001	-4.4028879275e-001
 1.4447927608e+000	 9.8745829198e-001	-5.2459395808e-001
 1.4345745559e+000	 1.0022454009e+000	-6.0916166101e-001
 1.4241955631e+000	 1.0169400169e+000	-6.9438479901e-001
 1.4136570177e+000	 1.0315395467e+000	-7.8066075876e-001
 1.4029602102e+000	 1.0460414182e+000	-8.6839133997e-001
 1.3921064861e+000	 1.0604430826e+000	-9.5798266470e-001
 1.3810972449e+000	 1.0747420157e+000	-1.0498450715e+000
 1.3699339401e+000	 1.0889357189e+000	-1.1443929937e+000
 1.3586180783e+000	 1.1030217212e+000	-1.2420448221e+000
 1.1645297814e+000	 9.4544718961e-001	-8.7245636465e-001
 1.1547010445e+000	 9.5742649739e-001	-9.8467230543e-001
 1.1447442616e+000	 9.6930932910e-001	-1.0890205812e+000
 1.1346608574e+000	 9.8109364418e-001	-1.1861430492e+000
 1.1244522996e+000	 9.9277743021e-001	-1.2766940863e+000
 1.1141200983e+000	 1.0043587041e+000	-1.3613392347e+000
 1.1036658055e+000	 1.0158355131e+000	-1.4407538185e+000
 1.0930910140e+000	 1.0272059361e+000	-1.5156215364e+000
 1.0823973566e+000	 1.0384680844e+000	-1.5866330326e+000
 1.0715865057e+000	 1.0496201031e+000	-1.6544844496e+000
 1.0606601718e+000	 1.0606601718e+000	-1.7198759674e+000
 1.1839386111e+000	 9.6120464277e-001	-9.3995353508e-001
 1.1739460619e+000	 9.7338360568e-001	-1.0483426830e+000
 1.1638233327e+000	 9.8546448459e-001	-1.1482698033e+000
 1.1535718717e+000	 9.9744520492e-001	-1.2403720150e+000
 1.1431931713e+000	 1.0093237207e+000	-1.3252998345e+000
 1.1326887666e+000	 1.0210980158e+000	-1.4037157935e+000
 1.1220602356e+000	 1.0327661050e+000	-1.4762930271e+000
 1.1113091975e+000	 1.0443260351e+000	-1.5437138355e+000
 1.1004373125e+000	 1.0557758859e+000	-1.6066682221e+000
 1.0894462808e+000	 1.0671137715e+000	-1.6658524133e+000
 1.0783378413e+000	 1.0783378413e+000	-1.7219673624e+000
 1.2033474407e+000	 9.7696209593e-001	-1.0435136454e+000
 1.1931910793e+000	 9.8934071397e-001	-1.1448320237e+000
 1.1829024037e+000	 1.0016196401e+000	-1.2370757727e+000
 1.1724828860e+000	 1.0137967657e+000	-1.3208804395e+000
 1.1619340429e+000	 1.0258700112e+000	-1.3968958783e+000
 1.1512574349e+000	 1.0378373276e+000	-1.4657848354e+000
 1.1404546657e+000	 1.0496966969e+000	-1.5282215051e+000
 1.1295273811e+000	 1.0614461340e+000	-1.5848900551e+000
 1.1184772685e+000	 1.0730836873e+000	-1.6364831289e+000
 1.1073060559e+000	 1.0846074399e+000	-1.6837003271e+000
 1.0960155108e+000	 1.0960155108e+000	-1.7272466718e+000
 1.2227562704e+000	 9.9271954909e-001	-1.1824013232e+000
 1.2124360967e+000	 1.0052978223e+000	-1.2734990260e+000
 1.2019814747e+000	 1.0177747956e+000	-1.3548905250e+000
 1.1913939003e+000	 1.0301483264e+000	-1.4272129434e+000
 1.1806749146e+000	 1.0424163017e+000	-1.4911186518e+000
 1.1698261033e+000	 1.0545766393e+000	-1.5472738191e+000
 1.1588490958e+000	 1.0666272888e+000	-1.5963569287e+000
 1.1477455647e+000	 1.0785662329e+000	-1.6390572662e+000
 1.1365172244e+000	 1.0903914887e+000	-1.6760733798e+000
 1.1251658309e+000	 1.1021011083e+000	-1.7081115192e+000
 1.1136931804e+000	 1.1136931804e+000	-1.7358840565e+000
 1.2421651001e+000	 1.0084770023e+000	-1.3559590629e+000
 1.2316811141e+000	 1.0212549306e+000	-1.4337727513e+000
 1.2210605457e+000	 1.0339299511e+000	-1.5012289706e+000
 1.2103049146e+000	 1.0464998871e+000	-1.5589695517e+000
 1.1994157862e+000	 1.0589625922e+000	-1.6076525464e+000
 1.1883947716e+000	 1.0713159510e+000	-1.6479507384e+000
 1.1772435259e+000	 1.0835578807e+000	-1.6805501180e+000
 1.1659637482e+000	 1.0956863319e+000	-1.7061483252e+000
 1.1545571804e+000	 1.1076992901e+000	-1.7254530650e+000
 1.1430256060e+000	 1.1195947767e+000	-1.7391804999e+000
 1.1313708499e+000	 1.1313708499e+000	-1.7480536214e+000
 1.2615739298e+000	 1.0242344554e+000	-1.3967043917e+000
 1.2509261315e+000	 1.0372120388e+000	-1.6112904022e+000
 1.2401396168e+000	 1.0500851065e+000	-1.6756640575e+000
 1.2292159289e+000	 1.0628514479e+000	-1.7158014321e+000
 1.2181566579e+000	 1.0755088827e+000	-1.7462262211e+000
 1.2069634399e+000	 1.0880552628e+000	-1.7676210050e+000
 1.1956379560e+000	 1.1004884726e+000	-1.7806824873e+000
 1.1841819318e+000	 1.1128064308e+000	-1.7861198897e+000
 1.1725971363e+000	 1.1250070915e+000	-1.7846533177e+000
 1.1608853811e+000	 1.1370884451e+000	-1.7770121008e+000
 1.1490485194e+000	 1.1490485194e+000	-1.7639331127e+000
 1.2809827595e+000	 1.0399919086e+000	-1.3410595958e+000
 1.2701711489e+000	 1.0531691471e+000	-1.5345997655e+000
 1.2592186878e+000	 1.0662402620e+000	-1.7304119290e+000
 1.2481269432e+000	 1.0792030086e+000	-1.8974070204e+000
 1.2368975296e+000	 1.0920551733e+000	-1.9066092493e+000
 1.2255321082e+000	 1.1047945745e+000	-1.9061246128e+000
 1.2140323861e+000	 1.1174190645e+000	-1.8966637272e+000
 1.2024001154e+000	 1.1299265297e+000	-1.8789506162e+000
 1.1906370923e+000	 1.1423148929e+000	-1.8537210229e+000
 1.1787451562e+000	 1.1545821135e+000	-1.8217206938e+000
 1.1667261890e+000	 1.1667261890e+000	-1.7837036412e+000
 1.3003915892e+000	 1.0557493617e+000	-1.2976677955e+000
 1.2894161663e+000	 1.0691262554e+000	-1.4679623799e+000
 1.2782977588e+000	 1.0823954175e+000	-1.6404559592e+000
 1.2670379575e+000	 1.0955545694e+000	-1.8148272389e+000
 1.2556384012e+000	 1.1086014638e+000	-1.9907573174e+000
 1.2441007765e+000	 1.1215338863e+000	-2.0633335582e+000
 1.2324268162e+000	 1.1343496563e+000	-2.0284296946e+000
 1.2206182989e+000	 1.1470466287e+000	-1.9846395179e+000
 1.2086770482e+000	 1.1596226943e+000	-1.9327176424e+000
 1.1966049313e+000	 1.1720757818e+000	-1.8734294784e+000
 1.1844038585e+000	 1.1844038585e+000	-1.8075494322e+000
 1.3198004189e+000	 1.0715068149e+000	-1.2666064000e+000
 1.3086611837e+000	 1.0850833637e+000	-1.4115520179e+000
 1.2973768299e+000	 1.0985505730e+000	-1.5586139375e+000
 1.2859489718e+000	 1.1119061301e+000	-1.7074259527e+000
 1.2743792729e+000	 1.1251477543e+000	-1.8576247155e+000
 1.2626694448e+000	 1.1382731980e+000	-2.0088503405e+000
 1.2508212463e+000	 1.1512802482e+000	-2.1607469949e+000
 1.2388364825e+000	 1.1641667276e+000	-2.1032044678e+000
 1.2267170042e+000	 1.1769304957e+000	-2.0217181422e+000
 1.2144647064e+000	 1.1895694502e+000	-1.9322698328e+000
 1.2020815280e+000	 1.2020815280e+000	-1.8356575957e+000
 1.3392092486e+000	 1.0872642681e+000	-1.2480056456e+000
 1.3279062012e+000	 1.1010404720e+000	-1.3655901880e+000
 1.3164559009e+000	 1.1147057285e+000	-1.4851979839e+000
 1.3048599860e+000	 1.1282576908e+000	-1.6064185080e+000
 1.2931201445e+000	 1.1416940448e+000	-1.7288445815e+000
 1.2812381131e+000	 1.1550125097e+000	-1.8520730374e+000
 1.2692156764e+000	 1.1682108401e+000	-1.9757053697e+000
 1.2570546661e+000	 1.1812868266e+000	-2.0993483652e+000
 1.2447569601e+000	 1.1942382971e+000	-2.1208100147e+000
 1.2323244815e+000	 1.2070631186e+000	-1.9983807217e+000
 1.2197591976e+000	 1.2197591976e+000	-1.8682179178e+000
 1.3586180783e+000	 1.1030217212e+000	-1.2420448221e+000
 1.3471512186e+000	 1.1169975803e+000	-1.3303427256e+000
 1.3355349719e+000	 1.1308608840e+000	-1.4205598269e+000
 1.3237710003e+000	 1.1446092516e+000	-1.5122418274e+000
 1.3118610162e+000	 1.1582403353e+000	-1.6049382857e+000
 1.2998067814e+000	 1.1717518215e+000	-1.6982033443e+000
 1.2876101065e+000	 1.1851414320e+000	-1.7915964380e+000
 1.2752728496e+000	 1.1984069255e+000	-1.8846829840e+000
 1.2627969161e+000	 1.2115460986e+000	-1.9770350515e+000
 1.2501842566e+000	 1.2245567870e+000	-2.0682320086e+000
 1.2374368671e+000	 1.2374368671e+000	-1.9054226691e+000
 1.0606601718e+000	 1.0606601718e+000	-1.7198759674e+000
 1.0496201031e+000	 1.0715865057e+000	-1.8051136035e+000
 1.0384680844e+000	 1.0823973566e+000	-1.8844126994e+000
 1.0272059361e+000	 1.0930910140e+000	-1.9585727138e+000
 1.0158355131e+000	 1.1036658055e+000	-2.0283965564e+000
 1.0043587041e+000	 1.1141200983e+000	-2.0946889964e+000
 9.9277743021e-001	 1.1244522996e+000	-2.1582550713e+000
 9.8109364418e-001	 1.1346608574e+000	-2.2198985019e+000
 9.6930932910e-001	 1.1447442616e+000	-2.2804201148e+000
 9.5742649739e-001	 1.1547010445e+000	-2.3406162779e+000
 9.4544718961e-001	 1.1645297814e+000	-2.4012773525e+000
 1.0783378413e+000	 1.0783378413e+000	-1.7219673624e+000
 1.0671137715e+000	 1.0894462808e+000	-1.8018699142e+000
 1.0557758859e+000	 1.1004373125e+000	-1.8756487923e+000
 1.0443260351e+000	 1.1113091975e+000	-1.9440901260e+000
 1.0327661050e+000	 1.1220602356e+000	-2.0079837096e+000
 1.0210980158e+000	 1.1326887666e+000	-2.0681213892e+000
 1.0093237207e+000	 1.1431931713e+000	-2.1252954486e+000
 9.9744520492e-001	 1.1535718717e+000	-2.1802970019e+000
 9.8546448459e-001	 1.1638233327e+000	-2.2339143933e+000
 9.7338360568e-001	 1.1739460619e+000	-2.2869316101e+000
 9.6120464277e-001	 1.1839386111e+000	-2.3401267128e+000
 1.0960155108e+000	 1.0960155108e+000	-1.7272466718e+000
 1.0846074399e+000	 1.1073060559e+000	-1.7977173947e+000
 1.0730836873e+000	 1.1184772685e+000	-1.8618799499e+000
 1.0614461340e+000	 1.1295273811e+000	-1.9205108250e+000
 1.0496966969e+000	 1.1404546657e+000	-1.9743903829e+000
 1.0378373276e+000	 1.1512574349e+000	-2.0243012211e+000
 1.0258700112e+000	 1.1619340429e+000	-2.0710265307e+000
 1.0137967657e+000	 1.1724828860e+000	-2.1153484612e+000
 1.0016196401e+000	 1.1829024037e+000	-2.1580464932e+000
 9.8934071397e-001	 1.1931910793e+000	-2.1998958243e+000
 9.7696209593e-001	 1.2033474407e+000	-2.2416657722e+000
 1.1136931804e+000	 1.1136931804e+000	-1.7358840565e+000
 1.1021011083e+000	 1.1251658309e+000	-1.7929510001e+000
 1.0903914887e+000	 1.1365172244e+000	-1.8435256766e+000
 1.0785662329e+000	 1.1477455647e+000	-1.8883785880e+000
 1.0666272888e+000	 1.1588490958e+000	-1.9282843179e+000
 1.0545766393e+000	 1.1698261033e+000	-1.9640198581e+000
 1.0424163017e+000	 1.1806749146e+000	-1.9963629366e+000
 1.0301483264e+000	 1.1913939003e+000	-2.0260903493e+000
 1.0177747956e+000	 1.2019814747e+000	-2.0539763010e+000
 1.0052978223e+000	 1.2124360967e+000	-2.0807907599e+000
 9.9271954909e-001	 1.2227562704e+000	-2.1072978285e+000
 1.1313708499e+000	 1.1313708499e+000	-1.7480536214e+000
 1.1195947767e+000	 1.1430256060e+000	-1.7878600117e+000
 1.1076992901e+000	 1.1545571804e+000	-1.8209901955e+000
 1.0956863319e+000	 1.1659637482e+000	-1.8482123178e+000
 1.0835578807e+000	 1.1772435259e+000	-1.8702988077e+000
 1.0713159510e+000	 1.1883947716e+000	-1.8880246679e+000
 1.0589625922e+000	 1.1994157862e+000	-1.9021657657e+000
 1.0464998871e+000	 1.2103049146e+000	-1.9134971279e+000
 1.0339299511e+000	 1.2210605457e+000	-1.9227912453e+000
 1.0212549306e+000	 1.2316811141e+000	-1.9308163900e+000
 1.0084770023e+000	 1.2421651001e+000	-1.9383349513e+000
 1.1490485194e+000	 1.1490485194e+000	-1.7639331127e+000
 1.1370884451e+000	 1.1608853811e+000	-1.7827284736e+000
 1.1250070915e+000	 1.1725971363e+000	-1.7946636233e+000
 1.1128064308e+000	 1.1841819318e+000	-1.8005079556e+000
 1.1004884726e+000	 1.1956379560e+000	-1.8010353469e+000
 1.0880552628e+000	 1.2069634399e+000	-1.7970224044e+000
 1.0755088827e+000	 1.2181566579e+000	-1.7892467148e+000
 1.0628514479e+000	 1.2292159289e+000	-1.7784850980e+000
 1.0500851065e+000	 1.2401396168e+000	-1.7655118699e+000
 1.0372120388e+000	 1.2509261315e+000	-1.7658976832e+000
 1.0242344554e+000	 1.2615739298e+000	-1.9160915787e+000
 1.1667261890e+000	 1.1667261890e+000	-1.7837036412e+000
 1.1545821135e+000	 1.1787451562e+000	-1.7778355894e+000
 1.1423148929e+000	 1.1906370923e+000	-1.7649230396e+000
 1.1299265297e+000	 1.2024001154e+000	-1.7457402211e+000
 1.1174190645e+000	 1.2140323861e+000	-1.7210660407e+000
 1.1047945745e+000	 1.2255321082e+000	-1.6916822847e+000
 1.0920551733e+000	 1.2368975296e+000	-1.6583718208e+000
 1.0792030086e+000	 1.2481269432e+000	-1.6219168058e+000
 1.0662402620e+000	 1.2592186878e+000	-1.7384001181e+000
 1.0531691471e+000	 1.2701711489e+000	-1.8749402658e+000
 1.0399919086e+000	 1.2809827595e+000	-1.9992323800e+000
 1.1844038585e+000	 1.1844038585e+000	-1.8075494322e+000
 1.1720757818e+000	 1.1966049313e+000	-1.7734560835e+000
 1.1596226943e+000	 1.2086770482e+000	-1.7321334594e+000
 1.1470466287e+000	 1.2206182989e+000	-1.6843641958e+000
 1.1343496563e+000	 1.2324268162e+000	-1.6309357977e+000
 1.1215338863e+000	 1.2441007765e+000	-1.5726387900e+000
 1.1086014638e+000	 1.2556384012e+000	-1.6113499783e+000
 1.0955545694e+000	 1.2670379575e+000	-1.7450197716e+000
 1.0823954175e+000	 1.2782977588e+000	-1.8661570159e+000
 1.0691262554e+000	 1.2894161663e+000	-1.9746045892e+000
 1.0557493617e+000	 1.3003915892e+000	-2.0702110525e+000
 1.2020815280e+000	 1.2020815280e+000	-1.8356575957e+000
 1.1895694502e+000	 1.2144647064e+000	-1.7698605306e+000
 1.1769304957e+000	 1.2267170042e+000	-1.6966487206e+000
 1.1641667276e+000	 1.2388364825e+000	-1.6168167674e+000
 1.1512802482e+000	 1.2508212463e+000	-1.5465987177e+000
 1.1382731980e+000	 1.2626694448e+000	-1.6758795955e+000
 1.1251477543e+000	 1.2743792729e+000	-1.7925709978e+000
 1.1119061301e+000	 1.2859489718e+000	-1.8964591610e+000
 1.0985505730e+000	 1.2973768299e+000	-1.9873356635e+000
 1.0850833637e+000	 1.3086611837e+000	-2.0649976924e+000
 1.0715068149e+000	 1.3198004189e+000	-2.1292483130e+000
 1.2197591976e+000	 1.2197591976e+000	-1.8682179178e+000
 1.2070631186e+000	 1.2323244815e+000	-1.7673156559e+000
 1.1942382971e+000	 1.2447569601e+000	-1.6588122934e+000
 1.1812868266e+000	 1.2570546661e+000	-1.6796916986e+000
 1.1682108401e+000	 1.2692156764e+000	-1.7900417238e+000
 1.1550125097e+000	 1.2812381131e+000	-1.8876965795e+000
 1.1416940448e+000	 1.2931201445e+000	-1.9723926952e+000
 1.1282576908e+000	 1.3048599860e+000	-2.0438715857e+000
 1.1147057285e+000	 1.3164559009e+000	-2.1018801665e+000
 1.1010404720e+000	 1.3279062012e+000	-2.1461710736e+000
 1.0872642681e+000	 1.3392092486e+000	-2.1765029865e+000
 1.2374368671e+000	 1.2374368671e+000	-1.9054226691e+000
 1.2245567870e+000	 1.2501842566e+000	-1.7697317913e+000
 1.2115460986e+000	 1.2627969161e+000	-1.8712647498e+000
 1.1984069255e+000	 1.2752728496e+000	-1.9604230796e+000
 1.1851414320e+000	 1.2876101065e+000	-2.0368906119e+000
 1.1717518215e+000	 1.2998067814e+000	-2.1003555228e+000
 1.1582403353e+000	 1.3118610162e+000	-2.1505106898e+000
 1.1446092516e+000	 1.3237710003e+000	-2.1870540533e+000
 1.1308608840e+000	 1.3355349719e+000	-2.2096889845e+000
 1.1169975803e+000	 1.3471512186e+000	-2.2181246579e+000
 1.1030217212e+000	 1.3586180783e+000	-2.2120764270e+000
 9.4544718961e-001	 1.1645297814e+000	-2.4012773525e+000
 9.3337347334e-001	 1.1742290915e+000	-2.3849033703e+000
 9.2120744201e-001	 1.1837976384e+000	-2.3664387436e+000
 9.0895121369e-001	 1.1932341309e+000	-2.3462095586e+000
 8.9660692987e-001	 1.2025373230e+000	-2.3245363986e+000
 8.8417675429e-001	 1.2117060152e+000	-2.3017333685e+000
 8.7166287168e-001	 1.2207390541e+000	-2.2781071445e+000
 8.5906748650e-001	 1.2296353336e+000	-2.2539560526e+000
 8.4639282171e-001	 1.2383937949e+000	-2.2295691770e+000
 8.3364111751e-001	 1.2470134270e+000	-2.2052255016e+000
 8.2081463007e-001	 1.2554932668e+000	-2.2165237186e+000
 9.6120464277e-001	 1.1839386111e+000	-2.3401267128e+000
 9.4892969790e-001	 1.1937995763e+000	-2.2966405860e+000
 9.3656089938e-001	 1.2035275991e+000	-2.2520147720e+000
 9.2410040058e-001	 1.2131213664e+000	-2.2067190887e+000
 9.1155037870e-001	 1.2225796118e+000	-2.1612160089e+000
 8.9891303353e-001	 1.2319011154e+000	-2.1159595100e+000
 8.8619058620e-001	 1.2410847050e+000	-2.0713939539e+000
 8.7338527793e-001	 1.2501292558e+000	-2.0291523105e+000
 8.6049936873e-001	 1.2590336915e+000	-2.0635414523e+000
 8.4753513614e-001	 1.2677969841e+000	-2.0857695799e+000
 8.3449487390e-001	 1.2764181546e+000	-2.0957738135e+000
 9.7696209593e-001	 1.2033474407e+000	-2.2416657722e+000
 9.6448592246e-001	 1.2133700612e+000	-2.1753551319e+000
 9.5191435675e-001	 1.2232575597e+000	-2.1088489449e+000
 9.3924958748e-001	 1.2330086019e+000	-2.0427603585e+000
 9.2649382753e-001	 1.2426219005e+000	-1.9776933246e+000
 9.1364931276e-001	 1.2520962157e+000	-1.9377415212e+000
 9.0071830073e-001	 1.2614303559e+000	-1.9738598682e+000
 8.8770306937e-001	 1.2706231781e+000	-1.9988620939e+000
 8.7460591576e-001	 1.2796735881e+000	-2.0127609417e+000
 8.6142915476e-001	 1.2885805413e+000	-2.0155763306e+000
 8.4817511773e-001	 1.2973430424e+000	-2.0073354146e+000
 9.9271954909e-001	 1.2227562704e+000	-2.1072978285e+000
 9.8004214701e-001	 1.2329405461e+000	-2.0221801186e+000
 9.6726781412e-001	 1.2429875204e+000	-1.9378057054e+000
 9.5439877437e-001	 1.2528958375e+000	-1.8925180261e+000
 9.4143727636e-001	 1.2626641892e+000	-1.9314940777e+000
 9.2838559200e-001	 1.2722913159e+000	-1.9600292087e+000
 9.1524601526e-001	 1.2817760068e+000	-1.9782161159e+000
 9.0202086081e-001	 1.2911171003e+000	-1.9861530991e+000
 8.8871246279e-001	 1.3003134847e+000	-1.9839440442e+000
 8.7532317338e-001	 1.3093640984e+000	-1.9716984063e+000
 8.6185536157e-001	 1.3182679302e+000	-1.9495311915e+000
 1.0084770023e+000	 1.2421651001e+000	-1.9383349513e+000
 9.9559837157e-001	 1.2525110309e+000	-1.8747673584e+000
 9.8262127148e-001	 1.2627174810e+000	-1.9187241430e+000
 9.6954796126e-001	 1.2727830730e+000	-1.9525430884e+000
 9.5638072519e-001	 1.2827064779e+000	-1.9764002072e+000
 9.4312187124e-001	 1.2924864162e+000	-1.9904758875e+000
 9.2977372978e-001	 1.3021216577e+000	-1.9949547895e+000
 9.1633865225e-001	 1.3116110225e+000	-1.9900257442e+000
 9.0281900981e-001	 1.3209533813e+000	-1.9758816554e+000
 8.8921719201e-001	 1.3301476555e+000	-1.9527194039e+000
 8.7553560540e-001	 1.3391928179e+000	-1.9207397543e+000
 1.0242344554e+000	 1.2615739298e+000	-1.9160915787e+000
 1.0111545961e+000	 1.2720815158e+000	-1.9579289887e+000
 9.9797472885e-001	 1.2824474417e+000	-1.9898209179e+000
 9.8469714816e-001	 1.2926703085e+000	-2.0120325688e+000
 9.7132417402e-001	 1.3027487666e+000	-2.0248324573e+000
 9.5785815047e-001	 1.3126815164e+000	-2.0284922178e+000
 9.4430144431e-001	 1.3224673086e+000	-2.0232864153e+000
 9.3065644369e-001	 1.3321049447e+000	-2.0094923623e+000
 9.1692555684e-001	 1.3415932779e+000	-1.9873899413e+000
 9.0311121063e-001	 1.3509312126e+000	-1.9572614332e+000
 8.8921584923e-001	 1.3601177057e+000	-1.9193913508e+000
 1.0399919086e+000	 1.2809827595e+000	-1.9992323800e+000
 1.0267108207e+000	 1.2916520006e+000	-2.0325492807e+000
 1.0133281862e+000	 1.3021774023e+000	-2.0562740475e+000
 9.9984633505e-001	 1.3125575440e+000	-2.0707635711e+000
 9.8626762285e-001	 1.3227910554e+000	-2.0763768865e+000
 9.7259442971e-001	 1.3328766167e+000	-2.0734748943e+000
 9.5882915883e-001	 1.3428129595e+000	-2.0624200894e+000
 9.4497423513e-001	 1.3525988670e+000	-2.0435762980e+000
 9.3103210387e-001	 1.3622331744e+000	-2.0173084234e+000
 9.1700522925e-001	 1.3717147697e+000	-1.9839821996e+000
 9.0289609307e-001	 1.3810425935e+000	-1.9439639537e+000
 1.0557493617e+000	 1.3003915892e+000	-2.0702110525e+000
 1.0422670452e+000	 1.3112224855e+000	-2.0987320550e+000
 1.0286816436e+000	 1.3219073629e+000	-2.1180050921e+000
 1.0149955219e+000	 1.3324447795e+000	-2.1284768396e+000
 1.0012110717e+000	 1.3428333441e+000	-2.1305949496e+000
 9.8733070895e-001	 1.3530717169e+000	-2.1248076884e+000
 9.7335687336e-001	 1.3631586104e+000	-2.1115635841e+000
 9.5929202657e-001	 1.3730927892e+000	-2.0913110864e+000
 9.4513865090e-001	 1.3828730710e+000	-2.0644982364e+000
 9.3089924788e-001	 1.3924983268e+000	-2.0315723478e+000
 9.1657633690e-001	 1.4019674813e+000	-1.9929797001e+000
 1.0715068149e+000	 1.3198004189e+000	-2.1292483130e+000
 1.0578232698e+000	 1.3307929704e+000	-2.1565254754e+000
 1.0440351009e+000	 1.3416373236e+000	-2.1748909700e+000
 1.0301447088e+000	 1.3523320150e+000	-2.1848794327e+000
 1.0161545205e+000	 1.3628756328e+000	-2.1870253067e+000
 1.0020669882e+000	 1.3732668172e+000	-2.1818623981e+000
 9.8788458789e-001	 1.3835042613e+000	-2.1699234457e+000
 9.7360981801e-001	 1.3935867114e+000	-2.1517397037e+000
 9.5924519792e-001	 1.4035129676e+000	-2.1278405385e+000
 9.4479326650e-001	 1.4132818840e+000	-2.0987530393e+000
 9.3025658074e-001	 1.4228923691e+000	-2.0650016433e+000
 1.0872642681e+000	 1.3392092486e+000	-2.1765029865e+000
 1.0733794943e+000	 1.3503634552e+000	-2.2059260814e+000
 1.0593885583e+000	 1.3613672842e+000	-2.2267671926e+000
 1.0452938957e+000	 1.3722192506e+000	-2.2396471639e+000
 1.0310979693e+000	 1.3829179215e+000	-2.2451854747e+000
 1.0168032674e+000	 1.3934619174e+000	-2.2439997160e+000
 1.0024123024e+000	 1.4038499122e+000	-2.2367050828e+000
 9.8792760946e-001	 1.4140806337e+000	-2.2239138826e+000
 9.7335174495e-001	 1.4241528642e+000	-2.2062350606e+000
 9.5868728513e-001	 1.4340654411e+000	-2.1842737414e+000
 9.4393682457e-001	 1.4438172569e+000	-2.1586307881e+000
 1.1030217212e+000	 1.3586180783e+000	-2.2120764270e+000
 1.0889357189e+000	 1.3699339401e+000	-2.2468824756e+000
 1.0747420157e+000	 1.3810972449e+000	-2.2734308218e+000
 1.0604430826e+000	 1.3921064861e+000	-2.2924268333e+000
 1.0460414182e+000	 1.4029602102e+000	-2.3045733381e+000
 1.0315395467e+000	 1.4136570177e+000	-2.3105700224e+000
 1.0169400169e+000	 1.4241955631e+000	-2.3111128479e+000
 1.0022454009e+000	 1.4345745559e+000	-2.3068934874e+000
 9.8745829198e-001	 1.4447927608e+000	-2.2985987798e+000
 9.7258130376e-001	 1.4548489982e+000	-2.2869102053e+000
 9.5761706841e-001	 1.4647421446e+000	-2.2725033803e+000
 8.2081463007e-001	 1.2554932668e+000	-2.2165237186e+000
 8.0791563023e-001	 1.2638323996e+000	-2.2554024780e+000
 7.9494640225e-001	 1.2720299594e+000	-2.2871902274e+000
 7.8190924254e-001	 1.2800851286e+000	-2.3119607044e+000
 7.6880645833e-001	 1.2879971388e+000	-2.3297918108e+000
 7.5564036645e-001	 1.2957652706e+000	-2.3407656310e+000
 7.4241329201e-001	 1.3033888536e+000	-2.3449684507e+000
 7.2912756712e-001	 1.3108672667e+000	-2.3424907719e+000
 7.1578552965e-001	 1.3181999376e+000	-2.3334273277e+000
 7.0238952194e-001	 1.3253863434e+000	-2.3178770931e+000
 6.8894188956e-001	 1.3324260102e+000	-2.2959432941e+000
 8.3449487390e-001	 1.2764181546e+000	-2.0957738135e+000
 8.2138089073e-001	 1.2848962730e+000	-2.1230728171e+000
 8.0819550895e-001	 1.2932304587e+000	-2.1441911283e+000
 7.9494106324e-001	 1.3014198807e+000	-2.1592170031e+000
 7.8161989930e-001	 1.3094637578e+000	-2.1682417642e+000
 7.6823437256e-001	 1.3173613584e+000	-2.1713598222e+000
 7.5478684687e-001	 1.3251120012e+000	-2.1686686978e+000
 7.4127969323e-001	 1.3327150544e+000	-2.1602690430e+000
 7.2771528847e-001	 1.3401699365e+000	-2.1462646621e+000
 7.1409601397e-001	 1.3474761158e+000	-2.1267625320e+000
 7.0042425438e-001	 1.3546331104e+000	-2.1018728209e+000
 8.4817511773e-001	 1.2973430424e+000	-2.0073354146e+000
 8.3484615123e-001	 1.3059601463e+000	-2.0236574626e+000
 8.2144461565e-001	 1.3144309580e+000	-2.0346878003e+000
 8.0797288395e-001	 1.3227546328e+000	-2.0405287688e+000
 7.9443334027e-001	 1.3309303768e+000	-2.0412846853e+000
 7.8082837866e-001	 1.3389574463e+000	-2.0370618680e+000
 7.6716040174e-001	 1.3468351487e+000	-2.0279686620e+000
 7.5343181935e-001	 1.3545628422e+000	-2.0141154677e+000
 7.3964504730e-001	 1.3621399355e+000	-1.9956147686e+000
 7.2580250600e-001	 1.3695658882e+000	-1.9725811616e+000
 7.1190661921e-001	 1.3768402106e+000	-1.9451313858e+000
 8.6185536157e-001	 1.3182679302e+000	-1.9495311915e+000
 8.4831141173e-001	 1.3270240196e+000	-1.9554480179e+000
 8.3469372236e-001	 1.3356314573e+000	-1.9569425262e+000
 8.2100470466e-001	 1.3440893850e+000	-1.9541307131e+000
 8.0724678124e-001	 1.3523969957e+000	-1.9471294671e+000
 7.9342238477e-001	 1.3605535341e+000	-1.9360565965e+000
 7.7953395660e-001	 1.3685582963e+000	-1.9210308610e+000
 7.6558394547e-001	 1.3764106300e+000	-1.9021720066e+000
 7.5157480613e-001	 1.3841099345e+000	-1.8796008021e+000
 7.3750899804e-001	 1.3916556606e+000	-1.8534390789e+000
 7.2338898403e-001	 1.3990473107e+000	-1.8238097710e+000
 8.7553560540e-001	 1.3391928179e+000	-1.9207397543e+000
 8.6177667223e-001	 1.3480878930e+000	-1.9167945095e+000
 8.4794282906e-001	 1.3568319566e+000	-1.9092784082e+000
 8.3403652537e-001	 1.3654241371e+000	-1.8983206768e+000
 8.2006022222e-001	 1.3738636147e+000	-1.8840503533e+000
 8.0601639088e-001	 1.3821496220e+000	-1.8665963201e+000
 7.9190751147e-001	 1.3902814439e+000	-1.8460873409e+000
 7.7773607159e-001	 1.3982584178e+000	-1.8226521031e+000
 7.6350456496e-001	 1.4060799334e+000	-1.7964192640e+000
 7.4921549007e-001	 1.4137454330e+000	-1.7675175001e+000
 7.3487134886e-001	 1.4212544109e+000	-1.7360755598e+000
 8.8921584923e-001	 1.3601177057e+000	-1.9193913508e+000
 8.7524193274e-001	 1.3691517663e+000	-1.9061008932e+000
 8.6119193577e-001	 1.3780324560e+000	-1.8900746901e+000
 8.4706834608e-001	 1.3867588893e+000	-1.8714547739e+000
 8.3287366319e-001	 1.3953302337e+000	-1.8503819121e+000
 8.1861039699e-001	 1.4037457098e+000	-1.8269956446e+000
 8.0428106634e-001	 1.4120045914e+000	-1.8014343278e+000
 7.8988819771e-001	 1.4201062055e+000	-1.7738351846e+000
 7.7543432378e-001	 1.4280499324e+000	-1.7443343603e+000
 7.6092198210e-001	 1.4358352054e+000	-1.7130669832e+000
 7.4635371369e-001	 1.4434615111e+000	-1.6801672299e+000
 9.0289609307e-001	 1.3810425935e+000	-1.9439639537e+000
 8.8870719324e-001	 1.3902156396e+000	-1.9218209685e+000
 8.7444104247e-001	 1.3992329553e+000	-1.8977625041e+000
 8.6010016679e-001	 1.4080936414e+000	-1.8719429773e+000
 8.4568710416e-001	 1.4167968527e+000	-1.8445144655e+000
 8.3120440310e-001	 1.4253417977e+000	-1.8156267497e+000
 8.1665462121e-001	 1.4337277390e+000	-1.7854273658e+000
 8.0204032383e-001	 1.4419539933e+000	-1.7540616634e+000
 7.8736408261e-001	 1.4500199313e+000	-1.7216728722e+000
 7.7262847414e-001	 1.4579249778e+000	-1.6884021741e+000
 7.5783607852e-001	 1.4656686112e+000	-1.6543887818e+000
 9.1657633690e-001	 1.4019674813e+000	-1.9929797001e+000
 9.0217245375e-001	 1.4112795129e+000	-1.9624546586e+000
 8.8769014918e-001	 1.4204334546e+000	-1.9308209980e+000
 8.7313198750e-001	 1.4294283936e+000	-1.8982450989e+000
 8.5850054514e-001	 1.4382634717e+000	-1.8648899289e+000
 8.4379840921e-001	 1.4469378855e+000	-1.8309150926e+000
 8.2902817608e-001	 1.4554508865e+000	-1.7964768902e+000
 8.1419244995e-001	 1.4638017811e+000	-1.7617283862e+000
 7.9929384144e-001	 1.4719899303e+000	-1.7268194868e+000
 7.8433496617e-001	 1.4800147502e+000	-1.6918970242e+000
 7.6931844334e-001	 1.4878757114e+000	-1.6571048494e+000
 9.3025658074e-001	 1.4228923691e+000	-2.0650016433e+000
 9.1563771425e-001	 1.4323433863e+000	-2.0265446193e+000
 9.0093925588e-001	 1.4416339539e+000	-1.9877738054e+000
 8.8616380821e-001	 1.4507631457e+000	-1.9488671255e+000
 8.7131398611e-001	 1.4597300906e+000	-1.9099980176e+000
 8.5639241532e-001	 1.4685339734e+000	-1.8713354905e+000
 8.4140173095e-001	 1.4771740341e+000	-1.8330441912e+000
 8.2634457607e-001	 1.4856495689e+000	-1.7952844840e+000
 8.1122360028e-001	 1.4939599293e+000	-1.7582125389e+000
 7.9604145821e-001	 1.5021045226e+000	-1.7219804298e+000
 7.8080080817e-001	 1.5100828116e+000	-1.6867362416e+000
 9.4393682457e-001	 1.4438172569e+000	-2.1586307881e+000
 9.2910297476e-001	 1.4534072596e+000	-2.1126731423e+000
 9.1418836259e-001	 1.4628344533e+000	-2.0671858215e+000
 8.9919562892e-001	 1.4720978979e+000	-2.0223578724e+000
 8.8412742709e-001	 1.4811967096e+000	-1.9783727826e+000
 8.6898642143e-001	 1.4901300612e+000	-1.9354085438e+000
 8.5377528582e-001	 1.4988971817e+000	-1.8936377293e+000
 8.3849670220e-001	 1.5074973567e+000	-1.8532275836e+000
 8.2315335911e-001	 1.5159299282e+000	-1.8143401235e+000
 8.0774795024e-001	 1.5241942950e+000	-1.7771322502e+000
 7.9228317300e-001	 1.5322899118e+000	-1.7417558718e+000
 9.5761706841e-001	 1.4647421446e+000	-2.2725033803e+000
 9.4256823526e-001	 1.4744711329e+000	-2.2194593242e+000
 9.2743746930e-001	 1.4840349526e+000	-2.1676602559e+000
 9.1222744964e-001	 1.4934326500e+000	-2.1173059246e+000
 8.9694086807e-001	 1.5026633286e+000	-2.0685894442e+000
 8.8158042754e-001	 1.5117261490e+000	-2.0216973659e+000
 8.6614884069e-001	 1.5206203292e+000	-1.9768097653e+000
 8.5064882832e-001	 1.5293451444e+000	-1.9341003435e+000
 8.3508311794e-001	 1.5378999272e+000	-1.8937365417e+000
 8.1945444228e-001	 1.5462840674e+000	-1.8558796681e+000
 8.0376553783e-001	 1.5544970119e+000	-1.8206850358e+000
 6.8894188956e-001	 1.3324260102e+000	-2.2959432941e+000
 6.7544498003e-001	 1.3393185129e+000	-2.2723217485e+000
 6.6190114160e-001	 1.3460634750e+000	-2.2293980801e+000
 6.4831272205e-001	 1.3526605688e+000	-2.1675663870e+000
 6.3468206740e-001	 1.3591095148e+000	-2.0872335064e+000
 6.2101152078e-001	 1.3654100816e+000	-2.0204117678e+000
 6.0730342120e-001	 1.3715620856e+000	-2.0032915839e+000
 5.9356010237e-001	 1.3775653904e+000	-1.9549185204e+000
 5.7978389160e-001	 1.3834199070e+000	-1.8764988131e+000
 5.6597710858e-001	 1.3891255928e+000	-1.7692281427e+000
 5.5214206433e-001	 1.3946824516e+000	-1.6342899808e+000
 7.0042425438e-001	 1.3546331104e+000	-2.1018728209e+000
 6.8670239636e-001	 1.3616404881e+000	-2.0865928887e+000
 6.7293282730e-001	 1.3684978662e+000	-2.0534870279e+000
 6.5911793409e-001	 1.3752049116e+000	-2.0029155616e+000
 6.4526010186e-001	 1.3817613401e+000	-1.9352506036e+000
 6.3136171280e-001	 1.3881669163e+000	-1.8508757159e+000
 6.1742514488e-001	 1.3944214536e+000	-1.8030921700e+000
 6.0345277075e-001	 1.4005248136e+000	-1.7732130839e+000
 5.8944695646e-001	 1.4064769054e+000	-1.7146824189e+000
 5.7541006039e-001	 1.4122776860e+000	-1.6287095058e+000
 5.6134443207e-001	 1.4179271591e+000	-1.5164890975e+000
 7.1190661921e-001	 1.3768402106e+000	-1.9451313858e+000
 6.9795981269e-001	 1.3839624633e+000	-1.9366248655e+000
 6.8396451299e-001	 1.3909322575e+000	-1.9117304616e+000
 6.6992314612e-001	 1.3977492544e+000	-1.8707753492e+000
 6.5583813632e-001	 1.4044131653e+000	-1.8140975580e+000
 6.4171190481e-001	 1.4109237510e+000	-1.7420456838e+000
 6.2754686857e-001	 1.4172808217e+000	-1.6549785906e+000
 6.1334543912e-001	 1.4234842367e+000	-1.6240329217e+000
 5.9911002132e-001	 1.4295339039e+000	-1.5825218848e+000
 5.8484301220e-001	 1.4354297792e+000	-1.5149743433e+000
 5.7054679981e-001	 1.4411718666e+000	-1.4225993819e+000
 7.2338898403e-001	 1.3990473107e+000	-1.8238097710e+000
 7.0921722903e-001	 1.4062844385e+000	-1.8205872225e+000
 6.9499619869e-001	 1.4133666487e+000	-1.8023790299e+000
 6.8072835815e-001	 1.4202935972e+000	-1.7694797930e+000
 6.6641617078e-001	 1.4270649905e+000	-1.7221940426e+000
 6.5206209682e-001	 1.4336805857e+000	-1.6608360041e+000
 6.3766859226e-001	 1.4401401898e+000	-1.5857293536e+000
 6.2323810749e-001	 1.4464436599e+000	-1.5071238838e+000
 6.0877308618e-001	 1.4525909023e+000	-1.4798051541e+000
 5.9427596401e-001	 1.4585818724e+000	-1.4278554856e+000
 5.7974916755e-001	 1.4644165742e+000	-1.3525013381e+000
 7.3487134886e-001	 1.4212544109e+000	-1.7360755598e+000
 7.2047464536e-001	 1.4286064137e+000	-1.7367221242e+000
 7.0602788438e-001	 1.4358010400e+000	-1.7237516912e+000
 6.9153357019e-001	 1.4428379400e+000	-1.6974268078e+000
 6.7699420523e-001	 1.4497168158e+000	-1.6580190382e+000
 6.6241228884e-001	 1.4564374204e+000	-1.6058087805e+000
 6.4779031595e-001	 1.4629995579e+000	-1.5410850763e+000
 6.3313077587e-001	 1.4694030831e+000	-1.4641454121e+000
 6.1843615104e-001	 1.4756479008e+000	-1.4063600314e+000
 6.0370891582e-001	 1.4817339656e+000	-1.3672204794e+000
 5.8895153529e-001	 1.4876612817e+000	-1.3061049331e+000
 7.4635371369e-001	 1.4434615111e+000	-1.6801672299e+000
 7.3173206170e-001	 1.4509283889e+000	-1.6833387696e+000
 7.1705957007e-001	 1.4582354312e+000	-1.6742304594e+000
 7.0233878223e-001	 1.4653822828e+000	-1.6530732665e+000
 6.8757223969e-001	 1.4723686410e+000	-1.6201062713e+000
 6.7276248085e-001	 1.4791942551e+000	-1.5755765372e+000
 6.5791203963e-001	 1.4858589260e+000	-1.5197389729e+000
 6.4302344424e-001	 1.4923625062e+000	-1.4528561877e+000
 6.2809921590e-001	 1.4987048992e+000	-1.3751983394e+000
 6.1314186763e-001	 1.5048860588e+000	-1.3329689172e+000
 5.9815390303e-001	 1.5109059892e+000	-1.2833473304e+000
 7.5783607852e-001	 1.4656686112e+000	-1.6543887818e+000
 7.4298947803e-001	 1.4732503641e+000	-1.6588083140e+000
 7.2809125577e-001	 1.4806698225e+000	-1.6522556268e+000
 7.1314399426e-001	 1.4879266257e+000	-1.6349305339e+000
 6.9815027415e-001	 1.4950204663e+000	-1.6070400674e+000
 6.8311267287e-001	 1.5019510898e+000	-1.5687983998e+000
 6.6803376332e-001	 1.5087182941e+000	-1.5204267599e+000
 6.5291611261e-001	 1.5153219294e+000	-1.4621533407e+000
 6.3776228076e-001	 1.5217618977e+000	-1.3942132019e+000
 6.2257481944e-001	 1.5280381520e+000	-1.3250300094e+000
 6.0735627077e-001	 1.5341506967e+000	-1.2841908300e+000
 7.6931844334e-001	 1.4878757114e+000	-1.6571048494e+000
 7.5424689437e-001	 1.4955723393e+000	-1.6615592455e+000
 7.3912294146e-001	 1.5031042137e+000	-1.6563214148e+000
 7.2394920630e-001	 1.5104709685e+000	-1.6415603997e+000
 7.0872830861e-001	 1.5176722915e+000	-1.6174515739e+000
 6.9346286488e-001	 1.5247079245e+000	-1.5841766171e+000
 6.7815548701e-001	 1.5315776622e+000	-1.5419234835e+000
 6.6280878099e-001	 1.5382813526e+000	-1.4908863637e+000
 6.4742534562e-001	 1.5448188961e+000	-1.4312656403e+000
 6.3200777125e-001	 1.5511902453e+000	-1.3632678357e+000
 6.1655863851e-001	 1.5573954043e+000	-1.3086209924e+000
 7.8080080817e-001	 1.5100828116e+000	-1.6867362416e+000
 7.6550431070e-001	 1.5178943146e+000	-1.6900731691e+000
 7.5015462716e-001	 1.5255386050e+000	-1.6849720089e+000
 7.3475441833e-001	 1.5330153113e+000	-1.6715713713e+000
 7.1930634307e-001	 1.5403241168e+000	-1.6500153183e+000
 7.0381305690e-001	 1.5474647592e+000	-1.6204533904e+000
 6.8827721070e-001	 1.5544370303e+000	-1.5830406283e+000
 6.7270144936e-001	 1.5612407758e+000	-1.5379375879e+000
 6.5708841048e-001	 1.5678758946e+000	-1.4853103497e+000
 6.4144072306e-001	 1.5743423385e+000	-1.4253305207e+000
 6.2576100625e-001	 1.5806401118e+000	-1.3581752293e+000
 7.9228317300e-001	 1.5322899118e+000	-1.7417558718e+000
 7.7676172704e-001	 1.5402162898e+000	-1.7428809580e+000
 7.6118631286e-001	 1.5479729962e+000	-1.7367979375e+000
 7.4555963037e-001	 1.5555596541e+000	-1.7236152879e+000
 7.2988437753e-001	 1.5629759420e+000	-1.7034460640e+000
 7.1416324891e-001	 1.5702215939e+000	-1.6764079787e+000
 6.9839893439e-001	 1.5772963984e+000	-1.6426234767e+000
 6.8259411774e-001	 1.5842001989e+000	-1.6022198035e+000
 6.6675147534e-001	 1.5909328930e+000	-1.5553290685e+000
 6.5087367487e-001	 1.5974944317e+000	-1.5020883003e+000
 6.3496337399e-001	 1.6038848193e+000	-1.4426394962e+000
 8.0376553783e-001	 1.5544970119e+000	-1.8206850358e+000
 7.8801914338e-001	 1.5625382650e+000	-1.8185592339e+000
 7.7221799855e-001	 1.5704073875e+000	-1.8104327626e+000
 7.5636484241e-001	 1.5781039969e+000	-1.7963842258e+000
 7.4046241198e-001	 1.5856277673e+000	-1.7764959369e+000
 7.2451344093e-001	 1.5929784285e+000	-1.7508540513e+000
 7.0852065808e-001	 1.6001557665e+000	-1.7195486946e+000
 6.9248678611e-001	 1.6071596221e+000	-1.6826740842e+000
 6.7641454021e-001	 1.6139898915e+000	-1.6403286466e+000
 6.6030662669e-001	 1.6206465249e+000	-1.5926151266e+000
 6.4416574173e-001	 1.6271295268e+000	-1.5396406907e+000
 5.5214206433e-001	 1.3946824516e+000	-1.6342899808e+000
 5.3828106007e-001	 1.4000905329e+000	-1.6250990947e+000
 5.2439638615e-001	 1.4053499316e+000	-1.6049901393e+000
 5.1049032095e-001	 1.4104607872e+000	-1.5747342518e+000
 4.9656512994e-001	 1.4154232836e+000	-1.5350744124e+000
 4.8262306456e-001	 1.4202376483e+000	-1.4867246884e+000
 4.6866636131e-001	 1.4249041518e+000	-1.4303695592e+000
 4.5469724075e-001	 1.4294231071e+000	-1.3666633226e+000
 4.4071790656e-001	 1.4337948692e+000	-1.2962295814e+000
 4.2673054465e-001	 1.4380198337e+000	-1.2196608104e+000
 4.1273732227e-001	 1.4420984373e+000	-1.1375180015e+000
 5.6134443207e-001	 1.4179271591e+000	-1.5164890975e+000
 5.4725241107e-001	 1.4234253751e+000	-1.5175625498e+000
 5.3313632591e-001	 1.4287724304e+000	-1.5058678473e+000
 5.1899849297e-001	 1.4339684670e+000	-1.4822425985e+000
 5.0484121544e-001	 1.4390136716e+000	-1.4474959179e+000
 4.9066678230e-001	 1.4439082757e+000	-1.4024075842e+000
 4.7647746733e-001	 1.4486525543e+000	-1.3477272831e+000
 4.6227552809e-001	 1.4532468256e+000	-1.2841739353e+000
 4.4806320500e-001	 1.4576914503e+000	-1.2124351083e+000
 4.3384272040e-001	 1.4619868310e+000	-1.1331665118e+000
 4.1961627764e-001	 1.4661334112e+000	-1.0469915759e+000
 5.7054679981e-001	 1.4411718666e+000	-1.4225993819e+000
 5.5622376207e-001	 1.4467602173e+000	-1.4333119627e+000
 5.4187626568e-001	 1.4521949293e+000	-1.4295148465e+000
 5.2750666498e-001	 1.4574761468e+000	-1.4121132441e+000
 5.1311730094e-001	 1.4626040597e+000	-1.3819834125e+000
 4.9871050005e-001	 1.4675789032e+000	-1.3399717268e+000
 4.8428857336e-001	 1.4724009568e+000	-1.2868938411e+000
 4.6985381544e-001	 1.4770705440e+000	-1.2235339381e+000
 4.5540850345e-001	 1.4815880315e+000	-1.1506440665e+000
 4.4095489614e-001	 1.4859538282e+000	-1.0689435661e+000
 4.2649523301e-001	 1.4901683852e+000	-9.7911857897e-001
 5.7974916755e-001	 1.4644165742e+000	-1.3525013381e+000
 5.6519511307e-001	 1.4700950595e+000	-1.3721714273e+000
 5.5061620545e-001	 1.4756174281e+000	-1.3756966983e+000
 5.3601483700e-001	 1.4809838265e+000	-1.3640511614e+000
 5.2139338644e-001	 1.4861944478e+000	-1.3381792893e+000
 5.0675421779e-001	 1.4912495307e+000	-1.2989950039e+000
 4.9209967938e-001	 1.4961493594e+000	-1.2473807550e+000
 4.7743210279e-001	 1.5008942625e+000	-1.1841866910e+000
 4.6275380189e-001	 1.5054846126e+000	-1.1102299230e+000
 4.4806707189e-001	 1.5099208254e+000	-1.0262938793e+000
 4.3337418838e-001	 1.5142033591e+000	-9.3312775108e-001
 5.8895153529e-001	 1.4876612817e+000	-1.3061049331e+000
 5.7416646408e-001	 1.4934299018e+000	-1.3339958212e+000
 5.5935614522e-001	 1.4990399270e+000	-1.3442112730e+000
 5.4452300902e-001	 1.5044915063e+000	-1.3377953578e+000
 5.2966947193e-001	 1.5097848358e+000	-1.3157619019e+000
 5.1479793553e-001	 1.5149201581e+000	-1.2790933875e+000
 4.9991078540e-001	 1.5198977619e+000	-1.2287399493e+000
 4.8501039013e-001	 1.5247179809e+000	-1.1656184682e+000
 4.7009910033e-001	 1.5293811938e+000	-1.0906117601e+000
 4.5517924763e-001	 1.5338878227e+000	-1.0045678621e+000
 4.4025314375e-001	 1.5382383331e+000	-9.0829941242e-001
 5.9815390303e-001	 1.5109059892e+000	-1.2833473304e+000
 5.8313781508e-001	 1.5167647440e+000	-1.3186684383e+000
 5.6809608499e-001	 1.5224624259e+000	-1.3348862637e+000
 5.5303118103e-001	 1.5279991861e+000	-1.3331162578e+000
 5.3794555743e-001	 1.5333752239e+000	-1.3144427987e+000
 5.2284165328e-001	 1.5385907856e+000	-1.2799180037e+000
 5.0772189142e-001	 1.5436461644e+000	-1.2305606433e+000
 4.9258867748e-001	 1.5485416994e+000	-1.1673551565e+000
 4.7744439878e-001	 1.5532777749e+000	-1.0912507671e+000
 4.6229142338e-001	 1.5578548199e+000	-1.0031606996e+000
 4.4713209913e-001	 1.5622733070e+000	-9.0396149543e-001
 6.0735627077e-001	 1.5341506967e+000	-1.2841908300e+000
 5.9210916608e-001	 1.5400995862e+000	-1.3260988355e+000
 5.7683602476e-001	 1.5458849247e+000	-1.3475769277e+000
 5.6153935305e-001	 1.5515068659e+000	-1.3498133224e+000
 5.4622164294e-001	 1.5569656119e+000	-1.3339642078e+000
 5.3088537102e-001	 1.5622614131e+000	-1.3011524703e+000
 5.1553299745e-001	 1.5673945670e+000	-1.2524665253e+000
 5.0016696483e-001	 1.5723654179e+000	-1.1889592549e+000
 4.8478969722e-001	 1.5771743561e+000	-1.1116470501e+000
 4.6940359912e-001	 1.5818218171e+000	-1.0215089588e+000
 4.5401105450e-001	 1.5863082810e+000	-9.1948593778e-001
 6.1655863851e-001	 1.5573954043e+000	-1.3086209924e+000
 6.0108051709e-001	 1.5634344284e+000	-1.3562208730e+000
 5.8557596453e-001	 1.5693074236e+000	-1.3821640292e+000
 5.7004752507e-001	 1.5750145457e+000	-1.3877128823e+000
 5.5449772844e-001	 1.5805560000e+000	-1.3740967474e+000
 5.3892908877e-001	 1.5859320406e+000	-1.3425104714e+000
 5.2334410347e-001	 1.5911429695e+000	-1.2941131810e+000
 5.0774525217e-001	 1.5961891363e+000	-1.2300271419e+000
 4.9213499566e-001	 1.6010709372e+000	-1.1513367278e+000
 4.7651577487e-001	 1.6057888143e+000	-1.0590875006e+000
 4.6089000987e-001	 1.6103432550e+000	-9.5428539839e-001
 6.2576100625e-001	 1.5806401118e+000	-1.3581752293e+000
 6.1005186809e-001	 1.5867692706e+000	-1.4089909273e+000
 5.9431590430e-001	 1.5927299224e+000	-1.4385519636e+000
 5.7855569709e-001	 1.5985222255e+000	-1.4466661622e+000
 5.6277381394e-001	 1.6041463881e+000	-1.4346373384e+000
 5.4697280651e-001	 1.6096026680e+000	-1.4037335471e+000
 5.3115520949e-001	 1.6148913720e+000	-1.3551857476e+000
 5.1532353952e-001	 1.6200128548e+000	-1.2901865845e+000
 4.9948029411e-001	 1.6249675184e+000	-1.2098892837e+000
 4.8362795061e-001	 1.6297558116e+000	-1.1154066640e+000
 4.6776896524e-001	 1.6343782289e+000	-1.0078102632e+000
 6.3496337399e-001	 1.6038848193e+000	-1.4426394962e+000
 6.1902321909e-001	 1.6101041128e+000	-1.4843862596e+000
 6.0305584408e-001	 1.6161524213e+000	-1.5166670454e+000
 5.8706386911e-001	 1.6220299053e+000	-1.5265474771e+000
 5.7104989944e-001	 1.6277367761e+000	-1.5154072985e+000
 5.5501652426e-001	 1.6332732955e+000	-1.4845890746e+000
 5.3896631552e-001	 1.6386397745e+000	-1.4353967725e+000
 5.2290182687e-001	 1.6438365732e+000	-1.3690944638e+000
 5.0682559255e-001	 1.6488640995e+000	-1.2869051478e+000
 4.9074012636e-001	 1.6537228088e+000	-1.1900096952e+000
 4.7464792061e-001	 1.6584132029e+000	-1.0795459115e+000
 6.4416574173e-001	 1.6271295268e+000	-1.5396406907e+000
 6.2799457010e-001	 1.6334389551e+000	-1.5843798960e+000
 6.1179578385e-001	 1.6395749202e+000	-1.6164559424e+000
 5.9557204113e-001	 1.6455375851e+000	-1.6272525826e+000
 5.7932598494e-001	 1.6513271642e+000	-1.6162505994e+000
 5.6306024200e-001	 1.6569439230e+000	-1.5848684229e+000
 5.4677742155e-001	 1.6623881771e+000	-1.5344842554e+000
 5.3048011422e-001	 1.6676602917e+000	-1.4664346954e+000
 5.1417089100e-001	 1.6727606807e+000	-1.3820134871e+000
 4.9785230211e-001	 1.6776898060e+000	-1.2824703972e+000
 4.8152687598e-001	 1.6824481768e+000	-1.1690102161e+000
 4.1273732227e-001	 1.4420984373e+000	-1.1375180015e+000
 3.9874038711e-001	 1.4460311558e+000	-1.1560635637e+000
 3.8474186652e-001	 1.4498185045e+000	-1.1644666731e+000
 3.7074386670e-001	 1.4534610367e+000	-1.1633281181e+000
 3.5674847188e-001	 1.4569593432e+000	-1.1532189853e+000
 3.4275774362e-001	 1.4603140515e+000	-1.1346804948e+000
 3.2877372006e-001	 1.4635258252e+000	-1.1082239061e+000
 3.1479841525e-001	 1.4665953626e+000	-1.0743304917e+000
 3.0083381848e-001	 1.4695233968e+000	-1.0334515775e+000
 2.8688189364e-001	 1.4723106938e+000	-9.8600864742e-001
 2.7294457862e-001	 1.4749580526e+000	-9.3239350981e-001
 4.1961627764e-001	 1.4661334112e+000	-1.0469915759e+000
 4.0538606023e-001	 1.4701316751e+000	-1.0661762205e+000
 3.9115423097e-001	 1.4739821463e+000	-1.0751461868e+000
 3.7692293114e-001	 1.4776853873e+000	-1.0745252584e+000
 3.6269427974e-001	 1.4812419989e+000	-1.0649060880e+000
 3.4847037268e-001	 1.4846526191e+000	-1.0468500270e+000
 3.3425328206e-001	 1.4879179223e+000	-1.0208870292e+000
 3.2004505551e-001	 1.4910386187e+000	-9.8751562576e-001
 3.0584771546e-001	 1.4940154534e+000	-9.4720296990e-001
 2.9166325853e-001	 1.4968492054e+000	-9.0038494869e-001
 2.7749365493e-001	 1.4995406868e+000	-8.4746636011e-001
 4.2649523301e-001	 1.4901683852e+000	-9.7911857897e-001
 4.1203173334e-001	 1.4942321944e+000	-9.9783104277e-001
 3.9756659541e-001	 1.4981457880e+000	-1.0063375856e+000
 3.8310199559e-001	 1.5019097379e+000	-1.0052858646e+000
 3.6864008761e-001	 1.5055246547e+000	-9.9529086798e-001
 3.5418300174e-001	 1.5089911866e+000	-9.7693474052e-001
 3.3973284406e-001	 1.5123100193e+000	-9.5076668545e-001
 3.2529169576e-001	 1.5154818747e+000	-9.1730294201e-001
 3.1086161243e-001	 1.5185075100e+000	-8.7702683551e-001
 2.9644462343e-001	 1.5213877169e+000	-8.3038889807e-001
 2.8204273124e-001	 1.5241233210e+000	-7.7780705738e-001
 4.3337418838e-001	 1.5142033591e+000	-9.3312775108e-001
 4.1867740646e-001	 1.5183327136e+000	-9.5025861836e-001
 4.0397895985e-001	 1.5223094298e+000	-9.5727341394e-001
 3.8928106004e-001	 1.5261340886e+000	-9.5484456227e-001
 3.7458589548e-001	 1.5298073104e+000	-9.4361017163e-001
 3.5989563080e-001	 1.5333297541e+000	-9.2417385534e-001
 3.4521240607e-001	 1.5367021164e+000	-8.9710463379e-001
 3.3053833602e-001	 1.5399251308e+000	-8.6293691503e-001
 3.1587550941e-001	 1.5429995666e+000	-8.2217055176e-001
 3.0122598832e-001	 1.5459262285e+000	-7.7527097217e-001
 2.8659180755e-001	 1.5487059552e+000	-7.2266938213e-001
 4.4025314375e-001	 1.5382383331e+000	-9.0829941242e-001
 4.2532307958e-001	 1.5424332329e+000	-9.2273958752e-001
 4.1039132430e-001	 1.5464730715e+000	-9.2723482155e-001
 3.9546012448e-001	 1.5503584392e+000	-9.2248321588e-001
 3.8053170334e-001	 1.5540899661e+000	-9.0914679760e-001
 3.6560825986e-001	 1.5576683217e+000	-8.8785133764e-001
 3.5069196807e-001	 1.5610942135e+000	-8.5918625339e-001
 3.3578497627e-001	 1.5643683868e+000	-8.2370459377e-001
 3.2088940638e-001	 1.5674916232e+000	-7.8192310417e-001
 3.0600735321e-001	 1.5704647400e+000	-7.3432236895e-001
 2.9114088386e-001	 1.5732885894e+000	-6.8134702851e-001
 4.4713209913e-001	 1.5622733070e+000	-9.0396149543e-001
 4.3196875270e-001	 1.5665337522e+000	-9.1460079271e-001
 4.1680368874e-001	 1.5706367133e+000	-9.1554782462e-001
 4.0163918893e-001	 1.5745827898e+000	-9.0752729465e-001
 3.8647751121e-001	 1.5783726218e+000	-8.9122596213e-001
 3.7132088892e-001	 1.5820068892e+000	-8.6729245789e-001
 3.5617153007e-001	 1.5854863106e+000	-8.3633718846e-001
 3.4103161652e-001	 1.5888116429e+000	-7.9893232664e-001
 3.2590330335e-001	 1.5919836798e+000	-7.5561188581e-001
 3.1078871811e-001	 1.5950032516e+000	-7.0687187530e-001
 2.9568996017e-001	 1.5978712237e+000	-6.5317053403e-001
 4.5401105450e-001	 1.5863082810e+000	-9.1948593778e-001
 4.3861442582e-001	 1.5906342714e+000	-9.2521177849e-001
 4.2321605318e-001	 1.5948003550e+000	-9.2157990683e-001
 4.0781825337e-001	 1.5988071404e+000	-9.0934256937e-001
 3.9242331907e-001	 1.6026552775e+000	-8.8921208558e-001
 3.7703351798e-001	 1.6063454567e+000	-8.6186066175e-001
 3.6165109207e-001	 1.6098784077e+000	-8.2792029778e-001
 3.4627825678e-001	 1.6132548989e+000	-7.8798278430e-001
 3.3091720033e-001	 1.6164757364e+000	-7.4259978761e-001
 3.1557008300e-001	 1.6195417632e+000	-6.9228301940e-001
 3.0023903648e-001	 1.6224538579e+000	-6.3750448844e-001
 4.6089000987e-001	 1.6103432550e+000	-9.5428539839e-001
 4.4526009894e-001	 1.6147347907e+000	-9.5398160476e-001
 4.2962841762e-001	 1.6189639967e+000	-9.4473692478e-001
 4.1399731782e-001	 1.6230314910e+000	-9.2733210479e-001
 3.9836912694e-001	 1.6269379333e+000	-9.0250586672e-001
 3.8274614704e-001	 1.6306840242e+000	-8.7095472116e-001
 3.6713065407e-001	 1.6342705048e+000	-8.3333287752e-001
 3.5152489703e-001	 1.6376981549e+000	-7.9025224901e-001
 3.3593109730e-001	 1.6409677930e+000	-7.4228254928e-001
 3.2035144789e-001	 1.6440802747e+000	-6.8995147805e-001
 3.0478811279e-001	 1.6470364921e+000	-6.3374499248e-001
 4.6776896524e-001	 1.6343782289e+000	-1.0078102632e+000
 4.5190577206e-001	 1.6388353100e+000	-1.0003559412e+000
 4.3604078206e-001	 1.6431276385e+000	-9.8446028644e-001
 4.2017638226e-001	 1.6472558416e+000	-9.6093351739e-001
 4.0431493480e-001	 1.6512205890e+000	-9.3054161525e-001
 3.8845877610e-001	 1.6550225918e+000	-8.9400613680e-001
 3.7261021607e-001	 1.6586626019e+000	-8.5200412910e-001
 3.5677153728e-001	 1.6621414110e+000	-8.0516814318e-001
 3.4094499428e-001	 1.6654598497e+000	-7.5408634392e-001
 3.2513281279e-001	 1.6686187863e+000	-6.9930271288e-001
 3.0933718910e-001	 1.6716191263e+000	-6.4131734090e-001
 4.7464792061e-001	 1.6584132029e+000	-1.0795459115e+000
 4.5855144518e-001	 1.6629358292e+000	-1.0638144145e+000
 4.4245314651e-001	 1.6672912802e+000	-1.0402243750e+000
 4.2635544671e-001	 1.6714801922e+000	-1.0096164717e+000
 4.1026074266e-001	 1.6755032447e+000	-9.7278481616e-001
 3.9417140516e-001	 1.6793611593e+000	-9.3047676650e-001
 3.7808977807e-001	 1.6830546990e+000	-8.8339284718e-001
 3.6201817754e-001	 1.6865846670e+000	-8.3218677290e-001
 3.4595889125e-001	 1.6899519063e+000	-7.7746557277e-001
 3.2991417768e-001	 1.6931572979e+000	-7.1978981193e-001
 3.1388626541e-001	 1.6962017605e+000	-6.5967390697e-001
 4.8152687598e-001	 1.6824481768e+000	-1.1690102161e+000
 4.6519711830e-001	 1.6870363485e+000	-1.1438681826e+000
 4.4886551095e-001	 1.6914549220e+000	-1.1115341933e+000
 4.3253451115e-001	 1.6957045429e+000	-1.0728803909e+000
 4.1620655053e-001	 1.6997859004e+000	-1.0287299030e+000
 3.9988403422e-001	 1.7036997268e+000	-9.7985665679e-001
 3.8356934007e-001	 1.7074467960e+000	-9.2698530589e-001
 3.6726481779e-001	 1.7110279231e+000	-8.7079126475e-001
 3.5097278822e-001	 1.7144439629e+000	-8.1190084886e-001
 3.3469554257e-001	 1.7176958094e+000	-7.5089151641e-001
 3.1843534172e-001	 1.7207843947e+000	-6.8829220827e-001
 2.7294457862e-001	 1.4749580526e+000	-9.3239350981e-001
 2.5902378476e-001	 1.4774663038e+000	-9.5933865281e-001
 2.4512139625e-001	 1.4798363089e+000	-9.7949968116e-001
 2.3123926969e-001	 1.4820689593e+000	-9.9322058715e-001
 2.1737923353e-001	 1.4841651757e+000	-1.0008168553e+000
 2.0354308766e-001	 1.4861259070e+000	-1.0025758650e+000
 1.8973260296e-001	 1.4879521294e+000	-9.9875734153e-001
 1.7594952092e-001	 1.4896448456e+000	-9.8959385235e-001
 1.6219555323e-001	 1.4912050840e+000	-9.7529134632e-001
 1.4847238149e-001	 1.4926338975e+000	-9.5602973309e-001
 1.3478165685e-001	 1.4939323629e+000	-9.3196349978e-001
 2.7749365493e-001	 1.4995406868e+000	-8.4746636011e-001
 2.6334084783e-001	 1.5020907422e+000	-8.7644781971e-001
 2.4920675285e-001	 1.5045002474e+000	-8.9781749329e-001
 2.3509325751e-001	 1.5067701086e+000	-9.1191183926e-001
 2.2100222075e-001	 1.5089012620e+000	-9.1903856984e-001
 2.0693547245e-001	 1.5108946721e+000	-9.1947706971e-001
 1.9289481301e-001	 1.5127513315e+000	-9.1347886387e-001
 1.7888201293e-001	 1.5144722597e+000	-9.0126813204e-001
 1.6489881245e-001	 1.5160585020e+000	-8.8304226671e-001
 1.5094692118e-001	 1.5175111291e+000	-8.5897247221e-001
 1.3702801779e-001	 1.5188312356e+000	-8.2920440180e-001
 2.8204273124e-001	 1.5241233210e+000	-7.7780705738e-001
 2.6765791091e-001	 1.5267151806e+000	-8.0698735262e-001
 2.5329210946e-001	 1.5291641858e+000	-8.2784716555e-001
 2.3894724534e-001	 1.5314712579e+000	-8.4071558866e-001
 2.2462520797e-001	 1.5336373482e+000	-8.4589261164e-001
 2.1032785724e-001	 1.5356634372e+000	-8.4364955825e-001
 1.9605702305e-001	 1.5375505337e+000	-8.3422957354e-001
 1.8181450494e-001	 1.5392996738e+000	-8.1784815885e-001
 1.6760207167e-001	 1.5409119201e+000	-7.9469375134e-001
 1.5342146087e-001	 1.5423883607e+000	-7.6492834549e-001
 1.3927437874e-001	 1.5437301083e+000	-7.2868815342e-001
 2.8659180755e-001	 1.5487059552e+000	-7.2266938213e-001
 2.7197497399e-001	 1.5513396190e+000	-7.5028896415e-001
 2.5737746606e-001	 1.5538281243e+000	-7.6899694309e-001
 2.4280123317e-001	 1.5561724073e+000	-7.7911520339e-001
 2.2824819520e-001	 1.5583734345e+000	-7.8093605195e-001
 2.1372024203e-001	 1.5604322023e+000	-7.7472267554e-001
 1.9921923310e-001	 1.5623497358e+000	-7.6070964996e-001
 1.8474699695e-001	 1.5641270879e+000	-7.3910349804e-001
 1.7030533088e-001	 1.5657653382e+000	-7.1008329335e-001
 1.5589600055e-001	 1.5672655924e+000	-6.7380130695e-001
 1.4152073968e-001	 1.5686289811e+000	-6.3038369371e-001
 2.9114088386e-001	 1.5732885894e+000	-6.8134702851e-001
 2.7629203707e-001	 1.5759640574e+000	-7.0571890062e-001
 2.6146282266e-001	 1.5784920628e+000	-7.2070440439e-001
 2.4665522099e-001	 1.5808735566e+000	-7.2661836436e-001
 2.3187118242e-001	 1.5831095208e+000	-7.2374543481e-001
 2.1711262682e-001	 1.5852009674e+000	-7.1234058000e-001
 2.0238144315e-001	 1.5871489380e+000	-6.9262960766e-001
 1.8767948897e-001	 1.5889545020e+000	-6.6480975258e-001
 1.7300859010e-001	 1.5906187562e+000	-6.2905030727e-001
 1.5837054024e-001	 1.5921428240e+000	-5.8549329656e-001
 1.4376710062e-001	 1.5935278538e+000	-5.3425419293e-001
 2.9568996017e-001	 1.5978712237e+000	-6.5317053403e-001
 2.8060910014e-001	 1.6005884958e+000	-6.7267528564e-001
 2.6554817926e-001	 1.6031560013e+000	-6.8243420475e-001
 2.5050920882e-001	 1.6055747059e+000	-6.8275519507e-001
 2.3549416964e-001	 1.6078456070e+000	-6.7391527918e-001
 2.2050501162e-001	 1.6099697326e+000	-6.5616110406e-001
 2.0554365319e-001	 1.6119481402e+000	-6.2970950126e-001
 1.9061198098e-001	 1.6137819161e+000	-5.9474809878e-001
 1.7571184932e-001	 1.6154721743e+000	-5.5143598124e-001
 1.6084507993e-001	 1.6170200556e+000	-4.9990439517e-001
 1.4601346157e-001	 1.6184267265e+000	-4.4025749629e-001
 3.0023903648e-001	 1.6224538579e+000	-6.3750448844e-001
 2.8492616322e-001	 1.6252129342e+000	-6.5058570517e-001
 2.6963353587e-001	 1.6278199398e+000	-6.5367602510e-001
 2.5436319665e-001	 1.6302758552e+000	-6.4707656143e-001
 2.3911715687e-001	 1.6325816933e+000	-6.3105671719e-001
 2.2389739641e-001	 1.6347384977e+000	-6.0585471823e-001
 2.0870586324e-001	 1.6367473423e+000	-5.7167820278e-001
 1.9354447299e-001	 1.6386093302e+000	-5.2870486404e-001
 1.7841510854e-001	 1.6403255924e+000	-4.7708314261e-001
 1.6331961962e-001	 1.6418972872e+000	-4.1693296536e-001
 1.4825982252e-001	 1.6433255992e+000	-3.4834652736e-001
 3.0478811279e-001	 1.6470364921e+000	-6.3374499248e-001
 2.8924322630e-001	 1.6498373726e+000	-6.3890500883e-001
 2.7371889247e-001	 1.6524838782e+000	-6.3394270437e-001
 2.5821718447e-001	 1.6549770045e+000	-6.1915252385e-001
 2.4274014409e-001	 1.6573177795e+000	-5.9479625429e-001
 2.2728978120e-001	 1.6595072628e+000	-5.6110358796e-001
 2.1186807329e-001	 1.6615465445e+000	-5.1827274358e-001
 1.9647696501e-001	 1.6634367443e+000	-4.6647114242e-001
 1.8111836776e-001	 1.6651790104e+000	-4.0583613567e-001
 1.6579415931e-001	 1.6667745188e+000	-3.3647577965e-001
 1.5050618346e-001	 1.6682244719e+000	-2.5846965536e-001
 3.0933718910e-001	 1.6716191263e+000	-6.4131734090e-001
 2.9356028938e-001	 1.6744618110e+000	-6.3711330520e-001
 2.7780424907e-001	 1.6771478167e+000	-6.2276853669e-001
 2.6207117230e-001	 1.6796781539e+000	-5.9857092581e-001
 2.4636313132e-001	 1.6820538658e+000	-5.6477463896e-001
 2.3068216600e-001	 1.6842760279e+000	-5.2160071372e-001
 2.1503028334e-001	 1.6863457466e+000	-4.6923771441e-001
 1.9940945702e-001	 1.6882641584e+000	-4.0784244418e-001
 1.8382162698e-001	 1.6900324285e+000	-3.3754071006e-001
 1.6826869900e-001	 1.6916517505e+000	-2.5842813742e-001
 1.5275254441e-001	 1.6931233446e+000	-1.7057103003e-001
 3.1388626541e-001	 1.6962017605e+000	-6.5967390697e-001
 2.9787735246e-001	 1.6990862494e+000	-6.4471413149e-001
 2.8188960568e-001	 1.7018117552e+000	-6.1970771670e-001
 2.6592516013e-001	 1.7043793032e+000	-5.8493610532e-001
 2.4998611855e-001	 1.7067899521e+000	-5.4064583052e-001
 2.3407455079e-001	 1.7090447930e+000	-4.8704914587e-001
 2.1819249339e-001	 1.7111449488e+000	-4.2432471768e-001
 2.0234194904e-001	 1.7130915724e+000	-3.5261837575e-001
 1.8652488620e-001	 1.7148858466e+000	-2.7204391896e-001
 1.7074323870e-001	 1.7165289821e+000	-1.8268397168e-001
 1.5499890536e-001	 1.7180222173e+000	-8.4590887412e-002
 3.1843534172e-001	 1.7207843947e+000	-6.8829220827e-001
 3.0219441554e-001	 1.7237106878e+000	-6.6123278006e-001
 2.8597496228e-001	 1.7264756937e+000	-6.2433291806e-001
 2.6977914796e-001	 1.7290804525e+000	-5.7786771666e-001
 2.5360910577e-001	 1.7315260383e+000	-5.2207605554e-001
 2.3746693559e-001	 1.7338135582e+000	-4.5716126679e-001
 2.2135470344e-001	 1.7359441509e+000	-3.8329186655e-001
 2.0527444106e-001	 1.7379189865e+000	-3.0060234716e-001
 1.8922814542e-001	 1.7397392646e+000	-2.0919402596e-001
 1.7321777839e-001	 1.7414062137e+000	-1.0913594665e-001
 1.5724526631e-001	 1.7429210901e+000	-4.6582937519e-004
 1.3478165685e-001	 1.4939323629e+000	-9.3196349978e-001
 1.2112499974e-001	 1.4951015800e+000	-9.7669501177e-001
 1.0750399961e-001	 1.4961426704e+000	-1.0180951213e+000
 9.3920214705e-002	 1.4970567769e+000	-1.0563633674e+000
 8.0375171839e-002	 1.4978450627e+000	-1.0916728256e+000
 6.6870366229e-002	 1.4985087101e+000	-1.1241708495e+000
 5.3407261333e-002	 1.4990489200e+000	-1.1539798401e+000
 3.9987288723e-002	 1.4994669109e+000	-1.1811980374e+000
 2.6611847981e-002	 1.4997639179e+000	-1.2059003345e+000
 1.3282306613e-002	 1.4999411923e+000	-1.2281391085e+000
 0.0000000000e+000	 1.5000000000e+000	-1.2479450685e+000
 1.3702801779e-001	 1.5188312356e+000	-8.2920440180e-001
 1.2314374973e-001	 1.5200199396e+000	-8.7603591978e-001
 1.0929573293e-001	 1.5210783815e+000	-9.1880374322e-001
 9.5485551614e-002	 1.5220077232e+000	-9.5766837515e-001
 8.1714758035e-002	 1.5228091470e+000	-9.9276424299e-001
 6.7984872331e-002	 1.5234838552e+000	-1.0242004812e+000
 5.4297382354e-002	 1.5240330686e+000	-1.0520617397e+000
 4.0653743534e-002	 1.5244580260e+000	-1.0764090147e+000
 2.7055378780e-002	 1.5247599832e+000	-1.0972805003e+000
 1.3503678390e-002	 1.5249402122e+000	-1.1146924569e+000
 0.0000000000e+000	 1.5250000000e+000	-1.1286400949e+000
 1.3927437874e-001	 1.5437301083e+000	-7.2868815342e-001
 1.2516249972e-001	 1.5449382993e+000	-7.7507792748e-001
 1.1108746626e-001	 1.5460140927e+000	-8.1678667697e-001
 9.7050888523e-002	 1.5469586695e+000	-8.5393571126e-001
 8.3054344230e-002	 1.5477732314e+000	-8.8662055009e-001
 6.9099378434e-002	 1.5484590004e+000	-9.1491174949e-001
 5.5187503375e-002	 1.5490172173e+000	-9.3885575266e-001
 4.1320198346e-002	 1.5494491412e+000	-9.5847576291e-001
 2.7498909579e-002	 1.5497560485e+000	-9.7377263588e-001
 1.3725050166e-002	 1.5499392320e+000	-9.8472578816e-001
 0.0000000000e+000	 1.5500000000e+000	-9.9129411986e-001
 1.4152073968e-001	 1.5686289811e+000	-6.3038369371e-001
 1.2718124971e-001	 1.5698566590e+000	-6.7394337468e-001
 1.1287919958e-001	 1.5709498039e+000	-7.1231820227e-001
 9.8616225433e-002	 1.5719096157e+000	-7.4559009130e-001
 8.4393930425e-002	 1.5727373158e+000	-7.7381535147e-001
 7.0213884536e-002	 1.5734341456e+000	-7.9702555952e-001
 5.6077624396e-002	 1.5740013660e+000	-8.1522845557e-001
 4.1986653157e-002	 1.5744402564e+000	-8.2840886086e-001
 2.7942440378e-002	 1.5747521138e+000	-8.3652961392e-001
 1.3946421943e-002	 1.5749382519e+000	-8.3953252242e-001
 0.0000000000e+000	 1.5750000000e+000	-8.3733932773e-001
 1.4376710062e-001	 1.5935278538e+000	-5.3425419293e-001
 1.2919999971e-001	 1.5947750186e+000	-5.7273963926e-001
 1.1467093291e-001	 1.5958855150e+000	-6.0564862183e-001
 1.0018156234e-001	 1.5968605620e+000	-6.3302341827e-001
 8.5733516621e-002	 1.5977014002e+000	-6.5488078501e-001
 7.1328390638e-002	 1.5984092907e+000	-6.7121287839e-001
 5.6967745417e-002	 1.5989855146e+000	-6.8198819949e-001
 4.2653107968e-002	 1.5994313716e+000	-6.8715255967e-001
 2.8385971177e-002	 1.5997481791e+000	-6.8663006383e-001
 1.4167793719e-002	 1.5999372718e+000	-6.8032410843e-001
 0.0000000000e+000	 1.6000000000e+000	-6.6811839134e-001
 1.4601346157e-001	 1.6184267265e+000	-4.4025749629e-001
 1.3121874970e-001	 1.6196933783e+000	-4.7156028811e-001
 1.1646266623e-001	 1.6208212262e+000	-4.9700610564e-001
 1.0174689925e-001	 1.6218115083e+000	-5.1659730671e-001
 8.7073102817e-002	 1.6226654846e+000	-5.3031071166e-001
 7.2442896741e-002	 1.6233844359e+000	-5.3809857645e-001
 5.7857866438e-002	 1.6239696633e+000	-5.3988958889e-001
 4.3319562779e-002	 1.6244224868e+000	-5.3558988510e-001
 2.8829501976e-002	 1.6247442444e+000	-5.2508408286e-001
 1.4389165496e-002	 1.6249362916e+000	-5.0823632895e-001
 0.0000000000e+000	 1.6250000000e+000	-4.8489135752e-001
 1.4825982252e-001	 1.6433255992e+000	-3.4834652736e-001
 1.3323749970e-001	 1.6446117380e+000	-3.7048612337e-001
 1.1825439956e-001	 1.6457569374e+000	-3.8659836774e-001
 1.0331223616e-001	 1.6467624546e+000	-3.9664537724e-001
 8.8412689013e-002	 1.6476295689e+000	-4.0056361518e-001
 7.3557402843e-002	 1.6483595811e+000	-3.9826491949e-001
 5.8747987459e-002	 1.6489538120e+000	-3.8963755340e-001
 4.3986017590e-002	 1.6494136019e+000	-3.7454727582e-001
 2.9273032775e-002	 1.6497403097e+000	-3.5283842793e-001
 1.4610537273e-002	 1.6499353115e+000	-3.2433503305e-001
 0.0000000000e+000	 1.6500000000e+000	-2.8884190663e-001
 1.5050618346e-001	 1.6682244719e+000	-2.5846965536e-001
 1.3525624969e-001	 1.6695300976e+000	-2.6958613504e-001
 1.2004613288e-001	 1.6706926486e+000	-2.7461419277e-001
 1.0487757307e-001	 1.6717134009e+000	-2.7347534568e-001
 8.9752275209e-002	 1.6725936533e+000	-2.6606524225e-001
 7.4671908946e-002	 1.6733347262e+000	-2.5225474822e-001
 5.9638108481e-002	 1.6739379606e+000	-2.3189105485e-001
 4.4652472402e-002	 1.6744047171e+000	-2.0479880627e-001
 2.9716563574e-002	 1.6747363750e+000	-1.7078124251e-001
 1.4831909049e-002	 1.6749343314e+000	-1.2962135503e-001
 0.0000000000e+000	 1.6750000000e+000	-8.1083051532e-002
 1.5275254441e-001	 1.6931233446e+000	-1.7057103003e-001
 1.3727499969e-001	 1.6944484573e+000	-1.6891836955e-001
 1.2183786621e-001	 1.6956283597e+000	-1.6122482783e-001
 1.0644290998e-001	 1.6966643472e+000	-1.4737092781e-001
 9.1091861406e-002	 1.6975577377e+000	-1.2721100959e-001
 7.5786415049e-002	 1.6983098714e+000	-1.0057437714e-001
 6.0528229502e-002	 1.6989221093e+000	-6.7266467259e-002
 4.5318927213e-002	 1.6993958323e+000	-2.7070037033e-002
 3.0160094373e-002	 1.6997324403e+000	 2.0253633548e-002
 1.5053280826e-002	 1.6999333513e+000	 7.4963527166e-002
 0.0000000000e+000	 1.7000000000e+000	 1.3733766625e-001
 1.5499890536e-001	 1.7180222173e+000	-8.4590887412e-002
 1.3929374968e-001	 1.7193668170e+000	-6.8530722728e-002
 1.2362959954e-001	 1.7205640709e+000	-4.6585253307e-002
 1.0800824690e-001	 1.7216152934e+000	-1.8593578518e-002
 9.2431447602e-002	 1.7225218221e+000	 1.5631798211e-002
 7.6900921152e-002	 1.7232850166e+000	 5.6303758638e-002
 6.1418350523e-002	 1.7239062580e+000	 1.0365933710e-001
 4.5985382024e-002	 1.7243869475e+000	 1.5795846972e-001
 3.0603625172e-002	 1.7247285056e+000	 2.1948272900e-001
 1.5274652602e-002	 1.7249323711e+000	 2.8853404723e-001
 0.0000000000e+000	 1.7250000000e+000	 3.6543343225e-001
 1.5724526631e-001	 1.7429210901e+000	-4.6582937519e-004
 1.4131249968e-001	 1.7442851766e+000	 3.1538335138e-002
 1.2542133286e-001	 1.7454997821e+000	 6.9164655183e-002
 1.0957358381e-001	 1.7465662397e+000	 1.1261591817e-001
 9.3771033799e-002	 1.7474859064e+000	 1.6212201924e-001
 7.8015427255e-002	 1.7482601617e+000	 2.1793868340e-001
 6.2308471545e-002	 1.7488904066e+000	 2.8034616613e-001
 4.6651836836e-002	 1.7493780627e+000	 3.4964793603e-001
 3.1047155971e-002	 1.7497245709e+000	 4.2616934340e-001
 1.5496024379e-002	 1.7499313910e+000	 5.1025627826e-001
 0.0000000000e+000	 1.7500000000e+000	 6.0227382137e-001
 1.7500000000e+000	 0.0000000000e+000	 2.3881198334e+000
 1.7499313910e+000	 1.5496024379e-002	 2.4981670882e+000
 1.7497245709e+000	 3.1047155971e-002	 2.5965613229e+000
 1.7493780627e+000	 4.6651836836e-002	 2.6835270558e+000
 1.7488904066e+000	 6.2308471545e-002	 2.7592679530e+000
 1.7482601617e+000	 7.8015427255e-002	 2.8239654475e+000
 1.7474859064e+000	 9.3771033799e-002	 2.8777773659e+000
 1.7465662397e+000	 1.0957358381e-001	 2.9208365658e+000
 1.7454997821e+000	 1.2542133286e-001	 2.9532495881e+000
 1.7442851766e+000	 1.4131249968e-001	 2.9750953284e+000
 1.7429210901e+000	 1.5724526631e-001	 2.9864237302e+000
 1.7750000000e+000	 0.0000000000e+000	 2.8619888682e+000
 1.7749304109e+000	 1.5717396155e-002	 2.9238667885e+000
 1.7747206362e+000	 3.1490686771e-002	 2.9747155159e+000
 1.7743691778e+000	 4.7318291647e-002	 3.0148032185e+000
 1.7738745553e+000	 6.3198592567e-002	 3.0443762586e+000
 1.7732353069e+000	 7.9129933358e-002	 3.0636577253e+000
 1.7724499908e+000	 9.5110619996e-002	 3.0728459731e+000
 1.7715171860e+000	 1.1113892072e-001	 3.0721131723e+000
 1.7704354933e+000	 1.2721306619e-001	 3.0616038737e+000
 1.7692035363e+000	 1.4333124967e-001	 3.0414335922e+000
 1.7678199628e+000	 1.5949162725e-001	 3.0116874147e+000
 1.8000000000e+000	 0.0000000000e+000	 3.3506048994e+000
 1.7999294307e+000	 1.5938767932e-002	 3.3633475322e+000
 1.7997167015e+000	 3.1934217570e-002	 3.3657644056e+000
 1.7993602930e+000	 4.7984746459e-002	 3.3581689480e+000
 1.7988587040e+000	 6.4088713588e-002	 3.3408517661e+000
 1.7982104521e+000	 8.0244439462e-002	 3.3140790861e+000
 1.7974140752e+000	 9.6450206192e-002	 3.2780912016e+000
 1.7964681323e+000	 1.1270425763e-001	 3.2331009327e+000
 1.7953712044e+000	 1.2900479952e-001	 3.1792920999e+000
 1.7941218960e+000	 1.4534999967e-001	 3.1168180171e+000
 1.7927188355e+000	 1.6173798820e-001	 3.0458000085e+000
 1.8250000000e+000	 0.0000000000e+000	 3.8541148198e+000
 1.8249284506e+000	 1.6160139709e-002	 3.8167081258e+000
 1.8247127668e+000	 3.2377748369e-002	 3.7697593448e+000
 1.8243514082e+000	 4.8651201270e-002	 3.7136288070e+000
 1.8238428526e+000	 6.4978834610e-002	 3.6486529412e+000
 1.8231855972e+000	 8.1358945565e-002	 3.5751426213e+000
 1.8223781596e+000	 9.7789792389e-002	 3.4933815200e+000
 1.8214190786e+000	 1.1426959454e-001	 3.4036244730e+000
 1.8203069156e+000	 1.3079653284e-001	 3.3060958578e+000
 1.8190402556e+000	 1.4736874966e-001	 3.2009879931e+000
 1.8176177082e+000	 1.6398434915e-001	 3.0884595617e+000
 1.8500000000e+000	 0.0000000000e+000	 4.3726575816e+000
 1.8499274705e+000	 1.6381511485e-002	 4.2840405446e+000
 1.8497088321e+000	 3.2821279168e-002	 4.1867459999e+000
 1.8493425234e+000	 4.9317656081e-002	 4.0811828516e+000
 1.8488270013e+000	 6.5868955631e-002	 3.9677349582e+000
 1.8481607424e+000	 8.2473451668e-002	 3.8467593816e+000
 1.8473422440e+000	 9.9129378586e-002	 3.7185846424e+000
 1.8463700248e+000	 1.1583493145e-001	 3.5835089854e+000
 1.8452426268e+000	 1.3258826617e-001	 3.4417986602e+000
 1.8439586153e+000	 1.4938749966e-001	 3.2936862229e+000
 1.8425165809e+000	 1.6623071010e-001	 3.1393688616e+000
 1.8750000000e+000	 0.0000000000e+000	 4.9063647263e+000
 1.8749264904e+000	 1.6602883262e-002	 4.7654303879e+000
 1.8747048974e+000	 3.3264809967e-002	 4.6167647296e+000
 1.8743336386e+000	 4.9984110893e-002	 4.4608269313e+000
 1.8738111500e+000	 6.6759076653e-002	 4.2980499192e+000
 1.8731358876e+000	 8.3587957771e-002	 4.1288385128e+000
 1.8723063283e+000	 1.0046896478e-001	 3.9535675779e+000
 1.8713209711e+000	 1.1740026836e-001	 3.7725801900e+000
 1.8701783379e+000	 1.3437999950e-001	 3.5861858134e+000
 1.8688769750e+000	 1.5140624966e-001	 3.3946585007e+000
 1.8674154536e+000	 1.6847707105e-001	 3.1982351174e+000
 1.9000000000e+000	 0.0000000000e+000	 4.2924895510e+000
 1.8999255102e+000	 1.6824255038e-002	 4.2073116493e+000
 1.8997009627e+000	 3.3708340767e-002	 4.1179434157e+000
 1.8993247537e+000	 5.0650565704e-002	 4.0231154137e+000
 1.8987952986e+000	 6.7649197674e-002	 3.9216026965e+000
 1.8981110327e+000	 8.4702463874e-002	 3.8122274339e+000
 1.8972704127e+000	 1.0180855098e-001	 3.6938615035e+000
 1.8962719174e+000	 1.1896560528e-001	 3.5654290410e+000
 1.8951140491e+000	 1.3617173282e-001	 3.4259089405e+000
 1.8937953346e+000	 1.5342499965e-001	 3.2743373004e+000
 1.8923143264e+000	 1.7072343199e-001	 3.1098098062e+000
 1.9250000000e+000	 0.0000000000e+000	 3.6812866924e+000
 1.9249245301e+000	 1.7045626815e-002	 3.6504809698e+000
 1.9246970280e+000	 3.4151871566e-002	 3.6139359438e+000
 1.9243158689e+000	 5.1317020516e-002	 3.5703452191e+000
 1.9237794473e+000	 6.8539318696e-002	 3.5184498421e+000
 1.9230861779e+000	 8.5816969978e-002	 3.4570410398e+000
 1.9222344971e+000	 1.0314813718e-001	 3.3849629212e+000
 1.9212228637e+000	 1.2053094219e-001	 3.3011151337e+000
 1.9200497603e+000	 1.3796346615e-001	 3.2044554681e+000
 1.9187136943e+000	 1.5544374965e-001	 3.0940024038e+000
 1.9172131991e+000	 1.7296979294e-001	 2.9688375880e+000
 1.9500000000e+000	 0.0000000000e+000	 3.0728682365e+000
 1.9499235500e+000	 1.7266998592e-002	 3.0981045311e+000
 1.9496930933e+000	 3.4595402365e-002	 3.1159856181e+000
 1.9493069841e+000	 5.1983475327e-002	 3.1251673167e+000
 1.9487635960e+000	 6.9429439717e-002	 3.1243559292e+000
 1.9480613231e+000	 8.6931476081e-002	 3.1123110952e+000
 1.9471985815e+000	 1.0448772337e-001	 3.0878486057e+000
 1.9461738100e+000	 1.2209627910e-001	 3.0498431694e+000
 1.9449854715e+000	 1.3975519948e-001	 2.9972311239e+000
 1.9436320540e+000	 1.5746249964e-001	 2.9290130830e+000
 1.9421120718e+000	 1.7521615389e-001	 2.8442565152e+000
 1.9750000000e+000	 0.0000000000e+000	 2.4673405940e+000
 1.9749225698e+000	 1.7488370368e-002	 2.5502507061e+000
 1.9746891586e+000	 3.5038933164e-002	 2.6241204777e+000
 1.9742980993e+000	 5.2649930139e-002	 2.6875671122e+000
 1.9737477446e+000	 7.0319560739e-002	 2.7392614293e+000
 1.9730364682e+000	 8.8045982184e-002	 2.7779308376e+000
 1.9721626658e+000	 1.0582730957e-001	 2.8023622643e+000
 1.9711247563e+000	 1.2366161601e-001	 2.8114050339e+000
 1.9699211826e+000	 1.4154693280e-001	 2.8039736881e+000
 1.9685504136e+000	 1.5948124964e-001	 2.7790507389e+000
 1.9670109445e+000	 1.7746251484e-001	 2.7356893477e+000
 2.0000000000e+000	 0.0000000000e+000	 1.8648048551e+000
 1.9999215897e+000	 1.7709742145e-002	 2.0069832904e+000
 1.9996852239e+000	 3.5482463963e-002	 2.1383647510e+000
 1.9992892145e+000	 5.3316384950e-002	 2.2575269912e+000
 1.9987318933e+000	 7.1209681760e-002	 2.3631046084e+000
 1.9980116134e+000	 8.9160488287e-002	 2.4537921374e+000
 1.9971267502e+000	 1.0716689577e-001	 2.5283470986e+000
 1.9960757025e+000	 1.2522695292e-001	 2.5855929920e+000
 1.9948568938e+000	 1.4333866613e-001	 2.6244222287e+000
 1.9934687733e+000	 1.6149999964e-001	 2.6437989922e+000
 1.9919098172e+000	 1.7970887579e-001	 2.6427620203e+000
 1.7429210901e+000	 1.5724526631e-001	 2.9864237302e+000
 1.7414062137e+000	 1.7321777839e-001	 3.0600320810e+000
 1.7397392646e+000	 1.8922814542e-001	 3.1190843376e+000
 1.7379189865e+000	 2.0527444106e-001	 3.1634964218e+000
 1.7359441509e+000	 2.2135470344e-001	 3.1931538563e+000
 1.7338135582e+000	 2.3746693559e-001	 3.2079107500e+000
 1.7315260383e+000	 2.5360910577e-001	 3.2075888300e+000
 1.7290804525e+000	 2.6977914796e-001	 3.1919765250e+000
 1.7264756937e+000	 2.8597496228e-001	 3.1608281044e+000
 1.7237106878e+000	 3.0219441554e-001	 3.1138628773e+000
 1.7207843947e+000	 3.1843534172e-001	 3.0507644555e+000
 1.7678199628e+000	 1.5949162725e-001	 3.0116874147e+000
 1.7662834454e+000	 1.7569231808e-001	 3.0466718775e+000
 1.7645926827e+000	 1.9193140464e-001	 3.0705524167e+000
 1.7627464006e+000	 2.0820693307e-001	 3.0832942458e+000
 1.7607433531e+000	 2.2451691349e-001	 3.0848286454e+000
 1.7585823233e+000	 2.4085932039e-001	 3.0750518137e+000
 1.7562621246e+000	 2.5723209300e-001	 3.0538237653e+000
 1.7537816018e+000	 2.7363313579e-001	 3.0209672859e+000
 1.7511396322e+000	 2.9006031889e-001	 2.9762669443e+000
 1.7483351262e+000	 3.0651147862e-001	 2.9194681693e+000
 1.7453670289e+000	 3.2298441803e-001	 2.8502763935e+000
 1.7927188355e+000	 1.6173798820e-001	 3.0458000085e+000
 1.7911606770e+000	 1.7816685777e-001	 3.0418780611e+000
 1.7894461008e+000	 1.9463466387e-001	 3.0303284100e+000
 1.7875738147e+000	 2.1113942509e-001	 3.0111658066e+000
 1.7855425553e+000	 2.2767912354e-001	 2.9843674684e+000
 1.7833510884e+000	 2.4425170518e-001	 2.9498717915e+000
 1.7809982109e+000	 2.6085508023e-001	 2.9075771156e+000
 1.7784827512e+000	 2.7748712362e-001	 2.8573405460e+000
 1.7758035707e+000	 2.9414567549e-001	 2.7989768386e+000
 1.7729595646e+000	 3.1082854170e-001	 2.7322573509e+000
 1.7699496631e+000	 3.2753349434e-001	 2.6569090668e+000
 1.8176177082e+000	 1.6398434915e-001	 3.0884595617e+000
 1.8160379086e+000	 1.8064139747e-001	 3.0453154929e+000
 1.8142995188e+000	 1.9733792309e-001	 2.9980477108e+000
 1.8124012288e+000	 2.1407191711e-001	 2.9467207980e+000
 1.8103417574e+000	 2.3084133360e-001	 2.8913581322e+000
 1.8081198535e+000	 2.4764408998e-001	 2.8319404591e+000
 1.8057342971e+000	 2.6447806745e-001	 2.7684045203e+000
 1.8031839005e+000	 2.8134111145e-001	 2.7006417418e+000
 1.8004675091e+000	 2.9823103210e-001	 2.6284969883e+000
 1.7975840030e+000	 3.1514560478e-001	 2.5517673887e+000
 1.7945322974e+000	 3.3208257065e-001	 2.4702012372e+000
 1.8425165809e+000	 1.6623071010e-001	 3.1393688616e+000
 1.8409151402e+000	 1.8311593716e-001	 3.0566548385e+000
 1.8391529369e+000	 2.0004118231e-001	 2.9733524660e+000
 1.8372286429e+000	 2.1700440913e-001	 2.8895764968e+000
 1.8351409596e+000	 2.3400354365e-001	 2.8053967356e+000
 1.8328886186e+000	 2.5103647477e-001	 2.7208364701e+000
 1.8304703834e+000	 2.6810105468e-001	 2.6358709596e+000
 1.8278850498e+000	 2.8519509928e-001	 2.5504259878e+000
 1.8251314476e+000	 3.0231638870e-001	 2.4643764846e+000
 1.8222084414e+000	 3.1946266786e-001	 2.3775452225e+000
 1.8191149316e+000	 3.3663164696e-001	 2.2897015947e+000
 1.8674154536e+000	 1.6847707105e-001	 3.1982351174e+000
 1.8657923719e+000	 1.8559047685e-001	 3.0755721808e+000
 1.8640063550e+000	 2.0274444153e-001	 2.9558911255e+000
 1.8620560570e+000	 2.1993690114e-001	 2.8393572570e+000
 1.8599401617e+000	 2.3716575370e-001	 2.7260871160e+000
 1.8576573837e+000	 2.5442885957e-001	 2.6161467641e+000
 1.8552064696e+000	 2.7172404191e-001	 2.5095501317e+000
 1.8525861991e+000	 2.8904908711e-001	 2.4062574321e+000
 1.8497953861e+000	 3.0640174531e-001	 2.3061736486e+000
 1.8468328798e+000	 3.2377973094e-001	 2.2091471007e+000
 1.8436975658e+000	 3.4118072327e-001	 2.1149680957e+000
 1.8923143264e+000	 1.7072343199e-001	 3.1098098062e+000
 1.8906696035e+000	 1.8806501655e-001	 3.0106031271e+000
 1.8888597730e+000	 2.0544770075e-001	 2.9064724734e+000
 1.8868834711e+000	 2.2286939316e-001	 2.7967726132e+000
 1.8847393639e+000	 2.4032796375e-001	 2.6809202455e+000
 1.8824261489e+000	 2.5782124437e-001	 2.5583957673e+000
 1.8799425559e+000	 2.7534702914e-001	 2.4287449380e+000
 1.8772873485e+000	 2.9290307494e-001	 2.2915804369e+000
 1.8744593246e+000	 3.1048710192e-001	 2.1534554247e+000
 1.8714573182e+000	 3.2809679402e-001	 2.0461379677e+000
 1.8682802000e+000	 3.4572979958e-001	 1.9455673535e+000
 1.9172131991e+000	 1.7296979294e-001	 2.9688375880e+000
 1.9155468351e+000	 1.9053955624e-001	 2.9077436731e+000
 1.9137131911e+000	 2.0815095998e-001	 2.8420269952e+000
 1.9117108852e+000	 2.2580188518e-001	 2.7710555310e+000
 1.9095385661e+000	 2.4349017380e-001	 2.6942615529e+000
 1.9071949140e+000	 2.6121362916e-001	 2.6111434193e+000
 1.9046786422e+000	 2.7897001637e-001	 2.5212672577e+000
 1.9019884978e+000	 2.9675706277e-001	 2.4242685341e+000
 1.8991232631e+000	 3.1457245852e-001	 2.3198535025e+000
 1.8960817566e+000	 3.3241385710e-001	 2.2078005267e+000
 1.8928628342e+000	 3.5027887589e-001	 2.0879612699e+000
 1.9421120718e+000	 1.7521615389e-001	 2.8442565152e+000
 1.9404240667e+000	 1.9301409593e-001	 2.8221114161e+000
 1.9385666092e+000	 2.1085421920e-001	 2.7955203099e+000
 1.9365382993e+000	 2.2873437719e-001	 2.7638641218e+000
 1.9343377682e+000	 2.4665238385e-001	 2.7265905753e+000
 1.9319636791e+000	 2.6460601396e-001	 2.6832160087e+000
 1.9294147284e+000	 2.8259300359e-001	 2.6333270782e+000
 1.9266896471e+000	 3.0061105060e-001	 2.5765823433e+000
 1.9237872016e+000	 3.1865781513e-001	 2.5127137244e+000
 1.9207061950e+000	 3.3673092018e-001	 2.4415278295e+000
 1.9174454684e+000	 3.5482795221e-001	 2.3629071401e+000
 1.9670109445e+000	 1.7746251484e-001	 2.7356893477e+000
 1.9653012984e+000	 1.9548863562e-001	 2.7532734917e+000
 1.9634200273e+000	 2.1355747842e-001	 2.7664637353e+000
 1.9613657134e+000	 2.3166686921e-001	 2.7746537280e+000
 1.9591369704e+000	 2.4981459391e-001	 2.7773065606e+000
 1.9567324442e+000	 2.6799839876e-001	 2.7739566092e+000
 1.9541508147e+000	 2.8621599082e-001	 2.7642112616e+000
 1.9513907964e+000	 3.0446503843e-001	 2.7477525190e+000
 1.9484511400e+000	 3.2274317174e-001	 2.7243384663e+000
 1.9453306334e+000	 3.4104798327e-001	 2.6938046026e+000
 1.9420281026e+000	 3.5937702852e-001	 2.6560650276e+000
 1.9919098172e+000	 1.7970887579e-001	 2.6427620203e+000
 1.9901785300e+000	 1.9796317532e-001	 2.7008009253e+000
 1.9882734453e+000	 2.1626073764e-001	 2.7543731141e+000
 1.9861931275e+000	 2.3459936123e-001	 2.8028847729e+000
 1.9839361725e+000	 2.5297680396e-001	 2.8458143127e+000
 1.9815012093e+000	 2.7139078356e-001	 2.8827142441e+000
 1.9788869010e+000	 2.8983897805e-001	 2.9132129289e+000
 1.9760919458e+000	 3.0831902626e-001	 2.9370162013e+000
 1.9731150785e+000	 3.2682852835e-001	 2.9539088512e+000
 1.9699550718e+000	 3.4536504635e-001	 2.9637559619e+000
 1.9666107368e+000	 3.6392610484e-001	 2.9665040965e+000
 1.7207843947e+000	 3.1843534172e-001	 3.0507644555e+000
 1.7176958094e+000	 3.3469554257e-001	 3.0136972639e+000
 1.7144439629e+000	 3.5097278822e-001	 2.9727042309e+000
 1.7110279231e+000	 3.6726481779e-001	 2.9273025319e+000
 1.7074467960e+000	 3.8356934007e-001	 2.8769587133e+000
 1.7036997268e+000	 3.9988403422e-001	 2.8210881557e+000
 1.6997859004e+000	 4.1620655053e-001	 2.7590546380e+000
 1.6957045429e+000	 4.3253451115e-001	 2.6901700065e+000
 1.6914549220e+000	 4.4886551095e-001	 2.6136939516e+000
 1.6870363485e+000	 4.6519711830e-001	 2.5288338979e+000
 1.6824481768e+000	 4.8152687598e-001	 2.4347450100e+000
 1.7453670289e+000	 3.2298441803e-001	 2.8502763935e+000
 1.7422343210e+000	 3.3947690746e-001	 2.8022042988e+000
 1.7389360195e+000	 3.5598668519e-001	 2.7517413838e+000
 1.7354711791e+000	 3.7251145804e-001	 2.6984040778e+000
 1.7318388931e+000	 3.8904890206e-001	 2.6416551799e+000
 1.7280382943e+000	 4.0559666328e-001	 2.5809032692e+000
 1.7240685561e+000	 4.2215235839e-001	 2.5155022197e+000
 1.7199288935e+000	 4.3871357559e-001	 2.4447508247e+000
 1.7156185637e+000	 4.5527787539e-001	 2.3678925356e+000
 1.7111368678e+000	 4.7184279141e-001	 2.2841153178e+000
 1.7064831508e+000	 4.8840583136e-001	 2.1925516289e+000
 1.7699496631e+000	 3.2753349434e-001	 2.6569090668e+000
 1.7667728326e+000	 3.4425827236e-001	 2.5982897879e+000
 1.7634280761e+000	 3.6100058217e-001	 2.5389008286e+000
 1.7599144352e+000	 3.7775809829e-001	 2.4782576639e+000
 1.7562309902e+000	 3.9452846406e-001	 2.4158190193e+000
 1.7523768619e+000	 4.1130929234e-001	 2.3509862256e+000
 1.7483512119e+000	 4.2809816625e-001	 2.2831026832e+000
 1.7441532441e+000	 4.4489264004e-001	 2.2114534407e+000
 1.7397822055e+000	 4.6169023983e-001	 2.1352648933e+000
 1.7352373870e+000	 4.7848846453e-001	 2.0537046042e+000
 1.7305181247e+000	 4.9528478673e-001	 1.9658812539e+000
 1.7945322974e+000	 3.3208257065e-001	 2.4702012372e+000
 1.7913113441e+000	 3.4903963725e-001	 2.4014779114e+000
 1.7879201327e+000	 3.6601447914e-001	 2.3336936602e+000
 1.7843576912e+000	 3.8300473855e-001	 2.2663628038e+000
 1.7806230873e+000	 4.0000802606e-001	 2.1989396745e+000
 1.7767154294e+000	 4.1702192139e-001	 2.1308179129e+000
 1.7726338676e+000	 4.3404397412e-001	 2.0613298802e+000
 1.7683775947e+000	 4.5107170448e-001	 1.9897461895e+000
 1.7639458472e+000	 4.6810260427e-001	 1.9152753624e+000
 1.7593379063e+000	 4.8513413765e-001	 1.8370636144e+000
 1.7545530987e+000	 5.0216374210e-001	 1.7541947741e+000
 1.8191149316e+000	 3.3663164696e-001	 2.2897015947e+000
 1.8158498557e+000	 3.5382100214e-001	 2.2113037075e+000
 1.8124121893e+000	 3.7102837612e-001	 2.1356427694e+000
 1.8088009473e+000	 3.8825137880e-001	 2.0622317539e+000
 1.8050151844e+000	 4.0548758806e-001	 1.9905202861e+000
 1.8010539969e+000	 4.2273455045e-001	 1.9198938792e+000
 1.7969165233e+000	 4.3998978198e-001	 1.8496732924e+000
 1.7926019453e+000	 4.5725076893e-001	 1.7791140134e+000
 1.7881094890e+000	 4.7451496871e-001	 1.7074058715e+000
 1.7834384256e+000	 4.9177981077e-001	 1.6336727863e+000
 1.7785880727e+000	 5.0904269747e-001	 1.5569726557e+000
 1.8436975658e+000	 3.4118072327e-001	 2.1149680957e+000
 1.8403883673e+000	 3.5860236704e-001	 2.0273123482e+000
 1.8369042460e+000	 3.7604227309e-001	 1.9442820567e+000
 1.8332442033e+000	 3.9349801906e-001	 1.8653886638e+000
 1.8294072815e+000	 4.1096715007e-001	 1.7900767792e+000
 1.8253925645e+000	 4.2844717952e-001	 1.7177233557e+000
 1.8211991790e+000	 4.4593558984e-001	 1.6476369899e+000
 1.8168262959e+000	 4.6342983337e-001	 1.5790573546e+000
 1.8122731307e+000	 4.8092733315e-001	 1.5111547674e+000
 1.8075389448e+000	 4.9842548389e-001	 1.4430299005e+000
 1.8026230466e+000	 5.1592165284e-001	 1.3737136366e+000
 1.8682802000e+000	 3.4572979958e-001	 1.9455673535e+000
 1.8649268788e+000	 3.6338373194e-001	 1.8490584729e+000
 1.8613963026e+000	 3.8105617007e-001	 1.7591557084e+000
 1.8576874594e+000	 3.9874465931e-001	 1.6753687940e+000
 1.8537993786e+000	 4.1644671207e-001	 1.5971370224e+000
 1.8497311320e+000	 4.3415980858e-001	 1.5238283561e+000
 1.8454818348e+000	 4.5188139771e-001	 1.4547386709e+000
 1.8410506465e+000	 4.6960889782e-001	 1.3890911358e+000
 1.8364367724e+000	 4.8733969760e-001	 1.3260357351e+000
 1.8316394641e+000	 5.0507115701e-001	 1.2646489387e+000
 1.8266580206e+000	 5.2280060822e-001	 1.2039335247e+000
 1.8928628342e+000	 3.5027887589e-001	 2.0879612699e+000
 1.8894653904e+000	 3.6816509683e-001	 1.9518583394e+000
 1.8858883592e+000	 3.8607006704e-001	 1.8064329634e+000
 1.8821307154e+000	 4.0399129957e-001	 1.6516498380e+000
 1.8781914757e+000	 4.2192627407e-001	 1.4875489890e+000
 1.8740696995e+000	 4.3987243764e-001	 1.3377428469e+000
 1.8697644905e+000	 4.5782720558e-001	 1.2705087775e+000
 1.8652749971e+000	 4.7578796226e-001	 1.2087438198e+000
 1.8606004142e+000	 4.9375206204e-001	 1.1515768018e+000
 1.8557399833e+000	 5.1171683013e-001	 1.0980590322e+000
 1.8506929945e+000	 5.2967956359e-001	 1.0471640893e+000
 1.9174454684e+000	 3.5482795221e-001	 2.3629071401e+000
 1.9140039020e+000	 3.7294646173e-001	 2.2628260911e+000
 1.9103804158e+000	 3.9108396402e-001	 2.1519984918e+000
 1.9065739715e+000	 4.0923793982e-001	 2.0304204207e+000
 1.9025835728e+000	 4.2740583607e-001	 1.8981673088e+000
 1.8984082670e+000	 4.4558506670e-001	 1.7553944569e+000
 1.8940471462e+000	 4.6377301344e-001	 1.6023373821e+000
 1.8894993478e+000	 4.8196702671e-001	 1.4393119876e+000
 1.8847640559e+000	 5.0016442648e-001	 1.2667145534e+000
 1.8798405026e+000	 5.1836250325e-001	 1.0850215412e+000
 1.8747279685e+000	 5.3655851896e-001	 9.0295203779e-001
 1.9420281026e+000	 3.5937702852e-001	 2.6560650276e+000
 1.9385424135e+000	 3.7772782663e-001	 2.5919219457e+000
 1.9348724724e+000	 3.9609786100e-001	 2.5155352963e+000
 1.9310172275e+000	 4.1448458008e-001	 2.4269340355e+000
 1.9269756698e+000	 4.3288539808e-001	 2.3262306245e+000
 1.9227468346e+000	 4.5129769576e-001	 2.2136215466e+000
 1.9183298019e+000	 4.6971882131e-001	 2.0893876450e+000
 1.9137236984e+000	 4.8814609116e-001	 1.9538942753e+000
 1.9089276977e+000	 5.0657679093e-001	 1.8075912694e+000
 1.9039410219e+000	 5.2500817637e-001	 1.6510127065e+000
 1.8987629424e+000	 5.4343747433e-001	 1.4847764864e+000
 1.9666107368e+000	 3.6392610484e-001	 2.9665040965e+000
 1.9630809251e+000	 3.8250919152e-001	 2.9381451576e+000
 1.9593645290e+000	 4.0111175798e-001	 2.8959710969e+000
 1.9554604835e+000	 4.1973122034e-001	 2.8400452849e+000
 1.9513677669e+000	 4.3836496008e-001	 2.7705188827e+000
 1.9470854021e+000	 4.5701032483e-001	 2.6876313587e+000
 1.9426124576e+000	 4.7566462918e-001	 2.5917108167e+000
 1.9379480490e+000	 4.9432515561e-001	 2.4831741304e+000
 1.9330913394e+000	 5.1298915537e-001	 2.3625268801e+000
 1.9280415411e+000	 5.3165384949e-001	 2.2303630867e+000
 1.9227979164e+000	 5.5031642970e-001	 2.0873647404e+000
 1.6824481768e+000	 4.8152687598e-001	 2.4347450100e+000
 1.6776898060e+000	 4.9785230211e-001	 2.4175171350e+000
 1.6727606807e+000	 5.1417089100e-001	 2.3861181904e+000
 1.6676602917e+000	 5.3048011422e-001	 2.3395537112e+000
 1.6623881771e+000	 5.4677742155e-001	 2.2767816392e+000
 1.6569439230e+000	 5.6306024200e-001	 2.1967130002e+000
 1.6513271642e+000	 5.7932598494e-001	 2.0982127098e+000
 1.6455375851e+000	 5.9557204113e-001	 1.9801005111e+000
 1.6395749202e+000	 6.1179578385e-001	 1.8411520432e+000
 1.6334389551e+000	 6.2799457010e-001	 1.6615096310e+000
 1.6271295268e+000	 6.4416574173e-001	 1.3783166819e+000
 1.7064831508e+000	 4.8840583136e-001	 2.1925516289e+000
 1.7016568033e+000	 5.0496447785e-001	 2.1822853512e+000
 1.6966572618e+000	 5.2151618944e-001	 2.1596861620e+000
 1.6914840101e+000	 5.3805840157e-001	 2.1237667815e+000
 1.6861365796e+000	 5.5458852757e-001	 2.0734892222e+000
 1.6806145504e+000	 5.7110395975e-001	 2.0077654315e+000
 1.6749175522e+000	 5.8760207045e-001	 1.9254580689e+000
 1.6690452648e+000	 6.0408021315e-001	 1.8253814205e+000
 1.6629974190e+000	 6.2053572362e-001	 1.7063024508e+000
 1.6567737973e+000	 6.3696592110e-001	 1.4839530753e+000
 1.6503742344e+000	 6.5336810947e-001	 1.2104830301e+000
 1.7305181247e+000	 4.9528478673e-001	 1.9658812539e+000
 1.7256238005e+000	 5.1207665360e-001	 1.9656341999e+000
 1.7205538430e+000	 5.2886148789e-001	 1.9549632979e+000
 1.7153077286e+000	 5.4563668892e-001	 1.9328861736e+000
 1.7098849821e+000	 5.6239963360e-001	 1.8983664973e+000
 1.7042851779e+000	 5.7914767750e-001	 1.8503145925e+000
 1.6985079403e+000	 5.9587815595e-001	 1.7875881852e+000
 1.6925529446e+000	 6.1258838517e-001	 1.7089932965e+000
 1.6864199179e+000	 6.2927566340e-001	 1.5805596162e+000
 1.6801086395e+000	 6.4593727211e-001	 1.3382632521e+000
 1.6736189419e+000	 6.6257047722e-001	 1.0765803447e+000
 1.7545530987e+000	 5.0216374210e-001	 1.7541947741e+000
 1.7495907977e+000	 5.1918882934e-001	 1.7669526713e+000
 1.7444504242e+000	 5.3620678633e-001	 1.7712685005e+000
 1.7391314470e+000	 5.5321497627e-001	 1.7661625372e+000
 1.7336333847e+000	 5.7021073962e-001	 1.7505977188e+000
 1.7279558054e+000	 5.8719139524e-001	 1.7234802192e+000
 1.7220983284e+000	 6.0415424145e-001	 1.6836601721e+000
 1.7160606244e+000	 6.2109655719e-001	 1.6299325425e+000
 1.7098424168e+000	 6.3801560317e-001	 1.4519664598e+000
 1.7034434817e+000	 6.5490862311e-001	 1.2227195659e+000
 1.6968636494e+000	 6.7177284496e-001	 9.7478355055e-001
 1.7785880727e+000	 5.0904269747e-001	 1.5569726557e+000
 1.7735577950e+000	 5.2630100509e-001	 1.5856542496e+000
 1.7683470053e+000	 5.4355208478e-001	 1.6079500717e+000
 1.7629551655e+000	 5.6079326361e-001	 1.6228808131e+000
 1.7573817872e+000	 5.7802184564e-001	 1.6294063068e+000
 1.7516264329e+000	 5.9523511299e-001	 1.6264260702e+000
 1.7456887164e+000	 6.1243032695e-001	 1.6127800017e+000
 1.7395683042e+000	 6.2960472920e-001	 1.5459409426e+000
 1.7332649156e+000	 6.4675554294e-001	 1.3499877170e+000
 1.7267783239e+000	 6.6387997412e-001	 1.1356646401e+000
 1.7201083570e+000	 6.8097521270e-001	 9.0333552086e-001
 1.8026230466e+000	 5.1592165284e-001	 1.3737136366e+000
 1.7975247922e+000	 5.3341318083e-001	 1.4211752804e+000
 1.7922435865e+000	 5.5089738322e-001	 1.4643837530e+000
 1.7867788839e+000	 5.6837155096e-001	 1.5023579466e+000
 1.7811301897e+000	 5.8583295167e-001	 1.5340522365e+000
 1.7752970603e+000	 6.0327883073e-001	 1.5583569919e+000
 1.7692791045e+000	 6.2070641246e-001	 1.5740992471e+000
 1.7630759840e+000	 6.3811290122e-001	 1.4529812900e+000
 1.7566874145e+000	 6.5549548271e-001	 1.2731208674e+000
 1.7501131661e+000	 6.7285132512e-001	 1.0755001017e+000
 1.7433530645e+000	 6.9017758044e-001	 8.6054254731e-001
 1.8266580206e+000	 5.2280060822e-001	 1.2039335247e+000
 1.8214917894e+000	 5.4052535658e-001	 1.2729734664e+000
 1.8161401676e+000	 5.5824268167e-001	 1.3399709204e+000
 1.8106026024e+000	 5.7594983831e-001	 1.4039407826e+000
 1.8048785923e+000	 5.9364405769e-001	 1.4638296331e+000
 1.7989676878e+000	 6.1132254848e-001	 1.5185162154e+000
 1.7928694926e+000	 6.2898249796e-001	 1.5264298110e+000
 1.7865836638e+000	 6.4662107324e-001	 1.3819821058e+000
 1.7801099133e+000	 6.6423542248e-001	 1.2199143625e+000
 1.7734480084e+000	 6.8182267612e-001	 1.0406827000e+000
 1.7665977720e+000	 6.9937994818e-001	 8.4477016775e-001
 1.8506929945e+000	 5.2967956359e-001	 1.0471640893e+000
 1.8454587867e+000	 5.4763753232e-001	 1.1405264807e+000
 1.8400367488e+000	 5.6558798011e-001	 1.2341369193e+000
 1.8344263209e+000	 5.8352812565e-001	 1.3270041235e+000
 1.8286269948e+000	 6.0145516371e-001	 1.4180645545e+000
 1.8226383153e+000	 6.1936626622e-001	 1.5061828641e+000
 1.8164598806e+000	 6.3725858345e-001	 1.4571961409e+000
 1.8100913436e+000	 6.5512924526e-001	 1.3316277413e+000
 1.8035324122e+000	 6.7297536225e-001	 1.1889643158e+000
 1.7967828506e+000	 6.9079402712e-001	 1.0297207271e+000
 1.7898424795e+000	 7.0858231592e-001	 8.5443931900e-001
 1.8747279685e+000	 5.3655851896e-001	 9.0295203779e-001
 1.8694257839e+000	 5.5474970807e-001	 1.0233306866e+000
 1.8639333299e+000	 5.7293327855e-001	 1.1463295286e+000
 1.8582500393e+000	 5.9110641300e-001	 1.2709489375e+000
 1.8523753973e+000	 6.0926626974e-001	 1.3961129437e+000
 1.8463089428e+000	 6.2740998396e-001	 1.4938164467e+000
 1.8400502687e+000	 6.4553466895e-001	 1.4057934312e+000
 1.8335990234e+000	 6.6363741727e-001	 1.3006435018e+000
 1.8269549111e+000	 6.8171530202e-001	 1.1789114477e+000
 1.8201176928e+000	 6.9976537812e-001	 1.0411707138e+000
 1.8130871871e+000	 7.1778468366e-001	 8.8802278570e-001
 1.8987629424e+000	 5.4343747433e-001	 1.4847764864e+000
 1.8933927811e+000	 5.6186188381e-001	 1.4815830129e+000
 1.8878299111e+000	 5.8027857699e-001	 1.4709294437e+000
 1.8820737578e+000	 5.9868470035e-001	 1.4540171377e+000
 1.8761237999e+000	 6.1707737576e-001	 1.4321324887e+000
 1.8699795702e+000	 6.3545370170e-001	 1.4376570050e+000
 1.8636406567e+000	 6.5381075445e-001	 1.3710668408e+000
 1.8571067031e+000	 6.7214558929e-001	 1.2877930542e+000
 1.8503774099e+000	 6.9045524179e-001	 1.1884382622e+000
 1.8434525350e+000	 7.0873672912e-001	 1.0736343766e+000
 1.8363318946e+000	 7.2698705140e-001	 9.4404191879e-001
 1.9227979164e+000	 5.5031642970e-001	 2.0873647404e+000
 1.9173597783e+000	 5.6897405956e-001	 2.1228749050e+000
 1.9117264922e+000	 5.8762387544e-001	 2.1502809381e+000
 1.9058974762e+000	 6.0626298769e-001	 2.1708937730e+000
 1.8998722024e+000	 6.2488848178e-001	 2.1861134007e+000
 1.8936501977e+000	 6.4349741945e-001	 1.9669903671e+000
 1.8872310448e+000	 6.6208683995e-001	 1.7248232980e+000
 1.8806143829e+000	 6.8065376130e-001	 1.4621154493e+000
 1.8737999088e+000	 6.9919518155e-001	 1.2162664356e+000
 1.8667873772e+000	 7.1770808012e-001	 1.1257557936e+000
 1.8595766021e+000	 7.3618941913e-001	 1.0210636001e+000
 1.6271295268e+000	 6.4416574173e-001	 1.3783166819e+000
 1.6206465249e+000	 6.6030662669e-001	 1.3025799801e+000
 1.6139898915e+000	 6.7641454021e-001	 1.2224024157e+000
 1.6071596221e+000	 6.9248678611e-001	 1.1379184733e+000
 1.6001557665e+000	 7.0852065808e-001	 1.0492723608e+000
 1.5929784285e+000	 7.2451344093e-001	 9.5661764362e-001
 1.5856277673e+000	 7.4046241198e-001	 8.6011685628e-001
 1.5781039969e+000	 7.5636484241e-001	 7.5994109306e-001
 1.5704073875e+000	 7.7221799855e-001	 6.5626957791e-001
 1.5625382650e+000	 7.8801914338e-001	 5.4928921492e-001
 1.5544970119e+000	 8.0376553783e-001	 4.3919412044e-001
 1.6503742344e+000	 6.5336810947e-001	 1.2104830301e+000
 1.6437986181e+000	 6.6973957850e-001	 1.1391479042e+000
 1.6370468899e+000	 6.8607760507e-001	 1.0638795091e+000
 1.6301190453e+000	 7.0237945449e-001	 9.8483088522e-001
 1.6230151346e+000	 7.1864238176e-001	 9.0216471214e-001
 1.6157352632e+000	 7.3486363294e-001	 8.1605290683e-001
 1.6082795925e+000	 7.5104044644e-001	 7.2667619909e-001
 1.6006483397e+000	 7.6717005444e-001	 6.3422368503e-001
 1.5928417787e+000	 7.8324968425e-001	 5.3889235968e-001
 1.5848602402e+000	 7.9927655972e-001	 4.4088662985e-001
 1.5767041121e+000	 8.1524790266e-001	 3.4041780822e-001
 1.6736189419e+000	 6.6257047722e-001	 1.0765803447e+000
 1.6669507113e+000	 6.7917253031e-001	 1.0097909337e+000
 1.6601038884e+000	 6.9574066993e-001	 9.3956443817e-001
 1.6530784685e+000	 7.1227212286e-001	 8.6607289700e-001
 1.6458745027e+000	 7.2876410545e-001	 7.8949791607e-001
 1.6384920979e+000	 7.4521382496e-001	 7.1003022975e-001
 1.6309314178e+000	 7.6161848090e-001	 6.2786923900e-001
 1.6231926825e+000	 7.7797526648e-001	 5.4322252706e-001
 1.6152761700e+000	 7.9428136994e-001	 4.5630535381e-001
 1.6071822154e+000	 8.1053397605e-001	 3.6734012999e-001
 1.5989112123e+000	 8.2673026749e-001	 2.7655587240e-001
 1.6968636494e+000	 6.7177284496e-001	 9.7478355055e-001
 1.6901028046e+000	 6.8860548212e-001	 9.1265840093e-001
 1.6831608868e+000	 7.0540373479e-001	 8.4758143046e-001
 1.6760378917e+000	 7.2216479124e-001	 7.7974414172e-001
 1.6687338708e+000	 7.3888582914e-001	 7.0934754383e-001
 1.6612489326e+000	 7.5556401697e-001	 6.3660167642e-001
 1.6535832430e+000	 7.7219651536e-001	 5.6172510951e-001
 1.6457370254e+000	 7.8878047852e-001	 4.8494442059e-001
 1.6377105612e+000	 8.0531305564e-001	 4.0649364970e-001
 1.6295041906e+000	 8.2179139239e-001	 3.2661373411e-001
 1.6211183125e+000	 8.3821263232e-001	 2.4555192358e-001
 1.7201083570e+000	 6.8097521270e-001	 9.0333552086e-001
 1.7132548978e+000	 6.9803843393e-001	 8.4596805391e-001
 1.7062178853e+000	 7.1506679966e-001	 7.8612357325e-001
 1.6989973148e+000	 7.3205745961e-001	 7.2401353229e-001
 1.6915932389e+000	 7.4900755283e-001	 6.5985884225e-001
 1.6840057673e+000	 7.6591420899e-001	 5.9388935766e-001
 1.6762350683e+000	 7.8277454982e-001	 5.2634333726e-001
 1.6682813682e+000	 7.9958569055e-001	 4.5746688134e-001
 1.6601449525e+000	 8.1634474134e-001	 3.8751334674e-001
 1.6518261659e+000	 8.3304880872e-001	 3.1674274089e-001
 1.6433254126e+000	 8.4969499715e-001	 2.4542109623e-001
 1.7433530645e+000	 6.9017758044e-001	 8.6054254731e-001
 1.7364069910e+000	 7.0747138575e-001	 8.0800149554e-001
 1.7292748837e+000	 7.2472986452e-001	 7.5344822300e-001
 1.7219567380e+000	 7.4195012799e-001	 6.9711464280e-001
 1.7144526070e+000	 7.5912927652e-001	 6.3924208870e-001
 1.7067626020e+000	 7.7626440100e-001	 5.8008076134e-001
 1.6988868935e+000	 7.9335258428e-001	 5.1988914914e-001
 1.6908257110e+000	 8.1039090259e-001	 4.5893342501e-001
 1.6825793437e+000	 8.2737642703e-001	 3.9748682024e-001
 1.6741481411e+000	 8.4430622506e-001	 3.3582897694e-001
 1.6655325128e+000	 8.6117736198e-001	 2.7424528046e-001
 1.7665977720e+000	 6.9937994818e-001	 8.4477016775e-001
 1.7595590842e+000	 7.1690433756e-001	 7.9709998252e-001
 1.7523318822e+000	 7.3439292938e-001	 7.4787277711e-001
 1.7449161612e+000	 7.5184279636e-001	 6.9734145453e-001
 1.7373119751e+000	 7.6925100021e-001	 6.4576831285e-001
 1.7295194367e+000	 7.8661459301e-001	 5.9342445124e-001
 1.7215387188e+000	 8.0393061874e-001	 5.4058914989e-001
 1.7133700538e+000	 8.2119611462e-001	 4.8754922516e-001
 1.7050137350e+000	 8.3840811273e-001	 4.3459836122e-001
 1.6964701163e+000	 8.5556364139e-001	 3.8203641994e-001
 1.6877396130e+000	 8.7265972680e-001	 3.3016873024e-001
 1.7898424795e+000	 7.0858231592e-001	 8.5443931900e-001
 1.7827111774e+000	 7.2633728937e-001	 8.1166055177e-001
 1.7753888806e+000	 7.4405599424e-001	 7.6777077515e-001
 1.7678755844e+000	 7.6173546473e-001	 7.2304443335e-001
 1.7601713431e+000	 7.7937272389e-001	 6.7776535162e-001
 1.7522762714e+000	 7.9696478503e-001	 6.3222610105e-001
 1.7441905440e+000	 8.1450865319e-001	 5.8672733658e-001
 1.7359143966e+000	 8.3200132666e-001	 5.4157710949e-001
 1.7274481262e+000	 8.4943979842e-001	 4.9709015590e-001
 1.7187920915e+000	 8.6682105773e-001	 4.5358716288e-001
 1.7099467131e+000	 8.8414209163e-001	 4.1139401374e-001
 1.8130871871e+000	 7.1778468366e-001	 8.8802278570e-001
 1.8058632706e+000	 7.3577024118e-001	 8.5013244474e-001
 1.7984458791e+000	 7.5371905910e-001	 8.1156829997e-001
 1.7908350075e+000	 7.7162813311e-001	 7.7262690897e-001
 1.7830307112e+000	 7.8949444758e-001	 7.3361420778e-001
 1.7750331061e+000	 8.0731497704e-001	 6.9484483354e-001
 1.7668423693e+000	 8.2508668765e-001	 6.5664141955e-001
 1.7584587394e+000	 8.4280653869e-001	 6.1933386404e-001
 1.7498825175e+000	 8.6047148411e-001	 5.8325857446e-001
 1.7411140667e+000	 8.7807847406e-001	 5.4875768871e-001
 1.7321538133e+000	 8.9562445646e-001	 5.1617827527e-001
 1.8363318946e+000	 7.2698705140e-001	 9.4404191879e-001
 1.8290153638e+000	 7.4520319299e-001	 9.1101380338e-001
 1.8215028775e+000	 7.6338212396e-001	 8.7774065222e-001
 1.8137944307e+000	 7.8152080148e-001	 8.4454172907e-001
 1.8058900793e+000	 7.9961617127e-001	 8.1174568494e-001
 1.7977899408e+000	 8.1766516906e-001	 7.7968983766e-001
 1.7894941945e+000	 8.3566472211e-001	 7.4871942287e-001
 1.7810030823e+000	 8.5361175073e-001	 7.1918681812e-001
 1.7723169087e+000	 8.7150316981e-001	 6.9145074168e-001
 1.7634360419e+000	 8.8933589040e-001	 6.6587542794e-001
 1.7543609135e+000	 9.0710682128e-001	 6.4282978109e-001
 1.8595766021e+000	 7.3618941913e-001	 1.0210636001e+000
 1.8521674571e+000	 7.5463614479e-001	 9.9284861379e-001
 1.8445598760e+000	 7.7304518882e-001	 9.6480927424e-001
 1.8367538539e+000	 7.9141346985e-001	 9.3728816448e-001
 1.8287494474e+000	 8.0973789495e-001	 9.1063727506e-001
 1.8205467755e+000	 8.2801536107e-001	 8.8521723942e-001
 1.8121460198e+000	 8.4624275656e-001	 8.6139653974e-001
 1.8035474251e+000	 8.6441696276e-001	 8.3955068532e-001
 1.7947513000e+000	 8.8253485550e-001	 8.2006136478e-001
 1.7857580172e+000	 9.0059330673e-001	 8.0331557442e-001
 1.7765680137e+000	 9.1858918611e-001	 7.8970472431e-001
 1.5544970119e+000	 8.0376553783e-001	 4.3919412044e-001
 1.5462840674e+000	 8.1945444228e-001	 3.3634195828e-001
 1.5378999272e+000	 8.3508311794e-001	 2.3874673270e-001
 1.5293451444e+000	 8.5064882832e-001	 1.4639043471e-001
 1.5206203292e+000	 8.6614884069e-001	 5.9251070976e-002
 1.5117261490e+000	 8.8158042754e-001	-2.2697714817e-002
 1.5026633286e+000	 8.9694086807e-001	-9.9487017789e-002
 1.4934326500e+000	 9.1222744964e-001	-1.7115304364e-001
 1.4840349526e+000	 9.2743746930e-001	-2.3773747500e-001
 1.4744711329e+000	 9.4256823526e-001	-2.9928783104e-001
 1.4647421446e+000	 9.5761706841e-001	-3.5585781892e-001
 1.5767041121e+000	 8.1524790266e-001	 3.4041780822e-001
 1.5683738397e+000	 8.3116093432e-001	 2.3512868105e-001
 1.5598699262e+000	 8.4701287677e-001	 1.3559588774e-001
 1.5511929322e+000	 8.6280095444e-001	 4.1780007065e-002
 1.5423434768e+000	 8.7852239556e-001	-4.6363046015e-002
 1.5333222369e+000	 8.9417443366e-001	-1.2888239866e-001
 1.5241299476e+000	 9.0975430904e-001	-2.0583259469e-001
 1.5147674021e+000	 9.2525927035e-001	-2.7727396412e-001
 1.5052354519e+000	 9.4068657601e-001	-3.4327298611e-001
 1.4955350063e+000	 9.5603349577e-001	-4.0390264419e-001
 1.4856670324e+000	 9.7129731225e-001	-4.5924277222e-001
 1.5989112123e+000	 8.2673026749e-001	 2.7655587240e-001
 1.5904636121e+000	 8.4286742635e-001	 1.6732072750e-001
 1.5818399251e+000	 8.5894263560e-001	 6.4336612016e-002
 1.5730407200e+000	 8.7495308057e-001	-3.2456050556e-002
 1.5640666244e+000	 8.9089595043e-001	-1.2312217404e-001
 1.5549183247e+000	 9.0676843977e-001	-2.0773238919e-001
 1.5455965666e+000	 9.2256775002e-001	-2.8636341869e-001
 1.5361021543e+000	 9.3829109106e-001	-3.5909844597e-001
 1.5264359512e+000	 9.5393568271e-001	-4.2602747665e-001
 1.5165988796e+000	 9.6949875628e-001	-4.8724769100e-001
 1.5065919202e+000	 9.8497755608e-001	-5.4286378613e-001
 1.6211183125e+000	 8.3821263232e-001	 2.4555192358e-001
 1.6125533845e+000	 8.5457391839e-001	 1.3090610416e-001
 1.6038099241e+000	 8.7087239443e-001	 2.3001935721e-002
 1.5948885078e+000	 8.8710520669e-001	-7.8239066716e-002
 1.5857897719e+000	 9.0326950530e-001	-1.7290139350e-001
 1.5765144126e+000	 9.1936244588e-001	-2.6107592294e-001
 1.5670631856e+000	 9.3538119099e-001	-3.4286029838e-001
 1.5574369064e+000	 9.5132291177e-001	-4.1835929812e-001
 1.5476364506e+000	 9.6718478942e-001	-4.8768519693e-001
 1.5376627529e+000	 9.8296401678e-001	-5.5095811752e-001
 1.5275168080e+000	 9.9865779992e-001	-6.0830637068e-001
 1.6433254126e+000	 8.4969499715e-001	 2.4542109623e-001
 1.6346431569e+000	 8.6628041042e-001	 1.2394109324e-001
 1.6257799230e+000	 8.8280215326e-001	 9.6898941887e-003
 1.6167362956e+000	 8.9925733281e-001	-9.7428656288e-002
 1.6075129195e+000	 9.1564306017e-001	-1.9751738200e-001
 1.5981105004e+000	 9.3195645199e-001	-2.9068616250e-001
 1.5885298045e+000	 9.4819463197e-001	-3.7705231383e-001
 1.5787716586e+000	 9.6435473249e-001	-4.5674096134e-001
 1.5688369499e+000	 9.8043389613e-001	-5.2988540290e-001
 1.5587266262e+000	 9.9642927729e-001	-5.9662746117e-001
 1.5484416958e+000	 1.0123380438e+000	-6.5711782332e-001
 1.6655325128e+000	 8.6117736198e-001	 2.7424528046e-001
 1.6567329293e+000	 8.7798690246e-001	 1.4454570093e-001
 1.6477499220e+000	 8.9473191209e-001	 2.2559194219e-002
 1.6385840833e+000	 9.1140945893e-001	-9.1826834696e-002
 1.6292360671e+000	 9.2801661504e-001	-1.9873230789e-001
 1.6197065883e+000	 9.4455045810e-001	-2.9828486815e-001
 1.6099964235e+000	 9.6100807294e-001	-3.9062026515e-001
 1.6001064107e+000	 9.7738655320e-001	-4.7588273276e-001
 1.5900374492e+000	 9.9368300283e-001	-5.5422535577e-001
 1.5797904996e+000	 1.0098945378e+000	-6.2581042461e-001
 1.5693665835e+000	 1.0260182876e+000	-6.9080977642e-001
 1.6877396130e+000	 8.7265972680e-001	 3.3016873024e-001
 1.6788227017e+000	 8.8969339449e-001	 1.9089946504e-001
 1.6697199210e+000	 9.0666167092e-001	 5.9825222535e-002
 1.6604318711e+000	 9.2356158505e-001	-6.3181807353e-002
 1.6509592146e+000	 9.4039016991e-001	-1.7825741638e-001
 1.6413026761e+000	 9.5714446421e-001	-2.8554577961e-001
 1.6314630425e+000	 9.7382151392e-001	-3.8519984881e-001
 1.6214411629e+000	 9.9041837391e-001	-4.7738173589e-001
 1.6112379485e+000	 1.0069321095e+000	-5.6226308486e-001
 1.6008543729e+000	 1.0233597983e+000	-6.4002543073e-001
 1.5902914713e+000	 1.0396985314e+000	-7.1086054369e-001
 1.7099467131e+000	 8.8414209163e-001	 4.1139401374e-001
 1.7009124741e+000	 9.0139988653e-001	 2.6123758929e-001
 1.6916899199e+000	 9.1859142975e-001	 1.1975636527e-001
 1.6822796589e+000	 9.3571371117e-001	-1.3191463820e-002
 1.6726823622e+000	 9.5276372478e-001	-1.3775633621e-001
 1.6628987640e+000	 9.6973847032e-001	-2.5409773422e-001
 1.6529296615e+000	 9.8663495489e-001	-3.6238458644e-001
 1.6427759150e+000	 1.0034501946e+000	-4.6279565911e-001
 1.6324384478e+000	 1.0201812162e+000	-5.5551993505e-001
 1.6219182462e+000	 1.0368250588e+000	-6.4075697841e-001
 1.6112163591e+000	 1.0533787753e+000	-7.1871728368e-001
 1.7321538133e+000	 8.9562445646e-001	 5.1617827527e-001
 1.7230022465e+000	 9.1310637856e-001	 3.5384737499e-001
 1.7136599189e+000	 9.3052118858e-001	 2.0067061056e-001
 1.7041274467e+000	 9.4786583729e-001	 5.6493396824e-002
 1.6944055097e+000	 9.6513727965e-001	-7.8848132058e-002
 1.6844948518e+000	 9.8233247643e-001	-2.0552754532e-001
 1.6743962805e+000	 9.9944839587e-001	-3.2372852833e-001
 1.6641106671e+000	 1.0164820153e+000	-4.3364528362e-001
 1.6536389472e+000	 1.0334303230e+000	-5.3548291843e-001
 1.6429821195e+000	 1.0502903193e+000	-6.2945781717e-001
 1.6321412469e+000	 1.0670590191e+000	-7.1579799695e-001
 1.7543609135e+000	 9.0710682128e-001	 6.4282978109e-001
 1.7450920189e+000	 9.2481287059e-001	 4.6706492372e-001
 1.7356299178e+000	 9.4245094741e-001	 3.0093240919e-001
 1.7259752344e+000	 9.6001796341e-001	 1.4426608557e-001
 1.7161286573e+000	 9.7751083451e-001	-3.1101249885e-003
 1.7060909396e+000	 9.9492648253e-001	-1.4138266200e-001
 1.6958628994e+000	 1.0122618368e+000	-2.7074875166e-001
 1.6854454193e+000	 1.0295138360e+000	-3.9141681928e-001
 1.6748394465e+000	 1.0466794297e+000	-5.0360688720e-001
 1.6640459929e+000	 1.0637555798e+000	-6.0755095663e-001
 1.6530661346e+000	 1.0807392629e+000	-7.0349337147e-001
 1.7765680137e+000	 9.1858918611e-001	 7.8970472431e-001
 1.7671817913e+000	 9.3651936262e-001	 5.9927208733e-001
 1.7575999168e+000	 9.5438070623e-001	 4.1894977068e-001
 1.7478230222e+000	 9.7217008953e-001	 2.4856126658e-001
 1.7378518049e+000	 9.8988438938e-001	 8.7919498543e-002
 1.7276870275e+000	 1.0075204886e+000	-6.3173629332e-002
 1.7173295184e+000	 1.0250752778e+000	-2.0492767128e-001
 1.7067801714e+000	 1.0425456567e+000	-3.3756406538e-001
 1.6960399458e+000	 1.0599285364e+000	-4.6131654370e-001
 1.6851098662e+000	 1.0772208403e+000	-5.7643152521e-001
 1.6739910224e+000	 1.0944195068e+000	-6.8316848971e-001
 1.4647421446e+000	 9.5761706841e-001	-3.5585781892e-001
 1.4548489982e+000	 9.7258130376e-001	-4.4028879275e-001
 1.4447927608e+000	 9.8745829198e-001	-5.2459395808e-001
 1.4345745559e+000	 1.0022454009e+000	-6.0916166101e-001
 1.4241955631e+000	 1.0169400169e+000	-6.9438479901e-001
 1.4136570177e+000	 1.0315395467e+000	-7.8066075876e-001
 1.4029602102e+000	 1.0460414182e+000	-8.6839133997e-001
 1.3921064861e+000	 1.0604430826e+000	-9.5798266470e-001
 1.3810972449e+000	 1.0747420157e+000	-1.0498450715e+000
 1.3699339401e+000	 1.0889357189e+000	-1.1443929937e+000
 1.3586180783e+000	 1.1030217212e+000	-1.2420448221e+000
 1.4856670324e+000	 9.7129731225e-001	-4.5924277222e-001
 1.4756325553e+000	 9.8647532238e-001	-5.5387079381e-001
 1.4654326574e+000	 1.0015648390e+000	-6.4692688337e-001
 1.4550684781e+000	 1.0165631923e+000	-7.3875076935e-001
 1.4445412140e+000	 1.0314677315e+000	-8.2968807656e-001
 1.4338521179e+000	 1.0462758259e+000	-9.2009033705e-001
 1.4230024989e+000	 1.0609848670e+000	-1.0103149851e+000
 1.4119937216e+000	 1.0755922695e+000	-1.1007253360e+000
 1.4008272055e+000	 1.0900954730e+000	-1.1916905474e+000
 1.3895044249e+000	 1.1044919435e+000	-1.2835855628e+000
 1.3780269080e+000	 1.1187791744e+000	-1.3767910367e+000
 1.5065919202e+000	 9.8497755608e-001	-5.4286378613e-001
 1.4964161124e+000	 1.0003693410e+000	-6.4585109227e-001
 1.4860725539e+000	 1.0156713860e+000	-7.4584182742e-001
 1.4755624003e+000	 1.0308809838e+000	-8.4312752276e-001
 1.4648868649e+000	 1.0459954460e+000	-9.3800694947e-001
 1.4540472182e+000	 1.0610121051e+000	-1.0307862027e+000
 1.4430447877e+000	 1.0759283158e+000	-1.1217787680e+000
 1.4318809571e+000	 1.0907414564e+000	-1.2113055698e+000
 1.4205571661e+000	 1.1054489304e+000	-1.2996949996e+000
 1.4090749098e+000	 1.1200481680e+000	-1.3872829255e+000
 1.3974357376e+000	 1.1345366275e+000	-1.4744126794e+000
 1.5275168080e+000	 9.9865779992e-001	-6.0830637068e-001
 1.5171996695e+000	 1.0142633596e+000	-7.1790217787e-001
 1.5067124505e+000	 1.0297779331e+000	-8.2309654828e-001
 1.4960563226e+000	 1.0451987752e+000	-9.2413318339e-001
 1.4852325158e+000	 1.0605231605e+000	-1.0212643680e+000
 1.4742423185e+000	 1.0757483844e+000	-1.1147511275e+000
 1.4630870764e+000	 1.0908717647e+000	-1.2048633660e+000
 1.4517681926e+000	 1.1058906433e+000	-1.2918799844e+000
 1.4402871268e+000	 1.1208023878e+000	-1.3760889763e+000
 1.4286453946e+000	 1.1356043926e+000	-1.4577875028e+000
 1.4168445673e+000	 1.1502940807e+000	-1.5372819426e+000
 1.5484416958e+000	 1.0123380438e+000	-6.5711782332e-001
 1.5379832267e+000	 1.0281573783e+000	-7.7165432002e-001
 1.5273523471e+000	 1.0438844801e+000	-8.8040264840e-001
 1.5165502448e+000	 1.0595165667e+000	-9.8355899713e-001
 1.5055781667e+000	 1.0750508751e+000	-1.0813294822e+000
 1.4944374187e+000	 1.0904846636e+000	-1.1739303777e+000
 1.4831293651e+000	 1.1058152135e+000	-1.2615883262e+000
 1.4716554281e+000	 1.1210398302e+000	-1.3445405261e+000
 1.4600170874e+000	 1.1361558451e+000	-1.4230348959e+000
 1.4482158795e+000	 1.1511606171e+000	-1.4973302144e+000
 1.4362533970e+000	 1.1660515338e+000	-1.5676962344e+000
 1.5693665835e+000	 1.0260182876e+000	-6.9080977642e-001
 1.5587667838e+000	 1.0420513969e+000	-8.0869838246e-001
 1.5479922437e+000	 1.0579910271e+000	-9.1942865166e-001
 1.5370441670e+000	 1.0738343581e+000	-1.0231495281e+000
 1.5259238176e+000	 1.0895785896e+000	-1.1200212287e+000
 1.5146325190e+000	 1.1052209428e+000	-1.2102155481e+000
 1.5031716538e+000	 1.1207586623e+000	-1.2939161411e+000
 1.4915426636e+000	 1.1361890171e+000	-1.3713187803e+000
 1.4797470481e+000	 1.1515093025e+000	-1.4426315888e+000
 1.4677863643e+000	 1.1667168417e+000	-1.5080752457e+000
 1.4556622267e+000	 1.1818089870e+000	-1.5678831635e+000
 1.5902914713e+000	 1.0396985314e+000	-7.1086054369e-001
 1.5795503409e+000	 1.0559454155e+000	-8.3058841573e-001
 1.5686321403e+000	 1.0720975742e+000	-9.4180283753e-001
 1.5575380892e+000	 1.0881521496e+000	-1.0446057297e+000
 1.5462694685e+000	 1.1041063041e+000	-1.1391116340e+000
 1.5348276192e+000	 1.1199572221e+000	-1.2254480923e+000
 1.5232139425e+000	 1.1357021112e+000	-1.3037560016e+000
 1.5114298991e+000	 1.1513382040e+000	-1.3741899428e+000
 1.4994770087e+000	 1.1668627599e+000	-1.4369184810e+000
 1.4873568492e+000	 1.1822730662e+000	-1.4921244377e+000
 1.4750710564e+000	 1.1975664402e+000	-1.5400051319e+000
 1.6112163591e+000	 1.0533787753e+000	-7.1871728368e-001
 1.6003338980e+000	 1.0698394341e+000	-8.3884404770e-001
 1.5892720368e+000	 1.0862041212e+000	-9.4911585430e-001
 1.5780320114e+000	 1.1024699410e+000	-1.0495877767e+000
 1.5666151194e+000	 1.1186340186e+000	-1.1403288608e+000
 1.5550227194e+000	 1.1346935013e+000	-1.2214225792e+000
 1.5432562312e+000	 1.1506455600e+000	-1.2929672591e+000
 1.5313171347e+000	 1.1664873909e+000	-1.3550764815e+000
 1.5192069693e+000	 1.1822162172e+000	-1.4078794514e+000
 1.5069273341e+000	 1.1978292908e+000	-1.4515213357e+000
 1.4944798861e+000	 1.2133238933e+000	-1.4861635689e+000
 1.6321412469e+000	 1.0670590191e+000	-7.1579799695e-001
 1.6211174551e+000	 1.0837334528e+000	-8.3495269007e-001
 1.6099119334e+000	 1.1003106682e+000	-9.4292313137e-001
 1.5985259337e+000	 1.1167877324e+000	-1.0397176790e+000
 1.5869607703e+000	 1.1331617332e+000	-1.1253600198e+000
 1.5752178197e+000	 1.1494297806e+000	-1.1998896986e+000
 1.5632985200e+000	 1.1655890088e+000	-1.2633626193e+000
 1.5512043702e+000	 1.1816365778e+000	-1.3158515161e+000
 1.5389369300e+000	 1.1975696746e+000	-1.3574463925e+000
 1.5264978189e+000	 1.2133855153e+000	-1.3882549262e+000
 1.5138887158e+000	 1.2290813465e+000	-1.4084028392e+000
 1.6530661346e+000	 1.0807392629e+000	-7.0349337147e-001
 1.6419010122e+000	 1.0976274714e+000	-8.2037157742e-001
 1.6305518300e+000	 1.1144172153e+000	-9.2474710825e-001
 1.6190198559e+000	 1.1311055239e+000	-1.0165816973e+000
 1.6073064212e+000	 1.1476894477e+000	-1.0958537677e+000
 1.5954129199e+000	 1.1641660598e+000	-1.1625590376e+000
 1.5833408087e+000	 1.1805324577e+000	-1.2167110952e+000
 1.5710916057e+000	 1.1967857647e+000	-1.2583419419e+000
 1.5586668906e+000	 1.2129231320e+000	-1.2875025009e+000
 1.5460683038e+000	 1.2289417399e+000	-1.3042630898e+000
 1.5332975455e+000	 1.2448387997e+000	-1.3087138554e+000
 1.6739910224e+000	 1.0944195068e+000	-6.8316848971e-001
 1.6626845693e+000	 1.1115214900e+000	-7.9652965326e-001
 1.6511917266e+000	 1.1285237623e+000	-8.9607929646e-001
 1.6395137781e+000	 1.1454233153e+000	-9.8173257730e-001
 1.6276520721e+000	 1.1622171622e+000	-1.0534227107e+000
 1.6156080202e+000	 1.1789023391e+000	-1.1111016502e+000
 1.6033830974e+000	 1.1954759065e+000	-1.1547407376e+000
 1.5909788412e+000	 1.2119349516e+000	-1.1843313183e+000
 1.5783968513e+000	 1.2282765894e+000	-1.1998853205e+000
 1.5656387886e+000	 1.2444979645e+000	-1.2014357955e+000
 1.5527063751e+000	 1.2605962528e+000	-1.3801730056e+000
 1.3586180783e+000	 1.1030217212e+000	-1.2420448221e+000
 1.3471512186e+000	 1.1169975803e+000	-1.3303427256e+000
 1.3355349719e+000	 1.1308608840e+000	-1.4205598269e+000
 1.3237710003e+000	 1.1446092516e+000	-1.5122418274e+000
 1.3118610162e+000	 1.1582403353e+000	-1.6049382857e+000
 1.2998067814e+000	 1.1717518215e+000	-1.6982033443e+000
 1.2876101065e+000	 1.1851414320e+000	-1.7915964380e+000
 1.2752728496e+000	 1.1984069255e+000	-1.8846829840e+000
 1.2627969161e+000	 1.2115460986e+000	-1.9770350515e+000
 1.2501842566e+000	 1.2245567870e+000	-2.0682320086e+000
 1.2374368671e+000	 1.2374368671e+000	-1.9054226691e+000
 1.3780269080e+000	 1.1187791744e+000	-1.3767910367e+000
 1.3663962360e+000	 1.1329546886e+000	-1.4217749471e+000
 1.3546140429e+000	 1.1470160395e+000	-1.4665516404e+000
 1.3426820146e+000	 1.1609608123e+000	-1.5107433139e+000
 1.3306018879e+000	 1.1747866258e+000	-1.5539784812e+000
 1.3183754497e+000	 1.1884911332e+000	-1.5958926348e+000
 1.3060045366e+000	 1.2020720239e+000	-1.6361288881e+000
 1.2934910332e+000	 1.2155270244e+000	-1.6743385934e+000
 1.2808368720e+000	 1.2288539000e+000	-1.7101819364e+000
 1.2680440317e+000	 1.2420504554e+000	-1.7433285051e+000
 1.2551145366e+000	 1.2551145366e+000	-1.8760171666e+000
 1.3974357376e+000	 1.1345366275e+000	-1.4744126794e+000
 1.3856412534e+000	 1.1489117969e+000	-1.4794404224e+000
 1.3736931140e+000	 1.1631711949e+000	-1.4821702182e+000
 1.3615930289e+000	 1.1773123730e+000	-1.4822987932e+000
 1.3493427595e+000	 1.1913329163e+000	-1.4795316387e+000
 1.3369441180e+000	 1.2052304449e+000	-1.4735836130e+000
 1.3243989666e+000	 1.2190026158e+000	-1.4641795168e+000
 1.3117092168e+000	 1.2326471234e+000	-1.4510546433e+000
 1.2988768279e+000	 1.2461617014e+000	-1.4339552989e+000
 1.2859038068e+000	 1.2595441238e+000	-1.6056155120e+000
 1.2727922062e+000	 1.2727922062e+000	-1.8481712708e+000
 1.4168445673e+000	 1.1502940807e+000	-1.5372819426e+000
 1.4048862708e+000	 1.1648689052e+000	-1.5055750551e+000
 1.3927721850e+000	 1.1793263504e+000	-1.4695125769e+000
 1.3805040432e+000	 1.1936639338e+000	-1.4288638543e+000
 1.3680836312e+000	 1.2078792068e+000	-1.3834094397e+000
 1.3555127863e+000	 1.2219697567e+000	-1.3329416336e+000
 1.3427933967e+000	 1.2359332077e+000	-1.2772649974e+000
 1.3299274003e+000	 1.2497672223e+000	-1.2161968361e+000
 1.3169167839e+000	 1.2634695028e+000	-1.4230337510e+000
 1.3037635819e+000	 1.2770377922e+000	-1.6277224500e+000
 1.2904698757e+000	 1.2904698757e+000	-1.8246386542e+000
 1.4362533970e+000	 1.1660515338e+000	-1.5676962344e+000
 1.4241312882e+000	 1.1808260135e+000	-1.5023477932e+000
 1.4118512560e+000	 1.1954815059e+000	-1.4306167199e+000
 1.3994150575e+000	 1.2100154945e+000	-1.3523431261e+000
 1.3868245028e+000	 1.2244254973e+000	-1.2673807641e+000
 1.3740814546e+000	 1.2387090684e+000	-1.1755975116e+000
 1.3611878268e+000	 1.2528637995e+000	-1.1346881894e+000
 1.3481455839e+000	 1.2668873212e+000	-1.3139304933e+000
 1.3349567398e+000	 1.2807773042e+000	-1.4859777132e+000
 1.3216233570e+000	 1.2945314606e+000	-1.6499596468e+000
 1.3081475452e+000	 1.3081475452e+000	-1.8050079103e+000
 1.4556622267e+000	 1.1818089870e+000	-1.5678831635e+000
 1.4433763056e+000	 1.1967831217e+000	-1.4718650925e+000
 1.4309303270e+000	 1.2116366614e+000	-1.3674655719e+000
 1.4183260718e+000	 1.2263670552e+000	-1.2545936744e+000
 1.4055653745e+000	 1.2409717878e+000	-1.1331745440e+000
 1.3926501229e+000	 1.2554483801e+000	-1.1124372076e+000
 1.3795822569e+000	 1.2697943914e+000	-1.2645324477e+000
 1.3663637675e+000	 1.2840074202e+000	-1.4090512247e+000
 1.3529966958e+000	 1.2980851056e+000	-1.5451655046e+000
 1.3394831321e+000	 1.3120251289e+000	-1.6720482560e+000
 1.3258252148e+000	 1.3258252148e+000	-1.7888752556e+000
 1.4750710564e+000	 1.1975664402e+000	-1.5400051319e+000
 1.4626213230e+000	 1.2127402300e+000	-1.4161750284e+000
 1.4500093981e+000	 1.2277918169e+000	-1.2819906021e+000
 1.4372370861e+000	 1.2427186160e+000	-1.1374281311e+000
 1.4243062462e+000	 1.2575180783e+000	-1.1316441082e+000
 1.4112187912e+000	 1.2721876919e+000	-1.2616184638e+000
 1.3979766870e+000	 1.2867249833e+000	-1.3836008912e+000
 1.3845819510e+000	 1.3011275191e+000	-1.4968023635e+000
 1.3710366517e+000	 1.3153929070e+000	-1.6004340187e+000
 1.3573429072e+000	 1.3295187973e+000	-1.6937089536e+000
 1.3435028843e+000	 1.3435028843e+000	-1.7758440278e+000
 1.4944798861e+000	 1.2133238933e+000	-1.4861635689e+000
 1.4818663404e+000	 1.2286973383e+000	-1.3372710862e+000
 1.4690884691e+000	 1.2439469724e+000	-1.1760751660e+000
 1.4561481004e+000	 1.2590701767e+000	-1.1797649686e+000
 1.4430471178e+000	 1.2740643688e+000	-1.2925063829e+000
 1.4297874596e+000	 1.2889270036e+000	-1.3968150692e+000
 1.4163711171e+000	 1.3036555752e+000	-1.4919379920e+000
 1.4028001346e+000	 1.3182476180e+000	-1.5771214109e+000
 1.3890766077e+000	 1.3327007084e+000	-1.6516126651e+000
 1.3752026823e+000	 1.3470124657e+000	-1.7146619699e+000
 1.3611805538e+000	 1.3611805538e+000	-1.7655242237e+000
 1.5138887158e+000	 1.2290813465e+000	-1.4084028392e+000
 1.5011113578e+000	 1.2446544466e+000	-1.2370956610e+000
 1.4881675401e+000	 1.2601021278e+000	-1.2447925131e+000
 1.4750591147e+000	 1.2754217375e+000	-1.3450423843e+000
 1.4617879895e+000	 1.2906106593e+000	-1.4364018325e+000
 1.4483561279e+000	 1.3056663153e+000	-1.5181509576e+000
 1.4347655472e+000	 1.3205861671e+000	-1.5895682458e+000
 1.4210183182e+000	 1.3353677170e+000	-1.6499323435e+000
 1.4071165636e+000	 1.3500085098e+000	-1.6985238492e+000
 1.3930624574e+000	 1.3645061341e+000	-1.7346271177e+000
 1.3788582233e+000	 1.3788582233e+000	-1.7575320723e+000
 1.5332975455e+000	 1.2448387997e+000	-1.3087138554e+000
 1.5203563752e+000	 1.2606115549e+000	-1.3152476682e+000
 1.5072466111e+000	 1.2762572833e+000	-1.4075925428e+000
 1.4939701289e+000	 1.2917732982e+000	-1.4905805108e+000
 1.4805288611e+000	 1.3071569498e+000	-1.5635221269e+000
 1.4669247962e+000	 1.3224056271e+000	-1.6257253758e+000
 1.4531599773e+000	 1.3375167590e+000	-1.6764974367e+000
 1.4392365017e+000	 1.3524878159e+000	-1.7151464690e+000
 1.4251565195e+000	 1.3673163112e+000	-1.7409834159e+000
 1.4109222325e+000	 1.3819998025e+000	-1.7533238187e+000
 1.3965358929e+000	 1.3965358929e+000	-1.7514896399e+000
 1.5527063751e+000	 1.2605962528e+000	-1.3801730056e+000
 1.5396013926e+000	 1.2765686632e+000	-1.4690363325e+000
 1.5263256822e+000	 1.2924124388e+000	-1.5480752342e+000
 1.5128811432e+000	 1.3081248589e+000	-1.6166282292e+000
 1.4992697328e+000	 1.3237032403e+000	-1.6740302558e+000
 1.4854934645e+000	 1.3391449388e+000	-1.7196144260e+000
 1.4715544074e+000	 1.3544473509e+000	-1.7527138061e+000
 1.4574546853e+000	 1.3696079148e+000	-1.7726632183e+000
 1.4431964755e+000	 1.3846241126e+000	-1.7788010589e+000
 1.4287820076e+000	 1.3994934709e+000	-1.7704711281e+000
 1.4142135624e+000	 1.4142135624e+000	-1.7470244660e+000
 1.2374368671e+000	 1.2374368671e+000	-1.9054226691e+000
 1.2245567870e+000	 1.2501842566e+000	-1.7697317913e+000
 1.2115460986e+000	 1.2627969161e+000	-1.8712647498e+000
 1.1984069255e+000	 1.2752728496e+000	-1.9604230796e+000
 1.1851414320e+000	 1.2876101065e+000	-2.0368906119e+000
 1.1717518215e+000	 1.2998067814e+000	-2.1003555228e+000
 1.1582403353e+000	 1.3118610162e+000	-2.1505106898e+000
 1.1446092516e+000	 1.3237710003e+000	-2.1870540533e+000
 1.1308608840e+000	 1.3355349719e+000	-2.2096889845e+000
 1.1169975803e+000	 1.3471512186e+000	-2.2181246579e+000
 1.1030217212e+000	 1.3586180783e+000	-2.2120764270e+000
 1.2551145366e+000	 1.2551145366e+000	-1.8760171666e+000
 1.2420504554e+000	 1.2680440317e+000	-2.0330238621e+000
 1.2288539000e+000	 1.2808368720e+000	-2.0756748351e+000
 1.2155270244e+000	 1.2934910332e+000	-2.1080188782e+000
 1.2020720239e+000	 1.3060045366e+000	-2.1298313873e+000
 1.1884911332e+000	 1.3183754497e+000	-2.1408896058e+000
 1.1747866258e+000	 1.3306018879e+000	-2.1409728944e+000
 1.1609608123e+000	 1.3426820146e+000	-2.1298630112e+000
 1.1470160395e+000	 1.3546140429e+000	-2.1073444015e+000
 1.1329546886e+000	 1.3663962360e+000	-2.0732044970e+000
 1.1187791744e+000	 1.3780269080e+000	-2.0272340227e+000
 1.2727922062e+000	 1.2727922062e+000	-1.8481712708e+000
 1.2595441238e+000	 1.2859038068e+000	-2.1164723171e+000
 1.2461617014e+000	 1.2988768279e+000	-2.3015063434e+000
 1.2326471234e+000	 1.3117092168e+000	-2.2802571556e+000
 1.2190026158e+000	 1.3243989666e+000	-2.2505892344e+000
 1.2052304449e+000	 1.3369441180e+000	-2.2123673508e+000
 1.1913329163e+000	 1.3493427595e+000	-2.1654558269e+000
 1.1773123730e+000	 1.3615930289e+000	-2.1097187353e+000
 1.1631711949e+000	 1.3736931140e+000	-2.0450201130e+000
 1.1489117969e+000	 1.3856412534e+000	-1.9712241881e+000
 1.1345366275e+000	 1.3974357376e+000	-1.8881956198e+000
 1.2904698757e+000	 1.2904698757e+000	-1.8246386542e+000
 1.2770377922e+000	 1.3037635819e+000	-2.0451240072e+000
 1.2634695028e+000	 1.3169167839e+000	-2.2640944522e+000
 1.2497672223e+000	 1.3299274003e+000	-2.4756711338e+000
 1.2359332077e+000	 1.3427933967e+000	-2.3975536752e+000
 1.2219697567e+000	 1.3555127863e+000	-2.3130375264e+000
 1.2078792068e+000	 1.3680836312e+000	-2.2220705140e+000
 1.1936639338e+000	 1.3805040432e+000	-2.1245975851e+000
 1.1793263504e+000	 1.3927721850e+000	-2.0205609461e+000
 1.1648689052e+000	 1.4048862708e+000	-1.9099002192e+000
 1.1502940807e+000	 1.4168445673e+000	-1.7925526161e+000
 1.3081475452e+000	 1.3081475452e+000	-1.8050079103e+000
 1.2945314606e+000	 1.3216233570e+000	-1.9812501707e+000
 1.2807773042e+000	 1.3349567398e+000	-2.1578469817e+000
 1.2668873212e+000	 1.3481455839e+000	-2.3338606073e+000
 1.2528637995e+000	 1.3611878268e+000	-2.5083529419e+000
 1.2387090684e+000	 1.3740814546e+000	-2.4411969140e+000
 1.2244254973e+000	 1.3868245028e+000	-2.3089835657e+000
 1.2100154945e+000	 1.3994150575e+000	-2.1725389320e+000
 1.1954815059e+000	 1.4118512560e+000	-2.0318820238e+000
 1.1808260135e+000	 1.4241312882e+000	-1.8870265099e+000
 1.1660515338e+000	 1.4362533970e+000	-1.7379808251e+000
 1.3258252148e+000	 1.3258252148e+000	-1.7888752556e+000
 1.3120251289e+000	 1.3394831321e+000	-1.9243303799e+000
 1.2980851056e+000	 1.3529966958e+000	-2.0619640132e+000
 1.2840074202e+000	 1.3663637675e+000	-2.2008763597e+000
 1.2697943914e+000	 1.3795822569e+000	-2.3401653741e+000
 1.2554483801e+000	 1.3926501229e+000	-2.4789286708e+000
 1.2409717878e+000	 1.4055653745e+000	-2.4244134692e+000
 1.2263670552e+000	 1.4183260718e+000	-2.2516409581e+000
 1.2116366614e+000	 1.4309303270e+000	-2.0769640782e+000
 1.1967831217e+000	 1.4433763056e+000	-1.9004692486e+000
 1.1818089870e+000	 1.4556622267e+000	-1.7222348481e+000
 1.3435028843e+000	 1.3435028843e+000	-1.7758440278e+000
 1.3295187973e+000	 1.3573429072e+000	-1.8738584980e+000
 1.3153929070e+000	 1.3710366517e+000	-1.9758319801e+000
 1.3011275191e+000	 1.3845819510e+000	-2.0808996180e+000
 1.2867249833e+000	 1.3979766870e+000	-2.1881924553e+000
 1.2721876919e+000	 1.4112187912e+000	-2.2968393526e+000
 1.2575180783e+000	 1.4243062462e+000	-2.4059689058e+000
 1.2427186160e+000	 1.4372370861e+000	-2.3600567874e+000
 1.2277918169e+000	 1.4500093981e+000	-2.1538491340e+000
 1.2127402300e+000	 1.4626213230e+000	-1.9481621385e+000
 1.1975664402e+000	 1.4750710564e+000	-1.7431428906e+000
 1.3611805538e+000	 1.3611805538e+000	-1.7655242237e+000
 1.3470124657e+000	 1.3752026823e+000	-1.8293417513e+000
 1.3327007084e+000	 1.3890766077e+000	-1.8988572823e+000
 1.3182476180e+000	 1.4028001346e+000	-1.9732379293e+000
 1.3036555752e+000	 1.4163711171e+000	-2.0516448818e+000
 1.2889270036e+000	 1.4297874596e+000	-2.1332353347e+000
 1.2740643688e+000	 1.4430471178e+000	-2.2171644211e+000
 1.2590701767e+000	 1.4561481004e+000	-2.3025871425e+000
 1.2439469724e+000	 1.4690884691e+000	-2.2606365290e+000
 1.2286973383e+000	 1.4818663404e+000	-2.0281020133e+000
 1.2133238933e+000	 1.4944798861e+000	-1.7986019833e+000
 1.3788582233e+000	 1.3788582233e+000	-1.7575320723e+000
 1.3645061341e+000	 1.3930624574e+000	-1.7902998721e+000
 1.3500085098e+000	 1.4071165636e+000	-1.8304650063e+000
 1.3353677170e+000	 1.4210183182e+000	-1.8772236114e+000
 1.3205861671e+000	 1.4347655472e+000	-1.9297641042e+000
 1.3056663153e+000	 1.4483561279e+000	-1.9872691265e+000
 1.2906106593e+000	 1.4617879895e+000	-2.0489174946e+000
 1.2754217375e+000	 1.4750591147e+000	-2.1138861508e+000
 1.2601021278e+000	 1.4881675401e+000	-2.1813521103e+000
 1.2446544466e+000	 1.5011113578e+000	-2.1383447905e+000
 1.2290813465e+000	 1.5138887158e+000	-1.8865735698e+000
 1.3965358929e+000	 1.3965358929e+000	-1.7514896399e+000
 1.3819998025e+000	 1.4109222325e+000	-1.7562643078e+000
 1.3673163112e+000	 1.4251565195e+000	-1.7700977429e+000
 1.3524878159e+000	 1.4392365017e+000	-1.7922121846e+000
 1.3375167590e+000	 1.4531599773e+000	-1.8218203814e+000
 1.3224056271e+000	 1.4669247962e+000	-1.8581275548e+000
 1.3071569498e+000	 1.4805288611e+000	-1.9003333710e+000
 1.2917732982e+000	 1.4939701289e+000	-1.9476339163e+000
 1.2762572833e+000	 1.5072466111e+000	-1.9992236695e+000
 1.2606115549e+000	 1.5203563752e+000	-2.0542974684e+000
 1.2448387997e+000	 1.5332975455e+000	-2.0050794300e+000
 1.4142135624e+000	 1.4142135624e+000	-1.7470244660e+000
 1.3994934709e+000	 1.4287820076e+000	-1.7267774882e+000
 1.3846241126e+000	 1.4431964755e+000	-1.7172144929e+000
 1.3696079148e+000	 1.4574546853e+000	-1.7175809219e+000
 1.3544473509e+000	 1.4715544074e+000	-1.7271109795e+000
 1.3391449388e+000	 1.4854934645e+000	-1.7450296190e+000
 1.3237032403e+000	 1.4992697328e+000	-1.7705545402e+000
 1.3081248589e+000	 1.5128811432e+000	-1.8028981928e+000
 1.2924124388e+000	 1.5263256822e+000	-1.8412697786e+000
 1.2765686632e+000	 1.5396013926e+000	-1.8848772496e+000
 1.2605962528e+000	 1.5527063751e+000	-1.9329292946e+000
 1.1030217212e+000	 1.3586180783e+000	-2.2120764270e+000
 1.0889357189e+000	 1.3699339401e+000	-2.2468824756e+000
 1.0747420157e+000	 1.3810972449e+000	-2.2734308218e+000
 1.0604430826e+000	 1.3921064861e+000	-2.2924268333e+000
 1.0460414182e+000	 1.4029602102e+000	-2.3045733381e+000
 1.0315395467e+000	 1.4136570177e+000	-2.3105700224e+000
 1.0169400169e+000	 1.4241955631e+000	-2.3111128479e+000
 1.0022454009e+000	 1.4345745559e+000	-2.3068934874e+000
 9.8745829198e-001	 1.4447927608e+000	-2.2985987798e+000
 9.7258130376e-001	 1.4548489982e+000	-2.2869102053e+000
 9.5761706841e-001	 1.4647421446e+000	-2.2725033803e+000
 1.1187791744e+000	 1.3780269080e+000	-2.0272340227e+000
 1.1044919435e+000	 1.3895044249e+000	-2.0658020852e+000
 1.0900954730e+000	 1.4008272055e+000	-2.0974460317e+000
 1.0755922695e+000	 1.4119937216e+000	-2.1228135936e+000
 1.0609848670e+000	 1.4230024989e+000	-2.1425487250e+000
 1.0462758259e+000	 1.4338521179e+000	-2.1572910742e+000
 1.0314677315e+000	 1.4445412140e+000	-2.1676754762e+000
 1.0165631923e+000	 1.4550684781e+000	-2.1743314647e+000
 1.0015648390e+000	 1.4654326574e+000	-2.1778828056e+000
 9.8647532238e-001	 1.4756325553e+000	-2.1789470506e+000
 9.7129731225e-001	 1.4856670324e+000	-2.1781351128e+000
 1.1345366275e+000	 1.3974357376e+000	-1.8881956198e+000
 1.1200481680e+000	 1.4090749098e+000	-1.9274773235e+000
 1.1054489304e+000	 1.4205571661e+000	-1.9611526635e+000
 1.0907414564e+000	 1.4318809571e+000	-1.9898130829e+000
 1.0759283158e+000	 1.4430447877e+000	-2.0140450016e+000
 1.0610121051e+000	 1.4540472182e+000	-2.0344293607e+000
 1.0459954460e+000	 1.4648868649e+000	-2.0515411887e+000
 1.0308809838e+000	 1.4755624003e+000	-2.0659491897e+000
 1.0156713860e+000	 1.4860725539e+000	-2.0782153538e+000
 1.0003693410e+000	 1.4964161124e+000	-2.0888945890e+000
 9.8497755608e-001	 1.5065919202e+000	-2.0985343762e+000
 1.1502940807e+000	 1.4168445673e+000	-1.7925526161e+000
 1.1356043926e+000	 1.4286453946e+000	-1.8296184459e+000
 1.1208023878e+000	 1.4402871268e+000	-1.8623814418e+000
 1.1058906433e+000	 1.4517681926e+000	-1.8913780441e+000
 1.0908717647e+000	 1.4630870764e+000	-1.9171384145e+000
 1.0757483844e+000	 1.4742423185e+000	-1.9401860527e+000
 1.0605231605e+000	 1.4852325158e+000	-1.9610374356e+000
 1.0451987752e+000	 1.4960563226e+000	-1.9802016804e+000
 1.0297779331e+000	 1.5067124505e+000	-1.9981802317e+000
 1.0142633596e+000	 1.5171996695e+000	-2.0154665707e+000
 9.9865779992e-001	 1.5275168080e+000	-2.0325459490e+000
 1.1660515338e+000	 1.4362533970e+000	-1.7379808251e+000
 1.1511606171e+000	 1.4482158795e+000	-1.7700139451e+000
 1.1361558451e+000	 1.4600170874e+000	-1.7990350870e+000
 1.1210398302e+000	 1.4716554281e+000	-1.8255269141e+000
 1.1058152135e+000	 1.4831293651e+000	-1.8499645454e+000
 1.0904846636e+000	 1.4944374187e+000	-1.8728152432e+000
 1.0750508751e+000	 1.5055781667e+000	-1.8945381251e+000
 1.0595165667e+000	 1.5165502448e+000	-1.9155839014e+000
 1.0438844801e+000	 1.5273523471e+000	-1.9363946372e+000
 1.0281573783e+000	 1.5379832267e+000	-1.9574035395e+000
 1.0123380438e+000	 1.5484416958e+000	-1.9790347683e+000
 1.1818089870e+000	 1.4556622267e+000	-1.7222348481e+000
 1.1667168417e+000	 1.4677863643e+000	-1.7465253352e+000
 1.1515093025e+000	 1.4797470481e+000	-1.7690835157e+000
 1.1361890171e+000	 1.4915426636e+000	-1.7903394444e+000
 1.1207586623e+000	 1.5031716538e+000	-1.8107143552e+000
 1.1052209428e+000	 1.5146325190e+000	-1.8306204188e+000
 1.0895785896e+000	 1.5259238176e+000	-1.8504605264e+000
 1.0738343581e+000	 1.5370441670e+000	-1.8706281007e+000
 1.0579910271e+000	 1.5479922437e+000	-1.8915069331e+000
 1.0420513969e+000	 1.5587667838e+000	-1.9134710470e+000
 1.0260182876e+000	 1.5693665835e+000	-1.9368845863e+000
 1.1975664402e+000	 1.4750710564e+000	-1.7431428906e+000
 1.1822730662e+000	 1.4873568492e+000	-1.7570823481e+000
 1.1668627599e+000	 1.4994770087e+000	-1.7705594198e+000
 1.1513382040e+000	 1.5114298991e+000	-1.7839526668e+000
 1.1357021112e+000	 1.5232139425e+000	-1.7976305408e+000
 1.1199572221e+000	 1.5348276192e+000	-1.8119512104e+000
 1.1041063041e+000	 1.5462694685e+000	-1.8272624168e+000
 1.0881521496e+000	 1.5575380892e+000	-1.8439013572e+000
 1.0720975742e+000	 1.5686321403e+000	-1.8621945967e+000
 1.0559454155e+000	 1.5795503409e+000	-1.8824580070e+000
 1.0396985314e+000	 1.5902914713e+000	-1.9049967322e+000
 1.2133238933e+000	 1.4944798861e+000	-1.7986019833e+000
 1.1978292908e+000	 1.5069273341e+000	-1.7996785034e+000
 1.1822162172e+000	 1.5192069693e+000	-1.8015541902e+000
 1.1664873909e+000	 1.5313171347e+000	-1.8045571745e+000
 1.1506455600e+000	 1.5432562312e+000	-1.8090041757e+000
 1.1346935013e+000	 1.5550227194e+000	-1.8152003970e+000
 1.1186340186e+000	 1.5666151194e+000	-1.8234394515e+000
 1.1024699410e+000	 1.5780320114e+000	-1.8340033187e+000
 1.0862041212e+000	 1.5892720368e+000	-1.8471623289e+000
 1.0698394341e+000	 1.6003338980e+000	-1.8631751784e+000
 1.0533787753e+000	 1.6112163591e+000	-1.8822889711e+000
 1.2290813465e+000	 1.5138887158e+000	-1.8865735698e+000
 1.2133855153e+000	 1.5264978189e+000	-1.8723670195e+000
 1.1975696746e+000	 1.5389369300e+000	-1.8602141542e+000
 1.1816365778e+000	 1.5512043702e+000	-1.8503936882e+000
 1.1655890088e+000	 1.5632985200e+000	-1.8431716087e+000
 1.1494297806e+000	 1.5752178197e+000	-1.8388011392e+000
 1.1331617332e+000	 1.5869607703e+000	-1.8375227356e+000
 1.1167877324e+000	 1.5985259337e+000	-1.8395641141e+000
 1.1003106682e+000	 1.6099119334e+000	-1.8451403096e+000
 1.0837334528e+000	 1.6211174551e+000	-1.8544537652e+000
 1.0670590191e+000	 1.6321412469e+000	-1.8676944502e+000
 1.2448387997e+000	 1.5332975455e+000	-2.0050794300e+000
 1.2289417399e+000	 1.5460683038e+000	-1.9732570355e+000
 1.2129231320e+000	 1.5586668906e+000	-1.9447370983e+000
 1.1967857647e+000	 1.5710916057e+000	-1.9197498835e+000
 1.1805324577e+000	 1.5833408087e+000	-1.8985115985e+000
 1.1641660598e+000	 1.5954129199e+000	-1.8812244241e+000
 1.1476894477e+000	 1.6073064212e+000	-1.8680765802e+000
 1.1311055239e+000	 1.6190198559e+000	-1.8592424245e+000
 1.1144172153e+000	 1.6305518300e+000	-1.8548825848e+000
 1.0976274714e+000	 1.6419010122e+000	-1.8551441224e+000
 1.0807392629e+000	 1.6530661346e+000	-1.8601607254e+000
 1.2605962528e+000	 1.5527063751e+000	-1.9329292946e+000
 1.2444979645e+000	 1.5656387886e+000	-2.1005101157e+000
 1.2282765894e+000	 1.5783968513e+000	-2.0533690521e+000
 1.2119349516e+000	 1.5909788412e+000	-2.0109574566e+000
 1.1954759065e+000	 1.6033830974e+000	-1.9734426633e+000
 1.1789023391e+000	 1.6156080202e+000	-1.9409767008e+000
 1.1622171622e+000	 1.6276520721e+000	-1.9136964269e+000
 1.1454233153e+000	 1.6395137781e+000	-1.8917236983e+000
 1.1285237623e+000	 1.6511917266e+000	-1.8751655752e+000
 1.1115214900e+000	 1.6626845693e+000	-1.8641145588e+000
 1.0944195068e+000	 1.6739910224e+000	-1.8586488605e+000
 9.5761706841e-001	 1.4647421446e+000	-2.2725033803e+000
 9.4256823526e-001	 1.4744711329e+000	-2.2194593242e+000
 9.2743746930e-001	 1.4840349526e+000	-2.1676602559e+000
 9.1222744964e-001	 1.4934326500e+000	-2.1173059246e+000
 8.9694086807e-001	 1.5026633286e+000	-2.0685894442e+000
 8.8158042754e-001	 1.5117261490e+000	-2.0216973659e+000
 8.6614884069e-001	 1.5206203292e+000	-1.9768097653e+000
 8.5064882832e-001	 1.5293451444e+000	-1.9341003435e+000
 8.3508311794e-001	 1.5378999272e+000	-1.8937365417e+000
 8.1945444228e-001	 1.5462840674e+000	-1.8558796681e+000
 8.0376553783e-001	 1.5544970119e+000	-1.8206850358e+000
 9.7129731225e-001	 1.4856670324e+000	-2.1781351128e+000
 9.5603349577e-001	 1.4955350063e+000	-2.1213075090e+000
 9.4068657601e-001	 1.5052354519e+000	-2.0654771407e+000
 9.2525927035e-001	 1.5147674021e+000	-2.0109054989e+000
 9.0975430904e-001	 1.5241299476e+000	-1.9578469407e+000
 8.9417443366e-001	 1.5333222369e+000	-1.9065487112e+000
 8.7852239556e-001	 1.5423434768e+000	-1.8572509820e+000
 8.6280095444e-001	 1.5511929322e+000	-1.8101869049e+000
 8.4701287677e-001	 1.5598699262e+000	-1.7655826806e+000
 8.3116093432e-001	 1.5683738397e+000	-1.7236576411e+000
 8.1524790266e-001	 1.5767041121e+000	-1.6846243455e+000
 9.8497755608e-001	 1.5065919202e+000	-2.0985343762e+000
 9.6949875628e-001	 1.5165988796e+000	-2.0404072806e+000
 9.5393568271e-001	 1.5264359512e+000	-1.9830488331e+000
 9.3829109106e-001	 1.5361021543e+000	-1.9267807501e+000
 9.2256775002e-001	 1.5455965666e+000	-1.8719171020e+000
 9.0676843977e-001	 1.5549183247e+000	-1.8187642864e+000
 8.9089595043e-001	 1.5640666244e+000	-1.7676210194e+000
 8.7495308057e-001	 1.5730407200e+000	-1.7187783437e+000
 8.5894263560e-001	 1.5818399251e+000	-1.6725196535e+000
 8.4286742635e-001	 1.5904636121e+000	-1.6291207342e+000
 8.2673026749e-001	 1.5989112123e+000	-1.5888498177e+000
 9.9865779992e-001	 1.5275168080e+000	-2.0325459490e+000
 9.8296401678e-001	 1.5376627529e+000	-1.9755040389e+000
 9.6718478942e-001	 1.5476364506e+000	-1.9190213971e+000
 9.5132291177e-001	 1.5574369064e+000	-1.8634784924e+000
 9.3538119099e-001	 1.5670631856e+000	-1.8092476209e+000
 9.1936244588e-001	 1.5765144126e+000	-1.7566928332e+000
 9.0326950530e-001	 1.5857897719e+000	-1.7061698798e+000
 8.8710520669e-001	 1.5948885078e+000	-1.6580261758e+000
 8.7087239443e-001	 1.6038099241e+000	-1.6126007832e+000
 8.5457391839e-001	 1.6125533845e+000	-1.5702244105e+000
 8.3821263232e-001	 1.6211183125e+000	-1.5312194284e+000
 1.0123380438e+000	 1.5484416958e+000	-1.9790347683e+000
 9.9642927729e-001	 1.5587266262e+000	-1.9253691822e+000
 9.8043389613e-001	 1.5688369499e+000	-1.8720727530e+000
 9.6435473249e-001	 1.5787716586e+000	-1.8195832682e+000
 9.4819463197e-001	 1.5885298045e+000	-1.7683298021e+000
 9.3195645199e-001	 1.5981105004e+000	-1.7187325979e+000
 9.1564306017e-001	 1.6075129195e+000	-1.6712029693e+000
 8.9925733281e-001	 1.6167362956e+000	-1.6261432234e+000
 8.8280215326e-001	 1.6257799230e+000	-1.5839466023e+000
 8.6628041042e-001	 1.6346431569e+000	-1.5449972440e+000
 8.4969499715e-001	 1.6433254126e+000	-1.5096701608e+000
 1.0260182876e+000	 1.5693665835e+000	-1.9368845863e+000
 1.0098945378e+000	 1.5797904996e+000	-1.8887983746e+000
 9.9368300283e-001	 1.5900374492e+000	-1.8409105532e+000
 9.7738655320e-001	 1.6001064107e+000	-1.7937148324e+000
 9.6100807294e-001	 1.6099964235e+000	-1.7476956545e+000
 9.4455045810e-001	 1.6197065883e+000	-1.7033280311e+000
 9.2801661504e-001	 1.6292360671e+000	-1.6610774042e+000
 9.1140945893e-001	 1.6385840833e+000	-1.6213995281e+000
 8.9473191209e-001	 1.6477499220e+000	-1.5847403723e+000
 8.7798690246e-001	 1.6567329293e+000	-1.5515360453e+000
 8.6117736198e-001	 1.6655325128e+000	-1.5222127379e+000
 1.0396985314e+000	 1.5902914713e+000	-1.9049967322e+000
 1.0233597983e+000	 1.6008543729e+000	-1.8646099489e+000
 1.0069321095e+000	 1.6112379485e+000	-1.8242702261e+000
 9.9041837391e-001	 1.6214411629e+000	-1.7845258364e+000
 9.7382151392e-001	 1.6314630425e+000	-1.7459152133e+000
 9.5714446421e-001	 1.6413026761e+000	-1.7089667479e+000
 9.4039016991e-001	 1.6509592146e+000	-1.6741986089e+000
 9.2356158505e-001	 1.6604318711e+000	-1.6421185861e+000
 9.0666167092e-001	 1.6697199210e+000	-1.6132239566e+000
 8.8969339449e-001	 1.6788227017e+000	-1.5880013727e+000
 8.7265972680e-001	 1.6877396130e+000	-1.5669267718e+000
 1.0533787753e+000	 1.6112163591e+000	-1.8822889711e+000
 1.0368250588e+000	 1.6219182462e+000	-1.8516434352e+000
 1.0201812162e+000	 1.6324384478e+000	-1.8209131730e+000
 1.0034501946e+000	 1.6427759150e+000	-1.7906996912e+000
 9.8663495489e-001	 1.6529296615e+000	-1.7615940711e+000
 9.6973847032e-001	 1.6628987640e+000	-1.7341767253e+000
 9.5276372478e-001	 1.6726823622e+000	-1.7090171792e+000
 9.3571371117e-001	 1.6822796589e+000	-1.6866738776e+000
 9.1859142975e-001	 1.6916899199e+000	-1.6676940154e+000
 9.0139988653e-001	 1.7009124741e+000	-1.6526133922e+000
 8.8414209163e-001	 1.7099467131e+000	-1.6419562898e+000
 1.0670590191e+000	 1.6321412469e+000	-1.8676944502e+000
 1.0502903193e+000	 1.6429821195e+000	-1.8487582016e+000
 1.0334303230e+000	 1.6536389472e+000	-1.8296251026e+000
 1.0164820153e+000	 1.6641106671e+000	-1.8109485962e+000
 9.9944839587e-001	 1.6743962805e+000	-1.7933710981e+000
 9.8233247643e-001	 1.6844948518e+000	-1.7775237145e+000
 9.6513727965e-001	 1.6944055097e+000	-1.7640259865e+000
 9.4786583729e-001	 1.7041274467e+000	-1.7534856621e+000
 9.3052118858e-001	 1.7136599189e+000	-1.7464984930e+000
 9.1310637856e-001	 1.7230022465e+000	-1.7436480571e+000
 8.9562445646e-001	 1.7321538133e+000	-1.7455056054e+000
 1.0807392629e+000	 1.6530661346e+000	-1.8601607254e+000
 1.0637555798e+000	 1.6640459929e+000	-1.8548321990e+000
 1.0466794297e+000	 1.6748394465e+000	-1.8492144926e+000
 1.0295138360e+000	 1.6854454193e+000	-1.8440117170e+000
 1.0122618368e+000	 1.6958628994e+000	-1.8399163364e+000
 9.9492648253e-001	 1.7060909396e+000	-1.8376088502e+000
 9.7751083451e-001	 1.7161286573e+000	-1.8377575022e+000
 9.6001796341e-001	 1.7259752344e+000	-1.8410180183e+000
 9.4245094741e-001	 1.7356299178e+000	-1.8480333721e+000
 9.2481287059e-001	 1.7450920189e+000	-1.8594335765e+000
 9.0710682128e-001	 1.7543609135e+000	-1.8758355029e+000
 1.0944195068e+000	 1.6739910224e+000	-1.8586488605e+000
 1.0772208403e+000	 1.6851098662e+000	-1.8687607994e+000
 1.0599285364e+000	 1.6960399458e+000	-1.8785111672e+000
 1.0425456567e+000	 1.7067801714e+000	-1.8886534999e+000
 1.0250752778e+000	 1.7173295184e+000	-1.8999290514e+000
 1.0075204886e+000	 1.7276870275e+000	-1.9130664396e+000
 9.8988438938e-001	 1.7378518049e+000	-1.9287813227e+000
 9.7217008953e-001	 1.7478230222e+000	-1.9477761049e+000
 9.5438070623e-001	 1.7575999168e+000	-1.9707396709e+000
 9.3651936262e-001	 1.7671817913e+000	-1.9983471502e+000
 9.1858918611e-001	 1.7765680137e+000	-2.0312597077e+000
 8.0376553783e-001	 1.5544970119e+000	-1.8206850358e+000
 7.8801914338e-001	 1.5625382650e+000	-1.8185592339e+000
 7.7221799855e-001	 1.5704073875e+000	-1.8104327626e+000
 7.5636484241e-001	 1.5781039969e+000	-1.7963842258e+000
 7.4046241198e-001	 1.5856277673e+000	-1.7764959369e+000
 7.2451344093e-001	 1.5929784285e+000	-1.7508540513e+000
 7.0852065808e-001	 1.6001557665e+000	-1.7195486946e+000
 6.9248678611e-001	 1.6071596221e+000	-1.6826740842e+000
 6.7641454021e-001	 1.6139898915e+000	-1.6403286466e+000
 6.6030662669e-001	 1.6206465249e+000	-1.5926151266e+000
 6.4416574173e-001	 1.6271295268e+000	-1.5396406907e+000
 8.1524790266e-001	 1.5767041121e+000	-1.6846243455e+000
 7.9927655972e-001	 1.5848602402e+000	-1.6726845743e+000
 7.8324968425e-001	 1.5928417787e+000	-1.6558873266e+000
 7.6717005444e-001	 1.6006483397e+000	-1.6342931193e+000
 7.5104044644e-001	 1.6082795925e+000	-1.6079653456e+000
 7.3486363294e-001	 1.6157352632e+000	-1.5769704486e+000
 7.1864238176e-001	 1.6230151346e+000	-1.5413780892e+000
 7.0237945449e-001	 1.6301190453e+000	-1.5012613105e+000
 6.8607760507e-001	 1.6370468899e+000	-1.4566966956e+000
 6.6973957850e-001	 1.6437986181e+000	-1.4077645200e+000
 6.5336810947e-001	 1.6503742344e+000	-1.3545488964e+000
 8.2673026749e-001	 1.5989112123e+000	-1.5888498177e+000
 8.1053397605e-001	 1.6071822154e+000	-1.5666294156e+000
 7.9428136994e-001	 1.6152761700e+000	-1.5406806624e+000
 7.7797526648e-001	 1.6231926825e+000	-1.5110459284e+000
 7.6161848090e-001	 1.6309314178e+000	-1.4777696301e+000
 7.4521382496e-001	 1.6384920979e+000	-1.4408984440e+000
 7.2876410545e-001	 1.6458745027e+000	-1.4004815166e+000
 7.1227212286e-001	 1.6530784685e+000	-1.3565706705e+000
 6.9574066993e-001	 1.6601038884e+000	-1.3092206038e+000
 6.7917253031e-001	 1.6669507113e+000	-1.2584890859e+000
 6.6257047722e-001	 1.6736189419e+000	-1.2044371442e+000
 8.3821263232e-001	 1.6211183125e+000	-1.5312194284e+000
 8.2179139239e-001	 1.6295041906e+000	-1.4982809407e+000
 8.0531305564e-001	 1.6377105612e+000	-1.4627303357e+000
 7.8878047852e-001	 1.6457370254e+000	-1.4245917527e+000
 7.7219651536e-001	 1.6535832430e+000	-1.3838905491e+000
 7.5556401697e-001	 1.6612489326e+000	-1.3406535554e+000
 7.3888582914e-001	 1.6687338708e+000	-1.2949093272e+000
 7.2216479124e-001	 1.6760378917e+000	-1.2466883931e+000
 7.0540373479e-001	 1.6831608868e+000	-1.1960234978e+000
 6.8860548212e-001	 1.6901028046e+000	-1.1429498393e+000
 6.7177284496e-001	 1.6968636494e+000	-1.0875053004e+000
 8.4969499715e-001	 1.6433254126e+000	-1.5096701608e+000
 8.3304880872e-001	 1.6518261659e+000	-1.4656044027e+000
 8.1634474134e-001	 1.6601449525e+000	-1.4200309956e+000
 7.9958569055e-001	 1.6682813682e+000	-1.3729557395e+000
 7.8277454982e-001	 1.6762350683e+000	-1.3243848259e+000
 7.6591420899e-001	 1.6840057673e+000	-1.2743251346e+000
 7.4900755283e-001	 1.6915932389e+000	-1.2227845278e+000
 7.3205745961e-001	 1.6989973148e+000	-1.1697721411e+000
 7.1506679966e-001	 1.7062178853e+000	-1.1152986697e+000
 6.9803843393e-001	 1.7132548978e+000	-1.0593766491e+000
 6.8097521270e-001	 1.7201083570e+000	-1.0020207297e+000
 8.6117736198e-001	 1.6655325128e+000	-1.5222127379e+000
 8.4430622506e-001	 1.6741481411e+000	-1.4666379198e+000
 8.2737642703e-001	 1.6825793437e+000	-1.4106492356e+000
 8.1039090259e-001	 1.6908257110e+000	-1.3542340144e+000
 7.9335258428e-001	 1.6988868935e+000	-1.2973791508e+000
 7.7626440100e-001	 1.7067626020e+000	-1.2400714448e+000
 7.5912927652e-001	 1.7144526070e+000	-1.1822979380e+000
 7.4195012799e-001	 1.7219567380e+000	-1.1240462484e+000
 7.2472986452e-001	 1.7292748837e+000	-1.0653048999e+000
 7.0747138575e-001	 1.7364069910e+000	-1.0060636475e+000
 6.9017758044e-001	 1.7433530645e+000	-9.4631379544e-001
 8.7265972680e-001	 1.6877396130e+000	-1.5669267718e+000
 8.5556364139e-001	 1.6964701163e+000	-1.4994876819e+000
 8.3840811273e-001	 1.7050137350e+000	-1.4327188605e+000
 8.2119611462e-001	 1.7133700538e+000	-1.3665890111e+000
 8.0393061874e-001	 1.7215387188e+000	-1.3010655778e+000
 7.8661459301e-001	 1.7295194367e+000	-1.2361151272e+000
 7.6925100021e-001	 1.7373119751e+000	-1.1717037289e+000
 7.5184279636e-001	 1.7449161612e+000	-1.1077973339e+000
 7.3439292938e-001	 1.7523318822e+000	-1.0443621481e+000
 7.1690433756e-001	 1.7595590842e+000	-9.8136500236e-001
 6.9937994818e-001	 1.7665977720e+000	-9.1877371508e-001
 8.8414209163e-001	 1.7099467131e+000	-1.6419562898e+000
 8.6682105773e-001	 1.7187920915e+000	-1.5623235301e+000
 8.4943979842e-001	 1.7274481262e+000	-1.4844365218e+000
 8.3200132666e-001	 1.7359143966e+000	-1.4082451663e+000
 8.1450865319e-001	 1.7441905440e+000	-1.3336972801e+000
 7.9696478503e-001	 1.7522762714e+000	-1.2607390202e+000
 7.7937272389e-001	 1.7601713431e+000	-1.1893153092e+000
 7.6173546473e-001	 1.7678755844e+000	-1.1193702571e+000
 7.4405599424e-001	 1.7753888806e+000	-1.0508475810e+000
 7.2633728937e-001	 1.7827111774e+000	-9.8369101880e-001
 7.0858231592e-001	 1.7898424795e+000	-9.1784473827e-001
 8.9562445646e-001	 1.7321538133e+000	-1.7455056054e+000
 8.7807847406e-001	 1.7411140667e+000	-1.6533748768e+000
 8.6047148411e-001	 1.7498825175e+000	-1.5640576897e+000
 8.4280653869e-001	 1.7584587394e+000	-1.4774849449e+000
 8.2508668765e-001	 1.7668423693e+000	-1.3935846324e+000
 8.0731497704e-001	 1.7750331061e+000	-1.3122823011e+000
 7.8949444758e-001	 1.7830307112e+000	-1.2335015277e+000
 7.7162813311e-001	 1.7908350075e+000	-1.1571643847e+000
 7.5371905910e-001	 1.7984458791e+000	-1.0831919047e+000
 7.3577024118e-001	 1.8058632706e+000	-1.0115045405e+000
 7.1778468366e-001	 1.8130871871e+000	-9.4202261925e-001
 9.0710682128e-001	 1.7543609135e+000	-1.8758355029e+000
 8.8933589040e-001	 1.7634360419e+000	-1.7709269350e+000
 8.7150316981e-001	 1.7723169087e+000	-1.6698929294e+000
 8.5361175073e-001	 1.7810030823e+000	-1.5726451670e+000
 8.3566472211e-001	 1.7894941945e+000	-1.4790915908e+000
 8.1766516906e-001	 1.7977899408e+000	-1.3891369200e+000
 7.9961617127e-001	 1.8058900793e+000	-1.3026831651e+000
 7.8152080148e-001	 1.8137944307e+000	-1.2196301407e+000
 7.6338212396e-001	 1.8215028775e+000	-1.1398759768e+000
 7.4520319299e-001	 1.8290153638e+000	-1.0633176245e+000
 7.2698705140e-001	 1.8363318946e+000	-9.8985135708e-001
 9.1858918611e-001	 1.7765680137e+000	-2.0312597077e+000
 9.0059330673e-001	 1.7857580172e+000	-1.9133172310e+000
 8.8253485550e-001	 1.7947513000e+000	-1.8003044585e+000
 8.6441696276e-001	 1.8035474251e+000	-1.6921136113e+000
 8.4624275656e-001	 1.8121460198e+000	-1.5886323433e+000
 8.2801536107e-001	 1.8205467755e+000	-1.4897443017e+000
 8.0973789495e-001	 1.8287494474e+000	-1.3953296875e+000
 7.9141346985e-001	 1.8367538539e+000	-1.3052658155e+000
 7.7304518882e-001	 1.8445598760e+000	-1.2194276715e+000
 7.5463614479e-001	 1.8521674571e+000	-1.1376884657e+000
 7.3618941913e-001	 1.8595766021e+000	-1.0599201803e+000
 6.4416574173e-001	 1.6271295268e+000	-1.5396406907e+000
 6.2799457010e-001	 1.6334389551e+000	-1.5843798960e+000
 6.1179578385e-001	 1.6395749202e+000	-1.6164559424e+000
 5.9557204113e-001	 1.6455375851e+000	-1.6272525826e+000
 5.7932598494e-001	 1.6513271642e+000	-1.6162505994e+000
 5.6306024200e-001	 1.6569439230e+000	-1.5848684229e+000
 5.4677742155e-001	 1.6623881771e+000	-1.5344842554e+000
 5.3048011422e-001	 1.6676602917e+000	-1.4664346954e+000
 5.1417089100e-001	 1.6727606807e+000	-1.3820134871e+000
 4.9785230211e-001	 1.6776898060e+000	-1.2824703972e+000
 4.8152687598e-001	 1.6824481768e+000	-1.1690102161e+000
 6.5336810947e-001	 1.6503742344e+000	-1.3545488964e+000
 6.3696592110e-001	 1.6567737973e+000	-1.4034612861e+000
 6.2053572362e-001	 1.6629974190e+000	-1.4331514585e+000
 6.0408021315e-001	 1.6690452648e+000	-1.4414359172e+000
 5.8760207045e-001	 1.6749175522e+000	-1.4290904000e+000
 5.7110395975e-001	 1.6806145504e+000	-1.3975242622e+000
 5.5458852757e-001	 1.6861365796e+000	-1.3481044742e+000
 5.3805840157e-001	 1.6914840101e+000	-1.2821542595e+000
 5.2151618944e-001	 1.6966572618e+000	-1.2009518633e+000
 5.0496447785e-001	 1.7016568033e+000	-1.1057294526e+000
 4.8840583136e-001	 1.7064831508e+000	-9.9767214483e-001
 6.6257047722e-001	 1.6736189419e+000	-1.2044371442e+000
 6.4593727211e-001	 1.6801086395e+000	-1.2544259007e+000
 6.2927566340e-001	 1.6864199179e+000	-1.2859027615e+000
 6.1258838517e-001	 1.6925529446e+000	-1.2900785275e+000
 5.9587815595e-001	 1.6985079403e+000	-1.2720156383e+000
 5.7914767750e-001	 1.7042851779e+000	-1.2359531937e+000
 5.6239963360e-001	 1.7098849821e+000	-1.1832500901e+000
 5.4563668892e-001	 1.7153077286e+000	-1.1152192067e+000
 5.2886148789e-001	 1.7205538430e+000	-1.0331261915e+000
 5.1207665360e-001	 1.7256238005e+000	-9.3818838329e-001
 4.9528478673e-001	 1.7305181247e+000	-8.3157386671e-001
 6.7177284496e-001	 1.6968636494e+000	-1.0875053004e+000
 6.5490862311e-001	 1.7034434817e+000	-1.1356156055e+000
 6.3801560317e-001	 1.7098424168e+000	-1.1656512237e+000
 6.2109655719e-001	 1.7160606244e+000	-1.1725653933e+000
 6.0415424145e-001	 1.7220983284e+000	-1.1445074512e+000
 5.8719139524e-001	 1.7279558054e+000	-1.0997335832e+000
 5.7021073962e-001	 1.7336333847e+000	-1.0395977431e+000
 5.5321497627e-001	 1.7391314470e+000	-9.6540546901e-001
 5.3620678633e-001	 1.7444504242e+000	-8.7841268469e-001
 5.1918882934e-001	 1.7495907977e+000	-7.7982464210e-001
 5.0216374210e-001	 1.7545530987e+000	-6.7079500221e-001
 6.8097521270e-001	 1.7201083570e+000	-1.0020207297e+000
 6.6387997412e-001	 1.7267783239e+000	-1.0454328422e+000
 6.4675554294e-001	 1.7332649156e+000	-1.0712117459e+000
 6.2960472920e-001	 1.7395683042e+000	-1.0793825225e+000
 6.1243032695e-001	 1.7456887164e+000	-1.0460867933e+000
 5.9523511299e-001	 1.7516264329e+000	-9.8847670824e-001
 5.7802184564e-001	 1.7573817872e+000	-9.1685009101e-001
 5.6079326361e-001	 1.7629551655e+000	-8.3250811661e-001
 5.4355208478e-001	 1.7683470053e+000	-7.3669983174e-001
 5.2630100509e-001	 1.7735577950e+000	-6.3062111614e-001
 5.0904269747e-001	 1.7785880727e+000	-5.1541378797e-001
 6.9017758044e-001	 1.7433530645e+000	-9.4631379544e-001
 6.7285132512e-001	 1.7501131661e+000	-9.8233659000e-001
 6.5549548271e-001	 1.7566874145e+000	-1.0011720683e+000
 6.3811290122e-001	 1.7630759840e+000	-1.0027761146e+000
 6.2070641246e-001	 1.7692791045e+000	-9.7631178214e-001
 6.0327883073e-001	 1.7752970603e+000	-9.0182456386e-001
 5.8583295167e-001	 1.7811301897e+000	-8.1473407427e-001
 5.6837155096e-001	 1.7867788839e+000	-7.1634008157e-001
 5.5089738322e-001	 1.7922435865e+000	-6.0788757911e-001
 5.3341318083e-001	 1.7975247922e+000	-4.9056576466e-001
 5.1592165284e-001	 1.8026230466e+000	-3.6550716898e-001
 6.9937994818e-001	 1.7665977720e+000	-9.1877371508e-001
 6.8182267612e-001	 1.7734480084e+000	-9.4483864596e-001
 6.6423542248e-001	 1.7801099133e+000	-9.5416671230e-001
 6.4662107324e-001	 1.7865836638e+000	-9.4664531079e-001
 6.2898249796e-001	 1.7928694926e+000	-9.2217970989e-001
 6.1132254848e-001	 1.7989676878e+000	-8.3944784190e-001
 5.9364405769e-001	 1.8048785923e+000	-7.3299931893e-001
 5.7594983831e-001	 1.8106026024e+000	-6.1673098291e-001
 5.5824268167e-001	 1.8161401676e+000	-4.9188657700e-001
 5.4052535658e-001	 1.8214917894e+000	-3.5965128530e-001
 5.2280060822e-001	 1.8266580206e+000	-2.2115088363e-001
 7.0858231592e-001	 1.7898424795e+000	-9.1784473827e-001
 6.9079402712e-001	 1.7967828506e+000	-9.3150019539e-001
 6.7297536225e-001	 1.8035324122e+000	-9.2887394344e-001
 6.5512924526e-001	 1.8100913436e+000	-9.0978554232e-001
 6.3725858345e-001	 1.8164598806e+000	-8.7407311754e-001
 6.1936626622e-001	 1.8226383153e+000	-8.0104406746e-001
 6.0145516371e-001	 1.8286269948e+000	-6.7141666333e-001
 5.8352812565e-001	 1.8344263209e+000	-5.3352604300e-001
 5.6558798011e-001	 1.8400367488e+000	-3.8861748428e-001
 5.4763753232e-001	 1.8454587867e+000	-2.3787480642e-001
 5.2967956359e-001	 1.8506929945e+000	-8.2419541985e-002
 7.1778468366e-001	 1.8130871871e+000	-9.4202261925e-001
 6.9976537812e-001	 1.8201176928e+000	-9.4092864587e-001
 6.8171530202e-001	 1.8269549111e+000	-9.2401296669e-001
 6.6363741727e-001	 1.8335990234e+000	-8.9102789956e-001
 6.4553466895e-001	 1.8400502687e+000	-8.4174501017e-001
 6.2740998396e-001	 1.8463089428e+000	-7.7595542580e-001
 6.0926626974e-001	 1.8523753973e+000	-6.2977679840e-001
 5.9110641300e-001	 1.8582500393e+000	-4.6658508735e-001
 5.7293327855e-001	 1.8639333299e+000	-2.9801032697e-001
 5.5474970807e-001	 1.8694257839e+000	-1.2523760308e-001
 5.3655851896e-001	 1.8747279685e+000	 5.0613301831e-002
 7.2698705140e-001	 1.8363318946e+000	-9.8985135708e-001
 7.0873672912e-001	 1.8434525350e+000	-9.7177470180e-001
 6.9045524179e-001	 1.8503774099e+000	-9.3834133561e-001
 6.7214558929e-001	 1.8571067031e+000	-8.8923687502e-001
 6.5381075445e-001	 1.8636406567e+000	-8.2416685548e-001
 6.3545370170e-001	 1.8699795702e+000	-7.4285711682e-001
 6.1707737576e-001	 1.8761237999e+000	-6.3579735481e-001
 5.9868470035e-001	 1.8820737578e+000	-5.9177317274e-001
 5.8027857699e-001	 1.8878299111e+000	-5.3846669951e-001
 5.6186188381e-001	 1.8933927811e+000	-4.7532603589e-001
 5.4343747433e-001	 1.8987629424e+000	-4.0184689937e-001
 7.3618941913e-001	 1.8595766021e+000	-1.0599201803e+000
 7.1770808012e-001	 1.8667873772e+000	-1.0227296584e+000
 6.9919518155e-001	 1.8737999088e+000	-9.7065255549e-001
 6.8065376130e-001	 1.8806143829e+000	-1.0390128244e+000
 6.6208683995e-001	 1.8872310448e+000	-1.1183176193e+000
 6.4349741945e-001	 1.8936501977e+000	-1.1788762611e+000
 6.2488848178e-001	 1.8998722024e+000	-1.2192084807e+000
 6.0626298769e-001	 1.9058974762e+000	-1.1461909268e+000
 5.8762387544e-001	 1.9117264922e+000	-1.0636656170e+000
 5.6897405956e-001	 1.9173597783e+000	-9.7098519791e-001
 5.5031642970e-001	 1.9227979164e+000	-8.6755255197e-001
 4.8152687598e-001	 1.6824481768e+000	-1.1690102161e+000
 4.6519711830e-001	 1.6870363485e+000	-1.1438681826e+000
 4.4886551095e-001	 1.6914549220e+000	-1.1115341933e+000
 4.3253451115e-001	 1.6957045429e+000	-1.0728803909e+000
 4.1620655053e-001	 1.6997859004e+000	-1.0287299030e+000
 3.9988403422e-001	 1.7036997268e+000	-9.7985665679e-001
 3.8356934007e-001	 1.7074467960e+000	-9.2698530589e-001
 3.6726481779e-001	 1.7110279231e+000	-8.7079126475e-001
 3.5097278822e-001	 1.7144439629e+000	-8.1190084886e-001
 3.3469554257e-001	 1.7176958094e+000	-7.5089151641e-001
 3.1843534172e-001	 1.7207843947e+000	-6.8829220827e-001
 4.8840583136e-001	 1.7064831508e+000	-9.9767214483e-001
 4.7184279141e-001	 1.7111368678e+000	-9.7305327453e-001
 4.5527787539e-001	 1.7156185637e+000	-9.4235456650e-001
 4.3871357559e-001	 1.7199288935e+000	-9.0646599023e-001
 4.2215235839e-001	 1.7240685561e+000	-8.6622578769e-001
 4.0559666328e-001	 1.7280382943e+000	-8.2242030729e-001
 3.8904890206e-001	 1.7318388931e+000	-7.7578395423e-001
 3.7251145804e-001	 1.7354711791e+000	-7.2699925409e-001
 3.5598668519e-001	 1.7389360195e+000	-6.7669702621e-001
 3.3947690746e-001	 1.7422343210e+000	-6.2545666317e-001
 3.2298441803e-001	 1.7453670289e+000	-5.7380651277e-001
 4.9528478673e-001	 1.7305181247e+000	-8.3157386671e-001
 4.7848846453e-001	 1.7352373870e+000	-8.0583806786e-001
 4.6169023983e-001	 1.7397822055e+000	-7.7520841906e-001
 4.4489264004e-001	 1.7441532441e+000	-7.4059405321e-001
 4.2809816625e-001	 1.7483512119e+000	-7.0284954507e-001
 4.1130929234e-001	 1.7523768619e+000	-6.6277476474e-001
 3.9452846406e-001	 1.7562309902e+000	-6.2111485270e-001
 3.7775809829e-001	 1.7599144352e+000	-5.7856031306e-001
 3.6100058217e-001	 1.7634280761e+000	-5.3574722128e-001
 3.4425827236e-001	 1.7667728326e+000	-4.9325754271e-001
 3.2753349434e-001	 1.7699496631e+000	-4.5161955788e-001
 5.0216374210e-001	 1.7545530987e+000	-6.7079500221e-001
 4.8513413765e-001	 1.7593379063e+000	-6.4231313091e-001
 4.6810260427e-001	 1.7639458472e+000	-6.1019841824e-001
 4.5107170448e-001	 1.7683775947e+000	-5.7538050043e-001
 4.3404397412e-001	 1.7726338676e+000	-5.3873150517e-001
 4.1702192139e-001	 1.7767154294e+000	-5.0106592517e-001
 4.0000802606e-001	 1.7806230873e+000	-4.6314061856e-001
 3.8300473855e-001	 1.7843576912e+000	-4.2565493265e-001
 3.6601447914e-001	 1.7879201327e+000	-3.8925094717e-001
 3.4903963725e-001	 1.7913113441e+000	-3.5451383303e-001
 3.3208257065e-001	 1.7945322974e+000	-3.2197232239e-001
 5.0904269747e-001	 1.7785880727e+000	-5.1541378797e-001
 4.9177981077e-001	 1.7834384256e+000	-4.8256583517e-001
 4.7451496871e-001	 1.7881094890e+000	-4.4742223468e-001
 4.5725076893e-001	 1.7926019453e+000	-4.1093446995e-001
 4.3998978198e-001	 1.7969165233e+000	-3.7399344422e-001
 4.2273455045e-001	 1.8010539969e+000	-3.3742937460e-001
 4.0548758806e-001	 1.8050151844e+000	-3.0201181864e-001
 3.8825137880e-001	 1.8088009473e+000	-2.6844982945e-001
 3.7102837612e-001	 1.8124121893e+000	-2.3739223562e-001
 3.5382100214e-001	 1.8158498557e+000	-2.0942804138e-001
 3.3663164696e-001	 1.8191149316e+000	-1.8508694294e-001
 5.1592165284e-001	 1.8026230466e+000	-3.6550716898e-001
 4.9842548389e-001	 1.8075389448e+000	-3.2668056840e-001
 4.8092733315e-001	 1.8122731307e+000	-2.8697287549e-001
 4.6342983337e-001	 1.8168262959e+000	-2.4735876950e-001
 4.4593558984e-001	 1.8211991790e+000	-2.0874915485e-001
 4.2844717952e-001	 1.8253925645e+000	-1.7199107638e-001
 4.1096715007e-001	 1.8294072815e+000	-1.3786777276e-001
 3.9349801906e-001	 1.8332442033e+000	-1.0709886402e-001
 3.7604227309e-001	 1.8369042460e+000	-8.0340669093e-002
 3.5860236704e-001	 1.8403883673e+000	-5.8186648866e-002
 3.4118072327e-001	 1.8436975658e+000	-4.1167970147e-002
 5.2280060822e-001	 1.8266580206e+000	-2.2115088363e-001
 5.0507115701e-001	 1.8316394641e+000	-1.7473893090e-001
 4.8733969760e-001	 1.8364367724e+000	-1.2893899110e-001
 4.6960889782e-001	 1.8410506465e+000	-8.4750292960e-002
 4.5188139771e-001	 1.8454818348e+000	-4.3104971360e-002
 4.3415980858e-001	 1.8497311320e+000	-4.8680042532e-003
 4.1644671207e-001	 1.8537993786e+000	 2.9162706333e-002
 3.9874465931e-001	 1.8576874594e+000	 5.8256113400e-002
 3.8105617007e-001	 1.8613963026e+000	 8.1747668611e-002
 3.6338373194e-001	 1.8649268788e+000	 9.9038835107e-002
 3.4572979958e-001	 1.8682802000e+000	 1.0959647438e-001
 5.2967956359e-001	 1.8506929945e+000	-8.2419541985e-002
 5.1171683013e-001	 1.8557399833e+000	-2.6819916595e-002
 4.9375206204e-001	 1.8606004142e+000	 2.6594841856e-002
 4.7578796226e-001	 1.8652749971e+000	 7.6799595639e-002
 4.5782720558e-001	 1.8697644905e+000	 1.2283974599e-001
 4.3987243764e-001	 1.8740696995e+000	 1.6383127391e-001
 4.2192627407e-001	 1.8781914757e+000	 1.3455509752e-001
 4.0399129957e-001	 1.8821307154e+000	 9.0951945029e-002
 3.8607006704e-001	 1.8858883592e+000	 5.2567697766e-002
 3.6816509683e-001	 1.8894653904e+000	 1.9265264614e-002
 3.5027887589e-001	 1.8928628342e+000	-9.1314290706e-003
 5.3655851896e-001	 1.8747279685e+000	 5.0613301831e-002
 5.1836250325e-001	 1.8798405026e+000	 1.0366911642e-003
 5.0016442648e-001	 1.8847640559e+000	-4.9417496325e-002
 4.8196702671e-001	 1.8894993478e+000	-9.3980862614e-002
 4.6377301344e-001	 1.8940471462e+000	-1.3255295212e-001
 4.4558506670e-001	 1.8984082670e+000	-1.6507426027e-001
 4.2740583607e-001	 1.9025835728e+000	-1.9152651886e-001
 4.0923793982e-001	 1.9065739715e+000	-2.1193287862e-001
 3.9108396402e-001	 1.9103804158e+000	-2.2635799069e-001
 3.7294646173e-001	 1.9140039020e+000	-2.3490798861e-001
 3.5482795221e-001	 1.9174454684e+000	-2.3773037287e-001
 5.4343747433e-001	 1.8987629424e+000	-4.0184689937e-001
 5.2500817637e-001	 1.9039410219e+000	-4.3873168149e-001
 5.0657679093e-001	 1.9089276977e+000	-4.6931813563e-001
 4.8814609116e-001	 1.9137236984e+000	-4.9341901477e-001
 4.6971882131e-001	 1.9183298019e+000	-5.1088988275e-001
 4.5129769576e-001	 1.9227468346e+000	-5.2162955085e-001
 4.3288539808e-001	 1.9269756698e+000	-5.2558040503e-001
 4.1448458008e-001	 1.9310172275e+000	-5.2272862486e-001
 3.9609786100e-001	 1.9348724724e+000	-5.1310429596e-001
 3.7772782663e-001	 1.9385424135e+000	-4.9678141750e-001
 3.5937702852e-001	 1.9420281026e+000	-4.7387780699e-001
 5.5031642970e-001	 1.9227979164e+000	-8.6755255197e-001
 5.3165384949e-001	 1.9280415411e+000	-8.8527652865e-001
 5.1298915537e-001	 1.9330913394e+000	-8.9613248503e-001
 4.9432515561e-001	 1.9379480490e+000	-8.9988533363e-001
 4.7566462918e-001	 1.9426124576e+000	-8.9634510910e-001
 4.5701032483e-001	 1.9470854021e+000	-8.8536745385e-001
 4.3836496008e-001	 1.9513677669e+000	-8.6685398851e-001
 4.1973122034e-001	 1.9554604835e+000	-8.4075256864e-001
 4.0111175798e-001	 1.9593645290e+000	-8.0705742910e-001
 3.8250919152e-001	 1.9630809251e+000	-7.6580921812e-001
 3.6392610484e-001	 1.9666107368e+000	-7.1709492312e-001
 3.1843534172e-001	 1.7207843947e+000	-6.8829220827e-001
 3.0219441554e-001	 1.7237106878e+000	-6.6123278006e-001
 2.8597496228e-001	 1.7264756937e+000	-6.2433291806e-001
 2.6977914796e-001	 1.7290804525e+000	-5.7786771666e-001
 2.5360910577e-001	 1.7315260383e+000	-5.2207605554e-001
 2.3746693559e-001	 1.7338135582e+000	-4.5716126679e-001
 2.2135470344e-001	 1.7359441509e+000	-3.8329186655e-001
 2.0527444106e-001	 1.7379189865e+000	-3.0060234716e-001
 1.8922814542e-001	 1.7397392646e+000	-2.0919402596e-001
 1.7321777839e-001	 1.7414062137e+000	-1.0913594665e-001
 1.5724526631e-001	 1.7429210901e+000	-4.6582937519e-004
 3.2298441803e-001	 1.7453670289e+000	-5.7380651277e-001
 3.0651147862e-001	 1.7483351262e+000	-5.4949617221e-001
 2.9006031889e-001	 1.7511396322e+000	-5.1762553556e-001
 2.7363313579e-001	 1.7537816018e+000	-4.7847751272e-001
 2.5723209300e-001	 1.7562621246e+000	-4.3229531359e-001
 2.4085932039e-001	 1.7585823233e+000	-3.7928318406e-001
 2.2451691349e-001	 1.7607433531e+000	-3.1960721061e-001
 2.0820693307e-001	 1.7627464006e+000	-2.5339618924e-001
 1.9193140464e-001	 1.7645926827e+000	-1.8074255466e-001
 1.7569231808e-001	 1.7662834454e+000	-1.0170336536e-001
 1.5949162725e-001	 1.7678199628e+000	-1.6301340519e-002
 3.2753349434e-001	 1.7699496631e+000	-4.5161955788e-001
 3.1082854170e-001	 1.7729595646e+000	-4.3065341426e-001
 2.9414567549e-001	 1.7758035707e+000	-4.0445500646e-001
 2.7748712362e-001	 1.7784827512e+000	-3.7331498322e-001
 2.6085508023e-001	 1.7809982109e+000	-3.3748072595e-001
 2.4425170518e-001	 1.7833510884e+000	-2.9715715540e-001
 2.2767912354e-001	 1.7855425553e+000	-2.5250761121e-001
 2.1113942509e-001	 1.7875738147e+000	-2.0365479973e-001
 1.9463466387e-001	 1.7894461008e+000	-1.5068180576e-001
 1.7816685777e-001	 1.7911606770e+000	-9.3633163578e-002
 1.6173798820e-001	 1.7927188355e+000	-3.2515982905e-002
 3.3208257065e-001	 1.7945322974e+000	-3.2197232239e-001
 3.1514560478e-001	 1.7975840030e+000	-3.0490830803e-001
 2.9823103210e-001	 1.8004675091e+000	-2.8499047557e-001
 2.8134111145e-001	 1.8031839005e+000	-2.6251713626e-001
 2.6447806745e-001	 1.8057342971e+000	-2.3773968237e-001
 2.4764408998e-001	 1.8081198535e+000	-2.1086346648e-001
 2.3084133360e-001	 1.8103417574e+000	-1.8204875800e-001
 2.1407191711e-001	 1.8124012288e+000	-1.5141177202e-001
 1.9733792309e-001	 1.8142995188e+000	-1.1902576576e-001
 1.8064139747e-001	 1.8160379086e+000	-8.4922197960e-002
 1.6398434915e-001	 1.8176177082e+000	-4.9091946171e-002
 3.3663164696e-001	 1.8191149316e+000	-1.8508694294e-001
 3.1946266786e-001	 1.8222084414e+000	-1.7244738238e-001
 3.0231638870e-001	 1.8251314476e+000	-1.5938532730e-001
 2.8519509928e-001	 1.8278850498e+000	-1.4620667535e-001
 2.6810105468e-001	 1.8304703834e+000	-1.3316666699e-001
 2.5103647477e-001	 1.8328886186e+000	-1.2047083948e-001
 2.3400354365e-001	 1.8351409596e+000	-1.0827606236e-001
 2.1700440913e-001	 1.8372286429e+000	-9.6691649535e-002
 2.0004118231e-001	 1.8391529369e+000	-8.5780542749e-002
 1.8311593716e-001	 1.8409151402e+000	-7.5560561538e-002
 1.6623071010e-001	 1.8425165809e+000	-6.6005714469e-002
 3.4118072327e-001	 1.8436975658e+000	-4.1167970147e-002
 3.2377973094e-001	 1.8468328798e+000	-3.3441044758e-002
 3.0640174531e-001	 1.8497953861e+000	-2.7778236374e-002
 2.8904908711e-001	 1.8525861991e+000	-2.4492953039e-002
 2.7172404191e-001	 1.8552064696e+000	-2.3844118725e-002
 2.5442885957e-001	 1.8576573837e+000	-2.6037203974e-002
 2.3716575370e-001	 1.8599401617e+000	-3.1225342594e-002
 2.1993690114e-001	 1.8620560570e+000	-3.9510529103e-002
 2.0274444153e-001	 1.8640063550e+000	-5.0944891583e-002
 1.8559047685e-001	 1.8657923719e+000	-6.5532034604e-002
 1.6847707105e-001	 1.8674154536e+000	-8.3228446836e-002
 3.4572979958e-001	 1.8682802000e+000	 1.0959647438e-001
 3.2809679402e-001	 1.8714573182e+000	 1.1195535820e-001
 3.1048710192e-001	 1.8744593246e+000	 1.0970586444e-001
 2.9290307494e-001	 1.8772873485e+000	 7.8329239788e-002
 2.7534702914e-001	 1.8799425559e+000	 4.6333025092e-002
 2.5782124437e-001	 1.8824261489e+000	 1.9945290168e-002
 2.4032796375e-001	 1.8847393639e+000	-1.2387542260e-003
 2.2286939316e-001	 1.8868834711e+000	-1.7660459896e-002
 2.0544770075e-001	 1.8888597730e+000	-2.9796916557e-002
 1.8806501655e-001	 1.8906696035e+000	-3.8160062153e-002
 1.7072343199e-001	 1.8923143264e+000	-4.3295731639e-002
 3.5027887589e-001	 1.8928628342e+000	-9.1314290706e-003
 3.3241385710e-001	 1.8960817566e+000	-3.2326387477e-002
 3.1457245852e-001	 1.8991232631e+000	-4.9008841345e-002
 2.9675706277e-001	 1.9019884978e+000	-5.9463364506e-002
 2.7897001637e-001	 1.9046786422e+000	-6.4014449664e-002
 2.6121362916e-001	 1.9071949140e+000	-6.3025901534e-002
 2.4349017380e-001	 1.9095385661e+000	-5.6900151659e-002
 2.2580188518e-001	 1.9117108852e+000	-4.6077498202e-002
 2.0815095998e-001	 1.9137131911e+000	-3.1035274132e-002
 1.9053955624e-001	 1.9155468351e+000	-1.2286947317e-002
 1.7296979294e-001	 1.9172131991e+000	 9.6188438512e-003
 3.5482795221e-001	 1.9174454684e+000	-2.3773037287e-001
 3.3673092018e-001	 1.9207061950e+000	-2.3413242863e-001
 3.1865781513e-001	 1.9237872016e+000	-2.2404681831e-001
 3.0061105060e-001	 1.9266896471e+000	-2.0775075192e-001
 2.8259300359e-001	 1.9294147284e+000	-1.8556275104e-001
 2.6460601396e-001	 1.9319636791e+000	-1.5784204454e-001
 2.4665238385e-001	 1.9343377682e+000	-1.2498788240e-001
 2.2873437719e-001	 1.9365382993e+000	-8.7438771189e-002
 2.1085421920e-001	 1.9385666092e+000	-4.5671634552e-002
 1.9301409593e-001	 1.9404240667e+000	-2.0090250439e-004
 1.7521615389e-001	 1.9421120718e+000	 4.8422466867e-002
 3.5937702852e-001	 1.9420281026e+000	-4.7387780699e-001
 3.4104798327e-001	 1.9453306334e+000	-4.4439685197e-001
 3.2274317174e-001	 1.9484511400e+000	-4.0839408184e-001
 3.0446503843e-001	 1.9513907964e+000	-3.6613823398e-001
 2.8621599082e-001	 1.9541508147e+000	-3.1794083750e-001
 2.6799839876e-001	 1.9567324442e+000	-2.6415561135e-001
 2.4981459391e-001	 1.9591369704e+000	-2.0517777707e-001
 2.3166686921e-001	 1.9613657134e+000	-1.4144328951e-001
 2.1355747842e-001	 1.9634200273e+000	-7.3427989281e-002
 1.9548863562e-001	 1.9653012984e+000	-1.6466804853e-003
 1.7746251484e-001	 1.9670109445e+000	 7.3347862151e-002
 3.6392610484e-001	 1.9666107368e+000	-7.1709492312e-001
 3.4536504635e-001	 1.9699550718e+000	-6.6266579895e-001
 3.2682852835e-001	 1.9731150785e+000	-6.0162162686e-001
 3.0831902626e-001	 1.9760919458e+000	-5.3422153702e-001
 2.8983897805e-001	 1.9788869010e+000	-4.6076901972e-001
 2.7139078356e-001	 1.9815012093e+000	-3.8161132598e-001
 2.5297680396e-001	 1.9839361725e+000	-2.9713877897e-001
 2.3459936123e-001	 1.9861931275e+000	-2.0778399964e-001
 2.1626073764e-001	 1.9882734453e+000	-1.1402105060e-001
 1.9796317532e-001	 1.9901785300e+000	-1.6364501840e-002
 1.7970887579e-001	 1.9919098172e+000	 8.4631577582e-002
 1.5724526631e-001	 1.7429210901e+000	-4.6582937519e-004
 1.4131249968e-001	 1.7442851766e+000	 3.1538335138e-002
 1.2542133286e-001	 1.7454997821e+000	 6.9164655183e-002
 1.0957358381e-001	 1.7465662397e+000	 1.1261591817e-001
 9.3771033799e-002	 1.7474859064e+000	 1.6212201924e-001
 7.8015427255e-002	 1.7482601617e+000	 2.1793868340e-001
 6.2308471545e-002	 1.7488904066e+000	 2.8034616613e-001
 4.6651836836e-002	 1.7493780627e+000	 3.4964793603e-001
 3.1047155971e-002	 1.7497245709e+000	 4.2616934340e-001
 1.5496024379e-002	 1.7499313910e+000	 5.1025627826e-001
 0.0000000000e+000	 1.7500000000e+000	 6.0227382137e-001
 1.5949162725e-001	 1.7678199628e+000	-1.6301340519e-002
 1.4333124967e-001	 1.7692035363e+000	-3.4299067532e-003
 1.2721306619e-001	 1.7704354933e+000	 1.4395229954e-002
 1.1113892072e-001	 1.7715171860e+000	 3.7362661176e-002
 9.5110619996e-002	 1.7724499908e+000	 6.5690220513e-002
 7.9129933358e-002	 1.7732353069e+000	 9.9623654028e-002
 6.3198592567e-002	 1.7738745553e+000	 1.3943526687e-001
 4.7318291647e-002	 1.7743691778e+000	 1.8542255011e-001
 3.1490686771e-002	 1.7747206362e+000	 2.3790679163e-001
 1.5717396155e-002	 1.7749304109e+000	 2.9723167495e-001
 0.0000000000e+000	 1.7750000000e+000	 3.6376186965e-001
 1.6173798820e-001	 1.7927188355e+000	-3.2515982905e-002
 1.4534999967e-001	 1.7941218960e+000	-4.1060075496e-002
 1.2900479952e-001	 1.7953712044e+000	-4.5402113410e-002
 1.1270425763e-001	 1.7964681323e+000	-4.5366011349e-002
 9.6450206192e-002	 1.7974140752e+000	-4.0744240751e-002
 8.0244439462e-002	 1.7982104521e+000	-3.1299214513e-002
 6.4088713588e-002	 1.7988587040e+000	-1.6764697689e-002
 4.7984746459e-002	 1.7993602930e+000	 3.1527600187e-003
 3.1934217570e-002	 1.7997167015e+000	 2.8772374100e-002
 1.5938767932e-002	 1.7999294307e+000	 6.0437661391e-002
 0.0000000000e+000	 1.8000000000e+000	 9.8514966445e-002
 1.6398434915e-001	 1.8176177082e+000	-4.9091946171e-002
 1.4736874966e-001	 1.8190402556e+000	-8.1271936603e-002
 1.3079653284e-001	 1.8203069156e+000	-1.1008552104e-001
 1.1426959454e-001	 1.8214190786e+000	-1.3536744766e-001
 9.7789792389e-002	 1.8223781596e+000	-1.5691875182e-001
 8.1358945565e-002	 1.8231855972e+000	-1.7450819937e-001
 6.4978834610e-002	 1.8238428526e+000	-1.8787375810e-001
 4.8651201270e-002	 1.8243514082e+000	-1.9672409305e-001
 3.2377748369e-002	 1.8247127668e+000	-2.0074008116e-001
 1.6160139709e-002	 1.8249284506e+000	-1.9957634129e-001
 0.0000000000e+000	 1.8250000000e+000	-1.9286277533e-001
 1.6623071010e-001	 1.8425165809e+000	-6.6005714469e-002
 1.4938749966e-001	 1.8439586153e+000	-1.2398326549e-001
 1.3258826617e-001	 1.8452426268e+000	-1.7951489585e-001
 1.1583493145e-001	 1.8463700248e+000	-2.3244452937e-001
 9.9129378586e-002	 1.8473422440e+000	-2.8258003783e-001
 8.2473451668e-002	 1.8481607424e+000	-3.2969474623e-001
 6.5868955631e-002	 1.8488270013e+000	-3.7352896862e-001
 4.9317656081e-002	 1.8493425234e+000	-4.1379156950e-001
 3.2821279168e-002	 1.8497088321e+000	-4.5016154667e-001
 1.6381511485e-002	 1.8499274705e+000	-4.8228963079e-001
 0.0000000000e+000	 1.8500000000e+000	-5.0979989750e-001
 1.6847707105e-001	 1.8674154536e+000	-8.3228446836e-002
 1.5140624966e-001	 1.8688769750e+000	-1.6910998018e-001
 1.3437999950e-001	 1.8701783379e+000	-2.5355178040e-001
 1.1740026836e-001	 1.8713209711e+000	-3.3640530254e-001
 1.0046896478e-001	 1.8723063283e+000	-4.1748353920e-001
 8.3587957771e-002	 1.8731358876e+000	-4.9656259144e-001
 6.6759076653e-002	 1.8738111500e+000	-5.7338327227e-001
 4.9984110893e-002	 1.8743336386e+000	-6.4765273789e-001
 3.3264809967e-002	 1.8747048974e+000	-7.1904614211e-001
 1.6602883262e-002	 1.8749264904e+000	-7.8720830901e-001
 0.0000000000e+000	 1.8750000000e+000	-8.5175541966e-001
 1.7072343199e-001	 1.8923143264e+000	-4.3295731639e-002
 1.5342499965e-001	 1.8937953346e+000	-1.1021335597e-001
 1.3617173282e-001	 1.8951140491e+000	-1.6940635142e-001
 1.1896560528e-001	 1.8962719174e+000	-2.2157688267e-001
 1.0180855098e-001	 1.8972704127e+000	-2.6745962131e-001
 8.4702463874e-002	 1.8981110327e+000	-3.0782041832e-001
 6.7649197674e-002	 1.8987952986e+000	-3.4345493697e-001
 5.0650565704e-002	 1.8993247537e+000	-3.7518725013e-001
 3.3708340767e-002	 1.8997009627e+000	-4.0386840585e-001
 1.6824255038e-002	 1.8999255102e+000	-4.3037496516e-001
 0.0000000000e+000	 1.9000000000e+000	-4.5560751571e-001
 1.7296979294e-001	 1.9172131991e+000	 9.6188438512e-003
 1.5544374965e-001	 1.9187136943e+000	-3.0593092588e-002
 1.3796346615e-001	 1.9200497603e+000	-6.1832122125e-002
 1.2053094219e-001	 1.9212228637e+000	-8.4839809111e-002
 1.0314813718e-001	 1.9222344971e+000	-1.0039188786e-001
 8.5816969978e-002	 1.9230861779e+000	-1.0929686714e-001
 6.8539318696e-002	 1.9237794473e+000	-1.1239459349e-001
 5.1317020516e-002	 1.9243158689e+000	-1.1055477747e-001
 3.4151871566e-002	 1.9246970280e+000	-1.0467548697e-001
 1.7045626815e-002	 1.9249245301e+000	-9.5681611538e-002
 0.0000000000e+000	 1.9250000000e+000	-8.4523301732e-002
 1.7521615389e-001	 1.9421120718e+000	 4.8422466867e-002
 1.5746249964e-001	 1.9436320540e+000	 3.3700224935e-002
 1.3975519948e-001	 1.9449854715e+000	 2.9234092423e-002
 1.2209627910e-001	 1.9461738100e+000	 3.4244038196e-002
 1.0448772337e-001	 1.9471985815e+000	 4.7914123966e-002
 8.6931476081e-002	 1.9480613231e+000	 6.9393968428e-002
 6.9429439717e-002	 1.9487635960e+000	 9.7800254276e-002
 5.1983475327e-002	 1.9493069841e+000	 1.3221827384e-001
 3.4595402365e-002	 1.9496930933e+000	 1.7170350906e-001
 1.7266998592e-002	 1.9499235500e+000	 2.1528324165e-001
 0.0000000000e+000	 1.9500000000e+000	 2.6195818913e-001
 1.7746251484e-001	 1.9670109445e+000	 7.3347862151e-002
 1.5948124964e-001	 1.9685504136e+000	 8.2913424264e-002
 1.4154693280e-001	 1.9699211826e+000	 1.0405467386e-001
 1.2366161601e-001	 1.9711247563e+000	 1.3595403601e-001
 1.0582730957e-001	 1.9721626658e+000	 1.7775621613e-001
 8.8045982184e-002	 1.9730364682e+000	 2.2856973341e-001
 7.0319560739e-002	 1.9737477446e+000	 2.8746849898e-001
 5.2649930139e-002	 1.9742980993e+000	 3.5349343433e-001
 3.5038933164e-002	 1.9746891586e+000	 4.2565412552e-001
 1.7488370368e-002	 1.9749225698e+000	 5.0293050886e-001
 0.0000000000e+000	 1.9750000000e+000	 5.8427458363e-001
 1.7970887579e-001	 1.9919098172e+000	 8.4631577582e-002
 1.6149999964e-001	 1.9934687733e+000	 1.1729466658e-001
 1.4333866613e-001	 1.9948568938e+000	 1.6289082666e-001
 1.2522695292e-001	 1.9960757025e+000	 2.2056585331e-001
 1.0716689577e-001	 1.9971267502e+000	 2.8942593346e-001
 8.9160488287e-002	 1.9980116134e+000	 3.6853924882e-001
 7.1209681760e-002	 1.9987318933e+000	 4.5693762603e-001
 5.3316384950e-002	 1.9992892145e+000	 5.5361822878e-001
 3.5482463963e-002	 1.9996852239e+000	 6.5754528728e-001
 1.7709742145e-002	 1.9999215897e+000	 7.6765186060e-001
 0.0000000000e+000	 2.0000000000e+000	 8.8284162716e-001
 2.0000000000e+000	 0.0000000000e+000	 1.8648048551e+000
 1.9999215897e+000	 1.7709742145e-002	 2.0069832904e+000
 1.9996852239e+000	 3.5482463963e-002	 2.1383647510e+000
 1.9992892145e+000	 5.3316384950e-002	 2.2575269912e+000
 1.9987318933e+000	 7.1209681760e-002	 2.3631046084e+000
 1.9980116134e+000	 8.9160488287e-002	 2.4537921374e+000
 1.9971267502e+000	 1.0716689577e-001	 2.5283470986e+000
 1.9960757025e+000	 1.2522695292e-001	 2.5855929920e+000
 1.9948568938e+000	 1.4333866613e-001	 2.6244222287e+000
 1.9934687733e+000	 1.6149999964e-001	 2.6437989922e+000
 1.9919098172e+000	 1.7970887579e-001	 2.6427620203e+000
 2.0250000000e+000	 0.0000000000e+000	 1.9369341396e+000
 2.0249206096e+000	 1.7931113921e-002	 2.0506042136e+000
 2.0246812892e+000	 3.5925994762e-002	 2.1545845394e+000
 2.0242803297e+000	 5.3982839761e-002	 2.2475073666e+000
 2.0237160419e+000	 7.2099802782e-002	 2.3280643709e+000
 2.0229867586e+000	 9.0274994390e-002	 2.3950097697e+000
 2.0220908346e+000	 1.0850648196e-001	 2.4471633864e+000
 2.0210266488e+000	 1.2679228983e-001	 2.4834136561e+000
 2.0197926050e+000	 1.4513039946e-001	 2.5027205633e+000
 2.0183871330e+000	 1.6351874963e-001	 2.5041185042e+000
 2.0168086899e+000	 1.8195523674e-001	 2.4867190638e+000
 2.0500000000e+000	 0.0000000000e+000	 2.0062466789e+000
 2.0499196295e+000	 1.8152485698e-002	 2.0955857806e+000
 2.0496773545e+000	 3.6369525562e-002	 2.1761948061e+000
 2.0492714448e+000	 5.4649294573e-002	 2.2467579063e+000
 2.0487001906e+000	 7.2989923804e-002	 2.3060213498e+000
 2.0479619037e+000	 9.1389500493e-002	 2.3527966636e+000
 2.0470549190e+000	 1.0984606816e-001	 2.3859637190e+000
 2.0459775951e+000	 1.2835762674e-001	 2.4044737534e+000
 2.0447283162e+000	 1.4692213278e-001	 2.4073523185e+000
 2.0433054926e+000	 1.6553749963e-001	 2.3937021479e+000
 2.0417075627e+000	 1.8420159768e-001	 2.3627059339e+000
 2.0750000000e+000	 0.0000000000e+000	 2.0730462065e+000
 2.0749186493e+000	 1.8373857475e-002	 2.1421004183e+000
 2.0746734198e+000	 3.6813056361e-002	 2.2032370489e+000
 2.0742625600e+000	 5.5315749384e-002	 2.2551896169e+000
 2.0736843393e+000	 7.3880044825e-002	 2.2967565593e+000
 2.0729370489e+000	 9.2504006597e-002	 2.3268044037e+000
 2.0720190034e+000	 1.1118565436e-001	 2.3442708792e+000
 2.0709285414e+000	 1.2992296366e-001	 2.3481679589e+000
 2.0696640273e+000	 1.4871386611e-001	 2.3375848236e+000
 2.0682238523e+000	 1.6755624962e-001	 2.3116907388e+000
 2.0666064354e+000	 1.8644795863e-001	 2.2697378355e+000
 2.1000000000e+000	 0.0000000000e+000	 2.1376219926e+000
 2.0999176692e+000	 1.8595229251e-002	 2.1903112393e+000
 2.0996694851e+000	 3.7256587160e-002	 2.2357484959e+000
 2.0992536752e+000	 5.5982204196e-002	 2.2727141716e+000
 2.0986684879e+000	 7.4770165847e-002	 2.3000565066e+000
 2.0979121941e+000	 9.3618512700e-002	 2.3166947798e+000
 2.0969830877e+000	 1.1252524055e-001	 2.3216224500e+000
 2.0958794877e+000	 1.3148830057e-001	 2.3139102233e+000
 2.0945997385e+000	 1.5050559944e-001	 2.2927090366e+000
 2.0931422120e+000	 1.6957499962e-001	 2.2572529486e+000
 2.0915053081e+000	 1.8869431958e-001	 2.2068619284e+000
 2.1250000000e+000	 0.0000000000e+000	 2.2002496944e+000
 2.1249166891e+000	 1.8816601028e-002	 2.2403725896e+000
 2.1246655504e+000	 3.7700117959e-002	 2.2737623563e+000
 2.1242447904e+000	 5.6648659007e-002	 2.2992438710e+000
 2.1236526366e+000	 7.5660286868e-002	 2.3157128681e+000
 2.1228873393e+000	 9.4733018803e-002	 2.3221391861e+000
 2.1219471721e+000	 1.1386482675e-001	 2.3175699442e+000
 2.1208304339e+000	 1.3305363748e-001	 2.3011326396e+000
 2.1195354497e+000	 1.5229733276e-001	 2.2720381546e+000
 2.1180605716e+000	 1.7159374962e-001	 2.2295836663e+000
 2.1164041808e+000	 1.9094068053e-001	 2.1731554472e+000
 2.1500000000e+000	 0.0000000000e+000	 2.2611921482e+000
 2.1499157090e+000	 1.9037972804e-002	 2.2924305587e+000
 2.1496616157e+000	 3.8143648758e-002	 2.3173080539e+000
 2.1492359056e+000	 5.7315113819e-002	 2.3346916070e+000
 2.1486367853e+000	 7.6550407890e-002	 2.3435221896e+000
 2.1478624844e+000	 9.5847524906e-002	 2.3428180630e+000
 2.1469112565e+000	 1.1520441295e-001	 2.3316779945e+000
 2.1457813802e+000	 1.3461897439e-001	 2.3092843879e+000
 2.1444711609e+000	 1.5408906609e-001	 2.2749063204e+000
 2.1429789313e+000	 1.7361249961e-001	 2.2279024740e+000
 2.1413030535e+000	 1.9318704148e-001	 2.1677239528e+000
 2.1750000000e+000	 0.0000000000e+000	 2.3207001056e+000
 2.1749147288e+000	 1.9259344581e-002	 2.3466234533e+000
 2.1746576810e+000	 3.8587179558e-002	 2.3664114450e+000
 2.1742270207e+000	 5.7981568630e-002	 2.3789708281e+000
 2.1736209339e+000	 7.7440528911e-002	 2.3832856057e+000
 2.1728376296e+000	 9.6962031009e-002	 2.3784203774e+000
 2.1718753409e+000	 1.1654399914e-001	 2.3635235992e+000
 2.1707323265e+000	 1.3618431130e-001	 2.3378307538e+000
 2.1694068720e+000	 1.5588079942e-001	 2.3006674192e+000
 2.1678972910e+000	 1.7563124961e-001	 2.2514522279e+000
 2.1662019262e+000	 1.9543340243e-001	 2.1896997046e+000
 2.2000000000e+000	 0.0000000000e+000	 2.3790129206e+000
 2.1999137487e+000	 1.9480716358e-002	 2.4030822403e+000
 2.1996537463e+000	 3.9030710357e-002	 2.4210950212e+000
 2.1992181359e+000	 5.8648023441e-002	 2.4319955087e+000
 2.1986050826e+000	 7.8330649933e-002	 2.4348085799e+000
 2.1978127748e+000	 9.8076537113e-002	 2.4286431377e+000
 2.1968394252e+000	 1.1788358534e-001	 2.4126954201e+000
 2.1956832728e+000	 1.3774964821e-001	 2.3862522129e+000
 2.1943425832e+000	 1.5767253274e-001	 2.3486939566e+000
 2.1928156506e+000	 1.7764999960e-001	 2.2994977360e+000
 2.1911007990e+000	 1.9767976337e-001	 2.2382401433e+000
 2.2250000000e+000	 0.0000000000e+000	 2.4363591895e+000
 2.2249127686e+000	 1.9702088134e-002	 2.4619309587e+000
 2.2246498116e+000	 3.9474241156e-002	 2.4813780978e+000
 2.2242092511e+000	 5.9314478253e-002	 2.4936801187e+000
 2.2235892313e+000	 7.9220770954e-002	 2.4979006605e+000
 2.2227879199e+000	 9.9191043216e-002	 2.4931909425e+000
 2.2218035096e+000	 1.1922317154e-001	 2.4787931266e+000
 2.2206342191e+000	 1.3931498512e-001	 2.4540435777e+000
 2.2192782944e+000	 1.5946426607e-001	 2.4183760124e+000
 2.2177340103e+000	 1.7966874960e-001	 2.3713245245e+000
 2.2159996717e+000	 1.9992612432e-001	 2.3125264764e+000
 2.2500000000e+000	 0.0000000000e+000	 2.4929573489e+000
 2.2499117884e+000	 1.9923459911e-002	 2.5232871048e+000
 2.2496458769e+000	 3.9917771955e-002	 2.5472769909e+000
 2.2492003663e+000	 5.9980933064e-002	 2.5639395964e+000
 2.2485733799e+000	 8.0110891976e-002	 2.5723752544e+000
 2.2477630651e+000	 1.0030554932e-001	 2.5717755589e+000
 2.2467675940e+000	 1.2056275773e-001	 2.5614267849e+000
 2.2455851654e+000	 1.4088032204e-001	 2.5407132010e+000
 2.2442140055e+000	 1.6125599940e-001	 2.5091202647e+000
 2.2426523700e+000	 1.8168749959e-001	 2.4662376870e+000
 2.2408985444e+000	 2.0217248527e-001	 2.4117623579e+000
 1.9919098172e+000	 1.7970887579e-001	 2.6427620203e+000
 1.9901785300e+000	 1.9796317532e-001	 2.7008009253e+000
 1.9882734453e+000	 2.1626073764e-001	 2.7543731141e+000
 1.9861931275e+000	 2.3459936123e-001	 2.8028847729e+000
 1.9839361725e+000	 2.5297680396e-001	 2.8458143127e+000
 1.9815012093e+000	 2.7139078356e-001	 2.8827142441e+000
 1.9788869010e+000	 2.8983897805e-001	 2.9132129289e+000
 1.9760919458e+000	 3.0831902626e-001	 2.9370162013e+000
 1.9731150785e+000	 3.2682852835e-001	 2.9539088512e+000
 1.9699550718e+000	 3.4536504635e-001	 2.9637559619e+000
 1.9666107368e+000	 3.6392610484e-001	 2.9665040965e+000
 2.0168086899e+000	 1.8195523674e-001	 2.4867190638e+000
 2.0150557616e+000	 2.0043771501e-001	 2.5285026986e+000
 2.0131268634e+000	 2.1896399687e-001	 2.5669569244e+000
 2.0110205416e+000	 2.3753185325e-001	 2.6015468126e+000
 2.0087353747e+000	 2.5613901401e-001	 2.6318122323e+000
 2.0062699745e+000	 2.7478316835e-001	 2.6573697097e+000
 2.0036229872e+000	 2.9346196528e-001	 2.6779141575e+000
 2.0007930951e+000	 3.1217301410e-001	 2.6932204663e+000
 1.9977790170e+000	 3.3091388495e-001	 2.7031449528e+000
 1.9945795102e+000	 3.4968210943e-001	 2.7076266550e+000
 1.9911933711e+000	 3.6847518115e-001	 2.7066884678e+000
 2.0417075627e+000	 1.8420159768e-001	 2.3627059339e+000
 2.0399329932e+000	 2.0291225470e-001	 2.3900849556e+000
 2.0379802815e+000	 2.2166725609e-001	 2.4151165121e+000
 2.0358479557e+000	 2.4046434526e-001	 2.4373236681e+000
 2.0335345769e+000	 2.5930122406e-001	 2.4563070097e+000
 2.0310387396e+000	 2.7817555315e-001	 2.4717464904e+000
 2.0283590735e+000	 2.9708495251e-001	 2.4834031413e+000
 2.0254942444e+000	 3.1602700193e-001	 2.4911206367e+000
 2.0224429555e+000	 3.3499924156e-001	 2.4948267089e+000
 2.0192039486e+000	 3.5399917252e-001	 2.4945344029e+000
 2.0157760053e+000	 3.7302425746e-001	 2.4903431653e+000
 2.0666064354e+000	 1.8644795863e-001	 2.2697378355e+000
 2.0648102249e+000	 2.0538679439e-001	 2.2844653185e+000
 2.0628336995e+000	 2.2437051531e-001	 2.2976725071e+000
 2.0606753698e+000	 2.4339683728e-001	 2.3089396292e+000
 2.0583337790e+000	 2.6246343411e-001	 2.3179273082e+000
 2.0558075047e+000	 2.8156793795e-001	 2.3243784002e+000
 2.0530951598e+000	 3.0070793974e-001	 2.3281196877e+000
 2.0501953937e+000	 3.1988098976e-001	 2.3290634222e+000
 2.0471068940e+000	 3.3908459817e-001	 2.3272087079e+000
 2.0438283870e+000	 3.5831623560e-001	 2.3226427192e+000
 2.0403586395e+000	 3.7757333378e-001	 2.3155417433e+000
 2.0915053081e+000	 1.8869431958e-001	 2.2068619284e+000
 2.0896874565e+000	 2.0786133409e-001	 2.2105960426e+000
 2.0876871176e+000	 2.2707377453e-001	 2.2134827393e+000
 2.0855027839e+000	 2.4632932930e-001	 2.2151586369e+000
 2.0831329812e+000	 2.6562564417e-001	 2.2153437769e+000
 2.0805762698e+000	 2.8496032274e-001	 2.2138434551e+000
 2.0778312460e+000	 3.0433092696e-001	 2.2105499012e+000
 2.0748965430e+000	 3.2373497759e-001	 2.2054438017e+000
 2.0717708325e+000	 3.4316995478e-001	 2.1985956551e+000
 2.0684528254e+000	 3.6263329868e-001	 2.1901669541e+000
 2.0649412737e+000	 3.8212241009e-001	 2.1804111852e+000
 2.1164041808e+000	 1.9094068053e-001	 2.1731554472e+000
 2.1145646881e+000	 2.1033587378e-001	 2.1674619796e+000
 2.1125405357e+000	 2.2977703375e-001	 2.1614400499e+000
 2.1103301980e+000	 2.4926182132e-001	 2.1547819509e+000
 2.1079321833e+000	 2.6878785422e-001	 2.1472665814e+000
 2.1053450349e+000	 2.8835270754e-001	 2.1387612729e+000
 2.1025673323e+000	 3.0795391419e-001	 2.1292234597e+000
 2.0995976924e+000	 3.2758896542e-001	 2.1187021835e+000
 2.0964347709e+000	 3.4725531138e-001	 2.1073394238e+000
 2.0930772638e+000	 3.6695036176e-001	 2.0953712461e+000
 2.0895239079e+000	 3.8667148640e-001	 2.0831287610e+000
 2.1413030535e+000	 1.9318704148e-001	 2.1677239528e+000
 2.1394419197e+000	 2.1281041347e-001	 2.1540786823e+000
 2.1373939537e+000	 2.3248029298e-001	 2.1404702558e+000
 2.1351576121e+000	 2.5219431333e-001	 2.1266459801e+000
 2.1327313855e+000	 2.7195006427e-001	 2.1124431056e+000
 2.1301138000e+000	 2.9174509234e-001	 2.0977906543e+000
 2.1273034185e+000	 3.1157690142e-001	 2.0827110812e+000
 2.1242988417e+000	 3.3144295325e-001	 2.0673217647e+000
 2.1210987094e+000	 3.5134066799e-001	 2.0518363136e+000
 2.1177017022e+000	 3.7126742484e-001	 2.0365656848e+000
 2.1141065421e+000	 3.9122056271e-001	 2.0219191030e+000
 2.1662019262e+000	 1.9543340243e-001	 2.1896997046e+000
 2.1643191514e+000	 2.1528495317e-001	 2.1694906399e+000
 2.1622473718e+000	 2.3518355220e-001	 2.1495302550e+000
 2.1599850262e+000	 2.5512680535e-001	 2.1296202622e+000
 2.1575305876e+000	 2.7511227432e-001	 2.1096558136e+000
 2.1548825652e+000	 2.9513747713e-001	 2.0896273313e+000
 2.1520395048e+000	 3.1519988865e-001	 2.0696221655e+000
 2.1489999910e+000	 3.3529694108e-001	 2.0498260715e+000
 2.1457626479e+000	 3.5542602459e-001	 2.0305244968e+000
 2.1423261406e+000	 3.7558448792e-001	 2.0121036703e+000
 2.1386891763e+000	 3.9576963903e-001	 1.9950514843e+000
 2.1911007990e+000	 1.9767976337e-001	 2.2382401433e+000
 2.1891963830e+000	 2.1775949286e-001	 2.2127696339e+000
 2.1871007899e+000	 2.3788681142e-001	 2.1876062599e+000
 2.1848124402e+000	 2.5805929737e-001	 2.1626055818e+000
 2.1823297898e+000	 2.7827448437e-001	 2.1377202557e+000
 2.1796513303e+000	 2.9852986193e-001	 2.1130018688e+000
 2.1767755911e+000	 3.1882287587e-001	 2.0886025962e+000
 2.1737011403e+000	 3.3915092891e-001	 2.0647766681e+000
 2.1704265864e+000	 3.5951138120e-001	 2.0418816395e+000
 2.1669505789e+000	 3.7990155100e-001	 2.0203794522e+000
 2.1632718105e+000	 4.0031871534e-001	 2.0008372824e+000
 2.2159996717e+000	 1.9992612432e-001	 2.3125264764e+000
 2.2140736146e+000	 2.2023403255e-001	 2.2830132054e+000
 2.2119542079e+000	 2.4059007064e-001	 2.2537121509e+000
 2.2096398543e+000	 2.6099178938e-001	 2.2245322147e+000
 2.2071289919e+000	 2.8143669442e-001	 2.1954832102e+000
 2.2044200954e+000	 3.0192224673e-001	 2.1666777074e+000
 2.2015116773e+000	 3.2244586310e-001	 2.1383326907e+000
 2.1984022896e+000	 3.4300491674e-001	 2.1107710197e+000
 2.1950905249e+000	 3.6359673781e-001	 2.0844226827e+000
 2.1915750173e+000	 3.8421861408e-001	 2.0598258351e+000
 2.1878544447e+000	 4.0486779165e-001	 2.0376276134e+000
 2.2408985444e+000	 2.0217248527e-001	 2.4117623579e+000
 2.2389508462e+000	 2.2270857224e-001	 2.3793432232e+000
 2.2368076260e+000	 2.4329332986e-001	 2.3468879392e+000
 2.2344672684e+000	 2.6392428140e-001	 2.3143582896e+000
 2.2319281941e+000	 2.8459890447e-001	 2.2818209483e+000
 2.2291888605e+000	 3.0531463152e-001	 2.2494493372e+000
 2.2262477636e+000	 3.2606885033e-001	 2.2175252879e+000
 2.2231034390e+000	 3.4685890457e-001	 2.1864404979e+000
 2.2197544633e+000	 3.6768209441e-001	 2.1566977716e+000
 2.2161994557e+000	 3.8853567716e-001	 2.1289120363e+000
 2.2124370789e+000	 4.0941686796e-001	 2.1038111248e+000
 1.9666107368e+000	 3.6392610484e-001	 2.9665040965e+000
 1.9630809251e+000	 3.8250919152e-001	 2.9381451576e+000
 1.9593645290e+000	 4.0111175798e-001	 2.8959710969e+000
 1.9554604835e+000	 4.1973122034e-001	 2.8400452849e+000
 1.9513677669e+000	 4.3836496008e-001	 2.7705188827e+000
 1.9470854021e+000	 4.5701032483e-001	 2.6876313587e+000
 1.9426124576e+000	 4.7566462918e-001	 2.5917108167e+000
 1.9379480490e+000	 4.9432515561e-001	 2.4831741304e+000
 1.9330913394e+000	 5.1298915537e-001	 2.3625268801e+000
 1.9280415411e+000	 5.3165384949e-001	 2.2303630867e+000
 1.9227979164e+000	 5.5031642970e-001	 2.0873647404e+000
 1.9911933711e+000	 3.6847518115e-001	 2.7066884678e+000
 1.9876194366e+000	 3.8729055642e-001	 2.6727053261e+000
 1.9838565856e+000	 4.0612565496e-001	 2.6266931865e+000
 1.9799037396e+000	 4.2497786060e-001	 2.5688037963e+000
 1.9757598640e+000	 4.4384452209e-001	 2.4992789635e+000
 1.9714239696e+000	 4.6272295389e-001	 2.4184509839e+000
 1.9668951134e+000	 4.8161043705e-001	 2.3267428727e+000
 1.9621723996e+000	 5.0050422005e-001	 2.2246683940e+000
 1.9572549812e+000	 5.1940151982e-001	 2.1128318848e+000
 1.9521420604e+000	 5.3829952261e-001	 1.9919278686e+000
 1.9468328903e+000	 5.5719538508e-001	 1.8627404541e+000
 2.0157760053e+000	 3.7302425746e-001	 2.4903431653e+000
 2.0121579482e+000	 3.9207192132e-001	 2.4512850743e+000
 2.0083486423e+000	 4.1113955194e-001	 2.4018287718e+000
 2.0043469956e+000	 4.3022450086e-001	 2.3422150118e+000
 2.0001519611e+000	 4.4932408409e-001	 2.2727770487e+000
 1.9957625371e+000	 4.6843558295e-001	 2.1939409774e+000
 1.9911777691e+000	 4.8755624491e-001	 2.1062258680e+000
 1.9863967502e+000	 5.0668328450e-001	 2.0102436914e+000
 1.9814186229e+000	 5.2581388426e-001	 1.9066990305e+000
 1.9762425797e+000	 5.4494519573e-001	 1.7963885726e+000
 1.9708678643e+000	 5.6407434045e-001	 1.6802003795e+000
 2.0403586395e+000	 3.7757333378e-001	 2.3155417433e+000
 2.0366964598e+000	 3.9685328622e-001	 2.2718592918e+000
 2.0328406989e+000	 4.1615344891e-001	 2.2192552718e+000
 2.0287902517e+000	 4.3547114111e-001	 2.1580601508e+000
 2.0245440582e+000	 4.5480364609e-001	 2.0886995089e+000
 2.0201011047e+000	 4.7414821202e-001	 2.0116942910e+000
 2.0154604248e+000	 4.9350205278e-001	 1.9276608469e+000
 2.0106211008e+000	 5.1286234895e-001	 1.8373107524e+000
 2.0055822646e+000	 5.3222624870e-001	 1.7414504081e+000
 2.0003430989e+000	 5.5159086884e-001	 1.6409804105e+000
 1.9949028382e+000	 5.7095329582e-001	 1.5368946930e+000
 2.0649412737e+000	 3.8212241009e-001	 2.1804111852e+000
 2.0612349713e+000	 4.0163465111e-001	 2.1324582302e+000
 2.0573327555e+000	 4.2116734589e-001	 2.0769072710e+000
 2.0532335077e+000	 4.4071778137e-001	 2.0141792719e+000
 2.0489361553e+000	 4.6028320810e-001	 1.9447930940e+000
 2.0444396722e+000	 4.7986084108e-001	 1.8693656621e+000
 2.0397430805e+000	 4.9944786064e-001	 1.7886119091e+000
 2.0348454514e+000	 5.1904141339e-001	 1.7033444942e+000
 2.0297459064e+000	 5.3863861314e-001	 1.6144732888e+000
 2.0244436182e+000	 5.5823654196e-001	 1.5230046264e+000
 2.0189378122e+000	 5.7783225119e-001	 1.4300403130e+000
 2.0895239079e+000	 3.8667148640e-001	 2.0831287610e+000
 2.0857734829e+000	 4.0641601601e-001	 2.0311642465e+000
 2.0818248121e+000	 4.2618124287e-001	 1.9727731574e+000
 2.0776767638e+000	 4.4596442162e-001	 1.9084678115e+000
 2.0733282524e+000	 4.6576277010e-001	 1.8388613820e+000
 2.0687782397e+000	 4.8557347014e-001	 1.7646679792e+000
 2.0640257362e+000	 5.0539366851e-001	 1.6867025007e+000
 2.0590698020e+000	 5.2522047784e-001	 1.6058802461e+000
 2.0539095481e+000	 5.4505097759e-001	 1.5232162904e+000
 2.0485441375e+000	 5.6488221508e-001	 1.4398246123e+000
 2.0429727862e+000	 5.8471120656e-001	 1.3569169734e+000
 2.1141065421e+000	 3.9122056271e-001	 2.0219191030e+000
 2.1103119945e+000	 4.1119738090e-001	 1.9661087738e+000
 2.1063168687e+000	 4.3119513984e-001	 1.9048919940e+000
 2.1021200198e+000	 4.5121106188e-001	 1.8388733641e+000
 2.0977203495e+000	 4.7124233210e-001	 1.7687614742e+000
 2.0931168073e+000	 4.9128609920e-001	 1.6953689007e+000
 2.0883083920e+000	 5.1133947637e-001	 1.6196119633e+000
 2.0832941527e+000	 5.3139954228e-001	 1.5425102365e+000
 2.0780731899e+000	 5.5146334203e-001	 1.4651858100e+000
 2.0726446567e+000	 5.7152788820e-001	 1.3888622951e+000
 2.0670077601e+000	 5.9159016193e-001	 1.3148635723e+000
 2.1386891763e+000	 3.9576963903e-001	 1.9950514843e+000
 2.1348505060e+000	 4.1597874580e-001	 1.9354695005e+000
 2.1308089253e+000	 4.3620903682e-001	 1.8713506065e+000
 2.1265632759e+000	 4.5645770213e-001	 1.8033926852e+000
 2.1221124465e+000	 4.7672189410e-001	 1.7324009200e+000
 2.1174553748e+000	 4.9699872826e-001	 1.6592877078e+000
 2.1125910477e+000	 5.1728528424e-001	 1.5850723225e+000
 2.1075185033e+000	 5.3757860672e-001	 1.5108803236e+000
 2.1022368316e+000	 5.5787570647e-001	 1.4379427036e+000
 2.0967451760e+000	 5.7817356131e-001	 1.3675947723e+000
 2.0910427341e+000	 5.9846911730e-001	 1.3012747713e+000
 2.1632718105e+000	 4.0031871534e-001	 2.0008372824e+000
 2.1593890176e+000	 4.2076011069e-001	 1.9374677428e+000
 2.1553009819e+000	 4.4122293379e-001	 1.8702808695e+000
 2.1510065319e+000	 4.6170434238e-001	 1.8000688972e+000
 2.1465045436e+000	 4.8220145610e-001	 1.7277348498e+000
 2.1417939423e+000	 5.0271135732e-001	 1.6542923707e+000
 2.1368737034e+000	 5.2323109210e-001	 1.5808652937e+000
 2.1317428539e+000	 5.4375767117e-001	 1.5086869476e+000
 2.1264004734e+000	 5.6428807091e-001	 1.4390991922e+000
 2.1208456953e+000	 5.8481923443e-001	 1.3735511775e+000
 2.1150777080e+000	 6.0534807266e-001	 1.3135978270e+000
 2.1878544447e+000	 4.0486779165e-001	 2.0376276134e+000
 2.1839275292e+000	 4.2554147558e-001	 1.9703659932e+000
 2.1797930386e+000	 4.4623683076e-001	 1.8998571761e+000
 2.1754497879e+000	 4.6695098264e-001	 1.8269888855e+000
 2.1708966407e+000	 4.8768101810e-001	 1.7527633025e+000
 2.1661325098e+000	 5.0842398637e-001	 1.6782968140e+000
 2.1611563591e+000	 5.2917689996e-001	 1.6048194908e+000
 2.1559672045e+000	 5.4993673561e-001	 1.5336742897e+000
 2.1505641151e+000	 5.7070043534e-001	 1.4663159753e+000
 2.1449462145e+000	 5.9146490754e-001	 1.4043097571e+000
 2.1391126820e+000	 6.1222702803e-001	 1.3493296366e+000
 2.2124370789e+000	 4.0941686796e-001	 2.1038111248e+000
 2.2084660407e+000	 4.3032284048e-001	 2.0324656329e+000
 2.2042850952e+000	 4.5125072774e-001	 1.9582940749e+000
 2.1998930440e+000	 4.7219762289e-001	 1.8822808663e+000
 2.1952887378e+000	 4.9316058010e-001	 1.8055287301e+000
 2.1904710774e+000	 5.1413661543e-001	 1.7292583630e+000
 2.1854390149e+000	 5.3512270782e-001	 1.6548078210e+000
 2.1801915551e+000	 5.5611580005e-001	 1.5836316189e+000
 2.1747277568e+000	 5.7711279978e-001	 1.5172995388e+000
 2.1690467338e+000	 5.9811058066e-001	 1.4574951414e+000
 2.1631476559e+000	 6.1910598340e-001	 1.4060139800e+000
 1.9227979164e+000	 5.5031642970e-001	 2.0873647404e+000
 1.9173597783e+000	 5.6897405956e-001	 2.1228749050e+000
 1.9117264922e+000	 5.8762387544e-001	 2.1502809381e+000
 1.9058974762e+000	 6.0626298769e-001	 2.1708937730e+000
 1.8998722024e+000	 6.2488848178e-001	 2.1861134007e+000
 1.8936501977e+000	 6.4349741945e-001	 1.9669903671e+000
 1.8872310448e+000	 6.6208683995e-001	 1.7248232980e+000
 1.8806143829e+000	 6.8065376130e-001	 1.4621154493e+000
 1.8737999088e+000	 6.9919518155e-001	 1.2162664356e+000
 1.8667873772e+000	 7.1770808012e-001	 1.1257557936e+000
 1.8595766021e+000	 7.3618941913e-001	 1.0210636001e+000
 1.9468328903e+000	 5.5719538508e-001	 1.8627404541e+000
 1.9413267756e+000	 5.7608623530e-001	 1.9303034626e+000
 1.9356230734e+000	 5.9496917388e-001	 1.9928170611e+000
 1.9297211947e+000	 6.1384127504e-001	 2.0516289431e+000
 1.9236206049e+000	 6.3269958780e-001	 2.0121325100e+000
 1.9173208252e+000	 6.5154113719e-001	 1.8193298801e+000
 1.9108214328e+000	 6.7036292545e-001	 1.6078933162e+000
 1.9041220627e+000	 6.8916193331e-001	 1.3789673575e+000
 1.8972224076e+000	 7.0793512132e-001	 1.1337657866e+000
 1.8901222194e+000	 7.2667943112e-001	 8.7357118335e-001
 1.8828213097e+000	 7.4539178687e-001	 5.9973433249e-001
 1.9708678643e+000	 5.6407434045e-001	 1.6802003795e+000
 1.9652937728e+000	 5.8319841105e-001	 1.7757362812e+000
 1.9595196545e+000	 6.0231447232e-001	 1.8691216837e+000
 1.9535449131e+000	 6.2141956238e-001	 1.9617446530e+000
 1.9473690074e+000	 6.4051069382e-001	 1.8547356308e+000
 1.9409914526e+000	 6.5958485493e-001	 1.6865005705e+000
 1.9344118209e+000	 6.7863901094e-001	 1.5025686873e+000
 1.9276297425e+000	 6.9767010533e-001	 1.3040585978e+000
 1.9206449065e+000	 7.1667506109e-001	 1.0921567342e+000
 1.9134570617e+000	 7.3565078212e-001	 8.6811689382e-001
 1.9060660172e+000	 7.5459415461e-001	 6.3325964344e-001
 1.9949028382e+000	 5.7095329582e-001	 1.5368946930e+000
 1.9892607700e+000	 5.9031058679e-001	 1.6563533739e+000
 1.9834162357e+000	 6.0965977076e-001	 1.7764071945e+000
 1.9773686316e+000	 6.2899784972e-001	 1.8473865722e+000
 1.9711174100e+000	 6.4832179984e-001	 1.7146717033e+000
 1.9646620801e+000	 6.6762857267e-001	 1.5680310903e+000
 1.9580022090e+000	 6.8691509644e-001	 1.4084918393e+000
 1.9511374223e+000	 7.0617827734e-001	 1.2371478953e+000
 1.9440674054e+000	 7.2541500086e-001	 1.0551597312e+000
 1.9367919039e+000	 7.4462213312e-001	 8.6375389474e-001
 1.9293107247e+000	 7.6379652235e-001	 6.6422240928e-001
 2.0189378122e+000	 5.7783225119e-001	 1.4300403130e+000
 2.0132277673e+000	 5.9742276253e-001	 1.5693966830e+000
 2.0073128168e+000	 6.1700506920e-001	 1.7119429288e+000
 2.0011923500e+000	 6.3657613707e-001	 1.7080763540e+000
 1.9948658125e+000	 6.5613290586e-001	 1.5914046229e+000
 1.9883327076e+000	 6.7567229041e-001	 1.4634910813e+000
 1.9815925970e+000	 6.9519118194e-001	 1.3253405382e+000
 1.9746451021e+000	 7.1468644936e-001	 1.1780234959e+000
 1.9674899042e+000	 7.3415494062e-001	 1.0226758369e+000
 1.9601267461e+000	 7.5359348412e-001	 8.6049836794e-001
 1.9525554322e+000	 7.7299889008e-001	 6.9275621789e-001
 2.0429727862e+000	 5.8471120656e-001	 1.3569169734e+000
 2.0371947645e+000	 6.0453493827e-001	 1.5121664376e+000
 2.0312093980e+000	 6.2435036764e-001	 1.6730518192e+000
 2.0250160685e+000	 6.4415442441e-001	 1.5877020176e+000
 2.0186142150e+000	 6.6394401188e-001	 1.4844420272e+000
 2.0120033350e+000	 6.8371600815e-001	 1.3724887634e+000
 2.0051829851e+000	 7.0346726743e-001	 1.2528258085e+000
 1.9981527819e+000	 7.2319462137e-001	 1.1265014304e+000
 1.9909124031e+000	 7.4289488039e-001	 9.9462826801e-001
 1.9834615883e+000	 7.6256483512e-001	 8.5838287341e-001
 1.9758001398e+000	 7.8220125782e-001	 7.1900510628e-001
 2.0670077601e+000	 5.9159016193e-001	 1.3148635723e+000
 2.0611617617e+000	 6.1164711402e-001	 1.4820177645e+000
 2.0551059791e+000	 6.3169566608e-001	 1.5709273386e+000
 2.0488397869e+000	 6.5173271175e-001	 1.4857187745e+000
 2.0423626176e+000	 6.7175511790e-001	 1.3933327527e+000
 2.0356739625e+000	 6.9175972589e-001	 1.2946686922e+000
 2.0287733731e+000	 7.1174335293e-001	 1.1906900000e+000
 2.0216604616e+000	 7.3170279338e-001	 1.0824238986e+000
 2.0143349019e+000	 7.5163482016e-001	 9.7096111029e-001
 2.0067964305e+000	 7.7153618612e-001	 8.5745539717e-001
 1.9990448473e+000	 7.9140362556e-001	 7.4312295308e-001
 2.0910427341e+000	 5.9846911730e-001	 1.3012747713e+000
 2.0851287589e+000	 6.1875928976e-001	 1.4763575334e+000
 2.0790025603e+000	 6.3904096452e-001	 1.4807105899e+000
 2.0726635054e+000	 6.5931099910e-001	 1.4016251117e+000
 2.0661110201e+000	 6.7956622392e-001	 1.3176644674e+000
 2.0593445900e+000	 6.9980344363e-001	 1.2297096704e+000
 2.0523637612e+000	 7.2001943843e-001	 1.1387049872e+000
 2.0451681414e+000	 7.4021096540e-001	 1.0456577657e+000
 2.0377574008e+000	 7.6037475992e-001	 9.5163811913e-001
 2.0301312727e+000	 7.8050753712e-001	 8.5777846464e-001
 2.0222895548e+000	 8.0060599330e-001	 7.6527291291e-001
 2.1150777080e+000	 6.0534807266e-001	 1.3135978270e+000
 2.1090957562e+000	 6.2587146550e-001	 1.4818474134e+000
 2.1028991414e+000	 6.4638626296e-001	 1.4101559193e+000
 2.0964872238e+000	 6.6688928644e-001	 1.3349603334e+000
 2.0898594226e+000	 6.8737732993e-001	 1.2570614640e+000
 2.0830152175e+000	 7.0784716137e-001	 1.1773228022e+000
 2.0759541493e+000	 7.2829552392e-001	 1.0966704922e+000
 2.0686758212e+000	 7.4871913741e-001	 1.0160931608e+000
 2.0611798997e+000	 7.6911469969e-001	 9.3664160196e-001
 2.0534661149e+000	 7.8947888812e-001	 8.5942831458e-001
 2.0455342623e+000	 8.0980836103e-001	 7.8562688937e-001
 2.1391126820e+000	 6.1222702803e-001	 1.3493296366e+000
 2.1330627534e+000	 6.3298364124e-001	 1.4307766826e+000
 2.1267957226e+000	 6.5373156140e-001	 1.3587618357e+000
 2.1203109423e+000	 6.7446757378e-001	 1.2853022675e+000
 2.1136078252e+000	 6.9518843595e-001	 1.2111826026e+000
 2.1066858449e+000	 7.1589087911e-001	 1.1372496785e+000
 2.0995445373e+000	 7.3657160942e-001	 1.0644125198e+000
 2.0921835010e+000	 7.5722730942e-001	 9.9364216959e-001
 2.0846023985e+000	 7.7785463946e-001	 9.2597137606e-001
 2.0768009572e+000	 7.9845023912e-001	 8.6249412865e-001
 2.0687789699e+000	 8.1901072877e-001	 8.0436504347e-001
 2.1631476559e+000	 6.1910598340e-001	 1.4060139800e+000
 2.1570297506e+000	 6.4009581698e-001	 1.4003554027e+000
 2.1506923038e+000	 6.6107685984e-001	 1.3260668507e+000
 2.1441346607e+000	 6.8204586113e-001	 1.2522651256e+000
 2.1373562277e+000	 7.0299954197e-001	 1.1797193903e+000
 2.1303564724e+000	 7.2393459685e-001	 1.1092606832e+000
 2.1231349254e+000	 7.4484769492e-001	 1.0417818974e+000
 2.1156911808e+000	 7.6573548144e-001	 9.7823761509e-001
 2.1080248974e+000	 7.8659457923e-001	 9.1964379576e-001
 2.1001357994e+000	 8.0742159012e-001	 8.6707731240e-001
 2.0920236774e+000	 8.2821309651e-001	 8.2167533496e-001
 1.8595766021e+000	 7.3618941913e-001	 1.0210636001e+000
 1.8521674571e+000	 7.5463614479e-001	 9.9284861379e-001
 1.8445598760e+000	 7.7304518882e-001	 9.6480927424e-001
 1.8367538539e+000	 7.9141346985e-001	 9.3728816448e-001
 1.8287494474e+000	 8.0973789495e-001	 9.1063727506e-001
 1.8205467755e+000	 8.2801536107e-001	 8.8521723942e-001
 1.8121460198e+000	 8.4624275656e-001	 8.6139653974e-001
 1.8035474251e+000	 8.6441696276e-001	 8.3955068532e-001
 1.7947513000e+000	 8.8253485550e-001	 8.2006136478e-001
 1.7857580172e+000	 9.0059330673e-001	 8.0331557442e-001
 1.7765680137e+000	 9.1858918611e-001	 7.8970472431e-001
 1.8828213097e+000	 7.4539178687e-001	 5.9973433249e-001
 1.8753195503e+000	 7.6406909660e-001	 3.8237031043e-001
 1.8676168744e+000	 7.8270825368e-001	 3.7927528702e-001
 1.8597132771e+000	 8.0130613823e-001	 3.8799073909e-001
 1.8516088155e+000	 8.1985961864e-001	 3.9949584138e-001
 1.8433036102e+000	 8.3836555308e-001	 4.1412097823e-001
 1.8347978450e+000	 8.5682079102e-001	 4.3220236727e-001
 1.8260917679e+000	 8.7522217479e-001	 4.5408122232e-001
 1.8171856912e+000	 8.9356654119e-001	 4.8010289245e-001
 1.8080799924e+000	 9.1185072306e-001	 5.1061597940e-001
 1.7987751138e+000	 9.3007155093e-001	 5.4597143523e-001
 1.9060660172e+000	 7.5459415461e-001	 6.3325964344e-001
 1.8984716435e+000	 7.7350204841e-001	 4.3815573173e-001
 1.8906738729e+000	 7.9237131854e-001	 2.4483480154e-001
 1.8826727002e+000	 8.1119880660e-001	 5.4414040021e-002
 1.8744681836e+000	 8.2998134233e-001	-1.1697168689e-001
 1.8660604449e+000	 8.4871574509e-001	-6.4779197855e-002
 1.8574496703e+000	 8.6739882548e-001	-7.3177451955e-003
 1.8486361107e+000	 8.8602738683e-001	 5.5721169686e-002
 1.8396200825e+000	 9.0459822689e-001	 1.2464817478e-001
 1.8304019676e+000	 9.2310813940e-001	 1.9977513229e-001
 1.8209822140e+000	 9.4155391576e-001	 2.8141422607e-001
 1.9293107247e+000	 7.6379652235e-001	 6.6422240928e-001
 1.9216237367e+000	 7.8293500022e-001	 4.8923340731e-001
 1.9137308713e+000	 8.0203438340e-001	 3.1718161916e-001
 1.9056321234e+000	 8.2109147497e-001	 1.4918133986e-001
 1.8973275517e+000	 8.4010306601e-001	-1.3602762296e-002
 1.8888172796e+000	 8.5906593711e-001	-1.6995674675e-001
 1.8801014955e+000	 8.7797685993e-001	-3.1861863654e-001
 1.8711804535e+000	 8.9683259886e-001	-3.5589191065e-001
 1.8620544737e+000	 9.1562991258e-001	-2.4659529615e-001
 1.8527239428e+000	 9.3436555573e-001	-1.2942777088e-001
 1.8431893142e+000	 9.5303628058e-001	-4.1142456673e-003
 1.9525554322e+000	 7.7299889008e-001	 6.9275621789e-001
 1.9447758299e+000	 7.9236795203e-001	 5.3579802071e-001
 1.9367878698e+000	 8.1169744825e-001	 3.8284191008e-001
 1.9285915466e+000	 8.3098414334e-001	 2.3500084878e-001
 1.9201869198e+000	 8.5022478970e-001	 9.3438595376e-002
 1.9115741143e+000	 8.6941612912e-001	-4.0631412943e-002
 1.9027533208e+000	 8.8855489439e-001	-1.6594731499e-001
 1.8937247963e+000	 9.0763781090e-001	-2.8120021778e-001
 1.8844888650e+000	 9.2666159827e-001	-3.8503572570e-001
 1.8750459180e+000	 9.4562297206e-001	-4.7605560604e-001
 1.8653964143e+000	 9.6451864541e-001	-3.1078922030e-001
 1.9758001398e+000	 7.8220125782e-001	 7.1900510628e-001
 1.9679279231e+000	 8.0180090384e-001	 5.7805138336e-001
 1.9598448682e+000	 8.2136051311e-001	 4.4207601234e-001
 1.9515509698e+000	 8.4087681172e-001	 3.1219217503e-001
 1.9430462879e+000	 8.6034651339e-001	 1.8956438270e-001
 1.9343309490e+000	 8.7976632113e-001	 7.5407342149e-002
 1.9254051460e+000	 8.9913292885e-001	-2.9015318724e-002
 1.9162691391e+000	 9.1844302293e-001	-1.2239246587e-001
 1.9069232562e+000	 9.3769328397e-001	-2.0336701406e-001
 1.8973678932e+000	 9.5688038840e-001	-2.7053762097e-001
 1.8876035145e+000	 9.7600101023e-001	-3.2246051930e-001
 1.9990448473e+000	 7.9140362556e-001	 7.4312295308e-001
 1.9910800163e+000	 8.1123385565e-001	 6.1620202012e-001
 1.9829018667e+000	 8.3102357797e-001	 4.9514777328e-001
 1.9745103929e+000	 8.5076948009e-001	 3.8107515687e-001
 1.9659056560e+000	 8.7046823707e-001	 2.7515108968e-001
 1.9570877837e+000	 8.9011651315e-001	 1.7859331345e-001
 1.9480569713e+000	 9.0971096330e-001	 9.2669097666e-002
 1.9388134820e+000	 9.2924823496e-001	 1.8693800727e-002
 1.9293576475e+000	 9.4872496966e-001	-4.1970712098e-002
 1.9196898685e+000	 9.6813780473e-001	-8.7917793043e-002
 1.9098106147e+000	 9.8748337506e-001	-1.1769787724e-001
 2.0222895548e+000	 8.0060599330e-001	 7.6527291291e-001
 2.0142321096e+000	 8.2066680746e-001	 6.5046478350e-001
 2.0059588651e+000	 8.4068664283e-001	 5.4232434779e-001
 1.9974698161e+000	 8.6066214846e-001	 4.4196984936e-001
 1.9887650241e+000	 8.8058996076e-001	 3.5057226263e-001
 1.9798446184e+000	 9.0046670516e-001	 2.6935412299e-001
 1.9707087965e+000	 9.2028899776e-001	 1.9958820988e-001
 1.9613578248e+000	 9.4005344700e-001	 1.4259608293e-001
 1.9517920388e+000	 9.5975665535e-001	 9.9746471438e-002
 1.9420118437e+000	 9.7939522106e-001	 7.2453518233e-002
 1.9320177149e+000	 9.9896573988e-001	 6.2174879158e-002
 2.0455342623e+000	 8.0980836103e-001	 7.8562688937e-001
 2.0373842028e+000	 8.3009975926e-001	 6.8106049410e-001
 2.0290158636e+000	 8.5034970769e-001	 5.8387601042e-001
 2.0204292393e+000	 8.7055481683e-001	 4.9519651204e-001
 2.0116243922e+000	 8.9071168444e-001	 4.1619867139e-001
 2.0026014531e+000	 9.1081689717e-001	 3.4811157060e-001
 1.9933606218e+000	 9.3086703222e-001	 2.9221536198e-001
 1.9839021676e+000	 9.5085865903e-001	 2.4983977786e-001
 1.9742264300e+000	 9.7078834105e-001	 2.2236249038e-001
 1.9643338189e+000	 9.9065263740e-001	 2.1120732189e-001
 1.9542248150e+000	 1.0104481047e+000	 2.1784230766e-001
 2.0687789699e+000	 8.1901072877e-001	 8.0436504347e-001
 2.0605362960e+000	 8.3953271107e-001	 7.0821560532e-001
 2.0520728620e+000	 8.6001277255e-001	 6.2007598007e-001
 2.0433886625e+000	 8.8044748521e-001	 5.4107559743e-001
 2.0344837603e+000	 9.0083340813e-001	 4.7239846532e-001
 2.0253582878e+000	 9.2116708919e-001	 4.1528196105e-001
 2.0160124470e+000	 9.4144506667e-001	 3.7101546815e-001
 2.0064465104e+000	 9.6166387107e-001	 3.4093885888e-001
 1.9966608213e+000	 9.8182002674e-001	 3.2644082277e-001
 1.9866557941e+000	 1.0019100537e+000	 3.2895704224e-001
 1.9764319152e+000	 1.0219304695e+000	 3.4996821654e-001
 2.0920236774e+000	 8.2821309651e-001	 8.2167533496e-001
 2.0836883892e+000	 8.4896566288e-001	 7.3216189045e-001
 2.0751298605e+000	 8.6967583741e-001	 6.5120025648e-001
 2.0663480856e+000	 8.9034015358e-001	 5.7992774032e-001
 2.0573431284e+000	 9.1095513182e-001	 5.1953731889e-001
 2.0481151225e+000	 9.3151728120e-001	 4.7127640928e-001
 2.0386642723e+000	 9.5202310113e-001	 4.3644548106e-001
 2.0289908532e+000	 9.7246908310e-001	 4.1639651019e-001
 2.0190952125e+000	 9.9285171243e-001	 4.1253127509e-001
 2.0089777693e+000	 1.0131674701e+000	 4.2629949576e-001
 1.9986390154e+000	 1.0334128344e+000	 4.5919681733e-001
 1.7765680137e+000	 9.1858918611e-001	 7.8970472431e-001
 1.7671817913e+000	 9.3651936262e-001	 5.9927208733e-001
 1.7575999168e+000	 9.5438070623e-001	 4.1894977068e-001
 1.7478230222e+000	 9.7217008953e-001	 2.4856126658e-001
 1.7378518049e+000	 9.8988438938e-001	 8.7919498543e-002
 1.7276870275e+000	 1.0075204886e+000	-6.3173629332e-002
 1.7173295184e+000	 1.0250752778e+000	-2.0492767128e-001
 1.7067801714e+000	 1.0425456567e+000	-3.3756406538e-001
 1.6960399458e+000	 1.0599285364e+000	-4.6131654370e-001
 1.6851098662e+000	 1.0772208403e+000	-5.7643152521e-001
 1.6739910224e+000	 1.0944195068e+000	-6.8316848971e-001
 1.7987751138e+000	 9.3007155093e-001	 5.4597143523e-001
 1.7892715637e+000	 9.4822585465e-001	 3.8211284193e-001
 1.7795699158e+000	 9.6631046506e-001	 2.2679439449e-001
 1.7696708100e+000	 9.8432221564e-001	 7.9916787718e-002
 1.7595749524e+000	 1.0022579442e+000	-5.8627943095e-002
 1.7492831153e+000	 1.0201144947e+000	-1.8895696203e-001
 1.7387961374e+000	 1.0378887188e+000	-3.1119716404e-001
 1.7281149236e+000	 1.0555774775e+000	-4.2548569601e-001
 1.7172404451e+000	 1.0731776431e+000	-5.3197046549e-001
 1.7061737395e+000	 1.0906861008e+000	-6.3081063490e-001
 1.6949159102e+000	 1.1080997506e+000	-7.2217709933e-001
 1.8209822140e+000	 9.4155391576e-001	 2.8141422607e-001
 1.8113613361e+000	 9.5993234668e-001	 1.4689036987e-001
 1.8015399147e+000	 9.7824022389e-001	 1.9388580335e-002
 1.7915185978e+000	 9.9647434176e-001	-1.0111367094e-001
 1.7812981000e+000	 1.0146314991e+000	-2.1464570360e-001
 1.7708792032e+000	 1.0327085009e+000	-3.2124425830e-001
 1.7602627564e+000	 1.0507021598e+000	-4.2095412125e-001
 1.7494496757e+000	 1.0686092982e+000	-5.1382874144e-001
 1.7384409444e+000	 1.0864267498e+000	-5.9993083837e-001
 1.7272376128e+000	 1.1041513613e+000	-6.7933299798e-001
 1.7158407980e+000	 1.1217799944e+000	-7.5211825472e-001
 1.8431893142e+000	 9.5303628058e-001	-4.1142456673e-003
 1.8334511084e+000	 9.7163883872e-001	-1.0666551682e-001
 1.8235099137e+000	 9.9016998271e-001	-2.0366210265e-001
 1.8133663856e+000	 1.0086264679e+000	-2.9505012076e-001
 1.8030212475e+000	 1.0270050540e+000	-3.8078065159e-001
 1.7924752910e+000	 1.0453025070e+000	-4.6081045865e-001
 1.7817293753e+000	 1.0635156007e+000	-5.3510270687e-001
 1.7707844278e+000	 1.0816411189e+000	-6.0362767644e-001
 1.7596414438e+000	 1.0996758565e+000	-6.6636347013e-001
 1.7483014862e+000	 1.1176166218e+000	-7.2329671147e-001
 1.7367656858e+000	 1.1354602383e+000	-7.7442323144e-001
 1.8653964143e+000	 9.6451864541e-001	-3.1078922030e-001
 1.8555408808e+000	 9.8334533075e-001	-3.7884780161e-001
 1.8454799126e+000	 1.0020997415e+000	-4.4276970169e-001
 1.8352141733e+000	 1.0207785940e+000	-5.0242493570e-001
 1.8247443951e+000	 1.0393786088e+000	-5.5768669188e-001
 1.8140713789e+000	 1.0578965131e+000	-6.0843214310e-001
 1.8031959943e+000	 1.0763290417e+000	-6.5454325947e-001
 1.7921191800e+000	 1.0946729396e+000	-6.9590761970e-001
 1.7808419431e+000	 1.1129249632e+000	-7.3241921840e-001
 1.7693653595e+000	 1.1310818823e+000	-7.6397926709e-001
 1.7576905735e+000	 1.1491404821e+000	-7.9049698606e-001
 1.8876035145e+000	 9.7600101023e-001	-3.2246051930e-001
 1.8776306532e+000	 9.9505182278e-001	-6.0542981054e-001
 1.8674499116e+000	 1.0140295004e+000	-6.9836284415e-001
 1.8570619611e+000	 1.0329307201e+000	-7.2378212506e-001
 1.8464675427e+000	 1.0517521637e+000	-7.4602435161e-001
 1.8356674667e+000	 1.0704905192e+000	-7.6488743464e-001
 1.8246626133e+000	 1.0891424827e+000	-7.8017251726e-001
 1.8134539321e+000	 1.1077047603e+000	-7.9168488424e-001
 1.8020424424e+000	 1.1261740699e+000	-7.9923487009e-001
 1.7904292328e+000	 1.1445471428e+000	-8.0263876339e-001
 1.7786154613e+000	 1.1628207260e+000	-8.0171970439e-001
 1.9098106147e+000	 9.8748337506e-001	-1.1769787724e-001
 1.8997204256e+000	 1.0067583148e+000	-3.7614837365e-001
 1.8894199106e+000	 1.0259592592e+000	-6.2713800505e-001
 1.8789097489e+000	 1.0450828462e+000	-8.6896496713e-001
 1.8681906902e+000	 1.0641257186e+000	-9.4646039519e-001
 1.8572635545e+000	 1.0830845253e+000	-9.3095590960e-001
 1.8461292323e+000	 1.1019559236e+000	-9.1288382741e-001
 1.8347886843e+000	 1.1207365810e+000	-8.9196748935e-001
 1.8232429417e+000	 1.1394231766e+000	-8.6793395944e-001
 1.8114931061e+000	 1.1580124033e+000	-8.4051503320e-001
 1.7995403491e+000	 1.1765009698e+000	-8.0944824160e-001
 1.9320177149e+000	 9.9896573988e-001	 6.2174879158e-002
 1.9218101980e+000	 1.0184648068e+000	-1.6988975094e-001
 1.9113899095e+000	 1.0378890180e+000	-3.9634511748e-001
 1.9007575367e+000	 1.0572349723e+000	-6.1536803210e-001
 1.8899138378e+000	 1.0764992734e+000	-8.2508550820e-001
 1.8788596424e+000	 1.0956785314e+000	-1.0235774563e+000
 1.8675958513e+000	 1.1147693646e+000	-1.0535673409e+000
 1.8561234364e+000	 1.1337684017e+000	-9.9775563724e-001
 1.8444434411e+000	 1.1526722833e+000	-9.3962752969e-001
 1.8325569795e+000	 1.1714776638e+000	-8.7883069344e-001
 1.8204652369e+000	 1.1901812136e+000	-8.1501746309e-001
 1.9542248150e+000	 1.0104481047e+000	 2.1784230766e-001
 1.9438999704e+000	 1.0301712989e+000	 1.3928584005e-002
 1.9333599085e+000	 1.0498187768e+000	-1.8622444387e-001
 1.9226053244e+000	 1.0693870985e+000	-3.8067139836e-001
 1.9116369853e+000	 1.0888728283e+000	-5.6741303398e-001
 1.9004557302e+000	 1.1082725375e+000	-7.4439907155e-001
 1.8890624702e+000	 1.1275828056e+000	-9.0953118864e-001
 1.8774581886e+000	 1.1468002224e+000	-1.0606661618e+000
 1.8656439404e+000	 1.1659213900e+000	-1.0154148428e+000
 1.8536208528e+000	 1.1849429244e+000	-9.1879212325e-001
 1.8413901247e+000	 1.2038614575e+000	-8.1974149386e-001
 1.9764319152e+000	 1.0219304695e+000	 3.4996821654e-001
 1.9659897428e+000	 1.0418777909e+000	 1.7587220307e-001
 1.9553299075e+000	 1.0617485357e+000	 3.6894346860e-003
 1.9444531122e+000	 1.0815392246e+000	-1.6451165987e-001
 1.9333601329e+000	 1.1012463832e+000	-3.2660467247e-001
 1.9220518181e+000	 1.1208665436e+000	-4.8040819018e-001
 1.9105290892e+000	 1.1403962465e+000	-6.2368893493e-001
 1.8987929407e+000	 1.1598320431e+000	-7.5416506352e-001
 1.8868444397e+000	 1.1791704967e+000	-8.6950962241e-001
 1.8746847261e+000	 1.1984081849e+000	-9.6159037626e-001
 1.8623150124e+000	 1.2175417013e+000	-8.2491488377e-001
 1.9986390154e+000	 1.0334128344e+000	 4.5919681733e-001
 1.9880795152e+000	 1.0535842829e+000	 3.1649066552e-001
 1.9772999064e+000	 1.0736782945e+000	 1.7384956253e-001
 1.9663009000e+000	 1.0936913507e+000	 3.3465905364e-002
 1.9550832805e+000	 1.1136199380e+000	-1.0240577428e-001
 1.9436479059e+000	 1.1334605497e+000	-2.3145192661e-001
 1.9319957082e+000	 1.1532096875e+000	-3.5130327451e-001
 1.9201276929e+000	 1.1728638638e+000	-4.5953827320e-001
 1.9080449390e+000	 1.1924196034e+000	-5.5368673325e-001
 1.8957485995e+000	 1.2118734454e+000	-6.3123360065e-001
 1.8832399002e+000	 1.2312219451e+000	-6.8962288727e-001
 1.6739910224e+000	 1.0944195068e+000	-6.8316848971e-001
 1.6626845693e+000	 1.1115214900e+000	-7.9652965326e-001
 1.6511917266e+000	 1.1285237623e+000	-8.9607929646e-001
 1.6395137781e+000	 1.1454233153e+000	-9.8173257730e-001
 1.6276520721e+000	 1.1622171622e+000	-1.0534227107e+000
 1.6156080202e+000	 1.1789023391e+000	-1.1111016502e+000
 1.6033830974e+000	 1.1954759065e+000	-1.1547407376e+000
 1.5909788412e+000	 1.2119349516e+000	-1.1843313183e+000
 1.5783968513e+000	 1.2282765894e+000	-1.1998853205e+000
 1.5656387886e+000	 1.2444979645e+000	-1.2014357955e+000
 1.5527063751e+000	 1.2605962528e+000	-1.3801730056e+000
 1.6949159102e+000	 1.1080997506e+000	-7.2217709933e-001
 1.6834681265e+000	 1.1254155087e+000	-8.0802874310e-001
 1.6718316232e+000	 1.1426303093e+000	-8.8025072002e-001
 1.6600077003e+000	 1.1597411068e+000	-9.3876613631e-001
 1.6479977230e+000	 1.1767448768e+000	-9.8351634154e-001
 1.6358031204e+000	 1.1936386183e+000	-1.0144616246e+000
 1.6234253861e+000	 1.2104193553e+000	-1.0315818771e+000
 1.6108660767e+000	 1.2270841385e+000	-1.0348772219e+000
 1.5981268119e+000	 1.2436300467e+000	-1.0243686045e+000
 1.5852092735e+000	 1.2600541890e+000	-1.1745159569e+000
 1.5721152048e+000	 1.2763537060e+000	-1.4296251711e+000
 1.7158407980e+000	 1.1217799944e+000	-7.5211825472e-001
 1.7042516836e+000	 1.1393095273e+000	-8.1116606854e-001
 1.6924715197e+000	 1.1567368563e+000	-8.5673780615e-001
 1.6805016226e+000	 1.1740588982e+000	-8.8876353719e-001
 1.6683433739e+000	 1.1912725913e+000	-9.0719178754e-001
 1.6559982207e+000	 1.2083748975e+000	-9.1199025127e-001
 1.6434676748e+000	 1.2253628042e+000	-9.0314646937e-001
 1.6307533122e+000	 1.2422333254e+000	-8.8066847285e-001
 1.6178567725e+000	 1.2589835041e+000	-9.9334269054e-001
 1.6047797583e+000	 1.2756104136e+000	-1.2300927978e+000
 1.5915240345e+000	 1.2921111591e+000	-1.4649828112e+000
 1.7367656858e+000	 1.1354602383e+000	-7.7442323144e-001
 1.7250352407e+000	 1.1532035459e+000	-8.0736365933e-001
 1.7131114163e+000	 1.1708434034e+000	-8.2695345352e-001
 1.7009955448e+000	 1.1883766897e+000	-8.3312865977e-001
 1.6886890248e+000	 1.2058003058e+000	-8.2584401959e-001
 1.6761933210e+000	 1.2231111768e+000	-8.0507369973e-001
 1.6635099635e+000	 1.2403062530e+000	-7.7081198781e-001
 1.6506405477e+000	 1.2573825123e+000	-8.3876094771e-001
 1.6375867332e+000	 1.2743369615e+000	-1.0547655459e+000
 1.6243502432e+000	 1.2911666381e+000	-1.2708298903e+000
 1.6109328642e+000	 1.3078686123e+000	-1.4861491844e+000
 1.7576905735e+000	 1.1491404821e+000	-7.9049698606e-001
 1.7458187978e+000	 1.1670975645e+000	-7.9801827778e-001
 1.7337513129e+000	 1.1849499504e+000	-7.9228632176e-001
 1.7214894670e+000	 1.2026944811e+000	-7.7324214969e-001
 1.7090346757e+000	 1.2203280204e+000	-7.4084575503e-001
 1.6963884212e+000	 1.2378474560e+000	-6.9507684186e-001
 1.6835522522e+000	 1.2552497018e+000	-7.1300681962e-001
 1.6705277832e+000	 1.2725316992e+000	-9.0579032104e-001
 1.6573166938e+000	 1.2896904188e+000	-1.1005959299e+000
 1.6439207281e+000	 1.3067228627e+000	-1.2966135950e+000
 1.6303416939e+000	 1.3236260655e+000	-1.4930106431e+000
 1.7786154613e+000	 1.1628207260e+000	-8.0171970439e-001
 1.7666023549e+000	 1.1809915832e+000	-7.8450290502e-001
 1.7543912095e+000	 1.1990564974e+000	-7.5410225736e-001
 1.7419833892e+000	 1.2170122725e+000	-7.1046278513e-001
 1.7293803266e+000	 1.2348557349e+000	-6.5354876670e-001
 1.7165835215e+000	 1.2525837353e+000	-6.1845732045e-001
 1.7035945410e+000	 1.2701931507e+000	-7.8545096509e-001
 1.6904150188e+000	 1.2876808861e+000	-9.5647023163e-001
 1.6770466545e+000	 1.3050438762e+000	-1.1307037005e+000
 1.6634912129e+000	 1.3222790873e+000	-1.3073135847e+000
 1.6497505236e+000	 1.3393835186e+000	-1.4854376284e+000
 1.7995403491e+000	 1.1765009698e+000	-8.0944824160e-001
 1.7873859120e+000	 1.1948856018e+000	-7.6816812373e-001
 1.7750311061e+000	 1.2131630445e+000	-7.1374561996e-001
 1.7624773115e+000	 1.2313300640e+000	-6.4612874818e-001
 1.7497259775e+000	 1.2493834494e+000	-5.6528510064e-001
 1.7367786217e+000	 1.2673200145e+000	-6.9618065944e-001
 1.7236368297e+000	 1.2851365995e+000	-8.4078761265e-001
 1.7103022543e+000	 1.3028300730e+000	-9.9065443884e-001
 1.6967766151e+000	 1.3203973336e+000	-1.1449422426e+000
 1.6830616978e+000	 1.3378353118e+000	-1.3027838145e+000
 1.6691593533e+000	 1.3551409718e+000	-1.4632855948e+000
 1.8204652369e+000	 1.1901812136e+000	-8.1501746309e-001
 1.8081694692e+000	 1.2087796204e+000	-7.5034340533e-001
 1.7956710026e+000	 1.2272695915e+000	-6.7254051723e-001
 1.7829712337e+000	 1.2456478554e+000	-5.8155880850e-001
 1.7700716284e+000	 1.2639111639e+000	-6.4057363768e-001
 1.7569737220e+000	 1.2820562937e+000	-7.5604064094e-001
 1.7436791184e+000	 1.3000800483e+000	-8.7885483871e-001
 1.7301894898e+000	 1.3179792599e+000	-1.0081804415e+000
 1.7165065757e+000	 1.3357507909e+000	-1.1431494148e+000
 1.7026321826e+000	 1.3533915364e+000	-1.2828634252e+000
 1.6885681830e+000	 1.3708984249e+000	-1.4263958720e+000
 1.8413901247e+000	 1.2038614575e+000	-8.1974149386e-001
 1.8289530263e+000	 1.2226736390e+000	-7.3233830949e-001
 1.8163108992e+000	 1.2413761385e+000	-6.3179195558e-001
 1.8034651559e+000	 1.2599656469e+000	-6.2139618170e-001
 1.7904172793e+000	 1.2784388785e+000	-7.0489116953e-001
 1.7771688222e+000	 1.2967925730e+000	-7.9786008706e-001
 1.7637214071e+000	 1.3150234972e+000	-8.9947466982e-001
 1.7500767253e+000	 1.3331284468e+000	-1.0088704017e+000
 1.7362365364e+000	 1.3511042483e+000	-1.1251484315e+000
 1.7222026675e+000	 1.3689477609e+000	-1.2473775850e+000
 1.7079770127e+000	 1.3866558781e+000	-1.3745964670e+000
 1.8623150124e+000	 1.2175417013e+000	-8.2491488377e-001
 1.8497365834e+000	 1.2365676577e+000	-7.1544360282e-001
 1.8369507958e+000	 1.2554826855e+000	-6.4159687678e-001
 1.8239590782e+000	 1.2742834383e+000	-6.9018114383e-001
 1.8107629302e+000	 1.2929665930e+000	-7.5040288451e-001
 1.7973639225e+000	 1.3115288522e+000	-8.2144597947e-001
 1.7837636958e+000	 1.3299669460e+000	-9.0245398435e-001
 1.7699639608e+000	 1.3482776336e+000	-9.9253200646e-001
 1.7559664970e+000	 1.3664577057e+000	-1.0907486856e+000
 1.7417731524e+000	 1.3845039855e+000	-1.1961382743e+000
 1.7273858424e+000	 1.4024133313e+000	-1.3077028127e+000
 1.8832399002e+000	 1.2312219451e+000	-6.8962288727e-001
 1.8705201405e+000	 1.2504616763e+000	-7.0431610193e-001
 1.8575906924e+000	 1.2695892326e+000	-7.1494265665e-001
 1.8444530004e+000	 1.2886012298e+000	-7.3940406283e-001
 1.8311085811e+000	 1.3074943075e+000	-7.7690116157e-001
 1.8175590227e+000	 1.3262651314e+000	-8.2659033947e-001
 1.8038059846e+000	 1.3449103948e+000	-8.8758535404e-001
 1.7898511964e+000	 1.3634268205e+000	-9.5895927205e-001
 1.7756964577e+000	 1.3818111630e+000	-1.0397465166e+000
 1.7613436372e+000	 1.4000602100e+000	-1.1289450184e+000
 1.7467946721e+000	 1.4181707844e+000	-1.2255184664e+000
 1.5527063751e+000	 1.2605962528e+000	-1.3801730056e+000
 1.5396013926e+000	 1.2765686632e+000	-1.4690363325e+000
 1.5263256822e+000	 1.2924124388e+000	-1.5480752342e+000
 1.5128811432e+000	 1.3081248589e+000	-1.6166282292e+000
 1.4992697328e+000	 1.3237032403e+000	-1.6740302558e+000
 1.4854934645e+000	 1.3391449388e+000	-1.7196144260e+000
 1.4715544074e+000	 1.3544473509e+000	-1.7527138061e+000
 1.4574546853e+000	 1.3696079148e+000	-1.7726632183e+000
 1.4431964755e+000	 1.3846241126e+000	-1.7788010589e+000
 1.4287820076e+000	 1.3994934709e+000	-1.7704711281e+000
 1.4142135624e+000	 1.4142135624e+000	-1.7470244660e+000
 1.5721152048e+000	 1.2763537060e+000	-1.4296251711e+000
 1.5588464100e+000	 1.2925257715e+000	-1.5026919535e+000
 1.5454047532e+000	 1.3085675943e+000	-1.5682675216e+000
 1.5317921575e+000	 1.3244764197e+000	-1.6256823801e+000
 1.5180106045e+000	 1.3402495308e+000	-1.6742608225e+000
 1.5040621328e+000	 1.3558842505e+000	-1.7133227319e+000
 1.4899488375e+000	 1.3713779427e+000	-1.7421854108e+000
 1.4756728689e+000	 1.3867280138e+000	-1.7601654372e+000
 1.4612364314e+000	 1.4019319140e+000	-1.7665805401e+000
 1.4466417827e+000	 1.4169871393e+000	-1.7607514915e+000
 1.4318912319e+000	 1.4318912319e+000	-1.7420040079e+000
 1.5915240345e+000	 1.2921111591e+000	-1.4649828112e+000
 1.5780914275e+000	 1.3084828798e+000	-1.5236078506e+000
 1.5644838242e+000	 1.3247227498e+000	-1.5770481017e+000
 1.5507031718e+000	 1.3408279804e+000	-1.6246239505e+000
 1.5367514761e+000	 1.3567958213e+000	-1.6656469406e+000
 1.5226308011e+000	 1.3726235623e+000	-1.6994216224e+000
 1.5083432676e+000	 1.3883085346e+000	-1.7252474358e+000
 1.4938910524e+000	 1.4038481127e+000	-1.7424206235e+000
 1.4792763874e+000	 1.4192397154e+000	-1.7502361679e+000
 1.4645015578e+000	 1.4344808076e+000	-1.7479897479e+000
 1.4495689015e+000	 1.4495689015e+000	-1.7349797090e+000
 1.6109328642e+000	 1.3078686123e+000	-1.4861491844e+000
 1.5973364449e+000	 1.3244399881e+000	-1.5316621472e+000
 1.5835628953e+000	 1.3408779053e+000	-1.5742720499e+000
 1.5696141861e+000	 1.3571795411e+000	-1.6132870522e+000
 1.5554923478e+000	 1.3733421118e+000	-1.6480038370e+000
 1.5411994694e+000	 1.3893628740e+000	-1.6777095112e+000
 1.5267376977e+000	 1.4052391265e+000	-1.7016835451e+000
 1.5121092360e+000	 1.4209682117e+000	-1.7191997456e+000
 1.4973163433e+000	 1.4365475169e+000	-1.7295282579e+000
 1.4823613329e+000	 1.4519744760e+000	-1.7319375898e+000
 1.4672465710e+000	 1.4672465710e+000	-1.7256966546e+000
 1.6303416939e+000	 1.3236260655e+000	-1.4930106431e+000
 1.6165814623e+000	 1.3403970964e+000	-1.5267180623e+000
 1.6026419663e+000	 1.3570330608e+000	-1.5597814585e+000
 1.5885252004e+000	 1.3735311019e+000	-1.5914946524e+000
 1.5742332195e+000	 1.3898884023e+000	-1.6211373494e+000
 1.5597681377e+000	 1.4061021858e+000	-1.6479770947e+000
 1.5451321278e+000	 1.4221697184e+000	-1.6712712727e+000
 1.5303274196e+000	 1.4380883106e+000	-1.6902691434e+000
 1.5153562993e+000	 1.4538553183e+000	-1.7042139118e+000
 1.5002211079e+000	 1.4694681444e+000	-1.7123448240e+000
 1.4849242405e+000	 1.4849242405e+000	-1.7138992845e+000
 1.6497505236e+000	 1.3393835186e+000	-1.4854376284e+000
 1.6358264797e+000	 1.3563542047e+000	-1.5086247875e+000
 1.6217210373e+000	 1.3731882162e+000	-1.5334062000e+000
 1.6074362147e+000	 1.3898826626e+000	-1.5590592296e+000
 1.5929740911e+000	 1.4064346928e+000	-1.5848444794e+000
 1.5783368060e+000	 1.4228414975e+000	-1.6100078067e+000
 1.5635265579e+000	 1.4391003103e+000	-1.6337823833e+000
 1.5485456031e+000	 1.4552084095e+000	-1.6553908002e+000
 1.5333962552e+000	 1.4711631197e+000	-1.6740472067e+000
 1.5180808830e+000	 1.4869618128e+000	-1.6889594820e+000
 1.5026019100e+000	 1.5026019100e+000	-1.6993314306e+000
 1.6691593533e+000	 1.3551409718e+000	-1.4632855948e+000
 1.6550714971e+000	 1.3723113129e+000	-1.4772183026e+000
 1.6408001083e+000	 1.3893433717e+000	-1.4949646381e+000
 1.6263472290e+000	 1.4062342233e+000	-1.5157833827e+000
 1.6117149628e+000	 1.4229809833e+000	-1.5389139059e+000
 1.5969054743e+000	 1.4395808092e+000	-1.5635782400e+000
 1.5819209879e+000	 1.4560309022e+000	-1.5889832079e+000
 1.5667637867e+000	 1.4723285085e+000	-1.6143225965e+000
 1.5514362112e+000	 1.4884709211e+000	-1.6387793711e+000
 1.5359406581e+000	 1.5044554812e+000	-1.6615279239e+000
 1.5202795796e+000	 1.5202795796e+000	-1.6817363521e+000
 1.6885681830e+000	 1.3708984249e+000	-1.4263958720e+000
 1.6743165145e+000	 1.3882684212e+000	-1.4323221349e+000
 1.6598791794e+000	 1.4054985272e+000	-1.4442642885e+000
 1.6452582433e+000	 1.4225857841e+000	-1.4614603997e+000
 1.6304558344e+000	 1.4395272738e+000	-1.4831264630e+000
 1.6154741426e+000	 1.4563201210e+000	-1.5084585400e+000
 1.6003154180e+000	 1.4729614941e+000	-1.5366349557e+000
 1.5849819703e+000	 1.4894486074e+000	-1.5668185458e+000
 1.5694761671e+000	 1.5057787225e+000	-1.5981589485e+000
 1.5538004332e+000	 1.5219491496e+000	-1.6297949342e+000
 1.5379572491e+000	 1.5379572491e+000	-1.6608567687e+000
 1.7079770127e+000	 1.3866558781e+000	-1.3745964670e+000
 1.6935615319e+000	 1.4042255295e+000	-1.3737480665e+000
 1.6789582504e+000	 1.4216536827e+000	-1.3811024356e+000
 1.6641692576e+000	 1.4389373448e+000	-1.3958747861e+000
 1.6491967061e+000	 1.4560735643e+000	-1.4172555867e+000
 1.6340428109e+000	 1.4730594327e+000	-1.4444127709e+000
 1.6187098481e+000	 1.4898920859e+000	-1.4764940053e+000
 1.6032001538e+000	 1.5065687063e+000	-1.5126290138e+000
 1.5875161230e+000	 1.5230865239e+000	-1.5519319498e+000
 1.5716602083e+000	 1.5394428180e+000	-1.5935038111e+000
 1.5556349186e+000	 1.5556349186e+000	-1.6364348912e+000
 1.7273858424e+000	 1.4024133313e+000	-1.3077028127e+000
 1.7128065493e+000	 1.4201826378e+000	-1.3012967945e+000
 1.6980373214e+000	 1.4378088382e+000	-1.3052667075e+000
 1.6830802719e+000	 1.4552889056e+000	-1.3188027584e+000
 1.6679375778e+000	 1.4726198548e+000	-1.3410677295e+000
 1.6526114792e+000	 1.4897987444e+000	-1.3711992572e+000
 1.6371042782e+000	 1.5068226778e+000	-1.4083121763e+000
 1.6214183374e+000	 1.5236888053e+000	-1.4515009238e+000
 1.6055560790e+000	 1.5403943253e+000	-1.4998419959e+000
 1.5895199834e+000	 1.5569364863e+000	-1.5523964504e+000
 1.5733125882e+000	 1.5733125882e+000	-1.6082124500e+000
 1.7467946721e+000	 1.4181707844e+000	-1.2255184664e+000
 1.7320515667e+000	 1.4361397461e+000	-1.2147585465e+000
 1.7171163925e+000	 1.4539639937e+000	-1.2165356119e+000
 1.7019912862e+000	 1.4716404663e+000	-1.2300127048e+000
 1.6866784494e+000	 1.4891661453e+000	-1.2543227491e+000
 1.6711801475e+000	 1.5065380562e+000	-1.2885709029e+000
 1.6554987083e+000	 1.5237532697e+000	-1.3318369821e+000
 1.6396365210e+000	 1.5408089042e+000	-1.3831779478e+000
 1.6235960349e+000	 1.5577021267e+000	-1.4416304501e+000
 1.6073797585e+000	 1.5744301547e+000	-1.5062134229e+000
 1.5909902577e+000	 1.5909902577e+000	-1.5759307219e+000
 1.4142135624e+000	 1.4142135624e+000	-1.7470244660e+000
 1.3994934709e+000	 1.4287820076e+000	-1.7267774882e+000
 1.3846241126e+000	 1.4431964755e+000	-1.7172144929e+000
 1.3696079148e+000	 1.4574546853e+000	-1.7175809219e+000
 1.3544473509e+000	 1.4715544074e+000	-1.7271109795e+000
 1.3391449388e+000	 1.4854934645e+000	-1.7450296190e+000
 1.3237032403e+000	 1.4992697328e+000	-1.7705545402e+000
 1.3081248589e+000	 1.5128811432e+000	-1.8028981928e+000
 1.2924124388e+000	 1.5263256822e+000	-1.8412697786e+000
 1.2765686632e+000	 1.5396013926e+000	-1.8848772496e+000
 1.2605962528e+000	 1.5527063751e+000	-1.9329292946e+000
 1.4318912319e+000	 1.4318912319e+000	-1.7420040079e+000
 1.4169871393e+000	 1.4466417827e+000	-1.7226461914e+000
 1.4019319140e+000	 1.4612364314e+000	-1.7114289032e+000
 1.3867280138e+000	 1.4756728689e+000	-1.7075816486e+000
 1.3713779427e+000	 1.4899488375e+000	-1.7103249967e+000
 1.3558842505e+000	 1.5040621328e+000	-1.7188726251e+000
 1.3402495308e+000	 1.5180106045e+000	-1.7324333701e+000
 1.3244764197e+000	 1.5317921575e+000	-1.7502132809e+000
 1.3085675943e+000	 1.5454047532e+000	-1.7714176685e+000
 1.2925257715e+000	 1.5588464100e+000	-1.7952531471e+000
 1.2763537060e+000	 1.5721152048e+000	-1.8209296604e+000
 1.4495689015e+000	 1.4495689015e+000	-1.7349797090e+000
 1.4344808076e+000	 1.4645015578e+000	-1.7179380795e+000
 1.4192397154e+000	 1.4792763874e+000	-1.7065603361e+000
 1.4038481127e+000	 1.4938910524e+000	-1.7000577794e+000
 1.3883085346e+000	 1.5083432676e+000	-1.6976350337e+000
 1.3726235623e+000	 1.5226308011e+000	-1.6984921503e+000
 1.3567958213e+000	 1.5367514761e+000	-1.7018267168e+000
 1.3408279804e+000	 1.5507031718e+000	-1.7068359634e+000
 1.3247227498e+000	 1.5644838242e+000	-1.7127188638e+000
 1.3084828798e+000	 1.5780914275e+000	-1.7186782222e+000
 1.2921111591e+000	 1.5915240345e+000	-1.7239227433e+000
 1.4672465710e+000	 1.4672465710e+000	-1.7256966546e+000
 1.4519744760e+000	 1.4823613329e+000	-1.7123779353e+000
 1.4365475169e+000	 1.4973163433e+000	-1.7023111230e+000
 1.4209682117e+000	 1.5121092360e+000	-1.6946870391e+000
 1.4052391265e+000	 1.5267376977e+000	-1.6886920459e+000
 1.3893628740e+000	 1.5411994694e+000	-1.6835102144e+000
 1.3733421118e+000	 1.5554923478e+000	-1.6783254936e+000
 1.3571795411e+000	 1.5696141861e+000	-1.6723238752e+000
 1.3408779053e+000	 1.5835628953e+000	-1.6646955479e+000
 1.3244399881e+000	 1.5973364449e+000	-1.6546370348e+000
 1.3078686123e+000	 1.6109328642e+000	-1.6413533106e+000
 1.4849242405e+000	 1.4849242405e+000	-1.7138992845e+000
 1.4694681444e+000	 1.5002211079e+000	-1.7056917947e+000
 1.4538553183e+000	 1.5153562993e+000	-1.6983868558e+000
 1.4380883106e+000	 1.5303274196e+000	-1.6911525261e+000
 1.4221697184e+000	 1.5451321278e+000	-1.6831545821e+000
 1.4061021858e+000	 1.5597681377e+000	-1.6735587538e+000
 1.3898884023e+000	 1.5742332195e+000	-1.6615329583e+000
 1.3735311019e+000	 1.5885252004e+000	-1.6462495252e+000
 1.3570330608e+000	 1.6026419663e+000	-1.6268874087e+000
 1.3403970964e+000	 1.6165814623e+000	-1.6026343796e+000
 1.3236260655e+000	 1.6303416939e+000	-1.5726891917e+000
 1.5026019100e+000	 1.5026019100e+000	-1.6993314306e+000
 1.4869618128e+000	 1.5180808830e+000	-1.6976068732e+000
 1.4711631197e+000	 1.5333962552e+000	-1.6944961943e+000
 1.4552084095e+000	 1.5485456031e+000	-1.6891423960e+000
 1.4391003103e+000	 1.5635265579e+000	-1.6806883372e+000
 1.4228414975e+000	 1.5783368060e+000	-1.6682790390e+000
 1.4064346928e+000	 1.5929740911e+000	-1.6510639872e+000
 1.3898826626e+000	 1.6074362147e+000	-1.6281994214e+000
 1.3731882162e+000	 1.6217210373e+000	-1.5988506092e+000
 1.3563542047e+000	 1.6358264797e+000	-1.5621940951e+000
 1.3393835186e+000	 1.6497505236e+000	-1.5174199217e+000
 1.5202795796e+000	 1.5202795796e+000	-1.6817363521e+000
 1.5044554812e+000	 1.5359406581e+000	-1.6878514969e+000
 1.4884709211e+000	 1.5514362112e+000	-1.6903506881e+000
 1.4723285085e+000	 1.5667637867e+000	-1.6883495683e+000
 1.4560309022e+000	 1.5819209879e+000	-1.6809657370e+000
 1.4395808092e+000	 1.5969054743e+000	-1.6673211314e+000
 1.4229809833e+000	 1.6117149628e+000	-1.6465443992e+000
 1.4062342233e+000	 1.6263472290e+000	-1.6177732571e+000
 1.3893433717e+000	 1.6408001083e+000	-1.5801568289e+000
 1.3723113129e+000	 1.6550714971e+000	-1.5328579569e+000
 1.3551409718e+000	 1.6691593533e+000	-1.4750554795e+000
 1.5379572491e+000	 1.5379572491e+000	-1.6608567687e+000
 1.5219491496e+000	 1.5538004332e+000	-1.6761550392e+000
 1.5057787225e+000	 1.5694761671e+000	-1.6856646109e+000
 1.4894486074e+000	 1.5849819703e+000	-1.6884714520e+000
 1.4729614941e+000	 1.6003154180e+000	-1.6836655516e+000
 1.4563201210e+000	 1.6154741426e+000	-1.6703433781e+000
 1.4395272738e+000	 1.6304558344e+000	-1.6476103274e+000
 1.4225857841e+000	 1.6452582433e+000	-1.6145831529e+000
 1.4054985272e+000	 1.6598791794e+000	-1.5703923731e+000
 1.3882684212e+000	 1.6743165145e+000	-1.5141846467e+000
 1.3708984249e+000	 1.6885681830e+000	-1.4451251130e+000
 1.5556349186e+000	 1.5556349186e+000	-1.6364348912e+000
 1.5394428180e+000	 1.5716602083e+000	-1.6622478610e+000
 1.5230865239e+000	 1.5875161230e+000	-1.6801548051e+000
 1.5065687063e+000	 1.6032001538e+000	-1.6892096908e+000
 1.4898920859e+000	 1.6187098481e+000	-1.6884725345e+000
 1.4730594327e+000	 1.6340428109e+000	-1.6770119413e+000
 1.4560735643e+000	 1.6491967061e+000	-1.6539076325e+000
 1.4389373448e+000	 1.6641692576e+000	-1.6182529510e+000
 1.4216536827e+000	 1.6789582504e+000	-1.5691573409e+000
 1.4042255295e+000	 1.6935615319e+000	-1.5057487918e+000
 1.3866558781e+000	 1.7079770127e+000	-1.4271762439e+000
 1.5733125882e+000	 1.5733125882e+000	-1.6082124500e+000
 1.5569364863e+000	 1.5895199834e+000	-1.6458612551e+000
 1.5403943253e+000	 1.6055560790e+000	-1.6735405378e+000
 1.5236888053e+000	 1.6214183374e+000	-1.6902699252e+000
 1.5068226778e+000	 1.6371042782e+000	-1.6950770866e+000
 1.4897987444e+000	 1.6526114792e+000	-1.6870003591e+000
 1.4726198548e+000	 1.6679375778e+000	-1.6650913569e+000
 1.4552889056e+000	 1.6830802719e+000	-1.6284175563e+000
 1.4378088382e+000	 1.6980373214e+000	-1.5760648508e+000
 1.4201826378e+000	 1.7128065493e+000	-1.5071400689e+000
 1.4024133313e+000	 1.7273858424e+000	-1.4207734469e+000
 1.5909902577e+000	 1.5909902577e+000	-1.5759307219e+000
 1.5744301547e+000	 1.6073797585e+000	-1.6267273948e+000
 1.5577021267e+000	 1.6235960349e+000	-1.6655433663e+000
 1.5408089042e+000	 1.6396365210e+000	-1.6913615701e+000
 1.5237532697e+000	 1.6554987083e+000	-1.7031749425e+000
 1.5065380562e+000	 1.6711801475e+000	-1.6999891359e+000
 1.4891661453e+000	 1.6866784494e+000	-1.6808252143e+000
 1.4716404663e+000	 1.7019912862e+000	-1.6447223218e+000
 1.4539639937e+000	 1.7171163925e+000	-1.5907403175e+000
 1.4361397461e+000	 1.7320515667e+000	-1.5179623687e+000
 1.4181707844e+000	 1.7467946721e+000	-1.4254974969e+000
 1.2605962528e+000	 1.5527063751e+000	-1.9329292946e+000
 1.2444979645e+000	 1.5656387886e+000	-2.1005101157e+000
 1.2282765894e+000	 1.5783968513e+000	-2.0533690521e+000
 1.2119349516e+000	 1.5909788412e+000	-2.0109574566e+000
 1.1954759065e+000	 1.6033830974e+000	-1.9734426633e+000
 1.1789023391e+000	 1.6156080202e+000	-1.9409767008e+000
 1.1622171622e+000	 1.6276520721e+000	-1.9136964269e+000
 1.1454233153e+000	 1.6395137781e+000	-1.8917236983e+000
 1.1285237623e+000	 1.6511917266e+000	-1.8751655752e+000
 1.1115214900e+000	 1.6626845693e+000	-1.8641145588e+000
 1.0944195068e+000	 1.6739910224e+000	-1.8586488605e+000
 1.2763537060e+000	 1.5721152048e+000	-1.8209296604e+000
 1.2600541890e+000	 1.5852092735e+000	-2.0712223424e+000
 1.2436300467e+000	 1.5981268119e+000	-2.1910532458e+000
 1.2270841385e+000	 1.6108660767e+000	-2.1120022871e+000
 1.2104193553e+000	 1.6234253861e+000	-2.0385035198e+000
 1.1936386183e+000	 1.6358031204e+000	-1.9707501775e+000
 1.1767448768e+000	 1.6479977230e+000	-1.9089190963e+000
 1.1597411068e+000	 1.6600077003e+000	-1.8531708604e+000
 1.1426303093e+000	 1.6718316232e+000	-1.8036499844e+000
 1.1254155087e+000	 1.6834681265e+000	-1.7604851315e+000
 1.1080997506e+000	 1.6949159102e+000	-1.7237893658e+000
 1.2921111591e+000	 1.5915240345e+000	-1.7239227433e+000
 1.2756104136e+000	 1.6047797583e+000	-1.9464382740e+000
 1.2589835041e+000	 1.6178567725e+000	-2.1655670354e+000
 1.2422333254e+000	 1.6307533122e+000	-2.2293282524e+000
 1.2253628042e+000	 1.6434676748e+000	-2.1210473109e+000
 1.2083748975e+000	 1.6559982207e+000	-2.0192166254e+000
 1.1912725913e+000	 1.6683433739e+000	-1.9240521978e+000
 1.1740588982e+000	 1.6805016226e+000	-1.8357525112e+000
 1.1567368563e+000	 1.6924715197e+000	-1.7544986907e+000
 1.1393095273e+000	 1.7042516836e+000	-1.6804547038e+000
 1.1217799944e+000	 1.7158407980e+000	-1.6137675959e+000
 1.3078686123e+000	 1.6109328642e+000	-1.6413533106e+000
 1.2911666381e+000	 1.6243502432e+000	-1.8377443395e+000
 1.2743369615e+000	 1.6375867332e+000	-2.0306527961e+000
 1.2573825123e+000	 1.6506405477e+000	-2.2191141134e+000
 1.2403062530e+000	 1.6635099635e+000	-2.2195636468e+000
 1.2231111768e+000	 1.6761933210e+000	-2.0848226392e+000
 1.2058003058e+000	 1.6886890248e+000	-1.9575000547e+000
 1.1883766897e+000	 1.7009955448e+000	-1.8378314619e+000
 1.1708434034e+000	 1.7131114163e+000	-1.7260337676e+000
 1.1532035459e+000	 1.7250352407e+000	-1.6223053991e+000
 1.1354602383e+000	 1.7367656858e+000	-1.5268265261e+000
 1.3236260655e+000	 1.6303416939e+000	-1.5726891917e+000
 1.3067228627e+000	 1.6439207281e+000	-1.7445798371e+000
 1.2896904188e+000	 1.6573166938e+000	-1.9128731711e+000
 1.2725316992e+000	 1.6705277832e+000	-2.0765913790e+000
 1.2552497018e+000	 1.6835522522e+000	-2.2347739134e+000
 1.2378474560e+000	 1.6963884212e+000	-2.1660497486e+000
 1.2203280204e+000	 1.7090346757e+000	-2.0077042571e+000
 1.2026944811e+000	 1.7214894670e+000	-1.8578101057e+000
 1.1849499504e+000	 1.7337513129e+000	-1.7166191674e+000
 1.1670975645e+000	 1.7458187978e+000	-1.5843634986e+000
 1.1491404821e+000	 1.7576905735e+000	-1.4612555478e+000
 1.3393835186e+000	 1.6497505236e+000	-1.5174199217e+000
 1.3222790873e+000	 1.6634912129e+000	-1.6664080289e+000
 1.3050438762e+000	 1.6770466545e+000	-1.8116651969e+000
 1.2876808861e+000	 1.6904150188e+000	-1.9521981019e+000
 1.2701931507e+000	 1.7035945410e+000	-2.0870312062e+000
 1.2525837353e+000	 1.7165835215e+000	-2.2152090026e+000
 1.2348557349e+000	 1.7293803266e+000	-2.0731414696e+000
 1.2170122725e+000	 1.7419833892e+000	-1.8941280893e+000
 1.1990564974e+000	 1.7543912095e+000	-1.7246582584e+000
 1.1809915832e+000	 1.7666023549e+000	-1.5649968438e+000
 1.1628207260e+000	 1.7786154613e+000	-1.4153877384e+000
 1.3551409718e+000	 1.6691593533e+000	-1.4750554795e+000
 1.3378353118e+000	 1.6830616978e+000	-1.6027147475e+000
 1.3203973336e+000	 1.6967766151e+000	-1.7264905976e+000
 1.3028300730e+000	 1.7103022543e+000	-1.8453719282e+000
 1.2851365995e+000	 1.7236368297e+000	-1.9583659749e+000
 1.2673200145e+000	 1.7367786217e+000	-2.0645006185e+000
 1.2493834494e+000	 1.7497259775e+000	-2.1523213924e+000
 1.2313300640e+000	 1.7624773115e+000	-1.9452601470e+000
 1.2131630445e+000	 1.7750311061e+000	-1.7485915331e+000
 1.1948856018e+000	 1.7873859120e+000	-1.5626124199e+000
 1.1765009698e+000	 1.7995403491e+000	-1.3875973214e+000
 1.3708984249e+000	 1.6885681830e+000	-1.4451251130e+000
 1.3533915364e+000	 1.7026321826e+000	-1.5530070991e+000
 1.3357507909e+000	 1.7165065757e+000	-1.6568343658e+000
 1.3179792599e+000	 1.7301894898e+000	-1.7555757577e+000
 1.3000800483e+000	 1.7436791184e+000	-1.8482190391e+000
 1.2820562937e+000	 1.7569737220e+000	-1.9337732695e+000
 1.2639111639e+000	 1.7700716284e+000	-2.0112711163e+000
 1.2456478554e+000	 1.7829712337e+000	-2.0097140842e+000
 1.2272695915e+000	 1.7956710026e+000	-1.7868944743e+000
 1.2087796204e+000	 1.8081694692e+000	-1.5756541064e+000
 1.1901812136e+000	 1.8204652369e+000	-1.3762973016e+000
 1.3866558781e+000	 1.7079770127e+000	-1.4271762439e+000
 1.3689477609e+000	 1.7222026675e+000	-1.5168122545e+000
 1.3511042483e+000	 1.7362365364e+000	-1.6022034407e+000
 1.3331284468e+000	 1.7500767253e+000	-1.6822963085e+000
 1.3150234972e+000	 1.7637214071e+000	-1.7560568982e+000
 1.2967925730e+000	 1.7771688222e+000	-1.8224732303e+000
 1.2784388785e+000	 1.7904172793e+000	-1.8805576870e+000
 1.2599656469e+000	 1.8034651559e+000	-1.9293493235e+000
 1.2413761385e+000	 1.8163108992e+000	-1.8380755674e+000
 1.2226736390e+000	 1.8289530263e+000	-1.6026005810e+000
 1.2038614575e+000	 1.8413901247e+000	-1.3799372615e+000
 1.4024133313e+000	 1.7273858424e+000	-1.4207734469e+000
 1.3845039855e+000	 1.7417731524e+000	-1.4936763219e+000
 1.3664577057e+000	 1.7559664970e+000	-1.5621254752e+000
 1.3482776336e+000	 1.7699639608e+000	-1.6250427795e+000
 1.3299669460e+000	 1.7837636958e+000	-1.6813702891e+000
 1.3115288522e+000	 1.7973639225e+000	-1.7300727588e+000
 1.2929665930e+000	 1.8107629302e+000	-1.7701400975e+000
 1.2742834383e+000	 1.8239590782e+000	-1.8005897489e+000
 1.2554826855e+000	 1.8369507958e+000	-1.8204689931e+000
 1.2365676577e+000	 1.8497365834e+000	-1.6419633640e+000
 1.2175417013e+000	 1.8623150124e+000	-1.3970013068e+000
 1.4181707844e+000	 1.7467946721e+000	-1.4254974969e+000
 1.4000602100e+000	 1.7613436372e+000	-1.4831632951e+000
 1.3818111630e+000	 1.7756964577e+000	-1.5361476848e+000
 1.3634268205e+000	 1.7898511964e+000	-1.5833456011e+000
 1.3449103948e+000	 1.8038059846e+000	-1.6236728395e+000
 1.3262651314e+000	 1.8175590227e+000	-1.6560686528e+000
 1.3074943075e+000	 1.8311085811e+000	-1.6794982788e+000
 1.2886012298e+000	 1.8444530004e+000	-1.6929553937e+000
 1.2695892326e+000	 1.8575906924e+000	-1.6954644839e+000
 1.2504616763e+000	 1.8705201405e+000	-1.6860831312e+000
 1.2312219451e+000	 1.8832399002e+000	-1.5042878472e+000
 1.0944195068e+000	 1.6739910224e+000	-1.8586488605e+000
 1.0772208403e+000	 1.6851098662e+000	-1.8687607994e+000
 1.0599285364e+000	 1.6960399458e+000	-1.8785111672e+000
 1.0425456567e+000	 1.7067801714e+000	-1.8886534999e+000
 1.0250752778e+000	 1.7173295184e+000	-1.8999290514e+000
 1.0075204886e+000	 1.7276870275e+000	-1.9130664396e+000
 9.8988438938e-001	 1.7378518049e+000	-1.9287813227e+000
 9.7217008953e-001	 1.7478230222e+000	-1.9477761049e+000
 9.5438070623e-001	 1.7575999168e+000	-1.9707396709e+000
 9.3651936262e-001	 1.7671817913e+000	-1.9983471502e+000
 9.1858918611e-001	 1.7765680137e+000	-2.0312597077e+000
 1.1080997506e+000	 1.6949159102e+000	-1.7237893658e+000
 1.0906861008e+000	 1.7061737395e+000	-1.7281591896e+000
 1.0731776431e+000	 1.7172404451e+000	-1.7322640452e+000
 1.0555774775e+000	 1.7281149236e+000	-1.7367653493e+000
 1.0378887188e+000	 1.7387961374e+000	-1.7423126433e+000
 1.0201144947e+000	 1.7492831153e+000	-1.7495433454e+000
 1.0022579442e+000	 1.7595749524e+000	-1.7590825320e+000
 9.8432221564e-001	 1.7696708100e+000	-1.7715427475e+000
 9.6631046506e-001	 1.7795699158e+000	-1.7875238407e+000
 9.4822585465e-001	 1.7892715637e+000	-1.8076128291e+000
 9.3007155093e-001	 1.7987751138e+000	-1.8323837884e+000
 1.1217799944e+000	 1.7158407980e+000	-1.6137675959e+000
 1.1041513613e+000	 1.7272376128e+000	-1.6085521547e+000
 1.0864267498e+000	 1.7384409444e+000	-1.6031954515e+000
 1.0686092982e+000	 1.7494496757e+000	-1.5982681847e+000
 1.0507021598e+000	 1.7602627564e+000	-1.5943295459e+000
 1.0327085009e+000	 1.7708792032e+000	-1.5919270786e+000
 1.0146314991e+000	 1.7812981000e+000	-1.5915965638e+000
 9.9647434176e-001	 1.7915185978e+000	-1.5938619329e+000
 9.7824022389e-001	 1.8015399147e+000	-1.5992352064e+000
 9.5993234668e-001	 1.8113613361e+000	-1.6082164579e+000
 9.4155391576e-001	 1.8209822140e+000	-1.6212938016e+000
 1.1354602383e+000	 1.7367656858e+000	-1.5268265261e+000
 1.1176166218e+000	 1.7483014862e+000	-1.5083281313e+000
 1.0996758565e+000	 1.7596414438e+000	-1.4898392116e+000
 1.0816411189e+000	 1.7707844278e+000	-1.4718410755e+000
 1.0635156007e+000	 1.7817293753e+000	-1.4548038564e+000
 1.0453025070e+000	 1.7924752910e+000	-1.4391864761e+000
 1.0270050540e+000	 1.8030212475e+000	-1.4254366354e+000
 1.0086264679e+000	 1.8133663856e+000	-1.4139908294e+000
 9.9016998271e-001	 1.8235099137e+000	-1.4052743883e+000
 9.7163883872e-001	 1.8334511084e+000	-1.3997015403e+000
 9.5303628058e-001	 1.8431893142e+000	-1.3976754978e+000
 1.1491404821e+000	 1.7576905735e+000	-1.4612555478e+000
 1.1310818823e+000	 1.7693653595e+000	-1.4259154578e+000
 1.1129249632e+000	 1.7808419431e+000	-1.3907625592e+000
 1.0946729396e+000	 1.7921191800e+000	-1.3561900300e+000
 1.0763290417e+000	 1.8031959943e+000	-1.3225801676e+000
 1.0578965131e+000	 1.8140713789e+000	-1.2903044572e+000
 1.0393786088e+000	 1.8247443951e+000	-1.2597236665e+000
 1.0207785940e+000	 1.8352141733e+000	-1.2311879634e+000
 1.0020997415e+000	 1.8454799126e+000	-1.2050370583e+000
 9.8334533075e-001	 1.8555408808e+000	-1.1816003665e+000
 9.6451864541e-001	 1.8653964143e+000	-1.1611971923e+000
 1.1628207260e+000	 1.7786154613e+000	-1.4153877384e+000
 1.1445471428e+000	 1.7904292328e+000	-1.3597800273e+000
 1.1261740699e+000	 1.8020424424e+000	-1.3045641711e+000
 1.1077047603e+000	 1.8134539321e+000	-1.2500464105e+000
 1.0891424827e+000	 1.8246626133e+000	-1.1965223628e+000
 1.0704905192e+000	 1.8356674667e+000	-1.1442771962e+000
 1.0517521637e+000	 1.8464675427e+000	-1.0935858266e+000
 1.0329307201e+000	 1.8570619611e+000	-1.0447131391e+000
 1.0140295004e+000	 1.8674499116e+000	-9.9791423073e-001
 9.9505182278e-001	 1.8776306532e+000	-1.0001110461e+000
 9.7600101023e-001	 1.8876035145e+000	-1.1427759162e+000
 1.1765009698e+000	 1.7995403491e+000	-1.3875973214e+000
 1.1580124033e+000	 1.8114931061e+000	-1.3084231042e+000
 1.1394231766e+000	 1.8232429417e+000	-1.2298723393e+000
 1.1207365810e+000	 1.8347886843e+000	-1.1521654591e+000
 1.1019559236e+000	 1.8461292323e+000	-1.0755124940e+000
 1.0830845253e+000	 1.8572635545e+000	-1.0001133508e+000
 1.0641257186e+000	 1.8681906902e+000	-9.2615811292e-001
 1.0450828462e+000	 1.8789097489e+000	-9.1732545815e-001
 1.0259592592e+000	 1.8894199106e+000	-1.0272662015e+000
 1.0067583148e+000	 1.8997204256e+000	-1.1489594262e+000
 9.8748337506e-001	 1.9098106147e+000	-1.2811712181e+000
 1.1901812136e+000	 1.8204652369e+000	-1.3762973016e+000
 1.1714776638e+000	 1.8325569795e+000	-1.2703792914e+000
 1.1526722833e+000	 1.8444434411e+000	-1.1653432686e+000
 1.1337684017e+000	 1.8561234364e+000	-1.0613249255e+000
 1.1147693646e+000	 1.8675958513e+000	-9.5844973769e-001
 1.0956785314e+000	 1.8788596424e+000	-9.1308907054e-001
 1.0764992734e+000	 1.8899138378e+000	-9.8519598075e-001
 1.0572349723e+000	 1.9007575367e+000	-1.0712171154e+000
 1.0378890180e+000	 1.9113899095e+000	-1.1697279523e+000
 1.0184648068e+000	 1.9218101980e+000	-1.2793328823e+000
 9.9896573988e-001	 1.9320177149e+000	-1.3986675126e+000
 1.2038614575e+000	 1.8413901247e+000	-1.3799372615e+000
 1.1849429244e+000	 1.8536208528e+000	-1.2442146359e+000
 1.1659213900e+000	 1.8656439404e+000	-1.1096594909e+000
 1.1468002224e+000	 1.8774581886e+000	-1.0076333878e+000
 1.1275828056e+000	 1.8890624702e+000	-1.0350601727e+000
 1.1082725375e+000	 1.9004557302e+000	-1.0792205791e+000
 1.0888728283e+000	 1.9116369853e+000	-1.1384987096e+000
 1.0693870985e+000	 1.9226053244e+000	-1.2113049290e+000
 1.0498187768e+000	 1.9333599085e+000	-1.2960785385e+000
 1.0301712989e+000	 1.9438999704e+000	-1.3912903452e+000
 1.0104481047e+000	 1.9542248150e+000	-1.4954451219e+000
 1.2175417013e+000	 1.8623150124e+000	-1.3970013068e+000
 1.1984081849e+000	 1.8746847261e+000	-1.2285248624e+000
 1.1791704967e+000	 1.8868444397e+000	-1.1992678254e+000
 1.1598320431e+000	 1.8987929407e+000	-1.1936079168e+000
 1.1403962465e+000	 1.9105290892e+000	-1.2063612387e+000
 1.1208665436e+000	 1.9220518181e+000	-1.2357449050e+000
 1.1012463832e+000	 1.9333601329e+000	-1.2800016272e+000
 1.0815392246e+000	 1.9444531122e+000	-1.3374026639e+000
 1.0617485357e+000	 1.9553299075e+000	-1.4062506651e+000
 1.0418777909e+000	 1.9659897428e+000	-1.4848824053e+000
 1.0219304695e+000	 1.9764319152e+000	-1.5716714006e+000
 1.2312219451e+000	 1.8832399002e+000	-1.5042878472e+000
 1.2118734454e+000	 1.8957485995e+000	-1.4390410667e+000
 1.1924196034e+000	 1.9080449390e+000	-1.3961751263e+000
 1.1728638638e+000	 1.9201276929e+000	-1.3737173706e+000
 1.1532096875e+000	 1.9319957082e+000	-1.3697163056e+000
 1.1334605497e+000	 1.9436479059e+000	-1.3822449328e+000
 1.1136199380e+000	 1.9550832805e+000	-1.4094039818e+000
 1.0936913507e+000	 1.9663009000e+000	-1.4493250387e+000
 1.0736782945e+000	 1.9772999064e+000	-1.5001735610e+000
 1.0535842829e+000	 1.9880795152e+000	-1.5601517759e+000
 1.0334128344e+000	 1.9986390154e+000	-1.6275014557e+000
 9.1858918611e-001	 1.7765680137e+000	-2.0312597077e+000
 9.0059330673e-001	 1.7857580172e+000	-1.9133172310e+000
 8.8253485550e-001	 1.7947513000e+000	-1.8003044585e+000
 8.6441696276e-001	 1.8035474251e+000	-1.6921136113e+000
 8.4624275656e-001	 1.8121460198e+000	-1.5886323433e+000
 8.2801536107e-001	 1.8205467755e+000	-1.4897443017e+000
 8.0973789495e-001	 1.8287494474e+000	-1.3953296875e+000
 7.9141346985e-001	 1.8367538539e+000	-1.3052658155e+000
 7.7304518882e-001	 1.8445598760e+000	-1.2194276715e+000
 7.5463614479e-001	 1.8521674571e+000	-1.1376884657e+000
 7.3618941913e-001	 1.8595766021e+000	-1.0599201803e+000
 9.3007155093e-001	 1.7987751138e+000	-1.8323837884e+000
 9.1185072306e-001	 1.8080799924e+000	-1.6780043704e+000
 8.9356654119e-001	 1.8171856912e+000	-1.5293776158e+000
 8.7522217479e-001	 1.8260917679e+000	-1.3864431601e+000
 8.5682079102e-001	 1.8347978450e+000	-1.2491346343e+000
 8.3836555308e-001	 1.8433036102e+000	-1.1173802105e+000
 8.1985961864e-001	 1.8516088155e+000	-9.9110315164e-001
 8.0130613823e-001	 1.8597132771e+000	-8.7022236196e-001
 7.8270825368e-001	 1.8676168744e+000	-7.5465293716e-001
 7.6406909660e-001	 1.8753195503e+000	-6.5165258066e-001
 7.4539178687e-001	 1.8828213097e+000	-7.2120601638e-001
 9.4155391576e-001	 1.8209822140e+000	-1.6212938016e+000
 9.2310813940e-001	 1.8304019676e+000	-1.4327526874e+000
 9.0459822689e-001	 1.8396200825e+000	-1.2507798775e+000
 8.8602738683e-001	 1.8486361107e+000	-1.0753610142e+000
 8.6739882548e-001	 1.8574496703e+000	-9.0647430518e-001
 8.4871574509e-001	 1.8660604449e+000	-7.4409105848e-001
 8.2998134233e-001	 1.8744681836e+000	-5.8817622183e-001
 8.1119880660e-001	 1.8826727002e+000	-6.0869991010e-001
 7.9237131854e-001	 1.8906738729e+000	-6.4841719417e-001
 7.7350204841e-001	 1.8984716435e+000	-6.9481514371e-001
 7.5459415461e-001	 1.9060660172e+000	-7.4699786891e-001
 9.5303628058e-001	 1.8431893142e+000	-1.3976754978e+000
 9.3436555573e-001	 1.8527239428e+000	-1.1771802352e+000
 9.1562991258e-001	 1.8620544737e+000	-9.6406251611e-001
 8.9683259886e-001	 1.8711804535e+000	-7.5835260166e-001
 8.7797685993e-001	 1.8801014955e+000	-6.6602098948e-001
 8.5906593711e-001	 1.8888172796e+000	-6.6230572231e-001
 8.4010306601e-001	 1.8973275517e+000	-6.6865613859e-001
 8.2109147497e-001	 1.9056321234e+000	-6.8407976304e-001
 8.0203438340e-001	 1.9137308713e+000	-7.0761798441e-001
 7.8293500022e-001	 1.9216237367e+000	-7.3834726136e-001
 7.6379652235e-001	 1.9293107247e+000	-7.7538022427e-001
 9.6451864541e-001	 1.8653964143e+000	-1.1611971923e+000
 9.4562297206e-001	 1.8750459180e+000	-9.1176808895e-001
 9.2666159827e-001	 1.8844888650e+000	-8.5502342578e-001
 9.0763781090e-001	 1.8937247963e+000	-8.1194259238e-001
 8.8855489439e-001	 1.9027533208e+000	-7.8144315233e-001
 8.6941612912e-001	 1.9115741143e+000	-7.6247282892e-001
 8.5022478970e-001	 1.9201869198e+000	-7.5401103708e-001
 8.3098414334e-001	 1.9285915466e+000	-7.5507031184e-001
 8.1169744825e-001	 1.9367878698e+000	-7.6469763232e-001
 7.9236795203e-001	 1.9447758299e+000	-7.8197563983e-001
 7.7299889008e-001	 1.9525554322e+000	-8.0602374955e-001
 9.7600101023e-001	 1.8876035145e+000	-1.1427759162e+000
 9.5688038840e-001	 1.8973678932e+000	-1.0567833260e+000
 9.3769328397e-001	 1.9069232562e+000	-9.8595742882e-001
 9.1844302293e-001	 1.9162691391e+000	-9.2918788095e-001
 8.9913292885e-001	 1.9254051460e+000	-8.8539344016e-001
 8.7976632113e-001	 1.9343309490e+000	-8.5352362296e-001
 8.6034651339e-001	 1.9430462879e+000	-8.3256025802e-001
 8.4087681172e-001	 1.9515509698e+000	-8.2151893368e-001
 8.2136051311e-001	 1.9598448682e+000	-8.1945033824e-001
 8.0180090384e-001	 1.9679279231e+000	-8.2544149189e-001
 7.8220125782e-001	 1.9758001398e+000	-8.3861686944e-001
 9.8748337506e-001	 1.9098106147e+000	-1.2811712181e+000
 9.6813780473e-001	 1.9196898685e+000	-1.1831688694e+000
 9.4872496966e-001	 1.9293576475e+000	-1.1006888328e+000
 9.2924823496e-001	 1.9388134820e+000	-1.0326191488e+000
 9.0971096330e-001	 1.9480569713e+000	-9.7787760314e-001
 8.9011651315e-001	 1.9570877837e+000	-9.3541340990e-001
 8.7046823707e-001	 1.9659056560e+000	-9.0420878852e-001
 8.5076948009e-001	 1.9745103929e+000	-8.8328043211e-001
 8.3102357797e-001	 1.9829018667e+000	-8.7168086573e-001
 8.1123385565e-001	 1.9910800163e+000	-8.6849969348e-001
 7.9140362556e-001	 1.9990448473e+000	-8.7286473378e-001
 9.9896573988e-001	 1.9320177149e+000	-1.3986675126e+000
 9.7939522106e-001	 1.9420118437e+000	-1.2910710777e+000
 9.5975665535e-001	 1.9517920388e+000	-1.1993163610e+000
 9.4005344700e-001	 1.9613578248e+000	-1.1222875588e+000
 9.2028899776e-001	 1.9707087965e+000	-1.0588993249e+000
 9.0046670516e-001	 1.9798446184e+000	-1.0080984823e+000
 8.8058996076e-001	 1.9887650241e+000	-9.6886562519e-001
 8.6066214846e-001	 1.9974698161e+000	-9.4021661028e-001
 8.4068664283e-001	 2.0059588651e+000	-9.2120393439e-001
 8.2066680746e-001	 2.0142321096e+000	-9.1091799843e-001
 8.0060599330e-001	 2.0222895548e+000	-9.0848825634e-001
 1.0104481047e+000	 1.9542248150e+000	-1.4954451219e+000
 9.9065263740e-001	 1.9643338189e+000	-1.3806255555e+000
 9.7078834105e-001	 1.9742264300e+000	-1.2819309440e+000
 9.5085865903e-001	 1.9839021676e+000	-1.1982394164e+000
 9.3086703222e-001	 1.9933606218e+000	-1.1284603402e+000
 9.1081689717e-001	 2.0026014531e+000	-1.0715360637e+000
 8.9071168444e-001	 2.0116243922e+000	-1.0264435464e+000
 8.7055481683e-001	 2.0204292393e+000	-9.9219587319e-001
 8.5034970769e-001	 2.0290158636e+000	-9.6784365426e-001
 8.3009975926e-001	 2.0373842028e+000	-9.5247630679e-001
 8.0980836103e-001	 2.0455342623e+000	-9.4522321916e-001
 1.0219304695e+000	 1.9764319152e+000	-1.5716714006e+000
 1.0019100537e+000	 1.9866557941e+000	-1.4519577574e+000
 9.8182002674e-001	 1.9966608213e+000	-1.3486161576e+000
 9.6166387107e-001	 2.0064465104e+000	-1.2605164427e+000
 9.4144506667e-001	 2.0160124470e+000	-1.1865605438e+000
 9.2116708919e-001	 2.0253582878e+000	-1.1256842565e+000
 9.0083340813e-001	 2.0344837603e+000	-1.0768588997e+000
 8.8044748521e-001	 2.0433886625e+000	-1.0390928568e+000
 8.6001277255e-001	 2.0520728620e+000	-1.0114329982e+000
 8.3953271107e-001	 2.0605362960e+000	-9.9296598248e-001
 8.1901072877e-001	 2.0687789699e+000	-9.8281943723e-001
 1.0334128344e+000	 1.9986390154e+000	-1.6275014557e+000
 1.0131674701e+000	 2.0089777693e+000	-1.5051835525e+000
 9.9285171243e-001	 2.0190952125e+000	-1.3994486310e+000
 9.7246908310e-001	 2.0289908532e+000	-1.3091560287e+000
 9.5202310113e-001	 2.0386642723e+000	-1.2331980935e+000
 9.3151728120e-001	 2.0481151225e+000	-1.1705019928e+000
 9.1095513182e-001	 2.0573431284e+000	-1.1200314036e+000
 8.9034015358e-001	 2.0663480856e+000	-1.0807880820e+000
 8.6967583741e-001	 2.0751298605e+000	-1.0518133096e+000
 8.4896566288e-001	 2.0836883892e+000	-1.0321892163e+000
 8.2821309651e-001	 2.0920236774e+000	-1.0210399789e+000
 7.3618941913e-001	 1.8595766021e+000	-1.0599201803e+000
 7.1770808012e-001	 1.8667873772e+000	-1.0227296584e+000
 6.9919518155e-001	 1.8737999088e+000	-9.7065255549e-001
 6.8065376130e-001	 1.8806143829e+000	-1.0390128244e+000
 6.6208683995e-001	 1.8872310448e+000	-1.1183176193e+000
 6.4349741945e-001	 1.8936501977e+000	-1.1788762611e+000
 6.2488848178e-001	 1.8998722024e+000	-1.2192084807e+000
 6.0626298769e-001	 1.9058974762e+000	-1.1461909268e+000
 5.8762387544e-001	 1.9117264922e+000	-1.0636656170e+000
 5.6897405956e-001	 1.9173597783e+000	-9.7098519791e-001
 5.5031642970e-001	 1.9227979164e+000	-8.6755255197e-001
 7.4539178687e-001	 1.8828213097e+000	-7.2120601638e-001
 7.2667943112e-001	 1.8901222194e+000	-8.1700278041e-001
 7.0793512132e-001	 1.8972224076e+000	-8.9983325681e-001
 6.8916193331e-001	 1.9041220627e+000	-9.6865529332e-001
 6.7036292545e-001	 1.9108214328e+000	-1.0224831193e+000
 6.5154113719e-001	 1.9173208252e+000	-1.0603879141e+000
 6.3269958780e-001	 1.9236206049e+000	-1.0814982556e+000
 6.1384127504e-001	 1.9297211947e+000	-1.0225703238e+000
 5.9496917388e-001	 1.9356230734e+000	-9.1178339713e-001
 5.7608623530e-001	 1.9413267756e+000	-7.9402485476e-001
 5.5719538508e-001	 1.9468328903e+000	-6.6867831446e-001
 7.5459415461e-001	 1.9060660172e+000	-7.4699786891e-001
 7.3565078212e-001	 1.9134570617e+000	-8.1209806167e-001
 7.1667506109e-001	 1.9206449065e+000	-8.6689600376e-001
 6.9767010533e-001	 1.9276297425e+000	-9.1036609746e-001
 6.7863901094e-001	 1.9344118209e+000	-9.4153774629e-001
 6.5958485493e-001	 1.9409914526e+000	-9.5949594322e-001
 6.4051069382e-001	 1.9473690074e+000	-9.6338173844e-001
 6.2141956238e-001	 1.9535449131e+000	-9.3054118424e-001
 6.0231447232e-001	 1.9595196545e+000	-7.9475300349e-001
 5.8319841105e-001	 1.9652937728e+000	-6.5507301254e-001
 5.6407434045e-001	 1.9708678643e+000	-5.1086308668e-001
 7.6379652235e-001	 1.9293107247e+000	-7.7538022427e-001
 7.4462213312e-001	 1.9367919039e+000	-8.1284404150e-001
 7.2541500086e-001	 1.9440674054e+000	-8.4256269428e-001
 7.0617827734e-001	 1.9511374223e+000	-8.6352558220e-001
 6.8691509644e-001	 1.9580022090e+000	-8.7477583940e-001
 6.6762857267e-001	 1.9646620801e+000	-8.7541094271e-001
 6.4832179984e-001	 1.9711174100e+000	-8.6458319898e-001
 6.2899784972e-001	 1.9773686316e+000	-8.4150011320e-001
 6.0965977076e-001	 1.9834162357e+000	-7.1010894079e-001
 5.9031058679e-001	 1.9892607700e+000	-5.5163476089e-001
 5.7095329582e-001	 1.9949028382e+000	-3.9158517981e-001
 7.7299889008e-001	 1.9525554322e+000	-8.0602374955e-001
 7.5359348412e-001	 1.9601267461e+000	-8.1882368335e-001
 7.3415494062e-001	 1.9674899042e+000	-8.2633067150e-001
 7.1468644936e-001	 1.9746451021e+000	-8.2754756742e-001
 6.9519118194e-001	 1.9815925970e+000	-8.2152980505e-001
 6.7567229041e-001	 1.9883327076e+000	-8.0738602713e-001
 6.5613290586e-001	 1.9948658125e+000	-7.8427859212e-001
 6.3657613707e-001	 2.0011923500e+000	-7.5142396154e-001
 6.1700506920e-001	 2.0073128168e+000	-6.5544074260e-001
 5.9742276253e-001	 2.0132277673e+000	-4.8127410196e-001
 5.7783225119e-001	 2.0189378122e+000	-3.0838555688e-001
 7.8220125782e-001	 1.9758001398e+000	-8.3861686944e-001
 7.6256483512e-001	 1.9834615883e+000	-8.2964241963e-001
 7.4289488039e-001	 1.9909124031e+000	-8.1772433053e-001
 7.2319462137e-001	 1.9981527819e+000	-8.0187737842e-001
 7.0346726743e-001	 2.0051829851e+000	-7.8116787782e-001
 6.8371600815e-001	 2.0120033350e+000	-7.5471433007e-001
 6.6394401188e-001	 2.0186142150e+000	-7.2168794998e-001
 6.4415442441e-001	 2.0250160685e+000	-6.8131307215e-001
 6.2435036764e-001	 2.0312093980e+000	-6.2838973446e-001
 6.0453493827e-001	 2.0371947645e+000	-4.4161048489e-001
 5.8471120656e-001	 2.0429727862e+000	-2.5886414734e-001
 7.9140362556e-001	 1.9990448473e+000	-8.7286473378e-001
 7.7153618612e-001	 2.0067964305e+000	-8.4492684540e-001
 7.5163482016e-001	 2.0143349019e+000	-8.1629354571e-001
 7.3170279338e-001	 2.0216604616e+000	-7.8599001424e-001
 7.1174335293e-001	 2.0287733731e+000	-7.5309203738e-001
 6.9175972589e-001	 2.0356739625e+000	-7.1672667747e-001
 6.7175511790e-001	 2.0423626176e+000	-6.7607281923e-001
 6.5173271175e-001	 2.0488397869e+000	-6.3036159501e-001
 6.3169566608e-001	 2.0551059791e+000	-5.7887669063e-001
 6.1164711402e-001	 2.0611617617e+000	-4.3031558218e-001
 5.9159016193e-001	 2.0670077601e+000	-2.4067641883e-001
 8.0060599330e-001	 2.0222895548e+000	-9.0848825634e-001
 7.8050753712e-001	 2.0301312727e+000	-8.6432350211e-001
 7.6037475992e-001	 2.0377574008e+000	-8.2161220628e-001
 7.4021096540e-001	 2.0451681414e+000	-7.7938844229e-001
 7.2001943843e-001	 2.0523637612e+000	-7.3673606915e-001
 6.9980344363e-001	 2.0593445900e+000	-6.9278942138e-001
 6.7956622392e-001	 2.0661110201e+000	-6.4673387523e-001
 6.5931099910e-001	 2.0726635054e+000	-5.9780629268e-001
 6.3904096452e-001	 2.0790025603e+000	-5.4529534518e-001
 6.1875928976e-001	 2.0851287589e+000	-4.4511028837e-001
 5.9846911730e-001	 2.0910427341e+000	-2.5153018527e-001
 8.0980836103e-001	 2.0455342623e+000	-9.4522321916e-001
 7.8947888812e-001	 2.0534661149e+000	-8.8749774431e-001
 7.6911469969e-001	 2.0611798997e+000	-8.3327685190e-001
 7.4871913741e-001	 2.0686758212e+000	-7.8160200916e-001
 7.2829552392e-001	 2.0759541493e+000	-7.3156375710e-001
 7.0784716137e-001	 2.0830152175e+000	-6.8230242147e-001
 6.8737732993e-001	 2.0898594226e+000	-6.3300869880e-001
 6.6688928644e-001	 2.0964872238e+000	-5.8292411921e-001
 6.4638626296e-001	 2.1028991414e+000	-5.3134138761e-001
 6.2587146550e-001	 2.1090957562e+000	-4.7760460560e-001
 6.0534807266e-001	 2.1150777080e+000	-2.8918263270e-001
 8.1901072877e-001	 2.0687789699e+000	-9.8281943723e-001
 7.9845023912e-001	 2.0768009572e+000	-9.1413268268e-001
 7.7785463946e-001	 2.0846023985e+000	-8.5090540012e-001
 7.5722730942e-001	 2.0921835010e+000	-7.9218495873e-001
 7.3657160942e-001	 2.0995445373e+000	-7.3706719852e-001
 7.1589087911e-001	 2.1066858449e+000	-6.8469716253e-001
 6.9518843595e-001	 2.1136078252e+000	-6.3426970289e-001
 6.7446757378e-001	 2.1203109423e+000	-5.8502996215e-001
 6.5373156140e-001	 2.1267957226e+000	-5.3627373183e-001
 6.3298364124e-001	 2.1330627534e+000	-4.8734769026e-001
 6.1222702803e-001	 2.1391126820e+000	-3.5143754551e-001
 8.2821309651e-001	 2.0920236774e+000	-1.0210399789e+000
 8.0742159012e-001	 2.1001357994e+000	-9.4392819764e-001
 7.8659457923e-001	 2.1080248974e+000	-8.7413595877e-001
 7.6573548144e-001	 2.1156911808e+000	-8.1071504893e-001
 7.4484769492e-001	 2.1231349254e+000	-7.5276523096e-001
 7.2393459685e-001	 2.1303564724e+000	-6.9943499756e-001
 7.0299954197e-001	 2.1373562277e+000	-6.4992219743e-001
 6.8204586113e-001	 2.1441346607e+000	-6.0347453513e-001
 6.6107685984e-001	 2.1506923038e+000	-5.5938994663e-001
 6.4009581698e-001	 2.1570297506e+000	-5.1701685269e-001
 6.1910598340e-001	 2.1631476559e+000	-4.3614271768e-001
 5.5031642970e-001	 1.9227979164e+000	-8.6755255197e-001
 5.3165384949e-001	 1.9280415411e+000	-8.8527652865e-001
 5.1298915537e-001	 1.9330913394e+000	-8.9613248503e-001
 4.9432515561e-001	 1.9379480490e+000	-8.9988533363e-001
 4.7566462918e-001	 1.9426124576e+000	-8.9634510910e-001
 4.5701032483e-001	 1.9470854021e+000	-8.8536745385e-001
 4.3836496008e-001	 1.9513677669e+000	-8.6685398851e-001
 4.1973122034e-001	 1.9554604835e+000	-8.4075256864e-001
 4.0111175798e-001	 1.9593645290e+000	-8.0705742910e-001
 3.8250919152e-001	 1.9630809251e+000	-7.6580921812e-001
 3.6392610484e-001	 1.9666107368e+000	-7.1709492312e-001
 5.5719538508e-001	 1.9468328903e+000	-6.6867831446e-001
 5.3829952261e-001	 1.9521420604e+000	-6.7752734751e-001
 5.1940151982e-001	 1.9572549812e+000	-6.8129675589e-001
 5.0050422005e-001	 1.9621723996e+000	-6.7967217766e-001
 4.8161043705e-001	 1.9668951134e+000	-6.7238526260e-001
 4.6272295389e-001	 1.9714239696e+000	-6.5921426269e-001
 4.4384452209e-001	 1.9757598640e+000	-6.3998450238e-001
 4.2497786060e-001	 1.9799037396e+000	-6.1456872972e-001
 4.0612565496e-001	 1.9838565856e+000	-5.8288735012e-001
 3.8729055642e-001	 1.9876194366e+000	-5.4490854435e-001
 3.6847518115e-001	 1.9911933711e+000	-5.0064827304e-001
 5.6407434045e-001	 1.9708678643e+000	-5.1086308668e-001
 5.4494519573e-001	 1.9762425797e+000	-5.1077448635e-001
 5.2581388426e-001	 1.9814186229e+000	-5.0732294936e-001
 5.0668328450e-001	 1.9863967502e+000	-5.0011369083e-001
 4.8755624491e-001	 1.9911777691e+000	-4.8879891415e-001
 4.6843558295e-001	 1.9957625371e+000	-4.7307850722e-001
 4.4932408409e-001	 2.0001519611e+000	-4.5270061304e-001
 4.3022450086e-001	 2.0043469956e+000	-4.2746207596e-001
 4.1113955194e-001	 2.0083486423e+000	-3.9720876503e-001
 3.9207192132e-001	 2.0121579482e+000	-3.6183577616e-001
 3.7302425746e-001	 2.0157760053e+000	-3.2128751527e-001
 5.7095329582e-001	 1.9949028382e+000	-3.9158517981e-001
 5.5159086884e-001	 2.0003430989e+000	-3.8258068638e-001
 5.3222624870e-001	 2.0055822646e+000	-3.7185939929e-001
 5.1286234895e-001	 2.0106211008e+000	-3.5894489488e-001
 4.9350205278e-001	 2.0154604248e+000	-3.4340880184e-001
 4.7414821202e-001	 2.0201011047e+000	-3.2487160402e-001
 4.5480364609e-001	 2.0245440582e+000	-3.0300331220e-001
 4.3547114111e-001	 2.0287902517e+000	-2.7752400594e-001
 4.1615344891e-001	 2.0328406989e+000	-2.4820424693e-001
 3.9685328622e-001	 2.0366964598e+000	-2.1486536554e-001
 3.7757333378e-001	 2.0403586395e+000	-1.7737962275e-001
 5.7783225119e-001	 2.0189378122e+000	-3.0838555688e-001
 5.5823654196e-001	 2.0244436182e+000	-2.9056976376e-001
 5.3863861314e-001	 2.0297459064e+000	-2.7261385970e-001
 5.1904141339e-001	 2.0348454514e+000	-2.5395850034e-001
 4.9944786064e-001	 2.0397430805e+000	-2.3409354582e-001
 4.7986084108e-001	 2.0444396722e+000	-2.1255897115e-001
 4.6028320810e-001	 2.0489361553e+000	-1.8894563993e-001
 4.4071778137e-001	 2.0532335077e+000	-1.6289594238e-001
 4.2116734589e-001	 2.0573327555e+000	-1.3410429919e-001
 4.0163465111e-001	 2.0612349713e+000	-1.0231753274e-001
 3.8212241009e-001	 2.0649412737e+000	-6.7335107892e-002
 5.8471120656e-001	 2.0429727862e+000	-2.5886414734e-001
 5.6488221508e-001	 2.0485441375e+000	-2.3242301700e-001
 5.4505097759e-001	 2.0539095481e+000	-2.0735000949e-001
 5.2522047784e-001	 2.0590698020e+000	-1.8300151303e-001
 5.0539366851e-001	 2.0640257362e+000	-1.5878436115e-001
 4.8557347014e-001	 2.0687782397e+000	-1.3415685162e-001
 4.6576277010e-001	 2.0733282524e+000	-1.0862962301e-001
 4.4596442162e-001	 2.0776767638e+000	-8.1766389569e-002
 4.2618124287e-001	 2.0818248121e+000	-5.3184536063e-002
 4.0641601601e-001	 2.0857734829e+000	-2.2555573990e-002
 3.8667148640e-001	 2.0895239079e+000	 1.0394538555e-002
 5.9159016193e-001	 2.0670077601e+000	-2.4067641883e-001
 5.7152788820e-001	 2.0726446567e+000	-2.0587588493e-001
 5.5146334203e-001	 2.0780731899e+000	-1.7388420099e-001
 5.3139954228e-001	 2.0832941527e+000	-1.4397207741e-001
 5.1133947637e-001	 2.0883083920e+000	-1.1546199995e-001
 4.9128609920e-001	 2.0931168073e+000	-8.7729358417e-002
 4.7124233210e-001	 2.0977203495e+000	-6.0203426849e-002
 4.5121106188e-001	 2.1021200198e+000	-3.2368196063e-002
 4.3119513984e-001	 2.1063168687e+000	-3.7630599464e-003
 4.1119738090e-001	 2.1103119945e+000	 2.6016642880e-002
 3.9122056271e-001	 2.1141065421e+000	 5.7319229964e-002
 5.9846911730e-001	 2.0910427341e+000	-2.5153018527e-001
 5.7817356131e-001	 2.0967451760e+000	-2.0871483519e-001
 5.5787570647e-001	 2.1022368316e+000	-1.7008243274e-001
 5.3757860672e-001	 2.1075185033e+000	-1.3481653749e-001
 5.1728528424e-001	 2.1125910477e+000	-1.0215390442e-001
 4.9699872826e-001	 2.1174553748e+000	-7.1385723357e-002
 4.7672189410e-001	 2.1221124465e+000	-4.1858703867e-002
 4.5645770213e-001	 2.1265632759e+000	-1.2976006166e-002
 4.3620903682e-001	 2.1308089253e+000	 1.5801980461e-002
 4.1597874580e-001	 2.1348505060e+000	 4.4957010178e-002
 3.9576963903e-001	 2.1386891763e+000	 7.4912501989e-002
 6.0534807266e-001	 2.1150777080e+000	-2.8918263270e-001
 5.8481923443e-001	 2.1208456953e+000	-2.3877446488e-001
 5.6428807091e-001	 2.1264004734e+000	-1.9385752869e-001
 5.4375767117e-001	 2.1317428539e+000	-1.5352669833e-001
 5.2323109210e-001	 2.1368737034e+000	-1.1693155402e-001
 5.0271135732e-001	 2.1417939423e+000	-8.3277733536e-002
 4.8220145610e-001	 2.1465045436e+000	-5.1828122608e-002
 4.6170434238e-001	 2.1510065319e+000	-2.1903885165e-002
 4.4122293379e-001	 2.1553009819e+000	 7.1146655190e-003
 4.2076011069e-001	 2.1593890176e+000	 3.5787353049e-002
 4.0031871534e-001	 2.1632718105e+000	 6.4613579479e-002
 6.1222702803e-001	 2.1391126820e+000	-3.5143754551e-001
 5.9146490754e-001	 2.1449462145e+000	-2.9393479667e-001
 5.7070043534e-001	 2.1505641151e+000	-2.4316650757e-001
 5.4993673561e-001	 2.1559672045e+000	-1.9813727194e-001
 5.2917689996e-001	 2.1611563591e+000	-1.5790799148e-001
 5.0842398637e-001	 2.1661325098e+000	-1.2159734057e-001
 4.8768101810e-001	 2.1708966407e+000	-8.8383063486e-002
 4.6695098264e-001	 2.1754497879e+000	-5.7503104675e-002
 4.4623683076e-001	 2.1797930386e+000	-2.8256573388e-002
 4.2554147558e-001	 2.1839275292e+000	-4.5442723476e-006
 4.0486779165e-001	 2.1878544447e+000	 2.7829304051e-002
 6.1910598340e-001	 2.1631476559e+000	-4.3614271768e-001
 5.9811058066e-001	 2.1690467338e+000	-3.7211875512e-001
 5.7711279978e-001	 2.1747277568e+000	-3.1600812760e-001
 5.5611580005e-001	 2.1801915551e+000	-2.6672349365e-001
 5.3512270782e-001	 2.1854390149e+000	-2.2323551366e-001
 5.1413661543e-001	 2.1904710774e+000	-1.8457442923e-001
 4.9316058010e-001	 2.1952887378e+000	-1.4983146812e-001
 4.7219762289e-001	 2.1998930440e+000	-1.1816007561e-001
 4.5125072774e-001	 2.2042850952e+000	-8.8776973357e-002
 4.3032284048e-001	 2.2084660407e+000	-6.0963047304e-002
 4.0941686796e-001	 2.2124370789e+000	-3.4064066838e-002
 3.6392610484e-001	 1.9666107368e+000	-7.1709492312e-001
 3.4536504635e-001	 1.9699550718e+000	-6.6266579895e-001
 3.2682852835e-001	 1.9731150785e+000	-6.0162162686e-001
 3.0831902626e-001	 1.9760919458e+000	-5.3422153702e-001
 2.8983897805e-001	 1.9788869010e+000	-4.6076901972e-001
 2.7139078356e-001	 1.9815012093e+000	-3.8161132598e-001
 2.5297680396e-001	 1.9839361725e+000	-2.9713877897e-001
 2.3459936123e-001	 1.9861931275e+000	-2.0778399964e-001
 2.1626073764e-001	 1.9882734453e+000	-1.1402105060e-001
 1.9796317532e-001	 1.9901785300e+000	-1.6364501840e-002
 1.7970887579e-001	 1.9919098172e+000	 8.4631577582e-002
 3.6847518115e-001	 1.9911933711e+000	-5.0064827304e-001
 3.4968210943e-001	 1.9945795102e+000	-4.5360455941e-001
 3.3091388495e-001	 1.9977790170e+000	-4.0138228024e-001
 3.1217301410e-001	 2.0007930951e+000	-3.4415964035e-001
 2.9346196528e-001	 2.0036229872e+000	-2.8216083570e-001
 2.7478316835e-001	 2.0062699745e+000	-2.1565552170e-001
 2.5613901401e-001	 2.0087353747e+000	-1.4495818691e-001
 2.3753185325e-001	 2.0110205416e+000	-7.0427435644e-002
 2.1896399687e-001	 2.0131268634e+000	 7.5348166540e-003
 2.0043771501e-001	 2.0150557616e+000	 8.8484231274e-002
 1.8195523674e-001	 2.0168086899e+000	 1.7193501337e-001
 3.7302425746e-001	 2.0157760053e+000	-3.2128751527e-001
 3.5399917252e-001	 2.0192039486e+000	-2.8029614180e-001
 3.3499924156e-001	 2.0224429555e+000	-2.3547528218e-001
 3.1602700193e-001	 2.0254942444e+000	-1.8692224148e-001
 2.9708495251e-001	 2.0283590735e+000	-1.3478203546e-001
 2.7817555315e-001	 2.0310387396e+000	-7.9246925796e-002
 2.5930122406e-001	 2.0335345769e+000	-2.0555854872e-002
 2.4046434526e-001	 2.0358479557e+000	 4.1006215848e-002
 2.2166725609e-001	 2.0379802815e+000	 1.0510906018e-001
 2.0291225470e-001	 2.0399329932e+000	 1.7137803022e-001
 1.8420159768e-001	 2.0417075627e+000	 2.3939498376e-001
 3.7757333378e-001	 2.0403586395e+000	-1.7737962275e-001
 3.5831623560e-001	 2.0438283870e+000	-1.4121913355e-001
 3.3908459817e-001	 2.0471068940e+000	-1.0249165074e-001
 3.1988098976e-001	 2.0501953937e+000	-6.1213535304e-002
 3.0070793974e-001	 2.0530951598e+000	-1.7450668229e-002
 2.8156793795e-001	 2.0558075047e+000	 2.8681948477e-002
 2.6246343411e-001	 2.0583337790e+000	 7.7020696752e-002
 2.4339683728e-001	 2.0606753698e+000	 1.2735394962e-001
 2.2437051531e-001	 2.0628336995e+000	 1.7942277654e-001
 2.0538679439e-001	 2.0648102249e+000	 2.3292174295e-001
 1.8644795863e-001	 2.0666064354e+000	 2.8749979952e-001
 3.8212241009e-001	 2.0649412737e+000	-6.7335107892e-002
 3.6263329868e-001	 2.0684528254e+000	-3.4892486056e-002
 3.4316995478e-001	 2.0717708325e+000	-1.0595145730e-003
 3.2373497759e-001	 2.0748965430e+000	 3.4228501735e-002
 3.0433092696e-001	 2.0778312460e+000	 7.0984838059e-002
 2.8496032274e-001	 2.0805762698e+000	 1.0917168360e-001
 2.6562564417e-001	 2.0831329812e+000	 1.4870058734e-001
 2.4632932930e-001	 2.0855027839e+000	 1.8943301179e-001
 2.2707377453e-001	 2.0876871176e+000	 2.3118099066e-001
 2.0786133409e-001	 2.0896874565e+000	 2.7370788615e-001
 1.8869431958e-001	 2.0915053081e+000	 3.1672924173e-001
 3.8667148640e-001	 2.0895239079e+000	 1.0394538555e-002
 3.6695036176e-001	 2.0930772638e+000	 4.0126859710e-002
 3.4725531138e-001	 2.0964347709e+000	 7.0158070030e-002
 3.2758896542e-001	 2.0995976924e+000	 1.0063409883e-001
 3.0795391419e-001	 2.1025673323e+000	 1.3164746372e-001
 2.8835270754e-001	 2.1053450349e+000	 1.6323754039e-001
 2.6878785422e-001	 2.1079321833e+000	 1.9539095019e-001
 2.4926182132e-001	 2.1103301980e+000	 2.2804206157e-001
 2.2977703375e-001	 2.1125405357e+000	 2.6107360121e-001
 2.1033587378e-001	 2.1145646881e+000	 2.9431737060e-001
 1.9094068053e-001	 2.1164041808e+000	 3.2755506355e-001
 3.9122056271e-001	 2.1141065421e+000	 5.7319229964e-002
 3.7126742484e-001	 2.1177017022e+000	 8.5246181883e-002
 3.5134066799e-001	 2.1210987094e+000	 1.1246514982e-001
 3.3144295325e-001	 2.1242988417e+000	 1.3920353932e-001
 3.1157690142e-001	 2.1273034185e+000	 1.6563325965e-001
 2.9174509234e-001	 2.1301138000e+000	 1.9187093021e-001
 2.7195006427e-001	 2.1327313855e+000	 2.1797821080e-001
 2.5219431333e-001	 2.1351576121e+000	 2.4396225181e-001
 2.3248029298e-001	 2.1373939537e+000	 2.6977626007e-001
 2.1281041347e-001	 2.1394419197e+000	 2.9532017590e-001
 1.9318704148e-001	 2.1413030535e+000	 3.2044145694e-001
 3.9576963903e-001	 2.1386891763e+000	 7.4912501989e-002
 3.7558448792e-001	 2.1423261406e+000	 1.0183903408e-001
 3.5542602459e-001	 2.1457626479e+000	 1.2713476523e-001
 3.3529694108e-001	 2.1489999910e+000	 1.5110888168e-001
 3.1519988865e-001	 2.1520395048e+000	 1.7401289497e-001
 2.9513747713e-001	 2.1548825652e+000	 1.9604078559e-001
 2.7511227432e-001	 2.1575305876e+000	 2.1732927693e-001
 2.5512680535e-001	 2.1599850262e+000	 2.3795823519e-001
 2.3518355220e-001	 2.1622473718e+000	 2.5795119108e-001
 2.1528495317e-001	 2.1643191514e+000	 2.7727597875e-001
 1.9543340243e-001	 2.1662019262e+000	 2.9584548721e-001
 4.0031871534e-001	 2.1632718105e+000	 6.4613579479e-002
 3.7990155100e-001	 2.1669505789e+000	 9.1247161563e-002
 3.5951138120e-001	 2.1704265864e+000	 1.1541071207e-001
 3.3915092891e-001	 2.1737011403e+000	 1.3749556326e-001
 3.1882287587e-001	 2.1767755911e+000	 1.5783309920e-001
 2.9852986193e-001	 2.1796513303e+000	 1.7669483748e-001
 2.7827448437e-001	 2.1823297898e+000	 1.9429264760e-001
 2.5805929737e-001	 2.1848124402e+000	 2.1077910166e-001
 2.3788681142e-001	 2.1871007899e+000	 2.2624795303e-001
 2.1775949286e-001	 2.1891963830e+000	 2.4073473833e-001
 1.9767976337e-001	 2.1911007990e+000	 2.5421749796e-001
 4.0486779165e-001	 2.1878544447e+000	 2.7829304051e-002
 3.8421861408e-001	 2.1915750173e+000	 5.4782288228e-002
 3.6359673781e-001	 2.1950905249e+000	 7.8509184517e-002
 3.4300491674e-001	 2.1984022896e+000	 9.9483895809e-002
 3.2244586310e-001	 2.2015116773e+000	 1.1811800716e-001
 3.0192224673e-001	 2.2044200954e+000	 1.3476080632e-001
 2.8143669442e-001	 2.2071289919e+000	 1.4969944729e-001
 2.6099178938e-001	 2.2096398543e+000	 1.6315925283e-001
 2.4059007064e-001	 2.2119542079e+000	 1.7530415113e-001
 2.2023403255e-001	 2.2140736146e+000	 1.8623724220e-001
 1.9992612432e-001	 2.2159996717e+000	 1.9600148869e-001
 4.0941686796e-001	 2.2124370789e+000	-3.4064066838e-002
 3.8853567716e-001	 2.2161994557e+000	-6.2722155397e-003
 3.6768209441e-001	 2.2197544633e+000	 1.7620308530e-002
 3.4685890457e-001	 2.2231034390e+000	 3.8170461353e-002
 3.2606885033e-001	 2.2262477636e+000	 5.5870414246e-002
 3.0531463152e-001	 2.2291888605e+000	 7.1147513724e-002
 2.8459890447e-001	 2.2319281941e+000	 8.4364391160e-002
 2.6392428140e-001	 2.2344672684e+000	 9.5819217901e-002
 2.4329332986e-001	 2.2368076260e+000	 1.0574610116e-001
 2.2270857224e-001	 2.2389508462e+000	 1.1431561586e-001
 2.0217248527e-001	 2.2408985444e+000	 1.2163546727e-001
 1.7970887579e-001	 1.9919098172e+000	 8.4631577582e-002
 1.6149999964e-001	 1.9934687733e+000	 1.1729466658e-001
 1.4333866613e-001	 1.9948568938e+000	 1.6289082666e-001
 1.2522695292e-001	 1.9960757025e+000	 2.2056585331e-001
 1.0716689577e-001	 1.9971267502e+000	 2.8942593346e-001
 8.9160488287e-002	 1.9980116134e+000	 3.6853924882e-001
 7.1209681760e-002	 1.9987318933e+000	 4.5693762603e-001
 5.3316384950e-002	 1.9992892145e+000	 5.5361822878e-001
 3.5482463963e-002	 1.9996852239e+000	 6.5754528728e-001
 1.7709742145e-002	 1.9999215897e+000	 7.6765186060e-001
 0.0000000000e+000	 2.0000000000e+000	 8.8284162716e-001
 1.8195523674e-001	 2.0168086899e+000	 1.7193501337e-001
 1.6351874963e-001	 2.0183871330e+000	 1.8290118512e-001
 1.4513039946e-001	 2.0197926050e+000	 2.0583221306e-001
 1.2679228983e-001	 2.0210266488e+000	 2.3997184081e-001
 1.0850648196e-001	 2.0220908346e+000	 2.8452155928e-001
 9.0274994390e-002	 2.0229867586e+000	 3.3864217384e-001
 7.2099802782e-002	 2.0237160419e+000	 4.0145542388e-001
 5.3982839761e-002	 2.0242803297e+000	 4.7204564973e-001
 3.5925994762e-002	 2.0246812892e+000	 5.4946150242e-001
 1.7931113921e-002	 2.0249206096e+000	 6.3271769123e-001
 0.0000000000e+000	 2.0250000000e+000	 7.2079676463e-001
 1.8420159768e-001	 2.0417075627e+000	 2.3939498376e-001
 1.6553749963e-001	 2.0433054926e+000	 2.3250865739e-001
 1.4692213278e-001	 2.0447283162e+000	 2.3670364361e-001
 1.2835762674e-001	 2.0459775951e+000	 2.5132012515e-001
 1.0984606816e-001	 2.0470549190e+000	 2.7565332378e-001
 9.1389500493e-002	 2.0479619037e+000	 3.0895503368e-001
 7.2989923804e-002	 2.0487001906e+000	 3.5043521271e-001
 5.4649294573e-002	 2.0492714448e+000	 3.9926362665e-001
 3.6369525562e-002	 2.0496773545e+000	 4.5457154155e-001
 1.8152485698e-002	 2.0499196295e+000	 5.1545345922e-001
 0.0000000000e+000	 2.0500000000e+000	 5.8096889092e-001
 1.8644795863e-001	 2.0666064354e+000	 2.8749979952e-001
 1.6755624962e-001	 2.0682238523e+000	 2.6642903105e-001
 1.4871386611e-001	 2.0696640273e+000	 2.5564048435e-001
 1.2992296366e-001	 2.0709285414e+000	 2.5456935367e-001
 1.1118565436e-001	 2.0720190034e+000	 2.6260309835e-001
 9.2504006597e-002	 2.0729370489e+000	 2.7908294455e-001
 7.3880044825e-002	 2.0736843393e+000	 3.0330545058e-001
 5.5315749384e-002	 2.0742625600e+000	 3.3452413089e-001
 3.6813056361e-002	 2.0746734198e+000	 3.7195113350e-001
 1.8373857475e-002	 2.0749186493e+000	 4.1475896579e-001
 0.0000000000e+000	 2.0750000000e+000	 4.6208226361e-001
 1.8869431958e-001	 2.0915053081e+000	 3.1672924173e-001
 1.6957499962e-001	 2.0931422120e+000	 2.8497242283e-001
 1.5050559944e-001	 2.0945997385e+000	 2.6278302852e-001
 1.3148830057e-001	 2.0958794877e+000	 2.4968991532e-001
 1.1252524055e-001	 2.0969830877e+000	 2.4517136337e-001
 9.3618512700e-002	 2.0979121941e+000	 2.4865654881e-001
 7.4770165847e-002	 2.0986684879e+000	 2.5952708550e-001
 5.5982204196e-002	 2.0992536752e+000	 2.7711863115e-001
 3.7256587160e-002	 2.0996694851e+000	 3.0072255219e-001
 1.8595229251e-002	 2.0999176692e+000	 3.2958764240e-001
 0.0000000000e+000	 2.1000000000e+000	 3.6292188989e-001
 1.9094068053e-001	 2.1164041808e+000	 3.2755506355e-001
 1.7159374962e-001	 2.1180605716e+000	 2.8844722624e-001
 1.5229733276e-001	 2.1195354497e+000	 2.5827620680e-001
 1.3305363748e-001	 2.1208304339e+000	 2.3666324997e-001
 1.1386482675e-001	 2.1219471721e+000	 2.2317611352e-001
 9.4733018803e-002	 2.1228873393e+000	 2.1733051339e-001
 7.5660286868e-002	 2.1236526366e+000	 2.1859164428e-001
 5.6648659007e-002	 2.1242447904e+000	 2.2637577006e-001
 3.7700117959e-002	 2.1246655504e+000	 2.4005187868e-001
 1.8816601028e-002	 2.1249166891e+000	 2.5894339597e-001
 0.0000000000e+000	 2.1250000000e+000	 2.8232995310e-001
 1.9318704148e-001	 2.1413030535e+000	 3.2044145694e-001
 1.7361249961e-001	 2.1429789313e+000	 2.7716021173e-001
 1.5408906609e-001	 2.1444711609e+000	 2.4226931762e-001
 1.3461897439e-001	 2.1457813802e+000	 2.1548120592e-001
 1.1520441295e-001	 2.1469112565e+000	 1.9645183950e-001
 9.5847524906e-002	 2.1478624844e+000	 1.8478213307e-001
 7.6550407890e-002	 2.1486367853e+000	 1.8001945468e-001
 5.7315113819e-002	 2.1492359056e+000	 1.8165920295e-001
 3.8143648758e-002	 2.1496616157e+000	 1.8914645427e-001
 1.9037972804e-002	 2.1499157090e+000	 2.0187767435e-001
 0.0000000000e+000	 2.1500000000e+000	 2.1920248851e-001
 1.9543340243e-001	 2.1662019262e+000	 2.9584548721e-001
 1.7563124961e-001	 2.1678972910e+000	 2.5141661999e-001
 1.5588079942e-001	 2.1694068720e+000	 2.1491577619e-001
 1.3618431130e-001	 2.1707323265e+000	 1.8614544169e-001
 1.1654399914e-001	 2.1718753409e+000	 1.6484858005e-001
 9.6962031009e-002	 2.1728376296e+000	 1.5071002999e-001
 7.7440528911e-002	 2.1736209339e+000	 1.4335799019e-001
 5.7981568630e-002	 2.1742270207e+000	 1.4236558557e-001
 3.8587179558e-002	 2.1746576810e+000	 1.4725250920e-001
 1.9259344581e-002	 2.1749147288e+000	 1.5748673401e-001
 0.0000000000e+000	 2.1750000000e+000	 1.7248628838e-001
 1.9767976337e-001	 2.1911007990e+000	 2.5421749796e-001
 1.7764999960e-001	 2.1928156506e+000	 2.1152024887e-001
 1.5767253274e-001	 2.1943425832e+000	 1.7637288055e-001
 1.3774964821e-001	 2.1956832728e+000	 1.4866686864e-001
 1.1788358534e-001	 2.1968394252e+000	 1.2823103845e-001
 9.8076537113e-002	 2.1978127748e+000	 1.1483294187e-001
 7.8330649933e-002	 2.1986050826e+000	 1.0818032767e-001
 5.8648023441e-002	 2.1992181359e+000	 1.0792269913e-001
 3.9030710357e-002	 2.1996537463e+000	 1.1365295308e-001
 1.9480716358e-002	 2.1999137487e+000	 1.2490909410e-001
 0.0000000000e+000	 2.2000000000e+000	 1.4117601807e-001
 1.9992612432e-001	 2.2159996717e+000	 1.9600148869e-001
 1.7966874960e-001	 2.2177340103e+000	 1.5777353444e-001
 1.5946426607e-001	 2.2192782944e+000	 1.2680159348e-001
 1.3931498512e-001	 2.2206342191e+000	 1.0306513115e-001
 1.1922317154e-001	 2.2218035096e+000	 8.6477758740e-002
 9.9191043216e-002	 2.2227879199e+000	 7.6888591944e-002
 7.9220770954e-002	 2.2235892313e+000	 7.4083708925e-002
 5.9314478253e-002	 2.2242092511e+000	 7.7787701623e-002
 3.9474241156e-002	 2.2246498116e+000	 8.7665314187e-002
 1.9702088134e-002	 2.2249127686e+000	 1.0332316221e-001
 0.0000000000e+000	 2.2250000000e+000	 1.2431152650e-001
 2.0217248527e-001	 2.2408985444e+000	 1.2163546727e-001
 1.8168749959e-001	 2.2426523700e+000	 9.0477626601e-002
 1.6125599940e-001	 2.2442140055e+000	 6.6366338861e-002
 1.4088032204e-001	 2.2455851654e+000	 4.9368121461e-002
 1.2056275773e-001	 2.2467675940e+000	 3.9480356747e-002
 1.0030554932e-001	 2.2477630651e+000	 3.6632634173e-002
 8.0110891976e-002	 2.2485733799e+000	 4.0688198245e-002
 5.9980933064e-002	 2.2492003663e+000	 5.1445495816e-002
 3.9917771955e-002	 2.2496458769e+000	 6.8639816289e-002
 1.9923459911e-002	 2.2499117884e+000	 9.1945018238e-002
 0.0000000000e+000	 2.2500000000e+000	 1.2097533598e-001
 2.2500000000e+000	 0.0000000000e+000	 2.4929573489e+000
 2.2499117884e+000	 1.9923459911e-002	 2.5232871048e+000
 2.2496458769e+000	 3.9917771955e-002	 2.5472769909e+000
 2.2492003663e+000	 5.9980933064e-002	 2.5639395964e+000
 2.2485733799e+000	 8.0110891976e-002	 2.5723752544e+000
 2.2477630651e+000	 1.0030554932e-001	 2.5717755589e+000
 2.2467675940e+000	 1.2056275773e-001	 2.5614267849e+000
 2.2455851654e+000	 1.4088032204e-001	 2.5407132010e+000
 2.2442140055e+000	 1.6125599940e-001	 2.5091202647e+000
 2.2426523700e+000	 1.8168749959e-001	 2.4662376870e+000
 2.2408985444e+000	 2.0217248527e-001	 2.4117623579e+000
 2.2750000000e+000	 0.0000000000e+000	 2.4179395759e+000
 2.2749108083e+000	 2.0144831687e-002	 2.4372908437e+000
 2.2746419422e+000	 4.0361302754e-002	 2.4517083801e+000
 2.2741914815e+000	 6.0647387876e-002	 2.4602560864e+000
 2.2735575286e+000	 8.1001012998e-002	 2.4620882575e+000
 2.2727382103e+000	 1.0142005542e-001	 2.4564531226e+000
 2.2717316784e+000	 1.2190234393e-001	 2.4426962848e+000
 2.2705361116e+000	 1.4244565895e-001	 2.4202640466e+000
 2.2691497167e+000	 1.6304773272e-001	 2.3887066129e+000
 2.2675707296e+000	 1.8370624959e-001	 2.3476811573e+000
 2.2657974171e+000	 2.0441884622e-001	 2.2969547424e+000
 2.3000000000e+000	 0.0000000000e+000	 2.3448598495e+000
 2.2999098282e+000	 2.0366203464e-002	 2.3562784870e+000
 2.2996380075e+000	 4.0804833554e-002	 2.3639823065e+000
 2.2991825966e+000	 6.1313842688e-002	 2.3670840027e+000
 2.2985416773e+000	 8.1891134020e-002	 2.3647894534e+000
 2.2977133554e+000	 1.0253456153e-001	 2.3564012892e+000
 2.2966957628e+000	 1.2324193013e-001	 2.3413223570e+000
 2.2954870579e+000	 1.4401099586e-001	 2.3190590654e+000
 2.2940854279e+000	 1.6483946605e-001	 2.2892245990e+000
 2.2924890893e+000	 1.8572499959e-001	 2.2515419916e+000
 2.2906962898e+000	 2.0666520717e-001	 2.2058470460e+000
 2.3250000000e+000	 0.0000000000e+000	 2.2738358636e+000
 2.3249088481e+000	 2.0587575241e-002	 2.2802770736e+000
 2.3246340728e+000	 4.1248364354e-002	 2.2840359878e+000
 2.3241737118e+000	 6.1980297500e-002	 2.2842716255e+000
 2.3235258259e+000	 8.2781255043e-002	 2.2802391185e+000
 2.3226885006e+000	 1.0364906763e-001	 2.2712933166e+000
 2.3216598471e+000	 1.2458151633e-001	 2.2568922807e+000
 2.3204380042e+000	 1.4557633277e-001	 2.2366006510e+000
 2.3190211390e+000	 1.6663119938e-001	 2.2100928798e+000
 2.3174074490e+000	 1.8774374958e-001	 2.1771563155e+000
 2.3155951625e+000	 2.0891156812e-001	 2.1376941269e+000
 2.3500000000e+000	 0.0000000000e+000	 2.2049803035e+000
 2.3499078679e+000	 2.0808947019e-002	 2.2093115056e+000
 2.3496301381e+000	 4.1691895154e-002	 2.2118072639e+000
 2.3491648270e+000	 6.2646752313e-002	 2.2116704998e+000
 2.3485099746e+000	 8.3671376066e-002	 2.2082033196e+000
 2.3476636458e+000	 1.0476357374e-001	 2.2008106601e+000
 2.3466239315e+000	 1.2592110253e-001	 2.1890038162e+000
 2.3453889505e+000	 1.4714166968e-001	 2.1724038385e+000
 2.3439568502e+000	 1.6842293271e-001	 2.1507447878e+000
 2.3423258086e+000	 1.8976249958e-001	 2.1238768362e+000
 2.3404940352e+000	 2.1115792906e-001	 2.0917692001e+000
 2.3750000000e+000	 0.0000000000e+000	 2.1384011102e+000
 2.3749068878e+000	 2.1030318796e-002	 2.1434046610e+000
 2.3746262034e+000	 4.2135425955e-002	 2.1472345633e+000
 2.3741559422e+000	 6.3313207127e-002	 2.1491352639e+000
 2.3734941233e+000	 8.4561497090e-002	 2.1484536098e+000
 2.3726387909e+000	 1.0587807984e-001	 2.1446425402e+000
 2.3715880159e+000	 1.2726068872e-001	 2.1372646535e+000
 2.3703398968e+000	 1.4870700660e-001	 2.1259956389e+000
 2.3688925614e+000	 1.7021466604e-001	 2.1106275586e+000
 2.3672441683e+000	 1.9178124958e-001	 2.0910719698e+000
 2.3653929079e+000	 2.1340429001e-001	 2.0673628718e+000
 2.4000000000e+000	 0.0000000000e+000	 2.0742017268e+000
 2.3999059077e+000	 2.1251690574e-002	 2.0825774986e+000
 2.3996222687e+000	 4.2578956756e-002	 2.0902568730e+000
 2.3991470574e+000	 6.3979661940e-002	 2.0965234879e+000
 2.3984782719e+000	 8.5451618114e-002	 2.1007667424e+000
 2.3976139361e+000	 1.0699258595e-001	 2.1024855387e+000
 2.3965521003e+000	 1.2860027492e-001	 2.1012918951e+000
 2.3952908430e+000	 1.5027234351e-001	 2.0969144159e+000
 2.3938282726e+000	 1.7200639936e-001	 2.0892016071e+000
 2.3921625279e+000	 1.9379999957e-001	 2.0781250230e+000
 2.3902917807e+000	 2.1565065096e-001	 2.0637822333e+000
 2.4250000000e+000	 0.0000000000e+000	 2.0124813311e+000
 2.4249049275e+000	 2.1473062351e-002	 2.0268491576e+000
 2.4246183340e+000	 4.3022487557e-002	 2.0408137094e+000
 2.4241381725e+000	 6.4646116755e-002	 2.0536955231e+000
 2.4234624206e+000	 8.6341739139e-002	 2.0649244029e+000
 2.4225890813e+000	 1.0810709205e-001	 2.0740432190e+000
 2.4215161846e+000	 1.2993986112e-001	 2.0807115707e+000
 2.4202417893e+000	 1.5183768043e-001	 2.0847093006e+000
 2.4187639837e+000	 1.7379813269e-001	 2.0859398478e+000
 2.4170808876e+000	 1.9581874957e-001	 2.0844334257e+000
 2.4151906534e+000	 2.1789701191e-001	 2.0803500113e+000
 2.4500000000e+000	 0.0000000000e+000	 1.9533350524e+000
 2.4499039474e+000	 2.1694434129e-002	 1.9762370495e+000
 2.4496143993e+000	 4.3466018359e-002	 1.9988450914e+000
 2.4491292877e+000	 6.5312571569e-002	 2.0205143597e+000
 2.4484465693e+000	 8.7231860164e-002	 2.0407129576e+000
 2.4475642264e+000	 1.0922159816e-001	 2.0590257701e+000
 2.4464802690e+000	 1.3127944732e-001	 2.0751581819e+000
 2.4451927356e+000	 1.5340301734e-001	 2.0889396417e+000
 2.4436996949e+000	 1.7558986602e-001	 2.1003270577e+000
 2.4419992473e+000	 1.9783749957e-001	 2.1094080103e+000
 2.4400895261e+000	 2.2014337286e-001	 2.1164037704e+000
 2.4750000000e+000	 0.0000000000e+000	 1.8968541768e+000
 2.4749029673e+000	 2.1915805907e-002	 1.9307569465e+000
 2.4746104646e+000	 4.3909549161e-002	 1.9642915151e+000
 2.4741204029e+000	 6.5979026384e-002	 1.9968454935e+000
 2.4734307179e+000	 8.8121981189e-002	 2.0279232169e+000
 2.4725393716e+000	 1.1033610427e-001	 2.0571496715e+000
 2.4714443534e+000	 1.3261903353e-001	 2.0842742741e+000
 2.4701436819e+000	 1.5496835426e-001	 2.1091744900e+000
 2.4686354061e+000	 1.7738159935e-001	 2.1318592762e+000
 2.4669176069e+000	 1.9985624957e-001	 2.1524723348e+000
 2.4649883988e+000	 2.2238973381e-001	 2.1712951635e+000
 2.5000000000e+000	 0.0000000000e+000	 1.8431263386e+000
 2.4999019872e+000	 2.2137177686e-002	 1.8904230625e+000
 2.4996065299e+000	 4.4353079963e-002	 1.9370939299e+000
 2.4991115181e+000	 6.6645481200e-002	 1.9825568011e+000
 2.4984148666e+000	 8.9012102215e-002	 2.0263502131e+000
 2.4975145168e+000	 1.1145061038e-001	 2.0681373794e+000
 2.4964084378e+000	 1.3395861973e-001	 2.1077100347e+000
 2.4950946282e+000	 1.5653369117e-001	 2.1449921130e+000
 2.4935711173e+000	 1.7917333268e-001	 2.1800432430e+000
 2.4918359666e+000	 2.0187499956e-001	 2.2130620467e+000
 2.4898872715e+000	 2.2463609475e-001	 2.2443892273e+000
 2.2408985444e+000	 2.0217248527e-001	 2.4117623579e+000
 2.2389508462e+000	 2.2270857224e-001	 2.3793432232e+000
 2.2368076260e+000	 2.4329332986e-001	 2.3468879392e+000
 2.2344672684e+000	 2.6392428140e-001	 2.3143582896e+000
 2.2319281941e+000	 2.8459890447e-001	 2.2818209483e+000
 2.2291888605e+000	 3.0531463152e-001	 2.2494493372e+000
 2.2262477636e+000	 3.2606885033e-001	 2.2175252879e+000
 2.2231034390e+000	 3.4685890457e-001	 2.1864404979e+000
 2.2197544633e+000	 3.6768209441e-001	 2.1566977716e+000
 2.2161994557e+000	 3.8853567716e-001	 2.1289120363e+000
 2.2124370789e+000	 4.0941686796e-001	 2.1038111248e+000
 2.2657974171e+000	 2.0441884622e-001	 2.2969547424e+000
 2.2638280779e+000	 2.2518311194e-001	 2.2620783689e+000
 2.2616610440e+000	 2.4599658909e-001	 2.2271532383e+000
 2.2592946825e+000	 2.6685677342e-001	 2.1922148773e+000
 2.2567273962e+000	 2.8776111452e-001	 2.1574079246e+000
 2.2539576256e+000	 3.0870701632e-001	 2.1229879852e+000
 2.2509838498e+000	 3.2969183756e-001	 2.0893232801e+000
 2.2478045883e+000	 3.5071289240e-001	 2.0568960806e+000
 2.2444184018e+000	 3.7176745101e-001	 2.0263039188e+000
 2.2408238941e+000	 3.9285274024e-001	 1.9982605628e+000
 2.2370197131e+000	 4.1396594427e-001	 1.9735967490e+000
 2.2906962898e+000	 2.0666520717e-001	 2.2058470460e+000
 2.2887053095e+000	 2.2765765163e-001	 2.1702354628e+000
 2.2865144621e+000	 2.4869984831e-001	 2.1344032517e+000
 2.2841220966e+000	 2.6978926543e-001	 2.0984589674e+000
 2.2815265984e+000	 2.9092332457e-001	 2.0626246625e+000
 2.2787263907e+000	 3.1209940111e-001	 2.0272377415e+000
 2.2757199361e+000	 3.3331482478e-001	 1.9927526013e+000
 2.2725057376e+000	 3.5456688023e-001	 1.9597420475e+000
 2.2690823403e+000	 3.7585280762e-001	 1.9288984758e+000
 2.2654483325e+000	 3.9716980332e-001	 1.9010348098e+000
 2.2616023474e+000	 4.1851502058e-001	 1.8770851844e+000
 2.3155951625e+000	 2.0891156812e-001	 2.1376941269e+000
 2.3135825411e+000	 2.3013219132e-001	 2.1029686467e+000
 2.3113678802e+000	 2.5140310753e-001	 2.0676912955e+000
 2.3089495107e+000	 2.7272175745e-001	 2.0320429964e+000
 2.3063258005e+000	 2.9408553462e-001	 1.9963227219e+000
 2.3034951558e+000	 3.1549178591e-001	 1.9609493514e+000
 2.3004560224e+000	 3.3693781201e-001	 1.9264633053e+000
 2.2972068869e+000	 3.5842086805e-001	 1.8935279457e+000
 2.2937462788e+000	 3.7993816422e-001	 1.8629307325e+000
 2.2900727709e+000	 4.0148686640e-001	 1.8355841247e+000
 2.2861849816e+000	 4.2306409689e-001	 1.8125262184e+000
 2.3404940352e+000	 2.1115792906e-001	 2.0917692001e+000
 2.3384597727e+000	 2.3260673101e-001	 2.0594529465e+000
 2.3362212982e+000	 2.5410636675e-001	 2.0260940264e+000
 2.3337769248e+000	 2.7565424947e-001	 1.9919451254e+000
 2.3311250027e+000	 2.9724774467e-001	 1.9573816973e+000
 2.3282639210e+000	 3.1888417070e-001	 1.9229038290e+000
 2.3251921086e+000	 3.4056079923e-001	 1.8891378709e+000
 2.3219080362e+000	 3.6227485588e-001	 1.8568378251e+000
 2.3184102172e+000	 3.8402352083e-001	 1.8268864781e+000
 2.3146972093e+000	 4.0580392948e-001	 1.8002962694e+000
 2.3107676158e+000	 4.2761317319e-001	 1.7782098845e+000
 2.3653929079e+000	 2.1340429001e-001	 2.0673628718e+000
 2.3633370043e+000	 2.3508127071e-001	 2.0388831733e+000
 2.3610747163e+000	 2.5680962597e-001	 2.0087102134e+000
 2.3586043389e+000	 2.7858674148e-001	 1.9771678859e+000
 2.3559242049e+000	 3.0040995472e-001	 1.9447077419e+000
 2.3530326861e+000	 3.2227655550e-001	 1.9119108635e+000
 2.3499281949e+000	 3.4418378646e-001	 1.8794894953e+000
 2.3466091856e+000	 3.6612884371e-001	 1.8482884221e+000
 2.3430741557e+000	 3.8810887743e-001	 1.8192860810e+000
 2.3393216477e+000	 4.1012099256e-001	 1.7935953988e+000
 2.3353502500e+000	 4.3216224950e-001	 1.7724643437e+000
 2.3902917807e+000	 2.1565065096e-001	 2.0637822333e+000
 2.3882142360e+000	 2.3755581040e-001	 2.0404728929e+000
 2.3859281344e+000	 2.5951288519e-001	 2.0146595861e+000
 2.3834317530e+000	 2.8151923350e-001	 1.9867369113e+000
 2.3807234070e+000	 3.0357216477e-001	 1.9572321846e+000
 2.3778014512e+000	 3.2566894029e-001	 1.9268073260e+000
 2.3746642811e+000	 3.4780677368e-001	 1.8962604945e+000
 2.3713103349e+000	 3.6998283154e-001	 1.8665274577e+000
 2.3677380942e+000	 3.9219423403e-001	 1.8386826868e+000
 2.3639460861e+000	 4.1443805563e-001	 1.8139401651e+000
 2.3599328842e+000	 4.3671132581e-001	 1.7936538990e+000
 2.4151906534e+000	 2.1789701191e-001	 2.0803500113e+000
 2.4130914676e+000	 2.4003035009e-001	 2.0634534591e+000
 2.4107815524e+000	 2.6221614441e-001	 2.0430817541e+000
 2.4082591671e+000	 2.8445172551e-001	 2.0196997452e+000
 2.4055226092e+000	 3.0673437482e-001	 1.9939102322e+000
 2.4025702163e+000	 3.2906132508e-001	 1.9664558685e+000
 2.3994003674e+000	 3.5142976091e-001	 1.9382208019e+000
 2.3960114842e+000	 3.7383681936e-001	 1.9102320400e+000
 2.3924020327e+000	 3.9627959064e-001	 1.8836605298e+000
 2.3885705245e+000	 4.1875511871e-001	 1.8598219396e+000
 2.3845155184e+000	 4.4126040212e-001	 1.8401771325e+000
 2.4400895261e+000	 2.2014337286e-001	 2.1164037704e+000
 2.4379686992e+000	 2.4250488978e-001	 2.1070731061e+000
 2.4356349705e+000	 2.6491940363e-001	 2.0931351929e+000
 2.4330865812e+000	 2.8738421752e-001	 2.0751247240e+000
 2.4303218113e+000	 3.0989658487e-001	 2.0537197512e+000
 2.4273389814e+000	 3.3245370987e-001	 2.0297436082e+000
 2.4241364537e+000	 3.5505274813e-001	 2.0041665595e+000
 2.4207126335e+000	 3.7769080719e-001	 1.9781071649e+000
 2.4170659712e+000	 4.0036494724e-001	 1.9528333459e+000
 2.4131949629e+000	 4.2307218179e-001	 1.9297631436e+000
 2.4090981526e+000	 4.4580947843e-001	 1.9104651559e+000
 2.4649883988e+000	 2.2238973381e-001	 2.1712951635e+000
 2.4628459308e+000	 2.4497942947e-001	 2.1705960957e+000
 2.4604883886e+000	 2.6762266285e-001	 2.1639962911e+000
 2.4579139953e+000	 2.9031670954e-001	 2.1520999266e+000
 2.4551210135e+000	 3.1305879491e-001	 2.1356601233e+000
 2.4521077465e+000	 3.3584609467e-001	 2.1155808919e+000
 2.4488725399e+000	 3.5867573535e-001	 2.0929187940e+000
 2.4454137828e+000	 3.8154479501e-001	 2.0688843076e+000
 2.4417299097e+000	 4.0445030384e-001	 2.0448428832e+000
 2.4378194013e+000	 4.2738924487e-001	 2.0223156799e+000
 2.4336807868e+000	 4.5035855474e-001	 2.0029799684e+000
 2.4898872715e+000	 2.2463609475e-001	 2.2443892273e+000
 2.4877231625e+000	 2.4745396916e-001	 2.2533019164e+000
 2.4853418066e+000	 2.7032592207e-001	 2.2548584545e+000
 2.4827414094e+000	 2.9324920155e-001	 2.2497321876e+000
 2.4799202156e+000	 3.1622100496e-001	 2.2387511698e+000
 2.4768765117e+000	 3.3923847946e-001	 2.2229001351e+000
 2.4736086262e+000	 3.6229872257e-001	 2.2033221731e+000
 2.4701149322e+000	 3.8539878284e-001	 2.1813200989e+000
 2.4663938481e+000	 4.0853566044e-001	 2.1583575013e+000
 2.4624438397e+000	 4.3170630795e-001	 2.1360594590e+000
 2.4582634210e+000	 4.5490763105e-001	 2.1162129117e+000
 2.2124370789e+000	 4.0941686796e-001	 2.1038111248e+000
 2.2084660407e+000	 4.3032284048e-001	 2.0324656329e+000
 2.2042850952e+000	 4.5125072774e-001	 1.9582940749e+000
 2.1998930440e+000	 4.7219762289e-001	 1.8822808663e+000
 2.1952887378e+000	 4.9316058010e-001	 1.8055287301e+000
 2.1904710774e+000	 5.1413661543e-001	 1.7292583630e+000
 2.1854390149e+000	 5.3512270782e-001	 1.6548078210e+000
 2.1801915551e+000	 5.5611580005e-001	 1.5836316189e+000
 2.1747277568e+000	 5.7711279978e-001	 1.5172995388e+000
 2.1690467338e+000	 5.9811058066e-001	 1.4574951414e+000
 2.1631476559e+000	 6.1910598340e-001	 1.4060139800e+000
 2.2370197131e+000	 4.1396594427e-001	 1.9735967490e+000
 2.2330045523e+000	 4.3510420537e-001	 1.9019550731e+000
 2.2287771518e+000	 4.5626462471e-001	 1.8292665292e+000
 2.2243363000e+000	 4.7744426314e-001	 1.7566099718e+000
 2.2196808349e+000	 4.9864014209e-001	 1.6851852424e+000
 2.2148096449e+000	 5.1984924449e-001	 1.6163127337e+000
 2.2097216706e+000	 5.4106851568e-001	 1.5514326632e+000
 2.2044159057e+000	 5.6229486449e-001	 1.4921040513e+000
 2.1988913986e+000	 5.8352516422e-001	 1.4400033988e+000
 2.1931472531e+000	 6.0475625377e-001	 1.3969230579e+000
 2.1871826299e+000	 6.2598493877e-001	 1.3536604619e+000
 2.2616023474e+000	 4.1851502058e-001	 1.8770851844e+000
 2.2575430638e+000	 4.3988557026e-001	 1.8041896737e+000
 2.2532692084e+000	 4.6127852168e-001	 1.7318455560e+000
 2.2487795561e+000	 4.8269090339e-001	 1.6612274391e+000
 2.2440729320e+000	 5.0411970409e-001	 1.5936338002e+000
 2.2391482124e+000	 5.2556187355e-001	 1.5304864489e+000
 2.2340043263e+000	 5.4701432354e-001	 1.4733296896e+000
 2.2286402563e+000	 5.6847392893e-001	 1.4238291780e+000
 2.2230550403e+000	 5.8993752866e-001	 1.3837704676e+000
 2.2172477723e+000	 6.1140192689e-001	 1.3550572394e+000
 2.2112176038e+000	 6.3286389413e-001	 1.2542973505e+000
 2.2861849816e+000	 4.2306409689e-001	 1.8125262184e+000
 2.2820815754e+000	 4.4466693515e-001	 1.7373547977e+000
 2.2777612650e+000	 4.6629241865e-001	 1.6641533342e+000
 2.2732228121e+000	 4.8793754364e-001	 1.5941935668e+000
 2.2684650291e+000	 5.0959926609e-001	 1.5288741903e+000
 2.2634867799e+000	 5.3127450260e-001	 1.4697202178e+000
 2.2582869820e+000	 5.5296013141e-001	 1.4183820320e+000
 2.2528646070e+000	 5.7465299337e-001	 1.3766341209e+000
 2.2472186821e+000	 5.9634989310e-001	 1.3463734924e+000
 2.2413482916e+000	 6.1804760000e-001	 1.3296177630e+000
 2.2352525778e+000	 6.3974284950e-001	 1.1758513897e+000
 2.3107676158e+000	 4.2761317319e-001	 1.7782098845e+000
 2.3066200870e+000	 4.4944830005e-001	 1.6996763244e+000
 2.3022533216e+000	 4.7130631563e-001	 1.6243527119e+000
 2.2976660682e+000	 4.9318418390e-001	 1.5536093575e+000
 2.2928571261e+000	 5.1507882809e-001	 1.4889468191e+000
 2.2878253475e+000	 5.3698713166e-001	 1.4319951640e+000
 2.2825696377e+000	 5.5890593927e-001	 1.3845129105e+000
 2.2770889576e+000	 5.8083205782e-001	 1.3483856420e+000
 2.2713823238e+000	 6.0276225754e-001	 1.3256242901e+000
 2.2654488109e+000	 6.2469327312e-001	 1.3183630804e+000
 2.2592875518e+000	 6.4662180487e-001	 1.1178774859e+000
 2.3353502500e+000	 4.3216224950e-001	 1.7724643437e+000
 2.3311585985e+000	 4.5422966494e-001	 1.6894185165e+000
 2.3267453782e+000	 4.7632021260e-001	 1.6106450657e+000
 2.3221093242e+000	 4.9843082415e-001	 1.5376143753e+000
 2.3172492232e+000	 5.2055839009e-001	 1.4719305740e+000
 2.3121639150e+000	 5.4269976072e-001	 1.4153306983e+000
 2.3068522935e+000	 5.6485174713e-001	 1.3696835236e+000
 2.3013133082e+000	 5.8701112226e-001	 1.3369880575e+000
 2.2955459656e+000	 6.0917462198e-001	 1.3193716906e+000
 2.2895493301e+000	 6.3133894624e-001	 1.2632939930e+000
 2.2833225257e+000	 6.5350076025e-001	 1.0799661254e+000
 2.3599328842e+000	 4.3671132581e-001	 1.7936538990e+000
 2.3556971101e+000	 4.5901102983e-001	 1.7048820215e+000
 2.3512374348e+000	 4.8133410958e-001	 1.6212682943e+000
 2.3465525803e+000	 5.0367746441e-001	 1.5443847373e+000
 2.3416413203e+000	 5.2603795209e-001	 1.4759408198e+000
 2.3365024825e+000	 5.4841238978e-001	 1.4177825248e+000
 2.3311349492e+000	 5.7079755500e-001	 1.3718910703e+000
 2.3255376588e+000	 5.9319018671e-001	 1.3403812816e+000
 2.3197096073e+000	 6.1558698643e-001	 1.3254996091e+000
 2.3136498494e+000	 6.3798461936e-001	 1.2251864213e+000
 2.3073574997e+000	 6.6037971562e-001	 1.0617415209e+000
 2.3845155184e+000	 4.4126040212e-001	 1.8401771325e+000
 2.3802356217e+000	 4.6379239473e-001	 1.7444019959e+000
 2.3757294915e+000	 4.8634800655e-001	 1.6544949357e+000
 2.3709958363e+000	 5.0892410466e-001	 1.5721312296e+000
 2.3660334174e+000	 5.3151751410e-001	 1.4991275181e+000
 2.3608410500e+000	 5.5412501884e-001	 1.4374407699e+000
 2.3554176049e+000	 5.7674336287e-001	 1.3891668943e+000
 2.3497620094e+000	 5.9936925116e-001	 1.3565389914e+000
 2.3438732491e+000	 6.2199935087e-001	 1.3419252380e+000
 2.3377503686e+000	 6.4463029248e-001	 1.2065847545e+000
 2.3313924736e+000	 6.6725867099e-001	 1.0628598737e+000
 2.4090981526e+000	 4.4580947843e-001	 1.9104651559e+000
 2.4047741332e+000	 4.6857375962e-001	 1.8063463445e+000
 2.4002215481e+000	 4.9136190353e-001	 1.7086303997e+000
 2.3954390923e+000	 5.1417074492e-001	 1.6190975383e+000
 2.3904255145e+000	 5.3699707610e-001	 1.5396734621e+000
 2.3851796176e+000	 5.5983764791e-001	 1.4724282262e+000
 2.3797002606e+000	 5.8268917073e-001	 1.4195747416e+000
 2.3739863600e+000	 6.0554831560e-001	 1.3834669046e+000
 2.3680368908e+000	 6.2841171532e-001	 1.3459001737e+000
 2.3618508879e+000	 6.5127596560e-001	 1.2071592643e+000
 2.3554274476e+000	 6.7413762637e-001	 1.0830077409e+000
 2.4336807868e+000	 4.5035855474e-001	 2.0029799684e+000
 2.4293126448e+000	 4.7335512452e-001	 1.8891140665e+000
 2.4247136047e+000	 4.9637580050e-001	 1.7820113082e+000
 2.4198823484e+000	 5.1941738517e-001	 1.6835585880e+000
 2.4148176116e+000	 5.4247663810e-001	 1.5957926187e+000
 2.4095181851e+000	 5.6555027697e-001	 1.5208987026e+000
 2.4039829163e+000	 5.8863497860e-001	 1.4612091248e+000
 2.3982107106e+000	 6.1172738005e-001	 1.4192011612e+000
 2.3922005325e+000	 6.3482407976e-001	 1.3477884882e+000
 2.3859514072e+000	 6.5792163873e-001	 1.2266096738e+000
 2.3794624215e+000	 6.8101658174e-001	 1.1219005027e+000
 2.4582634210e+000	 4.5490763105e-001	 2.1162129117e+000
 2.4538511564e+000	 4.7813648941e-001	 1.9911337010e+000
 2.4492056613e+000	 5.0138969748e-001	 1.8730039344e+000
 2.4443256044e+000	 5.2466402543e-001	 1.7638189800e+000
 2.4392097087e+000	 5.4795620010e-001	 1.6657285696e+000
 2.4338567526e+000	 5.7126290603e-001	 1.5810354734e+000
 2.4282655721e+000	 5.9458078647e-001	 1.5121937840e+000
 2.4224350612e+000	 6.1790644450e-001	 1.4618068022e+000
 2.4163641743e+000	 6.4123644421e-001	 1.3682625549e+000
 2.4100519264e+000	 6.6456731185e-001	 1.2646636848e+000
 2.4034973955e+000	 6.8789553712e-001	 1.1792809213e+000
 2.1631476559e+000	 6.1910598340e-001	 1.4060139800e+000
 2.1570297506e+000	 6.4009581698e-001	 1.4003554027e+000
 2.1506923038e+000	 6.6107685984e-001	 1.3260668507e+000
 2.1441346607e+000	 6.8204586113e-001	 1.2522651256e+000
 2.1373562277e+000	 7.0299954197e-001	 1.1797193903e+000
 2.1303564724e+000	 7.2393459685e-001	 1.1092606832e+000
 2.1231349254e+000	 7.4484769492e-001	 1.0417818974e+000
 2.1156911808e+000	 7.6573548144e-001	 9.7823761509e-001
 2.1080248974e+000	 7.8659457923e-001	 9.1964379576e-001
 2.1001357994e+000	 8.0742159012e-001	 8.6707731240e-001
 2.0920236774e+000	 8.2821309651e-001	 8.2167533496e-001
 2.1871826299e+000	 6.2598493877e-001	 1.3536604619e+000
 2.1809967479e+000	 6.4720799272e-001	 1.2909689842e+000
 2.1745888849e+000	 6.6842215828e-001	 1.2276136084e+000
 2.1679583792e+000	 6.8962414847e-001	 1.1642657670e+000
 2.1611046302e+000	 7.1081064799e-001	 1.1016602533e+000
 2.1540270999e+000	 7.3197831459e-001	 1.0405953966e+000
 2.1467253135e+000	 7.5312378041e-001	 9.8193309523e-001
 2.1391988606e+000	 7.7424365345e-001	 9.2659870061e-001
 2.1314473962e+000	 7.9533451899e-001	 8.7558075111e-001
 2.1234706416e+000	 8.1639294112e-001	 8.2993055075e-001
 2.1152683849e+000	 8.3741546425e-001	 7.9076159085e-001
 2.2112176038e+000	 6.3286389413e-001	 1.2542973505e+000
 2.2049637451e+000	 6.5432016846e-001	 1.2011522035e+000
 2.1984854661e+000	 6.7576745672e-001	 1.1468242929e+000
 2.1917820976e+000	 6.9720243581e-001	 1.0919500522e+000
 2.1848530328e+000	 7.1862175401e-001	 1.0372309853e+000
 2.1776977274e+000	 7.4002203233e-001	 9.8343389826e-001
 2.1703157015e+000	 7.6139986591e-001	 9.3139098596e-001
 2.1627065404e+000	 7.8275182547e-001	 8.8199976589e-001
 2.1548698951e+000	 8.0407445876e-001	 8.3622285790e-001
 2.1468054838e+000	 8.2536429212e-001	 7.9508760514e-001
 2.1385130925e+000	 8.4661783199e-001	 7.5968553356e-001
 2.2352525778e+000	 6.3974284950e-001	 1.1758513897e+000
 2.2289307423e+000	 6.6143234421e-001	 1.1304904434e+000
 2.2223820472e+000	 6.8311275516e-001	 1.0833520090e+000
 2.2156058161e+000	 7.0478072316e-001	 1.0350384733e+000
 2.2086014353e+000	 7.2643286003e-001	 9.8621910704e-001
 2.2013683548e+000	 7.4806575007e-001	 9.3763035602e-001
 2.1939060896e+000	 7.6967595141e-001	 8.9007597983e-001
 2.1862142202e+000	 7.9125999748e-001	 8.4442703667e-001
 2.1782923940e+000	 8.1281439853e-001	 8.0162170882e-001
 2.1701403260e+000	 8.3433564312e-001	 7.6266496554e-001
 2.1617578000e+000	 8.5582019972e-001	 7.2862806019e-001
 2.2592875518e+000	 6.4662180487e-001	 1.1178774859e+000
 2.2528977396e+000	 6.6854451995e-001	 1.0786037389e+000
 2.2462786284e+000	 6.9045805361e-001	 1.0368815832e+000
 2.2394295346e+000	 7.1235901050e-001	 9.9328028678e-001
 2.2323498378e+000	 7.3424396605e-001	 9.4843792237e-001
 2.2250389823e+000	 7.5610946781e-001	 9.0306171505e-001
 2.2174964776e+000	 7.7795203691e-001	 8.5792823625e-001
 2.2097219000e+000	 7.9976816950e-001	 8.1388343842e-001
 2.2017148928e+000	 8.2155433830e-001	 7.7184252668e-001
 2.1934751683e+000	 8.4330699412e-001	 7.3278966354e-001
 2.1850025075e+000	 8.6502256746e-001	 6.9777750334e-001
 2.2833225257e+000	 6.5350076025e-001	 1.0799661254e+000
 2.2768647368e+000	 6.7565669569e-001	 1.0451449539e+000
 2.2701752095e+000	 6.9780335205e-001	 1.0071278935e+000
 2.2632532530e+000	 7.1993729785e-001	 9.6645200019e-001
 2.2560982403e+000	 7.4205507208e-001	 9.2372516072e-001
 2.2487096098e+000	 7.6415318556e-001	 8.7962649896e-001
 2.2410868657e+000	 7.8622812241e-001	 8.3490662440e-001
 2.2332295797e+000	 8.0827634151e-001	 7.9038771740e-001
 2.2251373917e+000	 8.3029427807e-001	 7.4696344704e-001
 2.2168100105e+000	 8.5227834513e-001	 7.0559871756e-001
 2.2082472150e+000	 8.7422493520e-001	 6.6732923978e-001
 2.3073574997e+000	 6.6037971562e-001	 1.0617415209e+000
 2.3008317340e+000	 6.8276887144e-001	 1.0297980711e+000
 2.2940717907e+000	 7.0514865049e-001	 9.9383430505e-001
 2.2870769715e+000	 7.2751558520e-001	 9.5435595220e-001
 2.2798466429e+000	 7.4986617810e-001	 9.1194170522e-001
 2.2723802372e+000	 7.7219690330e-001	 8.6724368592e-001
 2.2646772538e+000	 7.9450420791e-001	 8.2098774870e-001
 2.2567372595e+000	 8.1678451353e-001	 7.7397361665e-001
 2.2485598905e+000	 8.3903421784e-001	 7.2707484570e-001
 2.2401448527e+000	 8.6124969613e-001	 6.8123861271e-001
 2.2314919226e+000	 8.8342730294e-001	 6.3748532360e-001
 2.3313924736e+000	 6.6725867099e-001	 1.0628598737e+000
 2.3247987313e+000	 6.8988104719e-001	 1.0322765881e+000
 2.3179683718e+000	 7.1249394894e-001	 9.9677120131e-001
 2.3109006899e+000	 7.3509387254e-001	 9.5681898134e-001
 2.3035950454e+000	 7.5767728412e-001	 9.1297039908e-001
 2.2960508647e+000	 7.8024062105e-001	 8.6585165430e-001
 2.2882676418e+000	 8.0278029341e-001	 8.1616503468e-001
 2.2802449393e+000	 8.2529268555e-001	 7.6468910299e-001
 2.2719823894e+000	 8.4777415761e-001	 7.1227870774e-001
 2.2634796949e+000	 8.7022104713e-001	 6.5986481277e-001
 2.2547366301e+000	 8.9262967068e-001	 6.0845414194e-001
 2.3554274476e+000	 6.7413762637e-001	 1.0830077409e+000
 2.3487657285e+000	 6.9699322293e-001	 1.0523220112e+000
 2.3418649530e+000	 7.1983924738e-001	 1.0157346056e+000
 2.3347244084e+000	 7.4267215989e-001	 9.7369117602e-001
 2.3273434479e+000	 7.6548839015e-001	 9.2671492524e-001
 2.3197214922e+000	 7.8828433879e-001	 8.7540719288e-001
 2.3118580299e+000	 8.1105637891e-001	 8.2044787071e-001
 2.3037526191e+000	 8.3380085757e-001	 7.6259564129e-001
 2.2954048883e+000	 8.5651409738e-001	 7.0268803521e-001
 2.2868145371e+000	 8.7919239814e-001	 6.4164130217e-001
 2.2779813376e+000	 9.0183203843e-001	 5.8045009198e-001
 2.3794624215e+000	 6.8101658174e-001	 1.1219005027e+000
 2.3727327257e+000	 7.0410539868e-001	 1.0897024414e+000
 2.3657615341e+000	 7.2718454583e-001	 1.0505448861e+000
 2.3585481268e+000	 7.5025044724e-001	 1.0048447002e+000
 2.3510918505e+000	 7.7329949618e-001	 9.5309875385e-001
 2.3433921197e+000	 7.9632805654e-001	 8.9588457102e-001
 2.3354484179e+000	 8.1933246442e-001	 8.3386080182e-001
 2.3272602989e+000	 8.4230902959e-001	 7.6776751275e-001
 2.3188273871e+000	 8.6525403716e-001	 6.9842629070e-001
 2.3101493793e+000	 8.8816374914e-001	 6.2674015556e-001
 2.3012260451e+000	 9.1103440617e-001	 5.5369327730e-001
 2.4034973955e+000	 6.8789553712e-001	 1.1792809213e+000
 2.3966997229e+000	 7.1121757443e-001	 1.1442112440e+000
 2.3896581153e+000	 7.3452984428e-001	 1.1010455388e+000
 2.3823718453e+000	 7.5782873460e-001	 1.0501726898e+000
 2.3748402530e+000	 7.8111060220e-001	 9.9206415288e-001
 2.3670627471e+000	 8.0437177429e-001	 9.2727466463e-001
 2.3590388060e+000	 8.2760854992e-001	 8.5644277189e-001
 2.3507679787e+000	 8.5081720161e-001	 7.8029117411e-001
 2.3422498860e+000	 8.7399397693e-001	 6.9962687435e-001
 2.3334842215e+000	 8.9713510015e-001	 6.1534113339e-001
 2.3244707527e+000	 9.2023677391e-001	 5.2840922264e-001
 2.0920236774e+000	 8.2821309651e-001	 8.2167533496e-001
 2.0836883892e+000	 8.4896566288e-001	 7.3216189045e-001
 2.0751298605e+000	 8.6967583741e-001	 6.5120025648e-001
 2.0663480856e+000	 8.9034015358e-001	 5.7992774032e-001
 2.0573431284e+000	 9.1095513182e-001	 5.1953731889e-001
 2.0481151225e+000	 9.3151728120e-001	 4.7127640928e-001
 2.0386642723e+000	 9.5202310113e-001	 4.3644548106e-001
 2.0289908532e+000	 9.7246908310e-001	 4.1639651019e-001
 2.0190952125e+000	 9.9285171243e-001	 4.1253127509e-001
 2.0089777693e+000	 1.0131674701e+000	 4.2629949576e-001
 1.9986390154e+000	 1.0334128344e+000	 4.5919681733e-001
 2.1152683849e+000	 8.3741546425e-001	 7.9076159085e-001
 2.1068404824e+000	 8.5839861469e-001	 7.0151742834e-001
 2.0981868589e+000	 8.7933890227e-001	 6.1949382777e-001
 2.0893075088e+000	 9.0023282195e-001	 5.4589915844e-001
 2.0802024965e+000	 9.2107685550e-001	 4.8200103555e-001
 2.0708719572e+000	 9.4186747321e-001	 4.2912503453e-001
 2.0613160975e+000	 9.6260113559e-001	 3.8865323936e-001
 2.0515351960e+000	 9.8327429514e-001	 3.6202262483e-001
 2.0415296038e+000	 1.0038833981e+000	 3.5072327325e-001
 2.0312997445e+000	 1.0244248864e+000	 3.5629642652e-001
 2.0208461156e+000	 1.0448951992e+000	 3.8033237500e-001
 2.1385130925e+000	 8.4661783199e-001	 7.5968553356e-001
 2.1299925756e+000	 8.6783156650e-001	 6.7155011471e-001
 2.1212438574e+000	 8.8900196713e-001	 5.8926333098e-001
 2.1122669320e+000	 9.1012549032e-001	 5.1410522302e-001
 2.1030618646e+000	 9.3119857919e-001	 4.4741873077e-001
 2.0936287919e+000	 9.5221766522e-001	 3.9060835125e-001
 2.0839679228e+000	 9.7317917004e-001	 3.4513862242e-001
 2.0740795389e+000	 9.9407950717e-001	 3.1253243309e-001
 2.0639639950e+000	 1.0149150838e+000	 2.9436915949e-001
 2.0536217198e+000	 1.0356823027e+000	 2.9228262926e-001
 2.0430532157e+000	 1.0563775640e+000	 3.0795891453e-001
 2.1617578000e+000	 8.5582019972e-001	 7.2862806019e-001
 2.1531446689e+000	 8.7726451831e-001	 6.4239608031e-001
 2.1443008558e+000	 8.9866503199e-001	 5.6059894403e-001
 2.1352263552e+000	 9.2001815870e-001	 4.8458899970e-001
 2.1259212327e+000	 9.4132030288e-001	 4.1578522707e-001
 2.1163856266e+000	 9.6256785724e-001	 3.5567183805e-001
 2.1066197480e+000	 9.8375720450e-001	 3.0579669563e-001
 2.0966238817e+000	 1.0048847192e+000	 2.6776955080e-001
 2.0863983863e+000	 1.0259467695e+000	 2.4326009802e-001
 2.0759436950e+000	 1.0469397191e+000	 2.3399585024e-001
 2.0652603159e+000	 1.0678599288e+000	 2.4175983498e-001
 2.1850025075e+000	 8.6502256746e-001	 6.9777750334e-001
 2.1762967621e+000	 8.8669747012e-001	 6.1420039293e-001
 2.1673578543e+000	 9.0832809685e-001	 5.3360129626e-001
 2.1581857783e+000	 9.2991082707e-001	 4.5740553231e-001
 2.1487806008e+000	 9.5144202657e-001	 3.8710886361e-001
 2.1391424613e+000	 9.7291804925e-001	 3.2427603972e-001
 2.1292715733e+000	 9.9433523896e-001	 2.7053915054e-001
 2.1191682245e+000	 1.0156899312e+000	 2.2759578962e-001
 2.1088327775e+000	 1.0369784552e+000	 1.9720702767e-001
 2.0982656702e+000	 1.0581971354e+000	 1.8119519754e-001
 2.0874674161e+000	 1.0793422937e+000	 1.8144149209e-001
 2.2082472150e+000	 8.7422493520e-001	 6.6732923978e-001
 2.1994488553e+000	 8.9613042193e-001	 5.8711658699e-001
 2.1904148527e+000	 9.1799116171e-001	 5.0838091840e-001
 2.1811452015e+000	 9.3980349544e-001	 4.3262121245e-001
 2.1716399689e+000	 9.6156375025e-001	 3.6141078485e-001
 2.1618992960e+000	 9.8326824127e-001	 2.9639577428e-001
 2.1519233985e+000	 1.0049132734e+000	 2.3929342974e-001
 2.1417125673e+000	 1.0264951433e+000	 1.9189019936e-001
 2.1312671688e+000	 1.0480101409e+000	 1.5603962113e-001
 2.1205876454e+000	 1.0694545517e+000	 1.3366001672e-001
 2.1096745162e+000	 1.0908246585e+000	 1.2673199003e-001
 2.2314919226e+000	 8.8342730294e-001	 6.3748532360e-001
 2.2226009485e+000	 9.0556337374e-001	 5.6130622258e-001
 2.2134718512e+000	 9.2765422657e-001	 4.8505772685e-001
 2.2041046247e+000	 9.4969616382e-001	 4.1031318849e-001
 2.1944993369e+000	 9.7168547394e-001	 3.3872427353e-001
 2.1846561306e+000	 9.9361843328e-001	 2.7201938960e-001
 2.1745752237e+000	 1.0154913079e+000	 2.1200190657e-001
 2.1642569101e+000	 1.0373003553e+000	 1.6054817020e-001
 2.1537015600e+000	 1.0590418266e+000	 1.1960530919e-001
 2.1429096206e+000	 1.0807119681e+000	 9.1188836813e-002
 2.1318816164e+000	 1.1023070233e+000	 7.7380048730e-002
 2.2547366301e+000	 8.9262967068e-001	 6.0845414194e-001
 2.2457530417e+000	 9.1499632555e-001	 5.3693847179e-001
 2.2365288496e+000	 9.3731729143e-001	 4.6376053992e-001
 2.2270640479e+000	 9.5958883219e-001	 3.9056881107e-001
 2.2173587050e+000	 9.8180719763e-001	 3.1909412508e-001
 2.2074129653e+000	 1.0039686253e+000	 2.5114806598e-001
 2.1972270490e+000	 1.0260693423e+000	 1.8862111540e-001
 2.1868012529e+000	 1.0481055673e+000	 1.3348059032e-001
 2.1761359513e+000	 1.0700735123e+000	 8.7768365426e-002
 2.1652315958e+000	 1.0919693844e+000	 5.3598381460e-002
 2.1540887166e+000	 1.1137893881e+000	 3.3153941147e-002
 2.2779813376e+000	 9.0183203843e-001	 5.8045009198e-001
 2.2689051349e+000	 9.2442927736e-001	 5.1418973033e-001
 2.2595858481e+000	 9.4698035630e-001	 4.4462662358e-001
 2.2500234710e+000	 9.6948150057e-001	 3.7348511256e-001
 2.2402180731e+000	 9.9192892132e-001	 3.0257606014e-001
 2.2301698000e+000	 1.0143188173e+000	 2.3379516141e-001
 2.2198788742e+000	 1.0366473768e+000	 1.6912102923e-001
 2.2093455957e+000	 1.0589107794e+000	 1.1061305528e-001
 2.1985703425e+000	 1.0811051980e+000	 6.0409046828e-002
 2.1875535710e+000	 1.1032268007e+000	 2.0722640644e-002
 2.1762958168e+000	 1.1252717530e+000	-6.1595043035e-003
 2.3012260451e+000	 9.1103440617e-001	 5.5369327730e-001
 2.2920572281e+000	 9.3386222918e-001	 4.9324325266e-001
 2.2826428465e+000	 9.5664342116e-001	 4.2780126489e-001
 2.2729828942e+000	 9.7937416894e-001	 3.5916831813e-001
 2.2630774412e+000	 1.0020506450e+000	 2.8923617286e-001
 2.2529266347e+000	 1.0246690093e+000	 2.1998559656e-001
 2.2425306995e+000	 1.0472254113e+000	 1.5348438089e-001
 2.2318899385e+000	 1.0697159914e+000	 9.1885125158e-002
 2.2210047338e+000	 1.0921368837e+000	 3.7422786590e-002
 2.2098755463e+000	 1.1144842171e+000	-7.5880013685e-003
 2.1985029169e+000	 1.1367541178e+000	-4.0755840902e-002
 2.3244707527e+000	 9.2023677391e-001	 5.2840922264e-001
 2.3152093213e+000	 9.4329518099e-001	 4.7428880914e-001
 2.3056998450e+000	 9.6630648602e-001	 4.1343737089e-001
 2.2959423174e+000	 9.8926683732e-001	 3.4773338609e-001
 2.2859368093e+000	 1.0121723687e+000	 2.7915041218e-001
 2.2756834694e+000	 1.0350192013e+000	 2.0975527665e-001
 2.2651825247e+000	 1.0578034457e+000	 1.4170602509e-001
 2.2544342814e+000	 1.0805212035e+000	 7.7249626352e-002
 2.2434391250e+000	 1.1031685694e+000	 1.8719435283e-002
 2.2321975215e+000	 1.1257416334e+000	-3.1467585733e-002
 2.2207100171e+000	 1.1482364826e+000	-7.0813884540e-002
 1.9986390154e+000	 1.0334128344e+000	 4.5919681733e-001
 1.9880795152e+000	 1.0535842829e+000	 3.1649066552e-001
 1.9772999064e+000	 1.0736782945e+000	 1.7384956253e-001
 1.9663009000e+000	 1.0936913507e+000	 3.3465905364e-002
 1.9550832805e+000	 1.1136199380e+000	-1.0240577428e-001
 1.9436479059e+000	 1.1334605497e+000	-2.3145192661e-001
 1.9319957082e+000	 1.1532096875e+000	-3.5130327451e-001
 1.9201276929e+000	 1.1728638638e+000	-4.5953827320e-001
 1.9080449390e+000	 1.1924196034e+000	-5.5368673325e-001
 1.8957485995e+000	 1.2118734454e+000	-6.3123360065e-001
 1.8832399002e+000	 1.2312219451e+000	-6.8962288727e-001
 2.0208461156e+000	 1.0448951992e+000	 3.8033237500e-001
 2.0101692876e+000	 1.0652907750e+000	 2.4957969915e-001
 1.9992699054e+000	 1.0856080533e+000	 1.2083120600e-001
 1.9881486878e+000	 1.1058434768e+000	-3.7175749671e-003
 1.9768064280e+000	 1.1259934929e+000	-1.2180925046e-001
 1.9652439938e+000	 1.1460545558e+000	-2.3112773240e-001
 1.9534623272e+000	 1.1660231285e+000	-3.2930158323e-001
 1.9414624450e+000	 1.1858956845e+000	-4.1390753228e-001
 1.9292454384e+000	 1.2056687101e+000	-4.8247415754e-001
 1.9168124728e+000	 1.2253387059e+000	-5.3248572633e-001
 1.9041647880e+000	 1.2449021889e+000	-5.6138618801e-001
 2.0430532157e+000	 1.0563775640e+000	 3.0795891453e-001
 2.0322590600e+000	 1.0769972670e+000	 1.8568280766e-001
 2.0212399043e+000	 1.0975378121e+000	 6.7260478600e-002
 2.0099964756e+000	 1.1179956029e+000	-4.5106458445e-002
 1.9985295756e+000	 1.1383670478e+000	-1.4915468312e-001
 1.9868400816e+000	 1.1586485619e+000	-2.4256239320e-001
 1.9749289462e+000	 1.1788365695e+000	-3.2295270764e-001
 1.9627971972e+000	 1.1989275052e+000	-3.8789724317e-001
 1.9504459377e+000	 1.2189178168e+000	-4.3491985831e-001
 1.9378763461e+000	 1.2388039664e+000	-4.6150055850e-001
 1.9250896758e+000	 1.2585824328e+000	-5.0675094208e-001
 2.0652603159e+000	 1.0678599288e+000	 2.4175983498e-001
 2.0543488324e+000	 1.0887037590e+000	 1.2455544714e-001
 2.0432099033e+000	 1.1094675710e+000	 1.2965924573e-002
 2.0318442634e+000	 1.1301477291e+000	-9.0798092556e-002
 2.0202527232e+000	 1.1507406026e+000	-1.8446430248e-001
 2.0084361695e+000	 1.1712425680e+000	-2.6570202444e-001
 1.9963955652e+000	 1.1916500104e+000	-3.3212566270e-001
 1.9841319493e+000	 1.2119593259e+000	-3.8129834671e-001
 1.9716464370e+000	 1.2321669235e+000	-4.1073574108e-001
 1.9589402195e+000	 1.2522692269e+000	-4.2550870185e-001
 1.9460145636e+000	 1.2722626766e+000	-4.8926808250e-001
 2.0874674161e+000	 1.0793422937e+000	 1.8144149209e-001
 2.0764386048e+000	 1.1004102511e+000	 6.5972215507e-002
 2.0651799023e+000	 1.1213973298e+000	-4.2208658789e-002
 2.0536920511e+000	 1.1422998552e+000	-1.4087853276e-001
 2.0419758707e+000	 1.1631141575e+000	-2.2775307855e-001
 2.0300322573e+000	 1.1838365741e+000	-3.0048958237e-001
 2.0178621842e+000	 1.2044634514e+000	-3.5669047272e-001
 2.0054667014e+000	 1.2249911467e+000	-3.9390702750e-001
 1.9928469363e+000	 1.2454160302e+000	-4.0964325364e-001
 1.9800040928e+000	 1.2657344874e+000	-4.4097275084e-001
 1.9669394514e+000	 1.2859429204e+000	-4.7963017391e-001
 2.1096745162e+000	 1.0908246585e+000	 1.2673199003e-001
 2.0985283772e+000	 1.1121167431e+000	 9.7258449605e-003
 2.0871499012e+000	 1.1333270886e+000	-9.8405023919e-002
 2.0755398389e+000	 1.1544519813e+000	-1.9542313681e-001
 2.0636990183e+000	 1.1754877124e+000	-2.7902910326e-001
 2.0516283452e+000	 1.1964305802e+000	-3.4686503033e-001
 2.0393288031e+000	 1.2172768924e+000	-3.9651811825e-001
 2.0268014536e+000	 1.2380229674e+000	-4.2552443793e-001
 2.0140474357e+000	 1.2586651369e+000	-4.4109832537e-001
 2.0010679661e+000	 1.2791997479e+000	-4.6097195724e-001
 1.9878643392e+000	 1.2996231643e+000	-4.7770306913e-001
 2.1318816164e+000	 1.1023070233e+000	 7.7380048730e-002
 2.1206181496e+000	 1.1238232351e+000	-4.4373742452e-002
 2.1091199002e+000	 1.1452568475e+000	-1.5575122560e-001
 2.0973876267e+000	 1.1666041074e+000	-2.5449712192e-001
 2.0854221659e+000	 1.1878612672e+000	-3.3829394869e-001
 2.0732244330e+000	 1.2090245863e+000	-4.0476549462e-001
 2.0607954221e+000	 1.2300903333e+000	-4.5148048630e-001
 2.0481362057e+000	 1.2510547881e+000	-4.7576174118e-001
 2.0352479350e+000	 1.2719142436e+000	-4.8283198510e-001
 2.0221318395e+000	 1.2926650084e+000	-4.8547515063e-001
 2.0087892269e+000	 1.3133034081e+000	-4.8336907663e-001
 2.1540887166e+000	 1.1137893881e+000	 3.3153941147e-002
 2.1427079219e+000	 1.1355297272e+000	-9.6500320937e-002
 2.1310898991e+000	 1.1571866063e+000	-2.1436232701e-001
 2.1192354145e+000	 1.1787562335e+000	-3.1815608749e-001
 2.1071453134e+000	 1.2002348221e+000	-4.0554300313e-001
 2.0948205209e+000	 1.2216185925e+000	-4.7412541076e-001
 2.0822620411e+000	 1.2429037743e+000	-5.2145032357e-001
 2.0694709579e+000	 1.2640866088e+000	-5.3163495939e-001
 2.0564484343e+000	 1.2851633503e+000	-5.2607973382e-001
 2.0431957128e+000	 1.3061302689e+000	-5.1446300234e-001
 2.0297141147e+000	 1.3269836519e+000	-4.9652611232e-001
 2.1762958168e+000	 1.1252717530e+000	-6.1595043035e-003
 2.1647976943e+000	 1.1472362192e+000	-1.4681219277e-001
 2.1530598981e+000	 1.1691163651e+000	-2.7434106259e-001
 2.1410832022e+000	 1.1909083597e+000	-3.8644650578e-001
 2.1288684610e+000	 1.2126083770e+000	-4.8076578661e-001
 2.1164166087e+000	 1.2342125986e+000	-5.5487666074e-001
 2.1037286601e+000	 1.2557172153e+000	-5.9410101977e-001
 2.0908057100e+000	 1.2771184295e+000	-5.8623561997e-001
 2.0776489336e+000	 1.2984124570e+000	-5.7091143132e-001
 2.0642595861e+000	 1.3195955294e+000	-5.4792742123e-001
 2.0506390025e+000	 1.3406638958e+000	-5.1708690328e-001
 2.1985029169e+000	 1.1367541178e+000	-4.0755840902e-002
 2.1868874667e+000	 1.1589427112e+000	-1.9545296971e-001
 2.1750298971e+000	 1.1810461240e+000	-3.3577846070e-001
 2.1629309900e+000	 1.2030604858e+000	-4.5940618291e-001
 2.1505916085e+000	 1.2249819318e+000	-5.6394624725e-001
 2.1380126965e+000	 1.2468066047e+000	-6.4694870203e-001
 2.1251952790e+000	 1.2685306563e+000	-6.5294372694e-001
 2.1121404622e+000	 1.2901502502e+000	-6.3971429754e-001
 2.0988494330e+000	 1.3116615637e+000	-6.1740426067e-001
 2.0853234594e+000	 1.3330607899e+000	-5.8587098619e-001
 2.0715638903e+000	 1.3543441396e+000	-5.4497823965e-001
 2.2207100171e+000	 1.1482364826e+000	-7.0813884540e-002
 2.2089772391e+000	 1.1706492033e+000	-2.4255230753e-001
 2.1969998960e+000	 1.1929758828e+000	-3.9875442889e-001
 2.1847787778e+000	 1.2152126119e+000	-5.3706469214e-001
 2.1723147561e+000	 1.2373554867e+000	-6.5506303988e-001
 2.1596087844e+000	 1.2594006108e+000	-7.1348329729e-001
 2.1466618980e+000	 1.2813440973e+000	-7.0814118404e-001
 2.1334752143e+000	 1.3031820709e+000	-6.9222538989e-001
 2.1200499323e+000	 1.3249106704e+000	-6.6564236206e-001
 2.1063873328e+000	 1.3465260504e+000	-6.2830641259e-001
 2.0924887780e+000	 1.3680243835e+000	-5.8014027154e-001
 1.8832399002e+000	 1.2312219451e+000	-6.8962288727e-001
 1.8705201405e+000	 1.2504616763e+000	-7.0431610193e-001
 1.8575906924e+000	 1.2695892326e+000	-7.1494265665e-001
 1.8444530004e+000	 1.2886012298e+000	-7.3940406283e-001
 1.8311085811e+000	 1.3074943075e+000	-7.7690116157e-001
 1.8175590227e+000	 1.3262651314e+000	-8.2659033947e-001
 1.8038059846e+000	 1.3449103948e+000	-8.8758535404e-001
 1.7898511964e+000	 1.3634268205e+000	-9.5895927205e-001
 1.7756964577e+000	 1.3818111630e+000	-1.0397465166e+000
 1.7613436372e+000	 1.4000602100e+000	-1.1289450184e+000
 1.7467946721e+000	 1.4181707844e+000	-1.2255184664e+000
 1.9041647880e+000	 1.2449021889e+000	-5.6138618801e-001
 1.8913036977e+000	 1.2643556949e+000	-7.2628226035e-001
 1.8782305890e+000	 1.2836957796e+000	-9.1469685503e-001
 1.8649469226e+000	 1.3029190212e+000	-9.5372973540e-001
 1.8514542320e+000	 1.3220220220e+000	-9.5881652121e-001
 1.8377541230e+000	 1.3410014107e+000	-9.7820634591e-001
 1.8238482733e+000	 1.3598538436e+000	-1.0109709032e+000
 1.8097384319e+000	 1.3785760074e+000	-1.0561382955e+000
 1.7954264183e+000	 1.3971646204e+000	-1.1126951600e+000
 1.7809141221e+000	 1.4156164346e+000	-1.1795889042e+000
 1.7662035017e+000	 1.4339282376e+000	-1.2557300458e+000
 1.9250896758e+000	 1.2585824328e+000	-5.0675094208e-001
 1.9120872548e+000	 1.2782497135e+000	-6.8364438045e-001
 1.8988704856e+000	 1.2978023266e+000	-8.5596083843e-001
 1.8854408449e+000	 1.3172368126e+000	-1.0234540907e+000
 1.8717998829e+000	 1.3365497366e+000	-1.1436170694e+000
 1.8579492232e+000	 1.3557376899e+000	-1.1328069376e+000
 1.8438905620e+000	 1.3747972925e+000	-1.1374523398e+000
 1.8296256674e+000	 1.3937251943e+000	-1.1565349262e+000
 1.8151563790e+000	 1.4125180778e+000	-1.1889920226e+000
 1.8004846069e+000	 1.4311726591e+000	-1.2337189528e+000
 1.7856123314e+000	 1.4496856907e+000	-1.2895714712e+000
 1.9460145636e+000	 1.2722626766e+000	-4.8926808250e-001
 1.9328708119e+000	 1.2921437321e+000	-6.4925011406e-001
 1.9195103822e+000	 1.3119088736e+000	-8.0569239371e-001
 1.9059347671e+000	 1.3315546041e+000	-9.5834157802e-001
 1.8921455338e+000	 1.3510774511e+000	-1.1069462539e+000
 1.8781443235e+000	 1.3704739692e+000	-1.2512575157e+000
 1.8639328507e+000	 1.3897407413e+000	-1.2660935564e+000
 1.8495129029e+000	 1.4088743812e+000	-1.2592322252e+000
 1.8348863396e+000	 1.4278715351e+000	-1.2677405221e+000
 1.8200550918e+000	 1.4467288837e+000	-1.2904601030e+000
 1.8050211611e+000	 1.4654431439e+000	-1.3261903412e+000
 1.9669394514e+000	 1.2859429204e+000	-4.7963017391e-001
 1.9536543690e+000	 1.3060377508e+000	-6.2295250143e-001
 1.9401502787e+000	 1.3260154207e+000	-7.6374968565e-001
 1.9264286893e+000	 1.3458723955e+000	-9.0176081182e-001
 1.9124911847e+000	 1.3656051656e+000	-1.0367260537e+000
 1.8983394238e+000	 1.3852102484e+000	-1.1683872663e+000
 1.8839751394e+000	 1.4046841901e+000	-1.2964885769e+000
 1.8694001384e+000	 1.4240235681e+000	-1.3633309994e+000
 1.8546163002e+000	 1.4432249925e+000	-1.3480616196e+000
 1.8396255767e+000	 1.4622851082e+000	-1.3489546044e+000
 1.8244299908e+000	 1.4812005971e+000	-1.3647513030e+000
 1.9878643392e+000	 1.2996231643e+000	-4.7770306913e-001
 1.9744379261e+000	 1.3199317694e+000	-6.0462194948e-001
 1.9607901753e+000	 1.3401219677e+000	-7.3000822420e-001
 1.9469226115e+000	 1.3601901869e+000	-8.5359295025e-001
 1.9328368356e+000	 1.3801328802e+000	-9.7510744691e-001
 1.9185345240e+000	 1.3999465276e+000	-1.0942839049e+000
 1.9040174282e+000	 1.4196276390e+000	-1.2108559949e+000
 1.8892873739e+000	 1.4391727550e+000	-1.3245594737e+000
 1.8743462609e+000	 1.4585784499e+000	-1.4290928963e+000
 1.8591960615e+000	 1.4778413328e+000	-1.4083611061e+000
 1.8438388205e+000	 1.4969580502e+000	-1.4044351548e+000
 2.0087892269e+000	 1.3133034081e+000	-4.8336907663e-001
 1.9952214832e+000	 1.3338257880e+000	-5.9414532723e-001
 1.9814300719e+000	 1.3542285147e+000	-7.0435996107e-001
 1.9674165338e+000	 1.3745079784e+000	-8.1373554603e-001
 1.9531824865e+000	 1.3946605947e+000	-9.2199410139e-001
 1.9387296243e+000	 1.4146828069e+000	-1.0288577241e+000
 1.9240597169e+000	 1.4345710878e+000	-1.1340492157e+000
 1.9091746095e+000	 1.4543219419e+000	-1.2372927071e+000
 1.8940762215e+000	 1.4739319072e+000	-1.3383142818e+000
 1.8787665464e+000	 1.4933975573e+000	-1.4368425928e+000
 1.8632476502e+000	 1.5127155034e+000	-1.4444380044e+000
 2.0297141147e+000	 1.3269836519e+000	-4.9652611232e-001
 2.0160050404e+000	 1.3477198066e+000	-5.9142511725e-001
 2.0020699685e+000	 1.3683350618e+000	-6.8671244225e-001
 1.9879104560e+000	 1.3888257698e+000	-7.8210170139e-001
 1.9735281374e+000	 1.4091883092e+000	-8.7730516420e-001
 1.9589247245e+000	 1.4294190861e+000	-9.7203440001e-001
 1.9441020056e+000	 1.4495145366e+000	-1.0660009235e+000
 1.9290618450e+000	 1.4694711288e+000	-1.1589168399e+000
 1.9138061822e+000	 1.4892853646e+000	-1.2504954883e+000
 1.8983370312e+000	 1.5089537819e+000	-1.3404520811e+000
 1.8826564799e+000	 1.5284729565e+000	-1.4285043379e+000
 2.0506390025e+000	 1.3406638958e+000	-5.1708690328e-001
 2.0367885975e+000	 1.3616138253e+000	-5.9637861906e-001
 2.0227098651e+000	 1.3824416088e+000	-6.7698801237e-001
 2.0084043782e+000	 1.4031435613e+000	-7.5861927468e-001
 1.9938737883e+000	 1.4237160237e+000	-8.4097447183e-001
 1.9791198248e+000	 1.4441553653e+000	-9.2375420694e-001
 1.9641442943e+000	 1.4644579854e+000	-1.0066582857e+000
 1.9489490805e+000	 1.4846203157e+000	-1.0893863823e+000
 1.9335361428e+000	 1.5046388219e+000	-1.1716387041e+000
 1.9179075161e+000	 1.5245100065e+000	-1.2531166534e+000
 1.9020653096e+000	 1.5442304097e+000	-1.3335234848e+000
 2.0715638903e+000	 1.3543441396e+000	-5.4497823965e-001
 2.0575721546e+000	 1.3755078439e+000	-6.0893720080e-001
 2.0433497617e+000	 1.3965481558e+000	-6.7512306726e-001
 2.0288983004e+000	 1.4174613527e+000	-7.4323013518e-001
 2.0142194392e+000	 1.4382437383e+000	-8.1294980833e-001
 1.9993149250e+000	 1.4588916446e+000	-8.8397128057e-001
 1.9841865830e+000	 1.4794014343e+000	-9.5598222158e-001
 1.9688363160e+000	 1.4997695026e+000	-1.0286694641e+000
 1.9532661034e+000	 1.5199922793e+000	-1.1017196908e+000
 1.9374780009e+000	 1.5400662310e+000	-1.1748201194e+000
 1.9214741392e+000	 1.5599878628e+000	-1.2476591835e+000
 2.0924887780e+000	 1.3680243835e+000	-5.8014027154e-001
 2.0783557117e+000	 1.3894018625e+000	-6.2904559579e-001
 2.0639896582e+000	 1.4106547028e+000	-6.8106735147e-001
 2.0493922227e+000	 1.4317791441e+000	-7.3588946249e-001
 2.0345650901e+000	 1.4527714528e+000	-7.9319220792e-001
 2.0195100253e+000	 1.4736279238e+000	-8.5265292469e-001
 2.0042288717e+000	 1.4943448831e+000	-9.1394671448e-001
 1.9887235515e+000	 1.5149186895e+000	-9.7674715315e-001
 1.9729960641e+000	 1.5353457367e+000	-1.0407270007e+000
 1.9570484858e+000	 1.5556224556e+000	-1.1055589097e+000
 1.9408829689e+000	 1.5757453160e+000	-1.1709161313e+000
 1.7467946721e+000	 1.4181707844e+000	-1.2255184664e+000
 1.7320515667e+000	 1.4361397461e+000	-1.2147585465e+000
 1.7171163925e+000	 1.4539639937e+000	-1.2165356119e+000
 1.7019912862e+000	 1.4716404663e+000	-1.2300127048e+000
 1.6866784494e+000	 1.4891661453e+000	-1.2543227491e+000
 1.6711801475e+000	 1.5065380562e+000	-1.2885709029e+000
 1.6554987083e+000	 1.5237532697e+000	-1.3318369821e+000
 1.6396365210e+000	 1.5408089042e+000	-1.3831779478e+000
 1.6235960349e+000	 1.5577021267e+000	-1.4416304501e+000
 1.6073797585e+000	 1.5744301547e+000	-1.5062134229e+000
 1.5909902577e+000	 1.5909902577e+000	-1.5759307219e+000
 1.7662035017e+000	 1.4339282376e+000	-1.2557300458e+000
 1.7512965841e+000	 1.4520968544e+000	-1.2349666556e+000
 1.7361954635e+000	 1.4701191492e+000	-1.2284890948e+000
 1.7209023004e+000	 1.4879920270e+000	-1.2353653946e+000
 1.7054193211e+000	 1.5057124358e+000	-1.2546311278e+000
 1.6897488158e+000	 1.5232773679e+000	-1.2852919122e+000
 1.6738931384e+000	 1.5406838616e+000	-1.3263259873e+000
 1.6578547045e+000	 1.5579290031e+000	-1.3766868590e+000
 1.6416359909e+000	 1.5750099281e+000	-1.4353060052e+000
 1.6252395336e+000	 1.5919238231e+000	-1.5010956345e+000
 1.6086679272e+000	 1.6086679272e+000	-1.5729514917e+000
 1.7856123314e+000	 1.4496856907e+000	-1.2895714712e+000
 1.7705416015e+000	 1.4680539627e+000	-1.2577397185e+000
 1.7552745345e+000	 1.4862743046e+000	-1.2419446048e+000
 1.7398133147e+000	 1.5043435878e+000	-1.2411580590e+000
 1.7241601927e+000	 1.5222587263e+000	-1.2543171923e+000
 1.7083174841e+000	 1.5400166796e+000	-1.2803269531e+000
 1.6922875685e+000	 1.5576144535e+000	-1.3180628595e+000
 1.6760728881e+000	 1.5750491021e+000	-1.3663738046e+000
 1.6596759468e+000	 1.5923177295e+000	-1.4240849254e+000
 1.6430993087e+000	 1.6094174915e+000	-1.4900005284e+000
 1.6263455968e+000	 1.6263455968e+000	-1.5629070647e+000
 1.8050211611e+000	 1.4654431439e+000	-1.3261903412e+000
 1.7897866190e+000	 1.4840110710e+000	-1.2822882264e+000
 1.7743536055e+000	 1.5024294601e+000	-1.2561766269e+000
 1.7587243290e+000	 1.5206951485e+000	-1.2467302323e+000
 1.7429010644e+000	 1.5388050168e+000	-1.2527865334e+000
 1.7268861525e+000	 1.5567559914e+000	-1.2731486310e+000
 1.7106819986e+000	 1.5745450454e+000	-1.3065881278e+000
 1.6942910717e+000	 1.5921692010e+000	-1.3518480956e+000
 1.6777159028e+000	 1.6096255309e+000	-1.4076461106e+000
 1.6609590838e+000	 1.6269111599e+000	-1.4726773486e+000
 1.6440232663e+000	 1.6440232663e+000	-1.5456177322e+000
 1.8244299908e+000	 1.4812005971e+000	-1.3647513030e+000
 1.8090316364e+000	 1.4999681792e+000	-1.3078377613e+000
 1.7934326766e+000	 1.5185846156e+000	-1.2704727501e+000
 1.7776353433e+000	 1.5370467092e+000	-1.2514325360e+000
 1.7616419361e+000	 1.5553513073e+000	-1.2494537833e+000
 1.7454548208e+000	 1.5734953031e+000	-1.2632365199e+000
 1.7290764287e+000	 1.5914756372e+000	-1.2914471900e+000
 1.7125092552e+000	 1.6092892999e+000	-1.3327217861e+000
 1.6957558587e+000	 1.6269333323e+000	-1.3856690538e+000
 1.6788188589e+000	 1.6444048283e+000	-1.4488737584e+000
 1.6617009358e+000	 1.6617009358e+000	-1.5209000078e+000
 1.8438388205e+000	 1.4969580502e+000	-1.4044351548e+000
 1.8282766538e+000	 1.5159252875e+000	-1.3336282027e+000
 1.8125117476e+000	 1.5347397711e+000	-1.2841329776e+000
 1.7965463576e+000	 1.5533982700e+000	-1.2546260945e+000
 1.7803828077e+000	 1.5718975978e+000	-1.2437421396e+000
 1.7640234891e+000	 1.5902346148e+000	-1.2500767951e+000
 1.7474708588e+000	 1.6084062291e+000	-1.2721900556e+000
 1.7307274388e+000	 1.6264093989e+000	-1.3086095285e+000
 1.7137958146e+000	 1.6442411337e+000	-1.3578338091e+000
 1.6966786340e+000	 1.6618984966e+000	-1.4183359231e+000
 1.6793786053e+000	 1.6793786053e+000	-1.4885668268e+000
 1.8632476502e+000	 1.5127155034e+000	-1.4444380044e+000
 1.8475216712e+000	 1.5318823958e+000	-1.3589129820e+000
 1.8315908186e+000	 1.5508949266e+000	-1.2964690801e+000
 1.8154573719e+000	 1.5697498307e+000	-1.2556819890e+000
 1.7991236794e+000	 1.5884438884e+000	-1.2350829195e+000
 1.7825921574e+000	 1.6069739266e+000	-1.2331618894e+000
 1.7658652889e+000	 1.6253368210e+000	-1.2483711064e+000
 1.7489456224e+000	 1.6435294978e+000	-1.2791284383e+000
 1.7318357706e+000	 1.6615489351e+000	-1.3238209631e+000
 1.7145384091e+000	 1.6793921650e+000	-1.3808085884e+000
 1.6970562749e+000	 1.6970562749e+000	-1.4484277321e+000
 1.8826564799e+000	 1.5284729565e+000	-1.4285043379e+000
 1.8667666886e+000	 1.5478395041e+000	-1.3829583849e+000
 1.8506698896e+000	 1.5670500821e+000	-1.3068039895e+000
 1.8343683862e+000	 1.5861013914e+000	-1.2539807436e+000
 1.8178645510e+000	 1.6049901789e+000	-1.2229151409e+000
 1.8011608257e+000	 1.6237132383e+000	-1.2119901710e+000
 1.7842597190e+000	 1.6422674129e+000	-1.2195488707e+000
 1.7671638059e+000	 1.6606495967e+000	-1.2438979677e+000
 1.7498757265e+000	 1.6788567365e+000	-1.2833116074e+000
 1.7323981842e+000	 1.6968858334e+000	-1.3360351530e+000
 1.7147339444e+000	 1.7147339444e+000	-1.4002890494e+000
 1.9020653096e+000	 1.5442304097e+000	-1.3335234848e+000
 1.8860117060e+000	 1.5637966124e+000	-1.3359452428e+000
 1.8697489607e+000	 1.5832052375e+000	-1.3144712293e+000
 1.8532794005e+000	 1.6024529522e+000	-1.2489118437e+000
 1.8366054227e+000	 1.6215364694e+000	-1.2066851297e+000
 1.8197294940e+000	 1.6404525500e+000	-1.1860656401e+000
 1.8026541490e+000	 1.6591980048e+000	-1.1852858116e+000
 1.7853819895e+000	 1.6777696957e+000	-1.2025397853e+000
 1.7679156825e+000	 1.6961645380e+000	-1.2359873124e+000
 1.7502579593e+000	 1.7143795018e+000	-1.2837577380e+000
 1.7324116139e+000	 1.7324116139e+000	-1.3439540512e+000
 1.9214741392e+000	 1.5599878628e+000	-1.2476591835e+000
 1.9052567234e+000	 1.5797537207e+000	-1.2432260193e+000
 1.8888280317e+000	 1.5993603930e+000	-1.2451384492e+000
 1.8721904147e+000	 1.6188045129e+000	-1.2398732837e+000
 1.8553462943e+000	 1.6380827599e+000	-1.1858461509e+000
 1.8382981623e+000	 1.6571918618e+000	-1.1548976447e+000
 1.8210485791e+000	 1.6761285967e+000	-1.1451481288e+000
 1.8036001731e+000	 1.6948897946e+000	-1.1546776652e+000
 1.7859556384e+000	 1.7134723394e+000	-1.1815301037e+000
 1.7681177343e+000	 1.7318731702e+000	-1.2237172510e+000
 1.7500892834e+000	 1.7500892834e+000	-1.2792231111e+000
 1.9408829689e+000	 1.5757453160e+000	-1.1709161313e+000
 1.9245017408e+000	 1.5957108290e+000	-1.1587487464e+000
 1.9079071027e+000	 1.6155155485e+000	-1.1536678168e+000
 1.8911014290e+000	 1.6351560736e+000	-1.1553195048e+000
 1.8740871660e+000	 1.6546290504e+000	-1.1598580611e+000
 1.8568668306e+000	 1.6739311735e+000	-1.1180006135e+000
 1.8394430092e+000	 1.6930591885e+000	-1.0987055713e+000
 1.8218183566e+000	 1.7120098935e+000	-1.0999373812e+000
 1.8039955943e+000	 1.7307801408e+000	-1.1196224388e+000
 1.7859775094e+000	 1.7493668386e+000	-1.1556534471e+000
 1.7677669530e+000	 1.7677669530e+000	-1.2058938485e+000
 1.5909902577e+000	 1.5909902577e+000	-1.5759307219e+000
 1.5744301547e+000	 1.6073797585e+000	-1.6267273948e+000
 1.5577021267e+000	 1.6235960349e+000	-1.6655433663e+000
 1.5408089042e+000	 1.6396365210e+000	-1.6913615701e+000
 1.5237532697e+000	 1.6554987083e+000	-1.7031749425e+000
 1.5065380562e+000	 1.6711801475e+000	-1.6999891359e+000
 1.4891661453e+000	 1.6866784494e+000	-1.6808252143e+000
 1.4716404663e+000	 1.7019912862e+000	-1.6447223218e+000
 1.4539639937e+000	 1.7171163925e+000	-1.5907403175e+000
 1.4361397461e+000	 1.7320515667e+000	-1.5179623687e+000
 1.4181707844e+000	 1.7467946721e+000	-1.4254974969e+000
 1.6086679272e+000	 1.6086679272e+000	-1.5729514917e+000
 1.5919238231e+000	 1.6252395336e+000	-1.6265364773e+000
 1.5750099281e+000	 1.6416359909e+000	-1.6679451754e+000
 1.5579290031e+000	 1.6578547045e+000	-1.6960994621e+000
 1.5406838616e+000	 1.6738931384e+000	-1.7099314433e+000
 1.5232773679e+000	 1.6897488158e+000	-1.7083862898e+000
 1.5057124358e+000	 1.7054193211e+000	-1.6904250518e+000
 1.4879920270e+000	 1.7209023004e+000	-1.6550274464e+000
 1.4701191492e+000	 1.7361954635e+000	-1.6011946097e+000
 1.4520968544e+000	 1.7512965841e+000	-1.5279518067e+000
 1.4339282376e+000	 1.7662035017e+000	-1.4343510914e+000
 1.6263455968e+000	 1.6263455968e+000	-1.5629070647e+000
 1.6094174915e+000	 1.6430993087e+000	-1.6198383420e+000
 1.5923177295e+000	 1.6596759468e+000	-1.6644081833e+000
 1.5750491021e+000	 1.6760728881e+000	-1.6954754100e+000
 1.5576144535e+000	 1.6922875685e+000	-1.7119092945e+000
 1.5400166796e+000	 1.7083174841e+000	-1.7125925180e+000
 1.5222587263e+000	 1.7241601927e+000	-1.6964241087e+000
 1.5043435878e+000	 1.7398133147e+000	-1.6623223512e+000
 1.4862743046e+000	 1.7552745345e+000	-1.6092276592e+000
 1.4680539627e+000	 1.7705416015e+000	-1.5361054054e+000
 1.4496856907e+000	 1.7856123314e+000	-1.4419486988e+000
 1.6440232663e+000	 1.6440232663e+000	-1.5456177322e+000
 1.6269111599e+000	 1.6609590838e+000	-1.6064716143e+000
 1.6096255309e+000	 1.6777159028e+000	-1.6547893002e+000
 1.5921692010e+000	 1.6942910717e+000	-1.6893645325e+000
 1.5745450454e+000	 1.7106819986e+000	-1.7090017185e+000
 1.5567559914e+000	 1.7268861525e+000	-1.7125190147e+000
 1.5388050168e+000	 1.7429010644e+000	-1.6987513915e+000
 1.5206951485e+000	 1.7587243290e+000	-1.6665536679e+000
 1.5024294601e+000	 1.7743536055e+000	-1.6148035091e+000
 1.4840110710e+000	 1.7897866190e+000	-1.5424043783e+000
 1.4654431439e+000	 1.8050211611e+000	-1.4482884356e+000
 1.6617009358e+000	 1.6617009358e+000	-1.5209000078e+000
 1.6444048283e+000	 1.6788188589e+000	-1.5862711949e+000
 1.6269333323e+000	 1.6957558587e+000	-1.6389417718e+000
 1.6092892999e+000	 1.7125092552e+000	-1.6776383505e+000
 1.5914756372e+000	 1.7290764287e+000	-1.7010984138e+000
 1.5734953031e+000	 1.7454548208e+000	-1.7080735307e+000
 1.5553513073e+000	 1.7616419361e+000	-1.6973325507e+000
 1.5370467092e+000	 1.7776353433e+000	-1.6676647670e+000
 1.5185846156e+000	 1.7934326766e+000	-1.6178830423e+000
 1.4999681792e+000	 1.8090316364e+000	-1.5468268866e+000
 1.4812005971e+000	 1.8244299908e+000	-1.4533654802e+000
 1.6793786053e+000	 1.6793786053e+000	-1.4885668268e+000
 1.6618984966e+000	 1.6966786340e+000	-1.5590684561e+000
 1.6442411337e+000	 1.7137958146e+000	-1.6167153721e+000
 1.6264093989e+000	 1.7307274388e+000	-1.6601649763e+000
 1.6084062291e+000	 1.7474708588e+000	-1.6880857403e+000
 1.5902346148e+000	 1.7640234891e+000	-1.6991605551e+000
 1.5718975978e+000	 1.7803828077e+000	-1.6920900579e+000
 1.5533982700e+000	 1.7965463576e+000	-1.6655959292e+000
 1.5347397711e+000	 1.8125117476e+000	-1.6184241478e+000
 1.5159252875e+000	 1.8282766538e+000	-1.5493481996e+000
 1.4969580502e+000	 1.8438388205e+000	-1.4571722278e+000
 1.6970562749e+000	 1.6970562749e+000	-1.4484277321e+000
 1.6793921650e+000	 1.7145384091e+000	-1.5246914255e+000
 1.6615489351e+000	 1.7318357706e+000	-1.5879565841e+000
 1.6435294978e+000	 1.7489456224e+000	-1.6368092915e+000
 1.6253368210e+000	 1.7658652889e+000	-1.6698468934e+000
 1.6069739266e+000	 1.7825921574e+000	-1.6856814844e+000
 1.5884438884e+000	 1.7991236794e+000	-1.6829433714e+000
 1.5697498307e+000	 1.8154573719e+000	-1.6602845063e+000
 1.5508949266e+000	 1.8315908186e+000	-1.6163818765e+000
 1.5318823958e+000	 1.8475216712e+000	-1.5499408456e+000
 1.5127155034e+000	 1.8632476502e+000	-1.4596984354e+000
 1.7147339444e+000	 1.7147339444e+000	-1.4002890494e+000
 1.6968858334e+000	 1.7323981842e+000	-1.4829649584e+000
 1.6788567365e+000	 1.7498757265e+000	-1.5525087694e+000
 1.6606495967e+000	 1.7671638059e+000	-1.6074331132e+000
 1.6422674129e+000	 1.7842597190e+000	-1.6462620669e+000
 1.6237132383e+000	 1.8011608257e+000	-1.6675347826e+000
 1.6049901789e+000	 1.8178645510e+000	-1.6698090908e+000
 1.5861013914e+000	 1.8343683862e+000	-1.6516650726e+000
 1.5670500821e+000	 1.8506698896e+000	-1.6117085879e+000
 1.5478395041e+000	 1.8667666886e+000	-1.5485747531e+000
 1.5284729565e+000	 1.8826564799e+000	-1.4567224854e+000
 1.7324116139e+000	 1.7324116139e+000	-1.3439540512e+000
 1.7143795018e+000	 1.7502579593e+000	-1.4337108995e+000
 1.6961645380e+000	 1.7679156825e+000	-1.5102123279e+000
 1.6777696957e+000	 1.7853819895e+000	-1.5718953506e+000
 1.6591980048e+000	 1.8026541490e+000	-1.6172086063e+000
 1.6404525500e+000	 1.8197294940e+000	-1.6446161306e+000
 1.6215364694e+000	 1.8366054227e+000	-1.6526011039e+000
 1.6024529522e+000	 1.8532794005e+000	-1.6396695661e+000
 1.5832052375e+000	 1.8697489607e+000	-1.6043540870e+000
 1.5637966124e+000	 1.8860117060e+000	-1.5307872888e+000
 1.5442304097e+000	 1.9020653096e+000	-1.4413521386e+000
 1.7500892834e+000	 1.7500892834e+000	-1.2792231111e+000
 1.7318731702e+000	 1.7681177343e+000	-1.3767482354e+000
 1.7134723394e+000	 1.7859556384e+000	-1.4609048467e+000
 1.6948897946e+000	 1.8036001731e+000	-1.5300521517e+000
 1.6761285967e+000	 1.8210485791e+000	-1.5825611525e+000
 1.6571918618e+000	 1.8382981623e+000	-1.6168185666e+000
 1.6380827599e+000	 1.8553462943e+000	-1.6312307228e+000
 1.6188045129e+000	 1.8721904147e+000	-1.6242274220e+000
 1.5993603930e+000	 1.8888280317e+000	-1.5666258841e+000
 1.5797537207e+000	 1.9052567234e+000	-1.4956226803e+000
 1.5599878628e+000	 1.9214741392e+000	-1.4183344802e+000
 1.7677669530e+000	 1.7677669530e+000	-1.2058938485e+000
 1.7493668386e+000	 1.7859775094e+000	-1.3118932369e+000
 1.7307801408e+000	 1.8039955943e+000	-1.4044212411e+000
 1.7120098935e+000	 1.8218183566e+000	-1.4817570415e+000
 1.6930591885e+000	 1.8394430092e+000	-1.5421917773e+000
 1.6739311735e+000	 1.8568668306e+000	-1.5840326185e+000
 1.6546290504e+000	 1.8740871660e+000	-1.6056068130e+000
 1.6351560736e+000	 1.8911014290e+000	-1.5632070838e+000
 1.6155155485e+000	 1.9079071027e+000	-1.5113632932e+000
 1.5957108290e+000	 1.9245017408e+000	-1.4529440284e+000
 1.5757453160e+000	 1.9408829689e+000	-1.3880415843e+000
 1.4181707844e+000	 1.7467946721e+000	-1.4254974969e+000
 1.4000602100e+000	 1.7613436372e+000	-1.4831632951e+000
 1.3818111630e+000	 1.7756964577e+000	-1.5361476848e+000
 1.3634268205e+000	 1.7898511964e+000	-1.5833456011e+000
 1.3449103948e+000	 1.8038059846e+000	-1.6236728395e+000
 1.3262651314e+000	 1.8175590227e+000	-1.6560686528e+000
 1.3074943075e+000	 1.8311085811e+000	-1.6794982788e+000
 1.2886012298e+000	 1.8444530004e+000	-1.6929553937e+000
 1.2695892326e+000	 1.8575906924e+000	-1.6954644839e+000
 1.2504616763e+000	 1.8705201405e+000	-1.6860831312e+000
 1.2312219451e+000	 1.8832399002e+000	-1.5042878472e+000
 1.4339282376e+000	 1.7662035017e+000	-1.4343510914e+000
 1.4156164346e+000	 1.7809141221e+000	-1.4813523787e+000
 1.3971646204e+000	 1.7954264183e+000	-1.5208775692e+000
 1.3785760074e+000	 1.8097384319e+000	-1.5517852330e+000
 1.3598538436e+000	 1.8238482733e+000	-1.5729579211e+000
 1.3410014107e+000	 1.8377541230e+000	-1.5833048381e+000
 1.3220220220e+000	 1.8514542320e+000	-1.5817644391e+000
 1.3029190212e+000	 1.8649469226e+000	-1.5673069474e+000
 1.2836957796e+000	 1.8782305890e+000	-1.5623191162e+000
 1.2643556949e+000	 1.8913036977e+000	-1.6297814788e+000
 1.2449021889e+000	 1.9041647880e+000	-1.6442325402e+000
 1.4496856907e+000	 1.7856123314e+000	-1.4419486988e+000
 1.4311726591e+000	 1.8004846069e+000	-1.4793027378e+000
 1.4125180778e+000	 1.8151563790e+000	-1.5064202098e+000
 1.3937251943e+000	 1.8296256674e+000	-1.5221210843e+000
 1.3747972925e+000	 1.8438905620e+000	-1.5252524319e+000
 1.3557376899e+000	 1.8579492232e+000	-1.5146911743e+000
 1.3365497366e+000	 1.8717998829e+000	-1.4893467548e+000
 1.3172368126e+000	 1.8854408449e+000	-1.5110237933e+000
 1.2978023266e+000	 1.8988704856e+000	-1.5564124951e+000
 1.2782497135e+000	 1.9120872548e+000	-1.6090395739e+000
 1.2585824328e+000	 1.9250896758e+000	-1.6687880777e+000
 1.4654431439e+000	 1.8050211611e+000	-1.4482884356e+000
 1.4467288837e+000	 1.8200550918e+000	-1.4770147457e+000
 1.4278715351e+000	 1.8348863396e+000	-1.4927765076e+000
 1.4088743812e+000	 1.8495129029e+000	-1.4943528405e+000
 1.3897407413e+000	 1.8639328507e+000	-1.4805530835e+000
 1.3704739692e+000	 1.8781443235e+000	-1.4627615026e+000
 1.3510774511e+000	 1.8921455338e+000	-1.4854728718e+000
 1.3315546041e+000	 1.9059347671e+000	-1.5136327620e+000
 1.3119088736e+000	 1.9195103822e+000	-1.5471503025e+000
 1.2921437321e+000	 1.9328708119e+000	-1.5859361906e+000
 1.2722626766e+000	 1.9460145636e+000	-1.6299027530e+000
 1.4812005971e+000	 1.8244299908e+000	-1.4533654802e+000
 1.4622851082e+000	 1.8396255767e+000	-1.4744865693e+000
 1.4432249925e+000	 1.8546163002e+000	-1.4799459563e+000
 1.4240235681e+000	 1.8694001384e+000	-1.4684796434e+000
 1.4046841901e+000	 1.8839751394e+000	-1.4650862454e+000
 1.3852102484e+000	 1.8983394238e+000	-1.4772702713e+000
 1.3656051656e+000	 1.9124911847e+000	-1.4929868437e+000
 1.3458723955e+000	 1.9264286893e+000	-1.5121660680e+000
 1.3260154207e+000	 1.9401502787e+000	-1.5347416546e+000
 1.3060377508e+000	 1.9536543690e+000	-1.5606509571e+000
 1.2859429204e+000	 1.9669394514e+000	-1.5898349922e+000
 1.4969580502e+000	 1.8438388205e+000	-1.4571722278e+000
 1.4778413328e+000	 1.8591960615e+000	-1.4717142858e+000
 1.4585784499e+000	 1.8743462609e+000	-1.4679267154e+000
 1.4391727550e+000	 1.8892873739e+000	-1.4718660634e+000
 1.4196276390e+000	 1.9040174282e+000	-1.4782477325e+000
 1.3999465276e+000	 1.9185345240e+000	-1.4862427820e+000
 1.3801328802e+000	 1.9328368356e+000	-1.4957975616e+000
 1.3601901869e+000	 1.9469226115e+000	-1.5068641079e+000
 1.3401219677e+000	 1.9607901753e+000	-1.5194001639e+000
 1.3199317694e+000	 1.9744379261e+000	-1.5333691791e+000
 1.2996231643e+000	 1.9878643392e+000	-1.5487402895e+000
 1.5127155034e+000	 1.8632476502e+000	-1.4596984354e+000
 1.4933975573e+000	 1.8787665464e+000	-1.4697484613e+000
 1.4739319072e+000	 1.8940762215e+000	-1.4752306536e+000
 1.4543219419e+000	 1.9091746095e+000	-1.4804602372e+000
 1.4345710878e+000	 1.9240597169e+000	-1.4853872772e+000
 1.4146828069e+000	 1.9387296243e+000	-1.4899696061e+000
 1.3946605947e+000	 1.9531824865e+000	-1.4941728576e+000
 1.3745079784e+000	 1.9674165338e+000	-1.4979704765e+000
 1.3542285147e+000	 1.9814300719e+000	-1.5013437048e+000
 1.3338257880e+000	 1.9952214832e+000	-1.5042815444e+000
 1.3133034081e+000	 2.0087892269e+000	-1.5067806960e+000
 1.5284729565e+000	 1.8826564799e+000	-1.4567224854e+000
 1.5089537819e+000	 1.8983370312e+000	-1.4675340906e+000
 1.4892853646e+000	 1.9138061822e+000	-1.4761823104e+000
 1.4694711288e+000	 1.9290618450e+000	-1.4826217717e+000
 1.4495145366e+000	 1.9441020056e+000	-1.4868170076e+000
 1.4294190861e+000	 1.9589247245e+000	-1.4887424910e+000
 1.4091883092e+000	 1.9735281374e+000	-1.4883826408e+000
 1.3888257698e+000	 1.9879104560e+000	-1.4857318014e+000
 1.3683350618e+000	 2.0020699685e+000	-1.4807941945e+000
 1.3477198066e+000	 2.0160050404e+000	-1.4735838454e+000
 1.3269836519e+000	 2.0297141147e+000	-1.4641244821e+000
 1.5442304097e+000	 1.9020653096e+000	-1.4413521386e+000
 1.5245100065e+000	 1.9179075161e+000	-1.4579051435e+000
 1.5046388219e+000	 1.9335361428e+000	-1.4703593718e+000
 1.4846203157e+000	 1.9489490805e+000	-1.4786812668e+000
 1.4644579854e+000	 1.9641442943e+000	-1.4828493638e+000
 1.4441553653e+000	 1.9791198248e+000	-1.4828542996e+000
 1.4237160237e+000	 1.9938737883e+000	-1.4786987921e+000
 1.4031435613e+000	 2.0084043782e+000	-1.4703975888e+000
 1.3824416088e+000	 2.0227098651e+000	-1.4579773862e+000
 1.3616138253e+000	 2.0367885975e+000	-1.4414767187e+000
 1.3406638958e+000	 2.0506390025e+000	-1.4209458197e+000
 1.5599878628e+000	 1.9214741392e+000	-1.4183344802e+000
 1.5400662310e+000	 1.9374780009e+000	-1.4412225519e+000
 1.5199922793e+000	 1.9532661034e+000	-1.4581080889e+000
 1.4997695026e+000	 1.9688363160e+000	-1.4689689052e+000
 1.4794014343e+000	 1.9841865830e+000	-1.4737970819e+000
 1.4588916446e+000	 1.9993149250e+000	-1.4725989543e+000
 1.4382437383e+000	 2.0142194392e+000	-1.4653950639e+000
 1.4174613527e+000	 2.0288983004e+000	-1.4522200780e+000
 1.3965481558e+000	 2.0433497617e+000	-1.4331226754e+000
 1.3755078439e+000	 2.0575721546e+000	-1.4081654006e+000
 1.3543441396e+000	 2.0715638903e+000	-1.3774244844e+000
 1.5757453160e+000	 1.9408829689e+000	-1.3880415843e+000
 1.5556224556e+000	 1.9570484858e+000	-1.4178456389e+000
 1.5353457367e+000	 1.9729960641e+000	-1.4397736863e+000
 1.5149186895e+000	 1.9887235515e+000	-1.4538144731e+000
 1.4943448831e+000	 2.0042288717e+000	-1.4599731797e+000
 1.4736279238e+000	 2.0195100253e+000	-1.4582713838e+000
 1.4527714528e+000	 2.0345650901e+000	-1.4487469870e+000
 1.4317791441e+000	 2.0493922227e+000	-1.4314541044e+000
 1.4106547028e+000	 2.0639896582e+000	-1.4064629183e+000
 1.3894018625e+000	 2.0783557117e+000	-1.3738594965e+000
 1.3680243835e+000	 2.0924887780e+000	-1.3337455755e+000
 1.2312219451e+000	 1.8832399002e+000	-1.5042878472e+000
 1.2118734454e+000	 1.8957485995e+000	-1.4390410667e+000
 1.1924196034e+000	 1.9080449390e+000	-1.3961751263e+000
 1.1728638638e+000	 1.9201276929e+000	-1.3737173706e+000
 1.1532096875e+000	 1.9319957082e+000	-1.3697163056e+000
 1.1334605497e+000	 1.9436479059e+000	-1.3822449328e+000
 1.1136199380e+000	 1.9550832805e+000	-1.4094039818e+000
 1.0936913507e+000	 1.9663009000e+000	-1.4493250387e+000
 1.0736782945e+000	 1.9772999064e+000	-1.5001735610e+000
 1.0535842829e+000	 1.9880795152e+000	-1.5601517759e+000
 1.0334128344e+000	 1.9986390154e+000	-1.6275014557e+000
 1.2449021889e+000	 1.9041647880e+000	-1.6442325402e+000
 1.2253387059e+000	 1.9168124728e+000	-1.5421704961e+000
 1.2056687101e+000	 1.9292454384e+000	-1.4654510163e+000
 1.1858956845e+000	 1.9414624450e+000	-1.4120802321e+000
 1.1660231285e+000	 1.9534623272e+000	-1.3800837067e+000
 1.1460545558e+000	 1.9652439938e+000	-1.3675098575e+000
 1.1259934929e+000	 1.9768064280e+000	-1.3724332789e+000
 1.1058434768e+000	 1.9881486878e+000	-1.3929579585e+000
 1.0856080533e+000	 1.9992699054e+000	-1.4272203813e+000
 1.0652907750e+000	 2.0101692876e+000	-1.4733925158e+000
 1.0448951992e+000	 2.0208461156e+000	-1.5296846763e+000
 1.2585824328e+000	 1.9250896758e+000	-1.6687880777e+000
 1.2388039664e+000	 1.9378763461e+000	-1.6328892910e+000
 1.2189178168e+000	 1.9504459377e+000	-1.5250738194e+000
 1.1989275052e+000	 1.9627971972e+000	-1.4434848557e+000
 1.1788365695e+000	 1.9749289462e+000	-1.3861223382e+000
 1.1586485619e+000	 1.9868400816e+000	-1.3510074941e+000
 1.1383670478e+000	 1.9985295756e+000	-1.3361862548e+000
 1.1179956029e+000	 2.0099964756e+000	-1.3397325636e+000
 1.0975378121e+000	 2.0212399043e+000	-1.3597515712e+000
 1.0769972670e+000	 2.0322590600e+000	-1.3943827127e+000
 1.0563775640e+000	 2.0430532157e+000	-1.4418026594e+000
 1.2722626766e+000	 1.9460145636e+000	-1.6299027530e+000
 1.2522692269e+000	 1.9589402195e+000	-1.6869820208e+000
 1.2321669235e+000	 1.9716464370e+000	-1.5744774532e+000
 1.2119593259e+000	 1.9841319493e+000	-1.4673246721e+000
 1.1916500104e+000	 1.9963955652e+000	-1.3871866807e+000
 1.1712425680e+000	 2.0084361695e+000	-1.3320549049e+000
 1.1507406026e+000	 2.0202527232e+000	-1.2999440794e+000
 1.1301477291e+000	 2.0318442634e+000	-1.2888956506e+000
 1.1094675710e+000	 2.0432099033e+000	-1.2969810665e+000
 1.0887037590e+000	 2.0543488324e+000	-1.3223049459e+000
 1.0678599288e+000	 2.0652603159e+000	-1.3630081236e+000
 1.2859429204e+000	 1.9669394514e+000	-1.5898349922e+000
 1.2657344874e+000	 1.9800040928e+000	-1.6191604078e+000
 1.2454160302e+000	 1.9928469363e+000	-1.6131085907e+000
 1.2249911467e+000	 2.0054667014e+000	-1.4830084803e+000
 1.2044634514e+000	 2.0178621842e+000	-1.3826491192e+000
 1.1838365741e+000	 2.0300322573e+000	-1.3099895141e+000
 1.1631141575e+000	 2.0419758707e+000	-1.2630106630e+000
 1.1422998552e+000	 2.0536920511e+000	-1.2397190558e+000
 1.1213973298e+000	 2.0651799023e+000	-1.2381500605e+000
 1.1004102511e+000	 2.0764386048e+000	-1.2563711892e+000
 1.0793422937e+000	 2.0874674161e+000	-1.2924852370e+000
 1.2996231643e+000	 1.9878643392e+000	-1.5487402895e+000
 1.2791997479e+000	 2.0010679661e+000	-1.5522367238e+000
 1.2586651369e+000	 2.0140474357e+000	-1.5650292575e+000
 1.2380229674e+000	 2.0268014536e+000	-1.4899596397e+000
 1.2172768924e+000	 2.0393288031e+000	-1.3718990009e+000
 1.1964305802e+000	 2.0516283452e+000	-1.2841680364e+000
 1.1754877124e+000	 2.0636990183e+000	-1.2247114600e+000
 1.1544519813e+000	 2.0755398389e+000	-1.1914983369e+000
 1.1333270886e+000	 2.0871499012e+000	-1.1825255700e+000
 1.1121167431e+000	 2.0985283772e+000	-1.1958212642e+000
 1.0908246585e+000	 2.1096745162e+000	-1.2294479626e+000
 1.3133034081e+000	 2.0087892269e+000	-1.5067806960e+000
 1.2926650084e+000	 2.0221318395e+000	-1.4863141221e+000
 1.2719142436e+000	 2.0352479350e+000	-1.4773951409e+000
 1.2510547881e+000	 2.0481362057e+000	-1.4796688865e+000
 1.2300903333e+000	 2.0607954221e+000	-1.3543417517e+000
 1.2090245863e+000	 2.0732244330e+000	-1.2539654725e+000
 1.1878612672e+000	 2.0854221659e+000	-1.1843923466e+000
 1.1666041074e+000	 2.0973876267e+000	-1.1435515380e+000
 1.1452568475e+000	 2.1091199002e+000	-1.1293990896e+000
 1.1238232351e+000	 2.1206181496e+000	-1.1399213894e+000
 1.1023070233e+000	 2.1318816164e+000	-1.1731385058e+000
 1.3269836519e+000	 2.0297141147e+000	-1.4641244821e+000
 1.3061302689e+000	 2.0431957128e+000	-1.4215043295e+000
 1.2851633503e+000	 2.0564484343e+000	-1.3926288749e+000
 1.2640866088e+000	 2.0694709579e+000	-1.3771831914e+000
 1.2429037743e+000	 2.0822620411e+000	-1.3293980475e+000
 1.2216185925e+000	 2.0948205209e+000	-1.2187741660e+000
 1.2002348221e+000	 2.1071453134e+000	-1.1414185681e+000
 1.1787562335e+000	 2.1192354145e+000	-1.0952180300e+000
 1.1571866063e+000	 2.1310898991e+000	-1.0780853306e+000
 1.1355297272e+000	 2.1427079219e+000	-1.0879628202e+000
 1.1137893881e+000	 2.1540887166e+000	-1.1228258592e+000
 1.3406638958e+000	 2.0506390025e+000	-1.4209458197e+000
 1.3195955294e+000	 2.0642595861e+000	-1.3579272095e+000
 1.2984124570e+000	 2.0776489336e+000	-1.3107972636e+000
 1.2771184295e+000	 2.0908057100e+000	-1.2792803692e+000
 1.2557172153e+000	 2.1037286601e+000	-1.2630967038e+000
 1.2342125986e+000	 2.1164166087e+000	-1.1780029189e+000
 1.2126083770e+000	 2.1288684610e+000	-1.0951737504e+000
 1.1909083597e+000	 2.1410832022e+000	-1.0458574230e+000
 1.1691163651e+000	 2.1530598981e+000	-1.0279210359e+000
 1.1472362192e+000	 2.1647976943e+000	-1.0392605709e+000
 1.1252717530e+000	 2.1762958168e+000	-1.0778044355e+000
 1.3543441396e+000	 2.0715638903e+000	-1.3774244844e+000
 1.3330607899e+000	 2.0853234594e+000	-1.2957103509e+000
 1.3116615637e+000	 2.0988494330e+000	-1.2319769006e+000
 1.2901502502e+000	 2.1121404622e+000	-1.1859872300e+000
 1.2685306563e+000	 2.1251952790e+000	-1.1574982614e+000
 1.2468066047e+000	 2.1380126965e+000	-1.1310761604e+000
 1.2249819318e+000	 2.1505916085e+000	-1.0450589725e+000
 1.2030604858e+000	 2.1629309900e+000	-9.9484854381e-001
 1.1810461240e+000	 2.1750298971e+000	-9.7826386784e-001
 1.1589427112e+000	 2.1868874667e+000	-9.9315221515e-001
 1.1367541178e+000	 2.1985029169e+000	-1.0373927837e+000
 1.3680243835e+000	 2.0924887780e+000	-1.3337455755e+000
 1.3465260504e+000	 2.1063873328e+000	-1.2349886815e+000
 1.3249106704e+000	 2.1200499323e+000	-1.1562536794e+000
 1.3031820709e+000	 2.1334752143e+000	-1.0973417889e+000
 1.2813440973e+000	 2.1466618980e+000	-1.0580461353e+000
 1.2594006108e+000	 2.1596087844e+000	-1.0381519368e+000
 1.2373554867e+000	 2.1723147561e+000	-9.9049189284e-001
 1.2152126119e+000	 2.1847787778e+000	-9.4158847509e-001
 1.1929758828e+000	 2.1969998960e+000	-9.2849136177e-001
 1.1706492033e+000	 2.2089772391e+000	-9.4899675765e-001
 1.1482364826e+000	 2.2207100171e+000	-1.0009323826e+000
 1.0334128344e+000	 1.9986390154e+000	-1.6275014557e+000
 1.0131674701e+000	 2.0089777693e+000	-1.5051835525e+000
 9.9285171243e-001	 2.0190952125e+000	-1.3994486310e+000
 9.7246908310e-001	 2.0289908532e+000	-1.3091560287e+000
 9.5202310113e-001	 2.0386642723e+000	-1.2331980935e+000
 9.3151728120e-001	 2.0481151225e+000	-1.1705019928e+000
 9.1095513182e-001	 2.0573431284e+000	-1.1200314036e+000
 8.9034015358e-001	 2.0663480856e+000	-1.0807880820e+000
 8.6967583741e-001	 2.0751298605e+000	-1.0518133096e+000
 8.4896566288e-001	 2.0836883892e+000	-1.0321892163e+000
 8.2821309651e-001	 2.0920236774e+000	-1.0210399789e+000
 1.0448951992e+000	 2.0208461156e+000	-1.5296846763e+000
 1.0244248864e+000	 2.0312997445e+000	-1.4152255002e+000
 1.0038833981e+000	 2.0415296038e+000	-1.3169305032e+000
 9.8327429514e-001	 2.0515351960e+000	-1.2335596326e+000
 9.6260113559e-001	 2.0613160975e+000	-1.1639084723e+000
 9.4186747321e-001	 2.0708719572e+000	-1.1068101571e+000
 9.2107685550e-001	 2.0802024965e+000	-1.0611371613e+000
 9.0023282195e-001	 2.0893075088e+000	-1.0258029603e+000
 8.7933890227e-001	 2.0981868589e+000	-9.9976356220e-001
 8.5839861469e-001	 2.1068404824e+000	-9.8201890883e-001
 8.3741546425e-001	 2.1152683849e+000	-9.7161414595e-001
 1.0563775640e+000	 2.0430532157e+000	-1.4418026594e+000
 1.0356823027e+000	 2.0536217198e+000	-1.3342587509e+000
 1.0149150838e+000	 2.0639639950e+000	-1.2424475856e+000
 9.9407950717e-001	 2.0740795389e+000	-1.1650288367e+000
 9.7317917004e-001	 2.0839679228e+000	-1.1007004847e+000
 9.5221766522e-001	 2.0936287919e+000	-1.0482008379e+000
 9.3119857919e-001	 2.1030618646e+000	-1.0063104216e+000
 9.1012549032e-001	 2.1122669320e+000	-9.7385373153e-001
 8.8900196713e-001	 2.1212438574e+000	-9.4970085231e-001
 8.6783156650e-001	 2.1299925756e+000	-9.3276893755e-001
 8.4661783199e-001	 2.1385130925e+000	-9.2202355199e-001
 1.0678599288e+000	 2.0652603159e+000	-1.3630081236e+000
 1.0469397191e+000	 2.0759436950e+000	-1.2615059360e+000
 1.0259467695e+000	 2.0863983863e+000	-1.1752916018e+000
 1.0048847192e+000	 2.0966238817e+000	-1.1029235928e+000
 9.8375720450e-001	 2.1066197480e+000	-1.0430014048e+000
 9.6256785724e-001	 2.1163856266e+000	-9.9416768569e-001
 9.4132030288e-001	 2.1259212327e+000	-9.5511022522e-001
 9.2001815870e-001	 2.1352263552e+000	-9.2456380302e-001
 8.9866503199e-001	 2.1443008558e+000	-9.0131189352e-001
 8.7726451831e-001	 2.1531446689e+000	-8.8418822633e-001
 8.5582019972e-001	 2.1617578000e+000	-8.7207820121e-001
 1.0793422937e+000	 2.0874674161e+000	-1.2924852370e+000
 1.0581971354e+000	 2.0982656702e+000	-1.1962189270e+000
 1.0369784552e+000	 2.1088327775e+000	-1.1147813203e+000
 1.0156899312e+000	 2.1191682245e+000	-1.0466287185e+000
 9.9433523896e-001	 2.1292715733e+000	-9.9026121025e-001
 9.7291804925e-001	 2.1391424613e+000	-9.4422490914e-001
 9.5144202657e-001	 2.1487806008e+000	-9.0711404500e-001
 9.2991082707e-001	 2.1581857783e+000	-8.7757290720e-001
 9.0832809685e-001	 2.1673578543e+000	-8.5429763748e-001
 8.8669747012e-001	 2.1762967621e+000	-8.3603787121e-001
 8.6502256746e-001	 2.1850025075e+000	-8.2159822591e-001
 1.0908246585e+000	 2.1096745162e+000	-1.2294479626e+000
 1.0694545517e+000	 2.1205876454e+000	-1.1376772963e+000
 1.0480101409e+000	 2.1312671688e+000	-1.0602611313e+000
 1.0264951433e+000	 2.1417125673e+000	-9.9555258840e-001
 1.0049132734e+000	 2.1519233985e+000	-9.4195138705e-001
 9.8326824127e-001	 2.1618992960e+000	-8.9790619354e-001
 9.6156375025e-001	 2.1716399689e+000	-8.6191681568e-001
 9.3980349544e-001	 2.1811452015e+000	-8.3253624220e-001
 9.1799116171e-001	 2.1904148527e+000	-8.0837252457e-001
 8.9613042193e-001	 2.1994488553e+000	-7.8809049980e-001
 8.7422493520e-001	 2.2082472150e+000	-7.7041335348e-001
 1.1023070233e+000	 2.1318816164e+000	-1.1731385058e+000
 1.0807119681e+000	 2.1429096206e+000	-1.0851868749e+000
 1.0590418266e+000	 2.1537015600e+000	-1.0110997124e+000
 1.0373003553e+000	 2.1642569101e+000	-9.4912590764e-001
 1.0154913079e+000	 2.1745752237e+000	-8.9756380953e-001
 9.9361843328e-001	 2.1846561306e+000	-8.5476368621e-001
 9.7168547394e-001	 2.1944993369e+000	-8.1913002448e-001
 9.4969616382e-001	 2.2041046247e+000	-7.8912366646e-001
 9.2765422657e-001	 2.2134718512e+000	-7.6326378130e-001
 9.0556337374e-001	 2.2226009485e+000	-7.4012967064e-001
 8.8342730294e-001	 2.2314919226e+000	-7.1836240663e-001
 1.1137893881e+000	 2.1540887166e+000	-1.1228258592e+000
 1.0919693844e+000	 2.1652315958e+000	-1.0380783982e+000
 1.0700735123e+000	 2.1761359513e+000	-9.6668877608e-001
 1.0481055673e+000	 2.1868012529e+000	-9.0680056032e-001
 1.0260693423e+000	 2.1972270490e+000	-8.5660968928e-001
 1.0039686253e+000	 2.2074129653e+000	-8.1436704489e-001
 9.8180719763e-001	 2.2173587050e+000	-7.7838085789e-001
 9.5958883219e-001	 2.2270640479e+000	-7.4701894295e-001
 9.3731729143e-001	 2.2365288496e+000	-7.1871076132e-001
 9.1499632555e-001	 2.2457530417e+000	-6.9194930981e-001
 8.9262967068e-001	 2.2547366301e+000	-6.6529283461e-001
 1.1252717530e+000	 2.1762958168e+000	-1.0778044355e+000
 1.1032268007e+000	 2.1875535710e+000	-9.9570623611e-001
 1.0811051980e+000	 2.1985703425e+000	-9.2644189512e-001
 1.0589107794e+000	 2.2093455957e+000	-8.6804852922e-001
 1.0366473768e+000	 2.2198788742e+000	-8.1861858862e-001
 1.0143188173e+000	 2.2301698000e+000	-7.7630254435e-001
 9.9192892132e-001	 2.2402180731e+000	-7.3931140069e-001
 9.6948150057e-001	 2.2500234710e+000	-7.0591902982e-001
 9.4698035630e-001	 2.2595858481e+000	-6.7446432662e-001
 9.2442927736e-001	 2.2689051349e+000	-6.4335318190e-001
 9.0183203843e-001	 2.2779813376e+000	-6.1106027302e-001
 1.1367541178e+000	 2.1985029169e+000	-1.0373927837e+000
 1.1144842171e+000	 2.2098755463e+000	-9.5744719873e-001
 1.0921368837e+000	 2.2210047338e+000	-8.8979339813e-001
 1.0697159914e+000	 2.2318899385e+000	-8.3236088063e-001
 1.0472254113e+000	 2.2425306995e+000	-7.8313749375e-001
 1.0246690093e+000	 2.2529266347e+000	-7.4017223713e-001
 1.0020506450e+000	 2.2630774412e+000	-7.0157788345e-001
 9.7937416894e-001	 2.2729828942e+000	-6.6553341396e-001
 9.5664342116e-001	 2.2826428465e+000	-6.3028626631e-001
 9.3386222918e-001	 2.2920572281e+000	-5.9415439319e-001
 9.1103440617e-001	 2.3012260451e+000	-5.5552813040e-001
 1.1482364826e+000	 2.2207100171e+000	-1.0009323826e+000
 1.1257416334e+000	 2.2321975215e+000	-9.2269941477e-001
 1.1031685694e+000	 2.2434391250e+000	-8.5619733190e-001
 1.0805212035e+000	 2.2544342814e+000	-7.9924681020e-001
 1.0578034457e+000	 2.2651825247e+000	-7.4972994360e-001
 1.0350192013e+000	 2.2756834694e+000	-7.0559316466e-001
 1.0121723687e+000	 2.2859368093e+000	-6.6484997533e-001
 9.8926683732e-001	 2.2959423174e+000	-6.2558348454e-001
 9.6630648602e-001	 2.3056998450e+000	-5.8594875029e-001
 9.4329518099e-001	 2.3152093213e+000	-5.4417492452e-001
 9.2023677391e-001	 2.3244707527e+000	-4.9856719957e-001
 8.2821309651e-001	 2.0920236774e+000	-1.0210399789e+000
 8.0742159012e-001	 2.1001357994e+000	-9.4392819764e-001
 7.8659457923e-001	 2.1080248974e+000	-8.7413595877e-001
 7.6573548144e-001	 2.1156911808e+000	-8.1071504893e-001
 7.4484769492e-001	 2.1231349254e+000	-7.5276523096e-001
 7.2393459685e-001	 2.1303564724e+000	-6.9943499756e-001
 7.0299954197e-001	 2.1373562277e+000	-6.4992219743e-001
 6.8204586113e-001	 2.1441346607e+000	-6.0347453513e-001
 6.6107685984e-001	 2.1506923038e+000	-5.5938994663e-001
 6.4009581698e-001	 2.1570297506e+000	-5.1701685269e-001
 6.1910598340e-001	 2.1631476559e+000	-4.3614271768e-001
 8.3741546425e-001	 2.1152683849e+000	-9.7161414595e-001
 8.1639294112e-001	 2.1234706416e+000	-8.8849753871e-001
 7.9533451899e-001	 2.1314473962e+000	-8.1382606520e-001
 7.7424365345e-001	 2.1391988606e+000	-7.4663442244e-001
 7.5312378041e-001	 2.1467253135e+000	-6.8600575629e-001
 7.3197831459e-001	 2.1540270999e+000	-6.3107244422e-001
 7.1081064799e-001	 2.1611046302e+000	-5.8101674752e-001
 6.8962414847e-001	 2.1679583792e+000	-5.3507133442e-001
 6.6842215828e-001	 2.1745888849e+000	-4.9251967604e-001
 6.4720799272e-001	 2.1809967479e+000	-4.5269631737e-001
 6.2598493877e-001	 2.1871826299e+000	-4.1498702564e-001
 8.4661783199e-001	 2.1385130925e+000	-9.2202355199e-001
 8.2536429212e-001	 2.1468054838e+000	-8.3441265237e-001
 8.0407445876e-001	 2.1548698951e+000	-7.5629600679e-001
 7.8275182547e-001	 2.1627065404e+000	-6.8669004853e-001
 7.6139986591e-001	 2.1703157015e+000	-6.2466022710e-001
 7.4002203233e-001	 2.1776977274e+000	-5.6932182017e-001
 7.1862175401e-001	 2.1848530328e+000	-5.1984061197e-001
 6.9720243581e-001	 2.1917820976e+000	-4.7543343952e-001
 6.7576745672e-001	 2.1984854661e+000	-4.3536860871e-001
 6.5432016846e-001	 2.2049637451e+000	-3.9896618241e-001
 6.3286389413e-001	 2.2112176038e+000	-3.6559814308e-001
 8.5582019972e-001	 2.1617578000e+000	-8.7207820121e-001
 8.3433564312e-001	 2.1701403260e+000	-7.8145912095e-001
 8.1281439853e-001	 2.1782923940e+000	-7.0130759304e-001
 7.9125999748e-001	 2.1862142202e+000	-6.3062060818e-001
 7.6967595141e-001	 2.1939060896e+000	-5.6844483540e-001
 7.4806575007e-001	 2.2013683548e+000	-5.1387746342e-001
 7.2643286003e-001	 2.2086014353e+000	-4.6606690520e-001
 7.0478072316e-001	 2.2156058161e+000	-4.2421336717e-001
 6.8311275516e-001	 2.2223820472e+000	-3.8756928520e-001
 6.6143234421e-001	 2.2289307423e+000	-3.5543962940e-001
 6.3974284950e-001	 2.2352525778e+000	-3.2718208040e-001
 8.6502256746e-001	 2.1850025075e+000	-8.2159822591e-001
 8.4330699412e-001	 2.1934751683e+000	-7.2943422243e-001
 8.2155433830e-001	 2.2017148928e+000	-6.4863584152e-001
 7.9976816950e-001	 2.2097219000e+000	-5.7817944745e-001
 7.7795203691e-001	 2.2174964776e+000	-5.1709183969e-001
 7.5610946781e-001	 2.2250389823e+000	-4.6445112394e-001
 7.3424396605e-001	 2.2323498378e+000	-4.1938744292e-001
 7.1235901050e-001	 2.2394295346e+000	-3.8108356847e-001
 6.9045805361e-001	 2.2462786284e+000	-3.4877535707e-001
 6.6854451995e-001	 2.2528977396e+000	-3.2175207101e-001
 6.4662180487e-001	 2.2592875518e+000	-2.9935656770e-001
 8.7422493520e-001	 2.2082472150e+000	-7.7041335348e-001
 8.5227834513e-001	 2.2168100105e+000	-6.7814631479e-001
 8.3029427807e-001	 2.2251373917e+000	-5.9806828267e-001
 8.0827634151e-001	 2.2332295797e+000	-5.2913380564e-001
 7.8622812241e-001	 2.2410868657e+000	-4.7034871932e-001
 7.6415318556e-001	 2.2487096098e+000	-4.2077104725e-001
 7.4205507208e-001	 2.2560982403e+000	-3.7951175792e-001
 7.1993729785e-001	 2.2632532530e+000	-3.4573537973e-001
 6.9780335205e-001	 2.2701752095e+000	-3.1866047577e-001
 6.7565669569e-001	 2.2768647368e+000	-2.9755998087e-001
 6.5350076025e-001	 2.2833225257e+000	-2.8176140352e-001
 8.8342730294e-001	 2.2314919226e+000	-7.1836240663e-001
 8.6124969613e-001	 2.2401448527e+000	-6.2741425901e-001
 8.3903421784e-001	 2.2485598905e+000	-5.4940430807e-001
 8.1678451353e-001	 2.2567372595e+000	-4.8326409169e-001
 7.9450420791e-001	 2.2646772538e+000	-4.2797738180e-001
 7.7219690330e-001	 2.2723802372e+000	-3.8258111527e-001
 7.4986617810e-001	 2.2798466429e+000	-3.4616617726e-001
 7.2751558520e-001	 2.2870769715e+000	-3.1787803885e-001
 7.0514865049e-001	 2.2940717907e+000	-2.9691725094e-001
 6.8276887144e-001	 2.3008317340e+000	-2.8253979669e-001
 6.6037971562e-001	 2.3073574997e+000	-2.7405730545e-001
 8.9262967068e-001	 2.2547366301e+000	-6.6529283461e-001
 8.7022104713e-001	 2.2634796949e+000	-5.7706687765e-001
 8.4777415761e-001	 2.2719823894e+000	-5.0245455910e-001
 8.2529268555e-001	 2.2802449393e+000	-4.4036320533e-001
 8.0278029341e-001	 2.2882676418e+000	-3.8975341902e-001
 7.8024062105e-001	 2.2960508647e+000	-3.4964004032e-001
 7.5767728412e-001	 2.3035950454e+000	-3.1909295657e-001
 7.3509387254e-001	 2.3109006899e+000	-2.9723776259e-001
 7.1249394894e-001	 2.3179683718e+000	-2.8325627325e-001
 6.8988104719e-001	 2.3247987313e+000	-2.7638689113e-001
 6.6725867099e-001	 2.3313924736e+000	-2.7592483180e-001
 9.0183203843e-001	 2.2779813376e+000	-6.1106027302e-001
 8.7919239814e-001	 2.2868145371e+000	-5.2694244658e-001
 8.5651409738e-001	 2.2954048883e+000	-4.5704035289e-001
 8.3380085757e-001	 2.3037526191e+000	-4.0023589976e-001
 8.1105637891e-001	 2.3118580299e+000	-3.5546540909e-001
 7.8828433879e-001	 2.3197214922e+000	-3.2172060846e-001
 7.6548839015e-001	 2.3273434479e+000	-2.9804946744e-001
 7.4267215989e-001	 2.3347244084e+000	-2.8355688024e-001
 7.1983924738e-001	 2.3418649530e+000	-2.7740519696e-001
 6.9699322293e-001	 2.3487657285e+000	-2.7881460581e-001
 6.7413762637e-001	 2.3554274476e+000	-2.8706336937e-001
 9.1103440617e-001	 2.3012260451e+000	-5.5552813040e-001
 8.8816374914e-001	 2.3101493793e+000	-4.7688821757e-001
 8.6525403716e-001	 2.3188273871e+000	-4.1299314322e-001
 8.4230902959e-001	 2.3272602989e+000	-3.6269818306e-001
 8.1933246442e-001	 2.3354484179e+000	-3.2491426047e-001
 7.9632805654e-001	 2.3433921197e+000	-2.9860896872e-001
 7.7329949618e-001	 2.3510918505e+000	-2.8280743390e-001
 7.5025044724e-001	 2.3585481268e+000	-2.7659301992e-001
 7.2718454583e-001	 2.3657615341e+000	-2.7910787811e-001
 7.0410539868e-001	 2.3727327257e+000	-2.8955334371e-001
 6.8101658174e-001	 2.3794624215e+000	-3.0719018248e-001
 9.2023677391e-001	 2.3244707527e+000	-4.9856719957e-001
 8.9713510015e-001	 2.3334842215e+000	-4.2675996950e-001
 8.7399397693e-001	 2.3422498860e+000	-3.7015401362e-001
 8.5081720161e-001	 2.3507679787e+000	-3.2757675538e-001
 8.2760854992e-001	 2.3590388060e+000	-2.9791259545e-001
 8.0437177429e-001	 2.3670627471e+000	-2.8010396493e-001
 7.8111060220e-001	 2.3748402530e+000	-2.7315221486e-001
 7.5782873460e-001	 2.3823718453e+000	-2.7611834360e-001
 7.3452984428e-001	 2.3896581153e+000	-2.8812356446e-001
 7.1121757443e-001	 2.3966997229e+000	-3.0834971616e-001
 6.8789553712e-001	 2.4034973955e+000	-3.3603951909e-001
 6.1910598340e-001	 2.1631476559e+000	-4.3614271768e-001
 5.9811058066e-001	 2.1690467338e+000	-3.7211875512e-001
 5.7711279978e-001	 2.1747277568e+000	-3.1600812760e-001
 5.5611580005e-001	 2.1801915551e+000	-2.6672349365e-001
 5.3512270782e-001	 2.1854390149e+000	-2.2323551366e-001
 5.1413661543e-001	 2.1904710774e+000	-1.8457442923e-001
 4.9316058010e-001	 2.1952887378e+000	-1.4983146812e-001
 4.7219762289e-001	 2.1998930440e+000	-1.1816007561e-001
 4.5125072774e-001	 2.2042850952e+000	-8.8776973357e-002
 4.3032284048e-001	 2.2084660407e+000	-6.0963047304e-002
 4.0941686796e-001	 2.2124370789e+000	-3.4064066838e-002
 6.2598493877e-001	 2.1871826299e+000	-4.1498702564e-001
 6.0475625377e-001	 2.1931472531e+000	-3.4591731158e-001
 5.8352516422e-001	 2.1988913986e+000	-2.7997242988e-001
 5.6229486449e-001	 2.2044159057e+000	-2.2251757913e-001
 5.4106851568e-001	 2.2097216706e+000	-1.7245024576e-001
 5.1984924449e-001	 2.2148096449e+000	-1.2872850281e-001
 4.9864014209e-001	 2.2196808349e+000	-9.0372522499e-002
 4.7744426314e-001	 2.2243363000e+000	-5.6465909360e-002
 4.5626462471e-001	 2.2287771518e+000	-2.6156854909e-002
 4.3510420537e-001	 2.2330045523e+000	 1.3408844642e-003
 4.1396594427e-001	 2.2370197131e+000	 2.6747184428e-002
 6.3286389413e-001	 2.2112176038e+000	-3.6559814308e-001
 6.1140192689e-001	 2.2172477723e+000	-3.3093576269e-001
 5.8993752866e-001	 2.2230550403e+000	-2.5672828846e-001
 5.6847392893e-001	 2.2286402563e+000	-1.9259292320e-001
 5.4701432354e-001	 2.2340043263e+000	-1.3735205210e-001
 5.2556187355e-001	 2.2391482124e+000	-8.9889760512e-002
 5.0411970409e-001	 2.2440729320e+000	-4.9153455293e-002
 4.8269090339e-001	 2.2487795561e+000	-1.4155300693e-002
 4.6127852168e-001	 2.2532692084e+000	 1.6026530293e-002
 4.3988557026e-001	 2.2575430638e+000	 4.2246787548e-002
 4.1851502058e-001	 2.2616023474e+000	 6.5292256404e-002
 6.3974284950e-001	 2.2352525778e+000	-3.2718208040e-001
 6.1804760000e-001	 2.2413482916e+000	-3.2546281189e-001
 5.9634989310e-001	 2.2472186821e+000	-2.4460762928e-001
 5.7465299337e-001	 2.2528646070e+000	-1.7532572447e-001
 5.5296013141e-001	 2.2582869820e+000	-1.1636240583e-001
 5.3127450260e-001	 2.2634867799e+000	-6.6525903867e-002
 5.0959926609e-001	 2.2684650291e+000	-2.4689102710e-002
 4.8793754364e-001	 2.2732228121e+000	 1.0208920235e-002
 4.6629241865e-001	 2.2777612650e+000	 3.9161545433e-002
 4.4466693515e-001	 2.2820815754e+000	 6.3093451699e-002
 4.2306409689e-001	 2.2861849816e+000	 8.2859643987e-002
 6.4662180487e-001	 2.2592875518e+000	-2.9935656770e-001
 6.2469327312e-001	 2.2654488109e+000	-3.2781084826e-001
 6.0276225754e-001	 2.2713823238e+000	-2.4196638811e-001
 5.8083205782e-001	 2.2770889576e+000	-1.6911644911e-001
 5.5890593927e-001	 2.2825696377e+000	-1.0792723918e-001
 5.3698713166e-001	 2.2878253475e+000	-5.7129219335e-002
 5.1507882809e-001	 2.2928571261e+000	-1.5518946544e-002
 4.9318418390e-001	 2.2976660682e+000	 1.8039281750e-002
 4.7130631563e-001	 2.3022533216e+000	 4.4611980395e-002
 4.4944830005e-001	 2.3066200870e+000	 6.5195225186e-002
 4.2761317319e-001	 2.3107676158e+000	 8.0713595399e-002
 6.5350076025e-001	 2.2833225257e+000	-2.8176140352e-001
 6.3133894624e-001	 2.2895493301e+000	-3.0321324164e-001
 6.0917462198e-001	 2.2955459656e+000	-2.4718324695e-001
 5.8701112226e-001	 2.3013133082e+000	-1.7238855358e-001
 5.6485174713e-001	 2.3068522935e+000	-1.1051565614e-001
 5.4269976072e-001	 2.3121639150e+000	-6.0215284379e-002
 5.2055839009e-001	 2.3172492232e+000	-2.0205817039e-002
 4.9843082415e-001	 2.3221093242e+000	 1.0724967577e-002
 4.7632021260e-001	 2.3267453782e+000	 3.3718345095e-002
 4.5422966494e-001	 2.3311585985e+000	 4.9843301185e-002
 4.3216224950e-001	 2.3353502500e+000	 6.0095388325e-002
 6.6037971562e-001	 2.3073574997e+000	-2.7405730545e-001
 6.3798461936e-001	 2.3136498494e+000	-2.8703828182e-001
 6.1558698643e-001	 2.3197096073e+000	-2.5865844922e-001
 5.9319018671e-001	 2.3255376588e+000	-1.8358728724e-001
 5.7079755500e-001	 2.3311349492e+000	-1.2261872562e-001
 5.4841238978e-001	 2.3365024825e+000	-7.4321754389e-002
 5.2603795209e-001	 2.3416413203e+000	-3.7334676825e-002
 5.0367746441e-001	 2.3465525803e+000	-1.0366967299e-002
 4.8133410958e-001	 2.3512374348e+000	 7.7990819789e-003
 4.5901102983e-001	 2.3556971101e+000	 1.8306923779e-002
 4.3671132581e-001	 2.3599328842e+000	 2.2224526297e-002
 6.6725867099e-001	 2.3313924736e+000	-2.7592483180e-001
 6.4463029248e-001	 2.3377503686e+000	-2.8067619005e-001
 6.2199935087e-001	 2.3438732491e+000	-2.7481268846e-001
 5.9936925116e-001	 2.3497620094e+000	-2.0117856896e-001
 5.7674336287e-001	 2.3554176049e+000	-1.4274834922e-001
 5.5412501884e-001	 2.3608410500e+000	-9.8007224644e-002
 5.3151751410e-001	 2.3660334174e+000	-6.5511480072e-002
 5.0892410466e-001	 2.3709958363e+000	-4.3890455973e-002
 4.8634800655e-001	 2.3757294915e+000	-3.1848296480e-002
 4.6379239473e-001	 2.3802356217e+000	-2.8165480649e-002
 4.4126040212e-001	 2.3845155184e+000	-3.1700138929e-002
 6.7413762637e-001	 2.3554274476e+000	-2.8706336937e-001
 6.5127596560e-001	 2.3618508879e+000	-2.8382444498e-001
 6.2841171532e-001	 2.3680368908e+000	-2.8256170431e-001
 6.0554831560e-001	 2.3739863600e+000	-2.2364793264e-001
 5.8268917073e-001	 2.3797002606e+000	-1.6943619833e-001
 5.5983764791e-001	 2.3851796176e+000	-1.2985016195e-001
 5.3699707610e-001	 2.3904255145e+000	-1.0336210149e-001
 5.1417074492e-001	 2.3954390923e+000	-8.8519348800e-002
 4.9136190353e-001	 2.4002215481e+000	-8.3946139922e-002
 4.6857375962e-001	 2.4047741332e+000	-8.8345241289e-002
 4.4580947843e-001	 2.4090981526e+000	-1.0049935371e-001
 6.8101658174e-001	 2.3794624215e+000	-3.0719018248e-001
 6.5792163873e-001	 2.3859514072e+000	-2.9619870297e-001
 6.3482407976e-001	 2.3922005325e+000	-2.8787707560e-001
 6.1172738005e-001	 2.3982107106e+000	-2.4949953647e-001
 5.8863497860e-001	 2.4039829163e+000	-2.0123271567e-001
 5.6555027697e-001	 2.4095181851e+000	-1.6844790103e-001
 5.4247663810e-001	 2.4148176116e+000	-1.4953133025e-001
 5.1941738517e-001	 2.4198823484e+000	-1.4294640747e-001
 4.9637580050e-001	 2.4247136047e+000	-1.4723565697e-001
 4.7335512452e-001	 2.4293126448e+000	-1.6102244515e-001
 4.5035855474e-001	 2.4336807868e+000	-1.8301247271e-001
 6.8789553712e-001	 2.4034973955e+000	-3.3603951909e-001
 6.6456731185e-001	 2.4100519264e+000	-3.1753188923e-001
 6.4123644421e-001	 2.4163641743e+000	-3.0230142390e-001
 6.1790644450e-001	 2.4224350612e+000	-2.7725523174e-001
 5.9458078647e-001	 2.4282655721e+000	-2.3670617673e-001
 5.7126290603e-001	 2.4338567526e+000	-2.1241570112e-001
 5.4795620010e-001	 2.4392097087e+000	-2.0268192426e-001
 5.2466402543e-001	 2.4443256044e+000	-2.0588235946e-001
 5.0138969748e-001	 2.4492056613e+000	-2.2047597227e-001
 4.7813648941e-001	 2.4538511564e+000	-2.4500499915e-001
 4.5490763105e-001	 2.4582634210e+000	-2.7809652849e-001
 4.0941686796e-001	 2.2124370789e+000	-3.4064066838e-002
 3.8853567716e-001	 2.2161994557e+000	-6.2722155397e-003
 3.6768209441e-001	 2.2197544633e+000	 1.7620308530e-002
 3.4685890457e-001	 2.2231034390e+000	 3.8170461353e-002
 3.2606885033e-001	 2.2262477636e+000	 5.5870414246e-002
 3.0531463152e-001	 2.2291888605e+000	 7.1147513724e-002
 2.8459890447e-001	 2.2319281941e+000	 8.4364391160e-002
 2.6392428140e-001	 2.2344672684e+000	 9.5819217901e-002
 2.4329332986e-001	 2.2368076260e+000	 1.0574610116e-001
 2.2270857224e-001	 2.2389508462e+000	 1.1431561586e-001
 2.0217248527e-001	 2.2408985444e+000	 1.2163546727e-001
 4.1396594427e-001	 2.2370197131e+000	 2.6747184428e-002
 3.9285274024e-001	 2.2408238941e+000	 5.5359054763e-002
 3.7176745101e-001	 2.2444184018e+000	 7.9283353079e-002
 3.5071289240e-001	 2.2478045883e+000	 9.9171405310e-002
 3.2969183756e-001	 2.2509838498e+000	 1.1560715584e-001
 3.0870701632e-001	 2.2539576256e+000	 1.2910705768e-001
 2.8776111452e-001	 2.2567273962e+000	 1.4012011959e-001
 2.6685677342e-001	 2.2592946825e+000	 1.4902810565e-001
 2.4599658909e-001	 2.2616610440e+000	 1.5614588258e-001
 2.2518311194e-001	 2.2638280779e+000	 1.6172190971e-001
 2.0441884622e-001	 2.2657974171e+000	 1.6593886649e-001
 4.1851502058e-001	 2.2616023474e+000	 6.5292256404e-002
 3.9716980332e-001	 2.2654483325e+000	 9.5426162600e-002
 3.7585280762e-001	 2.2690823403e+000	 1.2016956956e-001
 3.5456688023e-001	 2.2725057376e+000	 1.4026859055e-001
 3.3331482478e-001	 2.2757199361e+000	 1.5639926173e-001
 3.1209940111e-001	 2.2787263907e+000	 1.6916736331e-001
 2.9092332457e-001	 2.2815265984e+000	 1.7910840503e-001
 2.6978926543e-001	 2.2841220966e+000	 1.8668777114e-001
 2.4869984831e-001	 2.2865144621e+000	 1.9230102030e-001
 2.2765765163e-001	 2.2887053095e+000	 1.9627433499e-001
 2.0666520717e-001	 2.2906962898e+000	 1.9886511527e-001
 4.2306409689e-001	 2.2861849816e+000	 8.2859643987e-002
 4.0148686640e-001	 2.2900727709e+000	 1.1511902257e-001
 3.7993816422e-001	 2.2937462788e+000	 1.4136998277e-001
 3.5842086805e-001	 2.2972068869e+000	 1.6245390234e-001
 3.3693781201e-001	 2.3004560224e+000	 1.7913928648e-001
 3.1549178591e-001	 2.3034951558e+000	 1.9212152073e-001
 2.9408553462e-001	 2.3063258005e+000	 2.0202279548e-001
 2.7272175745e-001	 2.3089495107e+000	 2.0939219752e-001
 2.5140310753e-001	 2.3113678802e+000	 2.1470596343e-001
 2.3013219132e-001	 2.3135825411e+000	 2.1836788985e-001
 2.0891156812e-001	 2.3155951625e+000	 2.2070989477e-001
 4.2761317319e-001	 2.3107676158e+000	 8.0713595399e-002
 4.0580392948e-001	 2.3146972093e+000	 1.1560558568e-001
 3.8402352083e-001	 2.3184102172e+000	 1.4395598494e-001
 3.6227485588e-001	 2.3219080362e+000	 1.6670197096e-001
 3.4056079923e-001	 2.3251921086e+000	 1.8470495246e-001
 3.1888417070e-001	 2.3282639210e+000	 1.9875025437e-001
 2.9724774467e-001	 2.3311250027e+000	 2.0954698224e-001
 2.7565424947e-001	 2.3337769248e+000	 2.1772806112e-001
 2.5410636675e-001	 2.3362212982e+000	 2.2385044375e-001
 2.3260673101e-001	 2.3384597727e+000	 2.2839548274e-001
 2.1115792906e-001	 2.3404940352e+000	 2.3176946090e-001
 4.3216224950e-001	 2.3353502500e+000	 6.0095388325e-002
 4.1012099256e-001	 2.3393216477e+000	 9.8032995288e-002
 3.8810887743e-001	 2.3430741557e+000	 1.2898036901e-001
 3.6612884371e-001	 2.3466091856e+000	 1.5397107985e-001
 3.4418378646e-001	 2.3499281949e+000	 1.7395993045e-001
 3.2227655550e-001	 2.3530326861e+000	 1.8982257387e-001
 3.0040995472e-001	 2.3559242049e+000	 2.0235531866e-001
 2.7858674148e-001	 2.3586043389e+000	 2.1227511606e-001
 2.5680962597e-001	 2.3610747163e+000	 2.2021972402e-001
 2.3508127071e-001	 2.3633370043e+000	 2.2674804248e-001
 2.1340429001e-001	 2.3653929079e+000	 2.3234061406e-001
 4.3671132581e-001	 2.3599328842e+000	 2.2224526297e-002
 4.1443805563e-001	 2.3639460861e+000	 6.3528670876e-002
 3.9219423403e-001	 2.3677380942e+000	 9.7478297330e-002
 3.6998283154e-001	 2.3713103349e+000	 1.2520401703e-001
 3.4780677368e-001	 2.3746642811e+000	 1.4775457153e-001
 3.2566894029e-001	 2.3778014512e+000	 1.6609638415e-001
 3.0357216477e-001	 2.3807234070e+000	 1.8111330648e-001
 2.8151923350e-001	 2.3834317530e+000	 1.9360655476e-001
 2.5951288519e-001	 2.3859281344e+000	 2.0429483073e-001
 2.3755581040e-001	 2.3882142360e+000	 2.1381462127e-001
 2.1565065096e-001	 2.3902917807e+000	 2.2272067076e-001
 4.4126040212e-001	 2.3845155184e+000	-3.1700138929e-002
 4.1875511871e-001	 2.3885705245e+000	 1.3201324721e-002
 3.9627959064e-001	 2.3924020327e+000	 5.0468210491e-002
 3.7383681936e-001	 2.3960114842e+000	 8.1328873830e-002
 3.5142976091e-001	 2.3994003674e+000	 1.0692659364e-001
 3.2906132508e-001	 2.4025702163e+000	 1.2831905787e-001
 3.0673437482e-001	 2.4055226092e+000	 1.4647805215e-001
 2.8445172551e-001	 2.4082591671e+000	 1.6228934617e-001
 2.6221614441e-001	 2.4107815524e+000	 1.7655277247e-001
 2.4003035009e-001	 2.4130914676e+000	 1.8998249150e-001
 2.1789701191e-001	 2.4151906534e+000	 2.0320743706e-001
 4.4580947843e-001	 2.4090981526e+000	-1.0049935371e-001
 4.2307218179e-001	 2.4131949629e+000	-5.1858083654e-002
 4.0036494724e-001	 2.4170659712e+000	-1.1047319555e-002
 3.7769080719e-001	 2.4207126335e+000	 2.3259794702e-002
 3.5505274813e-001	 2.4241364537e+000	 5.2301726132e-002
 3.3245370987e-001	 2.4273389814e+000	 7.7227972784e-002
 3.0989658487e-001	 2.4303218113e+000	 9.9098695115e-002
 2.8738421752e-001	 2.4330865812e+000	 1.1888455332e-001
 2.6491940363e-001	 2.4356349705e+000	 1.3746674490e-001
 2.4250488978e-001	 2.4379686992e+000	 1.5563723651e-001
 2.2014337286e-001	 2.4400895261e+000	 1.7409918356e-001
 4.5035855474e-001	 2.4336807868e+000	-1.8301247271e-001
 4.2738924487e-001	 2.4378194013e+000	-1.3057545087e-001
 4.0445030384e-001	 2.4417299097e+000	-8.6080788039e-002
 3.8154479501e-001	 2.4454137828e+000	-4.8102318379e-002
 3.5867573535e-001	 2.4488725399e+000	-1.5305684733e-002
 3.3584609467e-001	 2.4521077465e+000	 1.3551016508e-002
 3.1305879491e-001	 2.4551210135e+000	 3.9616810210e-002
 2.9031670954e-001	 2.4579139953e+000	 6.3947631536e-002
 2.6762266285e-001	 2.4604883886e+000	 8.7506323369e-002
 2.4497942947e-001	 2.4628459308e+000	 1.1116283592e-001
 2.2238973381e-001	 2.4649883988e+000	 1.3569462193e-001
 4.5490763105e-001	 2.4582634210e+000	-2.7809652849e-001
 4.3170630795e-001	 2.4624438397e+000	-2.2189268689e-001
 4.0853566044e-001	 2.4663938481e+000	-1.7365900402e-001
 3.8539878284e-001	 2.4701149322e+000	-1.3186914379e-001
 3.6229872257e-001	 2.4736086262e+000	-9.5092106647e-002
 3.3923847946e-001	 2.4768765117e+000	-6.1992938947e-002
 3.1622100496e-001	 2.4799202156e+000	-3.1333214115e-002
 2.9324920155e-001	 2.4827414094e+000	-1.9712910928e-003
 2.7032592207e-001	 2.4853418066e+000	 2.7137643883e-002
 2.4745396916e-001	 2.4877231625e+000	 5.6941745794e-002
 2.2463609475e-001	 2.4898872715e+000	 8.8292882892e-002
 2.0217248527e-001	 2.2408985444e+000	 1.2163546727e-001
 1.8168749959e-001	 2.2426523700e+000	 9.0477626601e-002
 1.6125599940e-001	 2.2442140055e+000	 6.6366338861e-002
 1.4088032204e-001	 2.2455851654e+000	 4.9368121461e-002
 1.2056275773e-001	 2.2467675940e+000	 3.9480356747e-002
 1.0030554932e-001	 2.2477630651e+000	 3.6632634173e-002
 8.0110891976e-002	 2.2485733799e+000	 4.0688198245e-002
 5.9980933064e-002	 2.2492003663e+000	 5.1445495816e-002
 3.9917771955e-002	 2.2496458769e+000	 6.8639816289e-002
 1.9923459911e-002	 2.2499117884e+000	 9.1945018238e-002
 0.0000000000e+000	 2.2500000000e+000	 1.2097533598e-001
 2.0441884622e-001	 2.2657974171e+000	 1.6593886649e-001
 1.8370624959e-001	 2.2675707296e+000	 1.4066204876e-001
 1.6304773272e-001	 2.2691497167e+000	 1.2170814399e-001
 1.4244565895e-001	 2.2705361116e+000	 1.0917963295e-001
 1.2190234393e-001	 2.2717316784e+000	 1.0310806093e-001
 1.0142005542e-001	 2.2727382103e+000	 1.0345537626e-001
 8.1001012998e-002	 2.2735575286e+000	 1.1011537873e-001
 6.0647387876e-002	 2.2741914815e+000	 1.2291527153e-001
 4.0361302754e-002	 2.2746419422e+000	 1.4161730990e-001
 2.0144831687e-002	 2.2749108083e+000	 1.6592054000e-001
 0.0000000000e+000	 2.2750000000e+000	 1.9546262126e-001
 2.0666520717e-001	 2.2906962898e+000	 1.9886511527e-001
 1.8572499959e-001	 2.2924890893e+000	 1.7930608853e-001
 1.6483946605e-001	 2.2940854279e+000	 1.6545278863e-001
 1.4401099586e-001	 2.2954870579e+000	 1.5744358639e-001
 1.2324193013e-001	 2.2966957628e+000	 1.5534401239e-001
 1.0253456153e-001	 2.2977133554e+000	 1.5914809379e-001
 8.1891134020e-002	 2.2985416773e+000	 1.6877980540e-001
 6.1313842688e-002	 2.2991825966e+000	 1.8409462843e-001
 4.0804833554e-002	 2.2996380075e+000	 2.0488121001e-001
 2.0366203464e-002	 2.2999098282e+000	 2.3086311663e-001
 0.0000000000e+000	 2.3000000000e+000	 2.6170067483e-001
 2.0891156812e-001	 2.3155951625e+000	 2.2070989477e-001
 1.8774374958e-001	 2.3174074490e+000	 2.0666195652e-001
 1.6663119938e-001	 2.3190211390e+000	 1.9780855784e-001
 1.4557633277e-001	 2.3204380042e+000	 1.9432391868e-001
 1.2458151633e-001	 2.3216598471e+000	 1.9630740880e-001
 1.0364906763e-001	 2.3226885006e+000	 2.0378488489e-001
 8.2781255043e-002	 2.3235258259e+000	 2.1671014648e-001
 6.1980297500e-002	 2.3241737118e+000	 2.3496650365e-001
 4.1248364354e-002	 2.3246340728e+000	 2.5836844972e-001
 2.0587575241e-002	 2.3249088481e+000	 2.8666343180e-001
 0.0000000000e+000	 2.3250000000e+000	 3.1953371217e-001
 2.1115792906e-001	 2.3404940352e+000	 2.3176946090e-001
 1.8976249958e-001	 2.3423258086e+000	 2.2298276919e-001
 1.6842293271e-001	 2.3439568502e+000	 2.1898503684e-001
 1.4714166968e-001	 2.3453889505e+000	 2.1998632350e-001
 1.2592110253e-001	 2.3466239315e+000	 2.2611972279e-001
 1.0476357374e-001	 2.3476636458e+000	 2.3744270161e-001
 8.3671376066e-002	 2.3485099746e+000	 2.5393856293e-001
 6.2646752313e-002	 2.3491648270e+000	 2.7551802486e-001
 4.1691895154e-002	 2.3496301381e+000	 3.0202090866e-001
 2.0808947019e-002	 2.3499078679e+000	 3.3321792886e-001
 0.0000000000e+000	 2.3500000000e+000	 3.6881257785e-001
 2.1340429001e-001	 2.3653929079e+000	 2.3234061406e-001
 1.9178124958e-001	 2.3672441683e+000	 2.2852250120e-001
 1.7021466604e-001	 2.3688925614e+000	 2.2919304250e-001
 1.4870700660e-001	 2.3703398968e+000	 2.3459815883e-001
 1.2726068872e-001	 2.3715880159e+000	 2.4490458225e-001
 1.0587807984e-001	 2.3726387909e+000	 2.6020119967e-001
 8.4561497090e-002	 2.3734941233e+000	 2.8050052463e-001
 6.3313207127e-002	 2.3741559422e+000	 3.0574028974e-001
 4.2135425955e-002	 2.3746262034e+000	 3.3578515261e-001
 2.1030318796e-002	 2.3749068878e+000	 3.7042850768e-001
 0.0000000000e+000	 2.3750000000e+000	 4.0939439669e-001
 2.1565065096e-001	 2.3902917807e+000	 2.2272067076e-001
 1.9379999957e-001	 2.3921625279e+000	 2.2353594065e-001
 1.7200639936e-001	 2.3938282726e+000	 2.2864455928e-001
 1.5027234351e-001	 2.3952908430e+000	 2.3832836028e-001
 1.2860027492e-001	 2.3965521003e+000	 2.5278765804e-001
 1.0699258595e-001	 2.3976139361e+000	 2.7214259771e-001
 8.5451618114e-002	 2.3984782719e+000	 2.9643463798e-001
 6.3979661940e-002	 2.3991470574e+000	 3.2562815921e-001
 4.2578956756e-002	 2.3996222687e+000	 3.5961218942e-001
 2.1251690574e-002	 2.3999059077e+000	 3.9820224045e-001
 0.0000000000e+000	 2.4000000000e+000	 4.4114224665e-001
 2.1789701191e-001	 2.4151906534e+000	 2.0320743706e-001
 1.9581874957e-001	 2.4170808876e+000	 2.0827864722e-001
 1.7379813269e-001	 2.4187639837e+000	 2.1755267898e-001
 1.5183768043e-001	 2.4202417893e+000	 2.3134735973e-001
 1.2993986112e-001	 2.4215161846e+000	 2.4989655870e-001
 1.0810709205e-001	 2.4225890813e+000	 2.7335154515e-001
 8.6341739139e-002	 2.4234624206e+000	 3.0178248431e-001
 6.4646116755e-002	 2.4241381725e+000	 3.3518006342e-001
 4.3022487557e-002	 2.4246183340e+000	 3.7345724008e-001
 2.1473062351e-002	 2.4249049275e+000	 4.1645110510e-001
 0.0000000000e+000	 2.4250000000e+000	 4.6392485194e-001
 2.2014337286e-001	 2.4400895261e+000	 1.7409918356e-001
 1.9783749957e-001	 2.4419992473e+000	 1.8300691274e-001
 1.7558986602e-001	 2.4436996949e+000	 1.9613154426e-001
 1.5340301734e-001	 2.4451927356e+000	 2.1382700907e-001
 1.3127944732e-001	 2.4464802690e+000	 2.3636073161e-001
 1.0922159816e-001	 2.4475642264e+000	 2.6391499815e-001
 8.7231860164e-002	 2.4484465693e+000	 2.9658846802e-001
 6.5312571569e-002	 2.4491292877e+000	 3.3439781966e-001
 4.3466018359e-002	 2.4496143993e+000	 3.7727952373e-001
 2.1694434129e-002	 2.4499039474e+000	 4.2509173498e-001
 0.0000000000e+000	 2.4500000000e+000	 4.7761629498e-001
 2.2238973381e-001	 2.4649883988e+000	 1.3569462193e-001
 1.9985624957e-001	 2.4669176069e+000	 1.4797772426e-001
 1.7738159935e-001	 2.4686354061e+000	 1.6459629557e-001
 1.5496835426e-001	 2.4701436819e+000	 1.8594050840e-001
 1.3261903353e-001	 2.4714443534e+000	 2.1231137007e-001
 1.1033610427e-001	 2.4725393716e+000	 2.4392210315e-001
 8.8121981189e-002	 2.4734307179e+000	 2.8089967405e-001
 6.5979026384e-002	 2.4741204029e+000	 3.2328646132e-001
 4.3909549161e-002	 2.4746104646e+000	 3.7104205574e-001
 2.1915805907e-002	 2.4749029673e+000	 4.2404518371e-001
 0.0000000000e+000	 2.4750000000e+000	 4.8209574576e-001
 2.2463609475e-001	 2.4898872715e+000	 8.8292882892e-002
 2.0187499956e-001	 2.4918359666e+000	 1.0344872927e-001
 1.7917333268e-001	 2.4935711173e+000	 1.2316302126e-001
 1.5653369117e-001	 2.4950946282e+000	 1.4786233867e-001
 1.3395861973e-001	 2.4964084378e+000	 1.7788132603e-001
 1.1145061038e-001	 2.4975145168e+000	 2.1346408732e-001
 8.9012102215e-002	 2.4984148666e+000	 2.5476573383e-001
 6.6645481200e-002	 2.4991115181e+000	 3.0185407704e-001
 4.4353079963e-002	 2.4996065299e+000	 3.5471145791e-001
 2.2137177686e-002	 2.4999019872e+000	 4.1323670426e-001
 0.0000000000e+000	 2.5000000000e+000	 4.7724720747e-001
 2.5000000000e+000	 0.0000000000e+000	 1.8431263386e+000
 2.4999019872e+000	 2.2137177686e-002	 1.8904230625e+000
 2.4996065299e+000	 4.4353079963e-002	 1.9370939299e+000
 2.4991115181e+000	 6.6645481200e-002	 1.9825568011e+000
 2.4984148666e+000	 8.9012102215e-002	 2.0263502131e+000
 2.4975145168e+000	 1.1145061038e-001	 2.0681373794e+000
 2.4964084378e+000	 1.3395861973e-001	 2.1077100347e+000
 2.4950946282e+000	 1.5653369117e-001	 2.1449921130e+000
 2.4935711173e+000	 1.7917333268e-001	 2.1800432430e+000
 2.4918359666e+000	 2.0187499956e-001	 2.2130620467e+000
 2.4898872715e+000	 2.2463609475e-001	 2.2443892273e+000
 2.5250000000e+000	 0.0000000000e+000	 1.8132784556e+000
 2.5249010070e+000	 2.2358549464e-002	 1.8543540203e+000
 2.5246025952e+000	 4.4796610765e-002	 1.8754590526e+000
 2.5241026333e+000	 6.7311936015e-002	 1.8790077172e+000
 2.5233990153e+000	 8.9902223242e-002	 1.8674311842e+000
 2.5224896619e+000	 1.1256511648e-001	 1.8431761829e+000
 2.5213725222e+000	 1.3529820593e-001	 1.8087035431e+000
 2.5200455744e+000	 1.5809902809e-001	 1.7664867270e+000
 2.5185068284e+000	 1.8096506601e-001	 1.7190103517e+000
 2.5167543263e+000	 2.0389374956e-001	 1.6687687075e+000
 2.5147861442e+000	 2.2688245570e-001	 1.6182642713e+000
 2.5500000000e+000	 0.0000000000e+000	 1.7852666465e+000
 2.5499000269e+000	 2.2579921242e-002	 1.8296837223e+000
 2.5495986605e+000	 4.5240141567e-002	 1.8548935772e+000
 2.5490937484e+000	 6.7978390830e-002	 1.8633067691e+000
 2.5483831639e+000	 9.0792344267e-002	 1.8573491979e+000
 2.5474648071e+000	 1.1367962259e-001	 1.8394606421e+000
 2.5463366065e+000	 1.3663779213e-001	 1.8120932877e+000
 2.5449965207e+000	 1.5966436500e-001	 1.7777102481e+000
 2.5434425396e+000	 1.8275679934e-001	 1.7387840804e+000
 2.5416726859e+000	 2.0591249956e-001	 1.6977952986e+000
 2.5396850170e+000	 2.2912881665e-001	 1.6572308862e+000
 2.5750000000e+000	 0.0000000000e+000	 1.7583236512e+000
 2.5748990468e+000	 2.2801293020e-002	 1.8046321594e+000
 2.5745947258e+000	 4.5683672368e-002	 1.8325015804e+000
 2.5740848636e+000	 6.8644845644e-002	 1.8443387249e+000
 2.5733673126e+000	 9.1682465292e-002	 1.8425640571e+000
 2.5724399523e+000	 1.1479412870e-001	 1.8296102155e+000
 2.5713006909e+000	 1.3797737833e-001	 1.8079205276e+000
 2.5699474670e+000	 1.6122970192e-001	 1.7799475201e+000
 2.5683782508e+000	 1.8454853267e-001	 1.7481514276e+000
 2.5665910456e+000	 2.0793124956e-001	 1.7149987015e+000
 2.5645838897e+000	 2.3137517760e-001	 1.6829605224e+000
 2.6000000000e+000	 0.0000000000e+000	 1.7317117197e+000
 2.5998980666e+000	 2.3022664798e-002	 1.7785238712e+000
 2.5995907911e+000	 4.6127203170e-002	 1.8076707518e+000
 2.5990759788e+000	 6.9311300459e-002	 1.8215552627e+000
 2.5983514613e+000	 9.2572586317e-002	 1.8225922448e+000
 2.5974150974e+000	 1.1590863480e-001	 1.8132069832e+000
 2.5962647753e+000	 1.3931696453e-001	 1.7958337081e+000
 2.5948984133e+000	 1.6279503883e-001	 1.7729140954e+000
 2.5933139620e+000	 1.8634026600e-001	 1.7468957679e+000
 2.5915094053e+000	 2.0994999955e-001	 1.7202308008e+000
 2.5894827624e+000	 2.3362153855e-001	 1.6953742332e+000
 2.6250000000e+000	 0.0000000000e+000	 1.7047212066e+000
 2.6248970865e+000	 2.3244036575e-002	 1.7507102494e+000
 2.6245868564e+000	 4.6570733970e-002	 1.7798143647e+000
 2.6240670940e+000	 6.9977755272e-002	 1.7944323608e+000
 2.6233356099e+000	 9.3462707341e-002	 1.7969732449e+000
 2.6223902426e+000	 1.1702314091e-001	 1.7898547119e+000
 2.6212288597e+000	 1.4065655073e-001	 1.7755016318e+000
 2.6198493596e+000	 1.6436037574e-001	 1.7563445402e+000
 2.6182496731e+000	 1.8813199933e-001	 1.7348181327e+000
 2.6164277650e+000	 2.1196874955e-001	 1.7133597668e+000
 2.6143816351e+000	 2.3586789950e-001	 1.6944079740e+000
 2.6500000000e+000	 0.0000000000e+000	 1.6766692457e+000
 2.6498961064e+000	 2.3465408353e-002	 1.7205682716e+000
 2.6495829217e+000	 4.7014264771e-002	 1.7483700698e+000
 2.6490582092e+000	 7.0644210086e-002	 1.7624691509e+000
 2.6483197586e+000	 9.4352828365e-002	 1.7652684566e+000
 2.6473653878e+000	 1.1813764702e-001	 1.7591778315e+000
 2.6461929440e+000	 1.4199613693e-001	 1.7466124984e+000
 2.6448003059e+000	 1.6592571266e-001	 1.7299915380e+000
 2.6431853843e+000	 1.8992373266e-001	 1.7117363772e+000
 2.6413461246e+000	 2.1398749955e-001	 1.6942692879e+000
 2.6392805078e+000	 2.3811426044e-001	 1.6800118992e+000
 2.6750000000e+000	 0.0000000000e+000	 1.6468984985e+000
 2.6748951263e+000	 2.3686780130e-002	 1.6874993055e+000
 2.6745789870e+000	 4.7457795571e-002	 1.7127987556e+000
 2.6740493244e+000	 7.1310664899e-002	 1.7251868367e+000
 2.6733039073e+000	 9.5242949388e-002	 1.7270601707e+000
 2.6723405329e+000	 1.1925215312e-001	 1.7208204697e+000
 2.6711570284e+000	 1.4333572313e-001	 1.7088729980e+000
 2.6697512521e+000	 1.6749104957e-001	 1.6936250425e+000
 2.6681210955e+000	 1.9171546598e-001	 1.6774843943e+000
 2.6662644843e+000	 2.1600624954e-001	 1.6628578449e+000
 2.6641793805e+000	 2.4036062139e-001	 1.6521496989e+000
 2.7000000000e+000	 0.0000000000e+000	 1.6147759725e+000
 2.6998941461e+000	 2.3908151907e-002	 1.6509279795e+000
 2.6995750523e+000	 4.7901326371e-002	 1.6725834731e+000
 2.6990404395e+000	 7.1977119711e-002	 1.6821276718e+000
 2.6982880559e+000	 9.6133070411e-002	 1.6819506025e+000
 2.6973156781e+000	 1.2036665923e-001	 1.6744455397e+000
 2.6961211128e+000	 1.4467530933e-001	 1.6620074552e+000
 2.6947021984e+000	 1.6905638648e-001	 1.6470314783e+000
 2.6930568066e+000	 1.9350719931e-001	 1.6319113720e+000
 2.6911828440e+000	 2.1802499954e-001	 1.6190380262e+000
 2.6890782533e+000	 2.4260698234e-001	 1.6107979720e+000
 2.7250000000e+000	 0.0000000000e+000	 1.5796919039e+000
 2.7248931660e+000	 2.4129523684e-002	 1.6103011164e+000
 2.7245711176e+000	 4.8344857171e-002	 1.6272284186e+000
 2.7240315547e+000	 7.2643574523e-002	 1.6328539940e+000
 2.7232722046e+000	 9.7023191433e-002	 1.6295609775e+000
 2.7222908233e+000	 1.2148116533e-001	 1.6197338791e+000
 2.7210851972e+000	 1.4601489552e-001	 1.6057570203e+000
 2.7196531447e+000	 1.7062172340e-001	 1.5900129855e+000
 2.7179925178e+000	 1.9529893264e-001	 1.5748810920e+000
 2.7161012036e+000	 2.2004374954e-001	 1.5627358812e+000
 2.7139771260e+000	 2.4485334329e-001	 1.5559456345e+000
 2.7500000000e+000	 0.0000000000e+000	 1.5410587026e+000
 2.7498921859e+000	 2.4350895461e-002	 1.5650867236e+000
 2.7495671829e+000	 4.8788387970e-002	 1.5762579730e+000
 2.7490226699e+000	 7.3310029335e-002	 1.5769473126e+000
 2.7482563533e+000	 9.7913312455e-002	 1.5695306678e+000
 2.7472659684e+000	 1.2259567143e-001	 1.5563834347e+000
 2.7460492816e+000	 1.4735448172e-001	 1.5398789044e+000
 2.7446040910e+000	 1.7218706031e-001	 1.5223867050e+000
 2.7429282290e+000	 1.9709066597e-001	 1.5062712661e+000
 2.7410195633e+000	 2.2206249953e-001	 1.4938903078e+000
 2.7388759987e+000	 2.4709970424e-001	 1.4875933591e+000
 2.4898872715e+000	 2.2463609475e-001	 2.2443892273e+000
 2.4877231625e+000	 2.4745396916e-001	 2.2533019164e+000
 2.4853418066e+000	 2.7032592207e-001	 2.2548584545e+000
 2.4827414094e+000	 2.9324920155e-001	 2.2497321876e+000
 2.4799202156e+000	 3.1622100496e-001	 2.2387511698e+000
 2.4768765117e+000	 3.3923847946e-001	 2.2229001351e+000
 2.4736086262e+000	 3.6229872257e-001	 2.2033221731e+000
 2.4701149322e+000	 3.8539878284e-001	 2.1813200989e+000
 2.4663938481e+000	 4.0853566044e-001	 2.1583575013e+000
 2.4624438397e+000	 4.3170630795e-001	 2.1360594590e+000
 2.4582634210e+000	 4.5490763105e-001	 2.1162129117e+000
 2.5147861442e+000	 2.2688245570e-001	 1.6182642713e+000
 2.5126003941e+000	 2.4992850885e-001	 1.5469232401e+000
 2.5101952247e+000	 2.7302918129e-001	 1.4734246665e+000
 2.5075688234e+000	 2.9618169356e-001	 1.4001843441e+000
 2.5047194178e+000	 3.1938321501e-001	 1.3296232647e+000
 2.5016452768e+000	 3.4263086425e-001	 1.2641662951e+000
 2.4983447125e+000	 3.6592170980e-001	 1.2753402471e+000
 2.4948160815e+000	 3.8925277066e-001	 1.3558996445e+000
 2.4910577866e+000	 4.1262101704e-001	 1.4324492680e+000
 2.4870682781e+000	 4.3602337102e-001	 1.5066303810e+000
 2.4828460553e+000	 4.5945670736e-001	 1.5802524477e+000
 2.5396850170e+000	 2.2912881665e-001	 1.6572308862e+000
 2.5374776257e+000	 2.5240304855e-001	 1.5949655720e+000
 2.5350486428e+000	 2.7573244051e-001	 1.5310625205e+000
 2.5323962375e+000	 2.9911418558e-001	 1.4679242894e+000
 2.5295186200e+000	 3.2254542506e-001	 1.4079572236e+000
 2.5264140419e+000	 3.4602324904e-001	 1.3535701475e+000
 2.5230807987e+000	 3.6954469702e-001	 1.3071730694e+000
 2.5195172308e+000	 3.9310675849e-001	 1.2711758992e+000
 2.5157217251e+000	 4.1670637365e-001	 1.2479871821e+000
 2.5116927165e+000	 4.4034043410e-001	 1.2400128484e+000
 2.5074286895e+000	 4.6400578367e-001	 1.2496549821e+000
 2.5645838897e+000	 2.3137517760e-001	 1.6829605224e+000
 2.5623548573e+000	 2.5487758824e-001	 1.6286901131e+000
 2.5599020608e+000	 2.7843569973e-001	 1.5733076873e+000
 2.5572236516e+000	 3.0204667759e-001	 1.5192020917e+000
 2.5543178221e+000	 3.2570763510e-001	 1.4687645250e+000
 2.5511828070e+000	 3.4941563383e-001	 1.4243872454e+000
 2.5478168850e+000	 3.7316768424e-001	 1.3884622957e+000
 2.5442183801e+000	 3.9696074632e-001	 1.3633802435e+000
 2.5403856636e+000	 4.2079173025e-001	 1.3515289418e+000
 2.5363171549e+000	 4.4465749718e-001	 1.3552923094e+000
 2.5320113237e+000	 4.6855485998e-001	 1.3770491330e+000
 2.5894827624e+000	 2.3362153855e-001	 1.6953742332e+000
 2.5872320890e+000	 2.5735212793e-001	 1.6480781869e+000
 2.5847554789e+000	 2.8113895895e-001	 1.6002022555e+000
 2.5820510657e+000	 3.0497916961e-001	 1.5541210715e+000
 2.5791170243e+000	 3.2886984515e-001	 1.5122101576e+000
 2.5759515721e+000	 3.5280801863e-001	 1.4768446522e+000
 2.5725529713e+000	 3.7679067147e-001	 1.4503980539e+000
 2.5689195295e+000	 4.0081473414e-001	 1.4352409866e+000
 2.5650496021e+000	 4.2487708685e-001	 1.4337399875e+000
 2.5609415933e+000	 4.4897456026e-001	 1.4482563184e+000
 2.5565939579e+000	 4.7310393629e-001	 1.4811448035e+000
 2.6143816351e+000	 2.3586789950e-001	 1.6944079740e+000
 2.6121093206e+000	 2.5982666762e-001	 1.6531249853e+000
 2.6096088970e+000	 2.8384221817e-001	 1.6118011404e+000
 2.6068784798e+000	 3.0791166162e-001	 1.5727963255e+000
 2.6039162264e+000	 3.3203205520e-001	 1.5384698289e+000
 2.6007203373e+000	 3.5620040342e-001	 1.5111790848e+000
 2.5972890575e+000	 3.8041365869e-001	 1.4932784385e+000
 2.5936206788e+000	 4.0466872197e-001	 1.4871179369e+000
 2.5897135406e+000	 4.2896244345e-001	 1.4950421451e+000
 2.5855660317e+000	 4.5329162333e-001	 1.5193889898e+000
 2.5811765921e+000	 4.7765301260e-001	 1.5624886335e+000
 2.6392805078e+000	 2.3811426044e-001	 1.6800118992e+000
 2.6369865522e+000	 2.6230120731e-001	 1.6438389144e+000
 2.6344623150e+000	 2.8654547739e-001	 1.6081714786e+000
 2.6317058939e+000	 3.1084415364e-001	 1.5753541714e+000
 2.6287154286e+000	 3.3519426525e-001	 1.5477294594e+000
 2.6254891024e+000	 3.5959278821e-001	 1.5276364583e+000
 2.6220251438e+000	 3.8403664592e-001	 1.5174097206e+000
 2.6183218281e+000	 4.0852270980e-001	 1.5193780518e+000
 2.6143774790e+000	 4.3304780006e-001	 1.5358633562e+000
 2.6101904701e+000	 4.5760868641e-001	 1.5691795146e+000
 2.6057592263e+000	 4.8220208891e-001	 1.6216312947e+000
 2.6641793805e+000	 2.4036062139e-001	 1.6521496989e+000
 2.6618637839e+000	 2.6477574700e-001	 1.6202409770e+000
 2.6593157331e+000	 2.8924873661e-001	 1.5893920570e+000
 2.6565333080e+000	 3.1377664565e-001	 1.5619316235e+000
 2.6535146308e+000	 3.3835647530e-001	 1.5401847054e+000
 2.6502578675e+000	 3.6298517301e-001	 1.5264714565e+000
 2.6467612300e+000	 3.8765963314e-001	 1.5231059665e+000
 2.6430229774e+000	 4.1237669763e-001	 1.5323951038e+000
 2.6390414175e+000	 4.3713315666e-001	 1.5566373922e+000
 2.6348149085e+000	 4.6192574949e-001	 1.5981219227e+000
 2.6303418605e+000	 4.8675116522e-001	 1.6591273026e+000
 2.6890782533e+000	 2.4260698234e-001	 1.6107979720e+000
 2.6867410155e+000	 2.6725028670e-001	 1.5823641897e+000
 2.6841691512e+000	 2.9195199583e-001	 1.5555527733e+000
 2.6813607221e+000	 3.1670913767e-001	 1.5326758973e+000
 2.6783138329e+000	 3.4151868535e-001	 1.5160405082e+000
 2.6750266326e+000	 3.6637755780e-001	 1.5079471255e+000
 2.6714973163e+000	 3.9128262037e-001	 1.5106886760e+000
 2.6677241268e+000	 4.1623068545e-001	 1.5265493650e+000
 2.6637053560e+000	 4.4121851326e-001	 1.5578035843e+000
 2.6594393469e+000	 4.6624281257e-001	 1.6067148593e+000
 2.6549244947e+000	 4.9130024153e-001	 1.6755348381e+000
 2.7139771260e+000	 2.4485334329e-001	 1.5559456345e+000
 2.7116182471e+000	 2.6972482639e-001	 1.5302530313e+000
 2.7090225692e+000	 2.9465525505e-001	 1.5067541265e+000
 2.7061881362e+000	 3.1964162968e-001	 1.4877439417e+000
 2.7031130351e+000	 3.4468089540e-001	 1.4755106684e+000
 2.6997953977e+000	 3.6976994260e-001	 1.4723344902e+000
 2.6962334026e+000	 3.9490560759e-001	 1.4804864419e+000
 2.6924252761e+000	 4.2008467328e-001	 1.5022273090e+000
 2.6883692945e+000	 4.4530386987e-001	 1.5398065684e+000
 2.6840637853e+000	 4.7055987565e-001	 1.5954613728e+000
 2.6795071290e+000	 4.9584931784e-001	 1.6714155798e+000
 2.7388759987e+000	 2.4709970424e-001	 1.4875933591e+000
 2.7364954787e+000	 2.7219936608e-001	 1.4639629221e+000
 2.7338759873e+000	 2.9735851428e-001	 1.4431067350e+000
 2.7310155503e+000	 3.2257412170e-001	 1.4273019965e+000
 2.7279122372e+000	 3.4784310545e-001	 1.4188174429e+000
 2.7245641628e+000	 3.7316232739e-001	 1.4199121920e+000
 2.7209694888e+000	 3.9852859482e-001	 1.4328346276e+000
 2.7171264254e+000	 4.2393866111e-001	 1.4598213287e+000
 2.7130332330e+000	 4.4938922647e-001	 1.5030960442e+000
 2.7086882237e+000	 4.7487693873e-001	 1.5648687150e+000
 2.7040897632e+000	 5.0039839415e-001	 1.6473345448e+000
 2.4582634210e+000	 4.5490763105e-001	 2.1162129117e+000
 2.4538511564e+000	 4.7813648941e-001	 1.9911337010e+000
 2.4492056613e+000	 5.0138969748e-001	 1.8730039344e+000
 2.4443256044e+000	 5.2466402543e-001	 1.7638189800e+000
 2.4392097087e+000	 5.4795620010e-001	 1.6657285696e+000
 2.4338567526e+000	 5.7126290603e-001	 1.5810354734e+000
 2.4282655721e+000	 5.9458078647e-001	 1.5121937840e+000
 2.4224350612e+000	 6.1790644450e-001	 1.4618068022e+000
 2.4163641743e+000	 6.4123644421e-001	 1.3682625549e+000
 2.4100519264e+000	 6.6456731185e-001	 1.2646636848e+000
 2.4034973955e+000	 6.8789553712e-001	 1.1792809213e+000
 2.4828460553e+000	 4.5945670736e-001	 1.5802524477e+000
 2.4783896679e+000	 4.8291785430e-001	 1.5325063235e+000
 2.4736977179e+000	 5.0640359445e-001	 1.4846885581e+000
 2.4687688605e+000	 5.2991066568e-001	 1.4387874988e+000
 2.4636018058e+000	 5.5343576211e-001	 1.3969551035e+000
 2.4581953202e+000	 5.7697553510e-001	 1.3615057127e+000
 2.4525482278e+000	 6.0052659434e-001	 1.3349144155e+000
 2.4466594119e+000	 6.2408550895e-001	 1.3198150027e+000
 2.4405278160e+000	 6.4764880865e-001	 1.2560396823e+000
 2.4341524457e+000	 6.7121298497e-001	 1.2008353110e+000
 2.4275323694e+000	 6.9477449249e-001	 1.1576245634e+000
 2.5074286895e+000	 4.6400578367e-001	 1.2496549821e+000
 2.5029281795e+000	 4.8769921920e-001	 1.1428201233e+000
 2.4981897745e+000	 5.1141749143e-001	 1.0900072848e+000
 2.4932121165e+000	 5.3515730594e-001	 1.1040017311e+000
 2.4879939028e+000	 5.5891532411e-001	 1.1150090288e+000
 2.4825338877e+000	 5.8268816416e-001	 1.1253591520e+000
 2.4768308835e+000	 6.0647240220e-001	 1.1375524044e+000
 2.4708837625e+000	 6.3026457340e-001	 1.1467517485e+000
 2.4646914578e+000	 6.5406117310e-001	 1.1345216887e+000
 2.4582529650e+000	 6.7785865809e-001	 1.1271628759e+000
 2.4515673434e+000	 7.0165344787e-001	 1.1255921862e+000
 2.5320113237e+000	 4.6855485998e-001	 1.3770491330e+000
 2.5274666911e+000	 4.9248058409e-001	 1.2684440874e+000
 2.5226818311e+000	 5.1643138840e-001	 1.1710144491e+000
 2.5176553726e+000	 5.4040394619e-001	 1.0866970756e+000
 2.5123859999e+000	 5.6439488611e-001	 1.0174221014e+000
 2.5068724552e+000	 5.8840079322e-001	 9.6511234648e-001
 2.5011135392e+000	 6.1241821007e-001	 9.3168275846e-001
 2.4951081131e+000	 6.3644363785e-001	 9.6306625429e-001
 2.4888550995e+000	 6.6047353755e-001	 1.0042974868e+000
 2.4823534842e+000	 6.8450433122e-001	 1.0442650234e+000
 2.4756023173e+000	 7.0853240324e-001	 1.0838288194e+000
 2.5565939579e+000	 4.7310393629e-001	 1.4811448035e+000
 2.5520052026e+000	 4.9726194898e-001	 1.3692692583e+000
 2.5471738878e+000	 5.2144528538e-001	 1.2650469415e+000
 2.5420986286e+000	 5.4565058645e-001	 1.1703408072e+000
 2.5367780970e+000	 5.6987444812e-001	 1.0870086501e+000
 2.5312110227e+000	 5.9411342228e-001	 1.0169026627e+000
 2.5253961950e+000	 6.1836401794e-001	 9.6186902885e-001
 2.5193324637e+000	 6.4262270229e-001	 9.4644739092e-001
 2.5130187412e+000	 6.6688590199e-001	 9.5691149066e-001
 2.5064540035e+000	 6.9115000434e-001	 9.8519009907e-001
 2.4996372913e+000	 7.1541135862e-001	 1.0329700658e+000
 2.5811765921e+000	 4.7765301260e-001	 1.5624886335e+000
 2.5765437142e+000	 5.0204331388e-001	 1.4459198122e+000
 2.5716659444e+000	 5.2645918235e-001	 1.3335534460e+000
 2.5665418847e+000	 5.5089722670e-001	 1.2271786267e+000
 2.5611701941e+000	 5.7535401012e-001	 1.1285808023e+000
 2.5555495903e+000	 5.9982605134e-001	 1.0395414846e+000
 2.5496788507e+000	 6.2430982580e-001	 9.6183799453e-001
 2.5435568143e+000	 6.4880176674e-001	 9.5995178746e-001
 2.5371823830e+000	 6.7329826643e-001	 9.7361464675e-001
 2.5305545228e+000	 6.9779567746e-001	 1.0015180796e+000
 2.5236722653e+000	 7.2229031399e-001	 1.0441304820e+000
 2.6057592263e+000	 4.8220208891e-001	 1.6216312947e+000
 2.6010822257e+000	 5.0682467877e-001	 1.4990223490e+000
 2.5961580010e+000	 5.3147307933e-001	 1.3772346467e+000
 2.5909851407e+000	 5.5614386696e-001	 1.2579833994e+000
 2.5855622912e+000	 5.8083357212e-001	 1.1429816446e+000
 2.5798881578e+000	 6.0553868040e-001	 1.0339401025e+000
 2.5739615064e+000	 6.3025563367e-001	 9.5334203398e-001
 2.5677811649e+000	 6.5498083118e-001	 9.5914866355e-001
 2.5613460247e+000	 6.7971063087e-001	 9.7527104632e-001
 2.5546550420e+000	 7.0444135058e-001	 1.0021485858e+000
 2.5477072392e+000	 7.2916926936e-001	 1.0401751179e+000
 2.6303418605e+000	 4.8675116522e-001	 1.6591273026e+000
 2.6256207373e+000	 5.1160604366e-001	 1.5292057798e+000
 2.6206500576e+000	 5.3648697630e-001	 1.3967920764e+000
 2.6154283968e+000	 5.6139050721e-001	 1.2635274497e+000
 2.6099543883e+000	 5.8631313412e-001	 1.1310524057e+000
 2.6042267253e+000	 6.1125130946e-001	 1.0010067066e+000
 2.5982441621e+000	 6.3620144153e-001	 9.3369706935e-001
 2.5920055155e+000	 6.6115989563e-001	 9.4459342968e-001
 2.5855096665e+000	 6.8612299532e-001	 9.6248244426e-001
 2.5787555613e+000	 7.1108702369e-001	 9.8772791417e-001
 2.5717422132e+000	 7.3604822473e-001	 1.0206491000e+000
 2.6549244947e+000	 4.9130024153e-001	 1.6755348381e+000
 2.6501592489e+000	 5.1638740856e-001	 1.5371012194e+000
 2.6451421142e+000	 5.4150087327e-001	 1.3929280776e+000
 2.6398716528e+000	 5.6663714746e-001	 1.2445825860e+000
 2.6343464854e+000	 5.9179269612e-001	 1.0936325431e+000
 2.6285652928e+000	 6.1696393852e-001	 9.4164653096e-001
 2.6225268178e+000	 6.4214724939e-001	 9.0158278584e-001
 2.6162298662e+000	 6.6733896007e-001	 9.1683638806e-001
 2.6096733082e+000	 6.9253535976e-001	 9.3584452201e-001
 2.6028560806e+000	 7.1773269681e-001	 9.5889539780e-001
 2.5957771871e+000	 7.4292718010e-001	 9.8623364412e-001
 2.6795071290e+000	 4.9584931784e-001	 1.6714155798e+000
 2.6746977604e+000	 5.2116877345e-001	 1.5233418852e+000
 2.6696341708e+000	 5.4651477025e-001	 1.3663457651e+000
 2.6643149089e+000	 5.7188378771e-001	 1.2019201243e+000
 2.6587385825e+000	 5.9727225811e-001	 1.0315598235e+000
 2.6529038604e+000	 6.2267656758e-001	 8.5676198890e-001
 2.6468094736e+000	 6.4809305726e-001	 8.5749853826e-001
 2.6404542168e+000	 6.7351802451e-001	 8.7642296700e-001
 2.6338369500e+000	 6.9894772419e-001	 8.9594716615e-001
 2.6269565998e+000	 7.2437836993e-001	 9.1628372567e-001
 2.6198121611e+000	 7.4980613547e-001	 9.3760254548e-001
 2.7040897632e+000	 5.0039839415e-001	 1.6473345448e+000
 2.6992362720e+000	 5.2595013834e-001	 1.4885630019e+000
 2.6941262274e+000	 5.5152866722e-001	 1.3177489909e+000
 2.6887581649e+000	 5.7713042797e-001	 1.1363109108e+000
 2.6831306796e+000	 6.0275182011e-001	 9.4567040042e-001
 2.6772424279e+000	 6.2838919664e-001	 7.7733385664e-001
 2.6710921293e+000	 6.5403886512e-001	 8.0193997571e-001
 2.6646785674e+000	 6.7969708895e-001	 8.2389394243e-001
 2.6580005917e+000	 7.0536008863e-001	 8.4337473178e-001
 2.6510571191e+000	 7.3102404304e-001	 8.6051924473e-001
 2.6438471350e+000	 7.5668509084e-001	 8.7542251603e-001
 2.4034973955e+000	 6.8789553712e-001	 1.1792809213e+000
 2.3966997229e+000	 7.1121757443e-001	 1.1442112440e+000
 2.3896581153e+000	 7.3452984428e-001	 1.1010455388e+000
 2.3823718453e+000	 7.5782873460e-001	 1.0501726898e+000
 2.3748402530e+000	 7.8111060220e-001	 9.9206415288e-001
 2.3670627471e+000	 8.0437177429e-001	 9.2727466463e-001
 2.3590388060e+000	 8.2760854992e-001	 8.5644277189e-001
 2.3507679787e+000	 8.5081720161e-001	 7.8029117411e-001
 2.3422498860e+000	 8.7399397693e-001	 6.9962687435e-001
 2.3334842215e+000	 8.9713510015e-001	 6.1534113339e-001
 2.3244707527e+000	 9.2023677391e-001	 5.2840922264e-001
 2.4275323694e+000	 6.9477449249e-001	 1.1576245634e+000
 2.4206667202e+000	 7.1832975018e-001	 1.1381036623e+000
 2.4135546964e+000	 7.4187514273e-001	 1.1070534777e+000
 2.4061955637e+000	 7.6540702195e-001	 1.0649149526e+000
 2.3985886555e+000	 7.8892170823e-001	 1.0122173154e+000
 2.3907333746e+000	 8.1241549204e-001	 9.4957881483e-001
 2.3826291940e+000	 8.3588463542e-001	 8.7770726662e-001
 2.3742756584e+000	 8.5932537363e-001	 7.9740040249e-001
 2.3656723848e+000	 8.8273391670e-001	 7.0954601823e-001
 2.3568190637e+000	 9.0610645115e-001	 6.1512191477e-001
 2.3477154602e+000	 9.2943914165e-001	 5.1519562749e-001
 2.4515673434e+000	 7.0165344787e-001	 1.1255921862e+000
 2.4446337174e+000	 7.2544192593e-001	 1.1236625145e+000
 2.4374512776e+000	 7.4922044118e-001	 1.1067385079e+000
 2.4300192822e+000	 7.7298530930e-001	 1.0753128297e+000
 2.4223370580e+000	 7.9673281426e-001	 1.0299722112e+000
 2.4144040021e+000	 8.2045920978e-001	 9.7139821540e-001
 2.4062195821e+000	 8.4416072093e-001	 9.0036779959e-001
 2.3977833382e+000	 8.6783354565e-001	 8.1775367345e-001
 2.3890948837e+000	 8.9147385648e-001	 7.2452444456e-001
 2.3801539060e+000	 9.1507780216e-001	 6.2174454694e-001
 2.3709601677e+000	 9.3864150939e-001	 5.1057394748e-001
 2.4756023173e+000	 7.0853240324e-001	 1.0838288194e+000
 2.4686007146e+000	 7.3255410168e-001	 1.1014813820e+000
 2.4613478587e+000	 7.5656573962e-001	 1.1006408400e+000
 2.4538430006e+000	 7.8056359665e-001	 1.0818512553e+000
 2.4460854606e+000	 8.0454392028e-001	 1.0457566123e+000
 2.4380746295e+000	 8.2850292753e-001	 9.9310160961e-001
 2.4298099702e+000	 8.5243680643e-001	 9.2473224208e-001
 2.4212910180e+000	 8.7634171767e-001	 8.4159616735e-001
 2.4125173825e+000	 9.0021379625e-001	 7.4474285005e-001
 2.4034887482e+000	 9.2404915316e-001	 6.3532347852e-001
 2.3942048752e+000	 9.4784387714e-001	 5.1459064875e-001
 2.4996372913e+000	 7.1541135862e-001	 1.0329700658e+000
 2.4925677118e+000	 7.3966627743e-001	 1.0721463895e+000
 2.4852444399e+000	 7.6391103807e-001	 1.0892952363e+000
 2.4776667191e+000	 7.8814188400e-001	 1.0850117611e+000
 2.4698338631e+000	 8.1235502631e-001	 1.0599969691e+000
 2.4617452570e+000	 8.3654664528e-001	 1.0150585365e+000
 2.4534003582e+000	 8.6071289193e-001	 9.5111141325e-001
 2.4447986978e+000	 8.8484988969e-001	 8.6917819868e-001
 2.4359398814e+000	 9.0895373602e-001	 7.7038928538e-001
 2.4268235904e+000	 9.3302050416e-001	 6.5598276463e-001
 2.4174495828e+000	 9.5704624488e-001	 5.2730408843e-001
 2.5236722653e+000	 7.2229031399e-001	 1.0441304820e+000
 2.5165347091e+000	 7.4677845317e-001	 1.0559610427e+000
 2.5091410210e+000	 7.7125633651e-001	 1.0686572512e+000
 2.5014904375e+000	 7.9572017134e-001	 1.0821400384e+000
 2.4935822656e+000	 8.2016613233e-001	 1.0731184734e+000
 2.4854158845e+000	 8.4459036302e-001	 1.0376392929e+000
 2.4769907463e+000	 8.6898897743e-001	 9.7981893974e-001
 2.4683063776e+000	 8.9335806171e-001	 9.0075497170e-001
 2.4593623803e+000	 9.1769367579e-001	 8.0165880508e-001
 2.4501584326e+000	 9.4199185517e-001	 6.8385560950e-001
 2.4406942903e+000	 9.6624861262e-001	 5.4878394840e-001
 2.5477072392e+000	 7.2916926936e-001	 1.0401751179e+000
 2.5405017063e+000	 7.5389062892e-001	 1.0355034770e+000
 2.5330376022e+000	 7.7860163495e-001	 1.0306392847e+000
 2.5253141560e+000	 8.0329845869e-001	 1.0255169517e+000
 2.5173306682e+000	 8.2797723835e-001	 1.0200335747e+000
 2.5090865119e+000	 8.5263408076e-001	 1.0140496536e+000
 2.5005811343e+000	 8.7726506293e-001	 1.0073899126e+000
 2.4918140574e+000	 9.0186623372e-001	 9.3658634967e-001
 2.4827848791e+000	 9.2643361556e-001	 8.3875313711e-001
 2.4734932748e+000	 9.5096320617e-001	 7.1908393486e-001
 2.4639389978e+000	 9.7545098036e-001	 5.7911070110e-001
 2.5717422132e+000	 7.3604822473e-001	 1.0206491000e+000
 2.5644687035e+000	 7.6100280466e-001	 1.0012538235e+000
 2.5569341833e+000	 7.8594693340e-001	 9.8065024659e-001
 2.5491378744e+000	 8.1087674604e-001	 9.5878476480e-001
 2.5410790707e+000	 8.3578834438e-001	 9.3556684916e-001
 2.5327571394e+000	 8.6067779851e-001	 9.1086979524e-001
 2.5241715224e+000	 8.8554114843e-001	 8.8453157793e-001
 2.5153217372e+000	 9.1037440574e-001	 8.5635581141e-001
 2.5062073780e+000	 9.3517355533e-001	 8.2611281317e-001
 2.4968281170e+000	 9.5993455717e-001	 7.6181797263e-001
 2.4871837053e+000	 9.8465334810e-001	 6.1837510529e-001
 2.5957771871e+000	 7.4292718010e-001	 9.8623364412e-001
 2.5884357008e+000	 7.6811498040e-001	 9.5387194270e-001
 2.5808307645e+000	 7.9329223184e-001	 9.1932801429e-001
 2.5729615929e+000	 8.1845503338e-001	 8.8255874051e-001
 2.5648274732e+000	 8.4359945040e-001	 8.4348441157e-001
 2.5564277669e+000	 8.6872151625e-001	 8.0198950919e-001
 2.5477619105e+000	 8.9381723393e-001	 7.5792359654e-001
 2.5388294169e+000	 9.1888257776e-001	 7.1110231464e-001
 2.5296298768e+000	 9.4391349510e-001	 6.6130848414e-001
 2.5201629592e+000	 9.6890590817e-001	 6.0829331096e-001
 2.5104284129e+000	 9.9385571584e-001	 5.5177769399e-001
 2.6198121611e+000	 7.4980613547e-001	 9.3760254548e-001
 2.6124026980e+000	 7.7522715614e-001	 8.9401182564e-001
 2.6047273457e+000	 8.0063753028e-001	 8.4730617691e-001
 2.5967853113e+000	 8.2603332072e-001	 7.9745146289e-001
 2.5885758757e+000	 8.5141055642e-001	 7.4437723323e-001
 2.5800983944e+000	 8.7676523399e-001	 6.8797754164e-001
 2.5713522985e+000	 9.0209331943e-001	 6.2811187249e-001
 2.5623370967e+000	 9.2739074977e-001	 5.6460617539e-001
 2.5530523757e+000	 9.5265343487e-001	 4.9725400629e-001
 2.5434978015e+000	 9.7787725917e-001	 4.2581777392e-001
 2.5336731204e+000	 1.0030580836e+000	 3.5003008939e-001
 2.6438471350e+000	 7.5668509084e-001	 8.7542251603e-001
 2.6363696952e+000	 7.8233933189e-001	 8.2232186094e-001
 2.6286239268e+000	 8.0798282872e-001	 7.6521422997e-001
 2.6206090298e+000	 8.3361160807e-001	 7.0407295921e-001
 2.6123242783e+000	 8.5922166244e-001	 6.3883529265e-001
 2.6037690218e+000	 8.8480895173e-001	 5.6940323667e-001
 2.5949426866e+000	 9.1036940492e-001	 4.9564452488e-001
 2.5858447765e+000	 9.3589892178e-001	 4.1739369233e-001
 2.5764748746e+000	 9.6139337463e-001	 3.3445325790e-001
 2.5668326437e+000	 9.8684861017e-001	 2.4659501325e-001
 2.5569178279e+000	 1.0122604513e+000	 1.5356141629e-001
 2.3244707527e+000	 9.2023677391e-001	 5.2840922264e-001
 2.3152093213e+000	 9.4329518099e-001	 4.7428880914e-001
 2.3056998450e+000	 9.6630648602e-001	 4.1343737089e-001
 2.2959423174e+000	 9.8926683732e-001	 3.4773338609e-001
 2.2859368093e+000	 1.0121723687e+000	 2.7915041218e-001
 2.2756834694e+000	 1.0350192013e+000	 2.0975527665e-001
 2.2651825247e+000	 1.0578034457e+000	 1.4170602509e-001
 2.2544342814e+000	 1.0805212035e+000	 7.7249626352e-002
 2.2434391250e+000	 1.1031685694e+000	 1.8719435283e-002
 2.2321975215e+000	 1.1257416334e+000	-3.1467585733e-002
 2.2207100171e+000	 1.1482364826e+000	-7.0813884540e-002
 2.3477154602e+000	 9.2943914165e-001	 5.1519562749e-001
 2.3383614145e+000	 9.5272813280e-001	 4.6747475077e-001
 2.3287568434e+000	 9.7596955088e-001	 4.1361889503e-001
 2.3189017405e+000	 9.9915950569e-001	 3.5548188378e-001
 2.3087961774e+000	 1.0222940924e+000	 2.9501367265e-001
 2.2984403041e+000	 1.0453693934e+000	 2.3425854620e-001
 2.2878343500e+000	 1.0683814802e+000	 1.7535306801e-001
 2.2769786242e+000	 1.0913264155e+000	 1.2052378351e-001
 2.2658735162e+000	 1.1142002551e+000	 7.2084676252e-002
 2.2545194967e+000	 1.1369990498e+000	 3.2434378680e-002
 2.2429171172e+000	 1.1597188475e+000	 4.0531392947e-003
 2.3709601677e+000	 9.3864150939e-001	 5.1057394748e-001
 2.3615135077e+000	 9.6216108461e-001	 4.6593585329e-001
 2.3518138419e+000	 9.8563261575e-001	 4.1565297157e-001
 2.3418611637e+000	 1.0090521741e+000	 3.6155673943e-001
 2.3316555455e+000	 1.0324158161e+000	 3.0557591570e-001
 2.3211971388e+000	 1.0557195854e+000	 2.4973478267e-001
 2.3104861752e+000	 1.0789595146e+000	 1.9615109659e-001
 2.2995229670e+000	 1.1021316275e+000	 1.4703378657e-001
 2.2883079075e+000	 1.1252319408e+000	 1.0468040237e-001
 2.2768414719e+000	 1.1482564661e+000	 7.1474312231e-002
 2.2651242174e+000	 1.1712012123e+000	 4.9881652481e-002
 2.3942048752e+000	 9.4784387714e-001	 5.1459064875e-001
 2.3846656010e+000	 9.7159403643e-001	 4.6979553562e-001
 2.3748708403e+000	 9.9529568061e-001	 4.1974045648e-001
 2.3648205869e+000	 1.0189448424e+000	 3.6623671139e-001
 2.3545149136e+000	 1.0425375398e+000	 3.1119424863e-001
 2.3439539735e+000	 1.0660697774e+000	 2.5661987004e-001
 2.3331380004e+000	 1.0895375491e+000	 2.0461518057e-001
 2.3220673098e+000	 1.1129368396e+000	 1.5737428148e-001
 2.3107422987e+000	 1.1362636265e+000	 1.1718120773e-001
 2.2991634471e+000	 1.1595138824e+000	 8.6407110637e-002
 2.2873313176e+000	 1.1826835771e+000	 6.7507187536e-002
 2.4174495828e+000	 9.5704624488e-001	 5.2730408843e-001
 2.4078176942e+000	 9.8102698824e-001	 4.7918578330e-001
 2.3979278388e+000	 1.0049587455e+000	 4.2608739537e-001
 2.3877800100e+000	 1.0288375108e+000	 3.6980231937e-001
 2.3773742817e+000	 1.0526592634e+000	 3.1222406168e-001
 2.3667108082e+000	 1.0764199694e+000	 2.5534444807e-001
 2.3557898257e+000	 1.1001155835e+000	 2.0125157084e-001
 2.3446116526e+000	 1.1237420516e+000	 1.5212747465e-001
 2.3331766900e+000	 1.1472953122e+000	 1.1024558156e-001
 2.3214854223e+000	 1.1707712988e+000	 7.7967856263e-002
 2.3095384178e+000	 1.1941659420e+000	 5.7741713473e-002
 2.4406942903e+000	 9.6624861262e-001	 5.4878394840e-001
 2.4309697874e+000	 9.9045994005e-001	 4.9424674052e-001
 2.4209848372e+000	 1.0146218103e+000	 4.3490477638e-001
 2.4107394332e+000	 1.0387301792e+000	 3.7253576057e-001
 2.4002336497e+000	 1.0627809871e+000	 3.0901910982e-001
 2.3894676429e+000	 1.0867701614e+000	 2.4633416200e-001
 2.3784416509e+000	 1.1106936180e+000	 1.8655811937e-001
 2.3671559954e+000	 1.1345472636e+000	 1.3186372531e-001
 2.3556110812e+000	 1.1583269979e+000	 8.4516675100e-002
 2.3438073975e+000	 1.1820287151e+000	 4.6872761623e-002
 2.3317455179e+000	 1.2056483068e+000	 2.1374757876e-002
 2.4639389978e+000	 9.7545098036e-001	 5.7911070110e-001
 2.4541218806e+000	 9.9989289186e-001	 5.1512632534e-001
 2.4440418357e+000	 1.0242848752e+000	 4.4640829706e-001
 2.4336988564e+000	 1.0486228476e+000	 3.7472083053e-001
 2.4230930178e+000	 1.0729027108e+000	 3.0193158987e-001
 2.4122244775e+000	 1.0971203534e+000	 2.3000989820e-001
 2.4010934762e+000	 1.1212716525e+000	 1.6102467541e-001
 2.3897003382e+000	 1.1453524757e+000	 9.7142104332e-002
 2.3780454725e+000	 1.1693586836e+000	 4.0623025158e-002
 2.3661293727e+000	 1.1932861314e+000	-6.1799405401e-003
 2.3539526181e+000	 1.2171306716e+000	-4.0825534543e-002
 2.4871837053e+000	 9.8465334810e-001	 6.1837510529e-001
 2.4772739738e+000	 1.0093258437e+000	 5.4197986635e-001
 2.4670988341e+000	 1.0339479401e+000	 4.6081814428e-001
 2.4566582796e+000	 1.0585155159e+000	 3.7664284846e-001
 2.4459523859e+000	 1.0830244345e+000	 2.9131221335e-001
 2.4349813122e+000	 1.1074705454e+000	 2.0678800646e-001
 2.4237453014e+000	 1.1318496869e+000	 1.2513345944e-001
 2.4122446810e+000	 1.1561576877e+000	 4.8510921743e-002
 2.4004798637e+000	 1.1803903692e+000	-2.0820763034e-002
 2.3884513479e+000	 1.2045435478e+000	-8.0509157075e-002
 2.3761597183e+000	 1.2286130364e+000	-1.2811140274e-001
 2.5104284129e+000	 9.9385571584e-001	 5.5177769399e-001
 2.5004260670e+000	 1.0187587955e+000	 5.6993219751e-001
 2.4901558326e+000	 1.0436110049e+000	 4.7835878638e-001
 2.4796177027e+000	 1.0684081843e+000	 3.7858858669e-001
 2.4688117540e+000	 1.0931461582e+000	 2.7751027517e-001
 2.4577381469e+000	 1.1178207375e+000	 1.7708051010e-001
 2.4463971267e+000	 1.1424277214e+000	 7.9359416337e-002
 2.4347890238e+000	 1.1669628997e+000	-1.3491775113e-002
 2.4229142550e+000	 1.1914220549e+000	-9.9213370815e-002
 2.4107733232e+000	 1.2158009641e+000	-1.7545014092e-001
 2.3983668184e+000	 1.2400954013e+000	-2.3975452567e-001
 2.5336731204e+000	 1.0030580836e+000	 3.5003008939e-001
 2.5235781602e+000	 1.0281917473e+000	 3.3375729279e-001
 2.5132128310e+000	 1.0532740698e+000	 3.3299404048e-001
 2.5025771259e+000	 1.0783008527e+000	 3.4690597228e-001
 2.4916711221e+000	 1.1032678819e+000	 2.6087371869e-001
 2.4804949816e+000	 1.1281709295e+000	 1.4129530439e-001
 2.4690489519e+000	 1.1530057558e+000	 2.4170549143e-002
 2.4573333667e+000	 1.1777681118e+000	-8.8337730791e-002
 2.4453486462e+000	 1.2024537406e+000	-1.9396615662e-001
 2.4330952984e+000	 1.2270583804e+000	-2.9035374129e-001
 2.4205739186e+000	 1.2515777661e+000	-3.6005139170e-001
 2.5569178279e+000	 1.0122604513e+000	 1.5356141629e-001
 2.5467302535e+000	 1.0376246991e+000	 1.0090732972e-001
 2.5362698295e+000	 1.0629371346e+000	 6.5616483451e-002
 2.5255365491e+000	 1.0881935211e+000	 4.6747265826e-002
 2.5145304902e+000	 1.1133896056e+000	 4.3307314158e-002
 2.5032518163e+000	 1.1385211215e+000	 5.4255676760e-002
 2.4917007772e+000	 1.1635837903e+000	-3.9971765411e-002
 2.4798777095e+000	 1.1885733238e+000	-1.7550803667e-001
 2.4677830375e+000	 1.2134854263e+000	-3.0450257976e-001
 2.4554172736e+000	 1.2383157968e+000	-4.2458569475e-001
 2.4427810188e+000	 1.2630601309e+000	-4.0354581563e-001
 2.2207100171e+000	 1.1482364826e+000	-7.0813884540e-002
 2.2089772391e+000	 1.1706492033e+000	-2.4255230753e-001
 2.1969998960e+000	 1.1929758828e+000	-3.9875442889e-001
 2.1847787778e+000	 1.2152126119e+000	-5.3706469214e-001
 2.1723147561e+000	 1.2373554867e+000	-6.5506303988e-001
 2.1596087844e+000	 1.2594006108e+000	-7.1348329729e-001
 2.1466618980e+000	 1.2813440973e+000	-7.0814118404e-001
 2.1334752143e+000	 1.3031820709e+000	-6.9222538989e-001
 2.1200499323e+000	 1.3249106704e+000	-6.6564236206e-001
 2.1063873328e+000	 1.3465260504e+000	-6.2830641259e-001
 2.0924887780e+000	 1.3680243835e+000	-5.8014027154e-001
 2.2429171172e+000	 1.1597188475e+000	 4.0531392947e-003
 2.2310670115e+000	 1.1823556953e+000	-1.6900638460e-001
 2.2189698950e+000	 1.2049056416e+000	-3.2990068840e-001
 2.2066265656e+000	 1.2273647380e+000	-4.7619897960e-001
 2.1940379036e+000	 1.2497290416e+000	-6.0540071501e-001
 2.1812048722e+000	 1.2719946169e+000	-6.1390631458e-001
 2.1681285170e+000	 1.2941575382e+000	-6.1321755522e-001
 2.1548099664e+000	 1.3162138916e+000	-6.0454380903e-001
 2.1412504316e+000	 1.3381597771e+000	-5.8778027155e-001
 2.1274512061e+000	 1.3599913109e+000	-5.6282773872e-001
 2.1134136658e+000	 1.3817046273e+000	-5.2959316884e-001
 2.2651242174e+000	 1.1712012123e+000	 4.9881652481e-002
 2.2531567839e+000	 1.1940621873e+000	-1.2543055374e-001
 2.2409398939e+000	 1.2168354005e+000	-2.9194663014e-001
 2.2284743533e+000	 1.2395168641e+000	-4.4715822897e-001
 2.2157610512e+000	 1.2621025965e+000	-5.2176370134e-001
 2.2028009601e+000	 1.2845886230e+000	-5.3117644090e-001
 2.1895951360e+000	 1.3069709792e+000	-5.3526593693e-001
 2.1761447186e+000	 1.3292457123e+000	-5.3391281862e-001
 2.1624509309e+000	 1.3514088839e+000	-5.2700050845e-001
 2.1485150794e+000	 1.3734565714e+000	-5.1441579359e-001
 2.1343385536e+000	 1.3953848711e+000	-4.9604939765e-001
 2.2873313176e+000	 1.1826835771e+000	 6.7507187536e-002
 2.2752465563e+000	 1.2057686794e+000	-1.1100518928e-001
 2.2629098929e+000	 1.2287651593e+000	-2.8409054344e-001
 2.2503221411e+000	 1.2516689903e+000	-4.3859836006e-001
 2.2374841988e+000	 1.2744761513e+000	-4.5310323889e-001
 2.2243970479e+000	 1.2971826291e+000	-4.6492172572e-001
 2.2110617550e+000	 1.3197844202e+000	-4.7392436363e-001
 2.1974794707e+000	 1.3422775331e+000	-4.7998169924e-001
 2.1836514302e+000	 1.3646579906e+000	-4.8296485691e-001
 2.1695789527e+000	 1.3869218319e+000	-4.8274611787e-001
 2.1552634414e+000	 1.4090651150e+000	-4.7919950282e-001
 2.3095384178e+000	 1.1941659420e+000	 5.7741713473e-002
 2.2973363287e+000	 1.2174751714e+000	-1.2493429396e-001
 2.2848798918e+000	 1.2406949181e+000	-3.0555436070e-001
 2.2721699289e+000	 1.2638211164e+000	-3.8575532626e-001
 2.2592073463e+000	 1.2868497062e+000	-4.0038138948e-001
 2.2459931357e+000	 1.3097766352e+000	-4.1479360233e-001
 2.2325283739e+000	 1.3325978612e+000	-4.2885406555e-001
 2.2188142229e+000	 1.3553093538e+000	-4.4242268815e-001
 2.2048519296e+000	 1.3779070973e+000	-4.5535776749e-001
 2.1906428261e+000	 1.4003870924e+000	-4.6751657726e-001
 2.1761883292e+000	 1.4227453588e+000	-4.7875596166e-001
 2.3317455179e+000	 1.2056483068e+000	 2.1374757876e-002
 2.3194261010e+000	 1.2291816635e+000	-1.6644437369e-001
 2.3068498908e+000	 1.2526246769e+000	-3.3565207823e-001
 2.2940177167e+000	 1.2759732425e+000	-3.4827817567e-001
 2.2809304939e+000	 1.2992232611e+000	-3.6326340346e-001
 2.2675892236e+000	 1.3223706413e+000	-3.8046577435e-001
 2.2539949929e+000	 1.3454113021e+000	-3.9973836411e-001
 2.2401489750e+000	 1.3683411745e+000	-4.2092988604e-001
 2.2260524289e+000	 1.3911562040e+000	-4.4388527782e-001
 2.2117066994e+000	 1.4138523529e+000	-4.6844629936e-001
 2.1971132169e+000	 1.4364256026e+000	-4.9445213954e-001
 2.3539526181e+000	 1.2171306716e+000	-4.0825534543e-002
 2.3415158734e+000	 1.2408881555e+000	-2.3478337614e-001
 2.3288198898e+000	 1.2645544358e+000	-3.1501386898e-001
 2.3158655044e+000	 1.2881253686e+000	-3.2584629498e-001
 2.3026536414e+000	 1.3115968159e+000	-3.4143587547e-001
 2.2891853114e+000	 1.3349646475e+000	-3.6163316520e-001
 2.2754616119e+000	 1.3582247431e+000	-3.8628162992e-001
 2.2614837271e+000	 1.3813729952e+000	-4.1521822581e-001
 2.2472529282e+000	 1.4044053107e+000	-4.4827399437e-001
 2.2327705727e+000	 1.4273176134e+000	-4.8527467084e-001
 2.2180381047e+000	 1.4501058465e+000	-5.2604130459e-001
 2.3761597183e+000	 1.2286130364e+000	-1.2811140274e-001
 2.3636056458e+000	 1.2525946475e+000	-3.0676402534e-001
 2.3507898887e+000	 1.2764841946e+000	-3.0882967580e-001
 2.3377132922e+000	 1.3002774948e+000	-3.1815949244e-001
 2.3243767890e+000	 1.3239703708e+000	-3.3460574703e-001
 2.3107813993e+000	 1.3475586536e+000	-3.5801092659e-001
 2.2969282309e+000	 1.3710381841e+000	-3.8820829910e-001
 2.2828184793e+000	 1.3944048159e+000	-4.2502249907e-001
 2.2684534275e+000	 1.4176544174e+000	-4.6827013122e-001
 2.2538344460e+000	 1.4407828739e+000	-5.1776039063e-001
 2.2389629925e+000	 1.4637860903e+000	-5.7329569770e-001
 2.3983668184e+000	 1.2400954013e+000	-2.3975452567e-001
 2.3856954182e+000	 1.2643011396e+000	-3.1828077665e-001
 2.3727598877e+000	 1.2884139534e+000	-3.1681275813e-001
 2.3595610800e+000	 1.3124296209e+000	-3.2493705244e-001
 2.3460999366e+000	 1.3363439257e+000	-3.4249936457e-001
 2.3323774871e+000	 1.3601526597e+000	-3.6933350195e-001
 2.3183948499e+000	 1.3838516251e+000	-4.0526194441e-001
 2.3041532314e+000	 1.4074366366e+000	-4.5009643676e-001
 2.2896539269e+000	 1.4309035241e+000	-5.0363860237e-001
 2.2748983194e+000	 1.4542481344e+000	-5.6568057596e-001
 2.2598878803e+000	 1.4774663341e+000	-6.3600565411e-001
 2.4205739186e+000	 1.2515777661e+000	-3.6005139170e-001
 2.4077851906e+000	 1.2760076316e+000	-3.4335751726e-001
 2.3947298867e+000	 1.3003437123e+000	-3.3869498625e-001
 2.3814088678e+000	 1.3245817470e+000	-3.4591684211e-001
 2.3678230841e+000	 1.3487174805e+000	-3.6486158927e-001
 2.3539735750e+000	 1.3727466658e+000	-3.9535374155e-001
 2.3398614688e+000	 1.3966650660e+000	-4.3720439737e-001
 2.3254879836e+000	 1.4204684573e+000	-4.9021184038e-001
 2.3108544262e+000	 1.4441526308e+000	-5.5416216389e-001
 2.2959621927e+000	 1.4677133949e+000	-6.2882991738e-001
 2.2808127681e+000	 1.4911465780e+000	-7.1397877342e-001
 2.4427810188e+000	 1.2630601309e+000	-4.0354581563e-001
 2.4298749630e+000	 1.2877141236e+000	-3.8173887330e-001
 2.4166998856e+000	 1.3122734711e+000	-3.7422599538e-001
 2.4032566556e+000	 1.3367338731e+000	-3.8085446665e-001
 2.3895462317e+000	 1.3610910354e+000	-4.0145495550e-001
 2.3755696628e+000	 1.3853406719e+000	-4.3584206578e-001
 2.3613280878e+000	 1.4094785070e+000	-4.8381491832e-001
 2.3468227357e+000	 1.4335002780e+000	-5.4515776057e-001
 2.3320549255e+000	 1.4574017375e+000	-6.1964060297e-001
 2.3170260660e+000	 1.4811786555e+000	-7.0701988006e-001
 2.3017376559e+000	 1.5048268218e+000	-8.0703913482e-001
 2.0924887780e+000	 1.3680243835e+000	-5.8014027154e-001
 2.0783557117e+000	 1.3894018625e+000	-6.2904559579e-001
 2.0639896582e+000	 1.4106547028e+000	-6.8106735147e-001
 2.0493922227e+000	 1.4317791441e+000	-7.3588946249e-001
 2.0345650901e+000	 1.4527714528e+000	-7.9319220792e-001
 2.0195100253e+000	 1.4736279238e+000	-8.5265292469e-001
 2.0042288717e+000	 1.4943448831e+000	-9.1394671448e-001
 1.9887235515e+000	 1.5149186895e+000	-9.7674715315e-001
 1.9729960641e+000	 1.5353457367e+000	-1.0407270007e+000
 1.9570484858e+000	 1.5556224556e+000	-1.1055589097e+000
 1.9408829689e+000	 1.5757453160e+000	-1.1709161313e+000
 2.1134136658e+000	 1.3817046273e+000	-5.2959316884e-001
 2.0991392688e+000	 1.4032958811e+000	-5.8475235491e-001
 2.0846295548e+000	 1.4247612499e+000	-6.4337568553e-001
 2.0698861449e+000	 1.4460969356e+000	-7.0502919571e-001
 2.0549107410e+000	 1.4672991673e+000	-7.6927457321e-001
 2.0397051255e+000	 1.4883642030e+000	-8.3566999504e-001
 2.0242711605e+000	 1.5092883319e+000	-9.0377096973e-001
 2.0086107870e+000	 1.5300678764e+000	-9.7313118330e-001
 1.9927260247e+000	 1.5506991940e+000	-1.0433033468e+000
 1.9766189706e+000	 1.5711786801e+000	-1.1138400433e+000
 1.9602917986e+000	 1.5915027692e+000	-1.1842945722e+000
 2.1343385536e+000	 1.3953848711e+000	-4.9604939765e-001
 2.1199228259e+000	 1.4171898998e+000	-5.5458916393e-001
 2.1052694514e+000	 1.4388677969e+000	-6.1693092117e-001
 2.0903800671e+000	 1.4604147270e+000	-6.8252385728e-001
 2.0752563919e+000	 1.4818268818e+000	-7.5081212434e-001
 2.0599002258e+000	 1.5031004823e+000	-8.2123580835e-001
 2.0443134492e+000	 1.5242317808e+000	-8.9323190626e-001
 2.0284980225e+000	 1.5452170632e+000	-9.6623530787e-001
 2.0124559853e+000	 1.5660526514e+000	-1.0396797804e+000
 1.9961894555e+000	 1.5867349047e+000	-1.1129989531e+000
 1.9797006283e+000	 1.6072602223e+000	-1.1856273000e+000
 2.1552634414e+000	 1.4090651150e+000	-4.7919950282e-001
 2.1407063830e+000	 1.4310839184e+000	-5.3834324999e-001
 2.1259093480e+000	 1.4529743439e+000	-6.0161707347e-001
 2.1108739893e+000	 1.4747325185e+000	-6.6835430715e-001
 2.0956020428e+000	 1.4963545964e+000	-7.3788257408e-001
 2.0800953260e+000	 1.5178367615e+000	-8.0952488905e-001
 2.0643557379e+000	 1.5391752296e+000	-8.8260076971e-001
 2.0483852580e+000	 1.5603662501e+000	-9.5642735398e-001
 2.0321859460e+000	 1.5814061088e+000	-1.0303205209e+000
 2.0157599404e+000	 1.6022911292e+000	-1.1035960126e+000
 1.9991094580e+000	 1.6230176755e+000	-1.1755705542e+000
 2.1761883292e+000	 1.4227453588e+000	-4.7875596166e-001
 2.1614899402e+000	 1.4449779370e+000	-5.3582023526e-001
 2.1465492446e+000	 1.4670808910e+000	-5.9733300742e-001
 2.1313679116e+000	 1.4890503099e+000	-6.6251270401e-001
 2.1159476937e+000	 1.5108823109e+000	-7.3057137849e-001
 2.1002904263e+000	 1.5325730408e+000	-8.0071594670e-001
 2.0843980266e+000	 1.5541186784e+000	-8.7214943181e-001
 2.0682724935e+000	 1.5755154370e+000	-9.4407221648e-001
 2.0519159066e+000	 1.5967595661e+000	-1.0156832997e+000
 2.0353304252e+000	 1.6178473538e+000	-1.0861815551e+000
 2.0185182877e+000	 1.6387751286e+000	-1.1547669882e+000
 2.1971132169e+000	 1.4364256026e+000	-4.9445213954e-001
 2.1822734973e+000	 1.4588719557e+000	-5.4684326097e-001
 2.1671891411e+000	 1.4811874380e+000	-6.0399173077e-001
 2.1518618338e+000	 1.5033681014e+000	-6.6500196731e-001
 2.1362933446e+000	 1.5254100254e+000	-7.2897136818e-001
 2.1204855265e+000	 1.5473093200e+000	-7.9499167678e-001
 2.1044403153e+000	 1.5690621273e+000	-8.6215036056e-001
 2.0881597291e+000	 1.5906646239e+000	-9.2953199763e-001
 2.0716458673e+000	 1.6121130235e+000	-9.9621966885e-001
 2.0549009101e+000	 1.6334035783e+000	-1.0612963523e+000
 2.0379271174e+000	 1.6545325818e+000	-1.1238463169e+000
 2.2180381047e+000	 1.4501058465e+000	-5.2604130459e-001
 2.2030570544e+000	 1.4727659743e+000	-5.7125216104e-001
 2.1878290377e+000	 1.4952939850e+000	-6.2151972692e-001
 2.1723557560e+000	 1.5176858928e+000	-6.7583526965e-001
 2.1566389955e+000	 1.5399377400e+000	-7.3318240049e-001
 2.1406806268e+000	 1.5620455992e+000	-7.9253857261e-001
 2.1244826040e+000	 1.5840055761e+000	-8.5287659212e-001
 2.1080469646e+000	 1.6058138108e+000	-9.1316613873e-001
 2.0913758279e+000	 1.6274664809e+000	-9.7237529272e-001
 2.0744713949e+000	 1.6489598029e+000	-1.0294720650e+000
 2.0573359470e+000	 1.6702900350e+000	-1.0834259266e+000
 2.2389629925e+000	 1.4637860903e+000	-5.7329569770e-001
 2.2238406115e+000	 1.4866599929e+000	-6.0890268209e-001
 2.2084689343e+000	 1.5094005321e+000	-6.4985632524e-001
 2.1928496783e+000	 1.5320036842e+000	-6.9503555766e-001
 2.1769846464e+000	 1.5544654545e+000	-7.4331103113e-001
 2.1608757270e+000	 1.5767818785e+000	-7.9354674790e-001
 2.1445248928e+000	 1.5989490249e+000	-8.4460170422e-001
 2.1279342001e+000	 1.6209629977e+000	-8.9533154455e-001
 2.1111057885e+000	 1.6428199382e+000	-9.4459022311e-001
 2.0940418798e+000	 1.6645160274e+000	-9.9123166892e-001
 2.0767447767e+000	 1.6860474881e+000	-1.0341114510e+000
 2.2598878803e+000	 1.4774663341e+000	-6.3600565411e-001
 2.2446241686e+000	 1.5005540115e+000	-6.5966574666e-001
 2.2291088309e+000	 1.5235070791e+000	-6.8895310632e-001
 2.2133436005e+000	 1.5463214757e+000	-7.2263509950e-001
 2.1973302973e+000	 1.5689931690e+000	-7.5947020404e-001
 2.1810708273e+000	 1.5915181577e+000	-7.9820976915e-001
 2.1645671815e+000	 1.6138924738e+000	-8.3759979111e-001
 2.1478214356e+000	 1.6361121846e+000	-8.7638270074e-001
 2.1308357492e+000	 1.6581733956e+000	-9.1329915902e-001
 2.1136123646e+000	 1.6800722520e+000	-9.4708985694e-001
 2.0961536064e+000	 1.7018049413e+000	-9.7649731572e-001
 2.2808127681e+000	 1.4911465780e+000	-7.1397877342e-001
 2.2654077258e+000	 1.5144480302e+000	-7.2342675714e-001
 2.2497487275e+000	 1.5376136261e+000	-7.3877333998e-001
 2.2338375227e+000	 1.5606392671e+000	-7.5867505726e-001
 2.2176759482e+000	 1.5835208835e+000	-7.8177895838e-001
 2.2012659275e+000	 1.6062544370e+000	-8.0672449727e-001
 2.1846094702e+000	 1.6288359226e+000	-8.3214543990e-001
 2.1677086711e+000	 1.6512613715e+000	-8.5667178477e-001
 2.1505657098e+000	 1.6735268530e+000	-8.7893169226e-001
 2.1331828495e+000	 1.6956284766e+000	-8.9755341886e-001
 2.1155624361e+000	 1.7175623944e+000	-9.1116725216e-001
 2.3017376559e+000	 1.5048268218e+000	-8.0703913482e-001
 2.2861912829e+000	 1.5283420488e+000	-8.0008493758e-001
 2.2703886241e+000	 1.5517201731e+000	-7.9929145398e-001
 2.2543314449e+000	 1.5749570586e+000	-8.0320508271e-001
 2.2380215991e+000	 1.5980485981e+000	-8.1036215147e-001
 2.2214610278e+000	 1.6209907162e+000	-8.1929093778e-001
 2.2046517589e+000	 1.6437793714e+000	-8.2851370809e-001
 2.1875959066e+000	 1.6664105584e+000	-8.3654877088e-001
 2.1702956705e+000	 1.6888803104e+000	-8.4191253955e-001
 2.1527533344e+000	 1.7111847011e+000	-8.4312160073e-001
 2.1349712658e+000	 1.7333198476e+000	-8.3869478360e-001
 1.9408829689e+000	 1.5757453160e+000	-1.1709161313e+000
 1.9245017408e+000	 1.5957108290e+000	-1.1587487464e+000
 1.9079071027e+000	 1.6155155485e+000	-1.1536678168e+000
 1.8911014290e+000	 1.6351560736e+000	-1.1553195048e+000
 1.8740871660e+000	 1.6546290504e+000	-1.1598580611e+000
 1.8568668306e+000	 1.6739311735e+000	-1.1180006135e+000
 1.8394430092e+000	 1.6930591885e+000	-1.0987055713e+000
 1.8218183566e+000	 1.7120098935e+000	-1.0999373812e+000
 1.8039955943e+000	 1.7307801408e+000	-1.1196224388e+000
 1.7859775094e+000	 1.7493668386e+000	-1.1556534471e+000
 1.7677669530e+000	 1.7677669530e+000	-1.2058938485e+000
 1.9602917986e+000	 1.5915027692e+000	-1.1842945722e+000
 1.9437467582e+000	 1.6116679373e+000	-1.1767132470e+000
 1.9269861737e+000	 1.6316707040e+000	-1.1734886176e+000
 1.9100124433e+000	 1.6515076344e+000	-1.1743214394e+000
 1.8928280376e+000	 1.6711753409e+000	-1.1789119083e+000
 1.8754354989e+000	 1.6906704852e+000	-1.1869603088e+000
 1.8578374393e+000	 1.7099897804e+000	-1.1558652320e+000
 1.8400365402e+000	 1.7291299925e+000	-1.1423467415e+000
 1.8220355503e+000	 1.7480879422e+000	-1.1456224986e+000
 1.8038372845e+000	 1.7668605069e+000	-1.1635843763e+000
 1.7854446225e+000	 1.7854446225e+000	-1.1940962192e+000
 1.9797006283e+000	 1.6072602223e+000	-1.1856273000e+000
 1.9629917756e+000	 1.6276250456e+000	-1.1850285832e+000
 1.9460652448e+000	 1.6478258595e+000	-1.1860985398e+000
 1.9289234576e+000	 1.6678591951e+000	-1.1885911458e+000
 1.9115689093e+000	 1.6877216314e+000	-1.1922626017e+000
 1.8940041672e+000	 1.7074097970e+000	-1.1968719373e+000
 1.8762318694e+000	 1.7269203723e+000	-1.2021816035e+000
 1.8582547237e+000	 1.7462500914e+000	-1.1796687039e+000
 1.8400755062e+000	 1.7653957436e+000	-1.1696995455e+000
 1.8216970596e+000	 1.7843541753e+000	-1.1728111738e+000
 1.8031222920e+000	 1.8031222920e+000	-1.1868644060e+000
 1.9991094580e+000	 1.6230176755e+000	-1.1755705542e+000
 1.9822367930e+000	 1.6435821538e+000	-1.1842915697e+000
 1.9651443158e+000	 1.6639810150e+000	-1.1920334036e+000
 1.9478344719e+000	 1.6842107558e+000	-1.1986019049e+000
 1.9303097810e+000	 1.7042679219e+000	-1.2038079095e+000
 1.9125728355e+000	 1.7241491087e+000	-1.2074678037e+000
 1.8946262995e+000	 1.7438509642e+000	-1.2094040709e+000
 1.8764729073e+000	 1.7633701903e+000	-1.2094458183e+000
 1.8581154622e+000	 1.7827035450e+000	-1.1913577543e+000
 1.8395568347e+000	 1.8018478437e+000	-1.1827837789e+000
 1.8207999616e+000	 1.8207999616e+000	-1.1835931173e+000
 2.0185182877e+000	 1.6387751286e+000	-1.1547669882e+000
 2.0014818104e+000	 1.6595392621e+000	-1.1750878568e+000
 1.9842233868e+000	 1.6801361704e+000	-1.1918203414e+000
 1.9667454862e+000	 1.7005623166e+000	-1.2048208396e+000
 1.9490506526e+000	 1.7208142124e+000	-1.2139534786e+000
 1.9311415038e+000	 1.7408884204e+000	-1.2190906383e+000
 1.9130207296e+000	 1.7607815561e+000	-1.2201134538e+000
 1.8946910909e+000	 1.7804902893e+000	-1.2169122942e+000
 1.8761554181e+000	 1.8000113464e+000	-1.2093872170e+000
 1.8574166098e+000	 1.8193415121e+000	-1.1929622137e+000
 1.8384776311e+000	 1.8384776311e+000	-1.1836900156e+000
 2.0379271174e+000	 1.6545325818e+000	-1.1238463169e+000
 2.0207268278e+000	 1.6754963704e+000	-1.1579924622e+000
 2.0033024578e+000	 1.6962913259e+000	-1.1859782110e+000
 1.9856565005e+000	 1.7169138773e+000	-1.2077092081e+000
 1.9677915243e+000	 1.7373605029e+000	-1.2231015508e+000
 1.9497101721e+000	 1.7576277322e+000	-1.2320822744e+000
 1.9314151596e+000	 1.7777121480e+000	-1.2345898108e+000
 1.9129092744e+000	 1.7976103882e+000	-1.2305744211e+000
 1.8941953740e+000	 1.8173191478e+000	-1.2199985994e+000
 1.8752763849e+000	 1.8368351805e+000	-1.2028374463e+000
 1.8561553006e+000	 1.8561553006e+000	-1.1865751011e+000
 2.0573359470e+000	 1.6702900350e+000	-1.0834259266e+000
 2.0399718452e+000	 1.6914534787e+000	-1.1335702724e+000
 2.0223815288e+000	 1.7124464814e+000	-1.1750179864e+000
 2.0045675147e+000	 1.7332654380e+000	-1.2077226803e+000
 1.9865323959e+000	 1.7539067934e+000	-1.2316511235e+000
 1.9682788404e+000	 1.7743670439e+000	-1.2467836912e+000
 1.9498095897e+000	 1.7946427398e+000	-1.2531147817e+000
 1.9311274580e+000	 1.8147304871e+000	-1.2506532041e+000
 1.9122353300e+000	 1.8346269492e+000	-1.2394225318e+000
 1.8931361600e+000	 1.8543288489e+000	-1.2194614239e+000
 1.8738329701e+000	 1.8738329701e+000	-1.1916801295e+000
 2.0767447767e+000	 1.6860474881e+000	-1.0341114510e+000
 2.0592168626e+000	 1.7074105870e+000	-1.1023765161e+000
 2.0414605999e+000	 1.7286016369e+000	-1.1594431260e+000
 2.0234785290e+000	 1.7496169988e+000	-1.2053115994e+000
 2.0052732676e+000	 1.7704530839e+000	-1.2399981010e+000
 1.9868475087e+000	 1.7911063556e+000	-1.2635350531e+000
 1.9682040198e+000	 1.8115733317e+000	-1.2759715139e+000
 1.9493456416e+000	 1.8318505861e+000	-1.2773735198e+000
 1.9302752859e+000	 1.8519347506e+000	-1.2678243922e+000
 1.9109959351e+000	 1.8718225172e+000	-1.2474250064e+000
 1.8915106397e+000	 1.8915106397e+000	-1.1406026036e+000
 2.0961536064e+000	 1.7018049413e+000	-9.7649731572e-001
 2.0784618800e+000	 1.7233676953e+000	-1.0649572118e+000
 2.0605396709e+000	 1.7447567924e+000	-1.1397499206e+000
 2.0423895433e+000	 1.7659685595e+000	-1.2009212280e+000
 2.0240141392e+000	 1.7869993744e+000	-1.2485354377e+000
 2.0054161770e+000	 1.8078456674e+000	-1.2826757481e+000
 1.9865984499e+000	 1.8285039236e+000	-1.3034445922e+000
 1.9675638251e+000	 1.8489706850e+000	-1.3109639372e+000
 1.9483152419e+000	 1.8692425520e+000	-1.3053755448e+000
 1.9288557102e+000	 1.8893161856e+000	-1.2213722175e+000
 1.9091883092e+000	 1.9091883092e+000	-1.1012621888e+000
 2.1155624361e+000	 1.7175623944e+000	-9.1116725216e-001
 2.0977068974e+000	 1.7393248036e+000	-1.0218495894e+000
 2.0796187419e+000	 1.7609119479e+000	-1.1164278221e+000
 2.0613005576e+000	 1.7823201203e+000	-1.1949919816e+000
 2.0427550109e+000	 1.8035456649e+000	-1.2576532738e+000
 2.0239848453e+000	 1.8245849791e+000	-1.3045444228e+000
 2.0049928800e+000	 1.8454345155e+000	-1.3358199730e+000
 1.9857820087e+000	 1.8660907839e+000	-1.3516565480e+000
 1.9663551978e+000	 1.8865503534e+000	-1.2998351918e+000
 1.9467154853e+000	 1.9068098540e+000	-1.1945703935e+000
 1.9268659787e+000	 1.9268659787e+000	-1.0779187691e+000
 2.1349712658e+000	 1.7333198476e+000	-8.3869478360e-001
 2.1169519149e+000	 1.7552819119e+000	-9.7358249071e-001
 2.0986978130e+000	 1.7770671034e+000	-1.0899597544e+000
 2.0802115719e+000	 1.7986716810e+000	-1.1879596484e+000
 2.0614958826e+000	 1.8200919554e+000	-1.2677390629e+000
 2.0425535136e+000	 1.8413242908e+000	-1.3294790165e+000
 2.0233873101e+000	 1.8623651074e+000	-1.3733849223e+000
 2.0040001923e+000	 1.8832108829e+000	-1.3629162424e+000
 1.9843951538e+000	 1.9038581548e+000	-1.2796316924e+000
 1.9645752604e+000	 1.9243035224e+000	-1.1815419788e+000
 1.9445436483e+000	 1.9445436482e+000	-1.0702557535e+000
 1.7677669530e+000	 1.7677669530e+000	-1.2058938485e+000
 1.7493668386e+000	 1.7859775094e+000	-1.3118932369e+000
 1.7307801408e+000	 1.8039955943e+000	-1.4044212411e+000
 1.7120098935e+000	 1.8218183566e+000	-1.4817570415e+000
 1.6930591885e+000	 1.8394430092e+000	-1.5421917773e+000
 1.6739311735e+000	 1.8568668306e+000	-1.5840326185e+000
 1.6546290504e+000	 1.8740871660e+000	-1.6056068130e+000
 1.6351560736e+000	 1.8911014290e+000	-1.5632070838e+000
 1.6155155485e+000	 1.9079071027e+000	-1.5113632932e+000
 1.5957108290e+000	 1.9245017408e+000	-1.4529440284e+000
 1.5757453160e+000	 1.9408829689e+000	-1.3880415843e+000
 1.7854446225e+000	 1.7854446225e+000	-1.1940962192e+000
 1.7668605069e+000	 1.8038372845e+000	-1.2934040486e+000
 1.7480879422e+000	 1.8220355503e+000	-1.3808774377e+000
 1.7291299925e+000	 1.8400365402e+000	-1.4547360600e+000
 1.7099897804e+000	 1.8578374393e+000	-1.5132100991e+000
 1.6906704852e+000	 1.8754354989e+000	-1.5530035300e+000
 1.6711753409e+000	 1.8928280376e+000	-1.5208891376e+000
 1.6515076344e+000	 1.9100124433e+000	-1.4837042770e+000
 1.6316707040e+000	 1.9269861737e+000	-1.4415188652e+000
 1.6116679373e+000	 1.9437467582e+000	-1.3944167037e+000
 1.5915027692e+000	 1.9602917986e+000	-1.3424954749e+000
 1.8031222920e+000	 1.8031222920e+000	-1.1868644060e+000
 1.7843541753e+000	 1.8216970596e+000	-1.2808892054e+000
 1.7653957436e+000	 1.8400755062e+000	-1.3646957824e+000
 1.7462500914e+000	 1.8582547237e+000	-1.4364417305e+000
 1.7269203723e+000	 1.8762318694e+000	-1.4894437534e+000
 1.7074097970e+000	 1.8940041672e+000	-1.4679728546e+000
 1.6877216314e+000	 1.9115689093e+000	-1.4429767328e+000
 1.6678591951e+000	 1.9289234576e+000	-1.4145195664e+000
 1.6478258595e+000	 1.9460652448e+000	-1.3826783534e+000
 1.6276250456e+000	 1.9629917756e+000	-1.3475429402e+000
 1.6072602223e+000	 1.9797006283e+000	-1.3092160167e+000
 1.8207999616e+000	 1.8207999616e+000	-1.1835931173e+000
 1.8018478437e+000	 1.8395568347e+000	-1.2737427988e+000
 1.7827035450e+000	 1.8581154622e+000	-1.3552706584e+000
 1.7633701903e+000	 1.8764729073e+000	-1.4200075523e+000
 1.7438509642e+000	 1.8946262995e+000	-1.4068477016e+000
 1.7241491087e+000	 1.9125728355e+000	-1.3916696792e+000
 1.7042679219e+000	 1.9303097810e+000	-1.3745335496e+000
 1.6842107558e+000	 1.9478344719e+000	-1.3555111347e+000
 1.6639810150e+000	 1.9651443158e+000	-1.3346860741e+000
 1.6435821538e+000	 1.9822367930e+000	-1.3121538513e+000
 1.6230176755e+000	 1.9991094580e+000	-1.2880217877e+000
 1.8384776311e+000	 1.8384776311e+000	-1.1836900156e+000
 1.8193415121e+000	 1.8574166098e+000	-1.2713726516e+000
 1.8000113464e+000	 1.8761554181e+000	-1.3468357866e+000
 1.7804902893e+000	 1.8946910909e+000	-1.3397544518e+000
 1.7607815561e+000	 1.9130207296e+000	-1.3321228255e+000
 1.7408884204e+000	 1.9311415038e+000	-1.3239984196e+000
 1.7208142124e+000	 1.9490506526e+000	-1.3154494458e+000
 1.7005623166e+000	 1.9667454862e+000	-1.3065549038e+000
 1.6801361704e+000	 1.9842233868e+000	-1.2974046396e+000
 1.6595392621e+000	 2.0014818104e+000	-1.2880993700e+000
 1.6387751286e+000	 2.0185182877e+000	-1.2787506769e+000
 1.8561553006e+000	 1.8561553006e+000	-1.1865751011e+000
 1.8368351805e+000	 1.8752763849e+000	-1.2719235547e+000
 1.8173191478e+000	 1.8941953740e+000	-1.2687872774e+000
 1.7976103882e+000	 1.9129092744e+000	-1.2665285514e+000
 1.7777121480e+000	 1.9314151596e+000	-1.2652038354e+000
 1.7576277322e+000	 1.9497101721e+000	-1.2648792336e+000
 1.7373605029e+000	 1.9677915243e+000	-1.2656306130e+000
 1.7169138773e+000	 1.9856565005e+000	-1.2675436900e+000
 1.6962913259e+000	 2.0033024578e+000	-1.2707140863e+000
 1.6754963704e+000	 2.0207268278e+000	-1.2752473532e+000
 1.6545325818e+000	 2.0379271174e+000	-1.2812589649e+000
 1.8738329701e+000	 1.8738329701e+000	-1.1916801295e+000
 1.8543288489e+000	 1.8931361600e+000	-1.1958959540e+000
 1.8346269492e+000	 1.9122353300e+000	-1.1969339968e+000
 1.8147304871e+000	 1.9311274580e+000	-1.2002934822e+000
 1.7946427398e+000	 1.9498095897e+000	-1.2060398494e+000
 1.7743670439e+000	 1.9682788404e+000	-1.2142472788e+000
 1.7539067934e+000	 1.9865323959e+000	-1.2249988059e+000
 1.7332654380e+000	 2.0045675147e+000	-1.2383864072e+000
 1.7124464814e+000	 2.0223815288e+000	-1.2545110538e+000
 1.6914534787e+000	 2.0399718452e+000	-1.2734827359e+000
 1.6702900350e+000	 2.0573359470e+000	-1.2954204561e+000
 1.8915106397e+000	 1.8915106397e+000	-1.1406026036e+000
 1.8718225172e+000	 1.9109959351e+000	-1.1252432670e+000
 1.8519347506e+000	 1.9302752859e+000	-1.1312671597e+000
 1.8318505861e+000	 1.9493456416e+000	-1.1410260173e+000
 1.8115733317e+000	 1.9682040198e+000	-1.1545937197e+000
 1.7911063556e+000	 1.9868475087e+000	-1.1720520115e+000
 1.7704530839e+000	 2.0052732676e+000	-1.1934906153e+000
 1.7496169988e+000	 2.0234785290e+000	-1.2190073146e+000
 1.7286016369e+000	 2.0414605999e+000	-1.2487080080e+000
 1.7074105870e+000	 2.0592168626e+000	-1.2827067331e+000
 1.6860474881e+000	 2.0767447767e+000	-1.3211256604e+000
 1.9091883092e+000	 1.9091883092e+000	-1.1012621888e+000
 1.8893161856e+000	 1.9288557102e+000	-1.0837933319e+000
 1.8692425520e+000	 1.9483152419e+000	-1.0717899249e+000
 1.8489706850e+000	 1.9675638251e+000	-1.0887154640e+000
 1.8285039236e+000	 1.9865984499e+000	-1.1108413967e+000
 1.8078456674e+000	 2.0054161770e+000	-1.1382565253e+000
 1.7869993744e+000	 2.0240141392e+000	-1.1710567809e+000
 1.7659685595e+000	 2.0423895433e+000	-1.2093453063e+000
 1.7447567924e+000	 2.0605396709e+000	-1.2532325091e+000
 1.7233676953e+000	 2.0784618800e+000	-1.3028360863e+000
 1.7018049413e+000	 2.0961536064e+000	-1.3582810191e+000
 1.9268659787e+000	 1.9268659787e+000	-1.0779187691e+000
 1.9068098540e+000	 1.9467154853e+000	-1.0630449716e+000
 1.8865503534e+000	 1.9663551978e+000	-1.0439209641e+000
 1.8660907839e+000	 1.9857820087e+000	-1.0433630886e+000
 1.8454345155e+000	 2.0049928800e+000	-1.0747713286e+000
 1.8245849791e+000	 2.0239848453e+000	-1.1128369245e+000
 1.8035456649e+000	 2.0427550109e+000	-1.1576615426e+000
 1.7823201203e+000	 2.0613005576e+000	-1.2093532401e+000
 1.7609119479e+000	 2.0796187419e+000	-1.2680265190e+000
 1.7393248036e+000	 2.0977068974e+000	-1.3338023512e+000
 1.7175623944e+000	 2.1155624361e+000	-1.4068081746e+000
 1.9445436483e+000	 1.9445436482e+000	-1.0702557535e+000
 1.9243035224e+000	 1.9645752604e+000	-1.0583954834e+000
 1.9038581548e+000	 1.9843951538e+000	-1.0434676009e+000
 1.8832108829e+000	 2.0040001923e+000	-1.0269896240e+000
 1.8623651074e+000	 2.0233873101e+000	-1.0463838929e+000
 1.8413242908e+000	 2.0425535136e+000	-1.0957817338e+000
 1.8200919554e+000	 2.0614958826e+000	-1.1532820266e+000
 1.7986716810e+000	 2.0802115719e+000	-1.2189973025e+000
 1.7770671034e+000	 2.0986978130e+000	-1.2930457466e+000
 1.7552819119e+000	 2.1169519149e+000	-1.3755512243e+000
 1.7333198476e+000	 2.1349712658e+000	-1.4666432793e+000
 1.5757453160e+000	 1.9408829689e+000	-1.3880415843e+000
 1.5556224556e+000	 1.9570484858e+000	-1.4178456389e+000
 1.5353457367e+000	 1.9729960641e+000	-1.4397736863e+000
 1.5149186895e+000	 1.9887235515e+000	-1.4538144731e+000
 1.4943448831e+000	 2.0042288717e+000	-1.4599731797e+000
 1.4736279238e+000	 2.0195100253e+000	-1.4582713838e+000
 1.4527714528e+000	 2.0345650901e+000	-1.4487469870e+000
 1.4317791441e+000	 2.0493922227e+000	-1.4314541044e+000
 1.4106547028e+000	 2.0639896582e+000	-1.4064629183e+000
 1.3894018625e+000	 2.0783557117e+000	-1.3738594965e+000
 1.3680243835e+000	 2.0924887780e+000	-1.3337455755e+000
 1.5915027692e+000	 1.9602917986e+000	-1.3424954749e+000
 1.5711786801e+000	 1.9766189706e+000	-1.3800854825e+000
 1.5506991940e+000	 1.9927260247e+000	-1.4110122347e+000
 1.5300678764e+000	 2.0086107870e+000	-1.4351127637e+000
 1.5092883319e+000	 2.0242711605e+000	-1.4522405924e+000
 1.4883642030e+000	 2.0397051255e+000	-1.4622658594e+000
 1.4672991673e+000	 2.0549107410e+000	-1.4650754047e+000
 1.4460969356e+000	 2.0698861449e+000	-1.4605728176e+000
 1.4247612499e+000	 2.0846295548e+000	-1.4486784460e+000
 1.4032958811e+000	 2.0991392688e+000	-1.4293293674e+000
 1.3817046273e+000	 2.1134136658e+000	-1.4024793231e+000
 1.6072602223e+000	 1.9797006283e+000	-1.3092160167e+000
 1.5867349047e+000	 1.9961894555e+000	-1.3504324404e+000
 1.5660526514e+000	 2.0124559853e+000	-1.3861719694e+000
 1.5452170632e+000	 2.0284980225e+000	-1.4161218854e+000
 1.5242317808e+000	 2.0443134492e+000	-1.4399860363e+000
 1.5031004823e+000	 2.0599002258e+000	-1.4574851202e+000
 1.4818268818e+000	 2.0752563919e+000	-1.4683569299e+000
 1.4604147270e+000	 2.0903800671e+000	-1.4723565555e+000
 1.4388677969e+000	 2.1052694514e+000	-1.4692565485e+000
 1.4171898998e+000	 2.1199228259e+000	-1.4588470435e+000
 1.3953848711e+000	 2.1343385536e+000	-1.4409358415e+000
 1.6230176755e+000	 1.9991094580e+000	-1.2880217877e+000
 1.6022911292e+000	 2.0157599404e+000	-1.3288311601e+000
 1.5814061088e+000	 2.0321859460e+000	-1.3653239675e+000
 1.5603662501e+000	 2.0483852580e+000	-1.3970396426e+000
 1.5391752296e+000	 2.0643557379e+000	-1.4235342784e+000
 1.5178367615e+000	 2.0800953260e+000	-1.4443810698e+000
 1.4963545964e+000	 2.0956020428e+000	-1.4591707142e+000
 1.4747325185e+000	 2.1108739893e+000	-1.4675117683e+000
 1.4529743439e+000	 2.1259093480e+000	-1.4690309637e+000
 1.4310839184e+000	 2.1407063830e+000	-1.4633734789e+000
 1.4090651150e+000	 2.1552634414e+000	-1.4502031687e+000
 1.6387751286e+000	 2.0185182877e+000	-1.2787506769e+000
 1.6178473538e+000	 2.0353304252e+000	-1.3152407539e+000
 1.5967595661e+000	 2.0519159066e+000	-1.3485489030e+000
 1.5755154370e+000	 2.0682724935e+000	-1.3780685500e+000
 1.5541186784e+000	 2.0843980266e+000	-1.4032098935e+000
 1.5325730408e+000	 2.1002904263e+000	-1.4234005030e+000
 1.5108823109e+000	 2.1159476937e+000	-1.4380858729e+000
 1.4890503099e+000	 2.1313679116e+000	-1.4467299330e+000
 1.4670808910e+000	 2.1465492446e+000	-1.4488155131e+000
 1.4449779370e+000	 2.1614899402e+000	-1.4438447632e+000
 1.4227453588e+000	 2.1761883292e+000	-1.4313395283e+000
 1.6545325818e+000	 2.0379271174e+000	-1.2812589649e+000
 1.6334035783e+000	 2.0549009101e+000	-1.3096341092e+000
 1.6121130235e+000	 2.0716458673e+000	-1.3359365893e+000
 1.5906646239e+000	 2.0881597291e+000	-1.3594156084e+000
 1.5690621273e+000	 2.1044403153e+000	-1.3793372738e+000
 1.5473093200e+000	 2.1204855265e+000	-1.3949853495e+000
 1.5254100254e+000	 2.1362933446e+000	-1.4056619631e+000
 1.5033681014e+000	 2.1518618338e+000	-1.4106882666e+000
 1.4811874380e+000	 2.1671891411e+000	-1.4094050495e+000
 1.4588719557e+000	 2.1822734973e+000	-1.4011733053e+000
 1.4364256026e+000	 2.1971132169e+000	-1.3853747495e+000
 1.6702900350e+000	 2.0573359470e+000	-1.2954204561e+000
 1.6489598029e+000	 2.0744713949e+000	-1.3119972395e+000
 1.6274664809e+000	 2.0913758279e+000	-1.3275855485e+000
 1.6058138108e+000	 2.1080469646e+000	-1.3412920929e+000
 1.5840055761e+000	 2.1244826040e+000	-1.3522406366e+000
 1.5620455992e+000	 2.1406806268e+000	-1.3595729032e+000
 1.5399377400e+000	 2.1566389955e+000	-1.3624494342e+000
 1.5176858928e+000	 2.1723557560e+000	-1.3600503984e+000
 1.4952939850e+000	 2.1878290377e+000	-1.3515763524e+000
 1.4727659743e+000	 2.2030570544e+000	-1.3362489507e+000
 1.4501058465e+000	 2.2180381047e+000	-1.3133116058e+000
 1.6860474881e+000	 2.0767447767e+000	-1.3211256604e+000
 1.6645160274e+000	 2.0940418798e+000	-1.3223286705e+000
 1.6428199382e+000	 2.1111057885e+000	-1.3236026043e+000
 1.6209629977e+000	 2.1279342001e+000	-1.3239133535e+000
 1.5989490249e+000	 2.1445248928e+000	-1.3222440332e+000
 1.5767818785e+000	 2.1608757270e+000	-1.3175960390e+000
 1.5544654545e+000	 2.1769846464e+000	-1.3089900538e+000
 1.5320036842e+000	 2.1928496783e+000	-1.2954670055e+000
 1.5094005321e+000	 2.2084689343e+000	-1.2760889722e+000
 1.4866599929e+000	 2.2238406115e+000	-1.2499400355e+000
 1.4637860903e+000	 2.2389629925e+000	-1.2161270798e+000
 1.7018049413e+000	 2.0961536064e+000	-1.3582810191e+000
 1.6800722520e+000	 2.1136123646e+000	-1.3406388614e+000
 1.6581733956e+000	 2.1308357492e+000	-1.3241024977e+000
 1.6361121846e+000	 2.1478214356e+000	-1.3074986261e+000
 1.6138924738e+000	 2.1645671815e+000	-1.2896713565e+000
 1.5915181577e+000	 2.1810708273e+000	-1.2694834171e+000
 1.5689931690e+000	 2.1973302973e+000	-1.2458173094e+000
 1.5463214757e+000	 2.2133436005e+000	-1.2175764117e+000
 1.5235070791e+000	 2.2291088309e+000	-1.1836860281e+000
 1.5005540115e+000	 2.2446241686e+000	-1.1430943826e+000
 1.4774663341e+000	 2.2598878803e+000	-1.0947735570e+000
 1.7175623944e+000	 2.1155624361e+000	-1.4068081746e+000
 1.6956284766e+000	 2.1331828495e+000	-1.3669496568e+000
 1.6735268530e+000	 2.1505657098e+000	-1.3292075236e+000
 1.6512613715e+000	 2.1677086711e+000	-1.2922708545e+000
 1.6288359226e+000	 2.1846094702e+000	-1.2548463480e+000
 1.6062544370e+000	 2.2012659275e+000	-1.2156596766e+000
 1.5835208835e+000	 2.2176759482e+000	-1.1734567884e+000
 1.5606392671e+000	 2.2338375227e+000	-1.1270051549e+000
 1.5376136261e+000	 2.2497487275e+000	-1.0750949616e+000
 1.5144480302e+000	 2.2654077258e+000	-1.0165402424e+000
 1.4911465780e+000	 2.2808127681e+000	-9.5017995416e-001
 1.7333198476e+000	 2.1349712658e+000	-1.4666432793e+000
 1.7111847011e+000	 2.1527533344e+000	-1.4012937696e+000
 1.6888803104e+000	 2.1702956705e+000	-1.3390471878e+000
 1.6664105584e+000	 2.1875959066e+000	-1.2784565217e+000
 1.6437793714e+000	 2.2046517589e+000	-1.2180926048e+000
 1.6209907162e+000	 2.2214610278e+000	-1.1565456182e+000
 1.5980485981e+000	 2.2380215991e+000	-1.0924265373e+000
 1.5749570586e+000	 2.2543314449e+000	-1.0243685221e+000
 1.5517201731e+000	 2.2703886241e+000	-9.5102824895e-001
 1.5283420488e+000	 2.2861912829e+000	-8.7108718259e-001
 1.5048268218e+000	 2.3017376559e+000	-7.8325278618e-001
 1.3680243835e+000	 2.0924887780e+000	-1.3337455755e+000
 1.3465260504e+000	 2.1063873328e+000	-1.2349886815e+000
 1.3249106704e+000	 2.1200499323e+000	-1.1562536794e+000
 1.3031820709e+000	 2.1334752143e+000	-1.0973417889e+000
 1.2813440973e+000	 2.1466618980e+000	-1.0580461353e+000
 1.2594006108e+000	 2.1596087844e+000	-1.0381519368e+000
 1.2373554867e+000	 2.1723147561e+000	-9.9049189284e-001
 1.2152126119e+000	 2.1847787778e+000	-9.4158847509e-001
 1.1929758828e+000	 2.1969998960e+000	-9.2849136177e-001
 1.1706492033e+000	 2.2089772391e+000	-9.4899675765e-001
 1.1482364826e+000	 2.2207100171e+000	-1.0009323826e+000
 1.3817046273e+000	 2.1134136658e+000	-1.4024793231e+000
 1.3599913109e+000	 2.1274512061e+000	-1.3108318776e+000
 1.3381597771e+000	 2.1412504316e+000	-1.2365200130e+000
 1.3162138916e+000	 2.1548099664e+000	-1.1793773836e+000
 1.2941575382e+000	 2.1681285170e+000	-1.1392319254e+000
 1.2719946169e+000	 2.1812048722e+000	-1.1159059852e+000
 1.2497290416e+000	 2.1940379036e+000	-1.1083664684e+000
 1.2273647380e+000	 2.2066265656e+000	-1.0574408468e+000
 1.2049056416e+000	 2.2189698950e+000	-1.0397923332e+000
 1.1823556953e+000	 2.2310670115e+000	-1.0531835011e+000
 1.1597188475e+000	 2.2429171172e+000	-1.0954120931e+000
 1.3953848711e+000	 2.1343385536e+000	-1.4409358415e+000
 1.3734565714e+000	 2.1485150794e+000	-1.3573030420e+000
 1.3514088839e+000	 2.1624509309e+000	-1.2883558817e+000
 1.3292457123e+000	 2.1761447186e+000	-1.2339598779e+000
 1.3069709792e+000	 2.1895951360e+000	-1.1939771947e+000
 1.2845886230e+000	 2.2028009601e+000	-1.1682667142e+000
 1.2621025965e+000	 2.2157610512e+000	-1.1566840986e+000
 1.2395168641e+000	 2.2284743533e+000	-1.1365960991e+000
 1.2168354005e+000	 2.2409398939e+000	-1.1164376984e+000
 1.1940621873e+000	 2.2531567839e+000	-1.1247742005e+000
 1.1712012123e+000	 2.2651242174e+000	-1.1593706900e+000
 1.4090651150e+000	 2.1552634414e+000	-1.4502031687e+000
 1.3869218319e+000	 2.1695789527e+000	-1.3754645289e+000
 1.3646579906e+000	 2.1836514302e+000	-1.3127964660e+000
 1.3422775331e+000	 2.1974794707e+000	-1.2620958069e+000
 1.3197844202e+000	 2.2110617550e+000	-1.2232583796e+000
 1.2971826291e+000	 2.2243970479e+000	-1.1961790284e+000
 1.2744761513e+000	 2.2374841988e+000	-1.1807516152e+000
 1.2516689903e+000	 2.2503221411e+000	-1.1768690082e+000
 1.2287651593e+000	 2.2629098929e+000	-1.1588303279e+000
 1.2057686794e+000	 2.2752465563e+000	-1.1641567254e+000
 1.1826835771e+000	 2.2873313176e+000	-1.1931794548e+000
 1.4227453588e+000	 2.1761883292e+000	-1.4313395283e+000
 1.4003870924e+000	 2.1906428261e+000	-1.3663497970e+000
 1.3779070973e+000	 2.2048519296e+000	-1.3108490202e+000
 1.3553093538e+000	 2.2188142229e+000	-1.2647647982e+000
 1.3325978612e+000	 2.2325283739e+000	-1.2280260772e+000
 1.3097766352e+000	 2.2459931357e+000	-1.2005631090e+000
 1.2868497062e+000	 2.2592073463e+000	-1.1823073925e+000
 1.2638211164e+000	 2.2721699289e+000	-1.1731916004e+000
 1.2406949181e+000	 2.2848798918e+000	-1.1673520006e+000
 1.2174751714e+000	 2.2973363287e+000	-1.1716991561e+000
 1.1941659420e+000	 2.3095384178e+000	-1.1971912268e+000
 1.4364256026e+000	 2.1971132169e+000	-1.3853747495e+000
 1.4138523529e+000	 2.2117066994e+000	-1.3309647851e+000
 1.3911562040e+000	 2.2260524289e+000	-1.2834942018e+000
 1.3683411745e+000	 2.2401489750e+000	-1.2429208530e+000
 1.3454113021e+000	 2.2539949929e+000	-1.2092062752e+000
 1.3223706413e+000	 2.2675892236e+000	-1.1823155913e+000
 1.2992232611e+000	 2.2809304939e+000	-1.1622173934e+000
 1.2759732425e+000	 2.2940177167e+000	-1.1488836079e+000
 1.2526246769e+000	 2.3068498908e+000	-1.1422893426e+000
 1.2291816635e+000	 2.3194261010e+000	-1.1477507262e+000
 1.2056483068e+000	 2.3317455179e+000	-1.1717412816e+000
 1.4501058465e+000	 2.2180381047e+000	-1.3133116058e+000
 1.4273176134e+000	 2.2327705727e+000	-1.2702892108e+000
 1.4044053107e+000	 2.2472529282e+000	-1.2316873262e+000
 1.3813729952e+000	 2.2614837271e+000	-1.1974935551e+000
 1.3582247431e+000	 2.2754616119e+000	-1.1677015129e+000
 1.3349646475e+000	 2.2891853114e+000	-1.1423106750e+000
 1.3115968159e+000	 2.3026536414e+000	-1.1213262016e+000
 1.2881253686e+000	 2.3158655044e+000	-1.1047587411e+000
 1.2645544358e+000	 2.3288198898e+000	-1.0926242136e+000
 1.2408881555e+000	 2.3415158734e+000	-1.0926427118e+000
 1.2171306716e+000	 2.3539526181e+000	-1.1171481594e+000
 1.4637860903e+000	 2.2389629925e+000	-1.2161270798e+000
 1.4407828739e+000	 2.2538344460e+000	-1.1852777952e+000
 1.4176544174e+000	 2.2684534275e+000	-1.1563595511e+000
 1.3944048159e+000	 2.2828184793e+000	-1.1293892119e+000
 1.3710381841e+000	 2.2969282309e+000	-1.1043919770e+000
 1.3475586536e+000	 2.3107813993e+000	-1.0814011731e+000
 1.3239703708e+000	 2.3243767890e+000	-1.0604580208e+000
 1.3002774948e+000	 2.3377132922e+000	-1.0416113779e+000
 1.2764841946e+000	 2.3507898887e+000	-1.0249174582e+000
 1.2525946475e+000	 2.3636056458e+000	-1.0104395302e+000
 1.2286130364e+000	 2.3761597183e+000	-1.0337144471e+000
 1.4774663341e+000	 2.2598878803e+000	-1.0947735570e+000
 1.4542481344e+000	 2.2748983194e+000	-1.0768614205e+000
 1.4309035241e+000	 2.2896539269e+000	-1.0584189946e+000
 1.4074366366e+000	 2.3041532314e+000	-1.0394919318e+000
 1.3838516251e+000	 2.3183948499e+000	-1.0201365363e+000
 1.3601526597e+000	 2.3323774871e+000	-1.0004195014e+000
 1.3363439257e+000	 2.3460999366e+000	-9.8041761816e-001
 1.3124296209e+000	 2.3595610800e+000	-9.6021745836e-001
 1.2884139534e+000	 2.3727598877e+000	-9.3991503059e-001
 1.2643011396e+000	 2.3856954182e+000	-9.1961541262e-001
 1.2400954013e+000	 2.3983668184e+000	-9.2172751682e-001
 1.4911465780e+000	 2.2808127681e+000	-9.5017995416e-001
 1.4677133949e+000	 2.2959621927e+000	-9.4594822349e-001
 1.4441526308e+000	 2.3108544262e+000	-9.3875179220e-001
 1.4204684573e+000	 2.3254879836e+000	-9.2866464262e-001
 1.3966650660e+000	 2.3398614688e+000	-9.1577371983e-001
 1.3727466658e+000	 2.3539735750e+000	-9.0017861467e-001
 1.3487174805e+000	 2.3678230841e+000	-8.8199121561e-001
 1.3245817470e+000	 2.3814088678e+000	-8.6133533095e-001
 1.3003437123e+000	 2.3947298867e+000	-8.3834628251e-001
 1.2760076316e+000	 2.4077851906e+000	-8.1317047263e-001
 1.2515777661e+000	 2.4205739186e+000	-7.8596492566e-001
 1.5048268218e+000	 2.3017376559e+000	-7.8325278618e-001
 1.4811786555e+000	 2.3170260660e+000	-7.9342462918e-001
 1.4574017375e+000	 2.3320549255e+000	-7.9822309616e-001
 1.4335002780e+000	 2.3468227357e+000	-7.9775005447e-001
 1.4094785070e+000	 2.3613280878e+000	-7.9212264100e-001
 1.3853406719e+000	 2.3755696628e+000	-7.8147289102e-001
 1.3610910354e+000	 2.3895462317e+000	-7.6594733318e-001
 1.3367338731e+000	 2.4032566556e+000	-7.4570655178e-001
 1.3122734711e+000	 2.4166998856e+000	-7.2092471810e-001
 1.2877141236e+000	 2.4298749630e+000	-6.9178909237e-001
 1.2630601309e+000	 2.4427810188e+000	-6.5849949792e-001
 1.1482364826e+000	 2.2207100171e+000	-1.0009323826e+000
 1.1257416334e+000	 2.2321975215e+000	-9.2269941477e-001
 1.1031685694e+000	 2.2434391250e+000	-8.5619733190e-001
 1.0805212035e+000	 2.2544342814e+000	-7.9924681020e-001
 1.0578034457e+000	 2.2651825247e+000	-7.4972994360e-001
 1.0350192013e+000	 2.2756834694e+000	-7.0559316466e-001
 1.0121723687e+000	 2.2859368093e+000	-6.6484997533e-001
 9.8926683732e-001	 2.2959423174e+000	-6.2558348454e-001
 9.6630648602e-001	 2.3056998450e+000	-5.8594875029e-001
 9.4329518099e-001	 2.3152093213e+000	-5.4417492452e-001
 9.2023677391e-001	 2.3244707527e+000	-4.9856719957e-001
 1.1597188475e+000	 2.2429171172e+000	-1.0954120931e+000
 1.1369990498e+000	 2.2545194967e+000	-1.0001950465e+000
 1.1142002551e+000	 2.2658735162e+000	-9.1898796916e-001
 1.0913264155e+000	 2.2769786242e+000	-8.4961200358e-001
 1.0683814802e+000	 2.2878343500e+000	-7.8994880075e-001
 1.0453693934e+000	 2.2984403041e+000	-7.3794349694e-001
 1.0222940924e+000	 2.3087961774e+000	-6.9160749849e-001
 9.9915950569e-001	 2.3189017405e+000	-6.4902107176e-001
 9.7596955088e-001	 2.3287568434e+000	-6.0833573565e-001
 9.5272813280e-001	 2.3383614145e+000	-5.6777645500e-001
 9.2943914165e-001	 2.3477154602e+000	-5.2564363346e-001
 1.1712012123e+000	 2.2651242174e+000	-1.1593706900e+000
 1.1482564661e+000	 2.2768414719e+000	-1.0508216313e+000
 1.1252319408e+000	 2.2883079075e+000	-9.5847316652e-001
 1.1021316275e+000	 2.2995229670e+000	-8.8014415892e-001
 1.0789595146e+000	 2.3104861752e+000	-8.1371318144e-001
 1.0557195854e+000	 2.3211971388e+000	-7.5712155165e-001
 1.0324158161e+000	 2.3316555455e+000	-7.0837617262e-001
 1.0090521741e+000	 2.3418611637e+000	-6.6555217704e-001
 9.8563261575e-001	 2.3518138419e+000	-6.2679537183e-001
 9.6216108461e-001	 2.3615135077e+000	-5.9032448138e-001
 9.3864150939e-001	 2.3709601677e+000	-5.5443318817e-001
 1.1826835771e+000	 2.2873313176e+000	-1.1931794548e+000
 1.1595138824e+000	 2.2991634471e+000	-1.0748867093e+000
 1.1362636265e+000	 2.3107422987e+000	-9.7489800691e-001
 1.1129368396e+000	 2.3220673098e+000	-8.9102719299e-001
 1.0895375491e+000	 2.3331380004e+000	-8.2114713409e-001
 1.0660697774e+000	 2.3439539735e+000	-7.6319281281e-001
 1.0425375398e+000	 2.3545149136e+000	-7.1516422696e-001
 1.0189448424e+000	 2.3648205869e+000	-6.7512908960e-001
 9.9529568061e-001	 2.3748708403e+000	-6.4122532738e-001
 9.7159403643e-001	 2.3846656010e+000	-6.1166337511e-001
 9.4784387714e-001	 2.3942048752e+000	-5.8472826526e-001
 1.1941659420e+000	 2.3095384178e+000	-1.1971912268e+000
 1.1707712988e+000	 2.3214854223e+000	-1.0726825221e+000
 1.1472953122e+000	 2.3331766900e+000	-9.6849535019e-001
 1.1237420516e+000	 2.3446116526e+000	-8.8243580654e-001
 1.1001155835e+000	 2.3557898257e+000	-8.1236842848e-001
 1.0764199694e+000	 2.3667108082e+000	-7.5621935257e-001
 1.0526592634e+000	 2.3773742817e+000	-7.1197927403e-001
 1.0288375108e+000	 2.3877800100e+000	-6.7770620460e-001
 1.0049587455e+000	 2.3979278388e+000	-6.5152802623e-001
 9.8102698824e-001	 2.4078176942e+000	-6.3164483838e-001
 9.5704624488e-001	 2.4174495828e+000	-6.1633109760e-001
 1.2056483068e+000	 2.3317455179e+000	-1.1717412816e+000
 1.1820287151e+000	 2.3438073975e+000	-1.0444867408e+000
 1.1583269979e+000	 2.3556110812e+000	-9.3948641517e-001
 1.1345472636e+000	 2.3671559954e+000	-8.5453592316e-001
 1.1106936180e+000	 2.3784416509e+000	-7.8748885474e-001
 1.0867701614e+000	 2.3894676429e+000	-7.3625999363e-001
 1.0627809871e+000	 2.4002336497e+000	-6.9882833896e-001
 1.0387301792e+000	 2.4107394332e+000	-6.7323992291e-001
 1.0146218103e+000	 2.4209848372e+000	-6.5761042127e-001
 9.9045994005e-001	 2.4309697874e+000	-6.5012755503e-001
 9.6624861262e-001	 2.4406942903e+000	-6.4905328122e-001
 1.2171306716e+000	 2.3539526181e+000	-1.1171481594e+000
 1.1932861314e+000	 2.3661293727e+000	-9.9056315362e-001
 1.1693586836e+000	 2.3780454725e+000	-8.8808132875e-001
 1.1453524757e+000	 2.3897003382e+000	-8.0748510327e-001
 1.1212716525e+000	 2.4010934762e+000	-7.4661450541e-001
 1.0971203534e+000	 2.4122244775e+000	-7.0337046255e-001
 1.0729027108e+000	 2.4230930178e+000	-6.7571788726e-001
 1.0486228476e+000	 2.4336988564e+000	-6.6168855646e-001
 1.0242848752e+000	 2.4440418357e+000	-6.5938378067e-001
 9.9989289186e-001	 2.4541218806e+000	-6.6697686121e-001
 9.7545098036e-001	 2.4639389978e+000	-6.8271533363e-001
 1.2286130364e+000	 2.3761597183e+000	-1.0337144471e+000
 1.2045435478e+000	 2.3884513479e+000	-9.1116231446e-001
 1.1803903692e+000	 2.4004798637e+000	-8.1447964419e-001
 1.1561576877e+000	 2.4122446810e+000	-7.4143293494e-001
 1.1318496869e+000	 2.4237453014e+000	-6.8984604168e-001
 1.1074705454e+000	 2.4349813122e+000	-6.5760353444e-001
 1.0830244345e+000	 2.4459523859e+000	-6.4265385090e-001
 1.0585155159e+000	 2.4566582796e+000	-6.4301223895e-001
 1.0339479401e+000	 2.4670988341e+000	-6.5676348627e-001
 1.0093258437e+000	 2.4772739738e+000	-6.8206443457e-001
 9.8465334810e-001	 2.4871837053e+000	-7.1714627692e-001
 1.2400954013e+000	 2.3983668184e+000	-9.2172751682e-001
 1.2158009641e+000	 2.4107733232e+000	-8.0652215568e-001
 1.1914220549e+000	 2.4229142550e+000	-7.1887083066e-001
 1.1669628997e+000	 2.4347890238e+000	-6.5652140301e-001
 1.1424277214e+000	 2.4463971267e+000	-6.1727894483e-001
 1.1178207375e+000	 2.4577381469e+000	-5.9900916956e-001
 1.0931461582e+000	 2.4688117540e+000	-5.9964165306e-001
 1.0684081843e+000	 2.4796177027e+000	-6.1717284154e-001
 1.0436110049e+000	 2.4901558326e+000	-6.4966884311e-001
 1.0187587955e+000	 2.5004260670e+000	-6.9084367298e-001
 9.9385571584e-001	 2.5104284129e+000	-6.5065456972e-001
 1.2515777661e+000	 2.4205739186e+000	-7.8596492566e-001
 1.2270583804e+000	 2.4330952984e+000	-6.7686856707e-001
 1.2024537406e+000	 2.4453486462e+000	-6.0143473580e-001
 1.1777681118e+000	 2.4573333667e+000	-5.5288523779e-001
 1.1530057558e+000	 2.4690489519e+000	-5.2900375388e-001
 1.1281709295e+000	 2.4804949816e+000	-5.2763464250e-001
 1.1032678819e+000	 2.4916711221e+000	-5.4668623145e-001
 1.0783008527e+000	 2.5025771259e+000	-5.5485205706e-001
 1.0532740698e+000	 2.5132128310e+000	-4.9453252633e-001
 1.0281917473e+000	 2.5235781602e+000	-4.6375175253e-001
 1.0030580836e+000	 2.5336731204e+000	-4.6222727804e-001
 1.2630601309e+000	 2.4427810188e+000	-6.5849949792e-001
 1.2383157968e+000	 2.4554172736e+000	-5.2241594319e-001
 1.2134854263e+000	 2.4677830375e+000	-4.6234202308e-001
 1.1885733238e+000	 2.4798777095e+000	-4.3065224490e-001
 1.1635837903e+000	 2.4917007772e+000	-4.2510629019e-001
 1.1385211215e+000	 2.5032518163e+000	-4.0453526568e-001
 1.1133896056e+000	 2.5145304902e+000	-3.1469835392e-001
 1.0881935211e+000	 2.5255365491e+000	-2.5732441576e-001
 1.0629371346e+000	 2.5362698295e+000	-2.3221547647e-001
 1.0376246991e+000	 2.5467302535e+000	-2.3915823595e-001
 1.0122604513e+000	 2.5569178279e+000	-2.7792327651e-001
 9.2023677391e-001	 2.3244707527e+000	-4.9856719957e-001
 8.9713510015e-001	 2.3334842215e+000	-4.2675996950e-001
 8.7399397693e-001	 2.3422498860e+000	-3.7015401362e-001
 8.5081720161e-001	 2.3507679787e+000	-3.2757675538e-001
 8.2760854992e-001	 2.3590388060e+000	-2.9791259545e-001
 8.0437177429e-001	 2.3670627471e+000	-2.8010396493e-001
 7.8111060220e-001	 2.3748402530e+000	-2.7315221486e-001
 7.5782873460e-001	 2.3823718453e+000	-2.7611834360e-001
 7.3452984428e-001	 2.3896581153e+000	-2.8812356446e-001
 7.1121757443e-001	 2.3966997229e+000	-3.0834971616e-001
 6.8789553712e-001	 2.4034973955e+000	-3.3603951909e-001
 9.2943914165e-001	 2.3477154602e+000	-5.2564363346e-001
 9.0610645115e-001	 2.3568190637e+000	-4.6998402087e-001
 8.8273391670e-001	 2.3656723848e+000	-4.2645942322e-001
 8.5932537363e-001	 2.3742756584e+000	-3.9380162851e-001
 8.3588463542e-001	 2.3826291940e+000	-3.7080488466e-001
 8.1241549204e-001	 2.3907333746e+000	-3.5632698930e-001
 7.8892170823e-001	 2.3985886555e+000	-3.4929020583e-001
 7.6540702195e-001	 2.4061955637e+000	-3.4868200793e-001
 7.4187514273e-001	 2.4135546964e+000	-3.5355565483e-001
 7.1832975018e-001	 2.4206667202e+000	-3.6303060012e-001
 6.9477449249e-001	 2.4275323694e+000	-3.7629273735e-001
 9.3864150939e-001	 2.3709601677e+000	-5.5443318817e-001
 9.1507780216e-001	 2.3801539060e+000	-5.1325192297e-001
 8.9147385648e-001	 2.3890948837e+000	-4.8114078884e-001
 8.6783354565e-001	 2.3977833382e+000	-4.5673554107e-001
 8.4416072093e-001	 2.4062195821e+000	-4.3873992093e-001
 8.2045920978e-001	 2.4144040021e+000	-4.2592678205e-001
 7.9673281426e-001	 2.4223370580e+000	-4.1713903340e-001
 7.7298530930e-001	 2.4300192822e+000	-4.1129040084e-001
 7.4922044118e-001	 2.4374512776e+000	-4.0736601004e-001
 7.2544192593e-001	 2.4446337174e+000	-4.0442279352e-001
 7.0165344787e-001	 2.4515673434e+000	-4.0158972537e-001
 9.4784387714e-001	 2.3942048752e+000	-5.8472826526e-001
 9.2404915316e-001	 2.4034887482e+000	-5.5643146310e-001
 9.0021379625e-001	 2.4125173825e+000	-5.3413935177e-001
 8.7634171767e-001	 2.4212910180e+000	-5.1639122499e-001
 8.5243680643e-001	 2.4298099702e+000	-5.0179993359e-001
 8.2850292753e-001	 2.4380746295e+000	-4.8905304886e-001
 8.0454392028e-001	 2.4460854606e+000	-4.7691383245e-001
 7.8056359665e-001	 2.4538430006e+000	-4.6422201524e-001
 7.5656573962e-001	 2.4613478587e+000	-4.4989438772e-001
 7.3255410168e-001	 2.4686007146e+000	-4.3292520515e-001
 7.0853240324e-001	 2.4756023173e+000	-4.1238641113e-001
 9.5704624488e-001	 2.4174495828e+000	-6.1633109760e-001
 9.3302050416e-001	 2.4268235904e+000	-5.9939783785e-001
 9.0895373602e-001	 2.4359398814e+000	-5.8540139013e-001
 8.8484988969e-001	 2.4447986978e+000	-5.7278412676e-001
 8.6071289193e-001	 2.4534003582e+000	-5.6006759527e-001
 8.3654664528e-001	 2.4617452570e+000	-5.4585371896e-001
 8.1235502631e-001	 2.4698338631e+000	-5.2882579404e-001
 7.8814188400e-001	 2.4776667191e+000	-5.0774928570e-001
 7.6391103807e-001	 2.4852444399e+000	-4.8147242598e-001
 7.3966627743e-001	 2.4925677118e+000	-4.4892661697e-001
 7.1541135862e-001	 2.4996372913e+000	-4.0912664290e-001
 9.6624861262e-001	 2.4406942903e+000	-6.4905328122e-001
 9.4199185517e-001	 2.4501584326e+000	-6.4203330029e-001
 9.1769367579e-001	 2.4593623803e+000	-6.3487797900e-001
 8.9335806171e-001	 2.4683063776e+000	-6.2593227817e-001
 8.6898897743e-001	 2.4769907463e+000	-6.1362600073e-001
 8.4459036302e-001	 2.4854158845e+000	-5.9647502981e-001
 8.2016613233e-001	 2.4935822656e+000	-5.7308235321e-001
 7.9572017134e-001	 2.5014904375e+000	-5.3722125608e-001
 7.7125633651e-001	 2.5091410210e+000	-4.8308032326e-001
 7.4677845317e-001	 2.5165347091e+000	-4.3838052674e-001
 7.2229031399e-001	 2.5236722653e+000	-4.0245916815e-001
 9.7545098036e-001	 2.4639389978e+000	-6.8271533363e-001
 9.5096320617e-001	 2.4734932748e+000	-6.8422682711e-001
 9.2643361556e-001	 2.4827848791e+000	-6.8252476414e-001
 9.0186623372e-001	 2.4918140574e+000	-6.7585617436e-001
 8.7726506293e-001	 2.5005811343e+000	-6.5877998316e-001
 8.5263408076e-001	 2.5090865119e+000	-5.9097681750e-001
 8.2797723835e-001	 2.5173306682e+000	-5.3258834615e-001
 8.0329845869e-001	 2.5253141560e+000	-4.8292736572e-001
 7.7860163495e-001	 2.5330376022e+000	-4.4130732608e-001
 7.5389062892e-001	 2.5405017063e+000	-4.0704198106e-001
 7.2916926936e-001	 2.5477072392e+000	-3.7944505447e-001
 9.8465334810e-001	 2.4871837053e+000	-7.1714627692e-001
 9.5993455717e-001	 2.4968281170e+000	-7.2587380445e-001
 9.3517355533e-001	 2.5062073780e+000	-6.7691460812e-001
 9.1037440574e-001	 2.5153217372e+000	-6.0880733749e-001
 8.8554114843e-001	 2.5241715224e+000	-5.4958989299e-001
 8.6067779851e-001	 2.5327571394e+000	-4.9853849130e-001
 8.3578834438e-001	 2.5410790707e+000	-4.5493316139e-001
 8.1087674604e-001	 2.5491378744e+000	-4.1805733306e-001
 7.8594693340e-001	 2.5569341833e+000	-3.8719743501e-001
 7.6100280466e-001	 2.5644687035e+000	-3.6164250432e-001
 7.3604822473e-001	 2.5717422132e+000	-3.4068380961e-001
 9.9385571584e-001	 2.5104284129e+000	-6.5065456972e-001
 9.6890590817e-001	 2.5201629592e+000	-5.8491512041e-001
 9.4391349510e-001	 2.5296298768e+000	-5.2772597343e-001
 9.1888257776e-001	 2.5388294169e+000	-4.7831666370e-001
 8.9381723393e-001	 2.5477619105e+000	-4.3592384486e-001
 8.6872151625e-001	 2.5564277669e+000	-3.9979083251e-001
 8.4359945040e-001	 2.5648274732e+000	-3.6916714967e-001
 8.1845503338e-001	 2.5729615929e+000	-3.4330807720e-001
 7.9329223184e-001	 2.5808307645e+000	-3.2147421137e-001
 7.6811498040e-001	 2.5884357008e+000	-3.0293103106e-001
 7.4292718010e-001	 2.5957771871e+000	-2.8694847656e-001
 1.0030580836e+000	 2.5336731204e+000	-4.6222727804e-001
 9.7787725917e-001	 2.5434978015e+000	-4.1690948726e-001
 9.5265343487e-001	 2.5530523757e+000	-3.7836730153e-001
 9.2739074977e-001	 2.5623370967e+000	-3.4579377772e-001
 9.0209331943e-001	 2.5713522985e+000	-3.1839153374e-001
 8.7676523399e-001	 2.5800983944e+000	-2.9537225666e-001
 8.5141055642e-001	 2.5885758757e+000	-2.7595621077e-001
 8.2603332072e-001	 2.5967853113e+000	-2.5937174827e-001
 8.0063753028e-001	 2.6047273457e+000	-2.4485482511e-001
 7.7522715614e-001	 2.6124026980e+000	-2.3164852436e-001
 7.4980613547e-001	 2.6198121611e+000	-2.1900258962e-001
 1.0122604513e+000	 2.5569178279e+000	-2.7792327651e-001
 9.8684861017e-001	 2.5668326437e+000	-2.5114448843e-001
 9.6139337463e-001	 2.5764748746e+000	-2.2939091556e-001
 9.3589892178e-001	 2.5858447765e+000	-2.1182045552e-001
 9.1036940492e-001	 2.5949426866e+000	-1.9760298764e-001
 8.8480895173e-001	 2.6037690218e+000	-1.8591984453e-001
 8.5922166244e-001	 2.6123242783e+000	-1.7596328114e-001
 8.3361160807e-001	 2.6206090298e+000	-1.6693594429e-001
 8.0798282872e-001	 2.6286239268e+000	-1.5805034526e-001
 7.8233933189e-001	 2.6363696952e+000	-1.4852833820e-001
 7.5668509084e-001	 2.6438471350e+000	-1.3760060666e-001
 6.8789553712e-001	 2.4034973955e+000	-3.3603951909e-001
 6.6456731185e-001	 2.4100519264e+000	-3.1753188923e-001
 6.4123644421e-001	 2.4163641743e+000	-3.0230142390e-001
 6.1790644450e-001	 2.4224350612e+000	-2.7725523174e-001
 5.9458078647e-001	 2.4282655721e+000	-2.3670617673e-001
 5.7126290603e-001	 2.4338567526e+000	-2.1241570112e-001
 5.4795620010e-001	 2.4392097087e+000	-2.0268192426e-001
 5.2466402543e-001	 2.4443256044e+000	-2.0588235946e-001
 5.0138969748e-001	 2.4492056613e+000	-2.2047597227e-001
 4.7813648941e-001	 2.4538511564e+000	-2.4500499915e-001
 4.5490763105e-001	 2.4582634210e+000	-2.7809652849e-001
 6.9477449249e-001	 2.4275323694e+000	-3.7629273735e-001
 6.7121298497e-001	 2.4341524457e+000	-3.2349954770e-001
 6.4764880865e-001	 2.4405278160e+000	-2.7142214997e-001
 6.2408550895e-001	 2.4466594119e+000	-2.1817962513e-001
 6.0052659434e-001	 2.4525482278e+000	-1.5108889724e-001
 5.7697553510e-001	 2.4581953202e+000	-9.8048940972e-002
 5.5343576211e-001	 2.4636018058e+000	-5.7330150643e-002
 5.2991066568e-001	 2.4687688605e+000	-2.7286175751e-002
 5.0640359445e-001	 2.4736977179e+000	-6.3559973693e-003
 4.8291785430e-001	 2.4783896679e+000	 6.9342431189e-003
 4.5945670736e-001	 2.4828460553e+000	 1.3969660793e-002
 7.0165344787e-001	 2.4515673434e+000	-4.0158972537e-001
 6.7785865809e-001	 2.4582529650e+000	-3.1570995977e-001
 6.5406117310e-001	 2.4646914578e+000	-2.2795416602e-001
 6.3026457340e-001	 2.4708837625e+000	-1.3733053260e-001
 6.0647240220e-001	 2.4768308835e+000	-4.7325416288e-002
 5.8268816416e-001	 2.4825338877e+000	 3.1496883260e-002
 5.5891532411e-001	 2.4879939028e+000	 1.0026288332e-001
 5.3515730594e-001	 2.4932121165e+000	 1.6064579060e-001
 5.1141749143e-001	 2.4981897745e+000	 2.1422950069e-001
 4.8769921920e-001	 2.5029281795e+000	 2.1791646585e-001
 4.6400578367e-001	 2.5074286895e+000	 1.7975953581e-001
 7.0853240324e-001	 2.4756023173e+000	-4.1238641113e-001
 6.8450433122e-001	 2.4823534842e+000	-2.9459041472e-001
 6.6047353755e-001	 2.4888550995e+000	-1.7229482777e-001
 6.3644363785e-001	 2.4951081131e+000	-4.4534735691e-002
 6.1241821007e-001	 2.5011135392e+000	 6.8260728036e-002
 5.8840079322e-001	 2.5068724552e+000	 1.2192228133e-001
 5.6439488611e-001	 2.5123859999e+000	 1.5120561279e-001
 5.4040394619e-001	 2.5176553726e+000	 1.5819970835e-001
 5.1643138840e-001	 2.5226818311e+000	 1.4494213172e-001
 4.9248058409e-001	 2.5274666911e+000	 1.1341957331e-001
 4.6855485998e-001	 2.5320113237e+000	 6.5568464433e-002
 7.1541135862e-001	 2.4996372913e+000	-4.0912664290e-001
 6.9115000434e-001	 2.5064540035e+000	-2.7265689275e-001
 6.6688590199e-001	 2.5130187412e+000	-1.4782575301e-001
 6.4262270229e-001	 2.5193324637e+000	-3.3593174948e-002
 6.1836401794e-001	 2.5253961950e+000	 5.7419853741e-002
 5.9411342228e-001	 2.5312110227e+000	 9.3658406437e-002
 5.6987444812e-001	 2.5367780970e+000	 1.0695537620e-001
 5.4565058645e-001	 2.5420986286e+000	 9.9363686062e-002
 5.2144528538e-001	 2.5471738878e+000	 7.2883032571e-002
 4.9726194898e-001	 2.5520052026e+000	 2.9460553833e-002
 4.7310393629e-001	 2.5565939579e+000	-2.9008437110e-002
 7.2229031399e-001	 2.5236722653e+000	-4.0245916815e-001
 6.9779567746e-001	 2.5305545228e+000	-2.6888781376e-001
 6.7329826643e-001	 2.5371823830e+000	-1.4567782264e-001
 6.4880176674e-001	 2.5435568143e+000	-3.2019977867e-002
 6.2430982580e-001	 2.5496788507e+000	 7.0889519409e-002
 5.9982605134e-001	 2.5555495903e+000	 8.8767777298e-002
 5.7535401012e-001	 2.5611701941e+000	 8.5158472145e-002
 5.5089722670e-001	 2.5665418847e+000	 6.2078025210e-002
 5.2645918235e-001	 2.5716659444e+000	 2.1487795040e-002
 5.0204331388e-001	 2.5765437142e+000	-3.4705133310e-002
 4.7765301260e-001	 2.5811765921e+000	-1.0464709368e-001
 7.2916926936e-001	 2.5477072392e+000	-3.7944505447e-001
 7.0444135058e-001	 2.5546550420e+000	-2.4946869422e-001
 6.7971063087e-001	 2.5613460247e+000	-1.2877470359e-001
 6.5498083118e-001	 2.5677811649e+000	-1.6601330554e-002
 6.3025563367e-001	 2.5739615064e+000	 8.7816930779e-002
 6.0553868040e-001	 2.5798881578e+000	 1.0624536082e-001
 5.8083357212e-001	 2.5855622912e+000	 8.4873447865e-002
 5.5614386696e-001	 2.5909851407e+000	 4.5465839088e-002
 5.3147307933e-001	 2.5961580010e+000	-1.0054957915e-002
 5.0682467877e-001	 2.6010822257e+000	-7.9822454246e-002
 4.8220208891e-001	 2.6057592263e+000	-1.6202520181e-001
 7.3604822473e-001	 2.5717422132e+000	-3.4068380961e-001
 7.1108702369e-001	 2.5787555613e+000	-2.1513541210e-001
 6.8612299532e-001	 2.5855096665e+000	-9.7804587218e-002
 6.6115989563e-001	 2.5920055155e+000	 1.2022787255e-002
 6.3620144153e-001	 2.5982441621e+000	 1.1506449089e-001
 6.1125130946e-001	 2.6042267253e+000	 1.4509070816e-001
 5.8631313412e-001	 2.6099543883e+000	 1.0516221026e-001
 5.6139050721e-001	 2.6154283968e+000	 4.8652360386e-002
 5.3648697630e-001	 2.6206500576e+000	-2.2555739218e-002
 5.1160604366e-001	 2.6256207373e+000	-1.0663678063e-001
 4.8675116522e-001	 2.6303418605e+000	-2.0182214689e-001
 7.4292718010e-001	 2.5957771871e+000	-2.8694847656e-001
 7.1773269681e-001	 2.6028560806e+000	-1.6661496349e-001
 6.9253535976e-001	 2.6096733082e+000	-5.3447884986e-002
 6.6733896007e-001	 2.6162298662e+000	 5.3219056358e-002
 6.4214724939e-001	 2.6225268178e+000	 1.5405572945e-001
 6.1696393852e-001	 2.6285652928e+000	 2.0430774251e-001
 5.9179269612e-001	 2.6343464854e+000	 1.4508987036e-001
 5.6663714746e-001	 2.6398716528e+000	 7.0764843070e-002
 5.4150087327e-001	 2.6451421142e+000	-1.6824237683e-002
 5.1638740856e-001	 2.6501592489e+000	-1.1589387086e-001
 4.9130024153e-001	 2.6549244947e+000	-2.2471892504e-001
 7.4980613547e-001	 2.6198121611e+000	-2.1900258962e-001
 7.2437836993e-001	 2.6269565998e+000	-1.0462587002e-001
 6.9894772419e-001	 2.6338369500e+000	 3.6224146842e-003
 6.7351802451e-001	 2.6404542168e+000	 1.0636051255e-001
 6.4809305726e-001	 2.6468094736e+000	 2.0421016801e-001
 6.2267656758e-001	 2.6529038604e+000	 2.8290455851e-001
 5.9727225811e-001	 2.6587385825e+000	 2.0372459632e-001
 5.7188378771e-001	 2.6643149089e+000	 1.1093246966e-001
 5.4651477025e-001	 2.6696341708e+000	 6.3306441857e-003
 5.2116877345e-001	 2.6746977604e+000	-1.0833985236e-001
 4.9584931784e-001	 2.6795071290e+000	-2.3139806915e-001
 7.5668509084e-001	 2.6438471350e+000	-1.3760060666e-001
 7.3102404304e-001	 2.6510571191e+000	-2.9878564126e-002
 7.0536008863e-001	 2.6580005917e+000	 7.2740408983e-002
 6.7969708895e-001	 2.6646785674e+000	 1.7082625778e-001
 6.5403886512e-001	 2.6710921293e+000	 2.6495235948e-001
 6.2838919664e-001	 2.6772424279e+000	 3.5569593975e-001
 6.0275182011e-001	 2.6831306796e+000	 2.8013747449e-001
 5.7713042797e-001	 2.6887581649e+000	 1.6828626358e-001
 5.5152866722e-001	 2.6941262274e+000	 4.6100754449e-002
 5.2595013834e-001	 2.6992362720e+000	-8.4721204772e-002
 5.0039839415e-001	 2.7040897632e+000	-2.2254357908e-001
 4.5490763105e-001	 2.4582634210e+000	-2.7809652849e-001
 4.3170630795e-001	 2.4624438397e+000	-2.2189268689e-001
 4.0853566044e-001	 2.4663938481e+000	-1.7365900402e-001
 3.8539878284e-001	 2.4701149322e+000	-1.3186914379e-001
 3.6229872257e-001	 2.4736086262e+000	-9.5092106647e-002
 3.3923847946e-001	 2.4768765117e+000	-6.1992938947e-002
 3.1622100496e-001	 2.4799202156e+000	-3.1333214115e-002
 2.9324920155e-001	 2.4827414094e+000	-1.9712910928e-003
 2.7032592207e-001	 2.4853418066e+000	 2.7137643883e-002
 2.4745396916e-001	 2.4877231625e+000	 5.6941745794e-002
 2.2463609475e-001	 2.4898872715e+000	 8.8292882892e-002
 4.5945670736e-001	 2.4828460553e+000	 1.3969660793e-002
 4.3602337102e-001	 2.4870682781e+000	 1.2756617529e-001
 4.1262101704e-001	 2.4910577866e+000	 2.3488441456e-001
 3.8925277066e-001	 2.4948160815e+000	 3.3743966235e-001
 3.6592170980e-001	 2.4983447125e+000	 4.3664877352e-001
 3.4263086425e-001	 2.5016452768e+000	 4.8795586095e-001
 3.1938321501e-001	 2.5047194178e+000	 4.8806686886e-001
 2.9618169356e-001	 2.5075688234e+000	 4.8160561723e-001
 2.7302918129e-001	 2.5101952247e+000	 4.7060390655e-001
 2.4992850885e-001	 2.5126003941e+000	 4.5704497027e-001
 2.2688245570e-001	 2.5147861442e+000	 4.4286405544e-001
 4.6400578367e-001	 2.5074286895e+000	 1.7975953581e-001
 4.4034043410e-001	 2.5116927165e+000	 2.5167931112e-001
 4.1670637365e-001	 2.5157217251e+000	 3.0667596734e-001
 3.9310675849e-001	 2.5195172308e+000	 3.4697598151e-001
 3.6954469702e-001	 2.5230807987e+000	 3.7475462955e-001
 3.4602324904e-001	 2.5264140419e+000	 3.9213645930e-001
 3.2254542506e-001	 2.5295186200e+000	 4.0119581260e-001
 2.9911418558e-001	 2.5323962375e+000	 4.0395739186e-001
 2.7573244051e-001	 2.5350486428e+000	 4.0239686686e-001
 2.5240304855e-001	 2.5374776257e+000	 3.9844151776e-001
 2.2912881665e-001	 2.5396850170e+000	 3.9397091009e-001
 4.6855485998e-001	 2.5320113237e+000	 6.5568464433e-002
 4.4465749718e-001	 2.5363171549e+000	 1.4253678758e-001
 4.2079173025e-001	 2.5403856636e+000	 2.0316216991e-001
 3.9696074632e-001	 2.5442183801e+000	 2.4961523199e-001
 3.7316768424e-001	 2.5478168850e+000	 2.8401503067e-001
 3.4941563383e-001	 2.5511828070e+000	 3.0842964080e-001
 3.2570763510e-001	 2.5543178221e+000	 3.2487678383e-001
 3.0204667759e-001	 2.5572236516e+000	 3.3532449853e-001
 2.7843569973e-001	 2.5599020608e+000	 3.4169184950e-001
 2.5487758824e-001	 2.5623548573e+000	 3.4584966917e-001
 2.3137517760e-001	 2.5645838897e+000	 3.4962132900e-001
 4.7310393629e-001	 2.5565939579e+000	-2.9008437110e-002
 4.4897456026e-001	 2.5609415933e+000	 5.1413518819e-002
 4.2487708685e-001	 2.5650496021e+000	 1.1609899954e-001
 4.0081473414e-001	 2.5689195295e+000	 1.6716237403e-001
 3.7679067147e-001	 2.5725529713e+000	 2.0666605564e-001
 3.5280801863e-001	 2.5759515721e+000	 2.3662119454e-001
 3.2886984515e-001	 2.5791170243e+000	 2.5898841479e-001
 3.0497916961e-001	 2.5820510657e+000	 2.7567859120e-001
 2.8113895895e-001	 2.5847554789e+000	 2.8855366146e-001
 2.5735212793e-001	 2.5872320890e+000	 2.9942746906e-001
 2.3362153855e-001	 2.5894827624e+000	 3.1006663264e-001
 4.7765301260e-001	 2.5811765921e+000	-1.0464709368e-001
 4.5329162333e-001	 2.5855660317e+000	-2.2277395347e-002
 4.2896244345e-001	 2.5897135406e+000	 4.4989002193e-002
 4.0466872197e-001	 2.5936206788e+000	 9.9209773012e-002
 3.8041365869e-001	 2.5972890575e+000	 1.4239021466e-001
 3.5620040342e-001	 2.6007203373e+000	 1.7648405334e-001
 3.3203205520e-001	 2.6039162264e+000	 2.0339429145e-001
 3.0791166162e-001	 2.6068784798e+000	 2.2497409264e-001
 2.8384221817e-001	 2.6096088970e+000	 2.4302769956e-001
 2.5982666762e-001	 2.6121093206e+000	 2.5931137962e-001
 2.3586789950e-001	 2.6143816351e+000	 2.7553439438e-001
 4.8220208891e-001	 2.6057592263e+000	-1.6202520181e-001
 4.5760868641e-001	 2.6101904701e+000	-7.9126725580e-002
 4.3304780006e-001	 2.6143774790e+000	-1.0671244723e-002
 4.0852270980e-001	 2.6183218281e+000	 4.5341729323e-002
 3.8403664592e-001	 2.6220251438e+000	 9.0859858917e-002
 3.5959278821e-001	 2.6254891024e+000	 1.2777890019e-001
 3.3519426525e-001	 2.6287154286e+000	 1.5794366321e-001
 3.1084415364e-001	 2.6317058939e+000	 1.8314900724e-001
 2.8654547739e-001	 2.6344623150e+000	 2.0514086606e-001
 2.6230120731e-001	 2.6369865522e+000	 2.2561729865e-001
 2.3811426044e-001	 2.6392805078e+000	 2.4622956062e-001
 4.8675116522e-001	 2.6303418605e+000	-2.0182214689e-001
 4.6192574949e-001	 2.6348149085e+000	-1.1972893215e-001
 4.3713315666e-001	 2.6390414175e+000	-5.1390853418e-002
 4.1237669763e-001	 2.6430229774e+000	 5.1348552093e-003
 3.8765963314e-001	 2.6467612300e+000	 5.1737655238e-002
 3.6298517301e-001	 2.6502578675e+000	 9.0254740673e-002
 3.3835647530e-001	 2.6535146308e+000	 1.2247211290e-001
 3.1377664565e-001	 2.6565333080e+000	 1.5012568820e-001
 2.8924873661e-001	 2.6593157331e+000	 1.7490243283e-001
 2.6477574700e-001	 2.6618637839e+000	 1.9844152059e-001
 2.4036062139e-001	 2.6641793805e+000	 2.2233550818e-001
 4.9130024153e-001	 2.6549244947e+000	-2.2471892504e-001
 4.6624281257e-001	 2.6594393469e+000	-1.4468199411e-001
 4.4121851326e-001	 2.6637053560e+000	-7.7684362328e-002
 4.1623068545e-001	 2.6677241268e+000	-2.1841569286e-002
 3.9128262037e-001	 2.6714973163e+000	 2.4677034494e-002
 3.6637755780e-001	 2.6750266326e+000	 6.3649443586e-002
 3.4151868535e-001	 2.6783138329e+000	 9.6802189402e-002
 3.1670913767e-001	 2.6813607221e+000	 1.2581156215e-001
 2.9195199583e-001	 2.6841691512e+000	 1.5230485766e-001
 2.6725028670e-001	 2.6867410155e+000	 1.7786164400e-001
 2.4260698234e-001	 2.6890782533e+000	 2.0401504283e-001
 4.9584931784e-001	 2.6795071290e+000	-2.3139806915e-001
 4.7055987565e-001	 2.6840637853e+000	-1.5458724790e-001
 4.4530386987e-001	 2.6883692945e+000	-9.0071487196e-002
 4.2008467328e-001	 2.6924252761e+000	-3.6025259981e-002
 3.9490560759e-001	 2.6962334026e+000	 9.3226152451e-003
 3.6976994260e-001	 2.6997953977e+000	 4.7690251800e-002
 3.4468089540e-001	 2.7031130351e+000	 8.0744005624e-002
 3.1964162968e-001	 2.7061881362e+000	 1.1009981383e-001
 2.9465525505e-001	 2.7090225692e+000	 1.3732455547e-001
 2.6972482639e-001	 2.7116182471e+000	 1.6393742923e-001
 2.4485334329e-001	 2.7139771260e+000	 1.9141134296e-001
 5.0039839415e-001	 2.7040897632e+000	-2.2254357908e-001
 4.7487693873e-001	 2.7086882237e+000	-1.5004923474e-001
 4.4938922647e-001	 2.7130332330e+000	-8.9076885748e-002
 4.2393866111e-001	 2.7171264254e+000	-3.7860610568e-002
 3.9852859482e-001	 2.7209694888e+000	 5.3106043014e-003
 3.7316232739e-001	 2.7245641628e+000	 4.2094265258e-002
 3.4784310545e-001	 2.7279122372e+000	 7.4095803716e-002
 3.2257412170e-001	 2.7310155503e+000	 1.0287003346e-001
 2.9735851428e-001	 2.7338759873e+000	 1.2992262755e-001
 2.7219936608e-001	 2.7364954787e+000	 1.5671160924e-001
 2.4709970424e-001	 2.7388759987e+000	 1.8464885173e-001
 2.2463609475e-001	 2.4898872715e+000	 8.8292882892e-002
 2.0187499956e-001	 2.4918359666e+000	 1.0344872927e-001
 1.7917333268e-001	 2.4935711173e+000	 1.2316302126e-001
 1.5653369117e-001	 2.4950946282e+000	 1.4786233867e-001
 1.3395861973e-001	 2.4964084378e+000	 1.7788132603e-001
 1.1145061038e-001	 2.4975145168e+000	 2.1346408732e-001
 8.9012102215e-002	 2.4984148666e+000	 2.5476573383e-001
 6.6645481200e-002	 2.4991115181e+000	 3.0185407704e-001
 4.4353079963e-002	 2.4996065299e+000	 3.5471145791e-001
 2.2137177686e-002	 2.4999019872e+000	 4.1323670426e-001
 0.0000000000e+000	 2.5000000000e+000	 4.7724720747e-001
 2.2688245570e-001	 2.5147861442e+000	 4.4286405544e-001
 2.0389374956e-001	 2.5167543263e+000	 4.0653954826e-001
 1.8096506601e-001	 2.5185068284e+000	 3.7388634608e-001
 1.5809902809e-001	 2.5200455744e+000	 3.4660353162e-001
 1.3529820593e-001	 2.5213725222e+000	 3.2634571743e-001
 1.1256511648e-001	 2.5224896619e+000	 3.1472382354e-001
 8.9902223242e-002	 2.5233990153e+000	 3.1330586639e-001
 6.7311936015e-002	 2.5241026333e+000	 3.2361775623e-001
 4.4796610765e-002	 2.5246025952e+000	 3.4714410018e-001
 2.2358549464e-002	 2.5249010070e+000	 3.8532900845e-001
 0.0000000000e+000	 2.5250000000e+000	 4.3957690108e-001
 2.2912881665e-001	 2.5396850170e+000	 3.9397091009e-001
 2.0591249956e-001	 2.5416726859e+000	 3.6384740604e-001
 1.8275679934e-001	 2.5434425396e+000	 3.3637815011e-001
 1.5966436500e-001	 2.5449965207e+000	 3.1325180791e-001
 1.3663779213e-001	 2.5463366065e+000	 2.9611314106e-001
 1.1367962259e-001	 2.5474648071e+000	 2.8656382420e-001
 9.0792344267e-002	 2.5483831639e+000	 2.8616327112e-001
 6.7978390830e-002	 2.5490937484e+000	 2.9642946694e-001
 4.5240141567e-002	 2.5495986605e+000	 3.1883980375e-001
 2.2579921242e-002	 2.5499000269e+000	 3.5483191692e-001
 0.0000000000e+000	 2.5500000000e+000	 4.0580451975e-001
 2.3137517760e-001	 2.5645838897e+000	 3.4962132900e-001
 2.0793124956e-001	 2.5665910456e+000	 3.2556361361e-001
 1.8454853267e-001	 2.5683782508e+000	 3.0318012886e-001
 1.6122970192e-001	 2.5699474670e+000	 2.8414789366e-001
 1.3797737833e-001	 2.5713006909e+000	 2.7010058028e-001
 1.1479412870e-001	 2.5724399523e+000	 2.6262937297e-001
 9.1682465292e-002	 2.5733673126e+000	 2.6328383316e-001
 6.8644845644e-002	 2.5740848636e+000	 2.7357276866e-001
 4.5683672368e-002	 2.5745947258e+000	 2.9496510364e-001
 2.2801293020e-002	 2.5748990468e+000	 3.2889074709e-001
 0.0000000000e+000	 2.5750000000e+000	 3.7674145707e-001
 2.3362153855e-001	 2.5894827624e+000	 3.1006663264e-001
 2.0994999955e-001	 2.5915094053e+000	 2.9199494338e-001
 1.8634026600e-001	 2.5933139620e+000	 2.7465400041e-001
 1.6279503883e-001	 2.5948984133e+000	 2.5970792133e-001
 1.3931696453e-001	 2.5962647753e+000	 2.4877802630e-001
 1.1590863480e-001	 2.5974150974e+000	 2.4344374025e-001
 9.2572586317e-002	 2.5983514613e+000	 2.4524349950e-001
 6.9311300459e-002	 2.5990759788e+000	 2.5567565973e-001
 4.6127203170e-002	 2.5995907911e+000	 2.7619940254e-001
 2.3022664798e-002	 2.5998980666e+000	 3.0823563774e-001
 0.0000000000e+000	 2.6000000000e+000	 3.5316789920e-001
 2.3586789950e-001	 2.6143816351e+000	 2.7553439438e-001
 2.1196874955e-001	 2.6164277650e+000	 2.6342370489e-001
 1.8813199933e-001	 2.6182496731e+000	 2.5113633057e-001
 1.6436037574e-001	 2.6198493596e+000	 2.4032220811e-001
 1.4065655073e-001	 2.6212288597e+000	 2.3258901830e-001
 1.1702314091e-001	 2.6223902426e+000	 2.2950313408e-001
 9.3462707341e-002	 2.6233356099e+000	 2.3259057060e-001
 6.9977755272e-002	 2.6240670940e+000	 2.4333793415e-001
 4.6570733970e-002	 2.6245868564e+000	 2.6319336705e-001
 2.3244036575e-002	 2.6248970865e+000	 2.9356748595e-001
 0.0000000000e+000	 2.6250000000e+000	 3.3583431092e-001
 2.3811426044e-001	 2.6392805078e+000	 2.4622956062e-001
 2.1398749955e-001	 2.6413461246e+000	 2.4010889874e-001
 1.8992373266e-001	 2.6431853843e+000	 2.3293971933e-001
 1.6592571266e-001	 2.6448003059e+000	 2.2635647357e-001
 1.4199613693e-001	 2.6461929440e+000	 2.2195189118e-001
 1.1813764702e-001	 2.6473653878e+000	 2.2127797660e-001
 9.4352828365e-002	 2.6483197586e+000	 2.2584700454e-001
 7.0644210086e-002	 2.6490582092e+000	 2.3713251190e-001
 4.7014264771e-002	 2.6495829217e+000	 2.5657028314e-001
 2.3465408353e-002	 2.6498961064e+000	 2.8555932637e-001
 0.0000000000e+000	 2.6500000000e+000	 3.2546283757e-001
 2.4036062139e-001	 2.6641793805e+000	 2.2233550818e-001
 2.1600624954e-001	 2.6662644843e+000	 2.2228730579e-001
 1.9171546598e-001	 2.6681210955e+000	 2.2035392075e-001
 1.6749104957e-001	 2.6697512521e+000	 2.1815298908e-001
 1.4333572313e-001	 2.6711570284e+000	 2.1726095334e-001
 1.1925215312e-001	 2.6723405329e+000	 2.1921410904e-001
 9.5242949388e-002	 2.6733039073e+000	 2.2550964789e-001
 7.1310664899e-002	 2.6740493244e+000	 2.3760669479e-001
 4.7457795571e-002	 2.6745789870e+000	 2.5692733566e-001
 2.3686780130e-002	 2.6748951263e+000	 2.8485763323e-001
 0.0000000000e+000	 2.6750000000e+000	 3.2274862843e-001
 2.4260698234e-001	 2.6890782533e+000	 2.0401504283e-001
 2.1802499954e-001	 2.6911828440e+000	 2.1017451583e-001
 1.9350719931e-001	 2.6930568066e+000	 2.1364690060e-001
 1.6905638648e-001	 2.6947021984e+000	 2.1603166339e-001
 1.4467530933e-001	 2.6961211128e+000	 2.1888759901e-001
 1.2036665923e-001	 2.6973156781e+000	 2.2373392972e-001
 9.6133070411e-002	 2.6982880559e+000	 2.3205139835e-001
 7.1977119711e-002	 2.6990404395e+000	 2.4528335247e-001
 4.7901326371e-002	 2.6995750523e+000	 2.6483681665e-001
 2.3908151907e-002	 2.6998941461e+000	 2.9208355000e-001
 0.0000000000e+000	 2.7000000000e+000	 3.2836108646e-001
 2.4485334329e-001	 2.7139771260e+000	 1.9141134296e-001
 2.2004374954e-001	 2.7161012036e+000	 2.0396589967e-001
 1.9529893264e-001	 2.7179925178e+000	 2.1306583590e-001
 1.7062172340e-001	 2.7196531447e+000	 2.2029106846e-001
 1.4601489552e-001	 2.7210851972e+000	 2.2718135936e-001
 1.2148116533e-001	 2.7222908233e+000	 2.3523746940e-001
 9.7023191433e-002	 2.7232722046e+000	 2.4592230330e-001
 7.2643574523e-002	 2.7240315547e+000	 2.6066204318e-001
 4.8344857171e-002	 2.7245711176e+000	 2.8084726732e-001
 2.4129523684e-002	 2.7248931660e+000	 3.0783405135e-001
 0.0000000000e+000	 2.7250000000e+000	 3.4294504942e-001
 2.4709970424e-001	 2.7388759987e+000	 1.8464885173e-001
 2.2206249953e-001	 2.7410195633e+000	 2.0383752820e-001
 1.9709066597e-001	 2.7429282290e+000	 2.1883805979e-001
 1.7218706031e-001	 2.7446040910e+000	 2.3120940926e-001
 1.4735448172e-001	 2.7460492816e+000	 2.4247089627e-001
 1.2259567143e-001	 2.7472659684e+000	 2.5410340799e-001
 9.7913312455e-002	 2.7482563533e+000	 2.6755059843e-001
 7.3310029335e-002	 2.7490226699e+000	 2.8422007334e-001
 4.8788387970e-002	 2.7495671829e+000	 3.0548455752e-001
 2.4350895461e-002	 2.7498921859e+000	 3.3268304169e-001
 0.0000000000e+000	 2.7500000000e+000	 3.6712190641e-001
 2.7500000000e+000	 0.0000000000e+000	 1.5410587026e+000
 2.7498921859e+000	 2.4350895461e-002	 1.5650867236e+000
 2.7495671829e+000	 4.8788387970e-002	 1.5762579730e+000
 2.7490226699e+000	 7.3310029335e-002	 1.5769473126e+000
 2.7482563533e+000	 9.7913312455e-002	 1.5695306678e+000
 2.7472659684e+000	 1.2259567143e-001	 1.5563834347e+000
 2.7460492816e+000	 1.4735448172e-001	 1.5398789044e+000
 2.7446040910e+000	 1.7218706031e-001	 1.5223867050e+000
 2.7429282290e+000	 1.9709066597e-001	 1.5062712661e+000
 2.7410195633e+000	 2.2206249953e-001	 1.4938903078e+000
 2.7388759987e+000	 2.4709970424e-001	 1.4875933591e+000
 2.7750000000e+000	 0.0000000000e+000	 1.5434691943e+000
 2.7748912057e+000	 2.4572267237e-002	 1.5671546499e+000
 2.7745632482e+000	 4.9231918770e-002	 1.5783145088e+000
 2.7740137851e+000	 7.3976484146e-002	 1.5792890322e+000
 2.7732405019e+000	 9.8803433477e-002	 1.5724174941e+000
 2.7722411136e+000	 1.2371017754e-001	 1.5600365969e+000
 2.7710133659e+000	 1.4869406792e-001	 1.5444789075e+000
 2.7695550373e+000	 1.7375239722e-001	 1.5280713170e+000
 2.7678639402e+000	 1.9888239929e-001	 1.5131335257e+000
 2.7659379230e+000	 2.2408124953e-001	 1.5019765584e+000
 2.7637748714e+000	 2.4934606519e-001	 1.4969013127e+000
 2.8000000000e+000	 0.0000000000e+000	 1.5513595889e+000
 2.7998902256e+000	 2.4793639014e-002	 1.5729238168e+000
 2.7995593135e+000	 4.9675449569e-002	 1.5823134908e+000
 2.7990049003e+000	 7.4642938958e-002	 1.5818343483e+000
 2.7982246506e+000	 9.9693554498e-002	 1.5737890573e+000
 2.7972162588e+000	 1.2482468364e-001	 1.5604756406e+000
 2.7959774503e+000	 1.5003365411e-001	 1.5441859242e+000
 2.7945059836e+000	 1.7531773413e-001	 1.5272040136e+000
 2.7927996513e+000	 2.0067413262e-001	 1.5118048000e+000
 2.7908562826e+000	 2.2609999953e-001	 1.5002525016e+000
 2.7886737441e+000	 2.5159242613e-001	 1.4947992420e+000
 2.8250000000e+000	 0.0000000000e+000	 1.5639337866e+000
 2.8248892455e+000	 2.5015010790e-002	 1.5816735469e+000
 2.8245553788e+000	 5.0118980368e-002	 1.5876101975e+000
 2.8239960154e+000	 7.5309393769e-002	 1.5840149981e+000
 2.8232087993e+000	 1.0058367552e-001	 1.5731540255e+000
 2.8221914039e+000	 1.2593918974e-001	 1.5572866051e+000
 2.8209415347e+000	 1.5137324031e-001	 1.5386637720e+000
 2.8194569298e+000	 1.7688307104e-001	 1.5195267637e+000
 2.8177353625e+000	 2.0246586595e-001	 1.5021055477e+000
 2.8157746423e+000	 2.2811874952e-001	 1.4886173886e+000
 2.8135726168e+000	 2.5383878708e-001	 1.4812654568e+000
 2.8500000000e+000	 0.0000000000e+000	 1.5804236210e+000
 2.8498882654e+000	 2.5236382567e-002	 1.5927094820e+000
 2.8495514441e+000	 5.0562511167e-002	 1.5935846087e+000
 2.8489871306e+000	 7.5975848581e-002	 1.5852858003e+000
 2.8481929479e+000	 1.0147379654e-001	 1.5700425259e+000
 2.8471665491e+000	 1.2705369585e-001	 1.5500753649e+000
 2.8459056191e+000	 1.5271282651e-001	 1.5275944790e+000
 2.8444078761e+000	 1.7844840795e-001	 1.5047981222e+000
 2.8426710737e+000	 2.0425759927e-001	 1.4838711893e+000
 2.8406930020e+000	 2.3013749952e-001	 1.4669838090e+000
 2.8384714896e+000	 2.5608514803e-001	 1.4562899837e+000
 2.8750000000e+000	 0.0000000000e+000	 1.6000876445e+000
 2.8748872852e+000	 2.5457754343e-002	 1.6053624385e+000
 2.8745475094e+000	 5.1006041966e-002	 1.5996403317e+000
 2.8739782458e+000	 7.6642303392e-002	 1.5851236508e+000
 2.8731770966e+000	 1.0236391756e-001	 1.5640052117e+000
 2.8721416943e+000	 1.2816820195e-001	 1.5384667673e+000
 2.8708697034e+000	 1.5405241270e-001	 1.5106774923e+000
 2.8693588224e+000	 1.8001374486e-001	 1.4827925086e+000
 2.8676067849e+000	 2.0604933260e-001	 1.4569514560e+000
 2.8656113616e+000	 2.3215624951e-001	 1.4352771108e+000
 2.8633703623e+000	 2.5833150898e-001	 1.4198740565e+000
 2.9000000000e+000	 0.0000000000e+000	 1.6222099767e+000
 2.8998863051e+000	 2.5679126120e-002	 1.6189873223e+000
 2.8995435747e+000	 5.1449572765e-002	 1.6052035829e+000
 2.8989693610e+000	 7.7308758203e-002	 1.5830265719e+000
 2.8981612453e+000	 1.0325403858e-001	 1.5546123771e+000
 2.8971168394e+000	 1.2928270805e-001	 1.5221038147e+000
 2.8958337878e+000	 1.5539199890e-001	 1.4876289270e+000
 2.8943097687e+000	 1.8157908178e-001	 1.4532995235e+000
 2.8925424960e+000	 2.0784106593e-001	 1.4212097735e+000
 2.8905297213e+000	 2.3417499951e-001	 1.3934348501e+000
 2.8882692350e+000	 2.6057786993e-001	 1.3720296328e+000
 2.9250000000e+000	 0.0000000000e+000	 1.6460992117e+000
 2.9248853250e+000	 2.5900497897e-002	 1.6329620994e+000
 2.9245396400e+000	 5.1893103565e-002	 1.6097222212e+000
 2.9239604762e+000	 7.7975213015e-002	 1.5785128091e+000
 2.9231453939e+000	 1.0414415961e-001	 1.5414531183e+000
 2.9220919846e+000	 1.3039721416e-001	 1.5006468888e+000
 2.9207978722e+000	 1.5673158510e-001	 1.4581808541e+000
 2.9192607150e+000	 1.8314441869e-001	 1.4161232998e+000
 2.9174782072e+000	 2.0963279925e-001	 1.3765226762e+000
 2.9154480810e+000	 2.3619374951e-001	 1.3414062698e+000
 2.9131681077e+000	 2.6282423087e-001	 1.3127789363e+000
 2.9500000000e+000	 0.0000000000e+000	 1.6710873811e+000
 2.9498843448e+000	 2.6121869673e-002	 1.6466868190e+000
 2.9495357053e+000	 5.2336634364e-002	 1.6126648316e+000
 2.9489515913e+000	 7.8641667826e-002	 1.5711199741e+000
 2.9481295426e+000	 1.0503428063e-001	 1.5241345366e+000
 2.9470671298e+000	 1.3151172026e-001	 1.4737730138e+000
 2.9457619566e+000	 1.5807117129e-001	 1.4220806244e+000
 2.9442116612e+000	 1.8470975560e-001	 1.3710818865e+000
 2.9424139184e+000	 2.1142453258e-001	 1.3227792521e+000
 2.9403664406e+000	 2.3821249950e-001	 1.2791518042e+000
 2.9380669804e+000	 2.6507059182e-001	 1.2421540213e+000
 2.9750000000e+000	 0.0000000000e+000	 1.6965289693e+000
 2.9748833647e+000	 2.6343241450e-002	 1.6595826849e+000
 2.9745317706e+000	 5.2780165163e-002	 1.6135198538e+000
 2.9739427065e+000	 7.9308122638e-002	 1.5604042312e+000
 2.9731136913e+000	 1.0592440165e-001	 1.5022809822e+000
 2.9720422749e+000	 1.3262622636e-001	 1.4411751577e+000
 2.9707260410e+000	 1.5941075749e-001	 1.3790902261e+000
 2.9691626075e+000	 1.8627509251e-001	 1.3180066648e+000
 2.9673496295e+000	 2.1321626591e-001	 1.2598806155e+000
 2.9652848003e+000	 2.4023124950e-001	 1.2066426087e+000
 2.9629658531e+000	 2.6731695277e-001	 1.1601963598e+000
 3.0000000000e+000	 0.0000000000e+000	 1.7217999777e+000
 2.9998823846e+000	 2.6564613226e-002	 1.6710911750e+000
 2.9995278359e+000	 5.3223695962e-002	 1.6117947552e+000
 2.9989338217e+000	 7.9974577449e-002	 1.5459395243e+000
 2.9980978399e+000	 1.0681452267e-001	 1.4755333347e+000
 2.9970174201e+000	 1.3374073246e-001	 1.4025615675e+000
 2.9956901253e+000	 1.6075034369e-001	 1.3289856756e+000
 2.9941135538e+000	 1.8784042942e-001	 1.2567417917e+000
 2.9922853407e+000	 2.1500799923e-001	 1.1877394053e+000
 2.9902031599e+000	 2.4224999949e-001	 1.1238601135e+000
 2.9878647258e+000	 2.6956331372e-001	 1.0669564493e+000
 2.7388759987e+000	 2.4709970424e-001	 1.4875933591e+000
 2.7364954787e+000	 2.7219936608e-001	 1.4639629221e+000
 2.7338759873e+000	 2.9735851428e-001	 1.4431067350e+000
 2.7310155503e+000	 3.2257412170e-001	 1.4273019965e+000
 2.7279122372e+000	 3.4784310545e-001	 1.4188174429e+000
 2.7245641628e+000	 3.7316232739e-001	 1.4199121920e+000
 2.7209694888e+000	 3.9852859482e-001	 1.4328346276e+000
 2.7171264254e+000	 4.2393866111e-001	 1.4598213287e+000
 2.7130332330e+000	 4.4938922647e-001	 1.5030960442e+000
 2.7086882237e+000	 4.7487693873e-001	 1.5648687150e+000
 2.7040897632e+000	 5.0039839415e-001	 1.6473345448e+000
 2.7637748714e+000	 2.4934606519e-001	 1.4969013127e+000
 2.7613727104e+000	 2.7467390578e-001	 1.4760680305e+000
 2.7587294054e+000	 3.0006177350e-001	 1.4586604341e+000
 2.7558429644e+000	 3.2550661372e-001	 1.4469201802e+000
 2.7527114394e+000	 3.5100531550e-001	 1.4430784306e+000
 2.7493329280e+000	 3.7655471219e-001	 1.4493547267e+000
 2.7457055751e+000	 4.0215158205e-001	 1.4679559107e+000
 2.7418275747e+000	 4.2779264894e-001	 1.5010750946e+000
 2.7376971715e+000	 4.5347458308e-001	 1.5508906808e+000
 2.7333126621e+000	 4.7919400181e-001	 1.6195654346e+000
 2.7286723974e+000	 5.0494747046e-001	 1.7092456098e+000
 2.7886737441e+000	 2.5159242613e-001	 1.4947992420e+000
 2.7862499420e+000	 2.7714844547e-001	 1.4755871057e+000
 2.7835828235e+000	 3.0276503272e-001	 1.4604593022e+000
 2.7806703785e+000	 3.2843910574e-001	 1.4516214369e+000
 2.7775106416e+000	 3.5416752555e-001	 1.4512665602e+000
 2.7741016931e+000	 3.7994709699e-001	 1.4615740739e+000
 2.7704416614e+000	 4.0577456927e-001	 1.4847086891e+000
 2.7665287241e+000	 4.3164663677e-001	 1.5228194372e+000
 2.7623611099e+000	 4.5755993968e-001	 1.5780387365e+000
 2.7579371005e+000	 4.8351106489e-001	 1.6524815158e+000
 2.7532550316e+000	 5.0949654677e-001	 1.7482443976e+000
 2.8135726168e+000	 2.5383878708e-001	 1.4812654568e+000
 2.8111271736e+000	 2.7962298516e-001	 1.4625670117e+000
 2.8084362415e+000	 3.0546829194e-001	 1.4486192668e+000
 2.8054977926e+000	 3.3137159775e-001	 1.4415912347e+000
 2.8023098437e+000	 3.5732973560e-001	 1.4436372846e+000
 2.7988704582e+000	 3.8333948178e-001	 1.4568960817e+000
 2.7951777476e+000	 4.0939755650e-001	 1.4834895824e+000
 2.7912298734e+000	 4.3550062460e-001	 1.5255220882e+000
 2.7870250484e+000	 4.6164529629e-001	 1.5850793591e+000
 2.7825615389e+000	 4.8782812797e-001	 1.6642277906e+000
 2.7778376658e+000	 5.1404562308e-001	 1.7650136532e+000
 2.8384714896e+000	 2.5608514803e-001	 1.4562899837e+000
 2.8360044052e+000	 2.8209752485e-001	 1.4370650865e+000
 2.8332896596e+000	 3.0817155116e-001	 1.4232654783e+000
 2.8303252067e+000	 3.3430408977e-001	 1.4170230057e+000
 2.8271090459e+000	 3.6049194565e-001	 1.4204527547e+000
 2.8236392233e+000	 3.8673186658e-001	 1.4356520236e+000
 2.8199138339e+000	 4.1302054373e-001	 1.4646993563e+000
 2.8159310227e+000	 4.3935461243e-001	 1.5096536400e+000
 2.8116889869e+000	 4.6573065289e-001	 1.5725532668e+000
 2.8071859773e+000	 4.9214519105e-001	 1.6554153645e+000
 2.8024203000e+000	 5.1859469938e-001	 1.7602350950e+000
 2.8633703623e+000	 2.5833150898e-001	 1.4198740565e+000
 2.8608816369e+000	 2.8457206455e-001	 1.3991486867e+000
 2.8581430777e+000	 3.1087481039e-001	 1.3845319091e+000
 2.8551526208e+000	 3.3723658179e-001	 1.3781178001e+000
 2.8519082480e+000	 3.6365415570e-001	 1.3819815286e+000
 2.8484079884e+000	 3.9012425137e-001	 1.3981783626e+000
 2.8446499202e+000	 4.1664353095e-001	 1.4287427421e+000
 2.8406321720e+000	 4.4320860026e-001	 1.4756874211e+000
 2.8363529254e+000	 4.6981600950e-001	 1.5410026788e+000
 2.8318104157e+000	 4.9646225412e-001	 1.6266556054e+000
 2.8270029342e+000	 5.2314377569e-001	 1.7345894597e+000
 2.8882692350e+000	 2.6057786993e-001	 1.3720296328e+000
 2.8857588685e+000	 2.8704660424e-001	 1.3488947553e+000
 2.8829964957e+000	 3.1357806961e-001	 1.3325609730e+000
 2.8799800349e+000	 3.4016907380e-001	 1.3250839577e+000
 2.8767074502e+000	 3.6681636576e-001	 1.3284982952e+000
 2.8731767535e+000	 3.9351663617e-001	 1.3448165275e+000
 2.8693860064e+000	 4.2026651818e-001	 1.3760282661e+000
 2.8653333213e+000	 4.4706258809e-001	 1.4240993785e+000
 2.8610168639e+000	 4.7390136610e-001	 1.4909712516e+000
 2.8564348541e+000	 5.0077931720e-001	 1.5785601315e+000
 2.8515855684e+000	 5.2769285200e-001	 1.6887565441e+000
 2.9131681077e+000	 2.6282423087e-001	 1.3127789363e+000
 2.9106361001e+000	 2.8952114393e-001	 1.2863894122e+000
 2.9078499138e+000	 3.1628132883e-001	 1.2675031651e+000
 2.9048074490e+000	 3.4310156582e-001	 1.2581367965e+000
 2.9015066523e+000	 3.6997857581e-001	 1.2602836122e+000
 2.8979455187e+000	 3.9690902097e-001	 1.2759127007e+000
 2.8941220927e+000	 4.2388950541e-001	 1.3069680869e+000
 2.8900344707e+000	 4.5091657592e-001	 1.3553679658e+000
 2.8856808023e+000	 4.7798672271e-001	 1.4230040166e+000
 2.8810592925e+000	 5.0509638028e-001	 1.5117408012e+000
 2.8761682026e+000	 5.3224192831e-001	 1.6234152457e+000
 2.9380669804e+000	 2.6507059182e-001	 1.2421540213e+000
 2.9355133317e+000	 2.9199568362e-001	 1.2117275657e+000
 2.9327033318e+000	 3.1898458805e-001	 1.1895167189e+000
 2.9296348631e+000	 3.4603405784e-001	 1.1774983168e+000
 2.9263058545e+000	 3.7314078586e-001	 1.1776236578e+000
 2.9227142838e+000	 4.0030140576e-001	 1.1918176168e+000
 2.9188581789e+000	 4.2751249264e-001	 1.2219778423e+000
 2.9147356200e+000	 4.5477056375e-001	 1.2699740364e+000
 2.9103447408e+000	 4.8207207931e-001	 1.3376473229e+000
 2.9056837309e+000	 5.0941344336e-001	 1.4268097028e+000
 2.9007508368e+000	 5.3679100462e-001	 1.5392436009e+000
 2.9629658531e+000	 2.6731695277e-001	 1.1601963598e+000
 2.9603905634e+000	 2.9447022332e-001	 1.1250125428e+000
 2.9575567499e+000	 3.2168784727e-001	 1.0987672812e+000
 2.9544622771e+000	 3.4896654985e-001	 1.0833969208e+000
 2.9511050566e+000	 3.7630299591e-001	 1.0808099938e+000
 2.9474830489e+000	 4.0369379056e-001	 1.0928863712e+000
 2.9435942652e+000	 4.3113547986e-001	 1.1214765022e+000
 2.9394367693e+000	 4.5862455157e-001	 1.1684007435e+000
 2.9350086793e+000	 4.8615743592e-001	 1.2354487810e+000
 2.9303081693e+000	 5.1373050644e-001	 1.3243791446e+000
 2.9253334710e+000	 5.4134008093e-001	 1.4369188204e+000
 2.9878647258e+000	 2.6956331372e-001	 1.0669564493e+000
 2.9852677950e+000	 2.9694476301e-001	 1.0263557383e+000
 2.9824101680e+000	 3.2439110650e-001	 9.9542760332e-001
 2.9792896912e+000	 3.5189904187e-001	 9.7606714535e-001
 2.9759042588e+000	 3.7946520596e-001	 9.7013934201e-001
 2.9722518140e+000	 4.0708617535e-001	 9.7947823839e-001
 2.9683303514e+000	 4.3475846709e-001	 1.0058862304e+000
 2.9641379186e+000	 4.6247853940e-001	 1.0511334438e+000
 2.9596726178e+000	 4.9024279252e-001	 1.1169572107e+000
 2.9549326076e+000	 5.1804756952e-001	 1.2050616459e+000
 2.9499161052e+000	 5.4588915724e-001	 1.3171173247e+000
 2.7040897632e+000	 5.0039839415e-001	 1.6473345448e+000
 2.6992362720e+000	 5.2595013834e-001	 1.4885630019e+000
 2.6941262274e+000	 5.5152866722e-001	 1.3177489909e+000
 2.6887581649e+000	 5.7713042797e-001	 1.1363109108e+000
 2.6831306796e+000	 6.0275182011e-001	 9.4567040042e-001
 2.6772424279e+000	 6.2838919664e-001	 7.7733385664e-001
 2.6710921293e+000	 6.5403886512e-001	 8.0193997571e-001
 2.6646785674e+000	 6.7969708895e-001	 8.2389394243e-001
 2.6580005917e+000	 7.0536008863e-001	 8.4337473178e-001
 2.6510571191e+000	 7.3102404304e-001	 8.6051924473e-001
 2.6438471350e+000	 7.5668509084e-001	 8.7542251603e-001
 2.7286723974e+000	 5.0494747046e-001	 1.7092456098e+000
 2.7237747836e+000	 5.3073150323e-001	 1.5403752258e+000
 2.7186182841e+000	 5.5654256419e-001	 1.3570147309e+000
 2.7132014209e+000	 5.8237706822e-001	 1.1604966502e+000
 2.7075227766e+000	 6.0823138211e-001	 9.5215723056e-001
 2.7015809954e+000	 6.3410182569e-001	 8.2476536780e-001
 2.6953747850e+000	 6.5998467298e-001	 8.5924493447e-001
 2.6889029180e+000	 6.8587615339e-001	 8.8870424294e-001
 2.6821642335e+000	 7.1177245307e-001	 9.1323095297e-001
 2.6751576384e+000	 7.3766971615e-001	 9.3287052239e-001
 2.6678821090e+000	 7.6356404620e-001	 9.4762653782e-001
 2.7532550316e+000	 5.0949654677e-001	 1.7482443976e+000
 2.7483132951e+000	 5.3551286813e-001	 1.5678413581e+000
 2.7431103407e+000	 5.6155646116e-001	 1.3705471133e+000
 2.7376446770e+000	 5.8762370847e-001	 1.1576080774e+000
 2.7319148737e+000	 6.1371094411e-001	 9.3027483246e-001
 2.7259195630e+000	 6.3981445475e-001	 8.5555048661e-001
 2.7196574407e+000	 6.6593048084e-001	 8.9869262208e-001
 2.7131272686e+000	 6.9205521784e-001	 9.3451267347e-001
 2.7063278752e+000	 7.1818481751e-001	 9.6300705745e-001
 2.6992581576e+000	 7.4431538927e-001	 9.8412980350e-001
 2.6919170830e+000	 7.7044300157e-001	 9.9779300737e-001
 2.7778376658e+000	 5.1404562308e-001	 1.7650136532e+000
 2.7728518067e+000	 5.4029423302e-001	 1.5717243162e+000
 2.7676023973e+000	 5.6657035814e-001	 1.3591881696e+000
 2.7620879330e+000	 5.9287034872e-001	 1.1285652271e+000
 2.7563069708e+000	 6.1919050611e-001	 8.8102007974e-001
 2.7502581305e+000	 6.4552708381e-001	 8.7031100140e-001
 2.7439400964e+000	 6.7187628870e-001	 9.2096403578e-001
 2.7373516192e+000	 6.9823428228e-001	 9.6205845240e-001
 2.7304915169e+000	 7.2459718195e-001	 9.9349945557e-001
 2.7233586769e+000	 7.5096106238e-001	 1.0151496197e+000
 2.7159520569e+000	 7.7732195694e-001	 1.0268294654e+000
 2.8024203000e+000	 5.1859469938e-001	 1.7602350950e+000
 2.7973903183e+000	 5.4507559791e-001	 1.5527844027e+000
 2.7920944539e+000	 5.7158425511e-001	 1.3237757682e+000
 2.7865311891e+000	 5.9811698897e-001	 1.0742824625e+000
 2.7806990679e+000	 6.2467006810e-001	 8.0538270643e-001
 2.7745966980e+000	 6.5123971286e-001	 8.6966013472e-001
 2.7682227522e+000	 6.7782209656e-001	 9.2673022367e-001
 2.7615759698e+000	 7.0441334672e-001	 9.7206950933e-001
 2.7546551587e+000	 7.3100954638e-001	 1.0054919739e+000
 2.7474591962e+000	 7.5760673550e-001	 1.0267686693e+000
 2.7399870309e+000	 7.8420091230e-001	 1.0356284161e+000
 2.8270029342e+000	 5.2314377569e-001	 1.7345894597e+000
 2.8219288298e+000	 5.4985696280e-001	 1.5117794204e+000
 2.8165865105e+000	 5.7659815208e-001	 1.2651437960e+000
 2.8109744451e+000	 6.0336362922e-001	 9.9566872149e-001
 2.8050911650e+000	 6.3014963010e-001	 7.7814688355e-001
 2.7989352655e+000	 6.5695234192e-001	 8.5420291581e-001
 2.7925054079e+000	 6.8376790442e-001	 9.1665271730e-001
 2.7858003204e+000	 7.1059241116e-001	 9.6526297587e-001
 2.7788188004e+000	 7.3742191082e-001	 9.9975640220e-001
 2.7715597154e+000	 7.6425240861e-001	 1.0198124189e+000
 2.7640220048e+000	 7.9107986767e-001	 1.0250679813e+000
 2.8515855684e+000	 5.2769285200e-001	 1.6887565441e+000
 2.8464673414e+000	 5.5463832770e-001	 1.4494647788e+000
 2.8410785671e+000	 5.8161204905e-001	 1.1841223295e+000
 2.8354177012e+000	 6.0861026947e-001	 8.9362775098e-001
 2.8294832621e+000	 6.3562919210e-001	 7.4212756509e-001
 2.8232738331e+000	 6.6266497097e-001	 8.2453653372e-001
 2.8167880636e+000	 6.8971371228e-001	 8.9138394183e-001
 2.8100246711e+000	 7.1677147560e-001	 9.4234565111e-001
 2.8029824422e+000	 7.4383427526e-001	 9.7705301250e-001
 2.7956602347e+000	 7.7089808172e-001	 9.9509367324e-001
 2.7880569788e+000	 7.9795882304e-001	 9.9601252016e-001
 2.8761682026e+000	 5.3224192831e-001	 1.6234152457e+000
 2.8710058529e+000	 5.5941969259e-001	 1.3665935973e+000
 2.8655706237e+000	 5.8662594603e-001	 1.0815377978e+000
 2.8598609572e+000	 6.1385690972e-001	 7.6905832841e-001
 2.8538753591e+000	 6.4110875410e-001	 6.9347867741e-001
 2.8476124006e+000	 6.6837760003e-001	 7.8125067242e-001
 2.8410707193e+000	 6.9565952014e-001	 8.5156760527e-001
 2.8342490217e+000	 7.2295054004e-001	 9.0401444314e-001
 2.8271460839e+000	 7.5024663970e-001	 9.3813105109e-001
 2.8197607539e+000	 7.7754375484e-001	 9.5341311697e-001
 2.8120919527e+000	 8.0483777841e-001	 9.4931321709e-001
 2.9007508368e+000	 5.3679100462e-001	 1.5392436009e+000
 2.8955443645e+000	 5.6420105748e-001	 1.2639168018e+000
 2.8900626803e+000	 5.9163984300e-001	 9.5821313734e-001
 2.8843042132e+000	 6.1910354998e-001	 6.2285447244e-001
 2.8782674562e+000	 6.4658831609e-001	 6.3272910379e-001
 2.8719509681e+000	 6.7409022909e-001	 7.2492782873e-001
 2.8653533750e+000	 7.0160532800e-001	 7.9783906777e-001
 2.8584733723e+000	 7.2912960448e-001	 8.5095678818e-001
 2.8513097256e+000	 7.5665900413e-001	 8.8372920581e-001
 2.8438612732e+000	 7.8418942795e-001	 8.9555982775e-001
 2.8361269267e+000	 8.1171673377e-001	 8.8580864044e-001
 2.9253334710e+000	 5.4134008093e-001	 1.4369188204e+000
 2.9200828761e+000	 5.6898242237e-001	 1.1421832170e+000
 2.9145547369e+000	 5.9665373997e-001	 8.1496793832e-001
 2.9087474693e+000	 6.2435019023e-001	 4.5590564285e-001
 2.9026595533e+000	 6.5206787809e-001	 5.6040198871e-001
 2.8962895356e+000	 6.7980285814e-001	 6.5614361437e-001
 2.8896360307e+000	 7.0755113586e-001	 7.3082569242e-001
 2.8826977229e+000	 7.3530866892e-001	 7.8385104857e-001
 2.8754733674e+000	 7.6307136857e-001	 8.1457604967e-001
 2.8679617925e+000	 7.9083510107e-001	 8.2231176408e-001
 2.8601619006e+000	 8.1859568914e-001	 8.0632527233e-001
 2.9499161052e+000	 5.4588915724e-001	 1.3171173247e+000
 2.9446213876e+000	 5.7376378727e-001	 1.0021396539e+000
 2.9390467935e+000	 6.0166763694e-001	 6.5261858435e-001
 2.9331907253e+000	 6.2959683048e-001	 3.5643112581e-001
 2.9270516504e+000	 6.5754744009e-001	 4.7701497699e-001
 2.9206281031e+000	 6.8551548720e-001	 5.7546704281e-001
 2.9139186865e+000	 7.1349694372e-001	 6.5114717843e-001
 2.9069220735e+000	 7.4148773336e-001	 7.0336689082e-001
 2.8996370091e+000	 7.6948373301e-001	 7.3139046228e-001
 2.8920623117e+000	 7.9748077418e-001	 7.3443622859e-001
 2.8841968746e+000	 8.2547464451e-001	 7.1167801228e-001
 2.6438471350e+000	 7.5668509084e-001	 8.7542251603e-001
 2.6363696952e+000	 7.8233933189e-001	 8.2232186094e-001
 2.6286239268e+000	 8.0798282872e-001	 7.6521422997e-001
 2.6206090298e+000	 8.3361160807e-001	 7.0407295921e-001
 2.6123242783e+000	 8.5922166244e-001	 6.3883529265e-001
 2.6037690218e+000	 8.8480895173e-001	 5.6940323667e-001
 2.5949426866e+000	 9.1036940492e-001	 4.9564452488e-001
 2.5858447765e+000	 9.3589892178e-001	 4.1739369233e-001
 2.5764748746e+000	 9.6139337463e-001	 3.3445325790e-001
 2.5668326437e+000	 9.8684861017e-001	 2.4659501325e-001
 2.5569178279e+000	 1.0122604513e+000	 1.5356141629e-001
 2.6678821090e+000	 7.6356404620e-001	 9.4762653782e-001
 2.6603366925e+000	 7.8945150763e-001	 8.9412798290e-001
 2.6525205080e+000	 8.1532812716e-001	 8.3815918301e-001
 2.6444327482e+000	 8.4118989541e-001	 7.7965046448e-001
 2.6360726808e+000	 8.6703276845e-001	 7.1849329087e-001
 2.6274396493e+000	 8.9285266947e-001	 6.5454115937e-001
 2.6185330746e+000	 9.1864549042e-001	 5.8761061309e-001
 2.6093524563e+000	 9.4440709380e-001	 5.1748236818e-001
 2.5998973734e+000	 9.7013331440e-001	 4.4390255479e-001
 2.5901674859e+000	 9.9581996117e-001	 3.6658406995e-001
 2.5801625355e+000	 1.0214628190e+000	 2.8520804046e-001
 2.6919170830e+000	 7.7044300157e-001	 9.9779300737e-001
 2.6843036897e+000	 7.9656368337e-001	 9.4360847306e-001
 2.6764170891e+000	 8.2267342560e-001	 8.8848028608e-001
 2.6682564667e+000	 8.4876818275e-001	 8.3229476080e-001
 2.6598210833e+000	 8.7484387447e-001	 7.7489655837e-001
 2.6511102768e+000	 9.0089638721e-001	 7.1608962649e-001
 2.6421234627e+000	 9.2692157592e-001	 6.5563826060e-001
 2.6328601361e+000	 9.5291526581e-001	 5.9326828566e-001
 2.6233198723e+000	 9.7887325417e-001	 5.2866835724e-001
 2.6135023281e+000	 1.0047913122e+000	 4.6149138013e-001
 2.6034072430e+000	 1.0306651868e+000	 3.9135604250e-001
 2.7159520569e+000	 7.7732195694e-001	 1.0268294654e+000
 2.7082706869e+000	 8.0367585911e-001	 9.7170903041e-001
 2.7003136703e+000	 8.3001872403e-001	 9.1716222439e-001
 2.6920801852e+000	 8.5634647009e-001	 8.6303032702e-001
 2.6835694859e+000	 8.8265498049e-001	 8.0911015372e-001
 2.6747809043e+000	 9.0894010495e-001	 7.5515504016e-001
 2.6657138508e+000	 9.3519766141e-001	 7.0087595396e-001
 2.6563678159e+000	 9.6142343782e-001	 6.4594273275e-001
 2.6467423712e+000	 9.8761319394e-001	 5.8998544707e-001
 2.6368371703e+000	 1.0137626632e+000	 5.3259588648e-001
 2.6266519505e+000	 1.0398675545e+000	 4.7332916682e-001
 2.7399870309e+000	 7.8420091230e-001	 1.0356284161e+000
 2.7322376842e+000	 8.1078803485e-001	 9.7935971268e-001
 2.7242102514e+000	 8.3736402247e-001	 9.2517341412e-001
 2.7159039036e+000	 8.6392475744e-001	 8.7286472247e-001
 2.7073178884e+000	 8.9046608651e-001	 8.2218154285e-001
 2.6984515317e+000	 9.1698382269e-001	 7.7282551433e-001
 2.6893042388e+000	 9.4347374691e-001	 7.2445317373e-001
 2.6798754957e+000	 9.6993160984e-001	 6.7667725151e-001
 2.6701648700e+000	 9.9635313370e-001	 6.2906809825e-001
 2.6601720126e+000	 1.0227340142e+000	 5.8115524017e-001
 2.6498966580e+000	 1.0490699223e+000	 5.3242906115e-001
 2.7640220048e+000	 7.9107986767e-001	 1.0250679813e+000
 2.7562046814e+000	 8.1790021059e-001	 9.6747561628e-001
 2.7481068326e+000	 8.4470932091e-001	 9.1346670965e-001
 2.7397276221e+000	 8.7150304478e-001	 8.6278932248e-001
 2.7310662909e+000	 8.9827719253e-001	 8.1514136392e-001
 2.7221221592e+000	 9.2502754043e-001	 7.7017166994e-001
 2.7128946269e+000	 9.5174983241e-001	 7.2748122082e-001
 2.7033831755e+000	 9.7843978185e-001	 6.8662449652e-001
 2.6935873689e+000	 1.0050930735e+000	 6.4711096857e-001
 2.6835068548e+000	 1.0317053652e+000	 6.0840672660e-001
 2.6731413656e+000	 1.0582722900e+000	 5.6993623722e-001
 2.7880569788e+000	 7.9795882304e-001	 9.9601252016e-001
 2.7801716786e+000	 8.2501238633e-001	 9.3695752129e-001
 2.7720034137e+000	 8.5205461935e-001	 8.8298007442e-001
 2.7635513405e+000	 8.7908133212e-001	 8.3378001604e-001
 2.7548146935e+000	 9.0608829855e-001	 7.8900415267e-001
 2.7457927867e+000	 9.3307125817e-001	 7.4824738887e-001
 2.7364850150e+000	 9.6002591790e-001	 7.1105400007e-001
 2.7268908553e+000	 9.8694795386e-001	 6.7691904908e-001
 2.7170098677e+000	 1.0138330132e+000	 6.4528994512e-001
 2.7068416970e+000	 1.0406767162e+000	 6.1556814321e-001
 2.6963860731e+000	 1.0674746577e+000	 5.8711098184e-001
 2.8120919527e+000	 8.0483777841e-001	 9.4931321709e-001
 2.8041386758e+000	 8.3212456207e-001	 8.8869250318e-001
 2.7958999949e+000	 8.5939991779e-001	 8.3463721724e-001
 2.7873750590e+000	 8.8665961946e-001	 7.8679786759e-001
 2.7785630960e+000	 9.1389940457e-001	 7.4476903055e-001
 2.7694634141e+000	 9.4111497591e-001	 7.0809052933e-001
 2.7600754030e+000	 9.6830200340e-001	 6.7624876372e-001
 2.7503985350e+000	 9.9545612588e-001	 6.4867818953e-001
 2.7404323666e+000	 1.0225729530e+000	 6.2476294647e-001
 2.7301765392e+000	 1.0496480672e+000	 6.0383863232e-001
 2.7196307806e+000	 1.0766770255e+000	 5.8519422121e-001
 2.8361269267e+000	 8.1171673377e-001	 8.8580864044e-001
 2.8281056731e+000	 8.3923673781e-001	 8.2355451359e-001
 2.8197965760e+000	 8.6674521623e-001	 7.6934819631e-001
 2.8111987774e+000	 8.9423790680e-001	 7.2278974515e-001
 2.8023114985e+000	 9.2171051058e-001	 6.8342035788e-001
 2.7931340416e+000	 9.4915869365e-001	 6.5072360480e-001
 2.7836657911e+000	 9.7657808889e-001	 6.2412681699e-001
 2.7739062148e+000	 1.0039642979e+000	 6.0300263034e-001
 2.7638548655e+000	 1.0313128928e+000	 5.8667068406e-001
 2.7535113814e+000	 1.0586194182e+000	 5.7439947157e-001
 2.7428754882e+000	 1.0858793932e+000	 5.6540834126e-001
 2.8601619006e+000	 8.1859568914e-001	 8.0632527233e-001
 2.8520726703e+000	 8.4634891355e-001	 7.4240493170e-001
 2.8436931572e+000	 8.7409051467e-001	 6.8800999279e-001
 2.8350224959e+000	 9.0181619415e-001	 6.4268891685e-001
 2.8260599011e+000	 9.2952161660e-001	 6.0592835405e-001
 2.8168046691e+000	 9.5720241139e-001	 5.7715442880e-001
 2.8072561791e+000	 9.8485417439e-001	 5.5573418816e-001
 2.7974138946e+000	 1.0124724699e+000	 5.4097721225e-001
 2.7872773643e+000	 1.0400528325e+000	 5.3213738520e-001
 2.7768462236e+000	 1.0675907692e+000	 5.2841482457e-001
 2.7661201957e+000	 1.0950817609e+000	 5.2895796666e-001
 2.8841968746e+000	 8.2547464451e-001	 7.1167801228e-001
 2.8760396675e+000	 8.5346108929e-001	 6.4609308809e-001
 2.8675897383e+000	 8.8143581311e-001	 5.9150705568e-001
 2.8588462143e+000	 9.0939448149e-001	 5.4741561758e-001
 2.8498083036e+000	 9.3733272262e-001	 5.1324968674e-001
 2.8404752965e+000	 9.6524612913e-001	 4.8837672734e-001
 2.8308465672e+000	 9.9313025989e-001	 4.7210226506e-001
 2.8209215744e+000	 1.0209806419e+000	 4.6367156558e-001
 2.8106998632e+000	 1.0487927723e+000	 4.6227147987e-001
 2.8001810658e+000	 1.0765621202e+000	 4.6703245397e-001
 2.7893649032e+000	 1.1042841287e+000	 4.7703070090e-001
 2.5569178279e+000	 1.0122604513e+000	 1.5356141629e-001
 2.5467302535e+000	 1.0376246991e+000	 1.0090732972e-001
 2.5362698295e+000	 1.0629371346e+000	 6.5616483451e-002
 2.5255365491e+000	 1.0881935211e+000	 4.6747265826e-002
 2.5145304902e+000	 1.1133896056e+000	 4.3307314158e-002
 2.5032518163e+000	 1.1385211215e+000	 5.4255676760e-002
 2.4917007772e+000	 1.1635837903e+000	-3.9971765411e-002
 2.4798777095e+000	 1.1885733238e+000	-1.7550803667e-001
 2.4677830375e+000	 1.2134854263e+000	-3.0450257976e-001
 2.4554172736e+000	 1.2383157968e+000	-4.2458569475e-001
 2.4427810188e+000	 1.2630601309e+000	-4.0354581563e-001
 2.5801625355e+000	 1.0214628190e+000	 2.8520804046e-001
 2.5698823467e+000	 1.0470576509e+000	 2.2165781188e-001
 2.5593268279e+000	 1.0726001995e+000	 1.6952511240e-001
 2.5484959723e+000	 1.0980861894e+000	 1.2786351759e-001
 2.5373898583e+000	 1.1235113293e+000	 9.5680790502e-002
 2.5260086510e+000	 1.1488713135e+000	 7.1941159501e-002
 2.5143526024e+000	 1.1741618247e+000	 5.5567716924e-002
 2.5024220523e+000	 1.1993785358e+000	 4.5444933796e-002
 2.4902174287e+000	 1.2245171120e+000	-1.0013153902e-001
 2.4777392488e+000	 1.2495732131e+000	-2.7882100093e-001
 2.4649881190e+000	 1.2745424957e+000	-1.9915124361e-001
 2.6034072430e+000	 1.0306651868e+000	 3.9135604250e-001
 2.5930344399e+000	 1.0564906027e+000	 3.1952110774e-001
 2.5823838264e+000	 1.0822632644e+000	 2.5326677219e-001
 2.5714553954e+000	 1.1079788578e+000	 1.9164000577e-001
 2.5602492264e+000	 1.1336330529e+000	 1.3364681648e-001
 2.5487654857e+000	 1.1592215055e+000	 7.8254645768e-002
 2.5370044277e+000	 1.1847398592e+000	 2.4394880819e-002
 2.5249663951e+000	 1.2101837479e+000	-2.9034521349e-002
 2.5126518200e+000	 1.2355487977e+000	-8.3166303541e-002
 2.5000612240e+000	 1.2608306294e+000	-2.5423036926e-002
 2.4871952191e+000	 1.2860248606e+000	 1.1274086370e-002
 2.6266519505e+000	 1.0398675545e+000	 4.7332916682e-001
 2.6161865331e+000	 1.0659235545e+000	 3.9578545574e-001
 2.6054408248e+000	 1.0919263292e+000	 3.1809133988e-001
 2.5944148186e+000	 1.1178715262e+000	 2.3928538012e-001
 2.5831085945e+000	 1.1437547766e+000	 1.5836993969e-001
 2.5715223204e+000	 1.1695716975e+000	 7.4313698867e-002
 2.5596562529e+000	 1.1953178937e+000	-1.3945717083e-002
 2.5475107379e+000	 1.2209889599e+000	-1.0749900239e-001
 2.5350862112e+000	 1.2465804834e+000	-2.0746233343e-001
 2.5223831993e+000	 1.2720880458e+000	-7.5783081170e-002
 2.5094023193e+000	 1.2975072254e+000	 9.7291817641e-002
 2.6498966580e+000	 1.0490699223e+000	 5.3242906115e-001
 2.6393386263e+000	 1.0753565063e+000	 4.5171901048e-001
 2.6284978233e+000	 1.1015893941e+000	 3.6523072127e-001
 2.6173742418e+000	 1.1277641945e+000	 2.7199253103e-001
 2.6059679626e+000	 1.1538765003e+000	 1.7100125912e-001
 2.5942791551e+000	 1.1799218895e+000	 6.1224842716e-002
 2.5823080782e+000	 1.2058959281e+000	-5.8394917757e-002
 2.5700550807e+000	 1.2317941719e+000	-1.8893950947e-001
 2.5575206025e+000	 1.2576121691e+000	-2.4915779559e-001
 2.5447051745e+000	 1.2833454621e+000	-1.1662886611e-001
 2.5316094195e+000	 1.3089895902e+000	 1.6215916802e-002
 2.6731413656e+000	 1.0582722900e+000	 5.6993623722e-001
 2.6624907195e+000	 1.0847894581e+000	 4.8857071594e-001
 2.6515548217e+000	 1.1112524589e+000	 3.9589963223e-001
 2.6403336650e+000	 1.1376568629e+000	 2.9093927466e-001
 2.6288273307e+000	 1.1639982240e+000	 1.7267900991e-001
 2.6170359898e+000	 1.1902720815e+000	 4.0084041823e-002
 2.6049599034e+000	 1.2164739626e+000	-1.0790172352e-001
 2.5925994236e+000	 1.2425993840e+000	-2.7235271298e-001
 2.5799549938e+000	 1.2686438548e+000	-2.4825936762e-001
 2.5670271497e+000	 1.2946028784e+000	-1.4849753247e-001
 2.5538165197e+000	 1.3204719550e+000	-5.3346115955e-002
 2.6963860731e+000	 1.0674746577e+000	 5.8711098184e-001
 2.6856428127e+000	 1.0942224100e+000	 5.0757113351e-001
 2.6746118202e+000	 1.1209155238e+000	 4.1129633965e-001
 2.6632930881e+000	 1.1475495313e+000	 2.9728900273e-001
 2.6516866988e+000	 1.1741199477e+000	 1.6452911776e-001
 2.6397928245e+000	 1.2006222736e+000	 1.1977156430e-002
 2.6276117287e+000	 1.2270519970e+000	-1.6142294626e-001
 2.6151437664e+000	 1.2534045960e+000	-3.1946697061e-001
 2.6023893850e+000	 1.2796755405e+000	-2.4126926532e-001
 2.5893491249e+000	 1.3058602948e+000	-1.7192661504e-001
 2.5760236198e+000	 1.3319543199e+000	-1.1201101521e-001
 2.7196307806e+000	 1.0766770255e+000	 5.8519422121e-001
 2.7087949060e+000	 1.1036553618e+000	 5.0993322758e-001
 2.6976688186e+000	 1.1305785886e+000	 4.1260336439e-001
 2.6862525113e+000	 1.1574421997e+000	 2.9219129891e-001
 2.6745460669e+000	 1.1842416714e+000	 1.4766572504e-001
 2.6625496592e+000	 1.2109724656e+000	-2.2019625681e-002
 2.6502635539e+000	 1.2376300315e+000	-2.1792287367e-001
 2.6376881092e+000	 1.2642098080e+000	-2.8348300469e-001
 2.6248237763e+000	 1.2907072262e+000	-2.2865072711e-001
 2.6116711001e+000	 1.3171177111e+000	-1.8745402581e-001
 2.5982307200e+000	 1.3434366847e+000	-1.6039335920e-001
 2.7428754882e+000	 1.0858793932e+000	 5.6540834126e-001
 2.7319469992e+000	 1.1130883136e+000	 4.9685311118e-001
 2.7207258171e+000	 1.1402416535e+000	 4.0098814846e-001
 2.7092119345e+000	 1.1673348680e+000	 2.7678252396e-001
 2.6974054350e+000	 1.1943633951e+000	 1.2319169006e-001
 2.6853064939e+000	 1.2213226576e+000	-6.0839379337e-002
 2.6729153792e+000	 1.2482080659e+000	-2.7637295252e-001
 2.6602324520e+000	 1.2750150201e+000	-2.4443121990e-001
 2.6472581675e+000	 1.3017389119e+000	-2.1086969917e-001
 2.6339930753e+000	 1.3283751274e+000	-1.9561803801e-001
 2.6204378202e+000	 1.3549190495e+000	-1.9910566118e-001
 2.7661201957e+000	 1.0950817609e+000	 5.2895796666e-001
 2.7550990924e+000	 1.1225212654e+000	 4.6951075398e-001
 2.7437828155e+000	 1.1499047184e+000	 3.7760368864e-001
 2.7321713577e+000	 1.1772275364e+000	 2.5218637128e-001
 2.7202648031e+000	 1.2044851188e+000	 9.2199061170e-002
 2.7080633286e+000	 1.2316728496e+000	-1.0342405279e-001
 2.6955672044e+000	 1.2587861004e+000	-2.3956590078e-001
 2.6827767948e+000	 1.2858202321e+000	-2.0271193710e-001
 2.6696925588e+000	 1.3127705976e+000	-1.8839472167e-001
 2.6563150506e+000	 1.3396325438e+000	-1.9695727092e-001
 2.6426449203e+000	 1.3664014143e+000	-2.2875845621e-001
 2.7893649032e+000	 1.1042841287e+000	 4.7703070090e-001
 2.7782511856e+000	 1.1319542172e+000	 4.2907065499e-001
 2.7668398140e+000	 1.1595677832e+000	 3.4358913832e-001
 2.7551307808e+000	 1.1871202048e+000	 2.1951439472e-001
 2.7431241712e+000	 1.2146068424e+000	 5.5769527207e-002
 2.7308201633e+000	 1.2420230416e+000	-1.4872409798e-001
 2.7182190297e+000	 1.2693641349e+000	-1.8283349345e-001
 2.7053211376e+000	 1.2966254442e+000	-1.5873004352e-001
 2.6921269500e+000	 1.3238022833e+000	-1.6169682067e-001
 2.6786370258e+000	 1.3508899601e+000	-1.9201067545e-001
 2.6648520205e+000	 1.3778837792e+000	-2.4996038354e-001
 2.4427810188e+000	 1.2630601309e+000	-4.0354581563e-001
 2.4298749630e+000	 1.2877141236e+000	-3.8173887330e-001
 2.4166998856e+000	 1.3122734711e+000	-3.7422599538e-001
 2.4032566556e+000	 1.3367338731e+000	-3.8085446665e-001
 2.3895462317e+000	 1.3610910354e+000	-4.0145495550e-001
 2.3755696628e+000	 1.3853406719e+000	-4.3584206578e-001
 2.3613280878e+000	 1.4094785070e+000	-4.8381491832e-001
 2.3468227357e+000	 1.4335002780e+000	-5.4515776057e-001
 2.3320549255e+000	 1.4574017375e+000	-6.1964060297e-001
 2.3170260660e+000	 1.4811786555e+000	-7.0701988006e-001
 2.3017376559e+000	 1.5048268218e+000	-8.0703913482e-001
 2.4649881190e+000	 1.2745424957e+000	-1.9915124361e-001
 2.4519647354e+000	 1.2994206156e+000	-2.1395856952e-001
 2.4386698846e+000	 1.3242032299e+000	-2.4136206487e-001
 2.4251044434e+000	 1.3488859992e+000	-2.8111052322e-001
 2.4112693793e+000	 1.3734645903e+000	-3.3293696969e-001
 2.3971657507e+000	 1.3979346780e+000	-3.9655933625e-001
 2.3827947068e+000	 1.4222919480e+000	-4.7168116690e-001
 2.3681574879e+000	 1.4465320987e+000	-5.5799235075e-001
 2.3532554248e+000	 1.4706508442e+000	-6.5516988144e-001
 2.3380899394e+000	 1.4946439160e+000	-7.6287864076e-001
 2.3226625436e+000	 1.5185070657e+000	-8.8077220459e-001
 2.4871952191e+000	 1.2860248606e+000	 1.1274086370e-002
 2.4740545078e+000	 1.3111271077e+000	-3.8497876453e-002
 2.4606398835e+000	 1.3361329887e+000	-9.9199757142e-002
 2.4469522311e+000	 1.3610381253e+000	-1.7048241095e-001
 2.4329925268e+000	 1.3858381451e+000	-2.5198175658e-001
 2.4187618385e+000	 1.4105286841e+000	-3.4331957474e-001
 2.4042613258e+000	 1.4351053889e+000	-4.4410433663e-001
 2.3894922400e+000	 1.4595639195e+000	-5.5393206032e-001
 2.3744559242e+000	 1.4838999509e+000	-6.7238719296e-001
 2.3591538127e+000	 1.5081091765e+000	-7.9904351671e-001
 2.3435874314e+000	 1.5321873095e+000	-9.3346507610e-001
 2.5094023193e+000	 1.2975072254e+000	 9.7291817641e-002
 2.4961442802e+000	 1.3228335997e+000	 1.4430505318e-001
 2.4826098825e+000	 1.3480627476e+000	 5.1865376408e-002
 2.4688000189e+000	 1.3731902515e+000	-4.9422198284e-002
 2.4547156744e+000	 1.3982117000e+000	-1.5909698669e-001
 2.4403579264e+000	 1.4231226902e+000	-2.7668510585e-001
 2.4257279448e+000	 1.4479188299e+000	-4.0170042564e-001
 2.4108269922e+000	 1.4725957402e+000	-5.3364554817e-001
 2.3956564235e+000	 1.4971490576e+000	-6.7201281272e-001
 2.3802176860e+000	 1.5215744370e+000	-8.1628532372e-001
 2.3645123192e+000	 1.5458675533e+000	-9.6593799944e-001
 2.5316094195e+000	 1.3089895902e+000	 1.6215916802e-002
 2.5182340526e+000	 1.3345400917e+000	 8.7220612305e-002
 2.5045798815e+000	 1.3599925064e+000	 1.5022535285e-001
 2.4906478067e+000	 1.3853423776e+000	 8.1625990353e-002
 2.4764388219e+000	 1.4105852549e+000	-5.4780618387e-002
 2.4619540142e+000	 1.4357166963e+000	-1.9720680525e-001
 2.4471945638e+000	 1.4607322709e+000	-3.4507227859e-001
 2.4321617443e+000	 1.4856275609e+000	-4.9778664843e-001
 2.4168569228e+000	 1.5103981643e+000	-6.5475055398e-001
 2.4012815594e+000	 1.5350396975e+000	-8.1535681357e-001
 2.3854372070e+000	 1.5595477972e+000	-9.7899159452e-001
 2.5538165197e+000	 1.3204719550e+000	-5.3346115955e-002
 2.5403238250e+000	 1.3462465838e+000	-9.6027202324e-003
 2.5265498804e+000	 1.3719222652e+000	 2.8095551924e-002
 2.5124955945e+000	 1.3974945037e+000	 5.9424334063e-002
 2.4981619695e+000	 1.4229588097e+000	 6.0478679885e-002
 2.4835501020e+000	 1.4483107024e+000	-1.0542459740e-001
 2.4686611827e+000	 1.4735457119e+000	-2.7481015855e-001
 2.4534964965e+000	 1.4986593816e+000	-4.4699501504e-001
 2.4380574221e+000	 1.5236472710e+000	-6.2128848387e-001
 2.4223454327e+000	 1.5485049580e+000	-7.9699345943e-001
 2.4063620948e+000	 1.5732280410e+000	-9.7340770446e-001
 2.5760236198e+000	 1.3319543199e+000	-1.1201101521e-001
 2.5624135974e+000	 1.3579530758e+000	-9.4052490951e-002
 2.5485198794e+000	 1.3838520240e+000	-8.0193361128e-002
 2.5343433823e+000	 1.4096466298e+000	-7.0686017132e-002
 2.5198851171e+000	 1.4353323646e+000	-6.5810996206e-002
 2.5051461899e+000	 1.4609047085e+000	-6.5877163351e-002
 2.4901278017e+000	 1.4863591528e+000	-1.9149228934e-001
 2.4748312486e+000	 1.5116912023e+000	-3.8189673294e-001
 2.4592579215e+000	 1.5368963777e+000	-5.7229960204e-001
 2.4434093060e+000	 1.5619702185e+000	-7.6191420062e-001
 2.4272869826e+000	 1.5869082848e+000	-9.4995020504e-001
 2.5982307200e+000	 1.3434366847e+000	-1.6039335920e-001
 2.5845033698e+000	 1.3696595678e+000	-1.6679395950e-001
 2.5704898784e+000	 1.3957817829e+000	-1.7535625803e-001
 2.5561911700e+000	 1.4217987559e+000	-1.8626143989e-001
 2.5416082646e+000	 1.4477059195e+000	-1.9972109293e-001
 2.5267422777e+000	 1.4734987146e+000	-2.1597748878e-001
 2.5115944207e+000	 1.4991725938e+000	-2.3530377879e-001
 2.4961660007e+000	 1.5247230230e+000	-3.0310489799e-001
 2.4804584208e+000	 1.5501454844e+000	-5.0844248463e-001
 2.4644731793e+000	 1.5754354790e+000	-7.1082214918e-001
 2.4482118703e+000	 1.6005885287e+000	-9.0936577246e-001
 2.6204378202e+000	 1.3549190495e+000	-1.9910566118e-001
 2.6065931422e+000	 1.3813660599e+000	-2.2848876293e-001
 2.5924598773e+000	 1.4077115417e+000	-2.5810285412e-001
 2.5780389578e+000	 1.4339508820e+000	-2.8805865586e-001
 2.5633314122e+000	 1.4600794743e+000	-3.1849957009e-001
 2.5483383656e+000	 1.4860927207e+000	-3.4960205948e-001
 2.5330610397e+000	 1.5119860348e+000	-3.8157593882e-001
 2.5175007529e+000	 1.5377548437e+000	-4.1466457532e-001
 2.5016589201e+000	 1.5633945911e+000	-4.4914499566e-001
 2.4855370527e+000	 1.5889007395e+000	-6.4440526051e-001
 2.4691367581e+000	 1.6142687725e+000	-8.5238461216e-001
 2.6426449203e+000	 1.3664014143e+000	-2.2875845621e-001
 2.6286829145e+000	 1.3930725519e+000	-2.7979506789e-001
 2.6144298763e+000	 1.4196413005e+000	-3.2913792504e-001
 2.5998867456e+000	 1.4461030082e+000	-3.7682800130e-001
 2.5850545598e+000	 1.4724530292e+000	-4.2294125117e-001
 2.5699344534e+000	 1.4986867268e+000	-4.6758908835e-001
 2.5545276587e+000	 1.5247994757e+000	-5.1091877229e-001
 2.5388355050e+000	 1.5507866644e+000	-5.5311369993e-001
 2.5228594194e+000	 1.5766436978e+000	-5.9439360034e-001
 2.5066009260e+000	 1.6023660000e+000	-6.3501463020e-001
 2.4900616459e+000	 1.6279490163e+000	-7.7972115089e-001
 2.6648520205e+000	 1.3778837792e+000	-2.4996038354e-001
 2.6507726869e+000	 1.4047790439e+000	-3.2136771525e-001
 2.6363998752e+000	 1.4315710593e+000	-3.8916151253e-001
 2.6217345334e+000	 1.4582551343e+000	-4.5331369318e-001
 2.6067777073e+000	 1.4848265841e+000	-5.1383347831e-001
 2.5915305413e+000	 1.5112807329e+000	-5.7076796909e-001
 2.5759942776e+000	 1.5376129167e+000	-6.2420262790e-001
 2.5601702572e+000	 1.5638184851e+000	-6.7426166115e-001
 2.5440599187e+000	 1.5898928045e+000	-7.2110830113e-001
 2.5276647993e+000	 1.6158312605e+000	-7.6494498441e-001
 2.5109865337e+000	 1.6416292602e+000	-8.0601342492e-001
 2.3017376559e+000	 1.5048268218e+000	-8.0703913482e-001
 2.2861912829e+000	 1.5283420488e+000	-8.0008493758e-001
 2.2703886241e+000	 1.5517201731e+000	-7.9929145398e-001
 2.2543314449e+000	 1.5749570586e+000	-8.0320508271e-001
 2.2380215991e+000	 1.5980485981e+000	-8.1036215147e-001
 2.2214610278e+000	 1.6209907162e+000	-8.1929093778e-001
 2.2046517589e+000	 1.6437793714e+000	-8.2851370809e-001
 2.1875959066e+000	 1.6664105584e+000	-8.3654877088e-001
 2.1702956705e+000	 1.6888803104e+000	-8.4191253955e-001
 2.1527533344e+000	 1.7111847011e+000	-8.4312160073e-001
 2.1349712658e+000	 1.7333198476e+000	-8.3869478360e-001
 2.3226625436e+000	 1.5185070657e+000	-8.8077220459e-001
 2.3069748400e+000	 1.5422360674e+000	-8.5930114568e-001
 2.2910285207e+000	 1.5658267202e+000	-8.4194165180e-001
 2.2748253672e+000	 1.5892748500e+000	-8.2739886487e-001
 2.2583672500e+000	 1.6125763126e+000	-8.1437063132e-001
 2.2416561281e+000	 1.6357269954e+000	-8.0154938387e-001
 2.2246940476e+000	 1.6587228203e+000	-7.8762403681e-001
 2.2074831422e+000	 1.6815597453e+000	-7.7128189105e-001
 2.1900256311e+000	 1.7042337677e+000	-7.5121054448e-001
 2.1723238192e+000	 1.7267409257e+000	-7.2609980383e-001
 2.1543800955e+000	 1.7490773008e+000	-6.9464359366e-001
 2.3435874314e+000	 1.5321873095e+000	-9.3346507610e-001
 2.3277583971e+000	 1.5561300860e+000	-9.0312245673e-001
 2.3116684172e+000	 1.5799332672e+000	-8.7487614114e-001
 2.2953192894e+000	 1.6035926415e+000	-8.4758708064e-001
 2.2787129009e+000	 1.6271040271e+000	-8.2011167759e-001
 2.2618512283e+000	 1.6504632747e+000	-7.9130353086e-001
 2.2447363364e+000	 1.6736662691e+000	-7.6001519027e-001
 2.2273703777e+000	 1.6967089322e+000	-7.2509991629e-001
 2.2097555918e+000	 1.7195872251e+000	-6.8541344098e-001
 2.1918943041e+000	 1.7422971502e+000	-6.3981572624e-001
 2.1737889252e+000	 1.7648347539e+000	-5.8717271551e-001
 2.3645123192e+000	 1.5458675533e+000	-9.6593799944e-001
 2.3485419542e+000	 1.5700241047e+000	-9.3223275698e-001
 2.3323083138e+000	 1.5940398142e+000	-8.9864134577e-001
 2.3158132116e+000	 1.6179104329e+000	-8.6417765194e-001
 2.2990585519e+000	 1.6416317417e+000	-8.2785373110e-001
 2.2820463286e+000	 1.6651995539e+000	-7.8868142032e-001
 2.2647786251e+000	 1.6886097179e+000	-7.4567395452e-001
 2.2472576132e+000	 1.7118581191e+000	-6.9784758371e-001
 2.2294855524e+000	 1.7349406825e+000	-6.4422318732e-001
 2.2114647889e+000	 1.7578533748e+000	-5.8382788177e-001
 2.1931977549e+000	 1.7805922071e+000	-5.1569661779e-001
 2.3854372070e+000	 1.5595477972e+000	-9.7899159452e-001
 2.3693255114e+000	 1.5839181233e+000	-9.4730125235e-001
 2.3529482104e+000	 1.6081463613e+000	-9.1377399435e-001
 2.3363071339e+000	 1.6322282244e+000	-8.7757382371e-001
 2.3194042028e+000	 1.6561594562e+000	-8.3786560449e-001
 2.3022414288e+000	 1.6799358332e+000	-7.9381654280e-001
 2.2848209138e+000	 1.7035531668e+000	-7.4459766781e-001
 2.2671448487e+000	 1.7270073060e+000	-6.8938530944e-001
 2.2492155131e+000	 1.7502941398e+000	-6.2736256877e-001
 2.2310352738e+000	 1.7734095994e+000	-5.5772077798e-001
 2.2126065846e+000	 1.7963496603e+000	-4.7966094600e-001
 2.4063620948e+000	 1.5732280410e+000	-9.7340770446e-001
 2.3901090685e+000	 1.5978121419e+000	-9.4898310676e-001
 2.3735881070e+000	 1.6222529083e+000	-9.2080154191e-001
 2.3568010561e+000	 1.6465460158e+000	-8.8817436724e-001
 2.3397498537e+000	 1.6706871707e+000	-8.5041646612e-001
 2.3224365291e+000	 1.6946721124e+000	-8.0684760099e-001
 2.3048632025e+000	 1.7184966156e+000	-7.5679376182e-001
 2.2870320842e+000	 1.7421564929e+000	-6.9958850685e-001
 2.2689454737e+000	 1.7656475972e+000	-6.3457429206e-001
 2.2506057587e+000	 1.7889658239e+000	-5.6110378603e-001
 2.2320154143e+000	 1.8121071134e+000	-4.7854116701e-001
 2.4272869826e+000	 1.5869082848e+000	-9.4995020504e-001
 2.4108926256e+000	 1.6117061606e+000	-9.3792004736e-001
 2.3942280036e+000	 1.6363594553e+000	-9.2024256963e-001
 2.3772949783e+000	 1.6608638072e+000	-8.9637377304e-001
 2.3600955046e+000	 1.6852148853e+000	-8.6577582468e-001
 2.3426316293e+000	 1.7094083916e+000	-8.2791828503e-001
 2.3249054912e+000	 1.7334400644e+000	-7.8227932656e-001
 2.3069193198e+000	 1.7573056798e+000	-7.2834694022e-001
 2.2886754343e+000	 1.7810010546e+000	-6.6562012668e-001
 2.2701762435e+000	 1.8045220485e+000	-5.9361006897e-001
 2.2514242440e+000	 1.8278645666e+000	-5.1184128363e-001
 2.4482118703e+000	 1.6005885287e+000	-9.0936577246e-001
 2.4316761827e+000	 1.6256001792e+000	-9.1474093875e-001
 2.4148679002e+000	 1.6504660024e+000	-9.1260716402e-001
 2.3977889005e+000	 1.6751815987e+000	-9.0256243373e-001
 2.3804411555e+000	 1.6997425998e+000	-8.8421351465e-001
 2.3628267296e+000	 1.7241446709e+000	-8.5717705936e-001
 2.3449477800e+000	 1.7483835133e+000	-8.2108069764e-001
 2.3268065553e+000	 1.7724548667e+000	-7.7556411138e-001
 2.3084053950e+000	 1.7963545119e+000	-7.2028009027e-001
 2.2897467284e+000	 1.8200782730e+000	-6.5489556500e-001
 2.2708330737e+000	 1.8436220197e+000	-5.7909261514e-001
 2.4691367581e+000	 1.6142687725e+000	-8.5238461216e-001
 2.4524597398e+000	 1.6394941978e+000	-8.8006232802e-001
 2.4355077967e+000	 1.6645725494e+000	-8.9839727688e-001
 2.4182828228e+000	 1.6894993901e+000	-9.0712681773e-001
 2.4007868064e+000	 1.7142703143e+000	-9.0599968253e-001
 2.3830218298e+000	 1.7388809501e+000	-8.9477696046e-001
 2.3649900687e+000	 1.7633269621e+000	-8.7323306451e-001
 2.3466937908e+000	 1.7876040536e+000	-8.4115667763e-001
 2.3281353556e+000	 1.8117079693e+000	-7.9835167537e-001
 2.3093172132e+000	 1.8356344976e+000	-7.4463802238e-001
 2.2902419033e+000	 1.8593794729e+000	-6.7985263978e-001
 2.4900616459e+000	 1.6279490163e+000	-7.7972115089e-001
 2.4732432969e+000	 1.6533882164e+000	-8.3448896227e-001
 2.4561476933e+000	 1.6786790964e+000	-8.7810706711e-001
 2.4387767450e+000	 1.7038171816e+000	-9.1044963409e-001
 2.4211324573e+000	 1.7287980288e+000	-9.3140477371e-001
 2.4032169301e+000	 1.7536172294e+000	-9.4087540469e-001
 2.3850323574e+000	 1.7782704109e+000	-9.3878009846e-001
 2.3665810263e+000	 1.8027532405e+000	-9.2505389900e-001
 2.3478653163e+000	 1.8270614267e+000	-8.9964911518e-001
 2.3288876981e+000	 1.8511907221e+000	-8.6253608310e-001
 2.3096507330e+000	 1.8751369261e+000	-8.1328276874e-001
 2.5109865337e+000	 1.6416292602e+000	-8.0601342492e-001
 2.4940268541e+000	 1.6672822350e+000	-7.7861428029e-001
 2.4767875899e+000	 1.6927856434e+000	-8.5222322538e-001
 2.4592706672e+000	 1.7181349730e+000	-9.1290998918e-001
 2.4414781082e+000	 1.7433257434e+000	-9.6069952001e-001
 2.4234120303e+000	 1.7683535086e+000	-9.9563400585e-001
 2.4050746461e+000	 1.7932138597e+000	-1.0177735992e+000
 2.3864682618e+000	 1.8179024274e+000	-1.0271971131e+000
 2.3675952769e+000	 1.8424148840e+000	-1.0240026860e+000
 2.3484581830e+000	 1.8667469467e+000	-1.0083084123e+000
 2.3290595627e+000	 1.8908943792e+000	-9.3245371161e-001
 2.1349712658e+000	 1.7333198476e+000	-8.3869478360e-001
 2.1169519149e+000	 1.7552819119e+000	-9.7358249071e-001
 2.0986978130e+000	 1.7770671034e+000	-1.0899597544e+000
 2.0802115719e+000	 1.7986716810e+000	-1.1879596484e+000
 2.0614958826e+000	 1.8200919554e+000	-1.2677390629e+000
 2.0425535136e+000	 1.8413242908e+000	-1.3294790165e+000
 2.0233873101e+000	 1.8623651074e+000	-1.3733849223e+000
 2.0040001923e+000	 1.8832108829e+000	-1.3629162424e+000
 1.9843951538e+000	 1.9038581548e+000	-1.2796316924e+000
 1.9645752604e+000	 1.9243035224e+000	-1.1815419788e+000
 1.9445436483e+000	 1.9445436482e+000	-1.0702557535e+000
 2.1543800955e+000	 1.7490773008e+000	-6.9464359366e-001
 2.1361969323e+000	 1.7712390202e+000	-8.4450720692e-001
 2.1177768840e+000	 1.7932222588e+000	-9.7714140852e-001
 2.0991225862e+000	 1.8150232417e+000	-1.0925651379e+000
 2.0802367542e+000	 1.8366382459e+000	-1.1908202572e+000
 2.0611221819e+000	 1.8580636026e+000	-1.2719719946e+000
 2.0417817402e+000	 1.8792956993e+000	-1.3172436899e+000
 2.0222183758e+000	 1.9003309818e+000	-1.2716000304e+000
 2.0024351097e+000	 1.9211659562e+000	-1.2102370163e+000
 1.9824350355e+000	 1.9417971908e+000	-1.1346784681e+000
 1.9622213178e+000	 1.9622213178e+000	-1.0464641038e+000
 2.1737889252e+000	 1.7648347539e+000	-5.8717271551e-001
 2.1554419497e+000	 1.7871961285e+000	-7.4947415192e-001
 2.1368559550e+000	 1.8093774143e+000	-8.9579628427e-001
 2.1180336005e+000	 1.8313748025e+000	-1.0260448308e+000
 2.0989776259e+000	 1.8531845364e+000	-1.1401475664e+000
 2.0796908502e+000	 1.8748029143e+000	-1.2380548975e+000
 2.0601761703e+000	 1.8962262912e+000	-1.2279340155e+000
 2.0404365594e+000	 1.9174510807e+000	-1.2004719452e+000
 2.0204750656e+000	 1.9384737576e+000	-1.1579512632e+000
 2.0002948105e+000	 1.9592908592e+000	-1.1018296746e+000
 1.9798989873e+000	 1.9798989873e+000	-1.0335802423e+000
 2.1931977549e+000	 1.7805922071e+000	-5.1569661779e-001
 2.1746869671e+000	 1.8031532367e+000	-6.8797588719e-001
 2.1559350260e+000	 1.8255325698e+000	-8.4549548327e-001
 2.1369446148e+000	 1.8477263632e+000	-9.8804877615e-001
 2.1177184976e+000	 1.8697308269e+000	-1.1154503548e+000
 2.0982595185e+000	 1.8915422260e+000	-1.1578934457e+000
 2.0785706004e+000	 1.9131568830e+000	-1.1614122731e+000
 2.0586547430e+000	 1.9345711797e+000	-1.1491400315e+000
 2.0385150216e+000	 1.9557815590e+000	-1.1224530247e+000
 2.0181545856e+000	 1.9767845275e+000	-1.0827450834e+000
 1.9975766568e+000	 1.9975766568e+000	-1.0314248665e+000
 2.2126065846e+000	 1.7963496603e+000	-4.7966094600e-001
 2.1939319845e+000	 1.8191103450e+000	-6.5953353498e-001
 2.1750140971e+000	 1.8416877253e+000	-8.2583603100e-001
 2.1558556291e+000	 1.8640779239e+000	-9.7825029088e-001
 2.1364593692e+000	 1.8862771174e+000	-1.0706414323e+000
 2.1168281868e+000	 1.9082815378e+000	-1.1021355965e+000
 2.0969650305e+000	 1.9300874749e+000	-1.1172315270e+000
 2.0768729265e+000	 1.9516912786e+000	-1.1172248061e+000
 2.0565549775e+000	 1.9730893604e+000	-1.1034306299e+000
 2.0360143607e+000	 1.9942781959e+000	-1.0771811702e+000
 2.0152543264e+000	 2.0152543264e+000	-1.0398229076e+000
 2.2320154143e+000	 1.8121071134e+000	-4.7854116701e-001
 2.2131770019e+000	 1.8350674533e+000	-6.6369553649e-001
 2.1940931681e+000	 1.8578428808e+000	-8.3643974971e-001
 2.1747666434e+000	 1.8804294847e+000	-9.7523848379e-001
 2.1552002409e+000	 1.9028234079e+000	-1.0316256686e+000
 2.1353968551e+000	 1.9250208495e+000	-1.0711274331e+000
 2.1153594606e+000	 1.9470180668e+000	-1.0949593753e+000
 2.0950911101e+000	 1.9688113775e+000	-1.1043587157e+000
 2.0745949335e+000	 1.9903971619e+000	-1.1005817216e+000
 2.0538741358e+000	 2.0117718643e+000	-1.0849010972e+000
 2.0329319959e+000	 2.0329319959e+000	-1.0586033460e+000
 2.2514242440e+000	 1.8278645666e+000	-5.1184128363e-001
 2.2324220193e+000	 1.8510245616e+000	-7.0003647441e-001
 2.2131722391e+000	 1.8739980363e+000	-8.7695218956e-001
 2.1936776577e+000	 1.8967810454e+000	-9.5876609823e-001
 2.1739411125e+000	 1.9193696984e+000	-1.0196380374e+000
 2.1539655234e+000	 1.9417601612e+000	-1.0643884608e+000
 2.1337538907e+000	 1.9639486587e+000	-1.0941773226e+000
 2.1133092937e+000	 1.9859314765e+000	-1.1101856227e+000
 2.0926348894e+000	 2.0077049633e+000	-1.1136128553e+000
 2.0717339109e+000	 2.0292655327e+000	-1.1056744253e+000
 2.0506096654e+000	 2.0506096654e+000	-1.0875990371e+000
 2.2708330737e+000	 1.8436220197e+000	-5.7909261514e-001
 2.2516670367e+000	 1.8669816699e+000	-7.6815595568e-001
 2.2322513102e+000	 1.8901531918e+000	-8.9233373514e-001
 2.2125886720e+000	 1.9131326061e+000	-9.7147557009e-001
 2.1926819842e+000	 1.9359159889e+000	-1.0341544683e+000
 2.1725341917e+000	 1.9584994730e+000	-1.0814538694e+000
 2.1521483208e+000	 1.9808792506e+000	-1.1144801863e+000
 2.1315274772e+000	 2.0030515754e+000	-1.1343603172e+000
 2.1106748454e+000	 2.0250127647e+000	-1.1422391178e+000
 2.0895936860e+000	 2.0467592011e+000	-1.1392768402e+000
 2.0682873350e+000	 2.0682873350e+000	-1.1266465454e+000
 2.2902419033e+000	 1.8593794729e+000	-6.7985263978e-001
 2.2709120541e+000	 1.8829387782e+000	-8.4099179401e-001
 2.2513303812e+000	 1.9063083472e+000	-9.3524725659e-001
 2.2314996862e+000	 1.9294841669e+000	-1.0128034792e+000
 2.2114228559e+000	 1.9524622794e+000	-1.0746681692e+000
 2.1911028601e+000	 1.9752387847e+000	-1.1218738690e+000
 2.1705427509e+000	 1.9978098425e+000	-1.1554755319e+000
 2.1497456608e+000	 2.0201716744e+000	-1.1765480541e+000
 2.1287148013e+000	 2.0423205661e+000	-1.1861837662e+000
 2.1074534611e+000	 2.0642528695e+000	-1.1854898931e+000
 2.0859650045e+000	 2.0859650045e+000	-1.1755859878e+000
 2.3096507330e+000	 1.8751369261e+000	-8.1328276874e-001
 2.2901570715e+000	 1.8988958865e+000	-9.1944813856e-001
 2.2704094522e+000	 1.9224635027e+000	-1.0087779913e+000
 2.2504107005e+000	 1.9458357276e+000	-1.0822051077e+000
 2.2301637275e+000	 1.9690085699e+000	-1.1406889006e+000
 2.2096715284e+000	 1.9919780964e+000	-1.1852130584e+000
 2.1889371809e+000	 2.0147404344e+000	-1.2167831380e+000
 2.1679638444e+000	 2.0372917733e+000	-1.2364241133e+000
 2.1467547572e+000	 2.0596283675e+000	-1.2451778841e+000
 2.1253132362e+000	 2.0817465379e+000	-1.2441007543e+000
 2.1036426740e+000	 2.1036426740e+000	-1.2342608837e+000
 2.3290595627e+000	 1.8908943792e+000	-9.3245371161e-001
 2.3094020889e+000	 1.9148529948e+000	-1.0304094552e+000
 2.2894885232e+000	 1.9386186582e+000	-1.1123470914e+000
 2.2693217148e+000	 1.9621872884e+000	-1.1791536610e+000
 2.2489045992e+000	 1.9855548604e+000	-1.2317422857e+000
 2.2282401967e+000	 2.0087174082e+000	-1.2710498259e+000
 2.2073316110e+000	 2.0316710262e+000	-1.2980344871e+000
 2.1861820279e+000	 2.0544118722e+000	-1.3136733821e+000
 2.1647947132e+000	 2.0769361689e+000	-1.3189600561e+000
 2.1431730113e+000	 2.0992402062e+000	-1.3149019790e+000
 2.1213203436e+000	 2.1213203435e+000	-1.3025180138e+000
 1.9445436483e+000	 1.9445436482e+000	-1.0702557535e+000
 1.9243035224e+000	 1.9645752604e+000	-1.0583954834e+000
 1.9038581548e+000	 1.9843951538e+000	-1.0434676009e+000
 1.8832108829e+000	 2.0040001923e+000	-1.0269896240e+000
 1.8623651074e+000	 2.0233873101e+000	-1.0463838929e+000
 1.8413242908e+000	 2.0425535136e+000	-1.0957817338e+000
 1.8200919554e+000	 2.0614958826e+000	-1.1532820266e+000
 1.7986716810e+000	 2.0802115719e+000	-1.2189973025e+000
 1.7770671034e+000	 2.0986978130e+000	-1.2930457466e+000
 1.7552819119e+000	 2.1169519149e+000	-1.3755512243e+000
 1.7333198476e+000	 2.1349712658e+000	-1.4666432793e+000
 1.9622213178e+000	 1.9622213178e+000	-1.0464641038e+000
 1.9417971908e+000	 1.9824350355e+000	-1.0545195673e+000
 1.9211659562e+000	 2.0024351097e+000	-1.0594566861e+000
 1.9003309818e+000	 2.0222183758e+000	-1.0626782660e+000
 1.8792956993e+000	 2.0417817402e+000	-1.0655874073e+000
 1.8580636026e+000	 2.0611221819e+000	-1.1242790690e+000
 1.8366382459e+000	 2.0802367542e+000	-1.2038306731e+000
 1.8150232417e+000	 2.0991225862e+000	-1.2908560857e+000
 1.7932222588e+000	 2.1177768840e+000	-1.3853129884e+000
 1.7712390202e+000	 2.1361969323e+000	-1.4871662047e+000
 1.7490773008e+000	 2.1543800955e+000	-1.5963878656e+000
 1.9798989873e+000	 1.9798989873e+000	-1.0335802423e+000
 1.9592908592e+000	 2.0002948105e+000	-1.0572044901e+000
 1.9384737576e+000	 2.0204750656e+000	-1.0776593807e+000
 1.9174510807e+000	 2.0404365594e+000	-1.0962358894e+000
 1.8962262912e+000	 2.0601761703e+000	-1.1142253608e+000
 1.8748029143e+000	 2.0796908502e+000	-1.1336010860e+000
 1.8531845364e+000	 2.0989776259e+000	-1.2312347628e+000
 1.8313748025e+000	 2.1180336005e+000	-1.3356021436e+000
 1.8093774143e+000	 2.1368559550e+000	-1.4465021685e+000
 1.7871961285e+000	 2.1554419497e+000	-1.5637423841e+000
 1.7648347539e+000	 2.1737889252e+000	-1.6871392781e+000
 1.9975766568e+000	 1.9975766568e+000	-1.0314248665e+000
 1.9767845275e+000	 2.0181545856e+000	-1.0663750978e+000
 1.9557815590e+000	 2.0385150216e+000	-1.0981047349e+000
 1.9345711797e+000	 2.0586547430e+000	-1.1277957609e+000
 1.9131568830e+000	 2.0785706004e+000	-1.1566305966e+000
 1.8915422260e+000	 2.0982595185e+000	-1.1857896251e+000
 1.8697308269e+000	 2.1177184976e+000	-1.2363602845e+000
 1.8477263632e+000	 2.1369446148e+000	-1.3542130105e+000
 1.8255325698e+000	 2.1559350260e+000	-1.4777018775e+000
 1.8031532367e+000	 2.1746869671e+000	-1.6064788677e+000
 1.7805922071e+000	 2.1931977549e+000	-1.7402065403e+000
 2.0152543264e+000	 2.0152543264e+000	-1.0398229076e+000
 1.9942781959e+000	 2.0360143607e+000	-1.0819565580e+000
 1.9730893604e+000	 2.0565549775e+000	-1.1208182084e+000
 1.9516912786e+000	 2.0768729265e+000	-1.1574836461e+000
 1.9300874749e+000	 2.0969650305e+000	-1.1930291588e+000
 1.9082815378e+000	 2.1168281868e+000	-1.2285291400e+000
 1.8862771174e+000	 2.1364593692e+000	-1.2650537087e+000
 1.8640779239e+000	 2.1558556291e+000	-1.3476431279e+000
 1.8416877253e+000	 2.1750140971e+000	-1.4799737386e+000
 1.8191103450e+000	 2.1939319845e+000	-1.6165439301e+000
 1.7963496603e+000	 2.2126065846e+000	-1.7568639968e+000
 2.0329319959e+000	 2.0329319959e+000	-1.0586033460e+000
 2.0117718643e+000	 2.0538741358e+000	-1.1038743464e+000
 1.9903971619e+000	 2.0745949335e+000	-1.1458218267e+000
 1.9688113775e+000	 2.0950911101e+000	-1.1854181357e+000
 1.9470180668e+000	 2.1153594606e+000	-1.2236361789e+000
 1.9250208495e+000	 2.1353968551e+000	-1.2614471021e+000
 1.9028234079e+000	 2.1552002409e+000	-1.2998179882e+000
 1.8804294847e+000	 2.1747666434e+000	-1.3397095754e+000
 1.8578428808e+000	 2.1940931681e+000	-1.4543535793e+000
 1.8350674533e+000	 2.2131770019e+000	-1.5950763555e+000
 1.8121071134e+000	 2.2320154143e+000	-1.7383528206e+000
 2.0506096654e+000	 2.0506096654e+000	-1.0875990371e+000
 2.0292655327e+000	 2.0717339109e+000	-1.1320542330e+000
 2.0077049633e+000	 2.0926348894e+000	-1.1731343290e+000
 1.9859314765e+000	 2.1133092937e+000	-1.2117109545e+000
 1.9639486587e+000	 2.1337538907e+000	-1.2486563464e+000
 1.9417601612e+000	 2.1539655234e+000	-1.2848411063e+000
 1.9193696984e+000	 2.1739411125e+000	-1.3211319729e+000
 1.8967810454e+000	 2.1936776577e+000	-1.3583896137e+000
 1.8739980363e+000	 2.2131722391e+000	-1.4018525438e+000
 1.8510245616e+000	 2.2324220193e+000	-1.5431867087e+000
 1.8278645666e+000	 2.2514242440e+000	-1.6858824432e+000
 2.0682873350e+000	 2.0682873350e+000	-1.1266465454e+000
 2.0467592011e+000	 2.0895936860e+000	-1.1664222700e+000
 2.0250127647e+000	 2.1106748454e+000	-1.2027713088e+000
 2.0030515754e+000	 2.1315274772e+000	-1.2364672554e+000
 1.9808792506e+000	 2.1521483208e+000	-1.2682843548e+000
 1.9584994730e+000	 2.1725341917e+000	-1.2989953326e+000
 1.9359159889e+000	 2.1926819842e+000	-1.3293692383e+000
 1.9131326061e+000	 2.2125886720e+000	-1.3601693089e+000
 1.8901531918e+000	 2.2322513102e+000	-1.3921508586e+000
 1.8669816699e+000	 2.2516670367e+000	-1.4619585417e+000
 1.8436220197e+000	 2.2708330737e+000	-1.6006319108e+000
 2.0859650045e+000	 2.0859650045e+000	-1.1755859878e+000
 2.0642528695e+000	 2.1074534611e+000	-1.2069047794e+000
 2.0423205661e+000	 2.1287148013e+000	-1.2347453471e+000
 2.0201716744e+000	 2.1497456608e+000	-1.2597858971e+000
 1.9978098425e+000	 2.1705427509e+000	-1.2827053252e+000
 1.9752387847e+000	 2.1911028601e+000	-1.3041811141e+000
 1.9524622794e+000	 2.2114228559e+000	-1.3248872450e+000
 1.9294841669e+000	 2.2314996862e+000	-1.3454921300e+000
 1.9063083472e+000	 2.2513303812e+000	-1.3666565696e+000
 1.8829387782e+000	 2.2709120541e+000	-1.3890317421e+000
 1.8593794729e+000	 2.2902419033e+000	-1.4837511723e+000
 2.1036426740e+000	 2.1036426740e+000	-1.2342608837e+000
 2.0817465379e+000	 2.1253132362e+000	-1.2534283419e+000
 2.0596283675e+000	 2.1467547572e+000	-1.2690661388e+000
 2.0372917733e+000	 2.1679638444e+000	-1.2817597091e+000
 2.0147404344e+000	 2.1889371809e+000	-1.2920952087e+000
 1.9919780964e+000	 2.2096715284e+000	-1.3006574774e+000
 1.9690085699e+000	 2.2301637275e+000	-1.3080280160e+000
 1.9458357276e+000	 2.2504107005e+000	-1.3147829841e+000
 1.9224635027e+000	 2.2704094522e+000	-1.3214912229e+000
 1.8988958865e+000	 2.2901570715e+000	-1.3287123097e+000
 1.8751369261e+000	 2.3096507330e+000	-1.3369946496e+000
 2.1213203436e+000	 2.1213203435e+000	-1.3025180138e+000
 2.0992402062e+000	 2.1431730113e+000	-1.3059197862e+000
 2.0769361689e+000	 2.1647947132e+000	-1.3057406135e+000
 2.0544118722e+000	 2.1861820279e+000	-1.3024757429e+000
 2.0316710262e+000	 2.2073316110e+000	-1.2966211682e+000
 2.0087174082e+000	 2.2282401967e+000	-1.2886716548e+000
 1.9855548604e+000	 2.2489045992e+000	-1.2791187796e+000
 1.9621872884e+000	 2.2693217148e+000	-1.2684489904e+000
 1.9386186582e+000	 2.2894885232e+000	-1.2571416916e+000
 1.9148529948e+000	 2.3094020889e+000	-1.2456673613e+000
 1.8908943792e+000	 2.3290595627e+000	-1.2344857047e+000
 1.7333198476e+000	 2.1349712658e+000	-1.4666432793e+000
 1.7111847011e+000	 2.1527533344e+000	-1.4012937696e+000
 1.6888803104e+000	 2.1702956705e+000	-1.3390471878e+000
 1.6664105584e+000	 2.1875959066e+000	-1.2784565217e+000
 1.6437793714e+000	 2.2046517589e+000	-1.2180926048e+000
 1.6209907162e+000	 2.2214610278e+000	-1.1565456182e+000
 1.5980485981e+000	 2.2380215991e+000	-1.0924265373e+000
 1.5749570586e+000	 2.2543314449e+000	-1.0243685221e+000
 1.5517201731e+000	 2.2703886241e+000	-9.5102824895e-001
 1.5283420488e+000	 2.2861912829e+000	-8.7108718259e-001
 1.5048268218e+000	 2.3017376559e+000	-7.8325278618e-001
 1.7490773008e+000	 2.1543800955e+000	-1.5963878656e+000
 1.7267409257e+000	 2.1723238192e+000	-1.5071621261e+000
 1.7042337677e+000	 2.1900256311e+000	-1.4213672798e+000
 1.6815597453e+000	 2.2074831422e+000	-1.3377578615e+000
 1.6587228203e+000	 2.2246940476e+000	-1.2551052441e+000
 1.6357269954e+000	 2.2416561281e+000	-1.1721989355e+000
 1.6125763126e+000	 2.2583672500e+000	-1.0878478212e+000
 1.5892748500e+000	 2.2748253672e+000	-1.0008813540e+000
 1.5658267202e+000	 2.2910285207e+000	-9.1015068758e-001
 1.5422360674e+000	 2.3069748400e+000	-8.1452975322e-001
 1.5185070657e+000	 2.3226625436e+000	-7.1291627801e-001
 1.7648347539e+000	 2.1737889252e+000	-1.6871392781e+000
 1.7422971502e+000	 2.1918943041e+000	-1.5802979069e+000
 1.7195872251e+000	 2.2097555918e+000	-1.4771886111e+000
 1.6967089322e+000	 2.2273703777e+000	-1.3767644342e+000
 1.6736662691e+000	 2.2447363364e+000	-1.2779942889e+000
 1.6504632747e+000	 2.2618512283e+000	-1.1798640496e+000
 1.6271040271e+000	 2.2787129009e+000	-1.0813775951e+000
 1.6035926415e+000	 2.2953192894e+000	-9.8155779908e-001
 1.5799332672e+000	 2.3116684172e+000	-8.7944746818e-001
 1.5561300860e+000	 2.3277583971e+000	-7.7411022538e-001
 1.5321873095e+000	 2.3435874314e+000	-6.6463133891e-001
 1.7805922071e+000	 2.1931977549e+000	-1.7402065403e+000
 1.7578533748e+000	 2.2114647889e+000	-1.6218484273e+000
 1.7349406825e+000	 2.2294855524e+000	-1.5074970611e+000
 1.7118581191e+000	 2.2472576132e+000	-1.3963010326e+000
 1.6886097179e+000	 2.2647786251e+000	-1.2874238694e+000
 1.6651995539e+000	 2.2820463286e+000	-1.1800449279e+000
 1.6416317417e+000	 2.2990585519e+000	-1.0733602378e+000
 1.6179104329e+000	 2.3158132116e+000	-9.6658329593e-001
 1.5940398142e+000	 2.3323083138e+000	-8.5894581080e-001
 1.5700241047e+000	 2.3485419542e+000	-7.4969839533e-001
 1.5458675533e+000	 2.3645123192e+000	-6.3811120811e-001
 1.7963496603e+000	 2.2126065846e+000	-1.7568639968e+000
 1.7734095994e+000	 2.2310352738e+000	-1.6329319990e+000
 1.7502941398e+000	 2.2492155131e+000	-1.5132551660e+000
 1.7270073060e+000	 2.2671448487e+000	-1.3971747471e+000
 1.7035531668e+000	 2.2848209138e+000	-1.2840460332e+000
 1.6799358332e+000	 2.3022414288e+000	-1.1732390508e+000
 1.6561594562e+000	 2.3194042028e+000	-1.0641392099e+000
 1.6322282244e+000	 2.3363071339e+000	-9.5614790439e-001
 1.6081463613e+000	 2.3529482104e+000	-8.4868306472e-001
 1.5839181233e+000	 2.3693255114e+000	-7.4117966207e-001
 1.5595477972e+000	 2.3854372070e+000	-6.3309016425e-001
 1.8121071134e+000	 2.2320154143e+000	-1.7383528206e+000
 1.7889658239e+000	 2.2506057587e+000	-1.6146391918e+000
 1.7656475972e+000	 2.2689454737e+000	-1.4954031333e+000
 1.7421564929e+000	 2.2870320842e+000	-1.3801757352e+000
 1.7184966156e+000	 2.3048632025e+000	-1.2685012703e+000
 1.6946721124e+000	 2.3224365291e+000	-1.1599376932e+000
 1.6706871707e+000	 2.3397498537e+000	-1.0540570935e+000
 1.6465460158e+000	 2.3568010561e+000	-9.5044610482e-001
 1.6222529083e+000	 2.3735881070e+000	-8.4870626806e-001
 1.5978121419e+000	 2.3901090685e+000	-7.4845434900e-001
 1.5732280410e+000	 2.4063620948e+000	-6.4932261063e-001
 1.8278645666e+000	 2.2514242440e+000	-1.6858824432e+000
 1.8045220485e+000	 2.2701762435e+000	-1.5680340287e+000
 1.7810010546e+000	 2.2886754343e+000	-1.4548598045e+000
 1.7573056798e+000	 2.3069193198e+000	-1.3460779515e+000
 1.7334400644e+000	 2.3249054912e+000	-1.2414190116e+000
 1.7094083916e+000	 2.3426316293e+000	-1.1406261926e+000
 1.6852148853e+000	 2.3600955046e+000	-1.0434556303e+000
 1.6608638072e+000	 2.3772949783e+000	-9.4967660752e-001
 1.6363594553e+000	 2.3942280036e+000	-8.5907173021e-001
 1.6117061606e+000	 2.4108926256e+000	-7.7143706058e-001
 1.5869082848e+000	 2.4272869826e+000	-6.8658220774e-001
 1.8436220197e+000	 2.2708330737e+000	-1.6006319108e+000
 1.8200782730e+000	 2.2897467284e+000	-1.4941551208e+000
 1.7963545119e+000	 2.3084053950e+000	-1.3925235678e+000
 1.7724548667e+000	 2.3268065553e+000	-1.2956398403e+000
 1.7483835133e+000	 2.3449477800e+000	-1.2034181012e+000
 1.7241446709e+000	 2.3628267296e+000	-1.1157842026e+000
 1.6997425998e+000	 2.3804411555e+000	-1.0326757575e+000
 1.6751815987e+000	 2.3977889005e+000	-9.5404217195e-001
 1.6504660024e+000	 2.4148679002e+000	-8.7984463554e-001
 1.6256001792e+000	 2.4316761827e+000	-8.1005607206e-001
 1.6005885287e+000	 2.4482118703e+000	-7.4466105035e-001
 1.8593794729e+000	 2.2902419033e+000	-1.4837511723e+000
 1.8356344976e+000	 2.3093172132e+000	-1.3940167438e+000
 1.8117079693e+000	 2.3281353556e+000	-1.3092732254e+000
 1.7876040536e+000	 2.3466937908e+000	-1.2296049925e+000
 1.7633269621e+000	 2.3649900687e+000	-1.1551072453e+000
 1.7388809501e+000	 2.3830218298e+000	-1.0858859335e+000
 1.7142703143e+000	 2.4007868064e+000	-1.0220576418e+000
 1.6894993901e+000	 2.4182828228e+000	-9.6374943518e-001
 1.6645725494e+000	 2.4355077967e+000	-9.1109866742e-001
 1.6394941978e+000	 2.4524597398e+000	-8.6425275020e-001
 1.6142687725e+000	 2.4691367581e+000	-8.2336888636e-001
 1.8751369261e+000	 2.3096507330e+000	-1.3369946496e+000
 1.8511907221e+000	 2.3288876981e+000	-1.2686098609e+000
 1.8270614267e+000	 2.3478653163e+000	-1.2059688157e+000
 1.8027532405e+000	 2.3665810263e+000	-1.1487027698e+000
 1.7782704109e+000	 2.3850323574e+000	-1.0970854377e+000
 1.7536172294e+000	 2.4032169301e+000	-1.0514003815e+000
 1.7287980288e+000	 2.4211324573e+000	-1.0119407116e+000
 1.7038171816e+000	 2.4387767450e+000	-9.7900874894e-001
 1.6786790964e+000	 2.4561476933e+000	-9.5291565106e-001
 1.6533882164e+000	 2.4732432969e+000	-9.3398100321e-001
 1.6279490163e+000	 2.4900616459e+000	-9.2253237509e-001
 1.8908943792e+000	 2.3290595627e+000	-1.2344857047e+000
 1.8667469467e+000	 2.3484581830e+000	-1.1189030936e+000
 1.8424148840e+000	 2.3675952769e+000	-1.0834523957e+000
 1.8179024274e+000	 2.3864682618e+000	-1.0536488979e+000
 1.7932138597e+000	 2.4050746461e+000	-1.0299423649e+000
 1.7683535086e+000	 2.4234120303e+000	-1.0127915453e+000
 1.7433257434e+000	 2.4414781082e+000	-1.0026636883e+000
 1.7181349730e+000	 2.4592706672e+000	-1.0000340249e+000
 1.6927856434e+000	 2.4767875899e+000	-1.0053852143e+000
 1.6672822350e+000	 2.4940268541e+000	-1.0192067582e+000
 1.6416292602e+000	 2.5109865337e+000	-9.4273183143e-001
 1.5048268218e+000	 2.3017376559e+000	-7.8325278618e-001
 1.4811786555e+000	 2.3170260660e+000	-7.9342462918e-001
 1.4574017375e+000	 2.3320549255e+000	-7.9822309616e-001
 1.4335002780e+000	 2.3468227357e+000	-7.9775005447e-001
 1.4094785070e+000	 2.3613280878e+000	-7.9212264100e-001
 1.3853406719e+000	 2.3755696628e+000	-7.8147289102e-001
 1.3610910354e+000	 2.3895462317e+000	-7.6594733318e-001
 1.3367338731e+000	 2.4032566556e+000	-7.4570655178e-001
 1.3122734711e+000	 2.4166998856e+000	-7.2092471810e-001
 1.2877141236e+000	 2.4298749630e+000	-6.9178909237e-001
 1.2630601309e+000	 2.4427810188e+000	-6.5849949792e-001
 1.5185070657e+000	 2.3226625436e+000	-7.1291627801e-001
 1.4946439160e+000	 2.3380899394e+000	-7.4588184916e-001
 1.4706508442e+000	 2.3532554248e+000	-7.7414688305e-001
 1.4465320987e+000	 2.3681574879e+000	-7.9773176496e-001
 1.4222919480e+000	 2.3827947068e+000	-8.1667265864e-001
 1.3979346780e+000	 2.3971657507e+000	-8.3102121031e-001
 1.3734645903e+000	 2.4112693793e+000	-8.4084421654e-001
 1.3488859992e+000	 2.4251044434e+000	-8.4622325765e-001
 1.3242032299e+000	 2.4386698846e+000	-8.4725429785e-001
 1.2994206156e+000	 2.4519647354e+000	-8.4404725382e-001
 1.2745424957e+000	 2.4649881190e+000	-8.3672553331e-001
 1.5321873095e+000	 2.3435874314e+000	-6.6463133891e-001
 1.5081091765e+000	 2.3591538127e+000	-7.1837267279e-001
 1.4838999509e+000	 2.3744559242e+000	-7.6806628787e-001
 1.4595639195e+000	 2.3894922400e+000	-8.1365211383e-001
 1.4351053889e+000	 2.4042613258e+000	-8.5508638352e-001
 1.4105286841e+000	 2.4187618385e+000	-8.9234141081e-001
 1.3858381451e+000	 2.4329925268e+000	-9.2540533047e-001
 1.3610381253e+000	 2.4469522311e+000	-9.5428180134e-001
 1.3361329887e+000	 2.4606398835e+000	-9.7898967423e-001
 1.3111271077e+000	 2.4740545078e+000	-9.9956262593e-001
 1.2860248606e+000	 2.4871952191e+000	-1.0160487610e+000
 1.5458675533e+000	 2.3645123192e+000	-6.3811120811e-001
 1.5215744370e+000	 2.3802176860e+000	-7.1066389921e-001
 1.4971490576e+000	 2.3956564235e+000	-7.7980174478e-001
 1.4725957402e+000	 2.4108269922e+000	-8.4538521984e-001
 1.4479188299e+000	 2.4257279448e+000	-9.0729164310e-001
 1.4231226902e+000	 2.4403579264e+000	-9.6541502767e-001
 1.3982117000e+000	 2.4547156744e+000	-1.0196658917e+000
 1.3731902515e+000	 2.4688000189e+000	-1.0699710305e+000
 1.3480627476e+000	 2.4826098825e+000	-1.1162732506e+000
 1.3228335997e+000	 2.4961442802e+000	-1.1585310684e+000
 1.2975072254e+000	 2.5094023193e+000	-1.0850948570e+000
 1.5595477972e+000	 2.3854372070e+000	-6.3309016425e-001
 1.5350396975e+000	 2.4012815594e+000	-7.2254142466e-001
 1.5103981643e+000	 2.4168569228e+000	-8.0919083384e-001
 1.4856275609e+000	 2.4321617443e+000	-8.9282038836e-001
 1.4607322709e+000	 2.4471945638e+000	-9.7322948511e-001
 1.4357166963e+000	 2.4619540142e+000	-1.0502348438e+000
 1.4105852549e+000	 2.4764388219e+000	-1.1236703873e+000
 1.3853423776e+000	 2.4906478067e+000	-1.1933870811e+000
 1.3599925064e+000	 2.5045798815e+000	-1.2062734400e+000
 1.3345400917e+000	 2.5182340526e+000	-1.1098644413e+000
 1.3089895902e+000	 2.5316094195e+000	-1.0129184545e+000
 1.5732280410e+000	 2.4063620948e+000	-6.4932261063e-001
 1.5485049580e+000	 2.4223454327e+000	-7.5380941228e-001
 1.5236472710e+000	 2.4380574221e+000	-8.5608753556e-001
 1.4986593816e+000	 2.4534964965e+000	-9.5586145110e-001
 1.4735457119e+000	 2.4686611827e+000	-1.0528536028e+000
 1.4483107024e+000	 2.4835501020e+000	-1.1468044009e+000
 1.4229588097e+000	 2.4981619695e+000	-1.2374721710e+000
 1.3974945037e+000	 2.5124955945e+000	-1.1840141556e+000
 1.3719222652e+000	 2.5265498804e+000	-1.1081703362e+000
 1.3462465838e+000	 2.5403238250e+000	-1.0314996587e+000
 1.3204719550e+000	 2.5538165197e+000	-9.5496107944e-001
 1.5869082848e+000	 2.4272869826e+000	-6.8658220774e-001
 1.5619702185e+000	 2.4434093060e+000	-8.0428950464e-001
 1.5368963777e+000	 2.4592579215e+000	-9.2036152394e-001
 1.5116912023e+000	 2.4748312486e+000	-1.0344261400e+000
 1.4863591528e+000	 2.4901278017e+000	-1.1461297898e+000
 1.4609047085e+000	 2.5051461899e+000	-1.1993860046e+000
 1.4353323646e+000	 2.5198851171e+000	-1.1438119065e+000
 1.4096466298e+000	 2.5343433823e+000	-1.0861839361e+000
 1.3838520240e+000	 2.5485198794e+000	-1.0275059341e+000
 1.3579530758e+000	 2.5624135974e+000	-9.6873704815e-001
 1.3319543199e+000	 2.5760236198e+000	-9.1079054321e-001
 1.6005885287e+000	 2.4482118703e+000	-7.4466105035e-001
 1.5754354790e+000	 2.4644731793e+000	-8.7382007682e-001
 1.5501454844e+000	 2.4804584208e+000	-1.0018974959e+000
 1.5247230230e+000	 2.4961660007e+000	-1.1284454932e+000
 1.4991725938e+000	 2.5115944207e+000	-1.1316416921e+000
 1.4734987146e+000	 2.5267422777e+000	-1.0920045455e+000
 1.4477059195e+000	 2.5416082646e+000	-1.0501468625e+000
 1.4217987559e+000	 2.5561911700e+000	-1.0070759470e+000
 1.3957817829e+000	 2.5704898784e+000	-9.6375420543e-001
 1.3696595678e+000	 2.5845033698e+000	-9.2109786348e-001
 1.3434366847e+000	 2.5982307200e+000	-8.7997581943e-001
 1.6142687725e+000	 2.4691367581e+000	-8.2336888636e-001
 1.5889007395e+000	 2.4855370527e+000	-9.6225552738e-001
 1.5633945911e+000	 2.5016589201e+000	-1.0841536477e+000
 1.5377548437e+000	 2.5175007529e+000	-1.0612661793e+000
 1.5119860348e+000	 2.5330610397e+000	-1.0349838681e+000
 1.4860927207e+000	 2.5483383656e+000	-1.0063642057e+000
 1.4600794743e+000	 2.5633314122e+000	-9.7642111924e-001
 1.4339508820e+000	 2.5780389578e+000	-9.4612345038e-001
 1.4077115417e+000	 2.5924598773e+000	-9.1639357140e-001
 1.3813660599e+000	 2.6065931422e+000	-8.8810614021e-001
 1.3549190495e+000	 2.6204378202e+000	-8.6208699480e-001
 1.6279490163e+000	 2.4900616459e+000	-9.2253237509e-001
 1.6023660000e+000	 2.5066009260e+000	-1.0068667323e+000
 1.5766436978e+000	 2.5228594194e+000	-9.9476662305e-001
 1.5507866644e+000	 2.5388355050e+000	-9.7918753211e-001
 1.5247994757e+000	 2.5545276587e+000	-9.6119686302e-001
 1.4986867268e+000	 2.5699344534e+000	-9.4181840526e-001
 1.4724530292e+000	 2.5850545598e+000	-9.2203070356e-001
 1.4461030082e+000	 2.5998867456e+000	-9.0276556644e-001
 1.4196413005e+000	 2.6144298763e+000	-8.8490671587e-001
 1.3930725519e+000	 2.6286829145e+000	-8.6928857888e-001
 1.3664014143e+000	 2.6426449203e+000	-8.5669522225e-001
 1.6416292602e+000	 2.5109865337e+000	-9.4273183143e-001
 1.6158312605e+000	 2.5276647993e+000	-9.3867659458e-001
 1.5898928045e+000	 2.5440599187e+000	-9.3109013080e-001
 1.5638184851e+000	 2.5601702572e+000	-9.2105300771e-001
 1.5376129167e+000	 2.5759942776e+000	-9.0960217724e-001
 1.5112807329e+000	 2.5915305413e+000	-8.9772922877e-001
 1.4848265841e+000	 2.6067777073e+000	-8.8637878312e-001
 1.4582551343e+000	 2.6217345334e+000	-8.7644702960e-001
 1.4315710593e+000	 2.6363998752e+000	-8.6878040762e-001
 1.4047790439e+000	 2.6507726869e+000	-8.6417443398e-001
 1.3778837792e+000	 2.6648520205e+000	-8.6337267656e-001
 1.2630601309e+000	 2.4427810188e+000	-6.5849949792e-001
 1.2383157968e+000	 2.4554172736e+000	-5.2241594319e-001
 1.2134854263e+000	 2.4677830375e+000	-4.6234202308e-001
 1.1885733238e+000	 2.4798777095e+000	-4.3065224490e-001
 1.1635837903e+000	 2.4917007772e+000	-4.2510629019e-001
 1.1385211215e+000	 2.5032518163e+000	-4.0453526568e-001
 1.1133896056e+000	 2.5145304902e+000	-3.1469835392e-001
 1.0881935211e+000	 2.5255365491e+000	-2.5732441576e-001
 1.0629371346e+000	 2.5362698295e+000	-2.3221547647e-001
 1.0376246991e+000	 2.5467302535e+000	-2.3915823595e-001
 1.0122604513e+000	 2.5569178279e+000	-2.7792327651e-001
 1.2745424957e+000	 2.4649881190e+000	-8.3672553331e-001
 1.2495732131e+000	 2.4777392488e+000	-6.9069700447e-001
 1.2245171120e+000	 2.4902174287e+000	-6.7165100817e-001
 1.1993785358e+000	 2.5024220523e+000	-6.4686321399e-001
 1.1741618247e+000	 2.5143526024e+000	-5.2995894316e-001
 1.1488713135e+000	 2.5260086510e+000	-4.4194489067e-001
 1.1235113293e+000	 2.5373898583e+000	-3.8258806493e-001
 1.0980861894e+000	 2.5484959723e+000	-3.5164648942e-001
 1.0726001995e+000	 2.5593268279e+000	-3.4886833762e-001
 1.0470576509e+000	 2.5698823467e+000	-3.7399108111e-001
 1.0214628190e+000	 2.5801625355e+000	-4.2674065435e-001
 1.2860248606e+000	 2.4871952191e+000	-1.0160487610e+000
 1.2608306294e+000	 2.5000612240e+000	-8.9460543375e-001
 1.2355487977e+000	 2.5126518200e+000	-7.1019011203e-001
 1.2101837479e+000	 2.5249663951e+000	-6.0345540545e-001
 1.1847398592e+000	 2.5370044277e+000	-5.2202756226e-001
 1.1592215055e+000	 2.5487654857e+000	-4.6561544065e-001
 1.1336330529e+000	 2.5602492264e+000	-4.3392447489e-001
 1.1079788578e+000	 2.5714553954e+000	-4.2665577307e-001
 1.0822632644e+000	 2.5823838264e+000	-4.4350521866e-001
 1.0564906027e+000	 2.5930344399e+000	-4.8416257946e-001
 1.0306651868e+000	 2.6034072430e+000	-5.4831062769e-001
 1.2975072254e+000	 2.5094023193e+000	-1.0850948570e+000
 1.2720880458e+000	 2.5223831993e+000	-8.3503463740e-001
 1.2465804834e+000	 2.5350862112e+000	-6.2344157000e-001
 1.2209889599e+000	 2.5475107379e+000	-5.5308545629e-001
 1.1953178937e+000	 2.5596562529e+000	-5.0427569938e-001
 1.1695716975e+000	 2.5715223204e+000	-4.7665654874e-001
 1.1437547766e+000	 2.5831085945e+000	-4.6987348565e-001
 1.1178715262e+000	 2.5944148186e+000	-4.8357229173e-001
 1.0919263292e+000	 2.6054408248e+000	-5.1739811535e-001
 1.0659235545e+000	 2.6161865331e+000	-5.7099453968e-001
 1.0398675545e+000	 2.6266519505e+000	-6.4400265644e-001
 1.3089895902e+000	 2.5316094195e+000	-1.0129184545e+000
 1.2833454621e+000	 2.5447051745e+000	-7.8738028502e-001
 1.2576121691e+000	 2.5575206025e+000	-5.7893769614e-001
 1.2317941719e+000	 2.5700550807e+000	-4.9673712077e-001
 1.2058959281e+000	 2.5823080782e+000	-4.7774501074e-001
 1.1799218895e+000	 2.5942791551e+000	-4.7616570937e-001
 1.1538765003e+000	 2.6059679626e+000	-4.9158635705e-001
 1.1277641945e+000	 2.6173742418e+000	-5.2359899031e-001
 1.1015893941e+000	 2.6284978233e+000	-5.7179957117e-001
 1.0753565063e+000	 2.6393386263e+000	-6.3578701263e-001
 1.0490699223e+000	 2.6498966580e+000	-7.1516220437e-001
 1.3204719550e+000	 2.5538165197e+000	-9.5496107944e-001
 1.2946028784e+000	 2.5670271497e+000	-7.5128263028e-001
 1.2686438548e+000	 2.5799549938e+000	-5.6195576069e-001
 1.2425993840e+000	 2.5925994236e+000	-4.3538751519e-001
 1.2164739626e+000	 2.6049599034e+000	-4.4346799771e-001
 1.1902720815e+000	 2.6170359898e+000	-4.6522880603e-001
 1.1639982240e+000	 2.6288273307e+000	-5.0020034356e-001
 1.1376568629e+000	 2.6403336650e+000	-5.4792247622e-001
 1.1112524589e+000	 2.6515548217e+000	-6.0794352305e-001
 1.0847894581e+000	 2.6624907195e+000	-6.7981923731e-001
 1.0582722900e+000	 2.6731413656e+000	-7.6311178244e-001
 1.3319543199e+000	 2.5760236198e+000	-9.1079054321e-001
 1.3058602948e+000	 2.5893491249e+000	-7.2638056304e-001
 1.2796755405e+000	 2.6023893850e+000	-5.5366017759e-001
 1.2534045960e+000	 2.6151437664e+000	-3.9340755533e-001
 1.2270519970e+000	 2.6276117287e+000	-4.0246840137e-001
 1.2006222736e+000	 2.6397928245e+000	-4.4492061179e-001
 1.1741199477e+000	 2.6516866988e+000	-4.9683929796e-001
 1.1475495313e+000	 2.6632930881e+000	-5.5771372362e-001
 1.1209155238e+000	 2.6746118202e+000	-6.2704610343e-001
 1.0942224100e+000	 2.6856428127e+000	-7.0435053796e-001
 1.0674746577e+000	 2.6963860731e+000	-7.8915193812e-001
 1.3434366847e+000	 2.5982307200e+000	-8.7997581943e-001
 1.3171177111e+000	 2.6116711001e+000	-7.1231166767e-001
 1.2907072262e+000	 2.6248237763e+000	-5.5375604668e-001
 1.2642098080e+000	 2.6376881092e+000	-4.0503001885e-001
 1.2376300315e+000	 2.6502635539e+000	-3.5576157694e-001
 1.2109724656e+000	 2.6625496592e+000	-4.1630526403e-001
 1.1842416714e+000	 2.6745460669e+000	-4.8261424403e-001
 1.1574421997e+000	 2.6862525113e+000	-5.5412874145e-001
 1.1305785886e+000	 2.6976688186e+000	-6.3030640110e-001
 1.1036553618e+000	 2.7087949060e+000	-7.1062117508e-001
 1.0766770255e+000	 2.7196307806e+000	-7.9456219402e-001
 1.3549190495e+000	 2.6204378202e+000	-8.6208699480e-001
 1.3283751274e+000	 2.6339930753e+000	-7.0871227834e-001
 1.3017389119e+000	 2.6472581675e+000	-5.6194490539e-001
 1.2750150201e+000	 2.6602324520e+000	-4.2245004197e-001
 1.2482080659e+000	 2.6729153792e+000	-3.0435484908e-001
 1.2213226576e+000	 2.6853064939e+000	-3.8043671518e-001
 1.1943633951e+000	 2.6974054350e+000	-4.5862392017e-001
 1.1673348680e+000	 2.7092119345e+000	-5.3830920758e-001
 1.1402416535e+000	 2.7207258171e+000	-6.1890718337e-001
 1.1130883136e+000	 2.7319469992e+000	-6.9985315323e-001
 1.0858793932e+000	 2.7428754882e+000	-7.8060193878e-001
 1.3664014143e+000	 2.6426449203e+000	-8.5669522225e-001
 1.3396325438e+000	 2.6563150506e+000	-7.1521753156e-001
 1.3127705976e+000	 2.6696925588e+000	-5.7792487843e-001
 1.2858202321e+000	 2.6827767948e+000	-4.4542772244e-001
 1.2587861004e+000	 2.6955672044e+000	-3.1828324289e-001
 1.2316728496e+000	 2.7080633286e+000	-3.3835916060e-001
 1.2044851188e+000	 2.7202648031e+000	-4.2595529561e-001
 1.1772275364e+000	 2.7321713577e+000	-5.1138307094e-001
 1.1499047184e+000	 2.7437828155e+000	-5.9401558190e-001
 1.1225212654e+000	 2.7550990924e+000	-6.7325098812e-001
 1.0950817609e+000	 2.7661201957e+000	-7.4851127302e-001
 1.3778837792e+000	 2.6648520205e+000	-8.6337267656e-001
 1.3508899601e+000	 2.6786370258e+000	-7.3146141610e-001
 1.3238022833e+000	 2.6921269500e+000	-6.0139082000e-001
 1.2966254442e+000	 2.7053211376e+000	-4.7371781233e-001
 1.2693641349e+000	 2.7182190297e+000	-3.4894757478e-001
 1.2420230416e+000	 2.7308201633e+000	-2.9110744516e-001
 1.2146068424e+000	 2.7431241712e+000	-3.8568406075e-001
 1.1871202048e+000	 2.7551307808e+000	-4.7446512360e-001
 1.1595677832e+000	 2.7668398140e+000	-5.5678374416e-001
 1.1319542172e+000	 2.7782511856e+000	-6.3200243525e-001
 1.1042841287e+000	 2.7893649032e+000	-6.9951181299e-001
 1.0122604513e+000	 2.5569178279e+000	-2.7792327651e-001
 9.8684861017e-001	 2.5668326437e+000	-2.5114448843e-001
 9.6139337463e-001	 2.5764748746e+000	-2.2939091556e-001
 9.3589892178e-001	 2.5858447765e+000	-2.1182045552e-001
 9.1036940492e-001	 2.5949426866e+000	-1.9760298764e-001
 8.8480895173e-001	 2.6037690218e+000	-1.8591984453e-001
 8.5922166244e-001	 2.6123242783e+000	-1.7596328114e-001
 8.3361160807e-001	 2.6206090298e+000	-1.6693594429e-001
 8.0798282872e-001	 2.6286239268e+000	-1.5805034526e-001
 7.8233933189e-001	 2.6363696952e+000	-1.4852833820e-001
 7.5668509084e-001	 2.6438471350e+000	-1.3760060666e-001
 1.0214628190e+000	 2.5801625355e+000	-4.2674065435e-001
 9.9581996117e-001	 2.5901674859e+000	-3.9005503243e-001
 9.7013331440e-001	 2.5998973734e+000	-3.5859005918e-001
 9.4440709380e-001	 2.6093524563e+000	-3.3156756911e-001
 9.1864549042e-001	 2.6185330746e+000	-3.0822053139e-001
 8.9285266947e-001	 2.6274396493e+000	-2.8779243664e-001
 8.6703276845e-001	 2.6360726808e+000	-2.6953668394e-001
 8.4118989541e-001	 2.6444327482e+000	-2.5271597098e-001
 8.1532812716e-001	 2.6525205080e+000	-2.3660169027e-001
 7.8945150763e-001	 2.6603366925e+000	-2.2047333404e-001
 7.6356404620e-001	 2.6678821090e+000	-2.0361791053e-001
 1.0306651868e+000	 2.6034072430e+000	-5.4831062769e-001
 1.0047913122e+000	 2.6135023281e+000	-5.0316325238e-001
 9.7887325417e-001	 2.6233198723e+000	-4.6340744739e-001
 9.5291526581e-001	 2.6328601361e+000	-4.2832916204e-001
 9.2692157592e-001	 2.6421234627e+000	-3.9722465348e-001
 9.0089638721e-001	 2.6511102768e+000	-3.6939978758e-001
 8.7484387447e-001	 2.6598210833e+000	-3.4416934259e-001
 8.4876818275e-001	 2.6682564667e+000	-3.2085631879e-001
 8.2267342560e-001	 2.6764170891e+000	-2.9879125711e-001
 7.9656368337e-001	 2.6843036897e+000	-2.7731156937e-001
 7.7044300157e-001	 2.6919170830e+000	-2.5576088318e-001
 1.0398675545e+000	 2.6266519505e+000	-6.4400265644e-001
 1.0137626632e+000	 2.6368371703e+000	-5.9177868680e-001
 9.8761319394e-001	 2.6467423712e+000	-5.4509283301e-001
 9.6142343782e-001	 2.6563678159e+000	-5.0329536886e-001
 9.3519766141e-001	 2.6657138508e+000	-4.6574606903e-001
 9.0894010495e-001	 2.6747809043e+000	-4.3181342281e-001
 8.8265498049e-001	 2.6835694859e+000	-4.0087385326e-001
 8.5634647009e-001	 2.6920801852e+000	-3.7231094513e-001
 8.3001872403e-001	 2.7003136703e+000	-3.4551468461e-001
 8.0367585911e-001	 2.7082706869e+000	-3.1988071388e-001
 7.7732195694e-001	 2.7159520569e+000	-2.9480960321e-001
 1.0490699223e+000	 2.6498966580e+000	-7.1516220437e-001
 1.0227340142e+000	 2.6601720126e+000	-6.5718840617e-001
 9.9635313370e-001	 2.6701648700e+000	-6.0487501661e-001
 9.6993160984e-001	 2.6798754957e+000	-5.5763687475e-001
 9.4347374691e-001	 2.6893042388e+000	-5.1489753312e-001
 9.1698382269e-001	 2.6984515317e+000	-4.7608838303e-001
 8.9046608651e-001	 2.7073178884e+000	-4.4064778800e-001
 8.6392475744e-001	 2.7159039036e+000	-4.0802022873e-001
 8.3736402247e-001	 2.7242102514e+000	-3.7765546274e-001
 8.1078803485e-001	 2.7322376842e+000	-3.4900770191e-001
 7.8420091230e-001	 2.7399870309e+000	-3.2153481075e-001
 1.0582722900e+000	 2.6731413656e+000	-7.6311178244e-001
 1.0317053652e+000	 2.6835068548e+000	-7.0065798981e-001
 1.0050930735e+000	 2.6935873689e+000	-6.4396275748e-001
 9.7843978185e-001	 2.7033831755e+000	-5.9250576112e-001
 9.5174983241e-001	 2.7128946269e+000	-5.4577462165e-001
 9.2502754043e-001	 2.7221221592e+000	-5.0326394088e-001
 8.9827719253e-001	 2.7310662909e+000	-4.6447434798e-001
 8.7150304478e-001	 2.7397276221e+000	-4.2891156009e-001
 8.4470932091e-001	 2.7481068326e+000	-3.9608546079e-001
 8.1790021059e-001	 2.7562046814e+000	-3.6550919925e-001
 7.9107986767e-001	 2.7640220048e+000	-3.3669831346e-001
 1.0674746577e+000	 2.6963860731e+000	-7.8915193812e-001
 1.0406767162e+000	 2.7068416970e+000	-7.2343245225e-001
 1.0138330132e+000	 2.7170098677e+000	-6.6354563751e-001
 9.8694795386e-001	 2.7268908553e+000	-6.0903630752e-001
 9.6002591790e-001	 2.7364850150e+000	-5.5945647185e-001
 9.3307125817e-001	 2.7457927867e+000	-5.1436428066e-001
 9.0608829855e-001	 2.7548146935e+000	-4.7332298287e-001
 8.7908133212e-001	 2.7635513405e+000	-4.3589990125e-001
 8.5205461935e-001	 2.7720034137e+000	-4.0166542827e-001
 8.2501238633e-001	 2.7801716786e+000	-3.7019204572e-001
 7.9795882304e-001	 2.7880569788e+000	-3.4105337156e-001
 1.0766770255e+000	 2.7196307806e+000	-7.9456219402e-001
 1.0496480672e+000	 2.7301765392e+000	-7.2673712202e-001
 1.0225729530e+000	 2.7404323666e+000	-6.6479488067e-001
 9.9545612588e-001	 2.7503985350e+000	-6.0834575238e-001
 9.6830200340e-001	 2.7600754030e+000	-5.5700648478e-001
 9.4111497591e-001	 2.7694634141e+000	-5.1039914308e-001
 9.1389940457e-001	 2.7785630960e+000	-4.6814997857e-001
 8.8665961946e-001	 2.7873750590e+000	-4.2988831695e-001
 8.5939991779e-001	 2.7958999949e+000	-3.9524547011e-001
 8.3212456207e-001	 2.8041386758e+000	-3.6385367508e-001
 8.0483777841e-001	 2.8120919527e+000	-3.3534506313e-001
 1.0858793932e+000	 2.7428754882e+000	-7.8060193878e-001
 1.0586194182e+000	 2.7535113814e+000	-7.1177847585e-001
 1.0313128928e+000	 2.7638548655e+000	-6.4886413094e-001
 1.0039642979e+000	 2.7739062148e+000	-5.9153501510e-001
 9.7657808889e-001	 2.7836657911e+000	-5.3947299210e-001
 9.4915869365e-001	 2.7931340416e+000	-4.9236443728e-001
 9.2171051058e-001	 2.8023114985e+000	-4.4989901500e-001
 8.9423790680e-001	 2.8111987774e+000	-4.1176847873e-001
 8.6674521623e-001	 2.8197965760e+000	-3.7766549771e-001
 8.3923673781e-001	 2.8281056731e+000	-3.4728251363e-001
 8.1171673377e-001	 2.8361269267e+000	-3.2031063078e-001
 1.0950817609e+000	 2.7661201957e+000	-7.4851127302e-001
 1.0675907692e+000	 2.7768462236e+000	-6.7974493073e-001
 1.0400528325e+000	 2.7872773643e+000	-6.1689019098e-001
 1.0124724699e+000	 2.7974138946e+000	-5.5968938172e-001
 9.8485417439e-001	 2.8072561791e+000	-5.0788988927e-001
 9.5720241139e-001	 2.8168046691e+000	-4.6124282203e-001
 9.2952161660e-001	 2.8260599011e+000	-4.1950169569e-001
 9.0181619415e-001	 2.8350224959e+000	-3.8242114368e-001
 8.7409051467e-001	 2.8436931572e+000	-3.4975565725e-001
 8.4634891355e-001	 2.8520726703e+000	-3.2125835860e-001
 8.1859568914e-001	 2.8601619006e+000	-2.9667981087e-001
 1.1042841287e+000	 2.7893649032e+000	-6.9951181299e-001
 1.0765621202e+000	 2.8001810658e+000	-6.3180759640e-001
 1.0487927723e+000	 2.8106998632e+000	-5.6999372378e-001
 1.0209806419e+000	 2.8209215744e+000	-5.1387915634e-001
 9.9313025989e-001	 2.8308465672e+000	-4.6327723701e-001
 9.6524612913e-001	 2.8404752965e+000	-4.1800425779e-001
 9.3733272262e-001	 2.8498083036e+000	-3.7787805105e-001
 9.0939448149e-001	 2.8588462143e+000	-3.4271660917e-001
 8.8143581311e-001	 2.8675897383e+000	-3.1233673652e-001
 8.5346108929e-001	 2.8760396675e+000	-2.8655273780e-001
 8.2547464451e-001	 2.8841968746e+000	-2.6517514630e-001
 7.5668509084e-001	 2.6438471350e+000	-1.3760060666e-001
 7.3102404304e-001	 2.6510571191e+000	-2.9878564126e-002
 7.0536008863e-001	 2.6580005917e+000	 7.2740408983e-002
 6.7969708895e-001	 2.6646785674e+000	 1.7082625778e-001
 6.5403886512e-001	 2.6710921293e+000	 2.6495235948e-001
 6.2838919664e-001	 2.6772424279e+000	 3.5569593975e-001
 6.0275182011e-001	 2.6831306796e+000	 2.8013747449e-001
 5.7713042797e-001	 2.6887581649e+000	 1.6828626358e-001
 5.5152866722e-001	 2.6941262274e+000	 4.6100754449e-002
 5.2595013834e-001	 2.6992362720e+000	-8.4721204772e-002
 5.0039839415e-001	 2.7040897632e+000	-2.2254357908e-001
 7.6356404620e-001	 2.6678821090e+000	-2.0361791053e-001
 7.3766971615e-001	 2.6751576384e+000	-9.6636360601e-002
 7.1177245307e-001	 2.6821642335e+000	 6.9727058798e-003
 6.8587615339e-001	 2.6889029180e+000	 1.0772800779e-001
 6.5998467298e-001	 2.6953747850e+000	 2.0615104709e-001
 6.3410182569e-001	 2.7015809954e+000	 3.0276661801e-001
 6.0823138211e-001	 2.7075227766e+000	 2.6338550952e-001
 5.8237706822e-001	 2.7132014209e+000	 1.4276398584e-001
 5.5654256419e-001	 2.7186182841e+000	 1.3998335254e-002
 5.3073150323e-001	 2.7237747836e+000	-1.2126353163e-001
 5.0494747046e-001	 2.7286723974e+000	-2.6143779426e-001
 7.7044300157e-001	 2.6919170830e+000	-2.5576088318e-001
 7.4431538927e-001	 2.6992581576e+000	-1.4999314332e-001
 7.1818481751e-001	 2.7063278752e+000	-4.5891794862e-002
 6.9205521784e-001	 2.7131272686e+000	 5.7010389381e-002
 6.6593048084e-001	 2.7196574407e+000	 1.5918278862e-001
 6.3981445475e-001	 2.7259195630e+000	 2.6109753670e-001
 6.1371094411e-001	 2.7319148737e+000	 2.6510811777e-001
 5.8762370847e-001	 2.7376446770e+000	 1.3530430701e-001
 5.6155646116e-001	 2.7431103407e+000	-4.4312771417e-004
 5.3551286813e-001	 2.7483132951e+000	-1.4053691375e-001
 5.0949654677e-001	 2.7532550316e+000	-2.8344616868e-001
 7.7732195694e-001	 2.7159520569e+000	-2.9480960321e-001
 7.5096106238e-001	 2.7233586769e+000	-1.9069136789e-001
 7.2459718195e-001	 2.7304915169e+000	-8.6557126261e-002
 6.9823428228e-001	 2.7373516192e+000	 1.8008563049e-002
 6.7187628870e-001	 2.7439400964e+000	 1.2342268024e-001
 6.4552708381e-001	 2.7502581305e+000	 2.3010444102e-001
 6.1919050611e-001	 2.7563069708e+000	 2.8431678588e-001
 5.9287034872e-001	 2.7620879330e+000	 1.4497402263e-001
 5.6657035814e-001	 2.7676023973e+000	 1.8996524199e-003
 5.4029423302e-001	 2.7728518067e+000	-1.4336043109e-001
 5.1404562308e-001	 2.7778376658e+000	-2.8932904828e-001
 7.8420091230e-001	 2.7399870309e+000	-3.2153481075e-001
 7.5760673550e-001	 2.7474591962e+000	-2.1946484472e-001
 7.3100954638e-001	 2.7546551587e+000	-1.1571939505e-001
 7.0441334672e-001	 2.7615759698e+000	-9.9351284597e-003
 6.7782209656e-001	 2.7682227522e+000	 9.8252231749e-002
 6.5123971286e-001	 2.7745966980e+000	 2.0920869705e-001
 6.2467006810e-001	 2.7806990679e+000	 3.2002780516e-001
 5.9811698897e-001	 2.7865311891e+000	 1.7084389357e-001
 5.7158425511e-001	 2.7920944539e+000	 2.0153066082e-002
 5.4507559791e-001	 2.7973903183e+000	-1.3055094375e-001
 5.1859469938e-001	 2.8024203000e+000	-2.7984546419e-001
 7.9107986767e-001	 2.7640220048e+000	-3.3669831346e-001
 7.6425240861e-001	 2.7715597154e+000	-2.3703911489e-001
 7.3742191082e-001	 2.7788188004e+000	-1.3406712631e-001
 7.1059241116e-001	 2.7858003204e+000	-2.7471472421e-002
 6.8376790442e-001	 2.7925054079e+000	 8.3059087694e-002
 6.5695234192e-001	 2.7989352655e+000	 1.9783704737e-001
 6.3014963010e-001	 2.8050911650e+000	 3.1717699802e-001
 6.0336362922e-001	 2.8109744451e+000	 2.1198847361e-001
 5.7659815208e-001	 2.8165865105e+000	 5.3446472310e-002
 5.4985696280e-001	 2.8219288298e+000	-1.0292318848e-001
 5.2314377569e-001	 2.8270029342e+000	-2.5575318993e-001
 7.9795882304e-001	 2.7880569788e+000	-3.4105337156e-001
 7.7089808172e-001	 2.7956602347e+000	-2.4413180662e-001
 7.4383427526e-001	 2.8029824422e+000	-1.4228159025e-001
 7.1677147560e-001	 2.8100246711e+000	-3.5244682252e-002
 6.8971371228e-001	 2.8167880636e+000	 7.7236762954e-002
 6.6266497097e-001	 2.8232738331e+000	 1.9542137932e-001
 6.3562919210e-001	 2.8294832621e+000	 3.1956952914e-001
 6.0861026947e-001	 2.8354177012e+000	 2.6748594593e-001
 5.8161204905e-001	 2.8410785671e+000	 1.0091207080e-001
 5.5463832770e-001	 2.8464673414e+000	-6.1289870215e-002
 5.2769285200e-001	 2.8515855684e+000	-2.1780879557e-001
 8.0483777841e-001	 2.8120919527e+000	-3.3534506313e-001
 7.7754375484e-001	 2.8197607539e+000	-2.4145297340e-001
 7.5024663970e-001	 2.8271460839e+000	-1.4103711224e-001
 7.2295054004e-001	 2.8342490217e+000	-3.3892678443e-002
 6.9565952014e-001	 2.8410707193e+000	 8.0184391871e-002
 6.6837760003e-001	 2.8476124006e+000	 2.0139850516e-001
 6.4110875410e-001	 2.8538753591e+000	 3.2995544540e-001
 6.1385690972e-001	 2.8598609572e+000	 3.3641796808e-001
 5.8662594603e-001	 2.8655706237e+000	 1.6168478052e-001
 5.5941969259e-001	 2.8710058529e+000	-6.4617488987e-003
 5.3224192831e-001	 2.8761682026e+000	-1.6676769917e-001
 8.1171673377e-001	 2.8361269267e+000	-3.2031063078e-001
 7.8418942795e-001	 2.8438612732e+000	-2.2970541497e-001
 7.5665900413e-001	 2.8513097256e+000	-1.3100136711e-001
 7.2912960448e-001	 2.8584733723e+000	-2.4047355209e-002
 7.0160532800e-001	 2.8653533750e+000	 9.1306490133e-002
 6.7409022909e-001	 2.8719509681e+000	 2.1520995332e-001
 6.4658831609e-001	 2.8782674562e+000	 3.4781386443e-001
 6.1910354998e-001	 2.8843042132e+000	 4.1786952467e-001
 5.9163984300e-001	 2.8900626803e+000	 2.3490212445e-001
 5.6420105748e-001	 2.8955443645e+000	 6.0752278107e-002
 5.3679100462e-001	 2.9007508368e+000	-1.0338421563e-001
 8.1859568914e-001	 2.8601619006e+000	-2.9667981087e-001
 7.9083510107e-001	 2.8679617925e+000	-2.0958498207e-001
 7.6307136857e-001	 2.8754733674e+000	-1.1283565856e-001
 7.3530866892e-001	 2.8826977229e+000	-6.3348336969e-003
 7.0755113586e-001	 2.8896360307e+000	 1.1001272867e-001
 6.7980285814e-001	 2.8962895356e+000	 2.3630177030e-001
 6.5206787809e-001	 2.9026595533e+000	 3.7262776576e-001
 6.2435019023e-001	 2.9087474693e+000	 5.1092878765e-001
 5.9665373997e-001	 2.9145547369e+000	 3.1970412021e-001
 5.6898242237e-001	 2.9200828761e+000	 1.3954509776e-001
 5.4134008093e-001	 2.9253334710e+000	-2.8411602984e-002
 8.2547464451e-001	 2.8841968746e+000	-2.6517514630e-001
 7.9748077418e-001	 2.8920623117e+000	-1.8178086603e-001
 7.6948373301e-001	 2.8996370091e+000	-8.7195184639e-002
 7.4148773336e-001	 2.9069220735e+000	 1.8624297476e-002
 7.1349694372e-001	 2.9139186865e+000	 1.3571771886e-001
 6.8551548720e-001	 2.9206281031e+000	 2.6412433242e-001
 6.5754744009e-001	 2.9270516504e+000	 4.0388382997e-001
 6.2959683048e-001	 2.9331907253e+000	 5.5503761306e-001
 6.0166763694e-001	 2.9390467935e+000	 4.1523317612e-001
 5.7376378727e-001	 2.9446213876e+000	 2.2911130698e-001
 5.4588915724e-001	 2.9499161052e+000	 5.7397893509e-002
 5.0039839415e-001	 2.7040897632e+000	-2.2254357908e-001
 4.7487693873e-001	 2.7086882237e+000	-1.5004923474e-001
 4.4938922647e-001	 2.7130332330e+000	-8.9076885748e-002
 4.2393866111e-001	 2.7171264254e+000	-3.7860610568e-002
 3.9852859482e-001	 2.7209694888e+000	 5.3106043014e-003
 3.7316232739e-001	 2.7245641628e+000	 4.2094265258e-002
 3.4784310545e-001	 2.7279122372e+000	 7.4095803716e-002
 3.2257412170e-001	 2.7310155503e+000	 1.0287003346e-001
 2.9735851428e-001	 2.7338759873e+000	 1.2992262755e-001
 2.7219936608e-001	 2.7364954787e+000	 1.5671160924e-001
 2.4709970424e-001	 2.7388759987e+000	 1.8464885173e-001
 5.0494747046e-001	 2.7286723974e+000	-2.6143779426e-001
 4.7919400181e-001	 2.7333126621e+000	-1.8184516359e-001
 4.5347458308e-001	 2.7376971715e+000	-1.1441490668e-001
 4.2779264894e-001	 2.7418275747e+000	-5.7432354424e-002
 4.0215158205e-001	 2.7457055751e+000	-9.2372621407e-003
 3.7655471219e-001	 2.7493329280e+000	 3.1777685447e-002
 3.5100531550e-001	 2.7527114394e+000	 6.7168397531e-002
 3.2550661372e-001	 2.7558429644e+000	 9.8440922814e-002
 3.0006177350e-001	 2.7587294054e+000	 1.2705301152e-001
 2.7467390578e-001	 2.7613727104e+000	 1.5441568820e-001
 2.4934606519e-001	 2.7637748714e+000	 1.8189483004e-001
 5.0949654677e-001	 2.7532550316e+000	-2.8344616868e-001
 4.8351106489e-001	 2.7579371005e+000	-1.9779271430e-001
 4.5755993968e-001	 2.7623611099e+000	-1.2488637969e-001
 4.3164663677e-001	 2.7665287241e+000	-6.3064708219e-002
 4.0577456927e-001	 2.7704416614e+000	-1.0719223395e-002
 3.7994709699e-001	 2.7741016931e+000	 3.3706162883e-002
 3.5416752555e-001	 2.7775106416e+000	 7.1716767582e-002
 3.2843910574e-001	 2.7806703785e+000	 1.0476877304e-001
 3.0276503272e-001	 2.7835828235e+000	 1.3427087672e-001
 2.7714844547e-001	 2.7862499420e+000	 1.6158594859e-001
 2.5159242613e-001	 2.7886737441e+000	 1.8803269041e-001
 5.1404562308e-001	 2.7778376658e+000	-2.8932904828e-001
 4.8782812797e-001	 2.7825615389e+000	-1.9857485017e-001
 4.6164529629e-001	 2.7870250484e+000	-1.2109714800e-001
 4.3550062460e-001	 2.7912298734e+000	-5.5286694622e-002
 4.0939755650e-001	 2.7951777476e+000	 4.1218234068e-004
 3.8333948178e-001	 2.7988704582e+000	 4.7503271771e-002
 3.5732973560e-001	 2.8023098437e+000	 8.7440192958e-002
 3.3137159775e-001	 2.8054977926e+000	 1.2162812572e-001
 3.0546829194e-001	 2.8084362415e+000	 1.5142555063e-001
 2.7962298516e-001	 2.8111271736e+000	 1.7814599347e-001
 2.5383878708e-001	 2.8135726168e+000	 2.0305976829e-001
 5.1859469938e-001	 2.8024203000e+000	-2.7984546419e-001
 4.9214519105e-001	 2.8071859773e+000	-1.8487476273e-001
 4.6573065289e-001	 2.8116889869e+000	-1.0365480138e-001
 4.3935461243e-001	 2.8159310227e+000	-3.4630576113e-002
 4.1302054373e-001	 2.8199138339e+000	 2.3699709280e-002
 3.8673186658e-001	 2.8236392233e+000	 7.2786436776e-002
 3.6049194565e-001	 2.8271090459e+000	 1.1403038743e-001
 3.3430408977e-001	 2.8303252067e+000	 1.4878456785e-001
 3.0817155116e-001	 2.8332896596e+000	 1.7835604360e-001
 2.8209752485e-001	 2.8360044052e+000	 2.0400777340e-001
 2.5608514803e-001	 2.8384714896e+000	 2.2696043859e-001
 5.2314377569e-001	 2.8270029342e+000	-2.5575318993e-001
 4.9646225412e-001	 2.8318104157e+000	-1.5737586181e-001
 4.6981600950e-001	 2.8363529254e+000	-7.3168600225e-002
 4.4320860026e-001	 2.8406321720e+000	-1.6317141202e-003
 4.1664353095e-001	 2.8446499202e+000	 5.8681608723e-002
 3.9012425137e-001	 2.8484079884e+000	 1.0916720039e-001
 3.6365415570e-001	 2.8519082480e+000	 1.5117182838e-001
 3.3723658179e-001	 2.8551526208e+000	 1.8599512116e-001
 3.1087481039e-001	 2.8581430777e+000	 2.1489149747e-001
 2.8457206455e-001	 2.8608816369e+000	 2.3907209308e-001
 2.5833150898e-001	 2.8633703623e+000	 2.5970667912e-001
 5.2769285200e-001	 2.8515855684e+000	-2.1780879557e-001
 5.0077931720e-001	 2.8564348541e+000	-1.1676176613e-001
 4.7390136610e-001	 2.8610168639e+000	-3.0249403549e-002
 4.4706258809e-001	 2.8653333213e+000	 4.3171564556e-002
 4.2026651818e-001	 2.8693860064e+000	 1.0489182315e-001
 3.9351663617e-001	 2.8731767535e+000	 1.5625147649e-001
 3.6681636576e-001	 2.8767074502e+000	 1.9854206870e-001
 3.4016907380e-001	 2.8799800349e+000	 2.3300861126e-001
 3.1357806961e-001	 2.8829964957e+000	 2.6085161095e-001
 2.8704660424e-001	 2.8857588685e+000	 2.8322909175e-001
 2.6057786993e-001	 2.8882692350e+000	 3.0125860500e-001
 5.3224192831e-001	 2.8761682026e+000	-1.6676769917e-001
 5.0509638028e-001	 2.8810592925e+000	-6.3716294388e-002
 4.7798672271e-001	 2.8856808023e+000	 2.4490399343e-002
 4.5091657592e-001	 2.8900344707e+000	 9.9238094469e-002
 4.2388950541e-001	 2.8941220927e+000	 1.6186017036e-001
 3.9690902097e-001	 2.8979455187e+000	 2.1363979086e-001
 3.6997857581e-001	 2.9015066523e+000	 2.5581203275e-001
 3.4310156582e-001	 2.9048074490e+000	 2.8956601800e-001
 3.1628132883e-001	 2.9078499138e+000	 3.1604704310e-001
 2.8952114393e-001	 2.9106361001e+000	 3.3635869902e-001
 2.6282423087e-001	 2.9131681077e+000	 3.5156497558e-001
 5.3679100462e-001	 2.9007508368e+000	-1.0338421563e-001
 5.0941344336e-001	 2.9056837309e+000	 1.0765432568e-003
 4.8207207931e-001	 2.9103447408e+000	 9.0436953693e-002
 4.5477056375e-001	 2.9147356200e+000	 1.6602399180e-001
 4.2751249264e-001	 2.9188581789e+000	 2.2911251824e-001
 4.0030140576e-001	 2.9227142838e+000	 2.8092750950e-001
 3.7314078586e-001	 2.9263058545e+000	 3.2264629718e-001
 3.4603405784e-001	 2.9296348631e+000	 3.5540080781e-001
 3.1898458805e-001	 2.9327033318e+000	 3.8027979647e-001
 2.9199568362e-001	 2.9355133317e+000	 3.9833106742e-001
 2.6507059182e-001	 2.9380669804e+000	 4.1056367566e-001
 5.4134008093e-001	 2.9253334710e+000	-2.8411602984e-002
 5.1373050644e-001	 2.9303081693e+000	 7.6932553183e-002
 4.8615743592e-001	 2.9350086793e+000	 1.6697500086e-001
 4.5862455157e-001	 2.9394367693e+000	 2.4298276860e-001
 4.3113547986e-001	 2.9435942652e+000	 3.0617095072e-001
 4.0369379056e-001	 2.9474830489e+000	 3.5770505543e-001
 3.7630299591e-001	 2.9511050566e+000	 3.9870335765e-001
 3.4896654985e-001	 2.9544622771e+000	 4.3023924947e-001
 3.2168784727e-001	 2.9575567499e+000	 4.5334358072e-001
 2.9447022332e-001	 2.9603905634e+000	 4.6900698326e-001
 2.6731695277e-001	 2.9629658531e+000	 4.7818217232e-001
 5.4588915724e-001	 2.9499161052e+000	 5.7397893509e-002
 5.1804756952e-001	 2.9549326076e+000	 1.6316736597e-001
 4.9024279252e-001	 2.9596726178e+000	 2.5348793683e-001
 4.6247853940e-001	 2.9641379186e+000	 3.2956544125e-001
 4.3475846709e-001	 2.9683303514e+000	 3.9255392548e-001
 4.0708617535e-001	 2.9722518140e+000	 4.4355811465e-001
 3.7946520596e-001	 2.9759042588e+000	 4.8363588226e-001
 3.5189904187e-001	 2.9792896912e+000	 5.1380071397e-001
 3.2439110650e-001	 2.9824101680e+000	 5.3502415822e-001
 2.9694476301e-001	 2.9852677950e+000	 5.4823825686e-001
 2.6956331372e-001	 2.9878647258e+000	 5.5433794910e-001
 2.4709970424e-001	 2.7388759987e+000	 1.8464885173e-001
 2.2206249953e-001	 2.7410195633e+000	 2.0383752820e-001
 1.9709066597e-001	 2.7429282290e+000	 2.1883805979e-001
 1.7218706031e-001	 2.7446040910e+000	 2.3120940926e-001
 1.4735448172e-001	 2.7460492816e+000	 2.4247089627e-001
 1.2259567143e-001	 2.7472659684e+000	 2.5410340799e-001
 9.7913312455e-002	 2.7482563533e+000	 2.6755059843e-001
 7.3310029335e-002	 2.7490226699e+000	 2.8422007334e-001
 4.8788387970e-002	 2.7495671829e+000	 3.0548455752e-001
 2.4350895461e-002	 2.7498921859e+000	 3.3268304169e-001
 0.0000000000e+000	 2.7500000000e+000	 3.6712190641e-001
 2.4934606519e-001	 2.7637748714e+000	 1.8189483004e-001
 2.2408124953e-001	 2.7659379230e+000	 2.0612350489e-001
 1.9888239929e-001	 2.7678639402e+000	 2.2604835520e-001
 1.7375239722e-001	 2.7695550373e+000	 2.4312777894e-001
 1.4869406792e-001	 2.7710133659e+000	 2.5878217862e-001
 1.2371017754e-001	 2.7722411136e+000	 2.7439527734e-001
 9.8803433477e-002	 2.7732405019e+000	 2.9131541819e-001
 7.3976484146e-002	 2.7740137851e+000	 3.1085684387e-001
 4.9231918770e-002	 2.7745632482e+000	 3.3430095321e-001
 2.4572267237e-002	 2.7748912057e+000	 3.6289753180e-001
 0.0000000000e+000	 2.7750000000e+000	 3.9786595421e-001
 2.5159242613e-001	 2.7886737441e+000	 1.8803269041e-001
 2.2609999953e-001	 2.7908562826e+000	 2.1504105810e-001
 2.0067413262e-001	 2.7927996513e+000	 2.3766169463e-001
 1.7531773413e-001	 2.7945059836e+000	 2.5725200487e-001
 1.5003365411e-001	 2.7959774503e+000	 2.7513302622e-001
 1.2482468364e-001	 2.7972162588e+000	 2.9259085196e-001
 9.9693554498e-002	 2.7982246506e+000	 3.1087803262e-001
 7.4642938958e-002	 2.7990049003e+000	 3.3121495193e-001
 4.9675449569e-002	 2.7995593135e+000	 3.5479117431e-001
 2.4793639014e-002	 2.7998902256e+000	 3.8276676092e-001
 0.0000000000e+000	 2.8000000000e+000	 4.1627355181e-001
 2.5383878708e-001	 2.8135726168e+000	 2.0305976829e-001
 2.2811874952e-001	 2.8157746423e+000	 2.3070665734e-001
 2.0246586595e-001	 2.8177353625e+000	 2.5391341469e-001
 1.7688307104e-001	 2.8194569298e+000	 2.7393597147e-001
 1.5137324031e-001	 2.8209415347e+000	 2.9199550069e-001
 1.2593918974e-001	 2.8221914039e+000	 3.0927994975e-001
 1.0058367552e-001	 2.8232087993e+000	 3.2694554547e-001
 7.5309393769e-002	 2.8239960154e+000	 3.4611826827e-001
 5.0118980368e-002	 2.8245553788e+000	 3.6789529234e-001
 2.5015010790e-002	 2.8248892455e+000	 3.9334638876e-001
 0.0000000000e+000	 2.8250000000e+000	 4.2351528914e-001
 2.5608514803e-001	 2.8384714896e+000	 2.2696043859e-001
 2.3013749952e-001	 2.8406930020e+000	 2.5322091787e-001
 2.0425759927e-001	 2.8426710737e+000	 2.7502011984e-001
 1.7844840795e-001	 2.8444078761e+000	 2.9351197002e-001
 1.5271282651e-001	 2.8459056191e+000	 3.0981722735e-001
 1.2705369585e-001	 2.8471665491e+000	 3.2502512771e-001
 1.0147379654e-001	 2.8481929479e+000	 3.4019499459e-001
 7.5975848581e-002	 2.8489871306e+000	 3.5635781322e-001
 5.0562511167e-002	 2.8495514441e+000	 3.7451776510e-001
 2.5236382567e-002	 2.8498882654e+000	 3.9565372003e-001
 0.0000000000e+000	 2.8500000000e+000	 4.2072068284e-001
 2.5833150898e-001	 2.8633703623e+000	 2.5970667912e-001
 2.3215624951e-001	 2.8656113616e+000	 2.8266928996e-001
 2.0604933260e-001	 2.8676067849e+000	 3.0118049688e-001
 1.8001374486e-001	 2.8693588224e+000	 3.1629163753e-001
 1.5405241270e-001	 2.8708697034e+000	 3.2902245757e-001
 1.2816820195e-001	 2.8721416943e+000	 3.4036286721e-001
 1.0236391756e-001	 2.8731770966e+000	 3.5127465921e-001
 7.6642303392e-002	 2.8739782458e+000	 3.6269318495e-001
 5.1006041966e-002	 2.8745475094e+000	 3.7552898509e-001
 2.5457754343e-002	 2.8748872852e+000	 3.9066937213e-001
 0.0000000000e+000	 2.8750000000e+000	 4.0897996200e-001
 2.6057786993e-001	 2.8882692350e+000	 3.0125860500e-001
 2.3417499951e-001	 2.8905297213e+000	 3.1912271258e-001
 2.0784106593e-001	 2.8925424960e+000	 3.3257608723e-001
 1.8157908178e-001	 2.8943097687e+000	 3.4256684698e-001
 1.5539199890e-001	 2.8958337878e+000	 3.5001307638e-001
 1.2928270805e-001	 2.8971168394e+000	 3.5580469793e-001
 1.0325403858e-001	 2.8981612453e+000	 3.6080529947e-001
 7.7308758203e-002	 2.8989693610e+000	 3.6585391389e-001
 5.1449572765e-002	 2.8995435747e+000	 3.7176674782e-001
 2.5679126120e-002	 2.8998863051e+000	 3.7933885642e-001
 0.0000000000e+000	 2.9000000000e+000	 3.8934576159e-001
 2.6282423087e-001	 2.9131681077e+000	 3.5156497558e-001
 2.3619374951e-001	 2.9154480810e+000	 3.6263823353e-001
 2.0963279925e-001	 2.9174782072e+000	 3.6937201965e-001
 1.8314441869e-001	 2.9192607150e+000	 3.7261055196e-001
 1.5673158510e-001	 2.9207978722e+000	 3.7316955819e-001
 1.3039721416e-001	 2.9220919846e+000	 3.7183826418e-001
 1.0414415961e-001	 2.9231453939e+000	 3.6938133248e-001
 7.7975213015e-002	 2.9239604762e+000	 3.6654074767e-001
 5.1893103565e-002	 2.9245396400e+000	 3.6403764486e-001
 2.5900497897e-002	 2.9248853250e+000	 3.6257407857e-001
 0.0000000000e+000	 2.9250000000e+000	 3.6283472908e-001
 2.6507059182e-001	 2.9380669804e+000	 4.1056367566e-001
 2.3821249950e-001	 2.9403664406e+000	 4.1325959807e-001
 2.1142453258e-001	 2.9424139184e+000	 4.1171770571e-001
 1.8470975560e-001	 2.9442116612e+000	 4.0667758832e-001
 1.5807117129e-001	 2.9457619566e+000	 3.9885187410e-001
 1.3151172026e-001	 2.9470671298e+000	 3.8892833698e-001
 1.0503428063e-001	 2.9481295426e+000	 3.7757194854e-001
 7.8641667826e-002	 2.9489515913e+000	 3.6542687072e-001
 5.2336634364e-002	 2.9495357053e+000	 3.5311838607e-001
 2.6121869673e-002	 2.9498843448e+000	 3.4125476243e-001
 0.0000000000e+000	 2.9500000000e+000	 3.3042904930e-001
 2.6731695277e-001	 2.9629658531e+000	 4.7818217232e-001
 2.4023124950e-001	 2.9652848003e+000	 4.7101780782e-001
 2.1321626591e-001	 2.9673496295e+000	 4.5974750014e-001
 1.8627509251e-001	 2.9691626075e+000	 4.4500543544e-001
 1.5941075749e-001	 2.9707260410e+000	 4.2740035333e-001
 1.3262622636e-001	 2.9720422749e+000	 4.0751777516e-001
 1.0592440165e-001	 2.9731136913e+000	 3.8592217112e-001
 7.9308122638e-002	 2.9739427065e+000	 3.6315906242e-001
 5.2780165163e-002	 2.9745317706e+000	 3.3975705509e-001
 2.6343241450e-002	 2.9748833647e+000	 3.1622980228e-001
 0.0000000000e+000	 2.9750000000e+000	 2.9307789248e-001
 2.6956331372e-001	 2.9878647258e+000	 5.5433794910e-001
 2.4224999949e-001	 2.9902031599e+000	 5.3593165176e-001
 2.1500799923e-001	 2.9922853407e+000	 5.1358132823e-001
 1.8784042942e-001	 2.9941135538e+000	 4.8781493940e-001
 1.6075034369e-001	 2.9956901253e+000	 4.5913650167e-001
 1.3374073246e-001	 2.9970174201e+000	 4.2802843831e-001
 1.0681452267e-001	 2.9980978399e+000	 3.9495386376e-001
 7.9974577449e-002	 2.9989338217e+000	 3.6035879727e-001
 5.3223695962e-002	 2.9995278359e+000	 3.2467430210e-001
 2.6564613226e-002	 2.9998823846e+000	 2.8831854739e-001
 0.0000000000e+000	 3.0000000000e+000	 2.5169878983e-001
 3.0000000000e+000	 0.0000000000e+000	 1.7217999777e+000
 2.9998823846e+000	 2.6564613226e-002	 1.6710911750e+000
 2.9995278359e+000	 5.3223695962e-002	 1.6117947552e+000
 2.9989338217e+000	 7.9974577449e-002	 1.5459395243e+000
 2.9980978399e+000	 1.0681452267e-001	 1.4755333347e+000
 2.9970174201e+000	 1.3374073246e-001	 1.4025615675e+000
 2.9956901253e+000	 1.6075034369e-001	 1.3289856756e+000
 2.9941135538e+000	 1.8784042942e-001	 1.2567417917e+000
 2.9922853407e+000	 2.1500799923e-001	 1.1877394053e+000
 2.9902031599e+000	 2.4224999949e-001	 1.1238601135e+000
 2.9878647258e+000	 2.6956331372e-001	 1.0669564493e+000
 3.0250000000e+000	 0.0000000000e+000	 1.5457783154e+000
 3.0248814045e+000	 2.6785985003e-002	 1.5267942978e+000
 3.0245239012e+000	 5.3667226761e-002	 1.4976580121e+000
 3.0239249369e+000	 8.0641032261e-002	 1.4603294123e+000
 3.0230819886e+000	 1.0770464369e-001	 1.4167462889e+000
 3.0219925653e+000	 1.3485523857e-001	 1.3688228156e+000
 3.0206542097e+000	 1.6208992988e-001	 1.3184481617e+000
 3.0190645001e+000	 1.8940576633e-001	 1.2674851747e+000
 3.0172210519e+000	 2.1679973256e-001	 1.2177691360e+000
 3.0151215196e+000	 2.4426874949e-001	 1.1711065972e+000
 3.0127635985e+000	 2.7180967467e-001	 1.1292742966e+000
 3.0500000000e+000	 0.0000000000e+000	 1.3679624186e+000
 3.0498804243e+000	 2.7007356780e-002	 1.3794236227e+000
 3.0495199665e+000	 5.4110757560e-002	 1.3792298895e+000
 3.0489160521e+000	 8.1307487072e-002	 1.3692725802e+000
 3.0480661373e+000	 1.0859476471e-001	 1.3514196294e+000
 3.0469677104e+000	 1.3596974467e-001	 1.3275141560e+000
 3.0456182941e+000	 1.6342951608e-001	 1.2993731439e+000
 3.0440154464e+000	 1.9097110324e-001	 1.2687861985e+000
 3.0421567631e+000	 2.1859146589e-001	 1.2375143817e+000
 3.0400398793e+000	 2.4628749948e-001	 1.2072891312e+000
 3.0376624713e+000	 2.7405603562e-001	 1.1798112672e+000
 3.0750000000e+000	 0.0000000000e+000	 1.1877983292e+000
 3.0748794442e+000	 2.7228728556e-002	 1.2284918742e+000
 3.0745160318e+000	 5.4554288360e-002	 1.2560894012e+000
 3.0739071672e+000	 8.1973941883e-002	 1.2724139008e+000
 3.0730502859e+000	 1.0948488573e-001	 1.2792636206e+000
 3.0719428556e+000	 1.3708425077e-001	 1.2784107396e+000
 3.0705823785e+000	 1.6476910228e-001	 1.2716001165e+000
 3.0689663926e+000	 1.9253644015e-001	 1.2605481194e+000
 3.0670924742e+000	 2.2038319921e-001	 1.2469415394e+000
 3.0649582389e+000	 2.4830624948e-001	 1.2324365932e+000
 3.0625613440e+000	 2.7630239656e-001	 1.2186580186e+000
 3.1000000000e+000	 0.0000000000e+000	 1.0047499586e+000
 3.0998784641e+000	 2.7450100333e-002	 1.0735284444e+000
 3.0995120971e+000	 5.4997819159e-002	 1.1278310529e+000
 3.0988982824e+000	 8.2640396694e-002	 1.1694125909e+000
 3.0980344346e+000	 1.1037500676e-001	 1.2000017518e+000
 3.0969180008e+000	 1.3819875688e-001	 1.2212998525e+000
 3.0955464628e+000	 1.6610868847e-001	 1.2349796491e+000
 3.0939173389e+000	 1.9410177707e-001	 1.2426842393e+000
 3.0920281854e+000	 2.2217493254e-001	 1.2460260537e+000
 3.0898765986e+000	 2.5032499947e-001	 1.2465859417e+000
 3.0874602167e+000	 2.7854875751e-001	 1.2459123557e+000
 3.1250000000e+000	 0.0000000000e+000	 8.1829837302e-001
 3.1248774839e+000	 2.7671472109e-002	 9.1407872570e-001
 3.1245081624e+000	 5.5441349958e-002	 9.9406422280e-001
 3.1238893976e+000	 8.3306851506e-002	 1.0599416383e+000
 3.1230185833e+000	 1.1126512778e-001	 1.1133702088e+000
 3.1218931460e+000	 1.3931326298e-001	 1.1559804307e+000
 3.1205105472e+000	 1.6744827467e-001	 1.1893729434e+000
 3.1188682852e+000	 1.9566711398e-001	 1.2151175038e+000
 3.1169638966e+000	 2.2396666586e-001	 1.2347520545e+000
 3.1147949583e+000	 2.5234374947e-001	 1.2497818934e+000
 3.1123590894e+000	 2.8079511845e-001	 1.2616789452e+000
 3.1500000000e+000	 0.0000000000e+000	 9.5679402258e-001
 3.1498765038e+000	 2.7892843886e-002	 1.0241182406e+000
 3.1495042277e+000	 5.5884880757e-002	 1.0751808149e+000
 3.1488805128e+000	 8.3973306317e-002	 1.1130057133e+000
 3.1480027319e+000	 1.1215524880e-001	 1.1404510584e+000
 3.1468682911e+000	 1.4042776908e-001	 1.1602021748e+000
 3.1454746316e+000	 1.6878786087e-001	 1.1747648649e+000
 3.1438192315e+000	 1.9723245089e-001	 1.1864589351e+000
 3.1418996077e+000	 2.2575839919e-001	 1.1974119954e+000
 3.1397133179e+000	 2.5436249946e-001	 1.2095535540e+000
 3.1372579621e+000	 2.8304147940e-001	 1.2246094305e+000
 3.1750000000e+000	 0.0000000000e+000	 1.0964588191e+000
 3.1748755237e+000	 2.8114215663e-002	 1.1351575367e+000
 3.1745002930e+000	 5.6328411556e-002	 1.1589810580e+000
 3.1738716280e+000	 8.4639761128e-002	 1.1709317125e+000
 3.1729868806e+000	 1.1304536982e-001	 1.1738397949e+000
 3.1718434363e+000	 1.4154227518e-001	 1.1703564996e+000
 3.1704387160e+000	 1.7012744706e-001	 1.1629470923e+000
 3.1687701778e+000	 1.9879778780e-001	 1.1538843426e+000
 3.1668353189e+000	 2.2755013251e-001	 1.1452422396e+000
 3.1646316776e+000	 2.5638124945e-001	 1.1388900152e+000
 3.1621568348e+000	 2.8528784035e-001	 1.1364864959e+000
 3.2000000000e+000	 0.0000000000e+000	 1.2368213357e+000
 3.1998745436e+000	 2.8335587439e-002	 1.2454539920e+000
 3.1994963583e+000	 5.6771942355e-002	 1.2407438191e+000
 3.1988627432e+000	 8.5306215939e-002	 1.2256723791e+000
 3.1979710292e+000	 1.1393549084e-001	 1.2030428557e+000
 3.1968185815e+000	 1.4265678129e-001	 1.1754728711e+000
 3.1954028003e+000	 1.7146703326e-001	 1.1453875503e+000
 3.1937211241e+000	 2.0036312471e-001	 1.1150128559e+000
 3.1917710301e+000	 2.2934186584e-001	 1.0863692175e+000
 3.1895500373e+000	 2.5839999945e-001	 1.0612654788e+000
 3.1870557075e+000	 2.8753420129e-001	 1.0412931863e+000
 3.2250000000e+000	 0.0000000000e+000	 1.3774247635e+000
 3.2248735634e+000	 2.8556959216e-002	 1.3546178369e+000
 3.2244924236e+000	 5.7215473154e-002	 1.3201471827e+000
 3.2238538583e+000	 8.5972670750e-002	 1.2769744406e+000
 3.2229551779e+000	 1.1482561186e-001	 1.2278763719e+000
 3.2217937266e+000	 1.4377128739e-001	 1.1754375557e+000
 3.2203668847e+000	 1.7280661945e-001	 1.1220433410e+000
 3.2186720703e+000	 2.0192846161e-001	 1.0698730812e+000
 3.2167067413e+000	 2.3113359916e-001	 1.0208936727e+000
 3.2144683969e+000	 2.6041874944e-001	 9.7685342383e-001
 3.2119545803e+000	 2.8978056223e-001	 9.3927627694e-001
 3.2500000000e+000	 0.0000000000e+000	 1.5178263491e+000
 3.2498725833e+000	 2.8778330992e-002	 1.4622724118e+000
 3.2494884889e+000	 5.7659003953e-002	 1.3968814190e+000
 3.2488449735e+000	 8.6639125561e-002	 1.3245959074e+000
 3.2479393266e+000	 1.1571573288e-001	 1.2481668776e+000
 3.2467688718e+000	 1.4488579349e-001	 1.1701463651e+000
 3.2453309691e+000	 1.7414620565e-001	 1.0928802781e+000
 3.2436230166e+000	 2.0349379852e-001	 1.0185015258e+000
 3.2416424524e+000	 2.3292533249e-001	 9.4892346501e-001
 3.2393867566e+000	 2.6243749943e-001	 8.8583368589e-001
 3.2368534530e+000	 2.9202692318e-001	 8.3068816527e-001
 2.9878647258e+000	 2.6956331372e-001	 1.0669564493e+000
 2.9852677950e+000	 2.9694476301e-001	 1.0263557383e+000
 2.9824101680e+000	 3.2439110650e-001	 9.9542760332e-001
 2.9792896912e+000	 3.5189904187e-001	 9.7606714535e-001
 2.9759042588e+000	 3.7946520596e-001	 9.7013934201e-001
 2.9722518140e+000	 4.0708617535e-001	 9.7947823839e-001
 2.9683303514e+000	 4.3475846709e-001	 1.0058862304e+000
 2.9641379186e+000	 4.6247853940e-001	 1.0511334438e+000
 2.9596726178e+000	 4.9024279252e-001	 1.1169572107e+000
 2.9549326076e+000	 5.1804756952e-001	 1.2050616459e+000
 2.9499161052e+000	 5.4588915724e-001	 1.3171173247e+000
 3.0127635985e+000	 2.7180967467e-001	 1.1292742966e+000
 3.0101450266e+000	 2.9941930270e-001	 1.1057492786e+000
 3.0072635860e+000	 3.2709436572e-001	 1.0889569846e+000
 3.0041171053e+000	 3.5483153389e-001	 1.0806970441e+000
 3.0007034609e+000	 3.8262741601e-001	 1.0827388455e+000
 2.9970205791e+000	 4.1047856015e-001	 1.0968208633e+000
 2.9930664377e+000	 4.3838145432e-001	 1.1246500836e+000
 2.9888390679e+000	 4.6633252723e-001	 1.1679015290e+000
 2.9843365562e+000	 4.9432814913e-001	 1.2282178874e+000
 2.9795570460e+000	 5.2236463260e-001	 1.3072092444e+000
 2.9744987394e+000	 5.5043823355e-001	 1.4064529220e+000
 3.0376624713e+000	 2.7405603562e-001	 1.1798112672e+000
 3.0350222582e+000	 3.0189384239e-001	 1.1723006411e+000
 3.0321170041e+000	 3.2979762494e-001	 1.1686543513e+000
 3.0289445194e+000	 3.5776402590e-001	 1.1705765125e+000
 3.0255026631e+000	 3.8578962606e-001	 1.1797408224e+000
 3.0217893442e+000	 4.1387094494e-001	 1.1977900254e+000
 3.0178025240e+000	 4.4200444154e-001	 1.2263354791e+000
 3.0135402172e+000	 4.7018651506e-001	 1.2669568271e+000
 3.0090004947e+000	 4.9841350573e-001	 1.3212017783e+000
 3.0041814844e+000	 5.2668169568e-001	 1.3905859970e+000
 2.9990813737e+000	 5.5498730986e-001	 1.4765931021e+000
 3.0625613440e+000	 2.7630239656e-001	 1.2186580186e+000
 3.0598994898e+000	 3.0436838209e-001	 1.2261714423e+000
 3.0569704222e+000	 3.3250088416e-001	 1.2347512692e+000
 3.0537719335e+000	 3.6069651792e-001	 1.2460060088e+000
 3.0503018652e+000	 3.8895183611e-001	 1.2615135192e+000
 3.0465581093e+000	 4.1726332974e-001	 1.2828206068e+000
 3.0425386102e+000	 4.4562742877e-001	 1.3114427351e+000
 3.0382413666e+000	 4.7404050289e-001	 1.3488638438e+000
 3.0336644332e+000	 5.0249886233e-001	 1.3965362807e+000
 3.0288059228e+000	 5.3099875876e-001	 1.4558808479e+000
 3.0236640079e+000	 5.5953638617e-001	 1.5282869638e+000
 3.0874602167e+000	 2.7854875751e-001	 1.2459123557e+000
 3.0847767215e+000	 3.0684292178e-001	 1.2675292262e+000
 3.0818238402e+000	 3.3520414338e-001	 1.2874840532e+000
 3.0785993476e+000	 3.6362900993e-001	 1.3072896040e+000
 3.0751010674e+000	 3.9211404616e-001	 1.3284277016e+000
 3.0713268744e+000	 4.2065571453e-001	 1.3523489602e+000
 3.0672746965e+000	 4.4925041599e-001	 1.3804726360e+000
 3.0629425159e+000	 4.7789449072e-001	 1.4141865930e+000
 3.0583283717e+000	 5.0658421894e-001	 1.4548473879e+000
 3.0534303612e+000	 5.3531582184e-001	 1.5037804732e+000
 3.0482466421e+000	 5.6408546248e-001	 1.5622805215e+000
 3.1123590894e+000	 2.8079511845e-001	 1.2616789452e+000
 3.1096539531e+000	 3.0931746147e-001	 1.2965472272e+000
 3.1066772583e+000	 3.3790740260e-001	 1.3270935769e+000
 3.1034267617e+000	 3.6656150195e-001	 1.3547348373e+000
 3.0999002695e+000	 3.9527625621e-001	 1.3808565546e+000
 3.0960956396e+000	 4.2404809933e-001	 1.4068128504e+000
 3.0920107827e+000	 4.5287340322e-001	 1.4339264142e+000
 3.0876436652e+000	 4.8174847854e-001	 1.4634886165e+000
 3.0829923102e+000	 5.1066957554e-001	 1.4967597463e+000
 3.0780547996e+000	 5.3963288491e-001	 1.5349693721e+000
 3.0728292763e+000	 5.6863453879e-001	 1.5793168289e+000
 3.1372579621e+000	 2.8304147940e-001	 1.2246094305e+000
 3.1345311847e+000	 3.1179200116e-001	 1.2710511708e+000
 3.1315306764e+000	 3.4061066182e-001	 1.3186001715e+000
 3.1282541758e+000	 3.6949399396e-001	 1.3683726587e+000
 3.1246994717e+000	 3.9843846626e-001	 1.4191755856e+000
 3.1208644047e+000	 4.2744048412e-001	 1.4466513976e+000
 3.1167468690e+000	 4.5649639044e-001	 1.4723057322e+000
 3.1123448145e+000	 4.8560246637e-001	 1.4973330027e+000
 3.1076562486e+000	 5.1475493214e-001	 1.5228967081e+000
 3.1026792380e+000	 5.4394994799e-001	 1.5501299526e+000
 3.0974119105e+000	 5.7318361510e-001	 1.5801360962e+000
 3.1621568348e+000	 2.8528784035e-001	 1.1364864959e+000
 3.1594084163e+000	 3.1426654084e-001	 1.1683578411e+000
 3.1563840944e+000	 3.4331392104e-001	 1.2016282941e+000
 3.1530815899e+000	 3.7242648597e-001	 1.2373100944e+000
 3.1494986739e+000	 4.0160067630e-001	 1.2761905375e+000
 3.1456331698e+000	 4.3083286891e-001	 1.3188283806e+000
 3.1414829553e+000	 4.6011937766e-001	 1.3655507072e+000
 3.1370459638e+000	 4.8945645420e-001	 1.4164502695e+000
 3.1323201871e+000	 5.1884028875e-001	 1.4713833279e+000
 3.1273036764e+000	 5.4826701107e-001	 1.5299680065e+000
 3.1219945447e+000	 5.7773269141e-001	 1.5654758024e+000
 3.1870557075e+000	 2.8753420129e-001	 1.0412931863e+000
 3.1842856480e+000	 3.1674108053e-001	 1.0582808849e+000
 3.1812375125e+000	 3.4601718025e-001	 1.0771148626e+000
 3.1779090040e+000	 3.7535897799e-001	 1.0987027600e+000
 3.1742978760e+000	 4.0476288635e-001	 1.1237204678e+000
 3.1704019349e+000	 4.3422525370e-001	 1.1526085574e+000
 3.1662190415e+000	 4.6374236489e-001	 1.1855691840e+000
 3.1617471132e+000	 4.9331044202e-001	 1.2225634835e+000
 3.1569841256e+000	 5.2292564535e-001	 1.2633094824e+000
 3.1519281148e+000	 5.5258407415e-001	 1.3072805401e+000
 3.1465771789e+000	 5.8228176772e-001	 1.3537043404e+000
 3.2119545803e+000	 2.8978056223e-001	 9.3927627694e-001
 3.2091628796e+000	 3.1921562022e-001	 9.4114907581e-001
 3.2060909306e+000	 3.4872043947e-001	 9.4547094214e-001
 3.2027364181e+000	 3.7829147000e-001	 9.5304425750e-001
 3.1990970782e+000	 4.0792509639e-001	 9.6443266039e-001
 3.1951707000e+000	 4.3761763849e-001	 9.7995749837e-001
 3.1909551278e+000	 4.6736535211e-001	 9.9969476865e-001
 3.1864482625e+000	 4.9716442985e-001	 1.0234725681e+000
 3.1816480641e+000	 5.2701100195e-001	 1.0508690727e+000
 3.1765525532e+000	 5.5690113723e-001	 1.0812110652e+000
 3.1711598131e+000	 5.8683084403e-001	 1.1135730297e+000
 3.2368534530e+000	 2.9202692318e-001	 8.3068816527e-001
 3.2340401112e+000	 3.2169015991e-001	 8.1729584989e-001
 3.2309443486e+000	 3.5142369869e-001	 8.0711133290e-001
 3.2275638322e+000	 3.8122396201e-001	 8.0083103062e-001
 3.2238962803e+000	 4.1108730644e-001	 7.9890543323e-001
 3.2199394651e+000	 4.4101002328e-001	 8.0153557687e-001
 3.2156912140e+000	 4.7098833933e-001	 8.0867001999e-001
 3.2111494118e+000	 5.0101841767e-001	 8.2000234508e-001
 3.2063120026e+000	 5.3109635855e-001	 8.3496920629e-001
 3.2011769916e+000	 5.6121820030e-001	 8.5274894228e-001
 3.1957424473e+000	 5.9137992034e-001	 8.7226077300e-001
 2.9499161052e+000	 5.4588915724e-001	 1.3171173247e+000
 2.9446213876e+000	 5.7376378727e-001	 1.0021396539e+000
 2.9390467935e+000	 6.0166763694e-001	 6.5261858435e-001
 2.9331907253e+000	 6.2959683048e-001	 3.5643112581e-001
 2.9270516504e+000	 6.5754744009e-001	 4.7701497699e-001
 2.9206281031e+000	 6.8551548720e-001	 5.7546704281e-001
 2.9139186865e+000	 7.1349694372e-001	 6.5114717843e-001
 2.9069220735e+000	 7.4148773336e-001	 7.0336689082e-001
 2.8996370091e+000	 7.6948373301e-001	 7.3139046228e-001
 2.8920623117e+000	 7.9748077418e-001	 7.3443622859e-001
 2.8841968746e+000	 8.2547464451e-001	 7.1167801228e-001
 2.9744987394e+000	 5.5043823355e-001	 1.4064529220e+000
 2.9691598992e+000	 5.7854515216e-001	 1.0574661525e+000
 2.9635388501e+000	 6.0668153392e-001	 6.7364441433e-001
 2.9576339813e+000	 6.3484347073e-001	 4.5115197903e-001
 2.9514437475e+000	 6.6302700209e-001	 5.6747118915e-001
 2.9449666706e+000	 6.9122811626e-001	 6.6187269138e-001
 2.9382013422e+000	 7.1944275158e-001	 7.3363727122e-001
 2.9311464241e+000	 7.4766679780e-001	 7.8199496318e-001
 2.9238006509e+000	 7.7589609745e-001	 8.0612625020e-001
 2.9161628310e+000	 8.0412644730e-001	 8.0516342385e-001
 2.9082318485e+000	 8.3235359987e-001	 7.7819210598e-001
 2.9990813737e+000	 5.5498730986e-001	 1.4765931021e+000
 2.9936984107e+000	 5.8332651705e-001	 1.0929015611e+000
 2.9880309068e+000	 6.1169543089e-001	 6.7409110327e-001
 2.9820772374e+000	 6.4009011098e-001	 5.3346560578e-001
 2.9758358445e+000	 6.6850656409e-001	 6.4463855389e-001
 2.9693052382e+000	 6.9694074532e-001	 7.3413585656e-001
 2.9624839979e+000	 7.2538855945e-001	 8.0115884004e-001
 2.9553707747e+000	 7.5384586224e-001	 8.4485563369e-001
 2.9479642926e+000	 7.8230846189e-001	 8.6432244564e-001
 2.9402633502e+000	 8.1077212041e-001	 8.5860500555e-001
 2.9322668225e+000	 8.3923255524e-001	 8.2670017516e-001
 3.0236640079e+000	 5.5953638617e-001	 1.5282869638e+000
 3.0182369223e+000	 5.8810788194e-001	 1.1092619869e+000
 3.0125229634e+000	 6.1670932786e-001	 6.5484176115e-001
 3.0065204934e+000	 6.4533675123e-001	 6.0390261152e-001
 3.0002279416e+000	 6.7398612608e-001	 7.0909877155e-001
 2.9936438057e+000	 7.0265337437e-001	 7.9288952147e-001
 2.9867666536e+000	 7.3133436731e-001	 8.5439631033e-001
 2.9795951253e+000	 7.6002492669e-001	 8.9268490063e-001
 2.9721279343e+000	 7.8872082633e-001	 9.0676672061e-001
 2.9643638695e+000	 8.1741779353e-001	 8.9560039013e-001
 2.9563017964e+000	 8.4611151061e-001	 8.5809342062e-001
 3.0482466421e+000	 5.6408546248e-001	 1.5622805215e+000
 3.0427754338e+000	 5.9288924684e-001	 1.1073594180e+000
 3.0370150200e+000	 6.2172322484e-001	 6.1677434570e-001
 3.0309637495e+000	 6.5058339149e-001	 6.6298741862e-001
 3.0246200387e+000	 6.7946568808e-001	 7.6142633133e-001
 3.0179823732e+000	 7.0836600343e-001	 8.3875843319e-001
 3.0110493093e+000	 7.3728017517e-001	 8.9402485019e-001
 3.0038194759e+000	 7.6620399113e-001	 9.2620848774e-001
 2.9962915761e+000	 7.9513319077e-001	 9.3423546002e-001
 2.9884643887e+000	 8.2406346665e-001	 9.1697669939e-001
 2.9803367704e+000	 8.5299046598e-001	 8.7324974649e-001
 3.0728292763e+000	 5.6863453879e-001	 1.5793168289e+000
 3.0673139454e+000	 5.9767061173e-001	 1.0880018880e+000
 3.0615070766e+000	 6.2673712181e-001	 6.0048612360e-001
 3.0554070055e+000	 6.5583003174e-001	 7.1123851372e-001
 3.0490121358e+000	 6.8494525008e-001	 8.0218879969e-001
 3.0423209407e+000	 7.1407863249e-001	 8.7235943210e-001
 3.0353319650e+000	 7.4322598304e-001	 9.2071074062e-001
 3.0280438265e+000	 7.7238305558e-001	 9.4614225522e-001
 3.0204552178e+000	 8.0154555521e-001	 9.4749421312e-001
 3.0125649080e+000	 8.3070913976e-001	 9.2354925227e-001
 3.0043717443e+000	 8.5986942135e-001	 8.7303429213e-001
 3.0974119105e+000	 5.7318361510e-001	 1.5801360962e+000
 3.0918524570e+000	 6.0245197662e-001	 1.0519936334e+000
 3.0859991332e+000	 6.3175101878e-001	 6.4702268041e-001
 3.0798502615e+000	 6.6107667200e-001	 7.4916868325e-001
 3.0734042329e+000	 6.9042481209e-001	 8.3194709506e-001
 3.0666595083e+000	 7.1979126155e-001	 8.9430176573e-001
 3.0596146208e+000	 7.4917179090e-001	 9.3511172822e-001
 3.0522681771e+000	 7.7856212002e-001	 9.5319259114e-001
 3.0446188595e+000	 8.0795791965e-001	 9.4729812356e-001
 3.0366654273e+000	 8.3735481288e-001	 9.1612203323e-001
 3.0284067183e+000	 8.6674837673e-001	 8.5829993868e-001
 3.1219945447e+000	 5.7773269141e-001	 1.5654758024e+000
 3.1163909685e+000	 6.0723334152e-001	 1.0001352423e+000
 3.1104911898e+000	 6.3676491576e-001	 6.8441108351e-001
 3.1042935176e+000	 6.6632331225e-001	 7.7728523788e-001
 3.0977963300e+000	 6.9590437409e-001	 8.5125574963e-001
 3.0909980758e+000	 7.2550389062e-001	 9.0518738762e-001
 3.0838972765e+000	 7.5511759877e-001	 9.3787736119e-001
 3.0764925277e+000	 7.8474118447e-001	 9.4805678433e-001
 3.0687825013e+000	 8.1437028410e-001	 9.3439233898e-001
 3.0607659465e+000	 8.4400048600e-001	 8.9548813846e-001
 3.0524416922e+000	 8.7362733210e-001	 8.2988779159e-001
 3.1465771789e+000	 5.8228176772e-001	 1.3537043404e+000
 3.1409294801e+000	 6.1201470641e-001	 8.0061814265e-001
 3.1349832464e+000	 6.4177881273e-001	 6.3217413270e-001
 3.1287367736e+000	 6.7156995251e-001	 7.6661586653e-001
 3.1221884270e+000	 7.0138393609e-001	 8.6066315874e-001
 3.1153366433e+000	 7.3121651968e-001	 9.0561124229e-001
 3.1081799322e+000	 7.6106340663e-001	 9.2964930956e-001
 3.1007168783e+000	 7.9092024892e-001	 9.3142337986e-001
 3.0929461430e+000	 8.2078264854e-001	 9.0951240154e-001
 3.0848664658e+000	 8.5064615913e-001	 8.6243020123e-001
 3.0764766662e+000	 8.8050628747e-001	 7.8862764070e-001
 3.1711598131e+000	 5.8683084403e-001	 1.1135730297e+000
 3.1654679917e+000	 6.1679607131e-001	 5.2592397589e-001
 3.1594753030e+000	 6.4679270971e-001	 4.6281124020e-001
 3.1531800297e+000	 6.7681659276e-001	 5.9022894239e-001
 3.1465805241e+000	 7.0686349809e-001	 6.9955562086e-001
 3.1396752108e+000	 7.3692914874e-001	 7.8937934653e-001
 3.1324625879e+000	 7.6700921450e-001	 8.5818997689e-001
 3.1249412290e+000	 7.9709931337e-001	 9.0397251792e-001
 3.1171097848e+000	 8.2719501299e-001	 8.7338462018e-001
 3.1089669851e+000	 8.5729183225e-001	 8.1772079742e-001
 3.1005116401e+000	 8.8738524285e-001	 7.3533839878e-001
 3.1957424473e+000	 5.9137992034e-001	 8.7226077300e-001
 3.1900065032e+000	 6.2157743620e-001	 2.5112254402e-001
 3.1839673596e+000	 6.5180660668e-001	 2.9753213692e-001
 3.1776232857e+000	 6.8206323302e-001	 4.1616088758e-001
 3.1709726212e+000	 7.1234306010e-001	 5.1748071246e-001
 3.1640137784e+000	 7.4264177780e-001	 6.0004411789e-001
 3.1567452436e+000	 7.7295502237e-001	 6.6230217399e-001
 3.1491655796e+000	 8.0327837781e-001	 7.0260289838e-001
 3.1412734265e+000	 8.3360737744e-001	 7.1918981732e-001
 3.1330675043e+000	 8.6393750537e-001	 7.1020071403e-001
 3.1245466141e+000	 8.9426419823e-001	 6.7082851986e-001
 2.8841968746e+000	 8.2547464451e-001	 7.1167801228e-001
 2.8760396675e+000	 8.5346108929e-001	 6.4609308809e-001
 2.8675897383e+000	 8.8143581311e-001	 5.9150705568e-001
 2.8588462143e+000	 9.0939448149e-001	 5.4741561758e-001
 2.8498083036e+000	 9.3733272262e-001	 5.1324968674e-001
 2.8404752965e+000	 9.6524612913e-001	 4.8837672734e-001
 2.8308465672e+000	 9.9313025989e-001	 4.7210226506e-001
 2.8209215744e+000	 1.0209806419e+000	 4.6367156558e-001
 2.8106998632e+000	 1.0487927723e+000	 4.6227147987e-001
 2.8001810658e+000	 1.0765621202e+000	 4.6703245397e-001
 2.7893649032e+000	 1.1042841287e+000	 4.7703070090e-001
 2.9082318485e+000	 8.3235359987e-001	 7.7819210598e-001
 2.9000066647e+000	 8.6057326503e-001	 7.1365904899e-001
 2.8914863195e+000	 8.8878111155e-001	 6.5842727693e-001
 2.8826699328e+000	 9.1697276883e-001	 6.1192851761e-001
 2.8735567061e+000	 9.4514382864e-001	 5.7352943387e-001
 2.8641459240e+000	 9.7328984687e-001	 5.4253307316e-001
 2.8544369552e+000	 1.0014063454e+000	 5.1818049016e-001
 2.8444292542e+000	 1.0294888139e+000	 4.9965254130e-001
 2.8341223620e+000	 1.0575327121e+000	 4.8607184949e-001
 2.8235159081e+000	 1.0855334712e+000	 4.7650493655e-001
 2.8126096107e+000	 1.1134864964e+000	 4.6996452080e-001
 2.9322668225e+000	 8.3923255524e-001	 8.2670017516e-001
 2.9239736620e+000	 8.6768544077e-001	 7.6361413090e-001
 2.9153829006e+000	 8.9612640999e-001	 7.0818076564e-001
 2.9064936512e+000	 9.2455105618e-001	 6.5976684569e-001
 2.8973051086e+000	 9.5295493466e-001	 6.1767374038e-001
 2.8878165515e+000	 9.8133356461e-001	 5.8113898132e-001
 2.8780273433e+000	 1.0096824309e+000	 5.4933799862e-001
 2.8679369340e+000	 1.0379969859e+000	 5.2138603271e-001
 2.8575448609e+000	 1.0662726518e+000	 4.9634021981e-001
 2.8468507503e+000	 1.0945048222e+000	 4.7320184859e-001
 2.8358543183e+000	 1.1226888642e+000	 4.5091878494e-001
 2.9563017964e+000	 8.4611151061e-001	 8.5809342062e-001
 2.9479406592e+000	 8.7479761651e-001	 7.9687472884e-001
 2.9392794818e+000	 9.0347170843e-001	 7.4170848701e-001
 2.9303173697e+000	 9.3212934352e-001	 6.9189548829e-001
 2.9210535112e+000	 9.6076604068e-001	 6.4667074013e-001
 2.9114871789e+000	 9.8937728235e-001	 6.0520513434e-001
 2.9016177314e+000	 1.0179585164e+000	 5.6660729803e-001
 2.8914446137e+000	 1.0465051580e+000	 5.2992562402e-001
 2.8809673597e+000	 1.0750125916e+000	 4.9415047853e-001
 2.8701855925e+000	 1.1034761732e+000	 4.5821658350e-001
 2.8590990258e+000	 1.1318912319e+000	 4.2100557027e-001
 2.9803367704e+000	 8.5299046598e-001	 8.7324974649e-001
 2.9719076564e+000	 8.8190979226e-001	 8.1434380322e-001
 2.9631760629e+000	 9.1081700687e-001	 7.5993785951e-001
 2.9541410881e+000	 9.3970763087e-001	 7.0926569909e-001
 2.9448019137e+000	 9.6857714670e-001	 6.6149487454e-001
 2.9351578064e+000	 9.9742100009e-001	 6.1572848916e-001
 2.9252081194e+000	 1.0262346019e+000	 5.7100716396e-001
 2.9149522935e+000	 1.0550133300e+000	 5.2631118795e-001
 2.9043898586e+000	 1.0837525314e+000	 4.8056284946e-001
 2.8935204347e+000	 1.1124475242e+000	 4.3262894570e-001
 2.8823437333e+000	 1.1410935996e+000	 3.8132346701e-001
 3.0043717443e+000	 8.5986942135e-001	 8.7303429213e-001
 2.9958746536e+000	 8.8902196800e-001	 8.1691141719e-001
 2.9870726441e+000	 9.1816230531e-001	 7.6378329670e-001
 2.9779648066e+000	 9.4728591821e-001	 7.1281564433e-001
 2.9685503162e+000	 9.7638825273e-001	 6.6310744025e-001
 2.9588284339e+000	 1.0054647178e+000	 6.1369282613e-001
 2.9487985075e+000	 1.0345106874e+000	 5.6354318928e-001
 2.9384599733e+000	 1.0635215020e+000	 5.1156943422e-001
 2.9278123575e+000	 1.0924924711e+000	 4.5662443912e-001
 2.9168552769e+000	 1.1214188752e+000	 3.9750569419e-001
 2.9055884408e+000	 1.1502959674e+000	 3.3295811815e-001
 3.0284067183e+000	 8.6674837673e-001	 8.5829993868e-001
 3.0198416509e+000	 8.9613414375e-001	 8.0545524844e-001
 3.0109692252e+000	 9.2550760376e-001	 7.5414672337e-001
 3.0017885250e+000	 9.5486420556e-001	 7.0347092214e-001
 2.9922987187e+000	 9.8419935875e-001	 6.5245711080e-001
 2.9824990614e+000	 1.0135084356e+000	 6.0006927194e-001
 2.9723888955e+000	 1.0427867729e+000	 5.4520830726e-001
 2.9619676531e+000	 1.0720296740e+000	 4.8671443186e-001
 2.9512348563e+000	 1.1012324109e+000	 4.2336975727e-001
 2.9401901191e+000	 1.1303902262e+000	 3.5390106023e-001
 2.9288331484e+000	 1.1594983351e+000	 2.7698273319e-001
 3.0524416922e+000	 8.7362733210e-001	 8.2988779159e-001
 3.0438086481e+000	 9.0324631949e-001	 7.8084107686e-001
 3.0348658064e+000	 9.3285290220e-001	 7.3191806715e-001
 3.0256122435e+000	 9.6244249291e-001	 6.8214505734e-001
 3.0160471213e+000	 9.9201046477e-001	 6.3048043355e-001
 3.0061696888e+000	 1.0215521533e+000	 5.7581679772e-001
 2.9959792836e+000	 1.0510628584e+000	 5.1698328997e-001
 2.9854753329e+000	 1.0805378460e+000	 4.5274810690e-001
 2.9746573552e+000	 1.1099723507e+000	 3.8182121280e-001
 2.9635249613e+000	 1.1393615772e+000	 3.0285724053e-001
 2.9520778559e+000	 1.1687007029e+000	 2.1445857766e-001
 3.0764766662e+000	 8.8050628747e-001	 7.8862764070e-001
 3.0677756453e+000	 9.1035849524e-001	 7.4392324922e-001
 3.0587623875e+000	 9.4019820065e-001	 6.9797572720e-001
 3.0494359619e+000	 9.7002078026e-001	 6.4973997306e-001
 3.0397955238e+000	 9.9982157080e-001	 5.9810230338e-001
 3.0298403163e+000	 1.0295958711e+000	 5.4188269396e-001
 3.0195696717e+000	 1.0593389439e+000	 4.7983722337e-001
 3.0089830127e+000	 1.0890460181e+000	 4.1066071668e-001
 2.9980798540e+000	 1.1187122905e+000	 3.3298958648e-001
 2.9868598036e+000	 1.1483329282e+000	 2.4540486737e-001
 2.9753225634e+000	 1.1779030706e+000	 1.4643543971e-001
 3.1005116401e+000	 8.8738524285e-001	 7.3533839878e-001
 3.0917426426e+000	 9.1747067099e-001	 6.9554512239e-001
 3.0826589687e+000	 9.4754349910e-001	 6.5318702102e-001
 3.0732596804e+000	 9.7759906761e-001	 6.0714644043e-001
 3.0635439263e+000	 1.0076326768e+000	 5.5623641433e-001
 3.0535109438e+000	 1.0376395888e+000	 4.9920302316e-001
 3.0431600597e+000	 1.0676150294e+000	 4.3472796019e-001
 3.0324906925e+000	 1.0975541901e+000	 3.6143130216e-001
 3.0215023529e+000	 1.1274522302e+000	 2.7787448162e-001
 3.0101946458e+000	 1.1573042792e+000	 1.8256345684e-001
 2.9985672709e+000	 1.1871054383e+000	 7.3952074923e-002
 3.1245466141e+000	 8.9426419823e-001	 6.7082851986e-001
 3.1157096398e+000	 9.2458284674e-001	 6.3653948598e-001
 3.1065555498e+000	 9.5488879754e-001	 5.9840861068e-001
 3.0970833988e+000	 9.8517735496e-001	 5.5524450749e-001
 3.0872923289e+000	 1.0154437829e+000	 5.0578569040e-001
 3.0771815712e+000	 1.0456833066e+000	 4.4870305174e-001
 3.0667504478e+000	 1.0758911149e+000	 3.8260255205e-001
 3.0559983723e+000	 1.1060623621e+000	 3.0602811927e-001
 3.0449248518e+000	 1.1361921700e+000	 2.1746475396e-001
 3.0335294880e+000	 1.1662756302e+000	 1.1534183636e-001
 3.0218119785e+000	 1.1963078061e+000	-1.9633693160e-003
 2.7893649032e+000	 1.1042841287e+000	 4.7703070090e-001
 2.7782511856e+000	 1.1319542172e+000	 4.2907065499e-001
 2.7668398140e+000	 1.1595677832e+000	 3.4358913832e-001
 2.7551307808e+000	 1.1871202048e+000	 2.1951439472e-001
 2.7431241712e+000	 1.2146068424e+000	 5.5769527207e-002
 2.7308201633e+000	 1.2420230416e+000	-1.4872409798e-001
 2.7182190297e+000	 1.2693641349e+000	-1.8283349345e-001
 2.7053211376e+000	 1.2966254442e+000	-1.5873004352e-001
 2.6921269500e+000	 1.3238022833e+000	-1.6169682067e-001
 2.6786370258e+000	 1.3508899601e+000	-1.9201067545e-001
 2.6648520205e+000	 1.3778837792e+000	-2.4996038354e-001
 2.8126096107e+000	 1.1134864964e+000	 4.6996452080e-001
 2.8014032788e+000	 1.1413871690e+000	 4.1025010990e-001
 2.7898968124e+000	 1.1692308481e+000	 3.1355545205e-001
 2.7780902040e+000	 1.1970128732e+000	 1.7878754945e-001
 2.7659835393e+000	 1.2247285661e+000	 4.8472053649e-003
 2.7535769980e+000	 1.2523732336e+000	-1.8415912396e-001
 2.7408708549e+000	 1.2799421693e+000	-1.3776058386e-001
 2.7278654804e+000	 1.3074306562e+000	-1.1718707963e-001
 2.7145613413e+000	 1.3348339690e+000	-1.2266638212e-001
 2.7009590010e+000	 1.3621473764e+000	-1.5443943699e-001
 2.6870591207e+000	 1.3893661440e+000	-2.1276074148e-001
 2.8358543183e+000	 1.1226888642e+000	 4.5091878494e-001
 2.8245553720e+000	 1.1508201208e+000	 3.8094897238e-001
 2.8129538109e+000	 1.1788939129e+000	 2.7453141928e-001
 2.8010496272e+000	 1.2069055415e+000	 1.3054984053e-001
 2.7888429074e+000	 1.2348502898e+000	-5.2119324054e-002
 2.7763338327e+000	 1.2627234256e+000	-1.4045744205e-001
 2.7635226802e+000	 1.2905202038e+000	-9.8238139562e-002
 2.7504098233e+000	 1.3182358682e+000	-8.0857162335e-002
 2.7369957325e+000	 1.3458656546e+000	-8.8504906493e-002
 2.7232809762e+000	 1.3734047928e+000	-1.2138652720e-001
 2.7092662209e+000	 1.4008485088e+000	-1.7972238344e-001
 2.8590990258e+000	 1.1318912319e+000	 4.2100557027e-001
 2.8477074652e+000	 1.1602530726e+000	 3.4228094262e-001
 2.8360108093e+000	 1.1885569778e+000	 2.2763260148e-001
 2.8240090504e+000	 1.2167982099e+000	 7.5918918367e-002
 2.8117022754e+000	 1.2449720135e+000	-1.1401010453e-001
 2.7990906674e+000	 1.2730736177e+000	-1.0284202147e-001
 2.7861745054e+000	 1.3010982382e+000	-6.4496662632e-002
 2.7729541661e+000	 1.3290410803e+000	-4.9995515886e-002
 2.7594301238e+000	 1.3568973403e+000	-5.9491676685e-002
 2.7456029514e+000	 1.3846622091e+000	-9.3154609537e-002
 2.7314733210e+000	 1.4123308736e+000	-1.5117066125e-001
 2.8823437333e+000	 1.1410935996e+000	 3.8132346701e-001
 2.8708595585e+000	 1.1696860244e+000	 2.9534688692e-001
 2.8590678078e+000	 1.1982200427e+000	 1.7396237088e-001
 2.8469684735e+000	 1.2266908783e+000	 1.6000880398e-002
 2.8345616435e+000	 1.2550937372e+000	-1.2902381072e-001
 2.8218475021e+000	 1.2834238097e+000	-7.1528300998e-002
 2.8088263307e+000	 1.3116762727e+000	-3.6776353709e-002
 2.7954985089e+000	 1.3398462923e+000	-2.4866464131e-002
 2.7818645150e+000	 1.3679290260e+000	-3.5914486376e-002
 2.7679249266e+000	 1.3959196254e+000	-7.0054279890e-002
 2.7536804212e+000	 1.4238132385e+000	-1.2743829160e-001
 2.9055884408e+000	 1.1502959674e+000	 3.3295811815e-001
 2.8940116517e+000	 1.1791189762e+000	 2.4123535101e-001
 2.8821248062e+000	 1.2078831075e+000	 1.1461239806e-001
 2.8699278967e+000	 1.2365835466e+000	-4.8109266853e-002
 2.8574210116e+000	 1.2652154609e+000	-9.9928030052e-002
 2.8446043368e+000	 1.2937740017e+000	-4.6741614481e-002
 2.8314781559e+000	 1.3222543071e+000	-1.5326724074e-002
 2.8180428517e+000	 1.3506515043e+000	-5.7430665478e-003
 2.8042989063e+000	 1.3789607117e+000	-1.8069299598e-002
 2.7902469018e+000	 1.4071770418e+000	-5.2403749253e-002
 2.7758875214e+000	 1.4352956033e+000	-1.0886506139e-001
 2.9288331484e+000	 1.1594983351e+000	 2.7698273319e-001
 2.9171637449e+000	 1.1885519280e+000	 1.8102304900e-001
 2.9051818047e+000	 1.2175461724e+000	 5.0663116304e-002
 2.8928873199e+000	 1.2464762150e+000	-1.1532716764e-001
 2.8802803797e+000	 1.2753371846e+000	-7.7817563160e-002
 2.8673611715e+000	 1.3041241937e+000	-2.8716798150e-002
 2.8541299812e+000	 1.3328323416e+000	-4.0622617445e-004
 2.8405871945e+000	 1.3614567164e+000	 7.0932284101e-003
 2.8267332975e+000	 1.3899923974e+000	-6.2599265136e-003
 2.8125688771e+000	 1.4184344581e+000	-4.0528541555e-002
 2.7980946215e+000	 1.4467779681e+000	-9.5797547192e-002
 2.9520778559e+000	 1.1687007029e+000	 2.1445857766e-001
 2.9403158381e+000	 1.1979848799e+000	 1.1577532914e-001
 2.9282388031e+000	 1.2272092372e+000	-1.6815836011e-002
 2.9158467430e+000	 1.2563688834e+000	-1.2796570294e-001
 2.9031397478e+000	 1.2854589082e+000	-6.2912700226e-002
 2.8901180061e+000	 1.3144743857e+000	-1.7697816534e-002
 2.8767818064e+000	 1.3434103761e+000	 7.7180983933e-003
 2.8631315373e+000	 1.3722619284e+000	 1.3352913587e-002
 2.8491676888e+000	 1.4010240831e+000	-7.9771451517e-004
 2.8348908523e+000	 1.4296918744e+000	-3.4761205744e-002
 2.8203017217e+000	 1.4582603330e+000	-8.8588847938e-002
 2.9753225634e+000	 1.1779030706e+000	 1.4643543971e-001
 2.9634679313e+000	 1.2074178317e+000	 4.6546617851e-002
 2.9512958016e+000	 1.2368723021e+000	-8.6765193718e-002
 2.9388061662e+000	 1.2662615518e+000	-1.1582547987e-001
 2.9259991159e+000	 1.2955806319e+000	-5.5443029293e-002
 2.9128748408e+000	 1.3248245777e+000	-1.3937405876e-002
 2.8994336316e+000	 1.3539884105e+000	 8.7709543932e-003
 2.8856758801e+000	 1.3830671404e+000	 1.2738737921e-002
 2.8716020800e+000	 1.4120557688e+000	-2.0012537993e-003
 2.8572128275e+000	 1.4409492908e+000	-3.5441041373e-002
 2.8425088219e+000	 1.4697426978e+000	-8.7598330144e-002
 2.9985672709e+000	 1.1871054383e+000	 7.3952074923e-002
 2.9866200245e+000	 1.2168507835e+000	-2.5619156969e-002
 2.9743528000e+000	 1.2465353670e+000	-1.5813566281e-001
 2.9617655894e+000	 1.2761542201e+000	-1.1150195506e-001
 2.9488584840e+000	 1.3057023556e+000	-5.5647075885e-002
 2.9356316755e+000	 1.3351747697e+000	-1.7696734148e-002
 2.9220854569e+000	 1.3645664450e+000	 2.4691128601e-003
 2.9082202229e+000	 1.3938723525e+000	 4.9460065917e-003
 2.8940364712e+000	 1.4230874545e+000	-1.0196096639e-002
 2.8795348027e+000	 1.4522067071e+000	-4.2913836952e-002
 2.8647159220e+000	 1.4812250626e+000	-9.3191384975e-002
 3.0218119785e+000	 1.1963078061e+000	-1.9633693160e-003
 3.0097721177e+000	 1.2262837353e+000	-9.9688162166e-002
 2.9974097985e+000	 1.2561984318e+000	-1.8377331484e-001
 2.9847250126e+000	 1.2860468885e+000	-1.1521953144e-001
 2.9717178521e+000	 1.3158240793e+000	-6.3771959254e-002
 2.9583885102e+000	 1.3455249618e+000	-2.9245076750e-002
 2.9447372821e+000	 1.3751444794e+000	-1.1478283757e-002
 2.9307645658e+000	 1.4046775645e+000	-1.0337132679e-002
 2.9164708625e+000	 1.4341191402e+000	-2.5714489613e-002
 2.9018567779e+000	 1.4634641235e+000	-5.7531620366e-002
 2.8869230222e+000	 1.4927074274e+000	-1.0573919653e-001
 2.6648520205e+000	 1.3778837792e+000	-2.4996038354e-001
 2.6507726869e+000	 1.4047790439e+000	-3.2136771525e-001
 2.6363998752e+000	 1.4315710593e+000	-3.8916151253e-001
 2.6217345334e+000	 1.4582551343e+000	-4.5331369318e-001
 2.6067777073e+000	 1.4848265841e+000	-5.1383347831e-001
 2.5915305413e+000	 1.5112807329e+000	-5.7076796909e-001
 2.5759942776e+000	 1.5376129167e+000	-6.2420262790e-001
 2.5601702572e+000	 1.5638184851e+000	-6.7426166115e-001
 2.5440599187e+000	 1.5898928045e+000	-7.2110830113e-001
 2.5276647993e+000	 1.6158312605e+000	-7.6494498441e-001
 2.5109865337e+000	 1.6416292602e+000	-8.0601342492e-001
 2.6870591207e+000	 1.3893661440e+000	-2.1276074148e-001
 2.6728624593e+000	 1.4164855360e+000	-2.7808637431e-001
 2.6583698742e+000	 1.4435008182e+000	-3.3978917261e-001
 2.6435823211e+000	 1.4704072604e+000	-3.9786508309e-001
 2.6285008549e+000	 1.4972001389e+000	-4.5234871706e-001
 2.6131266291e+000	 1.5238747391e+000	-5.0331392132e-001
 2.5974608966e+000	 1.5504263577e+000	-5.5087425032e-001
 2.5815050093e+000	 1.5768503058e+000	-5.9518333664e-001
 2.5652604181e+000	 1.6031419112e+000	-6.3643515715e-001
 2.5487286726e+000	 1.6292965210e+000	-6.7486419246e-001
 2.5319114214e+000	 1.6553095040e+000	-7.1074547767e-001
 2.7092662209e+000	 1.4008485088e+000	-1.7972238344e-001
 2.6949522317e+000	 1.4281920280e+000	-2.3991674091e-001
 2.6803398731e+000	 1.4554305770e+000	-2.9645631154e-001
 2.6654301089e+000	 1.4825593865e+000	-3.4936061051e-001
 2.6502240024e+000	 1.5095736938e+000	-3.9868921201e-001
 2.6347227169e+000	 1.5364687452e+000	-4.4454231513e-001
 2.6189275156e+000	 1.5632397986e+000	-4.8706120764e-001
 2.6028397614e+000	 1.5898821265e+000	-5.2642862485e-001
 2.5864609174e+000	 1.6163910179e+000	-5.6286900074e-001
 2.5697925460e+000	 1.6427617815e+000	-5.9664860900e-001
 2.5528363092e+000	 1.6689897478e+000	-6.2807559188e-001
 2.7314733210e+000	 1.4123308736e+000	-1.5117066125e-001
 2.7170420041e+000	 1.4398985200e+000	-2.0717410773e-001
 2.7023098721e+000	 1.4673603358e+000	-2.5946784886e-001
 2.6872778967e+000	 1.4947115126e+000	-3.0809451193e-001
 2.6719471500e+000	 1.5219472487e+000	-3.5313821117e-001
 2.6563188048e+000	 1.5490627513e+000	-3.9472510938e-001
 2.6403941346e+000	 1.5760532396e+000	-4.3302387419e-001
 2.6241745136e+000	 1.6029139472e+000	-4.6824602586e-001
 2.6076614167e+000	 1.6296401246e+000	-5.0064617408e-001
 2.5908564193e+000	 1.6562270420e+000	-5.3052214110e-001
 2.5737611970e+000	 1.6826699917e+000	-5.5821496915e-001
 2.7536804212e+000	 1.4238132385e+000	-1.2743829160e-001
 2.7391317765e+000	 1.4516050121e+000	-1.8018160939e-001
 2.7242798711e+000	 1.4792900947e+000	-2.2913702153e-001
 2.7091256845e+000	 1.5068636388e+000	-2.7436981484e-001
 2.6936702975e+000	 1.5343208035e+000	-3.1598822495e-001
 2.6779148926e+000	 1.5616567574e+000	-3.5414399447e-001
 2.6618607536e+000	 1.5888666806e+000	-3.8903282238e-001
 2.6455092657e+000	 1.6159457679e+000	-4.2089470160e-001
 2.6288619160e+000	 1.6428892313e+000	-4.5001414192e-001
 2.6119202926e+000	 1.6696923025e+000	-4.7672027582e-001
 2.5946860848e+000	 1.6963502355e+000	-5.0138684500e-001
 2.7758875214e+000	 1.4352956033e+000	-1.0886506139e-001
 2.7612215489e+000	 1.4633115041e+000	-1.5926990878e-001
 2.7462498700e+000	 1.4912198535e+000	-2.0578505120e-001
 2.7309734722e+000	 1.5190157649e+000	-2.4849798605e-001
 2.7153934451e+000	 1.5466943584e+000	-2.8754065571e-001
 2.6995109805e+000	 1.5742507635e+000	-3.2309000308e-001
 2.6833273725e+000	 1.6016801216e+000	-3.5536841481e-001
 2.6668440179e+000	 1.6289775887e+000	-3.8464404935e-001
 2.6500624153e+000	 1.6561383380e+000	-4.1123104661e-001
 2.6329841659e+000	 1.6831575630e+000	-4.3548961700e-001
 2.6156109726e+000	 1.7100304793e+000	-4.5782600758e-001
 2.7980946215e+000	 1.4467779681e+000	-9.5797547192e-002
 2.7833113213e+000	 1.4750179961e+000	-1.4477689829e-001
 2.7682198690e+000	 1.5031496123e+000	-1.8974082736e-001
 2.7528212600e+000	 1.5311678910e+000	-2.3079859681e-001
 2.7371165927e+000	 1.5590679133e+000	-2.6810544490e-001
 2.7211070683e+000	 1.5868447696e+000	-3.0186313945e-001
 2.7047939915e+000	 1.6144935625e+000	-3.3232041576e-001
 2.6881787700e+000	 1.6420094094e+000	-3.5977329561e-001
 2.6712629147e+000	 1.6693874448e+000	-3.8456528445e-001
 2.6540480393e+000	 1.6966228235e+000	-4.0708744415e-001
 2.6365358603e+000	 1.7237107232e+000	-4.2777833915e-001
 2.8203017217e+000	 1.4582603330e+000	-8.8588847938e-002
 2.8054010937e+000	 1.4867244882e+000	-1.3704741523e-001
 2.7901898679e+000	 1.5150793711e+000	-1.8134060551e-001
 2.7746690478e+000	 1.5433200171e+000	-2.2159900376e-001
 2.7588397402e+000	 1.5714414681e+000	-2.5800073686e-001
 2.7427031562e+000	 1.5994387757e+000	-2.9077202620e-001
 2.7262606105e+000	 1.6273070035e+000	-3.2018762100e-001
 2.7095135222e+000	 1.6550412301e+000	-3.4657110907e-001
 2.6924634140e+000	 1.6826365515e+000	-3.7029510197e-001
 2.6751119126e+000	 1.7100880840e+000	-3.9178129212e-001
 2.6574607481e+000	 1.7373909670e+000	-4.1150037939e-001
 2.8425088219e+000	 1.4697426978e+000	-8.7598330144e-002
 2.8274908661e+000	 1.4984309802e+000	-1.3643297051e-001
 2.8121598669e+000	 1.5270091300e+000	-1.8092771932e-001
 2.7965168356e+000	 1.5554721432e+000	-2.2123404476e-001
 2.7805628878e+000	 1.5838150230e+000	-2.5755255840e-001
 2.7642992440e+000	 1.6120327818e+000	-2.9013356762e-001
 2.7477272295e+000	 1.6401204445e+000	-3.1927750508e-001
 2.7308482743e+000	 1.6680730508e+000	-3.4533523182e-001
 2.7136639133e+000	 1.6958856582e+000	-3.6870821115e-001
 2.6961757859e+000	 1.7235533445e+000	-3.8984855049e-001
 2.6783856359e+000	 1.7510712108e+000	-4.0925890902e-001
 2.8647159220e+000	 1.4812250626e+000	-9.3191384975e-002
 2.8495806385e+000	 1.5101374722e+000	-1.4329148997e-001
 2.8341298659e+000	 1.5389388888e+000	-1.8885230640e-001
 2.8183646234e+000	 1.5676242694e+000	-2.3004574898e-001
 2.8022860354e+000	 1.5961885779e+000	-2.6709451328e-001
 2.7858953319e+000	 1.6246267879e+000	-3.0027262872e-001
 2.7691938485e+000	 1.6529338855e+000	-3.2990588486e-001
 2.7521830265e+000	 1.6811048715e+000	-3.5637212765e-001
 2.7348644126e+000	 1.7091347649e+000	-3.8010142253e-001
 2.7172396593e+000	 1.7370186050e+000	-4.0157608163e-001
 2.6993105237e+000	 1.7647514547e+000	-4.2133055292e-001
 2.8869230222e+000	 1.4927074274e+000	-1.0573919653e-001
 2.8716704108e+000	 1.5218439643e+000	-1.5798706769e-001
 2.8560998648e+000	 1.5508686476e+000	-2.0547104652e-001
 2.8402124111e+000	 1.5797763955e+000	-2.4838306026e-001
 2.8240091829e+000	 1.6085621327e+000	-2.8696749080e-001
 2.8074914197e+000	 1.6372207940e+000	-3.2152172901e-001
 2.7906604674e+000	 1.6657473264e+000	-3.5239659871e-001
 2.7735177786e+000	 1.6941366922e+000	-3.7999664661e-001
 2.7560649120e+000	 1.7223838716e+000	-4.0478029531e-001
 2.7383035326e+000	 1.7504838655e+000	-4.2725985638e-001
 2.7202354115e+000	 1.7784316985e+000	-4.4800140145e-001
 2.5109865337e+000	 1.6416292602e+000	-8.0601342492e-001
 2.4940268541e+000	 1.6672822350e+000	-7.7861428029e-001
 2.4767875899e+000	 1.6927856434e+000	-8.5222322538e-001
 2.4592706672e+000	 1.7181349730e+000	-9.1290998918e-001
 2.4414781082e+000	 1.7433257434e+000	-9.6069952001e-001
 2.4234120303e+000	 1.7683535086e+000	-9.9563400585e-001
 2.4050746461e+000	 1.7932138597e+000	-1.0177735992e+000
 2.3864682618e+000	 1.8179024274e+000	-1.0271971131e+000
 2.3675952769e+000	 1.8424148840e+000	-1.0240026860e+000
 2.3484581830e+000	 1.8667469467e+000	-1.0083084123e+000
 2.3290595627e+000	 1.8908943792e+000	-9.3245371161e-001
 2.5319114214e+000	 1.6553095040e+000	-7.1074547767e-001
 2.5148104112e+000	 1.6811762537e+000	-6.4670126969e-001
 2.4974274865e+000	 1.7068921905e+000	-6.0512190359e-001
 2.4797645894e+000	 1.7324527644e+000	-6.9721572537e-001
 2.4618237591e+000	 1.7578534579e+000	-7.7691587659e-001
 2.4436071306e+000	 1.7830897878e+000	-8.4416178277e-001
 2.4251169348e+000	 1.8081573086e+000	-8.9891028328e-001
 2.4063554973e+000	 1.8330516143e+000	-9.4113644931e-001
 2.3873252375e+000	 1.8577683414e+000	-9.7083437139e-001
 2.3680286678e+000	 1.8823031712e+000	-9.6846155869e-001
 2.3484683924e+000	 1.9066518324e+000	-8.9950274665e-001
 2.5528363092e+000	 1.6689897478e+000	-6.2807559188e-001
 2.5355939683e+000	 1.6950702723e+000	-5.8515229690e-001
 2.5180673831e+000	 1.7209987375e+000	-5.4087497198e-001
 2.5002585117e+000	 1.7467705559e+000	-4.9661310586e-001
 2.4821694100e+000	 1.7723811724e+000	-6.0418042035e-001
 2.4638022308e+000	 1.7978260671e+000	-7.0197636669e-001
 2.4451592235e+000	 1.8231007574e+000	-7.8755749707e-001
 2.4262427328e+000	 1.8482008012e+000	-8.6079561251e-001
 2.4070551982e+000	 1.8731217988e+000	-9.2158124399e-001
 2.3875991527e+000	 1.8978593958e+000	-9.1015602771e-001
 2.3678772221e+000	 1.9224092855e+000	-8.6848820799e-001
 2.5737611970e+000	 1.6826699917e+000	-5.5821496915e-001
 2.5563775254e+000	 1.7089642909e+000	-5.3452320671e-001
 2.5387072796e+000	 1.7351052845e+000	-5.0995022282e-001
 2.5207524339e+000	 1.7610883473e+000	-4.8580734885e-001
 2.5025150609e+000	 1.7869088869e+000	-4.6345246234e-001
 2.4839973311e+000	 1.8125623463e+000	-5.6924384647e-001
 2.4652015122e+000	 1.8380442062e+000	-6.8393734351e-001
 2.4461299684e+000	 1.8633499881e+000	-7.8645276582e-001
 2.4267851588e+000	 1.8884752561e+000	-8.4647437565e-001
 2.4071696375e+000	 1.9134156203e+000	-8.5621106766e-001
 2.3872860518e+000	 1.9381667387e+000	-8.3956807701e-001
 2.5946860848e+000	 1.6963502355e+000	-5.0138684500e-001
 2.5771610825e+000	 1.7228583095e+000	-4.9508722565e-001
 2.5593471762e+000	 1.7492118315e+000	-4.8834659901e-001
 2.5412463561e+000	 1.7754061388e+000	-4.8241923806e-001
 2.5228607118e+000	 1.8014366015e+000	-4.7860654711e-001
 2.5041924313e+000	 1.8272986255e+000	-4.7825565948e-001
 2.4852438010e+000	 1.8529876551e+000	-5.8827403587e-001
 2.4660172039e+000	 1.8784991749e+000	-7.1203591749e-001
 2.4465151195e+000	 1.9038287135e+000	-7.7371179655e-001
 2.4267401224e+000	 1.9289718449e+000	-8.0673647435e-001
 2.4066948815e+000	 1.9539241918e+000	-8.1289571199e-001
 2.6156109726e+000	 1.7100304793e+000	-4.5782600758e-001
 2.5979446396e+000	 1.7367523282e+000	-4.6712756480e-001
 2.5799870728e+000	 1.7633183786e+000	-4.7639562484e-001
 2.5617402783e+000	 1.7897239302e+000	-4.8682848043e-001
 2.5432063627e+000	 1.8159643160e+000	-4.9967218858e-001
 2.5243875316e+000	 1.8420349048e+000	-5.1621922316e-001
 2.5052860897e+000	 1.8679311039e+000	-5.3780699129e-001
 2.4859044394e+000	 1.8936483618e+000	-6.2442987184e-001
 2.4662450801e+000	 1.9191821709e+000	-7.0769279266e-001
 2.4463106072e+000	 1.9445280695e+000	-7.6183922652e-001
 2.4261037112e+000	 1.9696816450e+000	-7.8862003312e-001
 2.6365358603e+000	 1.7237107232e+000	-4.2777833915e-001
 2.6187281968e+000	 1.7506463468e+000	-4.5093702352e-001
 2.6006269694e+000	 1.7774249256e+000	-4.7443689857e-001
 2.5822342006e+000	 1.8040417216e+000	-4.9942133475e-001
 2.5635520136e+000	 1.8304920305e+000	-5.2708214769e-001
 2.5445826318e+000	 1.8567711840e+000	-5.5865830487e-001
 2.5253283784e+000	 1.8828745527e+000	-5.8533698504e-001
 2.5057916749e+000	 1.9087975487e+000	-5.8232987670e-001
 2.4859750407e+000	 1.9345356282e+000	-6.4848125243e-001
 2.4658810921e+000	 1.9600842940e+000	-7.2162359766e-001
 2.4455125409e+000	 1.9854390982e+000	-7.6688569853e-001
 2.6574607481e+000	 1.7373909670e+000	-4.1150037939e-001
 2.6395117539e+000	 1.7645403654e+000	-4.4681761202e-001
 2.6212668660e+000	 1.7915314726e+000	-4.8281777453e-001
 2.6027281228e+000	 1.8183595131e+000	-5.2059035363e-001
 2.5838976645e+000	 1.8450197450e+000	-5.6127401020e-001
 2.5647777321e+000	 1.8715074632e+000	-6.0605533924e-001
 2.5453706671e+000	 1.8978180015e+000	-6.2809786160e-001
 2.5256789104e+000	 1.9239467356e+000	-6.3416562962e-001
 2.5057050014e+000	 1.9498890856e+000	-6.2829671813e-001
 2.4854515770e+000	 1.9756405186e+000	-6.8619126249e-001
 2.4649213705e+000	 2.0011965513e+000	-7.4783327217e-001
 2.6783856359e+000	 1.7510712108e+000	-4.0925890902e-001
 2.6602953110e+000	 1.7784343840e+000	-4.5508019153e-001
 2.6419067626e+000	 1.8056380196e+000	-5.0189306022e-001
 2.6232220450e+000	 1.8326773045e+000	-5.5073413773e-001
 2.6042433154e+000	 1.8595474596e+000	-6.0268999821e-001
 2.5849728324e+000	 1.8862437425e+000	-6.4953410595e-001
 2.5654129558e+000	 1.9127614504e+000	-6.7535964311e-001
 2.5455661459e+000	 1.9390959225e+000	-6.8847566739e-001
 2.5254349620e+000	 1.9652425429e+000	-6.8987485164e-001
 2.5050220618e+000	 1.9911967431e+000	-6.8055991850e-001
 2.4843302002e+000	 2.0169540045e+000	-7.3159938367e-001
 2.6993105237e+000	 1.7647514547e+000	-4.2133055292e-001
 2.6810788681e+000	 1.7923284027e+000	-4.7604413122e-001
 2.6625466591e+000	 1.8197445667e+000	-5.3202472733e-001
 2.6437159673e+000	 1.8469950960e+000	-5.9025710127e-001
 2.6245889663e+000	 1.8740751741e+000	-6.5177679042e-001
 2.6051679326e+000	 1.9009800217e+000	-6.9621245997e-001
 2.5854552446e+000	 1.9277048992e+000	-7.2683154621e-001
 2.5654533815e+000	 1.9542451094e+000	-7.4500784778e-001
 2.5451649227e+000	 1.9805960003e+000	-7.5168615022e-001
 2.5245925467e+000	 2.0067529677e+000	-7.4782068364e-001
 2.5037390299e+000	 2.0327114576e+000	-7.3437328391e-001
 2.7202354115e+000	 1.7784316985e+000	-4.4800140145e-001
 2.7018624252e+000	 1.8062224213e+000	-5.1003698101e-001
 2.6831865557e+000	 1.8338511137e+000	-5.7358163627e-001
 2.6642098895e+000	 1.8613128874e+000	-6.3956924847e-001
 2.6449346172e+000	 1.8886028886e+000	-7.0223045454e-001
 2.6253630329e+000	 1.9157163009e+000	-7.4876034081e-001
 2.6054975333e+000	 1.9426483480e+000	-7.8222444749e-001
 2.5853406170e+000	 1.9693942963e+000	-8.0351036918e-001
 2.5648948833e+000	 1.9959494577e+000	-8.1351634073e-001
 2.5441630315e+000	 2.0223091922e+000	-8.1314943675e-001
 2.5231478596e+000	 2.0484689108e+000	-8.0332375999e-001
 2.3290595627e+000	 1.8908943792e+000	-9.3245371161e-001
 2.3094020889e+000	 1.9148529948e+000	-1.0304094552e+000
 2.2894885232e+000	 1.9386186582e+000	-1.1123470914e+000
 2.2693217148e+000	 1.9621872884e+000	-1.1791536610e+000
 2.2489045992e+000	 1.9855548604e+000	-1.2317422857e+000
 2.2282401967e+000	 2.0087174082e+000	-1.2710498259e+000
 2.2073316110e+000	 2.0316710262e+000	-1.2980344871e+000
 2.1861820279e+000	 2.0544118722e+000	-1.3136733821e+000
 2.1647947132e+000	 2.0769361689e+000	-1.3189600561e+000
 2.1431730113e+000	 2.0992402062e+000	-1.3149019790e+000
 2.1213203436e+000	 2.1213203435e+000	-1.3025180138e+000
 2.3484683924e+000	 1.9066518324e+000	-8.9950274665e-001
 2.3286471064e+000	 1.9308101031e+000	-9.9808961604e-001
 2.3085675943e+000	 1.9547738137e+000	-1.0804124505e+000
 2.2882327291e+000	 1.9785388491e+000	-1.1473937356e+000
 2.2676454708e+000	 2.0021011509e+000	-1.1999824227e+000
 2.2468088650e+000	 2.0254567199e+000	-1.2391515124e+000
 2.2257260411e+000	 2.0486016181e+000	-1.2658955868e+000
 2.2044002115e+000	 2.0715319712e+000	-1.2812282971e+000
 2.1828346691e+000	 2.0942439703e+000	-1.2861798115e+000
 2.1610327864e+000	 2.1167338746e+000	-1.2817942331e+000
 2.1389980131e+000	 2.1389980131e+000	-1.2691269911e+000
 2.3678772221e+000	 1.9224092855e+000	-8.6848820799e-001
 2.3478921238e+000	 1.9467672113e+000	-9.6744576553e-001
 2.3276466653e+000	 1.9709289692e+000	-1.0498792906e+000
 2.3071437434e+000	 1.9948904098e+000	-1.1167476699e+000
 2.2863863425e+000	 2.0186474414e+000	-1.1690366547e+000
 2.2653775333e+000	 2.0421960316e+000	-1.2077563699e+000
 2.2441204712e+000	 2.0655322100e+000	-1.2339387698e+000
 2.2226183951e+000	 2.0886520701e+000	-1.2486350487e+000
 2.2008746251e+000	 2.1115517717e+000	-1.2529130120e+000
 2.1788925615e+000	 2.1342275430e+000	-1.2478544158e+000
 2.1566756826e+000	 2.1566756826e+000	-1.2345522806e+000
 2.3872860518e+000	 1.9381667387e+000	-8.3956807701e-001
 2.3671371412e+000	 1.9627243196e+000	-9.3863080008e-001
 2.3467257363e+000	 1.9870841247e+000	-1.0208954867e+000
 2.3260547577e+000	 2.0112419706e+000	-1.0873583898e+000
 2.3051272142e+000	 2.0351937319e+000	-1.1390430413e+000
 2.2839462016e+000	 2.0589353434e+000	-1.1769976833e+000
 2.2625149013e+000	 2.0824628019e+000	-1.2022926473e+000
 2.2408365786e+000	 2.1057721690e+000	-1.2160176853e+000
 2.2189145810e+000	 2.1288595731e+000	-1.2192792630e+000
 2.1967523366e+000	 2.1517212114e+000	-1.2131978187e+000
 2.1743533521e+000	 2.1743533521e+000	-1.1989049987e+000
 2.4066948815e+000	 1.9539241918e+000	-8.1289571199e-001
 2.3863821586e+000	 1.9786814279e+000	-9.1179292582e-001
 2.3658048074e+000	 2.0032392801e+000	-9.9360415181e-001
 2.3449657720e+000	 2.0275935313e+000	-1.0593639844e+000
 2.3238680858e+000	 2.0517400224e+000	-1.1101347254e+000
 2.3025148699e+000	 2.0756746551e+000	-1.1470037373e+000
 2.2809093314e+000	 2.0993933938e+000	-1.1710807428e+000
 2.2590547622e+000	 2.1228922680e+000	-1.1834950763e+000
 2.2369545370e+000	 2.1461673745e+000	-1.1853928954e+000
 2.2146121117e+000	 2.1692148798e+000	-1.1779343600e+000
 2.1920310217e+000	 2.1920310217e+000	-1.1622907856e+000
 2.4261037112e+000	 1.9696816450e+000	-7.8862003312e-001
 2.4056271760e+000	 1.9946385362e+000	-8.8707584615e-001
 2.3848838784e+000	 2.0193944356e+000	-9.6814382799e-001
 2.3638767863e+000	 2.0439450920e+000	-1.0328978989e+000
 2.3426089575e+000	 2.0682863129e+000	-1.0824401299e+000
 2.3210835382e+000	 2.0924139668e+000	-1.1178980164e+000
 2.2993037615e+000	 2.1163239857e+000	-1.1404216960e+000
 2.2772729458e+000	 2.1400123669e+000	-1.1511811190e+000
 2.2549944929e+000	 2.1634751759e+000	-1.1513631770e+000
 2.2324718868e+000	 2.1867085482e+000	-1.1421687996e+000
 2.2097086912e+000	 2.2097086912e+000	-1.1248100239e+000
 2.4455125409e+000	 1.9854390982e+000	-7.6688569853e-001
 2.4248721934e+000	 2.0105956445e+000	-8.6461894045e-001
 2.4039629494e+000	 2.0355495911e+000	-9.4464866730e-001
 2.3827878006e+000	 2.0602966528e+000	-1.0080891192e+000
 2.3613498291e+000	 2.0848326034e+000	-1.0560831453e+000
 2.3396522065e+000	 2.1091532786e+000	-1.0897993955e+000
 2.3176981916e+000	 2.1332545775e+000	-1.1104294562e+000
 2.2954911293e+000	 2.1571324658e+000	-1.1191849364e+000
 2.2730344489e+000	 2.1807829773e+000	-1.1172945133e+000
 2.2503316619e+000	 2.2042022166e+000	-1.1060009434e+000
 2.2273863607e+000	 2.2273863607e+000	-1.0865580482e+000
 2.4649213705e+000	 2.0011965513e+000	-7.4783327217e-001
 2.4441172108e+000	 2.0265527528e+000	-8.4455743430e-001
 2.4230420204e+000	 2.0517047466e+000	-9.2324860483e-001
 2.4016988149e+000	 2.0766482135e+000	-9.8506234740e-001
 2.3800907008e+000	 2.1013788939e+000	-1.0311833076e+000
 2.3582208748e+000	 2.1258925903e+000	-1.0628223215e+000
 2.3360926217e+000	 2.1501851694e+000	-1.0812134670e+000
 2.3137093129e+000	 2.1742525648e+000	-1.0876110651e+000
 2.2910744048e+000	 2.1980907787e+000	-1.0832866388e+000
 2.2681914370e+000	 2.2216958849e+000	-1.0695258388e+000
 2.2450640303e+000	 2.2450640303e+000	-1.0476253426e+000
 2.4843302002e+000	 2.0169540045e+000	-7.3159938367e-001
 2.4633622282e+000	 2.0425098611e+000	-8.2702256173e-001
 2.4421210915e+000	 2.0678599021e+000	-9.0406952342e-001
 2.4206098292e+000	 2.0929997742e+000	-9.6393816905e-001
 2.3988315725e+000	 2.1179251844e+000	-1.0078559687e+000
 2.3767895431e+000	 2.1426319020e+000	-1.0370769859e+000
 2.3544870518e+000	 2.1671157613e+000	-1.0528788426e+000
 2.3319274965e+000	 2.1913726637e+000	-1.0565596339e+000
 2.3091143607e+000	 2.2153985802e+000	-1.0494347993e+000
 2.2860512121e+000	 2.2391895533e+000	-1.0328339604e+000
 2.2627416998e+000	 2.2627416998e+000	-1.0080977313e+000
 2.5037390299e+000	 2.0327114576e+000	-7.3437328391e-001
 2.4826072456e+000	 2.0584669694e+000	-8.1214171995e-001
 2.4612001625e+000	 2.0840150576e+000	-8.8723341066e-001
 2.4395208435e+000	 2.1093513350e+000	-9.4483321284e-001
 2.4175724441e+000	 2.1344714749e+000	-9.8621245873e-001
 2.3953582114e+000	 2.1593712138e+000	-1.0126694901e+000
 2.3728814819e+000	 2.1840463532e+000	-1.0255265353e+000
 2.3501456800e+000	 2.2084927626e+000	-1.0261265355e+000
 2.3271543167e+000	 2.2327063816e+000	-1.0158299266e+000
 2.3039109872e+000	 2.2566832217e+000	-9.9601138703e-001
 2.2804193693e+000	 2.2804193693e+000	-9.6805655847e-001
 2.5231478596e+000	 2.0484689108e+000	-8.0332375999e-001
 2.5018522630e+000	 2.0744240777e+000	-8.0677171658e-001
 2.4802792335e+000	 2.1001702130e+000	-8.7285850878e-001
 2.4584318577e+000	 2.1257028957e+000	-9.2786030269e-001
 2.4363133158e+000	 2.1510177654e+000	-9.6636024045e-001
 2.4139268797e+000	 2.1761105255e+000	-9.8970200247e-001
 2.3912759120e+000	 2.2009769451e+000	-9.9925349564e-001
 2.3683638636e+000	 2.2256128616e+000	-9.9640358872e-001
 2.3451942726e+000	 2.2500141830e+000	-9.8255880360e-001
 2.3217707623e+000	 2.2741768901e+000	-9.5913997125e-001
 2.2980970388e+000	 2.2980970388e+000	-9.2757886086e-001
 2.1213203436e+000	 2.1213203435e+000	-1.3025180138e+000
 2.0992402062e+000	 2.1431730113e+000	-1.3059197862e+000
 2.0769361689e+000	 2.1647947132e+000	-1.3057406135e+000
 2.0544118722e+000	 2.1861820279e+000	-1.3024757429e+000
 2.0316710262e+000	 2.2073316110e+000	-1.2966211682e+000
 2.0087174082e+000	 2.2282401967e+000	-1.2886716548e+000
 1.9855548604e+000	 2.2489045992e+000	-1.2791187796e+000
 1.9621872884e+000	 2.2693217148e+000	-1.2684489904e+000
 1.9386186582e+000	 2.2894885232e+000	-1.2571416916e+000
 1.9148529948e+000	 2.3094020889e+000	-1.2456673613e+000
 1.8908943792e+000	 2.3290595627e+000	-1.2344857047e+000
 2.1389980131e+000	 2.1389980131e+000	-1.2691269911e+000
 2.1167338746e+000	 2.1610327864e+000	-1.2600350435e+000
 2.0942439703e+000	 2.1828346691e+000	-1.2480018260e+000
 2.0715319712e+000	 2.2044002115e+000	-1.2336640388e+000
 2.0486016181e+000	 2.2257260411e+000	-1.2176581279e+000
 2.0254567199e+000	 2.2468088650e+000	-1.2006181247e+000
 2.0021011509e+000	 2.2676454708e+000	-1.1831735027e+000
 1.9785388491e+000	 2.2882327291e+000	-1.1659470570e+000
 1.9547738137e+000	 2.3085675943e+000	-1.1495528125e+000
 1.9308101031e+000	 2.3286471064e+000	-1.1345939658e+000
 1.9066518324e+000	 2.3484683924e+000	-1.1216608684e+000
 2.1566756826e+000	 2.1566756826e+000	-1.2345522806e+000
 2.1342275430e+000	 2.1788925615e+000	-1.2153659336e+000
 2.1115517717e+000	 2.2008746251e+000	-1.1938657884e+000
 2.0886520701e+000	 2.2226183951e+000	-1.1708297048e+000
 2.0655322100e+000	 2.2441204712e+000	-1.1470342919e+000
 2.0421960316e+000	 2.2653775333e+000	-1.1232525624e+000
 2.0186474414e+000	 2.2863863425e+000	-1.1002516062e+000
 1.9948904098e+000	 2.3071437434e+000	-1.0787902886e+000
 1.9709289692e+000	 2.3276466653e+000	-1.0596169804e+000
 1.9467672113e+000	 2.3478921238e+000	-1.0434673253e+000
 1.9224092855e+000	 2.3678772221e+000	-1.0310620515e+000
 2.1743533521e+000	 2.1743533521e+000	-1.1989049987e+000
 2.1517212114e+000	 2.1967523366e+000	-1.1719523254e+000
 2.1288595731e+000	 2.2189145810e+000	-1.1433014783e+000
 2.1057721690e+000	 2.2408365786e+000	-1.1138712238e+000
 2.0824628019e+000	 2.2625149013e+000	-1.0845780861e+000
 2.0589353434e+000	 2.2839462016e+000	-1.0563338153e+000
 2.0351937319e+000	 2.3051272142e+000	-1.0300428773e+000
 2.0112419706e+000	 2.3260547577e+000	-1.0065999700e+000
 1.9870841247e+000	 2.3467257363e+000	-9.8688757548e-001
 1.9627243196e+000	 2.3671371412e+000	-9.7177355152e-001
 1.9381667387e+000	 2.3872860518e+000	-9.6210877123e-001
 2.1920310217e+000	 2.1920310217e+000	-1.1622907856e+000
 2.1692148798e+000	 2.2146121117e+000	-1.1298306736e+000
 2.1461673745e+000	 2.2369545370e+000	-1.0962765102e+000
 2.1228922680e+000	 2.2590547622e+000	-1.0626877561e+000
 2.0993933938e+000	 2.2809093314e+000	-1.0301206422e+000
 2.0756746551e+000	 2.3025148699e+000	-9.9962545191e-001
 2.0517400224e+000	 2.3238680858e+000	-9.7224382541e-001
 2.0275935313e+000	 2.3449657720e+000	-9.4900609508e-001
 2.0032392801e+000	 2.3658048074e+000	-9.3092865736e-001
 1.9786814279e+000	 2.3863821586e+000	-9.1901138898e-001
 1.9539241918e+000	 2.4066948815e+000	-9.1423511379e-001
 2.2097086912e+000	 2.2097086912e+000	-1.1248100239e+000
 2.1867085482e+000	 2.2324718868e+000	-1.0890341546e+000
 2.1634751759e+000	 2.2549944929e+000	-1.0527571902e+000
 2.1400123669e+000	 2.2772729458e+000	-1.0171791124e+000
 2.1163239857e+000	 2.2993037615e+000	-9.8349568983e-001
 2.0924139668e+000	 2.3210835382e+000	-9.5289557302e-001
 2.0682863129e+000	 2.3426089575e+000	-9.2655741394e-001
 2.0439450920e+000	 2.3638767863e+000	-9.0564701829e-001
 2.0193944356e+000	 2.3848838784e+000	-8.9131453786e-001
 1.9946385362e+000	 2.4056271760e+000	-8.8469170999e-001
 1.9696816450e+000	 2.4261037112e+000	-8.8688915147e-001
 2.2273863607e+000	 2.2273863607e+000	-1.0865580482e+000
 2.2042022166e+000	 2.2503316619e+000	-1.0495927971e+000
 2.1807829773e+000	 2.2730344489e+000	-1.0127085679e+000
 2.1571324658e+000	 2.2954911293e+000	-9.7724572808e-001
 2.1332545775e+000	 2.3176981916e+000	-9.4453945293e-001
 2.1091532786e+000	 2.3396522065e+000	-9.1591663213e-001
 2.0848326034e+000	 2.3613498291e+000	-8.9269280369e-001
 2.0602966528e+000	 2.3827878006e+000	-8.7616912290e-001
 2.0355495911e+000	 2.4039629494e+000	-8.6762937418e-001
 2.0105956445e+000	 2.4248721934e+000	-8.6833703331e-001
 1.9854390982e+000	 2.4455125409e+000	-8.7953238765e-001
 2.2450640303e+000	 2.2450640303e+000	-1.0476253426e+000
 2.2216958849e+000	 2.2681914370e+000	-1.0115336058e+000
 2.1980907787e+000	 2.2910744048e+000	-9.7609448571e-001
 2.1742525648e+000	 2.3137093129e+000	-9.4278863849e-001
 2.1501851694e+000	 2.3360926217e+000	-9.1309055197e-001
 2.1258925903e+000	 2.3582208748e+000	-8.8846526385e-001
 2.1013788939e+000	 2.3800907008e+000	-8.7036510910e-001
 2.0766482135e+000	 2.4016988149e+000	-8.6022650490e-001
 2.0517047466e+000	 2.4230420204e+000	-8.5946678129e-001
 2.0265527528e+000	 2.4441172108e+000	-8.6948106558e-001
 2.0011965513e+000	 2.4649213705e+000	-8.9163922807e-001
 2.2627416998e+000	 2.2627416998e+000	-1.0080977313e+000
 2.2391895533e+000	 2.2860512121e+000	-9.7488067937e-001
 2.2153985802e+000	 2.3091143607e+000	-9.4287762618e-001
 2.1913726637e+000	 2.3319274965e+000	-9.1370945551e-001
 2.1671157613e+000	 2.3544870518e+000	-8.8898991015e-001
 2.1426319020e+000	 2.3767895431e+000	-8.7032212068e-001
 2.1179251844e+000	 2.3988315725e+000	-8.5929516564e-001
 2.0929997742e+000	 2.4206098292e+000	-8.5748067170e-001
 2.0678599021e+000	 2.4421210915e+000	-8.6642946251e-001
 2.0425098611e+000	 2.4633622282e+000	-8.8766826432e-001
 2.0169540045e+000	 2.4843302002e+000	-9.2269647680e-001
 2.2804193693e+000	 2.2804193693e+000	-9.6805655847e-001
 2.2566832217e+000	 2.3039109872e+000	-9.3965532341e-001
 2.2327063816e+000	 2.3271543167e+000	-9.1301955689e-001
 2.2084927626e+000	 2.3501456800e+000	-8.8991034526e-001
 2.1840463532e+000	 2.3728814819e+000	-8.7208066418e-001
 2.1593712138e+000	 2.3953582114e+000	-8.6127171723e-001
 2.1344714749e+000	 2.4175724441e+000	-8.5920930802e-001
 2.1093513350e+000	 2.4395208435e+000	-8.6760025494e-001
 2.0840150576e+000	 2.4612001625e+000	-8.8812885721e-001
 2.0584669694e+000	 2.4826072456e+000	-9.2245342126e-001
 2.0327114576e+000	 2.5037390299e+000	-9.5907282018e-001
 2.2980970388e+000	 2.2980970388e+000	-9.2757886086e-001
 2.2741768901e+000	 2.3217707623e+000	-9.0587615769e-001
 2.2500141830e+000	 2.3451942726e+000	-8.8648077334e-001
 2.2256128616e+000	 2.3683638636e+000	-8.7129400676e-001
 2.2009769451e+000	 2.3912759120e+000	-8.6220807915e-001
 2.1761105255e+000	 2.4139268797e+000	-8.6110228168e-001
 2.1510177654e+000	 2.4363133158e+000	-8.6983915876e-001
 2.1257028957e+000	 2.4584318577e+000	-8.9026073637e-001
 2.1001702130e+000	 2.4802792335e+000	-9.2418480483e-001
 2.0744240777e+000	 2.5018522630e+000	-9.6789660632e-001
 2.0484689108e+000	 2.5231478596e+000	-9.6167119120e-001
 1.8908943792e+000	 2.3290595627e+000	-1.2344857047e+000
 1.8667469467e+000	 2.3484581830e+000	-1.1189030936e+000
 1.8424148840e+000	 2.3675952769e+000	-1.0834523957e+000
 1.8179024274e+000	 2.3864682618e+000	-1.0536488979e+000
 1.7932138597e+000	 2.4050746461e+000	-1.0299423649e+000
 1.7683535086e+000	 2.4234120303e+000	-1.0127915453e+000
 1.7433257434e+000	 2.4414781082e+000	-1.0026636883e+000
 1.7181349730e+000	 2.4592706672e+000	-1.0000340249e+000
 1.6927856434e+000	 2.4767875899e+000	-1.0053852143e+000
 1.6672822350e+000	 2.4940268541e+000	-1.0192067582e+000
 1.6416292602e+000	 2.5109865337e+000	-9.4273183143e-001
 1.9066518324e+000	 2.3484683924e+000	-1.1216608684e+000
 1.8823031712e+000	 2.3680286678e+000	-1.0099311351e+000
 1.8577683414e+000	 2.3873252375e+000	-9.8670876636e-001
 1.8330516143e+000	 2.4063554973e+000	-1.0018304770e+000
 1.8081573086e+000	 2.4251169348e+000	-1.0217707398e+000
 1.7830897878e+000	 2.4436071306e+000	-1.0468424493e+000
 1.7578534579e+000	 2.4618237591e+000	-1.0773694594e+000
 1.7324527644e+000	 2.4797645894e+000	-1.1136862011e+000
 1.7068921905e+000	 2.4974274865e+000	-1.1561372610e+000
 1.6811762537e+000	 2.5148104112e+000	-1.0782516509e+000
 1.6553095040e+000	 2.5319114214e+000	-9.7880134891e-001
 1.9224092855e+000	 2.3678772221e+000	-1.0310620515e+000
 1.8978593958e+000	 2.3875991527e+000	-9.5704611480e-001
 1.8731217988e+000	 2.4070551982e+000	-9.0301905836e-001
 1.8482008012e+000	 2.4262427328e+000	-9.5962357324e-001
 1.8231007574e+000	 2.4451592235e+000	-1.0197769113e+000
 1.7978260671e+000	 2.4638022308e+000	-1.0836476483e+000
 1.7723811724e+000	 2.4821694100e+000	-1.1514177769e+000
 1.7467705559e+000	 2.5002585117e+000	-1.2212861962e+000
 1.7209987375e+000	 2.5180673831e+000	-1.1537146730e+000
 1.6950702723e+000	 2.5355939683e+000	-1.0819765911e+000
 1.6689897478e+000	 2.5528363092e+000	-1.0083401065e+000
 1.9381667387e+000	 2.3872860518e+000	-9.6210877123e-001
 1.9134156203e+000	 2.4071696375e+000	-9.2209309028e-001
 1.8884752561e+000	 2.4267851588e+000	-8.9325915155e-001
 1.8633499881e+000	 2.4461299684e+000	-9.2716065542e-001
 1.8380442062e+000	 2.4652015122e+000	-1.0241798500e+000
 1.8125623463e+000	 2.4839973311e+000	-1.1235118914e+000
 1.7869088869e+000	 2.5025150609e+000	-1.2071891437e+000
 1.7610883473e+000	 2.5207524339e+000	-1.1727897413e+000
 1.7351052845e+000	 2.5387072796e+000	-1.1305384540e+000
 1.7089642909e+000	 2.5563775254e+000	-1.0826745644e+000
 1.6826699917e+000	 2.5737611970e+000	-1.0313911050e+000
 1.9539241918e+000	 2.4066948815e+000	-9.1423511379e-001
 1.9289718449e+000	 2.4267401224e+000	-9.0458521985e-001
 1.9038287135e+000	 2.4465151195e+000	-9.0575541181e-001
 1.8784991749e+000	 2.4660172039e+000	-9.1951679614e-001
 1.8529876551e+000	 2.4852438010e+000	-1.0352017783e+000
 1.8272986255e+000	 2.5041924313e+000	-1.1392050695e+000
 1.8014366015e+000	 2.5228607118e+000	-1.1393626335e+000
 1.7754061388e+000	 2.5412463561e+000	-1.1281325560e+000
 1.7492118315e+000	 2.5593471762e+000	-1.1077230741e+000
 1.7228583095e+000	 2.5771610825e+000	-1.0803001810e+000
 1.6963502355e+000	 2.5946860848e+000	-1.0479841661e+000
 1.9696816450e+000	 2.4261037112e+000	-8.8688915147e-001
 1.9445280695e+000	 2.4463106072e+000	-9.0404691128e-001
 1.9191821709e+000	 2.4662450801e+000	-9.3168918767e-001
 1.8936483618e+000	 2.4859044394e+000	-9.7149793251e-001
 1.8679311039e+000	 2.5052860897e+000	-1.0216588751e+000
 1.8420349048e+000	 2.5243875316e+000	-1.0575283149e+000
 1.8159643160e+000	 2.5432063627e+000	-1.0786212733e+000
 1.7897239302e+000	 2.5617402783e+000	-1.0871128918e+000
 1.7633183786e+000	 2.5799870728e+000	-1.0851400860e+000
 1.7367523282e+000	 2.5979446396e+000	-1.0747979753e+000
 1.7100304793e+000	 2.6156109726e+000	-1.0581364594e+000
 1.9854390982e+000	 2.4455125409e+000	-8.7953238765e-001
 1.9600842940e+000	 2.4658810921e+000	-9.2001337537e-001
 1.9345356282e+000	 2.4859750407e+000	-9.7066916422e-001
 1.9087975487e+000	 2.5057916749e+000	-1.0024199987e+000
 1.8828745527e+000	 2.5253283784e+000	-9.6253765800e-001
 1.8567711840e+000	 2.5445826318e+000	-9.8607558647e-001
 1.8304920305e+000	 2.5635520136e+000	-1.0246875916e+000
 1.8040417216e+000	 2.5822342006e+000	-1.0495243361e+000
 1.7774249256e+000	 2.6006269694e+000	-1.0626538624e+000
 1.7506463468e+000	 2.6187281968e+000	-1.0661028057e+000
 1.7237107232e+000	 2.6365358603e+000	-1.0618530046e+000
 2.0011965513e+000	 2.4649213705e+000	-8.9163922807e-001
 1.9756405186e+000	 2.4854515770e+000	-9.5203020064e-001
 1.9498890856e+000	 2.5057050014e+000	-9.9564289042e-001
 1.9239467356e+000	 2.5256789104e+000	-9.7213715222e-001
 1.8978180015e+000	 2.5453706671e+000	-9.4392677663e-001
 1.8715074632e+000	 2.5647777321e+000	-9.2449851573e-001
 1.8450197450e+000	 2.5838976645e+000	-9.7728207317e-001
 1.8183595131e+000	 2.6027281228e+000	-1.0151559961e+000
 1.7915314726e+000	 2.6212668660e+000	-1.0401218781e+000
 1.7645403654e+000	 2.6395117539e+000	-1.0541402355e+000
 1.7373909670e+000	 2.6574607481e+000	-1.0591271498e+000
 2.0169540045e+000	 2.4843302002e+000	-9.2269647680e-001
 1.9911967431e+000	 2.5050220618e+000	-9.7916554989e-001
 1.9652425429e+000	 2.5254349620e+000	-9.7129592925e-001
 1.9390959225e+000	 2.5455661459e+000	-9.5714882703e-001
 1.9127614504e+000	 2.5654129558e+000	-9.3747044700e-001
 1.8862437425e+000	 2.5849728324e+000	-9.1299184204e-001
 1.8595474596e+000	 2.6042433154e+000	-9.3612323804e-001
 1.8326773045e+000	 2.6232220450e+000	-9.8379267370e-001
 1.8056380196e+000	 2.6419067626e+000	-1.0173949799e+000
 1.7784343840e+000	 2.6602953110e+000	-1.0388268960e+000
 1.7510712108e+000	 2.6783856359e+000	-1.0499410274e+000
 2.0327114576e+000	 2.5037390299e+000	-9.5907282018e-001
 2.0067529677e+000	 2.5245925467e+000	-9.6578625937e-001
 1.9805960003e+000	 2.5451649227e+000	-9.6487326019e-001
 1.9542451094e+000	 2.5654533815e+000	-9.5698844589e-001
 1.9277048992e+000	 2.5854552446e+000	-9.4277297961e-001
 1.9009800217e+000	 2.6051679326e+000	-9.2285352032e-001
 1.8740751741e+000	 2.6245889663e+000	-9.0092771820e-001
 1.8469950960e+000	 2.6437159673e+000	-9.5521503248e-001
 1.8197445667e+000	 2.6625466591e+000	-9.9431764330e-001
 1.7923284027e+000	 2.6810788681e+000	-1.0200708329e+000
 1.7647514547e+000	 2.6993105237e+000	-1.0342659887e+000
 2.0484689108e+000	 2.5231478596e+000	-9.6167119120e-001
 2.0223091922e+000	 2.5441630315e+000	-9.7285343484e-001
 1.9959494577e+000	 2.5648948833e+000	-9.7584419101e-001
 1.9693942963e+000	 2.5853406170e+000	-9.7119419671e-001
 1.9426483480e+000	 2.6054975333e+000	-9.5944124256e-001
 1.9157163009e+000	 2.6253630329e+000	-9.4110922672e-001
 1.8886028886e+000	 2.6449346172e+000	-9.1670726961e-001
 1.8613128874e+000	 2.6642098895e+000	-9.2919975680e-001
 1.8338511137e+000	 2.6831865557e+000	-9.7072821777e-001
 1.8062224213e+000	 2.7018624252e+000	-9.9777183617e-001
 1.7784316985e+000	 2.7202354115e+000	-1.0120630188e+000
 1.6416292602e+000	 2.5109865337e+000	-9.4273183143e-001
 1.6158312605e+000	 2.5276647993e+000	-9.3867659458e-001
 1.5898928045e+000	 2.5440599187e+000	-9.3109013080e-001
 1.5638184851e+000	 2.5601702572e+000	-9.2105300771e-001
 1.5376129167e+000	 2.5759942776e+000	-9.0960217724e-001
 1.5112807329e+000	 2.5915305413e+000	-8.9772922877e-001
 1.4848265841e+000	 2.6067777073e+000	-8.8637878312e-001
 1.4582551343e+000	 2.6217345334e+000	-8.7644702960e-001
 1.4315710593e+000	 2.6363998752e+000	-8.6878040762e-001
 1.4047790439e+000	 2.6507726869e+000	-8.6417443398e-001
 1.3778837792e+000	 2.6648520205e+000	-8.6337267656e-001
 1.6553095040e+000	 2.5319114214e+000	-9.7880134891e-001
 1.6292965210e+000	 2.5487286726e+000	-9.7309268417e-001
 1.6031419112e+000	 2.5652604181e+000	-9.6425216090e-001
 1.5768503058e+000	 2.5815050093e+000	-9.5339511173e-001
 1.5504263577e+000	 2.5974608966e+000	-9.4159133921e-001
 1.5238747391e+000	 2.6131266291e+000	-9.2986332535e-001
 1.4972001389e+000	 2.6285008549e+000	-9.1918458693e-001
 1.4704072604e+000	 2.6435823211e+000	-9.1047817846e-001
 1.4435008182e+000	 2.6583698742e+000	-9.0461534446e-001
 1.4164855360e+000	 2.6728624593e+000	-9.0241432227e-001
 1.3893661440e+000	 2.6870591207e+000	-9.0463929586e-001
 1.6689897478e+000	 2.5528363092e+000	-1.0083401065e+000
 1.6427617815e+000	 2.5697925460e+000	-1.0007933889e+000
 1.6163910179e+000	 2.5864609174e+000	-9.9052903475e-001
 1.5898821265e+000	 2.6028397614e+000	-9.7869796782e-001
 1.5632397986e+000	 2.6189275156e+000	-9.6640362920e-001
 1.5364687452e+000	 2.6347227169e+000	-9.5470014230e-001
 1.5095736938e+000	 2.6502240024e+000	-9.4459062855e-001
 1.4825593865e+000	 2.6654301089e+000	-9.3702567558e-001
 1.4554305770e+000	 2.6803398731e+000	-9.3290195948e-001
 1.4281920280e+000	 2.6949522317e+000	-9.3306102253e-001
 1.4008485088e+000	 2.7092662209e+000	-9.3828820668e-001
 1.6826699917e+000	 2.5737611970e+000	-1.0313911050e+000
 1.6562270420e+000	 2.5908564193e+000	-1.0218186147e+000
 1.6296401246e+000	 2.6076614167e+000	-1.0099580452e+000
 1.6029139472e+000	 2.6241745136e+000	-9.9699674397e-001
 1.5760532396e+000	 2.6403941346e+000	-9.8407258408e-001
 1.5490627513e+000	 2.6563188048e+000	-9.7227208421e-001
 1.5219472487e+000	 2.6719471500e+000	-9.6262868369e-001
 1.4947115126e+000	 2.6872778967e+000	-9.5612117515e-001
 1.4673603358e+000	 2.7023098721e+000	-9.5367229615e-001
 1.4398985200e+000	 2.7170420041e+000	-9.5614748121e-001
 1.4123308736e+000	 2.7314733210e+000	-9.6435377451e-001
 1.6963502355e+000	 2.5946860848e+000	-1.0479841661e+000
 1.6696923025e+000	 2.6119202926e+000	-1.0361950286e+000
 1.6428892313e+000	 2.6288619160e+000	-1.0225631826e+000
 1.6159457679e+000	 2.6455092657e+000	-1.0083132377e+000
 1.5888666806e+000	 2.6618607536e+000	-9.9461829845e-001
 1.5616567574e+000	 2.6779148926e+000	-9.8259803770e-001
 1.5343208035e+000	 2.6936702975e+000	-9.7331693051e-001
 1.5068636388e+000	 2.7091256845e+000	-9.6778265042e-001
 1.4792900947e+000	 2.7242798711e+000	-9.6694462987e-001
 1.4516050121e+000	 2.7391317765e+000	-9.7169278584e-001
 1.4238132385e+000	 2.7536804212e+000	-9.8285641133e-001
 1.7100304793e+000	 2.6156109726e+000	-1.0581364594e+000
 1.6831575630e+000	 2.6329841659e+000	-1.0439365881e+000
 1.6561383380e+000	 2.6500624153e+000	-1.0283556663e+000
 1.6289775887e+000	 2.6668440179e+000	-1.0126564108e+000
 1.6016801216e+000	 2.6833273725e+000	-9.9804796231e-001
 1.5742507635e+000	 2.6995109805e+000	-9.8568391213e-001
 1.5466943584e+000	 2.7153934451e+000	-9.7666049350e-001
 1.5190157649e+000	 2.7309734722e+000	-9.7201494095e-001
 1.4912198535e+000	 2.7462498700e+000	-9.7272401867e-001
 1.4633115041e+000	 2.7612215489e+000	-9.7970271933e-001
 1.4352956033e+000	 2.7758875214e+000	-9.9380313384e-001
 1.7237107232e+000	 2.6365358603e+000	-1.0618530046e+000
 1.6966228235e+000	 2.6540480393e+000	-1.0450450459e+000
 1.6693874448e+000	 2.6712629147e+000	-1.0273344522e+000
 1.6420094094e+000	 2.6881787700e+000	-1.0100228987e+000
 1.6144935625e+000	 2.7047939915e+000	-9.9435637319e-001
 1.5868447696e+000	 2.7211070683e+000	-9.8152315459e-001
 1.5590679133e+000	 2.7371165927e+000	-9.7265196156e-001
 1.5311678910e+000	 2.7528212600e+000	-9.6881027377e-001
 1.5031496123e+000	 2.7682198690e+000	-9.7100282771e-001
 1.4750179961e+000	 2.7833113213e+000	-9.8017028799e-001
 1.4467779681e+000	 2.7980946215e+000	-9.9718809494e-001
 1.7373909670e+000	 2.6574607481e+000	-1.0591271498e+000
 1.7100880840e+000	 2.6751119126e+000	-1.0395104300e+000
 1.6826365515e+000	 2.6924634140e+000	-1.0194867152e+000
 1.6550412301e+000	 2.7095135222e+000	-1.0003974960e+000
 1.6273070035e+000	 2.7262606105e+000	-9.8352642398e-001
 1.5994387757e+000	 2.7427031562e+000	-9.7009724050e-001
 1.5714414681e+000	 2.7588397402e+000	-9.6127188143e-001
 1.5433200171e+000	 2.7746690478e+000	-9.5814875996e-001
 1.5150793711e+000	 2.7901898679e+000	-9.6176122900e-001
 1.4867244882e+000	 2.8054010937e+000	-9.7307622448e-001
 1.4582603330e+000	 2.8203017217e+000	-9.9299309022e-001
 1.7510712108e+000	 2.6783856359e+000	-1.0499410274e+000
 1.7235533445e+000	 2.6961757859e+000	-1.0273115021e+000
 1.6958856582e+000	 2.7136639133e+000	-1.0047883091e+000
 1.6680730508e+000	 2.7308482743e+000	-9.8375361851e-001
 1.6401204445e+000	 2.7477272295e+000	-9.6552956802e-001
 1.6120327818e+000	 2.7642992440e+000	-9.5137614129e-001
 1.5838150230e+000	 2.7805628878e+000	-9.4248922816e-001
 1.5554721432e+000	 2.7965168356e+000	-9.3999886791e-001
 1.5270091300e+000	 2.8121598669e+000	-9.4496767770e-001
 1.4984309802e+000	 2.8274908661e+000	-9.5838946730e-001
 1.4697426978e+000	 2.8425088219e+000	-9.8118804068e-001
 1.7647514547e+000	 2.6993105237e+000	-1.0342659887e+000
 1.7370186050e+000	 2.7172396593e+000	-1.0084161940e+000
 1.7091347649e+000	 2.7348644126e+000	-9.8320420589e-001
 1.6811048715e+000	 2.7521830265e+000	-9.6005374477e-001
 1.6529338855e+000	 2.7691938485e+000	-9.4032626244e-001
 1.6246267879e+000	 2.7858953319e+000	-9.2531877029e-001
 1.5961885779e+000	 2.8022860354e+000	-9.1626185359e-001
 1.5676242694e+000	 2.8183646234e+000	-9.1431787458e-001
 1.5389388888e+000	 2.8341298659e+000	-9.2057936627e-001
 1.5101374722e+000	 2.8495806385e+000	-9.3606761791e-001
 1.4812250626e+000	 2.8647159220e+000	-9.6173145295e-001
 1.7784316985e+000	 2.7202354115e+000	-1.0120630188e+000
 1.7504838655e+000	 2.7383035326e+000	-9.8278202395e-001
 1.7223838716e+000	 2.7560649120e+000	-9.5468891418e-001
 1.6941366922e+000	 2.7735177786e+000	-9.2924983644e-001
 1.6657473264e+000	 2.7906604674e+000	-9.0786639112e-001
 1.6372207940e+000	 2.8074914197e+000	-8.9187340803e-001
 1.6085621327e+000	 2.8240091829e+000	-8.8253691418e-001
 1.5797763955e+000	 2.8402124111e+000	-8.8105229598e-001
 1.5508686476e+000	 2.8560998648e+000	-8.8854265762e-001
 1.5218439643e+000	 2.8716704108e+000	-9.0605737675e-001
 1.4927074274e+000	 2.8869230222e+000	-9.3457085830e-001
 1.3778837792e+000	 2.6648520205e+000	-8.6337267656e-001
 1.3508899601e+000	 2.6786370258e+000	-7.3146141610e-001
 1.3238022833e+000	 2.6921269500e+000	-6.0139082000e-001
 1.2966254442e+000	 2.7053211376e+000	-4.7371781233e-001
 1.2693641349e+000	 2.7182190297e+000	-3.4894757478e-001
 1.2420230416e+000	 2.7308201633e+000	-2.9110744516e-001
 1.2146068424e+000	 2.7431241712e+000	-3.8568406075e-001
 1.1871202048e+000	 2.7551307808e+000	-4.7446512360e-001
 1.1595677832e+000	 2.7668398140e+000	-5.5678374416e-001
 1.1319542172e+000	 2.7782511856e+000	-6.3200243525e-001
 1.1042841287e+000	 2.7893649032e+000	-6.9951181299e-001
 1.3893661440e+000	 2.6870591207e+000	-9.0463929586e-001
 1.3621473764e+000	 2.7009590010e+000	-7.7426882908e-001
 1.3348339690e+000	 2.7145613413e+000	-6.4546662027e-001
 1.3074306562e+000	 2.7278654804e+000	-5.1882076862e-001
 1.2799421693e+000	 2.7408708549e+000	-3.9486620189e-001
 1.2523732336e+000	 2.7535769980e+000	-2.7408435993e-001
 1.2247285661e+000	 2.7659835393e+000	-3.5884491238e-001
 1.1970128732e+000	 2.7780902040e+000	-4.5603719847e-001
 1.1692308481e+000	 2.7898968124e+000	-5.4559104218e-001
 1.1413871690e+000	 2.8014032788e+000	-6.2690040071e-001
 1.1134864964e+000	 2.8126096107e+000	-6.9938846761e-001
 1.4008485088e+000	 2.7092662209e+000	-9.3828820668e-001
 1.3734047928e+000	 2.7232809762e+000	-8.0977318887e-001
 1.3458656546e+000	 2.7369957325e+000	-6.8259015514e-001
 1.3182358682e+000	 2.7504098233e+000	-5.5735856564e-001
 1.2905202038e+000	 2.7635226802e+000	-4.3464322918e-001
 1.2627234256e+000	 2.7763338327e+000	-3.1495396436e-001
 1.2348502898e+000	 2.7888429074e+000	-3.2223599209e-001
 1.2069055415e+000	 2.8010496272e+000	-4.2779716361e-001
 1.1788939129e+000	 2.8129538109e+000	-5.2453608903e-001
 1.1508201208e+000	 2.8245553720e+000	-6.1187892223e-001
 1.1226888642e+000	 2.8358543183e+000	-6.8928219539e-001
 1.4123308736e+000	 2.7314733210e+000	-9.6435377451e-001
 1.3846622091e+000	 2.7456029514e+000	-8.3800303352e-001
 1.3568973403e+000	 2.7594301238e+000	-7.1278429249e-001
 1.3290410803e+000	 2.7729541661e+000	-5.8934856451e-001
 1.3010982382e+000	 2.7861745054e+000	-4.6829068023e-001
 1.2730736177e+000	 2.7990906674e+000	-3.5014892671e-001
 1.2449720135e+000	 2.8117022754e+000	-2.7700640985e-001
 1.2167982099e+000	 2.8240090504e+000	-3.9087258386e-001
 1.1885569778e+000	 2.8360108093e+000	-4.9472440152e-001
 1.1602530726e+000	 2.8477074652e+000	-5.8802098428e-001
 1.1318912319e+000	 2.8590990258e+000	-6.7025298289e-001
 1.4238132385e+000	 2.7536804212e+000	-9.8285641133e-001
 1.3959196254e+000	 2.7679249266e+000	-8.5897310000e-001
 1.3679290260e+000	 2.7818645150e+000	-7.3605825962e-001
 1.3398462923e+000	 2.7954985089e+000	-6.1479465429e-001
 1.3116762727e+000	 2.8088263307e+000	-4.9580728298e-001
 1.2834238097e+000	 2.8218475021e+000	-3.7966299624e-001
 1.2550937372e+000	 2.8345616435e+000	-2.6687026661e-001
 1.2266908783e+000	 2.8469684735e+000	-3.4637830395e-001
 1.1982200427e+000	 2.8590678078e+000	-4.5724898319e-001
 1.1696860244e+000	 2.8708595585e+000	-5.5639727216e-001
 1.1410935996e+000	 2.8823437333e+000	-6.4334873869e-001
 1.4352956033e+000	 2.7758875214e+000	-9.9380313384e-001
 1.4071770418e+000	 2.7902469018e+000	-8.7268487621e-001
 1.3789607117e+000	 2.8042989063e+000	-7.5240818882e-001
 1.3506515043e+000	 2.8180428517e+000	-6.3368779085e-001
 1.3222543071e+000	 2.8314781559e+000	-5.1717900155e-001
 1.2937740017e+000	 2.8446043368e+000	-4.0347733528e-001
 1.2652154609e+000	 2.8574210116e+000	-2.9311825431e-001
 1.2365835466e+000	 2.8699278967e+000	-2.9541695733e-001
 1.2078831075e+000	 2.8821248062e+000	-4.1319082488e-001
 1.1791189762e+000	 2.8940116517e+000	-5.1806666396e-001
 1.1502959674e+000	 2.9055884408e+000	-6.0960577655e-001
 1.4467779681e+000	 2.7980946215e+000	-9.9718809494e-001
 1.4184344581e+000	 2.8125688771e+000	-8.7912712673e-001
 1.3899923974e+000	 2.8267332975e+000	-7.6181763706e-001
 1.3614567164e+000	 2.8405871945e+000	-6.4600651005e-001
 1.3328323416e+000	 2.8541299812e+000	-5.3237954276e-001
 1.3041241937e+000	 2.8673611715e+000	-4.2156101868e-001
 1.2753371846e+000	 2.8802803797e+000	-3.1411344326e-001
 1.2464762150e+000	 2.8928873199e+000	-2.3907945077e-001
 1.2175461724e+000	 2.9051818047e+000	-3.6361938139e-001
 1.1885519280e+000	 2.9171637449e+000	-4.7407669912e-001
 1.1594983351e+000	 2.9288331484e+000	-5.7004927551e-001
 1.4582603330e+000	 2.8203017217e+000	-9.9299309022e-001
 1.4296918744e+000	 2.8348908523e+000	-8.7827639377e-001
 1.4010240831e+000	 2.8491676888e+000	-7.6425808105e-001
 1.3722619284e+000	 2.8631315373e+000	-6.5171741679e-001
 1.3434103761e+000	 2.8767818064e+000	-5.4137083871e-001
 1.3144743857e+000	 2.8901180061e+000	-4.3387150971e-001
 1.2854589082e+000	 2.9031397478e+000	-3.2980903652e-001
 1.2563688834e+000	 2.9158467430e+000	-2.2970935233e-001
 1.2272092372e+000	 2.9282388031e+000	-3.0959302565e-001
 1.1979848799e+000	 2.9403158381e+000	-4.2546402482e-001
 1.1687007029e+000	 2.9520778559e+000	-5.2569371827e-001
 1.4697426978e+000	 2.8425088219e+000	-9.8118804068e-001
 1.4409492908e+000	 2.8572128275e+000	-8.7009747458e-001
 1.4120557688e+000	 2.8716020800e+000	-7.5968938916e-001
 1.3830671404e+000	 2.8856758801e+000	-6.5077565102e-001
 1.3539884105e+000	 2.8994336316e+000	-5.4410350668e-001
 1.3248245777e+000	 2.9128748408e+000	-4.4035511363e-001
 1.2955806319e+000	 2.9259991159e+000	-3.4014724242e-001
 1.2662615518e+000	 2.9388061662e+000	-2.4403114717e-001
 1.2368723021e+000	 2.9512958016e+000	-2.5215948163e-001
 1.2074178317e+000	 2.9634679313e+000	-3.7325482147e-001
 1.1779030706e+000	 2.9753225634e+000	-4.7754330901e-001
 1.4812250626e+000	 2.8647159220e+000	-9.6173145295e-001
 1.4522067071e+000	 2.8795348027e+000	-8.5454387669e-001
 1.4230874545e+000	 2.8940364712e+000	-7.4806027129e-001
 1.3938723525e+000	 2.9082202229e+000	-6.4312533211e-001
 1.3645664450e+000	 2.9220854569e+000	-5.4051728772e-001
 1.3351747697e+000	 2.9356316755e+000	-4.4094741018e-001
 1.3057023556e+000	 2.9488584840e+000	-3.4505970074e-001
 1.2761542201e+000	 2.9617655894e+000	-2.5343074874e-001
 1.2465353670e+000	 2.9743528000e+000	-1.9235623709e-001
 1.2168507835e+000	 2.9866200245e+000	-3.1846520841e-001
 1.1871054383e+000	 2.9985672709e+000	-4.2659237179e-001
 1.4927074274e+000	 2.8869230222e+000	-9.3457085830e-001
 1.4634641235e+000	 2.9018567779e+000	-8.3155825212e-001
 1.4341191402e+000	 2.9164708625e+000	-7.2930870813e-001
 1.4046775645e+000	 2.9307645658e+000	-6.2869998274e-001
 1.3751444794e+000	 2.9447372821e+000	-5.3054146500e-001
 1.3455249618e+000	 2.9583885102e+000	-4.3557366610e-001
 1.3158240793e+000	 2.9717178521e+000	-3.4446788921e-001
 1.2860468885e+000	 2.9847250126e+000	-2.5782607704e-001
 1.2561984318e+000	 2.9974097985e+000	-1.7618083368e-001
 1.2262837353e+000	 3.0097721177e+000	-2.6210163082e-001
 1.1963078061e+000	 3.0218119785e+000	-3.7382573055e-001
 1.1042841287e+000	 2.7893649032e+000	-6.9951181299e-001
 1.0765621202e+000	 2.8001810658e+000	-6.3180759640e-001
 1.0487927723e+000	 2.8106998632e+000	-5.6999372378e-001
 1.0209806419e+000	 2.8209215744e+000	-5.1387915634e-001
 9.9313025989e-001	 2.8308465672e+000	-4.6327723701e-001
 9.6524612913e-001	 2.8404752965e+000	-4.1800425779e-001
 9.3733272262e-001	 2.8498083036e+000	-3.7787805105e-001
 9.0939448149e-001	 2.8588462143e+000	-3.4271660917e-001
 8.8143581311e-001	 2.8675897383e+000	-3.1233673652e-001
 8.5346108929e-001	 2.8760396675e+000	-2.8655273780e-001
 8.2547464451e-001	 2.8841968746e+000	-2.6517514630e-001
 1.1134864964e+000	 2.8126096107e+000	-6.9938846761e-001
 1.0855334712e+000	 2.8235159081e+000	-6.4691219783e-001
 1.0575327121e+000	 2.8341223620e+000	-5.9819813337e-001
 1.0294888139e+000	 2.8444292542e+000	-5.5306789902e-001
 1.0014063454e+000	 2.8544369552e+000	-5.1134948318e-001
 9.7328984687e-001	 2.8641459240e+000	-4.7287572133e-001
 9.4514382864e-001	 2.8735567061e+000	-4.3748280257e-001
 9.1697276883e-001	 2.8826699328e+000	-4.0500880375e-001
 8.8878111155e-001	 2.8914863195e+000	-3.7529225549e-001
 8.6057326503e-001	 2.9000066647e+000	-3.4817074427e-001
 8.3235359987e-001	 2.9082318485e+000	-3.2347955430e-001
 1.1226888642e+000	 2.8358543183e+000	-6.8928219539e-001
 1.0945048222e+000	 2.8468507503e+000	-6.5106548027e-001
 1.0662726518e+000	 2.8575448609e+000	-6.1449722244e-001
 1.0379969859e+000	 2.8679369340e+000	-5.7941275951e-001
 1.0096824309e+000	 2.8780273433e+000	-5.4565576262e-001
 9.8133356461e-001	 2.8878165515e+000	-5.1307663455e-001
 9.5295493466e-001	 2.8973051086e+000	-4.8153092990e-001
 9.2455105618e-001	 2.9064936512e+000	-4.5087780232e-001
 8.9612640999e-001	 2.9153829006e+000	-4.2097848315e-001
 8.6768544077e-001	 2.9239736620e+000	-3.9169479578e-001
 8.3923255524e-001	 2.9322668225e+000	-3.6288770990e-001
 1.1318912319e+000	 2.8590990258e+000	-6.7025298289e-001
 1.1034761732e+000	 2.8701855925e+000	-6.4532592199e-001
 1.0750125916e+000	 2.8809673597e+000	-6.1994706675e-001
 1.0465051580e+000	 2.8914446137e+000	-5.9396652946e-001
 1.0179585164e+000	 2.9016177314e+000	-5.6724471444e-001
 9.8937728235e-001	 2.9114871789e+000	-5.3965062911e-001
 9.6076604068e-001	 2.9210535112e+000	-5.1106021643e-001
 9.3212934352e-001	 2.9303173697e+000	-4.8135471362e-001
 9.0347170843e-001	 2.9392794818e+000	-4.5041904191e-001
 8.7479761651e-001	 2.9479406592e+000	-4.1814023193e-001
 8.4611151061e-001	 2.9563017964e+000	-3.8440588891e-001
 1.1410935996e+000	 2.8823437333e+000	-6.4334873869e-001
 1.1124475242e+000	 2.8935204347e+000	-6.3073944391e-001
 1.0837525314e+000	 2.9043898586e+000	-6.1559072718e-001
 1.0550133300e+000	 2.9149522935e+000	-5.9776855008e-001
 1.0262346019e+000	 2.9252081194e+000	-5.7715111369e-001
 9.9742100009e-001	 2.9351578064e+000	-5.5362708115e-001
 9.6857714670e-001	 2.9448019137e+000	-5.2709382061e-001
 9.3970763087e-001	 2.9541410881e+000	-4.9745567400e-001
 9.1081700687e-001	 2.9631760629e+000	-4.6462225652e-001
 8.8190979226e-001	 2.9719076564e+000	-4.2850679146e-001
 8.5299046598e-001	 2.9803367704e+000	-3.8902448510e-001
 1.1502959674e+000	 2.9055884408e+000	-6.0960577655e-001
 1.1214188752e+000	 2.9168552769e+000	-6.0833991187e-001
 1.0924924711e+000	 2.9278123575e+000	-6.0245877029e-001
 1.0635215020e+000	 2.9384599733e+000	-5.9184525008e-001
 1.0345106874e+000	 2.9487985075e+000	-5.7639642598e-001
 1.0054647178e+000	 2.9588284339e+000	-5.5602168147e-001
 9.7638825273e-001	 2.9685503162e+000	-5.3064086084e-001
 9.4728591821e-001	 2.9779648066e+000	-5.0018244638e-001
 9.1816230531e-001	 2.9870726441e+000	-4.6458176601e-001
 8.8902196800e-001	 2.9958746536e+000	-4.2377923631e-001
 8.5986942135e-001	 3.0043717443e+000	-3.7771864544e-001
 1.1594983351e+000	 2.9288331484e+000	-5.7004927551e-001
 1.1303902262e+000	 2.9401901191e+000	-5.7914961500e-001
 1.1012324109e+000	 2.9512348563e+000	-5.8156976415e-001
 1.0720296740e+000	 2.9619676531e+000	-5.7721065816e-001
 1.0427867729e+000	 2.9723888955e+000	-5.6598933557e-001
 1.0135084356e+000	 2.9824990614e+000	-5.4783697863e-001
 9.8419935875e-001	 2.9922987187e+000	-5.2269697273e-001
 9.5486420556e-001	 3.0017885250e+000	-4.9052299058e-001
 9.2550760376e-001	 3.0109692252e+000	-4.5127710647e-001
 8.9613414375e-001	 3.0198416509e+000	-4.0492794587e-001
 8.6674837673e-001	 3.0284067183e+000	-3.5144887519e-001
 1.1687007029e+000	 2.9520778559e+000	-5.2569371827e-001
 1.1393615772e+000	 2.9635249613e+000	-5.4417972151e-001
 1.1099723507e+000	 2.9746573552e+000	-5.5393075070e-001
 1.0805378460e+000	 2.9854753329e+000	-5.5486689114e-001
 1.0510628584e+000	 2.9959792836e+000	-5.4692624865e-001
 1.0215521533e+000	 3.0061696888e+000	-5.3006289632e-001
 9.9201046477e-001	 3.0160471213e+000	-5.0424483982e-001
 9.6244249291e-001	 3.0256122435e+000	-4.6945200678e-001
 9.3285290220e-001	 3.0348658064e+000	-4.2567426623e-001
 9.0324631949e-001	 3.0438086481e+000	-3.7290948329e-001
 8.7362733210e-001	 3.0524416922e+000	-3.1116161428e-001
 1.1779030706e+000	 2.9753225634e+000	-4.7754330901e-001
 1.1483329282e+000	 2.9868598036e+000	-5.0443071312e-001
 1.1187122905e+000	 2.9980798540e+000	-5.2053769602e-001
 1.0890460181e+000	 3.0089830127e+000	-5.2580461929e-001
 1.0593389439e+000	 3.0195696717e+000	-5.2019177286e-001
 1.0295958711e+000	 3.0298403163e+000	-5.0367722659e-001
 9.9982157080e-001	 3.0397955238e+000	-4.7625469960e-001
 9.7002078026e-001	 3.0494359619e+000	-4.3793145347e-001
 9.4019820065e-001	 3.0587623875e+000	-3.8872621512e-001
 9.1035849524e-001	 3.0677756453e+000	-3.2866713514e-001
 8.8050628747e-001	 3.0764766662e+000	-2.5778978679e-001
 1.1871054383e+000	 2.9985672709e+000	-4.2659237179e-001
 1.1573042792e+000	 3.0101946458e+000	-4.6089279920e-001
 1.1274522302e+000	 3.0215023529e+000	-4.8237591961e-001
 1.0975541901e+000	 3.0324906925e+000	-4.9100350999e-001
 1.0676150294e+000	 3.0431600597e+000	-4.8675917468e-001
 1.0376395888e+000	 3.0535109438e+000	-4.6964609998e-001
 1.0076326768e+000	 3.0635439263e+000	-4.3968482586e-001
 9.7759906761e-001	 3.0732596804e+000	-3.9691104128e-001
 9.4754349910e-001	 3.0826589687e+000	-3.4137340901e-001
 9.1747067099e-001	 3.0917426426e+000	-2.7313142601e-001
 8.8738524285e-001	 3.1005116401e+000	-1.9225332478e-001
 1.1963078061e+000	 3.0218119785e+000	-3.7382573055e-001
 1.1662756302e+000	 3.0335294880e+000	-4.1454631194e-001
 1.1361921700e+000	 3.0449248518e+000	-4.4042050386e-001
 1.1060623621e+000	 3.0559983723e+000	-4.5143265091e-001
 1.0758911149e+000	 3.0667504478e+000	-4.4759081559e-001
 1.0456833066e+000	 3.0771815712e+000	-4.2892443410e-001
 1.0154437829e+000	 3.0872923289e+000	-3.9548198886e-001
 9.8517735496e-001	 3.0970833988e+000	-3.4732870411e-001
 9.5488879754e-001	 3.1065555498e+000	-2.8454427119e-001
 9.2458284674e-001	 3.1157096398e+000	-2.0722060936e-001
 8.9426419823e-001	 3.1245466141e+000	-1.1545966801e-001
 8.2547464451e-001	 2.8841968746e+000	-2.6517514630e-001
 7.9748077418e-001	 2.8920623117e+000	-1.8178086603e-001
 7.6948373301e-001	 2.8996370091e+000	-8.7195184639e-002
 7.4148773336e-001	 2.9069220735e+000	 1.8624297476e-002
 7.1349694372e-001	 2.9139186865e+000	 1.3571771886e-001
 6.8551548720e-001	 2.9206281031e+000	 2.6412433242e-001
 6.5754744009e-001	 2.9270516504e+000	 4.0388382997e-001
 6.2959683048e-001	 2.9331907253e+000	 5.5503761306e-001
 6.0166763694e-001	 2.9390467935e+000	 4.1523317612e-001
 5.7376378727e-001	 2.9446213876e+000	 2.2911130698e-001
 5.4588915724e-001	 2.9499161052e+000	 5.7397893509e-002
 8.3235359987e-001	 2.9082318485e+000	-3.2347955430e-001
 8.0412644730e-001	 2.9161628310e+000	-2.3872564140e-001
 7.7589609745e-001	 2.9238006509e+000	-1.4397938632e-001
 7.4766679780e-001	 2.9311464241e+000	-3.9310463473e-002
 7.1944275158e-001	 2.9382013422e+000	 7.5212136073e-002
 6.9122811626e-001	 2.9449666706e+000	 1.9952157367e-001
 6.6302700209e-001	 2.9514437475e+000	 3.3355457494e-001
 6.3484347073e-001	 2.9576339813e+000	 4.7725278175e-001
 6.0668153392e-001	 2.9635388501e+000	 3.8635644217e-001
 5.7854515216e-001	 2.9691598992e+000	 1.7644025803e-001
 5.5043823355e-001	 2.9744987394e+000	-1.9921687031e-002
 8.3923255524e-001	 2.9322668225e+000	-3.6288770990e-001
 8.1077212041e-001	 2.9402633502e+000	-2.7921705961e-001
 7.8230846189e-001	 2.9479642926e+000	-1.8671833939e-001
 7.5384586224e-001	 2.9553707747e+000	-8.5573260675e-002
 7.2538855945e-001	 2.9624839979e+000	 2.4040072155e-002
 6.9694074532e-001	 2.9693052382e+000	 1.4194872543e-001
 6.6850656409e-001	 2.9758358445e+000	 2.6798643641e-001
 6.4009011098e-001	 2.9820772374e+000	 4.0199504747e-001
 6.1169543089e-001	 2.9880309068e+000	 3.6189610960e-001
 5.8332651705e-001	 2.9936984107e+000	 1.2644879605e-001
 5.5498730986e-001	 2.9990813737e+000	-9.6223626740e-002
 8.4611151061e-001	 2.9563017964e+000	-3.8440588891e-001
 8.1741779353e-001	 2.9643638695e+000	-3.0417298420e-001
 7.8872082633e-001	 2.9721279343e+000	-2.1624218392e-001
 7.6002492669e-001	 2.9795951253e+000	-1.2090723783e-001
 7.3133436731e-001	 2.9867666536e+000	-1.8455384784e-002
 7.0265337437e-001	 2.9936438057e+000	 9.0834306530e-002
 6.7398612608e-001	 3.0002279416e+000	 2.0669252728e-001
 6.4533675123e-001	 3.0065204934e+000	 3.2886124585e-001
 6.1670932786e-001	 3.0125229634e+000	 3.4111343539e-001
 5.8810788194e-001	 3.0182369223e+000	 7.8494477802e-002
 5.5953638617e-001	 3.0236640079e+000	-1.7205450654e-001
 8.5299046598e-001	 2.9803367704e+000	-3.8902448510e-001
 8.2406346665e-001	 2.9884643887e+000	-3.1449767240e-001
 7.9513319077e-001	 2.9962915761e+000	-2.3336970495e-001
 7.6620399113e-001	 3.0038194759e+000	-1.4604640965e-001
 7.3728017517e-001	 3.0110493093e+000	-5.2924217726e-002
 7.0836600343e-001	 3.0179823732e+000	 4.5611591361e-002
 6.7946568808e-001	 3.0246200387e+000	 1.4918857005e-001
 6.5058339149e-001	 3.0309637495e+000	 2.5744870427e-001
 6.2172322484e-001	 3.0370150200e+000	 3.2326807909e-001
 5.9288924684e-001	 3.0427754338e+000	 3.1931202923e-002
 5.6408546248e-001	 3.0482466421e+000	-2.4796659422e-001
 8.5986942135e-001	 3.0043717443e+000	-3.7771864544e-001
 8.3070913976e-001	 3.0125649080e+000	-3.1108231938e-001
 8.0154555521e-001	 3.0204552178e+000	-2.3890878667e-001
 7.7238305558e-001	 3.0280438265e+000	-1.6171602705e-001
 7.4322598304e-001	 3.0353319650e+000	-8.0009757905e-002
 7.1407863249e-001	 3.0423209407e+000	 5.7184196211e-003
 6.8494525008e-001	 3.0490121358e+000	 9.4992792385e-002
 6.5583003174e-001	 3.0554070055e+000	 1.8735522216e-001
 6.2673712181e-001	 3.0615070766e+000	 2.8236674508e-001
 5.9767061173e-001	 3.0673139454e+000	-1.3890639778e-002
 5.6863453879e-001	 3.0728292763e+000	-3.2451761698e-001
 8.6674837673e-001	 3.0284067183e+000	-3.5144887519e-001
 8.3735481288e-001	 3.0366654273e+000	-2.9480557657e-001
 8.0795791965e-001	 3.0446188595e+000	-2.3365684503e-001
 7.7856212002e-001	 3.0522681771e+000	-1.6863292488e-001
 7.4917179090e-001	 3.0596146208e+000	-1.0034894877e-001
 7.1979126155e-001	 3.0666595083e+000	-2.9402984839e-002
 6.9042481209e-001	 3.0734042329e+000	 4.3625827781e-002
 6.6107667200e-001	 3.0798502615e+000	 1.1817905227e-001
 6.3175101878e-001	 3.0859991332e+000	 1.9372063363e-001
 6.0245197662e-001	 3.0918524570e+000	-5.9624033009e-002
 5.7318361510e-001	 3.0974119105e+000	-4.0227054477e-001
 8.7362733210e-001	 3.0524416922e+000	-3.1116161428e-001
 8.4400048600e-001	 3.0607659465e+000	-2.6653404552e-001
 8.1437028410e-001	 3.0687825013e+000	-2.1840123983e-001
 7.8474118447e-001	 3.0764925277e+000	-1.6750585328e-001
 7.5511759877e-001	 3.0838972765e+000	-1.1457259747e-001
 7.2550389062e-001	 3.0909980758e+000	-6.0306186619e-002
 6.9590437409e-001	 3.0977963300e+000	-5.3893792146e-003
 6.6632331225e-001	 3.1042935176e+000	 4.9518882838e-002
 6.3676491576e-001	 3.1104911898e+000	 1.0378523486e-001
 6.0723334152e-001	 3.1163909685e+000	-1.0592519826e-001
 5.7773269141e-001	 3.1219945447e+000	-4.8179338389e-001
 8.8050628747e-001	 3.0764766662e+000	-2.5778978679e-001
 8.5064615913e-001	 3.0848664658e+000	-2.2712274858e-001
 8.2078264854e-001	 3.0929461430e+000	-1.9391966759e-001
 7.9092024892e-001	 3.1007168783e+000	-1.5903579349e-001
 7.6106340663e-001	 3.1081799322e+000	-1.2330561454e-001
 7.3121651968e-001	 3.1153366433e+000	-8.7540703286e-002
 7.0138393609e-001	 3.1221884270e+000	-5.2527663251e-002
 6.7156995251e-001	 3.1287367736e+000	 2.8374402892e-002
 6.4177881273e-001	 3.1349832464e+000	 1.4265736667e-001
 6.1201470641e-001	 3.1409294801e+000	 6.0203360803e-002
 5.8228176772e-001	 3.1465771789e+000	-2.6861340606e-001
 8.8738524285e-001	 3.1005116401e+000	-1.9225332478e-001
 8.5729183225e-001	 3.1089669851e+000	-1.7741557775e-001
 8.2719501299e-001	 3.1171097848e+000	-1.6098053604e-001
 7.9709931337e-001	 3.1249412290e+000	-1.4391625899e-001
 7.6700921450e-001	 3.1324625879e+000	-4.2567180428e-002
 7.3692914874e-001	 3.1396752108e+000	 6.1163032893e-002
 7.0686349809e-001	 3.1465805241e+000	 1.6476629815e-001
 6.7681659276e-001	 3.1531800297e+000	 2.6648277322e-001
 6.4679270971e-001	 3.1594753030e+000	 3.6466106751e-001
 6.1679607131e-001	 3.1654679917e+000	 3.3406652844e-001
 5.8683084403e-001	 3.1711598131e+000	-2.4265437350e-002
 8.9426419823e-001	 3.1245466141e+000	-1.1545966801e-001
 8.6393750537e-001	 3.1330675043e+000	-3.8787183810e-002
 8.3360737744e-001	 3.1412734265e+000	 4.8239129771e-002
 8.0327837781e-001	 3.1491655796e+000	 1.3909893049e-001
 7.7295502237e-001	 3.1567452436e+000	 2.3160832534e-001
 7.4264177780e-001	 3.1640137784e+000	 3.2369946992e-001
 7.1234306010e-001	 3.1709726212e+000	 4.1341992861e-001
 6.8206323302e-001	 3.1776232857e+000	 4.9893183090e-001
 6.5180660668e-001	 3.1839673596e+000	 5.7851083267e-001
 6.2157743620e-001	 3.1900065032e+000	 5.9864012692e-001
 5.9137992034e-001	 3.1957424473e+000	 2.0949151973e-001
 5.4588915724e-001	 2.9499161052e+000	 5.7397893509e-002
 5.1804756952e-001	 2.9549326076e+000	 1.6316736597e-001
 4.9024279252e-001	 2.9596726178e+000	 2.5348793683e-001
 4.6247853940e-001	 2.9641379186e+000	 3.2956544125e-001
 4.3475846709e-001	 2.9683303514e+000	 3.9255392548e-001
 4.0708617535e-001	 2.9722518140e+000	 4.4355811465e-001
 3.7946520596e-001	 2.9759042588e+000	 4.8363588226e-001
 3.5189904187e-001	 2.9792896912e+000	 5.1380071397e-001
 3.2439110650e-001	 2.9824101680e+000	 5.3502415822e-001
 2.9694476301e-001	 2.9852677950e+000	 5.4823825686e-001
 2.6956331372e-001	 2.9878647258e+000	 5.5433794910e-001
 5.5043823355e-001	 2.9744987394e+000	-1.9921687031e-002
 5.2236463260e-001	 2.9795570460e+000	 6.6356548484e-002
 4.9432814913e-001	 2.9843365562e+000	 1.4055896061e-001
 4.6633252723e-001	 2.9888390679e+000	 2.0382165424e-001
 4.3838145432e-001	 2.9930664377e+000	 2.5722618388e-001
 4.1047856015e-001	 2.9970205791e+000	 3.0180221222e-001
 3.8262741601e-001	 3.0007034609e+000	 3.3853016927e-001
 3.5483153389e-001	 3.0041171053e+000	 3.6834390401e-001
 3.2709436572e-001	 3.0072635860e+000	 3.9213332097e-001
 2.9941930270e-001	 3.0101450266e+000	 4.1074699455e-001
 2.7180967467e-001	 3.0127635985e+000	 4.2499475407e-001
 5.5498730986e-001	 2.9990813737e+000	-9.6223626740e-002
 5.2668169568e-001	 3.0041814844e+000	-2.9041623306e-002
 4.9841350573e-001	 3.0090004947e+000	 2.9432538820e-002
 4.7018651506e-001	 3.0135402172e+000	 8.0264177759e-002
 4.4200444154e-001	 3.0178025240e+000	 1.2446129442e-001
 4.1387094494e-001	 3.0217893442e+000	 1.6297742420e-001
 3.8578962606e-001	 3.0255026631e+000	 1.9671448789e-001
 3.5776402590e-001	 3.0289445194e+000	 2.2652563347e-001
 3.2979762494e-001	 3.0321170041e+000	 2.5321806075e-001
 3.0189384239e-001	 3.0350222582e+000	 2.7755582147e-001
 2.7405603562e-001	 3.0376624713e+000	 3.0026258743e-001
 5.5953638617e-001	 3.0236640079e+000	-1.7205450654e-001
 5.3099875876e-001	 3.0288059228e+000	-1.2352671331e-001
 5.0249886233e-001	 3.0336644332e+000	-8.0342492032e-002
 4.7404050289e-001	 3.0382413666e+000	-4.1508407812e-002
 4.4562742877e-001	 3.0425386102e+000	-6.0911155492e-003
 4.1726332974e-001	 3.0465581093e+000	 2.6785687235e-002
 3.8895183611e-001	 3.0503018652e+000	 5.7944305385e-002
 3.6069651792e-001	 3.0537719335e+000	 8.8156080249e-002
 3.3250088416e-001	 3.0569704222e+000	 1.1814440464e-001
 3.0436838209e-001	 3.0598994898e+000	 1.4858771075e-001
 2.7630239656e-001	 3.0625613440e+000	 1.8012242349e-001
 5.6408546248e-001	 3.0482466421e+000	-2.4796659422e-001
 5.3531582184e-001	 3.0534303612e+000	-2.1760441137e-001
 5.0658421894e-001	 3.0583283717e+000	-1.8922389081e-001
 4.7789449072e-001	 3.0629425159e+000	-1.6190461685e-001
 4.4925041599e-001	 3.0672746965e+000	-1.3478904230e-001
 4.2065571453e-001	 3.0713268744e+000	-1.0707924347e-001
 3.9211404616e-001	 3.0751010674e+000	-7.8033678733e-002
 3.6362900993e-001	 3.0785993476e+000	-4.6963959763e-002
 3.3520414338e-001	 3.0818238402e+000	-1.3231644051e-002
 3.0684292178e-001	 3.0847767215e+000	 2.3754943046e-002
 2.7854875751e-001	 3.0874602167e+000	 6.4543848953e-002
 5.6863453879e-001	 3.0728292763e+000	-3.2451761698e-001
 5.3963288491e-001	 3.0780547996e+000	-3.1178628823e-001
 5.1066957554e-001	 3.0829923102e+000	-2.9767574795e-001
 4.8174847854e-001	 3.0876436652e+000	-2.8133977469e-001
 4.5287340322e-001	 3.0920107827e+000	-2.6199780076e-001
 4.2404809933e-001	 3.0960956396e+000	-2.3893146687e-001
 3.9527625621e-001	 3.0999002695e+000	-2.1148118196e-001
 3.6656150195e-001	 3.1034267617e+000	-1.7904269742e-001
 3.3790740260e-001	 3.1066772583e+000	-1.4106370483e-001
 3.0931746147e-001	 3.1096539531e+000	-9.7040465728e-002
 2.8079511845e-001	 3.1123590894e+000	-4.6514481558e-002
 5.7318361510e-001	 3.0974119105e+000	-4.0227054477e-001
 5.4394994799e-001	 3.1026792380e+000	-4.0658956211e-001
 5.1475493214e-001	 3.1076562486e+000	-4.0616823417e-001
 4.8560246637e-001	 3.1123448145e+000	-4.0023574739e-001
 4.5649639044e-001	 3.1167468690e+000	-3.8808973410e-001
 4.2744048412e-001	 3.1208644047e+000	-3.6909262442e-001
 3.9843846626e-001	 3.1246994717e+000	-3.4266800481e-001
 3.6949399396e-001	 3.1282541758e+000	-2.6493324818e-001
 3.4061066182e-001	 3.1315306764e+000	-1.8143738860e-001
 3.1179200116e-001	 3.1345311847e+000	-9.6311891288e-002
 2.8304147940e-001	 3.1372579621e+000	-9.4660269394e-003
 5.7773269141e-001	 3.1219945447e+000	-4.8179338389e-001
 5.4826701107e-001	 3.1273036764e+000	-4.7027868549e-001
 5.1884028875e-001	 3.1323201871e+000	-4.1211496639e-001
 4.8945645420e-001	 3.1370459638e+000	-3.4964043432e-001
 4.6011937766e-001	 3.1414829553e+000	-2.8350602104e-001
 4.3083286891e-001	 3.1456331698e+000	-2.1424489295e-001
 4.0160067630e-001	 3.1494986739e+000	-1.4227344856e-001
 3.7242648597e-001	 3.1530815899e+000	-6.7892551710e-002
 3.4331392104e-001	 3.1563840944e+000	 8.7110090468e-003
 3.1426654084e-001	 3.1594084163e+000	 8.7462844487e-002
 2.8528784035e-001	 3.1621568348e+000	 1.6839908235e-001
 5.8228176772e-001	 3.1465771789e+000	-2.6861340606e-001
 5.5258407415e-001	 3.1519281148e+000	-2.2755199573e-001
 5.2292564535e-001	 3.1569841256e+000	-1.8051146217e-001
 4.9331044202e-001	 3.1617471132e+000	-1.2833497143e-001
 4.6374236489e-001	 3.1662190415e+000	-7.1744525778e-002
 4.3422525370e-001	 3.1704019349e+000	-1.1341671197e-002
 4.0476288635e-001	 3.1742978760e+000	 5.2391543401e-002
 3.7535897799e-001	 3.1779090040e+000	 1.1909136428e-001
 3.4601718025e-001	 3.1812375125e+000	 1.8851089798e-001
 3.1674108053e-001	 3.1842856480e+000	 2.6051845337e-001
 2.8753420129e-001	 3.1870557075e+000	 3.3509567081e-001
 5.8683084403e-001	 3.1711598131e+000	-2.4265437350e-002
 5.5690113723e-001	 3.1765525532e+000	 5.0639050537e-003
 5.2701100195e-001	 3.1816480641e+000	 4.1194217403e-002
 4.9716442985e-001	 3.1864482625e+000	 8.3208085624e-002
 4.6736535211e-001	 3.1909551278e+000	 1.3031199746e-001
 4.3761763849e-001	 3.1951707000e+000	 1.8183567952e-001
 4.0792509639e-001	 3.1990970782e+000	 2.3723117535e-001
 3.7829147000e-001	 3.2027364181e+000	 2.9607167374e-001
 3.4872043947e-001	 3.2060909306e+000	 3.5805009719e-001
 3.1921562022e-001	 3.2091628796e+000	 4.2297746060e-001
 2.8978056223e-001	 3.2119545803e+000	 4.9078101051e-001
 5.9137992034e-001	 3.1957424473e+000	 2.0949151973e-001
 5.6121820030e-001	 3.2011769916e+000	 2.2741201657e-001
 5.3109635855e-001	 3.2063120026e+000	 2.5287851451e-001
 5.0101841767e-001	 3.2111494118e+000	 2.8489879523e-001
 4.7098833933e-001	 3.2156912140e+000	 3.2260737328e-001
 4.4101002328e-001	 3.2199394651e+000	 3.6526487687e-001
 4.1108730644e-001	 3.2238962803e+000	 4.1225716221e-001
 3.8122396201e-001	 3.2275638322e+000	 4.6309417106e-001
 3.5142369869e-001	 3.2309443486e+000	 5.1740854133e-001
 3.2169015991e-001	 3.2340401112e+000	 5.7495398106e-001
 2.9202692318e-001	 3.2368534530e+000	 6.3560341640e-001
 2.6956331372e-001	 2.9878647258e+000	 5.5433794910e-001
 2.4224999949e-001	 2.9902031599e+000	 5.3593165176e-001
 2.1500799923e-001	 2.9922853407e+000	 5.1358132823e-001
 1.8784042942e-001	 2.9941135538e+000	 4.8781493940e-001
 1.6075034369e-001	 2.9956901253e+000	 4.5913650167e-001
 1.3374073246e-001	 2.9970174201e+000	 4.2802843831e-001
 1.0681452267e-001	 2.9980978399e+000	 3.9495386376e-001
 7.9974577449e-002	 2.9989338217e+000	 3.6035879727e-001
 5.3223695962e-002	 2.9995278359e+000	 3.2467430210e-001
 2.6564613226e-002	 2.9998823846e+000	 2.8831854739e-001
 0.0000000000e+000	 3.0000000000e+000	 2.5169878983e-001
 2.7180967467e-001	 3.0127635985e+000	 4.2499475407e-001
 2.4426874949e-001	 3.0151215196e+000	 4.0844316848e-001
 2.1679973256e-001	 3.0172210519e+000	 3.8882832859e-001
 1.8940576633e-001	 3.0190645001e+000	 3.6663939737e-001
 1.6208992988e-001	 3.0206542097e+000	 3.4234104589e-001
 1.3485523857e-001	 3.0219925653e+000	 3.1637591319e-001
 1.0770464369e-001	 3.0230819886e+000	 2.8916699616e-001
 8.0641032261e-002	 3.0239249369e+000	 2.6111996548e-001
 5.3667226761e-002	 3.0245239012e+000	 2.3262540393e-001
 2.6785985003e-002	 3.0248814045e+000	 2.0406096390e-001
 0.0000000000e+000	 3.0250000000e+000	 1.7579344127e-001
 2.7405603562e-001	 3.0376624713e+000	 3.0026258743e-001
 2.4628749948e-001	 3.0400398793e+000	 2.8695143611e-001
 2.1859146589e-001	 3.0421567631e+000	 2.7146692827e-001
 1.9097110324e-001	 3.0440154464e+000	 2.5425773386e-001
 1.6342951608e-001	 3.0456182941e+000	 2.3574749592e-001
 1.3596974467e-001	 3.0469677104e+000	 2.1633740125e-001
 1.0859476471e-001	 3.0480661373e+000	 1.9640867806e-001
 8.1307487072e-002	 3.0489160521e+000	 1.7632501627e-001
 5.4110757560e-002	 3.0495199665e+000	 1.5643490690e-001
 2.7007356780e-002	 3.0498804243e+000	 1.3707389713e-001
 0.0000000000e+000	 3.0500000000e+000	 1.1856675820e-001
 2.7630239656e-001	 3.0625613440e+000	 1.8012242349e-001
 2.4830624948e-001	 3.0649582389e+000	 1.7146987278e-001
 2.2038319921e-001	 3.0670924742e+000	 1.6154335667e-001
 1.9253644015e-001	 3.0689663926e+000	 1.5074933175e-001
 1.6476910228e-001	 3.0705823785e+000	 1.3946870522e-001
 1.3708425077e-001	 3.0719428556e+000	 1.2805951874e-001
 1.0948488573e-001	 3.0730502859e+000	 1.1685955592e-001
 8.1973941883e-002	 3.0739071672e+000	 1.0618886916e-001
 5.4554288360e-002	 3.0745160318e+000	 9.6352222105e-002
 2.7228728556e-002	 3.0748794442e+000	 8.7641444208e-002
 0.0000000000e+000	 3.0750000000e+000	 8.0337694436e-002
 2.7854875751e-001	 3.0874602167e+000	 6.4543848953e-002
 2.5032499947e-001	 3.0898765986e+000	 6.2000645132e-002
 2.2217493254e-001	 3.0920281854e+000	 5.9092721960e-002
 1.9410177707e-001	 3.0939173389e+000	 5.6182577050e-002
 1.6610868847e-001	 3.0955464628e+000	 5.3606648939e-002
 1.3819875688e-001	 3.0969180008e+000	 5.1678116291e-002
 1.1037500676e-001	 3.0980344346e+000	 5.0689617463e-002
 8.2640396694e-002	 3.0988982824e+000	 5.0915886044e-002
 5.4997819159e-002	 3.0995120971e+000	 5.2616298383e-002
 2.7450100333e-002	 3.0998784641e+000	 5.6037329596e-002
 0.0000000000e+000	 3.1000000000e+000	 6.1414914942e-002
 2.8079511845e-001	 3.1123590894e+000	-4.6514481558e-002
 2.5234374947e-001	 3.1147949583e+000	-4.1464881577e-002
 2.2396666586e-001	 3.1169638966e+000	-3.5860544094e-002
 1.9566711398e-001	 3.1188682852e+000	-2.9384701193e-002
 1.6744827467e-001	 3.1205105472e+000	-2.1747140933e-002
 1.3931326298e-001	 3.1218931460e+000	-1.2681290425e-002
 1.1126512778e-001	 3.1230185833e+000	-1.9413819222e-003
 8.3306851506e-002	 3.1238893976e+000	 1.0700293528e-002
 5.5441349958e-002	 3.1245081624e+000	 2.5456040770e-002
 2.7671472109e-002	 3.1248774839e+000	 4.2525319944e-002
 0.0000000000e+000	 3.1250000000e+000	 6.2097207413e-002
 2.8304147940e-001	 3.1372579621e+000	-9.4660269394e-003
 2.5436249946e-001	 3.1397133179e+000	 2.3135359279e-002
 2.2575839919e-001	 3.1418996077e+000	 4.9635738747e-002
 1.9723245089e-001	 3.1438192315e+000	 7.0457438460e-002
 1.6878786087e-001	 3.1454746316e+000	 8.6127494750e-002
 1.4042776908e-001	 3.1468682911e+000	 9.7274751568e-002
 1.1215524880e-001	 3.1480027319e+000	 1.0462681810e-001
 8.3973306317e-002	 3.1488805128e+000	 1.0900689673e-001
 5.5884880757e-002	 3.1495042277e+000	 1.1133049232e-001
 2.7892843886e-002	 3.1498765038e+000	 1.1260201369e-001
 0.0000000000e+000	 3.1500000000e+000	 1.1391127820e-001
 2.8528784035e-001	 3.1621568348e+000	 1.6839908235e-001
 2.5638124945e-001	 3.1646316776e+000	 1.9270218379e-001
 2.2755013251e-001	 3.1668353189e+000	 2.0971393766e-001
 1.9879778780e-001	 3.1687701778e+000	 2.1985660680e-001
 1.7012744706e-001	 3.1704387160e+000	 2.2366027330e-001
 1.4154227518e-001	 3.1718434363e+000	 2.2175986899e-001
 1.1304536982e-001	 3.1729868806e+000	 2.1489206104e-001
 8.4639761128e-002	 3.1738716280e+000	 2.0389200422e-001
 5.6328411556e-002	 3.1745002930e+000	 1.8968997085e-001
 2.8114215663e-002	 3.1748755237e+000	 1.7330786975e-001
 0.0000000000e+000	 3.1750000000e+000	 1.5585566526e-001
 2.8753420129e-001	 3.1870557075e+000	 3.3509567081e-001
 2.5839999945e-001	 3.1895500373e+000	 3.5151468132e-001
 2.2934186584e-001	 3.1917710301e+000	 3.5939512178e-001
 2.0036312471e-001	 3.1937211241e+000	 3.5915896088e-001
 1.7146703326e-001	 3.1954028003e+000	 3.5133917261e-001
 1.4265678129e-001	 3.1968185815e+000	 3.3657669741e-001
 1.1393549084e-001	 3.1979710292e+000	 3.1561725444e-001
 8.5306215939e-002	 3.1988627432e+000	 2.8930801640e-001
 5.6771942355e-002	 3.1994963583e+000	 2.5859415862e-001
 2.8335587439e-002	 3.1998745436e+000	 2.2451529369e-001
 0.0000000000e+000	 3.2000000000e+000	 1.8820180312e-001
 2.8978056223e-001	 3.2119545803e+000	 4.9078101051e-001
 2.6041874944e-001	 3.2144683969e+000	 4.9974298053e-001
 2.3113359916e-001	 3.2167067413e+000	 4.9886177954e-001
 2.0192846161e-001	 3.2186720703e+000	 4.8855884710e-001
 1.7280661945e-001	 3.2203668847e+000	 4.6936989082e-001
 1.4377128739e-001	 3.2217937266e+000	 4.4194177689e-001
 1.1482561186e-001	 3.2229551779e+000	 4.0702926735e-001
 8.5972670750e-002	 3.2238538583e+000	 3.6549161607e-001
 5.7215473154e-002	 3.2244924236e+000	 3.1828903513e-001
 2.8556959216e-002	 3.2248735634e+000	 2.6647904354e-001
 0.0000000000e+000	 3.2250000000e+000	 2.1121270973e-001
 2.9202692318e-001	 3.2368534530e+000	 6.3560341640e-001
 2.6243749943e-001	 3.2393867566e+000	 6.3754836003e-001
 2.3292533249e-001	 3.2416424524e+000	 6.2828765180e-001
 2.0349379852e-001	 3.2436230166e+000	 6.0824196209e-001
 1.7414620565e-001	 3.2453309691e+000	 5.7794956957e-001
 1.4488579349e-001	 3.2467688718e+000	 5.3806317958e-001
 1.1571573288e-001	 3.2479393266e+000	 4.8934658502e-001
 8.6639125561e-002	 3.2488449735e+000	 4.3267118170e-001
 5.7659003953e-002	 3.2494884889e+000	 3.6901235057e-001
 2.8778330992e-002	 3.2498725833e+000	 2.9944571855e-001
 0.0000000000e+000	 3.2500000000e+000	 2.2514331019e-001
 3.2500000000e+000	 0.0000000000e+000	 1.5178263491e+000
 3.2498725833e+000	 2.8778330992e-002	 1.4622724118e+000
 3.2494884889e+000	 5.7659003953e-002	 1.3968814190e+000
 3.2488449735e+000	 8.6639125561e-002	 1.3245959074e+000
 3.2479393266e+000	 1.1571573288e-001	 1.2481668776e+000
 3.2467688718e+000	 1.4488579349e-001	 1.1701463651e+000
 3.2453309691e+000	 1.7414620565e-001	 1.0928802781e+000
 3.2436230166e+000	 2.0349379852e-001	 1.0185015258e+000
 3.2416424524e+000	 2.3292533249e-001	 9.4892346501e-001
 3.2393867566e+000	 2.6243749943e-001	 8.8583368589e-001
 3.2368534530e+000	 2.9202692318e-001	 8.3068816527e-001
 3.2750000000e+000	 0.0000000000e+000	 1.4696603108e+000
 3.2748716032e+000	 2.8999702769e-002	 1.4257929982e+000
 3.2744845542e+000	 5.8102534752e-002	 1.3726608510e+000
 3.2738360887e+000	 8.7305580372e-002	 1.3131222607e+000
 3.2729234752e+000	 1.1660585390e-001	 1.2498371813e+000
 3.2717440170e+000	 1.4600029959e-001	 1.1852596290e+000
 3.2702950535e+000	 1.7548579184e-001	 1.1216304605e+000
 3.2685739629e+000	 2.0505913543e-001	 1.0609704550e+000
 3.2665781636e+000	 2.3471706581e-001	 1.0050737256e+000
 3.2643051163e+000	 2.6445624942e-001	 9.5550148453e-001
 3.2617523257e+000	 2.9427328412e-001	 9.1357618940e-001
 3.3000000000e+000	 0.0000000000e+000	 1.4219613466e+000
 3.2998706230e+000	 2.9221074545e-002	 1.3871770865e+000
 3.2994806195e+000	 5.8546065551e-002	 1.3438682890e+000
 3.2988272039e+000	 8.7972035183e-002	 1.2948107053e+000
 3.2979076239e+000	 1.1749597492e-001	 1.2425745879e+000
 3.2967191621e+000	 1.4711480569e-001	 1.1895171156e+000
 3.2952591379e+000	 1.7682537804e-001	 1.1377751079e+000
 3.2935249092e+000	 2.0662447234e-001	 1.0892580556e+000
 3.2915138748e+000	 2.3650879913e-001	 1.0456414938e+000
 3.2892234759e+000	 2.6647499942e-001	 1.0083607427e+000
 3.2866511984e+000	 2.9651964507e-001	 9.7860504254e-001
 3.3250000000e+000	 0.0000000000e+000	 1.3742915886e+000
 3.3248696429e+000	 2.9442446322e-002	 1.3460824331e+000
 3.3244766848e+000	 5.8989596350e-002	 1.3102575851e+000
 3.3238183191e+000	 8.8638489994e-002	 1.2695116194e+000
 3.3228917726e+000	 1.1838609594e-001	 1.2263263907e+000
 3.3216943073e+000	 1.4822931180e-001	 1.1829633784e+000
 3.3202232222e+000	 1.7816496423e-001	 1.1414563330e+000
 3.3184758555e+000	 2.0818980925e-001	 1.1036042519e+000
 3.3164495860e+000	 2.3830053246e-001	 1.0709647092e+000
 3.3141418356e+000	 2.6849374941e-001	 1.0448475684e+000
 3.3115500711e+000	 2.9876600601e-001	 1.0263091027e+000
 3.3500000000e+000	 0.0000000000e+000	 1.3262262398e+000
 3.3498686628e+000	 2.9663818098e-002	 1.3021780942e+000
 3.3494727501e+000	 5.9433127149e-002	 1.2715921513e+000
 3.3488094342e+000	 8.9304944806e-002	 1.2370832336e+000
 3.3478759212e+000	 1.1927621697e-001	 1.2010460601e+000
 3.3466694525e+000	 1.4934381790e-001	 1.1656475060e+000
 3.3451873066e+000	 1.7950455043e-001	 1.1328191773e+000
 3.3434268017e+000	 2.0975514616e-001	 1.1042503261e+000
 3.3413852971e+000	 2.4009226578e-001	 1.0813811350e+000
 3.3390601953e+000	 2.7051249940e-001	 1.0653963967e+000
 3.3364489438e+000	 3.0101236695e-001	 1.0572196168e+000
 3.3750000000e+000	 0.0000000000e+000	 1.2773530895e+000
 3.3748676827e+000	 2.9885189875e-002	 1.2551440077e+000
 3.3744688154e+000	 5.9876657948e-002	 1.2276446056e+000
 3.3738005494e+000	 8.9971399617e-002	 1.1973913396e+000
 3.3728600699e+000	 1.2016633799e-001	 1.1666930144e+000
 3.3716445976e+000	 1.5045832400e-001	 1.1376229548e+000
 3.3701513910e+000	 1.8084413662e-001	 1.1120115022e+000
 3.3683777480e+000	 2.1132048307e-001	 1.0914388675e+000
 3.3663210083e+000	 2.4188399911e-001	 1.0772283640e+000
 3.3639785549e+000	 2.7253124940e-001	 1.0704400514e+000
 3.3613478166e+000	 3.0325872790e-001	 1.0718648171e+000
 3.4000000000e+000	 0.0000000000e+000	 1.2272720511e+000
 3.3998667025e+000	 3.0106561652e-002	 1.2046705928e+000
 3.3994648807e+000	 6.0320188747e-002	 1.1781964338e+000
 3.3987916646e+000	 9.0637854428e-002	 1.1503090122e+000
 3.3978442186e+000	 1.2105645901e-001	 1.1232324013e+000
 3.3966197428e+000	 1.5157283010e-001	 1.0989473873e+000
 3.3951154754e+000	 1.8218372282e-001	 1.0791838857e+000
 3.3933286943e+000	 2.1288581998e-001	 1.0654137247e+000
 3.3912567195e+000	 2.4367573243e-001	 1.0588438253e+000
 3.3888969146e+000	 2.7454999939e-001	 1.0604098045e+000
 3.3862466893e+000	 3.0550508885e-001	 1.0707700314e+000
 3.4250000000e+000	 0.0000000000e+000	 1.1755947193e+000
 3.4248657224e+000	 3.0327933428e-002	 1.1504583676e+000
 3.4244609460e+000	 6.0763719546e-002	 1.1230376654e+000
 3.4237827798e+000	 9.1304309239e-002	 1.0957163438e+000
 3.4228283672e+000	 1.2194658003e-001	 1.0706348886e+000
 3.4215948880e+000	 1.5268733621e-001	 1.0496825198e+000
 3.4200795598e+000	 1.8352330902e-001	 1.0344895228e+000
 3.4182796406e+000	 2.1445115689e-001	 1.0264199596e+000
 3.4161924307e+000	 2.4546746576e-001	 1.0265647903e+000
 3.4138152743e+000	 2.7656874939e-001	 1.0357354326e+000
 3.4111455620e+000	 3.0775144979e-001	 1.0544577896e+000
 3.4500000000e+000	 0.0000000000e+000	 1.1219439468e+000
 3.4498647423e+000	 3.0549305205e-002	 1.0922175832e+000
 3.4494570113e+000	 6.1207250346e-002	 1.0619665645e+000
 3.4487738950e+000	 9.1970764051e-002	 1.0335001900e+000
 3.4478125159e+000	 1.2283670105e-001	 1.0088764643e+000
 3.4465700331e+000	 1.5380184231e-001	 9.8989397463e-001
 3.4450436441e+000	 1.8486289521e-001	 9.7808413133e-001
 3.4432305869e+000	 2.1601649380e-001	 9.7470380358e-001
 3.4411281418e+000	 2.4725919909e-001	 9.8072837806e-001
 3.4387336339e+000	 2.7858749938e-001	 9.9684527129e-001
 3.4360444347e+000	 3.0999781074e-001	 1.0234479247e+000
 3.4750000000e+000	 0.0000000000e+000	 1.0659534396e+000
 3.4748637621e+000	 3.0770676981e-002	 1.0296678736e+000
 3.4744530766e+000	 6.1650781145e-002	 9.9478933322e-001
 3.4737650101e+000	 9.2637218862e-002	 9.6355392613e-001
 3.4727966646e+000	 1.2372682207e-001	 9.3793824551e-001
 3.4715451783e+000	 1.5491634841e-001	 9.1965113999e-001
 3.4700077285e+000	 1.8620248141e-001	 9.1012586054e-001
 3.4681815332e+000	 2.1758183071e-001	 9.1051261509e-001
 3.4660638530e+000	 2.4905093241e-001	 9.2167156117e-001
 3.4636519936e+000	 2.8060624938e-001	 9.4416626684e-001
 3.4609433074e+000	 3.1224417169e-001	 9.7825767004e-001
 3.5000000000e+000	 0.0000000000e+000	 1.0072673692e+000
 3.4998627820e+000	 3.0992048758e-002	 9.6253792041e-001
 3.4994491419e+000	 6.2094311944e-002	 9.2131982839e-001
 3.4987561253e+000	 9.3303673673e-002	 8.8577721470e-001
 3.4977808132e+000	 1.2461694309e-001	 8.5780629467e-001
 3.4965203235e+000	 1.5603085452e-001	 8.3902703551e-001
 3.4949718129e+000	 1.8754206761e-001	 8.3077520468e-001
 3.4931324794e+000	 2.1914716763e-001	 8.3409483974e-001
 3.4909995642e+000	 2.5084266574e-001	 8.4973117071e-001
 3.4885703533e+000	 2.8262499937e-001	 8.7812402593e-001
 3.4858421801e+000	 3.1449053264e-001	 9.1940175197e-001
 3.2368534530e+000	 2.9202692318e-001	 8.3068816527e-001
 3.2340401112e+000	 3.2169015991e-001	 8.1729584989e-001
 3.2309443486e+000	 3.5142369869e-001	 8.0711133290e-001
 3.2275638322e+000	 3.8122396201e-001	 8.0083103062e-001
 3.2238962803e+000	 4.1108730644e-001	 7.9890543323e-001
 3.2199394651e+000	 4.4101002328e-001	 8.0153557687e-001
 3.2156912140e+000	 4.7098833933e-001	 8.0867001999e-001
 3.2111494118e+000	 5.0101841767e-001	 8.2000234508e-001
 3.2063120026e+000	 5.3109635855e-001	 8.3496920629e-001
 3.2011769916e+000	 5.6121820030e-001	 8.5274894228e-001
 3.1957424473e+000	 5.9137992034e-001	 8.7226077300e-001
 3.2617523257e+000	 2.9427328412e-001	 9.1357618940e-001
 3.2589173428e+000	 3.2416469960e-001	 9.1243220732e-001
 3.2557977667e+000	 3.5412695790e-001	 9.1155185803e-001
 3.2523912463e+000	 3.8415645402e-001	 9.1143078307e-001
 3.2486954825e+000	 4.1424951648e-001	 9.1231286859e-001
 3.2447082303e+000	 4.4440240807e-001	 9.1418685660e-001
 3.2404273003e+000	 4.7461132655e-001	 9.1678347735e-001
 3.2358505611e+000	 5.0487240550e-001	 9.1957312420e-001
 3.2309759410e+000	 5.3518171515e-001	 9.2176409175e-001
 3.2258014300e+000	 5.6553526338e-001	 9.2230139688e-001
 3.2203250815e+000	 5.9592899665e-001	 9.1986620128e-001
 3.2866511984e+000	 2.9651964507e-001	 9.7860504254e-001
 3.2837945745e+000	 3.2663923928e-001	 9.8810719860e-001
 3.2806511848e+000	 3.5683021712e-001	 9.9513747885e-001
 3.2772186604e+000	 3.8708894603e-001	 9.9999108520e-001
 3.2734946847e+000	 4.1741172653e-001	 1.0027054292e+000
 3.2694769954e+000	 4.4779479286e-001	 1.0030568796e+000
 3.2651633866e+000	 4.7823431377e-001	 1.0005580477e+000
 3.2605517105e+000	 5.0872639332e-001	 9.9445563311e-001
 3.2556398795e+000	 5.3926707176e-001	 9.8372885020e-001
 3.2504258684e+000	 5.6985232646e-001	 9.6708845527e-001
 3.2449077157e+000	 6.0047807296e-001	 9.4297639349e-001
 3.3115500711e+000	 2.9876600601e-001	 1.0263091027e+000
 3.3086718061e+000	 3.2911377897e-001	 1.0449699202e+000
 3.3055046028e+000	 3.5953347634e-001	 1.0586312543e+000
 3.3020460744e+000	 3.9002143804e-001	 1.0673881322e+000
 3.2982938868e+000	 4.2057393658e-001	 1.0710715489e+000
 3.2942457605e+000	 4.5118717765e-001	 1.0692453476e+000
 3.2898994728e+000	 4.8185730100e-001	 1.0612036563e+000
 3.2852528598e+000	 5.1258038115e-001	 1.0459689010e+000
 3.2803038180e+000	 5.4335242836e-001	 1.0222904187e+000
 3.2750503068e+000	 5.7416938954e-001	 9.8864368909e-001
 3.2694903500e+000	 6.0502714927e-001	 9.4323020407e-001
 3.3364489438e+000	 3.0101236695e-001	 1.0572196168e+000
 3.3335490377e+000	 3.3158831866e-001	 1.0836644299e+000
 3.3303580209e+000	 3.6223673555e-001	 1.1027893599e+000
 3.3268734885e+000	 3.9295393006e-001	 1.1144894554e+000
 3.3230930890e+000	 4.2373614662e-001	 1.1183892825e+000
 3.3190145256e+000	 4.5457956245e-001	 1.1138399359e+000
 3.3146355591e+000	 4.8548028822e-001	 1.0999166225e+000
 3.3099540091e+000	 5.1643436897e-001	 1.0754168410e+000
 3.3049677565e+000	 5.4743778496e-001	 1.0388591791e+000
 3.2996747452e+000	 5.7848645261e-001	 9.8848274748e-001
 3.2940729842e+000	 6.0957622558e-001	 9.2224727107e-001
 3.3613478166e+000	 3.0325872790e-001	 1.0718648171e+000
 3.3584262693e+000	 3.3406285835e-001	 1.1048299334e+000
 3.3552114390e+000	 3.6493999477e-001	 1.1283613426e+000
 3.3517009026e+000	 3.9588642207e-001	 1.1421542430e+000
 3.3478922911e+000	 4.2689835667e-001	 1.1456266909e+000
 3.3437832907e+000	 4.5797194724e-001	 1.1379167386e+000
 3.3393716454e+000	 4.8910327544e-001	 1.1178801631e+000
 3.3346551584e+000	 5.2028835680e-001	 1.0840888098e+000
 3.3296316950e+000	 5.5152314156e-001	 1.0348295708e+000
 3.3242991836e+000	 5.8280351569e-001	 9.6810402088e-001
 3.3186556184e+000	 6.1412530188e-001	 8.8162872790e-001
 3.3862466893e+000	 3.0550508885e-001	 1.0707700314e+000
 3.3833035010e+000	 3.3653739804e-001	 1.1091009628e+000
 3.3800648570e+000	 3.6764325399e-001	 1.1360903645e+000
 3.3765283167e+000	 3.9881891408e-001	 1.1512336468e+000
 3.3726914933e+000	 4.3006056672e-001	 1.1537422076e+000
 3.3685520559e+000	 4.6136433203e-001	 1.1425406941e+000
 3.3641077316e+000	 4.9272626267e-001	 1.1162648746e+000
 3.3593563078e+000	 5.2414234463e-001	 1.0732601429e+000
 3.3542956335e+000	 5.5560849817e-001	 1.0115806774e+000
 3.3489236220e+000	 5.8712057877e-001	 9.2898927552e-001
 3.3432382526e+000	 6.1867437819e-001	 8.2295788366e-001
 3.4111455620e+000	 3.0775144979e-001	 1.0544577896e+000
 3.4081807326e+000	 3.3901193773e-001	 1.0971075470e+000
 3.4049182751e+000	 3.7034651321e-001	 1.1267134359e+000
 3.4013557308e+000	 4.0175140610e-001	 1.1425710759e+000
 3.3974906954e+000	 4.3322277677e-001	 1.1436849910e+000
 3.3933208210e+000	 4.6475671683e-001	 1.1287659930e+000
 3.3888438179e+000	 4.9634924989e-001	 1.0962291933e+000
 3.3840574571e+000	 5.2799633246e-001	 1.0441926664e+000
 3.3789595719e+000	 5.5969385477e-001	 9.7047678646e-001
 3.3735480604e+000	 5.9143764185e-001	 8.7260426017e-001
 3.3678208868e+000	 6.2322345450e-001	 7.4780087365e-001
 3.4360444347e+000	 3.0999781074e-001	 1.0234479247e+000
 3.4330579642e+000	 3.4148647742e-001	 1.0694753751e+000
 3.4297716932e+000	 3.7304977243e-001	 1.1009616383e+000
 3.4261831449e+000	 4.0468389811e-001	 1.1170024765e+000
 3.4222898976e+000	 4.3638498682e-001	 1.1163952595e+000
 3.4180895861e+000	 4.6814910162e-001	 1.0976364667e+000
 3.4135799042e+000	 4.9997223712e-001	 1.0589198365e+000
 3.4087586064e+000	 5.3185032028e-001	 9.9813518647e-001
 3.4036235104e+000	 5.6377921137e-001	 9.1286792629e-001
 3.3981724988e+000	 5.9575470493e-001	 8.0039928646e-001
 3.3924035210e+000	 6.2777253081e-001	 7.3053861761e-001
 3.4609433074e+000	 3.1224417169e-001	 9.7825767004e-001
 3.4579351959e+000	 3.4396101711e-001	 1.0268259520e+000
 3.4546251112e+000	 3.7575303165e-001	 1.0595603374e+000
 3.4510105590e+000	 4.0761639013e-001	 1.0753566011e+000
 3.4470890998e+000	 4.3954719687e-001	 1.0728046139e+000
 3.4428583512e+000	 4.7154148642e-001	 1.0501859605e+000
 3.4383159904e+000	 5.0359522435e-001	 1.0054722234e+000
 3.4334597557e+000	 5.3570430811e-001	 9.3632395761e-001
 3.4282874489e+000	 5.6786456798e-001	 8.4009037840e-001
 3.4227969372e+000	 6.0007176801e-001	 7.1380978421e-001
 3.4169861552e+000	 6.3232160712e-001	 7.4402300111e-001
 3.4858421801e+000	 3.1449053264e-001	 9.1940175197e-001
 3.4828124275e+000	 3.4643555681e-001	 9.6977674873e-001
 3.4794785293e+000	 3.7845629087e-001	 1.0032293875e+000
 3.4758379731e+000	 4.1054888215e-001	 1.0184552649e+000
 3.4718883019e+000	 4.4270940692e-001	 1.0138363449e+000
 3.4676271163e+000	 4.7493387121e-001	 9.8743869030e-001
 3.4630520767e+000	 5.0721821157e-001	 9.3701087900e-001
 3.4581609051e+000	 5.3955829594e-001	 8.5998313096e-001
 3.4529513874e+000	 5.7194992458e-001	 7.5346716862e-001
 3.4474213756e+000	 6.0438883109e-001	 6.1425683285e-001
 3.4415687894e+000	 6.3687068343e-001	 7.4134527108e-001
 3.1957424473e+000	 5.9137992034e-001	 8.7226077300e-001
 3.1900065032e+000	 6.2157743620e-001	 2.5112254402e-001
 3.1839673596e+000	 6.5180660668e-001	 2.9753213692e-001
 3.1776232857e+000	 6.8206323302e-001	 4.1616088758e-001
 3.1709726212e+000	 7.1234306010e-001	 5.1748071246e-001
 3.1640137784e+000	 7.4264177780e-001	 6.0004411789e-001
 3.1567452436e+000	 7.7295502237e-001	 6.6230217399e-001
 3.1491655796e+000	 8.0327837781e-001	 7.0260289838e-001
 3.1412734265e+000	 8.3360737744e-001	 7.1918981732e-001
 3.1330675043e+000	 8.6393750537e-001	 7.1020071403e-001
 3.1245466141e+000	 8.9426419823e-001	 6.7082851986e-001
 3.2203250815e+000	 5.9592899665e-001	 9.1986620128e-001
 3.2145450148e+000	 6.2635880109e-001	 2.9157781757e-001
 3.2084594163e+000	 6.5682050366e-001	 4.0424419537e-001
 3.2020665418e+000	 6.8730987327e-001	 5.0178824753e-001
 3.1953647183e+000	 7.1782262210e-001	 5.8296831686e-001
 3.1883523459e+000	 7.4835440687e-001	 6.4644197381e-001
 3.1810278994e+000	 7.7890083024e-001	 6.9076407834e-001
 3.1733899302e+000	 8.0945744226e-001	 7.1438500899e-001
 3.1654370683e+000	 8.4001974188e-001	 7.1564906978e-001
 3.1571680236e+000	 8.7058317850e-001	 6.9279308510e-001
 3.1485815881e+000	 9.0114315360e-001	 6.4394519300e-001
 3.2449077157e+000	 6.0047807296e-001	 9.4297639349e-001
 3.2390835264e+000	 6.3114016599e-001	 4.0392672072e-001
 3.2329514729e+000	 6.6183440064e-001	 4.9664756233e-001
 3.2265097978e+000	 6.9255651353e-001	 5.7513531587e-001
 3.2197568154e+000	 7.2330218410e-001	 6.3825413386e-001
 3.2126909134e+000	 7.5406703593e-001	 6.8476620570e-001
 3.2053105551e+000	 7.8484663811e-001	 7.1332966334e-001
 3.1976142808e+000	 8.1563650671e-001	 7.2249665427e-001
 3.1896007100e+000	 8.4643210633e-001	 7.1071159293e-001
 3.1812685429e+000	 8.7722885162e-001	 6.7630960118e-001
 3.1726165620e+000	 9.0802210898e-001	 6.1751514825e-001
 3.2694903500e+000	 6.0502714927e-001	 9.4323020407e-001
 3.2636220379e+000	 6.3592153088e-001	 5.0023507069e-001
 3.2574435295e+000	 6.6684829761e-001	 5.7491565038e-001
 3.2509530539e+000	 6.9780315378e-001	 6.3630317762e-001
 3.2441489125e+000	 7.2878174611e-001	 6.8336727440e-001
 3.2370294809e+000	 7.5977966499e-001	 7.1497433749e-001
 3.2295932108e+000	 7.9079244597e-001	 7.2988528633e-001
 3.2218386314e+000	 8.2181557116e-001	 7.2675347867e-001
 3.2137643518e+000	 8.5284447077e-001	 7.0412280529e-001
 3.2053690621e+000	 8.8387452474e-001	 6.6042597471e-001
 3.1966515360e+000	 9.1490106435e-001	 5.9398299887e-001
 3.2940729842e+000	 6.0957622558e-001	 9.2224727107e-001
 3.2881605495e+000	 6.4070289577e-001	 5.8073153863e-001
 3.2819355861e+000	 6.7186219458e-001	 6.3920631744e-001
 3.2753963099e+000	 7.0304979404e-001	 6.8537920363e-001
 3.2685410096e+000	 7.3426130811e-001	 7.1832498126e-001
 3.2613680485e+000	 7.6549229405e-001	 7.3701387560e-001
 3.2538758665e+000	 7.9673825384e-001	 7.4030914181e-001
 3.2460629820e+000	 8.2799463561e-001	 7.2696482178e-001
 3.2379279935e+000	 8.5925683522e-001	 6.9562368087e-001
 3.2294695814e+000	 8.9052019786e-001	 6.4481533569e-001
 3.2206865099e+000	 9.2178001972e-001	 5.7295458434e-001
 3.3186556184e+000	 6.1412530188e-001	 8.8162872790e-001
 3.3126990611e+000	 6.4548426067e-001	 6.4562805075e-001
 3.3064276427e+000	 6.7687609156e-001	 6.8966244287e-001
 3.2998395660e+000	 7.0829643429e-001	 7.2243755852e-001
 3.2929331067e+000	 7.3974087011e-001	 7.4313306857e-001
 3.2857066160e+000	 7.7120492311e-001	 7.5082267999e-001
 3.2781585222e+000	 8.0268406170e-001	 7.4447156381e-001
 3.2702873326e+000	 8.3417370005e-001	 7.2293395180e-001
 3.2620916352e+000	 8.6566919966e-001	 6.8495091378e-001
 3.2535701007e+000	 8.9716587098e-001	 6.2914832729e-001
 3.2447214839e+000	 9.2865897510e-001	 5.5403505132e-001
 3.3432382526e+000	 6.1867437819e-001	 8.2295788366e-001
 3.3372375726e+000	 6.5026562556e-001	 6.9512040395e-001
 3.3309196993e+000	 6.8188998853e-001	 7.2641247815e-001
 3.3242828220e+000	 7.1354307455e-001	 7.4753968620e-001
 3.3173252037e+000	 7.4522043211e-001	 7.5778634197e-001
 3.3100451835e+000	 7.7691755217e-001	 7.5632931874e-001
 3.3024411780e+000	 8.0862986957e-001	 7.4223531486e-001
 3.2945116833e+000	 8.4035276450e-001	 7.1445828875e-001
 3.2862552770e+000	 8.7208156410e-001	 6.7183707555e-001
 3.2776706199e+000	 9.0381154410e-001	 6.1309319731e-001
 3.2687564578e+000	 9.3553793047e-001	 5.3682887903e-001
 3.3678208868e+000	 6.2322345450e-001	 7.4780087365e-001
 3.3617760842e+000	 6.5504699045e-001	 7.2938885453e-001
 3.3554117559e+000	 6.8690388551e-001	 7.4957097345e-001
 3.3487260780e+000	 7.1878971480e-001	 7.6073477411e-001
 3.3417173008e+000	 7.5069999411e-001	 7.6226900042e-001
 3.3343837511e+000	 7.8263018123e-001	 7.5345340726e-001
 3.3267238337e+000	 8.1457567743e-001	 7.3345586231e-001
 3.3187360339e+000	 8.4653182894e-001	 7.0132961794e-001
 3.3104189187e+000	 8.7849392854e-001	 6.5601076562e-001
 3.3017711392e+000	 9.1045721722e-001	 5.9631588557e-001
 3.2927914318e+000	 9.4241688584e-001	 5.2093990369e-001
 3.3924035210e+000	 6.2777253081e-001	 7.3053861761e-001
 3.3863145957e+000	 6.5982835535e-001	 7.4859868116e-001
 3.3799038126e+000	 6.9191778248e-001	 7.5923908130e-001
 3.3731693341e+000	 7.2403635505e-001	 7.6206019733e-001
 3.3661093979e+000	 7.5617955611e-001	 7.5655502046e-001
 3.3587223186e+000	 7.8834281029e-001	 7.4210593257e-001
 3.3510064894e+000	 8.2052148530e-001	 7.1798164267e-001
 3.3429603845e+000	 8.5271089338e-001	 6.8333429407e-001
 3.3345825605e+000	 8.8490629298e-001	 6.3719675528e-001
 3.3258716585e+000	 9.1710289033e-001	 5.7848010757e-001
 3.3168264057e+000	 9.4929584121e-001	 5.0597134177e-001
 3.4169861552e+000	 6.3232160712e-001	 7.4402300111e-001
 3.4108531073e+000	 6.6460972024e-001	 7.5290072374e-001
 3.4043958692e+000	 6.9693167945e-001	 7.5550503850e-001
 3.3976125901e+000	 7.2928299530e-001	 7.5154194347e-001
 3.3905014950e+000	 7.6165911811e-001	 7.4060852396e-001
 3.3830608861e+000	 7.9405543935e-001	 7.2218956376e-001
 3.3752891451e+000	 8.2646729316e-001	 6.9565431450e-001
 3.3671847351e+000	 8.5888995783e-001	 6.6025343663e-001
 3.3587462022e+000	 8.9131865742e-001	 6.1511612529e-001
 3.3499721777e+000	 9.2374856345e-001	 5.5924743446e-001
 3.3408613797e+000	 9.5617479658e-001	 4.9152581230e-001
 3.4415687894e+000	 6.3687068343e-001	 7.4134527108e-001
 3.4353916189e+000	 6.6939108513e-001	 7.4243189901e-001
 3.4288879258e+000	 7.0194557643e-001	 7.3844462742e-001
 3.4220558462e+000	 7.3452963556e-001	 7.2919501935e-001
 3.4148935921e+000	 7.6713868010e-001	 7.1438413005e-001
 3.4073994536e+000	 7.9976806841e-001	 6.9359894899e-001
 3.3995718009e+000	 8.3241310102e-001	 6.6630900049e-001
 3.3914090857e+000	 8.6506902227e-001	 6.3186311685e-001
 3.3829098440e+000	 8.9773102186e-001	 5.8948639779e-001
 3.3740726970e+000	 9.3039423656e-001	 5.3827736966e-001
 3.3648963537e+000	 9.6305375194e-001	 4.7720535819e-001
 3.1245466141e+000	 8.9426419823e-001	 6.7082851986e-001
 3.1157096398e+000	 9.2458284674e-001	 6.3653948598e-001
 3.1065555498e+000	 9.5488879754e-001	 5.9840861068e-001
 3.0970833988e+000	 9.8517735496e-001	 5.5524450749e-001
 3.0872923289e+000	 1.0154437829e+000	 5.0578569040e-001
 3.0771815712e+000	 1.0456833066e+000	 4.4870305174e-001
 3.0667504478e+000	 1.0758911149e+000	 3.8260255205e-001
 3.0559983723e+000	 1.1060623621e+000	 3.0602811927e-001
 3.0449248518e+000	 1.1361921700e+000	 2.1746475396e-001
 3.0335294880e+000	 1.1662756302e+000	 1.1534183636e-001
 3.0218119785e+000	 1.1963078061e+000	-1.9633693160e-003
 3.1485815881e+000	 9.0114315360e-001	 6.4394519300e-001
 3.1396766370e+000	 9.3169502249e-001	 6.6534747082e-001
 3.1304521310e+000	 9.6223409599e-001	 6.8024208794e-001
 3.1209071173e+000	 9.9275564231e-001	 6.6352640210e-001
 3.1110407314e+000	 1.0232548889e+000	 6.0631616794e-001
 3.1008521987e+000	 1.0537270243e+000	 5.3946852072e-001
 3.0903408358e+000	 1.0841672004e+000	 4.6152420998e-001
 3.0795060520e+000	 1.1145705341e+000	 3.7096222326e-001
 3.0683473506e+000	 1.1449321098e+000	 2.6620302556e-001
 3.0568643302e+000	 1.1752469812e+000	 1.4561200418e-001
 3.0450566860e+000	 1.2055101738e+000	 7.5031138534e-003
 3.1726165620e+000	 9.0802210898e-001	 6.1751514825e-001
 3.1636436342e+000	 9.3880719824e-001	 6.4080730318e-001
 3.1543487122e+000	 9.6957939444e-001	 6.5645730659e-001
 3.1447308357e+000	 1.0003339297e+000	 6.6285580876e-001
 3.1347891339e+000	 1.0310659949e+000	 6.5826789581e-001
 3.1245228262e+000	 1.0617707421e+000	 6.3821010828e-001
 3.1139312239e+000	 1.0924432859e+000	 5.4964914662e-001
 3.1030137318e+000	 1.1230787061e+000	 4.4637499450e-001
 3.0917698495e+000	 1.1536720496e+000	 3.2674198256e-001
 3.0801991724e+000	 1.1842183322e+000	 1.8904984884e-001
 3.0683013935e+000	 1.2147125416e+000	 3.1547526710e-002
 3.1966515360e+000	 9.1490106435e-001	 5.9398299887e-001
 3.1876106315e+000	 9.4591937399e-001	 6.1898488762e-001
 3.1782452933e+000	 9.7692469289e-001	 6.3529279636e-001
 3.1685545542e+000	 1.0079122170e+000	 6.4127333632e-001
 3.1585375365e+000	 1.0388771009e+000	 6.3516589684e-001
 3.1481934537e+000	 1.0698144598e+000	 6.1508171916e-001
 3.1375216120e+000	 1.1007193714e+000	 5.7900323434e-001
 3.1265214116e+000	 1.1315868782e+000	 5.2478367466e-001
 3.1151923483e+000	 1.1624119893e+000	 3.9969893665e-001
 3.1035340146e+000	 1.1931896832e+000	 2.4628351351e-001
 3.0915461010e+000	 1.2239149093e+000	 7.0808008747e-002
 3.2206865099e+000	 9.2178001972e-001	 5.7295458434e-001
 3.2115776287e+000	 9.5303154973e-001	 5.9947586997e-001
 3.2021418745e+000	 9.8426999133e-001	 6.1633378407e-001
 3.1923782726e+000	 1.0154905044e+000	 6.2187123740e-001
 3.1822859390e+000	 1.0466882070e+000	 6.1430217185e-001
 3.1718640811e+000	 1.0778581776e+000	 5.9171061902e-001
 3.1611120000e+000	 1.1089954569e+000	 5.5205002736e-001
 3.1500290914e+000	 1.1400950502e+000	 4.9314286760e-001
 3.1386148472e+000	 1.1711519291e+000	 4.1268052551e-001
 3.1268688568e+000	 1.2021610342e+000	 3.0822349048e-001
 3.1147908086e+000	 1.2331172771e+000	 1.2592436660e-001
 3.2447214839e+000	 9.2865897510e-001	 5.5403505132e-001
 3.2355446259e+000	 9.6014372548e-001	 5.8187532279e-001
 3.2260384556e+000	 9.9161528978e-001	 5.9916506719e-001
 3.2162019911e+000	 1.0230687917e+000	 6.0422383390e-001
 3.2060343415e+000	 1.0544993130e+000	 5.9524036725e-001
 3.1955347086e+000	 1.0859018953e+000	 5.7027164800e-001
 3.1847023881e+000	 1.1172715424e+000	 5.2724220810e-001
 3.1735367712e+000	 1.1486032222e+000	 4.6394372864e-001
 3.1620373461e+000	 1.1798918689e+000	 3.7803493020e-001
 3.1502036991e+000	 1.2111323852e+000	 2.6704176428e-001
 3.1380355161e+000	 1.2423196448e+000	 1.2835791386e-001
 3.2687564578e+000	 9.3553793047e-001	 5.3682887903e-001
 3.2595116232e+000	 9.6725590122e-001	 5.6577776645e-001
 3.2499350368e+000	 9.9896058822e-001	 5.8337102953e-001
 3.2400257095e+000	 1.0306470791e+000	 5.8790519616e-001
 3.2297827441e+000	 1.0623104190e+000	 5.7754406351e-001
 3.2192053361e+000	 1.0939456130e+000	 5.5031772062e-001
 3.2082927761e+000	 1.1255476279e+000	 5.0412184916e-001
 3.1970444510e+000	 1.1571113942e+000	 4.3671731240e-001
 3.1854598449e+000	 1.1886318086e+000	 3.4573004173e-001
 3.1735385413e+000	 1.2201037362e+000	 2.2865122972e-001
 3.1612802236e+000	 1.2515220125e+000	 8.8148982921e-002
 3.2927914318e+000	 9.4241688584e-001	 5.2093990369e-001
 3.2834786204e+000	 9.7436807697e-001	 5.5077718932e-001
 3.2738316179e+000	 1.0063058867e+000	 5.6853565642e-001
 3.2638494280e+000	 1.0382253664e+000	 5.7248915214e-001
 3.2535311466e+000	 1.0701215250e+000	 5.6077677753e-001
 3.2428759635e+000	 1.1019893308e+000	 5.3140188944e-001
 3.2318831642e+000	 1.1338237134e+000	 4.8223138568e-001
 3.2205521308e+000	 1.1656195662e+000	 4.1099528343e-001
 3.2088823438e+000	 1.1973717484e+000	 3.1528660063e-001
 3.1968733835e+000	 1.2290750872e+000	 1.9256154929e-001
 3.1845249311e+000	 1.2607243803e+000	 7.1258945665e-002
 3.3168264057e+000	 9.4929584121e-001	 5.0597134177e-001
 3.3074456176e+000	 9.8148025271e-001	 5.3646706702e-001
 3.2977281991e+000	 1.0136511851e+000	 5.5424254912e-001
 3.2876731465e+000	 1.0458036537e+000	 5.5754929621e-001
 3.2772795491e+000	 1.0779326310e+000	 5.4450196496e-001
 3.2665465910e+000	 1.1100330485e+000	 5.1307734009e-001
 3.2554735523e+000	 1.1420997989e+000	 4.6111360220e-001
 3.2440598105e+000	 1.1741277382e+000	 3.8630989413e-001
 3.2323048426e+000	 1.2061116882e+000	 2.8622619579e-001
 3.2202082257e+000	 1.2380464382e+000	 1.5828351658e-001
 3.2077696387e+000	 1.2699267480e+000	 4.6485921402e-002
 3.3408613797e+000	 9.5617479658e-001	 4.9152581230e-001
 3.3314126149e+000	 9.8859242845e-001	 5.2244038084e-001
 3.3216247802e+000	 1.0209964835e+000	 5.4007493862e-001
 3.3114968649e+000	 1.0533819411e+000	 5.4265899752e-001
 3.3010279516e+000	 1.0857437371e+000	 5.2828302240e-001
 3.2902172185e+000	 1.1180767663e+000	 4.9489738648e-001
 3.2790639403e+000	 1.1503758844e+000	 4.4031162009e-001
 3.2675674903e+000	 1.1826359103e+000	 3.6219396354e-001
 3.2557273415e+000	 1.2148516279e+000	 2.5807123396e-001
 3.2435430679e+000	 1.2470177892e+000	 1.2532901554e-001
 3.2310143462e+000	 1.2791291158e+000	 1.4182125408e-002
 3.3648963537e+000	 9.6305375194e-001	 4.7720535819e-001
 3.3553796121e+000	 9.9570460419e-001	 5.0828963545e-001
 3.3455213614e+000	 1.0283417820e+000	 5.2561569888e-001
 3.3353205834e+000	 1.0609602284e+000	 5.2739140806e-001
 3.3247763542e+000	 1.0935548431e+000	 5.1168328952e-001
 3.3138878460e+000	 1.1261204840e+000	 4.7641546620e-001
 3.3026543284e+000	 1.1586519699e+000	 4.1936888553e-001
 3.2910751701e+000	 1.1911440823e+000	 3.3818085719e-001
 3.2791498404e+000	 1.2235915677e+000	 2.3034491057e-001
 3.2668779101e+000	 1.2559891402e+000	 1.0043929826e-001
 3.2542590537e+000	 1.2883314835e+000	-2.5298892179e-002
 3.0218119785e+000	 1.1963078061e+000	-1.9633693160e-003
 3.0097721177e+000	 1.2262837353e+000	-9.9688162166e-002
 2.9974097985e+000	 1.2561984318e+000	-1.8377331484e-001
 2.9847250126e+000	 1.2860468885e+000	-1.1521953144e-001
 2.9717178521e+000	 1.3158240793e+000	-6.3771959254e-002
 2.9583885102e+000	 1.3455249618e+000	-2.9245076750e-002
 2.9447372821e+000	 1.3751444794e+000	-1.1478283757e-002
 2.9307645658e+000	 1.4046775645e+000	-1.0337132679e-002
 2.9164708625e+000	 1.4341191402e+000	-2.5714489613e-002
 2.9018567779e+000	 1.4634641235e+000	-5.7531620366e-002
 2.8869230222e+000	 1.4927074274e+000	-1.0573919653e-001
 3.0450566860e+000	 1.2055101738e+000	 7.5031138534e-003
 3.0329242109e+000	 1.2357166871e+000	-9.9892845824e-002
 3.0204667969e+000	 1.2658614967e+000	-1.2680473783e-001
 3.0076844357e+000	 1.2959395569e+000	-7.2582892383e-002
 2.9945772202e+000	 1.3259458030e+000	-3.2568109049e-002
 2.9811453449e+000	 1.3558751538e+000	-6.5663657040e-003
 2.9673891074e+000	 1.3857225139e+000	 5.5877425029e-003
 2.9533089086e+000	 1.4154827765e+000	 4.0297040428e-003
 2.9389052537e+000	 1.4451508259e+000	-1.1136132757e-002
 2.9241787531e+000	 1.4747215398e+000	-3.9837702913e-002
 2.9091301224e+000	 1.5041897923e+000	-8.2036282360e-002
 3.0683013935e+000	 1.2147125416e+000	 3.1547526710e-002
 3.0560763041e+000	 1.2451496389e+000	-8.5040982389e-002
 3.0435237954e+000	 1.2755245616e+000	-6.4587926454e-002
 3.0306438589e+000	 1.3058322253e+000	-2.5757176924e-002
 3.0174365883e+000	 1.3360675267e+000	 1.7487772075e-003
 3.0039021796e+000	 1.3662253458e+000	 1.8132950882e-002
 2.9900409326e+000	 1.3963005484e+000	 2.3566039280e-002
 2.9758532514e+000	 1.4262879886e+000	 1.8185049997e-002
 2.9613396450e+000	 1.4561825116e+000	 2.0920158037e-003
 2.9465007283e+000	 1.4859789561e+000	-2.4647206533e-002
 2.9313372226e+000	 1.5156721571e+000	-6.2004046103e-002
 3.0915461010e+000	 1.2239149093e+000	 7.0808008747e-002
 3.0792283974e+000	 1.2545825907e+000	-2.8751748340e-002
 3.0665807938e+000	 1.2851876264e+000	 2.3374416557e-003
 3.0536032821e+000	 1.3157248936e+000	 2.4721393041e-002
 3.0402959564e+000	 1.3461892504e+000	 3.8647123390e-002
 3.0266590143e+000	 1.3765755378e+000	 4.4327138054e-002
 3.0126927579e+000	 1.4068785828e+000	 4.1937912729e-002
 2.9983975942e+000	 1.4370932006e+000	 3.1618456034e-002
 2.9837740362e+000	 1.4672141973e+000	 1.3468957975e-002
 2.9688227035e+000	 1.4972363725e+000	-1.2450470033e-002
 2.9535443227e+000	 1.5271545219e+000	-4.6120958088e-002
 3.1147908086e+000	 1.2331172771e+000	 1.2592436660e-001
 3.1023804906e+000	 1.2640155425e+000	 6.2681371040e-002
 3.0896377923e+000	 1.2948506913e+000	 7.3432779188e-002
 3.0765627052e+000	 1.3256175620e+000	 7.8317358946e-002
 3.0631553244e+000	 1.3563109741e+000	 7.7595763951e-002
 3.0494158490e+000	 1.3869257298e+000	 7.1490492966e-002
 3.0353445831e+000	 1.4174566173e+000	 6.0184296937e-002
 3.0209419370e+000	 1.4478984127e+000	 4.3818671118e-002
 3.0062084275e+000	 1.4782458830e+000	 2.2492438376e-002
 2.9911446788e+000	 1.5084937888e+000	-3.7395704153e-003
 2.9757514229e+000	 1.5386368868e+000	-3.4867733158e-002
 3.1380355161e+000	 1.2423196448e+000	 1.2835791386e-001
 3.1255325838e+000	 1.2734484944e+000	 1.5605339057e-001
 3.1126947907e+000	 1.3045137561e+000	 1.4816054878e-001
 3.0995221284e+000	 1.3355102304e+000	 1.3449599728e-001
 3.0860146925e+000	 1.3664326978e+000	 1.1806392872e-001
 3.0721726837e+000	 1.3972759218e+000	 9.9097343685e-002
 3.0579964084e+000	 1.4280346517e+000	 7.7785767709e-002
 3.0434862798e+000	 1.4587036247e+000	 5.4273672034e-002
 3.0286428187e+000	 1.4892775687e+000	 2.8658990908e-002
 3.0134666540e+000	 1.5197512051e+000	 9.9174150096e-004
 2.9979585231e+000	 1.5501192516e+000	-2.8727247542e-002
 3.1612802236e+000	 1.2515220125e+000	 8.8148982921e-002
 3.1486846770e+000	 1.2828814462e+000	 1.3127254590e-001
 3.1357517892e+000	 1.3141768210e+000	 1.7037273602e-001
 3.1224815516e+000	 1.3454028988e+000	 1.9272329255e-001
 3.1088740606e+000	 1.3765544214e+000	 1.5952122834e-001
 3.0949295184e+000	 1.4076261138e+000	 1.2662204806e-001
 3.0806482336e+000	 1.4386126862e+000	 9.4222555736e-002
 3.0660306226e+000	 1.4695088367e+000	 6.2470691772e-002
 3.0510772100e+000	 1.5003092544e+000	 3.1463983261e-002
 3.0357886292e+000	 1.5310086215e+000	 1.2481026176e-003
 3.0201656232e+000	 1.5616016164e+000	-2.8184459385e-002
 3.1845249311e+000	 1.2607243803e+000	 7.1258945665e-002
 3.1718367702e+000	 1.2923143980e+000	 9.8256836382e-002
 3.1588087876e+000	 1.3238398859e+000	 1.2367980356e-001
 3.1454409748e+000	 1.3552955671e+000	 1.4721678573e-001
 3.1317334287e+000	 1.3866761451e+000	 1.6853803069e-001
 3.1176863531e+000	 1.4179763059e+000	 1.5353899262e-001
 3.1033000588e+000	 1.4491907206e+000	 1.0897455920e-001
 3.0885749654e+000	 1.4803140488e+000	 6.7896246671e-002
 3.0735116012e+000	 1.5113409401e+000	 3.0401659482e-002
 3.0581106044e+000	 1.5422660378e+000	-3.4674036007e-003
 3.0423727234e+000	 1.5730839812e+000	-3.3726332768e-002
 3.2077696387e+000	 1.2699267480e+000	 4.6485921402e-002
 3.1949888634e+000	 1.3017473498e+000	 5.7376480160e-002
 3.1818657860e+000	 1.3335029507e+000	 6.9107827123e-002
 3.1684003979e+000	 1.3651882355e+000	 8.1337156571e-002
 3.1545927968e+000	 1.3967978688e+000	 9.3700376157e-002
 3.1404431878e+000	 1.4283264979e+000	 1.0581399326e-001
 3.1259518841e+000	 1.4597687551e+000	 1.1727707310e-001
 3.1111193082e+000	 1.4911192608e+000	 7.0036162391e-002
 3.0959459925e+000	 1.5223726258e+000	 2.4965180686e-002
 3.0804325796e+000	 1.5535234541e+000	-1.3653190842e-002
 3.0645798236e+000	 1.5845663461e+000	-4.5841765034e-002
 3.2310143462e+000	 1.2791291158e+000	 1.4182125408e-002
 3.2181409566e+000	 1.3111803016e+000	 9.0028508799e-003
 3.2049227845e+000	 1.3431660156e+000	 7.0480037288e-003
 3.1913598211e+000	 1.3750809039e+000	 7.9421187540e-003
 3.1774521649e+000	 1.4069195925e+000	 1.1285860482e-002
 3.1632000224e+000	 1.4386766899e+000	 1.6657954972e-002
 3.1486037093e+000	 1.4703467896e+000	 2.3617197665e-002
 3.1336636511e+000	 1.5019244728e+000	 3.1704532271e-002
 3.1183803837e+000	 1.5334043115e+000	 1.4646664006e-002
 3.1027545548e+000	 1.5647808705e+000	-2.9809116094e-002
 3.0867869237e+000	 1.5960487109e+000	-6.5021517238e-002
 3.2542590537e+000	 1.2883314835e+000	-2.5298892179e-002
 3.2412930498e+000	 1.3206132534e+000	-4.6491563577e-002
 3.2279797829e+000	 1.3528290804e+000	-6.2107596591e-002
 3.2143192443e+000	 1.3849735723e+000	-7.2556041392e-002
 3.2003115330e+000	 1.4170413162e+000	-7.8272390313e-002
 3.1859568571e+000	 1.4490268819e+000	-7.9716598951e-002
 3.1712555346e+000	 1.4809248240e+000	-7.7371026880e-002
 3.1562079939e+000	 1.5127296849e+000	-7.1738303100e-002
 3.1408147750e+000	 1.5444359972e+000	-6.3339121632e-002
 3.1250765300e+000	 1.5760382868e+000	-5.2709972999e-002
 3.1089940239e+000	 1.6075310757e+000	-9.1758147591e-002
 2.8869230222e+000	 1.4927074274e+000	-1.0573919653e-001
 2.8716704108e+000	 1.5218439643e+000	-1.5798706769e-001
 2.8560998648e+000	 1.5508686476e+000	-2.0547104652e-001
 2.8402124111e+000	 1.5797763955e+000	-2.4838306026e-001
 2.8240091829e+000	 1.6085621327e+000	-2.8696749080e-001
 2.8074914197e+000	 1.6372207940e+000	-3.2152172901e-001
 2.7906604674e+000	 1.6657473264e+000	-3.5239659871e-001
 2.7735177786e+000	 1.6941366922e+000	-3.7999664661e-001
 2.7560649120e+000	 1.7223838716e+000	-4.0478029531e-001
 2.7383035326e+000	 1.7504838655e+000	-4.2725985638e-001
 2.7202354115e+000	 1.7784316985e+000	-4.4800140145e-001
 2.9091301224e+000	 1.5041897923e+000	-8.2036282360e-002
 2.8937601832e+000	 1.5335504563e+000	-1.3203399798e-001
 2.8780698638e+000	 1.5627984065e+000	-1.7743891651e-001
 2.8620601989e+000	 1.5919285216e+000	-2.1844832514e-001
 2.8457323305e+000	 1.6209356876e+000	-2.5531311836e-001
 2.8290875075e+000	 1.6498148002e+000	-2.8833836486e-001
 2.8121270864e+000	 1.6785607674e+000	-3.1788374100e-001
 2.7948525307e+000	 1.7071685129e+000	-3.4436382725e-001
 2.7772654113e+000	 1.7356329783e+000	-3.6824826454e-001
 2.7593674059e+000	 1.7639491260e+000	-3.9006176746e-001
 2.7411602993e+000	 1.7921119423e+000	-4.1038399215e-001
 2.9313372226e+000	 1.5156721571e+000	-6.2004046103e-002
 2.9158499556e+000	 1.5452569483e+000	-1.1021622110e-001
 2.9000398628e+000	 1.5747281653e+000	-1.5397286802e-001
 2.8839079867e+000	 1.6040806477e+000	-1.9347636138e-001
 2.8674554780e+000	 1.6333092425e+000	-2.2898387876e-001
 2.8506835954e+000	 1.6624088063e+000	-2.6080798096e-001
 2.8335937054e+000	 1.6913742084e+000	-2.8931705569e-001
 2.8161872829e+000	 1.7202003336e+000	-3.1493562109e-001
 2.7984659106e+000	 1.7488820850e+000	-3.3814448580e-001
 2.7804312793e+000	 1.7774143865e+000	-3.5948076282e-001
 2.7620851870e+000	 1.8057921862e+000	-3.7953773451e-001
 2.9535443227e+000	 1.5271545219e+000	-4.6120958088e-002
 2.9379397280e+000	 1.5569634404e+000	-9.3015285601e-002
 2.9220098617e+000	 1.5866579241e+000	-1.3555737967e-001
 2.9057557745e+000	 1.6162327739e+000	-1.7395442807e-001
 2.8891786256e+000	 1.6456827974e+000	-2.0846966079e-001
 2.8722796832e+000	 1.6750028124e+000	-2.3942294421e-001
 2.8550603244e+000	 1.7041876494e+000	-2.6719123558e-001
 2.8375220350e+000	 1.7332321543e+000	-2.9220889420e-001
 2.8196664100e+000	 1.7621311917e+000	-3.1496784583e-001
 2.8014951526e+000	 1.7908796470e+000	-3.3601759745e-001
 2.7830100748e+000	 1.8194724300e+000	-3.5596509985e-001
 2.9757514229e+000	 1.5386368868e+000	-3.4867733158e-002
 2.9600295004e+000	 1.5686699324e+000	-8.0915033880e-002
 2.9439798607e+000	 1.5985876830e+000	-1.2267926677e-001
 2.9276035623e+000	 1.6283849000e+000	-1.6037215733e-001
 2.9109017732e+000	 1.6580563522e+000	-1.9426275610e-001
 2.8938757711e+000	 1.6875968185e+000	-2.2467804750e-001
 2.8765269434e+000	 1.7170010903e+000	-2.5200341591e-001
 2.8588567872e+000	 1.7462639751e+000	-2.7668296493e-001
 2.8408669093e+000	 1.7753802984e+000	-2.9921968672e-001
 2.8225590259e+000	 1.8043449075e+000	-3.2017547803e-001
 2.8039349626e+000	 1.8331526738e+000	-3.4017100075e-001
 2.9979585231e+000	 1.5501192516e+000	-2.8727247542e-002
 2.9821192728e+000	 1.5803764244e+000	-7.4401517248e-002
 2.9659498596e+000	 1.6105174418e+000	-1.1582759482e-001
 2.9494513500e+000	 1.6405370261e+000	-1.5322146647e-001
 2.9326249207e+000	 1.6704299071e+000	-1.8685777013e-001
 2.9154718589e+000	 1.7001908246e+000	-2.1707041984e-001
 2.8979935624e+000	 1.7298145313e+000	-2.4425308393e-001
 2.8801915393e+000	 1.7592957958e+000	-2.6885951308e-001
 2.8620674086e+000	 1.7886294051e+000	-2.9140371497e-001
 2.8436228993e+000	 1.8178101680e+000	-3.1245997214e-001
 2.8248598504e+000	 1.8468329177e+000	-3.3266270067e-001
 3.0201656232e+000	 1.5616016164e+000	-2.8184459385e-002
 3.0042090452e+000	 1.5920829165e+000	-7.3962914704e-002
 2.9879198586e+000	 1.6224472006e+000	-1.1549359680e-001
 2.9712991378e+000	 1.6526891522e+000	-1.5299647394e-001
 2.9543480683e+000	 1.6828034620e+000	-1.8675153711e-001
 2.9370679468e+000	 1.7127848307e+000	-2.1709944047e-001
 2.9194601813e+000	 1.7426279723e+000	-2.4444199242e-001
 2.9015262915e+000	 1.7723276165e+000	-2.6924249305e-001
 2.8832679079e+000	 1.8018785118e+000	-2.9202591458e-001
 2.8646867726e+000	 1.8312754286e+000	-3.1337892143e-001
 2.8457847382e+000	 1.8605131615e+000	-3.3394972747e-001
 3.0423727234e+000	 1.5730839812e+000	-3.3726332768e-002
 3.0262988176e+000	 1.6037894085e+000	-8.0089455286e-002
 3.0098898576e+000	 1.6343769594e+000	-1.2217059399e-001
 2.9931469256e+000	 1.6648412783e+000	-1.6019341904e-001
 2.9760712159e+000	 1.6951770168e+000	-1.9444303868e-001
 2.9586640346e+000	 1.7253788368e+000	-2.2526665672e-001
 2.9409268003e+000	 1.7554414133e+000	-2.5307407700e-001
 2.9228610436e+000	 1.7853594372e+000	-2.7833805087e-001
 2.9044684072e+000	 1.8151276185e+000	-3.0159446390e-001
 2.8857506459e+000	 1.8447406891e+000	-3.2344235866e-001
 2.8667096260e+000	 1.8741934053e+000	-3.4454379081e-001
 3.0645798236e+000	 1.5845663461e+000	-4.5841765034e-002
 3.0483885900e+000	 1.6154959005e+000	-9.3273343796e-002
 3.0318598565e+000	 1.6463067183e+000	-1.3635392040e-001
 3.0149947134e+000	 1.6769934045e+000	-1.7531058503e-001
 2.9977943634e+000	 1.7075505717e+000	-2.1043332612e-001
 2.9802601225e+000	 1.7379728429e+000	-2.4207570549e-001
 2.9623934193e+000	 1.7682548542e+000	-2.7065537705e-001
 2.9441957958e+000	 1.7983912579e+000	-2.9665444474e-001
 2.9256689066e+000	 1.8283767252e+000	-3.2061965614e-001
 2.9068145192e+000	 1.8582059496e+000	-3.4316242832e-001
 2.8876345137e+000	 1.8878736492e+000	-3.6112657974e-001
 3.0867869237e+000	 1.5960487109e+000	-6.5021517238e-002
 3.0704783624e+000	 1.6272023926e+000	-1.1400868972e-001
 3.0538298555e+000	 1.6582364771e+000	-1.5854085031e-001
 3.0368425011e+000	 1.6891455306e+000	-1.9884822564e-001
 3.0195175110e+000	 1.7199241266e+000	-2.3522544585e-001
 3.0018562103e+000	 1.7505668490e+000	-2.6803223808e-001
 2.9838600383e+000	 1.7810682952e+000	-2.9769396005e-001
 2.9655305479e+000	 1.8114230786e+000	-3.2470196913e-001
 2.9468694059e+000	 1.8416258319e+000	-3.4961382332e-001
 2.9278783926e+000	 1.8716712101e+000	-3.7305331062e-001
 2.9085594015e+000	 1.9015538930e+000	-3.8176221234e-001
 3.1089940239e+000	 1.6075310757e+000	-9.1758147591e-002
 3.0925681348e+000	 1.6389088846e+000	-1.4279143923e-001
 3.0757998544e+000	 1.6701662359e+000	-1.8923052897e-001
 3.0586902889e+000	 1.7012976567e+000	-2.3130849468e-001
 3.0412406585e+000	 1.7322976814e+000	-2.6932436822e-001
 3.0234522981e+000	 1.7631608551e+000	-3.0364384822e-001
 3.0053266573e+000	 1.7938817362e+000	-3.3469984910e-001
 2.9868653000e+000	 1.8244548993e+000	-3.6299288196e-001
 2.9680699052e+000	 1.8548749386e+000	-3.8909126341e-001
 2.9489422659e+000	 1.8851364706e+000	-4.0820475503e-001
 2.9294842893e+000	 1.9152341368e+000	-4.0624658208e-001
 2.7202354115e+000	 1.7784316985e+000	-4.4800140145e-001
 2.7018624252e+000	 1.8062224213e+000	-5.1003698101e-001
 2.6831865557e+000	 1.8338511137e+000	-5.7358163627e-001
 2.6642098895e+000	 1.8613128874e+000	-6.3956924847e-001
 2.6449346172e+000	 1.8886028886e+000	-7.0223045454e-001
 2.6253630329e+000	 1.9157163009e+000	-7.4876034081e-001
 2.6054975333e+000	 1.9426483480e+000	-7.8222444749e-001
 2.5853406170e+000	 1.9693942963e+000	-8.0351036918e-001
 2.5648948833e+000	 1.9959494577e+000	-8.1351634073e-001
 2.5441630315e+000	 2.0223091922e+000	-8.1314943675e-001
 2.5231478596e+000	 2.0484689108e+000	-8.0332375999e-001
 2.7411602993e+000	 1.7921119423e+000	-4.1038399215e-001
 2.7226459824e+000	 1.8201164399e+000	-4.7733587373e-001
 2.7038264523e+000	 1.8479576607e+000	-5.4653735600e-001
 2.6847038117e+000	 1.8756306788e+000	-6.1878635144e-001
 2.6652802681e+000	 1.9031306032e+000	-6.8038627365e-001
 2.6455581331e+000	 1.9304525802e+000	-7.2906265022e-001
 2.6255398220e+000	 1.9575917969e+000	-7.6569060111e-001
 2.6052278525e+000	 1.9845434832e+000	-7.9115652271e-001
 2.5846248440e+000	 2.0113029150e+000	-8.0635627708e-001
 2.5637335164e+000	 2.0378654168e+000	-8.1219336706e-001
 2.5425566893e+000	 2.0642263640e+000	-8.0957710213e-001
 2.7620851870e+000	 1.8057921862e+000	-3.7953773451e-001
 2.7434295395e+000	 1.8340104585e+000	-4.5096030488e-001
 2.7244663489e+000	 1.8620642078e+000	-5.2533084565e-001
 2.7051977340e+000	 1.8899484703e+000	-5.9946761817e-001
 2.6856259190e+000	 1.9176583177e+000	-6.6134435509e-001
 2.6657532334e+000	 1.9451888594e+000	-7.1130063015e-001
 2.6455821107e+000	 1.9725352457e+000	-7.5021231197e-001
 2.6251150880e+000	 1.9996926701e+000	-7.7896540502e-001
 2.6043548046e+000	 2.0266563724e+000	-7.9845421171e-001
 2.5833040013e+000	 2.0534216413e+000	-8.0957948214e-001
 2.5619655190e+000	 2.0799838171e+000	-8.1324655622e-001
 2.7830100748e+000	 1.8194724300e+000	-3.5596509985e-001
 2.7642130966e+000	 1.8479044772e+000	-4.3142705545e-001
 2.7451062455e+000	 1.8761707548e+000	-5.1043006945e-001
 2.7256916562e+000	 1.9042662617e+000	-5.8353916848e-001
 2.7059715699e+000	 1.9321860322e+000	-6.4485046759e-001
 2.6859483336e+000	 1.9599251387e+000	-6.9523052820e-001
 2.6656243995e+000	 1.9874786945e+000	-7.3555676520e-001
 2.6450023235e+000	 2.0148418570e+000	-7.6671559637e-001
 2.6240847652e+000	 2.0420098298e+000	-7.8960057633e-001
 2.6028744861e+000	 2.0689778659e+000	-8.0511051982e-001
 2.5813743487e+000	 2.0957412703e+000	-8.1414761888e-001
 2.8039349626e+000	 1.8331526738e+000	-3.4017100075e-001
 2.7849966537e+000	 1.8617984958e+000	-4.1925495004e-001
 2.7657461421e+000	 1.8902773018e+000	-4.9999934161e-001
 2.7461855784e+000	 1.9185840532e+000	-5.7073796432e-001
 2.7263172208e+000	 1.9467137467e+000	-6.3065115976e-001
 2.7061434339e+000	 1.9746614179e+000	-6.8060892755e-001
 2.6856666882e+000	 2.0024221433e+000	-7.2149102591e-001
 2.6648895590e+000	 2.0299910439e+000	-7.5418509040e-001
 2.6438147259e+000	 2.0573632871e+000	-7.7958473861e-001
 2.6224449710e+000	 2.0845340904e+000	-7.9858766578e-001
 2.6007831784e+000	 2.1114987234e+000	-8.1209373611e-001
 2.8248598504e+000	 1.8468329177e+000	-3.3266270067e-001
 2.8057802108e+000	 1.8756925144e+000	-4.1495482865e-001
 2.7863860387e+000	 1.9043838488e+000	-4.9324372079e-001
 2.7666795006e+000	 1.9329018446e+000	-5.6080213544e-001
 2.7466628717e+000	 1.9612414613e+000	-6.1849373119e-001
 2.7263385341e+000	 1.9893976971e+000	-6.6719273447e-001
 2.7057089769e+000	 2.0173655922e+000	-7.0778204363e-001
 2.6847767946e+000	 2.0451402308e+000	-7.4115131587e-001
 2.6635446865e+000	 2.0727167445e+000	-7.6819504154e-001
 2.6420154558e+000	 2.1000903150e+000	-7.8981061107e-001
 2.6201920081e+000	 2.1272561766e+000	-8.0689637921e-001
 2.8457847382e+000	 1.8605131615e+000	-3.3394972747e-001
 2.8265637680e+000	 1.8895865330e+000	-4.1652603512e-001
 2.8070259352e+000	 1.9184903959e+000	-4.8989411955e-001
 2.7871734229e+000	 1.9472196360e+000	-5.5347093655e-001
 2.7670085226e+000	 1.9757691758e+000	-6.0812620484e-001
 2.7465336344e+000	 2.0041339764e+000	-6.5473916646e-001
 2.7257512656e+000	 2.0323090410e+000	-6.9419665657e-001
 2.7046640301e+000	 2.0602894177e+000	-7.2739115740e-001
 2.6832746472e+000	 2.0880702019e+000	-7.5521884114e-001
 2.6615859407e+000	 2.1156465395e+000	-7.7857760703e-001
 2.6396008378e+000	 2.1430136297e+000	-7.9836511744e-001
 2.8667096260e+000	 1.8741934053e+000	-3.4454379081e-001
 2.8473473251e+000	 1.9034805517e+000	-4.2201535520e-001
 2.8276658318e+000	 1.9325969429e+000	-4.8968291083e-001
 2.8076673451e+000	 1.9615374275e+000	-5.4848470619e-001
 2.7873541735e+000	 1.9902968903e+000	-5.9929730063e-001
 2.7667287347e+000	 2.0188702556e+000	-6.4300574092e-001
 2.7457935543e+000	 2.0472524898e+000	-6.8050159569e-001
 2.7245512656e+000	 2.0754386045e+000	-7.1268097536e-001
 2.7030046078e+000	 2.1034236592e+000	-7.4044254249e-001
 2.6811564256e+000	 2.1312027641e+000	-7.6468551787e-001
 2.6590096675e+000	 2.1587710829e+000	-7.8630768736e-001
 2.8876345137e+000	 1.8878736492e+000	-3.6112657974e-001
 2.8681308822e+000	 1.9173745703e+000	-4.3114937165e-001
 2.8483057284e+000	 1.9467034899e+000	-4.9234387507e-001
 2.8281612673e+000	 1.9758552189e+000	-5.4558482753e-001
 2.8076998244e+000	 2.0048246048e+000	-5.9175641021e-001
 2.7869238349e+000	 2.0336065348e+000	-6.3175026421e-001
 2.7658358430e+000	 2.0621959387e+000	-6.6646348854e-001
 2.7444385011e+000	 2.0905877914e+000	-6.9679662484e-001
 2.7227345685e+000	 2.1187771166e+000	-7.2365163415e-001
 2.7007269104e+000	 2.1467589886e+000	-7.4792987088e-001
 2.6784184972e+000	 2.1745285361e+000	-7.7053005929e-001
 2.9085594015e+000	 1.9015538930e+000	-3.8176221234e-001
 2.8889144393e+000	 1.9312685889e+000	-4.4365636412e-001
 2.8689456250e+000	 1.9608100369e+000	-4.9761214955e-001
 2.8486551895e+000	 1.9901730104e+000	-5.4451369072e-001
 2.8280454753e+000	 2.0193523194e+000	-5.8525357276e-001
 2.8071189352e+000	 2.0483428141e+000	-6.2073082135e-001
 2.7858781318e+000	 2.0771393875e+000	-6.5184886304e-001
 2.7643257366e+000	 2.1057369783e+000	-6.7951347384e-001
 2.7424645291e+000	 2.1341305740e+000	-7.0463072115e-001
 2.7202973953e+000	 2.1623152132e+000	-7.2810490456e-001
 2.6978273268e+000	 2.1902859892e+000	-7.5083650082e-001
 2.9294842893e+000	 1.9152341368e+000	-4.0624658208e-001
 2.9096979964e+000	 1.9451626075e+000	-4.5926624863e-001
 2.8895855216e+000	 1.9749165840e+000	-5.0522417997e-001
 2.8691491118e+000	 2.0044908018e+000	-5.4501465698e-001
 2.8483911262e+000	 2.0338800339e+000	-5.7953945193e-001
 2.8273140354e+000	 2.0630790933e+000	-6.0970576599e-001
 2.8059204205e+000	 2.0920828363e+000	-6.3642415101e-001
 2.7842129721e+000	 2.1208861652e+000	-6.6060642067e-001
 2.7621944897e+000	 2.1494840313e+000	-6.8316355655e-001
 2.7398678801e+000	 2.1778714378e+000	-7.0500361463e-001
 2.7172361565e+000	 2.2060434424e+000	-7.2702963764e-001
 2.5231478596e+000	 2.0484689108e+000	-8.0332375999e-001
 2.5018522630e+000	 2.0744240777e+000	-8.0677171658e-001
 2.4802792335e+000	 2.1001702130e+000	-8.7285850878e-001
 2.4584318577e+000	 2.1257028957e+000	-9.2786030269e-001
 2.4363133158e+000	 2.1510177654e+000	-9.6636024045e-001
 2.4139268797e+000	 2.1761105255e+000	-9.8970200247e-001
 2.3912759120e+000	 2.2009769451e+000	-9.9925349564e-001
 2.3683638636e+000	 2.2256128616e+000	-9.9640358872e-001
 2.3451942726e+000	 2.2500141830e+000	-9.8255880360e-001
 2.3217707623e+000	 2.2741768901e+000	-9.5913997125e-001
 2.2980970388e+000	 2.2980970388e+000	-9.2757886086e-001
 2.5425566893e+000	 2.0642263640e+000	-8.0957710213e-001
 2.5210972804e+000	 2.0903811859e+000	-8.1055580786e-001
 2.4993583046e+000	 2.1163253685e+000	-8.1341776363e-001
 2.4773428720e+000	 2.1420544564e+000	-8.7054801795e-001
 2.4550541875e+000	 2.1675640559e+000	-9.1062130290e-001
 2.4324955480e+000	 2.1928498373e+000	-9.3505897050e-001
 2.4096703421e+000	 2.2179075370e+000	-9.4530728060e-001
 2.3865820472e+000	 2.2427329605e+000	-9.4283401048e-001
 2.3632342286e+000	 2.2673219844e+000	-9.2912501927e-001
 2.3396305373e+000	 2.2916705585e+000	-9.0568077604e-001
 2.3157747084e+000	 2.3157747084e+000	-8.7401286049e-001
 2.5619655190e+000	 2.0799838171e+000	-8.1324655622e-001
 2.5403422979e+000	 2.1063382942e+000	-8.1225132100e-001
 2.5184373756e+000	 2.1324805240e+000	-8.1118725830e-001
 2.4962538863e+000	 2.1584060172e+000	-8.1941282862e-001
 2.4737950591e+000	 2.1841103464e+000	-8.6146712188e-001
 2.4510642163e+000	 2.2095891490e+000	-8.8740277473e-001
 2.4280647722e+000	 2.2348381289e+000	-8.9874512725e-001
 2.4048002307e+000	 2.2598530594e+000	-8.9704159890e-001
 2.3812741845e+000	 2.2846297858e+000	-8.8385812455e-001
 2.3574903124e+000	 2.3091642269e+000	-8.6077555319e-001
 2.3334523779e+000	 2.3334523779e+000	-8.2938601876e-001
 2.5813743487e+000	 2.0957412703e+000	-8.1414761888e-001
 2.5595873153e+000	 2.1222954025e+000	-8.1165468775e-001
 2.5375164466e+000	 2.1486356795e+000	-8.0906456909e-001
 2.5151649006e+000	 2.1747575779e+000	-8.0699717216e-001
 2.4925359308e+000	 2.2006566370e+000	-8.1889089368e-001
 2.4696328847e+000	 2.2263284607e+000	-8.4670389846e-001
 2.4464592022e+000	 2.2517687207e+000	-8.5951477318e-001
 2.4230184143e+000	 2.2769731584e+000	-8.5895133113e-001
 2.3993141405e+000	 2.3019375872e+000	-8.4666033946e-001
 2.3753500875e+000	 2.3266578953e+000	-8.2430378706e-001
 2.3511300474e+000	 2.3511300474e+000	-7.9355512392e-001
 2.6007831784e+000	 2.1114987234e+000	-8.1209373611e-001
 2.5788323327e+000	 2.1382525108e+000	-8.0856074397e-001
 2.5565955176e+000	 2.1647908350e+000	-8.0491033980e-001
 2.5340759149e+000	 2.1911091386e+000	-8.0181279012e-001
 2.5112768024e+000	 2.2172029275e+000	-7.9992932295e-001
 2.4882015530e+000	 2.2430677725e+000	-8.1293305780e-001
 2.4648536323e+000	 2.2686993126e+000	-8.2756464729e-001
 2.4412365979e+000	 2.2940932573e+000	-8.2848933424e-001
 2.4173540964e+000	 2.3192453886e+000	-8.1743549250e-001
 2.3932098626e+000	 2.3441515636e+000	-7.9614702867e-001
 2.3688077170e+000	 2.3688077170e+000	-7.6637948847e-001
 2.6201920081e+000	 2.1272561766e+000	-8.0689637921e-001
 2.5980773501e+000	 2.1542096191e+000	-8.0276278871e-001
 2.5756745887e+000	 2.1809459905e+000	-7.9849977307e-001
 2.5529869292e+000	 2.2074606994e+000	-7.9482814935e-001
 2.5300176741e+000	 2.2337492180e+000	-7.9245943804e-001
 2.5067702213e+000	 2.2598070842e+000	-7.9209416765e-001
 2.4832480624e+000	 2.2856299045e+000	-8.0284384416e-001
 2.4594547814e+000	 2.3112133562e+000	-8.0558284267e-001
 2.4353940524e+000	 2.3365531900e+000	-7.9608896108e-001
 2.4110696377e+000	 2.3616452320e+000	-7.7618881917e-001
 2.3864853865e+000	 2.3864853865e+000	-7.4772085574e-001
 2.6396008378e+000	 2.1430136297e+000	-7.9836511744e-001
 2.6173223675e+000	 2.1701667274e+000	-7.9405264070e-001
 2.5947536597e+000	 2.1971011459e+000	-7.8960701413e-001
 2.5718979435e+000	 2.2238122601e+000	-7.8579981015e-001
 2.5487585458e+000	 2.2502955085e+000	-7.8339303492e-001
 2.5253388896e+000	 2.2765463959e+000	-7.8313735763e-001
 2.5016424925e+000	 2.3025604964e+000	-7.8577037139e-001
 2.4776729650e+000	 2.3283334552e+000	-7.9016015750e-001
 2.4534340083e+000	 2.3538609914e+000	-7.8252761454e-001
 2.4289294128e+000	 2.3791389004e+000	-7.6431461663e-001
 2.4041630560e+000	 2.4041630560e+000	-7.3744331042e-001
 2.6590096675e+000	 2.1587710829e+000	-7.8630768736e-001
 2.6365673849e+000	 2.1861238357e+000	-7.8222069239e-001
 2.6138327307e+000	 2.2132563014e+000	-7.7800518938e-001
 2.5908089578e+000	 2.2401638209e+000	-7.7448372229e-001
 2.5674994174e+000	 2.2668417990e+000	-7.7246898749e-001
 2.5439075579e+000	 2.2932857077e+000	-7.7276198707e-001
 2.5200369226e+000	 2.3194910883e+000	-7.7615021465e-001
 2.4958911486e+000	 2.3454535541e+000	-7.8215060752e-001
 2.4714739642e+000	 2.3711687928e+000	-7.7665975971e-001
 2.4467891879e+000	 2.3966325688e+000	-7.6041172611e-001
 2.4218407256e+000	 2.4218407256e+000	-7.3541319321e-001
 2.6784184972e+000	 2.1745285361e+000	-7.7053005929e-001
 2.6558124023e+000	 2.2020809440e+000	-7.6705596166e-001
 2.6329118018e+000	 2.2294114569e+000	-7.6346644331e-001
 2.6097199721e+000	 2.2565153816e+000	-7.6063524720e-001
 2.5862402891e+000	 2.2833880895e+000	-7.5942597549e-001
 2.5624762262e+000	 2.3100250194e+000	-7.6069016646e-001
 2.5384313527e+000	 2.3364216802e+000	-7.6526540446e-001
 2.5141093321e+000	 2.3625736530e+000	-7.7397346816e-001
 2.4895139202e+000	 2.3884765942e+000	-7.7839508888e-001
 2.4646489630e+000	 2.4141262372e+000	-7.6436923274e-001
 2.4395183951e+000	 2.4395183951e+000	-7.4149901901e-001
 2.6978273268e+000	 2.1902859892e+000	-7.5083650082e-001
 2.6750574197e+000	 2.2180380522e+000	-7.4834614119e-001
 2.6519908728e+000	 2.2455666124e+000	-7.4576197382e-001
 2.6286309864e+000	 2.2728669423e+000	-7.4400917906e-001
 2.6049811607e+000	 2.2999343800e+000	-7.4400249148e-001
 2.5810448945e+000	 2.3267643311e+000	-7.4664419955e-001
 2.5568257828e+000	 2.3533522720e+000	-7.5282217940e-001
 2.5323275157e+000	 2.3796937520e+000	-7.6340796767e-001
 2.5075538761e+000	 2.4057843956e+000	-7.7925487858e-001
 2.4825087381e+000	 2.4316199056e+000	-7.7607793766e-001
 2.4571960646e+000	 2.4571960646e+000	-7.5557139875e-001
 2.7172361565e+000	 2.2060434424e+000	-7.2702963764e-001
 2.6943024371e+000	 2.2339951605e+000	-7.2587764587e-001
 2.6710699438e+000	 2.2617217679e+000	-7.2466206602e-001
 2.6475420007e+000	 2.2892185031e+000	-7.2435976515e-001
 2.6237220324e+000	 2.3164806705e+000	-7.2593684750e-001
 2.5996135628e+000	 2.3435036429e+000	-7.3034657648e-001
 2.5752202129e+000	 2.3702828639e+000	-7.3852733153e-001
 2.5505456993e+000	 2.3968138509e+000	-7.5140060505e-001
 2.5255938321e+000	 2.4230921970e+000	-7.6986904472e-001
 2.5003685132e+000	 2.4491135740e+000	-7.9481454622e-001
 2.4748737342e+000	 2.4748737342e+000	-7.7750296450e-001
 2.2980970388e+000	 2.2980970388e+000	-9.2757886086e-001
 2.2741768901e+000	 2.3217707623e+000	-9.0587615769e-001
 2.2500141830e+000	 2.3451942726e+000	-8.8648077334e-001
 2.2256128616e+000	 2.3683638636e+000	-8.7129400676e-001
 2.2009769451e+000	 2.3912759120e+000	-8.6220807915e-001
 2.1761105255e+000	 2.4139268797e+000	-8.6110228168e-001
 2.1510177654e+000	 2.4363133158e+000	-8.6983915876e-001
 2.1257028957e+000	 2.4584318577e+000	-8.9026073637e-001
 2.1001702130e+000	 2.4802792335e+000	-9.2418480483e-001
 2.0744240777e+000	 2.5018522630e+000	-9.6789660632e-001
 2.0484689108e+000	 2.5231478596e+000	-9.6167119120e-001
 2.3157747084e+000	 2.3157747084e+000	-8.7401286049e-001
 2.2916705585e+000	 2.3396305373e+000	-8.6252951661e-001
 2.2673219844e+000	 2.3632342286e+000	-8.5339607151e-001
 2.2427329605e+000	 2.3865820472e+000	-8.4852246428e-001
 2.2179075370e+000	 2.4096703421e+000	-8.4980930618e-001
 2.1928498373e+000	 2.4324955480e+000	-8.5914397612e-001
 2.1675640559e+000	 2.4550541875e+000	-8.7839675243e-001
 2.1420544564e+000	 2.4773428720e+000	-9.0941699083e-001
 2.1163253685e+000	 2.4993583046e+000	-9.5402935772e-001
 2.0903811859e+000	 2.5210972804e+000	-9.5417471455e-001
 2.0642263640e+000	 2.5425566893e+000	-9.5370349006e-001
 2.3334523779e+000	 2.3334523779e+000	-8.2938601876e-001
 2.3091642269e+000	 2.3574903124e+000	-8.2679670381e-001
 2.2846297858e+000	 2.3812741845e+000	-8.2659974842e-001
 2.2598530594e+000	 2.4048002307e+000	-8.3071529659e-001
 2.2348381289e+000	 2.4280647722e+000	-8.4105390921e-001
 2.2095891490e+000	 2.4510642163e+000	-8.5951260506e-001
 2.1841103464e+000	 2.4737950591e+000	-8.8797093895e-001
 2.1584060172e+000	 2.4962538863e+000	-9.2828712701e-001
 2.1324805240e+000	 2.5184373756e+000	-9.3926146353e-001
 2.1063382942e+000	 2.5403422979e+000	-9.4264778314e-001
 2.0799838171e+000	 2.5619655190e+000	-9.4680790089e-001
 2.3511300474e+000	 2.3511300474e+000	-7.9355512392e-001
 2.3266578953e+000	 2.3753500875e+000	-7.9855042608e-001
 2.3019375872e+000	 2.3993141405e+000	-8.0598049843e-001
 2.2769731584e+000	 2.4230184143e+000	-8.1777725400e-001
 2.2517687207e+000	 2.4464592022e+000	-8.3586276215e-001
 2.2263284607e+000	 2.4696328847e+000	-8.6214523284e-001
 2.2006566370e+000	 2.4925359308e+000	-8.9851503898e-001
 2.1747575779e+000	 2.5151649006e+000	-9.1862038476e-001
 2.1486356795e+000	 2.5375164466e+000	-9.2604142676e-001
 2.1222954025e+000	 2.5595873153e+000	-9.3313422635e-001
 2.0957412703e+000	 2.5813743487e+000	-9.4082429669e-001
 2.3688077170e+000	 2.3688077170e+000	-7.6637948847e-001
 2.3441515636e+000	 2.3932098626e+000	-7.7766522035e-001
 2.3192453886e+000	 2.4173540964e+000	-7.9142815113e-001
 2.2940932573e+000	 2.4412365979e+000	-8.0961352667e-001
 2.2686993126e+000	 2.4648536323e+000	-8.3415648322e-001
 2.2430677725e+000	 2.4882015530e+000	-8.6697797277e-001
 2.2172029275e+000	 2.5112768024e+000	-8.9398410983e-001
 2.1911091386e+000	 2.5340759149e+000	-9.0556333138e-001
 2.1647908350e+000	 2.5565955176e+000	-9.1574247926e-001
 2.1382525108e+000	 2.5788323327e+000	-9.2544873483e-001
 2.1114987234e+000	 2.6007831784e+000	-9.3558813756e-001
 2.3864853865e+000	 2.3864853865e+000	-7.4772085574e-001
 2.3616452320e+000	 2.4110696377e+000	-7.6401738594e-001
 2.3365531900e+000	 2.4353940524e+000	-7.8283362932e-001
 2.3112133562e+000	 2.4594547814e+000	-8.0612972833e-001
 2.2856299045e+000	 2.4832480624e+000	-8.3585544445e-001
 2.2598070842e+000	 2.5067702213e+000	-8.6712436197e-001
 2.2337492180e+000	 2.5300176741e+000	-8.8293582949e-001
 2.2074606994e+000	 2.5529869292e+000	-8.9630324313e-001
 2.1809459905e+000	 2.5756745887e+000	-9.0815574862e-001
 2.1542096191e+000	 2.5980773501e+000	-9.1940241357e-001
 2.1272561766e+000	 2.6201920081e+000	-9.3093063415e-001
 2.4041630560e+000	 2.4041630560e+000	-7.3744331042e-001
 2.3791389004e+000	 2.4289294128e+000	-7.5748491976e-001
 2.3538609914e+000	 2.4534340083e+000	-7.8008890880e-001
 2.3283334552e+000	 2.4776729650e+000	-8.0723188069e-001
 2.3025604964e+000	 2.5016424925e+000	-8.3984709942e-001
 2.2765463959e+000	 2.5253388896e+000	-8.5991992986e-001
 2.2502955085e+000	 2.5487585458e+000	-8.7653017306e-001
 2.2238122601e+000	 2.5718979435e+000	-8.9060923559e-001
 2.1971011459e+000	 2.5947536597e+000	-9.0306954970e-001
 2.1701667274e+000	 2.6173223675e+000	-9.1480291372e-001
 2.1430136297e+000	 2.6396008378e+000	-9.2667890387e-001
 2.4218407256e+000	 2.4218407256e+000	-7.3541319321e-001
 2.3966325688e+000	 2.4467891879e+000	-7.5794745435e-001
 2.3711687928e+000	 2.4714739642e+000	-7.8308697996e-001
 2.3454535541e+000	 2.4958911486e+000	-8.1282639857e-001
 2.3194910883e+000	 2.5200369226e+000	-8.3831031354e-001
 2.2932857077e+000	 2.5439075579e+000	-8.5817509989e-001
 2.2668417990e+000	 2.5674994174e+000	-8.7451572990e-001
 2.2401638209e+000	 2.5908089578e+000	-8.8824833337e-001
 2.2132563014e+000	 2.6138327307e+000	-9.0026948729e-001
 2.1861238357e+000	 2.6365673849e+000	-9.1145455861e-001
 2.1587710829e+000	 2.6590096675e+000	-9.2265612030e-001
 2.4395183951e+000	 2.4395183951e+000	-7.4149901901e-001
 2.4141262372e+000	 2.4646489630e+000	-7.6528619859e-001
 2.3884765942e+000	 2.4895139202e+000	-7.9172181097e-001
 2.3625736530e+000	 2.5141093321e+000	-8.1993009100e-001
 2.3364216802e+000	 2.5384313527e+000	-8.4302288101e-001
 2.3100250194e+000	 2.5624762262e+000	-8.6161935838e-001
 2.2833880895e+000	 2.5862402891e+000	-8.7663967177e-001
 2.2565153816e+000	 2.6097199721e+000	-8.8898554581e-001
 2.2294114569e+000	 2.6329118018e+000	-8.9953855427e-001
 2.2020809440e+000	 2.6558124023e+000	-9.0915846438e-001
 2.1745285361e+000	 2.6784184972e+000	-9.1868165607e-001
 2.4571960646e+000	 2.4571960646e+000	-7.5557139875e-001
 2.4316199056e+000	 2.4825087381e+000	-7.7938388106e-001
 2.4057843956e+000	 2.5075538761e+000	-8.0662534034e-001
 2.3796937520e+000	 2.5323275157e+000	-8.3288601746e-001
 2.3533522720e+000	 2.5568257828e+000	-8.5369654835e-001
 2.3267643311e+000	 2.5810448945e+000	-8.6998140195e-001
 2.2999343800e+000	 2.6049811607e+000	-8.8264780391e-001
 2.2728669423e+000	 2.6286309864e+000	-8.9258393950e-001
 2.2455666124e+000	 2.6519908728e+000	-9.0065722557e-001
 2.2180380522e+000	 2.6750574197e+000	-9.0771265529e-001
 2.1902859892e+000	 2.6978273268e+000	-9.1457121961e-001
 2.4748737342e+000	 2.4748737342e+000	-7.7750296450e-001
 2.4491135740e+000	 2.5003685132e+000	-8.0025944741e-001
 2.4230921970e+000	 2.5255938321e+000	-8.2959905745e-001
 2.3968138509e+000	 2.5505456993e+000	-8.5255050655e-001
 2.3702828639e+000	 2.5752202129e+000	-8.7004285734e-001
 2.3435036429e+000	 2.5996135628e+000	-8.8298916582e-001
 2.3164806705e+000	 2.6237220324e+000	-8.9228461378e-001
 2.2892185031e+000	 2.6475420007e+000	-8.9880470769e-001
 2.2617217679e+000	 2.6710699438e+000	-9.0340354815e-001
 2.2339951605e+000	 2.6943024371e+000	-9.0691217419e-001
 2.2060434424e+000	 2.7172361565e+000	-9.1013698595e-001
 2.0484689108e+000	 2.5231478596e+000	-9.6167119120e-001
 2.0223091922e+000	 2.5441630315e+000	-9.7285343484e-001
 1.9959494577e+000	 2.5648948833e+000	-9.7584419101e-001
 1.9693942963e+000	 2.5853406170e+000	-9.7119419671e-001
 1.9426483480e+000	 2.6054975333e+000	-9.5944124256e-001
 1.9157163009e+000	 2.6253630329e+000	-9.4110922672e-001
 1.8886028886e+000	 2.6449346172e+000	-9.1670726961e-001
 1.8613128874e+000	 2.6642098895e+000	-9.2919975680e-001
 1.8338511137e+000	 2.6831865557e+000	-9.7072821777e-001
 1.8062224213e+000	 2.7018624252e+000	-9.9777183617e-001
 1.7784316985e+000	 2.7202354115e+000	-1.0120630188e+000
 2.0642263640e+000	 2.5425566893e+000	-9.5370349006e-001
 2.0378654168e+000	 2.5637335164e+000	-9.6190283519e-001
 2.0113029150e+000	 2.5846248440e+000	-9.6210663198e-001
 1.9845434832e+000	 2.6052278525e+000	-9.5492124949e-001
 1.9575917969e+000	 2.6255398220e+000	-9.4093900488e-001
 1.9304525802e+000	 2.6455581331e+000	-9.2073715490e-001
 1.9031306032e+000	 2.6652802681e+000	-8.9487695089e-001
 1.8756306788e+000	 2.6847038117e+000	-8.6390275920e-001
 1.8479576607e+000	 2.7038264523e+000	-9.0685793596e-001
 1.8201164399e+000	 2.7226459824e+000	-9.3799766924e-001
 1.7921119423e+000	 2.7411602993e+000	-9.5718330525e-001
 2.0799838171e+000	 2.5619655190e+000	-9.4680790089e-001
 2.0534216413e+000	 2.5833040013e+000	-9.5284793656e-001
 2.0266563724e+000	 2.6043548046e+000	-9.5109478028e-001
 1.9996926701e+000	 2.6251150880e+000	-9.4221031012e-001
 1.9725352457e+000	 2.6455821107e+000	-9.2684123081e-001
 1.9451888594e+000	 2.6657532334e+000	-9.0561800268e-001
 1.9176583177e+000	 2.6856259190e+000	-8.7915383709e-001
 1.8899484703e+000	 2.7051977340e+000	-8.4804376004e-001
 1.8620642078e+000	 2.7244663489e+000	-8.5055990364e-001
 1.8340104585e+000	 2.7434295395e+000	-8.8646524585e-001
 1.8057921862e+000	 2.7620851870e+000	-9.1122964121e-001
 2.0957412703e+000	 2.5813743487e+000	-9.4082429669e-001
 2.0689778659e+000	 2.6028744861e+000	-9.4550657546e-001
 2.0420098298e+000	 2.6240847652e+000	-9.4260471055e-001
 2.0148418570e+000	 2.6450023235e+000	-9.3283597813e-001
 1.9874786945e+000	 2.6656243995e+000	-9.1690134327e-001
 1.9599251387e+000	 2.6859483336e+000	-8.9548432640e-001
 1.9321860322e+000	 2.7059715699e+000	-8.6924993907e-001
 1.9042662617e+000	 2.7256916562e+000	-8.3884369096e-001
 1.8761707548e+000	 2.7451062455e+000	-8.0489066961e-001
 1.8479044772e+000	 2.7642130966e+000	-8.4278055239e-001
 1.8194724300e+000	 2.7830100748e+000	-8.7378320351e-001
 2.1114987234e+000	 2.6007831784e+000	-9.3558813756e-001
 2.0845340904e+000	 2.6224449710e+000	-9.3969279024e-001
 2.0573632871e+000	 2.6438147259e+000	-9.3642931155e-001
 2.0299910439e+000	 2.6648895590e+000	-9.2657027668e-001
 2.0024221433e+000	 2.6856666882e+000	-9.1087079535e-001
 1.9746614179e+000	 2.7061434339e+000	-8.9006731574e-001
 1.9467137467e+000	 2.7263172208e+000	-8.6487650067e-001
 1.9185840532e+000	 2.7461855784e+000	-8.3599417803e-001
 1.8902773018e+000	 2.7657461421e+000	-8.0409436698e-001
 1.8617984958e+000	 2.7849966537e+000	-8.0655058284e-001
 1.8331526738e+000	 2.8039349626e+000	-8.4442675908e-001
 2.1272561766e+000	 2.6201920081e+000	-9.3093063415e-001
 2.1000903150e+000	 2.6420154558e+000	-9.3521696173e-001
 2.0727167445e+000	 2.6635446865e+000	-9.3235840414e-001
 2.0451402308e+000	 2.6847767946e+000	-9.2318274801e-001
 2.0173655922e+000	 2.7057089769e+000	-9.0849914324e-001
 1.9893976971e+000	 2.7263385341e+000	-8.8909684436e-001
 1.9612414613e+000	 2.7466628717e+000	-8.6574402714e-001
 1.9329018446e+000	 2.7666795006e+000	-8.3918668243e-001
 1.9043838488e+000	 2.7863860387e+000	-8.1014758897e-001
 1.8756925144e+000	 2.8057802108e+000	-7.7932536661e-001
 1.8468329177e+000	 2.8248598504e+000	-8.2274460610e-001
 2.1430136297e+000	 2.6396008378e+000	-9.2667890387e-001
 2.1156465395e+000	 2.6615859407e+000	-9.3188594775e-001
 2.0880702019e+000	 2.6832746472e+000	-9.3017885406e-001
 2.0602894177e+000	 2.7046640301e+000	-9.2244054460e-001
 2.0323090410e+000	 2.7257512656e+000	-9.0953411598e-001
 2.0041339764e+000	 2.7465336344e+000	-8.9230151831e-001
 1.9757691758e+000	 2.7670085226e+000	-8.7156231227e-001
 1.9472196360e+000	 2.7871734229e+000	-8.4811250646e-001
 1.9184903959e+000	 2.8070259352e+000	-8.2272347684e-001
 1.8895865330e+000	 2.8265637680e+000	-7.9614096980e-001
 1.8605131615e+000	 2.8457847382e+000	-8.0832251767e-001
 2.1587710829e+000	 2.6590096675e+000	-9.2265612030e-001
 2.1312027641e+000	 2.6811564256e+000	-9.2950321165e-001
 2.1034236592e+000	 2.7030046078e+000	-9.2967467978e-001
 2.0754386045e+000	 2.7245512656e+000	-9.2410851645e-001
 2.0472524898e+000	 2.7457935543e+000	-9.1372168215e-001
 2.0188702556e+000	 2.7667287347e+000	-8.9940872224e-001
 1.9902968903e+000	 2.7873541735e+000	-8.8204046438e-001
 1.9615374275e+000	 2.8076673451e+000	-8.6246279942e-001
 1.9325969429e+000	 2.8276658318e+000	-8.4149554753e-001
 1.9034805517e+000	 2.8473473251e+000	-8.1993141135e-001
 1.8741934053e+000	 2.8667096260e+000	-8.0074768800e-001
 2.1745285361e+000	 2.6784184972e+000	-9.1868165607e-001
 2.1467589886e+000	 2.7007269104e+000	-9.2786894531e-001
 2.1187771166e+000	 2.7227345685e+000	-9.3062715570e-001
 2.0905877914e+000	 2.7444385011e+000	-9.2794929446e-001
 2.0621959387e+000	 2.7658358430e+000	-9.2080611366e-001
 2.0336065348e+000	 2.7869238349e+000	-9.1014466369e-001
 2.0048246048e+000	 2.8076998244e+000	-8.9688693113e-001
 1.9758552189e+000	 2.8281612673e+000	-8.8192856305e-001
 1.9467034899e+000	 2.8483057284e+000	-8.6613768009e-001
 1.9173745703e+000	 2.8681308822e+000	-8.5035377955e-001
 1.8878736492e+000	 2.8876345137e+000	-8.3538673018e-001
 2.1902859892e+000	 2.6978273268e+000	-9.1457121961e-001
 2.1623152132e+000	 2.7202973953e+000	-9.2678018682e-001
 2.1341305740e+000	 2.7424645291e+000	-9.3281491082e-001
 2.1057369783e+000	 2.7643257366e+000	-9.3372337027e-001
 2.0771393875e+000	 2.7858781318e+000	-9.3053004676e-001
 2.0483428141e+000	 2.8071189352e+000	-9.2423441545e-001
 2.0193523194e+000	 2.8280454753e+000	-9.1580952329e-001
 1.9901730104e+000	 2.8486551895e+000	-9.0620065694e-001
 1.9608100369e+000	 2.8689456250e+000	-8.9632410258e-001
 1.9312685889e+000	 2.8889144393e+000	-8.8706599929e-001
 1.9015538930e+000	 2.9085594015e+000	-8.7928128738e-001
 2.2060434424e+000	 2.7172361565e+000	-9.1013698595e-001
 2.1778714378e+000	 2.7398678801e+000	-9.2603093313e-001
 2.1494840313e+000	 2.7621944897e+000	-9.3601402320e-001
 2.1208861652e+000	 2.7842129721e+000	-9.4118917265e-001
 2.0920828363e+000	 2.8059204205e+000	-9.4263454048e-001
 2.0630790933e+000	 2.8273140354e+000	-9.4140195603e-001
 2.0338800339e+000	 2.8483911262e+000	-9.3851543753e-001
 2.0044908018e+000	 2.8691491118e+000	-9.3496980354e-001
 1.9749165840e+000	 2.8895855216e+000	-9.3172937968e-001
 1.9451626075e+000	 2.9096979964e+000	-9.2972680225e-001
 1.9152341368e+000	 2.9294842893e+000	-9.2986192033e-001
 1.7784316985e+000	 2.7202354115e+000	-1.0120630188e+000
 1.7504838655e+000	 2.7383035326e+000	-9.8278202395e-001
 1.7223838716e+000	 2.7560649120e+000	-9.5468891418e-001
 1.6941366922e+000	 2.7735177786e+000	-9.2924983644e-001
 1.6657473264e+000	 2.7906604674e+000	-9.0786639112e-001
 1.6372207940e+000	 2.8074914197e+000	-8.9187340803e-001
 1.6085621327e+000	 2.8240091829e+000	-8.8253691418e-001
 1.5797763955e+000	 2.8402124111e+000	-8.8105229598e-001
 1.5508686476e+000	 2.8560998648e+000	-8.8854265762e-001
 1.5218439643e+000	 2.8716704108e+000	-9.0605737675e-001
 1.4927074274e+000	 2.8869230222e+000	-9.3457085830e-001
 1.7921119423e+000	 2.7411602993e+000	-9.5718330525e-001
 1.7639491260e+000	 2.7593674059e+000	-9.3054086877e-001
 1.7356329783e+000	 2.7772654113e+000	-9.0469652995e-001
 1.7071685129e+000	 2.7948525307e+000	-8.8114776878e-001
 1.6785607674e+000	 2.8121270864e+000	-8.6132633052e-001
 1.6498148002e+000	 2.8290875075e+000	-8.4659595023e-001
 1.6209356876e+000	 2.8457323305e+000	-8.3825027328e-001
 1.5919285216e+000	 2.8620601989e+000	-8.3751097428e-001
 1.5627984065e+000	 2.8780698638e+000	-8.4552607650e-001
 1.5335504563e+000	 2.8937601832e+000	-8.6336847275e-001
 1.5041897923e+000	 2.9091301224e+000	-8.9203464862e-001
 1.8057921862e+000	 2.7620851870e+000	-9.1122964121e-001
 1.7774143865e+000	 2.7804312793e+000	-8.8664278593e-001
 1.7488820850e+000	 2.7984659106e+000	-8.6250182842e-001
 1.7202003336e+000	 2.8161872829e+000	-8.4033657352e-001
 1.6913742084e+000	 2.8335937054e+000	-8.2160984755e-001
 1.6624088063e+000	 2.8506835954e+000	-8.0771517043e-001
 1.6333092425e+000	 2.8674554780e+000	-7.9997462797e-001
 1.6040806477e+000	 2.8839079867e+000	-7.9963694692e-001
 1.5747281653e+000	 2.9000398628e+000	-8.0787577466e-001
 1.5452569483e+000	 2.9158499556e+000	-8.2578816482e-001
 1.5156721571e+000	 2.9313372226e+000	-8.5439326947e-001
 1.8194724300e+000	 2.7830100748e+000	-8.7378320351e-001
 1.7908796470e+000	 2.8014951526e+000	-8.5067358773e-001
 1.7621311917e+000	 2.8196664100e+000	-8.2769529738e-001
 1.7332321543e+000	 2.8375220350e+000	-8.0641145819e-001
 1.7041876494e+000	 2.8550603244e+000	-7.8831691770e-001
 1.6750028124e+000	 2.8722796832e+000	-7.7483586401e-001
 1.6456827974e+000	 2.8891786256e+000	-7.6731964901e-001
 1.6162327739e+000	 2.9057557745e+000	-7.6704481867e-001
 1.5866579241e+000	 2.9220098617e+000	-7.7521135251e-001
 1.5569634404e+000	 2.9379397280e+000	-7.9294111327e-001
 1.5271545219e+000	 2.9535443227e+000	-8.2127650777e-001
 1.8331526738e+000	 2.8039349626e+000	-8.4442675908e-001
 1.8043449075e+000	 2.8225590259e+000	-8.2222039058e-001
 1.7753802984e+000	 2.8408669093e+000	-7.9986845215e-001
 1.7462639751e+000	 2.8588567872e+000	-7.7896839077e-001
 1.7170010903e+000	 2.8765269434e+000	-7.6104801947e-001
 1.6875968185e+000	 2.8938757711e+000	-7.4756308167e-001
 1.6580563522e+000	 2.9109017732e+000	-7.3989502449e-001
 1.6283849000e+000	 2.9276035623e+000	-7.3934898358e-001
 1.5985876830e+000	 2.9439798607e+000	-7.4715198155e-001
 1.5686699324e+000	 2.9600295004e+000	-7.6445134136e-001
 1.5386368868e+000	 2.9757514229e+000	-7.9231331523e-001
 1.8468329177e+000	 2.8248598504e+000	-8.2274460610e-001
 1.8178101680e+000	 2.8436228993e+000	-8.0087156671e-001
 1.7886294051e+000	 2.8620674086e+000	-7.7861379749e-001
 1.7592957958e+000	 2.8801915393e+000	-7.5760407152e-001
 1.7298145313e+000	 2.8979935624e+000	-7.3940411572e-001
 1.7001908246e+000	 2.9154718589e+000	-7.2550211990e-001
 1.6704299071e+000	 2.9326249207e+000	-7.1731045923e-001
 1.6405370261e+000	 2.9494513500e+000	-7.1616363276e-001
 1.6105174418e+000	 2.9659498596e+000	-7.2331642031e-001
 1.5803764244e+000	 2.9821192728e+000	-7.3994225888e-001
 1.5501192516e+000	 2.9979585231e+000	-7.6713183932e-001
 1.8605131615e+000	 2.8457847382e+000	-8.0832251767e-001
 1.8312754286e+000	 2.8646867726e+000	-7.8621669794e-001
 1.8018785118e+000	 2.8832679079e+000	-7.6352479125e-001
 1.7723276165e+000	 2.9015262915e+000	-7.4191590605e-001
 1.7426279723e+000	 2.9194601813e+000	-7.2298663589e-001
 1.7127848307e+000	 2.9370679468e+000	-7.0825851202e-001
 1.6828034620e+000	 2.9543480683e+000	-6.9917567411e-001
 1.6526891522e+000	 2.9712991378e+000	-6.9710276185e-001
 1.6224472006e+000	 2.9879198586e+000	-7.0332302948e-001
 1.5920829165e+000	 3.0042090452e+000	-7.1903668472e-001
 1.5616016164e+000	 3.0201656232e+000	-7.4535945280e-001
 1.8741934053e+000	 2.8667096260e+000	-8.0074768800e-001
 1.8447406891e+000	 2.8857506459e+000	-7.7784653161e-001
 1.8151276185e+000	 2.9044684072e+000	-7.5419580954e-001
 1.7853594372e+000	 2.9228610436e+000	-7.3150197960e-001
 1.7554414133e+000	 2.9409268003e+000	-7.1139745898e-001
 1.7253788368e+000	 2.9586640346e+000	-6.9543801945e-001
 1.6951770168e+000	 2.9760712159e+000	-6.8510040552e-001
 1.6648412783e+000	 2.9931469256e+000	-6.8178017817e-001
 1.6343769594e+000	 3.0098898576e+000	-6.8678978646e-001
 1.6037894085e+000	 3.0262988176e+000	-7.0135686843e-001
 1.5730839812e+000	 3.0423727234e+000	-7.2662278204e-001
 1.8878736492e+000	 2.8876345137e+000	-8.3538673018e-001
 1.8582059496e+000	 2.9068145192e+000	-7.7535293829e-001
 1.8283767252e+000	 2.9256689066e+000	-7.5022211351e-001
 1.7983912579e+000	 2.9441957958e+000	-7.2596103240e-001
 1.7682548542e+000	 2.9623934193e+000	-7.0423889723e-001
 1.7379728429e+000	 2.9802601225e+000	-6.8664662355e-001
 1.7075505717e+000	 2.9977943634e+000	-6.7469440481e-001
 1.6769934045e+000	 3.0149947134e+000	-6.6980950752e-001
 1.6463067183e+000	 3.0318598565e+000	-6.7333429923e-001
 1.6154959005e+000	 3.0483885900e+000	-6.8652451085e-001
 1.5845663461e+000	 3.0645798236e+000	-7.1054773402e-001
 1.9015538930e+000	 2.9085594015e+000	-8.7928128738e-001
 1.8716712101e+000	 2.9278783926e+000	-7.7832887141e-001
 1.8416258319e+000	 2.9468694059e+000	-7.5119981749e-001
 1.8114230786e+000	 2.9655305479e+000	-7.2489243610e-001
 1.7810682952e+000	 2.9838600383e+000	-7.0111368054e-001
 1.7505668490e+000	 3.0018562103e+000	-6.8149051760e-001
 1.7199241266e+000	 3.0195175110e+000	-6.6756743771e-001
 1.6891455306e+000	 3.0368425011e+000	-6.6080420072e-001
 1.6582364771e+000	 3.0538298555e+000	-6.6257381965e-001
 1.6272023926e+000	 3.0704783624e+000	-6.7416078383e-001
 1.5960487109e+000	 3.0867869237e+000	-6.9675952225e-001
 1.9152341368e+000	 2.9294842893e+000	-9.2986192033e-001
 1.8851364706e+000	 2.9489422659e+000	-8.1468971992e-001
 1.8548749386e+000	 2.9680699052e+000	-7.5672585852e-001
 1.8244548993e+000	 2.9868653000e+000	-7.2789617125e-001
 1.7938817362e+000	 3.0053266573e+000	-7.0162494160e-001
 1.7631608551e+000	 3.0234522981e+000	-6.7957609933e-001
 1.7322976814e+000	 3.0412406585e+000	-6.6332928384e-001
 1.7012976567e+000	 3.0586902889e+000	-6.5437753986e-001
 1.6701662359e+000	 3.0757998544e+000	-6.5412525620e-001
 1.6389088846e+000	 3.0925681348e+000	-6.6388634915e-001
 1.6075310757e+000	 3.1089940239e+000	-6.8488269148e-001
 1.4927074274e+000	 2.8869230222e+000	-9.3457085830e-001
 1.4634641235e+000	 2.9018567779e+000	-8.3155825212e-001
 1.4341191402e+000	 2.9164708625e+000	-7.2930870813e-001
 1.4046775645e+000	 2.9307645658e+000	-6.2869998274e-001
 1.3751444794e+000	 2.9447372821e+000	-5.3054146500e-001
 1.3455249618e+000	 2.9583885102e+000	-4.3557366610e-001
 1.3158240793e+000	 2.9717178521e+000	-3.4446788921e-001
 1.2860468885e+000	 2.9847250126e+000	-2.5782607704e-001
 1.2561984318e+000	 2.9974097985e+000	-1.7618083368e-001
 1.2262837353e+000	 3.0097721177e+000	-2.6210163082e-001
 1.1963078061e+000	 3.0218119785e+000	-3.7382573055e-001
 1.5041897923e+000	 2.9091301224e+000	-8.9203464862e-001
 1.4747215398e+000	 2.9241787531e+000	-7.9103728413e-001
 1.4451508259e+000	 2.9389052537e+000	-6.9211961212e-001
 1.4154827765e+000	 2.9533089086e+000	-5.9619074399e-001
 1.3857225139e+000	 2.9673891074e+000	-5.0408845583e-001
 1.3558751538e+000	 2.9811453449e+000	-4.1657867129e-001
 1.3259458030e+000	 2.9945772202e+000	-3.3435513071e-001
 1.2959395569e+000	 3.0076844357e+000	-2.5803924372e-001
 1.2658614967e+000	 3.0204667969e+000	-1.8818012199e-001
 1.2357166871e+000	 3.0329242109e+000	-2.1933112045e-001
 1.2055101738e+000	 3.0450566860e+000	-3.4278634399e-001
 1.5156721571e+000	 2.9313372226e+000	-8.5439326947e-001
 1.4859789561e+000	 2.9465007283e+000	-7.5578562160e-001
 1.4561825116e+000	 2.9613396450e+000	-6.6059639100e-001
 1.4262879886e+000	 2.9758532514e+000	-5.6976632137e-001
 1.3963005484e+000	 2.9900409326e+000	-4.8416180795e-001
 1.3662253458e+000	 3.0039021796e+000	-4.0457437388e-001
 1.3360675267e+000	 3.0174365883e+000	-3.3172033878e-001
 1.3058322253e+000	 3.0306438589e+000	-2.6624067670e-001
 1.2755245616e+000	 3.0435237954e+000	-2.0870106003e-001
 1.2451496389e+000	 3.0560763041e+000	-1.9014443073e-001
 1.2147125416e+000	 3.0683013935e+000	-3.2501676010e-001
 1.5271545219e+000	 2.9535443227e+000	-8.2127650777e-001
 1.4972363725e+000	 2.9688227035e+000	-7.2542598072e-001
 1.4672141973e+000	 2.9837740362e+000	-6.3435527557e-001
 1.4370932006e+000	 2.9983975942e+000	-5.4903704995e-001
 1.4068785828e+000	 3.0126927579e+000	-4.7036655424e-001
 1.3765755378e+000	 3.0266590143e+000	-3.9916110129e-001
 1.3461892504e+000	 3.0402959564e+000	-3.3615973472e-001
 1.3157248936e+000	 3.0536032821e+000	-2.8202309245e-001
 1.2851876264e+000	 3.0665807938e+000	-2.3733346209e-001
 1.2545825907e+000	 3.0792283974e+000	-2.0259502400e-001
 1.2239149093e+000	 3.0915461010e+000	-3.2117895602e-001
 1.5386368868e+000	 2.9757514229e+000	-7.9231331523e-001
 1.5084937888e+000	 2.9911446788e+000	-6.9958042063e-001
 1.4782458830e+000	 3.0062084275e+000	-6.1301201235e-001
 1.4478984127e+000	 3.0209419370e+000	-5.3361294812e-001
 1.4174566173e+000	 3.0353445831e+000	-4.6230757310e-001
 1.3869257298e+000	 3.0494158490e+000	-3.9993918330e-001
 1.3563109741e+000	 3.0631553244e+000	-3.4726969359e-001
 1.3256175620e+000	 3.0765627052e+000	-3.0497950713e-001
 1.2948506913e+000	 3.0896377923e+000	-2.7366758260e-001
 1.2640155425e+000	 3.1023804906e+000	-2.5385169489e-001
 1.2331172771e+000	 3.1147908086e+000	-3.3193561321e-001
 1.5501192516e+000	 2.9979585231e+000	-7.6713183932e-001
 1.5197512051e+000	 3.0134666540e+000	-6.7787036769e-001
 1.4892775687e+000	 3.0286428187e+000	-5.9618188160e-001
 1.4587036247e+000	 3.0434862798e+000	-5.2310372931e-001
 1.4280346517e+000	 3.0579964084e+000	-4.5958959423e-001
 1.3972759218e+000	 3.0721726837e+000	-4.0650895202e-001
 1.3664326978e+000	 3.0860146925e+000	-3.6464673855e-001
 1.3355102304e+000	 3.0995221284e+000	-3.3470322550e-001
 1.3045137561e+000	 3.1126947907e+000	-3.1729409976e-001
 1.2734484944e+000	 3.1255325838e+000	-3.1187902843e-001
 1.2423196448e+000	 3.1380355161e+000	-3.2019887461e-001
 1.5616016164e+000	 3.0201656232e+000	-7.4535945280e-001
 1.5310086215e+000	 3.0357886292e+000	-6.5991663878e-001
 1.5003092544e+000	 3.0510772100e+000	-5.8347971442e-001
 1.4695088367e+000	 3.0660306226e+000	-5.1711881326e-001
 1.4386126862e+000	 3.0806482336e+000	-4.6181720406e-001
 1.4076261138e+000	 3.0949295184e+000	-4.1847074172e-001
 1.3765544214e+000	 3.1088740606e+000	-3.8788753536e-001
 1.3454028988e+000	 3.1224815516e+000	-3.7078783030e-001
 1.3141768210e+000	 3.1357517892e+000	-3.5319359770e-001
 1.2828814462e+000	 3.1486846770e+000	-3.2702173656e-001
 1.2515220125e+000	 3.1612802236e+000	-2.9318155469e-001
 1.5730839812e+000	 3.0423727234e+000	-7.2662278204e-001
 1.5422660378e+000	 3.0581106044e+000	-6.4533946354e-001
 1.5113409401e+000	 3.0735116012e+000	-5.7451990915e-001
 1.4803140488e+000	 3.0885749654e+000	-5.1526733667e-001
 1.4491907206e+000	 3.1033000588e+000	-4.6859485099e-001
 1.4179763059e+000	 3.1176863531e+000	-4.3542488884e-001
 1.3866761451e+000	 3.1317334287e+000	-4.1690126948e-001
 1.3552955671e+000	 3.1454409748e+000	-3.9802145756e-001
 1.3238398859e+000	 3.1588087876e+000	-3.7261039027e-001
 1.2923143980e+000	 3.1718367702e+000	-3.4015045033e-001
 1.2607243803e+000	 3.1845249311e+000	-3.0016299511e-001
 1.5845663461e+000	 3.0645798236e+000	-7.1054773402e-001
 1.5535234541e+000	 3.0804325796e+000	-6.3375850563e-001
 1.5223726258e+000	 3.0959459925e+000	-5.6891644705e-001
 1.4911192608e+000	 3.1111193082e+000	-5.1715816351e-001
 1.4597687551e+000	 3.1259518841e+000	-4.8076306059e-001
 1.4283264979e+000	 3.1404431878e+000	-4.6652717403e-001
 1.3967978688e+000	 3.1545927968e+000	-4.4705044202e-001
 1.3651882355e+000	 3.1684003979e+000	-4.2173278581e-001
 1.3335029507e+000	 3.1818657860e+000	-3.9001324776e-001
 1.3017473498e+000	 3.1949888634e+000	-3.5137023832e-001
 1.2699267480e+000	 3.2077696387e+000	-3.0532169215e-001
 1.5960487109e+000	 3.0867869237e+000	-6.9675952225e-001
 1.5647808705e+000	 3.1027545548e+000	-6.2479288311e-001
 1.5334043115e+000	 3.1183803837e+000	-5.6628290730e-001
 1.5019244728e+000	 3.1336636511e+000	-5.3799660365e-001
 1.4703467896e+000	 3.1486037093e+000	-5.2170040971e-001
 1.4386766899e+000	 3.1632000224e+000	-5.0092879440e-001
 1.4069195925e+000	 3.1774521649e+000	-4.7503707260e-001
 1.3750809039e+000	 3.1913598211e+000	-4.4341991056e-001
 1.3431660156e+000	 3.2049227845e+000	-4.0551166801e-001
 1.3111803016e+000	 3.2181409566e+000	-3.6078664653e-001
 1.2791291158e+000	 3.2310143462e+000	-3.0875924547e-001
 1.6075310757e+000	 3.1089940239e+000	-6.8488269148e-001
 1.5760382868e+000	 3.1250765300e+000	-6.1827595080e-001
 1.5444359972e+000	 3.1408147750e+000	-6.0213073707e-001
 1.5127296849e+000	 3.1562079939e+000	-5.8303805499e-001
 1.4809248240e+000	 3.1712555346e+000	-5.6026871884e-001
 1.4490268819e+000	 3.1859568571e+000	-5.3313250687e-001
 1.4170413162e+000	 3.2003115330e+000	-5.0097870058e-001
 1.3849735723e+000	 3.2143192443e+000	-4.6319652650e-001
 1.3528290804e+000	 3.2279797829e+000	-4.1921550125e-001
 1.3206132534e+000	 3.2412930498e+000	-3.6850568131e-001
 1.2883314835e+000	 3.2542590537e+000	-3.1057781861e-001
 1.1963078061e+000	 3.0218119785e+000	-3.7382573055e-001
 1.1662756302e+000	 3.0335294880e+000	-4.1454631194e-001
 1.1361921700e+000	 3.0449248518e+000	-4.4042050386e-001
 1.1060623621e+000	 3.0559983723e+000	-4.5143265091e-001
 1.0758911149e+000	 3.0667504478e+000	-4.4759081559e-001
 1.0456833066e+000	 3.0771815712e+000	-4.2892443410e-001
 1.0154437829e+000	 3.0872923289e+000	-3.9548198886e-001
 9.8517735496e-001	 3.0970833988e+000	-3.4732870411e-001
 9.5488879754e-001	 3.1065555498e+000	-2.8454427119e-001
 9.2458284674e-001	 3.1157096398e+000	-2.0722060936e-001
 8.9426419823e-001	 3.1245466141e+000	-1.1545966801e-001
 1.2055101738e+000	 3.0450566860e+000	-3.4278634399e-001
 1.1752469812e+000	 3.0568643302e+000	-3.9974128754e-001
 1.1449321098e+000	 3.0683473506e+000	-4.4179025611e-001
 1.1145705341e+000	 3.0795060520e+000	-4.6898979951e-001
 1.0841672004e+000	 3.0903408358e+000	-4.8141969739e-001
 1.0537270243e+000	 3.1008521987e+000	-4.7918050009e-001
 1.0232548889e+000	 3.1110407314e+000	-4.6239108878e-001
 9.9275564231e-001	 3.1209071173e+000	-4.3118626180e-001
 9.6223409599e-001	 3.1304521310e+000	-3.4107599146e-001
 9.3169502249e-001	 3.1396766370e+000	-1.9728462488e-001
 9.0114315360e-001	 3.1485815881e+000	-3.2423317181e-002
 1.2147125416e+000	 3.0683013935e+000	-3.2501676010e-001
 1.1842183322e+000	 3.0801991724e+000	-3.9885433611e-001
 1.1536720496e+000	 3.0917698495e+000	-4.5770202535e-001
 1.1230787061e+000	 3.1030137318e+000	-5.0168923320e-001
 1.0924432859e+000	 3.1139312239e+000	-5.3096812333e-001
 1.0617707421e+000	 3.1245228262e+000	-5.4571104180e-001
 1.0310659949e+000	 3.1347891339e+000	-4.7759380456e-001
 1.0003339297e+000	 3.1447308357e+000	-3.8148150711e-001
 9.6957939444e-001	 3.1543487122e+000	-2.6230745976e-001
 9.3880719824e-001	 3.1636436342e+000	-1.2189415220e-001
 9.0802210898e-001	 3.1726165620e+000	 3.8033966154e-002
 1.2239149093e+000	 3.0915461010e+000	-3.2117895602e-001
 1.1931896832e+000	 3.1035340146e+000	-4.1250465048e-001
 1.1624119893e+000	 3.1151923483e+000	-4.8873220150e-001
 1.1315868782e+000	 3.1265214116e+000	-5.4248704266e-001
 1.1007193714e+000	 3.1375216120e+000	-5.2497917837e-001
 1.0698144598e+000	 3.1481934537e+000	-4.7960235918e-001
 1.0388771009e+000	 3.1585375365e+000	-4.0854644076e-001
 1.0079122170e+000	 3.1685545542e+000	-3.1390005836e-001
 9.7692469289e-001	 3.1782452933e+000	-1.9765009515e-001
 9.4591937399e-001	 3.1876106315e+000	-6.1681387321e-002
 9.1490106435e-001	 3.1966515360e+000	 9.2223340156e-002
 1.2331172771e+000	 3.1147908086e+000	-3.3193561321e-001
 1.2021610342e+000	 3.1268688568e+000	-4.3468356778e-001
 1.1711519291e+000	 3.1386148472e+000	-4.7600603186e-001
 1.1400950502e+000	 3.1500290914e+000	-4.8589005388e-001
 1.1089954569e+000	 3.1611120000e+000	-4.6680802912e-001
 1.0778581776e+000	 3.1718640811e+000	-4.2112886081e-001
 1.0466882070e+000	 3.1822859390e+000	-3.5111691293e-001
 1.0154905044e+000	 3.1923782726e+000	-2.5893121851e-001
 9.8426999133e-001	 3.2021418745e+000	-1.4662493803e-001
 9.5303154973e-001	 3.2115776287e+000	-1.6145062239e-002
 9.2178001972e-001	 3.2206865099e+000	 1.3066764704e-001
 1.2423196448e+000	 3.1380355161e+000	-3.2019887461e-001
 1.2111323852e+000	 3.1502036991e+000	-3.9145003032e-001
 1.1798918689e+000	 3.1620373461e+000	-4.2973760023e-001
 1.1486032222e+000	 3.1735367712e+000	-4.3772298442e-001
 1.1172715424e+000	 3.1847023881e+000	-4.1796131257e-001
 1.0859018953e+000	 3.1955347086e+000	-3.7290010360e-001
 1.0544993130e+000	 3.2060343415e+000	-3.0487819360e-001
 1.0230687917e+000	 3.2162019911e+000	-2.1612492708e-001
 9.9161528978e-001	 3.2260384556e+000	-1.0875960625e-001
 9.6014372548e-001	 3.2355446259e+000	 1.5208807637e-002
 9.2865897510e-001	 3.2447214839e+000	 1.5388174755e-001
 1.2515220125e+000	 3.1612802236e+000	-2.9318155469e-001
 1.2201037362e+000	 3.1735385413e+000	-3.5463452351e-001
 1.1886318086e+000	 3.1854598449e+000	-3.9070449882e-001
 1.1571113942e+000	 3.1970444510e+000	-3.9763491408e-001
 1.1255476279e+000	 3.2082927761e+000	-3.7806371065e-001
 1.0939456130e+000	 3.2192053361e+000	-3.3451704838e-001
 1.0623104190e+000	 3.2297827441e+000	-2.6940820916e-001
 1.0306470791e+000	 3.2400257095e+000	-1.8503677189e-001
 9.9896058822e-001	 3.2499350368e+000	-8.3588053320e-002
 9.6725590122e-001	 3.2595116232e+000	 3.2867191264e-002
 9.3553793047e-001	 3.2687564578e+000	 1.6237281438e-001
 1.2607243803e+000	 3.1845249311e+000	-3.0016299511e-001
 1.2290750872e+000	 3.1968733835e+000	-3.2393824346e-001
 1.1973717484e+000	 3.2088823438e+000	-3.5858290477e-001
 1.1656195662e+000	 3.2205521308e+000	-3.6527765003e-001
 1.1338237134e+000	 3.2318831642e+000	-3.4674332075e-001
 1.1019893308e+000	 3.2428759635e+000	-3.0558475341e-001
 1.0701215250e+000	 3.2535311466e+000	-2.4428965912e-001
 1.0382253664e+000	 3.2638494280e+000	-1.6522778295e-001
 1.0063058867e+000	 3.2738316179e+000	-7.0650337151e-002
 9.7436807697e-001	 3.2834786204e+000	 3.7310298014e-002
 9.4241688584e-001	 3.2927914318e+000	 1.5664061279e-001
 1.2699267480e+000	 3.2077696387e+000	-3.0532169215e-001
 1.2380464382e+000	 3.2202082257e+000	-2.9906367197e-001
 1.2061116882e+000	 3.2323048426e+000	-3.3305095505e-001
 1.1741277382e+000	 3.2440598105e+000	-3.4030562797e-001
 1.1420997989e+000	 3.2554735523e+000	-3.2363153193e-001
 1.1100330485e+000	 3.2665465910e+000	-2.8571222593e-001
 1.0779326310e+000	 3.2772795491e+000	-2.2910984313e-001
 1.0458036537e+000	 3.2876731465e+000	-1.5626423525e-001
 1.0136511851e+000	 3.2977281991e+000	-6.9492398908e-002
 9.8148025271e-001	 3.3074456176e+000	 2.9011822580e-002
 9.4929584121e-001	 3.3168264057e+000	 1.3717776894e-001
 1.2791291158e+000	 3.2310143462e+000	-3.0875924547e-001
 1.2470177892e+000	 3.2435430679e+000	-2.7971453037e-001
 1.2148516279e+000	 3.2557273415e+000	-3.1378867591e-001
 1.1826359103e+000	 3.2675674903e+000	-3.2237581760e-001
 1.1503758844e+000	 3.2790639403e+000	-3.0836290656e-001
 1.1180767663e+000	 3.2902172185e+000	-2.7451228010e-001
 1.0857437371e+000	 3.3010279516e+000	-2.2346049553e-001
 1.0533819411e+000	 3.3114968649e+000	-1.5771746012e-001
 1.0209964835e+000	 3.3216247802e+000	-7.9665851368e-002
 9.8859242845e-001	 3.3314126149e+000	 8.4391793223e-003
 9.5617479658e-001	 3.3408613797e+000	 1.0447002674e-001
 1.2883314835e+000	 3.2542590537e+000	-3.1057781861e-001
 1.2559891402e+000	 3.2668779101e+000	-2.8013613168e-001
 1.2235915677e+000	 3.2791498404e+000	-3.0047791547e-001
 1.1911440823e+000	 3.2910751701e+000	-3.1114763214e-001
 1.1586519699e+000	 3.3026543284e+000	-3.0057506693e-001
 1.1261204840e+000	 3.3138878460e+000	-2.7160140106e-001
 1.0935548431e+000	 3.3247763542e+000	-2.2693762697e-001
 1.0609602284e+000	 3.3353205834e+000	-1.6916366461e-001
 1.0283417820e+000	 3.3455213614e+000	-1.0072777637e-001
 9.9570460419e-001	 3.3553796121e+000	-2.3946273437e-002
 9.6305375194e-001	 3.3648963537e+000	 5.8996493647e-002
 8.9426419823e-001	 3.1245466141e+000	-1.1545966801e-001
 8.6393750537e-001	 3.1330675043e+000	-3.8787183810e-002
 8.3360737744e-001	 3.1412734265e+000	 4.8239129771e-002
 8.0327837781e-001	 3.1491655796e+000	 1.3909893049e-001
 7.7295502237e-001	 3.1567452436e+000	 2.3160832534e-001
 7.4264177780e-001	 3.1640137784e+000	 3.2369946992e-001
 7.1234306010e-001	 3.1709726212e+000	 4.1341992861e-001
 6.8206323302e-001	 3.1776232857e+000	 4.9893183090e-001
 6.5180660668e-001	 3.1839673596e+000	 5.7851083267e-001
 6.2157743620e-001	 3.1900065032e+000	 5.9864012692e-001
 5.9137992034e-001	 3.1957424473e+000	 2.0949151973e-001
 9.0114315360e-001	 3.1485815881e+000	-3.2423317181e-002
 8.7058317850e-001	 3.1571680236e+000	 1.6696857834e-002
 8.4001974188e-001	 3.1654370683e+000	 7.3176500926e-002
 8.0945744226e-001	 3.1733899302e+000	 1.3482488681e-001
 7.7890083024e-001	 3.1810278994e+000	 1.9956671867e-001
 7.4835440687e-001	 3.1883523459e+000	 2.6544160072e-001
 7.1782262210e-001	 3.1953647183e+000	 3.3060330043e-001
 6.8730987327e-001	 3.2020665418e+000	 3.9331880884e-001
 6.5682050366e-001	 3.2084594163e+000	 4.5196720762e-001
 6.2635880109e-001	 3.2145450148e+000	 5.0503835166e-001
 5.9592899665e-001	 3.2203250815e+000	 1.1366477388e-001
 9.0802210898e-001	 3.1726165620e+000	 3.8033966154e-002
 8.7722885162e-001	 3.1812685429e+000	 5.9257767010e-002
 8.4643210633e-001	 3.1896007100e+000	 8.8990065063e-002
 8.1563650671e-001	 3.1976142808e+000	 1.2514845516e-001
 7.8484663811e-001	 3.2053105551e+000	 1.6576500688e-001
 7.5406703593e-001	 3.2126909134e+000	 2.0898563696e-001
 7.2330218410e-001	 3.2197568154e+000	 2.5306927295e-001
 6.9255651353e-001	 3.2265097978e+000	 2.9638681649e-001
 6.6183440064e-001	 3.2329514729e+000	 3.3741991514e-001
 6.3114016599e-001	 3.2390835264e+000	 3.7475955170e-001
 6.0047807296e-001	 3.2449077157e+000	 3.7691122415e-002
 9.1490106435e-001	 3.1966515360e+000	 9.2223340156e-002
 8.8387452474e-001	 3.2053690621e+000	 8.9335193634e-002
 8.5284447077e-001	 3.2137643518e+000	 9.6028460996e-002
 8.2181557116e-001	 3.2218386314e+000	 1.1032776617e-001
 7.9079244597e-001	 3.2295932108e+000	 1.3037134807e-001
 7.5977966499e-001	 3.2370294809e+000	 1.5441033226e-001
 7.2878174611e-001	 3.2441489125e+000	 1.8080779518e-001
 6.9780315378e-001	 3.2509530539e+000	 2.0803762942e-001
 6.6684829761e-001	 3.2574435295e+000	 2.3468321933e-001
 6.3592153088e-001	 3.2636220379e+000	 2.5943593591e-001
 6.0502714927e-001	 3.2694903500e+000	-1.9327684011e-002
 9.2178001972e-001	 3.2206865099e+000	 1.3066764704e-001
 8.9052019786e-001	 3.2294695814e+000	 1.0736315672e-001
 8.5925683522e-001	 3.2379279935e+000	 9.4637326313e-002
 8.2799463561e-001	 3.2460629820e+000	 9.0620550091e-002
 7.9673825384e-001	 3.2538758665e+000	 9.3556071167e-002
 7.6549229405e-001	 3.2613680485e+000	 1.0179915171e-001
 7.3426130811e-001	 3.2685410096e+000	 1.1381603682e-001
 7.0304979404e-001	 3.2753963099e+000	 1.2818272097e-001
 6.7186219458e-001	 3.2819355861e+000	 1.4358352622e-001
 6.4070289577e-001	 3.2881605495e+000	 1.5880950154e-001
 6.0957622558e-001	 3.2940729842e+000	-5.8272966333e-002
 9.2865897510e-001	 3.2447214839e+000	 1.5388174755e-001
 8.9716587098e-001	 3.2535701007e+000	 1.1377025295e-001
 8.6566919966e-001	 3.2620916352e+000	 8.5159408530e-002
 8.3417370005e-001	 3.2702873326e+000	 6.6284151632e-002
 8.0268406170e-001	 3.2781585222e+000	 5.5491595503e-002
 7.7120492311e-001	 3.2857066160e+000	 5.1240097302e-002
 7.3974087011e-001	 3.2929331067e+000	 5.2098120824e-002
 7.0829643429e-001	 3.2998395660e+000	 5.6742903074e-002
 6.7687609156e-001	 3.3064276427e+000	 6.3958934025e-002
 6.4548426067e-001	 3.3126990611e+000	 7.2636259173e-002
 6.1412530188e-001	 3.3186556184e+000	-8.0009744054e-002
 9.3553793047e-001	 3.2687564578e+000	 1.6237281438e-001
 9.0381154410e-001	 3.2776706199e+000	 1.0897985600e-001
 8.7208156410e-001	 3.2862552770e+000	 6.7934671342e-002
 8.4035276450e-001	 3.2945116833e+000	 3.7575544150e-002
 8.0862986957e-001	 3.3024411780e+000	 1.6352353968e-002
 7.7691755217e-001	 3.3100451835e+000	 2.8255411955e-003
 7.4522043211e-001	 3.3173252037e+000	-4.3351322134e-003
 7.1354307455e-001	 3.3242828220e+000	-6.3520170638e-003
 6.8188998853e-001	 3.3309196993e+000	-4.3411966828e-003
 6.5026562556e-001	 3.3372375726e+000	 6.8571762288e-004
 6.1867437819e-001	 3.3432382526e+000	-8.5387334563e-002
 9.4241688584e-001	 3.2927914318e+000	 1.5664061279e-001
 9.1045721722e-001	 3.3017711392e+000	 9.3410307166e-002
 8.7849392854e-001	 3.3104189187e+000	 4.3300396227e-002
 8.4653182894e-001	 3.3187360339e+000	 4.7513431909e-003
 8.1457567743e-001	 3.3267238337e+000	-2.3685280481e-002
 7.8263018123e-001	 3.3343837511e+000	-4.3347933810e-002
 7.5069999411e-001	 3.3417173008e+000	-5.5466448526e-002
 7.1878971480e-001	 3.3487260780e+000	-6.1163565270e-002
 6.8690388551e-001	 3.3554117559e+000	-6.1456654018e-002
 6.5504699045e-001	 3.3617760842e+000	-5.7259608771e-002
 6.2322345450e-001	 3.3678208868e+000	-7.5239926205e-002
 9.4929584121e-001	 3.3168264057e+000	 1.3717776894e-001
 9.1710289033e-001	 3.3258716585e+000	 6.7475097723e-002
 8.8490629298e-001	 3.3345825605e+000	 1.1591279622e-002
 8.5271089338e-001	 3.3429603845e+000	-3.1932180545e-002
 8.2052148530e-001	 3.3510064894e+000	-6.4443065109e-002
 7.8834281029e-001	 3.3587223186e+000	-8.7179686829e-002
 7.5617955611e-001	 3.3661093979e+000	-1.0127233497e-001
 7.2403635505e-001	 3.3731693341e+000	-1.0774491442e-001
 6.9191778248e-001	 3.3799038126e+000	-1.0751676795e-001
 6.5982835535e-001	 3.3863145957e+000	-1.0140467133e-001
 6.2777253081e-001	 3.3924035210e+000	-9.0124991214e-002
 9.5617479658e-001	 3.3408613797e+000	 1.0447002674e-001
 9.2374856345e-001	 3.3499721777e+000	 3.1583043352e-002
 8.9131865742e-001	 3.3587462022e+000	-2.6860474086e-002
 8.5888995783e-001	 3.3671847351e+000	-7.2219088798e-002
 8.2646729316e-001	 3.3752891451e+000	-1.0574095466e-001
 7.9405543935e-001	 3.3830608861e+000	-1.2856516486e-001
 7.6165911811e-001	 3.3905014950e+000	-1.4172330274e-001
 7.2928299530e-001	 3.3976125901e+000	-1.4614118491e-001
 6.9693167945e-001	 3.4043958692e+000	-1.4264078648e-001
 6.6460972024e-001	 3.4108531073e+000	-1.3194233791e-001
 6.3232160712e-001	 3.4169861552e+000	-1.1466658325e-001
 9.6305375194e-001	 3.3648963537e+000	 5.8996493647e-002
 9.3039423656e-001	 3.3740726970e+000	-1.3861548856e-002
 8.9773102186e-001	 3.3829098440e+000	-7.1725063558e-002
 8.6506902227e-001	 3.3914090857e+000	-1.1585376387e-001
 8.3241310102e-001	 3.3995718009e+000	-1.4739716575e-001
 7.9976806841e-001	 3.4073994536e+000	-1.6739604251e-001
 7.6713868010e-001	 3.4148935921e+000	-1.7678408151e-001
 7.3452963556e-001	 3.4220558462e+000	-1.7638973224e-001
 7.0194557643e-001	 3.4288879258e+000	-1.6693823573e-001
 6.6939108513e-001	 3.4353916189e+000	-1.4905382448e-001
 6.3687068343e-001	 3.4415687894e+000	-1.2326208232e-001
 5.9137992034e-001	 3.1957424473e+000	 2.0949151973e-001
 5.6121820030e-001	 3.2011769916e+000	 2.2741201657e-001
 5.3109635855e-001	 3.2063120026e+000	 2.5287851451e-001
 5.0101841767e-001	 3.2111494118e+000	 2.8489879523e-001
 4.7098833933e-001	 3.2156912140e+000	 3.2260737328e-001
 4.4101002328e-001	 3.2199394651e+000	 3.6526487687e-001
 4.1108730644e-001	 3.2238962803e+000	 4.1225716221e-001
 3.8122396201e-001	 3.2275638322e+000	 4.6309417106e-001
 3.5142369869e-001	 3.2309443486e+000	 5.1740854133e-001
 3.2169015991e-001	 3.2340401112e+000	 5.7495398106e-001
 2.9202692318e-001	 3.2368534530e+000	 6.3560341640e-001
 5.9592899665e-001	 3.2203250815e+000	 1.1366477388e-001
 5.6553526338e-001	 3.2258014300e+000	 1.2890101457e-001
 5.3518171515e-001	 3.2309759410e+000	 1.5259421915e-001
 5.0487240550e-001	 3.2358505611e+000	 1.8364186775e-001
 4.7461132655e-001	 3.2404273003e+000	 2.2107171551e-001
 4.4440240807e-001	 3.2447082303e+000	 2.6404123445e-001
 4.1424951648e-001	 3.2486954825e+000	 3.1183678048e-001
 3.8415645402e-001	 3.2523912463e+000	 3.6387249490e-001
 3.5412695790e-001	 3.2557977667e+000	 4.1968895071e-001
 3.2416469960e-001	 3.2589173428e+000	 4.7895155427e-001
 2.9427328412e-001	 3.2617523257e+000	 5.4144871302e-001
 6.0047807296e-001	 3.2449077157e+000	 3.7691122415e-002
 5.6985232646e-001	 3.2504258684e+000	 4.9727012526e-002
 5.3926707176e-001	 3.2556398795e+000	 7.1058754296e-002
 5.0872639332e-001	 3.2605517105e+000	 1.0047325169e-001
 4.7823431377e-001	 3.2651633866e+000	 1.3689131258e-001
 4.4779479286e-001	 3.2694769954e+000	 1.7936715103e-001
 4.1741172653e-001	 3.2734946847e+000	 2.2708760571e-001
 3.8708894603e-001	 3.2772186604e+000	 2.7937108428e-001
 3.5683021712e-001	 3.2806511848e+000	 3.3566624424e-001
 3.2663923928e-001	 3.2837945745e+000	 3.9555042073e-001
 2.9651964507e-001	 3.2866511984e+000	 4.5872781251e-001
 6.0502714927e-001	 3.2694903500e+000	-1.9327684011e-002
 5.7416938954e-001	 3.2750503068e+000	-1.0955544314e-002
 5.4335242836e-001	 3.2803038180e+000	 7.4792919183e-003
 5.1258038115e-001	 3.2852528598e+000	 3.4652847090e-002
 4.8185730100e-001	 3.2898994728e+000	 6.9378764084e-002
 4.5118717765e-001	 3.2942457605e+000	 1.1060786793e-001
 4.2057393658e-001	 3.2982938868e+000	 1.5742743467e-001
 3.9002143804e-001	 3.3020460744e+000	 2.0906017757e-001
 3.5953347634e-001	 3.3055046028e+000	 2.6486296107e-001
 3.2911377897e-001	 3.3086718061e+000	 3.2432525351e-001
 2.9876600601e-001	 3.3115500711e+000	 3.8706732983e-001
 6.0957622558e-001	 3.2940729842e+000	-5.8272966333e-002
 5.7848645261e-001	 3.2996747452e+000	-5.3976187627e-002
 5.4743778496e-001	 3.3049677565e+000	-3.8921895812e-002
 5.1643436897e-001	 3.3099540091e+000	-1.4545285601e-002
 4.8548028822e-001	 3.3146355591e+000	 1.7859873678e-002
 4.5457956245e-001	 3.3190145256e+000	 5.7140858274e-002
 4.2373614662e-001	 3.3230930890e+000	 1.0228530838e-001
 3.9295393006e-001	 3.3268734885e+000	 1.5242025489e-001
 3.6223673555e-001	 3.3303580209e+000	 2.0681086536e-001
 3.3158831866e-001	 3.3335490377e+000	 2.6485892020e-001
 3.0101236695e-001	 3.3364489438e+000	 3.2610103067e-001
 6.1412530188e-001	 3.3186556184e+000	-8.0009744054e-002
 5.8280351569e-001	 3.3242991836e+000	-8.0149019457e-002
 5.5152314156e-001	 3.3296316950e+000	-6.8907995764e-002
 5.2028835680e-001	 3.3346551584e+000	-4.7833450047e-002
 4.8910327544e-001	 3.3393716454e+000	-1.8326839981e-002
 4.5797194724e-001	 3.3437832907e+000	 1.8355374010e-002
 4.2689835667e-001	 3.3478922911e+000	 6.1101095594e-002
 3.9588642207e-001	 3.3517009026e+000	 1.0894165880e-001
 3.6493999477e-001	 3.3552114390e+000	 1.6105060462e-001
 3.3406285835e-001	 3.3584262693e+000	 2.1674217942e-001
 3.0325872790e-001	 3.3613478166e+000	 2.7546956670e-001
 6.1867437819e-001	 3.3432382526e+000	-8.5387334563e-002
 5.8712057877e-001	 3.3489236220e+000	-9.0273279479e-002
 5.5560849817e-001	 3.3542956335e+000	-8.3228188448e-002
 5.2414234463e-001	 3.3593563078e+000	-6.5910815318e-002
 4.9272626267e-001	 3.3641077316e+000	-3.9830610676e-002
 4.6136433203e-001	 3.3685520559e+000	-6.3479871821e-003
 4.3006056672e-001	 3.3726914933e+000	 3.3325094772e-002
 3.9881891408e-001	 3.3765283167e+000	 7.8124231698e-002
 3.6764325399e-001	 3.3800648570e+000	 1.2713138311e-001
 3.3653739804e-001	 3.3833035010e+000	 1.7957339067e-001
 3.0550508885e-001	 3.3862466893e+000	 2.3482022235e-001
 6.2322345450e-001	 3.3678208868e+000	-7.5239926205e-002
 5.9143764185e-001	 3.3735480604e+000	-8.5133887424e-002
 5.5969385477e-001	 3.3789595719e+000	-8.2618159193e-002
 5.2799633246e-001	 3.3840574571e+000	-6.9463895257e-002
 4.9634924989e-001	 3.3888438179e+000	-4.7288871630e-002
 4.6475671683e-001	 3.3933208210e+000	-1.7557695947e-002
 4.3322277677e-001	 3.3974906954e+000	 1.8417653391e-002
 4.0175140610e-001	 3.4013557308e+000	 5.9476969142e-002
 3.7034651321e-001	 3.4049182751e+000	 1.0461064955e-001
 3.3901193773e-001	 3.4081807326e+000	 1.5295823694e-001
 3.0775144979e-001	 3.4111455620e+000	 2.0380667278e-001
 6.2777253081e-001	 3.3924035210e+000	-9.0124991214e-002
 5.9575470493e-001	 3.3981724988e+000	-6.5501961917e-002
 5.6377921137e-001	 3.4036235104e+000	-6.7800587106e-002
 5.3185032028e-001	 3.4087586064e+000	-5.9167007006e-002
 4.9997223712e-001	 3.4135799042e+000	-4.1327683058e-002
 4.6814910162e-001	 3.4180895861e+000	-1.5851687335e-002
 4.3638498682e-001	 3.4222898976e+000	 1.5848803876e-002
 4.0468389811e-001	 3.4261831449e+000	 5.2517688173e-002
 3.7304977243e-001	 3.4297716932e+000	 9.3053798404e-002
 3.4148647742e-001	 3.4330579642e+000	 1.3650945936e-001
 3.0999781074e-001	 3.4360444347e+000	 1.8208875228e-001
 6.3232160712e-001	 3.4169861552e+000	-1.1466658325e-001
 6.0007176801e-001	 3.4227969372e+000	-3.2135316918e-002
 5.6786456798e-001	 3.4282874489e+000	-3.9485612920e-002
 5.3570430811e-001	 3.4334597557e+000	-3.5682709736e-002
 5.0359522435e-001	 3.4383159904e+000	-2.2562141273e-002
 4.7154148642e-001	 3.4428583512e+000	-1.7977397763e-003
 4.3954719687e-001	 3.4470890998e+000	 2.5097915207e-002
 4.0761639013e-001	 3.4510105590e+000	 5.6772710022e-002
 3.7575303165e-001	 3.4546251112e+000	 9.2033884080e-002
 3.4396101711e-001	 3.4579351959e+000	 1.2984660333e-001
 3.1224417169e-001	 3.4609433074e+000	 1.6933223280e-001
 6.3687068343e-001	 3.4415687894e+000	-1.2326208232e-001
 6.0438883109e-001	 3.4474213756e+000	 1.4221063109e-002
 5.7194992458e-001	 3.4529513874e+000	 1.6287132083e-003
 5.3955829594e-001	 3.4581609051e+000	 3.3777542935e-004
 5.0721821157e-001	 3.4630520767e+000	 8.4032297479e-003
 4.7493387121e-001	 3.4676271163e+000	 2.4046162179e-002
 4.4270940692e-001	 3.4718883019e+000	 4.5653359482e-002
 4.1054888215e-001	 3.4758379731e+000	 7.1776556379e-002
 3.7845629087e-001	 3.4794785293e+000	 1.0113134734e-001
 3.4643555681e-001	 3.4828124275e+000	 1.3259577551e-001
 3.1449053264e-001	 3.4858421801e+000	 1.6520861179e-001
 2.9202692318e-001	 3.2368534530e+000	 6.3560341640e-001
 2.6243749943e-001	 3.2393867566e+000	 6.3754836003e-001
 2.3292533249e-001	 3.2416424524e+000	 6.2828765180e-001
 2.0349379852e-001	 3.2436230166e+000	 6.0824196209e-001
 1.7414620565e-001	 3.2453309691e+000	 5.7794956957e-001
 1.4488579349e-001	 3.2467688718e+000	 5.3806317958e-001
 1.1571573288e-001	 3.2479393266e+000	 4.8934658502e-001
 8.6639125561e-002	 3.2488449735e+000	 4.3267118170e-001
 5.7659003953e-002	 3.2494884889e+000	 3.6901235057e-001
 2.8778330992e-002	 3.2498725833e+000	 2.9944571855e-001
 0.0000000000e+000	 3.2500000000e+000	 2.2514331019e-001
 2.9427328412e-001	 3.2617523257e+000	 5.4144871302e-001
 2.6445624942e-001	 3.2643051163e+000	 5.4736672296e-001
 2.3471706581e-001	 3.2665781636e+000	 5.4324620726e-001
 2.0505913543e-001	 3.2685739629e+000	 5.2944248316e-001
 1.7548579184e-001	 3.2702950535e+000	 5.0643114686e-001
 1.4600029959e-001	 3.2717440170e+000	 4.7480489381e-001
 1.1660585390e-001	 3.2729234752e+000	 4.3527017598e-001
 8.7305580372e-002	 3.2738360887e+000	 3.8864370833e-001
 5.8102534752e-002	 3.2744845542e+000	 3.3584883682e-001
 2.8999702769e-002	 3.2748716032e+000	 2.7791178045e-001
 0.0000000000e+000	 3.2750000000e+000	 2.1595775922e-001
 2.9651964507e-001	 3.2866511984e+000	 4.5872781251e-001
 2.6647499942e-001	 3.2892234759e+000	 4.6800626283e-001
 2.3650879913e-001	 3.2915138748e+000	 4.6832207742e-001
 2.0662447234e-001	 3.2935249092e+000	 4.5996572730e-001
 1.7682537804e-001	 3.2952591379e+000	 4.4335071735e-001
 1.4711480569e-001	 3.2967191621e+000	 4.1901040648e-001
 1.1749597492e-001	 3.2979076239e+000	 3.8759465907e-001
 8.7972035183e-002	 3.2988272039e+000	 3.4986634014e-001
 5.8546065551e-002	 3.2994806195e+000	 3.0669766699e-001
 2.9221074545e-002	 3.2998706230e+000	 2.5906642979e-001
 0.0000000000e+000	 3.3000000000e+000	 2.0805209357e-001
 2.9876600601e-001	 3.3115500711e+000	 3.8706732983e-001
 2.6849374941e-001	 3.3141418356e+000	 3.9913119106e-001
 2.3830053246e-001	 3.3164495860e+000	 4.0321728549e-001
 2.0818980925e-001	 3.3184758555e+000	 3.9955172262e-001
 1.7816496423e-001	 3.3202232222e+000	 3.8848648571e-001
 1.4822931180e-001	 3.3216943073e+000	 3.7049624955e-001
 1.1838609594e-001	 3.3228917726e+000	 3.4617502385e-001
 8.8638489994e-002	 3.3238183191e+000	 3.1623263487e-001
 5.8989596350e-002	 3.3244766848e+000	 2.8149105827e-001
 2.9442446322e-002	 3.3248696429e+000	 2.4288061594e-001
 0.0000000000e+000	 3.3250000000e+000	 2.0143604942e-001
 3.0101236695e-001	 3.3364489438e+000	 3.2610103067e-001
 2.7051249940e-001	 3.3390601953e+000	 3.4041223527e-001
 2.4009226578e-001	 3.3413852971e+000	 3.4763971042e-001
 2.0975514616e-001	 3.3434268017e+000	 3.4794566741e-001
 1.7950455043e-001	 3.3451873066e+000	 3.4162111652e-001
 1.4934381790e-001	 3.3466694525e+000	 3.2908268043e-001
 1.1927621697e-001	 3.3478759212e+000	 3.1086922725e-001
 8.9304944806e-002	 3.3488094342e+000	 2.8763833639e-001
 5.9433127149e-002	 3.3494727501e+000	 2.6016261028e-001
 2.9663818098e-002	 3.3498686628e+000	 2.2932584491e-001
 0.0000000000e+000	 3.3500000000e+000	 1.9611907235e-001
 3.0325872790e-001	 3.3613478166e+000	 2.7546956670e-001
 2.7253124940e-001	 3.3639785549e+000	 2.9152639783e-001
 2.4188399911e-001	 3.3663210083e+000	 3.0130287008e-001
 2.1132048307e-001	 3.3683777480e+000	 3.0489773865e-001
 1.8084413662e-001	 3.3701513910e+000	 3.0254156907e-001
 1.5045832400e-001	 3.3716445976e+000	 2.9459354396e-001
 1.2016633799e-001	 3.3728600699e+000	 2.8153808362e-001
 8.9971399617e-002	 3.3738005494e+000	 2.6398129379e-001
 5.9876657948e-002	 3.3744688154e+000	 2.4264725383e-001
 2.9885189875e-002	 3.3748676827e+000	 2.1837415872e-001
 0.0000000000e+000	 3.3750000000e+000	 1.9211032802e-001
 3.0550508885e-001	 3.3862466893e+000	 2.3482022235e-001
 2.7454999939e-001	 3.3888969146e+000	 2.5215672526e-001
 2.4367573243e-001	 3.3912567195e+000	 2.6392571390e-001
 2.1288581998e-001	 3.3933286943e+000	 2.7016290899e-001
 1.8218372282e-001	 3.3951154754e+000	 2.7103893947e-001
 1.5157283010e-001	 3.3966197428e+000	 2.6685614057e-001
 1.2105645901e-001	 3.3978442186e+000	 2.5804515973e-001
 9.0637854428e-002	 3.3987916646e+000	 2.4516138392e-001
 6.0320188747e-002	 3.3994648807e+000	 2.2888120200e-001
 3.0106561652e-002	 3.3998667025e+000	 2.0999811568e-001
 0.0000000000e+000	 3.4000000000e+000	 1.8941871256e-001
 3.0775144979e-001	 3.4111455620e+000	 2.0380667278e-001
 2.7656874939e-001	 3.4138152743e+000	 2.2199208758e-001
 2.4546746576e-001	 3.4161924307e+000	 2.3523242465e-001
 2.1445115689e-001	 3.4182796406e+000	 2.4350077167e-001
 1.8352330902e-001	 3.4200795598e+000	 2.4690830965e-001
 1.5268733621e-001	 3.4215948880e+000	 2.4570110014e-001
 1.2194658003e-001	 3.4228283672e+000	 2.4025667427e-001
 9.1304309239e-002	 3.4237827798e+000	 2.3108043741e-001
 6.0763719546e-002	 3.4244609460e+000	 2.1880190328e-001
 3.0327933428e-002	 3.4248657224e+000	 2.0417077154e-001
 0.0000000000e+000	 3.4250000000e+000	 1.8805286232e-001
 3.0999781074e-001	 3.4360444347e+000	 1.8208875228e-001
 2.7858749938e-001	 3.4387336339e+000	 2.0072696737e-001
 2.4725919909e-001	 3.4411281418e+000	 2.1495222885e-001
 2.1601649380e-001	 3.4432305869e+000	 2.2467537317e-001
 1.8486289521e-001	 3.4450436441e+000	 2.2994860298e-001
 1.5380184231e-001	 3.4465700331e+000	 2.3096226135e-001
 1.2283670105e-001	 3.4478125159e+000	 2.2804140180e-001
 9.1970764051e-002	 3.4487738950e+000	 2.2164216790e-001
 6.1207250346e-002	 3.4494570113e+000	 2.1234799692e-001
 3.0549305205e-002	 3.4498647423e+000	 2.0086566150e-001
 0.0000000000e+000	 3.4500000000e+000	 1.8802116335e-001
 3.1224417169e-001	 3.4609433074e+000	 1.6933223280e-001
 2.8060624938e-001	 3.4636519936e+000	 1.8806125781e-001
 2.4905093241e-001	 3.4660638530e+000	 2.0281921530e-001
 2.1758183071e-001	 3.4681815332e+000	 2.1345505300e-001
 1.8620248141e-001	 3.4700077285e+000	 2.1996244607e-001
 1.5491634841e-001	 3.4715451783e+000	 2.2247655631e-001
 1.2372682207e-001	 3.4727966646e+000	 2.2127058078e-001
 9.2637218862e-002	 3.4737650101e+000	 2.1675210427e-001
 6.1650781145e-002	 3.4744530766e+000	 2.0945926998e-001
 3.0770676981e-002	 3.4748637621e+000	 2.0005678295e-001
 0.0000000000e+000	 3.4750000000e+000	 1.8933176035e-001
 3.1449053264e-001	 3.4858421801e+000	 1.6520861179e-001
 2.8262499937e-001	 3.4885703533e+000	 1.8370006951e-001
 2.5084266574e-001	 3.4909995642e+000	 1.9857216146e-001
 2.1914716763e-001	 3.4931324794e+000	 2.0961229034e-001
 1.8754206761e-001	 3.4949718129e+000	 2.1675603652e-001
 1.5603085452e-001	 3.4965203235e+000	 2.2008390001e-001
 1.2461694309e-001	 3.4977808132e+000	 2.1981782560e-001
 9.3303673673e-002	 3.4987561253e+000	 2.1631752583e-001
 6.2094311944e-002	 3.4994491419e+000	 2.1007661643e-001
 3.0992048758e-002	 3.4998627820e+000	 2.0171857895e-001
 0.0000000000e+000	 3.5000000000e+000	 1.9199256534e-001
 3.5000000000e+000	 0.0000000000e+000	 1.0072673692e+000
 3.4998627820e+000	 3.0992048758e-002	 9.6253792041e-001
 3.4994491419e+000	 6.2094311944e-002	 9.2131982839e-001
 3.4987561253e+000	 9.3303673673e-002	 8.8577721470e-001
 3.4977808132e+000	 1.2461694309e-001	 8.5780629467e-001
 3.4965203235e+000	 1.5603085452e-001	 8.3902703551e-001
 3.4949718129e+000	 1.8754206761e-001	 8.3077520468e-001
 3.4931324794e+000	 2.1914716763e-001	 8.3409483974e-001
 3.4909995642e+000	 2.5084266574e-001	 8.4973117071e-001
 3.4885703533e+000	 2.8262499937e-001	 8.7812402593e-001
 3.4858421801e+000	 3.1449053264e-001	 9.1940175197e-001
 3.5250000000e+000	 0.0000000000e+000	 9.9878345551e-001
 3.5248618019e+000	 3.1213420535e-002	 9.6184109336e-001
 3.5244452072e+000	 6.2537842743e-002	 9.2815404442e-001
 3.5237472405e+000	 9.3970128485e-002	 8.9974307895e-001
 3.5227649619e+000	 1.2550706412e-001	 8.7835316091e-001
 3.5214954686e+000	 1.5714536062e-001	 8.6544507287e-001
 3.5199358973e+000	 1.8888165380e-001	 8.6218744596e-001
 3.5180834257e+000	 2.2071250454e-001	 8.6944922638e-001
 3.5159352753e+000	 2.5263439907e-001	 8.8779261035e-001
 3.5134887129e+000	 2.8464374937e-001	 9.1746647907e-001
 3.5107410529e+000	 3.1673689358e-001	 9.5840036472e-001
 3.5500000000e+000	 0.0000000000e+000	 9.9337702953e-001
 3.5498608218e+000	 3.1434792311e-002	 9.6120910006e-001
 3.5494412725e+000	 6.2981373542e-002	 9.3224714414e-001
 3.5487383557e+000	 9.4636583296e-002	 9.0837055080e-001
 3.5477491106e+000	 1.2639718514e-001	 8.9117482312e-001
 3.5464706138e+000	 1.5825986672e-001	 8.8196316480e-001
 3.5448999816e+000	 1.9022124000e-001	 8.8173848632e-001
 3.5430343720e+000	 2.2227784145e-001	 8.9119586328e-001
 3.5408709865e+000	 2.5442613239e-001	 9.1071547928e-001
 3.5384070726e+000	 2.8666249936e-001	 9.4035608524e-001
 3.5356399256e+000	 3.1898325453e-001	 9.7984900727e-001
 3.5750000000e+000	 0.0000000000e+000	 9.9058607963e-001
 3.5748598416e+000	 3.1656164088e-002	 9.6028760373e-001
 3.5744373378e+000	 6.3424904341e-002	 9.3335251432e-001
 3.5737294709e+000	 9.5303038108e-002	 9.1152073971e-001
 3.5727332592e+000	 1.2728730616e-001	 8.9624006157e-001
 3.5714457590e+000	 1.5937437283e-001	 8.8865765772e-001
 3.5698640660e+000	 1.9156082620e-001	 8.8961207954e-001
 3.5679853183e+000	 2.2384317836e-001	 8.9962569721e-001
 3.5658066977e+000	 2.5621786572e-001	 9.1889764556e-001
 3.5633254323e+000	 2.8868124936e-001	 9.4729730351e-001
 3.5605387983e+000	 3.2122961548e-001	 9.8435833933e-001
 3.6000000000e+000	 0.0000000000e+000	 9.8996142787e-001
 3.5998588615e+000	 3.1877535864e-002	 9.5873311876e-001
 3.5994334031e+000	 6.3868435141e-002	 9.3123245085e-001
 3.5987205860e+000	 9.5969492919e-002	 9.0906176383e-001
 3.5977174079e+000	 1.2817742718e-001	 8.9352280746e-001
 3.5964209041e+000	 1.6048887893e-001	 8.8560823522e-001
 3.5948281504e+000	 1.9290041239e-001	 8.8599354795e-001
 3.5929362646e+000	 2.2540851527e-001	 8.9502952095e-001
 3.5907424089e+000	 2.5800959905e-001	 9.1273514823e-001
 3.5882437919e+000	 2.9069999936e-001	 9.3879113740e-001
 3.5854376710e+000	 3.2347597643e-001	 9.7253398816e-001
 3.6250000000e+000	 0.0000000000e+000	 9.9106628743e-001
 3.6248578814e+000	 3.2098907641e-002	 9.5621263655e-001
 3.6244294683e+000	 6.4311965940e-002	 9.2565785155e-001
 3.6237117012e+000	 9.6635947731e-002	 9.0086850834e-001
 3.6227015566e+000	 1.2906754820e-001	 8.8300196537e-001
 3.6213960493e+000	 1.6160338503e-001	 8.7289780304e-001
 3.6197922348e+000	 1.9423999859e-001	 8.7106972827e-001
 3.6178872109e+000	 2.2697385218e-001	 8.7769797865e-001
 3.6156781200e+000	 2.5980133237e-001	 8.9262226037e-001
 3.6131621516e+000	 2.9271874935e-001	 9.1533525405e-001
 3.6103365437e+000	 3.2572233738e-001	 9.4497672210e-001
 3.6500000000e+000	 0.0000000000e+000	 9.9347583825e-001
 3.6498569012e+000	 3.2320279418e-002	 9.5240326674e-001
 3.6494255336e+000	 6.4755496739e-002	 9.1640792160e-001
 3.6487028164e+000	 9.7302402542e-002	 8.8682239363e-001
 3.6476857052e+000	 1.2995766922e-001	 8.6466124292e-001
 3.6463711945e+000	 1.6271789114e-001	 8.5061237868e-001
 3.6447563192e+000	 1.9557958479e-001	 8.4502891977e-001
 3.6428381571e+000	 2.2853918909e-001	 8.4792157091e-001
 3.6406138312e+000	 2.6159306570e-001	 8.5895154961e-001
 3.6380805113e+000	 2.9473749935e-001	 8.7742409842e-001
 3.6352354164e+000	 3.2796869832e-001	 9.0228261700e-001
 3.6750000000e+000	 0.0000000000e+000	 9.9677681998e-001
 3.6748559211e+000	 3.2541651194e-002	 9.4699189297e-001
 3.6744215989e+000	 6.5199027538e-002	 9.0326989093e-001
 3.6736939316e+000	 9.7968857353e-002	 8.6681115308e-001
 3.6726698539e+000	 1.3084779024e-001	 8.3848898737e-001
 3.6713463396e+000	 1.6383239724e-001	 8.1884098555e-001
 3.6697204035e+000	 1.9691917098e-001	 8.0806083451e-001
 3.6677891034e+000	 2.3010452601e-001	 8.0599065965e-001
 3.6655495424e+000	 2.6338479903e-001	 8.1211393608e-001
 3.6629988709e+000	 2.9675624934e-001	 8.2554900293e-001
 3.6601342892e+000	 3.3021505927e-001	 8.4504321578e-001
 3.7000000000e+000	 0.0000000000e+000	 1.0005671415e+000
 3.6998549410e+000	 3.2763022971e-002	 9.3967484277e-001
 3.6994176642e+000	 6.5642558337e-002	 8.8603874318e-001
 3.6986850468e+000	 9.8635312165e-002	 8.4072861975e-001
 3.6976540026e+000	 1.3173791127e-001	 8.0447802892e-001
 3.6963214848e+000	 1.6494690334e-001	 7.7767555149e-001
 3.6946844879e+000	 1.9825875718e-001	 7.6035654965e-001
 3.6927400497e+000	 2.3166986292e-001	 7.5219547278e-001
 3.6904852536e+000	 2.6517653235e-001	 7.5249874810e-001
 3.6879172306e+000	 2.9877499934e-001	 7.6019829260e-001
 3.6850331619e+000	 3.3246142022e-001	 7.7384568162e-001
 3.7250000000e+000	 0.0000000000e+000	 1.0044555061e+000
 3.7248539609e+000	 3.2984394747e-002	 9.3015757059e-001
 3.7244137295e+000	 6.6086089136e-002	 8.6451695543e-001
 3.7236761619e+000	 9.9301766976e-002	 8.0847452171e-001
 3.7226381512e+000	 1.3262803229e-001	 7.6262553026e-001
 3.7212966300e+000	 1.6606140945e-001	 7.2721081119e-001
 3.7196485723e+000	 1.9959834338e-001	 7.0210846161e-001
 3.7176909960e+000	 2.3323519983e-001	 6.8682610875e-001
 3.7154209647e+000	 2.6696826568e-001	 6.8049377564e-001
 3.7128355903e+000	 3.0079374934e-001	 6.8185738599e-001
 3.7099320346e+000	 3.3470778117e-001	 6.8927294489e-001
 3.7500000000e+000	 0.0000000000e+000	 1.0080610515e+000
 3.7498529807e+000	 3.3205766524e-002	 9.1815435359e-001
 3.7494097948e+000	 6.6529619936e-002	 8.3851424848e-001
 3.7486672771e+000	 9.9968221788e-002	 7.6995428552e-001
 3.7476222999e+000	 1.3351815331e-001	 7.1293284214e-001
 3.7462717751e+000	 1.6717591555e-001	 6.6754421275e-001
 3.7446126567e+000	 2.0093792957e-001	 6.3351024208e-001
 3.7426419423e+000	 2.3480053674e-001	 6.1017254082e-001
 3.7403566759e+000	 2.6875999901e-001	 5.9648532150e-001
 3.7377539499e+000	 3.0281249933e-001	 5.9100889205e-001
 3.7348309073e+000	 3.3695414212e-001	 5.9190384428e-001
 3.4858421801e+000	 3.1449053264e-001	 9.1940175197e-001
 3.4828124275e+000	 3.4643555681e-001	 9.6977674873e-001
 3.4794785293e+000	 3.7845629087e-001	 1.0032293875e+000
 3.4758379731e+000	 4.1054888215e-001	 1.0184552649e+000
 3.4718883019e+000	 4.4270940692e-001	 1.0138363449e+000
 3.4676271163e+000	 4.7493387121e-001	 9.8743869030e-001
 3.4630520767e+000	 5.0721821157e-001	 9.3701087900e-001
 3.4581609051e+000	 5.3955829594e-001	 8.5998313096e-001
 3.4529513874e+000	 5.7194992458e-001	 7.5346716862e-001
 3.4474213756e+000	 6.0438883109e-001	 6.1425683285e-001
 3.4415687894e+000	 6.3687068343e-001	 7.4134527108e-001
 3.5107410529e+000	 3.1673689358e-001	 9.5840036472e-001
 3.5076896591e+000	 3.4891009650e-001	 1.0023013567e+000
 3.5043319474e+000	 3.8115955010e-001	 1.0290083677e+000
 3.5006653872e+000	 4.1348137416e-001	 1.0370561973e+000
 3.4966875041e+000	 4.4587161697e-001	 1.0246582372e+000
 3.4923958815e+000	 4.7832625601e-001	 9.8970427784e-001
 3.4877881630e+000	 5.1084119880e-001	 9.2975901920e-001
 3.4828620544e+000	 5.4341228377e-001	 8.4206131140e-001
 3.4776153259e+000	 5.7603528119e-001	 7.2352414815e-001
 3.4720458140e+000	 6.0870589417e-001	 5.7073543590e-001
 3.4661514237e+000	 6.4141975974e-001	 7.8958162432e-001
 3.5356399256e+000	 3.1898325453e-001	 9.7984900727e-001
 3.5325668907e+000	 3.5138463619e-001	 1.0176466397e+000
 3.5291853654e+000	 3.8386280932e-001	 1.0381755153e+000
 3.5254928013e+000	 4.1641386618e-001	 1.0398089007e+000
 3.5214867062e+000	 4.4903382702e-001	 1.0205906573e+000
 3.5171646466e+000	 4.8171864080e-001	 9.7823312113e-001
 3.5125242492e+000	 5.1446418603e-001	 9.1011570633e-001
 3.5075632037e+000	 5.4726627160e-001	 8.1328425700e-001
 3.5022792644e+000	 5.8012063779e-001	 6.8445117266e-001
 3.4966702524e+000	 6.1302295724e-001	 5.1999632943e-001
 3.4907340579e+000	 6.4596883605e-001	 8.2578003106e-001
 3.5605387983e+000	 3.2122961548e-001	 9.8435833933e-001
 3.5574441224e+000	 3.5385917588e-001	 1.0165027777e+000
 3.5540387835e+000	 3.8656606854e-001	 1.0315004538e+000
 3.5503202154e+000	 4.1934635820e-001	 1.0275623152e+000
 3.5462859084e+000	 4.5219603707e-001	 1.0025616840e+000
 3.5419334117e+000	 4.8511102560e-001	 9.5403220778e-001
 3.5372603355e+000	 5.1808717325e-001	 8.7916655237e-001
 3.5322643530e+000	 5.5112025943e-001	 7.7481586470e-001
 3.5269432028e+000	 5.8420599440e-001	 6.3749002819e-001
 3.5212946908e+000	 6.1734002033e-001	 4.6335873498e-001
 3.5153166921e+000	 6.5051791236e-001	 8.5001677538e-001
 3.5854376710e+000	 3.2347597643e-001	 9.7253398816e-001
 3.5823213540e+000	 3.5633371558e-001	 9.9955412058e-001
 3.5788922016e+000	 3.8926932776e-001	 1.0097462185e+000
 3.5751476295e+000	 4.2227885021e-001	 1.0011580756e+000
 3.5710851106e+000	 4.5535824712e-001	 9.7149141508e-001
 3.5667021768e+000	 4.8850341040e-001	 9.1809990935e-001
 3.5619964217e+000	 5.2171016048e-001	 8.3798796112e-001
 3.5569655023e+000	 5.5497424726e-001	 7.2781027422e-001
 3.5516071413e+000	 5.8829135100e-001	 5.8387223817e-001
 3.5459191292e+000	 6.2165708341e-001	 4.0213115037e-001
 3.5398993263e+000	 6.5506698867e-001	 8.6235700143e-001
 3.6103365437e+000	 3.2572233738e-001	 9.4497672210e-001
 3.6071985856e+000	 3.5880825527e-001	 9.6747938947e-001
 3.6037456196e+000	 3.9197258699e-001	 9.7366948460e-001
 3.5999750436e+000	 4.2521134223e-001	 9.6143076355e-001
 3.5958843127e+000	 4.5852045717e-001	 9.2829224165e-001
 3.5914709419e+000	 4.9189579519e-001	 8.7142627850e-001
 3.5867325080e+000	 5.2533314771e-001	 7.8764744579e-001
 3.5816666517e+000	 5.5882823509e-001	 6.7341220453e-001
 3.5762710798e+000	 5.9237670761e-001	 5.2481941731e-001
 3.5705435676e+000	 6.2597414649e-001	 3.5920933933e-001
 3.5644819605e+000	 6.5961606499e-001	 8.6285509753e-001
 3.6352354164e+000	 3.2796869832e-001	 9.0228261700e-001
 3.6320758172e+000	 3.6128279496e-001	 9.2095186922e-001
 3.6285990377e+000	 3.9467584621e-001	 9.2402078409e-001
 3.6248024577e+000	 4.2814383425e-001	 9.0920814900e-001
 3.6206835149e+000	 4.6168266723e-001	 8.7386911263e-001
 3.6162397070e+000	 4.9528817999e-001	 8.1499333382e-001
 3.6114685943e+000	 5.2895613494e-001	 7.2920393340e-001
 3.6063678010e+000	 5.6268222292e-001	 6.1275727644e-001
 3.6009350183e+000	 5.9646206422e-001	 4.6154361093e-001
 3.5951680060e+000	 6.3029120957e-001	 3.8321358856e-001
 3.5890645947e+000	 6.6416514130e-001	 8.5155506456e-001
 3.6601342892e+000	 3.3021505927e-001	 8.4504321578e-001
 3.6569530489e+000	 3.6375733466e-001	 8.6063959345e-001
 3.6534524558e+000	 3.9737910543e-001	 8.6154471531e-001
 3.6496298718e+000	 4.3107632627e-001	 8.4531142174e-001
 3.6454827170e+000	 4.6484487728e-001	 8.0911978774e-001
 3.6410084722e+000	 4.9868056479e-001	 7.4977533318e-001
 3.6362046805e+000	 5.3257912217e-001	 6.6370805687e-001
 3.6310689503e+000	 5.6653621075e-001	 5.4697232212e-001
 3.6255989568e+000	 6.0054742082e-001	 3.9524762044e-001
 3.6197924444e+000	 6.3460827265e-001	 3.9710696245e-001
 3.6136472289e+000	 6.6871421761e-001	 8.2849086927e-001
 3.6850331619e+000	 3.3246142022e-001	 7.7384568162e-001
 3.6818302805e+000	 3.6623187435e-001	 7.8720552188e-001
 3.6783058738e+000	 4.0008236465e-001	 7.8698014314e-001
 3.6744572859e+000	 4.3400881828e-001	 7.7055541388e-001
 3.6702819192e+000	 4.6800708733e-001	 7.3493508032e-001
 3.6657772373e+000	 5.0207294958e-001	 6.7673903585e-001
 3.6609407668e+000	 5.3620210939e-001	 5.9220243523e-001
 3.6557700996e+000	 5.7039019858e-001	 4.7717568194e-001
 3.6502628952e+000	 6.0463277743e-001	 3.2712531567e-001
 3.6444168828e+000	 6.3892533573e-001	 4.0091291510e-001
 3.6382298631e+000	 6.7326329392e-001	 7.9368678321e-001
 3.7099320346e+000	 3.3470778117e-001	 6.8927294489e-001
 3.7067075121e+000	 3.6870641404e-001	 7.0130771066e-001
 3.7031592919e+000	 4.0278562387e-001	 7.0106039149e-001
 3.6992847000e+000	 4.3694131030e-001	 6.8574881310e-001
 3.6950811213e+000	 4.7116929738e-001	 6.5219909050e-001
 3.6905460024e+000	 5.0546533438e-001	 5.9684395417e-001
 3.6856768530e+000	 5.3982509662e-001	 5.1572194252e-001
 3.6804712489e+000	 5.7424418641e-001	 4.0447748950e-001
 3.6749268337e+000	 6.0871813404e-001	 2.5836193456e-001
 3.6690413212e+000	 6.4324239882e-001	 3.9464588091e-001
 3.6628124973e+000	 6.7781237024e-001	 7.4715770817e-001
 3.7348309073e+000	 3.3695414212e-001	 5.9190384428e-001
 3.7315847437e+000	 3.7118095373e-001	 6.0359947580e-001
 3.7280127100e+000	 4.0548888310e-001	 6.0451342795e-001
 3.7241121140e+000	 4.3987380232e-001	 5.9169436753e-001
 3.7198803235e+000	 4.7433150743e-001	 5.6178942895e-001
 3.7153147675e+000	 5.0885771918e-001	 5.1104259507e-001
 3.7104129393e+000	 5.4344808385e-001	 4.3529396597e-001
 3.7051723983e+000	 5.7809817425e-001	 3.2997994514e-001
 3.6995907722e+000	 6.1280349065e-001	 1.9013437088e-001
 3.6936657595e+000	 6.4755946190e-001	 3.7831157518e-001
 3.6873951316e+000	 6.8236144655e-001	 6.8890948842e-001
 3.4415687894e+000	 6.3687068343e-001	 7.4134527108e-001
 3.4353916189e+000	 6.6939108513e-001	 7.4243189901e-001
 3.4288879258e+000	 7.0194557643e-001	 7.3844462742e-001
 3.4220558462e+000	 7.3452963556e-001	 7.2919501935e-001
 3.4148935921e+000	 7.6713868010e-001	 7.1438413005e-001
 3.4073994536e+000	 7.9976806841e-001	 6.9359894899e-001
 3.3995718009e+000	 8.3241310102e-001	 6.6630900049e-001
 3.3914090857e+000	 8.6506902227e-001	 6.3186311685e-001
 3.3829098440e+000	 8.9773102186e-001	 5.8948639779e-001
 3.3740726970e+000	 9.3039423656e-001	 5.3827736966e-001
 3.3648963537e+000	 9.6305375194e-001	 4.7720535819e-001
 3.4661514237e+000	 6.4141975974e-001	 7.8958162432e-001
 3.4599301304e+000	 6.7417245002e-001	 7.8288689327e-001
 3.4533799824e+000	 7.0695947340e-001	 7.7195080686e-001
 3.4464991022e+000	 7.3977627581e-001	 7.5664976023e-001
 3.4392856892e+000	 7.7261824210e-001	 7.3674769051e-001
 3.4317380212e+000	 8.0548069746e-001	 7.1189238323e-001
 3.4238544566e+000	 8.3835890888e-001	 6.8161193912e-001
 3.4156334363e+000	 8.7124808671e-001	 6.4531141544e-001
 3.4070734857e+000	 9.0414338630e-001	 6.0226965600e-001
 3.3981732162e+000	 9.3703990968e-001	 5.5163632373e-001
 3.3889313276e+000	 9.6993270731e-001	 4.9242914985e-001
 3.4907340579e+000	 6.4596883605e-001	 8.2578003106e-001
 3.4844686420e+000	 6.7895381492e-001	 8.1160663020e-001
 3.4778720390e+000	 7.1197337037e-001	 7.9408183121e-001
 3.4709423583e+000	 7.4502291606e-001	 7.7314729922e-001
 3.4636777863e+000	 7.7809780410e-001	 7.4863022404e-001
 3.4560765887e+000	 8.1119332652e-001	 7.2023948891e-001
 3.4481371123e+000	 8.4430471674e-001	 6.8756200145e-001
 3.4398577869e+000	 8.7742715115e-001	 6.5005920125e-001
 3.4312371274e+000	 9.1055575074e-001	 6.0706375849e-001
 3.4222737355e+000	 9.4368558279e-001	 5.5777647814e-001
 3.4129663016e+000	 9.7681166268e-001	 5.0126342384e-001
 3.5153166921e+000	 6.5051791236e-001	 8.5001677538e-001
 3.5090071536e+000	 6.8373517981e-001	 8.2863036242e-001
 3.5023640956e+000	 7.1698726735e-001	 8.0484019366e-001
 3.4953856143e+000	 7.5026955631e-001	 7.7865366049e-001
 3.4880698834e+000	 7.8357736610e-001	 7.4996159442e-001
 3.4804151562e+000	 8.1690595558e-001	 7.1853429606e-001
 3.4724197680e+000	 8.5025052460e-001	 6.8401772816e-001
 3.4640821375e+000	 8.8360621559e-001	 6.4592988738e-001
 3.4554007692e+000	 9.1696811518e-001	 6.0365736979e-001
 3.4463742548e+000	 9.5033125591e-001	 5.5645214471e-001
 3.4370012755e+000	 9.8369061805e-001	 5.0342855165e-001
 3.5398993263e+000	 6.5506698867e-001	 8.6235700143e-001
 3.5335456651e+000	 6.8851654471e-001	 8.3398690579e-001
 3.5268561522e+000	 7.2200116432e-001	 8.0421866065e-001
 3.5198288704e+000	 7.5551619657e-001	 7.7312585809e-001
 3.5124619805e+000	 7.8905692810e-001	 7.4066337828e-001
 3.5047537237e+000	 8.2261858464e-001	 7.0666327661e-001
 3.4967024237e+000	 8.5619633247e-001	 6.7083083663e-001
 3.4883064882e+000	 8.8978528004e-001	 6.3274080410e-001
 3.4795644109e+000	 9.2338047962e-001	 5.9183381731e-001
 3.4704747740e+000	 9.5697692902e-001	 5.4741304885e-001
 3.4610362495e+000	 9.9056957342e-001	 4.9864107376e-001
 3.5644819605e+000	 6.5961606499e-001	 8.6285509753e-001
 3.5580841767e+000	 6.9329790960e-001	 8.2769499933e-001
 3.5513482089e+000	 7.2701506130e-001	 7.9220060734e-001
 3.5442721264e+000	 7.6076283682e-001	 7.5651220665e-001
 3.5368540775e+000	 7.9453649010e-001	 7.2064915086e-001
 3.5290922913e+000	 8.2833121370e-001	 6.8450560498e-001
 3.5209850795e+000	 8.6214214033e-001	 6.4784645629e-001
 3.5125308388e+000	 8.9596434448e-001	 6.1030340856e-001
 3.5037280527e+000	 9.2979284406e-001	 5.7137127533e-001
 3.4945752933e+000	 9.6362260214e-001	 5.3040448766e-001
 3.4850712234e+000	 9.9744852879e-001	 4.8661383175e-001
 3.5890645947e+000	 6.6416514130e-001	 8.5155506456e-001
 3.5826226883e+000	 6.9807927450e-001	 8.0976365033e-001
 3.5758402655e+000	 7.3202895827e-001	 7.6876033917e-001
 3.5687153825e+000	 7.6600947708e-001	 7.2875261935e-001
 3.5612461746e+000	 8.0001605210e-001	 6.8982476004e-001
 3.5534308588e+000	 8.3404384276e-001	 6.5193340801e-001
 3.5452677352e+000	 8.6808794820e-001	 6.1490335416e-001
 3.5367551894e+000	 9.0214340892e-001	 5.7842348594e-001
 3.5278916944e+000	 9.3620520850e-001	 5.4204294151e-001
 3.5186758126e+000	 9.7026827526e-001	 5.0516748162e-001
 3.5091061974e+000	 1.0043274842e+000	 4.6705609499e-001
 3.6136472289e+000	 6.6871421761e-001	 8.2849086927e-001
 3.6071611998e+000	 7.0286063939e-001	 7.8019246530e-001
 3.6003323221e+000	 7.3704285525e-001	 7.3386340041e-001
 3.5931586385e+000	 7.7125611733e-001	 6.8977889361e-001
 3.5856382717e+000	 8.0549561411e-001	 6.4808858913e-001
 3.5777694263e+000	 8.3975647182e-001	 6.0881200465e-001
 3.5695503909e+000	 8.7403375606e-001	 5.7183415134e-001
 3.5609795400e+000	 9.0832247337e-001	 5.3690134240e-001
 3.5520553362e+000	 9.4261757294e-001	 5.0361720613e-001
 3.5427763318e+000	 9.7691394838e-001	 4.7143892004e-001
 3.5331411713e+000	 1.0112064395e+000	 4.3967368209e-001
 3.6382298631e+000	 6.7326329392e-001	 7.9368678321e-001
 3.6316997114e+000	 7.0764200429e-001	 7.3897196761e-001
 3.6248243787e+000	 7.4205675223e-001	 6.8746687011e-001
 3.6176018945e+000	 7.7650275759e-001	 6.3951498532e-001
 3.6100303688e+000	 8.1097517611e-001	 5.9533180912e-001
 3.6021079939e+000	 8.4546910088e-001	 5.5500013598e-001
 3.5938330466e+000	 8.7997956393e-001	 5.1846553058e-001
 3.5852038906e+000	 9.1450153782e-001	 4.8553199015e-001
 3.5762189779e+000	 9.4902993738e-001	 4.5585781455e-001
 3.5668768511e+000	 9.8355962149e-001	 4.2895170064e-001
 3.5571761453e+000	 1.0180853949e+000	 4.0416907755e-001
 3.6628124973e+000	 6.7781237024e-001	 7.4715770817e-001
 3.6562382230e+000	 7.1242336919e-001	 6.8608390231e-001
 3.6493164353e+000	 7.4707064920e-001	 6.2951964617e-001
 3.6420451506e+000	 7.8174939785e-001	 5.7787727199e-001
 3.6344224659e+000	 8.1645473811e-001	 5.3143862063e-001
 3.6264465614e+000	 8.5118172995e-001	 4.9035018596e-001
 3.6181157023e+000	 8.8592537179e-001	 4.5461843558e-001
 3.6094282412e+000	 9.2068060226e-001	 4.2410532510e-001
 3.6003826196e+000	 9.5544230183e-001	 3.9852402301e-001
 3.5909773704e+000	 9.9020529461e-001	 3.7743486346e-001
 3.5812111192e+000	 1.0249643503e+000	 3.6024154360e-001
 3.6873951316e+000	 6.8236144655e-001	 6.8890948842e-001
 3.6807767345e+000	 7.1720473409e-001	 6.2150152869e-001
 3.6738084919e+000	 7.5208454618e-001	 5.5996271808e-001
 3.6664884066e+000	 7.8699603810e-001	 5.0477480532e-001
 3.6588145630e+000	 8.2193430012e-001	 4.5628648632e-001
 3.6507851289e+000	 8.5689435901e-001	 4.1470839327e-001
 3.6423983581e+000	 8.9187117966e-001	 3.8010826229e-001
 3.6336525918e+000	 9.2685966671e-001	 3.5240629742e-001
 3.6245462614e+000	 9.6185466627e-001	 3.3137074836e-001
 3.6150778896e+000	 9.9685096773e-001	 3.1661371949e-001
 3.6052460932e+000	 1.0318433056e+000	 3.0758722761e-001
 3.3648963537e+000	 9.6305375194e-001	 4.7720535819e-001
 3.3553796121e+000	 9.9570460419e-001	 5.0828963545e-001
 3.3455213614e+000	 1.0283417820e+000	 5.2561569888e-001
 3.3353205834e+000	 1.0609602284e+000	 5.2739140806e-001
 3.3247763542e+000	 1.0935548431e+000	 5.1168328952e-001
 3.3138878460e+000	 1.1261204840e+000	 4.7641546620e-001
 3.3026543284e+000	 1.1586519699e+000	 4.1936888553e-001
 3.2910751701e+000	 1.1911440823e+000	 3.3818085719e-001
 3.2791498404e+000	 1.2235915677e+000	 2.3034491057e-001
 3.2668779101e+000	 1.2559891402e+000	 1.0043929826e-001
 3.2542590537e+000	 1.2883314835e+000	-2.5298892179e-002
 3.3889313276e+000	 9.6993270731e-001	 4.9242914985e-001
 3.3793466093e+000	 1.0028167799e+000	 5.1831142444e-001
 3.3694179425e+000	 1.0356870804e+000	 5.3209277306e-001
 3.3591443018e+000	 1.0685385158e+000	 5.3200497311e-001
 3.3485247567e+000	 1.1013659491e+000	 5.1613478975e-001
 3.3375584734e+000	 1.1341642017e+000	 4.8242281155e-001
 3.3262447164e+000	 1.1669280554e+000	 4.2866259088e-001
 3.3145828499e+000	 1.1996522543e+000	 3.5250010016e-001
 3.3025723392e+000	 1.2323315075e+000	 2.5143351466e-001
 3.2902127523e+000	 1.2649604912e+000	 1.3426593528e-001
 3.2775037612e+000	 1.2975338512e+000	 4.6509867936e-003
 3.4129663016e+000	 9.7681166268e-001	 5.0126342384e-001
 3.4033136065e+000	 1.0099289557e+000	 5.2243188096e-001
 3.3933145237e+000	 1.0430323789e+000	 5.3320991446e-001
 3.3829680203e+000	 1.0761168031e+000	 5.3185303973e-001
 3.3722731592e+000	 1.1091770551e+000	 5.1646800113e-001
 3.3612291009e+000	 1.1422079195e+000	 4.8501151262e-001
 3.3498351045e+000	 1.1752041409e+000	 4.3528930929e-001
 3.3380905297e+000	 1.2081604263e+000	 3.6495552131e-001
 3.3259948381e+000	 1.2410714472e+000	 2.7151238102e-001
 3.3135475946e+000	 1.2739318422e+000	 1.6081343201e-001
 3.3007484688e+000	 1.3067362190e+000	 2.8647996783e-002
 3.4370012755e+000	 9.8369061805e-001	 5.0342855165e-001
 3.4272806038e+000	 1.0170411314e+000	 5.2034625356e-001
 3.4172111048e+000	 1.0503776773e+000	 5.2863780465e-001
 3.4067917387e+000	 1.0836950905e+000	 5.2658229094e-001
 3.3960215617e+000	 1.1169881611e+000	 5.1230618851e-001
 3.3848997284e+000	 1.1502516372e+000	 4.8378200786e-001
 3.3734254925e+000	 1.1834802264e+000	 4.3882725549e-001
 3.3615982095e+000	 1.2166685983e+000	 3.7510372446e-001
 3.3494173369e+000	 1.2498113870e+000	 2.9011712515e-001
 3.3368824368e+000	 1.2829031932e+000	 1.8043581594e-001
 3.3239931763e+000	 1.3159385867e+000	 4.7038645021e-002
 3.4610362495e+000	 9.9056957342e-001	 4.9864107376e-001
 3.4512476010e+000	 1.0241533072e+000	 5.1174648660e-001
 3.4411076860e+000	 1.0577229757e+000	 5.1804434886e-001
 3.4306154572e+000	 1.0912733778e+000	 5.1583716212e-001
 3.4197699643e+000	 1.1247992672e+000	 5.0327089838e-001
 3.4085703558e+000	 1.1582953550e+000	 4.7833354700e-001
 3.3970158806e+000	 1.1917563119e+000	 4.3885398515e-001
 3.3851058893e+000	 1.2251767703e+000	 3.8250118403e-001
 3.3728398358e+000	 1.2585513268e+000	 3.0361134331e-001
 3.3602172790e+000	 1.2918745442e+000	 1.9348804306e-001
 3.3472378838e+000	 1.3251409544e+000	 6.0170895076e-002
 3.4850712234e+000	 9.9744852879e-001	 4.8661383175e-001
 3.4752145982e+000	 1.0312654829e+000	 4.9632133423e-001
 3.4650042671e+000	 1.0650682742e+000	 5.0109477181e-001
 3.4544391756e+000	 1.0988516651e+000	 4.9925991854e-001
 3.4435183668e+000	 1.1326103732e+000	 4.8898201811e-001
 3.4322409833e+000	 1.1663390727e+000	 4.6826423198e-001
 3.4206062687e+000	 1.2000323974e+000	 4.3494641765e-001
 3.4086135690e+000	 1.2336849423e+000	 3.8670424947e-001
 3.3962623346e+000	 1.2672912665e+000	 3.0957791598e-001
 3.3835521212e+000	 1.3008458952e+000	 2.0032596583e-001
 3.3704825914e+000	 1.3343433222e+000	 6.8394116633e-002
 3.5091061974e+000	 1.0043274842e+000	 4.6705609499e-001
 3.4991815955e+000	 1.0383776586e+000	 4.7375646961e-001
 3.4889008483e+000	 1.0724135726e+000	 4.7745170940e-001
 3.4782628941e+000	 1.1064299525e+000	 4.7649072967e-001
 3.4672667693e+000	 1.1404214792e+000	 4.6905783277e-001
 3.4559116108e+000	 1.1743827904e+000	 4.5317105629e-001
 3.4441966567e+000	 1.2083084829e+000	 4.2668085785e-001
 3.4321212488e+000	 1.2421931143e+000	 3.8726914957e-001
 3.4196848335e+000	 1.2760312063e+000	 3.0838842588e-001
 3.4068869634e+000	 1.3098172462e+000	 2.0130630251e-001
 3.3937272989e+000	 1.3435456899e+000	 7.2059037340e-002
 3.5331411713e+000	 1.0112064395e+000	 4.3967368209e-001
 3.5231485927e+000	 1.0454898344e+000	 4.4373458972e-001
 3.5127974294e+000	 1.0797588711e+000	 4.4677529687e-001
 3.5020866125e+000	 1.1140082398e+000	 4.4716774046e-001
 3.4910151719e+000	 1.1482325852e+000	 4.4311507966e-001
 3.4795822382e+000	 1.1824265082e+000	 4.3264994266e-001
 3.4677870448e+000	 1.2165845684e+000	 4.1363301700e-001
 3.4556289286e+000	 1.2507012864e+000	 3.8300939557e-001
 3.4431073324e+000	 1.2847711461e+000	 3.0040593493e-001
 3.4302218056e+000	 1.3187885972e+000	 1.9678660770e-001
 3.4169720064e+000	 1.3527480577e+000	 7.1517696617e-002
 3.5571761453e+000	 1.0180853949e+000	 4.0416907755e-001
 3.5471155899e+000	 1.0526020101e+000	 4.0593551592e-001
 3.5366940106e+000	 1.0871041695e+000	 4.0872325320e-001
 3.5259103310e+000	 1.1215865272e+000	 4.1092713977e-001
 3.5147635744e+000	 1.1560436912e+000	 4.1076900055e-001
 3.5032528657e+000	 1.1904702259e+000	 4.0629577924e-001
 3.4913774329e+000	 1.2248606539e+000	 3.9537803279e-001
 3.4791366084e+000	 1.2592094584e+000	 3.6436515357e-001
 3.4665298312e+000	 1.2935110859e+000	 2.8599385305e-001
 3.4535566479e+000	 1.3277599482e+000	 1.8712524407e-001
 3.4402167139e+000	 1.3619504254e+000	 6.7123401343e-002
 3.5812111192e+000	 1.0249643503e+000	 3.6024154360e-001
 3.5710825871e+000	 1.0597141859e+000	 3.6003629040e-001
 3.5605905918e+000	 1.0944494679e+000	 3.6295096225e-001
 3.5497340494e+000	 1.1291648145e+000	 3.6740322595e-001
 3.5385119769e+000	 1.1638547973e+000	 3.7163339191e-001
 3.5269234932e+000	 1.1985139437e+000	 3.7370245431e-001
 3.5149678209e+000	 1.2331367394e+000	 3.7149048859e-001
 3.5026442882e+000	 1.2677176304e+000	 3.3837385507e-001
 3.4899523301e+000	 1.3022510256e+000	 2.6551592646e-001
 3.4768914901e+000	 1.3367312992e+000	 1.7268135524e-001
 3.4634614215e+000	 1.3711527931e+000	 5.9230683319e-002
 3.6052460932e+000	 1.0318433056e+000	 3.0758722761e-001
 3.5950495844e+000	 1.0668263616e+000	 3.0571126890e-001
 3.5844871729e+000	 1.1017947664e+000	 3.0911155055e-001
 3.5735577679e+000	 1.1367431019e+000	 3.1622846991e-001
 3.5622603795e+000	 1.1716659033e+000	 3.2532065306e-001
 3.5505941207e+000	 1.2065576614e+000	 3.3446288961e-001
 3.5385582090e+000	 1.2414128249e+000	 3.4154443194e-001
 3.5261519680e+000	 1.2762258024e+000	 3.0540373752e-001
 3.5133748290e+000	 1.3109909654e+000	 2.3933622647e-001
 3.5002263323e+000	 1.3457026502e+000	 1.5381483979e-001
 3.4867061290e+000	 1.3803551609e+000	 4.8195258443e-002
 3.2542590537e+000	 1.2883314835e+000	-2.5298892179e-002
 3.2412930498e+000	 1.3206132534e+000	-4.6491563577e-002
 3.2279797829e+000	 1.3528290804e+000	-6.2107596591e-002
 3.2143192443e+000	 1.3849735723e+000	-7.2556041392e-002
 3.2003115330e+000	 1.4170413162e+000	-7.8272390313e-002
 3.1859568571e+000	 1.4490268819e+000	-7.9716598951e-002
 3.1712555346e+000	 1.4809248240e+000	-7.7371026880e-002
 3.1562079939e+000	 1.5127296849e+000	-7.1738303100e-002
 3.1408147750e+000	 1.5444359972e+000	-6.3339121632e-002
 3.1250765300e+000	 1.5760382868e+000	-5.2709972999e-002
 3.1089940239e+000	 1.6075310757e+000	-9.1758147591e-002
 3.2775037612e+000	 1.2975338512e+000	 4.6509867936e-003
 3.2644451431e+000	 1.3300462052e+000	-1.7706113254e-002
 3.2510367814e+000	 1.3624921453e+000	-3.4468020881e-002
 3.2372786675e+000	 1.3948662406e+000	-4.6085389258e-002
 3.2231709011e+000	 1.4271630399e+000	-5.3035772917e-002
 3.2087136918e+000	 1.4593770739e+000	-5.5821568242e-002
 3.1939073598e+000	 1.4915028585e+000	-5.4967871577e-002
 3.1787523367e+000	 1.5235348969e+000	-5.1020260209e-002
 3.1632491662e+000	 1.5554676828e+000	-4.4542501847e-002
 3.1473985053e+000	 1.5872957031e+000	-3.6114198504e-002
 3.1312011241e+000	 1.6190134405e+000	-2.6328371022e-002
 3.3007484688e+000	 1.3067362190e+000	 2.8647996783e-002
 3.2875972363e+000	 1.3394791570e+000	 5.3893291895e-003
 3.2740937798e+000	 1.3721552102e+000	-1.2252586409e-002
 3.2602380906e+000	 1.4047589090e+000	-2.4770845701e-002
 3.2460302692e+000	 1.4372847636e+000	-3.2685913721e-002
 3.2314705265e+000	 1.4697272659e+000	-3.6543483372e-002
 3.2165591851e+000	 1.5020808929e+000	-3.6912249500e-002
 3.2012966795e+000	 1.5343401089e+000	-3.4381603990e-002
 3.1856835575e+000	 1.5664993685e+000	-2.9559257642e-002
 3.1697204805e+000	 1.5985531195e+000	-2.3068794967e-002
 3.1534082243e+000	 1.6304958054e+000	-1.5547168318e-002
 3.3239931763e+000	 1.3159385867e+000	 4.7038645021e-002
 3.3107493295e+000	 1.3489121088e+000	 2.3156043264e-002
 3.2971507783e+000	 1.3818182750e+000	 4.9146489027e-003
 3.2831975138e+000	 1.4146515774e+000	-8.2219283096e-003
 3.2688896373e+000	 1.4474064873e+000	-1.6817924792e-002
 3.2542273612e+000	 1.4800774579e+000	-2.1463198283e-002
 3.2392110103e+000	 1.5126589274e+000	-2.2770916471e-002
 3.2238410223e+000	 1.5451453210e+000	-2.1375164727e-002
 3.2081179487e+000	 1.5775310542e+000	-1.7928478909e-002
 3.1920424557e+000	 1.6098105358e+000	-1.3099309557e-002
 3.1756153244e+000	 1.6419781702e+000	-7.5694240883e-003
 3.3472378838e+000	 1.3251409544e+000	 6.0170895076e-002
 3.3339014227e+000	 1.3583450606e+000	 3.5956672154e-002
 3.3202077768e+000	 1.3914813399e+000	 1.7410899648e-002
 3.3061569370e+000	 1.4245442458e+000	 3.9530282229e-003
 3.2917490054e+000	 1.4575282109e+000	-5.0258233227e-003
 3.2769841959e+000	 1.4904276499e+000	-1.0160558426e-002
 3.2618628356e+000	 1.5232369618e+000	-1.2109704499e-002
 3.2463853651e+000	 1.5559505330e+000	-1.1552931833e-002
 3.2305523400e+000	 1.5885627399e+000	-9.1884958256e-003
 3.2143644309e+000	 1.6210679521e+000	-5.7306090422e-003
 3.1978224246e+000	 1.6534605350e+000	-1.9067499352e-003
 3.3704825914e+000	 1.3343433222e+000	 6.8394116633e-002
 3.3570535159e+000	 1.3677780124e+000	 4.4155175700e-002
 3.3432647752e+000	 1.4011444047e+000	 2.5614609053e-002
 3.3291163602e+000	 1.4344369141e+000	 1.2146831308e-002
 3.3146083735e+000	 1.4676499346e+000	 3.0974306121e-003
 3.2997410306e+000	 1.5007778420e+000	-2.2144355282e-003
 3.2845146608e+000	 1.5338149963e+000	-4.4935536356e-003
 3.2689297079e+000	 1.5667557450e+000	-4.4660828473e-003
 3.2529867312e+000	 1.5995944256e+000	-2.8769050482e-003
 3.2366864061e+000	 1.6323253685e+000	-4.8690325447e-004
 3.2200295248e+000	 1.6649428998e+000	 1.9298247117e-003
 3.3937272989e+000	 1.3435456899e+000	 7.2059037340e-002
 3.3802056091e+000	 1.3772109643e+000	 4.8116785303e-002
 3.3663217737e+000	 1.4108074696e+000	 2.9905406899e-002
 3.3520757833e+000	 1.4443295825e+000	 1.6753391350e-002
 3.3374677416e+000	 1.4777716583e+000	 7.9598978537e-003
 3.3224978653e+000	 1.5111280340e+000	 2.7972390547e-003
 3.3071664861e+000	 1.5443930308e+000	 5.1345747670e-004
 3.2914740508e+000	 1.5775609571e+000	 3.3498876113e-004
 3.2754211225e+000	 1.6106261113e+000	 1.4694051655e-003
 3.2590083813e+000	 1.6435827848e+000	 3.1082324148e-003
 3.2422366249e+000	 1.6764252647e+000	 4.4298326564e-003
 3.4169720064e+000	 1.3527480577e+000	 7.1517696617e-002
 3.4033577023e+000	 1.3866439161e+000	 4.8207960675e-002
 3.3893787721e+000	 1.4204705345e+000	 3.0664069166e-002
 3.3750352065e+000	 1.4542222509e+000	 1.8167684228e-002
 3.3603271097e+000	 1.4878933820e+000	 9.9706254339e-003
 3.3452547000e+000	 1.5214782260e+000	 5.2974423554e-003
 3.3298183113e+000	 1.5549710652e+000	 3.3480823057e-003
 3.3140183936e+000	 1.5883661691e+000	 3.3006469257e-003
 3.2978555137e+000	 1.6216577970e+000	 4.3142308624e-003
 3.2813303565e+000	 1.6548402011e+000	 5.5318354339e-003
 3.2644437251e+000	 1.6879076295e+000	 6.0833498135e-003
 3.4402167139e+000	 1.3619504254e+000	 6.7123401343e-002
 3.4265097956e+000	 1.3960768679e+000	 4.4796348345e-002
 3.4124357706e+000	 1.4301335993e+000	 2.8272479308e-002
 3.3979946297e+000	 1.4641149192e+000	 1.6785715301e-002
 3.3831864778e+000	 1.4980151057e+000	 9.5396132587e-003
 3.3680115347e+000	 1.5318284180e+000	 5.7100291054e-003
 3.3524701366e+000	 1.5655490997e+000	 4.4478783181e-003
 3.3365627364e+000	 1.5991713811e+000	 4.8819873931e-003
 3.3202899050e+000	 1.6326894827e+000	 6.1220292750e-003
 3.3036523318e+000	 1.6660976175e+000	 7.2615354266e-003
 3.2866508253e+000	 1.6993899943e+000	 7.3809768602e-003
 3.4634614215e+000	 1.3711527931e+000	 5.9230683319e-002
 3.4496618888e+000	 1.4055098197e+000	 3.8250741829e-002
 3.4354927690e+000	 1.4397966642e+000	 2.3113591090e-002
 3.4209540529e+000	 1.4740075876e+000	 1.3004484862e-002
 3.4060458459e+000	 1.5081368294e+000	 7.0777821318e-003
 3.3907683694e+000	 1.5421786100e+000	 4.4597022829e-003
 3.3751219618e+000	 1.5761271341e+000	 4.2511799992e-003
 3.3591070792e+000	 1.6099765932e+000	 5.5308131666e-003
 3.3427242962e+000	 1.6437211684e+000	 7.3578966343e-003
 3.3259743070e+000	 1.6773550338e+000	 8.7755343012e-003
 3.3088579254e+000	 1.7108723591e+000	 8.8138216259e-003
 3.4867061290e+000	 1.3803551609e+000	 4.8195258443e-002
 3.4728139820e+000	 1.4149427715e+000	 2.8941043399e-002
 3.4585497675e+000	 1.4494597290e+000	 1.5571392912e-002
 3.4439134760e+000	 1.4839002560e+000	 7.2219549735e-003
 3.4289052139e+000	 1.5182585531e+000	 2.9969430583e-003
 3.4135252041e+000	 1.5525288020e+000	 1.9719848368e-003
 3.3977737871e+000	 1.5867051686e+000	 3.1970729524e-003
 3.3816514220e+000	 1.6207818052e+000	 5.6996109301e-003
 3.3651586875e+000	 1.6547528541e+000	 8.4875468697e-003
 3.3482962822e+000	 1.6886124501e+000	 1.0552587174e-002
 3.3310650256e+000	 1.7223547240e+000	 1.0873482188e-002
 3.1089940239e+000	 1.6075310757e+000	-9.1758147591e-002
 3.0925681348e+000	 1.6389088846e+000	-1.4279143923e-001
 3.0757998544e+000	 1.6701662359e+000	-1.8923052897e-001
 3.0586902889e+000	 1.7012976567e+000	-2.3130849468e-001
 3.0412406585e+000	 1.7322976814e+000	-2.6932436822e-001
 3.0234522981e+000	 1.7631608551e+000	-3.0364384822e-001
 3.0053266573e+000	 1.7938817362e+000	-3.3469984910e-001
 2.9868653000e+000	 1.8244548993e+000	-3.6299288196e-001
 2.9680699052e+000	 1.8548749386e+000	-3.8909126341e-001
 2.9489422659e+000	 1.8851364706e+000	-4.0820475503e-001
 2.9294842893e+000	 1.9152341368e+000	-4.0624658208e-001
 3.1312011241e+000	 1.6190134405e+000	-2.6328371022e-002
 3.1146579071e+000	 1.6506153766e+000	-6.7724187269e-002
 3.0977698534e+000	 1.6820959948e+000	-1.2425053749e-001
 3.0805380767e+000	 1.7134497828e+000	-1.7640426029e-001
 3.0629638061e+000	 1.7446712363e+000	-2.2449394745e-001
 3.0450483860e+000	 1.7757548612e+000	-2.6889634824e-001
 3.0267932762e+000	 1.8066951771e+000	-3.1005692706e-001
 3.0082000522e+000	 1.8374867200e+000	-3.4849024941e-001
 2.9892704045e+000	 1.8681240453e+000	-3.8478019172e-001
 2.9700061392e+000	 1.8986017311e+000	-4.0043737623e-001
 2.9504091771e+000	 1.9289143807e+000	-3.9762071014e-001
 3.1534082243e+000	 1.6304958054e+000	-1.5547168318e-002
 3.1367476795e+000	 1.6623218687e+000	-3.0166545010e-002
 3.1197398523e+000	 1.6940257536e+000	-6.5345785345e-002
 3.1023858645e+000	 1.7256019089e+000	-1.2813601642e-001
 3.0846869536e+000	 1.7570447912e+000	-1.8682162936e-001
 3.0666444738e+000	 1.7883488673e+000	-2.4179015515e-001
 3.0482598952e+000	 1.8195086181e+000	-2.9349938795e-001
 3.0295348043e+000	 1.8505185407e+000	-3.4247777651e-001
 3.0104709038e+000	 1.8813731520e+000	-3.8366599234e-001
 2.9910700125e+000	 1.9120669916e+000	-3.9370272976e-001
 2.9713340648e+000	 1.9425946245e+000	-3.8986878011e-001
 3.1756153244e+000	 1.6419781702e+000	-7.5694240883e-003
 3.1588374519e+000	 1.6740283607e+000	-2.4091394604e-002
 3.1417098513e+000	 1.7059555124e+000	-4.9911182685e-002
 3.1242336522e+000	 1.7377540350e+000	-8.7080378928e-002
 3.1064101012e+000	 1.7694183460e+000	-1.5688413867e-001
 3.0882405617e+000	 1.8009428734e+000	-2.2290194936e-001
 3.0697265142e+000	 1.8323220591e+000	-2.8560371510e-001
 3.0508695565e+000	 1.8635503614e+000	-3.4553159774e-001
 3.0316714032e+000	 1.8946222587e+000	-3.7951605549e-001
 3.0121338859e+000	 1.9255322521e+000	-3.8778787973e-001
 2.9922589526e+000	 1.9562748683e+000	-3.8277095817e-001
 3.1978224246e+000	 1.6534605350e+000	-1.9067499352e-003
 3.1809272243e+000	 1.6857348527e+000	-2.0116760528e-002
 3.1636798503e+000	 1.7178852712e+000	-4.8515129895e-002
 3.1460814400e+000	 1.7499061612e+000	-8.7851530087e-002
 3.1281332488e+000	 1.7817919009e+000	-1.3886774928e-001
 3.1098366495e+000	 1.8135368796e+000	-2.1280832671e-001
 3.0911931332e+000	 1.8451355001e+000	-2.8694639275e-001
 3.0722043086e+000	 1.8765821821e+000	-3.5608397569e-001
 3.0528719025e+000	 1.9078713654e+000	-3.7613574493e-001
 3.0331977592e+000	 1.9389975126e+000	-3.8248010971e-001
 3.0131838404e+000	 1.9699551122e+000	-3.7610769006e-001
 3.2200295248e+000	 1.6649428998e+000	 1.9298247117e-003
 3.2030169967e+000	 1.6974413448e+000	-1.7739345612e-002
 3.1856498492e+000	 1.7298150301e+000	-4.8487416372e-002
 3.1679292278e+000	 1.7620582873e+000	-9.1114314133e-002
 3.1498563963e+000	 1.7941654558e+000	-1.4641119254e-001
 3.1314327373e+000	 1.8261308857e+000	-2.1515733569e-001
 3.1126597521e+000	 1.8579489410e+000	-2.9810390602e-001
 3.0935390607e+000	 1.8896140028e+000	-3.5588899376e-001
 3.0740724018e+000	 1.9211204721e+000	-3.7331960295e-001
 3.0542616325e+000	 1.9524627731e+000	-3.7756691516e-001
 3.0341087282e+000	 1.9836353560e+000	-3.6965969147e-001
 3.2422366249e+000	 1.6764252647e+000	 4.4298326564e-003
 3.2251067691e+000	 1.7091478368e+000	-1.6455398261e-002
 3.2076198482e+000	 1.7417447889e+000	-4.9310430502e-002
 3.1897770156e+000	 1.7742104134e+000	-9.4986301253e-002
 3.1715795439e+000	 1.8065390106e+000	-1.5432438265e-001
 3.1530288252e+000	 1.8387248918e+000	-2.2815317628e-001
 3.1341263711e+000	 1.8707623820e+000	-3.1728510457e-001
 3.1148738129e+000	 1.9026458236e+000	-3.5621946741e-001
 3.0952729011e+000	 1.9343695788e+000	-3.7086231447e-001
 3.0753255058e+000	 1.9659280336e+000	-3.7283599619e-001
 3.0550336159e+000	 1.9973155998e+000	-3.6320793876e-001
 3.2644437251e+000	 1.6879076295e+000	 6.0833498135e-003
 3.2471965415e+000	 1.7208543288e+000	-1.5760727903e-002
 3.2295898471e+000	 1.7536745477e+000	-5.0466220528e-002
 3.2116248033e+000	 1.7863625395e+000	-9.8936145101e-002
 3.1933026914e+000	 1.8189125655e+000	-1.6206295820e-001
 3.1746249130e+000	 1.8513188979e+000	-2.4072523997e-001
 3.1555929901e+000	 1.8835758230e+000	-3.1587512379e-001
 3.1362085650e+000	 1.9156776443e+000	-3.4576799849e-001
 3.1164734004e+000	 1.9476186855e+000	-3.6855870216e-001
 3.0963893791e+000	 1.9793932941e+000	-3.6807525060e-001
 3.0759585037e+000	 2.0109958437e+000	-3.5653366011e-001
 3.2866508253e+000	 1.6993899943e+000	 7.3809768602e-003
 3.2692863139e+000	 1.7325608209e+000	-1.5150719823e-002
 3.2515598461e+000	 1.7656043065e+000	-5.1436506047e-002
 3.2334725911e+000	 1.7985146656e+000	-1.0243226099e-001
 3.2150258390e+000	 1.8312861203e+000	-1.6908240446e-001
 3.1962210009e+000	 1.8639129040e+000	-2.5231646890e-001
 3.1770596091e+000	 1.8963892639e+000	-2.9567364410e-001
 3.1575433171e+000	 1.9287094650e+000	-3.1757797050e-001
 3.1376738998e+000	 1.9608677923e+000	-3.4530851624e-001
 3.1174532525e+000	 1.9928585546e+000	-3.6307276718e-001
 3.0968833915e+000	 2.0246760875e+000	-3.4941832701e-001
 3.3088579254e+000	 1.7108723591e+000	 8.8138216259e-003
 3.2913760863e+000	 1.7442673129e+000	-1.4120349399e-002
 3.2735298451e+000	 1.7775340654e+000	-5.1702689036e-002
 3.2553203789e+000	 1.8106667917e+000	-1.0494283386e-001
 3.2367489865e+000	 1.8436596752e+000	-1.7483805856e-001
 3.2178170887e+000	 1.8765069101e+000	-2.5809817978e-001
 3.1985262280e+000	 1.9092027049e+000	-2.6530023944e-001
 3.1788780693e+000	 1.9417412857e+000	-2.7957476976e-001
 3.1588743991e+000	 1.9741168990e+000	-3.0045051980e-001
 3.1385171258e+000	 2.0063238151e+000	-3.2745161720e-001
 3.1178082793e+000	 2.0383563313e+000	-3.4164364611e-001
 3.3310650256e+000	 1.7223547240e+000	 1.0873482188e-002
 3.3134658586e+000	 1.7559738049e+000	-1.2164195760e-002
 3.2954998440e+000	 1.7894638242e+000	-5.0745864436e-002
 3.2771681667e+000	 1.8228189179e+000	-1.0593582602e-001
 3.2584721341e+000	 1.8560332301e+000	-1.7878511439e-001
 3.2394131765e+000	 1.8891009162e+000	-2.2601714207e-001
 3.2199928470e+000	 1.9220161459e+000	-2.2517420565e-001
 3.2002128214e+000	 1.9547731064e+000	-2.3218249289e-001
 3.1800748984e+000	 1.9873660057e+000	-2.4655035313e-001
 3.1595809991e+000	 2.0197890756e+000	-2.6778114955e-001
 3.1387331671e+000	 2.0520365752e+000	-2.9537554022e-001
 2.9294842893e+000	 1.9152341368e+000	-4.0624658208e-001
 2.9096979964e+000	 1.9451626075e+000	-4.5926624863e-001
 2.8895855216e+000	 1.9749165840e+000	-5.0522417997e-001
 2.8691491118e+000	 2.0044908018e+000	-5.4501465698e-001
 2.8483911262e+000	 2.0338800339e+000	-5.7953945193e-001
 2.8273140354e+000	 2.0630790933e+000	-6.0970576599e-001
 2.8059204205e+000	 2.0920828363e+000	-6.3642415101e-001
 2.7842129721e+000	 2.1208861652e+000	-6.6060642067e-001
 2.7621944897e+000	 2.1494840313e+000	-6.8316355655e-001
 2.7398678801e+000	 2.1778714378e+000	-7.0500361463e-001
 2.7172361565e+000	 2.2060434424e+000	-7.2702963764e-001
 2.9504091771e+000	 1.9289143807e+000	-3.9762071014e-001
 2.9304815535e+000	 1.9590566262e+000	-4.5012829104e-001
 2.9102254181e+000	 1.9890231310e+000	-4.9586633960e-001
 2.8896430340e+000	 2.0188085932e+000	-5.3575557497e-001
 2.8687367771e+000	 2.0484077484e+000	-5.7072386190e-001
 2.8475091357e+000	 2.0778153725e+000	-6.0170409324e-001
 2.8259627092e+000	 2.1070262851e+000	-6.2963205694e-001
 2.8041002076e+000	 2.1360353521e+000	-6.5544429300e-001
 2.7819244504e+000	 2.1648374887e+000	-6.8007594577e-001
 2.7594383650e+000	 2.1934276623e+000	-7.0445861751e-001
 2.7366449862e+000	 2.2218008955e+000	-7.2951822855e-001
 2.9713340648e+000	 1.9425946245e+000	-3.8986878011e-001
 2.9512651106e+000	 1.9729506448e+000	-4.4153320171e-001
 2.9308653147e+000	 2.0031296780e+000	-4.8671594121e-001
 2.9101369562e+000	 2.0331263847e+000	-5.2636476152e-001
 2.8890824280e+000	 2.0629354629e+000	-5.6143422786e-001
 2.8677042359e+000	 2.0925516518e+000	-5.9288353430e-001
 2.8460049979e+000	 2.1219697340e+000	-6.2167431508e-001
 2.8239874432e+000	 2.1511845390e+000	-6.4876844619e-001
 2.8016544110e+000	 2.1801909460e+000	-6.7512584316e-001
 2.7790088499e+000	 2.2089838869e+000	-7.0170226049e-001
 2.7560538159e+000	 2.2375583487e+000	-7.2944709883e-001
 2.9922589526e+000	 1.9562748683e+000	-3.8277095817e-001
 2.9720486678e+000	 1.9868446634e+000	-4.3325793989e-001
 2.9515052113e+000	 2.0172362251e+000	-4.7754692308e-001
 2.9306308784e+000	 2.0474441761e+000	-5.1661332512e-001
 2.9094280789e+000	 2.0774631775e+000	-5.5143902482e-001
 2.8878993362e+000	 2.1072879310e+000	-5.8301013206e-001
 2.8660472866e+000	 2.1369131828e+000	-6.1231474231e-001
 2.8438746787e+000	 2.1663337259e+000	-6.4034068207e-001
 2.8213843716e+000	 2.1955444034e+000	-6.6807325093e-001
 2.7985793347e+000	 2.2245401114e+000	-6.9649296609e-001
 2.7754626456e+000	 2.2533158019e+000	-7.2657331542e-001
 3.0131838404e+000	 1.9699551122e+000	-3.7610769006e-001
 2.9928322249e+000	 2.0007386820e+000	-4.2507970350e-001
 2.9721451079e+000	 2.0313427721e+000	-4.6813341773e-001
 2.9511248007e+000	 2.0617619676e+000	-5.0627252060e-001
 2.9297737298e+000	 2.0919908920e+000	-5.4050682280e-001
 2.9080944364e+000	 2.1220242103e+000	-5.7184996953e-001
 2.8860895753e+000	 2.1518566316e+000	-6.0131713741e-001
 2.8637619142e+000	 2.1814829128e+000	-6.2992272265e-001
 2.8411143323e+000	 2.2108978608e+000	-6.5867802641e-001
 2.8181498196e+000	 2.2400963360e+000	-6.8858894346e-001
 2.7948714753e+000	 2.2690732550e+000	-7.2065366009e-001
 3.0341087282e+000	 1.9836353560e+000	-3.6965969147e-001
 3.0136157820e+000	 2.0146327007e+000	-4.1677592086e-001
 2.9927850045e+000	 2.0454493191e+000	-4.5824974523e-001
 2.9716187229e+000	 2.0760797590e+000	-4.9511374411e-001
 2.9501193807e+000	 2.1065186065e+000	-5.2840628349e-001
 2.9282895367e+000	 2.1367604895e+000	-5.5916916849e-001
 2.9061318640e+000	 2.1668000805e+000	-5.8844528166e-001
 2.8836491497e+000	 2.1966320997e+000	-6.1727621286e-001
 2.8608442929e+000	 2.2262513181e+000	-6.4669988701e-001
 2.8377203044e+000	 2.2556525605e+000	-6.7774819574e-001
 2.8142803050e+000	 2.2848307082e+000	-7.1144463929e-001
 3.0550336159e+000	 1.9973155998e+000	-3.6320793876e-001
 3.0343993391e+000	 2.0285267193e+000	-4.0812424284e-001
 3.0134249010e+000	 2.0595558661e+000	-4.4767040677e-001
 2.9921126451e+000	 2.0903975504e+000	-4.8290852826e-001
 2.9704650316e+000	 2.1210463210e+000	-5.1490615715e-001
 2.9484846369e+000	 2.1514967687e+000	-5.4473388815e-001
 2.9261741528e+000	 2.1817435293e+000	-5.7346293943e-001
 2.9035363852e+000	 2.2117812866e+000	-6.0216272325e-001
 2.8805742536e+000	 2.2416047755e+000	-6.3189841504e-001
 2.8572907893e+000	 2.2712087851e+000	-6.6372852713e-001
 2.8336891347e+000	 2.3005881613e+000	-6.9870249352e-001
 3.0759585037e+000	 2.0109958437e+000	-3.5653366011e-001
 3.0551828962e+000	 2.0424207379e+000	-3.9890253528e-001
 3.0340647976e+000	 2.0736624132e+000	-4.3617007850e-001
 3.0126065673e+000	 2.1047153419e+000	-4.6942853746e-001
 2.9908106825e+000	 2.1355740356e+000	-4.9977527960e-001
 2.9686797371e+000	 2.1662330480e+000	-5.2831032391e-001
 2.9462164415e+000	 2.1966869781e+000	-5.5613385878e-001
 2.9234236207e+000	 2.2269304735e+000	-5.8434375243e-001
 2.9003042142e+000	 2.2569582329e+000	-6.1403306227e-001
 2.8768612741e+000	 2.2867650096e+000	-6.4628754961e-001
 2.8530979643e+000	 2.3163456145e+000	-6.8218320645e-001
 3.0968833915e+000	 2.0246760875e+000	-3.4941832701e-001
 3.0759664533e+000	 2.0563147565e+000	-3.8888887172e-001
 3.0547046942e+000	 2.0877689602e+000	-4.2352360564e-001
 3.0331004896e+000	 2.1190331333e+000	-4.5444556350e-001
 3.0111563334e+000	 2.1501017501e+000	-4.8278256931e-001
 2.9888748374e+000	 2.1809693272e+000	-5.0966470607e-001
 2.9662587302e+000	 2.2116304270e+000	-5.3622177199e-001
 2.9433108562e+000	 2.2420796604e+000	-5.6358072960e-001
 2.9200341748e+000	 2.2723116903e+000	-5.9286315437e-001
 2.8964317590e+000	 2.3023212342e+000	-6.2518268952e-001
 2.8725067940e+000	 2.3321030677e+000	-6.6164251354e-001
 3.1178082793e+000	 2.0383563313e+000	-3.4164364611e-001
 3.0967500104e+000	 2.0702087752e+000	-3.7786152643e-001
 3.0753445908e+000	 2.1018755072e+000	-4.0950599676e-001
 3.0535944118e+000	 2.1333509248e+000	-4.3773152128e-001
 3.0315019843e+000	 2.1646294646e+000	-4.6369702464e-001
 3.0090699376e+000	 2.1957056065e+000	-4.8856329872e-001
 2.9863010189e+000	 2.2265738758e+000	-5.1349039609e-001
 2.9631980917e+000	 2.2572288473e+000	-5.3963501678e-001
 2.9397641355e+000	 2.2876651476e+000	-5.6814789516e-001
 2.9160022438e+000	 2.3178774588e+000	-6.0017119370e-001
 2.8919156237e+000	 2.3478605208e+000	-6.3683591039e-001
 3.1387331671e+000	 2.0520365752e+000	-2.9537554022e-001
 3.1175335675e+000	 2.0841027938e+000	-3.6559896773e-001
 3.0959844873e+000	 2.1159820543e+000	-3.9389241839e-001
 3.0740883340e+000	 2.1476687162e+000	-4.1905844465e-001
 3.0518476352e+000	 2.1791571792e+000	-4.4228772115e-001
 3.0292650379e+000	 2.2104418857e+000	-4.6477239859e-001
 3.0063433076e+000	 2.2415173246e+000	-4.8770343339e-001
 2.9830853273e+000	 2.2723780342e+000	-5.1226791113e-001
 2.9594940961e+000	 2.3030186050e+000	-5.3964637060e-001
 2.9355727287e+000	 2.3334336833e+000	-5.7101013551e-001
 2.9113244534e+000	 2.3636179740e+000	-6.0751866073e-001
 2.7172361565e+000	 2.2060434424e+000	-7.2702963764e-001
 2.6943024371e+000	 2.2339951605e+000	-7.2587764587e-001
 2.6710699438e+000	 2.2617217679e+000	-7.2466206602e-001
 2.6475420007e+000	 2.2892185031e+000	-7.2435976515e-001
 2.6237220324e+000	 2.3164806705e+000	-7.2593684750e-001
 2.5996135628e+000	 2.3435036429e+000	-7.3034657648e-001
 2.5752202129e+000	 2.3702828639e+000	-7.3852733153e-001
 2.5505456993e+000	 2.3968138509e+000	-7.5140060505e-001
 2.5255938321e+000	 2.4230921970e+000	-7.6986904472e-001
 2.5003685132e+000	 2.4491135740e+000	-7.9481454622e-001
 2.4748737342e+000	 2.4748737342e+000	-7.7750296450e-001
 2.7366449862e+000	 2.2218008955e+000	-7.2951822855e-001
 2.7135474545e+000	 2.2499522688e+000	-7.3312962325e-001
 2.6901490148e+000	 2.2778769234e+000	-7.3539243828e-001
 2.6664530150e+000	 2.3055700638e+000	-7.3730028086e-001
 2.6424629041e+000	 2.3330269610e+000	-7.3983689264e-001
 2.6181822311e+000	 2.3602429546e+000	-7.4397403302e-001
 2.5936146430e+000	 2.3872134558e+000	-7.5066939647e-001
 2.5687638828e+000	 2.4139339499e+000	-7.6086456951e-001
 2.5436337880e+000	 2.4403999984e+000	-7.7548303242e-001
 2.5182282883e+000	 2.4666072423e+000	-7.9542821094e-001
 2.4925514037e+000	 2.4925514037e+000	-8.0510540411e-001
 2.7560538159e+000	 2.2375583487e+000	-7.2944709883e-001
 2.7327924719e+000	 2.2659093771e+000	-7.3740187262e-001
 2.7092280859e+000	 2.2940320788e+000	-7.4275036712e-001
 2.6853640292e+000	 2.3219216245e+000	-7.4650357426e-001
 2.6612037757e+000	 2.3495732515e+000	-7.4966349413e-001
 2.6367508994e+000	 2.3769822663e+000	-7.5322097854e-001
 2.6120090731e+000	 2.4041440477e+000	-7.5815360802e-001
 2.5869820664e+000	 2.4310540488e+000	-7.6542360776e-001
 2.5616737440e+000	 2.4577077999e+000	-7.7597580789e-001
 2.5360880634e+000	 2.4841009107e+000	-7.9073565332e-001
 2.5102290732e+000	 2.5102290732e+000	-8.1716936725e-001
 2.7754626456e+000	 2.2533158019e+000	-7.2657331542e-001
 2.7520374893e+000	 2.2818664854e+000	-7.3845185986e-001
 2.7283071569e+000	 2.3101872343e+000	-7.4649341257e-001
 2.7042750435e+000	 2.3382731853e+000	-7.5172699722e-001
 2.6799446474e+000	 2.3661195420e+000	-7.5517349601e-001
 2.6553195677e+000	 2.3937215781e+000	-7.5784345246e-001
 2.6304035032e+000	 2.4210746396e+000	-7.6073490708e-001
 2.6052002500e+000	 2.4481741477e+000	-7.6483127137e-001
 2.5797136999e+000	 2.4750156013e+000	-7.7109924577e-001
 2.5539478385e+000	 2.5015945791e+000	-7.8184829728e-001
 2.5279067427e+000	 2.5279067427e+000	-8.1315550142e-001
 2.7948714753e+000	 2.2690732550e+000	-7.2065366009e-001
 2.7712825068e+000	 2.2978235937e+000	-7.3603664815e-001
 2.7473862279e+000	 2.3263423898e+000	-7.4637862603e-001
 2.7231860578e+000	 2.3546247460e+000	-7.5272729879e-001
 2.6986855190e+000	 2.3826658325e+000	-7.5612305710e-001
 2.6738882360e+000	 2.4104608898e+000	-7.5759673832e-001
 2.6487979333e+000	 2.4380052315e+000	-7.5816741986e-001
 2.6234184335e+000	 2.4652942467e+000	-7.5884025029e-001
 2.5977536559e+000	 2.4923234027e+000	-7.6060432406e-001
 2.5718076136e+000	 2.5190882475e+000	-7.8177608891e-001
 2.5455844123e+000	 2.5455844123e+000	-8.0513863466e-001
 2.8142803050e+000	 2.2848307082e+000	-7.1144463929e-001
 2.7905275242e+000	 2.3137807020e+000	-7.2991291184e-001
 2.7664652989e+000	 2.3424975453e+000	-7.4216256785e-001
 2.7420970721e+000	 2.3709763067e+000	-7.4926064600e-001
 2.7174263907e+000	 2.3992121230e+000	-7.5226767455e-001
 2.6924569043e+000	 2.4272002015e+000	-7.5223538979e-001
 2.6671923634e+000	 2.4549358234e+000	-7.5020448595e-001
 2.6416366171e+000	 2.4824143456e+000	-7.4720240259e-001
 2.6157936118e+000	 2.5096312041e+000	-7.5504715785e-001
 2.5896673887e+000	 2.5365819159e+000	-7.7778469940e-001
 2.5632620818e+000	 2.5632620818e+000	-7.9318433768e-001
 2.8336891347e+000	 2.3005881613e+000	-6.9870249352e-001
 2.8097725416e+000	 2.3297378103e+000	-7.1983694981e-001
 2.7855443700e+000	 2.3586527008e+000	-7.3360132415e-001
 2.7610080864e+000	 2.3873278675e+000	-7.4108264379e-001
 2.7361672624e+000	 2.4157584135e+000	-7.4336220660e-001
 2.7110255726e+000	 2.4439395133e+000	-7.4151325574e-001
 2.6855867935e+000	 2.4718664152e+000	-7.3659868531e-001
 2.6598548007e+000	 2.4995344445e+000	-7.2966878292e-001
 2.6338335677e+000	 2.5269390055e+000	-7.5380889891e-001
 2.6075271638e+000	 2.5540755843e+000	-7.6993774861e-001
 2.5809397513e+000	 2.5809397513e+000	-7.7735731334e-001
 2.8530979643e+000	 2.3163456145e+000	-6.8218320645e-001
 2.8290175590e+000	 2.3456949186e+000	-7.0556469820e-001
 2.8046234410e+000	 2.3748078563e+000	-7.2045052292e-001
 2.7799191007e+000	 2.4036794282e+000	-7.2794835414e-001
 2.7549081340e+000	 2.4323047040e+000	-7.2916089420e-001
 2.7295942409e+000	 2.4606788250e+000	-7.2518350414e-001
 2.7039812235e+000	 2.4887970071e+000	-7.1710186403e-001
 2.6780729842e+000	 2.5166545435e+000	-7.2934761945e-001
 2.6518735237e+000	 2.5442468069e+000	-7.4881166264e-001
 2.6253869389e+000	 2.5715692527e+000	-7.5829802802e-001
 2.5986174209e+000	 2.5986174209e+000	-7.5772142611e-001
 2.8725067940e+000	 2.3321030677e+000	-6.6164251354e-001
 2.8482625764e+000	 2.3616520268e+000	-6.8685174266e-001
 2.8237025120e+000	 2.3909630117e+000	-7.0246534952e-001
 2.7988301150e+000	 2.4200309889e+000	-7.0961231442e-001
 2.7736490057e+000	 2.4488509945e+000	-7.0941738197e-001
 2.7481629093e+000	 2.4774181367e+000	-7.0299864512e-001
 2.7223756536e+000	 2.5057275990e+000	-7.0066963260e-001
 2.6962911678e+000	 2.5337746424e+000	-7.2599609311e-001
 2.6699134796e+000	 2.5615546083e+000	-7.4011598525e-001
 2.6432467140e+000	 2.5890629210e+000	-7.4292752876e-001
 2.6162950904e+000	 2.6162950904e+000	-7.3433973042e-001
 2.8919156237e+000	 2.3478605208e+000	-6.3683591039e-001
 2.8675075938e+000	 2.3776091351e+000	-6.6345333017e-001
 2.8427815831e+000	 2.4071181672e+000	-6.7940056153e-001
 2.8177411293e+000	 2.4363825497e+000	-6.8582855496e-001
 2.7923898773e+000	 2.4653972850e+000	-6.8388473812e-001
 2.7667315776e+000	 2.4941574485e+000	-6.7471055300e-001
 2.7407700837e+000	 2.5226581909e+000	-6.9781290546e-001
 2.7145093514e+000	 2.5508947413e+000	-7.1905381954e-001
 2.6879534356e+000	 2.5788624097e+000	-7.2778164878e-001
 2.6611064891e+000	 2.6065565894e+000	-7.2388746840e-001
 2.6339727599e+000	 2.6339727599e+000	-7.0727449786e-001
 2.9113244534e+000	 2.3636179740e+000	-6.0751866073e-001
 2.8867526112e+000	 2.3935662434e+000	-6.3512438024e-001
 2.8618606541e+000	 2.4232733227e+000	-6.5101050299e-001
 2.8366521436e+000	 2.4527341104e+000	-6.5635061598e-001
 2.8111307490e+000	 2.4819435755e+000	-6.5231547374e-001
 2.7853002459e+000	 2.5108967602e+000	-6.6071933863e-001
 2.7591645138e+000	 2.5395887828e+000	-6.9148553655e-001
 2.7327275349e+000	 2.5680148403e+000	-7.0857806468e-001
 2.7059933915e+000	 2.5961702111e+000	-7.1186770631e-001
 2.6789662642e+000	 2.6240502578e+000	-7.0123831681e-001
 2.6516504295e+000	 2.6516504295e+000	-6.7658724321e-001
 2.4748737342e+000	 2.4748737342e+000	-7.7750296450e-001
 2.4491135740e+000	 2.5003685132e+000	-8.0025944741e-001
 2.4230921970e+000	 2.5255938321e+000	-8.2959905745e-001
 2.3968138509e+000	 2.5505456993e+000	-8.5255050655e-001
 2.3702828639e+000	 2.5752202129e+000	-8.7004285734e-001
 2.3435036429e+000	 2.5996135628e+000	-8.8298916582e-001
 2.3164806705e+000	 2.6237220324e+000	-8.9228461378e-001
 2.2892185031e+000	 2.6475420007e+000	-8.9880470769e-001
 2.2617217679e+000	 2.6710699438e+000	-9.0340354815e-001
 2.2339951605e+000	 2.6943024371e+000	-9.0691217419e-001
 2.2060434424e+000	 2.7172361565e+000	-9.1013698595e-001
 2.4925514037e+000	 2.4925514037e+000	-8.0510540411e-001
 2.4666072423e+000	 2.5182282883e+000	-8.2362234171e-001
 2.4403999984e+000	 2.5436337880e+000	-8.4019917916e-001
 2.4139339499e+000	 2.5687638828e+000	-8.5137584240e-001
 2.3872134558e+000	 2.5936146430e+000	-8.5813757183e-001
 2.3602429546e+000	 2.6181822311e+000	-8.6145188606e-001
 2.3330269610e+000	 2.6424629041e+000	-8.6226663960e-001
 2.3055700638e+000	 2.6664530150e+000	-8.6150815035e-001
 2.2778769234e+000	 2.6901490148e+000	-8.6007940144e-001
 2.2499522688e+000	 2.7135474545e+000	-8.5885832134e-001
 2.2218008955e+000	 2.7366449862e+000	-8.5869614642e-001
 2.5102290732e+000	 2.5102290732e+000	-8.1716936725e-001
 2.4841009107e+000	 2.5360880634e+000	-8.5196840476e-001
 2.4577077999e+000	 2.5616737440e+000	-8.5620001532e-001
 2.4310540488e+000	 2.5869820664e+000	-8.5601270562e-001
 2.4041440477e+000	 2.6120090731e+000	-8.5244811714e-001
 2.3769822663e+000	 2.6367508994e+000	-8.4652844763e-001
 2.3495732515e+000	 2.6612037757e+000	-8.3925443351e-001
 2.3219216245e+000	 2.6853640292e+000	-8.3160340561e-001
 2.2940320788e+000	 2.7092280859e+000	-8.2452742267e-001
 2.2659093771e+000	 2.7327924719e+000	-8.1895148706e-001
 2.2375583487e+000	 2.7560538159e+000	-8.1577184658e-001
 2.5279067427e+000	 2.5279067427e+000	-8.1315550142e-001
 2.5015945791e+000	 2.5539478385e+000	-8.8031623029e-001
 2.4750156013e+000	 2.5797136999e+000	-8.7731929368e-001
 2.4481741477e+000	 2.6052002500e+000	-8.6616344838e-001
 2.4210746396e+000	 2.6304035032e+000	-8.5266195229e-001
 2.3937215781e+000	 2.6553195677e+000	-8.3789190863e-001
 2.3661195420e+000	 2.6799446474e+000	-8.2290715438e-001
 2.3382731853e+000	 2.7042750435e+000	-8.0873624369e-001
 2.3101872343e+000	 2.7283071569e+000	-7.9638051264e-001
 2.2818664854e+000	 2.7520374893e+000	-7.8681223000e-001
 2.2533158019e+000	 2.7754626456e+000	-7.8097283793e-001
 2.5455844123e+000	 2.5455844123e+000	-8.0513863466e-001
 2.5190882475e+000	 2.5718076136e+000	-8.6186965471e-001
 2.4923234027e+000	 2.5977536559e+000	-9.0327453170e-001
 2.4652942467e+000	 2.6234184335e+000	-8.8153055991e-001
 2.4380052315e+000	 2.6487979333e+000	-8.5846701192e-001
 2.4104608898e+000	 2.6738882360e+000	-8.3521613239e-001
 2.3826658325e+000	 2.6986855190e+000	-8.1288508677e-001
 2.3546247460e+000	 2.7231860578e+000	-7.9255387173e-001
 2.3263423898e+000	 2.7473862279e+000	-7.7527331085e-001
 2.2978235937e+000	 2.7712825068e+000	-7.6206313980e-001
 2.2690732550e+000	 2.7948714753e+000	-7.5391018554e-001
 2.5632620818e+000	 2.5632620818e+000	-7.9318433768e-001
 2.5365819159e+000	 2.5896673887e+000	-8.4007160200e-001
 2.5096312041e+000	 2.6157936118e+000	-8.9884871369e-001
 2.4824143456e+000	 2.6416366171e+000	-9.0181666178e-001
 2.4549358234e+000	 2.6671923634e+000	-8.6955168988e-001
 2.4272002015e+000	 2.6924569043e+000	-8.3817575970e-001
 2.3992121230e+000	 2.7174263907e+000	-8.0884960209e-001
 2.3709763067e+000	 2.7420970721e+000	-7.8270488423e-001
 2.3424975453e+000	 2.7664652989e+000	-7.6084213556e-001
 2.3137807020e+000	 2.7905275242e+000	-7.4432876703e-001
 2.2848307082e+000	 2.8142803050e+000	-7.3419718834e-001
 2.5809397513e+000	 2.5809397513e+000	-7.7735731334e-001
 2.5540755843e+000	 2.6075271638e+000	-8.1497540748e-001
 2.5269390055e+000	 2.6338335677e+000	-8.6543205210e-001
 2.4995344445e+000	 2.6598548007e+000	-9.2672450337e-001
 2.4718664152e+000	 2.6855867935e+000	-8.8560482355e-001
 2.4439395133e+000	 2.7110255726e+000	-8.4644618217e-001
 2.4157584135e+000	 2.7361672624e+000	-8.1046312143e-001
 2.3873278675e+000	 2.7610080864e+000	-7.7883921553e-001
 2.3586527008e+000	 2.7855443700e+000	-7.5272492630e-001
 2.3297378103e+000	 2.8097725416e+000	-7.3323555610e-001
 2.3005881613e+000	 2.8336891347e+000	-7.2144930254e-001
 2.5986174209e+000	 2.5986174209e+000	-7.5772142611e-001
 2.5715692527e+000	 2.6253869389e+000	-7.8663389640e-001
 2.5442468069e+000	 2.6518735237e+000	-8.2931955239e-001
 2.5166545435e+000	 2.6780729842e+000	-8.8567560723e-001
 2.4887970071e+000	 2.7039812235e+000	-9.0631567869e-001
 2.4606788250e+000	 2.7295942409e+000	-8.5970351668e-001
 2.4323047040e+000	 2.7549081340e+000	-8.1738907981e-001
 2.4036794282e+000	 2.7799191007e+000	-7.8060809422e-001
 2.3748078563e+000	 2.8046234410e+000	-7.5056118872e-001
 2.3456949186e+000	 2.8290175590e+000	-7.2841178077e-001
 2.3163456145e+000	 2.8530979643e+000	-7.1528406830e-001
 2.6162950904e+000	 2.6162950904e+000	-7.3433973042e-001
 2.5890629210e+000	 2.6432467140e+000	-7.5509940116e-001
 2.5615546083e+000	 2.6699134796e+000	-7.9055307120e-001
 2.5337746424e+000	 2.6962911678e+000	-8.4061958498e-001
 2.5057275990e+000	 2.7223756536e+000	-9.0520525285e-001
 2.4774181367e+000	 2.7481629093e+000	-8.7762458093e-001
 2.4488509945e+000	 2.7736490057e+000	-8.2929189198e-001
 2.4200309889e+000	 2.7988301150e+000	-7.8766399948e-001
 2.3909630117e+000	 2.8237025120e+000	-7.5399194168e-001
 2.3616520268e+000	 2.8482625764e+000	-7.2948748239e-001
 2.3321030677e+000	 2.8725067940e+000	-7.1532103933e-001
 2.6339727599e+000	 2.6339727599e+000	-7.0727449786e-001
 2.6065565894e+000	 2.6611064891e+000	-7.2042377787e-001
 2.5788624097e+000	 2.6879534356e+000	-7.4917428828e-001
 2.5508947413e+000	 2.7145093514e+000	-7.9346615400e-001
 2.5226581909e+000	 2.7407700837e+000	-8.5322606666e-001
 2.4941574485e+000	 2.7667315776e+000	-8.9988686985e-001
 2.4653972850e+000	 2.7923898773e+000	-8.4583691948e-001
 2.4363825497e+000	 2.8177411293e+000	-7.9966061902e-001
 2.4071181672e+000	 2.8427815831e+000	-7.6265966647e-001
 2.3776091351e+000	 2.8675075938e+000	-7.3609441057e-001
 2.3478605208e+000	 2.8919156237e+000	-7.2118171529e-001
 2.6516504295e+000	 2.6516504295e+000	-6.7658724321e-001
 2.6240502578e+000	 2.6789662642e+000	-6.8265842221e-001
 2.5961702111e+000	 2.7059933915e+000	-7.0522471240e-001
 2.5680148403e+000	 2.7327275349e+000	-7.4424717245e-001
 2.5395887828e+000	 2.7591645138e+000	-7.9967253892e-001
 2.5108967602e+000	 2.7853002459e+000	-8.7143355426e-001
 2.4819435755e+000	 2.8111307490e+000	-8.6669043910e-001
 2.4527341104e+000	 2.8366521436e+000	-8.1625280888e-001
 2.4232733227e+000	 2.8618606541e+000	-7.7620825808e-001
 2.3935662434e+000	 2.8867526112e+000	-7.4786596623e-001
 2.3636179740e+000	 2.9113244534e+000	-7.3248947694e-001
 2.2060434424e+000	 2.7172361565e+000	-9.1013698595e-001
 2.1778714378e+000	 2.7398678801e+000	-9.2603093313e-001
 2.1494840313e+000	 2.7621944897e+000	-9.3601402320e-001
 2.1208861652e+000	 2.7842129721e+000	-9.4118917265e-001
 2.0920828363e+000	 2.8059204205e+000	-9.4263454048e-001
 2.0630790933e+000	 2.8273140354e+000	-9.4140195603e-001
 2.0338800339e+000	 2.8483911262e+000	-9.3851543753e-001
 2.0044908018e+000	 2.8691491118e+000	-9.3496980354e-001
 1.9749165840e+000	 2.8895855216e+000	-9.3172937968e-001
 1.9451626075e+000	 2.9096979964e+000	-9.2972680225e-001
 1.9152341368e+000	 2.9294842893e+000	-9.2986192033e-001
 2.2218008955e+000	 2.7366449862e+000	-8.5869614642e-001
 2.1934276623e+000	 2.7594383650e+000	-8.7922835933e-001
 2.1648374887e+000	 2.7819244504e+000	-8.9415649308e-001
 2.1360353521e+000	 2.8041002076e+000	-9.0454792320e-001
 2.1070262851e+000	 2.8259627092e+000	-9.1144444368e-001
 2.0778153725e+000	 2.8475091357e+000	-9.1586072563e-001
 2.0484077484e+000	 2.8687367771e+000	-9.1878286857e-001
 2.0188085932e+000	 2.8896430340e+000	-9.2116704659e-001
 1.9890231310e+000	 2.9102254181e+000	-9.2393825157e-001
 1.9590566262e+000	 2.9304815535e+000	-9.2798913515e-001
 1.9289143807e+000	 2.9504091771e+000	-9.3417895081e-001
 2.2375583487e+000	 2.7560538159e+000	-8.1577184658e-001
 2.2089838869e+000	 2.7790088499e+000	-8.3958182928e-001
 2.1801909460e+000	 2.8016544110e+000	-8.5810588089e-001
 2.1511845390e+000	 2.8239874432e+000	-8.7237677001e-001
 2.1219697340e+000	 2.8460049979e+000	-8.8340083573e-001
 2.0925516518e+000	 2.8677042359e+000	-8.9215647620e-001
 2.0629354629e+000	 2.8890824280e+000	-8.9959273180e-001
 2.0331263847e+000	 2.9101369562e+000	-9.0662796522e-001
 2.0031296780e+000	 2.9308653147e+000	-9.1414864046e-001
 1.9729506448e+000	 2.9512651106e+000	-9.2300820234e-001
 1.9425946245e+000	 2.9713340648e+000	-9.3402605806e-001
 2.2533158019e+000	 2.7754626456e+000	-7.8097283793e-001
 2.2245401114e+000	 2.7985793347e+000	-8.0672501526e-001
 2.1955444034e+000	 2.8213843716e+000	-8.2752098510e-001
 2.1663337259e+000	 2.8438746787e+000	-8.4435983290e-001
 2.1369131828e+000	 2.8660472866e+000	-8.5821334252e-001
 2.1072879310e+000	 2.8878993362e+000	-8.7002451383e-001
 2.0774631775e+000	 2.9094280789e+000	-8.8070617688e-001
 2.0474441761e+000	 2.9306308784e+000	-8.9113970512e-001
 2.0172362251e+000	 2.9515052113e+000	-9.0217382937e-001
 1.9868446634e+000	 2.9720486678e+000	-9.1462355435e-001
 1.9562748683e+000	 2.9922589526e+000	-9.2926917885e-001
 2.2690732550e+000	 2.7948714753e+000	-7.5391018554e-001
 2.2400963360e+000	 2.8181498196e+000	-7.8029317082e-001
 2.2108978608e+000	 2.8411143323e+000	-8.0206145275e-001
 2.1814829128e+000	 2.8637619142e+000	-8.2018134753e-001
 2.1518566316e+000	 2.8860895753e+000	-8.3559097345e-001
 2.1220242103e+000	 2.9080944364e+000	-8.4919879648e-001
 2.0919908920e+000	 2.9297737298e+000	-8.6188227476e-001
 2.0617619676e+000	 2.9511248007e+000	-8.7448660402e-001
 2.0313427721e+000	 2.9721451079e+000	-8.8782356595e-001
 2.0007386820e+000	 2.9928322249e+000	-9.0267048088e-001
 1.9699551122e+000	 3.0131838404e+000	-9.1976926616e-001
 2.2848307082e+000	 2.8142803050e+000	-7.3419718834e-001
 2.2556525605e+000	 2.8377203044e+000	-7.5992307625e-001
 2.2262513181e+000	 2.8608442929e+000	-7.8138775017e-001
 2.1966320997e+000	 2.8836491497e+000	-7.9952566148e-001
 2.1668000805e+000	 2.9061318640e+000	-8.1524214273e-001
 2.1367604895e+000	 2.9282895367e+000	-8.2941198052e-001
 2.1065186065e+000	 2.9501193807e+000	-8.4287808935e-001
 2.0760797590e+000	 2.9716187229e+000	-8.5645028859e-001
 2.0454493191e+000	 2.9927850045e+000	-8.7090418433e-001
 2.0146327007e+000	 3.0136157820e+000	-8.8698015778e-001
 1.9836353560e+000	 3.0341087282e+000	-9.0538246101e-001
 2.3005881613e+000	 2.8336891347e+000	-7.2144930254e-001
 2.2712087851e+000	 2.8572907893e+000	-7.4525298626e-001
 2.2416047755e+000	 2.8805742536e+000	-7.6516113498e-001
 2.2117812866e+000	 2.9035363852e+000	-7.8207723036e-001
 2.1817435293e+000	 2.9261741528e+000	-7.9687468973e-001
 2.1514967687e+000	 2.9484846369e+000	-8.1039546523e-001
 2.1210463210e+000	 2.9704650316e+000	-8.2344874628e-001
 2.0903975504e+000	 2.9921126451e+000	-8.3680976721e-001
 2.0595558661e+000	 3.0134249010e+000	-8.5121872207e-001
 2.0285267193e+000	 3.0343993391e+000	-8.6737978788e-001
 1.9973155998e+000	 3.0550336159e+000	-8.8596025729e-001
 2.3163456145e+000	 2.8530979643e+000	-7.1528406830e-001
 2.2867650096e+000	 2.8768612741e+000	-7.3592257989e-001
 2.2569582329e+000	 2.9003042142e+000	-7.5304362910e-001
 2.2269304735e+000	 2.9234236207e+000	-7.6752061417e-001
 2.1966869781e+000	 2.9462164415e+000	-7.8019589857e-001
 2.1662330480e+000	 2.9686797371e+000	-7.9187943564e-001
 2.1355740356e+000	 2.9908106825e+000	-8.0334749878e-001
 2.1047153419e+000	 3.0126065673e+000	-8.1534151908e-001
 2.0736624132e+000	 3.0340647976e+000	-8.2856703226e-001
 2.0424207379e+000	 3.0551828962e+000	-8.4369273616e-001
 2.0109958437e+000	 3.0759585037e+000	-8.6134965981e-001
 2.3321030677e+000	 2.8725067940e+000	-7.1532103933e-001
 2.3023212342e+000	 2.8964317590e+000	-7.3157291236e-001
 2.2723116903e+000	 2.9200341748e+000	-7.4469799301e-001
 2.2420796604e+000	 2.9433108562e+000	-7.5554047376e-001
 2.2116304270e+000	 2.9662587302e+000	-7.6491251684e-001
 2.1809693272e+000	 2.9888748374e+000	-7.7359290349e-001
 2.1501017501e+000	 3.0111563334e+000	-7.8232579100e-001
 2.1190331333e+000	 3.0331004896e+000	-7.9181957966e-001
 2.0877689602e+000	 3.0547046942e+000	-8.0274589110e-001
 2.0563147565e+000	 3.0759664533e+000	-8.1573865941e-001
 2.0246760875e+000	 3.0968833915e+000	-8.3139333595e-001
 2.3478605208e+000	 2.8919156237e+000	-7.2118171529e-001
 2.3178774588e+000	 2.9160022438e+000	-7.3184636887e-001
 2.2876651476e+000	 2.9397641355e+000	-7.3978770088e-001
 2.2572288473e+000	 2.9631980917e+000	-7.4582156744e-001
 2.2265738758e+000	 2.9863010189e+000	-7.5073077365e-001
 2.1957056065e+000	 3.0090699376e+000	-7.5526374661e-001
 2.1646294646e+000	 3.0315019843e+000	-7.6013331865e-001
 2.1333509248e+000	 3.0535944118e+000	-7.6601562265e-001
 2.1018755072e+000	 3.0753445908e+000	-7.7354910117e-001
 2.0702087752e+000	 3.0967500104e+000	-7.8333363064e-001
 2.0383563313e+000	 3.1178082793e+000	-7.9592976121e-001
 2.3636179740e+000	 2.9113244534e+000	-7.3248947694e-001
 2.3334336833e+000	 2.9355727287e+000	-7.3638662030e-001
 2.3030186050e+000	 2.9594940961e+000	-7.3797691686e-001
 2.2723780342e+000	 2.9830853273e+000	-7.3804874774e-001
 2.2415173246e+000	 3.0063433076e+000	-7.3735639684e-001
 2.2104418857e+000	 3.0292650379e+000	-7.3661874677e-001
 2.1791571792e+000	 3.0518476352e+000	-7.3651808734e-001
 2.1476687162e+000	 3.0740883340e+000	-7.3769903871e-001
 2.1159820543e+000	 3.0959844873e+000	-7.4076759055e-001
 2.0841027938e+000	 3.1175335675e+000	-7.4629025856e-001
 2.0520365752e+000	 3.1387331671e+000	-8.1863325311e-001
 1.9152341368e+000	 2.9294842893e+000	-9.2986192033e-001
 1.8851364706e+000	 2.9489422659e+000	-8.1468971992e-001
 1.8548749386e+000	 2.9680699052e+000	-7.5672585852e-001
 1.8244548993e+000	 2.9868653000e+000	-7.2789617125e-001
 1.7938817362e+000	 3.0053266573e+000	-7.0162494160e-001
 1.7631608551e+000	 3.0234522981e+000	-6.7957609933e-001
 1.7322976814e+000	 3.0412406585e+000	-6.6332928384e-001
 1.7012976567e+000	 3.0586902889e+000	-6.5437753986e-001
 1.6701662359e+000	 3.0757998544e+000	-6.5412525620e-001
 1.6389088846e+000	 3.0925681348e+000	-6.6388634915e-001
 1.6075310757e+000	 3.1089940239e+000	-6.8488269148e-001
 1.9289143807e+000	 2.9504091771e+000	-9.3417895081e-001
 1.8986017311e+000	 2.9700061392e+000	-8.1229852866e-001
 1.8681240453e+000	 2.9892704045e+000	-7.1129541638e-001
 1.8374867200e+000	 3.0082000522e+000	-6.7842601790e-001
 1.8066951771e+000	 3.0267932762e+000	-6.4839837616e-001
 1.7757548612e+000	 3.0450483860e+000	-6.2296840436e-001
 1.7446712363e+000	 3.0629638061e+000	-6.0380514149e-001
 1.7134497828e+000	 3.0805380767e+000	-5.9248834717e-001
 1.6820959948e+000	 3.0977698534e+000	-5.9050634655e-001
 1.6506153766e+000	 3.1146579071e+000	-5.9925412669e-001
 1.6190134405e+000	 3.1312011241e+000	-6.3982170005e-001
 1.9425946245e+000	 2.9713340648e+000	-9.3402605806e-001
 1.9120669916e+000	 2.9910700125e+000	-8.0637327816e-001
 1.8813731520e+000	 3.0104709038e+000	-6.7998141844e-001
 1.8505185407e+000	 3.0295348043e+000	-6.2551440332e-001
 1.8195086181e+000	 3.0482598952e+000	-5.9253285728e-001
 1.7883488673e+000	 3.0666444738e+000	-5.6455919569e-001
 1.7570447912e+000	 3.0846869536e+000	-5.4335216688e-001
 1.7256019089e+000	 3.1023858645e+000	-5.3057850178e-001
 1.6940257536e+000	 3.1197398523e+000	-5.2781066456e-001
 1.6623218687e+000	 3.1367476795e+000	-5.7806924935e-001
 1.6304958054e+000	 3.1534082243e+000	-6.4621026824e-001
 1.9562748683e+000	 2.9922589526e+000	-9.2926917885e-001
 1.9255322521e+000	 3.0121338859e+000	-7.9676142650e-001
 1.8946222587e+000	 3.0316714032e+000	-6.6525896007e-001
 1.8635503614e+000	 3.0508695565e+000	-5.6890389325e-001
 1.8323220591e+000	 3.0697265142e+000	-5.3374766737e-001
 1.8009428734e+000	 3.0882405617e+000	-5.0404474085e-001
 1.7694183460e+000	 3.1064101012e+000	-4.8164389685e-001
 1.7377540350e+000	 3.1242336522e+000	-4.6829910918e-001
 1.7059555124e+000	 3.1417098513e+000	-5.2980444338e-001
 1.6740283607e+000	 3.1588374519e+000	-5.9229923436e-001
 1.6419781702e+000	 3.1756153244e+000	-6.5150872274e-001
 1.9699551122e+000	 3.0131838404e+000	-9.1976926616e-001
 1.9389975126e+000	 3.0331977592e+000	-7.8330597693e-001
 1.9078713654e+000	 3.0528719025e+000	-6.4761328214e-001
 1.8765821821e+000	 3.0722043086e+000	-5.1312181933e-001
 1.8451355001e+000	 3.0911931332e+000	-4.7175924286e-001
 1.8135368796e+000	 3.1098366495e+000	-4.4111900407e-001
 1.7817919009e+000	 3.1281332488e+000	-4.3201284628e-001
 1.7499061612e+000	 3.1460814400e+000	-4.9160683693e-001
 1.7178852712e+000	 3.1636798503e+000	-5.4950288806e-001
 1.6857348527e+000	 3.1809272243e+000	-6.0459502027e-001
 1.6534605350e+000	 3.1978224246e+000	-6.5581931942e-001
 1.9836353560e+000	 3.0341087282e+000	-9.0538246101e-001
 1.9524627731e+000	 3.0542616325e+000	-7.6584563152e-001
 1.9211204721e+000	 3.0740724018e+000	-6.2686572441e-001
 1.8896140028e+000	 3.0935390607e+000	-4.8892412333e-001
 1.8579489410e+000	 3.1126597521e+000	-4.0628127228e-001
 1.8261308857e+000	 3.1314327373e+000	-4.0446472275e-001
 1.7941654558e+000	 3.1498563963e+000	-4.6003749466e-001
 1.7620582873e+000	 3.1679292278e+000	-5.1440879372e-001
 1.7298150301e+000	 3.1856498492e+000	-5.6645066959e-001
 1.6974413448e+000	 3.2030169967e+000	-6.1507699457e-001
 1.6649428998e+000	 3.2200295248e+000	-6.5924474479e-001
 1.9973155998e+000	 3.0550336159e+000	-8.8596025729e-001
 1.9659280336e+000	 3.0753255058e+000	-7.4421493843e-001
 1.9343695788e+000	 3.0952729011e+000	-6.0283396954e-001
 1.9026458236e+000	 3.1148738129e+000	-4.6234916106e-001
 1.8707623820e+000	 3.1341263711e+000	-3.7899782415e-001
 1.8387248918e+000	 3.1530288252e+000	-4.3164551640e-001
 1.8065390106e+000	 3.1715795439e+000	-4.8358664937e-001
 1.7742104134e+000	 3.1897770156e+000	-5.3366979915e-001
 1.7417447889e+000	 3.2076198482e+000	-5.8078506438e-001
 1.7091478368e+000	 3.2251067691e+000	-6.2386544427e-001
 1.6764252647e+000	 3.2422366249e+000	-6.6188810118e-001
 2.0109958437e+000	 3.0759585037e+000	-8.6134965981e-001
 1.9793932941e+000	 3.0963893791e+000	-7.1824443324e-001
 1.9476186855e+000	 3.1164734004e+000	-5.7533216751e-001
 1.9156776443e+000	 3.1362085650e+000	-4.8524264834e-001
 1.8835758230e+000	 3.1555929901e+000	-4.3154575725e-001
 1.8513188979e+000	 3.1746249130e+000	-4.5359497444e-001
 1.8189125655e+000	 3.1933026914e+000	-5.0282937018e-001
 1.7863625395e+000	 3.2116248033e+000	-5.4954282730e-001
 1.7536745477e+000	 3.2295898471e+000	-5.9264275449e-001
 1.7208543288e+000	 3.2471965415e+000	-6.3108055926e-001
 1.6879076295e+000	 3.2644437251e+000	-6.6385289270e-001
 2.0246760875e+000	 3.0968833915e+000	-8.3139333595e-001
 1.9928585546e+000	 3.1174532525e+000	-6.8776077447e-001
 1.9608677923e+000	 3.1376738998e+000	-6.0331916571e-001
 1.9287094650e+000	 3.1575433171e+000	-5.5075224271e-001
 1.8963892639e+000	 3.1770596091e+000	-4.9388967680e-001
 1.8639129040e+000	 3.1962210009e+000	-4.7049602530e-001
 1.8312861203e+000	 3.2150258390e+000	-5.1793318694e-001
 1.7985146656e+000	 3.2334725911e+000	-5.6217979917e-001
 1.7656043065e+000	 3.2515598461e+000	-6.0215984765e-001
 1.7325608209e+000	 3.2692863139e+000	-6.3684243565e-001
 1.6993899943e+000	 3.2866508253e+000	-6.6524301156e-001
 2.0383563313e+000	 3.1178082793e+000	-7.9592976121e-001
 2.0063238151e+000	 3.1385171258e+000	-7.1569740317e-001
 1.9741168990e+000	 3.1588743991e+000	-6.6558344189e-001
 1.9417412857e+000	 3.1788780693e+000	-6.1125442200e-001
 1.9092027049e+000	 3.1985262280e+000	-5.5217887694e-001
 1.8765069101e+000	 3.2178170887e+000	-4.8783199585e-001
 1.8436596752e+000	 3.2367489865e+000	-5.2906415091e-001
 1.8106667917e+000	 3.2553203789e+000	-5.7173161803e-001
 1.7775340654e+000	 3.2735298451e+000	-6.0947189661e-001
 1.7442673129e+000	 3.2913760863e+000	-6.4127107888e-001
 1.7108723591e+000	 3.3088579254e+000	-6.6616272513e-001
 2.0520365752e+000	 3.1387331671e+000	-8.1863325311e-001
 2.0197890756e+000	 3.1595809991e+000	-7.7231118525e-001
 1.9873660057e+000	 3.1800748984e+000	-7.2182914993e-001
 1.9547731064e+000	 3.2002128214e+000	-6.6666988653e-001
 1.9220161459e+000	 3.2199928470e+000	-6.0632148464e-001
 1.8891009162e+000	 3.2394131765e+000	-5.4027879396e-001
 1.8560332301e+000	 3.2584721341e+000	-5.3638688406e-001
 1.8228189179e+000	 3.2771681667e+000	-5.7834820335e-001
 1.7894638242e+000	 3.2954998440e+000	-6.1471391756e-001
 1.7559738049e+000	 3.3134658586e+000	-6.4448640674e-001
 1.7223547240e+000	 3.3310650256e+000	-6.6671666339e-001
 1.6075310757e+000	 3.1089940239e+000	-6.8488269148e-001
 1.5760382868e+000	 3.1250765300e+000	-6.1827595080e-001
 1.5444359972e+000	 3.1408147750e+000	-6.0213073707e-001
 1.5127296849e+000	 3.1562079939e+000	-5.8303805499e-001
 1.4809248240e+000	 3.1712555346e+000	-5.6026871884e-001
 1.4490268819e+000	 3.1859568571e+000	-5.3313250687e-001
 1.4170413162e+000	 3.2003115330e+000	-5.0097870058e-001
 1.3849735723e+000	 3.2143192443e+000	-4.6319652650e-001
 1.3528290804e+000	 3.2279797829e+000	-4.1921550125e-001
 1.3206132534e+000	 3.2412930498e+000	-3.6850568131e-001
 1.2883314835e+000	 3.2542590537e+000	-3.1057781861e-001
 1.6190134405e+000	 3.1312011241e+000	-6.3982170005e-001
 1.5872957031e+000	 3.1473985053e+000	-6.2085529719e-001
 1.5554676828e+000	 3.1632491662e+000	-6.0034286251e-001
 1.5235348969e+000	 3.1787523367e+000	-5.7751444487e-001
 1.4915028585e+000	 3.1939073598e+000	-5.5163848771e-001
 1.4593770739e+000	 3.2087136918e+000	-5.2202247511e-001
 1.4271630399e+000	 3.2231709011e+000	-4.8801347856e-001
 1.3948662406e+000	 3.2372786675e+000	-4.4899860504e-001
 1.3624921453e+000	 3.2510367814e+000	-4.0440534748e-001
 1.3300462052e+000	 3.2644451431e+000	-3.5370183868e-001
 1.2975338512e+000	 3.2775037612e+000	-2.9639701032e-001
 1.6304958054e+000	 3.1534082243e+000	-6.4621026824e-001
 1.5985531195e+000	 3.1697204805e+000	-6.2268072061e-001
 1.5664993685e+000	 3.1856835575e+000	-5.9821458378e-001
 1.5343401089e+000	 3.2012966795e+000	-5.7203913042e-001
 1.5020808929e+000	 3.2165591851e+000	-5.4342012532e-001
 1.4697272659e+000	 3.2314705265e+000	-5.1166247995e-001
 1.4372847636e+000	 3.2460302692e+000	-4.7611080675e-001
 1.4047589090e+000	 3.2602380906e+000	-4.3614987356e-001
 1.3721552102e+000	 3.2740937798e+000	-3.9120495934e-001
 1.3394791570e+000	 3.2875972363e+000	-3.4074211224e-001
 1.3067362190e+000	 3.3007484688e+000	-2.8426831171e-001
 1.6419781702e+000	 3.1756153244e+000	-6.5150872274e-001
 1.6098105358e+000	 3.1920424557e+000	-6.2384631547e-001
 1.5775310542e+000	 3.2081179487e+000	-5.9583241938e-001
 1.5451453210e+000	 3.2238410223e+000	-5.6669119480e-001
 1.5126589274e+000	 3.2392110103e+000	-5.3568542086e-001
 1.4800774579e+000	 3.2542273612e+000	-5.0211715889e-001
 1.4474064873e+000	 3.2688896373e+000	-4.6532831412e-001
 1.4146515774e+000	 3.2831975138e+000	-4.2470109649e-001
 1.3818182750e+000	 3.2971507783e+000	-3.7965838156e-001
 1.3489121088e+000	 3.3107493295e+000	-3.2966397268e-001
 1.3159385867e+000	 3.3239931763e+000	-2.7422276592e-001
 1.6534605350e+000	 3.1978224246e+000	-6.5581931942e-001
 1.6210679521e+000	 3.2143644309e+000	-6.2444686441e-001
 1.5885627399e+000	 3.2305523400e+000	-5.9328381051e-001
 1.5559505330e+000	 3.2463853651e+000	-5.6155087027e-001
 1.5232369618e+000	 3.2618628356e+000	-5.2850753114e-001
 1.4904276499e+000	 3.2769841959e+000	-4.9345272752e-001
 1.4575282109e+000	 3.2917490054e+000	-4.5572541008e-001
 1.4245442458e+000	 3.3061569370e+000	-4.1470501294e-001
 1.3914813399e+000	 3.3202077768e+000	-3.6981181962e-001
 1.3583450606e+000	 3.3339014227e+000	-3.2050722925e-001
 1.3251409544e+000	 3.3472378838e+000	-2.6629392423e-001
 1.6649428998e+000	 3.2200295248e+000	-6.5924474479e-001
 1.6323253685e+000	 3.2366864061e+000	-6.2457781458e-001
 1.5995944256e+000	 3.2529867312e+000	-5.9065708914e-001
 1.5667557450e+000	 3.2689297079e+000	-5.5669949863e-001
 1.5338149963e+000	 3.2845146608e+000	-5.2196093345e-001
 1.5007778420e+000	 3.2997410306e+000	-4.8573692509e-001
 1.4676499346e+000	 3.3146083735e+000	-4.4736322313e-001
 1.4344369141e+000	 3.3291163602e+000	-4.0621626862e-001
 1.4011444047e+000	 3.3432647752e+000	-3.6171356522e-001
 1.3677780124e+000	 3.3570535159e+000	-3.1331394915e-001
 1.3343433222e+000	 3.3704825914e+000	-2.6051775957e-001
 1.6764252647e+000	 3.2422366249e+000	-6.6188810118e-001
 1.6435827848e+000	 3.2590083813e+000	-6.2433525491e-001
 1.6106261113e+000	 3.2754211225e+000	-5.8804144759e-001
 1.5775609571e+000	 3.2914740508e+000	-5.5221949317e-001
 1.5443930308e+000	 3.3071664861e+000	-5.1612138031e-001
 1.5111280340e+000	 3.3224978653e+000	-4.7903896238e-001
 1.4777716583e+000	 3.3374677416e+000	-4.4030454195e-001
 1.4443295825e+000	 3.3520757833e+000	-3.9929135055e-001
 1.4108074696e+000	 3.3663217737e+000	-3.5541392482e-001
 1.3772109643e+000	 3.3802056091e+000	-3.0812838015e-001
 1.3435456899e+000	 3.3937272989e+000	-2.5693258358e-001
 1.6879076295e+000	 3.2644437251e+000	-6.6385289270e-001
 1.6548402011e+000	 3.2813303565e+000	-6.2381589421e-001
 1.6216577970e+000	 3.2978555137e+000	-5.8552690925e-001
 1.5883661691e+000	 3.3140183936e+000	-5.4819430222e-001
 1.5549710652e+000	 3.3298183113e+000	-5.1106585613e-001
 1.5214782260e+000	 3.3452547000e+000	-4.7342947158e-001
 1.4878933820e+000	 3.3603271097e+000	-4.3461375894e-001
 1.4542222509e+000	 3.3750352065e+000	-3.9398852442e-001
 1.4204705345e+000	 3.3893787721e+000	-3.5096515115e-001
 1.3866439161e+000	 3.4033577023e+000	-3.0499687646e-001
 1.3527480577e+000	 3.4169720064e+000	-2.5557896708e-001
 1.6993899943e+000	 3.2866508253e+000	-6.6524301156e-001
 1.6660976175e+000	 3.3036523318e+000	-6.2311704030e-001
 1.6326894827e+000	 3.3202899050e+000	-5.8320430046e-001
 1.5991713811e+000	 3.3365627364e+000	-5.4470837423e-001
 1.5655490997e+000	 3.3524701366e+000	-5.0687253556e-001
 1.5318284180e+000	 3.3680115347e+000	-4.6898045831e-001
 1.4980151057e+000	 3.3831864778e+000	-4.3035681605e-001
 1.4641149192e+000	 3.3979946297e+000	-3.9036777450e-001
 1.4301335993e+000	 3.4124357706e+000	-3.4842137744e-001
 1.3960768679e+000	 3.4265097956e+000	-3.0396782755e-001
 1.3619504254e+000	 3.4402167139e+000	-2.5649966374e-001
 1.7108723591e+000	 3.3088579254e+000	-6.6616272513e-001
 1.6773550338e+000	 3.3259743070e+000	-6.2233657990e-001
 1.6437211684e+000	 3.3427242962e+000	-5.8116522363e-001
 1.6099765932e+000	 3.3591070792e+000	-5.4184712416e-001
 1.5761271341e+000	 3.3751219618e+000	-5.0362074358e-001
 1.5421786100e+000	 3.3907683694e+000	-4.6576525552e-001
 1.5081368294e+000	 3.4060458459e+000	-4.2760115278e-001
 1.4740075876e+000	 3.4209540529e+000	-3.8849074597e-001
 1.4397966642e+000	 3.4354927690e+000	-3.4783855432e-001
 1.4055098197e+000	 3.4496618888e+000	-3.0509158986e-001
 1.3711527931e+000	 3.4634614215e+000	-2.5973953681e-001
 1.7223547240e+000	 3.3310650256e+000	-6.6671666339e-001
 1.6886124501e+000	 3.3482962822e+000	-6.2157295926e-001
 1.6547528541e+000	 3.3651586875e+000	-5.7950203130e-001
 1.6207818052e+000	 3.3816514220e+000	-5.3969690130e-001
 1.5867051686e+000	 3.3977737871e+000	-5.0139091712e-001
 1.5525288020e+000	 3.4135252041e+000	-4.6385847926e-001
 1.5182585531e+000	 3.4289052139e+000	-4.2641565624e-001
 1.4839002560e+000	 3.4439134760e+000	-3.8842068956e-001
 1.4494597290e+000	 3.4585497675e+000	-3.4927438922e-001
 1.4149427715e+000	 3.4728139820e+000	-3.0842042123e-001
 1.3803551609e+000	 3.4867061290e+000	-2.6534548884e-001
 1.2883314835e+000	 3.2542590537e+000	-3.1057781861e-001
 1.2559891402e+000	 3.2668779101e+000	-2.8013613168e-001
 1.2235915677e+000	 3.2791498404e+000	-3.0047791547e-001
 1.1911440823e+000	 3.2910751701e+000	-3.1114763214e-001
 1.1586519699e+000	 3.3026543284e+000	-3.0057506693e-001
 1.1261204840e+000	 3.3138878460e+000	-2.7160140106e-001
 1.0935548431e+000	 3.3247763542e+000	-2.2693762697e-001
 1.0609602284e+000	 3.3353205834e+000	-1.6916366461e-001
 1.0283417820e+000	 3.3455213614e+000	-1.0072777637e-001
 9.9570460419e-001	 3.3553796121e+000	-2.3946273437e-002
 9.6305375194e-001	 3.3648963537e+000	 5.8996493647e-002
 1.2975338512e+000	 3.2775037612e+000	-2.9639701032e-001
 1.2649604912e+000	 3.2902127523e+000	-2.7870806986e-001
 1.2323315075e+000	 3.3025723392e+000	-2.8724243974e-001
 1.1996522543e+000	 3.3145828499e+000	-3.0325303397e-001
 1.1669280554e+000	 3.3262447164e+000	-2.9802707599e-001
 1.1341642017e+000	 3.3375584734e+000	-2.7441685546e-001
 1.1013659491e+000	 3.3485247567e+000	-2.3514220547e-001
 1.0685385158e+000	 3.3591443018e+000	-1.8278963967e-001
 1.0356870804e+000	 3.3694179425e+000	-1.1981179276e-001
 1.0028167799e+000	 3.3793466093e+000	-4.8527157506e-002
 9.6993270731e-001	 3.3889313276e+000	 2.8879889714e-002
 1.3067362190e+000	 3.3007484688e+000	-2.8426831171e-001
 1.2739318422e+000	 3.3135475946e+000	-2.7825289755e-001
 1.2410714472e+000	 3.3259948381e+000	-2.7896805995e-001
 1.2081604263e+000	 3.3380905297e+000	-2.9914752212e-001
 1.1752041409e+000	 3.3498351045e+000	-2.9814956026e-001
 1.1422079195e+000	 3.3612291009e+000	-2.7883832574e-001
 1.1091770551e+000	 3.3722731592e+000	-2.4394316838e-001
 1.0761168031e+000	 3.3829680203e+000	-1.9605779455e-001
 1.0430323789e+000	 3.3933145237e+000	-1.3763973404e-001
 1.0099289557e+000	 3.4033136065e+000	-7.1010108116e-002
 9.7681166268e-001	 3.4129663016e+000	 1.6463089300e-003
 1.3159385867e+000	 3.3239931763e+000	-2.7422276592e-001
 1.2829031932e+000	 3.3368824368e+000	-2.7882182696e-001
 1.2498113870e+000	 3.3494173369e+000	-2.7534925126e-001
 1.2166685983e+000	 3.3615982095e+000	-2.9854429332e-001
 1.1834802264e+000	 3.3734254925e+000	-3.0067458347e-001
 1.1502516372e+000	 3.3848997284e+000	-2.8461688319e-001
 1.1169881611e+000	 3.3960215617e+000	-2.5311072968e-001
 1.0836950905e+000	 3.4067917387e+000	-2.0875761565e-001
 1.0503776773e+000	 3.4172111048e+000	-1.5402048279e-001
 1.0170411314e+000	 3.4272806038e+000	-9.1223521788e-002
 9.8369061805e-001	 3.4370012755e+000	-2.2552270487e-002
 1.3251409544e+000	 3.3472378838e+000	-2.6629392423e-001
 1.2918745442e+000	 3.3602172790e+000	-2.8046800504e-001
 1.2585513268e+000	 3.3728398358e+000	-2.8504351197e-001
 1.2251767703e+000	 3.3851058893e+000	-3.0115735803e-001
 1.1917563119e+000	 3.3970158806e+000	-3.0533447595e-001
 1.1582953550e+000	 3.4085703558e+000	-2.9150332756e-001
 1.1247992672e+000	 3.4197699643e+000	-2.6241430314e-001
 1.0912733778e+000	 3.4306154572e+000	-2.2067726980e-001
 1.0577229757e+000	 3.4411076860e+000	-1.6876109238e-001
 1.0241533072e+000	 3.4512476010e+000	-1.0899346589e-001
 9.9056957342e-001	 3.4610362495e+000	-4.3561051175e-002
 1.3343433222e+000	 3.3704825914e+000	-2.6051775957e-001
 1.3008458952e+000	 3.3835521212e+000	-2.8324644678e-001
 1.2672912665e+000	 3.3962623346e+000	-2.9509345245e-001
 1.2336849423e+000	 3.4086135690e+000	-3.0670151242e-001
 1.2000323974e+000	 3.4206062687e+000	-3.1186182540e-001
 1.1663390727e+000	 3.4322409833e+000	-2.9924819653e-001
 1.1326103732e+000	 3.4435183668e+000	-2.7162252984e-001
 1.0988516651e+000	 3.4544391756e+000	-2.3160364977e-001
 1.0650682742e+000	 3.4650042671e+000	-1.8166684999e-001
 1.0312654829e+000	 3.4752145982e+000	-1.2414375895e-001
 9.9744852879e-001	 3.4850712234e+000	-6.1222513840e-002
 1.3435456899e+000	 3.3937272989e+000	-2.5693258358e-001
 1.3098172462e+000	 3.4068869634e+000	-2.8721397118e-001
 1.2760312063e+000	 3.4196848335e+000	-3.0533115590e-001
 1.2421931143e+000	 3.4321212488e+000	-3.1489231145e-001
 1.2083084829e+000	 3.4441966567e+000	-3.1998946811e-001
 1.1743827904e+000	 3.4559116108e+000	-3.0760177461e-001
 1.1404214792e+000	 3.4672667693e+000	-2.8050330467e-001
 1.1064299525e+000	 3.4782628941e+000	-2.4132241792e-001
 1.0724135726e+000	 3.4889008483e+000	-1.9254133714e-001
 1.0383776586e+000	 3.4991815955e+000	-1.3649604766e-001
 1.0043274842e+000	 3.5091061974e+000	-7.5376510473e-002
 1.3527480577e+000	 3.4169720064e+000	-2.5557896708e-001
 1.3187885972e+000	 3.4302218056e+000	-2.9242913996e-001
 1.2847711461e+000	 3.4431073324e+000	-3.1583274903e-001
 1.2507012864e+000	 3.4556289286e+000	-3.2566130756e-001
 1.2165845684e+000	 3.4677870448e+000	-3.2945048047e-001
 1.1824265082e+000	 3.4795822382e+000	-3.1631410177e-001
 1.1482325852e+000	 3.4910151719e+000	-2.8882380171e-001
 1.1140082398e+000	 3.5020866125e+000	-2.4961804803e-001
 1.0797588711e+000	 3.5127974294e+000	-2.0118648766e-001
 1.0454898344e+000	 3.5231485927e+000	-1.4586988079e-001
 1.0112064395e+000	 3.5331411713e+000	-8.5860353761e-002
 1.3619504254e+000	 3.4402167139e+000	-2.5649966374e-001
 1.3277599482e+000	 3.4535566479e+000	-2.9895219860e-001
 1.2935110859e+000	 3.4665298312e+000	-3.2667555075e-001
 1.2592094584e+000	 3.4791366084e+000	-3.3950482488e-001
 1.2248606539e+000	 3.4913774329e+000	-3.3997817089e-001
 1.1904702259e+000	 3.5032528657e+000	-3.2513498172e-001
 1.1560436912e+000	 3.5147635744e+000	-2.9635049859e-001
 1.1215865272e+000	 3.5259103310e+000	-2.5627386545e-001
 1.0871041695e+000	 3.5366940106e+000	-2.0740264340e-001
 1.0526020101e+000	 3.5471155899e+000	-1.5208278000e-001
 1.0180853949e+000	 3.5571761453e+000	-9.2508902877e-002
 1.3711527931e+000	 3.4634614215e+000	-2.5973953681e-001
 1.3367312992e+000	 3.4768914901e+000	-3.0684501995e-001
 1.3022510256e+000	 3.4899523301e+000	-3.3793803221e-001
 1.2677176304e+000	 3.5026442882e+000	-3.5281754511e-001
 1.2331367394e+000	 3.5149678209e+000	-3.5130607199e-001
 1.1985139437e+000	 3.5269234932e+000	-3.3381398983e-001
 1.1638547973e+000	 3.5385119769e+000	-3.0284919983e-001
 1.1291648145e+000	 3.5497340494e+000	-2.6107208566e-001
 1.0944494679e+000	 3.5605905918e+000	-2.1098860762e-001
 1.0597141859e+000	 3.5710825871e+000	-1.5495030792e-001
 1.0249643503e+000	 3.5812111192e+000	-9.5154645809e-002
 1.3803551609e+000	 3.4867061290e+000	-2.6534548884e-001
 1.3457026502e+000	 3.5002263323e+000	-3.1617104986e-001
 1.3109909654e+000	 3.5133748290e+000	-3.4969977833e-001
 1.2762258024e+000	 3.5261519680e+000	-3.6569478224e-001
 1.2414128249e+000	 3.5385582090e+000	-3.6316793315e-001
 1.2065576614e+000	 3.5505941207e+000	-3.4210048073e-001
 1.1716659033e+000	 3.5622603795e+000	-3.0808505929e-001
 1.1367431019e+000	 3.5735577679e+000	-2.6379385124e-001
 1.1017947664e+000	 3.5844871729e+000	-2.1174169629e-001
 1.0668263616e+000	 3.5950495844e+000	-1.5428613341e-001
 1.0318433056e+000	 3.6052460932e+000	-9.3627778402e-002
 9.6305375194e-001	 3.3648963537e+000	 5.8996493647e-002
 9.3039423656e-001	 3.3740726970e+000	-1.3861548856e-002
 8.9773102186e-001	 3.3829098440e+000	-7.1725063558e-002
 8.6506902227e-001	 3.3914090857e+000	-1.1585376387e-001
 8.3241310102e-001	 3.3995718009e+000	-1.4739716575e-001
 7.9976806841e-001	 3.4073994536e+000	-1.6739604251e-001
 7.6713868010e-001	 3.4148935921e+000	-1.7678408151e-001
 7.3452963556e-001	 3.4220558462e+000	-1.7638973224e-001
 7.0194557643e-001	 3.4288879258e+000	-1.6693823573e-001
 6.6939108513e-001	 3.4353916189e+000	-1.4905382448e-001
 6.3687068343e-001	 3.4415687894e+000	-1.2326208232e-001
 9.6993270731e-001	 3.3889313276e+000	 2.8879889714e-002
 9.3703990968e-001	 3.3981732162e+000	-3.4611775046e-002
 9.0414338630e-001	 3.4070734857e+000	-8.4262408565e-002
 8.7124808671e-001	 3.4156334363e+000	-1.2134181552e-001
 8.3835890888e-001	 3.4238544566e+000	-1.4700644364e-001
 8.0548069746e-001	 3.4317380212e+000	-1.6230089955e-001
 7.7261824210e-001	 3.4392856892e+000	-1.6815967103e-001
 7.3977627581e-001	 3.4464991022e+000	-1.6540904524e-001
 7.0695947340e-001	 3.4533799824e+000	-1.5476921222e-001
 6.7417245002e-001	 3.4599301304e+000	-1.3685654279e-001
 6.4141975974e-001	 3.4661514237e+000	-1.1218603001e-001
 9.7681166268e-001	 3.4129663016e+000	 1.6463089300e-003
 9.4368558279e-001	 3.4222737355e+000	-5.2451002804e-002
 9.1055575074e-001	 3.4312371274e+000	-9.3901123455e-002
 8.7742715115e-001	 3.4398577869e+000	-1.2398393939e-001
 8.4430471674e-001	 3.4481371123e+000	-1.4386276172e-001
 8.1119332652e-001	 3.4560765887e+000	-1.5458590442e-001
 7.7809780410e-001	 3.4636777863e+000	-1.5708847349e-001
 7.4502291606e-001	 3.4709423583e+000	-1.5219435658e-001
 7.1197337037e-001	 3.4778720390e+000	-1.4061840208e-001
 6.7895381492e-001	 3.4844686420e+000	-1.2296877653e-001
 6.4596883605e-001	 3.4907340579e+000	-9.9749489126e-002
 9.8369061805e-001	 3.4370012755e+000	-2.2552270487e-002
 9.5033125591e-001	 3.4463742548e+000	-6.7232297581e-002
 9.1696811518e-001	 3.4554007692e+000	-1.0049977077e-001
 8.8360621559e-001	 3.4640821375e+000	-1.2364464483e-001
 8.5025052460e-001	 3.4724197680e+000	-1.3783702178e-001
 8.1690595558e-001	 3.4804151562e+000	-1.4412879234e-001
 7.8357736610e-001	 3.4880698834e+000	-1.4345549346e-001
 7.5026955631e-001	 3.4953856143e+000	-1.3663837064e-001
 7.1698726735e-001	 3.5023640956e+000	-1.2438663409e-001
 6.8373517981e-001	 3.5090071536e+000	-1.0729989713e-001
 6.5051791236e-001	 3.5153166921e+000	-8.5870785306e-002
 9.9056957342e-001	 3.4610362495e+000	-4.3561051175e-002
 9.5697692902e-001	 3.4704747740e+000	-7.8805833705e-002
 9.2338047962e-001	 3.4795644109e+000	-1.0391395025e-001
 8.8978528004e-001	 3.4883064882e+000	-1.2018540711e-001
 8.5619633247e-001	 3.4967024237e+000	-1.2879702054e-001
 8.2261858464e-001	 3.5047537237e+000	-1.3080412290e-001
 7.8905692810e-001	 3.5124619805e+000	-1.2714248975e-001
 7.5551619657e-001	 3.5198288704e+000	-1.1863047638e-001
 7.2200116432e-001	 3.5268561522e+000	-1.0597135240e-001
 6.8851654471e-001	 3.5335456651e+000	-8.9755822669e-002
 6.5506698867e-001	 3.5398993263e+000	-7.0464722675e-002
 9.9744852879e-001	 3.4850712234e+000	-6.1222513840e-002
 9.6362260214e-001	 3.4945752933e+000	-8.7018994079e-002
 9.2979284406e-001	 3.5037280527e+000	-1.0399640104e-001
 8.9596434448e-001	 3.5125308388e+000	-1.1346477202e-001
 8.6214214033e-001	 3.5209850795e+000	-1.1660755675e-001
 8.2833121370e-001	 3.5290922913e+000	-1.1448338958e-001
 7.9453649010e-001	 3.5368540775e+000	-1.0802808737e-001
 7.6076283682e-001	 3.5442721264e+000	-9.8056861653e-002
 7.2701506130e-001	 3.5513482089e+000	-8.5266733205e-002
 6.9329790960e-001	 3.5580841767e+000	-7.0239136964e-002
 6.5961606499e-001	 3.5644819605e+000	-5.3442705263e-002
 1.0043274842e+000	 3.5091061974e+000	-7.5376510473e-002
 9.7026827526e-001	 3.5186758126e+000	-9.1716465778e-002
 9.3620520850e-001	 3.5278916944e+000	-1.0059709962e-001
 9.0214340892e-001	 3.5367551894e+000	-1.0333845617e-001
 8.6808794820e-001	 3.5452677352e+000	-1.0113053386e-001
 8.3404384276e-001	 3.5534308588e+000	-9.5035124770e-002
 8.0001605210e-001	 3.5612461746e+000	-8.5987884812e-002
 7.6600947708e-001	 3.5687153825e+000	-7.4800622854e-002
 7.3202895827e-001	 3.5758402655e+000	-6.2163796728e-002
 6.9807927450e-001	 3.5826226883e+000	-4.8649203763e-002
 6.6416514130e-001	 3.5890645947e+000	-3.4712853448e-002
 1.0112064395e+000	 3.5331411713e+000	-8.5860353761e-002
 9.7691394838e-001	 3.5427763318e+000	-9.2740331738e-002
 9.4261757294e-001	 3.5520553362e+000	-9.3563353796e-002
 9.0832247337e-001	 3.5609795400e+000	-8.9659443268e-002
 8.7403375606e-001	 3.5695503909e+000	-8.2225058452e-002
 8.3975647182e-001	 3.5777694263e+000	-7.2325000466e-002
 8.0549561411e-001	 3.5856382717e+000	-6.0894557031e-002
 7.7125611733e-001	 3.5931586385e+000	-4.8741870044e-002
 7.3704285525e-001	 3.6003323221e+000	-3.6550514514e-002
 7.0286063939e-001	 3.6071611998e+000	-2.4882276266e-002
 6.6871421761e-001	 3.6136472289e+000	-1.4180115646e-002
 1.0180853949e+000	 3.5571761453e+000	-9.2508902877e-002
 9.8355962149e-001	 3.5668768511e+000	-8.9930158741e-002
 9.4902993738e-001	 3.5762189779e+000	-8.2739892829e-002
 9.1450153782e-001	 3.5852038906e+000	-7.2278076410e-002
 8.7997956393e-001	 3.5938330466e+000	-5.9747534785e-002
 8.4546910088e-001	 3.6021079939e+000	-4.6215924912e-002
 8.1097517611e-001	 3.6100303688e+000	-3.2617954181e-002
 7.7650275759e-001	 3.6176018945e+000	-1.9757827851e-002
 7.4205675223e-001	 3.6248243787e+000	-8.3119124515e-003
 7.0764200429e-001	 3.6316997114e+000	 1.1683977876e-003
 6.7326329392e-001	 3.6382298631e+000	 8.2536245290e-003
 1.0249643503e+000	 3.5812111192e+000	-9.5154645809e-002
 9.9020529461e-001	 3.5909773704e+000	-8.3123081845e-002
 9.5544230183e-001	 3.6003826196e+000	-6.7968953996e-002
 9.2068060226e-001	 3.6094282412e+000	-5.1042146713e-002
 8.8592537179e-001	 3.6181157023e+000	-3.3551755442e-002
 8.5118172995e-001	 3.6264465614e+000	-1.6568135344e-002
 8.1645473811e-001	 3.6344224659e+000	-1.0251964221e-003
 7.8174939785e-001	 3.6420451506e+000	 1.2277067699e-002
 7.4707064920e-001	 3.6493164353e+000	 2.2669830392e-002
 7.1242336919e-001	 3.6562382230e+000	 2.9612475266e-002
 6.7781237024e-001	 3.6628124973e+000	 3.2689445417e-002
 1.0318433056e+000	 3.6052460932e+000	-9.3627778402e-002
 9.9685096773e-001	 3.6150778896e+000	-7.2153885443e-002
 9.6185466627e-001	 3.6245462614e+000	-4.9090365640e-002
 9.2685966671e-001	 3.6336525918e+000	-2.5796978370e-002
 8.9187117966e-001	 3.6423983581e+000	-3.4889884026e-003
 8.5689435901e-001	 3.6507851289e+000	 1.6760712977e-002
 8.2193430012e-001	 3.6588145630e+000	 3.4019235081e-002
 7.8699603810e-001	 3.6664884066e+000	 4.7491076235e-002
 7.5208454618e-001	 3.6738084919e+000	 5.6515286869e-002
 7.1720473409e-001	 3.6807767345e+000	 6.0562420824e-002
 6.8236144655e-001	 3.6873951316e+000	 5.9231288585e-002
 6.3687068343e-001	 3.4415687894e+000	-1.2326208232e-001
 6.0438883109e-001	 3.4474213756e+000	 1.4221063109e-002
 5.7194992458e-001	 3.4529513874e+000	 1.6287132083e-003
 5.3955829594e-001	 3.4581609051e+000	 3.3777542935e-004
 5.0721821157e-001	 3.4630520767e+000	 8.4032297479e-003
 4.7493387121e-001	 3.4676271163e+000	 2.4046162179e-002
 4.4270940692e-001	 3.4718883019e+000	 4.5653359482e-002
 4.1054888215e-001	 3.4758379731e+000	 7.1776556379e-002
 3.7845629087e-001	 3.4794785293e+000	 1.0113134734e-001
 3.4643555681e-001	 3.4828124275e+000	 1.3259577551e-001
 3.1449053264e-001	 3.4858421801e+000	 1.6520861179e-001
 6.4141975974e-001	 3.4661514237e+000	-1.1218603001e-001
 6.0870589417e-001	 3.4720458140e+000	 6.6339473442e-002
 5.7603528119e-001	 3.4776153259e+000	 3.9100724631e-002
 5.4341228377e-001	 3.4828620544e+000	 2.4495120425e-002
 5.1084119880e-001	 3.4877881630e+000	 2.0522281538e-002
 4.7832625601e-001	 3.4923958815e+000	 2.5350267285e-002
 4.4587161697e-001	 3.4966875041e+000	 3.7315207559e-002
 4.1348137416e-001	 3.5006653872e+000	 5.4920580263e-002
 3.8115955010e-001	 3.5043319474e+000	 7.6836146406e-002
 3.4891009650e-001	 3.5076896591e+000	 1.0189655563e-001
 3.1673689358e-001	 3.5107410529e+000	 1.2909963541e-001
 6.4596883605e-001	 3.4907340579e+000	-9.9749489126e-002
 6.1302295724e-001	 3.4966702524e+000	 1.1765583659e-001
 5.8012063779e-001	 3.5022792644e+000	 7.7429176597e-002
 5.4726627160e-001	 3.5075632037e+000	 5.1069908919e-002
 5.1446418603e-001	 3.5125242492e+000	 3.6521345134e-002
 4.8171864080e-001	 3.5171646466e+000	 3.1897682571e-002
 4.4903382702e-001	 3.5214867062e+000	 3.5483672646e-002
 4.1641386618e-001	 3.5254928013e+000	 4.5733927409e-002
 3.8386280932e-001	 3.5291853654e+000	 6.1271876721e-002
 3.5138463619e-001	 3.5325668907e+000	 8.0888389006e-002
 3.1898325453e-001	 3.5356399256e+000	 1.0354006900e-001
 6.5051791236e-001	 3.5153166921e+000	-8.5870785306e-002
 6.1734002033e-001	 3.5212946908e+000	 1.6771985252e-001
 5.8420599440e-001	 3.5269432028e+000	 1.1617177690e-001
 5.5112025943e-001	 3.5322643530e+000	 7.9628226279e-002
 5.1808717325e-001	 3.5372603355e+000	 5.5975237969e-002
 4.8511102560e-001	 3.5419334117e+000	 4.3272297118e-002
 4.5219603707e-001	 3.5462859084e+000	 3.9752040475e-002
 4.1934635820e-001	 3.5503202154e+000	 4.3819590990e-002
 3.8656606854e-001	 3.5540387835e+000	 5.4051535829e-002
 3.5385917588e-001	 3.5574441224e+000	 6.9194560971e-002
 3.2122961548e-001	 3.5605387983e+000	 8.8163756011e-002
 6.5506698867e-001	 3.5398993263e+000	-7.0464722675e-002
 6.2165708341e-001	 3.5459191292e+000	 2.1608515228e-001
 5.8829135100e-001	 3.5516071413e+000	 1.5489054783e-001
 5.5497424726e-001	 3.5569655023e+000	 1.0974082973e-001
 5.2171016048e-001	 3.5619964217e+000	 7.8463780754e-002
 4.8850341040e-001	 3.5667021768e+000	 5.9063308845e-002
 4.5535824712e-001	 3.5710851106e+000	 4.9719185449e-002
 4.2227885021e-001	 3.5751476295e+000	 4.8786407072e-002
 3.8926932776e-001	 3.5788922016e+000	 5.4794192924e-002
 3.5633371558e-001	 3.5823213540e+000	 6.6444631978e-002
 3.2347597643e-001	 3.5854376710e+000	 8.2610993320e-002
 6.5961606499e-001	 3.5644819605e+000	-5.3442705263e-002
 6.2597414649e-001	 3.5705435676e+000	 2.5096872514e-001
 5.9237670761e-001	 3.5762710798e+000	 1.9315167738e-001
 5.5882823509e-001	 3.5816666517e+000	 1.4098298727e-001
 5.2533314771e-001	 3.5867325080e+000	 1.0357162495e-001
 4.9189579519e-001	 3.5914709419e+000	 7.8865041454e-002
 4.5852045717e-001	 3.5958843127e+000	 6.4989377929e-002
 4.2521134223e-001	 3.5999750436e+000	 6.0248853138e-002
 3.9197258699e-001	 3.6037456196e+000	 6.3124779487e-002
 3.5880825527e-001	 3.6071985856e+000	 7.2274221195e-002
 3.2572233738e-001	 3.6103365437e+000	 8.6528308672e-002
 6.6416514130e-001	 3.5890645947e+000	-3.4712853448e-002
 6.3029120957e-001	 3.5951680060e+000	 2.4714661599e-001
 5.9646206422e-001	 3.6009350183e+000	 2.3052537660e-001
 5.6268222292e-001	 3.6063678010e+000	 1.7293432318e-001
 5.2895613494e-001	 3.6114685943e+000	 1.3088808734e-001
 4.9528817999e-001	 3.6162397070e+000	 1.0227676888e-001
 4.6168266723e-001	 3.6206835149e+000	 8.5172099443e-002
 4.2814383425e-001	 3.6248024577e+000	 7.7826854886e-002
 3.9467584621e-001	 3.6285990377e+000	 7.8673888523e-002
 3.6128279496e-001	 3.6320758172e+000	 8.6324799023e-002
 3.2796869832e-001	 3.6352354164e+000	 9.9568247309e-002
 6.6871421761e-001	 3.6136472289e+000	-1.4180115646e-002
 6.3460827265e-001	 3.6197924444e+000	 2.4524147808e-001
 6.0054742082e-001	 3.6255989568e+000	 2.6658574275e-001
 5.6653621075e-001	 3.6310689503e+000	 2.0517866983e-001
 5.3257912217e-001	 3.6362046805e+000	 1.6000699133e-001
 4.9868056479e-001	 3.6410084722e+000	 1.2890254694e-001
 4.6484487728e-001	 3.6454827170e+000	 1.0988186543e-001
 4.3107632627e-001	 3.6496298718e+000	 1.0114560092e-001
 3.9737910543e-001	 3.6534524558e+000	 1.0107758199e-001
 3.6375733466e-001	 3.6569530489e+000	 1.0824348807e-001
 3.3021505927e-001	 3.6601342892e+000	 1.2138916729e-001
 6.7326329392e-001	 3.6382298631e+000	 8.2536245290e-003
 6.3892533573e-001	 3.6444168828e+000	 2.4533167252e-001
 6.0463277743e-001	 3.6502628952e+000	 3.0091062802e-001
 5.7039019858e-001	 3.6557700996e+000	 2.3730392556e-001
 5.3620210939e-001	 3.6609407668e+000	 1.9052651471e-001
 5.0207294958e-001	 3.6657772373e+000	 1.5835105173e-001
 4.6800708733e-001	 3.6702819192e+000	 1.3873805519e-001
 4.3400881828e-001	 3.6744572859e+000	 1.2983536493e-001
 4.0008236465e-001	 3.6783058738e+000	 1.2997720605e-001
 3.6623187435e-001	 3.6818302805e+000	 1.3768287221e-001
 3.3246142022e-001	 3.6850331619e+000	 1.5165504311e-001
 6.7781237024e-001	 3.6628124973e+000	 3.2689445417e-002
 6.4324239882e-001	 3.6690413212e+000	 2.4749886689e-001
 6.0871813404e-001	 3.6749268337e+000	 3.3308151350e-001
 5.7424418641e-001	 3.6804712489e+000	 2.6890191822e-001
 5.3982509662e-001	 3.6856768530e+000	 2.2204904353e-001
 5.0546533438e-001	 3.6905460024e+000	 1.9023542465e-001
 4.7116929738e-001	 3.6950811213e+000	 1.7136474864e-001
 4.3694131030e-001	 3.6992847000e+000	 1.6353133510e-001
 4.0278562387e-001	 3.7031592919e+000	 1.6501921371e-001
 3.6870641404e-001	 3.7067075121e+000	 1.7430081329e-001
 3.3470778117e-001	 3.7099320346e+000	 1.9003527723e-001
 6.8236144655e-001	 3.6873951316e+000	 5.9231288585e-002
 6.4755946190e-001	 3.6936657595e+000	 2.5182792496e-001
 6.1280349065e-001	 3.6995907722e+000	 3.6268338826e-001
 5.7809817425e-001	 3.7051723983e+000	 2.9956827415e-001
 5.4344808385e-001	 3.7104129393e+000	 2.5418103181e-001
 5.0885771918e-001	 3.7153147675e+000	 2.2417312350e-001
 4.7433150743e-001	 3.7198803235e+000	 2.0739056967e-001
 4.3987380232e-001	 3.7241121140e+000	 2.0187345023e-001
 4.0548888310e-001	 3.7280127100e+000	 2.0585499465e-001
 3.7118095373e-001	 3.7315847437e+000	 2.1776027523e-001
 3.3695414212e-001	 3.7348309073e+000	 2.3620451915e-001
 3.1449053264e-001	 3.4858421801e+000	 1.6520861179e-001
 2.8262499937e-001	 3.4885703533e+000	 1.8370006951e-001
 2.5084266574e-001	 3.4909995642e+000	 1.9857216146e-001
 2.1914716763e-001	 3.4931324794e+000	 2.0961229034e-001
 1.8754206761e-001	 3.4949718129e+000	 2.1675603652e-001
 1.5603085452e-001	 3.4965203235e+000	 2.2008390001e-001
 1.2461694309e-001	 3.4977808132e+000	 2.1981782560e-001
 9.3303673673e-002	 3.4987561253e+000	 2.1631752583e-001
 6.2094311944e-002	 3.4994491419e+000	 2.1007661643e-001
 3.0992048758e-002	 3.4998627820e+000	 2.0171857895e-001
 0.0000000000e+000	 3.5000000000e+000	 1.9199256534e-001
 3.1673689358e-001	 3.5107410529e+000	 1.2909963541e-001
 2.8464374937e-001	 3.5134887129e+000	 1.4920273142e-001
 2.5263439907e-001	 3.5159352753e+000	 1.6620872609e-001
 2.2071250454e-001	 3.5180834257e+000	 1.7982537931e-001
 1.8888165380e-001	 3.5199358973e+000	 1.8991234021e-001
 1.5714536062e-001	 3.5214954686e+000	 1.9647788289e-001
 1.2550706412e-001	 3.5227649619e+000	 1.9967541813e-001
 9.3970128485e-002	 3.5237472405e+000	 1.9979979640e-001
 6.2537842743e-002	 3.5244452072e+000	 1.9728341696e-001
 3.1213420535e-002	 3.5248618019e+000	 1.9269215816e-001
 0.0000000000e+000	 3.5250000000e+000	 1.8672114374e-001
 3.1898325453e-001	 3.5356399256e+000	 1.0354006900e-001
 2.8666249936e-001	 3.5384070726e+000	 1.2455583969e-001
 2.5442613239e-001	 3.5408709865e+000	 1.4290472627e-001
 2.2227784145e-001	 3.5430343720e+000	 1.5821534238e-001
 1.9022124000e-001	 3.5448999816e+000	 1.7027199075e-001
 1.5825986672e-001	 3.5464706138e+000	 1.7901139027e-001
 1.2639718514e-001	 3.5477491106e+000	 1.8451917210e-001
 9.4636583296e-002	 3.5487383557e+000	 1.8702616031e-001
 6.2981373542e-002	 3.5494412725e+000	 1.8690445220e-001
 3.1434792311e-002	 3.5498608218e+000	 1.8466331368e-001
 0.0000000000e+000	 3.5500000000e+000	 1.8094490491e-001
 3.2122961548e-001	 3.5605387983e+000	 8.8163756011e-002
 2.8868124936e-001	 3.5633254323e+000	 1.0943458595e-001
 2.5621786572e-001	 3.5658066977e+000	 1.2837673808e-001
 2.2384317836e-001	 3.5679853183e+000	 1.4454015474e-001
 1.9156082620e-001	 3.5698640660e+000	 1.5763435602e-001
 1.5937437283e-001	 3.5714457590e+000	 1.6752515599e-001
 1.2728730616e-001	 3.5727332592e+000	 1.7423114089e-001
 9.5303038108e-002	 3.5737294709e+000	 1.7791992503e-001
 6.3424904341e-002	 3.5744373378e+000	 1.7890419987e-001
 3.1656164088e-002	 3.5748598416e+000	 1.7763759200e-001
 0.0000000000e+000	 3.5750000000e+000	 1.7471034550e-001
 3.2347597643e-001	 3.5854376710e+000	 8.2610993320e-002
 2.9069999936e-001	 3.5882437919e+000	 1.0351992046e-001
 2.5800959905e-001	 3.5907424089e+000	 1.2234638248e-001
 2.2540851527e-001	 3.5929362646e+000	 1.3856210416e-001
 1.9290041239e-001	 3.5948281504e+000	 1.5180236619e-001
 1.6048887893e-001	 3.5964209041e+000	 1.6186270834e-001
 1.2817742718e-001	 3.5977174079e+000	 1.6869538740e-001
 9.5969492919e-002	 3.5987205860e+000	 1.7240560600e-001
 6.3868435141e-002	 3.5994334031e+000	 1.7324752800e-001
 3.1877535864e-002	 3.5998588615e+000	 1.7162009655e-001
 0.0000000000e+000	 3.6000000000e+000	 1.6806267059e-001
 3.2572233738e-001	 3.6103365437e+000	 8.6528308672e-002
 2.9271874935e-001	 3.6131621516e+000	 1.0649835354e-001
 2.5980133237e-001	 3.6156781200e+000	 1.2454015134e-001
 2.2697385218e-001	 3.6178872109e+000	 1.4004764231e-001
 1.9423999859e-001	 3.6197922348e+000	 1.5258239092e-001
 1.6160338503e-001	 3.6213960493e+000	 1.6187027369e-001
 1.2906754820e-001	 3.6227015566e+000	 1.6779791472e-001
 9.6635947731e-002	 3.6237117012e+000	 1.7040888494e-001
 6.4311965940e-002	 3.6244294683e+000	 1.6989968141e-001
 3.2098907641e-002	 3.6248578814e+000	 1.6661550296e-001
 0.0000000000e+000	 3.6250000000e+000	 1.6104583821e-001
 3.2796869832e-001	 3.6352354164e+000	 9.9568247309e-002
 2.9473749935e-001	 3.6380805113e+000	 1.1806176515e-001
 2.6159306570e-001	 3.6406138312e+000	 1.3468924063e-001
 2.2853918909e-001	 3.6428381571e+000	 1.4876724218e-001
 1.9557958479e-001	 3.6447563192e+000	 1.5978412153e-001
 1.6271789114e-001	 3.6463711945e+000	 1.6739668411e-001
 1.2995766922e-001	 3.6476857052e+000	 1.7142659971e-001
 9.7302402542e-002	 3.6487028164e+000	 1.7185656992e-001
 6.4755496739e-002	 3.6494255336e+000	 1.6882626884e-001
 3.2320279418e-002	 3.6498569012e+000	 1.6262807373e-001
 0.0000000000e+000	 3.6500000000e+000	 1.5370260207e-001
 3.3021505927e-001	 3.6601342892e+000	 1.2138916729e-001
 2.9675624934e-001	 3.6629988709e+000	 1.3790722225e-001
 2.6338479903e-001	 3.6655495424e+000	 1.5252939042e-001
 2.3010452601e-001	 3.6677891034e+000	 1.6449526127e-001
 1.9691917098e-001	 3.6697204035e+000	 1.7322045808e-001
 1.6383239724e-001	 3.6713463396e+000	 1.7829328874e-001
 1.3084779024e-001	 3.6726698539e+000	 1.7947112929e-001
 9.7968857353e-002	 3.6736939316e+000	 1.7667655710e-001
 6.5199027538e-002	 3.6744215989e+000	 1.6999325056e-001
 3.2541651194e-002	 3.6748559211e+000	 1.5966167227e-001
 0.0000000000e+000	 3.6750000000e+000	 1.4607455250e-001
 3.3246142022e-001	 3.6850331619e+000	 1.5165504311e-001
 2.9877499934e-001	 3.6879172306e+000	 1.6573680355e-001
 2.6517653235e-001	 3.6904852536e+000	 1.7780073135e-001
 2.3166986292e-001	 3.6927400497e+000	 1.8700981034e-001
 1.9825875718e-001	 3.6946844879e+000	 1.9270740088e-001
 1.6494690334e-001	 3.6963214848e+000	 1.9441386874e-001
 1.3173791127e-001	 3.6976540026e+000	 1.9182293924e-001
 9.8635312165e-002	 3.6986850468e+000	 1.8479779388e-001
 6.5642558337e-002	 3.6994176642e+000	 1.7336692647e-001
 3.2763022971e-002	 3.6998549410e+000	 1.5771977638e-001
 0.0000000000e+000	 3.7000000000e+000	 1.3820215579e-001
 3.3470778117e-001	 3.7099320346e+000	 1.9003527723e-001
 3.0079374934e-001	 3.7128355903e+000	 2.0125743138e-001
 2.6696826568e-001	 3.7154209647e+000	 2.1024763731e-001
 2.3323519983e-001	 3.7176909960e+000	 2.1609262754e-001
 1.9959834338e-001	 3.7196485723e+000	 2.1806394655e-001
 1.6606140945e-001	 3.7212966300e+000	 2.1561455568e-001
 1.3262803229e-001	 3.7226381512e+000	 2.0837515557e-001
 9.9301766976e-002	 3.7236761619e+000	 1.9615024371e-001
 6.6086089136e-002	 3.7244137295e+000	 1.7891392478e-001
 3.2984394747e-002	 3.7248539609e+000	 1.5680549123e-001
 0.0000000000e+000	 3.7250000000e+000	 1.3012479188e-001
 3.3695414212e-001	 3.7348309073e+000	 2.3620451915e-001
 3.0281249933e-001	 3.7377539499e+000	 2.4418071015e-001
 2.6875999901e-001	 3.7403566759e+000	 2.4961858399e-001
 2.3480053674e-001	 3.7426419423e+000	 2.5152895739e-001
 2.0093792957e-001	 3.7446126567e+000	 2.4911198805e-001
 1.6717591555e-001	 3.7462717751e+000	 2.4175375321e-001
 1.3351815331e-001	 3.7476222999e+000	 2.2902253810e-001
 9.9968221788e-002	 3.7486672771e+000	 2.1066485217e-001
 6.6529619936e-002	 3.7494097948e+000	 1.8660119097e-001
 3.3205766524e-002	 3.7498529807e+000	 1.5692156172e-001
 0.0000000000e+000	 3.7500000000e+000	 1.2188079056e-001
 3.7500000000e+000	 0.0000000000e+000	 1.0080610515e+000
 3.7498529807e+000	 3.3205766524e-002	 9.1815435359e-001
 3.7494097948e+000	 6.6529619936e-002	 8.3851424848e-001
 3.7486672771e+000	 9.9968221788e-002	 7.6995428552e-001
 3.7476222999e+000	 1.3351815331e-001	 7.1293284214e-001
 3.7462717751e+000	 1.6717591555e-001	 6.6754421275e-001
 3.7446126567e+000	 2.0093792957e-001	 6.3351024208e-001
 3.7426419423e+000	 2.3480053674e-001	 6.1017254082e-001
 3.7403566759e+000	 2.6875999901e-001	 5.9648532150e-001
 3.7377539499e+000	 3.0281249933e-001	 5.9100889205e-001
 3.7348309073e+000	 3.3695414212e-001	 5.9190384428e-001
 3.7750000000e+000	 0.0000000000e+000	 9.7547943266e-001
 3.7748520006e+000	 3.3427138301e-002	 9.0020542465e-001
 3.7744058601e+000	 6.6973150735e-002	 8.5777373113e-001
 3.7736583923e+000	 1.0063467660e-001	 8.4307327487e-001
 3.7726064486e+000	 1.3440827433e-001	 8.5113954493e-001
 3.7712469203e+000	 1.6829042165e-001	 8.7716210263e-001
 3.7695767410e+000	 2.0227751577e-001	 9.1649184278e-001
 3.7675928885e+000	 2.3636587365e-001	 9.6464798641e-001
 3.7652923871e+000	 2.7055173233e-001	 1.0173247813e+000
 3.7626723096e+000	 3.0483124933e-001	 1.0703978868e+000
 3.7597297800e+000	 3.3920050307e-001	 1.1199304200e+000
 3.8000000000e+000	 0.0000000000e+000	 9.4089588303e-001
 3.7998510205e+000	 3.3648510077e-002	 8.6781391706e-001
 3.7994019254e+000	 6.7416681534e-002	 8.2560184623e-001
 3.7986495075e+000	 1.0130113141e-001	 8.0920503620e-001
 3.7975905972e+000	 1.3529839535e-001	 8.1372273289e-001
 3.7962220655e+000	 1.6940492775e-001	 8.3441565844e-001
 3.7945408254e+000	 2.0361710197e-001	 8.6671335089e-001
 3.7925438348e+000	 2.3793121056e-001	 9.0622122315e-001
 3.7902280982e+000	 2.7234346566e-001	 9.4872731725e-001
 3.7875906693e+000	 3.0684999932e-001	 9.9020872967e-001
 3.7846286527e+000	 3.4144686401e-001	 1.0268376840e+000
 3.8250000000e+000	 0.0000000000e+000	 9.0475236339e-001
 3.8248500403e+000	 3.3869881854e-002	 8.3569061317e-001
 3.8243979907e+000	 6.7860212333e-002	 7.9543563810e-001
 3.8236406227e+000	 1.0196758622e-001	 7.7898889847e-001
 3.8225747459e+000	 1.3618851637e-001	 7.8151316351e-001
 3.8211972106e+000	 1.7051943386e-001	 7.9834019978e-001
 3.8195049098e+000	 2.0495668816e-001	 8.2497819137e-001
 3.8174947811e+000	 2.3949654747e-001	 8.5711886733e-001
 3.8151638094e+000	 2.7413519899e-001	 8.9064431145e-001
 3.8125090289e+000	 3.0886874932e-001	 9.2163342978e-001
 3.8095275254e+000	 3.4369322496e-001	 9.4636805144e-001
 3.8500000000e+000	 0.0000000000e+000	 8.6747935496e-001
 3.8498490602e+000	 3.4091253630e-002	 8.0419261997e-001
 3.8493940560e+000	 6.8303743132e-002	 7.6755787914e-001
 3.8486317379e+000	 1.0263404103e-001	 7.5263236520e-001
 3.8475588946e+000	 1.3707863739e-001	 7.5464216469e-001
 3.8461723558e+000	 1.7163393996e-001	 7.6899000102e-001
 3.8444689942e+000	 2.0629627436e-001	 7.9126273757e-001
 3.8424457274e+000	 2.4106188438e-001	 8.1723857553e-001
 3.8400995206e+000	 2.7592693231e-001	 8.4289392116e-001
 3.8374273886e+000	 3.1088749931e-001	 8.6440989715e-001
 3.8344263981e+000	 3.4593958591e-001	 8.7817847331e-001
 3.8750000000e+000	 0.0000000000e+000	 8.2949622980e-001
 3.8748480801e+000	 3.4312625407e-002	 7.7366696697e-001
 3.8743901213e+000	 6.8747273931e-002	 7.4224229460e-001
 3.8736228530e+000	 1.0330049584e-001	 7.3033492136e-001
 3.8725430432e+000	 1.3796875842e-001	 7.3323407214e-001
 3.8711475010e+000	 1.7274844606e-001	 7.4641336820e-001
 3.8694330785e+000	 2.0763586056e-001	 7.6553841530e-001
 3.8673966737e+000	 2.4262722129e-001	 7.8647407414e-001
 3.8650352318e+000	 2.7771866564e-001	 8.0529138690e-001
 3.8623457483e+000	 3.1290624931e-001	 8.1827413426e-001
 3.8593252709e+000	 3.4818594685e-001	 8.2192499741e-001
 3.9000000000e+000	 0.0000000000e+000	 7.9121160681e-001
 3.8998471000e+000	 3.4533997183e-002	 7.4445092918e-001
 3.8993861866e+000	 6.9190804730e-002	 7.1975385256e-001
 3.8986139682e+000	 1.0396695066e-001	 7.1228829034e-001
 3.8975271919e+000	 1.3885887944e-001	 7.1740645351e-001
 3.8961226461e+000	 1.7386295217e-001	 7.3065283023e-001
 3.8943971629e+000	 2.0897544675e-001	 7.4777186132e-001
 3.8923476199e+000	 2.4419255820e-001	 7.6471528525e-001
 3.8899709429e+000	 2.7951039896e-001	 7.7764912593e-001
 3.8872641079e+000	 3.1492499930e-001	 7.8296029714e-001
 3.8842241436e+000	 3.5043230780e-001	 7.7726279732e-001
 3.9250000000e+000	 0.0000000000e+000	 7.5302369423e-001
 3.9248461198e+000	 3.4755368960e-002	 7.1687233778e-001
 3.9243822519e+000	 6.9634335529e-002	 7.0034904282e-001
 3.9236050834e+000	 1.0463340547e-001	 6.9867668116e-001
 3.9225113406e+000	 1.3974900046e-001	 7.0727032392e-001
 3.9210977913e+000	 1.7497745827e-001	 7.2174532296e-001
 3.9193612473e+000	 2.1031503295e-001	 7.3792507592e-001
 3.9172985662e+000	 2.4575789511e-001	 7.5184844784e-001
 3.9149066541e+000	 2.8130213229e-001	 7.5977682216e-001
 3.9121824676e+000	 3.1694374929e-001	 7.5820075419e-001
 3.9091230163e+000	 3.5267866874e-001	 7.4384620032e-001
 3.9500000000e+000	 0.0000000000e+000	 7.1532061907e-001
 3.9498451397e+000	 3.4976740737e-002	 6.9124987896e-001
 3.9493783172e+000	 7.0077866328e-002	 6.8427614520e-001
 3.9485961986e+000	 1.0529986028e-001	 6.8967702623e-001
 3.9474954892e+000	 1.4063912148e-001	 7.0293035332e-001
 3.9460729365e+000	 1.7609196437e-001	 7.1972236613e-001
 3.9443253317e+000	 2.1165461914e-001	 7.3595556961e-001
 3.9422495125e+000	 2.4732323202e-001	 7.4775623435e-001
 3.9398423653e+000	 2.8309386561e-001	 7.5148151265e-001
 3.9371008273e+000	 3.1896249929e-001	 7.4372614276e-001
 3.9340218890e+000	 3.5492502969e-001	 7.2132871408e-001
 3.9750000000e+000	 0.0000000000e+000	 6.7848074417e-001
 3.9748441596e+000	 3.5198112513e-002	 6.6789338153e-001
 3.9743743825e+000	 7.0521397127e-002	 6.7177548769e-001
 3.9735873138e+000	 1.0596631509e-001	 6.8545921021e-001
 3.9724796379e+000	 1.4152924250e-001	 7.0448506601e-001
 3.9710480817e+000	 1.7720647047e-001	 7.2461023367e-001
 3.9692894161e+000	 2.1299420534e-001	 7.4181650431e-001
 3.9672004588e+000	 2.4888856893e-001	 7.5231786281e-001
 3.9647780764e+000	 2.8488559894e-001	 7.5256767081e-001
 3.9620191869e+000	 3.2098124928e-001	 7.3926542356e-001
 3.9589207617e+000	 3.5717139063e-001	 7.0936305251e-001
 4.0000000000e+000	 0.0000000000e+000	 6.4287297325e-001
 3.9998431794e+000	 3.5419484290e-002	 6.4710409364e-001
 3.9993704478e+000	 7.0964927926e-002	 6.6307969500e-001
 3.9985784289e+000	 1.0663276990e-001	 6.8618629024e-001
 3.9974637866e+000	 1.4241936352e-001	 7.1202703274e-001
 3.9960232268e+000	 1.7832097657e-001	 7.3643011769e-001
 3.9942535004e+000	 2.1433379153e-001	 7.5545682927e-001
 3.9921514051e+000	 2.5045390584e-001	 7.6540920478e-001
 3.9897137876e+000	 2.8667733226e-001	 7.6283728658e-001
 3.9869375466e+000	 3.2299999927e-001	 7.4454593309e-001
 3.9838196344e+000	 3.5941775158e-001	 7.0760116052e-001
 3.7348309073e+000	 3.3695414212e-001	 5.9190384428e-001
 3.7315847437e+000	 3.7118095373e-001	 6.0359947580e-001
 3.7280127100e+000	 4.0548888310e-001	 6.0451342795e-001
 3.7241121140e+000	 4.3987380232e-001	 5.9169436753e-001
 3.7198803235e+000	 4.7433150743e-001	 5.6178942895e-001
 3.7153147675e+000	 5.0885771918e-001	 5.1104259507e-001
 3.7104129393e+000	 5.4344808385e-001	 4.3529396597e-001
 3.7051723983e+000	 5.7809817425e-001	 3.2997994514e-001
 3.6995907722e+000	 6.1280349065e-001	 1.9013437088e-001
 3.6936657595e+000	 6.4755946190e-001	 3.7831157518e-001
 3.6873951316e+000	 6.8236144655e-001	 6.8890948842e-001
 3.7597297800e+000	 3.3920050307e-001	 1.1199304200e+000
 3.7564619753e+000	 3.7365549343e-001	 1.1761453635e+000
 3.7528661280e+000	 4.0819214232e-001	 1.2128691445e+000
 3.7489395281e+000	 4.4280629434e-001	 1.1960841395e+000
 3.7446795256e+000	 4.7749371748e-001	 1.0789566302e+000
 3.7400835326e+000	 5.1225010397e-001	 9.5179983045e-001
 3.7351490256e+000	 5.4707107108e-001	 8.1043743154e-001
 3.7298735476e+000	 5.8195216208e-001	 6.5027434713e-001
 3.7242547107e+000	 6.1688884725e-001	 4.6629768487e-001
 3.7182901979e+000	 6.5187652498e-001	 6.5214177315e-001
 3.7119777658e+000	 6.8691052287e-001	 8.8724197449e-001
 3.7846286527e+000	 3.4144686401e-001	 1.0268376840e+000
 3.7813392070e+000	 3.7613003312e-001	 1.0756061192e+000
 3.7777195461e+000	 4.1089540154e-001	 1.1073575784e+000
 3.7737669422e+000	 4.4573878635e-001	 1.1190136035e+000
 3.7694787278e+000	 4.8065592754e-001	 1.1077191704e+000
 3.7648522977e+000	 5.1564248877e-001	 1.0708467030e+000
 3.7598851118e+000	 5.5069405831e-001	 1.0059995930e+000
 3.7545746969e+000	 5.8580614991e-001	 9.1101520250e-001
 3.7489186492e+000	 6.2097420386e-001	 7.6716478990e-001
 3.7429146363e+000	 6.5619358806e-001	 9.3924454748e-001
 3.7365604000e+000	 6.9145959918e-001	 1.0985780209e+000
 3.8095275254e+000	 3.4369322496e-001	 9.4636805144e-001
 3.8062164386e+000	 3.7860457281e-001	 9.8798121485e-001
 3.8025729642e+000	 4.1359866076e-001	 1.0149146035e+000
 3.7985943563e+000	 4.4867127837e-001	 1.0242308565e+000
 3.7942779299e+000	 4.8381813759e-001	 1.0132209660e+000
 3.7896210628e+000	 5.1903487357e-001	 9.7940817597e-001
 3.7846211981e+000	 5.5431704553e-001	 9.2055137001e-001
 3.7792758462e+000	 5.8966013774e-001	 8.3464792893e-001
 3.7735825876e+000	 6.2505956047e-001	 7.2067668897e-001
 3.7675390747e+000	 6.6051065114e-001	 9.9214706266e-001
 3.7611430342e+000	 6.9600867549e-001	 1.1840026876e+000
 3.8344263981e+000	 3.4593958591e-001	 8.7817847331e-001
 3.8310936702e+000	 3.8107911250e-001	 9.1285821096e-001
 3.8274263822e+000	 4.1630191998e-001	 9.3505869393e-001
 3.8234217704e+000	 4.5160377038e-001	 9.4198438430e-001
 3.8190771321e+000	 4.8698034763e-001	 9.3107317261e-001
 3.8143898280e+000	 5.2242725836e-001	 9.0000016142e-001
 3.8093572843e+000	 5.5794003276e-001	 8.4668092342e-001
 3.8039769955e+000	 5.9351412557e-001	 7.6927421339e-001
 3.7982465261e+000	 6.2914491707e-001	 7.1165122063e-001
 3.7921635131e+000	 6.6482771422e-001	 9.4648735890e-001
 3.7857256684e+000	 7.0055775180e-001	 1.1062145775e+000
 3.8593252709e+000	 3.4818594685e-001	 8.2192499741e-001
 3.8559709018e+000	 3.8355365219e-001	 8.4982444835e-001
 3.8522798003e+000	 4.1900517920e-001	 8.6730875737e-001
 3.8482491845e+000	 4.5453626240e-001	 8.7172497916e-001
 3.8438763342e+000	 4.9014255768e-001	 8.6065882909e-001
 3.8391585931e+000	 5.2581964315e-001	 8.3193835288e-001
 3.8340933706e+000	 5.6156301998e-001	 7.8363705557e-001
 3.8286781449e+000	 5.9736811339e-001	 7.1407646858e-001
 3.8229104646e+000	 6.3323027367e-001	 7.0065985317e-001
 3.8167879515e+000	 6.6914477730e-001	 9.0015707301e-001
 3.8103083026e+000	 7.0510682811e-001	 1.0289604567e+000
 3.8842241436e+000	 3.5043230780e-001	 7.7726279732e-001
 3.8808481335e+000	 3.8602819188e-001	 7.9846705502e-001
 3.8771332183e+000	 4.2170843842e-001	 8.1118412119e-001
 3.8730765986e+000	 4.5746875441e-001	 8.1290445596e-001
 3.8686755364e+000	 4.9330476773e-001	 8.0136257014e-001
 3.8639273582e+000	 5.2921202794e-001	 7.7454058218e-001
 3.8588294569e+000	 5.6518600721e-001	 7.3067121865e-001
 3.8533792942e+000	 6.0122210122e-001	 6.6824023709e-001
 3.8475744031e+000	 6.3731563028e-001	 6.8773970627e-001
 3.8414123899e+000	 6.7346184038e-001	 8.5318478050e-001
 3.8348909368e+000	 7.0965590442e-001	 9.5226131115e-001
 3.9091230163e+000	 3.5267866874e-001	 7.4384620032e-001
 3.9057253651e+000	 3.8850273157e-001	 7.5837295295e-001
 3.9019866364e+000	 4.2441169764e-001	 7.6620451908e-001
 3.8979040127e+000	 4.6040124642e-001	 7.6497561971e-001
 3.8934747386e+000	 4.9646697778e-001	 7.5257057540e-001
 3.8886961233e+000	 5.3260441274e-001	 7.2712675135e-001
 3.8835655431e+000	 5.6880899443e-001	 6.8703743033e-001
 3.8780804435e+000	 6.0507608904e-001	 6.3095409172e-001
 3.8722383416e+000	 6.4140098688e-001	 6.7293136363e-001
 3.8660368283e+000	 6.7777890346e-001	 8.0560292318e-001
 3.8594735710e+000	 7.1420498073e-001	 8.7614236345e-001
 3.9340218890e+000	 3.5492502969e-001	 7.2132871408e-001
 3.9306025967e+000	 3.9097727126e-001	 7.2912886462e-001
 3.9268400545e+000	 4.2711495685e-001	 7.3189007816e-001
 3.9227314268e+000	 4.6333373843e-001	 7.2739223427e-001
 3.9182739407e+000	 4.9962918782e-001	 7.1367052056e-001
 3.9134648884e+000	 5.3599679753e-001	 6.8901876713e-001
 3.9083016294e+000	 5.7243198165e-001	 6.5199219251e-001
 3.9027815928e+000	 6.0893007687e-001	 6.0140953955e-001
 3.8969022800e+000	 6.4548634348e-001	 6.5627876326e-001
 3.8906612667e+000	 6.8209596653e-001	 7.5744768681e-001
 3.8840562052e+000	 7.1875405704e-001	 8.0063293893e-001
 3.9589207617e+000	 3.5717139063e-001	 7.0936305251e-001
 3.9554798283e+000	 3.9345181095e-001	 7.1032131929e-001
 3.9516934725e+000	 4.2981821607e-001	 7.0776130669e-001
 3.9475588409e+000	 4.6626623045e-001	 6.9960899212e-001
 3.9430731429e+000	 5.0279139787e-001	 6.8405153031e-001
 3.9382336535e+000	 5.3938918232e-001	 6.5954047789e-001
 3.9330377156e+000	 5.7605496887e-001	 6.2479441328e-001
 3.9274827422e+000	 6.1278406469e-001	 5.7880092973e-001
 3.9215662185e+000	 6.4957170008e-001	 6.3782909206e-001
 3.9152857051e+000	 6.8641302961e-001	 7.0875888336e-001
 3.9086388394e+000	 7.2330313334e-001	 7.2576633659e-001
 3.9838196344e+000	 3.5941775158e-001	 7.0760116052e-001
 3.9803570600e+000	 3.9592635063e-001	 7.0153665904e-001
 3.9765468906e+000	 4.3252147529e-001	 6.9333908208e-001
 3.9723862550e+000	 4.6919872246e-001	 6.8108148541e-001
 3.9678723450e+000	 5.0595360791e-001	 6.6310413306e-001
 3.9630024187e+000	 5.4278156711e-001	 6.3801761301e-001
 3.9577738019e+000	 5.7967795609e-001	 6.0470533167e-001
 3.9521838915e+000	 6.1663805252e-001	 5.6232536461e-001
 3.9462301570e+000	 6.5365705668e-001	 6.1763268425e-001
 3.9399101435e+000	 6.9073009268e-001	 6.5957983770e-001
 3.9332214737e+000	 7.2785220965e-001	 6.5157970485e-001
 3.6873951316e+000	 6.8236144655e-001	 6.8890948842e-001
 3.6807767345e+000	 7.1720473409e-001	 6.2150152869e-001
 3.6738084919e+000	 7.5208454618e-001	 5.5996271808e-001
 3.6664884066e+000	 7.8699603810e-001	 5.0477480532e-001
 3.6588145630e+000	 8.2193430012e-001	 4.5628648632e-001
 3.6507851289e+000	 8.5689435901e-001	 4.1470839327e-001
 3.6423983581e+000	 8.9187117966e-001	 3.8010826229e-001
 3.6336525918e+000	 9.2685966671e-001	 3.5240629742e-001
 3.6245462614e+000	 9.6185466627e-001	 3.3137074836e-001
 3.6150778896e+000	 9.9685096773e-001	 3.1661371949e-001
 3.6052460932e+000	 1.0318433056e+000	 3.0758722761e-001
 3.7119777658e+000	 6.8691052287e-001	 8.8724197449e-001
 3.7053152461e+000	 7.2198609898e-001	 7.8658280338e-001
 3.6983005485e+000	 7.5709844316e-001	 6.9558439105e-001
 3.6909316627e+000	 7.9224267836e-001	 6.1475343522e-001
 3.6832066601e+000	 8.2741386212e-001	 5.4445818626e-001
 3.6751236964e+000	 8.6260698807e-001	 4.8492327607e-001
 3.6666810138e+000	 8.9781698753e-001	 4.3622473123e-001
 3.6578769425e+000	 9.3303873116e-001	 3.9828518871e-001
 3.6487099031e+000	 9.6826703071e-001	 3.7086933212e-001
 3.6391784089e+000	 1.0034966409e+000	 3.5357956649e-001
 3.6292810672e+000	 1.0387222610e+000	 3.4585194949e-001
 3.7365604000e+000	 6.9145959918e-001	 1.0985780209e+000
 3.7298537576e+000	 7.2676746388e-001	 9.6298740850e-001
 3.7227926051e+000	 7.6211234014e-001	 8.4087649162e-001
 3.7153749187e+000	 7.9748931862e-001	 7.3277794437e-001
 3.7075987571e+000	 8.3289342413e-001	 6.3908055438e-001
 3.6994622640e+000	 8.6831961714e-001	 5.6002388904e-001
 3.6909636695e+000	 9.0376279540e-001	 4.9569315196e-001
 3.6821012931e+000	 9.3921779561e-001	 4.4601424821e-001
 3.6728735449e+000	 9.7467939516e-001	 4.1074907696e-001
 3.6632789282e+000	 1.0101423140e+000	 3.8949106988e-001
 3.6533160411e+000	 1.0456012164e+000	 3.8166099385e-001
 3.7611430342e+000	 6.9600867549e-001	 1.1840026876e+000
 3.7543922692e+000	 7.3154882878e-001	 1.1025266394e+000
 3.7472846618e+000	 7.6712623712e-001	 9.9533779778e-001
 3.7398181748e+000	 8.0273595887e-001	 8.5835028460e-001
 3.7319908542e+000	 8.3837298613e-001	 7.3965971149e-001
 3.7238008315e+000	 8.7403224620e-001	 6.3952152383e-001
 3.7152463252e+000	 9.0970860326e-001	 5.5803099474e-001
 3.7063256437e+000	 9.4539686005e-001	 4.9511813768e-001
 3.6970371866e+000	 9.8109175960e-001	 4.5054285324e-001
 3.6873794474e+000	 1.0167879871e+000	 4.2389032917e-001
 3.6773510151e+000	 1.0524801718e+000	 4.1456671243e-001
 3.7857256684e+000	 7.0055775180e-001	 1.1062145775e+000
 3.7789307808e+000	 7.3633019367e-001	 1.0278441848e+000
 3.7717767184e+000	 7.7214013409e-001	 9.5022123568e-001
 3.7642614308e+000	 8.0798259913e-001	 8.7446008183e-001
 3.7563829513e+000	 8.4385254813e-001	 8.0178470339e-001
 3.7481393990e+000	 8.7974487526e-001	 7.2293034599e-001
 3.7395289810e+000	 9.1565441113e-001	 6.2275820860e-001
 3.7305499943e+000	 9.5157592450e-001	 5.4512359077e-001
 3.7212008284e+000	 9.8750412404e-001	 4.8978518477e-001
 3.7114799667e+000	 1.0234336602e+000	 4.5632066728e-001
 3.7013859890e+000	 1.0593591271e+000	 4.4412223886e-001
 3.8103083026e+000	 7.0510682811e-001	 1.0289604567e+000
 3.8034692923e+000	 7.4111155856e-001	 9.5349676485e-001
 3.7962687750e+000	 7.7715403107e-001	 8.7969289470e-001
 3.7887046868e+000	 8.1322923938e-001	 8.0864710168e-001
 3.7807750484e+000	 8.4933211013e-001	 7.4156799470e-001
 3.7724779665e+000	 8.8545750432e-001	 6.7977683419e-001
 3.7638116367e+000	 9.2160021899e-001	 6.2470966247e-001
 3.7547743449e+000	 9.5775498894e-001	 5.7791925551e-001
 3.7453644701e+000	 9.9391648849e-001	 5.2801219543e-001
 3.7355804860e+000	 1.0300793333e+000	 4.8632659104e-001
 3.7254209630e+000	 1.0662380825e+000	 4.6988146347e-001
 3.8348909368e+000	 7.0965590442e-001	 9.5226131115e-001
 3.8280078039e+000	 7.4589292346e-001	 8.7952396054e-001
 3.8207608316e+000	 7.8216792804e-001	 8.0931007818e-001
 3.8131479429e+000	 8.1847587964e-001	 7.4270145384e-001
 3.8051671455e+000	 8.5481167213e-001	 6.8089100505e-001
 3.7968165341e+000	 8.9117013338e-001	 6.2518513215e-001
 3.7880942924e+000	 9.2754602686e-001	 5.7700590429e-001
 3.7789986955e+000	 9.6393405339e-001	 5.3789306537e-001
 3.7695281119e+000	 1.0003288529e+000	 5.0950584852e-001
 3.7596810052e+000	 1.0367250065e+000	 4.9362458829e-001
 3.7494559369e+000	 1.0731170379e+000	 4.9139900904e-001
 3.8594735710e+000	 7.1420498073e-001	 8.7614236345e-001
 3.8525463155e+000	 7.5067428835e-001	 8.0596928498e-001
 3.8452528882e+000	 7.8718182501e-001	 7.3913469697e-001
 3.8375911989e+000	 8.2372251989e-001	 6.7670354693e-001
 3.8295592426e+000	 8.6029123413e-001	 6.1985273388e-001
 3.8211551016e+000	 8.9688276244e-001	 5.6987352195e-001
 3.8123769481e+000	 9.3349183472e-001	 5.2817378347e-001
 3.8032230461e+000	 9.7011311783e-001	 4.9628006053e-001
 3.7936917536e+000	 1.0067412174e+000	 4.7583943329e-001
 3.7837815245e+000	 1.0433706796e+000	 4.6862118409e-001
 3.7734909109e+000	 1.0799959932e+000	 4.7651824623e-001
 3.8840562052e+000	 7.1875405704e-001	 8.0063293893e-001
 3.8770848270e+000	 7.5545565324e-001	 7.3288005923e-001
 3.8697449448e+000	 7.9219572198e-001	 6.6923216449e-001
 3.8620344550e+000	 8.2896916014e-001	 6.1073697634e-001
 3.8539513397e+000	 8.6577079613e-001	 5.5855504116e-001
 3.8454936691e+000	 9.0259539150e-001	 5.1396220374e-001
 3.8366596038e+000	 9.3943764258e-001	 4.7835190902e-001
 3.8274473967e+000	 9.7629218228e-001	 4.5323732063e-001
 3.8178553953e+000	 1.0131535818e+000	 4.4025324448e-001
 3.8078820438e+000	 1.0500163527e+000	 4.4115784601e-001
 3.7975258849e+000	 1.0868749486e+000	 4.5783415005e-001
 3.9086388394e+000	 7.2330313334e-001	 7.2576633659e-001
 3.9016233386e+000	 7.6023701813e-001	 6.6030729250e-001
 3.8942370014e+000	 7.9720961895e-001	 5.9967128662e-001
 3.8864777110e+000	 8.3421580039e-001	 5.4488842404e-001
 3.8783434368e+000	 8.7125035813e-001	 4.9710255742e-001
 3.8698322366e+000	 9.0830802055e-001	 4.5757382216e-001
 3.8609422596e+000	 9.4538345045e-001	 4.2768099833e-001
 3.8516717474e+000	 9.8247124672e-001	 4.0892368764e-001
 3.8420190371e+000	 1.0195659463e+000	 4.0292429365e-001
 3.8319825630e+000	 1.0566620258e+000	 4.1142979359e-001
 3.8215608588e+000	 1.0937539040e+000	 4.3631329041e-001
 3.9332214737e+000	 7.2785220965e-001	 6.5157970485e-001
 3.9261618501e+000	 7.6501838302e-001	 5.8830556689e-001
 3.9187290581e+000	 8.0222351592e-001	 5.3052415565e-001
 3.9109209671e+000	 8.3946244064e-001	 4.7924756212e-001
 3.9027355338e+000	 8.7672992013e-001	 4.3560259719e-001
 3.8941708042e+000	 9.1402064961e-001	 4.0083338995e-001
 3.8852249153e+000	 9.5132925831e-001	 3.7630381128e-001
 3.8758960980e+000	 9.8865031116e-001	 3.6349971076e-001
 3.8661826788e+000	 1.0259783107e+000	 3.6403095481e-001
 3.8560830823e+000	 1.0633076989e+000	 3.7963325443e-001
 3.8455958328e+000	 1.1006328594e+000	 4.1216977081e-001
 3.6052460932e+000	 1.0318433056e+000	 3.0758722761e-001
 3.5950495844e+000	 1.0668263616e+000	 3.0571126890e-001
 3.5844871729e+000	 1.1017947664e+000	 3.0911155055e-001
 3.5735577679e+000	 1.1367431019e+000	 3.1622846991e-001
 3.5622603795e+000	 1.1716659033e+000	 3.2532065306e-001
 3.5505941207e+000	 1.2065576614e+000	 3.3446288961e-001
 3.5385582090e+000	 1.2414128249e+000	 3.4154443194e-001
 3.5261519680e+000	 1.2762258024e+000	 3.0540373752e-001
 3.5133748290e+000	 1.3109909654e+000	 2.3933622647e-001
 3.5002263323e+000	 1.3457026502e+000	 1.5381483979e-001
 3.4867061290e+000	 1.3803551609e+000	 4.8195258443e-002
 3.6292810672e+000	 1.0387222610e+000	 3.4585194949e-001
 3.6190165816e+000	 1.0739385374e+000	 3.3665535526e-001
 3.6083837541e+000	 1.1091400648e+000	 3.3499797806e-001
 3.5973814863e+000	 1.1443213892e+000	 3.3930303253e-001
 3.5860087820e+000	 1.1794770093e+000	 3.4780689601e-001
 3.5742647481e+000	 1.2146013792e+000	 3.5855696928e-001
 3.5621485970e+000	 1.2496889104e+000	 3.6940991030e-001
 3.5496596478e+000	 1.2847339744e+000	 3.2387195947e-001
 3.5367973278e+000	 1.3197309052e+000	 2.5942221775e-001
 3.5235611745e+000	 1.3546740012e+000	 1.7580228924e-001
 3.5099508365e+000	 1.3895575286e+000	 7.2318586625e-002
 3.6533160411e+000	 1.0456012164e+000	 3.8166099385e-001
 3.6429835788e+000	 1.0810507131e+000	 3.6446147807e-001
 3.6322803352e+000	 1.1164853633e+000	 3.5712083851e-001
 3.6212052048e+000	 1.1518996766e+000	 3.5804543968e-001
 3.6097571845e+000	 1.1872881153e+000	 3.6544966333e-001
 3.5979353756e+000	 1.2226450969e+000	 3.7735369350e-001
 3.5857389851e+000	 1.2579649959e+000	 3.8071965990e-001
 3.5731673276e+000	 1.2932421464e+000	 3.3636812312e-001
 3.5602198267e+000	 1.3284708449e+000	 2.7385876257e-001
 3.5468960167e+000	 1.3636453522e+000	 1.9246574193e-001
 3.5331955441e+000	 1.3987598963e+000	 9.1445300153e-002
 3.6773510151e+000	 1.0524801718e+000	 4.1456671243e-001
 3.6669505761e+000	 1.0881628888e+000	 3.8867984894e-001
 3.6561769164e+000	 1.1238306617e+000	 3.7502881005e-001
 3.6450289232e+000	 1.1594779639e+000	 3.7200344551e-001
 3.6335055871e+000	 1.1950992213e+000	 3.7779639675e-001
 3.6216060031e+000	 1.2306888146e+000	 3.9040080452e-001
 3.6093293732e+000	 1.2662410814e+000	 3.8566727435e-001
 3.5966750074e+000	 1.3017503184e+000	 3.4325486494e-001
 3.5836423255e+000	 1.3372107847e+000	 2.8302411419e-001
 3.5702308590e+000	 1.3726167032e+000	 2.0419904520e-001
 3.5564402516e+000	 1.4079622641e+000	 1.0598480546e-001
 3.7013859890e+000	 1.0593591271e+000	 4.4412223886e-001
 3.6909175733e+000	 1.0952750646e+000	 4.0886135705e-001
 3.6800734975e+000	 1.1311759602e+000	 3.8827114376e-001
 3.6688526417e+000	 1.1670562512e+000	 3.8072527210e-001
 3.6572539896e+000	 1.2029103274e+000	 3.8439490061e-001
 3.6452766306e+000	 1.2387325324e+000	 3.9724630173e-001
 3.6329197612e+000	 1.2745171669e+000	 3.8501811826e-001
 3.6201826871e+000	 1.3102584905e+000	 3.4489486712e-001
 3.6070648244e+000	 1.3459507245e+000	 2.8729646570e-001
 3.5935657012e+000	 1.3815880542e+000	 2.1139588030e-001
 3.5796849591e+000	 1.4171646318e+000	 1.1634623700e-001
 3.7254209630e+000	 1.0662380825e+000	 4.6988146347e-001
 3.7148845705e+000	 1.1023872403e+000	 4.2455754733e-001
 3.7039700787e+000	 1.1385212586e+000	 3.9639764510e-001
 3.6926763602e+000	 1.1746345386e+000	 3.8375959433e-001
 3.6810023921e+000	 1.2107214334e+000	 3.8479333023e-001
 3.6689472580e+000	 1.2467762501e+000	 3.9743843340e-001
 3.6565101493e+000	 1.2827932524e+000	 3.7911949897e-001
 3.6436903669e+000	 1.3187666625e+000	 3.4165085612e-001
 3.6304873233e+000	 1.3546906642e+000	 2.8705395198e-001
 3.6169005434e+000	 1.3905594052e+000	 2.1444976779e-001
 3.6029296666e+000	 1.4263669996e+000	 1.2293846602e-001
 3.7494559369e+000	 1.0731170379e+000	 4.9139900904e-001
 3.7388515678e+000	 1.1094994161e+000	 4.3532059939e-001
 3.7278666598e+000	 1.1458665570e+000	 3.9895865622e-001
 3.7165000786e+000	 1.1822128259e+000	 3.8065552539e-001
 3.7047507947e+000	 1.2185325394e+000	 3.7854018062e-001
 3.6926178855e+000	 1.2548199679e+000	 3.8688154091e-001
 3.6801005373e+000	 1.2910693379e+000	 3.6831886570e-001
 3.6671980467e+000	 1.3272748345e+000	 3.3388560118e-001
 3.6539098221e+000	 1.3634306040e+000	 2.8267465156e-001
 3.6402353856e+000	 1.3995307562e+000	 2.1375407266e-001
 3.6261743742e+000	 1.4355693673e+000	 1.2617010901e-001
 3.7734909109e+000	 1.0799959932e+000	 4.7651824623e-001
 3.7628185650e+000	 1.1166115918e+000	 4.3059067969e-001
 3.7517632410e+000	 1.1532118555e+000	 3.9488813176e-001
 3.7403237971e+000	 1.1897911133e+000	 3.7096260280e-001
 3.7284991972e+000	 1.2263436454e+000	 3.6518427566e-001
 3.7162885130e+000	 1.2628636856e+000	 3.6850214157e-001
 3.7036909254e+000	 1.2993454234e+000	 3.5296380508e-001
 3.6907057265e+000	 1.3357830065e+000	 3.2196191304e-001
 3.6773323210e+000	 1.3721705438e+000	 2.7453658841e-001
 3.6635702278e+000	 1.4085021072e+000	 2.0970200927e-001
 3.6494190817e+000	 1.4447717350e+000	 1.2644953579e-001
 3.7975258849e+000	 1.0868749486e+000	 4.5783415005e-001
 3.7867855622e+000	 1.1237237676e+000	 4.1342471371e-001
 3.7756598221e+000	 1.1605571539e+000	 3.7850427918e-001
 3.7641475155e+000	 1.1973694006e+000	 3.5496842947e-001
 3.7522475997e+000	 1.2341547515e+000	 3.4484499072e-001
 3.7399591404e+000	 1.2709074034e+000	 3.4550952328e-001
 3.7272813135e+000	 1.3076215089e+000	 3.3340203681e-001
 3.7142134063e+000	 1.3442911785e+000	 3.0624264258e-001
 3.7007548198e+000	 1.3809104835e+000	 2.6301773366e-001
 3.6869050700e+000	 1.4174734582e+000	 2.0268664616e-001
 3.6726637892e+000	 1.4539741028e+000	 1.2418487736e-001
 3.8215608588e+000	 1.0937539040e+000	 4.3631329041e-001
 3.8107525595e+000	 1.1308359433e+000	 3.9339717295e-001
 3.7995564033e+000	 1.1679024524e+000	 3.5920273669e-001
 3.7879712340e+000	 1.2049476880e+000	 3.3563682748e-001
 3.7759960022e+000	 1.2419658575e+000	 3.2474148759e-001
 3.7636297679e+000	 1.2789511211e+000	 3.2431148291e-001
 3.7508717015e+000	 1.3158975944e+000	 3.1041548485e-001
 3.7377210861e+000	 1.3527993506e+000	 2.8709067954e-001
 3.7241773187e+000	 1.3896504233e+000	 2.4849600728e-001
 3.7102399122e+000	 1.4264448092e+000	 1.9310091061e-001
 3.6959084967e+000	 1.4631764705e+000	 1.1978403334e-001
 3.8455958328e+000	 1.1006328594e+000	 4.1216977081e-001
 3.8347195567e+000	 1.1379481191e+000	 3.7072885348e-001
 3.8234529844e+000	 1.1752477508e+000	 3.3721065287e-001
 3.8117949524e+000	 1.2125259753e+000	 3.1353330914e-001
 3.7997444048e+000	 1.2497769635e+000	 3.0175316212e-001
 3.7873003954e+000	 1.2869948389e+000	 3.0712468682e-001
 3.7744620896e+000	 1.3241736799e+000	 2.9719989256e-001
 3.7612287659e+000	 1.3613075226e+000	 2.7156875513e-001
 3.7475998176e+000	 1.3983903631e+000	 2.3134927968e-001
 3.7335747544e+000	 1.4354161602e+000	 1.8133759306e-001
 3.7191532043e+000	 1.4723788383e+000	 1.1365467929e-001
 3.4867061290e+000	 1.3803551609e+000	 4.8195258443e-002
 3.4728139820e+000	 1.4149427715e+000	 2.8941043399e-002
 3.4585497675e+000	 1.4494597290e+000	 1.5571392912e-002
 3.4439134760e+000	 1.4839002560e+000	 7.2219549735e-003
 3.4289052139e+000	 1.5182585531e+000	 2.9969430583e-003
 3.4135252041e+000	 1.5525288020e+000	 1.9719848368e-003
 3.3977737871e+000	 1.5867051686e+000	 3.1970729524e-003
 3.3816514220e+000	 1.6207818052e+000	 5.6996109301e-003
 3.3651586875e+000	 1.6547528541e+000	 8.4875468697e-003
 3.3482962822e+000	 1.6886124501e+000	 1.0552587174e-002
 3.3310650256e+000	 1.7223547240e+000	 1.0873482188e-002
 3.5099508365e+000	 1.3895575286e+000	 7.2318586625e-002
 3.4959660752e+000	 1.4243757233e+000	 4.8649006425e-002
 3.4816067659e+000	 1.4591227939e+000	 3.0673849441e-002
 3.4668728992e+000	 1.4937929244e+000	 1.7499608243e-002
 3.4517645820e+000	 1.5283802767e+000	 8.2012157639e-003
 3.4362820388e+000	 1.5628789940e+000	 1.8249722846e-003
 3.4204256123e+000	 1.5972832030e+000	-2.6084239162e-003
 3.4041957648e+000	 1.6315870172e+000	-6.1007493624e-003
 3.3875930787e+000	 1.6657845398e+000	-9.6730391684e-003
 3.3706182574e+000	 1.6998698665e+000	-1.4362289762e-002
 3.3532721258e+000	 1.7338370888e+000	-2.1218088870e-002
 3.5331955441e+000	 1.3987598963e+000	 9.1445300153e-002
 3.5191181684e+000	 1.4338086751e+000	 6.4241569226e-002
 3.5046637644e+000	 1.4687858588e+000	 4.2547490127e-002
 3.4898323224e+000	 1.5036855927e+000	 2.5439240800e-002
 3.4746239501e+000	 1.5385020004e+000	 1.1961301456e-002
 3.4590388735e+000	 1.5732291861e+000	 1.1294614920e-003
 3.4430774376e+000	 1.6078612375e+000	-8.0660682827e-003
 3.4267401076e+000	 1.6423922293e+000	-1.6657445415e-002
 3.4100274700e+000	 1.6768162255e+000	-2.5695895295e-002
 3.3929402326e+000	 1.7111272828e+000	-3.6248328521e-002
 3.3754792260e+000	 1.7453194536e+000	-4.9393884667e-002
 3.5564402516e+000	 1.4079622641e+000	 1.0598480546e-001
 3.5422702616e+000	 1.4432416269e+000	 7.6132810374e-002
 3.5277207628e+000	 1.4784489236e+000	 5.1610902179e-002
 3.5127917456e+000	 1.5135782611e+000	 3.1463776739e-002
 3.4974833182e+000	 1.5486237241e+000	 1.4704281149e-002
 3.4817957082e+000	 1.5835793781e+000	 3.1650225877e-004
 3.4657292628e+000	 1.6184392720e+000	-1.2741037813e-002
 3.4492844505e+000	 1.6531974413e+000	-2.5532086649e-002
 3.4324618612e+000	 1.6878479112e+000	-3.9139274938e-002
 3.4152622078e+000	 1.7223846991e+000	-5.4660646644e-002
 3.3976863261e+000	 1.7568018184e+000	-7.3206114715e-002
 3.5796849591e+000	 1.4171646318e+000	 1.1634623700e-001
 3.5654223549e+000	 1.4526745787e+000	 8.4736712162e-002
 3.5507777613e+000	 1.4881119885e+000	 5.8282755021e-002
 3.5357511687e+000	 1.5234709295e+000	 3.5996403598e-002
 3.5203426863e+000	 1.5587454478e+000	 1.6857683194e-002
 3.5045525429e+000	 1.5939295701e+000	-1.8222179435e-004
 3.4883810881e+000	 1.6290173064e+000	-1.6197687338e-002
 3.4718287933e+000	 1.6640026533e+000	-3.2285268188e-002
 3.4548962525e+000	 1.6988795969e+000	-4.9560223382e-002
 3.4375841830e+000	 1.7336421155e+000	-6.9152957390e-002
 3.4198934263e+000	 1.7682841833e+000	-9.2205385886e-002
 3.6029296666e+000	 1.4263669996e+000	 1.2293846602e-001
 3.5885744481e+000	 1.4621075305e+000	 9.0467163711e-002
 3.5738347597e+000	 1.4977750533e+000	 6.2981797644e-002
 3.5587105919e+000	 1.5333635979e+000	 3.9460563859e-002
 3.5432020544e+000	 1.5688671715e+000	 1.8849468843e-002
 3.5273093776e+000	 1.6042797621e+000	 6.5586328170e-005
 3.5110329133e+000	 1.6395953409e+000	-1.7999575400e-002
 3.4943731361e+000	 1.6748078654e+000	-3.6476603577e-002
 3.4773306437e+000	 1.7099112826e+000	-5.6514616749e-002
 3.4599061583e+000	 1.7448995318e+000	-7.9277615041e-002
 3.4421005265e+000	 1.7797665481e+000	-1.0594075411e-001
 3.6261743742e+000	 1.4355693673e+000	 1.2617010901e-001
 3.6117265413e+000	 1.4715404823e+000	 9.3737963955e-002
 3.5968917582e+000	 1.5074381182e+000	 6.6126856049e-002
 3.5816700151e+000	 1.5432562662e+000	 4.2279946778e-002
 3.5660614225e+000	 1.5789888952e+000	 2.1108018377e-002
 3.5500662123e+000	 1.6146299541e+000	 1.4928173374e-003
 3.5336847386e+000	 1.6501733753e+000	-1.7709489773e-002
 3.5169174789e+000	 1.6856130774e+000	-3.7664756245e-002
 3.4997650350e+000	 1.7209429682e+000	-5.9557199465e-002
 3.4822281335e+000	 1.7561569481e+000	-8.4585658452e-002
 3.4643076266e+000	 1.7912489129e+000	-1.1395977408e-001
 3.6494190817e+000	 1.4447717350e+000	 1.2644953579e-001
 3.6348786345e+000	 1.4809734342e+000	 9.4962824517e-002
 3.6199487566e+000	 1.5171011831e+000	 6.8136830802e-002
 3.6046294383e+000	 1.5531489346e+000	 4.4878480522e-002
 3.5889207906e+000	 1.5891106189e+000	 2.4062117761e-002
 3.5728230470e+000	 1.6249801461e+000	 4.5329367517e-003
 3.5563365638e+000	 1.6607514098e+000	-1.4889472010e-002
 3.5394618217e+000	 1.6964182894e+000	-3.5407469759e-002
 3.5221994262e+000	 1.7319746539e+000	-5.8241620306e-002
 3.5045501087e+000	 1.7674143645e+000	-8.4626852950e-002
 3.4865147268e+000	 1.8027312778e+000	-1.1580854709e-001
 3.6726637892e+000	 1.4539741028e+000	 1.2418487736e-001
 3.6580307277e+000	 1.4904063860e+000	 9.4555372465e-002
 3.6430057551e+000	 1.5267642479e+000	 6.9430694671e-002
 3.6275888614e+000	 1.5630416030e+000	 4.7680324615e-002
 3.6117801587e+000	 1.5992323426e+000	 2.8140945803e-002
 3.5955798816e+000	 1.6353303381e+000	 9.6199667068e-003
 3.5789883890e+000	 1.6713294442e+000	-9.1008410552e-003
 3.5620061645e+000	 1.7072235015e+000	-2.9261596938e-002
 3.5446338175e+000	 1.7430063396e+000	-5.2120467067e-002
 3.5268720839e+000	 1.7786717808e+000	-7.8949730633e-002
 3.5087218270e+000	 1.8142136426e+000	-1.1103176697e-001
 3.6959084967e+000	 1.4631764705e+000	 1.1978403334e-001
 3.6811828209e+000	 1.4998393378e+000	 9.2929152977e-002
 3.6660627535e+000	 1.5364273128e+000	 7.0427490351e-002
 3.6505482846e+000	 1.5729342714e+000	 5.1109862657e-002
 3.6346395268e+000	 1.6093540662e+000	 3.3774061807e-002
 3.6183367163e+000	 1.6456805302e+000	 1.7188468452e-002
 3.6016402143e+000	 1.6819074787e+000	 9.5784028204e-005
 3.5845505073e+000	 1.7180287135e+000	-1.8783127863e-002
 3.5670682087e+000	 1.7540380253e+000	-4.0745299927e-002
 3.5491940591e+000	 1.7899291972e+000	-6.7101629151e-002
 3.5309289271e+000	 1.8256960074e+000	-9.9172764402e-002
 3.7191532043e+000	 1.4723788383e+000	 1.1365467929e-001
 3.7043349141e+000	 1.5092722896e+000	 9.0497631900e-002
 3.6891197520e+000	 1.5460903777e+000	 7.1546328288e-002
 3.6735077078e+000	 1.5828269397e+000	 5.5591695325e-002
 3.6574988949e+000	 1.6194757899e+000	 4.1391393674e-002
 3.6410935510e+000	 1.6560307222e+000	 2.7673525503e-002
 3.6242920395e+000	 1.6924855132e+000	 1.3140462190e-002
 3.6070948501e+000	 1.7288339256e+000	-3.5272168361e-003
 3.5895026000e+000	 1.7650697110e+000	-2.3666683562e-002
 3.5715160343e+000	 1.8011866135e+000	-4.8628729030e-002
 3.5531360273e+000	 1.8371783722e+000	-7.9773549502e-002
 3.3310650256e+000	 1.7223547240e+000	 1.0873482188e-002
 3.3134658586e+000	 1.7559738049e+000	-1.2164195760e-002
 3.2954998440e+000	 1.7894638242e+000	-5.0745864436e-002
 3.2771681667e+000	 1.8228189179e+000	-1.0593582602e-001
 3.2584721341e+000	 1.8560332301e+000	-1.7878511439e-001
 3.2394131765e+000	 1.8891009162e+000	-2.2601714207e-001
 3.2199928470e+000	 1.9220161459e+000	-2.2517420565e-001
 3.2002128214e+000	 1.9547731064e+000	-2.3218249289e-001
 3.1800748984e+000	 1.9873660057e+000	-2.4655035313e-001
 3.1595809991e+000	 2.0197890756e+000	-2.6778114955e-001
 3.1387331671e+000	 2.0520365752e+000	-2.9537554022e-001
 3.3532721258e+000	 1.7338370888e+000	-2.1218088870e-002
 3.3355556310e+000	 1.7676802970e+000	-5.2048272698e-002
 3.3174698430e+000	 1.8013935830e+000	-9.8746950705e-002
 3.2990159544e+000	 1.8349710440e+000	-1.6244816639e-001
 3.2801952817e+000	 1.8684067849e+000	-2.4427243331e-001
 3.2610092644e+000	 1.9016949223e+000	-2.5390797976e-001
 3.2414594660e+000	 1.9348295869e+000	-2.5068697784e-001
 3.2215475736e+000	 1.9678049271e+000	-2.5558390342e-001
 3.2012753977e+000	 2.0006151124e+000	-2.6810318245e-001
 3.1806448724e+000	 2.0332543361e+000	-2.8774449412e-001
 3.1596580548e+000	 2.0657168190e+000	-3.1400509559e-001
 3.3754792260e+000	 1.7453194536e+000	-4.9393884667e-002
 3.3576454034e+000	 1.7793867890e+000	-8.8062610906e-002
 3.3394398419e+000	 1.8133233418e+000	-1.4293455411e-001
 3.3208637422e+000	 1.8471231701e+000	-2.1521429071e-001
 3.3019184292e+000	 1.8807803398e+000	-2.8579936939e-001
 3.2826053522e+000	 1.9142889284e+000	-2.7212987546e-001
 3.2629260850e+000	 1.9476430278e+000	-2.6732989732e-001
 3.2428823257e+000	 1.9808367478e+000	-2.7090580841e-001
 3.2224758970e+000	 2.0138642191e+000	-2.8235712136e-001
 3.2017087458e+000	 2.0467195966e+000	-3.0117885059e-001
 3.1805829426e+000	 2.0793970629e+000	-3.2686388232e-001
 3.3976863261e+000	 1.7568018184e+000	-7.3206114715e-002
 3.3797351758e+000	 1.7910932810e+000	-1.1973855935e-001
 3.3614098409e+000	 1.8252531007e+000	-1.8281933505e-001
 3.3427115300e+000	 1.8592752962e+000	-2.6372435833e-001
 3.3236415768e+000	 1.8931538947e+000	-2.9581201294e-001
 3.3042014401e+000	 1.9268829345e+000	-2.8110433744e-001
 3.2843927040e+000	 1.9604564688e+000	-2.7552139562e-001
 3.2642170778e+000	 1.9938685685e+000	-2.7856344423e-001
 3.2436763964e+000	 2.0271133258e+000	-2.8972408985e-001
 3.2227726191e+000	 2.0601848571e+000	-3.0849269869e-001
 3.2015078304e+000	 2.0930773067e+000	-3.3435681338e-001
 3.4198934263e+000	 1.7682841833e+000	-9.2205385886e-002
 3.4018249482e+000	 1.8027997731e+000	-1.4660613628e-001
 3.3833798398e+000	 1.8371828595e+000	-2.1791089492e-001
 3.3645593178e+000	 1.8714274223e+000	-3.0746774094e-001
 3.3453647243e+000	 1.9055274495e+000	-2.9619730302e-001
 3.3257975279e+000	 1.9394769406e+000	-2.8125262757e-001
 3.3058593229e+000	 1.9732699098e+000	-2.7567992740e-001
 3.2855518300e+000	 2.0069003892e+000	-2.7897233910e-001
 3.2648768957e+000	 2.0403624325e+000	-2.9061656751e-001
 3.2438364924e+000	 2.0736501176e+000	-3.1009534432e-001
 3.2224327182e+000	 2.1067575505e+000	-3.3688989333e-001
 3.4421005265e+000	 1.7797665481e+000	-1.0594075411e-001
 3.4239147206e+000	 1.8145062651e+000	-1.6819407214e-001
 3.4053498388e+000	 1.8491126183e+000	-2.4771781023e-001
 3.3864071056e+000	 1.8835795485e+000	-3.1187902913e-001
 3.3670878719e+000	 1.9179010044e+000	-2.8737869235e-001
 3.3473936158e+000	 1.9520709467e+000	-2.7299576917e-001
 3.3273259419e+000	 1.9860833507e+000	-2.6822396971e-001
 3.3068865821e+000	 2.0199322099e+000	-2.7254830369e-001
 3.2860773950e+000	 2.0536115392e+000	-2.8544757547e-001
 3.2649003657e+000	 2.0871153781e+000	-3.0639689300e-001
 3.2433576059e+000	 2.1204377944e+000	-3.3487018314e-001
 3.4643076266e+000	 1.7912489129e+000	-1.1395977408e-001
 3.4460044930e+000	 1.8262127571e+000	-1.8402985086e-001
 3.4273198378e+000	 1.8610423772e+000	-2.7174766551e-001
 3.4082548933e+000	 1.8957316746e+000	-2.9316141476e-001
 3.3888110195e+000	 1.9302745593e+000	-2.6977914961e-001
 3.3689897036e+000	 1.9646649528e+000	-2.5675455475e-001
 3.3487925609e+000	 1.9988967917e+000	-2.5357202127e-001
 3.3282213343e+000	 2.0329640306e+000	-2.5970742205e-001
 3.3072778943e+000	 2.0668606459e+000	-2.7463065902e-001
 3.2859642391e+000	 2.1005806386e+000	-2.9780822416e-001
 3.2642824937e+000	 2.1341180382e+000	-3.2870576627e-001
 3.4865147268e+000	 1.8027312778e+000	-1.1580854709e-001
 3.4680942654e+000	 1.8379192492e+000	-1.9363974953e-001
 3.4492898367e+000	 1.8729721360e+000	-2.8950708486e-001
 3.4301026811e+000	 1.9078838007e+000	-2.6528341427e-001
 3.4105341670e+000	 1.9426481142e+000	-2.4382117481e-001
 3.3905857914e+000	 1.9772589590e+000	-2.3294955329e-001
 3.3702591799e+000	 2.0117102327e+000	-2.3214260178e-001
 3.3495560864e+000	 2.0459958514e+000	-2.4086604291e-001
 3.3284783936e+000	 2.0801097526e+000	-2.5857987099e-001
 3.3070281124e+000	 2.1140458991e+000	-2.8474096652e-001
 3.2852073815e+000	 2.1477982820e+000	-3.1880571617e-001
 3.5087218270e+000	 1.8142136426e+000	-1.1103176697e-001
 3.4901840378e+000	 1.8496257412e+000	-1.9654887665e-001
 3.4712598357e+000	 1.8849018948e+000	-2.5875317284e-001
 3.4519504689e+000	 1.9200359268e+000	-2.2866865227e-001
 3.4322573146e+000	 1.9550216690e+000	-2.0992681421e-001
 3.4121818793e+000	 1.9898529651e+000	-2.0200111737e-001
 3.3917257989e+000	 2.0245236737e+000	-2.0435425125e-001
 3.3708908386e+000	 2.0590276721e+000	-2.1644077132e-001
 3.3496788930e+000	 2.0933588593e+000	-2.3770975560e-001
 3.3280919857e+000	 2.1275111596e+000	-2.6760747438e-001
 3.3061322693e+000	 2.1614785259e+000	-3.0558006490e-001
 3.5309289271e+000	 1.8256960074e+000	-9.9172764402e-002
 3.5122738102e+000	 1.8613322332e+000	-1.9228120878e-001
 3.4932298346e+000	 1.8968316537e+000	-2.1053569307e-001
 3.4737982567e+000	 1.9321880529e+000	-1.8374008344e-001
 3.4539804622e+000	 1.9673952239e+000	-1.6851767448e-001
 3.4337779671e+000	 2.0024469712e+000	-1.6432938994e-001
 3.4131924178e+000	 2.0373371146e+000	-1.7062552938e-001
 3.3922255907e+000	 2.0720594928e+000	-1.8684846057e-001
 3.3708793923e+000	 2.1066079660e+000	-2.1243533308e-001
 3.3491558591e+000	 2.1409764201e+000	-2.4682080481e-001
 3.3270571571e+000	 2.1751587697e+000	-2.8943977302e-001
 3.5531360273e+000	 1.8371783722e+000	-7.9773549502e-002
 3.5343635826e+000	 1.8730387253e+000	-1.8035962602e-001
 3.5151998336e+000	 1.9087614125e+000	-1.5362218919e-001
 3.4956460444e+000	 1.9443401791e+000	-1.3092001342e-001
 3.4757036097e+000	 1.9797687788e+000	-1.2001493653e-001
 3.4553740550e+000	 2.0150409773e+000	-1.2035431086e-001
 3.4346590368e+000	 2.0501505556e+000	-1.3137501490e-001
 3.4135603429e+000	 2.0850913135e+000	-1.5250620442e-001
 3.3920798916e+000	 2.1198570727e+000	-1.8317208474e-001
 3.3702197324e+000	 2.1544416806e+000	-2.2279469568e-001
 3.3479820449e+000	 2.1888390135e+000	-2.7079670055e-001
 3.1387331671e+000	 2.0520365752e+000	-2.9537554022e-001
 3.1175335675e+000	 2.0841027938e+000	-3.6559896773e-001
 3.0959844873e+000	 2.1159820543e+000	-3.9389241839e-001
 3.0740883340e+000	 2.1476687162e+000	-4.1905844465e-001
 3.0518476352e+000	 2.1791571792e+000	-4.4228772115e-001
 3.0292650379e+000	 2.2104418857e+000	-4.6477239859e-001
 3.0063433076e+000	 2.2415173246e+000	-4.8770343339e-001
 2.9830853273e+000	 2.2723780342e+000	-5.1226791113e-001
 2.9594940961e+000	 2.3030186050e+000	-5.3964637060e-001
 2.9355727287e+000	 2.3334336833e+000	-5.7101013551e-001
 2.9113244534e+000	 2.3636179740e+000	-6.0751866073e-001
 3.1596580548e+000	 2.0657168190e+000	-3.1400509559e-001
 3.1383171247e+000	 2.0979968124e+000	-4.0309696030e-001
 3.1166243839e+000	 2.1300886013e+000	-4.7064493768e-001
 3.0945822562e+000	 2.1619865077e+000	-4.9175404441e-001
 3.0721932861e+000	 2.1936848937e+000	-5.0984611023e-001
 3.0494601381e+000	 2.2251781649e+000	-5.2612848163e-001
 3.0263855963e+000	 2.2564607735e+000	-5.4180813257e-001
 3.0029725628e+000	 2.2875272211e+000	-5.5808894745e-001
 2.9792240568e+000	 2.3183720624e+000	-5.7616900367e-001
 2.9551432136e+000	 2.3489899079e+000	-5.9723786091e-001
 2.9307332831e+000	 2.3793754271e+000	-6.2247386420e-001
 3.1805829426e+000	 2.0793970629e+000	-3.2686388232e-001
 3.1591006818e+000	 2.1118908310e+000	-4.1207810557e-001
 3.1372642805e+000	 2.1441951483e+000	-5.0324016471e-001
 3.1150761784e+000	 2.1763042991e+000	-5.6284609209e-001
 3.0925389370e+000	 2.2082126082e+000	-5.7515246872e-001
 3.0696552384e+000	 2.2399144442e+000	-5.8460179402e-001
 3.0464278850e+000	 2.2714042223e+000	-5.9241788856e-001
 3.0228597983e+000	 2.3026764080e+000	-5.9982225166e-001
 2.9989540174e+000	 2.3337255197e+000	-6.0803130122e-001
 2.9747136984e+000	 2.3645461324e+000	-6.1825361934e-001
 2.9501421128e+000	 2.3951328803e+000	-6.3168721096e-001
 3.2015078304e+000	 2.0930773067e+000	-3.3435681338e-001
 3.1798842389e+000	 2.1257848497e+000	-4.1554575471e-001
 3.1579041771e+000	 2.1583016954e+000	-5.0164174603e-001
 3.1355701007e+000	 2.1906220906e+000	-5.9192538230e-001
 3.1128845879e+000	 2.2227403228e+000	-6.3796563097e-001
 3.0898503386e+000	 2.2546507234e+000	-6.3995335086e-001
 3.0664701738e+000	 2.2863476711e+000	-6.3929570973e-001
 3.0427470338e+000	 2.3178255949e+000	-6.3723263972e-001
 3.0186839780e+000	 2.3490789771e+000	-6.3499970300e-001
 2.9942841833e+000	 2.3801023570e+000	-6.3382529249e-001
 2.9695509425e+000	 2.4108903335e+000	-6.3492784485e-001
 3.2224327182e+000	 2.1067575505e+000	-3.3688989333e-001
 3.2006677960e+000	 2.1396788683e+000	-4.1391980906e-001
 3.1785440737e+000	 2.1724082424e+000	-4.9481741687e-001
 3.1560640229e+000	 2.2049398820e+000	-5.7881291078e-001
 3.1332302388e+000	 2.2372680373e+000	-6.6514604060e-001
 3.1100454389e+000	 2.2693870027e+000	-6.9194433538e-001
 3.0865124625e+000	 2.3012911200e+000	-6.8220460851e-001
 3.0626342693e+000	 2.3329747818e+000	-6.7008477468e-001
 3.0384139387e+000	 2.3644324345e+000	-6.5684034604e-001
 3.0138546681e+000	 2.3956585816e+000	-6.4372031681e-001
 2.9889597722e+000	 2.4266477866e+000	-6.3196432938e-001
 3.2433576059e+000	 2.1204377944e+000	-3.3487018314e-001
 3.2214513531e+000	 2.1535728869e+000	-4.0762103462e-001
 3.1991839703e+000	 2.1865147894e+000	-4.8320121849e-001
 3.1765579451e+000	 2.2192576734e+000	-5.6079003650e-001
 3.1535758897e+000	 2.2517957518e+000	-6.3957782232e-001
 3.1302405392e+000	 2.2841232819e+000	-7.1876870554e-001
 3.1065547512e+000	 2.3162345688e+000	-7.2090760126e-001
 3.0825215048e+000	 2.3481239687e+000	-6.9814317157e-001
 3.0581438993e+000	 2.3797858918e+000	-6.7331907443e-001
 3.0334251530e+000	 2.4112148061e+000	-6.4770569795e-001
 3.0083686019e+000	 2.4424052398e+000	-6.2256466641e-001
 3.2642824937e+000	 2.1341180382e+000	-3.2870576627e-001
 3.2422349102e+000	 2.1674669055e+000	-3.9707103437e-001
 3.2198238668e+000	 2.2006213364e+000	-4.6722784971e-001
 3.1970518674e+000	 2.2335754649e+000	-5.3830411944e-001
 3.1739215406e+000	 2.2663234664e+000	-6.0944026842e-001
 3.1504356394e+000	 2.2988595611e+000	-6.7979210333e-001
 3.1265970399e+000	 2.3311780176e+000	-7.4853363207e-001
 3.1024087403e+000	 2.3632731556e+000	-7.2117220220e-001
 3.0778738600e+000	 2.3951393492e+000	-6.8420144871e-001
 3.0529956378e+000	 2.4267710307e+000	-6.4554802450e-001
 3.0277774315e+000	 2.4581626929e+000	-6.0649631421e-001
 3.2852073815e+000	 2.1477982820e+000	-3.1880571617e-001
 3.2630184674e+000	 2.1813609242e+000	-3.8269222161e-001
 3.2404637634e+000	 2.2147278835e+000	-4.4733264604e-001
 3.2175457896e+000	 2.2478932563e+000	-5.1180298865e-001
 3.1942671915e+000	 2.2808511809e+000	-5.7519326222e-001
 3.1706307397e+000	 2.3135958404e+000	-6.3661045833e-001
 3.1466393286e+000	 2.3461214665e+000	-6.9518146557e-001
 3.1222959759e+000	 2.3784223425e+000	-7.3893609971e-001
 3.0976038206e+000	 2.4104928066e+000	-6.8925275492e-001
 3.0725661227e+000	 2.4423272552e+000	-6.3701348130e-001
 3.0471862612e+000	 2.4739201461e+000	-5.8352620471e-001
 3.3061322693e+000	 2.1614785259e+000	-3.0558006490e-001
 3.2838020245e+000	 2.1952549428e+000	-3.6490779430e-001
 3.2611036600e+000	 2.2288344305e+000	-4.2395155945e-001
 3.2380397118e+000	 2.2622110478e+000	-4.8173492739e-001
 3.2146128424e+000	 2.2953788954e+000	-5.3729698493e-001
 3.1908258399e+000	 2.3283321196e+000	-5.8969540617e-001
 3.1666816174e+000	 2.3610649153e+000	-6.3800947043e-001
 3.1421832114e+000	 2.3935715294e+000	-6.8134302166e-001
 3.1173337812e+000	 2.4258462639e+000	-6.8823801325e-001
 3.0921366076e+000	 2.4578834798e+000	-6.2186786222e-001
 3.0665950909e+000	 2.4896775993e+000	-5.5342076021e-001
 3.3270571571e+000	 2.1751587697e+000	-2.8943977302e-001
 3.3045855816e+000	 2.2091489614e+000	-3.4414171042e-001
 3.2817435566e+000	 2.2429409775e+000	-3.9752113905e-001
 3.2585336340e+000	 2.2765288392e+000	-4.4854865884e-001
 3.2349584933e+000	 2.3099066099e+000	-4.9621190632e-001
 3.2110209402e+000	 2.3430683989e+000	-5.3951872545e-001
 3.1867239061e+000	 2.3760083641e+000	-5.7750028659e-001
 3.1620704469e+000	 2.4087207162e+000	-6.0921414414e-001
 3.1370637419e+000	 2.4411997213e+000	-6.3374722360e-001
 3.1117070924e+000	 2.4734397043e+000	-5.9987658246e-001
 3.0860039206e+000	 2.5054350524e+000	-5.3364910025e-001
 3.3479820449e+000	 2.1888390135e+000	-2.7079670055e-001
 3.3253691387e+000	 2.2230429801e+000	-3.2081866419e-001
 3.3023834532e+000	 2.2570475246e+000	-3.6847851238e-001
 3.2790275563e+000	 2.2908466307e+000	-4.1269333237e-001
 3.2553041442e+000	 2.3244343245e+000	-4.5239877563e-001
 3.2312160404e+000	 2.3578046781e+000	-4.8655233334e-001
 3.2067661948e+000	 2.3909518130e+000	-5.1413655739e-001
 3.1819576824e+000	 2.4238699031e+000	-5.3416221736e-001
 3.1567937025e+000	 2.4565531787e+000	-5.4567138401e-001
 3.1312775773e+000	 2.4889959289e+000	-5.4774043002e-001
 3.1054127503e+000	 2.5211925056e+000	-5.4300596936e-001
 2.9113244534e+000	 2.3636179740e+000	-6.0751866073e-001
 2.8867526112e+000	 2.3935662434e+000	-6.3512438024e-001
 2.8618606541e+000	 2.4232733227e+000	-6.5101050299e-001
 2.8366521436e+000	 2.4527341104e+000	-6.5635061598e-001
 2.8111307490e+000	 2.4819435755e+000	-6.5231547374e-001
 2.7853002459e+000	 2.5108967602e+000	-6.6071933863e-001
 2.7591645138e+000	 2.5395887828e+000	-6.9148553655e-001
 2.7327275349e+000	 2.5680148403e+000	-7.0857806468e-001
 2.7059933915e+000	 2.5961702111e+000	-7.1186770631e-001
 2.6789662642e+000	 2.6240502578e+000	-7.0123831681e-001
 2.6516504295e+000	 2.6516504295e+000	-6.7658724321e-001
 2.9307332831e+000	 2.3793754271e+000	-6.2247386420e-001
 2.9059976286e+000	 2.4095233517e+000	-6.4038343425e-001
 2.8809397251e+000	 2.4394284782e+000	-6.4747361700e-001
 2.8555631579e+000	 2.4690856712e+000	-6.4496277092e-001
 2.8298716207e+000	 2.4984898660e+000	-6.3406525867e-001
 2.8038689142e+000	 2.5276360719e+000	-6.7107982550e-001
 2.7775589439e+000	 2.5565193747e+000	-6.9845725168e-001
 2.7509457185e+000	 2.5851349392e+000	-7.1290963759e-001
 2.7240333475e+000	 2.6134780125e+000	-7.1431122658e-001
 2.6968260392e+000	 2.6415439262e+000	-7.0254872315e-001
 2.6693280990e+000	 2.6693280990e+000	-6.7752171487e-001
 2.9501421128e+000	 2.3951328803e+000	-6.3168721096e-001
 2.9252426460e+000	 2.4254804600e+000	-6.3986295449e-001
 2.9000187961e+000	 2.4555836337e+000	-6.3811890495e-001
 2.8744741721e+000	 2.4854372319e+000	-6.2771865778e-001
 2.8486124923e+000	 2.5150361565e+000	-6.4285098388e-001
 2.8224375825e+000	 2.5443753837e+000	-6.7907214799e-001
 2.7959533740e+000	 2.5734499666e+000	-7.0324067169e-001
 2.7691639021e+000	 2.6022550381e+000	-7.1522264959e-001
 2.7420733034e+000	 2.6307858139e+000	-7.1489559087e-001
 2.7146858143e+000	 2.6590375946e+000	-7.0214886237e-001
 2.6870057685e+000	 2.6870057685e+000	-6.7688411314e-001
 2.9695509425e+000	 2.4108903335e+000	-6.3492784485e-001
 2.9444876634e+000	 2.4414375683e+000	-6.3332395916e-001
 2.9190978672e+000	 2.4717387892e+000	-6.2269955145e-001
 2.8933851864e+000	 2.5017887926e+000	-6.0861262478e-001
 2.8673533640e+000	 2.5315824470e+000	-6.5226447650e-001
 2.8410062508e+000	 2.5611146954e+000	-6.8472914057e-001
 2.8143478041e+000	 2.5903805584e+000	-7.0586602756e-001
 2.7873820856e+000	 2.6193751371e+000	-7.1554490254e-001
 2.7601132593e+000	 2.6480936153e+000	-7.1364634682e-001
 2.7325455894e+000	 2.6765312630e+000	-7.0006220326e-001
 2.7046834380e+000	 2.7046834380e+000	-6.7469600365e-001
 2.9889597722e+000	 2.4266477866e+000	-6.3196432938e-001
 2.9637326808e+000	 2.4573946766e+000	-6.2052699763e-001
 2.9381769382e+000	 2.4878939447e+000	-6.0096837920e-001
 2.9122962007e+000	 2.5181403534e+000	-6.1982257873e-001
 2.8860942356e+000	 2.5481287375e+000	-6.5919106278e-001
 2.8595749191e+000	 2.5778540071e+000	-6.8808356806e-001
 2.8327422342e+000	 2.6073111503e+000	-7.0636356851e-001
 2.8056002692e+000	 2.6364952360e+000	-7.1390429945e-001
 2.7781532153e+000	 2.6654014167e+000	-7.1058922122e-001
 2.7504053645e+000	 2.6940249314e+000	-6.9631246678e-001
 2.7223611076e+000	 2.7223611076e+000	-6.7097927226e-001
 3.0083686019e+000	 2.4424052398e+000	-6.2256466641e-001
 2.9829776982e+000	 2.4733517849e+000	-6.0123216559e-001
 2.9572560092e+000	 2.5040491002e+000	-5.8348124131e-001
 2.9312072150e+000	 2.5344919141e+000	-6.2838995129e-001
 2.9048351073e+000	 2.5646750280e+000	-6.6366603501e-001
 2.8781435874e+000	 2.5945933189e+000	-6.8916812798e-001
 2.8511366643e+000	 2.6242417422e+000	-7.0476356135e-001
 2.8238184528e+000	 2.6536153349e+000	-7.1032884123e-001
 2.7961931712e+000	 2.6827092181e+000	-7.0575011424e-001
 2.7682651396e+000	 2.7115185997e+000	-6.9092361793e-001
 2.7400387771e+000	 2.7400387771e+000	-6.6575611465e-001
 3.0277774315e+000	 2.4581626929e+000	-6.0649631421e-001
 3.0022227156e+000	 2.4893088932e+000	-5.7519911957e-001
 2.9763350802e+000	 2.5202042556e+000	-5.9403663259e-001
 2.9501182293e+000	 2.5508434748e+000	-6.3435254974e-001
 2.9235759790e+000	 2.5812213185e+000	-6.6572453349e-001
 2.8967122557e+000	 2.6113326306e+000	-6.8801545263e-001
 2.8695310944e+000	 2.6411723341e+000	-7.0109629001e-001
 2.8420366363e+000	 2.6707354339e+000	-7.0484662352e-001
 2.8142331272e+000	 2.7000170196e+000	-6.9915509384e-001
 2.7861249147e+000	 2.7290122681e+000	-6.8391985792e-001
 2.7577164466e+000	 2.7577164466e+000	-6.5904902645e-001
 3.0471862612e+000	 2.4739201461e+000	-5.8352620471e-001
 3.0214677330e+000	 2.5052660015e+000	-5.5778907795e-001
 2.9954141513e+000	 2.5363594111e+000	-6.0183040340e-001
 2.9690292436e+000	 2.5671950356e+000	-6.3774794580e-001
 2.9423168506e+000	 2.5977676090e+000	-6.6540155136e-001
 2.9152809240e+000	 2.6280719423e+000	-6.8465811118e-001
 2.8879255245e+000	 2.6581029260e+000	-6.9539205492e-001
 2.8602548199e+000	 2.6878555328e+000	-6.9748583371e-001
 2.8322730831e+000	 2.7173248210e+000	-6.9083039048e-001
 2.8039846898e+000	 2.7465059365e+000	-6.7532561665e-001
 2.7753941161e+000	 2.7753941161e+000	-6.5088079364e-001
 3.0665950909e+000	 2.4896775993e+000	-5.5342076021e-001
 3.0407127505e+000	 2.5212231098e+000	-5.6773488134e-001
 3.0144932223e+000	 2.5525145666e+000	-6.0690254013e-001
 2.9879402579e+000	 2.5835465963e+000	-6.3861348309e-001
 2.9610577223e+000	 2.6143138995e+000	-6.6273193927e-001
 2.9338495923e+000	 2.6448112541e+000	-6.7912861169e-001
 2.9063199545e+000	 2.6750335179e+000	-6.8768117251e-001
 2.8784730034e+000	 2.7049756317e+000	-6.8827474801e-001
 2.8503130390e+000	 2.7346326224e+000	-6.8080239191e-001
 2.8218444649e+000	 2.7639996049e+000	-6.6516554550e-001
 2.7930717857e+000	 2.7930717857e+000	-6.4127448342e-001
 3.0860039206e+000	 2.5054350524e+000	-5.3364910025e-001
 3.0599577679e+000	 2.5371802180e+000	-5.7480132433e-001
 3.0335722933e+000	 2.5686697221e+000	-6.0929272134e-001
 3.0068512722e+000	 2.5998981570e+000	-6.3698628433e-001
 2.9797985939e+000	 2.6308601900e+000	-6.5775040984e-001
 2.9524182606e+000	 2.6615505658e+000	-6.7145940305e-001
 2.9247143846e+000	 2.6919641097e+000	-6.7799397472e-001
 2.8966911870e+000	 2.7220957307e+000	-6.7724172869e-001
 2.8683529950e+000	 2.7519404238e+000	-6.6909763828e-001
 2.8397042400e+000	 2.7814932733e+000	-6.5346451032e-001
 2.8107494552e+000	 2.8107494552e+000	-6.3025343531e-001
 3.1054127503e+000	 2.5211925056e+000	-5.4300596936e-001
 3.0792027853e+000	 2.5531373263e+000	-5.7903040003e-001
 3.0526513643e+000	 2.5848248776e+000	-6.0904032735e-001
 3.0257622864e+000	 2.6162497178e+000	-6.3290325824e-001
 2.9985394656e+000	 2.6474064805e+000	-6.5049154200e-001
 2.9709869289e+000	 2.6782898775e+000	-6.6168287675e-001
 2.9431088147e+000	 2.7088947016e+000	-6.6636080849e-001
 2.9149093706e+000	 2.7392158296e+000	-6.6441522134e-001
 2.8863929509e+000	 2.7692482252e+000	-6.5574281736e-001
 2.8575640151e+000	 2.7989869417e+000	-6.4024758474e-001
 2.8284271247e+000	 2.8284271247e+000	-6.1784125266e-001
 2.6516504295e+000	 2.6516504295e+000	-6.7658724321e-001
 2.6240502578e+000	 2.6789662642e+000	-6.8265842221e-001
 2.5961702111e+000	 2.7059933915e+000	-7.0522471240e-001
 2.5680148403e+000	 2.7327275349e+000	-7.4424717245e-001
 2.5395887828e+000	 2.7591645138e+000	-7.9967253892e-001
 2.5108967602e+000	 2.7853002459e+000	-8.7143355426e-001
 2.4819435755e+000	 2.8111307490e+000	-8.6669043910e-001
 2.4527341104e+000	 2.8366521436e+000	-8.1625280888e-001
 2.4232733227e+000	 2.8618606541e+000	-7.7620825808e-001
 2.3935662434e+000	 2.8867526112e+000	-7.4786596623e-001
 2.3636179740e+000	 2.9113244534e+000	-7.3248947694e-001
 2.6693280990e+000	 2.6693280990e+000	-6.7752171487e-001
 2.6415439262e+000	 2.6968260392e+000	-6.8420979376e-001
 2.6134780125e+000	 2.7240333475e+000	-7.0639443757e-001
 2.5851349392e+000	 2.7509457185e+000	-7.4400698439e-001
 2.5565193747e+000	 2.7775589439e+000	-7.9696546408e-001
 2.5276360719e+000	 2.8038689142e+000	-8.6517496163e-001
 2.4984898660e+000	 2.8298716207e+000	-9.4057075990e-001
 2.4690856712e+000	 2.8555631579e+000	-8.8132834219e-001
 2.4394284782e+000	 2.8809397251e+000	-8.3154358044e-001
 2.4095233517e+000	 2.9059976286e+000	-7.9253647608e-001
 2.3793754271e+000	 2.9307332831e+000	-7.6558138115e-001
 2.6870057685e+000	 2.6870057685e+000	-6.7688411314e-001
 2.6590375946e+000	 2.7146858143e+000	-6.8365935462e-001
 2.6307858139e+000	 2.7420733034e+000	-7.0494462059e-001
 2.6022550381e+000	 2.7691639021e+000	-7.4064167443e-001
 2.5734499666e+000	 2.7959533740e+000	-7.9063997875e-001
 2.5443753837e+000	 2.8224375825e+000	-8.5481709396e-001
 2.5150361565e+000	 2.8486124923e+000	-9.3303908626e-001
 2.4854372319e+000	 2.8744741721e+000	-9.4548265160e-001
 2.4555836337e+000	 2.9000187961e+000	-8.8536308823e-001
 2.4254804600e+000	 2.9252426460e+000	-8.3512390114e-001
 2.3951328803e+000	 2.9501421128e+000	-7.9605085876e-001
 2.7046834380e+000	 2.7046834380e+000	-6.7469600365e-001
 2.6765312630e+000	 2.7325455894e+000	-6.8103982689e-001
 2.6480936153e+000	 2.7601132593e+000	-7.0091886445e-001
 2.6193751371e+000	 2.7873820856e+000	-7.3420544503e-001
 2.5903805584e+000	 2.8143478041e+000	-7.8076059777e-001
 2.5611146954e+000	 2.8410062508e+000	-8.4043448597e-001
 2.5315824470e+000	 2.8673533640e+000	-9.1306684877e-001
 2.5017887926e+000	 2.8933851864e+000	-9.9848744949e-001
 2.4717387892e+000	 2.9190978672e+000	-9.3742618367e-001
 2.4414375683e+000	 2.9444876634e+000	-8.7539410523e-001
 2.4108903335e+000	 2.9695509425e+000	-8.2367013199e-001
 2.7223611076e+000	 2.7223611076e+000	-6.7097927226e-001
 2.6940249314e+000	 2.7504053645e+000	-6.7638398119e-001
 2.6654014167e+000	 2.7781532153e+000	-6.9436055562e-001
 2.6364952360e+000	 2.8056002692e+000	-7.2475202391e-001
 2.6073111503e+000	 2.8327422342e+000	-7.6739110996e-001
 2.5778540071e+000	 2.8595749191e+000	-8.2210070207e-001
 2.5481287375e+000	 2.8860942356e+000	-8.8869432830e-001
 2.5181403534e+000	 2.9122962007e+000	-9.6697663682e-001
 2.4878939447e+000	 2.9381769382e+000	-9.8749060906e-001
 2.4573946766e+000	 2.9637326808e+000	-9.1311107711e-001
 2.4266477866e+000	 2.9889597722e+000	-8.4820934044e-001
 2.7400387771e+000	 2.7400387771e+000	-6.6575611465e-001
 2.7115185997e+000	 2.7682651396e+000	-6.6972463508e-001
 2.6827092181e+000	 2.7961931712e+000	-6.8531287109e-001
 2.6536153349e+000	 2.8238184528e+000	-7.1233467943e-001
 2.6242417422e+000	 2.8511366643e+000	-7.5059460154e-001
 2.5945933189e+000	 2.8781435874e+000	-7.9988836764e-001
 2.5646750280e+000	 2.9048351073e+000	-8.6000340566e-001
 2.5344919141e+000	 2.9312072150e+000	-9.3071935364e-001
 2.5040491002e+000	 2.9572560092e+000	-1.0118085744e+000
 2.4733517849e+000	 2.9829776982e+000	-9.4803699097e-001
 2.4424052398e+000	 3.0083686019e+000	-8.6943660825e-001
 2.7577164466e+000	 2.7577164466e+000	-6.5904902645e-001
 2.7290122681e+000	 2.7861249147e+000	-6.6109465158e-001
 2.7000170196e+000	 2.8142331272e+000	-6.7381878506e-001
 2.6707354339e+000	 2.8420366363e+000	-6.9700623525e-001
 2.6411723341e+000	 2.8695310944e+000	-7.3043347864e-001
 2.6113326306e+000	 2.8967122557e+000	-7.7386919915e-001
 2.5812213185e+000	 2.9235759790e+000	-8.2707483060e-001
 2.5508434748e+000	 2.9501182293e+000	-8.8980510121e-001
 2.5202042556e+000	 2.9763350802e+000	-9.6180857859e-001
 2.4893088932e+000	 3.0022227156e+000	-9.7993226459e-001
 2.4581626929e+000	 3.0277774315e+000	-8.8711810873e-001
 2.7753941161e+000	 2.7753941161e+000	-6.5088079364e-001
 2.7465059365e+000	 2.8039846898e+000	-6.5052693771e-001
 2.7173248210e+000	 2.8322730831e+000	-6.5992107540e-001
 2.6878555328e+000	 2.8602548199e+000	-6.7881908451e-001
 2.6581029260e+000	 2.8879255245e+000	-7.0696948896e-001
 2.6280719423e+000	 2.9152809240e+000	-7.4411403309e-001
 2.5977676090e+000	 2.9423168506e+000	-7.8998825783e-001
 2.5671950356e+000	 2.9690292436e+000	-8.4432207721e-001
 2.5363594111e+000	 2.9954141513e+000	-9.0684035375e-001
 2.5052660015e+000	 3.0214677330e+000	-9.7726347136e-001
 2.4739201461e+000	 3.0471862612e+000	-9.0101812644e-001
 2.7930717857e+000	 2.7930717857e+000	-6.4127448342e-001
 2.7639996049e+000	 2.8218444649e+000	-6.3805444310e-001
 2.7346326224e+000	 2.8503130390e+000	-6.4366232983e-001
 2.7049756317e+000	 2.8784730034e+000	-6.5782520350e-001
 2.6750335179e+000	 2.9063199545e+000	-6.8026374262e-001
 2.6448112541e+000	 2.9338495923e+000	-7.1069285382e-001
 2.6143138995e+000	 2.9610577223e+000	-7.4882228164e-001
 2.5835465963e+000	 2.9879402579e+000	-7.9435721703e-001
 2.5525145666e+000	 3.0144932223e+000	-8.4699890317e-001
 2.5212231098e+000	 3.0407127505e+000	-9.0644523707e-001
 2.4896775993e+000	 3.0665950909e+000	-9.1089911702e-001
 2.8107494552e+000	 2.8107494552e+000	-6.3025343531e-001
 2.7814932733e+000	 2.8397042400e+000	-6.2371015865e-001
 2.7519404238e+000	 2.8683529950e+000	-6.2508495197e-001
 2.7220957307e+000	 2.8966911870e+000	-6.3407616468e-001
 2.6919641097e+000	 2.9247143846e+000	-6.5037673216e-001
 2.6615505658e+000	 2.9524182606e+000	-6.7367482038e-001
 2.6308601900e+000	 2.9797985939e+000	-7.0365446929e-001
 2.5998981570e+000	 3.0068512722e+000	-7.3999623346e-001
 2.5686697221e+000	 3.0335722933e+000	-7.8237781822e-001
 2.5371802180e+000	 3.0599577679e+000	-8.3047471003e-001
 2.5054350524e+000	 3.0860039206e+000	-8.8396079932e-001
 2.8284271247e+000	 2.8284271247e+000	-6.1784125266e-001
 2.7989869417e+000	 2.8575640151e+000	-6.0752711523e-001
 2.7692482252e+000	 2.8863929509e+000	-6.0423116702e-001
 2.7392158296e+000	 2.9149093706e+000	-6.0762314939e-001
 2.7088947016e+000	 2.9431088147e+000	-6.1736835192e-001
 2.6782898775e+000	 2.9709869289e+000	-6.3312829225e-001
 2.6474064805e+000	 2.9985394656e+000	-6.5456139309e-001
 2.6162497178e+000	 3.0257622864e+000	-6.8132365489e-001
 2.5848248776e+000	 3.0526513643e+000	-7.1306932248e-001
 2.5531373263e+000	 3.0792027853e+000	-7.4945154411e-001
 2.5211925056e+000	 3.1054127503e+000	-7.9012302136e-001
 2.3636179740e+000	 2.9113244534e+000	-7.3248947694e-001
 2.3334336833e+000	 2.9355727287e+000	-7.3638662030e-001
 2.3030186050e+000	 2.9594940961e+000	-7.3797691686e-001
 2.2723780342e+000	 2.9830853273e+000	-7.3804874774e-001
 2.2415173246e+000	 3.0063433076e+000	-7.3735639684e-001
 2.2104418857e+000	 3.0292650379e+000	-7.3661874677e-001
 2.1791571792e+000	 3.0518476352e+000	-7.3651808734e-001
 2.1476687162e+000	 3.0740883340e+000	-7.3769903871e-001
 2.1159820543e+000	 3.0959844873e+000	-7.4076759055e-001
 2.0841027938e+000	 3.1175335675e+000	-7.4629025856e-001
 2.0520365752e+000	 3.1387331671e+000	-8.1863325311e-001
 2.3793754271e+000	 2.9307332831e+000	-7.6558138115e-001
 2.3489899079e+000	 2.9551432136e+000	-7.5056107091e-001
 2.3183720624e+000	 2.9792240568e+000	-7.3478857800e-001
 2.2875272211e+000	 3.0029725628e+000	-7.1907958877e-001
 2.2564607735e+000	 3.0263855963e+000	-7.0421323308e-001
 2.2251781649e+000	 3.0494601381e+000	-6.9093075324e-001
 2.1936848937e+000	 3.0721932861e+000	-6.7993429032e-001
 2.1619865077e+000	 3.0945822562e+000	-6.7188578964e-001
 2.1300886013e+000	 3.1166243839e+000	-6.6740602716e-001
 2.0979968124e+000	 3.1383171247e+000	-7.2839774537e-001
 2.0657168190e+000	 3.1596580548e+000	-8.3084370003e-001
 2.3951328803e+000	 2.9501421128e+000	-7.9605085876e-001
 2.3645461324e+000	 2.9747136984e+000	-7.6210662071e-001
 2.3337255197e+000	 2.9989540174e+000	-7.2896154957e-001
 2.3026764080e+000	 3.0228597983e+000	-6.9745897804e-001
 2.2714042223e+000	 3.0464278850e+000	-6.6840320970e-001
 2.2399144442e+000	 3.0696552384e+000	-6.4255816059e-001
 2.2082126082e+000	 3.0925389370e+000	-6.2064612281e-001
 2.1763042991e+000	 3.1150761784e+000	-6.0334665213e-001
 2.1441951483e+000	 3.1372642805e+000	-6.4693666627e-001
 2.1118908310e+000	 3.1591006818e+000	-7.4043453483e-001
 2.0793970629e+000	 3.1805829426e+000	-8.3832177265e-001
 2.4108903335e+000	 2.9695509425e+000	-8.2367013199e-001
 2.3801023570e+000	 2.9942841833e+000	-7.7079185711e-001
 2.3490789771e+000	 3.0186839780e+000	-7.2026131447e-001
 2.3178255949e+000	 3.0427470338e+000	-6.7294982689e-001
 2.2863476711e+000	 3.0664701738e+000	-6.2968720170e-001
 2.2546507234e+000	 3.0898503386e+000	-5.9126034445e-001
 2.2227403228e+000	 3.1128845879e+000	-5.5841199950e-001
 2.1906220906e+000	 3.1355701007e+000	-5.7880705322e-001
 2.1583016954e+000	 3.1579041771e+000	-6.5982780767e-001
 2.1257848497e+000	 3.1798842389e+000	-7.4751588905e-001
 2.0930773067e+000	 3.2015078304e+000	-8.4095117799e-001
 2.4266477866e+000	 2.9889597722e+000	-8.4820934044e-001
 2.3956585816e+000	 3.0138546681e+000	-7.7638334187e-001
 2.3644324345e+000	 3.0384139387e+000	-7.0845137808e-001
 2.3329747818e+000	 3.0626342693e+000	-6.4531310849e-001
 2.3012911200e+000	 3.0865124625e+000	-5.8782417647e-001
 2.2693870027e+000	 3.1100454389e+000	-5.3679479474e-001
 2.2372680373e+000	 3.1332302388e+000	-5.2857316137e-001
 2.2049398820e+000	 3.1560640229e+000	-5.9355854158e-001
 2.1724082424e+000	 3.1785440737e+000	-6.6751946853e-001
 2.1396788683e+000	 3.2006677960e+000	-7.4951960165e-001
 2.1067575505e+000	 3.2224327182e+000	-8.3861371536e-001
 2.4424052398e+000	 3.0083686019e+000	-8.6943660825e-001
 2.4112148061e+000	 3.0334251530e+000	-7.7864567635e-001
 2.3797858918e+000	 3.0581438993e+000	-6.9329333198e-001
 2.3481239687e+000	 3.0825215048e+000	-6.1430792035e-001
 2.3162345688e+000	 3.1065547512e+000	-5.4257125538e-001
 2.2841232819e+000	 3.1302405392e+000	-5.0080452463e-001
 2.2517957518e+000	 3.1535758897e+000	-5.4617132372e-001
 2.2192576734e+000	 3.1765579451e+000	-6.0284713967e-001
 2.1865147894e+000	 3.1991839703e+000	-6.6988402205e-001
 2.1535728869e+000	 3.2214513531e+000	-7.4632164118e-001
 2.1204377944e+000	 3.2433576059e+000	-8.3118933793e-001
 2.4581626929e+000	 3.0277774315e+000	-8.8711810873e-001
 2.4267710307e+000	 3.0529956378e+000	-7.7734156440e-001
 2.3951393492e+000	 3.0778738600e+000	-6.7454691535e-001
 2.3632731556e+000	 3.1024087403e+000	-5.7969154443e-001
 2.3311780176e+000	 3.1265970399e+000	-5.0007372675e-001
 2.2988595611e+000	 3.1504356394e+000	-5.2221828980e-001
 2.2663234664e+000	 3.1739215406e+000	-5.5802541030e-001
 2.2335754649e+000	 3.1970518674e+000	-6.0654026922e-001
 2.2006213364e+000	 3.2198238668e+000	-6.6679208712e-001
 2.1674669055e+000	 3.2422349102e+000	-7.3779620959e-001
 2.1341180382e+000	 3.2642824937e+000	-8.1855621189e-001
 2.4739201461e+000	 3.0471862612e+000	-9.0101812644e-001
 2.4423272552e+000	 3.0725661227e+000	-7.7223187275e-001
 2.4104928066e+000	 3.0976038206e+000	-6.5197007394e-001
 2.3784223425e+000	 3.1222959759e+000	-5.4121950499e-001
 2.3461214665e+000	 3.1466393286e+000	-5.2625681684e-001
 2.3135958404e+000	 3.1706307397e+000	-5.3759057611e-001
 2.2808511809e+000	 3.1942671915e+000	-5.6399833777e-001
 2.2478932563e+000	 3.2175457896e+000	-6.0450365752e-001
 2.2147278835e+000	 3.2404637634e+000	-6.5811258419e-001
 2.1813609242e+000	 3.2630184674e+000	-7.2381579853e-001
 2.1477982820e+000	 3.2852073815e+000	-8.0059077332e-001
 2.4896775993e+000	 3.0665950909e+000	-9.1089911702e-001
 2.4578834798e+000	 3.0921366076e+000	-7.6307568920e-001
 2.4258462639e+000	 3.1173337812e+000	-6.2531901681e-001
 2.3935715294e+000	 3.1421832114e+000	-5.6284692711e-001
 2.3610649153e+000	 3.1666816174e+000	-5.4608633569e-001
 2.3283321196e+000	 3.1908258399e+000	-5.4678022029e-001
 2.2953788954e+000	 3.2146128424e+000	-5.6395137819e-001
 2.2622110478e+000	 3.2380397118e+000	-5.9660139108e-001
 2.2288344305e+000	 3.2611036600e+000	-6.4371278905e-001
 2.1952549428e+000	 3.2838020245e+000	-7.0425124346e-001
 2.1614785259e+000	 3.3061322693e+000	-7.7716778299e-001
 2.5054350524e+000	 3.0860039206e+000	-8.8396079932e-001
 2.4734397043e+000	 3.1117070924e+000	-7.4963037850e-001
 2.4411997213e+000	 3.1370637419e+000	-6.3654840653e-001
 2.4087207162e+000	 3.1620704469e+000	-5.8806111476e-001
 2.3760083641e+000	 3.1867239061e+000	-5.5941744516e-001
 2.3430683989e+000	 3.2110209402e+000	-5.4964445506e-001
 2.3099066099e+000	 3.2349584933e+000	-5.5774421076e-001
 2.2765288392e+000	 3.2585336340e+000	-5.8269596720e-001
 2.2429409775e+000	 3.2817435566e+000	-6.2345838454e-001
 2.2091489614e+000	 3.3045855816e+000	-6.7897177569e-001
 2.1751587697e+000	 3.3270571571e+000	-7.4816037905e-001
 2.5211925056e+000	 3.1054127503e+000	-7.9012302136e-001
 2.4889959289e+000	 3.1312775773e+000	-7.5191764192e-001
 2.4565531787e+000	 3.1567937025e+000	-6.6806510303e-001
 2.4238699031e+000	 3.1819576824e+000	-6.0644832151e-001
 2.3909518130e+000	 3.2067661948e+000	-5.6610373525e-001
 2.3578046781e+000	 3.2312160404e+000	-5.4603895930e-001
 2.3244343245e+000	 3.2553041442e+000	-5.4523497160e-001
 2.2908466307e+000	 3.2790275563e+000	-5.6264834365e-001
 2.2570475246e+000	 3.3023834532e+000	-5.9721351030e-001
 2.2230429801e+000	 3.3253691387e+000	-6.4784507259e-001
 2.1888390135e+000	 3.3479820449e+000	-7.1344012767e-001
 2.0520365752e+000	 3.1387331671e+000	-8.1863325311e-001
 2.0197890756e+000	 3.1595809991e+000	-7.7231118525e-001
 1.9873660057e+000	 3.1800748984e+000	-7.2182914993e-001
 1.9547731064e+000	 3.2002128214e+000	-6.6666988653e-001
 1.9220161459e+000	 3.2199928470e+000	-6.0632148464e-001
 1.8891009162e+000	 3.2394131765e+000	-5.4027879396e-001
 1.8560332301e+000	 3.2584721341e+000	-5.3638688406e-001
 1.8228189179e+000	 3.2771681667e+000	-5.7834820335e-001
 1.7894638242e+000	 3.2954998440e+000	-6.1471391756e-001
 1.7559738049e+000	 3.3134658586e+000	-6.4448640674e-001
 1.7223547240e+000	 3.3310650256e+000	-6.6671666339e-001
 2.0657168190e+000	 3.1596580548e+000	-8.3084370003e-001
 2.0332543361e+000	 3.1806448724e+000	-7.8662945811e-001
 2.0006151124e+000	 3.2012753977e+000	-7.3776216144e-001
 1.9678049271e+000	 3.2215475736e+000	-6.8372987481e-001
 1.9348295869e+000	 3.2414594660e+000	-6.2402626963e-001
 1.9016949223e+000	 3.2610092644e+000	-5.5815204470e-001
 1.8684067849e+000	 3.2801952817e+000	-5.0965148799e-001
 1.8349710440e+000	 3.2990159544e+000	-5.5253415158e-001
 1.8013935830e+000	 3.3174698430e+000	-5.8904595902e-001
 1.7676802970e+000	 3.3355556310e+000	-6.1819262474e-001
 1.7338370888e+000	 3.3532721258e+000	-6.3902986504e-001
 2.0793970629e+000	 3.1805829426e+000	-8.3832177265e-001
 2.0467195966e+000	 3.2017087458e+000	-7.9682588910e-001
 2.0138642191e+000	 3.2224758970e+000	-7.5019482611e-001
 1.9808367478e+000	 3.2428823257e+000	-6.9792134157e-001
 1.9476430278e+000	 3.2629260850e+000	-6.3950405036e-001
 1.9142889284e+000	 3.2826053522e+000	-5.7444885679e-001
 1.8807803398e+000	 3.3019184292e+000	-5.0227036844e-001
 1.8471231701e+000	 3.3208637422e+000	-5.2537790333e-001
 1.8133233418e+000	 3.3394398419e+000	-5.6260496839e-001
 1.7793867890e+000	 3.3576454034e+000	-5.9168819112e-001
 1.7453194536e+000	 3.3754792260e+000	-6.1168745676e-001
 2.0930773067e+000	 3.2015078304e+000	-8.4095117799e-001
 2.0601848571e+000	 3.2227726191e+000	-8.0277841843e-001
 2.0271133258e+000	 3.2436763964e+000	-7.5899925354e-001
 1.9938685685e+000	 3.2642170778e+000	-7.0911050293e-001
 1.9604564688e+000	 3.2843927040e+000	-6.5261508759e-001
 1.9268829345e+000	 3.3042014401e+000	-5.8902347476e-001
 1.8931538947e+000	 3.3236415768e+000	-5.1785510409e-001
 1.8592752962e+000	 3.3427115300e+000	-4.9700120482e-001
 1.8252531007e+000	 3.3614098409e+000	-5.3550428940e-001
 1.7910932810e+000	 3.3797351758e+000	-5.6507781540e-001
 1.7568018184e+000	 3.3976863261e+000	-5.8478528494e-001
 2.1067575505e+000	 3.2224327182e+000	-8.3861371536e-001
 2.0736501176e+000	 3.2438364924e+000	-8.0436331305e-001
 2.0403624325e+000	 3.2648768957e+000	-7.6404611779e-001
 2.0069003892e+000	 3.2855518300e+000	-7.1716238046e-001
 1.9732699098e+000	 3.3058593229e+000	-6.6321869159e-001
 1.9394769406e+000	 3.3257975279e+000	-6.0172943970e-001
 1.9055274495e+000	 3.3453647243e+000	-5.3221825062e-001
 1.8714274223e+000	 3.3645593178e+000	-4.6752560133e-001
 1.8371828595e+000	 3.3833798398e+000	-5.0785732007e-001
 1.8027997731e+000	 3.4018249482e+000	-5.3846651902e-001
 1.7682841833e+000	 3.4198934263e+000	-5.5841976791e-001
 2.1204377944e+000	 3.2433576059e+000	-8.3118933793e-001
 2.0871153781e+000	 3.2649003657e+000	-8.0145522056e-001
 2.0536115392e+000	 3.2860773950e+000	-7.6520470366e-001
 2.0199322099e+000	 3.3068865821e+000	-7.2194083965e-001
 1.9860833507e+000	 3.3273259419e+000	-6.7117325279e-001
 1.9520709467e+000	 3.3473936158e+000	-6.1241961198e-001
 1.9179010044e+000	 3.3670878719e+000	-5.4520708404e-001
 1.8835795485e+000	 3.3864071056e+000	-4.6907376367e-001
 1.8491126183e+000	 3.4053498388e+000	-4.7977751095e-001
 1.8145062651e+000	 3.4239147206e+000	-5.1195962529e-001
 1.7797665481e+000	 3.4421005265e+000	-5.3268787749e-001
 2.1341180382e+000	 3.2642824937e+000	-8.1855621189e-001
 2.1005806386e+000	 3.2859642391e+000	-7.9392722116e-001
 2.0668606459e+000	 3.3072778943e+000	-7.6234295127e-001
 2.0329640306e+000	 3.3282213343e+000	-7.2330862703e-001
 1.9988967917e+000	 3.3487925609e+000	-6.7633627128e-001
 1.9646649528e+000	 3.3689897036e+000	-6.2094619298e-001
 1.9302745593e+000	 3.3888110195e+000	-5.5666845550e-001
 1.8957316746e+000	 3.4082548933e+000	-4.8304432110e-001
 1.8610423772e+000	 3.4273198378e+000	-4.5137836341e-001
 1.8262127571e+000	 3.4460044930e+000	-4.8566274973e-001
 1.7912489129e+000	 3.4643076266e+000	-5.0768712122e-001
 2.1477982820e+000	 3.2852073815e+000	-8.0059077332e-001
 2.1140458991e+000	 3.3070281124e+000	-7.8165087752e-001
 2.0801097526e+000	 3.3284783936e+000	-7.5532749883e-001
 2.0459958514e+000	 3.3495560864e+000	-7.2112740579e-001
 2.0117102327e+000	 3.3702591799e+000	-6.7856438514e-001
 1.9772589590e+000	 3.3905857914e+000	-6.2716074616e-001
 1.9426481142e+000	 3.4105341670e+000	-5.6644880482e-001
 1.9078838007e+000	 3.4301026811e+000	-4.9597234372e-001
 1.8729721360e+000	 3.4492898367e+000	-4.2277342804e-001
 1.8379192492e+000	 3.4680942654e+000	-4.5968179074e-001
 1.8027312778e+000	 3.4865147268e+000	-4.8351552533e-001
 2.1614785259e+000	 3.3061322693e+000	-7.7716778299e-001
 2.1275111596e+000	 3.3280919857e+000	-7.6449628287e-001
 2.0933588593e+000	 3.3496788930e+000	-7.4402372387e-001
 2.0590276721e+000	 3.3708908386e+000	-7.1525779003e-001
 2.0245236737e+000	 3.3917257989e+000	-6.7771339774e-001
 1.9898529651e+000	 3.4121818793e+000	-6.3091421723e-001
 1.9550216690e+000	 3.4322573146e+000	-5.7439417353e-001
 1.9200359268e+000	 3.4519504689e+000	-5.0769892283e-001
 1.8849018948e+000	 3.4712598357e+000	-4.3038730017e-001
 1.8496257412e+000	 3.4901840378e+000	-4.3412292067e-001
 1.8142136426e+000	 3.5087218270e+000	-4.6027161832e-001
 2.1751587697e+000	 3.3270571571e+000	-7.4816037905e-001
 2.1409764201e+000	 3.3491558591e+000	-7.4233210715e-001
 2.1066079660e+000	 3.3708793923e+000	-7.2829578288e-001
 2.0720594928e+000	 3.3922255907e+000	-7.0555937778e-001
 2.0373371146e+000	 3.4131924178e+000	-6.7363830396e-001
 2.0024469712e+000	 3.4337779671e+000	-6.3205695353e-001
 1.9673952239e+000	 3.4539804622e+000	-5.8035021738e-001
 1.9321880529e+000	 3.4737982567e+000	-5.1806497879e-001
 1.8968316537e+000	 3.4932298346e+000	-4.4476157806e-001
 1.8613322332e+000	 3.5122738102e+000	-4.0909257720e-001
 1.8256960074e+000	 3.5309289271e+000	-4.3805441516e-001
 2.1888390135e+000	 3.3479820449e+000	-7.1344012767e-001
 2.1544416806e+000	 3.3702197324e+000	-7.1502564151e-001
 2.1198570727e+000	 3.3920798916e+000	-7.0800664944e-001
 2.0850913135e+000	 3.4135603429e+000	-6.9189078277e-001
 2.0501505556e+000	 3.4346590368e+000	-6.6619331549e-001
 2.0150409773e+000	 3.4553740550e+000	-6.3043872279e-001
 1.9797687788e+000	 3.4757036097e+000	-5.8416221838e-001
 1.9443401791e+000	 3.4956460444e+000	-5.2691126643e-001
 1.9087614125e+000	 3.5151998336e+000	-4.5824706390e-001
 1.8730387253e+000	 3.5343635826e+000	-3.8469745502e-001
 1.8371783722e+000	 3.5531360273e+000	-4.1696340206e-001
 1.7223547240e+000	 3.3310650256e+000	-6.6671666339e-001
 1.6886124501e+000	 3.3482962822e+000	-6.2157295926e-001
 1.6547528541e+000	 3.3651586875e+000	-5.7950203130e-001
 1.6207818052e+000	 3.3816514220e+000	-5.3969690130e-001
 1.5867051686e+000	 3.3977737871e+000	-5.0139091712e-001
 1.5525288020e+000	 3.4135252041e+000	-4.6385847926e-001
 1.5182585531e+000	 3.4289052139e+000	-4.2641565624e-001
 1.4839002560e+000	 3.4439134760e+000	-3.8842068956e-001
 1.4494597290e+000	 3.4585497675e+000	-3.4927438922e-001
 1.4149427715e+000	 3.4728139820e+000	-3.0842042123e-001
 1.3803551609e+000	 3.4867061290e+000	-2.6534548884e-001
 1.7338370888e+000	 3.3532721258e+000	-6.3902986504e-001
 1.6998698665e+000	 3.3706182574e+000	-5.9335320515e-001
 1.6657845398e+000	 3.3875930787e+000	-5.5096527393e-001
 1.6315870172e+000	 3.4041957648e+000	-5.1105382271e-001
 1.5972832030e+000	 3.4204256123e+000	-4.7284745772e-001
 1.5628789940e+000	 3.4362820388e+000	-4.3561637353e-001
 1.5283802767e+000	 3.4517645820e+000	-3.9867297339e-001
 1.4937929244e+000	 3.4668728992e+000	-3.6137237744e-001
 1.4591227939e+000	 3.4816067659e+000	-3.2311281984e-001
 1.4243757233e+000	 3.4959660752e+000	-2.8333593615e-001
 1.3895575286e+000	 3.5099508365e+000	-2.4152694272e-001
 1.7453194536e+000	 3.3754792260e+000	-6.1168745676e-001
 1.7111272828e+000	 3.3929402326e+000	-5.6583891804e-001
 1.6768162255e+000	 3.4100274700e+000	-5.2347414599e-001
 1.6423922293e+000	 3.4267401076e+000	-4.8377528162e-001
 1.6078612375e+000	 3.4430774376e+000	-4.4596587764e-001
 1.5732291861e+000	 3.4590388735e+000	-4.0931163875e-001
 1.5385020004e+000	 3.4746239501e+000	-3.7312104710e-001
 1.5036855927e+000	 3.4898323224e+000	-3.3674587376e-001
 1.4687858588e+000	 3.5046637644e+000	-2.9958157735e-001
 1.4338086751e+000	 3.5191181684e+000	-2.6106759127e-001
 1.3987598963e+000	 3.5331955441e+000	-2.2068750119e-001
 1.7568018184e+000	 3.3976863261e+000	-5.8478528494e-001
 1.7223846991e+000	 3.4152622078e+000	-5.3912050429e-001
 1.6878479112e+000	 3.4324618612e+000	-4.9711363699e-001
 1.6531974413e+000	 3.4492844505e+000	-4.5794087435e-001
 1.6184392720e+000	 3.4657292628e+000	-4.2082040417e-001
 1.5835793781e+000	 3.4817957082e+000	-3.8501315801e-001
 1.5486237241e+000	 3.4974833182e+000	-3.4982344173e-001
 1.5135782611e+000	 3.5127917456e+000	-3.1459945032e-001
 1.4784489236e+000	 3.5277207628e+000	-2.7873366801e-001
 1.4432416269e+000	 3.5422702616e+000	-2.4166315520e-001
 1.4079622641e+000	 3.5564402516e+000	-2.0286972390e-001
 1.7682841833e+000	 3.4198934263e+000	-5.5841976791e-001
 1.7336421155e+000	 3.4375841830e+000	-5.1328910965e-001
 1.6988795969e+000	 3.4548962525e+000	-4.7196963889e-001
 1.6640026533e+000	 3.4718287933e+000	-4.3363125837e-001
 1.6290173064e+000	 3.4883810881e+000	-3.9748648010e-001
 1.5939295701e+000	 3.5045525429e+000	-3.6279117971e-001
 1.5587454478e+000	 3.5203426863e+000	-3.2884523228e-001
 1.5234709295e+000	 3.5357511687e+000	-2.9499303040e-001
 1.4881119885e+000	 3.5507777613e+000	-2.6062388579e-001
 1.4526745787e+000	 3.5654223549e+000	-2.2517231577e-001
 1.4171646318e+000	 3.5796849591e+000	-1.8811821669e-001
 1.7797665481e+000	 3.4421005265e+000	-5.3268787749e-001
 1.7448995318e+000	 3.4599061583e+000	-4.8843659531e-001
 1.7099112826e+000	 3.4773306437e+000	-4.4812891699e-001
 1.6748078654e+000	 3.4943731361e+000	-4.1092811812e-001
 1.6395953409e+000	 3.5110329133e+000	-3.7604072448e-001
 1.6042797621e+000	 3.5273093776e+000	-3.4271727357e-001
 1.5688671715e+000	 3.5432020544e+000	-3.1025295573e-001
 1.5333635979e+000	 3.5587105919e+000	-2.7798813549e-001
 1.4977750533e+000	 3.5738347597e+000	-2.4530875460e-001
 1.4621075305e+000	 3.5885744481e+000	-2.1164661814e-001
 1.4263669996e+000	 3.6029296666e+000	-1.7647956549e-001
 1.7912489129e+000	 3.4643076266e+000	-5.0768712122e-001
 1.7561569481e+000	 3.4822281335e+000	-4.6465551508e-001
 1.7209429682e+000	 3.4997650350e+000	-4.2567908194e-001
 1.6856130774e+000	 3.5169174789e+000	-3.8991413206e-001
 1.6501733753e+000	 3.5336847386e+000	-3.5656089496e-001
 1.6146299541e+000	 3.5500662123e+000	-3.2486428826e-001
 1.5789888952e+000	 3.5660614225e+000	-2.9411456413e-001
 1.5432562662e+000	 3.5816700151e+000	-2.6364783400e-001
 1.5074381182e+000	 3.5968917582e+000	-2.3284647295e-001
 1.4715404823e+000	 3.6117265413e+000	-2.0113940523e-001
 1.4355693673e+000	 3.6261743742e+000	-1.6800227294e-001
 1.8027312778e+000	 3.4865147268e+000	-4.8351552533e-001
 1.7674143645e+000	 3.5045501087e+000	-4.4203909323e-001
 1.7319746539e+000	 3.5221994262e+000	-4.0470856280e-001
 1.6964182894e+000	 3.5394618217e+000	-3.7067294104e-001
 1.6607514098e+000	 3.5563365638e+000	-3.3912585152e-001
 1.6249801461e+000	 3.5728230470e+000	-3.0930631066e-001
 1.5891106189e+000	 3.5889207906e+000	-2.8049937958e-001
 1.5531489346e+000	 3.6046294383e+000	-2.5203669210e-001
 1.5171011831e+000	 3.6199487566e+000	-2.2329686052e-001
 1.4809734342e+000	 3.6348786345e+000	-1.9370576054e-001
 1.4447717350e+000	 3.6494190817e+000	-1.6273669729e-001
 1.8142136426e+000	 3.5087218270e+000	-4.6027161832e-001
 1.7786717808e+000	 3.5268720839e+000	-4.2068120334e-001
 1.7430063396e+000	 3.5446338175e+000	-3.8530658115e-001
 1.7072235015e+000	 3.5620061645e+000	-3.5328911781e-001
 1.6713294442e+000	 3.5789883890e+000	-3.2381552156e-001
 1.6353303381e+000	 3.5955798816e+000	-2.9611862670e-001
 1.5992323426e+000	 3.6117801587e+000	-2.6947805082e-001
 1.5630416030e+000	 3.6275888614e+000	-2.4322072621e-001
 1.5267642479e+000	 3.6430057551e+000	-2.1672130694e-001
 1.4904063860e+000	 3.6580307277e+000	-1.8940245299e-001
 1.4539741028e+000	 3.6726637892e+000	-1.6073499371e-001
 1.8256960074e+000	 3.5309289271e+000	-4.3805441516e-001
 1.7899291972e+000	 3.5491940591e+000	-4.0067634785e-001
 1.7540380253e+000	 3.5670682087e+000	-3.6756312618e-001
 1.7180287135e+000	 3.5845505073e+000	-3.3784813775e-001
 1.6819074787e+000	 3.6016402143e+000	-3.1071086637e-001
 1.6456805302e+000	 3.6183367163e+000	-2.8537768362e-001
 1.6093540662e+000	 3.6346395268e+000	-2.6112251155e-001
 1.5729342714e+000	 3.6505482846e+000	-2.3726735750e-001
 1.5364273128e+000	 3.6660627535e+000	-2.1318272235e-001
 1.4998393378e+000	 3.6811828209e+000	-1.8828788398e-001
 1.4631764705e+000	 3.6959084967e+000	-1.6205105776e-001
 1.8371783722e+000	 3.5531360273e+000	-4.1696340206e-001
 1.8011866135e+000	 3.5715160343e+000	-3.8211963843e-001
 1.7650697110e+000	 3.5895026000e+000	-3.5156893070e-001
 1.7288339256e+000	 3.6070948501e+000	-3.2443635065e-001
 1.6924855132e+000	 3.6242920395e+000	-2.9989384879e-001
 1.6560307222e+000	 3.6410935510e+000	-2.7716105371e-001
 1.6194757899e+000	 3.6574988949e+000	-2.5550594029e-001
 1.5828269397e+000	 3.6735077078e+000	-2.3424536790e-001
 1.5460903777e+000	 3.6891197520e+000	-2.1274548994e-001
 1.5092722896e+000	 3.7043349141e+000	-1.9042203631e-001
 1.4723788383e+000	 3.7191532043e+000	-1.6674047103e-001
 1.3803551609e+000	 3.4867061290e+000	-2.6534548884e-001
 1.3457026502e+000	 3.5002263323e+000	-3.1617104986e-001
 1.3109909654e+000	 3.5133748290e+000	-3.4969977833e-001
 1.2762258024e+000	 3.5261519680e+000	-3.6569478224e-001
 1.2414128249e+000	 3.5385582090e+000	-3.6316793315e-001
 1.2065576614e+000	 3.5505941207e+000	-3.4210048073e-001
 1.1716659033e+000	 3.5622603795e+000	-3.0808505929e-001
 1.1367431019e+000	 3.5735577679e+000	-2.6379385124e-001
 1.1017947664e+000	 3.5844871729e+000	-2.1174169629e-001
 1.0668263616e+000	 3.5950495844e+000	-1.5428613341e-001
 1.0318433056e+000	 3.6052460932e+000	-9.3627778402e-002
 1.3895575286e+000	 3.5099508365e+000	-2.4152694272e-001
 1.3546740012e+000	 3.5235611745e+000	-2.9449792465e-001
 1.3197309052e+000	 3.5367973278e+000	-3.2971911493e-001
 1.2847339744e+000	 3.5496596478e+000	-3.4692847145e-001
 1.2496889104e+000	 3.5621485970e+000	-3.4586488813e-001
 1.2146013792e+000	 3.5742647481e+000	-3.2304349987e-001
 1.1794770093e+000	 3.5860087820e+000	-2.8872454246e-001
 1.1443213892e+000	 3.5973814863e+000	-2.4559943898e-001
 1.1091400648e+000	 3.6083837541e+000	-1.9619839374e-001
 1.0739385374e+000	 3.6190165816e+000	-1.4289047893e-001
 1.0387222610e+000	 3.6292810672e+000	-8.7884063468e-002
 1.3987598963e+000	 3.5331955441e+000	-2.2068750119e-001
 1.3636453522e+000	 3.5468960167e+000	-2.7526729004e-001
 1.3284708449e+000	 3.5602198267e+000	-3.1163097492e-001
 1.2932421464e+000	 3.5731673276e+000	-3.2949153802e-001
 1.2579649959e+000	 3.5857389851e+000	-3.2861742729e-001
 1.2226450969e+000	 3.5979353756e+000	-3.0531226850e-001
 1.1872881153e+000	 3.6097571845e+000	-2.7015610166e-001
 1.1518996766e+000	 3.6212052048e+000	-2.2770870699e-001
 1.1164853633e+000	 3.6322803352e+000	-1.8051607880e-001
 1.0810507131e+000	 3.6429835788e+000	-1.3095917671e-001
 1.0456012164e+000	 3.6533160411e+000	-8.1254406754e-002
 1.4079622641e+000	 3.5564402516e+000	-2.0286972390e-001
 1.3726167032e+000	 3.5702308590e+000	-2.5852979342e-001
 1.3372107847e+000	 3.5836423255e+000	-2.9549393394e-001
 1.3017503184e+000	 3.5966750074e+000	-3.1345032279e-001
 1.2662410814e+000	 3.6093293732e+000	-3.1214413165e-001
 1.2306888146e+000	 3.6216060031e+000	-2.8861198864e-001
 1.1950992213e+000	 3.6335055871e+000	-2.5209352594e-001
 1.1594779639e+000	 3.6450289232e+000	-2.0984447451e-001
 1.1238306617e+000	 3.6561769164e+000	-1.6442704044e-001
 1.0881628888e+000	 3.6669505761e+000	-1.1823442103e-001
 1.0524801718e+000	 3.6773510151e+000	-7.3491338815e-002
 1.4171646318e+000	 3.5796849591e+000	-1.8811821669e-001
 1.3815880542e+000	 3.5935657012e+000	-2.4433790594e-001
 1.3459507245e+000	 3.6070648244e+000	-2.8136816924e-001
 1.3102584905e+000	 3.6201826871e+000	-2.9887254638e-001
 1.2745171669e+000	 3.6329197612e+000	-2.9657311915e-001
 1.2387325324e+000	 3.6452766306e+000	-2.7264879982e-001
 1.2029103274e+000	 3.6572539896e+000	-2.3425132165e-001
 1.1670562512e+000	 3.6688526417e+000	-1.9173005851e-001
 1.1311759602e+000	 3.6800734975e+000	-1.4766384664e-001
 1.0952750646e+000	 3.6909175733e+000	-1.0445846727e-001
 1.0593591271e+000	 3.7013859890e+000	-6.4347234412e-002
 1.4263669996e+000	 3.6029296666e+000	-1.7647956549e-001
 1.3905594052e+000	 3.6169005434e+000	-2.3274586372e-001
 1.3546906642e+000	 3.6304873233e+000	-2.6931540803e-001
 1.3187666625e+000	 3.6436903669e+000	-2.8582726475e-001
 1.2827932524e+000	 3.6565101493e+000	-2.8198060892e-001
 1.2467762501e+000	 3.6689472580e+000	-2.5712974893e-001
 1.2107214334e+000	 3.6810023921e+000	-2.1634468929e-001
 1.1746345386e+000	 3.6926763602e+000	-1.7308925765e-001
 1.1385212586e+000	 3.7039700787e+000	-1.2995933536e-001
 1.1023872403e+000	 3.7148845705e+000	-8.9373629936e-002
 1.0662380825e+000	 3.7254209630e+000	-5.3574317543e-002
 1.4355693673e+000	 3.6261743742e+000	-1.6800227294e-001
 1.3995307562e+000	 3.6402353856e+000	-2.2380961122e-001
 1.3634306040e+000	 3.6539098221e+000	-2.5939887783e-001
 1.3272748345e+000	 3.6671980467e+000	-2.7438482635e-001
 1.2910693379e+000	 3.6801005373e+000	-2.6844390524e-001
 1.2548199679e+000	 3.6926178855e+000	-2.4131364593e-001
 1.2185325394e+000	 3.7047507947e+000	-1.9808950128e-001
 1.1822128259e+000	 3.7165000786e+000	-1.5364633686e-001
 1.1458665570e+000	 3.7278666598e+000	-1.1104660588e-001
 1.1094994161e+000	 3.7388515678e+000	-7.2722280792e-002
 1.0731170379e+000	 3.7494559369e+000	-4.0924666272e-002
 1.4447717350e+000	 3.6494190817e+000	-1.6273669729e-001
 1.4085021072e+000	 3.6635702278e+000	-2.1758674688e-001
 1.3721705438e+000	 3.6773323210e+000	-2.5168325864e-001
 1.3357830065e+000	 3.6907057265e+000	-2.6461683100e-001
 1.2993454234e+000	 3.7036909254e+000	-2.5604136294e-001
 1.2628636856e+000	 3.7162885130e+000	-2.2567344075e-001
 1.2263436454e+000	 3.7284991972e+000	-1.7920228054e-001
 1.1897911133e+000	 3.7403237971e+000	-1.3312601242e-001
 1.1532118555e+000	 3.7517632410e+000	-9.2533283815e-002
 1.1166115918e+000	 3.7628185650e+000	-7.1259229537e-002
 1.0799959932e+000	 3.7734909109e+000	-6.1424864598e-002
 1.4539741028e+000	 3.6726637892e+000	-1.6073499371e-001
 1.4174734582e+000	 3.6869050700e+000	-2.1413647077e-001
 1.3809104835e+000	 3.7007548198e+000	-2.4623463704e-001
 1.3442911785e+000	 3.7142134063e+000	-2.5659609024e-001
 1.3076215089e+000	 3.7272813135e+000	-2.4485235417e-001
 1.2709074034e+000	 3.7399591404e+000	-2.1069926360e-001
 1.2341547515e+000	 3.7522475997e+000	-1.5995164063e-001
 1.1973694006e+000	 3.7641475155e+000	-1.2103216893e-001
 1.1605571539e+000	 3.7756598221e+000	-9.5331538275e-002
 1.1237237676e+000	 3.7867855622e+000	-8.1731979301e-002
 1.0868749486e+000	 3.7975258849e+000	-7.9178415087e-002
 1.4631764705e+000	 3.6959084967e+000	-1.6205105776e-001
 1.4264448092e+000	 3.7102399122e+000	-2.1351953421e-001
 1.3896504233e+000	 3.7241773187e+000	-2.4312046189e-001
 1.3527993506e+000	 3.7377210861e+000	-2.5039658928e-001
 1.3158975944e+000	 3.7508717015e+000	-2.3427045789e-001
 1.2789511211e+000	 3.7636297679e+000	-1.9255181525e-001
 1.2419658575e+000	 3.7759960022e+000	-1.4448090115e-001
 1.2049476880e+000	 3.7879712340e+000	-1.1355420084e-001
 1.1679024524e+000	 3.7995564033e+000	-9.5498882819e-002
 1.1308359433e+000	 3.8107525595e+000	-8.9166497306e-002
 1.0937539040e+000	 3.8215608588e+000	-9.3473103606e-002
 1.4723788383e+000	 3.7191532043e+000	-1.6674047103e-001
 1.4354161602e+000	 3.7335747544e+000	-2.1579819131e-001
 1.3983903631e+000	 3.7475998176e+000	-2.4240950181e-001
 1.3613075226e+000	 3.7612287659e+000	-2.3172569810e-001
 1.3241736799e+000	 3.7744620896e+000	-2.0666572047e-001
 1.2869948389e+000	 3.7873003954e+000	-1.7169607445e-001
 1.2497769635e+000	 3.7997444048e+000	-1.2725143386e-001
 1.2125259753e+000	 3.8117949524e+000	-1.0394328090e-001
 1.1752477508e+000	 3.8234529844e+000	-9.3145269792e-002
 1.1379481191e+000	 3.8347195567e+000	-9.3678392086e-002
 1.1006328594e+000	 3.8455958328e+000	-1.0442998703e-001
 1.0318433056e+000	 3.6052460932e+000	-9.3627778402e-002
 9.9685096773e-001	 3.6150778896e+000	-7.2153885443e-002
 9.6185466627e-001	 3.6245462614e+000	-4.9090365640e-002
 9.2685966671e-001	 3.6336525918e+000	-2.5796978370e-002
 8.9187117966e-001	 3.6423983581e+000	-3.4889884026e-003
 8.5689435901e-001	 3.6507851289e+000	 1.6760712977e-002
 8.2193430012e-001	 3.6588145630e+000	 3.4019235081e-002
 7.8699603810e-001	 3.6664884066e+000	 4.7491076235e-002
 7.5208454618e-001	 3.6738084919e+000	 5.6515286869e-002
 7.1720473409e-001	 3.6807767345e+000	 6.0562420824e-002
 6.8236144655e-001	 3.6873951316e+000	 5.9231288585e-002
 1.0387222610e+000	 3.6292810672e+000	-8.7884063468e-002
 1.0034966409e+000	 3.6391784089e+000	-6.4330262217e-002
 9.6826703071e-001	 3.6487099031e+000	-4.0460101835e-002
 9.3303873116e-001	 3.6578769425e+000	-1.7648327989e-002
 8.9781698753e-001	 3.6666810138e+000	 2.8783749063e-003
 8.6260698807e-001	 3.6751236964e+000	 2.0039198262e-002
 8.2741386212e-001	 3.6832066601e+000	 3.2896766734e-002
 7.9224267836e-001	 3.6909316627e+000	 4.0654451872e-002
 7.5709844316e-001	 3.6983005485e+000	 4.2653455645e-002
 7.2198609898e-001	 3.7053152461e+000	 3.8369677730e-002
 6.8691052287e-001	 3.7119777658e+000	 2.7410380572e-002
 1.0456012164e+000	 3.6533160411e+000	-8.1254406754e-002
 1.0101423140e+000	 3.6632789282e+000	-5.5726688684e-002
 9.7467939516e-001	 3.6728735449e+000	-3.1204997663e-002
 9.3921779561e-001	 3.6821012931e+000	-9.0789489866e-003
 9.0376279540e-001	 3.6909636695e+000	 9.4135350507e-003
 8.6831961714e-001	 3.6994622640e+000	 2.3183974005e-002
 8.3289342413e-001	 3.7075987571e+000	 3.1290815503e-002
 7.9748931862e-001	 3.7153749187e+000	 3.2936672528e-002
 7.6211234014e-001	 3.7227926051e+000	 2.7465325743e-002
 7.2676746388e-001	 3.7298537576e+000	 1.4358505035e-002
 6.9145959918e-001	 3.7365604000e+000	-6.7675353826e-003
 1.0524801718e+000	 3.6773510151e+000	-7.3491338815e-002
 1.0167879871e+000	 3.6873794474e+000	-4.6098423797e-002
 9.8109175960e-001	 3.6970371866e+000	-2.1083413692e-002
 9.4539686005e-001	 3.7063256437e+000	 1.4932526708e-004
 9.0970860326e-001	 3.7152463252e+000	 1.6350817148e-002
 8.7403224620e-001	 3.7238008315e+000	 2.6425158007e-002
 8.3837298613e-001	 3.7319908542e+000	 2.9426929395e-002
 8.0273595887e-001	 3.7398181748e+000	 2.4558357684e-002
 7.6712623712e-001	 3.7472846618e+000	 1.1166233522e-002
 7.3154882878e-001	 3.7543922692e+000	-9.8631330951e-003
 6.9600867549e-001	 3.7611430342e+000	-3.2765567218e-002
 1.0593591271e+000	 3.7013859890e+000	-6.4347234412e-002
 1.0234336602e+000	 3.7114799667e+000	-3.5200563549e-002
 9.8750412404e-001	 3.7212008284e+000	-9.8535427407e-003
 9.5157592450e-001	 3.7305499943e+000	 1.0274831579e-002
 9.1565441113e-001	 3.7395289810e+000	 2.3924716577e-002
 8.7974487526e-001	 3.7481393990e+000	 2.9993036094e-002
 8.4385254813e-001	 3.7563829513e+000	 2.1389690173e-002
 8.0798259913e-001	 3.7642614308e+000	 7.6074608810e-003
 7.7214013409e-001	 3.7717767184e+000	-8.2061880111e-003
 7.3633019367e-001	 3.7789307808e+000	-2.5332797511e-002
 7.0055775180e-001	 3.7857256684e+000	-4.3110637582e-002
 1.0662380825e+000	 3.7254209630e+000	-5.3574317543e-002
 1.0300793333e+000	 3.7355804860e+000	-2.2788046235e-002
 9.9391648849e-001	 3.7453644701e+000	 2.7265847046e-003
 9.5775498894e-001	 3.7547743449e+000	 1.3907400349e-002
 9.2160021899e-001	 3.7638116367e+000	 1.2489931513e-002
 8.8545750432e-001	 3.7724779665e+000	 7.1859390888e-003
 8.4933211013e-001	 3.7807750484e+000	-1.1080842414e-003
 8.1322923938e-001	 3.7887046868e+000	-1.1556733159e-002
 7.7715403107e-001	 3.7962687750e+000	-2.3384803761e-002
 7.4111155856e-001	 3.8034692923e+000	-3.5876312017e-002
 7.0510682811e-001	 3.8103083026e+000	-4.8373422166e-002
 1.0731170379e+000	 3.7494559369e+000	-4.0924666272e-002
 1.0367250065e+000	 3.7596810052e+000	-2.4322261569e-002
 1.0003288529e+000	 3.7695281119e+000	-1.4858202967e-002
 9.6393405339e-001	 3.7789986955e+000	-1.0608226555e-002
 9.2754602686e-001	 3.7880942924e+000	-1.0546249104e-002
 8.9117013338e-001	 3.7968165341e+000	-1.3710369094e-002
 8.5481167213e-001	 3.8051671455e+000	-1.9202153175e-002
 8.1847587964e-001	 3.8131479429e+000	-2.6185814063e-002
 7.8216792804e-001	 3.8207608316e+000	-3.3887285408e-002
 7.4589292346e-001	 3.8280078039e+000	-4.1593199216e-002
 7.0965590442e-001	 3.8348909368e+000	-4.8649771524e-002
 1.0799959932e+000	 3.7734909109e+000	-6.1424864598e-002
 1.0433706796e+000	 3.7837815245e+000	-4.6056706815e-002
 1.0067412174e+000	 3.7936917536e+000	-3.6338266877e-002
 9.7011311783e-001	 3.8032230461e+000	-3.1171881433e-002
 9.3349183472e-001	 3.8123769481e+000	-2.9526352254e-002
 8.9688276244e-001	 3.8211551016e+000	-3.0436313299e-002
 8.6029123413e-001	 3.8295592426e+000	-3.3001481549e-002
 8.2372251989e-001	 3.8375911989e+000	-3.6385797153e-002
 7.8718182501e-001	 3.8452528882e+000	-3.9816458522e-002
 7.5067428835e-001	 3.8525463155e+000	-4.2582858143e-002
 7.1420498073e-001	 3.8594735710e+000	-4.4035424923e-002
 1.0868749486e+000	 3.7975258849e+000	-7.9178415087e-002
 1.0500163527e+000	 3.8078820438e+000	-6.4136441727e-002
 1.0131535818e+000	 3.8178553953e+000	-5.4078364738e-002
 9.7629218228e-001	 3.8274473967e+000	-4.7899756757e-002
 9.3943764258e-001	 3.8366596038e+000	-4.4564359534e-002
 9.0259539150e-001	 3.8454936691e+000	-4.3103417154e-002
 8.6577079613e-001	 3.8539513397e+000	-4.2614890717e-002
 8.2896916014e-001	 3.8620344550e+000	-4.2262560170e-002
 7.9219572198e-001	 3.8697449448e+000	-4.1275019071e-002
 7.5545565324e-001	 3.8770848270e+000	-3.8944568180e-002
 7.1875405704e-001	 3.8840562052e+000	-3.4626013861e-002
 1.0937539040e+000	 3.8215608588e+000	-9.3473103606e-002
 1.0566620258e+000	 3.8319825630e+000	-7.8681190517e-002
 1.0195659463e+000	 3.8420190371e+000	-6.8196507539e-002
 9.8247124672e-001	 3.8516717474e+000	-6.0907900252e-002
 9.4538345045e-001	 3.8609422596e+000	-5.5774107721e-002
 9.0830802055e-001	 3.8698322366e+000	-5.1823061368e-002
 8.7125035813e-001	 3.8783434368e+000	-4.8151062969e-002
 8.3421580039e-001	 3.8864777110e+000	-4.3921847604e-002
 7.9720961895e-001	 3.8942370014e+000	-3.8365537500e-002
 7.6023701813e-001	 3.9016233386e+000	-3.0777492815e-002
 7.2330313334e-001	 3.9086388394e+000	-2.0517065464e-002
 1.1006328594e+000	 3.8455958328e+000	-1.0442998703e-001
 1.0633076989e+000	 3.8560830823e+000	-8.9810543119e-002
 1.0259783107e+000	 3.8661826788e+000	-7.8810568048e-002
 9.8865031116e-001	 3.8758960980e+000	-7.0312219416e-002
 9.5132925831e-001	 3.8852249153e+000	-6.3269293291e-002
 9.1402064961e-001	 3.8941708042e+000	-5.6706488199e-002
 8.7672992013e-001	 3.9027355338e+000	-4.9718545890e-002
 8.3946244064e-001	 3.9109209671e+000	-4.1469274854e-002
 8.0222351592e-001	 3.9187290581e+000	-3.1190462650e-002
 7.6501838302e-001	 3.9261618501e+000	-1.8180683264e-002
 7.2785220965e-001	 3.9332214737e+000	-1.8040057377e-003
 6.8236144655e-001	 3.6873951316e+000	 5.9231288585e-002
 6.4755946190e-001	 3.6936657595e+000	 2.5182792496e-001
 6.1280349065e-001	 3.6995907722e+000	 3.6268338826e-001
 5.7809817425e-001	 3.7051723983e+000	 2.9956827415e-001
 5.4344808385e-001	 3.7104129393e+000	 2.5418103181e-001
 5.0885771918e-001	 3.7153147675e+000	 2.2417312350e-001
 4.7433150743e-001	 3.7198803235e+000	 2.0739056967e-001
 4.3987380232e-001	 3.7241121140e+000	 2.0187345023e-001
 4.0548888310e-001	 3.7280127100e+000	 2.0585499465e-001
 3.7118095373e-001	 3.7315847437e+000	 2.1776027523e-001
 3.3695414212e-001	 3.7348309073e+000	 2.3620451915e-001
 6.8691052287e-001	 3.7119777658e+000	 2.7410380572e-002
 6.5187652498e-001	 3.7182901979e+000	 1.9058861517e-001
 6.1688884725e-001	 3.7242547107e+000	 3.0963789337e-001
 5.8195216208e-001	 3.7298735476e+000	 2.3280306857e-001
 5.4707107108e-001	 3.7351490256e+000	 1.6944273705e-001
 5.1225010397e-001	 3.7400835326e+000	 1.1717532176e-001
 4.7749371748e-001	 3.7446795256e+000	 7.3820721351e-002
 4.4280629434e-001	 3.7489395281e+000	 3.7399732140e-002
 4.0819214232e-001	 3.7528661280e+000	 3.2603272634e-002
 3.7365549343e-001	 3.7564619753e+000	 4.8768075483e-002
 3.3920050307e-001	 3.7597297800e+000	 7.6101034103e-002
 6.9145959918e-001	 3.7365604000e+000	-6.7675353826e-003
 6.5619358806e-001	 3.7429146363e+000	 1.2642811685e-001
 6.2097420386e-001	 3.7489186492e+000	 2.4742041516e-001
 5.8580614991e-001	 3.7545746969e+000	 1.7194856693e-001
 5.5069405831e-001	 3.7598851118e+000	 1.1754336779e-001
 5.1564248877e-001	 3.7648522977e+000	 8.0467014861e-002
 4.8065592754e-001	 3.7694787278e+000	 5.9307980823e-002
 4.4573878635e-001	 3.7737669422e+000	 5.2616307042e-002
 4.1089540154e-001	 3.7777195461e+000	 5.8903436227e-002
 3.7613003312e-001	 3.7813392070e+000	 7.6642189054e-002
 3.4144686401e-001	 3.7846286527e+000	 1.0426688221e-001
 6.9600867549e-001	 3.7611430342e+000	-3.2765567218e-002
 6.6051065114e-001	 3.7675390747e+000	 8.7784839928e-002
 6.2505956047e-001	 3.7735825876e+000	 2.3115025077e-001
 5.8966013774e-001	 3.7792758462e+000	 1.6802669196e-001
 5.5431704553e-001	 3.7846211981e+000	 1.2169218620e-001
 5.1903487357e-001	 3.7896210628e+000	 9.1204532146e-002
 4.8381813759e-001	 3.7942779299e+000	 7.5201128396e-002
 4.4867127837e-001	 3.7985943563e+000	 7.2280480059e-002
 4.1359866076e-001	 3.8025729642e+000	 8.1001945400e-002
 3.7860457281e-001	 3.8062164386e+000	 9.9885631023e-002
 3.4369322496e-001	 3.8095275254e+000	 1.2741243301e-001
 7.0055775180e-001	 3.7857256684e+000	-4.3110637582e-002
 6.6482771422e-001	 3.7921635131e+000	 6.4750936975e-002
 6.2914491707e-001	 3.7982465261e+000	 1.9394446743e-001
 5.9351412557e-001	 3.8039769955e+000	 1.6294310835e-001
 5.5794003276e-001	 3.8093572843e+000	 1.2404187964e-001
 5.2242725836e-001	 3.8143898280e+000	 9.9540743281e-002
 4.8698034763e-001	 3.8190771321e+000	 8.8126898332e-002
 4.5160377038e-001	 3.8234217704e+000	 8.8448142149e-002
 4.1630191998e-001	 3.8274263822e+000	 9.9112530520e-002
 3.8107911250e-001	 3.8310936702e+000	 1.1868819092e-001
 3.4593958591e-001	 3.8344263981e+000	 1.4570328636e-001
 7.0510682811e-001	 3.8103083026e+000	-4.8373422166e-002
 6.6914477730e-001	 3.8167879515e+000	 4.6983456615e-002
 6.3323027367e-001	 3.8229104646e+000	 1.6222578481e-001
 5.9736811339e-001	 3.8286781449e+000	 1.5702702733e-001
 5.6156301998e-001	 3.8340933706e+000	 1.2489926588e-001
 5.2581964315e-001	 3.8391585931e+000	 1.0575974473e-001
 4.9014255768e-001	 3.8438763342e+000	 9.8346356354e-002
 4.5453626240e-001	 3.8482491845e+000	 1.0135703718e-001
 4.1900517920e-001	 3.8522798003e+000	 1.1344934059e-001
 3.8355365219e-001	 3.8559709018e+000	 1.3324016777e-001
 3.4818594685e-001	 3.8593252709e+000	 1.5930565388e-001
 7.0965590442e-001	 3.8348909368e+000	-4.8649771524e-002
 6.7346184038e-001	 3.8414123899e+000	 3.4390084718e-002
 6.3731563028e-001	 3.8475744031e+000	 1.3590511789e-001
 6.0122210122e-001	 3.8533792942e+000	 1.5060779591e-001
 5.6518600721e-001	 3.8588294569e+000	 1.2457132923e-001
 5.2921202794e-001	 3.8639273582e+000	 1.1014584191e-001
 4.9330476773e-001	 3.8686755364e+000	 1.0612083116e-001
 4.5746875441e-001	 3.8730765986e+000	 1.1124523748e-001
 4.2170843842e-001	 3.8771332183e+000	 1.2422692986e-001
 3.8602819188e-001	 3.8808481335e+000	 1.4373235379e-001
 3.5043230780e-001	 3.8842241436e+000	 1.6838633934e-001
 7.1420498073e-001	 3.8594735710e+000	-4.4035424923e-002
 6.7777890346e-001	 3.8660368283e+000	 2.6878613531e-002
 6.4140098688e-001	 3.8722383416e+000	 1.1489349479e-001
 6.0507608904e-001	 3.8780804435e+000	 1.4401489253e-001
 5.6880899443e-001	 3.8835655431e+000	 1.2336521521e-001
 5.3260441274e-001	 3.8886961233e+000	 1.1298354254e-001
 4.9646697778e-001	 3.8934747386e+000	 1.1171190606e-001
 4.6040124642e-001	 3.8979040127e+000	 1.1835113333e-001
 4.2441169764e-001	 3.9019866364e+000	 1.3166024486e-001
 3.8850273157e-001	 3.9057253651e+000	 1.5035601865e-001
 3.5267866874e-001	 3.9091230163e+000	 1.7311271979e-001
 7.1875405704e-001	 3.8840562052e+000	-3.4626013861e-002
 6.8209596653e-001	 3.8906612667e+000	 2.4356938310e-002
 6.4548634348e-001	 3.8969022800e+000	 9.9102053178e-002
 6.0893007687e-001	 3.9027815928e+000	 1.3757792294e-001
 5.7243198165e-001	 3.9083016294e+000	 1.2158822544e-001
 5.3599679753e-001	 3.9134648884e+000	 1.1455755025e-001
 4.9962918782e-001	 3.9182739407e+000	 1.1538141091e-001
 4.6333373843e-001	 3.9227314268e+000	 1.2291342297e-001
 4.2711495685e-001	 3.9268400545e+000	 1.3596461205e-001
 3.9097727126e-001	 3.9306025967e+000	 1.5330289437e-001
 3.5492502969e-001	 3.9340218890e+000	 1.7365272743e-001
 7.2330313334e-001	 3.9086388394e+000	-2.0517065464e-002
 6.8641302961e-001	 3.9152857051e+000	 2.6733054087e-002
 6.4957170008e-001	 3.9215662185e+000	 8.8442036827e-002
 6.1278406469e-001	 3.9274827422e+000	 1.3162661617e-001
 5.7605496887e-001	 3.9330377156e+000	 1.1954781274e-001
 5.3938918232e-001	 3.9382336535e+000	 1.1515275840e-001
 5.0279139787e-001	 3.9430731429e+000	 1.1739141434e-001
 4.6626623045e-001	 3.9475588409e+000	 1.2517110286e-001
 4.2981821607e-001	 3.9516934725e+000	 1.3735572585e-001
 3.9345181095e-001	 3.9554798283e+000	 1.5276516082e-001
 3.5717139063e-001	 3.9589207617e+000	 1.7017483219e-001
 7.2785220965e-001	 3.9332214737e+000	-1.8040057377e-003
 6.9073009268e-001	 3.9399101435e+000	 3.3915052544e-002
 6.5365705668e-001	 3.9462301570e+000	 8.2824792309e-002
 6.1663805252e-001	 3.9521838915e+000	 1.2649082068e-001
 5.7967795609e-001	 3.9577738019e+000	 1.1755157641e-001
 5.4278156711e-001	 3.9630024187e+000	 1.1505424417e-001
 5.0595360791e-001	 3.9678723450e+000	 1.1800421633e-001
 4.6919872246e-001	 3.9723862550e+000	 1.2536345838e-001
 4.3252147529e-001	 3.9765468906e+000	 1.3604963712e-001
 3.9592635063e-001	 3.9803570600e+000	 1.4893543165e-001
 3.5941775158e-001	 3.9838196344e+000	 1.6284802485e-001
 3.3695414212e-001	 3.7348309073e+000	 2.3620451915e-001
 3.0281249933e-001	 3.7377539499e+000	 2.4418071015e-001
 2.6875999901e-001	 3.7403566759e+000	 2.4961858399e-001
 2.3480053674e-001	 3.7426419423e+000	 2.5152895739e-001
 2.0093792957e-001	 3.7446126567e+000	 2.4911198805e-001
 1.6717591555e-001	 3.7462717751e+000	 2.4175375321e-001
 1.3351815331e-001	 3.7476222999e+000	 2.2902253810e-001
 9.9968221788e-002	 3.7486672771e+000	 2.1066485217e-001
 6.6529619936e-002	 3.7494097948e+000	 1.8660119097e-001
 3.3205766524e-002	 3.7498529807e+000	 1.5692156172e-001
 0.0000000000e+000	 3.7500000000e+000	 1.2188079056e-001
 3.3920050307e-001	 3.7597297800e+000	 7.6101034103e-002
 3.0483124933e-001	 3.7626723096e+000	 9.1999806371e-002
 2.7055173233e-001	 3.7652923871e+000	 1.1047197629e-001
 2.3636587365e-001	 3.7675928885e+000	 1.2965445034e-001
 2.0227751577e-001	 3.7695767410e+000	 1.4765605730e-001
 1.6829042165e-001	 3.7712469203e+000	 1.6255832497e-001
 1.3440827433e-001	 3.7726064486e+000	 1.7241636328e-001
 1.0063467660e-001	 3.7736583923e+000	 1.7525984937e-001
 6.6973150735e-002	 3.7744058601e+000	 1.6909410995e-001
 3.3427138301e-002	 3.7748520006e+000	 1.5190129612e-001
 0.0000000000e+000	 3.7750000000e+000	 1.2164164555e-001
 3.4144686401e-001	 3.7846286527e+000	 1.0426688221e-001
 3.0684999932e-001	 3.7875906693e+000	 1.1510769390e-001
 2.7234346566e-001	 3.7902280982e+000	 1.2891514699e-001
 2.3793121056e-001	 3.7925438348e+000	 1.4389023609e-001
 2.0361710197e-001	 3.7945408254e+000	 1.5820322899e-001
 1.6940492775e-001	 3.7962220655e+000	 1.6999441005e-001
 1.3529839535e-001	 3.7975905972e+000	 1.7737493587e-001
 1.0130113141e-001	 3.7986495075e+000	 1.7842779866e-001
 6.7416681534e-002	 3.7994019254e+000	 1.7120889238e-001
 3.3648510077e-002	 3.7998510205e+000	 1.5374817674e-001
 0.0000000000e+000	 3.8000000000e+000	 1.2405093382e-001
 3.4369322496e-001	 3.8095275254e+000	 1.2741243301e-001
 3.0886874932e-001	 3.8125090289e+000	 1.3385570182e-001
 2.7413519899e-001	 3.8151638094e+000	 1.4367566775e-001
 2.3949654747e-001	 3.8174947811e+000	 1.5513779675e-001
 2.0495668816e-001	 3.8195049098e+000	 1.6647414629e-001
 1.7051943386e-001	 3.8211972106e+000	 1.7588407543e-001
 1.3618851637e-001	 3.8225747459e+000	 1.8153507294e-001
 1.0196758622e-001	 3.8236406227e+000	 1.8156369887e-001
 6.7860212333e-002	 3.8243979907e+000	 1.7407663456e-001
 3.3869881854e-002	 3.8248500403e+000	 1.5715183596e-001
 0.0000000000e+000	 3.8250000000e+000	 1.2883978489e-001
 3.4593958591e-001	 3.8344263981e+000	 1.4570328636e-001
 3.1088749931e-001	 3.8374273886e+000	 1.4836533314e-001
 2.7592693231e-001	 3.8400995206e+000	 1.5483119405e-001
 2.4106188438e-001	 3.8424457274e+000	 1.6343120937e-001
 2.0629627436e-001	 3.8444689942e+000	 1.7245959631e-001
 1.7163393996e-001	 3.8461723558e+000	 1.8017512549e-001
 1.3707863739e-001	 3.8475588946e+000	 1.8480192144e-001
 1.0263404103e-001	 3.8486317379e+000	 1.8453038243e-001
 6.8303743132e-002	 3.8493940560e+000	 1.7751821432e-001
 3.4091253630e-002	 3.8498490602e+000	 1.6189157329e-001
 0.0000000000e+000	 3.8500000000e+000	 1.3574631192e-001
 3.4818594685e-001	 3.8593252709e+000	 1.5930565388e-001
 3.1290624931e-001	 3.8623457483e+000	 1.5875932393e-001
 2.7771866564e-001	 3.8650352318e+000	 1.6246123477e-001
 2.4262722129e-001	 3.8673966737e+000	 1.6880702373e-001
 2.0763586056e-001	 3.8694330785e+000	 1.7615345684e-001
 1.7274844606e-001	 3.8711475010e+000	 1.8281907166e-001
 1.3796875842e-001	 3.8725430432e+000	 1.8708495006e-001
 1.0330049584e-001	 3.8736228530e+000	 1.8719561620e-001
 6.8747273931e-002	 3.8743901213e+000	 1.8136005434e-001
 3.4312625407e-002	 3.8748480801e+000	 1.6775284110e-001
 0.0000000000e+000	 3.8750000000e+000	 1.4451538645e-001
 3.5043230780e-001	 3.8842241436e+000	 1.6838633934e-001
 3.1492499930e-001	 3.8872641079e+000	 1.6516160373e-001
 2.7951039896e-001	 3.8899709429e+000	 1.6664709282e-001
 2.4419255820e-001	 3.8923476199e+000	 1.7130418305e-001
 2.0897544675e-001	 3.8943971629e+000	 1.7755259727e-001
 1.7386295217e-001	 3.8961226461e+000	 1.8377101366e-001
 1.3885887944e-001	 3.8975271919e+000	 1.8829781068e-001
 1.0396695066e-001	 3.8986139682e+000	 1.8943194324e-001
 6.9190804730e-002	 3.8993861866e+000	 1.8543394445e-001
 3.4533997183e-002	 3.8998471000e+000	 1.7452704750e-001
 0.0000000000e+000	 3.9000000000e+000	 1.5489842177e-001
 3.5267866874e-001	 3.9091230163e+000	 1.7311271979e-001
 3.1694374929e-001	 3.9121824676e+000	 1.6769725758e-001
 2.8130213229e-001	 3.9149066541e+000	 1.6747180796e-001
 2.4575789511e-001	 3.9172985662e+000	 1.7096394779e-001
 2.1031503295e-001	 3.9193612473e+000	 1.7665678336e-001
 1.7497745827e-001	 3.9210977913e+000	 1.8298952521e-001
 1.3974900046e-001	 3.9225113406e+000	 1.8835820520e-001
 1.0463340547e-001	 3.9236050834e+000	 1.9111653076e-001
 6.9634335529e-002	 3.9243822519e+000	 1.8957687066e-001
 3.4755368960e-002	 3.9248461198e+000	 1.8201136661e-001
 0.0000000000e+000	 3.9250000000e+000	 1.6665316459e-001
 3.5492502969e-001	 3.9340218890e+000	 1.7365272743e-001
 3.1896249929e-001	 3.9371008273e+000	 1.6649248947e-001
 2.8309386561e-001	 3.9398423653e+000	 1.6502010189e-001
 2.4732323202e-001	 3.9422495125e+000	 1.6782982231e-001
 2.1165461914e-001	 3.9443253317e+000	 1.7346858553e-001
 1.7609196437e-001	 3.9460729365e+000	 1.8043654408e-001
 1.4063912148e-001	 3.9474954892e+000	 1.8718775732e-001
 1.0529986028e-001	 3.9485961986e+000	 1.9213102376e-001
 7.0077866328e-002	 3.9493783172e+000	 1.9363085078e-001
 3.4976740737e-002	 3.9498451397e+000	 1.9000855612e-001
 0.0000000000e+000	 3.9500000000e+000	 1.7954349461e-001
 3.5717139063e-001	 3.9589207617e+000	 1.7017483219e-001
 3.2098124928e-001	 3.9620191869e+000	 1.6167458709e-001
 2.8488559894e-001	 3.9647780764e+000	 1.5937832531e-001
 2.4888856893e-001	 3.9672004588e+000	 1.6194748430e-001
 2.1299420534e-001	 3.9692894161e+000	 1.6799329069e-001
 1.7720647047e-001	 3.9710480817e+000	 1.7607726632e-001
 1.4152924250e-001	 3.9724796379e+000	 1.8471188928e-001
 1.0596631509e-001	 3.9735873138e+000	 1.9236140421e-001
 7.0521397127e-002	 3.9743743825e+000	 1.9744277613e-001
 3.5198112513e-002	 3.9748441596e+000	 1.9832678170e-001
 0.0000000000e+000	 3.9750000000e+000	 1.9333923168e-001
 3.5941775158e-001	 3.9838196344e+000	 1.6284802485e-001
 3.2299999927e-001	 3.9869375466e+000	 1.5337188803e-001
 2.8667733226e-001	 3.9897137876e+000	 1.5063440705e-001
 2.5045390584e-001	 3.9921514051e+000	 1.5336471690e-001
 2.1433379153e-001	 3.9942535004e+000	 1.6023881735e-001
 1.7832097657e-001	 3.9960232268e+000	 1.6988004442e-001
 1.4241936352e-001	 3.9974637866e+000	 1.8085970308e-001
 1.0663276990e-001	 3.9985784289e+000	 1.9169785556e-001
 7.0964927926e-002	 3.9993704478e+000	 2.0086425927e-001
 3.5419484290e-002	 3.9998431794e+000	 2.0677944801e-001
 0.0000000000e+000	 4.0000000000e+000	 2.0781595013e-001
 4.0000000000e+000	 0.0000000000e+000	 6.4287297325e-001
 3.9998431794e+000	 3.5419484290e-002	 6.4710409364e-001
 3.9993704478e+000	 7.0964927926e-002	 6.6307969500e-001
 3.9985784289e+000	 1.0663276990e-001	 6.8618629024e-001
 3.9974637866e+000	 1.4241936352e-001	 7.1202703274e-001
 3.9960232268e+000	 1.7832097657e-001	 7.3643011769e-001
 3.9942535004e+000	 2.1433379153e-001	 7.5545682927e-001
 3.9921514051e+000	 2.5045390584e-001	 7.6540920478e-001
 3.9897137876e+000	 2.8667733226e-001	 7.6283728658e-001
 3.9869375466e+000	 3.2299999927e-001	 7.4454593309e-001
 3.9838196344e+000	 3.5941775158e-001	 7.0760116052e-001
 4.0250000000e+000	 0.0000000000e+000	 7.0472499448e-001
 4.0248421993e+000	 3.5640856066e-002	 6.9403129509e-001
 4.0243665131e+000	 7.1408458726e-002	 6.9581104139e-001
 4.0235695441e+000	 1.0729922471e-001	 7.0556651291e-001
 4.0224479352e+000	 1.4330948454e-001	 7.1902324415e-001
 4.0209983720e+000	 1.7943548268e-001	 7.3213843900e-001
 4.0192175848e+000	 2.1567337773e-001	 7.4110901771e-001
 4.0171023514e+000	 2.5201924275e-001	 7.4237926685e-001
 4.0146494988e+000	 2.8846906558e-001	 7.3264806280e-001
 4.0118559063e+000	 3.2501874926e-001	 7.0887563945e-001
 4.0087185072e+000	 3.6166411252e-001	 6.6828987129e-001
 4.0500000000e+000	 0.0000000000e+000	 7.6483526877e-001
 4.0498412192e+000	 3.5862227843e-002	 7.4095479094e-001
 4.0493625784e+000	 7.1851989525e-002	 7.3013346825e-001
 4.0485606593e+000	 1.0796567952e-001	 7.2798855647e-001
 4.0474320839e+000	 1.4419960556e-001	 7.3036732119e-001
 4.0459735172e+000	 1.8054998878e-001	 7.3335546847e-001
 4.0441816692e+000	 2.1701296393e-001	 7.3328519467e-001
 4.0420532976e+000	 2.5358457966e-001	 7.2674282513e-001
 4.0395852100e+000	 2.9026079891e-001	 7.1057601188e-001
 4.0367742659e+000	 3.2703749926e-001	 6.8190046061e-001
 4.0336173799e+000	 3.6391047346e-001	 6.3810615738e-001
 4.0750000000e+000	 0.0000000000e+000	 8.2361385403e-001
 4.0748402391e+000	 3.6083599620e-002	 7.8820959936e-001
 4.0743586437e+000	 7.2295520325e-002	 7.6630679015e-001
 4.0735517745e+000	 1.0863213434e-001	 7.5363690314e-001
 4.0724162326e+000	 1.4508972659e-001	 7.4616832115e-001
 4.0709486623e+000	 1.8166449488e-001	 7.4011478328e-001
 4.0691457536e+000	 2.1835255012e-001	 7.3194344045e-001
 4.0670042439e+000	 2.5514991657e-001	 7.1838248581e-001
 4.0645209211e+000	 2.9205253223e-001	 6.9642832937e-001
 4.0616926256e+000	 3.2905624925e-001	 6.6335228660e-001
 4.0585162526e+000	 3.6615683441e-001	 6.1670675123e-001
 4.1000000000e+000	 0.0000000000e+000	 8.8146080676e-001
 4.0998392589e+000	 3.6304971397e-002	 8.3612175284e-001
 4.0993547090e+000	 7.2739051125e-002	 8.0458283097e-001
 4.0985428897e+000	 1.0929858915e-001	 7.8268901810e-001
 4.0974003812e+000	 1.4597984761e-001	 7.6652923610e-001
 4.0959238075e+000	 1.8277900099e-001	 7.5244482460e-001
 4.0941098380e+000	 2.1969213632e-001	 7.3703760545e-001
 4.0919551902e+000	 2.5671525349e-001	 7.1717750764e-001
 4.0894566323e+000	 2.9384426556e-001	 6.9000972145e-001
 4.0866109853e+000	 3.3107499925e-001	 6.5296135136e-001
 4.0834151253e+000	 3.6840319536e-001	 6.0374753705e-001
 4.1250000000e+000	 0.0000000000e+000	 9.3876648513e-001
 4.1248382788e+000	 3.6526343175e-002	 8.8500857043e-001
 4.1243507743e+000	 7.3182581926e-002	 8.4520566601e-001
 4.1235340048e+000	 1.0996504396e-001	 8.1531556215e-001
 4.1223845299e+000	 1.4686996863e-001	 7.9154717658e-001
 4.1208989527e+000	 1.8389350709e-001	 7.7036905317e-001
 4.1190739223e+000	 2.2103172252e-001	 7.4851743836e-001
 4.1169061365e+000	 2.5828059040e-001	 7.2300390331e-001
 4.1143923435e+000	 2.9563599889e-001	 6.9112248045e-001
 4.1115293449e+000	 3.3309374924e-001	 6.5045628298e-001
 4.1083139980e+000	 3.7064955631e-001	 5.9888357648e-001
 4.1500000000e+000	 0.0000000000e+000	 9.9591184108e-001
 4.1498372987e+000	 3.6747714952e-002	 9.3517892024e-001
 4.1493468396e+000	 7.3626112727e-002	 8.8841185540e-001
 4.1485251200e+000	 1.1063149878e-001	 8.5168059664e-001
 4.1473686786e+000	 1.4776008966e-001	 8.2131354882e-001
 4.1458740978e+000	 1.8500801320e-001	 7.9390609939e-001
 4.1440380067e+000	 2.2237130872e-001	 7.6632870968e-001
 4.1418570828e+000	 2.5984592731e-001	 7.3573453726e-001
 4.1393280547e+000	 2.9742773222e-001	 6.9956655748e-001
 4.1364477046e+000	 3.3511249924e-001	 6.5556415203e-001
 4.1332128707e+000	 3.7289591725e-001	 6.0176913343e-001
 4.1750000000e+000	 0.0000000000e+000	 1.0532687020e+000
 4.1748363185e+000	 3.6969086730e-002	 9.8693347243e-001
 4.1743429049e+000	 7.4069643528e-002	 9.3443066910e-001
 4.1735162352e+000	 1.1129795359e-001	 8.9194178104e-001
 4.1723528272e+000	 1.4865021068e-001	 8.5591422551e-001
 4.1708492430e+000	 1.8612251931e-001	 8.2306990787e-001
 4.1690020911e+000	 2.2371089492e-001	 7.9041333084e-001
 4.1668080290e+000	 2.6141126423e-001	 7.5523921995e-001
 4.1642637658e+000	 2.9921946555e-001	 7.1513963257e-001
 4.1613660643e+000	 3.3713124924e-001	 6.6801051820e-001
 4.1581117435e+000	 3.7514227820e-001	 6.1205769791e-001
 4.2000000000e+000	 0.0000000000e+000	 1.1112000421e+000
 4.1998353384e+000	 3.7190458508e-002	 1.0405649432e+000
 4.1993389702e+000	 7.4513174330e-002	 9.8348430385e-001
 4.1985073504e+000	 1.1196440840e-001	 9.3625056353e-001
 4.1973369759e+000	 1.4954033171e-001	 8.9542971050e-001
 4.1958243882e+000	 1.8723702541e-001	 8.5786987692e-001
 4.1939661755e+000	 2.2505048112e-001	 8.2070946907e-001
 4.1917589753e+000	 2.6297660114e-001	 7.8138479869e-001
 4.1891994770e+000	 3.0101119888e-001	 7.3763718227e-001
 4.1862844239e+000	 3.3914999924e-001	 6.8751947529e-001
 4.1830106162e+000	 3.7738863915e-001	 6.2940200908e-001
 4.2250000000e+000	 0.0000000000e+000	 1.1700602447e+000
 4.2248343583e+000	 3.7411830286e-002	 1.0963583303e+000
 4.2243350355e+000	 7.4956705132e-002	 1.0357880925e+000
 4.2234984656e+000	 1.1263086322e-001	 9.8475236472e-001
 4.2223211246e+000	 1.5043045273e-001	 9.3993529762e-001
 4.2207995333e+000	 1.8835153152e-001	 8.9831099305e-001
 4.2189302598e+000	 2.2639006732e-001	 8.5715165814e-001
 4.2167099216e+000	 2.6454193806e-001	 8.1403524540e-001
 4.2141351882e+000	 3.0280293221e-001	 7.6685254480e-001
 4.2112027836e+000	 3.4116874924e-001	 7.1381369456e-001
 4.2079094889e+000	 3.7963500011e-001	 6.5345407748e-001
 4.2500000000e+000	 0.0000000000e+000	 1.2301953545e+000
 4.2498333782e+000	 3.7633202065e-002	 1.1545911395e+000
 4.2493311008e+000	 7.5400235934e-002	 1.0915507058e+000
 4.2484895807e+000	 1.1329731804e-001	 1.0375867549e+000
 4.2473052732e+000	 1.5132057376e-001	 9.8950122392e-001
 4.2457746785e+000	 1.8946603763e-001	 9.4439396072e-001
 4.2438943442e+000	 2.2772965353e-001	 8.9967090527e-001
 4.2416608679e+000	 2.6610727498e-001	 8.5305174110e-001
 4.2390708994e+000	 3.0459466554e-001	 8.0257698298e-001
 4.2361211433e+000	 3.4318749924e-001	 7.4661446656e-001
 4.2328083616e+000	 3.8188136106e-001	 6.8386520643e-001
 3.9838196344e+000	 3.5941775158e-001	 7.0760116052e-001
 3.9803570600e+000	 3.9592635063e-001	 7.0153665904e-001
 3.9765468906e+000	 4.3252147529e-001	 6.9333908208e-001
 3.9723862550e+000	 4.6919872246e-001	 6.8108148541e-001
 3.9678723450e+000	 5.0595360791e-001	 6.6310413306e-001
 3.9630024187e+000	 5.4278156711e-001	 6.3801761301e-001
 3.9577738019e+000	 5.7967795609e-001	 6.0470533167e-001
 3.9521838915e+000	 6.1663805252e-001	 5.6232536461e-001
 3.9462301570e+000	 6.5365705668e-001	 6.1763268425e-001
 3.9399101435e+000	 6.9073009268e-001	 6.5957983770e-001
 3.9332214737e+000	 7.2785220965e-001	 6.5157970485e-001
 4.0087185072e+000	 3.6166411252e-001	 6.6828987129e-001
 4.0052342916e+000	 3.9840089032e-001	 6.6039811141e-001
 4.0014003087e+000	 4.3522473450e-001	 6.5200560089e-001
 3.9972136691e+000	 4.7213121447e-001	 6.4135943818e-001
 3.9926715472e+000	 5.0911581796e-001	 6.2698030118e-001
 3.9877711838e+000	 5.4617395190e-001	 6.0766543358e-001
 3.9825098882e+000	 5.8330094331e-001	 5.8249099221e-001
 3.9768850408e+000	 6.2049204034e-001	 5.5081373300e-001
 3.9708940955e+000	 6.5774241328e-001	 6.0404295720e-001
 3.9645345819e+000	 6.9504715575e-001	 6.2749324159e-001
 3.9578041079e+000	 7.3240128595e-001	 6.0547953936e-001
 4.0336173799e+000	 3.6391047346e-001	 6.3810615738e-001
 4.0301115232e+000	 4.0087543001e-001	 6.2863467163e-001
 4.0262537268e+000	 4.3792799372e-001	 6.2015691650e-001
 4.0220410832e+000	 4.7506370648e-001	 6.1109484783e-001
 4.0174707494e+000	 5.1227802800e-001	 6.0015053360e-001
 4.0125399489e+000	 5.4956633669e-001	 5.8630901189e-001
 4.0072459744e+000	 5.8692393053e-001	 5.6884049212e-001
 4.0015861901e+000	 6.2434602816e-001	 5.4730187658e-001
 3.9955580340e+000	 6.6182776988e-001	 5.9281536578e-001
 3.9891590203e+000	 6.9936421883e-001	 5.9954249229e-001
 3.9823867421e+000	 7.3695036226e-001	 5.6519961416e-001
 4.0585162526e+000	 3.6615683441e-001	 6.1670675123e-001
 4.0549887548e+000	 4.0334996970e-001	 6.0582883994e-001
 4.0511071448e+000	 4.4063125294e-001	 5.9730141119e-001
 4.0468684973e+000	 4.7799619849e-001	 5.8972213731e-001
 4.0422699515e+000	 5.1544023805e-001	 5.8197549799e-001
 4.0373087140e+000	 5.5295872148e-001	 5.7323551092e-001
 4.0319820607e+000	 5.9054691776e-001	 5.6296778760e-001
 4.0262873394e+000	 6.2820001599e-001	 5.5603391396e-001
 4.0202219725e+000	 6.6591312648e-001	 5.8393551016e-001
 4.0137834587e+000	 7.0368128190e-001	 5.7569745278e-001
 4.0069693763e+000	 7.4149943857e-001	 5.3069489139e-001
 4.0834151253e+000	 3.6840319536e-001	 6.0374753705e-001
 4.0798659865e+000	 4.0582450939e-001	 5.9156303226e-001
 4.0759605629e+000	 4.4333451216e-001	 5.8294812317e-001
 4.0716959114e+000	 4.8092869050e-001	 5.7667710164e-001
 4.0670691537e+000	 5.1860244810e-001	 5.7181792560e-001
 4.0620774791e+000	 5.5635110627e-001	 5.6773482348e-001
 4.0567181470e+000	 5.9416990498e-001	 5.6409020534e-001
 4.0509884888e+000	 6.3205400381e-001	 5.6685259199e-001
 4.0448859109e+000	 6.6999848308e-001	 5.7739356315e-001
 4.0384078971e+000	 7.0799834498e-001	 5.5593311937e-001
 4.0315520105e+000	 7.4604851487e-001	 5.0192599946e-001
 4.1083139980e+000	 3.7064955631e-001	 5.9888357648e-001
 4.1047432181e+000	 4.0829904908e-001	 5.8541958270e-001
 4.1008139810e+000	 4.4603777138e-001	 5.7660672672e-001
 4.0965233255e+000	 4.8386118252e-001	 5.7139686633e-001
 4.0918683558e+000	 5.2176465814e-001	 5.6904254870e-001
 4.0868462442e+000	 5.5974349106e-001	 5.6909948955e-001
 4.0814542332e+000	 5.9779289220e-001	 5.7142834041e-001
 4.0756896381e+000	 6.3590799164e-001	 5.7819033625e-001
 4.0695498494e+000	 6.7408383968e-001	 5.7318413172e-001
 4.0630323355e+000	 7.1231540806e-001	 5.4022946605e-001
 4.0561346447e+000	 7.5059759118e-001	 4.7885906130e-001
 4.1332128707e+000	 3.7289591725e-001	 6.0176913343e-001
 4.1296204497e+000	 4.1077358877e-001	 5.8698074603e-001
 4.1256673990e+000	 4.4874103060e-001	 5.7778751300e-001
 4.1213507395e+000	 4.8679367453e-001	 5.7331984732e-001
 4.1166675580e+000	 5.2492686819e-001	 5.7301604031e-001
 4.1116150094e+000	 5.6313587586e-001	 5.7662461651e-001
 4.1061903195e+000	 6.0141587943e-001	 5.8420595777e-001
 4.1003907874e+000	 6.3976197947e-001	 5.9006090404e-001
 4.0942137879e+000	 6.7816919628e-001	 5.7130612339e-001
 4.0876567739e+000	 7.1663247114e-001	 5.2857129466e-001
 4.0807172789e+000	 7.5514666749e-001	 4.6146552888e-001
 4.1581117435e+000	 3.7514227820e-001	 6.1205769791e-001
 4.1544976813e+000	 4.1324812847e-001	 5.9582870008e-001
 4.1505208171e+000	 4.5144428982e-001	 5.8600137159e-001
 4.1461781536e+000	 4.8972616655e-001	 5.8188571232e-001
 4.1414667601e+000	 5.2808907824e-001	 5.8310695610e-001
 4.1363837745e+000	 5.6652826065e-001	 5.8960780230e-001
 4.1309264058e+000	 6.0503886665e-001	 6.0164989739e-001
 4.1250919367e+000	 6.4361596729e-001	 6.0248168824e-001
 4.1188777264e+000	 6.8225455289e-001	 5.7176261751e-001
 4.1122812123e+000	 7.2094953422e-001	 5.2094809025e-001
 4.1052999131e+000	 7.5969574380e-001	 4.4972202364e-001
 4.1830106162e+000	 3.7738863915e-001	 6.2940200908e-001
 4.1793749130e+000	 4.1572266816e-001	 6.1154554800e-001
 4.1753742352e+000	 4.5414754904e-001	 6.0075977271e-001
 4.1710055677e+000	 4.9265865857e-001	 5.9653534359e-001
 4.1662659623e+000	 5.3125128829e-001	 5.9868567837e-001
 4.1611525396e+000	 5.6992064545e-001	 6.0734906125e-001
 4.1556624920e+000	 6.0866185388e-001	 6.2298998272e-001
 4.1497930861e+000	 6.4746995512e-001	 6.1547360912e-001
 4.1435416649e+000	 6.8633990949e-001	 5.7456074104e-001
 4.1369056507e+000	 7.2526659730e-001	 5.1735388178e-001
 4.1298825474e+000	 7.6424482012e-001	 4.4361018268e-001
 4.2079094889e+000	 3.7963500011e-001	 6.5345407748e-001
 4.2042521446e+000	 4.1819720786e-001	 6.3371332049e-001
 4.2002276532e+000	 4.5685080827e-001	 6.2157474999e-001
 4.1958329818e+000	 4.9559115059e-001	 6.1671080198e-001
 4.1910651645e+000	 5.3441349835e-001	 6.1912436198e-001
 4.1859213047e+000	 5.7331303024e-001	 6.2915075265e-001
 4.1803985783e+000	 6.1228484111e-001	 6.4745893245e-001
 4.1744942354e+000	 6.5132394295e-001	 6.2906100994e-001
 4.1682056034e+000	 6.9042526610e-001	 5.7971154885e-001
 4.1615300891e+000	 7.2958366038e-001	 5.1778710763e-001
 4.1544651816e+000	 7.6879389643e-001	 4.4311651031e-001
 4.2328083616e+000	 3.8188136106e-001	 6.8386520643e-001
 4.2291293762e+000	 4.2067174755e-001	 6.6191397792e-001
 4.2250810713e+000	 4.5955406749e-001	 6.4795888394e-001
 4.2206603959e+000	 4.9852364261e-001	 6.4185529227e-001
 4.2158643666e+000	 5.3757570840e-001	 6.4379688223e-001
 4.2106900698e+000	 5.7670541504e-001	 6.5431751171e-001
 4.2051346646e+000	 6.1590782834e-001	 6.7429227531e-001
 4.1991953847e+000	 6.5517793079e-001	 6.4327155630e-001
 4.1928695419e+000	 6.9451062271e-001	 5.8722990819e-001
 4.1861545275e+000	 7.3390072346e-001	 5.2225048591e-001
 4.1790478158e+000	 7.7334297274e-001	 4.4823223494e-001
 3.9332214737e+000	 7.2785220965e-001	 6.5157970485e-001
 3.9261618501e+000	 7.6501838302e-001	 5.8830556689e-001
 3.9187290581e+000	 8.0222351592e-001	 5.3052415565e-001
 3.9109209671e+000	 8.3946244064e-001	 4.7924756212e-001
 3.9027355338e+000	 8.7672992013e-001	 4.3560259719e-001
 3.8941708042e+000	 9.1402064961e-001	 4.0083338995e-001
 3.8852249153e+000	 9.5132925831e-001	 3.7630381128e-001
 3.8758960980e+000	 9.8865031116e-001	 3.6349971076e-001
 3.8661826788e+000	 1.0259783107e+000	 3.6403095481e-001
 3.8560830823e+000	 1.0633076989e+000	 3.7963325443e-001
 3.8455958328e+000	 1.1006328594e+000	 4.1216977081e-001
 3.9578041079e+000	 7.3240128595e-001	 6.0547953936e-001
 3.9507003617e+000	 7.6979974791e-001	 5.5304069716e-001
 3.9432211147e+000	 8.0723741289e-001	 5.0491110289e-001
 3.9353642231e+000	 8.4470908089e-001	 4.6204850723e-001
 3.9271276309e+000	 8.8220948212e-001	 4.2552747518e-001
 3.9185093717e+000	 9.1973327867e-001	 3.9654210421e-001
 3.9095075710e+000	 9.5727506617e-001	 3.7640856587e-001
 3.9001204486e+000	 9.9482937561e-001	 3.6656745862e-001
 3.8903463206e+000	 1.0323906751e+000	 3.6858595965e-001
 3.8801836015e+000	 1.0699533720e+000	 3.8415976331e-001
 3.8696308067e+000	 1.1075118147e+000	 4.1511479461e-001
 3.9823867421e+000	 7.3695036226e-001	 5.6519961416e-001
 3.9752388733e+000	 7.7458111280e-001	 5.2306156881e-001
 3.9677131713e+000	 8.1225130986e-001	 4.8402310954e-001
 3.9598074792e+000	 8.4995572114e-001	 4.4898760958e-001
 3.9515197280e+000	 8.8768904412e-001	 4.1897739243e-001
 3.9428479392e+000	 9.2544590773e-001	 3.9513657090e-001
 3.9337902267e+000	 9.6322087403e-001	 3.7873370791e-001
 3.9243447992e+000	 1.0010084400e+000	 3.7116428637e-001
 3.9145099623e+000	 1.0388030396e+000	 3.7395297538e-001
 3.9042841208e+000	 1.0765990452e+000	 3.8875568057e-001
 3.8936657807e+000	 1.1143907701e+000	 4.1736136619e-001
 4.0069693763e+000	 7.4149943857e-001	 5.3069489139e-001
 3.9997773848e+000	 7.7936247769e-001	 4.9834825785e-001
 3.9922052279e+000	 8.1726520684e-001	 4.6786500818e-001
 3.9842507352e+000	 8.5520236139e-001	 4.4009408731e-001
 3.9759118251e+000	 8.9316860612e-001	 4.1600556802e-001
 3.9671865068e+000	 9.3115853678e-001	 3.9669361216e-001
 3.9580728824e+000	 9.6916668190e-001	 3.8337925166e-001
 3.9485691498e+000	 1.0071875045e+000	 3.7741297645e-001
 3.9386736040e+000	 1.0452154040e+000	 3.8027711623e-001
 3.9283846401e+000	 1.0832447183e+000	 3.9358800349e-001
 3.9177007546e+000	 1.1212697255e+000	 4.1909790516e-001
 4.0315520105e+000	 7.4604851487e-001	 5.0192599946e-001
 4.0243158964e+000	 7.8414384258e-001	 4.7888605612e-001
 4.0166972845e+000	 8.2227910381e-001	 4.5644639799e-001
 4.0086939913e+000	 8.6044900165e-001	 4.3540147728e-001
 4.0003039222e+000	 8.9864816812e-001	 4.1666909354e-001
 3.9915250743e+000	 9.3687116584e-001	 4.0129347814e-001
 3.9823555382e+000	 9.7511248976e-001	 3.9044819679e-001
 3.9727935004e+000	 1.0133665689e+000	 3.8543885640e-001
 3.9628372458e+000	 1.0516277685e+000	 3.8770560358e-001
 3.9524851593e+000	 1.0898903914e+000	 3.9882540117e-001
 3.9417357286e+000	 1.1281486808e+000	 4.2051407041e-001
 4.0561346447e+000	 7.5059759118e-001	 4.7885906130e-001
 4.0488544080e+000	 7.8892520747e-001	 4.6466531323e-001
 4.0411893411e+000	 8.2729300078e-001	 4.4978150032e-001
 4.0331372473e+000	 8.6569564190e-001	 4.3494750426e-001
 4.0246960193e+000	 9.0412773012e-001	 4.2102881565e-001
 4.0158636418e+000	 9.4258379490e-001	 4.0901974307e-001
 4.0066381939e+000	 9.8105829763e-001	 4.0004643794e-001
 3.9970178510e+000	 1.0195456334e+000	 3.9536972178e-001
 3.9870008875e+000	 1.0580401329e+000	 3.9638770214e-001
 3.9765856786e+000	 1.0965360645e+000	 4.0463816389e-001
 3.9657707025e+000	 1.1350276362e+000	 4.2180072261e-001
 4.0807172789e+000	 7.5514666749e-001	 4.6146552888e-001
 4.0733929195e+000	 7.9370657237e-001	 4.5568128423e-001
 4.0656813977e+000	 8.3230689776e-001	 4.4788901944e-001
 4.0575805033e+000	 8.7094228215e-001	 4.3877395470e-001
 4.0490881164e+000	 9.0960729212e-001	 4.2914922307e-001
 4.0402022093e+000	 9.4829642396e-001	 4.1995920511e-001
 4.0309208496e+000	 9.8700410549e-001	 4.1228267754e-001
 4.0212422016e+000	 1.0257246978e+000	 4.0733576177e-001
 4.0111645293e+000	 1.0644524973e+000	 4.0647465841e-001
 4.0006861979e+000	 1.1031817376e+000	 4.1119815425e-001
 3.9898056765e+000	 1.1419065916e+000	 4.2314988796e-001
 4.1052999131e+000	 7.5969574380e-001	 4.4972202364e-001
 4.0979314311e+000	 7.9848793726e-001	 4.5193398273e-001
 4.0901734544e+000	 8.3732079473e-001	 4.5079200832e-001
 4.0820237594e+000	 8.7618892241e-001	 4.4692655522e-001
 4.0734802135e+000	 9.1508685412e-001	 4.4109833744e-001
 4.0645407769e+000	 9.5400905303e-001	 4.3420178988e-001
 4.0552035053e+000	 9.9294991336e-001	 4.2726834175e-001
 4.0454665523e+000	 1.0319037623e+000	 4.2146948754e-001
 4.0353281710e+000	 1.0708648618e+000	 4.1811964128e-001
 4.0247867171e+000	 1.1098274108e+000	 4.1867876013e-001
 4.0138406504e+000	 1.1487855470e+000	 4.2475472329e-001
 4.1298825474e+000	 7.6424482012e-001	 4.4361018268e-001
 4.1224699427e+000	 8.0326930216e-001	 4.5342803927e-001
 4.1146655110e+000	 8.4233469171e-001	 4.5851773926e-001
 4.1064670154e+000	 8.8143556267e-001	 4.5945485527e-001
 4.0978723105e+000	 9.2056641613e-001	 4.5694760826e-001
 4.0888793444e+000	 9.5972168209e-001	 4.5184045736e-001
 4.0794861610e+000	 9.9889572122e-001	 4.4511749934e-001
 4.0696909029e+000	 1.0380828267e+000	 4.3790566313e-001
 4.0594918128e+000	 1.0772772262e+000	 4.3147768491e-001
 4.0488872364e+000	 1.1164730839e+000	 4.2725484928e-001
 4.0378756244e+000	 1.1556645023e+000	 4.2680948246e-001
 4.1544651816e+000	 7.6879389643e-001	 4.4311651031e-001
 4.1470084542e+000	 8.0805066705e-001	 4.6017256474e-001
 4.1391575676e+000	 8.4734858869e-001	 4.7109757898e-001
 4.1309102715e+000	 8.8668220292e-001	 4.7641211405e-001
 4.1222644076e+000	 9.2604597813e-001	 4.7677181141e-001
 4.1132179119e+000	 9.6543431115e-001	 4.7297111212e-001
 4.1037688168e+000	 1.0048415291e+000	 4.6594678358e-001
 4.0939152535e+000	 1.0442618912e+000	 4.5678123883e-001
 4.0836554545e+000	 1.0836895907e+000	 4.4670563346e-001
 4.0729877557e+000	 1.1231187570e+000	 4.3710272553e-001
 4.0619105984e+000	 1.1625434577e+000	 4.2950948387e-001
 4.1790478158e+000	 7.7334297274e-001	 4.4823223494e-001
 4.1715469658e+000	 8.1283203195e-001	 4.7218101860e-001
 4.1636496242e+000	 8.5236248567e-001	 4.8856686824e-001
 4.1553535275e+000	 8.9192884318e-001	 4.9785519143e-001
 4.1466565047e+000	 9.3152554013e-001	 5.0064895135e-001
 4.1375564794e+000	 9.7114694021e-001	 4.9769251667e-001
 4.1280514725e+000	 1.0107873370e+000	 4.8987531675e-001
 4.1181396041e+000	 1.0504409556e+000	 4.7823528682e-001
 4.1078190963e+000	 1.0901019551e+000	 4.6396208792e-001
 4.0970882749e+000	 1.1297644301e+000	 4.4840008655e-001
 4.0859455723e+000	 1.1694224131e+000	 4.3305107915e-001
 3.8455958328e+000	 1.1006328594e+000	 4.1216977081e-001
 3.8347195567e+000	 1.1379481191e+000	 3.7072885348e-001
 3.8234529844e+000	 1.1752477508e+000	 3.3721065287e-001
 3.8117949524e+000	 1.2125259753e+000	 3.1353330914e-001
 3.7997444048e+000	 1.2497769635e+000	 3.0175316212e-001
 3.7873003954e+000	 1.2869948389e+000	 3.0712468682e-001
 3.7744620896e+000	 1.3241736799e+000	 2.9719989256e-001
 3.7612287659e+000	 1.3613075226e+000	 2.7156875513e-001
 3.7475998176e+000	 1.3983903631e+000	 2.3134927968e-001
 3.7335747544e+000	 1.4354161602e+000	 1.8133759306e-001
 3.7191532043e+000	 1.4723788383e+000	 1.1365467929e-001
 3.8696308067e+000	 1.1075118147e+000	 4.1511479461e-001
 3.8586865539e+000	 1.1450602948e+000	 3.6609753049e-001
 3.8473495656e+000	 1.1825930493e+000	 3.2529727729e-001
 3.8356186709e+000	 1.2201042627e+000	 2.9465364568e-001
 3.8234928073e+000	 1.2575880695e+000	 2.8149165531e-001
 3.8109710228e+000	 1.2950385566e+000	 2.8610046128e-001
 3.7980524776e+000	 1.3324497654e+000	 2.7670660806e-001
 3.7847364456e+000	 1.3698156946e+000	 2.5299964040e-001
 3.7710223164e+000	 1.4071303029e+000	 2.1466081578e-001
 3.7569095967e+000	 1.4443875112e+000	 1.6136357189e-001
 3.7423979118e+000	 1.4815812060e+000	 9.6960358523e-002
 3.8936657807e+000	 1.1143907701e+000	 4.1736136619e-001
 3.8826535511e+000	 1.1521724706e+000	 3.6079082024e-001
 3.8712461467e+000	 1.1899383477e+000	 3.1268542320e-001
 3.8594423893e+000	 1.2276825500e+000	 2.7500617224e-001
 3.8472412098e+000	 1.2653991756e+000	 2.6349371457e-001
 3.8346416503e+000	 1.3030822743e+000	 2.6708390417e-001
 3.8216428657e+000	 1.3407258509e+000	 2.5806424608e-001
 3.8082441254e+000	 1.3783238666e+000	 2.3611526661e-001
 3.7944448153e+000	 1.4158702426e+000	 2.0090761838e-001
 3.7802444389e+000	 1.4533588622e+000	 1.5210254077e-001
 3.7656426193e+000	 1.4907835738e+000	 8.9352362641e-002
 3.9177007546e+000	 1.1212697255e+000	 4.1909790516e-001
 3.9066205484e+000	 1.1592846463e+000	 3.5500307642e-001
 3.8951427279e+000	 1.1972836462e+000	 2.9957529213e-001
 3.8832661078e+000	 1.2352608374e+000	 2.5479685022e-001
 3.8709896123e+000	 1.2732102816e+000	 2.4761472494e-001
 3.8583122778e+000	 1.3111259921e+000	 2.5004347440e-001
 3.8452332537e+000	 1.3490019364e+000	 2.4124618907e-001
 3.8317518052e+000	 1.3868320386e+000	 2.2089425151e-001
 3.8178673141e+000	 1.4246101824e+000	 1.8864758392e-001
 3.8035792811e+000	 1.4623302133e+000	 1.4415510174e-001
 3.7888873268e+000	 1.4999859415e+000	 8.7055211983e-002
 3.9417357286e+000	 1.1281486808e+000	 4.2051407041e-001
 3.9305875456e+000	 1.1663968220e+000	 3.4892982878e-001
 3.9190393090e+000	 1.2046289446e+000	 2.8616819191e-001
 3.9070898262e+000	 1.2428391247e+000	 2.3423267108e-001
 3.8947380149e+000	 1.2810213876e+000	 2.3381948171e-001
 3.8819829053e+000	 1.3191697098e+000	 2.3494848897e-001
 3.8688236418e+000	 1.3572780219e+000	 2.2622658185e-001
 3.8552594850e+000	 1.3953402107e+000	 2.0731587299e-001
 3.8412898130e+000	 1.4333501222e+000	 1.7786542745e-001
 3.8269141233e+000	 1.4713015643e+000	 1.3751170982e-001
 3.8121320343e+000	 1.5091883092e+000	 8.5879078229e-002
 3.9657707025e+000	 1.1350276362e+000	 4.2180072261e-001
 3.9545545428e+000	 1.1735089978e+000	 3.4276774747e-001
 3.9429358902e+000	 1.2119742430e+000	 2.7266650312e-001
 3.9309135447e+000	 1.2504174121e+000	 2.1422637154e-001
 3.9184864174e+000	 1.2888324936e+000	 2.2207369877e-001
 3.9056535327e+000	 1.3272134276e+000	 2.2176909700e-001
 3.8924140299e+000	 1.3655541074e+000	 2.1298030856e-001
 3.8787671648e+000	 1.4038483827e+000	 1.9536004903e-001
 3.8647123118e+000	 1.4420900620e+000	 1.6854639865e-001
 3.8502489655e+000	 1.4802729153e+000	 1.3216324289e-001
 3.8353767419e+000	 1.5183906770e+000	 8.5820762420e-002
 3.9898056765e+000	 1.1419065916e+000	 4.2314988796e-001
 3.9785215400e+000	 1.1806211735e+000	 3.3671460864e-001
 3.9668324714e+000	 1.2193195415e+000	 2.5927364681e-001
 3.9547372631e+000	 1.2579956994e+000	 2.0742635173e-001
 3.9422348199e+000	 1.2966435997e+000	 2.1234398098e-001
 3.9293241602e+000	 1.3352571453e+000	 2.1047625466e-001
 3.9160044179e+000	 1.3738301929e+000	 2.0148297029e-001
 3.9022748446e+000	 1.4123565547e+000	 1.8500731847e-001
 3.8881348107e+000	 1.4508300017e+000	 1.6067626577e-001
 3.8735838077e+000	 1.4892442663e+000	 1.2810098897e-001
 3.8586214494e+000	 1.5275930447e+000	 8.6877361215e-002
 4.0138406504e+000	 1.1487855470e+000	 4.2475472329e-001
 4.0024885373e+000	 1.1877333493e+000	 3.3096926139e-001
 3.9907290525e+000	 1.2266648399e+000	 2.4619405331e-001
 3.9785609816e+000	 1.2655739868e+000	 2.0272742805e-001
 3.9659832225e+000	 1.3044547057e+000	 2.0459779751e-001
 3.9529947877e+000	 1.3433008631e+000	 2.0104170102e-001
 3.9395948060e+000	 1.3821062784e+000	 1.9171086371e-001
 3.9257825243e+000	 1.4208647267e+000	 1.7623882241e-001
 3.9115573096e+000	 1.4595699415e+000	 1.5424130006e-001
 3.8969186499e+000	 1.4982156173e+000	 1.2531663393e-001
 3.8818661569e+000	 1.5367954125e+000	 8.9046258042e-002
 4.0378756244e+000	 1.1556645023e+000	 4.2680948246e-001
 4.0264555345e+000	 1.1948455250e+000	 3.2573159581e-001
 4.0146256337e+000	 1.2340101384e+000	 2.3363313220e-001
 4.0023847000e+000	 1.2731522741e+000	 2.0009399989e-001
 3.9897316250e+000	 1.3122658117e+000	 1.9880345608e-001
 3.9766654151e+000	 1.3513445808e+000	 1.9343793470e-001
 3.9631851940e+000	 1.3903823639e+000	 1.8364096031e-001
 3.9492902041e+000	 1.4293728987e+000	 1.6903628625e-001
 3.9349798084e+000	 1.4683098813e+000	 1.4922826084e-001
 3.9202534922e+000	 1.5071869683e+000	 1.2380224969e-001
 3.9051108645e+000	 1.5459977802e+000	 9.2325114558e-002
 4.0619105984e+000	 1.1625434577e+000	 4.2950948387e-001
 4.0504225317e+000	 1.2019577008e+000	 3.2120251218e-001
 4.0385222148e+000	 1.2413554368e+000	 2.2179724339e-001
 4.0262084185e+000	 1.2807305615e+000	 1.9949135149e-001
 4.0134800275e+000	 1.3200769177e+000	 1.9493007816e-001
 4.0003360426e+000	 1.3593882986e+000	 1.8763819147e-001
 3.9867755821e+000	 1.3986584494e+000	 1.7725088647e-001
 3.9727978839e+000	 1.4378810707e+000	 1.6338200246e-001
 3.9584023073e+000	 1.4770498210e+000	 1.4562438104e-001
 3.9435883344e+000	 1.5161583193e+000	 1.2355028272e-001
 3.9283555720e+000	 1.5552001479e+000	 9.6711862420e-002
 4.0859455723e+000	 1.1694224131e+000	 4.3305107915e-001
 4.0743895290e+000	 1.2090698765e+000	 3.1758389128e-001
 4.0624187960e+000	 1.2487007353e+000	 2.1089366909e-001
 4.0500321369e+000	 1.2883088488e+000	 2.0088562587e-001
 4.0372284301e+000	 1.3278880237e+000	 1.9294757506e-001
 4.0240066701e+000	 1.3674320163e+000	 1.8361642251e-001
 4.0103659702e+000	 1.4069345349e+000	 1.7251890418e-001
 3.9963055637e+000	 1.4463892427e+000	 1.5925881385e-001
 3.9818248061e+000	 1.4857897608e+000	 1.4341735325e-001
 3.9669231766e+000	 1.5251296703e+000	 1.2455354309e-001
 3.9516002795e+000	 1.5644025157e+000	 1.0220469535e-001
 3.7191532043e+000	 1.4723788383e+000	 1.1365467929e-001
 3.7043349141e+000	 1.5092722896e+000	 9.0497631900e-002
 3.6891197520e+000	 1.5460903777e+000	 7.1546328288e-002
 3.6735077078e+000	 1.5828269397e+000	 5.5591695325e-002
 3.6574988949e+000	 1.6194757899e+000	 4.1391393674e-002
 3.6410935510e+000	 1.6560307222e+000	 2.7673525503e-002
 3.6242920395e+000	 1.6924855132e+000	 1.3140462190e-002
 3.6070948501e+000	 1.7288339256e+000	-3.5272168361e-003
 3.5895026000e+000	 1.7650697110e+000	-2.3666683562e-002
 3.5715160343e+000	 1.8011866135e+000	-4.8628729030e-002
 3.5531360273e+000	 1.8371783722e+000	-7.9773549502e-002
 3.7423979118e+000	 1.4815812060e+000	 9.6960358523e-002
 3.7274870073e+000	 1.5187052414e+000	 7.9447316988e-002
 3.7121767504e+000	 1.5557534425e+000	 6.4986428346e-002
 3.6964671309e+000	 1.5927196081e+000	 5.2272808058e-002
 3.6803582629e+000	 1.6295975136e+000	 3.9968392405e-002
 3.6638503857e+000	 1.6663809142e+000	 2.6705802589e-002
 3.6469438648e+000	 1.7030635476e+000	 1.1092331246e-002
 3.6296391930e+000	 1.7396391376e+000	-8.2859578346e-003
 3.6119369912e+000	 1.7761013967e+000	-3.2860026520e-002
 3.5938380095e+000	 1.8124440298e+000	-6.4073565889e-002
 3.5753431275e+000	 1.8486607371e+000	-1.0337861722e-001
 3.7656426193e+000	 1.4907835738e+000	 8.9352362641e-002
 3.7506391005e+000	 1.5281381932e+000	 6.8850231120e-002
 3.7352337488e+000	 1.5654165074e+000	 5.8510960405e-002
 3.7194265541e+000	 1.6026122765e+000	 4.8987871164e-002
 3.7032176310e+000	 1.6397192373e+000	 3.8541735249e-002
 3.6866072204e+000	 1.6767311062e+000	 2.5708937971e-002
 3.6695956900e+000	 1.7136415821e+000	 9.0009261783e-003
 3.6521835358e+000	 1.7504443496e+000	-1.3091529744e-002
 3.6343713825e+000	 1.7871330824e+000	-4.2093968594e-002
 3.6161599847e+000	 1.8237014462e+000	-7.9543776351e-002
 3.5975502277e+000	 1.8601431019e+000	-1.2698564049e-001
 3.7888873268e+000	 1.4999859415e+000	 8.7055211983e-002
 3.7737911937e+000	 1.5375711450e+000	 6.9443931510e-002
 3.7582907473e+000	 1.5750795722e+000	 5.5452255398e-002
 3.7423859773e+000	 1.6125049449e+000	 4.6196480585e-002
 3.7260769991e+000	 1.6498409610e+000	 3.7594820587e-002
 3.7093640551e+000	 1.6870812982e+000	 2.5189745303e-002
 3.6922475153e+000	 1.7242196165e+000	 7.3960706280e-003
 3.6747278786e+000	 1.7612495617e+000	-1.7391522225e-002
 3.6568057737e+000	 1.7981647681e+000	-5.0793953898e-002
 3.6384819600e+000	 1.8349588625e+000	-9.4443117838e-002
 3.6197573278e+000	 1.8716254667e+000	-1.4997716642e-001
 3.8121320343e+000	 1.5091883092e+000	 8.5879078229e-002
 3.7969432870e+000	 1.5470040968e+000	 7.0539069021e-002
 3.7813477457e+000	 1.5847426371e+000	 5.7731880043e-002
 3.7653454004e+000	 1.6223976132e+000	 4.6938893563e-002
 3.7489363672e+000	 1.6599626847e+000	 3.7610093263e-002
 3.7321208898e+000	 1.6974314902e+000	 2.5653785514e-002
 3.7148993405e+000	 1.7347976510e+000	 6.8060437910e-003
 3.6972722214e+000	 1.7720547737e+000	-2.0635353459e-002
 3.6792401650e+000	 1.8091964538e+000	-5.8387531326e-002
 3.6608039352e+000	 1.8462162788e+000	-1.0817772083e-001
 3.6419644280e+000	 1.8831078316e+000	-1.3848017181e-001
 3.8353767419e+000	 1.5183906770e+000	 8.5820762420e-002
 3.8200953802e+000	 1.5564370487e+000	 7.2146428760e-002
 3.8044047442e+000	 1.5944057020e+000	 5.9936803919e-002
 3.7883048236e+000	 1.6322902816e+000	 4.8621111482e-002
 3.7717957353e+000	 1.6700844084e+000	 3.7604041819e-002
 3.7548777245e+000	 1.7077816822e+000	 2.6266469110e-002
 3.7375511658e+000	 1.7453756855e+000	 7.7576272202e-003
 3.7198165642e+000	 1.7828599857e+000	-2.2274214734e-002
 3.7016745562e+000	 1.8202281395e+000	-6.4304290771e-002
 3.6831259104e+000	 1.8574736952e+000	-1.2015601696e-001
 3.6641715282e+000	 1.8945901964e+000	-1.1276642394e-001
 3.8586214494e+000	 1.5275930447e+000	 8.6877361215e-002
 3.8432474734e+000	 1.5658700005e+000	 7.4276783666e-002
 3.8274617426e+000	 1.6040687668e+000	 6.2091258365e-002
 3.8112642468e+000	 1.6421829500e+000	 4.9698057399e-002
 3.7946551034e+000	 1.6802061321e+000	 3.6450080276e-002
 3.7776345592e+000	 1.7181318743e+000	 2.1676634928e-002
 3.7602029910e+000	 1.7559537199e+000	 4.6842840067e-003
 3.7423609070e+000	 1.7936651978e+000	-2.1761017045e-002
 3.7241089475e+000	 1.8312598252e+000	-6.7975801647e-002
 3.7054478856e+000	 1.8687311115e+000	-1.2978866969e-001
 3.6863786283e+000	 1.9060725612e+000	-8.7117819477e-002
 3.8818661569e+000	 1.5367954125e+000	 8.9046258042e-002
 3.8663995666e+000	 1.5753029523e+000	 7.6940894867e-002
 3.8505187411e+000	 1.6137318317e+000	 6.4219170491e-002
 3.8342236700e+000	 1.6520756183e+000	 5.0206604456e-002
 3.8175144715e+000	 1.6903278558e+000	 3.4204490684e-002
 3.8003913939e+000	 1.7284820663e+000	 1.5490742252e-002
 3.7828548162e+000	 1.7665317544e+000	-6.6791974823e-003
 3.7649052498e+000	 1.8044704098e+000	-3.3071378226e-002
 3.7465433387e+000	 1.8422915109e+000	-6.8835553625e-002
 3.7277698608e+000	 1.8799885278e+000	-1.1775893961e-001
 3.7085857285e+000	 1.9175549260e+000	-6.1809982912e-002
 3.9051108645e+000	 1.5459977802e+000	 9.2325114558e-002
 3.8895516598e+000	 1.5847359041e+000	 8.0149512038e-002
 3.8735757395e+000	 1.6233948965e+000	 6.6344172233e-002
 3.8571830931e+000	 1.6619682867e+000	 5.0183053035e-002
 3.8403738396e+000	 1.7004495794e+000	 3.0916020028e-002
 3.8231482286e+000	 1.7388322583e+000	 7.7697548391e-003
 3.8055066415e+000	 1.7771097888e+000	-2.0051269075e-002
 3.7874495926e+000	 1.8152756218e+000	-5.3363744130e-002
 3.7689777300e+000	 1.8533231966e+000	-9.3004420969e-002
 3.7500918360e+000	 1.8912459442e+000	-8.1251802137e-002
 3.7307928287e+000	 1.9290372909e+000	-3.7120869578e-002
 3.9283555720e+000	 1.5552001479e+000	 9.6711862420e-002
 3.9127037530e+000	 1.5941688559e+000	 8.3913373736e-002
 3.8966327380e+000	 1.6330579614e+000	 6.8489609085e-002
 3.8801425163e+000	 1.6718609551e+000	 4.9663147703e-002
 3.8632332077e+000	 1.7105713031e+000	 2.6632596215e-002
 3.8459050633e+000	 1.7491824503e+000	-1.4264396299e-003
 3.8281584667e+000	 1.7876878233e+000	-3.5360314668e-002
 3.8099939354e+000	 1.8260808339e+000	-7.6036236533e-002
 3.7914121212e+000	 1.8643548823e+000	-1.2434109161e-001
 3.7724138112e+000	 1.9025033605e+000	-8.6222085436e-002
 3.7529999288e+000	 1.9405196557e+000	-1.9761189774e-002
 3.9516002795e+000	 1.5644025157e+000	 1.0220469535e-001
 3.9358558462e+000	 1.6036018077e+000	 8.8243207728e-002
 3.9196897364e+000	 1.6427210263e+000	 7.0678548523e-002
 3.9031019395e+000	 1.6817536235e+000	 4.8682093561e-002
 3.8860925758e+000	 1.7206930268e+000	 2.1401352162e-002
 3.8686618980e+000	 1.7595326423e+000	-1.2038997904e-002
 3.8508102920e+000	 1.7982658577e+000	-5.2536005800e-002
 3.8325382783e+000	 1.8368860459e+000	-1.0100727447e-001
 3.8138465125e+000	 1.8753865680e+000	-1.5711981643e-001
 3.7947357865e+000	 1.9137607768e+000	-9.7715342154e-002
 3.7752070290e+000	 1.9520020205e+000	-4.7979230244e-002
 3.5531360273e+000	 1.8371783722e+000	-7.9773549502e-002
 3.5343635826e+000	 1.8730387253e+000	-1.8035962602e-001
 3.5151998336e+000	 1.9087614125e+000	-1.5362218919e-001
 3.4956460444e+000	 1.9443401791e+000	-1.3092001342e-001
 3.4757036097e+000	 1.9797687788e+000	-1.2001493653e-001
 3.4553740550e+000	 2.0150409773e+000	-1.2035431086e-001
 3.4346590368e+000	 2.0501505556e+000	-1.3137501490e-001
 3.4135603429e+000	 2.0850913135e+000	-1.5250620442e-001
 3.3920798916e+000	 2.1198570727e+000	-1.8317208474e-001
 3.3702197324e+000	 2.1544416806e+000	-2.2279469568e-001
 3.3479820449e+000	 2.1888390135e+000	-2.7079670055e-001
 3.5753431275e+000	 1.8486607371e+000	-1.0337861722e-001
 3.5564533549e+000	 1.8847452173e+000	-1.7873596286e-001
 3.5371698326e+000	 1.9206911713e+000	-1.5605087403e-001
 3.5174938322e+000	 1.9564923052e+000	-1.4461647110e-001
 3.4974267573e+000	 1.9921423336e+000	-1.4379671856e-001
 3.4769701428e+000	 2.0276349834e+000	-1.5294315757e-001
 3.4561256558e+000	 2.0629639966e+000	-1.7139777986e-001
 3.4348950950e+000	 2.0981231342e+000	-1.9849593114e-001
 3.4132803910e+000	 2.1331061794e+000	-2.3356923529e-001
 3.3912836057e+000	 2.1679069412e+000	-2.7594853054e-001
 3.3689069327e+000	 2.2025192574e+000	-3.2496680881e-001
 3.5975502277e+000	 1.8601431019e+000	-1.2698564049e-001
 3.5785431273e+000	 1.8964517093e+000	-1.6708922695e-001
 3.5591398315e+000	 1.9326209301e+000	-1.5605828475e-001
 3.5393416200e+000	 1.9686444313e+000	-1.5520159741e-001
 3.5191499048e+000	 2.0045158885e+000	-1.6378626213e-001
 3.4985662307e+000	 2.0402289895e+000	-1.8106772374e-001
 3.4775922748e+000	 2.0757774376e+000	-2.0629280183e-001
 3.4562298472e+000	 2.1111549549e+000	-2.3870274725e-001
 3.4344808903e+000	 2.1463552861e+000	-2.7753631924e-001
 3.4123474791e+000	 2.1813722017e+000	-3.2203287377e-001
 3.3898318204e+000	 2.2161995012e+000	-3.7143545407e-001
 3.6197573278e+000	 1.8716254667e+000	-1.4997716642e-001
 3.6006328997e+000	 1.9081582014e+000	-1.5401412750e-001
 3.5811098305e+000	 1.9445506890e+000	-1.5396533000e-001
 3.5611894078e+000	 1.9807965574e+000	-1.6302340096e-001
 3.5408730524e+000	 2.0168894434e+000	-1.8035826796e-001
 3.5201623185e+000	 2.0528229956e+000	-2.0512897619e-001
 3.4990588938e+000	 2.0885908786e+000	-2.3648686964e-001
 3.4775645993e+000	 2.1241867756e+000	-2.7357880178e-001
 3.4556813896e+000	 2.1596043928e+000	-3.1555036642e-001
 3.4334113524e+000	 2.1948374622e+000	-3.6154913929e-001
 3.4107567082e+000	 2.2298797451e+000	-4.1072792064e-001
 3.6419644280e+000	 1.8831078316e+000	-1.3848017181e-001
 3.6227226721e+000	 1.9198646934e+000	-1.3980623113e-001
 3.6030798295e+000	 1.9564804478e+000	-1.5009458621e-001
 3.5830371956e+000	 1.9929486836e+000	-1.6843108513e-001
 3.5625962000e+000	 2.0292629983e+000	-1.9388816541e-001
 3.5417584064e+000	 2.0654170017e+000	-2.2552815131e-001
 3.5205255128e+000	 2.1014043195e+000	-2.6240659003e-001
 3.4988993514e+000	 2.1372185963e+000	-3.0357561750e-001
 3.4768818889e+000	 2.1728534996e+000	-3.4808734408e-001
 3.4544752257e+000	 2.2083027227e+000	-3.9499725017e-001
 3.4316815960e+000	 2.2435599889e+000	-4.4336758200e-001
 3.6641715282e+000	 1.8945901964e+000	-1.1276642394e-001
 3.6448124445e+000	 1.9315711854e+000	-1.2476318668e-001
 3.6250498284e+000	 1.9684102066e+000	-1.4477024698e-001
 3.6048849833e+000	 2.0051008097e+000	-1.7177501183e-001
 3.5843193475e+000	 2.0416365531e+000	-2.0475209039e-001
 3.5633544942e+000	 2.0780110078e+000	-2.4266674692e-001
 3.5419921317e+000	 2.1142177605e+000	-2.8447839311e-001
 3.5202341036e+000	 2.1502504171e+000	-3.2914410995e-001
 3.4980823883e+000	 2.1861026063e+000	-3.7562218912e-001
 3.4755390991e+000	 2.2217679832e+000	-4.2287568383e-001
 3.4526064838e+000	 2.2572402327e+000	-4.6987595866e-001
 3.6863786283e+000	 1.9060725612e+000	-8.7117819477e-002
 3.6669022169e+000	 1.9432776775e+000	-1.0918466248e-001
 3.6470198274e+000	 1.9803399655e+000	-1.3831807440e-001
 3.6267327711e+000	 2.0172529358e+000	-1.7340666666e-001
 3.6060424951e+000	 2.0540101080e+000	-2.1332686407e-001
 3.5849505821e+000	 2.0906050139e+000	-2.5694651438e-001
 3.5634587507e+000	 2.1270312015e+000	-3.0312853775e-001
 3.5415688557e+000	 2.1632822378e+000	-3.5073460564e-001
 3.5192828876e+000	 2.1993517130e+000	-3.9862883907e-001
 3.4966029724e+000	 2.2352332437e+000	-4.4568151554e-001
 3.4735313716e+000	 2.2709204766e+000	-4.9077277400e-001
 3.7085857285e+000	 1.9175549260e+000	-6.1809982912e-002
 3.6889919893e+000	 1.9549841695e+000	-9.3372285911e-002
 3.6689898263e+000	 1.9922697243e+000	-1.3106535207e-001
 3.6485805589e+000	 2.0294050619e+000	-1.7367862523e-001
 3.6277656426e+000	 2.0663836629e+000	-2.1998997238e-001
 3.6065466699e+000	 2.1031990201e+000	-2.6876945104e-001
 3.5849253697e+000	 2.1398446424e+000	-3.1878311665e-001
 3.5629036079e+000	 2.1763140585e+000	-3.6879685978e-001
 3.5404833869e+000	 2.2126008197e+000	-4.1758026207e-001
 3.5176668457e+000	 2.2486985042e+000	-4.6391046043e-001
 3.4944562593e+000	 2.2846007204e+000	-5.0657600809e-001
 3.7307928287e+000	 1.9290372909e+000	-3.7120869578e-002
 3.7110817617e+000	 1.9666906615e+000	-7.7629585084e-002
 3.6909598253e+000	 2.0041994831e+000	-1.2334083985e-001
 3.6704283467e+000	 2.0415571880e+000	-1.7294452071e-001
 3.6494887902e+000	 2.0787572177e+000	-2.2511954625e-001
 3.6281427577e+000	 2.1157930262e+000	-2.7853779284e-001
 3.6063919887e+000	 2.1526580834e+000	-3.3186806131e-001
 3.5842383600e+000	 2.1893458792e+000	-3.8378007319e-001
 3.5616838862e+000	 2.2258499264e+000	-4.3294848569e-001
 3.5387307190e+000	 2.2621637647e+000	-4.7805691396e-001
 3.5153811471e+000	 2.2982809642e+000	-5.1780194954e-001
 3.7529999288e+000	 1.9405196557e+000	-1.9761189774e-002
 3.7331715341e+000	 1.9783971536e+000	-6.2261932614e-002
 3.7129298243e+000	 2.0161292419e+000	-1.1547473014e-001
 3.6922761344e+000	 2.0537093142e+000	-1.7155901258e-001
 3.6712119378e+000	 2.0911307726e+000	-2.2909434245e-001
 3.6497388456e+000	 2.1283870323e+000	-2.8665400735e-001
 3.6278586077e+000	 2.1654715244e+000	-3.4280914679e-001
 3.6055731122e+000	 2.2023776999e+000	-3.9613290880e-001
 3.5828843855e+000	 2.2390990331e+000	-4.4520462473e-001
 3.5597945924e+000	 2.2756290252e+000	-4.8861399098e-001
 3.5363060349e+000	 2.3119612081e+000	-5.2496524556e-001
 3.7752070290e+000	 1.9520020205e+000	-4.7979230244e-002
 3.7552613065e+000	 1.9901036456e+000	-6.0768510632e-002
 3.7348998232e+000	 2.0280590008e+000	-1.0779860578e-001
 3.7141239222e+000	 2.0658614403e+000	-1.6987775641e-001
 3.6929350853e+000	 2.1035043275e+000	-2.3229372526e-001
 3.6713349334e+000	 2.1409810384e+000	-2.9352078686e-001
 3.6493252266e+000	 2.1782849654e+000	-3.5203199633e-001
 3.6269078643e+000	 2.2154095206e+000	-4.0630350737e-001
 3.6040848849e+000	 2.2523481398e+000	-4.5481890815e-001
 3.5808584657e+000	 2.2890942857e+000	-4.9607356335e-001
 3.5572309227e+000	 2.3256414519e+000	-5.2857895023e-001
 3.3479820449e+000	 2.1888390135e+000	-2.7079670055e-001
 3.3253691387e+000	 2.2230429801e+000	-3.2081866419e-001
 3.3023834532e+000	 2.2570475246e+000	-3.6847851238e-001
 3.2790275563e+000	 2.2908466307e+000	-4.1269333237e-001
 3.2553041442e+000	 2.3244343245e+000	-4.5239877563e-001
 3.2312160404e+000	 2.3578046781e+000	-4.8655233334e-001
 3.2067661948e+000	 2.3909518130e+000	-5.1413655739e-001
 3.1819576824e+000	 2.4238699031e+000	-5.3416221736e-001
 3.1567937025e+000	 2.4565531787e+000	-5.4567138401e-001
 3.1312775773e+000	 2.4889959289e+000	-5.4774043002e-001
 3.1054127503e+000	 2.5211925056e+000	-5.4300596936e-001
 3.3689069327e+000	 2.2025192574e+000	-3.2496680881e-001
 3.3461526958e+000	 2.2369369987e+000	-3.6530927627e-001
 3.3230233498e+000	 2.2711540716e+000	-4.0231738217e-001
 3.2995214785e+000	 2.3051644221e+000	-4.3489554732e-001
 3.2756497951e+000	 2.3389620390e+000	-4.6196837050e-001
 3.2514111407e+000	 2.3725409573e+000	-4.8248396601e-001
 3.2268084835e+000	 2.4058952618e+000	-4.9541724407e-001
 3.2018449179e+000	 2.4390190900e+000	-4.9977312415e-001
 3.1765236632e+000	 2.4719066360e+000	-4.9458967164e-001
 3.1508480621e+000	 2.5045521534e+000	-4.9506648253e-001
 3.1248215800e+000	 2.5369499587e+000	-5.8276000371e-001
 3.3898318204e+000	 2.2161995012e+000	-3.7143545407e-001
 3.3669362530e+000	 2.2508310173e+000	-4.0285709017e-001
 3.3436632464e+000	 2.2852606186e+000	-4.2996895053e-001
 3.3200154007e+000	 2.3194822135e+000	-4.5166184469e-001
 3.2959954460e+000	 2.3534897535e+000	-4.6684838473e-001
 3.2716062409e+000	 2.3872772366e+000	-4.7446638649e-001
 3.2468507722e+000	 2.4208387106e+000	-4.7348221079e-001
 3.2217321534e+000	 2.4541682769e+000	-4.6289403456e-001
 3.1962536238e+000	 2.4872600934e+000	-4.4173504218e-001
 3.1704185470e+000	 2.5201083780e+000	-4.8292441391e-001
 3.1442304097e+000	 2.5527074119e+000	-5.5859463668e-001
 3.4107567082e+000	 2.2298797451e+000	-4.1072792064e-001
 3.3877198101e+000	 2.2647250359e+000	-4.3398526780e-001
 3.3643031429e+000	 2.2993671657e+000	-4.5195389573e-001
 3.3405093230e+000	 2.3338000050e+000	-4.6351005436e-001
 3.3163410969e+000	 2.3680174680e+000	-4.6755343194e-001
 3.2918013412e+000	 2.4020135158e+000	-4.6301062141e-001
 3.2668930610e+000	 2.4357821594e+000	-4.4883852386e-001
 3.2416193890e+000	 2.4693174638e+000	-4.2402767905e-001
 3.2159835844e+000	 2.5026135508e+000	-3.9747283330e-001
 3.1899890318e+000	 2.5356646025e+000	-4.7382516317e-001
 3.1636392394e+000	 2.5684648651e+000	-5.3735802357e-001
 3.4316815960e+000	 2.2435599889e+000	-4.4336758200e-001
 3.4085033672e+000	 2.2786190546e+000	-4.5921526978e-001
 3.3849430395e+000	 2.3134737127e+000	-4.6879140845e-001
 3.3610032452e+000	 2.3481177964e+000	-4.7095673649e-001
 3.3366867478e+000	 2.3825451826e+000	-4.6459707790e-001
 3.3119964414e+000	 2.4167497950e+000	-4.4862687526e-001
 3.2869353497e+000	 2.4507256083e+000	-4.2199265705e-001
 3.2615066245e+000	 2.4844666507e+000	-3.8367642887e-001
 3.2357135451e+000	 2.5179670081e+000	-4.0235731913e-001
 3.2095595167e+000	 2.5512208271e+000	-4.6769418256e-001
 3.1830480690e+000	 2.5842223182e+000	-5.1956948440e-001
 3.4526064838e+000	 2.2572402327e+000	-4.6987595866e-001
 3.4292869243e+000	 2.2925130732e+000	-4.7906690693e-001
 3.4055829361e+000	 2.3275802597e+000	-4.8099923687e-001
 3.3814971674e+000	 2.3624355879e+000	-4.7451721995e-001
 3.3570323987e+000	 2.3970728971e+000	-4.5849187220e-001
 3.3321915417e+000	 2.4314860743e+000	-4.3182455537e-001
 3.3069776384e+000	 2.4656690571e+000	-3.9345050963e-001
 3.2813938600e+000	 2.4996158376e+000	-3.4234230699e-001
 3.2554435057e+000	 2.5333204655e+000	-4.0967446845e-001
 3.2291300016e+000	 2.5667770517e+000	-4.6445703896e-001
 3.2024568987e+000	 2.5999797714e+000	-5.0514480855e-001
 3.4735313716e+000	 2.2709204766e+000	-4.9077277400e-001
 3.4500704814e+000	 2.3064070918e+000	-4.9405839005e-001
 3.4262228327e+000	 2.3416868067e+000	-4.8909373011e-001
 3.4019910896e+000	 2.3767533793e+000	-4.7470563946e-001
 3.3773780496e+000	 2.4116006116e+000	-4.4974937894e-001
 3.3523866420e+000	 2.4462223535e+000	-4.1311229588e-001
 3.3270199271e+000	 2.4806125059e+000	-3.6371742360e-001
 3.3012810955e+000	 2.5147650245e+000	-3.5995912646e-001
 3.2751734664e+000	 2.5486739229e+000	-4.1935941541e-001
 3.2487004864e+000	 2.5823332762e+000	-4.6403941047e-001
 3.2218657284e+000	 2.6157372245e+000	-4.9400012592e-001
 3.4944562593e+000	 2.2846007204e+000	-5.0657600809e-001
 3.4708540386e+000	 2.3203011104e+000	-5.0470637772e-001
 3.4468627293e+000	 2.3557933538e+000	-4.9358988010e-001
 3.4224850119e+000	 2.3910711707e+000	-4.7203497127e-001
 3.3977237005e+000	 2.4261283262e+000	-4.3888020618e-001
 3.3725817422e+000	 2.4609586328e+000	-3.9299798088e-001
 3.3470622158e+000	 2.4955559548e+000	-3.3329820038e-001
 3.3211683310e+000	 2.5299142114e+000	-3.8096337773e-001
 3.2949034270e+000	 2.5640273802e+000	-4.3134718270e-001
 3.2682709713e+000	 2.5978895008e+000	-4.6636708300e-001
 3.2412745581e+000	 2.6314946777e+000	-4.8605189675e-001
 3.5153811471e+000	 2.2982809642e+000	-5.1780194954e-001
 3.4916375957e+000	 2.3341951291e+000	-5.1152602259e-001
 3.4675026259e+000	 2.3698999008e+000	-4.9500136203e-001
 3.4429789341e+000	 2.4053889622e+000	-4.6701706773e-001
 3.4180693514e+000	 2.4406560407e+000	-4.2639403442e-001
 3.3927768425e+000	 2.4756949120e+000	-3.7198876675e-001
 3.3671045045e+000	 2.5104994036e+000	-3.4594100715e-001
 3.3410555665e+000	 2.5450633983e+000	-4.0378067426e-001
 3.3146333876e+000	 2.5793808376e+000	-4.4557268475e-001
 3.2878414561e+000	 2.6134457253e+000	-4.7136594715e-001
 3.2606833878e+000	 2.6472521309e+000	-4.8121690178e-001
 3.5363060349e+000	 2.3119612081e+000	-5.2496524556e-001
 3.5124211528e+000	 2.3480891477e+000	-5.1503101588e-001
 3.4881425224e+000	 2.3840064478e+000	-4.9384057323e-001
 3.4634728563e+000	 2.4197067536e+000	-4.6016269043e-001
 3.4384150023e+000	 2.4551837552e+000	-4.1279964404e-001
 3.4129719427e+000	 2.4904311912e+000	-3.5059110371e-001
 3.3871467933e+000	 2.5254428524e+000	-3.7803763269e-001
 3.3609428020e+000	 2.5602125852e+000	-4.2835455566e-001
 3.3343633483e+000	 2.5947342950e+000	-4.6197073104e-001
 3.3074119410e+000	 2.6290019499e+000	-4.7896199503e-001
 3.2800922175e+000	 2.6630095840e+000	-4.7941223278e-001
 3.5572309227e+000	 2.3256414519e+000	-5.2857895023e-001
 3.5332047099e+000	 2.3619831663e+000	-5.1573363038e-001
 3.5087824190e+000	 2.3981129948e+000	-4.9061867081e-001
 3.4839667785e+000	 2.4340245451e+000	-4.5198154241e-001
 3.4587606532e+000	 2.4697114697e+000	-3.9860494177e-001
 3.4331670430e+000	 2.5051674705e+000	-3.5080362416e-001
 3.4071890820e+000	 2.5403863013e+000	-4.1143541697e-001
 3.3808300376e+000	 2.5753617721e+000	-4.5462826210e-001
 3.3540933089e+000	 2.6100877523e+000	-4.8047602910e-001
 3.3269824258e+000	 2.6445581744e+000	-4.8908131735e-001
 3.2995010472e+000	 2.6787670372e+000	-4.8055528340e-001
 3.1054127503e+000	 2.5211925056e+000	-5.4300596936e-001
 3.0792027853e+000	 2.5531373263e+000	-5.7903040003e-001
 3.0526513643e+000	 2.5848248776e+000	-6.0904032735e-001
 3.0257622864e+000	 2.6162497178e+000	-6.3290325824e-001
 2.9985394656e+000	 2.6474064805e+000	-6.5049154200e-001
 2.9709869289e+000	 2.6782898775e+000	-6.6168287675e-001
 2.9431088147e+000	 2.7088947016e+000	-6.6636080849e-001
 2.9149093706e+000	 2.7392158296e+000	-6.6441522134e-001
 2.8863929509e+000	 2.7692482252e+000	-6.5574281736e-001
 2.8575640151e+000	 2.7989869417e+000	-6.4024758474e-001
 2.8284271247e+000	 2.8284271247e+000	-6.1784125266e-001
 3.1248215800e+000	 2.5369499587e+000	-5.8276000371e-001
 3.0984478027e+000	 2.5690944346e+000	-6.1098267406e-001
 3.0717304354e+000	 2.6009800331e+000	-6.3451504745e-001
 3.0446733007e+000	 2.6326012785e+000	-6.5320848000e-001
 3.0172803372e+000	 2.6639527710e+000	-6.6691792630e-001
 2.9895555972e+000	 2.6950291893e+000	-6.7550246858e-001
 2.9615032448e+000	 2.7258252935e+000	-6.7882583998e-001
 2.9331275541e+000	 2.7563359285e+000	-6.7675694066e-001
 2.9044329069e+000	 2.7865560266e+000	-6.6917034513e-001
 2.8754237902e+000	 2.8164806100e+000	-6.5594679923e-001
 2.8461047943e+000	 2.8461047943e+000	-6.3697370548e-001
 3.1442304097e+000	 2.5527074119e+000	-5.5859463668e-001
 3.1176928201e+000	 2.5850515429e+000	-6.4151847095e-001
 3.0908095064e+000	 2.6171351885e+000	-6.5834601981e-001
 3.0635843150e+000	 2.6489528392e+000	-6.7162666993e-001
 3.0360212089e+000	 2.6804990615e+000	-6.8119796255e-001
 3.0081242655e+000	 2.7117685010e+000	-6.8690035615e-001
 2.9798976749e+000	 2.7427558854e+000	-6.8857777421e-001
 2.9513457377e+000	 2.7734560275e+000	-6.8607814727e-001
 2.9224728628e+000	 2.8038638280e+000	-6.7925394778e-001
 2.8932835653e+000	 2.8339742784e+000	-6.6796271614e-001
 2.8637824638e+000	 2.8637824638e+000	-6.5206757649e-001
 3.1636392394e+000	 2.5684648651e+000	-5.3735802357e-001
 3.1369378375e+000	 2.6010086512e+000	-6.3503639486e-001
 3.1098885774e+000	 2.6332903440e+000	-6.8055483473e-001
 3.0824953293e+000	 2.6653044000e+000	-6.8818501226e-001
 3.0547620806e+000	 2.6970453520e+000	-6.9336470776e-001
 3.0266929338e+000	 2.7285078127e+000	-6.9591574491e-001
 2.9982921050e+000	 2.7596864773e+000	-6.9566223726e-001
 2.9695639212e+000	 2.7905761264e+000	-6.9243115642e-001
 2.9405128187e+000	 2.8211716294e+000	-6.8605289457e-001
 2.9111433403e+000	 2.8514679468e+000	-6.7636181961e-001
 2.8814601333e+000	 2.8814601333e+000	-6.6319682142e-001
 3.1830480690e+000	 2.5842223182e+000	-5.1956948440e-001
 3.1561828549e+000	 2.6169657595e+000	-6.0906143525e-001
 3.1289676484e+000	 2.6494454995e+000	-6.9038396681e-001
 3.1014063436e+000	 2.6816559607e+000	-7.0291072482e-001
 3.0735029522e+000	 2.7135916425e+000	-7.0345112889e-001
 3.0452616021e+000	 2.7452471245e+000	-7.0258761955e-001
 3.0166865351e+000	 2.7766170692e+000	-7.0012449679e-001
 2.9877821048e+000	 2.8076962253e+000	-6.9586778047e-001
 2.9585527747e+000	 2.8384794308e+000	-6.8962580052e-001
 2.9290031154e+000	 2.8689616152e+000	-6.8120978138e-001
 2.8991378028e+000	 2.8991378028e+000	-6.7043441884e-001
 3.2024568987e+000	 2.5999797714e+000	-5.0514480855e-001
 3.1754278723e+000	 2.6329228678e+000	-5.8619238914e-001
 3.1480467195e+000	 2.6656006550e+000	-6.6022980468e-001
 3.1203173579e+000	 2.6980075215e+000	-7.1583105803e-001
 3.0922438239e+000	 2.7301379330e+000	-7.1149010555e-001
 3.0638302704e+000	 2.7619864362e+000	-7.0695475071e-001
 3.0350809652e+000	 2.7935476611e+000	-7.0200947299e-001
 3.0060002884e+000	 2.8248163243e+000	-6.9643934412e-001
 2.9765927306e+000	 2.8557872322e+000	-6.9003064622e-001
 2.9468628905e+000	 2.8864552836e+000	-6.8257148550e-001
 2.9168154724e+000	 2.9168154724e+000	-6.7385239980e-001
 3.2218657284e+000	 2.6157372245e+000	-4.9400012592e-001
 3.1946728897e+000	 2.6488799761e+000	-5.6634906315e-001
 3.1671257905e+000	 2.6817558105e+000	-6.3283406577e-001
 3.1392283722e+000	 2.7143590822e+000	-6.9354492711e-001
 3.1109846955e+000	 2.7466842236e+000	-7.1751443266e-001
 3.0823989387e+000	 2.7787257480e+000	-7.0905570142e-001
 3.0534753953e+000	 2.8104782529e+000	-7.0136174894e-001
 3.0242184719e+000	 2.8419364232e+000	-6.9419669908e-001
 2.9946326866e+000	 2.8730950336e+000	-6.8732479693e-001
 2.9647226656e+000	 2.9039489520e+000	-6.8051105196e-001
 2.9344931419e+000	 2.9344931419e+000	-6.7352187635e-001
 3.2412745581e+000	 2.6314946777e+000	-4.8605189675e-001
 3.2139179071e+000	 2.6648370844e+000	-5.4945150090e-001
 3.1862048615e+000	 2.6979109660e+000	-6.0812068090e-001
 3.1581393865e+000	 2.7307106429e+000	-6.6214180172e-001
 3.1297255672e+000	 2.7632305141e+000	-7.1159508226e-001
 3.1009676070e+000	 2.7954650597e+000	-7.0892883333e-001
 3.0718698253e+000	 2.8274088448e+000	-6.9822558081e-001
 3.0424366555e+000	 2.8590565222e+000	-6.8919023826e-001
 3.0126726425e+000	 2.8904028350e+000	-6.8156502102e-001
 2.9825824407e+000	 2.9214426203e+000	-6.7509185963e-001
 2.9521708114e+000	 2.9521708114e+000	-6.6951306906e-001
 3.2606833878e+000	 2.6472521309e+000	-4.8121690178e-001
 3.2331629245e+000	 2.6807941927e+000	-5.3541997587e-001
 3.2052839325e+000	 2.7140661215e+000	-5.8601371386e-001
 3.1770504007e+000	 2.7470622037e+000	-6.3307316214e-001
 3.1484664388e+000	 2.7797768046e+000	-6.7666990959e-001
 3.1195362753e+000	 2.8122043714e+000	-7.0661231267e-001
 3.0902642554e+000	 2.8443394367e+000	-6.9264490751e-001
 3.0606548391e+000	 2.8761766211e+000	-6.8146990940e-001
 3.0307125985e+000	 2.9077106364e+000	-6.7280750774e-001
 3.0004422158e+000	 2.9389362887e+000	-6.6637656831e-001
 2.9698484810e+000	 2.9698484810e+000	-6.6189533357e-001
 3.2800922175e+000	 2.6630095840e+000	-4.7941223278e-001
 3.2524079419e+000	 2.6967513009e+000	-5.2417498469e-001
 3.2243630036e+000	 2.7302212769e+000	-5.6643735747e-001
 3.1959614150e+000	 2.7634137644e+000	-6.0626718744e-001
 3.1672073105e+000	 2.7963230951e+000	-6.4372754693e-001
 3.1381049436e+000	 2.8289436832e+000	-6.7887663335e-001
 3.1086586855e+000	 2.8612700286e+000	-6.8466336013e-001
 3.0788730226e+000	 2.8932967200e+000	-6.7108522826e-001
 3.0487525544e+000	 2.9250184379e+000	-6.6110788431e-001
 3.0183019909e+000	 2.9564299571e+000	-6.5442713997e-001
 2.9875261505e+000	 2.9875261505e+000	-6.5073718615e-001
 3.2995010472e+000	 2.6787670372e+000	-4.8055528340e-001
 3.2716529593e+000	 2.7127084092e+000	-5.1563724049e-001
 3.2434420746e+000	 2.7463764324e+000	-5.4931592983e-001
 3.2148724293e+000	 2.7797653252e+000	-5.8165208473e-001
 3.1859481822e+000	 2.8128693856e+000	-6.1270037294e-001
 3.1566736119e+000	 2.8456829949e+000	-6.4250929126e-001
 3.1270531156e+000	 2.8782006205e+000	-6.7112108297e-001
 3.0970912062e+000	 2.9104168190e+000	-6.5808529131e-001
 3.0667925103e+000	 2.9423262393e+000	-6.4652123251e-001
 3.0361617660e+000	 2.9739236255e+000	-6.3930485930e-001
 3.0052038200e+000	 3.0052038200e+000	-6.3610632839e-001
 2.8284271247e+000	 2.8284271247e+000	-6.1784125266e-001
 2.7989869417e+000	 2.8575640151e+000	-6.0752711523e-001
 2.7692482252e+000	 2.8863929509e+000	-6.0423116702e-001
 2.7392158296e+000	 2.9149093706e+000	-6.0762314939e-001
 2.7088947016e+000	 2.9431088147e+000	-6.1736835192e-001
 2.6782898775e+000	 2.9709869289e+000	-6.3312829225e-001
 2.6474064805e+000	 2.9985394656e+000	-6.5456139309e-001
 2.6162497178e+000	 3.0257622864e+000	-6.8132365489e-001
 2.5848248776e+000	 3.0526513643e+000	-7.1306932248e-001
 2.5531373263e+000	 3.0792027853e+000	-7.4945154411e-001
 2.5211925056e+000	 3.1054127503e+000	-7.9012302136e-001
 2.8461047943e+000	 2.8461047943e+000	-6.3697370548e-001
 2.8164806100e+000	 2.8754237902e+000	-6.2554285381e-001
 2.7865560266e+000	 2.9044329069e+000	-6.2013761816e-001
 2.7563359285e+000	 2.9331275541e+000	-6.2041503555e-001
 2.7258252935e+000	 2.9615032448e+000	-6.2602869581e-001
 2.6950291893e+000	 2.9895555972e+000	-6.3662943921e-001
 2.6639527710e+000	 3.0172803372e+000	-6.5186604993e-001
 2.6326012785e+000	 3.0446733007e+000	-6.7138594354e-001
 2.6009800331e+000	 3.0717304354e+000	-6.9483584685e-001
 2.5690944346e+000	 3.0984478027e+000	-7.2186246858e-001
 2.5369499587e+000	 3.1248215800e+000	-7.5211315928e-001
 2.8637824638e+000	 2.8637824638e+000	-6.5206757649e-001
 2.8339742784e+000	 2.8932835653e+000	-6.3940109874e-001
 2.8038638280e+000	 2.9224728628e+000	-6.3177787167e-001
 2.7734560275e+000	 2.9513457377e+000	-6.2884217034e-001
 2.7427558854e+000	 2.9798976749e+000	-6.3023582212e-001
 2.7117685010e+000	 3.0081242655e+000	-6.3559892246e-001
 2.6804990615e+000	 3.0360212089e+000	-6.4457054482e-001
 2.6489528392e+000	 3.0635843150e+000	-6.5678944317e-001
 2.6171351885e+000	 3.0908095064e+000	-6.7189474525e-001
 2.5850515429e+000	 3.1176928201e+000	-6.8952663503e-001
 2.5527074119e+000	 3.1442304097e+000	-7.6462455404e-001
 2.8814601333e+000	 2.8814601333e+000	-6.6319682142e-001
 2.8514679468e+000	 2.9111433403e+000	-6.4917888764e-001
 2.8211716294e+000	 2.9405128187e+000	-6.3923181683e-001
 2.7905761264e+000	 2.9695639212e+000	-6.3298706239e-001
 2.7596864773e+000	 2.9982921050e+000	-6.3007462478e-001
 2.7285078127e+000	 3.0266929338e+000	-6.3012378543e-001
 2.6970453520e+000	 3.0547620806e+000	-6.3276383343e-001
 2.6653044000e+000	 3.0824953293e+000	-6.3762478311e-001
 2.6332903440e+000	 3.1098885774e+000	-6.4433808093e-001
 2.6010086512e+000	 3.1369378375e+000	-6.8360376862e-001
 2.5684648651e+000	 3.1636392394e+000	-7.7061486127e-001
 2.8991378028e+000	 2.8991378028e+000	-6.7043441884e-001
 2.8689616152e+000	 2.9290031154e+000	-6.5495222283e-001
 2.8384794308e+000	 2.9585527747e+000	-6.4257825455e-001
 2.8076962253e+000	 2.9877821048e+000	-6.3293108416e-001
 2.7766170692e+000	 3.0166865351e+000	-6.2562881887e-001
 2.7452471245e+000	 3.0452616021e+000	-6.2028985530e-001
 2.7135916425e+000	 3.0735029522e+000	-6.1653362299e-001
 2.6816559607e+000	 3.1014063436e+000	-6.1398131729e-001
 2.6494454995e+000	 3.1289676484e+000	-6.2155233330e-001
 2.6169657595e+000	 3.1561828549e+000	-6.9038224606e-001
 2.5842223182e+000	 3.1830480690e+000	-7.6978242286e-001
 2.9168154724e+000	 2.9168154724e+000	-6.7385239980e-001
 2.8864552836e+000	 2.9468628905e+000	-6.5679610269e-001
 2.8557872322e+000	 2.9765927306e+000	-6.4189493045e-001
 2.8248163243e+000	 3.0060002884e+000	-6.2875450637e-001
 2.7935476611e+000	 3.0350809652e+000	-6.1698097639e-001
 2.7619864362e+000	 3.0638302704e+000	-6.0618177986e-001
 2.7301379330e+000	 3.0922438239e+000	-5.9596641011e-001
 2.6980075215e+000	 3.1203173579e+000	-5.8594716283e-001
 2.6656006550e+000	 3.1480467195e+000	-6.2855021155e-001
 2.6329228678e+000	 3.1754278723e+000	-6.9064077930e-001
 2.5999797714e+000	 3.2024568987e+000	-7.6234860581e-001
 2.9344931419e+000	 2.9344931419e+000	-6.7352187635e-001
 2.9039489520e+000	 2.9647226656e+000	-6.5478455192e-001
 2.8730950336e+000	 2.9946326866e+000	-6.3725856655e-001
 2.8419364232e+000	 3.0242184719e+000	-6.2053653122e-001
 2.8104782529e+000	 3.0534753953e+000	-6.0421256071e-001
 2.7787257480e+000	 3.0823989387e+000	-5.8788306304e-001
 2.7466842236e+000	 3.1109846955e+000	-5.7114751724e-001
 2.7143590822e+000	 3.1392283722e+000	-5.8278693194e-001
 2.6817558105e+000	 3.1671257905e+000	-6.2933633090e-001
 2.6488799761e+000	 3.1946728897e+000	-6.8460010212e-001
 2.6157372245e+000	 3.2218657284e+000	-7.4853353113e-001
 2.9521708114e+000	 2.9521708114e+000	-6.6951306906e-001
 2.9214426203e+000	 2.9825824407e+000	-6.4899065067e-001
 2.8904028350e+000	 3.0126726425e+000	-6.2874489199e-001
 2.8590565222e+000	 3.0424366555e+000	-6.0835532433e-001
 2.8274088448e+000	 3.0718698253e+000	-5.8740395970e-001
 2.7954650597e+000	 3.1009676070e+000	-5.6547609914e-001
 2.7632305141e+000	 3.1297255672e+000	-5.5077999778e-001
 2.7307106429e+000	 3.1581393865e+000	-5.8354799545e-001
 2.6979109660e+000	 3.1862048615e+000	-6.2413056648e-001
 2.6648370844e+000	 3.2139179071e+000	-6.7247974982e-001
 2.6314946777e+000	 3.2412745581e+000	-7.2855611107e-001
 2.9698484810e+000	 2.9698484810e+000	-6.6189533357e-001
 2.9389362887e+000	 3.0004422158e+000	-6.3948656266e-001
 2.9077106364e+000	 3.0307125985e+000	-6.1642867255e-001
 2.8761766211e+000	 3.0606548391e+000	-5.9228804563e-001
 2.8443394367e+000	 3.0902642554e+000	-5.6663451780e-001
 2.8122043714e+000	 3.1195362753e+000	-5.3904220590e-001
 2.7797768046e+000	 3.1484664388e+000	-5.5097333695e-001
 2.7470622037e+000	 3.1770504007e+000	-5.7862876897e-001
 2.7140661215e+000	 3.2052839325e+000	-6.1315164523e-001
 2.6807941927e+000	 3.2331629245e+000	-6.5449809492e-001
 2.6472521309e+000	 3.2606833878e+000	-7.0263408518e-001
 2.9875261505e+000	 2.9875261505e+000	-6.5073718615e-001
 2.9564299571e+000	 3.0183019909e+000	-6.2634356229e-001
 2.9250184379e+000	 3.0487525544e+000	-6.0038373916e-001
 2.8932967200e+000	 3.0788730226e+000	-5.7241087910e-001
 2.8612700286e+000	 3.1086586855e+000	-5.4198256688e-001
 2.8289436832e+000	 3.1381049436e+000	-5.2933159231e-001
 2.7963230951e+000	 3.1672073105e+000	-5.4580137959e-001
 2.7634137644e+000	 3.1959614150e+000	-5.6824695867e-001
 2.7302212769e+000	 3.2243630036e+000	-5.9661717982e-001
 2.6967513009e+000	 3.2524079419e+000	-6.3087238152e-001
 2.6630095840e+000	 3.2800922175e+000	-6.7098405493e-001
 3.0052038200e+000	 3.0052038200e+000	-6.3610632839e-001
 2.9739236255e+000	 3.0361617660e+000	-6.0963206080e-001
 2.9423262393e+000	 3.0667925103e+000	-5.8068301537e-001
 2.9104168190e+000	 3.0970912062e+000	-5.4879906146e-001
 2.8782006205e+000	 3.1270531156e+000	-5.1636682927e-001
 2.8456829949e+000	 3.1566736119e+000	-5.2337605819e-001
 2.8128693856e+000	 3.1859481822e+000	-5.3548060852e-001
 2.7797653252e+000	 3.2148724293e+000	-5.5261920734e-001
 2.7463764324e+000	 3.2434420746e+000	-5.7474370149e-001
 2.7127084092e+000	 3.2716529593e+000	-6.0181875851e-001
 2.6787670372e+000	 3.2995010472e+000	-6.3382151723e-001
 2.5211925056e+000	 3.1054127503e+000	-7.9012302136e-001
 2.4889959289e+000	 3.1312775773e+000	-7.5191764192e-001
 2.4565531787e+000	 3.1567937025e+000	-6.6806510303e-001
 2.4238699031e+000	 3.1819576824e+000	-6.0644832151e-001
 2.3909518130e+000	 3.2067661948e+000	-5.6610373525e-001
 2.3578046781e+000	 3.2312160404e+000	-5.4603895930e-001
 2.3244343245e+000	 3.2553041442e+000	-5.4523497160e-001
 2.2908466307e+000	 3.2790275563e+000	-5.6264834365e-001
 2.2570475246e+000	 3.3023834532e+000	-5.9721351030e-001
 2.2230429801e+000	 3.3253691387e+000	-6.4784507259e-001
 2.1888390135e+000	 3.3479820449e+000	-7.1344012767e-001
 2.5369499587e+000	 3.1248215800e+000	-7.5211315928e-001
 2.5045521534e+000	 3.1508480621e+000	-8.2665200458e-001
 2.4719066360e+000	 3.1765236632e+000	-7.5597057106e-001
 2.4390190900e+000	 3.2018449179e+000	-6.8037197748e-001
 2.4058952618e+000	 3.2268084835e+000	-6.2598921128e-001
 2.3725409573e+000	 3.2514111407e+000	-5.9183054678e-001
 2.3389620390e+000	 3.2756497951e+000	-5.7687729910e-001
 2.3051644221e+000	 3.2995214785e+000	-5.8008607673e-001
 2.2711540716e+000	 3.3230233498e+000	-6.0039107390e-001
 2.2369369987e+000	 3.3461526958e+000	-6.3670639659e-001
 2.2025192574e+000	 3.3689069327e+000	-6.8792841617e-001
 2.5527074119e+000	 3.1442304097e+000	-7.6462455404e-001
 2.5201083780e+000	 3.1704185470e+000	-8.2903039904e-001
 2.4872600934e+000	 3.1962536238e+000	-8.3753927143e-001
 2.4541682769e+000	 3.2217321534e+000	-7.4845848425e-001
 2.4208387106e+000	 3.2468507722e+000	-6.8054941629e-001
 2.3872772366e+000	 3.2716062409e+000	-6.3282044155e-001
 2.3534897535e+000	 3.2959954460e+000	-6.0425264143e-001
 2.3194822135e+000	 3.3200154007e+000	-5.9380208010e-001
 2.2852606186e+000	 3.3436632464e+000	-6.0040212030e-001
 2.2508310173e+000	 3.3669362530e+000	-6.2296577346e-001
 2.2161995012e+000	 3.3898318204e+000	-6.6038807788e-001
 2.5684648651e+000	 3.1636392394e+000	-7.7061486127e-001
 2.5356646025e+000	 3.1899890318e+000	-8.2465910275e-001
 2.5026135508e+000	 3.2159835844e+000	-8.9726843908e-001
 2.4693174638e+000	 3.2416193890e+000	-8.1053145934e-001
 2.4357821594e+000	 3.2668930610e+000	-7.2960375181e-001
 2.4020135158e+000	 3.2918013412e+000	-6.6882384860e-001
 2.3680174680e+000	 3.3163410969e+000	-6.2717202664e-001
 2.3338000050e+000	 3.3405093230e+000	-6.0360322458e-001
 2.2993671657e+000	 3.3643031429e+000	-5.9704938285e-001
 2.2647250359e+000	 3.3877198101e+000	-6.0642181880e-001
 2.2298797451e+000	 3.4107567082e+000	-6.3061363035e-001
 2.5842223182e+000	 3.1830480690e+000	-7.6978242286e-001
 2.5512208271e+000	 3.2095595167e+000	-8.1375311941e-001
 2.5179670081e+000	 3.2357135451e+000	-8.7590141908e-001
 2.4844666507e+000	 3.2615066245e+000	-8.6641369026e-001
 2.4507256083e+000	 3.2869353497e+000	-7.7297095804e-001
 2.4167497950e+000	 3.3119964414e+000	-6.9965548201e-001
 2.3825451826e+000	 3.3366867478e+000	-6.4544616396e-001
 2.3481177964e+000	 3.3610032452e+000	-6.0929623576e-001
 2.3134737127e+000	 3.3849430395e+000	-5.9013562472e-001
 2.2786190546e+000	 3.4085033672e+000	-5.8687335446e-001
 2.2435599889e+000	 3.4316815960e+000	-5.9839997509e-001
 2.5999797714e+000	 3.2024568987e+000	-7.6234860581e-001
 2.5667770517e+000	 3.2291300016e+000	-7.9652632603e-001
 2.5333204655e+000	 3.2554435057e+000	-8.4849320771e-001
 2.4996158376e+000	 3.2813938600e+000	-9.1592715970e-001
 2.4656690571e+000	 3.3069776384e+000	-8.1046913392e-001
 2.4314860743e+000	 3.3321915417e+000	-7.2512957987e-001
 2.3970728971e+000	 3.3570323987e+000	-6.5888545343e-001
 2.3624355879e+000	 3.3814971674e+000	-6.1068769840e-001
 2.3275802597e+000	 3.4055829361e+000	-5.7946363797e-001
 2.2925130732e+000	 3.4292869243e+000	-5.6411940230e-001
 2.2572402327e+000	 3.4526064838e+000	-5.6354238596e-001
 2.6157372245e+000	 3.2218657284e+000	-7.4853353113e-001
 2.5823332762e+000	 3.2487004864e+000	-7.7319150695e-001
 2.5486739229e+000	 3.2751734664e+000	-8.1524909186e-001
 2.5147650245e+000	 3.3012810955e+000	-8.7461660451e-001
 2.4806125059e+000	 3.3270199271e+000	-8.4191575646e-001
 2.4462223535e+000	 3.3523866420e+000	-7.4505991858e-001
 2.4116006116e+000	 3.3773780496e+000	-6.6729999521e-001
 2.3767533793e+000	 3.4019910896e+000	-6.0758406064e-001
 2.3416868067e+000	 3.4262228327e+000	-5.6483624272e-001
 2.3064070918e+000	 3.4500704814e+000	-5.3795917812e-001
 2.2709204766e+000	 3.4735313716e+000	-5.2583649793e-001
 2.6314946777e+000	 3.2412745581e+000	-7.2855611107e-001
 2.5978895008e+000	 3.2682709713e+000	-7.4396038650e-001
 2.5640273802e+000	 3.2949034270e+000	-7.7637344897e-001
 2.5299142114e+000	 3.3211683310e+000	-8.2573117637e-001
 2.4955559548e+000	 3.3470622158e+000	-8.6712769936e-001
 2.4609586328e+000	 3.3725817422e+000	-7.5925982669e-001
 2.4261283262e+000	 3.3977237005e+000	-6.7049959858e-001
 2.3910711707e+000	 3.4224850119e+000	-5.9979163810e-001
 2.3557933538e+000	 3.4468627293e+000	-5.4605628629e-001
 2.3203011104e+000	 3.4708540386e+000	-5.0819208594e-001
 2.2846007204e+000	 3.4944562593e+000	-4.8507829632e-001
 2.6472521309e+000	 3.2606833878e+000	-7.0263408518e-001
 2.6134457253e+000	 3.2878414561e+000	-7.0904366057e-001
 2.5793808376e+000	 3.3146333876e+000	-7.3206977408e-001
 2.5450633983e+000	 3.3410555665e+000	-7.7167384637e-001
 2.5104994036e+000	 3.3671045045e+000	-8.2781693950e-001
 2.4756949120e+000	 3.3927768425e+000	-7.6754219821e-001
 2.4406560407e+000	 3.4180693514e+000	-6.6829379059e-001
 2.4053889622e+000	 3.4429789341e+000	-5.8711661785e-001
 2.3698999008e+000	 3.4675026259e+000	-5.2292664237e-001
 2.3341951291e+000	 3.4916375957e+000	-4.7461771232e-001
 2.2982809642e+000	 3.5153811471e+000	-4.4106410632e-001
 2.6630095840e+000	 3.2800922175e+000	-6.7098405493e-001
 2.6290019499e+000	 3.3074119410e+000	-6.6865102703e-001
 2.5947342950e+000	 3.3343633483e+000	-6.8254070593e-001
 2.5602125852e+000	 3.3609428020e+000	-7.1264004290e-001
 2.5254428524e+000	 3.3871467933e+000	-7.5893626031e-001
 2.4904311912e+000	 3.4129719427e+000	-7.6971950551e-001
 2.4551837552e+000	 3.4384150023e+000	-6.6049182439e-001
 2.4197067536e+000	 3.4634728563e+000	-5.6936506217e-001
 2.3840064478e+000	 3.4881425224e+000	-4.9525021029e-001
 2.3480891477e+000	 3.5124211528e+000	-4.3703582098e-001
 2.3119612081e+000	 3.5363060349e+000	-3.9359058294e-001
 2.6787670372e+000	 3.2995010472e+000	-6.3382151723e-001
 2.6445581744e+000	 3.3269824258e+000	-6.2299121508e-001
 2.6100877523e+000	 3.3540933089e+000	-6.2798805214e-001
 2.5753617721e+000	 3.3808300376e+000	-6.4882450236e-001
 2.5403863013e+000	 3.4071890820e+000	-6.8551394782e-001
 2.5051674705e+000	 3.4331670430e+000	-7.3807015640e-001
 2.4697114697e+000	 3.4587606532e+000	-6.4690268732e-001
 2.4340245451e+000	 3.4839667785e+000	-5.4634291227e-001
 2.3981129948e+000	 3.5087824190e+000	-4.6282991420e-001
 2.3619831663e+000	 3.5332047099e+000	-3.9524634763e-001
 2.3256414519e+000	 3.5572309227e+000	-3.4245470135e-001
 2.1888390135e+000	 3.3479820449e+000	-7.1344012767e-001
 2.1544416806e+000	 3.3702197324e+000	-7.1502564151e-001
 2.1198570727e+000	 3.3920798916e+000	-7.0800664944e-001
 2.0850913135e+000	 3.4135603429e+000	-6.9189078277e-001
 2.0501505556e+000	 3.4346590368e+000	-6.6619331549e-001
 2.0150409773e+000	 3.4553740550e+000	-6.3043872279e-001
 1.9797687788e+000	 3.4757036097e+000	-5.8416221838e-001
 1.9443401791e+000	 3.4956460444e+000	-5.2691126643e-001
 1.9087614125e+000	 3.5151998336e+000	-4.5824706390e-001
 1.8730387253e+000	 3.5343635826e+000	-3.8469745502e-001
 1.8371783722e+000	 3.5531360273e+000	-4.1696340206e-001
 2.2025192574e+000	 3.3689069327e+000	-6.8792841617e-001
 2.1679069412e+000	 3.3912836057e+000	-6.8677107650e-001
 2.1331061794e+000	 3.4132803910e+000	-6.7909620970e-001
 2.0981231342e+000	 3.4348950950e+000	-6.6438417685e-001
 2.0629639966e+000	 3.4561256558e+000	-6.4212107610e-001
 2.0276349834e+000	 3.4769701428e+000	-6.1180036801e-001
 1.9921423336e+000	 3.4974267573e+000	-5.7292448160e-001
 1.9564923052e+000	 3.5174938322e+000	-5.2500639679e-001
 1.9206911713e+000	 3.5371698326e+000	-4.6757119870e-001
 1.8847452173e+000	 3.5564533549e+000	-4.0015759998e-001
 1.8486607371e+000	 3.5753431275e+000	-4.1261536043e-001
 2.2161995012e+000	 3.3898318204e+000	-6.6038807788e-001
 2.1813722017e+000	 3.4123474791e+000	-6.5670299162e-001
 2.1463552861e+000	 3.4344808903e+000	-6.4856857755e-001
 2.1111549549e+000	 3.4562298472e+000	-6.3543757627e-001
 2.0757774376e+000	 3.4775922748e+000	-6.1676657070e-001
 2.0402289895e+000	 3.4985662307e+000	-5.9201767872e-001
 2.0045158885e+000	 3.5191499048e+000	-5.6066022852e-001
 1.9686444313e+000	 3.5393416200e+000	-5.2217241199e-001
 1.9326209301e+000	 3.5591398315e+000	-4.7604291166e-001
 1.8964517093e+000	 3.5785431273e+000	-4.2177249688e-001
 1.8601431019e+000	 3.5975502277e+000	-4.0878570830e-001
 2.2298797451e+000	 3.4107567082e+000	-6.3061363035e-001
 2.1948374622e+000	 3.4334113524e+000	-6.2461856860e-001
 2.1596043928e+000	 3.4556813896e+000	-6.1622410236e-001
 2.1241867756e+000	 3.4775645993e+000	-6.0485499632e-001
 2.0885908786e+000	 3.4990588938e+000	-5.8993797322e-001
 2.0528229956e+000	 3.5201623185e+000	-5.7090347441e-001
 2.0168894434e+000	 3.5408730524e+000	-5.4718740500e-001
 1.9807965574e+000	 3.5611894078e+000	-5.1823285876e-001
 1.9445506890e+000	 3.5811098305e+000	-4.8349181816e-001
 1.9081582014e+000	 3.6006328997e+000	-4.4242682492e-001
 1.8716254667e+000	 3.6197573278e+000	-4.0559013358e-001
 2.2435599889e+000	 3.4316815960e+000	-5.9839997509e-001
 2.2083027227e+000	 3.4544752257e+000	-5.9031538760e-001
 2.1728534996e+000	 3.4768818889e+000	-5.8186353572e-001
 2.1372185963e+000	 3.4988993514e+000	-5.7244084762e-001
 2.1014043195e+000	 3.5205255128e+000	-5.6144383544e-001
 2.0654170017e+000	 3.5417584064e+000	-5.4827092439e-001
 2.0292629983e+000	 3.5625962000e+000	-5.3232426819e-001
 1.9929486836e+000	 3.5830371956e+000	-5.1301154606e-001
 1.9564804478e+000	 3.6030798295e+000	-4.8974773636e-001
 1.9198646934e+000	 3.6227226721e+000	-4.6195686207e-001
 1.8831078316e+000	 3.6419644280e+000	-4.2907370366e-001
 2.2572402327e+000	 3.4526064838e+000	-5.6354238596e-001
 2.2217679832e+000	 3.4755390991e+000	-5.5359141518e-001
 2.1861026063e+000	 3.4980823883e+000	-5.4528801929e-001
 2.1502504171e+000	 3.5202341036e+000	-5.3799992418e-001
 2.1142177605e+000	 3.5419921317e+000	-5.3109307558e-001
 2.0780110078e+000	 3.5633544942e+000	-5.2393353717e-001
 2.0416365531e+000	 3.5843193475e+000	-5.1588937701e-001
 2.0051008097e+000	 3.6048849833e+000	-5.0633253710e-001
 1.9684102066e+000	 3.6250498284e+000	-4.9464068112e-001
 1.9315711854e+000	 3.6448124445e+000	-4.8019901538e-001
 1.8945901964e+000	 3.6641715282e+000	-4.6240207830e-001
 2.2709204766e+000	 3.4735313716e+000	-5.2583649793e-001
 2.2352332437e+000	 3.4966029724e+000	-5.1424499263e-001
 2.1993517130e+000	 3.5192828876e+000	-5.0629907302e-001
 2.1632822378e+000	 3.5415688557e+000	-5.0133739185e-001
 2.1270312015e+000	 3.5634587507e+000	-4.9869496721e-001
 2.0906050139e+000	 3.5849505821e+000	-4.9770515026e-001
 2.0540101080e+000	 3.6060424951e+000	-4.9770158313e-001
 2.0172529358e+000	 3.6267327711e+000	-4.9802014171e-001
 1.9803399655e+000	 3.6470198274e+000	-4.9800085800e-001
 1.9432776775e+000	 3.6669022169e+000	-4.9698981703e-001
 1.9060725612e+000	 3.6863786283e+000	-4.9434102346e-001
 2.2846007204e+000	 3.4944562593e+000	-4.8507829632e-001
 2.2486985042e+000	 3.5176668457e+000	-4.7207482476e-001
 2.2126008197e+000	 3.5404833869e+000	-4.6469858381e-001
 2.1763140585e+000	 3.5629036079e+000	-4.6225877718e-001
 2.1398446424e+000	 3.5849253697e+000	-4.6405912869e-001
 2.1031990201e+000	 3.6065466699e+000	-4.6939992031e-001
 2.0663836629e+000	 3.6277656426e+000	-4.7758002216e-001
 2.0294050619e+000	 3.6485805589e+000	-4.8789890895e-001
 1.9922697243e+000	 3.6689898263e+000	-4.9965865760e-001
 1.9549841695e+000	 3.6889919893e+000	-5.1216592064e-001
 1.9175549260e+000	 3.7085857285e+000	-5.2473387038e-001
 2.2982809642e+000	 3.5153811471e+000	-4.4106410632e-001
 2.2621637647e+000	 3.5387307190e+000	-4.2687996908e-001
 2.2258499264e+000	 3.5616838862e+000	-4.2028879465e-001
 2.1893458792e+000	 3.5842383600e+000	-4.2056995667e-001
 2.1526580834e+000	 3.6063919887e+000	-4.2699551282e-001
 2.1157930262e+000	 3.6281427577e+000	-4.3883231363e-001
 2.0787572177e+000	 3.6494887902e+000	-4.5534410522e-001
 2.0415571880e+000	 3.6704283467e+000	-4.7579362000e-001
 2.0041994831e+000	 3.6909598253e+000	-4.9944465006e-001
 1.9666906615e+000	 3.7110817617e+000	-5.2556409761e-001
 1.9290372909e+000	 3.7307928287e+000	-5.5342399729e-001
 2.3119612081e+000	 3.5363060349e+000	-3.9359058294e-001
 2.2756290252e+000	 3.5597945924e+000	-3.7845982538e-001
 2.2390990331e+000	 3.5828843855e+000	-3.7287229402e-001
 2.2023776999e+000	 3.6055731122e+000	-3.7607714646e-001
 2.1654715244e+000	 3.6278586077e+000	-3.8731439701e-001
 2.1283870323e+000	 3.6497388456e+000	-4.0581709701e-001
 2.0911307726e+000	 3.6712119378e+000	-4.3081351077e-001
 2.0537093142e+000	 3.6922761344e+000	-4.6152928125e-001
 2.0161292419e+000	 3.7129298243e+000	-4.9718957968e-001
 1.9783971536e+000	 3.7331715341e+000	-5.3702123365e-001
 1.9405196557e+000	 3.7529999288e+000	-5.6629621566e-001
 2.3256414519e+000	 3.5572309227e+000	-3.4245470135e-001
 2.2890942857e+000	 3.5808584657e+000	-3.2661412563e-001
 2.2523481398e+000	 3.6040848849e+000	-3.2225200575e-001
 2.2154095206e+000	 3.6269078643e+000	-3.2858689228e-001
 2.1782849654e+000	 3.6493252266e+000	-3.4482637371e-001
 2.1409810384e+000	 3.6713349334e+000	-3.7016932888e-001
 2.1035043275e+000	 3.6929350853e+000	-4.0380817679e-001
 2.0658614403e+000	 3.7141239222e+000	-4.4493111774e-001
 2.0280590008e+000	 3.7348998232e+000	-4.9272435988e-001
 1.9901036456e+000	 3.7552613065e+000	-5.2180008541e-001
 1.9520020205e+000	 3.7752070290e+000	-4.8751406736e-001
 1.8371783722e+000	 3.5531360273e+000	-4.1696340206e-001
 1.8011866135e+000	 3.5715160343e+000	-3.8211963843e-001
 1.7650697110e+000	 3.5895026000e+000	-3.5156893070e-001
 1.7288339256e+000	 3.6070948501e+000	-3.2443635065e-001
 1.6924855132e+000	 3.6242920395e+000	-2.9989384879e-001
 1.6560307222e+000	 3.6410935510e+000	-2.7716105371e-001
 1.6194757899e+000	 3.6574988949e+000	-2.5550594029e-001
 1.5828269397e+000	 3.6735077078e+000	-2.3424536790e-001
 1.5460903777e+000	 3.6891197520e+000	-2.1274548994e-001
 1.5092722896e+000	 3.7043349141e+000	-1.9042203631e-001
 1.4723788383e+000	 3.7191532043e+000	-1.6674047103e-001
 1.8486607371e+000	 3.5753431275e+000	-4.1261536043e-001
 1.8124440298e+000	 3.5938380095e+000	-3.9142784946e-001
 1.7761013967e+000	 3.6119369912e+000	-3.7297255576e-001
 1.7396391376e+000	 3.6296391930e+000	-3.5635089099e-001
 1.7030635476e+000	 3.6469438648e+000	-3.4071355648e-001
 1.6663809142e+000	 3.6638503857e+000	-3.2526134593e-001
 1.6295975136e+000	 3.6803582629e+000	-3.0924581280e-001
 1.5927196081e+000	 3.6964671309e+000	-2.9196980335e-001
 1.5557534425e+000	 3.7121767504e+000	-2.7278785700e-001
 1.5187052414e+000	 3.7274870073e+000	-2.5110647557e-001
 1.4815812060e+000	 3.7423979118e+000	-2.2638426374e-001
 1.8601431019e+000	 3.5975502277e+000	-4.0878570830e-001
 1.8237014462e+000	 3.6161599847e+000	-4.0111830939e-001
 1.7871330824e+000	 3.6343713825e+000	-3.9462100925e-001
 1.7504443496e+000	 3.6521835358e+000	-3.8837132403e-001
 1.7136415821e+000	 3.6695956900e+000	-3.8149848612e-001
 1.6767311062e+000	 3.6866072204e+000	-3.7318425042e-001
 1.6397192373e+000	 3.7032176310e+000	-3.6266356091e-001
 1.6026122765e+000	 3.7194265541e+000	-3.4922507873e-001
 1.5654165074e+000	 3.7352337488e+000	-3.3221157338e-001
 1.5281381932e+000	 3.7506391005e+000	-3.0916248667e-001
 1.4907835738e+000	 3.7656426193e+000	-2.4502890817e-001
 1.8716254667e+000	 3.6197573278e+000	-4.0559013358e-001
 1.8349588625e+000	 3.6384819600e+000	-4.1131099781e-001
 1.7981647681e+000	 3.6568057737e+000	-4.1663818777e-001
 1.7612495617e+000	 3.6747278786e+000	-4.2062508681e-001
 1.7242196165e+000	 3.6922475153e+000	-4.2237923711e-001
 1.6870812982e+000	 3.7093640551e+000	-4.2106314962e-001
 1.6498409610e+000	 3.7260769991e+000	-4.1589496993e-001
 1.6125049449e+000	 3.7423859773e+000	-4.0614900153e-001
 1.5750795722e+000	 3.7582907473e+000	-3.6420592490e-001
 1.5375711450e+000	 3.7737911937e+000	-3.0038578032e-001
 1.4999859415e+000	 3.7888873268e+000	-2.4219115720e-001
 1.8831078316e+000	 3.6419644280e+000	-4.2907370366e-001
 1.8462162788e+000	 3.6608039352e+000	-4.2212586732e-001
 1.8091964538e+000	 3.6792401650e+000	-4.3914788640e-001
 1.7720547737e+000	 3.6972722214e+000	-4.5323944599e-001
 1.7347976510e+000	 3.7148993405e+000	-4.6348617528e-001
 1.6974314902e+000	 3.7321208898e+000	-4.6903113489e-001
 1.6599626847e+000	 3.7489363672e+000	-4.6907548227e-001
 1.6223976132e+000	 3.7653454004e+000	-4.0822058778e-001
 1.5847426371e+000	 3.7813477457e+000	-3.4680720216e-001
 1.5470040968e+000	 3.7969432870e+000	-2.8957087583e-001
 1.5091883092e+000	 3.8121320343e+000	-2.3716444959e-001
 1.8945901964e+000	 3.6641715282e+000	-4.6240207830e-001
 1.8574736952e+000	 3.6831259104e+000	-4.3368284426e-001
 1.8202281395e+000	 3.7016745562e+000	-4.6227380174e-001
 1.7828599857e+000	 3.7198165642e+000	-4.8634150304e-001
 1.7453756855e+000	 3.7375511658e+000	-5.0494943999e-001
 1.7077816822e+000	 3.7548777245e+000	-4.9748441279e-001
 1.6700844084e+000	 3.7717957353e+000	-4.3866826471e-001
 1.6322902816e+000	 3.7883048236e+000	-3.8178905408e-001
 1.5944057020e+000	 3.8044047442e+000	-3.2758635390e-001
 1.5564370487e+000	 3.8200953802e+000	-2.7676524843e-001
 1.5183906770e+000	 3.8353767419e+000	-2.2999543623e-001
 1.9060725612e+000	 3.6863786283e+000	-4.9434102346e-001
 1.8687311115e+000	 3.7054478856e+000	-4.4610182956e-001
 1.8312598252e+000	 3.7241089475e+000	-4.8613953492e-001
 1.7936651978e+000	 3.7423609070e+000	-5.2005819916e-001
 1.7559537199e+000	 3.7602029910e+000	-5.0352882749e-001
 1.7181318743e+000	 3.7776345592e+000	-4.5301085194e-001
 1.6802061321e+000	 3.7946551034e+000	-4.0282772001e-001
 1.6421829500e+000	 3.8112642468e+000	-3.5376903288e-001
 1.6040687668e+000	 3.8274617426e+000	-3.0659110300e-001
 1.5658700005e+000	 3.8432474734e+000	-2.6201593633e-001
 1.5275930447e+000	 3.8586214494e+000	-2.2073030341e-001
 1.9175549260e+000	 3.7085857285e+000	-5.2473387038e-001
 1.8799885278e+000	 3.7277698608e+000	-4.7341963924e-001
 1.8422915109e+000	 3.7465433387e+000	-5.1086859443e-001
 1.8044704098e+000	 3.7649052498e+000	-4.8868194786e-001
 1.7665317544e+000	 3.7828548162e+000	-4.4870841086e-001
 1.7284820663e+000	 3.8003913939e+000	-4.0741807035e-001
 1.6903278558e+000	 3.8175144715e+000	-3.6564927106e-001
 1.6520756183e+000	 3.8342236700e+000	-3.2420840665e-001
 1.6137318317e+000	 3.8505187411e+000	-2.8386878029e-001
 1.5753029523e+000	 3.8663995666e+000	-2.4536955387e-001
 1.5367954125e+000	 3.8818661569e+000	-2.0941478680e-001
 1.9290372909e+000	 3.7307928287e+000	-5.5342399729e-001
 1.8912459442e+000	 3.7500918360e+000	-5.1690072353e-001
 1.8533231966e+000	 3.7689777300e+000	-4.5036598950e-001
 1.8152756218e+000	 3.7874495926e+000	-4.2321727457e-001
 1.7771097888e+000	 3.8055066415e+000	-3.9305148609e-001
 1.7388322583e+000	 3.8231482286e+000	-3.6075429066e-001
 1.7004495794e+000	 3.8403738396e+000	-3.2718088080e-001
 1.6619682867e+000	 3.8571830931e+000	-2.9315471340e-001
 1.6233948965e+000	 3.8735757395e+000	-2.5946633627e-001
 1.5847359041e+000	 3.8895516598e+000	-2.2687230407e-001
 1.5459977802e+000	 3.9051108645e+000	-1.9609418477e-001
 1.9405196557e+000	 3.7529999288e+000	-5.6629621566e-001
 1.9025033605e+000	 3.7724138112e+000	-4.5582440559e-001
 1.8643548823e+000	 3.7914121212e+000	-3.7398821063e-001
 1.8260808339e+000	 3.8099939354e+000	-3.5721393224e-001
 1.7876878233e+000	 3.8281584667e+000	-3.3660616709e-001
 1.7491824503e+000	 3.8459050633e+000	-3.1306748549e-001
 1.7105713031e+000	 3.8632332077e+000	-2.8747021761e-001
 1.6718609551e+000	 3.8801425163e+000	-2.6065515690e-001
 1.6330579614e+000	 3.8966327380e+000	-2.3343035232e-001
 1.5941688559e+000	 3.9127037530e+000	-2.0656999088e-001
 1.5552001479e+000	 3.9283555720e+000	-1.8081337140e-001
 1.9520020205e+000	 3.7752070290e+000	-4.8751406736e-001
 1.9137607768e+000	 3.7947357865e+000	-3.9198245338e-001
 1.8753865680e+000	 3.8138465125e+000	-2.9827614425e-001
 1.8368860459e+000	 3.8325382783e+000	-2.9071986860e-001
 1.7982658577e+000	 3.8508102920e+000	-2.7942037308e-001
 1.7595326423e+000	 3.8686618980e+000	-2.6440538481e-001
 1.7206930268e+000	 3.8860925758e+000	-2.4656466399e-001
 1.6817536235e+000	 3.9031019395e+000	-2.2675661648e-001
 1.6427210263e+000	 3.9196897364e+000	-2.0580705158e-001
 1.6036018077e+000	 3.9358558462e+000	-1.8450803081e-001
 1.5644025157e+000	 3.9516002795e+000	-1.6361680893e-001
 1.4723788383e+000	 3.7191532043e+000	-1.6674047103e-001
 1.4354161602e+000	 3.7335747544e+000	-2.1579819131e-001
 1.3983903631e+000	 3.7475998176e+000	-2.4240950181e-001
 1.3613075226e+000	 3.7612287659e+000	-2.3172569810e-001
 1.3241736799e+000	 3.7744620896e+000	-2.0666572047e-001
 1.2869948389e+000	 3.7873003954e+000	-1.7169607445e-001
 1.2497769635e+000	 3.7997444048e+000	-1.2725143386e-001
 1.2125259753e+000	 3.8117949524e+000	-1.0394328090e-001
 1.1752477508e+000	 3.8234529844e+000	-9.3145269792e-002
 1.1379481191e+000	 3.8347195567e+000	-9.3678392086e-002
 1.1006328594e+000	 3.8455958328e+000	-1.0442998703e-001
 1.4815812060e+000	 3.7423979118e+000	-2.2638426374e-001
 1.4443875112e+000	 3.7569095967e+000	-2.5342036622e-001
 1.4071303029e+000	 3.7710223164e+000	-2.5033738619e-001
 1.3698156946e+000	 3.7847364456e+000	-2.3677884720e-001
 1.3324497654e+000	 3.7980524776e+000	-2.1312185521e-001
 1.2950385566e+000	 3.8109710228e+000	-1.7972288113e-001
 1.2575880695e+000	 3.8234928073e+000	-1.3691729885e-001
 1.2201042627e+000	 3.8356186709e+000	-1.1148149408e-001
 1.1825930493e+000	 3.8473495656e+000	-1.0267147885e-001
 1.1450602948e+000	 3.8586865539e+000	-1.0479175495e-001
 1.1075118147e+000	 3.8696308067e+000	-1.1672408149e-001
 1.4907835738e+000	 3.7656426193e+000	-2.4502890817e-001
 1.4533588622e+000	 3.7802444389e+000	-2.5386907329e-001
 1.4158702426e+000	 3.7944448153e+000	-2.5195880981e-001
 1.3783238666e+000	 3.8082441254e+000	-2.3971333023e-001
 1.3407258509e+000	 3.8216428657e+000	-2.1752705284e-001
 1.3030822743e+000	 3.8346416503e+000	-1.8577305844e-001
 1.2653991756e+000	 3.8472412098e+000	-1.4480261318e-001
 1.2276825500e+000	 3.8594423893e+000	-1.1609252710e-001
 1.1899383477e+000	 3.8712461467e+000	-1.0937872433e-001
 1.1521724706e+000	 3.8826535511e+000	-1.1317909688e-001
 1.1143907701e+000	 3.8936657807e+000	-1.2636976278e-001
 1.4999859415e+000	 3.7888873268e+000	-2.4219115720e-001
 1.4623302133e+000	 3.8035792811e+000	-2.5212623037e-001
 1.4246101824e+000	 3.8178673141e+000	-2.5143942165e-001
 1.3868320386e+000	 3.8317518052e+000	-2.4056409360e-001
 1.3490019364e+000	 3.8452332537e+000	-2.1991211817e-001
 1.3111259921e+000	 3.8583122778e+000	-1.8987331647e-001
 1.2732102816e+000	 3.8709896123e+000	-1.5081496623e-001
 1.2352608374e+000	 3.8832661078e+000	-1.1790009684e-001
 1.1972836462e+000	 3.8951427279e+000	-1.1338715072e-001
 1.1592846463e+000	 3.9066205484e+000	-1.1895680809e-001
 1.1212697255e+000	 3.9177007546e+000	-1.3347948708e-001
 1.5091883092e+000	 3.8121320343e+000	-2.3716444959e-001
 1.4713015643e+000	 3.8269141233e+000	-2.4823475947e-001
 1.4333501222e+000	 3.8412898130e+000	-2.4881797440e-001
 1.3953402107e+000	 3.8552594850e+000	-2.3936576209e-001
 1.3572780219e+000	 3.8688236418e+000	-2.2030759240e-001
 1.3191697098e+000	 3.8819829053e+000	-1.9205015986e-001
 1.2810213876e+000	 3.8947380149e+000	-1.5497687581e-001
 1.2428391247e+000	 3.9070898262e+000	-1.1702783162e-001
 1.2046289446e+000	 3.9190393090e+000	-1.1481687256e-001
 1.1663968220e+000	 3.9305875456e+000	-1.2224130758e-001
 1.1281486808e+000	 3.9417357286e+000	-1.3816579824e-001
 1.5183906770e+000	 3.8353767419e+000	-2.2999543623e-001
 1.4802729153e+000	 3.8502489655e+000	-2.4223715909e-001
 1.4420900620e+000	 3.8647123118e+000	-2.4413285292e-001
 1.4038483827e+000	 3.8787671648e+000	-2.3615264865e-001
 1.3655541074e+000	 3.8924140299e+000	-2.1874376106e-001
 1.3272134276e+000	 3.9056535327e+000	-1.9232989401e-001
 1.2888324936e+000	 3.9184864174e+000	-1.5731071706e-001
 1.2504174121e+000	 3.9309135447e+000	-1.1406141321e-001
 1.2119742430e+000	 3.9429358902e+000	-1.1378797537e-001
 1.1735089978e+000	 3.9545545428e+000	-1.2314904234e-001
 1.1350276362e+000	 3.9657707025e+000	-1.4054132512e-001
 1.5275930447e+000	 3.8586214494e+000	-2.2073030341e-001
 1.4892442663e+000	 3.8735838077e+000	-2.3417551689e-001
 1.4508300017e+000	 3.8881348107e+000	-2.3742208530e-001
 1.4123565547e+000	 3.9022748446e+000	-2.3095876374e-001
 1.3738301929e+000	 3.9160044179e+000	-2.1525066174e-001
 1.3352571453e+000	 3.9293241602e+000	-1.9073863108e-001
 1.2966435997e+000	 3.9422348199e+000	-1.5783872682e-001
 1.2579956994e+000	 3.9547372631e+000	-1.1694174120e-001
 1.2193195415e+000	 3.9668324714e+000	-1.1042051655e-001
 1.1806211735e+000	 3.9785215400e+000	-1.2179648645e-001
 1.1419065916e+000	 3.9898056765e+000	-1.4071877901e-001
 1.5367954125e+000	 3.8818661569e+000	-2.0941478680e-001
 1.4982156173e+000	 3.8969186499e+000	-2.2409152204e-001
 1.4595699415e+000	 3.9115573096e+000	-2.2872335355e-001
 1.4208647267e+000	 3.9257825243e+000	-2.2381782443e-001
 1.3821062784e+000	 3.9395948060e+000	-2.0985809152e-001
 1.3433008631e+000	 3.9529947877e+000	-1.8730229582e-001
 1.3044547057e+000	 3.9659832225e+000	-1.5658300770e-001
 1.2655739868e+000	 3.9785609816e+000	-1.1810674706e-001
 1.2266648399e+000	 3.9907290525e+000	-1.0483452620e-001
 1.1877333493e+000	 4.0024885373e+000	-1.1830014033e-001
 1.1487855470e+000	 4.0138406504e+000	-1.3881095121e-001
 1.5459977802e+000	 3.9051108645e+000	-1.9609418477e-001
 1.5071869683e+000	 3.9202534922e+000	-2.1202647705e-001
 1.4683098813e+000	 3.9349798084e+000	-2.1807400392e-001
 1.4293728987e+000	 3.9492902041e+000	-2.1476326309e-001
 1.3903823639e+000	 3.9631851940e+000	-2.0259561410e-001
 1.3513445808e+000	 3.9766654151e+000	-1.8204663107e-001
 1.3122658117e+000	 3.9897316250e+000	-1.5356553214e-001
 1.2731522741e+000	 4.0023847000e+000	-1.1757468564e-001
 1.2340101384e+000	 4.0146256337e+000	-9.7150007905e-002
 1.1948455250e+000	 4.0264555345e+000	-1.1277652990e-001
 1.1556645023e+000	 4.0378756244e+000	-1.3493071058e-001
 1.5552001479e+000	 3.9283555720e+000	-1.8081337140e-001
 1.5161583193e+000	 3.9435883344e+000	-1.9802130924e-001
 1.4770498210e+000	 3.9584023073e+000	-2.0551105680e-001
 1.4378810707e+000	 3.9727978839e+000	-2.0382823586e-001
 1.3986584494e+000	 3.9867755821e+000	-1.9349256673e-001
 1.3593882986e+000	 4.0003360426e+000	-1.7499720321e-001
 1.3200769177e+000	 4.0134800275e+000	-1.4880814621e-001
 1.2807305615e+000	 4.0262084185e+000	-1.1536373573e-001
 1.2413554368e+000	 4.0385222148e+000	-8.7486939581e-002
 1.2019577008e+000	 4.0504225317e+000	-1.0534220583e-001
 1.1625434577e+000	 4.0619105984e+000	-1.2919100130e-001
 1.5644025157e+000	 3.9516002795e+000	-1.6361680893e-001
 1.5251296703e+000	 3.9669231766e+000	-1.8211658174e-001
 1.4857897608e+000	 3.9818248061e+000	-1.9107121631e-001
 1.4463892427e+000	 3.9963055637e+000	-1.9104563072e-001
 1.4069345349e+000	 4.0103659702e+000	-1.8257806685e-001
 1.3674320163e+000	 4.0240066701e+000	-1.6617940734e-001
 1.3278880237e+000	 4.0372284301e+000	-1.4233257332e-001
 1.2883088488e+000	 4.0500321369e+000	-1.1149200225e-001
 1.2487007353e+000	 4.0624187960e+000	-7.5965274180e-002
 1.2090698765e+000	 4.0743895290e+000	-9.6113742858e-002
 1.1694224131e+000	 4.0859455723e+000	-1.2170484066e-001
 1.1006328594e+000	 3.8455958328e+000	-1.0442998703e-001
 1.0633076989e+000	 3.8560830823e+000	-8.9810543119e-002
 1.0259783107e+000	 3.8661826788e+000	-7.8810568048e-002
 9.8865031116e-001	 3.8758960980e+000	-7.0312219416e-002
 9.5132925831e-001	 3.8852249153e+000	-6.3269293291e-002
 9.1402064961e-001	 3.8941708042e+000	-5.6706488199e-002
 8.7672992013e-001	 3.9027355338e+000	-4.9718545890e-002
 8.3946244064e-001	 3.9109209671e+000	-4.1469274854e-002
 8.0222351592e-001	 3.9187290581e+000	-3.1190462650e-002
 7.6501838302e-001	 3.9261618501e+000	-1.8180683264e-002
 7.2785220965e-001	 3.9332214737e+000	-1.8040057377e-003
 1.1075118147e+000	 3.8696308067e+000	-1.1672408149e-001
 1.0699533720e+000	 3.8801836015e+000	-9.7865947421e-002
 1.0323906751e+000	 3.8903463206e+000	-8.2572459346e-002
 9.9482937561e-001	 3.9001204486e+000	-6.9752968753e-002
 9.5727506617e-001	 3.9095075710e+000	-5.8389126911e-002
 9.1973327867e-001	 3.9185093717e+000	-4.7534100179e-002
 8.8220948212e-001	 3.9271276309e+000	-3.6311661349e-002
 8.4470908089e-001	 3.9353642231e+000	-2.3915163102e-002
 8.0723741289e-001	 3.9432211147e+000	-9.6063997943e-003
 7.6979974791e-001	 3.9507003617e+000	 7.2856360975e-003
 7.3240128595e-001	 3.9578041079e+000	 2.7366096506e-002
 1.1143907701e+000	 3.8936657807e+000	-1.2636976278e-001
 1.0765990452e+000	 3.9042841208e+000	-1.0404491972e-001
 1.0388030396e+000	 3.9145099623e+000	-8.5208561058e-002
 1.0010084400e+000	 3.9243447992e+000	-6.8796989135e-002
 9.6322087403e-001	 3.9337902267e+000	-5.3819497747e-002
 9.2544590773e-001	 3.9428479392e+000	-3.9357538351e-002
 8.8768904412e-001	 3.9515197280e+000	-2.4563761490e-002
 8.4995572114e-001	 3.9598074792e+000	-8.6609396780e-003
 8.1225130986e-001	 3.9677131713e+000	 9.0592219068e-003
 7.7458111280e-001	 3.9752388733e+000	 2.9237380483e-002
 7.3695036226e-001	 3.9823867421e+000	 5.2447949961e-002
 1.1212697255e+000	 3.9177007546e+000	-1.3347948708e-001
 1.0832447183e+000	 3.9283846401e+000	-1.0844274201e-001
 1.0452154040e+000	 3.9386736040e+000	-8.6796915710e-002
 1.0071875045e+000	 3.9485691498e+000	-6.7505025692e-002
 9.6916668190e-001	 3.9580728824e+000	-4.9603803018e-002
 9.3115853678e-001	 3.9671865068e+000	-3.2202808937e-002
 8.9316860612e-001	 3.9759118251e+000	-1.4483425908e-002
 8.5520236139e-001	 3.9842507352e+000	 4.3022706093e-003
 8.1726520684e-001	 3.9922052279e+000	 2.4832753120e-002
 7.7936247769e-001	 3.9997773848e+000	 4.7718389246e-002
 7.4149943857e-001	 4.0069693763e+000	 7.3502888414e-002
 1.1281486808e+000	 3.9417357286e+000	-1.3816579824e-001
 1.0898903914e+000	 3.9524851593e+000	-1.1115516144e-001
 1.0516277685e+000	 3.9628372458e+000	-8.7416405814e-002
 1.0133665689e+000	 3.9727935004e+000	-6.5939035594e-002
 9.7511248976e-001	 3.9823555382e+000	-4.5787021108e-002
 9.3687116584e-001	 3.9915250743e+000	-2.6097865390e-002
 8.9864816812e-001	 4.0003039222e+000	-6.0815443038e-003
 8.6044900165e-001	 4.0086939913e+000	 1.4980673290e-002
 8.2227910381e-001	 4.0166972845e+000	 3.7737518731e-002
 7.8414384258e-001	 4.0243158964e+000	 6.2769123397e-002
 7.4604851487e-001	 4.0315520105e+000	 9.0588518419e-002
 1.1350276362e+000	 3.9657707025e+000	-1.4054132512e-001
 1.0965360645e+000	 3.9765856786e+000	-1.1227837621e-001
 1.0580401329e+000	 3.9870008875e+000	-8.7146728417e-002
 1.0195456334e+000	 3.9970178510e+000	-6.4162151321e-002
 9.8105829763e-001	 4.0066381939e+000	-4.2415663648e-002
 9.4258379490e-001	 4.0158636418e+000	-2.1072549381e-002
 9.0412773012e-001	 4.0246960193e+000	 6.2875352273e-004
 8.6569564190e-001	 4.0331372473e+000	 2.3377885131e-002
 8.2729300078e-001	 4.0411893411e+000	 4.7793909535e-002
 7.8892520747e-001	 4.0488544080e+000	 7.4426767981e-002
 7.5059759118e-001	 4.0561346447e+000	 1.0375883225e-001
 1.1419065916e+000	 3.9898056765e+000	-1.4071877901e-001
 1.1031817376e+000	 4.0006861979e+000	-1.1190902200e-001
 1.0644524973e+000	 4.0111645293e+000	-8.6068370571e-002
 1.0257246978e+000	 4.0212422016e+000	-6.2238645263e-002
 9.8700410549e-001	 4.0309208496e+000	-3.9537729338e-002
 9.4829642396e-001	 4.0402022093e+000	-1.7158533931e-002
 9.0960729212e-001	 4.0490881164e+000	 5.6321651442e-003
 8.7094228215e-001	 4.0575805033e+000	 2.9495012111e-002
 8.3230689776e-001	 4.0656813977e+000	 5.5019470610e-002
 7.9370657237e-001	 4.0733929195e+000	 8.2725330749e-002
 7.5514666749e-001	 4.0807172789e+000	 1.1306431678e-001
 1.1487855470e+000	 4.0138406504e+000	-1.3881095121e-001
 1.1098274108e+000	 4.0247867171e+000	-1.1014415885e-001
 1.0708648618e+000	 4.0353281710e+000	-8.4262585673e-002
 1.0319037623e+000	 4.0454665523e+000	-6.0233895592e-002
 9.9294991336e-001	 4.0552035053e+000	-3.7202659422e-002
 9.5400905303e-001	 4.0645407769e+000	-1.4389268575e-002
 9.1508685412e-001	 4.0734802135e+000	 8.9112805549e-003
 8.7618892241e-001	 4.0820237594e+000	 3.3330724592e-002
 8.3732079473e-001	 4.0901734544e+000	 5.9428986524e-002
 7.9848793726e-001	 4.0979314311e+000	 8.7695737284e-002
 7.5969574380e-001	 4.1052999131e+000	 1.1855205839e-001
 1.1556645023e+000	 4.0378756244e+000	-1.3493071058e-001
 1.1164730839e+000	 4.0488872364e+000	-1.0708125854e-001
 1.0772772262e+000	 4.0594918128e+000	-8.1811370661e-002
 1.0380828267e+000	 4.0696909029e+000	-5.8214353351e-002
 9.9889572122e-001	 4.0794861610e+000	-3.5461294754e-002
 9.5972168209e-001	 4.0888793444e+000	-1.2799926495e-002
 9.2056641613e-001	 4.0978723105e+000	 1.0446644896e-002
 8.8143556267e-001	 4.1064670154e+000	 3.4881329812e-002
 8.4233469171e-001	 4.1146655110e+000	 6.1034563487e-002
 8.0326930216e-001	 4.1224699427e+000	 8.9365922739e-002
 7.6424482012e-001	 4.1298825474e+000	 1.2026584423e-001
 1.1625434577e+000	 4.0619105984e+000	-1.2919100130e-001
 1.1231187570e+000	 4.0729877557e+000	-1.0281819242e-001
 1.0836895907e+000	 4.0836554545e+000	-7.8797444016e-002
 1.0442618912e+000	 4.0939152535e+000	-5.6247510711e-002
 1.0048415291e+000	 4.1037688168e+000	-3.4365834394e-002
 9.6543431115e-001	 4.1132179119e+000	-1.2427353520e-002
 9.2604597813e-001	 4.1222644076e+000	 1.0216818953e-002
 8.8668220292e-001	 4.1309102715e+000	 3.4140841796e-002
 8.4734858869e-001	 4.1391575676e+000	 5.9845708596e-002
 8.0805066705e-001	 4.1470084542e+000	 8.7760920305e-002
 7.6879389643e-001	 4.1544651816e+000	 1.1824625977e-001
 1.1694224131e+000	 4.0859455723e+000	-1.2170484066e-001
 1.1297644301e+000	 4.0970882749e+000	-9.7453219652e-002
 1.0901019551e+000	 4.1078190963e+000	-7.5304224539e-002
 1.0504409556e+000	 4.1181396041e+000	-5.4401870351e-002
 1.0107873370e+000	 4.1280514725e+000	-3.3969795655e-002
 9.7114694021e-001	 4.1375564794e+000	-1.3310018930e-002
 9.3152554013e-001	 4.1466565047e+000	 8.1984375239e-003
 8.9192884318e-001	 4.1553535275e+000	 3.1101048804e-002
 8.5236248567e-001	 4.1636496242e+000	 5.5869406277e-002
 8.1283203195e-001	 4.1715469658e+000	 8.2902946564e-002
 7.7334297274e-001	 4.1790478158e+000	 1.1253078303e-001
 7.2785220965e-001	 3.9332214737e+000	-1.8040057377e-003
 6.9073009268e-001	 3.9399101435e+000	 3.3915052544e-002
 6.5365705668e-001	 3.9462301570e+000	 8.2824792309e-002
 6.1663805252e-001	 3.9521838915e+000	 1.2649082068e-001
 5.7967795609e-001	 3.9577738019e+000	 1.1755157641e-001
 5.4278156711e-001	 3.9630024187e+000	 1.1505424417e-001
 5.0595360791e-001	 3.9678723450e+000	 1.1800421633e-001
 4.6919872246e-001	 3.9723862550e+000	 1.2536345838e-001
 4.3252147529e-001	 3.9765468906e+000	 1.3604963712e-001
 3.9592635063e-001	 3.9803570600e+000	 1.4893543165e-001
 3.5941775158e-001	 3.9838196344e+000	 1.6284802485e-001
 7.3240128595e-001	 3.9578041079e+000	 2.7366096506e-002
 6.9504715575e-001	 3.9645345819e+000	 4.9827609121e-002
 6.5774241328e-001	 3.9708940955e+000	 8.4604066779e-002
 6.2049204034e-001	 3.9768850408e+000	 1.2377059101e-001
 5.8330094331e-001	 3.9825098882e+000	 1.1645032536e-001
 5.4617395190e-001	 3.9877711838e+000	 1.1485049900e-001
 5.0911581796e-001	 3.9926715472e+000	 1.1807371843e-001
 4.7213121447e-001	 3.9972136691e+000	 1.2517709272e-001
 4.3522473450e-001	 4.0014003087e+000	 1.3517125899e-001
 3.9840089032e-001	 4.0052342916e+000	 1.4701959785e-001
 3.6166411252e-001	 4.0087185072e+000	 1.5963763610e-001
 7.3695036226e-001	 3.9823867421e+000	 5.2447949961e-002
 6.9936421883e-001	 3.9891590203e+000	 6.2973816673e-002
 6.6182776988e-001	 3.9955580340e+000	 8.4964540367e-002
 6.2434602816e-001	 4.0015861901e+000	 1.1733613706e-001
 5.8692393053e-001	 4.0072459744e+000	 1.1190417276e-001
 5.4956633669e-001	 4.0125399489e+000	 1.1149403687e-001
 5.1227802800e-001	 4.0174707494e+000	 1.1530622900e-001
 4.7506370648e-001	 4.0220410832e+000	 1.2249364403e-001
 4.3792799372e-001	 4.0262537268e+000	 1.3216049429e-001
 4.0087543001e-001	 4.0301115232e+000	 1.4336142875e-001
 3.6391047346e-001	 4.0336173799e+000	 1.5510084673e-001
 7.4149943857e-001	 4.0069693763e+000	 7.3502888414e-002
 7.0368128190e-001	 4.0137834587e+000	 7.3398027492e-002
 6.6591312648e-001	 4.0202219725e+000	 8.3933516113e-002
 6.2820001599e-001	 4.0262873394e+000	 1.0489411549e-001
 5.9054691776e-001	 4.0319820607e+000	 1.0429667730e-001
 5.5295872148e-001	 4.0373087140e+000	 1.0532621390e-001
 5.1544023805e-001	 4.0422699515e+000	 1.1000086661e-001
 4.7799619849e-001	 4.0468684973e+000	 1.1756998176e-001
 4.4063125294e-001	 4.0511071448e+000	 1.2723197473e-001
 4.0334996970e-001	 4.0549887548e+000	 1.3813335234e-001
 3.6615683441e-001	 4.0585162526e+000	 1.4936793702e-001
 7.4604851487e-001	 4.0315520105e+000	 9.0588518419e-002
 7.0799834498e-001	 4.0384078971e+000	 8.1141362377e-002
 6.6999848308e-001	 4.0448859109e+000	 8.1535566623e-002
 6.3205400381e-001	 4.0509884888e+000	 9.1605950810e-002
 5.9416990498e-001	 4.0567181470e+000	 9.4009684324e-002
 5.5635110627e-001	 4.0620774791e+000	 9.6687188412e-002
 5.1860244810e-001	 4.0670691537e+000	 1.0245607186e-001
 4.8092869050e-001	 4.0716959114e+000	 1.1066282131e-001
 4.4333451216e-001	 4.0759605629e+000	 1.2060070572e-001
 4.0582450939e-001	 4.0798659865e+000	 1.3150870157e-001
 3.6840319536e-001	 4.0834151253e+000	 1.4257062689e-001
 7.5059759118e-001	 4.0561346447e+000	 1.0375883225e-001
 7.1231540806e-001	 4.0630323355e+000	 8.6241808565e-002
 6.7408383968e-001	 4.0695498494e+000	 7.7792616820e-002
 6.3590799164e-001	 4.0756896381e+000	 7.8295323016e-002
 5.9779289220e-001	 4.0814542332e+000	 8.1423377752e-002
 5.5974349106e-001	 4.0868462442e+000	 8.5915957215e-002
 5.2176465814e-001	 4.0918683558e+000	 9.2969627961e-002
 4.8386118252e-001	 4.0965233255e+000	 1.0202872867e-001
 4.4603777138e-001	 4.1008139810e+000	 1.1248205502e-001
 4.0829904908e-001	 4.1047432181e+000	 1.2366168698e-001
 3.7064955631e-001	 4.1083139980e+000	 1.3484203230e-001
 7.5514666749e-001	 4.0807172789e+000	 1.1306431678e-001
 7.1663247114e-001	 4.0876567739e+000	 8.8734314107e-002
 6.7816919628e-001	 4.0942137879e+000	 7.2724023685e-002
 6.3976197947e-001	 4.1003907874e+000	 6.4965952280e-002
 6.0141587943e-001	 4.1061903195e+000	 6.6916330136e-002
 5.6313587586e-001	 4.1116150094e+000	 7.3350390583e-002
 5.2492686819e-001	 4.1166675580e+000	 8.1838680465e-002
 4.8679367453e-001	 4.1213507395e+000	 9.1924124967e-002
 4.4874103060e-001	 4.1256673990e+000	 1.0309174186e-001
 4.1077358877e-001	 4.1296204497e+000	 1.1476737025e-001
 3.7289591725e-001	 4.1332128707e+000	 1.2631662313e-001
 7.5969574380e-001	 4.1052999131e+000	 1.1855205839e-001
 7.2094953422e-001	 4.1122812123e+000	 8.8650878868e-002
 6.8225455289e-001	 4.1188777264e+000	 6.6346653147e-002
 6.4361596729e-001	 4.1250919367e+000	 5.1619529485e-002
 6.0503886665e-001	 4.1309264058e+000	 5.0865550898e-002
 5.6652826065e-001	 4.1363837745e+000	 5.9327265988e-002
 5.2808907824e-001	 4.1414667601e+000	 6.9359756410e-002
 4.8972616655e-001	 4.1461781536e+000	 8.0605290776e-002
 4.5144428982e-001	 4.1505208171e+000	 9.2645826348e-002
 4.1324812847e-001	 4.1544976813e+000	 1.0500163871e-001
 3.7514227820e-001	 4.1581117435e+000	 1.1713018274e-001
 7.6424482012e-001	 4.1298825474e+000	 1.2026584423e-001
 7.2526659730e-001	 4.1369056507e+000	 8.6020642268e-002
 6.8633990949e-001	 4.1435416649e+000	 5.8674954219e-002
 6.4746995512e-001	 4.1497930861e+000	 3.8255776619e-002
 6.0866185388e-001	 4.1556624920e+000	 3.3646532847e-002
 5.6992064545e-001	 4.1611525396e+000	 4.4182300628e-002
 5.3125128829e-001	 4.1662659623e+000	 5.5828782710e-002
 4.9265865857e-001	 4.1710055677e+000	 6.8328370303e-002
 4.5414754904e-001	 4.1753742352e+000	 8.1360699408e-002
 4.1572266816e-001	 4.1793749130e+000	 9.4541180780e-002
 3.7738863915e-001	 4.1830106162e+000	 1.0741976879e-001
 7.6879389643e-001	 4.1544651816e+000	 1.1824625977e-001
 7.2958366038e-001	 4.1615300891e+000	 8.0869967909e-002
 6.9042526610e-001	 4.1682056034e+000	 4.9721030505e-002
 6.5132394295e-001	 4.1744942354e+000	 2.4872505024e-002
 6.1228484111e-001	 4.1803985783e+000	 1.5633297055e-002
 5.7331303024e-001	 4.1859213047e+000	 2.8250182791e-002
 5.3441349835e-001	 4.1910651645e+000	 4.1541103910e-002
 4.9559115059e-001	 4.1958329818e+000	 5.5349375425e-002
 4.5685080827e-001	 4.2002276532e+000	 6.9453072937e-002
 4.1819720786e-001	 4.2042521446e+000	 8.3563462250e-002
 3.7963500011e-001	 4.2079094889e+000	 9.7323675601e-002
 7.7334297274e-001	 4.1790478158e+000	 1.1253078303e-001
 7.3390072346e-001	 4.1861545275e+000	 7.3222525220e-002
 6.9451062271e-001	 4.1928695419e+000	 3.9494709181e-002
 6.5517793079e-001	 4.1991953847e+000	 1.1465671595e-002
 6.1590782834e-001	 4.2051346646e+000	-2.8015638581e-003
 5.7670541504e-001	 4.2106900698e+000	 1.1864602119e-002
 5.3757570840e-001	 4.2158643666e+000	 2.6791499318e-002
 4.9852364261e-001	 4.2206603959e+000	 4.1924189581e-002
 4.5955406749e-001	 4.2250810713e+000	 5.7139970382e-002
 4.2067174755e-001	 4.2291293762e+000	 7.2246703438e-002
 3.8188136106e-001	 4.2328083616e+000	 8.6981397739e-002
 3.5941775158e-001	 3.9838196344e+000	 1.6284802485e-001
 3.2299999927e-001	 3.9869375466e+000	 1.5337188803e-001
 2.8667733226e-001	 3.9897137876e+000	 1.5063440705e-001
 2.5045390584e-001	 3.9921514051e+000	 1.5336471690e-001
 2.1433379153e-001	 3.9942535004e+000	 1.6023881735e-001
 1.7832097657e-001	 3.9960232268e+000	 1.6988004442e-001
 1.4241936352e-001	 3.9974637866e+000	 1.8085970308e-001
 1.0663276990e-001	 3.9985784289e+000	 1.9169785556e-001
 7.0964927926e-002	 3.9993704478e+000	 2.0086425927e-001
 3.5419484290e-002	 3.9998431794e+000	 2.0677944801e-001
 0.0000000000e+000	 4.0000000000e+000	 2.0781595013e-001
 3.6166411252e-001	 4.0087185072e+000	 1.5963763610e-001
 3.2501874926e-001	 4.0118559063e+000	 1.5133184158e-001
 2.8846906558e-001	 4.0146494988e+000	 1.4910989562e-001
 2.5201924275e-001	 4.0171023514e+000	 1.5176670822e-001
 2.1567337773e-001	 4.0192175848e+000	 1.5804216885e-001
 1.7943548268e-001	 4.0209983720e+000	 1.6662156010e-001
 1.4330948454e-001	 4.0224479352e+000	 1.7613613841e-001
 1.0729922471e-001	 4.0235695441e+000	 1.8516387611e-001
 7.1408458726e-002	 4.0243665131e+000	 1.9223035866e-001
 3.5640856066e-002	 4.0248421993e+000	 1.9580983080e-001
 0.0000000000e+000	 4.0250000000e+000	 1.9432638487e-001
 3.6391047346e-001	 4.0336173799e+000	 1.5510084673e-001
 3.2703749926e-001	 4.0367742659e+000	 1.4787213766e-001
 2.9026079891e-001	 4.0395852100e+000	 1.4610789522e-001
 2.5358457966e-001	 4.0420532976e+000	 1.4866933396e-001
 2.1701296393e-001	 4.0441816692e+000	 1.5436071656e-001
 1.8054998878e-001	 4.0459735172e+000	 1.6192970970e-001
 1.4419960556e-001	 4.0474320839e+000	 1.7006791284e-001
 1.0796567952e-001	 4.0485606593e+000	 1.7741155416e-001
 7.1851989525e-002	 4.0493625784e+000	 1.8254234734e-001
 3.5862227843e-002	 4.0498412192e+000	 1.8398850286e-001
 0.0000000000e+000	 4.0500000000e+000	 1.8022588695e-001
 3.6615683441e-001	 4.0585162526e+000	 1.4936793702e-001
 3.2905624925e-001	 4.0616926256e+000	 1.4309084361e-001
 2.9205253223e-001	 4.0645209211e+000	 1.4169420079e-001
 2.5514991657e-001	 4.0670042439e+000	 1.4410607567e-001
 2.1835255012e-001	 4.0691457536e+000	 1.4919560582e-001
 1.8166449488e-001	 4.0709486623e+000	 1.5577329724e-001
 1.4508972659e-001	 4.0724162326e+000	 1.6259150130e-001
 1.0863213434e-001	 4.0735517745e+000	 1.6834506469e-001
 7.2295520325e-002	 4.0743586437e+000	 1.7167214598e-001
 3.6083599620e-002	 4.0748402391e+000	 1.7115519230e-001
 0.0000000000e+000	 4.0750000000e+000	 1.6532206934e-001
 3.6840319536e-001	 4.0834151253e+000	 1.4257062689e-001
 3.3107499925e-001	 4.0866109853e+000	 1.3708776372e-001
 2.9384426556e-001	 4.0894566323e+000	 1.3593664822e-001
 2.5671525349e-001	 4.0919551902e+000	 1.3811276645e-001
 2.1969213632e-001	 4.0941098380e+000	 1.4255065041e-001
 1.8277900099e-001	 4.0959238075e+000	 1.4812411822e-001
 1.4597984761e-001	 4.0974003812e+000	 1.5364669919e-001
 1.0929858915e-001	 4.0985428897e+000	 1.5787223792e-001
 7.2739051125e-002	 4.0993547090e+000	 1.5949567084e-001
 3.6304971397e-002	 4.0998392589e+000	 1.5715396861e-001
 0.0000000000e+000	 4.1000000000e+000	 1.4942723739e-001
 3.7064955631e-001	 4.1083139980e+000	 1.3484203230e-001
 3.3309374924e-001	 4.1115293449e+000	 1.2996438659e-001
 2.9563599889e-001	 4.1143923435e+000	 1.2890505255e-001
 2.5828059040e-001	 4.1169061365e+000	 1.3072751965e-001
 2.2103172252e-001	 4.1190739223e+000	 1.3443225166e-001
 1.8389350709e-001	 4.1208989527e+000	 1.3895686894e-001
 1.4686996863e-001	 4.1223845299e+000	 1.4317652175e-001
 1.0996504396e-001	 4.1235340048e+000	 1.4590444855e-001
 7.3182581926e-002	 4.1243507743e+000	 1.4589271275e-001
 3.6526343175e-002	 4.1248382788e+000	 1.4183311111e-001
 0.0000000000e+000	 4.1250000000e+000	 1.3235824659e-001
 3.7289591725e-001	 4.1332128707e+000	 1.2631662313e-001
 3.3511249924e-001	 4.1364477046e+000	 1.2182383441e-001
 2.9742773222e-001	 4.1393280547e+000	 1.2067114835e-001
 2.5984592731e-001	 4.1418570828e+000	 1.2199066024e-001
 2.2237130872e-001	 4.1440380067e+000	 1.2484932053e-001
 1.8500801320e-001	 4.1458740978e+000	 1.2824905916e-001
 1.4776008966e-001	 4.1473686786e+000	 1.3112710709e-001
 1.1063149878e-001	 4.1485251200e+000	 1.3235650899e-001
 7.3626112727e-002	 4.1493468396e+000	 1.3074682036e-001
 3.6747714952e-002	 4.1498372987e+000	 1.2504498215e-001
 0.0000000000e+000	 4.1500000000e+000	 1.1393636559e-001
 3.7514227820e-001	 4.1581117435e+000	 1.1713018274e-001
 3.3713124924e-001	 4.1613660643e+000	 1.1277081406e-001
 2.9921946555e-001	 4.1642637658e+000	 1.1130853223e-001
 2.6141126423e-001	 4.1668080290e+000	 1.1194465856e-001
 2.2371089492e-001	 4.1690020911e+000	 1.1381320248e-001
 1.8612251931e-001	 4.1708492430e+000	 1.1598092783e-001
 1.4865021068e-001	 4.1723528272e+000	 1.1744762267e-001
 1.1129795359e-001	 4.1735162352e+000	 1.1714656645e-001
 7.4069643528e-002	 4.1743429049e+000	 1.1394518763e-001
 3.6969086730e-002	 4.1748363185e+000	 1.0664590484e-001
 0.0000000000e+000	 4.1750000000e+000	 9.3987143991e-002
 3.7738863915e-001	 4.1830106162e+000	 1.0741976879e-001
 3.3914999924e-001	 4.1862844239e+000	 1.0291156995e-001
 3.0101119888e-001	 4.1891994770e+000	 1.0089260746e-001
 2.6297660114e-001	 4.1917589753e+000	 1.0063406648e-001
 2.2505048112e-001	 4.1939661755e+000	 1.0133760498e-001
 1.8723702541e-001	 4.1958243882e+000	 1.0213536188e-001
 1.4954033171e-001	 4.1973369759e+000	 1.0209017518e-001
 1.1196440840e-001	 4.1985073504e+000	 1.0019600369e-001
 7.4513174330e-002	 4.1993389702e+000	 9.5378545370e-002
 3.7190458508e-002	 4.1998353384e+000	 8.6496045206e-002
 0.0000000000e+000	 4.2000000000e+000	 7.2340285007e-002
 3.7963500011e-001	 4.2079094889e+000	 9.7323675601e-002
 3.4116874924e-001	 4.2112027836e+000	 9.2353838487e-002
 3.0280293221e-001	 4.2141351882e+000	 8.9500530464e-002
 2.6454193806e-001	 4.2167099216e+000	 8.8105455817e-002
 2.2639006732e-001	 4.2189302598e+000	 8.7438527660e-002
 1.8835153152e-001	 4.2207995333e+000	 8.6697817872e-002
 1.5043045273e-001	 4.2223211246e+000	 8.5009723537e-002
 1.1263086322e-001	 4.2234984656e+000	 8.1429343285e-002
 7.4956705132e-002	 4.2243350355e+000	 7.4941056560e-002
 3.7411830286e-002	 4.2248343583e+000	 6.4459298467e-002
 0.0000000000e+000	 4.2250000000e+000	 4.8829522528e-002
 3.8188136106e-001	 4.2328083616e+000	 8.6981397739e-002
 3.4318749924e-001	 4.2361211433e+000	 8.1206804257e-002
 3.0459466554e-001	 4.2390708994e+000	 7.7211159312e-002
 2.6610727498e-001	 4.2416608679e+000	 7.4407358923e-002
 2.2772965353e-001	 4.2438943442e+000	 7.2134194885e-002
 1.8946603763e-001	 4.2457746785e+000	 6.9656246445e-002
 1.5132057376e-001	 4.2473052732e+000	 6.6163995022e-002
 1.1329731804e-001	 4.2484895807e+000	 6.0774155277e-002
 7.5400235934e-002	 4.2493311008e+000	 5.2530215436e-002
 3.7633202065e-002	 4.2498333782e+000	 4.0403179364e-002
 0.0000000000e+000	 4.2500000000e+000	 2.3292502592e-002
 4.2500000000e+000	 0.0000000000e+000	 1.2301953545e+000
 4.2498333782e+000	 3.7633202065e-002	 1.1545911395e+000
 4.2493311008e+000	 7.5400235934e-002	 1.0915507058e+000
 4.2484895807e+000	 1.1329731804e-001	 1.0375867549e+000
 4.2473052732e+000	 1.5132057376e-001	 9.8950122392e-001
 4.2457746785e+000	 1.8946603763e-001	 9.4439396072e-001
 4.2438943442e+000	 2.2772965353e-001	 8.9967090527e-001
 4.2416608679e+000	 2.6610727498e-001	 8.5305174110e-001
 4.2390708994e+000	 3.0459466554e-001	 8.0257698298e-001
 4.2361211433e+000	 3.4318749924e-001	 7.4661446656e-001
 4.2328083616e+000	 3.8188136106e-001	 6.8386520643e-001
 4.2750000000e+000	 0.0000000000e+000	 8.9009745520e-001
 4.2748323980e+000	 3.7854573843e-002	 8.5025999278e-001
 4.2743271661e+000	 7.5843766737e-002	 8.2086865946e-001
 4.2734806959e+000	 1.1396377285e-001	 7.9851266574e-001
 4.2722894219e+000	 1.5221069479e-001	 7.8007914723e-001
 4.2707498237e+000	 1.9058054374e-001	 7.6276192989e-001
 4.2688584286e+000	 2.2906923973e-001	 7.4406978584e-001
 4.2666118142e+000	 2.6767261190e-001	 7.2183414448e-001
 4.2640066105e+000	 3.0638639888e-001	 6.9421622374e-001
 4.2610395029e+000	 3.4520624924e-001	 6.5971354672e-001
 4.2577072343e+000	 3.8412772201e-001	 6.1716580958e-001
 4.3000000000e+000	 0.0000000000e+000	 5.5615035598e-001
 4.2998314179e+000	 3.8075945621e-002	 5.5278319988e-001
 4.2993232314e+000	 7.6287297539e-002	 5.5761640717e-001
 4.2984718111e+000	 1.1463022767e-001	 5.6731554118e-001
 4.2972735706e+000	 1.5310081581e-001	 5.7885292741e-001
 4.2957249688e+000	 1.9169504985e-001	 5.8951651089e-001
 4.2938225130e+000	 2.3040882593e-001	 5.9691818956e-001
 4.2915627605e+000	 2.6923794881e-001	 5.9900158741e-001
 4.2889423217e+000	 3.0817813221e-001	 5.9404923154e-001
 4.2859578626e+000	 3.4722499924e-001	 5.8068909793e-001
 4.2826061070e+000	 3.8637408296e-001	 5.5790049089e-001
 4.3250000000e+000	 0.0000000000e+000	 2.2860354699e-001
 4.3248304378e+000	 3.8297317399e-002	 2.6234976639e-001
 4.3243192967e+000	 7.6730828340e-002	 3.0192181857e-001
 4.3234629263e+000	 1.1529668248e-001	 3.4406148832e-001
 4.3222577192e+000	 1.5399093684e-001	 3.8582630783e-001
 4.3207001140e+000	 1.9280955596e-001	 4.2459850926e-001
 4.3187865974e+000	 2.3174841213e-001	 4.5809343815e-001
 4.3165137067e+000	 2.7080328573e-001	 4.8436739114e-001
 4.3138780329e+000	 3.0996986554e-001	 5.0182484113e-001
 4.3108762223e+000	 3.4924374924e-001	 5.0922501419e-001
 4.3075049798e+000	 3.8862044392e-001	 5.0568778248e-001
 4.3500000000e+000	 0.0000000000e+000	-9.2299217008e-002
 4.3498294576e+000	 3.8518689177e-002	-2.0856414838e-002
 4.3493153620e+000	 7.7174359142e-002	 5.3908265084e-002
 4.3484540415e+000	 1.1596313730e-001	 1.2881272171e-001
 4.3472418679e+000	 1.5488105786e-001	 2.0099973620e-001
 4.3456752592e+000	 1.9392406206e-001	 2.6794602238e-001
 4.3437506817e+000	 2.3308799833e-001	 3.2747072306e-001
 4.3414646530e+000	 2.7236862265e-001	 3.7774331461e-001
 4.3388137440e+000	 3.1176159887e-001	 4.1729088263e-001
 4.3357945819e+000	 3.5126249924e-001	 4.4500473199e-001
 4.3324038525e+000	 3.9086680487e-001	 4.6014629510e-001
 4.3750000000e+000	 0.0000000000e+000	-4.0631975277e-001
 4.3748284775e+000	 3.8740060954e-002	-2.9665641752e-001
 4.3743114273e+000	 7.7617889943e-002	-1.8630525159e-001
 4.3734451567e+000	 1.1662959211e-001	-7.8372325323e-002
 4.3722260166e+000	 1.5577117889e-001	 2.4370458689e-002
 4.3706504043e+000	 1.9503856817e-001	 1.1949451684e-001
 4.3687147661e+000	 2.3442758453e-001	 2.0492316630e-001
 4.3664155993e+000	 2.7393395956e-001	 2.7893959905e-001
 4.3637494552e+000	 3.1355333220e-001	 3.4019421022e-001
 4.3607129416e+000	 3.5328124924e-001	 3.8771124338e-001
 4.3573027252e+000	 3.9311316582e-001	 4.2089471598e-001
 4.4000000000e+000	 0.0000000000e+000	-8.6968970256e-002
 4.3998274974e+000	 3.8961432732e-002	-1.7839371176e-002
 4.3993074926e+000	 7.8061420743e-002	 4.7939448922e-002
 4.3984362718e+000	 1.1729604692e-001	 1.0997400255e-001
 4.3972101652e+000	 1.5666129991e-001	 1.6787882903e-001
 4.3956255495e+000	 1.9615307428e-001	 2.2127749015e-001
 4.3936788505e+000	 2.3576717073e-001	 2.6980358289e-001
 4.3913665456e+000	 2.7549929647e-001	 3.1310176770e-001
 4.3886851664e+000	 3.1534506553e-001	 3.5082881062e-001
 4.3856313013e+000	 3.5529999924e-001	 3.8265463754e-001
 4.3822015979e+000	 3.9535952677e-001	 4.0826339874e-001
 4.4250000000e+000	 0.0000000000e+000	 2.2030771353e-001
 4.4248265173e+000	 3.9182804509e-002	 2.5436555403e-001
 4.4243035579e+000	 7.8504951544e-002	 2.8677848528e-001
 4.4234273870e+000	 1.1796250174e-001	 3.1722744630e-001
 4.4221943139e+000	 1.5755142094e-001	 3.4540153523e-001
 4.4206006947e+000	 1.9726758038e-001	 3.7099894552e-001
 4.4186429349e+000	 2.3710675693e-001	 3.9372791762e-001
 4.4163174919e+000	 2.7706463339e-001	 4.1330770450e-001
 4.4136208776e+000	 3.1713679886e-001	 4.2946954953e-001
 4.4105496609e+000	 3.5731874924e-001	 4.4195767496e-001
 4.4071004706e+000	 3.9760588772e-001	 4.5053027909e-001
 4.4500000000e+000	 0.0000000000e+000	 5.1573269564e-001
 4.4498255371e+000	 3.9404176286e-002	 5.1631651553e-001
 4.4492996232e+000	 7.8948482344e-002	 5.1694042507e-001
 4.4484185022e+000	 1.1862895655e-001	 5.1735889920e-001
 4.4471784626e+000	 1.5844154196e-001	 5.1733470269e-001
 4.4455758398e+000	 1.9838208649e-001	 5.1663976771e-001
 4.4436070192e+000	 2.3844634313e-001	 5.1505608512e-001
 4.4412684381e+000	 2.7862997030e-001	 5.1237660812e-001
 4.4385565887e+000	 3.1892853219e-001	 5.0840616664e-001
 4.4354680206e+000	 3.5933749924e-001	 5.0296239084e-001
 4.4319993433e+000	 3.9985224867e-001	 4.9587664186e-001
 4.4750000000e+000	 0.0000000000e+000	 7.9952340338e-001
 4.4748245570e+000	 3.9625548063e-002	 7.6820901087e-001
 4.4742956885e+000	 7.9392013143e-002	 7.3859913587e-001
 4.4734096174e+000	 1.1929541136e-001	 7.1052090964e-001
 4.4721626112e+000	 1.5933166298e-001	 6.8380988252e-001
 4.4705509850e+000	 1.9949659259e-001	 6.5831084347e-001
 4.4685711036e+000	 2.3978592933e-001	 6.3387865182e-001
 4.4662193844e+000	 2.8019530721e-001	 6.1037907979e-001
 4.4634922999e+000	 3.2072026552e-001	 5.8768966417e-001
 4.4603863803e+000	 3.6135624923e-001	 5.6570056571e-001
 4.4568982160e+000	 4.0209860962e-001	 5.4431543417e-001
 4.5000000000e+000	 0.0000000000e+000	 1.0718924323e+000
 4.4998235769e+000	 3.9846919840e-002	 1.0102342305e+000
 4.4992917538e+000	 7.9835543943e-002	 9.5192469571e-001
 4.4984007326e+000	 1.1996186617e-001	 8.9686274683e-001
 4.4971467599e+000	 1.6022178400e-001	 8.4495584941e-001
 4.4955261302e+000	 2.0061109869e-001	 7.9612077809e-001
 4.4935351880e+000	 2.4112551553e-001	 7.5028438953e-001
 4.4911703307e+000	 2.8176064413e-001	 7.0738440458e-001
 4.4884280111e+000	 3.2251199884e-001	 6.6737019804e-001
 4.4853047399e+000	 3.6337499923e-001	 6.3020359465e-001
 4.4817970888e+000	 4.0434497057e-001	 5.9585966940e-001
 4.2328083616e+000	 3.8188136106e-001	 6.8386520643e-001
 4.2291293762e+000	 4.2067174755e-001	 6.6191397792e-001
 4.2250810713e+000	 4.5955406749e-001	 6.4795888394e-001
 4.2206603959e+000	 4.9852364261e-001	 6.4185529227e-001
 4.2158643666e+000	 5.3757570840e-001	 6.4379688223e-001
 4.2106900698e+000	 5.7670541504e-001	 6.5431751171e-001
 4.2051346646e+000	 6.1590782834e-001	 6.7429227531e-001
 4.1991953847e+000	 6.5517793079e-001	 6.4327155630e-001
 4.1928695419e+000	 6.9451062271e-001	 5.8722990819e-001
 4.1861545275e+000	 7.3390072346e-001	 5.2225048591e-001
 4.1790478158e+000	 7.7334297274e-001	 4.4823223494e-001
 4.2577072343e+000	 3.8412772201e-001	 6.1716580958e-001
 4.2540066078e+000	 4.2314628725e-001	 6.1303106748e-001
 4.2499344894e+000	 4.6225732672e-001	 6.1448887855e-001
 4.2454878100e+000	 5.0145613463e-001	 6.2152450134e-001
 4.2406635688e+000	 5.4073791845e-001	 6.3447088033e-001
 4.2354588350e+000	 5.8009779984e-001	 6.5401047297e-001
 4.2298707508e+000	 6.1953081557e-001	 6.8117624775e-001
 4.2238965340e+000	 6.5903191862e-001	 6.4026091155e-001
 4.2175334803e+000	 6.9859597932e-001	 5.7997232317e-001
 4.2107789659e+000	 7.3821778655e-001	 5.1129336833e-001
 4.2036304500e+000	 7.7789204906e-001	 4.3414840156e-001
 4.2826061070e+000	 3.8637408296e-001	 5.5790049089e-001
 4.2788838395e+000	 4.2562082694e-001	 5.7050895891e-001
 4.2747879074e+000	 4.6496058594e-001	 5.8619869993e-001
 4.2703152241e+000	 5.0438862665e-001	 6.0508662648e-001
 4.2654627709e+000	 5.4390012851e-001	 6.2764687407e-001
 4.2602276001e+000	 5.8349018464e-001	 6.5471258860e-001
 4.2546068371e+000	 6.2315380280e-001	 6.8747686437e-001
 4.2485976834e+000	 6.6288590645e-001	 6.3608876833e-001
 4.2421974188e+000	 7.0268133592e-001	 5.7288380671e-001
 4.2354034043e+000	 7.4253484963e-001	 5.0178876698e-001
 4.2282130842e+000	 7.8244112537e-001	 4.2275232941e-001
 4.3075049798e+000	 3.8862044392e-001	 5.0568778248e-001
 4.3037610711e+000	 4.2809536664e-001	 5.3390922520e-001
 4.2996413255e+000	 4.6766384517e-001	 5.6259234947e-001
 4.2951426382e+000	 5.0732111866e-001	 5.9198751555e-001
 4.2902619731e+000	 5.4706233856e-001	 6.2271200785e-001
 4.2849963652e+000	 5.8688256944e-001	 6.5575178274e-001
 4.2793429233e+000	 6.2677679003e-001	 6.8833439588e-001
 4.2732988327e+000	 6.6673989428e-001	 6.3082426306e-001
 4.2668613573e+000	 7.0676669253e-001	 5.6602883999e-001
 4.2600278427e+000	 7.4685191271e-001	 4.9379651287e-001
 4.2527957184e+000	 7.8699020168e-001	 4.1409920568e-001
 4.3324038525e+000	 3.9086680487e-001	 4.6014629510e-001
 4.3286383027e+000	 4.3056990634e-001	 5.0279384098e-001
 4.3244947436e+000	 4.7036710439e-001	 5.4317454748e-001
 4.3199700523e+000	 5.1025361068e-001	 5.8167404701e-001
 4.3150611753e+000	 5.5022454861e-001	 6.1905476237e-001
 4.3097651303e+000	 5.9027495423e-001	 6.5645761544e-001
 4.3040790096e+000	 6.3039977725e-001	 6.8270368786e-001
 4.2979999820e+000	 6.7059388211e-001	 6.2453874838e-001
 4.2915252958e+000	 7.1085204914e-001	 5.5947440072e-001
 4.2846522811e+000	 7.5116897579e-001	 4.8737920708e-001
 4.2773783526e+000	 7.9153927800e-001	 4.0824725414e-001
 4.3573027252e+000	 3.9311316582e-001	 4.2089471598e-001
 4.3535155343e+000	 4.3304444603e-001	 4.7672517094e-001
 4.3493481616e+000	 4.7307036361e-001	 5.2745071271e-001
 4.3447974664e+000	 5.1318610270e-001	 5.7359410043e-001
 4.3398603774e+000	 5.5338675867e-001	 6.1606491646e-001
 4.3345338954e+000	 5.9366733903e-001	 6.5616123598e-001
 4.3288150959e+000	 6.3402276448e-001	 6.7476203539e-001
 4.3227011313e+000	 6.7444786994e-001	 6.1730572987e-001
 4.3161892343e+000	 7.1493740575e-001	 5.5328989180e-001
 4.3092767195e+000	 7.5548603887e-001	 4.8260214158e-001
 4.3019609868e+000	 7.9608835431e-001	 4.0525764837e-001
 4.3822015979e+000	 3.9535952677e-001	 4.0826339874e-001
 4.3783927660e+000	 4.3551898573e-001	 4.6082326152e-001
 4.3742015797e+000	 4.7577362284e-001	 5.1492694242e-001
 4.3696248805e+000	 5.1611859472e-001	 5.6719652809e-001
 4.3646595796e+000	 5.5654896872e-001	 6.1313351020e-001
 4.3593026605e+000	 5.9705972383e-001	 6.5419533766e-001
 4.3535511821e+000	 6.3764575171e-001	 6.6458885862e-001
 4.3474022807e+000	 6.7830185777e-001	 6.0920080481e-001
 4.3408531727e+000	 7.1902276235e-001	 5.4754707247e-001
 4.3339011579e+000	 7.5980310196e-001	 4.7953322276e-001
 4.3265436210e+000	 8.0063743062e-001	 4.0519442795e-001
 4.4071004706e+000	 3.9760588772e-001	 4.5053027909e-001
 4.4032699976e+000	 4.3799352542e-001	 4.8424150683e-001
 4.3990549978e+000	 4.7847688206e-001	 5.2012109795e-001
 4.3944522946e+000	 5.1905108674e-001	 5.5785916117e-001
 4.3894587817e+000	 5.5971117877e-001	 5.9715608431e-001
 4.3840714257e+000	 6.0045210862e-001	 6.3772349472e-001
 4.3782872684e+000	 6.4126873894e-001	 6.4681411778e-001
 4.3721034300e+000	 6.8215584560e-001	 6.0030160320e-001
 4.3655171112e+000	 7.2310811896e-001	 5.4231999170e-001
 4.3585255963e+000	 7.6412016504e-001	 4.7824289764e-001
 4.3511262553e+000	 8.0518650693e-001	 4.0812441752e-001
 4.4319993433e+000	 3.9985224867e-001	 4.9587664186e-001
 4.4281472292e+000	 4.4046806511e-001	 5.1163110515e-001
 4.4239084158e+000	 4.8118014128e-001	 5.3062334378e-001
 4.4192797087e+000	 5.2198357876e-001	 5.5258211889e-001
 4.4142579839e+000	 5.6287338882e-001	 5.7724644800e-001
 4.4088401908e+000	 6.0384449342e-001	 6.0436653516e-001
 4.4030233546e+000	 6.4489172617e-001	 5.9791335929e-001
 4.3968045793e+000	 6.8600983343e-001	 5.5363547350e-001
 4.3901810497e+000	 7.2719347556e-001	 5.0843763562e-001
 4.3831500347e+000	 7.6843722812e-001	 4.6163465120e-001
 4.3757088895e+000	 8.0973558324e-001	 4.1253032964e-001
 4.4568982160e+000	 4.0209860962e-001	 5.4431543417e-001
 4.4530244608e+000	 4.4294260481e-001	 5.4299422964e-001
 4.4487618339e+000	 4.8388340051e-001	 5.4596421662e-001
 4.4441071228e+000	 5.2491607077e-001	 5.5299225412e-001
 4.4390571860e+000	 5.6603559887e-001	 5.6385543847e-001
 4.4336089559e+000	 6.0723687822e-001	 5.7834200361e-001
 4.4277594409e+000	 6.4851471339e-001	 5.5835932939e-001
 4.4215057286e+000	 6.8986382126e-001	 5.1129385372e-001
 4.4148449882e+000	 7.3127883217e-001	 4.6477456763e-001
 4.4077744731e+000	 7.7275429120e-001	 4.1816463594e-001
 4.4002915237e+000	 8.1428465955e-001	 3.7081568870e-001
 4.4817970888e+000	 4.0434497057e-001	 5.9585966940e-001
 4.4779016925e+000	 4.4541714450e-001	 5.7833339179e-001
 4.4736152520e+000	 4.8658665973e-001	 5.6613590414e-001
 4.4689345369e+000	 5.2784856279e-001	 5.5907161445e-001
 4.4638563882e+000	 5.6919780892e-001	 5.5695515247e-001
 4.4583777210e+000	 6.1062926301e-001	 5.5961224077e-001
 4.4524955272e+000	 6.5213770062e-001	 5.2800961576e-001
 4.4462068779e+000	 6.9371780909e-001	 4.7866610117e-001
 4.4395089267e+000	 7.3536418877e-001	 4.3132094154e-001
 4.4323989115e+000	 7.7707135428e-001	 3.8538554568e-001
 4.4248741579e+000	 8.1883373586e-001	 3.4025925454e-001
 4.1790478158e+000	 7.7334297274e-001	 4.4823223494e-001
 4.1715469658e+000	 8.1283203195e-001	 4.7218101860e-001
 4.1636496242e+000	 8.5236248567e-001	 4.8856686824e-001
 4.1553535275e+000	 8.9192884318e-001	 4.9785519143e-001
 4.1466565047e+000	 9.3152554013e-001	 5.0064895135e-001
 4.1375564794e+000	 9.7114694021e-001	 4.9769251667e-001
 4.1280514725e+000	 1.0107873370e+000	 4.8987531675e-001
 4.1181396041e+000	 1.0504409556e+000	 4.7823528682e-001
 4.1078190963e+000	 1.0901019551e+000	 4.6396208792e-001
 4.0970882749e+000	 1.1297644301e+000	 4.4840008655e-001
 4.0859455723e+000	 1.1694224131e+000	 4.3305107915e-001
 4.2036304500e+000	 7.7789204906e-001	 4.3414840156e-001
 4.1960854774e+000	 8.1761339685e-001	 4.5868840294e-001
 4.1881416808e+000	 8.5737638264e-001	 4.7560390227e-001
 4.1797967836e+000	 8.9717548344e-001	 4.8532225744e-001
 4.1710486018e+000	 9.3700510214e-001	 4.8840990030e-001
 4.1618950470e+000	 9.7685956928e-001	 4.8557628322e-001
 4.1523341282e+000	 1.0167331448e+000	 4.7767762923e-001
 4.1423639547e+000	 1.0566200201e+000	 4.6572047017e-001
 4.1319827380e+000	 1.0965143196e+000	 4.5086495734e-001
 4.1211887942e+000	 1.1364101032e+000	 4.3442792924e-001
 4.1099805463e+000	 1.1763013684e+000	 4.1788572137e-001
 4.2282130842e+000	 7.8244112537e-001	 4.2275232941e-001
 4.2206239889e+000	 8.2239476175e-001	 4.4769361024e-001
 4.2126337374e+000	 8.6239027962e-001	 4.6490248550e-001
 4.2042400396e+000	 9.0242212370e-001	 4.7476791312e-001
 4.1954406989e+000	 9.4248466414e-001	 4.7781949425e-001
 4.1862336145e+000	 9.8257219834e-001	 4.7473151813e-001
 4.1766167839e+000	 1.0226789527e+000	 4.6632680865e-001
 4.1665883053e+000	 1.0627990845e+000	 4.5358035700e-001
 4.1561463797e+000	 1.1029266840e+000	 4.3762272437e-001
 4.1452893135e+000	 1.1430557764e+000	 4.1974319914e-001
 4.1340155202e+000	 1.1831803238e+000	 4.0139269328e-001
 4.2527957184e+000	 7.8699020168e-001	 4.1409920568e-001
 4.2451625005e+000	 8.2717612664e-001	 4.3927105173e-001
 4.2371257940e+000	 8.6740417660e-001	 4.5655619461e-001
 4.2286832957e+000	 9.0766876395e-001	 4.6630483316e-001
 4.2198327960e+000	 9.4796422615e-001	 4.6900942975e-001
 4.2105721820e+000	 9.8828482740e-001	 4.6530885498e-001
 4.2008994397e+000	 1.0286247606e+000	 4.5599233234e-001
 4.1908126559e+000	 1.0689781490e+000	 4.4200316667e-001
 4.1803100215e+000	 1.1093390485e+000	 4.2444224038e-001
 4.1693898327e+000	 1.1497014495e+000	 4.0457126154e-001
 4.1580504942e+000	 1.1900592792e+000	 3.8381574798e-001
 4.2773783526e+000	 7.9153927800e-001	 4.0824725414e-001
 4.2697010121e+000	 8.3195749154e-001	 4.3349788611e-001
 4.2616178507e+000	 8.7241807358e-001	 4.5066105886e-001
 4.2531265517e+000	 9.1291540421e-001	 4.6004784425e-001
 4.2442248931e+000	 9.5344378815e-001	 4.6211324915e-001
 4.2349107496e+000	 9.9399745647e-001	 4.5746046151e-001
 4.2251820954e+000	 1.0345705684e+000	 4.4684489464e-001
 4.2150370066e+000	 1.0751572134e+000	 4.3117801304e-001
 4.2044736632e+000	 1.1157514129e+000	 4.1153092356e-001
 4.1934903520e+000	 1.1563471226e+000	 3.8913771565e-001
 4.1820854681e+000	 1.1969382346e+000	 3.6539853462e-001
 4.3019609868e+000	 7.9608835431e-001	 4.0525764837e-001
 4.2942395236e+000	 8.3673885643e-001	 4.3045394100e-001
 4.2861099073e+000	 8.7743197055e-001	 4.4731548996e-001
 4.2775698078e+000	 9.1816204446e-001	 4.5611386360e-001
 4.2686169902e+000	 9.5892335015e-001	 4.5726628791e-001
 4.2592493171e+000	 9.9971008553e-001	 4.5133999576e-001
 4.2494647511e+000	 1.0405163763e+000	 4.3905637214e-001
 4.2392613572e+000	 1.0813362778e+000	 4.2129487899e-001
 4.2286373050e+000	 1.1221637773e+000	 3.9909674273e-001
 4.2175908713e+000	 1.1629927957e+000	 3.7366838798e-001
 4.2061204421e+000	 1.2038171899e+000	 3.4638460134e-001
 4.3265436210e+000	 8.0063743062e-001	 4.0519442795e-001
 4.3187780352e+000	 8.4152022133e-001	 4.3022163716e-001
 4.3106019639e+000	 8.8244586753e-001	 4.4662021446e-001
 4.3020130638e+000	 9.2340868472e-001	 4.5462183951e-001
 4.2930090873e+000	 9.6440291215e-001	 4.5460562366e-001
 4.2835878846e+000	 1.0054227146e+000	 4.4710256372e-001
 4.2737474068e+000	 1.0464621842e+000	 4.3279979006e-001
 4.2634857078e+000	 1.0875153423e+000	 4.1254459170e-001
 4.2528009467e+000	 1.1285761418e+000	 3.8734820169e-001
 4.2416913905e+000	 1.1696384688e+000	 3.5838932585e-001
 4.2301554161e+000	 1.2106961453e+000	 3.2701739817e-001
 4.3511262553e+000	 8.0518650693e-001	 4.0812441752e-001
 4.3433165468e+000	 8.4630158622e-001	 4.3288591521e-001
 4.3350940205e+000	 8.8745976450e-001	 4.4867820830e-001
 4.3264563199e+000	 9.2865532497e-001	 4.5569269407e-001
 4.3174011843e+000	 9.6988247415e-001	 4.5427002692e-001
 4.3079264521e+000	 1.0111353436e+000	 4.4490467848e-001
 4.2980300625e+000	 1.0524079920e+000	 4.2824928985e-001
 4.2877100584e+000	 1.0936944067e+000	 4.0511879876e-001
 4.2769645885e+000	 1.1349885062e+000	 3.7649432413e-001
 4.2657919098e+000	 1.1762841420e+000	 3.4352679115e-001
 4.2541903900e+000	 1.2175751007e+000	 3.0754027979e-001
 4.3757088895e+000	 8.0973558324e-001	 4.1253032964e-001
 4.3678550583e+000	 8.5108295112e-001	 4.3853416486e-001
 4.3595860771e+000	 8.9247366148e-001	 4.5359463365e-001
 4.3508995759e+000	 9.3390196523e-001	 4.5944926763e-001
 4.3417932814e+000	 9.7536203615e-001	 4.5639991364e-001
 4.3322650197e+000	 1.0168479727e+000	 4.4490422063e-001
 4.3223127183e+000	 1.0583537999e+000	 4.2558009782e-001
 4.3119344090e+000	 1.0998734712e+000	 3.9920994521e-001
 4.3011282302e+000	 1.1414008707e+000	 3.6674463900e-001
 4.2898924291e+000	 1.1829298151e+000	 3.2930725432e-001
 4.2782253640e+000	 1.2244540561e+000	 2.8819650822e-001
 4.4002915237e+000	 8.1428465955e-001	 3.7081568870e-001
 4.3923935699e+000	 8.5586431601e-001	 4.0951512509e-001
 4.3840781337e+000	 8.9748755845e-001	 4.4136422840e-001
 4.3753428319e+000	 9.3914860548e-001	 4.6525899150e-001
 4.3661853785e+000	 9.8084159815e-001	 4.6113729916e-001
 4.3566035872e+000	 1.0225606018e+000	 4.4726040013e-001
 4.3465953740e+000	 1.0642996077e+000	 4.2496849479e-001
 4.3361587596e+000	 1.1060525356e+000	 3.9501125118e-001
 4.3252918719e+000	 1.1478132351e+000	 3.5830916639e-001
 4.3139929483e+000	 1.1895754882e+000	 3.1595738853e-001
 4.3022603379e+000	 1.2313330114e+000	 2.6922925539e-001
 4.4248741579e+000	 8.1883373586e-001	 3.4025925454e-001
 4.4169320814e+000	 8.6064568090e-001	 3.7432572328e-001
 4.4085701903e+000	 9.0250145542e-001	 4.0252538018e-001
 4.3997860880e+000	 9.4439524573e-001	 4.2373561902e-001
 4.3905774756e+000	 9.8632116015e-001	 4.3681595560e-001
 4.3809421547e+000	 1.0282732308e+000	 4.4060771653e-001
 4.3708780297e+000	 1.0702454156e+000	 4.2659178689e-001
 4.3603831102e+000	 1.1122316001e+000	 3.9271669040e-001
 4.3494555137e+000	 1.1542255995e+000	 3.5139840393e-001
 4.3380934676e+000	 1.1962211613e+000	 3.0370406403e-001
 4.3262953119e+000	 1.2382119668e+000	 2.5088160565e-001
 4.0859455723e+000	 1.1694224131e+000	 4.3305107915e-001
 4.0743895290e+000	 1.2090698765e+000	 3.1758389128e-001
 4.0624187960e+000	 1.2487007353e+000	 2.1089366909e-001
 4.0500321369e+000	 1.2883088488e+000	 2.0088562587e-001
 4.0372284301e+000	 1.3278880237e+000	 1.9294757506e-001
 4.0240066701e+000	 1.3674320163e+000	 1.8361642251e-001
 4.0103659702e+000	 1.4069345349e+000	 1.7251890418e-001
 3.9963055637e+000	 1.4463892427e+000	 1.5925881385e-001
 3.9818248061e+000	 1.4857897608e+000	 1.4341735325e-001
 3.9669231766e+000	 1.5251296703e+000	 1.2455354309e-001
 3.9516002795e+000	 1.5644025157e+000	 1.0220469535e-001
 4.1099805463e+000	 1.1763013684e+000	 4.1788572137e-001
 4.0983565262e+000	 1.2161820523e+000	 3.0276452334e-001
 4.0863153771e+000	 1.2560460337e+000	 2.1016448740e-001
 4.0738558554e+000	 1.2958871362e+000	 2.0405383338e-001
 4.0609768326e+000	 1.3356991298e+000	 1.9730526871e-001
 4.0476772976e+000	 1.3754757340e+000	 1.8955095040e-001
 4.0339563582e+000	 1.4152106204e+000	 1.8039892240e-001
 4.0198132435e+000	 1.4548974148e+000	 1.6943341599e-001
 4.0052473050e+000	 1.4945297006e+000	 1.5621521235e-001
 3.9902580188e+000	 1.5341010213e+000	 1.4028206768e-001
 3.9748449870e+000	 1.5736048834e+000	 1.2114920150e-001
 4.1340155202e+000	 1.1831803238e+000	 4.0139269328e-001
 4.1223235234e+000	 1.2232942280e+000	 2.8659703509e-001
 4.1102119583e+000	 1.2633913321e+000	 2.1181721167e-001
 4.0976795738e+000	 1.3034654235e+000	 2.0631834301e-001
 4.0847252351e+000	 1.3435102358e+000	 2.0059079002e-001
 4.0713479250e+000	 1.3835194518e+000	 1.9424887384e-001
 4.0575467463e+000	 1.4234867059e+000	 1.8688191382e-001
 4.0433209233e+000	 1.4634055868e+000	 1.7805453867e-001
 4.0286698039e+000	 1.5032696403e+000	 1.6730706131e-001
 4.0135928610e+000	 1.5430723723e+000	 1.5415591826e-001
 3.9980896946e+000	 1.5828072511e+000	 1.3809417380e-001
 4.1580504942e+000	 1.1900592792e+000	 3.8381574798e-001
 4.1462905207e+000	 1.2304064038e+000	 2.6933229753e-001
 4.1341085394e+000	 1.2707366306e+000	 2.1275181624e-001
 4.1215032923e+000	 1.3110437108e+000	 2.0769689544e-001
 4.1084736377e+000	 1.3513213418e+000	 2.0282666269e-001
 4.0950185525e+000	 1.3915631695e+000	 1.9773757596e-001
 4.0811371344e+000	 1.4317627914e+000	 1.9200019512e-001
 4.0668286031e+000	 1.4719137588e+000	 1.8515950366e-001
 4.0520923027e+000	 1.5120095801e+000	 1.7673529600e-001
 4.0369277032e+000	 1.5520437233e+000	 1.6622263105e-001
 4.0213344021e+000	 1.5920096189e+000	 1.5309235233e-001
 4.1820854681e+000	 1.1969382346e+000	 3.6539853462e-001
 4.1702575179e+000	 1.2375185795e+000	 2.5122099087e-001
 4.1580051206e+000	 1.2780819290e+000	 2.1298105913e-001
 4.1453270108e+000	 1.3186219982e+000	 2.0820686451e-001
 4.1322220402e+000	 1.3591324478e+000	 2.0403495442e-001
 4.1186891800e+000	 1.3996068873e+000	 2.0004389413e-001
 4.1047275224e+000	 1.4400388769e+000	 1.9578544672e-001
 4.0903362829e+000	 1.4804219308e+000	 1.9078490541e-001
 4.0755148016e+000	 1.5207495199e+000	 1.8454149330e-001
 4.0602625455e+000	 1.5610150743e+000	 1.7652883108e-001
 4.0445791096e+000	 1.6012119866e+000	 1.6619547329e-001
 4.2061204421e+000	 1.2038171899e+000	 3.4638460134e-001
 4.1942245151e+000	 1.2446307552e+000	 2.3251360998e-001
 4.1819017017e+000	 1.2854272275e+000	 2.1251742784e-001
 4.1691507292e+000	 1.3262002855e+000	 2.0786526768e-001
 4.1559704427e+000	 1.3669435539e+000	 2.0423728998e-001
 4.1423598075e+000	 1.4076506050e+000	 2.0119413553e-001
 4.1283179105e+000	 1.4483149624e+000	 1.9826873100e-001
 4.1138439627e+000	 1.4889301028e+000	 1.9496663184e-001
 4.0989373005e+000	 1.5294894596e+000	 1.9076643447e-001
 4.0835973877e+000	 1.5699864253e+000	 1.8512025821e-001
 4.0678238172e+000	 1.6104143544e+000	 1.7745429758e-001
 4.2301554161e+000	 1.2106961453e+000	 3.2701739817e-001
 4.2181915124e+000	 1.2517429310e+000	 2.1793637669e-001
 4.2057982829e+000	 1.2927725259e+000	 2.1137314708e-001
 4.1929744477e+000	 1.3337785729e+000	 2.0668877619e-001
 4.1797188453e+000	 1.3747546599e+000	 2.0345486378e-001
 4.1660304349e+000	 1.4156943227e+000	 2.0121409222e-001
 4.1519082985e+000	 1.4565910479e+000	 1.9948050981e-001
 4.1373516424e+000	 1.4974382748e+000	 1.9773988437e-001
 4.1223597993e+000	 1.5382293994e+000	 1.9545012779e-001
 4.1069322299e+000	 1.5789577763e+000	 1.9204179224e-001
 4.0910685247e+000	 1.6196167221e+000	 1.8691863860e-001
 4.2541903900e+000	 1.2175751007e+000	 3.0754027979e-001
 4.2421585096e+000	 1.2588551067e+000	 2.1675329422e-001
 4.2296948641e+000	 1.3001178244e+000	 2.0956018617e-001
 4.2167981661e+000	 1.3413568602e+000	 2.0469372479e-001
 4.2034672478e+000	 1.3825657659e+000	 2.0170845203e-001
 4.1897010624e+000	 1.4237380405e+000	 2.0012905565e-001
 4.1754986866e+000	 1.4648671334e+000	 1.9945066145e-001
 4.1608593222e+000	 1.5059464469e+000	 1.9913919733e-001
 4.1457822982e+000	 1.5469693392e+000	 1.9863183037e-001
 4.1302670721e+000	 1.5879291273e+000	 1.9733747727e-001
 4.1143132322e+000	 1.6288190898e+000	 1.9463738895e-001
 4.2782253640e+000	 1.2244540561e+000	 2.8819650822e-001
 4.2661255068e+000	 1.2659672825e+000	 2.1506340539e-001
 4.2535914452e+000	 1.3074631228e+000	 2.0709026620e-001
 4.2406218846e+000	 1.3489351476e+000	 2.0189612124e-001
 4.2272156503e+000	 1.3903768719e+000	 1.9901842447e-001
 4.2133716899e+000	 1.4317817582e+000	 1.9796383081e-001
 4.1990890747e+000	 1.4731432189e+000	 1.9820849708e-001
 4.1843670020e+000	 1.5144546189e+000	 1.9919845673e-001
 4.1692047970e+000	 1.5557092789e+000	 2.0035006927e-001
 4.1536019143e+000	 1.5969004783e+000	 2.0105054513e-001
 4.1375579397e+000	 1.6380214576e+000	 2.0065854635e-001
 4.3022603379e+000	 1.2313330114e+000	 2.6922925539e-001
 4.2900925040e+000	 1.2730794582e+000	 2.1287405670e-001
 4.2774880264e+000	 1.3148084213e+000	 2.0397486700e-001
 4.2644456030e+000	 1.3565134349e+000	 1.9831165542e-001
 4.2509640528e+000	 1.3981879779e+000	 1.9540475576e-001
 4.2370423173e+000	 1.4398254760e+000	 1.9474274972e-001
 4.2226794627e+000	 1.4814193044e+000	 1.9578277653e-001
 4.2078746818e+000	 1.5229627909e+000	 1.9795091830e-001
 4.1926272959e+000	 1.5644492187e+000	 2.0064266188e-001
 4.1769367565e+000	 1.6058718293e+000	 2.0322343807e-001
 4.1608026473e+000	 1.6472238253e+000	 2.0502923857e-001
 4.3262953119e+000	 1.2382119668e+000	 2.5088160565e-001
 4.3140595013e+000	 1.2801916340e+000	 2.1019243392e-001
 4.3013846075e+000	 1.3221537197e+000	 2.0022523382e-001
 4.2882693215e+000	 1.3640917223e+000	 1.9395570814e-001
 4.2747124554e+000	 1.4059990840e+000	 1.9088703642e-001
 4.2607129448e+000	 1.4478691937e+000	 1.9048968465e-001
 4.2462698508e+000	 1.4896953899e+000	 1.9220172367e-001
 4.2313823616e+000	 1.5314709629e+000	 1.9542922508e-001
 4.2160497947e+000	 1.5731891585e+000	 1.9954673563e-001
 4.2002715988e+000	 1.6148431803e+000	 2.0389783071e-001
 4.1840473548e+000	 1.6564261930e+000	 2.0779574767e-001
 3.9516002795e+000	 1.5644025157e+000	 1.0220469535e-001
 3.9358558462e+000	 1.6036018077e+000	 8.8243207728e-002
 3.9196897364e+000	 1.6427210263e+000	 7.0678548523e-002
 3.9031019395e+000	 1.6817536235e+000	 4.8682093561e-002
 3.8860925758e+000	 1.7206930268e+000	 2.1401352162e-002
 3.8686618980e+000	 1.7595326423e+000	-1.2038997904e-002
 3.8508102920e+000	 1.7982658577e+000	-5.2536005800e-002
 3.8325382783e+000	 1.8368860459e+000	-1.0100727447e-001
 3.8138465125e+000	 1.8753865680e+000	-1.5711981643e-001
 3.7947357865e+000	 1.9137607768e+000	-9.7715342154e-002
 3.7752070290e+000	 1.9520020205e+000	-4.7979230244e-002
 3.9748449870e+000	 1.5736048834e+000	 1.2114920150e-001
 3.9590079395e+000	 1.6130347595e+000	 1.0456222118e-001
 3.9427467349e+000	 1.6523840911e+000	 8.3754557973e-002
 3.9260613627e+000	 1.6916462918e+000	 5.7903230470e-002
 3.9089519439e+000	 1.7308147505e+000	 2.6161768539e-002
 3.8914187326e+000	 1.7698828343e+000	-1.2338744220e-002
 3.8734621172e+000	 1.8088438922e+000	-5.8488558334e-002
 3.8550826211e+000	 1.8476912579e+000	-1.1319807776e-001
 3.8362809037e+000	 1.8864182537e+000	-1.4159384445e-001
 3.8170577617e+000	 1.9250181932e+000	-9.4533703869e-002
 3.7974141292e+000	 1.9634843853e+000	-5.7765541811e-002
 3.9980896946e+000	 1.5828072511e+000	 1.3809417380e-001
 3.9821600327e+000	 1.6224677113e+000	 1.1942752478e-001
 3.9658037333e+000	 1.6620471560e+000	 9.5937656654e-002
 3.9490207858e+000	 1.7015389602e+000	 6.6806896746e-002
 3.9318113120e+000	 1.7409364742e+000	 3.1194445092e-002
 3.9141755673e+000	 1.7802330263e+000	-1.1762575368e-002
 3.8961139425e+000	 1.8194219267e+000	-6.2947998868e-002
 3.8776269639e+000	 1.8584964700e+000	-1.2326542827e-001
 3.8587152950e+000	 1.8974499394e+000	-1.2658210250e-001
 3.8393797369e+000	 1.9362756095e+000	-9.1294726411e-002
 3.8196212294e+000	 1.9749667502e+000	-6.6913876045e-002
 4.0213344021e+000	 1.5920096189e+000	 1.5309235233e-001
 4.0053121259e+000	 1.6319006631e+000	 1.3288521068e-001
 3.9888607318e+000	 1.6717102208e+000	 1.0726715015e-001
 3.9719802090e+000	 1.7114316286e+000	 7.5425474029e-002
 3.9546706801e+000	 1.7510581979e+000	 3.6524703482e-002
 3.9369324020e+000	 1.7905832183e+000	-1.0292364301e-002
 3.9187657677e+000	 1.8299999611e+000	-6.5903528118e-002
 3.9001713067e+000	 1.8693016820e+000	-1.3120598609e-001
 3.8811496862e+000	 1.9084816251e+000	-1.1206273065e-001
 3.8617017121e+000	 1.9475330258e+000	-8.7984565720e-002
 3.8418283295e+000	 1.9864491150e+000	-7.5418565835e-002
 4.0445791096e+000	 1.6012119866e+000	 1.6619547329e-001
 4.0284642191e+000	 1.6413336149e+000	 1.4498054777e-001
 4.0119177302e+000	 1.6813732857e+000	 1.1778170552e-001
 3.9949396322e+000	 1.7213242970e+000	 8.3790894203e-002
 3.9775300482e+000	 1.7611799216e+000	 4.2177608338e-002
 3.9596892367e+000	 1.8009334104e+000	-7.9100443737e-003
 3.9414175930e+000	 1.8405779956e+000	-6.7344206752e-002
 3.9227156495e+000	 1.8801068940e+000	-1.2327600118e-001
 3.9035840775e+000	 1.9195133107e+000	-9.8013316851e-002
 3.8840236873e+000	 1.9587904422e+000	-8.4588614099e-002
 3.8640354297e+000	 1.9979314798e+000	-8.3272965422e-002
 4.0678238172e+000	 1.6104143544e+000	 1.7745429758e-001
 4.0516163123e+000	 1.6507665667e+000	 1.5575800520e-001
 4.0349747287e+000	 1.6910363506e+000	 1.2751936955e-001
 4.0178990554e+000	 1.7312169653e+000	 9.1934652245e-002
 4.0003894163e+000	 1.7713016452e+000	 4.8177974610e-002
 3.9824460714e+000	 1.8112836024e+000	-4.5976076194e-003
 3.9640694182e+000	 1.8511560300e+000	-6.7258959394e-002
 3.9452599923e+000	 1.8909121061e+000	-1.0017466729e-001
 3.9260184687e+000	 1.9305449964e+000	-8.4410912676e-002
 3.9063456625e+000	 1.9700478585e+000	-8.1091522040e-002
 3.8862425299e+000	 2.0094138446e+000	-9.0469478359e-002
 4.0910685247e+000	 1.6196167221e+000	 1.8691863860e-001
 4.0747684055e+000	 1.6601995186e+000	 1.6526127508e-001
 4.0580317271e+000	 1.7006994154e+000	 1.3651758634e-001
 4.0408584785e+000	 1.7411096337e+000	 9.9887818635e-002
 4.0232487843e+000	 1.7814233689e+000	 5.4550374652e-002
 4.0052029061e+000	 1.8216337944e+000	-3.3710308400e-004
 3.9867212435e+000	 1.8617340645e+000	-6.5636578487e-002
 3.9678043352e+000	 1.9017173181e+000	-7.8028857501e-002
 3.9484528600e+000	 1.9415766821e+000	-7.1232048573e-002
 3.9286676378e+000	 1.9813052748e+000	-7.7477219288e-002
 3.9084496300e+000	 2.0208962095e+000	-9.6999584517e-002
 4.1143132322e+000	 1.6288190898e+000	 1.9463738895e-001
 4.0979204987e+000	 1.6696324704e+000	 1.7353329445e-001
 4.0810887256e+000	 1.7103624803e+000	 1.4481321439e-001
 4.0638179017e+000	 1.7510023021e+000	 1.0768105135e-001
 4.0461081524e+000	 1.7915450926e+000	 6.1319145080e-002
 4.0279597408e+000	 1.8319839864e+000	 4.8893647859e-003
 4.0093730687e+000	 1.8723120989e+000	-6.2465728028e-002
 3.9903486780e+000	 1.9125225301e+000	-5.6807540067e-002
 3.9708872512e+000	 1.9526083678e+000	-5.8452748584e-002
 3.9509896130e+000	 1.9925626912e+000	-7.3728935212e-002
 3.9306567302e+000	 2.0323785743e+000	-1.0285386618e-001
 4.1375579397e+000	 1.6380214576e+000	 2.0065854635e-001
 4.1210725920e+000	 1.6790654222e+000	 1.8061626649e-001
 4.1041457241e+000	 1.7200255451e+000	 1.5244254300e-001
 4.0867773249e+000	 1.7608949704e+000	 1.1534460746e-001
 4.0689675205e+000	 1.8016668163e+000	 6.8508393396e-002
 4.0507165755e+000	 1.8423341784e+000	 1.1099637699e-002
 4.0320248940e+000	 1.8828901334e+000	-4.0915336925e-002
 4.0128930208e+000	 1.9233277422e+000	-3.6479376368e-002
 3.9933216425e+000	 1.9636400535e+000	-4.6048544566e-002
 3.9733115882e+000	 2.0038201075e+000	-6.9829218470e-002
 3.9528638304e+000	 2.0438609391e+000	-1.0802203326e-001
 4.1608026473e+000	 1.6472238253e+000	 2.0502923857e-001
 4.1442246852e+000	 1.6884983740e+000	 1.8655168100e-001
 4.1272027225e+000	 1.7296886100e+000	 1.5944130818e-001
 4.1097367481e+000	 1.7707876388e+000	 1.2290835430e-001
 4.0918268886e+000	 1.8117885400e+000	 7.6142004382e-002
 4.0734734102e+000	 1.8526843704e+000	 1.8311505022e-002
 4.0546767192e+000	 1.8934681678e+000	-1.4624364658e-002
 4.0354373636e+000	 1.9341329542e+000	-1.7012729486e-002
 4.0157560337e+000	 1.9746717392e+000	-3.3994489944e-002
 3.9956335634e+000	 2.0150775238e+000	-6.5759956026e-002
 3.9750709306e+000	 2.0553433039e+000	-1.1249294766e-001
 4.1840473548e+000	 1.6564261930e+000	 2.0779574767e-001
 4.1673767784e+000	 1.6979313258e+000	 1.9138033423e-001
 4.1502597210e+000	 1.7393516748e+000	 1.6584470802e-001
 4.1326961712e+000	 1.7806803072e+000	 1.3040178034e-001
 4.1146862567e+000	 1.8219102636e+000	 8.4243646292e-002
 4.0962302449e+000	 1.8630345624e+000	 2.6542705236e-002
 4.0773285445e+000	 1.9040462023e+000	 1.0340659472e-002
 4.0579817064e+000	 1.9449381662e+000	 1.6243275087e-003
 4.0381904250e+000	 1.9857034249e+000	-2.2265172997e-002
 4.0179555386e+000	 2.0263349401e+000	-6.1502391533e-002
 3.9972780307e+000	 2.0668256687e+000	-1.1625464682e-001
 3.7752070290e+000	 1.9520020205e+000	-4.7979230244e-002
 3.7552613065e+000	 1.9901036456e+000	-6.0768510632e-002
 3.7348998232e+000	 2.0280590008e+000	-1.0779860578e-001
 3.7141239222e+000	 2.0658614403e+000	-1.6987775641e-001
 3.6929350853e+000	 2.1035043275e+000	-2.3229372526e-001
 3.6713349334e+000	 2.1409810384e+000	-2.9352078686e-001
 3.6493252266e+000	 2.1782849654e+000	-3.5203199633e-001
 3.6269078643e+000	 2.2154095206e+000	-4.0630350737e-001
 3.6040848849e+000	 2.2523481398e+000	-4.5481890815e-001
 3.5808584657e+000	 2.2890942857e+000	-4.9607356335e-001
 3.5572309227e+000	 2.3256414519e+000	-5.2857895023e-001
 3.7974141292e+000	 1.9634843853e+000	-5.7765541811e-002
 3.7773510788e+000	 2.0018101376e+000	-7.6659527807e-002
 3.7568698222e+000	 2.0399887596e+000	-8.7979658819e-002
 3.7359717100e+000	 2.0780135664e+000	-1.3340973495e-001
 3.7146582329e+000	 2.1158778823e+000	-1.9776399391e-001
 3.6929310213e+000	 2.1535750445e+000	-2.6016450726e-001
 3.6707918456e+000	 2.1910984063e+000	-3.1904071006e-001
 3.6482426164e+000	 2.2284413413e+000	-3.7282616225e-001
 3.6252853842e+000	 2.2655972465e+000	-4.1996298813e-001
 3.6019223390e+000	 2.3025595462e+000	-4.5890632094e-001
 3.5781558105e+000	 2.3393216957e+000	-4.8812873994e-001
 3.8196212294e+000	 1.9749667502e+000	-6.6913876045e-002
 3.7994408512e+000	 2.0135166297e+000	-9.1965751967e-002
 3.7788398211e+000	 2.0519185184e+000	-1.0864382192e-001
 3.7578194978e+000	 2.0901656925e+000	-1.1686191148e-001
 3.7363813804e+000	 2.1282514372e+000	-1.5984017584e-001
 3.7145271091e+000	 2.1661690506e+000	-2.2396850511e-001
 3.6922584646e+000	 2.2039118473e+000	-2.8376352907e-001
 3.6695773686e+000	 2.2414731620e+000	-3.3761528155e-001
 3.6464858835e+000	 2.2788463532e+000	-3.8392349505e-001
 3.6229862123e+000	 2.3160248067e+000	-4.2110214938e-001
 3.5990806982e+000	 2.3530019396e+000	-4.4758401147e-001
 3.8418283295e+000	 1.9864491150e+000	-7.5418565835e-002
 3.8215306236e+000	 2.0252231217e+000	-1.0667870914e-001
 3.8008098201e+000	 2.0638482773e+000	-1.2877370828e-001
 3.7796672856e+000	 2.1023178186e+000	-1.4162398680e-001
 3.7581045280e+000	 2.1406249920e+000	-1.4516026803e-001
 3.7361231969e+000	 2.1787630567e+000	-1.8537766315e-001
 3.7137250836e+000	 2.2167252883e+000	-2.4665024482e-001
 3.6909121207e+000	 2.2545049827e+000	-3.0112526460e-001
 3.6676863828e+000	 2.2920954599e+000	-3.4715912809e-001
 3.6440500857e+000	 2.3294900672e+000	-3.8312373276e-001
 3.6200055860e+000	 2.3666821834e+000	-4.0741111213e-001
 3.8640354297e+000	 1.9979314798e+000	-8.3272965422e-002
 3.8436203960e+000	 2.0369296137e+000	-1.2078898441e-001
 3.8227798190e+000	 2.0757780361e+000	-1.4835699631e-001
 3.8015150733e+000	 2.1144699447e+000	-1.6590414817e-001
 3.7798276756e+000	 2.1529985469e+000	-1.7336867191e-001
 3.7577192848e+000	 2.1913570628e+000	-1.7069960687e-001
 3.7351917025e+000	 2.2295387292e+000	-2.0814994831e-001
 3.7122468729e+000	 2.2675368034e+000	-2.6380986871e-001
 3.6888868821e+000	 2.3053445666e+000	-3.1012800629e-001
 3.6651139590e+000	 2.3429553277e+000	-3.4543324034e-001
 3.6409304738e+000	 2.3803624272e+000	-3.6807594308e-001
 3.8862425299e+000	 2.0094138446e+000	-9.0469478359e-002
 3.8657101684e+000	 2.0486361058e+000	-1.3428624876e-001
 3.8447498180e+000	 2.0877077949e+000	-1.6738049035e-001
 3.8233628611e+000	 2.1266220709e+000	-1.8968620056e-001
 3.8015508231e+000	 2.1653721018e+000	-2.0114924195e-001
 3.7793153726e+000	 2.2039510689e+000	-2.0172705587e-001
 3.7566583215e+000	 2.2423521702e+000	-1.9138835630e-001
 3.7335816250e+000	 2.2805686241e+000	-2.2612222756e-001
 3.7100873815e+000	 2.3185936733e+000	-2.7328768520e-001
 3.6861778323e+000	 2.3564205882e+000	-3.0849234126e-001
 3.6618553616e+000	 2.3940426711e+000	-3.3004397207e-001
 3.9084496300e+000	 2.0208962095e+000	-9.6999584517e-002
 3.8877999408e+000	 2.0603425978e+000	-1.4715928509e-001
 3.8667198170e+000	 2.0996375537e+000	-1.8583014551e-001
 3.8452106489e+000	 2.1387741970e+000	-2.1295314183e-001
 3.8232739707e+000	 2.1777456566e+000	-2.2848189081e-001
 3.8009114605e+000	 2.2165450750e+000	-2.3238235437e-001
 3.7781249405e+000	 2.2551656112e+000	-2.2463252313e-001
 3.7549163771e+000	 2.2936004448e+000	-2.0522207998e-001
 3.7312878808e+000	 2.3318427800e+000	-2.3709517279e-001
 3.7072417056e+000	 2.3698858487e+000	-2.7276221873e-001
 3.6827802494e+000	 2.4077229149e+000	-2.9378024573e-001
 3.9306567302e+000	 2.0323785743e+000	-1.0285386618e-001
 3.9098897132e+000	 2.0720490898e+000	-1.5939601327e-001
 3.8886898159e+000	 2.1115673126e+000	-2.0369109161e-001
 3.8670584367e+000	 2.1509263231e+000	-2.3568718553e-001
 3.8449971182e+000	 2.1901192115e+000	-2.5534579099e-001
 3.8225075483e+000	 2.2291390811e+000	-2.6264151056e-001
 3.7995915595e+000	 2.2679790521e+000	-2.5756172645e-001
 3.7762511293e+000	 2.3066322655e+000	-2.4010625239e-001
 3.7524883801e+000	 2.3450918867e+000	-2.1028696575e-001
 3.7283055790e+000	 2.3833511092e+000	-2.3870358382e-001
 3.7037051371e+000	 2.4214031587e+000	-2.5974940153e-001
 3.9528638304e+000	 2.0438609391e+000	-1.0802203326e-001
 3.9319794856e+000	 2.0837555818e+000	-1.7098351443e-001
 3.9106598149e+000	 2.1234970714e+000	-2.2094765642e-001
 3.8889062245e+000	 2.1630784492e+000	-2.5786978293e-001
 3.8667202658e+000	 2.2024927664e+000	-2.8171939555e-001
 3.8441036362e+000	 2.2417330872e+000	-2.9247985920e-001
 3.8210581785e+000	 2.2807924931e+000	-2.9014806422e-001
 3.7975858814e+000	 2.3196640863e+000	-2.7473406637e-001
 3.7736888794e+000	 2.3583409934e+000	-2.4626070597e-001
 3.7493694523e+000	 2.3968163697e+000	-2.0677668863e-001
 3.7246300249e+000	 2.4350834026e+000	-2.2841567919e-001
 3.9750709306e+000	 2.0553433039e+000	-1.1249294766e-001
 3.9540692580e+000	 2.0954620739e+000	-1.8190805430e-001
 3.9326298139e+000	 2.1354268302e+000	-2.3758338804e-001
 3.9107540122e+000	 2.1752305753e+000	-2.7948164430e-001
 3.8884434134e+000	 2.2148663212e+000	-3.0758045829e-001
 3.8656997240e+000	 2.2543270933e+000	-3.2187208044e-001
 3.8425247975e+000	 2.2936059341e+000	-3.2236302741e-001
 3.8189206336e+000	 2.3326959070e+000	-3.0907370993e-001
 3.7948893788e+000	 2.3715901001e+000	-2.8203803866e-001
 3.7704333256e+000	 2.4102816302e+000	-2.4130300926e-001
 3.7455549127e+000	 2.4487636464e+000	-2.0024293185e-001
 3.9972780307e+000	 2.0668256687e+000	-1.1625464682e-001
 3.9761590304e+000	 2.1071685659e+000	-1.9215510595e-001
 3.9545998128e+000	 2.1473565890e+000	-2.5358107653e-001
 3.9326018000e+000	 2.1873827014e+000	-3.0050275951e-001
 3.9101665609e+000	 2.2272398761e+000	-3.3290605312e-001
 3.8872958119e+000	 2.2669210994e+000	-3.5079221800e-001
 3.8639914164e+000	 2.3064193751e+000	-3.5417751695e-001
 3.8402553857e+000	 2.3457277277e+000	-3.4309283029e-001
 3.8160898781e+000	 2.3848392068e+000	-3.1758324815e-001
 3.7914971990e+000	 2.4237468907e+000	-2.7770764107e-001
 3.7664798005e+000	 2.4624438902e+000	-2.2353821005e-001
 3.5572309227e+000	 2.3256414519e+000	-5.2857895023e-001
 3.5332047099e+000	 2.3619831663e+000	-5.1573363038e-001
 3.5087824190e+000	 2.3981129948e+000	-4.9061867081e-001
 3.4839667785e+000	 2.4340245451e+000	-4.5198154241e-001
 3.4587606532e+000	 2.4697114697e+000	-3.9860494177e-001
 3.4331670430e+000	 2.5051674705e+000	-3.5080362416e-001
 3.4071890820e+000	 2.5403863013e+000	-4.1143541697e-001
 3.3808300376e+000	 2.5753617721e+000	-4.5462826210e-001
 3.3540933089e+000	 2.6100877523e+000	-4.8047602910e-001
 3.3269824258e+000	 2.6445581744e+000	-4.8908131735e-001
 3.2995010472e+000	 2.6787670372e+000	-4.8055528340e-001
 3.5781558105e+000	 2.3393216957e+000	-4.8812873994e-001
 3.5539882670e+000	 2.3758771849e+000	-4.7413217095e-001
 3.5294223156e+000	 2.4122195419e+000	-4.4745381779e-001
 3.5044607008e+000	 2.4483423365e+000	-4.0679968793e-001
 3.4791063041e+000	 2.4842391843e+000	-3.5091209780e-001
 3.4533621432e+000	 2.5199037497e+000	-3.6144661621e-001
 3.4272313707e+000	 2.5553297501e+000	-4.1985925624e-001
 3.4007172731e+000	 2.5905109590e+000	-4.6067651887e-001
 3.3738232696e+000	 2.6254412097e+000	-4.8399608543e-001
 3.3465529107e+000	 2.6601143990e+000	-4.8992433594e-001
 3.3189098769e+000	 2.6945244904e+000	-4.7857617061e-001
 3.5990806982e+000	 2.3530019396e+000	-4.4758401147e-001
 3.5747718241e+000	 2.3897712035e+000	-4.3280960387e-001
 3.5500622122e+000	 2.4263260889e+000	-4.0492771893e-001
 3.5249546230e+000	 2.4626601279e+000	-3.6260207767e-001
 3.4994519550e+000	 2.4987668988e+000	-3.0453381213e-001
 3.4735572435e+000	 2.5346400289e+000	-3.7342115722e-001
 3.4472736594e+000	 2.5702731989e+000	-4.2958243751e-001
 3.4206045086e+000	 2.6056601459e+000	-4.6799455893e-001
 3.3935532302e+000	 2.6407946671e+000	-4.8875905075e-001
 3.3661233956e+000	 2.6756706236e+000	-4.9198610536e-001
 3.3383187065e+000	 2.7102819435e+000	-4.7779439387e-001
 3.6200055860e+000	 2.3666821834e+000	-4.0741111213e-001
 3.5955553812e+000	 2.4036652222e+000	-3.9223845307e-001
 3.5707021087e+000	 2.4404326359e+000	-3.6351887065e-001
 3.5454485452e+000	 2.4769779194e+000	-3.1987296944e-001
 3.5197976059e+000	 2.5132946133e+000	-3.1480283123e-001
 3.4937523437e+000	 2.5493763082e+000	-3.8667663920e-001
 3.4673159481e+000	 2.5852166478e+000	-4.4055357917e-001
 3.4404917441e+000	 2.6208093328e+000	-4.7653024924e-001
 3.4132831908e+000	 2.6561481244e+000	-4.9471206336e-001
 3.3856938804e+000	 2.6912268481e+000	-4.9521305849e-001
 3.3577275362e+000	 2.7260393967e+000	-4.7815570431e-001
 3.6409304738e+000	 2.3803624272e+000	-3.6807594308e-001
 3.6163389384e+000	 2.4175592408e+000	-3.5289080301e-001
 3.5913420053e+000	 2.4545391829e+000	-3.2370533698e-001
 3.5659424674e+000	 2.4912957108e+000	-2.7909619606e-001
 3.5401432568e+000	 2.5278223278e+000	-3.3145394518e-001
 3.5139474440e+000	 2.5641125874e+000	-4.0116204501e-001
 3.4873582368e+000	 2.6001600966e+000	-4.5272089880e-001
 3.4603789796e+000	 2.6359585197e+000	-4.8623106473e-001
 3.4330131515e+000	 2.6715015818e+000	-5.0180187858e-001
 3.4052643653e+000	 2.7067830727e+000	-4.9955125461e-001
 3.3771363659e+000	 2.7417968498e+000	-4.7960548916e-001
 3.6618553616e+000	 2.3940426711e+000	-3.3004397207e-001
 3.6371224955e+000	 2.4314532594e+000	-3.1523831126e-001
 3.6119819019e+000	 2.4686457300e+000	-2.8596476190e-001
 3.5864363897e+000	 2.5056135023e+000	-2.6342096237e-001
 3.5604889077e+000	 2.5423500424e+000	-3.4932074505e-001
 3.5341425442e+000	 2.5788488667e+000	-4.1682595998e-001
 3.5074005255e+000	 2.6151035454e+000	-4.6603222465e-001
 3.4802662151e+000	 2.6511077066e+000	-4.9704409945e-001
 3.4527431121e+000	 2.6868550392e+000	-5.0997487969e-001
 3.4248348501e+000	 2.7223392972e+000	-5.0494639008e-001
 3.3965451956e+000	 2.7575543030e+000	-4.8208878216e-001
 3.6827802494e+000	 2.4077229149e+000	-2.9378024573e-001
 3.6579060526e+000	 2.4453472780e+000	-2.7975222064e-001
 3.6326217985e+000	 2.4827522770e+000	-2.5077438128e-001
 3.6069303119e+000	 2.5199312937e+000	-2.8454215971e-001
 3.5808345586e+000	 2.5568777569e+000	-3.6835220181e-001
 3.5543376445e+000	 2.5935851459e+000	-4.3361658324e-001
 3.5274428143e+000	 2.6300469942e+000	-4.8043500670e-001
 3.5001534506e+000	 2.6662568934e+000	-5.0891607742e-001
 3.4724730728e+000	 2.7022084965e+000	-5.1917708848e-001
 3.4444053350e+000	 2.7378955218e+000	-5.1134380862e-001
 3.4159540253e+000	 2.7733117562e+000	-4.8555027358e-001
 3.7037051371e+000	 2.4214031587e+000	-2.5974940153e-001
 3.6786896097e+000	 2.4592412967e+000	-2.4690337089e-001
 3.6532616951e+000	 2.4968588240e+000	-2.1861103444e-001
 3.6274242341e+000	 2.5342490851e+000	-3.0681798714e-001
 3.6011802095e+000	 2.5714054714e+000	-3.8849690374e-001
 3.5745327447e+000	 2.6083214251e+000	-4.5148173863e-001
 3.5474851030e+000	 2.6449904431e+000	-4.9587632732e-001
 3.5200406862e+000	 2.6814060803e+000	-5.2179336312e-001
 3.4922030334e+000	 2.7175619539e+000	-5.2935417548e-001
 3.4639758198e+000	 2.7534517463e+000	-5.1868851132e-001
 3.4353628550e+000	 2.7890692093e+000	-4.8993431992e-001
 3.7246300249e+000	 2.4350834026e+000	-2.2841567919e-001
 3.6994731668e+000	 2.4731353153e+000	-2.1716221005e-001
 3.6739015917e+000	 2.5109653711e+000	-2.3175303008e-001
 3.6479181564e+000	 2.5485668766e+000	-3.3019744100e-001
 3.6215258604e+000	 2.5859331860e+000	-4.0970306716e-001
 3.5947278450e+000	 2.6230577044e+000	-4.7036888522e-001
 3.5675273917e+000	 2.6599338919e+000	-5.1230291164e-001
 3.5399279217e+000	 2.6965552672e+000	-5.3562197150e-001
 3.5119329941e+000	 2.7329154113e+000	-5.4045146983e-001
 3.4835463047e+000	 2.7690079709e+000	-5.2692516620e-001
 3.4547716847e+000	 2.8048266625e+000	-4.9518495333e-001
 3.7455549127e+000	 2.4487636464e+000	-2.0024293185e-001
 3.7202567240e+000	 2.4870293339e+000	-1.9099880536e-001
 3.6945414883e+000	 2.5250719181e+000	-2.5825368244e-001
 3.6684120786e+000	 2.5628846680e+000	-3.5462914934e-001
 3.6418715113e+000	 2.6004609005e+000	-4.3191854684e-001
 3.6149229452e+000	 2.6377939836e+000	-4.9022512752e-001
 3.5875696804e+000	 2.6748773408e+000	-5.2966113749e-001
 3.5598151572e+000	 2.7117044541e+000	-5.5034757783e-001
 3.5316629547e+000	 2.7482688687e+000	-5.5241396878e-001
 3.5031167896e+000	 2.7845641955e+000	-5.3599811758e-001
 3.4741805144e+000	 2.8205841157e+000	-5.0124589059e-001
 3.7664798005e+000	 2.4624438902e+000	-2.2353821005e-001
 3.7410402811e+000	 2.5009233526e+000	-1.7221206363e-001
 3.7151813848e+000	 2.5391784651e+000	-2.8580125167e-001
 3.6889060008e+000	 2.5772024595e+000	-3.8006138220e-001
 3.6622171622e+000	 2.6149886150e+000	-4.5509084604e-001
 3.6351180455e+000	 2.6525302629e+000	-5.1099722532e-001
 3.6076119692e+000	 2.6898207896e+000	-5.4789704507e-001
 3.5797023927e+000	 2.7268536410e+000	-5.6591552709e-001
 3.5513929153e+000	 2.7636223260e+000	-5.6518634696e-001
 3.5226872744e+000	 2.8001204200e+000	-5.4585139502e-001
 3.4935893441e+000	 2.8363415688e+000	-5.0806054196e-001
 3.2995010472e+000	 2.6787670372e+000	-4.8055528340e-001
 3.2716529593e+000	 2.7127084092e+000	-5.1563724049e-001
 3.2434420746e+000	 2.7463764324e+000	-5.4931592983e-001
 3.2148724293e+000	 2.7797653252e+000	-5.8165208473e-001
 3.1859481822e+000	 2.8128693856e+000	-6.1270037294e-001
 3.1566736119e+000	 2.8456829949e+000	-6.4250929126e-001
 3.1270531156e+000	 2.8782006205e+000	-6.7112108297e-001
 3.0970912062e+000	 2.9104168190e+000	-6.5808529131e-001
 3.0667925103e+000	 2.9423262393e+000	-6.4652123251e-001
 3.0361617660e+000	 2.9739236255e+000	-6.3930485930e-001
 3.0052038200e+000	 3.0052038200e+000	-6.3610632839e-001
 3.3189098769e+000	 2.6945244904e+000	-4.7857617061e-001
 3.2908979767e+000	 2.7286655175e+000	-5.0965982966e-001
 3.2625211456e+000	 2.7625315879e+000	-5.3986495620e-001
 3.2337834436e+000	 2.7961168859e+000	-5.6924786924e-001
 3.2046890538e+000	 2.8294156761e+000	-5.9785805596e-001
 3.1752422802e+000	 2.8624223067e+000	-6.2573806940e-001
 3.1454475457e+000	 2.8951312124e+000	-6.5292345037e-001
 3.1153093898e+000	 2.9275369179e+000	-6.6630125446e-001
 3.0848324663e+000	 2.9596340407e+000	-6.5495134980e-001
 3.0540215411e+000	 2.9914172939e+000	-6.4845468467e-001
 3.0228814896e+000	 3.0228814896e+000	-6.4646361893e-001
 3.3383187065e+000	 2.7102819435e+000	-4.7779439387e-001
 3.3101429941e+000	 2.7446226258e+000	-5.0471551583e-001
 3.2816002166e+000	 2.7786867434e+000	-5.3127780994e-001
 3.2526944579e+000	 2.8124684466e+000	-5.5753325739e-001
 3.2234299255e+000	 2.8459619666e+000	-5.8352624164e-001
 3.1938109485e+000	 2.8791616184e+000	-6.0929344916e-001
 3.1638419758e+000	 2.9120618043e+000	-6.3486379566e-001
 3.1335275733e+000	 2.9446570169e+000	-6.6025837818e-001
 3.1028724222e+000	 2.9769418421e+000	-6.5974917660e-001
 3.0718813162e+000	 3.0089109623e+000	-6.5381734108e-001
 3.0405591591e+000	 3.0405591591e+000	-6.5287116436e-001
 3.3577275362e+000	 2.7260393967e+000	-4.7815570431e-001
 3.3293880115e+000	 2.7605797341e+000	-5.0075191714e-001
 3.3006792877e+000	 2.7948418989e+000	-5.2350413620e-001
 3.2716054722e+000	 2.8288200074e+000	-5.4646008057e-001
 3.2421707971e+000	 2.8625082571e+000	-5.6965910598e-001
 3.2123796169e+000	 2.8959009301e+000	-5.9313210851e-001
 3.1822364059e+000	 2.9289923962e+000	-6.1690145506e-001
 3.1517457569e+000	 2.9617771158e+000	-6.4098094111e-001
 3.1209123782e+000	 2.9942496435e+000	-6.6098305846e-001
 3.0897410913e+000	 3.0264046307e+000	-6.5546494196e-001
 3.0582368286e+000	 3.0582368286e+000	-6.5540494147e-001
 3.3771363659e+000	 2.7417968498e+000	-4.7960548916e-001
 3.3486330290e+000	 2.7765368424e+000	-4.9771623984e-001
 3.3197583587e+000	 2.8109970544e+000	-5.1649311740e-001
 3.2905164865e+000	 2.8451715681e+000	-5.3597965382e-001
 3.2609116688e+000	 2.8790545476e+000	-5.5621025226e-001
 3.2309482852e+000	 2.9126402419e+000	-5.7721009360e-001
 3.2006308360e+000	 2.9459229881e+000	-5.9899507116e-001
 3.1699639405e+000	 2.9788972147e+000	-6.2157175399e-001
 3.1389523341e+000	 3.0115574449e+000	-6.4493737883e-001
 3.1076008664e+000	 3.0438982991e+000	-6.5346870565e-001
 3.0759144982e+000	 3.0759144982e+000	-6.5413995963e-001
 3.3965451956e+000	 2.7575543030e+000	-4.8208878216e-001
 3.3678780464e+000	 2.7924939507e+000	-4.9555529001e-001
 3.3388374297e+000	 2.8271522099e+000	-5.1019348642e-001
 3.3094275008e+000	 2.8615231289e+000	-5.2604279057e-001
 3.2796525405e+000	 2.8956008381e+000	-5.4313272738e-001
 3.2495169535e+000	 2.9293795536e+000	-5.6148283679e-001
 3.2190252661e+000	 2.9628535800e+000	-5.8110261270e-001
 3.1881821241e+000	 2.9960173137e+000	-6.0199147169e-001
 3.1569922901e+000	 3.0288652463e+000	-6.2413875182e-001
 3.1254606415e+000	 3.0613919675e+000	-6.4752374151e-001
 3.0935921677e+000	 3.0935921677e+000	-6.4915028838e-001
 3.4159540253e+000	 2.7733117562e+000	-4.8555027358e-001
 3.3871230638e+000	 2.8084510590e+000	-4.9421548496e-001
 3.3579165007e+000	 2.8433073654e+000	-5.0455353941e-001
 3.3283385151e+000	 2.8778746896e+000	-5.1659981693e-001
 3.2983934121e+000	 2.9121471286e+000	-5.3037903770e-001
 3.2680856218e+000	 2.9461188654e+000	-5.4590517410e-001
 3.2374196962e+000	 2.9797841718e+000	-5.6318139373e-001
 3.2064003076e+000	 3.0131374126e+000	-5.8220003353e-001
 3.1750322460e+000	 3.0461730477e+000	-6.0294260533e-001
 3.1433204166e+000	 3.0788856359e+000	-6.2537983284e-001
 3.1112698372e+000	 3.1112698372e+000	-6.4050908415e-001
 3.4353628550e+000	 2.7890692093e+000	-4.8993431992e-001
 3.4063680812e+000	 2.8244081673e+000	-4.9364286417e-001
 3.3769955718e+000	 2.8594625209e+000	-4.9952114808e-001
 3.3472495294e+000	 2.8942262503e+000	-5.0760058540e-001
 3.3171342838e+000	 2.9286934191e+000	-5.1790116430e-001
 3.2866542901e+000	 2.9628581771e+000	-5.3043136208e-001
 3.2558141263e+000	 2.9967147637e+000	-5.4518809213e-001
 3.2246184912e+000	 3.0302575116e+000	-5.6215668347e-001
 3.1930722020e+000	 3.0634808491e+000	-5.8131089293e-001
 3.1611801917e+000	 3.0963793042e+000	-6.0261295021e-001
 3.1289475068e+000	 3.1289475068e+000	-6.2897630568e-001
 3.4547716847e+000	 2.8048266625e+000	-4.9518495333e-001
 3.4256130986e+000	 2.8403652756e+000	-4.9378309997e-001
 3.3960746428e+000	 2.8756176763e+000	-4.9504377167e-001
 3.3661605437e+000	 2.9105778111e+000	-4.9899448820e-001
 3.3358751555e+000	 2.9452397096e+000	-5.0565057772e-001
 3.3052229584e+000	 2.9795974888e+000	-5.1501509403e-001
 3.2742085564e+000	 3.0136453556e+000	-5.2707876745e-001
 3.2428366748e+000	 3.0473776105e+000	-5.4181998966e-001
 3.2111121579e+000	 3.0807886506e+000	-5.5920483254e-001
 3.1790399668e+000	 3.1138729726e+000	-5.7918710116e-001
 3.1466251763e+000	 3.1466251763e+000	-6.1800655869e-001
 3.4741805144e+000	 2.8205841157e+000	-5.0124589059e-001
 3.4448581160e+000	 2.8563223839e+000	-4.9458150774e-001
 3.4151537138e+000	 2.8917728318e+000	-4.9106846843e-001
 3.3850715580e+000	 2.9269293718e+000	-4.9073047014e-001
 3.3546160271e+000	 2.9617860002e+000	-4.9357825225e-001
 3.3237916267e+000	 2.9963368006e+000	-4.9960951578e-001
 3.2926029865e+000	 3.0305759475e+000	-5.0880887818e-001
 3.2610548583e+000	 3.0644977094e+000	-5.2114786331e-001
 3.2291521139e+000	 3.0980964520e+000	-5.3658492694e-001
 3.1968997419e+000	 3.1313666410e+000	-5.5915794444e-001
 3.1643028458e+000	 3.1643028458e+000	-6.0629878198e-001
 3.4935893441e+000	 2.8363415688e+000	-5.0806054196e-001
 3.4641031334e+000	 2.8722794922e+000	-4.9598305584e-001
 3.4342327849e+000	 2.9079279873e+000	-4.8754190678e-001
 3.4039825722e+000	 2.9432809326e+000	-4.8275704103e-001
 3.3733568988e+000	 2.9783322907e+000	-4.8163467968e-001
 3.3423602950e+000	 3.0130761123e+000	-4.8416724090e-001
 3.3109974166e+000	 3.0475065394e+000	-4.9033329846e-001
 3.2792730419e+000	 3.0816178084e+000	-5.0009757694e-001
 3.2471920698e+000	 3.1154042534e+000	-5.1341098364e-001
 3.2147595170e+000	 3.1488603094e+000	-5.4566663922e-001
 3.1819805154e+000	 3.1819805154e+000	-5.9386102963e-001
 3.0052038200e+000	 3.0052038200e+000	-6.3610632839e-001
 2.9739236255e+000	 3.0361617660e+000	-6.0963206080e-001
 2.9423262393e+000	 3.0667925103e+000	-5.8068301537e-001
 2.9104168190e+000	 3.0970912062e+000	-5.4879906146e-001
 2.8782006205e+000	 3.1270531156e+000	-5.1636682927e-001
 2.8456829949e+000	 3.1566736119e+000	-5.2337605819e-001
 2.8128693856e+000	 3.1859481822e+000	-5.3548060852e-001
 2.7797653252e+000	 3.2148724293e+000	-5.5261920734e-001
 2.7463764324e+000	 3.2434420746e+000	-5.7474370149e-001
 2.7127084092e+000	 3.2716529593e+000	-6.0181875851e-001
 2.6787670372e+000	 3.2995010472e+000	-6.3382151723e-001
 3.0228814896e+000	 3.0228814896e+000	-6.4646361893e-001
 2.9914172939e+000	 3.0540215411e+000	-6.1868756973e-001
 2.9596340407e+000	 3.0848324663e+000	-5.8764719185e-001
 2.9275369179e+000	 3.1153093898e+000	-5.5288372568e-001
 2.8951312124e+000	 3.1454475457e+000	-5.4170972248e-001
 2.8624223067e+000	 3.1752422802e+000	-5.4659563982e-001
 2.8294156761e+000	 3.2046890538e+000	-5.5580585171e-001
 2.7961168859e+000	 3.2337834436e+000	-5.6929496065e-001
 2.7625315879e+000	 3.2625211456e+000	-5.8703184253e-001
 2.7286655175e+000	 3.2908979767e+000	-6.0899932121e-001
 2.6945244904e+000	 3.3189098769e+000	-6.3519379063e-001
 3.0405591591e+000	 3.0405591591e+000	-6.5287116436e-001
 3.0089109623e+000	 3.0718813162e+000	-6.2397324439e-001
 2.9769418421e+000	 3.1028724222e+000	-5.9102815167e-001
 2.9446570169e+000	 3.1335275733e+000	-5.6367710069e-001
 2.9120618043e+000	 3.1638419758e+000	-5.6300022910e-001
 2.8791616184e+000	 3.1938109485e+000	-5.6592326003e-001
 2.8459619666e+000	 3.2234299255e+000	-5.7240093029e-001
 2.8124684466e+000	 3.2526944579e+000	-5.8240370586e-001
 2.7786867434e+000	 3.2816002166e+000	-5.9591748586e-001
 2.7446226258e+000	 3.3101429941e+000	-6.1294325060e-001
 2.7102819435e+000	 3.3383187065e+000	-6.3349665514e-001
 3.0582368286e+000	 3.0582368286e+000	-6.5540494147e-001
 3.0264046307e+000	 3.0897410913e+000	-6.2556294466e-001
 2.9942496435e+000	 3.1209123782e+000	-5.9089747708e-001
 2.9617771158e+000	 3.1517457569e+000	-5.8214301266e-001
 2.9289923962e+000	 3.1822364059e+000	-5.8044289274e-001
 2.8959009301e+000	 3.2123796169e+000	-5.8155950099e-001
 2.8625082571e+000	 3.2421707971e+000	-5.8546223802e-001
 2.8288200074e+000	 3.2716054722e+000	-5.9213742397e-001
 2.7948418989e+000	 3.3006792877e+000	-6.0158797812e-001
 2.7605797341e+000	 3.3293880115e+000	-6.1383304037e-001
 2.7260393967e+000	 3.3577275362e+000	-6.2890753604e-001
 3.0759144982e+000	 3.0759144982e+000	-6.5413995963e-001
 3.0438982991e+000	 3.1076008664e+000	-6.2352962765e-001
 3.0115574449e+000	 3.1389523341e+000	-6.0145384925e-001
 2.9788972147e+000	 3.1699639405e+000	-5.9681329022e-001
 2.9459229881e+000	 3.2006308360e+000	-5.9424156772e-001
 2.9126402419e+000	 3.2309482852e+000	-5.9370433311e-001
 2.8790545476e+000	 3.2609116688e+000	-5.9518563748e-001
 2.8451715681e+000	 3.2905164865e+000	-5.9868764844e-001
 2.8109970544e+000	 3.3197583587e+000	-6.0423030513e-001
 2.7765368424e+000	 3.3486330290e+000	-6.1185091304e-001
 2.7417968498e+000	 3.3771363659e+000	-6.2160368004e-001
 3.0935921677e+000	 3.0935921677e+000	-6.4915028838e-001
 3.0613919675e+000	 3.1254606415e+000	-6.1834771442e-001
 3.0288652463e+000	 3.1569922901e+000	-6.1246386174e-001
 2.9960173137e+000	 3.1881821241e+000	-6.0789470356e-001
 2.9628535800e+000	 3.2190252661e+000	-6.0459943879e-001
 2.9293795536e+000	 3.2495169535e+000	-6.0255713244e-001
 2.8956008381e+000	 3.2796525405e+000	-6.0176647525e-001
 2.8615231289e+000	 3.3094275008e+000	-6.0224547802e-001
 2.8271522099e+000	 3.3388374297e+000	-6.0403110217e-001
 2.7924939507e+000	 3.3678780464e+000	-6.0717882771e-001
 2.7575543030e+000	 3.3965451956e+000	-6.1176216034e-001
 3.1112698372e+000	 3.1112698372e+000	-6.4050908415e-001
 3.0788856359e+000	 3.1433204166e+000	-6.2480885139e-001
 3.0461730477e+000	 3.1750322460e+000	-6.1994702057e-001
 3.0131374126e+000	 3.2064003076e+000	-6.1559330211e-001
 2.9797841718e+000	 3.2374196962e+000	-6.1171904008e-001
 2.9461188654e+000	 3.2680856218e+000	-6.0831669764e-001
 2.9121471286e+000	 3.2983934121e+000	-6.0539959651e-001
 2.8778746896e+000	 3.3283385151e+000	-6.0300158903e-001
 2.8433073654e+000	 3.3579165007e+000	-6.0117666395e-001
 2.8084510590e+000	 3.3871230638e+000	-5.9999848753e-001
 2.7733117562e+000	 3.4159540253e+000	-5.9955988163e-001
 3.1289475068e+000	 3.1289475068e+000	-6.2897630568e-001
 3.0963793042e+000	 3.1611801917e+000	-6.2781120751e-001
 3.0634808491e+000	 3.1930722020e+000	-6.2411190245e-001
 3.0302575116e+000	 3.2246184912e+000	-6.2011443493e-001
 2.9967147637e+000	 3.2558141263e+000	-6.1580227358e-001
 2.9628581771e+000	 3.2866542901e+000	-6.1118126622e-001
 2.9286934191e+000	 3.3171342838e+000	-6.0627935930e-001
 2.8942262503e+000	 3.3472495294e+000	-6.0114624738e-001
 2.8594625209e+000	 3.3769955718e+000	-5.9585295423e-001
 2.8244081673e+000	 3.4063680812e+000	-5.9049134695e-001
 2.7890692093e+000	 3.4353628550e+000	-5.8517358480e-001
 3.1466251763e+000	 3.1466251763e+000	-6.1800655869e-001
 3.1138729726e+000	 3.1790399668e+000	-6.2756556107e-001
 3.0807886506e+000	 3.2111121579e+000	-6.2516633992e-001
 3.0473776105e+000	 3.2428366748e+000	-6.2166277035e-001
 3.0136453556e+000	 3.2742085564e+000	-6.1705042678e-001
 2.9795974888e+000	 3.3052229584e+000	-6.1134853035e-001
 2.9452397096e+000	 3.3358751555e+000	-6.0459964810e-001
 2.9105778111e+000	 3.3661605437e+000	-5.9686932000e-001
 2.8756176763e+000	 3.3960746428e+000	-5.8824561513e-001
 2.8403652756e+000	 3.4256130986e+000	-5.7883861869e-001
 2.8048266625e+000	 3.4547716847e+000	-5.6877985154e-001
 3.1643028458e+000	 3.1643028458e+000	-6.0629878198e-001
 3.1313666410e+000	 3.1968997419e+000	-6.2197129484e-001
 3.0980964520e+000	 3.2291521139e+000	-6.2331744217e-001
 3.0644977094e+000	 3.2610548583e+000	-6.2044231500e-001
 3.0305759475e+000	 3.2926029865e+000	-6.1566418994e-001
 2.9963368006e+000	 3.3237916267e+000	-6.0901565206e-001
 2.9617860002e+000	 3.3546160271e+000	-6.0055388714e-001
 2.9269293718e+000	 3.3850715580e+000	-5.9036028608e-001
 2.8917728318e+000	 3.4151537138e+000	-5.7853997609e-001
 2.8563223839e+000	 3.4448581160e+000	-5.6522128048e-001
 2.8205841157e+000	 3.4741805144e+000	-5.5055510882e-001
 3.1819805154e+000	 3.1819805154e+000	-5.9386102963e-001
 3.1488603094e+000	 3.2147595170e+000	-6.1100658656e-001
 3.1154042534e+000	 3.2471920698e+000	-6.1877161511e-001
 3.0816178084e+000	 3.2792730419e+000	-6.1665643221e-001
 3.0475065394e+000	 3.3109974166e+000	-6.1184367261e-001
 3.0130761123e+000	 3.3423602950e+000	-6.0437927799e-001
 2.9783322907e+000	 3.3733568988e+000	-5.9433505315e-001
 2.9432809326e+000	 3.4039825722e+000	-5.8180824778e-001
 2.9079279873e+000	 3.4342327849e+000	-5.6692106256e-001
 2.8722794922e+000	 3.4641031334e+000	-5.4982008164e-001
 2.8363415688e+000	 3.4935893441e+000	-5.3067563315e-001
 2.6787670372e+000	 3.2995010472e+000	-6.3382151723e-001
 2.6445581744e+000	 3.3269824258e+000	-6.2299121508e-001
 2.6100877523e+000	 3.3540933089e+000	-6.2798805214e-001
 2.5753617721e+000	 3.3808300376e+000	-6.4882450236e-001
 2.5403863013e+000	 3.4071890820e+000	-6.8551394782e-001
 2.5051674705e+000	 3.4331670430e+000	-7.3807015640e-001
 2.4697114697e+000	 3.4587606532e+000	-6.4690268732e-001
 2.4340245451e+000	 3.4839667785e+000	-5.4634291227e-001
 2.3981129948e+000	 3.5087824190e+000	-4.6282991420e-001
 2.3619831663e+000	 3.5332047099e+000	-3.9524634763e-001
 2.3256414519e+000	 3.5572309227e+000	-3.4245470135e-001
 2.6945244904e+000	 3.3189098769e+000	-6.3519379063e-001
 2.6601143990e+000	 3.3465529107e+000	-6.1869673480e-001
 2.6254412097e+000	 3.3738232696e+000	-6.1776825468e-001
 2.5905109590e+000	 3.4007172731e+000	-6.3246216652e-001
 2.5553297501e+000	 3.4272313707e+000	-6.6283365553e-001
 2.5199037497e+000	 3.4533621432e+000	-7.0893869831e-001
 2.4842391843e+000	 3.4791063041e+000	-6.8911597254e-001
 2.4483423365e+000	 3.5044607008e+000	-5.8329547662e-001
 2.4122195419e+000	 3.5294223156e+000	-4.9479756879e-001
 2.3758771849e+000	 3.5539882670e+000	-4.2251288986e-001
 2.3393216957e+000	 3.5781558105e+000	-3.6531132970e-001
 2.7102819435e+000	 3.3383187065e+000	-6.3349665514e-001
 2.6756706236e+000	 3.3661233956e+000	-6.1186644250e-001
 2.6407946671e+000	 3.3935532302e+000	-6.0554283322e-001
 2.6056601459e+000	 3.4206045086e+000	-6.1462084491e-001
 2.5702731989e+000	 3.4472736594e+000	-6.3919733394e-001
 2.5346400289e+000	 3.4735572435e+000	-6.7937036247e-001
 2.4987668988e+000	 3.4994519550e+000	-7.2895970546e-001
 2.4626601279e+000	 3.5249546230e+000	-6.1868049481e-001
 2.4263260889e+000	 3.5500622122e+000	-5.2600770466e-001
 2.3897712035e+000	 3.5747718241e+000	-4.4983922777e-001
 2.3530019396e+000	 3.5990806982e+000	-3.8905161455e-001
 2.7260393967e+000	 3.3577275362e+000	-6.2890753604e-001
 2.6912268481e+000	 3.3856938804e+000	-6.0266615341e-001
 2.6561481244e+000	 3.4132831908e+000	-5.9146586747e-001
 2.6208093328e+000	 3.4404917441e+000	-5.9544276274e-001
 2.5852166478e+000	 3.4673159481e+000	-6.1473524129e-001
 2.5493763082e+000	 3.4937523437e+000	-6.4948333449e-001
 2.5132946133e+000	 3.5197976059e+000	-6.9982798548e-001
 2.4769779194e+000	 3.5454485452e+000	-6.5223261437e-001
 2.4404326359e+000	 3.5707021087e+000	-5.5618735516e-001
 2.4036652222e+000	 3.5955553812e+000	-4.7694485262e-001
 2.3666821834e+000	 3.6200055860e+000	-4.1338757866e-001
 2.7417968498e+000	 3.3771363659e+000	-6.2160368004e-001
 2.7067830727e+000	 3.4052643653e+000	-5.9126174514e-001
 2.6715015818e+000	 3.4330131515e+000	-5.7569174142e-001
 2.6359585197e+000	 3.4603789796e+000	-5.7507069217e-001
 2.6001600966e+000	 3.4873582368e+000	-5.8957842623e-001
 2.5641125874e+000	 3.5139474440e+000	-6.1939683423e-001
 2.5278223278e+000	 3.5401432568e+000	-6.6470909487e-001
 2.4912957108e+000	 3.5659424674e+000	-6.8368800625e-001
 2.4545391829e+000	 3.5913420053e+000	-5.8506532197e-001
 2.4175592408e+000	 3.6163389384e+000	-5.0355126903e-001
 2.3803624272e+000	 3.6409304738e+000	-4.3803350311e-001
 2.7575543030e+000	 3.3965451956e+000	-6.1176216034e-001
 2.7223392972e+000	 3.4248348501e+000	-5.7781915594e-001
 2.6868550392e+000	 3.4527431121e+000	-5.5837513466e-001
 2.6511077066e+000	 3.4802662151e+000	-5.5364793675e-001
 2.6151035454e+000	 3.5074005255e+000	-5.6385870515e-001
 2.5788488667e+000	 3.5341425442e+000	-5.8923108634e-001
 2.5423500424e+000	 3.5604889077e+000	-6.2999040014e-001
 2.5056135023e+000	 3.5864363897e+000	-6.8636278140e-001
 2.4686457300e+000	 3.6119819019e+000	-6.1237212456e-001
 2.4314532594e+000	 3.6371224955e+000	-5.2938193745e-001
 2.3940426711e+000	 3.6618553616e+000	-4.6270586280e-001
 2.7733117562e+000	 3.4159540253e+000	-5.9955988163e-001
 2.7378955218e+000	 3.4444053350e+000	-5.6250438294e-001
 2.7022084965e+000	 3.4724730728e+000	-5.3967101401e-001
 2.6662568934e+000	 3.5001534506e+000	-5.3131831628e-001
 2.6300469942e+000	 3.5274428143e+000	-5.3770864045e-001
 2.5935851459e+000	 3.5543376445e+000	-5.5910729167e-001
 2.5568777569e+000	 3.5808345586e+000	-5.9578164289e-001
 2.5199312937e+000	 3.6069303119e+000	-6.4800021932e-001
 2.4827522770e+000	 3.6326217985e+000	-6.3783995142e-001
 2.4453472780e+000	 3.6579060526e+000	-5.5416221857e-001
 2.4077229149e+000	 3.6827802494e+000	-4.8712326415e-001
 2.7890692093e+000	 3.4353628550e+000	-5.8517358480e-001
 2.7534517463e+000	 3.4639758198e+000	-5.4548348052e-001
 2.7175619539e+000	 3.4922030334e+000	-5.1973462534e-001
 2.6814060803e+000	 3.5200406862e+000	-5.0822615225e-001
 2.6449904431e+000	 3.5474851030e+000	-5.1126151941e-001
 2.6083214251e+000	 3.5745327447e+000	-5.2914759970e-001
 2.5714054714e+000	 3.6011802095e+000	-5.6219373751e-001
 2.5342490851e+000	 3.6274242341e+000	-6.1071077576e-001
 2.4968588240e+000	 3.6532616951e+000	-6.6120261289e-001
 2.4592412967e+000	 3.6786896097e+000	-5.7761931968e-001
 2.4214031587e+000	 3.7037051371e+000	-5.1100638482e-001
 2.8048266625e+000	 3.4547716847e+000	-5.6877985154e-001
 2.7690079709e+000	 3.4835463047e+000	-5.2692255866e-001
 2.7329154113e+000	 3.5119329941e+000	-4.9872148582e-001
 2.6965552672e+000	 3.5399279217e+000	-4.8451625376e-001
 2.6599338919e+000	 3.5675273917e+000	-4.8465133386e-001
 2.6230577044e+000	 3.5947278450e+000	-4.9947508192e-001
 2.5859331860e+000	 3.6215258604e+000	-5.2933873820e-001
 2.5485668766e+000	 3.6479181564e+000	-5.7459539703e-001
 2.5109653711e+000	 3.6739015917e+000	-6.3559894897e-001
 2.4731353153e+000	 3.6994731668e+000	-5.9948224277e-001
 2.4350834026e+000	 3.7246300249e+000	-5.3407791562e-001
 2.8205841157e+000	 3.4741805144e+000	-5.5055510882e-001
 2.7845641955e+000	 3.5031167896e+000	-5.0698778142e-001
 2.7482688687e+000	 3.5316629547e+000	-4.7678737624e-001
 2.7117044541e+000	 3.5598151572e+000	-4.6033390385e-001
 2.6748773408e+000	 3.5875696804e+000	-4.5801276049e-001
 2.6377939836e+000	 3.6149229452e+000	-4.7021370602e-001
 2.6004609005e+000	 3.6418715113e+000	-4.9732980717e-001
 2.5628846680e+000	 3.6684120786e+000	-5.3975634945e-001
 2.5250719181e+000	 3.6945414883e+000	-5.9788972102e-001
 2.4870293339e+000	 3.7202567240e+000	-6.1948173442e-001
 2.4487636464e+000	 3.7455549127e+000	-5.5606250418e-001
 2.8363415688e+000	 3.4935893441e+000	-5.3067563315e-001
 2.8001204200e+000	 3.5226872744e+000	-4.8584536543e-001
 2.7636223260e+000	 3.5513929153e+000	-4.5408833379e-001
 2.7268536410e+000	 3.5797023927e+000	-4.3582484638e-001
 2.6898207896e+000	 3.6076119692e+000	-4.3148114180e-001
 2.6525302629e+000	 3.6351180455e+000	-4.4148831104e-001
 2.6149886150e+000	 3.6622171622e+000	-4.6628118384e-001
 2.5772024595e+000	 3.6889060008e+000	-5.0629718273e-001
 2.5391784651e+000	 3.7151813848e+000	-5.6197514848e-001
 2.5009233526e+000	 3.7410402811e+000	-6.3375414026e-001
 2.4624438902e+000	 3.7664798005e+000	-5.2515412383e-001
 2.3256414519e+000	 3.5572309227e+000	-3.4245470135e-001
 2.2890942857e+000	 3.5808584657e+000	-3.2661412563e-001
 2.2523481398e+000	 3.6040848849e+000	-3.2225200575e-001
 2.2154095206e+000	 3.6269078643e+000	-3.2858689228e-001
 2.1782849654e+000	 3.6493252266e+000	-3.4482637371e-001
 2.1409810384e+000	 3.6713349334e+000	-3.7016932888e-001
 2.1035043275e+000	 3.6929350853e+000	-4.0380817679e-001
 2.0658614403e+000	 3.7141239222e+000	-4.4493111774e-001
 2.0280590008e+000	 3.7348998232e+000	-4.9272435988e-001
 1.9901036456e+000	 3.7552613065e+000	-5.2180008541e-001
 1.9520020205e+000	 3.7752070290e+000	-4.8751406736e-001
 2.3393216957e+000	 3.5781558105e+000	-3.6531132970e-001
 2.3025595462e+000	 3.6019223390e+000	-3.5278152226e-001
 2.2655972465e+000	 3.6252853842e+000	-3.5301589643e-001
 2.2284413413e+000	 3.6482426164e+000	-3.6517265311e-001
 2.1910984063e+000	 3.6707918456e+000	-3.8839809113e-001
 2.1535750445e+000	 3.6929310213e+000	-4.2182895523e-001
 2.1158778823e+000	 3.7146582329e+000	-4.6459478175e-001
 2.0780135664e+000	 3.7359717100e+000	-5.1582023582e-001
 2.0399887596e+000	 3.7568698222e+000	-5.4265602095e-001
 2.0018101376e+000	 3.7773510788e+000	-5.1242927224e-001
 1.9634843853e+000	 3.7974141292e+000	-4.9002905524e-001
 2.3530019396e+000	 3.5990806982e+000	-3.8905161455e-001
 2.3160248067e+000	 3.6229862123e+000	-3.7949231384e-001
 2.2788463532e+000	 3.6464858835e+000	-3.8397753626e-001
 2.2414731620e+000	 3.6695773686e+000	-4.0160497290e-001
 2.2039118473e+000	 3.6922584646e+000	-4.3145947382e-001
 2.1661690506e+000	 3.7145271091e+000	-4.7261549205e-001
 2.1282514372e+000	 3.7363813804e+000	-5.2413952556e-001
 2.0901656925e+000	 3.7578194978e+000	-5.4910584961e-001
 2.0519185184e+000	 3.7788398211e+000	-5.2071699870e-001
 2.0135166297e+000	 3.7994408512e+000	-5.0092890557e-001
 1.9749667502e+000	 3.8196212294e+000	-4.8971869504e-001
 2.3666821834e+000	 3.6200055860e+000	-4.1338757866e-001
 2.3294900672e+000	 3.6440500857e+000	-4.0647141718e-001
 2.2920954599e+000	 3.6676863828e+000	-4.1487499322e-001
 2.2545049827e+000	 3.6909121207e+000	-4.3763531887e-001
 2.2167252883e+000	 3.7137250836e+000	-4.7377562711e-001
 2.1787630567e+000	 3.7361231969e+000	-5.2230791224e-001
 2.1406249920e+000	 3.7581045280e+000	-5.4564034261e-001
 2.1023178186e+000	 3.7796672856e+000	-5.1681286236e-001
 2.0638482773e+000	 3.8008098201e+000	-4.9741445452e-001
 2.0252231217e+000	 3.8215306236e+000	-4.8739013714e-001
 1.9864491150e+000	 3.8418283295e+000	-4.8668379546e-001
 2.3803624272e+000	 3.6409304738e+000	-4.3803350311e-001
 2.3429553277e+000	 3.6651139590e+000	-4.3344578590e-001
 2.3053445666e+000	 3.6888868821e+000	-4.4544814618e-001
 2.2675368034e+000	 3.7122468729e+000	-4.7301673890e-001
 2.2295387292e+000	 3.7351917025e+000	-5.1511300253e-001
 2.1913570628e+000	 3.7577192848e+000	-5.3677262191e-001
 2.1529985469e+000	 3.7798276756e+000	-5.0517754600e-001
 2.1144699447e+000	 3.8015150733e+000	-4.8389229090e-001
 2.0757780361e+000	 3.8227798190e+000	-4.7283035767e-001
 2.0369296137e+000	 3.8436203960e+000	-4.7190423485e-001
 1.9979314798e+000	 3.8640354297e+000	-4.8102502464e-001
 2.3940426711e+000	 3.6618553616e+000	-4.6270586280e-001
 2.3564205882e+000	 3.6861778323e+000	-4.6014435223e-001
 2.3185936733e+000	 3.7100873815e+000	-4.7543863315e-001
 2.2805686241e+000	 3.7335816250e+000	-5.0750381634e-001
 2.2423521702e+000	 3.7566583215e+000	-5.2703493291e-001
 2.2039510689e+000	 3.7793153726e+000	-4.9029362489e-001
 2.1653721018e+000	 3.8015508231e+000	-4.6479360613e-001
 2.1266220709e+000	 3.8233628611e+000	-4.5041751328e-001
 2.0877077949e+000	 3.8447498180e+000	-4.4704703632e-001
 2.0486361058e+000	 3.8657101684e+000	-4.5456257941e-001
 2.0094138446e+000	 3.8862425299e+000	-4.7284291417e-001
 2.4077229149e+000	 3.6827802494e+000	-4.8712326415e-001
 2.3698858487e+000	 3.7072417056e+000	-4.8629797082e-001
 2.3318427800e+000	 3.7312878808e+000	-5.0458980127e-001
 2.2936004448e+000	 3.7549163771e+000	-5.2097535324e-001
 2.2551656112e+000	 3.7781249405e+000	-4.7666232366e-001
 2.2165450750e+000	 3.8009114605e+000	-4.4457100178e-001
 2.1777456566e+000	 3.8232739707e+000	-4.2455387428e-001
 2.1387741970e+000	 3.8452106489e+000	-4.1646249208e-001
 2.0996375537e+000	 3.8667198170e+000	-4.2014716738e-001
 2.0603425978e+000	 3.8877999408e+000	-4.3545666117e-001
 2.0208962095e+000	 3.9084496300e+000	-4.6223786296e-001
 2.4214031587e+000	 3.7037051371e+000	-5.1100638482e-001
 2.3833511092e+000	 3.7283055790e+000	-5.1163936443e-001
 2.3450918867e+000	 3.7524883801e+000	-5.2315444570e-001
 2.3066322655e+000	 3.7762511293e+000	-4.6880021271e-001
 2.2679790521e+000	 3.7995915595e+000	-4.2769523205e-001
 2.2291390811e+000	 3.8225075483e+000	-3.9966261567e-001
 2.1901192115e+000	 3.8449971182e+000	-3.8452449550e-001
 2.1509263231e+000	 3.8670584367e+000	-3.8210175783e-001
 2.1115673126e+000	 3.8886898159e+000	-3.9221376662e-001
 2.0720490898e+000	 3.9098897132e+000	-4.1467807702e-001
 2.0323785743e+000	 3.9306567302e+000	-4.4931014101e-001
 2.4350834026e+000	 3.7246300249e+000	-5.3407791562e-001
 2.3968163697e+000	 3.7493694523e+000	-5.3590307144e-001
 2.3583409934e+000	 3.7736888794e+000	-4.7123585189e-001
 2.3196640863e+000	 3.7975858814e+000	-4.1865188899e-001
 2.2807924931e+000	 3.8210581785e+000	-3.8018454660e-001
 2.2417330872e+000	 3.8441036362e+000	-3.5562731715e-001
 2.2024927664e+000	 3.8667202658e+000	-3.4477238628e-001
 2.1630784492e+000	 3.8889062245e+000	-3.4741039312e-001
 2.1234970714e+000	 3.9106598149e+000	-3.6333017917e-001
 2.0837555818e+000	 3.9319794856e+000	-3.9231852736e-001
 2.0438609391e+000	 3.9528638304e+000	-4.3415989301e-001
 2.4487636464e+000	 3.7455549127e+000	-5.5606250418e-001
 2.4102816302e+000	 3.7704333256e+000	-4.8850638944e-001
 2.3715901001e+000	 3.7948893788e+000	-4.2193803838e-001
 2.3326959070e+000	 3.8189206336e+000	-3.7057478573e-001
 2.2936059341e+000	 3.8425247975e+000	-3.3418232238e-001
 2.2543270933e+000	 3.8656997240e+000	-3.1252491669e-001
 2.2148663212e+000	 3.8884434134e+000	-3.0536521301e-001
 2.1752305753e+000	 3.9107540122e+000	-3.1246401713e-001
 2.1354268302e+000	 3.9326298139e+000	-3.3358007031e-001
 2.0954620739e+000	 3.9540692580e+000	-3.6846981326e-001
 2.0553433039e+000	 3.9750709306e+000	-4.1688714184e-001
 2.4624438902e+000	 3.7664798005e+000	-5.2515412383e-001
 2.4237468907e+000	 3.7914971990e+000	-4.4205881400e-001
 2.3848392068e+000	 3.8160898781e+000	-3.7529939055e-001
 2.3457277277e+000	 3.8402553857e+000	-3.2461463820e-001
 2.3064193751e+000	 3.8639914164e+000	-2.8974174856e-001
 2.2669210994e+000	 3.8872958119e+000	-2.7041615804e-001
 2.2272398761e+000	 3.9101665609e+000	-2.6637137115e-001
 2.1873827014e+000	 3.9326018000e+000	-2.7733877076e-001
 2.1473565890e+000	 3.9545998128e+000	-3.0304741658e-001
 2.1071685659e+000	 3.9761590304e+000	-3.4322383361e-001
 2.0668256687e+000	 3.9972780307e+000	-3.9759179197e-001
 1.9520020205e+000	 3.7752070290e+000	-4.8751406736e-001
 1.9137607768e+000	 3.7947357865e+000	-3.9198245338e-001
 1.8753865680e+000	 3.8138465125e+000	-2.9827614425e-001
 1.8368860459e+000	 3.8325382783e+000	-2.9071986860e-001
 1.7982658577e+000	 3.8508102920e+000	-2.7942037308e-001
 1.7595326423e+000	 3.8686618980e+000	-2.6440538481e-001
 1.7206930268e+000	 3.8860925758e+000	-2.4656466399e-001
 1.6817536235e+000	 3.9031019395e+000	-2.2675661648e-001
 1.6427210263e+000	 3.9196897364e+000	-2.0580705158e-001
 1.6036018077e+000	 3.9358558462e+000	-1.8450803081e-001
 1.5644025157e+000	 3.9516002795e+000	-1.6361680893e-001
 1.9634843853e+000	 3.7974141292e+000	-4.9002905524e-001
 1.9250181932e+000	 3.8170577617e+000	-4.0600279366e-001
 1.8864182537e+000	 3.8362809037e+000	-3.2265885341e-001
 1.8476912579e+000	 3.8550826211e+000	-2.9722120966e-001
 1.8088438922e+000	 3.8734621172e+000	-2.9111234001e-001
 1.7698828343e+000	 3.8914187326e+000	-2.8030353959e-001
 1.7308147505e+000	 3.9089519439e+000	-2.6570158755e-001
 1.6916462918e+000	 3.9260613627e+000	-2.4818227831e-001
 1.6523840911e+000	 3.9427467349e+000	-2.2858914292e-001
 1.6130347595e+000	 3.9590079395e+000	-2.0773226208e-001
 1.5736048834e+000	 3.9748449870e+000	-1.8638717214e-001
 1.9749667502e+000	 3.8196212294e+000	-4.8971869504e-001
 1.9362756095e+000	 3.8393797369e+000	-4.1693656030e-001
 1.8974499394e+000	 3.8587152950e+000	-3.4370409869e-001
 1.8584964700e+000	 3.8776269639e+000	-3.0271021010e-001
 1.8194219267e+000	 3.8961139425e+000	-3.0149161556e-001
 1.7802330263e+000	 3.9141755673e+000	-2.9460572461e-001
 1.7409364742e+000	 3.9318113120e+000	-2.8297664151e-001
 1.7015389602e+000	 3.9490207858e+000	-2.6749783741e-001
 1.6620471560e+000	 3.9658037333e+000	-2.4903083506e-001
 1.6224677113e+000	 3.9821600327e+000	-2.2840398587e-001
 1.5828072511e+000	 3.9980896946e+000	-2.0641134063e-001
 1.9864491150e+000	 3.8418283295e+000	-4.8668379546e-001
 1.9475330258e+000	 3.8617017121e+000	-4.2488659484e-001
 1.9084816251e+000	 3.8811496862e+000	-3.6151649089e-001
 1.8693016820e+000	 3.9001713067e+000	-3.0724511708e-001
 1.8299999611e+000	 3.9187657677e+000	-3.1061714321e-001
 1.7905832183e+000	 3.9369324020e+000	-3.0737138980e-001
 1.7510581979e+000	 3.9546706801e+000	-2.9844959477e-001
 1.7114316286e+000	 3.9719802090e+000	-2.8476319661e-001
 1.6717102208e+000	 3.9888607318e+000	-2.6719198222e-001
 1.6319006631e+000	 4.0053121259e+000	-2.4658282777e-001
 1.5920096189e+000	 4.0213344021e+000	-2.2374853396e-001
 1.9979314798e+000	 3.8640354297e+000	-4.8102502464e-001
 1.9587904422e+000	 3.8840236873e+000	-4.2995551586e-001
 1.9195133107e+000	 3.9035840775e+000	-3.7620034061e-001
 1.8801068940e+000	 3.9227156495e+000	-3.1981754319e-001
 1.8405779956e+000	 3.9414175930e+000	-3.1854742720e-001
 1.8009334104e+000	 3.9596892367e+000	-3.1865948414e-001
 1.7611799216e+000	 3.9775300482e+000	-3.1217965874e-001
 1.7213242970e+000	 3.9949396322e+000	-3.0003764987e-001
 1.6813732857e+000	 4.0119177302e+000	-2.8313178350e-001
 1.6413336149e+000	 4.0284642191e+000	-2.6232771716e-001
 1.6012119866e+000	 4.0445791096e+000	-2.3845723951e-001
 2.0094138446e+000	 3.8862425299e+000	-4.7284291417e-001
 1.9700478585e+000	 3.9063456625e+000	-4.3224572537e-001
 1.9305449964e+000	 3.9260184687e+000	-3.8785966684e-001
 1.8909121061e+000	 3.9452599923e+000	-3.3974251994e-001
 1.8511560300e+000	 3.9640694182e+000	-3.2534054517e-001
 1.8112836024e+000	 3.9824460714e+000	-3.2852847000e-001
 1.7713016452e+000	 4.0003894163e+000	-3.2422550325e-001
 1.7312169653e+000	 4.0178990554e+000	-3.1337989962e-001
 1.6910363506e+000	 4.0349747287e+000	-2.9690880157e-001
 1.6507665667e+000	 4.0516163123e+000	-2.7569690708e-001
 1.6104143544e+000	 4.0678238172e+000	-2.5059523346e-001
 2.0208962095e+000	 3.9084496300e+000	-4.6223786296e-001
 1.9813052748e+000	 3.9286676378e+000	-4.3185941492e-001
 1.9415766821e+000	 3.9484528600e+000	-3.9659820520e-001
 1.9017173181e+000	 3.9678043352e+000	-3.5651192330e-001
 1.8617340645e+000	 3.9867212435e+000	-3.3105416021e-001
 1.8216337944e+000	 4.0052029061e+000	-3.3703633695e-001
 1.7814233689e+000	 4.0232487843e+000	-3.3464527195e-001
 1.7411096337e+000	 4.0408584785e+000	-3.2484807362e-001
 1.7006994154e+000	 4.0580317271e+000	-3.0858098076e-001
 1.6601995186e+000	 4.0747684055e+000	-2.8674799349e-001
 1.6196167221e+000	 4.0910685247e+000	-2.6021960096e-001
 2.0323785743e+000	 3.9306567302e+000	-4.4931014101e-001
 1.9925626912e+000	 3.9509896130e+000	-4.2889857160e-001
 1.9526083678e+000	 3.9708872512e+000	-4.0251941599e-001
 1.9125225301e+000	 3.9903486780e+000	-3.7023044408e-001
 1.8723120989e+000	 4.0093730687e+000	-3.3574553259e-001
 1.8319839864e+000	 4.0279597408e+000	-3.4424061510e-001
 1.7915450926e+000	 4.0461081524e+000	-3.4349659716e-001
 1.7510023021e+000	 4.0638179017e+000	-3.3449974114e-001
 1.7103624803e+000	 4.0810887256e+000	-3.1820566454e-001
 1.6696324704e+000	 4.0979204987e+000	-2.9553793378e-001
 1.6288190898e+000	 4.1143132322e+000	-2.6738675562e-001
 2.0438609391e+000	 3.9528638304e+000	-4.3415989301e-001
 2.0038201075e+000	 3.9733115882e+000	-4.2346498370e-001
 1.9636400535e+000	 3.9933216425e+000	-4.0572649192e-001
 1.9233277422e+000	 4.0128930208e+000	-3.8100244122e-001
 1.8828901334e+000	 4.0320248940e+000	-3.4936147908e-001
 1.8423341784e+000	 4.0507165755e+000	-3.5019838805e-001
 1.8016668163e+000	 4.0689675205e+000	-3.5083661423e-001
 1.7608949704e+000	 4.0867773249e+000	-3.4239192868e-001
 1.7200255451e+000	 4.1041457241e+000	-3.2583961239e-001
 1.6790654222e+000	 4.1210725920e+000	-3.0212306474e-001
 1.6380214576e+000	 4.1375579397e+000	-2.7215245846e-001
 2.0553433039e+000	 3.9750709306e+000	-4.1688714184e-001
 2.0150775238e+000	 3.9956335634e+000	-4.1566024637e-001
 1.9746717392e+000	 4.0157560337e+000	-4.0632236556e-001
 1.9341329542e+000	 4.0354373636e+000	-3.8893195108e-001
 1.8934681678e+000	 4.0546767192e+000	-3.6355925731e-001
 1.8526843704e+000	 4.0734734102e+000	-3.5496630531e-001
 1.8117885400e+000	 4.0918268886e+000	-3.5672197545e-001
 1.7707876388e+000	 4.1097367481e+000	-3.4858113512e-001
 1.7296886100e+000	 4.1272027225e+000	-3.3153901611e-001
 1.6884983740e+000	 4.1442246852e+000	-3.0655911989e-001
 1.6472238253e+000	 4.1608026473e+000	-2.7457183603e-001
 2.0668256687e+000	 3.9972780307e+000	-3.9759179197e-001
 2.0263349401e+000	 4.0179555386e+000	-4.0558576689e-001
 1.9857034249e+000	 4.0381904250e+000	-4.0440971656e-001
 1.9449381662e+000	 4.0579817064e+000	-3.9412269640e-001
 1.9040462023e+000	 4.0773285445e+000	-3.7479673927e-001
 1.8630345624e+000	 4.0962302449e+000	-3.5860059441e-001
 1.8219102636e+000	 4.1146862567e+000	-3.6120886342e-001
 1.7806803072e+000	 4.1326961712e+000	-3.5312334640e-001
 1.7393516748e+000	 4.1502597210e+000	-3.3535951557e-001
 1.6979313258e+000	 4.1673767784e+000	-3.0890124623e-001
 1.6564261930e+000	 4.1840473548e+000	-2.7469939813e-001
 1.5644025157e+000	 3.9516002795e+000	-1.6361680893e-001
 1.5251296703e+000	 3.9669231766e+000	-1.8211658174e-001
 1.4857897608e+000	 3.9818248061e+000	-1.9107121631e-001
 1.4463892427e+000	 3.9963055637e+000	-1.9104563072e-001
 1.4069345349e+000	 4.0103659702e+000	-1.8257806685e-001
 1.3674320163e+000	 4.0240066701e+000	-1.6617940734e-001
 1.3278880237e+000	 4.0372284301e+000	-1.4233257332e-001
 1.2883088488e+000	 4.0500321369e+000	-1.1149200225e-001
 1.2487007353e+000	 4.0624187960e+000	-7.5965274180e-002
 1.2090698765e+000	 4.0743895290e+000	-9.6113742858e-002
 1.1694224131e+000	 4.0859455723e+000	-1.2170484066e-001
 1.5736048834e+000	 3.9748449870e+000	-1.8638717214e-001
 1.5341010213e+000	 3.9902580188e+000	-2.0121682474e-001
 1.4945297006e+000	 4.0052473050e+000	-2.0709938900e-001
 1.4548974148e+000	 4.0198132435e+000	-2.0462398319e-001
 1.4152106204e+000	 4.0339563582e+000	-1.9435181424e-001
 1.3754757340e+000	 4.0476772976e+000	-1.7681547929e-001
 1.3356991298e+000	 4.0609768326e+000	-1.5251835010e-001
 1.2958871362e+000	 4.0738558554e+000	-1.2193404022e-001
 1.2560460337e+000	 4.0863153771e+000	-8.5505954269e-002
 1.2161820523e+000	 4.0983565262e+000	-9.7684060168e-002
 1.1763013684e+000	 4.1099805463e+000	-1.2398658741e-001
 1.5828072511e+000	 3.9980896946e+000	-2.0641134063e-001
 1.5430723723e+000	 4.0135928610e+000	-2.1771704430e-001
 1.5032696403e+000	 4.0286698039e+000	-2.2067503693e-001
 1.4634055868e+000	 4.0433209233e+000	-2.1589878888e-001
 1.4234867059e+000	 4.0575467463e+000	-2.0397261595e-001
 1.3835194518e+000	 4.0713479250e+000	-1.8545096509e-001
 1.3435102358e+000	 4.0847252351e+000	-1.6085778560e-001
 1.3034654235e+000	 4.0976795738e+000	-1.3068598546e-001
 1.2633913321e+000	 4.1102119583e+000	-9.5396972076e-002
 1.2232942280e+000	 4.1223235234e+000	-9.7824026116e-002
 1.1831803238e+000	 4.1340155202e+000	-1.2496862229e-001
 1.5920096189e+000	 4.0213344021e+000	-2.2374853396e-001
 1.5520437233e+000	 4.0369277032e+000	-2.3167030883e-001
 1.5120095801e+000	 4.0520923027e+000	-2.3184520884e-001
 1.4719137588e+000	 4.0668286031e+000	-2.2491121156e-001
 1.4317627914e+000	 4.0811371344e+000	-2.1147588840e-001
 1.3915631695e+000	 4.0950185525e+000	-1.9211567438e-001
 1.3513213418e+000	 4.1084736377e+000	-1.6737522600e-001
 1.3110437108e+000	 4.1215032923e+000	-1.3776686650e-001
 1.2707366306e+000	 4.1341085394e+000	-1.0377011812e-001
 1.2304064038e+000	 4.1462905207e+000	-9.6648019226e-002
 1.1900592792e+000	 4.1580504942e+000	-1.2476034570e-001
 1.6012119866e+000	 4.0445791096e+000	-2.3845723951e-001
 1.5610150743e+000	 4.0602625455e+000	-2.4312905184e-001
 1.5207495199e+000	 4.0755148016e+000	-2.4065641397e-001
 1.4804219308e+000	 4.0903362829e+000	-2.3170196894e-001
 1.4400388769e+000	 4.1047275224e+000	-2.1689669351e-001
 1.3996068873e+000	 4.1186891800e+000	-1.9683915193e-001
 1.3591324478e+000	 4.1322220402e+000	-1.7209484017e-001
 1.3186219982e+000	 4.1453270108e+000	-1.4319562018e-001
 1.2780819290e+000	 4.1580051206e+000	-1.1063924348e-001
 1.2375185795e+000	 4.1702575179e+000	-9.4270491439e-002
 1.1969382346e+000	 4.1820854681e+000	-1.2347131091e-001
 1.6104143544e+000	 4.0678238172e+000	-2.5059523346e-001
 1.5699864253e+000	 4.0835973877e+000	-2.5214509007e-001
 1.5294894596e+000	 4.0989373005e+000	-2.4715463743e-001
 1.4889301028e+000	 4.1138439627e+000	-2.3631134541e-001
 1.4483149624e+000	 4.1283179105e+000	-2.2026974885e-001
 1.4076506050e+000	 4.1423598075e+000	-1.9965068513e-001
 1.3669435539e+000	 4.1559704427e+000	-1.7504062475e-001
 1.3262002855e+000	 4.1691507292e+000	-1.4699109428e-001
 1.2854272275e+000	 4.1819017017e+000	-1.1601819134e-001
 1.2446307552e+000	 4.1942245151e+000	-9.0805966022e-002
 1.2038171899e+000	 4.2061204421e+000	-1.2121121972e-001
 1.6196167221e+000	 4.0910685247e+000	-2.6021960096e-001
 1.5789577763e+000	 4.1069322299e+000	-2.5876964103e-001
 1.5382293994e+000	 4.1223597993e+000	-2.5138535512e-001
 1.4974382748e+000	 4.1373516424e+000	-2.3877920438e-001
 1.4565910479e+000	 4.1519082985e+000	-2.2162943738e-001
 1.4156943227e+000	 4.1660304349e+000	-2.0057931140e-001
 1.3747546599e+000	 4.1797188453e+000	-1.7623640906e-001
 1.3337785729e+000	 4.1929744477e+000	-1.4917205006e-001
 1.2927725259e+000	 4.2057982829e+000	-1.1992079724e-001
 1.2517429310e+000	 4.2181915124e+000	-8.8980056026e-002
 1.2106961453e+000	 4.2301554161e+000	-1.1808991819e-001
 1.6288190898e+000	 4.1143132322e+000	-2.6738675562e-001
 1.5879291273e+000	 4.1302670721e+000	-2.6305333989e-001
 1.5469693392e+000	 4.1457822982e+000	-2.5339354810e-001
 1.5059464469e+000	 4.1608593222e+000	-2.3914500015e-001
 1.4648671334e+000	 4.1754986866e+000	-2.2100981696e-001
 1.4237380405e+000	 4.1897010624e+000	-1.9965382516e-001
 1.3825657659e+000	 4.2034672478e+000	-1.7570585981e-001
 1.3413568602e+000	 4.2167981661e+000	-1.4975716468e-001
 1.3001178244e+000	 4.2296948641e+000	-1.2236088931e-001
 1.2588551067e+000	 4.2421585096e+000	-9.4031682106e-002
 1.2175751007e+000	 4.2541903900e+000	-1.1421739260e-001
 1.6380214576e+000	 4.1375579397e+000	-2.7215245846e-001
 1.5969004783e+000	 4.1536019143e+000	-2.6504625589e-001
 1.5557092789e+000	 4.1692047970e+000	-2.5322371648e-001
 1.5144546189e+000	 4.1843670020e+000	-2.3744778941e-001
 1.4731432189e+000	 4.1990890747e+000	-2.1844462940e-001
 1.4317817582e+000	 4.2133716899e+000	-1.9690278470e-001
 1.3903768719e+000	 4.2272156503e+000	-1.7347248569e-001
 1.3489351476e+000	 4.2406218846e+000	-1.4876503356e-001
 1.3074631228e+000	 4.2535914452e+000	-1.2335228842e-001
 1.2659672825e+000	 4.2661255068e+000	-9.7766255791e-002
 1.2244540561e+000	 4.2782253640e+000	-1.0970376552e-001
 1.6472238253e+000	 4.1608026473e+000	-2.7457183603e-001
 1.6058718293e+000	 4.1769367565e+000	-2.6479790811e-001
 1.5644492187e+000	 4.1926272959e+000	-2.5091989287e-001
 1.5229627909e+000	 4.2078746818e+000	-2.3372624234e-001
 1.4814193044e+000	 4.2226794627e+000	-2.1396730937e-001
 1.4398254760e+000	 4.2370423173e+000	-1.9235451879e-001
 1.3981879779e+000	 4.2509640528e+000	-1.6955964175e-001
 1.3565134349e+000	 4.2644456030e+000	-1.4621417271e-001
 1.3148084213e+000	 4.2774880264e+000	-1.2290880845e-001
 1.2730794582e+000	 4.2900925040e+000	-1.0019302790e-001
 1.2313330114e+000	 4.3022603379e+000	-1.0465929195e-001
 1.6564261930e+000	 4.1840473548e+000	-2.7469939813e-001
 1.6148431803e+000	 4.2002715988e+000	-2.6235728075e-001
 1.5731891585e+000	 4.2160497947e+000	-2.4652565537e-001
 1.5314709629e+000	 4.2313823616e+000	-2.2801865337e-001
 1.4896953899e+000	 4.2462698508e+000	-2.0761099289e-001
 1.4478691937e+000	 4.2607129448e+000	-1.8603713301e-001
 1.4059990840e+000	 4.2747124554e+000	-1.6399053368e-001
 1.3640917223e+000	 4.2882693215e+000	-1.4212302088e-001
 1.3221537197e+000	 4.3013846075e+000	-1.2104425643e-001
 1.2801916340e+000	 4.3140595013e+000	-1.0132131111e-001
 1.2382119668e+000	 4.3262953119e+000	-9.9194355711e-002
 1.1694224131e+000	 4.0859455723e+000	-1.2170484066e-001
 1.1297644301e+000	 4.0970882749e+000	-9.7453219652e-002
 1.0901019551e+000	 4.1078190963e+000	-7.5304224539e-002
 1.0504409556e+000	 4.1181396041e+000	-5.4401870351e-002
 1.0107873370e+000	 4.1280514725e+000	-3.3969795655e-002
 9.7114694021e-001	 4.1375564794e+000	-1.3310018930e-002
 9.3152554013e-001	 4.1466565047e+000	 8.1984375239e-003
 8.9192884318e-001	 4.1553535275e+000	 3.1101048804e-002
 8.5236248567e-001	 4.1636496242e+000	 5.5869406277e-002
 8.1283203195e-001	 4.1715469658e+000	 8.2902946564e-002
 7.7334297274e-001	 4.1790478158e+000	 1.1253078303e-001
 1.1763013684e+000	 4.1099805463e+000	-1.2398658741e-001
 1.1364101032e+000	 4.1211887942e+000	-1.0126920466e-001
 1.0965143196e+000	 4.1319827380e+000	-8.0206824835e-002
 1.0566200201e+000	 4.1423639547e+000	-5.9947547577e-002
 1.0167331448e+000	 4.1523341282e+000	-3.9720560785e-002
 9.7685956928e-001	 4.1618950470e+000	-1.8834855370e-002
 9.3700510214e-001	 4.1710486018e+000	 3.3221944475e-003
 8.9717548344e-001	 4.1797967836e+000	 2.7286377813e-002
 8.5737638264e-001	 4.1881416808e+000	 5.3518313258e-002
 8.1761339685e-001	 4.1960854774e+000	 8.2405226380e-002
 7.7789204906e-001	 4.2036304500e+000	 1.1426283141e-001
 1.1831803238e+000	 4.1340155202e+000	-1.2496862229e-001
 1.1430557764e+000	 4.1452893135e+000	-1.0392995398e-001
 1.1029266840e+000	 4.1561463797e+000	-8.4079793779e-002
 1.0627990845e+000	 4.1665883053e+000	-6.4570326664e-002
 1.0226789527e+000	 4.1766167839e+000	-4.4636317339e-002
 9.8257219834e-001	 4.1862336145e+000	-2.3593782793e-002
 9.4248466414e-001	 4.1954406989e+000	-8.3852834786e-004
 9.0242212370e-001	 4.2042400396e+000	 2.4155445122e-002
 8.6239027962e-001	 4.2126337374e+000	 5.1837655053e-002
 8.2239476175e-001	 4.2206239889e+000	 8.2582964273e-002
 7.8244112537e-001	 4.2282130842e+000	 1.1669351338e-001
 1.1900592792e+000	 4.1580504942e+000	-1.2476034570e-001
 1.1497014495e+000	 4.1693898327e+000	-1.0553917572e-001
 1.1093390485e+000	 4.1803100215e+000	-8.7021002701e-002
 1.0689781490e+000	 4.1908126559e+000	-6.8362100754e-002
 1.0286247606e+000	 4.2008994397e+000	-4.8802842088e-002
 9.8828482740e-001	 4.2105721820e+000	-2.7666326766e-002
 9.4796422615e-001	 4.2198327960e+000	-4.3568738817e-003
 9.0766876395e-001	 4.2286832957e+000	 2.1641618005e-002
 8.6740417660e-001	 4.2371257940e+000	 5.0767433258e-002
 8.2717612664e-001	 4.2451625005e+000	 8.3382916367e-002
 7.8699020168e-001	 4.2527957184e+000	 1.1977645588e-001
 1.1969382346e+000	 4.1820854681e+000	-1.2347131091e-001
 1.1563471226e+000	 4.1934903520e+000	-1.0620082271e-001
 1.1157514129e+000	 4.2044736632e+000	-8.9128658814e-002
 1.0751572134e+000	 4.2150370066e+000	-7.1415189326e-002
 1.0345705684e+000	 4.2251820954e+000	-5.2306427850e-002
 9.9399745647e-001	 4.2349107496e+000	-3.1132617846e-002
 9.5344378815e-001	 4.2442248931e+000	-7.3066782957e-003
 9.1291540421e-001	 4.2531265517e+000	 1.9677483318e-002
 8.7241807358e-001	 4.2616178507e+000	 5.0246782622e-002
 8.3195749154e-001	 4.2697010121e+000	 8.4750886401e-002
 7.9153927800e-001	 4.2773783526e+000	 1.2346424884e-001
 1.2038171899e+000	 4.2061204421e+000	-1.2121121972e-001
 1.1629927957e+000	 4.2175908713e+000	-1.0601908550e-001
 1.1221637773e+000	 4.2286373050e+000	-9.0501295614e-002
 1.0813362778e+000	 4.2392613572e+000	-7.3822326013e-002
 1.0405163763e+000	 4.2494647511e+000	-5.5233868749e-002
 9.9971008553e-001	 4.2592493171e+000	-3.4073374294e-002
 9.5892335015e-001	 4.2686169902e+000	-9.7624510499e-003
 9.1816204446e-001	 4.2775698078e+000	 1.8194869794e-002
 8.7743197055e-001	 4.2861099073e+000	 5.0213995807e-002
 8.3673885643e-001	 4.2942395236e+000	 8.6631752939e-002
 7.9608835431e-001	 4.3019609868e+000	 1.2770847482e-001
 1.2106961453e+000	 4.2301554161e+000	-1.1808991819e-001
 1.1696384688e+000	 4.2416913905e+000	-1.0509838561e-001
 1.1285761418e+000	 4.2528009467e+000	-9.1237763608e-002
 1.0875153423e+000	 4.2634857078e+000	-7.5676646837e-002
 1.0464621842e+000	 4.2737474068e+000	-5.7672445973e-002
 1.0054227146e+000	 4.2835878846e+000	-3.6569885377e-002
 9.6440291215e-001	 4.2930090873e+000	-1.1799355795e-002
 9.2340868472e-001	 4.3020130638e+000	 1.7124869584e-002
 8.8244586753e-001	 4.3106019639e+000	 5.0606547319e-002
 8.4152022133e-001	 4.3187780352e+000	 8.8969495655e-002
 8.0063743062e-001	 4.3265436210e+000	 1.3245973764e-001
 1.2175751007e+000	 4.2541903900e+000	-1.1421739260e-001
 1.1762841420e+000	 4.2657919098e+000	-1.0354336901e-001
 1.1349885062e+000	 4.2769645885e+000	-9.1437221363e-002
 1.0936944067e+000	 4.2877100584e+000	-7.7071678842e-002
 1.0524079920e+000	 4.2980300625e+000	-5.9709914016e-002
 1.0111353436e+000	 4.3079264521e+000	-3.8703995238e-002
 9.6988247415e-001	 4.3174011843e+000	-1.3493191890e-002
 9.2865532497e-001	 4.3264563199e+000	 1.6397859061e-002
 8.8745976450e-001	 4.3350940205e+000	 5.1361116616e-002
 8.4630158622e-001	 4.3433165468e+000	 9.1707220723e-002
 8.0518650693e-001	 4.3511262553e+000	 1.3766768999e-001
 1.2244540561e+000	 4.2782253640e+000	-1.0970376552e-001
 1.1829298151e+000	 4.2898924291e+000	-1.0145889980e-001
 1.1414008707e+000	 4.3011282302e+000	-9.1199126851e-002
 1.0998734712e+000	 4.3119344090e+000	-7.8101329111e-002
 1.0583537999e+000	 4.3223127183e+000	-6.1434487378e-002
 1.0168479727e+000	 4.3322650197e+000	-4.0558087313e-002
 9.7536203615e-001	 4.3417932814e+000	-1.4920376551e-002
 9.3390196523e-001	 4.3508995759e+000	 1.5943518931e-002
 8.9247366148e-001	 4.3595860771e+000	 5.2413610438e-002
 8.5108295112e-001	 4.3678550583e+000	 9.4787185354e-002
 8.0973558324e-001	 4.3757088895e+000	 1.4237808566e-001
 1.2313330114e+000	 4.3022603379e+000	-1.0465929195e-001
 1.1895754882e+000	 4.3139929483e+000	-9.8950054127e-002
 1.1478132351e+000	 4.3252918719e+000	-9.0623229086e-002
 1.1060525356e+000	 4.3361587596e+000	-7.8859874147e-002
 1.0642996077e+000	 4.3465953740e+000	-6.2934827722e-002
 1.0225606018e+000	 4.3566035872e+000	-4.2215069263e-002
 9.8084159815e-001	 4.3661853785e+000	-1.6157927584e-002
 9.3914860548e-001	 4.3753428319e+000	 1.5208497035e-002
 8.9748755845e-001	 4.3840781337e+000	 4.1254613176e-002
 8.5586431601e-001	 4.3923935699e+000	 7.4535264787e-002
 8.1428465955e-001	 4.4002915237e+000	 1.1467179816e-001
 1.2382119668e+000	 4.3262953119e+000	-9.9194355711e-002
 1.1962211613e+000	 4.3380934676e+000	-9.6122114307e-002
 1.1542255995e+000	 4.3494555137e+000	-8.9809560038e-002
 1.1122316001e+000	 4.3603831102e+000	-7.9441949617e-002
 1.0702454156e+000	 4.3708780297e+000	-6.4300031450e-002
 1.0282732308e+000	 4.3809421547e+000	-5.3306397468e-002
 9.8632116015e-001	 4.3905774756e+000	-4.1108246120e-002
 9.4439524573e-001	 4.3997860880e+000	-2.1027253178e-002
 9.0250145542e-001	 4.4085701903e+000	 6.5651987921e-003
 8.6064568090e-001	 4.4169320814e+000	 4.1292924006e-002
 8.1883373586e-001	 4.4248741579e+000	 8.2774747830e-002
 7.7334297274e-001	 4.1790478158e+000	 1.1253078303e-001
 7.3390072346e-001	 4.1861545275e+000	 7.3222525220e-002
 6.9451062271e-001	 4.1928695419e+000	 3.9494709181e-002
 6.5517793079e-001	 4.1991953847e+000	 1.1465671595e-002
 6.1590782834e-001	 4.2051346646e+000	-2.8015638581e-003
 5.7670541504e-001	 4.2106900698e+000	 1.1864602119e-002
 5.3757570840e-001	 4.2158643666e+000	 2.6791499318e-002
 4.9852364261e-001	 4.2206603959e+000	 4.1924189581e-002
 4.5955406749e-001	 4.2250810713e+000	 5.7139970382e-002
 4.2067174755e-001	 4.2291293762e+000	 7.2246703438e-002
 3.8188136106e-001	 4.2328083616e+000	 8.6981397739e-002
 7.7789204906e-001	 4.2036304500e+000	 1.1426283141e-001
 7.3821778655e-001	 4.2107789659e+000	 7.7412759138e-002
 6.9859597932e-001	 4.2175334803e+000	 4.5718832123e-002
 6.5903191862e-001	 4.2238965340e+000	 1.9308136848e-002
 6.1953081557e-001	 4.2298707508e+000	 3.6817454871e-003
 5.8009779984e-001	 4.2354588350e+000	 2.4108457872e-002
 5.4073791845e-001	 4.2406635688e+000	 4.4463529040e-002
 5.0145613463e-001	 4.2454878100e+000	 6.4761049109e-002
 4.6225732672e-001	 4.2499344894e+000	 8.4945377390e-002
 4.2314628725e-001	 4.2540066078e+000	 1.0488938788e-001
 3.8412772201e-001	 4.2577072343e+000	 1.2439297590e-001
 7.8244112537e-001	 4.2282130842e+000	 1.1669351338e-001
 7.4253484963e-001	 4.2354034043e+000	 8.2738421954e-002
 7.0268133592e-001	 4.2421974188e+000	 5.3540777832e-002
 6.6288590645e-001	 4.2485976834e+000	 2.9235943729e-002
 6.2315380280e-001	 4.2546068371e+000	 1.1873036594e-002
 5.8349018464e-001	 4.2602276001e+000	 3.7219379623e-002
 5.4390012851e-001	 4.2654627709e+000	 6.2186647769e-002
 5.0438862665e-001	 4.2703152241e+000	 8.6859103929e-002
 4.6496058594e-001	 4.2747879074e+000	 1.1124926707e-001
 4.2562082694e-001	 4.2788838395e+000	 1.3529607380e-001
 3.8637408296e-001	 4.2826061070e+000	 1.5886330792e-001
 7.8699020168e-001	 4.2527957184e+000	 1.1977645588e-001
 7.4685191271e-001	 4.2600278427e+000	 8.9153262436e-002
 7.0676669253e-001	 4.2668613573e+000	 6.2914388754e-002
 6.6673989428e-001	 4.2732988327e+000	 4.1203000087e-002
 6.2677679003e-001	 4.2793429233e+000	 2.4095865623e-002
 5.8688256944e-001	 4.2849963652e+000	 5.1516856008e-002
 5.4706233856e-001	 4.2902619731e+000	 8.0255335058e-002
 5.0732111866e-001	 4.2951426382e+000	 1.0848781656e-001
 4.6766384517e-001	 4.2996413255e+000	 1.3629609302e-001
 4.2809536664e-001	 4.3037610711e+000	 1.6368622976e-001
 3.8862044392e-001	 4.3075049798e+000	 1.9058691660e-001
 7.9153927800e-001	 4.2773783526e+000	 1.2346424884e-001
 7.5116897579e-001	 4.2846522811e+000	 9.6610066422e-002
 7.1085204914e-001	 4.2915252958e+000	 7.3792622577e-002
 6.7059388211e-001	 4.2979999820e+000	 5.5162411230e-002
 6.3039977725e-001	 4.3040790096e+000	 4.0802685273e-002
 5.9027495423e-001	 4.3097651303e+000	 6.7319749392e-002
 5.5022454861e-001	 4.3150611753e+000	 9.8963538103e-002
 5.1025361068e-001	 4.3199700523e+000	 1.2991621481e-001
 4.7036710439e-001	 4.3244947436e+000	 1.6032997550e-001
 4.3056990634e-001	 4.3286383027e+000	 1.9027909592e-001
 3.9086680487e-001	 4.3324038525e+000	 2.1975820481e-001
 7.9608835431e-001	 4.3019609868e+000	 1.2770847482e-001
 7.5548603887e-001	 4.3092767195e+000	 1.0506068433e-001
 7.1493740575e-001	 4.3161892343e+000	 8.6127577510e-002
 6.7444786994e-001	 4.3227011313e+000	 7.1066502851e-002
 6.3402276448e-001	 4.3288150959e+000	 5.9966701978e-002
 5.9366733903e-001	 4.3345338954e+000	 8.4946313759e-002
 5.5338675867e-001	 4.3398603774e+000	 1.1860468695e-001
 5.1318610270e-001	 4.3447974664e+000	 1.5141290423e-001
 4.7307036361e-001	 4.3493481616e+000	 1.8359471092e-001
 4.3304444603e-001	 4.3535155343e+000	 2.1529369056e-001
 3.9311316582e-001	 4.3573027252e+000	 2.4657145890e-001
 8.0063743062e-001	 4.3265436210e+000	 1.3245973764e-001
 7.5980310196e-001	 4.3339011579e+000	 1.1445605772e-001
 7.1902276235e-001	 4.3408531727e+000	 9.9870516700e-002
 6.7830185777e-001	 4.3474022807e+000	 8.8866843180e-002
 6.3764575171e-001	 4.3535511821e+000	 8.1539772183e-002
 5.9705972383e-001	 4.3593026605e+000	 1.0471421200e-001
 5.5654896872e-001	 4.3646595796e+000	 1.3947170918e-001
 5.1611859472e-001	 4.3696248805e+000	 1.7324608007e-001
 4.7577362284e-001	 4.3742015797e+000	 2.0633378106e-001
 4.3551898573e-001	 4.3783927660e+000	 2.3180929482e-001
 3.9535952677e-001	 4.3822015979e+000	 2.5412693844e-001
 8.0518650693e-001	 4.3511262553e+000	 1.3766768999e-001
 7.6412016504e-001	 4.3585255963e+000	 1.2474624501e-001
 7.2310811896e-001	 4.3655171112e+000	 1.1497189182e-001
 6.8215584560e-001	 4.3721034300e+000	 1.0851426438e-001
 6.4126873894e-001	 4.3782872684e+000	 1.0098560280e-001
 6.0045210862e-001	 4.3840714257e+000	 1.1370945124e-001
 5.5971117877e-001	 4.3894587817e+000	 1.3904460041e-001
 5.1905108674e-001	 4.3944522946e+000	 1.6208219717e-001
 4.7847688206e-001	 4.3990549978e+000	 1.8288762236e-001
 4.3799352542e-001	 4.4032699976e+000	 2.0149716476e-001
 3.9760588772e-001	 4.4071004706e+000	 2.1791896879e-001
 8.0973558324e-001	 4.3757088895e+000	 1.4237808566e-001
 7.6843722812e-001	 4.3831500347e+000	 1.2530703025e-001
 7.2719347556e-001	 4.3901810497e+000	 1.1100804275e-001
 6.8600983343e-001	 4.3968045793e+000	 9.9274136904e-002
 6.4489172617e-001	 4.4030233546e+000	 8.9892406020e-002
 6.0384449342e-001	 4.4088401908e+000	 9.8560100146e-002
 5.6287338882e-001	 4.4142579839e+000	 1.2044018917e-001
 5.2198357876e-001	 4.4192797087e+000	 1.3946867784e-001
 4.8118014128e-001	 4.4239084158e+000	 1.5572706870e-001
 4.4046806511e-001	 4.4281472292e+000	 1.6926751041e-001
 3.9985224867e-001	 4.4319993433e+000	 1.8011374159e-001
 8.1428465955e-001	 4.4002915237e+000	 1.1467179816e-001
 7.7275429120e-001	 4.4077744731e+000	 1.0197512448e-001
 7.3127883217e-001	 4.4148449882e+000	 9.1229412315e-002
 6.8986382126e-001	 4.4215057286e+000	 8.2248739662e-002
 6.4851471339e-001	 4.4277594409e+000	 7.4841501436e-002
 6.0723687822e-001	 4.4336089559e+000	 8.0370106137e-002
 5.6603559887e-001	 4.4390571860e+000	 9.9053001557e-002
 5.2491607077e-001	 4.4441071228e+000	 1.1434536892e-001
 4.8388340051e-001	 4.4487618339e+000	 1.2634458970e-001
 4.4294260481e-001	 4.4530244608e+000	 1.3511841961e-001
 4.0209860962e-001	 4.4568982160e+000	 1.4070592898e-001
 8.1883373586e-001	 4.4248741579e+000	 8.2774747830e-002
 7.7707135428e-001	 4.4323989115e+000	 7.4512362442e-002
 7.3536418877e-001	 4.4395089267e+000	 6.7389875139e-002
 6.9371780909e-001	 4.4462068779e+000	 6.1242453682e-002
 6.5213770062e-001	 4.4524955272e+000	 5.5899812978e-002
 6.1062926301e-001	 4.4583777210e+000	 5.9149902220e-002
 5.6919780892e-001	 4.4638563882e+000	 7.4890454195e-002
 5.2784856279e-001	 4.4689345369e+000	 8.6716590611e-002
 4.8658665973e-001	 4.4736152520e+000	 9.4741331150e-002
 4.4541714450e-001	 4.4779016925e+000	 9.9047787753e-002
 4.0434497057e-001	 4.4817970888e+000	 9.9690102026e-002
 3.8188136106e-001	 4.2328083616e+000	 8.6981397739e-002
 3.4318749924e-001	 4.2361211433e+000	 8.1206804257e-002
 3.0459466554e-001	 4.2390708994e+000	 7.7211159312e-002
 2.6610727498e-001	 4.2416608679e+000	 7.4407358923e-002
 2.2772965353e-001	 4.2438943442e+000	 7.2134194885e-002
 1.8946603763e-001	 4.2457746785e+000	 6.9656246445e-002
 1.5132057376e-001	 4.2473052732e+000	 6.6163995022e-002
 1.1329731804e-001	 4.2484895807e+000	 6.0774155277e-002
 7.5400235934e-002	 4.2493311008e+000	 5.2530215436e-002
 3.7633202065e-002	 4.2498333782e+000	 4.0403179364e-002
 0.0000000000e+000	 4.2500000000e+000	 2.3292502592e-002
 3.8412772201e-001	 4.2577072343e+000	 1.2439297590e-001
 3.4520624924e-001	 4.2610395029e+000	 1.2189809499e-001
 3.0638639888e-001	 4.2640066105e+000	 1.2130348316e-001
 2.6767261190e-001	 4.2666118142e+000	 1.2210474467e-001
 2.2906923973e-001	 4.2688584286e+000	 1.2372040261e-001
 1.9058054374e-001	 4.2707498237e+000	 1.2549173648e-001
 1.5221069479e-001	 4.2722894219e+000	 1.2668285014e-001
 1.1396377285e-001	 4.2734806959e+000	 1.2648096316e-001
 7.5843766737e-002	 4.2743271661e+000	 1.2399691844e-001
 3.7854573843e-002	 4.2748323980e+000	 1.1826589828e-001
 0.0000000000e+000	 4.2750000000e+000	 1.0824834115e-001
 3.8637408296e-001	 4.2826061070e+000	 1.5886330792e-001
 3.4722499924e-001	 4.2859578626e+000	 1.5962143865e-001
 3.0817813221e-001	 4.2889423217e+000	 1.6242942093e-001
 2.6923794881e-001	 4.2915627605e+000	 1.6686619947e-001
 2.3040882593e-001	 4.2938225130e+000	 1.7243061598e-001
 1.9169504985e-001	 4.2957249688e+000	 1.7854119256e-001
 1.5310081581e-001	 4.2972735706e+000	 1.8453615276e-001
 1.1463022767e-001	 4.2984718111e+000	 1.8967367325e-001
 7.6287297539e-002	 4.2993232314e+000	 1.9313235882e-001
 3.8075945621e-002	 4.2998314179e+000	 1.9401193265e-001
 0.0000000000e+000	 4.3000000000e+000	 1.9133413399e-001
 3.8862044392e-001	 4.3075049798e+000	 1.9058691660e-001
 3.4924374924e-001	 4.3108762223e+000	 1.9453522338e-001
 3.0996986554e-001	 4.3138780329e+000	 2.0071134417e-001
 2.7080328573e-001	 4.3165137067e+000	 2.0877821450e-001
 2.3174841213e-001	 4.3187865974e+000	 2.1831559973e-001
 1.9280955596e-001	 4.3207001140e+000	 2.2881982409e-001
 1.5399093684e-001	 4.3222577192e+000	 2.3970374481e-001
 1.1529668248e-001	 4.3234629263e+000	 2.5029696411e-001
 7.6730828340e-002	 4.3243192967e+000	 2.5984627161e-001
 3.8297317399e-002	 4.3248304378e+000	 2.6751630905e-001
 0.0000000000e+000	 4.3250000000e+000	 2.7239044905e-001
 3.9086680487e-001	 4.3324038525e+000	 2.1975820481e-001
 3.5126249924e-001	 4.3357945819e+000	 2.2679808776e-001
 3.1176159887e-001	 4.3388137440e+000	 2.3627224749e-001
 2.7236862265e-001	 4.3414646530e+000	 2.4792827870e-001
 2.3308799833e-001	 4.3437506817e+000	 2.6142749294e-001
 1.9392406206e-001	 4.3456752592e+000	 2.7634459319e-001
 1.5488105786e-001	 4.3472418679e+000	 2.9216760090e-001
 1.1596313730e-001	 4.3484540415e+000	 3.0829802833e-001
 7.7174359142e-002	 4.3493153620e+000	 3.2405128851e-001
 3.8518689177e-002	 4.3498294576e+000	 3.3865733445e-001
 0.0000000000e+000	 4.3500000000e+000	 3.5126151938e-001
 3.9311316582e-001	 4.3573027252e+000	 2.4657145890e-001
 3.5328124924e-001	 4.3607129416e+000	 2.5656891368e-001
 3.1355333220e-001	 4.3637494552e+000	 2.6923573079e-001
 2.7393395956e-001	 4.3664155993e+000	 2.8440485029e-001
 2.3442758453e-001	 4.3687147661e+000	 3.0181976986e-001
 1.9503856817e-001	 4.3706504043e+000	 3.2113416469e-001
 1.5577117889e-001	 4.3722260166e+000	 3.4191176741e-001
 1.1662959211e-001	 4.3734451567e+000	 3.6362650076e-001
 7.7617889943e-002	 4.3743114273e+000	 3.8566285514e-001
 3.8740060954e-002	 4.3748284775e+000	 4.0731650254e-001
 0.0000000000e+000	 4.3750000000e+000	 4.2779513839e-001
 3.9535952677e-001	 4.3822015979e+000	 2.5412693844e-001
 3.5529999924e-001	 4.3856313013e+000	 2.5555632921e-001
 3.1534506553e-001	 4.3886851664e+000	 2.5849970689e-001
 2.7549929647e-001	 4.3913665456e+000	 2.6292241828e-001
 2.3576717073e-001	 4.3936788505e+000	 2.6876233237e-001
 1.9615307428e-001	 4.3956255495e+000	 2.7593093880e-001
 1.5666129991e-001	 4.3972101652e+000	 2.8431446231e-001
 1.1729604692e-001	 4.3984362718e+000	 2.9377499028e-001
 7.8061420743e-002	 4.3993074926e+000	 3.0415161039e-001
 3.8961432732e-002	 4.3998274974e+000	 3.1526155565e-001
 0.0000000000e+000	 4.4000000000e+000	 3.2690135390e-001
 3.9760588772e-001	 4.4071004706e+000	 2.1791896879e-001
 3.5731874924e-001	 4.4105496609e+000	 2.1519228965e-001
 3.1713679886e-001	 4.4136208776e+000	 2.1354394211e-001
 2.7706463339e-001	 4.4163174919e+000	 2.1297965832e-001
 2.3710675693e-001	 4.4186429349e+000	 2.1347684353e-001
 1.9726758038e-001	 4.4206006947e+000	 2.1498566337e-001
 1.5755142094e-001	 4.4221943139e+000	 2.1743014857e-001
 1.1796250174e-001	 4.4234273870e+000	 2.2070931435e-001
 7.8504951544e-002	 4.4243035579e+000	 2.2469829124e-001
 3.9182804509e-002	 4.4248265173e+000	 2.2924946462e-001
 0.0000000000e+000	 4.4250000000e+000	 2.3419362015e-001
 3.9985224867e-001	 4.4319993433e+000	 1.8011374159e-001
 3.5933749924e-001	 4.4354680206e+000	 1.7415005807e-001
 3.1892853219e-001	 4.4385565887e+000	 1.6884038293e-001
 2.7862997030e-001	 4.4412684381e+000	 1.6423034286e-001
 2.3844634313e-001	 4.4436070192e+000	 1.6033638549e-001
 1.9838208649e-001	 4.4455758398e+000	 1.5714685596e-001
 1.5844154196e-001	 4.4471784626e+000	 1.5462309262e-001
 1.1862895655e-001	 4.4484185022e+000	 1.5270053859e-001
 7.8948482344e-002	 4.4492996232e+000	 1.5128986634e-001
 3.9404176286e-002	 4.4498255371e+000	 1.5027811225e-001
 0.0000000000e+000	 4.4500000000e+000	 1.4952981842e-001
 4.0209860962e-001	 4.4568982160e+000	 1.4070592898e-001
 3.6135624923e-001	 4.4603863803e+000	 1.3241101773e-001
 3.2072026552e-001	 4.4634922999e+000	 1.2435709370e-001
 2.8019530721e-001	 4.4662193844e+000	 1.1662919270e-001
 2.3978592933e-001	 4.4685711036e+000	 1.0928231610e-001
 1.9949659259e-001	 4.4705509850e+000	 1.0234249736e-001
 1.5933166298e-001	 4.4721626112e+000	 9.5807889054e-002
 1.1929541136e-001	 4.4734096174e+000	 8.9649867291e-002
 7.9392013143e-002	 4.4742956885e+000	 8.3814150455e-002
 3.9625548063e-002	 4.4748245570e+000	 7.8221929356e-002
 0.0000000000e+000	 4.4750000000e+000	 7.2771005841e-002
 4.0434497057e-001	 4.4817970888e+000	 9.9690102026e-002
 3.6337499923e-001	 4.4853047399e+000	 8.9956762868e-002
 3.2251199884e-001	 4.4884280111e+000	 8.0062663696e-002
 2.8176064413e-001	 4.4911703307e+000	 7.0131769203e-002
 2.4112551553e-001	 4.4935351880e+000	 6.0257151073e-002
 2.0061109869e-001	 4.4955261302e+000	 5.0502044896e-002
 1.6022178400e-001	 4.4971467599e+000	 4.0900929092e-002
 1.1996186617e-001	 4.4984007326e+000	 3.1460622658e-002
 7.9835543943e-002	 4.4992917538e+000	 2.2161398641e-002
 3.9846919840e-002	 4.4998235769e+000	 1.2958110320e-002
 0.0000000000e+000	 4.5000000000e+000	 3.7813271575e-003
 4.5000000000e+000	 0.0000000000e+000	 1.0718924323e+000
 4.4998235769e+000	 3.9846919840e-002	 1.0102342305e+000
 4.4992917538e+000	 7.9835543943e-002	 9.5192469571e-001
 4.4984007326e+000	 1.1996186617e-001	 8.9686274683e-001
 4.4971467599e+000	 1.6022178400e-001	 8.4495584941e-001
 4.4955261302e+000	 2.0061109869e-001	 7.9612077809e-001
 4.4935351880e+000	 2.4112551553e-001	 7.5028438953e-001
 4.4911703307e+000	 2.8176064413e-001	 7.0738440458e-001
 4.4884280111e+000	 3.2251199884e-001	 6.6737019804e-001
 4.4853047399e+000	 3.6337499923e-001	 6.3020359465e-001
 4.4817970888e+000	 4.0434497057e-001	 5.9585966940e-001
 4.5250000000e+000	 0.0000000000e+000	 9.9385713977e-001
 4.5248225967e+000	 4.0068291616e-002	 9.3910365323e-001
 4.5242878191e+000	 8.0279074742e-002	 8.8773716323e-001
 4.5233918477e+000	 1.2062832098e-001	 8.3962351710e-001
 4.5221309085e+000	 1.6111190503e-001	 7.9463656662e-001
 4.5205012753e+000	 2.0172560480e-001	 7.5265895553e-001
 4.5184992724e+000	 2.4246510172e-001	 7.1358291884e-001
 4.5161212770e+000	 2.8332598104e-001	 6.7731109272e-001
 4.5133637222e+000	 3.2430373217e-001	 6.4375733330e-001
 4.5102230996e+000	 3.6539374923e-001	 6.1284754288e-001
 4.5066959615e+000	 4.0659133152e-001	 5.8452050171e-001
 4.5500000000e+000	 0.0000000000e+000	 9.1978337520e-001
 4.5498216166e+000	 4.0289663393e-002	 8.7154760681e-001
 4.5492838844e+000	 8.0722605541e-002	 8.2673173887e-001
 4.5483829629e+000	 1.2129477580e-001	 7.8516856577e-001
 4.5471150572e+000	 1.6200202605e-001	 7.4669834893e-001
 4.5454764205e+000	 2.0284011090e-001	 7.1116962959e-001
 4.5434633567e+000	 2.4380468792e-001	 6.7844005476e-001
 4.5410722233e+000	 2.8489131795e-001	 6.4837721498e-001
 4.5382994334e+000	 3.2609546550e-001	 6.2085949229e-001
 4.5351414592e+000	 3.6741249922e-001	 5.9577691687e-001
 4.5315948342e+000	 4.0883769246e-001	 5.7303203044e-001
 4.5750000000e+000	 0.0000000000e+000	 8.4962458012e-001
 4.5748206365e+000	 4.0511035169e-002	 8.0753076565e-001
 4.5742799497e+000	 8.1166136340e-002	 7.6888436865e-001
 4.5733740781e+000	 1.2196123061e-001	 7.3348514488e-001
 4.5720992059e+000	 1.6289214707e-001	 7.0113978452e-001
 4.5704515657e+000	 2.0395461700e-001	 6.7166275036e-001
 4.5684274411e+000	 2.4514427412e-001	 6.4487713062e-001
 4.5660231695e+000	 2.8645665486e-001	 6.2061550470e-001
 4.5632351446e+000	 3.2788719882e-001	 5.9872082057e-001
 4.5600598189e+000	 3.6943124922e-001	 5.7904728189e-001
 4.5564937069e+000	 4.1108405341e-001	 5.6146124339e-001
 4.6000000000e+000	 0.0000000000e+000	 7.8333520816e-001
 4.5998196564e+000	 4.0732406946e-002	 7.4701860863e-001
 4.5992760150e+000	 8.1609667139e-002	 7.1417159411e-001
 4.5983651933e+000	 1.2262768542e-001	 6.8456089198e-001
 4.5970833545e+000	 1.6378226809e-001	 6.5795963602e-001
 4.5954267108e+000	 2.0506912311e-001	 6.3414823036e-001
 4.5933915255e+000	 2.4648386031e-001	 6.1291522921e-001
 4.5909741158e+000	 2.8802199177e-001	 5.9405823091e-001
 4.5881708558e+000	 3.2967893215e-001	 5.7738478478e-001
 4.5849781786e+000	 3.7144999921e-001	 5.6271330909e-001
 4.5813925796e+000	 4.1333041436e-001	 5.4987401836e-001
 4.6250000000e+000	 0.0000000000e+000	 7.2087069778e-001
 4.6248186762e+000	 4.0953778723e-002	 6.8997739727e-001
 4.6242720803e+000	 8.2053197938e-002	 6.6257053623e-001
 4.6233563085e+000	 1.2329414023e-001	 6.3838381970e-001
 4.6220675032e+000	 1.6467238911e-001	 6.1715683580e-001
 4.6204018560e+000	 2.0618362921e-001	 5.9863594551e-001
 4.6183556099e+000	 2.4782344651e-001	 5.8257518954e-001
 4.6159250621e+000	 2.8958732868e-001	 5.6873721082e-001
 4.6131065669e+000	 3.3147066547e-001	 5.5689419107e-001
 4.6098965382e+000	 3.7346874920e-001	 5.4682879967e-001
 4.6062914523e+000	 4.1557677530e-001	 5.3833515322e-001
 4.6500000000e+000	 0.0000000000e+000	 6.6218744573e-001
 4.6498176961e+000	 4.1175150499e-002	 6.3637415478e-001
 4.6492681456e+000	 8.2496728737e-002	 6.1405887984e-001
 4.6483474236e+000	 1.2396059504e-001	 5.9494230569e-001
 4.6470516519e+000	 1.6556251013e-001	 5.7873048140e-001
 4.6453770012e+000	 2.0729813531e-001	 5.6513573615e-001
 4.6433196943e+000	 2.4916303270e-001	 5.5387761340e-001
 4.6408760084e+000	 2.9115266559e-001	 5.4468382202e-001
 4.6380422781e+000	 3.3326239880e-001	 5.3729120277e-001
 4.6348148979e+000	 3.7548749920e-001	 5.3144670825e-001
 4.6311903250e+000	 4.1782313625e-001	 5.2690839489e-001
 4.6750000000e+000	 0.0000000000e+000	 6.0724278143e-001
 4.6748167160e+000	 4.1396522276e-002	 5.8617664562e-001
 4.6742642109e+000	 8.2940259537e-002	 5.6861485853e-001
 4.6733385388e+000	 1.2462704985e-001	 5.5422508283e-001
 4.6720358005e+000	 1.6645263115e-001	 5.4267983111e-001
 4.6703521463e+000	 2.0841264141e-001	 5.3365740796e-001
 4.6682837786e+000	 2.5050261890e-001	 5.2684287168e-001
 4.6658269547e+000	 2.9271800250e-001	 5.2192901421e-001
 4.6629779893e+000	 3.3505413212e-001	 5.1861735764e-001
 4.6597332576e+000	 3.7750624919e-001	 5.1661916554e-001
 4.6560891977e+000	 4.2006949719e-001	 5.1565646746e-001
 4.7000000000e+000	 0.0000000000e+000	 5.5599494223e-001
 4.6998157358e+000	 4.1617894052e-002	 5.3935335581e-001
 4.6992602762e+000	 8.3383790336e-002	 5.2621724009e-001
 4.6983296540e+000	 1.2529350466e-001	 5.1622122981e-001
 4.6970199492e+000	 1.6734275217e-001	 5.0900429968e-001
 4.6953272915e+000	 2.0952714752e-001	 5.0421073289e-001
 4.6932478630e+000	 2.5184220510e-001	 5.0149111055e-001
 4.6907779010e+000	 2.9428333941e-001	 5.0050332058e-001
 4.6879137004e+000	 3.3684586545e-001	 5.0091358447e-001
 4.6846516172e+000	 3.7952499918e-001	 5.0239750021e-001
 4.6809880705e+000	 4.2231585814e-001	 5.0464109941e-001
 4.7250000000e+000	 0.0000000000e+000	 5.0840304931e-001
 4.7248147557e+000	 4.1839265829e-002	 4.9587347386e-001
 4.7242563415e+000	 8.3827321135e-002	 4.8684531237e-001
 4.7233207692e+000	 1.2595995947e-001	 4.8092016197e-001
 4.7220040979e+000	 1.6823287319e-001	 4.7770345421e-001
 4.7203024367e+000	 2.1064165362e-001	 4.7680545008e-001
 4.7182119474e+000	 2.5318179129e-001	 4.7784225739e-001
 4.7157288472e+000	 2.9584867632e-001	 4.8043686882e-001
 4.7128494116e+000	 3.3863759877e-001	 4.8422021923e-001
 4.7095699769e+000	 3.8154374918e-001	 4.8883226014e-001
 4.7058869432e+000	 4.2456221908e-001	 4.9392304991e-001
 4.7500000000e+000	 0.0000000000e+000	 4.6442708446e-001
 4.7498137756e+000	 4.2060637605e-002	 4.5570687227e-001
 4.7492524068e+000	 8.4270851934e-002	 4.5047886956e-001
 4.7483118844e+000	 1.2662641428e-001	 4.4831162246e-001
 4.7469882465e+000	 1.6912299422e-001	 4.4877701015e-001
 4.7452775818e+000	 2.1175615972e-001	 4.5145126669e-001
 4.7431760318e+000	 2.5452137749e-001	 4.5591602651e-001
 4.7406797935e+000	 2.9741401323e-001	 4.6175939184e-001
 4.7377851228e+000	 3.4042933210e-001	 4.6857702062e-001
 4.7344883366e+000	 3.8356249917e-001	 4.7597323296e-001
 4.7307858159e+000	 4.2680858003e-001	 4.8356213435e-001
 4.4817970888e+000	 4.0434497057e-001	 5.9585966940e-001
 4.4779016925e+000	 4.4541714450e-001	 5.7833339179e-001
 4.4736152520e+000	 4.8658665973e-001	 5.6613590414e-001
 4.4689345369e+000	 5.2784856279e-001	 5.5907161445e-001
 4.4638563882e+000	 5.6919780892e-001	 5.5695515247e-001
 4.4583777210e+000	 6.1062926301e-001	 5.5961224077e-001
 4.4524955272e+000	 6.5213770062e-001	 5.2800961576e-001
 4.4462068779e+000	 6.9371780909e-001	 4.7866610117e-001
 4.4395089267e+000	 7.3536418877e-001	 4.3132094154e-001
 4.4323989115e+000	 7.7707135428e-001	 3.8538554568e-001
 4.4248741579e+000	 8.1883373586e-001	 3.4025925454e-001
 4.5066959615e+000	 4.0659133152e-001	 5.8452050171e-001
 4.5027789241e+000	 4.4789168419e-001	 5.6780121838e-001
 4.4984686700e+000	 4.8928991895e-001	 5.5585472894e-001
 4.4937619509e+000	 5.3078105481e-001	 5.4847353813e-001
 4.4886555903e+000	 5.7236001898e-001	 5.4546081215e-001
 4.4831464861e+000	 6.1402164781e-001	 5.4663127691e-001
 4.4772316134e+000	 6.5576068785e-001	 5.1299140337e-001
 4.4709080272e+000	 6.9757179692e-001	 4.6782478141e-001
 4.4641728651e+000	 7.3944954538e-001	 4.2423145498e-001
 4.4570233499e+000	 7.8138841736e-001	 3.8162562202e-001
 4.4494567921e+000	 8.2338281217e-001	 3.3940968062e-001
 4.5315948342e+000	 4.0883769246e-001	 5.7303203044e-001
 4.5276561557e+000	 4.5036622388e-001	 5.5728268317e-001
 4.5233220881e+000	 4.9199317817e-001	 5.4574969359e-001
 4.5185893650e+000	 5.3371354682e-001	 5.3821354086e-001
 4.5134547925e+000	 5.7552222903e-001	 5.3446580644e-001
 4.5079152512e+000	 6.1741403260e-001	 5.3431009966e-001
 4.5019676997e+000	 6.5938367507e-001	 4.9972560501e-001
 4.4956091766e+000	 7.0142578475e-001	 4.5862487104e-001
 4.4888368036e+000	 7.4353490198e-001	 4.1867638419e-001
 4.4816477883e+000	 7.8570548043e-001	 3.7929743073e-001
 4.4740394263e+000	 8.2793188848e-001	 3.3989376590e-001
 4.5564937069e+000	 4.1108405341e-001	 5.6146124339e-001
 4.5525333873e+000	 4.5284076358e-001	 5.4684631346e-001
 4.5481755061e+000	 4.9469643739e-001	 5.3589078329e-001
 4.5434167791e+000	 5.3664603884e-001	 5.2836298245e-001
 4.5382539946e+000	 5.7868443908e-001	 5.2404278480e-001
 4.5326840163e+000	 6.2080641740e-001	 5.2272256159e-001
 4.5267037859e+000	 6.6300666230e-001	 4.8819199088e-001
 4.5203103259e+000	 7.0527977258e-001	 4.5104140935e-001
 4.5135007421e+000	 7.4762025859e-001	 4.1462599369e-001
 4.5062722267e+000	 7.9002254351e-001	 3.7836642046e-001
 4.4986220605e+000	 8.3248096479e-001	 3.4167210486e-001
 4.5813925796e+000	 4.1333041436e-001	 5.4987401836e-001
 4.5774106189e+000	 4.5531530327e-001	 5.3655952503e-001
 4.5730289242e+000	 4.9739969661e-001	 5.2634687131e-001
 4.5682441932e+000	 5.3957853085e-001	 5.1899211156e-001
 4.5630531968e+000	 5.8184664912e-001	 5.1426328755e-001
 4.5574527815e+000	 6.2419880219e-001	 5.1194140936e-001
 4.5514398722e+000	 6.6662964952e-001	 4.7836922970e-001
 4.5450114752e+000	 7.0913376041e-001	 4.4504833984e-001
 4.5381646806e+000	 7.5170561519e-001	 4.1204945908e-001
 4.5308966650e+000	 7.9433960659e-001	 3.7879695908e-001
 4.5232046947e+000	 8.3703004110e-001	 3.4470422057e-001
 4.6062914523e+000	 4.1557677530e-001	 5.3833515322e-001
 4.6022878506e+000	 4.5778984296e-001	 5.2648865215e-001
 4.5978823423e+000	 5.0010295583e-001	 5.1718574907e-001
 4.5930716073e+000	 5.4251102287e-001	 5.1017009578e-001
 4.5878523989e+000	 5.8500885917e-001	 5.0519777589e-001
 4.5822215466e+000	 6.2759118699e-001	 5.0032569543e-001
 4.5761759585e+000	 6.7025263675e-001	 4.7023491848e-001
 4.5697126245e+000	 7.1298774823e-001	 4.4061853977e-001
 4.5628286191e+000	 7.5579097179e-001	 4.1091489648e-001
 4.5555211034e+000	 7.9865666967e-001	 3.8055236286e-001
 4.5477873289e+000	 8.4157911741e-001	 3.4894859371e-001
 4.6311903250e+000	 4.1782313625e-001	 5.2690839489e-001
 4.6271650822e+000	 4.6026438265e-001	 5.1669897669e-001
 4.6227357603e+000	 5.0280621505e-001	 5.0847415518e-001
 4.6178990214e+000	 5.4544351488e-001	 5.0196505067e-001
 4.6126516011e+000	 5.8817106922e-001	 4.9691566084e-001
 4.6069903117e+000	 6.3098357178e-001	 4.8987231885e-001
 4.6009120447e+000	 6.7387562397e-001	 4.6376561131e-001
 4.5944137738e+000	 7.1684173606e-001	 4.3772384886e-001
 4.5874925575e+000	 7.5987632840e-001	 4.1118939098e-001
 4.5801455418e+000	 8.0297373275e-001	 3.8359492480e-001
 4.5723699631e+000	 8.4612819372e-001	 3.5436269054e-001
 4.6560891977e+000	 4.2006949719e-001	 5.1565646746e-001
 4.6520423138e+000	 4.6273892234e-001	 5.0725475625e-001
 4.6475891784e+000	 5.0550947427e-001	 5.0027780365e-001
 4.6427264355e+000	 5.4837600689e-001	 4.9444406788e-001
 4.6374508033e+000	 5.9133327927e-001	 4.8948533142e-001
 4.6317590768e+000	 6.3437595657e-001	 4.8119758153e-001
 4.6256481310e+000	 6.7749861120e-001	 4.5893684726e-001
 4.6191149232e+000	 7.2069572389e-001	 4.3633509704e-001
 4.6121564960e+000	 7.6396168500e-001	 4.1283902420e-001
 4.6047699802e+000	 8.0729079583e-001	 3.8788594193e-001
 4.5969525973e+000	 8.5067727003e-001	 3.6090299004e-001
 4.6809880705e+000	 4.2231585814e-001	 5.0464109941e-001
 4.6769195454e+000	 4.6521346202e-001	 4.9821925139e-001
 4.6724425965e+000	 5.0821273349e-001	 4.9266141107e-001
 4.6675538496e+000	 5.5130849891e-001	 4.8767324239e-001
 4.6622500054e+000	 5.9449548931e-001	 4.8297418171e-001
 4.6565278419e+000	 6.3776834136e-001	 4.7428069785e-001
 4.6503842172e+000	 6.8112159842e-001	 4.5572317740e-001
 4.6438160725e+000	 7.2454971171e-001	 4.3642213127e-001
 4.6368204345e+000	 7.6804704160e-001	 4.1582890102e-001
 4.6293944186e+000	 8.1160785890e-001	 3.9338574184e-001
 4.6215352316e+000	 8.5522634634e-001	 3.6852501016e-001
 4.7058869432e+000	 4.2456221908e-001	 4.9392304991e-001
 4.7017967771e+000	 4.6768800171e-001	 4.8965475201e-001
 4.6972960145e+000	 5.1091599270e-001	 4.8568872306e-001
 4.6923812637e+000	 5.5424099092e-001	 4.8171769890e-001
 4.6870492076e+000	 5.9765769936e-001	 4.7744863729e-001
 4.6812966070e+000	 6.4116072615e-001	 4.6909991642e-001
 4.6751203035e+000	 6.8474458564e-001	 4.5409819087e-001
 4.6685172218e+000	 7.2840369954e-001	 4.3795384157e-001
 4.6614843730e+000	 7.7213239820e-001	 4.2012317540e-001
 4.6540188570e+000	 8.1592492198e-001	 4.0005370831e-001
 4.6461178658e+000	 8.5977542265e-001	 3.7718333327e-001
 4.7307858159e+000	 4.2680858003e-001	 4.8356213435e-001
 4.7266740087e+000	 4.7016254140e-001	 4.8162260289e-001
 4.7221494326e+000	 5.1361925192e-001	 4.7942253979e-001
 4.7172086778e+000	 5.5717348293e-001	 4.7664161732e-001
 4.7118484097e+000	 6.0081990940e-001	 4.7297418064e-001
 4.7060653722e+000	 6.4455311094e-001	 4.6563254550e-001
 4.6998563898e+000	 6.8836757286e-001	 4.5403454026e-001
 4.6932183711e+000	 7.3225768736e-001	 4.4089818619e-001
 4.6861483115e+000	 7.7621775480e-001	 4.2568507539e-001
 4.6786432954e+000	 8.2024198506e-001	 4.0784830612e-001
 4.6707005000e+000	 8.6432449896e-001	 3.8683163074e-001
 4.4248741579e+000	 8.1883373586e-001	 3.4025925454e-001
 4.4169320814e+000	 8.6064568090e-001	 3.7432572328e-001
 4.4085701903e+000	 9.0250145542e-001	 4.0252538018e-001
 4.3997860880e+000	 9.4439524573e-001	 4.2373561902e-001
 4.3905774756e+000	 9.8632116015e-001	 4.3681595560e-001
 4.3809421547e+000	 1.0282732308e+000	 4.4060771653e-001
 4.3708780297e+000	 1.0702454156e+000	 4.2659178689e-001
 4.3603831102e+000	 1.1122316001e+000	 3.9271669040e-001
 4.3494555137e+000	 1.1542255995e+000	 3.5139840393e-001
 4.3380934676e+000	 1.1962211613e+000	 3.0370406403e-001
 4.3262953119e+000	 1.2382119668e+000	 2.5088160565e-001
 4.4494567921e+000	 8.2338281217e-001	 3.3940968062e-001
 4.4414705930e+000	 8.6542704580e-001	 3.6794119060e-001
 4.4330622469e+000	 9.0751535240e-001	 3.9102302929e-001
 4.4242293440e+000	 9.4964188598e-001	 4.0757148194e-001
 4.4149695727e+000	 9.9180072215e-001	 4.1648499506e-001
 4.4052807222e+000	 1.0339858599e+000	 4.1664380772e-001
 4.3951606854e+000	 1.0761912235e+000	 4.0690958905e-001
 4.3846074608e+000	 1.1184106645e+000	 3.8612508421e-001
 4.3736191554e+000	 1.1606379640e+000	 3.5141004517e-001
 4.3621939868e+000	 1.2028668344e+000	 2.9502608973e-001
 4.3503302858e+000	 1.2450909222e+000	 2.3265033746e-001
 4.4740394263e+000	 8.2793188848e-001	 3.3989376590e-001
 4.4660091046e+000	 8.7020841069e-001	 3.6339586694e-001
 4.4575543036e+000	 9.1252924937e-001	 3.8186310197e-001
 4.4486726001e+000	 9.5488852624e-001	 3.9425063416e-001
 4.4393616698e+000	 9.9728028415e-001	 3.9949582634e-001
 4.4296192898e+000	 1.0396984889e+000	 3.9651781464e-001
 4.4194433411e+000	 1.0821370313e+000	 3.8421708698e-001
 4.4088318115e+000	 1.1245897290e+000	 3.6147506880e-001
 4.3977827972e+000	 1.1670503284e+000	 3.2715371862e-001
 4.3862945061e+000	 1.2095125075e+000	 2.8009513625e-001
 4.3743652598e+000	 1.2519698775e+000	 2.2281786072e-001
 4.4986220605e+000	 8.3248096479e-001	 3.4167210486e-001
 4.4905476161e+000	 8.7498977558e-001	 3.6063564223e-001
 4.4820463602e+000	 9.1754314634e-001	 3.7497687486e-001
 4.4731158561e+000	 9.6013516649e-001	 3.8368983836e-001
 4.4637537669e+000	 1.0027598461e+000	 3.8575080565e-001
 4.4539578573e+000	 1.0454111180e+000	 3.8011780273e-001
 4.4437259969e+000	 1.0880828392e+000	 3.6573012782e-001
 4.4330561621e+000	 1.1307687934e+000	 3.4150787657e-001
 4.4219464389e+000	 1.1734626929e+000	 3.0635147599e-001
 4.4103950254e+000	 1.2161581807e+000	 2.5914122987e-001
 4.3984002337e+000	 1.2588488329e+000	 2.1567723253e-001
 4.5232046947e+000	 8.3703004110e-001	 3.4470422057e-001
 4.5150861277e+000	 8.7977114048e-001	 3.5960555905e-001
 4.5065384168e+000	 9.2255704332e-001	 3.7029499987e-001
 4.4975591122e+000	 9.6538180674e-001	 3.7580545357e-001
 4.4881458639e+000	 1.0082394081e+000	 3.7515210503e-001
 4.4782964248e+000	 1.0511237471e+000	 3.6733187097e-001
 4.4680086526e+000	 1.0940286471e+000	 3.5132285953e-001
 4.4572805127e+000	 1.1369478578e+000	 3.2608383467e-001
 4.4461100807e+000	 1.1798750573e+000	 2.9055368811e-001
 4.4344955446e+000	 1.2228038538e+000	 2.4365092177e-001
 4.4224352077e+000	 1.2657277883e+000	 2.1254489982e-001
 4.5477873289e+000	 8.4157911741e-001	 3.4894859371e-001
 4.5396246393e+000	 8.8455250537e-001	 3.6024983554e-001
 4.5310304734e+000	 9.2757094029e-001	 3.6774752103e-001
 4.5220023682e+000	 9.7062844700e-001	 3.7051344608e-001
 4.5125379610e+000	 1.0137189701e+000	 3.6760171730e-001
 4.5026349923e+000	 1.0568363761e+000	 3.5804815097e-001
 4.4922913083e+000	 1.0999744549e+000	 3.4086967276e-001
 4.4815048633e+000	 1.1431269223e+000	 3.1506372104e-001
 4.4702737224e+000	 1.1862874218e+000	 2.7960765654e-001
 4.4585960639e+000	 1.2294495269e+000	 2.3345818143e-001
 4.4464701816e+000	 1.2726067437e+000	 2.1362743726e-001
 4.5723699631e+000	 8.4612819372e-001	 3.5436269054e-001
 4.5641631508e+000	 8.8933387026e-001	 3.6251188757e-001
 4.5555225300e+000	 9.3258483726e-001	 3.6726389088e-001
 4.5464456242e+000	 9.7587508725e-001	 3.6772940001e-001
 4.5369300581e+000	 1.0191985321e+000	 3.6300146089e-001
 4.5269735599e+000	 1.0625490052e+000	 3.5215480607e-001
 4.5165739640e+000	 1.1059202628e+000	 3.3424519428e-001
 4.5057292139e+000	 1.1493059867e+000	 3.0830875231e-001
 4.4944373641e+000	 1.1926997862e+000	 2.7336132208e-001
 4.4826965832e+000	 1.2360952000e+000	 2.2839781612e-001
 4.4705051556e+000	 1.2794856990e+000	 2.1882071433e-001
 4.5969525973e+000	 8.5067727003e-001	 3.6090299004e-001
 4.5887016624e+000	 8.9411523516e-001	 3.6633435015e-001
 4.5800145866e+000	 9.3759873424e-001	 3.6877298628e-001
 4.5708888803e+000	 9.8112172750e-001	 3.6736852750e-001
 4.5613221552e+000	 1.0246780942e+000	 3.6125298448e-001
 4.5513121274e+000	 1.0682616342e+000	 3.4954003052e-001
 4.5408566198e+000	 1.1118660707e+000	 3.3132428071e-001
 4.5299535645e+000	 1.1554850512e+000	 3.0568057208e-001
 4.5186010059e+000	 1.1991121506e+000	 2.7166324777e-001
 4.5067971024e+000	 1.2427408731e+000	 2.2830544856e-001
 4.4945401296e+000	 1.2863646544e+000	 2.2802160709e-001
 4.6215352316e+000	 8.5522634634e-001	 3.6852501016e-001
 4.6132401739e+000	 8.9889660005e-001	 3.7165909825e-001
 4.6045066432e+000	 9.4261263121e-001	 3.7220312367e-001
 4.5953321363e+000	 9.8636836776e-001	 3.6934567864e-001
 4.5857142523e+000	 1.0301576562e+000	 3.6225777155e-001
 4.5756506949e+000	 1.0739742633e+000	 3.5009204863e-001
 4.5651392755e+000	 1.1178118785e+000	 3.3198201236e-001
 4.5541779151e+000	 1.1616641156e+000	 3.0704123953e-001
 4.5427646476e+000	 1.2055245151e+000	 2.7436260226e-001
 4.5308976217e+000	 1.2493865463e+000	 2.3301749519e-001
 4.5185751035e+000	 1.2932436098e+000	 2.4112797137e-001
 4.6461178658e+000	 8.5977542265e-001	 3.7718333327e-001
 4.6377786855e+000	 9.0367796494e-001	 3.7842726685e-001
 4.6289986998e+000	 9.4762652819e-001	 3.7748207396e-001
 4.6197753924e+000	 9.9161500801e-001	 3.7357535103e-001
 4.6101063494e+000	 1.0356372182e+000	 3.6591714474e-001
 4.5999892625e+000	 1.0796868924e+000	 3.5369911402e-001
 4.5894219312e+000	 1.1237576864e+000	 3.3609368735e-001
 4.5784022658e+000	 1.1678431801e+000	 3.1225321847e-001
 4.5669282894e+000	 1.2119368795e+000	 2.8130914383e-001
 4.5549981410e+000	 1.2560322194e+000	 2.4923332446e-001
 4.5426100775e+000	 1.3001225651e+000	 2.5803861692e-001
 4.6707005000e+000	 8.6432449896e-001	 3.8683163074e-001
 4.6623171971e+000	 9.0845932984e-001	 3.8657927046e-001
 4.6534907565e+000	 9.5264042516e-001	 3.8453707684e-001
 4.6442186484e+000	 9.9686164827e-001	 3.7997169903e-001
 4.6344984465e+000	 1.0411167802e+000	 3.7213227005e-001
 4.6243278300e+000	 1.0853995214e+000	 3.6024950879e-001
 4.6137045869e+000	 1.1297034943e+000	 3.4353481585e-001
 4.6026266164e+000	 1.1740222445e+000	 3.2117936664e-001
 4.5910919311e+000	 1.2183492440e+000	 2.9235320485e-001
 4.5790986602e+000	 1.2626778925e+000	 2.6948988034e-001
 4.5666450514e+000	 1.3070015205e+000	 2.7865328221e-001
 4.3262953119e+000	 1.2382119668e+000	 2.5088160565e-001
 4.3140595013e+000	 1.2801916340e+000	 2.1019243392e-001
 4.3013846075e+000	 1.3221537197e+000	 2.0022523382e-001
 4.2882693215e+000	 1.3640917223e+000	 1.9395570814e-001
 4.2747124554e+000	 1.4059990840e+000	 1.9088703642e-001
 4.2607129448e+000	 1.4478691937e+000	 1.9048968465e-001
 4.2462698508e+000	 1.4896953899e+000	 1.9220172367e-001
 4.2313823616e+000	 1.5314709629e+000	 1.9542922508e-001
 4.2160497947e+000	 1.5731891585e+000	 1.9954673563e-001
 4.2002715988e+000	 1.6148431803e+000	 2.0389783071e-001
 4.1840473548e+000	 1.6564261930e+000	 2.0779574767e-001
 4.3503302858e+000	 1.2450909222e+000	 2.3265033746e-001
 4.3380264985e+000	 1.2873038097e+000	 2.0272417450e-001
 4.3252811887e+000	 1.3294990181e+000	 1.8812711335e-001
 4.3120930399e+000	 1.3716700096e+000	 1.7783158532e-001
 4.2984608579e+000	 1.4138101900e+000	 1.7132965243e-001
 4.2843835723e+000	 1.4559129115e+000	 1.6807967867e-001
 4.2698602388e+000	 1.4979714754e+000	 1.6750665118e-001
 4.2548900414e+000	 1.5399791349e+000	 1.6900258068e-001
 4.2394722936e+000	 1.5819290983e+000	 1.7192698228e-001
 4.2236064410e+000	 1.6238145313e+000	 1.7560743726e-001
 4.2072920623e+000	 1.6656285608e+000	 1.7934023643e-001
 4.3743652598e+000	 1.2519698775e+000	 2.2281786072e-001
 4.3619934957e+000	 1.2944159855e+000	 1.9815126748e-001
 4.3491777698e+000	 1.3368443166e+000	 1.7887841682e-001
 4.3359167584e+000	 1.3792482970e+000	 1.6451510663e-001
 4.3222092604e+000	 1.4216212960e+000	 1.5454219984e-001
 4.3080541997e+000	 1.4639566292e+000	 1.4840586831e-001
 4.2934506269e+000	 1.5062475609e+000	 1.4551791682e-001
 4.2783977212e+000	 1.5484873069e+000	 1.4525618810e-001
 4.2628947925e+000	 1.5906690380e+000	 1.4696505007e-001
 4.2469412832e+000	 1.6327858823e+000	 1.4995596597e-001
 4.2305367698e+000	 1.6748309285e+000	 1.5350814793e-001
 4.3984002337e+000	 1.2588488329e+000	 2.1567723253e-001
 4.3859604930e+000	 1.3015281612e+000	 1.9561438027e-001
 4.3730743510e+000	 1.3441896150e+000	 1.7243297221e-001
 4.3597404768e+000	 1.3868265843e+000	 1.5396259134e-001
 4.3459576629e+000	 1.4294324020e+000	 1.4048357398e-001
 4.3317248272e+000	 1.4720003470e+000	 1.3142980849e-001
 4.3170410149e+000	 1.5145236464e+000	 1.2619981725e-001
 4.3019054009e+000	 1.5569954790e+000	 1.2415716641e-001
 4.2863172913e+000	 1.5994089778e+000	 1.2463095959e-001
 4.2702761254e+000	 1.6417572333e+000	 1.2691641644e-001
 4.2537814774e+000	 1.6840332963e+000	 1.3027553645e-001
 4.4224352077e+000	 1.2657277883e+000	 2.1254489982e-001
 4.4099274902e+000	 1.3086403370e+000	 1.9588816322e-001
 4.3969709321e+000	 1.3515349135e+000	 1.7549927031e-001
 4.3835641953e+000	 1.3944048717e+000	 1.5153939471e-001
 4.3697060655e+000	 1.4372435081e+000	 1.2911362221e-001
 4.3553954547e+000	 1.4800440647e+000	 1.1711396905e-001
 4.3406314030e+000	 1.5227997319e+000	 1.0951752615e-001
 4.3254130807e+000	 1.5655036510e+000	 1.0567347301e-001
 4.3097397902e+000	 1.6081489176e+000	 1.0489553032e-001
 4.2936109676e+000	 1.6507285843e+000	 1.0646254690e-001
 4.2770261849e+000	 1.6932356640e+000	 1.0961917400e-001
 4.4464701816e+000	 1.2726067437e+000	 2.1362743726e-001
 4.4338944874e+000	 1.3157525127e+000	 2.0020151787e-001
 4.4208675133e+000	 1.3588802119e+000	 1.8296566066e-001
 4.4073879137e+000	 1.4019831590e+000	 1.6209098483e-001
 4.3934544680e+000	 1.4450546141e+000	 1.3779014569e-001
 4.3790660822e+000	 1.4880877825e+000	 1.1031685218e-001
 4.3642217911e+000	 1.5310758174e+000	 9.5437070516e-002
 4.3489207605e+000	 1.5740118230e+000	 8.9773881005e-002
 4.3331622890e+000	 1.6168888573e+000	 8.7730359033e-002
 4.3169458098e+000	 1.6596999353e+000	 8.8568853796e-002
 4.3002708924e+000	 1.7024380317e+000	 9.1516530903e-002
 4.4705051556e+000	 1.2794856990e+000	 2.1882071433e-001
 4.4578614846e+000	 1.3228646884e+000	 2.0844885217e-001
 4.4447640944e+000	 1.3662255104e+000	 1.9418080749e-001
 4.4312116322e+000	 1.4095614464e+000	 1.7619794372e-001
 4.4172028705e+000	 1.4528657201e+000	 1.5472384137e-001
 4.4027367096e+000	 1.4961315002e+000	 1.3002379893e-001
 4.3878121791e+000	 1.5393519029e+000	 1.0240422465e-001
 4.3724284403e+000	 1.5825199950e+000	 7.6427957253e-002
 4.3565847879e+000	 1.6256287971e+000	 7.3107798920e-002
 4.3402806520e+000	 1.6686712863e+000	 7.3210551873e-002
 4.3235155999e+000	 1.7116403995e+000	 7.5945757011e-002
 4.4945401296e+000	 1.2863646544e+000	 2.2802160709e-001
 4.4818284819e+000	 1.3299768642e+000	 2.2052554944e-001
 4.4686606756e+000	 1.3735708088e+000	 2.0903858900e-001
 4.4550353506e+000	 1.4171397337e+000	 1.9375263410e-001
 4.4409512731e+000	 1.4606768261e+000	 1.7490250542e-001
 4.4264073371e+000	 1.5041752179e+000	 1.5276542001e-001
 4.4114025672e+000	 1.5476279884e+000	 1.2766036420e-001
 4.3959361201e+000	 1.5910281670e+000	 9.9947355206e-002
 4.3800072868e+000	 1.6343687369e+000	 7.0026591173e-002
 4.3636154943e+000	 1.6776426373e+000	 6.0363555002e-002
 4.3467603075e+000	 1.7208427672e+000	 6.2885663567e-002
 4.5185751035e+000	 1.2932436098e+000	 2.4112797137e-001
 4.5057954791e+000	 1.3370890399e+000	 2.3632794246e-001
 4.4925572567e+000	 1.3809161073e+000	 2.2743380172e-001
 4.4788590691e+000	 1.4247180211e+000	 2.1464830518e-001
 4.4646996756e+000	 1.4684879322e+000	 1.9821783083e-001
 4.4500779646e+000	 1.5122189357e+000	 1.7843184545e-001
 4.4349929552e+000	 1.5559040739e+000	 1.5562225842e-001
 4.4194437999e+000	 1.5995363390e+000	 1.3016266226e-001
 4.4034297856e+000	 1.6431086766e+000	 1.0246745973e-001
 4.3869503365e+000	 1.6866139883e+000	 7.2990877911e-002
 4.3700050150e+000	 1.7300451349e+000	 5.2315705596e-002
 4.5426100775e+000	 1.3001225651e+000	 2.5803861692e-001
 4.5297624763e+000	 1.3442012157e+000	 2.5575328837e-001
 4.5164538379e+000	 1.3882614057e+000	 2.4926213627e-001
 4.5026827875e+000	 1.4322963084e+000	 2.3877906928e-001
 4.4884480781e+000	 1.4762990382e+000	 2.2456234197e-001
 4.4737485920e+000	 1.5202626534e+000	 2.0691400424e-001
 4.4585833433e+000	 1.5641801594e+000	 1.8617923578e-001
 4.4429514797e+000	 1.6080445111e+000	 1.6274556511e-001
 4.4268522845e+000	 1.6518486164e+000	 1.3704197343e-001
 4.4102851787e+000	 1.6955853393e+000	 1.0953788340e-001
 4.3932497225e+000	 1.7392475027e+000	 8.0742033603e-002
 4.5666450514e+000	 1.3070015205e+000	 2.7865328221e-001
 4.5537294736e+000	 1.3513133914e+000	 2.7869974427e-001
 4.5403504190e+000	 1.3956067041e+000	 2.7442015382e-001
 4.5265065060e+000	 1.4398745957e+000	 2.6603987908e-001
 4.5121964807e+000	 1.4841101442e+000	 2.5382937268e-001
 4.4974192195e+000	 1.5283063712e+000	 2.3810360333e-001
 4.4821737314e+000	 1.5724562449e+000	 2.1922137048e-001
 4.4664591594e+000	 1.6165526831e+000	 1.9758450174e-001
 4.4502747833e+000	 1.6605885562e+000	 1.7363693297e-001
 4.4336200209e+000	 1.7045566903e+000	 1.4786367138e-001
 4.4164944300e+000	 1.7484498704e+000	 1.2078964242e-001
 4.1840473548e+000	 1.6564261930e+000	 2.0779574767e-001
 4.1673767784e+000	 1.6979313258e+000	 1.9138033423e-001
 4.1502597210e+000	 1.7393516748e+000	 1.6584470802e-001
 4.1326961712e+000	 1.7806803072e+000	 1.3040178034e-001
 4.1146862567e+000	 1.8219102636e+000	 8.4243646292e-002
 4.0962302449e+000	 1.8630345624e+000	 2.6542705236e-002
 4.0773285445e+000	 1.9040462023e+000	 1.0340659472e-002
 4.0579817064e+000	 1.9449381662e+000	 1.6243275087e-003
 4.0381904250e+000	 1.9857034249e+000	-2.2265172997e-002
 4.0179555386e+000	 2.0263349401e+000	-6.1502391533e-002
 3.9972780307e+000	 2.0668256687e+000	-1.1625464682e-001
 4.2072920623e+000	 1.6656285608e+000	 1.7934023643e-001
 4.1905288716e+000	 1.7073642776e+000	 1.6377273878e-001
 4.1733167194e+000	 1.7490147397e+000	 1.3978201090e-001
 4.1556555944e+000	 1.7905729755e+000	 1.0656877113e-001
 4.1375456248e+000	 1.8320319873e+000	 6.3311923318e-002
 4.1189870796e+000	 1.8733847544e+000	 9.1696877986e-003
 4.0999803697e+000	 1.9146242367e+000	 1.1365569877e-002
 4.0805260492e+000	 1.9557433782e+000	 1.8857301294e-003
 4.0606248162e+000	 1.9967351106e+000	-2.2273646990e-002
 4.0402775138e+000	 2.0375923565e+000	-6.1293450434e-002
 4.0194851309e+000	 2.0783080336e+000	-1.1534779198e-001
 4.2305367698e+000	 1.6748309285e+000	 1.5350814793e-001
 4.2136809648e+000	 1.7167972294e+000	 1.3889140780e-001
 4.1963737179e+000	 1.7586778046e+000	 1.1654929030e-001
 4.1786150176e+000	 1.8004656439e+000	 8.5670099965e-002
 4.1604049929e+000	 1.8421537110e+000	 4.5419321614e-002
 4.1417439143e+000	 1.8837349464e+000	 9.0055542312e-003
 4.1226321950e+000	 1.9252022712e+000	 1.2783528593e-002
 4.1030703921e+000	 1.9665485903e+000	 2.5646302210e-003
 4.0830592075e+000	 2.0077667963e+000	-2.1844092980e-002
 4.0625994891e+000	 2.0488497728e+000	-6.0630016788e-002
 4.0416922311e+000	 2.0897903984e+000	-1.1397419209e-001
 4.2537814774e+000	 1.6840332963e+000	 1.3027553645e-001
 4.2368330580e+000	 1.7262301812e+000	 1.1671363759e-001
 4.2194307163e+000	 1.7683408694e+000	 9.6125193189e-002
 4.2015744408e+000	 1.8103583123e+000	 6.7685872223e-002
 4.1832643610e+000	 1.8522754347e+000	 3.0547511675e-002
 4.1645007490e+000	 1.8940851384e+000	 1.2033270228e-002
 4.1452840202e+000	 1.9357803056e+000	 1.4606251845e-002
 4.1256147349e+000	 1.9773538023e+000	 3.6743941975e-003
 4.1054935987e+000	 2.0187984819e+000	-2.0961428377e-002
 4.0849214643e+000	 2.0601071891e+000	-5.9495226946e-002
 4.0638993313e+000	 2.1012727632e+000	-1.1211513873e-001
 4.2770261849e+000	 1.6932356640e+000	 1.0961917400e-001
 4.2599851512e+000	 1.7356631330e+000	 9.7217441461e-002
 4.2424877148e+000	 1.7780039343e+000	 7.8489081385e-002
 4.2245338639e+000	 1.8202509806e+000	 5.2596904423e-002
 4.2061237291e+000	 1.8623971584e+000	 1.8678869877e-002
 4.1872575837e+000	 1.9044353304e+000	 1.5446780405e-002
 4.1679358455e+000	 1.9463583401e+000	 1.6846146622e-002
 4.1481590777e+000	 1.9881590143e+000	 5.2290693653e-003
 4.1279279900e+000	 2.0298301676e+000	-1.9609901122e-002
 4.1072434395e+000	 2.0713646055e+000	-5.7871560772e-002
 4.0861064314e+000	 2.1127551280e+000	-1.0975128150e-001
 4.3002708924e+000	 1.7024380317e+000	 9.1516530903e-002
 4.2831372445e+000	 1.7450960848e+000	 8.0381530388e-002
 4.2655447132e+000	 1.7876669991e+000	 6.3621012219e-002
 4.2474932871e+000	 1.8301436490e+000	 4.0384704990e-002
 4.2289830972e+000	 1.8725188821e+000	 9.7964593979e-003
 4.2100144184e+000	 1.9147855224e+000	 1.9257597132e-002
 4.1905876707e+000	 1.9569363745e+000	 1.9516292012e-002
 4.1707034205e+000	 1.9989642264e+000	 7.2433655203e-003
 4.1503623812e+000	 2.0408618533e+000	-1.7773107783e-002
 4.1295654147e+000	 2.0826220218e+000	-5.5740859384e-002
 4.1083135316e+000	 2.1242374928e+000	-1.0686264543e-001
 4.3235155999e+000	 1.7116403995e+000	 7.5945757011e-002
 4.3062893377e+000	 1.7545290366e+000	 6.6185294253e-002
 4.2886017116e+000	 1.7973300640e+000	 5.1501719854e-002
 4.2704527103e+000	 1.8400363174e+000	 3.1031455655e-002
 4.2518424653e+000	 1.8826406057e+000	 1.2496565836e-002
 4.2327712531e+000	 1.9251357145e+000	 2.3477894695e-002
 4.2132394960e+000	 1.9675144090e+000	 2.2630421134e-002
 4.1932477633e+000	 2.0097694384e+000	 9.7326371388e-003
 4.1727967725e+000	 2.0518935390e+000	-1.5434011066e-002
 4.1518873899e+000	 2.0938794381e+000	-5.3084342324e-002
 4.1305206318e+000	 2.1357198577e+000	-1.0342864771e-001
 4.3467603075e+000	 1.7208427672e+000	 6.2885663567e-002
 4.3294414309e+000	 1.7639619884e+000	 5.4608783689e-002
 4.3116587101e+000	 1.8069931288e+000	 4.2112597181e-002
 4.2934121334e+000	 1.8499289858e+000	 2.4519993452e-002
 4.2747018334e+000	 1.8927623294e+000	 1.8693450964e-002
 4.2555280878e+000	 1.9354859065e+000	 2.8120491595e-002
 4.2358913212e+000	 1.9780924434e+000	 2.6202903646e-002
 4.2157921061e+000	 2.0205746504e+000	 1.2712866141e-002
 4.1952311637e+000	 2.0629252247e+000	-1.2574956760e-002
 4.1742093651e+000	 2.1051368545e+000	-4.9882624179e-002
 4.1527277319e+000	 2.1472022225e+000	-9.9428113976e-002
 4.3700050150e+000	 1.7300451349e+000	 5.2315705596e-002
 4.3525935241e+000	 1.7733949402e+000	 4.5632692504e-002
 4.3347157085e+000	 1.8166561937e+000	 3.5435678302e-002
 4.3163715566e+000	 1.8598216541e+000	 2.0833793295e-002
 4.2975612015e+000	 1.9028840531e+000	 2.5285248225e-002
 4.2782849225e+000	 1.9458360985e+000	 3.3198833418e-002
 4.2585431465e+000	 1.9886704779e+000	 3.0248728823e-002
 4.2383364489e+000	 2.0313798625e+000	 1.6200645201e-002
 4.2176655550e+000	 2.0739569104e+000	-9.1776901487e-003
 4.1965313403e+000	 2.1163942708e+000	-4.6115730669e-002
 4.1749348321e+000	 2.1586845873e+000	-9.4839294034e-002
 4.3932497225e+000	 1.7392475027e+000	 8.0742033603e-002
 4.3757456173e+000	 1.7828278921e+000	 4.0775566293e-002
 4.3577727070e+000	 1.8263192586e+000	 3.1453621564e-002
 4.3393309798e+000	 1.8697143225e+000	 1.9956951095e-002
 4.3204205696e+000	 1.9130057768e+000	 3.2284536674e-002
 4.3010417572e+000	 1.9561862905e+000	 3.8726976239e-002
 4.2811949717e+000	 1.9992485124e+000	 3.4783489158e-002
 4.2608807917e+000	 2.0421850745e+000	 2.0213161595e-002
 4.2400999462e+000	 2.0849885961e+000	-5.2233718918e-003
 4.2188533156e+000	 2.1276516871e+000	-4.1763114228e-002
 4.1971419323e+000	 2.1701669521e+000	-8.9639877092e-002
 4.4164944300e+000	 1.7484498704e+000	 1.2078964242e-001
 4.3988977105e+000	 1.7922608439e+000	 8.4049276292e-002
 4.3808297054e+000	 1.8359823234e+000	 4.2152159775e-002
 4.3622904030e+000	 1.8796069909e+000	 2.5026107572e-002
 4.3432799376e+000	 1.9231275005e+000	 3.9704495562e-002
 4.3237985918e+000	 1.9665364825e+000	 4.4719570567e-002
 4.3038467969e+000	 2.0098265468e+000	 3.9823364495e-002
 4.2834251345e+000	 2.0529902865e+000	 2.4768181546e-002
 4.2625343375e+000	 2.0960202818e+000	-6.9259341435e-004
 4.2411752908e+000	 2.1389091034e+000	-3.6803669086e-002
 4.2193490324e+000	 2.1816493170e+000	-8.3807006511e-002
 3.9972780307e+000	 2.0668256687e+000	-1.1625464682e-001
 3.9761590304e+000	 2.1071685659e+000	-1.9215510595e-001
 3.9545998128e+000	 2.1473565890e+000	-2.5358107653e-001
 3.9326018000e+000	 2.1873827014e+000	-3.0050275951e-001
 3.9101665609e+000	 2.2272398761e+000	-3.3290605312e-001
 3.8872958119e+000	 2.2669210994e+000	-3.5079221800e-001
 3.8639914164e+000	 2.3064193751e+000	-3.5417751695e-001
 3.8402553857e+000	 2.3457277277e+000	-3.4309283029e-001
 3.8160898781e+000	 2.3848392068e+000	-3.1758324815e-001
 3.7914971990e+000	 2.4237468907e+000	-2.7770764107e-001
 3.7664798005e+000	 2.4624438902e+000	-2.2353821005e-001
 4.0194851309e+000	 2.0783080336e+000	-1.1534779198e-001
 3.9982488028e+000	 2.1188750579e+000	-1.8922262274e-001
 3.9765698118e+000	 2.1592863478e+000	-2.4864385509e-001
 3.9544495878e+000	 2.1995348275e+000	-2.9359854558e-001
 3.9318897085e+000	 2.2396134310e+000	-3.2408955897e-001
 3.9088918997e+000	 2.2795151055e+000	-3.4013520817e-001
 3.8854580354e+000	 2.3192328160e+000	-3.4176886836e-001
 3.8615901379e+000	 2.3587595484e+000	-3.2903856643e-001
 3.8372903774e+000	 2.3980883135e+000	-3.0200654704e-001
 3.8125610723e+000	 2.4372121512e+000	-2.6074881666e-001
 3.7874046883e+000	 2.4761241341e+000	-2.0535466708e-001
 4.0416922311e+000	 2.0897903984e+000	-1.1397419209e-001
 4.0203385752e+000	 2.1305815500e+000	-1.8594024643e-001
 3.9985398108e+000	 2.1712161067e+000	-2.4347294459e-001
 3.9762973756e+000	 2.2116869537e+000	-2.8657626043e-001
 3.9536128561e+000	 2.2519869858e+000	-3.1527008732e-001
 3.9304879876e+000	 2.2921091116e+000	-3.2958985279e-001
 3.9069246544e+000	 2.3320462570e+000	-3.2958610683e-001
 3.8829248900e+000	 2.3717913691e+000	-3.1532408522e-001
 3.8584908768e+000	 2.4113374202e+000	-2.8688324920e-001
 3.8336249456e+000	 2.4506774117e+000	-2.4435680284e-001
 3.8083295761e+000	 2.4898043779e+000	-1.8785118968e-001
 4.0638993313e+000	 2.1012727632e+000	-1.1211513873e-001
 4.0424283476e+000	 2.1422880420e+000	-1.8228531623e-001
 4.0205098097e+000	 2.1831458655e+000	-2.3804175505e-001
 3.9981451634e+000	 2.2238390798e+000	-2.7940541055e-001
 3.9753360036e+000	 2.2643605407e+000	-3.0641326945e-001
 3.9520840754e+000	 2.3047031177e+000	-3.1911793882e-001
 3.9283912734e+000	 2.3448596980e+000	-3.1758720846e-001
 3.9042596422e+000	 2.3848231898e+000	-3.0190358797e-001
 3.8796913761e+000	 2.4245865269e+000	-2.7216381979e-001
 3.8546888190e+000	 2.4641426722e+000	-2.2847836973e-001
 3.8292544638e+000	 2.5034846217e+000	-1.8228126874e-001
 4.0861064314e+000	 2.1127551280e+000	-1.0975128150e-001
 4.0645181200e+000	 2.1539945340e+000	-1.7823458999e-001
 4.0424798087e+000	 2.1950756243e+000	-2.3232317532e-001
 4.0199929511e+000	 2.2359912059e+000	-2.7205504126e-001
 3.9970591512e+000	 2.2767340956e+000	-2.9748433509e-001
 3.9736801633e+000	 2.3172971239e+000	-3.0868091091e-001
 3.9498578924e+000	 2.3576731389e+000	-3.0572986593e-001
 3.9255943943e+000	 2.3978550105e+000	-2.8873105100e-001
 3.9008918754e+000	 2.4378356336e+000	-2.5779855690e-001
 3.8757526923e+000	 2.4776079327e+000	-2.1306017790e-001
 3.8501793516e+000	 2.5171648656e+000	-2.0827941182e-001
 4.1083135316e+000	 2.1242374928e+000	-1.0686264543e-001
 4.0866078923e+000	 2.1657010260e+000	-1.7376425981e-001
 4.0644498076e+000	 2.2070053831e+000	-2.2628958721e-001
 4.0418407389e+000	 2.2481433320e+000	-2.6449374914e-001
 4.0187822988e+000	 2.2891076504e+000	-2.8844812324e-001
 3.9952762511e+000	 2.3298911300e+000	-2.9823988067e-001
 3.9713245114e+000	 2.3704865799e+000	-2.9397149612e-001
 3.9469291465e+000	 2.4108868312e+000	-2.7576023166e-001
 3.9220923747e+000	 2.4510847403e+000	-2.4373759611e-001
 3.8968165656e+000	 2.4910731932e+000	-1.9804878135e-001
 3.8711042394e+000	 2.5308451094e+000	-2.3153109557e-001
 4.1305206318e+000	 2.1357198577e+000	-1.0342864771e-001
 4.1086976647e+000	 2.1774075181e+000	-1.6884996734e-001
 4.0864198066e+000	 2.2189351420e+000	-2.1991287910e-001
 4.0636885267e+000	 2.2602954581e+000	-2.5668969413e-001
 4.0405054463e+000	 2.3014812053e+000	-2.7926909269e-001
 4.0168723389e+000	 2.3424851361e+000	-2.8775563558e-001
 3.9927911303e+000	 2.3833000209e+000	-2.8226924752e-001
 3.9682638986e+000	 2.4239186519e+000	-2.6294467429e-001
 3.9432928740e+000	 2.4643338470e+000	-2.2993091484e-001
 3.9178804389e+000	 2.5045384537e+000	-1.9650386888e-001
 3.8920291272e+000	 2.5445253532e+000	-2.5208233348e-001
 4.1527277319e+000	 2.1472022225e+000	-9.9428113976e-002
 4.1307874371e+000	 2.1891140101e+000	-1.6346681846e-001
 4.1083898056e+000	 2.2308649008e+000	-2.1316445915e-001
 4.0855363145e+000	 2.2724475842e+000	-2.4861061117e-001
 4.0622285939e+000	 2.3138547601e+000	-2.6991133223e-001
 4.0384684268e+000	 2.3550791422e+000	-2.7718864770e-001
 4.0142577493e+000	 2.3961134619e+000	-2.7058000744e-001
 3.9895986507e+000	 2.4369504726e+000	-2.5023771583e-001
 3.9644933734e+000	 2.4775829537e+000	-2.1632833659e-001
 3.9389443123e+000	 2.5180037142e+000	-2.1895420658e-001
 3.9129540150e+000	 2.5582055971e+000	-2.6997909060e-001
 4.1749348321e+000	 2.1586845873e+000	-9.4839294034e-002
 4.1528772095e+000	 2.2008205021e+000	-1.5758939750e-001
 4.1303598045e+000	 2.2427946596e+000	-2.0601526803e-001
 4.1073841022e+000	 2.2845997104e+000	-2.4022382155e-001
 4.0839517414e+000	 2.3262283150e+000	-2.6033857040e-001
 4.0600645146e+000	 2.3676731483e+000	-2.6649908203e-001
 4.0357243683e+000	 2.4089269028e+000	-2.5886040893e-001
 4.0109334029e+000	 2.4499822933e+000	-2.3759249142e-001
 3.9856938727e+000	 2.4908320604e+000	-2.0287953500e-001
 3.9600081856e+000	 2.5314689747e+000	-2.3859171713e-001
 3.9338789027e+000	 2.5718858409e+000	-2.8526728482e-001
 4.1971419323e+000	 2.1701669521e+000	-8.9639877092e-002
 4.1749669819e+000	 2.2125269942e+000	-1.5119178110e-001
 4.1523298035e+000	 2.2547244184e+000	-1.9843579135e-001
 4.1292318900e+000	 2.2967518365e+000	-2.3149624380e-001
 4.1056748890e+000	 2.3386018699e+000	-2.5051418510e-001
 4.0816606025e+000	 2.3802671544e+000	-2.5564680466e-001
 4.0571909873e+000	 2.4217403438e+000	-2.4706683751e-001
 4.0322681550e+000	 2.4630141140e+000	-2.2496193968e-001
 4.0068943720e+000	 2.5040811671e+000	-1.9987984115e-001
 3.9810720589e+000	 2.5449342352e+000	-2.5546303450e-001
 3.9548037905e+000	 2.5855660847e+000	-2.9799278813e-001
 4.2193490324e+000	 2.1816493170e+000	-8.3807006511e-002
 4.1970567543e+000	 2.2242334862e+000	-1.4424755151e-001
 4.1742998024e+000	 2.2666541773e+000	-1.9039607157e-001
 4.1510796778e+000	 2.3089039626e+000	-2.2239440432e-001
 4.1273980366e+000	 2.3509754247e+000	-2.4040121279e-001
 4.1032566903e+000	 2.3928611605e+000	-2.4459139061e-001
 4.0786576062e+000	 2.4345537848e+000	-2.3515543768e-001
 4.0536029072e+000	 2.4760459347e+000	-2.1229880791e-001
 4.0280948713e+000	 2.5173302738e+000	-2.1824275880e-001
 4.0021359322e+000	 2.5583994957e+000	-2.6961469952e-001
 3.9757286783e+000	 2.5992463286e+000	-3.0820142783e-001
 3.7664798005e+000	 2.4624438902e+000	-2.2353821005e-001
 3.7410402811e+000	 2.5009233526e+000	-1.7221206363e-001
 3.7151813848e+000	 2.5391784651e+000	-2.8580125167e-001
 3.6889060008e+000	 2.5772024595e+000	-3.8006138220e-001
 3.6622171622e+000	 2.6149886150e+000	-4.5509084604e-001
 3.6351180455e+000	 2.6525302629e+000	-5.1099722532e-001
 3.6076119692e+000	 2.6898207896e+000	-5.4789704507e-001
 3.5797023927e+000	 2.7268536410e+000	-5.6591552709e-001
 3.5513929153e+000	 2.7636223260e+000	-5.6518634696e-001
 3.5226872744e+000	 2.8001204200e+000	-5.4585139502e-001
 3.4935893441e+000	 2.8363415688e+000	-5.0806054196e-001
 3.7874046883e+000	 2.4761241341e+000	-2.0535466708e-001
 3.7618238382e+000	 2.5148173712e+000	-1.7837928074e-001
 3.7358212814e+000	 2.5532850122e+000	-2.5932873600e-001
 3.7093999231e+000	 2.5915202509e+000	-3.5283273354e-001
 3.6825628131e+000	 2.6295163296e+000	-4.2799376887e-001
 3.6553131458e+000	 2.6672665421e+000	-4.8491782457e-001
 3.6276542579e+000	 2.7047642384e+000	-5.2371876453e-001
 3.5995896282e+000	 2.7420028279e+000	-5.4451808177e-001
 3.5711228760e+000	 2.7789757834e+000	-5.4744465117e-001
 3.5422577593e+000	 2.8156766446e+000	-5.3263448780e-001
 3.5129981738e+000	 2.8520990220e+000	-5.0023051169e-001
 3.8083295761e+000	 2.4898043779e+000	-1.8785118968e-001
 3.7826073953e+000	 2.5287113898e+000	-2.0611115358e-001
 3.7564611780e+000	 2.5673915592e+000	-2.4949153104e-001
 3.7298938453e+000	 2.6058380424e+000	-3.2693376784e-001
 3.7029084640e+000	 2.6440440441e+000	-4.0203772176e-001
 3.6755082460e+000	 2.6820028213e+000	-4.5978236272e-001
 3.6476965466e+000	 2.7197076873e+000	-5.0027898983e-001
 3.6194768638e+000	 2.7571520148e+000	-5.2364546649e-001
 3.5908528366e+000	 2.7943292408e+000	-5.3000596870e-001
 3.5618282442e+000	 2.8312328691e+000	-5.1949074061e-001
 3.5324070035e+000	 2.8678564751e+000	-4.9223585829e-001
 3.8292544638e+000	 2.5034846217e+000	-1.8228126874e-001
 3.8033909524e+000	 2.5426054084e+000	-2.3096336658e-001
 3.7771010746e+000	 2.5814981062e+000	-2.7143740634e-001
 3.7503877675e+000	 2.6201558338e+000	-3.0311124901e-001
 3.7232541150e+000	 2.6585717586e+000	-3.7716445269e-001
 3.6957033463e+000	 2.6967391006e+000	-4.3553439898e-001
 3.6677388353e+000	 2.7346511361e+000	-4.7752329938e-001
 3.6393640993e+000	 2.7723012017e+000	-5.0324548646e-001
 3.6105827973e+000	 2.8096826981e+000	-5.1282053859e-001
 3.5813987290e+000	 2.8467890937e+000	-5.0637303268e-001
 3.5518158332e+000	 2.8836139283e+000	-4.8403230680e-001
 3.8501793516e+000	 2.5171648656e+000	-2.0827941182e-001
 3.8241745096e+000	 2.5564994271e+000	-2.5298510204e-001
 3.7977409712e+000	 2.5956046532e+000	-2.9050554378e-001
 3.7708816897e+000	 2.6344736253e+000	-3.2023050767e-001
 3.7435997659e+000	 2.6730994731e+000	-3.5331549851e-001
 3.7158984465e+000	 2.7114753798e+000	-4.1211723244e-001
 3.6877811240e+000	 2.7495945849e+000	-4.5539695870e-001
 3.6592513348e+000	 2.7874503886e+000	-4.8326557749e-001
 3.6303127579e+000	 2.8250361555e+000	-4.9583817031e-001
 3.6009692139e+000	 2.8623453183e+000	-4.9323374984e-001
 3.5712246628e+000	 2.8993713815e+000	-4.7557502131e-001
 3.8711042394e+000	 2.5308451094e+000	-2.3153109557e-001
 3.8449580667e+000	 2.5703934457e+000	-2.7222545801e-001
 3.8183808678e+000	 2.6097112003e+000	-3.0674823978e-001
 3.7913756120e+000	 2.6487914167e+000	-3.3447089108e-001
 3.7639454168e+000	 2.6876271877e+000	-3.5475850223e-001
 3.7360935468e+000	 2.7262116591e+000	-3.8947390903e-001
 3.7078234128e+000	 2.7645380338e+000	-4.3384492884e-001
 3.6791385703e+000	 2.8025995755e+000	-4.6365281594e-001
 3.6500427186e+000	 2.8403896129e+000	-4.7900825533e-001
 3.6205396987e+000	 2.8779015428e+000	-4.8002479782e-001
 3.5906334925e+000	 2.9151288346e+000	-4.6681862012e-001
 3.8920291272e+000	 2.5445253532e+000	-2.5208233348e-001
 3.8657416238e+000	 2.5842874643e+000	-2.8873345062e-001
 3.8390207644e+000	 2.6238177473e+000	-3.2021767300e-001
 3.8118695342e+000	 2.6631092081e+000	-3.4588789820e-001
 3.7842910677e+000	 2.7021549022e+000	-3.6508959619e-001
 3.7562886470e+000	 2.7409479383e+000	-3.7716239835e-001
 3.7278657015e+000	 2.7794814826e+000	-4.1281187454e-001
 3.6990258058e+000	 2.8177487624e+000	-4.4435392846e-001
 3.6697726792e+000	 2.8557430702e+000	-4.6227977840e-001
 3.6401101836e+000	 2.8934577674e+000	-4.6669761512e-001
 3.6100423222e+000	 2.9308862878e+000	-4.5771719043e-001
 3.9129540150e+000	 2.5582055971e+000	-2.6997909060e-001
 3.8865251809e+000	 2.5981814829e+000	-3.0255801622e-001
 3.8596606609e+000	 2.6379242943e+000	-3.3096590760e-001
 3.8323634564e+000	 2.6774269996e+000	-3.5453687516e-001
 3.8046367186e+000	 2.7166826167e+000	-3.7259653834e-001
 3.7764837473e+000	 2.7556842175e+000	-3.8446364501e-001
 3.7479079902e+000	 2.7944249314e+000	-3.9224217224e-001
 3.7189130413e+000	 2.8328979493e+000	-4.2531530126e-001
 3.6895026398e+000	 2.8710965276e+000	-4.4560132842e-001
 3.6596806685e+000	 2.9090139919e+000	-4.5320318557e-001
 3.6294511519e+000	 2.9466437410e+000	-4.4822430249e-001
 3.9338789027e+000	 2.5718858409e+000	-2.8526728482e-001
 3.9073087380e+000	 2.6120755016e+000	-3.1374801356e-001
 3.8803005575e+000	 2.6520308414e+000	-3.3904489621e-001
 3.8528573787e+000	 2.6917447910e+000	-3.6047301933e-001
 3.8249823695e+000	 2.7312103313e+000	-3.7733791930e-001
 3.7966788475e+000	 2.7704204968e+000	-3.8893723252e-001
 3.7679502789e+000	 2.8093683802e+000	-3.9456237466e-001
 3.7388002768e+000	 2.8480471362e+000	-4.0648298922e-001
 3.7092326005e+000	 2.8864499850e+000	-4.2892110893e-001
 3.6792511533e+000	 2.9245702165e+000	-4.3949205036e-001
 3.6488599816e+000	 2.9624011941e+000	-4.3829302342e-001
 3.9548037905e+000	 2.5855660847e+000	-2.9799278813e-001
 3.9280922951e+000	 2.6259695202e+000	-3.2235222577e-001
 3.9009404541e+000	 2.6661373884e+000	-3.4450648291e-001
 3.8733513009e+000	 2.7060625825e+000	-3.6375138327e-001
 3.8453280204e+000	 2.7457380458e+000	-3.7937214529e-001
 3.8168739478e+000	 2.7851567760e+000	-3.9064506356e-001
 3.7879925676e+000	 2.8243118291e+000	-3.9683922097e-001
 3.7586875124e+000	 2.8631963231e+000	-3.9721822738e-001
 3.7289625611e+000	 2.9018034423e+000	-4.1218694836e-001
 3.6988216382e+000	 2.9401264410e+000	-4.2551431980e-001
 3.6682688113e+000	 2.9781586473e+000	-4.2787593047e-001
 3.9757286783e+000	 2.5992463286e+000	-3.0820142783e-001
 3.9488758523e+000	 2.6398635388e+000	-3.2841936240e-001
 3.9215803507e+000	 2.6802439354e+000	-3.4740240607e-001
 3.8938452231e+000	 2.7203803739e+000	-3.6442687854e-001
 3.8656736713e+000	 2.7602657603e+000	-3.7875744306e-001
 3.8370690480e+000	 2.7998930552e+000	-3.8964881962e-001
 3.8080348563e+000	 2.8392552779e+000	-3.9634753040e-001
 3.7785747479e+000	 2.8783455100e+000	-3.9809367341e-001
 3.7486925218e+000	 2.9171568997e+000	-3.9534630985e-001
 3.7183921230e+000	 2.9556826656e+000	-4.1121968463e-001
 3.6876776410e+000	 2.9939161004e+000	-4.1692512392e-001
 3.4935893441e+000	 2.8363415688e+000	-5.0806054196e-001
 3.4641031334e+000	 2.8722794922e+000	-4.9598305584e-001
 3.4342327849e+000	 2.9079279873e+000	-4.8754190678e-001
 3.4039825722e+000	 2.9432809326e+000	-4.8275704103e-001
 3.3733568988e+000	 2.9783322907e+000	-4.8163467968e-001
 3.3423602950e+000	 3.0130761123e+000	-4.8416724090e-001
 3.3109974166e+000	 3.0475065394e+000	-4.9033329846e-001
 3.2792730419e+000	 3.0816178084e+000	-5.0009757694e-001
 3.2471920698e+000	 3.1154042534e+000	-5.1341098364e-001
 3.2147595170e+000	 3.1488603094e+000	-5.4566663922e-001
 3.1819805154e+000	 3.1819805154e+000	-5.9386102963e-001
 3.5129981738e+000	 2.8520990220e+000	-5.0023051169e-001
 3.4833481508e+000	 2.8882366005e+000	-4.9099733312e-001
 3.4533118559e+000	 2.9240831428e+000	-4.8446852373e-001
 3.4228935865e+000	 2.9596324933e+000	-4.8066650386e-001
 3.3920977704e+000	 2.9948785812e+000	-4.7960057285e-001
 3.3609289633e+000	 3.0298154240e+000	-4.8126682867e-001
 3.3293918467e+000	 3.0644371313e+000	-4.8564812354e-001
 3.2974912255e+000	 3.0987379073e+000	-4.9271405563e-001
 3.2652320257e+000	 3.1327120548e+000	-5.0658125059e-001
 3.2326192921e+000	 3.1663539778e+000	-5.4173951803e-001
 3.1996581849e+000	 3.1996581849e+000	-5.8685133787e-001
 3.5324070035e+000	 2.8678564751e+000	-4.9223585829e-001
 3.5025931682e+000	 2.9041937088e+000	-4.8584125118e-001
 3.4723909269e+000	 2.9402382983e+000	-4.8123100667e-001
 3.4418046008e+000	 2.9759840540e+000	-4.7843003450e-001
 3.4108386421e+000	 3.0114248717e+000	-4.7745071676e-001
 3.3794976316e+000	 3.0465547358e+000	-4.7829282496e-001
 3.3477862768e+000	 3.0813677232e+000	-4.8094347261e-001
 3.3157094090e+000	 3.1158580062e+000	-4.8537710347e-001
 3.2832719817e+000	 3.1500198562e+000	-5.0522333398e-001
 3.2504790672e+000	 3.1838476462e+000	-5.3827736832e-001
 3.2173358544e+000	 3.2173358544e+000	-5.8042880519e-001
 3.5518158332e+000	 2.8836139283e+000	-4.8403230680e-001
 3.5218381856e+000	 2.9201508170e+000	-4.8046965317e-001
 3.4914699980e+000	 2.9563934538e+000	-4.7778319782e-001
 3.4607156151e+000	 2.9923356148e+000	-4.7600035556e-001
 3.4295795138e+000	 3.0279711622e+000	-4.7513659614e-001
 3.3980662999e+000	 3.0632940475e+000	-4.7519535876e-001
 3.3661807068e+000	 3.0982983150e+000	-4.7616800158e-001
 3.3339275926e+000	 3.1329781052e+000	-4.8154808202e-001
 3.3013119376e+000	 3.1673276576e+000	-5.0420666953e-001
 3.2683388423e+000	 3.2013413146e+000	-5.3526655496e-001
 3.2350135239e+000	 3.2350135239e+000	-5.7457780583e-001
 3.5712246628e+000	 2.8993713815e+000	-4.7557502131e-001
 3.5410832031e+000	 2.9361079253e+000	-4.7483683563e-001
 3.5105490690e+000	 2.9725486093e+000	-4.7407841058e-001
 3.4796266294e+000	 3.0086871755e+000	-4.7332968200e-001
 3.4483203854e+000	 3.0445174527e+000	-4.7260921263e-001
 3.4166349682e+000	 3.0800333592e+000	-4.7192410393e-001
 3.3845751369e+000	 3.1152289069e+000	-4.7126994258e-001
 3.3521457762e+000	 3.1500982041e+000	-4.8190493701e-001
 3.3193518936e+000	 3.1846354590e+000	-5.0351912405e-001
 3.2861986174e+000	 3.2188349829e+000	-5.3269313327e-001
 3.2526911935e+000	 3.2526911935e+000	-5.6928244924e-001
 3.5906334925e+000	 2.9151288346e+000	-4.6681862012e-001
 3.5603282205e+000	 2.9520650336e+000	-4.6889656327e-001
 3.5296281400e+000	 2.9887037647e+000	-4.7006944378e-001
 3.4985376437e+000	 3.0250387362e+000	-4.7036973484e-001
 3.4670612571e+000	 3.0610637432e+000	-4.6981909784e-001
 3.4352036365e+000	 3.0967726710e+000	-4.6842829153e-001
 3.4029695670e+000	 3.1321594988e+000	-4.6867376853e-001
 3.3703639597e+000	 3.1672183030e+000	-4.8248184238e-001
 3.3373918495e+000	 3.2019432604e+000	-5.0314822286e-001
 3.3040583925e+000	 3.2363286513e+000	-5.3054285742e-001
 3.2703688630e+000	 3.2703688630e+000	-5.6452658721e-001
 3.6100423222e+000	 2.9308862878e+000	-4.5771719043e-001
 3.5795732379e+000	 2.9680221419e+000	-4.6260208328e-001
 3.5487072110e+000	 3.0048589202e+000	-4.6570859556e-001
 3.5174486580e+000	 3.0413902970e+000	-4.6707175442e-001
 3.4858021287e+000	 3.0776100337e+000	-4.6671632596e-001
 3.4537723048e+000	 3.1135119827e+000	-4.6465672166e-001
 3.4213639971e+000	 3.1490900907e+000	-4.6948591996e-001
 3.3885821433e+000	 3.1843384020e+000	-4.8326759434e-001
 3.3554318055e+000	 3.2192510618e+000	-5.0308115899e-001
 3.3219181675e+000	 3.2538223197e+000	-5.2880118848e-001
 3.2880465325e+000	 3.2880465325e+000	-5.6029382084e-001
 3.6294511519e+000	 2.9466437410e+000	-4.4822430249e-001
 3.5988182553e+000	 2.9839792502e+000	-4.5590613914e-001
 3.5677862821e+000	 3.0210140757e+000	-4.6094767672e-001
 3.5363596723e+000	 3.0577418577e+000	-4.6338651328e-001
 3.5045430004e+000	 3.0941563242e+000	-4.6325052602e-001
 3.4723409732e+000	 3.1302512944e+000	-4.6190073974e-001
 3.4397584272e+000	 3.1660206826e+000	-4.7041163761e-001
 3.4068003269e+000	 3.2014585009e+000	-4.8425063056e-001
 3.3734717614e+000	 3.2365588632e+000	-5.0330480205e-001
 3.3397779426e+000	 3.2713159881e+000	-5.2745330228e-001
 3.3057242021e+000	 3.3057242021e+000	-5.5656750718e-001
 3.6488599816e+000	 2.9624011941e+000	-4.3829302342e-001
 3.6180632727e+000	 2.9999363585e+000	-4.4876098406e-001
 3.5868653531e+000	 3.0371692312e+000	-4.5573802371e-001
 3.5552706866e+000	 3.0740934184e+000	-4.5926432857e-001
 3.5232838721e+000	 3.1107026147e+000	-4.5937089375e-001
 3.4909096415e+000	 3.1469906062e+000	-4.6197890009e-001
 3.4581528573e+000	 3.1829512745e+000	-4.7144042079e-001
 3.4250185104e+000	 3.2185785998e+000	-4.8541903978e-001
 3.3915117174e+000	 3.2538666646e+000	-5.0380570685e-001
 3.3576377177e+000	 3.2888096565e+000	-5.2648409700e-001
 3.3234018716e+000	 3.3234018716e+000	-5.5333076580e-001
 3.6682688113e+000	 2.9781586473e+000	-4.2787593047e-001
 3.6373082901e+000	 3.0158934668e+000	-4.4111839390e-001
 3.6059444241e+000	 3.0533243867e+000	-4.5003051117e-001
 3.5741817009e+000	 3.0904449792e+000	-4.5465507414e-001
 3.5420247437e+000	 3.1272489052e+000	-4.5540833786e-001
 3.5094783098e+000	 3.1637299179e+000	-4.6207783165e-001
 3.4765472874e+000	 3.1998818664e+000	-4.7256139873e-001
 3.4432366940e+000	 3.2356986988e+000	-4.8676057098e-001
 3.4095516733e+000	 3.2711744660e+000	-5.0457012171e-001
 3.3754974928e+000	 3.3063033249e+000	-5.2587820050e-001
 3.3410795411e+000	 3.3410795411e+000	-5.5056648499e-001
 3.6876776410e+000	 2.9939161004e+000	-4.1692512392e-001
 3.6565533075e+000	 3.0318505751e+000	-4.3292967979e-001
 3.6250234951e+000	 3.0694795422e+000	-4.4377556406e-001
 3.5930927152e+000	 3.1067965399e+000	-4.4950819216e-001
 3.5607656154e+000	 3.1437951957e+000	-4.5363056257e-001
 3.5280469781e+000	 3.1804692296e+000	-4.6218753594e-001
 3.4949417175e+000	 3.2168124582e+000	-4.7376334034e-001
 3.4614548776e+000	 3.2528187977e+000	-4.8826264235e-001
 3.4275916292e+000	 3.2884822674e+000	-5.0558399653e-001
 3.3933572679e+000	 3.3237969933e+000	-5.2561997746e-001
 3.3587572107e+000	 3.3587572106e+000	-5.4825732792e-001
 3.1819805154e+000	 3.1819805154e+000	-5.9386102963e-001
 3.1488603094e+000	 3.2147595170e+000	-6.1100658656e-001
 3.1154042534e+000	 3.2471920698e+000	-6.1877161511e-001
 3.0816178084e+000	 3.2792730419e+000	-6.1665643221e-001
 3.0475065394e+000	 3.3109974166e+000	-6.1184367261e-001
 3.0130761123e+000	 3.3423602950e+000	-6.0437927799e-001
 2.9783322907e+000	 3.3733568988e+000	-5.9433505315e-001
 2.9432809326e+000	 3.4039825722e+000	-5.8180824778e-001
 2.9079279873e+000	 3.4342327849e+000	-5.6692106256e-001
 2.8722794922e+000	 3.4641031334e+000	-5.4982008164e-001
 2.8363415688e+000	 3.4935893441e+000	-5.3067563315e-001
 3.1996581849e+000	 3.1996581849e+000	-5.8685133787e-001
 3.1663539778e+000	 3.2326192921e+000	-6.0144549958e-001
 3.1327120548e+000	 3.2652320257e+000	-6.0936105988e-001
 3.0987379073e+000	 3.2974912255e+000	-6.0762829549e-001
 3.0644371313e+000	 3.3293918467e+000	-6.0220823875e-001
 3.0298154240e+000	 3.3609289633e+000	-5.9451400530e-001
 2.9948785812e+000	 3.3920977704e+000	-5.8463306956e-001
 2.9596324933e+000	 3.4228935865e+000	-5.7267849661e-001
 2.9240831428e+000	 3.4533118559e+000	-5.5878842535e-001
 2.8882366005e+000	 3.4833481508e+000	-5.4312547692e-001
 2.8520990220e+000	 3.5129981738e+000	-5.2587609054e-001
 3.2173358544e+000	 3.2173358544e+000	-5.8042880519e-001
 3.1838476462e+000	 3.2504790672e+000	-5.9268891792e-001
 3.1500198562e+000	 3.2832719817e+000	-5.9874698385e-001
 3.1158580062e+000	 3.3157094090e+000	-5.9795474958e-001
 3.0813677232e+000	 3.3477862768e+000	-5.9209805738e-001
 3.0465547358e+000	 3.3794976316e+000	-5.8433146782e-001
 3.0114248717e+000	 3.4108386421e+000	-5.7475812226e-001
 2.9759840540e+000	 3.4418046008e+000	-5.6350691454e-001
 2.9402382983e+000	 3.4723909269e+000	-5.5073195082e-001
 2.9041937088e+000	 3.5025931682e+000	-5.3661193394e-001
 2.8678564751e+000	 3.5324070035e+000	-5.2134947435e-001
 3.2350135239e+000	 3.2350135239e+000	-5.7457780583e-001
 3.2013413146e+000	 3.2683388423e+000	-5.8471769525e-001
 3.1673276576e+000	 3.3013119376e+000	-5.8912765058e-001
 3.1329781052e+000	 3.3339275926e+000	-5.8770803104e-001
 3.0982983150e+000	 3.3661807068e+000	-5.8168600014e-001
 3.0632940475e+000	 3.3980662999e+000	-5.7400071137e-001
 3.0279711622e+000	 3.4295795138e+000	-5.6487543527e-001
 2.9923356148e+000	 3.4607156151e+000	-5.5445490992e-001
 2.9563934538e+000	 3.4914699980e+000	-5.4290924007e-001
 2.9201508170e+000	 3.5218381856e+000	-5.3043325726e-001
 2.8836139283e+000	 3.5518158332e+000	-5.1724580561e-001
 3.2526911935e+000	 3.2526911935e+000	-5.6928244924e-001
 3.2188349829e+000	 3.2861986174e+000	-5.7751249878e-001
 3.1846354590e+000	 3.3193518936e+000	-5.8048038730e-001
 3.1500982041e+000	 3.3521457762e+000	-5.7809750304e-001
 3.1152289069e+000	 3.3845751369e+000	-5.7114497534e-001
 3.0800333592e+000	 3.4166349682e+000	-5.6369088885e-001
 3.0445174527e+000	 3.4483203854e+000	-5.5515040787e-001
 3.0086871755e+000	 3.4796266294e+000	-5.4568413248e-001
 2.9725486093e+000	 3.5105490690e+000	-5.3547819958e-001
 2.9361079253e+000	 3.5410832031e+000	-5.2474361865e-001
 2.8993713815e+000	 3.5712246628e+000	-5.1371553226e-001
 3.2703688630e+000	 3.2703688630e+000	-5.6452658721e-001
 3.2363286513e+000	 3.3040583925e+000	-5.7105381425e-001
 3.2019432604e+000	 3.3373918495e+000	-5.7278241413e-001
 3.1672183030e+000	 3.3703639597e+000	-5.6963469214e-001
 3.1321594988e+000	 3.4029695670e+000	-5.6153514144e-001
 3.0967726710e+000	 3.4352036365e+000	-5.5357125726e-001
 3.0610637432e+000	 3.4670612571e+000	-5.4574860991e-001
 3.0250387362e+000	 3.4985376437e+000	-5.3735646688e-001
 2.9887037647e+000	 3.5296281400e+000	-5.2859703301e-001
 2.9520650336e+000	 3.5603282205e+000	-5.1969754721e-001
 2.9151288346e+000	 3.5906334925e+000	-5.1090951751e-001
 3.2880465325e+000	 3.2880465325e+000	-5.6029382084e-001
 3.2538223197e+000	 3.3219181675e+000	-5.6532195088e-001
 3.2192510618e+000	 3.3554318055e+000	-5.6601084695e-001
 3.1843384020e+000	 3.3885821433e+000	-5.6229362089e-001
 3.1490900907e+000	 3.4213639971e+000	-5.5410503265e-001
 3.1135119827e+000	 3.4537723048e+000	-5.4381117496e-001
 3.0776100337e+000	 3.4858021287e+000	-5.3683577718e-001
 3.0413902970e+000	 3.5174486580e+000	-5.2963402635e-001
 3.0048589202e+000	 3.5487072110e+000	-5.2242423320e-001
 2.9680221419e+000	 3.5795732379e+000	-5.1544991976e-001
 2.9308862878e+000	 3.6100423222e+000	-5.0897902881e-001
 3.3057242021e+000	 3.3057242021e+000	-5.5656750718e-001
 3.2713159881e+000	 3.3397779426e+000	-5.6029704602e-001
 3.2365588632e+000	 3.3734717614e+000	-5.6014270017e-001
 3.2014585009e+000	 3.4068003269e+000	-5.5604827892e-001
 3.1660206826e+000	 3.4397584272e+000	-5.4795870143e-001
 3.1302512944e+000	 3.4723409732e+000	-5.3582012912e-001
 3.0941563242e+000	 3.5045430004e+000	-5.2857780699e-001
 3.0577418577e+000	 3.5363596723e+000	-5.2267914658e-001
 3.0210140757e+000	 3.5677862821e+000	-5.1711857441e-001
 2.9839792502e+000	 3.5988182553e+000	-5.1215595152e-001
 2.9466437410e+000	 3.6294511519e+000	-5.0807572692e-001
 3.3234018716e+000	 3.3234018716e+000	-5.5333076580e-001
 3.2888096565e+000	 3.3576377177e+000	-5.5595906978e-001
 3.2538666646e+000	 3.3915117174e+000	-5.5515488947e-001
 3.2185785998e+000	 3.4250185104e+000	-5.5087262389e-001
 3.1829512745e+000	 3.4581528573e+000	-5.4306724507e-001
 3.1469906062e+000	 3.4909096415e+000	-5.3169442144e-001
 3.1107026147e+000	 3.5232838721e+000	-5.2114075387e-001
 3.0740934184e+000	 3.5552706866e+000	-5.1665437983e-001
 3.0371692312e+000	 3.5868653531e+000	-5.1283910487e-001
 2.9999363585e+000	 3.6180632727e+000	-5.0997118712e-001
 2.9624011941e+000	 3.6488599816e+000	-5.0835165551e-001
 3.3410795411e+000	 3.3410795411e+000	-5.5056648499e-001
 3.3063033249e+000	 3.3754974928e+000	-5.5228782941e-001
 3.2711744660e+000	 3.4095516733e+000	-5.5102423439e-001
 3.2356986988e+000	 3.4432366940e+000	-5.4674058225e-001
 3.1998818664e+000	 3.4765472874e+000	-5.3940179287e-001
 3.1637299179e+000	 3.5094783098e+000	-5.2897293816e-001
 3.1272489052e+000	 3.5420247437e+000	-5.1541936346e-001
 3.0904449792e+000	 3.5741817009e+000	-5.1172248915e-001
 3.0533243867e+000	 3.6059444241e+000	-5.0974513952e-001
 3.0158934668e+000	 3.6373082901e+000	-5.0905149192e-001
 2.9781586473e+000	 3.6682688113e+000	-5.0995923105e-001
 3.3587572107e+000	 3.3587572106e+000	-5.4825732792e-001
 3.3237969933e+000	 3.3933572679e+000	-5.4926297363e-001
 3.2884822674e+000	 3.4275916292e+000	-5.4772746085e-001
 3.2528187977e+000	 3.4614548776e+000	-5.4362605011e-001
 3.2168124582e+000	 3.4949417175e+000	-5.3693350538e-001
 3.1804692296e+000	 3.5280469781e+000	-5.2762419960e-001
 3.1437951957e+000	 3.5607656154e+000	-5.1567222823e-001
 3.1067965399e+000	 3.5930927152e+000	-5.0804644291e-001
 3.0694795422e+000	 3.6250234951e+000	-5.0799625298e-001
 3.0318505751e+000	 3.6565533075e+000	-5.0955304350e-001
 2.9939161004e+000	 3.6876776410e+000	-5.1305123293e-001
 2.8363415688e+000	 3.4935893441e+000	-5.3067563315e-001
 2.8001204200e+000	 3.5226872744e+000	-4.8584536543e-001
 2.7636223260e+000	 3.5513929153e+000	-4.5408833379e-001
 2.7268536410e+000	 3.5797023927e+000	-4.3582484638e-001
 2.6898207896e+000	 3.6076119692e+000	-4.3148114180e-001
 2.6525302629e+000	 3.6351180455e+000	-4.4148831104e-001
 2.6149886150e+000	 3.6622171622e+000	-4.6628118384e-001
 2.5772024595e+000	 3.6889060008e+000	-5.0629718273e-001
 2.5391784651e+000	 3.7151813848e+000	-5.6197514848e-001
 2.5009233526e+000	 3.7410402811e+000	-6.3375414026e-001
 2.4624438902e+000	 3.7664798005e+000	-5.2515412383e-001
 2.8520990220e+000	 3.5129981738e+000	-5.2587609054e-001
 2.8156766446e+000	 3.5422577593e+000	-4.8656691008e-001
 2.7789757834e+000	 3.5711228760e+000	-4.5967359492e-001
 2.7420028279e+000	 3.5995896282e+000	-4.4561898671e-001
 2.7047642384e+000	 3.6276542579e+000	-4.4483293619e-001
 2.6672665421e+000	 3.6553131458e+000	-4.5775120585e-001
 2.6295163296e+000	 3.6825628131e+000	-4.8481433505e-001
 2.5915202509e+000	 3.7093999231e+000	-5.2646647104e-001
 2.5532850122e+000	 3.7358212814e+000	-5.8315416951e-001
 2.5148173712e+000	 3.7618238382e+000	-6.2244919584e-001
 2.4761241341e+000	 3.7874046883e+000	-5.4298531447e-001
 2.8678564751e+000	 3.5324070035e+000	-5.2134947435e-001
 2.8312328691e+000	 3.5618282442e+000	-4.8734263219e-001
 2.7943292408e+000	 3.5908528366e+000	-4.6509411807e-001
 2.7571520148e+000	 3.6194768638e+000	-4.5502952545e-001
 2.7197076873e+000	 3.6476965466e+000	-4.5758254151e-001
 2.6820028213e+000	 3.6755082460e+000	-4.7319383006e-001
 2.6440440441e+000	 3.7029084640e+000	-5.0230987515e-001
 2.6058380424e+000	 3.7298938453e+000	-5.4538178860e-001
 2.5673915592e+000	 3.7564611780e+000	-5.8705234261e-001
 2.5287113898e+000	 3.7826073953e+000	-5.8884594420e-001
 2.4898043779e+000	 3.8083295761e+000	-5.5992093065e-001
 2.8836139283e+000	 3.5518158332e+000	-5.1724580561e-001
 2.8467890937e+000	 3.5813987290e+000	-4.8832366425e-001
 2.8096826981e+000	 3.6105827973e+000	-4.7050195673e-001
 2.7723012017e+000	 3.6393640993e+000	-4.6420924719e-001
 2.7346511361e+000	 3.6677388353e+000	-4.6988328415e-001
 2.6967391006e+000	 3.6957033463e+000	-4.8796986348e-001
 2.6585717586e+000	 3.7232541150e+000	-5.1892164994e-001
 2.6201558338e+000	 3.7503877675e+000	-5.6236710705e-001
 2.5814981062e+000	 3.7771010746e+000	-5.5827341248e-001
 2.5426054084e+000	 3.8033909524e+000	-5.5901403690e-001
 2.5034846217e+000	 3.8292544638e+000	-5.6433051362e-001
 2.8993713815e+000	 3.5712246628e+000	-5.1371553226e-001
 2.8623453183e+000	 3.6009692139e+000	-4.8966151701e-001
 2.8250361555e+000	 3.6303127579e+000	-4.7604949625e-001
 2.7874503886e+000	 3.6592513348e+000	-4.7331122420e-001
 2.7495945849e+000	 3.6877811240e+000	-4.8188873642e-001
 2.7114753798e+000	 3.7158984465e+000	-5.0223319236e-001
 2.6730994731e+000	 3.7435997659e+000	-5.3480367457e-001
 2.6344736253e+000	 3.7708816897e+000	-5.3776304733e-001
 2.5956046532e+000	 3.7977409712e+000	-5.3325343489e-001
 2.5564994271e+000	 3.8241745096e+000	-5.3290057081e-001
 2.5171648656e+000	 3.8501793516e+000	-5.3643340515e-001
 2.9151288346e+000	 3.5906334925e+000	-5.1090951751e-001
 2.8779015428e+000	 3.6205396987e+000	-4.9150806913e-001
 2.8403896129e+000	 3.6500427186e+000	-4.8188944476e-001
 2.8025995755e+000	 3.6791385703e+000	-4.8248880870e-001
 2.7645380338e+000	 3.7078234128e+000	-4.9375270992e-001
 2.7262116591e+000	 3.7360935468e+000	-5.1613790387e-001
 2.6876271877e+000	 3.7639454168e+000	-5.2564913277e-001
 2.6487914167e+000	 3.7913756120e+000	-5.1690682416e-001
 2.6097112003e+000	 3.8183808678e+000	-5.1193707650e-001
 2.5703934457e+000	 3.8449580667e+000	-5.1045271304e-001
 2.5308451094e+000	 3.8711042394e+000	-5.1216994321e-001
 2.9308862878e+000	 3.6100423222e+000	-5.0897902881e-001
 2.8934577674e+000	 3.6401101836e+000	-4.9401555740e-001
 2.8557430702e+000	 3.6697726792e+000	-4.8817482460e-001
 2.8177487624e+000	 3.6990258058e+000	-4.9189562533e-001
 2.7794814826e+000	 3.7278657015e+000	-5.0562924909e-001
 2.7409479383e+000	 3.7562886470e+000	-5.2035008980e-001
 2.7021549022e+000	 3.7842910677e+000	-5.0833304174e-001
 2.6631092081e+000	 3.8118695342e+000	-4.9974064004e-001
 2.6238177473e+000	 3.8390207644e+000	-4.9426910073e-001
 2.5842874643e+000	 3.8657416238e+000	-4.9161769911e-001
 2.5445253532e+000	 3.8920291272e+000	-4.9148974475e-001
 2.9466437410e+000	 3.6294511519e+000	-5.0807572692e-001
 2.9090139919e+000	 3.6596806685e+000	-4.9733656710e-001
 2.8710965276e+000	 3.6895026398e+000	-4.9505896384e-001
 2.8328979493e+000	 3.7189130413e+000	-5.0168556383e-001
 2.7944249314e+000	 3.7479079902e+000	-5.1767262502e-001
 2.7556842175e+000	 3.7764837473e+000	-5.0597590173e-001
 2.7166826167e+000	 3.8046367186e+000	-4.9469462986e-001
 2.6774269996e+000	 3.8323634564e+000	-4.8620682153e-001
 2.6379242943e+000	 3.8596606609e+000	-4.8019436525e-001
 2.5981814829e+000	 3.8865251809e+000	-4.7634283106e-001
 2.5582055971e+000	 3.9129540150e+000	-4.7434246777e-001
 2.9624011941e+000	 3.6488599816e+000	-5.0835165551e-001
 2.9245702165e+000	 3.6792511533e+000	-5.0162402277e-001
 2.8864499850e+000	 3.7092326005e+000	-5.0269548818e-001
 2.8480471362e+000	 3.7388002768e+000	-5.1201277204e-001
 2.8093683802e+000	 3.7679502789e+000	-5.0836713273e-001
 2.7704204968e+000	 3.7966788475e+000	-4.9526824471e-001
 2.7312103313e+000	 3.8249823695e+000	-4.8467375968e-001
 2.6917447910e+000	 3.8528573787e+000	-4.7624781597e-001
 2.6520308414e+000	 3.8803005575e+000	-4.6965781939e-001
 2.6120755016e+000	 3.9073087380e+000	-4.6457547573e-001
 2.5718858409e+000	 3.9338789027e+000	-4.6067781031e-001
 2.9781586473e+000	 3.6682688113e+000	-5.0995923105e-001
 2.9401264410e+000	 3.6988216382e+000	-5.0703117918e-001
 2.9018034423e+000	 3.7289625611e+000	-5.1123831309e-001
 2.8631963231e+000	 3.7586875124e+000	-5.1412916697e-001
 2.8243118291e+000	 3.7879925676e+000	-5.0001944322e-001
 2.7851567760e+000	 3.8168739478e+000	-4.8816449594e-001
 2.7457380458e+000	 3.8453280204e+000	-4.7821044165e-001
 2.7060625825e+000	 3.8733513009e+000	-4.6980618821e-001
 2.6661373884e+000	 3.9009404541e+000	-4.6260450181e-001
 2.6259695202e+000	 3.9280922951e+000	-4.5626306304e-001
 2.5855660847e+000	 3.9548037905e+000	-4.5044550932e-001
 2.9939161004e+000	 3.6876776410e+000	-5.1305123293e-001
 2.9556826656e+000	 3.7183921230e+000	-5.1371161272e-001
 2.9171568997e+000	 3.7486925218e+000	-5.2084163614e-001
 2.8783455100e+000	 3.7785747479e+000	-5.0759772239e-001
 2.8392552779e+000	 3.8080348563e+000	-4.9526322879e-001
 2.7998930552e+000	 3.8370690480e+000	-4.8460220820e-001
 2.7602657603e+000	 3.8656736713e+000	-4.7524483023e-001
 2.7203803739e+000	 3.8938452231e+000	-4.6682461761e-001
 2.6802439354e+000	 3.9215803507e+000	-4.5897953804e-001
 2.6398635388e+000	 3.9488758523e+000	-4.5135308430e-001
 2.5992463286e+000	 3.9757286783e+000	-4.4359533967e-001
 2.4624438902e+000	 3.7664798005e+000	-5.2515412383e-001
 2.4237468907e+000	 3.7914971990e+000	-4.4205881400e-001
 2.3848392068e+000	 3.8160898781e+000	-3.7529939055e-001
 2.3457277277e+000	 3.8402553857e+000	-3.2461463820e-001
 2.3064193751e+000	 3.8639914164e+000	-2.8974174856e-001
 2.2669210994e+000	 3.8872958119e+000	-2.7041615804e-001
 2.2272398761e+000	 3.9101665609e+000	-2.6637137115e-001
 2.1873827014e+000	 3.9326018000e+000	-2.7733877076e-001
 2.1473565890e+000	 3.9545998128e+000	-3.0304741658e-001
 2.1071685659e+000	 3.9761590304e+000	-3.4322383361e-001
 2.0668256687e+000	 3.9972780307e+000	-3.9759179197e-001
 2.4761241341e+000	 3.7874046883e+000	-5.4298531447e-001
 2.4372121512e+000	 3.8125610723e+000	-4.5969615293e-001
 2.3980883135e+000	 3.8372903774e+000	-3.9229847354e-001
 2.3587595484e+000	 3.8615901379e+000	-3.4054368799e-001
 2.3192328160e+000	 3.8854580354e+000	-3.0418216699e-001
 2.2795151055e+000	 3.9088918997e+000	-2.8296305223e-001
 2.2396134310e+000	 3.9318897085e+000	-2.7663405299e-001
 2.1995348275e+000	 3.9544495878e+000	-2.8494122893e-001
 2.1592863478e+000	 3.9765698118e+000	-3.0762876062e-001
 2.1188750579e+000	 3.9982488028e+000	-3.4443870932e-001
 2.0783080336e+000	 4.0194851309e+000	-3.9511076775e-001
 2.4898043779e+000	 3.8083295761e+000	-5.5992093065e-001
 2.4506774117e+000	 3.8336249456e+000	-4.7655132795e-001
 2.4113374202e+000	 3.8584908768e+000	-4.0862813982e-001
 2.3717913691e+000	 3.8829248900e+000	-3.5591542978e-001
 2.3320462570e+000	 3.9069246544e+000	-3.1817677675e-001
 2.2921091116e+000	 3.9304879876e+000	-2.9517506087e-001
 2.2519869858e+000	 3.9536128561e+000	-2.8667223333e-001
 2.2116869537e+000	 3.9762973756e+000	-2.9242907151e-001
 2.1712161067e+000	 3.9985398108e+000	-3.1220492129e-001
 2.1305815500e+000	 4.0203385752e+000	-3.4575742806e-001
 2.0897903984e+000	 4.0416922311e+000	-3.9284225814e-001
 2.5034846217e+000	 3.8292544638e+000	-5.6433051362e-001
 2.4641426722e+000	 3.8546888190e+000	-4.9272653686e-001
 2.4245865269e+000	 3.8796913761e+000	-4.2438700183e-001
 2.3848231898e+000	 3.9042596422e+000	-3.7082478071e-001
 2.3448596980e+000	 3.9283912734e+000	-3.3181669229e-001
 2.3047031177e+000	 3.9520840754e+000	-3.0713939105e-001
 2.2643605407e+000	 3.9753360036e+000	-2.9656910993e-001
 2.2238390798e+000	 3.9981451634e+000	-2.9988138771e-001
 2.1831458655e+000	 4.0205098097e+000	-3.1685078292e-001
 2.1422880420e+000	 4.0424283476e+000	-3.4725057580e-001
 2.1012727632e+000	 4.0638993313e+000	-3.9085246029e-001
 2.5171648656e+000	 3.8501793516e+000	-5.3643340515e-001
 2.4776079327e+000	 3.8757526923e+000	-5.0832407411e-001
 2.4378356336e+000	 3.9008918754e+000	-4.3967382193e-001
 2.3978550105e+000	 3.9255943943e+000	-3.8536686243e-001
 2.3576731389e+000	 3.9498578924e+000	-3.4519328843e-001
 2.3172971239e+000	 3.9736801633e+000	-3.1894356725e-001
 2.2767340956e+000	 3.9970591512e+000	-3.0640825612e-001
 2.2359912059e+000	 4.0199929511e+000	-3.0737770168e-001
 2.1950756243e+000	 4.0424798087e+000	-3.2164172519e-001
 2.1539945340e+000	 4.0645181200e+000	-3.4898929542e-001
 2.1127551280e+000	 4.0861064314e+000	-3.8920819086e-001
 2.5308451094e+000	 3.8711042394e+000	-5.1216994321e-001
 2.4910731932e+000	 3.8968165656e+000	-5.2344632812e-001
 2.4510847403e+000	 3.9220923747e+000	-4.5458750839e-001
 2.4108868312e+000	 3.9469291465e+000	-3.9963699557e-001
 2.3704865799e+000	 3.9713245114e+000	-3.5839819330e-001
 2.3298911300e+000	 3.9952762511e+000	-3.3067542276e-001
 2.2891076504e+000	 4.0187822988e+000	-3.1627361069e-001
 2.2481433320e+000	 4.0418407389e+000	-3.1499796072e-001
 2.2070053831e+000	 4.0644498076e+000	-3.2665360981e-001
 2.1657010260e+000	 4.0866078923e+000	-3.5104527170e-001
 2.1242374928e+000	 4.1083135316e+000	-3.8797686924e-001
 2.5445253532e+000	 3.8920291272e+000	-4.9148974475e-001
 2.5045384537e+000	 3.9178804389e+000	-5.2514612334e-001
 2.4643338470e+000	 3.9432928740e+000	-4.6922711141e-001
 2.4239186519e+000	 3.9682638986e+000	-4.1373069443e-001
 2.3833000209e+000	 3.9927911303e+000	-3.7152328154e-001
 2.3424851361e+000	 4.0168723389e+000	-3.4242309137e-001
 2.3014812053e+000	 4.0405054463e+000	-3.2624946801e-001
 2.2602954581e+000	 4.0636885267e+000	-3.2282252395e-001
 2.2189351420e+000	 4.0864198066e+000	-3.3196276750e-001
 2.1774075181e+000	 4.1086976647e+000	-3.5349071668e-001
 2.1357198577e+000	 4.1305206318e+000	-3.8722650139e-001
 2.5582055971e+000	 3.9129540150e+000	-4.7434246777e-001
 2.5180037142e+000	 3.9389443123e+000	-5.0354691613e-001
 2.4775829537e+000	 3.9644933734e+000	-4.8369181937e-001
 2.4369504726e+000	 3.9895986507e+000	-4.2774366177e-001
 2.3961134619e+000	 4.0142577493e+000	-3.8466066767e-001
 2.3550791422e+000	 4.0384684268e+000	-3.5427499932e-001
 2.3138547601e+000	 4.0622285939e+000	-3.3642046856e-001
 2.2724475842e+000	 4.0855363145e+000	-3.3093215126e-001
 2.2308649008e+000	 4.1083898056e+000	-3.3764598549e-001
 2.1891140101e+000	 4.1307874371e+000	-3.5639835562e-001
 2.1472022225e+000	 4.1527277319e+000	-3.8702566415e-001
 2.5718858409e+000	 3.9338789027e+000	-4.6067781031e-001
 2.5314689747e+000	 3.9600081856e+000	-4.8560766230e-001
 2.4908320604e+000	 3.9856938727e+000	-4.9808095515e-001
 2.4499822933e+000	 4.0109334029e+000	-4.4177178381e-001
 2.4089269028e+000	 4.0357243683e+000	-3.9790269976e-001
 2.3676731483e+000	 4.0600645146e+000	-3.6631985753e-001
 2.3262283150e+000	 4.0839517414e+000	-3.4687158971e-001
 2.2845997104e+000	 4.1073841022e+000	-3.3940799268e-001
 2.2427946596e+000	 4.1303598045e+000	-3.4378049539e-001
 2.2008205021e+000	 4.1528772095e+000	-3.5984141335e-001
 2.1586845873e+000	 4.1749348321e+000	-3.8744349001e-001
 2.5855660847e+000	 3.9548037905e+000	-4.5044550932e-001
 2.5449342352e+000	 3.9810720589e+000	-4.7127719917e-001
 2.5040811671e+000	 4.0068943720e+000	-5.0263282535e-001
 2.4630141140e+000	 4.0322681550e+000	-4.5591112535e-001
 2.4217403438e+000	 4.0571909873e+000	-4.1134195324e-001
 2.3802671544e+000	 4.0816606025e+000	-3.7864665411e-001
 2.3386018699e+000	 4.1056748890e+000	-3.5768813683e-001
 2.2967518365e+000	 4.1292318900e+000	-3.4833157806e-001
 2.2547244184e+000	 4.1523298035e+000	-3.5044396137e-001
 2.2125269942e+000	 4.1749669819e+000	-3.6389360101e-001
 2.1701669521e+000	 4.1971419323e+000	-3.8854965247e-001
 2.5992463286e+000	 3.9757286783e+000	-4.4359533967e-001
 2.5583994957e+000	 4.0021359322e+000	-4.6050444620e-001
 2.5173302738e+000	 4.0280948713e+000	-4.8749577270e-001
 2.4760459347e+000	 4.0536029072e+000	-4.7025792513e-001
 2.4345537848e+000	 4.0786576062e+000	-4.2507122490e-001
 2.3928611605e+000	 4.1032566903e+000	-3.9134464698e-001
 2.3509754247e+000	 4.1273980366e+000	-3.6895573461e-001
 2.3089039626e+000	 4.1510796778e+000	-3.5778480703e-001
 2.2666541773e+000	 4.1742998024e+000	-3.5771446886e-001
 2.2242334862e+000	 4.1970567543e+000	-3.6862910330e-001
 2.1816493170e+000	 4.2193490324e+000	-3.9041435177e-001
 2.0668256687e+000	 3.9972780307e+000	-3.9759179197e-001
 2.0263349401e+000	 4.0179555386e+000	-4.0558576689e-001
 1.9857034249e+000	 4.0381904250e+000	-4.0440971656e-001
 1.9449381662e+000	 4.0579817064e+000	-3.9412269640e-001
 1.9040462023e+000	 4.0773285445e+000	-3.7479673927e-001
 1.8630345624e+000	 4.0962302449e+000	-3.5860059441e-001
 1.8219102636e+000	 4.1146862567e+000	-3.6120886342e-001
 1.7806803072e+000	 4.1326961712e+000	-3.5312334640e-001
 1.7393516748e+000	 4.1502597210e+000	-3.3535951557e-001
 1.6979313258e+000	 4.1673767784e+000	-3.0890124623e-001
 1.6564261930e+000	 4.1840473548e+000	-2.7469939813e-001
 2.0783080336e+000	 4.0194851309e+000	-3.9511076775e-001
 2.0375923565e+000	 4.0402775138e+000	-4.0282980040e-001
 1.9967351106e+000	 4.0606248162e+000	-4.0139999941e-001
 1.9557433782e+000	 4.0805260492e+000	-3.9088575396e-001
 1.9146242367e+000	 4.0999803697e+000	-3.7136458655e-001
 1.8733847544e+000	 4.1189870796e+000	-3.4440509833e-001
 1.8320319873e+000	 4.1375456248e+000	-3.4374682360e-001
 1.7905729755e+000	 4.1556555944e+000	-3.3269846091e-001
 1.7490147397e+000	 4.1733167194e+000	-3.1229558616e-001
 1.7073642776e+000	 4.1905288716e+000	-2.8354133065e-001
 1.6656285608e+000	 4.2072920623e+000	-2.4740493909e-001
 2.0897903984e+000	 4.0416922311e+000	-3.9284225814e-001
 2.0488497728e+000	 4.0625994891e+000	-4.0020737118e-001
 2.0077667963e+000	 4.0830592075e+000	-3.9844131344e-001
 1.9665485903e+000	 4.1030703921e+000	-3.8761397120e-001
 1.9252022712e+000	 4.1226321950e+000	-3.6780852345e-001
 1.8837349464e+000	 4.1417439143e+000	-3.3912061733e-001
 1.8421537110e+000	 4.1604049929e+000	-3.2785329746e-001
 1.8004656439e+000	 4.1786150176e+000	-3.1368967438e-001
 1.7586778046e+000	 4.1963737179e+000	-2.9050024388e-001
 1.7167972294e+000	 4.2136809648e+000	-2.5930769752e-001
 1.6748309285e+000	 4.2305367698e+000	-2.2109995779e-001
 2.1012727632e+000	 4.0638993313e+000	-3.9085246029e-001
 2.0601071891e+000	 4.0849214643e+000	-3.9778327138e-001
 2.0187984819e+000	 4.1054935987e+000	-3.9559701527e-001
 1.9773538023e+000	 4.1256147349e+000	-3.8436924008e-001
 1.9357803056e+000	 4.1452840202e+000	-3.6418894959e-001
 1.8940851384e+000	 4.1645007490e+000	-3.3515776023e-001
 1.8522754347e+000	 4.1832643610e+000	-3.1353631546e-001
 1.8103583123e+000	 4.2015744408e+000	-2.9610311368e-001
 1.7683408694e+000	 4.2194307163e+000	-2.6997776225e-001
 1.7262301812e+000	 4.2368330580e+000	-2.3620281935e-001
 1.6840332963e+000	 4.2537814774e+000	-1.9578517996e-001
 2.1127551280e+000	 4.0861064314e+000	-3.8920819086e-001
 2.0713646055e+000	 4.1072434395e+000	-3.9562290948e-001
 2.0298301676e+000	 4.1279279900e+000	-3.9293107448e-001
 1.9881590143e+000	 4.1481590777e+000	-3.8121406196e-001
 1.9463583401e+000	 4.1679358455e+000	-3.6056687019e-001
 1.9044353304e+000	 4.1872575837e+000	-3.3109725785e-001
 1.8623971584e+000	 4.2061237291e+000	-3.0080450560e-001
 1.8202509806e+000	 4.2245338639e+000	-2.7994549887e-001
 1.7780039343e+000	 4.2424877148e+000	-2.5073300354e-001
 1.7356631330e+000	 4.2599851512e+000	-2.1422975271e-001
 1.6932356640e+000	 4.2770261849e+000	-1.7146191053e-001
 2.1242374928e+000	 4.1083135316e+000	-3.8797686924e-001
 2.0826220218e+000	 4.1295654147e+000	-3.9379229363e-001
 2.0408618533e+000	 4.1503623812e+000	-3.9050805702e-001
 1.9989642264e+000	 4.1707034205e+000	-3.7821153108e-001
 1.9569363745e+000	 4.1905876707e+000	-3.5700387972e-001
 1.9147855224e+000	 4.2100144184e+000	-3.2699917827e-001
 1.8725188821e+000	 4.2289830972e+000	-2.8966707726e-001
 1.8301436490e+000	 4.2474932871e+000	-2.6522412725e-001
 1.7876669991e+000	 4.2655447132e+000	-2.3277140287e-001
 1.7450960848e+000	 4.2831372445e+000	-1.9339212248e-001
 1.7024380317e+000	 4.3002708924e+000	-1.4813201805e-001
 2.1357198577e+000	 4.1305206318e+000	-3.8722650139e-001
 2.0938794381e+000	 4.1518873899e+000	-3.9235801550e-001
 2.0518935390e+000	 4.1727967725e+000	-3.8839310919e-001
 2.0097694384e+000	 4.1932477633e+000	-3.7542531866e-001
 1.9675144090e+000	 4.2132394960e+000	-3.5356214606e-001
 1.9251357145e+000	 4.2327712531e+000	-3.2292415925e-001
 1.8826406057e+000	 4.2518424653e+000	-2.8364407783e-001
 1.8400363174e+000	 4.2704527103e+000	-2.5194685778e-001
 1.7973300640e+000	 4.2886017116e+000	-2.1609895279e-001
 1.7545290366e+000	 4.3062893377e+000	-1.7369410658e-001
 1.7116403995e+000	 4.3235155999e+000	-1.2579791951e-001
 2.1472022225e+000	 4.1527277319e+000	-3.8702566415e-001
 2.1051368545e+000	 4.1742093651e+000	-3.9138723472e-001
 2.0629252247e+000	 4.1952311637e+000	-3.8665194211e-001
 2.0205746504e+000	 4.2157921061e+000	-3.7291965745e-001
 1.9780924434e+000	 4.2358913212e+000	-3.5030439517e-001
 1.9354859065e+000	 4.2555280878e+000	-3.1893339298e-001
 1.8927623294e+000	 4.2747018334e+000	-2.7894617803e-001
 1.8499289858e+000	 4.2934121334e+000	-2.4012209612e-001
 1.8069931288e+000	 4.3116587101e+000	-2.0072218836e-001
 1.7639619884e+000	 4.3294414309e+000	-1.5514042112e-001
 1.7208427672e+000	 4.3467603075e+000	-1.0446256567e-001
 2.1586845873e+000	 4.1749348321e+000	-3.8744349001e-001
 2.1163942708e+000	 4.1965313403e+000	-3.9094766374e-001
 2.0739569104e+000	 4.2176655550e+000	-3.8535081671e-001
 2.0313798625e+000	 4.2383364489e+000	-3.7075932683e-001
 1.9886704779e+000	 4.2585431465e+000	-3.4729389626e-001
 1.9458360985e+000	 4.2782849225e+000	-3.1508861135e-001
 1.9028840531e+000	 4.2975612015e+000	-2.7428998860e-001
 1.8598216541e+000	 4.3163715566e+000	-2.2975878002e-001
 1.8166561937e+000	 4.3347157085e+000	-1.8664817277e-001
 1.7733949402e+000	 4.3525935241e+000	-1.3773630616e-001
 1.7300451349e+000	 4.3700050150e+000	-8.4129426858e-002
 2.1701669521e+000	 4.1971419323e+000	-3.8854965247e-001
 2.1276516871e+000	 4.2188533156e+000	-3.9110755321e-001
 2.0849885961e+000	 4.2400999462e+000	-3.8455652919e-001
 2.0421850745e+000	 4.2608807917e+000	-3.6900963830e-001
 1.9992485124e+000	 4.2811949717e+000	-3.4459444738e-001
 1.9561862905e+000	 4.3010417572e+000	-3.1145207166e-001
 1.9130057768e+000	 4.3204205696e+000	-2.6973620027e-001
 1.8697143225e+000	 4.3393309798e+000	-2.2086636531e-001
 1.8263192586e+000	 4.3577727070e+000	-1.7388448331e-001
 1.7828278921e+000	 4.3757456173e+000	-1.2394229211e-001
 1.7392475027e+000	 4.3932497225e+000	-1.2580973149e-001
 2.1816493170e+000	 4.2193490324e+000	-3.9041435177e-001
 2.1389091034e+000	 4.2411752908e+000	-3.9193567785e-001
 2.0960202818e+000	 4.2625343375e+000	-3.8433639690e-001
 2.0529902865e+000	 4.2834251345e+000	-3.6773642152e-001
 2.0098265468e+000	 4.3038467969e+000	-3.4227036154e-001
 1.9665364825e+000	 4.3237985918e+000	-3.0808654282e-001
 1.9231275005e+000	 4.3432799376e+000	-2.6534601186e-001
 1.8796069909e+000	 4.3622904030e+000	-2.1422152932e-001
 1.8359823234e+000	 4.3808297054e+000	-1.8105224751e-001
 1.7922608439e+000	 4.3988977105e+000	-1.8457855083e-001
 1.7484498704e+000	 4.4164944300e+000	-1.8453100503e-001
 1.6564261930e+000	 4.1840473548e+000	-2.7469939813e-001
 1.6148431803e+000	 4.2002715988e+000	-2.6235728075e-001
 1.5731891585e+000	 4.2160497947e+000	-2.4652565537e-001
 1.5314709629e+000	 4.2313823616e+000	-2.2801865337e-001
 1.4896953899e+000	 4.2462698508e+000	-2.0761099289e-001
 1.4478691937e+000	 4.2607129448e+000	-1.8603713301e-001
 1.4059990840e+000	 4.2747124554e+000	-1.6399053368e-001
 1.3640917223e+000	 4.2882693215e+000	-1.4212302088e-001
 1.3221537197e+000	 4.3013846075e+000	-1.2104425643e-001
 1.2801916340e+000	 4.3140595013e+000	-1.0132131111e-001
 1.2382119668e+000	 4.3262953119e+000	-9.9194355711e-002
 1.6656285608e+000	 4.2072920623e+000	-2.4740493909e-001
 1.6238145313e+000	 4.2236064410e+000	-2.3315886031e-001
 1.5819290983e+000	 4.2394722936e+000	-2.1565783873e-001
 1.5399791349e+000	 4.2548900414e+000	-1.9571983686e-001
 1.4979714754e+000	 4.2698602388e+000	-1.7412275888e-001
 1.4559129115e+000	 4.2843835723e+000	-1.5160359930e-001
 1.4138101900e+000	 4.2984608579e+000	-1.2885769906e-001
 1.3716700096e+000	 4.3120930399e+000	-1.0653810841e-001
 1.3294990181e+000	 4.3252811887e+000	-8.5255055873e-002
 1.2873038097e+000	 4.3380264985e+000	-6.5575522206e-002
 1.2450909222e+000	 4.3503302858e+000	-5.4227825607e-002
 1.6748309285e+000	 4.2305367698e+000	-2.2109995779e-001
 1.6327858823e+000	 4.2469412832e+000	-2.0457598753e-001
 1.5906690380e+000	 4.2628947925e+000	-1.8503992867e-001
 1.5484873069e+000	 4.2783977212e+000	-1.6331392476e-001
 1.5062475609e+000	 4.2934506269e+000	-1.4017940102e-001
 1.4639566292e+000	 4.3080541997e+000	-1.1637620733e-001
 1.4216212960e+000	 4.3222092604e+000	-9.2601870204e-002
 1.3792482970e+000	 4.3359167584e+000	-6.9510953299e-002
 1.3368443166e+000	 4.3491777698e+000	-4.7714525396e-002
 1.2944159855e+000	 4.3619934957e+000	-2.7779734951e-002
 1.2519698775e+000	 4.3743652598e+000	-1.0229489719e-002
 1.6840332963e+000	 4.2537814774e+000	-1.9578517996e-001
 1.6417572333e+000	 4.2702761254e+000	-1.7661167947e-001
 1.5994089778e+000	 4.2863172913e+000	-1.5467725477e-001
 1.5569954790e+000	 4.3019054009e+000	-1.3080858047e-001
 1.5145236464e+000	 4.3170410149e+000	-1.0579093794e-001
 1.4720003470e+000	 4.3317248272e+000	-8.0367352385e-002
 1.4294324020e+000	 4.3459576629e+000	-5.5237840584e-002
 1.3868265843e+000	 4.3597404768e+000	-3.1058768671e-002
 1.3441896150e+000	 4.3730743510e+000	-8.4423190924e-003
 1.3015281612e+000	 4.3859604930e+000	-1.6949944933e-002
 1.2588488329e+000	 4.3984002337e+000	-2.7438461097e-002
 1.6932356640e+000	 4.2770261849e+000	-1.7146191053e-001
 1.6507285843e+000	 4.2936109676e+000	-1.4926944086e-001
 1.6081489176e+000	 4.3097397902e+000	-1.2457554334e-001
 1.5655036510e+000	 4.3254130807e+000	-9.8211773841e-002
 1.5227997319e+000	 4.3406314030e+000	-7.0967605141e-002
 1.4800440647e+000	 4.3553954547e+000	-4.3589557860e-002
 1.4372435081e+000	 4.3697060655e+000	-1.6780443706e-002
 1.3944048717e+000	 4.3835641953e+000	-1.6767107269e-002
 1.3515349135e+000	 4.3969709321e+000	-2.9770793555e-002
 1.3086403370e+000	 4.4099274902e+000	-3.9193517796e-002
 1.2657277883e+000	 4.4224352077e+000	-4.4929880209e-002
 1.7024380317e+000	 4.3002708924e+000	-1.4813201805e-001
 1.6596999353e+000	 4.3169458098e+000	-1.2255325095e-001
 1.6168888573e+000	 4.3331622890e+000	-9.4740906704e-002
 1.5740118230e+000	 4.3489207605e+000	-6.5531772897e-002
 1.5310758174e+000	 4.3642217911e+000	-3.5719849159e-002
 1.4880877825e+000	 4.3790660822e+000	-1.9169111823e-002
 1.4450546141e+000	 4.3934544680e+000	-3.4884694343e-002
 1.4019831590e+000	 4.4073879137e+000	-4.7084656974e-002
 1.3588802119e+000	 4.4208675133e+000	-5.5617944073e-002
 1.3157525127e+000	 4.4338944874e+000	-6.0348383268e-002
 1.2726067437e+000	 4.4464701816e+000	-6.1154917526e-002
 1.7116403995e+000	 4.3235155999e+000	-1.2579791951e-001
 1.6686712863e+000	 4.3402806520e+000	-9.6467550707e-002
 1.6256287971e+000	 4.3565847879e+000	-6.5179832815e-002
 1.5825199950e+000	 4.3724284403e+000	-3.2777135831e-002
 1.5393519029e+000	 4.3878121791e+000	-4.2440606554e-002
 1.4961315002e+000	 4.4027367096e+000	-5.7424962821e-002
 1.4528657201e+000	 4.4172028705e+000	-6.8888670104e-002
 1.4095614464e+000	 4.4312116322e+000	-7.6648685733e-002
 1.3662255104e+000	 4.4447640944e+000	-8.0537131004e-002
 1.3228646884e+000	 4.4578614846e+000	-8.0401575125e-002
 1.2794856990e+000	 4.4705051556e+000	-7.6105280508e-002
 1.7208427672e+000	 4.3467603075e+000	-1.0446256567e-001
 1.6776426373e+000	 4.3636154943e+000	-7.1017230491e-002
 1.6343687369e+000	 4.3800072868e+000	-5.2859340529e-002
 1.5910281670e+000	 4.3959361201e+000	-7.0309243321e-002
 1.5476279884e+000	 4.4114025672e+000	-8.4515214234e-002
 1.5041752179e+000	 4.4264073371e+000	-9.5246430258e-002
 1.4606768261e+000	 4.4409512731e+000	-1.0228706783e-001
 1.4171397337e+000	 4.4550353506e+000	-1.0543668079e-001
 1.3735708088e+000	 4.4686606756e+000	-1.0451053868e-001
 1.3299768642e+000	 4.4818284819e+000	-9.9339925174e-002
 1.2863646544e+000	 4.4945401296e+000	-8.9772396648e-002
 1.7300451349e+000	 4.3700050150e+000	-8.4129426858e-002
 1.6866139883e+000	 4.3869503365e+000	-8.6614571504e-002
 1.6431086766e+000	 4.4034297856e+000	-1.0304035262e-001
 1.5995363390e+000	 4.4194437999e+000	-1.1635386834e-001
 1.5559040739e+000	 4.4349929552e+000	-1.2629071721e-001
 1.5122189357e+000	 4.4500779646e+000	-1.3260158218e-001
 1.4684879322e+000	 4.4646996756e+000	-1.3505266616e-001
 1.4247180211e+000	 4.4788590691e+000	-1.3342608702e-001
 1.3809161073e+000	 4.4925572567e+000	-1.2752023157e-001
 1.3370890399e+000	 4.5057954791e+000	-1.1715006862e-001
 1.2932436098e+000	 4.5185751035e+000	-1.0214742093e-001
 1.7392475027e+000	 4.3932497225e+000	-1.2580973149e-001
 1.6955853393e+000	 4.4102851787e+000	-1.4097472320e-001
 1.6518486164e+000	 4.4268522845e+000	-1.5321303969e-001
 1.6080445111e+000	 4.4429514797e+000	-1.6222615105e-001
 1.5641801594e+000	 4.4585833433e+000	-1.6773062026e-001
 1.5202626534e+000	 4.4737485920e+000	-1.6945859846e-001
 1.4762990382e+000	 4.4884480781e+000	-1.6715827871e-001
 1.4322963084e+000	 4.5026827875e+000	-1.6059430806e-001
 1.3882614057e+000	 4.5164538379e+000	-1.4954815742e-001
 1.3442012157e+000	 4.5297624763e+000	-1.3381844927e-001
 1.3001225651e+000	 4.5426100775e+000	-1.1322124302e-001
 1.7484498704e+000	 4.4164944300e+000	-1.8453100503e-001
 1.7045566903e+000	 4.4336200209e+000	-1.9544103551e-001
 1.6605885562e+000	 4.4502747833e+000	-2.0333177891e-001
 1.6165526831e+000	 4.4664591594e+000	-2.0788514264e-001
 1.5724562449e+000	 4.4821737314e+000	-2.0879861258e-001
 1.5283063712e+000	 4.4974192195e+000	-2.0578576786e-001
 1.4841101442e+000	 4.5121964807e+000	-1.9857675307e-001
 1.4398745957e+000	 4.5265065060e+000	-1.8691870736e-001
 1.3956067041e+000	 4.5403504190e+000	-1.7057615037e-001
 1.3513133914e+000	 4.5537294736e+000	-1.4933132457e-001
 1.3070015205e+000	 4.5666450514e+000	-1.2298449428e-001
 1.2382119668e+000	 4.3262953119e+000	-9.9194355711e-002
 1.1962211613e+000	 4.3380934676e+000	-9.6122114307e-002
 1.1542255995e+000	 4.3494555137e+000	-8.9809560038e-002
 1.1122316001e+000	 4.3603831102e+000	-7.9441949617e-002
 1.0702454156e+000	 4.3708780297e+000	-6.4300031450e-002
 1.0282732308e+000	 4.3809421547e+000	-5.3306397468e-002
 9.8632116015e-001	 4.3905774756e+000	-4.1108246120e-002
 9.4439524573e-001	 4.3997860880e+000	-2.1027253178e-002
 9.0250145542e-001	 4.4085701903e+000	 6.5651987921e-003
 8.6064568090e-001	 4.4169320814e+000	 4.1292924006e-002
 8.1883373586e-001	 4.4248741579e+000	 8.2774747830e-002
 1.2450909222e+000	 4.3503302858e+000	-5.4227825607e-002
 1.2028668344e+000	 4.3621939868e+000	-5.0541041073e-002
 1.1606379640e+000	 4.3736191554e+000	-4.3789045691e-002
 1.1184106645e+000	 4.3846074608e+000	-5.1196624773e-002
 1.0761912235e+000	 4.3951606854e+000	-5.3304395242e-002
 1.0339858599e+000	 4.4052807222e+000	-4.7658586782e-002
 9.9180072215e-001	 4.4149695727e+000	-3.4607877638e-002
 9.4964188598e-001	 4.4242293440e+000	-1.4504776987e-002
 9.0751535240e-001	 4.4330622469e+000	 1.2294107402e-002
 8.6542704580e-001	 4.4414705930e+000	 4.5427824827e-002
 8.2338281217e-001	 4.4494567921e+000	 8.4530861252e-002
 1.2519698775e+000	 4.3743652598e+000	-1.0229489719e-002
 1.2095125075e+000	 4.3862945061e+000	-2.8696813066e-002
 1.1670503284e+000	 4.3977827972e+000	-4.3155724451e-002
 1.1245897290e+000	 4.4088318115e+000	-5.0048921605e-002
 1.0821370313e+000	 4.4194433411e+000	-4.9705603401e-002
 1.0396984889e+000	 4.4296192898e+000	-4.2457601742e-002
 9.9728028415e-001	 4.4393616698e+000	-2.8639729619e-002
 9.5488852624e-001	 4.4486726001e+000	-8.5901072292e-003
 9.1252924937e-001	 4.4575543036e+000	 1.7349534759e-002
 8.7020841069e-001	 4.4660091046e+000	 4.8833575594e-002
 8.2793188848e-001	 4.4740394263e+000	 8.5512249179e-002
 1.2588488329e+000	 4.3984002337e+000	-2.7438461097e-002
 1.2161581807e+000	 4.4103950254e+000	-3.4998262352e-002
 1.1734626929e+000	 4.4219464389e+000	-4.5394847288e-002
 1.1307687934e+000	 4.4330561621e+000	-4.9091478590e-002
 1.0880828392e+000	 4.4437259969e+000	-4.6404511132e-002
 1.0454111180e+000	 4.4539578573e+000	-3.7652343931e-002
 1.0027598461e+000	 4.4637537669e+000	-2.3155804460e-002
 9.6013516649e-001	 4.4731158561e+000	-3.2385108009e-003
 9.1754314634e-001	 4.4820463602e+000	 2.1772789352e-002
 8.7498977558e-001	 4.4905476161e+000	 5.1547903690e-002
 8.3248096479e-001	 4.4986220605e+000	 8.5752905052e-002
 1.2657277883e+000	 4.4224352077e+000	-4.4929880209e-002
 1.2228038538e+000	 4.4344955446e+000	-4.1185283490e-002
 1.1798750573e+000	 4.4461100807e+000	-4.7647833118e-002
 1.1369478578e+000	 4.4572805127e+000	-4.8267213118e-002
 1.0940286471e+000	 4.4680086526e+000	-4.3346796983e-002
 1.0511237471e+000	 4.4782964248e+000	-3.3191420221e-002
 1.0082394081e+000	 4.4881458639e+000	-1.8107801085e-002
 9.6538180674e-001	 4.4975591122e+000	 1.5950610906e-003
 9.2255704332e-001	 4.5065384168e+000	 2.5605511000e-002
 8.7977114048e-001	 4.5150861277e+000	 5.3608886852e-002
 8.3703004110e-001	 4.5232046947e+000	 8.5287195045e-002
 1.2726067437e+000	 4.4464701816e+000	-6.1154917526e-002
 1.2294495269e+000	 4.4585960639e+000	-4.7195499664e-002
 1.1862874218e+000	 4.4702737224e+000	-4.9854727076e-002
 1.1431269223e+000	 4.4815048633e+000	-4.7518762668e-002
 1.0999744549e+000	 4.4922913083e+000	-4.0477857884e-002
 1.0568363761e+000	 4.5026349923e+000	-2.9023150738e-002
 1.0137189701e+000	 4.5125379610e+000	-1.3447123145e-002
 9.7062844700e-001	 4.5220023682e+000	 5.9559643964e-003
 9.2757094029e-001	 4.5310304734e+000	 2.8889661895e-002
 8.8455250537e-001	 4.5396246393e+000	 5.5054943704e-002
 8.4157911741e-001	 4.5477873289e+000	 8.4149847985e-002
 1.2794856990e+000	 4.4705051556e+000	-7.6105280508e-002
 1.2360952000e+000	 4.4826965832e+000	-5.2966254899e-002
 1.1926997862e+000	 4.4944373641e+000	-5.1955300214e-002
 1.1493059867e+000	 4.5057292139e+000	-4.6788492340e-002
 1.1059202628e+000	 4.5165739640e+000	-3.7742816721e-002
 1.0625490052e+000	 4.5269735599e+000	-2.5095576568e-002
 1.0191985321e+000	 4.5369300581e+000	-9.1248869599e-003
 9.7587508725e-001	 4.5464456242e+000	 9.8898539689e-003
 9.3258483726e-001	 4.5555225300e+000	 3.1667517940e-002
 8.8933387026e-001	 4.5641631508e+000	 5.5924824589e-002
 8.4612819372e-001	 4.5723699631e+000	 8.2375945607e-002
 1.2863646544e+000	 4.4945401296e+000	-8.9772396648e-002
 1.2427408731e+000	 4.5067971024e+000	-5.8434621520e-002
 1.1991121506e+000	 4.5186010059e+000	-5.3889056833e-002
 1.1554850512e+000	 4.5299535645e+000	-4.6018502132e-002
 1.1118660707e+000	 4.5408566198e+000	-3.5086529664e-002
 1.0682616342e+000	 4.5513121274e+000	-2.1356467222e-002
 1.0246780942e+000	 4.5613221552e+000	-5.0919291961e-003
 9.8112172750e-001	 4.5708888803e+000	 1.3442675570e-002
 9.3759873424e-001	 4.5800145866e+000	 3.3981660356e-002
 8.9411523516e-001	 4.5887016624e+000	 5.6257602707e-002
 8.5067727003e-001	 4.5969525973e+000	 8.0000913116e-002
 1.2932436098e+000	 4.5185751035e+000	-1.0214742093e-001
 1.2493865463e+000	 4.5308976217e+000	-6.3537407380e-002
 1.2055245151e+000	 4.5427646476e+000	-5.5595241577e-002
 1.1616641156e+000	 4.5541779151e+000	-4.5150633992e-002
 1.1178118785e+000	 4.5651392755e+000	-3.2453593258e-002
 1.0739742633e+000	 4.5756506949e+000	-1.7753327857e-002
 1.0301576562e+000	 4.5857142523e+000	-1.2988143084e-003
 9.8636836776e-001	 4.5953321363e+000	 1.6660658132e-002
 9.4261263121e-001	 4.6045066432e+000	 3.5874967565e-002
 8.9889660005e-001	 4.6132401739e+000	 5.6092665518e-002
 8.5522634634e-001	 4.6215352316e+000	 7.7060510053e-002
 1.3001225651e+000	 4.5426100775e+000	-1.1322124302e-001
 1.2560322194e+000	 4.5549981410e+000	-7.2373729128e-002
 1.2119368795e+000	 4.5669282894e+000	-5.7012846302e-002
 1.1678431801e+000	 4.5784022658e+000	-4.4126478646e-002
 1.1237576864e+000	 4.5894219312e+000	-2.9788351292e-002
 1.0796868924e+000	 4.5999892625e+000	-1.4233406268e-002
 1.0356372182e+000	 4.6101063494e+000	 2.3041582610e-003
 9.9161500801e-001	 4.6197753924e+000	 1.9590306272e-002
 9.4762652819e-001	 4.6289986998e+000	 3.7390607328e-002
 9.0367796494e-001	 4.6377786855e+000	 5.5469706441e-002
 8.5977542265e-001	 4.6461178658e+000	 7.3590821450e-002
 1.3070015205e+000	 4.5666450514e+000	-1.2298449428e-001
 1.2626778925e+000	 4.5790986602e+000	-8.0432552391e-002
 1.2183492440e+000	 4.5910919311e+000	-5.8080616727e-002
 1.1740222445e+000	 4.6026266164e+000	-4.2887382208e-002
 1.1297034943e+000	 4.6137045869e+000	-2.7034901452e-002
 1.0853995214e+000	 4.6243278300e+000	-1.0743699662e-002
 1.0411167802e+000	 4.6344984465e+000	 5.7669471076e-003
 9.9686164827e-001	 4.6442186484e+000	 2.2278393028e-002
 9.5264042516e-001	 4.6534907565e+000	 3.8572029129e-002
 9.0845932984e-001	 4.6623171971e+000	 5.4428716789e-002
 8.6432449896e-001	 4.6707005000e+000	 6.9628249263e-002
 8.1883373586e-001	 4.4248741579e+000	 8.2774747830e-002
 7.7707135428e-001	 4.4323989115e+000	 7.4512362442e-002
 7.3536418877e-001	 4.4395089267e+000	 6.7389875139e-002
 6.9371780909e-001	 4.4462068779e+000	 6.1242453682e-002
 6.5213770062e-001	 4.4524955272e+000	 5.5899812978e-002
 6.1062926301e-001	 4.4583777210e+000	 5.9149902220e-002
 5.6919780892e-001	 4.4638563882e+000	 7.4890454195e-002
 5.2784856279e-001	 4.4689345369e+000	 8.6716590611e-002
 4.8658665973e-001	 4.4736152520e+000	 9.4741331150e-002
 4.4541714450e-001	 4.4779016925e+000	 9.9047787753e-002
 4.0434497057e-001	 4.4817970888e+000	 9.9690102026e-002
 8.2338281217e-001	 4.4494567921e+000	 8.4530861252e-002
 7.8138841736e-001	 4.4570233499e+000	 7.7292087280e-002
 7.3944954538e-001	 4.4641728651e+000	 7.1292458000e-002
 6.9757179692e-001	 4.4709080272e+000	 6.6377883174e-002
 6.5576068785e-001	 4.4772316134e+000	 6.2388486214e-002
 6.1402164781e-001	 4.4831464861e+000	 6.4236192806e-002
 5.7236001898e-001	 4.4886555903e+000	 7.8213934926e-002
 5.3078105481e-001	 4.4937619509e+000	 8.8611509557e-002
 4.8928991895e-001	 4.4984686700e+000	 9.5544391381e-002
 4.4789168419e-001	 4.5027789241e+000	 9.9097407243e-002
 4.0659133152e-001	 4.5066959615e+000	 9.9325692921e-002
 8.2793188848e-001	 4.4740394263e+000	 8.5512249179e-002
 7.8570548043e-001	 4.4816477883e+000	 7.9299329900e-002
 7.4353490198e-001	 4.4888368036e+000	 7.4425454635e-002
 7.0142578475e-001	 4.4956091766e+000	 7.0747413675e-002
 6.5938367507e-001	 4.5019676997e+000	 6.8115874038e-002
 6.1741403260e-001	 4.5079152512e+000	 6.9226277484e-002
 5.7552222903e-001	 4.5134547925e+000	 8.1598857019e-002
 5.3371354682e-001	 4.5185893650e+000	 9.0731857685e-002
 4.9199317817e-001	 4.5233220881e+000	 9.6743093593e-002
 4.5036622388e-001	 4.5276561557e+000	 9.9718983720e-002
 4.0883769246e-001	 4.5315948342e+000	 9.9715528349e-002
 8.3248096479e-001	 4.4986220605e+000	 8.5752905052e-002
 7.9002254351e-001	 4.5062722267e+000	 8.0563583524e-002
 7.4762025859e-001	 4.5135007421e+000	 7.6813869887e-002
 7.0527977258e-001	 4.5203103259e+000	 7.4371576026e-002
 6.6300666230e-001	 4.5267037859e+000	 7.3098050152e-002
 6.2080641740e-001	 4.5326840163e+000	 7.4081310660e-002
 5.7868443908e-001	 4.5382539946e+000	 8.5005081358e-002
 5.3664603884e-001	 4.5434167791e+000	 9.3036271426e-002
 4.9469643739e-001	 4.5481755061e+000	 9.8294918717e-002
 4.5284076358e-001	 4.5525333873e+000	 1.0086891139e-001
 4.1108405341e-001	 4.5564937069e+000	 1.0081498432e-001
 8.3703004110e-001	 4.5232046947e+000	 8.5287195045e-002
 7.9433960659e-001	 4.5308966650e+000	 8.1114753208e-002
 7.5170561519e-001	 4.5381646806e+000	 7.8483159386e-002
 7.0913376041e-001	 4.5450114752e+000	 7.7271390647e-002
 6.6662964952e-001	 4.5514398722e+000	 7.7351616452e-002
 6.2419880219e-001	 4.5574527815e+000	 7.8763013354e-002
 5.8184664912e-001	 4.5630531968e+000	 8.8393073667e-002
 5.3957853085e-001	 4.5682441932e+000	 9.5484030053e-002
 4.9739969661e-001	 4.5730289242e+000	 1.0015802830e-001
 4.5531530327e-001	 4.5774106189e+000	 1.0250430260e-001
 4.1333041436e-001	 4.5813925796e+000	 1.0258019226e-001
 8.4157911741e-001	 4.5477873289e+000	 8.4149847985e-002
 7.9865666967e-001	 4.5555211034e+000	 8.0983144705e-002
 7.5579097179e-001	 4.5628286191e+000	 7.9459217365e-002
 7.1298774823e-001	 4.5697126245e+000	 7.9468354301e-002
 6.7025263675e-001	 4.5761759585e+000	 8.0893688749e-002
 6.2759118699e-001	 4.5822215466e+000	 8.3610844765e-002
 5.8500885917e-001	 4.5878523989e+000	 9.1723888162e-002
 5.4251102287e-001	 4.5930716073e+000	 9.8035038310e-002
 5.0010295583e-001	 4.5978823423e+000	 1.0229124611e-001
 4.5778984296e-001	 4.6022878506e+000	 1.0458296844e-001
 4.1557677530e-001	 4.6062914523e+000	 1.0496801862e-001
 8.4612819372e-001	 4.5723699631e+000	 8.2375945607e-002
 8.0297373275e-001	 4.5801455418e+000	 8.0199453700e-002
 7.5987632840e-001	 4.5874925575e+000	 7.9768364865e-002
 7.1684173606e-001	 4.5944137738e+000	 8.0984427294e-002
 6.7387562397e-001	 4.6009120447e+000	 8.3741882959e-002
 6.3098357178e-001	 4.6069903117e+000	 8.7927099049e-002
 5.8817106922e-001	 4.6126516011e+000	 9.4959151732e-002
 5.4544351488e-001	 4.6178990214e+000	 1.0064980960e-001
 5.0280621505e-001	 4.6227357603e+000	 1.0465404034e-001
 4.6026438265e-001	 4.6271650822e+000	 1.0706339996e-001
 4.1782313625e-001	 4.6311903250e+000	 1.0793604506e-001
 8.5067727003e-001	 4.5969525973e+000	 8.0000913116e-002
 8.0729079583e-001	 4.6047699802e+000	 7.8794755379e-002
 7.6396168500e-001	 4.6121564960e+000	 7.9437338330e-002
 7.2069572389e-001	 4.6191149232e+000	 8.1842021078e-002
 6.7749861120e-001	 4.6256481310e+000	 8.5914301727e-002
 6.3437595657e-001	 4.6317590768e+000	 9.1551434139e-002
 5.9133327927e-001	 4.6374508033e+000	 9.8061048627e-002
 5.4837600689e-001	 4.6427264355e+000	 1.0328944969e-001
 5.0550947427e-001	 4.6475891784e+000	 1.0720650636e-001
 4.6273892234e-001	 4.6520423138e+000	 1.0990474997e-001
 4.2006949719e-001	 4.6560891977e+000	 1.1144254939e-001
 8.5522634634e-001	 4.6215352316e+000	 7.7060510053e-002
 8.1160785890e-001	 4.6293944186e+000	 7.6800494339e-002
 7.6804704160e-001	 4.6368204345e+000	 7.8493278551e-002
 7.2454971171e-001	 4.6438160725e+000	 8.2063986251e-002
 6.8112159842e-001	 4.6503842172e+000	 8.7429521486e-002
 6.3776834136e-001	 4.6565278419e+000	 9.4498170697e-002
 5.9449548931e-001	 4.6622500054e+000	 1.0099230564e-001
 5.5130849891e-001	 4.6675538496e+000	 1.0591564100e-001
 5.0821273349e-001	 4.6724425965e+000	 1.0990935007e-001
 4.6521346202e-001	 4.6769195454e+000	 1.1306681547e-001
 4.2231585814e-001	 4.6809880705e+000	 1.1544648703e-001
 8.5977542265e-001	 4.6461178658e+000	 7.3590821450e-002
 8.1592492198e-001	 4.6540188570e+000	 7.4248474812e-002
 7.7213239820e-001	 4.6614843730e+000	 7.6963719978e-002
 7.2840369954e-001	 4.6685172218e+000	 8.1673600944e-002
 6.8474458564e-001	 4.6751203035e+000	 8.8306579918e-002
 6.4116072615e-001	 4.6812966070e+000	 9.6782124189e-002
 5.9765769936e-001	 4.6870492076e+000	 1.0371617773e-001
 5.5424099092e-001	 4.6923812637e+000	 1.0849062731e-001
 5.1091599270e-001	 4.6972960145e+000	 1.1272387171e-001
 4.6768800171e-001	 4.7017967771e+000	 1.1651002056e-001
 4.2456221908e-001	 4.7058869432e+000	 1.1990747306e-001
 8.6432449896e-001	 4.6707005000e+000	 6.9628249263e-002
 8.2024198506e-001	 4.6786432954e+000	 7.1170851205e-002
 7.7621775480e-001	 4.6861483115e+000	 7.4876580353e-002
 7.3225768736e-001	 4.6932183711e+000	 8.0694559564e-002
 6.8836757286e-001	 4.6998563898e+000	 8.8564963822e-002
 6.4455311094e-001	 4.7060653722e+000	 9.8418591870e-002
 6.0081990940e-001	 4.7118484097e+000	 1.0619643417e-001
 5.5717348293e-001	 4.7172086778e+000	 1.1097719899e-001
 5.1361925192e-001	 4.7221494326e+000	 1.1561195024e-001
 4.7016254140e-001	 4.7266740087e+000	 1.2019540001e-001
 4.2680858003e-001	 4.7307858159e+000	 1.2478576489e-001
 4.0434497057e-001	 4.4817970888e+000	 9.9690102026e-002
 3.6337499923e-001	 4.4853047399e+000	 8.9956762868e-002
 3.2251199884e-001	 4.4884280111e+000	 8.0062663696e-002
 2.8176064413e-001	 4.4911703307e+000	 7.0131769203e-002
 2.4112551553e-001	 4.4935351880e+000	 6.0257151073e-002
 2.0061109869e-001	 4.4955261302e+000	 5.0502044896e-002
 1.6022178400e-001	 4.4971467599e+000	 4.0900929092e-002
 1.1996186617e-001	 4.4984007326e+000	 3.1460622658e-002
 7.9835543943e-002	 4.4992917538e+000	 2.2161398641e-002
 3.9846919840e-002	 4.4998235769e+000	 1.2958110320e-002
 0.0000000000e+000	 4.5000000000e+000	 3.7813271575e-003
 4.0659133152e-001	 4.5066959615e+000	 9.9325692921e-002
 3.6539374923e-001	 4.5102230996e+000	 9.3265678186e-002
 3.2430373217e-001	 4.5133637222e+000	 8.7038332344e-002
 2.8332598104e-001	 4.5161212770e+000	 8.0742160579e-002
 2.4246510172e-001	 4.5184992724e+000	 7.4444914297e-002
 2.0172560480e-001	 4.5205012753e+000	 6.8184674897e-002
 1.6111190503e-001	 4.5221309085e+000	 6.1970958917e-002
 1.2062832098e-001	 4.5233918477e+000	 5.5785841323e-002
 8.0279074742e-002	 4.5242878191e+000	 4.9585093835e-002
 4.0068291616e-002	 4.5248225967e+000	 4.3299335210e-002
 0.0000000000e+000	 4.5250000000e+000	 3.6835190548e-002
 4.0883769246e-001	 4.5315948342e+000	 9.9715528349e-002
 3.6741249922e-001	 4.5351414592e+000	 9.6881651438e-002
 3.2609546550e-001	 4.5382994334e+000	 9.3885258054e-002
 2.8489131795e-001	 4.5410722233e+000	 9.0799432639e-002
 2.4380468792e-001	 4.5434633567e+000	 8.7666633334e-002
 2.0284011090e-001	 4.5454764205e+000	 8.4499802920e-002
 1.6200202605e-001	 4.5471150572e+000	 8.1283500485e-002
 1.2129477580e-001	 4.5483829629e+000	 7.7975050589e-002
 8.0722605541e-002	 4.5492838844e+000	 7.4505706760e-002
 4.0289663393e-002	 4.5498216166e+000	 7.0781826215e-002
 0.0000000000e+000	 4.5500000000e+000	 6.6686052852e-002
 4.1108405341e-001	 4.5564937069e+000	 1.0081498432e-001
 3.6943124922e-001	 4.5600598189e+000	 1.0076952359e-001
 3.2788719882e-001	 4.5632351446e+000	 1.0057772129e-001
 2.8645665486e-001	 4.5660231695e+000	 1.0028727639e-001
 2.4514427412e-001	 4.5684274411e+000	 9.9915377331e-002
 2.0395461700e-001	 4.5704515657e+000	 9.9449840434e-002
 1.6289214707e-001	 4.5720992059e+000	 9.8850268415e-002
 1.2196123061e-001	 4.5733740781e+000	 9.8049225741e-002
 8.1166136340e-002	 4.5742799497e+000	 9.6953427625e-002
 4.0511035169e-002	 4.5748206365e+000	 9.5444939526e-002
 0.0000000000e+000	 4.5750000000e+000	 9.3382384150e-002
 4.1333041436e-001	 4.5813925796e+000	 1.0258019226e-001
 3.7144999921e-001	 4.5849781786e+000	 1.0489470161e-001
 3.2967893215e-001	 4.5881708558e+000	 1.0709038086e-001
 2.8802199177e-001	 4.5909741158e+000	 1.0918957534e-001
 2.4648386031e-001	 4.5933915255e+000	 1.1118422394e-001
 2.0506912311e-001	 4.5954267108e+000	 1.1303702533e-001
 1.6378226809e-001	 4.5970833545e+000	 1.1468262362e-001
 1.2262768542e-001	 4.5983651933e+000	 1.1602881024e-001
 8.1609667139e-002	 4.5992760150e+000	 1.1695773875e-001
 4.0732406946e-002	 4.5998196564e+000	 1.1732714947e-001
 0.0000000000e+000	 4.6000000000e+000	 1.1697160083e-001
 4.1557677530e-001	 4.6062914523e+000	 1.0496801862e-001
 3.7346874920e-001	 4.6098965382e+000	 1.0922314322e-001
 3.3147066547e-001	 4.6131065669e+000	 1.1339826374e-001
 2.8958732868e-001	 4.6159250621e+000	 1.1749040031e-001
 2.4782344651e-001	 4.6183556099e+000	 1.2146625910e-001
 2.0618362921e-001	 4.6204018560e+000	 1.2526342662e-001
 1.6467238911e-001	 4.6220675032e+000	 1.2879158287e-001
 1.2329414023e-001	 4.6233563085e+000	 1.3193373009e-001
 8.2053197938e-002	 4.6242720803e+000	 1.3454743369e-001
 4.0953778723e-002	 4.6248186762e+000	 1.3646607234e-001
 0.0000000000e+000	 4.6250000000e+000	 1.3750009404e-001
 4.1782313625e-001	 4.6311903250e+000	 1.0793604506e-001
 3.7548749920e-001	 4.6348148979e+000	 1.1372134200e-001
 3.3326239880e-001	 4.6380422781e+000	 1.1947675510e-001
 2.9115266559e-001	 4.6408760084e+000	 1.2517400437e-001
 2.4916303270e-001	 4.6433196943e+000	 1.3075457679e-001
 2.0729813531e-001	 4.6453770012e+000	 1.3613094896e-001
 1.6556251013e-001	 4.6470516519e+000	 1.4118782805e-001
 1.2396059504e-001	 4.6483474236e+000	 1.4578340777e-001
 8.2496728737e-002	 4.6492681456e+000	 1.4975063575e-001
 4.1175150499e-002	 4.6498176961e+000	 1.5289848946e-001
 0.0000000000e+000	 4.6500000000e+000	 1.5501325730e-001
 4.2006949719e-001	 4.6560891977e+000	 1.1144254939e-001
 3.7750624919e-001	 4.6597332576e+000	 1.1835631317e-001
 3.3505413212e-001	 4.6629779893e+000	 1.2530158879e-001
 2.9271800250e-001	 4.6658269547e+000	 1.3222481801e-001
 2.5050261890e-001	 4.6682837786e+000	 1.3904227887e-001
 2.0841264141e-001	 4.6703521463e+000	 1.4564133706e-001
 1.6645263115e-001	 4.6720358005e+000	 1.5188171510e-001
 1.2462704985e-001	 4.6733385388e+000	 1.5759677565e-001
 8.2940259537e-002	 4.6742642109e+000	 1.6259481592e-001
 4.1396522276e-002	 4.6748167160e+000	 1.6666036954e-001
 0.0000000000e+000	 4.6750000000e+000	 1.6955551312e-001
 4.2231585814e-001	 4.6809880705e+000	 1.1544648703e-001
 3.7952499918e-001	 4.6846516172e+000	 1.2309557961e-001
 3.3684586545e-001	 4.6879137004e+000	 1.3084883804e-001
 2.9428333941e-001	 4.6907779010e+000	 1.3862744438e-001
 2.5184220510e-001	 4.6932478630e+000	 1.4632247479e-001
 2.0952714752e-001	 4.6953272915e+000	 1.5379617995e-001
 1.6734275217e-001	 4.6970199492e+000	 1.6088328268e-001
 1.2529350466e-001	 4.6983296540e+000	 1.6739228911e-001
 8.3383790336e-002	 4.6992602762e+000	 1.7310681021e-001
 4.1617894052e-002	 4.6998157358e+000	 1.7778689023e-001
 0.0000000000e+000	 4.7000000000e+000	 1.8117033887e-001
 4.2456221908e-001	 4.7058869432e+000	 1.1990747306e-001
 3.8154374918e-001	 4.7095699769e+000	 1.2790715853e-001
 3.3863759877e-001	 4.7128494116e+000	 1.3609490650e-001
 2.9584867632e-001	 4.7157288472e+000	 1.4436665474e-001
 2.5318179129e-001	 4.7182119474e+000	 1.5258828145e-001
 2.1064165362e-001	 4.7203024367e+000	 1.6059691506e-001
 1.6823287319e-001	 4.7220040979e+000	 1.6820226058e-001
 1.2595995947e-001	 4.7233207692e+000	 1.7518793904e-001
 8.3827321135e-002	 4.7242563415e+000	 1.8131283646e-001
 4.1839265829e-002	 4.7248147557e+000	 1.8631245909e-001
 0.0000000000e+000	 4.7250000000e+000	 1.8990029175e-001
 4.2680858003e-001	 4.7307858159e+000	 1.2478576489e-001
 3.8356249917e-001	 4.7344883366e+000	 1.3275954838e-001
 3.4042933210e-001	 4.7377851228e+000	 1.4101651951e-001
 2.9741401323e-001	 4.7406797935e+000	 1.4942738404e-001
 2.5452137749e-001	 4.7431760318e+000	 1.5783282300e-001
 2.1175615972e-001	 4.7452775818e+000	 1.6604483224e-001
 1.6912299422e-001	 4.7469882465e+000	 1.7384807786e-001
 1.2662641428e-001	 4.7483118844e+000	 1.8100126419e-001
 8.4270851934e-002	 4.7492524068e+000	 1.8723851058e-001
 4.2060637605e-002	 4.7498137756e+000	 1.9227073385e-001
 0.0000000000e+000	 4.7500000000e+000	 1.9578703301e-001
 4.7500000000e+000	 0.0000000000e+000	 4.6442708446e-001
 4.7498137756e+000	 4.2060637605e-002	 4.5570687227e-001
 4.7492524068e+000	 8.4270851934e-002	 4.5047886956e-001
 4.7483118844e+000	 1.2662641428e-001	 4.4831162246e-001
 4.7469882465e+000	 1.6912299422e-001	 4.4877701015e-001
 4.7452775818e+000	 2.1175615972e-001	 4.5145126669e-001
 4.7431760318e+000	 2.5452137749e-001	 4.5591602651e-001
 4.7406797935e+000	 2.9741401323e-001	 4.6175939184e-001
 4.7377851228e+000	 3.4042933210e-001	 4.6857702062e-001
 4.7344883366e+000	 3.8356249917e-001	 4.7597323296e-001
 4.7307858159e+000	 4.2680858003e-001	 4.8356213435e-001
 4.7750000000e+000	 0.0000000000e+000	 4.7285114478e-001
 4.7748127955e+000	 4.2282009382e-002	 4.6217840794e-001
 4.7742484721e+000	 8.4714382733e-002	 4.5504981109e-001
 4.7733029995e+000	 1.2729286910e-001	 4.5102715185e-001
 4.7719723952e+000	 1.7001311524e-001	 4.4967551801e-001
 4.7702527270e+000	 2.1287066582e-001	 4.5056432212e-001
 4.7681401161e+000	 2.5586096368e-001	 4.5326836019e-001
 4.7656307398e+000	 2.9897935014e-001	 4.5736889276e-001
 4.7627208340e+000	 3.4222106542e-001	 4.6245474674e-001
 4.7594066962e+000	 3.8558124916e-001	 4.6812343619e-001
 4.7556846886e+000	 4.2905494097e-001	 4.7398230018e-001
 4.8000000000e+000	 0.0000000000e+000	 4.8023999675e-001
 4.7998118153e+000	 4.2503381158e-002	 4.6787281024e-001
 4.7992445374e+000	 8.5157913532e-002	 4.5909700033e-001
 4.7982941147e+000	 1.2795932391e-001	 4.5346739534e-001
 4.7969565439e+000	 1.7090323626e-001	 4.5054207146e-001
 4.7952278722e+000	 2.1398517192e-001	 4.4988340050e-001
 4.7931042005e+000	 2.5720054988e-001	 4.5105912205e-001
 4.7905816861e+000	 3.0054468705e-001	 4.5364343846e-001
 4.7876565451e+000	 3.4401279874e-001	 4.5721813092e-001
 4.7843250559e+000	 3.8759999915e-001	 4.6137369490e-001
 4.7805835613e+000	 4.3130130191e-001	 4.6571049292e-001
 4.8250000000e+000	 0.0000000000e+000	 4.8662716374e-001
 4.8248108352e+000	 4.2724752935e-002	 4.7282457415e-001
 4.8242406027e+000	 8.5601444331e-002	 4.6265592594e-001
 4.8232852299e+000	 1.2862577872e-001	 4.5566885673e-001
 4.8219406925e+000	 1.7179335728e-001	 4.5141421043e-001
 4.8202030174e+000	 2.1509967803e-001	 4.4944709830e-001
 4.8180682849e+000	 2.5854013607e-001	 4.4932798495e-001
 4.8155326324e+000	 3.0211002396e-001	 4.5062379748e-001
 4.8125922563e+000	 3.4580453207e-001	 4.5290905611e-001
 4.8092434156e+000	 3.8961874915e-001	 4.5576702458e-001
 4.8054824340e+000	 4.3354766286e-001	 4.5879087813e-001
 4.8500000000e+000	 0.0000000000e+000	 4.9204547787e-001
 4.8498098551e+000	 4.2946124712e-002	 4.7706751802e-001
 4.8492366680e+000	 8.6044975130e-002	 4.6576141370e-001
 4.8482763451e+000	 1.2929223353e-001	 4.5766738996e-001
 4.8469248412e+000	 1.7268347830e-001	 4.5232883715e-001
 4.8451781625e+000	 2.1621418413e-001	 4.4929338566e-001
 4.8430323693e+000	 2.5987972227e-001	 4.4811400597e-001
 4.8404835786e+000	 3.0367536087e-001	 4.4835013227e-001
 4.8375279675e+000	 3.4759626540e-001	 4.4956880800e-001
 4.8341617752e+000	 3.9163749914e-001	 4.5134585142e-001
 4.8303813068e+000	 4.3579402381e-001	 4.5326703921e-001
 4.8750000000e+000	 0.0000000000e+000	 4.9652709781e-001
 4.8748088749e+000	 4.3167496488e-002	 4.8063480091e-001
 4.8742327333e+000	 8.6488505929e-002	 4.6844764355e-001
 4.8732674603e+000	 1.2995868834e-001	 4.5949821577e-001
 4.8719089899e+000	 1.7357359932e-001	 4.5332223255e-001
 4.8701533077e+000	 2.1732869023e-001	 4.4945962248e-001
 4.8679964537e+000	 2.6121930847e-001	 4.4745564219e-001
 4.8654345249e+000	 3.0524069778e-001	 4.4686201475e-001
 4.8624636787e+000	 3.4938799872e-001	 4.4723809037e-001
 4.8590801349e+000	 3.9365624914e-001	 4.4815202749e-001
 4.8552801795e+000	 4.3804038475e-001	 4.4918199230e-001
 4.9000000000e+000	 0.0000000000e+000	 5.0010352592e-001
 4.8998078948e+000	 4.3388868265e-002	 4.8355893941e-001
 4.8992287986e+000	 8.6932036728e-002	 4.7074816604e-001
 4.8982585754e+000	 1.3062514315e-001	 4.6119593787e-001
 4.8968931385e+000	 1.7446372034e-001	 4.5443007208e-001
 4.8951284529e+000	 2.1844319634e-001	 4.4998257399e-001
 4.8929605380e+000	 2.6255889466e-001	 4.4739076605e-001
 4.8903854712e+000	 3.0680603469e-001	 4.4619844138e-001
 4.8873993898e+000	 3.5117973205e-001	 4.4595703990e-001
 4.8839984946e+000	 3.9567499914e-001	 4.4622684531e-001
 4.8801790522e+000	 4.4028674570e-001	 4.4657820073e-001
 4.9250000000e+000	 0.0000000000e+000	 5.0280562492e-001
 4.9248069147e+000	 4.3610240041e-002	 4.8587182392e-001
 4.9242248639e+000	 8.7375567527e-002	 4.7269591832e-001
 4.9232496906e+000	 1.3129159796e-001	 4.6279455856e-001
 4.9218772872e+000	 1.7535384136e-001	 4.5568744108e-001
 4.9201035980e+000	 2.1955770244e-001	 4.5089842582e-001
 4.9179246224e+000	 2.6389848086e-001	 4.4795668014e-001
 4.9153364175e+000	 3.0837137160e-001	 4.4639784775e-001
 4.9123351010e+000	 3.5297146538e-001	 4.4576524062e-001
 4.9089168542e+000	 3.9769374913e-001	 4.4561105211e-001
 4.9050779249e+000	 4.4253310665e-001	 4.4549758910e-001
 4.9500000000e+000	 0.0000000000e+000	 5.0466363404e-001
 4.9498059346e+000	 4.3831611818e-002	 4.8760473452e-001
 4.9492209292e+000	 8.7819098327e-002	 4.7432323960e-001
 4.9482408058e+000	 1.3195805278e-001	 4.6432749395e-001
 4.9468614359e+000	 1.7624396239e-001	 4.5712884970e-001
 4.9450787432e+000	 2.2067220854e-001	 4.5224279866e-001
 4.9428887068e+000	 2.6523806706e-001	 4.4919013160e-001
 4.9402873638e+000	 3.0993670852e-001	 4.4749812274e-001
 4.9372708122e+000	 3.5476319871e-001	 4.4670173779e-001
 4.9338352139e+000	 3.9971249913e-001	 4.4634486355e-001
 4.9299767976e+000	 4.4477946760e-001	 4.4598155685e-001
 4.9750000000e+000	 0.0000000000e+000	 5.0570718469e-001
 4.9748049544e+000	 4.4052983595e-002	 4.8878835626e-001
 4.9742169945e+000	 8.8262629126e-002	 4.7566188622e-001
 4.9732319210e+000	 1.3262450759e-001	 4.6582758869e-001
 4.9718455845e+000	 1.7713408341e-001	 4.5878824731e-001
 4.9700538884e+000	 2.2178671465e-001	 4.5405076245e-001
 4.9678527912e+000	 2.6657765326e-001	 4.5112732609e-001
 4.9652383101e+000	 3.1150204543e-001	 4.4953662227e-001
 4.9622065233e+000	 3.5655493203e-001	 4.4880505151e-001
 4.9587535736e+000	 4.0173124913e-001	 4.4846797713e-001
 4.9548756703e+000	 4.4702582855e-001	 4.4807099146e-001
 5.0000000000e+000	 0.0000000000e+000	 5.0596531565e-001
 4.9998039743e+000	 4.4274355371e-002	 4.8945279404e-001
 4.9992130598e+000	 8.8706159925e-002	 4.7674304617e-001
 4.9982230362e+000	 1.3329096240e-001	 4.6732713025e-001
 4.9968297332e+000	 1.7802420443e-001	 4.6069903656e-001
 4.9950290335e+000	 2.2290122075e-001	 4.5635685013e-001
 4.9928168755e+000	 2.6791723945e-001	 4.5380394132e-001
 4.9901892563e+000	 3.1306738234e-001	 4.5255018263e-001
 4.9871422345e+000	 3.5834666536e-001	 4.5211318978e-001
 4.9836719332e+000	 4.0374999913e-001	 4.5201958511e-001
 4.9797745430e+000	 4.4927218951e-001	 4.5180628124e-001
 4.7307858159e+000	 4.2680858003e-001	 4.8356213435e-001
 4.7266740087e+000	 4.7016254140e-001	 4.8162260289e-001
 4.7221494326e+000	 5.1361925192e-001	 4.7942253979e-001
 4.7172086778e+000	 5.5717348293e-001	 4.7664161732e-001
 4.7118484097e+000	 6.0081990940e-001	 4.7297418064e-001
 4.7060653722e+000	 6.4455311094e-001	 4.6563254550e-001
 4.6998563898e+000	 6.8836757286e-001	 4.5403454026e-001
 4.6932183711e+000	 7.3225768736e-001	 4.4089818619e-001
 4.6861483115e+000	 7.7621775480e-001	 4.2568507539e-001
 4.6786432954e+000	 8.2024198506e-001	 4.0784830612e-001
 4.6707005000e+000	 8.6432449896e-001	 3.8683163074e-001
 4.7556846886e+000	 4.2905494097e-001	 4.7398230018e-001
 4.7515512403e+000	 4.7263708109e-001	 4.7075657671e-001
 4.7470028507e+000	 5.1632251113e-001	 4.6702605038e-001
 4.7420360919e+000	 5.6010597494e-001	 4.6246620780e-001
 4.7366476119e+000	 6.0398211945e-001	 4.5676755309e-001
 4.7308341373e+000	 6.4794549573e-001	 4.4854775713e-001
 4.7245924760e+000	 6.9199056008e-001	 4.3809238279e-001
 4.7179195205e+000	 7.3611167519e-001	 4.2606982454e-001
 4.7108122499e+000	 7.8030311141e-001	 4.1195565084e-001
 4.7032677338e+000	 8.2455904814e-001	 3.9521707303e-001
 4.6952831342e+000	 8.6887357527e-001	 3.7531206148e-001
 4.7805835613e+000	 4.3130130191e-001	 4.6571049292e-001
 4.7764284720e+000	 4.7511162077e-001	 4.6148920433e-001
 4.7718562687e+000	 5.1902577035e-001	 4.5651470837e-001
 4.7668635060e+000	 5.6303846695e-001	 4.5045809496e-001
 4.7614468140e+000	 6.0714432950e-001	 4.4300581826e-001
 4.7556029024e+000	 6.5133788053e-001	 4.3449406220e-001
 4.7493285623e+000	 6.9561354731e-001	 4.2511695013e-001
 4.7426206698e+000	 7.3996566301e-001	 4.1414383618e-001
 4.7354761884e+000	 7.8438846801e-001	 4.0106452190e-001
 4.7278921722e+000	 8.2887611122e-001	 3.8536059116e-001
 4.7198657684e+000	 8.7342265158e-001	 3.6650449420e-001
 4.8054824340e+000	 4.3354766286e-001	 4.5879087813e-001
 4.8013057036e+000	 4.7758616046e-001	 4.5386443046e-001
 4.7967096868e+000	 5.2172902957e-001	 4.4793221193e-001
 4.7916909201e+000	 5.6597095897e-001	 4.4066070431e-001
 4.7862460162e+000	 6.1030653954e-001	 4.3173210243e-001
 4.7803716675e+000	 6.5473026532e-001	 4.2342486273e-001
 4.7740646486e+000	 6.9923653453e-001	 4.1505549146e-001
 4.7673218191e+000	 7.4381965084e-001	 4.0506133280e-001
 4.7601401269e+000	 7.8847382461e-001	 3.9294668195e-001
 4.7525166106e+000	 8.3319317430e-001	 3.7820775870e-001
 4.7444484026e+000	 8.7797172789e-001	 3.6033175891e-001
 4.8303813068e+000	 4.3579402381e-001	 4.5326703921e-001
 4.8261829352e+000	 4.8006070016e-001	 4.4792565245e-001
 4.8215631049e+000	 5.2443228879e-001	 4.4132174661e-001
 4.8165183342e+000	 5.6890345098e-001	 4.3311698346e-001
 4.8110452184e+000	 6.1346874959e-001	 4.2298908862e-001
 4.8051404326e+000	 6.5812265011e-001	 4.1529315208e-001
 4.7988007348e+000	 7.0285952176e-001	 4.0785488178e-001
 4.7920229684e+000	 7.4767363867e-001	 3.9876308625e-001
 4.7848040654e+000	 7.9255918122e-001	 3.8753681880e-001
 4.7771410490e+000	 8.3751023738e-001	 3.7368720239e-001
 4.7690310368e+000	 8.8252080420e-001	 3.5671644816e-001
 4.8552801795e+000	 4.3804038475e-001	 4.4918199230e-001
 4.8510601668e+000	 4.8253523985e-001	 4.4371573428e-001
 4.8464165229e+000	 5.2713554801e-001	 4.3672599853e-001
 4.8413457483e+000	 5.7183594300e-001	 4.2786941439e-001
 4.8358444205e+000	 6.1663095964e-001	 4.1681902801e-001
 4.8299091977e+000	 6.6151503491e-001	 4.1005152545e-001
 4.8235368211e+000	 7.0648250899e-001	 4.0346163149e-001
 4.8167241177e+000	 7.5152762650e-001	 3.9518953732e-001
 4.8094680039e+000	 7.9664453783e-001	 3.8476932256e-001
 4.8017654874e+000	 8.4182730046e-001	 3.7172728446e-001
 4.7936136710e+000	 8.8706988052e-001	 3.5558092304e-001
 4.8801790522e+000	 4.4028674570e-001	 4.4657820073e-001
 4.8759373984e+000	 4.8500977954e-001	 4.4127702023e-001
 4.8712699410e+000	 5.2983880724e-001	 4.3418716709e-001
 4.8661731623e+000	 5.7476843502e-001	 4.2496002534e-001
 4.8606436227e+000	 6.1979316970e-001	 4.1326375093e-001
 4.8546779629e+000	 6.6490741971e-001	 4.0765219000e-001
 4.8482729073e+000	 7.1010549622e-001	 4.0182189576e-001
 4.8414252671e+000	 7.5538161434e-001	 3.9428080415e-001
 4.8341319423e+000	 8.0072989444e-001	 3.8457829319e-001
 4.8263899258e+000	 8.4614436354e-001	 3.7225610940e-001
 4.8181963052e+000	 8.9161895683e-001	 3.5684731914e-001
 4.9050779249e+000	 4.4253310665e-001	 4.4549758910e-001
 4.9008146301e+000	 4.8748431924e-001	 4.4065134802e-001
 4.8961233591e+000	 5.3254206646e-001	 4.3374697730e-001
 4.8910005764e+000	 5.7770092704e-001	 4.2443040230e-001
 4.8854428248e+000	 6.2295537975e-001	 4.1236467755e-001
 4.8794467280e+000	 6.6829980451e-001	 4.0804697475e-001
 4.8730089936e+000	 7.1372848345e-001	 4.0288148345e-001
 4.8661264164e+000	 7.5923560217e-001	 3.9597669040e-001
 4.8587958808e+000	 8.0481525105e-001	 3.8689754788e-001
 4.8510143642e+000	 8.5046142663e-001	 3.7520153049e-001
 4.8427789394e+000	 8.9616803315e-001	 3.6043755227e-001
 4.9299767976e+000	 4.4477946760e-001	 4.4598155685e-001
 4.9256918617e+000	 4.8995885893e-001	 4.4188006162e-001
 4.9209767771e+000	 5.3524532569e-001	 4.3544669181e-001
 4.9158279905e+000	 5.8063341906e-001	 4.2632170023e-001
 4.9102420270e+000	 6.2611758981e-001	 4.1443406849e-001
 4.9042154931e+000	 6.7169218931e-001	 4.1118734008e-001
 4.8977450799e+000	 7.1735147068e-001	 4.0658586593e-001
 4.8908275657e+000	 7.6308959000e-001	 4.0021669326e-001
 4.8834598193e+000	 8.0890060766e-001	 3.9166062822e-001
 4.8756388026e+000	 8.5477848971e-001	 3.8049115615e-001
 4.8673615736e+000	 9.0071710947e-001	 3.6627332399e-001
 4.9548756703e+000	 4.4702582855e-001	 4.4807099146e-001
 4.9505690933e+000	 4.9243339863e-001	 4.4500402365e-001
 4.9458301952e+000	 5.3794858491e-001	 4.3932712249e-001
 4.9406554046e+000	 5.8356591108e-001	 4.3067465381e-001
 4.9350412291e+000	 6.2927979986e-001	 4.1976962469e-001
 4.9289842582e+000	 6.7508457411e-001	 4.1702438702e-001
 4.9224811661e+000	 7.2097445791e-001	 4.1288018554e-001
 4.9155287150e+000	 7.6694357784e-001	 4.0694001107e-001
 4.9081237578e+000	 8.1298596427e-001	 3.9880080707e-001
 4.9002632410e+000	 8.5909555280e-001	 3.8805235610e-001
 4.8919442078e+000	 9.0526618578e-001	 3.7427612700e-001
 4.9797745430e+000	 4.4927218951e-001	 4.5180628124e-001
 4.9754463249e+000	 4.9490793833e-001	 4.5006362743e-001
 4.9706836133e+000	 5.4065184414e-001	 4.4542864173e-001
 4.9654828187e+000	 5.8649840310e-001	 4.3752958804e-001
 4.9598404313e+000	 6.3244200992e-001	 4.2786514008e-001
 4.9537530233e+000	 6.7847695892e-001	 4.2550886623e-001
 4.9472172524e+000	 7.2459744515e-001	 4.2170926379e-001
 4.9402298643e+000	 7.7079756568e-001	 4.1608555085e-001
 4.9327876962e+000	 8.1707132088e-001	 4.0825109535e-001
 4.9248876794e+000	 8.6341261589e-001	 3.9781226729e-001
 4.9165268420e+000	 9.0981526210e-001	 3.8436725037e-001
 4.6707005000e+000	 8.6432449896e-001	 3.8683163074e-001
 4.6623171971e+000	 9.0845932984e-001	 3.8657927046e-001
 4.6534907565e+000	 9.5264042516e-001	 3.8453707684e-001
 4.6442186484e+000	 9.9686164827e-001	 3.7997169903e-001
 4.6344984465e+000	 1.0411167802e+000	 3.7213227005e-001
 4.6243278300e+000	 1.0853995214e+000	 3.6024950879e-001
 4.6137045869e+000	 1.1297034943e+000	 3.4353481585e-001
 4.6026266164e+000	 1.1740222445e+000	 3.2117936664e-001
 4.5910919311e+000	 1.2183492440e+000	 2.9235320485e-001
 4.5790986602e+000	 1.2626778925e+000	 2.6948988034e-001
 4.5666450514e+000	 1.3070015205e+000	 2.7865328221e-001
 4.6952831342e+000	 8.6887357527e-001	 3.7531206148e-001
 4.6868557086e+000	 9.1324069473e-001	 3.7322928155e-001
 4.6779828131e+000	 9.5765432214e-001	 3.6947876220e-001
 4.6686619045e+000	 1.0021082885e+000	 3.6335002201e-001
 4.6588905436e+000	 1.0465963422e+000	 3.5411508799e-001
 4.6486663975e+000	 1.0911121505e+000	 3.4102755337e-001
 4.6379872426e+000	 1.1356493021e+000	 3.2332162828e-001
 4.6268509670e+000	 1.1802013090e+000	 3.0021118652e-001
 4.6152555729e+000	 1.2247616084e+000	 2.7088881209e-001
 4.6031991795e+000	 1.2693235656e+000	 2.5311269773e-001
 4.5906800254e+000	 1.3138804759e+000	 2.5926279971e-001
 4.7198657684e+000	 8.7342265158e-001	 3.6650449420e-001
 4.7113942202e+000	 9.1802205963e-001	 3.6268851201e-001
 4.7024748697e+000	 9.6266821912e-001	 3.5732776869e-001
 4.6931051605e+000	 1.0073549288e+000	 3.4973484825e-001
 4.6832826406e+000	 1.0520759042e+000	 3.3920486766e-001
 4.6730049650e+000	 1.0968247796e+000	 3.2501448990e-001
 4.6622698984e+000	 1.1415951100e+000	 3.0642092905e-001
 4.6510753176e+000	 1.1863803734e+000	 2.8266095037e-001
 4.6394192146e+000	 1.2311739729e+000	 2.5294986923e-001
 4.6272996988e+000	 1.2759692387e+000	 2.3932252475e-001
 4.6147149993e+000	 1.3207594313e+000	 2.4261150901e-001
 4.7444484026e+000	 8.7797172789e-001	 3.6033175891e-001
 4.7359327318e+000	 9.2280342452e-001	 3.5487128466e-001
 4.7269669263e+000	 9.6768211609e-001	 3.4798995372e-001
 4.7175484166e+000	 1.0126015690e+000	 3.3902361675e-001
 4.7076747377e+000	 1.0575554662e+000	 3.2729068170e-001
 4.6973435326e+000	 1.1025374086e+000	 3.1209108192e-001
 4.6865525541e+000	 1.1475409179e+000	 2.9270523503e-001
 4.6752996682e+000	 1.1925594379e+000	 2.6839299598e-001
 4.6635828564e+000	 1.2375863373e+000	 2.3839260787e-001
 4.6514002180e+000	 1.2826149119e+000	 2.2804043175e-001
 4.6387499733e+000	 1.3276383866e+000	 2.2861371426e-001
 4.7690310368e+000	 8.8252080420e-001	 3.5671644816e-001
 4.7604712433e+000	 9.2758478942e-001	 3.4969176949e-001
 4.7514589829e+000	 9.7269601307e-001	 3.4137110630e-001
 4.7419916726e+000	 1.0178482093e+000	 3.3111378207e-001
 4.7320668348e+000	 1.0630350282e+000	 3.1826170193e-001
 4.7216821001e+000	 1.1082500377e+000	 3.0213827528e-001
 4.7108352098e+000	 1.1534867257e+000	 2.8204732810e-001
 4.6995240188e+000	 1.1987385023e+000	 2.5727200838e-001
 4.6877464981e+000	 1.2439987017e+000	 2.2707368844e-001
 4.6755007373e+000	 1.2892605850e+000	 2.1918799886e-001
 4.6627849472e+000	 1.3345173420e+000	 2.1718430976e-001
 4.7936136710e+000	 8.8706988052e-001	 3.5558092304e-001
 4.7850097549e+000	 9.3236615432e-001	 3.4706398764e-001
 4.7759510395e+000	 9.7770991005e-001	 3.3737694877e-001
 4.7664349286e+000	 1.0230948496e+000	 3.2590281397e-001
 4.7564589319e+000	 1.0685145902e+000	 3.1200719682e-001
 4.7460206676e+000	 1.1139626667e+000	 2.9503719356e-001
 4.7351178655e+000	 1.1594325336e+000	 2.7432024840e-001
 4.7237483694e+000	 1.2049175668e+000	 2.4916301085e-001
 4.7119101398e+000	 1.2504110662e+000	 2.1908333002e-001
 4.6996012565e+000	 1.2959062581e+000	 2.1268730294e-001
 4.6868199212e+000	 1.3413962974e+000	 2.0823876483e-001
 4.8181963052e+000	 8.9161895683e-001	 3.5684731914e-001
 4.8095482664e+000	 9.3714751922e-001	 3.4690181514e-001
 4.8004430961e+000	 9.8272380703e-001	 3.3591313848e-001
 4.7908781847e+000	 1.0283414898e+000	 3.2328819701e-001
 4.7808510290e+000	 1.0739941522e+000	 3.0841652902e-001
 4.7703592351e+000	 1.1196752958e+000	 2.9066913345e-001
 4.7594005212e+000	 1.1653783415e+000	 2.6939728769e-001
 4.7479727200e+000	 1.2110966312e+000	 2.4393135637e-001
 4.7360737816e+000	 1.2568234306e+000	 2.1702870243e-001
 4.7237017758e+000	 1.3025519312e+000	 2.0846090490e-001
 4.7108548951e+000	 1.3482752527e+000	 2.0169310912e-001
 4.8427789394e+000	 8.9616803315e-001	 3.6043755227e-001
 4.8340867780e+000	 9.4192888412e-001	 3.4911898663e-001
 4.8249351527e+000	 9.8773770401e-001	 3.3688526947e-001
 4.8153214407e+000	 1.0335881301e+000	 3.2316743017e-001
 4.8052431260e+000	 1.0794737142e+000	 3.0737915298e-001
 4.7946978026e+000	 1.1253879249e+000	 2.8891556043e-001
 4.7836831769e+000	 1.1713241493e+000	 2.6715198304e-001
 4.7721970706e+000	 1.2172756957e+000	 2.4144271921e-001
 4.7602374233e+000	 1.2632357951e+000	 2.1704306589e-001
 4.7478022951e+000	 1.3091976043e+000	 2.0643183741e-001
 4.7348898691e+000	 1.3551542081e+000	 1.9746391844e-001
 4.8673615736e+000	 9.0071710947e-001	 3.6627332399e-001
 4.8586252895e+000	 9.4671024902e-001	 3.5362909891e-001
 4.8494272093e+000	 9.9275160099e-001	 3.4019887406e-001
 4.8397646967e+000	 1.0388347703e+000	 3.2543802648e-001
 4.8296352231e+000	 1.0849532762e+000	 3.0878461263e-001
 4.8190363702e+000	 1.1311005539e+000	 2.8965810443e-001
 4.8079658326e+000	 1.1772699572e+000	 2.6745811056e-001
 4.7964214212e+000	 1.2234547601e+000	 2.4156308680e-001
 4.7844010650e+000	 1.2696481595e+000	 2.1905627307e-001
 4.7719028143e+000	 1.3158432775e+000	 2.0652359299e-001
 4.7589248430e+000	 1.3620331635e+000	 1.9546830090e-001
 4.8919442078e+000	 9.0526618578e-001	 3.7427612700e-001
 4.8831638011e+000	 9.5149161392e-001	 3.6034561442e-001
 4.8739192659e+000	 9.9776549797e-001	 3.4575942439e-001
 4.8642079528e+000	 1.0440814106e+000	 3.2999751269e-001
 4.8540273202e+000	 1.0904328382e+000	 3.1252253911e-001
 4.8433749377e+000	 1.1368131830e+000	 2.9277855577e-001
 4.8322484884e+000	 1.1832157651e+000	 2.7018967943e-001
 4.8206457718e+000	 1.2296338246e+000	 2.4415875190e-001
 4.8085647068e+000	 1.2760605240e+000	 2.2299855372e-001
 4.7960033336e+000	 1.3224889506e+000	 2.0866011245e-001
 4.7829598170e+000	 1.3689121189e+000	 1.9562388360e-001
 4.9165268420e+000	 9.0981526210e-001	 3.8436725037e-001
 4.9077023127e+000	 9.5627297882e-001	 3.6918186456e-001
 4.8984113225e+000	 1.0027793950e+000	 3.5347233395e-001
 4.8886512088e+000	 1.0493280509e+000	 3.3674342891e-001
 4.8784194173e+000	 1.0959124002e+000	 3.1848264862e-001
 4.8677135052e+000	 1.1425258121e+000	 2.9815886109e-001
 4.8565311441e+000	 1.1891615729e+000	 2.7522092609e-001
 4.8448701224e+000	 1.2358128890e+000	 2.4909630497e-001
 4.8327283485e+000	 1.2824728884e+000	 2.2880050523e-001
 4.8201038528e+000	 1.3291346237e+000	 2.1276577372e-001
 4.8069947909e+000	 1.3757910742e+000	 1.9784879961e-001
 4.5666450514e+000	 1.3070015205e+000	 2.7865328221e-001
 4.5537294736e+000	 1.3513133914e+000	 2.7869974427e-001
 4.5403504190e+000	 1.3956067041e+000	 2.7442015382e-001
 4.5265065060e+000	 1.4398745957e+000	 2.6603987908e-001
 4.5121964807e+000	 1.4841101442e+000	 2.5382937268e-001
 4.4974192195e+000	 1.5283063712e+000	 2.3810360333e-001
 4.4821737314e+000	 1.5724562449e+000	 2.1922137048e-001
 4.4664591594e+000	 1.6165526831e+000	 1.9758450174e-001
 4.4502747833e+000	 1.6605885562e+000	 1.7363693297e-001
 4.4336200209e+000	 1.7045566903e+000	 1.4786367138e-001
 4.4164944300e+000	 1.7484498704e+000	 1.2078964242e-001
 4.5906800254e+000	 1.3138804759e+000	 2.5926279971e-001
 4.5776964708e+000	 1.3584255672e+000	 2.5793830473e-001
 4.5642470002e+000	 1.4029520026e+000	 2.5268427352e-001
 4.5503302244e+000	 1.4474528831e+000	 2.4375127543e-001
 4.5359448832e+000	 1.4919212502e+000	 2.3143541233e-001
 4.5210898470e+000	 1.5363500889e+000	 2.1607771409e-001
 4.5057641194e+000	 1.5807323304e+000	 1.9806341517e-001
 4.4899668392e+000	 1.6250608551e+000	 1.7782111202e-001
 4.4736972822e+000	 1.6693284959e+000	 1.5582180123e-001
 4.4569548631e+000	 1.7135280413e+000	 1.3257779898e-001
 4.4397391376e+000	 1.7576522382e+000	 1.0864154246e-001
 4.6147149993e+000	 1.3207594313e+000	 2.4261150901e-001
 4.6016634680e+000	 1.3655377429e+000	 2.3990074960e-001
 4.5881435813e+000	 1.4102973010e+000	 2.3364321425e-001
 4.5741539429e+000	 1.4550311704e+000	 2.2411487383e-001
 4.5596932857e+000	 1.4997323562e+000	 2.1163769638e-001
 4.5447604745e+000	 1.5443938066e+000	 1.9657900627e-001
 4.5293545075e+000	 1.5890084159e+000	 1.7935072247e-001
 4.5134745190e+000	 1.6335690271e+000	 1.6040847572e-001
 4.4971197811e+000	 1.6780684357e+000	 1.4025060451e-001
 4.4802897053e+000	 1.7224993923e+000	 1.1941703059e-001
 4.4629838451e+000	 1.7668546059e+000	 9.8488014522e-002
 4.6387499733e+000	 1.3276383866e+000	 2.2861371426e-001
 4.6256304653e+000	 1.3726499187e+000	 2.2449706412e-001
 4.6120401625e+000	 1.4176425995e+000	 2.1720270666e-001
 4.5979776614e+000	 1.4626094578e+000	 2.0703221851e-001
 4.5834416883e+000	 1.5075434623e+000	 1.9433365471e-001
 4.5684311019e+000	 1.5524375244e+000	 1.7950087134e-001
 4.5529448956e+000	 1.5972845014e+000	 1.6297272535e-001
 4.5369821988e+000	 1.6420771991e+000	 1.4523215117e-001
 4.5205422799e+000	 1.6868083755e+000	 1.2680511436e-001
 4.5036245475e+000	 1.7314707433e+000	 1.0825944278e-001
 4.4862285526e+000	 1.7760569736e+000	 9.0203536096e-002
 4.6627849472e+000	 1.3345173420e+000	 2.1718430976e-001
 4.6495974625e+000	 1.3797620944e+000	 2.1163785255e-001
 4.6359367437e+000	 1.4249878979e+000	 2.0326912698e-001
 4.6218013798e+000	 1.4701877451e+000	 1.9240552352e-001
 4.6071900908e+000	 1.5153545683e+000	 1.7942140885e-001
 4.5921017294e+000	 1.5604812421e+000	 1.6473741192e-001
 4.5765352836e+000	 1.6055605868e+000	 1.4881958498e-001
 4.5604898786e+000	 1.6505853711e+000	 1.3217843953e-001
 4.5439647788e+000	 1.6955483152e+000	 1.1536785729e-001
 4.5269593898e+000	 1.7404420943e+000	 9.8983876792e-002
 4.5094732602e+000	 1.7852593414e+000	 8.3663356457e-002
 4.6868199212e+000	 1.3413962974e+000	 2.0823876483e-001
 4.6735644597e+000	 1.3868742701e+000	 2.0123432230e-001
 4.6598333248e+000	 1.4323331963e+000	 1.9174948049e-001
 4.6456250983e+000	 1.4777660325e+000	 1.8013765553e-001
 4.6309384933e+000	 1.5231656743e+000	 1.6679975428e-001
 4.6157723569e+000	 1.5685249599e+000	 1.5218342350e-001
 4.6001256717e+000	 1.6138366723e+000	 1.3678217202e-001
 4.5839975584e+000	 1.6590935431e+000	 1.2113436568e-001
 4.5673872776e+000	 1.7042882550e+000	 1.0582209540e-001
 4.5502942320e+000	 1.7494134453e+000	 9.1469918877e-002
 4.5327179677e+000	 1.7944617091e+000	 7.8743476898e-002
 4.7108548951e+000	 1.3482752527e+000	 2.0169310912e-001
 4.6975314569e+000	 1.3939864459e+000	 1.9319826854e-001
 4.6837299060e+000	 1.4396784948e+000	 1.8255138542e-001
 4.6694488167e+000	 1.4853443198e+000	 1.7013211719e-001
 4.6546868958e+000	 1.5309767803e+000	 1.5636814320e-001
 4.6394429843e+000	 1.5765686776e+000	 1.4173437684e-001
 4.6237160597e+000	 1.6221127578e+000	 1.2675204860e-001
 4.6075052382e+000	 1.6676017152e+000	 1.1198765985e-001
 4.5908097765e+000	 1.7130281948e+000	 9.8051807657e-002
 4.5736290742e+000	 1.7583847963e+000	 8.5597881309e-002
 4.5559626752e+000	 1.8036640769e+000	 7.5320631539e-002
 4.7348898691e+000	 1.3551542081e+000	 1.9746391844e-001
 4.7214984542e+000	 1.4010986216e+000	 1.8744205928e-001
 4.7076264871e+000	 1.4470237932e+000	 1.7558305744e-001
 4.6932725352e+000	 1.4929226072e+000	 1.6229303101e-001
 4.6784352984e+000	 1.5387878863e+000	 1.4802666788e-001
 4.6631136118e+000	 1.5846123954e+000	 1.3328640073e-001
 4.6473064478e+000	 1.6303888433e+000	 1.1862145067e-001
 4.6310129180e+000	 1.6761098872e+000	 1.0462673962e-001
 4.6142322754e+000	 1.7217681346e+000	 9.1941671646e-002
 4.5969639164e+000	 1.7673561473e+000	 8.1248783961e-002
 4.5792073827e+000	 1.8128664446e+000	 7.3272268726e-002
 4.7589248430e+000	 1.3620331635e+000	 1.9546830090e-001
 4.7454654514e+000	 1.4082107974e+000	 1.8387862090e-001
 4.7315230682e+000	 1.4543690917e+000	 1.7075329455e-001
 4.7170962536e+000	 1.5005008945e+000	 1.5652512365e-001
 4.7021837009e+000	 1.5465989924e+000	 1.4167604452e-001
 4.6867842393e+000	 1.5926561131e+000	 1.2673626549e-001
 4.6708968359e+000	 1.6386649288e+000	 1.1228327107e-001
 4.6545205977e+000	 1.6846180592e+000	 9.8940692647e-002
 4.6376547742e+000	 1.7305080743e+000	 8.7377045973e-002
 4.6202987586e+000	 1.7763274983e+000	 7.8304336430e-002
 4.6024520903e+000	 1.8220688123e+000	 7.2476532998e-002
 4.7829598170e+000	 1.3689121189e+000	 1.9562388360e-001
 4.7694324486e+000	 1.4153229731e+000	 1.8242142413e-001
 4.7554196494e+000	 1.4617143901e+000	 1.6797146244e-001
 4.7409199721e+000	 1.5080791818e+000	 1.5273371081e-001
 4.7259321034e+000	 1.5544100984e+000	 1.3721759751e-001
 4.7104548668e+000	 1.6006998308e+000	 1.2198136674e-001
 4.6944872239e+000	 1.6469410143e+000	 1.0763104298e-001
 4.6780282775e+000	 1.6931262312e+000	 9.4819259767e-002
 4.6610772731e+000	 1.7392480141e+000	 8.4243953131e-002
 4.6436336008e+000	 1.7852988493e+000	 7.6646920711e-002
 4.6256967978e+000	 1.8312711801e+000	 7.2812247594e-002
 4.8069947909e+000	 1.3757910742e+000	 1.9784879961e-001
 4.7933994458e+000	 1.4224351489e+000	 1.8298447045e-001
 4.7793162305e+000	 1.4690596886e+000	 1.6714748033e-001
 4.7647436905e+000	 1.5156574692e+000	 1.5082468245e-001
 4.7496805060e+000	 1.5622212044e+000	 1.3455324430e-001
 4.7341254942e+000	 1.6087435486e+000	 1.1891970985e-001
 4.7180776120e+000	 1.6552170998e+000	 1.0455892392e-001
 4.7015359573e+000	 1.7016344032e+000	 9.2152818703e-002
 4.6844997719e+000	 1.7479879539e+000	 8.2429062907e-002
 4.6669684431e+000	 1.7942702003e+000	 7.6159574385e-002
 4.6489415053e+000	 1.8404735478e+000	 7.4158897484e-002
 4.4164944300e+000	 1.7484498704e+000	 1.2078964242e-001
 4.3988977105e+000	 1.7922608439e+000	 8.4049276292e-002
 4.3808297054e+000	 1.8359823234e+000	 4.2152159775e-002
 4.3622904030e+000	 1.8796069909e+000	 2.5026107572e-002
 4.3432799376e+000	 1.9231275005e+000	 3.9704495562e-002
 4.3237985918e+000	 1.9665364825e+000	 4.4719570567e-002
 4.3038467969e+000	 2.0098265468e+000	 3.9823364495e-002
 4.2834251345e+000	 2.0529902865e+000	 2.4768181546e-002
 4.2625343375e+000	 2.0960202818e+000	-6.9259341435e-004
 4.2411752908e+000	 2.1389091034e+000	-3.6803669086e-002
 4.2193490324e+000	 2.1816493170e+000	-8.3807006511e-002
 4.4397391376e+000	 1.7576522382e+000	 1.0864154246e-001
 4.4220498037e+000	 1.8016937957e+000	 7.6992846778e-002
 4.4038867039e+000	 1.8456453883e+000	 4.0759297461e-002
 4.3852498261e+000	 1.8894996592e+000	 8.8424498911e-003
 4.3661393057e+000	 1.9332492242e+000	 4.0660563721e-003
 4.3465554265e+000	 1.9768866745e+000	 1.1052256445e-002
 4.3264986222e+000	 2.0204045813e+000	 8.9121536809e-003
 4.3059694774e+000	 2.0637954986e+000	-2.6175842205e-003
 4.2849687287e+000	 2.1070519675e+000	-2.3800050833e-002
 4.2634972660e+000	 2.1501665198e+000	-5.4897258502e-002
 4.2415561326e+000	 2.1931316818e+000	-9.6169279018e-002
 4.4629838451e+000	 1.7668546059e+000	 9.8488014522e-002
 4.4452018969e+000	 1.8111267475e+000	 7.1622605971e-002
 4.4269437023e+000	 1.8553084531e+000	 4.0733828483e-002
 4.4082092493e+000	 1.8993923276e+000	 1.7577097395e-002
 4.3889986738e+000	 1.9433709479e+000	-3.7597681245e-003
 4.3693122612e+000	 1.9872368665e+000	-2.2213485126e-002
 4.3491504474e+000	 2.0309826157e+000	-2.1722070957e-002
 4.3285138202e+000	 2.0746007106e+000	-2.9857534103e-002
 4.3074031200e+000	 2.1180836532e+000	-4.6899544559e-002
 4.2858192412e+000	 2.1614239361e+000	-7.3127513135e-002
 4.2637632328e+000	 2.2046140466e+000	-1.0881971378e-001
 4.4862285526e+000	 1.7760569736e+000	 9.0203536096e-002
 4.4683539901e+000	 1.8205596993e+000	 6.7812119807e-002
 4.4500007008e+000	 1.8649715180e+000	 4.1948501424e-002
 4.4311686725e+000	 1.9092849960e+000	 2.5219621890e-002
 4.4118580419e+000	 1.9534926715e+000	 4.8507069108e-003
 4.3920690959e+000	 1.9975870585e+000	-2.2968676325e-002
 4.3718022727e+000	 2.0415606502e+000	-5.2057382400e-002
 4.3510581630e+000	 2.0854059226e+000	-5.6925509569e-002
 4.3298375112e+000	 2.1291153389e+000	-6.9960580138e-002
 4.3081412164e+000	 2.1726813525e+000	-9.1459500313e-002
 4.2859703329e+000	 2.2160964114e+000	-1.2171883982e-001
 4.5094732602e+000	 1.7852593414e+000	 8.3663356457e-002
 4.4915060834e+000	 1.8299926511e+000	 6.5435677312e-002
 4.4730576992e+000	 1.8746345829e+000	 4.4276736901e-002
 4.4541280956e+000	 1.9191776644e+000	 3.1840745553e-002
 4.4347174100e+000	 1.9636143952e+000	 1.2359040759e-002
 4.4148259306e+000	 2.0079372506e+000	-1.4017141624e-002
 4.3944540979e+000	 2.0521386846e+000	-4.6993451358e-002
 4.3736025058e+000	 2.0962111347e+000	-8.3794970051e-002
 4.3522719025e+000	 2.1401470246e+000	-9.2952345924e-002
 4.3304631916e+000	 2.1839387688e+000	-1.0985803727e-001
 4.3081774331e+000	 2.2275787763e+000	-1.3482700539e-001
 4.5327179677e+000	 1.7944617091e+000	 7.8743476898e-002
 4.5146581766e+000	 1.8394256029e+000	 6.4368272062e-002
 4.4961146977e+000	 1.8842976477e+000	 4.9576897884e-002
 4.4770875188e+000	 1.9290703327e+000	 3.7511793352e-002
 4.4575767781e+000	 1.9737361189e+000	 1.8840679456e-002
 4.4375827653e+000	 2.0182874426e+000	-6.1811233241e-003
 4.4171059232e+000	 2.0627167191e+000	-3.7267434235e-002
 4.3961468486e+000	 2.1070163467e+000	-7.4100573058e-002
 4.3747062937e+000	 2.1511787103e+000	-1.1584372122e-001
 4.3527851668e+000	 2.1951961851e+000	-1.2828769756e-001
 4.3303845333e+000	 2.2390611411e+000	-1.4810438259e-001
 4.5559626752e+000	 1.8036640769e+000	 7.5320631539e-002
 4.5378102698e+000	 1.8488585547e+000	 6.4485584210e-002
 4.5191716961e+000	 1.8939607126e+000	 5.4171516154e-002
 4.5000469420e+000	 1.9389630011e+000	 4.2304677675e-002
 4.4804361462e+000	 1.9838578426e+000	 2.4371603557e-002
 4.4603396000e+000	 2.0286376346e+000	 6.1947181046e-004
 4.4397577484e+000	 2.0732947536e+000	-2.8673779347e-002
 4.4186911914e+000	 2.1178215587e+000	-6.3198795533e-002
 4.3971406850e+000	 2.1622103960e+000	-1.0261421269e-001
 4.3751071420e+000	 2.2064536015e+000	-1.4654612930e-001
 4.3525916335e+000	 2.2505435059e+000	-1.6151097190e-001
 4.5792073827e+000	 1.8128664446e+000	 7.3272268726e-002
 4.5609623630e+000	 1.8582915065e+000	 6.5663963060e-002
 4.5422286946e+000	 1.9036237774e+000	 5.8016962489e-002
 4.5230063652e+000	 1.9488556695e+000	 4.6291883409e-002
 4.5032955143e+000	 1.9939795663e+000	 2.9028314578e-002
 4.4830964347e+000	 2.0389878266e+000	 6.4652042843e-003
 4.4624095737e+000	 2.0838727880e+000	-2.1127826682e-002
 4.4412355342e+000	 2.1286267708e+000	-5.3449812010e-002
 4.4195750762e+000	 2.1732420817e+000	-9.0167829452e-002
 4.3974291173e+000	 2.2177110178e+000	-1.3091645639e-001
 4.3747987336e+000	 2.2620258708e+000	-1.7500660650e-001
 4.6024520903e+000	 1.8220688123e+000	 7.2476532998e-002
 4.5841144562e+000	 1.8677244584e+000	 6.7780410168e-002
 4.5652856930e+000	 1.9132868423e+000	 6.1182355565e-002
 4.5459657884e+000	 1.9587483379e+000	 4.9546453496e-002
 4.5261548824e+000	 2.0041012900e+000	 3.2887821833e-002
 4.5058532694e+000	 2.0493380186e+000	 1.1437090073e-002
 4.4850613989e+000	 2.0944508225e+000	-1.4544515158e-002
 4.4637798771e+000	 2.1394319828e+000	-4.4764479705e-002
 4.4420094675e+000	 2.1842737674e+000	-7.8898374262e-002
 4.4197510925e+000	 2.2289684341e+000	-1.1658929299e-001
 4.3970058338e+000	 2.2735082356e+000	-1.5744736165e-001
 4.6256967978e+000	 1.8312711801e+000	 7.2812247594e-002
 4.6072665494e+000	 1.8771574102e+000	 7.0621466810e-002
 4.5883426915e+000	 1.9229499072e+000	 6.3737405028e-002
 4.5689252115e+000	 1.9686410063e+000	 5.2141974901e-002
 4.5490142505e+000	 2.0142230137e+000	 3.6027629679e-002
 4.5286101041e+000	 2.0596882107e+000	 1.5616589180e-002
 4.5077132242e+000	 2.1050288570e+000	-8.8383927017e-003
 4.4863242199e+000	 2.1502371949e+000	-3.7053319881e-002
 4.4644438587e+000	 2.1953054531e+000	-6.8712308966e-002
 4.4420730677e+000	 2.2402258505e+000	-1.0346701063e-001
 4.4192129340e+000	 2.2849906004e+000	-1.4093610084e-001
 4.6489415053e+000	 1.8404735478e+000	 7.4158897484e-002
 4.6304186427e+000	 1.8865903620e+000	 7.3141200444e-002
 4.6113996900e+000	 1.9326129720e+000	 6.5752396721e-002
 4.5918846347e+000	 1.9785336746e+000	 5.4152565018e-002
 4.5718736186e+000	 2.0243447374e+000	 3.8525725139e-002
 4.5513669388e+000	 2.0700384027e+000	 1.9085594532e-002
 4.5303650494e+000	 2.1156068914e+000	-3.9236260185e-003
 4.5088685627e+000	 2.1610424069e+000	-3.0226526243e-002
 4.4868782500e+000	 2.2063371388e+000	-5.9515823464e-002
 4.4643950429e+000	 2.2514832668e+000	-9.1451766438e-002
 4.4414200342e+000	 2.2964729653e+000	-1.2566160939e-001
 4.2193490324e+000	 2.1816493170e+000	-8.3807006511e-002
 4.1970567543e+000	 2.2242334862e+000	-1.4424755151e-001
 4.1742998024e+000	 2.2666541773e+000	-1.9039607157e-001
 4.1510796778e+000	 2.3089039626e+000	-2.2239440432e-001
 4.1273980366e+000	 2.3509754247e+000	-2.4040121279e-001
 4.1032566903e+000	 2.3928611605e+000	-2.4459139061e-001
 4.0786576062e+000	 2.4345537848e+000	-2.3515543768e-001
 4.0536029072e+000	 2.4760459347e+000	-2.1229880791e-001
 4.0280948713e+000	 2.5173302738e+000	-2.1824275880e-001
 4.0021359322e+000	 2.5583994957e+000	-2.6961469952e-001
 3.9757286783e+000	 2.5992463286e+000	-3.0820142783e-001
 4.2415561326e+000	 2.1931316818e+000	-9.6169279018e-002
 4.2191465267e+000	 2.2359399782e+000	-1.5078841853e-001
 4.1962698014e+000	 2.2785839361e+000	-1.9189883285e-001
 4.1729274656e+000	 2.3210560887e+000	-2.1964870723e-001
 4.1491211841e+000	 2.3633489796e+000	-2.3420234841e-001
 4.1248527781e+000	 2.4054551666e+000	-2.3573956786e-001
 4.1001242252e+000	 2.4473672257e+000	-2.2445503618e-001
 4.0749376593e+000	 2.4890777554e+000	-2.0055761039e-001
 4.0492953706e+000	 2.5305793805e+000	-2.3504981969e-001
 4.0231998056e+000	 2.5718647562e+000	-2.8340198865e-001
 3.9966535661e+000	 2.6129265724e+000	-3.1989277183e-001
 4.2637632328e+000	 2.2046140466e+000	-1.0881971378e-001
 4.2412362991e+000	 2.2476464703e+000	-1.5744782540e-001
 4.2182398003e+000	 2.2905136949e+000	-1.9334176234e-001
 4.1947752533e+000	 2.3332082148e+000	-2.1665622674e-001
 4.1708443317e+000	 2.3757225345e+000	-2.2756134446e-001
 4.1464488660e+000	 2.4180491727e+000	-2.2624202618e-001
 4.1215908442e+000	 2.4601806667e+000	-2.1289730031e-001
 4.0962724114e+000	 2.5021095762e+000	-1.9234071073e-001
 4.0704958700e+000	 2.5438284872e+000	-2.4777380381e-001
 4.0442636789e+000	 2.5853300167e+000	-2.9299407320e-001
 4.0175784539e+000	 2.6266068162e+000	-3.2726949892e-001
 4.2859703329e+000	 2.2160964114e+000	-1.2171883982e-001
 4.2633260715e+000	 2.2593529623e+000	-1.6418676465e-001
 4.2402097993e+000	 2.3024434537e+000	-1.9468646605e-001
 4.2166230411e+000	 2.3453603409e+000	-2.1337933334e-001
 4.1925674792e+000	 2.3880960893e+000	-2.2044148790e-001
 4.1680449538e+000	 2.4306431788e+000	-2.1606312187e-001
 4.1430574632e+000	 2.4729941077e+000	-2.0044780928e-001
 4.1176071636e+000	 2.5151413969e+000	-2.0522131152e-001
 4.0916963693e+000	 2.5570775939e+000	-2.5648108969e-001
 4.0653275522e+000	 2.5987952773e+000	-2.9846160758e-001
 4.0385033416e+000	 2.6402870601e+000	-3.3040667619e-001
 4.3081774331e+000	 2.2275787763e+000	-1.3482700539e-001
 4.2854158438e+000	 2.2710594543e+000	-1.7096601440e-001
 4.2621797983e+000	 2.3143732126e+000	-1.9589429908e-001
 4.2384708289e+000	 2.3575124671e+000	-2.0978010726e-001
 4.2142906268e+000	 2.4004696442e+000	-2.1280573320e-001
 4.1896410417e+000	 2.4432371849e+000	-2.0516683358e-001
 4.1645240822e+000	 2.4858075487e+000	-1.8707171673e-001
 4.1389419157e+000	 2.5281732176e+000	-2.1424788656e-001
 4.1128968686e+000	 2.5703267006e+000	-2.6123752578e-001
 4.0863914255e+000	 2.6122605378e+000	-2.9987465972e-001
 4.0594282294e+000	 2.6539673039e+000	-3.2937872502e-001
 4.3303845333e+000	 2.2390611411e+000	-1.4810438259e-001
 4.3075056162e+000	 2.2827659464e+000	-1.7774614388e-001
 4.2841497972e+000	 2.3263029714e+000	-1.9692637206e-001
 4.2603186167e+000	 2.3696645932e+000	-2.0582034590e-001
 4.2360137743e+000	 2.4128431991e+000	-2.0461671082e-001
 4.2112371295e+000	 2.4558311910e+000	-1.9351677202e-001
 4.1859907011e+000	 2.4986209896e+000	-1.7273376156e-001
 4.1602766679e+000	 2.5412050383e+000	-2.1948173740e-001
 4.1340973679e+000	 2.5835758073e+000	-2.6210844412e-001
 4.1074552989e+000	 2.6257257983e+000	-2.9730272610e-001
 4.0803531172e+000	 2.6676475477e+000	-3.2425943757e-001
 4.3525916335e+000	 2.2505435059e+000	-1.6151097190e-001
 4.3295953886e+000	 2.2944724384e+000	-1.8448751875e-001
 4.3061197962e+000	 2.3382327302e+000	-1.9774355742e-001
 4.2821664045e+000	 2.3818167193e+000	-2.0146157104e-001
 4.2577369219e+000	 2.4252167539e+000	-1.9583673546e-001
 4.2328332174e+000	 2.4684251971e+000	-1.8107618932e-001
 4.2074573201e+000	 2.5114344306e+000	-1.7710694680e-001
 4.1816114200e+000	 2.5542368590e+000	-2.2098371320e-001
 4.1552978673e+000	 2.5968249141e+000	-2.5915867343e-001
 4.1285191722e+000	 2.6391910588e+000	-2.9081474632e-001
 4.1012780050e+000	 2.6813277916e+000	-3.1512199291e-001
 4.3747987336e+000	 2.2620258708e+000	-1.7500660650e-001
 4.3516851610e+000	 2.3061789304e+000	-1.9115030628e-001
 4.3280897951e+000	 2.3501624891e+000	-1.9830649538e-001
 4.3040141922e+000	 2.3939688454e+000	-1.9666503581e-001
 4.2794600695e+000	 2.4375903088e+000	-1.8642781414e-001
 4.2544293052e+000	 2.4810192032e+000	-1.6780798816e-001
 4.2289239391e+000	 2.5242478716e+000	-1.8040510498e-001
 4.2029461722e+000	 2.5672686797e+000	-2.1881422227e-001
 4.1764983666e+000	 2.6100740208e+000	-2.5245255196e-001
 4.1495830455e+000	 2.6526563193e+000	-2.8047911722e-001
 4.1222028927e+000	 2.6950080354e+000	-3.0203897252e-001
 4.3970058338e+000	 2.2735082356e+000	-1.5744736165e-001
 4.3737749334e+000	 2.3178854225e+000	-1.9769448033e-001
 4.3500597941e+000	 2.3620922479e+000	-1.9857559985e-001
 4.3258619800e+000	 2.4061209716e+000	-1.9139173153e-001
 4.3011832170e+000	 2.4499638637e+000	-1.7635165389e-001
 4.2760253930e+000	 2.4936132094e+000	-1.5367473055e-001
 4.2503905581e+000	 2.5370613125e+000	-1.8016670676e-001
 4.2242809243e+000	 2.5803005004e+000	-2.1303324315e-001
 4.1976988659e+000	 2.6233231275e+000	-2.4205393980e-001
 4.1706469189e+000	 2.6661215798e+000	-2.6636370662e-001
 4.1431277805e+000	 2.7086882792e+000	-2.8508237541e-001
 4.4192129340e+000	 2.2849906004e+000	-1.4093610084e-001
 4.3958647058e+000	 2.3295919145e+000	-1.7709232928e-001
 4.3720297931e+000	 2.3740220067e+000	-1.9851106412e-001
 4.3477097678e+000	 2.4182730977e+000	-1.8560239426e-001
 4.3229063646e+000	 2.4623374186e+000	-1.6556966934e-001
 4.2976214809e+000	 2.5062072155e+000	-1.4713938283e-001
 4.2718571771e+000	 2.5498747535e+000	-1.7644760359e-001
 4.2456156764e+000	 2.5933323211e+000	-2.0370033549e-001
 4.2188993652e+000	 2.6365722342e+000	-2.2802623097e-001
 4.1917107922e+000	 2.6795868403e+000	-2.4853586660e-001
 4.1640526683e+000	 2.7223685231e+000	-2.6432363275e-001
 4.4414200342e+000	 2.2964729653e+000	-1.2566160939e-001
 4.4179544782e+000	 2.3412984066e+000	-1.5595751084e-001
 4.3939997920e+000	 2.3859517656e+000	-1.7596433129e-001
 4.3695575556e+000	 2.4304252238e+000	-1.7925751115e-001
 4.3446295122e+000	 2.4747109734e+000	-1.5404299004e-001
 4.3192175687e+000	 2.5188012216e+000	-1.4661302231e-001
 4.2933237960e+000	 2.5626881945e+000	-1.6930328203e-001
 4.2669504286e+000	 2.6063641418e+000	-1.9087465041e-001
 4.2400998645e+000	 2.6498213409e+000	-2.1043236501e-001
 4.2127746655e+000	 2.6930521008e+000	-2.2706244637e-001
 4.1849775561e+000	 2.7360487669e+000	-2.3983362206e-001
 3.9757286783e+000	 2.5992463286e+000	-3.0820142783e-001
 3.9488758523e+000	 2.6398635388e+000	-3.2841936240e-001
 3.9215803507e+000	 2.6802439354e+000	-3.4740240607e-001
 3.8938452231e+000	 2.7203803739e+000	-3.6442687854e-001
 3.8656736713e+000	 2.7602657603e+000	-3.7875744306e-001
 3.8370690480e+000	 2.7998930552e+000	-3.8964881962e-001
 3.8080348563e+000	 2.8392552779e+000	-3.9634753040e-001
 3.7785747479e+000	 2.8783455100e+000	-3.9809367341e-001
 3.7486925218e+000	 2.9171568997e+000	-3.9534630985e-001
 3.7183921230e+000	 2.9556826656e+000	-4.1121968463e-001
 3.6876776410e+000	 2.9939161004e+000	-4.1692512392e-001
 3.9966535661e+000	 2.6129265724e+000	-3.1989277183e-001
 3.9696594094e+000	 2.6537575574e+000	-3.3796787553e-001
 3.9422202473e+000	 2.6943504824e+000	-3.5523300970e-001
 3.9143391453e+000	 2.7346981653e+000	-3.7096266550e-001
 3.8860193222e+000	 2.7747934748e+000	-3.8441921698e-001
 3.8572641483e+000	 2.8146293345e+000	-3.9485465017e-001
 3.8280771451e+000	 2.8541987267e+000	-4.0151232529e-001
 3.7984619834e+000	 2.8934946969e+000	-4.0362876785e-001
 3.7684224824e+000	 2.9325103571e+000	-4.0043548389e-001
 3.7379626079e+000	 2.9712388901e+000	-4.0089558202e-001
 3.7070864707e+000	 3.0096735536e+000	-4.0760440858e-001
 4.0175784539e+000	 2.6266068162e+000	-3.2726949892e-001
 3.9904429665e+000	 2.6676515760e+000	-3.4350584108e-001
 3.9628601438e+000	 2.7084570295e+000	-3.5935464131e-001
 3.9348330675e+000	 2.7490159568e+000	-3.7408817883e-001
 3.9063649731e+000	 2.7893211894e+000	-3.8696615479e-001
 3.8774592485e+000	 2.8293656137e+000	-3.9723743774e-001
 3.8481194338e+000	 2.8691421756e+000	-4.0414184324e-001
 3.8183492189e+000	 2.9086438838e+000	-4.0691194289e-001
 3.7881524430e+000	 2.9478638144e+000	-4.0477489837e-001
 3.7575330927e+000	 2.9867951147e+000	-3.9695431566e-001
 3.7264953004e+000	 3.0254310067e+000	-3.9918408678e-001
 4.0385033416e+000	 2.6402870601e+000	-3.3040667619e-001
 4.0112265236e+000	 2.6815455947e+000	-3.4510617383e-001
 3.9835000404e+000	 2.7225635765e+000	-3.5983811376e-001
 3.9553269898e+000	 2.7633337482e+000	-3.7387217984e-001
 3.9267106240e+000	 2.8038489039e+000	-3.8646501645e-001
 3.8976543488e+000	 2.8441018930e+000	-3.9686199107e-001
 3.8681617225e+000	 2.8840856244e+000	-4.0429899169e-001
 3.8382364544e+000	 2.9237930707e+000	-4.0800425443e-001
 3.8078824037e+000	 2.9632172718e+000	-4.0720021687e-001
 3.7771035776e+000	 3.0023513392e+000	-4.0110539218e-001
 3.7459041300e+000	 3.0411884599e+000	-3.9159109886e-001
 4.0594282294e+000	 2.6539673039e+000	-3.2937872502e-001
 4.0320100807e+000	 2.6954396133e+000	-3.4284121893e-001
 4.0041399370e+000	 2.7366701235e+000	-3.5675374532e-001
 3.9758209120e+000	 2.7776515397e+000	-3.7038300907e-001
 3.9470562748e+000	 2.8183766184e+000	-3.8298221388e-001
 3.9178494490e+000	 2.8588381722e+000	-3.9379284235e-001
 3.8882040112e+000	 2.8990290732e+000	-4.0204647178e-001
 3.8581236899e+000	 2.9389422576e+000	-4.0696662099e-001
 3.8276123643e+000	 2.9785707292e+000	-4.0777062347e-001
 3.7966740624e+000	 3.0179075638e+000	-4.0367152202e-001
 3.7653129597e+000	 3.0569459131e+000	-3.9387998001e-001
 4.0803531172e+000	 2.6676475477e+000	-3.2425943757e-001
 4.0527936378e+000	 2.7093336319e+000	-3.3678276651e-001
 4.0247798336e+000	 2.7507766705e+000	-3.5017137227e-001
 3.9963148342e+000	 2.7919693311e+000	-3.6368859712e-001
 3.9674019257e+000	 2.8329043329e+000	-3.7658381990e-001
 3.9380445493e+000	 2.8735744514e+000	-3.8809425429e-001
 3.9082462999e+000	 2.9139725220e+000	-3.9744678361e-001
 3.8780109254e+000	 2.9540914445e+000	-4.0385982726e-001
 3.8473423250e+000	 2.9939241865e+000	-4.0654523435e-001
 3.8162445473e+000	 3.0334637884e+000	-4.0471019938e-001
 3.7847217894e+000	 3.0727033662e+000	-3.9755919515e-001
 4.1012780050e+000	 2.6813277916e+000	-3.1512199291e-001
 4.0735771949e+000	 2.7232276505e+000	-3.2700206580e-001
 4.0454197301e+000	 2.7648832176e+000	-3.4016036127e-001
 4.0168087564e+000	 2.8062871225e+000	-3.5385647506e-001
 3.9877475766e+000	 2.8474320475e+000	-3.6733557680e-001
 3.9582396495e+000	 2.8883107307e+000	-3.7983022702e-001
 3.9282885886e+000	 2.9289159709e+000	-3.9056223138e-001
 3.8978981609e+000	 2.9692406314e+000	-3.9874452750e-001
 3.8670722856e+000	 3.0092776439e+000	-4.0358309947e-001
 3.8358150322e+000	 3.0490200129e+000	-4.0427891523e-001
 3.8041306191e+000	 3.0884608194e+000	-4.0002988160e-001
 4.1222028927e+000	 2.6950080354e+000	-3.0203897252e-001
 4.0943607521e+000	 2.7371216692e+000	-3.1356983891e-001
 4.0660596267e+000	 2.7789897646e+000	-3.2678962125e-001
 4.0373026787e+000	 2.8206049140e+000	-3.4095378461e-001
 4.0080932275e+000	 2.8619597620e+000	-3.5530290482e-001
 3.9784347498e+000	 2.9030470099e+000	-3.6906450470e-001
 3.9483308773e+000	 2.9438594197e+000	-3.8145492836e-001
 3.9177853965e+000	 2.9843898182e+000	-3.9168124886e-001
 3.8868022462e+000	 3.0246311013e+000	-3.9894320430e-001
 3.8553855170e+000	 3.0645762375e+000	-4.0243515733e-001
 3.8235394488e+000	 3.1042182725e+000	-4.0134807305e-001
 4.1431277805e+000	 2.7086882792e+000	-2.8508237541e-001
 4.1151443092e+000	 2.7510156878e+000	-2.9655629413e-001
 4.0866995233e+000	 2.7930963116e+000	-3.1012761494e-001
 4.0577966009e+000	 2.8349227054e+000	-3.2504728793e-001
 4.0284388784e+000	 2.8764874765e+000	-3.4055091023e-001
 3.9986298500e+000	 2.9177832891e+000	-3.5586058207e-001
 3.9683731661e+000	 2.9588028685e+000	-3.7018680174e-001
 3.9376726320e+000	 2.9995390051e+000	-3.8273039461e-001
 3.9065322069e+000	 3.0399845586e+000	-3.9268447139e-001
 3.8749560019e+000	 3.0801324620e+000	-3.9923641037e-001
 3.8429482785e+000	 3.1199757257e+000	-4.0156985866e-001
 4.1640526683e+000	 2.7223685231e+000	-2.6432363275e-001
 4.1359278663e+000	 2.7649097064e+000	-2.7603113881e-001
 4.1073394199e+000	 2.8072028587e+000	-2.9024237015e-001
 4.0782905231e+000	 2.8492404969e+000	-3.0620337722e-001
 4.0487845293e+000	 2.8910151910e+000	-3.2314439324e-001
 4.0188249503e+000	 2.9325195684e+000	-3.4028171065e-001
 3.9884154548e+000	 2.9737463174e+000	-3.5681959724e-001
 3.9575598675e+000	 3.0146881920e+000	-3.7195224720e-001
 3.9262621675e+000	 3.0553380160e+000	-3.8486576200e-001
 3.8945264867e+000	 3.0956886866e+000	-3.9474015600e-001
 3.8623571082e+000	 3.1357331788e+000	-3.9985342076e-001
 4.1849775561e+000	 2.7360487669e+000	-2.3983362206e-001
 4.1567114234e+000	 2.7788037250e+000	-2.5206359191e-001
 4.1279793165e+000	 2.8213094057e+000	-2.6720149057e-001
 4.0987844453e+000	 2.8635582883e+000	-2.8448808389e-001
 4.0691301802e+000	 2.9055429056e+000	-3.0314785562e-001
 4.0390200505e+000	 2.9472558476e+000	-3.2239090481e-001
 4.0084577435e+000	 2.9886897662e+000	-3.4141488371e-001
 3.9774471030e+000	 3.0298373789e+000	-3.5940697133e-001
 3.9459921281e+000	 3.0706914733e+000	-3.7554587761e-001
 3.9140969716e+000	 3.1112449111e+000	-3.8900387296e-001
 3.8817659379e+000	 3.1514906320e+000	-3.9723432050e-001
 3.6876776410e+000	 2.9939161004e+000	-4.1692512392e-001
 3.6565533075e+000	 3.0318505751e+000	-4.3292967979e-001
 3.6250234951e+000	 3.0694795422e+000	-4.4377556406e-001
 3.5930927152e+000	 3.1067965399e+000	-4.4950819216e-001
 3.5607656154e+000	 3.1437951957e+000	-4.5363056257e-001
 3.5280469781e+000	 3.1804692296e+000	-4.6218753594e-001
 3.4949417175e+000	 3.2168124582e+000	-4.7376334034e-001
 3.4614548776e+000	 3.2528187977e+000	-4.8826264235e-001
 3.4275916292e+000	 3.2884822674e+000	-5.0558399653e-001
 3.3933572679e+000	 3.3237969933e+000	-5.2561997746e-001
 3.3587572107e+000	 3.3587572106e+000	-5.4825732792e-001
 3.7070864707e+000	 3.0096735536e+000	-4.0760440858e-001
 3.6757983249e+000	 3.0478076834e+000	-4.2395102873e-001
 3.6441025662e+000	 3.0856346977e+000	-4.3459637778e-001
 3.6120037295e+000	 3.1231481007e+000	-4.3958245159e-001
 3.5795064871e+000	 3.1603414862e+000	-4.4600213052e-001
 3.5466156464e+000	 3.1972085414e+000	-4.5516090900e-001
 3.5133361476e+000	 3.2337430501e+000	-4.6680153147e-001
 3.4796730611e+000	 3.2699388967e+000	-4.8082470909e-001
 3.4456315852e+000	 3.3057900689e+000	-4.9712544903e-001
 3.4112170430e+000	 3.3412906616e+000	-5.1559319126e-001
 3.3764348802e+000	 3.3764348802e+000	-5.3611196123e-001
 3.7264953004e+000	 3.0254310067e+000	-3.9918408678e-001
 3.6950433423e+000	 3.0637647916e+000	-4.1575161343e-001
 3.6631816372e+000	 3.1017898531e+000	-4.2608356505e-001
 3.6309147437e+000	 3.1394996614e+000	-4.3173931311e-001
 3.5982473587e+000	 3.1768877767e+000	-4.3939169952e-001
 3.5651843147e+000	 3.2139478531e+000	-4.4909351790e-001
 3.5317305777e+000	 3.2506736420e+000	-4.6074697366e-001
 3.4978912447e+000	 3.2870589956e+000	-4.7424884461e-001
 3.4636715411e+000	 3.3230978703e+000	-4.8949060686e-001
 3.4290768181e+000	 3.3587843300e+000	-5.0635857648e-001
 3.3941125497e+000	 3.3941125497e+000	-5.2473406656e-001
 3.7459041300e+000	 3.0411884599e+000	-3.9159109886e-001
 3.7142883597e+000	 3.0797218999e+000	-4.0825928618e-001
 3.6822607082e+000	 3.1179450086e+000	-4.1816584211e-001
 3.6498257580e+000	 3.1558512221e+000	-4.2511568541e-001
 3.6169882304e+000	 3.1934340672e+000	-4.3377232037e-001
 3.5837529830e+000	 3.2306871648e+000	-4.4395919154e-001
 3.5501250078e+000	 3.2676042339e+000	-4.5557420105e-001
 3.5161094283e+000	 3.3041790945e+000	-4.6851021495e-001
 3.4817114971e+000	 3.3404056717e+000	-4.8265519426e-001
 3.4469365932e+000	 3.3762779984e+000	-4.9789234146e-001
 3.4117902192e+000	 3.4117902192e+000	-5.1410026195e-001
 3.7653129597e+000	 3.0569459131e+000	-3.9387998001e-001
 3.7335333771e+000	 3.0956790082e+000	-4.0140193738e-001
 3.7013397793e+000	 3.1341001641e+000	-4.1104217869e-001
 3.6687367723e+000	 3.1722027829e+000	-4.1951997392e-001
 3.6357291020e+000	 3.2099803577e+000	-4.2911702250e-001
 3.6023216513e+000	 3.2474264766e+000	-4.3973172128e-001
 3.5685194379e+000	 3.2845348258e+000	-4.5125769585e-001
 3.5343276118e+000	 3.3212991935e+000	-4.6358392165e-001
 3.4997514530e+000	 3.3577134731e+000	-4.7659486020e-001
 3.4647963683e+000	 3.3937716668e+000	-4.9017061037e-001
 3.4294678888e+000	 3.4294678888e+000	-5.0418707425e-001
 3.7847217894e+000	 3.0727033662e+000	-3.9755919515e-001
 3.7527783945e+000	 3.1116361165e+000	-3.9656382169e-001
 3.7204188503e+000	 3.1502553196e+000	-4.0506776346e-001
 3.6876477866e+000	 3.1885543436e+000	-4.1492437231e-001
 3.6544699737e+000	 3.2265266482e+000	-4.2539881455e-001
 3.6208903196e+000	 3.2641657883e+000	-4.3638486187e-001
 3.5869138680e+000	 3.3014654177e+000	-4.4777188959e-001
 3.5525457954e+000	 3.3384192924e+000	-4.5944500333e-001
 3.5177914090e+000	 3.3750212745e+000	-4.7128518030e-001
 3.4826561434e+000	 3.4112653352e+000	-4.8316942538e-001
 3.4471455583e+000	 3.4471455583e+000	-4.9497094140e-001
 3.8041306191e+000	 3.0884608194e+000	-4.0002988160e-001
 3.7720234120e+000	 3.1275932248e+000	-3.9979044518e-001
 3.7394979213e+000	 3.1664104751e+000	-4.0013431319e-001
 3.7065588009e+000	 3.2049059043e+000	-4.1130107109e-001
 3.6732108454e+000	 3.2430729387e+000	-4.2259068488e-001
 3.6394589879e+000	 3.2809051000e+000	-4.3389233238e-001
 3.6053082981e+000	 3.3183960095e+000	-4.4509116451e-001
 3.5707639790e+000	 3.3555393913e+000	-4.5606843736e-001
 3.5358313649e+000	 3.3923290759e+000	-4.6670165871e-001
 3.5005159185e+000	 3.4287590036e+000	-4.7686474873e-001
 3.4648232278e+000	 3.4648232278e+000	-4.8642821473e-001
 3.8235394488e+000	 3.1042182725e+000	-4.0134807305e-001
 3.7912684294e+000	 3.1435503331e+000	-4.0168057455e-001
 3.7585769923e+000	 3.1825656306e+000	-3.9987877959e-001
 3.7254698152e+000	 3.2212574651e+000	-4.0862225769e-001
 3.6919517170e+000	 3.2596192292e+000	-4.2066560210e-001
 3.6580276562e+000	 3.2976444118e+000	-4.3222781713e-001
 3.6237027281e+000	 3.3353266014e+000	-4.4318985472e-001
 3.5889821625e+000	 3.3726594903e+000	-4.5342914140e-001
 3.5538713209e+000	 3.4096368773e+000	-4.6281972992e-001
 3.5183756936e+000	 3.4462526720e+000	-4.7123246475e-001
 3.4825008974e+000	 3.4825008974e+000	-4.7853516115e-001
 3.8429482785e+000	 3.1199757257e+000	-4.0156985866e-001
 3.8105134468e+000	 3.1595074414e+000	-4.0307998419e-001
 3.7776560634e+000	 3.1987207860e+000	-4.0399253234e-001
 3.7443808295e+000	 3.2376090258e+000	-4.0686011652e-001
 3.7106925887e+000	 3.2761655197e+000	-4.1959651552e-001
 3.6765963245e+000	 3.3143837235e+000	-4.3136496653e-001
 3.6420971582e+000	 3.3522571933e+000	-4.4204224747e-001
 3.6072003461e+000	 3.3897795892e+000	-4.5150197486e-001
 3.5719112768e+000	 3.4269446787e+000	-4.5961476054e-001
 3.5362354687e+000	 3.4637463403e+000	-4.6624838187e-001
 3.5001785669e+000	 3.5001785669e+000	-4.7126796525e-001
 3.8623571082e+000	 3.1357331788e+000	-3.9985342076e-001
 3.8297584642e+000	 3.1754645497e+000	-4.0401281829e-001
 3.7967351344e+000	 3.2148759415e+000	-4.0758370987e-001
 3.7632918438e+000	 3.2539605865e+000	-4.1048089873e-001
 3.7294334603e+000	 3.2927118102e+000	-4.1935635571e-001
 3.6951649928e+000	 3.3311230352e+000	-4.3127739799e-001
 3.6604915883e+000	 3.3691877852e+000	-4.4162258433e-001
 3.6254185297e+000	 3.4068996881e+000	-4.5026174044e-001
 3.5899512327e+000	 3.4442524801e+000	-4.5706205096e-001
 3.5540952438e+000	 3.4812400087e+000	-4.6188823449e-001
 3.5178562364e+000	 3.5178562364e+000	-4.6460273144e-001
 3.8817659379e+000	 3.1514906320e+000	-3.9723432050e-001
 3.8490034816e+000	 3.1914216579e+000	-4.0450325370e-001
 3.8158142054e+000	 3.2310310970e+000	-4.1067741700e-001
 3.7822028581e+000	 3.2703121473e+000	-4.1566673535e-001
 3.7481743320e+000	 3.3092581007e+000	-4.1991803492e-001
 3.7137336611e+000	 3.3478623470e+000	-4.3193869666e-001
 3.6788860184e+000	 3.3861183771e+000	-4.4190506231e-001
 3.6436367132e+000	 3.4240197871e+000	-4.4968318547e-001
 3.6079911887e+000	 3.4615602815e+000	-4.5513683704e-001
 3.5719550189e+000	 3.4987336771e+000	-4.5812768483e-001
 3.5355339060e+000	 3.5355339059e+000	-4.5851548586e-001
 3.3587572107e+000	 3.3587572106e+000	-5.4825732792e-001
 3.3237969933e+000	 3.3933572679e+000	-5.4926297363e-001
 3.2884822674e+000	 3.4275916292e+000	-5.4772746085e-001
 3.2528187977e+000	 3.4614548776e+000	-5.4362605011e-001
 3.2168124582e+000	 3.4949417175e+000	-5.3693350538e-001
 3.1804692296e+000	 3.5280469781e+000	-5.2762419960e-001
 3.1437951957e+000	 3.5607656154e+000	-5.1567222823e-001
 3.1067965399e+000	 3.5930927152e+000	-5.0804644291e-001
 3.0694795422e+000	 3.6250234951e+000	-5.0799625298e-001
 3.0318505751e+000	 3.6565533075e+000	-5.0955304350e-001
 2.9939161004e+000	 3.6876776410e+000	-5.1305123293e-001
 3.3764348802e+000	 3.3764348802e+000	-5.3611196123e-001
 3.3412906616e+000	 3.4112170430e+000	-5.3651802494e-001
 3.3057900689e+000	 3.4456315852e+000	-5.3475796470e-001
 3.2699388967e+000	 3.4796730611e+000	-5.3081245150e-001
 3.2337430501e+000	 3.5133361476e+000	-5.2466120081e-001
 3.1972085414e+000	 3.5466156464e+000	-5.1628307450e-001
 3.1603414862e+000	 3.5795064871e+000	-5.0565619141e-001
 3.1231481007e+000	 3.6120037295e+000	-4.9347620316e-001
 3.0856346977e+000	 3.6441025662e+000	-4.9481198570e-001
 3.0478076834e+000	 3.6757983249e+000	-4.9796756252e-001
 3.0096735536e+000	 3.7070864707e+000	-5.0328992235e-001
 3.3941125497e+000	 3.3941125497e+000	-5.2473406656e-001
 3.3587843300e+000	 3.4290768181e+000	-5.2464604322e-001
 3.3230978703e+000	 3.4636715411e+000	-5.2276409673e-001
 3.2870589956e+000	 3.4978912447e+000	-5.1907424400e-001
 3.2506736420e+000	 3.5317305777e+000	-5.1356108809e-001
 3.2139478531e+000	 3.5651843147e+000	-5.0620791656e-001
 3.1768877767e+000	 3.5982473587e+000	-4.9699680923e-001
 3.1394996614e+000	 3.6309147437e+000	-4.8590875499e-001
 3.1017898531e+000	 3.6631816372e+000	-4.8302406880e-001
 3.0637647916e+000	 3.6950433423e+000	-4.8777507372e-001
 3.0254310067e+000	 3.7264953004e+000	-4.9490628877e-001
 3.4117902192e+000	 3.4117902192e+000	-5.1410026195e-001
 3.3762779984e+000	 3.4469365932e+000	-5.1362206405e-001
 3.3404056717e+000	 3.4817114971e+000	-5.1171938537e-001
 3.3041790945e+000	 3.5161094283e+000	-5.0838352477e-001
 3.2676042339e+000	 3.5501250078e+000	-5.0360390955e-001
 3.2306871648e+000	 3.5837529830e+000	-4.9736819030e-001
 3.1934340672e+000	 3.6169882304e+000	-4.8966234587e-001
 3.1558512221e+000	 3.6498257580e+000	-4.8047079819e-001
 3.1179450086e+000	 3.6822607082e+000	-4.7279699165e-001
 3.0797218999e+000	 3.7142883597e+000	-4.7913795196e-001
 3.0411884599e+000	 3.7459041300e+000	-4.8806056995e-001
 3.4294678888e+000	 3.4294678888e+000	-5.0418707425e-001
 3.3937716668e+000	 3.4647963683e+000	-5.0342106615e-001
 3.3577134731e+000	 3.4997514530e+000	-5.0159733521e-001
 3.3212991935e+000	 3.5343276118e+000	-4.9871239892e-001
 3.2845348258e+000	 3.5685194379e+000	-4.9476044606e-001
 3.2474264766e+000	 3.6023216513e+000	-4.8973342804e-001
 3.2099803577e+000	 3.6357291020e+000	-4.8362116123e-001
 3.1722027829e+000	 3.6687367723e+000	-4.7641143986e-001
 3.1341001641e+000	 3.7013397793e+000	-4.6809015906e-001
 3.0956790082e+000	 3.7335333771e+000	-4.7221874371e-001
 3.0569459131e+000	 3.7653129597e+000	-4.7429097457e-001
 3.4471455583e+000	 3.4471455583e+000	-4.9497094140e-001
 3.4112653352e+000	 3.4826561434e+000	-4.9401797277e-001
 3.3750212745e+000	 3.5177914090e+000	-4.9237142762e-001
 3.3384192924e+000	 3.5525457954e+000	-4.9003297939e-001
 3.3014654177e+000	 3.5869138680e+000	-4.8700151604e-001
 3.2641657883e+000	 3.6208903196e+000	-4.8327322814e-001
 3.2265266482e+000	 3.6544699737e+000	-4.7884170849e-001
 3.1885543436e+000	 3.6876477866e+000	-4.7369806322e-001
 3.1502553196e+000	 3.7204188503e+000	-4.6783103375e-001
 3.1116361165e+000	 3.7527783945e+000	-4.6576903950e-001
 3.0727033662e+000	 3.7847217894e+000	-4.6115633967e-001
 3.4648232278e+000	 3.4648232278e+000	-4.8642821473e-001
 3.4287590036e+000	 3.5005159185e+000	-4.8538765313e-001
 3.3923290759e+000	 3.5358313649e+000	-4.8401512138e-001
 3.3555393913e+000	 3.5707639790e+000	-4.8231738668e-001
 3.3183960095e+000	 3.6053082981e+000	-4.8029797451e-001
 3.2809051000e+000	 3.6394589879e+000	-4.7795725331e-001
 3.2430729387e+000	 3.6732108454e+000	-4.7529253170e-001
 3.2049059043e+000	 3.7065588009e+000	-4.7229816769e-001
 3.1664104751e+000	 3.7394979213e+000	-4.6896568967e-001
 3.1275932248e+000	 3.7720234120e+000	-4.5455477671e-001
 3.0884608194e+000	 3.8041306191e+000	-4.5103819642e-001
 3.4825008974e+000	 3.4825008974e+000	-4.7853516115e-001
 3.4462526720e+000	 3.5183756936e+000	-4.7750492380e-001
 3.4096368773e+000	 3.5538713209e+000	-4.7650185320e-001
 3.3726594903e+000	 3.5889821625e+000	-4.7553774872e-001
 3.3353266014e+000	 3.6237027281e+000	-4.7462071212e-001
 3.2976444118e+000	 3.6580276562e+000	-4.7375522900e-001
 3.2596192292e+000	 3.6919517170e+000	-4.7294226350e-001
 3.2212574651e+000	 3.7254698152e+000	-4.7217936588e-001
 3.1825656306e+000	 3.7585769923e+000	-4.6757550408e-001
 3.1435503331e+000	 3.7912684294e+000	-4.5147278484e-001
 3.1042182725e+000	 3.8235394488e+000	-4.4386821110e-001
 3.5001785669e+000	 3.5001785669e+000	-4.7126796525e-001
 3.4637463403e+000	 3.5362354687e+000	-4.7034455004e-001
 3.4269446787e+000	 3.5719112768e+000	-4.6980503831e-001
 3.3897795892e+000	 3.6072003461e+000	-4.6966620063e-001
 3.3522571933e+000	 3.6420971582e+000	-4.6994065431e-001
 3.3143837235e+000	 3.6765963245e+000	-4.7063694178e-001
 3.2761655197e+000	 3.7106925887e+000	-4.7175962288e-001
 3.2376090258e+000	 3.7443808295e+000	-4.7330938080e-001
 3.1987207860e+000	 3.7776560634e+000	-4.6326509788e-001
 3.1595074414e+000	 3.8105134468e+000	-4.5050595782e-001
 3.1199757257e+000	 3.8429482785e+000	-4.3957822518e-001
 3.5178562364e+000	 3.5178562364e+000	-4.6460273144e-001
 3.4812400087e+000	 3.5540952438e+000	-4.6388124704e-001
 3.4442524801e+000	 3.5899512327e+000	-4.6389807100e-001
 3.4068996881e+000	 3.6254185297e+000	-4.6467488455e-001
 3.3691877852e+000	 3.6604915883e+000	-4.6622876038e-001
 3.3311230352e+000	 3.6951649928e+000	-4.6857223785e-001
 3.2927118102e+000	 3.7294334603e+000	-4.7171341303e-001
 3.2539605865e+000	 3.7632918438e+000	-4.7031349890e-001
 3.2148759415e+000	 3.7967351344e+000	-4.6092607264e-001
 3.1754645497e+000	 3.8297584642e+000	-4.5158820429e-001
 3.1357331788e+000	 3.8623571082e+000	-4.4237967134e-001
 3.5355339060e+000	 3.5355339059e+000	-4.5851548586e-001
 3.4987336771e+000	 3.5719550189e+000	-4.5808968122e-001
 3.4615602815e+000	 3.6079911887e+000	-4.5875432512e-001
 3.4240197871e+000	 3.6436367132e+000	-4.6053594951e-001
 3.3861183771e+000	 3.6788860184e+000	-4.6345602268e-001
 3.3478623470e+000	 3.7137336611e+000	-4.6753102150e-001
 3.3092581007e+000	 3.7481743320e+000	-4.7277251916e-001
 3.2703121473e+000	 3.7822028581e+000	-4.6678893704e-001
 3.2310310970e+000	 3.8158142054e+000	-4.6049330352e-001
 3.1914216579e+000	 3.8490034816e+000	-4.5465357997e-001
 3.1514906320e+000	 3.8817659379e+000	-4.4935252451e-001
 2.9939161004e+000	 3.6876776410e+000	-5.1305123293e-001
 2.9556826656e+000	 3.7183921230e+000	-5.1371161272e-001
 2.9171568997e+000	 3.7486925218e+000	-5.2084163614e-001
 2.8783455100e+000	 3.7785747479e+000	-5.0759772239e-001
 2.8392552779e+000	 3.8080348563e+000	-4.9526322879e-001
 2.7998930552e+000	 3.8370690480e+000	-4.8460220820e-001
 2.7602657603e+000	 3.8656736713e+000	-4.7524483023e-001
 2.7203803739e+000	 3.8938452231e+000	-4.6682461761e-001
 2.6802439354e+000	 3.9215803507e+000	-4.5897953804e-001
 2.6398635388e+000	 3.9488758523e+000	-4.5135308430e-001
 2.5992463286e+000	 3.9757286783e+000	-4.4359533967e-001
 3.0096735536e+000	 3.7070864707e+000	-5.0328992235e-001
 2.9712388901e+000	 3.7379626079e+000	-5.0663545137e-001
 2.9325103571e+000	 3.7684224824e+000	-5.0105190426e-001
 2.8934946969e+000	 3.7984619834e+000	-4.8862942184e-001
 2.8541987267e+000	 3.8280771451e+000	-4.7788969604e-001
 2.8146293345e+000	 3.8572641483e+000	-4.6845055100e-001
 2.7747934748e+000	 3.8860193222e+000	-4.5993237347e-001
 2.7346981653e+000	 3.9143391453e+000	-4.5195923382e-001
 2.6943504824e+000	 3.9422202473e+000	-4.4415999779e-001
 2.6537575574e+000	 3.9696594094e+000	-4.3616942601e-001
 2.6129265724e+000	 3.9966535661e+000	-4.2762925821e-001
 3.0254310067e+000	 3.7264953004e+000	-4.9490628877e-001
 2.9867951147e+000	 3.7575330927e+000	-4.9564532045e-001
 2.9478638144e+000	 3.7881524430e+000	-4.8351989760e-001
 2.9086438838e+000	 3.8183492189e+000	-4.7311293019e-001
 2.8691421756e+000	 3.8481194338e+000	-4.6403022917e-001
 2.8293656137e+000	 3.8774592485e+000	-4.5587932675e-001
 2.7893211894e+000	 3.9063649731e+000	-4.4827062472e-001
 2.7490159568e+000	 3.9348330675e+000	-4.4081853616e-001
 2.7084570295e+000	 3.9628601438e+000	-4.3314261749e-001
 2.6676515760e+000	 3.9904429665e+000	-4.2486868775e-001
 2.6266068162e+000	 4.0175784539e+000	-4.1562993197e-001
 3.0411884599e+000	 3.7459041300e+000	-4.8806056995e-001
 3.0023513392e+000	 3.7771035776e+000	-4.7902220441e-001
 2.9632172718e+000	 3.8078824037e+000	-4.6931460381e-001
 2.9237930707e+000	 3.8382364544e+000	-4.6098201934e-001
 2.8840856244e+000	 3.8681617225e+000	-4.5361948758e-001
 2.8441018930e+000	 3.8976543488e+000	-4.4682404867e-001
 2.8038489039e+000	 3.9267106240e+000	-4.4019591607e-001
 2.7633337482e+000	 3.9553269898e+000	-4.3333963951e-001
 2.7225635765e+000	 3.9835000404e+000	-4.2586525762e-001
 2.6815455947e+000	 4.0112265236e+000	-4.1738943730e-001
 2.6402870601e+000	 4.0385033416e+000	-4.0753659663e-001
 3.0569459131e+000	 3.7653129597e+000	-4.7429097457e-001
 3.0179075638e+000	 3.7966740624e+000	-4.6560350220e-001
 2.9785707292e+000	 3.8276123643e+000	-4.5836907204e-001
 2.9389422576e+000	 3.8581236899e+000	-4.5217066178e-001
 2.8990290732e+000	 3.8882040112e+000	-4.4659233569e-001
 2.8588381722e+000	 3.9178494490e+000	-4.4122044037e-001
 2.8183766184e+000	 3.9470562748e+000	-4.3564479652e-001
 2.7776515397e+000	 3.9758209120e+000	-4.2945988326e-001
 2.7366701235e+000	 4.0041399370e+000	-4.2226601180e-001
 2.6954396133e+000	 4.0320100807e+000	-4.1367048529e-001
 2.6539673039e+000	 4.0594282294e+000	-4.0328874151e-001
 3.0727033662e+000	 3.7847217894e+000	-4.6115633967e-001
 3.0334637884e+000	 3.8162445473e+000	-4.5532149963e-001
 2.9939241865e+000	 3.8473423250e+000	-4.5061654378e-001
 2.9540914445e+000	 3.8780109254e+000	-4.4661302551e-001
 2.9139725220e+000	 3.9082462999e+000	-4.4288383756e-001
 2.8735744514e+000	 3.9380445493e+000	-4.3900443045e-001
 2.8329043329e+000	 3.9674019257e+000	-4.3455402638e-001
 2.7919693311e+000	 3.9963148342e+000	-4.2911682550e-001
 2.7507766705e+000	 4.0247798336e+000	-4.2228320085e-001
 2.7093336319e+000	 4.0527936378e+000	-4.1365087901e-001
 2.6676475477e+000	 4.0803531172e+000	-4.0282610309e-001
 3.0884608194e+000	 3.8041306191e+000	-4.5103819642e-001
 3.0490200129e+000	 3.8358150322e+000	-4.4810866788e-001
 3.0092776439e+000	 3.8670722856e+000	-4.4599044792e-001
 2.9692406314e+000	 3.8978981609e+000	-4.4424346899e-001
 2.9289159709e+000	 3.9282885886e+000	-4.4242925191e-001
 2.8883107307e+000	 3.9582396495e+000	-4.4011214726e-001
 2.8474320475e+000	 3.9877475766e+000	-4.3686057192e-001
 2.8062871225e+000	 4.0168087564e+000	-4.3224823747e-001
 2.7648832176e+000	 4.0454197301e+000	-4.2585536689e-001
 2.7232276505e+000	 4.0735771949e+000	-4.1726989634e-001
 2.6813277916e+000	 4.1012780050e+000	-4.0608865868e-001
 3.1042182725e+000	 3.8235394488e+000	-4.4386821110e-001
 3.0645762375e+000	 3.8553855170e+000	-4.4389765881e-001
 3.0246311013e+000	 3.8868022462e+000	-4.4442439603e-001
 2.9843898182e+000	 3.9177853965e+000	-4.4499653637e-001
 2.9438594197e+000	 3.9483308773e+000	-4.4516402710e-001
 2.9030470099e+000	 3.9784347498e+000	-4.4447991384e-001
 2.8619597620e+000	 4.0080932275e+000	-4.4250160009e-001
 2.8206049140e+000	 4.0373026787e+000	-4.3879209814e-001
 2.7789897646e+000	 4.0660596267e+000	-4.3292126785e-001
 2.7371216692e+000	 4.0943607521e+000	-4.2446703991e-001
 2.6950080354e+000	 4.1222028927e+000	-4.1301662035e-001
 3.1199757257e+000	 3.8429482785e+000	-4.3957822518e-001
 3.0801324620e+000	 3.8749560019e+000	-4.4262130040e-001
 3.0399845586e+000	 3.9065322069e+000	-4.4585217772e-001
 2.9995390051e+000	 3.9376726320e+000	-4.4880695276e-001
 2.9588028685e+000	 3.9683731661e+000	-4.5102379638e-001
 2.9177832891e+000	 3.9986298500e+000	-4.5204424300e-001
 2.8764874765e+000	 4.0284388784e+000	-4.5141447350e-001
 2.8349227054e+000	 4.0577966009e+000	-4.4868658898e-001
 2.7930963116e+000	 4.0866995233e+000	-4.4341987193e-001
 2.7510156878e+000	 4.1151443092e+000	-4.3518203143e-001
 2.7086882792e+000	 4.1431277805e+000	-4.2355042894e-001
 3.1357331788e+000	 3.8623571082e+000	-4.4237967134e-001
 3.0956886866e+000	 3.8945264867e+000	-4.4421259235e-001
 3.0553380160e+000	 3.9262621675e+000	-4.5020775618e-001
 3.0146881920e+000	 3.9575598675e+000	-4.5560961969e-001
 2.9737463174e+000	 3.9884154548e+000	-4.5994437321e-001
 2.9325195684e+000	 4.0188249503e+000	-4.6274183255e-001
 2.8910151910e+000	 4.0487845293e+000	-4.6353674549e-001
 2.8492404969e+000	 4.0782905231e+000	-4.6187008883e-001
 2.8072028587e+000	 4.1073394199e+000	-4.5729035233e-001
 2.7649097064e+000	 4.1359278663e+000	-4.4935480618e-001
 2.7223685231e+000	 4.1640526683e+000	-4.3763074837e-001
 3.1514906320e+000	 3.8817659379e+000	-4.4935252451e-001
 3.1112449111e+000	 3.9140969716e+000	-4.4860470175e-001
 3.0706914733e+000	 3.9459921281e+000	-4.5742526385e-001
 3.0298373789e+000	 3.9774471030e+000	-4.6533961071e-001
 2.9886897662e+000	 4.0084577435e+000	-4.7186174682e-001
 2.9472558476e+000	 4.0390200505e+000	-4.7650956068e-001
 2.9055429056e+000	 4.0691301802e+000	-4.7880615534e-001
 2.8635582883e+000	 4.0987844453e+000	-4.7828116901e-001
 2.8213094057e+000	 4.1279793165e+000	-4.7447208219e-001
 2.7788037250e+000	 4.1567114234e+000	-4.6692550767e-001
 2.7360487669e+000	 4.1849775561e+000	-4.5519846003e-001
 2.5992463286e+000	 3.9757286783e+000	-4.4359533967e-001
 2.5583994957e+000	 4.0021359322e+000	-4.6050444620e-001
 2.5173302738e+000	 4.0280948713e+000	-4.8749577270e-001
 2.4760459347e+000	 4.0536029072e+000	-4.7025792513e-001
 2.4345537848e+000	 4.0786576062e+000	-4.2507122490e-001
 2.3928611605e+000	 4.1032566903e+000	-3.9134464698e-001
 2.3509754247e+000	 4.1273980366e+000	-3.6895573461e-001
 2.3089039626e+000	 4.1510796778e+000	-3.5778480703e-001
 2.2666541773e+000	 4.1742998024e+000	-3.5771446886e-001
 2.2242334862e+000	 4.1970567543e+000	-3.6862910330e-001
 2.1816493170e+000	 4.2193490324e+000	-3.9041435177e-001
 2.6129265724e+000	 3.9966535661e+000	-4.2762925821e-001
 2.5718647562e+000	 4.0231998056e+000	-4.4170200307e-001
 2.5305793805e+000	 4.0492953706e+000	-4.6496623992e-001
 2.4890777554e+000	 4.0749376593e+000	-4.7382923478e-001
 2.4473672257e+000	 4.1001242252e+000	-4.2762783509e-001
 2.4054551666e+000	 4.1248527781e+000	-3.9198768561e-001
 2.3633489796e+000	 4.1491211841e+000	-3.6679138808e-001
 2.3210560887e+000	 4.1729274656e+000	-3.5192537391e-001
 2.2785839361e+000	 4.1962698014e+000	-3.4727938833e-001
 2.2359399782e+000	 4.2191465267e+000	-3.5274595704e-001
 2.1931316818e+000	 4.2415561326e+000	-3.6821983782e-001
 2.6266068162e+000	 4.0175784539e+000	-4.1562993197e-001
 2.5853300167e+000	 4.0442636789e+000	-4.2682487125e-001
 2.5438284872e+000	 4.0704958700e+000	-4.4632811536e-001
 2.5021095762e+000	 4.0962724114e+000	-4.7365728727e-001
 2.4601806667e+000	 4.1215908442e+000	-4.3051449388e-001
 2.4180491727e+000	 4.1464488660e+000	-3.9284022931e-001
 2.3757225345e+000	 4.1708443317e+000	-3.6471984395e-001
 2.3332082148e+000	 4.1947752533e+000	-3.4604601593e-001
 2.2905136949e+000	 4.2182398003e+000	-3.3671576595e-001
 2.2476464703e+000	 4.2412362991e+000	-3.3662989717e-001
 2.2046140466e+000	 4.2637632328e+000	-3.4569241863e-001
 2.6402870601e+000	 4.0385033416e+000	-4.0753659663e-001
 2.5987952773e+000	 4.0653275522e+000	-4.1581490574e-001
 2.5570775939e+000	 4.0916963693e+000	-4.3152575580e-001
 2.5151413969e+000	 4.1176071636e+000	-4.5417333662e-001
 2.4729941077e+000	 4.1430574632e+000	-4.3382690070e-001
 2.4306431788e+000	 4.1680449538e+000	-3.9399760443e-001
 2.3880960893e+000	 4.1925674792e+000	-3.6283588078e-001
 2.3453603409e+000	 4.2166230411e+000	-3.4024079054e-001
 2.3024434537e+000	 4.2402097993e+000	-3.2611676640e-001
 2.2593529623e+000	 4.2633260715e+000	-3.2037302563e-001
 2.2160964114e+000	 4.2859703329e+000	-3.2292296519e-001
 2.6539673039e+000	 4.0594282294e+000	-4.0328874151e-001
 2.6122605378e+000	 4.0863914255e+000	-4.0861418592e-001
 2.5703267006e+000	 4.1128968686e+000	-4.2050371583e-001
 2.5281732176e+000	 4.1389419157e+000	-4.3844791181e-001
 2.4858075487e+000	 4.1645240822e+000	-4.3766090742e-001
 2.4432371849e+000	 4.1896410417e+000	-3.9555527095e-001
 2.4004696442e+000	 4.2142906268e+000	-3.6123439455e-001
 2.3575124671e+000	 4.2384708289e+000	-3.3460385911e-001
 2.3143732126e+000	 4.2621797983e+000	-3.1557564732e-001
 2.2710594543e+000	 4.2854158438e+000	-3.0406752896e-001
 2.2275787763e+000	 4.3081774331e+000	-3.0000242730e-001
 2.6676475477e+000	 4.0803531172e+000	-4.0282610309e-001
 2.6257257983e+000	 4.1074552989e+000	-4.0516500987e-001
 2.5835758073e+000	 4.1340973679e+000	-4.1320674274e-001
 2.5412050383e+000	 4.1602766679e+000	-4.2642809544e-001
 2.4986209896e+000	 4.1859907011e+000	-4.4211251434e-001
 2.4558311910e+000	 4.2112371295e+000	-3.9760881901e-001
 2.4128431991e+000	 4.2360137743e+000	-3.6001039568e-001
 2.3696645932e+000	 4.2603186167e+000	-3.2922948422e-001
 2.3263029714e+000	 4.2841497972e+000	-3.0518575689e-001
 2.2827659464e+000	 4.3075056162e+000	-2.8780567607e-001
 2.2390611411e+000	 4.3303845333e+000	-2.7702183157e-001
 2.6813277916e+000	 4.1012780050e+000	-4.0608865868e-001
 2.6391910588e+000	 4.1285191722e+000	-4.0540988872e-001
 2.5968249141e+000	 4.1552978673e+000	-4.0957977167e-001
 2.5542368590e+000	 4.1816114200e+000	-4.1806113509e-001
 2.5114344306e+000	 4.2074573201e+000	-4.3032372341e-001
 2.4684251971e+000	 4.2328332174e+000	-4.0025396566e-001
 2.4252167539e+000	 4.2577369219e+000	-3.5925900610e-001
 2.3818167193e+000	 4.2821664045e+000	-3.2421202706e-001
 2.3382327302e+000	 4.3061197962e+000	-2.9504053155e-001
 2.2944724384e+000	 4.3295953886e+000	-2.7167981622e-001
 2.2505435059e+000	 4.3525916335e+000	-2.5407227948e-001
 2.6950080354e+000	 4.1222028927e+000	-4.1301662035e-001
 2.6526563193e+000	 4.1495830455e+000	-4.0929154132e-001
 2.6100740208e+000	 4.1764983666e+000	-4.0956792077e-001
 2.5672686797e+000	 4.2029461722e+000	-4.1329443921e-001
 2.5242478716e+000	 4.2289239391e+000	-4.1992757704e-001
 2.4810192032e+000	 4.2544293052e+000	-4.0358655153e-001
 2.4375903088e+000	 4.2794600695e+000	-3.5907545644e-001
 2.3939688454e+000	 4.3040141922e+000	-3.1964594501e-001
 2.3501624891e+000	 4.3280897951e+000	-2.8523349373e-001
 2.3061789304e+000	 4.3516851610e+000	-2.5578237693e-001
 2.2620258708e+000	 4.3747987336e+000	-2.3124494541e-001
 2.7086882792e+000	 4.1431277805e+000	-4.2355042894e-001
 2.6661215798e+000	 4.1706469189e+000	-4.1675288893e-001
 2.6233231275e+000	 4.1976988659e+000	-4.1311648664e-001
 2.5803005004e+000	 4.2242809243e+000	-4.1207557297e-001
 2.5370613125e+000	 4.2503905581e+000	-4.1307317861e-001
 2.4936132094e+000	 4.2760253930e+000	-4.0770253783e-001
 2.4499638637e+000	 4.3011832170e+000	-3.5955508324e-001
 2.4061209716e+000	 4.3258619800e+000	-3.1562578911e-001
 2.3620922479e+000	 4.3500597941e+000	-2.7585824969e-001
 2.3178854225e+000	 4.3737749334e+000	-2.4020586202e-001
 2.2735082356e+000	 4.3970058338e+000	-2.5296441550e-001
 2.7223685231e+000	 4.1640526683e+000	-4.3763074837e-001
 2.6795868403e+000	 4.1917107922e+000	-4.2773705017e-001
 2.6365722342e+000	 4.2188993652e+000	-4.2017093979e-001
 2.5933323211e+000	 4.2456156764e+000	-4.1435225439e-001
 2.5498747535e+000	 4.2718571771e+000	-4.0971038767e-001
 2.5062072155e+000	 4.2976214809e+000	-4.0568562894e-001
 2.4623374186e+000	 4.3229063646e+000	-3.6079332634e-001
 2.4182730977e+000	 4.3477097678e+000	-3.1224620179e-001
 2.3740220067e+000	 4.3720297931e+000	-2.6700848741e-001
 2.3295919145e+000	 4.3958647058e+000	-2.6378569471e-001
 2.2849906004e+000	 4.4192129340e+000	-2.7387582776e-001
 2.7360487669e+000	 4.1849775561e+000	-4.5519846003e-001
 2.6930521008e+000	 4.2127746655e+000	-4.4218733609e-001
 2.6498213409e+000	 4.2400998645e+000	-4.3067692034e-001
 2.6063641418e+000	 4.2669504286e+000	-4.2007235048e-001
 2.5626881945e+000	 4.2933237960e+000	-4.0978919443e-001
 2.5188012216e+000	 4.3192175687e+000	-3.9925481032e-001
 2.4747109734e+000	 4.3446295122e+000	-3.6288572626e-001
 2.4304252238e+000	 4.3695575556e+000	-3.0960191453e-001
 2.3859517656e+000	 4.3939997920e+000	-2.9101894623e-001
 2.3412984066e+000	 4.4179544782e+000	-2.8864891292e-001
 2.2964729653e+000	 4.4414200342e+000	-2.9366497361e-001
 2.1816493170e+000	 4.2193490324e+000	-3.9041435177e-001
 2.1389091034e+000	 4.2411752908e+000	-3.9193567785e-001
 2.0960202818e+000	 4.2625343375e+000	-3.8433639690e-001
 2.0529902865e+000	 4.2834251345e+000	-3.6773642152e-001
 2.0098265468e+000	 4.3038467969e+000	-3.4227036154e-001
 1.9665364825e+000	 4.3237985918e+000	-3.0808654282e-001
 1.9231275005e+000	 4.3432799376e+000	-2.6534601186e-001
 1.8796069909e+000	 4.3622904030e+000	-2.1422152932e-001
 1.8359823234e+000	 4.3808297054e+000	-1.8105224751e-001
 1.7922608439e+000	 4.3988977105e+000	-1.8457855083e-001
 1.7484498704e+000	 4.4164944300e+000	-1.8453100503e-001
 2.1931316818e+000	 4.2415561326e+000	-3.6821983782e-001
 2.1501665198e+000	 4.2634972660e+000	-3.6502640236e-001
 2.1070519675e+000	 4.2849687287e+000	-3.5288175589e-001
 2.0637954986e+000	 4.3059694774e+000	-3.3191410810e-001
 2.0204045813e+000	 4.3264986222e+000	-3.0226636414e-001
 1.9768866745e+000	 4.3465554265e+000	-2.6409512363e-001
 1.9332492242e+000	 4.3661393057e+000	-2.1756966569e-001
 1.8894996592e+000	 4.3852498261e+000	-1.9423717712e-001
 1.8456453883e+000	 4.4038867039e+000	-1.9542678866e-001
 1.8016937957e+000	 4.4220498037e+000	-1.9494406842e-001
 1.7576522382e+000	 4.4397391376e+000	-1.9114335249e-001
 2.2046140466e+000	 4.2637632328e+000	-3.4569241863e-001
 2.1614239361e+000	 4.2858192412e+000	-3.3772125595e-001
 2.1180836532e+000	 4.3074031200e+000	-3.2096230481e-001
 2.0746007106e+000	 4.3285138202e+000	-2.9555224709e-001
 2.0309826157e+000	 4.3491504474e+000	-2.6164246339e-001
 1.9872368665e+000	 4.3693122612e+000	-2.1939801201e-001
 1.9433709479e+000	 4.3889986738e+000	-2.0982904156e-001
 1.8993923276e+000	 4.4082092493e+000	-2.1122120144e-001
 1.8553084531e+000	 4.4269437023e+000	-2.0879511784e-001
 1.8111267475e+000	 4.4452018969e+000	-2.0437349948e-001
 1.7668546059e+000	 4.4629838451e+000	-1.9688673039e-001
 2.2160964114e+000	 4.2859703329e+000	-3.2292296519e-001
 2.1726813525e+000	 4.3081412164e+000	-3.1010920703e-001
 2.1291153389e+000	 4.3298375112e+000	-2.8866511033e-001
 2.0854059226e+000	 4.3510581630e+000	-2.5873600573e-001
 2.0415606502e+000	 4.3718022727e+000	-2.2048193094e-001
 1.9975870585e+000	 4.3920690959e+000	-2.2138556195e-001
 1.9534926715e+000	 4.4118580419e+000	-2.2605533544e-001
 1.9092849960e+000	 4.4311686725e+000	-2.2596814337e-001
 1.8649715180e+000	 4.4500007008e+000	-2.2111730940e-001
 1.8205596993e+000	 4.4683539901e+000	-2.1282801431e-001
 1.7760569736e+000	 4.4862285526e+000	-2.0172344023e-001
 2.2275787763e+000	 4.3081774331e+000	-3.0000242730e-001
 2.1839387688e+000	 4.3304631916e+000	-2.8227931005e-001
 2.1401470246e+000	 4.3522719025e+000	-2.5607733160e-001
 2.0962111347e+000	 4.3736025058e+000	-2.2155064936e-001
 2.0521386846e+000	 4.3944540979e+000	-2.2992248907e-001
 2.0079372506e+000	 4.4148259306e+000	-2.3732216917e-001
 1.9636143952e+000	 4.4347174100e+000	-2.4020937004e-001
 1.9191776644e+000	 4.4541280956e+000	-2.3856261838e-001
 1.8746345829e+000	 4.4730576992e+000	-2.3235355128e-001
 1.8299926511e+000	 4.4915060834e+000	-2.2026889745e-001
 1.7852593414e+000	 4.5094732602e+000	-2.0561589757e-001
 2.2390611411e+000	 4.3303845333e+000	-2.7702183157e-001
 2.1951961851e+000	 4.3527851668e+000	-2.5432070336e-001
 2.1511787103e+000	 4.3747062937e+000	-2.2328621789e-001
 2.1070163467e+000	 4.3961468486e+000	-2.3642100985e-001
 2.0627167191e+000	 4.4171059232e+000	-2.4602107390e-001
 2.0182874426e+000	 4.4375827653e+000	-2.5134981567e-001
 1.9737361189e+000	 4.4575767781e+000	-2.5237775445e-001
 1.9290703327e+000	 4.4770875188e+000	-2.4908935119e-001
 1.8842976477e+000	 4.4961146977e+000	-2.4148211988e-001
 1.8394256029e+000	 4.5146581766e+000	-2.2665754469e-001
 1.7944617091e+000	 4.5327179677e+000	-2.0852662909e-001
 2.2505435059e+000	 4.3525916335e+000	-2.5407227948e-001
 2.2064536015e+000	 4.3751071420e+000	-2.2655876409e-001
 2.1622103960e+000	 4.3971406850e+000	-2.4182698289e-001
 2.1178215587e+000	 4.4186911914e+000	-2.5311615291e-001
 2.0732947536e+000	 4.4397577484e+000	-2.6037227853e-001
 2.0286376346e+000	 4.4603396000e+000	-2.6355709520e-001
 1.9838578426e+000	 4.4804361462e+000	-2.6264720204e-001
 1.9389630011e+000	 4.5000469420e+000	-2.5763317295e-001
 1.8939607126e+000	 4.5191716961e+000	-2.4851864919e-001
 1.8488585547e+000	 4.5378102698e+000	-2.3195546029e-001
 1.8036640769e+000	 4.5559626752e+000	-2.1041826976e-001
 2.2620258708e+000	 4.3747987336e+000	-2.3124494541e-001
 2.2177110178e+000	 4.3974291173e+000	-2.4705030536e-001
 2.1732420817e+000	 4.4195750762e+000	-2.5953550044e-001
 2.1286267708e+000	 4.4412355342e+000	-2.6822357989e-001
 2.0838727880e+000	 4.4624095737e+000	-2.7306666891e-001
 2.0389878266e+000	 4.4830964347e+000	-2.7403270026e-001
 1.9939795663e+000	 4.5032955143e+000	-2.7110452782e-001
 1.9488556695e+000	 4.5230063652e+000	-2.6427901857e-001
 1.9036237774e+000	 4.5422286946e+000	-2.5356612607e-001
 1.8582915065e+000	 4.5609623630e+000	-2.3612425421e-001
 1.8128664446e+000	 4.5792073827e+000	-2.1125356011e-001
 2.2735082356e+000	 4.3970058338e+000	-2.5296441550e-001
 2.2289684341e+000	 4.4197510925e+000	-2.6617059454e-001
 2.1842737674e+000	 4.4420094675e+000	-2.7581384704e-001
 2.1394319828e+000	 4.4637798771e+000	-2.8183581316e-001
 2.0944508225e+000	 4.4850613989e+000	-2.8419490374e-001
 2.0493380186e+000	 4.5058532694e+000	-2.8286541964e-001
 2.0041012900e+000	 4.5261548824e+000	-2.7783664587e-001
 1.9587483379e+000	 4.5459657884e+000	-2.6911192411e-001
 1.9132868423e+000	 4.5652856930e+000	-2.5670770663e-001
 1.8677244584e+000	 4.5841144562e+000	-2.3912563943e-001
 1.8220688123e+000	 4.6024520903e+000	-2.1099534354e-001
 2.2849906004e+000	 4.4192129340e+000	-2.7387582776e-001
 2.2402258505e+000	 4.4420730677e+000	-2.8401593250e-001
 2.1953054531e+000	 4.4644438587e+000	-2.9075648234e-001
 2.1502371949e+000	 4.4863242199e+000	-2.9404546129e-001
 2.1050288570e+000	 4.5077132242e+000	-2.9384773212e-001
 2.0596882107e+000	 4.5286101041e+000	-2.9014413599e-001
 2.0142230137e+000	 4.5490142505e+000	-2.8293056688e-001
 1.9686410063e+000	 4.5689252115e+000	-2.7221702418e-001
 1.9229499072e+000	 4.5883426915e+000	-2.5802664684e-001
 1.8771574102e+000	 4.6072665494e+000	-2.4039473247e-001
 1.8312711801e+000	 4.6256967978e+000	-2.0960656374e-001
 2.2964729653e+000	 4.4414200342e+000	-2.9366497361e-001
 2.2514832668e+000	 4.4643950429e+000	-3.0068269391e-001
 2.2063371388e+000	 4.4868782500e+000	-3.0445794527e-001
 2.1610424069e+000	 4.5088685627e+000	-3.0494521695e-001
 2.1156068914e+000	 4.5303650494e+000	-3.0211599130e-001
 2.0700384027e+000	 4.5513669388e+000	-2.9595782347e-001
 2.0243447374e+000	 4.5718736186e+000	-2.8647339567e-001
 1.9785336746e+000	 4.5918846347e+000	-2.7367954953e-001
 1.9326129720e+000	 4.6113996900e+000	-2.5760630006e-001
 1.8865903620e+000	 4.6304186427e+000	-2.3829583452e-001
 1.8404735478e+000	 4.6489415053e+000	-2.0705026219e-001
 1.7484498704e+000	 4.4164944300e+000	-1.8453100503e-001
 1.7045566903e+000	 4.4336200209e+000	-1.9544103551e-001
 1.6605885562e+000	 4.4502747833e+000	-2.0333177891e-001
 1.6165526831e+000	 4.4664591594e+000	-2.0788514264e-001
 1.5724562449e+000	 4.4821737314e+000	-2.0879861258e-001
 1.5283063712e+000	 4.4974192195e+000	-2.0578576786e-001
 1.4841101442e+000	 4.5121964807e+000	-1.9857675307e-001
 1.4398745957e+000	 4.5265065060e+000	-1.8691870736e-001
 1.3956067041e+000	 4.5403504190e+000	-1.7057615037e-001
 1.3513133914e+000	 4.5537294736e+000	-1.4933132457e-001
 1.3070015205e+000	 4.5666450514e+000	-1.2298449428e-001
 1.7576522382e+000	 4.4397391376e+000	-1.9114335249e-001
 1.7135280413e+000	 4.4569548631e+000	-1.9646297371e-001
 1.6693284959e+000	 4.4736972822e+000	-1.9949950445e-001
 1.6250608551e+000	 4.4899668392e+000	-1.9993337061e-001
 1.5807323304e+000	 4.5057641194e+000	-1.9746005610e-001
 1.5363500889e+000	 4.5210898470e+000	-1.9179063430e-001
 1.4919212502e+000	 4.5359448832e+000	-1.8265225706e-001
 1.4474528831e+000	 4.5503302244e+000	-1.6978860083e-001
 1.4029520026e+000	 4.5642470002e+000	-1.5296026955e-001
 1.3584255672e+000	 4.5776964708e+000	-1.3194515410e-001
 1.3138804759e+000	 4.5906800254e+000	-1.0653874834e-001
 1.7668546059e+000	 4.4629838451e+000	-1.9688673039e-001
 1.7224993923e+000	 4.4802897053e+000	-1.9688765077e-001
 1.6780684357e+000	 4.4971197811e+000	-1.9533287043e-001
 1.6335690271e+000	 4.5134745190e+000	-1.9190116220e-001
 1.5890084159e+000	 4.5293545075e+000	-1.8628584490e-001
 1.5443938066e+000	 4.5447604745e+000	-1.7819533165e-001
 1.4997323562e+000	 4.5596932857e+000	-1.6735363580e-001
 1.4550311704e+000	 4.5741539429e+000	-1.5350083412e-001
 1.4102973010e+000	 4.5881435813e+000	-1.3639348679e-001
 1.3655377429e+000	 4.6016634680e+000	-1.1580501396e-001
 1.3207594313e+000	 4.6147149993e+000	-9.1526028898e-002
 1.7760569736e+000	 4.4862285526e+000	-2.0172344023e-001
 1.7314707433e+000	 4.5036245475e+000	-1.9667530442e-001
 1.6868083755e+000	 4.5205422799e+000	-1.9079016974e-001
 1.6420771991e+000	 4.5369821988e+000	-1.8374498387e-001
 1.5972845014e+000	 4.5529448956e+000	-1.7523073694e-001
 1.5524375244e+000	 4.5684311019e+000	-1.6495302670e-001
 1.5075434623e+000	 4.5834416883e+000	-1.5263258161e-001
 1.4626094578e+000	 4.5979776614e+000	-1.3800574109e-001
 1.4176425995e+000	 4.6120401625e+000	-1.2082489271e-001
 1.3726499187e+000	 4.6256304653e+000	-1.0085886599e-001
 1.3276383866e+000	 4.6387499733e+000	-7.7893282597e-002
 1.7852593414e+000	 4.5094732602e+000	-2.0561589757e-001
 1.7404420943e+000	 4.5269593898e+000	-1.9578635206e-001
 1.6955483152e+000	 4.5439647788e+000	-1.8582993794e-001
 1.6505853711e+000	 4.5604898786e+000	-1.7542160524e-001
 1.6055605868e+000	 4.5765352836e+000	-1.6424985116e-001
 1.5604812421e+000	 4.5921017294e+000	-1.5201730247e-001
 1.5153545683e+000	 4.6071900908e+000	-1.3844125564e-001
 1.4701877451e+000	 4.6218013798e+000	-1.2325417440e-001
 1.4249878979e+000	 4.6359367437e+000	-1.0620414412e-001
 1.3797620944e+000	 4.6495974625e+000	-8.7055282934e-002
 1.3345173420e+000	 4.6627849472e+000	-6.5588109114e-002
 1.7944617091e+000	 4.5327179677e+000	-2.0852662909e-001
 1.7494134453e+000	 4.5502942320e+000	-1.9418138613e-001
 1.7042882550e+000	 4.5673872776e+000	-1.8041094709e-001
 1.6590935431e+000	 4.5839975584e+000	-1.6688809124e-001
 1.6138366723e+000	 4.6001256717e+000	-1.5329865822e-001
 1.5685249599e+000	 4.6157723569e+000	-1.3934214749e-001
 1.5231656743e+000	 4.6309384933e+000	-1.2473227585e-001
 1.4777660325e+000	 4.6456250983e+000	-1.0919749222e-001
 1.4323331963e+000	 4.6598333248e+000	-9.2481449486e-002
 1.3868742701e+000	 4.6735644597e+000	-7.4343432821e-002
 1.3413962974e+000	 4.6868199212e+000	-5.4558744430e-002
 1.8036640769e+000	 4.5559626752e+000	-2.1041826976e-001
 1.7583847963e+000	 4.5736290742e+000	-1.9182116968e-001
 1.7130281948e+000	 4.5908097765e+000	-1.7449219963e-001
 1.6676017152e+000	 4.6075052382e+000	-1.5810179465e-001
 1.6221127578e+000	 4.6237160597e+000	-1.4233297150e-001
 1.5765686776e+000	 4.6394429843e+000	-1.2688194548e-001
 1.5309767803e+000	 4.6546868958e+000	-1.1145870529e-001
 1.4853443198e+000	 4.6694488167e+000	-9.5787545327e-002
 1.4396784948e+000	 4.6837299060e+000	-7.9607554847e-002
 1.3939864459e+000	 4.6975314569e+000	-6.2673063741e-002
 1.3482752527e+000	 4.7108548951e+000	-4.4754044589e-002
 1.8128664446e+000	 4.5792073827e+000	-2.1125356011e-001
 1.7673561473e+000	 4.5969639164e+000	-1.8866663200e-001
 1.7217681346e+000	 4.6142322754e+000	-1.6803292263e-001
 1.6761098872e+000	 4.6310129180e+000	-1.4902034875e-001
 1.6303888433e+000	 4.6473064478e+000	-1.3130893842e-001
 1.5846123954e+000	 4.6631136118e+000	-1.1459146528e-001
 1.5387878863e+000	 4.6784352984e+000	-9.8574040894e-002
 1.4929226072e+000	 4.6932725352e+000	-8.2976664607e-002
 1.4470237932e+000	 4.7076264871e+000	-6.7533730202e-002
 1.4010986216e+000	 4.7214984542e+000	-5.1994489132e-002
 1.3551542081e+000	 4.7348898691e+000	-3.6123469966e-002
 1.8220688123e+000	 4.6024520903e+000	-2.1099534354e-001
 1.7763274983e+000	 4.6202987586e+000	-1.8467886445e-001
 1.7305080743e+000	 4.6376547742e+000	-1.6099256206e-001
 1.6846180592e+000	 4.6545205977e+000	-1.3960166027e-001
 1.6386649288e+000	 4.6708968359e+000	-1.2018303202e-001
 1.5926561131e+000	 4.6867842393e+000	-1.0242585117e-001
 1.5465989924e+000	 4.7021837009e+000	-8.6032202453e-002
 1.5005008945e+000	 4.7170962536e+000	-7.0717648918e-002
 1.4543690917e+000	 4.7315230682e+000	-5.6211756253e-002
 1.4082107974e+000	 4.7454654514e+000	-4.2258573511e-002
 1.3620331635e+000	 4.7589248430e+000	-2.8617070004e-002
 1.8312711801e+000	 4.6256967978e+000	-2.0960656374e-001
 1.7852988493e+000	 4.6436336008e+000	-1.7981911636e-001
 1.7392480141e+000	 4.6610772731e+000	-1.5333077729e-001
 1.6931262312e+000	 4.6780282775e+000	-1.2980390247e-001
 1.6469410143e+000	 4.6944872239e+000	-1.0891204276e-001
 1.6006998308e+000	 4.7104548668e+000	-9.0340613443e-002
 1.5544100984e+000	 4.7259321034e+000	-7.3787522026e-002
 1.5080791818e+000	 4.7409199721e+000	-5.8963753345e-002
 1.4617143901e+000	 4.7554196494e+000	-4.5593911584e-002
 1.4153229731e+000	 4.7694324486e+000	-3.3416718619e-002
 1.3689121189e+000	 4.7829598170e+000	-2.2185468411e-002
 1.8404735478e+000	 4.6489415053e+000	-2.0705026219e-001
 1.7942702003e+000	 4.6669684431e+000	-1.7404879112e-001
 1.7479879539e+000	 4.6844997719e+000	-1.4500743578e-001
 1.7016344032e+000	 4.7015359573e+000	-1.1958550854e-001
 1.6552170998e+000	 4.7180776120e+000	-9.7453070556e-002
 1.6087435486e+000	 4.7341254942e+000	-7.8291619196e-002
 1.5622212044e+000	 4.7496805060e+000	-6.1794733623e-002
 1.5156574692e+000	 4.7647436905e+000	-4.7668677791e-002
 1.4690596886e+000	 4.7793162305e+000	-3.5632960212e-002
 1.4224351489e+000	 4.7933994458e+000	-2.5420849997e-002
 1.3757910742e+000	 4.8069947909e+000	-1.6779848807e-002
 1.3070015205e+000	 4.5666450514e+000	-1.2298449428e-001
 1.2626778925e+000	 4.5790986602e+000	-8.0432552391e-002
 1.2183492440e+000	 4.5910919311e+000	-5.8080616727e-002
 1.1740222445e+000	 4.6026266164e+000	-4.2887382208e-002
 1.1297034943e+000	 4.6137045869e+000	-2.7034901452e-002
 1.0853995214e+000	 4.6243278300e+000	-1.0743699662e-002
 1.0411167802e+000	 4.6344984465e+000	 5.7669471076e-003
 9.9686164827e-001	 4.6442186484e+000	 2.2278393028e-002
 9.5264042516e-001	 4.6534907565e+000	 3.8572029129e-002
 9.0845932984e-001	 4.6623171971e+000	 5.4428716789e-002
 8.6432449896e-001	 4.6707005000e+000	 6.9628249263e-002
 1.3138804759e+000	 4.5906800254e+000	-1.0653874834e-001
 1.2693235656e+000	 4.6031991795e+000	-6.8869214129e-002
 1.2247616084e+000	 4.6152555729e+000	-4.6009626680e-002
 1.1802013090e+000	 4.6268509670e+000	-3.3416710822e-002
 1.1356493021e+000	 4.6379872426e+000	-2.0054827873e-002
 1.0911121505e+000	 4.6486663975e+000	-6.1160624454e-003
 1.0465963422e+000	 4.6588905436e+000	 8.2082156076e-003
 1.0021082885e+000	 4.6686619045e+000	 2.2726700980e-002
 9.5765432214e-001	 4.6779828131e+000	 3.7247529786e-002
 9.1324069473e-001	 4.6868557086e+000	 5.1577684853e-002
 8.6887357527e-001	 4.6952831342e+000	 6.5522430643e-002
 1.3207594313e+000	 4.6147149993e+000	-9.1526028898e-002
 1.2759692387e+000	 4.6272996988e+000	-5.8399076836e-002
 1.2311739729e+000	 4.6394192146e+000	-3.5409074116e-002
 1.1863803734e+000	 4.6510753176e+000	-2.5162385528e-002
 1.1415951100e+000	 4.6622698984e+000	-1.4039663850e-002
 1.0968247796e+000	 4.6730049650e+000	-2.2044757177e-003
 1.0520759042e+000	 4.6832826406e+000	 1.0179793273e-002
 1.0073549288e+000	 4.6931051605e+000	 2.2949256816e-002
 9.6266821912e-001	 4.7024748697e+000	 3.5938874778e-002
 9.1802205963e-001	 4.7113942202e+000	 4.8981830067e-002
 8.7342265158e-001	 4.7198657684e+000	 6.1908936717e-002
 1.3276383866e+000	 4.6387499733e+000	-7.7893282597e-002
 1.2826149119e+000	 4.6514002180e+000	-4.8976217564e-002
 1.2375863373e+000	 4.6635828564e+000	-2.6186794473e-002
 1.1925594379e+000	 4.6752996682e+000	-1.8040973797e-002
 1.1475409179e+000	 4.6865525541e+000	-8.9146879400e-003
 1.1025374086e+000	 4.6973435326e+000	 1.0570962225e-003
 1.0575554662e+000	 4.7076747377e+000	 1.1739059726e-002
 1.0126015690e+000	 4.7175484166e+000	 2.2994817994e-002
 9.6768211609e-001	 4.7269669263e+000	 3.4686237487e-002
 9.2280342452e-001	 4.7359327318e+000	 4.6672783919e-002
 8.7797172789e-001	 4.7444484026e+000	 5.8810903283e-002
 1.3345173420e+000	 4.6627849472e+000	-6.5588109114e-002
 1.2892605850e+000	 4.6755007373e+000	-4.0555240274e-002
 1.2439987017e+000	 4.6877464981e+000	-1.8251024523e-002
 1.1987385023e+000	 4.6995240188e+000	-1.1969319476e-002
 1.1534867257e+000	 4.7108352098e+000	-4.6053307658e-003
 1.1082500377e+000	 4.7216821001e+000	 3.7346606116e-003
 1.0630350282e+000	 4.7320668348e+000	 1.2943488976e-002
 1.0178482093e+000	 4.7419916726e+000	 2.2912358411e-002
 9.7269601307e-001	 4.7514589829e+000	 3.3530128946e-002
 9.2758478942e-001	 4.7604712433e+000	 4.4682635880e-002
 8.8252080420e-001	 4.7690310368e+000	 5.6252043525e-002
 1.3413962974e+000	 4.6868199212e+000	-5.4558744430e-002
 1.2959062581e+000	 4.6996012565e+000	-3.3091262331e-002
 1.2504110662e+000	 4.7119101398e+000	-1.1667675736e-002
 1.2049175668e+000	 4.7237483694e+000	-6.8645356996e-003
 1.1594325336e+000	 4.7351178655e+000	-1.0371711196e-003
 1.1139626667e+000	 4.7460206676e+000	 5.8941969504e-003
 1.0685145902e+000	 4.7564589319e+000	 1.3850646996e-002
 1.0230948496e+000	 4.7664349286e+000	 2.2751062857e-002
 9.7770991005e-001	 4.7759510395e+000	 3.2511389188e-002
 9.3236615432e-001	 4.7850097549e+000	 4.3043921663e-002
 8.8706988052e-001	 4.7936136710e+000	 5.4256633207e-002
 1.3482752527e+000	 4.7108548951e+000	-4.4754044589e-002
 1.3025519312e+000	 4.7237017758e+000	-2.6539901403e-002
 1.2568234306e+000	 4.7360737816e+000	-8.2254356169e-003
 1.2110966312e+000	 4.7479727200e+000	-2.6439980216e-003
 1.1653783415e+000	 4.7594005212e+000	 1.8640678170e-003
 1.1196752958e+000	 4.7703592351e+000	 7.6016577120e-003
 1.0739941522e+000	 4.7808510290e+000	 1.4518189382e-002
 1.0283414898e+000	 4.7908781847e+000	 2.2560321632e-002
 9.8272380703e-001	 4.8004430961e+000	 3.1671178848e-002
 9.3714751922e-001	 4.8095482664e+000	 4.1789611839e-002
 8.9161895683e-001	 4.8181963052e+000	 5.2849496321e-002
 1.3551542081e+000	 4.7348898691e+000	-3.6123469966e-002
 1.3091976043e+000	 4.7478022951e+000	-2.0857262767e-002
 1.2632357951e+000	 4.7602374233e+000	-5.3461014448e-003
 1.2172756957e+000	 4.7721970706e+000	 7.7466224500e-004
 1.1713241493e+000	 4.7836831769e+000	 4.1725221384e-003
 1.1253879249e+000	 4.7946978026e+000	 8.9229690276e-003
 1.0794737142e+000	 4.8052431260e+000	 1.5003859075e-002
 1.0335881301e+000	 4.8153214407e+000	 2.2389725334e-002
 9.8773770401e-001	 4.8249351527e+000	 3.1050971031e-002
 9.4192888412e-001	 4.8340867780e+000	 4.0953100797e-002
 8.9616803315e-001	 4.8427789394e+000	 5.2055991176e-002
 1.3620331635e+000	 4.7589248430e+000	-2.8617070004e-002
 1.3158432775e+000	 4.7719028143e+000	-1.5999926989e-002
 1.2696481595e+000	 4.7844010650e+000	-2.9927450742e-003
 1.2234547601e+000	 4.7964214212e+000	 3.4735644873e-003
 1.1772699572e+000	 4.8079658326e+000	 5.9621907683e-003
 1.1311005539e+000	 4.8190363702e+000	 9.9240313517e-003
 1.0849532762e+000	 4.8296352231e+000	 1.5365484155e-002
 1.0388347703e+000	 4.8397646967e+000	 2.2289059797e-002
 9.9275160099e-001	 4.8494272093e+000	 3.0692543416e-002
 9.4671024902e-001	 4.8586252895e+000	 4.0568196043e-002
 9.0071710947e-001	 4.8673615736e+000	 5.1901996902e-002
 1.3689121189e+000	 4.7829598170e+000	-2.2185468411e-002
 1.3224889506e+000	 4.7960033336e+000	-1.1924937989e-002
 1.2760605240e+000	 4.8085647068e+000	-1.1287912858e-003
 1.2296338246e+000	 4.8206457718e+000	 5.5345850558e-003
 1.1832157651e+000	 4.8322484884e+000	 7.3069389062e-003
 1.1368131830e+000	 4.8433749377e+000	 1.0670720107e-002
 1.0904328382e+000	 4.8540273202e+000	 1.5660975702e-002
 1.0440814106e+000	 4.8642079528e+000	 2.2308301187e-002
 9.9776549797e-001	 4.8739192659e+000	 3.0637970606e-002
 9.5149161392e-001	 4.8831638011e+000	 4.0669107822e-002
 9.0526618578e-001	 4.8919442078e+000	 5.2413900363e-002
 1.3757910742e+000	 4.8069947909e+000	-1.6779848807e-002
 1.3291346237e+000	 4.8201038528e+000	-8.5897914531e-003
 1.2824728884e+000	 4.8327283485e+000	 2.8199103661e-004
 1.2358128890e+000	 4.8448701224e+000	 7.0393633406e-003
 1.1891615729e+000	 4.8565311441e+000	 8.2805013705e-003
 1.1425258121e+000	 4.8677135052e+000	 1.1228886312e-002
 1.0959124002e+000	 4.8784194173e+000	 1.5948325722e-002
 1.0493280509e+000	 4.8886512088e+000	 2.2497611244e-002
 1.0027793950e+000	 4.8984113225e+000	 3.0929616706e-002
 9.5627297882e-001	 4.9077023127e+000	 4.1290439048e-002
 9.0981526210e-001	 4.9165268420e+000	 5.3618583469e-002
 8.6432449896e-001	 4.6707005000e+000	 6.9628249263e-002
 8.2024198506e-001	 4.6786432954e+000	 7.1170851205e-002
 7.7621775480e-001	 4.6861483115e+000	 7.4876580353e-002
 7.3225768736e-001	 4.6932183711e+000	 8.0694559564e-002
 6.8836757286e-001	 4.6998563898e+000	 8.8564963822e-002
 6.4455311094e-001	 4.7060653722e+000	 9.8418591870e-002
 6.0081990940e-001	 4.7118484097e+000	 1.0619643417e-001
 5.5717348293e-001	 4.7172086778e+000	 1.1097719899e-001
 5.1361925192e-001	 4.7221494326e+000	 1.1561195024e-001
 4.7016254140e-001	 4.7266740087e+000	 1.2019540001e-001
 4.2680858003e-001	 4.7307858159e+000	 1.2478576489e-001
 8.6887357527e-001	 4.6952831342e+000	 6.5522430643e-002
 8.2455904814e-001	 4.7032677338e+000	 6.9662442766e-002
 7.8030311141e-001	 4.7108122499e+000	 7.5704238091e-002
 7.3611167519e-001	 4.7179195205e+000	 8.3598446202e-002
 6.9199056008e-001	 4.7245924760e+000	 9.3286899903e-002
 6.4794549573e-001	 4.7308341373e+000	 1.0470219072e-001
 6.0398211945e-001	 4.7366476119e+000	 1.1348530079e-001
 5.6010597494e-001	 4.7420360919e+000	 1.1781964147e-001
 5.1632251113e-001	 4.7470028507e+000	 1.2198575907e-001
 4.7263708109e-001	 4.7515512403e+000	 1.2607121434e-001
 4.2905494097e-001	 4.7556846886e+000	 1.3012678817e-001
 8.7342265158e-001	 4.7198657684e+000	 6.1908936717e-002
 8.2887611122e-001	 4.7278921722e+000	 6.8328606885e-002
 7.8438846801e-001	 4.7354761884e+000	 7.6394189578e-002
 7.3996566301e-001	 4.7426206698e+000	 8.6058053604e-002
 6.9561354731e-001	 4.7493285623e+000	 9.7263914487e-002
 6.5133788053e-001	 4.7556029024e+000	 1.0994637367e-001
 6.0714432950e-001	 4.7614468140e+000	 1.1978322435e-001
 5.6303846695e-001	 4.7668635060e+000	 1.2357706012e-001
 5.1902577035e-001	 4.7718562687e+000	 1.2719243692e-001
 4.7511162077e-001	 4.7764284720e+000	 1.3070968642e-001
 4.3130130191e-001	 4.7805835613e+000	 1.3417206502e-001
 8.7797172789e-001	 4.7444484026e+000	 5.8810903283e-002
 8.3319317430e-001	 4.7525166106e+000	 6.7192626429e-002
 7.8847382461e-001	 4.7601401269e+000	 7.6969802096e-002
 7.4381965084e-001	 4.7673218191e+000	 8.8096772136e-002
 6.9923653453e-001	 4.7740646486e+000	 1.0051936104e-001
 6.5473026532e-001	 4.7803716675e+000	 1.1417439865e-001
 6.1030653954e-001	 4.7862460162e+000	 1.2506595117e-001
 5.6597095897e-001	 4.7916909201e+000	 1.2822816022e-001
 5.2172902957e-001	 4.7967096868e+000	 1.3121363612e-001
 4.7758616046e-001	 4.8013057036e+000	 1.3409540277e-001
 4.3354766286e-001	 4.8054824340e+000	 1.3690910218e-001
 8.8252080420e-001	 4.7690310368e+000	 5.6252043525e-002
 8.3751023738e-001	 4.7771410490e+000	 6.6278302914e-002
 7.9255918122e-001	 4.7848040654e+000	 7.7454904235e-002
 7.4767363867e-001	 4.7920229684e+000	 8.9738397546e-002
 7.0285952176e-001	 4.7988007348e+000	 1.0307694389e-001
 6.5812265011e-001	 4.8051404326e+000	 1.1740982136e-001
 6.1346874959e-001	 4.8110452184e+000	 1.2930947365e-001
 5.6890345098e-001	 4.8165183342e+000	 1.3175184293e-001
 5.2443228879e-001	 4.8215631049e+000	 1.3403115618e-001
 4.8006070016e-001	 4.8261829352e+000	 1.3621304972e-001
 4.3579402381e-001	 4.8303813068e+000	 1.3832546034e-001
 8.8706988052e-001	 4.7936136710e+000	 5.4256633207e-002
 8.4182730046e-001	 4.8017654874e+000	 6.5609943212e-002
 7.9664453783e-001	 4.8094680039e+000	 7.7873774073e-002
 7.5152762650e-001	 4.8167241177e+000	 9.1007120569e-002
 7.0648250899e-001	 4.8235368211e+000	 1.0496070926e-001
 6.6151503491e-001	 4.8299091977e+000	 1.1967648767e-001
 6.1663095964e-001	 4.8358444205e+000	 1.3249002406e-001
 5.7183594300e-001	 4.8413457483e+000	 1.3412720032e-001
 5.2713554801e-001	 4.8464165229e+000	 1.3562693997e-001
 4.8253523985e-001	 4.8510601668e+000	 1.3704741092e-001
 4.3804038475e-001	 4.8552801795e+000	 1.3840875284e-001
 8.9161895683e-001	 4.8181963052e+000	 5.2849496321e-002
 8.4614436354e-001	 4.8263899258e+000	 6.5212346654e-002
 8.0072989444e-001	 4.8341319423e+000	 7.8251127704e-002
 7.5538161434e-001	 4.8414252671e+000	 9.1927516851e-002
 7.1010549622e-001	 4.8482729073e+000	 1.0619503649e-001
 6.6490741971e-001	 4.8546779629e+000	 1.2099852616e-001
 6.1979316970e-001	 4.8606436227e+000	 1.3458406832e-001
 5.7476843502e-001	 4.8661731623e+000	 1.3533351049e-001
 5.2983880724e-001	 4.8712699410e+000	 1.3598307007e-001
 4.8500977954e-001	 4.8759373984e+000	 1.3658336479e-001
 4.4028674570e-001	 4.8801790522e+000	 1.3714664426e-001
 8.9616803315e-001	 4.8427789394e+000	 5.2055991176e-002
 8.5046142663e-001	 4.8510143642e+000	 6.5110792531e-002
 8.0481525105e-001	 4.8587958808e+000	 7.8612108125e-002
 7.5923560217e-001	 4.8661264164e+000	 9.2524537183e-002
 7.1372848345e-001	 4.8730089936e+000	 1.0680462964e-001
 6.6829980451e-001	 4.8794467280e+000	 1.2140034102e-001
 6.2295537975e-001	 4.8854428248e+000	 1.3556830015e-001
 5.7770092704e-001	 4.8910005764e+000	 1.3535023284e-001
 5.3254206646e-001	 4.8961233591e+000	 1.3508176527e-001
 4.8748431924e-001	 4.9008146301e+000	 1.3480588216e-001
 4.4253310665e-001	 4.9050779249e+000	 1.3452684915e-001
 9.0071710947e-001	 4.8673615736e+000	 5.1901996902e-002
 8.5477848971e-001	 4.8756388026e+000	 6.5331027978e-002
 8.0890060766e-001	 4.8834598193e+000	 7.8982274451e-002
 7.6308959000e-001	 4.8908275657e+000	 9.2823498022e-002
 7.1735147068e-001	 4.8977450799e+000	 1.0681450925e-001
 6.7169218931e-001	 4.9042154931e+000	 1.2090660502e-001
 6.2611758981e-001	 4.9102420270e+000	 1.3504205093e-001
 5.8063341906e-001	 4.9158279905e+000	 1.3415700348e-001
 5.3524532569e-001	 4.9209767771e+000	 1.3290537707e-001
 4.8995885893e-001	 4.9256918617e+000	 1.3170002393e-001
 4.4477946760e-001	 4.9299767976e+000	 1.3053713075e-001
 9.0526618578e-001	 4.8919442078e+000	 5.2413900363e-002
 8.5909555280e-001	 4.9002632410e+000	 6.5899256216e-002
 8.1298596427e-001	 4.9081237578e+000	 7.9387591464e-002
 7.6694357784e-001	 4.9155287150e+000	 9.2850072307e-002
 7.2097445791e-001	 4.9224811661e+000	 1.0625000442e-001
 6.7508457411e-001	 4.9289842582e+000	 1.1954225279e-001
 6.2927979986e-001	 4.9350412291e+000	 1.3267270711e-001
 5.8356591108e-001	 4.9406554046e+000	 1.3173363083e-001
 5.3794858491e-001	 4.9458301952e+000	 1.2943638638e-001
 4.9243339863e-001	 4.9505690933e+000	 1.2725093879e-001
 4.4702582855e-001	 4.9548756703e+000	 1.2516529982e-001
 9.0981526210e-001	 4.9165268420e+000	 5.3618583469e-002
 8.6341261589e-001	 4.9248876794e+000	 6.6842125151e-002
 8.1707132088e-001	 4.9327876962e+000	 7.9854419470e-002
 7.7079756568e-001	 4.9402298643e+000	 9.2630280547e-002
 7.2459744515e-001	 4.9472172524e+000	 1.0513674507e-001
 6.7847695892e-001	 4.9537530233e+000	 1.1733247429e-001
 6.3244200992e-001	 4.9598404313e+000	 1.2916720224e-001
 5.8649840310e-001	 4.9654828187e+000	 1.2806009125e-001
 5.4065184414e-001	 4.9706836133e+000	 1.2465740029e-001
 4.9490793833e-001	 4.9754463249e+000	 1.2144386105e-001
 4.4927218951e-001	 4.9797745430e+000	 1.1839921337e-001
 4.2680858003e-001	 4.7307858159e+000	 1.2478576489e-001
 3.8356249917e-001	 4.7344883366e+000	 1.3275954838e-001
 3.4042933210e-001	 4.7377851228e+000	 1.4101651951e-001
 2.9741401323e-001	 4.7406797935e+000	 1.4942738404e-001
 2.5452137749e-001	 4.7431760318e+000	 1.5783282300e-001
 2.1175615972e-001	 4.7452775818e+000	 1.6604483224e-001
 1.6912299422e-001	 4.7469882465e+000	 1.7384807786e-001
 1.2662641428e-001	 4.7483118844e+000	 1.8100126419e-001
 8.4270851934e-002	 4.7492524068e+000	 1.8723851058e-001
 4.2060637605e-002	 4.7498137756e+000	 1.9227073385e-001
 0.0000000000e+000	 4.7500000000e+000	 1.9578703301e-001
 4.2905494097e-001	 4.7556846886e+000	 1.3012678817e-001
 3.8558124916e-001	 4.7594066962e+000	 1.3597445193e-001
 3.4222106542e-001	 4.7627208340e+000	 1.4216744851e-001
 2.9897935014e-001	 4.7656307398e+000	 1.4858090652e-001
 2.5586096368e-001	 4.7681401161e+000	 1.5505937027e-001
 2.1287066582e-001	 4.7702527270e+000	 1.6141815551e-001
 1.7001311524e-001	 4.7719723952e+000	 1.6744472155e-001
 1.2729286910e-001	 4.7733029995e+000	 1.7290005624e-001
 8.4714382733e-002	 4.7742484721e+000	 1.7752007026e-001
 4.2282009382e-002	 4.7748127955e+000	 1.8101699734e-001
 0.0000000000e+000	 4.7750000000e+000	 1.8308079696e-001
 4.3130130191e-001	 4.7805835613e+000	 1.3417206502e-001
 3.8759999915e-001	 4.7843250559e+000	 1.3814233512e-001
 3.4401279874e-001	 4.7876565451e+000	 1.4252959836e-001
 3.0054468705e-001	 4.7905816861e+000	 1.4721319342e-001
 2.5720054988e-001	 4.7931042005e+000	 1.5204130819e-001
 2.1398517192e-001	 4.7952278722e+000	 1.5683235209e-001
 1.7090323626e-001	 4.7969565439e+000	 1.6137634524e-001
 1.2795932391e-001	 4.7982941147e+000	 1.6543632093e-001
 8.5157913532e-002	 4.7992445374e+000	 1.6874973780e-001
 4.2503381158e-002	 4.7998118153e+000	 1.7102989814e-001
 0.0000000000e+000	 4.8000000000e+000	 1.7196736909e-001
 4.3354766286e-001	 4.8054824340e+000	 1.3690910218e-001
 3.8961874915e-001	 4.8092434156e+000	 1.3924901783e-001
 3.4580453207e-001	 4.8125922563e+000	 1.4208711842e-001
 3.0211002396e-001	 4.8155326324e+000	 1.4530674034e-001
 2.5854013607e-001	 4.8180682849e+000	 1.4875949570e-001
 2.1509967803e-001	 4.8202030174e+000	 1.5226666163e-001
 1.7179335728e-001	 4.8219406925e+000	 1.5562058697e-001
 1.2862577872e-001	 4.8232852299e+000	 1.5858611261e-001
 8.5601444331e-002	 4.8242406027e+000	 1.6090200192e-001
 4.2724752935e-002	 4.8248108352e+000	 1.6228237762e-001
 0.0000000000e+000	 4.8250000000e+000	 1.6241816179e-001
 4.3579402381e-001	 4.8303813068e+000	 1.3832546034e-001
 3.9163749914e-001	 4.8341617752e+000	 1.3928042421e-001
 3.4759626540e-001	 4.8375279675e+000	 1.4082431347e-001
 3.0367536087e-001	 4.8404835786e+000	 1.4284425015e-001
 2.5987972227e-001	 4.8430323693e+000	 1.4519505156e-001
 2.1621418413e-001	 4.8451781625e+000	 1.4770063691e-001
 1.7268347830e-001	 4.8469248412e+000	 1.5015545191e-001
 1.2929223353e-001	 4.8482763451e+000	 1.5232590739e-001
 8.6044975130e-002	 4.8492366680e+000	 1.5395182842e-001
 4.2946124712e-002	 4.8498098551e+000	 1.5474791012e-001
 0.0000000000e+000	 4.8500000000e+000	 1.5440517695e-001
 4.3804038475e-001	 4.8552801795e+000	 1.3840875284e-001
 3.9365624914e-001	 4.8590801349e+000	 1.3822258007e-001
 3.4938799872e-001	 4.8624636787e+000	 1.3872563963e-001
 3.0524069778e-001	 4.8654345249e+000	 1.3980862759e-001
 2.6121930847e-001	 4.8679964537e+000	 1.4132934769e-001
 2.1732869023e-001	 4.8701533077e+000	 1.4311413584e-001
 1.7357359932e-001	 4.8719089899e+000	 1.4495930296e-001
 1.2995868834e-001	 4.8732674603e+000	 1.4663259238e-001
 8.6488505929e-002	 4.8742327333e+000	 1.4787464796e-001
 4.3167496488e-002	 4.8748088749e+000	 1.4840048932e-001
 0.0000000000e+000	 4.8750000000e+000	 1.4790099072e-001
 4.4028674570e-001	 4.8801790522e+000	 1.3714664426e-001
 3.9567499914e-001	 4.8839984946e+000	 1.3606161018e-001
 3.5117973205e-001	 4.8873993898e+000	 1.3577570059e-001
 3.0680603469e-001	 4.8903854712e+000	 1.3618297420e-001
 2.6255889466e-001	 4.8929605380e+000	 1.3714400273e-001
 2.1844319634e-001	 4.8951284529e+000	 1.3848731363e-001
 1.7446372034e-001	 4.8968931385e+000	 1.4001085162e-001
 1.3062514315e-001	 4.8982585754e+000	 1.4148345518e-001
 8.6932036728e-002	 4.8992287986e+000	 1.4264634417e-001
 4.3388868265e-002	 4.8998078948e+000	 1.4321461490e-001
 0.0000000000e+000	 4.9000000000e+000	 1.4287873895e-001
 4.4253310665e-001	 4.9050779249e+000	 1.3452684915e-001
 3.9769374913e-001	 4.9089168542e+000	 1.3278373585e-001
 3.5297146538e-001	 4.9123351010e+000	 1.3195924379e-001
 3.0837137160e-001	 4.9153364175e+000	 1.3195058326e-001
 2.6389848086e-001	 4.9179246224e+000	 1.3262087576e-001
 2.1955770244e-001	 4.9201035980e+000	 1.3380061531e-001
 1.7535384136e-001	 4.9218772872e+000	 1.3528914914e-001
 1.3129159796e-001	 4.9232496906e+000	 1.3685617370e-001
 8.7375567527e-002	 4.9242248639e+000	 1.3824324220e-001
 4.3610240041e-002	 4.9248069147e+000	 1.3916527980e-001
 0.0000000000e+000	 4.9250000000e+000	 1.3931210296e-001
 4.4477946760e-001	 4.9299767976e+000	 1.3053713075e-001
 3.9971249913e-001	 4.9338352139e+000	 1.2837527244e-001
 3.5476319871e-001	 4.9372708122e+000	 1.2726115683e-001
 3.0993670852e-001	 4.9402873638e+000	 1.2709493501e-001
 2.6523806706e-001	 4.9428887068e+000	 1.2774206024e-001
 2.2067220854e-001	 4.9450787432e+000	 1.2903476835e-001
 1.7624396239e-001	 4.9468614359e+000	 1.3077357794e-001
 1.3195805278e-001	 4.9482408058e+000	 1.3272880636e-001
 8.7819098327e-002	 4.9492209292e+000	 1.3464209752e-001
 4.3831611818e-002	 4.9498059346e+000	 1.3622795769e-001
 0.0000000000e+000	 4.9500000000e+000	 1.3717529573e-001
 4.4702582855e-001	 4.9548756703e+000	 1.2516529982e-001
 4.0173124913e-001	 4.9587535736e+000	 1.2282262704e-001
 3.5655493203e-001	 4.9622065233e+000	 1.2166646396e-001
 3.1150204543e-001	 4.9652383101e+000	 1.2159969191e-001
 2.6657765326e-001	 4.9678527912e+000	 1.2248987811e-001
 2.2178671465e-001	 4.9700538884e+000	 1.2417077558e-001
 1.7713408341e-001	 4.9718455845e+000	 1.2644384330e-001
 1.3262450759e-001	 4.9732319210e+000	 1.2907978248e-001
 8.8262629126e-002	 4.9742169945e+000	 1.3182008513e-001
 4.4052983595e-002	 4.9748049544e+000	 1.3437859093e-001
 0.0000000000e+000	 4.9750000000e+000	 1.3644304861e-001
 4.4927218951e-001	 4.9797745430e+000	 1.1839921337e-001
 4.0374999913e-001	 4.9836719332e+000	 1.1611229612e-001
 3.5834666536e-001	 4.9871422345e+000	 1.1516032263e-001
 3.1306738234e-001	 4.9901892563e+000	 1.1544869408e-001
 2.6791723945e-001	 4.9928168755e+000	 1.1684687407e-001
 2.2290122075e-001	 4.9950290335e+000	 1.1918990833e-001
 1.7802420443e-001	 4.9968297332e+000	 1.2227996526e-001
 1.3329096240e-001	 4.9982230362e+000	 1.2588789299e-001
 8.8706159925e-002	 4.9992130598e+000	 1.2975478910e-001
 4.4274355371e-002	 4.9998039743e+000	 1.3359357884e-001
 0.0000000000e+000	 5.0000000000e+000	 1.3709059831e-001
