label=Stress xy
num_items=1152

0:-2.4961462599242961e-02
1:4.5097126005503294e-02
2:5.7534264387896807e-02
3:-1.3692330801125993e-01
4:-5.4835029309507788e-02
5:6.6754939303383944e-04
6:-1.3331051524009452e-01
7:-8.6026146021739261e-02
8:-3.4291726579453174e-02
9:3.6833264668051140e-02
10:5.2390329651336677e-03
11:-3.4469148585665899e-03
12:8.6666319870131337e-03
13:3.0414938047196305e-03
14:5.5150182329751383e-03
15:-1.2666871507304561e-02
16:2.7079431834117376e-03
17:1.1371799216008460e-02
18:-9.9693504591760000e-05
19:3.0659210114392854e-03
20:2.7678522223221068e-03
21:7.1286173446246815e-03
22:4.8206857615050048e-03
23:2.2774892944525836e-03
24:1.0458322586619216e-02
25:4.9192892106375702e-03
26:2.3734093719353535e-03
27:1.4692256911780222e-03
28:1.9610046234772588e-04
29:-6.1176427412179581e-05
30:1.3942946080949120e-03
31:1.2486273311421627e-03
32:1.4040684160651780e-03
33:2.3457326562493059e-03
34:2.5974313319395742e-03
35:2.4354983923100437e-03
36:1.0488500158934306e-04
37:2.0297854802619098e-04
38:1.8623848207505132e-04
39:1.3592367522478035e-03
40:9.1940619414762831e-04
41:5.7878408440405367e-04
42:2.0584230009337207e-03
43:1.3937398917269618e-03
44:1.0423072916160342e-03
45:1.6194638105097433e-04
46:1.5777835161993054e-04
47:1.3571207246938045e-04
48:4.9730942827861692e-04
49:4.8698804417798733e-04
50:4.6594974574755557e-04
51:9.6807680697298714e-04
52:8.5993242417332666e-04
53:7.4825246245274616e-04
54:1.0482316515326462e-04
55:5.5451453586460229e-05
56:4.1956289103415215e-05
57:4.2110459048335790e-04
58:3.1652970256870511e-04
59:2.4538497832138242e-04
60:6.7339460790811156e-04
61:5.5010832636573413e-04
62:4.5780582507442164e-04
63:4.8358401668741487e-05
64:4.3507939542775098e-05
65:1.2029599055104240e-05
66:2.1126595029953780e-04
67:1.3532073465611394e-04
68:4.6577468094383341e-05
69:3.9222414824343629e-04
70:2.3982182793012114e-04
71:8.8451284149921688e-05
72:-8.0978395913825746e-02
73:-6.5349441583467713e-02
74:-3.7302467046775846e-02
75:-1.0982386708446559e-02
76:-2.4269687946405979e-02
77:-2.8792856705114847e-02
78:1.0017312403671522e-02
79:-9.2079177370869760e-03
80:-2.3322903125672499e-02
81:-1.9434536473411732e-02
82:-3.9161860800104674e-04
83:8.8955568377735647e-03
84:-2.3462068132822162e-02
85:-9.7687261565490725e-03
86:-1.4848793741032093e-03
87:-2.3915990200513708e-02
88:-1.5824116021575955e-02
89:-8.7954898106539347e-03
90:7.9008456921174676e-03
91:3.6186327739895605e-03
92:2.6299653012282430e-03
93:-7.3489507539319167e-05
94:6.9308977957452346e-04
95:2.5570903816500676e-03
96:-5.5263901686131503e-03
97:-1.3436686867123178e-03
98:1.7403499797423196e-03
99:3.0282726069741257e-03
100:2.9400680065780624e-03
101:2.3566213550852157e-03
102:3.0954972760189664e-03
103:2.3339983630733525e-03
104:1.5115437932336135e-03
105:2.1334972024073962e-03
106:1.3507192654194750e-03
107:9.4127206573706656e-04
108:1.8983875344379274e-03
109:1.4296820673637336e-03
110:1.2752881316042534e-03
111:1.2560575131685334e-03
112:1.3069595893692248e-03
113:1.4617773301629853e-03
114:9.9863849610486188e-04
115:1.2955083264267252e-03
116:1.4858979546222900e-03
117:1.2279918016748380e-03
118:1.0243094145424671e-03
119:8.3200483334072760e-04
120:1.4284098489283244e-03
121:1.1276381275871353e-03
122:8.8231259963095243e-04
123:1.4202953667583425e-03
124:1.1374320522742974e-03
125:9.5408331864063232e-04
126:7.4160912119822513e-04
127:6.3308025675028114e-04
128:5.5112781728027243e-04
129:7.9466464579074493e-04
130:7.1195589105619466e-04
131:6.4312410501749580e-04
132:8.9360829787496910e-04
133:8.0565882149700552e-04
134:7.1888685753725872e-04
135:4.7470437852491557e-04
136:2.8024323080661975e-04
137:9.1002759749910994e-05
138:5.5529448648120570e-04
139:3.1707780232353614e-04
140:8.4647087805057243e-05
141:6.2001671113758722e-04
142:3.7036188166461419e-04
143:1.2705831480616181e-04
144:2.2521082986144639e-03
145:-1.0527847671483513e-02
146:-1.9895850771583051e-02
147:-7.4309465528147383e-03
148:-1.0645580524969224e-02
149:-1.2630539811622569e-02
150:-7.2383255724349452e-03
151:-6.6030638888533444e-03
152:-6.9204057042748825e-03
153:-2.0535259798299940e-02
154:-1.5382087843466792e-02
155:-9.9424719644249458e-03
156:-1.2603883205804169e-02
157:-1.0947713653695852e-02
158:-8.7131424543101313e-03
159:-7.5131730170652543e-03
160:-8.0561536638388467e-03
161:-7.7287749402627504e-03
162:-6.7302336993830935e-03
163:-2.3111460249343649e-03
164:5.6614146700418981e-04
165:-6.9051629165033804e-03
166:-3.8605187444460815e-03
167:-1.6842510368009409e-03
168:-6.8682439924662164e-03
169:-4.9260712938710999e-03
170:-3.1788513415860536e-03
171:9.5015794577921469e-04
172:6.4737424593350938e-04
173:7.4677139566675589e-04
174:-1.0298094952459723e-03
175:-3.5328709583591541e-04
176:3.9027292954415383e-04
177:-2.2968284444510535e-03
178:-1.0602040177314183e-03
179:-9.1685188657721282e-05
180:9.4726033581307722e-04
181:1.1889332052461420e-03
182:1.2938093096781769e-03
183:6.4915879339907175e-04
184:7.3224370847470798e-04
185:7.8474510942426511e-04
186:1.4888604141974677e-04
187:2.2896844556265659e-04
188:3.8468058645073713e-04
189:1.2290742282882066e-03
190:1.0494912041199090e-03
191:9.6201193200477308e-04
192:7.9863126743973491e-04
193:8.2815876077933933e-04
194:8.8025436729152686e-04
195:4.9826669412981214e-04
196:6.5375607384090813e-04
197:7.6227792784913163e-04
198:9.2237198035866378e-04
199:8.1502052158426207e-04
200:7.0897712291394493e-04
201:8.6067236136925162e-04
202:7.3604709994846160e-04
203:6.2587798093688017e-04
204:7.4942727242153530e-04
205:6.4488010596853811e-04
206:5.6793716424042033e-04
207:6.0873398984422978e-04
208:3.7186662886710487e-04
209:1.3874565362896547e-04
210:5.3755989513678745e-04
211:3.3116837718151260e-04
212:1.1900631432734260e-04
213:5.0058956191107807e-04
214:3.1840655557140922e-04
215:1.2093607368495847e-04
216:-3.5785907293375834e-03
217:-3.9188699085272146e-03
218:-5.5279633509592307e-03
219:2.8915242174256696e-04
220:-2.5050235737213026e-03
221:-5.4723913061629345e-03
222:8.3920068028777513e-04
223:-2.7680516736796625e-03
224:-5.4528732383660331e-03
225:-6.5798400002655393e-03
226:-7.2429075528278805e-03
227:-7.0948356510858301e-03
228:-6.4036899234442739e-03
229:-6.3211613147116930e-03
230:-5.9229597231184369e-03
231:-5.8776904009696261e-03
232:-5.3642321901590994e-03
233:-5.0305674679310538e-03
234:-6.4668651827436679e-03
235:-4.9752607829261818e-03
236:-3.4755242296716374e-03
237:-5.4717670619042610e-03
238:-4.5021664895796799e-03
239:-3.4999579150102452e-03
240:-4.8028833652981971e-03
241:-4.2012098994731514e-03
242:-3.5424525826009720e-03
243:-2.6181085849172714e-03
244:-1.3867042561094814e-03
245:-4.8080335494446821e-04
246:-2.8869025737037314e-03
247:-1.9244999835279566e-03
248:-1.1497047622221824e-03
249:-3.1115912418644099e-03
250:-2.3586331291265703e-03
251:-1.6553863264841470e-03
252:-2.4014484115874080e-04
253:-5.5809942974808434e-05
254:2.1079217432482246e-04
255:-8.4499881827976601e-04
256:-4.5230809397986009e-04
257:-6.0753748511867003e-05
258:-1.2929602464878782e-03
259:-7.7321465077564132e-04
260:-3.3800903185118782e-04
261:3.6251487086964211e-04
262:5.2661472385898080e-04
263:6.3248264341342613e-04
264:9.9549047920575689e-05
265:2.4191674189843906e-04
266:3.5687809795518463e-04
267:-1.8333188452772671e-04
268:-3.0213333006033288e-05
269:1.2632447610895253e-04
270:6.2862785734942462e-04
271:5.6284626829431513e-04
272:5.2145629352820695e-04
273:3.8779155524952834e-04
274:3.9688606179177698e-04
275:4.0618399129398864e-04
276:1.9507835649216096e-04
277:2.5712346212392794e-04
278:2.9518379939667838e-04
279:4.6659848926907581e-04
280:2.9352199625615037e-04
281:1.0463852448137205e-04
282:3.6656013519097597e-04
283:2.1575125072221185e-04
284:5.6867049659710720e-05
285:2.6943392981181144e-04
286:1.5814465353799532e-04
287:4.6511722833792539e-05
288:2.4471735642179920e-05
289:-2.9668907513755172e-03
290:-4.9040017710678873e-03
291:-6.8974432706469179e-04
292:-2.1895862054300149e-03
293:-3.2777984802839183e-03
294:-6.3853713641045769e-04
295:-1.2338649550019121e-03
296:-2.0601850339051040e-03
297:-5.1242148893295356e-03
298:-4.7853049642096737e-03
299:-4.6956976624844141e-03
300:-3.6122006311363635e-03
301:-3.9341545979277841e-03
302:-4.2488122796439992e-03
303:-2.6044049545104054e-03
304:-3.3288436232693499e-03
305:-3.7893870984885428e-03
306:-4.5744365240005516e-03
307:-4.0532110550886595e-03
308:-3.4805589877925352e-03
309:-4.2007629517844926e-03
310:-3.7208464298656594e-03
311:-3.2334202600297485e-03
312:-3.7543840389692102e-03
313:-3.3673972688714579e-03
314:-3.0168178013249580e-03
315:-3.1100709119832285e-03
316:-2.4492219689437474e-03
317:-1.7984155952899402e-03
318:-2.9328208673716667e-03
319:-2.3995861392054987e-03
320:-1.8779687420509633e-03
321:-2.7930510187783569e-03
322:-2.3596724478138144e-03
323:-1.9394859694895606e-03
324:-1.4415009040017661e-03
325:-9.2279379044719098e-04
326:-5.0246560973747872e-04
327:-1.5860779241028695e-03
328:-1.1374807447666582e-03
329:-7.5141635757587308e-04
330:-1.7009197440240262e-03
331:-1.3099860752921343e-03
332:-9.4573905801339673e-04
333:-3.4719088446758830e-04
334:-1.6641063325205588e-04
335:2.0573832701089130e-05
336:-5.8054747578044699e-04
337:-3.4877294308414513e-04
338:-1.3204930911958965e-04
339:-7.6122000293741892e-04
340:-4.9757809455996016e-04
341:-2.7024219839361736e-04
342:1.0276792253320942e-04
343:1.7573926860122468e-04
344:2.2005256753120190e-04
345:-4.5563947257615368e-05
346:3.1382197298211628e-05
347:8.7798802429532219e-05
348:-1.8267609614156904e-04
349:-9.3661212493668938e-05
350:-1.7047360568135544e-05
351:2.0452121047879917e-04
352:1.2538807560055925e-04
353:4.6339919143520855e-05
354:9.3202979064033669e-05
355:6.4624442560933995e-05
356:2.9872215562439228e-05
357:7.4578499726176738e-06
358:1.5035728042115776e-05
359:1.0181246687974846e-05
360:-4.0151567293334129e-04
361:-9.1339859652446562e-04
362:-1.7739456946173197e-03
363:-2.2381932019827506e-04
364:-9.1771830264871662e-04
365:-1.7220381490649784e-03
366:-1.8793636837777998e-04
367:-9.7581196671605403e-04
368:-1.6358651184774314e-03
369:-2.3462952840122781e-03
370:-3.0391512525886656e-03
371:-3.4401240535648502e-03
372:-2.1204946334144421e-03
373:-2.5293307180910135e-03
374:-2.8067021038313579e-03
375:-1.8619550365388631e-03
376:-2.0800566180451141e-03
377:-2.3271119692829007e-03
378:-3.4138555577766551e-03
379:-3.1342454374609428e-03
380:-2.8906143613574779e-03
381:-2.8391322401456567e-03
382:-2.7519929673176340e-03
383:-2.6554440819962564e-03
384:-2.4227209340991090e-03
385:-2.4501632856666982e-03
386:-2.4228073680422351e-03
387:-2.7080204206136882e-03
388:-2.3105686141832748e-03
389:-1.9280263181383898e-03
390:-2.5197807200532151e-03
391:-2.1686146685066065e-03
392:-1.8366852574892760e-03
393:-2.3135560558678546e-03
394:-2.0160532281635430e-03
395:-1.7421141711314889e-03
396:-1.7105341565851356e-03
397:-1.3469619759248924e-03
398:-1.0003063250341813e-03
399:-1.6458702220089414e-03
400:-1.3220337800313382e-03
401:-1.0173850667213309e-03
402:-1.5780212194265700e-03
403:-1.2866975439176642e-03
404:-1.0168327959800597e-03
405:-8.1883627819551706e-04
406:-5.5663856576621733e-04
407:-3.3423423059687887e-04
408:-8.5674646203114319e-04
409:-6.1667855316473663e-04
410:-4.0713320904952168e-04
411:-8.7386251093053572e-04
412:-6.5227733366427540e-04
413:-4.5194390864334839e-04
414:-2.4576657513451252e-04
415:-1.4576551654746042e-04
416:-5.7072767075906962e-05
417:-3.1523406202156498e-04
418:-1.9938900574031942e-04
419:-9.9225634188924533e-05
420:-3.5763316193463887e-04
421:-2.3309602988122604e-04
422:-1.2861395816391561e-04
423:-2.5338561994463536e-05
424:-6.1370998053777141e-06
425:-4.1196699497271829e-08
426:-6.2420740742051561e-05
427:-3.1894889438222587e-05
428:-1.0529373319426161e-05
429:-8.9611853981330333e-05
430:-5.0484373520271089e-05
431:-1.6572004355387629e-05
432:-1.8679257676681353e-04
433:-9.1998232757011509e-04
434:-1.4855624435676027e-03
435:-1.3497000657405355e-04
436:-6.6187112510370015e-04
437:-1.1226775782807450e-03
438:-9.5177333293652009e-05
439:-4.4489331755062650e-04
440:-8.3002960591531069e-04
441:-1.6652489868090551e-03
442:-1.8651180556465217e-03
443:-2.1265928443305491e-03
444:-1.3132608627573921e-03
445:-1.5587029000390497e-03
446:-1.8175403431886406e-03
447:-1.0299300162343896e-03
448:-1.2864131888338640e-03
449:-1.5080814533239340e-03
450:-2.2331914996612033e-03
451:-2.2621789677214560e-03
452:-2.2352454927871274e-03
453:-1.8933504101442838e-03
454:-1.8770980054583048e-03
455:-1.8464552553020155e-03
456:-1.5492550680207028e-03
457:-1.5090714714840056e-03
458:-1.4960281269978289e-03
459:-2.1384225266102073e-03
460:-1.8832367953802455e-03
461:-1.6505380661445000e-03
462:-1.7788722914279472e-03
463:-1.5958892863029851e-03
464:-1.4273658464400321e-03
465:-1.4572165205319616e-03
466:-1.3235170662996615e-03
467:-1.1962497405920759e-03
468:-1.5033514133526652e-03
469:-1.2301935762418761e-03
470:-9.7944394973365628e-04
471:-1.3073293762595110e-03
472:-1.0691190049315201e-03
473:-8.5430784855015636e-04
474:-1.0968613817169115e-03
475:-8.9417333745339482e-04
476:-7.1587551247843126e-04
477:-8.4646133055267850e-04
478:-6.3746946294012384e-04
479:-4.4662888501777962e-04
480:-7.4001473333188447e-04
481:-5.5777772539005301e-04
482:-3.9230810591860837e-04
483:-6.2026184106030234e-04
484:-4.6417025980966464e-04
485:-3.2346216581056721e-04
486:-3.5547926738695493e-04
487:-2.3409476534914505e-04
488:-1.3242596256180764e-04
489:-3.1368777068306971e-04
490:-2.0730660110154360e-04
491:-1.1510154364201042e-04
492:-2.5723606409414702e-04
493:-1.6600356556186981e-04
494:-8.3407592012183223e-05
495:-9.3625887524922112e-05
496:-5.1939318880133621e-05
497:-1.4446714782823166e-05
498:-7.8479459038154065e-05
499:-3.8671055748476889e-05
500:-3.4926786454656504e-06
501:-5.0731638711303274e-05
502:-1.8732263553437493e-05
503:8.2010237983011897e-06
504:-8.6912210339953677e-05
505:-3.5929552301710492e-04
506:-6.8701428091527586e-04
507:-7.0125989054109931e-05
508:-2.4126293489199139e-04
509:-4.3465857301888011e-04
510:-2.1719797167154708e-05
511:-1.0107255155794115e-04
512:-1.6960724531808136e-04
513:-8.6175230199711094e-04
514:-1.0777832638470468e-03
515:-1.2612545839060369e-03
516:-5.1863910838743921e-04
517:-6.1457915723203140e-04
518:-7.3392008220191573e-04
519:-1.6904309294762189e-04
520:-1.5678028193541008e-04
521:-2.2387886494149356e-04
522:-1.2912027936888453e-03
523:-1.2565783395250018e-03
524:-1.2605488366582019e-03
525:-7.6151151394014314e-04
526:-7.4539750120263925e-04
527:-7.6571182080578486e-04
528:-2.4771768721874307e-04
529:-2.3342929979866284e-04
530:-2.5340262574776893e-04
531:-1.2324203235727382e-03
532:-1.1138579028195331e-03
533:-1.0061156855028209e-03
534:-7.4427363276392182e-04
535:-6.4867269935678352e-04
536:-5.8699898899228459e-04
537:-2.3624857418744679e-04
538:-1.7202509732521776e-04
539:-1.6483586311072146e-04
540:-9.2254913339382706e-04
541:-7.5111706900495446e-04
542:-6.0290104564997261e-04
543:-5.4214416492139733e-04
544:-4.3951630106531730e-04
545:-3.5507842010256986e-04
546:-1.5991858665863345e-04
547:-1.2189147286007449e-04
548:-9.7028283830959570e-05
549:-5.2247244676639987e-04
550:-3.8818410057820258e-04
551:-2.6764287911213336e-04
552:-3.0787986159084218e-04
553:-2.2451588667581684e-04
554:-1.5065959152759859e-04
555:-8.2625395151166605e-05
556:-5.2896531192049463e-05
557:-2.8435902031686905e-05
558:-2.1168041057986967e-04
559:-1.3412424109183175e-04
560:-6.1356468719010585e-05
561:-1.1841090313497482e-04
562:-7.3438259830276351e-05
563:-2.5569541389354082e-05
564:-2.1062811362399219e-05
565:-9.9555309133640637e-06
566:1.1732296926939872e-05
567:-3.3740399763645315e-05
568:-1.0569970770708281e-05
569:9.4167316295729698e-06
570:-9.9076134395995697e-06
571:-3.4217255534727842e-06
572:6.7852160045498547e-06
573:1.5977108787621892e-05
574:8.9057739005479872e-06
575:1.2460272976562716e-05
576:0.0000000000000000e+00
577:0.0000000000000000e+00
578:0.0000000000000000e+00
579:0.0000000000000000e+00
580:0.0000000000000000e+00
581:0.0000000000000000e+00
582:0.0000000000000000e+00
583:0.0000000000000000e+00
584:0.0000000000000000e+00
585:0.0000000000000000e+00
586:0.0000000000000000e+00
587:0.0000000000000000e+00
588:0.0000000000000000e+00
589:0.0000000000000000e+00
590:0.0000000000000000e+00
591:0.0000000000000000e+00
592:0.0000000000000000e+00
593:0.0000000000000000e+00
594:0.0000000000000000e+00
595:0.0000000000000000e+00
596:0.0000000000000000e+00
597:0.0000000000000000e+00
598:0.0000000000000000e+00
599:0.0000000000000000e+00
600:0.0000000000000000e+00
601:0.0000000000000000e+00
602:0.0000000000000000e+00
603:0.0000000000000000e+00
604:0.0000000000000000e+00
605:0.0000000000000000e+00
606:0.0000000000000000e+00
607:0.0000000000000000e+00
608:0.0000000000000000e+00
609:0.0000000000000000e+00
610:0.0000000000000000e+00
611:0.0000000000000000e+00
612:0.0000000000000000e+00
613:0.0000000000000000e+00
614:0.0000000000000000e+00
615:0.0000000000000000e+00
616:0.0000000000000000e+00
617:0.0000000000000000e+00
618:0.0000000000000000e+00
619:0.0000000000000000e+00
620:0.0000000000000000e+00
621:0.0000000000000000e+00
622:0.0000000000000000e+00
623:0.0000000000000000e+00
624:0.0000000000000000e+00
625:0.0000000000000000e+00
626:0.0000000000000000e+00
627:0.0000000000000000e+00
628:0.0000000000000000e+00
629:0.0000000000000000e+00
630:0.0000000000000000e+00
631:0.0000000000000000e+00
632:0.0000000000000000e+00
633:0.0000000000000000e+00
634:0.0000000000000000e+00
635:0.0000000000000000e+00
636:0.0000000000000000e+00
637:0.0000000000000000e+00
638:0.0000000000000000e+00
639:0.0000000000000000e+00
640:0.0000000000000000e+00
641:0.0000000000000000e+00
642:0.0000000000000000e+00
643:0.0000000000000000e+00
644:0.0000000000000000e+00
645:0.0000000000000000e+00
646:0.0000000000000000e+00
647:0.0000000000000000e+00
648:0.0000000000000000e+00
649:0.0000000000000000e+00
650:0.0000000000000000e+00
651:0.0000000000000000e+00
652:0.0000000000000000e+00
653:0.0000000000000000e+00
654:0.0000000000000000e+00
655:0.0000000000000000e+00
656:0.0000000000000000e+00
657:0.0000000000000000e+00
658:0.0000000000000000e+00
659:0.0000000000000000e+00
660:0.0000000000000000e+00
661:0.0000000000000000e+00
662:0.0000000000000000e+00
663:0.0000000000000000e+00
664:0.0000000000000000e+00
665:0.0000000000000000e+00
666:0.0000000000000000e+00
667:0.0000000000000000e+00
668:0.0000000000000000e+00
669:0.0000000000000000e+00
670:0.0000000000000000e+00
671:0.0000000000000000e+00
672:0.0000000000000000e+00
673:0.0000000000000000e+00
674:0.0000000000000000e+00
675:0.0000000000000000e+00
676:0.0000000000000000e+00
677:0.0000000000000000e+00
678:0.0000000000000000e+00
679:0.0000000000000000e+00
680:0.0000000000000000e+00
681:0.0000000000000000e+00
682:0.0000000000000000e+00
683:0.0000000000000000e+00
684:0.0000000000000000e+00
685:0.0000000000000000e+00
686:0.0000000000000000e+00
687:0.0000000000000000e+00
688:0.0000000000000000e+00
689:0.0000000000000000e+00
690:0.0000000000000000e+00
691:0.0000000000000000e+00
692:0.0000000000000000e+00
693:0.0000000000000000e+00
694:0.0000000000000000e+00
695:0.0000000000000000e+00
696:0.0000000000000000e+00
697:0.0000000000000000e+00
698:0.0000000000000000e+00
699:0.0000000000000000e+00
700:0.0000000000000000e+00
701:0.0000000000000000e+00
702:0.0000000000000000e+00
703:0.0000000000000000e+00
704:0.0000000000000000e+00
705:0.0000000000000000e+00
706:0.0000000000000000e+00
707:0.0000000000000000e+00
708:0.0000000000000000e+00
709:0.0000000000000000e+00
710:0.0000000000000000e+00
711:0.0000000000000000e+00
712:0.0000000000000000e+00
713:0.0000000000000000e+00
714:0.0000000000000000e+00
715:0.0000000000000000e+00
716:0.0000000000000000e+00
717:0.0000000000000000e+00
718:0.0000000000000000e+00
719:0.0000000000000000e+00
720:0.0000000000000000e+00
721:0.0000000000000000e+00
722:0.0000000000000000e+00
723:0.0000000000000000e+00
724:0.0000000000000000e+00
725:0.0000000000000000e+00
726:0.0000000000000000e+00
727:0.0000000000000000e+00
728:0.0000000000000000e+00
729:0.0000000000000000e+00
730:0.0000000000000000e+00
731:0.0000000000000000e+00
732:0.0000000000000000e+00
733:0.0000000000000000e+00
734:0.0000000000000000e+00
735:0.0000000000000000e+00
736:0.0000000000000000e+00
737:0.0000000000000000e+00
738:0.0000000000000000e+00
739:0.0000000000000000e+00
740:0.0000000000000000e+00
741:0.0000000000000000e+00
742:0.0000000000000000e+00
743:0.0000000000000000e+00
744:0.0000000000000000e+00
745:0.0000000000000000e+00
746:0.0000000000000000e+00
747:0.0000000000000000e+00
748:0.0000000000000000e+00
749:0.0000000000000000e+00
750:0.0000000000000000e+00
751:0.0000000000000000e+00
752:0.0000000000000000e+00
753:0.0000000000000000e+00
754:0.0000000000000000e+00
755:0.0000000000000000e+00
756:0.0000000000000000e+00
757:0.0000000000000000e+00
758:0.0000000000000000e+00
759:0.0000000000000000e+00
760:0.0000000000000000e+00
761:0.0000000000000000e+00
762:0.0000000000000000e+00
763:0.0000000000000000e+00
764:0.0000000000000000e+00
765:0.0000000000000000e+00
766:0.0000000000000000e+00
767:0.0000000000000000e+00
768:0.0000000000000000e+00
769:0.0000000000000000e+00
770:0.0000000000000000e+00
771:0.0000000000000000e+00
772:0.0000000000000000e+00
773:0.0000000000000000e+00
774:0.0000000000000000e+00
775:0.0000000000000000e+00
776:0.0000000000000000e+00
777:0.0000000000000000e+00
778:0.0000000000000000e+00
779:0.0000000000000000e+00
780:0.0000000000000000e+00
781:0.0000000000000000e+00
782:0.0000000000000000e+00
783:0.0000000000000000e+00
784:0.0000000000000000e+00
785:0.0000000000000000e+00
786:0.0000000000000000e+00
787:0.0000000000000000e+00
788:0.0000000000000000e+00
789:0.0000000000000000e+00
790:0.0000000000000000e+00
791:0.0000000000000000e+00
792:0.0000000000000000e+00
793:0.0000000000000000e+00
794:0.0000000000000000e+00
795:0.0000000000000000e+00
796:0.0000000000000000e+00
797:0.0000000000000000e+00
798:0.0000000000000000e+00
799:0.0000000000000000e+00
800:0.0000000000000000e+00
801:0.0000000000000000e+00
802:0.0000000000000000e+00
803:0.0000000000000000e+00
804:0.0000000000000000e+00
805:0.0000000000000000e+00
806:0.0000000000000000e+00
807:0.0000000000000000e+00
808:0.0000000000000000e+00
809:0.0000000000000000e+00
810:0.0000000000000000e+00
811:0.0000000000000000e+00
812:0.0000000000000000e+00
813:0.0000000000000000e+00
814:0.0000000000000000e+00
815:0.0000000000000000e+00
816:0.0000000000000000e+00
817:0.0000000000000000e+00
818:0.0000000000000000e+00
819:0.0000000000000000e+00
820:0.0000000000000000e+00
821:0.0000000000000000e+00
822:0.0000000000000000e+00
823:0.0000000000000000e+00
824:0.0000000000000000e+00
825:0.0000000000000000e+00
826:0.0000000000000000e+00
827:0.0000000000000000e+00
828:0.0000000000000000e+00
829:0.0000000000000000e+00
830:0.0000000000000000e+00
831:0.0000000000000000e+00
832:0.0000000000000000e+00
833:0.0000000000000000e+00
834:0.0000000000000000e+00
835:0.0000000000000000e+00
836:0.0000000000000000e+00
837:0.0000000000000000e+00
838:0.0000000000000000e+00
839:0.0000000000000000e+00
840:0.0000000000000000e+00
841:0.0000000000000000e+00
842:0.0000000000000000e+00
843:0.0000000000000000e+00
844:0.0000000000000000e+00
845:0.0000000000000000e+00
846:0.0000000000000000e+00
847:0.0000000000000000e+00
848:0.0000000000000000e+00
849:0.0000000000000000e+00
850:0.0000000000000000e+00
851:0.0000000000000000e+00
852:0.0000000000000000e+00
853:0.0000000000000000e+00
854:0.0000000000000000e+00
855:0.0000000000000000e+00
856:0.0000000000000000e+00
857:0.0000000000000000e+00
858:0.0000000000000000e+00
859:0.0000000000000000e+00
860:0.0000000000000000e+00
861:0.0000000000000000e+00
862:0.0000000000000000e+00
863:0.0000000000000000e+00
864:0.0000000000000000e+00
865:0.0000000000000000e+00
866:0.0000000000000000e+00
867:0.0000000000000000e+00
868:0.0000000000000000e+00
869:0.0000000000000000e+00
870:0.0000000000000000e+00
871:0.0000000000000000e+00
872:0.0000000000000000e+00
873:0.0000000000000000e+00
874:0.0000000000000000e+00
875:0.0000000000000000e+00
876:0.0000000000000000e+00
877:0.0000000000000000e+00
878:0.0000000000000000e+00
879:0.0000000000000000e+00
880:0.0000000000000000e+00
881:0.0000000000000000e+00
882:0.0000000000000000e+00
883:0.0000000000000000e+00
884:0.0000000000000000e+00
885:0.0000000000000000e+00
886:0.0000000000000000e+00
887:0.0000000000000000e+00
888:0.0000000000000000e+00
889:0.0000000000000000e+00
890:0.0000000000000000e+00
891:0.0000000000000000e+00
892:0.0000000000000000e+00
893:0.0000000000000000e+00
894:0.0000000000000000e+00
895:0.0000000000000000e+00
896:0.0000000000000000e+00
897:0.0000000000000000e+00
898:0.0000000000000000e+00
899:0.0000000000000000e+00
900:0.0000000000000000e+00
901:0.0000000000000000e+00
902:0.0000000000000000e+00
903:0.0000000000000000e+00
904:0.0000000000000000e+00
905:0.0000000000000000e+00
906:0.0000000000000000e+00
907:0.0000000000000000e+00
908:0.0000000000000000e+00
909:0.0000000000000000e+00
910:0.0000000000000000e+00
911:0.0000000000000000e+00
912:0.0000000000000000e+00
913:0.0000000000000000e+00
914:0.0000000000000000e+00
915:0.0000000000000000e+00
916:0.0000000000000000e+00
917:0.0000000000000000e+00
918:0.0000000000000000e+00
919:0.0000000000000000e+00
920:0.0000000000000000e+00
921:0.0000000000000000e+00
922:0.0000000000000000e+00
923:0.0000000000000000e+00
924:0.0000000000000000e+00
925:0.0000000000000000e+00
926:0.0000000000000000e+00
927:0.0000000000000000e+00
928:0.0000000000000000e+00
929:0.0000000000000000e+00
930:0.0000000000000000e+00
931:0.0000000000000000e+00
932:0.0000000000000000e+00
933:0.0000000000000000e+00
934:0.0000000000000000e+00
935:0.0000000000000000e+00
936:0.0000000000000000e+00
937:0.0000000000000000e+00
938:0.0000000000000000e+00
939:0.0000000000000000e+00
940:0.0000000000000000e+00
941:0.0000000000000000e+00
942:0.0000000000000000e+00
943:0.0000000000000000e+00
944:0.0000000000000000e+00
945:0.0000000000000000e+00
946:0.0000000000000000e+00
947:0.0000000000000000e+00
948:0.0000000000000000e+00
949:0.0000000000000000e+00
950:0.0000000000000000e+00
951:0.0000000000000000e+00
952:0.0000000000000000e+00
953:0.0000000000000000e+00
954:0.0000000000000000e+00
955:0.0000000000000000e+00
956:0.0000000000000000e+00
957:0.0000000000000000e+00
958:0.0000000000000000e+00
959:0.0000000000000000e+00
960:0.0000000000000000e+00
961:0.0000000000000000e+00
962:0.0000000000000000e+00
963:0.0000000000000000e+00
964:0.0000000000000000e+00
965:0.0000000000000000e+00
966:0.0000000000000000e+00
967:0.0000000000000000e+00
968:0.0000000000000000e+00
969:0.0000000000000000e+00
970:0.0000000000000000e+00
971:0.0000000000000000e+00
972:0.0000000000000000e+00
973:0.0000000000000000e+00
974:0.0000000000000000e+00
975:0.0000000000000000e+00
976:0.0000000000000000e+00
977:0.0000000000000000e+00
978:0.0000000000000000e+00
979:0.0000000000000000e+00
980:0.0000000000000000e+00
981:0.0000000000000000e+00
982:0.0000000000000000e+00
983:0.0000000000000000e+00
984:0.0000000000000000e+00
985:0.0000000000000000e+00
986:0.0000000000000000e+00
987:0.0000000000000000e+00
988:0.0000000000000000e+00
989:0.0000000000000000e+00
990:0.0000000000000000e+00
991:0.0000000000000000e+00
992:0.0000000000000000e+00
993:0.0000000000000000e+00
994:0.0000000000000000e+00
995:0.0000000000000000e+00
996:0.0000000000000000e+00
997:0.0000000000000000e+00
998:0.0000000000000000e+00
999:0.0000000000000000e+00
1000:0.0000000000000000e+00
1001:0.0000000000000000e+00
1002:0.0000000000000000e+00
1003:0.0000000000000000e+00
1004:0.0000000000000000e+00
1005:0.0000000000000000e+00
1006:0.0000000000000000e+00
1007:0.0000000000000000e+00
1008:0.0000000000000000e+00
1009:0.0000000000000000e+00
1010:0.0000000000000000e+00
1011:0.0000000000000000e+00
1012:0.0000000000000000e+00
1013:0.0000000000000000e+00
1014:0.0000000000000000e+00
1015:0.0000000000000000e+00
1016:0.0000000000000000e+00
1017:0.0000000000000000e+00
1018:0.0000000000000000e+00
1019:0.0000000000000000e+00
1020:0.0000000000000000e+00
1021:0.0000000000000000e+00
1022:0.0000000000000000e+00
1023:0.0000000000000000e+00
1024:0.0000000000000000e+00
1025:0.0000000000000000e+00
1026:0.0000000000000000e+00
1027:0.0000000000000000e+00
1028:0.0000000000000000e+00
1029:0.0000000000000000e+00
1030:0.0000000000000000e+00
1031:0.0000000000000000e+00
1032:0.0000000000000000e+00
1033:0.0000000000000000e+00
1034:0.0000000000000000e+00
1035:0.0000000000000000e+00
1036:0.0000000000000000e+00
1037:0.0000000000000000e+00
1038:0.0000000000000000e+00
1039:0.0000000000000000e+00
1040:0.0000000000000000e+00
1041:0.0000000000000000e+00
1042:0.0000000000000000e+00
1043:0.0000000000000000e+00
1044:0.0000000000000000e+00
1045:0.0000000000000000e+00
1046:0.0000000000000000e+00
1047:0.0000000000000000e+00
1048:0.0000000000000000e+00
1049:0.0000000000000000e+00
1050:0.0000000000000000e+00
1051:0.0000000000000000e+00
1052:0.0000000000000000e+00
1053:0.0000000000000000e+00
1054:0.0000000000000000e+00
1055:0.0000000000000000e+00
1056:0.0000000000000000e+00
1057:0.0000000000000000e+00
1058:0.0000000000000000e+00
1059:0.0000000000000000e+00
1060:0.0000000000000000e+00
1061:0.0000000000000000e+00
1062:0.0000000000000000e+00
1063:0.0000000000000000e+00
1064:0.0000000000000000e+00
1065:0.0000000000000000e+00
1066:0.0000000000000000e+00
1067:0.0000000000000000e+00
1068:0.0000000000000000e+00
1069:0.0000000000000000e+00
1070:0.0000000000000000e+00
1071:0.0000000000000000e+00
1072:0.0000000000000000e+00
1073:0.0000000000000000e+00
1074:0.0000000000000000e+00
1075:0.0000000000000000e+00
1076:0.0000000000000000e+00
1077:0.0000000000000000e+00
1078:0.0000000000000000e+00
1079:0.0000000000000000e+00
1080:0.0000000000000000e+00
1081:0.0000000000000000e+00
1082:0.0000000000000000e+00
1083:0.0000000000000000e+00
1084:0.0000000000000000e+00
1085:0.0000000000000000e+00
1086:0.0000000000000000e+00
1087:0.0000000000000000e+00
1088:0.0000000000000000e+00
1089:0.0000000000000000e+00
1090:0.0000000000000000e+00
1091:0.0000000000000000e+00
1092:0.0000000000000000e+00
1093:0.0000000000000000e+00
1094:0.0000000000000000e+00
1095:0.0000000000000000e+00
1096:0.0000000000000000e+00
1097:0.0000000000000000e+00
1098:0.0000000000000000e+00
1099:0.0000000000000000e+00
1100:0.0000000000000000e+00
1101:0.0000000000000000e+00
1102:0.0000000000000000e+00
1103:0.0000000000000000e+00
1104:0.0000000000000000e+00
1105:0.0000000000000000e+00
1106:0.0000000000000000e+00
1107:0.0000000000000000e+00
1108:0.0000000000000000e+00
1109:0.0000000000000000e+00
1110:0.0000000000000000e+00
1111:0.0000000000000000e+00
1112:0.0000000000000000e+00
1113:0.0000000000000000e+00
1114:0.0000000000000000e+00
1115:0.0000000000000000e+00
1116:0.0000000000000000e+00
1117:0.0000000000000000e+00
1118:0.0000000000000000e+00
1119:0.0000000000000000e+00
1120:0.0000000000000000e+00
1121:0.0000000000000000e+00
1122:0.0000000000000000e+00
1123:0.0000000000000000e+00
1124:0.0000000000000000e+00
1125:0.0000000000000000e+00
1126:0.0000000000000000e+00
1127:0.0000000000000000e+00
1128:0.0000000000000000e+00
1129:0.0000000000000000e+00
1130:0.0000000000000000e+00
1131:0.0000000000000000e+00
1132:0.0000000000000000e+00
1133:0.0000000000000000e+00
1134:0.0000000000000000e+00
1135:0.0000000000000000e+00
1136:0.0000000000000000e+00
1137:0.0000000000000000e+00
1138:0.0000000000000000e+00
1139:0.0000000000000000e+00
1140:0.0000000000000000e+00
1141:0.0000000000000000e+00
1142:0.0000000000000000e+00
1143:0.0000000000000000e+00
1144:0.0000000000000000e+00
1145:0.0000000000000000e+00
1146:0.0000000000000000e+00
1147:0.0000000000000000e+00
1148:0.0000000000000000e+00
1149:0.0000000000000000e+00
1150:0.0000000000000000e+00
1151:0.0000000000000000e+00
