label=Stress xy
num_items=3456

0:1.3296908133724175e-01
1:4.4095049316613583e-01
2:1.2559075273292810e+00
3:1.8470058066267719e-01
4:8.7770278413356759e-02
5:1.5585840941393261e-01
6:-1.7488950487403576e-01
7:-1.1569193879586191e-01
8:-2.3343312855214698e-01
9:1.9950495072335954e+00
10:2.7266370713764734e+00
11:2.4260601603118563e+00
12:5.1015367392562205e-01
13:1.3454701139297920e+00
14:1.8591597415480501e+00
15:-1.9985384548213680e-01
16:3.9853662119006944e-01
17:1.3858379382979487e+00
18:1.7607306464328794e+00
19:7.4830931494007202e-01
20:2.1170999526302087e-01
21:1.7199480316369693e+00
22:1.0355105954247827e+00
23:5.0605888937525434e-01
24:1.6373460758567233e+00
25:1.1562534340576447e+00
26:5.0931024076812315e-01
27:1.0882108409206612e-01
28:1.9708188988776045e-02
29:-1.5172932046307739e-02
30:3.5272765315663562e-01
31:2.4006931656211933e-01
32:1.0394741274579358e-01
33:3.1755878420867262e-01
34:3.4730796970863714e-01
35:2.7589824669678764e-01
36:7.8232737175529150e-03
37:5.9249880738613786e-02
38:6.8113448038104971e-02
39:7.2858098769404550e-02
40:1.1506580677461313e-01
41:1.5383168011297374e-01
42:2.2313680229620036e-01
43:2.0156099018152512e-01
44:2.1566454845472091e-01
45:4.6867709480586710e-02
46:9.4483185749679975e-03
47:-1.6647531184470230e-03
48:1.4621618925613805e-01
49:9.2985148096386777e-02
50:5.4446204768386672e-02
51:2.1128676331528617e-01
52:1.6109480901747800e-01
53:1.1398073117097711e-01
54:5.3207323215998933e-03
55:1.6332394631193889e-02
56:1.6304015826255312e-02
57:4.6539844679986037e-02
58:4.5908379971947862e-02
59:4.1378278736666260e-02
60:9.5295211082172995e-02
61:7.8303091811634015e-02
62:6.4553740601132295e-02
63:1.0986714745854605e-02
64:2.9316484768755172e-03
65:-3.7808380724604576e-04
66:3.4420550366782751e-02
67:1.9622901156108059e-02
68:8.0256779514786703e-03
69:5.4925547192901707e-02
70:3.4563126438422485e-02
71:1.5856223711181703e-02
72:-1.8996857321181752e-04
73:-2.7090415646824296e-04
74:-1.8607918312665132e-03
75:3.2478061943994590e-03
76:-4.0018354234687900e-03
77:-1.1812102551049244e-02
78:6.4787689262091963e-03
79:-7.8582459555624172e-03
80:-2.1807559765225776e-02
81:-3.3422647973821336e-03
82:-5.5552017803096451e-03
83:-7.2813505082221222e-03
84:-1.6373261168161565e-02
85:-2.3728176262934775e-02
86:-3.0854865473754808e-02
87:-2.9448217849615613e-02
88:-4.2025804008132023e-02
89:-5.4633726653761275e-02
90:-8.0105900085220751e-03
91:-9.2027436620894625e-03
92:-1.0546805704799891e-02
93:-3.4541165967475723e-02
94:-4.0350955500279492e-02
95:-4.6348536108210020e-02
96:-6.1283015783688083e-02
97:-7.1650118538856236e-02
98:-8.2240895055151600e-02
99:-1.1242712287004736e-02
100:-1.2194150622601558e-02
101:-1.3148810733295062e-02
102:-4.9283786623543407e-02
103:-5.3327543670050138e-02
104:-5.7488407831705730e-02
105:-8.7421525027843075e-02
106:-9.4638664470854103e-02
107:-1.0208679636907234e-01
108:-1.3520326739454176e-02
109:-1.3845937189612552e-02
110:-1.4180282837895321e-02
111:-5.9131591400904140e-02
112:-6.0569123133578991e-02
113:-6.2048795340509832e-02
114:-1.0504135899378796e-01
115:-1.0764621653658323e-01
116:-1.1032661982977068e-01
117:-1.4127016446011751e-02
118:-1.3591797475589402e-02
119:-1.3037701175622312e-02
120:-6.1816617508073317e-02
121:-5.9458128257295892e-02
122:-5.7016387995029408e-02
123:-1.0995525054589556e-01
124:-1.0585458389897698e-01
125:-1.0160629255862527e-01
126:-1.2396677663764837e-02
127:-1.0724288931499603e-02
128:-8.9964416566611031e-03
129:-5.4183057680469229e-02
130:-4.6789584158679336e-02
131:-3.9160267565824698e-02
132:-9.6628346944655316e-02
133:-8.3596587203068673e-02
134:-7.0148599861916364e-02
135:-7.5954185592973294e-03
136:-4.3992769348978403e-03
137:-9.7821873285519698e-04
138:-3.2989724950050009e-02
139:-1.9291038140063263e-02
140:-5.1659805842780753e-03
141:-5.9249787311907866e-02
142:-3.5107510599116758e-02
143:-1.0337408972372630e-02
144:-5.1404314793709438e-01
145:-6.4169948253190820e-02
146:1.3051205215468478e-01
147:-5.1293356653630862e-01
148:2.2539624155068291e-01
149:7.8157816915902856e-01
150:3.2708159704139811e-01
151:5.2377987122952907e-01
152:6.1137358373639827e-01
153:1.6253905980738426e-01
154:6.0847522108436558e-01
155:1.6211565083599422e+00
156:9.2075984685930279e-01
157:1.2621130049496481e+00
158:2.0707996333814376e+00
159:5.9925689282168437e-01
160:7.7794347477506209e-01
161:1.3245518714127325e+00
162:1.8935116255512001e+00
163:1.2808482604548530e+00
164:4.0467367021553785e-01
165:2.2051217188955055e+00
166:1.3767371430265760e+00
167:2.7006753187117621e-01
168:1.4659187586414097e+00
169:9.7845531135306851e-01
170:1.9793301863475352e-01
171:1.6291075300131783e-01
172:3.0746650408564463e-01
173:3.4218700100284000e-01
174:-2.8197375064665065e-02
175:1.9312709270720310e-01
176:3.5249545800447801e-01
177:-2.5614114313140385e-02
178:1.6677235612765598e-01
179:3.4508187578639460e-01
180:3.0608387013950905e-01
181:2.4681488498935758e-01
182:2.3188577856951814e-01
183:3.5860456410364422e-01
184:2.8280235917177993e-01
185:2.4198059271914690e-01
186:3.6895184122976865e-01
187:2.9829617495363919e-01
188:2.5326150690565952e-01
189:2.2369831667904941e-01
190:1.8173481181482629e-01
191:1.3956185907182136e-01
192:2.2727405591932551e-01
193:1.9504681130491960e-01
194:1.6292747750505338e-01
195:2.3684179693969856e-01
196:2.0918649545998380e-01
197:1.8195646348812269e-01
198:1.1896965137259652e-01
199:9.4030359703235381e-02
200:7.4540367766962351e-02
201:1.4325576361950085e-01
202:1.1150614103494721e-01
203:8.5647141317068617e-02
204:1.6219575340968309e-01
205:1.2533101302345009e-01
206:9.4798218637477311e-02
207:6.3041739948518291e-02
208:4.0239328276069283e-02
209:1.8583386280026818e-02
210:7.1440603241886794e-02
211:4.5284654871869612e-02
212:2.0070743738239954e-02
213:7.8479389400861507e-02
214:4.9321531281138684e-02
215:2.0901277957775286e-02
216:7.2337036223024606e-03
217:-1.0447540992808932e-02
218:-2.7499896260122069e-02
219:6.3828161019214655e-03
220:-1.5720985489588942e-02
221:-3.7315382814058357e-02
222:4.9931994168149864e-03
223:-2.1478956797180426e-02
224:-4.7561193824892413e-02
225:-3.6806966798140515e-02
226:-5.2248151459336221e-02
227:-6.7850333242227071e-02
228:-4.9231767894454992e-02
229:-6.9143607023729500e-02
230:-8.9406895086395446e-02
231:-6.2028150062187391e-02
232:-8.6262974858418023e-02
233:-1.1103970039973061e-01
234:-7.6090391720392378e-02
235:-8.8896138547871831e-02
236:-1.0200391527118988e-01
237:-1.0014127968615286e-01
238:-1.1688536606024934e-01
239:-1.3416486984866088e-01
240:-1.2425985247185489e-01
241:-1.4506053546692665e-01
242:-1.6663002339478600e-01
243:-1.0844243719730394e-01
244:-1.1746672306860706e-01
245:-1.2680254407944902e-01
246:-1.4272402143164614e-01
247:-1.5481860620331428e-01
248:-1.6738762503849100e-01
249:-1.7738287978194464e-01
250:-1.9268062851486156e-01
251:-2.0861571023525363e-01
252:-1.3051011608365387e-01
253:-1.3378562843314928e-01
254:-1.3717173476451111e-01
255:-1.7241287849096998e-01
256:-1.7693442611815280e-01
257:-1.8165360540664702e-01
258:-2.1506241583718055e-01
259:-2.2105374083167695e-01
260:-2.2732973516692973e-01
261:-1.3673357670853109e-01
262:-1.3165570940654092e-01
263:-1.2640023274064435e-01
264:-1.8118724673323838e-01
265:-1.7459825236919313e-01
266:-1.6779298025272885e-01
267:-2.2697114258475334e-01
268:-2.1911452753116101e-01
269:-2.1100296633664528e-01
270:-1.2020329013284872e-01
271:-1.0394397463473555e-01
272:-8.7167698207189906e-02
273:-1.5961079490120283e-01
274:-1.3799695145605176e-01
275:-1.1570036236066000e-01
276:-2.0097496519052691e-01
277:-1.7424222697557309e-01
278:-1.4666095838956672e-01
279:-7.3547877003576304e-02
280:-4.3351046796443776e-02
281:-1.2375899804363521e-02
282:-9.7512405440650110e-02
283:-5.7040751267577294e-02
284:-1.5475070416152772e-02
285:-1.2403026431250590e-01
286:-7.3479084101289699e-02
287:-2.1518167318324042e-02
288:1.1151679963966363e+00
289:6.6620135058010121e-01
290:1.5065125692094503e-01
291:1.7145096847550445e+00
292:5.7304054894263434e-01
293:-5.6193189987220638e-01
294:1.1869925038986389e+00
295:4.8404976634569864e-02
296:-1.0106057287917334e+00
297:-5.4368156170661916e-02
298:-4.9526442527521456e-03
299:3.4722713375907227e-01
300:-9.4414917208523674e-01
301:-1.0117888096540222e+00
302:-9.0116589864240904e-01
303:-1.3104044817266327e+00
304:-1.2983138447548996e+00
305:-1.2324623767162906e+00
306:5.3406801250561742e-01
307:4.5075305410532601e-01
308:9.2024345988259856e-02
309:-6.9265836475250797e-01
310:-3.3091604954209075e-01
311:-1.6917644941543616e-01
312:-1.0548247382428859e+00
313:-6.2535199198149882e-01
314:-3.2047092617086304e-01
315:-1.8429565493458047e-02
316:1.4013712730363681e-01
317:3.0123383989338071e-01
318:-1.2091421752707801e-01
319:1.9865742374817957e-02
320:1.7236628647224900e-01
321:-2.2272307983883805e-01
322:-9.7772813376722847e-02
323:4.8088601683816061e-02
324:3.2969094775025681e-01
325:2.7668269366418252e-01
326:2.4215471279434975e-01
327:2.1483173796536884e-01
328:2.0282833399516750e-01
329:1.9412560144892513e-01
330:1.0490667387609777e-01
331:1.3313418582631151e-01
332:1.4948276740820621e-01
333:2.2830899149977357e-01
334:2.0396731168546658e-01
335:1.8061713159455450e-01
336:1.8723815518775194e-01
337:1.7183285574770588e-01
338:1.5904754275851549e-01
339:1.4878179962731572e-01
340:1.4043454232888908e-01
341:1.3633575820877236e-01
342:1.6238995878067963e-01
343:1.2608942234616427e-01
344:9.5407533453699164e-02
345:1.4659135901492004e-01
346:1.1663958350885900e-01
347:8.9413888199193575e-02
348:1.2927934867830210e-01
349:1.0627899556779230e-01
350:8.3112155308028707e-02
351:7.8777941980409341e-02
352:4.9055351392276382e-02
353:1.9905644038365363e-02
354:7.3566504666834134e-02
355:4.4709483417623160e-02
356:1.6063713565933498e-02
357:6.8236475637461214e-02
358:4.0293563414221772e-02
359:1.2200270751804290e-02
360:3.3060093066287805e-03
361:-2.4857953716405031e-02
362:-5.2866020340502556e-02
363:-7.3014350382561517e-04
364:-3.0274047915301146e-02
365:-6.0346788207108724e-02
366:-4.7283455879387690e-03
367:-3.5496386736733887e-02
368:-6.7477996045136934e-02
369:-6.8481661447972977e-02
370:-9.4713837625296671e-02
371:-1.2168434613715386e-01
372:-7.7377410569128099e-02
373:-1.0627828903151254e-01
374:-1.3640208353823371e-01
375:-8.5892906621572007e-02
376:-1.1751281564333951e-01
377:-1.5084022441924166e-01
378:-1.3617059350476826e-01
379:-1.5911811863978023e-01
380:-1.8301492232006836e-01
381:-1.5279903866307362e-01
382:-1.7909629550513889e-01
383:-2.0672963944056347e-01
384:-1.6920989330760022e-01
385:-1.9901963670672196e-01
386:-2.3055227574728163e-01
387:-1.9496988307381755e-01
388:-2.1204314797225976e-01
389:-2.2989054813178514e-01
390:-2.2066285640617919e-01
391:-2.4074646847527287e-01
392:-2.6191143675560719e-01
393:-2.4660024707143510e-01
394:-2.7000052620561543e-01
395:-2.9478938250119224e-01
396:-2.3716792614498275e-01
397:-2.4406017011871342e-01
398:-2.5130980889211640e-01
399:-2.7068581687187571e-01
400:-2.7931175808196851e-01
401:-2.8845797684627172e-01
402:-3.0526345982557174e-01
403:-3.1601333841825435e-01
404:-3.2744637731966952e-01
405:-2.5106621544326557e-01
406:-2.4258051317162976e-01
407:-2.3383414473121000e-01
408:-2.8856979859261034e-01
409:-2.7931602923235860e-01
410:-2.6982060526369145e-01
411:-3.2815490709641337e-01
412:-3.1857203132029105e-01
413:-3.0876651249612685e-01
414:-2.2281112310166840e-01
415:-1.9323903295476222e-01
416:-1.6272782826090121e-01
417:-2.5729757978638440e-01
418:-2.2321359813188069e-01
419:-1.8804499488506707e-01
420:-2.9499686872563241e-01
421:-2.5683279223919758e-01
422:-2.1743858711509290e-01
423:-1.3759333220086714e-01
424:-8.1313785688322454e-02
425:-2.3450249991547951e-02
426:-1.5881604179445957e-01
427:-9.3034505465070277e-02
428:-2.5385872193024048e-02
429:-1.8434452716672464e-01
430:-1.0941736430395485e-01
431:-3.2339996740114327e-02
432:4.4985227399596139e-01
433:-3.9468197997347387e-01
434:-1.1574942318435832e+00
435:-3.6911490436232108e-01
436:-7.9644048002395340e-01
437:-1.2077522943202872e+00
438:-4.7652576135476293e-01
439:-7.0593536431005377e-01
440:-9.8503944663407816e-01
441:-1.3373892314575186e+00
442:-1.2346245687151349e+00
443:-1.1149560306475821e+00
444:-1.2880748212760793e+00
445:-1.1536084114735119e+00
446:-1.0043950303345741e+00
447:-1.0625762939793915e+00
448:-1.0097224398898650e+00
449:-9.4427851845277655e-01
450:-9.6223241970627549e-01
451:-6.2439754229076683e-01
452:-3.7396597982345253e-01
453:-8.8759343991289141e-01
454:-6.6754153102561420e-01
455:-4.8250646333365810e-01
456:-8.8677203951575478e-01
457:-7.5151022885953156e-01
458:-5.9887878564576047e-01
459:-2.8494801496607003e-01
460:-1.6182420551949336e-01
461:-2.1307169113266508e-02
462:-3.9490384976352733e-01
463:-2.5879881069761485e-01
464:-1.2658041749322549e-01
465:-5.0097586506490999e-01
466:-3.4462170449094026e-01
467:-2.1343406259966594e-01
468:3.9035026780157786e-02
469:8.4810311240887198e-02
470:1.1533246561732136e-01
471:-6.8410138866345824e-02
472:-5.7503016116931495e-03
473:4.5240598123608984e-02
474:-1.5698285410668097e-01
475:-8.3150150546286675e-02
476:-1.7402191940297101e-02
477:1.2012689103139983e-01
478:1.1814994546305869e-01
479:1.1961740302928038e-01
480:6.1959918066323456e-02
481:7.5345632847814620e-02
482:8.7784084026488712e-02
483:9.2719250142551529e-03
484:3.6961762922080733e-02
485:5.9312670489707689e-02
486:1.1560340477570252e-01
487:9.7274484826450083e-02
488:7.7637986604319545e-02
489:8.8821038892950413e-02
490:7.9049415917668259e-02
491:6.6941431870613230e-02
492:6.5022402030585208e-02
493:6.3567013046406939e-02
494:5.8746480191560577e-02
495:6.4154804523423245e-02
496:3.7891853926280181e-02
497:1.0995834740025500e-02
498:5.7049149066493783e-02
499:3.5424567566931402e-02
500:1.1869795506995550e-02
501:5.2289582219847607e-02
502:3.5010008707603436e-02
503:1.4503122663723257e-02
504:-5.6006814667971579e-03
505:-3.6404591681233535e-02
506:-6.8873549598359188e-02
507:-3.5406565312478301e-03
508:-3.3332125431809509e-02
509:-6.5655415446140383e-02
510:1.9884103851761399e-04
511:-2.8561379663564885e-02
512:-6.0720194890502011e-02
513:-8.7784000004601237e-02
514:-1.2055283195327472e-01
515:-1.5537739416774327e-01
516:-8.4939974719935876e-02
517:-1.1904026019154344e-01
518:-1.5590838347277708e-01
519:-8.0434117043152897e-02
520:-1.1607454287206774e-01
521:-1.5519491405444033e-01
522:-1.7472666187423058e-01
523:-2.0636528587278158e-01
524:-2.4001252740009790e-01
525:-1.7671038530496355e-01
526:-2.1122221106276523e-01
527:-2.4833772668790036e-01
528:-1.7760315867035043e-01
529:-2.1530703057812101e-01
530:-2.5620966469178169e-01
531:-2.5724767341422439e-01
532:-2.8256816638485671e-01
533:-3.0949340022221827e-01
534:-2.6760140610455763e-01
535:-2.9632173954971902e-01
536:-3.2708243768487599e-01
537:-2.7773686070459408e-01
538:-3.1034570802179190e-01
539:-3.4543054385224153e-01
540:-3.2100131632821033e-01
541:-3.3311056266496802e-01
542:-3.4603077775054347e-01
543:-3.4051923504760268e-01
544:-3.5531877766908632e-01
545:-3.7120561892495302e-01
546:-3.6111634658749736e-01
547:-3.7921761595450876e-01
548:-3.9868251384144593e-01
549:-3.4719875973688885e-01
550:-3.3764353824248677e-01
551:-3.2789422032429533e-01
552:-3.7344132669490959e-01
553:-3.6446139114155407e-01
554:-3.5536644784053273e-01
555:-4.0235974292473259e-01
556:-3.9462820807691884e-01
557:-3.8686075415757426e-01
558:-3.1354342639933686e-01
559:-2.7325864729976479e-01
560:-2.3166789528009010e-01
561:-3.4035166698568781e-01
562:-2.9700535932259853e-01
563:-2.5223794753974210e-01
564:-3.7156939642872788e-01
565:-3.2581977686874436e-01
566:-2.7853392198932980e-01
567:-1.9647038553340282e-01
568:-1.1644954084939983e-01
569:-3.4106998435893286e-02
570:-2.1375910062319936e-01
571:-1.2551527628726286e-01
572:-3.4643527615971288e-02
573:-2.3713018961239454e-01
574:-1.4123011228932397e-01
575:-4.2395884025087843e-02
576:-2.6768746797750043e-01
577:-5.0866752527873060e-01
578:-8.0109735465795828e-01
579:-3.1903970188155301e-02
580:-3.4291831535807438e-01
581:-6.4570624065120041e-01
582:2.4986694209699831e-03
583:-3.3813054572288403e-01
584:-6.1085714903516186e-01
585:-9.0135498877654541e-01
586:-9.1240002742313409e-01
587:-9.1128549137168069e-01
588:-7.4892544127777805e-01
589:-7.9787326191165198e-01
590:-8.3398398826408859e-01
591:-6.9313649443614700e-01
592:-7.3826947818924027e-01
593:-7.6988784807750099e-01
594:-8.8059573898170618e-01
595:-7.6690884815603022e-01
596:-6.2659857397918972e-01
597:-8.1278424633953006e-01
598:-7.0821000129404155e-01
599:-5.9759840910303230e-01
600:-7.4534603946414646e-01
601:-6.4750473277784315e-01
602:-5.6421211515166048e-01
603:-5.3048668291748380e-01
604:-3.7563549370731675e-01
605:-2.4857827354776615e-01
606:-5.2458009557622964e-01
607:-3.9819511404803865e-01
608:-2.8735344006014402e-01
609:-5.1285590527772640e-01
610:-4.1239759077665117e-01
611:-3.1523192230555225e-01
612:-1.9279835239185894e-01
613:-1.1503187604128895e-01
614:-4.4708449425870760e-02
615:-2.3233389195128709e-01
616:-1.4976280167910527e-01
617:-7.6013773429376583e-02
618:-2.6078724415271981e-01
619:-1.7531360078613670e-01
620:-1.0004103172931007e-01
621:-1.4540132567116592e-02
622:1.9302328171816801e-02
623:4.6465054119653237e-02
624:-4.2893886189482387e-02
625:-1.5832566451618997e-03
626:3.2831641514664292e-02
627:-6.4547599770811551e-02
628:-1.5853120970044755e-02
629:2.5729629852833731e-02
630:5.4931346104322876e-02
631:5.8570168559916175e-02
632:5.8174049155531440e-02
633:4.6154036109495644e-02
634:5.8546367578236766e-02
635:6.5630784772977263e-02
636:4.3616677976741347e-02
637:6.3845275667276019e-02
638:7.7492986669790320e-02
639:5.3801552661224834e-02
640:3.9260345285783468e-02
641:2.0821642053543223e-02
642:6.4907971772847420e-02
643:5.5600692156790185e-02
644:4.1389959238816360e-02
645:8.0143567616240849e-02
646:7.6037991821225254e-02
647:6.6023005279173264e-02
648:7.4012549048258092e-03
649:-2.0305352548868248e-02
650:-5.1950140774106063e-02
651:2.9893218303418692e-02
652:4.5811423540365248e-03
653:-2.5656624599441038e-02
654:5.6358119954116430e-02
655:3.3157361804576062e-02
656:4.0434024183816537e-03
657:-7.1714599840263321e-02
658:-1.0798912139623000e-01
659:-1.4820013630664153e-01
660:-4.5235507030133314e-02
661:-8.2194954440566917e-02
662:-1.2394771106537575e-01
663:-1.5513781497249210e-02
664:-5.3438106853886204e-02
665:-9.7012557284828674e-02
666:-1.7145067385836502e-01
667:-2.1091445042333720e-01
668:-2.5396539704933707e-01
669:-1.4853550487860309e-01
670:-1.9097740404194158e-01
671:-2.3774616128770035e-01
672:-1.2316697441499604e-01
673:-1.6909526206109210e-01
674:-2.2009009581099681e-01
675:-2.7682005673345472e-01
676:-3.1178422200923761e-01
677:-3.4952264014902595e-01
678:-2.6297534350267221e-01
679:-3.0228468818432763e-01
680:-3.4495764486447250e-01
681:-2.4804686524070094e-01
682:-2.9240642729006205e-01
683:-3.4071896047240319e-01
684:-3.6663410908933364e-01
685:-3.8691258487087993e-01
686:-4.0874683173693882e-01
687:-3.6480948017710946e-01
688:-3.8943808322233703e-01
689:-4.1600642378974123e-01
690:-3.6377084024668199e-01
691:-3.9362421252003410e-01
692:-4.2580128875322432e-01
693:-4.1345260870541140e-01
694:-4.0680631531779787e-01
695:-4.0019230096530417e-01
696:-4.2290867728210335e-01
697:-4.1892884285311122e-01
698:-4.1513656100879165e-01
699:-4.3543400336032212e-01
700:-4.3508101952555905e-01
701:-4.3507086182500598e-01
702:-3.8496913478094497e-01
703:-3.3821736470489550e-01
704:-2.8986889594263698e-01
705:-4.0053153619550474e-01
706:-3.5292223689874153e-01
707:-3.0362358825895097e-01
708:-4.2163750041908526e-01
709:-3.7411245413462146e-01
710:-3.2480540785031892e-01
711:-2.4698749006044637e-01
712:-1.4699441327820173e-01
713:-4.3886503784735430e-02
714:-2.5868960495173488e-01
715:-1.5244972039919255e-01
716:-4.2780318342904793e-02
717:-2.7833106992483353e-01
718:-1.6666284477922313e-01
719:-5.1250417337394140e-02
720:-4.3074067254175036e-02
721:-3.4744592752779435e-01
722:-5.7936250586249038e-01
723:-7.4697217831839011e-02
724:-2.6867184436545660e-01
725:-4.3422216800063040e-01
726:-6.0775580562002725e-02
727:-1.7181259921223796e-01
728:-2.9845629400451018e-01
729:-6.4799188067059321e-01
730:-6.8977098122630764e-01
731:-7.1773394251192191e-01
732:-4.9721255952850996e-01
733:-5.5732620047531201e-01
734:-6.0326503219096295e-01
735:-3.6340009800884482e-01
736:-4.4047985828687297e-01
737:-5.0302613937269869e-01
738:-6.9501840652929481e-01
739:-6.0886231889299747e-01
740:-5.3967043178302820e-01
741:-5.9730069285178633e-01
742:-5.4303557205107045e-01
743:-4.9344950061093545e-01
744:-5.1203156234050362e-01
745:-4.8490394517178620e-01
746:-4.5017022619790037e-01
747:-4.9608027140849331e-01
748:-4.0480742177285967e-01
749:-3.1397273167289397e-01
750:-4.5467239673433668e-01
751:-3.6983960620472101e-01
752:-2.8788621765240258e-01
753:-4.1444502995372373e-01
754:-3.3475358832225910e-01
755:-2.6038279110972773e-01
756:-2.6119104253075920e-01
757:-1.7682760673217526e-01
758:-1.0248519015824321e-01
759:-2.3972848823627732e-01
760:-1.5950857971844890e-01
761:-8.7311920337291349e-02
762:-2.1586410636178358e-01
763:-1.3770178293762686e-01
764:-6.5564938562165928e-02
765:-6.6070417365686820e-02
766:-1.3512120797746786e-02
767:3.1754292467111103e-02
768:-4.9438813064529040e-02
769:8.7270363487620319e-03
770:5.9197896777481017e-02
771:-2.5780225869117573e-02
772:3.7464896013696410e-02
773:9.2611923230443344e-02
774:5.1909240286861683e-02
775:7.6044884950731834e-02
776:9.3105142322731163e-02
777:8.2707894954425390e-02
778:1.1315367492257952e-01
779:1.3609769280541731e-01
780:1.1938085344762879e-01
781:1.5633473930007780e-01
782:1.8536048827374982e-01
783:9.7688508026549672e-02
784:9.6771240657645766e-02
785:8.9386322037154659e-02
786:1.4412186445188047e-01
787:1.4883138935216747e-01
788:1.4616083160051194e-01
789:1.9681594921240600e-01
790:2.0692159191183113e-01
791:2.0873472055895012e-01
792:8.0880119794158697e-02
793:5.9037133513137947e-02
794:3.0732054914254341e-02
795:1.3979392712251851e-01
796:1.2059709062330301e-01
797:9.4039412408795445e-02
798:2.0439882218377922e-01
799:1.8770666654105425e-01
800:1.6275491978559367e-01
801:1.1284569698256914e-02
802:-2.7054847384970243e-02
803:-7.1567238075005202e-02
804:7.4950867475876246e-02
805:3.6070951222710562e-02
806:-9.9218874055621055e-03
807:1.4386710726486313e-01
808:1.0404448073609211e-01
809:5.6168983063905983e-02
810:-9.8604724586895912e-02
811:-1.4659410573724740e-01
812:-2.0011768870138699e-01
813:-3.8476367768755050e-02
814:-9.0151612164893327e-02
815:-1.4822846530665121e-01
816:2.5792298569090395e-02
817:-3.0215450554084162e-02
818:-9.3492215354716107e-02
819:-2.2974698199094670e-01
820:-2.7727074964785692e-01
821:-3.2913046602107998e-01
822:-1.8094845680404181e-01
823:-2.3444931291596507e-01
824:-2.9301285788585302e-01
825:-1.2976545294900205e-01
826:-1.9018629800392570e-01
827:-2.5639657205847899e-01
828:-3.5424107600103422e-01
829:-3.8754491366715749e-01
830:-4.2343589614969757e-01
831:-3.2210256520951291e-01
832:-3.6224412773630388e-01
833:-4.0549418095184331e-01
834:-2.9008668617842315e-01
835:-3.3825819783815214e-01
836:-3.9005954605897220e-01
837:-4.3494895885705326e-01
838:-4.3724550427793618e-01
839:-4.3999593015654909e-01
840:-4.2086498289826962e-01
841:-4.2886913619021494e-01
842:-4.3755353364843907e-01
843:-4.1001788950877016e-01
844:-4.2504538580382911e-01
845:-4.4097948997371567e-01
846:-4.2757632330689255e-01
847:-3.8067212107212706e-01
848:-3.3193844194135408e-01
849:-4.2757723616878512e-01
850:-3.8294384782819141e-01
851:-3.3641047929001794e-01
852:-4.3420329926892004e-01
853:-3.9312571767054111e-01
854:-3.5007765257302287e-01
855:-2.8488950411820552e-01
856:-1.7058004968781681e-01
857:-5.2334447019987872e-02
858:-2.8904905157407396e-01
859:-1.7128827219713888e-01
860:-4.9246408746519137e-02
861:-3.0310459259083833e-01
862:-1.8301598681706624e-01
863:-5.8301361133434940e-02
864:-4.2832001923303525e-02
865:-1.3581000322143311e-01
866:-2.5223162213774730e-01
867:-3.0397798676973502e-02
868:-1.2562134625155960e-01
869:-2.2718911652924240e-01
870:-2.7116359684898589e-02
871:-1.2317989121112398e-01
872:-2.0848825052534375e-01
873:-3.1472131810178028e-01
874:-3.8934892317347769e-01
875:-4.5071031202889345e-01
876:-2.7477785696988183e-01
877:-3.2713253434332884e-01
878:-3.7093460412591844e-01
879:-2.4177533962408695e-01
880:-2.7532215545346805e-01
881:-3.0502997231741852e-01
882:-4.6242751116958386e-01
883:-4.4335678047138616e-01
884:-4.1415633175040106e-01
885:-3.7812871618397115e-01
886:-3.6036316198853485e-01
887:-3.3608065481809613e-01
888:-3.0766655573078677e-01
889:-2.8762275374279850e-01
890:-2.6467476382758148e-01
891:-3.8070052871459109e-01
892:-3.0491836544156509e-01
893:-2.3447979089051646e-01
894:-3.0729520768371793e-01
895:-2.3878779309980402e-01
896:-1.7326157270259729e-01
897:-2.3868003006743641e-01
898:-1.7457141257486622e-01
899:-1.1108159473372518e-01
900:-1.9117013101293340e-01
901:-1.1282983216197140e-01
902:-3.9917416945821009e-02
903:-1.3043589562027580e-01
904:-5.0335306084608560e-02
905:2.4393261391966008e-02
906:-6.7705757545668724e-02
907:1.4832994544999811e-02
908:9.2055586152293700e-02
909:9.1263301163397724e-04
910:6.6587184506686478e-02
911:1.2416124601810527e-01
912:6.6950563061963730e-02
913:1.3696348012734141e-01
914:1.9927078140171192e-01
915:1.3686554762182862e-01
916:2.1234451890317685e-01
917:2.8051274858613523e-01
918:1.5282895038550562e-01
919:1.9371178452499205e-01
920:2.2640205749541634e-01
921:2.3151896267548011e-01
922:2.7940661159590230e-01
923:3.1861938226897651e-01
924:3.1673218038076190e-01
925:3.7183984570873191e-01
926:4.1779031571106179e-01
927:2.3987234796802481e-01
928:2.5312039703508687e-01
929:2.5763022959545984e-01
930:3.3567582486915182e-01
931:3.5463678681634209e-01
932:3.6424031088404230e-01
933:4.3856823794892119e-01
934:4.6349196301126483e-01
935:4.7843902882131212e-01
936:2.5456941742933259e-01
937:2.3951390438656639e-01
938:2.1567799810958180e-01
939:3.6362811655587313e-01
940:3.5171814559779452e-01
941:3.3013679864916895e-01
942:4.8031867301819253e-01
943:4.7145292144105255e-01
944:4.5202481111701820e-01
945:1.9697829083601723e-01
946:1.5666565360567183e-01
947:1.0774744159658882e-01
948:3.1189855095409774e-01
949:2.7087298507369434e-01
950:2.2028243174240569e-01
951:4.3411424571507606e-01
952:3.9201734936109861e-01
953:3.3939605288407898e-01
954:7.6302692297885055e-02
955:1.7677272430555249e-02
956:-4.8754358202829147e-02
957:1.8697683541341228e-01
958:1.2361654775892619e-01
959:5.1471389821425108e-02
960:3.0390479364971734e-01
961:2.3505181298154004e-01
962:1.5643530251338142e-01
963:-8.7227549538115262e-02
964:-1.5201382756514195e-01
965:-2.2306503474846115e-01
966:8.9231663285150708e-03
967:-6.4107343968393737e-02
968:-1.4431009560888974e-01
969:1.0924391286159650e-01
970:2.6774607756787361e-02
971:-6.3774250878916292e-02
972:-2.5971824545107042e-01
973:-3.1314584870972539e-01
974:-3.7054612815405252e-01
975:-1.8666053588530981e-01
976:-2.5035338443468630e-01
977:-3.1867572881247930e-01
978:-1.1262135586967759e-01
979:-1.8813213937540510e-01
980:-2.6892923835230281e-01
981:-3.9357226672693585e-01
982:-4.1343057060761912e-01
983:-4.3436370685082387e-01
984:-3.4781095464173650e-01
985:-3.7754409194331462e-01
986:-4.0870379995010320e-01
987:-3.0514220269897940e-01
988:-3.4652624574855356e-01
989:-3.8968859784603016e-01
990:-4.2991468909608432e-01
991:-3.9170055375920593e-01
992:-3.5147527837347914e-01
993:-4.0922146120307690e-01
994:-3.7757698249501248e-01
995:-3.4385215114508350e-01
996:-3.9619228554505737e-01
997:-3.7284437012261040e-01
998:-3.4734688946529546e-01
999:-3.0516705092183555e-01
1000:-1.8443124509912864e-01
1001:-5.8859743046960615e-02
1002:-2.9958095494593939e-01
1003:-1.7914716406296266e-01
1004:-5.3502061860233444e-02
1005:-3.0603156531500586e-01
1006:-1.8733047146058238e-01
1007:-6.3042451196168803e-02
1008:-2.5550794905044284e-02
1009:-1.1400400987630473e-01
1010:-1.8876660438648785e-01
1011:-1.8472758264570271e-02
1012:-8.2880146406520319e-02
1013:-1.4060866553774068e-01
1014:-1.2833393369648501e-02
1015:-5.6354782388447787e-02
1016:-1.0020905384686890e-01
1017:-2.1649980485161199e-01
1018:-2.4410799265523708e-01
1019:-2.6897195849516503e-01
1020:-1.6350822136152737e-01
1021:-1.8639950212584047e-01
1022:-2.0559514435139442e-01
1023:-1.1879773295534668e-01
1024:-1.3560876659893545e-01
1025:-1.4777274512870076e-01
1026:-2.6933354321180120e-01
1027:-2.4622490166073982e-01
1028:-2.2116637373979087e-01
1029:-2.0247609485637455e-01
1030:-1.7347358883836700e-01
1031:-1.4218788075809505e-01
1032:-1.4079756683857114e-01
1033:-1.0597415242568206e-01
1034:-6.8534220258152492e-02
1035:-1.9473429078957816e-01
1036:-1.3023279134176605e-01
1037:-6.5754466823687199e-02
1038:-1.1239426647250142e-01
1039:-4.2986904151680140e-02
1040:2.6081748100551756e-02
1041:-3.4943479975037189e-02
1042:4.0939618720160061e-02
1043:1.1616847220790667e-01
1044:-2.1379220629157494e-02
1045:6.3309208721082394e-02
1046:1.4281811227677801e-01
1047:7.3307331810465948e-02
1048:1.6367130245758460e-01
1049:2.4926942970486904e-01
1050:1.6722592091411864e-01
1051:2.6506857037183534e-01
1052:3.5855905882441502e-01
1053:1.8950560564815405e-01
1054:2.6909463254690730e-01
1055:3.4142317698133107e-01
1056:3.0034241354448959e-01
1057:3.8850248431028750e-01
1058:4.6917991351485783e-01
1059:4.1483113381578302e-01
1060:5.1255504290897047e-01
1061:6.0257415134401815e-01
1062:3.8020519546867121e-01
1063:4.3978381828804092e-01
1064:4.8998434094859389e-01
1065:5.1289918359658271e-01
1066:5.8106046182722182e-01
1067:6.3956681935756432e-01
1068:6.5177976533890547e-01
1069:7.2941785570164808e-01
1070:7.9712420482260071e-01
1071:5.1314249808348944e-01
1072:5.4190117793414150e-01
1073:5.6031566261621490e-01
1074:6.6734201825393225e-01
1075:7.0342439635502485e-01
1076:7.2851876654449033e-01
1077:8.2989788403409848e-01
1078:8.7372061407816948e-01
1079:9.0591152346755566e-01
1080:5.6380598251603009e-01
1081:5.5692921570577392e-01
1082:5.3900067918885985e-01
1083:7.3513284722860239e-01
1084:7.3221604524597783e-01
1085:7.1745659962513275e-01
1086:9.1581733545175292e-01
1087:9.1702107388299448e-01
1088:9.0559129474443267e-01
1089:5.2139958013159982e-01
1090:4.7881897741303120e-01
1091:4.2515080485289658e-01
1092:7.0065634184907377e-01
1093:6.5753928889000735e-01
1094:6.0235875071331746e-01
1095:8.8955886833438658e-01
1096:8.4563135124980593e-01
1097:7.8866443357153260e-01
1098:3.8840745978389579e-01
1099:3.1627118795537279e-01
1100:2.3376579241556888e-01
1101:5.6350589763194936e-01
1102:4.8555100119707773e-01
1103:3.9612452213444072e-01
1104:7.4738904848463228e-01
1105:6.6281383698234353e-01
1106:5.6566458393579400e-01
1107:1.8372342656421006e-01
1108:9.5365768560469480e-02
1109:-1.6458702146538390e-03
1110:3.4088391817939384e-01
1111:2.4160672257488230e-01
1112:1.3260884395752606e-01
1113:5.0458936855453151e-01
1114:3.9300743418634648e-01
1115:2.7063811456383979e-01
1116:-5.4605550089034859e-02
1117:-1.3771765687149531e-01
1118:-2.2658403661822923e-01
1119:7.1885396327529494e-02
1120:-2.5846110025101170e-02
1121:-1.3028320172766547e-01
1122:2.0115378212282303e-01
1123:8.6761492904786158e-02
1124:-3.5287694048842806e-02
1125:-2.6745477791042804e-01
1126:-3.1662215746964073e-01
1127:-3.6779754629588340e-01
1128:-1.8028012961425433e-01
1129:-2.4490727738283058e-01
1130:-3.1198005896616871e-01
1131:-9.5685446270501490e-02
1132:-1.7811126093537427e-01
1133:-2.6342033396273551e-01
1134:-3.7838811278483736e-01
1135:-3.6091020679700458e-01
1136:-3.4126227396313497e-01
1137:-3.3084525664497338e-01
1138:-3.2562246130396849e-01
1139:-3.1822853555346303e-01
1140:-2.9191434161713731e-01
1141:-3.0126138235727945e-01
1142:-3.0843618912448179e-01
1143:-3.0225036240380132e-01
1144:-1.8546389620218129e-01
1145:-6.2835365970636645e-02
1146:-2.8437276640376052e-01
1147:-1.7272854645681066e-01
1148:-5.4741099263580256e-02
1149:-2.8095959700607331e-01
1150:-1.7634584617284743e-01
1151:-6.4887704877113817e-02
1152:0.0000000000000000e+00
1153:0.0000000000000000e+00
1154:0.0000000000000000e+00
1155:0.0000000000000000e+00
1156:0.0000000000000000e+00
1157:0.0000000000000000e+00
1158:0.0000000000000000e+00
1159:0.0000000000000000e+00
1160:0.0000000000000000e+00
1161:0.0000000000000000e+00
1162:0.0000000000000000e+00
1163:0.0000000000000000e+00
1164:0.0000000000000000e+00
1165:0.0000000000000000e+00
1166:0.0000000000000000e+00
1167:0.0000000000000000e+00
1168:0.0000000000000000e+00
1169:0.0000000000000000e+00
1170:0.0000000000000000e+00
1171:0.0000000000000000e+00
1172:0.0000000000000000e+00
1173:0.0000000000000000e+00
1174:0.0000000000000000e+00
1175:0.0000000000000000e+00
1176:0.0000000000000000e+00
1177:0.0000000000000000e+00
1178:0.0000000000000000e+00
1179:0.0000000000000000e+00
1180:0.0000000000000000e+00
1181:0.0000000000000000e+00
1182:0.0000000000000000e+00
1183:0.0000000000000000e+00
1184:0.0000000000000000e+00
1185:0.0000000000000000e+00
1186:0.0000000000000000e+00
1187:0.0000000000000000e+00
1188:0.0000000000000000e+00
1189:0.0000000000000000e+00
1190:0.0000000000000000e+00
1191:0.0000000000000000e+00
1192:0.0000000000000000e+00
1193:0.0000000000000000e+00
1194:0.0000000000000000e+00
1195:0.0000000000000000e+00
1196:0.0000000000000000e+00
1197:0.0000000000000000e+00
1198:0.0000000000000000e+00
1199:0.0000000000000000e+00
1200:0.0000000000000000e+00
1201:0.0000000000000000e+00
1202:0.0000000000000000e+00
1203:0.0000000000000000e+00
1204:0.0000000000000000e+00
1205:0.0000000000000000e+00
1206:0.0000000000000000e+00
1207:0.0000000000000000e+00
1208:0.0000000000000000e+00
1209:0.0000000000000000e+00
1210:0.0000000000000000e+00
1211:0.0000000000000000e+00
1212:0.0000000000000000e+00
1213:0.0000000000000000e+00
1214:0.0000000000000000e+00
1215:0.0000000000000000e+00
1216:0.0000000000000000e+00
1217:0.0000000000000000e+00
1218:0.0000000000000000e+00
1219:0.0000000000000000e+00
1220:0.0000000000000000e+00
1221:0.0000000000000000e+00
1222:0.0000000000000000e+00
1223:0.0000000000000000e+00
1224:0.0000000000000000e+00
1225:0.0000000000000000e+00
1226:0.0000000000000000e+00
1227:0.0000000000000000e+00
1228:0.0000000000000000e+00
1229:0.0000000000000000e+00
1230:0.0000000000000000e+00
1231:0.0000000000000000e+00
1232:0.0000000000000000e+00
1233:0.0000000000000000e+00
1234:0.0000000000000000e+00
1235:0.0000000000000000e+00
1236:0.0000000000000000e+00
1237:0.0000000000000000e+00
1238:0.0000000000000000e+00
1239:0.0000000000000000e+00
1240:0.0000000000000000e+00
1241:0.0000000000000000e+00
1242:0.0000000000000000e+00
1243:0.0000000000000000e+00
1244:0.0000000000000000e+00
1245:0.0000000000000000e+00
1246:0.0000000000000000e+00
1247:0.0000000000000000e+00
1248:0.0000000000000000e+00
1249:0.0000000000000000e+00
1250:0.0000000000000000e+00
1251:0.0000000000000000e+00
1252:0.0000000000000000e+00
1253:0.0000000000000000e+00
1254:0.0000000000000000e+00
1255:0.0000000000000000e+00
1256:0.0000000000000000e+00
1257:0.0000000000000000e+00
1258:0.0000000000000000e+00
1259:0.0000000000000000e+00
1260:0.0000000000000000e+00
1261:0.0000000000000000e+00
1262:0.0000000000000000e+00
1263:0.0000000000000000e+00
1264:0.0000000000000000e+00
1265:0.0000000000000000e+00
1266:0.0000000000000000e+00
1267:0.0000000000000000e+00
1268:0.0000000000000000e+00
1269:0.0000000000000000e+00
1270:0.0000000000000000e+00
1271:0.0000000000000000e+00
1272:0.0000000000000000e+00
1273:0.0000000000000000e+00
1274:0.0000000000000000e+00
1275:0.0000000000000000e+00
1276:0.0000000000000000e+00
1277:0.0000000000000000e+00
1278:0.0000000000000000e+00
1279:0.0000000000000000e+00
1280:0.0000000000000000e+00
1281:0.0000000000000000e+00
1282:0.0000000000000000e+00
1283:0.0000000000000000e+00
1284:0.0000000000000000e+00
1285:0.0000000000000000e+00
1286:0.0000000000000000e+00
1287:0.0000000000000000e+00
1288:0.0000000000000000e+00
1289:0.0000000000000000e+00
1290:0.0000000000000000e+00
1291:0.0000000000000000e+00
1292:0.0000000000000000e+00
1293:0.0000000000000000e+00
1294:0.0000000000000000e+00
1295:0.0000000000000000e+00
1296:0.0000000000000000e+00
1297:0.0000000000000000e+00
1298:0.0000000000000000e+00
1299:0.0000000000000000e+00
1300:0.0000000000000000e+00
1301:0.0000000000000000e+00
1302:0.0000000000000000e+00
1303:0.0000000000000000e+00
1304:0.0000000000000000e+00
1305:0.0000000000000000e+00
1306:0.0000000000000000e+00
1307:0.0000000000000000e+00
1308:0.0000000000000000e+00
1309:0.0000000000000000e+00
1310:0.0000000000000000e+00
1311:0.0000000000000000e+00
1312:0.0000000000000000e+00
1313:0.0000000000000000e+00
1314:0.0000000000000000e+00
1315:0.0000000000000000e+00
1316:0.0000000000000000e+00
1317:0.0000000000000000e+00
1318:0.0000000000000000e+00
1319:0.0000000000000000e+00
1320:0.0000000000000000e+00
1321:0.0000000000000000e+00
1322:0.0000000000000000e+00
1323:0.0000000000000000e+00
1324:0.0000000000000000e+00
1325:0.0000000000000000e+00
1326:0.0000000000000000e+00
1327:0.0000000000000000e+00
1328:0.0000000000000000e+00
1329:0.0000000000000000e+00
1330:0.0000000000000000e+00
1331:0.0000000000000000e+00
1332:0.0000000000000000e+00
1333:0.0000000000000000e+00
1334:0.0000000000000000e+00
1335:0.0000000000000000e+00
1336:0.0000000000000000e+00
1337:0.0000000000000000e+00
1338:0.0000000000000000e+00
1339:0.0000000000000000e+00
1340:0.0000000000000000e+00
1341:0.0000000000000000e+00
1342:0.0000000000000000e+00
1343:0.0000000000000000e+00
1344:0.0000000000000000e+00
1345:0.0000000000000000e+00
1346:0.0000000000000000e+00
1347:0.0000000000000000e+00
1348:0.0000000000000000e+00
1349:0.0000000000000000e+00
1350:0.0000000000000000e+00
1351:0.0000000000000000e+00
1352:0.0000000000000000e+00
1353:0.0000000000000000e+00
1354:0.0000000000000000e+00
1355:0.0000000000000000e+00
1356:0.0000000000000000e+00
1357:0.0000000000000000e+00
1358:0.0000000000000000e+00
1359:0.0000000000000000e+00
1360:0.0000000000000000e+00
1361:0.0000000000000000e+00
1362:0.0000000000000000e+00
1363:0.0000000000000000e+00
1364:0.0000000000000000e+00
1365:0.0000000000000000e+00
1366:0.0000000000000000e+00
1367:0.0000000000000000e+00
1368:0.0000000000000000e+00
1369:0.0000000000000000e+00
1370:0.0000000000000000e+00
1371:0.0000000000000000e+00
1372:0.0000000000000000e+00
1373:0.0000000000000000e+00
1374:0.0000000000000000e+00
1375:0.0000000000000000e+00
1376:0.0000000000000000e+00
1377:0.0000000000000000e+00
1378:0.0000000000000000e+00
1379:0.0000000000000000e+00
1380:0.0000000000000000e+00
1381:0.0000000000000000e+00
1382:0.0000000000000000e+00
1383:0.0000000000000000e+00
1384:0.0000000000000000e+00
1385:0.0000000000000000e+00
1386:0.0000000000000000e+00
1387:0.0000000000000000e+00
1388:0.0000000000000000e+00
1389:0.0000000000000000e+00
1390:0.0000000000000000e+00
1391:0.0000000000000000e+00
1392:0.0000000000000000e+00
1393:0.0000000000000000e+00
1394:0.0000000000000000e+00
1395:0.0000000000000000e+00
1396:0.0000000000000000e+00
1397:0.0000000000000000e+00
1398:0.0000000000000000e+00
1399:0.0000000000000000e+00
1400:0.0000000000000000e+00
1401:0.0000000000000000e+00
1402:0.0000000000000000e+00
1403:0.0000000000000000e+00
1404:0.0000000000000000e+00
1405:0.0000000000000000e+00
1406:0.0000000000000000e+00
1407:0.0000000000000000e+00
1408:0.0000000000000000e+00
1409:0.0000000000000000e+00
1410:0.0000000000000000e+00
1411:0.0000000000000000e+00
1412:0.0000000000000000e+00
1413:0.0000000000000000e+00
1414:0.0000000000000000e+00
1415:0.0000000000000000e+00
1416:0.0000000000000000e+00
1417:0.0000000000000000e+00
1418:0.0000000000000000e+00
1419:0.0000000000000000e+00
1420:0.0000000000000000e+00
1421:0.0000000000000000e+00
1422:0.0000000000000000e+00
1423:0.0000000000000000e+00
1424:0.0000000000000000e+00
1425:0.0000000000000000e+00
1426:0.0000000000000000e+00
1427:0.0000000000000000e+00
1428:0.0000000000000000e+00
1429:0.0000000000000000e+00
1430:0.0000000000000000e+00
1431:0.0000000000000000e+00
1432:0.0000000000000000e+00
1433:0.0000000000000000e+00
1434:0.0000000000000000e+00
1435:0.0000000000000000e+00
1436:0.0000000000000000e+00
1437:0.0000000000000000e+00
1438:0.0000000000000000e+00
1439:0.0000000000000000e+00
1440:0.0000000000000000e+00
1441:0.0000000000000000e+00
1442:0.0000000000000000e+00
1443:0.0000000000000000e+00
1444:0.0000000000000000e+00
1445:0.0000000000000000e+00
1446:0.0000000000000000e+00
1447:0.0000000000000000e+00
1448:0.0000000000000000e+00
1449:0.0000000000000000e+00
1450:0.0000000000000000e+00
1451:0.0000000000000000e+00
1452:0.0000000000000000e+00
1453:0.0000000000000000e+00
1454:0.0000000000000000e+00
1455:0.0000000000000000e+00
1456:0.0000000000000000e+00
1457:0.0000000000000000e+00
1458:0.0000000000000000e+00
1459:0.0000000000000000e+00
1460:0.0000000000000000e+00
1461:0.0000000000000000e+00
1462:0.0000000000000000e+00
1463:0.0000000000000000e+00
1464:0.0000000000000000e+00
1465:0.0000000000000000e+00
1466:0.0000000000000000e+00
1467:0.0000000000000000e+00
1468:0.0000000000000000e+00
1469:0.0000000000000000e+00
1470:0.0000000000000000e+00
1471:0.0000000000000000e+00
1472:0.0000000000000000e+00
1473:0.0000000000000000e+00
1474:0.0000000000000000e+00
1475:0.0000000000000000e+00
1476:0.0000000000000000e+00
1477:0.0000000000000000e+00
1478:0.0000000000000000e+00
1479:0.0000000000000000e+00
1480:0.0000000000000000e+00
1481:0.0000000000000000e+00
1482:0.0000000000000000e+00
1483:0.0000000000000000e+00
1484:0.0000000000000000e+00
1485:0.0000000000000000e+00
1486:0.0000000000000000e+00
1487:0.0000000000000000e+00
1488:0.0000000000000000e+00
1489:0.0000000000000000e+00
1490:0.0000000000000000e+00
1491:0.0000000000000000e+00
1492:0.0000000000000000e+00
1493:0.0000000000000000e+00
1494:0.0000000000000000e+00
1495:0.0000000000000000e+00
1496:0.0000000000000000e+00
1497:0.0000000000000000e+00
1498:0.0000000000000000e+00
1499:0.0000000000000000e+00
1500:0.0000000000000000e+00
1501:0.0000000000000000e+00
1502:0.0000000000000000e+00
1503:0.0000000000000000e+00
1504:0.0000000000000000e+00
1505:0.0000000000000000e+00
1506:0.0000000000000000e+00
1507:0.0000000000000000e+00
1508:0.0000000000000000e+00
1509:0.0000000000000000e+00
1510:0.0000000000000000e+00
1511:0.0000000000000000e+00
1512:0.0000000000000000e+00
1513:0.0000000000000000e+00
1514:0.0000000000000000e+00
1515:0.0000000000000000e+00
1516:0.0000000000000000e+00
1517:0.0000000000000000e+00
1518:0.0000000000000000e+00
1519:0.0000000000000000e+00
1520:0.0000000000000000e+00
1521:0.0000000000000000e+00
1522:0.0000000000000000e+00
1523:0.0000000000000000e+00
1524:0.0000000000000000e+00
1525:0.0000000000000000e+00
1526:0.0000000000000000e+00
1527:0.0000000000000000e+00
1528:0.0000000000000000e+00
1529:0.0000000000000000e+00
1530:0.0000000000000000e+00
1531:0.0000000000000000e+00
1532:0.0000000000000000e+00
1533:0.0000000000000000e+00
1534:0.0000000000000000e+00
1535:0.0000000000000000e+00
1536:0.0000000000000000e+00
1537:0.0000000000000000e+00
1538:0.0000000000000000e+00
1539:0.0000000000000000e+00
1540:0.0000000000000000e+00
1541:0.0000000000000000e+00
1542:0.0000000000000000e+00
1543:0.0000000000000000e+00
1544:0.0000000000000000e+00
1545:0.0000000000000000e+00
1546:0.0000000000000000e+00
1547:0.0000000000000000e+00
1548:0.0000000000000000e+00
1549:0.0000000000000000e+00
1550:0.0000000000000000e+00
1551:0.0000000000000000e+00
1552:0.0000000000000000e+00
1553:0.0000000000000000e+00
1554:0.0000000000000000e+00
1555:0.0000000000000000e+00
1556:0.0000000000000000e+00
1557:0.0000000000000000e+00
1558:0.0000000000000000e+00
1559:0.0000000000000000e+00
1560:0.0000000000000000e+00
1561:0.0000000000000000e+00
1562:0.0000000000000000e+00
1563:0.0000000000000000e+00
1564:0.0000000000000000e+00
1565:0.0000000000000000e+00
1566:0.0000000000000000e+00
1567:0.0000000000000000e+00
1568:0.0000000000000000e+00
1569:0.0000000000000000e+00
1570:0.0000000000000000e+00
1571:0.0000000000000000e+00
1572:0.0000000000000000e+00
1573:0.0000000000000000e+00
1574:0.0000000000000000e+00
1575:0.0000000000000000e+00
1576:0.0000000000000000e+00
1577:0.0000000000000000e+00
1578:0.0000000000000000e+00
1579:0.0000000000000000e+00
1580:0.0000000000000000e+00
1581:0.0000000000000000e+00
1582:0.0000000000000000e+00
1583:0.0000000000000000e+00
1584:0.0000000000000000e+00
1585:0.0000000000000000e+00
1586:0.0000000000000000e+00
1587:0.0000000000000000e+00
1588:0.0000000000000000e+00
1589:0.0000000000000000e+00
1590:0.0000000000000000e+00
1591:0.0000000000000000e+00
1592:0.0000000000000000e+00
1593:0.0000000000000000e+00
1594:0.0000000000000000e+00
1595:0.0000000000000000e+00
1596:0.0000000000000000e+00
1597:0.0000000000000000e+00
1598:0.0000000000000000e+00
1599:0.0000000000000000e+00
1600:0.0000000000000000e+00
1601:0.0000000000000000e+00
1602:0.0000000000000000e+00
1603:0.0000000000000000e+00
1604:0.0000000000000000e+00
1605:0.0000000000000000e+00
1606:0.0000000000000000e+00
1607:0.0000000000000000e+00
1608:0.0000000000000000e+00
1609:0.0000000000000000e+00
1610:0.0000000000000000e+00
1611:0.0000000000000000e+00
1612:0.0000000000000000e+00
1613:0.0000000000000000e+00
1614:0.0000000000000000e+00
1615:0.0000000000000000e+00
1616:0.0000000000000000e+00
1617:0.0000000000000000e+00
1618:0.0000000000000000e+00
1619:0.0000000000000000e+00
1620:0.0000000000000000e+00
1621:0.0000000000000000e+00
1622:0.0000000000000000e+00
1623:0.0000000000000000e+00
1624:0.0000000000000000e+00
1625:0.0000000000000000e+00
1626:0.0000000000000000e+00
1627:0.0000000000000000e+00
1628:0.0000000000000000e+00
1629:0.0000000000000000e+00
1630:0.0000000000000000e+00
1631:0.0000000000000000e+00
1632:0.0000000000000000e+00
1633:0.0000000000000000e+00
1634:0.0000000000000000e+00
1635:0.0000000000000000e+00
1636:0.0000000000000000e+00
1637:0.0000000000000000e+00
1638:0.0000000000000000e+00
1639:0.0000000000000000e+00
1640:0.0000000000000000e+00
1641:0.0000000000000000e+00
1642:0.0000000000000000e+00
1643:0.0000000000000000e+00
1644:0.0000000000000000e+00
1645:0.0000000000000000e+00
1646:0.0000000000000000e+00
1647:0.0000000000000000e+00
1648:0.0000000000000000e+00
1649:0.0000000000000000e+00
1650:0.0000000000000000e+00
1651:0.0000000000000000e+00
1652:0.0000000000000000e+00
1653:0.0000000000000000e+00
1654:0.0000000000000000e+00
1655:0.0000000000000000e+00
1656:0.0000000000000000e+00
1657:0.0000000000000000e+00
1658:0.0000000000000000e+00
1659:0.0000000000000000e+00
1660:0.0000000000000000e+00
1661:0.0000000000000000e+00
1662:0.0000000000000000e+00
1663:0.0000000000000000e+00
1664:0.0000000000000000e+00
1665:0.0000000000000000e+00
1666:0.0000000000000000e+00
1667:0.0000000000000000e+00
1668:0.0000000000000000e+00
1669:0.0000000000000000e+00
1670:0.0000000000000000e+00
1671:0.0000000000000000e+00
1672:0.0000000000000000e+00
1673:0.0000000000000000e+00
1674:0.0000000000000000e+00
1675:0.0000000000000000e+00
1676:0.0000000000000000e+00
1677:0.0000000000000000e+00
1678:0.0000000000000000e+00
1679:0.0000000000000000e+00
1680:0.0000000000000000e+00
1681:0.0000000000000000e+00
1682:0.0000000000000000e+00
1683:0.0000000000000000e+00
1684:0.0000000000000000e+00
1685:0.0000000000000000e+00
1686:0.0000000000000000e+00
1687:0.0000000000000000e+00
1688:0.0000000000000000e+00
1689:0.0000000000000000e+00
1690:0.0000000000000000e+00
1691:0.0000000000000000e+00
1692:0.0000000000000000e+00
1693:0.0000000000000000e+00
1694:0.0000000000000000e+00
1695:0.0000000000000000e+00
1696:0.0000000000000000e+00
1697:0.0000000000000000e+00
1698:0.0000000000000000e+00
1699:0.0000000000000000e+00
1700:0.0000000000000000e+00
1701:0.0000000000000000e+00
1702:0.0000000000000000e+00
1703:0.0000000000000000e+00
1704:0.0000000000000000e+00
1705:0.0000000000000000e+00
1706:0.0000000000000000e+00
1707:0.0000000000000000e+00
1708:0.0000000000000000e+00
1709:0.0000000000000000e+00
1710:0.0000000000000000e+00
1711:0.0000000000000000e+00
1712:0.0000000000000000e+00
1713:0.0000000000000000e+00
1714:0.0000000000000000e+00
1715:0.0000000000000000e+00
1716:0.0000000000000000e+00
1717:0.0000000000000000e+00
1718:0.0000000000000000e+00
1719:0.0000000000000000e+00
1720:0.0000000000000000e+00
1721:0.0000000000000000e+00
1722:0.0000000000000000e+00
1723:0.0000000000000000e+00
1724:0.0000000000000000e+00
1725:0.0000000000000000e+00
1726:0.0000000000000000e+00
1727:0.0000000000000000e+00
1728:0.0000000000000000e+00
1729:0.0000000000000000e+00
1730:0.0000000000000000e+00
1731:0.0000000000000000e+00
1732:0.0000000000000000e+00
1733:0.0000000000000000e+00
1734:0.0000000000000000e+00
1735:0.0000000000000000e+00
1736:0.0000000000000000e+00
1737:0.0000000000000000e+00
1738:0.0000000000000000e+00
1739:0.0000000000000000e+00
1740:0.0000000000000000e+00
1741:0.0000000000000000e+00
1742:0.0000000000000000e+00
1743:0.0000000000000000e+00
1744:0.0000000000000000e+00
1745:0.0000000000000000e+00
1746:0.0000000000000000e+00
1747:0.0000000000000000e+00
1748:0.0000000000000000e+00
1749:0.0000000000000000e+00
1750:0.0000000000000000e+00
1751:0.0000000000000000e+00
1752:0.0000000000000000e+00
1753:0.0000000000000000e+00
1754:0.0000000000000000e+00
1755:0.0000000000000000e+00
1756:0.0000000000000000e+00
1757:0.0000000000000000e+00
1758:0.0000000000000000e+00
1759:0.0000000000000000e+00
1760:0.0000000000000000e+00
1761:0.0000000000000000e+00
1762:0.0000000000000000e+00
1763:0.0000000000000000e+00
1764:0.0000000000000000e+00
1765:0.0000000000000000e+00
1766:0.0000000000000000e+00
1767:0.0000000000000000e+00
1768:0.0000000000000000e+00
1769:0.0000000000000000e+00
1770:0.0000000000000000e+00
1771:0.0000000000000000e+00
1772:0.0000000000000000e+00
1773:0.0000000000000000e+00
1774:0.0000000000000000e+00
1775:0.0000000000000000e+00
1776:0.0000000000000000e+00
1777:0.0000000000000000e+00
1778:0.0000000000000000e+00
1779:0.0000000000000000e+00
1780:0.0000000000000000e+00
1781:0.0000000000000000e+00
1782:0.0000000000000000e+00
1783:0.0000000000000000e+00
1784:0.0000000000000000e+00
1785:0.0000000000000000e+00
1786:0.0000000000000000e+00
1787:0.0000000000000000e+00
1788:0.0000000000000000e+00
1789:0.0000000000000000e+00
1790:0.0000000000000000e+00
1791:0.0000000000000000e+00
1792:0.0000000000000000e+00
1793:0.0000000000000000e+00
1794:0.0000000000000000e+00
1795:0.0000000000000000e+00
1796:0.0000000000000000e+00
1797:0.0000000000000000e+00
1798:0.0000000000000000e+00
1799:0.0000000000000000e+00
1800:0.0000000000000000e+00
1801:0.0000000000000000e+00
1802:0.0000000000000000e+00
1803:0.0000000000000000e+00
1804:0.0000000000000000e+00
1805:0.0000000000000000e+00
1806:0.0000000000000000e+00
1807:0.0000000000000000e+00
1808:0.0000000000000000e+00
1809:0.0000000000000000e+00
1810:0.0000000000000000e+00
1811:0.0000000000000000e+00
1812:0.0000000000000000e+00
1813:0.0000000000000000e+00
1814:0.0000000000000000e+00
1815:0.0000000000000000e+00
1816:0.0000000000000000e+00
1817:0.0000000000000000e+00
1818:0.0000000000000000e+00
1819:0.0000000000000000e+00
1820:0.0000000000000000e+00
1821:0.0000000000000000e+00
1822:0.0000000000000000e+00
1823:0.0000000000000000e+00
1824:0.0000000000000000e+00
1825:0.0000000000000000e+00
1826:0.0000000000000000e+00
1827:0.0000000000000000e+00
1828:0.0000000000000000e+00
1829:0.0000000000000000e+00
1830:0.0000000000000000e+00
1831:0.0000000000000000e+00
1832:0.0000000000000000e+00
1833:0.0000000000000000e+00
1834:0.0000000000000000e+00
1835:0.0000000000000000e+00
1836:0.0000000000000000e+00
1837:0.0000000000000000e+00
1838:0.0000000000000000e+00
1839:0.0000000000000000e+00
1840:0.0000000000000000e+00
1841:0.0000000000000000e+00
1842:0.0000000000000000e+00
1843:0.0000000000000000e+00
1844:0.0000000000000000e+00
1845:0.0000000000000000e+00
1846:0.0000000000000000e+00
1847:0.0000000000000000e+00
1848:0.0000000000000000e+00
1849:0.0000000000000000e+00
1850:0.0000000000000000e+00
1851:0.0000000000000000e+00
1852:0.0000000000000000e+00
1853:0.0000000000000000e+00
1854:0.0000000000000000e+00
1855:0.0000000000000000e+00
1856:0.0000000000000000e+00
1857:0.0000000000000000e+00
1858:0.0000000000000000e+00
1859:0.0000000000000000e+00
1860:0.0000000000000000e+00
1861:0.0000000000000000e+00
1862:0.0000000000000000e+00
1863:0.0000000000000000e+00
1864:0.0000000000000000e+00
1865:0.0000000000000000e+00
1866:0.0000000000000000e+00
1867:0.0000000000000000e+00
1868:0.0000000000000000e+00
1869:0.0000000000000000e+00
1870:0.0000000000000000e+00
1871:0.0000000000000000e+00
1872:0.0000000000000000e+00
1873:0.0000000000000000e+00
1874:0.0000000000000000e+00
1875:0.0000000000000000e+00
1876:0.0000000000000000e+00
1877:0.0000000000000000e+00
1878:0.0000000000000000e+00
1879:0.0000000000000000e+00
1880:0.0000000000000000e+00
1881:0.0000000000000000e+00
1882:0.0000000000000000e+00
1883:0.0000000000000000e+00
1884:0.0000000000000000e+00
1885:0.0000000000000000e+00
1886:0.0000000000000000e+00
1887:0.0000000000000000e+00
1888:0.0000000000000000e+00
1889:0.0000000000000000e+00
1890:0.0000000000000000e+00
1891:0.0000000000000000e+00
1892:0.0000000000000000e+00
1893:0.0000000000000000e+00
1894:0.0000000000000000e+00
1895:0.0000000000000000e+00
1896:0.0000000000000000e+00
1897:0.0000000000000000e+00
1898:0.0000000000000000e+00
1899:0.0000000000000000e+00
1900:0.0000000000000000e+00
1901:0.0000000000000000e+00
1902:0.0000000000000000e+00
1903:0.0000000000000000e+00
1904:0.0000000000000000e+00
1905:0.0000000000000000e+00
1906:0.0000000000000000e+00
1907:0.0000000000000000e+00
1908:0.0000000000000000e+00
1909:0.0000000000000000e+00
1910:0.0000000000000000e+00
1911:0.0000000000000000e+00
1912:0.0000000000000000e+00
1913:0.0000000000000000e+00
1914:0.0000000000000000e+00
1915:0.0000000000000000e+00
1916:0.0000000000000000e+00
1917:0.0000000000000000e+00
1918:0.0000000000000000e+00
1919:0.0000000000000000e+00
1920:0.0000000000000000e+00
1921:0.0000000000000000e+00
1922:0.0000000000000000e+00
1923:0.0000000000000000e+00
1924:0.0000000000000000e+00
1925:0.0000000000000000e+00
1926:0.0000000000000000e+00
1927:0.0000000000000000e+00
1928:0.0000000000000000e+00
1929:0.0000000000000000e+00
1930:0.0000000000000000e+00
1931:0.0000000000000000e+00
1932:0.0000000000000000e+00
1933:0.0000000000000000e+00
1934:0.0000000000000000e+00
1935:0.0000000000000000e+00
1936:0.0000000000000000e+00
1937:0.0000000000000000e+00
1938:0.0000000000000000e+00
1939:0.0000000000000000e+00
1940:0.0000000000000000e+00
1941:0.0000000000000000e+00
1942:0.0000000000000000e+00
1943:0.0000000000000000e+00
1944:0.0000000000000000e+00
1945:0.0000000000000000e+00
1946:0.0000000000000000e+00
1947:0.0000000000000000e+00
1948:0.0000000000000000e+00
1949:0.0000000000000000e+00
1950:0.0000000000000000e+00
1951:0.0000000000000000e+00
1952:0.0000000000000000e+00
1953:0.0000000000000000e+00
1954:0.0000000000000000e+00
1955:0.0000000000000000e+00
1956:0.0000000000000000e+00
1957:0.0000000000000000e+00
1958:0.0000000000000000e+00
1959:0.0000000000000000e+00
1960:0.0000000000000000e+00
1961:0.0000000000000000e+00
1962:0.0000000000000000e+00
1963:0.0000000000000000e+00
1964:0.0000000000000000e+00
1965:0.0000000000000000e+00
1966:0.0000000000000000e+00
1967:0.0000000000000000e+00
1968:0.0000000000000000e+00
1969:0.0000000000000000e+00
1970:0.0000000000000000e+00
1971:0.0000000000000000e+00
1972:0.0000000000000000e+00
1973:0.0000000000000000e+00
1974:0.0000000000000000e+00
1975:0.0000000000000000e+00
1976:0.0000000000000000e+00
1977:0.0000000000000000e+00
1978:0.0000000000000000e+00
1979:0.0000000000000000e+00
1980:0.0000000000000000e+00
1981:0.0000000000000000e+00
1982:0.0000000000000000e+00
1983:0.0000000000000000e+00
1984:0.0000000000000000e+00
1985:0.0000000000000000e+00
1986:0.0000000000000000e+00
1987:0.0000000000000000e+00
1988:0.0000000000000000e+00
1989:0.0000000000000000e+00
1990:0.0000000000000000e+00
1991:0.0000000000000000e+00
1992:0.0000000000000000e+00
1993:0.0000000000000000e+00
1994:0.0000000000000000e+00
1995:0.0000000000000000e+00
1996:0.0000000000000000e+00
1997:0.0000000000000000e+00
1998:0.0000000000000000e+00
1999:0.0000000000000000e+00
2000:0.0000000000000000e+00
2001:0.0000000000000000e+00
2002:0.0000000000000000e+00
2003:0.0000000000000000e+00
2004:0.0000000000000000e+00
2005:0.0000000000000000e+00
2006:0.0000000000000000e+00
2007:0.0000000000000000e+00
2008:0.0000000000000000e+00
2009:0.0000000000000000e+00
2010:0.0000000000000000e+00
2011:0.0000000000000000e+00
2012:0.0000000000000000e+00
2013:0.0000000000000000e+00
2014:0.0000000000000000e+00
2015:0.0000000000000000e+00
2016:0.0000000000000000e+00
2017:0.0000000000000000e+00
2018:0.0000000000000000e+00
2019:0.0000000000000000e+00
2020:0.0000000000000000e+00
2021:0.0000000000000000e+00
2022:0.0000000000000000e+00
2023:0.0000000000000000e+00
2024:0.0000000000000000e+00
2025:0.0000000000000000e+00
2026:0.0000000000000000e+00
2027:0.0000000000000000e+00
2028:0.0000000000000000e+00
2029:0.0000000000000000e+00
2030:0.0000000000000000e+00
2031:0.0000000000000000e+00
2032:0.0000000000000000e+00
2033:0.0000000000000000e+00
2034:0.0000000000000000e+00
2035:0.0000000000000000e+00
2036:0.0000000000000000e+00
2037:0.0000000000000000e+00
2038:0.0000000000000000e+00
2039:0.0000000000000000e+00
2040:0.0000000000000000e+00
2041:0.0000000000000000e+00
2042:0.0000000000000000e+00
2043:0.0000000000000000e+00
2044:0.0000000000000000e+00
2045:0.0000000000000000e+00
2046:0.0000000000000000e+00
2047:0.0000000000000000e+00
2048:0.0000000000000000e+00
2049:0.0000000000000000e+00
2050:0.0000000000000000e+00
2051:0.0000000000000000e+00
2052:0.0000000000000000e+00
2053:0.0000000000000000e+00
2054:0.0000000000000000e+00
2055:0.0000000000000000e+00
2056:0.0000000000000000e+00
2057:0.0000000000000000e+00
2058:0.0000000000000000e+00
2059:0.0000000000000000e+00
2060:0.0000000000000000e+00
2061:0.0000000000000000e+00
2062:0.0000000000000000e+00
2063:0.0000000000000000e+00
2064:0.0000000000000000e+00
2065:0.0000000000000000e+00
2066:0.0000000000000000e+00
2067:0.0000000000000000e+00
2068:0.0000000000000000e+00
2069:0.0000000000000000e+00
2070:0.0000000000000000e+00
2071:0.0000000000000000e+00
2072:0.0000000000000000e+00
2073:0.0000000000000000e+00
2074:0.0000000000000000e+00
2075:0.0000000000000000e+00
2076:0.0000000000000000e+00
2077:0.0000000000000000e+00
2078:0.0000000000000000e+00
2079:0.0000000000000000e+00
2080:0.0000000000000000e+00
2081:0.0000000000000000e+00
2082:0.0000000000000000e+00
2083:0.0000000000000000e+00
2084:0.0000000000000000e+00
2085:0.0000000000000000e+00
2086:0.0000000000000000e+00
2087:0.0000000000000000e+00
2088:0.0000000000000000e+00
2089:0.0000000000000000e+00
2090:0.0000000000000000e+00
2091:0.0000000000000000e+00
2092:0.0000000000000000e+00
2093:0.0000000000000000e+00
2094:0.0000000000000000e+00
2095:0.0000000000000000e+00
2096:0.0000000000000000e+00
2097:0.0000000000000000e+00
2098:0.0000000000000000e+00
2099:0.0000000000000000e+00
2100:0.0000000000000000e+00
2101:0.0000000000000000e+00
2102:0.0000000000000000e+00
2103:0.0000000000000000e+00
2104:0.0000000000000000e+00
2105:0.0000000000000000e+00
2106:0.0000000000000000e+00
2107:0.0000000000000000e+00
2108:0.0000000000000000e+00
2109:0.0000000000000000e+00
2110:0.0000000000000000e+00
2111:0.0000000000000000e+00
2112:0.0000000000000000e+00
2113:0.0000000000000000e+00
2114:0.0000000000000000e+00
2115:0.0000000000000000e+00
2116:0.0000000000000000e+00
2117:0.0000000000000000e+00
2118:0.0000000000000000e+00
2119:0.0000000000000000e+00
2120:0.0000000000000000e+00
2121:0.0000000000000000e+00
2122:0.0000000000000000e+00
2123:0.0000000000000000e+00
2124:0.0000000000000000e+00
2125:0.0000000000000000e+00
2126:0.0000000000000000e+00
2127:0.0000000000000000e+00
2128:0.0000000000000000e+00
2129:0.0000000000000000e+00
2130:0.0000000000000000e+00
2131:0.0000000000000000e+00
2132:0.0000000000000000e+00
2133:0.0000000000000000e+00
2134:0.0000000000000000e+00
2135:0.0000000000000000e+00
2136:0.0000000000000000e+00
2137:0.0000000000000000e+00
2138:0.0000000000000000e+00
2139:0.0000000000000000e+00
2140:0.0000000000000000e+00
2141:0.0000000000000000e+00
2142:0.0000000000000000e+00
2143:0.0000000000000000e+00
2144:0.0000000000000000e+00
2145:0.0000000000000000e+00
2146:0.0000000000000000e+00
2147:0.0000000000000000e+00
2148:0.0000000000000000e+00
2149:0.0000000000000000e+00
2150:0.0000000000000000e+00
2151:0.0000000000000000e+00
2152:0.0000000000000000e+00
2153:0.0000000000000000e+00
2154:0.0000000000000000e+00
2155:0.0000000000000000e+00
2156:0.0000000000000000e+00
2157:0.0000000000000000e+00
2158:0.0000000000000000e+00
2159:0.0000000000000000e+00
2160:0.0000000000000000e+00
2161:0.0000000000000000e+00
2162:0.0000000000000000e+00
2163:0.0000000000000000e+00
2164:0.0000000000000000e+00
2165:0.0000000000000000e+00
2166:0.0000000000000000e+00
2167:0.0000000000000000e+00
2168:0.0000000000000000e+00
2169:0.0000000000000000e+00
2170:0.0000000000000000e+00
2171:0.0000000000000000e+00
2172:0.0000000000000000e+00
2173:0.0000000000000000e+00
2174:0.0000000000000000e+00
2175:0.0000000000000000e+00
2176:0.0000000000000000e+00
2177:0.0000000000000000e+00
2178:0.0000000000000000e+00
2179:0.0000000000000000e+00
2180:0.0000000000000000e+00
2181:0.0000000000000000e+00
2182:0.0000000000000000e+00
2183:0.0000000000000000e+00
2184:0.0000000000000000e+00
2185:0.0000000000000000e+00
2186:0.0000000000000000e+00
2187:0.0000000000000000e+00
2188:0.0000000000000000e+00
2189:0.0000000000000000e+00
2190:0.0000000000000000e+00
2191:0.0000000000000000e+00
2192:0.0000000000000000e+00
2193:0.0000000000000000e+00
2194:0.0000000000000000e+00
2195:0.0000000000000000e+00
2196:0.0000000000000000e+00
2197:0.0000000000000000e+00
2198:0.0000000000000000e+00
2199:0.0000000000000000e+00
2200:0.0000000000000000e+00
2201:0.0000000000000000e+00
2202:0.0000000000000000e+00
2203:0.0000000000000000e+00
2204:0.0000000000000000e+00
2205:0.0000000000000000e+00
2206:0.0000000000000000e+00
2207:0.0000000000000000e+00
2208:0.0000000000000000e+00
2209:0.0000000000000000e+00
2210:0.0000000000000000e+00
2211:0.0000000000000000e+00
2212:0.0000000000000000e+00
2213:0.0000000000000000e+00
2214:0.0000000000000000e+00
2215:0.0000000000000000e+00
2216:0.0000000000000000e+00
2217:0.0000000000000000e+00
2218:0.0000000000000000e+00
2219:0.0000000000000000e+00
2220:0.0000000000000000e+00
2221:0.0000000000000000e+00
2222:0.0000000000000000e+00
2223:0.0000000000000000e+00
2224:0.0000000000000000e+00
2225:0.0000000000000000e+00
2226:0.0000000000000000e+00
2227:0.0000000000000000e+00
2228:0.0000000000000000e+00
2229:0.0000000000000000e+00
2230:0.0000000000000000e+00
2231:0.0000000000000000e+00
2232:0.0000000000000000e+00
2233:0.0000000000000000e+00
2234:0.0000000000000000e+00
2235:0.0000000000000000e+00
2236:0.0000000000000000e+00
2237:0.0000000000000000e+00
2238:0.0000000000000000e+00
2239:0.0000000000000000e+00
2240:0.0000000000000000e+00
2241:0.0000000000000000e+00
2242:0.0000000000000000e+00
2243:0.0000000000000000e+00
2244:0.0000000000000000e+00
2245:0.0000000000000000e+00
2246:0.0000000000000000e+00
2247:0.0000000000000000e+00
2248:0.0000000000000000e+00
2249:0.0000000000000000e+00
2250:0.0000000000000000e+00
2251:0.0000000000000000e+00
2252:0.0000000000000000e+00
2253:0.0000000000000000e+00
2254:0.0000000000000000e+00
2255:0.0000000000000000e+00
2256:0.0000000000000000e+00
2257:0.0000000000000000e+00
2258:0.0000000000000000e+00
2259:0.0000000000000000e+00
2260:0.0000000000000000e+00
2261:0.0000000000000000e+00
2262:0.0000000000000000e+00
2263:0.0000000000000000e+00
2264:0.0000000000000000e+00
2265:0.0000000000000000e+00
2266:0.0000000000000000e+00
2267:0.0000000000000000e+00
2268:0.0000000000000000e+00
2269:0.0000000000000000e+00
2270:0.0000000000000000e+00
2271:0.0000000000000000e+00
2272:0.0000000000000000e+00
2273:0.0000000000000000e+00
2274:0.0000000000000000e+00
2275:0.0000000000000000e+00
2276:0.0000000000000000e+00
2277:0.0000000000000000e+00
2278:0.0000000000000000e+00
2279:0.0000000000000000e+00
2280:0.0000000000000000e+00
2281:0.0000000000000000e+00
2282:0.0000000000000000e+00
2283:0.0000000000000000e+00
2284:0.0000000000000000e+00
2285:0.0000000000000000e+00
2286:0.0000000000000000e+00
2287:0.0000000000000000e+00
2288:0.0000000000000000e+00
2289:0.0000000000000000e+00
2290:0.0000000000000000e+00
2291:0.0000000000000000e+00
2292:0.0000000000000000e+00
2293:0.0000000000000000e+00
2294:0.0000000000000000e+00
2295:0.0000000000000000e+00
2296:0.0000000000000000e+00
2297:0.0000000000000000e+00
2298:0.0000000000000000e+00
2299:0.0000000000000000e+00
2300:0.0000000000000000e+00
2301:0.0000000000000000e+00
2302:0.0000000000000000e+00
2303:0.0000000000000000e+00
2304:0.0000000000000000e+00
2305:0.0000000000000000e+00
2306:0.0000000000000000e+00
2307:0.0000000000000000e+00
2308:0.0000000000000000e+00
2309:0.0000000000000000e+00
2310:0.0000000000000000e+00
2311:0.0000000000000000e+00
2312:0.0000000000000000e+00
2313:0.0000000000000000e+00
2314:0.0000000000000000e+00
2315:0.0000000000000000e+00
2316:0.0000000000000000e+00
2317:0.0000000000000000e+00
2318:0.0000000000000000e+00
2319:0.0000000000000000e+00
2320:0.0000000000000000e+00
2321:0.0000000000000000e+00
2322:0.0000000000000000e+00
2323:0.0000000000000000e+00
2324:0.0000000000000000e+00
2325:0.0000000000000000e+00
2326:0.0000000000000000e+00
2327:0.0000000000000000e+00
2328:0.0000000000000000e+00
2329:0.0000000000000000e+00
2330:0.0000000000000000e+00
2331:0.0000000000000000e+00
2332:0.0000000000000000e+00
2333:0.0000000000000000e+00
2334:0.0000000000000000e+00
2335:0.0000000000000000e+00
2336:0.0000000000000000e+00
2337:0.0000000000000000e+00
2338:0.0000000000000000e+00
2339:0.0000000000000000e+00
2340:0.0000000000000000e+00
2341:0.0000000000000000e+00
2342:0.0000000000000000e+00
2343:0.0000000000000000e+00
2344:0.0000000000000000e+00
2345:0.0000000000000000e+00
2346:0.0000000000000000e+00
2347:0.0000000000000000e+00
2348:0.0000000000000000e+00
2349:0.0000000000000000e+00
2350:0.0000000000000000e+00
2351:0.0000000000000000e+00
2352:0.0000000000000000e+00
2353:0.0000000000000000e+00
2354:0.0000000000000000e+00
2355:0.0000000000000000e+00
2356:0.0000000000000000e+00
2357:0.0000000000000000e+00
2358:0.0000000000000000e+00
2359:0.0000000000000000e+00
2360:0.0000000000000000e+00
2361:0.0000000000000000e+00
2362:0.0000000000000000e+00
2363:0.0000000000000000e+00
2364:0.0000000000000000e+00
2365:0.0000000000000000e+00
2366:0.0000000000000000e+00
2367:0.0000000000000000e+00
2368:0.0000000000000000e+00
2369:0.0000000000000000e+00
2370:0.0000000000000000e+00
2371:0.0000000000000000e+00
2372:0.0000000000000000e+00
2373:0.0000000000000000e+00
2374:0.0000000000000000e+00
2375:0.0000000000000000e+00
2376:0.0000000000000000e+00
2377:0.0000000000000000e+00
2378:0.0000000000000000e+00
2379:0.0000000000000000e+00
2380:0.0000000000000000e+00
2381:0.0000000000000000e+00
2382:0.0000000000000000e+00
2383:0.0000000000000000e+00
2384:0.0000000000000000e+00
2385:0.0000000000000000e+00
2386:0.0000000000000000e+00
2387:0.0000000000000000e+00
2388:0.0000000000000000e+00
2389:0.0000000000000000e+00
2390:0.0000000000000000e+00
2391:0.0000000000000000e+00
2392:0.0000000000000000e+00
2393:0.0000000000000000e+00
2394:0.0000000000000000e+00
2395:0.0000000000000000e+00
2396:0.0000000000000000e+00
2397:0.0000000000000000e+00
2398:0.0000000000000000e+00
2399:0.0000000000000000e+00
2400:0.0000000000000000e+00
2401:0.0000000000000000e+00
2402:0.0000000000000000e+00
2403:0.0000000000000000e+00
2404:0.0000000000000000e+00
2405:0.0000000000000000e+00
2406:0.0000000000000000e+00
2407:0.0000000000000000e+00
2408:0.0000000000000000e+00
2409:0.0000000000000000e+00
2410:0.0000000000000000e+00
2411:0.0000000000000000e+00
2412:0.0000000000000000e+00
2413:0.0000000000000000e+00
2414:0.0000000000000000e+00
2415:0.0000000000000000e+00
2416:0.0000000000000000e+00
2417:0.0000000000000000e+00
2418:0.0000000000000000e+00
2419:0.0000000000000000e+00
2420:0.0000000000000000e+00
2421:0.0000000000000000e+00
2422:0.0000000000000000e+00
2423:0.0000000000000000e+00
2424:0.0000000000000000e+00
2425:0.0000000000000000e+00
2426:0.0000000000000000e+00
2427:0.0000000000000000e+00
2428:0.0000000000000000e+00
2429:0.0000000000000000e+00
2430:0.0000000000000000e+00
2431:0.0000000000000000e+00
2432:0.0000000000000000e+00
2433:0.0000000000000000e+00
2434:0.0000000000000000e+00
2435:0.0000000000000000e+00
2436:0.0000000000000000e+00
2437:0.0000000000000000e+00
2438:0.0000000000000000e+00
2439:0.0000000000000000e+00
2440:0.0000000000000000e+00
2441:0.0000000000000000e+00
2442:0.0000000000000000e+00
2443:0.0000000000000000e+00
2444:0.0000000000000000e+00
2445:0.0000000000000000e+00
2446:0.0000000000000000e+00
2447:0.0000000000000000e+00
2448:0.0000000000000000e+00
2449:0.0000000000000000e+00
2450:0.0000000000000000e+00
2451:0.0000000000000000e+00
2452:0.0000000000000000e+00
2453:0.0000000000000000e+00
2454:0.0000000000000000e+00
2455:0.0000000000000000e+00
2456:0.0000000000000000e+00
2457:0.0000000000000000e+00
2458:0.0000000000000000e+00
2459:0.0000000000000000e+00
2460:0.0000000000000000e+00
2461:0.0000000000000000e+00
2462:0.0000000000000000e+00
2463:0.0000000000000000e+00
2464:0.0000000000000000e+00
2465:0.0000000000000000e+00
2466:0.0000000000000000e+00
2467:0.0000000000000000e+00
2468:0.0000000000000000e+00
2469:0.0000000000000000e+00
2470:0.0000000000000000e+00
2471:0.0000000000000000e+00
2472:0.0000000000000000e+00
2473:0.0000000000000000e+00
2474:0.0000000000000000e+00
2475:0.0000000000000000e+00
2476:0.0000000000000000e+00
2477:0.0000000000000000e+00
2478:0.0000000000000000e+00
2479:0.0000000000000000e+00
2480:0.0000000000000000e+00
2481:0.0000000000000000e+00
2482:0.0000000000000000e+00
2483:0.0000000000000000e+00
2484:0.0000000000000000e+00
2485:0.0000000000000000e+00
2486:0.0000000000000000e+00
2487:0.0000000000000000e+00
2488:0.0000000000000000e+00
2489:0.0000000000000000e+00
2490:0.0000000000000000e+00
2491:0.0000000000000000e+00
2492:0.0000000000000000e+00
2493:0.0000000000000000e+00
2494:0.0000000000000000e+00
2495:0.0000000000000000e+00
2496:0.0000000000000000e+00
2497:0.0000000000000000e+00
2498:0.0000000000000000e+00
2499:0.0000000000000000e+00
2500:0.0000000000000000e+00
2501:0.0000000000000000e+00
2502:0.0000000000000000e+00
2503:0.0000000000000000e+00
2504:0.0000000000000000e+00
2505:0.0000000000000000e+00
2506:0.0000000000000000e+00
2507:0.0000000000000000e+00
2508:0.0000000000000000e+00
2509:0.0000000000000000e+00
2510:0.0000000000000000e+00
2511:0.0000000000000000e+00
2512:0.0000000000000000e+00
2513:0.0000000000000000e+00
2514:0.0000000000000000e+00
2515:0.0000000000000000e+00
2516:0.0000000000000000e+00
2517:0.0000000000000000e+00
2518:0.0000000000000000e+00
2519:0.0000000000000000e+00
2520:0.0000000000000000e+00
2521:0.0000000000000000e+00
2522:0.0000000000000000e+00
2523:0.0000000000000000e+00
2524:0.0000000000000000e+00
2525:0.0000000000000000e+00
2526:0.0000000000000000e+00
2527:0.0000000000000000e+00
2528:0.0000000000000000e+00
2529:0.0000000000000000e+00
2530:0.0000000000000000e+00
2531:0.0000000000000000e+00
2532:0.0000000000000000e+00
2533:0.0000000000000000e+00
2534:0.0000000000000000e+00
2535:0.0000000000000000e+00
2536:0.0000000000000000e+00
2537:0.0000000000000000e+00
2538:0.0000000000000000e+00
2539:0.0000000000000000e+00
2540:0.0000000000000000e+00
2541:0.0000000000000000e+00
2542:0.0000000000000000e+00
2543:0.0000000000000000e+00
2544:0.0000000000000000e+00
2545:0.0000000000000000e+00
2546:0.0000000000000000e+00
2547:0.0000000000000000e+00
2548:0.0000000000000000e+00
2549:0.0000000000000000e+00
2550:0.0000000000000000e+00
2551:0.0000000000000000e+00
2552:0.0000000000000000e+00
2553:0.0000000000000000e+00
2554:0.0000000000000000e+00
2555:0.0000000000000000e+00
2556:0.0000000000000000e+00
2557:0.0000000000000000e+00
2558:0.0000000000000000e+00
2559:0.0000000000000000e+00
2560:0.0000000000000000e+00
2561:0.0000000000000000e+00
2562:0.0000000000000000e+00
2563:0.0000000000000000e+00
2564:0.0000000000000000e+00
2565:0.0000000000000000e+00
2566:0.0000000000000000e+00
2567:0.0000000000000000e+00
2568:0.0000000000000000e+00
2569:0.0000000000000000e+00
2570:0.0000000000000000e+00
2571:0.0000000000000000e+00
2572:0.0000000000000000e+00
2573:0.0000000000000000e+00
2574:0.0000000000000000e+00
2575:0.0000000000000000e+00
2576:0.0000000000000000e+00
2577:0.0000000000000000e+00
2578:0.0000000000000000e+00
2579:0.0000000000000000e+00
2580:0.0000000000000000e+00
2581:0.0000000000000000e+00
2582:0.0000000000000000e+00
2583:0.0000000000000000e+00
2584:0.0000000000000000e+00
2585:0.0000000000000000e+00
2586:0.0000000000000000e+00
2587:0.0000000000000000e+00
2588:0.0000000000000000e+00
2589:0.0000000000000000e+00
2590:0.0000000000000000e+00
2591:0.0000000000000000e+00
2592:0.0000000000000000e+00
2593:0.0000000000000000e+00
2594:0.0000000000000000e+00
2595:0.0000000000000000e+00
2596:0.0000000000000000e+00
2597:0.0000000000000000e+00
2598:0.0000000000000000e+00
2599:0.0000000000000000e+00
2600:0.0000000000000000e+00
2601:0.0000000000000000e+00
2602:0.0000000000000000e+00
2603:0.0000000000000000e+00
2604:0.0000000000000000e+00
2605:0.0000000000000000e+00
2606:0.0000000000000000e+00
2607:0.0000000000000000e+00
2608:0.0000000000000000e+00
2609:0.0000000000000000e+00
2610:0.0000000000000000e+00
2611:0.0000000000000000e+00
2612:0.0000000000000000e+00
2613:0.0000000000000000e+00
2614:0.0000000000000000e+00
2615:0.0000000000000000e+00
2616:0.0000000000000000e+00
2617:0.0000000000000000e+00
2618:0.0000000000000000e+00
2619:0.0000000000000000e+00
2620:0.0000000000000000e+00
2621:0.0000000000000000e+00
2622:0.0000000000000000e+00
2623:0.0000000000000000e+00
2624:0.0000000000000000e+00
2625:0.0000000000000000e+00
2626:0.0000000000000000e+00
2627:0.0000000000000000e+00
2628:0.0000000000000000e+00
2629:0.0000000000000000e+00
2630:0.0000000000000000e+00
2631:0.0000000000000000e+00
2632:0.0000000000000000e+00
2633:0.0000000000000000e+00
2634:0.0000000000000000e+00
2635:0.0000000000000000e+00
2636:0.0000000000000000e+00
2637:0.0000000000000000e+00
2638:0.0000000000000000e+00
2639:0.0000000000000000e+00
2640:0.0000000000000000e+00
2641:0.0000000000000000e+00
2642:0.0000000000000000e+00
2643:0.0000000000000000e+00
2644:0.0000000000000000e+00
2645:0.0000000000000000e+00
2646:0.0000000000000000e+00
2647:0.0000000000000000e+00
2648:0.0000000000000000e+00
2649:0.0000000000000000e+00
2650:0.0000000000000000e+00
2651:0.0000000000000000e+00
2652:0.0000000000000000e+00
2653:0.0000000000000000e+00
2654:0.0000000000000000e+00
2655:0.0000000000000000e+00
2656:0.0000000000000000e+00
2657:0.0000000000000000e+00
2658:0.0000000000000000e+00
2659:0.0000000000000000e+00
2660:0.0000000000000000e+00
2661:0.0000000000000000e+00
2662:0.0000000000000000e+00
2663:0.0000000000000000e+00
2664:0.0000000000000000e+00
2665:0.0000000000000000e+00
2666:0.0000000000000000e+00
2667:0.0000000000000000e+00
2668:0.0000000000000000e+00
2669:0.0000000000000000e+00
2670:0.0000000000000000e+00
2671:0.0000000000000000e+00
2672:0.0000000000000000e+00
2673:0.0000000000000000e+00
2674:0.0000000000000000e+00
2675:0.0000000000000000e+00
2676:0.0000000000000000e+00
2677:0.0000000000000000e+00
2678:0.0000000000000000e+00
2679:0.0000000000000000e+00
2680:0.0000000000000000e+00
2681:0.0000000000000000e+00
2682:0.0000000000000000e+00
2683:0.0000000000000000e+00
2684:0.0000000000000000e+00
2685:0.0000000000000000e+00
2686:0.0000000000000000e+00
2687:0.0000000000000000e+00
2688:0.0000000000000000e+00
2689:0.0000000000000000e+00
2690:0.0000000000000000e+00
2691:0.0000000000000000e+00
2692:0.0000000000000000e+00
2693:0.0000000000000000e+00
2694:0.0000000000000000e+00
2695:0.0000000000000000e+00
2696:0.0000000000000000e+00
2697:0.0000000000000000e+00
2698:0.0000000000000000e+00
2699:0.0000000000000000e+00
2700:0.0000000000000000e+00
2701:0.0000000000000000e+00
2702:0.0000000000000000e+00
2703:0.0000000000000000e+00
2704:0.0000000000000000e+00
2705:0.0000000000000000e+00
2706:0.0000000000000000e+00
2707:0.0000000000000000e+00
2708:0.0000000000000000e+00
2709:0.0000000000000000e+00
2710:0.0000000000000000e+00
2711:0.0000000000000000e+00
2712:0.0000000000000000e+00
2713:0.0000000000000000e+00
2714:0.0000000000000000e+00
2715:0.0000000000000000e+00
2716:0.0000000000000000e+00
2717:0.0000000000000000e+00
2718:0.0000000000000000e+00
2719:0.0000000000000000e+00
2720:0.0000000000000000e+00
2721:0.0000000000000000e+00
2722:0.0000000000000000e+00
2723:0.0000000000000000e+00
2724:0.0000000000000000e+00
2725:0.0000000000000000e+00
2726:0.0000000000000000e+00
2727:0.0000000000000000e+00
2728:0.0000000000000000e+00
2729:0.0000000000000000e+00
2730:0.0000000000000000e+00
2731:0.0000000000000000e+00
2732:0.0000000000000000e+00
2733:0.0000000000000000e+00
2734:0.0000000000000000e+00
2735:0.0000000000000000e+00
2736:0.0000000000000000e+00
2737:0.0000000000000000e+00
2738:0.0000000000000000e+00
2739:0.0000000000000000e+00
2740:0.0000000000000000e+00
2741:0.0000000000000000e+00
2742:0.0000000000000000e+00
2743:0.0000000000000000e+00
2744:0.0000000000000000e+00
2745:0.0000000000000000e+00
2746:0.0000000000000000e+00
2747:0.0000000000000000e+00
2748:0.0000000000000000e+00
2749:0.0000000000000000e+00
2750:0.0000000000000000e+00
2751:0.0000000000000000e+00
2752:0.0000000000000000e+00
2753:0.0000000000000000e+00
2754:0.0000000000000000e+00
2755:0.0000000000000000e+00
2756:0.0000000000000000e+00
2757:0.0000000000000000e+00
2758:0.0000000000000000e+00
2759:0.0000000000000000e+00
2760:0.0000000000000000e+00
2761:0.0000000000000000e+00
2762:0.0000000000000000e+00
2763:0.0000000000000000e+00
2764:0.0000000000000000e+00
2765:0.0000000000000000e+00
2766:0.0000000000000000e+00
2767:0.0000000000000000e+00
2768:0.0000000000000000e+00
2769:0.0000000000000000e+00
2770:0.0000000000000000e+00
2771:0.0000000000000000e+00
2772:0.0000000000000000e+00
2773:0.0000000000000000e+00
2774:0.0000000000000000e+00
2775:0.0000000000000000e+00
2776:0.0000000000000000e+00
2777:0.0000000000000000e+00
2778:0.0000000000000000e+00
2779:0.0000000000000000e+00
2780:0.0000000000000000e+00
2781:0.0000000000000000e+00
2782:0.0000000000000000e+00
2783:0.0000000000000000e+00
2784:0.0000000000000000e+00
2785:0.0000000000000000e+00
2786:0.0000000000000000e+00
2787:0.0000000000000000e+00
2788:0.0000000000000000e+00
2789:0.0000000000000000e+00
2790:0.0000000000000000e+00
2791:0.0000000000000000e+00
2792:0.0000000000000000e+00
2793:0.0000000000000000e+00
2794:0.0000000000000000e+00
2795:0.0000000000000000e+00
2796:0.0000000000000000e+00
2797:0.0000000000000000e+00
2798:0.0000000000000000e+00
2799:0.0000000000000000e+00
2800:0.0000000000000000e+00
2801:0.0000000000000000e+00
2802:0.0000000000000000e+00
2803:0.0000000000000000e+00
2804:0.0000000000000000e+00
2805:0.0000000000000000e+00
2806:0.0000000000000000e+00
2807:0.0000000000000000e+00
2808:0.0000000000000000e+00
2809:0.0000000000000000e+00
2810:0.0000000000000000e+00
2811:0.0000000000000000e+00
2812:0.0000000000000000e+00
2813:0.0000000000000000e+00
2814:0.0000000000000000e+00
2815:0.0000000000000000e+00
2816:0.0000000000000000e+00
2817:0.0000000000000000e+00
2818:0.0000000000000000e+00
2819:0.0000000000000000e+00
2820:0.0000000000000000e+00
2821:0.0000000000000000e+00
2822:0.0000000000000000e+00
2823:0.0000000000000000e+00
2824:0.0000000000000000e+00
2825:0.0000000000000000e+00
2826:0.0000000000000000e+00
2827:0.0000000000000000e+00
2828:0.0000000000000000e+00
2829:0.0000000000000000e+00
2830:0.0000000000000000e+00
2831:0.0000000000000000e+00
2832:0.0000000000000000e+00
2833:0.0000000000000000e+00
2834:0.0000000000000000e+00
2835:0.0000000000000000e+00
2836:0.0000000000000000e+00
2837:0.0000000000000000e+00
2838:0.0000000000000000e+00
2839:0.0000000000000000e+00
2840:0.0000000000000000e+00
2841:0.0000000000000000e+00
2842:0.0000000000000000e+00
2843:0.0000000000000000e+00
2844:0.0000000000000000e+00
2845:0.0000000000000000e+00
2846:0.0000000000000000e+00
2847:0.0000000000000000e+00
2848:0.0000000000000000e+00
2849:0.0000000000000000e+00
2850:0.0000000000000000e+00
2851:0.0000000000000000e+00
2852:0.0000000000000000e+00
2853:0.0000000000000000e+00
2854:0.0000000000000000e+00
2855:0.0000000000000000e+00
2856:0.0000000000000000e+00
2857:0.0000000000000000e+00
2858:0.0000000000000000e+00
2859:0.0000000000000000e+00
2860:0.0000000000000000e+00
2861:0.0000000000000000e+00
2862:0.0000000000000000e+00
2863:0.0000000000000000e+00
2864:0.0000000000000000e+00
2865:0.0000000000000000e+00
2866:0.0000000000000000e+00
2867:0.0000000000000000e+00
2868:0.0000000000000000e+00
2869:0.0000000000000000e+00
2870:0.0000000000000000e+00
2871:0.0000000000000000e+00
2872:0.0000000000000000e+00
2873:0.0000000000000000e+00
2874:0.0000000000000000e+00
2875:0.0000000000000000e+00
2876:0.0000000000000000e+00
2877:0.0000000000000000e+00
2878:0.0000000000000000e+00
2879:0.0000000000000000e+00
2880:0.0000000000000000e+00
2881:0.0000000000000000e+00
2882:0.0000000000000000e+00
2883:0.0000000000000000e+00
2884:0.0000000000000000e+00
2885:0.0000000000000000e+00
2886:0.0000000000000000e+00
2887:0.0000000000000000e+00
2888:0.0000000000000000e+00
2889:0.0000000000000000e+00
2890:0.0000000000000000e+00
2891:0.0000000000000000e+00
2892:0.0000000000000000e+00
2893:0.0000000000000000e+00
2894:0.0000000000000000e+00
2895:0.0000000000000000e+00
2896:0.0000000000000000e+00
2897:0.0000000000000000e+00
2898:0.0000000000000000e+00
2899:0.0000000000000000e+00
2900:0.0000000000000000e+00
2901:0.0000000000000000e+00
2902:0.0000000000000000e+00
2903:0.0000000000000000e+00
2904:0.0000000000000000e+00
2905:0.0000000000000000e+00
2906:0.0000000000000000e+00
2907:0.0000000000000000e+00
2908:0.0000000000000000e+00
2909:0.0000000000000000e+00
2910:0.0000000000000000e+00
2911:0.0000000000000000e+00
2912:0.0000000000000000e+00
2913:0.0000000000000000e+00
2914:0.0000000000000000e+00
2915:0.0000000000000000e+00
2916:0.0000000000000000e+00
2917:0.0000000000000000e+00
2918:0.0000000000000000e+00
2919:0.0000000000000000e+00
2920:0.0000000000000000e+00
2921:0.0000000000000000e+00
2922:0.0000000000000000e+00
2923:0.0000000000000000e+00
2924:0.0000000000000000e+00
2925:0.0000000000000000e+00
2926:0.0000000000000000e+00
2927:0.0000000000000000e+00
2928:0.0000000000000000e+00
2929:0.0000000000000000e+00
2930:0.0000000000000000e+00
2931:0.0000000000000000e+00
2932:0.0000000000000000e+00
2933:0.0000000000000000e+00
2934:0.0000000000000000e+00
2935:0.0000000000000000e+00
2936:0.0000000000000000e+00
2937:0.0000000000000000e+00
2938:0.0000000000000000e+00
2939:0.0000000000000000e+00
2940:0.0000000000000000e+00
2941:0.0000000000000000e+00
2942:0.0000000000000000e+00
2943:0.0000000000000000e+00
2944:0.0000000000000000e+00
2945:0.0000000000000000e+00
2946:0.0000000000000000e+00
2947:0.0000000000000000e+00
2948:0.0000000000000000e+00
2949:0.0000000000000000e+00
2950:0.0000000000000000e+00
2951:0.0000000000000000e+00
2952:0.0000000000000000e+00
2953:0.0000000000000000e+00
2954:0.0000000000000000e+00
2955:0.0000000000000000e+00
2956:0.0000000000000000e+00
2957:0.0000000000000000e+00
2958:0.0000000000000000e+00
2959:0.0000000000000000e+00
2960:0.0000000000000000e+00
2961:0.0000000000000000e+00
2962:0.0000000000000000e+00
2963:0.0000000000000000e+00
2964:0.0000000000000000e+00
2965:0.0000000000000000e+00
2966:0.0000000000000000e+00
2967:0.0000000000000000e+00
2968:0.0000000000000000e+00
2969:0.0000000000000000e+00
2970:0.0000000000000000e+00
2971:0.0000000000000000e+00
2972:0.0000000000000000e+00
2973:0.0000000000000000e+00
2974:0.0000000000000000e+00
2975:0.0000000000000000e+00
2976:0.0000000000000000e+00
2977:0.0000000000000000e+00
2978:0.0000000000000000e+00
2979:0.0000000000000000e+00
2980:0.0000000000000000e+00
2981:0.0000000000000000e+00
2982:0.0000000000000000e+00
2983:0.0000000000000000e+00
2984:0.0000000000000000e+00
2985:0.0000000000000000e+00
2986:0.0000000000000000e+00
2987:0.0000000000000000e+00
2988:0.0000000000000000e+00
2989:0.0000000000000000e+00
2990:0.0000000000000000e+00
2991:0.0000000000000000e+00
2992:0.0000000000000000e+00
2993:0.0000000000000000e+00
2994:0.0000000000000000e+00
2995:0.0000000000000000e+00
2996:0.0000000000000000e+00
2997:0.0000000000000000e+00
2998:0.0000000000000000e+00
2999:0.0000000000000000e+00
3000:0.0000000000000000e+00
3001:0.0000000000000000e+00
3002:0.0000000000000000e+00
3003:0.0000000000000000e+00
3004:0.0000000000000000e+00
3005:0.0000000000000000e+00
3006:0.0000000000000000e+00
3007:0.0000000000000000e+00
3008:0.0000000000000000e+00
3009:0.0000000000000000e+00
3010:0.0000000000000000e+00
3011:0.0000000000000000e+00
3012:0.0000000000000000e+00
3013:0.0000000000000000e+00
3014:0.0000000000000000e+00
3015:0.0000000000000000e+00
3016:0.0000000000000000e+00
3017:0.0000000000000000e+00
3018:0.0000000000000000e+00
3019:0.0000000000000000e+00
3020:0.0000000000000000e+00
3021:0.0000000000000000e+00
3022:0.0000000000000000e+00
3023:0.0000000000000000e+00
3024:0.0000000000000000e+00
3025:0.0000000000000000e+00
3026:0.0000000000000000e+00
3027:0.0000000000000000e+00
3028:0.0000000000000000e+00
3029:0.0000000000000000e+00
3030:0.0000000000000000e+00
3031:0.0000000000000000e+00
3032:0.0000000000000000e+00
3033:0.0000000000000000e+00
3034:0.0000000000000000e+00
3035:0.0000000000000000e+00
3036:0.0000000000000000e+00
3037:0.0000000000000000e+00
3038:0.0000000000000000e+00
3039:0.0000000000000000e+00
3040:0.0000000000000000e+00
3041:0.0000000000000000e+00
3042:0.0000000000000000e+00
3043:0.0000000000000000e+00
3044:0.0000000000000000e+00
3045:0.0000000000000000e+00
3046:0.0000000000000000e+00
3047:0.0000000000000000e+00
3048:0.0000000000000000e+00
3049:0.0000000000000000e+00
3050:0.0000000000000000e+00
3051:0.0000000000000000e+00
3052:0.0000000000000000e+00
3053:0.0000000000000000e+00
3054:0.0000000000000000e+00
3055:0.0000000000000000e+00
3056:0.0000000000000000e+00
3057:0.0000000000000000e+00
3058:0.0000000000000000e+00
3059:0.0000000000000000e+00
3060:0.0000000000000000e+00
3061:0.0000000000000000e+00
3062:0.0000000000000000e+00
3063:0.0000000000000000e+00
3064:0.0000000000000000e+00
3065:0.0000000000000000e+00
3066:0.0000000000000000e+00
3067:0.0000000000000000e+00
3068:0.0000000000000000e+00
3069:0.0000000000000000e+00
3070:0.0000000000000000e+00
3071:0.0000000000000000e+00
3072:0.0000000000000000e+00
3073:0.0000000000000000e+00
3074:0.0000000000000000e+00
3075:0.0000000000000000e+00
3076:0.0000000000000000e+00
3077:0.0000000000000000e+00
3078:0.0000000000000000e+00
3079:0.0000000000000000e+00
3080:0.0000000000000000e+00
3081:0.0000000000000000e+00
3082:0.0000000000000000e+00
3083:0.0000000000000000e+00
3084:0.0000000000000000e+00
3085:0.0000000000000000e+00
3086:0.0000000000000000e+00
3087:0.0000000000000000e+00
3088:0.0000000000000000e+00
3089:0.0000000000000000e+00
3090:0.0000000000000000e+00
3091:0.0000000000000000e+00
3092:0.0000000000000000e+00
3093:0.0000000000000000e+00
3094:0.0000000000000000e+00
3095:0.0000000000000000e+00
3096:0.0000000000000000e+00
3097:0.0000000000000000e+00
3098:0.0000000000000000e+00
3099:0.0000000000000000e+00
3100:0.0000000000000000e+00
3101:0.0000000000000000e+00
3102:0.0000000000000000e+00
3103:0.0000000000000000e+00
3104:0.0000000000000000e+00
3105:0.0000000000000000e+00
3106:0.0000000000000000e+00
3107:0.0000000000000000e+00
3108:0.0000000000000000e+00
3109:0.0000000000000000e+00
3110:0.0000000000000000e+00
3111:0.0000000000000000e+00
3112:0.0000000000000000e+00
3113:0.0000000000000000e+00
3114:0.0000000000000000e+00
3115:0.0000000000000000e+00
3116:0.0000000000000000e+00
3117:0.0000000000000000e+00
3118:0.0000000000000000e+00
3119:0.0000000000000000e+00
3120:0.0000000000000000e+00
3121:0.0000000000000000e+00
3122:0.0000000000000000e+00
3123:0.0000000000000000e+00
3124:0.0000000000000000e+00
3125:0.0000000000000000e+00
3126:0.0000000000000000e+00
3127:0.0000000000000000e+00
3128:0.0000000000000000e+00
3129:0.0000000000000000e+00
3130:0.0000000000000000e+00
3131:0.0000000000000000e+00
3132:0.0000000000000000e+00
3133:0.0000000000000000e+00
3134:0.0000000000000000e+00
3135:0.0000000000000000e+00
3136:0.0000000000000000e+00
3137:0.0000000000000000e+00
3138:0.0000000000000000e+00
3139:0.0000000000000000e+00
3140:0.0000000000000000e+00
3141:0.0000000000000000e+00
3142:0.0000000000000000e+00
3143:0.0000000000000000e+00
3144:0.0000000000000000e+00
3145:0.0000000000000000e+00
3146:0.0000000000000000e+00
3147:0.0000000000000000e+00
3148:0.0000000000000000e+00
3149:0.0000000000000000e+00
3150:0.0000000000000000e+00
3151:0.0000000000000000e+00
3152:0.0000000000000000e+00
3153:0.0000000000000000e+00
3154:0.0000000000000000e+00
3155:0.0000000000000000e+00
3156:0.0000000000000000e+00
3157:0.0000000000000000e+00
3158:0.0000000000000000e+00
3159:0.0000000000000000e+00
3160:0.0000000000000000e+00
3161:0.0000000000000000e+00
3162:0.0000000000000000e+00
3163:0.0000000000000000e+00
3164:0.0000000000000000e+00
3165:0.0000000000000000e+00
3166:0.0000000000000000e+00
3167:0.0000000000000000e+00
3168:0.0000000000000000e+00
3169:0.0000000000000000e+00
3170:0.0000000000000000e+00
3171:0.0000000000000000e+00
3172:0.0000000000000000e+00
3173:0.0000000000000000e+00
3174:0.0000000000000000e+00
3175:0.0000000000000000e+00
3176:0.0000000000000000e+00
3177:0.0000000000000000e+00
3178:0.0000000000000000e+00
3179:0.0000000000000000e+00
3180:0.0000000000000000e+00
3181:0.0000000000000000e+00
3182:0.0000000000000000e+00
3183:0.0000000000000000e+00
3184:0.0000000000000000e+00
3185:0.0000000000000000e+00
3186:0.0000000000000000e+00
3187:0.0000000000000000e+00
3188:0.0000000000000000e+00
3189:0.0000000000000000e+00
3190:0.0000000000000000e+00
3191:0.0000000000000000e+00
3192:0.0000000000000000e+00
3193:0.0000000000000000e+00
3194:0.0000000000000000e+00
3195:0.0000000000000000e+00
3196:0.0000000000000000e+00
3197:0.0000000000000000e+00
3198:0.0000000000000000e+00
3199:0.0000000000000000e+00
3200:0.0000000000000000e+00
3201:0.0000000000000000e+00
3202:0.0000000000000000e+00
3203:0.0000000000000000e+00
3204:0.0000000000000000e+00
3205:0.0000000000000000e+00
3206:0.0000000000000000e+00
3207:0.0000000000000000e+00
3208:0.0000000000000000e+00
3209:0.0000000000000000e+00
3210:0.0000000000000000e+00
3211:0.0000000000000000e+00
3212:0.0000000000000000e+00
3213:0.0000000000000000e+00
3214:0.0000000000000000e+00
3215:0.0000000000000000e+00
3216:0.0000000000000000e+00
3217:0.0000000000000000e+00
3218:0.0000000000000000e+00
3219:0.0000000000000000e+00
3220:0.0000000000000000e+00
3221:0.0000000000000000e+00
3222:0.0000000000000000e+00
3223:0.0000000000000000e+00
3224:0.0000000000000000e+00
3225:0.0000000000000000e+00
3226:0.0000000000000000e+00
3227:0.0000000000000000e+00
3228:0.0000000000000000e+00
3229:0.0000000000000000e+00
3230:0.0000000000000000e+00
3231:0.0000000000000000e+00
3232:0.0000000000000000e+00
3233:0.0000000000000000e+00
3234:0.0000000000000000e+00
3235:0.0000000000000000e+00
3236:0.0000000000000000e+00
3237:0.0000000000000000e+00
3238:0.0000000000000000e+00
3239:0.0000000000000000e+00
3240:0.0000000000000000e+00
3241:0.0000000000000000e+00
3242:0.0000000000000000e+00
3243:0.0000000000000000e+00
3244:0.0000000000000000e+00
3245:0.0000000000000000e+00
3246:0.0000000000000000e+00
3247:0.0000000000000000e+00
3248:0.0000000000000000e+00
3249:0.0000000000000000e+00
3250:0.0000000000000000e+00
3251:0.0000000000000000e+00
3252:0.0000000000000000e+00
3253:0.0000000000000000e+00
3254:0.0000000000000000e+00
3255:0.0000000000000000e+00
3256:0.0000000000000000e+00
3257:0.0000000000000000e+00
3258:0.0000000000000000e+00
3259:0.0000000000000000e+00
3260:0.0000000000000000e+00
3261:0.0000000000000000e+00
3262:0.0000000000000000e+00
3263:0.0000000000000000e+00
3264:0.0000000000000000e+00
3265:0.0000000000000000e+00
3266:0.0000000000000000e+00
3267:0.0000000000000000e+00
3268:0.0000000000000000e+00
3269:0.0000000000000000e+00
3270:0.0000000000000000e+00
3271:0.0000000000000000e+00
3272:0.0000000000000000e+00
3273:0.0000000000000000e+00
3274:0.0000000000000000e+00
3275:0.0000000000000000e+00
3276:0.0000000000000000e+00
3277:0.0000000000000000e+00
3278:0.0000000000000000e+00
3279:0.0000000000000000e+00
3280:0.0000000000000000e+00
3281:0.0000000000000000e+00
3282:0.0000000000000000e+00
3283:0.0000000000000000e+00
3284:0.0000000000000000e+00
3285:0.0000000000000000e+00
3286:0.0000000000000000e+00
3287:0.0000000000000000e+00
3288:0.0000000000000000e+00
3289:0.0000000000000000e+00
3290:0.0000000000000000e+00
3291:0.0000000000000000e+00
3292:0.0000000000000000e+00
3293:0.0000000000000000e+00
3294:0.0000000000000000e+00
3295:0.0000000000000000e+00
3296:0.0000000000000000e+00
3297:0.0000000000000000e+00
3298:0.0000000000000000e+00
3299:0.0000000000000000e+00
3300:0.0000000000000000e+00
3301:0.0000000000000000e+00
3302:0.0000000000000000e+00
3303:0.0000000000000000e+00
3304:0.0000000000000000e+00
3305:0.0000000000000000e+00
3306:0.0000000000000000e+00
3307:0.0000000000000000e+00
3308:0.0000000000000000e+00
3309:0.0000000000000000e+00
3310:0.0000000000000000e+00
3311:0.0000000000000000e+00
3312:0.0000000000000000e+00
3313:0.0000000000000000e+00
3314:0.0000000000000000e+00
3315:0.0000000000000000e+00
3316:0.0000000000000000e+00
3317:0.0000000000000000e+00
3318:0.0000000000000000e+00
3319:0.0000000000000000e+00
3320:0.0000000000000000e+00
3321:0.0000000000000000e+00
3322:0.0000000000000000e+00
3323:0.0000000000000000e+00
3324:0.0000000000000000e+00
3325:0.0000000000000000e+00
3326:0.0000000000000000e+00
3327:0.0000000000000000e+00
3328:0.0000000000000000e+00
3329:0.0000000000000000e+00
3330:0.0000000000000000e+00
3331:0.0000000000000000e+00
3332:0.0000000000000000e+00
3333:0.0000000000000000e+00
3334:0.0000000000000000e+00
3335:0.0000000000000000e+00
3336:0.0000000000000000e+00
3337:0.0000000000000000e+00
3338:0.0000000000000000e+00
3339:0.0000000000000000e+00
3340:0.0000000000000000e+00
3341:0.0000000000000000e+00
3342:0.0000000000000000e+00
3343:0.0000000000000000e+00
3344:0.0000000000000000e+00
3345:0.0000000000000000e+00
3346:0.0000000000000000e+00
3347:0.0000000000000000e+00
3348:0.0000000000000000e+00
3349:0.0000000000000000e+00
3350:0.0000000000000000e+00
3351:0.0000000000000000e+00
3352:0.0000000000000000e+00
3353:0.0000000000000000e+00
3354:0.0000000000000000e+00
3355:0.0000000000000000e+00
3356:0.0000000000000000e+00
3357:0.0000000000000000e+00
3358:0.0000000000000000e+00
3359:0.0000000000000000e+00
3360:0.0000000000000000e+00
3361:0.0000000000000000e+00
3362:0.0000000000000000e+00
3363:0.0000000000000000e+00
3364:0.0000000000000000e+00
3365:0.0000000000000000e+00
3366:0.0000000000000000e+00
3367:0.0000000000000000e+00
3368:0.0000000000000000e+00
3369:0.0000000000000000e+00
3370:0.0000000000000000e+00
3371:0.0000000000000000e+00
3372:0.0000000000000000e+00
3373:0.0000000000000000e+00
3374:0.0000000000000000e+00
3375:0.0000000000000000e+00
3376:0.0000000000000000e+00
3377:0.0000000000000000e+00
3378:0.0000000000000000e+00
3379:0.0000000000000000e+00
3380:0.0000000000000000e+00
3381:0.0000000000000000e+00
3382:0.0000000000000000e+00
3383:0.0000000000000000e+00
3384:0.0000000000000000e+00
3385:0.0000000000000000e+00
3386:0.0000000000000000e+00
3387:0.0000000000000000e+00
3388:0.0000000000000000e+00
3389:0.0000000000000000e+00
3390:0.0000000000000000e+00
3391:0.0000000000000000e+00
3392:0.0000000000000000e+00
3393:0.0000000000000000e+00
3394:0.0000000000000000e+00
3395:0.0000000000000000e+00
3396:0.0000000000000000e+00
3397:0.0000000000000000e+00
3398:0.0000000000000000e+00
3399:0.0000000000000000e+00
3400:0.0000000000000000e+00
3401:0.0000000000000000e+00
3402:0.0000000000000000e+00
3403:0.0000000000000000e+00
3404:0.0000000000000000e+00
3405:0.0000000000000000e+00
3406:0.0000000000000000e+00
3407:0.0000000000000000e+00
3408:0.0000000000000000e+00
3409:0.0000000000000000e+00
3410:0.0000000000000000e+00
3411:0.0000000000000000e+00
3412:0.0000000000000000e+00
3413:0.0000000000000000e+00
3414:0.0000000000000000e+00
3415:0.0000000000000000e+00
3416:0.0000000000000000e+00
3417:0.0000000000000000e+00
3418:0.0000000000000000e+00
3419:0.0000000000000000e+00
3420:0.0000000000000000e+00
3421:0.0000000000000000e+00
3422:0.0000000000000000e+00
3423:0.0000000000000000e+00
3424:0.0000000000000000e+00
3425:0.0000000000000000e+00
3426:0.0000000000000000e+00
3427:0.0000000000000000e+00
3428:0.0000000000000000e+00
3429:0.0000000000000000e+00
3430:0.0000000000000000e+00
3431:0.0000000000000000e+00
3432:0.0000000000000000e+00
3433:0.0000000000000000e+00
3434:0.0000000000000000e+00
3435:0.0000000000000000e+00
3436:0.0000000000000000e+00
3437:0.0000000000000000e+00
3438:0.0000000000000000e+00
3439:0.0000000000000000e+00
3440:0.0000000000000000e+00
3441:0.0000000000000000e+00
3442:0.0000000000000000e+00
3443:0.0000000000000000e+00
3444:0.0000000000000000e+00
3445:0.0000000000000000e+00
3446:0.0000000000000000e+00
3447:0.0000000000000000e+00
3448:0.0000000000000000e+00
3449:0.0000000000000000e+00
3450:0.0000000000000000e+00
3451:0.0000000000000000e+00
3452:0.0000000000000000e+00
3453:0.0000000000000000e+00
3454:0.0000000000000000e+00
3455:0.0000000000000000e+00
