label=Stress xy
num_items=441

0:-3.9621643806431610e-09
1:-6.0447309384154852e-09
2:-3.0157570484660256e-09
3:-1.6085429846408552e-09
4:-3.9889753659660543e-10
5:-2.0367299927266553e-09
6:7.0632754797010782e-12
7:7.5759173073519226e-10
8:-1.2967732703309865e-09
9:-1.4247795151221929e-09
10:-2.9684388481765095e-10
11:5.5278617149494050e-11
12:-2.9847591454035369e-09
13:-2.7264982225001691e-09
14:-5.5480364031061683e-10
15:-2.4650016813024473e-09
16:-2.6937021462710890e-09
17:-1.1688670771325939e-09
18:4.4421355949923002e-10
19:1.0113604039777761e-09
20:2.7372199658722958e-10
21:1.2101087568226114e-09
22:3.2705287155746226e-09
23:2.8574007888243155e-09
24:1.5830073781297709e-10
25:1.7479584125273587e-09
26:1.8422355299179356e-09
27:-1.1929007794918824e-09
28:-4.0057070657924352e-09
29:-4.8619465646616815e-09
30:1.1483378600982996e-09
31:-1.5685301125269944e-09
32:-1.6607748361701150e-09
33:1.0997597334841883e-09
34:1.4636531644095697e-10
35:5.0229800030095012e-10
36:-3.5817369369562670e-09
37:-3.3097648219882780e-10
38:1.2184400520267189e-09
39:1.6681726446246336e-10
40:2.7914022589119289e-09
41:2.3093915954457463e-09
42:1.4717458422878880e-09
43:2.2928868493014705e-09
44:1.4058379937274205e-09
45:2.3301773171258999e-10
46:-2.0305626754688055e-09
47:-1.7458915943097705e-09
48:6.1827462887657031e-11
49:-2.0038383950446491e-09
50:5.9357268766681418e-10
51:1.3065047445524411e-10
52:-7.9282292463644746e-10
53:3.6580878169327319e-10
54:5.6659971853223468e-10
55:2.1755460680813381e-09
56:-4.6526298058418157e-09
57:4.3638220040703297e-09
58:4.9822275503592281e-09
59:-4.6166418111327038e-09
60:1.8239596844601277e-09
61:2.4784797262452090e-09
62:7.7988266384393484e-10
63:-1.2838696785721063e-10
64:-7.3012838930513179e-10
65:-1.1148753517848233e-09
66:4.1122558249910249e-11
67:-2.0167483030630605e-09
68:-8.8705516018687807e-10
69:6.7293457405729015e-10
70:-6.8878915171987537e-10
71:-2.0780253421243851e-10
72:-1.4258114045398560e-09
73:-1.6384816065432942e-09
74:-1.2568400854478937e-09
75:-3.3867752592365360e-10
76:-4.8359686590471469e-10
77:-1.1787602375843284e-09
78:2.3242829752935443e-11
79:-2.8958224587858665e-10
80:-9.3048516932873678e-10
81:-7.6955100194875181e-10
82:-2.6384902730373649e-10
83:-2.2024589592865513e-10
84:-1.4951510175925904e-09
85:-2.0542991110247757e-09
86:-2.1626728520641829e-09
87:-1.2087647959724530e-09
88:-1.6500888710726336e-09
89:-1.7569365222222930e-09
90:-3.0543460764393387e-10
91:2.2382174781100664e-10
92:1.2293282245045959e-09
93:-1.7359522862203031e-09
94:-8.9061573745893532e-11
95:1.2823776611476895e-09
96:-1.5040707968573754e-09
97:-6.8448948114878289e-10
98:-1.9414715543013998e-10
99:1.7153644206858252e-09
100:1.2990397988819503e-09
101:-1.6864282472904940e-11
102:1.2682747360547685e-09
103:-1.2142136830760406e-10
104:-1.5650927648659227e-09
105:-3.9861079087911467e-10
106:-1.0360919960339817e-09
107:-1.1756803249032556e-09
108:-7.3761279327711249e-10
109:-8.7785406802505899e-10
110:-3.3652348676879516e-10
111:-1.6782113793961409e-09
112:-8.7088991168928178e-10
113:-3.3984482194681926e-10
114:-7.1284416377884591e-10
115:3.6721212973371856e-10
116:9.8073682836682474e-10
117:-1.0485785208541065e-10
118:1.1016502171972720e-10
119:1.0375473977206492e-09
120:-7.5487061263271316e-10
121:-1.4144303219254749e-09
122:-6.7697216237237209e-10
123:8.0700991469517807e-10
124:-1.5557014236880262e-10
125:-1.3923531744993153e-09
126:8.9021505178105575e-10
127:1.1580182425955037e-09
128:5.7312345161675754e-10
129:-7.4376133507234043e-10
130:2.4600279996160497e-09
131:1.6266453838059823e-09
132:-3.5729629881979989e-09
133:1.0015172255760474e-09
134:1.5870124820288585e-09
135:1.4495278475120155e-10
136:-4.3420202621347797e-10
137:-7.2608767792256146e-10
138:6.9130615361452552e-10
139:-9.3653996129275121e-11
140:-2.1467098349632170e-10
141:1.0356634816078351e-09
142:5.4953285656473638e-10
143:3.5677159206747192e-10
144:-7.4221269821923741e-10
145:-7.2475054845420672e-10
146:-7.1990707430137033e-10
147:-1.8432639458413155e-10
148:6.2816441616212207e-11
149:2.5104305039084396e-10
150:1.8026397505025071e-10
151:1.1943264504137275e-10
152:3.4678283766043074e-10
153:-7.5606375627349175e-10
154:-1.0819361482449263e-09
155:-1.5800261153591483e-09
156:1.2455081037045557e-10
157:-1.0057379035241110e-09
158:-2.3298033262614713e-09
159:5.0832157499358847e-10
160:9.3899069230695392e-11
161:-7.6320208193479672e-10
162:-1.8043429330777834e-09
163:-1.3156766049556867e-09
164:-4.6031419111109935e-13
165:-2.6217437905313628e-09
166:-1.2345288717641386e-09
167:1.3185708139151553e-09
168:-1.1337451509091232e-09
169:-4.8705605111359640e-10
170:1.1656066073019766e-09
171:9.0722416141330075e-10
172:1.8141606548001827e-09
173:2.0299590990117243e-09
174:2.6154772374996682e-09
175:3.1410098810462929e-09
176:2.5212827059919750e-09
177:2.1275769030584383e-09
178:2.2371005446094462e-09
179:1.1063038471810381e-09
180:1.9399604035232163e-09
181:1.2263228752118815e-09
182:-3.6410551722457112e-10
183:2.1770385192843583e-09
184:1.5928802065125911e-09
185:4.1010729458058285e-11
186:3.7435070735869217e-10
187:-1.3068405269415784e-10
188:-8.2772782925250557e-10
189:-4.8778429212470442e-09
190:-7.8654605865283811e-10
191:9.0678854149042120e-10
192:-4.3471414285463896e-09
193:-1.6703575205026095e-09
194:2.8289397606376064e-10
195:-1.2367072782650890e-09
196:1.1346823617530883e-10
197:6.9580435077008825e-10
198:8.5063541747280125e-10
199:7.4792798657132764e-10
200:6.0731696109186293e-10
201:3.5130909891559741e-10
202:3.0942235014692954e-10
203:3.9084828935531190e-10
204:2.6796421438397609e-10
205:-3.6334133928913947e-10
206:-4.5073180447708948e-10
207:3.8969845646381790e-10
208:1.0443767161846808e-10
209:2.3921941700649248e-10
210:4.5900534016347066e-10
211:2.6416062335935156e-10
212:1.1772324428727928e-10
213:-2.3377878706920611e-10
214:-1.6024890764614227e-10
215:-3.7288561462121869e-10
216:5.9017411016975685e-10
217:1.0414702829108737e-09
218:9.4638920241424556e-10
219:3.1362283605121283e-10
220:1.2841394312001268e-09
221:2.0658137565634257e-09
222:-4.7188155443292264e-10
223:7.5192752840616946e-11
224:8.8898185395397868e-10
225:5.7050997706747075e-10
226:1.7044688143535991e-10
227:3.9847617875386615e-10
228:1.9514554902566594e-09
229:7.5053390037421444e-10
230:-5.2788763833618219e-10
231:1.0848949486791335e-09
232:2.9509151121119023e-10
233:-9.2778248856353283e-10
234:8.1362012980289277e-10
235:6.6779816936006808e-10
236:-4.7333100315778387e-10
237:-8.1567962395463344e-10
238:-1.2695646708019936e-09
239:-2.3837127122083647e-09
240:-1.3416673681231337e-09
241:-1.6619091040167485e-09
242:-2.5611867386314577e-09
243:-1.3311365981838679e-09
244:-1.5571589115292888e-09
245:-1.1627149953301262e-09
246:-3.3862816918350430e-09
247:-2.7821244907214693e-09
248:7.6443504772180467e-10
249:-3.6226859989950554e-09
250:-3.0812617268951000e-09
251:2.0705708653484431e-09
252:1.0749090586642957e-09
253:1.8226354253316246e-09
254:1.3070752016955028e-09
255:3.4152085706726875e-09
256:2.2668704395238446e-09
257:1.0516281404867003e-09
258:2.8966452972754119e-09
259:2.2804353854860478e-10
260:-4.1480357792456753e-10
261:6.0627943304102627e-10
262:-4.5274635569694160e-10
263:-1.0319834318045861e-09
264:8.9803089844216954e-10
265:1.9536406788852623e-10
266:-1.1889121443464731e-09
267:3.1975507278798806e-10
268:6.4645418268022812e-10
269:-6.9468070241577875e-10
270:-1.0801867880396210e-09
271:-1.0276182866047394e-09
272:-1.0213879487924864e-09
273:-2.1431104816630712e-09
274:-2.6865101397828550e-09
275:-2.1155735226448731e-09
276:-2.0969530905089177e-09
277:-3.1409842652225041e-09
278:-2.3592954396732164e-09
279:-1.0808733382153055e-09
280:-8.9098537742460670e-10
281:-4.4549246718060945e-10
282:-1.5546452617675274e-09
283:-1.1603854677263645e-09
284:-1.1212659117431235e-09
285:-1.3182008566379107e-09
286:-4.2714380409976205e-10
287:-2.8691089493222568e-10
288:-2.0385636288008296e-10
289:-4.3780467365733399e-10
290:-1.0183234187737659e-09
291:-1.0377969017002839e-09
292:-8.3675846366665795e-10
293:-8.7987470030517963e-10
294:-2.1035192218276156e-10
295:2.4132577064978481e-10
296:1.0548922339926036e-10
297:-1.2263319866801388e-09
298:-1.2022920344597430e-09
299:-1.7684804846147678e-09
300:-1.0856175567216009e-09
301:-9.3823981307385345e-10
302:-4.9228473917488289e-10
303:-6.2655610762968541e-10
304:-1.3907013660369339e-09
305:-1.5938367889135242e-10
306:-2.7534138997922146e-09
307:-3.1603312798586955e-09
308:6.7403107172745980e-10
309:-4.4123601715793725e-10
310:-2.0118770661022504e-09
311:-3.7742772103857938e-09
312:1.6536250115968729e-09
313:1.3371339460233066e-09
314:-5.1856326253652118e-09
315:1.1576276796129075e-09
316:-1.2932713794108979e-09
317:-1.3066284478503135e-09
318:-1.8436077317551815e-09
319:-9.5597541634932037e-10
320:-6.3250290718981018e-10
321:-2.1496072360966601e-09
322:1.5852573374131588e-09
323:1.4312606123757269e-09
324:-4.8195538772495449e-10
325:2.2686033907462705e-10
326:-4.4286814800334262e-10
327:-1.1511118539067291e-09
328:-1.4619080810690843e-09
329:-9.7889688013243530e-10
330:-4.0931577079729020e-10
331:-2.2164701317344884e-09
332:-1.6854105567411016e-09
333:-1.4359754037561137e-09
334:-2.3100559426074101e-09
335:-1.7880085229787272e-09
336:-5.1035683508475804e-10
337:-1.6397886487497987e-10
338:-1.1476026895798788e-10
339:-4.7346728587226860e-10
340:7.9126323286314614e-10
341:1.0063042682763553e-09
342:-9.2406843061524446e-10
343:-3.3367239260079659e-11
344:4.0264022334606714e-10
345:-3.6751305290950040e-11
346:3.7403924108644265e-10
347:1.2299188630220807e-09
348:8.9278748204575571e-10
349:1.5561977705385451e-09
350:2.8599846805875733e-09
351:7.2313474319151404e-10
352:1.4830174348172518e-09
353:1.1727760806948564e-09
354:1.9438876756925438e-09
355:2.7782170052417896e-09
356:2.0716534784535232e-09
357:3.5207259224479394e-09
358:3.0360721498445737e-09
359:1.0709828507964478e-09
360:-2.6402491304367007e-11
361:-1.7900754162890440e-09
362:-5.5123167398829719e-10
363:6.1715871379053966e-10
364:-1.4483273646565309e-09
365:-3.5219566191315433e-10
366:-2.4170485698750943e-10
367:-4.4569279535936363e-10
368:1.5257754693821980e-09
369:2.2577742960473181e-09
370:4.1613899492442243e-09
371:-2.5335477306885053e-09
372:2.5271059617244691e-09
373:5.9195157675263075e-09
374:1.8521189198166266e-09
375:3.1238551312659693e-09
376:3.4781144213403200e-09
377:1.0041396160710010e-09
378:-9.7271950110051810e-11
379:2.8196599035335858e-09
380:2.1971346704648070e-09
381:4.1209278577677341e-09
382:4.0348312798504931e-10
383:-6.0653445250827522e-10
384:3.3753195452007359e-09
385:-4.6671313187400524e-09
386:-5.6368751201013593e-09
387:6.0928509166365751e-10
388:-1.3131452222333926e-09
389:-1.6002429739470909e-09
390:3.1629300707660596e-10
391:6.4071564351807220e-10
392:-7.3485068203780538e-10
393:-3.3113886010888237e-09
394:-1.0151580872733755e-09
395:-1.2907229933980879e-09
396:-1.0026509870761582e-09
397:-2.6353535406270931e-11
398:7.7898894276640986e-10
399:-1.9087888196127121e-09
400:-2.1264461848092498e-09
401:-5.6847554564329370e-10
402:-2.1256395957305354e-09
403:-1.5598621462414415e-09
404:-4.9762114076120603e-10
405:1.2815936880115577e-09
406:2.8838591003736384e-09
407:4.5123017454012211e-09
408:6.9405587797432477e-10
409:2.3590980660512616e-09
410:3.7009652460702788e-09
411:-9.1791217006939377e-10
412:-3.8364521265141965e-09
413:-4.6501898103390169e-09
414:4.8663016725211036e-09
415:2.9375459563494388e-09
416:-3.3496916094921458e-10
417:4.3893478762181592e-09
418:3.4014462034836485e-09
419:-1.4932338744948377e-10
420:-2.0449786057869623e-09
421:3.8496905509672450e-09
422:4.3438605426581203e-09
423:-1.6642029634703286e-09
424:-1.5772255963881937e-10
425:3.1147138956647136e-09
426:-2.7756108751197195e-09
427:-2.9714070079990020e-09
428:8.7903950953009171e-10
429:-3.9204560495913756e-10
430:-8.3928595409337930e-09
431:-7.4159128298918865e-09
432:3.9847263776520831e-09
433:8.0629013081530320e-10
434:-2.9397435455403892e-09
435:3.4161994272081302e-09
436:1.1778223680908014e-09
437:-5.2163678362672459e-09
438:-2.5171323540131483e-10
439:7.1451087331088250e-09
440:-2.9506591061923232e-09
