x	y	stress_yy
 1.000000000000000e+00	 0.000000000000000e+00	 1.814254889557655e+01
 9.998338218507750e-01	 2.301879740688203e-02	 1.817542686983660e+01
 9.993275599243348e-01	 4.608215271279779e-02	 1.819225269493022e+01
 9.984697124756583e-01	 6.917769523648053e-02	 1.819175653835420e+01
 9.972489236794969e-01	 9.229260277661558e-02	 1.817258065190646e+01
 9.956540178012001e-01	 1.154136152499791e-01	 1.813327825480228e+01
 9.936740343365396e-01	 1.385270506335803e-01	 1.807231306797065e+01
 9.912982639881663e-01	 1.616188232546628e-01	 1.798805958890737e+01
 9.885162853320295e-01	 1.846744644584668e-01	 1.787880419704959e+01
 9.853180020131134e-01	 2.076791456684508e-01	 1.774274717851298e+01
 9.816936802964240e-01	 2.306177038372821e-01	 1.757800575595123e+01
 1.014285762337685e+00	 0.000000000000000e+00	 1.781879893167775e+01
 1.014117210207158e+00	 2.334763847636930e-02	 1.783910617034301e+01
 1.013603715943827e+00	 4.674047139590417e-02	 1.784372775661307e+01
 1.012733613491393e+00	 7.016595135258462e-02	 1.783141837536946e+01
 1.011495384797893e+00	 9.361107297002941e-02	 1.780085494061033e+01
 1.009877694474696e+00	 1.170623867344661e-01	 1.775063618474179e+01
 1.007869425438318e+00	 1.405060151646194e-01	 1.767928287871921e+01
 1.005459715400836e+00	 1.639276713629985e-01	 1.758523876102372e+01
 1.002637994060108e+00	 1.873126799789160e-01	 1.746687225304730e+01
 9.993940208268849e-01	 2.106460005981402e-01	 1.732247903644138e+01
 9.957179229122425e-01	 2.339122535574748e-01	 1.715028556414941e+01
 1.028571613012482e+00	 0.000000000000000e+00	 1.750009176180663e+01
 1.028400686885902e+00	 2.367648157850007e-02	 1.751032808016746e+01
 1.027879960240766e+00	 4.739879414830282e-02	 1.750525898450736e+01
 1.026997602708497e+00	 7.115421357755074e-02	 1.748365987813707e+01
 1.025741934009444e+00	 9.492955131367199e-02	 1.744423794997063e+01
 1.024101459100028e+00	 1.187111684111830e-01	 1.738563247382653e+01
 1.022064904316570e+00	 1.424849919293243e-01	 1.730641572285606e+01
 1.019621254379648e+00	 1.662365337446359e-01	 1.720509456608320e+01
 1.016759790108138e+00	 1.899509118092326e-01	 1.708011281260173e+01
 1.013470126677695e+00	 2.136128738698931e-01	 1.692985436602321e+01
 1.009742252244628e+00	 2.372068236462269e-01	 1.675264724713203e+01
 1.042857540357000e+00	 0.000000000000000e+00	 1.718729721232196e+01
 1.042684240221567e+00	 2.400532644483651e-02	 1.718961231374424e+01
 1.042156281155643e+00	 4.805712043257811e-02	 1.717701818855224e+01
 1.041261668477513e+00	 7.214248110459021e-02	 1.714830714427790e+01
 1.039988559678984e+00	 9.624803673113663e-02	 1.710221225203931e+01
 1.038325300060698e+00	 1.203599589340155e-01	 1.703740835977628e+01
 1.036260459377960e+00	 1.444639793119433e-01	 1.695251370943975e+01
 1.033782869359052e+00	 1.685454085144208e-01	 1.684609221450192e+01
 1.030881661943093e+00	 1.925891577952661e-01	 1.671665645166048e+01
 1.027546308069888e+00	 2.165797630611406e-01	 1.656267141668751e+01
 1.023766656840262e+00	 2.405014114133076e-01	 1.638255908888290e+01
 1.057143532703853e+00	 0.000000000000000e+00	 1.688123806195153e+01
 1.056967858548713e+00	 2.433417280694075e-02	 1.687745046059870e+01
 1.056432667028950e+00	 4.871544971131429e-02	 1.685916785719103e+01
 1.055525799148979e+00	 7.313075312691440e-02	 1.682519563482152e+01
 1.054235250171347e+00	 9.756652814601664e-02	 1.677428834894152e+01
 1.052549205740208e+00	 1.220087569568488e-01	 1.670515145854069e+01
 1.050456079029154e+00	 1.464429756967244e-01	 1.661644365460215e+01
 1.047944548773499e+00	 1.708542937871996e-01	 1.650677983195811e+01
 1.045003598031943e+00	 1.952274157828657e-01	 1.637473474709645e+01
 1.041622553507811e+00	 2.195466657493138e-01	 1.621884739953541e+01
 1.037791125245829e+00	 2.437960141684862e-01	 1.603762616799367e+01
 1.071429578385649e+00	 0.000000000000000e+00	 1.658269317713413e+01
 1.071251530201898e+00	 2.466302039637492e-02	 1.657430785953543e+01
 1.070709106201178e+00	 4.937378144709573e-02	 1.655186177835783e+01
 1.069789983073436e+00	 7.411902883773466e-02	 1.651416954988803e+01
 1.068481993851369e+00	 9.888502448190539e-02	 1.646000281112960e+01
 1.066773164522058e+00	 1.236575611335686e-01	 1.638809267301820e+01
 1.064651751676819e+00	 1.484219794679160e-01	 1.629713276867611e+01
 1.062106281057439e+00	 1.731631876778187e-01	 1.618578293295955e+01
 1.059125586841663e+00	 1.978656836178809e-01	 1.605267354486775e+01
 1.055698851495811e+00	 2.225135795118439e-01	 1.589641055840243e+01
 1.051815646008011e+00	 2.470906292215318e-01	 1.571558124012794e+01
 1.085715665735001e+00	 0.000000000000000e+00	 1.629240040004196e+01
 1.085535243515682e+00	 2.499186894470118e-02	 1.628062532498823e+01
 1.084985587012820e+00	 5.003211510250672e-02	 1.625524561147969e+01
 1.084054208601425e+00	 7.510730743026230e-02	 1.621508125361648e+01
 1.082728779083882e+00	 1.002035246623961e-01	 1.615891656249335e+01
 1.080997164789749e+00	 1.253063701180604e-01	 1.608550334561803e+01
 1.078847465727619e+00	 1.504009890097661e-01	 1.599356468352665e+01
 1.076268054645321e+00	 1.754720883011241e-01	 1.588179933034117e+01
 1.073247616839224e+00	 2.005039591461607e-01	 1.574888675919186e+01
 1.069775190538234e+00	 2.254805019261618e-01	 1.559349286636312e+01
 1.065840207673492e+00	 2.503852538822138e-01	 1.541427633968579e+01
 1.100001783084519e+00	 0.000000000000000e+00	 1.601105921174884e+01
 1.099818986824623e+00	 2.532071818348164e-02	 1.599682073896055e+01
 1.099262097804366e+00	 5.069045014013161e-02	 1.596945741494394e+01
 1.098318464083486e+00	 7.609558809770867e-02	 1.592779074386659e+01
 1.096975594233721e+00	 1.015220276110822e-01	 1.587061329898686e+01
 1.095221194926784e+00	 1.269551825642097e-01	 1.579669263251618e+01
 1.093043209588223e+00	 1.523800027065229e-01	 1.570477578918364e+01
 1.090429857971597e+00	 1.777809937719623e-01	 1.559359444109596e+01
 1.087369676491597e+00	 2.031422402135547e-01	 1.546187065449985e+01
 1.083851559139426e+00	 2.284474305696987e-01	 1.530832329086667e+01
 1.079864798788953e+00	 2.536798854603011e-01	 1.513167503534070e+01
 1.114287918766816e+00	 0.000000000000000e+00	 1.573933319070643e+01
 1.114102748463282e+00	 2.564956784427844e-02	 1.572329052060883e+01
 1.113538626916308e+00	 5.134878602255466e-02	 1.569462813302392e+01
 1.112582737870157e+00	 7.708387003328505e-02	 1.565216516267894e+01
 1.111222427665721e+00	 1.028405322515569e-01	 1.559469802879953e+01
 1.109445243316661e+00	 1.286039971259019e-01	 1.552100507972603e+01
 1.107238971665293e+00	 1.543590189424345e-01	 1.542985185204095e+01
 1.104591679470715e+00	 1.800899022051795e-01	 1.531999695299980e+01
 1.101491754265754e+00	 2.057805246659122e-01	 1.519019856687966e+01
 1.097927945803734e+00	 2.314143630198855e-01	 1.503922157651465e+01
 1.093889407901079e+00	 2.569745212655634e-01	 1.486584528081604e+01
 1.128574061114501e+00	 0.000000000000000e+00	 1.547785228465142e+01
 1.128386516766216e+00	 2.597841765865374e-02	 1.546041098430187e+01
 1.127815162689139e+00	 5.200712221236022e-02	 1.543088204585249e+01
 1.126847018311981e+00	 7.807215243020288e-02	 1.538807834388500e+01
 1.125469267744715e+00	 1.041590375074135e-01	 1.533079572331028e+01
 1.123669298342884e+00	 1.302528124570227e-01	 1.525781838311566e+01
 1.121434740365498e+00	 1.563380361017492e-01	 1.516792488969324e+01
 1.118753507577126e+00	 1.823988117156219e-01	 1.505989482008687e+01
 1.115613838628670e+00	 2.084188103490824e-01	 1.493251602609809e+01
 1.112004339035504e+00	 2.343812968541535e-01	 1.478459249965037e+01
 1.107914023556551e+00	 2.602691586077694e-01	 1.461495280820130e+01
 1.142860198460186e+00	 0.000000000000000e+00	 1.522721491225521e+01
 1.142670280067985e+00	 2.630726735816965e-02	 1.520853959590644e+01
 1.142091693463350e+00	 5.266545817213261e-02	 1.517833718567428e+01
 1.141111293759497e+00	 7.906043448167339e-02	 1.513541039461891e+01
 1.139716102835537e+00	 1.054775423022454e-01	 1.507855006913898e+01
 1.137893348388953e+00	 1.319016272114574e-01	 1.500654131628945e+01
 1.135630504095502e+00	 1.583170525687151e-01	 1.491817027997248e+01
 1.132915330725281e+00	 1.847077204181359e-01	 1.481223155822436e+01
 1.129735918047314e+00	 2.110570951089146e-01	 1.468753624317843e+01
 1.126080727339082e+00	 2.373482296499335e-01	 1.454292055350991e+01
 1.121938634302054e+00	 2.635637947966888e-01	 1.437725501637346e+01
 9.816936802964240e-01	 2.306177038372821e-01	 1.757800575595123e+01
 9.776342863994824e-01	 2.534730768946625e-01	 1.737994122289575e+01
 9.731306880439857e-01	 2.762311524069800e-01	 1.714403916676686e+01
 9.681744667976357e-01	 2.988759714563225e-01	 1.686885831290134e+01
 9.627577163271480e-01	 3.213913671440238e-01	 1.655335976946531e+01
 9.568730786461752e-01	 3.437610012650069e-01	 1.619694681869779e+01
 9.505137794457967e-01	 3.659684029576715e-01	 1.579950283806265e+01
 9.436736622717954e-01	 3.879970091915093e-01	 1.536142666200500e+01
 9.363472213109787e-01	 4.098302069345519e-01	 1.488366467511727e+01
 9.285296325490471e-01	 4.314513768232032e-01	 1.436773892133152e+01
 9.202167830650884e-01	 4.528439381382666e-01	 1.381577052301417e+01
 9.957179229122425e-01	 2.339122535574748e-01	 1.715028556414941e+01
 9.916005374791480e-01	 2.570941330418181e-01	 1.694722467327458e+01
 9.870326017877620e-01	 2.801773250107799e-01	 1.671033328196695e+01
 9.820055771421120e-01	 3.031456425612922e-01	 1.643823624086011e+01
 9.765114442609665e-01	 3.259826878383744e-01	 1.612992506396546e+01
 9.705427400435855e-01	 3.486718892333964e-01	 1.578479465144957e+01
 9.640925934049355e-01	 3.711965405861092e-01	 1.540267834183472e+01
 9.571547599412131e-01	 3.935398422506569e-01	 1.498388066056364e+01
 9.497236551845439e-01	 4.156849438654169e-01	 1.452920711274340e+01
 9.417943862059640e-01	 4.376149886466908e-01	 1.403999036127878e+01
 9.333627813284100e-01	 4.593131590072458e-01	 1.351811213913525e+01
 1.009742252244628e+00	 2.372068236462269e-01	 1.675264724713203e+01
 1.005566874916577e+00	 2.607152115768242e-01	 1.654682836334393e+01
 1.000934601491359e+00	 2.841235220132460e-01	 1.631082451072873e+01
 9.958367730085770e-01	 3.074153400658279e-01	 1.604332864408407e+01
 9.902652572383444e-01	 3.305740369218140e-01	 1.574336672465809e+01
 9.842124859648721e-01	 3.535828075675452e-01	 1.541033150261196e+01
 9.776714913264066e-01	 3.764247105426353e-01	 1.504401481419596e+01
 9.706359409690050e-01	 3.990827095843819e-01	 1.464463781417055e+01
 9.631001717696162e-01	 4.215397170000070e-01	 1.421287854569401e+01
 9.550592218841777e-01	 4.437786385842048e-01	 1.374989624298462e+01
 9.465088608791017e-01	 4.657824198802068e-01	 1.325735176804501e+01
 1.023766656840262e+00	 2.405014114133076e-01	 1.638255908888290e+01
 1.019533287305854e+00	 2.643363095427448e-01	 1.617590189453389e+01
 1.014836675801436e+00	 2.880697401918617e-01	 1.594236376100937e+01
 1.009668043101530e+00	 3.116850604831455e-01	 1.568070746851247e+01
 1.004019144026986e+00	 3.351654106447972e-01	 1.538999712092969e+01
 9.978823052463919e-01	 3.584937522568460e-01	 1.506962911131057e+01
 9.912504621207464e-01	 3.816529085574751e-01	 1.471936177368165e+01
 9.841171943454884e-01	 4.046256066658365e-01	 1.433934319276588e+01
 9.764767601419596e-01	 4.273945215566902e-01	 1.393013662573032e+01
 9.683241287506194e-01	 4.499423216018177e-01	 1.349274298296935e+01
 9.596550109810312e-01	 4.722517154736102e-01	 1.302861981952991e+01
 1.037791125245829e+00	 2.437960141684862e-01	 1.603762616799367e+01
 1.033499763241064e+00	 2.679574239826441e-01	 1.583174888584581e+01
 1.028738813364647e+00	 2.920159763241097e-01	 1.560197210085134e+01
 1.023499376125471e+00	 3.159548003264606e-01	 1.534712989617976e+01
 1.017773093394594e+00	 3.397568052577776e-01	 1.506632788648945e+01
 1.011552186724500e+00	 3.634047192906907e-01	 1.475897148519619e+01
 1.004829494698492e+00	 3.868811303608553e-01	 1.442479301655402e+01
 9.975985090609817e-01	 4.101685289681731e-01	 1.406387719270316e+01
 9.898534093773371e-01	 4.332493527538351e-01	 1.367668445929849e+01
 9.815890959722187e-01	 4.561060326656014e-01	 1.326407170611778e+01
 9.728012208980669e-01	 4.787210405039170e-01	 1.282730984243139e+01
 1.051815646008011e+00	 2.470906292215318e-01	 1.571558124012794e+01
 1.047466291316291e+00	 2.715785519395860e-01	 1.551181670833879e+01
 1.042641002827651e+00	 2.959622271874738e-01	 1.528682941685529e+01
 1.037330760784896e+00	 3.202245561089889e-01	 1.503952599871073e+01
 1.031527094108872e+00	 3.443482170112095e-01	 1.476905663767548e+01
 1.025222119235553e+00	 3.683157046584718e-01	 1.447484075176940e+01
 1.018408577970180e+00	 3.921093716830016e-01	 1.415659166742003e+01
 1.011079874105802e+00	 4.157114719645439e-01	 1.381433985063902e+01
 1.003230108551512e+00	 4.391042058098098e-01	 1.344845424600025e+01
 9.948541127159070e-01	 4.622697667416280e-01	 1.305966126698934e+01
 9.859474798940767e-01	 4.851903896875877e-01	 1.264906098361791e+01
 1.065840207673492e+00	 2.503852538822138e-01	 1.541427633968579e+01
 1.061432860125619e+00	 2.751996904566348e-01	 1.521368702936994e+01
 1.056543232837103e+00	 2.999084895594362e-01	 1.499426396728379e+01
 1.051162185784308e+00	 3.244943243439465e-01	 1.475498736471986e+01
 1.045281134937524e+00	 3.489396421555472e-01	 1.449505473943378e+01
 1.038892091615907e+00	 3.732267043495812e-01	 1.421390412576629e+01
 1.031987700846347e+00	 3.973376282541403e-01	 1.391123640907080e+01
 1.024561278470266e+00	 4.212544311281006e-01	 1.358703639475840e+01
 1.016606846740247e+00	 4.449590759429827e-01	 1.324159220767695e+01
 1.008119168148615e+00	 4.684335187959696e-01	 1.287551261042364e+01
 9.990937772329286e-01	 4.916597577410830e-01	 1.248974183061055e+01
 1.079864798788953e+00	 2.536798854603011e-01	 1.513167503534070e+01
 1.075399458263132e+00	 2.788208365768544e-01	 1.493506709303538e+01
 1.070445492039662e+00	 3.038547602174804e-01	 1.472174274853304e+01
 1.064993639828203e+00	 3.287641015445487e-01	 1.449075661265161e+01
 1.059035204648252e+00	 3.535310769412446e-01	 1.424135602380640e+01
 1.052562092701919e+00	 3.781377143534121e-01	 1.397300189122968e+01
 1.045566852237530e+00	 4.025658958044971e-01	 1.368538878442992e+01
 1.038042711144692e+00	 4.267974019319960e-01	 1.337846392094409e+01
 1.029983613019307e+00	 4.508139583717223e-01	 1.305244469087616e+01
 1.021384251437273e+00	 4.745972837946980e-01	 1.270783434978902e+01
 1.012240102178491e+00	 4.981291393808635e-01	 1.234543551218011e+01
 1.093889407901079e+00	 2.569745212655634e-01	 1.486584528081603e+01
 1.089366074322916e+00	 2.824419873433087e-01	 1.467378167079681e+01
 1.084347769081984e+00	 3.078010359390896e-01	 1.446686260203797e+01
 1.078825111621082e+00	 3.330338842240116e-01	 1.424421770966441e+01
 1.072789292008760e+00	 3.581225176187560e-01	 1.400514637551690e+01
 1.066232111329943e+00	 3.830487306593562e-01	 1.374913630727872e+01
 1.059146021054265e+00	 4.077941700642983e-01	 1.347588147447465e+01
 1.051524161119399e+00	 4.323403798493822e-01	 1.318529909301614e+01
 1.043360396464453e+00	 4.566688483143967e-01	 1.287754533748316e+01
 1.034649351748811e+00	 4.807610567038857e-01	 1.255302945368767e+01
 1.025386443994631e+00	 5.045985293233902e-01	 1.221242594411336e+01
 1.107914023556551e+00	 2.602691586077694e-01	 1.461495280820130e+01
 1.103332696899054e+00	 2.860631397990621e-01	 1.442776562295823e+01
 1.098250052610725e+00	 3.117473135017465e-01	 1.422734199605561e+01
 1.092656589867442e+00	 3.373036688955506e-01	 1.401288702519398e+01
 1.086543385786751e+00	 3.627139604385353e-01	 1.378375410788384e+01
 1.079902136336337e+00	 3.879597492568057e-01	 1.353946135579653e+01
 1.072725196207091e+00	 4.130224467637699e-01	 1.327970746572106e+01
 1.065005617384702e+00	 4.378833603534111e-01	 1.300438677637467e+01
 1.056737186151450e+00	 4.625237409893744e-01	 1.271360322894670e+01
 1.047914458250161e+00	 4.869248324896046e-01	 1.240768294297876e+01
 1.038532791945218e+00	 5.110679222851237e-01	 1.208718511875901e+01
 1.121938634302054e+00	 2.635637947966888e-01	 1.437725501637346e+01
 1.117299314585631e+00	 2.896842909871785e-01	 1.419505701758588e+01
 1.112152331272543e+00	 3.156935896829344e-01	 1.400101342332210e+01
 1.106488063271783e+00	 3.415734520723818e-01	 1.379440505496332e+01
 1.100297474749929e+00	 3.673054016510370e-01	 1.357464105996405e+01
 1.093572156557455e+00	 3.928707661351533e-01	 1.334127325742655e+01
 1.086304366606542e+00	 4.182507216331378e-01	 1.309401002949843e+01
 1.078487068930921e+00	 4.434263389172351e-01	 1.283272952343800e+01
 1.070113971156061e+00	 4.683786316150235e-01	 1.255749191897703e+01
 1.061179560108253e+00	 4.930886061179267e-01	 1.226855050978777e+01
 1.051679135294118e+00	 5.175373129825247e-01	 1.196636134709668e+01
 9.202167830650884e-01	 4.528439381382666e-01	 1.381577052301417e+01
 9.114046648473878e-01	 4.739928653376373e-01	 1.323030690666164e+01
 9.020912353519670e-01	 4.948802800036434e-01	 1.261313422114711e+01
 8.922746742864819e-01	 5.154899876712747e-01	 1.196621965785490e+01
 8.819539668184718e-01	 5.358060209788083e-01	 1.129241494299649e+01
 8.711289202812919e-01	 5.558126876982258e-01	 1.059547634329408e+01
 8.598001777972277e-01	 5.754946185800570e-01	 9.880074762034948e+00
 8.479692286694867e-01	 5.948368147295444e-01	 9.151795248469762e+00
 8.356384154163032e-01	 6.138246942277596e-01	 8.417125409206738e+00
 8.228109373437806e-01	 6.324441377108051e-01	 7.683432397961043e+00
 8.094908505790605e-01	 6.506815326226161e-01	 6.958928365670348e+00
 9.333627813284100e-01	 4.593131590072458e-01	 1.351811213913525e+01
 9.244247752827184e-01	 4.807642147537833e-01	 1.296652595520055e+01
 9.149782963456433e-01	 5.019500220617313e-01	 1.238758776078213e+01
 9.050214982206021e-01	 5.228541551156739e-01	 1.178314423053702e+01
 8.945533515775020e-01	 5.434604184478213e-01	 1.115579528378195e+01
 8.835736609973344e-01	 5.637528956545838e-01	 1.050890972386648e+01
 8.720830787899015e-01	 5.837159979249101e-01	 9.846632407687721e+00
 8.600831155342660e-01	 6.033345120932596e-01	 9.173882387267740e+00
 8.475761472133474e-01	 6.225936479267381e-01	 8.496341607507599e+00
 8.345654188377984e-01	 6.414790843554314e-01	 7.820433904802736e+00
 8.210550444796545e-01	 6.599770143573945e-01	 7.153294226609601e+00
 9.465088608791017e-01	 4.657824198802068e-01	 1.325735176804501e+01
 9.374449662274109e-01	 4.875356060421673e-01	 1.273840037413496e+01
 9.278654370263987e-01	 5.090198078370565e-01	 1.219574720877448e+01
 9.177684009750668e-01	 5.302183680976542e-01	 1.163112395342826e+01
 9.071528142455878e-01	 5.511148632487299e-01	 1.104689760663719e+01
 8.960184786665549e-01	 5.716931527097678e-01	 1.044608224484325e+01
 8.843660557353290e-01	 5.919374281068149e-01	 9.832343610716336e+00
 8.721970773069457e-01	 6.118322620022576e-01	 9.209996077406799e+00
 8.595139528291983e-01	 6.313626558479829e-01	 8.583991658141858e+00
 8.463199730175579e-01	 6.505140868668495e-01	 7.959900866675926e+00
 8.326193098892952e-01	 6.692725535698656e-01	 7.343885382249468e+00
 9.596550109810312e-01	 4.722517154736102e-01	 1.302861981952991e+01
 9.504652270480891e-01	 4.943070336725015e-01	 1.254095233478590e+01
 9.407526468694558e-01	 5.160896315556505e-01	 1.203260805433196e+01
 9.305153721395666e-01	 5.375826206028219e-01	 1.150520964383811e+01
 9.197523445327681e-01	 5.587693491301476e-01	 1.096091003176750e+01
 9.084633631252294e-01	 5.796334523790161e-01	 1.040240075883745e+01
 8.966490986019068e-01	 6.001589024114224e-01	 9.832914314357758e+00
 8.843111040939087e-01	 6.203300575165623e-01	 9.256220102371458e+00
 8.714518225140709e-01	 6.401317108300180e-01	 8.676613782541805e+00
 8.580745902829160e-01	 6.595491378663692e-01	 8.098899844921434e+00
 8.441836373632470e-01	 6.785681426685646e-01	 7.528367401521667e+00
 9.728012208980669e-01	 4.787210405039170e-01	 1.282730984243139e+01
 9.634855471113760e-01	 5.010784921144978e-01	 1.236947299640664e+01
 9.536399153500362e-01	 5.231594874435458e-01	 1.189343621535599e+01
 9.432624013037896e-01	 5.449469066167819e-01	 1.140071955590516e+01
 9.323519321490816e-01	 5.664238698406905e-01	 1.089328069367534e+01
 9.209083042096341e-01	 5.875737881775672e-01	 1.037352030910040e+01
 9.089321973580297e-01	 6.083804141243842e-01	 9.844282485698169e+00
 8.964251860015402e-01	 6.288278916961995e-01	 9.308849846639431e+00
 8.833897465181827e-01	 6.489008057113672e-01	 8.770933240664561e+00
 8.698292610337306e-01	 6.685842299752990e-01	 8.234655883196828e+00
 8.557480174567735e-01	 6.878637740620275e-01	 7.704531960730803e+00
 9.859474798940767e-01	 4.851903896875877e-01	 1.264906098361791e+01
 9.765059157838942e-01	 5.078499758378683e-01	 1.221950457486067e+01
 9.665272319433628e-01	 5.302293697267743e-01	 1.177375001058628e+01
 9.560094780574259e-01	 5.523112201251403e-01	 1.131322155160474e+01
 9.449515668045673e-01	 5.740784191289722e-01	 1.083970040630271e+01
 9.333532917560440e-01	 5.955141536206587e-01	 1.035532758211241e+01
 9.212153419720944e-01	 6.166019565313522e-01	 9.862602645172519e+00
 9.085393131362222e-01	 6.373257576011928e-01	 9.364378185763240e+00
 8.953277150917490e-01	 6.576699333305543e-01	 8.863849857587173e+00
 8.815839756698585e-01	 6.776193558149491e-01	 8.364541936816899e+00
 8.673124407251396e-01	 6.971594401587902e-01	 7.870288430235563e+00
 9.990937772329286e-01	 4.916597577410830e-01	 1.248974183061055e+01
 9.895263224322676e-01	 5.146214793123250e-01	 1.208682382574034e+01
 9.794145861246581e-01	 5.372992726313681e-01	 1.166930355380014e+01
 9.687565919901648e-01	 5.596755551135029e-01	 1.123851667812469e+01
 9.575512382092630e-01	 5.817329907436078e-01	 1.079608669556519e+01
 9.457983156007349e-01	 6.034545422235297e-01	 1.034392566545023e+01
 9.334985224124954e-01	 6.248235229179774e-01	 9.884231616392459e+00
 9.206534756043400e-01	 6.458236482915676e-01	 9.419482489455982e+00
 9.072657184849856e-01	 6.664390865261035e-01	 8.952426534015984e+00
 8.933387245911578e-01	 6.866545080066284e-01	 8.486069135918386e+00
 8.788768977236079e-01	 7.064551333673871e-01	 8.023656124780105e+00
 1.012240102178491e+00	 4.981291393808635e-01	 1.234543551218011e+01
 1.002546756423119e+00	 5.213929970075802e-01	 1.196742681344722e+01
 9.923019673691437e-01	 5.443691903833595e-01	 1.157607144089712e+01
 9.815037326916951e-01	 5.670399055674747e-01	 1.117262402386510e+01
 9.701509360732091e-01	 5.893875784332123e-01	 1.075856907507126e+01
 9.582433655799834e-01	 6.113949475014185e-01	 1.033561999236720e+01
 9.457817286476292e-01	 6.330451065699113e-01	 9.905715385455906e+00
 9.327676635122770e-01	 6.543215568273484e-01	 9.471012636583341e+00
 9.192037469481085e-01	 6.752082581365386e-01	 9.033878651338251e+00
 9.050934981974861e-01	 6.956896791716466e-01	 8.596877806709381e+00
 8.904413790074432e-01	 7.157508460963548e-01	 8.162757157194417e+00
 1.025386443994631e+00	 5.045985293233902e-01	 1.221242594411335e+01
 1.015567207123072e+00	 5.281645233933461e-01	 1.185751485092179e+01
 1.005189365152042e+00	 5.514391172087801e-01	 1.149023461393500e+01
 9.942508897517067e-01	 5.744042654726615e-01	 1.111176673840646e+01
 9.827506501064427e-01	 5.970421759463997e-01	 1.072347545355105e+01
 9.706884315300646e-01	 6.193353629695629e-01	 1.032690536667431e+01
 9.580649506458910e-01	 6.412667007728053e-01	 9.923776970250767e+00
 9.448818669664171e-01	 6.628194762685597e-01	 9.515979951323660e+00
 9.311417907313339e-01	 6.839774410003836e-01	 9.105564291001338e+00
 9.168482868887002e-01	 7.047248619313129e-01	 8.694729182825190e+00
 9.020058751319096e-01	 7.250465707542284e-01	 8.285809841358951e+00
 1.038532791945218e+00	 5.110679222851237e-01	 1.208718511875901e+01
 1.028587663898750e+00	 5.349360529393342e-01	 1.175348150637813e+01
 1.018076768948577e+00	 5.585090473336626e-01	 1.140816729791500e+01
 1.006998052759889e+00	 5.817686288146692e-01	 1.105235911339346e+01
 9.953503700190041e-01	 6.046967770317856e-01	 1.068731957379686e+01
 9.831335032872549e-01	 6.272757821432017e-01	 1.031445397227560e+01
 9.703481783756770e-01	 6.494882988123111e-01	 9.935305210331780e+00
 9.569960760731446e-01	 6.713173996752270e-01	 9.551546978939802e+00
 9.430798400848772e-01	 6.927466279561625e-01	 9.164975196122887e+00
 9.286030810646587e-01	 7.137600489069369e-01	 8.777497745691830e+00
 9.135703766522705e-01	 7.343422997495432e-01	 8.391122595803898e+00
 1.051679135294118e+00	 5.175373129825247e-01	 1.196636134709668e+01
 1.041608116116776e+00	 5.417075801152571e-01	 1.165190058375466e+01
 1.030964168233969e+00	 5.655789749840386e-01	 1.132642491652521e+01
 1.019745211305930e+00	 5.891329895791028e-01	 1.099099463157864e+01
 1.007950085520931e+00	 6.123513754379840e-01	 1.064678939293078e+01
 9.955785706878293e-01	 6.352161985375726e-01	 1.029510428126995e+01
 9.826314018053823e-01	 6.577098939740801e-01	 9.937344396884745e+00
 9.691102809388425e-01	 6.798153201073742e-01	 9.575018027754691e+00
 9.550178852589553e-01	 7.015158118423989e-01	 9.209728410437750e+00
 9.403578711252181e-01	 7.227952327198277e-01	 8.843164138902623e+00
 9.251348741237903e-01	 7.436380254908352e-01	 8.477088304172405e+00
 8.094908505790605e-01	 6.506815326226161e-01	 6.958928365670348e+00
 7.956830624271515e-01	 6.685238174230594e-01	 6.253095406553181e+00
 7.813933179443889e-01	 6.859585270306811e-01	 5.571711815902005e+00
 7.666281954255775e-01	 7.029738267457829e-01	 4.917897138583029e+00
 7.513950941565928e-01	 7.195585469175594e-01	 4.294558684984554e+00
 7.357022165618519e-01	 7.357022165618521e-01	 3.704368531626478e+00
 7.195585469175590e-01	 7.513950941565929e-01	 3.149743177428941e+00
 7.029738267457828e-01	 7.666281954255776e-01	 2.632826135945392e+00
 6.859585270306806e-01	 7.813933179443893e-01	 2.155473689008141e+00
 6.685238174230592e-01	 7.956830624271517e-01	 1.719243967224263e+00
 6.506815326226163e-01	 8.094908505790606e-01	 1.325389459309261e+00
 8.210550444796545e-01	 6.599770143573945e-01	 7.153294226609601e+00
 8.070500015485216e-01	 6.780741897983326e-01	 6.501118028362116e+00
 7.925561171731763e-01	 6.957579675236486e-01	 5.867204102073261e+00
 7.775800636242920e-01	 7.130163437660235e-01	 5.254746897187968e+00
 7.621293458920958e-01	 7.298379893077620e-01	 4.666780026985982e+00
 7.462122835788024e-01	 7.462122835788025e-01	 4.106152552675752e+00
 7.298379893077620e-01	 7.621293458920964e-01	 3.575507320783191e+00
 7.130163437660234e-01	 7.775800636242922e-01	 3.077261653991090e+00
 6.957579675236482e-01	 7.925561171731764e-01	 2.613590651968620e+00
 6.780741897983322e-01	 8.070500015485218e-01	 2.186413309194188e+00
 6.599770143573943e-01	 8.210550444796544e-01	 1.797381602781867e+00
 8.326193098892952e-01	 6.692725535698656e-01	 7.343885382249468e+00
 8.184170109590402e-01	 6.876246212274461e-01	 6.739381010794237e+00
 8.037189854285399e-01	 7.055574686107333e-01	 6.147641336906682e+00
 7.885319995449450e-01	 7.230589228837120e-01	 5.571906507240930e+00
 7.728636640035178e-01	 7.401174952607817e-01	 5.015301671936936e+00
 7.567224155850235e-01	 7.567224155850236e-01	 4.480812783129877e+00
 7.401174952607816e-01	 7.728636640035181e-01	 3.971263908218741e+00
 7.230589228837118e-01	 7.885319995449455e-01	 3.489296373635599e+00
 7.055574686107329e-01	 8.037189854285400e-01	 3.037350021302067e+00
 6.876246212274458e-01	 8.184170109590403e-01	 2.617646819887560e+00
 6.692725535698655e-01	 8.326193098892952e-01	 2.232177027567901e+00
 8.441836373632470e-01	 6.785681426685646e-01	 7.528367401521667e+00
 8.297840813750883e-01	 6.971751039107528e-01	 6.966164757710838e+00
 8.148819135936146e-01	 7.153570222888413e-01	 6.411883282214687e+00
 7.994839942429858e-01	 7.331015558971893e-01	 5.868781434046420e+00
 7.835980397240893e-01	 7.503970563814085e-01	 5.340043150132814e+00
 7.672326039968961e-01	 7.672326039968963e-01	 4.828753378249043e+00
 7.503970563814082e-01	 7.835980397240895e-01	 4.337874648001589e+00
 7.331015558971890e-01	 7.994839942429861e-01	 3.870225007079997e+00
 7.153570222888415e-01	 8.148819135936152e-01	 3.428457625385415e+00
 6.971751039107525e-01	 8.297840813750883e-01	 3.015042338037139e+00
 6.785681426685646e-01	 8.441836373632471e-01	 2.632249360569808e+00
 8.557480174567735e-01	 6.878637740620275e-01	 7.704531960730803e+00
 8.411512035130448e-01	 7.067256300486032e-01	 7.179842550958059e+00
 8.260448925515365e-01	 7.251566205548785e-01	 6.658851266949809e+00
 8.104360387738634e-01	 7.431442346047952e-01	 6.144809219172727e+00
 7.943324642870420e-01	 7.606766642744333e-01	 5.640928288183085e+00
 7.777428402308016e-01	 7.777428402308020e-01	 5.150356601668632e+00
 7.606766642744328e-01	 7.943324642870419e-01	 4.676154632751906e+00
 7.431442346047951e-01	 8.104360387738637e-01	 4.221272254308336e+00
 7.251566205548781e-01	 8.260448925515365e-01	 3.788527067300182e+00
 7.067256300486029e-01	 8.411512035130450e-01	 3.380584297009423e+00
 6.878637740620274e-01	 8.557480174567736e-01	 2.999938520275818e+00
 8.673124407251396e-01	 6.971594401587902e-01	 7.870288430235563e+00
 8.525183680892905e-01	 7.162761918413502e-01	 7.378874351457728e+00
 8.372079131854400e-01	 7.349562554057512e-01	 6.887524074978786e+00
 8.213881241930269e-01	 7.531869508048717e-01	 6.399457333746883e+00
 8.050669289256061e-01	 7.709563105446461e-01	 5.917884913924333e+00
 7.882531157031213e-01	 7.882531157031215e-01	 5.445984275944665e+00
 7.709563105446458e-01	 8.050669289256063e-01	 4.986875438164286e+00
 7.531869508048714e-01	 8.213881241930272e-01	 4.543597461609440e+00
 7.349562554057508e-01	 8.372079131854402e-01	 4.119085864363096e+00
 7.162761918413497e-01	 8.525183680892905e-01	 3.716151276570617e+00
 6.971594401587901e-01	 8.673124407251396e-01	 3.337459622368048e+00
 8.788768977236079e-01	 7.064551333673871e-01	 8.023656124780105e+00
 8.638855658202043e-01	 7.258267814893441e-01	 7.561801089273797e+00
 8.483709663784602e-01	 7.447559188383650e-01	 7.096934157233127e+00
 8.323402415559250e-01	 7.632296962957591e-01	 6.632221201083049e+00
 8.158014248730130e-01	 7.812359867968365e-01	 6.170844584609934e+00
 7.987634218302354e-01	 7.987634218302355e-01	 5.715979118678958e+00
 7.812359867968363e-01	 8.158014248730134e-01	 5.270767977297936e+00
 7.632296962957585e-01	 8.323402415559253e-01	 4.838298912628574e+00
 7.447559188383648e-01	 8.483709663784607e-01	 4.421581103364684e+00
 7.258267814893438e-01	 8.638855658202044e-01	 4.023522958961267e+00
 7.064551333673871e-01	 8.788768977236078e-01	 3.646911182847200e+00
 8.904413790074432e-01	 7.157508460963548e-01	 8.162757157194417e+00
 8.752527874221663e-01	 7.353773911929373e-01	 7.727239398239365e+00
 8.595340430137332e-01	 7.545556028496262e-01	 7.286164138770787e+00
 8.432923819180074e-01	 7.732724628757974e-01	 6.842622373264079e+00
 8.265359433624941e-01	 7.915156846357957e-01	 6.399742336261288e+00
 8.092737500285259e-01	 8.092737500285260e-01	 5.960665974616430e+00
 7.915156846357952e-01	 8.265359433624941e-01	 5.528525132638455e+00
 7.732724628757972e-01	 8.432923819180078e-01	 5.106417785329221e+00
 7.545556028496260e-01	 8.595340430137337e-01	 4.697384655504438e+00
 7.353773911929372e-01	 8.752527874221667e-01	 4.304386543388212e+00
 7.157508460963549e-01	 8.904413790074435e-01	 3.930282682482996e+00
 9.020058751319096e-01	 7.250465707542284e-01	 8.285809841358951e+00
 8.866200236115567e-01	 7.449280131524817e-01	 7.873876755279552e+00
 8.706971339743936e-01	 7.643552994364409e-01	 7.454343594304946e+00
 8.542445363347229e-01	 7.833152423433283e-01	 7.030206847869835e+00
 8.372704756272800e-01	 8.017953956663135e-01	 6.604516452283523e+00
 8.197840917143736e-01	 8.197840917143742e-01	 6.180352953042464e+00
 8.017953956663133e-01	 8.372704756272804e-01	 5.760804185858631e+00
 7.833152423433281e-01	 8.542445363347232e-01	 5.348941804821695e+00
 7.643552994364405e-01	 8.706971339743941e-01	 4.947797990506053e+00
 7.449280131524816e-01	 8.866200236115570e-01	 4.560342667498641e+00
 7.250465707542285e-01	 9.020058751319096e-01	 4.189461549859882e+00
 9.135703766522705e-01	 7.343422997495432e-01	 8.391122595803898e+00
 8.979872651047554e-01	 7.544786395683292e-01	 8.000466988600301e+00
 8.818602301435767e-01	 7.741550005957150e-01	 7.600646068430089e+00
 8.651966958615209e-01	 7.933580264966917e-01	 7.194543512444906e+00
 8.480050129006019e-01	 8.120751114931807e-01	 6.785108249639362e+00
 8.302944383041598e-01	 8.302944383041599e-01	 6.375332478865043e+00
 8.120751114931802e-01	 8.480050129006023e-01	 5.968229063188804e+00
 7.933580264966916e-01	 8.651966958615213e-01	 5.566808618985434e+00
 7.741550005957150e-01	 8.818602301435772e-01	 5.174056625398281e+00
 7.544786395683287e-01	 8.979872651047555e-01	 4.792910879484427e+00
 7.343422997495435e-01	 9.135703766522707e-01	 4.426239614493270e+00
 9.251348741237903e-01	 7.436380254908352e-01	 8.477088304172405e+00
 9.093545026181421e-01	 7.640292626408308e-01	 8.105826122492999e+00
 8.930233224044176e-01	 7.839546983243546e-01	 7.724286319151805e+00
 8.761488515538501e-01	 8.034008071342293e-01	 7.335222705536984e+00
 8.587395464156911e-01	 8.223548237211875e-01	 6.941461881046433e+00
 8.408047812142654e-01	 8.408047812142655e-01	 6.545882264927529e+00
 8.223548237211870e-01	 8.587395464156912e-01	 6.151392412518646e+00
 8.034008071342290e-01	 8.761488515538506e-01	 5.760908921121239e+00
 7.839546983243543e-01	 8.930233224044180e-01	 5.377334239903221e+00
 7.640292626408302e-01	 9.093545026181423e-01	 5.003534700106096e+00
 7.436380254908355e-01	 9.251348741237905e-01	 4.642319076348256e+00
 6.506815326226163e-01	 8.094908505790606e-01	 1.325389459309261e+00
 6.324441377108048e-01	 8.228109373437807e-01	 9.761034915040540e-01
 6.138246942277593e-01	 8.356384154163033e-01	 6.728161036360126e-01
 5.948368147295442e-01	 8.479692286694869e-01	 4.147324920301598e-01
 5.754946185800568e-01	 8.598001777972279e-01	 2.001904197045787e-01
 5.558126876982253e-01	 8.711289202812919e-01	 2.670098471636301e-02
 5.358060209788079e-01	 8.819539668184722e-01	-1.090020980531872e-01
 5.154899876712745e-01	 8.922746742864820e-01	-2.109057596272625e-01
 4.948802800036430e-01	 9.020912353519670e-01	-2.836545349472800e-01
 4.739928653376368e-01	 9.114046648473878e-01	-3.324824288767113e-01
 4.528439381382665e-01	 9.202167830650881e-01	-3.631409340019761e-01
 6.599770143573943e-01	 8.210550444796544e-01	 1.797381602781867e+00
 6.414790843554309e-01	 8.345654188377986e-01	 1.447470371108024e+00
 6.225936479267378e-01	 8.475761472133476e-01	 1.136863344290985e+00
 6.033345120932594e-01	 8.600831155342663e-01	 8.652470668134037e-01
 5.837159979249100e-01	 8.720830787899015e-01	 6.315639693447592e-01
 5.637528956545833e-01	 8.835736609973346e-01	 4.340447648994560e-01
 5.434604184478211e-01	 8.945533515775020e-01	 2.702482397027125e-01
 5.228541551156736e-01	 9.050214982206022e-01	 1.371075614332680e-01
 5.019500220617310e-01	 9.149782963456434e-01	 3.098214456085457e-02
 4.807642147537830e-01	 9.244247752827184e-01	-5.228594436756040e-02
 4.593131590072458e-01	 9.333627813284101e-01	-1.173120893754067e-01
 6.692725535698655e-01	 8.326193098892952e-01	 2.232177027567901e+00
 6.505140868668492e-01	 8.463199730175580e-01	 1.880913375754721e+00
 6.313626558479827e-01	 8.595139528291983e-01	 1.563023840613223e+00
 6.118322620022574e-01	 8.721970773069458e-01	 1.278625031244740e+00
 5.919374281068147e-01	 8.843660557353294e-01	 1.027201115186279e+00
 5.716931527097676e-01	 8.960184786665553e-01	 8.076286554760331e-01
 5.511148632487294e-01	 9.071528142455881e-01	 6.182078268720672e-01
 5.302183680976538e-01	 9.177684009750672e-01	 4.566992974225897e-01
 5.090198078370561e-01	 9.278654370263989e-01	 3.203659876321349e-01
 4.875356060421670e-01	 9.374449662274114e-01	 2.060188672286779e-01
 4.657824198802068e-01	 9.465088608791018e-01	 1.100659191857707e-01
 6.785681426685646e-01	 8.441836373632471e-01	 2.632249360569808e+00
 6.595491378663686e-01	 8.580745902829160e-01	 2.279237594739376e+00
 6.401317108300179e-01	 8.714518225140712e-01	 1.954361241322069e+00
 6.203300575165623e-01	 8.843111040939093e-01	 1.658118261853870e+00
 6.001589024114220e-01	 8.966490986019068e-01	 1.390474624462084e+00
 5.796334523790159e-01	 9.084633631252296e-01	 1.150882364738924e+00
 5.587693491301475e-01	 9.197523445327686e-01	 9.383031102023615e-01
 5.375826206028216e-01	 9.305153721395665e-01	 7.512365015539426e-01
 5.160896315556502e-01	 9.407526468694557e-01	 5.877528781237908e-01
 4.943070336725011e-01	 9.504652270480891e-01	 4.455295468632380e-01
 4.722517154736102e-01	 9.596550109810310e-01	 3.218899242727880e-01
 6.878637740620274e-01	 8.557480174567736e-01	 2.999938520275818e+00
 6.685842299752985e-01	 8.698292610337308e-01	 2.645096501785283e+00
 6.489008057113668e-01	 8.833897465181827e-01	 2.313773612817185e+00
 6.288278916961991e-01	 8.964251860015403e-01	 2.006802887467480e+00
 6.083804141243839e-01	 9.089321973580301e-01	 1.724574990747202e+00
 5.875737881775670e-01	 9.209083042096341e-01	 1.467050257603212e+00
 5.664238698406903e-01	 9.323519321490821e-01	 1.233775376936316e+00
 5.449469066167815e-01	 9.432624013037897e-01	 1.023904284853028e+00
 5.231594874435456e-01	 9.536399153500364e-01	 8.362227728746005e-01
 5.010784921144974e-01	 9.634855471113758e-01	 6.691762725828585e-01
 4.787210405039172e-01	 9.728012208980670e-01	 5.209002485904466e-01
 6.971594401587901e-01	 8.673124407251396e-01	 3.337459622368048e+00
 6.776193558149488e-01	 8.815839756698589e-01	 2.981002054871710e+00
 6.576699333305539e-01	 8.953277150917490e-01	 2.644004470666299e+00
 6.373257576011925e-01	 9.085393131362224e-01	 2.327590999054316e+00
 6.166019565313520e-01	 9.212153419720943e-01	 2.032522579637932e+00
 5.955141536206586e-01	 9.333532917560440e-01	 1.759203706792506e+00
 5.740784191289717e-01	 9.449515668045674e-01	 1.507693094663803e+00
 5.523112201251401e-01	 9.560094780574260e-01	 1.277717942489119e+00
 5.302293697267740e-01	 9.665272319433633e-01	 1.068691428007154e+00
 5.078499758378680e-01	 9.765059157838943e-01	 8.797330158620891e-01
 4.851903896875877e-01	 9.859474798940765e-01	 7.096911386872704e-01
 7.064551333673871e-01	 8.788768977236078e-01	 3.646911182847200e+00
 6.866545080066282e-01	 8.933387245911584e-01	 3.289333999376075e+00
 6.664390865261031e-01	 9.072657184849857e-01	 2.947652940917475e+00
 6.458236482915671e-01	 9.206534756043400e-01	 2.623241435884618e+00
 6.248235229179774e-01	 9.334985224124955e-01	 2.317178816367847e+00
 6.034545422235295e-01	 9.457983156007354e-01	 2.030252469750041e+00
 5.817329907436075e-01	 9.575512382092632e-01	 1.762963277793397e+00
 5.596755551135026e-01	 9.687565919901651e-01	 1.515534123568276e+00
 5.372992726313677e-01	 9.794145861246583e-01	 1.287921200247913e+00
 5.146214793123248e-01	 9.895263224322677e-01	 1.079827817915019e+00
 4.916597577410830e-01	 9.990937772329286e-01	 8.907203756628559e-01
 7.157508460963549e-01	 8.904413790074435e-01	 3.930282682482996e+00
 6.956896791716466e-01	 9.050934981974866e-01	 3.572348446898320e+00
 6.752082581365383e-01	 9.192037469481085e-01	 3.227183130277067e+00
 6.543215568273478e-01	 9.327676635122771e-01	 2.896369731908015e+00
 6.330451065699109e-01	 9.457817286476290e-01	 2.581256502384270e+00
 6.113949475014181e-01	 9.582433655799836e-01	 2.282955179773666e+00
 5.893875784332121e-01	 9.701509360732092e-01	 2.002341969060708e+00
 5.670399055674743e-01	 9.815037326916953e-01	 1.740061131276112e+00
 5.443691903833591e-01	 9.923019673691438e-01	 1.496531007285042e+00
 5.213929970075799e-01	 1.002546756423119e+00	 1.271952265918870e+00
 4.981291393808635e-01	 1.012240102178491e+00	 1.066318137610889e+00
 7.250465707542285e-01	 9.020058751319096e-01	 4.189461549859882e+00
 7.047248619313127e-01	 9.168482868887010e-01	 3.832185794714885e+00
 6.839774410003833e-01	 9.311417907313339e-01	 3.484932776095929e+00
 6.628194762685597e-01	 9.448818669664175e-01	 3.149457297650790e+00
 6.412667007728051e-01	 9.580649506458917e-01	 2.827329338992030e+00
 6.193353629695627e-01	 9.706884315300651e-01	 2.519929030800652e+00
 5.970421759463996e-01	 9.827506501064432e-01	 2.228443915426451e+00
 5.744042654726613e-01	 9.942508897517068e-01	 1.953868431350587e+00
 5.514391172087798e-01	 1.005189365152043e+00	 1.697005522571918e+00
 5.281645233933456e-01	 1.015567207123073e+00	 1.458470240895681e+00
 5.045985293233903e-01	 1.025386443994631e+00	 1.238695180894616e+00
 7.343422997495435e-01	 9.135703766522707e-01	 4.426239614493270e+00
 7.137600489069367e-01	 9.286030810646588e-01	 4.070878044242051e+00
 6.927466279561619e-01	 9.430798400848776e-01	 3.723121239924591e+00
 6.713173996752266e-01	 9.569960760731446e-01	 3.384859905318087e+00
 6.494882988123111e-01	 9.703481783756774e-01	 3.057840728267204e+00
 6.272757821432012e-01	 9.831335032872551e-01	 2.743658727234460e+00
 6.046967770317851e-01	 9.953503700190042e-01	 2.443751509690697e+00
 5.817686288146687e-01	 1.006998052759889e+00	 2.159395438976409e+00
 5.585090473336621e-01	 1.018076768948577e+00	 1.891703672357030e+00
 5.349360529393340e-01	 1.028587663898750e+00	 1.641626001734884e+00
 5.110679222851237e-01	 1.038532791945217e+00	 1.409950400562818e+00
 7.436380254908355e-01	 9.251348741237905e-01	 4.642319076348256e+00
 7.227952327198275e-01	 9.403578711252182e-01	 4.290355571051882e+00
 7.015158118423985e-01	 9.550178852589556e-01	 3.943856902030607e+00
 6.798153201073739e-01	 9.691102809388428e-01	 3.604815538021455e+00
 6.577098939740799e-01	 9.826314018053828e-01	 3.275111914429307e+00
 6.352161985375724e-01	 9.955785706878293e-01	 2.956504763070294e+00
 6.123513754379838e-01	 1.007950085520931e+00	 2.650623062022036e+00
 5.891329895791025e-01	 1.019745211305930e+00	 2.358959647189196e+00
 5.655789749840383e-01	 1.030964168233969e+00	 2.082866495945136e+00
 5.417075801152568e-01	 1.041608116116776e+00	 1.823551663399794e+00
 5.175373129825247e-01	 1.051679135294118e+00	 1.582077824187985e+00
 4.528439381382665e-01	 9.202167830650881e-01	-3.631409340019761e-01
 4.314513768232033e-01	 9.285296325490469e-01	-3.807637546595548e-01
 4.098302069345520e-01	 9.363472213109786e-01	-3.869489642624826e-01
 3.879970091915094e-01	 9.436736622717951e-01	-3.826529211353999e-01
 3.659684029576717e-01	 9.505137794457966e-01	-3.690414089561376e-01
 3.437610012650071e-01	 9.568730786461752e-01	-3.474676805732375e-01
 3.213913671440240e-01	 9.627577163271481e-01	-3.194497987604672e-01
 2.988759714563226e-01	 9.681744667976357e-01	-2.866476300187024e-01
 2.762311524069802e-01	 9.731306880439857e-01	-2.508398249349200e-01
 2.534730768946626e-01	 9.776342863994822e-01	-2.139010912430819e-01
 2.306177038372821e-01	 9.816936802964242e-01	-1.777800347515130e-01
 4.593131590072458e-01	 9.333627813284101e-01	-1.173120893754067e-01
 4.376149886466910e-01	 9.417943862059641e-01	-1.676672840416999e-01
 4.156849438654171e-01	 9.497236551845435e-01	-2.042416967798515e-01
 3.935398422506571e-01	 9.571547599412135e-01	-2.280964543717079e-01
 3.711965405861093e-01	 9.640925934049352e-01	-2.405058130797504e-01
 3.486718892333965e-01	 9.705427400435856e-01	-2.429340783426992e-01
 3.259826878383746e-01	 9.765114442609666e-01	-2.370118813013662e-01
 3.031456425612923e-01	 9.820055771421120e-01	-2.245121788494591e-01
 2.801773250107800e-01	 9.870326017877615e-01	-2.073263191728421e-01
 2.570941330418183e-01	 9.916005374791478e-01	-1.874404852587817e-01
 2.339122535574748e-01	 9.957179229122425e-01	-1.669127958456524e-01
 4.657824198802068e-01	 9.465088608791018e-01	 1.100659191857707e-01
 4.437786385842050e-01	 9.550592218841775e-01	 3.021672783539109e-02
 4.215397170000070e-01	 9.631001717696162e-01	-3.389210793290576e-02
 3.990827095843820e-01	 9.706359409690051e-01	-8.339056601997785e-02
 3.764247105426354e-01	 9.776714913264067e-01	-1.196239340243677e-01
 3.535828075675455e-01	 9.842124859648724e-01	-1.441289770681202e-01
 3.305740369218143e-01	 9.902652572383446e-01	-1.586095107283054e-01
 3.074153400658280e-01	 9.958367730085771e-01	-1.649117523024508e-01
 2.841235220132461e-01	 1.000934601491359e+00	-1.649997973554349e-01
 2.607152115768244e-01	 1.005566874916577e+00	-1.609315375121581e-01
 2.372068236462269e-01	 1.009742252244628e+00	-1.548353010191952e-01
 4.722517154736102e-01	 9.596550109810310e-01	 3.218899242727904e-01
 4.499423216018179e-01	 9.683241287506192e-01	 2.155730527445738e-01
 4.273945215566904e-01	 9.764767601419596e-01	 1.265876125450651e-01
 4.046256066658366e-01	 9.841171943454887e-01	 5.376881851421311e-02
 3.816529085574754e-01	 9.912504621207464e-01	-4.264092071247338e-03
 3.584937522568462e-01	 9.978823052463918e-01	-4.908363597714893e-02
 3.351654106447973e-01	 1.004019144026986e+00	-8.242930296378992e-02
 3.116850604831456e-01	 1.009668043101530e+00	-1.061825930059004e-01
 2.880697401918619e-01	 1.014836675801436e+00	-1.223422203158706e-01
 2.643363095427450e-01	 1.019533287305854e+00	-1.329998008085522e-01
 2.405014114133076e-01	 1.023766656840262e+00	-1.403163043643807e-01
 4.787210405039172e-01	 9.728012208980670e-01	 5.209002485904446e-01
 4.561060326656015e-01	 9.815890959722186e-01	 3.909414180773718e-01
 4.332493527538352e-01	 9.898534093773371e-01	 2.795508788218251e-01
 4.101685289681732e-01	 9.975985090609815e-01	 1.855613101517777e-01
 3.868811303608555e-01	 1.004829494698492e+00	 1.075902473875050e-01
 3.634047192906908e-01	 1.011552186724500e+00	 4.406434728219022e-02
 3.397568052577777e-01	 1.017773093394594e+00	-6.755816142271387e-03
 3.159548003264608e-01	 1.023499376125470e+00	-4.675079983822816e-02
 2.920159763241100e-01	 1.028738813364647e+00	-7.791753084946218e-02
 2.679574239826443e-01	 1.033499763241064e+00	-1.023450508477595e-01
 2.437960141684862e-01	 1.037791125245829e+00	-1.221910450918053e-01
 4.851903896875877e-01	 9.859474798940765e-01	 7.096911386872700e-01
 4.622697667416281e-01	 9.948541127159070e-01	 5.587261770417464e-01
 4.391042058098099e-01	 1.003230108551511e+00	 4.272256699899981e-01
 4.157114719645438e-01	 1.011079874105801e+00	 3.140503555985703e-01
 3.921093716830018e-01	 1.018408577970179e+00	 2.178481525642892e-01
 3.683157046584720e-01	 1.025222119235553e+00	 1.370781286478409e-01
 3.443482170112096e-01	 1.031527094108872e+00	 7.003498197454139e-02
 3.202245561089890e-01	 1.037330760784897e+00	 1.487366585051575e-02
 2.959622271874740e-01	 1.042641002827651e+00	-3.036618468376040e-02
 2.715785519395862e-01	 1.047466291316291e+00	-6.773633430267756e-02
 2.470906292215318e-01	 1.051815646008011e+00	-9.935681132799479e-02
 4.916597577410830e-01	 9.990937772329286e-01	 8.907203756628559e-01
 4.684335187959697e-01	 1.008119168148615e+00	 7.212052160661082e-01
 4.449590759429830e-01	 1.016606846740247e+00	 5.717227842366182e-01
 4.212544311281008e-01	 1.024561278470266e+00	 4.411908821357529e-01
 3.973376282541404e-01	 1.031987700846347e+00	 3.283182982876687e-01
 3.732267043495814e-01	 1.038892091615907e+00	 2.316281502270252e-01
 3.489396421555473e-01	 1.045281134937523e+00	 1.494817312854757e-01
 3.244943243439466e-01	 1.051162185784308e+00	 8.010250122272944e-02
 2.999084895594364e-01	 1.056543232837103e+00	 2.159988714976513e-02
 2.751996904566350e-01	 1.061432860125619e+00	-2.800740751007003e-02
 2.503852538822138e-01	 1.065840207673492e+00	-7.076885384552933e-02
 4.981291393808635e-01	 1.012240102178491e+00	 1.066318137610889e+00
 4.745972837946981e-01	 1.021384251437272e+00	 8.805381686967435e-01
 4.508139583717224e-01	 1.029983613019306e+00	 7.150434503650851e-01
 4.267974019319963e-01	 1.038042711144692e+00	 5.688363472065487e-01
 4.025658958044973e-01	 1.045566852237530e+00	 4.407154883288171e-01
 3.781377143534123e-01	 1.052562092701918e+00	 3.292981642693651e-01
 3.535310769412447e-01	 1.059035204648252e+00	 2.330432281484784e-01
 3.287641015445488e-01	 1.064993639828203e+00	 1.502741530882468e-01
 3.038547602174806e-01	 1.070445492039662e+00	 7.920192372809653e-02
 2.788208365768544e-01	 1.075399458263132e+00	 1.794746970776973e-02
 2.536798854603012e-01	 1.079864798788953e+00	-3.543661793800057e-02
 5.045985293233903e-01	 1.025386443994631e+00	 1.238695180894616e+00
 4.807610567038857e-01	 1.034649351748811e+00	 1.038773998174590e+00
 4.566688483143969e-01	 1.043360396464453e+00	 8.590863542961598e-01
 4.323403798493825e-01	 1.051524161119399e+00	 6.987452461723556e-01
 4.077941700642985e-01	 1.059146021054265e+00	 5.566666764215586e-01
 3.830487306593562e-01	 1.066232111329943e+00	 4.315907941384478e-01
 3.581225176187561e-01	 1.072789292008759e+00	 3.221035476992187e-01
 3.330338842240117e-01	 1.078825111621081e+00	 2.266585177355021e-01
 3.078010359390897e-01	 1.084347769081983e+00	 1.435986226028401e-01
 2.824419873433090e-01	 1.089366074322916e+00	 7.117741693455937e-02
 2.569745212655634e-01	 1.093889407901079e+00	 7.579735087007933e-03
 5.110679222851237e-01	 1.038532791945217e+00	 1.409950400562818e+00
 4.869248324896047e-01	 1.047914458250161e+00	 1.197858004586637e+00
 4.625237409893745e-01	 1.056737186151450e+00	 1.005654132342073e+00
 4.378833603534112e-01	 1.065005617384702e+00	 8.325871262093294e-01
 4.130224467637700e-01	 1.072725196207091e+00	 6.777165303606572e-01
 3.879597492568058e-01	 1.079902136336336e+00	 5.399326732734742e-01
 3.627139604385357e-01	 1.086543385786751e+00	 4.179767774476573e-01
 3.373036688955508e-01	 1.092656589867441e+00	 3.104612841028500e-01
 3.117473135017467e-01	 1.098250052610725e+00	 2.158901027319342e-01
 2.860631397990623e-01	 1.103332696899054e+00	 1.326785213883337e-01
 2.602691586077694e-01	 1.107914023556551e+00	 5.917254243902303e-02
 5.175373129825247e-01	 1.051679135294118e+00	 1.582077824187983e+00
 4.930886061179270e-01	 1.061179560108253e+00	 1.359638306901764e+00
 4.683786316150236e-01	 1.070113971156061e+00	 1.156459377875832e+00
 4.434263389172353e-01	 1.078487068930921e+00	 9.719481495240732e-01
 4.182507216331380e-01	 1.086304366606542e+00	 8.053325791275281e-01
 3.928707661351534e-01	 1.093572156557455e+00	 6.556791990373501e-01
 3.673054016510371e-01	 1.100297474749929e+00	 5.219113961399062e-01
 3.415734520723819e-01	 1.106488063271783e+00	 4.028279514730293e-01
 3.156935896829346e-01	 1.112152331272543e+00	 2.971215704304380e-01
 2.896842909871788e-01	 1.117299314585631e+00	 2.033971572481188e-01
 2.635637947966888e-01	 1.121938634302054e+00	 1.201896134795413e-01
 2.306177038372821e-01	 9.816936802964242e-01	-1.777800347515130e-01
 2.076791456684508e-01	 9.853180020131134e-01	-1.447318137974509e-01
 1.846744644584667e-01	 9.885162853320296e-01	-1.156610389245669e-01
 1.616188232546627e-01	 9.912982639881665e-01	-9.047067800152853e-02
 1.385270506335802e-01	 9.936740343365396e-01	-6.899639474679509e-02
 1.154136152499789e-01	 9.956540178012000e-01	-5.101402863483884e-02
 9.229260277661536e-02	 9.972489236794971e-01	-3.624698077186661e-02
 6.917769523648026e-02	 9.984697124756582e-01	-2.437342295208111e-02
 4.608215271279750e-02	 9.993275599243346e-01	-1.503325891901586e-02
 2.301879740688172e-02	 9.998338218507749e-01	-7.834778515011465e-03
 0.000000000000000e+00	 1.000000000000000e+00	-2.360956659310798e-03
 2.339122535574748e-01	 9.957179229122425e-01	-1.669127958456529e-01
 2.106460005981401e-01	 9.993940208268849e-01	-1.475077434525707e-01
 1.873126799789159e-01	 1.002637994060108e+00	-1.297098300702140e-01
 1.639276713629985e-01	 1.005459715400836e+00	-1.136510652285692e-01
 1.405060151646193e-01	 1.007869425438318e+00	-9.941026609391423e-02
 1.170623867344659e-01	 1.009877694474696e+00	-8.701756379322534e-02
 9.361107297002917e-02	 1.011495384797892e+00	-7.645896725801338e-02
 7.016595135258435e-02	 1.012733613491392e+00	-6.768092129471581e-02
 4.674047139590386e-02	 1.013603715943827e+00	-6.059480278831808e-02
 2.334763847636898e-02	 1.014117210207157e+00	-5.508130628580066e-02
 0.000000000000000e+00	 1.014285762337685e+00	-5.099467748658748e-02
 2.372068236462269e-01	 1.009742252244628e+00	-1.548353010191952e-01
 2.136128738698931e-01	 1.013470126677695e+00	-1.480469067842134e-01
 1.899509118092326e-01	 1.016759790108138e+00	-1.407012440452293e-01
 1.662365337446358e-01	 1.019621254379648e+00	-1.331322511951591e-01
 1.424849919293242e-01	 1.022064904316569e+00	-1.256339042205301e-01
 1.187111684111829e-01	 1.024101459100028e+00	-1.184620146200670e-01
 9.492955131367173e-02	 1.025741934009444e+00	-1.118362197745872e-01
 7.115421357755045e-02	 1.026997602708497e+00	-1.059421205843178e-01
 4.739879414830253e-02	 1.027879960240767e+00	-1.009335241876124e-01
 2.367648157849975e-02	 1.028400686885902e+00	-9.693475296856313e-02
 0.000000000000000e+00	 1.028571613012482e+00	-9.404298471136041e-02
 2.405014114133076e-01	 1.023766656840262e+00	-1.403163043643829e-01
 2.165797630611406e-01	 1.027546308069888e+00	-1.452536608265804e-01
 1.925891577952661e-01	 1.030881661943092e+00	-1.476601947831004e-01
 1.685454085144206e-01	 1.033782869359052e+00	-1.480460412675115e-01
 1.444639793119431e-01	 1.036260459377960e+00	-1.468937324870834e-01
 1.203599589340152e-01	 1.038325300060698e+00	-1.446575440292226e-01
 9.624803673113642e-02	 1.039988559678984e+00	-1.417631525017726e-01
 7.214248110458996e-02	 1.041261668477513e+00	-1.386075761676557e-01
 4.805712043257780e-02	 1.042156281155644e+00	-1.355593693317076e-01
 2.400532644483619e-02	 1.042684240221567e+00	-1.329590410497197e-01
 0.000000000000000e+00	 1.042857540357000e+00	-1.311196690785552e-01
 2.437960141684862e-01	 1.037791125245829e+00	-1.221910450918053e-01
 2.195466657493138e-01	 1.041622553507811e+00	-1.380915206973388e-01
 1.952274157828656e-01	 1.045003598031943e+00	-1.496642404902775e-01
 1.708542937871995e-01	 1.047944548773499e+00	-1.575711098436408e-01
 1.464429756967243e-01	 1.050456079029154e+00	-1.624579313394858e-01
 1.220087569568486e-01	 1.052549205740208e+00	-1.649515479336547e-01
 9.756652814601643e-02	 1.054235250171347e+00	-1.656574012176688e-01
 7.313075312691415e-02	 1.055525799148979e+00	-1.651574917455201e-01
 4.871544971131398e-02	 1.056432667028950e+00	-1.640087241695110e-01
 2.433417280694042e-02	 1.056967858548713e+00	-1.627416165223776e-01
 0.000000000000000e+00	 1.057143532703853e+00	-1.618593503490144e-01
 2.470906292215318e-01	 1.051815646008011e+00	-9.935681132799257e-02
 2.225135795118439e-01	 1.055698851495811e+00	-1.255792117655159e-01
 1.978656836178807e-01	 1.059125586841663e+00	-1.458400700077447e-01
 1.731631876778185e-01	 1.062106281057438e+00	-1.609298717049348e-01
 1.484219794679158e-01	 1.064651751676819e+00	-1.716336504585678e-01
 1.236575611335684e-01	 1.066773164522058e+00	-1.787261690209343e-01
 9.888502448190516e-02	 1.068481993851369e+00	-1.829676045335353e-01
 7.411902883773439e-02	 1.069789983073437e+00	-1.850997388623372e-01
 4.937378144709543e-02	 1.070709106201178e+00	-1.858426478169588e-01
 2.466302039637459e-02	 1.071251530201898e+00	-1.858918767602691e-01
 0.000000000000000e+00	 1.071429578385649e+00	-1.859160848146755e-01
 2.503852538822138e-01	 1.065840207673492e+00	-7.076885384552933e-02
 2.254805019261618e-01	 1.069775190538234e+00	-1.067870332271070e-01
 2.005039591461607e-01	 1.073247616839224e+00	-1.353602663326621e-01
 1.754720883011241e-01	 1.076268054645321e+00	-1.573856001597753e-01
 1.504009890097659e-01	 1.078847465727620e+00	-1.737644408181622e-01
 1.253063701180602e-01	 1.080997164789749e+00	-1.853960066449418e-01
 1.002035246623959e-01	 1.082728779083882e+00	-1.931713601470277e-01
 7.510730743026205e-02	 1.084054208601425e+00	-1.979680326192912e-01
 5.003211510250640e-02	 1.084985587012820e+00	-2.006452453371281e-01
 2.499186894470083e-02	 1.085535243515682e+00	-2.020397224011203e-01
 0.000000000000000e+00	 1.085715665735001e+00	-2.029620826541119e-01
 2.536798854603012e-01	 1.079864798788953e+00	-3.543661793800057e-02
 2.284474305696987e-01	 1.083851559139426e+00	-8.083350480303242e-02
 2.031422402135546e-01	 1.087369676491597e+00	-1.174403221223244e-01
 1.777809937719622e-01	 1.090429857971597e+00	-1.462397695596733e-01
 1.523800027065227e-01	 1.093043209588223e+00	-1.682278866754476e-01
 1.269551825642095e-01	 1.095221194926783e+00	-1.844060050185106e-01
 1.015220276110820e-01	 1.096975594233721e+00	-1.957733402157293e-01
 7.609558809770840e-02	 1.098318464083486e+00	-2.033202494215307e-01
 5.069045014013127e-02	 1.099262097804365e+00	-2.080221672118867e-01
 2.532071818348128e-02	 1.099818986824623e+00	-2.108342219772696e-01
 0.000000000000000e+00	 1.100001783084519e+00	-2.126865251510135e-01
 2.569745212655634e-01	 1.093889407901079e+00	 7.579735087007933e-03
 2.314143630198855e-01	 1.097927945803735e+00	-4.688227117170940e-02
 2.057805246659121e-01	 1.101491754265755e+00	-9.133588458644537e-02
 1.800899022051794e-01	 1.104591679470715e+00	-1.268296020691868e-01
 1.543590189424344e-01	 1.107238971665294e+00	-1.544334195664183e-01
 1.286039971259017e-01	 1.109445243316661e+00	-1.752295037191429e-01
 1.028405322515567e-01	 1.111222427665721e+00	-1.903035515827312e-01
 7.708387003328478e-02	 1.112582737870157e+00	-2.007368740229056e-01
 5.134878602255434e-02	 1.113538626916308e+00	-2.075992241433922e-01
 2.564956784427809e-02	 1.114102748463282e+00	-2.119423791813180e-01
 0.000000000000000e+00	 1.114287918766816e+00	-2.147944728207472e-01
 2.602691586077694e-01	 1.107914023556551e+00	 5.917254243902259e-02
 2.343812968541535e-01	 1.112004339035504e+00	-4.139241316141407e-03
 2.084188103490823e-01	 1.115613838628670e+00	-5.634020945819462e-02
 1.823988117156219e-01	 1.118753507577126e+00	-9.852580060598659e-02
 1.563380361017490e-01	 1.121434740365498e+00	-1.318202981917842e-01
 1.302528124570224e-01	 1.123669298342884e+00	-1.573664361373148e-01
 1.041590375074133e-01	 1.125469267744714e+00	-1.763157280293961e-01
 7.807215243020260e-02	 1.126847018311981e+00	-1.898195644204794e-01
 5.200712221235990e-02	 1.127815162689139e+00	-1.990211069744887e-01
 2.597841765865338e-02	 1.128386516766216e+00	-2.050479936815539e-01
 0.000000000000000e+00	 1.128574061114501e+00	-2.090058563963457e-01
 2.635637947966888e-01	 1.121938634302054e+00	 1.201896134795413e-01
 2.373482296499335e-01	 1.126080727339082e+00	 4.815005775103498e-02
 2.110570951089145e-01	 1.129735918047314e+00	-1.178180576350107e-02
 1.847077204181358e-01	 1.132915330725281e+00	-6.073045167350832e-02
 1.583170525687149e-01	 1.135630504095502e+00	-9.985573968980965e-02
 1.319016272114572e-01	 1.137893348388953e+00	-1.303416629322798e-01
 1.054775423022452e-01	 1.139716102835537e+00	-1.533858430120107e-01
 7.906043448167313e-02	 1.141111293759497e+00	-1.701898242955409e-01
 5.266545817213228e-02	 1.142091693463350e+00	-1.819502025385948e-01
 2.630726735816929e-02	 1.142670280067985e+00	-1.898506073073853e-01
 0.000000000000000e+00	 1.142860198460186e+00	-1.950545434295961e-01
 1.142860198460186e+00	 0.000000000000000e+00	 1.522721491225521e+01
 1.142670280067985e+00	 2.630726735816965e-02	 1.520853959590644e+01
 1.142091693463350e+00	 5.266545817213261e-02	 1.517833718567428e+01
 1.141111293759497e+00	 7.906043448167339e-02	 1.513541039461891e+01
 1.139716102835537e+00	 1.054775423022454e-01	 1.507855006913898e+01
 1.137893348388953e+00	 1.319016272114574e-01	 1.500654131628945e+01
 1.135630504095502e+00	 1.583170525687151e-01	 1.491817027997248e+01
 1.132915330725281e+00	 1.847077204181359e-01	 1.481223155822436e+01
 1.129735918047314e+00	 2.110570951089146e-01	 1.468753624317843e+01
 1.126080727339082e+00	 2.373482296499335e-01	 1.454292055350991e+01
 1.121938634302054e+00	 2.635637947966888e-01	 1.437725501637346e+01
 1.157145321350848e+00	 0.000000000000000e+00	 1.498830115874333e+01
 1.156953029083323e+00	 2.663609370653390e-02	 1.496852544268717e+01
 1.156367210464742e+00	 5.332374738429320e-02	 1.493779694377341e+01
 1.155374556304495e+00	 8.004864635632550e-02	 1.489491023573758e+01
 1.153961926262349e+00	 1.067959534713262e-01	 1.483865268091526e+01
 1.152116388389058e+00	 1.335503248849476e-01	 1.476781124421548e+01
 1.149825259788246e+00	 1.602959285071759e-01	 1.468117997440066e+01
 1.147076148246399e+00	 1.870164651665215e-01	 1.457756813742478e+01
 1.143856994661234e+00	 2.136951925256247e-01	 1.445580897477815e+01
 1.140156116082579e+00	 2.403149517652857e-01	 1.431476904686492e+01
 1.135962249164317e+00	 2.668581970349608e-01	 1.415335810753881e+01
 1.171430429241259e+00	 0.000000000000000e+00	 1.476109947070431e+01
 1.171235763100916e+00	 2.696491970997891e-02	 1.474046804231765e+01
 1.170642712476017e+00	 5.398203590584637e-02	 1.470945226407346e+01
 1.169637803872298e+00	 8.103685719410998e-02	 1.466684621067796e+01
 1.168207734730349e+00	 1.081143632569114e-01	 1.461144090876535e+01
 1.166339413454362e+00	 1.351990208281577e-01	 1.454203172152281e+01
 1.164020000575990e+00	 1.622748023686339e-01	 1.445742641330127e+01
 1.161236950898263e+00	 1.893252074914670e-01	 1.435645387242831e+01
 1.157978056447746e+00	 2.163332871729747e-01	 1.423797345767353e+01
 1.154231490046761e+00	 2.432816707661114e-01	 1.410088491994690e+01
 1.149985849301752e+00	 2.701525958145355e-01	 1.394413883600683e+01
 1.185715523798227e+00	 0.000000000000000e+00	 1.454492546470595e+01
 1.185518483787291e+00	 2.729374540682903e-02	 1.452366512568612e+01
 1.184918201162855e+00	 5.464032381352620e-02	 1.449257713269501e+01
 1.183901038127150e+00	 8.202506711023397e-02	 1.445046225258153e+01
 1.182453529901738e+00	 1.094327718127217e-01	 1.439612188185943e+01
 1.180562425244395e+00	 1.368477152333390e-01	 1.432836588916501e+01
 1.178214728114948e+00	 1.642536743838632e-01	 1.424602114484899e+01
 1.175397740333110e+00	 1.916339476622378e-01	 1.414794071030559e+01
 1.172099105054432e+00	 2.189713793586628e-01	 1.403301364610337e+01
 1.168306850873861e+00	 2.462483869984567e-01	 1.390017538336255e+01
 1.164009436350526e+00	 2.734469915196950e-01	 1.374841858731114e+01
 1.200000606688556e+00	 0.000000000000000e+00	 1.433912734966863e+01
 1.199801192808974e+00	 2.762257083540859e-02	 1.431744786756979e+01
 1.199193678190934e+00	 5.529861118406665e-02	 1.428648011019449e+01
 1.198164260733292e+00	 8.301327621990451e-02	 1.424503829996634e+01
 1.196699313438714e+00	 1.107511792924778e-01	 1.419194048716081e+01
 1.194785425418687e+00	 1.384964082927426e-01	 1.412601674040937e+01
 1.192409444061335e+00	 1.662325447836382e-01	 1.404611802616945e+01
 1.189558518203180e+00	 1.939426859480992e-01	 1.395112574505653e+01
 1.186220142128876e+00	 2.216094693903864e-01	 1.383996187881095e+01
 1.182382200206109e+00	 2.492151008083671e-01	 1.371159968649247e+01
 1.178033011946810e+00	 2.767413845347217e-01	 1.356507487246669e+01
 1.214285679579051e+00	 0.000000000000000e+00	 1.414308400968050e+01
 1.214083891832494e+00	 2.795139603404196e-02	 1.412117891935521e+01
 1.213469145225935e+00	 5.595689809420178e-02	 1.409050229777866e+01
 1.212427473354969e+00	 8.400148463832864e-02	 1.404988817876684e+01
 1.210945087003475e+00	 1.120695858499002e-01	 1.399817714838163e+01
 1.209008415636766e+00	 1.401451001986199e-01	 1.393422477658551e+01
 1.206604150071366e+00	 1.682114137987335e-01	 1.385691073458043e+01
 1.203719286160712e+00	 1.962514226183162e-01	 1.376514856191313e+01
 1.200341169318661e+00	 2.242475575758435e-01	 1.365789603290295e+01
 1.196457539685740e+00	 2.521818125418887e-01	 1.353416605639509e+01
 1.192056577726769e+00	 2.800357752438980e-01	 1.339303802648174e+01
 1.228570744136519e+00	 0.000000000000000e+00	 1.395620322058549e+01
 1.228366582524378e+00	 2.828022104105345e-02	 1.393425057902679e+01
 1.227744603933536e+00	 5.661518462066559e-02	 1.390401544542795e+01
 1.226690677656422e+00	 8.498969248071346e-02	 1.386435763215578e+01
 1.225190852258222e+00	 1.133879916387098e-01	 1.381414575991347e+01
 1.223231397558160e+00	 1.417937911432220e-01	 1.375226582640595e+01
 1.220798847801256e+00	 1.701902816599234e-01	 1.367763045248830e+01
 1.217880045857944e+00	 1.985601579421542e-01	 1.358918876694536e+01
 1.214462188271370e+00	 2.268856442227320e-01	 1.348593687629990e+01
 1.210532870954982e+00	 2.551485225450670e-01	 1.336692885030087e+01
 1.206080135326573e+00	 2.833301640315056e-01	 1.323128813723350e+01
 1.242855802027764e+00	 0.000000000000000e+00	 1.377791998957974e+01
 1.242649266551153e+00	 2.860904589476743e-02	 1.375608308737801e+01
 1.242020055979417e+00	 5.727347084019214e-02	 1.372642019050938e+01
 1.240953875301895e+00	 8.597789986226598e-02	 1.368782248625648e+01
 1.239436610865154e+00	 1.147063968126271e-01	 1.363919176326232e+01
 1.237454372842400e+00	 1.434424813188002e-01	 1.357944901569592e+01
 1.234993538907220e+00	 1.721691485979826e-01	 1.350754371196526e+01
 1.232040798947115e+00	 2.008688921888784e-01	 1.342246368705917e+01
 1.228583200634588e+00	 2.295237296387498e-01	 1.332324560279767e+01
 1.224608195656070e+00	 2.581152311639481e-01	 1.320898590450929e+01
 1.220103686382390e+00	 2.866245512818271e-01	 1.307885218617044e+01
 1.257140854919592e+00	 0.000000000000000e+00	 1.360769500803041e+01
 1.256931945579345e+00	 2.893787063350823e-02	 1.358612304040325e+01
 1.256295503029258e+00	 5.793175682951539e-02	 1.355714441649797e+01
 1.255217067955632e+00	 8.696610689819327e-02	 1.351968694093459e+01
 1.253682364486469e+00	 1.160248015253727e-01	 1.347269035465077e+01
 1.251677343149015e+00	 1.450911709176057e-01	 1.341511487556674e+01
 1.249188225045472e+00	 1.741480148436853e-01	 1.334595038630445e+01
 1.246201547080464e+00	 2.031776256277540e-01	 1.326422622683088e+01
 1.242704208055896e+00	 2.321618141315945e-01	 1.316902153521246e+01
 1.238683515431234e+00	 2.610819387445777e-01	 1.305947606406375e+01
 1.234127232530387e+00	 2.899189373791445e-01	 1.293480138398914e+01
 1.271425904478810e+00	 0.000000000000000e+00	 1.344501320861078e+01
 1.271214621275483e+00	 2.926669529560020e-02	 1.342384190873189e+01
 1.270570946748737e+00	 5.859004266536945e-02	 1.339564172235872e+01
 1.269480257281874e+00	 8.795431370370244e-02	 1.335938197583062e+01
 1.267928114784366e+00	 1.173432059306674e-01	 1.331404481346996e+01
 1.265900310137534e+00	 1.467398601318897e-01	 1.325863357814272e+01
 1.263382907872229e+00	 1.761268806278061e-01	 1.319218181699123e+01
 1.260362291910229e+00	 2.054863585280462e-01	 1.311376286984131e+01
 1.256825212182878e+00	 2.347998980089641e-01	 1.302249998338769e+01
 1.252758831922707e+00	 2.640486456330018e-01	 1.291757687898448e+01
 1.248150775406733e+00	 2.932133227077401e-01	 1.279824868594925e+01
 1.285710952372222e+00	 0.000000000000000e+00	 1.328938241863731e+01
 1.285497295306093e+00	 2.959551991936768e-02	 1.326873465577780e+01
 1.284846388803535e+00	 5.924832842448829e-02	 1.324138999398151e+01
 1.283743444944865e+00	 8.894252039400048e-02	 1.320636386266906e+01
 1.282173863421045e+00	 1.186616101822318e-01	 1.316268494218068e+01
 1.280123275467486e+00	 1.483885491539035e-01	 1.310940328991955e+01
 1.277577589043704e+00	 1.781057461811192e-01	 1.304559906555728e+01
 1.274523035088650e+00	 2.077950911590204e-01	 1.297039181326936e+01
 1.270946214663118e+00	 2.374379815785564e-01	 1.288295024501667e+01
 1.266834146772720e+00	 2.670153521752661e-01	 1.278250245410315e+01
 1.262174316647597e+00	 2.965077076518963e-01	 1.266834647285271e+01
 1.121938634302054e+00	 2.635637947966888e-01	 1.437725501637346e+01
 1.117299314585631e+00	 2.896842909871785e-01	 1.419505701758588e+01
 1.112152331272543e+00	 3.156935896829344e-01	 1.400101342332210e+01
 1.106488063271783e+00	 3.415734520723818e-01	 1.379440505496332e+01
 1.100297474749929e+00	 3.673054016510370e-01	 1.357464105996405e+01
 1.093572156557455e+00	 3.928707661351533e-01	 1.334127325742655e+01
 1.086304366606542e+00	 4.182507216331378e-01	 1.309401002949843e+01
 1.078487068930921e+00	 4.434263389172351e-01	 1.283272952343800e+01
 1.070113971156061e+00	 4.683786316150235e-01	 1.255749191897703e+01
 1.061179560108253e+00	 4.930886061179267e-01	 1.226855050978777e+01
 1.051679135294118e+00	 5.175373129825247e-01	 1.196636134709668e+01
 1.135962249164317e+00	 2.668581970349608e-01	 1.415335810753881e+01
 1.131264940507173e+00	 2.933051850388362e-01	 1.397634397638814e+01
 1.126053622738153e+00	 3.196395856405782e-01	 1.378869079022652e+01
 1.120318554507902e+00	 3.458429320534967e-01	 1.358975229363492e+01
 1.114050587040045e+00	 3.718965168269621e-01	 1.337899209452696e+01
 1.107241206075309e+00	 3.977814342839482e-01	 1.315599606885648e+01
 1.099882572754026e+00	 4.234786252445681e-01	 1.292048439169715e+01
 1.091967563164214e+00	 4.489689238761272e-01	 1.267232299278596e+01
 1.083489806280113e+00	 4.742331064869885e-01	 1.241153422553657e+01
 1.074443720016364e+00	 4.992519420589114e-01	 1.213830653318424e+01
 1.064824545126001e+00	 5.240062442908520e-01	 1.185300289470033e+01
 1.149985849301752e+00	 2.701525958145355e-01	 1.394413883600683e+01
 1.145230551764896e+00	 2.969260752888895e-01	 1.377266815308999e+01
 1.139954899607613e+00	 3.235855774551876e-01	 1.359162423188774e+01
 1.134149031222319e+00	 3.501124075518628e-01	 1.340042818301467e+01
 1.127803684889805e+00	 3.764876271823806e-01	 1.319859406950028e+01
 1.120910241241152e+00	 4.026920972766797e-01	 1.298573952885114e+01
 1.113460764644947e+00	 4.287065233668244e-01	 1.276159609508117e+01
 1.105448043243582e+00	 4.545115030154289e-01	 1.252601904934108e+01
 1.096865627360146e+00	 4.800875752118876e-01	 1.227899661973549e+01
 1.087707865997702e+00	 5.054152715285448e-01	 1.202065834601847e+01
 1.077969941155748e+00	 5.304751688069794e-01	 1.175128242360378e+01
 1.164009436350526e+00	 2.734469915196950e-01	 1.374841858731114e+01
 1.159196149988179e+00	 3.005469621597157e-01	 1.358276641948729e+01
 1.153856163502768e+00	 3.275315655870698e-01	 1.340847819850631e+01
 1.147979495028594e+00	 3.543818790655260e-01	 1.322503710499007e+01
 1.141556769903712e+00	 3.810787332528600e-01	 1.303200386470692e+01
 1.134579263649660e+00	 4.076027556861920e-01	 1.282902574122902e+01
 1.127038943863363e+00	 4.339344166097565e-01	 1.261584529534935e+01
 1.118928510741666e+00	 4.600540769816966e-01	 1.239230876779544e+01
 1.110241435956580e+00	 4.859420384726595e-01	 1.215837393469549e+01
 1.100971999599649e+00	 5.115785952457937e-01	 1.191411728077229e+01
 1.091115324916893e+00	 5.369440872855219e-01	 1.165974033378274e+01
 1.178033011946810e+00	 2.767413845347217e-01	 1.356507487246669e+01
 1.173161736806400e+00	 3.041678460736917e-01	 1.340543579712530e+01
 1.167757416045464e+00	 3.314775504965320e-01	 1.323798073850687e+01
 1.161809947540286e+00	 3.586513470925324e-01	 1.306224989991989e+01
 1.155309843686275e+00	 3.856698355739673e-01	 1.287784708032000e+01
 1.148248274895508e+00	 4.125134100853290e-01	 1.268444718605971e+01
 1.140617111993330e+00	 4.391623055832140e-01	 1.248180356952545e+01
 1.132408967231106e+00	 4.655966464214871e-01	 1.226975507654364e+01
 1.123617233629833e+00	 4.917964969522419e-01	 1.204823267823882e+01
 1.114236122369594e+00	 5.177419139296247e-01	 1.181726555893522e+01
 1.104260697942969e+00	 5.434130004810946e-01	 1.157698653006246e+01
 1.192056577726769e+00	 2.800357752438980e-01	 1.339303802648174e+01
 1.187127313848934e+00	 3.077887274531949e-01	 1.323952991909273e+01
 1.181658658857547e+00	 3.354235326438813e-01	 1.307891975748641e+01
 1.175640390370952e+00	 3.629208121309280e-01	 1.291079995734025e+01
 1.169062907841999e+00	 3.902609346812700e-01	 1.273481399452722e+01
 1.161917276573373e+00	 4.174240610469351e-01	 1.255066257993454e+01
 1.154195270618903e+00	 4.443901908970469e-01	 1.235810971476807e+01
 1.145889414284543e+00	 4.711392119813576e-01	 1.215698853107526e+01
 1.136993021940326e+00	 4.976509513335730e-01	 1.194720681682867e+01
 1.127500235854920e+00	 5.239052282990043e-01	 1.172875212118211e+01
 1.117406061767513e+00	 5.498819091483128e-01	 1.150169633373802e+01
 1.206080135326573e+00	 2.833301640315056e-01	 1.323128813723350e+01
 1.201092882745161e+00	 3.114096067206020e-01	 1.308395573869652e+01
 1.195559893560861e+00	 3.393695124894245e-01	 1.293013953819693e+01
 1.189470825134154e+00	 3.671902746787588e-01	 1.276947957944448e+01
 1.182815963975389e+00	 3.948520311103353e-01	 1.260165580325201e+01
 1.175586270277928e+00	 4.223347091438544e-01	 1.242639302508967e+01
 1.167773421324141e+00	 4.496180731611049e-01	 1.224346584032169e+01
 1.159369853474618e+00	 4.766817743078645e-01	 1.205270338228190e+01
 1.150368802448477e+00	 5.035054022995908e-01	 1.185399385368812e+01
 1.140764341603015e+00	 5.300685390728993e-01	 1.164728874850329e+01
 1.130551417924058e+00	 5.563508140417918e-01	 1.143260667946429e+01
 1.220103686382390e+00	 2.866245512818271e-01	 1.307885218617044e+01
 1.215058445124458e+00	 3.150304842982906e-01	 1.293767046515138e+01
 1.209461121777253e+00	 3.433154904934693e-01	 1.279053750055761e+01
 1.203301253443449e+00	 3.714597352340707e-01	 1.263713659538699e+01
 1.196569013690954e+00	 3.994431253967306e-01	 1.247718111923485e+01
 1.189255257603850e+00	 4.272453549489311e-01	 1.231041842413821e+01
 1.181351565693099e+00	 4.548459529852373e-01	 1.213663372902001e+01
 1.172850286373970e+00	 4.822243340475645e-01	 1.195565391594727e+01
 1.163744576714707e+00	 5.093598505332340e-01	 1.176735117742545e+01
 1.154028441161263e+00	 5.362318469702763e-01	 1.157164645087427e+01
 1.143696767946139e+00	 5.628197159161465e-01	 1.136851257446007e+01
 1.234127232530387e+00	 2.899189373791445e-01	 1.293480138398914e+01
 1.229024002616201e+00	 3.186513606086377e-01	 1.279967870822364e+01
 1.223362345128567e+00	 3.472614671163222e-01	 1.265906118260083e+01
 1.217131676912398e+00	 3.757291942949100e-01	 1.251267120645675e+01
 1.210322058593197e+00	 4.040342180760229e-01	 1.236025270984107e+01
 1.202924240145814e+00	 4.321559990350092e-01	 1.220157413928059e+01
 1.194929705309834e+00	 4.600738309792942e-01	 1.203643144689728e+01
 1.186330714555242e+00	 4.877668918470147e-01	 1.186465104184647e+01
 1.177120346299433e+00	 5.152142967174402e-01	 1.168609265964557e+01
 1.167292536077051e+00	 5.423951527101019e-01	 1.150065210218098e+01
 1.156842113367289e+00	 5.692886155259922e-01	 1.130826379915815e+01
 1.248150775406733e+00	 2.932133227077401e-01	 1.279824868594925e+01
 1.242989556849769e+00	 3.222722360740202e-01	 1.266902981539325e+01
 1.237263565236651e+00	 3.512074428182910e-01	 1.253470542497320e+01
 1.230962097154558e+00	 3.799986523593224e-01	 1.239503304396011e+01
 1.224075100286626e+00	 4.086253096837797e-01	 1.224978445481715e+01
 1.216593219498494e+00	 4.370666419749334e-01	 1.209874787676271e+01
 1.208507841758404e+00	 4.653017077531252e-01	 1.194173018139139e+01
 1.199811139591073e+00	 4.933094483527717e-01	 1.177855911281994e+01
 1.190496112763076e+00	 5.210687415351478e-01	 1.160908548196242e+01
 1.180556627897764e+00	 5.485584570113426e-01	 1.143318530203025e+01
 1.169987455721043e+00	 5.757575136259440e-01	 1.125076183030889e+01
 1.262174316647597e+00	 2.965077076518963e-01	 1.266834647285271e+01
 1.256955109454539e+00	 3.258931111168156e-01	 1.254481538655837e+01
 1.251164783723348e+00	 3.551534180596824e-01	 1.241650974315792e+01
 1.244792515783490e+00	 3.842681099253539e-01	 1.228321842326706e+01
 1.237828140375747e+00	 4.132164007555682e-01	 1.214473850688606e+01
 1.230262197256569e+00	 4.419772843415474e-01	 1.200087677906033e+01
 1.222085976622863e+00	 4.705295839165800e-01	 1.185145129035744e+01
 1.213291563054103e+00	 4.988520042113921e-01	 1.169629295593330e+01
 1.203871877666055e+00	 5.269231856692950e-01	 1.153524717456765e+01
 1.193820718170790e+00	 5.547217605929656e-01	 1.136817544679632e+01
 1.183132796540936e+00	 5.822264109706171e-01	 1.119495696923360e+01
 1.051679135294118e+00	 5.175373129825247e-01	 1.196636134709668e+01
 1.041608116116776e+00	 5.417075801152571e-01	 1.165190058375466e+01
 1.030964168233969e+00	 5.655789749840386e-01	 1.132642491652521e+01
 1.019745211305930e+00	 5.891329895791028e-01	 1.099099463157864e+01
 1.007950085520931e+00	 6.123513754379840e-01	 1.064678939293078e+01
 9.955785706878293e-01	 6.352161985375726e-01	 1.029510428126995e+01
 9.826314018053823e-01	 6.577098939740801e-01	 9.937344396884743e+00
 9.691102809388425e-01	 6.798153201073742e-01	 9.575018027754691e+00
 9.550178852589553e-01	 7.015158118423989e-01	 9.209728410437750e+00
 9.403578711252181e-01	 7.227952327198277e-01	 8.843164138902623e+00
 9.251348741237903e-01	 7.436380254908352e-01	 8.477088304172405e+00
 1.064824545126001e+00	 5.240062442908520e-01	 1.185300289470033e+01
 1.054627643757190e+00	 5.484786264475274e-01	 1.155623327649422e+01
 1.043850652389678e+00	 5.726484006014743e-01	 1.124893799670094e+01
 1.032491464680596e+00	 5.964968274030253e-01	 1.093212573284611e+01
 1.020548906321208e+00	 6.200054302940132e-01	 1.060690385901871e+01
 1.008022754368101e+00	 6.431560510859452e-01	 1.027447406000720e+01
 9.949137530071114e-01	 6.659309053234386e-01	 9.936126742586561e+00
 9.812236255783677e-01	 6.883126371053294e-01	 9.593234260527549e+00
 9.669550827157742e-01	 7.102843730320811e-01	 9.247242992562340e+00
 9.521118264813074e-01	 7.318297749475440e-01	 8.899664335632989e+00
 9.366985504033987e-01	 7.529330911458786e-01	 8.552064698634554e+00
 1.077969941155748e+00	 5.304751688069794e-01	 1.175128242360378e+01
 1.067647157727559e+00	 5.552496656704091e-01	 1.147114325733609e+01
 1.056737123014926e+00	 5.797178187962588e-01	 1.118088839588500e+01
 1.045237704671911e+00	 6.038606574951999e-01	 1.088147567609011e+01
 1.033147713892791e+00	 6.276594771135987e-01	 1.057394290523256e+01
 1.020466924981896e+00	 6.510958952978120e-01	 1.025940312241303e+01
 1.007196091312141e+00	 6.741519080410896e-01	 9.939038869338317e+00
 9.933369574985162e-01	 6.968099451814584e-01	 9.614095500738234e+00
 9.788922676380573e-01	 7.190529250151160e-01	 9.285873583720338e+00
 9.638657694951804e-01	 7.408643076892963e-01	 8.955720454428384e+00
 9.482622145405371e-01	 7.622281470413493e-01	 8.625021018858289e+00
 1.091115324916893e+00	 5.369440872855219e-01	 1.165974033378274e+01
 1.080666659546745e+00	 5.620206985737621e-01	 1.139521100168181e+01
 1.069623581613069e+00	 5.867872303930618e-01	 1.112090636394897e+01
 1.057983932766892e+00	 6.112244807146443e-01	 1.083773429565526e+01
 1.045746509705525e+00	 6.353135167896200e-01	 1.054666581134939e+01
 1.032911083981049e+00	 6.590357320994003e-01	 1.024873004282927e+01
 1.019478418153453e+00	 6.823729030860695e-01	 9.945008418321338e+00
 1.005450278112578e+00	 7.053072453270419e-01	 9.636628085139010e+00
 9.908294414185685e-01	 7.278214688144412e-01	 9.324754633722842e+00
 9.756197015382420e-01	 7.498988319990696e-01	 9.010584196371330e+00
 9.598258678844229e-01	 7.715231942616434e-01	 8.695335008484125e+00
 1.104260697942969e+00	 5.434130004810946e-01	 1.157698653006246e+01
 1.093686150733604e+00	 5.687917259474445e-01	 1.132708458145184e+01
 1.082510029687462e+00	 5.938566362165515e-01	 1.106768737710814e+01
 1.070730150452557e+00	 6.185882979203762e-01	 1.079965381492694e+01
 1.058345295229253e+00	 6.429675502149553e-01	 1.052389093932920e+01
 1.045355232817389e+00	 6.669755624169363e-01	 1.024134870193016e+01
 1.031760734964027e+00	 6.905938914174142e-01	 9.953014095864770e+00
 1.017563588833845e+00	 7.138045385333613e-01	 9.659904715943956e+00
 1.002766605450071e+00	 7.365900054529947e-01	 9.363061809711787e+00
 9.873736239818964e-01	 7.589333489308475e-01	 9.063542896594171e+00
 9.713895117842751e-01	 7.808182338911576e-01	 8.762414043287233e+00
 1.117406061767513e+00	 5.498819091483128e-01	 1.150169633373802e+01
 1.106705632806998e+00	 5.755627485813165e-01	 1.126547568898295e+01
 1.095396468741459e+00	 6.009260370913970e-01	 1.101998830126398e+01
 1.083476359215923e+00	 6.259521099714127e-01	 1.076604517659715e+01
 1.070944071933819e+00	 6.506215782824841e-01	 1.050449225812553e+01
 1.057799372942749e+00	 6.749153871766472e-01	 1.023620503366601e+01
 1.044043043176842e+00	 6.988148739941590e-01	 9.962082669894350e+00
 1.029676891075605e+00	 7.223018257916974e-01	 9.683041733753617e+00
 1.014703761125330e+00	 7.453585359537156e-01	 9.400009571938369e+00
 9.991275381975498e-01	 7.679678595386151e-01	 9.113917428507369e+00
 9.829531475893118e-01	 7.901132670142886e-01	 8.825693388479337e+00
 1.130551417924058e+00	 5.563508140417918e-01	 1.143260667946429e+01
 1.119725107285783e+00	 5.823337672652362e-01	 1.120915593836109e+01
 1.108282900278415e+00	 6.079954338422673e-01	 1.097662382305211e+01
 1.096222560544009e+00	 6.333159177267716e-01	 1.073577462898880e+01
 1.083542841289068e+00	 6.582756018850847e-01	 1.048739611098016e+01
 1.070243505808959e+00	 6.828552073047597e-01	 1.023229399919099e+01
 1.056325344224879e+00	 7.070358517753396e-01	 9.971286175956362e+00
 1.041790186251149e+00	 7.307991080933313e-01	 9.705196580762799e+00
 1.026640909837109e+00	 7.541270613395418e-01	 9.434848918693362e+00
 1.010881445556606e+00	 7.770023648763554e-01	 9.161060254261695e+00
 9.945167766487508e-01	 7.994082947154326e-01	 8.884634577608729e+00
 1.143696767946139e+00	 5.628197159161465e-01	 1.136851257446007e+01
 1.132744575688819e+00	 5.891047827890633e-01	 1.115695342186464e+01
 1.121169325801685e+00	 6.150648272938309e-01	 1.093646312705363e+01
 1.108968755923832e+00	 6.406797220454709e-01	 1.070776054783363e+01
 1.096141604764842e+00	 6.659296219156364e-01	 1.047157820568896e+01
 1.082687632867852e+00	 6.907950237275002e-01	 1.022865676951023e+01
 1.068607639541119e+00	 7.152568257199923e-01	 9.979739315951848e+00
 1.053903475773768e+00	 7.392963864295434e-01	 9.725565438940743e+00
 1.038578052978170e+00	 7.628955826334110e-01	 9.466865286777573e+00
 1.022635347430469e+00	 7.860368659980541e-01	 9.204353609677229e+00
 1.006080400311810e+00	 8.087033180789859e-01	 8.938723903273225e+00
 1.156842113367289e+00	 5.692886155259922e-01	 1.130826379915815e+01
 1.145764039534964e+00	 5.958757959426564e-01	 1.110774950122279e+01
 1.134055746814624e+00	 6.221342182707570e-01	 1.089842679958667e+01
 1.121714946842410e+00	 6.480435237865279e-01	 1.068097047477194e+01
 1.108740363830987e+00	 6.735836392670183e-01	 1.045606081010078e+01
 1.095131755571259e+00	 6.987348373710959e-01	 1.022437810024116e+01
 1.080889930558540e+00	 7.234777967871520e-01	 9.986597034250781e+00
 1.066016761056750e+00	 7.477936617916149e-01	 9.743381029262531e+00
 1.050515191941278e+00	 7.716641008582622e-01	 9.495376595138803e+00
 1.034389245190546e+00	 7.950713639576943e-01	 9.243207812941360e+00
 1.017644019927708e+00	 8.179983381893458e-01	 8.987471010751189e+00
 1.169987455721043e+00	 5.757575136259440e-01	 1.125076183030889e+01
 1.158783500343078e+00	 6.026468075158748e-01	 1.106047581521850e+01
 1.146942164820587e+00	 6.292036075977139e-01	 1.086148394125484e+01
 1.134461134786759e+00	 6.554073238089599e-01	 1.065441835552717e+01
 1.121339119957345e+00	 6.812376548321089e-01	 1.043991013670548e+01
 1.107575875371013e+00	 7.066746491617736e-01	 1.021858388337785e+01
 1.093172218710124e+00	 7.316987659358548e-01	 9.991052257232695e+00
 1.078130043513388e+00	 7.562909351708273e-01	 9.757910559324255e+00
 1.062452328119198e+00	 7.804326170370328e-01	 9.519731420413391e+00
 1.046143140208240e+00	 8.041058598092611e-01	 9.277059687340369e+00
 1.029207636845662e+00	 8.272933561309074e-01	 9.030407586454668e+00
 1.183132796540936e+00	 5.822264109706171e-01	 1.119495696923360e+01
 1.171802959632020e+00	 6.094178182985777e-01	 1.101411148680701e+01
 1.159828581322929e+00	 6.362729960993709e-01	 1.082464947201441e+01
 1.147207321243899e+00	 6.627711229717850e-01	 1.062716196222290e+01
 1.133937874613762e+00	 6.888916695037870e-01	 1.042223390160246e+01
 1.120019993718943e+00	 7.146144600257595e-01	 1.021043886228924e+01
 1.105454505428850e+00	 7.399197341251366e-01	 9.992333783541838e+00
 1.090243324556970e+00	 7.647882075584607e-01	 9.768453807799258e+00
 1.074389462904693e+00	 7.892011321926621e-01	 9.539307294112222e+00
 1.057897033854956e+00	 8.131403546067386e-01	 9.305371089154097e+00
 1.040771252414892e+00	 8.365883729880681e-01	 9.067086133828873e+00
 9.251348741237903e-01	 7.436380254908352e-01	 8.477088304172405e+00
 9.093545026181421e-01	 7.640292626408308e-01	 8.105826122492999e+00
 8.930233224044176e-01	 7.839546983243546e-01	 7.724286319151804e+00
 8.761488515538501e-01	 8.034008071342293e-01	 7.335222705536983e+00
 8.587395464156911e-01	 8.223548237211875e-01	 6.941461881046433e+00
 8.408047812142654e-01	 8.408047812142655e-01	 6.545882264927528e+00
 8.223548237211870e-01	 8.587395464156912e-01	 6.151392412518645e+00
 8.034008071342290e-01	 8.761488515538506e-01	 5.760908921121239e+00
 7.839546983243543e-01	 8.930233224044180e-01	 5.377334239903219e+00
 7.640292626408302e-01	 9.093545026181423e-01	 5.003534700106099e+00
 7.436380254908355e-01	 9.251348741237905e-01	 4.642319076348256e+00
 9.366985504033987e-01	 7.529330911458786e-01	 8.552064698634554e+00
 9.207209329469740e-01	 7.735792075268062e-01	 8.198578954673293e+00
 9.041856219770256e-01	 7.937537001796383e-01	 7.833973440752035e+00
 8.871002295365527e-01	 8.134428746370428e-01	 7.460866415545809e+00
 8.694733176745297e-01	 8.326338059899012e-01	 7.081954034846829e+00
 8.513143777879396e-01	 8.513143777879398e-01	 6.699990453794067e+00
 8.326338059899007e-01	 8.694733176745300e-01	 6.317767150238544e+00
 8.134428746370425e-01	 8.871002295365529e-01	 5.938091760021113e+00
 7.937537001796382e-01	 9.041856219770259e-01	 5.563766725504328e+00
 7.735792075268058e-01	 9.207209329469740e-01	 5.197568062274634e+00
 7.529330911458786e-01	 9.366985504033989e-01	 4.842224545407461e+00
 9.482622145405371e-01	 7.622281470413493e-01	 8.625021018858289e+00
 9.320873513404406e-01	 7.831291423855008e-01	 8.287781712732460e+00
 9.153479098286428e-01	 8.035526917460267e-01	 7.938680813392787e+00
 8.980515960197999e-01	 8.234849315956234e-01	 7.580205865789482e+00
 8.802070776624943e-01	 8.429127774654996e-01	 7.214926763976862e+00
 8.618239633262329e-01	 8.618239633262332e-01	 6.845476884039901e+00
 8.429127774654992e-01	 8.802070776624945e-01	 6.474533382561392e+00
 8.234849315956231e-01	 8.980515960198002e-01	 6.104796937416986e+00
 8.035526917460263e-01	 9.153479098286429e-01	 5.738971219494736e+00
 7.831291423855004e-01	 9.320873513404410e-01	 5.379742389053416e+00
 7.622281470413493e-01	 9.482622145405372e-01	 5.029758908705229e+00
 9.598258678844229e-01	 7.715231942616434e-01	 8.695335008484125e+00
 9.434537591247535e-01	 7.926790683310672e-01	 8.372940578160005e+00
 9.265101872616607e-01	 8.133516741667508e-01	 8.038039295214448e+00
 9.090029522813683e-01	 8.335269791815854e-01	 7.692992805534486e+00
 8.909408276319577e-01	 8.531917393472582e-01	 7.340248917468864e+00
 8.723335390553479e-01	 8.723335390553483e-01	 6.982323726243818e+00
 8.531917393472578e-01	 8.909408276319581e-01	 6.621782855798292e+00
 8.335269791815850e-01	 9.090029522813686e-01	 6.261222081296006e+00
 8.133516741667507e-01	 9.265101872616610e-01	 5.903247608478434e+00
 7.926790683310669e-01	 9.434537591247538e-01	 5.550456292526137e+00
 7.715231942616434e-01	 9.598258678844229e-01	 5.205416079007453e+00
 9.713895117842751e-01	 7.808182338911576e-01	 8.762414043287233e+00
 9.548201576261218e-01	 8.022289864776585e-01	 8.453585248587405e+00
 9.376724555784728e-01	 8.231506485850438e-01	 8.131697323583968e+00
 9.199542995990326e-01	 8.435690185665407e-01	 7.798990806593581e+00
 9.016745688352942e-01	 8.634706928344529e-01	 7.457795590734676e+00
 8.828431062014854e-01	 8.828431062014855e-01	 7.110514001084987e+00
 8.634706928344525e-01	 9.016745688352944e-01	 6.759602948426451e+00
 8.435690185665403e-01	 9.199542995990332e-01	 6.407555409758320e+00
 8.231506485850433e-01	 9.376724555784728e-01	 6.056881499620227e+00
 8.022289864776583e-01	 9.548201576261224e-01	 5.710089404005430e+00
 7.808182338911576e-01	 9.713895117842752e-01	 5.369666450039363e+00
 9.829531475893118e-01	 7.901132670142886e-01	 8.825693388479337e+00
 9.661865481707581e-01	 8.117788979394280e-01	 8.529267554871577e+00
 9.488347160814705e-01	 8.329496161441370e-01	 8.219319881422546e+00
 9.309056392505691e-01	 8.536110509221023e-01	 7.897974568292676e+00
 9.124083025248777e-01	 8.737496391263593e-01	 7.567447758549253e+00
 8.933526659908472e-01	 8.933526659908475e-01	 7.230031529758238e+00
 8.737496391263588e-01	 9.124083025248780e-01	 6.888076928441883e+00
 8.536110509221021e-01	 9.309056392505696e-01	 6.543976284957249e+00
 8.329496161441363e-01	 9.488347160814706e-01	 6.200145061022866e+00
 8.117788979394276e-01	 9.661865481707583e-01	 5.859003490947393e+00
 7.901132670142885e-01	 9.829531475893116e-01	 5.522958280341859e+00
 9.945167766487508e-01	 7.994082947154326e-01	 8.884634577608729e+00
 9.775529320848717e-01	 8.213288038305283e-01	 8.599560174672316e+00
 9.599969700730466e-01	 8.427485779872628e-01	 8.300587535658710e+00
 9.418569725137537e-01	 8.636530774198836e-01	 7.989729270933869e+00
 9.231420299530818e-01	 8.840285794222529e-01	 7.669091933643321e+00
 9.038622196496362e-01	 9.038622196496365e-01	 7.340860887849462e+00
 8.840285794222525e-01	 9.231420299530823e-01	 7.007284192755122e+00
 8.636530774198832e-01	 9.418569725137540e-01	 6.670655728387976e+00
 8.427485779872623e-01	 9.599969700730470e-01	 6.333297803465720e+00
 8.213288038305280e-01	 9.775529320848719e-01	 5.997543495932376e+00
 7.994082947154325e-01	 9.945167766487507e-01	 5.665718980568324e+00
 1.006080400311810e+00	 8.087033180789859e-01	 8.938723903273225e+00
 9.889193106946728e-01	 8.308787052651121e-01	 8.664055434758906e+00
 9.711592188555936e-01	 8.525475352576530e-01	 8.375195542002631e+00
 9.528083006663611e-01	 8.736950992314974e-01	 8.074049973852553e+00
 9.338757523722805e-01	 8.943075149214100e-01	 7.762619848843845e+00
 9.143717684040532e-01	 9.143717684040537e-01	 7.442987362392153e+00
 8.943075149214097e-01	 9.338757523722809e-01	 7.117300490074939e+00
 8.736950992314970e-01	 9.528083006663611e-01	 6.787756900634855e+00
 8.525475352576527e-01	 9.711592188555939e-01	 6.456587308224554e+00
 8.308787052651120e-01	 9.889193106946730e-01	 6.126038503983740e+00
 8.087033180789860e-01	 1.006080400311810e+00	 5.798356311991803e+00
 1.017644019927708e+00	 8.179983381893458e-01	 8.987471010751189e+00
 1.000285685326373e+00	 8.404286033573330e-01	 8.722364194987177e+00
 9.823214637315038e-01	 8.623464890985402e-01	 8.442853010765710e+00
 9.637596249861673e-01	 8.837371175285563e-01	 8.150741054520905e+00
 9.446094710348477e-01	 9.045864468231064e-01	 7.847928160889431e+00
 9.248813134803007e-01	 9.248813134803011e-01	 7.536396911852410e+00
 9.045864468231058e-01	 9.446094710348479e-01	 7.218198128593635e+00
 8.837371175285563e-01	 9.637596249861677e-01	 6.895435548404812e+00
 8.623464890985397e-01	 9.823214637315040e-01	 6.570249905261155e+00
 8.404286033573327e-01	 1.000285685326373e+00	 6.244802643925269e+00
 8.179983381893455e-01	 1.017644019927708e+00	 5.921259503286489e+00
 1.029207636845662e+00	 8.272933561309074e-01	 9.030407586454668e+00
 1.011652057306182e+00	 8.499784992213438e-01	 8.774114807522595e+00
 9.934837060031694e-01	 8.721454406531562e-01	 8.503282128923420e+00
 9.747109467509483e-01	 8.937791334826740e-01	 8.219615685468920e+00
 9.553431871931574e-01	 9.148653763266172e-01	 7.924918174215584e+00
 9.353908561045803e-01	 9.353908561045807e-01	 7.621076128811809e+00
 9.148653763266166e-01	 9.553431871931575e-01	 7.310046169669537e+00
 8.937791334826736e-01	 9.747109467509487e-01	 6.993840421420252e+00
 8.721454406531558e-01	 9.934837060031696e-01	 6.674511305687314e+00
 8.499784992213435e-01	 1.011652057306182e+00	 6.354135928965885e+00
 8.272933561309074e-01	 1.029207636845662e+00	 6.034800292011793e+00
 1.040771252414892e+00	 8.365883729880681e-01	 9.067086133828873e+00
 1.023018427960310e+00	 8.595283939712974e-01	 8.818952145456425e+00
 1.004645946972983e+00	 8.819443910647330e-01	 8.556217434046625e+00
 9.856622672384795e-01	 9.038211482654626e-01	 8.280495346081240e+00
 9.660769020995830e-01	 9.251443046312183e-01	 7.993495583156070e+00
 9.459003975030937e-01	 9.459003975030944e-01	 7.697012205138340e+00
 9.251443046312178e-01	 9.660769020995831e-01	 7.392910608595706e+00
 9.038211482654623e-01	 9.856622672384796e-01	 7.083113661516025e+00
 8.819443910647331e-01	 1.004645946972983e+00	 6.769587192059478e+00
 8.595283939712971e-01	 1.023018427960311e+00	 6.454325041239205e+00
 8.365883729880681e-01	 1.040771252414892e+00	 6.139333896656206e+00
 7.436380254908355e-01	 9.251348741237905e-01	 4.642319076348256e+00
 7.227952327198275e-01	 9.403578711252182e-01	 4.290355571051882e+00
 7.015158118423985e-01	 9.550178852589556e-01	 3.943856902030607e+00
 6.798153201073739e-01	 9.691102809388428e-01	 3.604815538021455e+00
 6.577098939740799e-01	 9.826314018053828e-01	 3.275111914429309e+00
 6.352161985375724e-01	 9.955785706878293e-01	 2.956504763070297e+00
 6.123513754379838e-01	 1.007950085520931e+00	 2.650623062022036e+00
 5.891329895791025e-01	 1.019745211305930e+00	 2.358959647189193e+00
 5.655789749840383e-01	 1.030964168233969e+00	 2.082866495945134e+00
 5.417075801152568e-01	 1.041608116116776e+00	 1.823551663399791e+00
 5.175373129825247e-01	 1.051679135294118e+00	 1.582077824187984e+00
 7.529330911458786e-01	 9.366985504033989e-01	 4.842224545407461e+00
 7.318297749475436e-01	 9.521118264813079e-01	 4.494267964145084e+00
 7.102843730320807e-01	 9.669550827157742e-01	 4.149861257911153e+00
 6.883126371053290e-01	 9.812236255783680e-01	 3.811075580911965e+00
 6.659309053234379e-01	 9.949137530071112e-01	 3.479896508177629e+00
 6.431560510859449e-01	 1.008022754368101e+00	 3.158212741446877e+00
 6.200054302940129e-01	 1.020548906321208e+00	 2.847806193831722e+00
 5.964968274030251e-01	 1.032491464680596e+00	 2.550343531444013e+00
 5.726484006014738e-01	 1.043850652389678e+00	 2.267369221148615e+00
 5.484786264475269e-01	 1.054627643757190e+00	 2.000300105032270e+00
 5.240062442908519e-01	 1.064824545126001e+00	 1.750421494788490e+00
 7.622281470413493e-01	 9.482622145405372e-01	 5.029758908705229e+00
 7.408643076892962e-01	 9.638657694951810e-01	 4.685457429847376e+00
 7.190529250151156e-01	 9.788922676380574e-01	 4.342985723062283e+00
 6.968099451814580e-01	 9.933369574985162e-01	 4.004480869192386e+00
 6.741519080410894e-01	 1.007196091312142e+00	 3.672018458583162e+00
 6.510958952978116e-01	 1.020466924981897e+00	 3.347599856322035e+00
 6.276594771135983e-01	 1.033147713892791e+00	 3.033140624841487e+00
 6.038606574951996e-01	 1.045237704671911e+00	 2.730460214955625e+00
 5.797178187962586e-01	 1.056737123014926e+00	 2.441273009466689e+00
 5.552496656704088e-01	 1.067647157727559e+00	 2.167180776087026e+00
 5.304751688069793e-01	 1.077969941155748e+00	 1.909666559339700e+00
 7.715231942616434e-01	 9.598258678844229e-01	 5.205416079007453e+00
 7.498988319990690e-01	 9.756197015382422e-01	 4.864504872943213e+00
 7.278214688144408e-01	 9.908294414185691e-01	 4.523885257290436e+00
 7.053072453270417e-01	 1.005450278112579e+00	 4.185748041845792e+00
 6.823729030860691e-01	 1.019478418153453e+00	 3.852244339640134e+00
 6.590357320993998e-01	 1.032911083981049e+00	 3.525471568924941e+00
 6.353135167896196e-01	 1.045746509705525e+00	 3.207460410520842e+00
 6.112244807146440e-01	 1.057983932766892e+00	 2.900162860901463e+00
 5.867872303930614e-01	 1.069623581613069e+00	 2.605441496395917e+00
 5.620206985737617e-01	 1.080666659546745e+00	 2.325060037636578e+00
 5.369440872855219e-01	 1.091115324916893e+00	 2.060675276637011e+00
 7.808182338911576e-01	 9.713895117842752e-01	 5.369666450039363e+00
 7.589333489308472e-01	 9.873736239818964e-01	 5.031963536527885e+00
 7.365900054529944e-01	 1.002766605450072e+00	 4.693183632077423e+00
 7.138045385333609e-01	 1.017563588833845e+00	 4.355559612190475e+00
 6.905938914174139e-01	 1.031760734964027e+00	 4.021304221557595e+00
 6.669755624169360e-01	 1.045355232817389e+00	 3.692594984642922e+00
 6.429675502149550e-01	 1.058345295229253e+00	 3.371559888567996e+00
 6.185882979203756e-01	 1.070730150452557e+00	 3.060264004488469e+00
 5.938566362165510e-01	 1.082510029687462e+00	 2.760697190469698e+00
 5.687917259474442e-01	 1.093686150733605e+00	 2.474762993694016e+00
 5.434130004810946e-01	 1.104260697942969e+00	 2.204268843467820e+00
 7.901132670142885e-01	 9.829531475893116e-01	 5.522958280341859e+00
 7.679678595386146e-01	 9.991275381975497e-01	 5.188360629529852e+00
 7.453585359537155e-01	 1.014703761125330e+00	 4.851475265528681e+00
 7.223018257916970e-01	 1.029676891075605e+00	 4.514565975585910e+00
 6.988148739941589e-01	 1.044043043176842e+00	 4.179893818324740e+00
 6.749153871766467e-01	 1.057799372942749e+00	 3.849701109497939e+00
 6.506215782824836e-01	 1.070944071933819e+00	 3.526196015464209e+00
 6.259521099714122e-01	 1.083476359215924e+00	 3.211537943011793e+00
 6.009260370913967e-01	 1.095396468741459e+00	 2.907823892631522e+00
 5.755627485813160e-01	 1.106705632806998e+00	 2.617075918201579e+00
 5.498819091483128e-01	 1.117406061767513e+00	 2.341229810089215e+00
 7.994082947154325e-01	 9.945167766487507e-01	 5.665718980568324e+00
 7.770023648763551e-01	 1.010881445556606e+00	 5.334198840671759e+00
 7.541270613395413e-01	 1.026640909837109e+00	 4.999326929286665e+00
 7.307991080933308e-01	 1.041790186251149e+00	 4.663387277049591e+00
 7.070358517753395e-01	 1.056325344224880e+00	 4.328676485427622e+00
 6.828552073047591e-01	 1.070243505808959e+00	 3.997486949175544e+00
 6.582756018850845e-01	 1.083542841289068e+00	 3.672090539993853e+00
 6.333159177267713e-01	 1.096222560544010e+00	 3.354722959145706e+00
 6.079954338422668e-01	 1.108282900278415e+00	 3.047568946795267e+00
 5.823337672652358e-01	 1.119725107285783e+00	 2.752748512674136e+00
 5.563508140417918e-01	 1.130551417924058e+00	 2.472304327163590e+00
 8.087033180789860e-01	 1.006080400311810e+00	 5.798356311991803e+00
 7.860368659980534e-01	 1.022635347430469e+00	 5.469957748007790e+00
 7.628955826334107e-01	 1.038578052978170e+00	 5.137279337712456e+00
 7.392963864295431e-01	 1.053903475773768e+00	 4.802615150057449e+00
 7.152568257199916e-01	 1.068607639541119e+00	 4.468285079776928e+00
 6.907950237274999e-01	 1.082687632867853e+00	 4.136617463276581e+00
 6.659296219156362e-01	 1.096141604764842e+00	 3.809932026848446e+00
 6.406797220454709e-01	 1.108968755923833e+00	 3.490523390885711e+00
 6.150648272938307e-01	 1.121169325801685e+00	 3.180645335175840e+00
 5.891047827890625e-01	 1.132744575688819e+00	 2.882496008124800e+00
 5.628197159161465e-01	 1.143696767946138e+00	 2.598204237715511e+00
 8.179983381893455e-01	 1.017644019927708e+00	 5.921259503286489e+00
 7.950713639576940e-01	 1.034389245190546e+00	 5.596095132345315e+00
 7.716641008582614e-01	 1.050515191941279e+00	 5.265848628701227e+00
 7.477936617916146e-01	 1.066016761056751e+00	 4.932814336776373e+00
 7.234777967871515e-01	 1.080889930558541e+00	 4.599323692807119e+00
 6.987348373710952e-01	 1.095131755571259e+00	 4.267727386308815e+00
 6.735836392670180e-01	 1.108740363830987e+00	 3.940377742242174e+00
 6.480435237865273e-01	 1.121714946842410e+00	 3.619611560342336e+00
 6.221342182707568e-01	 1.134055746814624e+00	 3.307733630739934e+00
 5.958757959426559e-01	 1.145764039534964e+00	 3.007001123661046e+00
 5.692886155259922e-01	 1.156842113367289e+00	 2.719609026437899e+00
 8.272933561309074e-01	 1.029207636845662e+00	 6.034800292011793e+00
 8.041058598092605e-01	 1.046143140208240e+00	 5.713048202110981e+00
 7.804326170370325e-01	 1.062452328119198e+00	 5.385527744656175e+00
 7.562909351708267e-01	 1.078130043513388e+00	 5.054524199054416e+00
 7.316987659358543e-01	 1.093172218710124e+00	 4.722369266724563e+00
 7.066746491617730e-01	 1.107575875371013e+00	 4.391422925900978e+00
 6.812376548321085e-01	 1.121339119957345e+00	 4.064055412392307e+00
 6.554073238089596e-01	 1.134461134786760e+00	 3.742629572488641e+00
 6.292036075977134e-01	 1.146942164820587e+00	 3.429483818016000e+00
 6.026468075158744e-01	 1.158783500343079e+00	 3.126915893025230e+00
 5.757575136259440e-01	 1.169987455721043e+00	 2.837167637570047e+00
 8.365883729880681e-01	 1.040771252414892e+00	 6.139333896656206e+00
 8.131403546067379e-01	 1.057897033854957e+00	 5.821234736549824e+00
 7.892011321926615e-01	 1.074389462904693e+00	 5.496787721387086e+00
 7.647882075584603e-01	 1.090243324556970e+00	 5.168260128667431e+00
 7.399197341251362e-01	 1.105454505428851e+00	 4.837973102993144e+00
 7.146144600257591e-01	 1.120019993718943e+00	 4.508283347789831e+00
 6.888916695037869e-01	 1.133937874613762e+00	 4.181564864754495e+00
 6.627711229717848e-01	 1.147207321243900e+00	 3.860190993977765e+00
 6.362729960993706e-01	 1.159828581322929e+00	 3.546516992502672e+00
 6.094178182985774e-01	 1.171802959632020e+00	 3.242863369352118e+00
 5.822264109706172e-01	 1.183132796540936e+00	 2.951500171569467e+00
 5.175373129825247e-01	 1.051679135294118e+00	 1.582077824187982e+00
 4.930886061179270e-01	 1.061179560108253e+00	 1.359638306901762e+00
 4.683786316150236e-01	 1.070113971156061e+00	 1.156459377875832e+00
 4.434263389172353e-01	 1.078487068930921e+00	 9.719481495240714e-01
 4.182507216331380e-01	 1.086304366606542e+00	 8.053325791275283e-01
 3.928707661351534e-01	 1.093572156557455e+00	 6.556791990373501e-01
 3.673054016510371e-01	 1.100297474749929e+00	 5.219113961399036e-01
 3.415734520723819e-01	 1.106488063271783e+00	 4.028279514730293e-01
 3.156935896829346e-01	 1.112152331272543e+00	 2.971215704304404e-01
 2.896842909871788e-01	 1.117299314585631e+00	 2.033971572481188e-01
 2.635637947966888e-01	 1.121938634302054e+00	 1.201896134795390e-01
 5.240062442908519e-01	 1.064824545126001e+00	 1.750421494788490e+00
 4.992519420589116e-01	 1.074443720016364e+00	 1.518901032345027e+00
 4.742331064869885e-01	 1.083489806280113e+00	 1.305888658233439e+00
 4.489689238761274e-01	 1.091967563164214e+00	 1.110957609008353e+00
 4.234786252445683e-01	 1.099882572754026e+00	 9.335120519341875e-01
 3.977814342839484e-01	 1.107241206075309e+00	 7.728028657413899e-01
 3.718965168269625e-01	 1.114050587040045e+00	 6.279439958427135e-01
 3.458429320534969e-01	 1.120318554507902e+00	 4.979291191110280e-01
 3.196395856405784e-01	 1.126053622738153e+00	 3.816483701466558e-01
 2.933051850388365e-01	 1.131264940507173e+00	 2.779049013104045e-01
 2.668581970349608e-01	 1.135962249164317e+00	 1.854310717952201e-01
 5.304751688069793e-01	 1.077969941155748e+00	 1.909666559339700e+00
 5.054152715285452e-01	 1.087707865997702e+00	 1.669859003964590e+00
 4.800875752118880e-01	 1.096865627360146e+00	 1.447830734461103e+00
 4.545115030154290e-01	 1.105448043243582e+00	 1.243313429238858e+00
 4.287065233668245e-01	 1.113460764644947e+00	 1.055879242780500e+00
 4.026920972766799e-01	 1.120910241241152e+00	 8.849547291999684e-01
 3.764876271823808e-01	 1.127803684889804e+00	 7.298353651712457e-01
 3.501124075518630e-01	 1.134149031222319e+00	 5.897004303344078e-01
 3.235855774551878e-01	 1.139954899607613e+00	 4.636280175095222e-01
 2.969260752888898e-01	 1.145230551764896e+00	 3.506099626166586e-01
 2.701525958145354e-01	 1.149985849301752e+00	 2.495665043172504e-01
 5.369440872855219e-01	 1.091115324916893e+00	 2.060675276637008e+00
 5.115785952457940e-01	 1.100971999599649e+00	 1.813364790939099e+00
 4.859420384726598e-01	 1.110241435956580e+00	 1.583123678689367e+00
 4.600540769816969e-01	 1.118928510741666e+00	 1.369834643157398e+00
 4.339344166097567e-01	 1.127038943863363e+00	 1.173229889466374e+00
 4.076027556861921e-01	 1.134579263649660e+00	 9.929032801956150e-01
 3.810787332528601e-01	 1.141556769903712e+00	 8.283231149848693e-01
 3.543818790655262e-01	 1.147979495028594e+00	 6.788453140800015e-01
 3.275315655870700e-01	 1.153856163502768e+00	 5.437267974996927e-01
 3.005469621597160e-01	 1.159196149988180e+00	 4.221388664109469e-01
 2.734469915196949e-01	 1.164009436350527e+00	 3.131804106753384e-01
 5.434130004810946e-01	 1.104260697942969e+00	 2.204268843467820e+00
 5.177419139296249e-01	 1.114236122369594e+00	 1.950230361574909e+00
 4.917964969522420e-01	 1.123617233629833e+00	 1.712565652260582e+00
 4.655966464214873e-01	 1.132408967231106e+00	 1.491301279317280e+00
 4.391623055832144e-01	 1.140617111993330e+00	 1.286321834488657e+00
 4.125134100853292e-01	 1.148248274895508e+00	 1.097380411498589e+00
 3.856698355739675e-01	 1.155309843686275e+00	 9.241097284370285e-01
 3.586513470925326e-01	 1.161809947540285e+00	 7.660336991429375e-01
 3.314775504965322e-01	 1.167757416045464e+00	 6.225792635882033e-01
 3.041678460736920e-01	 1.173161736806400e+00	 4.930882996392325e-01
 2.767413845347217e-01	 1.178033011946810e+00	 3.768294533296099e-01
 5.498819091483128e-01	 1.117406061767513e+00	 2.341229810089213e+00
 5.239052282990043e-01	 1.127500235854920e+00	 2.081229471621718e+00
 4.976509513335732e-01	 1.136993021940326e+00	 1.836917253417003e+00
 4.711392119813578e-01	 1.145889414284543e+00	 1.608456656219742e+00
 4.443901908970471e-01	 1.154195270618903e+00	 1.395877254105452e+00
 4.174240610469353e-01	 1.161917276573373e+00	 1.199083570590107e+00
 3.902609346812702e-01	 1.169062907841999e+00	 1.017864627182165e+00
 3.629208121309281e-01	 1.175640390370952e+00	 8.519039846182574e-01
 3.354235326438815e-01	 1.181658658857547e+00	 7.007901041175344e-01
 3.077887274531950e-01	 1.187127313848934e+00	 5.640268659439975e-01
 2.800357752438979e-01	 1.192056577726769e+00	 4.410440948332925e-01
 5.563508140417918e-01	 1.130551417924058e+00	 2.472304327163590e+00
 5.300685390728995e-01	 1.140764341603014e+00	 2.207099885942011e+00
 5.035054022995912e-01	 1.150368802448477e+00	 1.956903701176670e+00
 4.766817743078647e-01	 1.159369853474618e+00	 1.722009516561802e+00
 4.496180731611050e-01	 1.167773421324142e+00	 1.502584731866314e+00
 4.223347091438546e-01	 1.175586270277928e+00	 1.298677762177781e+00
 3.948520311103356e-01	 1.182815963975389e+00	 1.110226093410848e+00
 3.671902746787591e-01	 1.189470825134154e+00	 9.370648728534807e-01
 3.393695124894248e-01	 1.195559893560861e+00	 7.789358784539357e-01
 3.114096067206023e-01	 1.201092882745161e+00	 6.354967182024185e-01
 2.833301640315056e-01	 1.206080135326573e+00	 5.063301208542017e-01
 5.628197159161465e-01	 1.143696767946138e+00	 2.598204237715511e+00
 5.362318469702764e-01	 1.154028441161263e+00	 2.328545446943665e+00
 5.093598505332343e-01	 1.163744576714707e+00	 2.073216868579881e+00
 4.822243340475648e-01	 1.172850286373970e+00	 1.832636014277190e+00
 4.548459529852376e-01	 1.181351565693099e+00	 1.607101189123156e+00
 4.272453549489312e-01	 1.189255257603850e+00	 1.396797412590409e+00
 3.994431253967307e-01	 1.196569013690954e+00	 1.201803059315756e+00
 3.714597352340709e-01	 1.203301253443449e+00	 1.022097075975402e+00
 3.433154904934695e-01	 1.209461121777253e+00	 8.575666333917256e-01
 3.150304842982908e-01	 1.215058445124458e+00	 7.080150784627111e-01
 2.866245512818271e-01	 1.220103686382390e+00	 5.731700581480930e-01
 5.692886155259922e-01	 1.156842113367289e+00	 2.719609026437904e+00
 5.423951527101020e-01	 1.167292536077051e+00	 2.446238001967084e+00
 5.152142967174405e-01	 1.177120346299433e+00	 2.186517177288852e+00
 4.877668918470149e-01	 1.186330714555242e+00	 1.940981566081536e+00
 4.600738309792945e-01	 1.194929705309834e+00	 1.710053683900439e+00
 4.321559990350095e-01	 1.202924240145813e+00	 1.494048107039986e+00
 4.040342180760231e-01	 1.210322058593197e+00	 1.293176774534022e+00
 3.757291942949101e-01	 1.217131676912397e+00	 1.107554906050258e+00
 3.472614671163226e-01	 1.223362345128568e+00	 9.372074093348834e-01
 3.186513606086379e-01	 1.229024002616201e+00	 7.820756542366076e-01
 2.899189373791444e-01	 1.234127232530387e+00	 6.420244958407983e-01
 5.757575136259440e-01	 1.169987455721043e+00	 2.837167637570046e+00
 5.485584570113428e-01	 1.180556627897764e+00	 2.560819200720868e+00
 5.210687415351480e-01	 1.190496112763076e+00	 2.297435364447155e+00
 4.933094483527719e-01	 1.199811139591073e+00	 2.047662578179784e+00
 4.653017077531255e-01	 1.208507841758404e+00	 1.812041088479127e+00
 4.370666419749336e-01	 1.216593219498495e+00	 1.591008209751558e+00
 4.086253096837799e-01	 1.224075100286626e+00	 1.384902361165200e+00
 3.799986523593226e-01	 1.230962097154558e+00	 1.193967758028758e+00
 3.512074428182912e-01	 1.237263565236650e+00	 1.018359644927091e+00
 3.222722360740204e-01	 1.242989556849769e+00	 8.581499593001360e-01
 2.932133227077402e-01	 1.248150775406734e+00	 7.133333176247507e-01
 5.822264109706172e-01	 1.183132796540936e+00	 2.951500171569467e+00
 5.547217605929659e-01	 1.193820718170789e+00	 2.672902172875091e+00
 5.269231856692952e-01	 1.203871877666055e+00	 2.406574131735083e+00
 4.988520042113924e-01	 1.213291563054103e+00	 2.153268057847171e+00
 4.705295839165803e-01	 1.222085976622864e+00	 1.913635655129283e+00
 4.419772843415477e-01	 1.230262197256569e+00	 1.688230376072555e+00
 4.132164007555683e-01	 1.237828140375747e+00	 1.477510265109482e+00
 3.842681099253542e-01	 1.244792515783489e+00	 1.281841493817599e+00
 3.551534180596826e-01	 1.251164783723347e+00	 1.101502488028937e+00
 3.258931111168158e-01	 1.256955109454539e+00	 9.366885464312533e-01
 2.965077076518963e-01	 1.262174316647596e+00	 7.875168518000524e-01
 2.635637947966888e-01	 1.121938634302054e+00	 1.201896134795390e-01
 2.373482296499335e-01	 1.126080727339082e+00	 4.815005775103498e-02
 2.110570951089145e-01	 1.129735918047314e+00	-1.178180576350107e-02
 1.847077204181358e-01	 1.132915330725281e+00	-6.073045167350588e-02
 1.583170525687149e-01	 1.135630504095502e+00	-9.985573968980965e-02
 1.319016272114572e-01	 1.137893348388953e+00	-1.303416629322822e-01
 1.054775423022452e-01	 1.139716102835537e+00	-1.533858430120105e-01
 7.906043448167313e-02	 1.141111293759497e+00	-1.701898242955409e-01
 5.266545817213228e-02	 1.142091693463350e+00	-1.819502025385973e-01
 2.630726735816929e-02	 1.142670280067985e+00	-1.898506073073829e-01
 0.000000000000000e+00	 1.142860198460186e+00	-1.950545434295936e-01
 2.668581970349608e-01	 1.135962249164317e+00	 1.854310717952201e-01
 2.403149517652857e-01	 1.140156116082579e+00	 1.050160041480994e-01
 2.136951925256246e-01	 1.143856994661234e+00	 3.760199310719203e-02
 1.870164651665213e-01	 1.147076148246399e+00	-1.794930702552988e-02
 1.602959285071758e-01	 1.149825259788246e+00	-6.281754641960524e-02
 1.335503248849474e-01	 1.152116388389058e+00	-9.821174086768503e-02
 1.067959534713259e-01	 1.153961926262349e+00	-1.253590926948169e-01
 8.004864635632519e-02	 1.155374556304495e+00	-1.454946306605396e-01
 5.332374738429285e-02	 1.156367210464742e+00	-1.598517098204228e-01
 2.663609370653354e-02	 1.156953029083323e+00	-1.696533955189643e-01
 0.000000000000000e+00	 1.157145321350848e+00	-1.761047405302132e-01
 2.701525958145354e-01	 1.149985849301752e+00	 2.495665043172504e-01
 2.432816707661115e-01	 1.154231490046761e+00	 1.613895563671961e-01
 2.163332871729747e-01	 1.157978056447746e+00	 8.700320731114064e-02
 1.893252074914669e-01	 1.161236950898263e+00	 2.526787515349915e-02
 1.622748023686338e-01	 1.164020000575990e+00	-2.500280682156464e-02
 1.351990208281575e-01	 1.166339413454362e+00	-6.502949720838380e-02
 1.081143632569111e-01	 1.168207734730349e+00	-9.605541785933669e-02
 8.103685719410969e-02	 1.169637803872298e+00	-1.193354548632837e-01
 5.398203590584604e-02	 1.170642712476017e+00	-1.361261353871890e-01
 2.696491970997855e-02	 1.171235763100916e+00	-1.476765090215353e-01
 0.000000000000000e+00	 1.171430429241259e+00	-1.552199463047941e-01
 2.734469915196949e-01	 1.164009436350527e+00	 3.131804106753380e-01
 2.462483869984567e-01	 1.168306850873860e+00	 2.178153717399534e-01
 2.189713793586627e-01	 1.172099105054432e+00	 1.369326771881747e-01
 1.916339476622377e-01	 1.175397740333110e+00	 6.940357115635942e-02
 1.642536743838629e-01	 1.178214728114948e+00	 1.404746988868899e-02
 1.368477152333388e-01	 1.180562425244396e+00	-3.035512128388795e-02
 1.094327718127214e-01	 1.182453529901738e+00	-6.505045141290355e-02
 8.202506711023368e-02	 1.183901038127150e+00	-9.130019868667527e-02
 5.464032381352585e-02	 1.184918201162855e+00	-1.103710275569751e-01
 2.729374540682866e-02	 1.185518483787291e+00	-1.235250610560030e-01
 0.000000000000000e+00	 1.185715523798227e+00	-1.320112845208832e-01
 2.767413845347217e-01	 1.178033011946810e+00	 3.768294533296077e-01
 2.492151008083671e-01	 1.182382200206109e+00	 2.748121676130091e-01
 2.216094693903863e-01	 1.186220142128876e+00	 1.878769133849982e-01
 1.939426859480990e-01	 1.189558518203180e+00	 1.149172782293924e-01
 1.662325447836380e-01	 1.192409444061334e+00	 5.477041379739434e-02
 1.384964082927424e-01	 1.194785425418687e+00	 6.230250213588917e-03
 1.107511792924775e-01	 1.196699313438713e+00	-3.194003822107172e-02
 8.301327621990420e-02	 1.198164260733292e+00	-6.099639165148307e-02
 5.529861118406629e-02	 1.199193678190934e+00	-8.220310305266509e-02
 2.762257083540821e-02	 1.199801192808975e+00	-9.682297307989596e-02
 0.000000000000000e+00	 1.200000606688556e+00	-1.061084010198852e-01
 2.800357752438979e-01	 1.192056577726769e+00	 4.410440948332925e-01
 2.521818125418886e-01	 1.196457539685740e+00	 3.328742469969765e-01
 2.242475575758435e-01	 1.200341169318661e+00	 2.402995277685163e-01
 1.962514226183161e-01	 1.203719286160712e+00	 1.622468660268834e-01
 1.682114137987333e-01	 1.206604150071365e+00	 9.758257995430264e-02
 1.401451001986197e-01	 1.209008415636766e+00	 4.512576515918387e-02
 1.120695858499000e-01	 1.210945087003475e+00	 3.660953558640934e-03
 8.400148463832836e-02	 1.212427473354968e+00	-2.805003671966522e-02
 5.595689809420142e-02	 1.213469145225935e+00	-5.125711972851255e-02
 2.795139603404157e-02	 1.214083891832495e+00	-6.721186868545681e-02
 0.000000000000000e+00	 1.214285679579051e+00	-7.715837447187335e-02
 2.833301640315056e-01	 1.206080135326573e+00	 5.063301208541975e-01
 2.551485225450670e-01	 1.210532870954983e+00	 3.924729177614752e-01
 2.268856442227319e-01	 1.214462188271370e+00	 2.946425644962292e-01
 1.985601579421541e-01	 1.217880045857944e+00	 2.118098337661738e-01
 1.701902816599233e-01	 1.220798847801255e+00	 1.428811443261460e-01
 1.417937911432218e-01	 1.223231397558161e+00	 8.671200196706508e-02
 1.133879916387095e-01	 1.225190852258222e+00	 4.211973820318970e-02
 8.498969248071314e-02	 1.226690677656422e+00	 7.895463460434682e-03
 5.661518462066523e-02	 1.227744603933536e+00	-1.718482795309284e-02
 2.828022104105307e-02	 1.228366582524378e+00	-3.435004469523961e-02
 0.000000000000000e+00	 1.228570744136519e+00	-4.482470313291720e-02
 2.866245512818271e-01	 1.220103686382390e+00	 5.731700581480952e-01
 2.581152311639481e-01	 1.224608195656070e+00	 4.540578139435456e-01
 2.295237296387498e-01	 1.228583200634588e+00	 3.513277392780212e-01
 2.008688921888782e-01	 1.232040798947115e+00	 2.640044806728783e-01
 1.721691485979824e-01	 1.234993538907219e+00	 1.910450172610756e-01
 1.434424813188000e-01	 1.237454372842401e+00	 1.313520365196297e-01
 1.147063968126268e-01	 1.239436610865154e+00	 8.378664188466289e-02
 8.597789986226567e-02	 1.240953875301895e+00	 4.718030624808267e-02
 5.727347084019176e-02	 1.242020055979417e+00	 2.034600568090617e-02
 2.860904589476704e-02	 1.242649266551153e+00	 2.088486774904919e-03
 0.000000000000000e+00	 1.242855802027764e+00	-8.786361489795835e-03
 2.899189373791444e-01	 1.234127232530387e+00	 6.420244958407961e-01
 2.610819387445777e-01	 1.238683515431234e+00	 5.180581269563418e-01
 2.321618141315945e-01	 1.242704208055896e+00	 4.107575941329626e-01
 2.031776256277538e-01	 1.246201547080464e+00	 3.192109966133689e-01
 1.741480148436851e-01	 1.249188225045472e+00	 2.424358810261058e-01
 1.450911709176055e-01	 1.251677343149015e+00	 1.793924363437578e-01
 1.160248015253724e-01	 1.253682364486469e+00	 1.289960619319364e-01
 8.696610689819298e-02	 1.255217067955632e+00	 9.012922053533723e-02
 5.793175682951503e-02	 1.256295503029258e+00	 6.165250807395384e-02
 2.893787063350784e-02	 1.256931945579345e+00	 4.241489093113771e-02
 0.000000000000000e+00	 1.257140854919592e+00	 3.126307876856504e-02
 2.932133227077402e-01	 1.248150775406734e+00	 7.133333176247507e-01
 2.640486456330018e-01	 1.252758831922707e+00	 5.848837537854628e-01
 2.347998980089640e-01	 1.256825212182878e+00	 4.733165742882508e-01
 2.054863585280461e-01	 1.260362291910229e+00	 3.777924791929750e-01
 1.761268806278058e-01	 1.263382907872229e+00	 2.973991573903272e-01
 1.467398601318895e-01	 1.265900310137534e+00	 2.311641877557025e-01
 1.173432059306671e-01	 1.267928114784366e+00	 1.780673614160517e-01
 8.795431370370210e-02	 1.269480257281874e+00	 1.370523354659701e-01
 5.859004266536907e-02	 1.270570946748737e+00	 1.070375480007488e-01
 2.926669529559979e-02	 1.271214621275483e+00	 8.692634273457744e-02
 0.000000000000000e+00	 1.271425904478810e+00	 7.561626851223680e-02
 2.965077076518963e-01	 1.262174316647596e+00	 7.875168518000499e-01
 2.670153521752661e-01	 1.266834146772720e+00	 6.549263686300570e-01
 2.374379815785563e-01	 1.270946214663118e+00	 5.393720332771219e-01
 2.077950911590201e-01	 1.274523035088650e+00	 4.400958830403627e-01
 1.781057461811192e-01	 1.277577589043705e+00	 3.562649106951585e-01
 1.483885491539033e-01	 1.280123275467486e+00	 2.869835611899560e-01
 1.186616101822315e-01	 1.282173863421045e+00	 2.313057040894329e-01
 8.894252039400018e-02	 1.283743444944866e+00	 1.882459912324885e-01
 5.924832842448790e-02	 1.284846388803535e+00	 1.567905279259192e-01
 2.959551991936728e-02	 1.285497295306093e+00	 1.359068038314359e-01
 0.000000000000000e+00	 1.285710952372222e+00	 1.245528462746248e-01
 1.285710952372222e+00	 0.000000000000000e+00	 1.328938241863731e+01
 1.285497295306093e+00	 2.959551991936768e-02	 1.326873465577780e+01
 1.284846388803535e+00	 5.924832842448829e-02	 1.324138999398151e+01
 1.283743444944865e+00	 8.894252039400048e-02	 1.320636386266906e+01
 1.282173863421045e+00	 1.186616101822318e-01	 1.316268494218068e+01
 1.280123275467486e+00	 1.483885491539035e-01	 1.310940328991955e+01
 1.277577589043704e+00	 1.781057461811192e-01	 1.304559906555728e+01
 1.274523035088650e+00	 2.077950911590204e-01	 1.297039181326936e+01
 1.270946214663118e+00	 2.374379815785564e-01	 1.288295024501667e+01
 1.266834146772720e+00	 2.670153521752661e-01	 1.278250245410315e+01
 1.262174316647597e+00	 2.965077076518963e-01	 1.266834647285271e+01
 1.299996999436575e+00	 0.000000000000000e+00	 1.314145246018716e+01
 1.299780968341605e+00	 2.992436754283352e-02	 1.312139972134697e+01
 1.299122829357391e+00	 5.990666022752204e-02	 1.309495356532642e+01
 1.298007630249775e+00	 8.993079620458713e-02	 1.306117697126914e+01
 1.296420608479857e+00	 1.199801066498033e-01	 1.301914632281697e+01
 1.294347235625972e+00	 1.500373534937382e-01	 1.296795923256653e+01
 1.291773263065350e+00	 1.800847501464908e-01	 1.290674293786049e+01
 1.288684768743407e+00	 2.101039852746392e-01	 1.283466322681841e+01
 1.285068204839977e+00	 2.400762496692715e-01	 1.275093384008713e+01
 1.280910446123659e+00	 2.699822662242060e-01	 1.265482627957620e+01
 1.276198838767993e+00	 2.998023230222043e-01	 1.254567994066529e+01
 1.314283043168385e+00	 0.000000000000000e+00	 1.300186998160335e+01
 1.314064638045126e+00	 3.025321508956966e-02	 1.298243521732397e+01
 1.313399266580941e+00	 6.056499187694717e-02	 1.295690179947183e+01
 1.312271812227235e+00	 9.091907178457748e-02	 1.292437878402445e+01
 1.310667350215281e+00	 1.212986028097242e-01	 1.288398867333725e+01
 1.308571192466371e+00	 1.516861574488443e-01	 1.283487493726636e+01
 1.305968933775486e+00	 1.820637536500776e-01	 1.277621007878135e+01
 1.302846499094542e+00	 2.124128788514846e-01	 1.270720420402627e+01
 1.299190191722443e+00	 2.427145171443396e-01	 1.262711404388969e+01
 1.294986742190813e+00	 2.729491795807888e-01	 1.253525236049792e+01
 1.290223357616614e+00	 3.030969376236583e-01	 1.243099765787067e+01
 1.328569080234105e+00	 0.000000000000000e+00	 1.287013901000998e+01
 1.328348301083665e+00	 3.058206248284655e-02	 1.285133738572143e+01
 1.327675697142885e+00	 6.122332321915620e-02	 1.282672291943456e+01
 1.326535987548803e+00	 9.190734690337923e-02	 1.279544929107469e+01
 1.324914085302944e+00	 1.226170983543531e-01	 1.275668355895280e+01
 1.322795142669631e+00	 1.533349606345124e-01	 1.270961337592618e+01
 1.320164597861666e+00	 1.840427562301277e-01	 1.265345472407268e+01
 1.317008222837535e+00	 2.147217713508359e-01	 1.258746012900610e+01
 1.313312172015283e+00	 2.453527833881926e-01	 1.251092730258827e+01
 1.309063031689621e+00	 2.759160915527708e-01	 1.242320814971358e+01
 1.304247869921001e+00	 3.063915506875612e-01	 1.232371806126447e+01
 1.342855107300192e+00	 0.000000000000000e+00	 1.274578467407895e+01
 1.342631954124233e+00	 3.091090964593466e-02	 1.272762390128085e+01
 1.341952117711919e+00	 6.188165410054168e-02	 1.270392692209998e+01
 1.340800152886037e+00	 9.289562133040007e-02	 1.267389060667561e+01
 1.339160810418477e+00	 1.239355929760491e-01	 1.263672502741770e+01
 1.337019082916703e+00	 1.549837626660329e-01	 1.259166036859452e+01
 1.334360252011446e+00	 1.860217574248894e-01	 1.253795432931305e+01
 1.331169936667871e+00	 2.170306622339723e-01	 1.247489998230200e+01
 1.327434142423264e+00	 2.479910477852630e-01	 1.240183403906175e+01
 1.323139311335525e+00	 2.788830014479088e-01	 1.231814545942906e+01
 1.318272372408692e+00	 3.096861614452167e-01	 1.222328433062022e+01
 1.357141121033102e+00	 0.000000000000000e+00	 1.262835209341010e+01
 1.356915593833839e+00	 3.123975650210440e-02	 1.261083274342086e+01
 1.356228524956741e+00	 6.253998436749619e-02	 1.258804443221400e+01
 1.355064304910496e+00	 9.388389483504776e-02	 1.255922580475522e+01
 1.353407522237509e+00	 1.252540863671710e-01	 1.252362842571839e+01
 1.351243009888537e+00	 1.566325631586963e-01	 1.248052338090637e+01
 1.348555892912382e+00	 1.880007567726111e-01	 1.242920834778632e+01
 1.345331637281031e+00	 2.193395509621733e-01	 1.236901509894358e+01
 1.341556099651152e+00	 2.506293097199832e-01	 1.229931739093939e+01
 1.337215577843965e+00	 2.818499085739595e-01	 1.221953917910183e+01
 1.332296861807227e+00	 3.129807691279275e-01	 1.212916308638396e+01
 1.371427118099289e+00	 0.000000000000000e+00	 1.251740533730620e+01
 1.371199216879492e+00	 3.156860297462624e-02	 1.250052113866958e+01
 1.370504915546047e+00	 6.319831386641224e-02	 1.247862562798126e+01
 1.369328440293738e+00	 9.487216718673007e-02	 1.245099782722801e+01
 1.367654217435671e+00	 1.265725782200777e-01	 1.241692929069997e+01
 1.365466920266081e+00	 1.582813617277929e-01	 1.237573039666735e+01
 1.362751517252028e+00	 1.899797538115409e-01	 1.232673708472305e+01
 1.359493321372499e+00	 2.216484369967183e-01	 1.226931800410115e+01
 1.355678040403714e+00	 2.532675685767853e-01	 1.220288202748744e+01
 1.351291827930385e+00	 2.848168122386797e-01	 1.212688607344196e+01
 1.346321334844147e+00	 3.162753729669972e-01	 1.204084316874067e+01
 1.385713095165209e+00	 0.000000000000000e+00	 1.241252644793640e+01
 1.385482819928202e+00	 3.189744898677063e-02	 1.239626456849602e+01
 1.384781286148537e+00	 6.385664244368242e-02	 1.237523923310323e+01
 1.383592555707320e+00	 9.586043815485464e-02	 1.234876845981790e+01
 1.381900892688592e+00	 1.278910682271282e-01	 1.231618230829522e+01
 1.379690810730285e+00	 1.599301579886133e-01	 1.227682886015628e+01
 1.376947121717941e+00	 1.919587480799270e-01	 1.223008062239449e+01
 1.373654985637756e+00	 2.239573197988867e-01	 1.217534132074279e+01
 1.369799961385716e+00	 2.559058237401017e-01	 1.211205303965861e+01
 1.365368058310225e+00	 2.877837117498259e-01	 1.203970365474371e+01
 1.360345788246990e+00	 3.195699721937289e-01	 1.195783449218236e+01
 1.399999048897318e+00	 0.000000000000000e+00	 1.231331452328999e+01
 1.399766399646979e+00	 3.222629446180800e-02	 1.229765583787028e+01
 1.399057633432906e+00	 6.451496994569926e-02	 1.227747157051189e+01
 1.397856647822801e+00	 9.684870750882919e-02	 1.225211737056939e+01
 1.396147544671901e+00	 1.292095560806813e-01	 1.222096033645731e+01
 1.393914677962101e+00	 1.615789515564481e-01	 1.218338468316756e+01
 1.391142702997676e+00	 1.939377391160178e-01	 1.213879781099966e+01
 1.387816626772285e+00	 2.262661988299577e-01	 1.208663674415192e+01
 1.383921859301924e+00	 2.585440745943648e-01	 1.202637489807943e+01
 1.379444265698925e+00	 2.907506064151547e-01	 1.195752912423966e+01
 1.374370218743297e+00	 3.228645660394258e-01	 1.187966697018585e+01
 1.414284975962072e+00	 0.000000000000000e+00	 1.221938485569425e+01
 1.414049952702832e+00	 3.255513932300882e-02	 1.220430420025987e+01
 1.413333954067853e+00	 6.517329621885529e-02	 1.218492567343781e+01
 1.412120713311740e+00	 9.783697501806153e-02	 1.216064120661537e+01
 1.410394170061229e+00	 1.305280414730958e-01	 1.213085348729319e+01
 1.408138518642477e+00	 1.632277420465876e-01	 1.209498131221696e+01
 1.405338257778788e+00	 1.959167264580614e-01	 1.205246532069476e+01
 1.401978241471570e+00	 2.285750735512108e-01	 1.200277407857881e+01
 1.398043730857107e+00	 2.611823205240068e-01	 1.194541047417344e+01
 1.393520446811928e+00	 2.937174955424229e-01	 1.187991837759827e+01
 1.388394623060607e+00	 3.261591537353912e-01	 1.180588950504446e+01
 1.428570873025926e+00	 0.000000000000000e+00	 1.213036812200760e+01
 1.428333475762771e+00	 3.288398349364353e-02	 1.211583453511253e+01
 1.427610244722076e+00	 6.583162110954309e-02	 1.209722044980027e+01
 1.426384748845693e+00	 9.882524045195930e-02	 1.207395274512466e+01
 1.424640765532204e+00	 1.318465240967308e-01	 1.204546826425456e+01
 1.422362329452363e+00	 1.648765290743223e-01	 1.201121885170047e+01
 1.419533782748831e+00	 1.978957096443060e-01	 1.197067675048596e+01
 1.416139826431091e+00	 2.308839434239253e-01	 1.192334033167817e+01
 1.412165572756028e+00	 2.638205609134598e-01	 1.186874012000160e+01
 1.407596598364675e+00	 2.966843784393872e-01	 1.180644507007614e+01
 1.402418997926461e+00	 3.294537345129283e-01	 1.173606903829412e+01
 1.262174316647597e+00	 2.965077076518963e-01	 1.266834647285271e+01
 1.256955109454539e+00	 3.258931111168156e-01	 1.254481538655837e+01
 1.251164783723348e+00	 3.551534180596824e-01	 1.241650974315792e+01
 1.244792515783490e+00	 3.842681099253539e-01	 1.228321842326706e+01
 1.237828140375747e+00	 4.132164007555682e-01	 1.214473850688606e+01
 1.230262197256569e+00	 4.419772843415474e-01	 1.200087677906033e+01
 1.222085976622863e+00	 4.705295839165800e-01	 1.185145129035744e+01
 1.213291563054103e+00	 4.988520042113921e-01	 1.169629295593330e+01
 1.203871877666055e+00	 5.269231856692950e-01	 1.153524717456765e+01
 1.193820718170790e+00	 5.547217605929656e-01	 1.136817544679632e+01
 1.183132796540936e+00	 5.822264109706171e-01	 1.119495696923360e+01
 1.276198838767993e+00	 2.998023230222043e-01	 1.254567994066529e+01
 1.270921638882720e+00	 3.295142394221146e-01	 1.242763824986334e+01
 1.265066974533483e+00	 3.590996693027053e-01	 1.230510782983618e+01
 1.258623901783632e+00	 3.885378661189792e-01	 1.217790603561975e+01
 1.251582142423700e+00	 4.178078129515949e-01	 1.204585318573371e+01
 1.243932131093599e+00	 4.468882701834049e-01	 1.190877347450315e+01
 1.235665061212145e+00	 4.757578257441907e-01	 1.176649595815317e+01
 1.226772929407417e+00	 5.043949477444406e-01	 1.161885560828280e+01
 1.217248578138877e+00	 5.327780392929062e-01	 1.146569442435674e+01
 1.207085736202502e+00	 5.608854952672500e-01	 1.130686259484024e+01
 1.196279056813543e+00	 5.886957607827461e-01	 1.114221969459613e+01
 1.290223357616614e+00	 3.030969376236583e-01	 1.243099765787067e+01
 1.284888165052574e+00	 3.331353668823323e-01	 1.231829772864871e+01
 1.278969162100207e+00	 3.630459196247387e-01	 1.220135927418424e+01
 1.272455284556780e+00	 3.928076213160798e-01	 1.208002608140547e+01
 1.265336141262610e+00	 4.223992240759926e-01	 1.195414009243162e+01
 1.257602061741100e+00	 4.517992548790162e-01	 1.182354176990901e+01
 1.249244142632999e+00	 4.809860663514812e-01	 1.168807055336394e+01
 1.240254292615020e+00	 5.099378899836977e-01	 1.154756540923954e+01
 1.230625275490343e+00	 5.386328915499143e-01	 1.140186547571178e+01
 1.220350751138874e+00	 5.670492285028369e-01	 1.125081080159212e+01
 1.209425314018505e+00	 5.951651090848595e-01	 1.109424317664741e+01
 1.304247869921001e+00	 3.063915506875612e-01	 1.232371806126447e+01
 1.298854684705190e+00	 3.367564926525975e-01	 1.221620461137073e+01
 1.292871343179647e+00	 3.669921681050627e-01	 1.210467001166150e+01
 1.286286660875609e+00	 3.970773745204665e-01	 1.198898252247742e+01
 1.279090133683234e+00	 4.269906330575335e-01	 1.186900416765583e+01
 1.271271986009470e+00	 4.567102372825999e-01	 1.174459059797098e+01
 1.262823217717048e+00	 4.862143045186584e-01	 1.161559106114704e+01
 1.253735649531359e+00	 5.154808296359515e-01	 1.148184848941829e+01
 1.244001966599343e+00	 5.444877410743382e-01	 1.134319971440525e+01
 1.233615759884871e+00	 5.732129588616810e-01	 1.119947581750050e+01
 1.222571565088504e+00	 6.016344543676050e-01	 1.105050262201331e+01
 1.318272372408692e+00	 3.096861614452167e-01	 1.222328433062022e+01
 1.312821194581664e+00	 3.403776158880397e-01	 1.212079475487986e+01
 1.306773514527932e+00	 3.709384138229578e-01	 1.201447125258209e+01
 1.300118027512793e+00	 4.013471247359494e-01	 1.190420467947115e+01
 1.292844116476331e+00	 4.315820388249894e-01	 1.178987566915141e+01
 1.284941900709110e+00	 4.616212162483760e-01	 1.167135403851113e+01
 1.276402283295917e+00	 4.914425390259288e-01	 1.154849831361201e+01
 1.267216997010882e+00	 5.210237654079906e-01	 1.142115539458867e+01
 1.257378648344766e+00	 5.503425865001975e-01	 1.128916037723682e+01
 1.246880759345454e+00	 5.793766849057361e-01	 1.115233654759289e+01
 1.235717806956221e+00	 6.081037951216303e-01	 1.101049556389894e+01
 1.332296861807227e+00	 3.129807691279275e-01	 1.212916308638396e+01
 1.326787691423086e+00	 3.439987357437876e-01	 1.203152776498124e+01
 1.320675672901189e+00	 3.748846558577046e-01	 1.193021815180104e+01
 1.313949381241011e+00	 4.056168709663394e-01	 1.182514589706463e+01
 1.306598086432660e+00	 4.361734403071328e-01	 1.171620883917793e+01
 1.298611802650422e+00	 4.665321906305634e-01	 1.160328999485929e+01
 1.289981336201229e+00	 4.966707686534989e-01	 1.148625668198609e+01
 1.280698331908039e+00	 5.265666960066030e-01	 1.136495980055357e+01
 1.270755317605502e+00	 5.561974264615115e-01	 1.123923329658860e+01
 1.260145746425587e+00	 5.855404051969570e-01	 1.110889383267121e+01
 1.248864036554340e+00	 6.145731298375837e-01	 1.097374068684727e+01
 1.346321334844147e+00	 3.162753729669972e-01	 1.204084316874067e+01
 1.340754171970549e+00	 3.476198513749700e-01	 1.194788575943773e+01
 1.334577815055549e+00	 3.788308932885835e-01	 1.185138856152266e+01
 1.327780718832936e+00	 4.098866122154465e-01	 1.175128229263708e+01
 1.320352040342977e+00	 4.407648364327352e-01	 1.164748065521724e+01
 1.312281688643806e+00	 4.714431592833817e-01	 1.153987895293580e+01
 1.303560373264609e+00	 5.018989921815753e-01	 1.142835285049723e+01
 1.294179651077275e+00	 5.321096201385769e-01	 1.131275730832602e+01
 1.284131971260440e+00	 5.620522595922992e-01	 1.119292572342449e+01
 1.273410718030233e+00	 5.917041182972974e-01	 1.106866930666182e+01
 1.262010250815542e+00	 6.210424570061129e-01	 1.093977672493039e+01
 1.360345788246990e+00	 3.195699721937289e-01	 1.195783449218236e+01
 1.354720632965146e+00	 3.512409619367159e-01	 1.186937220746765e+01
 1.348479937747139e+00	 3.827771251948748e-01	 1.177748186123390e+01
 1.341612037061243e+00	 4.141563474870811e-01	 1.168211158230934e+01
 1.334105974998042e+00	 4.453562261305693e-01	 1.158318965793620e+01
 1.325951555499662e+00	 4.763541210610502e-01	 1.148062281707135e+01
 1.317139391317681e+00	 5.071272083903644e-01	 1.137429466607897e+01
 1.307660951373040e+00	 5.376525365107007e-01	 1.126406431381116e+01
 1.297508606188468e+00	 5.679070845265797e-01	 1.114976522307406e+01
 1.286675671064355e+00	 5.978678227687122e-01	 1.103120432462604e+01
 1.275156446672509e+00	 6.275117751178659e-01	 1.090816142807559e+01
 1.374370218743297e+00	 3.228645660394258e-01	 1.187966697018585e+01
 1.368687071147968e+00	 3.548620665841546e-01	 1.179551084027487e+01
 1.362382037732088e+00	 3.867233506558594e-01	 1.170801785925553e+01
 1.355443332698608e+00	 4.184260757850536e-01	 1.161715197884044e+01
 1.347859887188615e+00	 4.499476083294069e-01	 1.152285485088773e+01
 1.339621400028392e+00	 4.812650748177886e-01	 1.142504381708425e+01
 1.330718387192070e+00	 5.123554160600730e-01	 1.132361005848291e+01
 1.321142229649782e+00	 5.431954438297626e-01	 1.121841694667292e+01
 1.310885219268478e+00	 5.737618998983726e-01	 1.110929863860365e+01
 1.299940602432917e+00	 6.040315171731547e-01	 1.099605895638517e+01
 1.288302621057924e+00	 6.339810826634908e-01	 1.087847059166082e+01
 1.388394623060607e+00	 3.261591537353912e-01	 1.180588950504446e+01
 1.382653483260108e+00	 3.584831644724148e-01	 1.172584462759000e+01
 1.376284111766524e+00	 3.906695687508174e-01	 1.164253576084848e+01
 1.369274602517707e+00	 4.226957961131750e-01	 1.155594115630064e+01
 1.361613773705451e+00	 4.545389819580201e-01	 1.146601466687914e+01
 1.353291219040396e+00	 4.861760194078157e-01	 1.137268348157802e+01
 1.344297357719400e+00	 5.175836139709075e-01	 1.127584602582161e+01
 1.334623482761948e+00	 5.487383408025508e-01	 1.117537007349496e+01
 1.324261807379358e+00	 5.796167043416971e-01	 1.107109111699683e+01
 1.313205509040881e+00	 6.101952000725799e-01	 1.096281104112189e+01
 1.301448770904468e+00	 6.404503781336350e-01	 1.085029714490705e+01
 1.402418997926461e+00	 3.294537345129283e-01	 1.173606903829412e+01
 1.396619866042658e+00	 3.621042547566253e-01	 1.165993481560308e+01
 1.390186156606576e+00	 3.946157785590295e-01	 1.158059319821761e+01
 1.383105843291214e+00	 4.269655074752547e-01	 1.149803527684794e+01
 1.375367631339310e+00	 4.591303459451807e-01	 1.141222599634225e+01
 1.366961009346076e+00	 4.910869536853510e-01	 1.132310167282511e+01
 1.357876299731293e+00	 5.228118009030744e-01	 1.123056768096314e+01
 1.348104707563986e+00	 5.542812261358537e-01	 1.113449636073637e+01
 1.337638367399997e+00	 5.854714964905721e-01	 1.103472519374893e+01
 1.326470387793212e+00	 6.163588700289419e-01	 1.093105529869090e+01
 1.314594893144823e+00	 6.469196600189466e-01	 1.082325029395282e+01
 1.183132796540936e+00	 5.822264109706171e-01	 1.119495696923360e+01
 1.171802959632020e+00	 6.094178182985777e-01	 1.101411148680701e+01
 1.159828581322929e+00	 6.362729960993709e-01	 1.082464947201441e+01
 1.147207321243899e+00	 6.627711229717850e-01	 1.062716196222290e+01
 1.133937874613762e+00	 6.888916695037870e-01	 1.042223390160246e+01
 1.120019993718943e+00	 7.146144600257595e-01	 1.021043886228924e+01
 1.105454505428850e+00	 7.399197341251366e-01	 9.992333783541838e+00
 1.090243324556970e+00	 7.647882075584607e-01	 9.768453807799258e+00
 1.074389462904693e+00	 7.892011321926621e-01	 9.539307294112222e+00
 1.057897033854956e+00	 8.131403546067386e-01	 9.305371089154100e+00
 1.040771252414892e+00	 8.365883729880681e-01	 9.067086133828873e+00
 1.196279056813543e+00	 5.886957607827461e-01	 1.114221969459613e+01
 1.184823329568884e+00	 6.161893026801177e-01	 1.097016098924369e+01
 1.172715899167537e+00	 6.433428790699680e-01	 1.078956426055499e+01
 1.159954399234961e+00	 6.701354371961921e-01	 1.060098091008041e+01
 1.146537510492046e+00	 6.965462195362728e-01	 1.040495221449969e+01
 1.132464982472780e+00	 7.225548262406800e-01	 1.020200420912977e+01
 1.117737651234249e+00	 7.481412773310235e-01	 9.992642641486908e+00
 1.102357452866200e+00	 7.732860742889249e-01	 9.777348073584108e+00
 1.086327432635354e+00	 7.979702606633312e-01	 9.556571212220836e+00
 1.069651749630091e+00	 8.221754813233386e-01	 9.330728545236443e+00
 1.052335676803569e+00	 8.458840399867048e-01	 9.100198358486846e+00
 1.209425314018505e+00	 5.951651090848595e-01	 1.109424317664741e+01
 1.197843696467493e+00	 6.229607854811509e-01	 1.093044672032509e+01
 1.185603214004979e+00	 6.504127603904537e-01	 1.075817905517641e+01
 1.172701474251644e+00	 6.774997497018224e-01	 1.057795332389454e+01
 1.159137143430437e+00	 7.042007677823064e-01	 1.039026897267034e+01
 1.144909968322899e+00	 7.304951906025160e-01	 1.019560680415542e+01
 1.130020794173789e+00	 7.563628186182840e-01	 9.994424147305804e+00
 1.114471578349102e+00	 7.817839390363610e-01	 9.787150222248993e+00
 1.098265399580877e+00	 8.067393870877569e-01	 9.574181777993800e+00
 1.081406462662920e+00	 8.312106059317127e-01	 9.355879078596846e+00
 1.063900098494396e+00	 8.551797048164093e-01	 9.132562309272705e+00
 1.222571565088504e+00	 6.016344543676050e-01	 1.105050262201331e+01
 1.210864057289905e+00	 6.297322651218270e-01	 1.089446576950274e+01
 1.198490522828354e+00	 6.574826384113476e-01	 1.073001461256055e+01
 1.185448543319761e+00	 6.848640587704881e-01	 1.055762540989235e+01
 1.171736770489137e+00	 7.118553124559704e-01	 1.037775760041898e+01
 1.157354948365572e+00	 7.384355512586466e-01	 1.019084903245789e+01
 1.142303931381488e+00	 7.645843560686765e-01	 9.997311351486999e+00
 1.126585698179115e+00	 7.902817998180376e-01	 9.797525623793080e+00
 1.110203360955788e+00	 8.155085094198991e-01	 9.591838272170826e+00
 1.093161170210711e+00	 8.402457263237395e-01	 9.380557396811884e+00
 1.075464514789027e+00	 8.644753653082524e-01	 9.163949549585210e+00
 1.235717806956221e+00	 6.081037951216303e-01	 1.101049556389894e+01
 1.223884408998180e+00	 6.365037400222964e-01	 1.086173662155026e+01
 1.211377822630763e+00	 6.645525114831703e-01	 1.070461207752702e+01
 1.198195603465128e+00	 6.922283626840025e-01	 1.053956267941667e+01
 1.184336388728350e+00	 7.195098517713456e-01	 1.036700966889378e+01
 1.169799919697071e+00	 7.463759063564521e-01	 1.018735019355035e+01
 1.154587059991365e+00	 7.728058877639603e-01	 1.000095291399146e+01
 1.138699809529677e+00	 7.987796546512245e-01	 9.808153882363253e+00
 1.122141313974611e+00	 8.242776256137182e-01	 9.609252766617679e+00
 1.104915869530733e+00	 8.492808403912976e-01	 9.404509491065618e+00
 1.087028922989120e+00	 8.737710192933065e-01	 9.194141358125899e+00
 1.248864036554340e+00	 6.145731298375837e-01	 1.097374068684727e+01
 1.236904748554374e+00	 6.432752086027080e-01	 1.083179803031933e+01
 1.224265110405305e+00	 6.716223779564416e-01	 1.068153190978254e+01
 1.210942651713557e+00	 6.995926597241778e-01	 1.052334893266026e+01
 1.196935995208283e+00	 7.271643839425148e-01	 1.035763394076604e+01
 1.182244879413671e+00	 7.543162540433125e-01	 1.018474561089516e+01
 1.166870177137439e+00	 7.810274117858940e-01	 1.000501228244623e+01
 1.150813909574226e+00	 8.072775015531899e-01	 9.818728086818158e+00
 1.134079255851869e+00	 8.330467336231737e-01	 9.626149450824101e+00
 1.116670557880252e+00	 8.583159460262669e-01	 9.427492041977462e+00
 1.098593320396328e+00	 8.830666646026432e-01	 9.222928217257380e+00
 1.262010250815542e+00	 6.210424570061129e-01	 1.093977672493039e+01
 1.249925072920549e+00	 6.500466692832125e-01	 1.080420796286680e+01
 1.237152383145082e+00	 6.786922361816812e-01	 1.066035287773034e+01
 1.223689685090863e+00	 7.069569481728269e-01	 1.050858530589942e+01
 1.209535586989136e+00	 7.348189071835588e-01	 1.034925547460110e+01
 1.194689824611643e+00	 7.622565924666073e-01	 1.018268579707116e+01
 1.179153279953728e+00	 7.892489262162363e-01	 1.000916692168692e+01
 1.162927995486199e+00	 8.157753385412044e-01	 9.828954108119110e+00
 1.146017183802085e+00	 8.418158314022254e-01	 9.642264000484511e+00
 1.128425232516537e+00	 8.673510411205255e-01	 9.449271862555731e+00
 1.110157704312310e+00	 8.923622990673346e-01	 9.250109333330489e+00
 1.275156446672509e+00	 6.275117751178659e-01	 1.090816142807559e+01
 1.262945379058761e+00	 6.568181204839599e-01	 1.077854260887598e+01
 1.250039637843193e+00	 6.857620845094093e-01	 1.064067111450127e+01
 1.236436700622858e+00	 7.143212263117624e-01	 1.049488937764555e+01
 1.222135161131115e+00	 7.424734197085595e-01	 1.034151478461402e+01
 1.207134752387260e+00	 7.701969197737164e-01	 1.018083567056596e+01
 1.191436365574252e+00	 7.974704291367465e-01	 1.001310759094465e+01
 1.175042064439034e+00	 8.242731636325358e-01	 9.838549940169658e+00
 1.157955095039786e+00	 8.505849169048342e-01	 9.657342985124796e+00
 1.140179890696855e+00	 8.763861235659529e-01	 9.469625375598488e+00
 1.121722072038720e+00	 9.016579205184524e-01	 9.275492186674118e+00
 1.288302621057924e+00	 6.339810826634908e-01	 1.087847059166082e+01
 1.275965663931068e+00	 6.635895606250993e-01	 1.075439545070956e+01
 1.262926871492737e+00	 6.928319212901460e-01	 1.062209923176373e+01
 1.249183695335358e+00	 7.216854924227970e-01	 1.048189432950788e+01
 1.234734714694425e+00	 7.501279197315989e-01	 1.033406705185522e+01
 1.219579659836794e+00	 7.781372341120201e-01	 1.017887382050727e+01
 1.203719431133027e+00	 8.056919186291830e-01	 1.001653766527494e+01
 1.187156113606170e+00	 8.327709748444542e-01	 9.847245081001368e+00
 1.169892986779494e+00	 8.593539880849598e-01	 9.671143311987372e+00
 1.151934529678472e+00	 8.854211912544275e-01	 9.488338123081613e+00
 1.133286420877215e+00	 9.109535267870686e-01	 9.298892109129230e+00
 1.301448770904468e+00	 6.404503781336350e-01	 1.085029714490705e+01
 1.288985924499531e+00	 6.703609881267809e-01	 1.073137638980807e+01
 1.275814081086816e+00	 6.999017448744109e-01	 1.060426548722787e+01
 1.261930666254174e+00	 7.290497447877435e-01	 1.046924815789942e+01
 1.247334244739268e+00	 7.577824054667585e-01	 1.032658138319036e+01
 1.232024544056519e+00	 7.860775336288979e-01	 1.017649181594403e+01
 1.216002473764073e+00	 8.139133927753053e-01	 1.001917249810147e+01
 1.199270140161044e+00	 8.412687701942285e-01	 9.854779951453494e+00
 1.181830856235734e+00	 8.681230428965618e-01	 9.683431703611259e+00
 1.163689146718658e+00	 8.944562420778287e-01	 9.505204305273239e+00
 1.144850748129450e+00	 9.202491157042549e-01	 9.320131887180185e+00
 1.314594893144823e+00	 6.469196600189466e-01	 1.082325029395282e+01
 1.302006157726207e+00	 6.771324014091545e-01	 1.070911092549087e+01
 1.288701263618528e+00	 7.069715536127238e-01	 1.058681300208658e+01
 1.274677610405123e+00	 7.364139816884141e-01	 1.045661293302831e+01
 1.259933748325849e+00	 7.654368751281202e-01	 1.031874011473000e+01
 1.244469402142706e+00	 7.940178164717294e-01	 1.017339355655995e+01
 1.228285490601410e+00	 8.221348496568718e-01	 1.002073882199718e+01
 1.211384141277094e+00	 8.497665476991278e-01	 9.860905348722737e+00
 1.193768700623030e+00	 8.768920792936009e-01	 9.693984206749214e+00
 1.175443739074679e+00	 9.034912739280352e-01	 9.520026347493989e+00
 1.156415051097081e+00	 9.295446851010828e-01	 9.339041388891944e+00
 1.040771252414892e+00	 8.365883729880681e-01	 9.067086133828873e+00
 1.023018427960310e+00	 8.595283939712974e-01	 8.818952145456425e+00
 1.004645946972983e+00	 8.819443910647330e-01	 8.556217434046625e+00
 9.856622672384795e-01	 9.038211482654626e-01	 8.280495346081240e+00
 9.660769020995830e-01	 9.251443046312183e-01	 7.993495583156070e+00
 9.459003975030937e-01	 9.459003975030944e-01	 7.697012205138338e+00
 9.251443046312178e-01	 9.660769020995831e-01	 7.392910608595706e+00
 9.038211482654623e-01	 9.856622672384796e-01	 7.083113661516025e+00
 8.819443910647331e-01	 1.004645946972983e+00	 6.769587192059480e+00
 8.595283939712971e-01	 1.023018427960311e+00	 6.454325041239205e+00
 8.365883729880681e-01	 1.040771252414892e+00	 6.139333896656204e+00
 1.052335676803569e+00	 8.458840399867048e-01	 9.100198358486846e+00
 1.034385593637595e+00	 8.690789566902977e-01	 8.859651045817216e+00
 1.015808968688077e+00	 8.917440268656871e-01	 8.604489673461199e+00
 9.966143537184107e-01	 9.138638654388909e-01	 8.336238781816801e+00
 9.768113677779181e-01	 9.354239518974904e-01	 8.056518729350502e+00
 9.564106739936137e-01	 9.564106739936139e-01	 7.767034393445222e+00
 9.354239518974901e-01	 9.768113677779182e-01	 7.469562849934650e+00
 9.138638654388903e-01	 9.966143537184112e-01	 7.165940202289542e+00
 8.917440268656868e-01	 1.015808968688077e+00	 6.858047748217640e+00
 8.690789566902973e-01	 1.034385593637595e+00	 6.547797683896246e+00
 8.458840399867049e-01	 1.052335676803569e+00	 6.237118553817293e+00
 1.063900098494396e+00	 8.551797048164093e-01	 9.132562309272705e+00
 1.045752756663082e+00	 8.786295171809760e-01	 8.899077708674987e+00
 1.026971987799014e+00	 9.015436603802878e-01	 8.650987272689223e+00
 1.007566437643386e+00	 9.239065802693275e-01	 8.389730011389180e+00
 9.875458309520403e-01	 9.457035967655604e-01	 8.116840080677015e+00
 9.669209480321814e-01	 9.669209480321818e-01	 7.833936154986261e+00
 9.457035967655600e-01	 9.875458309520405e-01	 7.542709783749247e+00
 9.239065802693268e-01	 1.007566437643387e+00	 7.244912892889359e+00
 9.015436603802873e-01	 1.026971987799014e+00	 6.942344609430554e+00
 8.786295171809756e-01	 1.045752756663083e+00	 6.636837600035800e+00
 8.551797048164094e-01	 1.063900098494396e+00	 6.330244122525416e+00
 1.075464514789027e+00	 8.644753653082524e-01	 9.163949549585210e+00
 1.057119914384448e+00	 8.881800732149159e-01	 8.937040927830967e+00
 1.038135001701094e+00	 9.113432893219885e-01	 8.695555600677983e+00
 1.018518516457923e+00	 9.339492904134958e-01	 8.440850266466388e+00
 9.982802891172464e-01	 9.559832368368600e-01	 8.174375964786954e+00
 9.774312171664081e-01	 9.774312171664084e-01	 7.897668095686325e+00
 9.559832368368598e-01	 9.982802891172471e-01	 7.612335429345828e+00
 9.339492904134957e-01	 1.018518516457923e+00	 7.320048258132184e+00
 9.113432893219882e-01	 1.038135001701094e+00	 7.022525859748594e+00
 8.881800732149152e-01	 1.057119914384449e+00	 6.721523453153250e+00
 8.644753653082524e-01	 1.075464514789027e+00	 6.418818837582562e+00
 1.087028922989120e+00	 8.737710192933065e-01	 9.194141358125899e+00
 1.068487064149366e+00	 8.977306225636994e-01	 8.973357628173261e+00
 1.049298007789620e+00	 9.211429114042431e-01	 8.738046601162225e+00
 1.029470587606540e+00	 9.439919935281210e-01	 8.489485827553672e+00
 1.009014739768834e+00	 9.662628697128208e-01	 8.229046264879662e+00
 9.879414789439063e-01	 9.879414789439066e-01	 7.958182918558593e+00
 9.662628697128207e-01	 1.009014739768835e+00	 7.678424481496288e+00
 9.439919935281209e-01	 1.029470587606540e+00	 7.391362115343012e+00
 9.211429114042424e-01	 1.049298007789620e+00	 7.098637533071901e+00
 8.977306225636988e-01	 1.068487064149366e+00	 6.801930555659075e+00
 8.737710192933065e-01	 1.087028922989120e+00	 6.502946324700066e+00
 1.098593320396328e+00	 8.830666646026432e-01	 9.222928217257380e+00
 1.079854203305508e+00	 9.072811629989098e-01	 9.007852437404647e+00
 1.060461003459893e+00	 9.309425243405042e-01	 8.778318446293371e+00
 1.040422648533754e+00	 9.540346872699265e-01	 8.535527757929007e+00
 1.019749180402101e+00	 9.765424929948752e-01	 8.280774232226587e+00
 9.984517309122878e-01	 9.984517309122882e-01	 8.015435312986348e+00
 9.765424929948747e-01	 1.019749180402101e+00	 7.740962274541074e+00
 9.540346872699262e-01	 1.040422648533754e+00	 7.458869611246469e+00
 9.309425243405040e-01	 1.060461003459894e+00	 7.170723720711448e+00
 9.072811629989095e-01	 1.079854203305509e+00	 6.878131044916125e+00
 8.830666646026430e-01	 1.098593320396329e+00	 6.582725842755111e+00
 1.110157704312310e+00	 8.923622990673346e-01	 9.250109333330489e+00
 1.091221329200549e+00	 9.168316922921298e-01	 9.040357284529840e+00
 1.071623986107216e+00	 9.407421258442269e-01	 8.816235211911142e+00
 1.051374696684083e+00	 9.640773692956361e-01	 8.578871654202747e+00
 1.030483608512344e+00	 9.868221042844536e-01	 8.329486310409527e+00
 1.008961970619164e+00	 1.008961970619164e+00	 8.069381850922975e+00
 9.868221042844530e-01	 1.030483608512344e+00	 7.799934748735314e+00
 9.640773692956357e-01	 1.051374696684084e+00	 7.522585256553092e+00
 9.407421258442266e-01	 1.071623986107216e+00	 7.238826672229388e+00
 9.168316922921292e-01	 1.091221329200549e+00	 6.950194048277424e+00
 8.923622990673349e-01	 1.110157704312310e+00	 6.658252510910141e+00
 1.121722072038720e+00	 9.016579205184524e-01	 9.275492186674118e+00
 1.102588439182163e+00	 9.263822082149419e-01	 9.070711023172098e+00
 1.082786953126889e+00	 9.505417136288637e-01	 8.851666572895965e+00
 1.062326729502046e+00	 9.741200372619742e-01	 8.619417412302628e+00
 1.041218021594859e+00	 9.971017011829885e-01	 8.375111970427804e+00
 1.019472195612146e+00	 1.019472195612146e+00	 8.119980889510817e+00
 9.971017011829884e-01	 1.041218021594859e+00	 7.855328418675729e+00
 9.741200372619737e-01	 1.062326729502046e+00	 7.582522958406842e+00
 9.505417136288635e-01	 1.082786953126890e+00	 7.302986890043506e+00
 9.263822082149412e-01	 1.102588439182163e+00	 7.018185837918238e+00
 9.016579205184526e-01	 1.121722072038720e+00	 6.729617521687580e+00
 1.133286420877215e+00	 9.109535267870686e-01	 9.298892109129230e+00
 1.113955530598024e+00	 9.359327085389288e-01	 9.098759077945923e+00
 1.093949901914216e+00	 9.603412854078683e-01	 8.884487517168354e+00
 1.073278744432160e+00	 9.841626888256640e-01	 8.657069007782354e+00
 1.051952417144943e+00	 1.007381281291911e+00	 8.417583555898231e+00
 1.029982403438847e+00	 1.029982403438848e+00	 8.167192479660443e+00
 1.007381281291911e+00	 1.051952417144943e+00	 7.907130343660430e+00
 9.841626888256638e-01	 1.073278744432160e+00	 7.638696050846498e+00
 9.603412854078678e-01	 1.093949901914216e+00	 7.363243218241107e+00
 9.359327085389286e-01	 1.113955530598024e+00	 7.082169976191154e+00
 9.109535267870685e-01	 1.133286420877215e+00	 6.796908341002446e+00
 1.144850748129450e+00	 9.202491157042549e-01	 9.320131887180185e+00
 1.125322600795804e+00	 9.454831910356732e-01	 9.124353112255992e+00
 1.105112829864497e+00	 9.701408388946942e-01	 8.914578077017168e+00
 1.084230738918943e+00	 9.942053216434308e-01	 8.691734289441246e+00
 1.062686792657895e+00	 1.017660842212654e+00	 8.456836137634321e+00
 1.040492591646879e+00	 1.040492591646879e+00	 8.210978280169128e+00
 1.017660842212653e+00	 1.062686792657896e+00	 7.955328099844321e+00
 9.942053216434305e-01	 1.084230738918943e+00	 7.691117323421491e+00
 9.701408388946938e-01	 1.105112829864497e+00	 7.419632926011530e+00
 9.454831910356730e-01	 1.125322600795804e+00	 7.142207452174061e+00
 9.202491157042547e-01	 1.144850748129450e+00	 6.860208896075066e+00
 1.156415051097081e+00	 9.295446851010828e-01	 9.339041388891944e+00
 1.136689647123178e+00	 9.550336534767583e-01	 9.147350716023034e+00
 1.116275734373034e+00	 9.799403718027949e-01	 8.941823076543741e+00
 1.095182710406913e+00	 1.004247933371997e+00	 8.723324785323554e+00
 1.073421145629011e+00	 1.027940381546648e+00	 8.492807376948612e+00
 1.051002757783851e+00	 1.051002757783852e+00	 8.251301476991053e+00
 1.027940381546647e+00	 1.073421145629011e+00	 7.999909754064905e+00
 1.004247933371997e+00	 1.095182710406913e+00	 7.739799048091045e+00
 9.799403718027947e-01	 1.116275734373035e+00	 7.472191786074191e+00
 9.550336534767578e-01	 1.136689647123179e+00	 7.198356810027339e+00
 9.295446851010828e-01	 1.156415051097081e+00	 6.919599752071964e+00
 8.365883729880681e-01	 1.040771252414892e+00	 6.139333896656204e+00
 8.131403546067379e-01	 1.057897033854957e+00	 5.821234736549823e+00
 7.892011321926615e-01	 1.074389462904693e+00	 5.496787721387085e+00
 7.647882075584603e-01	 1.090243324556970e+00	 5.168260128667431e+00
 7.399197341251362e-01	 1.105454505428851e+00	 4.837973102993143e+00
 7.146144600257591e-01	 1.120019993718943e+00	 4.508283347789831e+00
 6.888916695037869e-01	 1.133937874613762e+00	 4.181564864754497e+00
 6.627711229717848e-01	 1.147207321243900e+00	 3.860190993977765e+00
 6.362729960993706e-01	 1.159828581322929e+00	 3.546516992502672e+00
 6.094178182985774e-01	 1.171802959632020e+00	 3.242863369352122e+00
 5.822264109706172e-01	 1.183132796540936e+00	 2.951500171569467e+00
 8.458840399867049e-01	 1.052335676803569e+00	 6.237118553817293e+00
 8.221754813233382e-01	 1.069651749630091e+00	 5.922714650852598e+00
 7.979702606633309e-01	 1.086327432635354e+00	 5.601460840377555e+00
 7.732860742889248e-01	 1.102357452866200e+00	 5.275600988440054e+00
 7.481412773310232e-01	 1.117737651234249e+00	 4.947439045328349e+00
 7.225548262406796e-01	 1.132464982472780e+00	 4.619320663642926e+00
 6.965462195362724e-01	 1.146537510492047e+00	 4.293614796695488e+00
 6.701354371961920e-01	 1.159954399234961e+00	 3.972695535053955e+00
 6.433428790699675e-01	 1.172715899167537e+00	 3.658924424790915e+00
 6.161893026801172e-01	 1.184823329568884e+00	 3.354633492006430e+00
 5.886957607827459e-01	 1.196279056813543e+00	 3.062109175263153e+00
 8.551797048164094e-01	 1.063900098494396e+00	 6.330244122525416e+00
 8.312106059317125e-01	 1.081406462662920e+00	 6.019357699005113e+00
 8.067393870877567e-01	 1.098265399580878e+00	 5.701171638593386e+00
 7.817839390363607e-01	 1.114471578349103e+00	 5.377904322177969e+00
 7.563628186182836e-01	 1.130020794173789e+00	 5.051839837687291e+00
 7.304951906025154e-01	 1.144909968322899e+00	 4.725309561802431e+00
 7.042007677823060e-01	 1.159137143430437e+00	 4.400673659896367e+00
 6.774997497018219e-01	 1.172701474251644e+00	 4.080302766072312e+00
 6.504127603904530e-01	 1.185603214004979e+00	 3.766560091787742e+00
 6.229607854811502e-01	 1.197843696467493e+00	 3.461784193280464e+00
 5.951651090848594e-01	 1.209425314018505e+00	 3.168272605632110e+00
 8.644753653082524e-01	 1.075464514789027e+00	 6.418818837582562e+00
 8.402457263237391e-01	 1.093161170210712e+00	 6.111299789986917e+00
 8.155085094198986e-01	 1.110203360955788e+00	 5.796080984964579e+00
 7.902817998180374e-01	 1.126585698179116e+00	 5.475353339547070e+00
 7.645843560686761e-01	 1.142303931381488e+00	 5.151378520884387e+00
 7.384355512586462e-01	 1.157354948365572e+00	 4.826470527850250e+00
 7.118553124559701e-01	 1.171736770489137e+00	 4.502977133966427e+00
 6.848640587704878e-01	 1.185448543319762e+00	 4.183261456771280e+00
 6.574826384113471e-01	 1.198490522828354e+00	 3.869683906200862e+00
 6.297322651218268e-01	 1.210864057289906e+00	 3.564584746974107e+00
 6.016344543676049e-01	 1.222571565088503e+00	 3.270267488136693e+00
 8.737710192933065e-01	 1.087028922989120e+00	 6.502946324700066e+00
 8.492808403912974e-01	 1.104915869530733e+00	 6.198671046440571e+00
 8.242776256137179e-01	 1.122141313974611e+00	 5.886342900367113e+00
 7.987796546512239e-01	 1.138699809529677e+00	 5.568123451925242e+00
 7.728058877639600e-01	 1.154587059991365e+00	 5.246249494026159e+00
 7.463759063564516e-01	 1.169799919697072e+00	 4.923014663807624e+00
 7.195098517713455e-01	 1.184336388728351e+00	 4.600750868892208e+00
 6.922283626840020e-01	 1.198195603465128e+00	 4.281809790740979e+00
 6.645525114831701e-01	 1.211377822630763e+00	 3.968544720925968e+00
 6.365037400222959e-01	 1.223884408998181e+00	 3.663292969234064e+00
 6.081037951216300e-01	 1.235717806956221e+00	 3.368359061221845e+00
 8.830666646026430e-01	 1.098593320396329e+00	 6.582725842755111e+00
 8.583159460262664e-01	 1.116670557880253e+00	 6.281596108899123e+00
 8.330467336231733e-01	 1.134079255851869e+00	 5.972104917743561e+00
 8.072775015531897e-01	 1.150813909574226e+00	 5.656382682550882e+00
 7.810274117858935e-01	 1.166870177137439e+00	 5.336638969068239e+00
 7.543162540433123e-01	 1.182244879413672e+00	 5.015144181756796e+00
 7.271643839425146e-01	 1.196935995208283e+00	 4.694211012683548e+00
 6.995926597241775e-01	 1.210942651713558e+00	 4.376175922383288e+00
 6.716223779564410e-01	 1.224265110405306e+00	 4.063380910960306e+00
 6.432752086027077e-01	 1.236904748554375e+00	 3.758155821431546e+00
 6.145731298375836e-01	 1.248864036554340e+00	 3.462801396554842e+00
 8.923622990673349e-01	 1.110157704312310e+00	 6.658252510910141e+00
 8.673510411205249e-01	 1.128425232516537e+00	 6.360194421004873e+00
 8.418158314022248e-01	 1.146017183802086e+00	 6.053508419722649e+00
 8.157753385412038e-01	 1.162927995486199e+00	 5.740292051044478e+00
 7.892489262162360e-01	 1.179153279953729e+00	 5.422725396970222e+00
 7.622565924666068e-01	 1.194689824611644e+00	 5.103052866619649e+00
 7.348189071835585e-01	 1.209535586989136e+00	 4.783564706051188e+00
 7.069569481728264e-01	 1.223689685090863e+00	 4.466578499071048e+00
 6.786922361816808e-01	 1.237152383145082e+00	 4.154420918956591e+00
 6.500466692832122e-01	 1.249925072920549e+00	 3.849409975369935e+00
 6.210424570061129e-01	 1.262010250815542e+00	 3.553837980508833e+00
 9.016579205184526e-01	 1.121722072038720e+00	 6.729617521687580e+00
 8.763861235659521e-01	 1.140179890696855e+00	 6.434580497090155e+00
 8.505849169048336e-01	 1.157955095039786e+00	 6.130688955360462e+00
 8.242731636325352e-01	 1.175042064439034e+00	 5.820005934151431e+00
 7.974704291367462e-01	 1.191436365574252e+00	 5.504679867497617e+00
 7.701969197737161e-01	 1.207134752387260e+00	 5.186926510318337e+00
 7.424734197085591e-01	 1.222135161131116e+00	 4.869010546493381e+00
 7.143212263117621e-01	 1.236436700622859e+00	 4.553227151017532e+00
 6.857620845094089e-01	 1.250039637843193e+00	 4.241883767040312e+00
 6.568181204839595e-01	 1.262945379058760e+00	 3.937282343540832e+00
 6.275117751178659e-01	 1.275156446672509e+00	 3.641702259687768e+00
 9.109535267870685e-01	 1.133286420877215e+00	 6.796908341002446e+00
 8.854211912544271e-01	 1.151934529678473e+00	 6.504864173380145e+00
 8.593539880849593e-01	 1.169892986779494e+00	 6.203776537494484e+00
 8.327709748444536e-01	 1.187156113606170e+00	 5.895672404404666e+00
 8.056919186291830e-01	 1.203719431133028e+00	 5.582666484552474e+00
 7.781372341120194e-01	 1.219579659836794e+00	 5.266943319362030e+00
 7.501279197315985e-01	 1.234734714694425e+00	 4.950739023976981e+00
 7.216854924227964e-01	 1.249183695335357e+00	 4.636322951162033e+00
 6.928319212901455e-01	 1.262926871492738e+00	 4.325979537299336e+00
 6.635895606250989e-01	 1.275965663931068e+00	 4.021990576923877e+00
 6.339810826634908e-01	 1.288302621057924e+00	 3.726618153060912e+00
 9.202491157042547e-01	 1.144850748129450e+00	 6.860208896075066e+00
 8.944562420778284e-01	 1.163689146718658e+00	 6.571150843975222e+00
 8.681230428965616e-01	 1.181830856235735e+00	 6.272895922081133e+00
 8.412687701942280e-01	 1.199270140161045e+00	 5.967433548267417e+00
 8.139133927753052e-01	 1.216002473764074e+00	 5.656842718762769e+00
 7.860775336288973e-01	 1.232024544056519e+00	 5.343274297737628e+00
 7.577824054667582e-01	 1.247334244739269e+00	 5.028932930220456e+00
 7.290497447877430e-01	 1.261930666254174e+00	 4.716058847190550e+00
 6.999017448744103e-01	 1.275814081086816e+00	 4.406909823161245e+00
 6.703609881267807e-01	 1.288985924499531e+00	 4.103743532624902e+00
 6.404503781336349e-01	 1.301448770904468e+00	 3.808800533066802e+00
 9.295446851010828e-01	 1.156415051097081e+00	 6.919599752071964e+00
 9.034912739280351e-01	 1.175443739074679e+00	 6.633541682677965e+00
 8.768920792936006e-01	 1.193768700623031e+00	 6.338166870777098e+00
 8.497665476991274e-01	 1.211384141277095e+00	 6.035425765192604e+00
 8.221348496568712e-01	 1.228285490601410e+00	 5.727359738921864e+00
 7.940178164717289e-01	 1.244469402142706e+00	 5.416083606833130e+00
 7.654368751281195e-01	 1.259933748325849e+00	 5.103767743426144e+00
 7.364139816884138e-01	 1.274677610405123e+00	 4.792620067642416e+00
 7.069715536127235e-01	 1.288701263618529e+00	 4.484868153694380e+00
 6.771324014091542e-01	 1.302006157726207e+00	 4.182741713463164e+00
 6.469196600189466e-01	 1.314594893144823e+00	 3.888455677858885e+00
 5.822264109706172e-01	 1.183132796540936e+00	 2.951500171569467e+00
 5.547217605929659e-01	 1.193820718170789e+00	 2.672902172875087e+00
 5.269231856692952e-01	 1.203871877666055e+00	 2.406574131735086e+00
 4.988520042113924e-01	 1.213291563054103e+00	 2.153268057847172e+00
 4.705295839165803e-01	 1.222085976622864e+00	 1.913635655129283e+00
 4.419772843415477e-01	 1.230262197256569e+00	 1.688230376072557e+00
 4.132164007555683e-01	 1.237828140375747e+00	 1.477510265109480e+00
 3.842681099253542e-01	 1.244792515783489e+00	 1.281841493817599e+00
 3.551534180596826e-01	 1.251164783723347e+00	 1.101502488028940e+00
 3.258931111168158e-01	 1.256955109454539e+00	 9.366885464312533e-01
 2.965077076518963e-01	 1.262174316647596e+00	 7.875168518000526e-01
 5.886957607827459e-01	 1.196279056813543e+00	 3.062109175263156e+00
 5.608854952672502e-01	 1.207085736202502e+00	 2.781722023324552e+00
 5.327780392929063e-01	 1.217248578138877e+00	 2.512922446568785e+00
 5.043949477444409e-01	 1.226772929407417e+00	 2.256562265736866e+00
 4.757578257441908e-01	 1.235665061212146e+00	 2.013398576125085e+00
 4.468882701834050e-01	 1.243932131093599e+00	 1.784094649123295e+00
 4.178078129515951e-01	 1.251582142423700e+00	 1.569221644816007e+00
 3.885378661189793e-01	 1.258623901783632e+00	 1.369261052233271e+00
 3.590996693027055e-01	 1.265066974533483e+00	 1.184607769395869e+00
 3.295142394221147e-01	 1.270921638882720e+00	 1.015573733032147e+00
 2.998023230222043e-01	 1.276198838767993e+00	 8.623920075709992e-01
 5.951651090848594e-01	 1.209425314018505e+00	 3.168272605632108e+00
 5.670492285028373e-01	 1.220350751138875e+00	 2.886298067997970e+00
 5.386328915499144e-01	 1.230625275490343e+00	 2.615263130826337e+00
 5.099378899836980e-01	 1.240254292615020e+00	 2.356113789614397e+00
 4.809860663514815e-01	 1.249244142632999e+00	 2.109706653526678e+00
 4.517992548790164e-01	 1.257602061741100e+00	 1.876808749943548e+00
 4.223992240759929e-01	 1.265336141262610e+00	 1.658098160847488e+00
 3.928076213160800e-01	 1.272455284556779e+00	 1.454165420768404e+00
 3.630459196247389e-01	 1.278969162100207e+00	 1.265515599955062e+00
 3.331353668823325e-01	 1.284888165052573e+00	 1.092570992473057e+00
 3.030969376236582e-01	 1.290223357616614e+00	 9.356743269179153e-01
 6.016344543676049e-01	 1.222571565088503e+00	 3.270267488136696e+00
 5.732129588616812e-01	 1.233615759884870e+00	 2.986913203079557e+00
 5.444877410743385e-01	 1.244001966599343e+00	 2.713882798001884e+00
 5.154808296359519e-01	 1.253735649531359e+00	 2.452210986871235e+00
 4.862143045186587e-01	 1.262823217717048e+00	 2.202848201906067e+00
 4.567102372826002e-01	 1.271271986009470e+00	 1.966659355432342e+00
 4.269906330575337e-01	 1.279090133683234e+00	 1.744423453123447e+00
 3.970773745204668e-01	 1.286286660875608e+00	 1.536834000858886e+00
 3.669921681050630e-01	 1.292871343179647e+00	 1.344500139855766e+00
 3.367564926525978e-01	 1.298854684705190e+00	 1.167948439137294e+00
 3.063915506875612e-01	 1.304247869921001e+00	 1.007625270740617e+00
 6.081037951216300e-01	 1.235717806956221e+00	 3.368359061221847e+00
 5.793766849057363e-01	 1.246880759345453e+00	 3.083838288402381e+00
 5.503425865001976e-01	 1.257378648344766e+00	 2.809055867521202e+00
 5.210237654079908e-01	 1.267216997010882e+00	 2.545129947071657e+00
 4.914425390259290e-01	 1.276402283295917e+00	 2.293099270260632e+00
 4.616212162483762e-01	 1.284941900709110e+00	 2.053920947012779e+00
 4.315820388249896e-01	 1.292844116476330e+00	 1.828469095709143e+00
 4.013471247359497e-01	 1.300118027512793e+00	 1.617534308813086e+00
 3.709384138229581e-01	 1.306773514527931e+00	 1.421823887494156e+00
 3.403776158880399e-01	 1.312821194581663e+00	 1.241962783236324e+00
 3.096861614452166e-01	 1.318272372408692e+00	 1.078495179181042e+00
 6.145731298375836e-01	 1.248864036554340e+00	 3.462801396554842e+00
 5.855404051969570e-01	 1.260145746425586e+00	 3.177332780834831e+00
 5.561974264615117e-01	 1.270755317605502e+00	 2.901045206455915e+00
 5.265666960066031e-01	 1.280698331908039e+00	 2.635135137574860e+00
 4.966707686534990e-01	 1.289981336201229e+00	 2.380724287543555e+00
 4.665321906305637e-01	 1.298611802650422e+00	 2.138856452499176e+00
 4.361734403071331e-01	 1.306598086432659e+00	 1.910495231886900e+00
 4.056168709663396e-01	 1.313949381241011e+00	 1.696522601395996e+00
 3.748846558577049e-01	 1.320675672901190e+00	 1.497738293364631e+00
 3.439987357437878e-01	 1.326787691423086e+00	 1.314859931127099e+00
 3.129807691279275e-01	 1.332296861807227e+00	 1.148523857045335e+00
 6.210424570061129e-01	 1.262010250815542e+00	 3.553837980508832e+00
 5.917041182972975e-01	 1.273410718030232e+00	 3.267645328091500e+00
 5.620522595922993e-01	 1.284131971260440e+00	 2.990102731140965e+00
 5.321096201385771e-01	 1.294179651077275e+00	 2.722480008817515e+00
 5.018989921815754e-01	 1.303560373264609e+00	 2.465976667859803e+00
 4.714431592833819e-01	 1.312281688643805e+00	 2.221717847858927e+00
 4.407648364327355e-01	 1.320352040342977e+00	 1.990751169545754e+00
 4.098866122154466e-01	 1.327780718832936e+00	 1.774044462324759e+00
 3.788308932885837e-01	 1.334577815055549e+00	 1.572484335556266e+00
 3.476198513749703e-01	 1.340754171970550e+00	 1.386875548119539e+00
 3.162753729669972e-01	 1.346321334844147e+00	 1.217941122646211e+00
 6.275117751178659e-01	 1.275156446672509e+00	 3.641702259687770e+00
 5.978678227687122e-01	 1.286675671064355e+00	 3.355014325823042e+00
 5.679070845265799e-01	 1.297508606188468e+00	 3.076469971588784e+00
 5.376525365107008e-01	 1.307660951373040e+00	 2.807407562165415e+00
 5.071272083903645e-01	 1.317139391317681e+00	 2.549099378237016e+00
 4.763541210610505e-01	 1.325951555499662e+00	 2.302746721761870e+00
 4.453562261305695e-01	 1.334105974998043e+00	 2.069475939753018e+00
 4.141563474870814e-01	 1.341612037061243e+00	 1.850335352496389e+00
 3.827771251948752e-01	 1.348479937747140e+00	 1.646293059660734e+00
 3.512409619367163e-01	 1.354720632965146e+00	 1.458235586480797e+00
 3.195699721937289e-01	 1.360345788246990e+00	 1.286967322706239e+00
 6.339810826634908e-01	 1.288302621057924e+00	 3.726618153060913e+00
 6.040315171731551e-01	 1.299940602432917e+00	 3.439668440607831e+00
 5.737618998983728e-01	 1.310885219268478e+00	 3.160378601356713e+00
 5.431954438297628e-01	 1.321142229649781e+00	 2.890150883008449e+00
 5.123554160600733e-01	 1.330718387192070e+00	 2.630325471644574e+00
 4.812650748177888e-01	 1.339621400028392e+00	 2.382174805574059e+00
 4.499476083294071e-01	 1.347859887188614e+00	 2.146898821136868e+00
 4.184260757850540e-01	 1.355443332698608e+00	 1.925621126536457e+00
 3.867233506558597e-01	 1.362382037732089e+00	 1.719386085633715e+00
 3.548620665841549e-01	 1.368687071147968e+00	 1.529156781120957e+00
 3.228645660394259e-01	 1.374370218743297e+00	 1.355813815744326e+00
 6.404503781336349e-01	 1.301448770904468e+00	 3.808800533066802e+00
 6.101952000725803e-01	 1.313205509040881e+00	 3.521827101255110e+00
 5.796167043416972e-01	 1.324261807379358e+00	 3.242050935309670e+00
 5.487383408025510e-01	 1.334623482761947e+00	 2.970933641555050e+00
 5.175836139709077e-01	 1.344297357719399e+00	 2.709878587716618e+00
 4.861760194078159e-01	 1.353291219040396e+00	 2.460224471240077e+00
 4.545389819580204e-01	 1.361613773705451e+00	 2.223239832495848e+00
 4.226957961131751e-01	 1.369274602517706e+00	 2.000118518050329e+00
 3.906695687508178e-01	 1.376284111766524e+00	 1.791976083945183e+00
 3.584831644724150e-01	 1.382653483260108e+00	 1.599847115245543e+00
 3.261591537353913e-01	 1.388394623060607e+00	 1.424683426173879e+00
 6.469196600189466e-01	 1.314594893144823e+00	 3.888455677858886e+00
 6.163588700289421e-01	 1.326470387793212e+00	 3.601700960638134e+00
 5.854714964905722e-01	 1.337638367399996e+00	 3.321700397524873e+00
 5.542812261358540e-01	 1.348104707563986e+00	 3.049970563586864e+00
 5.228118009030747e-01	 1.357876299731294e+00	 2.787973423439676e+00
 4.910869536853514e-01	 1.366961009346076e+00	 2.537109199299469e+00
 4.591303459451811e-01	 1.375367631339310e+00	 2.298710195860568e+00
 4.269655074752550e-01	 1.383105843291213e+00	 2.074035595767060e+00
 3.946157785590299e-01	 1.390186156606576e+00	 1.864267223168511e+00
 3.621042547566256e-01	 1.396619866042657e+00	 1.670506258075702e+00
 3.294537345129284e-01	 1.402418997926461e+00	 1.493770871162261e+00
 2.965077076518963e-01	 1.262174316647596e+00	 7.875168518000526e-01
 2.670153521752661e-01	 1.266834146772720e+00	 6.549263686300588e-01
 2.374379815785563e-01	 1.270946214663118e+00	 5.393720332771264e-01
 2.077950911590201e-01	 1.274523035088650e+00	 4.400958830403603e-01
 1.781057461811192e-01	 1.277577589043705e+00	 3.562649106951605e-01
 1.483885491539033e-01	 1.280123275467486e+00	 2.869835611899563e-01
 1.186616101822315e-01	 1.282173863421045e+00	 2.313057040894306e-01
 8.894252039400018e-02	 1.283743444944866e+00	 1.882459912324885e-01
 5.924832842448790e-02	 1.284846388803535e+00	 1.567905279259214e-01
 2.959551991936728e-02	 1.285497295306093e+00	 1.359068038314359e-01
 0.000000000000000e+00	 1.285710952372222e+00	 1.245528462746248e-01
 2.998023230222043e-01	 1.276198838767993e+00	 8.623920075709992e-01
 2.699822662242061e-01	 1.280910446123660e+00	 7.259635028841198e-01
 2.400762496692715e-01	 1.285068204839977e+00	 6.066856997649597e-01
 2.101039852746391e-01	 1.288684768743407e+00	 5.038845169285684e-01
 1.800847501464906e-01	 1.291773263065350e+00	 4.168090907766719e-01
 1.500373534937380e-01	 1.294347235625973e+00	 3.446438176417921e-01
 1.199801066498031e-01	 1.296420608479858e+00	 2.865199285205602e-01
 8.993079620458681e-02	 1.298007630249775e+00	 2.415265052756757e-01
 5.990666022752165e-02	 1.299122829357391e+00	 2.087208653847099e-01
 2.992436754283312e-02	 1.299780968341605e+00	 1.871382595077662e-01
 0.000000000000000e+00	 1.299996999436575e+00	 1.758008421825046e-01
 3.030969376236582e-01	 1.290223357616614e+00	 9.356743269179153e-01
 2.729491795807888e-01	 1.294986742190813e+00	 7.956856044865250e-01
 2.427145171443394e-01	 1.299190191722442e+00	 6.729437553256254e-01
 2.124128788514845e-01	 1.302846499094541e+00	 5.668552497110688e-01
 1.820637536500774e-01	 1.305968933775486e+00	 4.767482027527143e-01
 1.516861574488442e-01	 1.308571192466371e+00	 4.018839711663469e-01
 1.212986028097239e-01	 1.310667350215280e+00	 3.414683370413980e-01
 9.091907178457713e-02	 1.312271812227235e+00	 2.946621872197295e-01
 6.056499187694677e-02	 1.313399266580941e+00	 2.605916142615521e-01
 3.025321508956925e-02	 1.314064638045126e+00	 2.383573815368276e-01
 0.000000000000000e+00	 1.314283043168385e+00	 2.270437104938217e-01
 3.063915506875612e-01	 1.304247869921001e+00	 1.007625270740615e+00
 2.759160915527708e-01	 1.309063031689621e+00	 8.643472547902395e-01
 2.453527833881924e-01	 1.313312172015283e+00	 7.383939926147112e-01
 2.147217713508357e-01	 1.317008222837535e+00	 6.292492703899693e-01
 1.840427562301275e-01	 1.320164597861665e+00	 5.363171080239326e-01
 1.533349606345122e-01	 1.322795142669631e+00	 4.589329191249358e-01
 1.226170983543528e-01	 1.324914085302944e+00	 3.963743102921733e-01
 9.190734690337890e-02	 1.326535987548803e+00	 3.478714280994144e-01
 6.122332321915580e-02	 1.327675697142885e+00	 3.126167787853804e-01
 3.058206248284614e-02	 1.328348301083665e+00	 2.897744616053497e-01
 0.000000000000000e+00	 1.328569080234105e+00	 2.784887717955675e-01
 3.096861614452166e-01	 1.318272372408692e+00	 1.078495179181042e+00
 2.788830014479088e-01	 1.323139311335524e+00	 9.321922073935918e-01
 2.479910477852629e-01	 1.327434142423264e+00	 8.032736656381736e-01
 2.170306622339722e-01	 1.331169936667870e+00	 6.912975105159362e-01
 1.860217574248893e-01	 1.334360252011446e+00	 5.957406799578093e-01
 1.549837626660326e-01	 1.337019082916703e+00	 5.160098247610405e-01
 1.239355929760488e-01	 1.339160810418477e+00	 4.514517296433254e-01
 9.289562133039975e-02	 1.340800152886037e+00	 4.013633320652699e-01
 6.188165410054127e-02	 1.341952117711918e+00	 3.650012630043569e-01
 3.091090964593424e-02	 1.342631954124233e+00	 3.415908491997994e-01
 0.000000000000000e+00	 1.342855107300192e+00	 3.303345308742749e-01
 3.129807691279275e-01	 1.332296861807227e+00	 1.148523857045333e+00
 2.818499085739596e-01	 1.337215577843965e+00	 9.994539581604112e-01
 2.506293097199830e-01	 1.341556099651152e+00	 8.678100445739334e-01
 2.193395509621732e-01	 1.345331637281030e+00	 7.532211842251380e-01
 1.880007567726109e-01	 1.348555892912382e+00	 6.552343297596801e-01
 1.566325631586960e-01	 1.351243009888536e+00	 5.733246297183796e-01
 1.252540863671707e-01	 1.353407522237509e+00	 5.069054773626458e-01
 9.388389483504743e-02	 1.355064304910496e+00	 4.553382053799884e-01
 6.253998436749579e-02	 1.356228524956741e+00	 4.179413499602374e-01
 3.123975650210397e-02	 1.356915593833839e+00	 3.939994224681793e-01
 0.000000000000000e+00	 1.357141121033102e+00	 3.827711409250316e-01
 3.162753729669972e-01	 1.346321334844147e+00	 1.217941122646213e+00
 2.848168122386797e-01	 1.351291827930385e+00	 1.066356279623323e+00
 2.532675685767853e-01	 1.355678040403714e+00	 9.322209359260241e-01
 2.216484369967182e-01	 1.359493321372498e+00	 8.152322945334503e-01
 1.899797538115407e-01	 1.362751517252028e+00	 7.150044994854188e-01
 1.582813617277927e-01	 1.365466920266081e+00	 6.310785345362688e-01
 1.265725782200774e-01	 1.367654217435671e+00	 5.629319055308799e-01
 9.487216718672974e-02	 1.369328440293738e+00	 5.099880148605251e-01
 6.319831386641184e-02	 1.370504915546047e+00	 4.716251509225216e-01
 3.156860297462580e-02	 1.371199216879492e+00	 4.471850296611248e-01
 0.000000000000000e+00	 1.371427118099289e+00	 4.359808387553277e-01
 3.195699721937289e-01	 1.360345788246990e+00	 1.286967322706240e+00
 2.877837117498259e-01	 1.365368058310224e+00	 1.133113722339705e+00
 2.559058237401016e-01	 1.369799961385716e+00	 9.967151705133905e-01
 2.239573197988864e-01	 1.373654985637755e+00	 8.775341083214010e-01
 1.919587480799268e-01	 1.376947121717941e+00	 7.752491245671540e-01
 1.599301579886132e-01	 1.379690810730285e+00	 6.894644494305153e-01
 1.278910682271278e-01	 1.381900892688592e+00	 6.197192759598020e-01
 9.586043815485427e-02	 1.383592555707320e+00	 5.654968179707309e-01
 6.385664244368201e-02	 1.384781286148536e+00	 5.262330268421698e-01
 3.189744898677018e-02	 1.385482819928203e+00	 5.013249032745339e-01
 0.000000000000000e+00	 1.385713095165209e+00	 4.901383530761854e-01
 3.228645660394259e-01	 1.374370218743297e+00	 1.355813815744328e+00
 2.907506064151547e-01	 1.379444265698925e+00	 1.199932085561392e+00
 2.585440745943647e-01	 1.383921859301924e+00	 1.061493061589581e+00
 2.262661988299575e-01	 1.387816626772285e+00	 9.403216022468304e-01
 1.939377391160176e-01	 1.391142702997676e+00	 8.361580680280043e-01
 1.615789515564478e-01	 1.393914677962101e+00	 7.486674174836927e-01
 1.292095560806810e-01	 1.396147544671901e+00	 6.774481731837565e-01
 9.684870750882889e-02	 1.397856647822801e+00	 6.220411665889014e-01
 6.451496994569883e-02	 1.399057633432906e+00	 5.819379840095216e-01
 3.222629446180756e-02	 1.399766399646979e+00	 5.565890488435064e-01
 0.000000000000000e+00	 1.399999048897318e+00	 5.454112878028410e-01
 3.261591537353913e-01	 1.388394623060607e+00	 1.424683426173880e+00
 2.937174955424229e-01	 1.393520446811928e+00	 1.267008859385563e+00
 2.611823205240066e-01	 1.398043730857107e+00	 1.126746835204932e+00
 2.285750735512107e-01	 1.401978241471570e+00	 1.003781881638911e+00
 1.959167264580612e-01	 1.405338257778787e+00	 8.979135283884192e-01
 1.632277420465874e-01	 1.408138518642477e+00	 8.088650121936476e-01
 1.305280414730955e-01	 1.410394170061229e+00	 7.362918924279187e-01
 9.783697501806117e-02	 1.412120713311740e+00	 6.797904863109574e-01
 6.517329621885488e-02	 1.413333954067853e+00	 6.389060457385181e-01
 3.255513932300839e-02	 1.414049952702832e+00	 6.131406101789858e-01
 0.000000000000000e+00	 1.414284975962072e+00	 6.019604821307898e-01
 3.294537345129284e-01	 1.402418997926461e+00	 1.493770871162263e+00
 2.966843784393872e-01	 1.407596598364675e+00	 1.334533640384040e+00
 2.638205609134598e-01	 1.412165572756028e+00	 1.192661034753608e+00
 2.308839434239252e-01	 1.416139826431092e+00	 1.068094574265793e+00
 1.978957096443058e-01	 1.419533782748832e+00	 9.606904231038498e-01
 1.648765290743220e-01	 1.422362329452364e+00	 8.702277111759527e-01
 1.318465240967305e-01	 1.424640765532204e+00	 7.964168043048021e-01
 9.882524045195897e-02	 1.426384748845694e+00	 7.389074330011347e-01
 6.583162110954265e-02	 1.427610244722075e+00	 6.972966017561519e-01
 3.288398349364309e-02	 1.428333475762771e+00	 6.711362126961344e-01
 0.000000000000000e+00	 1.428570873025926e+00	 6.599403490133660e-01
 1.428570873025926e+00	 0.000000000000000e+00	 1.213036812200760e+01
 1.428333475762771e+00	 3.288398349364353e-02	 1.211583453511253e+01
 1.427610244722076e+00	 6.583162110954309e-02	 1.209722044980027e+01
 1.426384748845693e+00	 9.882524045195930e-02	 1.207395274512466e+01
 1.424640765532204e+00	 1.318465240967308e-01	 1.204546826425456e+01
 1.422362329452363e+00	 1.648765290743223e-01	 1.201121885170047e+01
 1.419533782748831e+00	 1.978957096443060e-01	 1.197067675048596e+01
 1.416139826431091e+00	 2.308839434239253e-01	 1.192334033167817e+01
 1.412165572756028e+00	 2.638205609134598e-01	 1.186874012000160e+01
 1.407596598364675e+00	 2.966843784393872e-01	 1.180644507007614e+01
 1.402418997926461e+00	 3.294537345129283e-01	 1.173606903829412e+01
 1.442856738422074e+00	 0.000000000000000e+00	 1.204648950738541e+01
 1.442616967160266e+00	 3.321282693534739e-02	 1.203248240458399e+01
 1.441886503729889e+00	 6.648994454095894e-02	 1.201460068170129e+01
 1.440648752760408e+00	 9.981350369522651e-02	 1.199230493635984e+01
 1.438887329422610e+00	 1.331650037977660e-01	 1.196506490124160e+01
 1.436586108732203e+00	 1.665253124472980e-01	 1.193236416947435e+01
 1.433729276251555e+00	 1.998746884438770e-01	 1.189370526040672e+01
 1.430301379998563e+00	 2.331928081787428e-01	 1.184861500014615e+01
 1.426287383351045e+00	 2.664587954549431e-01	 1.179665018306170e+01
 1.421672718714860e+00	 2.996512547599297e-01	 1.173740347181209e+01
 1.416443341704605e+00	 3.327483079876941e-01	 1.167050948448681e+01
 1.457142577150667e+00	 0.000000000000000e+00	 1.196800619060597e+01
 1.456900431894637e+00	 3.354166976321469e-02	 1.195451744243172e+01
 1.456162736088080e+00	 6.714826674351429e-02	 1.193734776113608e+01
 1.454912730048382e+00	 1.008017650937523e-01	 1.191599034936062e+01
 1.453133866718838e+00	 1.344834810376646e-01	 1.188994673934528e+01
 1.450809861460411e+00	 1.681740927425823e-01	 1.185873121595054e+01
 1.447924743255468e+00	 2.018536635494074e-01	 1.182187556109358e+01
 1.444462907130610e+00	 2.355016686237530e-01	 1.177893409587547e+01
 1.440409167584866e+00	 2.690970250718210e-01	 1.172948898900689e+01
 1.435748812789194e+00	 3.026181255424343e-01	 1.167315579202428e+01
 1.430467659303615e+00	 3.360428753127599e-01	 1.160958915335362e+01
 1.471428395878593e+00	 0.000000000000000e+00	 1.189461695675522e+01
 1.471183876631666e+00	 3.387051213070462e-02	 1.188163600003990e+01
 1.470438948459055e+00	 6.780658802442420e-02	 1.186515611217176e+01
 1.469176687366300e+00	 1.017900251087220e-01	 1.184470201626081e+01
 1.467380384069432e+00	 1.358019564317108e-01	 1.181980598247267e+01
 1.465033594274894e+00	 1.698228707295979e-01	 1.179001195792508e+01
 1.462120190385275e+00	 2.038326358844076e-01	 1.175487999959054e+01
 1.458624414436090e+00	 2.378105258364077e-01	 1.171399098832851e+01
 1.454530932047793e+00	 2.717352509952452e-01	 1.166695159499071e+01
 1.449824887156638e+00	 3.055849921714104e-01	 1.161339946193628e+01
 1.444491957268275e+00	 3.393374380255506e-01	 1.155300855538276e+01
 1.485714201272741e+00	 0.000000000000000e+00	 1.182603218183456e+01
 1.485467308037133e+00	 3.419935419127627e-02	 1.181354611316689e+01
 1.484715147505218e+00	 6.846490869090381e-02	 1.179773191723114e+01
 1.483440631370847e+00	 1.027782842013209e-01	 1.177814478093836e+01
 1.481626888122938e+00	 1.371204305951887e-01	 1.175434667798074e+01
 1.479257313813562e+00	 1.714716471777679e-01	 1.172591021461262e+01
 1.476315624265676e+00	 2.058116063723873e-01	 1.169242276058200e+01
 1.472785908523857e+00	 2.401193808941586e-01	 1.165349084512856e+01
 1.468652683330120e+00	 2.743734744563666e-01	 1.160874479125798e+01
 1.463900948386158e+00	 3.085518560313680e-01	 1.155784355439132e+01
 1.458516242143368e+00	 3.426319976634912e-01	 1.150047972408446e+01
 1.500000000000000e+00	 0.000000000000000e+00	 1.176197328071399e+01
 1.499750732776819e+00	 3.452819609838880e-02	 1.174996694544680e+01
 1.498991339888977e+00	 6.912322905016832e-02	 1.173479255707068e+01
 1.497704568718708e+00	 1.037665428327345e-01	 1.171603473645122e+01
 1.495873385527899e+00	 1.384389041433825e-01	 1.169328415260362e+01
 1.493481026714322e+00	 1.731204228565149e-01	 1.166614109314854e+01
 1.490511051521376e+00	 2.077905759368570e-01	 1.163421930260181e+01
 1.486947396002769e+00	 2.424282348744578e-01	 1.159715007015301e+01
 1.482774428022150e+00	 2.770116966863368e-01	 1.155458654234191e+01
 1.477977003046713e+00	 3.115187185068158e-01	 1.150620822941160e+01
 1.472540520473678e+00	 3.459265557640069e-01	 1.145172566720558e+01
 1.514285798727260e+00	 0.000000000000000e+00	 1.170217218636003e+01
 1.514034157516504e+00	 3.485703800550132e-02	 1.169062826341773e+01
 1.513267532272734e+00	 6.978154940943283e-02	 1.167606608248495e+01
 1.511968506066570e+00	 1.047548014641481e-01	 1.165809869434380e+01
 1.510119882932860e+00	 1.397573776915763e-01	 1.163634448033575e+01
 1.507704739615082e+00	 1.747691985352620e-01	 1.161043045607122e+01
 1.504706478777075e+00	 2.097695455013266e-01	 1.157999582618222e+01
 1.501108883481681e+00	 2.447370888547570e-01	 1.154469577345971e+01
 1.496896172714179e+00	 2.796499189163070e-01	 1.150420545991848e+01
 1.492053057707269e+00	 3.144855809822638e-01	 1.145822421116788e+01
 1.486564798803988e+00	 3.492211138645225e-01	 1.140647984903399e+01
 1.528571604121408e+00	 0.000000000000000e+00	 1.164637085829039e+01
 1.528317588921971e+00	 3.518588006607298e-02	 1.163526994101271e+01
 1.527543731318899e+00	 7.043987007591246e-02	 1.162129071566016e+01
 1.526232450071117e+00	 1.057430605567471e-01	 1.160407368373697e+01
 1.524366386986366e+00	 1.410758518550542e-01	 1.158326398017857e+01
 1.521928459153750e+00	 1.764179749834320e-01	 1.155851441869034e+01
 1.518901912657477e+00	 2.117485159893064e-01	 1.152948877185153e+01
 1.515270377569448e+00	 2.470459439125080e-01	 1.149586527096230e+01
 1.511017923996508e+00	 2.822881423774285e-01	 1.145734030524538e+01
 1.506129118936787e+00	 3.174524448422210e-01	 1.141363229430260e+01
 1.500589083679082e+00	 3.525156735024633e-01	 1.136448570175720e+01
 1.542857422849333e+00	 0.000000000000000e+00	 1.159432081835966e+01
 1.542601033659000e+00	 3.551472243356290e-02	 1.158364149160189e+01
 1.541819943689873e+00	 7.109819135682234e-02	 1.157021437925344e+01
 1.540496407389035e+00	 1.067313205717167e-01	 1.155370647826971e+01
 1.538612904336961e+00	 1.423943272491004e-01	 1.153378874181360e+01
 1.536152191968234e+00	 1.780667529704477e-01	 1.151013887440246e+01
 1.533097359787283e+00	 2.137274883243064e-01	 1.148244434604406e+01
 1.529431884874928e+00	 2.493548011251626e-01	 1.145040561192451e+01
 1.525139688459433e+00	 2.849263683008526e-01	 1.141373951926643e+01
 1.520205193304232e+00	 3.204193114711973e-01	 1.137218287770259e+01
 1.514613381643741e+00	 3.558102362152540e-01	 1.132549616399049e+01
 1.557143261577926e+00	 0.000000000000000e+00	 1.154578271211921e+01
 1.556884498393372e+00	 3.584356526143021e-02	 1.153550162581528e+01
 1.556096176048064e+00	 7.175651355937768e-02	 1.152259425141594e+01
 1.554760384677008e+00	 1.077195819702425e-01	 1.150675314910244e+01
 1.552859441633188e+00	 1.437128044889990e-01	 1.148767417740683e+01
 1.550375944696441e+00	 1.797155332657319e-01	 1.146505904615785e+01
 1.547292826791196e+00	 2.157064634298368e-01	 1.143861807312854e+01
 1.543593412006975e+00	 2.516636615701728e-01	 1.140807313248565e+01
 1.539261472693255e+00	 2.875645979177306e-01	 1.137316077860330e+01
 1.534281287378566e+00	 3.233861822537020e-01	 1.133363552395681e+01
 1.528637699242752e+00	 3.591048035403198e-01	 1.128927324472821e+01
 1.571429126974074e+00	 0.000000000000000e+00	 1.150052589412273e+01
 1.571167989790867e+00	 3.617240870313405e-02	 1.149061783350414e+01
 1.570372435055877e+00	 7.241483699079355e-02	 1.147819634510735e+01
 1.569024388591724e+00	 1.087078452135097e-01	 1.146297864232183e+01
 1.567106005523594e+00	 1.450312841900342e-01	 1.144468459788039e+01
 1.564599723976281e+00	 1.813643166387076e-01	 1.142303906241276e+01
 1.561488320293920e+00	 2.176854422294079e-01	 1.139777437189139e+01
 1.557754965574446e+00	 2.539725263249902e-01	 1.136863303355923e+01
 1.553383283288272e+00	 2.902028324592137e-01	 1.133537057578566e+01
 1.548357407728751e+00	 3.263530585742443e-01	 1.129775854286358e+01
 1.542662043020896e+00	 3.623993770150854e-01	 1.125558761109907e+01
 1.402418997926461e+00	 3.294537345129283e-01	 1.173606903829412e+01
 1.396619866042658e+00	 3.621042547566253e-01	 1.165993481560308e+01
 1.390186156606576e+00	 3.946157785590295e-01	 1.158059319821761e+01
 1.383105843291214e+00	 4.269655074752547e-01	 1.149803527684794e+01
 1.375367631339310e+00	 4.591303459451807e-01	 1.141222599634225e+01
 1.366961009346076e+00	 4.910869536853510e-01	 1.132310167282511e+01
 1.357876299731293e+00	 5.228118009030744e-01	 1.123056768096314e+01
 1.348104707563986e+00	 5.542812261358537e-01	 1.113449636073637e+01
 1.337638367399997e+00	 5.854714964905721e-01	 1.103472519374893e+01
 1.326470387793212e+00	 6.163588700289419e-01	 1.093105529869090e+01
 1.314594893144823e+00	 6.469196600189466e-01	 1.082325029395282e+01
 1.416443341704605e+00	 3.327483079876941e-01	 1.167050948448681e+01
 1.410586217866144e+00	 3.657253370143579e-01	 1.159809815731526e+01
 1.404088170630291e+00	 3.985619796201447e-01	 1.152252417813241e+01
 1.396937053405456e+00	 4.312352093732099e-01	 1.144379027932198e+01
 1.389121458485565e+00	 4.637216997552888e-01	 1.136187153614069e+01
 1.380630769350629e+00	 4.959978770775202e-01	 1.127671269289971e+01
 1.371455211643566e+00	 5.280399762466951e-01	 1.118822566270762e+01
 1.361585902483125e+00	 5.598240991830850e-01	 1.109628725318663e+01
 1.351014897769846e+00	 5.913262756620284e-01	 1.100073717140601e+01
 1.339735237142398e+00	 6.225225263232392e-01	 1.090137636097965e+01
 1.327740986245340e+00	 6.533889275647720e-01	 1.079796572272592e+01
 1.430467659303615e+00	 3.360428753127599e-01	 1.160958915335362e+01
 1.424552543618833e+00	 3.693464125129539e-01	 1.154073206529680e+01
 1.417990158703402e+00	 4.025081733152876e-01	 1.146874874375080e+01
 1.410768237701365e+00	 4.355049033013803e-01	 1.139365261112752e+01
 1.402875259958045e+00	 4.683130449952526e-01	 1.131542804575933e+01
 1.394300503838440e+00	 5.009087913030714e-01	 1.123402753290449e+01
 1.385034098208786e+00	 5.332681418315466e-01	 1.114936899240851e+01
 1.375067072237715e+00	 5.653669618841587e-01	 1.106133333821808e+01
 1.364391403170606e+00	 5.971810439051404e-01	 1.096976232594260e+01
 1.353000061731035e+00	 6.286861711126494e-01	 1.087445674447570e+01
 1.340887054807036e+00	 6.598581830352498e-01	 1.077517500619974e+01
 1.444491957268275e+00	 3.393374380255506e-01	 1.155300855538276e+01
 1.438518849818423e+00	 3.729674829421977e-01	 1.148754080915963e+01
 1.431892127313559e+00	 4.064543614859512e-01	 1.141897559134381e+01
 1.424599402633524e+00	 4.397745912522124e-01	 1.134733609680006e+01
 1.416629042175190e+00	 4.729043838076080e-01	 1.127261521118960e+01
 1.407970219188693e+00	 5.058196986536592e-01	 1.119477250221350e+01
 1.398612965763713e+00	 5.384963000973219e-01	 1.111373139026584e+01
 1.388548223118887e+00	 5.709098168256141e-01	 1.102937655623677e+01
 1.377767889844539e+00	 6.030358039519947e-01	 1.094155164535503e+01
 1.366264867749247e+00	 6.348498072733942e-01	 1.085005732588565e+01
 1.354033104964594e+00	 6.663274294492167e-01	 1.075464976006356e+01
 1.458516242143368e+00	 3.426319976634912e-01	 1.150047972408446e+01
 1.452485142982614e+00	 3.765885499918734e-01	 1.143824003679283e+01
 1.445794082948414e+00	 4.104005459736285e-01	 1.137292462504625e+01
 1.438430554656515e+00	 4.440442752181522e-01	 1.130456557134745e+01
 1.430382811555445e+00	 4.774957183348914e-01	 1.123316350331162e+01
 1.421639921780571e+00	 5.107306014209381e-01	 1.115868444020846e+01
 1.412191820645105e+00	 5.437244534837126e-01	 1.108105682132794e+01
 1.402029361417770e+00	 5.764526665939903e-01	 1.100016877621520e+01
 1.391144364033907e+00	 6.088905585346770e-01	 1.091586569810896e+01
 1.379529661387155e+00	 6.410134376816954e-01	 1.082794818194413e+01
 1.367179142852703e+00	 6.727966698255098e-01	 1.073617038689591e+01
 1.472540520473678e+00	 3.459265557640069e-01	 1.145172566720558e+01
 1.466451429629105e+00	 3.802096153517646e-01	 1.139255623247853e+01
 1.459696032095616e+00	 4.143467286198128e-01	 1.133032642309706e+01
 1.452261700224921e+00	 4.483139571916458e-01	 1.126507635590021e+01
 1.444136574517253e+00	 4.820870507196391e-01	 1.119681366429774e+01
 1.435309617993256e+00	 5.156415018965624e-01	 1.112551021483185e+01
 1.425770669189721e+00	 5.489526044304112e-01	 1.105109900763672e+01
 1.415510493425496e+00	 5.819955137758276e-01	 1.097347132291299e+01
 1.404520831980972e+00	 6.147453103852731e-01	 1.089247417695152e+01
 1.392794448834883e+00	 6.471770652137749e-01	 1.080790815135840e+01
 1.380325174606045e+00	 6.792659071829659e-01	 1.071952565779984e+01
 1.486564798803988e+00	 3.492211138645225e-01	 1.140647984903399e+01
 1.480417716275596e+00	 3.838306807116561e-01	 1.135022620570665e+01
 1.473597981242819e+00	 4.182929112659970e-01	 1.129092173431818e+01
 1.466092845793325e+00	 4.525836391651394e-01	 1.122861376306720e+01
 1.457890337479054e+00	 4.866783831043864e-01	 1.116331622311242e+01
 1.448979314205931e+00	 5.205524023721870e-01	 1.109500624954794e+01
 1.439349517734319e+00	 5.541807553771096e-01	 1.102362096801096e+01
 1.428991625433194e+00	 5.875383609576647e-01	 1.094905453088150e+01
 1.417897299927996e+00	 6.206000622358694e-01	 1.087115546856733e+01
 1.406059236282551e+00	 6.533406927458544e-01	 1.078972442156975e+01
 1.393471206359307e+00	 6.857351445404221e-01	 1.070451231773925e+01
 1.500589083679082e+00	 3.525156735024633e-01	 1.136448570175720e+01
 1.494384009439786e+00	 3.874517477613316e-01	 1.131099660867851e+01
 1.487499936877670e+00	 4.222390957536742e-01	 1.125446100285215e+01
 1.479923997816310e+00	 4.568533231310791e-01	 1.119493263005197e+01
 1.471644106859294e+00	 4.912697176316699e-01	 1.113243103820343e+01
 1.462649016797778e+00	 5.254633051394657e-01	 1.106693807685186e+01
 1.452928372615660e+00	 5.594089087635005e-01	 1.099839458365809e+01
 1.442472763731995e+00	 5.930812107260414e-01	 1.092669732349868e+01
 1.431273774117241e+00	 6.264548168185513e-01	 1.085169624738633e+01
 1.419324029920284e+00	 6.595043231541553e-01	 1.077319213870670e+01
 1.406617244247173e+00	 6.922043849167152e-01	 1.069093471302462e+01
 1.514613381643741e+00	 3.558102362152540e-01	 1.132549616399049e+01
 1.508350315639376e+00	 3.910728181905754e-01	 1.127462348063825e+01
 1.501401905487825e+00	 4.261852839243379e-01	 1.122070391932534e+01
 1.493755162748458e+00	 4.611230110819112e-01	 1.116379687772865e+01
 1.485397889076415e+00	 4.958610564440254e-01	 1.110392686562017e+01
 1.476318732147982e+00	 5.303742124900537e-01	 1.104107991660440e+01
 1.466507240170501e+00	 5.646370670292757e-01	 1.097520018793873e+01
 1.455953914613030e+00	 5.986240656674965e-01	 1.090618681541048e+01
 1.444650260790970e+00	 6.323095768654057e-01	 1.083389109197696e+01
 1.432588835938203e+00	 6.656679593149002e-01	 1.075811403922569e+01
 1.419763294404329e+00	 6.986736313306823e-01	 1.067860443951142e+01
 1.528637699242752e+00	 3.591048035403198e-01	 1.128927324472821e+01
 1.522316641392064e+00	 3.946938936891715e-01	 1.124087181730771e+01
 1.515303893560931e+00	 4.301314776194807e-01	 1.118941899673825e+01
 1.507586347044352e+00	 4.653927050100816e-01	 1.113497909400920e+01
 1.499151690548858e+00	 5.004524016839892e-01	 1.107758095092523e+01
 1.489988466635725e+00	 5.352851267156048e-01	 1.101721427759712e+01
 1.480086126735601e+00	 5.698652326141274e-01	 1.095382617873172e+01
 1.469435084367429e+00	 6.041669283685701e-01	 1.088731793687432e+01
 1.458026766191443e+00	 6.381643451085179e-01	 1.081754212257253e+01
 1.445853660526431e+00	 6.718316041043105e-01	 1.074430010184514e+01
 1.432909362965459e+00	 7.051428868011598e-01	 1.066734001017964e+01
 1.542662043020896e+00	 3.623993770150854e-01	 1.125558761109907e+01
 1.536282993215550e+00	 3.983149759469040e-01	 1.120951516382602e+01
 1.529205907584642e+00	 4.340776786805960e-01	 1.116038316950807e+01
 1.521417557158576e+00	 4.696624069080367e-01	 1.110826013995459e+01
 1.512905517695068e+00	 5.050437554940970e-01	 1.105317864338350e+01
 1.503658226640188e+00	 5.401960501077737e-01	 1.099513158086809e+01
 1.493665038647719e+00	 5.750934079577475e-01	 1.093406865196038e+01
 1.482916279286322e+00	 6.097098014158012e-01	 1.086989307860982e+01
 1.471403296560924e+00	 6.440191242799742e-01	 1.080245865838533e+01
 1.459118509875090e+00	 6.779952603986078e-01	 1.073156721848060e+01
 1.446055456065250e+00	 7.116121543469853e-01	 1.065696654086042e+01
 1.314594893144823e+00	 6.469196600189466e-01	 1.082325029395282e+01
 1.302006157726207e+00	 6.771324014091545e-01	 1.070911092549087e+01
 1.288701263618528e+00	 7.069715536127238e-01	 1.058681300208658e+01
 1.274677610405123e+00	 7.364139816884141e-01	 1.045661293302831e+01
 1.259933748325849e+00	 7.654368751281202e-01	 1.031874011473000e+01
 1.244469402142706e+00	 7.940178164717294e-01	 1.017339355655995e+01
 1.228285490601410e+00	 8.221348496568718e-01	 1.002073882199718e+01
 1.211384141277094e+00	 8.497665476991278e-01	 9.860905348722737e+00
 1.193768700623030e+00	 8.768920792936009e-01	 9.693984206749214e+00
 1.175443739074679e+00	 9.034912739280352e-01	 9.520026347493989e+00
 1.156415051097081e+00	 9.295446851010828e-01	 9.339041388891944e+00
 1.327740986245340e+00	 6.533889275647720e-01	 1.079796572272592e+01
 1.315026362092133e+00	 6.839037996823172e-01	 1.068828730264728e+01
 1.301588417584430e+00	 7.140413466803667e-01	 1.057048330446387e+01
 1.287424526301110e+00	 7.437782022657358e-01	 1.044478385151747e+01
 1.272533223984267e+00	 7.730913278227418e-01	 1.031139200868939e+01
 1.256914232643484e+00	 8.019580817142202e-01	 1.017048062434984e+01
 1.240568480212031e+00	 8.303562883147737e-01	 1.002218949344488e+01
 1.223498115541023e+00	 8.582643063677963e-01	 9.866622902456156e+00
 1.205706518548623e+00	 8.856610962530627e-01	 9.703847612270728e+00
 1.187198305375145e+00	 9.125262857509887e-01	 9.533891328665103e+00
 1.167979328430909e+00	 9.388402338930860e-01	 9.356741702231073e+00
 1.340887054807036e+00	 6.598581830352498e-01	 1.077517500619974e+01
 1.328046542154254e+00	 6.906751853161535e-01	 1.066968684135499e+01
 1.314475547494891e+00	 7.211111265516637e-01	 1.055610742517462e+01
 1.300171418403419e+00	 7.511424090970864e-01	 1.043464128048998e+01
 1.285132676124198e+00	 7.807457662295900e-01	 1.030546590761909e+01
 1.269359039914403e+00	 8.098983321353761e-01	 1.016872884017976e+01
 1.252851446894847e+00	 8.385777116264355e-01	 1.002454502680489e+01
 1.235612067192585e+00	 8.667620491743747e-01	 9.872994596611024e+00
 1.217644314190617e+00	 8.944300968440329e-01	 9.714121061397851e+00
 1.198952849734027e+00	 9.215612807088772e-01	 9.547930001108453e+00
 1.179543584178313e+00	 9.481357653336441e-01	 9.374388271158695e+00
 1.354033104964594e+00	 6.663274294492167e-01	 1.075464976006356e+01
 1.341066703988496e+00	 6.974465614704949e-01	 1.065309240040366e+01
 1.327362659363738e+00	 7.281808965257016e-01	 1.054347961550691e+01
 1.312918292660426e+00	 7.585066056189583e-01	 1.042599100722445e+01
 1.297732110625212e+00	 7.884001939206060e-01	 1.030077927112816e+01
 1.281803829762870e+00	 8.178385714405283e-01	 1.016796746395408e+01
 1.265134396381741e+00	 8.467991234284111e-01	 1.002764660068073e+01
 1.247726001884798e+00	 8.752597800843780e-01	 9.879873636197225e+00
 1.229582093119834e+00	 9.031990851586249e-01	 9.724669881485536e+00
 1.210707377636641e+00	 9.305962630179525e-01	 9.562019897699932e+00
 1.191107823735815e+00	 9.574312837605971e-01	 9.391870903579683e+00
 1.367179142852703e+00	 6.727966698255098e-01	 1.073617038689591e+01
 1.354086853670782e+00	 7.042179313051731e-01	 1.063829519294951e+01
 1.340249759204795e+00	 7.352506599015664e-01	 1.053240204285254e+01
 1.325665155020511e+00	 7.658707952678440e-01	 1.041864629132761e+01
 1.310331533366881e+00	 7.960546144677322e-01	 1.029715658214068e+01
 1.294248607996289e+00	 8.257788033350082e-01	 1.016803232496354e+01
 1.277417334404598e+00	 8.550205275572582e-01	 1.003134150458537e+01
 1.259839925270682e+00	 8.837575030633226e-01	 9.887118874519398e+00
 1.241519860907095e+00	 9.119680652889500e-01	 9.735364581882770e+00
 1.222461894568301e+00	 9.396312368944653e-01	 9.576043263812121e+00
 1.202672052499939e+00	 9.667267935117863e-01	 9.409083647725838e+00
 1.380325174606045e+00	 6.792659071829659e-01	 1.071952565779984e+01
 1.367106997277037e+00	 7.109892979800194e-01	 1.062509438876464e+01
 1.353136853031889e+00	 7.423204199783444e-01	 1.052268441384398e+01
 1.338412011432047e+00	 7.732349814802353e-01	 1.041242750902171e+01
 1.322930950228776e+00	 8.037090314429114e-01	 1.029442901258305e+01
 1.306693380422067e+00	 8.337190315241463e-01	 1.016876550920650e+01
 1.289700266695305e+00	 8.632419278495311e-01	 1.003548284811277e+01
 1.271953843003254e+00	 8.922552220767233e-01	 9.894594544395774e+00
 1.253457623123223e+00	 9.207370413271208e-01	 9.746080607373807e+00
 1.234216406014319e+00	 9.486662065546664e-01	 9.589886833129711e+00
 1.214236275867208e+00	 9.760222989250513e-01	 9.425924590471993e+00
 1.393471206359307e+00	 6.857351445404221e-01	 1.070451231773925e+01
 1.380127140883184e+00	 7.177606646548657e-01	 1.061329673901969e+01
 1.366023946858845e+00	 7.493901800551216e-01	 1.051414361884142e+01
 1.351158867843413e+00	 7.805991676926244e-01	 1.040716181758369e+01
 1.335530367090467e+00	 8.113634484180853e-01	 1.029243410801065e+01
 1.319138152847608e+00	 8.416592597132743e-01	 1.017001506442389e+01
 1.301983198985745e+00	 8.714633281417865e-01	 1.003992928658554e+01
 1.284067760735535e+00	 9.007529410900955e-01	 9.902170004604013e+00
 1.265395385339038e+00	 9.295060173652493e-01	 9.756698105587482e+00
 1.245970917460011e+00	 9.577011762148074e-01	 9.603441616165444e+00
 1.225800499234146e+00	 9.853178043382338e-01	 9.442295667078087e+00
 1.406617244247173e+00	 6.922043849167152e-01	 1.069093471302462e+01
 1.393147290565148e+00	 7.245320344895437e-01	 1.060271622212457e+01
 1.378911046699490e+00	 7.564599434309848e-01	 1.050660339637199e+01
 1.363905730202986e+00	 7.879633573415036e-01	 1.040268283861678e+01
 1.348129789831525e+00	 8.190178689651958e-01	 1.029101548993405e+01
 1.331582931080320e+00	 8.495994916077230e-01	 1.017163472168847e+01
 1.314266137007805e+00	 8.796847322705800e-01	 1.004454476209977e+01
 1.296181684120543e+00	 9.092506640689551e-01	 9.909719500557038e+00
 1.277333153125360e+00	 9.382749974954472e-01	 9.767101707459934e+00
 1.257725434390691e+00	 9.667361500911392e-01	 9.616602700644924e+00
 1.237364727997274e+00	 9.946133140891735e-01	 9.458102481608748e+00
 1.419763294404329e+00	 6.986736313306823e-01	 1.067860443951142e+01
 1.406167452398852e+00	 7.313034106438844e-01	 1.059317370926107e+01
 1.391798158567646e+00	 7.635297134050192e-01	 1.049989401622685e+01
 1.376652604459141e+00	 7.953275538633646e-01	 1.039883035893289e+01
 1.360729224331522e+00	 8.266722966561857e-01	 1.029002257469642e+01
 1.344027720927606e+00	 8.575397309128240e-01	 1.017348363247404e+01
 1.326549086493368e+00	 8.879061440724667e-01	 1.004919825896827e+01
 1.308295618811295e+00	 9.177483949788170e-01	 9.917121938285714e+00
 1.289270932053014e+00	 9.470439858098275e-01	 9.777180319904224e+00
 1.269479962291672e+00	 9.757711323999124e-01	 9.629269062990472e+00
 1.248928967553118e+00	 1.003908832515712e+00	 9.473254137338074e+00
 1.432909362965459e+00	 7.051428868011598e-01	 1.066734001017964e+01
 1.419187632460221e+00	 7.380747962777202e-01	 1.058449664834194e+01
 1.404685288477143e+00	 7.705994932763116e-01	 1.049385198001691e+01
 1.389399496560257e+00	 8.026917606947001e-01	 1.039545004791382e+01
 1.373328676470027e+00	 8.343267350629970e-01	 1.028931030783846e+01
 1.356472528196873e+00	 8.654799813339080e-01	 1.017542612021011e+01
 1.338832053174321e+00	 8.961275673840037e-01	 1.005376357263696e+01
 1.320409570460812e+00	 9.262461377851972e-01	 9.924260670873299e+00
 1.301208727692818e+00	 9.558129864005016e-01	 9.786826929901810e+00
 1.281234506648269e+00	 9.848061273573786e-01	 9.641343390190624e+00
 1.260493223298199e+00	 1.013204363955689e+00	 9.487663076497515e+00
 1.446055456065250e+00	 7.116121543469853e-01	 1.065696654086042e+01
 1.432207836825179e+00	 7.448461945508820e-01	 1.057651876522262e+01
 1.417572442441803e+00	 7.776692863439487e-01	 1.048831973807535e+01
 1.402146412454711e+00	 8.100559812720015e-01	 1.039239319030174e+01
 1.385928152126612e+00	 8.419811877575717e-01	 1.028873891296435e+01
 1.368917358695528e+00	 8.734202465763066e-01	 1.017733144539916e+01
 1.351115042782549e+00	 9.043490060417461e-01	 1.005811909121596e+01
 1.332523544722111e+00	 9.347438964536106e-01	 9.931023296548299e+00
 1.313146545615595e+00	 9.645820033595822e-01	 9.795938419288992e+00
 1.292989072945795e+00	 9.938411391797882e-01	 9.652731911393762e+00
 1.272057500629041e+00	 1.022499912746946e+00	 9.501244928772008e+00
 1.156415051097081e+00	 9.295446851010828e-01	 9.339041388891944e+00
 1.136689647123178e+00	 9.550336534767583e-01	 9.147350716023034e+00
 1.116275734373034e+00	 9.799403718027949e-01	 8.941823076543741e+00
 1.095182710406913e+00	 1.004247933371997e+00	 8.723324785323554e+00
 1.073421145629011e+00	 1.027940381546648e+00	 8.492807376948612e+00
 1.051002757783851e+00	 1.051002757783852e+00	 8.251301476991053e+00
 1.027940381546647e+00	 1.073421145629011e+00	 7.999909754064905e+00
 1.004247933371997e+00	 1.095182710406913e+00	 7.739799048091045e+00
 9.799403718027947e-01	 1.116275734373035e+00	 7.472191786074191e+00
 9.550336534767578e-01	 1.136689647123179e+00	 7.198356810027339e+00
 9.295446851010828e-01	 1.156415051097081e+00	 6.919599752071964e+00
 1.167979328430909e+00	 9.388402338930860e-01	 9.356741702231073e+00
 1.148056668253955e+00	 9.645840947479684e-01	 9.168898836847516e+00
 1.127438614137450e+00	 9.897398829888864e-01	 8.967386177407004e+00
 1.106134657618302e+00	 1.014290522839711e+00	 8.753011584912558e+00
 1.084155474805915e+00	 1.038219898094590e+00	 8.526666442473704e+00
 1.061512900623551e+00	 1.061512900623551e+00	 8.289319985919716e+00
 1.038219898094590e+00	 1.084155474805915e+00	 8.042012733081739e+00
 1.014290522839711e+00	 1.106134657618302e+00	 7.785849100335021e+00
 9.897398829888857e-01	 1.127438614137450e+00	 7.521989310626017e+00
 9.645840947479679e-01	 1.148056668253955e+00	 7.251640710458812e+00
 9.388402338930860e-01	 1.167979328430909e+00	 6.976048623795416e+00
 1.179543584178313e+00	 9.481357653336441e-01	 9.374388271158695e+00
 1.159423668166479e+00	 9.741345181918949e-01	 9.190169374541895e+00
 1.138601473064650e+00	 9.995393758827325e-01	 8.992447027279379e+00
 1.117086584386196e+00	 1.024333093561410e+00	 8.781973224486364e+00
 1.094889783945534e+00	 1.048499395454237e+00	 8.559581824474931e+00
 1.072023023844444e+00	 1.072023023844445e+00	 8.326183318081940e+00
 1.048499395454236e+00	 1.094889783945534e+00	 8.082758714158881e+00
 1.024333093561409e+00	 1.117086584386196e+00	 7.830352623285880e+00
 9.995393758827319e-01	 1.138601473064650e+00	 7.570065637163405e+00
 9.741345181918943e-01	 1.159423668166480e+00	 7.303046114298084e+00
 9.481357653336442e-01	 1.179543584178313e+00	 7.030481493154872e+00
 1.191107823735815e+00	 9.574312837605971e-01	 9.391870903579683e+00
 1.170790652165233e+00	 9.836849282653308e-01	 9.211064549124973e+00
 1.149764316363858e+00	 1.009338855057359e+00	 9.016920436306620e+00
 1.128038495821394e+00	 1.034375650223553e+00	 8.810137226804201e+00
 1.105624078057122e+00	 1.058778878422611e+00	 8.591493823909522e+00
 1.082533132351175e+00	 1.082533132351175e+00	 8.361844560348771e+00
 1.058778878422611e+00	 1.105624078057122e+00	 8.122113519383063e+00
 1.034375650223553e+00	 1.128038495821395e+00	 7.873288065018633e+00
 1.009338855057359e+00	 1.149764316363859e+00	 7.616411672308637e+00
 9.836849282653305e-01	 1.170790652165234e+00	 7.352576161802446e+00
 9.574312837605973e-01	 1.191107823735815e+00	 7.082913452817831e+00
 1.202672052499939e+00	 9.667267935117863e-01	 9.409083647725838e+00
 1.182157625554698e+00	 9.932353294250700e-01	 9.231490343495029e+00
 1.160927149244302e+00	 1.019138325085792e+00	 9.040724493208963e+00
 1.138990397034699e+00	 1.044418197512602e+00	 8.837433904170926e+00
 1.116358362149933e+00	 1.069058351796734e+00	 8.622345039714595e+00
 1.093043231048384e+00	 1.093043231048384e+00	 8.396258605692392e+00
 1.069058351796734e+00	 1.116358362149933e+00	 8.160044286995525e+00
 1.044418197512602e+00	 1.138990397034699e+00	 7.914634703997720e+00
 1.019138325085792e+00	 1.160927149244302e+00	 7.661018673727518e+00
 9.932353294250695e-01	 1.182157625554698e+00	 7.400233873555056e+00
 9.667267935117863e-01	 1.202672052499939e+00	 7.133359015852661e+00
 1.214236275867208e+00	 9.760222989250513e-01	 9.425924590471993e+00
 1.193524593639354e+00	 1.002785726127905e+00	 9.251356324497612e+00
 1.172089976915204e+00	 1.028937790541059e+00	 9.063780409426579e+00
 1.149942293136908e+00	 1.054460740115017e+00	 8.863796225884583e+00
 1.127092641233221e+00	 1.079337820373628e+00	 8.652080259676520e+00
 1.103553324840712e+00	 1.103553324840712e+00	 8.429382067490968e+00
 1.079337820373628e+00	 1.127092641233221e+00	 8.196519409038853e+00
 1.054460740115017e+00	 1.149942293136908e+00	 7.954372609865128e+00
 1.028937790541058e+00	 1.172089976915205e+00	 7.703878233750970e+00
 1.002785726127905e+00	 1.193524593639354e+00	 7.446022156506752e+00
 9.760222989250517e-01	 1.214236275867209e+00	 7.181832143674436e+00
 1.225800499234146e+00	 9.853178043382338e-01	 9.442295667078087e+00
 1.204891561723683e+00	 1.012336122830632e+00	 9.270575474130238e+00
 1.183252804585793e+00	 1.038737255996183e+00	 9.086012372094686e+00
 1.160894189238823e+00	 1.064503282717258e+00	 8.889159693193255e+00
 1.137826920316240e+00	 1.089617288950315e+00	 8.680646357482699e+00
 1.114063418632800e+00	 1.114063418632800e+00	 8.461173198688384e+00
 1.089617288950315e+00	 1.137826920316241e+00	 8.231508472536291e+00
 1.064503282717258e+00	 1.160894189238823e+00	 7.992482606449776e+00
 1.038737255996183e+00	 1.183252804585794e+00	 7.744982263924291e+00
 1.012336122830631e+00	 1.204891561723683e+00	 7.489943809675674e+00
 9.853178043382338e-01	 1.225800499234146e+00	 7.228346272407646e+00
 1.237364727997274e+00	 9.946133140891735e-01	 9.458102481608748e+00
 1.216258535112166e+00	 1.021886523990040e+00	 9.289064030220237e+00
 1.194415637465293e+00	 1.048536726024194e+00	 9.107347405269842e+00
 1.171846090451243e+00	 1.074545830005786e+00	 8.913462221269645e+00
 1.148561204408244e+00	 1.099896762323818e+00	 8.707992195551045e+00
 1.124573517329290e+00	 1.124573517329291e+00	 8.491591815490670e+00
 1.099896762323817e+00	 1.148561204408244e+00	 8.264982203972160e+00
 1.074545830005786e+00	 1.171846090451244e+00	 8.028946236852875e+00
 1.048536726024194e+00	 1.194415637465293e+00	 7.784322980423754e+00
 1.021886523990040e+00	 1.216258535112166e+00	 7.532001529527011e+00
 9.946133140891735e-01	 1.237364727997274e+00	 7.272914337769285e+00
 1.248928967553118e+00	 1.003908832515712e+00	 9.473254137338074e+00
 1.227625519109282e+00	 1.031436934062925e+00	 9.306741335961116e+00
 1.205578480762928e+00	 1.058336205198116e+00	 9.127715238872380e+00
 1.182798001884969e+00	 1.084588386667060e+00	 8.936644027748102e+00
 1.159295498518487e+00	 1.110176245291156e+00	 8.734068533262295e+00
 1.135083625834824e+00	 1.135083625834825e+00	 8.520599225305299e+00
 1.110176245291155e+00	 1.159295498518488e+00	 8.296912416859250e+00
 1.084588386667060e+00	 1.182798001884970e+00	 8.063745730474746e+00
 1.058336205198115e+00	 1.205578480762929e+00	 7.821892890283848e+00
 1.031436934062925e+00	 1.227625519109283e+00	 7.572197915053506e+00
 1.003908832515712e+00	 1.248928967553118e+00	 7.315548798568406e+00
 1.260493223298199e+00	 1.013204363955689e+00	 9.487663076497515e+00
 1.238992519019514e+00	 1.040987357506080e+00	 9.323529697738365e+00
 1.216741339687926e+00	 1.068135698090975e+00	 9.147048184849014e+00
 1.193749928650801e+00	 1.094630957387542e+00	 8.958647527402160e+00
 1.170029807656223e+00	 1.120455742649354e+00	 8.758827940248040e+00
 1.145593749054043e+00	 1.145593749054043e+00	 8.548158158650200e+00
 1.120455742649353e+00	 1.170029807656223e+00	 8.327271962194807e+00
 1.094630957387542e+00	 1.193749928650801e+00	 8.096863971858028e+00
 1.068135698090974e+00	 1.216741339687926e+00	 7.857684778383314e+00
 1.040987357506080e+00	 1.238992519019515e+00	 7.610535472576092e+00
 1.013204363955689e+00	 1.260493223298199e+00	 7.356261658910974e+00
 1.272057500629041e+00	 1.022499912746946e+00	 9.501244928772008e+00
 1.250359540147344e+00	 1.050537798776298e+00	 9.339354250716369e+00
 1.227904219449511e+00	 1.077935209275797e+00	 9.165281020095691e+00
 1.204701875859538e+00	 1.104673546853691e+00	 8.979417232571844e+00
 1.180764136830705e+00	 1.130735259195432e+00	 8.782224714412116e+00
 1.156103891891588e+00	 1.156103891891588e+00	 8.574232704779970e+00
 1.130735259195432e+00	 1.180764136830706e+00	 8.356034681621079e+00
 1.104673546853691e+00	 1.204701875859538e+00	 8.128284471231726e+00
 1.077935209275797e+00	 1.227904219449511e+00	 7.891691695141627e+00
 1.050537798776297e+00	 1.250359540147344e+00	 7.647016620282397e+00
 1.022499912746946e+00	 1.272057500629041e+00	 7.395064489192569e+00
 9.295446851010828e-01	 1.156415051097081e+00	 6.919599752071964e+00
 9.034912739280351e-01	 1.175443739074679e+00	 6.633541682677965e+00
 8.768920792936006e-01	 1.193768700623031e+00	 6.338166870777098e+00
 8.497665476991274e-01	 1.211384141277095e+00	 6.035425765192604e+00
 8.221348496568712e-01	 1.228285490601410e+00	 5.727359738921864e+00
 7.940178164717289e-01	 1.244469402142706e+00	 5.416083606833130e+00
 7.654368751281195e-01	 1.259933748325849e+00	 5.103767743426144e+00
 7.364139816884138e-01	 1.274677610405123e+00	 4.792620067642416e+00
 7.069715536127235e-01	 1.288701263618529e+00	 4.484868153694380e+00
 6.771324014091542e-01	 1.302006157726207e+00	 4.182741713463164e+00
 6.469196600189466e-01	 1.314594893144823e+00	 3.888455677858885e+00
 9.388402338930860e-01	 1.167979328430909e+00	 6.976048623795416e+00
 9.125262857509882e-01	 1.187198305375145e+00	 6.692941258739447e+00
 8.856610962530621e-01	 1.205706518548624e+00	 6.400422590070888e+00
 8.582643063677960e-01	 1.223498115541023e+00	 6.100403374901570e+00
 8.303562883147731e-01	 1.240568480212031e+00	 5.794886296473314e+00
 8.019580817142199e-01	 1.256914232643485e+00	 5.485948728859320e+00
 7.730913278227416e-01	 1.272533223984267e+00	 5.175725081692628e+00
 7.437782022657355e-01	 1.287424526301110e+00	 4.866388989595347e+00
 7.140413466803662e-01	 1.301588417584430e+00	 4.560135603451907e+00
 6.839037996823167e-01	 1.315026362092133e+00	 4.259164227751482e+00
 6.533889275647721e-01	 1.327740986245340e+00	 3.965661530572871e+00
 9.481357653336442e-01	 1.179543584178313e+00	 7.030481493154872e+00
 9.215612807088770e-01	 1.198952849734028e+00	 6.750206930793567e+00
 8.944300968440325e-01	 1.217644314190618e+00	 6.460444412205701e+00
 8.667620491743738e-01	 1.235612067192585e+00	 6.163064937128739e+00
 8.385777116264349e-01	 1.252851446894847e+00	 5.860032234348402e+00
 8.098983321353757e-01	 1.269359039914404e+00	 5.553385781446664e+00
 7.807457662295895e-01	 1.285132676124198e+00	 5.245223386483749e+00
 7.511424090970859e-01	 1.300171418403419e+00	 4.937683593752467e+00
 7.211111265516633e-01	 1.314475547494891e+00	 4.632928168677640e+00
 6.906751853161528e-01	 1.328046542154255e+00	 4.333124904503057e+00
 6.598581830352498e-01	 1.340887054807035e+00	 4.040430976248125e+00
 9.574312837605973e-01	 1.191107823735815e+00	 7.082913452817831e+00
 9.305962630179522e-01	 1.210707377636642e+00	 6.805365222509817e+00
 9.031990851586242e-01	 1.229582093119834e+00	 6.518269574373885e+00
 8.752597800843774e-01	 1.247726001884798e+00	 6.223457698981059e+00
 8.467991234284110e-01	 1.265134396381741e+00	 5.922854123578882e+00
 8.178385714405275e-01	 1.281803829762870e+00	 5.618459994745228e+00
 7.884001939206055e-01	 1.297732110625213e+00	 5.312335906794966e+00
 7.585066056189579e-01	 1.312918292660427e+00	 5.006584535324539e+00
 7.281808965257009e-01	 1.327362659363738e+00	 4.703333328657113e+00
 6.974465614704943e-01	 1.341066703988496e+00	 4.404717497990771e+00
 6.663274294492167e-01	 1.354033104964595e+00	 4.112863530380553e+00
 9.667267935117863e-01	 1.202672052499939e+00	 7.133359015852661e+00
 9.396312368944647e-01	 1.222461894568301e+00	 6.858441638060482e+00
 9.119680652889495e-01	 1.241519860907096e+00	 6.573933881938915e+00
 8.837575030633220e-01	 1.259839925270682e+00	 6.281627090440074e+00
 8.550205275572574e-01	 1.277417334404598e+00	 5.983406359134887e+00
 8.257788033350074e-01	 1.294248607996289e+00	 5.681234089455653e+00
 7.960546144677318e-01	 1.310331533366881e+00	 5.377133073392672e+00
 7.658707952678434e-01	 1.325665155020511e+00	 5.073169366062801e+00
 7.352506599015661e-01	 1.340249759204795e+00	 4.771435196365429e+00
 7.042179313051726e-01	 1.354086853670782e+00	 4.474032154439390e+00
 6.727966698255098e-01	 1.367179142852703e+00	 4.183054878438915e+00
 9.760222989250517e-01	 1.214236275867209e+00	 7.181832143674436e+00
 9.486662065546658e-01	 1.234216406014319e+00	 6.909460711014219e+00
 9.207370413271203e-01	 1.253457623123224e+00	 6.627471776961628e+00
 8.922552220767228e-01	 1.271953843003255e+00	 6.337616811230985e+00
 8.632419278495306e-01	 1.289700266695305e+00	 6.041741263879091e+00
 8.337190315241457e-01	 1.306693380422067e+00	 5.741768396649649e+00
 8.037090314429112e-01	 1.322930950228776e+00	 5.439682633327360e+00
 7.732349814802350e-01	 1.338412011432048e+00	 5.137512682340763e+00
 7.423204199783441e-01	 1.353136853031890e+00	 4.837314679051008e+00
 7.109892979800190e-01	 1.367106997277037e+00	 4.541155584103850e+00
 6.792659071829658e-01	 1.380325174606045e+00	 4.251097058495343e+00
 9.853178043382338e-01	 1.225800499234146e+00	 7.228346272407646e+00
 9.577011762148071e-01	 1.245970917460012e+00	 6.958446050459772e+00
 9.295060173652488e-01	 1.265395385339038e+00	 6.678916402844172e+00
 9.007529410900951e-01	 1.284067760735536e+00	 6.391468912770245e+00
 8.714633281417857e-01	 1.301983198985745e+00	 6.097909186631634e+00
 8.416592597132739e-01	 1.319138152847608e+00	 5.800120970802475e+00
 8.113634484180847e-01	 1.335530367090467e+00	 5.500049776825972e+00
 7.805991676926241e-01	 1.351158867843414e+00	 5.199686264847094e+00
 7.493901800551211e-01	 1.366023946858846e+00	 4.901049629721694e+00
 7.177606646548652e-01	 1.380127140883184e+00	 4.606171223598707e+00
 6.857351445404221e-01	 1.393471206359307e+00	 4.317078633509364e+00
 9.946133140891735e-01	 1.237364727997274e+00	 7.272914337769285e+00
 9.667361500911388e-01	 1.257725434390691e+00	 7.005420384541061e+00
 9.382749974954470e-01	 1.277333153125361e+00	 6.728299665346184e+00
 9.092506640689543e-01	 1.296181684120542e+00	 6.443223875514205e+00
 8.796847322705793e-01	 1.314266137007804e+00	 6.151958594731322e+00
 8.495994916077225e-01	 1.331582931080320e+00	 5.856347696481626e+00
 8.190178689651954e-01	 1.348129789831525e+00	 5.558297257062815e+00
 7.879633573415030e-01	 1.363905730202985e+00	 5.259759210438670e+00
 7.564599434309841e-01	 1.378911046699490e+00	 4.962714990129121e+00
 7.245320344895431e-01	 1.393147290565148e+00	 4.669159389117547e+00
 6.922043849167152e-01	 1.406617244247173e+00	 4.381084853943271e+00
 1.003908832515712e+00	 1.248928967553118e+00	 7.315548798568406e+00
 9.757711323999120e-01	 1.269479962291672e+00	 7.050405601571693e+00
 9.470439858098268e-01	 1.289270932053014e+00	 6.775652290208203e+00
 9.177483949788166e-01	 1.308295618811296e+00	 6.492920682006872e+00
 8.879061440724666e-01	 1.326549086493368e+00	 6.203936161450530e+00
 8.575397309128235e-01	 1.344027720927606e+00	 5.910502389103539e+00
 8.266722966561850e-01	 1.360729224331522e+00	 5.614485503271169e+00
 7.953275538633642e-01	 1.376652604459141e+00	 5.317798056662069e+00
 7.635297134050186e-01	 1.391798158567647e+00	 5.022382925803067e+00
 7.313034106438838e-01	 1.406167452398852e+00	 4.730197421132941e+00
 6.986736313306823e-01	 1.419763294404329e+00	 4.443197811335294e+00
 1.013204363955689e+00	 1.260493223298199e+00	 7.356261658910974e+00
 9.848061273573779e-01	 1.281234506648269e+00	 7.093422788884276e+00
 9.558129864005016e-01	 1.301208727692819e+00	 6.821003877600440e+00
 9.262461377851967e-01	 1.320409570460812e+00	 6.540596885903360e+00
 8.961275673840033e-01	 1.338832053174322e+00	 6.253886848593826e+00
 8.654799813339078e-01	 1.356472528196874e+00	 5.962636890139349e+00
 8.343267350629964e-01	 1.373328676470027e+00	 5.668672727623139e+00
 8.026917606946993e-01	 1.389399496560258e+00	 5.373866899415323e+00
 7.705994932763115e-01	 1.404685288477143e+00	 5.080122953646226e+00
 7.380747962777198e-01	 1.419187632460222e+00	 4.789359821124600e+00
 7.051428868011599e-01	 1.432909362965459e+00	 4.503496583412516e+00
 1.022499912746946e+00	 1.272057500629041e+00	 7.395064489192569e+00
 9.938411391797880e-01	 1.292989072945795e+00	 7.134492269558930e+00
 9.645820033595817e-01	 1.313146545615596e+00	 6.864382953599291e+00
 9.347438964536103e-01	 1.332523544722111e+00	 6.586288677225427e+00
 9.043490060417456e-01	 1.351115042782550e+00	 6.301853984587872e+00
 8.734202465763062e-01	 1.368917358695529e+00	 6.012801157123347e+00
 8.419811877575710e-01	 1.385928152126612e+00	 5.720915026274991e+00
 8.100559812720007e-01	 1.402146412454711e+00	 5.428027504186081e+00
 7.776692863439484e-01	 1.417572442441804e+00	 5.136002062563832e+00
 7.448461945508813e-01	 1.432207836825180e+00	 4.846718380843734e+00
 7.116121543469851e-01	 1.446055456065250e+00	 4.562057371281981e+00
 6.469196600189466e-01	 1.314594893144823e+00	 3.888455677858886e+00
 6.163588700289421e-01	 1.326470387793212e+00	 3.601700960638134e+00
 5.854714964905722e-01	 1.337638367399996e+00	 3.321700397524873e+00
 5.542812261358540e-01	 1.348104707563986e+00	 3.049970563586864e+00
 5.228118009030747e-01	 1.357876299731294e+00	 2.787973423439676e+00
 4.910869536853514e-01	 1.366961009346076e+00	 2.537109199299469e+00
 4.591303459451811e-01	 1.375367631339310e+00	 2.298710195860568e+00
 4.269655074752550e-01	 1.383105843291213e+00	 2.074035595767060e+00
 3.946157785590299e-01	 1.390186156606576e+00	 1.864267223168511e+00
 3.621042547566256e-01	 1.396619866042657e+00	 1.670506258075702e+00
 3.294537345129284e-01	 1.402418997926461e+00	 1.493770871162261e+00
 6.533889275647721e-01	 1.327740986245340e+00	 3.965661530572870e+00
 6.225225263232393e-01	 1.339735237142397e+00	 3.679268607149590e+00
 5.913262756620284e-01	 1.351014897769846e+00	 3.399208300186578e+00
 5.598240991830853e-01	 1.361585902483125e+00	 3.127048215902386e+00
 5.280399762466951e-01	 1.371455211643566e+00	 2.864304827826568e+00
 4.959978770775202e-01	 1.380630769350628e+00	 2.612435682975229e+00
 4.637216997552890e-01	 1.389121458485566e+00	 2.372832575755369e+00
 4.312352093732100e-01	 1.396937053405456e+00	 2.146815711528819e+00
 3.985619796201450e-01	 1.404088170630291e+00	 1.935628864509037e+00
 3.657253370143581e-01	 1.410586217866145e+00	 1.740435518851436e+00
 3.327483079876942e-01	 1.416443341704605e+00	 1.562315967667484e+00
 6.598581830352498e-01	 1.340887054807035e+00	 4.040430976248125e+00
 6.286861711126497e-01	 1.353000061731036e+00	 3.754444171440555e+00
 5.971810439051409e-01	 1.364391403170606e+00	 3.474392463134408e+00
 5.653669618841588e-01	 1.375067072237715e+00	 3.201890985445235e+00
 5.332681418315468e-01	 1.385034098208786e+00	 2.938507110010455e+00
 5.009087913030716e-01	 1.394300503838440e+00	 2.685752022025613e+00
 4.683130449952527e-01	 1.402875259958044e+00	 2.445073273828353e+00
 4.355049033013806e-01	 1.410768237701365e+00	 2.217848345796107e+00
 4.025081733152879e-01	 1.417990158703402e+00	 2.005379226132753e+00
 3.693464125129542e-01	 1.424552543618833e+00	 1.808888004323460e+00
 3.360428753127599e-01	 1.430467659303615e+00	 1.629513457888812e+00
 6.663274294492167e-01	 1.354033104964595e+00	 4.112863530380553e+00
 6.348498072733945e-01	 1.366264867749247e+00	 3.827332163362690e+00
 6.030358039519952e-01	 1.377767889844539e+00	 3.547361412079842e+00
 5.709098168256141e-01	 1.388548223118886e+00	 3.274610535358585e+00
 5.384963000973219e-01	 1.398612965763712e+00	 3.010694294485653e+00
 5.058196986536593e-01	 1.407970219188693e+00	 2.757173930090431e+00
 4.729043838076082e-01	 1.416629042175190e+00	 2.515549125340802e+00
 4.397745912522127e-01	 1.424599402633524e+00	 2.287250992730839e+00
 4.064543614859514e-01	 1.431892127313559e+00	 2.073636102665844e+00
 3.729674829421980e-01	 1.438518849818423e+00	 1.875981554315026e+00
 3.393374380255505e-01	 1.444491957268275e+00	 1.695481073092375e+00
 6.727966698255098e-01	 1.367179142852703e+00	 4.183054878438914e+00
 6.410134376816959e-01	 1.379529661387156e+00	 3.898033070259839e+00
 6.088905585346771e-01	 1.391144364033907e+00	 3.618219495386695e+00
 5.764526665939905e-01	 1.402029361417770e+00	 3.345314230391202e+00
 5.437244534837128e-01	 1.412191820645104e+00	 3.080976016162590e+00
 5.107306014209383e-01	 1.421639921780570e+00	 2.826812665899392e+00
 4.774957183348917e-01	 1.430382811555445e+00	 2.584372467155641e+00
 4.440442752181524e-01	 1.438430554656515e+00	 2.355136622417004e+00
 4.104005459736288e-01	 1.445794082948413e+00	 2.140512752774403e+00
 3.765885499918736e-01	 1.452485142982614e+00	 1.941829470638647e+00
 3.426319976634912e-01	 1.458516242143368e+00	 1.760332010410288e+00
 6.792659071829658e-01	 1.380325174606045e+00	 4.251097058495343e+00
 6.471770652137750e-01	 1.392794448834883e+00	 3.966643548744800e+00
 6.147453103852734e-01	 1.404520831980973e+00	 3.687067083199911e+00
 5.819955137758277e-01	 1.415510493425495e+00	 3.414105341767588e+00
 5.489526044304115e-01	 1.425770669189720e+00	 3.149457729556777e+00
 5.156415018965628e-01	 1.435309617993255e+00	 2.894775245547805e+00
 4.820870507196393e-01	 1.444136574517252e+00	 2.651651352059840e+00
 4.483139571916460e-01	 1.452261700224921e+00	 2.421613896380629e+00
 4.143467286198130e-01	 1.459696032095616e+00	 2.206118115226784e+00
 3.802096153517648e-01	 1.466451429629105e+00	 2.006540733232497e+00
 3.459265557640069e-01	 1.472540520473678e+00	 1.824175148770049e+00
 6.857351445404221e-01	 1.393471206359307e+00	 4.317078633509364e+00
 6.533406927458544e-01	 1.406059236282552e+00	 4.033256605611369e+00
 6.206000622358696e-01	 1.417897299927996e+00	 3.754000755293100e+00
 5.875383609576650e-01	 1.428991625433194e+00	 3.481083240451882e+00
 5.541807553771099e-01	 1.439349517734319e+00	 3.216240906126880e+00
 5.205524023721871e-01	 1.448979314205930e+00	 2.961164642746246e+00
 4.866783831043868e-01	 1.457890337479054e+00	 2.717489750944132e+00
 4.525836391651395e-01	 1.466092845793325e+00	 2.486787370900815e+00
 4.182929112659973e-01	 1.473597981242819e+00	 2.270557012715016e+00
 3.838306807116564e-01	 1.480417716275596e+00	 2.070220204052013e+00
 3.492211138645225e-01	 1.486564798803988e+00	 1.887115252591165e+00
 6.922043849167152e-01	 1.406617244247173e+00	 4.381084853943271e+00
 6.595043231541556e-01	 1.419324029920284e+00	 4.097961768593030e+00
 6.264548168185518e-01	 1.431273774117241e+00	 3.819113478373799e+00
 5.930812107260417e-01	 1.442472763731995e+00	 3.546343579565300e+00
 5.594089087635007e-01	 1.452928372615660e+00	 3.281423220537819e+00
 5.254633051394662e-01	 1.462649016797779e+00	 3.026079977831865e+00
 4.912697176316702e-01	 1.471644106859294e+00	 2.781987743636814e+00
 4.568533231310793e-01	 1.479923997816310e+00	 2.550757688909969e+00
 4.222390957536747e-01	 1.487499936877671e+00	 2.333930344237915e+00
 3.874517477613319e-01	 1.494384009439787e+00	 2.132968819519109e+00
 3.525156735024633e-01	 1.500589083679082e+00	 1.949253164049879e+00
 6.986736313306823e-01	 1.419763294404329e+00	 4.443197811335294e+00
 6.656679593149004e-01	 1.432588835938203e+00	 4.160845247627602e+00
 6.323095768654061e-01	 1.444650260790970e+00	 3.882494773530204e+00
 5.986240656674968e-01	 1.455953914613030e+00	 3.609978466661208e+00
 5.646370670292757e-01	 1.466507240170500e+00	 3.345098726566882e+00
 5.303742124900538e-01	 1.476318732147982e+00	 3.089616696270412e+00
 4.958610564440256e-01	 1.485397889076415e+00	 2.845241699126219e+00
 4.611230110819116e-01	 1.493755162748458e+00	 2.613621761224389e+00
 4.261852839243382e-01	 1.501401905487825e+00	 2.396335266786974e+00
 3.910728181905756e-01	 1.508350315639376e+00	 2.194883772270486e+00
 3.558102362152539e-01	 1.514613381643741e+00	 2.010685984653601e+00
 7.051428868011599e-01	 1.432909362965459e+00	 4.503496583412515e+00
 6.718316041043106e-01	 1.445853660526430e+00	 4.221990087237073e+00
 6.381643451085180e-01	 1.458026766191443e+00	 3.944230874452829e+00
 6.041669283685706e-01	 1.469435084367429e+00	 3.672076626508564e+00
 5.698652326141274e-01	 1.480086126735601e+00	 3.407358023319656e+00
 5.352851267156051e-01	 1.489988466635725e+00	 3.151866737324061e+00
 5.004524016839894e-01	 1.499151690548859e+00	 2.907344445854806e+00
 4.653927050100819e-01	 1.507586347044352e+00	 2.675472937790261e+00
 4.301314776194810e-01	 1.515303893560932e+00	 2.457865367022787e+00
 3.946938936891718e-01	 1.522316641392064e+00	 2.256058682893278e+00
 3.591048035403197e-01	 1.528637699242752e+00	 2.071507246812105e+00
 7.116121543469851e-01	 1.446055456065250e+00	 4.562057371281981e+00
 6.779952603986081e-01	 1.459118509875090e+00	 4.281476310589245e+00
 6.440191242799743e-01	 1.471403296560924e+00	 4.004404877018962e+00
 6.097098014158014e-01	 1.482916279286323e+00	 3.732723554989663e+00
 5.750934079577478e-01	 1.493665038647719e+00	 3.468288412371471e+00
 5.401960501077742e-01	 1.503658226640188e+00	 3.212918693511926e+00
 5.050437554940973e-01	 1.512905517695068e+00	 2.968385432716637e+00
 4.696624069080371e-01	 1.521417557158576e+00	 2.736401169581763e+00
 4.340776786805963e-01	 1.529205907584642e+00	 2.518610823580193e+00
 3.983149759469042e-01	 1.536282993215550e+00	 2.316583762285688e+00
 3.623993770150853e-01	 1.542662043020896e+00	 2.131807076042852e+00
 3.294537345129284e-01	 1.402418997926461e+00	 1.493770871162263e+00
 2.966843784393872e-01	 1.407596598364675e+00	 1.334533640384040e+00
 2.638205609134598e-01	 1.412165572756028e+00	 1.192661034753608e+00
 2.308839434239252e-01	 1.416139826431092e+00	 1.068094574265793e+00
 1.978957096443058e-01	 1.419533782748832e+00	 9.606904231038498e-01
 1.648765290743220e-01	 1.422362329452364e+00	 8.702277111759527e-01
 1.318465240967305e-01	 1.424640765532204e+00	 7.964168043048021e-01
 9.882524045195897e-02	 1.426384748845694e+00	 7.389074330011347e-01
 6.583162110954265e-02	 1.427610244722075e+00	 6.972966017561519e-01
 3.288398349364309e-02	 1.428333475762771e+00	 6.711362126961344e-01
 0.000000000000000e+00	 1.428570873025926e+00	 6.599403490133660e-01
 3.327483079876942e-01	 1.416443341704605e+00	 1.562315967667486e+00
 2.996512547599297e-01	 1.421672718714860e+00	 1.401692009999833e+00
 2.664587954549430e-01	 1.426287383351045e+00	 1.258374908192314e+00
 2.331928081787427e-01	 1.430301379998563e+00	 1.132360978670191e+00
 1.998746884438768e-01	 1.433729276251555e+00	 1.023560903459457e+00
 1.665253124472977e-01	 1.436586108732203e+00	 9.318076764959251e-01
 1.331650037977657e-01	 1.438887329422610e+00	 8.568645355575912e-01
 9.981350369522612e-02	 1.440648752760408e+00	 7.984327903548285e-01
 6.648994454095852e-02	 1.441886503729888e+00	 7.561594687142881e-01
 3.321282693534693e-02	 1.442616967160266e+00	 7.296447141634153e-01
 0.000000000000000e+00	 1.442856738422074e+00	 7.184488793350257e-01
 3.360428753127599e-01	 1.430467659303615e+00	 1.629513457888812e+00
 3.026181255424344e-01	 1.435748812789194e+00	 1.467627541890807e+00
 2.690970250718209e-01	 1.440409167584866e+00	 1.322988462117942e+00
 2.355016686237529e-01	 1.444462907130611e+00	 1.195645606777476e+00
 2.018536635494072e-01	 1.447924743255469e+00	 1.085562467574336e+00
 1.681740927425821e-01	 1.450809861460411e+00	 9.926242210827294e-01
 1.344834810376643e-01	 1.453133866718838e+00	 9.166453316865415e-01
 1.008017650937519e-01	 1.454912730048382e+00	 8.573770872156661e-01
 6.714826674351385e-02	 1.456162736088079e+00	 8.145149892127599e-01
 3.354166976321423e-02	 1.456900431894637e+00	 7.877059306179939e-01
 0.000000000000000e+00	 1.457142577150667e+00	 7.765551043225671e-01
 3.393374380255505e-01	 1.444491957268275e+00	 1.695481073092374e+00
 3.055849921714104e-01	 1.449824887156639e+00	 1.532457611543806e+00
 2.717352509952450e-01	 1.454530932047792e+00	 1.386618342019929e+00
 2.378105258364076e-01	 1.458624414436090e+00	 1.258064049690468e+00
 2.038326358844074e-01	 1.462120190385275e+00	 1.146809377598158e+00
 1.698228707295977e-01	 1.465033594274894e+00	 1.052790053086214e+00
 1.358019564317105e-01	 1.467380384069432e+00	 9.758701707464517e-01
 1.017900251087216e-01	 1.469176687366300e+00	 9.158494435893090e-01
 6.780658802442376e-02	 1.470438948459054e+00	 8.724703443718842e-01
 3.387051213070415e-02	 1.471183876631666e+00	 8.454250693658889e-01
 0.000000000000000e+00	 1.471428395878593e+00	 8.343622670747115e-01
 3.426319976634912e-01	 1.458516242143368e+00	 1.760332010410288e+00
 3.085518560313680e-01	 1.463900948386158e+00	 1.596295073713586e+00
 2.743734744563665e-01	 1.468652683330121e+00	 1.449376700467998e+00
 2.401193808941584e-01	 1.472785908523857e+00	 1.319727445897742e+00
 2.058116063723871e-01	 1.476315624265677e+00	 1.207411493946007e+00
 1.714716471777676e-01	 1.479257313813562e+00	 1.112413538470365e+00
 1.371204305951884e-01	 1.481626888122938e+00	 1.034645754939308e+00
 1.027782842013206e-01	 1.483440631370847e+00	 9.739547748933046e-01
 6.846490869090337e-02	 1.484715147505218e+00	 9.301285851063792e-01
 3.419935419127582e-02	 1.485467308037133e+00	 9.029032832409478e-01
 0.000000000000000e+00	 1.485714201272741e+00	 8.919696315883336e-01
 3.459265557640069e-01	 1.472540520473678e+00	 1.824175148770047e+00
 3.115187185068158e-01	 1.477977003046713e+00	 1.659248477692778e+00
 2.770116966863367e-01	 1.482774428022150e+00	 1.511371411037840e+00
 2.424282348744576e-01	 1.486947396002769e+00	 1.380742693260753e+00
 2.077905759368567e-01	 1.490511051521376e+00	 1.267474484845617e+00
 1.731204228565147e-01	 1.493481026714322e+00	 1.171598907708389e+00
 1.384389041433821e-01	 1.495873385527899e+00	 1.093074714136052e+00
 1.037665428327341e-01	 1.497704568718708e+00	 1.031793992072018e+00
 6.912322905016788e-02	 1.498991339888976e+00	 9.875888286869308e-01
 3.452819609838832e-02	 1.499750732776819e+00	 9.602378635505679e-01
 0.000000000000000e+00	 1.500000000000000e+00	 9.494726721075044e-01
 3.492211138645225e-01	 1.486564798803988e+00	 1.887115252591166e+00
 3.144855809822637e-01	 1.492053057707269e+00	 1.721422270386528e+00
 2.796499189163069e-01	 1.496896172714180e+00	 1.572706270117495e+00
 2.447370888547568e-01	 1.501108883481681e+00	 1.441212648991743e+00
 2.097695455013264e-01	 1.504706478777075e+00	 1.327100024012644e+00
 1.747691985352618e-01	 1.507704739615082e+00	 1.230446450768130e+00
 1.397573776915759e-01	 1.510119882932860e+00	 1.151255797868309e+00
 1.047548014641477e-01	 1.511968506066570e+00	 1.089464190374858e+00
 6.978154940943238e-02	 1.513267532272735e+00	 1.044946444166234e+00
 3.485703800550086e-02	 1.514034157516504e+00	 1.017522422090728e+00
 0.000000000000000e+00	 1.514285798727260e+00	 1.006963251745440e+00
 3.525156735024633e-01	 1.500589083679082e+00	 1.949253164049878e+00
 3.174524448422210e-01	 1.506129118936787e+00	 1.782916987990054e+00
 2.822881423774284e-01	 1.511017923996508e+00	 1.633481187387638e+00
 2.470459439125078e-01	 1.515270377569448e+00	 1.501236318408478e+00
 2.117485159893061e-01	 1.518901912657477e+00	 1.386385977232630e+00
 1.764179749834317e-01	 1.521928459153749e+00	 1.289052701154488e+00
 1.410758518550538e-01	 1.524366386986366e+00	 1.209284056545164e+00
 1.057430605567467e-01	 1.526232450071117e+00	 1.147058827539786e+00
 7.043987007591201e-02	 1.527543731318899e+00	 1.102293227398686e+00
 3.518588006607250e-02	 1.528317588921971e+00	 1.074847062945778e+00
 0.000000000000000e+00	 1.528571604121408e+00	 1.064529791081853e+00
 3.558102362152539e-01	 1.514613381643741e+00	 2.010685984653598e+00
 3.204193114711973e-01	 1.520205193304232e+00	 1.843829437008772e+00
 2.849263683008524e-01	 1.525139688459433e+00	 1.693792365711038e+00
 2.493548011251625e-01	 1.529431884874928e+00	 1.560909033193885e+00
 2.137274883243062e-01	 1.533097359787283e+00	 1.445426578568386e+00
 1.780667529704474e-01	 1.536152191968234e+00	 1.347510609718671e+00
 1.423943272491001e-01	 1.538612904336961e+00	 1.267251012594117e+00
 1.067313205717163e-01	 1.540496407389035e+00	 1.204667892069498e+00
 7.109819135682192e-02	 1.541819943689873e+00	 1.159717566328370e+00
 3.551472243356241e-02	 1.542601033659000e+00	 1.132298544736181e+00
 0.000000000000000e+00	 1.542857422849333e+00	 1.122257427385907e+00
 3.591048035403197e-01	 1.528637699242752e+00	 2.071507246812104e+00
 3.233861822537019e-01	 1.534281287378566e+00	 1.904252865305559e+00
 2.875645979177304e-01	 1.539261472693255e+00	 1.753732471111703e+00
 2.516636615701727e-01	 1.543593412006975e+00	 1.620322619834863e+00
 2.157064634298367e-01	 1.547292826791197e+00	 1.504312596859849e+00
 1.797155332657316e-01	 1.550375944696441e+00	 1.405909708892181e+00
 1.437128044889987e-01	 1.552859441633188e+00	 1.325244822173216e+00
 1.077195819702421e-01	 1.554760384677008e+00	 1.262378062237059e+00
 7.175651355937723e-02	 1.556096176048064e+00	 1.217304597171403e+00
 3.584356526142972e-02	 1.556884498393372e+00	 1.189960433927341e+00
 0.000000000000000e+00	 1.557143261577926e+00	 1.180228165067594e+00
 3.623993770150853e-01	 1.542662043020896e+00	 2.131807076042852e+00
 3.263530585742443e-01	 1.548357407728751e+00	 1.964277123810510e+00
 2.902028324592135e-01	 1.553383283288272e+00	 1.813390793474608e+00
 2.539725263249901e-01	 1.557754965574446e+00	 1.679565558866445e+00
 2.176854422294076e-01	 1.561488320293919e+00	 1.563131493134823e+00
 1.813643166387074e-01	 1.564599723976281e+00	 1.464336267955205e+00
 1.450312841900338e-01	 1.567106005523594e+00	 1.383350428056065e+00
 1.087078452135093e-01	 1.569024388591723e+00	 1.320272856411469e+00
 7.241483699079308e-02	 1.570372435055877e+00	 1.275136352072144e+00
 3.617240870313355e-02	 1.571167989790866e+00	 1.247913249769853e+00
 0.000000000000000e+00	 1.571429126974074e+00	 1.238521017915718e+00
 1.571429126974074e+00	 0.000000000000000e+00	 1.150052589412273e+01
 1.571167989790867e+00	 3.617240870313405e-02	 1.149061783350414e+01
 1.570372435055877e+00	 7.241483699079355e-02	 1.147819634510735e+01
 1.569024388591724e+00	 1.087078452135097e-01	 1.146297864232183e+01
 1.567106005523594e+00	 1.450312841900342e-01	 1.144468459788039e+01
 1.564599723976281e+00	 1.813643166387076e-01	 1.142303906241276e+01
 1.561488320293920e+00	 2.176854422294079e-01	 1.139777437189139e+01
 1.557754965574446e+00	 2.539725263249902e-01	 1.136863303355923e+01
 1.553383283288272e+00	 2.902028324592137e-01	 1.133537057578566e+01
 1.548357407728751e+00	 3.263530585742443e-01	 1.129775854286358e+01
 1.542662043020896e+00	 3.623993770150854e-01	 1.125558761109907e+01
 1.585715024037928e+00	 0.000000000000000e+00	 1.145868052697227e+01
 1.585451512850806e+00	 3.650125287376479e-02	 1.144912516050997e+01
 1.584648725710099e+00	 7.307316188147503e-02	 1.143715998235386e+01
 1.583288424125677e+00	 1.096961106474002e-01	 1.142252604341072e+01
 1.581352600994570e+00	 1.463497668136621e-01	 1.140496646432818e+01
 1.578823534786167e+00	 1.830131036664365e-01	 1.138422853000820e+01
 1.575683845263964e+00	 2.196644254156486e-01	 1.136006595860272e+01
 1.571916550533969e+00	 2.562813961977032e-01	 1.133224133598108e+01
 1.567505125187193e+00	 2.928410728486677e-01	 1.130052870289540e+01
 1.562433559281498e+00	 3.293199414712119e-01	 1.126471627803319e+01
 1.556686417886749e+00	 3.656939577926278e-01	 1.122460929589281e+01
 1.600000951102682e+00	 0.000000000000000e+00	 1.142040981482148e+01
 1.599735065906658e+00	 3.683009773493779e-02	 1.141119113764956e+01
 1.598925046345046e+00	 7.373148815458680e-02	 1.139965664087007e+01
 1.597552489614615e+00	 1.106843781565817e-01	 1.138557049408558e+01
 1.595599226383898e+00	 1.476682522060276e-01	 1.136869842632862e+01
 1.593047375466544e+00	 1.846618941565351e-01	 1.134880960935727e+01
 1.589879400045076e+00	 2.216434127576645e-01	 1.132567870134177e+01
 1.586078165233253e+00	 2.585902709189449e-01	 1.129908804320328e+01
 1.581626996742376e+00	 2.954793187783158e-01	 1.126882999646251e+01
 1.576509740394501e+00	 3.322868305985031e-01	 1.123470940779785e+01
 1.570710822204060e+00	 3.689885454886305e-01	 1.119654618164802e+01
 1.614286904834791e+00	 0.000000000000000e+00	 1.138554360782844e+01
 1.614018645625435e+00	 3.715894320989962e-02	 1.137664303656106e+01
 1.613201393629416e+00	 7.438981565648350e-02	 1.136551171287732e+01
 1.611816581730097e+00	 1.116726475104183e-01	 1.135193623099559e+01
 1.609845878367207e+00	 1.489867400594473e-01	 1.133570431207820e+01
 1.607271242698359e+00	 1.863106877242590e-01	 1.131660648885069e+01
 1.604074981324810e+00	 2.236224037936801e-01	 1.129443793682845e+01
 1.600239806367783e+00	 2.608991499499849e-01	 1.126900044555656e+01
 1.595748894658584e+00	 2.981175696325953e-01	 1.124010452020716e+01
 1.590585947783202e+00	 3.352537252638942e-01	 1.120757160058038e+01
 1.584735252700366e+00	 3.722831393344285e-01	 1.117123638106254e+01
 1.628572881900711e+00	 0.000000000000000e+00	 1.135391772452595e+01
 1.628302248674145e+00	 3.748778922189691e-02	 1.134531418770024e+01
 1.627477764231905e+00	 7.504814423351969e-02	 1.133455671532577e+01
 1.626080697143679e+00	 1.126609184782742e-01	 1.132145365603044e+01
 1.624092553620127e+00	 1.503052300662380e-01	 1.130581412931011e+01
 1.621495133162564e+00	 1.879594839848635e-01	 1.128744952374198e+01
 1.618270585790724e+00	 2.256013980619200e-01	 1.126617512831839e+01
 1.614401470633040e+00	 2.632080327520929e-01	 1.124181189132646e+01
 1.609870815640586e+00	 3.007558247959439e-01	 1.121418829846186e+01
 1.604662178163042e+00	 3.382206247751619e-01	 1.118314235890834e+01
 1.598759706103210e+00	 3.755777385613570e-01	 1.114852368497757e+01
 1.642858878966899e+00	 0.000000000000000e+00	 1.132537369237141e+01
 1.642585871719799e+00	 3.781663569417622e-02	 1.131704371695933e+01
 1.641754154821212e+00	 7.570647373205003e-02	 1.130662902364810e+01
 1.640344832526921e+00	 1.136491908295135e-01	 1.129395906831293e+01
 1.638339248818290e+00	 1.516237219187165e-01	 1.127886379666515e+01
 1.635719043540108e+00	 1.896082825536043e-01	 1.126117496806884e+01
 1.632466210130369e+00	 2.275803951006085e-01	 1.124072759927664e+01
 1.628563154724508e+00	 2.655169187865385e-01	 1.121736152340724e+01
 1.623992756393148e+00	 3.033940836527993e-01	 1.119092305705565e+01
 1.618738428249461e+00	 3.411875284400820e-01	 1.116126676579601e+01
 1.612784179140129e+00	 3.788723424007510e-01	 1.112825731553759e+01
 1.657144892699808e+00	 0.000000000000000e+00	 1.129975850170910e+01
 1.656869511429405e+00	 3.814548254998415e-02	 1.129167629590130e+01
 1.656030562066033e+00	 7.636480399842913e-02	 1.128157161927709e+01
 1.654608984551380e+00	 1.146374643335004e-01	 1.126929441004659e+01
 1.652585960637322e+00	 1.529422153091996e-01	 1.125469488894974e+01
 1.649942970511941e+00	 1.912570830457367e-01	 1.123762472043296e+01
 1.646661851031305e+00	 2.295593944479705e-01	 1.121793828081916e+01
 1.642724855337668e+00	 2.678258075145912e-01	 1.119549402956953e+01
 1.638114713621036e+00	 3.060323455875986e-01	 1.117015597759326e+01
 1.632814694757902e+00	 3.441544355664312e-01	 1.114179524423725e+01
 1.626808668538664e+00	 3.821669500839458e-01	 1.111029169211092e+01
 1.671430919765895e+00	 0.000000000000000e+00	 1.127692437234280e+01
 1.671153164469973e+00	 3.847432971256731e-02	 1.126906190479565e+01
 1.670306982635067e+00	 7.702313487901155e-02	 1.125923285010373e+01
 1.668873149888615e+00	 1.156257387595990e-01	 1.124730702538927e+01
 1.666832685752855e+00	 1.542607099300041e-01	 1.123315439545013e+01
 1.664166910759013e+00	 1.929058850765161e-01	 1.121664608280963e+01
 1.660857505181086e+00	 2.315383956422302e-01	 1.119765547209888e+01
 1.656886569168004e+00	 2.701346983975205e-01	 1.117605940552766e+01
 1.652236684029017e+00	 3.086706099847796e-01	 1.115173946432847e+01
 1.646890974403806e+00	 3.471213454619858e-01	 1.112458332902518e+01
 1.640833171026356e+00	 3.854615608422766e-01	 1.109448620920761e+01
 1.685716956831615e+00	 0.000000000000000e+00	 1.125672853197100e+01
 1.685436827508512e+00	 3.880317710517230e-02	 1.124905560769656e+01
 1.684583413197011e+00	 7.768146622015194e-02	 1.123946620310880e+01
 1.683137325210183e+00	 1.166140138771735e-01	 1.122784943158080e+01
 1.681079420840518e+00	 1.555792054734467e-01	 1.121409449052923e+01
 1.678390860962274e+00	 1.945546882611981e-01	 1.119809153161448e+01
 1.675053169267265e+00	 2.335173982216121e-01	 1.117973261286885e+01
 1.671048292910997e+00	 2.724435908965961e-01	 1.115891273004789e+01
 1.666358664321857e+00	 3.113088762287799e-01	 1.113553092288479e+01
 1.660967263902613e+00	 3.500882574345220e-01	 1.110949145016799e+01
 1.654857683330742e+00	 3.887561739070783e-01	 1.108070502568337e+01
 1.700003000563425e+00	 0.000000000000000e+00	 1.123903300578752e+01
 1.699720497212033e+00	 3.913202465104567e-02	 1.123151733885550e+01
 1.698859850420562e+00	 7.833979786820486e-02	 1.122213008845212e+01
 1.697401507187642e+00	 1.176022894555880e-01	 1.121077910160424e+01
 1.695326162575941e+00	 1.568977016318442e-01	 1.119737231578348e+01
 1.692614817802672e+00	 1.962034922150380e-01	 1.118181850030681e+01
 1.689248839977401e+00	 2.354964017243409e-01	 1.116402806750655e+01
 1.685210023262131e+00	 2.747524844730876e-01	 1.114391395138944e+01
 1.680480651204323e+00	 3.139471437040368e-01	 1.112139255012706e+01
 1.675043559969767e+00	 3.530551707918165e-01	 1.109638472721890e+01
 1.668882202179363e+00	 3.920507885096862e-01	 1.106881686456638e+01
 1.714289047627778e+00	 0.000000000000000e+00	 1.122370441659627e+01
 1.714004170247544e+00	 3.946087227343405e-02	 1.121631169980743e+01
 1.713136290974417e+00	 7.899812966952499e-02	 1.120708763435160e+01
 1.711665692492551e+00	 1.185905652642067e-01	 1.119595825770801e+01
 1.709572907634753e+00	 1.582161980975134e-01	 1.118284977308618e+01
 1.706838777961159e+00	 1.978522965532914e-01	 1.116768917285689e+01
 1.703444513999047e+00	 2.374754056886410e-01	 1.115040491983119e+01
 1.699371756916888e+00	 2.770613785882647e-01	 1.113092768441787e+01
 1.694602641381181e+00	 3.165854117949879e-01	 1.110919113453381e+01
 1.689119859320706e+00	 3.560220848416451e-01	 1.108513277388426e+01
 1.682906724299760e+00	 3.953454038814352e-01	 1.105869482288704e+01
 1.542662043020896e+00	 3.623993770150854e-01	 1.125558761109907e+01
 1.536282993215550e+00	 3.983149759469040e-01	 1.120951516382602e+01
 1.529205907584642e+00	 4.340776786805960e-01	 1.116038316950807e+01
 1.521417557158576e+00	 4.696624069080367e-01	 1.110826013995459e+01
 1.512905517695068e+00	 5.050437554940970e-01	 1.105317864338350e+01
 1.503658226640188e+00	 5.401960501077737e-01	 1.099513158086809e+01
 1.493665038647719e+00	 5.750934079577475e-01	 1.093406865196038e+01
 1.482916279286322e+00	 6.097098014158012e-01	 1.086989307860982e+01
 1.471403296560924e+00	 6.440191242799742e-01	 1.080245865838533e+01
 1.459118509875090e+00	 6.779952603986078e-01	 1.073156721848060e+01
 1.446055456065250e+00	 7.116121543469853e-01	 1.065696654086042e+01
 1.556686417886749e+00	 3.656939577926278e-01	 1.122460929589281e+01
 1.550249375998099e+00	 4.019360662311212e-01	 1.118073063483292e+01
 1.543107952424686e+00	 4.380238884888155e-01	 1.113378214206613e+01
 1.535248797932060e+00	 4.739321182701246e-01	 1.108383595798600e+01
 1.526659375328873e+00	 5.096351194812659e-01	 1.103092785409007e+01
 1.517328016945761e+00	 5.451069843853168e-01	 1.097505345595423e+01
 1.507243980659426e+00	 5.803215948899214e-01	 1.091616465571399e+01
 1.496397504088063e+00	 6.152526867491098e-01	 1.085416628402633e+01
 1.484779856581116e+00	 6.498739164288541e-01	 1.078891311343985e+01
 1.472383388626781e+00	 6.841589303549737e-01	 1.072020726562480e+01
 1.459201578304726e+00	 7.180814362322998e-01	 1.064779609382691e+01
 1.570710822204060e+00	 3.689885454886305e-01	 1.119654618164802e+01
 1.564215788110238e+00	 4.055571641194287e-01	 1.115473463507960e+01
 1.557010026459114e+00	 4.419701065838270e-01	 1.110984197129352e+01
 1.549080067751132e+00	 4.782018385983015e-01	 1.106194351752005e+01
 1.540413261845648e+00	 5.142264931099342e-01	 1.101107779964464e+01
 1.530997835957645e+00	 5.500179289753961e-01	 1.095724271381401e+01
 1.520822951186545e+00	 5.855497928008031e-01	 1.090039188812127e+01
 1.509878757199894e+00	 6.207955837219393e-01	 1.084043130518645e+01
 1.498156444691492e+00	 6.557287208722125e-01	 1.077721625846439e+01
 1.485648295234026e+00	 6.903226132544257e-01	 1.071054871568101e+01
 1.472347728150277e+00	 7.245507317024646e-01	 1.064017516174125e+01
 1.584735252700366e+00	 3.722831393344285e-01	 1.117123638106254e+01
 1.578182226293059e+00	 4.091782687669958e-01	 1.113137010555728e+01
 1.570912126444055e+00	 4.459163320449563e-01	 1.108841035862295e+01
 1.562911363388469e+00	 4.824715668964256e-01	 1.104243522302894e+01
 1.554167174036154e+00	 5.188178753089214e-01	 1.099348554102952e+01
 1.544667680486245e+00	 5.549288827322758e-01	 1.094156103667949e+01
 1.534401947060710e+00	 5.907780004706400e-01	 1.088661662903586e+01
 1.523360035476277e+00	 6.263384910411125e-01	 1.082855900789421e+01
 1.511533057770965e+00	 6.615835362440975e-01	 1.076724354577888e+01
 1.498913226601820e+00	 6.964863076589417e-01	 1.070247162051628e+01
 1.485493902534635e+00	 7.310200392481445e-01	 1.063398842168703e+01
 1.598759706103210e+00	 3.755777385613570e-01	 1.114852368497757e+01
 1.592148687287654e+00	 4.127993793289919e-01	 1.111048549596936e+01
 1.584814249135637e+00	 4.498625639515296e-01	 1.106934034715247e+01
 1.576742681616749e+00	 4.867413021683550e-01	 1.102516865562101e+01
 1.567921108691154e+00	 5.234092650070474e-01	 1.097801315247032e+01
 1.558337547341971e+00	 5.598398445102201e-01	 1.092787495787395e+01
 1.547980965113555e+00	 5.960062166796786e-01	 1.087470984808329e+01
 1.536841335771679e+00	 6.318814074134527e-01	 1.081842478681931e+01
 1.524909692698449e+00	 6.674383611785578e-01	 1.075887479564632e+01
 1.512178179635163e+00	 7.026500121304985e-01	 1.069586023856418e+01
 1.498640098390529e+00	 7.374893573600056e-01	 1.062912459504020e+01
 1.612784179140129e+00	 3.788723424007510e-01	 1.112825731553759e+01
 1.606115167835117e+00	 4.164204949605868e-01	 1.109193452525488e+01
 1.598716391289989e+00	 4.538088013828732e-01	 1.105249008942851e+01
 1.590574019208646e+00	 4.910110434179482e-01	 1.101000634799568e+01
 1.581675062601407e+00	 5.280006611331310e-01	 1.096452750349137e+01
 1.572007433335227e+00	 5.647508131634927e-01	 1.091605565091382e+01
 1.561560002176714e+00	 6.012344402081660e-01	 1.086454700077300e+01
 1.550322654940563e+00	 6.374243315457835e-01	 1.080990836860103e+01
 1.538286346352859e+00	 6.732931943096417e-01	 1.075199400636911e+01
 1.525443151239054e+00	 7.088137252310736e-01	 1.069060285193306e+01
 1.511786312650691e+00	 7.439586845287128e-01	 1.062547627162813e+01
 1.626808668538664e+00	 3.821669500839458e-01	 1.111029169211092e+01
 1.620081664676538e+00	 4.200416148169498e-01	 1.107557595449168e+01
 1.612618549663240e+00	 4.577550434183133e-01	 1.103772262723357e+01
 1.604405372936839e+00	 4.952807896490632e-01	 1.099681557103214e+01
 1.595429032557675e+00	 5.325920626159918e-01	 1.095290005223790e+01
 1.585677335276421e+00	 5.696617875463581e-01	 1.090597872951305e+01
 1.575139055081823e+00	 6.064626698363499e-01	 1.085600783515039e+01
 1.563803989837394e+00	 6.429672621449282e-01	 1.080289362513076e+01
 1.551663015613107e+00	 6.791480342713972e-01	 1.074648917420248e+01
 1.538708138318490e+00	 7.149774455226444e-01	 1.068659159296898e+01
 1.524932542247848e+00	 7.504280192449314e-01	 1.062293974297867e+01
 1.640833171026356e+00	 3.854615608422766e-01	 1.109448620920761e+01
 1.634048174553012e+00	 4.236627380532504e-01	 1.106127337143923e+01
 1.626520721011518e+00	 4.617012891371760e-01	 1.102490568266042e+01
 1.618236739574002e+00	 4.995505398655581e-01	 1.098546813131616e+01
 1.609183015350721e+00	 5.371834683844493e-01	 1.094300664939122e+01
 1.599347249975960e+00	 5.745727665130803e-01	 1.089752405783799e+01
 1.588718120660515e+00	 6.116909043444767e-01	 1.084897620835863e+01
 1.577285337316637e+00	 6.485101979177099e-01	 1.079726839640451e+01
 1.565039697358108e+00	 6.850028796978732e-01	 1.074225212249818e+01
 1.551973137778469e+00	 7.211411715671885e-01	 1.068372227970796e+01
 1.538078784114736e+00	 7.568973599993275e-01	 1.062141484411603e+01
 1.654857683330742e+00	 3.887561739070783e-01	 1.108070502568337e+01
 1.648014694205628e+00	 4.272838638246583e-01	 1.104889498603091e+01
 1.640422902090953e+00	 4.656475376187876e-01	 1.101391145980398e+01
 1.632068115892814e+00	 5.038202930712914e-01	 1.097584017895642e+01
 1.622937007771303e+00	 5.417748773673225e-01	 1.093472735204885e+01
 1.613017174244250e+00	 5.794837489179233e-01	 1.089057557040500e+01
 1.602297195744425e+00	 6.169191425127935e-01	 1.084333991252283e+01
 1.590766694232754e+00	 6.540531375709525e-01	 1.079292432237792e+01
 1.578416388466777e+00	 6.908577292231182e-01	 1.073917833953083e+01
 1.565238146523991e+00	 7.273049019266826e-01	 1.068189425969043e+01
 1.551225035184080e+00	 7.633667052825658e-01	 1.062080480339633e+01
 1.668882202179363e+00	 3.920507885096862e-01	 1.106881686456638e+01
 1.661981220375480e+00	 4.309049912863429e-01	 1.103831343617183e+01
 1.654325089657674e+00	 4.695937879424743e-01	 1.100461645644648e+01
 1.645899498665951e+00	 5.080900482701213e-01	 1.096781202508573e+01
 1.636691006610186e+00	 5.463662884934315e-01	 1.092794624698374e+01
 1.626687104891698e+00	 5.843947336151508e-01	 1.088502110105398e+01
 1.615876277165188e+00	 6.221473831215475e-01	 1.083899050940822e+01
 1.604248057440212e+00	 6.595960798114789e-01	 1.078975668329467e+01
 1.591793085818026e+00	 6.967125814811796e-01	 1.073716682449677e+01
 1.578503161460054e+00	 7.334686351631050e-01	 1.068101026164640e+01
 1.564371292388615e+00	 7.698360535853119e-01	 1.062101609991051e+01
 1.682906724299760e+00	 3.953454038814352e-01	 1.105869482288704e+01
 1.675947749803660e+00	 4.345261195934738e-01	 1.102940560324178e+01
 1.668227280467807e+00	 4.735400391875617e-01	 1.099690128515320e+01
 1.659730884666089e+00	 5.123598044659057e-01	 1.096126796848198e+01
 1.650445008658129e+00	 5.509577006915951e-01	 1.092255128273577e+01
 1.640357038728711e+00	 5.893057194590274e-01	 1.088075222046862e+01
 1.629455361754438e+00	 6.273756249509855e-01	 1.083582317334120e+01
 1.617729423793474e+00	 6.651390233461127e-01	 1.078766424799405e+01
 1.605169786290770e+00	 7.025674351061066e-01	 1.073611994120878e+01
 1.591768179491655e+00	 7.396323698384317e-01	 1.068097625459224e+01
 1.577517552661069e+00	 7.763054033982315e-01	 1.062195832801313e+01
 1.446055456065250e+00	 7.116121543469853e-01	 1.065696654086042e+01
 1.432207836825179e+00	 7.448461945508820e-01	 1.057651876522262e+01
 1.417572442441803e+00	 7.776692863439487e-01	 1.048831973807535e+01
 1.402146412454711e+00	 8.100559812720015e-01	 1.039239319030174e+01
 1.385928152126612e+00	 8.419811877575717e-01	 1.028873891296435e+01
 1.368917358695528e+00	 8.734202465763066e-01	 1.017733144539916e+01
 1.351115042782549e+00	 9.043490060417461e-01	 1.005811909121596e+01
 1.332523544722111e+00	 9.347438964536106e-01	 9.931023296548299e+00
 1.313146545615595e+00	 9.645820033595822e-01	 9.795938419288992e+00
 1.292989072945795e+00	 9.938411391797882e-01	 9.652731911393762e+00
 1.272057500629041e+00	 1.022499912746946e+00	 9.501244928772008e+00
 1.459201578304726e+00	 7.180814362322998e-01	 1.064779609382691e+01
 1.445228070050683e+00	 7.516176078332568e-01	 1.056957244208070e+01
 1.430459624972012e+00	 7.847390950822563e-01	 1.048364977460922e+01
 1.414893356603801e+00	 8.174202181726493e-01	 1.039003207363778e+01
 1.398527655710973e+00	 8.496356574188768e-01	 1.028870009218234e+01
 1.381362216779143e+00	 8.813605294190271e-01	 1.017961023689120e+01
 1.363398059616986e+00	 9.125704629231188e-01	 1.006269377479722e+01
 1.344637545834977e+00	 9.432416739582017e-01	 9.937856395334828e+00
 1.325084389999482e+00	 9.733510397561601e-01	 9.804978153355542e+00
 1.304743665298257e+00	 1.002876171029337e+00	 9.663913812280416e+00
 1.283621803593056e+00	 1.031795482142871e+00	 9.514493599094491e+00
 1.472347728150277e+00	 7.245507317024646e-01	 1.064017516174125e+01
 1.458248330617824e+00	 7.583890353349527e-01	 1.056402212600910e+01
 1.443346834564395e+00	 7.918089186665238e-01	 1.048022427358706e+01
 1.427640327520521e+00	 8.247844705375758e-01	 1.038876631919200e+01
 1.411127185753312e+00	 8.572901431539766e-01	 1.028961051333375e+01
 1.393807100995965e+00	 8.893008289357811e-01	 1.018269571834541e+01
 1.375681102244761e+00	 9.207919370690237e-01	 1.006793680359220e+01
 1.356751572386259e+00	 9.517394693076289e-01	 9.945224388214740e+00
 1.337022259451874e+00	 9.821200945672420e-01	 9.814424954144203e+00
 1.316498282334426e+00	 1.011911221851995e+00	 9.675381345603236e+00
 1.295186130841210e+00	 1.041091071059036e+00	 9.527913664018920e+00
 1.485493902534635e+00	 7.310200392481445e-01	 1.063398842168703e+01
 1.471268615488724e+00	 7.651604754761316e-01	 1.055975719295800e+01
 1.456234068212133e+00	 7.988787554472803e-01	 1.047793741867569e+01
 1.440387322230788e+00	 8.321487366486009e-01	 1.038849502116599e+01
 1.423726739313953e+00	 8.649446431769593e-01	 1.029137427720097e+01
 1.406252008442408e+00	 8.972411432739574e-01	 1.018649708568640e+01
 1.387964167800051e+00	 9.290134265612310e-01	 1.007376254906701e+01
 1.368865621549567e+00	 9.602372805191779e-01	 9.953046893799378e+00
 1.348960151187484e+00	 9.908891657468134e-01	 9.824203749638109e+00
 1.328252921311766e+00	 1.020946289539680e+00	 9.687064801044585e+00
 1.306750479675358e+00	 1.050386677326566e+00	 9.541440816899879e+00
 1.498640098390529e+00	 7.374893573600056e-01	 1.062912459504020e+01
 1.484288921625506e+00	 7.719319266769569e-01	 1.055667089831443e+01
 1.469121322908410e+00	 8.059486037750556e-01	 1.047668710430653e+01
 1.453134337760516e+00	 8.395130147875444e-01	 1.038912081224827e+01
 1.436326313453225e+00	 8.725991557019142e-01	 1.029389884740803e+01
 1.418696936214885e+00	 9.051814705809439e-01	 1.019092671892983e+01
 1.400247253417037e+00	 9.372349294815117e-01	 1.008008838520950e+01
 1.380979690498518e+00	 9.687351056101363e-01	 9.961246349142566e+00
 1.360898062421025e+00	 9.996582512488599e-01	 9.834242100003042e+00
 1.340007579487740e+00	 1.029981371984304e+00	 9.698896912376730e+00
 1.318314847397356e+00	 1.059682298776580e+00	 9.555013005620108e+00
 1.511786312650691e+00	 7.439586845287128e-01	 1.062547627162813e+01
 1.497309245990293e+00	 7.787033873575906e-01	 1.055466020822406e+01
 1.482008595646407e+00	 8.130184620003784e-01	 1.047637477432593e+01
 1.465881371135623e+00	 8.468773032362267e-01	 1.039054970974999e+01
 1.448925905231452e+00	 8.802536789429295e-01	 1.029709490418771e+01
 1.431141881409813e+00	 9.131218090041288e-01	 1.019590004371605e+01
 1.412530356229895e+00	 9.454564439116367e-01	 1.008683455795197e+01
 1.393093776406722e+00	 9.772329425977901e-01	 9.969747887161581e+00
 1.372835990367206e+00	 1.008427349027368e+00	 9.844470083101445e+00
 1.351762254119812e+00	 1.039016467077784e+00	 9.710812751148779e+00
 1.329879231309057e+00	 1.068977933240202e+00	 9.568570334514254e+00
 1.524932542247848e+00	 7.504280192449314e-01	 1.062293974297867e+01
 1.510329585545209e+00	 7.854748559381955e-01	 1.055362563963280e+01
 1.494895883419309e+00	 8.200883284737793e-01	 1.047690526898654e+01
 1.478628419382025e+00	 8.542416002764679e-01	 1.039269096969451e+01
 1.461525511708960e+00	 8.879082111140940e-01	 1.030087620570826e+01
 1.443586841123604e+00	 9.210621566909006e-01	 1.020133540000188e+01
 1.424813473372803e+00	 9.536779679333758e-01	 1.009392406134416e+01
 1.405207876447794e+00	 9.857307894994263e-01	 9.978479220394828e+00
 1.384773932240742e+00	 1.017196457036321e+00	 9.854820185924844e+00
 1.363516942465446e+00	 1.048051572712035e+00	 9.722749625869398e+00
 1.341443628712318e+00	 1.078273578548551e+00	 9.582054971362751e+00
 1.538078784114736e+00	 7.568973599993275e-01	 1.062141484411603e+01
 1.523349937252375e+00	 7.922463308389349e-01	 1.055347110852695e+01
 1.507783183220298e+00	 8.271582015457860e-01	 1.047818667978094e+01
 1.491375479525636e+00	 8.616059041900879e-01	 1.039545694838550e+01
 1.474125129946076e+00	 8.955627504294971e-01	 1.030515945650760e+01
 1.456031812452673e+00	 9.290025117886478e-01	 1.020715391748232e+01
 1.437096601979941e+00	 9.618994996285009e-01	 1.010128252007281e+01
 1.417321987795348e+00	 9.942286443323317e-01	 9.987370530717415e+00
 1.396711885256342e+00	 1.025965573229707e+00	 9.865227201590704e+00
 1.375271641782104e+00	 1.057086686778972e+00	 9.734646986356893e+00
 1.353008036908993e+00	 1.087569232532751e+00	 9.595411059152582e+00
 1.551225035184080e+00	 7.633667052825658e-01	 1.062080480339633e+01
 1.536370298073917e+00	 7.990178104799711e-01	 1.055410378588564e+01
 1.520670492042556e+00	 8.342280795669296e-01	 1.048013021165254e+01
 1.504122548592373e+00	 8.689702132589067e-01	 1.039876297101007e+01
 1.486724757003127e+00	 9.032172951032263e-01	 1.030986418261370e+01
 1.468476792493434e+00	 9.369428724447580e-01	 1.021327939734340e+01
 1.449379739185485e+00	 9.701210370787814e-01	 1.010883807795150e+01
 1.429436107622995e+00	 1.002726505113793e+00	 9.996354364661279e+00
 1.408649846628719e+00	 1.034734695561511e+00	 9.875628131573951e+00
 1.387026349327250e+00	 1.066121807170510e+00	 9.746446332950100e+00
 1.364572453200936e+00	 1.096864893023922e+00	 9.608584632322362e+00
 1.564371292388615e+00	 7.698360535853119e-01	 1.062101609991051e+01
 1.549390664971957e+00	 8.057892932814672e-01	 1.055543396089227e+01
 1.533557806879267e+00	 8.412979608877380e-01	 1.048265005215012e+01
 1.516869623608153e+00	 8.763345257647448e-01	 1.040252720686341e+01
 1.499324389940438e+00	 9.108718433493710e-01	 1.031491261295790e+01
 1.480921778342302e+00	 9.448832368066197e-01	 1.021963819997371e+01
 1.461662882123616e+00	 9.783425783659890e-01	 1.011652129202986e+01
 1.441550233104349e+00	 1.011224369861097e+00	 1.000536553401052e+01
 1.420587813572585e+00	 1.043503821985717e+00	 9.885962092865245e+00
 1.398781062358348e+00	 1.075156931778564e+00	 9.758091130294460e+00
 1.376136874890005e+00	 1.106160557853187e+00	 9.621523537228029e+00
 1.577517552661069e+00	 7.763054033982315e-01	 1.062195832801313e+01
 1.562411034908616e+00	 8.125607776635853e-01	 1.055737491098172e+01
 1.546445124723613e+00	 8.483678438587413e-01	 1.048566324712105e+01
 1.529616701598890e+00	 8.836988399894217e-01	 1.040667055080875e+01
 1.511924025818336e+00	 9.185263933820198e-01	 1.032022956671446e+01
 1.493366767095691e+00	 9.528236030216212e-01	 1.022615913828744e+01
 1.473946027928508e+00	 9.865641215718935e-01	 1.012426503199444e+01
 1.453664361413024e+00	 1.019722236591529e+00	 1.001434102136418e+01
 1.432525783302651e+00	 1.052272950456313e+00	 9.896170229768888e+00
 1.410535778132862e+00	 1.084192058495051e+00	 9.769526725436418e+00
 1.387701299278052e+00	 1.115456224851666e+00	 9.634177356583113e+00
 1.272057500629041e+00	 1.022499912746946e+00	 9.501244928772008e+00
 1.250359540147344e+00	 1.050537798776298e+00	 9.339354250716369e+00
 1.227904219449511e+00	 1.077935209275797e+00	 9.165281020095691e+00
 1.204701875859538e+00	 1.104673546853691e+00	 8.979417232571844e+00
 1.180764136830705e+00	 1.130735259195432e+00	 8.782224714412116e+00
 1.156103891891588e+00	 1.156103891891588e+00	 8.574232704779970e+00
 1.130735259195432e+00	 1.180764136830706e+00	 8.356034681621079e+00
 1.104673546853691e+00	 1.204701875859538e+00	 8.128284471231726e+00
 1.077935209275797e+00	 1.227904219449511e+00	 7.891691695141627e+00
 1.050537798776297e+00	 1.250359540147344e+00	 7.647016620282397e+00
 1.022499912746946e+00	 1.272057500629041e+00	 7.395064489192569e+00
 1.283621803593056e+00	 1.031795482142871e+00	 9.514493599094491e+00
 1.261726586471149e+00	 1.060088261216182e+00	 9.354722410745262e+00
 1.239067123954619e+00	 1.087734742182361e+00	 9.182933206729473e+00
 1.215653847344298e+00	 1.114716158580364e+00	 8.999482828027340e+00
 1.191498489798890e+00	 1.141014798527169e+00	 8.804796589719668e+00
 1.166614058025953e+00	 1.166614058025953e+00	 8.599366135684960e+00
 1.141014798527169e+00	 1.191498489798890e+00	 8.383746551303325e+00
 1.114716158580364e+00	 1.215653847344298e+00	 8.158552770174749e+00
 1.087734742182360e+00	 1.239067123954620e+00	 7.924455324187941e+00
 1.060088261216181e+00	 1.261726586471148e+00	 7.682175498497683e+00
 1.031795482142871e+00	 1.283621803593056e+00	 7.432479963735007e+00
 1.295186130841210e+00	 1.041091071059036e+00	 9.527913664018920e+00
 1.273093656664901e+00	 1.069638743711571e+00	 9.370149885707585e+00
 1.250230051901031e+00	 1.097534295667453e+00	 9.200530162319922e+00
 1.226605841827457e+00	 1.124758791395993e+00	 9.019377668392572e+00
 1.202232865308533e+00	 1.151294359445364e+00	 8.827082743151157e+00
 1.177124246231041e+00	 1.177124246231041e+00	 8.624101005818497e+00
 1.151294359445364e+00	 1.202232865308534e+00	 8.410950742816539e+00
 1.124758791395993e+00	 1.226605841827457e+00	 8.188209598966992e+00
 1.097534295667452e+00	 1.250230051901031e+00	 7.956510617913874e+00
 1.069638743711570e+00	 1.273093656664901e+00	 7.716537689100445e+00
 1.041091071059036e+00	 1.295186130841210e+00	 7.469020469384192e+00
 1.306750479675358e+00	 1.050386677326566e+00	 9.541440816899879e+00
 1.284460748076471e+00	 1.079189244034114e+00	 9.385577895161319e+00
 1.261393000684236e+00	 1.107333867444610e+00	 9.218018824442158e+00
 1.237557856753712e+00	 1.134801442957407e+00	 9.039054572431493e+00
 1.212967260855094e+00	 1.161573939551575e+00	 8.849042007910024e+00
 1.187634454054607e+00	 1.187634454054607e+00	 8.648402265081321e+00
 1.161573939551575e+00	 1.212967260855095e+00	 8.437618393173075e+00
 1.134801442957407e+00	 1.237557856753713e+00	 8.217232319682756e+00
 1.107333867444610e+00	 1.261393000684237e+00	 7.987841168559276e+00
 1.079189244034114e+00	 1.284460748076472e+00	 7.750092986610623e+00
 1.050386677326566e+00	 1.306750479675358e+00	 7.504681942164076e+00
 1.318314847397356e+00	 1.059682298776580e+00	 9.555013005620108e+00
 1.295827858053730e+00	 1.088739759955460e+00	 9.400949719337250e+00
 1.272555967699726e+00	 1.117133455227372e+00	 9.235347990766149e+00
 1.248509889567757e+00	 1.144844110921433e+00	 9.058468012707534e+00
 1.223701673934031e+00	 1.171853536447356e+00	 8.870634660036234e+00
 1.198144679044406e+00	 1.198144679044407e+00	 8.672236091668033e+00
 1.171853536447356e+00	 1.223701673934032e+00	 8.463721650673989e+00
 1.144844110921433e+00	 1.248509889567758e+00	 8.245599087356787e+00
 1.117133455227372e+00	 1.272555967699726e+00	 8.018431142825484e+00
 1.088739759955460e+00	 1.295827858053730e+00	 7.782831542497615e+00
 1.059682298776580e+00	 1.318314847397355e+00	 7.539460459677125e+00
 1.329879231309057e+00	 1.068977933240202e+00	 9.568570334514254e+00
 1.307194983944547e+00	 1.098290289247258e+00	 9.416210609486420e+00
 1.283718950342991e+00	 1.126933056729275e+00	 9.252468238120130e+00
 1.259461937714286e+00	 1.154886792944901e+00	 9.077574043611605e+00
 1.234436102040804e+00	 1.182133147734263e+00	 8.891822355602146e+00
 1.208654918748195e+00	 1.208654918748196e+00	 8.695569838586474e+00
 1.182133147734263e+00	 1.234436102040805e+00	 8.489233630859548e+00
 1.154886792944901e+00	 1.259461937714287e+00	 8.273288815423646e+00
 1.126933056729275e+00	 1.283718950342991e+00	 8.048265256811524e+00
 1.098290289247258e+00	 1.307194983944547e+00	 7.814743849570927e+00
 1.068977933240202e+00	 1.329879231309057e+00	 7.573352234856946e+00
 1.341443628712318e+00	 1.078273578548551e+00	 9.582054971362751e+00
 1.318562123096792e+00	 1.107840829681157e+00	 9.431307702862174e+00
 1.294881946009521e+00	 1.136732669663859e+00	 9.269331845738066e+00
 1.270413998637995e+00	 1.164929486684639e+00	 9.096330233110749e+00
 1.245170542670870e+00	 1.192412771013853e+00	 8.912568071154958e+00
 1.219165170713729e+00	 1.219165170713729e+00	 8.718371982941946e+00
 1.192412771013853e+00	 1.245170542670870e+00	 8.514128374736822e+00
 1.164929486684638e+00	 1.270413998637995e+00	 8.300281142943648e+00
 1.136732669663859e+00	 1.294881946009521e+00	 8.077328752245974e+00
 1.107840829681157e+00	 1.318562123096793e+00	 7.845820727177894e+00
 1.078273578548551e+00	 1.341443628712317e+00	 7.606353610043932e+00
 1.353008036908993e+00	 1.087569232532751e+00	 9.595411059152582e+00
 1.329929272858337e+00	 1.117391379028806e+00	 9.446189942059712e+00
 1.306044952094807e+00	 1.146532291744662e+00	 9.285892722440893e+00
 1.281366069783578e+00	 1.174972189797474e+00	 9.114695597994954e+00
 1.255904993319687e+00	 1.202692403887681e+00	 8.932836047211662e+00
 1.229675432488762e+00	 1.229675432488763e+00	 8.740612077820623e+00
 1.202692403887681e+00	 1.255904993319688e+00	 8.538380809148215e+00
 1.174972189797473e+00	 1.281366069783578e+00	 8.326556403508734e+00
 1.146532291744661e+00	 1.306044952094807e+00	 8.105607373937113e+00
 1.117391379028805e+00	 1.329929272858337e+00	 7.876053307159816e+00
 1.087569232532751e+00	 1.353008036908992e+00	 7.638461051364563e+00
 1.364572453200936e+00	 1.096864893023922e+00	 9.608584632322362e+00
 1.341296430577051e+00	 1.126941935061853e+00	 9.460807998454763e+00
 1.317207965994339e+00	 1.156331920685220e+00	 9.302106337518540e+00
 1.292318148595728e+00	 1.185014899940235e+00	 9.132630542414677e+00
 1.266639451482715e+00	 1.212972043957304e+00	 8.952591734625765e+00
 1.240185701621051e+00	 1.240185701621051e+00	 8.762260706618354e+00
 1.212972043957304e+00	 1.266639451482715e+00	 8.561966709154134e+00
 1.185014899940234e+00	 1.292318148595729e+00	 8.352095595728464e+00
 1.156331920685220e+00	 1.317207965994339e+00	 8.133087348369013e+00
 1.126941935061853e+00	 1.341296430577051e+00	 7.905433020522125e+00
 1.096864893023922e+00	 1.364572453200936e+00	 7.669671143396415e+00
 1.376136874890005e+00	 1.106160557853187e+00	 9.621523537228029e+00
 1.352663593600802e+00	 1.136492495551947e+00	 9.475114199500409e+00
 1.328370985103609e+00	 1.166131554199074e+00	 9.317929655094789e+00
 1.303270232519143e+00	 1.195057614769750e+00	 9.150096799515676e+00
 1.277373914655412e+00	 1.223251688824277e+00	 8.971801743656512e+00
 1.250695975658350e+00	 1.250695975658350e+00	 8.783289439670908e+00
 1.223251688824276e+00	 1.277373914655412e+00	 8.584862662311345e+00
 1.195057614769750e+00	 1.303270232519143e+00	 8.376880355203214e+00
 1.166131554199074e+00	 1.328370985103609e+00	 8.159755363376135e+00
 1.136492495551947e+00	 1.352663593600803e+00	 7.933951584775970e+00
 1.106160557853187e+00	 1.376136874890005e+00	 7.699980584101846e+00
 1.387701299278052e+00	 1.115456224851666e+00	 9.634177356583113e+00
 1.364030759277465e+00	 1.146043058270738e+00	 9.489062459657085e+00
 1.339534006818105e+00	 1.175931189999760e+00	 9.333321071772332e+00
 1.314222318998515e+00	 1.205100331942848e+00	 9.167057375990439e+00
 1.288108380333235e+00	 1.233531336090155e+00	 8.990433795583410e+00
 1.261206252148415e+00	 1.261206252148416e+00	 8.803670793051605e+00
 1.233531336090155e+00	 1.288108380333236e+00	 8.607046034736278e+00
 1.205100331942847e+00	 1.314222318998515e+00	 8.400892927898173e+00
 1.175931189999759e+00	 1.339534006818105e+00	 8.185598548833822e+00
 1.146043058270737e+00	 1.364030759277465e+00	 7.961600991912618e+00
 1.115456224851666e+00	 1.387701299278052e+00	 7.729386180015045e+00
 1.022499912746946e+00	 1.272057500629041e+00	 7.395064489192569e+00
 9.938411391797880e-01	 1.292989072945795e+00	 7.134492269558930e+00
 9.645820033595817e-01	 1.313146545615596e+00	 6.864382953599291e+00
 9.347438964536103e-01	 1.332523544722111e+00	 6.586288677225427e+00
 9.043490060417456e-01	 1.351115042782550e+00	 6.301853984587872e+00
 8.734202465763062e-01	 1.368917358695529e+00	 6.012801157123347e+00
 8.419811877575710e-01	 1.385928152126612e+00	 5.720915026274991e+00
 8.100559812720007e-01	 1.402146412454711e+00	 5.428027504186081e+00
 7.776692863439484e-01	 1.417572442441804e+00	 5.136002062563832e+00
 7.448461945508813e-01	 1.432207836825180e+00	 4.846718380843734e+00
 7.116121543469851e-01	 1.446055456065250e+00	 4.562057371281981e+00
 1.031795482142871e+00	 1.283621803593056e+00	 7.432479963735007e+00
 1.002876171029337e+00	 1.304743665298257e+00	 7.174121038021476e+00
 9.733510397561598e-01	 1.325084389999482e+00	 6.906276617381947e+00
 9.432416739582011e-01	 1.344637545834978e+00	 6.630459277954079e+00
 9.125704629231184e-01	 1.363398059616986e+00	 6.348273185851207e+00
 8.813605294190264e-01	 1.381362216779144e+00	 6.061399743750021e+00
 8.496356574188763e-01	 1.398527655710974e+00	 5.771582719206268e+00
 8.174202181726491e-01	 1.414893356603802e+00	 5.480613084665286e+00
 7.847390950822557e-01	 1.430459624972012e+00	 5.190313795308041e+00
 7.516176078332562e-01	 1.445228070050684e+00	 4.902524722162936e+00
 7.180814362322998e-01	 1.459201578304726e+00	 4.619087944829229e+00
 1.041091071059036e+00	 1.295186130841210e+00	 7.469020469384192e+00
 1.011911221851995e+00	 1.316498282334426e+00	 7.212804171648576e+00
 9.821200945672417e-01	 1.337022259451875e+00	 6.947158512368752e+00
 9.517394693076283e-01	 1.356751572386259e+00	 6.673556996442215e+00
 9.207919370690233e-01	 1.375681102244761e+00	 6.393563767797858e+00
 8.893008289357806e-01	 1.393807100995965e+00	 6.108819575246330e+00
 8.572901431539762e-01	 1.411127185753312e+00	 5.821027219630706e+00
 8.247844705375753e-01	 1.427640327520522e+00	 5.531936707799799e+00
 7.918089186665234e-01	 1.443346834564396e+00	 5.243330335358426e+00
 7.583890353349521e-01	 1.458248330617824e+00	 4.957007911776005e+00
 7.245507317024646e-01	 1.472347728150277e+00	 4.674772328755640e+00
 1.050386677326566e+00	 1.306750479675358e+00	 7.504681942164076e+00
 1.020946289539679e+00	 1.328252921311766e+00	 7.250543514858432e+00
 9.908891657468131e-01	 1.348960151187485e+00	 6.987036003527678e+00
 9.602372805191773e-01	 1.368865621549567e+00	 6.715594325791750e+00
 9.290134265612304e-01	 1.387964167800052e+00	 6.437742956942016e+00
 8.972411432739568e-01	 1.406252008442408e+00	 6.155082216748608e+00
 8.649446431769587e-01	 1.423726739313954e+00	 5.869274038635607e+00
 8.321487366486005e-01	 1.440387322230788e+00	 5.582027442193365e+00
 7.988787554472800e-01	 1.456234068212134e+00	 5.295083926666072e+00
 7.651604754761312e-01	 1.471268615488724e+00	 5.010202995000417e+00
 7.310200392481446e-01	 1.485493902534635e+00	 4.729148005755160e+00
 1.059682298776580e+00	 1.318314847397355e+00	 7.539460459677125e+00
 1.029981371984303e+00	 1.340007579487740e+00	 7.287340846466033e+00
 9.996582512488599e-01	 1.360898062421025e+00	 7.025916196660769e+00
 9.687351056101354e-01	 1.380979690498518e+00	 6.756583320154709e+00
 9.372349294815112e-01	 1.400247253417037e+00	 6.480827374922111e+00
 9.051814705809433e-01	 1.418696936214885e+00	 6.200208476450488e+00
 8.725991557019135e-01	 1.436326313453225e+00	 5.916347792081702e+00
 8.395130147875441e-01	 1.453134337760517e+00	 5.630913336572029e+00
 8.059486037750551e-01	 1.469121322908410e+00	 5.345605682063921e+00
 7.719319266769559e-01	 1.484288921625506e+00	 5.062143787916573e+00
 7.374893573600056e-01	 1.498640098390529e+00	 4.782251143934555e+00
 1.068977933240202e+00	 1.329879231309057e+00	 7.573352234856946e+00
 1.039016467077783e+00	 1.351762254119812e+00	 7.323197882442155e+00
 1.008427349027367e+00	 1.372835990367206e+00	 7.063805949578415e+00
 9.772329425977898e-01	 1.393093776406722e+00	 6.796535613723920e+00
 9.454564439116363e-01	 1.412530356229895e+00	 6.522833064706106e+00
 9.131218090041283e-01	 1.431141881409813e+00	 6.244218438420780e+00
 8.802536789429289e-01	 1.448925905231452e+00	 5.962272239435025e+00
 8.468773032362263e-01	 1.465881371135624e+00	 5.678621464037461e+00
 8.130184620003781e-01	 1.482008595646407e+00	 5.394925632359174e+00
 7.787033873575901e-01	 1.497309245990293e+00	 5.112862930729171e+00
 7.439586845287128e-01	 1.511786312650691e+00	 4.834116653889012e+00
 1.078273578548551e+00	 1.341443628712317e+00	 7.606353610043932e+00
 1.048051572712034e+00	 1.363516942465446e+00	 7.358116278530213e+00
 1.017196457036321e+00	 1.384773932240742e+00	 7.100711882696068e+00
 9.857307894994257e-01	 1.405207876447794e+00	 6.835462438742145e+00
 9.536779679333754e-01	 1.424813473372804e+00	 6.563775515442039e+00
 9.210621566909001e-01	 1.443586841123604e+00	 6.287131493725006e+00
 8.879082111140938e-01	 1.461525511708960e+00	 6.007070320591276e+00
 8.542416002764672e-01	 1.478628419382025e+00	 5.725177964032838e+00
 8.200883284737788e-01	 1.494895883419310e+00	 5.443072772888100e+00
 7.854748559381950e-01	 1.510329585545209e+00	 5.162391938370291e+00
 7.504280192449314e-01	 1.524932542247848e+00	 4.884778242827236e+00
 1.087569232532751e+00	 1.353008036908992e+00	 7.638461051364563e+00
 1.057086686778971e+00	 1.375271641782104e+00	 7.392097632728657e+00
 1.025965573229707e+00	 1.396711885256342e+00	 7.136640389087573e+00
 9.942286443323313e-01	 1.417321987795348e+00	 6.873374642588123e+00
 9.618994996285004e-01	 1.437096601979941e+00	 6.603669686035284e+00
 9.290025117886472e-01	 1.456031812452673e+00	 6.328966369951683e+00
 8.955627504294964e-01	 1.474125129946077e+00	 6.050764190812774e+00
 8.616059041900874e-01	 1.491375479525636e+00	 5.770608082157612e+00
 8.271582015457856e-01	 1.507783183220298e+00	 5.490075107684341e+00
 7.922463308389345e-01	 1.523349937252376e+00	 5.210761248508537e+00
 7.568973599993274e-01	 1.538078784114736e+00	 4.934268465922393e+00
 1.096864893023922e+00	 1.364572453200936e+00	 7.669671143396415e+00
 1.066121807170509e+00	 1.387026349327251e+00	 7.425143487647357e+00
 1.034734695561510e+00	 1.408649846628719e+00	 7.171597644027932e+00
 1.002726505113793e+00	 1.429436107622995e+00	 6.910282703994239e+00
 9.701210370787809e-01	 1.449379739185485e+00	 6.642530027527141e+00
 9.369428724447576e-01	 1.468476792493435e+00	 6.369741159238007e+00
 9.032172951032259e-01	 1.486724757003127e+00	 6.093375253890041e+00
 8.689702132589063e-01	 1.504122548592373e+00	 5.814936207958992e+00
 8.342280795669288e-01	 1.520670492042557e+00	 5.535959691403056e+00
 7.990178104799709e-01	 1.536370298073918e+00	 5.258000267118746e+00
 7.633667052825658e-01	 1.551225035184081e+00	 4.982618775053533e+00
 1.106160557853187e+00	 1.376136874890005e+00	 7.699980584101846e+00
 1.075156931778564e+00	 1.398781062358349e+00	 7.457255332745262e+00
 1.043503821985717e+00	 1.420587813572585e+00	 7.205589614054908e+00
 1.011224369861096e+00	 1.441550233104349e+00	 6.946196748447084e+00
 9.783425783659885e-01	 1.461662882123616e+00	 6.680370504346090e+00
 9.448832368066190e-01	 1.480921778342302e+00	 6.409473344883658e+00
 9.108718433493705e-01	 1.499324389940438e+00	 6.134924193632147e+00
 8.763345257647444e-01	 1.516869623608153e+00	 5.858185910819099e+00
 8.412979608877375e-01	 1.533557806879267e+00	 5.580752669132035e+00
 8.057892932814669e-01	 1.549390664971957e+00	 5.304137411755029e+00
 7.698360535853118e-01	 1.564371292388615e+00	 5.029859565090739e+00
 1.115456224851666e+00	 1.387701299278052e+00	 7.729386180015045e+00
 1.084192058495050e+00	 1.410535778132863e+00	 7.488434606456099e+00
 1.052272950456312e+00	 1.432525783302652e+00	 7.238622065577947e+00
 1.019722236591529e+00	 1.453664361413024e+00	 6.981126562818254e+00
 9.865641215718933e-01	 1.473946027928509e+00	 6.717204614496804e+00
 9.528236030216204e-01	 1.493366767095692e+00	 6.448179826634109e+00
 9.185263933820192e-01	 1.511924025818336e+00	 6.175431003783583e+00
 8.836988399894211e-01	 1.529616701598891e+00	 5.900379974048544e+00
 8.483678438587410e-01	 1.546445124723613e+00	 5.624479314213619e+00
 8.125607776635847e-01	 1.562411034908617e+00	 5.349200152661540e+00
 7.763054033982313e-01	 1.577517552661069e+00	 5.076020217867246e+00
 7.116121543469851e-01	 1.446055456065250e+00	 4.562057371281981e+00
 6.779952603986081e-01	 1.459118509875090e+00	 4.281476310589245e+00
 6.440191242799743e-01	 1.471403296560924e+00	 4.004404877018962e+00
 6.097098014158014e-01	 1.482916279286323e+00	 3.732723554989663e+00
 5.750934079577478e-01	 1.493665038647719e+00	 3.468288412371471e+00
 5.401960501077742e-01	 1.503658226640188e+00	 3.212918693511926e+00
 5.050437554940973e-01	 1.512905517695068e+00	 2.968385432716637e+00
 4.696624069080371e-01	 1.521417557158576e+00	 2.736401169581763e+00
 4.340776786805963e-01	 1.529205907584642e+00	 2.518610823580193e+00
 3.983149759469042e-01	 1.536282993215550e+00	 2.316583762285688e+00
 3.623993770150853e-01	 1.542662043020896e+00	 2.131807076042852e+00
 7.180814362322998e-01	 1.459201578304726e+00	 4.619087944829229e+00
 6.841589303549738e-01	 1.472383388626782e+00	 4.339466039868531e+00
 6.498739164288544e-01	 1.484779856581117e+00	 4.063131582863523e+00
 6.152526867491104e-01	 1.496397504088063e+00	 3.791985409923220e+00
 5.803215948899217e-01	 1.507243980659427e+00	 3.527906480800202e+00
 5.451069843853170e-01	 1.517328016945761e+00	 3.272739091299592e+00
 5.096351194812663e-01	 1.526659375328873e+00	 3.028281107313801e+00
 4.739321182701249e-01	 1.535248797932060e+00	 2.796273307127950e+00
 4.380238884888158e-01	 1.543107952424687e+00	 2.578389894104111e+00
 4.019360662311215e-01	 1.550249375998100e+00	 2.376230218244268e+00
 3.656939577926278e-01	 1.556686417886749e+00	 2.191311722939218e+00
 7.245507317024646e-01	 1.472347728150277e+00	 4.674772328755640e+00
 6.903226132544259e-01	 1.485648295234026e+00	 4.396096618508738e+00
 6.557287208722129e-01	 1.498156444691492e+00	 4.120500285380540e+00
 6.207955837219395e-01	 1.509878757199893e+00	 3.849902399752664e+00
 5.855497928008034e-01	 1.520822951186545e+00	 3.586202696592698e+00
 5.500179289753964e-01	 1.530997835957644e+00	 3.331268421780956e+00
 5.142264931099344e-01	 1.540413261845647e+00	 3.086922200172495e+00
 4.782018385983018e-01	 1.549080067751132e+00	 2.854931017188848e+00
 4.419701065838273e-01	 1.557010026459114e+00	 2.636996380679271e+00
 4.055571641194289e-01	 1.564215788110238e+00	 2.434745705622261e+00
 3.689885454886305e-01	 1.570710822204060e+00	 2.249724941449388e+00
 7.310200392481446e-01	 1.485493902534635e+00	 4.729148005755160e+00
 6.964863076589421e-01	 1.498913226601821e+00	 4.451407638889721e+00
 6.615835362440979e-01	 1.511533057770965e+00	 4.176552421070866e+00
 6.263384910411126e-01	 1.523360035476277e+00	 3.906517589158926e+00
 5.907780004706401e-01	 1.534401947060710e+00	 3.643221586169687e+00
 5.549288827322761e-01	 1.544667680486245e+00	 3.388552555757288e+00
 5.188178753089218e-01	 1.554167174036154e+00	 3.144355857503490e+00
 4.824715668964258e-01	 1.562911363388469e+00	 2.912422699857431e+00
 4.459163320449566e-01	 1.570912126444055e+00	 2.694479962027931e+00
 4.091782687669960e-01	 1.578182226293059e+00	 2.492181251422394e+00
 3.722831393344285e-01	 1.584735252700366e+00	 2.307099219868436e+00
 7.374893573600056e-01	 1.498640098390529e+00	 4.782251143934557e+00
 7.026500121304988e-01	 1.512178179635163e+00	 4.505437304947003e+00
 6.674383611785580e-01	 1.524909692698449e+00	 4.231327973445556e+00
 6.318814074134532e-01	 1.536841335771679e+00	 3.961872532857801e+00
 5.960062166796790e-01	 1.547980965113555e+00	 3.699006114843753e+00
 5.598398445102205e-01	 1.558337547341970e+00	 3.444635755888882e+00
 5.234092650070477e-01	 1.567921108691153e+00	 3.200627572755308e+00
 4.867413021683554e-01	 1.576742681616749e+00	 2.968795058590051e+00
 4.498625639515298e-01	 1.584814249135637e+00	 2.750888575484207e+00
 4.127993793289922e-01	 1.592148687287655e+00	 2.548586094055428e+00
 3.755777385613569e-01	 1.598759706103210e+00	 2.363485206721368e+00
 7.439586845287128e-01	 1.511786312650691e+00	 4.834116653889012e+00
 7.088137252310740e-01	 1.525443151239054e+00	 4.558222492462175e+00
 6.732931943096422e-01	 1.538286346352859e+00	 4.284865536127016e+00
 6.374243315457838e-01	 1.550322654940563e+00	 4.016007341182758e+00
 6.012344402081665e-01	 1.561560002176714e+00	 3.753597754630754e+00
 5.647508131634932e-01	 1.572007433335227e+00	 3.499560746556156e+00
 5.280006611331313e-01	 1.581675062601407e+00	 3.255781258420448e+00
 4.910110434179485e-01	 1.590574019208646e+00	 3.024093173925223e+00
 4.538088013828737e-01	 1.598716391289989e+00	 2.806268492663892e+00
 4.164204949605870e-01	 1.606115167835117e+00	 2.604007761066720e+00
 3.788723424007510e-01	 1.612784179140129e+00	 2.418931790719492e+00
 7.504280192449314e-01	 1.524932542247848e+00	 4.884778242827236e+00
 7.149774455226450e-01	 1.538708138318490e+00	 4.609798806236833e+00
 6.791480342713977e-01	 1.551663015613107e+00	 4.337202372687896e+00
 6.429672621449286e-01	 1.563803989837395e+00	 4.068960742277218e+00
 6.064626698363502e-01	 1.575139055081823e+00	 3.807036548555328e+00
 5.696617875463584e-01	 1.585677335276421e+00	 3.553368780109225e+00
 5.325920626159921e-01	 1.595429032557675e+00	 3.309859314129649e+00
 4.952807896490634e-01	 1.604405372936839e+00	 3.078360573391933e+00
 4.577550434183135e-01	 1.612618549663240e+00	 2.860664391222120e+00
 4.200416148169501e-01	 1.620081664676538e+00	 2.658492142844986e+00
 3.821669500839457e-01	 1.626808668538665e+00	 2.473486176583464e+00
 7.568973599993274e-01	 1.538078784114736e+00	 4.934268465922390e+00
 7.211411715671887e-01	 1.551973137778469e+00	 4.660200634335921e+00
 6.850028796978735e-01	 1.565039697358109e+00	 4.388374473423283e+00
 6.485101979177100e-01	 1.577285337316637e+00	 4.120770141099746e+00
 6.116909043444768e-01	 1.588718120660515e+00	 3.859361171660824e+00
 5.745727665130806e-01	 1.599347249975960e+00	 3.606099699722046e+00
 5.371834683844495e-01	 1.609183015350720e+00	 3.362902691255985e+00
 4.995505398655584e-01	 1.618236739574002e+00	 3.131639297834085e+00
 4.617012891371763e-01	 1.626520721011518e+00	 2.914119422933349e+00
 4.236627380532507e-01	 1.634048174553011e+00	 2.712083562553048e+00
 3.854615608422766e-01	 1.640833171026356e+00	 2.527193956980199e+00
 7.633667052825658e-01	 1.551225035184081e+00	 4.982618775053533e+00
 7.273049019266828e-01	 1.565238146523991e+00	 4.709461199574713e+00
 6.908577292231181e-01	 1.578416388466777e+00	 4.438416609237613e+00
 6.540531375709528e-01	 1.590766694232754e+00	 4.171471675430123e+00
 6.169191425127937e-01	 1.602297195744425e+00	 3.910608988918619e+00
 5.794837489179234e-01	 1.613017174244251e+00	 3.657791999052296e+00
 5.417748773673230e-01	 1.622937007771304e+00	 3.414950954235959e+00
 5.038202930712917e-01	 1.632068115892814e+00	 3.183969964365342e+00
 4.656475376187880e-01	 1.640422902090953e+00	 2.966675278311646e+00
 4.272838638246586e-01	 1.648014694205628e+00	 2.764824842504735e+00
 3.887561739070783e-01	 1.654857683330742e+00	 2.580099180803835e+00
 7.698360535853118e-01	 1.564371292388615e+00	 5.029859565090739e+00
 7.334686351631050e-01	 1.578503161460053e+00	 4.757612608410863e+00
 6.967125814811799e-01	 1.591793085818026e+00	 4.487362382816027e+00
 6.595960798114791e-01	 1.604248057440212e+00	 4.221100269053505e+00
 6.221473831215476e-01	 1.615876277165188e+00	 3.960816110219073e+00
 5.843947336151513e-01	 1.626687104891698e+00	 3.708482878894926e+00
 5.463662884934321e-01	 1.636691006610186e+00	 3.466042338800197e+00
 5.080900482701216e-01	 1.645899498665951e+00	 3.235391826150652e+00
 4.695937879424745e-01	 1.654325089657673e+00	 3.018372247974365e+00
 4.309049912863432e-01	 1.661981220375480e+00	 2.816757367197035e+00
 3.920507885096861e-01	 1.668882202179363e+00	 2.632244418015936e+00
 7.763054033982313e-01	 1.577517552661069e+00	 5.076020217867246e+00
 7.396323698384324e-01	 1.591768179491655e+00	 4.804685897393592e+00
 7.025674351061071e-01	 1.605169786290770e+00	 4.535244277238764e+00
 6.651390233461130e-01	 1.617729423793473e+00	 4.269689682286466e+00
 6.273756249509856e-01	 1.629455361754438e+00	 4.010017442614876e+00
 5.893057194590278e-01	 1.640357038728711e+00	 3.758208301004384e+00
 5.509577006915954e-01	 1.650445008658129e+00	 3.516213807294412e+00
 5.123598044659060e-01	 1.659730884666089e+00	 3.285942829200881e+00
 4.735400391875621e-01	 1.668227280467808e+00	 3.069249280939549e+00
 4.345261195934739e-01	 1.675947749803660e+00	 2.867921143192154e+00
 3.953454038814352e-01	 1.682906724299760e+00	 2.683670821245526e+00
 3.623993770150853e-01	 1.542662043020896e+00	 2.131807076042852e+00
 3.263530585742443e-01	 1.548357407728751e+00	 1.964277123810510e+00
 2.902028324592135e-01	 1.553383283288272e+00	 1.813390793474608e+00
 2.539725263249901e-01	 1.557754965574446e+00	 1.679565558866445e+00
 2.176854422294076e-01	 1.561488320293919e+00	 1.563131493134823e+00
 1.813643166387074e-01	 1.564599723976281e+00	 1.464336267955205e+00
 1.450312841900338e-01	 1.567106005523594e+00	 1.383350428056065e+00
 1.087078452135093e-01	 1.569024388591723e+00	 1.320272856411469e+00
 7.241483699079308e-02	 1.570372435055877e+00	 1.275136352072144e+00
 3.617240870313355e-02	 1.571167989790866e+00	 1.247913249769853e+00
 0.000000000000000e+00	 1.571429126974074e+00	 1.238521017915718e+00
 3.656939577926278e-01	 1.556686417886749e+00	 2.191311722939218e+00
 3.293199414712120e-01	 1.562433559281498e+00	 2.023586177291617e+00
 2.928410728486677e-01	 1.567505125187194e+00	 1.872412974022967e+00
 2.562813961977030e-01	 1.571916550533969e+00	 1.738250700427935e+00
 2.196644254156484e-01	 1.575683845263964e+00	 1.621470365115149e+00
 1.830131036664362e-01	 1.578823534786167e+00	 1.522360106369380e+00
 1.463497668136618e-01	 1.581352600994570e+00	 1.441130204874145e+00
 1.096961106473998e-01	 1.583288424125677e+00	 1.377918316570051e+00
 7.307316188147454e-02	 1.584648725710099e+00	 1.332794847571061e+00
 3.650125287376429e-02	 1.585451512850806e+00	 1.305768399809428e+00
 0.000000000000000e+00	 1.585715024037928e+00	 1.296791223204834e+00
 3.689885454886305e-01	 1.570710822204060e+00	 2.249724941449388e+00
 3.322868305985031e-01	 1.576509740394501e+00	 2.081842613220817e+00
 2.954793187783156e-01	 1.581626996742376e+00	 1.930424345256193e+00
 2.585902709189448e-01	 1.586078165233253e+00	 1.795971549864422e+00
 2.216434127576642e-01	 1.589879400045076e+00	 1.678897773296236e+00
 1.846618941565348e-01	 1.593047375466543e+00	 1.579533108134990e+00
 1.476682522060273e-01	 1.595599226383897e+00	 1.498128940703431e+00
 1.106843781565813e-01	 1.597552489614615e+00	 1.434862949582743e+00
 7.373148815458633e-02	 1.598925046345047e+00	 1.389844277001906e+00
 3.683009773493729e-02	 1.599735065906658e+00	 1.363118801179017e+00
 0.000000000000000e+00	 1.600000951102682e+00	 1.354674444459735e+00
 3.722831393344285e-01	 1.584735252700366e+00	 2.307099219868435e+00
 3.352537252638942e-01	 1.590585947783202e+00	 2.139100294102207e+00
 2.981175696325952e-01	 1.595748894658584e+00	 1.987479798509690e+00
 2.608991499499848e-01	 1.600239806367783e+00	 1.852783639442055e+00
 2.236224037936799e-01	 1.604074981324811e+00	 1.735469463578629e+00
 1.863106877242587e-01	 1.607271242698359e+00	 1.635910769205047e+00
 1.489867400594469e-01	 1.609845878367206e+00	 1.554401384749379e+00
 1.116726475104179e-01	 1.611816581730097e+00	 1.491160230892632e+00
 7.438981565648303e-02	 1.613201393629416e+00	 1.446336287734939e+00
 3.715894320989912e-02	 1.614018645625435e+00	 1.420013694390211e+00
 0.000000000000000e+00	 1.614286904834791e+00	 1.412216914776450e+00
 3.755777385613569e-01	 1.598759706103210e+00	 2.363485206721368e+00
 3.382206247751618e-01	 1.604662178163041e+00	 2.195411194538729e+00
 3.007558247959438e-01	 1.609870815640586e+00	 2.043632301199776e+00
 2.632080327520928e-01	 1.614401470633040e+00	 1.908740555099017e+00
 2.256013980619198e-01	 1.618270585790723e+00	 1.791239228122042e+00
 1.879594839848633e-01	 1.621495133162564e+00	 1.691546640651939e+00
 1.503052300662377e-01	 1.624092553620127e+00	 1.610000367639536e+00
 1.126609184782738e-01	 1.626080697143680e+00	 1.546861762173667e+00
 7.504814423351923e-02	 1.627477764231905e+00	 1.502320717647895e+00
 3.748778922189638e-02	 1.628302248674145e+00	 1.476500595067680e+00
 0.000000000000000e+00	 1.628572881900711e+00	 1.469463248066349e+00
 3.788723424007510e-01	 1.612784179140129e+00	 2.418931790719492e+00
 3.411875284400819e-01	 1.618738428249461e+00	 2.250825483285619e+00
 3.033940836527992e-01	 1.623992756393148e+00	 2.098932980447159e+00
 2.655169187865384e-01	 1.628563154724507e+00	 1.963894021048038e+00
 2.275803951006083e-01	 1.632466210130370e+00	 1.846258990274760e+00
 1.896082825536040e-01	 1.635719043540108e+00	 1.746492413216859e+00
 1.516237219187161e-01	 1.638339248818289e+00	 1.664976884834892e+00
 1.136491908295131e-01	 1.640344832526921e+00	 1.602017352800393e+00
 7.570647373204954e-02	 1.641754154821212e+00	 1.557845673807751e+00
 3.781663569417570e-02	 1.642585871719799e+00	 1.532625368960774e+00
 0.000000000000000e+00	 1.642858878966899e+00	 1.526456509480878e+00
 3.821669500839457e-01	 1.626808668538665e+00	 2.473486176583464e+00
 3.441544355664312e-01	 1.632814694757902e+00	 2.305391601062002e+00
 3.060323455875985e-01	 1.638114713621036e+00	 2.153431202377944e+00
 2.678258075145910e-01	 1.642724855337668e+00	 2.018293980005221e+00
 2.295593944479702e-01	 1.646661851031305e+00	 1.900578885113034e+00
 1.912570830457364e-01	 1.649942970511941e+00	 1.800797997488300e+00
 1.529422153091992e-01	 1.652585960637322e+00	 1.719380175729433e+00
 1.146374643335000e-01	 1.654608984551381e+00	 1.656675097105810e+00
 7.636480399842863e-02	 1.656030562066033e+00	 1.612957607085466e+00
 3.814548254998362e-02	 1.656869511429404e+00	 1.588432303077240e+00
 0.000000000000000e+00	 1.657144892699808e+00	 1.583238282195540e+00
 3.854615608422766e-01	 1.640833171026356e+00	 2.527193956980199e+00
 3.471213454619858e-01	 1.646890974403806e+00	 2.359156334374399e+00
 3.086706099847795e-01	 1.652236684029017e+00	 2.207174647359762e+00
 2.701346983975204e-01	 1.656886569168003e+00	 2.071988669307235e+00
 2.315383956422299e-01	 1.660857505181086e+00	 1.954247335851815e+00
 1.929058850765158e-01	 1.664166910759013e+00	 1.854511599971405e+00
 1.542607099300037e-01	 1.666832685752855e+00	 1.773257798695590e+00
 1.156257387595986e-01	 1.668873149888614e+00	 1.710881447679730e+00
 7.702313487901102e-02	 1.670306982635067e+00	 1.667701382946178e+00
 3.847432971256679e-02	 1.671153164469973e+00	 1.643964173171108e+00
 0.000000000000000e+00	 1.671430919765895e+00	 1.639848730771096e+00
 3.887561739070783e-01	 1.654857683330742e+00	 2.580099180803835e+00
 3.500882574345220e-01	 1.660967263902613e+00	 2.412164885588576e+00
 3.113088762287797e-01	 1.666358664321857e+00	 2.260209381414787e+00
 2.724435908965959e-01	 1.671048292910997e+00	 2.125024693159587e+00
 2.335173982216118e-01	 1.675053169267265e+00	 2.007311126372842e+00
 1.945546882611978e-01	 1.678390860962273e+00	 1.907679795291136e+00
 1.555792054734463e-01	 1.681079420840518e+00	 1.826655702315614e+00
 1.166140138771731e-01	 1.683137325210182e+00	 1.764681284941972e+00
 7.768146622015146e-02	 1.684583413197011e+00	 1.722120348642085e+00
 3.880317710517176e-02	 1.685436827508512e+00	 1.699262307800948e+00
 0.000000000000000e+00	 1.685716956831615e+00	 1.696326661294581e+00
 3.920507885096861e-01	 1.668882202179363e+00	 2.632244418015935e+00
 3.530551707918164e-01	 1.675043559969767e+00	 2.464460939470316e+00
 3.139471437040367e-01	 1.680480651204323e+00	 2.312579924033899e+00
 2.747524844730875e-01	 1.685210023262131e+00	 2.177447091244818e+00
 2.354964017243407e-01	 1.689248839977401e+00	 2.059815470097846e+00
 1.962034922150377e-01	 1.692614817802672e+00	 1.960347594757279e+00
 1.568977016318438e-01	 1.695326162575941e+00	 1.879618293023990e+00
 1.176022894555876e-01	 1.697401507187642e+00	 1.818117983209799e+00
 7.833979786820437e-02	 1.698859850420562e+00	 1.776256397019077e+00
 3.913202465104514e-02	 1.699720497212033e+00	 1.754366649160012e+00
 0.000000000000000e+00	 1.700003000563425e+00	 1.752709578489973e+00
 3.953454038814352e-01	 1.682906724299760e+00	 2.683670821245526e+00
 3.560220848416451e-01	 1.689119859320706e+00	 2.516086726400870e+00
 3.165854117949879e-01	 1.694602641381182e+00	 2.364329312601812e+00
 2.770613785882645e-01	 1.699371756916888e+00	 2.229299403901739e+00
 2.374754056886408e-01	 1.703444513999047e+00	 2.111804075419644e+00
 1.978522965532911e-01	 1.706838777961158e+00	 2.012558511502778e+00
 1.582161980975129e-01	 1.709572907634753e+00	 1.932188499368826e+00
 1.185905652642063e-01	 1.711665692492552e+00	 1.871233473463384e+00
 7.899812966952448e-02	 1.713136290974417e+00	 1.830150027135064e+00
 3.946087227343351e-02	 1.714004170247544e+00	 1.809315810866394e+00
 0.000000000000000e+00	 1.714289047627778e+00	 1.809033739974565e+00
 1.714289047627778e+00	 0.000000000000000e+00	 1.122370441659627e+01
 1.714004170247544e+00	 3.946087227343405e-02	 1.121631169980743e+01
 1.713136290974417e+00	 7.899812966952499e-02	 1.120708763435160e+01
 1.711665692492551e+00	 1.185905652642067e-01	 1.119595825770801e+01
 1.709572907634753e+00	 1.582161980975134e-01	 1.118284977308618e+01
 1.706838777961159e+00	 1.978522965532914e-01	 1.116768917285689e+01
 1.703444513999047e+00	 2.374754056886410e-01	 1.115040491983119e+01
 1.699371756916888e+00	 2.770613785882647e-01	 1.113092768441787e+01
 1.694602641381181e+00	 3.165854117949879e-01	 1.110919113453381e+01
 1.689119859320706e+00	 3.560220848416451e-01	 1.108513277388426e+01
 1.682906724299760e+00	 3.953454038814352e-01	 1.105869482288704e+01
 1.728574095521189e+00	 0.000000000000000e+00	 1.121073343840405e+01
 1.728286844278154e+00	 3.978969689590382e-02	 1.120346618660299e+01
 1.727411733029215e+00	 7.965641542658061e-02	 1.119439255975796e+01
 1.725928880155543e+00	 1.195787719521365e-01	 1.118345803236105e+01
 1.723818656271432e+00	 1.595346023467900e-01	 1.117060836327837e+01
 1.721061743291110e+00	 1.995009855734061e-01	 1.115579009181143e+01
 1.717639195170523e+00	 2.394542712406711e-01	 1.113895107838382e+01
 1.713532500095309e+00	 2.793701112187154e-01	 1.112004108819491e+01
 1.708723643861422e+00	 3.192234953648744e-01	 1.109901241527077e+01
 1.703195174170718e+00	 3.589887913849909e-01	 1.107582054335197e+01
 1.696930265540624e+00	 3.986397888273382e-01	 1.105042483900138e+01
 1.742859145080407e+00	 0.000000000000000e+00	 1.120010793457837e+01
 1.742569519974292e+00	 4.011852155654502e-02	 1.119301271289190e+01
 1.741687176748694e+00	 8.031470126013213e-02	 1.118410947041578e+01
 1.740192069481785e+00	 1.205669787550092e-01	 1.117336607972427e+01
 1.738064406569329e+00	 1.608530067495478e-01	 1.116075083398426e+01
 1.735284710279628e+00	 2.011496747855981e-01	 1.114623278646112e+01
 1.731833877997279e+00	 2.414331370233990e-01	 1.112978211862574e+01
 1.727693244925074e+00	 2.816788441184743e-01	 1.111137053563246e+01
 1.722844647988404e+00	 3.218615792426328e-01	 1.109097168732793e+01
 1.717270490662191e+00	 3.619554982746882e-01	 1.106856161229000e+01
 1.710953808416969e+00	 4.019341741579514e-01	 1.104411920169303e+01
 1.757144197972236e+00	 0.000000000000000e+00	 1.119169982703208e+01
 1.756852199002485e+00	 4.044734629376737e-02	 1.118483183416324e+01
 1.755962623798535e+00	 8.097298724705353e-02	 1.117612695802642e+01
 1.754455262135521e+00	 1.215551857881995e-01	 1.116557833499590e+01
 1.752310160190644e+00	 1.621714114596792e-01	 1.115317967434156e+01
 1.749507680586243e+00	 2.027983643822760e-01	 1.113892541245469e+01
 1.746028564135532e+00	 2.434120032677273e-01	 1.112281087690344e+01
 1.741853993058423e+00	 2.839875775568943e-01	 1.110483245963096e+01
 1.736965655409712e+00	 3.244996637360027e-01	 1.108498779835890e+01
 1.731345810437356e+00	 3.649222058567783e-01	 1.106327596499067e+01
 1.724977354564966e+00	 4.052285602575090e-01	 1.103969765952455e+01
 1.771429255863481e+00	 0.000000000000000e+00	 1.118538516965347e+01
 1.771134883029259e+00	 4.077617114598067e-02	 1.117880795923782e+01
 1.770238075844416e+00	 8.163127346421889e-02	 1.117033720826774e+01
 1.768718459780996e+00	 1.225433931670820e-01	 1.115999409035728e+01
 1.766555918797576e+00	 1.634898166310768e-01	 1.114780051896065e+01
 1.763730655870483e+00	 2.044470545558483e-01	 1.113377908804067e+01
 1.760223255241496e+00	 2.453908702045582e-01	 1.111795300109906e+01
 1.756014746147593e+00	 2.862963118033288e-01	 1.110034598854020e+01
 1.751086667772930e+00	 3.271377491527243e-01	 1.108098221350608e+01
 1.745421135138444e+00	 3.678889144773020e-01	 1.105988616650490e+01
 1.739000905620783e+00	 4.085229475102455e-01	 1.103708254935539e+01
 1.785714320420949e+00	 0.000000000000000e+00	 1.118104398303336e+01
 1.785417573721143e+00	 4.110499615159467e-02	 1.117482919613778e+01
 1.784513534552017e+00	 8.228955998850228e-02	 1.116663585703554e+01
 1.782981664082449e+00	 1.235316010070312e-01	 1.115651586069228e+01
 1.780801684052323e+00	 1.648082224176332e-01	 1.114452202210341e+01
 1.777953637791879e+00	 2.060957454987233e-01	 1.113070777556058e+01
 1.774417952971385e+00	 2.473697380647936e-01	 1.111512683816586e+01
 1.770175505844826e+00	 2.886050471271306e-01	 1.109783283833857e+01
 1.765207686725639e+00	 3.297758358005370e-01	 1.107887891069895e+01
 1.759496466407687e+00	 3.708556244823006e-01	 1.105831725941042e+01
 1.753024463220587e+00	 4.118173363003946e-01	 1.103619869280951e+01
 1.799999393311444e+00	 0.000000000000000e+00	 1.117856009706410e+01
 1.799700272744663e+00	 4.143382134901918e-02	 1.117278720529741e+01
 1.798789001587018e+00	 8.294784689677770e-02	 1.116492185353211e+01
 1.797244876704124e+00	 1.245198094234218e-01	 1.115504925570244e+01
 1.795047457617085e+00	 1.661266289732409e-01	 1.114325573785470e+01
 1.792176628009957e+00	 2.077444374033096e-01	 1.112962816858640e+01
 1.788612658981417e+00	 2.493486070793360e-01	 1.111425332702044e+01
 1.784336273802357e+00	 2.909137837976530e-01	 1.109721720994778e+01
 1.779328713915424e+00	 3.324139239871812e-01	 1.107860428093922e+01
 1.773571805887316e+00	 3.738223362178146e-01	 1.105849666549688e+01
 1.767048029000547e+00	 4.151117270121904e-01	 1.103697329767419e+01
 1.814284476201773e+00	 0.000000000000000e+00	 1.117782100097635e+01
 1.813982981766347e+00	 4.176264677666395e-02	 1.117257705971033e+01
 1.813064478615097e+00	 8.360613426591922e-02	 1.116509732982450e+01
 1.811508099310267e+00	 1.255080185316283e-01	 1.115550285806524e+01
 1.809293241154060e+00	 1.674450364517926e-01	 1.114391600595638e+01
 1.806399628184248e+00	 2.093931304620157e-01	 1.113045958439134e+01
 1.802807374927804e+00	 2.513274774790874e-01	 1.111525589649620e+01
 1.798497051672427e+00	 2.932225220842489e-01	 1.109842569139986e+01
 1.793449750989868e+00	 3.350520140203967e-01	 1.108008703329782e+01
 1.787647155219565e+00	 3.767890500298854e-01	 1.106035409209678e+01
 1.781071604596829e+00	 4.184061200298669e-01	 1.103933586395828e+01
 1.828569570758740e+00	 0.000000000000000e+00	 1.117871770040706e+01
 1.828265702452721e+00	 4.209147247293873e-02	 1.117409711163379e+01
 1.827339967301935e+00	 8.426442217280079e-02	 1.116706747651851e+01
 1.825771333565118e+00	 1.264962284470254e-01	 1.115778810730498e+01
 1.823539036325449e+00	 1.687634450071806e-01	 1.114641984299392e+01
 1.820622639974282e+00	 2.110418248672499e-01	 1.113312386146213e+01
 1.817002102466761e+00	 2.533063494949500e-01	 1.111806036808132e+01
 1.812657841107275e+00	 2.955312622562716e-01	 1.110138716459118e+01
 1.807570799596554e+00	 3.376901062079237e-01	 1.108325810436637e+01
 1.801722516046665e+00	 3.797557662645540e-01	 1.106382144280806e+01
 1.795095191645604e+00	 4.217005157376583e-01	 1.104321809435473e+01
 1.842854678649152e+00	 0.000000000000000e+00	 1.118114458111680e+01
 1.842548436470314e+00	 4.242029847625331e-02	 1.117724886549400e+01
 1.841615469313211e+00	 8.492271069429662e-02	 1.117074042421659e+01
 1.840034581132922e+00	 1.274844392849876e-01	 1.116181918906609e+01
 1.837784844793450e+00	 1.700818547932978e-01	 1.115068683864534e+01
 1.834845665039586e+00	 2.126905208114208e-01	 1.113754526177921e+01
 1.831196843254505e+00	 2.552852233578261e-01	 1.112259486318150e+01
 1.826818643759138e+00	 2.978400045830740e-01	 1.110603271637429e+01
 1.821691861383066e+00	 3.403282008575017e-01	 1.108805057192084e+01
 1.815797890010847e+00	 3.827224852678610e-01	 1.106883273237006e+01
 1.809118791783039e+00	 4.249949145197988e-01	 1.104855380886881e+01
 1.857139801539814e+00	 0.000000000000000e+00	 1.118499927899841e+01
 1.856831185485652e+00	 4.274912482501749e-02	 1.118193685665875e+01
 1.855890986314602e+00	 8.558099990728060e-02	 1.117602713044804e+01
 1.854297843677920e+00	 1.284726511608895e-01	 1.116751292949807e+01
 1.852030668220261e+00	 1.714002659640365e-01	 1.115663905671945e+01
 1.849068705039691e+00	 2.143392184869368e-01	 1.114365037760804e+01
 1.845391598947249e+00	 2.572640992986178e-01	 1.112878971466380e+01
 1.840979461280257e+00	 3.001487493340095e-01	 1.111229555375420e+01
 1.835812937996986e+00	 3.429662982768709e-01	 1.109439957257098e+01
 1.829873278754343e+00	 3.856892073858478e-01	 1.107532400546905e+01
 1.823142406645302e+00	 4.282893167605222e-01	 1.105527886338715e+01
 1.682906724299760e+00	 3.953454038814352e-01	 1.105869482288704e+01
 1.675947749803660e+00	 4.345261195934738e-01	 1.102940560324178e+01
 1.668227280467807e+00	 4.735400391875617e-01	 1.099690128515320e+01
 1.659730884666089e+00	 5.123598044659057e-01	 1.096126796848198e+01
 1.650445008658129e+00	 5.509577006915951e-01	 1.092255128273577e+01
 1.640357038728711e+00	 5.893057194590274e-01	 1.088075222046862e+01
 1.629455361754438e+00	 6.273756249509855e-01	 1.083582317334120e+01
 1.617729423793474e+00	 6.651390233461127e-01	 1.078766424799405e+01
 1.605169786290770e+00	 7.025674351061066e-01	 1.073611994120878e+01
 1.591768179491655e+00	 7.396323698384317e-01	 1.068097625459224e+01
 1.577517552661069e+00	 7.763054033982315e-01	 1.062195832801313e+01
 1.696930265540624e+00	 3.986397888273382e-01	 1.105042483900138e+01
 1.689913302408431e+00	 4.381469946384857e-01	 1.102226079117566e+01
 1.682128498954506e+00	 4.774860144314484e-01	 1.099086067664252e+01
 1.673561303295025e+00	 5.166292620345447e-01	 1.095630984426765e+01
 1.664198048747260e+00	 5.555487917659617e-01	 1.091865271571581e+01
 1.654026016486803e+00	 5.942163618280745e-01	 1.087788859097419e+01
 1.643033496618929e+00	 6.326035011166402e-01	 1.083396765911292e+01
 1.631209847256555e+00	 6.706815792066391e-01	 1.078678729209663e+01
 1.618545551193824e+00	 7.084218792418324e-01	 1.073618870179551e+01
 1.605032269764788e+00	 7.457956734213033e-01	 1.068195404110020e+01
 1.590662893481110e+00	 7.827743007438482e-01	 1.062380402902031e+01
 1.710953808416969e+00	 4.019341741579514e-01	 1.104411920169303e+01
 1.703878856642000e+00	 4.417678701064068e-01	 1.101699179990813e+01
 1.696029719062592e+00	 4.814319901362581e-01	 1.098661023378459e+01
 1.687391723537195e+00	 5.208987201019111e-01	 1.095305798180395e+01
 1.677951090440714e+00	 5.601398833766248e-01	 1.091637717925830e+01
 1.667694995839533e+00	 5.991270047707271e-01	 1.087656440892237e+01
 1.656611633067583e+00	 6.378313778929233e-01	 1.083356669988419e+01
 1.644690272292521e+00	 6.762241357145047e-01	 1.078727781284659e+01
 1.631921317657670e+00	 7.142763240612714e-01	 1.073753489253697e+01
 1.618296361585791e+00	 7.519589777238973e-01	 1.068411556859989e+01
 1.603808235835264e+00	 7.892431988448088e-01	 1.062673558528897e+01
 1.724977354564966e+00	 4.052285602575090e-01	 1.103969765952455e+01
 1.717844414133743e+00	 4.453887464195300e-01	 1.101351756091506e+01
 1.709930942413911e+00	 4.853779667621866e-01	 1.098406836240471e+01
 1.701222147006159e+00	 5.251681791659193e-01	 1.095143058300138e+01
 1.691704135342993e+00	 5.647309760590074e-01	 1.091564302279484e+01
 1.681363978381567e+00	 6.040376488596787e-01	 1.087669855156795e+01
 1.670189772684441e+00	 6.430592558895325e-01	 1.083454010882437e+01
 1.658170700473988e+00	 6.817666935161188e-01	 1.078905699388065e+01
 1.645297087242689e+00	 7.201307702472223e-01	 1.074008152696947e+01
 1.631560456501998e+00	 7.581222834650542e-01	 1.068738616300135e+01
 1.616953581256991e+00	 7.957120984556170e-01	 1.063068113852804e+01
 1.739000905620783e+00	 4.085229475102455e-01	 1.103708254935539e+01
 1.731809976513040e+00	 4.490096240001489e-01	 1.101175962025958e+01
 1.723832170630307e+00	 4.893239447694294e-01	 1.098315609980547e+01
 1.715052575315472e+00	 5.294376397244838e-01	 1.095134848776086e+01
 1.705457185058600e+00	 5.693220703485321e-01	 1.091637122892655e+01
 1.695032965707572e+00	 6.089482946676218e-01	 1.087821251225013e+01
 1.683767917053543e+00	 6.482871357161656e-01	 1.083681028494201e+01
 1.671651133373571e+00	 6.873092532578903e-01	 1.079204856041675e+01
 1.658672861509265e+00	 7.259852184824843e-01	 1.074375410113796e+01
 1.644824556060741e+00	 7.642855913636147e-01	 1.069169355809327e+01
 1.630098931279753e+00	 8.021810003307787e-01	 1.063557114746233e+01
 1.753024463220587e+00	 4.118173363003946e-01	 1.103619869280951e+01
 1.745775545409268e+00	 4.526305032705572e-01	 1.101164203400909e+01
 1.737733405333627e+00	 4.932699246181824e-01	 1.098379700950893e+01
 1.728883010078692e+00	 5.337071022755192e-01	 1.095273506845624e+01
 1.719210241192034e+00	 5.739131667806220e-01	 1.091848530810016e+01
 1.708701959412214e+00	 6.138589427672492e-01	 1.088103029575262e+01
 1.697346067758932e+00	 6.535150179825200e-01	 1.084030210965559e+01
 1.685131572563887e+00	 6.928518155862283e-01	 1.079617867759585e+01
 1.672048642017779e+00	 7.318396694498565e-01	 1.074848049430144e+01
 1.658088661809354e+00	 7.704489021384190e-01	 1.069696779923440e+01
 1.643244287437012e+00	 8.086499052247982e-01	 1.064133829515942e+01
 1.767048029000547e+00	 4.151117270121904e-01	 1.103697329767419e+01
 1.759741122451803e+00	 4.562513846530477e-01	 1.101309126863344e+01
 1.751634648145715e+00	 4.972159067686412e-01	 1.098591708101230e+01
 1.742713452909377e+00	 5.379765673169402e-01	 1.095551612944252e+01
 1.732963305347800e+00	 5.785042658906993e-01	 1.092191119830061e+01
 1.722370961090161e+00	 6.187695937312541e-01	 1.088507831864776e+01
 1.710924226384649e+00	 6.587429032982933e-01	 1.084494284829044e+01
 1.698612019617552e+00	 6.983943811475415e-01	 1.080137585366566e+01
 1.685424430328613e+00	 7.376941238321379e-01	 1.075419087436777e+01
 1.671352775295170e+00	 7.766122165083076e-01	 1.070314115163224e+01
 1.656389651262230e+00	 8.151188138921801e-01	 1.064791740077058e+01
 1.781071604596829e+00	 4.184061200298669e-01	 1.103933586395828e+01
 1.773706709270024e+00	 4.598722685699136e-01	 1.101603610610975e+01
 1.765535900688415e+00	 5.011618916810018e-01	 1.098944463428045e+01
 1.756543905421082e+00	 5.422460353466612e-01	 1.095961981131268e+01
 1.746716379130398e+00	 5.830953682141868e-01	 1.092657716948353e+01
 1.736039972336078e+00	 6.236802481323294e-01	 1.089028531434982e+01
 1.724502394514734e+00	 6.639707922731830e-01	 1.085066205623050e+01
 1.712092476107182e+00	 7.039369505882386e-01	 1.080757084773919e+01
 1.698800228002152e+00	 7.435485823121282e-01	 1.076081760779713e+01
 1.684616898065521e+00	 7.827755351921205e-01	 1.071014801295584e+01
 1.669535024288868e+00	 8.215877270874299e-01	 1.065524533544226e+01
 1.795095191645604e+00	 4.217005157376583e-01	 1.104321809435473e+01
 1.787672307493307e+00	 4.634931554434489e-01	 1.102040755347644e+01
 1.779437164583574e+00	 5.051078798154593e-01	 1.099431022871640e+01
 1.770374369227367e+00	 5.465155068625966e-01	 1.096497649964359e+01
 1.760469464144329e+00	 5.876864742865074e-01	 1.093241373248850e+01
 1.749708994744631e+00	 6.285909065431676e-01	 1.089658224261990e+01
 1.738080573733230e+00	 6.691986855168867e-01	 1.085739148946999e+01
 1.725572943605393e+00	 7.094795245547292e-01	 1.081469658187837e+01
 1.712176036598775e+00	 7.494030455726258e-01	 1.076829517372959e+01
 1.697881031667741e+00	 7.889388589086984e-01	 1.071792483004589e+01
 1.682680408050388e+00	 8.280566455650521e-01	 1.066326094217011e+01
 1.809118791783039e+00	 4.249949145197988e-01	 1.104855380886881e+01
 1.801637918751031e+00	 4.671140456959464e-01	 1.102613875659491e+01
 1.793338441453034e+00	 5.090538716322103e-01	 1.100044657636658e+01
 1.784204845941787e+00	 5.507849823626610e-01	 1.097151873798709e+01
 1.774222561994096e+00	 5.922775846430840e-01	 1.093935355218980e+01
 1.763378029910488e+00	 6.335015695364624e-01	 1.090390220328075e+01
 1.751658765624176e+00	 6.744265836391019e-01	 1.086506501932658e+01
 1.739053423684801e+00	 7.150221036934215e-01	 1.082268805726734e+01
 1.725551857678869e+00	 7.552575142964307e-01	 1.077656008210767e+01
 1.711145177649163e+00	 7.951021883768816e-01	 1.072641001949940e+01
 1.695825804080252e+00	 8.345255700795510e-01	 1.067190495938150e+01
 1.823142406645302e+00	 4.282893167605222e-01	 1.105527886338715e+01
 1.815603544672573e+00	 4.707349397496997e-01	 1.103316491789230e+01
 1.807239732918643e+00	 5.129998675914498e-01	 1.100778845913301e+01
 1.798035337177901e+00	 5.550544623447690e-01	 1.097918114487773e+01
 1.787975674284199e+00	 5.968686998193390e-01	 1.094733136465640e+01
 1.777047079428317e+00	 6.384122376849063e-01	 1.091218035391489e+01
 1.765236971771615e+00	 6.796544872495263e-01	 1.087361855109150e+01
 1.752533917918022e+00	 7.205646886507250e-01	 1.083148227425577e+01
 1.738927692802811e+00	 7.611119891663414e-01	 1.078555079557864e+01
 1.724409337557121e+00	 8.012655243155106e-01	 1.073554389192074e+01
 1.708971213911921e+00	 8.409945013854322e-01	 1.068111994804578e+01
 1.577517552661069e+00	 7.763054033982315e-01	 1.062195832801313e+01
 1.562411034908616e+00	 8.125607776635853e-01	 1.055737491098172e+01
 1.546445124723613e+00	 8.483678438587413e-01	 1.048566324712105e+01
 1.529616701598890e+00	 8.836988399894217e-01	 1.040667055080875e+01
 1.511924025818336e+00	 9.185263933820198e-01	 1.032022956671446e+01
 1.493366767095691e+00	 9.528236030216212e-01	 1.022615913828744e+01
 1.473946027928508e+00	 9.865641215718935e-01	 1.012426503199444e+01
 1.453664361413024e+00	 1.019722236591529e+00	 1.001434102136418e+01
 1.432525783302651e+00	 1.052272950456313e+00	 9.896170229768888e+00
 1.410535778132862e+00	 1.084192058495051e+00	 9.769526725436418e+00
 1.387701299278052e+00	 1.115456224851666e+00	 9.634177356583113e+00
 1.590662893481110e+00	 7.827743007438482e-01	 1.062380402902031e+01
 1.575430494197757e+00	 8.193317884469776e-01	 1.056010978748115e+01
 1.559331541226210e+00	 8.554372323608842e-01	 1.048936336954613e+01
 1.542362888056345e+00	 8.910626391525762e-01	 1.041139676345768e+01
 1.524522780475129e+00	 9.261804080539138e-01	 1.032602869410572e+01
 1.505810885444059e+00	 9.607634138857474e-01	 1.023306537133608e+01
 1.486228314647727e+00	 9.947850897612733e-01	 1.013230148319907e+01
 1.465777642457148e+00	 1.028219508979247e+00	 1.002352143513123e+01
 1.444462918088727e+00	 1.061041465612036e+00	 9.906500831054126e+00
 1.422289671780186e+00	 1.093226553292651e+00	 9.781008187130627e+00
 1.399264914847900e+00	 1.124751241708993e+00	 9.646806863584509e+00
 1.603808235835264e+00	 7.892431988448088e-01	 1.062673558528897e+01
 1.588449955006404e+00	 8.261028000209216e-01	 1.056383141163473e+01
 1.572217959232855e+00	 8.625066216883476e-01	 1.049395342506946e+01
 1.555109076001540e+00	 8.984264391753550e-01	 1.041691873208577e+01
 1.537121536602497e+00	 9.338344236192464e-01	 1.033253239530813e+01
 1.518255005244984e+00	 9.687032256766132e-01	 1.024058835943577e+01
 1.498510602800634e+00	 1.003006058910155e+00	 1.014087061105849e+01
 1.477890924915242e+00	 1.036716782358670e+00	 1.003315457029559e+01
 1.456400054268210e+00	 1.069809981791085e+00	 9.917208707320547e+00
 1.434043566799518e+00	 1.102261049144593e+00	 9.792796371789830e+00
 1.410828531767526e+00	 1.134046259651052e+00	 9.659677818133856e+00
 1.616953581256991e+00	 7.957120984556170e-01	 1.063068113852804e+01
 1.601469418853318e+00	 8.328738131751846e-01	 1.056847098556756e+01
 1.585104380246781e+00	 8.695760126657284e-01	 1.049936764528343e+01
 1.567855266921338e+00	 9.057902409167240e-01	 1.042317368163297e+01
 1.549720295670102e+00	 9.414884409708640e-01	 1.033968084747436e+01
 1.530699127950089e+00	 9.766430393204287e-01	 1.024867118600621e+01
 1.510792893819975e+00	 1.011227029977573e+00	 1.014991835475593e+01
 1.490004210200340e+00	 1.045214057721086e+00	 1.004318916704319e+01
 1.468337193233596e+00	 1.078578500016408e+00	 9.928245341085230e+00
 1.445797464561987e+00	 1.111295547104869e+00	 9.804845442070551e+00
 1.422392151385875e+00	 1.143341279762238e+00	 9.672746997746380e+00
 1.630098931279753e+00	 8.021810003307787e-01	 1.063557114746233e+01
 1.614488887257262e+00	 8.396448286995342e-01	 1.057396192967349e+01
 1.597990805771218e+00	 8.766454061176232e-01	 1.050554238230630e+01
 1.580601462302604e+00	 9.131540452356487e-01	 1.043010086099338e+01
 1.562319059147608e+00	 9.491424610016120e-01	 1.034741615647247e+01
 1.543143255010995e+00	 9.845828557434052e-01	 1.025725876943195e+01
 1.523075189138495e+00	 1.019448003922562e+00	 1.015939239632395e+01
 1.502117499725479e+00	 1.053711336057785e+00	 1.005357561806598e+01
 1.480274336377378e+00	 1.087347021310958e+00	 9.939563778926178e+00
 1.457551366438721e+00	 1.120330048227474e+00	 9.817111038256376e+00
 1.433955775051891e+00	 1.152636303126949e+00	 9.685972573241100e+00
 1.643244287437012e+00	 8.086499052247982e-01	 1.064133829515942e+01
 1.627508361736999e+00	 8.464158473837371e-01	 1.058023979389285e+01
 1.610877237309396e+00	 8.837148028686295e-01	 1.051241602397066e+01
 1.593347663632206e+00	 9.205178529910945e-01	 1.043764146206772e+01
 1.574917828504675e+00	 9.567964846043375e-01	 1.035568227974913e+01
 1.555587387879325e+00	 9.925226758717542e-01	 1.026629778967677e+01
 1.535357490188940e+00	 1.027668981704154e+00	 1.016924209094469e+01
 1.514230794903695e+00	 1.062208618360056e+00	 1.006426590247724e+01
 1.492211485092054e+00	 1.096115546697684e+00	 9.951118568936531e+00
 1.469305273800852e+00	 1.129364553566402e+00	 9.829550219170848e+00
 1.445519404114519e+00	 1.161931330829578e+00	 9.699314053027924e+00
 1.656389651262230e+00	 8.151188138921801e-01	 1.064791740077058e+01
 1.640527843811289e+00	 8.531868700175608e-01	 1.058724217321601e+01
 1.623763676364548e+00	 8.907842037433427e-01	 1.051992891305152e+01
 1.606093872397005e+00	 9.278816650420267e-01	 1.044573854267127e+01
 1.587516605210965e+00	 9.644505126718853e-01	 1.036442495286675e+01
 1.568031528006701e+00	 1.000462500631687e+00	 1.027573661839338e+01
 1.547639798404058e+00	 1.035889964281385e+00	 1.017941840056988e+01
 1.526344097148023e+00	 1.070705905619187e+00	 1.007521352287425e+01
 1.504148640770117e+00	 1.104884077199536e+00	 9.962865701157899e+00
 1.481059188019506e+00	 1.138399064175646e+00	 9.842121405904617e+00
 1.457083039922703e+00	 1.171226363954524e+00	 9.712732230048299e+00
 1.669535024288868e+00	 8.215877270874299e-01	 1.065524533544226e+01
 1.653547334998897e+00	 8.599578973907720e-01	 1.059490862717982e+01
 1.636650124439903e+00	 8.978536095663603e-01	 1.052802327031117e+01
 1.618840090083870e+00	 9.352454822474111e-01	 1.045433695308484e+01
 1.600115390736142e+00	 9.721045460971018e-01	 1.037359161951213e+01
 1.580475676844747e+00	 1.008402330949414e+00	 1.028552525233578e+01
 1.559922115216593e+00	 1.044110952613289e+00	 1.018987383067752e+01
 1.538457407871499e+00	 1.079203198826468e+00	 1.008637344537523e+01
 1.516085804804064e+00	 1.113652613839465e+00	 9.974762550828441e+00
 1.492813110465814e+00	 1.147433581109201e+00	 9.854784328201804e+00
 1.468646683825388e+00	 1.180521403586180e+00	 9.726189131223139e+00
 1.682680408050388e+00	 8.280566455650521e-01	 1.066326094217011e+01
 1.666566836818583e+00	 8.667289302931382e-01	 1.060318060313838e+01
 1.649536583038693e+00	 9.049230211622783e-01	 1.053664312115214e+01
 1.631586318179661e+00	 9.426093054662129e-01	 1.046338326604929e+01
 1.612714186549867e+00	 9.797585857728328e-01	 1.038313136478657e+01
 1.592919835845084e+00	 1.016342167751147e+00	 1.029561524989353e+01
 1.572204442059292e+00	 1.052331947658898e+00	 1.020056236999385e+01
 1.550570728487159e+00	 1.087700498973188e+00	 1.009770204246752e+01
 1.528022978586386e+00	 1.122421157640422e+00	 9.986767824291729e+00
 1.504567042510903e+00	 1.156468105421060e+00	 9.867499973359960e+00
 1.480210337171517e+00	 1.189816450808942e+00	 9.739647969270921e+00
 1.695825804080252e+00	 8.345255700795510e-01	 1.067190495938150e+01
 1.679586350789110e+00	 8.734999695144262e-01	 1.061200136310344e+01
 1.662423053664149e+00	 9.119924393556940e-01	 1.054573422568231e+01
 1.644332558171247e+00	 9.499731355573974e-01	 1.047282571001693e+01
 1.625312994121802e+00	 9.874126325919251e-01	 1.039299485159952e+01
 1.605364006459333e+00	 1.024282011963096e+00	 1.030595967057860e+01
 1.584486780364901e+00	 1.060552950377249e+00	 1.021143943301943e+01
 1.562684060408038e+00	 1.096197807050635e+00	 1.010915703851463e+01
 1.539960163509583e+00	 1.131189709625357e+00	 9.998841507422110e+00
 1.516320985525905e+00	 1.165502638165219e+00	 9.880230537507337e+00
 1.491774001310037e+00	 1.199111506707208e+00	 9.753073096767242e+00
 1.708971213911921e+00	 8.409945013854322e-01	 1.068111994804578e+01
 1.692605878429240e+00	 8.802710158444028e-01	 1.062131591396209e+01
 1.675309537819501e+00	 9.190618649712039e-01	 1.055524401200859e+01
 1.657078811545492e+00	 9.573369733799312e-01	 1.048261410548420e+01
 1.637911814921611e+00	 9.950666874472247e-01	 1.040313425999849e+01
 1.617808190139119e+00	 1.032221864511473e+00	 1.031651301730565e+01
 1.596769131566166e+00	 1.068773961727374e+00	 1.022246180520856e+01
 1.574797405047172e+00	 1.104695124050099e+00	 1.012069745777882e+01
 1.551897360966147e+00	 1.139958270817221e+00	 1.001094481643087e+01
 1.528074940881947e+00	 1.174537180395669e+00	 9.892939379129373e+00
 1.503337677589890e+00	 1.208406572365371e+00	 9.766429962325217e+00
 1.387701299278052e+00	 1.115456224851666e+00	 9.634177356583113e+00
 1.364030759277465e+00	 1.146043058270738e+00	 9.489062459657085e+00
 1.339534006818105e+00	 1.175931189999760e+00	 9.333321071772332e+00
 1.314222318998515e+00	 1.205100331942848e+00	 9.167057375990439e+00
 1.288108380333235e+00	 1.233531336090155e+00	 8.990433795583410e+00
 1.261206252148415e+00	 1.261206252148416e+00	 8.803670793051605e+00
 1.233531336090155e+00	 1.288108380333236e+00	 8.607046034736278e+00
 1.205100331942847e+00	 1.314222318998515e+00	 8.400892927898173e+00
 1.175931189999759e+00	 1.339534006818105e+00	 8.185598548833822e+00
 1.146043058270737e+00	 1.364030759277465e+00	 7.961600991912618e+00
 1.115456224851666e+00	 1.387701299278052e+00	 7.729386180015045e+00
 1.399264914847900e+00	 1.124751241708993e+00	 9.646806863584509e+00
 1.375397129932205e+00	 1.155592953020909e+00	 9.502918088459779e+00
 1.350696247788508e+00	 1.185730140411611e+00	 9.348549243758562e+00
 1.325173639486599e+00	 1.215142346725971e+00	 9.183783011414132e+00
 1.298842095240169e+00	 1.243810264395152e+00	 9.008759387048638e+00
 1.271715793547383e+00	 1.271715793547383e+00	 8.823675642392498e+00
 1.243810264395151e+00	 1.298842095240169e+00	 8.628785662865008e+00
 1.215142346725971e+00	 1.325173639486600e+00	 8.424398664738970e+00
 1.185730140411611e+00	 1.350696247788508e+00	 8.210877307866925e+00
 1.155592953020908e+00	 1.375397129932205e+00	 7.988635231173666e+00
 1.124751241708993e+00	 1.399264914847900e+00	 7.758134048694128e+00
 1.410828531767526e+00	 1.134046259651052e+00	 9.659677818133856e+00
 1.386763501913673e+00	 1.165142848885558e+00	 9.516950582379621e+00
 1.361858490061780e+00	 1.195529091967020e+00	 9.363886279977152e+00
 1.336124961252898e+00	 1.225184362681042e+00	 9.200547226976717e+00
 1.309575811399881e+00	 1.254089193899776e+00	 9.027052185525241e+00
 1.282225336172927e+00	 1.282225336172928e+00	 8.843576480535148e+00
 1.254089193899775e+00	 1.309575811399881e+00	 8.650351500395562e+00
 1.225184362681042e+00	 1.336124961252899e+00	 8.447663583840622e+00
 1.195529091967019e+00	 1.361858490061780e+00	 8.235852306510559e+00
 1.165142848885558e+00	 1.386763501913674e+00	 8.015308191890755e+00
 1.134046259651052e+00	 1.410828531767526e+00	 7.786469881871517e+00
 1.422392151385875e+00	 1.143341279762238e+00	 9.672746997746380e+00
 1.398129876547819e+00	 1.174692746978819e+00	 9.531119410993671e+00
 1.373020734940072e+00	 1.205328045809172e+00	 9.379294550694395e+00
 1.347076285574974e+00	 1.235226380979596e+00	 9.217315481874749e+00
 1.320309530064563e+00	 1.264368125803190e+00	 9.045280905694886e+00
 1.292734881251103e+00	 1.292734881251103e+00	 8.863345421359119e+00
 1.264368125803190e+00	 1.320309530064563e+00	 8.671719180278119e+00
 1.235226380979596e+00	 1.347076285574974e+00	 8.470666932427459e+00
 1.205328045809172e+00	 1.373020734940072e+00	 8.260506476145903e+00
 1.174692746978818e+00	 1.398129876547820e+00	 8.041606533696816e+00
 1.143341279762238e+00	 1.422392151385875e+00	 7.814384085459164e+00
 1.433955775051891e+00	 1.152636303126949e+00	 9.685972573241100e+00
 1.409496255160591e+00	 1.184242648414825e+00	 9.545385350373355e+00
 1.384182983725537e+00	 1.215127003081255e+00	 9.394737639135240e+00
 1.358027613730387e+00	 1.245268402793169e+00	 9.234054348658564e+00
 1.331043252486407e+00	 1.274647061304560e+00	 9.063415270617618e+00
 1.303244430007965e+00	 1.303244430007966e+00	 8.882955477512764e+00
 1.274647061304560e+00	 1.331043252486408e+00	 8.692865120756078e+00
 1.245268402793168e+00	 1.358027613730388e+00	 8.493388626470374e+00
 1.215127003081255e+00	 1.384182983725537e+00	 8.284823298099164e+00
 1.184242648414824e+00	 1.409496255160592e+00	 8.067517345944147e+00
 1.152636303126949e+00	 1.433955775051891e+00	 7.841867374278867e+00
 1.445519404114519e+00	 1.161931330829578e+00	 9.699314053027924e+00
 1.420862639077938e+00	 1.193792554307709e+00	 9.559710430845184e+00
 1.395345237720325e+00	 1.224925964926454e+00	 9.410180292986752e+00
 1.368978946996702e+00	 1.255310429293297e+00	 9.250731468721053e+00
 1.341776979917606e+00	 1.284926001603051e+00	 9.081425971421080e+00
 1.313753983669569e+00	 1.313753983669570e+00	 8.902380524487979e+00
 1.284926001603050e+00	 1.341776979917607e+00	 8.713766493980927e+00
 1.255310429293297e+00	 1.368978946996703e+00	 8.515809223964606e+00
 1.224925964926455e+00	 1.395345237720325e+00	 8.308786781672200e+00
 1.193792554307708e+00	 1.420862639077939e+00	 8.093028130544852e+00
 1.161931330829579e+00	 1.445519404114519e+00	 7.868910759735583e+00
 1.457083039922703e+00	 1.171226363954524e+00	 9.712732230048299e+00
 1.432229029625809e+00	 1.203342465771605e+00	 9.574057887239624e+00
 1.406507498226588e+00	 1.234724932487957e+00	 9.425588378211433e+00
 1.379930286651479e+00	 1.265352461651516e+00	 9.267315509906808e+00
 1.352510713610353e+00	 1.295204947897826e+00	 9.099284628909633e+00
 1.324263543461969e+00	 1.324263543461970e+00	 8.921595266406086e+00
 1.295204947897825e+00	 1.352510713610354e+00	 8.734401196121960e+00
 1.265352461651516e+00	 1.379930286651479e+00	 8.537909899480322e+00
 1.234724932487956e+00	 1.406507498226588e+00	 8.332381443219594e+00
 1.203342465771604e+00	 1.432229029625810e+00	 8.118126785628492e+00
 1.171226363954523e+00	 1.457083039922703e+00	 7.895505538077747e+00
 1.468646683825388e+00	 1.180521403586180e+00	 9.726189131223139e+00
 1.443595428130154e+00	 1.212892383920647e+00	 9.588392111490879e+00
 1.417669766546477e+00	 1.244523906908949e+00	 9.440928835043005e+00
 1.390881633972279e+00	 1.275394501039364e+00	 9.283776126124081e+00
 1.363244454816839e+00	 1.305483901388050e+00	 9.116963756987717e+00
 1.334773110611222e+00	 1.334773110611222e+00	 8.940575203420460e+00
 1.305483901388049e+00	 1.363244454816840e+00	 8.754747818888553e+00
 1.275394501039363e+00	 1.390881633972279e+00	 8.559672419915652e+00
 1.244523906908948e+00	 1.417669766546476e+00	 8.355592286214421e+00
 1.212892383920646e+00	 1.443595428130154e+00	 8.142801589972011e+00
 1.180521403586179e+00	 1.468646683825388e+00	 7.921643279212341e+00
 1.480210337171517e+00	 1.189816450808942e+00	 9.739647969270921e+00
 1.454961835916920e+00	 1.222442309868967e+00	 9.602678607459085e+00
 1.428832043982143e+00	 1.254322889332617e+00	 9.456169636045434e+00
 1.401832990236666e+00	 1.285436548628375e+00	 9.300083918850579e+00
 1.373978204789257e+00	 1.315762863272888e+00	 9.134436727797999e+00
 1.345282686343380e+00	 1.345282686343381e+00	 8.959296600647455e+00
 1.315762863272887e+00	 1.373978204789257e+00	 8.774785622387505e+00
 1.285436548628374e+00	 1.401832990236666e+00	 8.581079121386653e+00
 1.254322889332617e+00	 1.428832043982143e+00	 8.378404782248619e+00
 1.222442309868966e+00	 1.454961835916921e+00	 8.167041188159672e+00
 1.189816450808942e+00	 1.480210337171518e+00	 7.947315816044473e+00
 1.491774001310037e+00	 1.199111506707208e+00	 9.753073096767242e+00
 1.466328254312057e+00	 1.231992244730699e+00	 9.616883947854214e+00
 1.439994331835738e+00	 1.264121880902148e+00	 9.471279746122997e+00
 1.412784356722201e+00	 1.295478605590086e+00	 9.316210400429970e+00
 1.384711964779798e+00	 1.326041834751505e+00	 9.151677738481421e+00
 1.355792271884501e+00	 1.355792271884501e+00	 8.977736458542818e+00
 1.326041834751504e+00	 1.384711964779799e+00	 8.794494509243103e+00
 1.295478605590085e+00	 1.412784356722201e+00	 8.602112887192410e+00
 1.264121880902147e+00	 1.439994331835739e+00	 8.400804852917222e+00
 1.231992244730698e+00	 1.466328254312057e+00	 8.190834576433371e+00
 1.199111506707207e+00	 1.491774001310037e+00	 7.972515234312765e+00
 1.503337677589890e+00	 1.208406572365371e+00	 9.766429962325217e+00
 1.477694684641512e+00	 1.241542189619976e+00	 9.630975733148576e+00
 1.451156631409414e+00	 1.273920882760728e+00	 9.486229084376530e+00
 1.423735734706447e+00	 1.305520673096032e+00	 9.332127959062753e+00
 1.395445736040656e+00	 1.336320817023064e+00	 9.168661779471725e+00
 1.366301868460640e+00	 1.366301868460640e+00	 8.995872484645483e+00
 1.336320817023063e+00	 1.395445736040656e+00	 8.813854999911996e+00
 1.305520673096032e+00	 1.423735734706447e+00	 8.622757126797254e+00
 1.273920882760727e+00	 1.451156631409415e+00	 8.422778852539016e+00
 1.241542189619975e+00	 1.477694684641513e+00	 8.214171089196146e+00
 1.208406572365371e+00	 1.503337677589890e+00	 7.997233862894067e+00
 1.115456224851666e+00	 1.387701299278052e+00	 7.729386180015045e+00
 1.084192058495050e+00	 1.410535778132863e+00	 7.488434606456101e+00
 1.052272950456312e+00	 1.432525783302652e+00	 7.238622065577947e+00
 1.019722236591529e+00	 1.453664361413024e+00	 6.981126562818254e+00
 9.865641215718933e-01	 1.473946027928509e+00	 6.717204614496804e+00
 9.528236030216204e-01	 1.493366767095692e+00	 6.448179826634109e+00
 9.185263933820192e-01	 1.511924025818336e+00	 6.175431003783583e+00
 8.836988399894211e-01	 1.529616701598891e+00	 5.900379974048544e+00
 8.483678438587410e-01	 1.546445124723613e+00	 5.624479314213619e+00
 8.125607776635847e-01	 1.562411034908617e+00	 5.349200152661539e+00
 7.763054033982313e-01	 1.577517552661069e+00	 5.076020217867246e+00
 1.124751241708993e+00	 1.399264914847900e+00	 7.758134048694128e+00
 1.093226553292651e+00	 1.422289671780187e+00	 7.518918057350449e+00
 1.061041465612035e+00	 1.444462918088727e+00	 7.270921016801665e+00
 1.028219508979247e+00	 1.465777642457148e+00	 7.015286381737051e+00
 9.947850897612730e-01	 1.486228314647728e+00	 6.753234098137472e+00
 9.607634138857468e-01	 1.505810885444059e+00	 6.486049511788115e+00
 9.261804080539133e-01	 1.524522780475130e+00	 6.215071818891193e+00
 8.910626391525756e-01	 1.542362888056346e+00	 5.941682239645540e+00
 8.554372323608835e-01	 1.559331541226210e+00	 5.667292093497105e+00
 8.193317884469768e-01	 1.575430494197757e+00	 5.393330948697304e+00
 7.827743007438484e-01	 1.590662893481111e+00	 5.121235009222422e+00
 1.134046259651052e+00	 1.410828531767526e+00	 7.786469881871517e+00
 1.102261049144592e+00	 1.434043566799519e+00	 7.548941795353986e+00
 1.069809981791084e+00	 1.456400054268210e+00	 7.302711816892948e+00
 1.036716782358669e+00	 1.477890924915242e+00	 7.048889906879546e+00
 1.003006058910155e+00	 1.498510602800635e+00	 6.788660447922530e+00
 9.687032256766124e-01	 1.518255005244984e+00	 6.523271476827584e+00
 9.338344236192458e-01	 1.537121536602498e+00	 6.254023471621190e+00
 8.984264391753546e-01	 1.555109076001540e+00	 5.982257869223751e+00
 8.625066216883469e-01	 1.572217959232856e+00	 5.709345487273485e+00
 8.261028000209207e-01	 1.588449955006404e+00	 5.436675017710320e+00
 7.892431988448086e-01	 1.603808235835264e+00	 5.165641750422485e+00
 1.143341279762238e+00	 1.422392151385875e+00	 7.814384085459164e+00
 1.111295547104868e+00	 1.445797464561987e+00	 7.578499960256480e+00
 1.078578500016408e+00	 1.468337193233596e+00	 7.333992300943919e+00
 1.045214057721085e+00	 1.490004210200339e+00	 7.081938610497406e+00
 1.011227029977573e+00	 1.510792893819975e+00	 6.823488695947095e+00
 9.766430393204278e-01	 1.530699127950088e+00	 6.559854217723341e+00
 9.414884409708635e-01	 1.549720295670103e+00	 6.292297807841262e+00
 9.057902409167238e-01	 1.567855266921338e+00	 6.022121927306921e+00
 8.695760126657278e-01	 1.585104380246782e+00	 5.750657631066654e+00
 8.328738131751842e-01	 1.601469418853318e+00	 5.479253403085801e+00
 7.957120984556170e-01	 1.616953581256991e+00	 5.209264215097770e+00
 1.152636303126949e+00	 1.433955775051891e+00	 7.841867374278867e+00
 1.120330048227473e+00	 1.457551366438722e+00	 7.607586880344657e+00
 1.087347021310957e+00	 1.480274336377378e+00	 7.364760373370745e+00
 1.053711336057784e+00	 1.502117499725479e+00	 7.114433916864173e+00
 1.019448003922562e+00	 1.523075189138495e+00	 6.857723711514961e+00
 9.845828557434048e-01	 1.543143255010995e+00	 6.595805955931997e+00
 9.491424610016117e-01	 1.562319059147609e+00	 6.329906290853064e+00
 9.131540452356479e-01	 1.580601462302605e+00	 6.061288992028723e+00
 8.766454061176228e-01	 1.597990805771218e+00	 5.791246074943556e+00
 8.396448286995335e-01	 1.614488887257262e+00	 5.521086468942116e+00
 8.021810003307788e-01	 1.630098931279753e+00	 5.252125409525761e+00
 1.161931330829579e+00	 1.445519404114519e+00	 7.868910759735583e+00
 1.129364553566401e+00	 1.469305273800852e+00	 7.636197064892237e+00
 1.096115546697683e+00	 1.492211485092054e+00	 7.395014005170688e+00
 1.062208618360055e+00	 1.514230794903695e+00	 7.146377204224502e+00
 1.027668981704154e+00	 1.535357490188941e+00	 6.891370207680100e+00
 9.925226758717538e-01	 1.555587387879325e+00	 6.631134649405909e+00
 9.567964846043366e-01	 1.574917828504675e+00	 6.366860016723550e+00
 9.205178529910941e-01	 1.593347663632206e+00	 6.099773174616187e+00
 8.837148028686287e-01	 1.610877237309397e+00	 5.831127806959465e+00
 8.464158473837365e-01	 1.627508361736999e+00	 5.562193927327089e+00
 8.086499052247982e-01	 1.643244287437012e+00	 5.294247603349209e+00
 1.171226363954523e+00	 1.457083039922703e+00	 7.895505538077747e+00
 1.138399064175645e+00	 1.481059188019506e+00	 7.664325197007670e+00
 1.104884077199535e+00	 1.504148640770118e+00	 7.424751231309978e+00
 1.070705905619187e+00	 1.526344097148023e+00	 7.177769806650465e+00
 1.035889964281384e+00	 1.547639798404058e+00	 6.924432747476597e+00
 1.000462500631686e+00	 1.568031528006702e+00	 6.665848003078803e+00
 9.644505126718846e-01	 1.587516605210966e+00	 6.403169728886288e+00
 9.278816650420263e-01	 1.606093872397006e+00	 6.137588137945386e+00
 8.907842037433419e-01	 1.623763676364548e+00	 5.870319275486458e+00
 8.531868700175602e-01	 1.640527843811290e+00	 5.602594864118857e+00
 8.151188138921801e-01	 1.656389651262230e+00	 5.335652358831275e+00
 1.180521403586179e+00	 1.468646683825388e+00	 7.921643279212341e+00
 1.147433581109200e+00	 1.492813110465814e+00	 7.691966126819857e+00
 1.113652613839465e+00	 1.516085804804064e+00	 7.453970148234916e+00
 1.079203198826468e+00	 1.538457407871499e+00	 7.208613015810132e+00
 1.044110952613288e+00	 1.559922115216593e+00	 6.956915749854179e+00
 1.008402330949413e+00	 1.580475676844747e+00	 6.699953478855795e+00
 9.721045460971011e-01	 1.600115390736142e+00	 6.438845832052642e+00
 9.352454822474106e-01	 1.618840090083870e+00	 6.174747114220140e+00
 8.978536095663595e-01	 1.636650124439903e+00	 5.908836410486691e+00
 8.599578973907713e-01	 1.653547334998898e+00	 5.642307763702911e+00
 8.215877270874299e-01	 1.669535024288868e+00	 5.376360558728116e+00
 1.189816450808942e+00	 1.480210337171518e+00	 7.947315816044473e+00
 1.156468105421060e+00	 1.504567042510904e+00	 7.719114864983382e+00
 1.122421157640422e+00	 1.528022978586387e+00	 7.482668911499726e+00
 1.087700498973187e+00	 1.550570728487159e+00	 7.238908082653285e+00
 1.052331947658898e+00	 1.572204442059292e+00	 6.988823495335386e+00
 1.016342167751146e+00	 1.592919835845083e+00	 6.733458305135166e+00
 9.797585857728321e-01	 1.612714186549867e+00	 6.473898405470701e+00
 9.426093054662122e-01	 1.631586318179662e+00	 6.211262921821767e+00
 9.049230211622777e-01	 1.649536583038693e+00	 5.946694643788347e+00
 8.667289302931375e-01	 1.666566836818584e+00	 5.681350532492015e+00
 8.280566455650521e-01	 1.682680408050388e+00	 5.416392432854735e+00
 1.199111506707207e+00	 1.491774001310037e+00	 7.972515234312765e+00
 1.165502638165218e+00	 1.516320985525906e+00	 7.745766576485854e+00
 1.131189709625356e+00	 1.539960163509583e+00	 7.510845733504906e+00
 1.096197807050634e+00	 1.562684060408039e+00	 7.268656219018718e+00
 1.060552950377248e+00	 1.584486780364901e+00	 7.020160131409663e+00
 1.024282011963095e+00	 1.605364006459333e+00	 6.766369485887033e+00
 9.874126325919247e-01	 1.625312994121803e+00	 6.508337215567574e+00
 9.499731355573968e-01	 1.644332558171248e+00	 6.247147981375205e+00
 9.119924393556934e-01	 1.662423053664148e+00	 5.983908928418352e+00
 8.734999695144252e-01	 1.679586350789110e+00	 5.719740521352017e+00
 8.345255700795510e-01	 1.695825804080252e+00	 5.455767583414934e+00
 1.208406572365371e+00	 1.503337677589890e+00	 7.997233862894067e+00
 1.174537180395669e+00	 1.528074940881948e+00	 7.771916574741129e+00
 1.139958270817220e+00	 1.551897360966147e+00	 7.538498881339764e+00
 1.104695124050098e+00	 1.574797405047172e+00	 7.297858599167215e+00
 1.068773961727374e+00	 1.596769131566166e+00	 7.050929677678383e+00
 1.032221864511472e+00	 1.617808190139118e+00	 6.798693809313024e+00
 9.950666874472238e-01	 1.637911814921611e+00	 6.542171728007816e+00
 9.573369733799303e-01	 1.657078811545492e+00	 6.282414331073151e+00
 9.190618649712032e-01	 1.675309537819501e+00	 6.020493757042567e+00
 8.802710158444024e-01	 1.692605878429240e+00	 5.757494546992419e+00
 8.409945013854322e-01	 1.708971213911920e+00	 5.494505009161958e+00
 7.763054033982313e-01	 1.577517552661069e+00	 5.076020217867246e+00
 7.396323698384324e-01	 1.591768179491655e+00	 4.804685897393592e+00
 7.025674351061071e-01	 1.605169786290770e+00	 4.535244277238762e+00
 6.651390233461130e-01	 1.617729423793473e+00	 4.269689682286466e+00
 6.273756249509856e-01	 1.629455361754438e+00	 4.010017442614876e+00
 5.893057194590278e-01	 1.640357038728711e+00	 3.758208301004385e+00
 5.509577006915954e-01	 1.650445008658129e+00	 3.516213807294412e+00
 5.123598044659060e-01	 1.659730884666089e+00	 3.285942829200880e+00
 4.735400391875621e-01	 1.668227280467808e+00	 3.069249280939549e+00
 4.345261195934739e-01	 1.675947749803660e+00	 2.867921143192154e+00
 3.953454038814352e-01	 1.682906724299760e+00	 2.683670821245526e+00
 7.827743007438484e-01	 1.590662893481111e+00	 5.121235009222422e+00
 7.457956734213037e-01	 1.605032269764788e+00	 4.850809129750046e+00
 7.084218792418324e-01	 1.618545551193824e+00	 4.582185275850450e+00
 6.706815792066391e-01	 1.631209847256555e+00	 4.317357867459908e+00
 6.326035011166404e-01	 1.643033496618929e+00	 4.058324789061062e+00
 5.942163618280748e-01	 1.654026016486803e+00	 3.807071565591928e+00
 5.555487917659618e-01	 1.664198048747260e+00	 3.565556516467231e+00
 5.166292620345450e-01	 1.673561303295024e+00	 3.335697021449350e+00
 4.774860144314489e-01	 1.682128498954505e+00	 3.119357003567108e+00
 4.381469946384860e-01	 1.689913302408431e+00	 2.918335706146955e+00
 3.986397888273381e-01	 1.696930265540623e+00	 2.734357813943411e+00
 7.892431988448086e-01	 1.603808235835264e+00	 5.165641750422486e+00
 7.519589777238975e-01	 1.618296361585791e+00	 4.896114371487107e+00
 7.142763240612719e-01	 1.631921317657671e+00	 4.628312226113535e+00
 6.762241357145049e-01	 1.644690272292521e+00	 4.364225941766344e+00
 6.378313778929237e-01	 1.656611633067583e+00	 4.105851905153622e+00
 5.991270047707274e-01	 1.667694995839532e+00	 3.855176249731054e+00
 5.601398833766249e-01	 1.677951090440714e+00	 3.614159811351905e+00
 5.208987201019113e-01	 1.687391723537195e+00	 3.384724189437515e+00
 4.814319901362585e-01	 1.696029719062592e+00	 3.168739022298767e+00
 4.417678701064070e-01	 1.703878856641999e+00	 2.968010556847593e+00
 4.019341741579514e-01	 1.710953808416969e+00	 2.784271565563643e+00
 7.957120984556170e-01	 1.616953581256991e+00	 5.209264215097770e+00
 7.581222834650545e-01	 1.631560456501998e+00	 4.940627466992979e+00
 7.201307702472227e-01	 1.645297087242690e+00	 4.673651978362170e+00
 6.817666935161193e-01	 1.658170700473988e+00	 4.410320799711574e+00
 6.430592558895327e-01	 1.670189772684440e+00	 4.152624873454855e+00
 6.040376488596789e-01	 1.681363978381566e+00	 3.902546875403611e+00
 5.647309760590077e-01	 1.691704135342993e+00	 3.662046013238599e+00
 5.251681791659194e-01	 1.701222147006158e+00	 3.433043922492197e+00
 4.853779667621870e-01	 1.709930942413911e+00	 3.217411771689362e+00
 4.453887464195303e-01	 1.717844414133743e+00	 3.016958659715353e+00
 4.052285602575090e-01	 1.724977354564966e+00	 2.833421360874978e+00
 8.021810003307788e-01	 1.630098931279753e+00	 5.252125409525761e+00
 7.642855913636152e-01	 1.644824556060741e+00	 4.984373426484533e+00
 7.259852184824847e-01	 1.658672861509265e+00	 4.718230516283512e+00
 6.873092532578907e-01	 1.671651133373571e+00	 4.455668467700331e+00
 6.482871357161660e-01	 1.683767917053543e+00	 4.198668934587189e+00
 6.089482946676221e-01	 1.695032965707572e+00	 3.949207172963411e+00
 5.693220703485324e-01	 1.705457185058600e+00	 3.709236722753589e+00
 5.294376397244840e-01	 1.715052575315472e+00	 3.480675177384005e+00
 4.893239447694297e-01	 1.723832170630307e+00	 3.265391155492759e+00
 4.490096240001493e-01	 1.731809976513040e+00	 3.065192560308969e+00
 4.085229475102454e-01	 1.739000905620783e+00	 2.881816184493886e+00
 8.086499052247982e-01	 1.643244287437012e+00	 5.294247603349209e+00
 7.704489021384195e-01	 1.658088661809354e+00	 5.027376459396241e+00
 7.318396694498567e-01	 1.672048642017778e+00	 4.762072991604045e+00
 6.928518155862287e-01	 1.685131572563887e+00	 4.500294138778758e+00
 6.535150179825203e-01	 1.697346067758932e+00	 4.244008520927376e+00
 6.138589427672496e-01	 1.708701959412215e+00	 3.995180112816243e+00
 5.739131667806222e-01	 1.719210241192035e+00	 3.755752848699082e+00
 5.337071022755197e-01	 1.728883010078692e+00	 3.527636303641782e+00
 4.932699246181828e-01	 1.737733405333628e+00	 3.312692567904839e+00
 4.526305032705575e-01	 1.745775545409268e+00	 3.112724402090253e+00
 4.118173363003946e-01	 1.753024463220587e+00	 2.929464732902211e+00
 8.151188138921801e-01	 1.656389651262230e+00	 5.335652358831274e+00
 7.766122165083079e-01	 1.671352775295169e+00	 5.069660006179179e+00
 7.376941238321383e-01	 1.685424430328613e+00	 4.805203757123717e+00
 6.983943811475419e-01	 1.698612019617553e+00	 4.544222205722111e+00
 6.587429032982937e-01	 1.710924226384649e+00	 4.288667288695676e+00
 6.187695937312543e-01	 1.722370961090161e+00	 4.040487935590803e+00
 5.785042658906995e-01	 1.732963305347800e+00	 3.801614635519403e+00
 5.379765673169407e-01	 1.742713452909376e+00	 3.573945067661008e+00
 4.972159067686416e-01	 1.751634648145715e+00	 3.359330913795277e+00
 4.562513846530479e-01	 1.759741122451803e+00	 3.159565942390874e+00
 4.151117270121904e-01	 1.767048029000546e+00	 2.976375425892123e+00
 8.215877270874299e-01	 1.669535024288868e+00	 5.376360558728116e+00
 7.827755351921207e-01	 1.684616898065521e+00	 5.111246768597189e+00
 7.435485823121284e-01	 1.698800228002152e+00	 4.847646398189125e+00
 7.039369505882389e-01	 1.712092476107183e+00	 4.587476292559034e+00
 6.639707922731833e-01	 1.724502394514735e+00	 4.332668148529004e+00
 6.236802481323296e-01	 1.736039972336078e+00	 4.085152180883947e+00
 5.830953682141872e-01	 1.746716379130398e+00	 3.846841689469123e+00
 5.422460353466614e-01	 1.756543905421082e+00	 3.619618675673247e+00
 5.011618916810020e-01	 1.765535900688415e+00	 3.405320627982798e+00
 4.598722685699141e-01	 1.773706709270024e+00	 3.205728567625056e+00
 4.184061200298669e-01	 1.781071604596829e+00	 3.022556417470403e+00
 8.280566455650521e-01	 1.682680408050388e+00	 5.416392432854735e+00
 7.889388589086984e-01	 1.697881031667741e+00	 5.152158738602735e+00
 7.494030455726264e-01	 1.712176036598776e+00	 4.889423762691260e+00
 7.094795245547295e-01	 1.725572943605394e+00	 4.630079284617704e+00
 6.691986855168869e-01	 1.738080573733230e+00	 4.376033294620310e+00
 6.285909065431682e-01	 1.749708994744632e+00	 4.129193714658371e+00
 5.876864742865079e-01	 1.760469464144329e+00	 3.891453003554568e+00
 5.465155068625969e-01	 1.770374369227367e+00	 3.664673795638435e+00
 5.051078798154598e-01	 1.779437164583574e+00	 3.450675693606942e+00
 4.634931554434493e-01	 1.787672307493307e+00	 3.251223307788547e+00
 4.217005157376584e-01	 1.795095191645604e+00	 3.068015606251432e+00
 8.345255700795510e-01	 1.695825804080252e+00	 5.455767583414934e+00
 7.951021883768820e-01	 1.711145177649163e+00	 5.192417225869212e+00
 7.552575142964307e-01	 1.725551857678868e+00	 4.930557989667321e+00
 7.150221036934218e-01	 1.739053423684801e+00	 4.672053357174173e+00
 6.744265836391021e-01	 1.751658765624176e+00	 4.418784232502569e+00
 6.335015695364629e-01	 1.763378029910489e+00	 4.172632755365447e+00
 5.922775846430843e-01	 1.774222561994095e+00	 3.935466981314751e+00
 5.507849823626615e-01	 1.784204845941787e+00	 3.709126578118869e+00
 5.090538716322107e-01	 1.793338441453034e+00	 3.495409659645098e+00
 4.671140456959468e-01	 1.801637918751031e+00	 3.296060850283442e+00
 4.249949145197989e-01	 1.809118791783039e+00	 3.112760645366642e+00
 8.409945013854322e-01	 1.708971213911920e+00	 5.494505009161958e+00
 8.012655243155109e-01	 1.724409337557121e+00	 5.232042884052481e+00
 7.611119891663416e-01	 1.738927692802811e+00	 4.971070536582465e+00
 7.205646886507253e-01	 1.752533917918023e+00	 4.713420002778340e+00
 6.796544872495266e-01	 1.765236971771615e+00	 4.460941805549961e+00
 6.384122376849063e-01	 1.777047079428316e+00	 4.215488898862359e+00
 5.968686998193392e-01	 1.787975674284199e+00	 3.978901459504701e+00
 5.550544623447694e-01	 1.798035337177901e+00	 3.752992676189453e+00
 5.129998675914502e-01	 1.807239732918643e+00	 3.539535657620823e+00
 4.707349397497000e-01	 1.815603544672573e+00	 3.340251553104596e+00
 4.282893167605222e-01	 1.823142406645302e+00	 3.156798951916702e+00
 3.953454038814352e-01	 1.682906724299760e+00	 2.683670821245526e+00
 3.560220848416451e-01	 1.689119859320706e+00	 2.516086726400870e+00
 3.165854117949879e-01	 1.694602641381182e+00	 2.364329312601812e+00
 2.770613785882645e-01	 1.699371756916888e+00	 2.229299403901739e+00
 2.374754056886408e-01	 1.703444513999047e+00	 2.111804075419642e+00
 1.978522965532911e-01	 1.706838777961158e+00	 2.012558511502778e+00
 1.582161980975129e-01	 1.709572907634753e+00	 1.932188499368826e+00
 1.185905652642063e-01	 1.711665692492552e+00	 1.871233473463385e+00
 7.899812966952448e-02	 1.713136290974417e+00	 1.830150027135065e+00
 3.946087227343351e-02	 1.714004170247544e+00	 1.809315810866394e+00
 0.000000000000000e+00	 1.714289047627778e+00	 1.809033739974565e+00
 3.986397888273381e-01	 1.696930265540623e+00	 2.734357813943411e+00
 3.589887913849910e-01	 1.703195174170719e+00	 2.566972640918602e+00
 3.192234953648744e-01	 1.708723643861422e+00	 2.415335471431490e+00
 2.793701112187151e-01	 1.713532500095309e+00	 2.280410429502321e+00
 2.394542712406707e-01	 1.717639195170523e+00	 2.163066800591867e+00
 1.995009855734057e-01	 1.721061743291110e+00	 2.064080485632616e+00
 1.595346023467897e-01	 1.723818656271432e+00	 1.984136139907630e+00
 1.195787719521360e-01	 1.725928880155542e+00	 1.923829911709655e+00
 7.965641542658011e-02	 1.727411733029215e+00	 1.883672696392176e+00
 3.978969689590328e-02	 1.728286844278154e+00	 1.864093823469267e+00
 0.000000000000000e+00	 1.728574095521189e+00	 1.865445097607332e+00
 4.019341741579514e-01	 1.710953808416969e+00	 2.784271565563643e+00
 3.619554982746881e-01	 1.717270490662191e+00	 2.617033533045718e+00
 3.218615792426328e-01	 1.722844647988404e+00	 2.465460346773941e+00
 2.816788441184740e-01	 1.727693244925074e+00	 2.330594157065420e+00
 2.414331370233987e-01	 1.731833877997279e+00	 2.213381212755107e+00
 2.011496747855978e-01	 1.735284710279628e+00	 2.114672784458827e+00
 1.608530067495474e-01	 1.738064406569329e+00	 2.035226833768070e+00
 1.205669787550088e-01	 1.740192069481785e+00	 1.975710343324954e+00
 8.031470126013159e-02	 1.741687176748694e+00	 1.936702222502588e+00
 4.011852155654447e-02	 1.742569519974292e+00	 1.918696704684364e+00
 0.000000000000000e+00	 1.742859145080407e+00	 1.922107154666586e+00
 4.052285602575090e-01	 1.724977354564966e+00	 2.833421360874977e+00
 3.649222058567783e-01	 1.731345810437356e+00	 2.666276314956642e+00
 3.244996637360026e-01	 1.736965655409712e+00	 2.514710953678993e+00
 2.839875775568942e-01	 1.741853993058424e+00	 2.379859764112063e+00
 2.434120032677271e-01	 1.746028564135532e+00	 2.262760301101084e+00
 2.027983643822757e-01	 1.749507680586244e+00	 2.164353455046509e+00
 1.621714114596788e-01	 1.752310160190644e+00	 2.085484538198606e+00
 1.215551857881991e-01	 1.754455262135521e+00	 2.026905104748969e+00
 8.097298724705299e-02	 1.755962623798535e+00	 1.989275418668347e+00
 4.044734629376683e-02	 1.756852199002485e+00	 1.973167483543771e+00
 0.000000000000000e+00	 1.757144197972236e+00	 1.979068550382769e+00
 4.085229475102454e-01	 1.739000905620783e+00	 2.881816184493887e+00
 3.678889144773020e-01	 1.745421135138444e+00	 2.714707675235895e+00
 3.271377491527241e-01	 1.751086667772930e+00	 2.563094080321771e+00
 2.862963118033286e-01	 1.756014746147594e+00	 2.428216131558542e+00
 2.453908702045579e-01	 1.760223255241496e+00	 2.311216635266409e+00
 2.044470545558480e-01	 1.763730655870484e+00	 2.213139961722010e+00
 1.634898166310764e-01	 1.766555918797576e+00	 2.134932436985148e+00
 1.225433931670815e-01	 1.768718459780995e+00	 2.077443553046927e+00
 8.163127346421838e-02	 1.770238075844416e+00	 2.041427909586232e+00
 4.077617114598011e-02	 1.771134883029259e+00	 2.027547799777634e+00
 0.000000000000000e+00	 1.771429255863481e+00	 2.036376353330194e+00
 4.118173363003946e-01	 1.753024463220587e+00	 2.929464732902209e+00
 3.708556244823005e-01	 1.759496466407687e+00	 2.762334087833851e+00
 3.297758358005368e-01	 1.765207686725638e+00	 2.610616297090713e+00
 2.886050471271304e-01	 1.770175505844825e+00	 2.475671855593872e+00
 2.473697380647935e-01	 1.774417952971386e+00	 2.358762382128026e+00
 2.060957454987230e-01	 1.777953637791879e+00	 2.261049209394224e+00
 1.648082224176328e-01	 1.780801684052323e+00	 2.183592971398031e+00
 1.235316010070308e-01	 1.782981664082448e+00	 2.127354105087456e+00
 8.228955998850176e-02	 1.784513534552017e+00	 2.093194178983426e+00
 4.110499615159411e-02	 1.785417573721143e+00	 2.081877959371341e+00
 0.000000000000000e+00	 1.785714320420949e+00	 2.094076124224867e+00
 4.151117270121904e-01	 1.767048029000546e+00	 2.976375425892123e+00
 3.738223362178146e-01	 1.773571805887316e+00	 2.809161820596121e+00
 3.324139239871811e-01	 1.779328713915424e+00	 2.657283965242700e+00
 2.909137837976528e-01	 1.784336273802357e+00	 2.522235258991975e+00
 2.493486070793357e-01	 1.788612658981417e+00	 2.405409321798549e+00
 2.077444374033094e-01	 1.792176628009957e+00	 2.308097565764679e+00
 1.661266289732406e-01	 1.795047457617085e+00	 2.231487869664696e+00
 1.245198094234214e-01	 1.797244876704125e+00	 2.176664274854820e+00
 8.294784689677716e-02	 1.798789001587017e+00	 2.144607614888955e+00
 4.143382134901862e-02	 1.799700272744663e+00	 2.136196987476665e+00
 0.000000000000000e+00	 1.799999393311444e+00	 2.152211975731269e+00
 4.184061200298669e-01	 1.781071604596829e+00	 3.022556417470403e+00
 3.767890500298854e-01	 1.787647155219566e+00	 2.855196943389644e+00
 3.350520140203967e-01	 1.793449750989868e+00	 2.703103245149536e+00
 2.932225220842488e-01	 1.798497051672427e+00	 2.567914401889105e+00
 2.513274774790871e-01	 1.802807374927803e+00	 2.451168862865825e+00
 2.093931304620154e-01	 1.806399628184248e+00	 2.354300882488443e+00
 1.674450364517922e-01	 1.809293241154060e+00	 2.278638175049923e+00
 1.255080185316279e-01	 1.811508099310267e+00	 2.225400708997730e+00
 8.360613426591867e-02	 1.813064478615097e+00	 2.195700552766231e+00
 4.176264677666337e-02	 1.813982981766347e+00	 2.190542678822377e+00
 0.000000000000000e+00	 1.814284476201773e+00	 2.210826629443225e+00
 4.217005157376584e-01	 1.795095191645604e+00	 3.068015606251431e+00
 3.797557662645539e-01	 1.801722516046665e+00	 2.900445335848107e+00
 3.376901062079234e-01	 1.807570799596554e+00	 2.748080104157198e+00
 2.955312622562715e-01	 1.812657841107276e+00	 2.612717092055886e+00
 2.533063494949497e-01	 1.817002102466761e+00	 2.496052056917980e+00
 2.110418248672496e-01	 1.820622639974282e+00	 2.399674515342877e+00
 1.687634450071802e-01	 1.823539036325449e+00	 2.325064272619293e+00
 1.264962284470250e-01	 1.825771333565119e+00	 2.273589220711412e+00
 8.426442217280029e-02	 1.827339967301935e+00	 2.246504316622848e+00
 4.209147247293815e-02	 1.828265702452721e+00	 2.244951645761682e+00
 0.000000000000000e+00	 1.828569570758740e+00	 2.269961470192941e+00
 4.249949145197989e-01	 1.809118791783039e+00	 3.112760645366642e+00
 3.827224852678611e-01	 1.815797890010847e+00	 2.944912694756704e+00
 3.403282008575016e-01	 1.821691861383066e+00	 2.792220324080180e+00
 2.978400045830739e-01	 1.826818643759138e+00	 2.656650894691755e+00
 2.552852233578258e-01	 1.831196843254504e+00	 2.540069612392762e+00
 2.126905208114204e-01	 1.834845665039586e+00	 2.444233343457834e+00
 1.700818547932973e-01	 1.837784844793450e+00	 2.370785914757985e+00
 1.274844392849872e-01	 1.840034581132922e+00	 2.321254822043758e+00
 8.492271069429605e-02	 1.841615469313210e+00	 2.297049258208461e+00
 4.242029847625274e-02	 1.842548436470314e+00	 2.299459364083964e+00
 0.000000000000000e+00	 1.842854678649152e+00	 2.329656597833760e+00
 4.282893167605222e-01	 1.823142406645302e+00	 3.156798951916702e+00
 3.856892073858478e-01	 1.829873278754343e+00	 2.988604541096086e+00
 3.429662982768709e-01	 1.835812937996986e+00	 2.835529508349129e+00
 3.001487493340093e-01	 1.840979461280257e+00	 2.699723141766970e+00
 2.572640992986176e-01	 1.845391598947249e+00	 2.583231907787455e+00
 2.143392184869364e-01	 1.849068705039692e+00	 2.487991787658425e+00
 1.714002659640361e-01	 1.852030668220261e+00	 2.415822245510867e+00
 1.284726511608891e-01	 1.854297843677920e+00	 2.368421754709797e+00
 8.558099990728006e-02	 1.855890986314603e+00	 2.347364794402569e+00
 4.274912482501691e-02	 1.856831185485652e+00	 2.354100216712181e+00
 0.000000000000000e+00	 1.857139801539814e+00	 2.389950876632180e+00
 1.857139801539814e+00	 0.000000000000000e+00	 1.118499927899841e+01
 1.856831185485652e+00	 4.274912482501749e-02	 1.118193685665875e+01
 1.855890986314602e+00	 8.558099990728060e-02	 1.117602713044804e+01
 1.854297843677920e+00	 1.284726511608895e-01	 1.116751292949807e+01
 1.852030668220261e+00	 1.714002659640365e-01	 1.115663905671945e+01
 1.849068705039691e+00	 2.143392184869368e-01	 1.114365037760804e+01
 1.845391598947249e+00	 2.572640992986178e-01	 1.112878971466380e+01
 1.840979461280257e+00	 3.001487493340095e-01	 1.111229555375420e+01
 1.835812937996986e+00	 3.429662982768709e-01	 1.109439957257098e+01
 1.829873278754343e+00	 3.856892073858478e-01	 1.107532400546905e+01
 1.823142406645302e+00	 4.282893167605222e-01	 1.105527886338715e+01
 1.871425938885499e+00	 0.000000000000000e+00	 1.119028272006054e+01
 1.871114948787420e+00	 4.307797452551081e-02	 1.118818712876780e+01
 1.870167517088809e+00	 8.623933586883083e-02	 1.118296402144593e+01
 1.868562119125425e+00	 1.294609332147644e-01	 1.117490632292671e+01
 1.866277503311067e+00	 1.727187707617287e-01	 1.116430861707550e+01
 1.863292755085735e+00	 2.159880332445210e-01	 1.115146472648174e+01
 1.859587362677221e+00	 2.592431157688597e-01	 1.113666505467593e+01
 1.855141284428371e+00	 3.024576580397680e-01	 1.112019369968894e+01
 1.849935017415582e+00	 3.456045830397631e-01	 1.110232535255772e+01
 1.843949667057868e+00	 3.886561401843552e-01	 1.108332199955955e+01
 1.837167017390747e+00	 4.315839529516940e-01	 1.106342945245480e+01
 1.885712081233184e+00	 0.000000000000000e+00	 1.119687556558621e+01
 1.885398717090345e+00	 4.340682434133453e-02	 1.119595082786664e+01
 1.884444052861604e+00	 8.689767206117580e-02	 1.119155232142362e+01
 1.882826399567176e+00	 1.304492156149813e-01	 1.118403492102546e+01
 1.880524343389939e+00	 1.740372760213404e-01	 1.117375376437453e+01
 1.877516810111782e+00	 2.176368485795780e-01	 1.116106108200304e+01
 1.873783131377193e+00	 2.612221329320474e-01	 1.114630273630275e+01
 1.869303112534495e+00	 3.047665675538066e-01	 1.112981448313344e+01
 1.864057101778160e+00	 3.482428687260726e-01	 1.111191797561969e+01
 1.858026060289259e+00	 3.916230740211588e-01	 1.109291653637009e+01
 1.851191633045813e+00	 4.348785902957209e-01	 1.107309073134403e+01
 1.899998216915481e+00	 0.000000000000000e+00	 1.120450467058067e+01
 1.899682478728979e+00	 4.373567400390595e-02	 1.120502809583229e+01
 1.898720581973453e+00	 8.755600794664044e-02	 1.120165663637419e+01
 1.897090673353649e+00	 1.314374975544066e-01	 1.119481851942259e+01
 1.894771176821610e+00	 1.753557806660619e-01	 1.118493976969313e+01
 1.891740858501185e+00	 2.192856631455580e-01	 1.117244005274435e+01
 1.887978893453634e+00	 2.632011491719851e-01	 1.115772816398988e+01
 1.883464934032833e+00	 3.070754759905426e-01	 1.114119718357537e+01
 1.878179179551402e+00	 3.508811531812545e-01	 1.112321932525690e+01
 1.872102446952540e+00	 3.945900064733498e-01	 1.110414051589177e+01
 1.865216242156835e+00	 4.381732261021032e-01	 1.108427475103428e+01
 1.914284334264999e+00	 0.000000000000000e+00	 1.121290504076651e+01
 1.913966222037872e+00	 4.406452324464238e-02	 1.121522503815532e+01
 1.912997092764816e+00	 8.821434298754971e-02	 1.121314561189834e+01
 1.911354928835323e+00	 1.324257782259066e-01	 1.120717930600229e+01
 1.909017991970809e+00	 1.766742836190831e-01	 1.119783293885831e+01
 1.905964888637292e+00	 2.209344755959106e-01	 1.118560222707892e+01
 1.902174637313011e+00	 2.651801628724775e-01	 1.117096598169180e+01
 1.897626737357590e+00	 3.093843814643931e-01	 1.115437990573897e+01
 1.892301239201991e+00	 3.535194342507644e-01	 1.113627003243890e+01
 1.886178815551731e+00	 3.975569351180192e-01	 1.111702585379019e+01
 1.879240833270147e+00	 4.414678576803407e-01	 1.109699320066024e+01
 1.928570421614352e+00	 0.000000000000000e+00	 1.122181953066329e+01
 1.928249935351575e+00	 4.439337179496115e-02	 1.122635350306354e+01
 1.927273573576156e+00	 8.887267664622857e-02	 1.122589178361611e+01
 1.925619154362675e+00	 1.334140568223477e-01	 1.122104177234823e+01
 1.923264777202266e+00	 1.779927838035942e-01	 1.121240057418042e+01
 1.920188888903455e+00	 2.225832845840858e-01	 1.120054817399159e+01
 1.916370351361791e+00	 2.671591724173291e-01	 1.118604010110240e+01
 1.911788510942970e+00	 3.116932820897748e-01	 1.116939962315788e+01
 1.906423269196610e+00	 3.561577097800575e-01	 1.115110952205457e+01
 1.900255154590854e+00	 4.005238575322578e-01	 1.113160351791702e+01
 1.893265394932085e+00	 4.447624823399337e-01	 1.111125742096206e+01
 1.942856467296148e+00	 0.000000000000000e+00	 1.123099855495718e+01
 1.942533607004642e+00	 4.472221938627953e-02	 1.123823087036844e+01
 1.941550012747933e+00	 8.953100838500189e-02	 1.123977143416305e+01
 1.939883338286183e+00	 1.344023325365960e-01	 1.123633262908510e+01
 1.937511520880712e+00	 1.793112801427852e-01	 1.122861093787037e+01
 1.934412847683026e+00	 2.242320887635338e-01	 1.121727844385386e+01
 1.930566024006441e+00	 2.691381761903444e-01	 1.120297372864297e+01
 1.925950243223175e+00	 3.140021759811051e-01	 1.118629221982996e+01
 1.920545258001943e+00	 3.587959776145891e-01	 1.116777605731736e+01
 1.914331452573932e+00	 4.034907712931571e-01	 1.114790356321429e+01
 1.907289915688981e+00	 4.480570973903820e-01	 1.112707841714361e+01
 1.957142459643000e+00	 0.000000000000000e+00	 1.124019981248330e+01
 1.956817225331620e+00	 4.505106575001486e-02	 1.125067984953849e+01
 1.955826398620612e+00	 9.018933766619465e-02	 1.125466445643561e+01
 1.954147468956323e+00	 1.353906045615179e-01	 1.125298072491969e+01
 1.951758211370878e+00	 1.806297715598461e-01	 1.124643321705556e+01
 1.948636753359356e+00	 2.258808867877044e-01	 1.123579356916505e+01
 1.944761643653427e+00	 2.711171725753280e-01	 1.122178939127072e+01
 1.940111922632410e+00	 3.163110612528009e-01	 1.120509253005171e+01
 1.934667194084671e+00	 3.614342355998145e-01	 1.118630678222998e+01
 1.928407698004987e+00	 4.064576739778080e-01	 1.116595516509343e+01
 1.921314384087171e+00	 4.513517001411860e-01	 1.114446687116866e+01
 1.971428386987518e+00	 0.000000000000000e+00	 1.124918802218215e+01
 1.971100778667064e+00	 4.537991061758444e-02	 1.126352828653253e+01
 1.970102719534652e+00	 9.084766395213176e-02	 1.127045422276894e+01
 1.968411534723574e+00	 1.363788720899798e-01	 1.127091696919397e+01
 1.966004837037493e+00	 1.819482569779670e-01	 1.126583749031332e+01
 1.962860594315794e+00	 2.275296773100474e-01	 1.125609406526122e+01
 1.958957198709218e+00	 2.730961599560843e-01	 1.124250896116767e+01
 1.954273537604879e+00	 3.186199360192795e-01	 1.122583437652469e+01
 1.948789065911478e+00	 3.640724815811890e-01	 1.120673776220679e+01
 1.942483879388040e+00	 4.094245631633016e-01	 1.118578665136626e+01
 1.935338788672990e+00	 4.546462879018455e-01	 1.116343315352374e+01
 1.985714237662315e+00	 0.000000000000000e+00	 1.125773467042861e+01
 1.985384255345523e+00	 4.570875372040557e-02	 1.127660897895284e+01
 1.984378963830518e+00	 9.150598670513820e-02	 1.128702745974945e+01
 1.982675523938412e+00	 1.373671343148479e-01	 1.129007425777393e+01
 1.980251386245289e+00	 1.832667353203382e-01	 1.128679469564581e+01
 1.977084358935692e+00	 2.291784589840129e-01	 1.127818043099365e+01
 1.973152677580279e+00	 2.750751367164180e-01	 1.126515367936616e+01
 1.968435076574785e+00	 3.209287983949576e-01	 1.124855060682053e+01
 1.962910861949046e+00	 3.667107134041679e-01	 1.122910402294668e+01
 1.956559985227112e+00	 4.123914364267289e-01	 1.120742553280051e+01
 1.949363117992771e+00	 4.579408579818608e-01	 1.118398733447430e+01
 2.000000000000000e+00	 0.000000000000000e+00	 1.126561776916605e+01
 1.999667643701550e+00	 4.603759478989555e-02	 1.128975949910308e+01
 1.998655119848670e+00	 9.216430538753885e-02	 1.130427412838082e+01
 1.996939424951317e+00	 1.383553904289885e-01	 1.131038740210768e+01
 1.994497847358994e+00	 1.845852055101493e-01	 1.130927659982449e+01
 1.991308035602400e+00	 2.308272304630508e-01	 1.130205314937805e+01
 1.987348068673079e+00	 2.770541012401335e-01	 1.128974417836397e+01
 1.982596527976333e+00	 3.232376464942529e-01	 1.127327312828653e+01
 1.977032570664059e+00	 3.693489289142068e-01	 1.125343958764342e+01
 1.970636004026227e+00	 4.153582913451809e-01	 1.123089853236887e+01
 1.963387360592848e+00	 4.612354076907317e-01	 1.120613919483939e+01
 1.823142406645302e+00	 4.282893167605222e-01	 1.105527886338715e+01
 1.815603544672573e+00	 4.707349397496997e-01	 1.103316491789230e+01
 1.807239732918643e+00	 5.129998675914498e-01	 1.100778845913301e+01
 1.798035337177901e+00	 5.550544623447690e-01	 1.097918114487773e+01
 1.787975674284199e+00	 5.968686998193390e-01	 1.094733136465640e+01
 1.777047079428317e+00	 6.384122376849063e-01	 1.091218035391489e+01
 1.765236971771615e+00	 6.796544872495263e-01	 1.087361855109150e+01
 1.752533917918022e+00	 7.205646886507250e-01	 1.083148227425577e+01
 1.738927692802811e+00	 7.611119891663414e-01	 1.078555079557864e+01
 1.724409337557121e+00	 8.012655243155106e-01	 1.073554389192074e+01
 1.708971213911921e+00	 8.409945013854322e-01	 1.068111994804578e+01
 1.837167017390747e+00	 4.315839529516940e-01	 1.106342945245480e+01
 1.829570162359090e+00	 4.743560909394626e-01	 1.104153413454804e+01
 1.821142011580398e+00	 5.169461437735805e-01	 1.101639796708229e+01
 1.811866810582170e+00	 5.593242455217806e-01	 1.098804004784880e+01
 1.801729763247288e+00	 6.014601410312405e-01	 1.095643644483270e+01
 1.790717099649317e+00	 6.433232545618968e-01	 1.092151644535907e+01
 1.778816142170903e+00	 6.848827621168463e-01	 1.088315905286859e+01
 1.766015369464010e+00	 7.261076672119187e-01	 1.084118980639457e+01
 1.752304477807102e+00	 7.669668797889304e-01	 1.079537799924358e+01
 1.737674439414772e+00	 8.074292979405400e-01	 1.074543437322165e+01
 1.722117557260229e+00	 8.474638920795502e-01	 1.069100936281539e+01
 1.851191633045813e+00	 4.348785902957209e-01	 1.107309073134403e+01
 1.843536784934809e+00	 4.779772433962460e-01	 1.105132661902531e+01
 1.835044295108718e+00	 5.208924213364344e-01	 1.102635454583512e+01
 1.825698288828111e+00	 5.635940301926754e-01	 1.099817653905686e+01
 1.815483857024859e+00	 6.060515838495604e-01	 1.096675248598481e+01
 1.804387124655278e+00	 6.482342731571334e-01	 1.093199661263147e+01
 1.792395317323264e+00	 6.901110388134489e-01	 1.089377421315962e+01
 1.779496825728795e+00	 7.316506477125575e-01	 1.085189870204296e+01
 1.765681267493491e+00	 7.728217724601689e-01	 1.080612906210601e+01
 1.750939545915385e+00	 8.135930737223795e-01	 1.075616776119613e+01
 1.735263905209901e+00	 8.539332850375116e-01	 1.070165920812775e+01
 1.865216242156835e+00	 4.381732261021032e-01	 1.108427475103428e+01
 1.857503400993457e+00	 4.815983941629300e-01	 1.106252915229647e+01
 1.848946572149907e+00	 5.248386970574064e-01	 1.103762299033273e+01
 1.839529760619886e+00	 5.678638128706813e-01	 1.100953685421335e+01
 1.829237944384306e+00	 6.106430245248657e-01	 1.097821072310937e+01
 1.818057143282288e+00	 6.531452894602179e-01	 1.094354076744191e+01
 1.805974486139023e+00	 6.953393130698571e-01	 1.090537640223802e+01
 1.792978275702542e+00	 7.371936256261624e-01	 1.086351766015204e+01
 1.779058050937662e+00	 7.786766623988440e-01	 1.081771295239037e+01
 1.764204646225886e+00	 8.197568466275468e-01	 1.076765728508408e+01
 1.748410247024885e+00	 8.604026749762184e-01	 1.071299099633515e+01
 1.879240833270147e+00	 4.414678576803407e-01	 1.109699320066024e+01
 1.871469999128758e+00	 4.852195402823947e-01	 1.107512890800434e+01
 1.862848831350267e+00	 5.287849677138905e-01	 1.105016914470641e+01
 1.853361214661657e+00	 5.721335900690259e-01	 1.102206883245557e+01
 1.842992014093027e+00	 6.152344593077239e-01	 1.099074444262804e+01
 1.831727144366439e+00	 6.580562994607521e-01	 1.095607121112074e+01
 1.819553637528504e+00	 7.005675806165934e-01	 1.091788060525952e+01
 1.806459708375416e+00	 7.427365964262533e-01	 1.087595810424026e+01
 1.792434817215295e+00	 7.845315448237445e-01	 1.083004135488967e+01
 1.777469729513201e+00	 8.259206116225587e-01	 1.077981876348739e+01
 1.761556571969129e+00	 8.668720566125698e-01	 1.072492858183985e+01
 1.893265394932085e+00	 4.447624823399337e-01	 1.111125742096206e+01
 1.885436567934439e+00	 4.888406787975204e-01	 1.108911343796135e+01
 1.876751061356101e+00	 5.327312300832813e-01	 1.106395986345672e+01
 1.867192639657584e+00	 5.764033583009371e-01	 1.103572185699542e+01
 1.856746054918420e+00	 6.198258844487023e-01	 1.100428890644083e+01
 1.845397116743821e+00	 6.629672991483387e-01	 1.096951254614338e+01
 1.833132760402026e+00	 7.057958371841795e-01	 1.093120432543995e+01
 1.819941112737581e+00	 7.482795555863506e-01	 1.088913408150408e+01
 1.805811555402071e+00	 7.903864149536577e-01	 1.084302857036687e+01
 1.790734784944258e+00	 8.320843636739326e-01	 1.079257050847611e+01
 1.774702869306581e+00	 8.733414246634675e-01	 1.073739807435293e+01
 1.907289915688981e+00	 4.480570973903820e-01	 1.112707841714361e+01
 1.899403096004228e+00	 4.924618067511872e-01	 1.110447065828696e+01
 1.890653250813712e+00	 5.366774809429736e-01	 1.107896297434168e+01
 1.881024024311834e+00	 5.806731140796429e-01	 1.105044679838082e+01
 1.870500055627877e+00	 6.244172961983684e-01	 1.101878127932256e+01
 1.859067049250523e+00	 6.678782845125785e-01	 1.098379159154938e+01
 1.846711843669914e+00	 7.110240785031383e-01	 1.094526749149489e+01
 1.833422477779206e+00	 7.538224985799745e-01	 1.090296216636961e+01
 1.819188254573673e+00	 7.962412680073720e-01	 1.085659141938427e+01
 1.803999801685983e+00	 8.382480977481868e-01	 1.080583323391570e+01
 1.787849128301191e+00	 8.798107738458119e-01	 1.075032775597137e+01
 1.921314384087171e+00	 4.513517001411860e-01	 1.114446687116866e+01
 1.913369571931849e+00	 4.960829211862750e-01	 1.112118883615077e+01
 1.904555388369401e+00	 5.406237170703617e-01	 1.109514724288653e+01
 1.894855357328564e+00	 5.849428539183713e-01	 1.106619596023647e+01
 1.884254004988798e+00	 6.290086908072895e-01	 1.103416055949198e+01
 1.872736930722637e+00	 6.727892515430747e-01	 1.099883730205753e+01
 1.860290876242493e+00	 7.162523003039925e-01	 1.095999236912408e+01
 1.846903792490453e+00	 7.593654208806461e-01	 1.091736136825893e+01
 1.832564903805781e+00	 8.020960992036745e-01	 1.087064915033555e+01
 1.817264768905303e+00	 8.444118088118374e-01	 1.081952996780017e+01
 1.800995338216907e+00	 8.862800988765028e-01	 1.076364800187876e+01
 1.935338788672990e+00	 4.546462879018455e-01	 1.116343315352374e+01
 1.927335984311028e+00	 4.997040191456642e-01	 1.113925657709074e+01
 1.918457462669473e+00	 5.445699352428400e-01	 1.111248233843325e+01
 1.908686627411940e+00	 5.892125743303499e-01	 1.108292302735842e+01
 1.898007891768577e+00	 6.336000645260323e-01	 1.105036751219292e+01
 1.886406749996252e+00	 6.777001962294286e-01	 1.101458069069001e+01
 1.873869847030084e+00	 7.214804983172646e-01	 1.097530347633595e+01
 1.860385045861490e+00	 7.649083179618846e-01	 1.093225304335766e+01
 1.845941492174076e+00	 8.079509037613540e-01	 1.088512335146745e+01
 1.830529675769143e+00	 8.505754918314030e-01	 1.083358596838853e+01
 1.814141488317677e+00	 8.927493944724415e-01	 1.077729120448618e+01
 1.949363117992771e+00	 4.579408579818608e-01	 1.118398733447430e+01
 1.941302321735491e+00	 5.033250976722348e-01	 1.115866281287768e+01
 1.932359462360228e+00	 5.485161322378032e-01	 1.113093880165219e+01
 1.922517823266122e+00	 5.934822718288065e-01	 1.110058301604429e+01
 1.911761704734611e+00	 6.381914136051650e-01	 1.106734460613608e+01
 1.900076495907460e+00	 6.826111145612423e-01	 1.103095475472903e+01
 1.887448744943010e+00	 7.267086682734761e-01	 1.099112750241901e+01
 1.873866226882480e+00	 7.704511852972111e-01	 1.094756081018281e+01
 1.859318008754241e+00	 8.138056768991979e-01	 1.089993786669083e+01
 1.843794511444432e+00	 8.567391417734002e-01	 1.084792864395322e+01
 1.827287567867451e+00	 8.992186553505289e-01	 1.079119170084028e+01
 1.963387360592848e+00	 4.612354076907317e-01	 1.120613919483939e+01
 1.955268572798965e+00	 5.069461538088669e-01	 1.117939678989853e+01
 1.946261376087971e+00	 5.524623048326455e-01	 1.115048801344313e+01
 1.936348933595271e+00	 5.977519429269690e-01	 1.111913222654761e+01
 1.925515432654296e+00	 6.427827342952540e-01	 1.108503595265895e+01
 1.913746157292350e+00	 6.875220025281178e-01	 1.104789440483996e+01
 1.901027558891593e+00	 7.319368059031507e-01	 1.100739323037843e+01
 1.887347324543591e+00	 7.759940183601458e-01	 1.096321046876122e+01
 1.872694442621957e+00	 8.196604138359943e-01	 1.091501871499198e+01
 1.857059265098094e+00	 8.629027536043464e-01	 1.086248747596040e+01
 1.840433566130177e+00	 9.056878762276653e-01	 1.080528570313590e+01
 1.708971213911921e+00	 8.409945013854322e-01	 1.068111994804578e+01
 1.692605878429240e+00	 8.802710158444028e-01	 1.062131591396209e+01
 1.675309537819501e+00	 9.190618649712039e-01	 1.055524401200859e+01
 1.657078811545492e+00	 9.573369733799312e-01	 1.048261410548420e+01
 1.637911814921611e+00	 9.950666874472247e-01	 1.040313425999849e+01
 1.617808190139119e+00	 1.032221864511473e+00	 1.031651301730565e+01
 1.596769131566166e+00	 1.068773961727374e+00	 1.022246180520856e+01
 1.574797405047172e+00	 1.104695124050099e+00	 1.012069745777882e+01
 1.551897360966147e+00	 1.139958270817221e+00	 1.001094481643087e+01
 1.528074940881947e+00	 1.174537180395669e+00	 9.892939379129373e+00
 1.503337677589890e+00	 1.208406572365371e+00	 9.766429962325217e+00
 1.722117557260229e+00	 8.474638920795502e-01	 1.069100936281539e+01
 1.705626330646489e+00	 8.870425430173238e-01	 1.063122244912450e+01
 1.688196937103913e+00	 9.261317926190925e-01	 1.056526501351844e+01
 1.669825970090350e+00	 9.647013341425724e-01	 1.049283565399143e+01
 1.650511530422169e+00	 1.002721285852451e+00	 1.041363243734805e+01
 1.630253257538177e+00	 1.040162280905763e+00	 1.032735532316221e+01
 1.609052354994264e+00	 1.076995556889963e+00	 1.023370871110932e+01
 1.586911609911249e+00	 1.113193044483923e+00	 1.013240408319951e+01
 1.563835406138682e+00	 1.148727454705887e+00	 1.002316270889617e+01
 1.539829730941159e+00	 1.183572364211581e+00	 9.905718378081191e+00
 1.514902175060389e+00	 1.217702298110054e+00	 9.779820124447456e+00
 1.735263905209901e+00	 8.539332850375116e-01	 1.070165920812775e+01
 1.718646787421024e+00	 8.938140725599182e-01	 1.064180692107173e+01
 1.701084340899041e+00	 9.332017227411900e-01	 1.057588229043050e+01
 1.682573133096854e+00	 9.720656974825775e-01	 1.050357439173863e+01
 1.663111250332794e+00	 1.010375886936732e+00	 1.042457289710556e+01
 1.642698329293209e+00	 1.048102700079252e+00	 1.033857062804427e+01
 1.621335582721734e+00	 1.085217154930274e+00	 1.024526622008323e+01
 1.599025819015587e+00	 1.121690967892286e+00	 1.014436686832887e+01
 1.575773455489876e+00	 1.157496641664130e+00	 1.003559111975768e+01
 1.551584525114940e+00	 1.192607551190254e+00	 9.918671675210604e+00
 1.526466676578907e+00	 1.226998027108758e+00	 9.793358161957741e+00
 1.748410247024885e+00	 8.604026749762184e-01	 1.071299099633515e+01
 1.731667238119636e+00	 9.005855989422995e-01	 1.065300082801730e+01
 1.713971738680369e+00	 9.402716495638588e-01	 1.058703667573138e+01
 1.695320290155044e+00	 9.794300573857910e-01	 1.051477980197704e+01
 1.675710964363958e+00	 1.018030484448819e+00	 1.043591305809795e+01
 1.655143395241000e+00	 1.056043115547207e+00	 1.035012354508808e+01
 1.633618804717539e+00	 1.093438749133876e+00	 1.025710537567566e+01
 1.611140022467182e+00	 1.130188887335035e+00	 1.015656250484412e+01
 1.587711499270573e+00	 1.166265824530218e+00	 1.004821159270613e+01
 1.563339313803775e+00	 1.201642733952688e+00	 9.931784861039088e+00
 1.538031172701298e+00	 1.236293751769691e+00	 9.807032902934740e+00
 1.761556571969129e+00	 8.668720566125698e-01	 1.072492858183985e+01
 1.744687672109121e+00	 9.073571166345787e-01	 1.066473771205855e+01
 1.726859119923383e+00	 9.473415673134628e-01	 1.059867076754807e+01
 1.708067430854960e+00	 9.867944078380598e-01	 1.052640287478216e+01
 1.688310662226134e+00	 1.025685072137461e+00	 1.044761160899527e+01
 1.667588445218332e+00	 1.063983520824892e+00	 1.036197974242612e+01
 1.645902010950641e+00	 1.101660332786341e+00	 1.026919808439671e+01
 1.623254210373027e+00	 1.138686795872015e+00	 1.016896837872427e+01
 1.599649527731620e+00	 1.175034996142415e+00	 1.006100622085674e+01
 1.575094087408144e+00	 1.210677905119885e+00	 9.945043954694691e+00
 1.549595653983415e+00	 1.245589464501062e+00	 9.820833507429461e+00
 1.774702869306581e+00	 8.733414246634675e-01	 1.073739807435293e+01
 1.757708078756272e+00	 9.141286201068685e-01	 1.067695308347115e+01
 1.739746474103564e+00	 9.544114702163639e-01	 1.061072886375815e+01
 1.720814544786643e+00	 9.941587428252298e-01	 1.053839605122280e+01
 1.700910333629795e+00	 1.033339643751411e+00	 1.045962846124819e+01
 1.680033469061990e+00	 1.071923909427571e+00	 1.037410590407353e+01
 1.658185191390005e+00	 1.109881899173237e+00	 1.028151708371179e+01
 1.635368372840116e+00	 1.147184686563073e+00	 1.018156254447998e+01
 1.611587531123863e+00	 1.183804149338989e+00	 1.007395762633823e+01
 1.586848836328530e+00	 1.219713057312842e+00	 9.958435387969905e+00
 1.561160110981111e+00	 1.254885157711081e+00	 9.834749455097151e+00
 1.787849128301191e+00	 8.798107738458119e-01	 1.075032775597137e+01
 1.770728447427880e+00	 9.209001038292814e-01	 1.068958434833616e+01
 1.752633790696398e+00	 9.614813524989267e-01	 1.062315689947842e+01
 1.733561621540131e+00	 1.001523056333147e+00	 1.055071316998773e+01
 1.713509968285415e+00	 1.040994193039420e+00	 1.047192470409720e+01
 1.692478456608756e+00	 1.079864274870510e+00	 1.038646969253615e+01
 1.670468336004593e+00	 1.118103441580136e+00	 1.029403591144129e+01
 1.647482499975440e+00	 1.155682552468055e+00	 1.019432370051791e+01
 1.623525499698146e+00	 1.192573276958207e+00	 1.008704894078032e+01
 1.598603550965414e+00	 1.228748183152560e+00	 9.971945990081270e+00
 1.572724534250239e+00	 1.264180823807955e+00	 9.848770533373699e+00
 1.800995338216907e+00	 8.862800988765028e-01	 1.076364800187876e+01
 1.783748767490742e+00	 9.276715622719288e-01	 1.070257073932962e+01
 1.765521059177368e+00	 9.685512083875137e-01	 1.063590238728520e+01
 1.746308650705469e+00	 1.008887342347659e+00	 1.056330941634461e+01
 1.726109555903467e+00	 1.048648713750238e+00	 1.048446256154774e+01
 1.704923397695415e+00	 1.087804610668973e+00	 1.039903971305274e+01
 1.682751434763369e+00	 1.126324953292607e+00	 1.030672887649738e+01
 1.659596581885995e+00	 1.164180386646806e+00	 1.020723116558155e+01
 1.635463423705317e+00	 1.201342371838334e+00	 1.010026378665386e+01
 1.610358221719277e+00	 1.237783275260038e+00	 9.985562973094970e+00
 1.584288914346650e+00	 1.273476455199893e+00	 9.862886826168630e+00
 1.814141488317677e+00	 8.927493944724415e-01	 1.077729120448618e+01
 1.796769028311650e+00	 9.344429899049237e-01	 1.071585324951467e+01
 1.778408269021958e+00	 9.756210321084881e-01	 1.064891436002797e+01
 1.759055621872693e+00	 1.016251594854609e+00	 1.057614127331323e+01
 1.738709086194424e+00	 1.056303199632616e+00	 1.049720535121196e+01
 1.717368282158750e+00	 1.095744910338224e+00	 1.041178547938822e+01
 1.695034477635295e+00	 1.134546427596219e+00	 1.031957103089039e+01
 1.671710608678773e+00	 1.172678182159173e+00	 1.022026485621413e+01
 1.647401293396220e+00	 1.210111426817637e+00	 1.011358625942051e+01
 1.622112838990602e+00	 1.246818326256276e+00	 9.999273917984688e+00
 1.595853241826199e+00	 1.282772044295103e+00	 9.877088703048726e+00
 1.827287567867451e+00	 8.992186553505289e-01	 1.079119170084028e+01
 1.809789219257397e+00	 9.412143811983774e-01	 1.072937456898522e+01
 1.791295409705652e+00	 9.826908178882128e-01	 1.066214331610611e+01
 1.771802524631845e+00	 1.023615807839846e+00	 1.058916647494183e+01
 1.751308548868758e+00	 1.063957644435306e+00	 1.051011744492306e+01
 1.729813099835545e+00	 1.103685167393529e+00	 1.042467738110038e+01
 1.707317454589336e+00	 1.142767857776545e+00	 1.033253814294086e+01
 1.683824570460768e+00	 1.181175932065001e+00	 1.023340526519220e+01
 1.659339099021701e+00	 1.218880434734381e+00	 1.012700091045123e+01
 1.633867393179869e+00	 1.255853328762274e+00	 1.001306676128998e+01
 1.607417507244739e+00	 1.292067583501795e+00	 9.891366808887394e+00
 1.840433566130177e+00	 9.056878762276653e-01	 1.080528570313590e+01
 1.822809329694776e+00	 9.479857306224022e-01	 1.074307902421915e+01
 1.804182470703934e+00	 9.897605599530511e-01	 1.067554116708576e+01
 1.784549348572964e+00	 1.030979975289214e+00	 1.060234396158133e+01
 1.763907933636944e+00	 1.071612041907058e+00	 1.052316423103408e+01
 1.742257840562584e+00	 1.111625375350152e+00	 1.043768665220636e+01
 1.719600355594455e+00	 1.150989237119153e+00	 1.034560667163707e+01
 1.695938457338973e+00	 1.189673629424137e+00	 1.024663344088148e+01
 1.671276830832606e+00	 1.227649388426834e+00	 1.014049273067522e+01
 1.645621874687561e+00	 1.264888275399031e+00	 1.002692978234518e+01
 1.618981701158121e+00	 1.301363065228178e+00	 9.905712053956771e+00
 1.503337677589890e+00	 1.208406572365371e+00	 9.766429962325217e+00
 1.477694684641512e+00	 1.241542189619976e+00	 9.630975733148576e+00
 1.451156631409414e+00	 1.273920882760728e+00	 9.486229084376530e+00
 1.423735734706447e+00	 1.305520673096032e+00	 9.332127959062753e+00
 1.395445736040656e+00	 1.336320817023064e+00	 9.168661779471725e+00
 1.366301868460640e+00	 1.366301868460640e+00	 8.995872484645483e+00
 1.336320817023063e+00	 1.395445736040656e+00	 8.813854999911996e+00
 1.305520673096032e+00	 1.423735734706447e+00	 8.622757126797254e+00
 1.273920882760727e+00	 1.451156631409415e+00	 8.422778852539016e+00
 1.241542189619975e+00	 1.477694684641513e+00	 8.214171089196146e+00
 1.208406572365371e+00	 1.503337677589890e+00	 7.997233862894067e+00
 1.514902175060389e+00	 1.217702298110054e+00	 9.779820124447456e+00
 1.489061922154348e+00	 1.251092812695976e+00	 9.645067886392336e+00
 1.462319723670283e+00	 1.283720580492737e+00	 9.501146252091020e+00
 1.434687890399449e+00	 1.315563453736617e+00	 9.347981507151246e+00
 1.406180269557087e+00	 1.346600529253643e+00	 9.185550838867872e+00
 1.376812211372734e+00	 1.376812211372734e+00	 9.013883457188856e+00
 1.346600529253642e+00	 1.406180269557087e+00	 8.833061153265241e+00
 1.315563453736616e+00	 1.434687890399449e+00	 8.643218282810588e+00
 1.283720580492737e+00	 1.462319723670283e+00	 8.444541172144858e+00
 1.251092812695975e+00	 1.489061922154348e+00	 8.237266955538860e+00
 1.217702298110054e+00	 1.514902175060389e+00	 8.021681862998385e+00
 1.526466676578907e+00	 1.226998027108758e+00	 9.793358161957741e+00
 1.500429163646209e+00	 1.260643439115263e+00	 9.659287452139280e+00
 1.473482819838770e+00	 1.293520281655245e+00	 9.516172289868308e+00
 1.445640049926278e+00	 1.325606237892797e+00	 9.363926948642099e+00
 1.416914806831205e+00	 1.356880245082748e+00	 9.202515705785308e+00
 1.387322557964068e+00	 1.387322557964069e+00	 9.031954049900559e+00
 1.356880245082748e+00	 1.416914806831205e+00	 8.852309335673002e+00
 1.325606237892796e+00	 1.445640049926279e+00	 8.663700871933283e+00
 1.293520281655244e+00	 1.473482819838770e+00	 8.466299439366407e+00
 1.260643439115263e+00	 1.500429163646209e+00	 8.260326244863540e+00
 1.226998027108757e+00	 1.526466676578907e+00	 8.046051329942740e+00
 1.538031172701298e+00	 1.236293751769691e+00	 9.807032902934740e+00
 1.511796399834000e+00	 1.270194061077886e+00	 9.673625608014078e+00
 1.484645910798441e+00	 1.303319978244912e+00	 9.531299760586320e+00
 1.456592204342702e+00	 1.335649017362756e+00	 9.379957275525216e+00
 1.427649339096438e+00	 1.367159956115121e+00	 9.219548859657060e+00
 1.397832899651095e+00	 1.397832899651095e+00	 9.050075308737277e+00
 1.367159956115120e+00	 1.427649339096439e+00	 8.871588265611205e+00
 1.335649017362756e+00	 1.456592204342703e+00	 8.684190424058841e+00
 1.303319978244911e+00	 1.484645910798441e+00	 8.488035173061910e+00
 1.270194061077885e+00	 1.511796399834000e+00	 8.283325686633081e+00
 1.236293751769691e+00	 1.538031172701298e+00	 8.070313474613336e+00
 1.549595653983415e+00	 1.245589464501062e+00	 9.820833507429461e+00
 1.523163621434620e+00	 1.279744670783892e+00	 9.688073793515271e+00
 1.495808987432858e+00	 1.313119662258399e+00	 9.546521447710735e+00
 1.467544344704487e+00	 1.345691783944678e+00	 9.396065687657732e+00
 1.438383857586212e+00	 1.377439653955503e+00	 9.236643003191382e+00
 1.408343227850264e+00	 1.408343227850265e+00	 9.068238545841453e+00
 1.377439653955501e+00	 1.438383857586212e+00	 8.890886997342680e+00
 1.345691783944678e+00	 1.467544344704487e+00	 8.704672900167498e+00
 1.313119662258398e+00	 1.495808987432858e+00	 8.509730443009836e+00
 1.279744670783891e+00	 1.523163621434620e+00	 8.306242704268818e+00
 1.245589464501063e+00	 1.549595653983416e+00	 8.094440366616015e+00
 1.561160110981111e+00	 1.254885157711081e+00	 9.834749455097151e+00
 1.534530819164973e+00	 1.289295260433329e+00	 9.702623700239233e+00
 1.506972040625587e+00	 1.322919325692369e+00	 9.561830347044225e+00
 1.478496462067399e+00	 1.355734529436747e+00	 9.412245584980932e+00
 1.449118353533953e+00	 1.387719330208632e+00	 9.253791054014858e+00
 1.418853533978028e+00	 1.418853533978028e+00	 9.086435329591815e+00
 1.387719330208631e+00	 1.449118353533954e+00	 8.910194908386540e+00
 1.355734529436746e+00	 1.478496462067399e+00	 8.725134676262094e+00
 1.322919325692368e+00	 1.506972040625587e+00	 8.531367849401649e+00
 1.289295260433328e+00	 1.534530819164974e+00	 8.329055389339711e+00
 1.254885157711081e+00	 1.561160110981111e+00	 8.118404902355305e+00
 1.572724534250239e+00	 1.264180823807955e+00	 9.848770533373699e+00
 1.545897983741961e+00	 1.298845822226245e+00	 9.717267262534413e+00
 1.518135061260190e+00	 1.332718960543483e+00	 9.577219658838841e+00
 1.489448547487204e+00	 1.365777245637144e+00	 9.428490560079732e+00
 1.459852818173088e+00	 1.397998976479250e+00	 9.270986136683176e+00
 1.429363809450838e+00	 1.429363809450839e+00	 9.104657475091908e+00
 1.397998976479250e+00	 1.459852818173088e+00	 8.929501687539084e+00
 1.365777245637144e+00	 1.489448547487205e+00	 8.745562528010986e+00
 1.332718960543482e+00	 1.518135061260191e+00	 8.552930503237397e+00
 1.298845822226245e+00	 1.545897983741961e+00	 8.351742476887487e+00
 1.264180823807955e+00	 1.572724534250238e+00	 8.142180774518653e+00
 1.584288914346650e+00	 1.273476455199893e+00	 9.862886826168630e+00
 1.557265105882484e+00	 1.308396348362689e+00	 9.731996648563952e+00
 1.529298040220234e+00	 1.342518558808402e+00	 9.592682780253137e+00
 1.500400592019669e+00	 1.375819924344055e+00	 9.444794391067354e+00
 1.470587242737042e+00	 1.408278584372098e+00	 9.288221575041236e+00
 1.439874045685145e+00	 1.439874045685146e+00	 9.122897035074288e+00
 1.408278584372098e+00	 1.470587242737043e+00	 8.948797323418271e+00
 1.375819924344054e+00	 1.500400592019670e+00	 8.765943616062195e+00
 1.342518558808402e+00	 1.529298040220234e+00	 8.574402007577923e+00
 1.308396348362688e+00	 1.557265105882484e+00	 8.374283321830202e+00
 1.273476455199893e+00	 1.584288914346650e+00	 8.165742442894123e+00
 1.595853241826199e+00	 1.282772044295103e+00	 9.877088703048726e+00
 1.568632176303445e+00	 1.317946831042709e+00	 9.746804251756076e+00
 1.540460968389281e+00	 1.352318112483789e+00	 9.608213298136450e+00
 1.511352586720562e+00	 1.385862557355662e+00	 9.461151034778634e+00
 1.481321618459244e+00	 1.418558145491916e+00	 9.305490884914500e+00
 1.450384234097401e+00	 1.450384234097401e+00	 9.141146291199288e+00
 1.418558145491915e+00	 1.481321618459244e+00	 8.968072093505061e+00
 1.385862557355662e+00	 1.511352586720562e+00	 8.786265471994467e+00
 1.352318112483789e+00	 1.540460968389282e+00	 8.595766439610269e+00
 1.317946831042709e+00	 1.568632176303445e+00	 8.396657876389384e+00
 1.282772044295103e+00	 1.595853241826199e+00	 8.189065106454008e+00
 1.607417507244739e+00	 1.292067583501795e+00	 9.891366808887394e+00
 1.579999185721744e+00	 1.327497262466353e+00	 9.761682682622709e+00
 1.551623836650896e+00	 1.362117613566305e+00	 9.623804982124025e+00
 1.522304522645647e+00	 1.395905136470149e+00	 9.477554620256534e+00
 1.492055936573117e+00	 1.428837651443444e+00	 9.322787767115269e+00
 1.460894366104057e+00	 1.460894366104057e+00	 9.159397745728503e+00
 1.428837651443443e+00	 1.492055936573118e+00	 8.987316553656804e+00
 1.395905136470148e+00	 1.522304522645648e+00	 8.806515984873649e+00
 1.362117613566304e+00	 1.551623836650896e+00	 8.617008333485833e+00
 1.327497262466353e+00	 1.579999185721745e+00	 8.418846668489440e+00
 1.292067583501795e+00	 1.607417507244739e+00	 8.212124676641041e+00
 1.618981701158121e+00	 1.301363065228178e+00	 9.905712053956771e+00
 1.591366124854286e+00	 1.337047634833670e+00	 9.776624760927932e+00
 1.562786635888641e+00	 1.371917054052611e+00	 9.639451778027368e+00
 1.533256390850693e+00	 1.405947653485699e+00	 9.493999442517149e+00
 1.502790188312090e+00	 1.439117093831422e+00	 9.340106100748008e+00
 1.471404433121564e+00	 1.471404433121565e+00	 9.177644113554523e+00
 1.439117093831422e+00	 1.502790188312090e+00	 9.006521528069161e+00
 1.405947653485699e+00	 1.533256390850694e+00	 8.826683388383781e+00
 1.371917054052610e+00	 1.562786635888642e+00	 8.638112663892203e+00
 1.337047634833670e+00	 1.591366124854286e+00	 8.440830781080823e+00
 1.301363065228178e+00	 1.618981701158121e+00	 8.234897751796789e+00
 1.208406572365371e+00	 1.503337677589890e+00	 7.997233862894067e+00
 1.174537180395669e+00	 1.528074940881948e+00	 7.771916574741129e+00
 1.139958270817220e+00	 1.551897360966147e+00	 7.538498881339764e+00
 1.104695124050098e+00	 1.574797405047172e+00	 7.297858599167215e+00
 1.068773961727374e+00	 1.596769131566166e+00	 7.050929677678381e+00
 1.032221864511472e+00	 1.617808190139118e+00	 6.798693809313024e+00
 9.950666874472238e-01	 1.637911814921611e+00	 6.542171728007818e+00
 9.573369733799303e-01	 1.657078811545492e+00	 6.282414331073151e+00
 9.190618649712032e-01	 1.675309537819501e+00	 6.020493757042569e+00
 8.802710158444024e-01	 1.692605878429240e+00	 5.757494546992417e+00
 8.409945013854322e-01	 1.708971213911920e+00	 5.494505009161958e+00
 1.217702298110054e+00	 1.514902175060389e+00	 8.021681862998385e+00
 1.183572364211580e+00	 1.539829730941159e+00	 7.797759926355768e+00
 1.148727454705886e+00	 1.563835406138682e+00	 7.565800114314442e+00
 1.113193044483922e+00	 1.586911609911249e+00	 7.326656851936216e+00
 1.076995556889963e+00	 1.609052354994264e+00	 7.081238661901203e+00
 1.040162280905762e+00	 1.630253257538177e+00	 6.830500016948763e+00
 1.002721285852451e+00	 1.650511530422170e+00	 6.575432896663006e+00
 9.647013341425719e-01	 1.669825970090350e+00	 6.317058179206244e+00
 9.261317926190918e-01	 1.688196937103913e+00	 6.056416996298758e+00
 8.870425430173231e-01	 1.705626330646489e+00	 5.794562174682442e+00
 8.474638920795503e-01	 1.722117557260229e+00	 5.532549879778860e+00
 1.226998027108757e+00	 1.526466676578907e+00	 8.046051329942740e+00
 1.192607551190254e+00	 1.551584525114940e+00	 7.823468514866847e+00
 1.157496641664129e+00	 1.575773455489876e+00	 7.592894913074046e+00
 1.121690967892286e+00	 1.599025819015588e+00	 7.355165196331016e+00
 1.085217154930273e+00	 1.621335582721735e+00	 7.111166966740594e+00
 1.048102700079251e+00	 1.642698329293210e+00	 6.861832786708257e+00
 1.010375886936732e+00	 1.663111250332794e+00	 6.608131921029662e+00
 9.720656974825767e-01	 1.682573133096854e+00	 6.351061918828972e+00
 9.332017227411892e-01	 1.701084340899041e+00	 6.091640160790127e+00
 8.938140725599177e-01	 1.718646787421024e+00	 5.830895492141584e+00
 8.539332850375116e-01	 1.735263905209901e+00	 5.569860054465814e+00
 1.236293751769691e+00	 1.538031172701298e+00	 8.070313474613336e+00
 1.201642733952688e+00	 1.563339313803775e+00	 7.849009190313460e+00
 1.166265824530217e+00	 1.587711499270573e+00	 7.619748715899927e+00
 1.130188887335034e+00	 1.611140022467182e+00	 7.383350504061522e+00
 1.093438749133876e+00	 1.633618804717538e+00	 7.140685621738765e+00
 1.056043115547206e+00	 1.655143395241000e+00	 6.892669893944573e+00
 1.018030484448818e+00	 1.675710964363958e+00	 6.640255759545090e+00
 9.794300573857903e-01	 1.695320290155044e+00	 6.384423965216891e+00
 9.402716495638580e-01	 1.713971738680371e+00	 6.126175221595062e+00
 9.005855989422986e-01	 1.731667238119637e+00	 5.866521940755050e+00
 8.604026749762183e-01	 1.748410247024885e+00	 5.606480166916922e+00
 1.245589464501063e+00	 1.549595653983416e+00	 8.094440366616015e+00
 1.210677905119885e+00	 1.575094087408144e+00	 7.874349791601180e+00
 1.175034996142414e+00	 1.599649527731621e+00	 7.646327992005459e+00
 1.138686795872015e+00	 1.623254210373027e+00	 7.411180634871096e+00
 1.101660332786340e+00	 1.645902010950641e+00	 7.169766520233535e+00
 1.063983520824891e+00	 1.667588445218332e+00	 6.922989776325019e+00
 1.025685072137460e+00	 1.688310662226134e+00	 6.671791758761196e+00
 9.867944078380592e-01	 1.708067430854960e+00	 6.417142779753032e+00
 9.473415673134616e-01	 1.726859119923383e+00	 6.160033791334686e+00
 9.073571166345781e-01	 1.744687672109121e+00	 5.901468141869421e+00
 8.668720566125701e-01	 1.761556571969129e+00	 5.642453517972276e+00
 1.254885157711081e+00	 1.561160110981111e+00	 8.118404902355305e+00
 1.219713057312841e+00	 1.586848836328531e+00	 7.899459109751187e+00
 1.183804149338989e+00	 1.611587531123863e+00	 7.672600203216275e+00
 1.147184686563072e+00	 1.635368372840115e+00	 7.438624399793749e+00
 1.109881899173236e+00	 1.658185191390005e+00	 7.198382387205141e+00
 1.071923909427571e+00	 1.680033469061990e+00	 6.952771509129038e+00
 1.033339643751411e+00	 1.700910333629796e+00	 6.702727638788587e+00
 9.941587428252290e-01	 1.720814544786643e+00	 6.449216868032633e+00
 9.544114702163635e-01	 1.739746474103565e+00	 6.193227137259528e+00
 9.141286201068681e-01	 1.757708078756272e+00	 5.935759926978432e+00
 8.733414246634674e-01	 1.774702869306581e+00	 5.677822124807566e+00
 1.264180823807955e+00	 1.572724534250238e+00	 8.142180774518653e+00
 1.228748183152559e+00	 1.598603550965414e+00	 7.924306852767280e+00
 1.192573276958206e+00	 1.623525499698147e+00	 7.698533767337213e+00
 1.155682552468054e+00	 1.647482499975440e+00	 7.465651526028728e+00
 1.118103441580135e+00	 1.670468336004593e+00	 7.226506748538135e+00
 1.079864274870509e+00	 1.692478456608757e+00	 6.981994781633357e+00
 1.040994193039419e+00	 1.713509968285416e+00	 6.733051479381475e+00
 1.001523056333147e+00	 1.733561621540132e+00	 6.480644778051456e+00
 9.614813524989264e-01	 1.752633790696398e+00	 6.225766193760076e+00
 9.209001038292806e-01	 1.770728447427881e+00	 5.969422366580037e+00
 8.798107738458119e-01	 1.787849128301191e+00	 5.712626767958082e+00
 1.273476455199893e+00	 1.584288914346650e+00	 8.165742442894123e+00
 1.237783275260037e+00	 1.610358221719277e+00	 7.948863612038055e+00
 1.201342371838334e+00	 1.635463423705318e+00	 7.724098023120098e+00
 1.164180386646805e+00	 1.659596581885995e+00	 7.492232623349851e+00
 1.126324953292606e+00	 1.682751434763369e+00	 7.254113901626604e+00
 1.087804610668972e+00	 1.704923397695415e+00	 7.010639874529181e+00
 1.048648713750237e+00	 1.726109555903467e+00	 6.762751706630599e+00
 1.008887342347658e+00	 1.746308650705469e+00	 6.511425098473104e+00
 9.685512083875132e-01	 1.765521059177368e+00	 6.257661574330866e+00
 9.276715622719285e-01	 1.783748767490743e+00	 6.002479797772504e+00
 8.862800988765027e-01	 1.800995338216907e+00	 5.746907036288059e+00
 1.282772044295103e+00	 1.595853241826199e+00	 8.189065106454008e+00
 1.246818326256276e+00	 1.622112838990602e+00	 7.973100830196548e+00
 1.210111426817636e+00	 1.647401293396220e+00	 7.749263196751278e+00
 1.172678182159172e+00	 1.671710608678773e+00	 7.518339151972343e+00
 1.134546427596219e+00	 1.695034477635296e+00	 7.281178887254471e+00
 1.095744910338224e+00	 1.717368282158750e+00	 7.038687638318837e+00
 1.056303199632615e+00	 1.738709086194423e+00	 6.791817080233347e+00
 1.016251594854609e+00	 1.759055621872693e+00	 6.541556456971637e+00
 9.756210321084874e-01	 1.778408269021958e+00	 6.288923583015195e+00
 9.344429899049229e-01	 1.796769028311650e+00	 6.034955850653292e+00
 8.927493944724416e-01	 1.814141488317677e+00	 5.780701370009067e+00
 1.292067583501795e+00	 1.607417507244739e+00	 8.212124676641041e+00
 1.255853328762274e+00	 1.633867393179869e+00	 7.996990770364517e+00
 1.218880434734381e+00	 1.659339099021702e+00	 7.774000369782657e+00
 1.181175932065001e+00	 1.683824570460768e+00	 7.543943391803346e+00
 1.142767857776545e+00	 1.707317454589337e+00	 7.307677462687151e+00
 1.103685167393528e+00	 1.729813099835545e+00	 7.066119472643177e+00
 1.063957644435305e+00	 1.751308548868758e+00	 6.820236681312466e+00
 1.023615807839845e+00	 1.771802524631845e+00	 6.571037518645676e+00
 9.826908178882120e-01	 1.791295409705652e+00	 6.319562225357213e+00
 9.412143811983766e-01	 1.809789219257397e+00	 6.066873473580841e+00
 8.992186553505291e-01	 1.827287567867451e+00	 5.814047101845556e+00
 1.301363065228178e+00	 1.618981701158121e+00	 8.234897751796789e+00
 1.264888275399030e+00	 1.645621874687561e+00	 8.020506486711483e+00
 1.227649388426834e+00	 1.671276830832607e+00	 7.798281448433905e+00
 1.189673629424137e+00	 1.695938457338974e+00	 7.569018413007752e+00
 1.150989237119153e+00	 1.719600355594456e+00	 7.333586075913640e+00
 1.111625375350151e+00	 1.742257840562584e+00	 7.092917306492797e+00
 1.071612041907057e+00	 1.763907933636944e+00	 6.847999900755197e+00
 1.030979975289214e+00	 1.784549348572964e+00	 6.599866984499799e+00
 9.897605599530503e-01	 1.804182470703934e+00	 6.349587218885381e+00
 9.479857306224013e-01	 1.822809329694776e+00	 6.098254957356119e+00
 9.056878762276651e-01	 1.840433566130176e+00	 5.846980496440012e+00
 8.409945013854322e-01	 1.708971213911920e+00	 5.494505009161958e+00
 8.012655243155109e-01	 1.724409337557121e+00	 5.232042884052483e+00
 7.611119891663416e-01	 1.738927692802811e+00	 4.971070536582465e+00
 7.205646886507253e-01	 1.752533917918023e+00	 4.713420002778340e+00
 6.796544872495266e-01	 1.765236971771615e+00	 4.460941805549961e+00
 6.384122376849063e-01	 1.777047079428316e+00	 4.215488898862358e+00
 5.968686998193392e-01	 1.787975674284199e+00	 3.978901459504701e+00
 5.550544623447694e-01	 1.798035337177901e+00	 3.752992676189453e+00
 5.129998675914502e-01	 1.807239732918643e+00	 3.539535657620823e+00
 4.707349397497000e-01	 1.815603544672573e+00	 3.340251553104596e+00
 4.282893167605222e-01	 1.823142406645302e+00	 3.156798951916702e+00
 8.474638920795503e-01	 1.722117557260229e+00	 5.532549879778863e+00
 8.074292979405404e-01	 1.737674439414771e+00	 5.270992477491909e+00
 7.669668797889307e-01	 1.752304477807102e+00	 5.010943847696723e+00
 7.261076672119189e-01	 1.766015369464010e+00	 4.754198875976120e+00
 6.848827621168465e-01	 1.778816142170903e+00	 4.502571138369593e+00
 6.433232545618970e-01	 1.790717099649317e+00	 4.257877087854023e+00
 6.014601410312407e-01	 1.801729763247288e+00	 4.021921071285114e+00
 5.593242455217809e-01	 1.811866810582170e+00	 3.796481324813341e+00
 5.169461437735808e-01	 1.821142011580397e+00	 3.583297068125677e+00
 4.743560909394629e-01	 1.829570162359090e+00	 3.384056790214757e+00
 4.315839529516940e-01	 1.837167017390746e+00	 3.200387792419385e+00
 8.539332850375116e-01	 1.735263905209901e+00	 5.569860054465816e+00
 8.135930737223799e-01	 1.750939545915384e+00	 5.309244311894656e+00
 7.728217724601693e-01	 1.765681267493491e+00	 5.050187011757230e+00
 7.316506477125579e-01	 1.779496825728795e+00	 4.794437779730016e+00
 6.901110388134490e-01	 1.792395317323264e+00	 4.543763573982277e+00
 6.482342731571338e-01	 1.804387124655278e+00	 4.299933298610812e+00
 6.060515838495607e-01	 1.815483857024858e+00	 4.064703234697095e+00
 5.635940301926756e-01	 1.825698288828111e+00	 3.839803432344470e+00
 5.208924213364347e-01	 1.835044295108718e+00	 3.626925180032304e+00
 4.779772433962463e-01	 1.843536784934809e+00	 3.427709640643529e+00
 4.348785902957209e-01	 1.851191633045813e+00	 3.243737717235371e+00
 8.604026749762183e-01	 1.748410247024885e+00	 5.606480166916922e+00
 8.197568466275470e-01	 1.764204646225886e+00	 5.346857762834079e+00
 7.786766623988444e-01	 1.779058050937662e+00	 5.088867837696898e+00
 7.371936256261629e-01	 1.792978275702541e+00	 4.834206938914297e+00
 6.953393130698574e-01	 1.805974486139023e+00	 4.584586052128442e+00
 6.531452894602180e-01	 1.818057143282288e+00	 4.341715822900530e+00
 6.106430245248660e-01	 1.829237944384306e+00	 4.107292587471138e+00
 5.678638128706814e-01	 1.839529760619885e+00	 3.882985348399282e+00
 5.248386970574066e-01	 1.848946572149907e+00	 3.670423804719360e+00
 4.815983941629303e-01	 1.857503400993456e+00	 3.471187520182493e+00
 4.381732261021031e-01	 1.865216242156835e+00	 3.286796287809969e+00
 8.668720566125701e-01	 1.761556571969129e+00	 5.642453517972276e+00
 8.259206116225591e-01	 1.777469729513201e+00	 5.383890433562742e+00
 7.845315448237447e-01	 1.792434817215295e+00	 5.127052111157719e+00
 7.427365964262537e-01	 1.806459708375415e+00	 4.873574483903749e+00
 7.005675806165935e-01	 1.819553637528503e+00	 4.625103517105899e+00
 6.580562994607525e-01	 1.831727144366439e+00	 4.383281216214774e+00
 6.152344593077244e-01	 1.842992014093028e+00	 4.149732439620631e+00
 5.721335900690260e-01	 1.853361214661656e+00	 3.926052641654683e+00
 5.287849677138907e-01	 1.862848831350267e+00	 3.713796646085562e+00
 4.852195402823951e-01	 1.871469999128757e+00	 3.514468525482945e+00
 4.414678576803406e-01	 1.879240833270148e+00	 3.329512637689349e+00
 8.733414246634674e-01	 1.774702869306581e+00	 5.677822124807566e+00
 8.320843636739330e-01	 1.790734784944258e+00	 5.420398220495832e+00
 7.903864149536578e-01	 1.805811555402070e+00	 5.164803669291770e+00
 7.482795555863507e-01	 1.819941112737581e+00	 4.912606528038657e+00
 7.057958371841797e-01	 1.833132760402026e+00	 4.665378991595164e+00
 6.629672991483389e-01	 1.845397116743820e+00	 4.424684362023565e+00
 6.198258844487028e-01	 1.856746054918419e+00	 4.192064822591447e+00
 5.764033583009375e-01	 1.867192639657585e+00	 3.969030128768187e+00
 5.327312300832817e-01	 1.876751061356101e+00	 3.757047304541764e+00
 4.888406787975209e-01	 1.885436567934440e+00	 3.557531408854419e+00
 4.447624823399336e-01	 1.893265394932085e+00	 3.371837414302070e+00
 8.798107738458119e-01	 1.787849128301191e+00	 5.712626767958082e+00
 8.382480977481868e-01	 1.803999801685982e+00	 5.456435375812127e+00
 7.962412680073720e-01	 1.819188254573673e+00	 5.202184472270350e+00
 7.538224985799749e-01	 1.833422477779206e+00	 4.951367241680561e+00
 7.110240785031388e-01	 1.846711843669915e+00	 4.705473647234737e+00
 6.678782845125789e-01	 1.859067049250523e+00	 4.465978533202062e+00
 6.244172961983688e-01	 1.870500055627877e+00	 4.234330536247821e+00
 5.806731140796434e-01	 1.881024024311833e+00	 4.011941902025294e+00
 5.366774809429741e-01	 1.890653250813712e+00	 3.800179280826474e+00
 4.924618067511876e-01	 1.899403096004228e+00	 3.600355554172566e+00
 4.480570973903820e-01	 1.907289915688981e+00	 3.413722723303197e+00
 8.862800988765027e-01	 1.800995338216907e+00	 5.746907036288059e+00
 8.444118088118379e-01	 1.817264768905302e+00	 5.492054567319212e+00
 8.020960992036750e-01	 1.832564903805781e+00	 5.239254671667513e+00
 7.593654208806463e-01	 1.846903792490453e+00	 4.989918923031285e+00
 7.162523003039928e-01	 1.860290876242493e+00	 4.745446872112672e+00
 6.727892515430750e-01	 1.872736930722637e+00	 4.507215450773179e+00
 6.290086908072897e-01	 1.884254004988797e+00	 4.276569193805585e+00
 5.849428539183718e-01	 1.894855357328564e+00	 4.054811355778503e+00
 5.406237170703621e-01	 1.904555388369402e+00	 3.843195979656022e+00
 4.960829211862753e-01	 1.913369571931849e+00	 3.642920953839978e+00
 4.513517001411860e-01	 1.921314384087171e+00	 3.455122075350820e+00
 8.927493944724416e-01	 1.814141488317677e+00	 5.780701370009067e+00
 8.505754918314032e-01	 1.830529675769143e+00	 5.527306935722041e+00
 8.079509037613544e-01	 1.845941492174077e+00	 5.276072675877645e+00
 7.649083179618851e-01	 1.860385045861490e+00	 5.028322065880103e+00
 7.214804983172648e-01	 1.873869847030084e+00	 4.785356335330119e+00
 6.777001962294289e-01	 1.886406749996252e+00	 4.548445340101427e+00
 6.336000645260328e-01	 1.898007891768577e+00	 4.318819264815625e+00
 5.892125743303502e-01	 1.908686627411939e+00	 4.097661211739760e+00
 5.445699352428404e-01	 1.918457462669473e+00	 3.886100713214970e+00
 4.997040191456646e-01	 1.927335984311028e+00	 3.685208186746574e+00
 4.546462879018455e-01	 1.935338788672990e+00	 3.495990335191465e+00
 8.992186553505291e-01	 1.827287567867451e+00	 5.814047101845556e+00
 8.567391417734005e-01	 1.843794511444431e+00	 5.562242149424272e+00
 8.138056768991981e-01	 1.859318008754242e+00	 5.312695212714942e+00
 7.704511852972115e-01	 1.873866226882480e+00	 5.066635424432957e+00
 7.267086682734767e-01	 1.887448744943010e+00	 4.825258048784250e+00
 6.826111145612430e-01	 1.900076495907461e+00	 4.589716984666909e+00
 6.381914136051653e-01	 1.911761704734611e+00	 4.361118116296581e+00
 5.934822718288069e-01	 1.922517823266122e+00	 4.140513543183456e+00
 5.485161322378036e-01	 1.932359462360229e+00	 3.928896704497856e+00
 5.033250976722351e-01	 1.941302321735491e+00	 3.727198397179582e+00
 4.579408579818608e-01	 1.949363117992770e+00	 3.536283672938585e+00
 9.056878762276651e-01	 1.840433566130176e+00	 5.846980496440014e+00
 8.629027536043467e-01	 1.857059265098094e+00	 5.596908456986633e+00
 8.196604138359946e-01	 1.872694442621957e+00	 5.349177389336580e+00
 7.759940183601461e-01	 1.887347324543590e+00	 5.104916075369222e+00
 7.319368059031509e-01	 1.901027558891593e+00	 4.865206426308920e+00
 6.875220025281183e-01	 1.913746157292350e+00	 4.631077777539632e+00
 6.427827342952547e-01	 1.925515432654296e+00	 4.403502052108143e+00
 5.977519429269694e-01	 1.936348933595271e+00	 4.183389798114161e+00
 5.524623048326459e-01	 1.946261376087971e+00	 3.971587090506413e+00
 5.069461538088672e-01	 1.955268572798964e+00	 3.768873274634754e+00
 4.612354076907317e-01	 1.963387360592848e+00	 3.575959517434490e+00
 4.282893167605222e-01	 1.823142406645302e+00	 3.156798951916702e+00
 3.856892073858478e-01	 1.829873278754343e+00	 2.988604541096086e+00
 3.429662982768709e-01	 1.835812937996986e+00	 2.835529508349129e+00
 3.001487493340093e-01	 1.840979461280257e+00	 2.699723141766970e+00
 2.572640992986176e-01	 1.845391598947249e+00	 2.583231907787455e+00
 2.143392184869364e-01	 1.849068705039692e+00	 2.487991787658425e+00
 1.714002659640361e-01	 1.852030668220261e+00	 2.415822245510867e+00
 1.284726511608891e-01	 1.854297843677920e+00	 2.368421754709797e+00
 8.558099990728006e-02	 1.855890986314603e+00	 2.347364794402567e+00
 4.274912482501691e-02	 1.856831185485652e+00	 2.354100216712182e+00
 0.000000000000000e+00	 1.857139801539814e+00	 2.389950876632180e+00
 4.315839529516940e-01	 1.837167017390746e+00	 3.200387792419384e+00
 3.886561401843551e-01	 1.843949667057867e+00	 3.031749789080068e+00
 3.456045830397630e-01	 1.849935017415582e+00	 2.878188291801688e+00
 3.024576580397679e-01	 1.855141284428371e+00	 2.742050801965236e+00
 2.592431157688595e-01	 1.859587362677220e+00	 2.625582535482255e+00
 2.159880332445207e-01	 1.863292755085735e+00	 2.530917014181929e+00
 1.727187707617282e-01	 1.866277503311066e+00	 2.460068449732224e+00
 1.294609332147639e-01	 1.868562119125425e+00	 2.414925851216678e+00
 8.623933586883026e-02	 1.870167517088808e+00	 2.397248769812044e+00
 4.307797452551022e-02	 1.871114948787420e+00	 2.408664579929725e+00
 0.000000000000000e+00	 1.871425938885499e+00	 2.450667185521566e+00
 4.348785902957209e-01	 1.851191633045813e+00	 3.243737717235371e+00
 3.916230740211588e-01	 1.858026060289259e+00	 3.074515207015704e+00
 3.482428687260724e-01	 1.864057101778160e+00	 2.920307570407158e+00
 3.047665675538065e-01	 1.869303112534495e+00	 2.783681003775342e+00
 2.612221329320471e-01	 1.873783131377193e+00	 2.667102272770038e+00
 2.176368485795777e-01	 1.877516810111782e+00	 2.572927144176636e+00
 1.740372760213400e-01	 1.880524343389939e+00	 2.503390787729155e+00
 1.304492156149808e-01	 1.882826399567176e+00	 2.460600086811812e+00
 8.689767206117521e-02	 1.884444052861604e+00	 2.446527775711500e+00
 4.340682434133394e-02	 1.885398717090345e+00	 2.463008303767391e+00
 0.000000000000000e+00	 1.885712081233184e+00	 2.511735313239238e+00
 4.381732261021031e-01	 1.865216242156835e+00	 3.286796287809969e+00
 3.945900064733499e-01	 1.872102446952540e+00	 3.116823844682313e+00
 3.508811531812543e-01	 1.878179179551401e+00	 2.961799255460166e+00
 3.070754759905426e-01	 1.883464934032833e+00	 2.824527108282243e+00
 2.632011491719848e-01	 1.887978893453635e+00	 2.707717708560592e+00
 2.192856631455576e-01	 1.891740858501185e+00	 2.613972943420162e+00
 1.753557806660615e-01	 1.894771176821610e+00	 2.545774309653273e+00
 1.314374975544061e-01	 1.897090673353649e+00	 2.505473055239950e+00
 8.755600794663987e-02	 1.898720581973453e+00	 2.495282358984122e+00
 4.373567400390536e-02	 1.899682478728979e+00	 2.517271451643496e+00
 0.000000000000000e+00	 1.899998216915481e+00	 2.573361564970354e+00
 4.414678576803406e-01	 1.879240833270148e+00	 3.329512637689348e+00
 3.975569351180192e-01	 1.886178815551730e+00	 3.158601055322198e+00
 3.535194342507643e-01	 1.892301239201991e+00	 3.002577893580257e+00
 3.093843814643928e-01	 1.897626737357590e+00	 2.864505067835363e+00
 2.651801628724773e-01	 1.902174637313011e+00	 2.747357627391766e+00
 2.209344755959103e-01	 1.905964888637292e+00	 2.654006651020168e+00
 1.766742836190827e-01	 1.909017991970809e+00	 2.587204515321953e+00
 1.324257782259062e-01	 1.911354928835323e+00	 2.549572500383414e+00
 8.821434298754918e-02	 1.912997092764816e+00	 2.543590666803458e+00
 4.406452324464179e-02	 1.913966222037871e+00	 2.571589912542691e+00
 0.000000000000000e+00	 1.914284334264999e+00	 2.635746097066569e+00
 4.447624823399336e-01	 1.893265394932085e+00	 3.371837414302070e+00
 4.005238575322579e-01	 1.900255154590855e+00	 3.199774410315161e+00
 3.561577097800574e-01	 1.906423269196610e+00	 3.042560569069731e+00
 3.116932820897747e-01	 1.911788510942969e+00	 2.903533330011956e+00
 2.671591724173288e-01	 1.916370351361791e+00	 2.785952928022616e+00
 2.225832845840856e-01	 1.920188888903456e+00	 2.692981924744313e+00
 1.779927838035937e-01	 1.923264777202266e+00	 2.627667337461029e+00
 1.334140568223472e-01	 1.925619154362675e+00	 2.592925347653070e+00
 8.887267664622797e-02	 1.927273573576155e+00	 2.591528535469459e+00
 4.439337179496055e-02	 1.928249935351575e+00	 2.626095555655074e+00
 0.000000000000000e+00	 1.928570421614352e+00	 2.699083144920870e+00
 4.480570973903820e-01	 1.907289915688981e+00	 3.413722723303198e+00
 4.034907712931571e-01	 1.914331452573932e+00	 3.240273617608906e+00
 3.587959776145891e-01	 1.920545258001943e+00	 3.081666810569711e+00
 3.140021759811049e-01	 1.925950243223175e+00	 2.941532745807940e+00
 2.691381761903441e-01	 1.930566024006441e+00	 2.823436545610520e+00
 2.242320887635335e-01	 1.934412847683027e+00	 2.730853788757425e+00
 1.793112801427847e-01	 1.937511520880713e+00	 2.667149125685012e+00
 1.344023325365955e-01	 1.939883338286182e+00	 2.635557733998210e+00
 8.953100838500133e-02	 1.941550012747933e+00	 2.639169575333579e+00
 4.472221938627893e-02	 1.942533607004641e+00	 2.680916378208992e+00
 0.000000000000000e+00	 1.942856467296148e+00	 2.763561240811327e+00
 4.513517001411860e-01	 1.921314384087171e+00	 3.455122075350820e+00
 4.064576739778081e-01	 1.928407698004986e+00	 3.280030443713842e+00
 3.614342355998144e-01	 1.934667194084671e+00	 3.119818501795786e+00
 3.163110612528008e-01	 1.940111922632410e+00	 2.978426481840602e+00
 2.711171725753277e-01	 1.944761643653427e+00	 2.859743377288563e+00
 2.258808867877040e-01	 1.948636753359356e+00	 2.767578583642097e+00
 1.806297715598457e-01	 1.951758211370878e+00	 2.705636631177545e+00
 1.353906045615175e-01	 1.954147468956323e+00	 2.677495036604290e+00
 9.018933766619409e-02	 1.955826398620612e+00	 2.686585252013230e+00
 4.505106575001425e-02	 1.956817225331620e+00	 2.736176646843238e+00
 0.000000000000000e+00	 1.957142459643000e+00	 2.829363422225777e+00
 4.546462879018455e-01	 1.935338788672990e+00	 3.495990335191465e+00
 4.094245631633016e-01	 1.942483879388039e+00	 3.318978639082334e+00
 3.640724815811889e-01	 1.948789065911478e+00	 3.156939796145387e+00
 3.186199360192792e-01	 1.954273537604879e+00	 3.014139936360306e+00
 2.730961599560841e-01	 1.958957198709218e+00	 2.894810210971819e+00
 2.275296773100471e-01	 1.962860594315794e+00	 2.803113918587211e+00
 1.819482569779667e-01	 1.966004837037493e+00	 2.743116992036117e+00
 1.363788720899793e-01	 1.968411534723574e+00	 2.718761900346605e+00
 9.084766395213119e-02	 1.970102719534653e+00	 2.733844964082641e+00
 4.537991061758383e-02	 1.971100778667064e+00	 2.791997032847074e+00
 0.000000000000000e+00	 1.971428386987518e+00	 2.896667431149156e+00
 4.579408579818608e-01	 1.949363117992770e+00	 3.536283672938585e+00
 4.123914364267289e-01	 1.956559985227112e+00	 3.357053866702063e+00
 3.667107134041679e-01	 1.962910861949047e+00	 3.192957034983952e+00
 3.209287983949575e-01	 1.968435076574785e+00	 3.048600658879835e+00
 2.750751367164178e-01	 1.973152677580279e+00	 2.928575657230037e+00
 2.291784589840126e-01	 1.977084358935692e+00	 2.837418625636694e+00
 1.832667353203377e-01	 1.980251386245289e+00	 2.779577719248698e+00
 1.373671343148474e-01	 1.982675523938413e+00	 2.759382264060661e+00
 9.150598670513761e-02	 1.984378963830518e+00	 2.781016117418488e+00
 4.570875372040495e-02	 1.985384255345523e+00	 2.848494741574510e+00
 0.000000000000000e+00	 1.985714237662315e+00	 2.965645904767466e+00
 4.612354076907317e-01	 1.963387360592848e+00	 3.575959517434490e+00
 4.153582913451808e-01	 1.970636004026227e+00	 3.394193633742261e+00
 3.693489289142067e-01	 1.977032570664059e+00	 3.227798669425078e+00
 3.232376464942527e-01	 1.982596527976333e+00	 3.081738273240453e+00
 2.770541012401332e-01	 1.987348068673079e+00	 2.960980084073594e+00
 2.308272304630504e-01	 1.991308035602400e+00	 2.870452715894071e+00
 1.845852055101490e-01	 1.994497847358994e+00	 2.815006683269464e+00
 1.383553904289880e-01	 1.996939424951316e+00	 2.799379385690117e+00
 9.216430538753825e-02	 1.998655119848669e+00	 2.828164196364856e+00
 4.603759478989493e-02	 1.999667643701550e+00	 2.905783636325318e+00
 0.000000000000000e+00	 2.000000000000000e+00	 3.036466558016300e+00
