x	y	stress_xx
 1.0000000000e+00	 0.0000000000e+00	-2.1272061475e-02
 9.9983382185e-01	 2.3018797407e-02	-7.2841659928e-03
 9.9932755992e-01	 4.6082152713e-02	 1.1875532074e-02
 9.9846971248e-01	 6.9177695236e-02	 3.7692910331e-02
 9.9724892368e-01	 9.2292602777e-02	 7.1626654729e-02
 9.9565401780e-01	 1.1541361525e-01	 1.1509280986e-01
 9.9367403434e-01	 1.3852705063e-01	 1.6944809724e-01
 9.9129826399e-01	 1.6161882325e-01	 2.3597207963e-01
 9.8851628533e-01	 1.8467446446e-01	 3.1584827849e-01
 9.8531800201e-01	 2.0767914567e-01	 4.1014438191e-01
 9.8169368030e-01	 2.3061770384e-01	 5.1979171318e-01
 1.0142857623e+00	 0.0000000000e+00	 1.5369738318e-01
 1.0141172102e+00	 2.3347638476e-02	 1.6603667732e-01
 1.0136037159e+00	 4.6740471396e-02	 1.8442285288e-01
 1.0127336135e+00	 7.0165951353e-02	 2.0996702680e-01
 1.0114953848e+00	 9.3611072970e-02	 2.4374315238e-01
 1.0098776945e+00	 1.1706238673e-01	 2.8677454519e-01
 1.0078694254e+00	 1.4050601516e-01	 3.4001946092e-01
 1.0054597154e+00	 1.6392767136e-01	 4.0435580551e-01
 1.0026379941e+00	 1.8731267998e-01	 4.8056508265e-01
 9.9939402083e-01	 2.1064600060e-01	 5.6931570901e-01
 9.9571792291e-01	 2.3391225356e-01	 6.7114585502e-01
 1.0285716130e+00	 0.0000000000e+00	 3.1898967347e-01
 1.0284006869e+00	 2.3676481579e-02	 3.3013893313e-01
 1.0278799602e+00	 4.7398794148e-02	 3.4808372683e-01
 1.0269976027e+00	 7.1154213578e-02	 3.7359018169e-01
 1.0257419340e+00	 9.4929551314e-02	 4.0737852531e-01
 1.0241014591e+00	 1.1871116841e-01	 4.5011149316e-01
 1.0220649043e+00	 1.4248499193e-01	 5.0238205143e-01
 1.0196212544e+00	 1.6623653374e-01	 5.6470051684e-01
 1.0167597901e+00	 1.8995091181e-01	 6.3748117582e-01
 1.0134701267e+00	 2.1361287387e-01	 7.2102852643e-01
 1.0097422522e+00	 2.3720682365e-01	 8.1552328845e-01
 1.0428575404e+00	 0.0000000000e+00	 4.7497853476e-01
 1.0426842402e+00	 2.4005326445e-02	 4.8525709366e-01
 1.0421562812e+00	 4.8057120433e-02	 5.0295811474e-01
 1.0412616685e+00	 7.2142481105e-02	 5.2853123379e-01
 1.0399885597e+00	 9.6248036731e-02	 5.6237263437e-01
 1.0383253001e+00	 1.2035995893e-01	 6.0481524548e-01
 1.0362604594e+00	 1.4446397931e-01	 6.5611849797e-01
 1.0337828694e+00	 1.6854540851e-01	 7.1645772182e-01
 1.0308816619e+00	 1.9258915780e-01	 7.8591328363e-01
 1.0275463081e+00	 2.1657976306e-01	 8.6445958010e-01
 1.0237666568e+00	 2.4050141141e-01	 9.5195402075e-01
 1.0571435327e+00	 0.0000000000e+00	 6.2201747108e-01
 1.0569678585e+00	 2.4334172807e-02	 6.3161295320e-01
 1.0564326670e+00	 4.8715449711e-02	 6.4914054843e-01
 1.0555257991e+00	 7.3130753127e-02	 6.7476069604e-01
 1.0542352502e+00	 9.7566528146e-02	 7.0857396374e-01
 1.0525492057e+00	 1.2200875696e-01	 7.5061294667e-01
 1.0504560790e+00	 1.4644297570e-01	 8.0083394916e-01
 1.0479445488e+00	 1.7085429379e-01	 8.5910853116e-01
 1.0450035980e+00	 1.9522741578e-01	 9.2521501502e-01
 1.0416225535e+00	 2.1954666575e-01	 9.9883006073e-01
 1.0377911252e+00	 2.4379601417e-01	 1.0795204307e+00
 1.0714295784e+00	 0.0000000000e+00	 7.6044110895e-01
 1.0712515302e+00	 2.4663020396e-02	 7.6941645027e-01
 1.0707091062e+00	 4.9373781447e-02	 7.8672048815e-01
 1.0697899831e+00	 7.4119028838e-02	 8.1225062072e-01
 1.0684819939e+00	 9.8885024482e-02	 8.4583904130e-01
 1.0667731645e+00	 1.2365756113e-01	 8.8724625228e-01
 1.0646517517e+00	 1.4842197947e-01	 9.3615456674e-01
 1.0621062811e+00	 1.7316318768e-01	 9.9216167940e-01
 1.0591255868e+00	 1.9786568362e-01	 1.0547743980e+00
 1.0556988515e+00	 2.2251357951e-01	 1.1234026352e+00
 1.0518156460e+00	 2.4709062922e-01	 1.1973537711e+00
 1.0857156657e+00	 0.0000000000e+00	 8.9056643499e-01
 1.0855352435e+00	 2.4991868945e-02	 8.9886644328e-01
 1.0849855870e+00	 5.0032115103e-02	 9.1578265185e-01
 1.0840542086e+00	 7.5107307430e-02	 9.4097449358e-01
 1.0827287791e+00	 1.0020352466e-01	 9.7403190477e-01
 1.0809971648e+00	 1.2530637012e-01	 1.0144703694e+00
 1.0788474657e+00	 1.5040098901e-01	 1.0617261380e+00
 1.0762680546e+00	 1.7547208830e-01	 1.1151517022e+00
 1.0732476168e+00	 2.0050395915e-01	 1.1740116094e+00
 1.0697751905e+00	 2.2548050193e-01	 1.2374787123e+00
 1.0658402077e+00	 2.5038525388e-01	 1.3046309481e+00
 1.1000017831e+00	 0.0000000000e+00	 1.0126939374e+00
 1.0998189868e+00	 2.5320718183e-02	 1.0201514259e+00
 1.0992620978e+00	 5.0690450140e-02	 1.0364073188e+00
 1.0983184641e+00	 7.6095588098e-02	 1.0609071363e+00
 1.0969755942e+00	 1.0152202761e-01	 1.0930236093e+00
 1.0952211949e+00	 1.2695518256e-01	 1.1320531715e+00
 1.0930432096e+00	 1.5238000271e-01	 1.1772127963e+00
 1.0904298580e+00	 1.7778099377e-01	 1.2276372556e+00
 1.0873696765e+00	 2.0314224021e-01	 1.2823768824e+00
 1.0838515591e+00	 2.2844743057e-01	 1.3403959210e+00
 1.0798647988e+00	 2.5367988546e-01	 1.4005715499e+00
 1.1142879188e+00	 0.0000000000e+00	 1.1271086595e+00
 1.1141027485e+00	 2.5649567844e-02	 1.1334501873e+00
 1.1135386269e+00	 5.1348786023e-02	 1.1486706099e+00
 1.1125827379e+00	 7.7083870033e-02	 1.1720246165e+00
 1.1112224277e+00	 1.0284053225e-01	 1.2026917731e+00
 1.1094452433e+00	 1.2860399713e-01	 1.2397743822e+00
 1.1072389717e+00	 1.5435901894e-01	 1.2822958398e+00
 1.1045916795e+00	 1.8008990221e-01	 1.3291995644e+00
 1.1014917543e+00	 2.0578052467e-01	 1.3793485732e+00
 1.0979279458e+00	 2.3141436302e-01	 1.4315257829e+00
 1.0938894079e+00	 2.5697452127e-01	 1.4844351053e+00
 1.1285740611e+00	 0.0000000000e+00	 1.2340811734e+00
 1.1283865168e+00	 2.5978417659e-02	 1.2389324226e+00
 1.1278151627e+00	 5.2007122212e-02	 1.2526447466e+00
 1.1268470183e+00	 7.8072152430e-02	 1.2743041643e+00
 1.1254692677e+00	 1.0415903751e-01	 1.3029201574e+00
 1.1236692983e+00	 1.3025281246e-01	 1.3374248198e+00
 1.1214347404e+00	 1.5633803610e-01	 1.3766726402e+00
 1.1187535076e+00	 1.8239881172e-01	 1.4194409883e+00
 1.1156138386e+00	 2.0841881035e-01	 1.4644313763e+00
 1.1120043390e+00	 2.3438129685e-01	 1.5102715610e+00
 1.1079140236e+00	 2.6026915861e-01	 1.5555185490e+00
 1.1428601985e+00	 0.0000000000e+00	 1.3338684811e+00
 1.1426702801e+00	 2.6307267358e-02	 1.3367592968e+00
 1.1420916935e+00	 5.2665458172e-02	 1.3483982908e+00
 1.1411112938e+00	 7.9060434482e-02	 1.3677240956e+00
 1.1397161028e+00	 1.0547754230e-01	 1.3935982776e+00
 1.1378933484e+00	 1.3190162721e-01	 1.4248056990e+00
 1.1356305041e+00	 1.5831705257e-01	 1.4600556324e+00
 1.1329153307e+00	 1.8470772042e-01	 1.4979836959e+00
 1.1297359180e+00	 2.1105709511e-01	 1.5371546722e+00
 1.1260807273e+00	 2.3734822965e-01	 1.5760662702e+00
 1.1219386343e+00	 2.6356379480e-01	 1.6131538781e+00
 9.8169368030e-01	 2.3061770384e-01	 5.1979171318e-01
 9.7763428640e-01	 2.5347307689e-01	 6.4418040056e-01
 9.7313068804e-01	 2.7623115241e-01	 7.8173669931e-01
 9.6817446680e-01	 2.9887597146e-01	 9.3179518169e-01
 9.6275771633e-01	 3.2139136714e-01	 1.0936792825e+00
 9.5687307865e-01	 3.4376100127e-01	 1.2667065981e+00
 9.5051377945e-01	 3.6596840296e-01	 1.4501944716e+00
 9.4367366227e-01	 3.8799700919e-01	 1.6434658093e+00
 9.3634722131e-01	 4.0983020693e-01	 1.8458550662e+00
 9.2852963255e-01	 4.3145137682e-01	 2.0567143308e+00
 9.2021678307e-01	 4.5284393814e-01	 2.2754194321e+00
 9.9571792291e-01	 2.3391225356e-01	 6.7114585502e-01
 9.9160053748e-01	 2.5709413304e-01	 7.8578614405e-01
 9.8703260179e-01	 2.8017732501e-01	 9.1202740791e-01
 9.8200557714e-01	 3.0314564256e-01	 1.0488548831e+00
 9.7651144426e-01	 3.2598268784e-01	 1.1952435577e+00
 9.7054274004e-01	 3.4867188923e-01	 1.3501663436e+00
 9.6409259340e-01	 3.7119654059e-01	 1.5126027305e+00
 9.5715475994e-01	 3.9353984225e-01	 1.6815478391e+00
 9.4972365518e-01	 4.1568494387e-01	 1.8560217799e+00
 9.4179438621e-01	 4.3761498865e-01	 2.0350792082e+00
 9.3336278133e-01	 4.5931315901e-01	 2.2178189548e+00
 1.0097422522e+00	 2.3720682365e-01	 8.1552328845e-01
 1.0055668749e+00	 2.6071521158e-01	 9.2100540635e-01
 1.0009346015e+00	 2.8412352201e-01	 1.0366136647e+00
 9.9583677301e-01	 3.0741534007e-01	 1.1610418721e+00
 9.9026525724e-01	 3.3057403692e-01	 1.2929746382e+00
 9.8421248596e-01	 3.5358280757e-01	 1.4310979748e+00
 9.7767149133e-01	 3.7642471054e-01	 1.5741105427e+00
 9.7063594097e-01	 3.9908270958e-01	 1.7207354396e+00
 9.6310017177e-01	 4.2153971700e-01	 1.8697324062e+00
 9.5505922188e-01	 4.4377863858e-01	 2.0199103099e+00
 9.4650886088e-01	 4.6578241988e-01	 2.1701397488e+00
 1.0237666568e+00	 2.4050141141e-01	 9.5195402075e-01
 1.0195332873e+00	 2.6433630954e-01	 1.0487155384e+00
 1.0148366758e+00	 2.8806974019e-01	 1.1542144405e+00
 1.0096680431e+00	 3.1168506048e-01	 1.2669084625e+00
 1.0040191440e+00	 3.3516541064e-01	 1.3852473101e+00
 9.9788230525e-01	 3.5849375226e-01	 1.5076852584e+00
 9.9125046212e-01	 3.8165290856e-01	 1.6326945301e+00
 9.8411719435e-01	 4.0462560667e-01	 1.7587793307e+00
 9.7647676014e-01	 4.2739452156e-01	 1.8844903940e+00
 9.6832412875e-01	 4.4994232160e-01	 2.0084398701e+00
 9.5965501098e-01	 4.7225171547e-01	 2.1293163687e+00
 1.0377911252e+00	 2.4379601417e-01	 1.0795204307e+00
 1.0334997632e+00	 2.6795742398e-01	 1.1678545088e+00
 1.0287388134e+00	 2.9201597632e-01	 1.2636178800e+00
 1.0234993761e+00	 3.1595480033e-01	 1.3650851455e+00
 1.0177730934e+00	 3.3975680526e-01	 1.4705241283e+00
 1.0115521867e+00	 3.6340471929e-01	 1.5782100508e+00
 1.0048294947e+00	 3.8688113036e-01	 1.6864405972e+00
 9.9759850906e-01	 4.1016852897e-01	 1.7935517231e+00
 9.8985340938e-01	 4.3324935275e-01	 1.8979340471e+00
 9.8158909597e-01	 4.5610603267e-01	 1.9980496364e+00
 9.7280122090e-01	 4.7872104050e-01	 2.0924489728e+00
 1.0518156460e+00	 2.4709062922e-01	 1.1973537711e+00
 1.0474662913e+00	 2.7157855194e-01	 1.2774168572e+00
 1.0426410028e+00	 2.9596222719e-01	 1.3636766839e+00
 1.0373307608e+00	 3.2022455611e-01	 1.4542753714e+00
 1.0315270941e+00	 3.4434821701e-01	 1.5473495588e+00
 1.0252221192e+00	 3.6831570466e-01	 1.6410457528e+00
 1.0184085780e+00	 3.9210937168e-01	 1.7335366404e+00
 1.0110798741e+00	 4.1571147196e-01	 1.8230382133e+00
 1.0032301086e+00	 4.3910420581e-01	 1.9078275283e+00
 9.9485411272e-01	 4.6226976674e-01	 1.9862608977e+00
 9.8594747989e-01	 4.8519038969e-01	 2.0567922790e+00
 1.0658402077e+00	 2.5038525388e-01	 1.3046309481e+00
 1.0614328601e+00	 2.7519969046e-01	 1.3764499661e+00
 1.0565432328e+00	 2.9990848956e-01	 1.4533038558e+00
 1.0511621858e+00	 3.2449432434e-01	 1.5332507438e+00
 1.0452811349e+00	 3.4893964216e-01	 1.6143445836e+00
 1.0388920916e+00	 3.7322670435e-01	 1.6946512808e+00
 1.0319877008e+00	 3.9733762825e-01	 1.7722658317e+00
 1.0245612785e+00	 4.2125443113e-01	 1.8453303186e+00
 1.0166068467e+00	 4.4495907594e-01	 1.9120525739e+00
 1.0081191681e+00	 4.6843351880e-01	 1.9707252988e+00
 9.9909377723e-01	 4.9165975774e-01	 2.0197453926e+00
 1.0798647988e+00	 2.5367988546e-01	 1.4005715499e+00
 1.0753994583e+00	 2.7882083658e-01	 1.4640506233e+00
 1.0704454920e+00	 3.0385476022e-01	 1.5314687802e+00
 1.0649936398e+00	 3.2876410154e-01	 1.6008465873e+00
 1.0590352046e+00	 3.5353107694e-01	 1.6702017259e+00
 1.0525620927e+00	 3.7813771435e-01	 1.7375655070e+00
 1.0455668522e+00	 4.0256589580e-01	 1.8010004254e+00
 1.0380427111e+00	 4.2679740193e-01	 1.8586185923e+00
 1.0299836130e+00	 4.5081395837e-01	 1.9086008530e+00
 1.0213842514e+00	 4.7459728379e-01	 1.9492163704e+00
 1.0122401022e+00	 4.9812913938e-01	 1.9788424245e+00
 1.0938894079e+00	 2.5697452127e-01	 1.4844351053e+00
 1.0893660743e+00	 2.8244198734e-01	 1.5393618488e+00
 1.0843477691e+00	 3.0780103594e-01	 1.5971936013e+00
 1.0788251116e+00	 3.3303388422e-01	 1.6559578563e+00
 1.0727892920e+00	 3.5812251762e-01	 1.7136804572e+00
 1.0662321113e+00	 3.8304873066e-01	 1.7684021276e+00
 1.0591460211e+00	 4.0779417006e-01	 1.8181960411e+00
 1.0515241611e+00	 4.3234037985e-01	 1.8611862690e+00
 1.0433603965e+00	 4.5666884831e-01	 1.8955669142e+00
 1.0346493517e+00	 4.8076105670e-01	 1.9196217098e+00
 1.0253864440e+00	 5.0459852932e-01	 1.9317438325e+00
 1.1079140236e+00	 2.6026915861e-01	 1.5555185490e+00
 1.1033326969e+00	 2.8606313980e-01	 1.6015699621e+00
 1.0982500526e+00	 3.1174731350e-01	 1.6495498779e+00
 1.0926565899e+00	 3.3730366890e-01	 1.6975353540e+00
 1.0865433858e+00	 3.6271396044e-01	 1.7436029527e+00
 1.0799021363e+00	 3.8795974926e-01	 1.7858449198e+00
 1.0727251962e+00	 4.1302244676e-01	 1.8223863802e+00
 1.0650056174e+00	 4.3788336035e-01	 1.8514033915e+00
 1.0567371862e+00	 4.6252374099e-01	 1.8711416673e+00
 1.0479144583e+00	 4.8692483249e-01	 1.8799357545e+00
 1.0385327919e+00	 5.1106792229e-01	 1.8762284177e+00
 1.1219386343e+00	 2.6356379480e-01	 1.6131538781e+00
 1.1172993146e+00	 2.8968429099e-01	 1.6499018694e+00
 1.1121523313e+00	 3.1569358968e-01	 1.6876554874e+00
 1.1064880633e+00	 3.4157345207e-01	 1.7245822350e+00
 1.1002974747e+00	 3.6730540165e-01	 1.7588501658e+00
 1.0935721566e+00	 3.9287076614e-01	 1.7886433546e+00
 1.0863043666e+00	 4.1825072163e-01	 1.8121783387e+00
 1.0784870689e+00	 4.4342633892e-01	 1.8277213782e+00
 1.0701139712e+00	 4.6837863162e-01	 1.8336063541e+00
 1.0611795601e+00	 4.9308860612e-01	 1.8282530988e+00
 1.0516791353e+00	 5.1753731298e-01	 1.8101859221e+00
 9.2021678307e-01	 4.5284393814e-01	 2.2754194321e+00
 9.1140466485e-01	 4.7399286534e-01	 2.5006135267e+00
 9.0209123535e-01	 4.9488028000e-01	 2.7268691370e+00
 8.9227467429e-01	 5.1548998767e-01	 2.9477996263e+00
 8.8195396682e-01	 5.3580602098e-01	 3.1574456748e+00
 8.7112892028e-01	 5.5581268770e-01	 3.3503489661e+00
 8.5980017780e-01	 5.7549461858e-01	 3.5216229362e+00
 8.4796922867e-01	 5.9483681473e-01	 3.6670193513e+00
 8.3563841542e-01	 6.1382469423e-01	 3.7829895017e+00
 8.2281093734e-01	 6.3244413771e-01	 3.8667388422e+00
 8.0949085058e-01	 6.5068153262e-01	 3.9162739865e+00
 9.3336278133e-01	 4.5931315901e-01	 2.2178189548e+00
 9.2442477528e-01	 4.8076421475e-01	 2.4038434677e+00
 9.1497829635e-01	 5.0195002206e-01	 2.5895356813e+00
 9.0502149822e-01	 5.2285415512e-01	 2.7694851675e+00
 8.9455335158e-01	 5.4346041845e-01	 2.9386564159e+00
 8.8357366100e-01	 5.6375289565e-01	 3.0924520358e+00
 8.7208307879e-01	 5.8371599792e-01	 3.2267733463e+00
 8.6008311553e-01	 6.0333451209e-01	 3.3380772971e+00
 8.4757614721e-01	 6.2259364793e-01	 3.4234286727e+00
 8.3456541884e-01	 6.4147908436e-01	 3.4805465782e+00
 8.2105504448e-01	 6.5997701436e-01	 3.5078442671e+00
 9.4650886088e-01	 4.6578241988e-01	 2.1701397488e+00
 9.3744496623e-01	 4.8753560604e-01	 2.3207662357e+00
 9.2786543703e-01	 5.0901980784e-01	 2.4696746171e+00
 9.1776840098e-01	 5.3021836810e-01	 2.6123424459e+00
 9.0715281425e-01	 5.5111486325e-01	 2.7445747221e+00
 8.9601847867e-01	 5.7169315271e-01	 2.8625575385e+00
 8.8436605574e-01	 5.9193742811e-01	 2.9629094133e+00
 8.7219707731e-01	 6.1183226200e-01	 3.0427294057e+00
 8.5951395283e-01	 6.3136265585e-01	 3.0996411228e+00
 8.4631997302e-01	 6.5051408687e-01	 3.1318317651e+00
 8.3261930989e-01	 6.6927255357e-01	 3.1380854153e+00
 9.5965501098e-01	 4.7225171547e-01	 2.1293163687e+00
 9.5046522705e-01	 4.9430703367e-01	 2.2480221802e+00
 9.4075264687e-01	 5.1608963156e-01	 2.3636697493e+00
 9.3051537214e-01	 5.3758262060e-01	 2.4725400950e+00
 9.1975234453e-01	 5.5876934913e-01	 2.5711989446e+00
 9.0846336313e-01	 5.7963345238e-01	 2.6565417223e+00
 8.9664909860e-01	 6.0015890241e-01	 2.7258364915e+00
 8.8431110409e-01	 6.2033005752e-01	 2.7767640872e+00
 8.7145182251e-01	 6.4013171083e-01	 2.8074546892e+00
 8.5807459028e-01	 6.5954913787e-01	 2.8165201172e+00
 8.4418363736e-01	 6.7856814267e-01	 2.8030811830e+00
 9.7280122090e-01	 4.7872104050e-01	 2.0924489728e+00
 9.6348554711e-01	 5.0107849211e-01	 2.1824331578e+00
 9.5363991535e-01	 5.2315948744e-01	 2.2681002594e+00
 9.4326240130e-01	 5.4494690662e-01	 2.3464537583e+00
 9.3235193215e-01	 5.6642386984e-01	 2.4147436534e+00
 9.2090830421e-01	 5.8757378818e-01	 2.4705036594e+00
 9.0893219736e-01	 6.0838041412e-01	 2.5115865968e+00
 8.9642518600e-01	 6.2882789170e-01	 2.5361973354e+00
 8.8338974652e-01	 6.4890080571e-01	 2.5429226689e+00
 8.6982926103e-01	 6.6858422998e-01	 2.5307575256e+00
 8.5574801746e-01	 6.8786377406e-01	 2.4991269648e+00
 9.8594747989e-01	 4.8519038969e-01	 2.0567922790e+00
 9.7650591578e-01	 5.0784997584e-01	 2.1209904295e+00
 9.6652723194e-01	 5.3022936973e-01	 2.1797276786e+00
 9.5600947806e-01	 5.5231122013e-01	 2.2306522884e+00
 9.4495156680e-01	 5.7407841913e-01	 2.2716252226e+00
 9.3335329176e-01	 5.9551415362e-01	 2.3007503915e+00
 9.2121534197e-01	 6.1660195653e-01	 2.3164032978e+00
 9.0853931314e-01	 6.3732575760e-01	 2.3172575585e+00
 8.9532771509e-01	 6.5766993333e-01	 2.3023087918e+00
 8.8158397567e-01	 6.7761935581e-01	 2.2708953847e+00
 8.6731244073e-01	 6.9715944016e-01	 2.2227156941e+00
 9.9909377723e-01	 4.9165975774e-01	 2.0197453926e+00
 9.8952632243e-01	 5.1462147931e-01	 2.0608435113e+00
 9.7941458612e-01	 5.3729927263e-01	 2.0954838877e+00
 9.6875659199e-01	 5.5967555511e-01	 2.1218850332e+00
 9.5755123821e-01	 5.8173299074e-01	 2.1384485527e+00
 9.4579831560e-01	 6.0345454222e-01	 2.1437832475e+00
 9.3349852241e-01	 6.2482352292e-01	 2.1367277983e+00
 9.2065347560e-01	 6.4582364829e-01	 2.1163716061e+00
 9.0726571848e-01	 6.6643908653e-01	 2.0820733787e+00
 8.9333872459e-01	 6.8665450801e-01	 2.0334770746e+00
 8.7887689772e-01	 7.0645513337e-01	 1.9705248506e+00
 1.0122401022e+00	 4.9812913938e-01	 1.9788424245e+00
 1.0025467564e+00	 5.2139299701e-01	 1.9992898942e+00
 9.9230196737e-01	 5.4436919038e-01	 2.0124600525e+00
 9.8150373269e-01	 5.6703990557e-01	 2.0170701129e+00
 9.7015093607e-01	 5.8938757843e-01	 2.0119948268e+00
 9.5824336558e-01	 6.1139494750e-01	 1.9962852267e+00
 9.4578172865e-01	 6.3304510657e-01	 1.9691861037e+00
 9.3276766351e-01	 6.5432155683e-01	 1.9301518836e+00
 9.1920374695e-01	 6.7520825814e-01	 1.8788605768e+00
 9.0509349820e-01	 6.9568967917e-01	 1.8152254977e+00
 8.9044137901e-01	 7.1575084610e-01	 1.7394044800e+00
 1.0253864440e+00	 5.0459852932e-01	 1.9317438325e+00
 1.0155672071e+00	 5.2816452339e-01	 1.9337655533e+00
 1.0051893652e+00	 5.5143911721e-01	 1.9278964085e+00
 9.9425088975e-01	 5.7440426547e-01	 1.9132835979e+00
 9.8275065011e-01	 5.9704217595e-01	 1.8892102076e+00
 9.7068843153e-01	 6.1933536297e-01	 1.8551093511e+00
 9.5806495065e-01	 6.4126670077e-01	 1.8105771739e+00
 9.4488186697e-01	 6.6281947627e-01	 1.7553844581e+00
 9.3114179073e-01	 6.8397744100e-01	 1.6894865775e+00
 9.1684828689e-01	 7.0472486193e-01	 1.6130315717e+00
 9.0200587513e-01	 7.2504657075e-01	 1.5263661348e+00
 1.0385327919e+00	 5.1106792229e-01	 1.8762284177e+00
 1.0285876639e+00	 5.3493605294e-01	 1.8618361776e+00
 1.0180767689e+00	 5.5850904733e-01	 1.8391728213e+00
 1.0069980528e+00	 5.8176862881e-01	 1.8077495076e+00
 9.9535037002e-01	 6.0469677703e-01	 1.7671953922e+00
 9.8313350329e-01	 6.2727578214e-01	 1.7172679019e+00
 9.7034817838e-01	 6.4948829881e-01	 1.6578619750e+00
 9.5699607607e-01	 6.7131739968e-01	 1.5890180659e+00
 9.4307984008e-01	 6.9274662796e-01	 1.5109287267e+00
 9.2860308106e-01	 7.1376004891e-01	 1.4239435971e+00
 9.1357037665e-01	 7.3434229975e-01	 1.3285726534e+00
 1.0516791353e+00	 5.1753731298e-01	 1.8101859221e+00
 1.0416081161e+00	 5.4170758012e-01	 1.7811890570e+00
 1.0309641682e+00	 5.6557897498e-01	 1.7438000546e+00
 1.0197452113e+00	 5.8913298958e-01	 1.6978305591e+00
 1.0079500855e+00	 6.1235137544e-01	 1.6431959500e+00
 9.9557857069e-01	 6.3521619854e-01	 1.5799224629e+00
 9.8263140181e-01	 6.5770989397e-01	 1.5081533516e+00
 9.6911028094e-01	 6.7981532011e-01	 1.4281539440e+00
 9.5501788526e-01	 7.0151581184e-01	 1.3403154524e+00
 9.4035787113e-01	 7.2279523272e-01	 1.2451574204e+00
 9.2513487412e-01	 7.4363802549e-01	 1.1433287061e+00
 8.0949085058e-01	 6.5068153262e-01	 3.9162739865e+00
 7.9568306243e-01	 6.6852381742e-01	 3.9314029234e+00
 7.8139331794e-01	 6.8595852703e-01	 3.9109215667e+00
 7.6662819543e-01	 7.0297382675e-01	 3.8523362548e+00
 7.5139509416e-01	 7.1955854692e-01	 3.7537008094e+00
 7.3570221656e-01	 7.3570221656e-01	 3.6136405744e+00
 7.1955854692e-01	 7.5139509416e-01	 3.4313697372e+00
 7.0297382675e-01	 7.6662819543e-01	 3.2067015959e+00
 6.8595852703e-01	 7.8139331794e-01	 2.9400515634e+00
 6.6852381742e-01	 7.9568306243e-01	 2.6324328470e+00
 6.5068153262e-01	 8.0949085058e-01	 2.2854448771e+00
 8.2105504448e-01	 6.5997701436e-01	 3.5078442671e+00
 8.0705000155e-01	 6.7807418980e-01	 3.5045502698e+00
 7.9255611717e-01	 6.9575796752e-01	 3.4692540674e+00
 7.7758006362e-01	 7.1301634377e-01	 3.4002943087e+00
 7.6212934589e-01	 7.2983798931e-01	 3.2964844129e+00
 7.4621228358e-01	 7.4621228358e-01	 3.1571295074e+00
 7.2983798931e-01	 7.6212934589e-01	 2.9820375617e+00
 7.1301634377e-01	 7.7758006362e-01	 2.7715244793e+00
 6.9575796752e-01	 7.9255611717e-01	 2.5264130270e+00
 6.7807418980e-01	 8.0705000155e-01	 2.2480255970e+00
 6.5997701436e-01	 8.2105504448e-01	 1.9381709201e+00
 8.3261930989e-01	 6.6927255357e-01	 3.1380854153e+00
 8.1841701096e-01	 6.8762462123e-01	 3.1171618599e+00
 8.0371898543e-01	 7.0555746861e-01	 3.0675034828e+00
 7.8853199954e-01	 7.2305892288e-01	 2.9881804619e+00
 7.7286366400e-01	 7.4011749526e-01	 2.8786716980e+00
 7.5672241559e-01	 7.5672241559e-01	 2.7388754779e+00
 7.4011749526e-01	 7.7286366400e-01	 2.5691151639e+00
 7.2305892288e-01	 7.8853199954e-01	 2.3701397590e+00
 7.0555746861e-01	 8.0371898543e-01	 2.1431193027e+00
 6.8762462123e-01	 8.1841701096e-01	 1.8896351457e+00
 6.6927255357e-01	 8.3261930989e-01	 1.6116652546e+00
 8.4418363736e-01	 6.7856814267e-01	 2.8030811830e+00
 8.2978408138e-01	 6.9717510391e-01	 2.7655258279e+00
 8.1488191359e-01	 7.1535702229e-01	 2.7021969276e+00
 7.9948399424e-01	 7.3310155590e-01	 2.6127997786e+00
 7.8359803972e-01	 7.5039705638e-01	 2.4973887799e+00
 7.6723260400e-01	 7.6723260400e-01	 2.3563726205e+00
 7.5039705638e-01	 7.8359803972e-01	 2.1905152386e+00
 7.3310155590e-01	 7.9948399424e-01	 2.0009324860e+00
 7.1535702229e-01	 8.1488191359e-01	 1.7890845106e+00
 6.9717510391e-01	 8.2978408138e-01	 1.5567639555e+00
 6.7856814267e-01	 8.4418363736e-01	 1.3060801524e+00
 8.5574801746e-01	 6.8786377406e-01	 2.4991269648e+00
 8.4115120351e-01	 7.0672563005e-01	 2.4461309118e+00
 8.2604489255e-01	 7.2515662055e-01	 2.3700492122e+00
 8.1043603877e-01	 7.4314423460e-01	 2.2711300036e+00
 7.9433246429e-01	 7.6067666427e-01	 2.1499171101e+00
 7.7774284023e-01	 7.7774284023e-01	 2.0072505219e+00
 7.6067666427e-01	 7.9433246429e-01	 1.8442633170e+00
 7.4314423460e-01	 8.1043603877e-01	 1.6623750236e+00
 7.2515662055e-01	 8.2604489255e-01	 1.4632814925e+00
 7.0672563005e-01	 8.4115120351e-01	 1.2489414165e+00
 6.8786377406e-01	 8.5574801746e-01	 1.0215596945e+00
 8.6731244073e-01	 6.9715944016e-01	 2.2227156941e+00
 8.5251836809e-01	 7.1627619184e-01	 2.1556530863e+00
 8.3720791319e-01	 7.3495625541e-01	 2.0679503361e+00
 8.2138812419e-01	 7.5318695080e-01	 1.9603100577e+00
 8.0506692893e-01	 7.7095631054e-01	 1.8336831276e+00
 7.8825311570e-01	 7.8825311570e-01	 1.6892651993e+00
 7.7095631054e-01	 8.0506692893e-01	 1.5284902525e+00
 7.5318695080e-01	 8.2138812419e-01	 1.3530212343e+00
 7.3495625541e-01	 8.3720791319e-01	 1.1647379053e+00
 7.1627619184e-01	 8.5251836809e-01	 9.6572205757e-01
 6.9715944016e-01	 8.6731244073e-01	 7.5824032321e-01
 8.7887689772e-01	 7.0645513337e-01	 1.9705248506e+00
 8.6388556582e-01	 7.2582678149e-01	 1.8909432490e+00
 8.4837096638e-01	 7.4475591884e-01	 1.7929539674e+00
 8.3234024156e-01	 7.6322969630e-01	 1.6776294394e+00
 8.1580142487e-01	 7.8123598680e-01	 1.5462487271e+00
 7.9876342183e-01	 7.9876342183e-01	 1.4002907884e+00
 7.8123598680e-01	 8.1580142487e-01	 1.2414252980e+00
 7.6322969630e-01	 8.3234024156e-01	 1.0715011256e+00
 7.4475591884e-01	 8.4837096638e-01	 8.9253262138e-01
 7.2582678149e-01	 8.6388556582e-01	 7.0668389975e-01
 7.0645513337e-01	 8.7887689772e-01	 5.1625135173e-01
 8.9044137901e-01	 7.1575084610e-01	 1.7394044800e+00
 8.7525278742e-01	 7.3537739119e-01	 1.6490158653e+00
 8.5953404301e-01	 7.5455560285e-01	 1.5422668200e+00
 8.4329238192e-01	 7.7327246288e-01	 1.4205184530e+00
 8.2653594336e-01	 7.9151568464e-01	 1.2853024688e+00
 8.0927375003e-01	 8.0927375003e-01	 1.1383118807e+00
 7.9151568464e-01	 8.2653594336e-01	 9.8138972386e-01
 7.7327246288e-01	 8.4329238192e-01	 8.1651591185e-01
 7.5455560285e-01	 8.5953404301e-01	 6.4579241008e-01
 7.3537739119e-01	 8.7525278742e-01	 4.7142693755e-01
 7.1575084610e-01	 8.9044137901e-01	 2.9571543306e-01
 9.0200587513e-01	 7.2504657075e-01	 1.5263661348e+00
 8.8662002361e-01	 7.4492801315e-01	 1.4270384872e+00
 8.7069713397e-01	 7.6435529944e-01	 1.3132388464e+00
 8.5424453633e-01	 7.8331524234e-01	 1.1865391865e+00
 8.3727047563e-01	 8.0179539567e-01	 1.0486514643e+00
 8.1978409171e-01	 8.1978409171e-01	 9.0141644783e-01
 8.0179539567e-01	 8.3727047563e-01	 7.4679092473e-01
 7.8331524234e-01	 8.5424453633e-01	 5.8683345632e-01
 7.6435529944e-01	 8.7069713397e-01	 4.2368887383e-01
 7.4492801315e-01	 8.8662002361e-01	 2.5957173684e-01
 7.2504657075e-01	 9.0200587513e-01	 9.6748993439e-02
 9.1357037665e-01	 7.3434229975e-01	 1.3285726534e+00
 8.9798726510e-01	 7.5447863957e-01	 1.2223220659e+00
 8.8186023014e-01	 7.7415500060e-01	 1.1033541753e+00
 8.6519669586e-01	 7.9335802650e-01	 9.7337717541e-01
 8.4800501290e-01	 8.1207511149e-01	 8.3421387737e-01
 8.3029443830e-01	 8.3029443830e-01	 6.8778930433e-01
 8.1207511149e-01	 8.4800501290e-01	 5.3611697470e-01
 7.9335802650e-01	 8.6519669586e-01	 3.8128405900e-01
 7.7415500060e-01	 8.8186023014e-01	 2.2543561688e-01
 7.5447863957e-01	 8.9798726510e-01	 7.0758139227e-02
 7.3434229975e-01	 9.1357037665e-01	-8.0537367258e-02
 9.2513487412e-01	 7.4363802549e-01	 1.1433287061e+00
 9.0935450262e-01	 7.6402926264e-01	 1.0323119917e+00
 8.9302332240e-01	 7.8395469832e-01	 9.1022272858e-01
 8.7614885155e-01	 8.0340080713e-01	 7.7883369023e-01
 8.5873954642e-01	 8.2235482372e-01	 6.4001198795e-01
 8.4080478121e-01	 8.4080478121e-01	 4.9570605940e-01
 8.2235482372e-01	 8.5873954642e-01	 3.4793159003e-01
 8.0340080713e-01	 8.7614885155e-01	 1.9875655997e-01
 7.8395469832e-01	 8.9302332240e-01	 5.0285626227e-02
 7.6402926264e-01	 9.0935450262e-01	-9.5355936454e-02
 7.4363802549e-01	 9.2513487412e-01	-2.3603850515e-01
 6.5068153262e-01	 8.0949085058e-01	 2.2854448771e+00
 6.3244413771e-01	 8.2281093734e-01	 1.9035969238e+00
 6.1382469423e-01	 8.3563841542e-01	 1.4946357569e+00
 5.9483681473e-01	 8.4796922867e-01	 1.0650664682e+00
 5.7549461858e-01	 8.5980017780e-01	 6.2085736375e-01
 5.5581268770e-01	 8.7112892028e-01	 1.6740836007e-01
 5.3580602098e-01	 8.8195396682e-01	-2.9047277866e-01
 5.1548998767e-01	 8.9227467429e-01	-7.4858633859e-01
 4.9488028000e-01	 9.0209123535e-01	-1.2033488123e+00
 4.7399286534e-01	 9.1140466485e-01	-1.6517935710e+00
 4.5284393814e-01	 9.2021678307e-01	-2.0915644344e+00
 6.5997701436e-01	 8.2105504448e-01	 1.9381709201e+00
 6.4147908436e-01	 8.3456541884e-01	 1.5987436888e+00
 6.2259364793e-01	 8.4757614721e-01	 1.2341648694e+00
 6.0333451209e-01	 8.6008311553e-01	 8.5008296395e-01
 5.8371599792e-01	 8.7208307879e-01	 4.5171476004e-01
 5.6375289565e-01	 8.8357366100e-01	 4.3816755359e-02
 5.4346041845e-01	 8.9455335158e-01	-3.6933697425e-01
 5.2285415512e-01	 9.0502149822e-01	-7.8397040793e-01
 5.0195002206e-01	 9.1497829635e-01	-1.1968147820e+00
 4.8076421475e-01	 9.2442477528e-01	-1.6051115433e+00
 4.5931315901e-01	 9.3336278133e-01	-2.0066093390e+00
 6.6927255357e-01	 8.3261930989e-01	 1.6116652546e+00
 6.5051408687e-01	 8.4631997302e-01	 1.3089770737e+00
 6.3136265585e-01	 8.5951395283e-01	 9.8323605191e-01
 6.1183226200e-01	 8.7219707731e-01	 6.3931755046e-01
 5.9193742811e-01	 8.8436605574e-01	 2.8175843719e-01
 5.7169315271e-01	 8.9601847867e-01	-8.5268699486e-02
 5.5111486325e-01	 9.0715281425e-01	-4.5797614013e-01
 5.3021836810e-01	 9.1776840098e-01	-8.3297634568e-01
 5.0901980784e-01	 9.2786543703e-01	-1.2072920106e+00
 4.8753560604e-01	 9.3744496623e-01	-1.5783609721e+00
 4.6578241988e-01	 9.4650886088e-01	-1.9440361776e+00
 6.7856814267e-01	 8.4418363736e-01	 1.3060801524e+00
 6.5954913787e-01	 8.5807459028e-01	 1.0351012367e+00
 6.4013171083e-01	 8.7145182251e-01	 7.4324495767e-01
 6.2033005752e-01	 8.8431110409e-01	 4.3469461596e-01
 6.0015890241e-01	 8.9664909860e-01	 1.1337684830e-01
 5.7963345238e-01	 9.0846336313e-01	-2.1706160538e-01
 5.5876934913e-01	 9.1975234453e-01	-5.5327304031e-01
 5.3758262060e-01	 9.3051537214e-01	-8.9222372702e-01
 5.1608963156e-01	 9.4075264687e-01	-1.2312046314e+00
 4.9430703367e-01	 9.5046522705e-01	-1.5678379712e+00
 4.7225171547e-01	 9.5965501098e-01	-1.9000797365e+00
 6.8786377406e-01	 8.5574801746e-01	 1.0215596945e+00
 6.6858422998e-01	 8.6982926103e-01	 7.7787691383e-01
 6.4890080571e-01	 8.8338974652e-01	 5.1551184973e-01
 6.2882789170e-01	 8.9642518600e-01	 2.3803458193e-01
 6.0838041412e-01	 9.0893219736e-01	-5.1170601817e-02
 5.8757378818e-01	 9.2090830421e-01	-3.4892611965e-01
 5.6642386984e-01	 9.3235193215e-01	-6.5227887645e-01
 5.4494690662e-01	 9.4326240130e-01	-9.5851478981e-01
 5.2315948744e-01	 9.5363991535e-01	-1.2651700043e+00
 5.0107849211e-01	 9.6348554711e-01	-1.5700388004e+00
 4.7872104050e-01	 9.7280122090e-01	-1.8711782623e+00
 6.9715944016e-01	 8.6731244073e-01	 7.5824032321e-01
 6.7761935581e-01	 8.8158397567e-01	 5.3802431938e-01
 6.5766993333e-01	 8.9532771509e-01	 3.0128663184e-01
 6.3732575760e-01	 9.0853931314e-01	 5.1060838436e-02
 6.1660195653e-01	 9.2121534197e-01	-2.0974494996e-01
 5.9551415362e-01	 9.3335329176e-01	-4.7836691630e-01
 5.7407841913e-01	 9.4495156680e-01	-7.5220205668e-01
 5.5231122013e-01	 9.5600947806e-01	-1.0288222557e+00
 5.3022936973e-01	 9.6652723194e-01	-1.3059858326e+00
 5.0784997584e-01	 9.7650591578e-01	-1.5816465213e+00
 4.8519038969e-01	 9.8594747989e-01	-1.8539598980e+00
 7.0645513337e-01	 8.7887689772e-01	 5.1625135173e-01
 6.8665450801e-01	 8.9333872459e-01	 3.1622581763e-01
 6.6643908653e-01	 9.0726571848e-01	 1.0175348260e-01
 6.4582364829e-01	 9.2065347560e-01	-1.2459386765e-01
 6.2482352292e-01	 9.3349852241e-01	-3.6031974682e-01
 6.0345454222e-01	 9.4579831560e-01	-6.0301993820e-01
 5.8173299074e-01	 9.5755123821e-01	-8.5039785046e-01
 5.5967555511e-01	 9.6875659199e-01	-1.1002781123e+00
 5.3729927263e-01	 9.7941458612e-01	-1.3506182970e+00
 5.1462147931e-01	 9.8952632243e-01	-1.5995187076e+00
 4.9165975774e-01	 9.9909377723e-01	-1.8452301898e+00
 7.1575084610e-01	 8.9044137901e-01	 2.9571543306e-01
 6.9568967917e-01	 9.0509349820e-01	 1.1312838671e-01
 6.7520825814e-01	 9.1920374695e-01	-8.1964871237e-02
 6.5432155683e-01	 9.3276766351e-01	-2.8738154178e-01
 6.3304510657e-01	 9.4578172865e-01	-5.0097374653e-01
 6.1139494750e-01	 9.5824336558e-01	-7.2064386930e-01
 5.8938757843e-01	 9.7015093607e-01	-9.4435884877e-01
 5.6703990557e-01	 9.8150373269e-01	-1.1701632678e+00
 5.4436919038e-01	 9.9230196737e-01	-1.3961911132e+00
 5.2139299701e-01	 1.0025467564e+00	-1.6206761105e+00
 4.9812913938e-01	 1.0122401022e+00	-1.8419605653e+00
 7.2504657075e-01	 9.0200587513e-01	 9.6748993439e-02
 7.0472486193e-01	 9.1684828689e-01	-7.0654107069e-02
 6.8397744100e-01	 9.3114179073e-01	-2.4880320979e-01
 6.6281947627e-01	 9.4488186697e-01	-4.3583350367e-01
 6.4126670077e-01	 9.5806495065e-01	-6.2988415799e-01
 6.1933536297e-01	 9.7068843153e-01	-8.2911226225e-01
 5.9704217595e-01	 9.8275065011e-01	-1.0317061576e+00
 5.7440426547e-01	 9.9425088975e-01	-1.2358980021e+00
 5.5143911721e-01	 1.0051893652e+00	-1.4399754308e+00
 5.2816452339e-01	 1.0155672071e+00	-1.6422921967e+00
 5.0459852932e-01	 1.0253864440e+00	-1.8412776985e+00
 7.3434229975e-01	 9.1357037665e-01	-8.0537367258e-02
 7.1376004891e-01	 9.2860308106e-01	-2.3453880740e-01
 6.9274662796e-01	 9.4307984008e-01	-3.9775017460e-01
 6.7131739968e-01	 9.5699607607e-01	-5.6855536183e-01
 6.4948829881e-01	 9.7034817838e-01	-7.4532040847e-01
 6.2727578214e-01	 9.8313350329e-01	-9.2640626349e-01
 6.0469677703e-01	 9.9535037002e-01	-1.1101812599e+00
 5.8176862881e-01	 1.0069980528e+00	-1.2950331415e+00
 5.5850904733e-01	 1.0180767689e+00	-1.4793804980e+00
 5.3493605294e-01	 1.0285876639e+00	-1.6616834792e+00
 5.1106792229e-01	 1.0385327919e+00	-1.8404536809e+00
 7.4363802549e-01	 9.2513487412e-01	-2.3603850515e-01
 7.2279523272e-01	 9.4035787113e-01	-3.7797192367e-01
 7.0151581184e-01	 9.5501788526e-01	-5.2784489627e-01
 6.7981532011e-01	 9.6911028094e-01	-6.8422236480e-01
 6.5770989397e-01	 9.8263140181e-01	-8.4563837445e-01
 6.3521619854e-01	 9.9557857069e-01	-1.0106078835e+00
 6.1235137544e-01	 1.0079500855e+00	-1.1776384867e+00
 5.8913298958e-01	 1.0197452113e+00	-1.3452418952e+00
 5.6557897498e-01	 1.0309641682e+00	-1.5119450267e+00
 5.4170758012e-01	 1.0416081161e+00	-1.6763005735e+00
 5.1753731298e-01	 1.0516791353e+00	-1.8368969299e+00
 4.5284393814e-01	 9.2021678307e-01	-2.0915644344e+00
 4.3145137682e-01	 9.2852963255e-01	-2.5197465126e+00
 4.0983020693e-01	 9.3634722131e-01	-2.9321967026e+00
 3.8799700919e-01	 9.4367366227e-01	-3.3255387907e+00
 3.6596840296e-01	 9.5051377945e-01	-3.6970052889e+00
 3.4376100127e-01	 9.5687307865e-01	-4.0444218101e+00
 3.2139136714e-01	 9.6275771633e-01	-4.3661860746e+00
 2.9887597146e-01	 9.6817446680e-01	-4.6612422198e+00
 2.7623115241e-01	 9.7313068804e-01	-4.9290511076e+00
 2.5347307689e-01	 9.7763428640e-01	-5.1695573331e+00
 2.3061770384e-01	 9.8169368030e-01	-5.3831536270e+00
 4.5931315901e-01	 9.3336278133e-01	-2.0066093390e+00
 4.3761498865e-01	 9.4179438621e-01	-2.3985250680e+00
 4.1568494387e-01	 9.4972365518e-01	-2.7771003988e+00
 3.9353984225e-01	 9.5715475994e-01	-3.1393278157e+00
 3.7119654059e-01	 9.6409259340e-01	-3.4827445405e+00
 3.4867188923e-01	 9.7054274004e-01	-3.8054184168e+00
 3.2598268784e-01	 9.7651144426e-01	-4.1059290000e+00
 3.0314564256e-01	 9.8200557714e-01	-4.3833444566e+00
 2.8017732501e-01	 9.8703260179e-01	-4.6371948966e+00
 2.5709413304e-01	 9.9160053748e-01	-4.8674427678e+00
 2.3391225356e-01	 9.9571792291e-01	-5.0744509350e+00
 4.6578241988e-01	 9.4650886088e-01	-1.9440361776e+00
 4.4377863858e-01	 9.5505922188e-01	-2.3017785629e+00
 4.2153971700e-01	 9.6310017177e-01	-2.6482989588e+00
 3.9908270958e-01	 9.7063594097e-01	-2.9809271998e+00
 3.7642471054e-01	 9.7767149133e-01	-3.2974783587e+00
 3.5358280757e-01	 9.8421248596e-01	-3.5962400751e+00
 3.3057403692e-01	 9.9026525724e-01	-3.8759556214e+00
 3.0741534007e-01	 9.9583677301e-01	-4.1358032476e+00
 2.8412352201e-01	 1.0009346015e+00	-4.3753723592e+00
 2.6071521158e-01	 1.0055668749e+00	-4.5946370907e+00
 2.3720682365e-01	 1.0097422522e+00	-4.7939278307e+00
 4.7225171547e-01	 9.5965501098e-01	-1.9000797365e+00
 4.4994232160e-01	 9.6832412875e-01	-2.2257254419e+00
 4.2739452156e-01	 9.7647676014e-01	-2.5420193075e+00
 4.0462560667e-01	 9.8411719435e-01	-2.8465983366e+00
 3.8165290856e-01	 9.9125046212e-01	-3.1375295857e+00
 3.5849375226e-01	 9.9788230525e-01	-3.4132988763e+00
 3.3516541064e-01	 1.0040191440e+00	-3.6727957357e+00
 3.1168506048e-01	 1.0096680431e+00	-3.9152950468e+00
 2.8806974019e-01	 1.0148366758e+00	-4.1404359015e+00
 2.6433630954e-01	 1.0195332873e+00	-4.3481981547e+00
 2.4050141141e-01	 1.0237666568e+00	-4.5388771713e+00
 4.7872104050e-01	 9.7280122090e-01	-1.8711782623e+00
 4.5610603267e-01	 9.8158909597e-01	-2.1667884930e+00
 4.3324935275e-01	 9.8985340938e-01	-2.4546922558e+00
 4.1016852897e-01	 9.9759850906e-01	-2.7328046433e+00
 3.8688113036e-01	 1.0048294947e+00	-2.9994197668e+00
 3.6340471929e-01	 1.0115521867e+00	-3.2532007921e+00
 3.3975680526e-01	 1.0177730934e+00	-3.4931666586e+00
 3.1595480033e-01	 1.0234993761e+00	-3.7186759012e+00
 2.9201597632e-01	 1.0287388134e+00	-3.9294080137e+00
 2.6795742398e-01	 1.0334997632e+00	-4.1253427925e+00
 2.4379601417e-01	 1.0377911252e+00	-4.3067380933e+00
 4.8519038969e-01	 9.8594747989e-01	-1.8539598980e+00
 4.6226976674e-01	 9.9485411272e-01	-2.1215812264e+00
 4.3910420581e-01	 1.0032301086e+00	-2.3829389093e+00
 4.1571147196e-01	 1.0110798741e+00	-2.6361980941e+00
 3.9210937168e-01	 1.0184085780e+00	-2.8798559051e+00
 3.6831570466e-01	 1.0252221192e+00	-3.1127327507e+00
 3.4434821701e-01	 1.0315270941e+00	-3.3339607260e+00
 3.2022455611e-01	 1.0373307608e+00	-3.5429694803e+00
 2.9596222719e-01	 1.0426410028e+00	-3.7394699329e+00
 2.7157855194e-01	 1.0474662913e+00	-3.9234362211e+00
 2.4709062922e-01	 1.0518156460e+00	-4.0950862622e+00
 4.9165975774e-01	 9.9909377723e-01	-1.8452301898e+00
 4.6843351880e-01	 1.0081191681e+00	-2.0868953260e+00
 4.4495907594e-01	 1.0166068467e+00	-2.3235581492e+00
 4.2125443113e-01	 1.0245612785e+00	-2.5536068153e+00
 3.9733762825e-01	 1.0319877008e+00	-2.7757182614e+00
 3.7322670435e-01	 1.0388920916e+00	-2.9888507329e+00
 3.4893964216e-01	 1.0452811349e+00	-3.1922337803e+00
 3.2449432434e-01	 1.0511621858e+00	-3.3853560500e+00
 2.9990848956e-01	 1.0565432328e+00	-3.5679512009e+00
 2.7519969046e-01	 1.0614328601e+00	-3.7399822805e+00
 2.5038525388e-01	 1.0658402077e+00	-3.9016248924e+00
 4.9812913938e-01	 1.0122401022e+00	-1.8419605653e+00
 4.7459728379e-01	 1.0213842514e+00	-2.0596890790e+00
 4.5081395837e-01	 1.0299836130e+00	-2.2735150877e+00
 4.2679740193e-01	 1.0380427111e+00	-2.4820236467e+00
 4.0256589580e-01	 1.0455668522e+00	-2.6840491038e+00
 3.7813771435e-01	 1.0525620927e+00	-2.8786687953e+00
 3.5353107694e-01	 1.0590352046e+00	-3.0651945536e+00
 3.2876410154e-01	 1.0649936398e+00	-3.2431623039e+00
 3.0385476022e-01	 1.0704454920e+00	-3.4123200350e+00
 2.7882083658e-01	 1.0753994583e+00	-3.5726144332e+00
 2.5367988546e-01	 1.0798647988e+00	-3.7241764650e+00
 5.0459852932e-01	 1.0253864440e+00	-1.8412776985e+00
 4.8076105670e-01	 1.0346493517e+00	-2.0370766944e+00
 4.5666884831e-01	 1.0433603965e+00	-2.2299304104e+00
 4.3234037985e-01	 1.0515241611e+00	-2.4185955823e+00
 4.0779417006e-01	 1.0591460211e+00	-2.6020423216e+00
 3.8304873066e-01	 1.0662321113e+00	-2.7794489362e+00
 3.5812251762e-01	 1.0727892920e+00	-2.9501948672e+00
 3.3303388422e-01	 1.0788251116e+00	-3.1138519777e+00
 3.0780103594e-01	 1.0843477691e+00	-3.2701744385e+00
 2.8244198734e-01	 1.0893660743e+00	-3.4190874556e+00
 2.5697452127e-01	 1.0938894079e+00	-3.5606750834e+00
 5.1106792229e-01	 1.0385327919e+00	-1.8404536809e+00
 4.8692483249e-01	 1.0479144583e+00	-2.0163184322e+00
 4.6252374099e-01	 1.0567371862e+00	-2.1900705287e+00
 4.3788336035e-01	 1.0650056174e+00	-2.3606140114e+00
 4.1302244676e-01	 1.0727251962e+00	-2.5270338276e+00
 3.8795974926e-01	 1.0799021363e+00	-2.6885917318e+00
 3.6271396044e-01	 1.0865433858e+00	-2.8447205743e+00
 3.3730366890e-01	 1.0926565899e+00	-2.9950171747e+00
 3.1174731350e-01	 1.0982500526e+00	-3.1392339863e+00
 2.8606313980e-01	 1.1033326969e+00	-3.2772697596e+00
 2.6026915861e-01	 1.1079140236e+00	-3.4091594080e+00
 5.1753731298e-01	 1.0516791353e+00	-1.8368969299e+00
 4.9308860612e-01	 1.0611795601e+00	-1.9948114721e+00
 4.6837863162e-01	 1.0701139712e+00	-2.1513384686e+00
 4.4342633892e-01	 1.0784870689e+00	-2.3055056923e+00
 4.1825072163e-01	 1.0863043666e+00	-2.4564926802e+00
 3.9287076614e-01	 1.0935721566e+00	-2.6036276731e+00
 3.6730540165e-01	 1.1002974747e+00	-2.7463831820e+00
 3.4157345207e-01	 1.1064880633e+00	-2.8843703417e+00
 3.1569358968e-01	 1.1121523313e+00	-3.0173322255e+00
 2.8968429099e-01	 1.1172993146e+00	-3.1451362894e+00
 2.6356379480e-01	 1.1219386343e+00	-3.2677661213e+00
 2.3061770384e-01	 9.8169368030e-01	-5.3831536270e+00
 2.0767914567e-01	 9.8531800201e-01	-5.5710345616e+00
 1.8467446446e-01	 9.8851628533e-01	-5.7343767068e+00
 1.6161882325e-01	 9.9129826399e-01	-5.8739424831e+00
 1.3852705063e-01	 9.9367403434e-01	-5.9905423998e+00
 1.1541361525e-01	 9.9565401780e-01	-6.0850272291e+00
 9.2292602777e-02	 9.9724892368e-01	-6.1582804679e+00
 6.9177695236e-02	 9.9846971248e-01	-6.2112111405e+00
 4.6082152713e-02	 9.9932755992e-01	-6.2447469824e+00
 2.3018797407e-02	 9.9983382185e-01	-6.2598280400e+00
 0.0000000000e+00	 1.0000000000e+00	-6.2574007068e+00
 2.3391225356e-01	 9.9571792291e-01	-5.0744509350e+00
 2.1064600060e-01	 9.9939402083e-01	-5.2581788900e+00
 1.8731267998e-01	 1.0026379941e+00	-5.4185404855e+00
 1.6392767136e-01	 1.0054597154e+00	-5.5562058626e+00
 1.4050601516e-01	 1.0078694254e+00	-5.6719104425e+00
 1.1706238673e-01	 1.0098776945e+00	-5.7664460068e+00
 9.3611072970e-02	 1.0114953848e+00	-5.8406520086e+00
 7.0165951353e-02	 1.0127336135e+00	-5.8954071880e+00
 4.6740471396e-02	 1.0136037159e+00	-5.9316215514e+00
 2.3347638476e-02	 1.0141172102e+00	-5.9502287630e+00
 0.0000000000e+00	 1.0142857623e+00	-5.9521789888e+00
 2.3720682365e-01	 1.0097422522e+00	-4.7939278307e+00
 2.1361287387e-01	 1.0134701267e+00	-4.9721868342e+00
 1.8995091181e-01	 1.0167597901e+00	-5.1282889720e+00
 1.6623653374e-01	 1.0196212544e+00	-5.2628188337e+00
 1.4248499193e-01	 1.0220649043e+00	-5.3764412852e+00
 1.1871116841e-01	 1.0241014591e+00	-5.4698916083e+00
 9.4929551314e-02	 1.0257419340e+00	-5.5439658219e+00
 7.1154213578e-02	 1.0269976027e+00	-5.5995112731e+00
 4.7398794148e-02	 1.0278799602e+00	-5.6374175749e+00
 2.3676481578e-02	 1.0284006869e+00	-5.6586079547e+00
 0.0000000000e+00	 1.0285716130e+00	-5.6640310640e+00
 2.4050141141e-01	 1.0237666568e+00	-4.5388771713e+00
 2.1657976306e-01	 1.0275463081e+00	-4.7105936055e+00
 1.9258915780e-01	 1.0308816619e+00	-4.8613850047e+00
 1.6854540851e-01	 1.0337828694e+00	-4.9917574053e+00
 1.4446397931e-01	 1.0362604594e+00	-5.1023099810e+00
 1.2035995893e-01	 1.0383253001e+00	-5.1937243912e+00
 9.6248036731e-02	 1.0399885597e+00	-5.2667542651e+00
 7.2142481105e-02	 1.0412616685e+00	-5.3222149258e+00
 4.8057120433e-02	 1.0421562812e+00	-5.3609734447e+00
 2.4005326445e-02	 1.0426842402e+00	-5.3839391037e+00
 0.0000000000e+00	 1.0428575404e+00	-5.3920543266e+00
 2.4379601417e-01	 1.0377911252e+00	-4.3067380933e+00
 2.1954666575e-01	 1.0416225535e+00	-4.4710675959e+00
 1.9522741578e-01	 1.0450035980e+00	-4.6157123004e+00
 1.7085429379e-01	 1.0479445488e+00	-4.7411069429e+00
 1.4644297570e-01	 1.0504560790e+00	-4.8477901818e+00
 1.2200875696e-01	 1.0525492057e+00	-4.9363932966e+00
 9.7566528146e-02	 1.0542352502e+00	-5.0076289828e+00
 7.3130753127e-02	 1.0555257991e+00	-5.0622803606e+00
 4.8715449711e-02	 1.0564326670e+00	-5.1011902992e+00
 2.4334172807e-02	 1.0569678585e+00	-5.1252511441e+00
 0.0000000000e+00	 1.0571435327e+00	-5.1353949195e+00
 2.4709062922e-01	 1.0518156460e+00	-4.0950862622e+00
 2.2251357951e-01	 1.0556988515e+00	-4.2514015008e+00
 1.9786568362e-01	 1.0591255868e+00	-4.3892673965e+00
 1.7316318768e-01	 1.0621062811e+00	-4.5090548799e+00
 1.4842197947e-01	 1.0646517517e+00	-4.6112475668e+00
 1.2365756113e-01	 1.0667731645e+00	-4.6964299449e+00
 9.8885024482e-02	 1.0684819939e+00	-4.7652756220e+00
 7.4119028838e-02	 1.0697899831e+00	-4.8185357652e+00
 4.9373781447e-02	 1.0707091062e+00	-4.8570278418e+00
 2.4663020396e-02	 1.0712515302e+00	-4.8816247598e+00
 0.0000000000e+00	 1.0714295784e+00	-4.8932444851e+00
 2.5038525388e-01	 1.0658402077e+00	-3.9016248924e+00
 2.2548050193e-01	 1.0697751905e+00	-4.0495041432e+00
 2.0050395915e-01	 1.0732476168e+00	-4.1801522309e+00
 1.7547208830e-01	 1.0762680546e+00	-4.2938840036e+00
 1.5040098901e-01	 1.0788474657e+00	-4.3911337885e+00
 1.2530637012e-01	 1.0809971648e+00	-4.4724431973e+00
 1.0020352466e-01	 1.0827287791e+00	-4.5384489652e+00
 7.5107307430e-02	 1.0840542086e+00	-4.5898709611e+00
 5.0032115103e-02	 1.0849855870e+00	-4.6275004885e+00
 2.4991868945e-02	 1.0855352435e+00	-4.6521889803e+00
 0.0000000000e+00	 1.0857156657e+00	-4.6648371723e+00
 2.5367988546e-01	 1.0798647988e+00	-3.7241764650e+00
 2.2844743057e-01	 1.0838515591e+00	-3.8633929337e+00
 2.0314224021e-01	 1.0873696765e+00	-3.9865672981e+00
 1.7778099377e-01	 1.0904298580e+00	-4.0939662644e+00
 1.5238000271e-01	 1.0930432096e+00	-4.1859808913e+00
 1.2695518256e-01	 1.0952211949e+00	-4.2631141409e+00
 1.0152202761e-01	 1.0969755942e+00	-4.3259684408e+00
 7.6095588098e-02	 1.0983184641e+00	-4.3752334017e+00
 5.0690450140e-02	 1.0992620978e+00	-4.4116738155e+00
 2.5320718183e-02	 1.0998189868e+00	-4.4361180424e+00
 0.0000000000e+00	 1.1000017831e+00	-4.4494468767e+00
 2.5697452127e-01	 1.0938894079e+00	-3.5606750834e+00
 2.3141436302e-01	 1.0979279458e+00	-3.6911869095e+00
 2.0578052467e-01	 1.1014917543e+00	-3.8068053317e+00
 1.8008990221e-01	 1.1045916795e+00	-3.9077570603e+00
 1.5435901894e-01	 1.1072389717e+00	-3.9943961583e+00
 1.2860399713e-01	 1.1094452433e+00	-4.0671914592e+00
 1.0284053225e-01	 1.1112224277e+00	-4.1267139803e+00
 7.7083870033e-02	 1.1125827379e+00	-4.1736244786e+00
 5.1348786023e-02	 1.1135386269e+00	-4.2086612801e+00
 2.5649567844e-02	 1.1141027485e+00	-4.2326284921e+00
 0.0000000000e+00	 1.1142879188e+00	-4.2463846931e+00
 2.6026915861e-01	 1.1079140236e+00	-3.4091594080e+00
 2.3438129685e-01	 1.1120043390e+00	-3.5311003031e+00
 2.0841881035e-01	 1.1156138386e+00	-3.6392454670e+00
 1.8239881172e-01	 1.1187535076e+00	-3.7337899557e+00
 1.5633803610e-01	 1.1214347404e+00	-3.8150573494e+00
 1.3025281246e-01	 1.1236692983e+00	-3.8834871539e+00
 1.0415903751e-01	 1.1254692677e+00	-3.9396221883e+00
 7.8072152430e-02	 1.1268470183e+00	-3.9840961074e+00
 5.2007122212e-02	 1.1278151627e+00	-4.0176211901e+00
 2.5978417659e-02	 1.1283865168e+00	-4.0409765067e+00
 0.0000000000e+00	 1.1285740611e+00	-4.0549965609e+00
 2.6356379480e-01	 1.1219386343e+00	-3.2677661213e+00
 2.3734822965e-01	 1.1260807273e+00	-3.3814365916e+00
 2.1105709511e-01	 1.1297359180e+00	-3.4823478398e+00
 1.8470772042e-01	 1.1329153307e+00	-3.5706717955e+00
 1.5831705257e-01	 1.1356305041e+00	-3.6467082962e+00
 1.3190162721e-01	 1.1378933484e+00	-3.7108725870e+00
 1.0547754230e-01	 1.1397161028e+00	-3.7636828008e+00
 7.9060434482e-02	 1.1411112938e+00	-3.8057475703e+00
 5.2665458172e-02	 1.1420916935e+00	-3.8377539007e+00
 2.6307267358e-02	 1.1426702801e+00	-3.8604554180e+00
 0.0000000000e+00	 1.1428601985e+00	-3.8746610863e+00
 1.1428601985e+00	 0.0000000000e+00	 1.3338684811e+00
 1.1426702801e+00	 2.6307267358e-02	 1.3367592968e+00
 1.1420916935e+00	 5.2665458172e-02	 1.3483982908e+00
 1.1411112938e+00	 7.9060434482e-02	 1.3677240956e+00
 1.1397161028e+00	 1.0547754230e-01	 1.3935982776e+00
 1.1378933484e+00	 1.3190162721e-01	 1.4248056990e+00
 1.1356305041e+00	 1.5831705257e-01	 1.4600556324e+00
 1.1329153307e+00	 1.8470772042e-01	 1.4979836959e+00
 1.1297359180e+00	 2.1105709511e-01	 1.5371546722e+00
 1.1260807273e+00	 2.3734822965e-01	 1.5760662702e+00
 1.1219386343e+00	 2.6356379480e-01	 1.6131538781e+00
 1.1571453214e+00	 0.0000000000e+00	 1.4278015062e+00
 1.1569530291e+00	 2.6636093707e-02	 1.4285974769e+00
 1.1563672105e+00	 5.3323747384e-02	 1.4379530982e+00
 1.1553745563e+00	 8.0048646356e-02	 1.4546809244e+00
 1.1539619263e+00	 1.0679595347e-01	 1.4775166150e+00
 1.1521163884e+00	 1.3355032488e-01	 1.5051204082e+00
 1.1498252598e+00	 1.6029592851e-01	 1.5360794523e+00
 1.1470761482e+00	 1.8701646517e-01	 1.5689110549e+00
 1.1438569947e+00	 2.1369519253e-01	 1.6020669112e+00
 1.1401561161e+00	 2.4031495177e-01	 1.6339383574e+00
 1.1359622492e+00	 2.6685819703e-01	 1.6628626906e+00
 1.1714304292e+00	 0.0000000000e+00	 1.5168568263e+00
 1.1712357631e+00	 2.6964919710e-02	 1.5158138833e+00
 1.1706427125e+00	 5.3982035906e-02	 1.5230828407e+00
 1.1696378039e+00	 8.1036857194e-02	 1.5373714616e+00
 1.1682077347e+00	 1.0811436326e-01	 1.5573113081e+00
 1.1663394135e+00	 1.3519902083e-01	 1.5814602050e+00
 1.1640200006e+00	 1.6227480237e-01	 1.6083056456e+00
 1.1612369509e+00	 1.8932520749e-01	 1.6362692017e+00
 1.1579780564e+00	 2.1633328717e-01	 1.6637119868e+00
 1.1542314900e+00	 2.4328167077e-01	 1.6889412148e+00
 1.1499858493e+00	 2.7015259581e-01	 1.7102178830e+00
 1.1857155238e+00	 0.0000000000e+00	 1.6007410399e+00
 1.1855184838e+00	 2.7293745407e-02	 1.5981055936e+00
 1.1849182012e+00	 5.4640323814e-02	 1.6034737146e+00
 1.1839010381e+00	 8.2025067110e-02	 1.6154688132e+00
 1.1824535299e+00	 1.0943277181e-01	 1.6326392919e+00
 1.1805624252e+00	 1.3684771523e-01	 1.6534618776e+00
 1.1782147281e+00	 1.6425367438e-01	 1.6763459677e+00
 1.1753977403e+00	 1.9163394766e-01	 1.6996390463e+00
 1.1720991051e+00	 2.1897137936e-01	 1.7216332157e+00
 1.1683068509e+00	 2.4624838700e-01	 1.7405728772e+00
 1.1640094364e+00	 2.7344699152e-01	 1.7546635796e+00
 1.2000006067e+00	 0.0000000000e+00	 1.6791747204e+00
 1.1998011928e+00	 2.7622570835e-02	 1.6751841139e+00
 1.1991936782e+00	 5.5298611184e-02	 1.6788268629e+00
 1.1981642607e+00	 8.3013276220e-02	 1.6886616554e+00
 1.1966993134e+00	 1.1075117929e-01	 1.7031738409e+00
 1.1947854254e+00	 1.3849640829e-01	 1.7207795137e+00
 1.1924094441e+00	 1.6623254478e-01	 1.7398306652e+00
 1.1895585182e+00	 1.9394268595e-01	 1.7586214585e+00
 1.1862201421e+00	 2.2160946939e-01	 1.7753956647e+00
 1.1823822002e+00	 2.4921510081e-01	 1.7883552859e+00
 1.1780330119e+00	 2.7674138453e-01	 1.7956703783e+00
 1.2142856796e+00	 0.0000000000e+00	 1.7518915948e+00
 1.2140838918e+00	 2.7951396034e-02	 1.7467745302e+00
 1.2134691452e+00	 5.5956898094e-02	 1.7488574958e+00
 1.2124274734e+00	 8.4001484638e-02	 1.7566533182e+00
 1.2109450870e+00	 1.1206958585e-01	 1.7686036088e+00
 1.2090084156e+00	 1.4014510020e-01	 1.7830834828e+00
 1.2066041501e+00	 1.6821141380e-01	 1.7984073885e+00
 1.2037192862e+00	 1.9625142262e-01	 1.8128360950e+00
 1.2003411693e+00	 2.2424755758e-01	 1.8245848721e+00
 1.1964575397e+00	 2.5218181254e-01	 1.8318328832e+00
 1.1920565777e+00	 2.8003577524e-01	 1.8327337942e+00
 1.2285707441e+00	 0.0000000000e+00	 1.8186377791e+00
 1.2283665825e+00	 2.8280221041e-02	 1.8126147193e+00
 1.2277446039e+00	 5.6615184621e-02	 1.8132940740e+00
 1.2266906777e+00	 8.4989692481e-02	 1.8191609347e+00
 1.2251908523e+00	 1.1338799164e-01	 1.8286317346e+00
 1.2232313976e+00	 1.4179379114e-01	 1.8400594902e+00
 1.2207988478e+00	 1.7019028166e-01	 1.8517401808e+00
 1.2178800459e+00	 1.9856015794e-01	 1.8619203067e+00
 1.2144621883e+00	 2.2688564422e-01	 1.8688056576e+00
 1.2105328710e+00	 2.5514852255e-01	 1.8705713044e+00
 1.2060801353e+00	 2.8333016403e-01	 1.8653728112e+00
 1.2428558020e+00	 0.0000000000e+00	 1.8791710668e+00
 1.2426492666e+00	 2.8609045895e-02	 1.8724546144e+00
 1.2420200560e+00	 5.7273470840e-02	 1.8718775470e+00
 1.2409538753e+00	 8.5977899862e-02	 1.8759146476e+00
 1.2394366109e+00	 1.1470639681e-01	 1.8829750103e+00
 1.2374543728e+00	 1.4344248132e-01	 1.8914076960e+00
 1.2349935389e+00	 1.7216914860e-01	 1.8995085360e+00
 1.2320407989e+00	 2.0086889219e-01	 1.9055281230e+00
 1.2285832006e+00	 2.2952372964e-01	 1.9076810151e+00
 1.2246081957e+00	 2.5811523116e-01	 1.9041561603e+00
 1.2201036864e+00	 2.8662455128e-01	 1.8931285334e+00
 1.2571408549e+00	 0.0000000000e+00	 1.9332602659e+00
 1.2569319456e+00	 2.8937870634e-02	 1.9260555201e+00
 1.2562955030e+00	 5.7931756830e-02	 1.9243606442e+00
 1.2552170680e+00	 8.6966106898e-02	 1.9266568705e+00
 1.2536823645e+00	 1.1602480153e-01	 1.9313631062e+00
 1.2516773431e+00	 1.4509117092e-01	 1.9368418944e+00
 1.2491882250e+00	 1.7414801484e-01	 1.9414065212e+00
 1.2462015471e+00	 2.0317762563e-01	 1.9433293038e+00
 1.2427042081e+00	 2.3216181413e-01	 1.9408510797e+00
 1.2386835154e+00	 2.6108193874e-01	 1.9321919027e+00
 1.2341272325e+00	 2.8991893738e-01	 1.9155629289e+00
 1.2714259045e+00	 0.0000000000e+00	 1.9806845805e+00
 1.2712146213e+00	 2.9266695296e-02	 1.9731894741e+00
 1.2705709467e+00	 5.8590042665e-02	 1.9705072136e+00
 1.2694802573e+00	 8.7954313704e-02	 1.9711415994e+00
 1.2679281148e+00	 1.1734320593e-01	 1.9735378470e+00
 1.2659003101e+00	 1.4673986013e-01	 1.9760887476e+00
 1.2633829079e+00	 1.7612688063e-01	 1.9771419589e+00
 1.2603622919e+00	 2.0548635853e-01	 1.9750084570e+00
 1.2568252122e+00	 2.3479989801e-01	 1.9679721660e+00
 1.2527588319e+00	 2.6404864563e-01	 1.9543007661e+00
 1.2481507754e+00	 2.9321332271e-01	 1.9322576584e+00
 1.2857109524e+00	 0.0000000000e+00	 2.0212330335e+00
 1.2854972953e+00	 2.9595519919e-02	 2.0136386516e+00
 1.2848463888e+00	 5.9248328424e-02	 2.0100916041e+00
 1.2837434449e+00	 8.8942520394e-02	 2.0091337689e+00
 1.2821738634e+00	 1.1866161018e-01	 2.0092525376e+00
 1.2801232755e+00	 1.4838854915e-01	 2.0088870722e+00
 1.2775775890e+00	 1.7810574618e-01	 2.0064356626e+00
 1.2745230351e+00	 2.0779509116e-01	 2.0002642132e+00
 1.2709462147e+00	 2.3743798158e-01	 1.9887158690e+00
 1.2668341468e+00	 2.6701535218e-01	 1.9701217804e+00
 1.2621743166e+00	 2.9650770765e-01	 1.9428129807e+00
 1.1219386343e+00	 2.6356379480e-01	 1.6131538781e+00
 1.1172993146e+00	 2.8968429099e-01	 1.6499018694e+00
 1.1121523313e+00	 3.1569358968e-01	 1.6876554874e+00
 1.1064880633e+00	 3.4157345207e-01	 1.7245822350e+00
 1.1002974747e+00	 3.6730540165e-01	 1.7588501658e+00
 1.0935721566e+00	 3.9287076614e-01	 1.7886433546e+00
 1.0863043666e+00	 4.1825072163e-01	 1.8121783387e+00
 1.0784870689e+00	 4.4342633892e-01	 1.8277213782e+00
 1.0701139712e+00	 4.6837863162e-01	 1.8336063541e+00
 1.0611795601e+00	 4.9308860612e-01	 1.8282530988e+00
 1.0516791353e+00	 5.1753731298e-01	 1.8101859221e+00
 1.1359622492e+00	 2.6685819703e-01	 1.6628626906e+00
 1.1312649405e+00	 2.9330518504e-01	 1.6903825590e+00
 1.1260536227e+00	 3.1963958564e-01	 1.7180331935e+00
 1.1203185545e+00	 3.4584293205e-01	 1.7440918621e+00
 1.1140505870e+00	 3.7189651683e-01	 1.7668374160e+00
 1.1072412061e+00	 3.9778143428e-01	 1.7845648878e+00
 1.0998825728e+00	 4.2347862524e-01	 1.7956010011e+00
 1.0919675632e+00	 4.4896892388e-01	 1.7983204507e+00
 1.0834898063e+00	 4.7423310649e-01	 1.7911627817e+00
 1.0744437200e+00	 4.9925194206e-01	 1.7726496721e+00
 1.0648245451e+00	 5.2400624429e-01	 1.7414023981e+00
 1.1499858493e+00	 2.7015259581e-01	 1.7102178830e+00
 1.1452305518e+00	 2.9692607529e-01	 1.7291145403e+00
 1.1399548996e+00	 3.2358557746e-01	 1.7473131425e+00
 1.1341490312e+00	 3.5011240755e-01	 1.7631996471e+00
 1.1278036849e+00	 3.7648762718e-01	 1.7751627230e+00
 1.1209102412e+00	 4.0269209728e-01	 1.7816074949e+00
 1.1134607646e+00	 4.2870652337e-01	 1.7809701417e+00
 1.1054480432e+00	 4.5451150302e-01	 1.7717332147e+00
 1.0968656274e+00	 4.8008757521e-01	 1.7524415148e+00
 1.0877078660e+00	 5.0541527153e-01	 1.7217183443e+00
 1.0779699412e+00	 5.3047516881e-01	 1.6782819244e+00
 1.1640094364e+00	 2.7344699152e-01	 1.7546635796e+00
 1.1591961500e+00	 3.0054696216e-01	 1.7654842847e+00
 1.1538561635e+00	 3.2753156559e-01	 1.7748259420e+00
 1.1479794950e+00	 3.5438187907e-01	 1.7811821584e+00
 1.1415567699e+00	 3.8107873325e-01	 1.7830504673e+00
 1.1345792636e+00	 4.0760275569e-01	 1.7789452374e+00
 1.1270389439e+00	 4.3393441661e-01	 1.7674113785e+00
 1.1189285107e+00	 4.6005407698e-01	 1.7470387151e+00
 1.1102414360e+00	 4.8594203847e-01	 1.7164768782e+00
 1.1009719996e+00	 5.1157859525e-01	 1.6744505417e+00
 1.0911153249e+00	 5.3694408729e-01	 1.6197748061e+00
 1.1780330119e+00	 2.7674138453e-01	 1.7956703783e+00
 1.1731617368e+00	 3.0416784607e-01	 1.7989074831e+00
 1.1677574160e+00	 3.3147755050e-01	 1.7999340792e+00
 1.1618099475e+00	 3.5865134709e-01	 1.7973504172e+00
 1.1553098437e+00	 3.8566983557e-01	 1.7897619672e+00
 1.1482482749e+00	 4.1251341009e-01	 1.7757915109e+00
 1.1406171120e+00	 4.3916230558e-01	 1.7540919703e+00
 1.1324089672e+00	 4.6559664642e-01	 1.7233598549e+00
 1.1236172336e+00	 4.9179649695e-01	 1.6823491840e+00
 1.1142361224e+00	 5.1774191393e-01	 1.6298857208e+00
 1.1042606979e+00	 5.4341300048e-01	 1.5648813365e+00
 1.1920565777e+00	 2.8003577524e-01	 1.8327337942e+00
 1.1871273138e+00	 3.0778872745e-01	 1.8288273272e+00
 1.1816586589e+00	 3.3542353264e-01	 1.8220300457e+00
 1.1756403904e+00	 3.6292081213e-01	 1.8110478709e+00
 1.1690629078e+00	 3.9026093468e-01	 1.7945933066e+00
 1.1619172766e+00	 4.1742406105e-01	 1.7713967312e+00
 1.1541952706e+00	 4.4439019090e-01	 1.7402183671e+00
 1.1458894143e+00	 4.7113921198e-01	 1.6998608162e+00
 1.1369930219e+00	 4.9765095133e-01	 1.6491820273e+00
 1.1275002359e+00	 5.2390522830e-01	 1.5871085435e+00
 1.1174060618e+00	 5.4988190915e-01	 1.5126488567e+00
 1.2060801353e+00	 2.8333016403e-01	 1.8653728112e+00
 1.2010928827e+00	 3.1140960672e-01	 1.8547129110e+00
 1.1955598936e+00	 3.3936951249e-01	 1.8405345939e+00
 1.1894708251e+00	 3.6719027468e-01	 1.8216485088e+00
 1.1828159640e+00	 3.9485203111e-01	 1.7968733137e+00
 1.1755862703e+00	 4.2233470914e-01	 1.7650461828e+00
 1.1677734213e+00	 4.4961807316e-01	 1.7250339324e+00
 1.1593698535e+00	 4.7668177431e-01	 1.6757446597e+00
 1.1503688024e+00	 5.0350540230e-01	 1.6161397699e+00
 1.1407643416e+00	 5.3006853907e-01	 1.5452462487e+00
 1.1305514179e+00	 5.5635081404e-01	 1.4621690207e+00
 1.2201036864e+00	 2.8662455128e-01	 1.8931285334e+00
 1.2150584451e+00	 3.1503048430e-01	 1.8760577429e+00
 1.2094611218e+00	 3.4331549049e-01	 1.8548951126e+00
 1.2033012534e+00	 3.7145973523e-01	 1.8285551067e+00
 1.1965690137e+00	 3.9944312540e-01	 1.7959616796e+00
 1.1892552576e+00	 4.2724535495e-01	 1.7560580149e+00
 1.1813515657e+00	 4.5484595299e-01	 1.7078168218e+00
 1.1728502864e+00	 4.8222433405e-01	 1.6502510914e+00
 1.1637445767e+00	 5.0935985053e-01	 1.5824251974e+00
 1.1540284412e+00	 5.3623184697e-01	 1.5034662061e+00
 1.1436967679e+00	 5.6281971592e-01	 1.4125752490e+00
 1.2341272325e+00	 2.8991893738e-01	 1.9155629289e+00
 1.2290240026e+00	 3.1865136061e-01	 1.8923783583e+00
 1.2233623451e+00	 3.4726146712e-01	 1.8645841146e+00
 1.2171316769e+00	 3.7572919429e-01	 1.8311975919e+00
 1.2103220586e+00	 4.0403421808e-01	 1.7912472054e+00
 1.2029242401e+00	 4.3215599904e-01	 1.7437813749e+00
 1.1949297053e+00	 4.6007383098e-01	 1.6878780065e+00
 1.1863307146e+00	 4.8776689185e-01	 1.6226543803e+00
 1.1771203463e+00	 5.1521429672e-01	 1.5472773367e+00
 1.1672925361e+00	 5.4239515271e-01	 1.4609736359e+00
 1.1568421134e+00	 5.6928861553e-01	 1.3630403553e+00
 1.2481507754e+00	 2.9321332271e-01	 1.9322576584e+00
 1.2429895568e+00	 3.2227223607e-01	 1.9032130272e+00
 1.2372635652e+00	 3.5120744282e-01	 1.8690978252e+00
 1.2309620972e+00	 3.7999865236e-01	 1.8290315184e+00
 1.2240751003e+00	 4.0862530968e-01	 1.7821461669e+00
 1.2165932195e+00	 4.3706664197e-01	 1.7275946668e+00
 1.2085078418e+00	 4.6530170775e-01	 1.6645594302e+00
 1.1998111396e+00	 4.9330944835e-01	 1.5922614173e+00
 1.1904961128e+00	 5.2106874154e-01	 1.5099694201e+00
 1.1805566279e+00	 5.4855845701e-01	 1.4170094830e+00
 1.1699874557e+00	 5.7575751363e-01	 1.3127743342e+00
 1.2621743166e+00	 2.9650770765e-01	 1.9428129807e+00
 1.2569551095e+00	 3.2589311112e-01	 1.9081205464e+00
 1.2511647837e+00	 3.5515341806e-01	 1.8679548653e+00
 1.2447925158e+00	 3.8426810993e-01	 1.8215366433e+00
 1.2378281404e+00	 4.1321640076e-01	 1.7681007888e+00
 1.2302621973e+00	 4.4197728434e-01	 1.7069039266e+00
 1.2220859766e+00	 4.7052958392e-01	 1.6372322888e+00
 1.2132915631e+00	 4.9885200421e-01	 1.5584099032e+00
 1.2038718777e+00	 5.2692318567e-01	 1.4698069855e+00
 1.1938207182e+00	 5.5472176059e-01	 1.3708484324e+00
 1.1831327965e+00	 5.8222641097e-01	 1.2610222957e+00
 1.0516791353e+00	 5.1753731298e-01	 1.8101859221e+00
 1.0416081161e+00	 5.4170758012e-01	 1.7811890570e+00
 1.0309641682e+00	 5.6557897498e-01	 1.7438000546e+00
 1.0197452113e+00	 5.8913298958e-01	 1.6978305591e+00
 1.0079500855e+00	 6.1235137544e-01	 1.6431959500e+00
 9.9557857069e-01	 6.3521619854e-01	 1.5799224629e+00
 9.8263140181e-01	 6.5770989397e-01	 1.5081533516e+00
 9.6911028094e-01	 6.7981532011e-01	 1.4281539440e+00
 9.5501788526e-01	 7.0151581184e-01	 1.3403154524e+00
 9.4035787113e-01	 7.2279523272e-01	 1.2451574204e+00
 9.2513487412e-01	 7.4363802549e-01	 1.1433287061e+00
 1.0648245451e+00	 5.2400624429e-01	 1.7414023981e+00
 1.0546276438e+00	 5.4847862645e-01	 1.6991647517e+00
 1.0438506524e+00	 5.7264840060e-01	 1.6485499418e+00
 1.0324914647e+00	 5.9649682740e-01	 1.5896262774e+00
 1.0205489063e+00	 6.2000543029e-01	 1.5225537922e+00
 1.0080227544e+00	 6.4315605109e-01	 1.4475886845e+00
 9.9491375301e-01	 6.6593090532e-01	 1.3650868625e+00
 9.8122362558e-01	 6.8831263711e-01	 1.2755064880e+00
 9.6695508272e-01	 7.1028437303e-01	 1.1794094251e+00
 9.5211182648e-01	 7.3182977495e-01	 1.0774615154e+00
 9.3669855040e-01	 7.5293309115e-01	 9.7043162204e-01
 1.0779699412e+00	 5.3047516881e-01	 1.6782819244e+00
 1.0676471577e+00	 5.5524966567e-01	 1.6238240365e+00
 1.0567371230e+00	 5.7971781880e-01	 1.5610046164e+00
 1.0452377047e+00	 6.0386065750e-01	 1.4901235010e+00
 1.0331477139e+00	 6.2765947711e-01	 1.4115611756e+00
 1.0204669250e+00	 6.5109589530e-01	 1.3257807790e+00
 1.0071960913e+00	 6.7415190804e-01	 1.2333292727e+00
 9.9333695750e-01	 6.9680994518e-01	 1.1348377076e+00
 9.7889226764e-01	 7.1905292502e-01	 1.0310205322e+00
 9.6386576950e-01	 7.4086430769e-01	 9.2267390499e-01
 9.4826221454e-01	 7.6222814704e-01	 8.1067298655e-01
 1.0911153249e+00	 5.3694408729e-01	 1.6197748061e+00
 1.0806666595e+00	 5.6202069857e-01	 1.5540799297e+00
 1.0696235816e+00	 5.8678723039e-01	 1.4800463639e+00
 1.0579839328e+00	 6.1122448071e-01	 1.3981812457e+00
 1.0457465097e+00	 6.3531351679e-01	 1.3090621891e+00
 1.0329110840e+00	 6.5903573210e-01	 1.2133370929e+00
 1.0194784182e+00	 6.8237290309e-01	 1.1117231689e+00
 1.0054502781e+00	 7.0530724533e-01	 1.0050051575e+00
 9.9082944142e-01	 7.2782146881e-01	 8.9403271244e-01
 9.7561970154e-01	 7.4989883200e-01	 7.7971694987e-01
 9.5982586788e-01	 7.7152319426e-01	 6.6302617235e-01
 1.1042606979e+00	 5.4341300048e-01	 1.5648813365e+00
 1.0936861507e+00	 5.6879172595e-01	 1.4888972133e+00
 1.0825100297e+00	 5.9385663622e-01	 1.4046106964e+00
 1.0707301505e+00	 6.1858829792e-01	 1.3127128618e+00
 1.0583452952e+00	 6.4296755021e-01	 1.2139559664e+00
 1.0453552328e+00	 6.6697556242e-01	 1.1091512909e+00
 1.0317607350e+00	 6.9059389142e-01	 9.9916625360e-01
 1.0175635888e+00	 7.1380453853e-01	 8.8492079548e-01
 1.0027666055e+00	 7.3659000545e-01	 7.6738305060e-01
 9.8737362398e-01	 7.5893334893e-01	 6.4756432696e-01
 9.7138951178e-01	 7.8081823389e-01	 5.2651343919e-01
 1.1174060618e+00	 5.4988190915e-01	 1.5126488567e+00
 1.1067056328e+00	 5.7556274858e-01	 1.4272893879e+00
 1.0953964687e+00	 6.0092603709e-01	 1.3336832221e+00
 1.0834763592e+00	 6.2595210997e-01	 1.2326828378e+00
 1.0709440719e+00	 6.5062157828e-01	 1.1251934482e+00
 1.0577993729e+00	 6.7491538718e-01	 1.0121691018e+00
 1.0440430432e+00	 6.9881487399e-01	 8.9460810322e-01
 1.0296768911e+00	 7.2230182579e-01	 7.7354778200e-01
 1.0147037611e+00	 7.4535853595e-01	 6.5005865149e-01
 9.9912753820e-01	 7.6796785954e-01	 5.2523801089e-01
 9.8295314759e-01	 7.9011326701e-01	 4.0020305796e-01
 1.1305514179e+00	 5.5635081404e-01	 1.4621690207e+00
 1.1197251073e+00	 5.8233376727e-01	 1.3683158407e+00
 1.1082829003e+00	 6.0799543384e-01	 1.2662967323e+00
 1.0962225605e+00	 6.3331591773e-01	 1.1571038279e+00
 1.0835428413e+00	 6.5827560189e-01	 1.0417743707e+00
 1.0702435058e+00	 6.8285520730e-01	 9.2138529172e-01
 1.0563253442e+00	 7.0703585178e-01	 7.9704715207e-01
 1.0417901863e+00	 7.3079910809e-01	 6.6989750323e-01
 1.0266409098e+00	 7.5412706134e-01	 5.4109373166e-01
 1.0108814456e+00	 7.7700236488e-01	 4.1180546584e-01
 9.9451677665e-01	 7.9940829472e-01	 2.8320663552e-01
 1.1436967679e+00	 5.6281971592e-01	 1.4125752490e+00
 1.1327445757e+00	 5.8910478279e-01	 1.3110792085e+00
 1.1211693258e+00	 6.1506482729e-01	 1.2015284905e+00
 1.1089687559e+00	 6.4067972205e-01	 1.0850338835e+00
 1.0961416048e+00	 6.6592962192e-01	 9.6274446074e-01
 1.0826876329e+00	 6.9079502373e-01	 8.3584084571e-01
 1.0686076395e+00	 7.1525682572e-01	 7.0552788450e-01
 1.0539034758e+00	 7.3929638643e-01	 5.7302679949e-01
 1.0385780530e+00	 7.6289558263e-01	 4.3956691174e-01
 1.0226353474e+00	 7.8603686600e-01	 3.0637703114e-01
 1.0060804003e+00	 8.0870331808e-01	 1.7467662402e-01
 1.1568421134e+00	 5.6928861553e-01	 1.3630403553e+00
 1.1457640395e+00	 5.9587579594e-01	 1.2547229204e+00
 1.1340557468e+00	 6.2213421827e-01	 1.1384977056e+00
 1.1217149468e+00	 6.4804352379e-01	 1.0155738744e+00
 1.1087403638e+00	 6.7358363927e-01	 8.8719282344e-01
 1.0951317556e+00	 6.9873483737e-01	 7.5462034207e-01
 1.0808899306e+00	 7.2347779679e-01	 6.1913821845e-01
 1.0660167611e+00	 7.4779366179e-01	 4.8203538270e-01
 1.0505151919e+00	 7.7166410086e-01	 3.4459869353e-01
 1.0343892452e+00	 7.9507136396e-01	 2.0810348515e-01
 1.0176440199e+00	 8.1799833819e-01	 7.3804000075e-02
 1.1699874557e+00	 5.7575751363e-01	 1.3127743342e+00
 1.1587835003e+00	 6.0264680752e-01	 1.1984289065e+00
 1.1469421648e+00	 6.2920360760e-01	 1.0763631754e+00
 1.1344611348e+00	 6.5540732381e-01	 9.4786508327e-01
 1.1213391200e+00	 6.8123765483e-01	 8.1424950491e-01
 1.1075758754e+00	 7.0667464916e-01	 6.7684950319e-01
 1.0931722187e+00	 7.3169876594e-01	 5.3700706550e-01
 1.0781300435e+00	 7.5629093517e-01	 3.9606342781e-01
 1.0624523281e+00	 7.8043261704e-01	 2.5534910711e-01
 1.0461431402e+00	 8.0410585981e-01	 1.1617377335e-01
 1.0292076368e+00	 8.2729335613e-01	-2.0183899618e-02
 1.1831327965e+00	 5.8222641097e-01	 1.2610222957e+00
 1.1718029596e+00	 6.0941781830e-01	 1.1414154591e+00
 1.1598285813e+00	 6.3627299610e-01	 1.0143210877e+00
 1.1472073212e+00	 6.6277112297e-01	 8.8108696051e-01
 1.1339378746e+00	 6.8889166950e-01	 7.4308321813e-01
 1.1200199937e+00	 7.1461446003e-01	 6.0169290996e-01
 1.1054545054e+00	 7.3991973413e-01	 4.5830205345e-01
 1.0902433246e+00	 7.6478820756e-01	 3.1428932502e-01
 1.0743894629e+00	 7.8920113219e-01	 1.7101551484e-01
 1.0578970339e+00	 8.1314035461e-01	 2.9812887953e-02
 1.0407712524e+00	 8.3658837299e-01	-1.0802539830e-01
 9.2513487412e-01	 7.4363802549e-01	 1.1433287061e+00
 9.0935450262e-01	 7.6402926264e-01	 1.0323119917e+00
 8.9302332240e-01	 7.8395469832e-01	 9.1022272858e-01
 8.7614885155e-01	 8.0340080713e-01	 7.7883369023e-01
 8.5873954642e-01	 8.2235482372e-01	 6.4001198795e-01
 8.4080478121e-01	 8.4080478121e-01	 4.9570605940e-01
 8.2235482372e-01	 8.5873954642e-01	 3.4793159003e-01
 8.0340080713e-01	 8.7614885155e-01	 1.9875655997e-01
 7.8395469832e-01	 8.9302332240e-01	 5.0285626227e-02
 7.6402926264e-01	 9.0935450262e-01	-9.5355936454e-02
 7.4363802549e-01	 9.2513487412e-01	-2.3603850515e-01
 9.3669855040e-01	 7.5293309115e-01	 9.7043162204e-01
 9.2072093295e-01	 7.7357920753e-01	 8.5579665641e-01
 9.0418562198e-01	 7.9375370018e-01	 7.3162535711e-01
 8.8710022954e-01	 8.1344287464e-01	 5.9971577858e-01
 8.6947331767e-01	 8.3263380599e-01	 4.6194322395e-01
 8.5131437779e-01	 8.5131437779e-01	 3.2024697185e-01
 8.3263380599e-01	 8.6947331767e-01	 1.7661613923e-01
 8.1344287464e-01	 8.8710022954e-01	 3.3074875569e-02
 7.9375370018e-01	 9.0418562198e-01	-1.0833290220e-01
 7.7357920753e-01	 9.2072093295e-01	-2.4555901577e-01
 7.5293309115e-01	 9.3669855040e-01	-3.7656655019e-01
 9.4826221454e-01	 7.6222814704e-01	 8.1067298655e-01
 9.3208735134e-01	 7.8312914239e-01	 6.9250972626e-01
 9.1534790983e-01	 8.0355269175e-01	 5.6622849084e-01
 8.9805159602e-01	 8.2348493160e-01	 4.3364399057e-01
 8.8020707766e-01	 8.4291277747e-01	 2.9663246604e-01
 8.6182396333e-01	 8.6182396333e-01	 1.5711822381e-01
 8.4291277747e-01	 8.8020707766e-01	 1.7059494961e-02
 8.2348493160e-01	 8.9805159602e-01	-1.2156618636e-01
 8.0355269175e-01	 9.1534790983e-01	-2.5677687633e-01
 7.8312914239e-01	 9.3208735134e-01	-3.8660117381e-01
 7.6222814704e-01	 9.4826221454e-01	-5.0909301772e-01
 9.5982586788e-01	 7.7152319426e-01	 6.6302617235e-01
 9.4345375912e-01	 7.9267906833e-01	 5.4148505153e-01
 9.2651018726e-01	 8.1335167417e-01	 4.1313273444e-01
 9.0900295228e-01	 8.3352697918e-01	 2.7979233453e-01
 8.9094082763e-01	 8.5319173935e-01	 1.4333410798e-01
 8.7233353906e-01	 8.7233353906e-01	 5.6618667079e-03
 8.5319173935e-01	 8.9094082763e-01	-1.3130111517e-01
 8.3352697918e-01	 9.0900295228e-01	-2.6562650291e-01
 8.1335167417e-01	 9.2651018726e-01	-3.9539540500e-01
 7.9267906833e-01	 9.4345375912e-01	-5.1871277154e-01
 7.7152319426e-01	 9.5982586788e-01	-6.3372148203e-01
 9.7138951178e-01	 7.8081823389e-01	 5.2651343919e-01
 9.5482015763e-01	 8.0222898648e-01	 4.0180248939e-01
 9.3767245558e-01	 8.2315064859e-01	 2.7148152056e-01
 9.1995429960e-01	 8.4356901857e-01	 1.3737415113e-01
 9.0167456884e-01	 8.6347069283e-01	 1.3380478510e-03
 8.8284310620e-01	 8.8284310620e-01	-1.3474871801e-01
 8.6347069283e-01	 9.0167456884e-01	-2.6900166583e-01
 8.4356901857e-01	 9.1995429960e-01	-3.9954405330e-01
 8.2315064859e-01	 9.3767245558e-01	-5.2452097383e-01
 8.0222898648e-01	 9.5482015763e-01	-6.4211320139e-01
 7.8081823389e-01	 9.7138951178e-01	-7.5055058629e-01
 9.8295314759e-01	 7.9011326701e-01	 4.0020305796e-01
 9.6618654817e-01	 8.1177889794e-01	 2.7258519748e-01
 9.4883471608e-01	 8.3294961614e-01	 1.4045859026e-01
 9.3090563925e-01	 8.5361105092e-01	 5.6397995166e-03
 9.1240830252e-01	 8.7374963913e-01	-1.3003240066e-01
 8.9335266599e-01	 8.9335266599e-01	-2.6471066208e-01
 8.7374963913e-01	 9.1240830252e-01	-3.9655291056e-01
 8.5361105092e-01	 9.3090563925e-01	-5.2373620723e-01
 8.3294961614e-01	 9.4883471608e-01	-6.4447042338e-01
 8.1177889794e-01	 9.6618654817e-01	-7.5701153276e-01
 7.9011326701e-01	 9.8295314759e-01	-8.5967433292e-01
 9.9451677665e-01	 7.9940829472e-01	 2.8320663552e-01
 9.7755293208e-01	 8.2132880383e-01	 1.5299711624e-01
 9.5999697007e-01	 8.4274857799e-01	 1.9285649363e-02
 9.4185697251e-01	 8.6365307742e-01	-1.1612549515e-01
 9.2314202995e-01	 8.8402857942e-01	-2.5142245127e-01
 9.0386221965e-01	 9.0386221965e-01	-3.8479332496e-01
 8.8402857942e-01	 9.2314202995e-01	-5.1444184835e-01
 8.6365307742e-01	 9.4185697251e-01	-6.3860092336e-01
 8.4274857799e-01	 9.5999697007e-01	-7.5554585901e-01
 8.2132880383e-01	 9.7755293208e-01	-8.6360711243e-01
 7.9940829472e-01	 9.9451677665e-01	-9.6118235366e-01
 1.0060804003e+00	 8.0870331808e-01	 1.7467662402e-01
 9.8891931069e-01	 8.3087870527e-01	 4.2240624988e-02
 9.7115921886e-01	 8.5254753526e-01	-9.2779813581e-02
 9.5280830067e-01	 8.7369509923e-01	-2.2860364565e-01
 9.3387575237e-01	 8.9430751492e-01	-3.6344765406e-01
 9.1437176840e-01	 9.1437176840e-01	-4.9553989022e-01
 8.9430751492e-01	 9.3387575237e-01	-6.2313308910e-01
 8.7369509923e-01	 9.5280830067e-01	-7.4451786516e-01
 8.5254753526e-01	 9.7115921886e-01	-8.5803549794e-01
 8.3087870527e-01	 9.8891931069e-01	-9.6209012362e-01
 8.0870331808e-01	 1.0060804003e+00	-1.0551601610e+00
 1.0176440199e+00	 8.1799833819e-01	 7.3804000075e-02
 1.0002856853e+00	 8.4042860336e-01	-6.0445642239e-02
 9.8232146373e-01	 8.6234648910e-01	-1.9644656056e-01
 9.6375962499e-01	 8.8373711753e-01	-3.3244557003e-01
 9.4460947103e-01	 9.0458644682e-01	-4.6669558108e-01
 9.2488131348e-01	 9.2488131348e-01	-5.9746885297e-01
 9.0458644682e-01	 9.4460947103e-01	-7.2307012593e-01
 8.8373711753e-01	 9.6375962499e-01	-8.4184944063e-01
 8.6234648910e-01	 9.8232146373e-01	-9.5221445865e-01
 8.4042860336e-01	 1.0002856853e+00	-1.0526421069e+00
 8.1799833819e-01	 1.0176440199e+00	-1.1416893824e+00
 1.0292076368e+00	 8.2729335613e-01	-2.0183899618e-02
 1.0116520573e+00	 8.4997849922e-01	-1.5578883355e-01
 9.9348370600e-01	 8.7214544065e-01	-2.9239150025e-01
 9.7471094675e-01	 8.9377913348e-01	-4.2827293304e-01
 9.5534318719e-01	 9.1486537633e-01	-5.6172739833e-01
 9.3539085610e-01	 9.3539085610e-01	-6.9107540704e-01
 9.1486537633e-01	 9.5534318719e-01	-8.1467652172e-01
 8.9377913348e-01	 9.7471094675e-01	-9.3094177191e-01
 8.7214544065e-01	 9.9348370600e-01	-1.0383454970e+00
 8.4997849922e-01	 1.0116520573e+00	-1.1354364459e+00
 8.2729335613e-01	 1.0292076368e+00	-1.2208479792e+00
 1.0407712524e+00	 8.3658837299e-01	-1.0802539830e-01
 1.0230184280e+00	 8.5952839397e-01	-2.4448378028e-01
 1.0046459470e+00	 8.8194439106e-01	-3.8126145774e-01
 9.8566226724e-01	 9.0382114827e-01	-5.1667977143e-01
 9.6607690210e-01	 9.2514430463e-01	-6.4907933293e-01
 9.4590039750e-01	 9.4590039750e-01	-7.7683273971e-01
 9.2514430463e-01	 9.6607690210e-01	-8.9835701656e-01
 9.0382114827e-01	 9.8566226724e-01	-1.0121256003e+00
 8.8194439106e-01	 1.0046459470e+00	-1.1166796931e+00
 8.5952839397e-01	 1.0230184280e+00	-1.2106388208e+00
 8.3658837299e-01	 1.0407712524e+00	-1.2927104497e+00
 7.4363802549e-01	 9.2513487412e-01	-2.3603850515e-01
 7.2279523272e-01	 9.4035787113e-01	-3.7797192367e-01
 7.0151581184e-01	 9.5501788526e-01	-5.2784489627e-01
 6.7981532011e-01	 9.6911028094e-01	-6.8422236480e-01
 6.5770989397e-01	 9.8263140181e-01	-8.4563837445e-01
 6.3521619854e-01	 9.9557857069e-01	-1.0106078835e+00
 6.1235137544e-01	 1.0079500855e+00	-1.1776384867e+00
 5.8913298958e-01	 1.0197452113e+00	-1.3452418952e+00
 5.6557897498e-01	 1.0309641682e+00	-1.5119450267e+00
 5.4170758012e-01	 1.0416081161e+00	-1.6763005735e+00
 5.1753731298e-01	 1.0516791353e+00	-1.8368969299e+00
 7.5293309115e-01	 9.3669855040e-01	-3.7656655019e-01
 7.3182977495e-01	 9.5211182648e-01	-5.0762654406e-01
 7.1028437303e-01	 9.6695508272e-01	-6.4551826231e-01
 6.8831263711e-01	 9.8122362558e-01	-7.8894903875e-01
 6.6593090532e-01	 9.9491375301e-01	-9.3658718503e-01
 6.4315605109e-01	 1.0080227544e+00	-1.0870729787e+00
 6.2000543029e-01	 1.0205489063e+00	-1.2390297008e+00
 5.9649682740e-01	 1.0324914647e+00	-1.3910745698e+00
 5.7264840060e-01	 1.0438506524e+00	-1.5418294268e+00
 5.4847862645e-01	 1.0546276438e+00	-1.6899310382e+00
 5.2400624429e-01	 1.0648245451e+00	-1.8340408927e+00
 7.6222814704e-01	 9.4826221454e-01	-5.0909301772e-01
 7.4086430769e-01	 9.6386576950e-01	-6.3053258979e-01
 7.1905292502e-01	 9.7889226764e-01	-7.5773203337e-01
 6.9680994518e-01	 9.9333695750e-01	-8.8953052354e-01
 6.7415190804e-01	 1.0071960913e+00	-1.0247213054e+00
 6.5109589530e-01	 1.0204669250e+00	-1.1620619007e+00
 6.2765947711e-01	 1.0331477139e+00	-1.3002844838e+00
 6.0386065750e-01	 1.0452377047e+00	-1.4381062773e+00
 5.7971781880e-01	 1.0567371230e+00	-1.5742398253e+00
 5.5524966567e-01	 1.0676471577e+00	-1.7074030082e+00
 5.3047516881e-01	 1.0779699412e+00	-1.8363286744e+00
 7.7152319426e-01	 9.5982586788e-01	-6.3372148203e-01
 7.4989883200e-01	 9.7561970154e-01	-7.4666522178e-01
 7.2782146881e-01	 9.9082944142e-01	-8.6433790623e-01
 7.0530724533e-01	 1.0054502781e+00	-9.8570019258e-01
 6.8237290309e-01	 1.0194784182e+00	-1.1096610772e+00
 6.5903573210e-01	 1.0329110840e+00	-1.2350873610e+00
 6.3531351679e-01	 1.0457465097e+00	-1.3608133875e+00
 6.1122448071e-01	 1.0579839328e+00	-1.4856509095e+00
 5.8678723039e-01	 1.0696235816e+00	-1.6083989432e+00
 5.6202069857e-01	 1.0806666595e+00	-1.7278534752e+00
 5.3694408729e-01	 1.0911153249e+00	-1.8428168951e+00
 7.8081823389e-01	 9.7138951178e-01	-7.5055058629e-01
 7.5893334893e-01	 9.8737362398e-01	-8.5600078472e-01
 7.3659000545e-01	 1.0027666055e+00	-9.6519464063e-01
 7.1380453853e-01	 1.0175635888e+00	-1.0772041166e+00
 6.9059389142e-01	 1.0317607350e+00	-1.1910449219e+00
 6.6697556242e-01	 1.0453552328e+00	-1.3056852759e+00
 6.4296755021e-01	 1.0583452952e+00	-1.4200550334e+00
 6.1858829792e-01	 1.0707301505e+00	-1.5330550306e+00
 5.9385663622e-01	 1.0825100297e+00	-1.6435665155e+00
 5.6879172595e-01	 1.0936861507e+00	-1.7504605274e+00
 5.4341300048e-01	 1.1042606979e+00	-1.8526070981e+00
 7.9011326701e-01	 9.8295314759e-01	-8.5967433292e-01
 7.6796785954e-01	 9.9912753820e-01	-9.5851673767e-01
 7.4535853595e-01	 1.0147037611e+00	-1.0601676440e+00
 7.2230182579e-01	 1.0296768911e+00	-1.1638003171e+00
 6.9881487399e-01	 1.0440430432e+00	-1.2685282773e+00
 6.7491538718e-01	 1.0577993729e+00	-1.3734134019e+00
 6.5062157828e-01	 1.0709440719e+00	-1.4774744614e+00
 6.2595210997e-01	 1.0834763592e+00	-1.5796959553e+00
 6.0092603709e-01	 1.0953964687e+00	-1.6790371138e+00
 5.7556274858e-01	 1.1067056328e+00	-1.7744409315e+00
 5.4988190915e-01	 1.1174060618e+00	-1.8648431073e+00
 7.9940829472e-01	 9.9451677665e-01	-9.6118235366e-01
 7.7700236488e-01	 1.0108814456e+00	-1.0541915896e+00
 7.5412706134e-01	 1.0266409098e+00	-1.1491285853e+00
 7.3079910809e-01	 1.0417901863e+00	-1.2452580714e+00
 7.0703585178e-01	 1.0563253442e+00	-1.3417826085e+00
 6.8285520730e-01	 1.0702435058e+00	-1.4378500659e+00
 6.5827560189e-01	 1.0835428413e+00	-1.5325615944e+00
 6.3331591773e-01	 1.0962225605e+00	-1.6249799616e+00
 6.0799543384e-01	 1.1082829003e+00	-1.7141381212e+00
 5.8233376727e-01	 1.1197251073e+00	-1.7990478845e+00
 5.5635081404e-01	 1.1305514179e+00	-1.8787085696e+00
 8.0870331808e-01	 1.0060804003e+00	-1.0551601610e+00
 7.8603686600e-01	 1.0226353474e+00	-1.1430048392e+00
 7.6289558263e-01	 1.0385780530e+00	-1.2319550354e+00
 7.3929638643e-01	 1.0539034758e+00	-1.3213572667e+00
 7.1525682572e-01	 1.0686076395e+00	-1.4104944872e+00
 6.9079502373e-01	 1.0826876329e+00	-1.4985929836e+00
 6.6592962192e-01	 1.0961416048e+00	-1.5848298083e+00
 6.4067972205e-01	 1.1089687559e+00	-1.6683406258e+00
 6.1506482729e-01	 1.1211693258e+00	-1.7482278465e+00
 5.8910478279e-01	 1.1327445757e+00	-1.8235689201e+00
 5.6281971592e-01	 1.1436967679e+00	-1.8934246661e+00
 8.1799833819e-01	 1.0176440199e+00	-1.1416893824e+00
 7.9507136396e-01	 1.0343892452e+00	-1.2249369190e+00
 7.7166410086e-01	 1.0505151919e+00	-1.3085301318e+00
 7.4779366179e-01	 1.0660167611e+00	-1.3918877966e+00
 7.2347779679e-01	 1.0808899306e+00	-1.4743647333e+00
 6.9873483737e-01	 1.0951317556e+00	-1.5552581576e+00
 6.7358363927e-01	 1.1087403638e+00	-1.6338145996e+00
 6.4804352379e-01	 1.1217149468e+00	-1.7092372723e+00
 6.2213421827e-01	 1.1340557468e+00	-1.7806937677e+00
 5.9587579594e-01	 1.1457640395e+00	-1.8473239578e+00
 5.6928861553e-01	 1.1568421134e+00	-1.9082479797e+00
 8.2729335613e-01	 1.0292076368e+00	-1.2208479792e+00
 8.0410585981e-01	 1.0461431402e+00	-1.2999691431e+00
 7.8043261704e-01	 1.0624523281e+00	-1.3787422666e+00
 7.5629093517e-01	 1.0781300435e+00	-1.4566490000e+00
 7.3169876594e-01	 1.0931722187e+00	-1.5331076151e+00
 7.0667464916e-01	 1.1075758754e+00	-1.6074788509e+00
 6.8123765483e-01	 1.1213391200e+00	-1.6790723433e+00
 6.5540732381e-01	 1.1344611348e+00	-1.7471535270e+00
 6.2920360760e-01	 1.1469421648e+00	-1.8109508932e+00
 6.0264680752e-01	 1.1587835003e+00	-1.8696634839e+00
 5.7575751363e-01	 1.1699874557e+00	-1.9224685065e+00
 8.3658837299e-01	 1.0407712524e+00	-1.2927104497e+00
 8.1314035461e-01	 1.0578970339e+00	-1.3680836586e+00
 7.8920113219e-01	 1.0743894629e+00	-1.4424847943e+00
 7.6478820756e-01	 1.0902433246e+00	-1.5154491362e+00
 7.3991973413e-01	 1.1054545054e+00	-1.5864501021e+00
 7.1461446003e-01	 1.1200199937e+00	-1.6549046277e+00
 6.8889166950e-01	 1.1339378746e+00	-1.7201791326e+00
 6.6277112297e-01	 1.1472073212e+00	-1.7815959675e+00
 6.3627299610e-01	 1.1598285813e+00	-1.8384402327e+00
 6.0941781830e-01	 1.1718029596e+00	-1.8899668535e+00
 5.8222641097e-01	 1.1831327965e+00	-1.9354077999e+00
 5.1753731298e-01	 1.0516791353e+00	-1.8368969299e+00
 4.9308860612e-01	 1.0611795601e+00	-1.9948114721e+00
 4.6837863162e-01	 1.0701139712e+00	-2.1513384686e+00
 4.4342633892e-01	 1.0784870689e+00	-2.3055056923e+00
 4.1825072163e-01	 1.0863043666e+00	-2.4564926802e+00
 3.9287076614e-01	 1.0935721566e+00	-2.6036276731e+00
 3.6730540165e-01	 1.1002974747e+00	-2.7463831820e+00
 3.4157345207e-01	 1.1064880633e+00	-2.8843703417e+00
 3.1569358968e-01	 1.1121523313e+00	-3.0173322255e+00
 2.8968429099e-01	 1.1172993146e+00	-3.1451362894e+00
 2.6356379480e-01	 1.1219386343e+00	-3.2677661213e+00
 5.2400624429e-01	 1.0648245451e+00	-1.8340408927e+00
 4.9925194206e-01	 1.0744437200e+00	-1.9756431717e+00
 4.7423310649e-01	 1.0834898063e+00	-2.1164787412e+00
 4.4896892388e-01	 1.0919675632e+00	-2.2556831667e+00
 4.2347862524e-01	 1.0998825728e+00	-2.3925174315e+00
 3.9778143428e-01	 1.1072412061e+00	-2.5263658508e+00
 3.7189651683e-01	 1.1140505870e+00	-2.6567328247e+00
 3.4584293205e-01	 1.1203185545e+00	-2.7832385597e+00
 3.1963958564e-01	 1.1260536227e+00	-2.9056138993e+00
 2.9330518504e-01	 1.1312649405e+00	-3.0236944031e+00
 2.6685819703e-01	 1.1359622492e+00	-3.1374138164e+00
 5.3047516881e-01	 1.0779699412e+00	-1.8363286744e+00
 5.0541527153e-01	 1.0877078660e+00	-1.9628656448e+00
 4.8008757521e-01	 1.0968656274e+00	-2.0891529814e+00
 4.5451150302e-01	 1.1054480432e+00	-2.2144253343e+00
 4.2870652337e-01	 1.1134607646e+00	-2.3380187154e+00
 4.0269209728e-01	 1.1209102412e+00	-2.4593692981e+00
 3.7648762718e-01	 1.1278036849e+00	-2.5780112493e+00
 3.5011240755e-01	 1.1341490312e+00	-2.6935736974e+00
 3.2358557746e-01	 1.1399548996e+00	-2.8057769452e+00
 2.9692607529e-01	 1.1452305518e+00	-2.9144280390e+00
 2.7015259581e-01	 1.1499858493e+00	-3.0194158069e+00
 5.3694408729e-01	 1.0911153249e+00	-1.8428168951e+00
 5.1157859525e-01	 1.1009719996e+00	-1.9554636033e+00
 4.8594203847e-01	 1.1102414360e+00	-2.0682857558e+00
 4.6005407698e-01	 1.1189285107e+00	-2.1806085211e+00
 4.3393441661e-01	 1.1270389439e+00	-2.2918365911e+00
 4.0760275569e-01	 1.1345792636e+00	-2.4014537821e+00
 3.8107873325e-01	 1.1415567699e+00	-2.5090218431e+00
 3.5438187907e-01	 1.1479794950e+00	-2.6141785528e+00
 3.2753156559e-01	 1.1538561635e+00	-2.7166351843e+00
 3.0054696216e-01	 1.1591961500e+00	-2.8161734246e+00
 2.7344699152e-01	 1.1640094364e+00	-2.9126418357e+00
 5.4341300048e-01	 1.1042606979e+00	-1.8526070981e+00
 5.1774191393e-01	 1.1142361224e+00	-1.9524701063e+00
 4.9179649695e-01	 1.1236172336e+00	-2.0528528430e+00
 4.6559664642e-01	 1.1324089672e+00	-2.1531625618e+00
 4.3916230558e-01	 1.1406171120e+00	-2.2528663531e+00
 4.1251341009e-01	 1.1482482749e+00	-2.3514914619e+00
 3.8566983557e-01	 1.1553098437e+00	-2.4486249755e+00
 3.5865134709e-01	 1.1618099475e+00	-2.5439129342e+00
 3.3147755050e-01	 1.1677574160e+00	-2.6370589227e+00
 3.0416784607e-01	 1.1731617368e+00	-2.7278222055e+00
 2.7674138453e-01	 1.1780330119e+00	-2.8160154683e+00
 5.4988190915e-01	 1.1174060618e+00	-1.8648431073e+00
 5.2390522830e-01	 1.1275002359e+00	-1.9529637164e+00
 4.9765095133e-01	 1.1369930219e+00	-2.0418782201e+00
 4.7113921198e-01	 1.1458894143e+00	-2.1310676523e+00
 4.4439019090e-01	 1.1541952706e+00	-2.2200552824e+00
 4.1742406105e-01	 1.1619172766e+00	-2.3084075721e+00
 3.9026093468e-01	 1.1690629078e+00	-2.3957346460e+00
 3.6292081213e-01	 1.1756403904e+00	-2.4816903062e+00
 3.3542353264e-01	 1.1816586589e+00	-2.5659716293e+00
 3.0778872745e-01	 1.1871273138e+00	-2.6483181862e+00
 2.8003577524e-01	 1.1920565777e+00	-2.7285109264e+00
 5.5635081404e-01	 1.1305514179e+00	-1.8787085696e+00
 5.3006853907e-01	 1.1407643416e+00	-1.9560658544e+00
 5.0350540230e-01	 1.1503688024e+00	-2.0344312614e+00
 4.7668177431e-01	 1.1593698535e+00	-2.1133514216e+00
 4.4961807316e-01	 1.1677734213e+00	-2.1923996242e+00
 4.2233470914e-01	 1.1755862703e+00	-2.2711773369e+00
 3.9485203111e-01	 1.1828159640e+00	-2.3493153661e+00
 3.6719027468e-01	 1.1894708251e+00	-2.4264746704e+00
 3.3936951249e-01	 1.1955598936e+00	-2.5023468446e+00
 3.1140960672e-01	 1.2010928827e+00	-2.5766542968e+00
 2.8333016403e-01	 1.2060801353e+00	-2.6491501434e+00
 5.6281971592e-01	 1.1436967679e+00	-1.8934246661e+00
 5.3623184697e-01	 1.1540284412e+00	-1.9609383362e+00
 5.0935985053e-01	 1.1637445767e+00	-2.0296241292e+00
 4.8222433405e-01	 1.1728502864e+00	-2.0990862060e+00
 4.5484595299e-01	 1.1813515657e+00	-2.1689417739e+00
 4.2724535495e-01	 1.1892552576e+00	-2.2388230968e+00
 3.9944312540e-01	 1.1965690137e+00	-2.3083792566e+00
 3.7145973523e-01	 1.2033012534e+00	-2.3772776614e+00
 3.4331549049e-01	 1.2094611218e+00	-2.4452053033e+00
 3.1503048430e-01	 1.2150584451e+00	-2.5118697705e+00
 2.8662455128e-01	 1.2201036864e+00	-2.5770000220e+00
 5.6928861553e-01	 1.1568421134e+00	-1.9082479797e+00
 5.4239515271e-01	 1.1672925361e+00	-1.9667810780e+00
 5.1521429672e-01	 1.1771203463e+00	-2.0266093428e+00
 4.8776689185e-01	 1.1863307146e+00	-2.0873865090e+00
 4.6007383098e-01	 1.1949297053e+00	-2.1487676549e+00
 4.3215599904e-01	 1.2029242401e+00	-2.2104116324e+00
 4.0403421808e-01	 1.2103220586e+00	-2.2719833424e+00
 3.7572919429e-01	 1.2171316769e+00	-2.3331558397e+00
 3.4726146712e-01	 1.2233623451e+00	-2.3936122529e+00
 3.1865136061e-01	 1.2290240026e+00	-2.4530475123e+00
 2.8991893738e-01	 1.2341272325e+00	-2.5111698791e+00
 5.7575751363e-01	 1.1699874557e+00	-1.9224685065e+00
 5.4855845701e-01	 1.1805566279e+00	-1.9728299557e+00
 5.2106874154e-01	 1.1904961128e+00	-2.0245775115e+00
 4.9330944835e-01	 1.1998111396e+00	-2.0774066326e+00
 4.6530170775e-01	 1.2085078418e+00	-2.1310042736e+00
 4.3706664197e-01	 1.2165932195e+00	-2.1850516671e+00
 4.0862530968e-01	 1.2240751003e+00	-2.2392270303e+00
 3.7999865236e-01	 1.2309620972e+00	-2.2932081688e+00
 3.5120744282e-01	 1.2372635652e+00	-2.3466749531e+00
 3.2227223607e-01	 1.2429895568e+00	-2.3993116459e+00
 2.9321332271e-01	 1.2481507754e+00	-2.4508090635e+00
 5.8222641097e-01	 1.1831327965e+00	-1.9354077999e+00
 5.5472176059e-01	 1.1938207182e+00	-1.9783548077e+00
 5.2692318567e-01	 1.2038718777e+00	-2.0227552188e+00
 4.9885200421e-01	 1.2132915631e+00	-2.0683384665e+00
 4.7052958392e-01	 1.2220859766e+00	-2.1148174373e+00
 4.4197728434e-01	 1.2302621973e+00	-2.1618915380e+00
 4.1321640076e-01	 1.2378281404e+00	-2.2092497540e+00
 3.8426810993e-01	 1.2447925158e+00	-2.2565736587e+00
 3.5515341806e-01	 1.2511647837e+00	-2.3035403418e+00
 3.2589311112e-01	 1.2569551095e+00	-2.3498252237e+00
 2.9650770765e-01	 1.2621743166e+00	-2.3951047316e+00
 2.6356379480e-01	 1.1219386343e+00	-3.2677661213e+00
 2.3734822965e-01	 1.1260807273e+00	-3.3814365916e+00
 2.1105709511e-01	 1.1297359180e+00	-3.4823478398e+00
 1.8470772042e-01	 1.1329153307e+00	-3.5706717955e+00
 1.5831705257e-01	 1.1356305041e+00	-3.6467082962e+00
 1.3190162721e-01	 1.1378933484e+00	-3.7108725870e+00
 1.0547754230e-01	 1.1397161028e+00	-3.7636828008e+00
 7.9060434482e-02	 1.1411112938e+00	-3.8057475703e+00
 5.2665458172e-02	 1.1420916935e+00	-3.8377539007e+00
 2.6307267358e-02	 1.1426702801e+00	-3.8604554180e+00
 0.0000000000e+00	 1.1428601985e+00	-3.8746610863e+00
 2.6685819703e-01	 1.1359622492e+00	-3.1374138164e+00
 2.4031495177e-01	 1.1401561161e+00	-3.2430624294e+00
 2.1369519253e-01	 1.1438569947e+00	-3.3369465560e+00
 1.8701646517e-01	 1.1470761482e+00	-3.4192187934e+00
 1.6029592851e-01	 1.1498252598e+00	-3.4901578826e+00
 1.3355032488e-01	 1.1521163884e+00	-3.5501563920e+00
 1.0679595347e-01	 1.1539619263e+00	-3.5997083811e+00
 8.0048646356e-02	 1.1553745563e+00	-3.6393971921e+00
 5.3323747384e-02	 1.1563672105e+00	-3.6698834980e+00
 2.6636093707e-02	 1.1569530291e+00	-3.6918937212e+00
 0.0000000000e+00	 1.1571453214e+00	-3.7062089140e+00
 2.7015259581e-01	 1.1499858493e+00	-3.0194158069e+00
 2.4328167077e-01	 1.1542314900e+00	-3.1171566181e+00
 2.1633328717e-01	 1.1579780564e+00	-3.2041092860e+00
 1.8932520749e-01	 1.1612369509e+00	-3.2804061544e+00
 1.6227480237e-01	 1.1640200006e+00	-3.3463034155e+00
 1.3519902083e-01	 1.1663394135e+00	-3.4021690406e+00
 1.0811436326e-01	 1.1682077347e+00	-3.4484706884e+00
 8.1036857194e-02	 1.1696378039e+00	-3.4857637365e+00
 5.3982035906e-02	 1.1706427125e+00	-3.5146795637e+00
 2.6964919710e-02	 1.1712357631e+00	-3.5359141930e+00
 0.0000000000e+00	 1.1714304292e+00	-3.5502173889e+00
 2.7344699152e-01	 1.1640094364e+00	-2.9126418357e+00
 2.4624838700e-01	 1.1683068509e+00	-3.0026258888e+00
 2.1897137936e-01	 1.1720991051e+00	-3.0827759132e+00
 1.9163394766e-01	 1.1753977403e+00	-3.1532032798e+00
 1.6425367438e-01	 1.1782147281e+00	-3.2141403908e+00
 1.3684771523e-01	 1.1805624252e+00	-3.2659289181e+00
 1.0943277181e-01	 1.1824535299e+00	-3.3090080164e+00
 8.2025067110e-02	 1.1839010381e+00	-3.3439026530e+00
 5.4640323814e-02	 1.1849182012e+00	-3.3712121801e+00
 2.7293745407e-02	 1.1855184838e+00	-3.3915992578e+00
 0.0000000000e+00	 1.1857155238e+00	-3.4057792179e+00
 2.7674138453e-01	 1.1780330119e+00	-2.8160154683e+00
 2.4921510081e-01	 1.1823822002e+00	-2.8984290337e+00
 2.2160946939e-01	 1.1862201421e+00	-2.9719368036e+00
 1.9394268595e-01	 1.1895585182e+00	-3.0366286480e+00
 1.6623254478e-01	 1.1924094441e+00	-3.0927121390e+00
 1.3849640829e-01	 1.1947854254e+00	-3.1405011547e+00
 1.1075117929e-01	 1.1966993134e+00	-3.1804044560e+00
 8.3013276220e-02	 1.1981642607e+00	-3.2129143710e+00
 5.5298611184e-02	 1.1991936782e+00	-3.2385957132e+00
 2.7622570835e-02	 1.1998011928e+00	-3.2580750360e+00
 0.0000000000e+00	 1.2000006067e+00	-3.2720303141e+00
 2.8003577524e-01	 1.1920565777e+00	-2.7285109264e+00
 2.5218181254e-01	 1.1964575397e+00	-2.8035738442e+00
 2.2424755758e-01	 1.2003411693e+00	-2.8706298363e+00
 1.9625142262e-01	 1.2037192862e+00	-2.9297469279e+00
 1.6821141380e-01	 1.2066041501e+00	-2.9811070116e+00
 1.4014510020e-01	 1.2090084156e+00	-3.0249948760e+00
 1.1206958585e-01	 1.2109450870e+00	-3.0617872010e+00
 8.4001484638e-02	 1.2124274734e+00	-3.0919416543e+00
 5.5956898094e-02	 1.2134691452e+00	-3.1159862073e+00
 2.7951396034e-02	 1.2140838918e+00	-3.1345087736e+00
 0.0000000000e+00	 1.2142856796e+00	-3.1481472555e+00
 2.8333016403e-01	 1.2060801353e+00	-2.6491501434e+00
 2.5514852255e-01	 1.2105328710e+00	-2.7171142615e+00
 2.2688564422e-01	 1.2144621883e+00	-2.7779376414e+00
 1.9856015794e-01	 1.2178800459e+00	-2.8316662931e+00
 1.7019028166e-01	 1.2207988478e+00	-2.8784557635e+00
 1.4179379114e-01	 1.2232313976e+00	-2.9185606445e+00
 1.1338799164e-01	 1.2251908523e+00	-2.9523240424e+00
 8.4989692481e-02	 1.2266906777e+00	-2.9801671398e+00
 5.6615184621e-02	 1.2277446039e+00	-3.0025789623e+00
 2.8280221041e-02	 1.2283665825e+00	-3.0201064506e+00
 0.0000000000e+00	 1.2285707441e+00	-3.0333449204e+00
 2.8662455128e-01	 1.2201036864e+00	-2.5770000220e+00
 2.5811523116e-01	 1.2246081957e+00	-2.6381477250e+00
 2.2952372964e-01	 1.2285832006e+00	-2.6929850278e+00
 2.0086889219e-01	 1.2320407989e+00	-2.7415359220e+00
 1.7216914860e-01	 1.2349935389e+00	-2.7839291163e+00
 1.4344248132e-01	 1.2374543728e+00	-2.8203880790e+00
 1.1470639681e-01	 1.2394366109e+00	-2.8512210350e+00
 8.5977899862e-02	 1.2409538753e+00	-2.8768110455e+00
 5.7273470840e-02	 1.2420200560e+00	-2.8976062771e+00
 2.8609045895e-02	 1.2426492666e+00	-2.9141105557e+00
 0.0000000000e+00	 1.2428558020e+00	-2.9268742865e+00
 2.8991893738e-01	 1.2341272325e+00	-2.5111698791e+00
 2.6108193874e-01	 1.2386835154e+00	-2.5658127002e+00
 2.3216181413e-01	 1.2427042081e+00	-2.6149365870e+00
 2.0317762563e-01	 1.2462015471e+00	-2.6585436677e+00
 1.7414801484e-01	 1.2491882250e+00	-2.6967354872e+00
 1.4509117092e-01	 1.2516773431e+00	-2.7297036348e+00
 1.1602480153e-01	 1.2536823645e+00	-2.7577203232e+00
 8.6966106898e-02	 1.2552170680e+00	-2.7811290357e+00
 5.7931756830e-02	 1.2562955030e+00	-2.8003353478e+00
 2.8937870634e-02	 1.2569319456e+00	-2.8157980116e+00
 0.0000000000e+00	 1.2571408549e+00	-2.8280203799e+00
 2.9321332271e-01	 1.2481507754e+00	-2.4508090635e+00
 2.6404864563e-01	 1.2527588319e+00	-2.4992863746e+00
 2.3479989801e-01	 1.2568252122e+00	-2.5429944579e+00
 2.0548635853e-01	 1.2603622919e+00	-2.5819138857e+00
 1.7612688063e-01	 1.2633829079e+00	-2.6161188713e+00
 1.4673986013e-01	 1.2659003101e+00	-2.6457685350e+00
 1.1734320593e-01	 1.2679281148e+00	-2.6710981141e+00
 8.7954313704e-02	 1.2694802573e+00	-2.6924102295e+00
 5.8590042665e-02	 1.2705709467e+00	-2.7100663072e+00
 2.9266695296e-02	 1.2712146213e+00	-2.7244782402e+00
 0.0000000000e+00	 1.2714259045e+00	-2.7361003619e+00
 2.9650770765e-01	 1.2621743166e+00	-2.3951047316e+00
 2.6701535218e-01	 1.2668341468e+00	-2.4377825060e+00
 2.3743798158e-01	 1.2709462147e+00	-2.4763962413e+00
 2.0779509116e-01	 1.2745230351e+00	-2.5109054056e+00
 1.7810574618e-01	 1.2775775890e+00	-2.5413568653e+00
 1.4838854915e-01	 1.2801232755e+00	-2.5678768383e+00
 1.1866161018e-01	 1.2821738634e+00	-2.5906627847e+00
 8.8942520394e-02	 1.2837434449e+00	-2.6099753421e+00
 5.9248328424e-02	 1.2848463888e+00	-2.6261303948e+00
 2.9595519919e-02	 1.2854972953e+00	-2.6394913580e+00
 0.0000000000e+00	 1.2857109524e+00	-2.6504617443e+00
 1.2857109524e+00	 0.0000000000e+00	 2.0212330335e+00
 1.2854972953e+00	 2.9595519919e-02	 2.0136386516e+00
 1.2848463888e+00	 5.9248328424e-02	 2.0100916041e+00
 1.2837434449e+00	 8.8942520394e-02	 2.0091337689e+00
 1.2821738634e+00	 1.1866161018e-01	 2.0092525376e+00
 1.2801232755e+00	 1.4838854915e-01	 2.0088870722e+00
 1.2775775890e+00	 1.7810574618e-01	 2.0064356626e+00
 1.2745230351e+00	 2.0779509116e-01	 2.0002642132e+00
 1.2709462147e+00	 2.3743798158e-01	 1.9887158690e+00
 1.2668341468e+00	 2.6701535218e-01	 1.9701217804e+00
 1.2621743166e+00	 2.9650770765e-01	 1.9428129807e+00
 1.2999969994e+00	 0.0000000000e+00	 2.0573658880e+00
 1.2997809683e+00	 2.9924367543e-02	 2.0497664547e+00
 1.2991228294e+00	 5.9906660228e-02	 2.0454313086e+00
 1.2980076302e+00	 8.9930796205e-02	 2.0429479793e+00
 1.2964206085e+00	 1.1998010665e-01	 2.0408537041e+00
 1.2943472356e+00	 1.5003735349e-01	 2.0376417224e+00
 1.2917732631e+00	 1.8008475015e-01	 2.0317686351e+00
 1.2886847687e+00	 2.1010398527e-01	 2.0216628531e+00
 1.2850682048e+00	 2.4007624967e-01	 2.0057341440e+00
 1.2809104461e+00	 2.6998226622e-01	 1.9823842693e+00
 1.2761988388e+00	 2.9980232302e-01	 1.9500186864e+00
 1.3142830432e+00	 0.0000000000e+00	 2.0915277952e+00
 1.3140646380e+00	 3.0253215090e-02	 2.0839227063e+00
 1.3133992666e+00	 6.0564991877e-02	 2.0788322766e+00
 1.3122718122e+00	 9.0919071785e-02	 2.0748897077e+00
 1.3106673502e+00	 1.2129860281e-01	 2.0706819482e+00
 1.3085711925e+00	 1.5168615745e-01	 2.0647560107e+00
 1.3059689338e+00	 1.8206375365e-01	 2.0556263181e+00
 1.3028464991e+00	 2.1241287885e-01	 2.0417831005e+00
 1.2991901917e+00	 2.4271451714e-01	 2.0217018473e+00
 1.2949867422e+00	 2.7294917958e-01	 1.9938538048e+00
 1.2902233576e+00	 3.0309693762e-01	 1.9567174894e+00
 1.3285690802e+00	 0.0000000000e+00	 2.1235062545e+00
 1.3283483011e+00	 3.0582062483e-02	 2.1158914497e+00
 1.3276756971e+00	 6.1223323219e-02	 2.1100740219e+00
 1.3265359875e+00	 9.1907346903e-02	 2.1047328573e+00
 1.3249140853e+00	 1.2261709835e-01	 2.0985044762e+00
 1.3227951427e+00	 1.5333496063e-01	 2.0899893580e+00
 1.3201645979e+00	 1.8404275623e-01	 2.0777592607e+00
 1.3170082228e+00	 2.1472177135e-01	 2.0603655515e+00
 1.3133121720e+00	 2.4535278339e-01	 2.0363485507e+00
 1.3090630317e+00	 2.7591609155e-01	 2.0042478766e+00
 1.3042478699e+00	 3.0639155069e-01	 1.9626137579e+00
 1.3428551073e+00	 0.0000000000e+00	 2.1530978014e+00
 1.3426319541e+00	 3.0910909646e-02	 2.1454659106e+00
 1.3419521177e+00	 6.1881654101e-02	 2.1389454336e+00
 1.3408001529e+00	 9.2895621330e-02	 2.1322609454e+00
 1.3391608104e+00	 1.2393559298e-01	 2.1240983932e+00
 1.3370190829e+00	 1.5498376267e-01	 2.1131114156e+00
 1.3343602520e+00	 1.8602175742e-01	 2.0979286200e+00
 1.3311699367e+00	 2.1703066223e-01	 2.0771618337e+00
 1.3274341424e+00	 2.4799104779e-01	 2.0494153265e+00
 1.3231393113e+00	 2.7888300145e-01	 2.0132959889e+00
 1.3182723724e+00	 3.0968616145e-01	 1.9674244332e+00
 1.3571411210e+00	 0.0000000000e+00	 2.1801075309e+00
 1.3569155938e+00	 3.1239756502e-02	 2.1724480140e+00
 1.3562285250e+00	 6.2539984367e-02	 2.1652442825e+00
 1.3550643049e+00	 9.3883894835e-02	 2.1572665969e+00
 1.3534075222e+00	 1.2525408637e-01	 2.1472501823e+00
 1.3512430099e+00	 1.5663256316e-01	 2.1339015263e+00
 1.3485558929e+00	 1.8800075677e-01	 2.1159056021e+00
 1.3453316373e+00	 2.1933955096e-01	 2.0919340253e+00
 1.3415560997e+00	 2.5062930972e-01	 2.0606541419e+00
 1.3372155778e+00	 2.8184990857e-01	 2.0207390282e+00
 1.3322968618e+00	 3.1298076913e-01	 1.9708783680e+00
 1.3714271181e+00	 0.0000000000e+00	 2.2043486516e+00
 1.3711992169e+00	 3.1568602975e-02	 2.1966479304e+00
 1.3705049155e+00	 6.3198313866e-02	 2.1887767577e+00
 1.3693284403e+00	 9.4872167187e-02	 2.1795510698e+00
 1.3676542174e+00	 1.2657257822e-01	 2.1677552151e+00
 1.3654669203e+00	 1.5828136173e-01	 2.1521482193e+00
 1.3627515173e+00	 1.8997975381e-01	 2.1314709386e+00
 1.3594933214e+00	 2.2164843700e-01	 2.1044541100e+00
 1.3556780404e+00	 2.5326756858e-01	 2.0698272911e+00
 1.3512918279e+00	 2.8481681224e-01	 2.0263286698e+00
 1.3463213348e+00	 3.1627537297e-01	 1.9727157051e+00
 1.3857130952e+00	 0.0000000000e+00	 2.2256420670e+00
 1.3854828199e+00	 3.1897448987e-02	 2.2178836504e+00
 1.3847812861e+00	 6.3856642444e-02	 2.2093570330e+00
 1.3835925557e+00	 9.5860438155e-02	 2.1989238094e+00
 1.3819008927e+00	 1.2789106823e-01	 2.1854172936e+00
 1.3796908107e+00	 1.5993015799e-01	 2.1676487360e+00
 1.3769471217e+00	 1.9195874808e-01	 2.1444143950e+00
 1.3736549856e+00	 2.2395731980e-01	 2.1145034664e+00
 1.3697999614e+00	 2.5590582374e-01	 2.0767068629e+00
 1.3653680583e+00	 2.8778371175e-01	 2.0298268212e+00
 1.3603457882e+00	 3.1956997219e-01	 1.9726872955e+00
 1.3999990489e+00	 0.0000000000e+00	 2.2438159824e+00
 1.3997663996e+00	 3.2226294462e-02	 2.2359805852e+00
 1.3990576334e+00	 6.4514969946e-02	 2.2268068581e+00
 1.3978566478e+00	 9.6848707509e-02	 2.2152020307e+00
 1.3961475447e+00	 1.2920955608e-01	 2.2000482195e+00
 1.3939146780e+00	 1.6157895156e-01	 2.1802085855e+00
 1.3911427030e+00	 1.9393773912e-01	 2.1545343093e+00
 1.3878166268e+00	 2.2626619883e-01	 2.1218723878e+00
 1.3839218593e+00	 2.5854407459e-01	 2.0810742402e+00
 1.3794442657e+00	 2.9075060642e-01	 2.0310051001e+00
 1.3743702187e+00	 3.2286456604e-01	 1.9705541515e+00
 1.4142849760e+00	 0.0000000000e+00	 2.2587055360e+00
 1.4140499527e+00	 3.2555139323e-02	 2.2507711915e+00
 1.4133339541e+00	 6.5173296219e-02	 2.2409551764e+00
 1.4121207133e+00	 9.7836975018e-02	 2.2282103248e+00
 1.4103941701e+00	 1.3052804147e-01	 2.2114673895e+00
 1.4081385186e+00	 1.6322774205e-01	 2.1896411261e+00
 1.4053382578e+00	 1.9591672646e-01	 2.1616371590e+00
 1.4019782415e+00	 2.2857507355e-01	 2.1263596323e+00
 1.3980437309e+00	 2.6118232052e-01	 2.0827196304e+00
 1.3935204468e+00	 2.9371749554e-01	 2.0296443431e+00
 1.3883946231e+00	 3.2615915374e-01	 1.9660869333e+00
 1.4285708730e+00	 0.0000000000e+00	 2.2701524514e+00
 1.4283334758e+00	 3.2883983494e-02	 2.2620946189e+00
 1.4276102447e+00	 6.5831621110e-02	 2.2516377644e+00
 1.4263847488e+00	 9.8825240452e-02	 2.2377802904e+00
 1.4246407655e+00	 1.3184652410e-01	 2.2195014157e+00
 1.4223623295e+00	 1.6487652907e-01	 2.1957671729e+00
 1.4195337827e+00	 1.9789570964e-01	 2.1655371532e+00
 1.4161398264e+00	 2.3088394342e-01	 2.1277719983e+00
 1.4121655728e+00	 2.6382056091e-01	 2.0814416235e+00
 1.4075965984e+00	 2.9668437844e-01	 2.0255341446e+00
 1.4024189979e+00	 3.2945373451e-01	 1.9590654659e+00
 1.2621743166e+00	 2.9650770765e-01	 1.9428129807e+00
 1.2569551095e+00	 3.2589311112e-01	 1.9081205464e+00
 1.2511647837e+00	 3.5515341806e-01	 1.8679548653e+00
 1.2447925158e+00	 3.8426810993e-01	 1.8215366433e+00
 1.2378281404e+00	 4.1321640076e-01	 1.7681007888e+00
 1.2302621973e+00	 4.4197728434e-01	 1.7069039266e+00
 1.2220859766e+00	 4.7052958392e-01	 1.6372322888e+00
 1.2132915631e+00	 4.9885200421e-01	 1.5584099032e+00
 1.2038718777e+00	 5.2692318567e-01	 1.4698069855e+00
 1.1938207182e+00	 5.5472176059e-01	 1.3708484324e+00
 1.1831327965e+00	 5.8222641097e-01	 1.2610222957e+00
 1.2761988388e+00	 2.9980232302e-01	 1.9500186864e+00
 1.2709216389e+00	 3.2951423942e-01	 1.9099303626e+00
 1.2650669745e+00	 3.5909966930e-01	 1.8640042691e+00
 1.2586239018e+00	 3.8853786612e-01	 1.8115599830e+00
 1.2515821424e+00	 4.1780781295e-01	 1.7519328819e+00
 1.2439321311e+00	 4.4688827018e-01	 1.6844809487e+00
 1.2356650612e+00	 4.7575782574e-01	 1.6085918947e+00
 1.2267729294e+00	 5.0439494774e-01	 1.5236905245e+00
 1.2172485781e+00	 5.3277803929e-01	 1.4292462606e+00
 1.2070857362e+00	 5.6088549527e-01	 1.3247807279e+00
 1.1962790568e+00	 5.8869576078e-01	 1.2098752948e+00
 1.2902233576e+00	 3.0309693762e-01	 1.9567174894e+00
 1.2848881651e+00	 3.3313536688e-01	 1.9115430819e+00
 1.2789691621e+00	 3.6304591962e-01	 1.8601840033e+00
 1.2724552846e+00	 3.9280762132e-01	 1.8020548483e+00
 1.2653361413e+00	 4.2239922408e-01	 1.7365875566e+00
 1.2576020617e+00	 4.5179925488e-01	 1.6632375361e+00
 1.2492441426e+00	 4.8098606635e-01	 1.5814900447e+00
 1.2402542926e+00	 5.0993788998e-01	 1.4908667648e+00
 1.2306252755e+00	 5.3863289155e-01	 1.3909324889e+00
 1.2203507511e+00	 5.6704922850e-01	 1.2813018314e+00
 1.2094253140e+00	 5.9516510908e-01	 1.1616458689e+00
 1.3042478699e+00	 3.0639155069e-01	 1.9626137579e+00
 1.2988546847e+00	 3.3675649265e-01	 1.9126496282e+00
 1.2928713432e+00	 3.6699216811e-01	 1.8561720025e+00
 1.2862866609e+00	 3.9707737452e-01	 1.7926867591e+00
 1.2790901337e+00	 4.2699063306e-01	 1.7217186125e+00
 1.2712719860e+00	 4.5671023728e-01	 1.6428165810e+00
 1.2628232177e+00	 4.8621430452e-01	 1.5555596557e+00
 1.2537356495e+00	 5.1548082964e-01	 1.4595626125e+00
 1.2440019666e+00	 5.4448774107e-01	 1.3544818914e+00
 1.2336157599e+00	 5.7321295886e-01	 1.2400214667e+00
 1.2225715651e+00	 6.0163445437e-01	 1.1159386193e+00
 1.3182723724e+00	 3.0968616145e-01	 1.9674244332e+00
 1.3128211946e+00	 3.4037761589e-01	 1.9129540704e+00
 1.3067735145e+00	 3.7093841382e-01	 1.8516598997e+00
 1.3001180275e+00	 4.0134712474e-01	 1.7831354622e+00
 1.2928441165e+00	 4.3158203882e-01	 1.7069945749e+00
 1.2849419007e+00	 4.6162121625e-01	 1.6228761659e+00
 1.2764022833e+00	 4.9144253903e-01	 1.5304492591e+00
 1.2672169970e+00	 5.2102376541e-01	 1.4294180512e+00
 1.2573786483e+00	 5.5034258650e-01	 1.3195270154e+00
 1.2468807593e+00	 5.7937668491e-01	 1.2005659604e+00
 1.2357178070e+00	 6.0810379512e-01	 1.0723749678e+00
 1.3322968618e+00	 3.1298076913e-01	 1.9708783680e+00
 1.3267876914e+00	 3.4399873574e-01	 1.9121729311e+00
 1.3206756729e+00	 3.7488465586e-01	 1.8463523049e+00
 1.3139493812e+00	 4.0561687097e-01	 1.7730941822e+00
 1.3065980864e+00	 4.3617344031e-01	 1.6920979193e+00
 1.2986118027e+00	 4.6653219063e-01	 1.6030887636e+00
 1.2899813362e+00	 4.9667076865e-01	 1.5058221792e+00
 1.2806983319e+00	 5.2656669601e-01	 1.4000882175e+00
 1.2707553176e+00	 5.5619742646e-01	 1.2857158741e+00
 1.2601457464e+00	 5.8554040520e-01	 1.1625773676e+00
 1.2488640366e+00	 6.1457312984e-01	 1.0305922722e+00
 1.3463213348e+00	 3.1627537297e-01	 1.9727157051e+00
 1.3407541720e+00	 3.4761985137e-01	 1.9100345368e+00
 1.3345778151e+00	 3.7883089329e-01	 1.8399661288e+00
 1.3277807188e+00	 4.0988661222e-01	 1.7622689191e+00
 1.3203520403e+00	 4.4076483643e-01	 1.6767243451e+00
 1.3122816886e+00	 4.7144315928e-01	 1.5831404875e+00
 1.3035603733e+00	 5.0189899218e-01	 1.4813557622e+00
 1.2941796511e+00	 5.3210962014e-01	 1.3712426114e+00
 1.2841319713e+00	 5.6205225959e-01	 1.2527111417e+00
 1.2734107180e+00	 5.9170411830e-01	 1.1257126529e+00
 1.2620102508e+00	 6.2104245701e-01	 9.9024299530e-01
 1.3603457882e+00	 3.1956997219e-01	 1.9726872955e+00
 1.3547206330e+00	 3.5124096194e-01	 1.9062784099e+00
 1.3484799377e+00	 3.8277712519e-01	 1.8322299487e+00
 1.3416120371e+00	 4.1415634749e-01	 1.7503777894e+00
 1.3341059750e+00	 4.4535622613e-01	 1.6605820930e+00
 1.3259515555e+00	 4.7635412106e-01	 1.5627303882e+00
 1.3171393913e+00	 5.0712720839e-01	 1.4567406536e+00
 1.3076609514e+00	 5.3765253651e-01	 1.3425643559e+00
 1.2975086062e+00	 5.6790708453e-01	 1.2201893971e+00
 1.2866756711e+00	 5.9786782277e-01	 1.0896429212e+00
 1.2751564467e+00	 6.2751177512e-01	 9.5099392679e-01
 1.3743702187e+00	 3.2286456604e-01	 1.9705541515e+00
 1.3686870711e+00	 3.5486206658e-01	 1.9006546963e+00
 1.3623820377e+00	 3.8672335066e-01	 1.8228834128e+00
 1.3554433327e+00	 4.1842607579e-01	 1.7371504076e+00
 1.3478598872e+00	 4.4994760833e-01	 1.6433913052e+00
 1.3396214000e+00	 4.8126507482e-01	 1.5415697930e+00
 1.3307183872e+00	 5.1235541606e-01	 1.4316801188e+00
 1.3211422296e+00	 5.4319544383e-01	 1.3137495014e+00
 1.3108852193e+00	 5.7376189990e-01	 1.1878404141e+00
 1.2999406024e+00	 6.0403151717e-01	 1.0540526966e+00
 1.2883026211e+00	 6.3398108266e-01	 9.1252545174e-01
 1.3883946231e+00	 3.2615915374e-01	 1.9660869333e+00
 1.3826534833e+00	 3.5848316447e-01	 1.8929236292e+00
 1.3762841118e+00	 3.9066956875e-01	 1.8116766805e+00
 1.3692746025e+00	 4.2269579611e-01	 1.7223273054e+00
 1.3616137737e+00	 4.5453898196e-01	 1.6248834239e+00
 1.3532912190e+00	 4.8617601941e-01	 1.5193816857e+00
 1.3442973577e+00	 5.1758361397e-01	 1.4058894058e+00
 1.3346234828e+00	 5.4873834080e-01	 1.2845063730e+00
 1.3242618074e+00	 5.7961670434e-01	 1.1553664950e+00
 1.3132055090e+00	 6.1019520007e-01	 1.0186392438e+00
 1.3014487709e+00	 6.4045037813e-01	 8.7453086387e-01
 1.4024189979e+00	 3.2945373451e-01	 1.9590654659e+00
 1.3966198660e+00	 3.6210425476e-01	 1.8828550241e+00
 1.3901861566e+00	 3.9461577856e-01	 1.7983698967e+00
 1.3831058433e+00	 4.2696550748e-01	 1.7056593852e+00
 1.3753676313e+00	 4.5913034595e-01	 1.6048006260e+00
 1.3669610093e+00	 4.9108695369e-01	 1.4959001234e+00
 1.3578762997e+00	 5.2281180090e-01	 1.3790951458e+00
 1.3481047076e+00	 5.5428122614e-01	 1.2545549560e+00
 1.3376383674e+00	 5.8547149649e-01	 1.1224818439e+00
 1.3264703878e+00	 6.1635887003e-01	 9.8311193157e-01
 1.3145948931e+00	 6.4691966002e-01	 8.3671571991e-01
 1.1831327965e+00	 5.8222641097e-01	 1.2610222957e+00
 1.1718029596e+00	 6.0941781830e-01	 1.1414154591e+00
 1.1598285813e+00	 6.3627299610e-01	 1.0143210877e+00
 1.1472073212e+00	 6.6277112297e-01	 8.8108696051e-01
 1.1339378746e+00	 6.8889166950e-01	 7.4308321813e-01
 1.1200199937e+00	 7.1461446003e-01	 6.0169290996e-01
 1.1054545054e+00	 7.3991973413e-01	 4.5830205345e-01
 1.0902433246e+00	 7.6478820756e-01	 3.1428932502e-01
 1.0743894629e+00	 7.8920113219e-01	 1.7101551484e-01
 1.0578970339e+00	 8.1314035461e-01	 2.9812887953e-02
 1.0407712524e+00	 8.3658837299e-01	-1.0802539830e-01
 1.1962790568e+00	 5.8869576078e-01	 1.2098752948e+00
 1.1848233296e+00	 6.1618930268e-01	 1.0855420730e+00
 1.1727158992e+00	 6.4334287907e-01	 9.5397342758e-01
 1.1599543992e+00	 6.7013543720e-01	 8.1656457464e-01
 1.1465375105e+00	 6.9654621954e-01	 6.7472902251e-01
 1.1324649825e+00	 7.2255482624e-01	 5.2988853786e-01
 1.1177376512e+00	 7.4814127733e-01	 3.8346265316e-01
 1.1023574529e+00	 7.7328607429e-01	 2.3685784518e-01
 1.0863274326e+00	 7.9797026066e-01	 9.1456526518e-02
 1.0696517496e+00	 8.2217548132e-01	-5.1393998101e-02
 1.0523356768e+00	 8.4588403999e-01	-1.9039245219e-01
 1.2094253140e+00	 5.9516510908e-01	 1.1616458689e+00
 1.1978436965e+00	 6.2296078548e-01	 1.0329051793e+00
 1.1856032140e+00	 6.5041276039e-01	 8.9717262900e-01
 1.1727014743e+00	 6.7749974970e-01	 7.5588471945e-01
 1.1591371434e+00	 7.0420076778e-01	 6.1049245758e-01
 1.1449099683e+00	 7.3049519060e-01	 4.6245080245e-01
 1.1300207942e+00	 7.5636281862e-01	 3.1320768132e-01
 1.1144715783e+00	 7.8178393904e-01	 1.6419271363e-01
 1.0982653996e+00	 8.0673938709e-01	 1.6805793746e-02
 1.0814064627e+00	 8.3121060593e-01	-1.2759430739e-01
 1.0639000985e+00	 8.5517970482e-01	-2.6770115576e-01
 1.2225715651e+00	 6.0163445437e-01	 1.1159386193e+00
 1.2108640573e+00	 6.2973226512e-01	 9.8310573156e-01
 1.1984905228e+00	 6.5748263841e-01	 8.4351764091e-01
 1.1854485433e+00	 6.8486405877e-01	 6.9864617672e-01
 1.1717367705e+00	 7.1185531246e-01	 5.4997416238e-01
 1.1573549484e+00	 7.3843555126e-01	 3.9898440256e-01
 1.1423039314e+00	 7.6458435607e-01	 2.4714826656e-01
 1.1265856982e+00	 7.9028179982e-01	 9.5914014189e-02
 1.1102033610e+00	 8.1550850942e-01	-5.3304977100e-02
 1.0931611702e+00	 8.4024572632e-01	-1.9914191662e-01
 1.0754645148e+00	 8.6447536531e-01	-3.4028806333e-01
 1.2357178070e+00	 6.0810379512e-01	 1.0723749678e+00
 1.2238844090e+00	 6.3650374002e-01	 9.3576166003e-01
 1.2113778226e+00	 6.6455251148e-01	 7.9262447460e-01
 1.1981956035e+00	 6.9222836268e-01	 6.4446479804e-01
 1.1843363887e+00	 7.1950985177e-01	 4.9279176719e-01
 1.1697999197e+00	 7.4637590636e-01	 3.3911085594e-01
 1.1545870600e+00	 7.7280588776e-01	 1.8491208322e-01
 1.1386998095e+00	 7.9877965465e-01	 3.1657995785e-02
 1.1221413140e+00	 8.2427762561e-01	-1.1922840873e-01
 1.1049158695e+00	 8.4928084039e-01	-2.6637564465e-01
 1.0870289230e+00	 8.7377101929e-01	-4.0847540816e-01
 1.2488640366e+00	 6.1457312984e-01	 1.0305922722e+00
 1.2369047486e+00	 6.4327520860e-01	 8.9050697781e-01
 1.2242651104e+00	 6.7162237796e-01	 7.4412530553e-01
 1.2109426517e+00	 6.9959265972e-01	 5.9297260638e-01
 1.1969359952e+00	 7.2716438394e-01	 4.3857899917e-01
 1.1822448794e+00	 7.5431625404e-01	 2.8246761398e-01
 1.1668701771e+00	 7.8102741179e-01	 1.2614248056e-01
 1.1508139096e+00	 8.0727750155e-01	-2.8923778362e-02
 1.1340792559e+00	 8.3304673362e-01	-1.8130227769e-01
 1.1166705579e+00	 8.5831594603e-01	-3.2962004496e-01
 1.0985933204e+00	 8.8306666460e-01	-4.7257185603e-01
 1.2620102508e+00	 6.2104245701e-01	 9.9024299530e-01
 1.2499250729e+00	 6.5004666928e-01	 8.4699094323e-01
 1.2371523831e+00	 6.7869223618e-01	 6.9766763137e-01
 1.2236896851e+00	 7.0695694817e-01	 5.4381695369e-01
 1.2095355870e+00	 7.3481890718e-01	 3.8698484397e-01
 1.1946898246e+00	 7.6225659247e-01	 2.2870723186e-01
 1.1791532800e+00	 7.8924892622e-01	 7.0497666325e-02
 1.1629279955e+00	 8.1577533854e-01	-8.6165228325e-02
 1.1460171838e+00	 8.4181583140e-01	-2.3985028753e-01
 1.1284252325e+00	 8.6735104112e-01	-3.8918614858e-01
 1.1101577043e+00	 8.9236229907e-01	-5.3287321185e-01
 1.2751564467e+00	 6.2751177512e-01	 9.5099392679e-01
 1.2629453791e+00	 6.5681812048e-01	 8.0487727380e-01
 1.2500396378e+00	 6.8576208451e-01	 6.5291348204e-01
 1.2364367006e+00	 7.1432122631e-01	 4.9665973071e-01
 1.2221351611e+00	 7.4247341971e-01	 3.3767275913e-01
 1.2071347524e+00	 7.7019691977e-01	 1.7749658994e-01
 1.1914363656e+00	 7.9747042914e-01	 1.7649940825e-02
 1.1750420644e+00	 8.2427316363e-01	-1.4038650575e-01
 1.1579550950e+00	 8.5058491690e-01	-2.9518279419e-01
 1.1401798907e+00	 8.7638612357e-01	-4.4537216104e-01
 1.1217220720e+00	 9.0165792052e-01	-5.8966308248e-01
 1.2883026211e+00	 6.3398108266e-01	 9.1252545174e-01
 1.2759656639e+00	 6.6358956063e-01	 7.6384340839e-01
 1.2629268715e+00	 6.9283192129e-01	 6.0953867820e-01
 1.2491836953e+00	 7.2168549242e-01	 4.5117662506e-01
 1.2347347147e+00	 7.5012791973e-01	 2.9031993561e-01
 1.2195796598e+00	 7.7813723411e-01	 1.2851616281e-01
 1.2037194311e+00	 8.0569191863e-01	-3.2715022093e-02
 1.1871561136e+00	 8.3277097484e-01	-1.9189469632e-01
 1.1698929868e+00	 8.5935398808e-01	-3.4759748702e-01
 1.1519345297e+00	 8.8542119125e-01	-4.9846411676e-01
 1.1332864209e+00	 9.1095352679e-01	-6.4321349908e-01
 1.3014487709e+00	 6.4045037813e-01	 8.7453086387e-01
 1.2889859245e+00	 6.7036098813e-01	 7.2357981403e-01
 1.2758140811e+00	 6.9990174487e-01	 5.6723213453e-01
 1.2619306663e+00	 7.2904974479e-01	 4.0705642430e-01
 1.2473342447e+00	 7.5778240547e-01	 2.4461660412e-01
 1.2320245441e+00	 7.8607753363e-01	 8.1459332679e-02
 1.2160024738e+00	 8.1391339278e-01	-8.0898850520e-02
 1.1992701402e+00	 8.4126877019e-01	-2.4098447970e-01
 1.1818308562e+00	 8.6812304290e-01	-3.9738002848e-01
 1.1636891467e+00	 8.9445624208e-01	-5.4873649365e-01
 1.1448507481e+00	 9.2024911570e-01	-6.9378550161e-01
 1.3145948931e+00	 6.4691966002e-01	 8.3671571991e-01
 1.3020061577e+00	 6.7713240141e-01	 6.8378933434e-01
 1.2887012636e+00	 7.0697155361e-01	 5.2569520492e-01
 1.2746776104e+00	 7.3641398169e-01	 3.6400036082e-01
 1.2599337483e+00	 7.6543687513e-01	 2.0026538302e-01
 1.2444694021e+00	 7.9401781647e-01	 3.6031743883e-02
 1.2282854906e+00	 8.2213484966e-01	-1.2719110945e-01
 1.2113841413e+00	 8.4976654770e-01	-2.8793874985e-01
 1.1937687006e+00	 8.7689207929e-01	-4.4480465546e-01
 1.1754437391e+00	 9.0349127393e-01	-5.9645279098e-01
 1.1564150511e+00	 9.2954468510e-01	-7.4162968846e-01
 1.0407712524e+00	 8.3658837299e-01	-1.0802539830e-01
 1.0230184280e+00	 8.5952839397e-01	-2.4448378028e-01
 1.0046459470e+00	 8.8194439106e-01	-3.8126145774e-01
 9.8566226724e-01	 9.0382114827e-01	-5.1667977143e-01
 9.6607690210e-01	 9.2514430463e-01	-6.4907933293e-01
 9.4590039750e-01	 9.4590039750e-01	-7.7683273971e-01
 9.2514430463e-01	 9.6607690210e-01	-8.9835701656e-01
 9.0382114827e-01	 9.8566226724e-01	-1.0121256003e+00
 8.8194439106e-01	 1.0046459470e+00	-1.1166796931e+00
 8.5952839397e-01	 1.0230184280e+00	-1.2106388208e+00
 8.3658837299e-01	 1.0407712524e+00	-1.2927104497e+00
 1.0523356768e+00	 8.4588403999e-01	-1.9039245219e-01
 1.0343855936e+00	 8.6907895669e-01	-3.2744238293e-01
 1.0158089687e+00	 8.9174402687e-01	-4.6419022153e-01
 9.9661435372e-01	 9.1386386544e-01	-5.9900086023e-01
 9.7681136778e-01	 9.3542395190e-01	-7.3026375539e-01
 9.5641067399e-01	 9.5641067399e-01	-8.5640531699e-01
 9.3542395190e-01	 9.7681136778e-01	-9.7590096396e-01
 9.1386386544e-01	 9.9661435372e-01	-1.0872866675e+00
 8.9174402687e-01	 1.0158089687e+00	-1.1891698134e+00
 8.6907895669e-01	 1.0343855936e+00	-1.2802392280e+00
 8.4588403999e-01	 1.0523356768e+00	-1.3592742267e+00
 1.0639000985e+00	 8.5517970482e-01	-2.6770115576e-01
 1.0457527567e+00	 8.7862951718e-01	-4.0533511946e-01
 1.0269719878e+00	 9.0154366038e-01	-5.4208647578e-01
 1.0075664376e+00	 9.2390658027e-01	-6.7636420854e-01
 9.8754583095e-01	 9.4570359677e-01	-8.0660675771e-01
 9.6692094803e-01	 9.6692094803e-01	-9.3129407807e-01
 9.4570359677e-01	 9.8754583095e-01	-1.0489593078e+00
 9.2390658027e-01	 1.0075664376e+00	-1.1581998746e+00
 9.0154366038e-01	 1.0269719878e+00	-1.2576878760e+00
 8.7862951718e-01	 1.0457527567e+00	-1.3461795856e+00
 8.5517970482e-01	 1.0639000985e+00	-1.4225239525e+00
 1.0754645148e+00	 8.6447536531e-01	-3.4028806333e-01
 1.0571199144e+00	 8.8818007321e-01	-4.7847893797e-01
 1.0381350017e+00	 9.1134328932e-01	-6.1524593632e-01
 1.0185185165e+00	 9.3394929041e-01	-7.4904263711e-01
 9.9828028912e-01	 9.5598323684e-01	-8.7835657583e-01
 9.7743121717e-01	 9.7743121717e-01	-1.0017209674e+00
 9.5598323684e-01	 9.9828028912e-01	-1.1177259875e+00
 9.3394929041e-01	 1.0185185165e+00	-1.2250294455e+00
 9.1134328932e-01	 1.0381350017e+00	-1.3223666919e+00
 8.8818007321e-01	 1.0571199144e+00	-1.4085596177e+00
 8.6447536531e-01	 1.0754645148e+00	-1.4825246224e+00
 1.0870289230e+00	 8.7377101929e-01	-4.0847540816e-01
 1.0684870641e+00	 8.9773062256e-01	-5.4717729940e-01
 1.0492980078e+00	 9.2114291140e-01	-6.8395173497e-01
 1.0294705876e+00	 9.4399199353e-01	-8.1729735664e-01
 1.0090147398e+00	 9.6626286971e-01	-9.4575088146e-01
 9.8794147894e-01	 9.8794147894e-01	-1.0678984835e+00
 9.6626286971e-01	 1.0090147398e+00	-1.1823866878e+00
 9.4399199353e-01	 1.0294705876e+00	-1.2879326139e+00
 9.2114291140e-01	 1.0492980078e+00	-1.3833334185e+00
 8.9773062256e-01	 1.0684870641e+00	-1.4674748026e+00
 8.7377101929e-01	 1.0870289230e+00	-1.5393384633e+00
 1.0985933204e+00	 8.8306666460e-01	-4.7257185603e-01
 1.0798542033e+00	 9.0728116300e-01	-6.1172088727e-01
 1.0604610035e+00	 9.3094252434e-01	-7.4847508171e-01
 1.0404226485e+00	 9.5403468727e-01	-8.8137857861e-01
 1.0197491804e+00	 9.7654249299e-01	-1.0090173379e+00
 9.9845173091e-01	 9.9845173091e-01	-1.1300301765e+00
 9.7654249299e-01	 1.0197491804e+00	-1.2431192739e+00
 9.5403468727e-01	 1.0404226485e+00	-1.3470599910e+00
 9.3094252434e-01	 1.0604610035e+00	-1.4407098572e+00
 9.0728116300e-01	 1.0798542033e+00	-1.5230165958e+00
 8.8306666460e-01	 1.0985933204e+00	-1.5930250797e+00
 1.1101577043e+00	 8.9236229907e-01	-5.3287321185e-01
 1.0912213292e+00	 9.1683169229e-01	-6.7238827307e-01
 1.0716239861e+00	 9.4074212584e-01	-8.0907588552e-01
 1.0513746967e+00	 9.6407736930e-01	-9.4152608810e-01
 1.0304836085e+00	 9.8682210428e-01	-1.0683741213e+00
 1.0089619706e+00	 1.0089619706e+00	-1.1883111134e+00
 9.8682210428e-01	 1.0304836085e+00	-1.3000941977e+00
 9.6407736930e-01	 1.0513746967e+00	-1.4025559108e+00
 9.4074212584e-01	 1.0716239861e+00	-1.4946127318e+00
 9.1683169229e-01	 1.0912213292e+00	-1.5752726401e+00
 8.9236229907e-01	 1.1101577043e+00	-1.6436415899e+00
 1.1217220720e+00	 9.0165792052e-01	-5.8966308248e-01
 1.1025884392e+00	 9.2638220821e-01	-7.2944654051e-01
 1.0827869531e+00	 9.5054171363e-01	-8.6600333678e-01
 1.0623267295e+00	 9.7412003726e-01	-9.9796978106e-01
 1.0412180216e+00	 9.9710170118e-01	-1.1240304094e+00
 1.0194721956e+00	 1.0194721956e+00	-1.2429283155e+00
 9.9710170118e-01	 1.0412180216e+00	-1.3534748803e+00
 9.7412003726e-01	 1.0623267295e+00	-1.4545587529e+00
 9.5054171363e-01	 1.0827869531e+00	-1.5451539505e+00
 9.2638220821e-01	 1.1025884392e+00	-1.6243269614e+00
 9.0165792052e-01	 1.1217220720e+00	-1.6912427539e+00
 1.1332864209e+00	 9.1095352679e-01	-6.4321349908e-01
 1.1139555306e+00	 9.3593270854e-01	-7.8315187154e-01
 1.0939499019e+00	 9.6034128541e-01	-9.1949645407e-01
 1.0732787444e+00	 9.8416268883e-01	-1.0509301688e+00
 1.0519524171e+00	 1.0073812813e+00	-1.1761868404e+00
 1.0299824034e+00	 1.0299824034e+00	-1.2940611689e+00
 1.0073812813e+00	 1.0519524171e+00	-1.4034180706e+00
 9.8416268883e-01	 1.0732787444e+00	-1.5032012464e+00
 9.6034128541e-01	 1.0939499019e+00	-1.5924408511e+00
 9.3593270854e-01	 1.1139555306e+00	-1.6702601530e+00
 9.1095352679e-01	 1.1332864209e+00	-1.7358810939e+00
 1.1448507481e+00	 9.2024911570e-01	-6.9378550161e-01
 1.1253226008e+00	 9.4548319104e-01	-8.3375009690e-01
 1.1051128299e+00	 9.7014083889e-01	-9.6978459779e-01
 1.0842307389e+00	 9.9420532164e-01	-1.1006188518e+00
 1.0626867927e+00	 1.0176608422e+00	-1.2250359446e+00
 1.0404925916e+00	 1.0404925916e+00	-1.3418818098e+00
 1.0176608422e+00	 1.0626867927e+00	-1.4500741817e+00
 9.9420532164e-01	 1.0842307389e+00	-1.5486107552e+00
 9.7014083889e-01	 1.1051128299e+00	-1.6365764320e+00
 9.4548319104e-01	 1.1253226008e+00	-1.7131495491e+00
 9.2024911570e-01	 1.1448507481e+00	-1.7776070068e+00
 1.1564150511e+00	 9.2954468510e-01	-7.4162968846e-01
 1.1366896471e+00	 9.5503365348e-01	-8.8147721360e-01
 1.1162757344e+00	 9.7994037180e-01	-1.0170879530e+00
 1.0951827104e+00	 1.0042479334e+00	-1.1472389653e+00
 1.0734211456e+00	 1.0279403815e+00	-1.2707625491e+00
 1.0510027578e+00	 1.0510027578e+00	-1.3865554867e+00
 1.0279403815e+00	 1.0734211456e+00	-1.4935876080e+00
 1.0042479334e+00	 1.0951827104e+00	-1.5909095461e+00
 9.7994037180e-01	 1.1162757344e+00	-1.6776595686e+00
 9.5503365348e-01	 1.1366896471e+00	-1.7530693878e+00
 9.2954468510e-01	 1.1564150511e+00	-1.8164688705e+00
 8.3658837299e-01	 1.0407712524e+00	-1.2927104497e+00
 8.1314035461e-01	 1.0578970339e+00	-1.3680836586e+00
 7.8920113219e-01	 1.0743894629e+00	-1.4424847943e+00
 7.6478820756e-01	 1.0902433246e+00	-1.5154491362e+00
 7.3991973413e-01	 1.1054545054e+00	-1.5864501021e+00
 7.1461446003e-01	 1.1200199937e+00	-1.6549046277e+00
 6.8889166950e-01	 1.1339378746e+00	-1.7201791326e+00
 6.6277112297e-01	 1.1472073212e+00	-1.7815959675e+00
 6.3627299610e-01	 1.1598285813e+00	-1.8384402327e+00
 6.0941781830e-01	 1.1718029596e+00	-1.8899668535e+00
 5.8222641097e-01	 1.1831327965e+00	-1.9354077999e+00
 8.4588403999e-01	 1.0523356768e+00	-1.3592742267e+00
 8.2217548132e-01	 1.0696517496e+00	-1.4312602706e+00
 7.9797026066e-01	 1.0863274326e+00	-1.5017016598e+00
 7.7328607429e-01	 1.1023574529e+00	-1.5701812211e+00
 7.4814127733e-01	 1.1177376512e+00	-1.6362219546e+00
 7.2255482624e-01	 1.1324649825e+00	-1.6992919762e+00
 6.9654621954e-01	 1.1465375105e+00	-1.7588100404e+00
 6.7013543720e-01	 1.1599543992e+00	-1.8141515478e+00
 6.4334287907e-01	 1.1727158992e+00	-1.8646549296e+00
 6.1618930268e-01	 1.1848233296e+00	-1.9096283028e+00
 5.8869576078e-01	 1.1962790568e+00	-1.9483562881e+00
 8.5517970482e-01	 1.0639000985e+00	-1.4225239525e+00
 8.3121060593e-01	 1.0814064627e+00	-1.4915015675e+00
 8.0673938709e-01	 1.0982653996e+00	-1.5583930457e+00
 7.8178393904e-01	 1.1144715783e+00	-1.6228257789e+00
 7.5636281862e-01	 1.1300207942e+00	-1.6843694790e+00
 7.3049519060e-01	 1.1449099683e+00	-1.7425407021e+00
 7.0420076778e-01	 1.1591371434e+00	-1.7968079468e+00
 6.7749974970e-01	 1.1727014743e+00	-1.8465972358e+00
 6.5041276039e-01	 1.1856032140e+00	-1.8912980795e+00
 6.2296078548e-01	 1.1978436965e+00	-1.9302697210e+00
 5.9516510908e-01	 1.2094253140e+00	-1.9628475584e+00
 8.6447536531e-01	 1.0754645148e+00	-1.4825246224e+00
 8.4024572632e-01	 1.0931611702e+00	-1.5488370598e+00
 8.1550850942e-01	 1.1102033610e+00	-1.6125531128e+00
 7.9028179982e-01	 1.1265856982e+00	-1.6733417995e+00
 7.6458435607e-01	 1.1423039314e+00	-1.7308167133e+00
 7.3843555126e-01	 1.1573549484e+00	-1.7845401480e+00
 7.1185531246e-01	 1.1717367705e+00	-1.8340277889e+00
 6.8486405877e-01	 1.1854485433e+00	-1.8787538830e+00
 6.5748263841e-01	 1.1984905228e+00	-1.9181567940e+00
 6.2973226512e-01	 1.2108640573e+00	-1.9516448467e+00
 6.0163445437e-01	 1.2225715651e+00	-1.9786023613e+00
 8.7377101929e-01	 1.0870289230e+00	-1.5393384633e+00
 8.4928084039e-01	 1.1049158695e+00	-1.6032949997e+00
 8.2427762561e-01	 1.1221413140e+00	-1.6641762678e+00
 7.9877965465e-01	 1.1386998095e+00	-1.7216900150e+00
 7.7280588776e-01	 1.1545870600e+00	-1.7754909250e+00
 7.4637590636e-01	 1.1697999197e+00	-1.8251843624e+00
 7.1950985177e-01	 1.1843363887e+00	-1.8703306740e+00
 6.9222836268e-01	 1.1981956035e+00	-1.9104499614e+00
 6.6455251148e-01	 1.2113778226e+00	-1.9450272406e+00
 6.3650374002e-01	 1.2238844090e+00	-1.9735178948e+00
 6.0810379512e-01	 1.2357178070e+00	-1.9953533276e+00
 8.8306666460e-01	 1.0985933204e+00	-1.5930250797e+00
 8.5831594603e-01	 1.1166705579e+00	-1.6549024475e+00
 8.3304673362e-01	 1.1340792559e+00	-1.7132571502e+00
 8.0727750155e-01	 1.1508139096e+00	-1.7678328084e+00
 7.8102741179e-01	 1.1668701771e+00	-1.8183224414e+00
 7.5431625404e-01	 1.1822448794e+00	-1.8643718525e+00
 7.2716438394e-01	 1.1969359952e+00	-1.9055835545e+00
 6.9959265972e-01	 1.2109426517e+00	-1.9415211623e+00
 6.7162237796e-01	 1.2242651104e+00	-1.9717141665e+00
 6.4327520860e-01	 1.2369047486e+00	-1.9956630049e+00
 6.1457312984e-01	 1.2488640366e+00	-2.0128443424e+00
 8.9236229907e-01	 1.1101577043e+00	-1.6436415899e+00
 8.6735104112e-01	 1.1284252325e+00	-1.7036853328e+00
 8.4181583140e-01	 1.1460171838e+00	-1.7597906201e+00
 8.1577533854e-01	 1.1629279955e+00	-1.8117341269e+00
 7.8924892622e-01	 1.1791532800e+00	-1.8592444900e+00
 7.6225659247e-01	 1.1946898246e+00	-1.9020053507e+00
 7.3481890718e-01	 1.2095355870e+00	-1.9396589237e+00
 7.0695694817e-01	 1.2236896851e+00	-1.9718100204e+00
 6.7869223618e-01	 1.2371523831e+00	-1.9980304513e+00
 6.5004666928e-01	 1.2499250729e+00	-2.0178637246e+00
 6.2104245701e-01	 1.2620102508e+00	-2.0308299597e+00
 9.0165792052e-01	 1.1217220720e+00	-1.6912427539e+00
 8.7638612357e-01	 1.1401798907e+00	-1.7496685135e+00
 8.5058491690e-01	 1.1579550950e+00	-1.8037717465e+00
 8.2427316363e-01	 1.1750420644e+00	-1.8533594015e+00
 7.9747042914e-01	 1.1914363656e+00	-1.8981930483e+00
 7.7019691977e-01	 1.2071347524e+00	-1.9379915979e+00
 7.4247341971e-01	 1.2221351611e+00	-1.9724345293e+00
 7.1432122631e-01	 1.2364367006e+00	-2.0011655602e+00
 6.8576208451e-01	 1.2500396378e+00	-2.0237966877e+00
 6.5681812048e-01	 1.2629453791e+00	-2.0399125241e+00
 6.2751177512e-01	 1.2751564467e+00	-2.0490748515e+00
 9.1095352679e-01	 1.1332864209e+00	-1.7358810939e+00
 8.8542119125e-01	 1.1519345297e+00	-1.7928758295e+00
 8.5935398808e-01	 1.1698929868e+00	-1.8451957966e+00
 8.3277097484e-01	 1.1871561136e+00	-1.8926754709e+00
 8.0569191863e-01	 1.2037194311e+00	-1.9351067041e+00
 7.7813723411e-01	 1.2195796598e+00	-1.9722411378e+00
 7.5012791973e-01	 1.2347347147e+00	-2.0037931060e+00
 7.2168549242e-01	 1.2491836953e+00	-2.0294429656e+00
 6.9283192129e-01	 1.2629268715e+00	-2.0488407879e+00
 6.6358956063e-01	 1.2759656639e+00	-2.0616103412e+00
 6.3398108266e-01	 1.2883026211e+00	-2.0673532921e+00
 9.2024911570e-01	 1.1448507481e+00	-1.7776070068e+00
 8.9445624208e-01	 1.1636891467e+00	-1.8333301545e+00
 8.6812304290e-01	 1.1818308562e+00	-1.8840582255e+00
 8.4126877019e-01	 1.1992701402e+00	-1.9296505105e+00
 8.1391339278e-01	 1.2160024738e+00	-1.9699265229e+00
 7.8607753363e-01	 1.2320245441e+00	-2.0046681252e+00
 7.5778240547e-01	 1.2473342447e+00	-2.0336221229e+00
 7.2904974479e-01	 1.2619306663e+00	-2.0565032680e+00
 6.9990174487e-01	 1.2758140811e+00	-2.0729976138e+00
 6.7036098813e-01	 1.2889859245e+00	-2.0827661528e+00
 6.4045037813e-01	 1.3014487709e+00	-2.0854486725e+00
 9.2954468510e-01	 1.1564150511e+00	-1.8164688705e+00
 9.0349127393e-01	 1.1754437391e+00	-1.8710534439e+00
 8.7689207929e-01	 1.1937687006e+00	-1.9203546666e+00
 8.4976654770e-01	 1.2113841413e+00	-1.9642539650e+00
 8.2213484966e-01	 1.2282854906e+00	-2.0025959241e+00
 7.9401781647e-01	 1.2444694021e+00	-2.0351901454e+00
 7.6543687513e-01	 1.2599337483e+00	-2.0618135468e+00
 7.3641398169e-01	 1.2746776104e+00	-2.0822130541e+00
 7.0697155361e-01	 1.2887012636e+00	-2.0961086293e+00
 6.7713240141e-01	 1.3020061577e+00	-2.1031965738e+00
 6.4691966002e-01	 1.3145948931e+00	-2.1031530448e+00
 5.8222641097e-01	 1.1831327965e+00	-1.9354077999e+00
 5.5472176059e-01	 1.1938207182e+00	-1.9783548077e+00
 5.2692318567e-01	 1.2038718777e+00	-2.0227552188e+00
 4.9885200421e-01	 1.2132915631e+00	-2.0683384665e+00
 4.7052958392e-01	 1.2220859766e+00	-2.1148174373e+00
 4.4197728434e-01	 1.2302621973e+00	-2.1618915380e+00
 4.1321640076e-01	 1.2378281404e+00	-2.2092497540e+00
 3.8426810993e-01	 1.2447925158e+00	-2.2565736587e+00
 3.5515341806e-01	 1.2511647837e+00	-2.3035403418e+00
 3.2589311112e-01	 1.2569551095e+00	-2.3498252237e+00
 2.9650770765e-01	 1.2621743166e+00	-2.3951047316e+00
 5.8869576078e-01	 1.1962790568e+00	-1.9483562881e+00
 5.6088549527e-01	 1.2070857362e+00	-1.9845398763e+00
 5.3277803929e-01	 1.2172485781e+00	-2.0222229467e+00
 5.0439494774e-01	 1.2267729294e+00	-2.0611640367e+00
 4.7575782574e-01	 1.2356650612e+00	-2.1010982807e+00
 4.4688827018e-01	 1.2439321311e+00	-2.1417407191e+00
 4.1780781295e-01	 1.2515821424e+00	-2.1827896533e+00
 3.8853786612e-01	 1.2586239018e+00	-2.2239300001e+00
 3.5909966930e-01	 1.2650669745e+00	-2.2648366019e+00
 3.2951423942e-01	 1.2709216389e+00	-2.3051774551e+00
 2.9980232302e-01	 1.2761988388e+00	-2.3446168219e+00
 5.9516510908e-01	 1.2094253140e+00	-1.9628475584e+00
 5.6704922850e-01	 1.2203507511e+00	-1.9928251620e+00
 5.3863289155e-01	 1.2306252755e+00	-2.0243258303e+00
 5.0993788998e-01	 1.2402542926e+00	-2.0571351521e+00
 4.8098606635e-01	 1.2492441426e+00	-2.0910090497e+00
 4.5179925488e-01	 1.2576020617e+00	-2.1256773062e+00
 4.2239922408e-01	 1.2653361413e+00	-2.1608471905e+00
 3.9280762132e-01	 1.2724552846e+00	-2.1962071227e+00
 3.6304591962e-01	 1.2789691621e+00	-2.2314303332e+00
 3.3313536688e-01	 1.2848881651e+00	-2.2661784663e+00
 3.0309693762e-01	 1.2902233576e+00	-2.3001050884e+00
 6.0163445437e-01	 1.2225715651e+00	-1.9786023613e+00
 5.7321295886e-01	 1.2336157599e+00	-2.0028998928e+00
 5.4448774107e-01	 1.2440019666e+00	-2.0287241235e+00
 5.1548082964e-01	 1.2537356495e+00	-2.0558856541e+00
 4.8621430452e-01	 1.2628232177e+00	-2.0841597322e+00
 4.5671023728e-01	 1.2712719860e+00	-2.1132899765e+00
 4.2699063306e-01	 1.2790901337e+00	-2.1429922429e+00
 3.9707737452e-01	 1.2862866609e+00	-2.1729585721e+00
 3.6699216811e-01	 1.2928713432e+00	-2.2028611616e+00
 3.3675649265e-01	 1.2988546847e+00	-2.2323563096e+00
 3.0639155069e-01	 1.3042478699e+00	-2.2610882805e+00
 6.0810379512e-01	 1.2357178070e+00	-1.9953533276e+00
 5.7937668491e-01	 1.2468807593e+00	-2.0144665182e+00
 5.5034258650e-01	 1.2573786483e+00	-2.0350925347e+00
 5.2102376541e-01	 1.2672169970e+00	-2.0570649624e+00
 4.9144253903e-01	 1.2764022833e+00	-2.0801769099e+00
 4.6162121625e-01	 1.2849419007e+00	-2.1041849073e+00
 4.3158203882e-01	 1.2928441165e+00	-2.1288129883e+00
 4.0134712474e-01	 1.3001180275e+00	-2.1537568890e+00
 3.7093841382e-01	 1.3067735145e+00	-2.1786883008e+00
 3.4037761589e-01	 1.3128211946e+00	-2.2032591177e+00
 3.0968616145e-01	 1.3182723724e+00	-2.2271056238e+00
 6.1457312984e-01	 1.2488640366e+00	-2.0128443424e+00
 5.8554040520e-01	 1.2601457464e+00	-2.0272400132e+00
 5.5619742646e-01	 1.2707553176e+00	-2.0431194658e+00
 5.2656669601e-01	 1.2806983319e+00	-2.0603372552e+00
 4.9667076865e-01	 1.2899813362e+00	-2.0787028843e+00
 4.6653219063e-01	 1.2986118027e+00	-2.0979848552e+00
 4.3617344031e-01	 1.3065980864e+00	-2.1179149415e+00
 4.0561687097e-01	 1.3139493812e+00	-2.1381926096e+00
 3.7488465586e-01	 1.3206756729e+00	-2.1584895207e+00
 3.4399873574e-01	 1.3267876914e+00	-2.1784540465e+00
 3.1298076913e-01	 1.3322968618e+00	-2.1977157423e+00
 6.2104245701e-01	 1.2620102508e+00	-2.0308299597e+00
 5.9170411830e-01	 1.2734107180e+00	-2.0409472258e+00
 5.6205225959e-01	 1.2841319713e+00	-2.0525062991e+00
 5.3210962014e-01	 1.2941796511e+00	-2.0653807005e+00
 5.0189899218e-01	 1.3035603733e+00	-2.0793948584e+00
 4.7144315928e-01	 1.3122816886e+00	-2.0943282923e+00
 4.4076483643e-01	 1.3203520403e+00	-2.1099200511e+00
 4.0988661222e-01	 1.3277807188e+00	-2.1258733285e+00
 3.7883089329e-01	 1.3345778151e+00	-2.1418601817e+00
 3.4761985137e-01	 1.3407541720e+00	-2.1575262842e+00
 3.1627537297e-01	 1.3463213348e+00	-2.1724956476e+00
 6.2751177512e-01	 1.2751564467e+00	-2.0490748515e+00
 5.9786782277e-01	 1.2866756711e+00	-2.0553262651e+00
 5.6790708453e-01	 1.2975086062e+00	-2.0629667278e+00
 5.3765253651e-01	 1.3076609514e+00	-2.0718867344e+00
 5.0712720839e-01	 1.3171393913e+00	-2.0819241678e+00
 4.7635412106e-01	 1.3259515555e+00	-2.0928685962e+00
 4.4535622613e-01	 1.3341059750e+00	-2.1044658529e+00
 4.1415634749e-01	 1.3416120371e+00	-2.1164228187e+00
 3.8277712519e-01	 1.3484799377e+00	-2.1284123275e+00
 3.5124096194e-01	 1.3547206330e+00	-2.1400781221e+00
 3.1956997219e-01	 1.3603457882e+00	-2.1510397917e+00
 6.3398108266e-01	 1.2883026211e+00	-2.0673532921e+00
 6.0403151717e-01	 1.2999406024e+00	-2.0701259263e+00
 5.7376189990e-01	 1.3108852193e+00	-2.0742261282e+00
 5.4319544383e-01	 1.3211422296e+00	-2.0795593846e+00
 5.1235541606e-01	 1.3307183872e+00	-2.0859755604e+00
 4.8126507482e-01	 1.3396214000e+00	-2.0932732895e+00
 4.4994760833e-01	 1.3478598872e+00	-2.1012046742e+00
 4.1842607579e-01	 1.3554433327e+00	-2.1094802070e+00
 3.8672335066e-01	 1.3623820377e+00	-2.1177738337e+00
 3.5486206658e-01	 1.3686870711e+00	-2.1257280812e+00
 3.2286456604e-01	 1.3743702187e+00	-2.1329591764e+00
 6.4045037813e-01	 1.3014487709e+00	-2.0854486725e+00
 6.1019520007e-01	 1.3132055090e+00	-2.0851051510e+00
 5.7961670434e-01	 1.3242618074e+00	-2.0860209693e+00
 5.4873834080e-01	 1.3346234828e+00	-2.0881146342e+00
 5.1758361397e-01	 1.3442973577e+00	-2.0912465181e+00
 4.8617601941e-01	 1.3532912190e+00	-2.0952233251e+00
 4.5453898196e-01	 1.3616137737e+00	-2.0998028866e+00
 4.2269579611e-01	 1.3692746025e+00	-2.1046991976e+00
 3.9066956875e-01	 1.3762841118e+00	-2.1095876086e+00
 3.5848316447e-01	 1.3826534833e+00	-2.1141100935e+00
 3.2615915374e-01	 1.3883946231e+00	-2.1178805180e+00
 6.4691966002e-01	 1.3145948931e+00	-2.1031530448e+00
 6.1635887003e-01	 1.3264703878e+00	-2.1000325200e+00
 5.8547149649e-01	 1.3376383674e+00	-2.0980982578e+00
 5.5428122614e-01	 1.3481047076e+00	-2.0972798236e+00
 5.2281180090e-01	 1.3578762997e+00	-2.0974466206e+00
 4.9108695369e-01	 1.3669610093e+00	-2.0984124146e+00
 4.5913034595e-01	 1.3753676313e+00	-2.0999402037e+00
 4.2696550748e-01	 1.3831058433e+00	-2.1017473438e+00
 3.9461577856e-01	 1.3901861566e+00	-2.1035108411e+00
 3.6210425476e-01	 1.3966198660e+00	-2.1048727304e+00
 3.2945373451e-01	 1.4024189979e+00	-2.1054454613e+00
 2.9650770765e-01	 1.2621743166e+00	-2.3951047316e+00
 2.6701535218e-01	 1.2668341468e+00	-2.4377825060e+00
 2.3743798158e-01	 1.2709462147e+00	-2.4763962413e+00
 2.0779509116e-01	 1.2745230351e+00	-2.5109054056e+00
 1.7810574618e-01	 1.2775775890e+00	-2.5413568653e+00
 1.4838854915e-01	 1.2801232755e+00	-2.5678768383e+00
 1.1866161018e-01	 1.2821738634e+00	-2.5906627847e+00
 8.8942520394e-02	 1.2837434449e+00	-2.6099753421e+00
 5.9248328424e-02	 1.2848463888e+00	-2.6261303948e+00
 2.9595519919e-02	 1.2854972953e+00	-2.6394913580e+00
 0.0000000000e+00	 1.2857109524e+00	-2.6504617443e+00
 2.9980232302e-01	 1.2761988388e+00	-2.3446168219e+00
 2.6998226622e-01	 1.2809104461e+00	-2.3818362484e+00
 2.4007624967e-01	 1.2850682048e+00	-2.4156526264e+00
 2.1010398527e-01	 1.2886847687e+00	-2.4460054933e+00
 1.8008475015e-01	 1.2917732631e+00	-2.4729154080e+00
 1.5003735349e-01	 1.2943472356e+00	-2.4964766012e+00
 1.1998010665e-01	 1.2964206085e+00	-2.5168495592e+00
 8.9930796205e-02	 1.2980076302e+00	-2.5342536365e+00
 5.9906660228e-02	 1.2991228294e+00	-2.5489597848e+00
 2.9924367543e-02	 1.2997809683e+00	-2.5612834693e+00
 0.0000000000e+00	 1.2999969994e+00	-2.5715778395e+00
 3.0309693762e-01	 1.2902233576e+00	-2.3001050884e+00
 2.7294917958e-01	 1.2949867422e+00	-2.3321611770e+00
 2.4271451714e-01	 1.2991901917e+00	-2.3614342100e+00
 2.1241287885e-01	 1.3028464991e+00	-2.3878455595e+00
 1.8206375365e-01	 1.3059689338e+00	-2.4113914355e+00
 1.5168615745e-01	 1.3085711925e+00	-2.4321362052e+00
 1.2129860281e-01	 1.3106673502e+00	-2.4502056417e+00
 9.0919071785e-02	 1.3122718122e+00	-2.4657801889e+00
 6.0564991877e-02	 1.3133992666e+00	-2.4790883240e+00
 3.0253215090e-02	 1.3140646380e+00	-2.4904000841e+00
 0.0000000000e+00	 1.3142830432e+00	-2.5000208172e+00
 3.0639155069e-01	 1.3042478699e+00	-2.2610882805e+00
 2.7591609155e-01	 1.3090630317e+00	-2.2882687316e+00
 2.4535278339e-01	 1.3133121720e+00	-2.3132468600e+00
 2.1472177135e-01	 1.3170082228e+00	-2.3359275835e+00
 1.8404275623e-01	 1.3201645979e+00	-2.3562846612e+00
 1.5333496063e-01	 1.3227951427e+00	-2.3743546551e+00
 1.2261709835e-01	 1.3249140853e+00	-2.3902308166e+00
 9.1907346903e-02	 1.3265359875e+00	-2.4040569788e+00
 6.1223323219e-02	 1.3276756971e+00	-2.4160215281e+00
 3.0582062483e-02	 1.3283483011e+00	-2.4263515173e+00
 0.0000000000e+00	 1.3285690802e+00	-2.4353069771e+00
 3.0968616145e-01	 1.3182723724e+00	-2.2271056238e+00
 2.7888300145e-01	 1.3231393113e+00	-2.2496911389e+00
 2.4799104779e-01	 1.3274341424e+00	-2.2706174686e+00
 2.1703066223e-01	 1.3311699367e+00	-2.2897747344e+00
 1.8602175742e-01	 1.3343602520e+00	-2.3071160846e+00
 1.5498376267e-01	 1.3370190829e+00	-2.3226522717e+00
 1.2393559298e-01	 1.3391608104e+00	-2.3364461511e+00
 9.2895621330e-02	 1.3408001529e+00	-2.3486071754e+00
 6.1881654101e-02	 1.3419521177e+00	-2.3592859515e+00
 3.0910909646e-02	 1.3426319541e+00	-2.3686689188e+00
 0.0000000000e+00	 1.3428551073e+00	-2.3769731995e+00
 3.1298076913e-01	 1.3322968618e+00	-2.1977157423e+00
 2.8184990857e-01	 1.3372155778e+00	-2.2159803188e+00
 2.5062930972e-01	 1.3415560997e+00	-2.2330928457e+00
 2.1933955096e-01	 1.3453316373e+00	-2.2489302556e+00
 1.8800075677e-01	 1.3485558929e+00	-2.2634268709e+00
 1.5663256316e-01	 1.3512430099e+00	-2.2765695705e+00
 1.2525408637e-01	 1.3534075222e+00	-2.2883928757e+00
 9.3883894835e-02	 1.3550643049e+00	-2.2989740224e+00
 6.2539984367e-02	 1.3562285250e+00	-2.3084280808e+00
 3.1239756502e-02	 1.3569155938e+00	-2.3169031773e+00
 0.0000000000e+00	 1.3571411210e+00	-2.3245758619e+00
 3.1627537297e-01	 1.3463213348e+00	-2.1724956476e+00
 2.8481681224e-01	 1.3512918279e+00	-2.1867068583e+00
 2.5326756858e-01	 1.3556780404e+00	-2.2002386811e+00
 2.2164843700e-01	 1.3594933214e+00	-2.2129564193e+00
 1.8997975381e-01	 1.3627515173e+00	-2.2247773006e+00
 1.5828136173e-01	 1.3654669203e+00	-2.2356662092e+00
 1.2657257822e-01	 1.3676542174e+00	-2.2456313332e+00
 9.4872167187e-02	 1.3693284403e+00	-2.2547197922e+00
 6.3198313866e-02	 1.3705049155e+00	-2.2630132966e+00
 3.1568602975e-02	 1.3711992169e+00	-2.2706238916e+00
 0.0000000000e+00	 1.3714271181e+00	-2.2776898237e+00
 3.1956997219e-01	 1.3603457882e+00	-2.1510397917e+00
 2.8778371175e-01	 1.3653680583e+00	-2.1614590492e+00
 2.5590582374e-01	 1.3697999614e+00	-2.1716385718e+00
 2.2395731980e-01	 1.3736549856e+00	-2.1814335455e+00
 1.9195874808e-01	 1.3769471217e+00	-2.1907457845e+00
 1.5993015799e-01	 1.3796908107e+00	-2.1995200014e+00
 1.2789106823e-01	 1.3819008927e+00	-2.2077399944e+00
 9.5860438155e-02	 1.3835925557e+00	-2.2154248054e+00
 6.3856642444e-02	 1.3847812861e+00	-2.2226248991e+00
 3.1897448987e-02	 1.3854828199e+00	-2.2294184066e+00
 0.0000000000e+00	 1.3857130952e+00	-2.2359074733e+00
 3.2286456604e-01	 1.3743702187e+00	-2.1329591764e+00
 2.9075060642e-01	 1.3794442657e+00	-2.1398419854e+00
 2.5854407459e-01	 1.3839218593e+00	-2.1468931078e+00
 2.2626619883e-01	 1.3878166268e+00	-2.1539590815e+00
 1.9393773912e-01	 1.3911427030e+00	-2.1609279382e+00
 1.6157895156e-01	 1.3939146780e+00	-2.1677259901e+00
 1.2920955608e-01	 1.3961475447e+00	-2.1743145323e+00
 9.6848707509e-02	 1.3978566478e+00	-2.1806865099e+00
 6.4514969946e-02	 1.3990576334e+00	-2.1868631941e+00
 3.2226294462e-02	 1.3997663996e+00	-2.1928909080e+00
 0.0000000000e+00	 1.3999990489e+00	-2.1988378340e+00
 3.2615915374e-01	 1.3883946231e+00	-2.1178805180e+00
 2.9371749554e-01	 1.3935204468e+00	-2.1214767134e+00
 2.6118232052e-01	 1.3980437309e+00	-2.1256190145e+00
 2.2857507355e-01	 1.4019782415e+00	-2.1301467364e+00
 1.9591672646e-01	 1.4053382578e+00	-2.1349357134e+00
 1.6322774205e-01	 1.4081385186e+00	-2.1398955776e+00
 1.3052804147e-01	 1.4103941701e+00	-2.1449669541e+00
 9.7836975018e-02	 1.4121207133e+00	-2.1501186154e+00
 6.5173296219e-02	 1.4133339541e+00	-2.1553446344e+00
 3.2555139323e-02	 1.4140499527e+00	-2.1606615711e+00
 0.0000000000e+00	 1.4142849760e+00	-2.1661057236e+00
 3.2945373451e-01	 1.4024189979e+00	-2.1054454613e+00
 2.9668437844e-01	 1.4075965984e+00	-2.1059994351e+00
 2.6382056091e-01	 1.4121655728e+00	-2.1074483450e+00
 2.3088394342e-01	 1.4161398264e+00	-2.1096256683e+00
 1.9789570964e-01	 1.4195337827e+00	-2.1123965811e+00
 1.6487652907e-01	 1.4223623295e+00	-2.1156557072e+00
 1.3184652410e-01	 1.4246407655e+00	-2.1193247837e+00
 9.8825240452e-02	 1.4263847488e+00	-2.1233502808e+00
 6.5831621110e-02	 1.4276102447e+00	-2.1277010117e+00
 3.2883983494e-02	 1.4283334758e+00	-2.1323657620e+00
 0.0000000000e+00	 1.4285708730e+00	-2.1373509647e+00
 1.4285708730e+00	 0.0000000000e+00	 2.2701524514e+00
 1.4283334758e+00	 3.2883983494e-02	 2.2620946189e+00
 1.4276102447e+00	 6.5831621110e-02	 2.2516377644e+00
 1.4263847488e+00	 9.8825240452e-02	 2.2377802904e+00
 1.4246407655e+00	 1.3184652410e-01	 2.2195014157e+00
 1.4223623295e+00	 1.6487652907e-01	 2.1957671729e+00
 1.4195337827e+00	 1.9789570964e-01	 2.1655371532e+00
 1.4161398264e+00	 2.3088394342e-01	 2.1277719983e+00
 1.4121655728e+00	 2.6382056091e-01	 2.0814416235e+00
 1.4075965984e+00	 2.9668437844e-01	 2.0255341446e+00
 1.4024189979e+00	 3.2945373451e-01	 1.9590654659e+00
 1.4428567384e+00	 0.0000000000e+00	 2.2793489808e+00
 1.4426169672e+00	 3.3212826935e-02	 2.2711759196e+00
 1.4418865037e+00	 6.6489944541e-02	 2.2601070360e+00
 1.4406487528e+00	 9.9813503695e-02	 2.2451859609e+00
 1.4388873294e+00	 1.3316500380e-01	 2.2254399380e+00
 1.4365861087e+00	 1.6652531245e-01	 2.1998857266e+00
 1.4337292763e+00	 1.9987468844e-01	 2.1675362181e+00
 1.4303013800e+00	 2.3319280818e-01	 2.1274077621e+00
 1.4262873834e+00	 2.6645879545e-01	 2.0785281853e+00
 1.4216727187e+00	 2.9965125476e-01	 2.0199454743e+00
 1.4164433417e+00	 3.3274830799e-01	 1.9507370786e+00
 1.4571425772e+00	 0.0000000000e+00	 2.2875010347e+00
 1.4569004319e+00	 3.3541669763e-02	 2.2792543518e+00
 1.4561627361e+00	 6.7148266744e-02	 2.2676304885e+00
 1.4549127300e+00	 1.0080176509e-01	 2.2517176766e+00
 1.4531338667e+00	 1.3448348104e-01	 2.2305904875e+00
 1.4508098615e+00	 1.6817409274e-01	 2.2033156390e+00
 1.4479247433e+00	 2.0185366355e-01	 2.1689584809e+00
 1.4444629071e+00	 2.3550166862e-01	 2.1265901538e+00
 1.4404091676e+00	 2.6909702507e-01	 2.0752954029e+00
 1.4357488128e+00	 3.0261812554e-01	 2.0141810165e+00
 1.4304676593e+00	 3.3604287531e-01	 1.9423848437e+00
 1.4714283959e+00	 0.0000000000e+00	 2.2944794472e+00
 1.4711838766e+00	 3.3870512131e-02	 2.2861991231e+00
 1.4704389485e+00	 6.7806588024e-02	 2.2740754308e+00
 1.4691766874e+00	 1.0179002511e-01	 2.2572405927e+00
 1.4673803841e+00	 1.3580195643e-01	 2.2348158303e+00
 1.4650335943e+00	 1.6982287073e-01	 2.2059170716e+00
 1.4621201904e+00	 2.0383263588e-01	 2.1696613044e+00
 1.4586244144e+00	 2.3781052584e-01	 2.1251735663e+00
 1.4545309320e+00	 2.7173525100e-01	 2.0715945524e+00
 1.4498248872e+00	 3.0558499217e-01	 2.0080888084e+00
 1.4444919573e+00	 3.3933743803e-01	 1.9338534641e+00
 1.4857142013e+00	 0.0000000000e+00	 2.3001600296e+00
 1.4854673080e+00	 3.4199354191e-02	 2.2918844806e+00
 1.4847151475e+00	 6.8464908691e-02	 2.2793142840e+00
 1.4834406314e+00	 1.0277828420e-01	 2.2616250599e+00
 1.4816268881e+00	 1.3712043060e-01	 2.2379840196e+00
 1.4792573138e+00	 1.7147164718e-01	 2.2075555728e+00
 1.4763156243e+00	 2.0581160637e-01	 2.1695075458e+00
 1.4727859085e+00	 2.4011938089e-01	 2.1230180010e+00
 1.4686526833e+00	 2.7437347446e-01	 2.0672826377e+00
 1.4639009484e+00	 3.0855185603e-01	 2.0015227395e+00
 1.4585162421e+00	 3.4263199766e-01	 1.9249936231e+00
 1.5000000000e+00	 0.0000000000e+00	 2.3044233331e+00
 1.4997507328e+00	 3.4528196098e-02	 2.2961894710e+00
 1.4989913399e+00	 6.9123229050e-02	 2.2832243385e+00
 1.4977045687e+00	 1.0376654283e-01	 2.2647463762e+00
 1.4958733855e+00	 1.3843890414e-01	 2.2399681435e+00
 1.4934810267e+00	 1.7312042286e-01	 2.2081018215e+00
 1.4905110515e+00	 2.0779057594e-01	 2.1683652949e+00
 1.4869473960e+00	 2.4242823487e-01	 2.1199888005e+00
 1.4827744280e+00	 2.7701169669e-01	 2.0622221183e+00
 1.4779770030e+00	 3.1151871851e-01	 1.9943422733e+00
 1.4725405205e+00	 3.4592655576e-01	 1.9156617000e+00
 1.5142857987e+00	 0.0000000000e+00	 2.3071544263e+00
 1.5140341575e+00	 3.4857038006e-02	 2.2989977146e+00
 1.5132675323e+00	 6.9781549409e-02	 2.2856875243e+00
 1.5119685061e+00	 1.0475480146e-01	 2.2664845551e+00
 1.5101198829e+00	 1.3975737769e-01	 2.2406460886e+00
 1.5077047396e+00	 1.7476919854e-01	 2.2074313853e+00
 1.5047064788e+00	 2.0976954550e-01	 2.1661076284e+00
 1.5011088835e+00	 2.4473708885e-01	 2.1159563977e+00
 1.4968961727e+00	 2.7964991892e-01	 2.0562806523e+00
 1.4920530577e+00	 3.1448558098e-01	 1.9864121849e+00
 1.4865647988e+00	 3.4922111386e-01	 1.9057195018e+00
 1.5285716041e+00	 0.0000000000e+00	 2.3082426845e+00
 1.5283175889e+00	 3.5185880066e-02	 2.3001971926e+00
 1.5275437313e+00	 7.0439870076e-02	 2.2865901951e+00
 1.5262324501e+00	 1.0574306056e-01	 2.2667241047e+00
 1.5243663870e+00	 1.4107585186e-01	 2.2399003155e+00
 1.5219284592e+00	 1.7641797498e-01	 2.2054244931e+00
 1.5189019127e+00	 2.1174851599e-01	 2.1626123764e+00
 1.5152703776e+00	 2.4704594391e-01	 2.1107960778e+00
 1.5110179240e+00	 2.8228814238e-01	 2.0493308538e+00
 1.5061291189e+00	 3.1745244484e-01	 1.9776023128e+00
 1.5005890837e+00	 3.5251567350e-01	 1.8950340095e+00
 1.5428574228e+00	 0.0000000000e+00	 2.3075815900e+00
 1.5426010337e+00	 3.5514722434e-02	 2.2996800450e+00
 1.5418199437e+00	 7.1098191357e-02	 2.2858229239e+00
 1.5404964074e+00	 1.0673132057e-01	 2.2653538206e+00
 1.5386129043e+00	 1.4239432725e-01	 2.2376176481e+00
 1.5361521920e+00	 1.7806675297e-01	 2.2019658188e+00
 1.5330973598e+00	 2.1372748832e-01	 2.1577619034e+00
 1.5294318849e+00	 2.4935480113e-01	 2.1043877540e+00
 1.5251396885e+00	 2.8492636830e-01	 2.0412500637e+00
 1.5202051933e+00	 3.2041931147e-01	 1.9677873248e+00
 1.5146133816e+00	 3.5581023622e-01	 1.8834771393e+00
 1.5571432616e+00	 0.0000000000e+00	 2.3050685453e+00
 1.5568844984e+00	 3.5843565261e-02	 2.2973423802e+00
 1.5560961760e+00	 7.1756513559e-02	 2.2832803093e+00
 1.5547603847e+00	 1.0771958197e-01	 2.2622665893e+00
 1.5528594416e+00	 1.4371280449e-01	 2.2336890734e+00
 1.5503759447e+00	 1.7971553327e-01	 2.1969442786e+00
 1.5472928268e+00	 2.1570646343e-01	 2.1514429001e+00
 1.5435934120e+00	 2.5166366157e-01	 2.0966157561e+00
 1.5392614727e+00	 2.8756459792e-01	 2.0319201334e+00
 1.5342812874e+00	 3.2338618225e-01	 1.9568464973e+00
 1.5286376992e+00	 3.5910480354e-01	 1.8709255164e+00
 1.5714291270e+00	 0.0000000000e+00	 2.3006046942e+00
 1.5711679898e+00	 3.6172408703e-02	 2.2930840958e+00
 1.5703724351e+00	 7.2414836991e-02	 2.2788607937e+00
 1.5690243886e+00	 1.0870784521e-01	 2.2573592029e+00
 1.5671060055e+00	 1.4503128419e-01	 2.2280095527e+00
 1.5645997240e+00	 1.8136431664e-01	 2.1902528379e+00
 1.5614883203e+00	 2.1768544223e-01	 2.1435461877e+00
 1.5577549656e+00	 2.5397252632e-01	 2.0873686294e+00
 1.5533832833e+00	 2.9020283246e-01	 2.0212272199e+00
 1.5483574077e+00	 3.2635305857e-01	 1.9446635054e+00
 1.5426620430e+00	 3.6239937702e-01	 1.8572602609e+00
 1.4024189979e+00	 3.2945373451e-01	 1.9590654659e+00
 1.3966198660e+00	 3.6210425476e-01	 1.8828550241e+00
 1.3901861566e+00	 3.9461577856e-01	 1.7983698967e+00
 1.3831058433e+00	 4.2696550748e-01	 1.7056593852e+00
 1.3753676313e+00	 4.5913034595e-01	 1.6048006260e+00
 1.3669610093e+00	 4.9108695369e-01	 1.4959001234e+00
 1.3578762997e+00	 5.2281180090e-01	 1.3790951458e+00
 1.3481047076e+00	 5.5428122614e-01	 1.2545549560e+00
 1.3376383674e+00	 5.8547149649e-01	 1.1224818439e+00
 1.3264703878e+00	 6.1635887003e-01	 9.8311193157e-01
 1.3145948931e+00	 6.4691966002e-01	 8.3671571991e-01
 1.4164433417e+00	 3.3274830799e-01	 1.9507370786e+00
 1.4105862179e+00	 3.6572533701e-01	 1.8716664230e+00
 1.4040881706e+00	 3.9856197962e-01	 1.7841450807e+00
 1.3969370534e+00	 4.3123520937e-01	 1.6882873729e+00
 1.3891214585e+00	 4.6372169976e-01	 1.5842365329e+00
 1.3806307694e+00	 4.9599787708e-01	 1.4721657635e+00
 1.3714552116e+00	 5.2803997625e-01	 1.3522791162e+00
 1.3615859025e+00	 5.5982409918e-01	 1.2248121672e+00
 1.3510148978e+00	 5.9132627566e-01	 1.0900324623e+00
 1.3397352371e+00	 6.2252252632e-01	 9.4823970766e-01
 1.3277409862e+00	 6.5338892756e-01	 7.9976568282e-01
 1.4304676593e+00	 3.3604287531e-01	 1.9423848437e+00
 1.4245525436e+00	 3.6934641251e-01	 1.8606152907e+00
 1.4179901587e+00	 4.0250817332e-01	 1.7702282179e+00
 1.4107682377e+00	 4.3550490330e-01	 1.6713998708e+00
 1.4028752600e+00	 4.6831304500e-01	 1.5643364217e+00
 1.3943005038e+00	 5.0090879130e-01	 1.4492745713e+00
 1.3850340982e+00	 5.3326814183e-01	 1.3264819324e+00
 1.3750670722e+00	 5.6536696188e-01	 1.1962571740e+00
 1.3643914032e+00	 5.9718104391e-01	 1.0589299041e+00
 1.3530000617e+00	 6.2868617111e-01	 9.1486027142e-01
 1.3408870548e+00	 6.5985818304e-01	 7.6443827084e-01
 1.4444919573e+00	 3.3933743803e-01	 1.9338534641e+00
 1.4385188498e+00	 3.7296748294e-01	 1.8495429901e+00
 1.4318921273e+00	 4.0645436149e-01	 1.7564574531e+00
 1.4245994026e+00	 4.3977459125e-01	 1.6548320140e+00
 1.4166290422e+00	 4.7290438381e-01	 1.5449327144e+00
 1.4079702192e+00	 5.0581969865e-01	 1.4270566410e+00
 1.3986129658e+00	 5.3849630010e-01	 1.3015318355e+00
 1.3885482231e+00	 5.7090981683e-01	 1.1687169292e+00
 1.3777678898e+00	 6.0303580395e-01	 1.0290004866e+00
 1.3662648677e+00	 6.3484980727e-01	 8.8280004455e-01
 1.3540331050e+00	 6.6632742945e-01	 7.3056083617e-01
 1.4585162421e+00	 3.4263199766e-01	 1.9249936231e+00
 1.4524851430e+00	 3.7658854999e-01	 1.8382969927e+00
 1.4457940829e+00	 4.1040054597e-01	 1.7426771632e+00
 1.4384305547e+00	 4.4404427522e-01	 1.6384252854e+00
 1.4303828116e+00	 4.7749571833e-01	 1.5258642846e+00
 1.4216399218e+00	 5.1073060142e-01	 1.4053486079e+00
 1.4121918206e+00	 5.4372445348e-01	 1.2772636792e+00
 1.4020293614e+00	 5.7645266659e-01	 1.1420250468e+00
 1.3911443640e+00	 6.0889055853e-01	 1.0000772123e+00
 1.3795296614e+00	 6.4101343768e-01	 8.5189213000e-01
 1.3671791429e+00	 6.7279666983e-01	 6.9796737609e-01
 1.4725405205e+00	 3.4592655576e-01	 1.9156617000e+00
 1.4664514296e+00	 3.8020961535e-01	 1.8267305881e+00
 1.4596960321e+00	 4.1434672862e-01	 1.7287376610e+00
 1.4522617002e+00	 4.4831395719e-01	 1.6220272135e+00
 1.4441365745e+00	 4.8208705072e-01	 1.5069761511e+00
 1.4353096180e+00	 5.1564150190e-01	 1.3839933372e+00
 1.4257706692e+00	 5.4895260443e-01	 1.2535186141e+00
 1.4155104934e+00	 5.8199551378e-01	 1.1160214853e+00
 1.4045208320e+00	 6.1474531039e-01	 9.7199945103e-01
 1.3927944488e+00	 6.4717706521e-01	 8.2197599384e-01
 1.3803251746e+00	 6.7926590718e-01	 6.6649821661e-01
 1.4865647988e+00	 3.4922111386e-01	 1.9057195018e+00
 1.4804177163e+00	 3.8383068071e-01	 1.8147026098e+00
 1.4735979812e+00	 4.1829291127e-01	 1.7144949152e+00
 1.4660928458e+00	 4.5258363917e-01	 1.6054910878e+00
 1.4578903375e+00	 4.8667838310e-01	 1.4881191877e+00
 1.4489793142e+00	 5.2055240237e-01	 1.3628396301e+00
 1.4393495177e+00	 5.5418075538e-01	 1.2301437918e+00
 1.4289916254e+00	 5.8753836096e-01	 1.0905522483e+00
 1.4178972999e+00	 6.2060006224e-01	 9.4461263982e-01
 1.4060592363e+00	 6.5334069275e-01	 7.9289716522e-01
 1.3934712064e+00	 6.8573514454e-01	 6.3599971399e-01
 1.5005890837e+00	 3.5251567350e-01	 1.8950340095e+00
 1.4943840094e+00	 3.8745174776e-01	 1.8020771767e+00
 1.4874999369e+00	 4.2223909575e-01	 1.6998102865e+00
 1.4799239978e+00	 4.5685332313e-01	 1.5886756895e+00
 1.4716441069e+00	 4.9126971763e-01	 1.4691498500e+00
 1.4626490168e+00	 5.2546330514e-01	 1.3417419470e+00
 1.4529283726e+00	 5.5940890876e-01	 1.2069920839e+00
 1.4424727637e+00	 5.9308121073e-01	 1.0654691024e+00
 1.4312737741e+00	 6.2645481682e-01	 9.1776799927e-01
 1.4193240299e+00	 6.5950432315e-01	 7.6450695313e-01
 1.4066172442e+00	 6.9220438492e-01	 6.0632397302e-01
 1.5146133816e+00	 3.5581023622e-01	 1.8834771393e+00
 1.5083503156e+00	 3.9107281819e-01	 1.7887234481e+00
 1.5014019055e+00	 4.2618528392e-01	 1.6845502781e+00
 1.4937551627e+00	 4.6112301108e-01	 1.5714450374e+00
 1.4853978891e+00	 4.9586105644e-01	 1.4499299174e+00
 1.4763187321e+00	 5.3037421249e-01	 1.3205601453e+00
 1.4665072402e+00	 5.6463706703e-01	 1.1839218178e+00
 1.4559539146e+00	 5.9862406567e-01	 1.0406293100e+00
 1.4446502608e+00	 6.3230957687e-01	 8.9132226602e-01
 1.4325888359e+00	 6.6566795931e-01	 7.3666217890e-01
 1.4197632944e+00	 6.9867363133e-01	 5.7732858093e-01
 1.5286376992e+00	 3.5910480354e-01	 1.8709255164e+00
 1.5223166414e+00	 3.9469389369e-01	 1.7745153933e+00
 1.5153038936e+00	 4.3013147762e-01	 1.6685863003e+00
 1.5075863470e+00	 4.6539270501e-01	 1.5536681486e+00
 1.4991516905e+00	 5.0045240168e-01	 1.4303262487e+00
 1.4899884666e+00	 5.3528512672e-01	 1.2991592323e+00
 1.4800861267e+00	 5.6986523261e-01	 1.1607965263e+00
 1.4694350844e+00	 6.0416692837e-01	 1.0158953783e+00
 1.4580267662e+00	 6.3816434511e-01	 8.6513743981e-01
 1.4458536605e+00	 6.7183160410e-01	 7.0922492344e-01
 1.4329093630e+00	 7.0514288680e-01	 5.4887635604e-01
 1.5426620430e+00	 3.6239937702e-01	 1.8572602609e+00
 1.5362829932e+00	 3.9831497595e-01	 1.7593315730e+00
 1.5292059076e+00	 4.3407767868e-01	 1.6517944476e+00
 1.5214175572e+00	 4.6966240691e-01	 1.5352188107e+00
 1.5129055177e+00	 5.0504375549e-01	 1.4102105518e+00
 1.5036582266e+00	 5.4019605011e-01	 1.2774091310e+00
 1.4936650386e+00	 5.7509340796e-01	 1.1374847115e+00
 1.4829162793e+00	 6.0970980142e-01	 9.9113482006e-01
 1.4714032966e+00	 6.4401912428e-01	 8.3908054447e-01
 1.4591185099e+00	 6.7799526040e-01	 6.8206228835e-01
 1.4460554561e+00	 7.1161215435e-01	 5.2083511004e-01
 1.3145948931e+00	 6.4691966002e-01	 8.3671571991e-01
 1.3020061577e+00	 6.7713240141e-01	 6.8378933434e-01
 1.2887012636e+00	 7.0697155361e-01	 5.2569520492e-01
 1.2746776104e+00	 7.3641398169e-01	 3.6400036082e-01
 1.2599337483e+00	 7.6543687513e-01	 2.0026538302e-01
 1.2444694021e+00	 7.9401781647e-01	 3.6031743883e-02
 1.2282854906e+00	 8.2213484966e-01	-1.2719110945e-01
 1.2113841413e+00	 8.4976654770e-01	-2.8793874985e-01
 1.1937687006e+00	 8.7689207929e-01	-4.4480465546e-01
 1.1754437391e+00	 9.0349127393e-01	-5.9645279098e-01
 1.1564150511e+00	 9.2954468510e-01	-7.4162968846e-01
 1.3277409862e+00	 6.5338892756e-01	 7.9976568282e-01
 1.3150263621e+00	 6.8390379968e-01	 6.4506823485e-01
 1.3015884176e+00	 7.1404134668e-01	 4.8542986583e-01
 1.2874245263e+00	 7.4377820227e-01	 3.2241272661e-01
 1.2725332240e+00	 7.7309132782e-01	 1.5757091757e-01
 1.2569142326e+00	 8.0195808171e-01	-7.5622135128e-03
 1.2405684802e+00	 8.3035628831e-01	-1.7148701330e-01
 1.2234981155e+00	 8.5826430637e-01	-3.3275052541e-01
 1.2057065185e+00	 8.8566109625e-01	-4.8995936473e-01
 1.1871983054e+00	 9.1252628575e-01	-6.4179226827e-01
 1.1679793284e+00	 9.3884023389e-01	-7.8701212567e-01
 1.3408870548e+00	 6.5985818304e-01	 7.6443827084e-01
 1.3280465422e+00	 6.9067518532e-01	 6.0808749347e-01
 1.3144755475e+00	 7.2111112655e-01	 4.4701521801e-01
 1.3001714184e+00	 7.5114240910e-01	 2.8277684691e-01
 1.2851326761e+00	 7.8074576623e-01	 1.1691823605e-01
 1.2693590399e+00	 8.0989833214e-01	-4.9037029126e-02
 1.2528514469e+00	 8.3857771163e-01	-2.1360058170e-01
 1.2356120672e+00	 8.6676204917e-01	-3.7533226537e-01
 1.2176443142e+00	 8.9443009684e-01	-5.3285298088e-01
 1.1989528497e+00	 9.2156128071e-01	-6.8485719117e-01
 1.1795435842e+00	 9.4813576533e-01	-8.3012488817e-01
 1.3540331050e+00	 6.6632742945e-01	 7.3056083617e-01
 1.3410667040e+00	 6.9744656147e-01	 5.7267606807e-01
 1.3273626594e+00	 7.2818089653e-01	 4.1028232924e-01
 1.3129182927e+00	 7.5850660562e-01	 2.4492645517e-01
 1.2977321106e+00	 7.8840019392e-01	 7.8144343030e-02
 1.2818038298e+00	 8.1783857144e-01	-8.8551774807e-02
 1.2651343964e+00	 8.4679912343e-01	-2.5368626631e-01
 1.2477260019e+00	 8.7525978008e-01	-4.1583306372e-01
 1.2295820931e+00	 9.0319908516e-01	-5.7362846559e-01
 1.2107073776e+00	 9.3059626302e-01	-7.2578358131e-01
 1.1911078237e+00	 9.5743128376e-01	-8.7109622091e-01
 1.3671791429e+00	 6.7279666983e-01	 6.9796737609e-01
 1.3540868537e+00	 7.0421793131e-01	 5.3866949956e-01
 1.3402497592e+00	 7.3525065990e-01	 3.7506876879e-01
 1.3256651550e+00	 7.6587079527e-01	 2.0870168351e-01
 1.3103315334e+00	 7.9605461447e-01	 4.1092515579e-02
 1.2942486080e+00	 8.2577880334e-01	-1.2625940114e-01
 1.2774173344e+00	 8.5502052756e-01	-2.9189257553e-01
 1.2598399253e+00	 8.8375750306e-01	-4.5439627755e-01
 1.2415198609e+00	 9.1196806529e-01	-6.1242327983e-01
 1.2224618946e+00	 9.3963123689e-01	-7.6470222677e-01
 1.2026720525e+00	 9.6672679351e-01	-9.1004943469e-01
 1.3803251746e+00	 6.7926590718e-01	 6.6649821661e-01
 1.3671069973e+00	 7.1098929798e-01	 5.0590959842e-01
 1.3531368530e+00	 7.4232041998e-01	 3.4121829788e-01
 1.3384120114e+00	 7.7323498148e-01	 1.7394875797e-01
 1.3229309502e+00	 8.0370903144e-01	 5.6120045318e-03
 1.3066933804e+00	 8.3371903152e-01	-1.6230702900e-01
 1.2897002667e+00	 8.6324192785e-01	-3.2836235761e-01
 1.2719538430e+00	 8.9225522208e-01	-4.9115980041e-01
 1.2534576231e+00	 9.2073704133e-01	-6.4936964590e-01
 1.2342164060e+00	 9.4866620655e-01	-8.0173893148e-01
 1.2142362759e+00	 9.7602229893e-01	-9.4710314123e-01
 1.3934712064e+00	 6.8573514454e-01	 6.3599971399e-01
 1.3801271409e+00	 7.1776066465e-01	 4.7424414897e-01
 1.3660239469e+00	 7.4939018006e-01	 3.0858057757e-01
 1.3511588678e+00	 7.8059916769e-01	 1.4051971107e-01
 1.3355303671e+00	 8.1136344842e-01	-2.8442247329e-02
 1.3191381528e+00	 8.4165925971e-01	-1.9683622461e-01
 1.3019831990e+00	 8.7146332814e-01	-3.6323306773e-01
 1.2840677607e+00	 9.0075294109e-01	-5.2625632003e-01
 1.2653953853e+00	 9.2950601737e-01	-6.8459479467e-01
 1.2459709175e+00	 9.5770117621e-01	-8.3701475041e-01
 1.2258004992e+00	 9.8531780434e-01	-9.8237147497e-01
 1.4066172442e+00	 6.9220438492e-01	 6.0632397302e-01
 1.3931472906e+00	 7.2453203449e-01	 4.4352663026e-01
 1.3789110467e+00	 7.5645994343e-01	 2.7701089311e-01
 1.3639057302e+00	 7.8796335734e-01	 1.0827211043e-01
 1.3481297898e+00	 8.1901786897e-01	-6.1209871281e-02
 1.3315829311e+00	 8.4959949161e-01	-2.2998325912e-01
 1.3142661370e+00	 8.7968473227e-01	-3.9663702006e-01
 1.2961816841e+00	 9.0925066407e-01	-5.5981356174e-01
 1.2773331531e+00	 9.3827499750e-01	-7.1822119885e-01
 1.2577254344e+00	 9.6673615009e-01	-8.7064621158e-01
 1.2373647280e+00	 9.9461331409e-01	-1.0159643024e+00
 1.4197632944e+00	 6.9867363133e-01	 5.7732858093e-01
 1.4061674524e+00	 7.3130341064e-01	 4.1361595251e-01
 1.3917981586e+00	 7.6352971341e-01	 2.4636989358e-01
 1.3766526045e+00	 7.9532755386e-01	 7.7068802576e-02
 1.3607292243e+00	 8.2667229666e-01	-9.2825323866e-02
 1.3440277209e+00	 8.5753973091e-01	-2.6187935380e-01
 1.3265490865e+00	 8.8790614407e-01	-4.2870162583e-01
 1.3082956188e+00	 9.1774839498e-01	-5.9195451823e-01
 1.2892709321e+00	 9.4704398581e-01	-7.5036679345e-01
 1.2694799623e+00	 9.7577113240e-01	-9.0274552577e-01
 1.2489289676e+00	 1.0039088325e+00	-1.0479874198e+00
 1.4329093630e+00	 7.0514288680e-01	 5.4887635604e-01
 1.4191876325e+00	 7.3807479628e-01	 3.8437620799e-01
 1.4046852885e+00	 7.7059949328e-01	 2.1652334589e-01
 1.3893994966e+00	 8.0269176069e-01	 4.6777670792e-02
 1.3733286765e+00	 8.3432673506e-01	-1.2341812427e-01
 1.3564725282e+00	 8.6547998133e-01	-2.9265091171e-01
 1.3388320532e+00	 8.9612756738e-01	-4.5954961825e-01
 1.3204095705e+00	 9.2624613779e-01	-6.2279766668e-01
 1.3012087277e+00	 9.5581298640e-01	-7.8114518391e-01
 1.2812345066e+00	 9.8480612736e-01	-9.3342078460e-01
 1.2604932233e+00	 1.0132043640e+00	-1.0785427398e+00
 1.4460554561e+00	 7.1161215435e-01	 5.2083511004e-01
 1.4322078368e+00	 7.4484619455e-01	 3.5567643560e-01
 1.4175724424e+00	 7.7766928634e-01	 1.8734190220e-01
 1.4021464125e+00	 8.1005598127e-01	 1.7271406197e-02
 1.3859281521e+00	 8.4198118776e-01	-1.5311307873e-01
 1.3689173587e+00	 8.7342024658e-01	-3.2241973669e-01
 1.3511150428e+00	 9.0434900604e-01	-4.8929926519e-01
 1.3325235447e+00	 9.3474389645e-01	-6.5245717412e-01
 1.3131465456e+00	 9.6458200336e-01	-8.1066584302e-01
 1.2929890729e+00	 9.9384113918e-01	-9.6277614784e-01
 1.2720575006e+00	 1.0224999127e+00	-1.1077284685e+00
 1.1564150511e+00	 9.2954468510e-01	-7.4162968846e-01
 1.1366896471e+00	 9.5503365348e-01	-8.8147721360e-01
 1.1162757344e+00	 9.7994037180e-01	-1.0170879530e+00
 1.0951827104e+00	 1.0042479334e+00	-1.1472389653e+00
 1.0734211456e+00	 1.0279403815e+00	-1.2707625491e+00
 1.0510027578e+00	 1.0510027578e+00	-1.3865554867e+00
 1.0279403815e+00	 1.0734211456e+00	-1.4935876080e+00
 1.0042479334e+00	 1.0951827104e+00	-1.5909095461e+00
 9.7994037180e-01	 1.1162757344e+00	-1.6776595686e+00
 9.5503365348e-01	 1.1366896471e+00	-1.7530693878e+00
 9.2954468510e-01	 1.1564150511e+00	-1.8164688705e+00
 1.1679793284e+00	 9.3884023389e-01	-7.8701212567e-01
 1.1480566683e+00	 9.6458409475e-01	-9.2668140922e-01
 1.1274386141e+00	 9.8973988299e-01	-1.0618316432e+00
 1.1061346576e+00	 1.0142905228e+00	-1.1912864233e+00
 1.0841554748e+00	 1.0382198981e+00	-1.3139263573e+00
 1.0615129006e+00	 1.0615129006e+00	-1.4286979456e+00
 1.0382198981e+00	 1.0841554748e+00	-1.5346217652e+00
 1.0142905228e+00	 1.1061346576e+00	-1.6307998299e+00
 9.8973988299e-01	 1.1274386141e+00	-1.7164220198e+00
 9.6458409475e-01	 1.1480566683e+00	-1.7907714865e+00
 9.3884023389e-01	 1.1679793284e+00	-1.8532289629e+00
 1.1795435842e+00	 9.4813576533e-01	-8.3012488817e-01
 1.1594236682e+00	 9.7413451819e-01	-9.6964051912e-01
 1.1386014731e+00	 9.9953937588e-01	-1.1043745364e+00
 1.1170865844e+00	 1.0243330936e+00	-1.2331954827e+00
 1.0948897839e+00	 1.0484993955e+00	-1.3550305536e+00
 1.0720230238e+00	 1.0720230238e+00	-1.4688741299e+00
 1.0484993955e+00	 1.0948897839e+00	-1.5737955935e+00
 1.0243330936e+00	 1.1170865844e+00	-1.6689463096e+00
 9.9953937588e-01	 1.1386014731e+00	-1.7535656690e+00
 9.7413451819e-01	 1.1594236682e+00	-1.8269861070e+00
 9.4813576533e-01	 1.1795435842e+00	-1.8886370299e+00
 1.1911078237e+00	 9.5743128376e-01	-8.7109622091e-01
 1.1707906522e+00	 9.8368492827e-01	-1.0104743367e+00
 1.1497643164e+00	 1.0093388551e+00	-1.1448275014e+00
 1.1280384958e+00	 1.0343756502e+00	-1.2730676510e+00
 1.1056240781e+00	 1.0587788784e+00	-1.3941668878e+00
 1.0825331324e+00	 1.0825331324e+00	-1.5071656758e+00
 1.0587788784e+00	 1.1056240781e+00	-1.6111803039e+00
 1.0343756502e+00	 1.1280384958e+00	-1.7054095036e+00
 1.0093388551e+00	 1.1497643164e+00	-1.7891401217e+00
 9.8368492827e-01	 1.1707906522e+00	-1.8617517685e+00
 9.5743128376e-01	 1.1911078237e+00	-1.9227203786e+00
 1.2026720525e+00	 9.6672679351e-01	-9.1004943469e-01
 1.1821576256e+00	 9.9323532943e-01	-1.0492980463e+00
 1.1609271492e+00	 1.0191383251e+00	-1.1832971414e+00
 1.1389903970e+00	 1.0444181975e+00	-1.3110005308e+00
 1.1163583621e+00	 1.0690583518e+00	-1.4314235798e+00
 1.0930432310e+00	 1.0930432310e+00	-1.5436510791e+00
 1.0690583518e+00	 1.1163583621e+00	-1.6468443678e+00
 1.0444181975e+00	 1.1389903970e+00	-1.7402476024e+00
 1.0191383251e+00	 1.1609271492e+00	-1.8231930753e+00
 9.9323532943e-01	 1.1821576256e+00	-1.8951055082e+00
 9.6672679351e-01	 1.2026720525e+00	-1.9555052653e+00
 1.2142362759e+00	 9.7602229893e-01	-9.4710314123e-01
 1.1935245936e+00	 1.0027857261e+00	-1.0862224434e+00
 1.1720899769e+00	 1.0289377905e+00	-1.2198859975e+00
 1.1499422931e+00	 1.0544607401e+00	-1.3470880054e+00
 1.1270926412e+00	 1.0793378204e+00	-1.4668854883e+00
 1.1035533248e+00	 1.1035533248e+00	-1.5784058446e+00
 1.0793378204e+00	 1.1270926412e+00	-1.6808536477e+00
 1.0544607401e+00	 1.1499422931e+00	-1.7735165794e+00
 1.0289377905e+00	 1.1720899769e+00	-1.8557704097e+00
 1.0027857261e+00	 1.1935245936e+00	-1.9270829524e+00
 9.7602229893e-01	 1.2142362759e+00	-1.9870169465e+00
 1.2258004992e+00	 9.8531780434e-01	-9.8237147497e-01
 1.2048915617e+00	 1.0123361228e+00	-1.1213541409e+00
 1.1832528046e+00	 1.0387372560e+00	-1.2546927405e+00
 1.1608941892e+00	 1.0645032827e+00	-1.3814204149e+00
 1.1378269203e+00	 1.0896172890e+00	-1.5006342690e+00
 1.1140634186e+00	 1.1140634186e+00	-1.6115026276e+00
 1.0896172890e+00	 1.1378269203e+00	-1.7132715207e+00
 1.0645032827e+00	 1.1608941892e+00	-1.8052702957e+00
 1.0387372560e+00	 1.1832528046e+00	-1.8869162737e+00
 1.0123361228e+00	 1.2048915617e+00	-1.9577183832e+00
 9.8531780434e-01	 1.2258004992e+00	-2.0172797257e+00
 1.2373647280e+00	 9.9461331409e-01	-1.0159643024e+00
 1.2162585351e+00	 1.0218865240e+00	-1.1547957657e+00
 1.1944156375e+00	 1.0485367260e+00	-1.2878123517e+00
 1.1718460905e+00	 1.0745458300e+00	-1.4140847215e+00
 1.1485612044e+00	 1.0998967623e+00	-1.5327485248e+00
 1.1245735173e+00	 1.1245735173e+00	-1.6430113672e+00
 1.0998967623e+00	 1.1485612044e+00	-1.7441589945e+00
 1.0745458300e+00	 1.1718460905e+00	-1.8355605989e+00
 1.0485367260e+00	 1.1944156375e+00	-1.9166731658e+00
 1.0218865240e+00	 1.2162585351e+00	-1.9870448014e+00
 9.9461331409e-01	 1.2373647280e+00	-2.0463169979e+00
 1.2489289676e+00	 1.0039088325e+00	-1.0479874198e+00
 1.2276255191e+00	 1.0314369341e+00	-1.1866461424e+00
 1.2055784808e+00	 1.0583362052e+00	-1.3193362941e+00
 1.1827980019e+00	 1.0845883867e+00	-1.4451646662e+00
 1.1592954985e+00	 1.1101762453e+00	-1.5633039472e+00
 1.1350836258e+00	 1.1350836258e+00	-1.6729994117e+00
 1.1101762453e+00	 1.1592954985e+00	-1.7735748173e+00
 1.0845883867e+00	 1.1827980019e+00	-1.8644374166e+00
 1.0583362052e+00	 1.2055784808e+00	-1.9450820108e+00
 1.0314369341e+00	 1.2276255191e+00	-2.0150939856e+00
 1.0039088325e+00	 1.2489289676e+00	-2.0741512924e+00
 1.2604932233e+00	 1.0132043640e+00	-1.0785427398e+00
 1.2389925190e+00	 1.0409873575e+00	-1.2170004684e+00
 1.2167413397e+00	 1.0681356981e+00	-1.3493526734e+00
 1.1937499287e+00	 1.0946309574e+00	-1.4747409164e+00
 1.1700298077e+00	 1.1204557426e+00	-1.5923734498e+00
 1.1455937491e+00	 1.1455937491e+00	-1.7015316384e+00
 1.1204557426e+00	 1.1700298077e+00	-1.8015755814e+00
 1.0946309574e+00	 1.1937499287e+00	-1.8919488442e+00
 1.0681356981e+00	 1.2167413397e+00	-1.9721822318e+00
 1.0409873575e+00	 1.2389925190e+00	-2.0418965488e+00
 1.0132043640e+00	 1.2604932233e+00	-2.1008043119e+00
 1.2720575006e+00	 1.0224999127e+00	-1.1077284685e+00
 1.2503595401e+00	 1.0505377988e+00	-1.2459504788e+00
 1.2279042194e+00	 1.0779352093e+00	-1.3779463915e+00
 1.2047018759e+00	 1.1046735469e+00	-1.5028912063e+00
 1.1807641368e+00	 1.1307352592e+00	-1.6200272947e+00
 1.1561038919e+00	 1.1561038919e+00	-1.7286705652e+00
 1.1307352592e+00	 1.1807641368e+00	-1.8282158217e+00
 1.1046735469e+00	 1.2047018759e+00	-1.9181412287e+00
 1.0779352093e+00	 1.2279042194e+00	-1.9980118190e+00
 1.0505377988e+00	 1.2503595401e+00	-2.0674819915e+00
 1.0224999127e+00	 1.2720575006e+00	-2.1262969708e+00
 9.2954468510e-01	 1.1564150511e+00	-1.8164688705e+00
 9.0349127393e-01	 1.1754437391e+00	-1.8710534439e+00
 8.7689207929e-01	 1.1937687006e+00	-1.9203546666e+00
 8.4976654770e-01	 1.2113841413e+00	-1.9642539650e+00
 8.2213484966e-01	 1.2282854906e+00	-2.0025959241e+00
 7.9401781647e-01	 1.2444694021e+00	-2.0351901454e+00
 7.6543687513e-01	 1.2599337483e+00	-2.0618135468e+00
 7.3641398169e-01	 1.2746776104e+00	-2.0822130541e+00
 7.0697155361e-01	 1.2887012636e+00	-2.0961086293e+00
 6.7713240141e-01	 1.3020061577e+00	-2.1031965738e+00
 6.4691966002e-01	 1.3145948931e+00	-2.1031530448e+00
 9.3884023389e-01	 1.1679793284e+00	-1.8532289629e+00
 9.1252628575e-01	 1.1871983054e+00	-1.9068094945e+00
 8.8566109625e-01	 1.2057065185e+00	-1.9548428084e+00
 8.5826430637e-01	 1.2234981155e+00	-1.9972307164e+00
 8.3035628831e-01	 1.2405684802e+00	-2.0338411504e+00
 8.0195808171e-01	 1.2569142326e+00	-2.0645097627e+00
 7.7309132782e-01	 1.2725332240e+00	-2.0890419447e+00
 7.4377820227e-01	 1.2874245263e+00	-2.1072152174e+00
 7.1404134668e-01	 1.3015884176e+00	-2.1187819420e+00
 6.8390379968e-01	 1.3150263621e+00	-2.1234722972e+00
 6.5338892756e-01	 1.3277409862e+00	-2.1209974629e+00
 9.4813576533e-01	 1.1795435842e+00	-1.8886370299e+00
 9.2156128071e-01	 1.1989528497e+00	-1.9413588259e+00
 8.9443009684e-01	 1.2176443142e+00	-1.9882860524e+00
 8.6676204917e-01	 1.2356120672e+00	-2.0293400704e+00
 8.3857771163e-01	 1.2528514469e+00	-2.0644112835e+00
 8.0989833214e-01	 1.2693590399e+00	-2.0933604896e+00
 7.8074576623e-01	 1.2851326761e+00	-2.1160206262e+00
 7.5114240910e-01	 1.3001714184e+00	-2.1321988666e+00
 7.2111112655e-01	 1.3144755475e+00	-2.1416790221e+00
 6.9067518532e-01	 1.3280465422e+00	-2.1442241990e+00
 6.5985818304e-01	 1.3408870548e+00	-2.1395796584e+00
 9.5743128376e-01	 1.1911078237e+00	-1.9227203786e+00
 9.3059626302e-01	 1.2107073776e+00	-1.9747173393e+00
 9.0319908516e-01	 1.2295820931e+00	-2.0206886044e+00
 8.7525978008e-01	 1.2477260019e+00	-2.0605742540e+00
 8.4679912343e-01	 1.2651343964e+00	-2.0942862965e+00
 8.1783857144e-01	 1.2818038298e+00	-2.1217097798e+00
 7.8840019392e-01	 1.2977321106e+00	-2.1427042699e+00
 7.5850660562e-01	 1.3129182927e+00	-2.1571056615e+00
 7.2818089653e-01	 1.3273626594e+00	-2.1647282787e+00
 6.9744656147e-01	 1.3410667040e+00	-2.1653672194e+00
 6.6632742945e-01	 1.3540331050e+00	-2.1588008976e+00
 9.6672679351e-01	 1.2026720525e+00	-1.9555052653e+00
 9.3963123689e-01	 1.2224618946e+00	-2.0069003243e+00
 9.1196806529e-01	 1.2415198609e+00	-2.0520545084e+00
 8.8375750306e-01	 1.2598399253e+00	-2.0909257933e+00
 8.5502052756e-01	 1.2774173344e+00	-2.1234469333e+00
 8.2577880334e-01	 1.2942486080e+00	-2.1495263390e+00
 7.9605461447e-01	 1.3103315334e+00	-2.1690492979e+00
 7.6587079527e-01	 1.3256651550e+00	-2.1818795063e+00
 7.3525065990e-01	 1.3402497592e+00	-2.1878608753e+00
 7.0421793131e-01	 1.3540868537e+00	-2.1868195713e+00
 6.7279666983e-01	 1.3671791429e+00	-2.1785662453e+00
 9.7602229893e-01	 1.2142362759e+00	-1.9870169465e+00
 9.4866620655e-01	 1.2342164060e+00	-2.0379224883e+00
 9.2073704133e-01	 1.2534576231e+00	-2.0823876547e+00
 8.9225522208e-01	 1.2719538430e+00	-2.1203874996e+00
 8.6324192785e-01	 1.2897002667e+00	-2.1518746716e+00
 8.3371903152e-01	 1.3066933804e+00	-2.1767800657e+00
 8.0370903144e-01	 1.3229309502e+00	-2.1950137932e+00
 7.7323498148e-01	 1.3384120114e+00	-2.2064664426e+00
 7.4232041998e-01	 1.3531368530e+00	-2.2110105985e+00
 7.1098929798e-01	 1.3671069973e+00	-2.2085025835e+00
 6.7926590718e-01	 1.3803251746e+00	-2.1987843840e+00
 9.8531780434e-01	 1.2258004992e+00	-2.0172797257e+00
 9.5770117621e-01	 1.2459709175e+00	-2.0677979838e+00
 9.2950601737e-01	 1.2653953853e+00	-2.1116917869e+00
 9.0075294109e-01	 1.2840677607e+00	-2.1489524556e+00
 8.7146332814e-01	 1.3019831990e+00	-2.1795516884e+00
 8.4165925971e-01	 1.3191381528e+00	-2.2034419946e+00
 8.1136344842e-01	 1.3355303671e+00	-2.2205574211e+00
 7.8059916769e-01	 1.3511588678e+00	-2.2308145492e+00
 7.4939018006e-01	 1.3660239469e+00	-2.2341137340e+00
 7.1776066465e-01	 1.3801271409e+00	-2.2303405549e+00
 6.8573514454e-01	 1.3934712064e+00	-2.2193674427e+00
 9.9461331409e-01	 1.2373647280e+00	-2.0463169979e+00
 9.6673615009e-01	 1.2577254344e+00	-2.0965404346e+00
 9.3827499750e-01	 1.2773331531e+00	-2.1399705092e+00
 9.0925066407e-01	 1.2961816841e+00	-2.1766140034e+00
 8.7968473227e-01	 1.3142661370e+00	-2.2064608279e+00
 8.4959949161e-01	 1.3315829311e+00	-2.2294842441e+00
 8.1901786897e-01	 1.3481297898e+00	-2.2456413552e+00
 7.8796335734e-01	 1.3639057302e+00	-2.2548738463e+00
 7.5645994343e-01	 1.3789110467e+00	-2.2571089505e+00
 7.2453203449e-01	 1.3931472906e+00	-2.2522606150e+00
 6.9220438492e-01	 1.4066172442e+00	-2.2402308366e+00
 1.0039088325e+00	 1.2489289676e+00	-2.0741512924e+00
 9.7577113240e-01	 1.2694799623e+00	-2.1241629604e+00
 9.4704398581e-01	 1.2892709321e+00	-2.1672272928e+00
 9.1774839498e-01	 1.3082956188e+00	-2.2033657320e+00
 8.8790614407e-01	 1.3265490865e+00	-2.2325855699e+00
 8.5753973091e-01	 1.3440277209e+00	-2.2548799657e+00
 8.2667229666e-01	 1.3607292243e+00	-2.2702282082e+00
 7.9532755386e-01	 1.3766526045e+00	-2.2785962062e+00
 7.6352971341e-01	 1.3917981586e+00	-2.2799371888e+00
 7.3130341064e-01	 1.4061674524e+00	-2.2741925931e+00
 6.9867363133e-01	 1.4197632944e+00	-2.2612931144e+00
 1.0132043640e+00	 1.2604932233e+00	-2.1008043119e+00
 9.8480612736e-01	 1.2812345066e+00	-2.1506782001e+00
 9.5581298640e-01	 1.3012087277e+00	-2.1934654822e+00
 9.2624613779e-01	 1.3204095705e+00	-2.2292014664e+00
 8.9612756738e-01	 1.3388320532e+00	-2.2579100014e+00
 8.6547998133e-01	 1.3564725282e+00	-2.2796032970e+00
 8.3432673506e-01	 1.3733286765e+00	-2.2942819654e+00
 8.0269176069e-01	 1.3893994966e+00	-2.3019352682e+00
 7.7059949328e-01	 1.4046852885e+00	-2.3025415581e+00
 7.3807479628e-01	 1.4191876325e+00	-2.2960688947e+00
 7.0514288680e-01	 1.4329093630e+00	-2.2824758151e+00
 1.0224999127e+00	 1.2720575006e+00	-2.1262969708e+00
 9.9384113918e-01	 1.2929890729e+00	-2.1760983334e+00
 9.6458200336e-01	 1.3131465456e+00	-2.2186883008e+00
 9.3474389645e-01	 1.3325235447e+00	-2.2541152570e+00
 9.0434900604e-01	 1.3511150428e+00	-2.2824187888e+00
 8.7342024658e-01	 1.3689173587e+00	-2.3036293171e+00
 8.4198118776e-01	 1.3859281521e+00	-2.3177679227e+00
 8.1005598127e-01	 1.4021464125e+00	-2.3248463583e+00
 7.7766928634e-01	 1.4175724424e+00	-2.3248672373e+00
 7.4484619455e-01	 1.4322078368e+00	-2.3178243841e+00
 7.1161215435e-01	 1.4460554561e+00	-2.3037033317e+00
 6.4691966002e-01	 1.3145948931e+00	-2.1031530448e+00
 6.1635887003e-01	 1.3264703878e+00	-2.1000325200e+00
 5.8547149649e-01	 1.3376383674e+00	-2.0980982578e+00
 5.5428122614e-01	 1.3481047076e+00	-2.0972798236e+00
 5.2281180090e-01	 1.3578762997e+00	-2.0974466206e+00
 4.9108695369e-01	 1.3669610093e+00	-2.0984124146e+00
 4.5913034595e-01	 1.3753676313e+00	-2.0999402037e+00
 4.2696550748e-01	 1.3831058433e+00	-2.1017473438e+00
 3.9461577856e-01	 1.3901861566e+00	-2.1035108411e+00
 3.6210425476e-01	 1.3966198660e+00	-2.1048727304e+00
 3.2945373451e-01	 1.4024189979e+00	-2.1054454613e+00
 6.5338892756e-01	 1.3277409862e+00	-2.1209974629e+00
 6.2252252632e-01	 1.3397352371e+00	-2.1153983879e+00
 5.9132627566e-01	 1.3510148978e+00	-2.1109081993e+00
 5.5982409918e-01	 1.3615859025e+00	-2.1074664457e+00
 5.2803997625e-01	 1.3714552116e+00	-2.1049507952e+00
 4.9599787708e-01	 1.3806307694e+00	-2.1031816056e+00
 4.6372169976e-01	 1.3891214585e+00	-2.1019268543e+00
 4.3123520937e-01	 1.3969370534e+00	-2.1009073353e+00
 3.9856197962e-01	 1.4040881706e+00	-2.0998020350e+00
 3.6572533701e-01	 1.4105862179e+00	-2.0982536008e+00
 3.3274830799e-01	 1.4164433417e+00	-2.0958738237e+00
 6.5985818304e-01	 1.3408870548e+00	-2.1395796584e+00
 6.2868617111e-01	 1.3530000617e+00	-2.1317656745e+00
 5.9718104391e-01	 1.3643914032e+00	-2.1249785517e+00
 5.6536696188e-01	 1.3750670722e+00	-2.1191676208e+00
 5.3326814183e-01	 1.3850340982e+00	-2.1142187511e+00
 5.0090879130e-01	 1.3943005038e+00	-2.1099589595e+00
 4.6831304500e-01	 1.4028752600e+00	-2.1061613927e+00
 4.3550490330e-01	 1.4107682377e+00	-2.1025505873e+00
 4.0250817332e-01	 1.4179901587e+00	-2.0988079195e+00
 3.6934641251e-01	 1.4245525436e+00	-2.0945771537e+00
 3.3604287531e-01	 1.4304676593e+00	-2.0894700129e+00
 6.6632742945e-01	 1.3540331050e+00	-2.1588008976e+00
 6.3484980727e-01	 1.3662648677e+00	-2.1490221165e+00
 6.0303580395e-01	 1.3777678898e+00	-2.1401839987e+00
 5.7090981683e-01	 1.3885482231e+00	-2.1322454461e+00
 5.3849630010e-01	 1.3986129658e+00	-2.1251004532e+00
 5.0581969865e-01	 1.4079702192e+00	-2.1185827481e+00
 4.7290438381e-01	 1.4166290422e+00	-2.1124708190e+00
 4.3977459125e-01	 1.4245994026e+00	-2.1064932304e+00
 4.0645436149e-01	 1.4318921273e+00	-2.1003341355e+00
 3.7296748294e-01	 1.4385188498e+00	-2.0936388977e+00
 3.3933743803e-01	 1.4444919573e+00	-2.0860197374e+00
 6.7279666983e-01	 1.3671791429e+00	-2.1785662453e+00
 6.4101343768e-01	 1.3795296614e+00	-2.1670597694e+00
 6.0889055853e-01	 1.3911443640e+00	-2.1564040448e+00
 5.7645266659e-01	 1.4020293614e+00	-2.1465673241e+00
 5.4372445348e-01	 1.4121918206e+00	-2.1374516384e+00
 5.1073060142e-01	 1.4216399218e+00	-2.1288974649e+00
 4.7749571833e-01	 1.4303828116e+00	-2.1206887890e+00
 4.4404427522e-01	 1.4384305547e+00	-2.1125584685e+00
 4.1040054597e-01	 1.4457940829e+00	-2.1041938012e+00
 3.7658854999e-01	 1.4524851430e+00	-2.0952422084e+00
 3.4263199766e-01	 1.4585162421e+00	-2.0853169501e+00
 6.7926590718e-01	 1.3803251746e+00	-2.1987843840e+00
 6.4717706521e-01	 1.3927944488e+00	-2.1857748021e+00
 6.1474531039e-01	 1.4045208320e+00	-2.1735227860e+00
 5.8199551378e-01	 1.4155104934e+00	-2.1620057095e+00
 5.4895260443e-01	 1.4257706692e+00	-2.1511335408e+00
 5.1564150190e-01	 1.4353096180e+00	-2.1407535290e+00
 4.8208705072e-01	 1.4441365745e+00	-2.1306552968e+00
 4.4831395719e-01	 1.4522617002e+00	-2.1205762426e+00
 4.1434672862e-01	 1.4596960321e+00	-2.1102071560e+00
 3.8020961535e-01	 1.4664514296e+00	-2.0991979541e+00
 3.4592655576e-01	 1.4725405205e+00	-2.0871634555e+00
 6.8573514454e-01	 1.3934712064e+00	-2.2193674427e+00
 6.5334069275e-01	 1.4060592363e+00	-2.2050673023e+00
 6.2060006224e-01	 1.4178972999e+00	-2.1914286931e+00
 5.8753836096e-01	 1.4289916254e+00	-2.1784378716e+00
 5.5418075538e-01	 1.4393495177e+00	-2.1660126321e+00
 5.2055240237e-01	 1.4489793142e+00	-2.1540070057e+00
 4.8667838310e-01	 1.4578903375e+00	-2.1422163760e+00
 4.5258363917e-01	 1.4660928458e+00	-2.1303829125e+00
 4.1829291127e-01	 1.4735979812e+00	-2.1182012245e+00
 3.8383068071e-01	 1.4804177163e+00	-2.1053241421e+00
 3.4922111386e-01	 1.4865647988e+00	-2.0913685393e+00
 6.9220438492e-01	 1.4066172442e+00	-2.2402308366e+00
 6.5950432315e-01	 1.4193240299e+00	-2.2248410942e+00
 6.2645481682e-01	 1.4312737741e+00	-2.2100144074e+00
 5.9308121073e-01	 1.4424727637e+00	-2.1957456689e+00
 5.5940890876e-01	 1.4529283726e+00	-2.1819603771e+00
 5.2546330514e-01	 1.4626490168e+00	-2.1685193422e+00
 4.9126971763e-01	 1.4716441069e+00	-2.1552238175e+00
 4.5685332313e-01	 1.4799239978e+00	-2.1418209572e+00
 4.2223909575e-01	 1.4874999369e+00	-2.1280094994e+00
 3.8745174776e-01	 1.4943840094e+00	-2.1134455847e+00
 3.5251567350e-01	 1.5005890837e+00	-2.0977486184e+00
 6.9867363133e-01	 1.4197632944e+00	-2.2612931144e+00
 6.6566795931e-01	 1.4325888359e+00	-2.2450035648e+00
 6.3230957687e-01	 1.4446502608e+00	-2.2291765474e+00
 5.9862406567e-01	 1.4559539146e+00	-2.2138153365e+00
 5.6463706703e-01	 1.4665072402e+00	-2.1988530024e+00
 5.3037421249e-01	 1.4763187321e+00	-2.1841571185e+00
 4.9586105644e-01	 1.4853978891e+00	-2.1695349030e+00
 4.6112301108e-01	 1.4937551627e+00	-2.1547386911e+00
 4.2618528392e-01	 1.5014019055e+00	-2.1394716422e+00
 3.9107281819e-01	 1.5083503156e+00	-2.1233935847e+00
 3.5581023622e-01	 1.5146133816e+00	-2.1061269114e+00
 7.0514288680e-01	 1.4329093630e+00	-2.2824758151e+00
 6.7183160410e-01	 1.4458536605e+00	-2.2654655009e+00
 6.3816434511e-01	 1.4580267662e+00	-2.2488155268e+00
 6.0416692837e-01	 1.4694350844e+00	-2.2325372858e+00
 5.6986523261e-01	 1.4800861267e+00	-2.2165712779e+00
 5.3528512672e-01	 1.4899884666e+00	-2.2007918126e+00
 5.0045240168e-01	 1.4991516905e+00	-2.1850121527e+00
 4.6539270501e-01	 1.5075863470e+00	-2.1689899968e+00
 4.3013147762e-01	 1.5153038936e+00	-2.1524331996e+00
 3.9469389369e-01	 1.5223166414e+00	-2.1350056373e+00
 3.5910480354e-01	 1.5286376992e+00	-2.1163331258e+00
 7.1161215435e-01	 1.4460554561e+00	-2.3037033317e+00
 6.7799526040e-01	 1.4591185099e+00	-2.2861409347e+00
 6.4401912428e-01	 1.4714032966e+00	-2.2688353816e+00
 6.0970980142e-01	 1.4829162793e+00	-2.2518059144e+00
 5.7509340796e-01	 1.4936650386e+00	-2.2350003107e+00
 5.4019605011e-01	 1.5036582266e+00	-2.2182995769e+00
 5.0504375549e-01	 1.5129055177e+00	-2.2015230879e+00
 4.6966240691e-01	 1.5214175572e+00	-2.1844340717e+00
 4.3407767868e-01	 1.5292059076e+00	-2.1667453368e+00
 3.9831497595e-01	 1.5362829932e+00	-2.1481251488e+00
 3.6239937702e-01	 1.5426620430e+00	-2.1282031635e+00
 3.2945373451e-01	 1.4024189979e+00	-2.1054454613e+00
 2.9668437844e-01	 1.4075965984e+00	-2.1059994351e+00
 2.6382056091e-01	 1.4121655728e+00	-2.1074483450e+00
 2.3088394342e-01	 1.4161398264e+00	-2.1096256683e+00
 1.9789570964e-01	 1.4195337827e+00	-2.1123965811e+00
 1.6487652907e-01	 1.4223623295e+00	-2.1156557072e+00
 1.3184652410e-01	 1.4246407655e+00	-2.1193247837e+00
 9.8825240452e-02	 1.4263847488e+00	-2.1233502808e+00
 6.5831621110e-02	 1.4276102447e+00	-2.1277010117e+00
 3.2883983494e-02	 1.4283334758e+00	-2.1323657620e+00
 0.0000000000e+00	 1.4285708730e+00	-2.1373509647e+00
 3.3274830799e-01	 1.4164433417e+00	-2.0958738237e+00
 2.9965125476e-01	 1.4216727187e+00	-2.0936149316e+00
 2.6645879545e-01	 1.4262873834e+00	-2.0925730664e+00
 2.3319280818e-01	 1.4303013800e+00	-2.0925767307e+00
 1.9987468844e-01	 1.4337292763e+00	-2.0934815023e+00
 1.6652531245e-01	 1.4365861087e+00	-2.0951682294e+00
 1.3316500380e-01	 1.4388873294e+00	-2.0975411434e+00
 9.9813503695e-02	 1.4406487528e+00	-2.1005259236e+00
 6.6489944541e-02	 1.4418865037e+00	-2.1040677414e+00
 3.3212826935e-02	 1.4426169672e+00	-2.1081293111e+00
 0.0000000000e+00	 1.4428567384e+00	-2.1126889718e+00
 3.3604287531e-01	 1.4304676593e+00	-2.0894700129e+00
 3.0261812554e-01	 1.4357488128e+00	-2.0846099835e+00
 2.6909702507e-01	 1.4404091676e+00	-2.0812647307e+00
 2.3550166862e-01	 1.4444629071e+00	-2.0792581327e+00
 2.0185366355e-01	 1.4479247433e+00	-2.0784367556e+00
 1.6817409274e-01	 1.4508098615e+00	-2.0786684710e+00
 1.3448348104e-01	 1.4531338667e+00	-2.0798409945e+00
 1.0080176509e-01	 1.4549127300e+00	-2.0818603700e+00
 6.7148266744e-02	 1.4561627361e+00	-2.0846494265e+00
 3.3541669763e-02	 1.4569004319e+00	-2.0881462295e+00
 0.0000000000e+00	 1.4571425772e+00	-2.0923025461e+00
 3.3933743803e-01	 1.4444919573e+00	-2.0860197374e+00
 3.0558499217e-01	 1.4498248872e+00	-2.0787614013e+00
 2.7173525100e-01	 1.4545309320e+00	-2.0732927260e+00
 2.3781052584e-01	 1.4586244144e+00	-2.0694332886e+00
 2.0383263588e-01	 1.4621201904e+00	-2.0670211978e+00
 1.6982287073e-01	 1.4650335943e+00	-2.0659121121e+00
 1.3580195643e-01	 1.4673803841e+00	-2.0659781789e+00
 1.0179002511e-01	 1.4691766874e+00	-2.0671069180e+00
 6.7806588024e-02	 1.4704389485e+00	-2.0692000680e+00
 3.3870512131e-02	 1.4711838766e+00	-2.0721724165e+00
 0.0000000000e+00	 1.4714283959e+00	-2.0759506291e+00
 3.4263199766e-01	 1.4585162421e+00	-2.0853169501e+00
 3.0855185603e-01	 1.4639009484e+00	-2.0758545826e+00
 2.7437347446e-01	 1.4686526833e+00	-2.0684353125e+00
 2.4011938089e-01	 1.4727859085e+00	-2.0628747145e+00
 2.0581160637e-01	 1.4763156243e+00	-2.0590029639e+00
 1.7147164718e-01	 1.4792573138e+00	-2.0566642328e+00
 1.3712043060e-01	 1.4816268881e+00	-2.0557160096e+00
 1.0277828420e-01	 1.4834406314e+00	-2.0560283578e+00
 6.8464908691e-02	 1.4847151475e+00	-2.0574831317e+00
 3.4199354191e-02	 1.4854673080e+00	-2.0599731637e+00
 0.0000000000e+00	 1.4857142013e+00	-2.0634014374e+00
 3.4592655576e-01	 1.4725405205e+00	-2.0871634555e+00
 3.1151871851e-01	 1.4779770030e+00	-2.0756831022e+00
 2.7701169669e-01	 1.4827744280e+00	-2.0664792003e+00
 2.4242823487e-01	 1.4869473960e+00	-2.0593635956e+00
 2.0779057594e-01	 1.4905110515e+00	-2.0541590240e+00
 1.7312042286e-01	 1.4934810267e+00	-2.0506988652e+00
 1.3843890414e-01	 1.4958733855e+00	-2.0488268190e+00
 1.0376654283e-01	 1.4977045687e+00	-2.0483965194e+00
 6.9123229050e-02	 1.4989913399e+00	-2.0492710978e+00
 3.4528196098e-02	 1.4997507328e+00	-2.0513227075e+00
 0.0000000000e+00	 1.5000000000e+00	-2.0544320210e+00
 3.4922111386e-01	 1.4865647988e+00	-2.0913685393e+00
 3.1448558098e-01	 1.4920530577e+00	-2.0780483270e+00
 2.7964991892e-01	 1.4968961727e+00	-2.0672191505e+00
 2.4473708885e-01	 1.5011088835e+00	-2.0586893764e+00
 2.0976954550e-01	 1.5047064788e+00	-2.0522747676e+00
 1.7476919854e-01	 1.5077047396e+00	-2.0477985715e+00
 1.3975737769e-01	 1.5101198829e+00	-2.0450915338e+00
 1.0475480146e-01	 1.5119685061e+00	-2.0439918458e+00
 6.9781549409e-02	 1.5132675323e+00	-2.0443450351e+00
 3.4857038006e-02	 1.5140341575e+00	-2.0460038069e+00
 0.0000000000e+00	 1.5142857987e+00	-2.0488278467e+00
 3.5251567350e-01	 1.5005890837e+00	-2.0977486184e+00
 3.1745244484e-01	 1.5061291189e+00	-2.0827590515e+00
 2.8228814238e-01	 1.5110179240e+00	-2.0704575986e+00
 2.4704594391e-01	 1.5152703776e+00	-2.0606493752e+00
 2.1174851599e-01	 1.5189019127e+00	-2.0531436091e+00
 1.7641797498e-01	 1.5219284592e+00	-2.0477540448e+00
 1.4107585186e-01	 1.5243663870e+00	-2.0442992730e+00
 1.0574306056e-01	 1.5262324501e+00	-2.0426029908e+00
 7.0439870076e-02	 1.5275437313e+00	-2.0424941997e+00
 3.5185880066e-02	 1.5283175889e+00	-2.0438073450e+00
 0.0000000000e+00	 1.5285716041e+00	-2.0463824043e+00
 3.5581023622e-01	 1.5146133816e+00	-2.1061269114e+00
 3.2041931147e-01	 1.5202051933e+00	-2.0896311537e+00
 2.8492636830e-01	 1.5251396885e+00	-2.0760042999e+00
 2.4935480113e-01	 1.5294318849e+00	-2.0650484191e+00
 2.1372748832e-01	 1.5330973598e+00	-2.0565666168e+00
 1.7806675297e-01	 1.5361521920e+00	-2.0503637331e+00
 1.4239432725e-01	 1.5386129043e+00	-2.0462469688e+00
 1.0673132057e-01	 1.5404964074e+00	-2.0440264386e+00
 7.1098191357e-02	 1.5418199437e+00	-2.0435156563e+00
 3.5514722434e-02	 1.5426010337e+00	-2.0445319535e+00
 0.0000000000e+00	 1.5428574228e+00	-2.0468968354e+00
 3.5910480354e-01	 1.5286376992e+00	-2.1163331258e+00
 3.2338618225e-01	 1.5342812874e+00	-2.0984872707e+00
 2.8756459792e-01	 1.5392614727e+00	-2.0836759930e+00
 2.5166366157e-01	 1.5435934120e+00	-2.0716985001e+00
 2.1570646343e-01	 1.5472928268e+00	-2.0623521617e+00
 1.7971553327e-01	 1.5503759447e+00	-2.0554334832e+00
 1.4371280449e-01	 1.5528594416e+00	-2.0507390080e+00
 1.0771958197e-01	 1.5547603847e+00	-2.0480661444e+00
 7.1756513559e-02	 1.5560961760e+00	-2.0472139193e+00
 3.5843565261e-02	 1.5568844984e+00	-2.0479836563e+00
 0.0000000000e+00	 1.5571432616e+00	-2.0501795825e+00
 3.6239937702e-01	 1.5426620430e+00	-2.1282031635e+00
 3.2635305857e-01	 1.5483574077e+00	-2.1091564909e+00
 2.9020283246e-01	 1.5533832833e+00	-2.0932960826e+00
 2.5397252632e-01	 1.5577549656e+00	-2.0804184487e+00
 2.1768544223e-01	 1.5614883203e+00	-2.0703155852e+00
 1.8136431664e-01	 1.5645997240e+00	-2.0627762043e+00
 1.4503128419e-01	 1.5671060055e+00	-2.0575868931e+00
 1.0870784521e-01	 1.5690243886e+00	-2.0545331954e+00
 7.2414836991e-02	 1.5703724351e+00	-2.0534006145e+00
 3.6172408703e-02	 1.5711679898e+00	-2.0539755341e+00
 0.0000000000e+00	 1.5714291270e+00	-2.0560460564e+00
 1.5714291270e+00	 0.0000000000e+00	 2.3006046942e+00
 1.5711679898e+00	 3.6172408703e-02	 2.2930840958e+00
 1.5703724351e+00	 7.2414836991e-02	 2.2788607937e+00
 1.5690243886e+00	 1.0870784521e-01	 2.2573592029e+00
 1.5671060055e+00	 1.4503128419e-01	 2.2280095527e+00
 1.5645997240e+00	 1.8136431664e-01	 2.1902528379e+00
 1.5614883203e+00	 2.1768544223e-01	 2.1435461877e+00
 1.5577549656e+00	 2.5397252632e-01	 2.0873686294e+00
 1.5533832833e+00	 2.9020283246e-01	 2.0212272199e+00
 1.5483574077e+00	 3.2635305857e-01	 1.9446635054e+00
 1.5426620430e+00	 3.6239937702e-01	 1.8572602609e+00
 1.5857150240e+00	 0.0000000000e+00	 2.2949050675e+00
 1.5854515129e+00	 3.6501252874e-02	 2.2876335458e+00
 1.5846487257e+00	 7.3073161881e-02	 2.2733007671e+00
 1.5832884241e+00	 1.0969611065e-01	 2.2513708979e+00
 1.5813526010e+00	 1.4634976681e-01	 2.2213161087e+00
 1.5788235348e+00	 1.8301310367e-01	 2.1826214098e+00
 1.5756838453e+00	 2.1966442542e-01	 2.1347898726e+00
 1.5719165505e+00	 2.5628139620e-01	 2.0773482139e+00
 1.5675051252e+00	 2.9284107285e-01	 2.0098527124e+00
 1.5624335593e+00	 3.2931994147e-01	 1.9318954189e+00
 1.5566864179e+00	 3.6569395779e-01	 1.8431106110e+00
 1.6000009511e+00	 0.0000000000e+00	 2.2886988712e+00
 1.5997350659e+00	 3.6830097735e-02	 2.2817329236e+00
 1.5989250463e+00	 7.3731488155e-02	 2.2673503366e+00
 1.5975524896e+00	 1.1068437816e-01	 2.2450547177e+00
 1.5955992264e+00	 1.4766825221e-01	 2.2143598706e+00
 1.5930473755e+00	 1.8466189416e-01	 2.1747945184e+00
 1.5898794000e+00	 2.2164341276e-01	 2.1259073787e+00
 1.5860781652e+00	 2.5859027092e-01	 2.0672725693e+00
 1.5816269967e+00	 2.9547931878e-01	 1.9984953119e+00
 1.5765097404e+00	 3.3228683060e-01	 1.9192178944e+00
 1.5707108222e+00	 3.6898854549e-01	 1.8291258411e+00
 1.6142869048e+00	 0.0000000000e+00	 2.2819132026e+00
 1.6140186456e+00	 3.7158943210e-02	 2.2753076554e+00
 1.6132013936e+00	 7.4389815656e-02	 2.2609333725e+00
 1.6118165817e+00	 1.1167264751e-01	 2.2383331011e+00
 1.6098458784e+00	 1.4898674006e-01	 2.2070619805e+00
 1.6072712427e+00	 1.8631068772e-01	 2.1666921531e+00
 1.6040749813e+00	 2.2362240379e-01	 2.1168176957e+00
 1.6002398064e+00	 2.6089914995e-01	 2.0570598477e+00
 1.5957488947e+00	 2.9811756963e-01	 1.9870725038e+00
 1.5905859478e+00	 3.3525372526e-01	 1.9065479287e+00
 1.5847352527e+00	 3.7228313933e-01	 1.8152226454e+00
 1.6285728819e+00	 0.0000000000e+00	 2.2744777140e+00
 1.6283022487e+00	 3.7487789222e-02	 2.2682857808e+00
 1.6274777642e+00	 7.5048144234e-02	 2.2539764132e+00
 1.6260806971e+00	 1.1266091848e-01	 2.2311312056e+00
 1.6240925536e+00	 1.5030523007e-01	 2.1993463447e+00
 1.6214951332e+00	 1.8795948398e-01	 2.1582371079e+00
 1.6182705858e+00	 2.2560139806e-01	 2.1074426531e+00
 1.6144014706e+00	 2.6320803275e-01	 2.0466310708e+00
 1.6098708156e+00	 3.0075582480e-01	 1.9755046661e+00
 1.6046621782e+00	 3.3822062478e-01	 1.8938054284e+00
 1.5987597061e+00	 3.7557773856e-01	 1.8013206385e+00
 1.6428588790e+00	 0.0000000000e+00	 2.2663245016e+00
 1.6425858717e+00	 3.7816635694e-02	 2.2605978400e+00
 1.6417541548e+00	 7.5706473732e-02	 2.2464085493e+00
 1.6403448325e+00	 1.1364919083e-01	 2.2233767892e+00
 1.6383392488e+00	 1.5162372192e-01	 2.1911395133e+00
 1.6357190435e+00	 1.8960828255e-01	 2.1493548595e+00
 1.6324662101e+00	 2.2758039510e-01	 2.0977067969e+00
 1.6285631547e+00	 2.6551691879e-01	 2.0359100044e+00
 1.6239927564e+00	 3.0339408365e-01	 1.9637149435e+00
 1.6187384282e+00	 3.4118752844e-01	 1.8809130835e+00
 1.6127841791e+00	 3.7887234240e-01	 1.7873422284e+00
 1.6571448927e+00	 0.0000000000e+00	 2.2573879998e+00
 1.6568695114e+00	 3.8145482550e-02	 2.2521767647e+00
 1.6560305621e+00	 7.6364803998e-02	 2.2381613138e+00
 1.6546089846e+00	 1.1463746433e-01	 2.2150000977e+00
 1.6525859606e+00	 1.5294221531e-01	 2.1823705666e+00
 1.6499429705e+00	 1.9125708305e-01	 2.1399734515e+00
 1.6466618510e+00	 2.2955939445e-01	 2.0875372718e+00
 1.6427248553e+00	 2.6782580751e-01	 2.0248230404e+00
 1.6381147136e+00	 3.0603234559e-01	 1.9516291283e+00
 1.6328146948e+00	 3.4415443557e-01	 1.8677962469e+00
 1.6268086685e+00	 3.8216695008e-01	 1.7732124962e+00
 1.6714309198e+00	 0.0000000000e+00	 2.2476048816e+00
 1.6711531645e+00	 3.8474329713e-02	 2.2429577768e+00
 1.6703069826e+00	 7.7023134879e-02	 2.2291685772e+00
 1.6688731499e+00	 1.1562573876e-01	 2.2059337591e+00
 1.6668326858e+00	 1.5426070993e-01	 2.1729710062e+00
 1.6641669108e+00	 1.9290588508e-01	 2.1300233846e+00
 1.6608575052e+00	 2.3153839564e-01	 2.0768637107e+00
 1.6568865692e+00	 2.7013469840e-01	 2.0132990843e+00
 1.6522366840e+00	 3.0867060998e-01	 1.9391755469e+00
 1.6468909744e+00	 3.4712134546e-01	 1.8543828213e+00
 1.6408331710e+00	 3.8546156084e-01	 1.7588590815e+00
 1.6857169568e+00	 0.0000000000e+00	 2.2369139632e+00
 1.6854368275e+00	 3.8803177105e-02	 2.2328782907e+00
 1.6845834132e+00	 7.7681466220e-02	 2.2193664487e+00
 1.6831373252e+00	 1.1661401388e-01	 2.1961126817e+00
 1.6810794208e+00	 1.5557920547e-01	 2.1628746529e+00
 1.6783908610e+00	 1.9455468826e-01	 2.1194375125e+00
 1.6750531693e+00	 2.3351739822e-01	 2.0656181287e+00
 1.6710482929e+00	 2.7244359090e-01	 2.0012694489e+00
 1.6663586643e+00	 3.1130887623e-01	 1.9262849527e+00
 1.6609672639e+00	 3.5008825743e-01	 1.8406031502e+00
 1.6548576833e+00	 3.8875617391e-01	 1.7442120743e+00
 1.7000030006e+00	 0.0000000000e+00	 2.2252561141e+00
 1.6997204972e+00	 3.9132024651e-02	 2.2218778212e+00
 1.6988598504e+00	 7.8339797868e-02	 2.2086931817e+00
 1.6974015072e+00	 1.1760228946e-01	 2.1854739589e+00
 1.6953261626e+00	 1.5689770163e-01	 2.1520175488e+00
 1.6926148178e+00	 1.9620349222e-01	 2.1081509430e+00
 1.6892488400e+00	 2.3549640172e-01	 2.0537348233e+00
 1.6852100233e+00	 2.7475248447e-01	 1.9886677528e+00
 1.6804806512e+00	 3.1394714370e-01	 1.9128904238e+00
 1.6750435600e+00	 3.5305517079e-01	 1.8263899159e+00
 1.6688822022e+00	 3.9205078851e-01	 1.7292039117e+00
 1.7142890476e+00	 0.0000000000e+00	 2.2125741713e+00
 1.7140041702e+00	 3.9460872273e-02	 2.2098978960e+00
 1.7131362910e+00	 7.8998129670e-02	 2.1970890846e+00
 1.7116656925e+00	 1.1859056526e-01	 2.1739567777e+00
 1.7095729076e+00	 1.5821619810e-01	 2.1403378648e+00
 1.7068387780e+00	 1.9785229655e-01	 2.0961009437e+00
 1.7034445140e+00	 2.3747540569e-01	 2.0411502790e+00
 1.6993717569e+00	 2.7706137859e-01	 1.9754298243e+00
 1.6946026414e+00	 3.1658541179e-01	 1.8989272661e+00
 1.6891198593e+00	 3.5602208484e-01	 1.8116780418e+00
 1.6829067243e+00	 3.9534540388e-01	 1.7137692802e+00
 1.5426620430e+00	 3.6239937702e-01	 1.8572602609e+00
 1.5362829932e+00	 3.9831497595e-01	 1.7593315730e+00
 1.5292059076e+00	 4.3407767868e-01	 1.6517944476e+00
 1.5214175572e+00	 4.6966240691e-01	 1.5352188107e+00
 1.5129055177e+00	 5.0504375549e-01	 1.4102105518e+00
 1.5036582266e+00	 5.4019605011e-01	 1.2774091310e+00
 1.4936650386e+00	 5.7509340796e-01	 1.1374847115e+00
 1.4829162793e+00	 6.0970980142e-01	 9.9113482006e-01
 1.4714032966e+00	 6.4401912428e-01	 8.3908054447e-01
 1.4591185099e+00	 6.7799526040e-01	 6.8206228835e-01
 1.4460554561e+00	 7.1161215435e-01	 5.2083511004e-01
 1.5566864179e+00	 3.6569395779e-01	 1.8431106110e+00
 1.5502493760e+00	 4.0193606623e-01	 1.7437702695e+00
 1.5431079524e+00	 4.3802388849e-01	 1.6347392565e+00
 1.5352487979e+00	 4.7393211827e-01	 1.5166253368e+00
 1.5266593753e+00	 5.0963511948e-01	 1.3900727467e+00
 1.5173280169e+00	 5.4510698439e-01	 1.2557595000e+00
 1.5072439807e+00	 5.8032159489e-01	 1.1143941932e+00
 1.4963975041e+00	 6.1525268675e-01	 9.6671231694e-01
 1.4847798566e+00	 6.4987391643e-01	 8.1347208436e-01
 1.4723833886e+00	 6.8415893035e-01	 6.5544980151e-01
 1.4592015783e+00	 7.1808143623e-01	 4.9343481084e-01
 1.5707108222e+00	 3.6898854549e-01	 1.8291258411e+00
 1.5642157881e+00	 4.0555716412e-01	 1.7284512918e+00
 1.5570100265e+00	 4.4197010658e-01	 1.6180081858e+00
 1.5490800678e+00	 4.7820183860e-01	 1.4984402509e+00
 1.5404132618e+00	 5.1422649311e-01	 1.3704281353e+00
 1.5309978360e+00	 5.5001792898e-01	 1.2346864220e+00
 1.5208229512e+00	 5.8554979280e-01	 1.0919601190e+00
 1.5098787572e+00	 6.2079558372e-01	 9.4302063265e-01
 1.4981564447e+00	 6.5572872087e-01	 7.8866124144e-01
 1.4856482952e+00	 6.9032261325e-01	 6.2969209631e-01
 1.4723477282e+00	 7.2455073170e-01	 4.6693478413e-01
 1.5847352527e+00	 3.7228313933e-01	 1.8152226454e+00
 1.5781822263e+00	 4.0917826877e-01	 1.7132910862e+00
 1.5709121264e+00	 4.4591633204e-01	 1.6015173835e+00
 1.5629113634e+00	 4.8247156690e-01	 1.4805793983e+00
 1.5541671740e+00	 5.1881787531e-01	 1.3511923033e+00
 1.5446676805e+00	 5.5492888273e-01	 1.2141053152e+00
 1.5344019471e+00	 5.9077800047e-01	 1.0700978802e+00
 1.5233600355e+00	 6.2633849104e-01	 9.1997532283e-01
 1.5115330578e+00	 6.6158353624e-01	 7.6456397744e-01
 1.4989132266e+00	 6.9648630766e-01	 6.0470583272e-01
 1.4854939025e+00	 7.3102003925e-01	 4.4125273046e-01
 1.5987597061e+00	 3.7557773856e-01	 1.8013206385e+00
 1.5921486873e+00	 4.1279937933e-01	 1.6982090283e+00
 1.5848142491e+00	 4.4986256395e-01	 1.5851859375e+00
 1.5767426816e+00	 4.8674130217e-01	 1.4629615751e+00
 1.5679211087e+00	 5.2340926501e-01	 1.3322837964e+00
 1.5583375473e+00	 5.5983984451e-01	 1.1939345630e+00
 1.5479809651e+00	 5.9600621668e-01	 1.0487258345e+00
 1.5368413358e+00	 6.3188140741e-01	 8.9749490409e-01
 1.5249096927e+00	 6.6743836118e-01	 7.4109920091e-01
 1.5121781796e+00	 7.0265001213e-01	 5.8041059312e-01
 1.4986400984e+00	 7.3748935736e-01	 4.1630923641e-01
 1.6127841791e+00	 3.7887234240e-01	 1.7873422284e+00
 1.6061151678e+00	 4.1642049496e-01	 1.6831272955e+00
 1.5987163913e+00	 4.5380880138e-01	 1.5689357474e+00
 1.5905740192e+00	 4.9101104342e-01	 1.4455083991e+00
 1.5816750626e+00	 5.2800066113e-01	 1.3136239909e+00
 1.5720074333e+00	 5.6475081316e-01	 1.1740953858e+00
 1.5615600022e+00	 6.0123444021e-01	 1.0277651776e+00
 1.5503226549e+00	 6.3742433155e-01	 8.7550072524e-01
 1.5382863464e+00	 6.7329319431e-01	 7.1818863907e-01
 1.5254431512e+00	 7.0881372523e-01	 5.5672875526e-01
 1.5117863127e+00	 7.4395868453e-01	 3.9202764906e-01
 1.6268086685e+00	 3.8216695008e-01	 1.7732124962e+00
 1.6200816647e+00	 4.2004161482e-01	 1.6679707461e+00
 1.6126185497e+00	 4.5775504342e-01	 1.5526914036e+00
 1.6044053729e+00	 4.9528078965e-01	 1.4281441889e+00
 1.5954290326e+00	 5.3259206262e-01	 1.2951369722e+00
 1.5856773353e+00	 5.6966178755e-01	 1.1545117181e+00
 1.5751390551e+00	 6.0646266984e-01	 1.0071398200e+00
 1.5638039898e+00	 6.4296726214e-01	 8.5391684517e-01
 1.5516630156e+00	 6.7914803427e-01	 6.9575671630e-01
 1.5387081383e+00	 7.1497744552e-01	 5.3358537173e-01
 1.5249325422e+00	 7.5042801924e-01	 3.6833395709e-01
 1.6408331710e+00	 3.8546156084e-01	 1.7588590815e+00
 1.6340481746e+00	 4.2366273805e-01	 1.6526668048e+00
 1.6265207210e+00	 4.6170128914e-01	 1.5363800722e+00
 1.6182367396e+00	 4.9955053987e-01	 1.4107958478e+00
 1.6091830154e+00	 5.3718346838e-01	 1.2767494186e+00
 1.5993472500e+00	 5.7457276651e-01	 1.1351100927e+00
 1.5887181207e+00	 6.1169090434e-01	 9.8677627183e-01
 1.5772853373e+00	 6.4851019792e-01	 8.3266991709e-01
 1.5650396974e+00	 6.8500287970e-01	 6.7373043889e-01
 1.5519731378e+00	 7.2114117157e-01	 5.1090805564e-01
 1.5380787841e+00	 7.5689736000e-01	 3.4515667779e-01
 1.6548576833e+00	 3.8875617391e-01	 1.7442120743e+00
 1.6480146942e+00	 4.2728386382e-01	 1.6371453540e+00
 1.6404229021e+00	 4.6564753762e-01	 1.5199313854e+00
 1.6320681159e+00	 5.0382029307e-01	 1.3933927548e+00
 1.6229370078e+00	 5.4177487737e-01	 1.2583904916e+00
 1.6130171742e+00	 5.7948374892e-01	 1.1158195307e+00
 1.6022971957e+00	 6.1691914251e-01	 9.6660353212e-01
 1.5907666942e+00	 6.5405313757e-01	 8.1168907848e-01
 1.5784163885e+00	 6.9085772922e-01	 6.5203928558e-01
 1.5652381465e+00	 7.2730490193e-01	 4.8862687214e-01
 1.5512250352e+00	 7.6336670528e-01	 3.2242674996e-01
 1.6688822022e+00	 3.9205078851e-01	 1.7292039117e+00
 1.6619812204e+00	 4.3090499129e-01	 1.6213386303e+00
 1.6543250897e+00	 4.6959378794e-01	 1.5032773385e+00
 1.6458994987e+00	 5.0809004827e-01	 1.3758666600e+00
 1.6366910066e+00	 5.4636628849e-01	 1.2399917314e+00
 1.6266871049e+00	 5.8439473362e-01	 1.0965714368e+00
 1.6158762772e+00	 6.2214738312e-01	 9.4655298433e-01
 1.6042480574e+00	 6.5959607981e-01	 7.9090584674e-01
 1.5917930858e+00	 6.9671258148e-01	 6.3061510369e-01
 1.5785031615e+00	 7.3346863516e-01	 4.6667423536e-01
 1.5643712924e+00	 7.6983605359e-01	 3.0007743217e-01
 1.6829067243e+00	 3.9534540388e-01	 1.7137692802e+00
 1.6759477498e+00	 4.3452611959e-01	 1.6051811263e+00
 1.6682272805e+00	 4.7354003919e-01	 1.4863521907e+00
 1.6597308847e+00	 5.1235980447e-01	 1.3581515862e+00
 1.6504450087e+00	 5.5095770069e-01	 1.2214869579e+00
 1.6403570387e+00	 5.8930571946e-01	 1.0772994998e+00
 1.6294553618e+00	 6.2737562495e-01	 9.2655829699e-01
 1.6177294238e+00	 6.6513902335e-01	 7.7025401999e-01
 1.6051697863e+00	 7.0256743511e-01	 6.0939201035e-01
 1.5917681795e+00	 7.3963236984e-01	 4.4498481049e-01
 1.5775175527e+00	 7.7630540340e-01	 2.7804420604e-01
 1.4460554561e+00	 7.1161215435e-01	 5.2083511004e-01
 1.4322078368e+00	 7.4484619455e-01	 3.5567643560e-01
 1.4175724424e+00	 7.7766928634e-01	 1.8734190220e-01
 1.4021464125e+00	 8.1005598127e-01	 1.7271406197e-02
 1.3859281521e+00	 8.4198118776e-01	-1.5311307873e-01
 1.3689173587e+00	 8.7342024658e-01	-3.2241973669e-01
 1.3511150428e+00	 9.0434900604e-01	-4.8929926519e-01
 1.3325235447e+00	 9.3474389645e-01	-6.5245717412e-01
 1.3131465456e+00	 9.6458200336e-01	-8.1066584302e-01
 1.2929890729e+00	 9.9384113918e-01	-9.6277614784e-01
 1.2720575006e+00	 1.0224999127e+00	-1.1077284685e+00
 1.4592015783e+00	 7.1808143623e-01	 4.9343481084e-01
 1.4452280701e+00	 7.5161760783e-01	 3.2770055502e-01
 1.4304596250e+00	 7.8473909508e-01	 1.5896328807e-01
 1.4148933566e+00	 8.1742021817e-01	-1.1358055794e-02
 1.3985276557e+00	 8.4963565742e-01	-1.8186310128e-01
 1.3813622168e+00	 8.8136052942e-01	-3.5118213318e-01
 1.3633980596e+00	 9.1257046292e-01	-5.1798830768e-01
 1.3446375458e+00	 9.4324167396e-01	-6.8100979834e-01
 1.3250843900e+00	 9.7335103976e-01	-8.3904169332e-01
 1.3047436653e+00	 1.0028761710e+00	-9.9095745702e-01
 1.2836218036e+00	 1.0317954821e+00	-1.1357197699e+00
 1.4723477282e+00	 7.2455073170e-01	 4.6693478413e-01
 1.4582483306e+00	 7.5838903533e-01	 3.0066197119e-01
 1.4433468346e+00	 7.9180891867e-01	 1.3155476014e-01
 1.4276403275e+00	 8.2478447054e-01	-3.8989303196e-02
 1.4111271858e+00	 8.5729014315e-01	-2.0959180255e-01
 1.3938071010e+00	 8.8930082894e-01	-3.7890541192e-01
 1.3756811022e+00	 9.2079193707e-01	-5.4562595673e-01
 1.3567515724e+00	 9.5173946931e-01	-7.0850440148e-01
 1.3370222595e+00	 9.8212009457e-01	-8.6635858250e-01
 1.3164982823e+00	 1.0119112219e+00	-1.0180845011e+00
 1.2951861308e+00	 1.0410910711e+00	-1.1626669928e+00
 1.4854939025e+00	 7.3102003925e-01	 4.4125273046e-01
 1.4712686155e+00	 7.6516047548e-01	 2.7447973256e-01
 1.4562340682e+00	 7.9887875545e-01	 1.0503696107e-01
 1.4403873222e+00	 8.3214873665e-01	-6.5699842477e-02
 1.4237267393e+00	 8.6494464318e-01	-2.3637457230e-01
 1.4062520084e+00	 8.9724114327e-01	-4.0566257220e-01
 1.3879641678e+00	 9.2901342656e-01	-5.7228254068e-01
 1.3688656215e+00	 9.6023728052e-01	-7.3500835519e-01
 1.3489601512e+00	 9.9088916575e-01	-8.9268063602e-01
 1.3282529213e+00	 1.0209462895e+00	-1.0442178674e+00
 1.3067504797e+00	 1.0503866773e+00	-1.1886268942e+00
 1.4986400984e+00	 7.3748935736e-01	 4.1630923641e-01
 1.4842889216e+00	 7.7193192668e-01	 2.4907572641e-01
 1.4691213229e+00	 8.0594860378e-01	 7.9333316563e-02
 1.4531343378e+00	 8.3951301479e-01	-9.1564461907e-02
 1.4363263135e+00	 8.7259915570e-01	-2.6228415627e-01
 1.4186969362e+00	 9.0518147058e-01	-4.3152405302e-01
 1.4002472534e+00	 9.3723492948e-01	-5.9802592118e-01
 1.3809796905e+00	 9.6873510561e-01	-7.6058666807e-01
 1.3608980624e+00	 9.9965825125e-01	-9.1806973006e-01
 1.3400075795e+00	 1.0299813720e+00	-1.0694160184e+00
 1.3183148474e+00	 1.0596822988e+00	-1.2136542401e+00
 1.5117863127e+00	 7.4395868453e-01	 3.9202764906e-01
 1.4973092460e+00	 7.7870338736e-01	 2.2437455545e-01
 1.4820085956e+00	 8.1301846200e-01	 5.4369914331e-02
 1.4658813711e+00	 8.4687730324e-01	-1.1665534972e-01
 1.4489259052e+00	 8.8025367894e-01	-2.8739077108e-01
 1.4311418814e+00	 9.1312180900e-01	-4.5655784437e-01
 1.4125303562e+00	 9.4545644391e-01	-6.2292160040e-01
 1.3930937764e+00	 9.7723294260e-01	-7.8530208835e-01
 1.3728359904e+00	 1.0084273490e+00	-9.4258558929e-01
 1.3517622541e+00	 1.0390164671e+00	-1.0937353831e+00
 1.3298792313e+00	 1.0689779332e+00	-1.2378018922e+00
 1.5249325422e+00	 7.5042801924e-01	 3.6833395709e-01
 1.5103295855e+00	 7.8547485594e-01	 2.0030342075e-01
 1.4948958834e+00	 8.2008832847e-01	 3.0075389393e-02
 1.4786284194e+00	 8.5424160028e-01	-1.4104220619e-01
 1.4615255117e+00	 8.8790821111e-01	-3.1176221323e-01
 1.4435868411e+00	 9.2106215669e-01	-4.8082959279e-01
 1.4248134734e+00	 9.5367796793e-01	-6.4703282271e-01
 1.4052078764e+00	 9.8573078950e-01	-8.0921520134e-01
 1.3847739322e+00	 1.0171964570e+00	-9.6628587959e-01
 1.3635169425e+00	 1.0480515727e+00	-1.1172304458e+00
 1.3414436287e+00	 1.0782735785e+00	-1.2611208896e+00
 1.5380787841e+00	 7.5689736000e-01	 3.4515667779e-01
 1.5233499373e+00	 7.9224633084e-01	 1.7679201072e-01
 1.5077831832e+00	 8.2715820155e-01	 6.3808152032e-03
 1.4913754795e+00	 8.6160590419e-01	-1.6479234992e-01
 1.4741251299e+00	 8.9556275043e-01	-3.3546396252e-01
 1.4560318125e+00	 9.2900251179e-01	-5.0440270150e-01
 1.4370966020e+00	 9.6189949963e-01	-6.7042067118e-01
 1.4173219878e+00	 9.9422864433e-01	-8.3238452180e-01
 1.3967118853e+00	 1.0259655732e+00	-9.8922629598e-01
 1.3752716418e+00	 1.0570866868e+00	-1.1399538284e+00
 1.3530080369e+00	 1.0875692325e+00	-1.2836605271e+00
 1.5512250352e+00	 7.6336670528e-01	 3.2242674996e-01
 1.5363702981e+00	 7.9901781048e-01	 1.5377239571e-01
 1.5206704920e+00	 8.3422807957e-01	-1.6780399664e-02
 1.5041225486e+00	 8.6897021326e-01	-1.8797081878e-01
 1.4867247570e+00	 9.0321729510e-01	-3.5855928022e-01
 1.4684767925e+00	 9.3694287244e-01	-5.2733842543e-01
 1.4493797392e+00	 9.7012103708e-01	-6.9314415910e-01
 1.4294361076e+00	 1.0027265051e+00	-8.5486658166e-01
 1.4086498466e+00	 1.0347346956e+00	-1.0114606461e+00
 1.3870263493e+00	 1.0661218072e+00	-1.1619563694e+00
 1.3645724532e+00	 1.0968648930e+00	-1.3054684289e+00
 1.5643712924e+00	 7.6983605359e-01	 3.0007743217e-01
 1.5493906650e+00	 8.0578929328e-01	 1.3117892791e-01
 1.5335578069e+00	 8.4129796089e-01	-3.9472609637e-02
 1.5168696236e+00	 8.7633452576e-01	-2.1064046570e-01
 1.4993243899e+00	 9.1087184335e-01	-3.8110930225e-01
 1.4809217783e+00	 9.4488323681e-01	-5.4969596148e-01
 1.4616628821e+00	 9.7834257837e-01	-7.1526031696e-01
 1.4415502331e+00	 1.0112243699e+00	-8.7671601334e-01
 1.4205878136e+00	 1.0435038220e+00	-1.0330409297e+00
 1.3987810624e+00	 1.0751569318e+00	-1.1832871990e+00
 1.3761368749e+00	 1.1061605579e+00	-1.3265906185e+00
 1.5775175527e+00	 7.7630540340e-01	 2.7804420604e-01
 1.5624110349e+00	 8.1256077766e-01	 1.0894814626e-01
 1.5464451247e+00	 8.4836784386e-01	-6.1758025355e-02
 1.5296167016e+00	 8.8369883999e-01	-2.3286204977e-01
 1.5119240258e+00	 9.1852639338e-01	-4.0317312776e-01
 1.4933667671e+00	 9.5282360302e-01	-5.7153253427e-01
 1.4739460279e+00	 9.8656412157e-01	-7.3682427504e-01
 1.4536643614e+00	 1.0197222366e+00	-8.9798562887e-01
 1.4325257833e+00	 1.0522729505e+00	-1.0540174135e+00
 1.4105357781e+00	 1.0841920585e+00	-1.2039938104e+00
 1.3877012993e+00	 1.1154562249e+00	-1.3470715860e+00
 1.2720575006e+00	 1.0224999127e+00	-1.1077284685e+00
 1.2503595401e+00	 1.0505377988e+00	-1.2459504788e+00
 1.2279042194e+00	 1.0779352093e+00	-1.3779463915e+00
 1.2047018759e+00	 1.1046735469e+00	-1.5028912063e+00
 1.1807641368e+00	 1.1307352592e+00	-1.6200272947e+00
 1.1561038919e+00	 1.1561038919e+00	-1.7286705652e+00
 1.1307352592e+00	 1.1807641368e+00	-1.8282158217e+00
 1.1046735469e+00	 1.2047018759e+00	-1.9181412287e+00
 1.0779352093e+00	 1.2279042194e+00	-1.9980118190e+00
 1.0505377988e+00	 1.2503595401e+00	-2.0674819915e+00
 1.0224999127e+00	 1.2720575006e+00	-2.1262969708e+00
 1.2836218036e+00	 1.0317954821e+00	-1.1357197699e+00
 1.2617265865e+00	 1.0600882612e+00	-1.2736969418e+00
 1.2390671240e+00	 1.0877347422e+00	-1.4053403031e+00
 1.2156538473e+00	 1.1147161586e+00	-1.5298571422e+00
 1.1914984898e+00	 1.1410147985e+00	-1.6465227048e+00
 1.1666140580e+00	 1.1666140580e+00	-1.7546861129e+00
 1.1410147985e+00	 1.1914984898e+00	-1.8537754690e+00
 1.1147161586e+00	 1.2156538473e+00	-1.9433020669e+00
 1.0877347422e+00	 1.2390671240e+00	-2.0228636441e+00
 1.0600882612e+00	 1.2617265865e+00	-2.0921466314e+00
 1.0317954821e+00	 1.2836218036e+00	-2.1509273717e+00
 1.2951861308e+00	 1.0410910711e+00	-1.1626669928e+00
 1.2730936567e+00	 1.0696387437e+00	-1.3004171926e+00
 1.2502300519e+00	 1.0975342957e+00	-1.4317352749e+00
 1.2266058418e+00	 1.1247587914e+00	-1.5558598442e+00
 1.2022328653e+00	 1.1512943594e+00	-1.6720979712e+00
 1.1771242462e+00	 1.1771242462e+00	-1.7798308717e+00
 1.1512943594e+00	 1.2022328653e+00	-1.8785187664e+00
 1.1247587914e+00	 1.2266058418e+00	-1.9677048453e+00
 1.0975342957e+00	 1.2502300519e+00	-2.0470182761e+00
 1.0696387437e+00	 1.2730936567e+00	-2.1161762146e+00
 1.0410910711e+00	 1.2951861308e+00	-2.1749847939e+00
 1.3067504797e+00	 1.0503866773e+00	-1.1886268942e+00
 1.2844607481e+00	 1.0791892440e+00	-1.3261638794e+00
 1.2613930007e+00	 1.1073338674e+00	-1.4571795938e+00
 1.2375578568e+00	 1.1348014430e+00	-1.5809430055e+00
 1.2129672609e+00	 1.1615739396e+00	-1.6967919816e+00
 1.1876344541e+00	 1.1876344541e+00	-1.8041387346e+00
 1.1615739396e+00	 1.2129672609e+00	-1.9024744460e+00
 1.1348014430e+00	 1.2375578568e+00	-1.9913729935e+00
 1.1073338674e+00	 1.2613930007e+00	-2.0704937248e+00
 1.0791892440e+00	 1.2844607481e+00	-2.1395832394e+00
 1.0503866773e+00	 1.3067504797e+00	-2.1984761581e+00
 1.3183148474e+00	 1.0596822988e+00	-1.2136542401e+00
 1.2958278581e+00	 1.0887397600e+00	-1.3509878032e+00
 1.2725559677e+00	 1.1171334552e+00	-1.4817198525e+00
 1.2485098896e+00	 1.1448441109e+00	-1.6051487864e+00
 1.2237016739e+00	 1.1718535364e+00	-1.7206422596e+00
 1.1981446790e+00	 1.1981446790e+00	-1.8276424056e+00
 1.1718535364e+00	 1.2237016739e+00	-1.9256702320e+00
 1.1448441109e+00	 1.2485098896e+00	-2.0143291189e+00
 1.1171334552e+00	 1.2725559677e+00	-2.0933073680e+00
 1.0887397600e+00	 1.2958278581e+00	-2.1623797652e+00
 1.0596822988e+00	 1.3183148474e+00	-2.2214081417e+00
 1.3298792313e+00	 1.0689779332e+00	-1.2378018922e+00
 1.3071949839e+00	 1.0982902892e+00	-1.3749379986e+00
 1.2837189503e+00	 1.1269330567e+00	-1.5054010239e+00
 1.2594619377e+00	 1.1548867929e+00	-1.6285178809e+00
 1.2344361020e+00	 1.1821331477e+00	-1.7436850234e+00
 1.2086549187e+00	 1.2086549187e+00	-1.8503734512e+00
 1.1821331477e+00	 1.2344361020e+00	-1.9481328843e+00
 1.1548867929e+00	 1.2594619377e+00	-2.0365950426e+00
 1.1269330567e+00	 1.2837189503e+00	-2.1154759788e+00
 1.0982902892e+00	 1.3071949839e+00	-2.1845774320e+00
 1.0689779332e+00	 1.3298792313e+00	-2.2437871901e+00
 1.3414436287e+00	 1.0782735785e+00	-1.2611208896e+00
 1.3185621231e+00	 1.1078408297e+00	-1.3980618097e+00
 1.2948819460e+00	 1.1367326697e+00	-1.5282665300e+00
 1.2704139986e+00	 1.1649294867e+00	-1.6510895800e+00
 1.2451705427e+00	 1.1924127710e+00	-1.7659552429e+00
 1.2191651707e+00	 1.2191651707e+00	-1.8723623494e+00
 1.1924127710e+00	 1.2451705427e+00	-1.9698882399e+00
 1.1649294867e+00	 1.2704139986e+00	-2.0581918331e+00
 1.1367326697e+00	 1.2948819460e+00	-2.1370157518e+00
 1.1078408297e+00	 1.3185621231e+00	-2.2061874780e+00
 1.0782735785e+00	 1.3414436287e+00	-2.2656195257e+00
 1.3530080369e+00	 1.0875692325e+00	-1.2836605271e+00
 1.3299292729e+00	 1.1173913790e+00	-1.4204049624e+00
 1.3060449521e+00	 1.1465322917e+00	-1.5503583086e+00
 1.2813660698e+00	 1.1749721898e+00	-1.6729018315e+00
 1.2559049933e+00	 1.2026924039e+00	-1.7874866922e+00
 1.2296754325e+00	 1.2296754325e+00	-1.8936385363e+00
 1.2026924039e+00	 1.2559049933e+00	-1.9909612527e+00
 1.1749721898e+00	 1.2813660698e+00	-2.0791398385e+00
 1.1465322917e+00	 1.3060449521e+00	-2.1579423280e+00
 1.1173913790e+00	 1.3299292729e+00	-2.2272207573e+00
 1.0875692325e+00	 1.3530080369e+00	-2.2869111584e+00
 1.3645724532e+00	 1.0968648930e+00	-1.3054684289e+00
 1.3412964306e+00	 1.1269419351e+00	-1.4420116327e+00
 1.3172079660e+00	 1.1563319207e+00	-1.5717168761e+00
 1.2923181486e+00	 1.1850148999e+00	-1.6939912973e+00
 1.2666394515e+00	 1.2129720440e+00	-1.8083120007e+00
 1.2401857016e+00	 1.2401857016e+00	-1.9142304502e+00
 1.2129720440e+00	 1.2666394515e+00	-2.0113760303e+00
 1.1850148999e+00	 1.2923181486e+00	-2.0994587170e+00
 1.1563319207e+00	 1.3172079660e+00	-2.1782708177e+00
 1.1269419351e+00	 1.3412964306e+00	-2.2476877556e+00
 1.0968648930e+00	 1.3645724532e+00	-2.3076678938e+00
 1.3761368749e+00	 1.1061605579e+00	-1.3265906185e+00
 1.3526635936e+00	 1.1364924956e+00	-1.4629245121e+00
 1.3283709851e+00	 1.1661315542e+00	-1.5923813875e+00
 1.3032702325e+00	 1.1950576148e+00	-1.7143934067e+00
 1.2773739147e+00	 1.2232516888e+00	-1.8284627010e+00
 1.2506959757e+00	 1.2506959757e+00	-1.9341655733e+00
 1.2232516888e+00	 1.2773739147e+00	-2.0311558701e+00
 1.1950576148e+00	 1.3032702325e+00	-2.1191674659e+00
 1.1661315542e+00	 1.3283709851e+00	-2.1980158233e+00
 1.1364924956e+00	 1.3526635936e+00	-2.2675986060e+00
 1.1061605579e+00	 1.3761368749e+00	-2.3278953423e+00
 1.3877012993e+00	 1.1154562249e+00	-1.3470715860e+00
 1.3640307593e+00	 1.1460430583e+00	-1.4831848692e+00
 1.3395340068e+00	 1.1759311900e+00	-1.6123896922e+00
 1.3142223190e+00	 1.2051003319e+00	-1.7341424083e+00
 1.2881083803e+00	 1.2335313361e+00	-1.8479692747e+00
 1.2612062521e+00	 1.2612062521e+00	-1.9534704719e+00
 1.2335313361e+00	 1.2881083803e+00	-2.0503232927e+00
 1.2051003319e+00	 1.3142223190e+00	-2.1382844491e+00
 1.1759311900e+00	 1.3395340068e+00	-2.2171914603e+00
 1.1460430583e+00	 1.3640307593e+00	-2.2869631035e+00
 1.1154562249e+00	 1.3877012993e+00	-2.3475989268e+00
 1.0224999127e+00	 1.2720575006e+00	-2.1262969708e+00
 9.9384113918e-01	 1.2929890729e+00	-2.1760983334e+00
 9.6458200336e-01	 1.3131465456e+00	-2.2186883008e+00
 9.3474389645e-01	 1.3325235447e+00	-2.2541152570e+00
 9.0434900604e-01	 1.3511150428e+00	-2.2824187888e+00
 8.7342024658e-01	 1.3689173587e+00	-2.3036293171e+00
 8.4198118776e-01	 1.3859281521e+00	-2.3177679227e+00
 8.1005598127e-01	 1.4021464125e+00	-2.3248463583e+00
 7.7766928634e-01	 1.4175724424e+00	-2.3248672373e+00
 7.4484619455e-01	 1.4322078368e+00	-2.3178243841e+00
 7.1161215435e-01	 1.4460554561e+00	-2.3037033317e+00
 1.0317954821e+00	 1.2836218036e+00	-2.1509273717e+00
 1.0028761710e+00	 1.3047436653e+00	-2.2007217291e+00
 9.7335103976e-01	 1.3250843900e+00	-2.2431927269e+00
 9.4324167396e-01	 1.3446375458e+00	-2.2784009204e+00
 9.1257046292e-01	 1.3633980596e+00	-2.3064007473e+00
 8.8136052942e-01	 1.3813622168e+00	-2.3272399758e+00
 8.4963565742e-01	 1.3985276557e+00	-2.3409593212e+00
 8.1742021817e-01	 1.4148933566e+00	-2.3475922276e+00
 7.8473909508e-01	 1.4304596250e+00	-2.3471648084e+00
 7.5161760783e-01	 1.4452280701e+00	-2.3396959353e+00
 7.1808143623e-01	 1.4592015783e+00	-2.3251974654e+00
 1.0410910711e+00	 1.2951861308e+00	-2.1749847939e+00
 1.0119112219e+00	 1.3164982823e+00	-2.2248397969e+00
 9.8212009457e-01	 1.3370222595e+00	-2.2672708684e+00
 9.5173946931e-01	 1.3567515724e+00	-2.3023497230e+00
 9.2079193707e-01	 1.3756811022e+00	-2.3301446984e+00
 8.8930082894e-01	 1.3938071010e+00	-2.3507200265e+00
 8.5729014315e-01	 1.4111271858e+00	-2.3641352456e+00
 8.2478447054e-01	 1.4276403275e+00	-2.3704447549e+00
 7.9180891867e-01	 1.4433468346e+00	-2.3696975092e+00
 7.5838903533e-01	 1.4582483306e+00	-2.3619368485e+00
 7.2455073170e-01	 1.4723477282e+00	-2.3472004541e+00
 1.0503866773e+00	 1.3067504797e+00	-2.1984761581e+00
 1.0209462895e+00	 1.3282529213e+00	-2.2484539088e+00
 9.9088916575e-01	 1.3489601512e+00	-2.2909186666e+00
 9.6023728052e-01	 1.3688656215e+00	-2.3259523074e+00
 9.2901342656e-01	 1.3879641678e+00	-2.3536361321e+00
 8.9724114327e-01	 1.4062520084e+00	-2.3740499652e+00
 8.6494464318e-01	 1.4237267393e+00	-2.3872713672e+00
 8.3214873665e-01	 1.4403873222e+00	-2.3933749665e+00
 7.9887875545e-01	 1.4562340682e+00	-2.3924319097e+00
 7.6516047548e-01	 1.4712686155e+00	-2.3845094327e+00
 7.3102003925e-01	 1.4854939025e+00	-2.3696705473e+00
 1.0596822988e+00	 1.3183148474e+00	-2.2214081417e+00
 1.0299813720e+00	 1.3400075795e+00	-2.2715653889e+00
 9.9965825125e-01	 1.3608980624e+00	-2.3141322051e+00
 9.6873510561e-01	 1.3809796905e+00	-2.3491996447e+00
 9.3723492948e-01	 1.4002472534e+00	-2.3768610475e+00
 9.0518147058e-01	 1.4186969362e+00	-2.3972109716e+00
 8.7259915570e-01	 1.4363263135e+00	-2.4103442107e+00
 8.3951301479e-01	 1.4531343378e+00	-2.4163549050e+00
 8.0594860378e-01	 1.4691213229e+00	-2.4153357519e+00
 7.7193192668e-01	 1.4842889216e+00	-2.4073773184e+00
 7.3748935736e-01	 1.4986400984e+00	-2.3925674588e+00
 1.0689779332e+00	 1.3298792313e+00	-2.2437871901e+00
 1.0390164671e+00	 1.3517622541e+00	-2.2941755146e+00
 1.0084273490e+00	 1.3728359904e+00	-2.3369077033e+00
 9.7723294260e-01	 1.3930937764e+00	-2.3720830192e+00
 9.4545644391e-01	 1.4125303562e+00	-2.3998059300e+00
 9.1312180900e-01	 1.4311418814e+00	-2.4201848799e+00
 8.8025367894e-01	 1.4489259052e+00	-2.4333311165e+00
 8.4687730324e-01	 1.4658813711e+00	-2.4393575850e+00
 8.1301846200e-01	 1.4820085956e+00	-2.4383778996e+00
 7.7870338736e-01	 1.4973092460e+00	-2.4305054008e+00
 7.4395868453e-01	 1.5117863127e+00	-2.4158523029e+00
 1.0782735785e+00	 1.3414436287e+00	-2.2656195257e+00
 1.0480515727e+00	 1.3635169425e+00	-2.3162855193e+00
 1.0171964570e+00	 1.3847739322e+00	-2.3592415108e+00
 9.8573078950e-01	 1.4052078764e+00	-2.3945940158e+00
 9.5367796793e-01	 1.4248134734e+00	-2.4224577309e+00
 9.2106215669e-01	 1.4435868411e+00	-2.4429541502e+00
 8.8790821111e-01	 1.4615255117e+00	-2.4562102064e+00
 8.5424160028e-01	 1.4786284194e+00	-2.4623569508e+00
 8.2008832847e-01	 1.4948958834e+00	-2.4615282896e+00
 7.8547485594e-01	 1.5103295855e+00	-2.4538597850e+00
 7.5042801924e-01	 1.5249325422e+00	-2.4394875341e+00
 1.0875692325e+00	 1.3530080369e+00	-2.2869111584e+00
 1.0570866868e+00	 1.3752716418e+00	-2.3378965937e+00
 1.0259655732e+00	 1.3967118853e+00	-2.3811301016e+00
 9.9422864433e-01	 1.4173219878e+00	-2.4167245066e+00
 9.6189949963e-01	 1.4370966020e+00	-2.4448038470e+00
 9.2900251179e-01	 1.4560318125e+00	-2.4655018419e+00
 8.9556275043e-01	 1.4741251299e+00	-2.4789603493e+00
 8.6160590419e-01	 1.4913754795e+00	-2.4853278375e+00
 8.2715820155e-01	 1.5077831832e+00	-2.4847578862e+00
 7.9224633084e-01	 1.5233499373e+00	-2.4774077343e+00
 7.5689736000e-01	 1.5380787841e+00	-2.4634368901e+00
 1.0968648930e+00	 1.3645724532e+00	-2.3076678938e+00
 1.0661218072e+00	 1.3870263493e+00	-2.3590098880e+00
 1.0347346956e+00	 1.4086498466e+00	-2.4025700690e+00
 1.0027265051e+00	 1.4294361076e+00	-2.4384666389e+00
 9.7012103708e-01	 1.4493797392e+00	-2.4668321023e+00
 9.3694287244e-01	 1.4684767925e+00	-2.4878115880e+00
 9.0321729510e-01	 1.4867247570e+00	-2.5015611302e+00
 8.6897021326e-01	 1.5041225486e+00	-2.5082459324e+00
 8.3422807957e-01	 1.5206704920e+00	-2.5080386371e+00
 7.9901781048e-01	 1.5363702981e+00	-2.5011176212e+00
 7.6336670528e-01	 1.5512250352e+00	-2.4876653372e+00
 1.1061605579e+00	 1.3761368749e+00	-2.3278953423e+00
 1.0751569318e+00	 1.3987810624e+00	-2.3796265134e+00
 1.0435038220e+00	 1.4205878136e+00	-2.4235581203e+00
 1.0112243699e+00	 1.4415502331e+00	-2.4598128235e+00
 9.7834257837e-01	 1.4616628821e+00	-2.4885307294e+00
 9.4488323681e-01	 1.4809217783e+00	-2.5098675717e+00
 9.1087184335e-01	 1.4993243899e+00	-2.5239928199e+00
 8.7633452576e-01	 1.5168696236e+00	-2.5310877397e+00
 8.4129796089e-01	 1.5335578069e+00	-2.5313434327e+00
 8.0578929328e-01	 1.5493906650e+00	-2.5249588808e+00
 7.6983605359e-01	 1.5643712924e+00	-2.5121390186e+00
 1.1154562249e+00	 1.3877012993e+00	-2.3475989268e+00
 1.0841920585e+00	 1.4105357781e+00	-2.3997475439e+00
 1.0522729505e+00	 1.4325257833e+00	-2.4440910724e+00
 1.0197222366e+00	 1.4536643614e+00	-2.4807557241e+00
 9.8656412157e-01	 1.4739460279e+00	-2.5098883528e+00
 9.5282360302e-01	 1.4933667671e+00	-2.5316545025e+00
 9.1852639338e-01	 1.5119240258e+00	-2.5462363462e+00
 8.8369883999e-01	 1.5296167016e+00	-2.5538305463e+00
 8.4836784386e-01	 1.5464451247e+00	-2.5546460665e+00
 8.1256077766e-01	 1.5624110349e+00	-2.5489019663e+00
 7.7630540340e-01	 1.5775175527e+00	-2.5368252058e+00
 7.1161215435e-01	 1.4460554561e+00	-2.3037033317e+00
 6.7799526040e-01	 1.4591185099e+00	-2.2861409347e+00
 6.4401912428e-01	 1.4714032966e+00	-2.2688353816e+00
 6.0970980142e-01	 1.4829162793e+00	-2.2518059144e+00
 5.7509340796e-01	 1.4936650386e+00	-2.2350003107e+00
 5.4019605011e-01	 1.5036582266e+00	-2.2182995769e+00
 5.0504375549e-01	 1.5129055177e+00	-2.2015230879e+00
 4.6966240691e-01	 1.5214175572e+00	-2.1844340717e+00
 4.3407767868e-01	 1.5292059076e+00	-2.1667453368e+00
 3.9831497595e-01	 1.5362829932e+00	-2.1481251488e+00
 3.6239937702e-01	 1.5426620430e+00	-2.1282031635e+00
 7.1808143623e-01	 1.4592015783e+00	-2.3251974654e+00
 6.8415893035e-01	 1.4723833886e+00	-2.3072356701e+00
 6.4987391643e-01	 1.4847798566e+00	-2.2894256887e+00
 6.1525268675e-01	 1.4963975041e+00	-2.2717948504e+00
 5.8032159489e-01	 1.5072439807e+00	-2.2542984683e+00
 5.4510698439e-01	 1.5173280169e+00	-2.2368245205e+00
 5.0963511948e-01	 1.5266593753e+00	-2.2191987836e+00
 4.7393211827e-01	 1.5352487979e+00	-2.2011903169e+00
 4.3802388849e-01	 1.5431079524e+00	-2.1825171944e+00
 4.0193606623e-01	 1.5502493760e+00	-2.1628523902e+00
 3.6569395779e-01	 1.5566864179e+00	-2.1418297251e+00
 7.2455073170e-01	 1.4723477282e+00	-2.3472004541e+00
 6.9032261325e-01	 1.4856482952e+00	-2.3289798557e+00
 6.5572872087e-01	 1.4981564447e+00	-2.3108038309e+00
 6.2079558372e-01	 1.5098787572e+00	-2.2927085371e+00
 5.8554979280e-01	 1.5208229512e+00	-2.2746574883e+00
 5.5001792898e-01	 1.5309978360e+00	-2.2565462237e+00
 5.1422649311e-01	 1.5404132618e+00	-2.2382074365e+00
 4.7820183860e-01	 1.5490800678e+00	-2.2194164596e+00
 4.4197010658e-01	 1.5570100265e+00	-2.1998970049e+00
 4.0555716412e-01	 1.5642157881e+00	-2.1793270611e+00
 3.6898854549e-01	 1.5707108222e+00	-2.1573448570e+00
 7.3102003925e-01	 1.4854939025e+00	-2.3696705473e+00
 6.9648630766e-01	 1.4989132266e+00	-2.3513276363e+00
 6.6158353624e-01	 1.5115330578e+00	-2.3329195411e+00
 6.2633849104e-01	 1.5233600355e+00	-2.3144919746e+00
 5.9077800047e-01	 1.5344019471e+00	-2.2960173044e+00
 5.5492888273e-01	 1.5446676805e+00	-2.2773992095e+00
 5.1881787531e-01	 1.5541671740e+00	-2.2584778063e+00
 4.8247156690e-01	 1.5629113634e+00	-2.2390351366e+00
 4.4591633204e-01	 1.5709121264e+00	-2.2188009176e+00
 4.0917826877e-01	 1.5781822263e+00	-2.1974584550e+00
 3.7228313933e-01	 1.5847352527e+00	-2.1746506268e+00
 7.3748935736e-01	 1.4986400984e+00	-2.3925674588e+00
 7.0265001213e-01	 1.5121781796e+00	-2.3742347648e+00
 6.6743836118e-01	 1.5249096927e+00	-2.3557243153e+00
 6.3188140741e-01	 1.5368413358e+00	-2.3370920921e+00
 5.9600621668e-01	 1.5479809651e+00	-2.3183199569e+00
 5.5983984451e-01	 1.5583375473e+00	-2.2993202977e+00
 5.2340926501e-01	 1.5679211087e+00	-2.2799411515e+00
 4.8674130217e-01	 1.5767426816e+00	-2.2599716983e+00
 4.4986256395e-01	 1.5848142491e+00	-2.2391480228e+00
 4.1279937933e-01	 1.5921486873e+00	-2.2171590469e+00
 3.7557773856e-01	 1.5987597061e+00	-2.1936525372e+00
 7.4395868453e-01	 1.5117863127e+00	-2.4158523029e+00
 7.0881372523e-01	 1.5254431512e+00	-2.3976585324e+00
 6.7329319431e-01	 1.5382863464e+00	-2.3791713361e+00
 6.3742433155e-01	 1.5503226549e+00	-2.3604576640e+00
 6.0123444021e-01	 1.5615600022e+00	-2.3415095015e+00
 5.6475081316e-01	 1.5720074333e+00	-2.3222485046e+00
 5.2800066113e-01	 1.5816750626e+00	-2.3025311208e+00
 4.9101104342e-01	 1.5905740192e+00	-2.2821540906e+00
 4.5380880138e-01	 1.5987163913e+00	-2.2608602243e+00
 4.1642049496e-01	 1.6061151678e+00	-2.2383443556e+00
 3.7887234240e-01	 1.6127841791e+00	-2.2142593771e+00
 7.5042801924e-01	 1.5249325422e+00	-2.4394875341e+00
 7.1497744552e-01	 1.5387081383e+00	-2.4215577026e+00
 6.7914803427e-01	 1.5516630156e+00	-2.4032153995e+00
 6.4296726214e-01	 1.5638039898e+00	-2.3845392303e+00
 6.0646266984e-01	 1.5751390551e+00	-2.3655319222e+00
 5.6966178755e-01	 1.5856773353e+00	-2.3461249486e+00
 5.3259206262e-01	 1.5954290326e+00	-2.3261836498e+00
 4.9528078965e-01	 1.6044053729e+00	-2.3055127433e+00
 4.5775504342e-01	 1.6126185497e+00	-2.2838621179e+00
 4.2004161482e-01	 1.6200816647e+00	-2.2609328119e+00
 3.8216695008e-01	 1.6268086685e+00	-2.2363830793e+00
 7.5689736000e-01	 1.5380787841e+00	-2.4634368901e+00
 7.2114117157e-01	 1.5519731378e+00	-2.4458924477e+00
 6.8500287970e-01	 1.5650396974e+00	-2.4278128464e+00
 6.4851019792e-01	 1.5772853373e+00	-2.4092890214e+00
 6.1169090434e-01	 1.5887181207e+00	-2.3903350490e+00
 5.7457276651e-01	 1.5993472500e+00	-2.3708927605e+00
 5.3718346838e-01	 1.6091830154e+00	-2.3508368639e+00
 4.9955053987e-01	 1.6182367396e+00	-2.3299804639e+00
 4.6170128914e-01	 1.6265207210e+00	-2.3080808766e+00
 4.2366273805e-01	 1.6340481746e+00	-2.2848456344e+00
 3.8546156084e-01	 1.6408331710e+00	-2.2599385871e+00
 7.6336670528e-01	 1.5512250352e+00	-2.4876653372e+00
 7.2730490193e-01	 1.5652381465e+00	-2.4706242898e+00
 6.9085772922e-01	 1.5784163885e+00	-2.4529214970e+00
 6.5405313757e-01	 1.5907666942e+00	-2.4346608862e+00
 6.1691914251e-01	 1.6022971957e+00	-2.4158684795e+00
 5.7948374892e-01	 1.6130171742e+00	-2.3964969982e+00
 5.4177487737e-01	 1.6229370078e+00	-2.3764309848e+00
 5.0382029307e-01	 1.6320681159e+00	-2.3554923367e+00
 4.6564753762e-01	 1.6404229021e+00	-2.3334461412e+00
 4.2728386382e-01	 1.6480146942e+00	-2.3100067117e+00
 3.8875617391e-01	 1.6548576833e+00	-2.2848437258e+00
 7.6983605359e-01	 1.5643712924e+00	-2.5121390186e+00
 7.3346863516e-01	 1.5785031615e+00	-2.4957160436e+00
 6.9671258148e-01	 1.5917930858e+00	-2.4785005888e+00
 6.5959607981e-01	 1.6042480574e+00	-2.4606102242e+00
 6.2214738312e-01	 1.6158762772e+00	-2.4420835050e+00
 5.8439473362e-01	 1.6266871049e+00	-2.4228845653e+00
 5.4636628849e-01	 1.6366910066e+00	-2.4029082432e+00
 5.0809004827e-01	 1.6458994987e+00	-2.3819856274e+00
 4.6959378794e-01	 1.6543250897e+00	-2.3598899168e+00
 4.3090499129e-01	 1.6619812204e+00	-2.3363424898e+00
 3.9205078851e-01	 1.6688822022e+00	-2.3110190824e+00
 7.7630540340e-01	 1.5775175527e+00	-2.5368252058e+00
 7.3963236984e-01	 1.5917681795e+00	-2.5211317628e+00
 7.0256743511e-01	 1.6051697863e+00	-2.5045107171e+00
 6.6513902335e-01	 1.6177294238e+00	-2.4870939210e+00
 6.2737562495e-01	 1.6294553618e+00	-2.4689330396e+00
 5.8930571946e-01	 1.6403570387e+00	-2.4500041351e+00
 5.5095770069e-01	 1.6504450087e+00	-2.4302127945e+00
 5.1235980447e-01	 1.6597308847e+00	-2.4093996919e+00
 4.7354003919e-01	 1.6682272805e+00	-2.3873464743e+00
 4.3452611959e-01	 1.6759477498e+00	-2.3637818659e+00
 3.9534540388e-01	 1.6829067243e+00	-2.3383878901e+00
 3.6239937702e-01	 1.5426620430e+00	-2.1282031635e+00
 3.2635305857e-01	 1.5483574077e+00	-2.1091564909e+00
 2.9020283246e-01	 1.5533832833e+00	-2.0932960826e+00
 2.5397252632e-01	 1.5577549656e+00	-2.0804184487e+00
 2.1768544223e-01	 1.5614883203e+00	-2.0703155852e+00
 1.8136431664e-01	 1.5645997240e+00	-2.0627762043e+00
 1.4503128419e-01	 1.5671060055e+00	-2.0575868931e+00
 1.0870784521e-01	 1.5690243886e+00	-2.0545331954e+00
 7.2414836991e-02	 1.5703724351e+00	-2.0534006145e+00
 3.6172408703e-02	 1.5711679898e+00	-2.0539755341e+00
 0.0000000000e+00	 1.5714291270e+00	-2.0560460564e+00
 3.6569395779e-01	 1.5566864179e+00	-2.1418297251e+00
 3.2931994147e-01	 1.5624335593e+00	-2.1217254931e+00
 2.9284107285e-01	 1.5675051252e+00	-2.1049465861e+00
 2.5628139620e-01	 1.5719165505e+00	-2.0912862102e+00
 2.1966442542e-01	 1.5756838453e+00	-2.0805306235e+00
 1.8301310367e-01	 1.5788235348e+00	-2.0724606047e+00
 1.4634976681e-01	 1.5813526010e+00	-2.0668528505e+00
 1.0969611065e-01	 1.5832884241e+00	-2.0634812933e+00
 7.3073161881e-02	 1.5846487257e+00	-2.0621183352e+00
 3.6501252874e-02	 1.5854515129e+00	-2.0625359914e+00
 0.0000000000e+00	 1.5857150240e+00	-2.0645069428e+00
 3.6898854549e-01	 1.5707108222e+00	-2.1573448570e+00
 3.3228683060e-01	 1.5765097404e+00	-2.1363200797e+00
 2.9547931878e-01	 1.5816269967e+00	-2.1187485661e+00
 2.5859027092e-01	 1.5860781652e+00	-2.1044188631e+00
 2.2164341276e-01	 1.5898794000e+00	-2.0931104195e+00
 1.8466189416e-01	 1.5930473755e+00	-2.0845952773e+00
 1.4766825221e-01	 1.5955992264e+00	-2.0786396903e+00
 1.1068437816e-01	 1.5975524896e+00	-2.0750056604e+00
 7.3731488155e-02	 1.5989250463e+00	-2.0734523824e+00
 3.6830097735e-02	 1.5997350659e+00	-2.0737375930e+00
 0.0000000000e+00	 1.6000009511e+00	-2.0756188172e+00
 3.7228313933e-01	 1.5847352527e+00	-2.1746506268e+00
 3.3525372526e-01	 1.5905859478e+00	-2.1528355413e+00
 2.9811756963e-01	 1.5957488947e+00	-2.1345918176e+00
 2.6089914995e-01	 1.6002398064e+00	-2.1197019995e+00
 2.2362240379e-01	 1.6040749813e+00	-2.1079376612e+00
 1.8631068772e-01	 1.6072712427e+00	-2.0990613047e+00
 1.4898674006e-01	 1.6098458784e+00	-2.0928281843e+00
 1.1167264751e-01	 1.6118165817e+00	-2.0889880419e+00
 7.4389815656e-02	 1.6132013936e+00	-2.0872867467e+00
 3.7158943210e-02	 1.6140186456e+00	-2.0874678283e+00
 0.0000000000e+00	 1.6142869048e+00	-2.0892739008e+00
 3.7557773856e-01	 1.5987597061e+00	-2.1936525372e+00
 3.3822062478e-01	 1.6046621782e+00	-2.1711708419e+00
 3.0075582480e-01	 1.6098708156e+00	-2.1523700015e+00
 2.6320803275e-01	 1.6144014706e+00	-2.1370252250e+00
 2.2560139806e-01	 1.6182705858e+00	-2.1248991516e+00
 1.8795948398e-01	 1.6214951332e+00	-2.1157439411e+00
 1.5030523007e-01	 1.6240925536e+00	-2.1093032863e+00
 1.1266091848e-01	 1.6260806971e+00	-2.1053143316e+00
 7.5048144234e-02	 1.6274777642e+00	-2.1035094878e+00
 3.7487789222e-02	 1.6283022487e+00	-2.1036181333e+00
 0.0000000000e+00	 1.6285728819e+00	-2.1053681955e+00
 3.7887234240e-01	 1.6127841791e+00	-2.2142593771e+00
 3.4118752844e-01	 1.6187384282e+00	-2.1912284584e+00
 3.0339408365e-01	 1.6239927564e+00	-2.1719804766e+00
 2.6551691879e-01	 1.6285631547e+00	-2.1562819838e+00
 2.2758039510e-01	 1.6324662101e+00	-2.1438856301e+00
 1.8960828255e-01	 1.6357190435e+00	-2.1345324308e+00
 1.5162372192e-01	 1.6383392488e+00	-2.1279539512e+00
 1.1364919083e-01	 1.6403448325e+00	-2.1238743910e+00
 7.5706473732e-02	 1.6417541548e+00	-2.1220125581e+00
 3.7816635694e-02	 1.6425858717e+00	-2.1220837189e+00
 0.0000000000e+00	 1.6428588790e+00	-2.1238013192e+00
 3.8216695008e-01	 1.6268086685e+00	-2.2363830793e+00
 3.4415443557e-01	 1.6328146948e+00	-2.2129142302e+00
 3.0603234559e-01	 1.6381147136e+00	-2.1933241400e+00
 2.6782580751e-01	 1.6427248553e+00	-2.1773693937e+00
 2.2955939445e-01	 1.6466618510e+00	-2.1647916029e+00
 1.9125708305e-01	 1.6499429705e+00	-2.1553198365e+00
 1.5294221531e-01	 1.6525859606e+00	-2.1486729616e+00
 1.1463746433e-01	 1.6546089846e+00	-2.1445618786e+00
 7.6364803998e-02	 1.6560305621e+00	-2.1426916351e+00
 3.8145482550e-02	 1.6568695114e+00	-2.1427634086e+00
 0.0000000000e+00	 1.6571448927e+00	-2.1444763504e+00
 3.8546156084e-01	 1.6408331710e+00	-2.2599385871e+00
 3.4712134546e-01	 1.6468909744e+00	-2.2361372145e+00
 3.0867060998e-01	 1.6522366840e+00	-2.2163052761e+00
 2.7013469840e-01	 1.6568865692e+00	-2.2001880888e+00
 2.3153839564e-01	 1.6608575052e+00	-2.1875151819e+00
 1.9290588508e-01	 1.6641669108e+00	-2.1780028758e+00
 1.5426070993e-01	 1.6668326858e+00	-2.1713567653e+00
 1.1562573876e-01	 1.6688731499e+00	-2.1672740877e+00
 7.7023134879e-02	 1.6703069826e+00	-2.1654459614e+00
 3.8474329713e-02	 1.6711531645e+00	-2.1655594839e+00
 0.0000000000e+00	 1.6714309198e+00	-2.1672996800e+00
 3.8875617391e-01	 1.6548576833e+00	-2.2848437258e+00
 3.5008825743e-01	 1.6609672639e+00	-2.2608095509e+00
 3.1130887623e-01	 1.6663586643e+00	-2.2408314131e+00
 2.7244359090e-01	 1.6710482929e+00	-2.2246420710e+00
 2.3351739822e-01	 1.6750531693e+00	-2.2119579319e+00
 1.9455468826e-01	 1.6783908610e+00	-2.2024817667e+00
 1.5557920547e-01	 1.6810794208e+00	-2.1959053191e+00
 1.1661401388e-01	 1.6831373252e+00	-2.1919117921e+00
 7.7681466220e-02	 1.6845834132e+00	-2.1901781946e+00
 3.8803177105e-02	 1.6854368275e+00	-2.1903775377e+00
 0.0000000000e+00	 1.6857169568e+00	-2.1921808712e+00
 3.9205078851e-01	 1.6688822022e+00	-2.3110190824e+00
 3.5305517079e-01	 1.6750435600e+00	-2.2868463312e+00
 3.1394714370e-01	 1.6804806512e+00	-2.2668131868e+00
 2.7475248447e-01	 1.6852100233e+00	-2.2506385680e+00
 2.3549640172e-01	 1.6892488400e+00	-2.2380247259e+00
 1.9620349222e-01	 1.6926148178e+00	-2.2286600804e+00
 1.5689770163e-01	 1.6953261626e+00	-2.2222219419e+00
 1.1760228946e-01	 1.6974015072e+00	-2.2183791003e+00
 7.8339797868e-02	 1.6988598504e+00	-2.2167942634e+00
 3.9132024651e-02	 1.6997204972e+00	-2.2171263357e+00
 0.0000000000e+00	 1.7000030006e+00	-2.2190325262e+00
 3.9534540388e-01	 1.6829067243e+00	-2.3383878901e+00
 3.5602208484e-01	 1.6891198593e+00	-2.3141654769e+00
 3.1658541179e-01	 1.6946026414e+00	-2.2941642109e+00
 2.7706137859e-01	 1.6993717569e+00	-2.2780878993e+00
 2.3747540569e-01	 1.7034445140e+00	-2.2656236069e+00
 1.9785229655e-01	 1.7068387780e+00	-2.2564446017e+00
 1.5821619810e-01	 1.7095729076e+00	-2.2502131748e+00
 1.1859056526e-01	 1.7116656925e+00	-2.2465833164e+00
 7.8998129670e-02	 1.7131362910e+00	-2.2452032315e+00
 3.9460872273e-02	 1.7140041702e+00	-2.2457176836e+00
 0.0000000000e+00	 1.7142890476e+00	-2.2477701594e+00
 1.7142890476e+00	 0.0000000000e+00	 2.2125741713e+00
 1.7140041702e+00	 3.9460872273e-02	 2.2098978960e+00
 1.7131362910e+00	 7.8998129670e-02	 2.1970890846e+00
 1.7116656925e+00	 1.1859056526e-01	 2.1739567777e+00
 1.7095729076e+00	 1.5821619810e-01	 2.1403378648e+00
 1.7068387780e+00	 1.9785229655e-01	 2.0961009437e+00
 1.7034445140e+00	 2.3747540569e-01	 2.0411502790e+00
 1.6993717569e+00	 2.7706137859e-01	 1.9754298243e+00
 1.6946026414e+00	 3.1658541179e-01	 1.8989272661e+00
 1.6891198593e+00	 3.5602208484e-01	 1.8116780418e+00
 1.6829067243e+00	 3.9534540388e-01	 1.7137692802e+00
 1.7285740955e+00	 0.0000000000e+00	 2.1990935221e+00
 1.7282868443e+00	 3.9789696896e-02	 2.1972495204e+00
 1.7274117330e+00	 7.9656415427e-02	 2.1849247164e+00
 1.7259288802e+00	 1.1957877195e-01	 2.1619682146e+00
 1.7238186563e+00	 1.5953460235e-01	 2.1282593121e+00
 1.7210617433e+00	 1.9950098557e-01	 2.0837112380e+00
 1.7176391952e+00	 2.3945427124e-01	 2.0282749583e+00
 1.7135325001e+00	 2.7937011122e-01	 1.9619430082e+00
 1.7087236439e+00	 3.1922349536e-01	 1.8847533081e+00
 1.7031951742e+00	 3.5898879138e-01	 1.7967929159e+00
 1.6969302655e+00	 3.9863978883e-01	 1.6982016616e+00
 1.7428591451e+00	 0.0000000000e+00	 2.1850373556e+00
 1.7425695200e+00	 4.0118521557e-02	 2.1842440646e+00
 1.7416871767e+00	 8.0314701260e-02	 2.1725736345e+00
 1.7401920695e+00	 1.2056697876e-01	 2.1499209438e+00
 1.7380644066e+00	 1.6085300675e-01	 2.1162136530e+00
 1.7352847103e+00	 2.0114967479e-01	 2.0714157945e+00
 1.7318338780e+00	 2.4143313702e-01	 2.0155313865e+00
 1.7276932449e+00	 2.8167884412e-01	 1.9486080332e+00
 1.7228446480e+00	 3.2186157924e-01	 1.8707404654e+00
 1.7172704907e+00	 3.6195549827e-01	 1.7820739732e+00
 1.7109538084e+00	 4.0193417416e-01	 1.6828076767e+00
 1.7571441980e+00	 0.0000000000e+00	 2.1703507856e+00
 1.7568521990e+00	 4.0447346294e-02	 2.1708289989e+00
 1.7559626238e+00	 8.0972987247e-02	 2.1599859224e+00
 1.7544552621e+00	 1.2155518579e-01	 2.1377677617e+00
 1.7523101602e+00	 1.6217141146e-01	 2.1041563353e+00
 1.7495076806e+00	 2.0279836438e-01	 2.0591724824e+00
 1.7460285641e+00	 2.4341200327e-01	 2.0028794511e+00
 1.7418539931e+00	 2.8398757756e-01	 1.9353862237e+00
 1.7369656554e+00	 3.2449966374e-01	 1.8568507357e+00
 1.7313458104e+00	 3.6492220586e-01	 1.7674829355e+00
 1.7249773546e+00	 4.0522856026e-01	 1.6675476344e+00
 1.7714292559e+00	 0.0000000000e+00	 2.1549806980e+00
 1.7711348830e+00	 4.0776171146e-02	 2.1569534893e+00
 1.7702380758e+00	 8.1631273464e-02	 2.1471132744e+00
 1.7687184598e+00	 1.2254339317e-01	 2.1254629886e+00
 1.7665559188e+00	 1.6348981663e-01	 2.0920442450e+00
 1.7637306559e+00	 2.0444705456e-01	 2.0469405312e+00
 1.7602232552e+00	 2.4539087020e-01	 1.9902803345e+00
 1.7560147461e+00	 2.8629631180e-01	 1.9222401526e+00
 1.7510866678e+00	 3.2713774915e-01	 1.8430473432e+00
 1.7454211351e+00	 3.6788891448e-01	 1.7529827602e+00
 1.7390009056e+00	 4.0852294751e-01	 1.6523831247e+00
 1.7857143204e+00	 0.0000000000e+00	 2.1388756796e+00
 1.7854175737e+00	 4.1104996152e-02	 2.1425683299e+00
 1.7845135346e+00	 8.2289559989e-02	 2.1339089321e+00
 1.7829816641e+00	 1.2353160101e-01	 2.1129624072e+00
 1.7808016841e+00	 1.6480822242e-01	 2.0798356485e+00
 1.7779536378e+00	 2.0609574550e-01	 2.0346804756e+00
 1.7744179530e+00	 2.4736973806e-01	 1.9776964621e+00
 1.7701755058e+00	 2.8860504713e-01	 1.9091335911e+00
 1.7652076867e+00	 3.2977583580e-01	 1.8292946898e+00
 1.7594964664e+00	 3.7085562448e-01	 1.7385375905e+00
 1.7530244632e+00	 4.1181733630e-01	 1.6372769671e+00
 1.7999993933e+00	 0.0000000000e+00	 2.1219859511e+00
 1.7997002727e+00	 4.1433821349e-02	 2.1276258781e+00
 1.7987890016e+00	 8.2947846897e-02	 2.1203276222e+00
 1.7972448767e+00	 1.2451980942e-01	 2.1002232051e+00
 1.7950474576e+00	 1.6612662897e-01	 2.0674901380e+00
 1.7921766280e+00	 2.0774443740e-01	 2.0223541038e+00
 1.7886126590e+00	 2.4934860708e-01	 1.9650914525e+00
 1.7843362738e+00	 2.9091378380e-01	 1.8960314612e+00
 1.7793287139e+00	 3.3241392399e-01	 1.8155583081e+00
 1.7735718059e+00	 3.7382233622e-01	 1.7241127087e+00
 1.7670480290e+00	 4.1511172701e-01	 1.6221931623e+00
 1.8142844762e+00	 0.0000000000e+00	 2.1042633024e+00
 1.8139829818e+00	 4.1762646777e-02	 2.1120799932e+00
 1.8130644786e+00	 8.3606134266e-02	 2.1063254987e+00
 1.8115080993e+00	 1.2550801853e-01	 2.0872039193e+00
 1.8092932412e+00	 1.6744503645e-01	 2.0549685792e+00
 1.8063996282e+00	 2.0939313046e-01	 2.0099244086e+00
 1.8028073749e+00	 2.5132747748e-01	 1.9524300714e+00
 1.7984970517e+00	 2.9322252208e-01	 1.8828997905e+00
 1.7934497510e+00	 3.3505201402e-01	 1.8018048169e+00
 1.7876471552e+00	 3.7678905003e-01	 1.7096744915e+00
 1.7810716046e+00	 4.1840612003e-01	 1.6070968455e+00
 1.8285695708e+00	 0.0000000000e+00	 2.0856610316e+00
 1.8282657025e+00	 4.2091472473e-02	 2.0958859775e+00
 1.8273399673e+00	 8.4264422173e-02	 2.0918600869e+00
 1.8257713336e+00	 1.2649622845e-01	 2.0738643833e+00
 1.8235390363e+00	 1.6876344501e-01	 2.0422330617e+00
 1.8206226400e+00	 2.1104182487e-01	 1.9973555399e+00
 1.8170021025e+00	 2.5330634949e-01	 1.9396781859e+00
 1.8126578411e+00	 2.9553126226e-01	 1.8697056689e+00
 1.8075707996e+00	 3.3769010621e-01	 1.7880018792e+00
 1.8017225160e+00	 3.7975576626e-01	 1.6951903666e+00
 1.7950951916e+00	 4.2170051574e-01	 1.5919542421e+00
 1.8428546786e+00	 0.0000000000e+00	 2.0661338866e+00
 1.8425484365e+00	 4.2420298476e-02	 2.0790005210e+00
 1.8416154693e+00	 8.4922710694e-02	 2.0768902302e+00
 1.8400345811e+00	 1.2748443928e-01	 2.0601656773e+00
 1.8377848448e+00	 1.7008185479e-01	 2.0292468514e+00
 1.8348456650e+00	 2.1269052081e-01	 1.9846127602e+00
 1.8311968433e+00	 2.5528522336e-01	 1.9268027227e+00
 1.8268186438e+00	 2.9784000458e-01	 1.8564172075e+00
 1.8216918614e+00	 3.4032820086e-01	 1.7741181612e+00
 1.8157978900e+00	 3.8272248527e-01	 1.6806287728e+00
 1.8091187918e+00	 4.2499491452e-01	 1.5767326256e+00
 1.8571398015e+00	 0.0000000000e+00	 2.0456380093e+00
 1.8568311855e+00	 4.2749124825e-02	 2.0613816474e+00
 1.8558909863e+00	 8.5580999907e-02	 2.0613760396e+00
 1.8542978437e+00	 1.2847265116e-01	 2.0460700800e+00
 1.8520306682e+00	 1.7140026596e-01	 2.0159743456e+00
 1.8490687050e+00	 2.1433921849e-01	 1.9716624016e+00
 1.8453915989e+00	 2.5726409930e-01	 1.9137716266e+00
 1.8409794613e+00	 3.0014874933e-01	 1.8430034997e+00
 1.8358129380e+00	 3.4296629828e-01	 1.7601232939e+00
 1.8298732788e+00	 3.8568920739e-01	 1.6659591207e+00
 1.8231424066e+00	 4.2828931676e-01	 1.5614002770e+00
 1.6829067243e+00	 3.9534540388e-01	 1.7137692802e+00
 1.6759477498e+00	 4.3452611959e-01	 1.6051811263e+00
 1.6682272805e+00	 4.7354003919e-01	 1.4863521907e+00
 1.6597308847e+00	 5.1235980447e-01	 1.3581515862e+00
 1.6504450087e+00	 5.5095770069e-01	 1.2214869579e+00
 1.6403570387e+00	 5.8930571946e-01	 1.0772994998e+00
 1.6294553618e+00	 6.2737562495e-01	 9.2655829699e-01
 1.6177294238e+00	 6.6513902335e-01	 7.7025401999e-01
 1.6051697863e+00	 7.0256743511e-01	 6.0939201035e-01
 1.5917681795e+00	 7.3963236984e-01	 4.4498481049e-01
 1.5775175527e+00	 7.7630540340e-01	 2.7804420604e-01
 1.6969302655e+00	 3.9863978883e-01	 1.6982016616e+00
 1.6899133024e+00	 4.3814699464e-01	 1.5889377524e+00
 1.6821284990e+00	 4.7748601443e-01	 1.4693957855e+00
 1.6735613033e+00	 5.1662926203e-01	 1.3404653001e+00
 1.6641980487e+00	 5.5554879177e-01	 1.2030743393e+00
 1.6540260165e+00	 5.9421636183e-01	 1.0581842611e+00
 1.6430334966e+00	 6.3260350112e-01	 9.0678386255e-01
 1.6312098473e+00	 6.7068157921e-01	 7.4988284342e-01
 1.6185455512e+00	 7.0842187924e-01	 5.8850465291e-01
 1.6050322698e+00	 7.4579567342e-01	 4.2367877420e-01
 1.5906628935e+00	 7.8277430074e-01	 2.5643251849e-01
 1.7109538084e+00	 4.0193417416e-01	 1.6828076767e+00
 1.7038788566e+00	 4.4176787011e-01	 1.5728852096e+00
 1.6960297191e+00	 4.8143199014e-01	 1.4526584935e+00
 1.6873917235e+00	 5.2089872010e-01	 1.3230349409e+00
 1.6779510904e+00	 5.6013988338e-01	 1.1849603920e+00
 1.6676949958e+00	 5.9912700477e-01	 1.0394137403e+00
 1.6566116331e+00	 6.3783137789e-01	 8.8740085793e-01
 1.6446902723e+00	 6.7622413571e-01	 7.2994785163e-01
 1.6319213177e+00	 7.1427632406e-01	 5.6809369328e-01
 1.6182963616e+00	 7.5195897772e-01	 4.0288228369e-01
 1.6038082358e+00	 7.8924319884e-01	 2.3535402365e-01
 1.7249773546e+00	 4.0522856026e-01	 1.6675476344e+00
 1.7178444141e+00	 4.4538874642e-01	 1.5569817895e+00
 1.7099309424e+00	 4.8537796676e-01	 1.4360966852e+00
 1.7012221470e+00	 5.2516817917e-01	 1.3058151168e+00
 1.6917041353e+00	 5.6473097606e-01	 1.1670981862e+00
 1.6813639784e+00	 6.0403764886e-01	 1.0209397583e+00
 1.6701897727e+00	 6.4305925589e-01	 8.6836020964e-01
 1.6581707005e+00	 6.8176669352e-01	 7.1039949690e-01
 1.6452970872e+00	 7.2013077025e-01	 5.4810959489e-01
 1.6315604565e+00	 7.5812228347e-01	 3.8254636323e-01
 1.6169535813e+00	 7.9571209846e-01	 2.1476091911e-01
 1.7390009056e+00	 4.0852294751e-01	 1.6523831247e+00
 1.7318099765e+00	 4.4900962400e-01	 1.5411871298e+00
 1.7238321706e+00	 4.8932394477e-01	 1.4196681388e+00
 1.7150525753e+00	 5.2943763972e-01	 1.2887619012e+00
 1.7054571851e+00	 5.6932207035e-01	 1.1494423064e+00
 1.6950329657e+00	 6.0894829467e-01	 1.0027156909e+00
 1.6837679171e+00	 6.4828713572e-01	 8.4961442766e-01
 1.6716511334e+00	 6.8730925326e-01	 6.9118983025e-01
 1.6586728615e+00	 7.2598521848e-01	 5.2850441956e-01
 1.6448245561e+00	 7.6428559136e-01	 3.6262361731e-01
 1.6300989313e+00	 8.0218100033e-01	 1.9460694479e-01
 1.7530244632e+00	 4.1181733630e-01	 1.6372769671e+00
 1.7457755454e+00	 4.5263050327e-01	 1.5254621604e+00
 1.7377334053e+00	 4.9326992462e-01	 1.4033319843e+00
 1.7288830101e+00	 5.3370710228e-01	 1.2718327732e+00
 1.7192102412e+00	 5.7391316678e-01	 1.1319487910e+00
 1.7087019594e+00	 6.1385894277e-01	 9.8469640607e-01
 1.6973460678e+00	 6.5351501798e-01	 8.3111754215e-01
 1.6851315726e+00	 6.9285181559e-01	 6.7227243751e-01
 1.6720486420e+00	 7.3183966945e-01	 5.0923176349e-01
 1.6580886618e+00	 7.7044890214e-01	 3.4306816744e-01
 1.6432442874e+00	 8.0864990522e-01	 1.7484732128e-01
 1.7670480290e+00	 4.1511172701e-01	 1.6221931623e+00
 1.7597411225e+00	 4.5625138465e-01	 1.5097690521e+00
 1.7516346481e+00	 4.9721590677e-01	 1.3870486498e+00
 1.7427134529e+00	 5.3797656732e-01	 1.2549865629e+00
 1.7329633053e+00	 5.7850426589e-01	 1.1145750746e+00
 1.7223709611e+00	 6.1876959373e-01	 9.6683820535e-01
 1.7109242264e+00	 6.5874290330e-01	 8.1282504307e-01
 1.6986120196e+00	 6.9839438115e-01	 6.5360237839e-01
 1.6854244303e+00	 7.3769412383e-01	 4.9024669644e-01
 1.6713527753e+00	 7.7661221651e-01	 3.2383559198e-01
 1.6563896513e+00	 8.1511881389e-01	 1.5543869108e-01
 1.7810716046e+00	 4.1840612003e-01	 1.6070968455e+00
 1.7737067093e+00	 4.5987226857e-01	 1.4940711681e+00
 1.7655359007e+00	 5.0116189168e-01	 1.3707798105e+00
 1.7565439054e+00	 5.4224603535e-01	 1.2381833972e+00
 1.7467163791e+00	 5.8309536821e-01	 1.0972799329e+00
 1.7360399723e+00	 6.2368024813e-01	 9.4909876700e-01
 1.7245023945e+00	 6.6397079227e-01	 7.9469382278e-01
 1.7120924761e+00	 7.0393695059e-01	 6.3513612851e-01
 1.6988002280e+00	 7.4354858231e-01	 4.7150570372e-01
 1.6846168981e+00	 7.8277553519e-01	 3.0488286874e-01
 1.6695350243e+00	 8.2158772709e-01	 1.3633906263e-01
 1.7950951916e+00	 4.2170051574e-01	 1.5919542421e+00
 1.7876723075e+00	 4.6349315544e-01	 1.4783330168e+00
 1.7794371646e+00	 5.0510787982e-01	 1.3544883397e+00
 1.7703743692e+00	 5.4651550686e-01	 1.2213846499e+00
 1.7604694641e+00	 5.8768647429e-01	 1.0800234305e+00
 1.7497089947e+00	 6.2859090654e-01	 9.3143709238e-01
 1.7380805737e+00	 6.6919868552e-01	 7.7668212125e-01
 1.7255729436e+00	 7.0947952455e-01	 6.1683152410e-01
 1.7121760366e+00	 7.4940304557e-01	 4.5296663086e-01
 1.6978810317e+00	 7.8893885891e-01	 2.8616832038e-01
 1.6826804081e+00	 8.2805664557e-01	 1.1750775695e-01
 1.8091187918e+00	 4.2499491452e-01	 1.5767326256e+00
 1.8016379188e+00	 4.6711404570e-01	 1.4625202080e+00
 1.7933384415e+00	 5.0905387163e-01	 1.3381382627e+00
 1.7842048459e+00	 5.5078498236e-01	 1.2045528933e+00
 1.7742225620e+00	 5.9227758464e-01	 1.0627668708e+00
 1.7633780299e+00	 6.3350156954e-01	 9.1381345469e-01
 1.7516587656e+00	 6.7442658364e-01	 7.5874947386e-01
 1.7390534237e+00	 7.1502210369e-01	 5.9864770922e-01
 1.7255518577e+00	 7.5525751430e-01	 4.3458863096e-01
 1.7111451776e+00	 7.9510218838e-01	 2.6765156226e-01
 1.6958258041e+00	 8.3452557008e-01	 9.8905356787e-02
 1.8231424066e+00	 4.2828931676e-01	 1.5614002770e+00
 1.8156035447e+00	 4.7073493975e-01	 1.4465994105e+00
 1.8072397329e+00	 5.1299986759e-01	 1.3216947125e+00
 1.7980353372e+00	 5.5505446234e-01	 1.1876518516e+00
 1.7879756743e+00	 5.9686869982e-01	 1.0454727488e+00
 1.7770470794e+00	 6.3841223768e-01	 8.9618935008e-01
 1.7652369718e+00	 6.7965448725e-01	 7.4085666154e-01
 1.7525339179e+00	 7.2056468865e-01	 5.8054508555e-01
 1.7389276928e+00	 7.6111198917e-01	 4.1633211436e-01
 1.7244093376e+00	 8.0126552432e-01	 2.4929345274e-01
 1.7089712139e+00	 8.4099450139e-01	 8.0493658071e-02
 1.5775175527e+00	 7.7630540340e-01	 2.7804420604e-01
 1.5624110349e+00	 8.1256077766e-01	 1.0894814626e-01
 1.5464451247e+00	 8.4836784386e-01	-6.1758025355e-02
 1.5296167016e+00	 8.8369883999e-01	-2.3286204977e-01
 1.5119240258e+00	 9.1852639338e-01	-4.0317312776e-01
 1.4933667671e+00	 9.5282360302e-01	-5.7153253427e-01
 1.4739460279e+00	 9.8656412157e-01	-7.3682427504e-01
 1.4536643614e+00	 1.0197222366e+00	-8.9798562887e-01
 1.4325257833e+00	 1.0522729505e+00	-1.0540174135e+00
 1.4105357781e+00	 1.0841920585e+00	-1.2039938104e+00
 1.3877012993e+00	 1.1154562249e+00	-1.3470715860e+00
 1.5906628935e+00	 7.8277430074e-01	 2.5643251849e-01
 1.5754304942e+00	 8.1933178845e-01	 8.7170152455e-02
 1.5593315412e+00	 8.5543723236e-01	-8.3562475972e-02
 1.5423628881e+00	 8.9106263915e-01	-2.5457770053e-01
 1.5245227805e+00	 9.2618040805e-01	-4.2470934855e-01
 1.5058108854e+00	 9.6076341389e-01	-5.9282316265e-01
 1.4862283146e+00	 9.9478508976e-01	-7.5782725976e-01
 1.4657776425e+00	 1.0282195090e+00	-9.1868247346e-01
 1.4444629181e+00	 1.0610414656e+00	-1.0744124205e+00
 1.4222896718e+00	 1.0932265533e+00	-1.2241131297e+00
 1.3992649148e+00	 1.1247512417e+00	-1.3669620737e+00
 1.6038082358e+00	 7.8924319884e-01	 2.3535402365e-01
 1.5884499550e+00	 8.2610280002e-01	 6.5941606500e-02
 1.5722179592e+00	 8.6250662169e-01	-1.0480491243e-01
 1.5551090760e+00	 8.9842643918e-01	-2.7572239074e-01
 1.5371215366e+00	 9.3383442362e-01	-4.4566917228e-01
 1.5182550052e+00	 9.6870322568e-01	-6.1353531480e-01
 1.4985106028e+00	 1.0030060589e+00	-7.7825285041e-01
 1.4778909249e+00	 1.0367167824e+00	-9.3880592757e-01
 1.4564000543e+00	 1.0698099818e+00	-1.0942406783e+00
 1.4340435668e+00	 1.1022610491e+00	-1.2436746517e+00
 1.4108285318e+00	 1.1340462597e+00	-1.3863056577e+00
 1.6169535813e+00	 7.9571209846e-01	 2.1476091911e-01
 1.6014694189e+00	 8.3287381318e-01	 4.5216261231e-02
 1.5851043802e+00	 8.6957601267e-01	-1.2552991761e-01
 1.5678552669e+00	 9.0579024092e-01	-2.9633893213e-01
 1.5497202957e+00	 9.4148844097e-01	-4.6609353526e-01
 1.5306991280e+00	 9.7664303932e-01	-6.3370795041e-01
 1.5107928938e+00	 1.0112270300e+00	-7.9813793244e-01
 1.4900042102e+00	 1.0452140577e+00	-9.5839070884e-01
 1.4683371932e+00	 1.0785785000e+00	-1.1135346476e+00
 1.4457974646e+00	 1.1112955471e+00	-1.2627084960e+00
 1.4223921514e+00	 1.1433412798e+00	-1.4051300374e+00
 1.6300989313e+00	 8.0218100033e-01	 1.9460694479e-01
 1.6144888873e+00	 8.3964482870e-01	 2.4949361645e-02
 1.5979908058e+00	 8.7664540612e-01	-1.4578063597e-01
 1.5806014623e+00	 9.1315404524e-01	-3.1646875515e-01
 1.5623190591e+00	 9.4914246100e-01	-4.8602205300e-01
 1.5431432550e+00	 9.8458285574e-01	-6.5337877214e-01
 1.5230751891e+00	 1.0194480039e+00	-8.1751820120e-01
 1.5021174997e+00	 1.0537113361e+00	-9.7747041470e-01
 1.4802743364e+00	 1.0873470213e+00	-1.1323257417e+00
 1.4575513664e+00	 1.1203300482e+00	-1.2812438103e+00
 1.4339557751e+00	 1.1526363031e+00	-1.4234620184e+00
 1.6432442874e+00	 8.0864990522e-01	 1.7484732128e-01
 1.6275083617e+00	 8.4641584738e-01	 5.0975852161e-03
 1.6108772373e+00	 8.8371480287e-01	-1.6559883102e-01
 1.5933476636e+00	 9.2051785299e-01	-3.3615196417e-01
 1.5749178285e+00	 9.5679648460e-01	-5.0549307305e-01
 1.5555873879e+00	 9.9252267587e-01	-6.7258427591e-01
 1.5353574902e+00	 1.0276689817e+00	-8.3642820952e-01
 1.5142307949e+00	 1.0622086184e+00	-9.9607756723e-01
 1.4922114851e+00	 1.0961155467e+00	-1.1506443684e+00
 1.4693052738e+00	 1.1293645536e+00	-1.2993088092e+00
 1.4455194041e+00	 1.1619313308e+00	-1.4413275483e+00
 1.6563896513e+00	 8.1511881389e-01	 1.5543869108e-01
 1.6405278438e+00	 8.5318687002e-01	-1.4381014945e-02
 1.6237636764e+00	 8.9078420374e-01	-1.8502494017e-01
 1.6060938724e+00	 9.2788166504e-01	-3.5542739014e-01
 1.5875166052e+00	 9.6445051267e-01	-5.2454372531e-01
 1.5680315280e+00	 1.0004625006e+00	-6.9135979877e-01
 1.5476397984e+00	 1.0358899643e+00	-8.5490141303e-01
 1.5263440971e+00	 1.0707059056e+00	-1.0142436558e+00
 1.5041486408e+00	 1.1048840772e+00	-1.1685199698e+00
 1.4810591880e+00	 1.1383990642e+00	-1.3169308113e+00
 1.4570830399e+00	 1.1712263640e+00	-1.4587517505e+00
 1.6695350243e+00	 8.2158772709e-01	 1.3633906263e-01
 1.6535473350e+00	 8.5995789739e-01	-3.3527064246e-02
 1.6366501244e+00	 8.9785360957e-01	-2.0409812689e-01
 1.6188400901e+00	 9.3524548225e-01	-3.7433264070e-01
 1.6001153907e+00	 9.7210454610e-01	-5.4320996994e-01
 1.5804756768e+00	 1.0084023309e+00	-7.0973956452e-01
 1.5599221152e+00	 1.0441109526e+00	-8.7297021340e-01
 1.5384574079e+00	 1.0792031988e+00	-1.0319991776e+00
 1.5160858048e+00	 1.1136526138e+00	-1.1859810607e+00
 1.4928131105e+00	 1.1474335811e+00	-1.3341362746e+00
 1.4686466838e+00	 1.1805214036e+00	-1.4757589568e+00
 1.6826804081e+00	 8.2805664557e-01	 1.1750775695e-01
 1.6665668368e+00	 8.6672893029e-01	-5.2379918232e-02
 1.6495365830e+00	 9.0492302116e-01	-2.2285633051e-01
 1.6315863182e+00	 9.4260930547e-01	-3.9290414798e-01
 1.6127141865e+00	 9.7975858577e-01	-5.6152664311e-01
 1.5929198358e+00	 1.0163421678e+00	-7.2775672721e-01
 1.5722044421e+00	 1.0523319477e+00	-8.9066599950e-01
 1.5505707285e+00	 1.0877004990e+00	-1.0493736767e+00
 1.5280229786e+00	 1.1224211576e+00	-1.2030552643e+00
 1.5045670425e+00	 1.1564681054e+00	-1.3509508298e+00
 1.4802103372e+00	 1.1898164508e+00	-1.4923727385e+00
 1.6958258041e+00	 8.3452557008e-01	 9.8905356787e-02
 1.6795863508e+00	 8.7349996951e-01	-7.0977711792e-02
 1.6624230537e+00	 9.1199243936e-01	-2.4133631364e-01
 1.6443325582e+00	 9.4997313556e-01	-4.1117721413e-01
 1.6253129941e+00	 9.8741263259e-01	-5.7952750052e-01
 1.6053640065e+00	 1.0242820120e+00	-7.4544341262e-01
 1.5844867804e+00	 1.0605529504e+00	-9.0801918662e-01
 1.5626840604e+00	 1.0961978071e+00	-1.0663957807e+00
 1.5399601635e+00	 1.1311897096e+00	-1.2197693470e+00
 1.5163209855e+00	 1.1655026382e+00	-1.3673993128e+00
 1.4917740013e+00	 1.1991115067e+00	-1.5086159355e+00
 1.7089712139e+00	 8.4099450139e-01	 8.0493658071e-02
 1.6926058784e+00	 8.8027101584e-01	-8.9357406110e-02
 1.6753095378e+00	 9.1906186497e-01	-2.5957370743e-01
 1.6570788115e+00	 9.5733697338e-01	-4.2918605483e-01
 1.6379118149e+00	 9.9506668745e-01	-5.9724525896e-01
 1.6178081901e+00	 1.0322218645e+00	-7.6283075778e-01
 1.5967691316e+00	 1.0687739617e+00	-9.2505925397e-01
 1.5747974050e+00	 1.1046951241e+00	-1.0830932362e+00
 1.5518973610e+00	 1.1399582708e+00	-1.2361492514e+00
 1.5280749409e+00	 1.1745371804e+00	-1.3835057949e+00
 1.5033376776e+00	 1.2084065724e+00	-1.5245106849e+00
 1.3877012993e+00	 1.1154562249e+00	-1.3470715860e+00
 1.3640307593e+00	 1.1460430583e+00	-1.4831848692e+00
 1.3395340068e+00	 1.1759311900e+00	-1.6123896922e+00
 1.3142223190e+00	 1.2051003319e+00	-1.7341424083e+00
 1.2881083803e+00	 1.2335313361e+00	-1.8479692747e+00
 1.2612062521e+00	 1.2612062521e+00	-1.9534704719e+00
 1.2335313361e+00	 1.2881083803e+00	-2.0503232927e+00
 1.2051003319e+00	 1.3142223190e+00	-2.1382844491e+00
 1.1759311900e+00	 1.3395340068e+00	-2.2171914603e+00
 1.1460430583e+00	 1.3640307593e+00	-2.2869631035e+00
 1.1154562249e+00	 1.3877012993e+00	-2.3475989268e+00
 1.3992649148e+00	 1.1247512417e+00	-1.3669620737e+00
 1.3753971299e+00	 1.1555929530e+00	-1.5028563895e+00
 1.3506962478e+00	 1.1857301404e+00	-1.6318174872e+00
 1.3251736395e+00	 1.2151423467e+00	-1.7533250284e+00
 1.2988420952e+00	 1.2438102644e+00	-1.8669284551e+00
 1.2717157935e+00	 1.2717157935e+00	-1.9722508316e+00
 1.2438102644e+00	 1.2988420952e+00	-2.0689918596e+00
 1.2151423467e+00	 1.3251736395e+00	-2.1569300144e+00
 1.1857301404e+00	 1.3506962478e+00	-2.2359237711e+00
 1.1555929530e+00	 1.3753971299e+00	-2.3059119010e+00
 1.1247512417e+00	 1.3992649148e+00	-2.3669128437e+00
 1.4108285318e+00	 1.1340462597e+00	-1.3863056577e+00
 1.3867635019e+00	 1.1651428489e+00	-1.5219959215e+00
 1.3618584901e+00	 1.1955290920e+00	-1.6507339873e+00
 1.3361249613e+00	 1.2251843627e+00	-1.7720218980e+00
 1.3095758114e+00	 1.2540891939e+00	-1.8854313021e+00
 1.2822253362e+00	 1.2822253362e+00	-1.9906071275e+00
 1.2540891939e+00	 1.3095758114e+00	-2.0872704288e+00
 1.2251843627e+00	 1.3361249613e+00	-2.1752203634e+00
 1.1955290920e+00	 1.3618584901e+00	-2.2543352621e+00
 1.1651428489e+00	 1.3867635019e+00	-2.3245727824e+00
 1.1340462597e+00	 1.4108285318e+00	-2.3859691467e+00
 1.4223921514e+00	 1.1433412798e+00	-1.4051300374e+00
 1.3981298765e+00	 1.1746927470e+00	-1.5406286290e+00
 1.3730207349e+00	 1.2053280458e+00	-1.6691616762e+00
 1.3470762856e+00	 1.2352263810e+00	-1.7902526928e+00
 1.3203095301e+00	 1.2643681258e+00	-1.9034945747e+00
 1.2927348813e+00	 1.2927348813e+00	-2.0085531110e+00
 1.2643681258e+00	 1.3203095301e+00	-2.1051696736e+00
 1.2352263810e+00	 1.3470762856e+00	-2.1931630390e+00
 1.2053280458e+00	 1.3730207349e+00	-2.2724303140e+00
 1.1746927470e+00	 1.3981298765e+00	-2.3429469537e+00
 1.1433412798e+00	 1.4223921514e+00	-2.4047658753e+00
 1.4339557751e+00	 1.1526363031e+00	-1.4234620184e+00
 1.4094962552e+00	 1.1842426484e+00	-1.5587788637e+00
 1.3841829837e+00	 1.2151270031e+00	-1.6871223117e+00
 1.3580276137e+00	 1.2452684028e+00	-1.8080364537e+00
 1.3310432525e+00	 1.2746470613e+00	-1.9211344909e+00
 1.3032444300e+00	 1.3032444300e+00	-2.0261020900e+00
 1.2746470613e+00	 1.3310432525e+00	-2.1226999222e+00
 1.2452684028e+00	 1.3580276137e+00	-2.2107653399e+00
 1.2151270031e+00	 1.3841829837e+00	-2.2902131653e+00
 1.1842426484e+00	 1.4094962552e+00	-2.3610355815e+00
 1.1526363031e+00	 1.4339557751e+00	-2.4233011315e+00
 1.4455194041e+00	 1.1619313308e+00	-1.4413275483e+00
 1.4208626391e+00	 1.1937925543e+00	-1.5764701977e+00
 1.3953452377e+00	 1.2249259649e+00	-1.7046369548e+00
 1.3689789470e+00	 1.2553104293e+00	-1.8253916117e+00
 1.3417769799e+00	 1.2849260016e+00	-1.9383667491e+00
 1.3137539837e+00	 1.3137539837e+00	-2.0432669457e+00
 1.2849260016e+00	 1.3417769799e+00	-2.1398711720e+00
 1.2553104293e+00	 1.3689789470e+00	-2.2280343311e+00
 1.2249259649e+00	 1.3953452377e+00	-2.3076879185e+00
 1.1937925543e+00	 1.4208626391e+00	-2.3788397945e+00
 1.1619313308e+00	 1.4455194041e+00	-2.4415730772e+00
 1.4570830399e+00	 1.1712263640e+00	-1.4587517505e+00
 1.4322290296e+00	 1.2033424658e+00	-1.5937254546e+00
 1.4065074982e+00	 1.2347249325e+00	-1.7217259980e+00
 1.3799302867e+00	 1.2653524617e+00	-1.8423360122e+00
 1.3525107136e+00	 1.2952049479e+00	-1.9552065493e+00
 1.3242635435e+00	 1.3242635435e+00	-2.0600601499e+00
 1.2952049479e+00	 1.3525107136e+00	-2.1566931022e+00
 1.2653524617e+00	 1.3799302867e+00	-2.2449768525e+00
 1.2347249325e+00	 1.4065074982e+00	-2.3248585451e+00
 1.2033424658e+00	 1.4322290296e+00	-2.3963606848e+00
 1.1712263640e+00	 1.4570830399e+00	-2.4595799321e+00
 1.4686466838e+00	 1.1805214036e+00	-1.4757589568e+00
 1.4435954281e+00	 1.2128923839e+00	-1.6105667385e+00
 1.4176697665e+00	 1.2445239069e+00	-1.7384091908e+00
 1.3908816340e+00	 1.2753945010e+00	-1.8588869385e+00
 1.3632444548e+00	 1.3054839014e+00	-1.9716686119e+00
 1.3347731106e+00	 1.3347731106e+00	-2.0764937815e+00
 1.3054839014e+00	 1.3632444548e+00	-2.1731750871e+00
 1.2753945010e+00	 1.3908816340e+00	-2.2615995282e+00
 1.2445239069e+00	 1.4176697665e+00	-2.3417288911e+00
 1.2128923839e+00	 1.4435954281e+00	-2.4135993097e+00
 1.1805214036e+00	 1.4686466838e+00	-2.4773199714e+00
 1.4802103372e+00	 1.1898164508e+00	-1.4923727385e+00
 1.4549618359e+00	 1.2224423099e+00	-1.6270154628e+00
 1.4288320440e+00	 1.2543228893e+00	-1.7547056654e+00
 1.4018329902e+00	 1.2854365486e+00	-1.8750611331e+00
 1.3739782048e+00	 1.3157628633e+00	-1.9877671973e+00
 1.3452826863e+00	 1.3452826863e+00	-2.0925795410e+00
 1.3157628633e+00	 1.3739782048e+00	-2.1893262072e+00
 1.2854365486e+00	 1.4018329902e+00	-2.2779087747e+00
 1.2543228893e+00	 1.4288320440e+00	-2.3583026817e+00
 1.2224423099e+00	 1.4549618359e+00	-2.4305566928e+00
 1.1898164508e+00	 1.4802103372e+00	-2.4947915235e+00
 1.4917740013e+00	 1.1991115067e+00	-1.5086159355e+00
 1.4663282543e+00	 1.2319922447e+00	-1.6430923762e+00
 1.4399943318e+00	 1.2641218809e+00	-1.7706339602e+00
 1.4127843567e+00	 1.2954786056e+00	-1.8908748191e+00
 1.3847119648e+00	 1.3260418348e+00	-2.0035161230e+00
 1.3557922719e+00	 1.3557922719e+00	-2.1083287661e+00
 1.3260418348e+00	 1.3847119648e+00	-2.2051552612e+00
 1.2954786056e+00	 1.4127843567e+00	-2.2939108091e+00
 1.2641218809e+00	 1.4399943318e+00	-2.3745835260e+00
 1.2319922447e+00	 1.4663282543e+00	-2.4472338251e+00
 1.1991115067e+00	 1.4917740013e+00	-2.5119929679e+00
 1.5033376776e+00	 1.2084065724e+00	-1.5245106849e+00
 1.4776946846e+00	 1.2415421896e+00	-1.6588175892e+00
 1.4511566314e+00	 1.2739208828e+00	-1.7862120429e+00
 1.4237357347e+00	 1.3055206731e+00	-1.9063437201e+00
 1.3954457360e+00	 1.3363208170e+00	-2.0189287811e+00
 1.3663018685e+00	 1.3663018685e+00	-2.1237524450e+00
 1.3363208170e+00	 1.3954457360e+00	-2.2206707764e+00
 1.3055206731e+00	 1.4237357347e+00	-2.3096116565e+00
 1.2739208828e+00	 1.4511566314e+00	-2.3905749216e+00
 1.2415421896e+00	 1.4776946846e+00	-2.4636316670e+00
 1.2084065724e+00	 1.5033376776e+00	-2.5289227336e+00
 1.1154562249e+00	 1.3877012993e+00	-2.3475989268e+00
 1.0841920585e+00	 1.4105357781e+00	-2.3997475439e+00
 1.0522729505e+00	 1.4325257833e+00	-2.4440910724e+00
 1.0197222366e+00	 1.4536643614e+00	-2.4807557241e+00
 9.8656412157e-01	 1.4739460279e+00	-2.5098883528e+00
 9.5282360302e-01	 1.4933667671e+00	-2.5316545025e+00
 9.1852639338e-01	 1.5119240258e+00	-2.5462363462e+00
 8.8369883999e-01	 1.5296167016e+00	-2.5538305463e+00
 8.4836784386e-01	 1.5464451247e+00	-2.5546460665e+00
 8.1256077766e-01	 1.5624110349e+00	-2.5489019663e+00
 7.7630540340e-01	 1.5775175527e+00	-2.5368252058e+00
 1.1247512417e+00	 1.3992649148e+00	-2.3669128437e+00
 1.0932265533e+00	 1.4222896718e+00	-2.4195097216e+00
 1.0610414656e+00	 1.4444629181e+00	-2.4643072813e+00
 1.0282195090e+00	 1.4657776425e+00	-2.5014343819e+00
 9.9478508976e-01	 1.4862283146e+00	-2.5310437583e+00
 9.6076341389e-01	 1.5058108854e+00	-2.5533099409e+00
 9.2618040805e-01	 1.5245227805e+00	-2.5684270302e+00
 8.9106263915e-01	 1.5423628881e+00	-2.5766063614e+00
 8.5543723236e-01	 1.5593315412e+00	-2.5780740921e+00
 8.1933178845e-01	 1.5754304942e+00	-2.5730687493e+00
 7.8277430074e-01	 1.5906628935e+00	-2.5618387674e+00
 1.1340462597e+00	 1.4108285318e+00	-2.3859691467e+00
 1.1022610491e+00	 1.4340435668e+00	-2.4390483637e+00
 1.0698099818e+00	 1.4564000543e+00	-2.4843443140e+00
 1.0367167824e+00	 1.4778909249e+00	-2.5219876075e+00
 1.0030060589e+00	 1.4985106028e+00	-2.5521359840e+00
 9.6870322568e-01	 1.5182550052e+00	-2.5749721112e+00
 9.3383442362e-01	 1.5371215366e+00	-2.5907012024e+00
 8.9842643918e-01	 1.5551090760e+00	-2.5995484888e+00
 8.6250662169e-01	 1.5722179592e+00	-2.6017565887e+00
 8.2610280002e-01	 1.5884499550e+00	-2.5975828104e+00
 7.8924319884e-01	 1.6038082358e+00	-2.5872964266e+00
 1.1433412798e+00	 1.4223921514e+00	-2.4047658753e+00
 1.1112955471e+00	 1.4457974646e+00	-2.4583583333e+00
 1.0785785000e+00	 1.4683371932e+00	-2.5041938277e+00
 1.0452140577e+00	 1.4900042102e+00	-2.5424038351e+00
 1.0112270300e+00	 1.5107928938e+00	-2.5731502375e+00
 9.7664303932e-01	 1.5306991280e+00	-2.5966230049e+00
 9.4148844097e-01	 1.5497202957e+00	-2.6130376607e+00
 9.0579024092e-01	 1.5678552669e+00	-2.6226325688e+00
 8.6957601267e-01	 1.5851043802e+00	-2.6256660872e+00
 8.3287381318e-01	 1.6014694189e+00	-2.6224136310e+00
 7.9571209846e-01	 1.6169535813e+00	-2.6131646862e+00
 1.1526363031e+00	 1.4339557751e+00	-2.4233011315e+00
 1.1203300482e+00	 1.4575513664e+00	-2.4774346588e+00
 1.0873470213e+00	 1.4802743364e+00	-2.5238477477e+00
 1.0537113361e+00	 1.5021174997e+00	-2.5626718711e+00
 1.0194480039e+00	 1.5230751891e+00	-2.5940722030e+00
 9.8458285574e-01	 1.5431432550e+00	-2.6182451935e+00
 9.4914246100e-01	 1.5623190591e+00	-2.6354158864e+00
 9.1315404524e-01	 1.5806014623e+00	-2.6458350269e+00
 8.7664540612e-01	 1.5979908058e+00	-2.6497760037e+00
 8.3964482870e-01	 1.6144888873e+00	-2.6475316759e+00
 8.0218100033e-01	 1.6300989313e+00	-2.6394111288e+00
 1.1619313308e+00	 1.4455194041e+00	-2.4415730772e+00
 1.1293645536e+00	 1.4693052738e+00	-2.4962725270e+00
 1.0961155467e+00	 1.4922114851e+00	-2.5432982573e+00
 1.0622086184e+00	 1.5142307949e+00	-2.5827808792e+00
 1.0276689817e+00	 1.5353574902e+00	-2.6148880220e+00
 9.9252267587e-01	 1.5555873879e+00	-2.6398218053e+00
 9.5679648460e-01	 1.5749178285e+00	-2.6578160164e+00
 9.2051785299e-01	 1.5933476636e+00	-2.6691330420e+00
 8.8371480287e-01	 1.6108772373e+00	-2.6740606044e+00
 8.4641584738e-01	 1.6275083617e+00	-2.6729083545e+00
 8.0864990522e-01	 1.6432442874e+00	-2.6660043737e+00
 1.1712263640e+00	 1.4570830399e+00	-2.4595799321e+00
 1.1383990642e+00	 1.4810591880e+00	-2.5148672767e+00
 1.1048840772e+00	 1.5041486408e+00	-2.5625377870e+00
 1.0707059056e+00	 1.5263440971e+00	-2.6027203667e+00
 1.0358899643e+00	 1.5476397984e+00	-2.6355842751e+00
 1.0004625006e+00	 1.5680315280e+00	-2.6613365036e+00
 9.6445051267e-01	 1.5875166052e+00	-2.6802188174e+00
 9.2788166504e-01	 1.6060938724e+00	-2.6925045168e+00
 8.9078420374e-01	 1.6237636764e+00	-2.6984949713e+00
 8.5318687002e-01	 1.6405278438e+00	-2.6985159827e+00
 8.1511881389e-01	 1.6563896513e+00	-2.6929140353e+00
 1.1805214036e+00	 1.4686466838e+00	-2.4773199714e+00
 1.1474335811e+00	 1.4928131105e+00	-2.5332143927e+00
 1.1136526138e+00	 1.5160858048e+00	-2.5815590050e+00
 1.0792031988e+00	 1.5384574079e+00	-2.6224801702e+00
 1.0441109526e+00	 1.5599221152e+00	-2.6561479648e+00
 1.0084023309e+00	 1.5804756768e+00	-2.6827734653e+00
 9.7210454610e-01	 1.6001153907e+00	-2.7026056611e+00
 9.3524548225e-01	 1.6188400901e+00	-2.7159280491e+00
 8.9785360957e-01	 1.6366501244e+00	-2.7230549706e+00
 8.5995789739e-01	 1.6535473350e+00	-2.7243277478e+00
 8.2158772709e-01	 1.6695350243e+00	-2.7201106846e+00
 1.1898164508e+00	 1.4802103372e+00	-2.4947915235e+00
 1.1564681054e+00	 1.5045670425e+00	-2.5513095007e+00
 1.1224211576e+00	 1.5280229786e+00	-2.6003548080e+00
 1.0877004990e+00	 1.5505707285e+00	-2.6420504436e+00
 1.0523319477e+00	 1.5722044421e+00	-2.6765664991e+00
 1.0163421678e+00	 1.5929198358e+00	-2.7041173613e+00
 9.7975858577e-01	 1.6127141865e+00	-2.7249585004e+00
 9.4260930547e-01	 1.6315863182e+00	-2.7393829047e+00
 9.0492302116e-01	 1.6495365830e+00	-2.7477172218e+00
 8.6672893029e-01	 1.6665668368e+00	-2.7503176740e+00
 8.2805664557e-01	 1.6826804081e+00	-2.7475658111e+00
 1.1991115067e+00	 1.4917740013e+00	-2.5119929679e+00
 1.1655026382e+00	 1.5163209855e+00	-2.5691483608e+00
 1.1311897096e+00	 1.5399601635e+00	-2.6189183122e+00
 1.0961978071e+00	 1.5626840604e+00	-2.6614216451e+00
 1.0605529504e+00	 1.5844867804e+00	-2.6968276756e+00
 1.0242820120e+00	 1.6053640065e+00	-2.7253533365e+00
 9.8741263259e-01	 1.6253129941e+00	-2.7472598473e+00
 9.4997313556e-01	 1.6443325582e+00	-2.7628489915e+00
 9.1199243936e-01	 1.6624230537e+00	-2.7724590687e+00
 8.7349996951e-01	 1.6795863508e+00	-2.7764605902e+00
 8.3452557008e-01	 1.6958258041e+00	-2.7752517878e+00
 1.2084065724e+00	 1.5033376776e+00	-2.5289227336e+00
 1.1745371804e+00	 1.5280749409e+00	-2.5867268632e+00
 1.1399582708e+00	 1.5518973610e+00	-2.6372428450e+00
 1.1046951241e+00	 1.5747974050e+00	-2.6805845258e+00
 1.0687739617e+00	 1.5967691316e+00	-2.7169196666e+00
 1.0322218645e+00	 1.6178081901e+00	-2.7464669927e+00
 9.9506668745e-01	 1.6379118149e+00	-2.7694927509e+00
 9.5733697338e-01	 1.6570788115e+00	-2.7863068348e+00
 9.1906186497e-01	 1.6753095378e+00	-2.7972585512e+00
 8.8027101584e-01	 1.6926058784e+00	-2.8027320991e+00
 8.4099450139e-01	 1.7089712139e+00	-2.8031418368e+00
 7.7630540340e-01	 1.5775175527e+00	-2.5368252058e+00
 7.3963236984e-01	 1.5917681795e+00	-2.5211317628e+00
 7.0256743511e-01	 1.6051697863e+00	-2.5045107171e+00
 6.6513902335e-01	 1.6177294238e+00	-2.4870939210e+00
 6.2737562495e-01	 1.6294553618e+00	-2.4689330396e+00
 5.8930571946e-01	 1.6403570387e+00	-2.4500041351e+00
 5.5095770069e-01	 1.6504450087e+00	-2.4302127945e+00
 5.1235980447e-01	 1.6597308847e+00	-2.4093996919e+00
 4.7354003919e-01	 1.6682272805e+00	-2.3873464743e+00
 4.3452611959e-01	 1.6759477498e+00	-2.3637818659e+00
 3.9534540388e-01	 1.6829067243e+00	-2.3383878901e+00
 7.8277430074e-01	 1.5906628935e+00	-2.5618387674e+00
 7.4579567342e-01	 1.6050322698e+00	-2.5469778482e+00
 7.0842187924e-01	 1.6185455512e+00	-2.5310483533e+00
 6.7068157921e-01	 1.6312098473e+00	-2.5141972940e+00
 6.3260350112e-01	 1.6430334966e+00	-2.4964904008e+00
 5.9421636183e-01	 1.6540260165e+00	-2.4779166849e+00
 5.5554879177e-01	 1.6641980487e+00	-2.4583935572e+00
 5.1662926203e-01	 1.6735613033e+00	-2.4377723929e+00
 4.7748601443e-01	 1.6821284990e+00	-2.4158444324e+00
 4.3814699464e-01	 1.6899133024e+00	-2.3923469092e+00
 3.9863978883e-01	 1.6969302655e+00	-2.3669693053e+00
 7.8924319884e-01	 1.6038082358e+00	-2.5872964266e+00
 7.5195897772e-01	 1.6182963616e+00	-2.5733630786e+00
 7.1427632406e-01	 1.6319213177e+00	-2.5582136525e+00
 6.7622413571e-01	 1.6446902723e+00	-2.5420114167e+00
 6.3783137789e-01	 1.6566116331e+00	-2.5248374797e+00
 5.9912700477e-01	 1.6676949958e+00	-2.5066953050e+00
 5.6013988338e-01	 1.6779510904e+00	-2.4875157953e+00
 5.2089872010e-01	 1.6873917235e+00	-2.4671628353e+00
 4.8143199014e-01	 1.6960297191e+00	-2.4454391806e+00
 4.4176787011e-01	 1.7038788566e+00	-2.4220925853e+00
 4.0193417416e-01	 1.7109538084e+00	-2.3968220667e+00
 7.9571209846e-01	 1.6169535813e+00	-2.6131646862e+00
 7.5812228347e-01	 1.6315604565e+00	-2.6002515017e+00
 7.2013077025e-01	 1.6452970872e+00	-2.5859691523e+00
 6.8176669352e-01	 1.6581707005e+00	-2.5704982228e+00
 6.4305925589e-01	 1.6701897727e+00	-2.5539364707e+00
 6.0403764886e-01	 1.6813639784e+00	-2.5363032692e+00
 5.6473097606e-01	 1.6917041353e+00	-2.5175446327e+00
 5.2516817917e-01	 1.7012221470e+00	-2.4975387120e+00
 4.8537796676e-01	 1.7099309424e+00	-2.4761016471e+00
 4.4538874642e-01	 1.7178444141e+00	-2.4529936697e+00
 4.0522856026e-01	 1.7249773546e+00	-2.4279253526e+00
 8.0218100033e-01	 1.6300989313e+00	-2.6394111288e+00
 7.6428559136e-01	 1.6448245561e+00	-2.6276083245e+00
 7.2598521848e-01	 1.6586728615e+00	-2.6142785980e+00
 6.8730925326e-01	 1.6716511334e+00	-2.5996208733e+00
 6.4828713572e-01	 1.6837679171e+00	-2.5837507869e+00
 6.0894829467e-01	 1.6950329657e+00	-2.5667050353e+00
 5.6932207035e-01	 1.7054571851e+00	-2.5484463175e+00
 5.2943763972e-01	 1.7150525753e+00	-2.5288687576e+00
 4.8932394477e-01	 1.7238321706e+00	-2.5078036978e+00
 4.4900962400e-01	 1.7318099765e+00	-2.4850257510e+00
 4.0852294751e-01	 1.7390009056e+00	-2.4602590123e+00
 8.0864990522e-01	 1.6432442874e+00	-2.6660043737e+00
 7.7044890214e-01	 1.6580886618e+00	-2.6553998664e+00
 7.3183966945e-01	 1.6720486420e+00	-2.6431068940e+00
 6.9285181559e-01	 1.6851315726e+00	-2.6293437072e+00
 6.5351501798e-01	 1.6973460678e+00	-2.6142450116e+00
 6.1385894277e-01	 1.7087019594e+00	-2.5978661981e+00
 5.7391316678e-01	 1.7192102412e+00	-2.5801881773e+00
 5.3370710228e-01	 1.7288830101e+00	-2.5611227066e+00
 4.9326992462e-01	 1.7377334053e+00	-2.5405180980e+00
 4.5263050327e-01	 1.7457755454e+00	-2.5181651985e+00
 4.1181733630e-01	 1.7530244632e+00	-2.4938035397e+00
 8.1511881389e-01	 1.6563896513e+00	-2.6929140353e+00
 7.7661221651e-01	 1.6713527753e+00	-2.6835935152e+00
 7.3769412383e-01	 1.6854244303e+00	-2.6724200585e+00
 6.9839438115e-01	 1.6986120196e+00	-2.6596321949e+00
 6.5874290330e-01	 1.7109242264e+00	-2.6453848517e+00
 6.1876959373e-01	 1.7223709611e+00	-2.6297534436e+00
 5.7850426589e-01	 1.7329633053e+00	-2.6127385763e+00
 5.3797656732e-01	 1.7427134529e+00	-2.5942712537e+00
 4.9721590677e-01	 1.7516346481e+00	-2.5742184774e+00
 4.5625138465e-01	 1.7597411225e+00	-2.5523891314e+00
 4.1511172701e-01	 1.7670480290e+00	-2.5285400476e+00
 8.2158772709e-01	 1.6695350243e+00	-2.7201106846e+00
 7.8277553519e-01	 1.6846168981e+00	-2.7121576851e+00
 7.4354858231e-01	 1.6988002280e+00	-2.7021851790e+00
 7.0393695059e-01	 1.7120924761e+00	-2.6904528935e+00
 6.6397079227e-01	 1.7245023945e+00	-2.6771370934e+00
 6.2368024813e-01	 1.7360399723e+00	-2.6623345067e+00
 5.8309536821e-01	 1.7467163791e+00	-2.6460668747e+00
 5.4224603535e-01	 1.7565439054e+00	-2.6282860161e+00
 5.0116189168e-01	 1.7655359007e+00	-2.6088792956e+00
 4.5987226857e-01	 1.7737067093e+00	-2.5876753889e+00
 4.1840612003e-01	 1.7810716046e+00	-2.5644502430e+00
 8.2805664557e-01	 1.6826804081e+00	-2.7475658111e+00
 7.8893885891e-01	 1.6978810317e+00	-2.7410617767e+00
 7.4940304557e-01	 1.7121760366e+00	-2.7323703707e+00
 7.0947952455e-01	 1.7255729436e+00	-2.7217734048e+00
 6.6919868552e-01	 1.7380805737e+00	-2.7094695605e+00
 6.2859090654e-01	 1.7497089947e+00	-2.6955781299e+00
 5.8768647429e-01	 1.7604694641e+00	-2.6801433893e+00
 5.4651550686e-01	 1.7703743692e+00	-2.6631394975e+00
 5.0510787982e-01	 1.7794371646e+00	-2.6444758098e+00
 4.6349315544e-01	 1.7876723075e+00	-2.6240025023e+00
 4.2170051574e-01	 1.7950951916e+00	-2.6015164043e+00
 8.3452557008e-01	 1.6958258041e+00	-2.7752517878e+00
 7.9510218838e-01	 1.7111451776e+00	-2.7702761385e+00
 7.5525751430e-01	 1.7255518577e+00	-2.7629447369e+00
 7.1502210369e-01	 1.7390534237e+00	-2.7535623340e+00
 6.7442658364e-01	 1.7516587656e+00	-2.7423510733e+00
 6.3350156954e-01	 1.7633780299e+00	-2.7294540240e+00
 5.9227758464e-01	 1.7742225620e+00	-2.7149393569e+00
 5.5078498236e-01	 1.7842048459e+00	-2.6988050534e+00
 5.0905387163e-01	 1.7933384415e+00	-2.6809840439e+00
 4.6711404570e-01	 1.8016379188e+00	-2.6613496681e+00
 4.2499491452e-01	 1.8091187918e+00	-2.6397213589e+00
 8.4099450139e-01	 1.7089712139e+00	-2.8031418368e+00
 8.0126552432e-01	 1.7244093376e+00	-2.7997720306e+00
 7.6111198917e-01	 1.7389276928e+00	-2.7938783306e+00
 7.2056468865e-01	 1.7525339179e+00	-2.7857892520e+00
 6.7965448725e-01	 1.7652369718e+00	-2.7757514111e+00
 6.3841223768e-01	 1.7770470794e+00	-2.7639328316e+00
 5.9686869982e-01	 1.7879756743e+00	-2.7504268986e+00
 5.5505446234e-01	 1.7980353372e+00	-2.7352568588e+00
 5.1299986759e-01	 1.8072397329e+00	-2.7183807590e+00
 4.7073493975e-01	 1.8156035447e+00	-2.6996967226e+00
 4.2828931676e-01	 1.8231424066e+00	-2.6790484623e+00
 3.9534540388e-01	 1.6829067243e+00	-2.3383878901e+00
 3.5602208484e-01	 1.6891198593e+00	-2.3141654769e+00
 3.1658541179e-01	 1.6946026414e+00	-2.2941642109e+00
 2.7706137859e-01	 1.6993717569e+00	-2.2780878993e+00
 2.3747540569e-01	 1.7034445140e+00	-2.2656236069e+00
 1.9785229655e-01	 1.7068387780e+00	-2.2564446017e+00
 1.5821619810e-01	 1.7095729076e+00	-2.2502131748e+00
 1.1859056526e-01	 1.7116656925e+00	-2.2465833164e+00
 7.8998129670e-02	 1.7131362910e+00	-2.2452032315e+00
 3.9460872273e-02	 1.7140041702e+00	-2.2457176836e+00
 0.0000000000e+00	 1.7142890476e+00	-2.2477701594e+00
 3.9863978883e-01	 1.6969302655e+00	-2.3669693053e+00
 3.5898879138e-01	 1.7031951742e+00	-2.3427875892e+00
 3.1922349536e-01	 1.7087236439e+00	-2.3229097546e+00
 2.7937011122e-01	 1.7135325001e+00	-2.3070211111e+00
 2.3945427124e-01	 1.7176391952e+00	-2.2947900282e+00
 1.9950098557e-01	 1.7210617433e+00	-2.2858710307e+00
 1.5953460235e-01	 1.7238186563e+00	-2.2799077564e+00
 1.1957877195e-01	 1.7259288802e+00	-2.2765357551e+00
 7.9656415427e-02	 1.7274117330e+00	-2.2753851143e+00
 3.9789696896e-02	 1.7282868443e+00	-2.2760828986e+00
 0.0000000000e+00	 1.7285740955e+00	-2.2782553961e+00
 4.0193417416e-01	 1.7109538084e+00	-2.3968220667e+00
 3.6195549827e-01	 1.7172704907e+00	-2.3727783177e+00
 3.2186157924e-01	 1.7228446480e+00	-2.3531227100e+00
 2.8167884412e-01	 1.7276932449e+00	-2.3375166916e+00
 2.4143313702e-01	 1.7318338780e+00	-2.3256040898e+00
 2.0114967479e-01	 1.7352847103e+00	-2.3170144524e+00
 1.6085300675e-01	 1.7380644066e+00	-2.3113662335e+00
 1.2056697876e-01	 1.7401920695e+00	-2.3082698026e+00
 8.0314701260e-02	 1.7416871767e+00	-2.3073302594e+00
 4.0118521557e-02	 1.7425695200e+00	-2.3081500441e+00
 0.0000000000e+00	 1.7428591451e+00	-2.3103313339e+00
 4.0522856026e-01	 1.7249773546e+00	-2.4279253526e+00
 3.6492220586e-01	 1.7313458104e+00	-2.4041197882e+00
 3.2449966374e-01	 1.7369656554e+00	-2.3847848584e+00
 2.8398757756e-01	 1.7418539931e+00	-2.3695529949e+00
 2.4341200327e-01	 1.7460285641e+00	-2.3580378511e+00
 2.0279836438e-01	 1.7495076806e+00	-2.3498379835e+00
 1.6217141146e-01	 1.7523101602e+00	-2.3445403541e+00
 1.2155518579e-01	 1.7544552621e+00	-2.3417236341e+00
 8.0972987247e-02	 1.7559626238e+00	-2.3409612875e+00
 4.0447346294e-02	 1.7568521990e+00	-2.3418244254e+00
 0.0000000000e+00	 1.7571441980e+00	-2.3438844194e+00
 4.0852294751e-01	 1.7390009056e+00	-2.4602590123e+00
 3.6788891448e-01	 1.7454211351e+00	-2.4367947030e+00
 3.2713774915e-01	 1.7510866678e+00	-2.4178785687e+00
 2.8629631180e-01	 1.7560147461e+00	-2.4031090730e+00
 2.4539087020e-01	 1.7602232552e+00	-2.3920642727e+00
 2.0444705456e-01	 1.7637306559e+00	-2.3843059304e+00
 1.6348981663e-01	 1.7665559188e+00	-2.3793834223e+00
 1.2254339317e-01	 1.7687184598e+00	-2.3768374188e+00
 8.1631273464e-02	 1.7702380758e+00	-2.3762033156e+00
 4.0776171146e-02	 1.7711348830e+00	-2.3770144027e+00
 0.0000000000e+00	 1.7714292559e+00	-2.3788047625e+00
 4.1181733630e-01	 1.7530244632e+00	-2.4938035397e+00
 3.7085562448e-01	 1.7594964664e+00	-2.4707863175e+00
 3.2977583580e-01	 1.7652076867e+00	-2.4523867735e+00
 2.8860504713e-01	 1.7701755058e+00	-2.4381646479e+00
 2.4736973806e-01	 1.7744179530e+00	-2.4276571800e+00
 2.0609574550e-01	 1.7779536378e+00	-2.4203837414e+00
 1.6480822242e-01	 1.7808016841e+00	-2.4158502364e+00
 1.2353160101e-01	 1.7829816641e+00	-2.4135532408e+00
 8.2289559989e-02	 1.7845135346e+00	-2.4129838568e+00
 4.1104996152e-02	 1.7854175737e+00	-2.4136312688e+00
 0.0000000000e+00	 1.7857143204e+00	-2.4149859898e+00
 4.1511172701e-01	 1.7670480290e+00	-2.5285400476e+00
 3.7382233622e-01	 1.7735718059e+00	-2.5060784183e+00
 3.3241392399e-01	 1.7793287139e+00	-2.4882929467e+00
 2.9091378380e-01	 1.7843362738e+00	-2.4747000851e+00
 2.4934860708e-01	 1.7886126590e+00	-2.4647912290e+00
 2.0774443740e-01	 1.7921766280e+00	-2.4580379615e+00
 1.6612662897e-01	 1.7950474576e+00	-2.4538970294e+00
 1.2451980942e-01	 1.7972448767e+00	-2.4518150222e+00
 8.2947846897e-02	 1.7987890016e+00	-2.4512327254e+00
 4.1433821349e-02	 1.7997002727e+00	-2.4515891327e+00
 0.0000000000e+00	 1.7999993933e+00	-2.4523251052e+00
 4.1840612003e-01	 1.7810716046e+00	-2.5644502430e+00
 3.7678905003e-01	 1.7876471552e+00	-2.5426553022e+00
 3.3505201402e-01	 1.7934497510e+00	-2.5255810827e+00
 2.9322252208e-01	 1.7984970517e+00	-2.5126963681e+00
 2.5132747748e-01	 1.8028073749e+00	-2.5034418740e+00
 2.0939313046e-01	 1.8063996282e+00	-2.4972361891e+00
 1.6744503645e-01	 1.8092932412e+00	-2.4934814128e+00
 1.2550801853e-01	 1.8115080993e+00	-2.4915684517e+00
 8.3606134266e-02	 1.8130644786e+00	-2.4908819464e+00
 4.1762646777e-02	 1.8139829818e+00	-2.4908048089e+00
 0.0000000000e+00	 1.8142844762e+00	-2.4907223572e+00
 4.2170051574e-01	 1.7950951916e+00	-2.6015164043e+00
 3.7975576626e-01	 1.8017225160e+00	-2.5805017563e+00
 3.3769010621e-01	 1.8075707996e+00	-2.5642356755e+00
 2.9553126226e-01	 1.8126578411e+00	-2.5521350746e+00
 2.5330634949e-01	 1.8170021025e+00	-2.5435853357e+00
 2.1104182487e-01	 1.8206226400e+00	-2.5379470349e+00
 1.6876344501e-01	 1.8235390363e+00	-2.5345623222e+00
 1.2649622845e-01	 1.8257713336e+00	-2.5327609147e+00
 8.4264422173e-02	 1.8273399673e+00	-2.5318656689e+00
 4.2091472473e-02	 1.8282657025e+00	-2.5311977114e+00
 0.0000000000e+00	 1.8285695708e+00	-2.5300811114e+00
 4.2499491452e-01	 1.8091187918e+00	-2.6397213589e+00
 3.8272248527e-01	 1.8157978900e+00	-2.6196030391e+00
 3.4032820086e-01	 1.8216918614e+00	-2.6042416994e+00
 2.9784000458e-01	 1.8268186438e+00	-2.5929983527e+00
 2.5528522336e-01	 1.8311968433e+00	-2.5851985719e+00
 2.1269052081e-01	 1.8348456650e+00	-2.5801400826e+00
 1.7008185479e-01	 1.8377848448e+00	-2.5770999667e+00
 1.2748443928e-01	 1.8400345811e+00	-2.5753414282e+00
 8.4922710694e-02	 1.8416154693e+00	-2.5741200839e+00
 4.2420298476e-02	 1.8425484365e+00	-2.5726897533e+00
 0.0000000000e+00	 1.8428546786e+00	-2.5703077306e+00
 4.2828931676e-01	 1.8231424066e+00	-2.6790484623e+00
 3.8568920739e-01	 1.8298732788e+00	-2.6599448622e+00
 3.4296629828e-01	 1.8358129380e+00	-2.6455845909e+00
 3.0014874933e-01	 1.8409794613e+00	-2.6352688998e+00
 2.5726409930e-01	 1.8453915989e+00	-2.6282592491e+00
 2.1433921849e-01	 1.8490687050e+00	-2.6237858515e+00
 1.7140026596e-01	 1.8520306682e+00	-2.6210557791e+00
 1.2847265116e-01	 1.8542978437e+00	-2.6192605776e+00
 8.5580999907e-02	 1.8558909863e+00	-2.6175833458e+00
 4.2749124825e-02	 1.8568311855e+00	-2.6152052506e+00
 0.0000000000e+00	 1.8571398015e+00	-2.6113114588e+00
 1.8571398015e+00	 0.0000000000e+00	 2.0456380093e+00
 1.8568311855e+00	 4.2749124825e-02	 2.0613816474e+00
 1.8558909863e+00	 8.5580999907e-02	 2.0613760396e+00
 1.8542978437e+00	 1.2847265116e-01	 2.0460700800e+00
 1.8520306682e+00	 1.7140026596e-01	 2.0159743456e+00
 1.8490687050e+00	 2.1433921849e-01	 1.9716624016e+00
 1.8453915989e+00	 2.5726409930e-01	 1.9137716266e+00
 1.8409794613e+00	 3.0014874933e-01	 1.8430034997e+00
 1.8358129380e+00	 3.4296629828e-01	 1.7601232939e+00
 1.8298732788e+00	 3.8568920739e-01	 1.6659591207e+00
 1.8231424066e+00	 4.2828931676e-01	 1.5614002770e+00
 1.8714259389e+00	 0.0000000000e+00	 2.0244213852e+00
 1.8711149488e+00	 4.3077974526e-02	 2.0433064066e+00
 1.8701675171e+00	 8.6239335869e-02	 2.0456008320e+00
 1.8685621191e+00	 1.2946093321e-01	 2.0318491084e+00
 1.8662775033e+00	 1.7271877076e-01	 2.0026618180e+00
 1.8632927551e+00	 2.1598803324e-01	 1.9587165099e+00
 1.8595873627e+00	 2.5924311577e-01	 1.9007579632e+00
 1.8551412844e+00	 3.0245765804e-01	 1.8295978198e+00
 1.8499350174e+00	 3.4560458304e-01	 1.7461135314e+00
 1.8439496671e+00	 3.8865614018e-01	 1.6512465650e+00
 1.8371670174e+00	 4.3158395295e-01	 1.5459998205e+00
 1.8857120812e+00	 0.0000000000e+00	 2.0026836216e+00
 1.8853987171e+00	 4.3406824341e-02	 2.0250224803e+00
 1.8844440529e+00	 8.6897672061e-02	 2.0298355277e+00
 1.8828263996e+00	 1.3044921561e-01	 2.0177766120e+00
 1.8805243434e+00	 1.7403727602e-01	 1.9895701559e+00
 1.8775168101e+00	 2.1763684858e-01	 1.9460113736e+00
 1.8737831314e+00	 2.6122213293e-01	 1.8879658156e+00
 1.8693031125e+00	 3.0476656755e-01	 1.8163681818e+00
 1.8640571018e+00	 3.4824286873e-01	 1.7322203427e+00
 1.8580260603e+00	 3.9162307402e-01	 1.6365885179e+00
 1.8511916330e+00	 4.3487859030e-01	 1.5305995683e+00
 1.8999982169e+00	 0.0000000000e+00	 1.9803075939e+00
 1.8996824787e+00	 4.3735674004e-02	 2.0064430287e+00
 1.8987205820e+00	 8.7556007947e-02	 2.0140206157e+00
 1.8970906734e+00	 1.3143749755e-01	 2.0038170514e+00
 1.8947711768e+00	 1.7535578067e-01	 1.9766840298e+00
 1.8917408585e+00	 2.1928566315e-01	 1.9335477026e+00
 1.8879788935e+00	 2.6320114917e-01	 1.8754073558e+00
 1.8834649340e+00	 3.0707547599e-01	 1.8033332355e+00
 1.8781791796e+00	 3.5088115318e-01	 1.7184634701e+00
 1.8721024470e+00	 3.9459000647e-01	 1.6220000362e+00
 1.8652162422e+00	 4.3817322610e-01	 1.5152037309e+00
 1.9142843343e+00	 0.0000000000e+00	 1.9571796654e+00
 1.9139662220e+00	 4.4064523245e-02	 1.9874837978e+00
 1.9129970928e+00	 8.8214342988e-02	 1.9980983558e+00
 1.9113549288e+00	 1.3242577823e-01	 1.9899359434e+00
 1.9090179920e+00	 1.7667428362e-01	 1.9639885627e+00
 1.9059648886e+00	 2.2093447560e-01	 1.9213261813e+00
 1.9021746373e+00	 2.6518016287e-01	 1.8630943871e+00
 1.8976267374e+00	 3.0938438146e-01	 1.7905110683e+00
 1.8923012392e+00	 3.5351943425e-01	 1.7048620610e+00
 1.8861788156e+00	 3.9755693512e-01	 1.6074957213e+00
 1.8792408333e+00	 4.4146785768e-01	 1.4998163870e+00
 1.9285704216e+00	 0.0000000000e+00	 1.9331895576e+00
 1.9282499354e+00	 4.4393371795e-02	 1.9680630230e+00
 1.9272735736e+00	 8.8872676646e-02	 1.9820127129e+00
 1.9256191544e+00	 1.3341405682e-01	 1.9760998211e+00
 1.9232647772e+00	 1.7799278380e-01	 1.9514693140e+00
 1.9201888889e+00	 2.2258328458e-01	 1.9093474685e+00
 1.9163703514e+00	 2.6715917242e-01	 1.8510383584e+00
 1.9117885109e+00	 3.1169328209e-01	 1.7779192265e+00
 1.9064232692e+00	 3.5615770978e-01	 1.6914346897e+00
 1.9002551546e+00	 4.0052385753e-01	 1.5930897357e+00
 1.8932653949e+00	 4.4476248234e-01	 1.4844414881e+00
 1.9428564673e+00	 0.0000000000e+00	 1.9082302271e+00
 1.9425336070e+00	 4.4722219386e-02	 1.9481013374e+00
 1.9415500127e+00	 8.9531008385e-02	 1.9657092942e+00
 1.9398833383e+00	 1.3440233254e-01	 1.9622761971e+00
 1.9375115209e+00	 1.7931128014e-01	 1.9391122627e+00
 1.9344128477e+00	 2.2423208876e-01	 1.8976121991e+00
 1.9305660240e+00	 2.6913817619e-01	 1.8392503764e+00
 1.9259502432e+00	 3.1400217598e-01	 1.7655747349e+00
 1.9205452580e+00	 3.5879597761e-01	 1.6781993782e+00
 1.9143314526e+00	 4.0349077129e-01	 1.5787958195e+00
 1.9072899157e+00	 4.4805709739e-01	 1.4690828634e+00
 1.9571424596e+00	 0.0000000000e+00	 1.8821977469e+00
 1.9568172253e+00	 4.5051065750e-02	 1.9275216848e+00
 1.9558263986e+00	 9.0189337666e-02	 1.9491352892e+00
 1.9541474690e+00	 1.3539060456e-01	 1.9484335271e+00
 1.9517582114e+00	 1.8062977156e-01	 1.9269037925e+00
 1.9486367534e+00	 2.2588088679e-01	 1.8861209844e+00
 1.9447616437e+00	 2.7111717258e-01	 1.8277412187e+00
 1.9401119226e+00	 3.1631106125e-01	 1.7534941155e+00
 1.9346671941e+00	 3.6143423560e-01	 1.6651736168e+00
 1.9284076980e+00	 4.0645767398e-01	 1.5646273054e+00
 1.9213143841e+00	 4.5135170014e-01	 1.4537442239e+00
 1.9714283870e+00	 0.0000000000e+00	 1.8549911930e+00
 1.9711007787e+00	 4.5379910618e-02	 1.9062492347e+00
 1.9701027195e+00	 9.0847663952e-02	 1.9322394121e+00
 1.9684115347e+00	 1.3637887209e-01	 1.9345411761e+00
 1.9660048370e+00	 1.8194825698e-01	 1.9148306768e+00
 1.9628605943e+00	 2.2752967731e-01	 1.8748744133e+00
 1.9589571987e+00	 2.7309615996e-01	 1.8165213451e+00
 1.9542735376e+00	 3.1861993602e-01	 1.7416934064e+00
 1.9487890659e+00	 3.6407248158e-01	 1.6523743827e+00
 1.9424838794e+00	 4.0942456316e-01	 1.5505971336e+00
 1.9353387887e+00	 4.5464628790e-01	 1.4384291666e+00
 1.9857142377e+00	 0.0000000000e+00	 1.8265125369e+00
 1.9853842553e+00	 4.5708753720e-02	 1.8842113031e+00
 1.9843789638e+00	 9.1505986705e-02	 1.9149718469e+00
 1.9826755239e+00	 1.3736713431e-01	 1.9205693853e+00
 1.9802513862e+00	 1.8326673532e-01	 1.9028800644e+00
 1.9770843589e+00	 2.2917845898e-01	 1.8638730524e+00
 1.9731526776e+00	 2.7507513672e-01	 1.8056009096e+00
 1.9684350766e+00	 3.2092879839e-01	 1.7301881782e+00
 1.9629108619e+00	 3.6671071340e-01	 1.6398181588e+00
 1.9565599852e+00	 4.1239143643e-01	 1.5367178654e+00
 1.9493631180e+00	 4.5794085798e-01	 1.4231411787e+00
 2.0000000000e+00	 0.0000000000e+00	 1.7966665412e+00
 1.9996676437e+00	 4.6037594790e-02	 1.8613372750e+00
 1.9986551198e+00	 9.2164305388e-02	 1.8972841947e+00
 1.9969394250e+00	 1.3835539043e-01	 1.9064892409e+00
 1.9944978474e+00	 1.8458520551e-01	 1.8910394667e+00
 1.9913080356e+00	 2.3082723046e-01	 1.8531174476e+00
 1.9873480687e+00	 2.7705410124e-01	 1.7949897706e+00
 1.9825965280e+00	 3.2323764649e-01	 1.7189935513e+00
 1.9770325707e+00	 3.6934892891e-01	 1.6275209511e+00
 1.9706360040e+00	 4.1535829135e-01	 1.5230016971e+00
 1.9633873606e+00	 4.6123540769e-01	 1.4078836412e+00
 1.8231424066e+00	 4.2828931676e-01	 1.5614002770e+00
 1.8156035447e+00	 4.7073493975e-01	 1.4465994105e+00
 1.8072397329e+00	 5.1299986759e-01	 1.3216947125e+00
 1.7980353372e+00	 5.5505446234e-01	 1.1876518516e+00
 1.7879756743e+00	 5.9686869982e-01	 1.0454727488e+00
 1.7770470794e+00	 6.3841223768e-01	 8.9618935008e-01
 1.7652369718e+00	 6.7965448725e-01	 7.4085666154e-01
 1.7525339179e+00	 7.2056468865e-01	 5.8054508555e-01
 1.7389276928e+00	 7.6111198917e-01	 4.1633211436e-01
 1.7244093376e+00	 8.0126552432e-01	 2.4929345274e-01
 1.7089712139e+00	 8.4099450139e-01	 8.0493658071e-02
 1.8371670174e+00	 4.3158395295e-01	 1.5459998205e+00
 1.8295701624e+00	 4.7435609094e-01	 1.4306017684e+00
 1.8211420116e+00	 5.1694614377e-01	 1.3051876957e+00
 1.8118668106e+00	 5.5932424552e-01	 1.1707182315e+00
 1.8017297632e+00	 6.0146014103e-01	 1.0281898957e+00
 1.7907170996e+00	 6.4332325456e-01	 8.7862887190e-01
 1.7788161422e+00	 6.8488276212e-01	 7.2308404541e-01
 1.7660153695e+00	 7.2610766721e-01	 5.6261934529e-01
 1.7523044778e+00	 7.6696687979e-01	 3.9830544679e-01
 1.7376744394e+00	 8.0742929794e-01	 2.3121090624e-01
 1.7221175573e+00	 8.4746389208e-01	 6.2392816658e-02
 1.8511916330e+00	 4.3487859030e-01	 1.5305995683e+00
 1.8435367849e+00	 4.7797724340e-01	 1.4145760921e+00
 1.8350442951e+00	 5.2089242134e-01	 1.2886577425e+00
 1.8256982888e+00	 5.6359403019e-01	 1.1537930897e+00
 1.8154838570e+00	 6.0605158385e-01	 1.0109663781e+00
 1.8043871247e+00	 6.4823427316e-01	 8.6119137820e-01
 1.7923953173e+00	 6.9011103881e-01	 7.0550450852e-01
 1.7794968257e+00	 7.3165064771e-01	 5.4495726676e-01
 1.7656812675e+00	 7.7282177246e-01	 3.8060802581e-01
 1.7509395459e+00	 8.1359307372e-01	 2.1351326535e-01
 1.7352639052e+00	 8.5393328504e-01	 4.4718326403e-02
 1.8652162422e+00	 4.3817322610e-01	 1.5152037309e+00
 1.8575034010e+00	 4.8159839416e-01	 1.3985131702e+00
 1.8489465721e+00	 5.2483869706e-01	 1.2720835967e+00
 1.8395297606e+00	 5.6786381287e-01	 1.1368446826e+00
 1.8292379444e+00	 6.1064302452e-01	 9.9376170147e-01
 1.8180571433e+00	 6.5314528946e-01	 8.4382953592e-01
 1.8059744861e+00	 6.9533931307e-01	 6.8806596285e-01
 1.7929782757e+00	 7.3719362563e-01	 5.2750425617e-01
 1.7790580509e+00	 7.7867666240e-01	 3.6318515923e-01
 1.7642046462e+00	 8.1975684663e-01	 1.9614829626e-01
 1.7484102470e+00	 8.6040267498e-01	 2.7423107651e-02
 1.8792408333e+00	 4.4146785768e-01	 1.4998163870e+00
 1.8714699991e+00	 4.8521954028e-01	 1.3824040603e+00
 1.8628488314e+00	 5.2878496771e-01	 1.2554446309e+00
 1.8533612147e+00	 5.7213359007e-01	 1.1198422087e+00
 1.8429920141e+00	 6.1523445931e-01	 9.7653657517e-01
 1.8317271444e+00	 6.5805629946e-01	 8.2649742032e-01
 1.8195536375e+00	 7.0056758062e-01	 6.7071787116e-01
 1.8064597084e+00	 7.4273659643e-01	 5.1020734584e-01
 1.7924348172e+00	 7.8453154482e-01	 3.4598378443e-01
 1.7774697295e+00	 8.2592061162e-01	 1.7906532176e-01
 1.7615565720e+00	 8.6687205661e-01	 1.0461483918e-02
 1.8932653949e+00	 4.4476248234e-01	 1.4844414881e+00
 1.8854365679e+00	 4.8884067880e-01	 1.3662400787e+00
 1.8767510614e+00	 5.3273123008e-01	 1.2387208225e+00
 1.8671926397e+00	 5.7640335830e-01	 1.1027557736e+00
 1.8567460549e+00	 6.1982588445e-01	 9.5925286741e-01
 1.8453971167e+00	 6.6296729915e-01	 8.0915046274e-01
 1.8331327604e+00	 7.0579583718e-01	 6.5341118950e-01
 1.8199411127e+00	 7.4827955559e-01	 4.9301513395e-01
 1.8058115554e+00	 7.9038641495e-01	 3.2895240796e-01
 1.7907347849e+00	 8.3208436367e-01	 1.6221516367e-01
 1.7747028693e+00	 8.7334142466e-01	-6.2108700539e-03
 1.9072899157e+00	 4.4805709739e-01	 1.4690828634e+00
 1.8994030960e+00	 4.9246180675e-01	 1.3500127910e+00
 1.8906532508e+00	 5.3667748094e-01	 1.2218927322e+00
 1.8810240243e+00	 5.8067311408e-01	 1.0855563563e+00
 1.8705000556e+00	 6.2441729620e-01	 9.4187356274e-01
 1.8590670493e+00	 6.6787828451e-01	 7.9174540068e-01
 1.8467118437e+00	 7.1102407850e-01	 6.3609831229e-01
 1.8334224778e+00	 7.5382249858e-01	 4.7587772694e-01
 1.8191882546e+00	 7.9624126801e-01	 3.1204104791e-01
 1.8039998017e+00	 8.3824809775e-01	 1.4555008766e-01
 1.7878491283e+00	 8.7981077385e-01	-2.2636977965e-02
 1.9213143841e+00	 4.5135170014e-01	 1.4537442239e+00
 1.9133695719e+00	 4.9608292119e-01	 1.3337140027e+00
 1.9045553884e+00	 5.4062371707e-01	 1.2049414819e+00
 1.8948553573e+00	 5.8494285392e-01	 1.0682157775e+00
 1.8842540050e+00	 6.2900869081e-01	 9.2436272122e-01
 1.8727369307e+00	 6.7278925154e-01	 7.7424023005e-01
 1.8602908762e+00	 7.1625230030e-01	 6.1873301973e-01
 1.8469037925e+00	 7.5936542088e-01	 4.5874668442e-01
 1.8325649038e+00	 8.0209609920e-01	 2.9520117862e-01
 1.8172647689e+00	 8.4441180881e-01	 1.2902375061e-01
 1.8009953382e+00	 8.8628009888e-01	-3.8858609447e-02
 1.9353387887e+00	 4.5464628790e-01	 1.4384291666e+00
 1.9273359843e+00	 4.9970401915e-01	 1.3173357504e+00
 1.9184574627e+00	 5.4456993524e-01	 1.1878487349e+00
 1.9086866274e+00	 5.8921257433e-01	 1.0507066690e+00
 1.8980078918e+00	 6.3360006453e-01	 9.0668543934e-01
 1.8864067500e+00	 6.7770019623e-01	 7.5659415953e-01
 1.8738698470e+00	 7.2148049832e-01	 6.0127042755e-01
 1.8603850459e+00	 7.6490831796e-01	 4.4157496648e-01
 1.8459414922e+00	 8.0795090376e-01	 2.7838567800e-01
 1.8305296758e+00	 8.5057549183e-01	 1.1259115015e-01
 1.8141414883e+00	 8.9274939447e-01	-5.4916325490e-02
 1.9493631180e+00	 4.5794085798e-01	 1.4231411787e+00
 1.9413023217e+00	 5.0332509767e-01	 1.3008702936e+00
 1.9323594624e+00	 5.4851613224e-01	 1.1705966755e+00
 1.9225178233e+00	 5.9348227183e-01	 1.0330024442e+00
 1.9117617047e+00	 6.3819141361e-01	 8.8880781264e-01
 1.9000764959e+00	 6.8261111456e-01	 7.3876756684e-01
 1.8874487449e+00	 7.2670866827e-01	 5.8366693891e-01
 1.8738662269e+00	 7.7045118530e-01	 4.2431688330e-01
 1.8593180088e+00	 8.1380567690e-01	 2.6154877692e-01
 1.8437945114e+00	 8.5673914177e-01	 9.6208576434e-02
 1.8272875679e+00	 8.9921865535e-01	-7.0849521924e-02
 1.9633873606e+00	 4.6123540769e-01	 1.4078836412e+00
 1.9552685728e+00	 5.0694615381e-01	 1.2843101064e+00
 1.9462613761e+00	 5.5246230483e-01	 1.1531679912e+00
 1.9363489336e+00	 5.9775194293e-01	 1.0150772703e+00
 1.9255154327e+00	 6.4278273430e-01	 8.7069689998e-01
 1.9137461573e+00	 6.8752200253e-01	 7.2072195691e-01
 1.9010275589e+00	 7.3193680590e-01	 5.6588019835e-01
 1.8873473245e+00	 7.7599401836e-01	 4.0692804682e-01
 1.8726944426e+00	 8.1966041384e-01	 2.4464601093e-01
 1.8570592651e+00	 8.6290275360e-01	 7.9833565977e-02
 1.8404335661e+00	 9.0568787623e-01	-8.6696471032e-02
 1.7089712139e+00	 8.4099450139e-01	 8.0493658071e-02
 1.6926058784e+00	 8.8027101584e-01	-8.9357406110e-02
 1.6753095378e+00	 9.1906186497e-01	-2.5957370743e-01
 1.6570788115e+00	 9.5733697338e-01	-4.2918605483e-01
 1.6379118149e+00	 9.9506668745e-01	-5.9724525896e-01
 1.6178081901e+00	 1.0322218645e+00	-7.6283075778e-01
 1.5967691316e+00	 1.0687739617e+00	-9.2505925397e-01
 1.5747974050e+00	 1.1046951241e+00	-1.0830932362e+00
 1.5518973610e+00	 1.1399582708e+00	-1.2361492514e+00
 1.5280749409e+00	 1.1745371804e+00	-1.3835057949e+00
 1.5033376776e+00	 1.2084065724e+00	-1.5245106849e+00
 1.7221175573e+00	 8.4746389208e-01	 6.2392816658e-02
 1.7056263306e+00	 8.8704254302e-01	-1.0740192208e-01
 1.6881969371e+00	 9.2613179262e-01	-2.7746043630e-01
 1.6698259701e+00	 9.6470133414e-01	-4.4683638444e-01
 1.6505115304e+00	 1.0027212859e+00	-6.1460309476e-01
 1.6302532575e+00	 1.0401622809e+00	-7.7986199594e-01
 1.6090523550e+00	 1.0769955569e+00	-9.4175105895e-01
 1.5869116099e+00	 1.1131930445e+00	-1.0994531247e+00
 1.5638354061e+00	 1.1487274547e+00	-1.2522039878e+00
 1.5398297309e+00	 1.1835723642e+00	-1.3993001064e+00
 1.5149021751e+00	 1.2177022981e+00	-1.5401058070e+00
 1.7352639052e+00	 8.5393328504e-01	 4.4718326403e-02
 1.7186467874e+00	 8.9381407256e-01	-1.2499525672e-01
 1.7010843409e+00	 9.3320172274e-01	-2.9488613542e-01
 1.6825731331e+00	 9.7206569748e-01	-4.6402851320e-01
 1.6631112503e+00	 1.0103758869e+00	-6.3151594461e-01
 1.6426983293e+00	 1.0481027001e+00	-7.9646959275e-01
 1.6213355827e+00	 1.0852171549e+00	-9.5804649754e-01
 1.5990258190e+00	 1.1216909679e+00	-1.1154477320e+00
 1.5757734555e+00	 1.1574966417e+00	-1.2679263194e+00
 1.5515845251e+00	 1.1926075512e+00	-1.4147947838e+00
 1.5264666766e+00	 1.2269980271e+00	-1.5554322058e+00
 1.7484102470e+00	 8.6040267498e-01	 2.7423107651e-02
 1.7316672381e+00	 9.0058559894e-01	-1.4217803568e-01
 1.7139717387e+00	 9.4027164956e-01	-3.1188519434e-01
 1.6953202902e+00	 9.7943005739e-01	-4.8079086266e-01
 1.6757109644e+00	 1.0180304844e+00	-6.4800657968e-01
 1.6551433952e+00	 1.0560431155e+00	-8.1267103475e-01
 1.6336188047e+00	 1.0934387491e+00	-9.7395818397e-01
 1.6111400225e+00	 1.1301888873e+00	-1.1310852568e+00
 1.5877114993e+00	 1.1662658245e+00	-1.2833205282e+00
 1.5633393138e+00	 1.2016427340e+00	-1.4299907305e+00
 1.5380311727e+00	 1.2362937518e+00	-1.5704879804e+00
 1.7615565720e+00	 8.6687205661e-01	 1.0461483918e-02
 1.7446876721e+00	 9.0735711663e-01	-1.5898967383e-01
 1.7268591199e+00	 9.4734156731e-01	-3.2849097769e-01
 1.7080674309e+00	 9.8679440784e-01	-4.9715100748e-01
 1.6883106622e+00	 1.0256850721e+00	-6.6409709280e-01
 1.6675884452e+00	 1.0639835208e+00	-8.2848328785e-01
 1.6459020110e+00	 1.1016603328e+00	-9.8949835724e-01
 1.6232542104e+00	 1.1386867959e+00	-1.1463736544e+00
 1.5996495277e+00	 1.1750349961e+00	-1.2983907697e+00
 1.5750940874e+00	 1.2106779051e+00	-1.4448888246e+00
 1.5495956540e+00	 1.2455894645e+00	-1.5852712886e+00
 1.7747028693e+00	 8.7334142466e-01	-6.2108700539e-03
 1.7577080788e+00	 9.1412862011e-01	-1.7546841999e-01
 1.7397464741e+00	 9.5441147022e-01	-3.4473586314e-01
 1.7208145448e+00	 9.9415874283e-01	-5.1313570670e-01
 1.7009103336e+00	 1.0333396438e+00	-6.7980892352e-01
 1.6800334691e+00	 1.0719239094e+00	-8.4392281652e-01
 1.6581851914e+00	 1.1098818992e+00	-1.0046788950e+00
 1.6353683728e+00	 1.1471846866e+00	-1.1613206457e+00
 1.6115875311e+00	 1.1838041493e+00	-1.3131410779e+00
 1.5868488363e+00	 1.2197130573e+00	-1.4594899194e+00
 1.5611601110e+00	 1.2548851577e+00	-1.5997803439e+00
 1.7878491283e+00	 8.7981077385e-01	-2.2636977965e-02
 1.7707284474e+00	 9.2090010383e-01	-1.9165139983e-01
 1.7526337907e+00	 9.6148135250e-01	-3.6065127760e-01
 1.7335616215e+00	 1.0015230563e+00	-5.2877093374e-01
 1.7135099683e+00	 1.0409941930e+00	-6.9516288208e-01
 1.6924784566e+00	 1.0798642749e+00	-8.5900560220e-01
 1.6704683360e+00	 1.1181034416e+00	-1.0195113267e+00
 1.6474825000e+00	 1.1556825525e+00	-1.1759337258e+00
 1.6235254997e+00	 1.1925732770e+00	-1.3275753692e+00
 1.5986035510e+00	 1.2287481832e+00	-1.4737948447e+00
 1.5727245343e+00	 1.2641808238e+00	-1.6140134141e+00
 1.8009953382e+00	 8.8628009888e-01	-3.8858609447e-02
 1.7837487675e+00	 9.2767156227e-01	-2.0757465683e-01
 1.7655210592e+00	 9.6855120839e-01	-3.7626773195e-01
 1.7463086507e+00	 1.0088873423e+00	-5.4408190498e-01
 1.7261095559e+00	 1.0486487138e+00	-7.1017917234e-01
 1.7049233977e+00	 1.0878046107e+00	-8.7374716090e-01
 1.6827514348e+00	 1.1263249533e+00	-1.0340068464e+00
 1.6595965819e+00	 1.1641803866e+00	-1.1902201720e+00
 1.6354634237e+00	 1.2013423718e+00	-1.3416974469e+00
 1.6103582217e+00	 1.2377832753e+00	-1.4878044073e+00
 1.5842889143e+00	 1.2734764552e+00	-1.6279688186e+00
 1.8141414883e+00	 8.9274939447e-01	-5.4916325490e-02
 1.7967690283e+00	 9.3444298990e-01	-2.2327319145e-01
 1.7784082690e+00	 9.7562103211e-01	-3.9161485415e-01
 1.7590556219e+00	 1.0162515949e+00	-5.5909310721e-01
 1.7387090862e+00	 1.0563031996e+00	-7.2487741375e-01
 1.7173682822e+00	 1.0957449103e+00	-8.8816255999e-01
 1.6950344776e+00	 1.1345464276e+00	-1.0481763248e+00
 1.6717106087e+00	 1.1726781822e+00	-1.2041870518e+00
 1.6474012934e+00	 1.2101114268e+00	-1.3555110053e+00
 1.6221128390e+00	 1.2468183263e+00	-1.5015193916e+00
 1.5958532418e+00	 1.2827720443e+00	-1.6416449272e+00
 1.8272875679e+00	 8.9921865535e-01	-7.0849521924e-02
 1.8097892193e+00	 9.4121438120e-01	-2.3878099865e-01
 1.7912954097e+00	 9.8269081789e-01	-4.0672142102e-01
 1.7718025246e+00	 1.0236158078e+00	-5.7382832380e-01
 1.7513085489e+00	 1.0639576444e+00	-7.3927666228e-01
 1.7298130998e+00	 1.1036851674e+00	-9.0226643435e-01
 1.7073174546e+00	 1.1427678578e+00	-1.0620303208e+00
 1.6838245705e+00	 1.1811759321e+00	-1.2178412307e+00
 1.6593390990e+00	 1.2188804347e+00	-1.3690196337e+00
 1.6338673932e+00	 1.2558533288e+00	-1.5149405612e+00
 1.6074175072e+00	 1.2920675835e+00	-1.6550401579e+00
 1.8404335661e+00	 9.0568787623e-01	-8.6696471032e-02
 1.8228093297e+00	 9.4798573062e-01	-2.5413110381e-01
 1.8041824707e+00	 9.8976055995e-01	-4.2161538857e-01
 1.7845493486e+00	 1.0309799753e+00	-5.8831065983e-01
 1.7639079336e+00	 1.0716120419e+00	-7.5339543056e-01
 1.7422578406e+00	 1.1116253754e+00	-9.1607300174e-01
 1.7196003556e+00	 1.1509892371e+00	-1.0755790926e+00
 1.6959384573e+00	 1.1896736294e+00	-1.2311893787e+00
 1.6712768308e+00	 1.2276493884e+00	-1.3822268197e+00
 1.6456218747e+00	 1.2648882754e+00	-1.5280686586e+00
 1.6189817012e+00	 1.3013630652e+00	-1.6681529751e+00
 1.5033376776e+00	 1.2084065724e+00	-1.5245106849e+00
 1.4776946846e+00	 1.2415421896e+00	-1.6588175892e+00
 1.4511566314e+00	 1.2739208828e+00	-1.7862120429e+00
 1.4237357347e+00	 1.3055206731e+00	-1.9063437201e+00
 1.3954457360e+00	 1.3363208170e+00	-2.0189287811e+00
 1.3663018685e+00	 1.3663018685e+00	-2.1237524450e+00
 1.3363208170e+00	 1.3954457360e+00	-2.2206707764e+00
 1.3055206731e+00	 1.4237357347e+00	-2.3096116565e+00
 1.2739208828e+00	 1.4511566314e+00	-2.3905749216e+00
 1.2415421896e+00	 1.4776946846e+00	-2.4636316670e+00
 1.2084065724e+00	 1.5033376776e+00	-2.5289227336e+00
 1.5149021751e+00	 1.2177022981e+00	-1.5401058070e+00
 1.4890619222e+00	 1.2510928127e+00	-1.6742564252e+00
 1.4623197237e+00	 1.2837205805e+00	-1.8015186169e+00
 1.4346878904e+00	 1.3155634537e+00	-1.9215563039e+00
 1.4061802696e+00	 1.3466005293e+00	-2.0340994713e+00
 1.3768122114e+00	 1.3768122114e+00	-2.1389466358e+00
 1.3466005293e+00	 1.4061802696e+00	-2.2359665360e+00
 1.3155634537e+00	 1.4346878904e+00	-2.3250990116e+00
 1.2837205805e+00	 1.4623197237e+00	-2.4063550587e+00
 1.2510928127e+00	 1.4890619222e+00	-2.4798160609e+00
 1.2177022981e+00	 1.5149021751e+00	-2.5456322111e+00
 1.5264666766e+00	 1.2269980271e+00	-1.5554322058e+00
 1.5004291636e+00	 1.2606434391e+00	-1.6894562198e+00
 1.4734828198e+00	 1.2935202817e+00	-1.8166150037e+00
 1.4456400499e+00	 1.3256062379e+00	-1.9365849581e+00
 1.4169148068e+00	 1.3568802451e+00	-2.0491084200e+00
 1.3873225580e+00	 1.3873225580e+00	-2.1539960442e+00
 1.3568802451e+00	 1.4169148068e+00	-2.2511284070e+00
 1.3256062379e+00	 1.4456400499e+00	-2.3404568028e+00
 1.2935202817e+00	 1.4734828198e+00	-2.4220032198e+00
 1.2606434391e+00	 1.5004291636e+00	-2.4958594962e+00
 1.2269980271e+00	 1.5264666766e+00	-2.5621856736e+00
 1.5380311727e+00	 1.2362937518e+00	-1.5704879804e+00
 1.5117963998e+00	 1.2701940611e+00	-1.7044129963e+00
 1.4846459108e+00	 1.3033199782e+00	-1.8314960404e+00
 1.4565922043e+00	 1.3356490174e+00	-1.9514242625e+00
 1.4276493391e+00	 1.3671599561e+00	-2.0639509130e+00
 1.3978328997e+00	 1.3978328997e+00	-2.1688976522e+00
 1.3671599561e+00	 1.4276493391e+00	-2.2661560797e+00
 1.3356490174e+00	 1.4565922043e+00	-2.3556884555e+00
 1.3033199782e+00	 1.4846459108e+00	-2.4375275996e+00
 1.2701940611e+00	 1.5117963998e+00	-2.5117759728e+00
 1.2362937518e+00	 1.5380311727e+00	-2.5786039571e+00
 1.5495956540e+00	 1.2455894645e+00	-1.5852712886e+00
 1.5231636214e+00	 1.2797446708e+00	-1.7191228987e+00
 1.4958089874e+00	 1.3131196623e+00	-1.8461567197e+00
 1.4675443447e+00	 1.3456917839e+00	-1.9660689603e+00
 1.4383838576e+00	 1.3774396540e+00	-2.0786223783e+00
 1.4083432279e+00	 1.4083432279e+00	-2.1836485339e+00
 1.3774396540e+00	 1.4383838576e+00	-2.2810492558e+00
 1.3456917839e+00	 1.4675443447e+00	-2.3707972949e+00
 1.3131196623e+00	 1.4958089874e+00	-2.4529361502e+00
 1.2797446708e+00	 1.5231636214e+00	-2.5275790748e+00
 1.2455894645e+00	 1.5495956540e+00	-2.5949072767e+00
 1.5611601110e+00	 1.2548851577e+00	-1.5997803439e+00
 1.5345308192e+00	 1.2892952604e+00	-1.7335821864e+00
 1.5069720406e+00	 1.3229193257e+00	-1.8605921845e+00
 1.4784964621e+00	 1.3557345294e+00	-1.9805139524e+00
 1.4491183535e+00	 1.3877193302e+00	-2.0931183813e+00
 1.4188535340e+00	 1.4188535340e+00	-2.1982458517e+00
 1.3877193302e+00	 1.4491183535e+00	-2.2958076475e+00
 1.3557345294e+00	 1.4784964621e+00	-2.3857865490e+00
 1.3229193257e+00	 1.5069720406e+00	-2.4682365897e+00
 1.2892952604e+00	 1.5345308192e+00	-2.5432819850e+00
 1.2548851577e+00	 1.5611601110e+00	-2.6111152507e+00
 1.5727245343e+00	 1.2641808238e+00	-1.6140134141e+00
 1.5458979837e+00	 1.2988458222e+00	-1.7477872305e+00
 1.5181350613e+00	 1.3327189605e+00	-1.8747977222e+00
 1.4894485475e+00	 1.3657772456e+00	-1.9947542912e+00
 1.4598528182e+00	 1.3979989765e+00	-2.1074346195e+00
 1.4293638095e+00	 1.4293638095e+00	-2.2126868534e+00
 1.3979989765e+00	 1.4598528182e+00	-2.3104309773e+00
 1.3657772456e+00	 1.4894485475e+00	-2.4006593530e+00
 1.3327189605e+00	 1.5181350613e+00	-2.4834364109e+00
 1.2988458222e+00	 1.5458979837e+00	-2.5588975005e+00
 1.2641808238e+00	 1.5727245343e+00	-2.6272469216e+00
 1.5842889143e+00	 1.2734764552e+00	-1.6279688186e+00
 1.5572651059e+00	 1.3083963484e+00	-1.7617345098e+00
 1.5292980402e+00	 1.3425185588e+00	-1.8887687591e+00
 1.5004005920e+00	 1.3758199243e+00	-2.0087851753e+00
 1.4705872427e+00	 1.4082785844e+00	-2.1215669179e+00
 1.4398740457e+00	 1.4398740457e+00	-2.2269688689e+00
 1.4082785844e+00	 1.4705872427e+00	-2.3249189775e+00
 1.3758199243e+00	 1.5004005920e+00	-2.4154187523e+00
 1.3425185588e+00	 1.5292980402e+00	-2.4985428897e+00
 1.3083963484e+00	 1.5572651059e+00	-2.5744380464e+00
 1.2734764552e+00	 1.5842889143e+00	-2.6433207778e+00
 1.5958532418e+00	 1.2827720443e+00	-1.6416449272e+00
 1.5686321763e+00	 1.3179468310e+00	-1.7754206062e+00
 1.5404609684e+00	 1.3523181125e+00	-1.9025008560e+00
 1.5113525867e+00	 1.3858625574e+00	-2.0226019443e+00
 1.4813216185e+00	 1.4185581455e+00	-2.1355112241e+00
 1.4503842341e+00	 1.4503842341e+00	-2.2410893072e+00
 1.4185581455e+00	 1.4813216185e+00	-2.3392713901e+00
 1.3858625574e+00	 1.5113525867e+00	-2.4300677057e+00
 1.3523181125e+00	 1.5404609684e+00	-2.5135630929e+00
 1.3179468310e+00	 1.5686321763e+00	-2.5899156893e+00
 1.2827720443e+00	 1.5958532418e+00	-2.6593547733e+00
 1.6074175072e+00	 1.2920675835e+00	-1.6550401579e+00
 1.5799991857e+00	 1.3274972625e+00	-1.7888422018e+00
 1.5516238367e+00	 1.3621176136e+00	-1.9159897028e+00
 1.5223045226e+00	 1.3959051365e+00	-2.0362000733e+00
 1.4920559366e+00	 1.4288376514e+00	-2.1492636041e+00
 1.4608943661e+00	 1.4608943661e+00	-2.2550456539e+00
 1.4288376514e+00	 1.4920559366e+00	-2.3534879663e+00
 1.3959051365e+00	 1.5223045226e+00	-2.4446090888e+00
 1.3621176136e+00	 1.5516238367e+00	-2.5285038855e+00
 1.3274972625e+00	 1.5799991857e+00	-2.6053421503e+00
 1.2920675835e+00	 1.6074175072e+00	-2.6753663470e+00
 1.6189817012e+00	 1.3013630652e+00	-1.6681529751e+00
 1.5913661249e+00	 1.3370476348e+00	-1.8019960747e+00
 1.5627866359e+00	 1.3719170541e+00	-1.9292311142e+00
 1.5332563909e+00	 1.4059476535e+00	-2.0495751683e+00
 1.5027901883e+00	 1.4391170938e+00	-2.1628202378e+00
 1.4714044331e+00	 1.4714044331e+00	-2.2688354678e+00
 1.4391170938e+00	 1.5027901883e+00	-2.3675684660e+00
 1.4059476535e+00	 1.5332563909e+00	-2.4590456966e+00
 1.3719170541e+00	 1.5627866359e+00	-2.5433719383e+00
 1.3370476348e+00	 1.5913661249e+00	-2.6207288174e+00
 1.3013630652e+00	 1.6189817012e+00	-2.6913724413e+00
 1.2084065724e+00	 1.5033376776e+00	-2.5289227336e+00
 1.1745371804e+00	 1.5280749409e+00	-2.5867268632e+00
 1.1399582708e+00	 1.5518973610e+00	-2.6372428450e+00
 1.1046951241e+00	 1.5747974050e+00	-2.6805845258e+00
 1.0687739617e+00	 1.5967691316e+00	-2.7169196666e+00
 1.0322218645e+00	 1.6178081901e+00	-2.7464669927e+00
 9.9506668745e-01	 1.6379118149e+00	-2.7694927509e+00
 9.5733697338e-01	 1.6570788115e+00	-2.7863068348e+00
 9.1906186497e-01	 1.6753095378e+00	-2.7972585512e+00
 8.8027101584e-01	 1.6926058784e+00	-2.8027320991e+00
 8.4099450139e-01	 1.7089712139e+00	-2.8031418368e+00
 1.2177022981e+00	 1.5149021751e+00	-2.5456322111e+00
 1.1835723642e+00	 1.5398297309e+00	-2.6040806411e+00
 1.1487274547e+00	 1.5638354061e+00	-2.6553489080e+00
 1.1131930445e+00	 1.5869116099e+00	-2.6995472024e+00
 1.0769955569e+00	 1.6090523550e+00	-2.7368424828e+00
 1.0401622809e+00	 1.6302532575e+00	-2.7674554649e+00
 1.0027212859e+00	 1.6505115304e+00	-2.7916570810e+00
 9.6470133414e-01	 1.6698259701e+00	-2.8097644777e+00
 9.2613179262e-01	 1.6881969371e+00	-2.8221366241e+00
 8.8704254302e-01	 1.7056263306e+00	-2.8291696072e+00
 8.4746389208e-01	 1.7221175573e+00	-2.8312916954e+00
 1.2269980271e+00	 1.5264666766e+00	-2.5621856736e+00
 1.1926075512e+00	 1.5515845251e+00	-2.6212636162e+00
 1.1574966417e+00	 1.5757734555e+00	-2.6732783349e+00
 1.1216909679e+00	 1.5990258190e+00	-2.7183397638e+00
 1.0852171549e+00	 1.6213355827e+00	-2.7566163207e+00
 1.0481027001e+00	 1.6426983293e+00	-2.7883318500e+00
 1.0103758869e+00	 1.6631112503e+00	-2.8137620137e+00
 9.7206569748e-01	 1.6825731331e+00	-2.8332302009e+00
 9.3320172274e-01	 1.7010843409e+00	-2.8471030300e+00
 8.9381407256e-01	 1.7186467874e+00	-2.8557855243e+00
 8.5393328504e-01	 1.7352639052e+00	-2.8597160404e+00
 1.2362937518e+00	 1.5380311727e+00	-2.5786039571e+00
 1.2016427340e+00	 1.5633393138e+00	-2.6383022605e+00
 1.1662658245e+00	 1.5877114993e+00	-2.6910597673e+00
 1.1301888873e+00	 1.6111400225e+00	-2.7369895054e+00
 1.0934387491e+00	 1.6336188047e+00	-2.7762635880e+00
 1.0560431155e+00	 1.6551433952e+00	-2.8091101228e+00
 1.0180304844e+00	 1.6757109644e+00	-2.8358095634e+00
 9.7943005739e-01	 1.6953202902e+00	-2.8566905698e+00
 9.4027164956e-01	 1.7139717387e+00	-2.8721254568e+00
 9.0058559894e-01	 1.7316672381e+00	-2.8825253091e+00
 8.6040267498e-01	 1.7484102470e+00	-2.8883348458e+00
 1.2455894645e+00	 1.5495956540e+00	-2.5949072767e+00
 1.2106779051e+00	 1.5750940874e+00	-2.6552222575e+00
 1.1750349961e+00	 1.5996495277e+00	-2.7087209932e+00
 1.1386867959e+00	 1.6232542104e+00	-2.7555229096e+00
 1.1016603328e+00	 1.6459020110e+00	-2.7958060250e+00
 1.0639835208e+00	 1.6675884452e+00	-2.8298038422e+00
 1.0256850721e+00	 1.6883106622e+00	-2.8578016855e+00
 9.8679440784e-01	 1.7080674309e+00	-2.8801325528e+00
 9.4734156731e-01	 1.7268591199e+00	-2.8971725589e+00
 9.0735711663e-01	 1.7446876721e+00	-2.9093360507e+00
 8.6687205661e-01	 1.7615565720e+00	-2.9170704761e+00
 1.2548851577e+00	 1.5611601110e+00	-2.6111152507e+00
 1.2197130573e+00	 1.5868488363e+00	-2.6720485309e+00
 1.1838041493e+00	 1.6115875311e+00	-2.7262889788e+00
 1.1471846866e+00	 1.6353683728e+00	-2.7739656751e+00
 1.1098818992e+00	 1.6581851914e+00	-2.8152647291e+00
 1.0719239094e+00	 1.6800334691e+00	-2.8504261667e+00
 1.0333396438e+00	 1.7009103336e+00	-2.8797402793e+00
 9.9415874283e-01	 1.7208145448e+00	-2.9035435059e+00
 9.5441147022e-01	 1.7397464741e+00	-2.9222139207e+00
 9.1412862011e-01	 1.7577080788e+00	-2.9361664074e+00
 8.7334142466e-01	 1.7747028693e+00	-2.9458475987e+00
 1.2641808238e+00	 1.5727245343e+00	-2.6272469216e+00
 1.2287481832e+00	 1.5986035510e+00	-2.6888052730e+00
 1.1925732770e+00	 1.6235254997e+00	-2.7437898986e+00
 1.1556825525e+00	 1.6474825000e+00	-2.7923427464e+00
 1.1181034416e+00	 1.6704683360e+00	-2.8346601789e+00
 1.0798642749e+00	 1.6924784566e+00	-2.8709898692e+00
 1.0409941930e+00	 1.7135099683e+00	-2.9016271894e+00
 1.0015230563e+00	 1.7335616215e+00	-2.9269111585e+00
 9.6148135250e-01	 1.7526337907e+00	-2.9472200235e+00
 9.2090010383e-01	 1.7707284474e+00	-2.9629665500e+00
 8.7981077385e-01	 1.7878491283e+00	-2.9745930986e+00
 1.2734764552e+00	 1.5842889143e+00	-2.6433207778e+00
 1.2377832753e+00	 1.6103582217e+00	-2.7055159715e+00
 1.2013423718e+00	 1.6354634237e+00	-2.7612491643e+00
 1.1641803866e+00	 1.6595965819e+00	-2.8106783410e+00
 1.1263249533e+00	 1.6827514348e+00	-2.8540122560e+00
 1.0878046107e+00	 1.7049233977e+00	-2.8915073513e+00
 1.0486487138e+00	 1.7261095559e+00	-2.9234642084e+00
 1.0088873423e+00	 1.7463086507e+00	-2.9502236000e+00
 9.6855120839e-01	 1.7655210592e+00	-2.9721622120e+00
 9.2767156227e-01	 1.7837487675e+00	-2.9896881058e+00
 8.8628009888e-01	 1.8009953382e+00	-3.0032359976e+00
 1.2827720443e+00	 1.5958532418e+00	-2.6593547733e+00
 1.2468183263e+00	 1.6221128390e+00	-2.7222034345e+00
 1.2101114268e+00	 1.6474012934e+00	-2.7786914525e+00
 1.1726781822e+00	 1.6717106087e+00	-2.8289959759e+00
 1.1345464276e+00	 1.6950344776e+00	-2.8733402676e+00
 1.0957449103e+00	 1.7173682822e+00	-2.9119906565e+00
 1.0563031996e+00	 1.7387090862e+00	-2.9452530782e+00
 1.0162515949e+00	 1.7590556219e+00	-2.9734692669e+00
 9.7562103211e-01	 1.7784082690e+00	-2.9970126633e+00
 9.3444298990e-01	 1.7967690283e+00	-3.0162841063e+00
 8.9274939447e-01	 1.8141414883e+00	-3.0317073772e+00
 1.2920675835e+00	 1.6074175072e+00	-2.6753663470e+00
 1.2558533288e+00	 1.6338673932e+00	-2.7388898155e+00
 1.2188804347e+00	 1.6593390990e+00	-2.7961407311e+00
 1.1811759321e+00	 1.6838245705e+00	-2.8473184928e+00
 1.1427678578e+00	 1.7073174546e+00	-2.8926629665e+00
 1.1036851674e+00	 1.7298130998e+00	-2.9324514831e+00
 1.0639576444e+00	 1.7513085489e+00	-2.9669954923e+00
 1.0236158078e+00	 1.7718025246e+00	-2.9966369298e+00
 9.8269081789e-01	 1.7912954097e+00	-3.0217443572e+00
 9.4121438120e-01	 1.8097892193e+00	-3.0427089368e+00
 8.9921865535e-01	 1.8272875679e+00	-3.0599403044e+00
 1.3013630652e+00	 1.6189817012e+00	-2.6913724413e+00
 1.2648882754e+00	 1.6456218747e+00	-2.7555966366e+00
 1.2276493884e+00	 1.6712768308e+00	-2.8136202849e+00
 1.1896736294e+00	 1.6959384573e+00	-2.8656680823e+00
 1.1509892371e+00	 1.7196003556e+00	-2.9119985712e+00
 1.1116253754e+00	 1.7422578406e+00	-2.9529011967e+00
 1.0716120419e+00	 1.7639079336e+00	-2.9886930974e+00
 1.0309799753e+00	 1.7845493486e+00	-3.0197156821e+00
 9.8976055995e-01	 1.8041824707e+00	-3.0463310470e+00
 9.4798573062e-01	 1.8228093297e+00	-3.0689182876e+00
 9.0568787623e-01	 1.8404335661e+00	-3.0878697604e+00
 8.4099450139e-01	 1.7089712139e+00	-2.8031418368e+00
 8.0126552432e-01	 1.7244093376e+00	-2.7997720306e+00
 7.6111198917e-01	 1.7389276928e+00	-2.7938783306e+00
 7.2056468865e-01	 1.7525339179e+00	-2.7857892520e+00
 6.7965448725e-01	 1.7652369718e+00	-2.7757514111e+00
 6.3841223768e-01	 1.7770470794e+00	-2.7639328316e+00
 5.9686869982e-01	 1.7879756743e+00	-2.7504268986e+00
 5.5505446234e-01	 1.7980353372e+00	-2.7352568588e+00
 5.1299986759e-01	 1.8072397329e+00	-2.7183807590e+00
 4.7073493975e-01	 1.8156035447e+00	-2.6996967226e+00
 4.2828931676e-01	 1.8231424066e+00	-2.6790484623e+00
 8.4746389208e-01	 1.7221175573e+00	-2.8312916954e+00
 8.0742929794e-01	 1.7376744394e+00	-2.8296242227e+00
 7.6696687979e-01	 1.7523044778e+00	-2.8252627987e+00
 7.2610766721e-01	 1.7660153695e+00	-2.8185570536e+00
 6.8488276212e-01	 1.7788161422e+00	-2.8097769478e+00
 6.4332325456e-01	 1.7907170996e+00	-2.7991157580e+00
 6.0146014103e-01	 1.8017297632e+00	-2.7866937094e+00
 5.5932424552e-01	 1.8118668106e+00	-2.7725621538e+00
 5.1694614377e-01	 1.8211420116e+00	-2.7567081943e+00
 4.7435609094e-01	 1.8295701624e+00	-2.7390596551e+00
 4.3158395295e-01	 1.8371670174e+00	-2.7194903018e+00
 8.5393328504e-01	 1.7352639052e+00	-2.8597160404e+00
 8.1359307372e-01	 1.7509395459e+00	-2.8598522865e+00
 7.7282177246e-01	 1.7656812675e+00	-2.8571265443e+00
 7.3165064771e-01	 1.7794968257e+00	-2.8519034211e+00
 6.9011103881e-01	 1.7923953173e+00	-2.8444729039e+00
 6.4823427316e-01	 1.8043871247e+00	-2.8350528652e+00
 6.0605158385e-01	 1.8154838570e+00	-2.8237921926e+00
 5.6359403019e-01	 1.8256982888e+00	-2.8107744497e+00
 5.2089242134e-01	 1.8350442951e+00	-2.7960219763e+00
 4.7797724340e-01	 1.8435367849e+00	-2.7795003358e+00
 4.3487859030e-01	 1.8511916330e+00	-2.7611230196e+00
 8.6040267498e-01	 1.7484102470e+00	-2.8883348458e+00
 8.1975684663e-01	 1.7642046462e+00	-2.8903539320e+00
 7.7867666240e-01	 1.7790580509e+00	-2.8893546316e+00
 7.3719362563e-01	 1.7929782757e+00	-2.8857103448e+00
 6.9533931307e-01	 1.8059744861e+00	-2.8797276698e+00
 6.5314528946e-01	 1.8180571433e+00	-2.8716482729e+00
 6.1064302452e-01	 1.8292379444e+00	-2.8616513383e+00
 5.6786381287e-01	 1.8395297606e+00	-2.8498565194e+00
 5.2483869706e-01	 1.8489465721e+00	-2.8363273092e+00
 4.8159839416e-01	 1.8575034010e+00	-2.8210747516e+00
 4.3817322610e-01	 1.8652162422e+00	-2.8040614128e+00
 8.6687205661e-01	 1.7615565720e+00	-2.9170704761e+00
 8.2592061162e-01	 1.7774697295e+00	-2.9210299247e+00
 7.8453154482e-01	 1.7924348172e+00	-2.9218355584e+00
 7.4273659643e-01	 1.8064597084e+00	-2.9198633399e+00
 7.0056758062e-01	 1.8195536375e+00	-2.9154329694e+00
 6.5805629946e-01	 1.8317271444e+00	-2.9088089646e+00
 6.1523445931e-01	 1.8429920141e+00	-2.9002022579e+00
 5.7213359007e-01	 1.8533612147e+00	-2.8897722482e+00
 5.2878496771e-01	 1.8628488314e+00	-2.8776292419e+00
 4.8521954028e-01	 1.8714699991e+00	-2.8638372180e+00
 4.4146785768e-01	 1.8792408333e+00	-2.8484168515e+00
 8.7334142466e-01	 1.7747028693e+00	-2.9458475987e+00
 8.3208436367e-01	 1.7907347849e+00	-2.9517839728e+00
 7.9038641495e-01	 1.8058115554e+00	-2.9544611280e+00
 7.4827955559e-01	 1.8199411127e+00	-2.9542513157e+00
 7.0579583718e-01	 1.8331327604e+00	-2.9514837370e+00
 6.6296729915e-01	 1.8453971167e+00	-2.9464446820e+00
 6.1982588445e-01	 1.8567460549e+00	-2.9393781052e+00
 5.7640335830e-01	 1.8671926397e+00	-2.9304865925e+00
 5.3273123008e-01	 1.8767510614e+00	-2.9199326747e+00
 4.8884067880e-01	 1.8854365679e+00	-2.9078404413e+00
 4.4476248234e-01	 1.8932653949e+00	-2.8942974051e+00
 8.7981077385e-01	 1.7878491283e+00	-2.9745930986e+00
 8.3824809775e-01	 1.8039998017e+00	-2.9825226189e+00
 7.9624126801e-01	 1.8191882546e+00	-2.9871263287e+00
 7.5382249858e-01	 1.8334224778e+00	-2.9887664517e+00
 7.1102407850e-01	 1.8467118437e+00	-2.9877779992e+00
 6.6787828451e-01	 1.8590670493e+00	-2.9844678231e+00
 6.2441729620e-01	 1.8705000556e+00	-2.9791140016e+00
 5.8067311408e-01	 1.8810240243e+00	-2.9719655402e+00
 5.3667748094e-01	 1.8906532508e+00	-2.9632423640e+00
 4.9246180675e-01	 1.8994030960e+00	-2.9531355776e+00
 4.4805709739e-01	 1.9072899157e+00	-2.9418079647e+00
 8.8628009888e-01	 1.8009953382e+00	-3.0032359976e+00
 8.4441180881e-01	 1.8172647689e+00	-3.0131551365e+00
 8.0209609920e-01	 1.8325649038e+00	-3.0197292173e+00
 7.5936542088e-01	 1.8469037925e+00	-3.0233040775e+00
 7.1625230030e-01	 1.8602908762e+00	-3.0242167623e+00
 6.7278925154e-01	 1.8727369307e+00	-3.0227933457e+00
 6.2900869081e-01	 1.8842540050e+00	-3.0193469644e+00
 5.8494285392e-01	 1.8948553573e+00	-3.0141760737e+00
 5.4062371707e-01	 1.9045553884e+00	-3.0075629282e+00
 4.9608292119e-01	 1.9133695719e+00	-2.9997722898e+00
 4.5135170014e-01	 1.9213143841e+00	-2.9910503582e+00
 8.9274939447e-01	 1.8141414883e+00	-3.0317073772e+00
 8.5057549183e-01	 1.8305296758e+00	-3.0435934313e+00
 8.0795090376e-01	 1.8459414922e+00	-3.0521708075e+00
 7.6490831796e-01	 1.8603850459e+00	-3.0577625591e+00
 7.2148049832e-01	 1.8738698470e+00	-3.0607039041e+00
 6.7770019623e-01	 1.8864067500e+00	-3.0613386746e+00
 6.3360006453e-01	 1.8980078918e+00	-3.0600158383e+00
 5.8921257433e-01	 1.9086866274e+00	-3.0570861335e+00
 5.4456993524e-01	 1.9184574627e+00	-3.0528988525e+00
 4.9970401915e-01	 1.9273359843e+00	-3.0477988014e+00
 4.5464628790e-01	 1.9353387887e+00	-3.0421234622e+00
 8.9921865535e-01	 1.8272875679e+00	-3.0599403044e+00
 8.5673914177e-01	 1.8437945114e+00	-3.0737519463e+00
 8.1380567690e-01	 1.8593180088e+00	-3.0843549644e+00
 7.7045118530e-01	 1.8738662269e+00	-3.0920431895e+00
 7.2670866827e-01	 1.8874487449e+00	-3.0971460708e+00
 6.8261111456e-01	 1.9000764959e+00	-3.1000236129e+00
 6.3819141361e-01	 1.9117617047e+00	-3.1010612292e+00
 5.9348227183e-01	 1.9225178233e+00	-3.1006645841e+00
 5.4851613224e-01	 1.9323594624e+00	-3.0992544941e+00
 5.0332509767e-01	 1.9413023217e+00	-3.0972619487e+00
 4.5794085798e-01	 1.9493631180e+00	-3.0951233081e+00
 9.0568787623e-01	 1.8404335661e+00	-3.0878697604e+00
 8.6290275360e-01	 1.8570592651e+00	-3.1035475713e+00
 8.1966041384e-01	 1.8726944426e+00	-3.1161883018e+00
 7.7599401836e-01	 1.8873473245e+00	-3.1260500845e+00
 7.3193680590e-01	 1.9010275589e+00	-3.1334525780e+00
 6.8752200253e-01	 1.9137461573e+00	-3.1387702570e+00
 6.4278273430e-01	 1.9255154327e+00	-3.1424254420e+00
 5.9775194293e-01	 1.9363489336e+00	-3.1448811807e+00
 5.5246230483e-01	 1.9462613761e+00	-3.1466340862e+00
 5.0694615381e-01	 1.9552685728e+00	-3.1482072305e+00
 4.6123540769e-01	 1.9633873606e+00	-3.1501431836e+00
 4.2828931676e-01	 1.8231424066e+00	-2.6790484623e+00
 3.8568920739e-01	 1.8298732788e+00	-2.6599448622e+00
 3.4296629828e-01	 1.8358129380e+00	-2.6455845909e+00
 3.0014874933e-01	 1.8409794613e+00	-2.6352688998e+00
 2.5726409930e-01	 1.8453915989e+00	-2.6282592491e+00
 2.1433921849e-01	 1.8490687050e+00	-2.6237858515e+00
 1.7140026596e-01	 1.8520306682e+00	-2.6210557791e+00
 1.2847265116e-01	 1.8542978437e+00	-2.6192605776e+00
 8.5580999907e-02	 1.8558909863e+00	-2.6175833458e+00
 4.2749124825e-02	 1.8568311855e+00	-2.6152052506e+00
 0.0000000000e+00	 1.8571398015e+00	-2.6113114588e+00
 4.3158395295e-01	 1.8371670174e+00	-2.7194903018e+00
 3.8865614018e-01	 1.8439496671e+00	-2.7015001197e+00
 3.4560458304e-01	 1.8499350174e+00	-2.6882228684e+00
 3.0245765804e-01	 1.8551412844e+00	-2.6788997342e+00
 2.5924311577e-01	 1.8595873627e+00	-2.6727245902e+00
 2.1598803324e-01	 1.8632927551e+00	-2.6688538266e+00
 1.7271877076e-01	 1.8662775033e+00	-2.6664156948e+00
 1.2946093321e-01	 1.8685621191e+00	-2.6645191001e+00
 8.6239335869e-02	 1.8701675171e+00	-2.6622617915e+00
 4.3077974526e-02	 1.8711149488e+00	-2.6587379133e+00
 0.0000000000e+00	 1.8714259389e+00	-2.6530448927e+00
 4.3487859030e-01	 1.8511916330e+00	-2.7611230196e+00
 3.9162307402e-01	 1.8580260603e+00	-2.7443573212e+00
 3.4824286873e-01	 1.8640571018e+00	-2.7322466209e+00
 3.0476656755e-01	 1.8693031125e+00	-2.7239755909e+00
 2.6122213293e-01	 1.8737831314e+00	-2.7186682260e+00
 2.1763684858e-01	 1.8775168101e+00	-2.7153995403e+00
 1.7403727602e-01	 1.8805243434e+00	-2.7132067317e+00
 1.3044921561e-01	 1.8828263996e+00	-2.7110997311e+00
 8.6897672061e-02	 1.8844440529e+00	-2.7080710696e+00
 4.3406824341e-02	 1.8853987171e+00	-2.7031050152e+00
 0.0000000000e+00	 1.8857120812e+00	-2.6951859457e+00
 4.3817322610e-01	 1.8652162422e+00	-2.8040614128e+00
 3.9459000647e-01	 1.8721024470e+00	-2.7886807410e+00
 3.5088115318e-01	 1.8781791796e+00	-2.7778434680e+00
 3.0707547599e-01	 1.8834649340e+00	-2.7706818857e+00
 2.6320114917e-01	 1.8879788935e+00	-2.7662484889e+00
 2.1928566315e-01	 1.8917408585e+00	-2.7635301072e+00
 1.7535578067e-01	 1.8947711768e+00	-2.7614614622e+00
 1.3143749755e-01	 1.8970906734e+00	-2.7589380418e+00
 8.7556007947e-02	 1.8987205820e+00	-2.7548282015e+00
 4.3735674004e-02	 1.8996824787e+00	-2.7479844278e+00
 0.0000000000e+00	 1.8999982169e+00	-2.7372537145e+00
 4.4146785768e-01	 1.8792408333e+00	-2.8484168515e+00
 3.9755693512e-01	 1.8861788156e+00	-2.8346297493e+00
 3.5351943425e-01	 1.8923012392e+00	-2.8251954276e+00
 3.0938438146e-01	 1.8976267374e+00	-2.8191984987e+00
 2.6518016287e-01	 1.9021746373e+00	-2.8156189845e+00
 2.2093447560e-01	 1.9059648886e+00	-2.8133494440e+00
 1.7667428362e-01	 1.9090179920e+00	-2.8112114860e+00
 1.3242577823e-01	 1.9113549288e+00	-2.8079715261e+00
 8.8214342988e-02	 1.9129970928e+00	-2.8023556706e+00
 4.4064523245e-02	 1.9139662220e+00	-2.7930636377e+00
 0.0000000000e+00	 1.9142843343e+00	-2.7787816493e+00
 4.4476248234e-01	 1.8932653949e+00	-2.8942974051e+00
 4.0052385753e-01	 1.9002551546e+00	-2.8823589929e+00
 3.5615770978e-01	 1.9064232692e+00	-2.8744791236e+00
 3.1169328209e-01	 1.9117885109e+00	-2.8696999791e+00
 2.6715917242e-01	 1.9163703514e+00	-2.8669287661e+00
 2.2258328458e-01	 1.9201888889e+00	-2.8649583879e+00
 1.7799278380e-01	 1.9232647772e+00	-2.8624874663e+00
 1.3341405682e-01	 1.9256191544e+00	-2.8581395299e+00
 8.8872676646e-02	 1.9272735736e+00	-2.8504812193e+00
 4.4393371795e-02	 1.9282499354e+00	-2.8380393900e+00
 0.0000000000e+00	 1.9285704216e+00	-2.8193170216e+00
 4.4805709739e-01	 1.9072899157e+00	-2.9418079647e+00
 4.0349077129e-01	 1.9143314526e+00	-2.9320185701e+00
 3.5879597761e-01	 1.9205452580e+00	-2.9258659846e+00
 3.1400217598e-01	 1.9259502432e+00	-2.9223557420e+00
 2.6913817619e-01	 1.9305660240e+00	-2.9203225026e+00
 2.2423208876e-01	 1.9344128477e+00	-2.9184548099e+00
 1.7931128014e-01	 1.9375115209e+00	-2.9153191642e+00
 1.3440233254e-01	 1.9398833383e+00	-2.9093831827e+00
 8.9531008385e-02	 1.9415500127e+00	-2.8990376562e+00
 4.4722219386e-02	 1.9425336070e+00	-2.8826173481e+00
 0.0000000000e+00	 1.9428564673e+00	-2.8584204164e+00
 4.5135170014e-01	 1.9213143841e+00	-2.9910503582e+00
 4.0645767398e-01	 1.9284076980e+00	-2.9837541960e+00
 3.6143423560e-01	 1.9346671941e+00	-2.9795224332e+00
 3.1631106125e-01	 1.9401119226e+00	-2.9773302551e+00
 2.7111717258e-01	 1.9447616437e+00	-2.9759406385e+00
 2.2588088679e-01	 1.9486367534e+00	-2.9739337232e+00
 1.8062977156e-01	 1.9517582114e+00	-2.9697354718e+00
 1.3539060456e-01	 1.9541474690e+00	-2.9616453328e+00
 9.0189337666e-02	 1.9558263986e+00	-2.9478626710e+00
 4.5051065750e-02	 1.9568172253e+00	-2.9265117681e+00
 0.0000000000e+00	 1.9571424596e+00	-2.8956652458e+00
 4.5464628790e-01	 1.9353387887e+00	-3.0421234622e+00
 4.0942456316e-01	 1.9424838794e+00	-3.0377073619e+00
 3.6407248158e-01	 1.9487890659e+00	-3.0356100676e+00
 3.1861993602e-01	 1.9542735376e+00	-3.0347832188e+00
 2.7309615996e-01	 1.9589571987e+00	-3.0339195474e+00
 2.2752967731e-01	 1.9628605943e+00	-3.0314873869e+00
 1.8194825698e-01	 1.9660048370e+00	-3.0257644435e+00
 1.3637887209e-01	 1.9684115347e+00	-3.0148704852e+00
 9.0847663952e-02	 1.9701027195e+00	-2.9967986575e+00
 4.5379910618e-02	 1.9711007787e+00	-2.9694451871e+00
 0.0000000000e+00	 1.9714283870e+00	-2.9306372843e+00
 4.5794085798e-01	 1.9493631180e+00	-3.0951233081e+00
 4.1239143643e-01	 1.9565599852e+00	-3.0940154873e+00
 3.6671071340e-01	 1.9629108619e+00	-3.0942858359e+00
 3.2092879839e-01	 1.9684350766e+00	-3.0948697375e+00
 2.7507513672e-01	 1.9731526776e+00	-3.0943916783e+00
 2.2917845898e-01	 1.9770843589e+00	-3.0912054053e+00
 1.8326673532e-01	 1.9802513862e+00	-3.0834333270e+00
 1.3736713431e-01	 1.9826755239e+00	-3.0690047416e+00
 9.1505986705e-02	 1.9843789638e+00	-3.0456925446e+00
 4.5708753720e-02	 1.9853842553e+00	-3.0111481256e+00
 0.0000000000e+00	 1.9857142377e+00	-2.9629342234e+00
 4.6123540769e-01	 1.9633873606e+00	-3.1501431836e+00
 4.1535829135e-01	 1.9706360040e+00	-3.1528120653e+00
 3.6934892891e-01	 1.9770325707e+00	-3.1557022015e+00
 3.2323764649e-01	 1.9825965280e+00	-3.1577404842e+00
 2.7705410124e-01	 1.9873480687e+00	-3.1574856958e+00
 2.3082723046e-01	 1.9913080356e+00	-3.1531748226e+00
 1.8458520551e-01	 1.9944978474e+00	-3.1427685912e+00
 1.3835539043e-01	 1.9969394250e+00	-3.1239957438e+00
 9.2164305388e-02	 1.9986551198e+00	-3.0943956342e+00
 4.6037594790e-02	 1.9996676437e+00	-3.0513588019e+00
 0.0000000000e+00	 2.0000000000e+00	-2.9921652460e+00
