x	y	stress_yy
 1.000000000000000e+000	 0.000000000000000e+000	 3.145891088600068e+001
 9.999607948607566e-001	 8.854871081647989e-003	 3.145488339835797e+001
 9.998426119589265e-001	 1.774123199891274e-002	 3.144017471751991e+001
 9.996446072361988e-001	 2.665819249913576e-002	 3.141460107304187e+001
 9.993659466433188e-001	 3.560484091004573e-002	 3.137798045847575e+001
 9.990058067093817e-001	 4.458024417780557e-002	 3.133013284540293e+001
 9.985633751160035e-001	 5.358344792087626e-002	 3.127088040170602e+001
 9.980378512759272e-001	 6.261347650004139e-002	 3.120004771385727e+001
 9.974284469156016e-001	 7.166933310492561e-002	 3.111746201298423e+001
 9.967343866612564e-001	 8.074999985732718e-002	 3.102295340445624e+001
 9.959549086279672e-001	 8.985443793167208e-002	 3.091635510071766e+001
 1.025000000000000e+000	 0.000000000000000e+000	 2.949552941779333e+001
 1.024959814732242e+000	 9.076242858200138e-003	 2.949438546636248e+001
 1.024838677257766e+000	 1.818476279791112e-002	 2.948298700768480e+001
 1.024635722416802e+000	 2.732464731015810e-002	 2.946114158633341e+001
 1.024350095308862e+000	 3.649496193086309e-002	 2.942865818867960e+001
 1.023980951876270e+000	 4.569475027984318e-002	 2.938534746301865e+001
 1.023527459492681e+000	 5.492303411602097e-002	 2.933102194450216e+001
 1.022988797556156e+000	 6.417881340919977e-002	 2.926549628465656e+001
 1.022364158086304e+000	 7.346106642874495e-002	 2.918858748524945e+001
 1.021652746325009e+000	 8.276874984949986e-002	 2.910011513624689e+001
 1.020853781340225e+000	 9.210079887525120e-002	 2.899990165758558e+001
 1.050000000000000e+000	 0.000000000000000e+000	 2.774815043299837e+001
 1.049958834603733e+000	 9.297614634757053e-003	 2.774962932779464e+001
 1.049834742556624e+000	 1.862829359692863e-002	 2.774126567909584e+001
 1.049626837597447e+000	 2.799110212122364e-002	 2.772285809940375e+001
 1.049334243974483e+000	 3.738508295175749e-002	 2.769420632666743e+001
 1.048956097043280e+000	 4.680925638200162e-002	 2.765511145102551e+001
 1.048491543869534e+000	 5.626262031134031e-002	 2.760537614693191e+001
 1.047939743836623e+000	 6.574415031859668e-002	 2.754480491044608e+001
 1.047299869257318e+000	 7.525279975287690e-002	 2.747320430144940e+001
 1.046571105989159e+000	 8.478749984206949e-002	 2.739038319052962e+001
 1.045752654052973e+000	 9.434715981932203e-002	 2.729615301025509e+001
 1.075000000000000e+000	 0.000000000000000e+000	 2.620173483266285e+001
 1.074957854475228e+000	 9.518986411318733e-003	 2.620564716339302e+001
 1.074830807855502e+000	 1.907182439596528e-002	 2.620011493132698e+001
 1.074617952778136e+000	 2.865755693233238e-002	 2.618492754606001e+001
 1.074318392640180e+000	 3.827520397272900e-002	 2.615987523138927e+001
 1.073931242210410e+000	 4.792376248428091e-002	 2.612474925920458e+001
 1.073455628246560e+000	 5.760220650683429e-002	 2.607934218935002e+001
 1.072890690117328e+000	 6.730948722823207e-002	 2.602344811523780e+001
 1.072235580428645e+000	 7.704453307732143e-002	 2.595686291497600e+001
 1.071489465653705e+000	 8.680624983503611e-002	 2.587938450774944e+001
 1.070651526766214e+000	 9.659352076388458e-002	 2.579081311517250e+001
 1.100000000000000e+000	 0.000000000000000e+000	 2.484261070864494e+001
 1.099956874346727e+000	 9.740358187885179e-003	 2.484883366174991e+001
 1.099826873154398e+000	 1.951535519502105e-002	 2.484599671586473e+001
 1.099609067958868e+000	 2.932401174348432e-002	 2.483387978409495e+001
 1.099302541305955e+000	 3.916532499377757e-002	 2.481226328692191e+001
 1.098906387377661e+000	 4.903826858668107e-002	 2.478092839378295e+001
 1.098419712623762e+000	 5.894179270250287e-002	 2.473965727122095e+001
 1.097841636398272e+000	 6.887482413810600e-002	 2.468823333738510e+001
 1.097171291600285e+000	 7.883626640207855e-002	 2.462644152264267e+001
 1.096407825318649e+000	 8.882499982839967e-002	 2.455406853603872e+001
 1.095550399479947e+000	 9.883988170893882e-002	 2.447090313731815e+001
 1.125000000000000e+000	 0.000000000000000e+000	 2.365832143352413e+001
 1.124955894218232e+000	 9.961729964456389e-003	 2.366679462955018e+001
 1.124822938453314e+000	 1.995888599409595e-002	 2.366657987478504e+001
 1.124600183139643e+000	 2.999046655467946e-002	 2.365744727040032e+001
 1.124286689971807e+000	 4.005544601490321e-002	 2.363916712190008e+001
 1.123881532545033e+000	 5.015277468920207e-002	 2.361151018894054e+001
 1.123383797001138e+000	 6.028137889834612e-002	 2.357424794232993e+001
 1.122792582679455e+000	 7.044016104821843e-002	 2.352715282799033e+001
 1.122107002772237e+000	 8.062799972714825e-002	 2.346999853763851e+001
 1.121326184983989e+000	 9.084374982216013e-002	 2.340256028591980e+001
 1.120449272194170e+000	 1.010862426544848e-001	 2.332461509370384e+001
 1.150000000000000e+000	 0.000000000000000e+000	 2.263749356487092e+001
 1.149954914089741e+000	 1.018310174103236e-002	 2.264821534830062e+001
 1.149819003752249e+000	 2.040241679318999e-002	 2.265060895699404e+001
 1.149591298320462e+000	 3.065692136591780e-002	 2.264443434367407e+001
 1.149270838637736e+000	 4.094556703610593e-002	 2.262945136554341e+001
 1.148856677712526e+000	 5.126728079184391e-002	 2.260542004290290e+001
 1.148347881378689e+000	 6.162096509436398e-002	 2.257210082557490e+001
 1.147743528960876e+000	 7.200549795856938e-002	 2.252925486691123e+001
 1.147042713944502e+000	 8.241973305253056e-002	 2.247664430514071e+001
 1.146244544649727e+000	 9.286249981631761e-002	 2.241403255178537e+001
 1.145348144908886e+000	 1.033326036005224e-001	 2.234118458684882e+001
 1.175000000000000e+000	 0.000000000000000e+000	 2.176972161280116e+001
 1.174953933961256e+000	 1.040447351761311e-002	 2.178274573658337e+001
 1.174815069051203e+000	 2.084594759230317e-002	 2.178778978133158e+001
 1.174582413501324e+000	 3.132337617719934e-002	 2.178460319444143e+001
 1.174254987303742e+000	 4.183568805738572e-002	 2.177293503057332e+001
 1.173831822880139e+000	 5.238178689460660e-002	 2.175253421963906e+001
 1.173311965756415e+000	 6.296055129055647e-002	 2.172314984323175e+001
 1.172694475242536e+000	 7.357083486915882e-002	 2.168453141927709e+001
 1.171978425117079e+000	 8.421146637822544e-002	 2.163642919465698e+001
 1.171162904315861e+000	 9.488124981087202e-002	 2.157859444553013e+001
 1.170247017624094e+000	 1.055789645470518e-001	 2.151077978504579e+001
 1.200000000000000e+000	 0.000000000000000e+000	 2.104546721158613e+001
 1.199952953832774e+000	 1.062584529419862e-002	 2.106089986702732e+001
 1.199811134350176e+000	 2.128947839143546e-002	 2.106868930428681e+001
 1.199573528682229e+000	 3.198983098852408e-002	 2.106857408882323e+001
 1.199239135969825e+000	 4.272580907874259e-002	 2.106029209826557e+001
 1.198806968047874e+000	 5.349629299749016e-002	 2.104358080034717e+001
 1.198276050134315e+000	 6.430013748692358e-002	 2.101817753993652e+001
 1.197645421524434e+000	 7.513617177998677e-002	 2.098381983494020e+001
 1.196914136289970e+000	 8.600319970423291e-002	 2.094024568082516e+001
 1.196081263982393e+000	 9.689999980582341e-002	 2.088719386347844e+001
 1.195145890339793e+000	 1.078253254940729e-001	 2.082440428009376e+001
 1.225000000000000e+000	 0.000000000000000e+000	 2.045597063759596e+001
 1.224951973704298e+000	 1.084721707078889e-002	 2.047396778732414e+001
 1.224807199649169e+000	 2.173300919058689e-002	 2.048464774880976e+001
 1.224564643863177e+000	 3.265628579989203e-002	 2.048773780980203e+001
 1.224223284635985e+000	 4.361593010017652e-002	 2.048296427676125e+001
 1.223782113215730e+000	 5.461079910049457e-002	 2.047005276332945e+001
 1.223240134512389e+000	 6.563972368346535e-002	 2.044872848856732e+001
 1.222596367806571e+000	 7.670150869105327e-002	 2.041871658472924e+001
 1.221849847463172e+000	 8.779493303055298e-002	 2.037974241431891e+001
 1.220999623649321e+000	 9.891874980117173e-002	 2.033153189613708e+001
 1.220044763055984e+000	 1.100716864415856e-001	 2.027381184000213e+001
 1.250000000000000e+000	 0.000000000000000e+000	 1.999317294508996e+001
 1.249950993575827e+000	 1.106858884738393e-002	 2.001393792272208e+001
 1.249803264948180e+000	 2.217653998975746e-002	 2.002770127766544e+001
 1.249555759044169e+000	 3.332274061130316e-002	 2.003417860553626e+001
 1.249207433302221e+000	 4.450605112168753e-002	 2.003308422838072e+001
 1.248757258383706e+000	 5.572530520361980e-002	 2.002413149428225e+001
 1.248204218890639e+000	 6.697930988018173e-002	 2.000703308742070e+001
 1.247547314088946e+000	 7.826684560235826e-002	 1.998150134835201e+001
 1.246785558636687e+000	 8.958666635718562e-002	 1.994724860424465e+001
 1.245917983316646e+000	 1.009374997969170e-001	 1.990398750877746e+001
 1.244943635772666e+000	 1.123180473895901e-001	 1.985143139137023e+001
 9.959549086279672e-001	 8.985443793167208e-002	 3.091635510071766e+001
 9.950892650105072e-001	 9.898158769347730e-002	 3.079821386897524e+001
 9.941367226775285e-001	 1.081303688543235e-001	 3.066759614379357e+001
 9.930965637671553e-001	 1.172996806447691e-001	 3.052447296355935e+001
 9.919680862820067e-001	 1.264884020066531e-001	 3.036882194616061e+001
 9.907506046851590e-001	 1.356953918032302e-001	 3.020062746368873e+001
 9.894434504957538e-001	 1.449194890479376e-001	 3.001988081372317e+001
 9.880459728836375e-001	 1.541595131519814e-001	 2.982658038679413e+001
 9.865575392624050e-001	 1.634142641909074e-001	 2.962073182961249e+001
 9.849775358802030e-001	 1.726825231903043e-001	 2.940234820364990e+001
 9.833053684076398e-001	 1.819630524307584e-001	 2.917145013864623e+001
 1.020853781340225e+000	 9.210079887525120e-002	 2.899990165758558e+001
 1.019966496631707e+000	 1.014561273807282e-001	 2.890018757830217e+001
 1.018990140739942e+000	 1.108336280703761e-001	 2.878833983321963e+001
 1.017923977856507e+000	 1.202321726555192e-001	 2.866430381256103e+001
 1.016767288434090e+000	 1.296506120515437e-001	 2.852803099976433e+001
 1.015519369797345e+000	 1.390877765932872e-001	 2.837947916577013e+001
 1.014179536753393e+000	 1.485424762695243e-001	 2.821861256089232e+001
 1.012747122201329e+000	 1.580135009767427e-001	 2.804540210385584e+001
 1.011221477740089e+000	 1.674996207923785e-001	 2.785982556757637e+001
 1.009601974274025e+000	 1.769995862676611e-001	 2.766186776124859e+001
 1.007888002615511e+000	 1.865121287401930e-001	 2.745152070830141e+001
 1.045752654052973e+000	 9.434715981932203e-002	 2.729615301025509e+001
 1.044843728253489e+000	 1.039306670685564e-001	 2.721299874034154e+001
 1.043843558803008e+000	 1.135368872870630e-001	 2.711803289346124e+001
 1.042751391946564e+000	 1.231646646669310e-001	 2.701117558868611e+001
 1.041566490586910e+000	 1.328128220970941e-001	 2.689235257351518e+001
 1.040288134910280e+000	 1.424801613839724e-001	 2.676149543807937e+001
 1.038915623011773e+000	 1.521654634916777e-001	 2.661854182791371e+001
 1.037448271519734e+000	 1.618674888019788e-001	 2.646343565486819e+001
 1.035885416218438e+000	 1.715849773942018e-001	 2.629612730571725e+001
 1.034226412668443e+000	 1.813166493452169e-001	 2.611657384801602e+001
 1.032470636823890e+000	 1.910612050496422e-001	 2.592473923274275e+001
 1.070651526766214e+000	 9.659352076388458e-002	 2.579081311517250e+001
 1.069720959875853e+000	 1.064052067569619e-001	 2.572252992889109e+001
 1.068696976866728e+000	 1.162401465043839e-001	 2.564273725544469e+001
 1.067578806037326e+000	 1.260971566790045e-001	 2.555133025135895e+001
 1.066365692740468e+000	 1.359750321433043e-001	 2.544820925698486e+001
 1.065056900023964e+000	 1.458725461752858e-001	 2.533328003098870e+001
 1.063651709270896e+000	 1.557884507143977e-001	 2.520645398437985e+001
 1.062149420838853e+000	 1.657214766276896e-001	 2.506764841363438e+001
 1.060549354697454e+000	 1.756703339963774e-001	 2.491678673245685e+001
 1.058850851063458e+000	 1.856337124229717e-001	 2.475379870171057e+001
 1.057053271032776e+000	 1.956102813591062e-001	 2.457862065703372e+001
 1.095550399479947e+000	 9.883988170893882e-002	 2.447090313731815e+001
 1.094598191498799e+000	 1.088797464459448e-001	 2.441596637409510e+001
 1.093550394931101e+000	 1.189434057223389e-001	 2.434980286922973e+001
 1.092406220128793e+000	 1.290296486917397e-001	 2.427228306189741e+001
 1.091164894894763e+000	 1.391372421901744e-001	 2.418328214949143e+001
 1.089825665138398e+000	 1.492649309672275e-001	 2.408268034280092e+001
 1.088387795530760e+000	 1.594114379376842e-001	 2.397036312168585e+001
 1.086850570158686e+000	 1.695754644538752e-001	 2.384622149079090e+001
 1.085213293177134e+000	 1.797556905989053e-001	 2.371015223482410e+001
 1.083475289459071e+000	 1.899507755009255e-001	 2.356205817290932e+001
 1.081635905242169e+000	 2.001593576685848e-001	 2.340184841150764e+001
 1.120449272194170e+000	 1.010862426544848e-001	 2.332461509370384e+001
 1.119475423122327e+000	 1.113542861355051e-001	 2.328165122285102e+001
 1.118403812996127e+000	 1.216466649409279e-001	 2.322772459077298e+001
 1.117233634220965e+000	 1.319621407051365e-001	 2.316268110552482e+001
 1.115964097049794e+000	 1.422994522377043e-001	 2.308637102568260e+001
 1.114594430253582e+000	 1.526573157597974e-001	 2.299864923664542e+001
 1.113123881791367e+000	 1.630344251615375e-001	 2.289937552838351e+001
 1.111551719479233e+000	 1.734294522805355e-001	 2.278841487415809e+001
 1.109877231657481e+000	 1.838410472017854e-001	 2.266563770971933e+001
 1.108099727855280e+000	 1.942678385790783e-001	 2.253092021247041e+001
 1.106218539452070e+000	 2.047084339780781e-001	 2.238414458006855e+001
 1.145348144908886e+000	 1.033326036005224e-001	 2.234118458684882e+001
 1.144352654746438e+000	 1.138288258256427e-001	 2.230895967829370e+001
 1.143257231061807e+000	 1.243499241601511e-001	 2.226601773563512e+001
 1.142061048313842e+000	 1.348946327191951e-001	 2.221218026703245e+001
 1.140763299205564e+000	 1.454616622858940e-001	 2.214727274039119e+001
 1.139363195369515e+000	 1.560497005529956e-001	 2.207112488125730e+001
 1.137859968052715e+000	 1.666574123859573e-001	 2.198357097309838e+001
 1.136252868800495e+000	 1.772834401076706e-001	 2.188445015947991e+001
 1.134541170138493e+000	 1.879264038050178e-001	 2.177360674762246e+001
 1.132724166252086e+000	 1.985849016574301e-001	 2.165089051280545e+001
 1.130801173662478e+000	 2.092575102875861e-001	 2.151615700306224e+001
 1.170247017624094e+000	 1.055789645470518e-001	 2.151077978504579e+001
 1.169229886371130e+000	 1.163033655163576e-001	 2.148818920657921e+001
 1.168110649128139e+000	 1.270531833800084e-001	 2.145510951944905e+001
 1.166888462407425e+000	 1.378271247339154e-001	 2.141133791167665e+001
 1.165562501362070e+000	 1.486238723347436e-001	 2.135667515627459e+001
 1.164131960486198e+000	 1.594420853468220e-001	 2.129092593123158e+001
 1.162596054314805e+000	 1.702803996109437e-001	 2.121389914281897e+001
 1.160954018122470e+000	 1.811374279352803e-001	 2.112540825170766e+001
 1.159205108620171e+000	 1.920117604086025e-001	 2.102527160136005e+001
 1.157348604649489e+000	 2.029019647359809e-001	 2.091331274813816e+001
 1.155383807873393e+000	 2.138065865971087e-001	 2.078936079254666e+001
 1.195145890339793e+000	 1.078253254940729e-001	 2.082440428009376e+001
 1.194107117996405e+000	 1.187779052076498e-001	 2.081046346782071e+001
 1.192964067195126e+000	 1.297564426004998e-001	 2.078624406832912e+001
 1.191715876501712e+000	 1.407596167492973e-001	 2.075151898096375e+001
 1.190361703519314e+000	 1.517860823842530e-001	 2.070606433049963e+001
 1.188900725603630e+000	 1.628344701412766e-001	 2.064965980974579e+001
 1.187332140577637e+000	 1.739033868364968e-001	 2.058208902640005e+001
 1.185655167445159e+000	 1.849914157633647e-001	 2.050313985362346e+001
 1.183869047102515e+000	 1.960971170125395e-001	 2.041260478377633e+001
 1.181973043047488e+000	 2.072190278147308e-001	 2.031028128473121e+001
 1.179966442084816e+000	 2.183556629066459e-001	 2.019597215815387e+001
 1.220044763055984e+000	 1.100716864415856e-001	 2.027381184000213e+001
 1.218984349622261e+000	 1.212524448995195e-001	 2.026764801058303e+001
 1.217817485262765e+000	 1.324597018216254e-001	 2.025139906065919e+001
 1.216543290596704e+000	 1.436921087653410e-001	 2.022481358691035e+001
 1.215160905677295e+000	 1.549482924344222e-001	 2.018764306632308e+001
 1.213669490721812e+000	 1.662268549363595e-001	 2.013964222196951e+001
 1.212068226841211e+000	 1.775263740626166e-001	 2.008056939396342e+001
 1.210356316768562e+000	 1.888454035919240e-001	 2.001018691504037e+001
 1.208532985585524e+000	 2.001824736168286e-001	 1.992826149017959e+001
 1.206597481446085e+000	 2.115360908936796e-001	 1.983456457965658e+001
 1.204549076296746e+000	 2.229047392161979e-001	 1.972887278488738e+001
 1.244943635772666e+000	 1.123180473895901e-001	 1.985143139137023e+001
 1.243861581248701e+000	 1.237269845919664e-001	 1.985227608303804e+001
 1.242670903331058e+000	 1.351629610433850e-001	 1.984321237186579e+001
 1.241370704692402e+000	 1.466246007820463e-001	 1.982396449499235e+001
 1.239960107836013e+000	 1.581105024852513e-001	 1.979425923848251e+001
 1.238438255840743e+000	 1.696192397320706e-001	 1.975382632686491e+001
 1.236804313105527e+000	 1.811493612893029e-001	 1.970239881877091e+001
 1.235057466092679e+000	 1.926993914209579e-001	 1.963971350809878e+001
 1.233196924069199e+000	 2.042678302214702e-001	 1.956551133009505e+001
 1.231221919845279e+000	 2.158531539728274e-001	 1.947953777171379e+001
 1.229131710509183e+000	 2.274538155257646e-001	 1.938154328558403e+001
 9.833053684076398e-001	 1.819630524307584e-001	 2.917145013864623e+001
 9.815404625233627e-001	 1.912545957719429e-001	 2.895090907772275e+001
 9.796822644929402e-001	 2.005558789966087e-001	 2.871634321434128e+001
 9.777302417428043e-001	 2.098656101739950e-001	 2.846787491155277e+001
 9.756838834310224e-001	 2.191824800423044e-001	 2.820563744804252e+001
 9.735427010105087e-001	 2.285051624109132e-001	 2.792977511218538e+001
 9.713062287851815e-001	 2.378323145820489e-001	 2.764044328437801e+001
 9.689740244583481e-001	 2.471625777918797e-001	 2.733780850717211e+001
 9.665456696725904e-001	 2.564945776709276e-001	 2.702204854274275e+001
 9.640207705404181e-001	 2.658269247236917e-001	 2.669335241724043e+001
 9.613989581649598e-001	 2.751582148273362e-001	 2.635192045158682e+001
 1.007888002615511e+000	 1.865121287401930e-001	 2.745152070830141e+001
 1.006078974084998e+000	 1.960359606660597e-001	 2.726015123761941e+001
 1.004174321104526e+000	 2.055697759725002e-001	 2.705514173179716e+001
 1.002173497786187e+000	 2.151122504304846e-001	 2.683658365974693e+001
 1.000075980516998e+000	 2.246620420466705e-001	 2.660457889457070e+001
 9.978812685361967e-001	 2.342177914756685e-001	 2.635923983271688e+001
 9.955888845052953e-001	 2.437781224522615e-001	 2.610068950242833e+001
 9.931983750701838e-001	 2.533416422435219e-001	 2.582906166098137e+001
 9.907093114145075e-001	 2.629069421207346e-001	 2.554450088022192e+001
 9.881212898035870e-001	 2.724725978510110e-001	 2.524716261991575e+001
 9.854339321181277e-001	 2.820371702084442e-001	 2.493721328844116e+001
 1.032470636823890e+000	 1.910612050496422e-001	 2.592473923274275e+001
 1.030617485647049e+000	 2.008173255599959e-001	 2.576005058191717e+001
 1.028666377716457e+000	 2.105836729480256e-001	 2.558207547422639e+001
 1.026616753829864e+000	 2.203588906864321e-001	 2.539087514633116e+001
 1.024468077603238e+000	 2.301416040503285e-001	 2.518652076122391e+001
 1.022219836062135e+000	 2.399304205395593e-001	 2.496909355270797e+001
 1.019871540225668e+000	 2.497239303214633e-001	 2.473868496014641e+001
 1.017422725682307e+000	 2.595207066940172e-001	 2.449539675295194e+001
 1.014872953156760e+000	 2.693193065692687e-001	 2.423934114429621e+001
 1.012221809067160e+000	 2.791182709769417e-001	 2.397064089352243e+001
 1.009468906071790e+000	 2.889161255880586e-001	 2.368942939675552e+001
 1.057053271032776e+000	 1.956102813591062e-001	 2.457862065703372e+001
 1.055155997209518e+000	 2.055986904537517e-001	 2.443833523738833e+001
 1.053158434328735e+000	 2.155975699231847e-001	 2.428508681373095e+001
 1.051060009873836e+000	 2.256055309418376e-001	 2.411890696874781e+001
 1.048860174689739e+000	 2.356211660532781e-001	 2.393983676566387e+001
 1.046558403588324e+000	 2.456430496025855e-001	 2.374792691831684e+001
 1.044154195946299e+000	 2.556697381896544e-001	 2.354323795244351e+001
 1.041647076294716e+000	 2.656997711433656e-001	 2.332584035762243e+001
 1.039036594899347e+000	 2.757316710165300e-001	 2.309581472931930e+001
 1.036322328331137e+000	 2.857639441014841e-001	 2.285325190048657e+001
 1.033503880025945e+000	 2.957950809661792e-001	 2.259825306217452e+001
 1.081635905242169e+000	 2.001593576685848e-001	 2.340184841150764e+001
 1.079694508772404e+000	 2.103800553473268e-001	 2.328388388956088e+001
 1.077650490941359e+000	 2.206114668979778e-001	 2.315325062825332e+001
 1.075503265918102e+000	 2.308521711967008e-001	 2.300995105743353e+001
 1.073252271776502e+000	 2.411007280555194e-001	 2.285399667239654e+001
 1.070896971114763e+000	 2.513556786647472e-001	 2.268540822987173e+001
 1.068436851667188e+000	 2.616155460568347e-001	 2.250421593613440e+001
 1.065871426907412e+000	 2.718788355915671e-001	 2.231045962665415e+001
 1.063200236642269e+000	 2.821440354625184e-001	 2.210418893669475e+001
 1.060422847595518e+000	 2.924096172246378e-001	 2.188546346228133e+001
 1.057538853980594e+000	 3.026740363428060e-001	 2.165435291095529e+001
 1.106218539452070e+000	 2.047084339780781e-001	 2.238414458006855e+001
 1.104233020335707e+000	 2.151614202407214e-001	 2.228659794285466e+001
 1.102142547554328e+000	 2.256253638724046e-001	 2.217664846759212e+001
 1.099946521962661e+000	 2.360988114510220e-001	 2.205426986104029e+001
 1.097644368863529e+000	 2.465802900570525e-001	 2.191944450978732e+001
 1.095235538641453e+000	 2.570683077260444e-001	 2.177216370251701e+001
 1.092719507388336e+000	 2.675613539230042e-001	 2.161242784527965e+001
 1.090095777520394e+000	 2.780579000386215e-001	 2.144024666914921e+001
 1.087363878385527e+000	 2.885563999072339e-001	 2.125563942964670e+001
 1.084523366860303e+000	 2.990552903464032e-001	 2.105863509730935e+001
 1.081573827935737e+000	 3.095529917179392e-001	 2.084927253878695e+001
 1.130801173662478e+000	 2.092575102875861e-001	 2.151615700306224e+001
 1.128771531899427e+000	 2.199427851339355e-001	 2.143729035548259e+001
 1.126634604167643e+000	 2.306392608464652e-001	 2.134625913254648e+001
 1.124389778007516e+000	 2.413454517048011e-001	 2.124300868141012e+001
 1.122036465950818e+000	 2.520598520578772e-001	 2.112749267181392e+001
 1.119574106168393e+000	 2.627809367864770e-001	 2.099967334503583e+001
 1.117002163109742e+000	 2.735071617881629e-001	 2.085952175670102e+001
 1.114320128133663e+000	 2.842369644845291e-001	 2.070701801279682e+001
 1.111527520129120e+000	 2.949687643506765e-001	 2.054215149823782e+001
 1.108623886125492e+000	 3.057009634667798e-001	 2.036492109732161e+001
 1.105608801891373e+000	 3.164319470915787e-001	 2.017533540541628e+001
 1.155383807873393e+000	 2.138065865971087e-001	 2.078936079254666e+001
 1.153310043463564e+000	 2.247241500269691e-001	 2.072758866564125e+001
 1.151126660781304e+000	 2.356531578201598e-001	 2.065386322268051e+001
 1.148833034052665e+000	 2.465920919580380e-001	 2.056810175302172e+001
 1.146428563038369e+000	 2.575394140579937e-001	 2.047022953874447e+001
 1.143912673695583e+000	 2.684935658460451e-001	 2.036018013073838e+001
 1.141284818831407e+000	 2.794529696523108e-001	 2.023789561947345e+001
 1.138544478747219e+000	 2.904160289292898e-001	 2.010332689976692e+001
 1.135691161873047e+000	 3.013811287928463e-001	 1.995643392885354e+001
 1.132724405391085e+000	 3.123466365857682e-001	 1.979718597706044e+001
 1.129643775847504e+000	 3.233109024637244e-001	 1.962556187038489e+001
 1.179966442084816e+000	 2.183556629066459e-001	 2.019597215815387e+001
 1.177848555028117e+000	 2.295055149198221e-001	 2.014985013942795e+001
 1.175618717395311e+000	 2.406670547934880e-001	 2.009195961561703e+001
 1.173276290098108e+000	 2.518387322107328e-001	 2.002219006250607e+001
 1.170820660126183e+000	 2.630189760574019e-001	 1.994043864523110e+001
 1.168251241223024e+000	 2.742061949047486e-001	 1.984661052198901e+001
 1.165567474553330e+000	 2.853987775154480e-001	 1.974061914323107e+001
 1.162768829361061e+000	 2.965950933729035e-001	 1.962238654561746e+001
 1.159854803617310e+000	 3.077934932337432e-001	 1.949184364000057e+001
 1.156824924657083e+000	 3.189923097033680e-001	 1.934893049269665e+001
 1.153678749804127e+000	 3.301898578343763e-001	 1.919359659929977e+001
 1.204549076296746e+000	 2.229047392161979e-001	 1.972887278488738e+001
 1.202387066593088e+000	 2.342868798124946e-001	 1.969708730880897e+001
 1.200110774009665e+000	 2.456809517664502e-001	 1.965369217335740e+001
 1.197719546143846e+000	 2.570853724628855e-001	 1.959854923107891e+001
 1.195212757214258e+000	 2.684985380561018e-001	 1.953152774618810e+001
 1.192589808750716e+000	 2.799188239625876e-001	 1.945250472642443e+001
 1.189850130275511e+000	 2.913445853775742e-001	 1.936136525117039e+001
 1.186993179975190e+000	 3.027741578153702e-001	 1.925800279507016e+001
 1.184018445361908e+000	 3.142058576733672e-001	 1.914231954637532e+001
 1.180925443923485e+000	 3.256379828195793e-001	 1.901422671923407e+001
 1.177713723761245e+000	 3.370688132035347e-001	 1.887364485913193e+001
 1.229131710509183e+000	 2.274538155257646e-001	 1.938154328558403e+001
 1.226925578158476e+000	 2.390682447049866e-001	 1.936290244503148e+001
 1.224602830624363e+000	 2.506948487390461e-001	 1.933278524384235e+001
 1.222162802189878e+000	 2.623320127144961e-001	 1.929102605108129e+001
 1.219604854302598e+000	 2.739781000540935e-001	 1.923746639476478e+001
 1.216928376278658e+000	 2.856314530195621e-001	 1.917195532242539e+001
 1.214132785997951e+000	 2.972903932386898e-001	 1.909434975869314e+001
 1.211217530589605e+000	 3.089532222566900e-001	 1.900451485909334e+001
 1.208182087106841e+000	 3.206182221117184e-001	 1.890232435924414e+001
 1.205025963190290e+000	 3.322836559344021e-001	 1.878766091862540e+001
 1.201748697718857e+000	 3.439477685711992e-001	 1.866041645807913e+001
 9.613989581649598e-001	 2.751582148273362e-001	 2.635192045158682e+001
 9.586798891490923e-001	 2.844870297499801e-001	 2.602259583565764e+001
 9.558632460948671e-001	 2.938119376861946e-001	 2.568230561410352e+001
 9.529487380907490e-001	 3.031314938110319e-001	 2.533144171734108e+001
 9.499361011842371e-001	 3.124442408536596e-001	 2.497040846474281e+001
 9.468250988417173e-001	 3.217487096881426e-001	 2.459962237721053e+001
 9.436155223939604e-001	 3.310434199417801e-001	 2.421951197004801e+001
 9.403071914665516e-001	 3.403268806206379e-001	 2.383051752599763e+001
 9.368999543945393e-001	 3.495975907518840e-001	 2.343309084834512e+001
 9.333936886206079e-001	 3.588540400425035e-001	 2.302769499403511e+001
 9.297883010760839e-001	 3.680947095539379e-001	 2.261480398678180e+001
 9.854339321181277e-001	 2.820371702084442e-001	 2.493721328844116e+001
 9.826468863761853e-001	 2.915992055051701e-001	 2.465183132428261e+001
 9.797598272449696e-001	 3.011572361404365e-001	 2.435518491352940e+001
 9.767724565401572e-001	 3.107097811686687e-001	 2.404761290925825e+001
 9.736845037104360e-001	 3.202553468872610e-001	 2.372946641501867e+001
 9.704957263088508e-001	 3.297924274421271e-001	 2.340110865021451e+001
 9.672059104494429e-001	 3.393195054512462e-001	 2.306291479663833e+001
 9.638148712484376e-001	 3.488350526458335e-001	 2.271527182594707e+001
 9.603224532492587e-001	 3.583375305287335e-001	 2.235857830790336e+001
 9.567285308306593e-001	 3.678253910496042e-001	 2.199324419924340e+001
 9.530330085972487e-001	 3.772970772964199e-001	 2.161969061306971e+001
 1.009468906071790e+000	 2.889161255880586e-001	 2.368942939675552e+001
 1.006613883603867e+000	 2.987113812587859e-001	 2.344375217332635e+001
 1.003656408395746e+000	 3.085025345930624e-001	 2.318650318123073e+001
 1.000596174990316e+000	 3.182880685246868e-001	 2.291796994280239e+001
 9.974329062374506e-001	 3.280664529192808e-001	 2.263845212552178e+001
 9.941663537768565e-001	 3.378361451946069e-001	 2.234826145935310e+001
 9.907962985058437e-001	 3.475955909593246e-001	 2.204772163602788e+001
 9.873225510312766e-001	 3.573432246697983e-001	 2.173716818998756e+001
 9.837449521049576e-001	 3.670774703045499e-001	 2.141694836073051e+001
 9.800633730417054e-001	 3.767967420559097e-001	 2.108742093634032e+001
 9.762777161194137e-001	 3.864994450383867e-001	 2.074895607801127e+001
 1.033503880025945e+000	 2.957950809661792e-001	 2.259825306217452e+001
 1.030580880832138e+000	 3.058235570108274e-001	 2.238836504812483e+001
 1.027552989547197e+000	 3.158478330440721e-001	 2.216658861211327e+001
 1.024419893441225e+000	 3.258663558790866e-001	 2.193316154419055e+001
 1.021181308765282e+000	 3.358775589497191e-001	 2.168833370653401e+001
 1.017836981245734e+000	 3.458798629455820e-001	 2.143236700200504e+001
 1.014386686563162e+000	 3.558716764660149e-001	 2.116553532539094e+001
 1.010830230815070e+000	 3.658513966925322e-001	 2.088812449696606e+001
 1.007167450961636e+000	 3.758174100793332e-001	 2.060043217803802e+001
 1.003398215253747e+000	 3.857680930614205e-001	 2.030276776817440e+001
 9.995224236425787e-001	 3.957018127798380e-001	 1.999545228383938e+001
 1.057538853980594e+000	 3.026740363428060e-001	 2.165435291095529e+001
 1.054547878060998e+000	 3.129357327612945e-001	 2.147663275560835e+001
 1.051449570699323e+000	 3.231931314934659e-001	 2.128669738095702e+001
 1.048243611892883e+000	 3.334446432318678e-001	 2.108473630768870e+001
 1.044929711293928e+000	 3.436886649785758e-001	 2.087095108716455e+001
 1.041507608715483e+000	 3.539235806950522e-001	 2.064555532057198e+001
 1.037977074621398e+000	 3.641477619713173e-001	 2.040877466144474e+001
 1.034337910599816e+000	 3.743595687140354e-001	 2.016084680110801e+001
 1.030589949819293e+000	 3.845573498530832e-001	 1.990202143663409e+001
 1.026733057466783e+000	 3.947394440661365e-001	 1.963256022092177e+001
 1.022767131166744e+000	 4.049041805207738e-001	 1.935273669454339e+001
 1.081573827935737e+000	 3.095529917179392e-001	 2.084927253878695e+001
 1.078514875290446e+000	 3.200479085101873e-001	 2.070036800634586e+001
 1.075346151852123e+000	 3.305384299412435e-001	 2.053891053354087e+001
 1.072067330345292e+000	 3.410229305830305e-001	 2.036504271027274e+001
 1.068678113823391e+000	 3.514997710058511e-001	 2.017891914659170e+001
 1.065178236186105e+000	 3.619672984430177e-001	 1.998070654192112e+001
 1.061567462680552e+000	 3.724238474752317e-001	 1.977058373827882e+001
 1.057845590385517e+000	 3.828677407343076e-001	 1.954874175697680e+001
 1.054012448677931e+000	 3.932972896257999e-001	 1.931538381830343e+001
 1.050067899680813e+000	 4.037107950700577e-001	 1.907072534371853e+001
 1.046011838691909e+000	 4.141065482611943e-001	 1.881499394012033e+001
 1.105608801891373e+000	 3.164319470915787e-001	 2.017533540541628e+001
 1.102481872520483e+000	 3.271600842575055e-001	 2.005214103371366e+001
 1.099242733005597e+000	 3.378837283874052e-001	 1.991604432675087e+001
 1.095891048798451e+000	 3.486012179325746e-001	 1.976714216785550e+001
 1.092426516353670e+000	 3.593108770315448e-001	 1.960554348035993e+001
 1.088848863657598e+000	 3.700110161894784e-001	 1.943136934646566e+001
 1.085157850740624e+000	 3.806999329777582e-001	 1.924475311068521e+001
 1.081353270172171e+000	 3.913759127533489e-001	 1.904584046726437e+001
 1.077434947537546e+000	 4.020372293974834e-001	 1.883478953100688e+001
 1.073402741895839e+000	 4.126821460731842e-001	 1.861177089094934e+001
 1.069256546218074e+000	 4.233089160010993e-001	 1.837696764635897e+001
 1.129643775847504e+000	 3.233109024637244e-001	 1.962556187038489e+001
 1.126448869751110e+000	 3.342722600032497e-001	 1.952519900636171e+001
 1.123139314159746e+000	 3.452290268319507e-001	 1.941157201463222e+001
 1.119714767252360e+000	 3.561795052805001e-001	 1.928473319071901e+001
 1.116174918884764e+000	 3.671219830556570e-001	 1.914474691991553e+001
 1.112519491129963e+000	 3.780547339344343e-001	 1.899168984544746e+001
 1.108748238801613e+000	 3.889760184788967e-001	 1.882565102174389e+001
 1.104860949959779e+000	 3.998840847711594e-001	 1.864673205214010e+001
 1.100857446398142e+000	 4.107771691681336e-001	 1.845504721035334e+001
 1.096737584111859e+000	 4.216534970755155e-001	 1.825072354509482e+001
 1.092501253745239e+000	 4.325112837404888e-001	 1.803390096720380e+001
 1.153678749804127e+000	 3.301898578343763e-001	 1.919359659929977e+001
 1.150415866982325e+000	 3.413844357474193e-001	 1.911339551412230e+001
 1.147035895314569e+000	 3.525743252748803e-001	 1.901955541118474e+001
 1.143538485707019e+000	 3.637577926268072e-001	 1.891208501951750e+001
 1.139923321416675e+000	 3.749330890781875e-001	 1.879100523720030e+001
 1.136190118603200e+000	 3.860984516778856e-001	 1.865634934855970e+001
 1.132338626863521e+000	 3.972521039786471e-001	 1.850816322696020e+001
 1.128368629748340e+000	 4.083922567877390e-001	 1.834650552243116e+001
 1.124279945259717e+000	 4.195171089377506e-001	 1.817144783338755e+001
 1.120072426328874e+000	 4.306248480770524e-001	 1.798307486172282e+001
 1.115745961273404e+000	 4.417136514793630e-001	 1.778148455057366e+001
 1.177713723761245e+000	 3.370688132035347e-001	 1.887364485913193e+001
 1.174382864214129e+000	 3.484966114900147e-001	 1.881112868829672e+001
 1.170932476470067e+000	 3.599196237161938e-001	 1.873458483322446e+001
 1.167362204162428e+000	 3.713360799714957e-001	 1.864397938748427e+001
 1.163671723949401e+000	 3.827441950991365e-001	 1.853929072215235e+001
 1.159860746077309e+000	 3.941421694198319e-001	 1.842050975186014e+001
 1.155929014926346e+000	 4.055281894770097e-001	 1.828764018687498e+001
 1.151876309537855e+000	 4.169004288030879e-001	 1.814069877037255e+001
 1.147702444122271e+000	 4.282570487063344e-001	 1.797971550007699e+001
 1.143407268546884e+000	 4.395961990777942e-001	 1.780473383346006e+001
 1.138990668802569e+000	 4.509160192177217e-001	 1.761581087571238e+001
 1.201748697718857e+000	 3.439477685711992e-001	 1.866041645807913e+001
 1.198349861446522e+000	 3.556087872310357e-001	 1.861328674750797e+001
 1.194829057626238e+000	 3.672649221558912e-001	 1.855172625010163e+001
 1.191185922618588e+000	 3.789143673145656e-001	 1.847565927117381e+001
 1.187420126482944e+000	 3.905553011185041e-001	 1.838502253090635e+001
 1.183531373552289e+000	 4.021858871602736e-001	 1.827976547913519e+001
 1.179519402990089e+000	 4.138042749739844e-001	 1.815985059656160e+001
 1.175383989328324e+000	 4.254086008172057e-001	 1.802525368146686e+001
 1.171124942985806e+000	 4.369969884738850e-001	 1.787596412102048e+001
 1.166742110765889e+000	 4.485675500777414e-001	 1.771198514628735e+001
 1.162235376332733e+000	 4.601183869555650e-001	 1.753333407005754e+001
 9.297883010760839e-001	 3.680947095539379e-001	 2.261480398678180e+001
 9.260837285441588e-001	 3.773180723910820e-001	 2.222244786984798e+001
 9.222799380044703e-001	 3.865225944084204e-001	 2.181941345962582e+001
 9.183769269585733e-001	 3.957067349304588e-001	 2.140621353730129e+001
 9.143747237357484e-001	 4.048689474837917e-001	 2.098337450024340e+001
 9.102733877783561e-001	 4.140076805434688e-001	 2.055143601463502e+001
 9.060730099062141e-001	 4.231213782919209e-001	 2.011095064420491e+001
 9.017737125594307e-001	 4.322084813897782e-001	 1.966248345523104e+001
 8.973756500191495e-001	 4.412674277578942e-001	 1.920661159803749e+001
 8.928790086056798e-001	 4.502966533698555e-001	 1.874392386526420e+001
 8.882840068535240e-001	 4.592945930542355e-001	 1.827502022724550e+001
 9.530330085972487e-001	 3.772970772964199e-001	 2.161969061306971e+001
 9.492358217518436e-001	 3.867510242020995e-001	 2.127009008988085e+001
 9.453369364486186e-001	 3.961856592678930e-001	 2.090995187246354e+001
 9.413363501266674e-001	 4.055994033014218e-001	 2.053976611959971e+001
 9.372340918235038e-001	 4.149906711674480e-001	 2.016003651393539e+001
 9.330302224675481e-001	 4.243578725529000e-001	 1.977127993554337e+001
 9.287248351491139e-001	 4.336994127447718e-001	 1.937402611172222e+001
 9.243180553693136e-001	 4.430136934202115e-001	 1.896881724316325e+001
 9.198100412663188e-001	 4.522991134480965e-001	 1.855620760667213e+001
 9.152009838184482e-001	 4.615540697013549e-001	 1.813676313468551e+001
 9.104911070235671e-001	 4.707769578792765e-001	 1.771106097188327e+001
 9.762777161194137e-001	 3.864994450383867e-001	 2.074895607801127e+001
 9.723879149605194e-001	 3.961839760128773e-001	 2.043976241192122e+001
 9.683939348937277e-001	 4.058487241273528e-001	 2.012014043916569e+001
 9.642957732956735e-001	 4.154920716725500e-001	 1.979055864128918e+001
 9.600934599121020e-001	 4.251123948513975e-001	 1.945149896973476e+001
 9.557870571574937e-001	 4.347080645627025e-001	 1.910345654001016e+001
 9.513766603926590e-001	 4.442774471980223e-001	 1.874693930216437e+001
 9.468623981797121e-001	 4.538189054510228e-001	 1.838246768766685e+001
 9.422444325138552e-001	 4.633307991386043e-001	 1.801057423283972e+001
 9.375229590314141e-001	 4.728114860330365e-001	 1.763180317904626e+001
 9.326982071936175e-001	 4.822593227043255e-001	 1.724671004989617e+001
 9.995224236425787e-001	 3.957018127798380e-001	 1.999545228383938e+001
 9.955400081701847e-001	 4.056169278234152e-001	 1.972449190143611e+001
 9.914509333397977e-001	 4.155117889867997e-001	 1.944318193383108e+001
 9.872551964655910e-001	 4.253847400438426e-001	 1.915197005532532e+001
 9.829528280015432e-001	 4.352341185356400e-001	 1.885131739379305e+001
 9.785438918481941e-001	 4.450582565728768e-001	 1.854169824518318e+001
 9.740284856368490e-001	 4.548554816516729e-001	 1.822359976434336e+001
 9.694067409906272e-001	 4.646241174822122e-001	 1.789752163222294e+001
 9.646788237617586e-001	 4.743624848294175e-001	 1.756397569956541e+001
 9.598449342445781e-001	 4.840689023649002e-001	 1.722348560725554e+001
 9.549053073636764e-001	 4.937416875293824e-001	 1.687658638354460e+001
 1.022767131166744e+000	 4.049041805207738e-001	 1.935273669454339e+001
 1.018692101380841e+000	 4.150498796337134e-001	 1.911799593549977e+001
 1.014507931786829e+000	 4.251748538462337e-001	 1.887295409552164e+001
 1.010214619636420e+000	 4.352774084153001e-001	 1.861803884287282e+001
 1.005812196091827e+000	 4.453558422201753e-001	 1.835369132010634e+001
 1.001300726539648e+000	 4.554084485834224e-001	 1.808036587868773e+001
 9.966803108816845e-001	 4.654335161057235e-001	 1.779852978989456e+001
 9.919510838020583e-001	 4.754293295137793e-001	 1.750866293201052e+001
 9.871132150100292e-001	 4.853941705205362e-001	 1.721125745388543e+001
 9.821669094579393e-001	 4.953263186969464e-001	 1.690681741498871e+001
 9.771124075337430e-001	 5.052240523544471e-001	 1.659585840213958e+001
 1.046011838691909e+000	 4.141065482611943e-001	 1.881499394012033e+001
 1.041844194592487e+000	 4.244828314437720e-001	 1.861460550150555e+001
 1.037564930234820e+000	 4.348379187056548e-001	 1.840393463215696e+001
 1.033174042808161e+000	 4.451700767869224e-001	 1.818338973239457e+001
 1.028671564182954e+000	 4.554775659050038e-001	 1.795339273408843e+001
 1.024057561231856e+000	 4.657586405943396e-001	 1.771437885524088e+001
 1.019332136127165e+000	 4.760115505601738e-001	 1.746679633074141e+001
 1.014495426614006e+000	 4.862345415457248e-001	 1.721110611927291e+001
 1.009547606258667e+000	 4.964258562119608e-001	 1.694778158640107e+001
 1.004488884671498e+000	 5.065837350291748e-001	 1.667730816393494e+001
 9.993195077038174e-001	 5.167064171795196e-001	 1.640018298570316e+001
 1.069256546218074e+000	 4.233089160010993e-001	 1.837696764635897e+001
 1.064996287805123e+000	 4.339157832535907e-001	 1.820919850039398e+001
 1.060621928683773e+000	 4.445009835650630e-001	 1.803113600650916e+001
 1.056133465980815e+000	 4.550627451587097e-001	 1.784316997712024e+001
 1.051530932274924e+000	 4.655992895901254e-001	 1.764570384959178e+001
 1.046814395924818e+000	 4.761088326056284e-001	 1.743915446066373e+001
 1.041983961373291e+000	 4.865895850150243e-001	 1.722395179689029e+001
 1.037039769426470e+000	 4.970397535780482e-001	 1.700053872102879e+001
 1.031981997507671e+000	 5.074575419036906e-001	 1.676937067436965e+001
 1.026810859885255e+000	 5.178411513615852e-001	 1.653091535505633e+001
 1.021526607873900e+000	 5.281887820046000e-001	 1.628565237249931e+001
 1.092501253745239e+000	 4.325112837404888e-001	 1.803390096720380e+001
 1.088148381018750e+000	 4.433487350631697e-001	 1.789714156436176e+001
 1.083678927133686e+000	 4.541640484244583e-001	 1.775004854739002e+001
 1.079092889154379e+000	 4.649554135306616e-001	 1.759299376730611e+001
 1.074390300367736e+000	 4.757210132755399e-001	 1.742636282928692e+001
 1.069571230618535e+000	 4.864590246172887e-001	 1.725055488687082e+001
 1.064635786620062e+000	 4.971676194702747e-001	 1.706598241195404e+001
 1.059584112239450e+000	 5.078449656107497e-001	 1.687307094047878e+001
 1.054416388757043e+000	 5.184892275957261e-001	 1.667225879376203e+001
 1.049132835099209e+000	 5.290985676941781e-001	 1.646399677547362e+001
 1.043733708043990e+000	 5.396711468296881e-001	 1.624874784432691e+001
 1.115745961273404e+000	 4.417136514793630e-001	 1.778148455057366e+001
 1.111300474233367e+000	 4.527816868725090e-001	 1.767423914735710e+001
 1.106735925584561e+000	 4.638271132838406e-001	 1.755659067193964e+001
 1.102052312328856e+000	 4.748480819027783e-001	 1.742889359096216e+001
 1.097249668461392e+000	 4.858427369612475e-001	 1.729151628999464e+001
 1.092328065313005e+000	 4.968092166293204e-001	 1.714484088748583e+001
 1.087287611867478e+000	 5.077456539259250e-001	 1.698926302423470e+001
 1.082128455052946e+000	 5.186501776438290e-001	 1.682519162823670e+001
 1.076850780006782e+000	 5.295209132880672e-001	 1.665304865481334e+001
 1.071454810313361e+000	 5.403559840269530e-001	 1.647326880199089e+001
 1.065940808214088e+000	 5.511535116547843e-001	 1.628629920115123e+001
 1.138990668802569e+000	 4.509160192177217e-001	 1.761581087571238e+001
 1.134452567448973e+000	 4.622146386816085e-001	 1.753668884939177e+001
 1.129792924036396e+000	 4.734901781432102e-001	 1.744706520314454e+001
 1.125011735504244e+000	 4.847407502750598e-001	 1.734727755040852e+001
 1.120109036555890e+000	 4.959644606472483e-001	 1.723767762369124e+001
 1.115084900008229e+000	 5.071594086417235e-001	 1.711863110827975e+001
 1.109939437115540e+000	 5.183236883819752e-001	 1.699051745114331e+001
 1.104672797866958e+000	 5.294553896772867e-001	 1.685372964483845e+001
 1.099285171256888e+000	 5.405525989807138e-001	 1.670867398628157e+001
 1.093776785527711e+000	 5.516134003599104e-001	 1.655576981031155e+001
 1.088147908384193e+000	 5.626358764798881e-001	 1.639544919802532e+001
 1.162235376332733e+000	 4.601183869555650e-001	 1.753333407005754e+001
 1.157604660665571e+000	 4.716475904904681e-001	 1.748104210193582e+001
 1.152849922489192e+000	 4.831532430025667e-001	 1.741812092925388e+001
 1.147971158680544e+000	 4.946334186475060e-001	 1.734489180084502e+001
 1.142968404651232e+000	 5.060861843335418e-001	 1.726169031999381e+001
 1.137841734704207e+000	 5.175096006544983e-001	 1.716886629795637e+001
 1.132591262364247e+000	 5.289017228384254e-001	 1.706678358228901e+001
 1.127217140681487e+000	 5.402606017111222e-001	 1.695581985974992e+001
 1.121719562507361e+000	 5.515842846736661e-001	 1.683636643359521e+001
 1.116098760742258e+000	 5.628708166930497e-001	 1.670882797514810e+001
 1.110355008554307e+000	 5.741182413050000e-001	 1.657362224958112e+001
 8.882840068535240e-001	 4.592945930542355e-001	 1.827502022724550e+001
 8.835908956630776e-001	 4.682596813065159e-001	 1.781331458826463e+001
 8.787999584278387e-001	 4.771903531077779e-001	 1.735739983837317e+001
 8.739115111371587e-001	 4.860850447508238e-001	 1.690836590718269e+001
 8.689259024546855e-001	 4.949421946742140e-001	 1.646730559052265e+001
 8.638435137714190e-001	 5.037602443012851e-001	 1.603531343861813e+001
 8.586647592332956e-001	 5.125376388839769e-001	 1.561348462763074e+001
 8.533900857430293e-001	 5.212728283505861e-001	 1.520291381622135e+001
 8.480199729359588e-001	 5.299642681565356e-001	 1.480469398885752e+001
 8.425549331296908e-001	 5.386104201372436e-001	 1.441991528763988e+001
 8.369955112473729e-001	 5.472097533621585e-001	 1.404966383447229e+001
 9.104911070235671e-001	 4.707769578792765e-001	 1.771106097188327e+001
 9.056806680544064e-001	 4.799661733393891e-001	 1.731933142166919e+001
 9.007699573891275e-001	 4.891201119369574e-001	 1.692986600886584e+001
 8.957592989168135e-001	 4.982371708721023e-001	 1.654358205880215e+001
 8.906490500177037e-001	 5.073157495443472e-001	 1.616140180130417e+001
 8.854396016175709e-001	 5.163542504126110e-001	 1.578425145191797e+001
 8.801313782159999e-001	 5.253510798601305e-001	 1.541306027537080e+001
 8.747248378882713e-001	 5.343046490634094e-001	 1.504875963260381e+001
 8.692204722606064e-001	 5.432133748642545e-001	 1.469228201276344e+001
 8.636188064585516e-001	 5.520756806439688e-001	 1.434456005159558e+001
 8.579203990283327e-001	 5.608899971987366e-001	 1.400652553773860e+001
 9.326982071936175e-001	 4.822593227043255e-001	 1.724671004989617e+001
 9.277704404455582e-001	 4.916726653720899e-001	 1.691144119504633e+001
 9.227399563500827e-001	 5.010498707658234e-001	 1.657503683012386e+001
 9.176070866960091e-001	 5.103892969929659e-001	 1.623824866202462e+001
 9.123721975801657e-001	 5.196893044140039e-001	 1.590183531543916e+001
 9.070356894631003e-001	 5.289482565234379e-001	 1.556656160074562e+001
 9.015979971980450e-001	 5.381645208358035e-001	 1.523319776297966e+001
 8.960595900328475e-001	 5.473364697758096e-001	 1.490251871289153e+001
 8.904209715846122e-001	 5.564624815716491e-001	 1.457530324115730e+001
 8.846826797868248e-001	 5.655409411505090e-001	 1.425233321686497e+001
 8.788452868087893e-001	 5.745702410353089e-001	 1.393439277145258e+001
 9.549053073636764e-001	 4.937416875293824e-001	 1.687658638354460e+001
 9.498602128365320e-001	 5.033791574046180e-001	 1.658520056853461e+001
 9.447099553107049e-001	 5.129796295943758e-001	 1.628939620002339e+001
 9.394548744747450e-001	 5.225414231134140e-001	 1.598976587659722e+001
 9.340953451420719e-001	 5.320628592831832e-001	 1.568691110687498e+001
 9.286317773080073e-001	 5.415422626337659e-001	 1.538144175814411e+001
 9.230646161794309e-001	 5.509779618109953e-001	 1.507397548487037e+001
 9.173943421767584e-001	 5.603682904877877e-001	 1.476513713777943e+001
 9.116214709079761e-001	 5.697115882787198e-001	 1.445555815426296e+001
 9.057465531145108e-001	 5.790062016568645e-001	 1.414587593091883e+001
 8.997701745887435e-001	 5.882504848718763e-001	 1.383673317909015e+001
 9.771124075337430e-001	 5.052240523544471e-001	 1.659585840213958e+001
 9.719499852273285e-001	 5.150856494369737e-001	 1.633663065101055e+001
 9.666799542709936e-001	 5.249093884226146e-001	 1.606980831236244e+001
 9.613026622530214e-001	 5.346935492334473e-001	 1.579583095420309e+001
 9.558184927034218e-001	 5.444364141518855e-001	 1.551514902937377e+001
 9.502278651522912e-001	 5.541362687435948e-001	 1.522822349940727e+001
 9.445312351601573e-001	 5.637914027857063e-001	 1.493552543701434e+001
 9.387290943200033e-001	 5.734001111993428e-001	 1.463753560759186e+001
 9.328219702306987e-001	 5.829606949854664e-001	 1.433474403020032e+001
 9.268104264416094e-001	 5.924714621630346e-001	 1.402764951851732e+001
 9.206950623681951e-001	 6.019307287084381e-001	 1.371675920232694e+001
 9.993195077038174e-001	 5.167064171795196e-001	 1.640018298570316e+001
 9.940397576179476e-001	 5.267921414691568e-001	 1.616216539467260e+001
 9.886499532309490e-001	 5.368391472505395e-001	 1.591347540175824e+001
 9.831504500308382e-001	 5.468456753530652e-001	 1.565440522824644e+001
 9.775416402642159e-001	 5.568099690201107e-001	 1.538525994097735e+001
 9.718239529959529e-001	 5.667302748529248e-001	 1.510635724627431e+001
 9.659978541402250e-001	 5.766048437599363e-001	 1.481802726121269e+001
 9.600638464625828e-001	 5.864319319104752e-001	 1.452061226232380e+001
 9.540224695527794e-001	 5.962098016918890e-001	 1.421446641188579e+001
 9.478742997681203e-001	 6.059367226690200e-001	 1.389995546201054e+001
 9.416199501471442e-001	 6.156109725449948e-001	 1.357745643679353e+001
 1.021526607873900e+000	 5.281887820046000e-001	 1.628565237249931e+001
 1.016129530008389e+000	 5.384986335011673e-001	 1.605860672076684e+001
 1.010619952190571e+000	 5.487689060781509e-001	 1.581790100007958e+001
 1.004998237808195e+000	 5.589978014722680e-001	 1.556368540931726e+001
 9.992647878244535e-001	 5.691835238878589e-001	 1.529612494267230e+001
 9.934200408389918e-001	 5.793242809617556e-001	 1.501539934883791e+001
 9.874644731196335e-001	 5.894182847336853e-001	 1.472170306620161e+001
 9.813985986044974e-001	 5.994637526211851e-001	 1.441524513385053e+001
 9.752229688742189e-001	 6.094589083979877e-001	 1.409624907824961e+001
 9.689381730940442e-001	 6.194019831748203e-001	 1.376495277551387e+001
 9.625448379255903e-001	 6.292912163815461e-001	 1.359942999857714e+001
 1.043733708043990e+000	 5.396711468296881e-001	 1.624874784432691e+001
 1.038219302398653e+000	 5.502051255330052e-001	 1.602308537394328e+001
 1.032589951149860e+000	 5.606986649054486e-001	 1.578085788354765e+001
 1.026846025585093e+000	 5.711499275910554e-001	 1.552207854506527e+001
 1.020987935384136e+000	 5.815570787551301e-001	 1.524677726743859e+001
 1.015016128681408e+000	 5.919182870700875e-001	 1.495500081657031e+001
 1.008931092098383e+000	 6.022317257069535e-001	 1.464681290989342e+001
 1.002733350745746e+000	 6.124955733314723e-001	 1.432229428508919e+001
 9.964234681950165e-001	 6.227080151037621e-001	 1.398154274253249e+001
 9.900020464193805e-001	 6.328672436804356e-001	 1.395256583054421e+001
 9.834697257035339e-001	 6.429714602180920e-001	 1.400174003877529e+001
 1.065940808214088e+000	 5.511535116547843e-001	 1.628629920115123e+001
 1.060309074788740e+000	 5.619116175646708e-001	 1.605302666981791e+001
 1.054559950108815e+000	 5.726284237324328e-001	 1.580036002644915e+001
 1.048693813361531e+000	 5.833020537094278e-001	 1.552818011008952e+001
 1.042711082943262e+000	 5.939306336219243e-001	 1.523638643316669e+001
 1.036612216523202e+000	 6.045122931779203e-001	 1.492489745797141e+001
 1.030397711076473e+000	 6.150451666797406e-001	 1.459365084633725e+001
 1.024068102886329e+000	 6.255273940413367e-001	 1.426456825300339e+001
 1.017623967515172e+000	 6.359571218092125e-001	 1.432928564080090e+001
 1.011065919744129e+000	 6.463325041858661e-001	 1.437394049882198e+001
 1.004394613480975e+000	 6.566517040546329e-001	 1.439803289839257e+001
 1.088147908384193e+000	 5.626358764798881e-001	 1.639544919802532e+001
 1.082398847178649e+000	 5.736181095961634e-001	 1.614612043671028e+001
 1.076529949067438e+000	 5.845581825591033e-001	 1.587463798908868e+001
 1.070541601137510e+000	 5.954541798273849e-001	 1.558075477869837e+001
 1.064434230501831e+000	 6.063041884882413e-001	 1.526424433603421e+001
 1.058208304364373e+000	 6.171062992852543e-001	 1.492490122760663e+001
 1.051864330053904e+000	 6.278586076520469e-001	 1.468121944364116e+001
 1.045402855026246e+000	 6.385592147507786e-001	 1.474208963222035e+001
 1.038824466834687e+000	 6.492062285143389e-001	 1.478050817376579e+001
 1.032129793068291e+000	 6.597977646911115e-001	 1.479583400523825e+001
 1.025319501257913e+000	 6.703319478911681e-001	 1.478742764485537e+001
 1.110355008554307e+000	 5.741182413050000e-001	 1.657362224958112e+001
 1.104488619568381e+000	 5.853246016274840e-001	 1.630029456437330e+001
 1.098499948025727e+000	 5.964879413854604e-001	 1.600211725918682e+001
 1.092389388913029e+000	 6.076063059449270e-001	 1.567871950493863e+001
 1.086157378059845e+000	 6.186777433540813e-001	 1.532975301267704e+001
 1.079804392204921e+000	 6.297003053920891e-001	 1.514862378792629e+001
 1.073330949030676e+000	 6.406720486238723e-001	 1.520305759661244e+001
 1.066737607165498e+000	 6.515910354597978e-001	 1.523308245776502e+001
 1.060024966153559e+000	 6.624553352191411e-001	 1.523791843202590e+001
 1.053193666391865e+000	 6.732630251961720e-001	 1.521678710677865e+001
 1.046244389034349e+000	 6.840121917276982e-001	 1.516891253738245e+001
 8.369955112473729e-001	 5.472097533621585e-001	 1.404966383447229e+001
 8.313422847138690e-001	 5.557607449888236e-001	 1.368278236432443e+001
 8.255958633264965e-001	 5.642618811166034e-001	 1.330194306344052e+001
 8.197568890991047e-001	 5.727116576387267e-001	 1.290702372201950e+001
 8.138260360782970e-001	 5.811085810912837e-001	 1.249791629745387e+001
 8.078040101335782e-001	 5.894511694988002e-001	 1.207452710758367e+001
 8.016915487208972e-001	 5.977379532152196e-001	 1.163677700335169e+001
 7.954894206196910e-001	 6.059674757593239e-001	 1.118460152045055e+001
 7.891984256435692e-001	 6.141382946436216e-001	 1.071795100960186e+001
 7.828193943248217e-001	 6.222489821957410e-001	 1.023679074515423e+001
 7.763531875729710e-001	 6.302981263713646e-001	 9.930809382593701e+000
 8.579203990283327e-001	 5.608899971987366e-001	 1.400652553773860e+001
 8.521258418306248e-001	 5.696547636152222e-001	 1.358960160339017e+001
 8.462357599078701e-001	 5.783684281454595e-001	 1.315977771236262e+001
 8.402508113242638e-001	 5.870294490800074e-001	 1.271701958319835e+001
 8.341716869775760e-001	 5.956362956183596e-001	 1.226130659604438e+001
 8.279991103840487e-001	 6.041874487356549e-001	 1.179263189019691e+001
 8.217338374360308e-001	 6.126814020446861e-001	 1.131100244099039e+001
 8.153766561324448e-001	 6.211166626522043e-001	 1.081643911578457e+001
 8.089283862822416e-001	 6.294917520085319e-001	 1.047661449964169e+001
 8.023898791810181e-001	 6.378052067494876e-001	 1.026328734232887e+001
 7.957620172610354e-001	 6.460555795296462e-001	 1.003024310397616e+001
 8.788452868087893e-001	 5.745702410353089e-001	 1.393439277145258e+001
 8.729093989469730e-001	 5.835487822418006e-001	 1.347284468907629e+001
 8.668756564889210e-001	 5.924749751746508e-001	 1.299937117825727e+001
 8.607447335491761e-001	 6.013472405217495e-001	 1.251402338426225e+001
 8.545173378766733e-001	 6.101640101459929e-001	 1.201686566242125e+001
 8.481942106343932e-001	 6.189237279731328e-001	 1.150797558223401e+001
 8.417761261510833e-001	 6.276248508748118e-001	 1.108880019992061e+001
 8.352638916451534e-001	 6.362658495457502e-001	 1.088813534304685e+001
 8.286583469208936e-001	 6.448452093740827e-001	 1.066991034235178e+001
 8.219603640372094e-001	 6.533614313038202e-001	 1.043381580709415e+001
 8.151708469490998e-001	 6.618130326884288e-001	 1.017955008100377e+001
 8.997701745887435e-001	 5.882504848718763e-001	 1.383673317909015e+001
 8.936929560629136e-001	 5.974428008685592e-001	 1.333558050775668e+001
 8.875155530696497e-001	 6.065815222041774e-001	 1.282339798684862e+001
 8.812386557738413e-001	 6.156650319639527e-001	 1.230031989431879e+001
 8.748629887755891e-001	 6.246917246741830e-001	 1.176649331893434e+001
 8.683893108846112e-001	 6.336600072112341e-001	 1.156442578140782e+001
 8.618184148660554e-001	 6.425682997055966e-001	 1.135896097105092e+001
 8.551511271578161e-001	 6.514150364399609e-001	 1.113759498741768e+001
 8.483883075595252e-001	 6.601986667402745e-001	 1.090005983522707e+001
 8.415308488933955e-001	 6.689176558587390e-001	 1.064609289075099e+001
 8.345796766371638e-001	 6.775704858477131e-001	 1.037543742055258e+001
 9.206950623681951e-001	 6.019307287084381e-001	 1.371675920232694e+001
 9.144765131784466e-001	 6.113368194954976e-001	 1.318065870532419e+001
 9.081554496500561e-001	 6.206880692340396e-001	 1.263434893938361e+001
 9.017325779982595e-001	 6.299828234066174e-001	 1.227940819493708e+001
 8.952086396743232e-001	 6.392194392029307e-001	 1.208516991538802e+001
 8.885844111347034e-001	 6.483962864499585e-001	 1.187678167892603e+001
 8.818607035809463e-001	 6.575117485370405e-001	 1.165401495778099e+001
 8.750383626704336e-001	 6.665642233348367e-001	 1.141664385692683e+001
 8.681182681981370e-001	 6.755521241071071e-001	 1.116444556941528e+001
 8.611013337495769e-001	 6.844738804142442e-001	 1.089720084411362e+001
 8.539885063252279e-001	 6.933279390074986e-001	 1.061469446487785e+001
 9.416199501471442e-001	 6.156109725449948e-001	 1.357745643679353e+001
 9.352600702935722e-001	 6.252308381226158e-001	 1.302020845363785e+001
 9.287953462301400e-001	 6.347946162642376e-001	 1.283614761008415e+001
 9.222265002224307e-001	 6.443006148497431e-001	 1.263947246902749e+001
 9.155542905728754e-001	 6.537471537322354e-001	 1.242999940337427e+001
 9.087795113846693e-001	 6.631325656893065e-001	 1.220754488881834e+001
 9.019029922957564e-001	 6.724551973691438e-001	 1.197192588332339e+001
 8.949255981830053e-001	 6.817134102303775e-001	 1.172296022375451e+001
 8.878482288367283e-001	 6.909055814745803e-001	 1.146046703890319e+001
 8.806718186057527e-001	 7.000301049703354e-001	 1.118426717807651e+001
 8.733973360132922e-001	 7.090853921677851e-001	 1.089418365434948e+001
 9.625448379255903e-001	 6.292912163815461e-001	 1.359942999857714e+001
 9.560436274082902e-001	 6.391248567499139e-001	 1.341365245791564e+001
 9.494352428099019e-001	 6.489011632947710e-001	 1.321644825753068e+001
 9.427204224463548e-001	 6.586184062933304e-001	 1.300768152281688e+001
 9.358999414712462e-001	 6.682748682620976e-001	 1.278721447134958e+001
 9.289746116345086e-001	 6.778688449292775e-001	 1.255490772624799e+001
 9.219452810104858e-001	 6.873986462019062e-001	 1.231062065039468e+001
 9.148128336955317e-001	 6.968625971265834e-001	 1.205421170091683e+001
 9.075781894752993e-001	 7.062590388426944e-001	 1.178553880325209e+001
 9.002423034619237e-001	 7.155863295270126e-001	 1.150445974404072e+001
 8.928061657013564e-001	 7.248428453285732e-001	 1.121083258200464e+001
 9.834697257035339e-001	 6.429714602180920e-001	 1.400174003877529e+001
 9.768271845226005e-001	 6.530188753773920e-001	 1.380584908618805e+001
 9.700751393893412e-001	 6.630077103256397e-001	 1.359952319338033e+001
 9.632143446700321e-001	 6.729361977373790e-001	 1.338267113120548e+001
 9.562455923694353e-001	 6.828025827925169e-001	 1.315519806981141e+001
 9.491697118842217e-001	 6.926051241698716e-001	 1.291700584661658e+001
 9.419875697251338e-001	 7.023420950353276e-001	 1.266799325828924e+001
 9.347000692080123e-001	 7.120117840234542e-001	 1.240805637621903e+001
 9.273081501138503e-001	 7.216124962114492e-001	 1.213708888487680e+001
 9.198127883180899e-001	 7.311425540842763e-001	 1.185498244237038e+001
 9.122149953894206e-001	 7.406002984898628e-001	 1.156162706241313e+001
 1.004394613480975e+000	 6.566517040546329e-001	 1.439803289839257e+001
 9.976107416365034e-001	 6.669128940050499e-001	 1.419581684109733e+001
 9.907150359684581e-001	 6.771142573568438e-001	 1.398414990759372e+001
 9.837082668934620e-001	 6.872539891818887e-001	 1.376298277568053e+001
 9.765912432674425e-001	 6.973302973234933e-001	 1.353226078203946e+001
 9.693648121338087e-001	 7.073414034110892e-001	 1.329192414762276e+001
 9.620298584397014e-001	 7.172855438694087e-001	 1.304190823031932e+001
 9.545873047204476e-001	 7.271609709209903e-001	 1.278214380446519e+001
 9.470381107523808e-001	 7.369659535808444e-001	 1.251255736666515e+001
 9.393832731742507e-001	 7.466987786421260e-001	 1.223307146729226e+001
 9.316238250774851e-001	 7.563577516516536e-001	 1.194360506693412e+001
 1.025319501257913e+000	 6.703319478911681e-001	 1.478742764485537e+001
 1.018394298749999e+000	 6.808069126328878e-001	 1.458244936351283e+001
 1.011354932547253e+000	 6.912208043883835e-001	 1.436900125542253e+001
 1.004202189116645e+000	 7.015717806268597e-001	 1.414707326609312e+001
 9.969368941652685e-001	 7.118580118550273e-001	 1.391664820850531e+001
 9.895599123832695e-001	 7.220776826529302e-001	 1.367770194861954e+001
 9.820721471541883e-001	 7.322289927041489e-001	 1.343020362156809e+001
 9.744745402328373e-001	 7.423101578191913e-001	 1.317411587817244e+001
 9.667680713908913e-001	 7.523194109508808e-001	 1.290939516131740e+001
 9.589537580304065e-001	 7.622550032005621e-001	 1.263599201160386e+001
 9.510326547655491e-001	 7.721152048139458e-001	 1.235385140159504e+001
 1.046244389034349e+000	 6.840121917276982e-001	 1.516891253738245e+001
 1.039177855863086e+000	 6.947009312609056e-001	 1.496452791870813e+001
 1.031994829125725e+000	 7.053273514202587e-001	 1.475265592088038e+001
 1.024696111339581e+000	 7.158895720722920e-001	 1.453332320782157e+001
 1.017282545062913e+000	 7.263857263871184e-001	 1.430654746515338e+001
 1.009755012632604e+000	 7.368139618953941e-001	 1.407233754844881e+001
 1.002114435868594e+000	 7.471724415395481e-001	 1.383069366571255e+001
 9.943617757451817e-001	 7.574593447180577e-001	 1.358160759379965e+001
 9.864980320293814e-001	 7.676728683215579e-001	 1.332506292836498e+001
 9.785242428865573e-001	 7.778112277595842e-001	 1.306103536681621e+001
 9.704414844536136e-001	 7.878726579767392e-001	 1.278949302362443e+001
 7.763531875729710e-001	 6.302981263713646e-001	 9.930809382593701e+000
 7.698006963084499e-001	 6.382843315578651e-001	 9.511462329875622e+000
 7.631628410692363e-001	 6.462062193673844e-001	 9.096055858103089e+000
 7.564405715924578e-001	 6.540624294185955e-001	 8.685169914816237e+000
 7.496348663729667e-001	 6.618516201064840e-001	 8.279376080104404e+000
 7.427467321968386e-001	 6.695724693589142e-001	 7.879237169169747e+000
 7.357772036510774e-001	 6.772236753791965e-001	 7.485306854069111e+000
 7.287273426100210e-001	 6.848039573737854e-001	 7.098129304980502e+000
 7.215982376989776e-001	 6.923120562642575e-001	 6.718238851281333e+000
 7.143910037356571e-001	 6.997467353827424e-001	 6.346159662668907e+000
 7.071067811500000e-001	 7.071067811500000e-001	 5.982405450491982e+000
 7.957620172610354e-001	 6.460555795296462e-001	 1.003024310397616e+001
 7.890457137156018e-001	 6.542414398460118e-001	 9.650580136361223e+000
 7.822419120960087e-001	 6.623613748509767e-001	 9.273113922791298e+000
 7.753515858828121e-001	 6.704139901536809e-001	 8.898365955452150e+000
 7.683757380332351e-001	 6.783979106089844e-001	 8.526850136664221e+000
 7.613154005030053e-001	 6.863117810929481e-001	 8.159072457263095e+000
 7.541716337438014e-001	 6.941542672639653e-001	 7.795530693985895e+000
 7.469455261768199e-001	 7.019240563086516e-001	 7.436714126059234e+000
 7.396381936430014e-001	 7.096198576716236e-001	 7.083103271123032e+000
 7.322507788304985e-001	 7.172404037683136e-001	 6.735169640566022e+000
 7.247844506799999e-001	 7.247844506800000e-001	 6.393375514289774e+000
 8.151708469490998e-001	 6.618130326884288e-001	 1.017955008100377e+001
 8.082907311227530e-001	 6.701985481345644e-001	 9.836251495707387e+000
 8.013209831227808e-001	 6.785165303348901e-001	 9.493488291485202e+000
 7.942626001731661e-001	 6.867655508890119e-001	 9.151724027452096e+000
 7.871166096935036e-001	 6.949442011116653e-001	 8.811415368591023e+000
 7.798840688091721e-001	 7.030510928271078e-001	 8.473011840331758e+000
 7.725660638365257e-001	 7.110848591488145e-001	 8.136955602102441e+000
 7.651637097436187e-001	 7.190441552435636e-001	 7.803681239895705e+000
 7.576781495870251e-001	 7.269276590790100e-001	 7.473615577829114e+000
 7.501105539253395e-001	 7.347340721538893e-001	 7.147177508619320e+000
 7.424621202100000e-001	 7.424621202100000e-001	 6.824777842830770e+000
 8.345796766371638e-001	 6.775704858477131e-001	 1.037543742055258e+001
 8.275357485299048e-001	 6.861556564235237e-001	 1.006545354596611e+001
 8.204000541495531e-001	 6.946716858191245e-001	 9.754423193144927e+000
 8.131736144635205e-001	 7.031171116245896e-001	 9.442752349848787e+000
 8.058574813537721e-001	 7.114904916145274e-001	 9.130840724537221e+000
 7.984527371153392e-001	 7.197904045613930e-001	 8.819081577696906e+000
 7.909604939292501e-001	 7.280154510337448e-001	 8.507861572246370e+000
 7.833818933104181e-001	 7.361642541785208e-001	 8.197560642905598e+000
 7.757181055310486e-001	 7.442354604864162e-001	 7.888551884352078e+000
 7.679703290201807e-001	 7.522277405394704e-001	 7.581201457923872e+000
 7.601397897400000e-001	 7.601397897400000e-001	 7.275868516569737e+000
 8.539885063252279e-001	 6.933279390074986e-001	 1.061469446487785e+001
 8.467807659370565e-001	 7.021127647128891e-001	 1.033522309650762e+001
 8.394791251763253e-001	 7.108268413036804e-001	 1.005320036963168e+001
 8.320846287538746e-001	 7.194686723604126e-001	 9.768974913020976e+000
 8.245983530140405e-001	 7.280367821175704e-001	 9.482889610781594e+000
 8.170214054215057e-001	 7.365297162958037e-001	 9.195281511137962e+000
 8.093549240219742e-001	 7.449460429187546e-001	 8.906481754538213e+000
 8.016000768772169e-001	 7.532843531135229e-001	 8.616815520810562e+000
 7.937580614750726e-001	 7.615432618938427e-001	 8.326601995031879e+000
 7.858301041150223e-001	 7.697214089250566e-001	 8.036154351707079e+000
 7.778174592700000e-001	 7.778174592700000e-001	 7.745779756795364e+000
 8.733973360132922e-001	 7.090853921677851e-001	 1.089418365434948e+001
 8.660257833442079e-001	 7.180698730026608e-001	 1.064264999787371e+001
 8.585581962030976e-001	 7.269819967885571e-001	 1.038713490760760e+001
 8.509956430442284e-001	 7.358202330964815e-001	 1.012792972632198e+001
 8.433392246743088e-001	 7.445830726207936e-001	 9.865320507048491e+000
 8.355900737276726e-001	 7.532690280303400e-001	 9.599588000174967e+000
 8.277493541146983e-001	 7.618766348038450e-001	 9.331007660248067e+000
 8.198182604440158e-001	 7.704044520485702e-001	 9.059849672049001e+000
 8.117980174190962e-001	 7.788510633012893e-001	 8.786378995441654e+000
 8.036898792098633e-001	 7.872150773106477e-001	 8.510855428425346e+000
 7.954951288000000e-001	 7.954951288000000e-001	 8.233533687760117e+000
 8.928061657013564e-001	 7.248428453285732e-001	 1.121083258200464e+001
 8.852708007513596e-001	 7.340269812928388e-001	 1.098487137643300e+001
 8.776372672298697e-001	 7.431371522737551e-001	 1.075357161410078e+001
 8.699066573345828e-001	 7.521717938327969e-001	 1.051716729427795e+001
 8.620800963345773e-001	 7.611293631241980e-001	 1.027588750200291e+001
 8.541587420338392e-001	 7.700083397650018e-001	 1.002995647448832e+001
 8.461437842074222e-001	 7.788072266890160e-001	 9.779593687757503e+000
 8.380364440108148e-001	 7.875245509836630e-001	 9.525013962915192e+000
 8.298379733631200e-001	 7.961588647087562e-001	 9.266427591384094e+000
 8.215496543047046e-001	 8.047087456962437e-001	 9.004040478369333e+000
 8.131727983300000e-001	 8.131727983300000e-001	 8.738054303749193e+000
 9.122149953894206e-001	 7.406002984898628e-001	 1.156162706241313e+001
 9.045158181585112e-001	 7.499840895834230e-001	 1.135906660503755e+001
 8.967163382566420e-001	 7.592923077592744e-001	 1.114988185476430e+001
 8.888176716249372e-001	 7.685233545693583e-001	 1.093424928731389e+001
 8.808209679948458e-001	 7.776756536277830e-001	 1.071234076038439e+001
 8.727274103400061e-001	 7.867476514997894e-001	 1.048432366049707e+001
 8.645382143001464e-001	 7.957378185742671e-001	 1.025036107073913e+001
 8.562546275776136e-001	 8.046446499188009e-001	 1.001061195863891e+001
 8.478779293071437e-001	 8.134666661162426e-001	 9.765231383335129e+000
 8.394094293995459e-001	 8.222024140818449e-001	 9.514370721128731e+000
 8.308504678599999e-001	 8.308504678599999e-001	 9.258177908438794e+000
 9.316238250774851e-001	 7.563577516516536e-001	 1.194360506693412e+001
 9.237608355656627e-001	 7.659411978744137e-001	 1.176245290234765e+001
 9.157954092834143e-001	 7.754474632451148e-001	 1.157346078735263e+001
 9.077286859152912e-001	 7.848749153061654e-001	 1.137674737863964e+001
 8.995618396551142e-001	 7.942219441315489e-001	 1.117242693174933e+001
 8.912960786461726e-001	 8.034869632347024e-001	 1.096060952961564e+001
 8.829326443928708e-001	 8.126684104595989e-001	 1.074140133281388e+001
 8.744728111444123e-001	 8.217647488539841e-001	 1.051490485057923e+001
 8.659178852511673e-001	 8.307744675237495e-001	 1.028121923158241e+001
 8.572692044943870e-001	 8.396960824674510e-001	 1.004044057337342e+001
 8.485281373899998e-001	 8.485281373899998e-001	 9.792662249334606e+000
 9.510326547655491e-001	 7.721152048139458e-001	 1.235385140159504e+001
 9.430058529728143e-001	 7.818983061658105e-001	 1.219228147101450e+001
 9.348744803101865e-001	 7.916026187312762e-001	 1.202172493395632e+001
 9.266397002056453e-001	 8.012264760432186e-001	 1.184224222355717e+001
 9.183027113153827e-001	 8.107682346354956e-001	 1.165388950916313e+001
 9.098647469523398e-001	 8.202262749697412e-001	 1.145671900794812e+001
 9.013270744855949e-001	 8.295990023450112e-001	 1.125077931918895e+001
 8.926909947112114e-001	 8.388848477892125e-001	 1.103611578008908e+001
 8.839578411951912e-001	 8.480822689312765e-001	 1.081277084195820e+001
 8.751289795892284e-001	 8.571897508530622e-001	 1.058078446547804e+001
 8.662058069199999e-001	 8.662058069199999e-001	 1.034019453370753e+001
 9.704414844536136e-001	 7.878726579767392e-001	 1.278949302362443e+001
 9.622508703799659e-001	 7.978554144576137e-001	 1.264583409928112e+001
 9.539535513369586e-001	 8.077577742177589e-001	 1.249211004456829e+001
 9.455507144959995e-001	 8.175780367805177e-001	 1.232832256125155e+001
 9.370435829756511e-001	 8.273145251396229e-001	 1.215446914484924e+001
 9.284334152585064e-001	 8.369655867049054e-001	 1.197054348081910e+001
 9.197215045783189e-001	 8.465295942305035e-001	 1.177653586449911e+001
 9.109091782780104e-001	 8.560049467244861e-001	 1.157243364351585e+001
 9.019977971392149e-001	 8.653900703388237e-001	 1.135822168128572e+001
 8.929887546840698e-001	 8.746834192386785e-001	 1.113388284015145e+001
 8.838834764499999e-001	 8.838834764499999e-001	 1.089939848261727e+001
 7.071067811500000e-001	 7.071067811500000e-001	 5.982405450491982e+000
 6.997467353827424e-001	 7.143910037356571e-001	 5.728201212066779e+000
 6.923120562642576e-001	 7.215982376989775e-001	 5.468016147871667e+000
 6.848039573737853e-001	 7.287273426100210e-001	 5.202128408569560e+000
 6.772236753791965e-001	 7.357772036510774e-001	 4.930818717171570e+000
 6.695724693589142e-001	 7.427467321968386e-001	 4.654370355975535e+000
 6.618516201064840e-001	 7.496348663729667e-001	 4.373069154611104e+000
 6.540624294185956e-001	 7.564405715924577e-001	 4.087203478732060e+000
 6.462062193673844e-001	 7.631628410692365e-001	 3.797064218886596e+000
 6.382843315578652e-001	 7.698006963084498e-001	 3.502944779089766e+000
 6.302981263713646e-001	 7.763531875729710e-001	 3.205141064621284e+000
 7.247844506799999e-001	 7.247844506800000e-001	 6.393375514289774e+000
 7.172404037683134e-001	 7.322507788304985e-001	 6.145609031232638e+000
 7.096198576716237e-001	 7.396381936430012e-001	 5.892099665924112e+000
 7.019240563086517e-001	 7.469455261768201e-001	 5.633110152959910e+000
 6.941542672639653e-001	 7.541716337438014e-001	 5.368905039446327e+000
 6.863117810929481e-001	 7.613154005030052e-001	 5.099750710047915e+000
 6.783979106089844e-001	 7.683757380332351e-001	 4.825915414506405e+000
 6.704139901536809e-001	 7.753515858828118e-001	 4.547669297066372e+000
 6.623613748509767e-001	 7.822419120960087e-001	 4.265284427230885e+000
 6.542414398460118e-001	 7.890457137156017e-001	 3.979034831261987e+000
 6.460555795296461e-001	 7.957620172610354e-001	 3.689196523834227e+000
 7.424621202100000e-001	 7.424621202100000e-001	 6.824777842830770e+000
 7.347340721538893e-001	 7.501105539253395e-001	 6.583690401781278e+000
 7.269276590790101e-001	 7.576781495870252e-001	 6.337062299120847e+000
 7.190441552435636e-001	 7.651637097436189e-001	 6.085139363735259e+000
 7.110848591488145e-001	 7.725660638365257e-001	 5.828168483518106e+000
 7.030510928271078e-001	 7.798840688091721e-001	 5.566397671132862e+000
 6.949442011116653e-001	 7.871166096935036e-001	 5.300076133617747e+000
 6.867655508890120e-001	 7.942626001731661e-001	 5.029454345159326e+000
 6.785165303348898e-001	 8.013209831227809e-001	 4.754784122343254e+000
 6.701985481345646e-001	 8.082907311227530e-001	 4.476318701181240e+000
 6.618130326884288e-001	 8.151708469490996e-001	 4.194312815203151e+000
 7.601397897400000e-001	 7.601397897400000e-001	 7.275868516569737e+000
 7.522277405394704e-001	 7.679703290201808e-001	 7.041745003799058e+000
 7.442354604864165e-001	 7.757181055310487e-001	 6.802251201627978e+000
 7.361642541785208e-001	 7.833818933104180e-001	 6.557614485629224e+000
 7.280154510337445e-001	 7.909604939292499e-001	 6.308062540343530e+000
 7.197904045613930e-001	 7.984527371153392e-001	 6.053823468447561e+000
 7.114904916145275e-001	 8.058574813537721e-001	 5.795125905150113e+000
 7.031171116245893e-001	 8.131736144635203e-001	 5.532199137022900e+000
 6.946716858191244e-001	 8.204000541495530e-001	 5.265273224454901e+000
 6.861556564235237e-001	 8.275357485299046e-001	 4.994579126906111e+000
 6.775704858477131e-001	 8.345796766371638e-001	 4.720348830124645e+000
 7.778174592700000e-001	 7.778174592700000e-001	 7.745779756795364e+000
 7.697214089250566e-001	 7.858301041150223e-001	 7.518947892270427e+000
 7.615432618938427e-001	 7.937580614750724e-001	 7.286887882400702e+000
 7.532843531135229e-001	 8.016000768772169e-001	 7.049807044436626e+000
 7.449460429187546e-001	 8.093549240219742e-001	 6.807912255308385e+000
 7.365297162958037e-001	 8.170214054215057e-001	 6.561410106981626e+000
 7.280367821175703e-001	 8.245983530140405e-001	 6.310507068438811e+000
 7.194686723604127e-001	 8.320846287538745e-001	 6.055409653370998e+000
 7.108268413036801e-001	 8.394791251763255e-001	 5.796324592641811e+000
 7.021127647128891e-001	 8.467807659370564e-001	 5.533459010568754e+000
 6.933279390074987e-001	 8.539885063252281e-001	 5.267020604054989e+000
 7.954951288000000e-001	 7.954951288000000e-001	 8.233533687760117e+000
 7.872150773106477e-001	 8.036898792098633e-001	 8.014363344311599e+000
 7.788510633012895e-001	 8.117980174190961e-001	 7.790082165762764e+000
 7.704044520485701e-001	 8.198182604440157e-001	 7.560875749117286e+000
 7.618766348038449e-001	 8.277493541146982e-001	 7.326928499958022e+000
 7.532690280303400e-001	 8.355900737276725e-001	 7.088423836856218e+000
 7.445830726207936e-001	 8.433392246743088e-001	 6.845544403823915e+000
 7.358202330964817e-001	 8.509956430442285e-001	 6.598472289763282e+000
 7.269819967885571e-001	 8.585581962030977e-001	 6.347389253841637e+000
 7.180698730026608e-001	 8.660257833442079e-001	 6.092476955700613e+000
 7.090853921677852e-001	 8.733973360132923e-001	 5.833917189392921e+000
 8.131727983300000e-001	 8.131727983300000e-001	 8.738054303749193e+000
 8.047087456962437e-001	 8.215496543047046e-001	 8.526956900242883e+000
 7.961588647087559e-001	 8.298379733631198e-001	 8.310844331040022e+000
 7.875245509836630e-001	 8.380364440108148e-001	 8.089878754496038e+000
 7.788072266890160e-001	 8.461437842074223e-001	 7.864220382197103e+000
 7.700083397650018e-001	 8.541587420338392e-001	 7.634027735374546e+000
 7.611293631241979e-001	 8.620800963345773e-001	 7.399457910801992e+000
 7.521717938327970e-001	 8.699066573345828e-001	 7.160666854991833e+000
 7.431371522737550e-001	 8.776372672298699e-001	 6.917809645477747e+000
 7.340269812928387e-001	 8.852708007513597e-001	 6.671040777949383e+000
 7.248428453285735e-001	 8.928061657013564e-001	 6.420514457985405e+000
 8.308504678599999e-001	 8.308504678599999e-001	 9.258177908438794e+000
 8.222024140818448e-001	 8.394094293995459e-001	 9.055605867503656e+000
 8.134666661162426e-001	 8.478779293071436e-001	 8.848095702453719e+000
 8.046446499188010e-001	 8.562546275776138e-001	 8.635784358510707e+000
 7.957378185742673e-001	 8.645382143001466e-001	 8.418806072209128e+000
 7.867476514997893e-001	 8.727274103400060e-001	 8.197292682853769e+000
 7.776756536277829e-001	 8.808209679948457e-001	 7.971373954924323e+000
 7.685233545693583e-001	 8.888176716249369e-001	 7.741177910098783e+000
 7.592923077592743e-001	 8.967163382566421e-001	 7.506831167535076e+000
 7.499840895834231e-001	 9.045158181585112e-001	 7.268459291024615e+000
 7.406002984898628e-001	 9.122149953894206e-001	 7.026187141612218e+000
 8.485281373899998e-001	 8.485281373899998e-001	 9.792662249334606e+000
 8.396960824674509e-001	 8.572692044943873e-001	 9.599108511577095e+000
 8.307744675237496e-001	 8.659178852511674e-001	 9.400677915277559e+000
 8.217647488539840e-001	 8.744728111444126e-001	 9.197480362304752e+000
 8.126684104595990e-001	 8.829326443928708e-001	 8.989622275135529e+000
 8.034869632347023e-001	 8.912960786461726e-001	 8.777206966477763e+000
 7.942219441315489e-001	 8.995618396551142e-001	 8.560335021332863e+000
 7.848749153061655e-001	 9.077286859152911e-001	 8.339104690017152e+000
 7.754474632451146e-001	 9.157954092834144e-001	 8.113612290626564e+000
 7.659411978744137e-001	 9.237608355656627e-001	 7.883952619399196e+000
 7.563577516516535e-001	 9.316238250774851e-001	 7.650219367409648e+000
 8.662058069199999e-001	 8.662058069199999e-001	 1.034019453370753e+001
 8.571897508530622e-001	 8.751289795892283e-001	 1.015619212149608e+001
 8.480822689312767e-001	 8.839578411951911e-001	 9.967361047362852e+000
 8.388848477892124e-001	 8.926909947112115e-001	 9.773782284185902e+000
 8.295990023450112e-001	 9.013270744855950e-001	 9.575532543835269e+000
 8.202262749697411e-001	 9.098647469523395e-001	 9.372684708167881e+000
 8.107682346354954e-001	 9.183027113153826e-001	 9.165308273985747e+000
 8.012264760432186e-001	 9.266397002056451e-001	 8.953469810316529e+000
 7.916026187312760e-001	 9.348744803101865e-001	 8.737233426337456e+000
 7.818983061658106e-001	 9.430058529728145e-001	 8.516661248231785e+000
 7.721152048139458e-001	 9.510326547655491e-001	 8.291813903242067e+000
 8.838834764499999e-001	 8.838834764499999e-001	 1.089939848261727e+001
 8.746834192386785e-001	 8.929887546840698e-001	 1.072552010748809e+001
 8.653900703388238e-001	 9.019977971392147e-001	 1.054685077488064e+001
 8.560049467244860e-001	 9.109091782780104e-001	 1.036344058790970e+001
 8.465295942305037e-001	 9.197215045783191e-001	 1.017533459411294e+001
 8.369655867049053e-001	 9.284334152585063e-001	 9.982573281109071e+000
 8.273145251396229e-001	 9.370435829756509e-001	 9.785193087775731e+000
 8.175780367805178e-001	 9.455507144959995e-001	 9.583226929139551e+000
 8.077577742177586e-001	 9.539535513369589e-001	 9.376704733128024e+000
 7.978554144576137e-001	 9.622508703799658e-001	 9.165653987298079e+000
 7.878726579767392e-001	 9.704414844536136e-001	 8.950100293629394e+000
 6.302981263713646e-001	 7.763531875729710e-001	 3.205141064621284e+000
 6.222489821957411e-001	 7.828193943248218e-001	 2.964705549680565e+000
 6.141382946436216e-001	 7.891984256435691e-001	 2.703276500311735e+000
 6.059674757593238e-001	 7.954894206196910e-001	 2.454471490695841e+000
 5.977379532152196e-001	 8.016915487208971e-001	 2.219155285327219e+000
 5.894511694988002e-001	 8.078040101335781e-001	 1.998178897510769e+000
 5.811085810912837e-001	 8.138260360782970e-001	 1.792378525555915e+000
 5.727116576387268e-001	 8.197568890991045e-001	 1.602574511840522e+000
 5.642618811166035e-001	 8.255958633264966e-001	 1.429570326758281e+000
 5.557607449888236e-001	 8.313422847138690e-001	 1.274151579501199e+000
 5.472097533621585e-001	 8.369955112473729e-001	 1.137085057556178e+000
 6.460555795296461e-001	 7.957620172610354e-001	 3.689196523834227e+000
 6.378052067494876e-001	 8.023898791810181e-001	 3.482940597251632e+000
 6.294917520085319e-001	 8.089283862822417e-001	 3.285195146429925e+000
 6.211166626522043e-001	 8.153766561324448e-001	 3.071791477355776e+000
 6.126814020446861e-001	 8.217338374360308e-001	 2.840353798194675e+000
 6.041874487356549e-001	 8.279991103840487e-001	 2.620560378975284e+000
 5.956362956183596e-001	 8.341716869775759e-001	 2.413253781334296e+000
 5.870294490800074e-001	 8.402508113242636e-001	 2.219262919782441e+000
 5.783684281454594e-001	 8.462357599078704e-001	 2.039402006894628e+000
 5.696547636152223e-001	 8.521258418306248e-001	 1.874469522690685e+000
 5.608899971987366e-001	 8.579203990283327e-001	 1.725247210206951e+000
 6.618130326884288e-001	 8.151708469490996e-001	 4.194312815203151e+000
 6.533614313038202e-001	 8.219603640372094e-001	 4.002327721965135e+000
 6.448452093740830e-001	 8.286583469208937e-001	 3.816312137930678e+000
 6.362658495457499e-001	 8.352638916451532e-001	 3.636567599068051e+000
 6.276248508748118e-001	 8.417761261510834e-001	 3.463388111634556e+000
 6.189237279731329e-001	 8.481942106343930e-001	 3.257954213728449e+000
 6.101640101459929e-001	 8.545173378766733e-001	 3.045067761237135e+000
 6.013472405217496e-001	 8.607447335491760e-001	 2.842884397699828e+000
 5.924749751746506e-001	 8.668756564889212e-001	 2.652232037393076e+000
 5.835487822418006e-001	 8.729093989469730e-001	 2.473924941353657e+000
 5.745702410353087e-001	 8.788452868087893e-001	 2.308762665529644e+000
 6.775704858477131e-001	 8.345796766371638e-001	 4.720348830124645e+000
 6.689176558587390e-001	 8.415308488933956e-001	 4.539870443021967e+000
 6.601986667402746e-001	 8.483883075595253e-001	 4.362893046091775e+000
 6.514150364399607e-001	 8.551511271578162e-001	 4.189666690233837e+000
 6.425682997055964e-001	 8.618184148660554e-001	 4.020435945262165e+000
 6.336600072112341e-001	 8.683893108846115e-001	 3.855440039833264e+000
 6.246917246741831e-001	 8.748629887755891e-001	 3.692847249751530e+000
 6.156650319639528e-001	 8.812386557738412e-001	 3.478620217230418e+000
 6.065815222041774e-001	 8.875155530696497e-001	 3.273388693406235e+000
 5.974428008685592e-001	 8.936929560629136e-001	 3.077985611699371e+000
 5.882504848718763e-001	 8.997701745887436e-001	 2.893231184532183e+000
 6.933279390074987e-001	 8.539885063252281e-001	 5.267020604054989e+000
 6.844738804142442e-001	 8.611013337495768e-001	 5.095542434122930e+000
 6.755521241071072e-001	 8.681182681981370e-001	 4.925163984724795e+000
 6.665642233348367e-001	 8.750383626704337e-001	 4.756083280445855e+000
 6.575117485370405e-001	 8.818607035809464e-001	 4.588494867394242e+000
 6.483962864499587e-001	 8.885844111347035e-001	 4.422590024069936e+000
 6.392194392029307e-001	 8.952086396743231e-001	 4.258556975614979e+000
 6.299828234066175e-001	 9.017325779982596e-001	 4.096581110406408e+000
 6.206880692340399e-001	 9.081554496500564e-001	 3.907902579453122e+000
 6.113368194954976e-001	 9.144765131784467e-001	 3.691805029526484e+000
 6.019307287084381e-001	 9.206950623681951e-001	 3.483922269973435e+000
 7.090853921677852e-001	 8.733973360132923e-001	 5.833917189392921e+000
 7.000301049703352e-001	 8.806718186057527e-001	 5.669171352538671e+000
 6.909055814745804e-001	 8.878482288367283e-001	 5.503186526203935e+000
 6.817134102303774e-001	 8.949255981830052e-001	 5.336108027058813e+000
 6.724551973691438e-001	 9.019029922957563e-001	 5.168079653280363e+000
 6.631325656893065e-001	 9.087795113846693e-001	 4.999243968666881e+000
 6.537471537322354e-001	 9.155542905728754e-001	 4.829742587177440e+000
 6.443006148497433e-001	 9.222265002224306e-001	 4.659716456709337e+000
 6.347946162642375e-001	 9.287953462301400e-001	 4.489306140942982e+000
 6.252308381226157e-001	 9.352600702935721e-001	 4.318652098102524e+000
 6.156109725449946e-001	 9.416199501471442e-001	 4.085811861723292e+000
 7.248428453285735e-001	 8.928061657013564e-001	 6.420514457985405e+000
 7.155863295270126e-001	 9.002423034619237e-001	 6.260454710460041e+000
 7.062590388426944e-001	 9.075781894752993e-001	 6.096875586404978e+000
 6.968625971265833e-001	 9.148128336955316e-001	 5.929868879697562e+000
 6.873986462019063e-001	 9.219452810104858e-001	 5.759526786158178e+000
 6.778688449292776e-001	 9.289746116345086e-001	 5.585942263353156e+000
 6.682748682620976e-001	 9.358999414712462e-001	 5.409209387898573e+000
 6.586184062933305e-001	 9.427204224463548e-001	 5.229423708923926e+000
 6.489011632947709e-001	 9.494352428099019e-001	 5.046682596380371e+000
 6.391248567499139e-001	 9.560436274082902e-001	 4.861085582905425e+000
 6.292912163815461e-001	 9.625448379255903e-001	 4.672734697987765e+000
 7.406002984898628e-001	 9.122149953894206e-001	 7.026187141612218e+000
 7.311425540842764e-001	 9.198127883180900e-001	 6.868973720219933e+000
 7.216124962114491e-001	 9.273081501138502e-001	 6.706015026460255e+000
 7.120117840234543e-001	 9.347000692080125e-001	 6.537348389589337e+000
 7.023420950353279e-001	 9.419875697251339e-001	 6.363013424488726e+000
 6.926051241698717e-001	 9.491697118842217e-001	 6.183052469734018e+000
 6.828025827925169e-001	 9.562455923694353e-001	 5.997511020267180e+000
 6.729361977373790e-001	 9.632143446700319e-001	 5.806438153172943e+000
 6.630077103256397e-001	 9.700751393893412e-001	 5.609886945091460e+000
 6.530188753773921e-001	 9.768271845226005e-001	 5.407914879835230e+000
 6.429714602180920e-001	 9.834697257035339e-001	 5.200584244820603e+000
 7.563577516516535e-001	 9.316238250774851e-001	 7.650219367409648e+000
 7.466987786421260e-001	 9.393832731742509e-001	 7.494205408861371e+000
 7.369659535808448e-001	 9.470381107523809e-001	 7.330271304294664e+000
 7.271609709209902e-001	 9.545873047204475e-001	 7.158398855230576e+000
 7.172855438694087e-001	 9.620298584397016e-001	 6.978573998287394e+000
 7.073414034110892e-001	 9.693648121338087e-001	 6.790787324220363e+000
 6.973302973234934e-001	 9.765912432674425e-001	 6.595034588693194e+000
 6.872539891818886e-001	 9.837082668934617e-001	 6.391317213114858e+000
 6.771142573568437e-001	 9.907150359684582e-001	 6.179642773915041e+000
 6.669128940050501e-001	 9.976107416365034e-001	 5.960025478676085e+000
 6.566517040546327e-001	 1.004394613480975e+000	 5.732486627588841e+000
 7.721152048139458e-001	 9.510326547655491e-001	 8.291813903242067e+000
 7.622550032005621e-001	 9.589537580304064e-001	 8.135533249289999e+000
 7.523194109508807e-001	 9.667680713908911e-001	 7.969205454544555e+000
 7.423101578191912e-001	 9.744745402328375e-001	 7.792755613481749e+000
 7.322289927041489e-001	 9.820721471541883e-001	 7.606114773250875e+000
 7.220776826529302e-001	 9.895599123832695e-001	 7.409220536517952e+000
 7.118580118550273e-001	 9.969368941652685e-001	 7.202017653189111e+000
 7.015717806268598e-001	 1.004202189116645e+000	 6.984458599174550e+000
 6.912208043883834e-001	 1.011354932547253e+000	 6.756504140400140e+000
 6.808069126328881e-001	 1.018394298749999e+000	 6.518123880326701e+000
 6.703319478911681e-001	 1.025319501257913e+000	 6.269296789296537e+000
 7.878726579767392e-001	 9.704414844536136e-001	 8.950100293629394e+000
 7.778112277595841e-001	 9.785242428865572e-001	 8.792256515687404e+000
 7.676728683215578e-001	 9.864980320293814e-001	 8.622283630886695e+000
 7.574593447180574e-001	 9.943617757451816e-001	 8.440048735730821e+000
 7.471724415395482e-001	 1.002114435868594e+000	 8.245426667188985e+000
 7.368139618953939e-001	 1.009755012632604e+000	 8.038300692297806e+000
 7.263857263871183e-001	 1.017282545062913e+000	 7.818563183809655e+000
 7.158895720722921e-001	 1.024696111339581e+000	 7.586116279866725e+000
 7.053273514202586e-001	 1.031994829125725e+000	 7.340872525734285e+000
 6.947009312609058e-001	 1.039177855863086e+000	 7.082755495688989e+000
 6.840121917276981e-001	 1.046244389034349e+000	 6.811700393226110e+000
 5.472097533621585e-001	 8.369955112473729e-001	 1.137085057556178e+000
 5.386104201372436e-001	 8.425549331296908e-001	 1.064767378565833e+000
 5.299642681565356e-001	 8.480199729359587e-001	 9.850070095640320e-001
 5.212728283505860e-001	 8.533900857430293e-001	 8.983303963007723e-001
 5.125376388839767e-001	 8.586647592332956e-001	 8.052684019176488e-001
 5.037602443012850e-001	 8.638435137714189e-001	 7.063554666619452e-001
 4.949421946742140e-001	 8.689259024546855e-001	 6.021287712763065e-001
 4.860850447508238e-001	 8.739115111371586e-001	 4.931274058134542e-001
 4.771903531077779e-001	 8.787999584278388e-001	 3.798915455863132e-001
 4.682596813065159e-001	 8.835908956630776e-001	 2.629616359237469e-001
 4.592945930542355e-001	 8.882840068535240e-001	 1.428775873482207e-001
 5.608899971987366e-001	 8.579203990283327e-001	 1.725247210206951e+000
 5.520756806439687e-001	 8.636188064585515e-001	 1.621111011715744e+000
 5.432133748642545e-001	 8.692204722606064e-001	 1.513337174483554e+000
 5.343046490634091e-001	 8.747248378882713e-001	 1.402521666308157e+000
 5.253510798601305e-001	 8.801313782159997e-001	 1.289260687892293e+000
 5.163542504126110e-001	 8.854396016175709e-001	 1.174149779865927e+000
 5.073157495443472e-001	 8.906490500177037e-001	 1.057782939617493e+000
 4.982371708721025e-001	 8.957592989168137e-001	 9.407517497291260e-001
 4.891201119369574e-001	 9.007699573891274e-001	 8.236445197548057e-001
 4.799661733393892e-001	 9.056806680544065e-001	 7.070454430267584e-001
 4.707769578792765e-001	 9.104911070235670e-001	 5.915337701100638e-001
 5.745702410353087e-001	 8.788452868087893e-001	 2.308762665529644e+000
 5.655409411505090e-001	 8.846826797868248e-001	 2.175078957377409e+000
 5.564624815716492e-001	 8.904209715846120e-001	 2.041334906709287e+000
 5.473364697758096e-001	 8.960595900328476e-001	 1.908197065495328e+000
 5.381645208358035e-001	 9.015979971980450e-001	 1.776328173894885e+000
 5.289482565234379e-001	 9.070356894631003e-001	 1.646386211382947e+000
 5.196893044140039e-001	 9.123721975801657e-001	 1.519023463691570e+000
 5.103892969929659e-001	 9.176070866960091e-001	 1.394885607411525e+000
 5.010498707658233e-001	 9.227399563500828e-001	 1.274610814033354e+000
 4.916726653720898e-001	 9.277704404455581e-001	 1.158828875134768e+000
 4.822593227043255e-001	 9.326982071936176e-001	 1.048160350347656e+000
 5.882504848718763e-001	 8.997701745887436e-001	 2.893231184532183e+000
 5.790062016568643e-001	 9.057465531145107e-001	 2.731978528413512e+000
 5.697115882787198e-001	 9.116214709079761e-001	 2.574029169878523e+000
 5.603682904877875e-001	 9.173943421767581e-001	 2.420121420956238e+000
 5.509779618109955e-001	 9.230646161794308e-001	 2.270985867377543e+000
 5.415422626337660e-001	 9.286317773080073e-001	 2.127344360547230e+000
 5.320628592831832e-001	 9.340953451420719e-001	 1.989909031220625e+000
 5.225414231134142e-001	 9.394548744747451e-001	 1.859381326788577e+000
 5.129796295943757e-001	 9.447099553107049e-001	 1.736451073996910e+000
 5.033791574046179e-001	 9.498602128365320e-001	 1.621795568839370e+000
 4.937416875293824e-001	 9.549053073636764e-001	 1.516078695276490e+000
 6.019307287084381e-001	 9.206950623681951e-001	 3.483922269973435e+000
 5.924714621630346e-001	 9.268104264416094e-001	 3.296809339859537e+000
 5.829606949854665e-001	 9.328219702306987e-001	 3.116162466775901e+000
 5.734001111993426e-001	 9.387290943200036e-001	 2.942793006951224e+000
 5.637914027857062e-001	 9.445312351601573e-001	 2.777500797382292e+000
 5.541362687435949e-001	 9.502278651522912e-001	 2.621073085338834e+000
 5.444364141518855e-001	 9.558184927034217e-001	 2.474283485354112e+000
 5.346935492334473e-001	 9.613026622530212e-001	 2.337890965676682e+000
 5.249093884226144e-001	 9.666799542709937e-001	 2.212638866059746e+000
 5.150856494369737e-001	 9.719499852273285e-001	 2.099253948671329e+000
 5.052240523544471e-001	 9.771124075337430e-001	 1.998445483803475e+000
 6.156109725449946e-001	 9.416199501471442e-001	 4.085811861723292e+000
 6.059367226690199e-001	 9.478742997681203e-001	 3.874297497570475e+000
 5.962098016918892e-001	 9.540224695527798e-001	 3.672222668317400e+000
 5.864319319104752e-001	 9.600638464625831e-001	 3.480473161888642e+000
 5.766048437599364e-001	 9.659978541402251e-001	 3.299919567697775e+000
 5.667302748529246e-001	 9.718239529959528e-001	 3.131416140311558e+000
 5.568099690201107e-001	 9.775416402642158e-001	 2.975799696288154e+000
 5.468456753530653e-001	 9.831504500308381e-001	 2.833888546237865e+000
 5.368391472505394e-001	 9.886499532309492e-001	 2.706481464048681e+000
 5.267921414691568e-001	 9.940397576179476e-001	 2.594356695107180e+000
 5.167064171795196e-001	 9.993195077038174e-001	 2.498271005228201e+000
 6.292912163815461e-001	 9.625448379255903e-001	 4.672734697987765e+000
 6.194019831748203e-001	 9.689381730940442e-001	 4.468925327479857e+000
 6.094589083979877e-001	 9.752229688742187e-001	 4.246470690926725e+000
 5.994637526211849e-001	 9.813985986044971e-001	 4.037212042221616e+000
 5.894182847336852e-001	 9.874644731196336e-001	 3.842092316125481e+000
 5.793242809617556e-001	 9.934200408389918e-001	 3.662034470444151e+000
 5.691835238878589e-001	 9.992647878244535e-001	 3.497940319194949e+000
 5.589978014722681e-001	 1.004998237808195e+000	 3.350689406680889e+000
 5.487689060781508e-001	 1.010619952190571e+000	 3.221137924484578e+000
 5.384986335011672e-001	 1.016129530008389e+000	 3.110117673271186e+000
 5.281887820046000e-001	 1.021526607873900e+000	 3.018435071156705e+000
 6.429714602180920e-001	 9.834697257035339e-001	 5.200584244820603e+000
 6.328672436804357e-001	 9.900020464193806e-001	 5.026487757585375e+000
 6.227080151037622e-001	 9.964234681950164e-001	 4.842964640630452e+000
 6.124955733314721e-001	 1.002733350745746e+000	 4.616871088613380e+000
 6.022317257069535e-001	 1.008931092098383e+000	 4.407693615116937e+000
 5.919182870700875e-001	 1.015016128681408e+000	 4.216425658966778e+000
 5.815570787551301e-001	 1.020987935384136e+000	 4.044035902204334e+000
 5.711499275910557e-001	 1.026846025585093e+000	 3.891467082533282e+000
 5.606986649054486e-001	 1.032589951149860e+000	 3.759634854380660e+000
 5.502051255330052e-001	 1.038219302398653e+000	 3.649426700525901e+000
 5.396711468296881e-001	 1.043733708043990e+000	 3.561700896107508e+000
 6.566517040546327e-001	 1.004394613480975e+000	 5.732486627588841e+000
 6.463325041858661e-001	 1.011065919744129e+000	 5.552807432217672e+000
 6.359571218092126e-001	 1.017623967515172e+000	 5.381698007351075e+000
 6.255273940413366e-001	 1.024068102886329e+000	 5.219374290025316e+000
 6.150451666797405e-001	 1.030397711076473e+000	 5.000240759830813e+000
 6.045122931779204e-001	 1.036612216523202e+000	 4.797940944210314e+000
 5.939306336219241e-001	 1.042711082943261e+000	 4.617280730887088e+000
 5.833020537094280e-001	 1.048693813361531e+000	 4.459268077753870e+000
 5.726284237324328e-001	 1.054559950108815e+000	 4.324880208066615e+000
 5.619116175646707e-001	 1.060309074788740e+000	 4.215062468114370e+000
 5.511535116547843e-001	 1.065940808214088e+000	 4.130727243041585e+000
 6.703319478911681e-001	 1.025319501257913e+000	 6.269296789296537e+000
 6.597977646911116e-001	 1.032129793068291e+000	 6.086714666061572e+000
 6.492062285143391e-001	 1.038824466834687e+000	 5.914539868691763e+000
 6.385592147507786e-001	 1.045402855026246e+000	 5.752991519538159e+000
 6.278586076520468e-001	 1.051864330053904e+000	 5.602278481090832e+000
 6.171062992852543e-001	 1.058208304364373e+000	 5.409800152758733e+000
 6.063041884882413e-001	 1.064434230501831e+000	 5.220746732597866e+000
 5.954541798273851e-001	 1.070541601137510e+000	 5.057024827137720e+000
 5.845581825591033e-001	 1.076529949067438e+000	 4.919675394604965e+000
 5.736181095961636e-001	 1.082398847178649e+000	 4.809703880559777e+000
 5.626358764798881e-001	 1.088147908384193e+000	 4.728079081684577e+000
 6.840121917276981e-001	 1.046244389034349e+000	 6.811700393226110e+000
 6.732630251961720e-001	 1.053193666391865e+000	 6.628808199103965e+000
 6.624553352191411e-001	 1.060024966153559e+000	 6.458010450518365e+000
 6.515910354597977e-001	 1.066737607165498e+000	 6.299527053039246e+000
 6.406720486238722e-001	 1.073330949030676e+000	 6.153565517549136e+000
 6.297003053920891e-001	 1.079804392204921e+000	 6.020321390801499e+000
 6.186777433540813e-001	 1.086157378059845e+000	 5.857395712296685e+000
 6.076063059449273e-001	 1.092389388913029e+000	 5.687567103232527e+000
 5.964879413854602e-001	 1.098499948025727e+000	 5.546725932318010e+000
 5.853246016274839e-001	 1.104488619568381e+000	 5.435940034337657e+000
 5.741182413050000e-001	 1.110355008554307e+000	 5.356236967850619e+000
 4.592945930542355e-001	 8.882840068535240e-001	 1.428775873482207e-001
 4.502966533698555e-001	 8.928790086056798e-001	 1.107350224996638e-002
 4.412674277578943e-001	 8.973756500191494e-001	-1.130848872820003e-001
 4.322084813897782e-001	 9.017737125594310e-001	-2.291435221753352e-001
 4.231213782919209e-001	 9.060730099062141e-001	-3.366599101144038e-001
 4.140076805434689e-001	 9.102733877783562e-001	-4.352036782507404e-001
 4.048689474837917e-001	 9.143747237357485e-001	-5.243570992645622e-001
 3.957067349304588e-001	 9.183769269585733e-001	-6.037155900117559e-001
 3.865225944084202e-001	 9.222799380044704e-001	-6.728881820664447e-001
 3.773180723910820e-001	 9.260837285441589e-001	-7.314979635557045e-001
 3.680947095539379e-001	 9.297883010760839e-001	-7.791824917638398e-001
 4.707769578792765e-001	 9.104911070235670e-001	 5.915337701100638e-001
 4.615540697013549e-001	 9.152009838184482e-001	 4.634955057019364e-001
 4.522991134480965e-001	 9.198100412663188e-001	 3.427038345402236e-001
 4.430136934202114e-001	 9.243180553693136e-001	 2.296468514493398e-001
 4.336994127447717e-001	 9.287248351491139e-001	 1.248008699588819e-001
 4.243578725529000e-001	 9.330302224675479e-001	 2.862982020649972e-002
 4.149906711674480e-001	 9.372340918235038e-001	-5.841532517638218e-002
 4.055994033014220e-001	 9.413363501266672e-001	-1.358970963466145e-001
 3.961856592678930e-001	 9.453369364486187e-001	-2.033920419357003e-001
 3.867510242020995e-001	 9.492358217518440e-001	-2.604912144659038e-001
 3.772970772964199e-001	 9.530330085972488e-001	-3.068006249089683e-001
 4.822593227043255e-001	 9.326982071936176e-001	 1.048160350347656e+000
 4.728114860330365e-001	 9.375229590314141e-001	 9.224892169992828e-001
 4.633307991386043e-001	 9.422444325138553e-001	 8.036808590666824e-001
 4.538189054510227e-001	 9.468623981797123e-001	 6.922591603576129e-001
 4.442774471980223e-001	 9.513766603926590e-001	 5.887359757277846e-001
 4.347080645627026e-001	 9.557870571574938e-001	 4.936104774089671e-001
 4.251123948513975e-001	 9.600934599121022e-001	 4.073685307437023e-001
 4.154920716725500e-001	 9.642957732956732e-001	 3.304821002599709e-001
 4.058487241273527e-001	 9.683939348937278e-001	 2.634086869279499e-001
 3.961839760128774e-001	 9.723879149605194e-001	 2.065907973473433e-001
 3.864994450383867e-001	 9.762777161194137e-001	 1.604554455182954e-001
 4.937416875293824e-001	 9.549053073636764e-001	 1.516078695276490e+000
 4.840689023649002e-001	 9.598449342445778e-001	 1.391330092491872e+000
 4.743624848294175e-001	 9.646788237617586e-001	 1.273074729895089e+000
 4.646241174822119e-001	 9.694067409906272e-001	 1.161874089105804e+000
 4.548554816516729e-001	 9.740284856368491e-001	 1.058277341953892e+000
 4.450582565728768e-001	 9.785438918481941e-001	 9.628206429723295e-001
 4.352341185356399e-001	 9.829528280015430e-001	 8.760264528104118e-001
 4.253847400438428e-001	 9.872551964655909e-001	 7.984028935890175e-001
 4.155117889867996e-001	 9.914509333397977e-001	 7.304431371201827e-001
 4.056169278234152e-001	 9.955400081701847e-001	 6.726248268159507e-001
 3.957018127798380e-001	 9.995224236425787e-001	 6.254095340097919e-001
 5.052240523544471e-001	 9.771124075337430e-001	 1.998445483803475e+000
 4.953263186969465e-001	 9.821669094579394e-001	 1.873128847207380e+000
 4.853941705205365e-001	 9.871132150100292e-001	 1.753949293259257e+000
 4.754293295137794e-001	 9.919510838020585e-001	 1.641507765319979e+000
 4.654335161057235e-001	 9.966803108816846e-001	 1.536392582823465e+000
 4.554084485834225e-001	 1.001300726539648e+000	 1.439178677603806e+000
 4.453558422201753e-001	 1.005812196091827e+000	 1.350426862747109e+000
 4.352774084153003e-001	 1.010214619636420e+000	 1.270683135082079e+000
 4.251748538462336e-001	 1.014507931786828e+000	 1.200478012316022e+000
 4.150498796337134e-001	 1.018692101380841e+000	 1.140325905720145e+000
 4.049041805207738e-001	 1.022767131166744e+000	 1.090724529158184e+000
 5.167064171795196e-001	 9.993195077038174e-001	 2.498271005228201e+000
 5.065837350291749e-001	 1.004488884671498e+000	 2.370849759442277e+000
 4.964258562119608e-001	 1.009547606258667e+000	 2.249221997736599e+000
 4.862345415457247e-001	 1.014495426614006e+000	 2.134030043799315e+000
 4.760115505601738e-001	 1.019332136127165e+000	 2.025903249788861e+000
 4.657586405943396e-001	 1.024057561231856e+000	 1.925457174092079e+000
 4.554775659050038e-001	 1.028671564182954e+000	 1.833292793306973e+000
 4.451700767869224e-001	 1.033174042808161e+000	 1.749995749656085e+000
 4.348379187056548e-001	 1.037564930234820e+000	 1.676135634927565e+000
 4.244828314437720e-001	 1.041844194592487e+000	 1.612265311927121e+000
 4.141065482611941e-001	 1.046011838691909e+000	 1.558920274311966e+000
 5.281887820046000e-001	 1.021526607873900e+000	 3.018435071156705e+000
 5.178411513615852e-001	 1.026810859885255e+000	 2.887326587798495e+000
 5.074575419036908e-001	 1.031981997507672e+000	 2.761679807036610e+000
 4.970397535780481e-001	 1.037039769426470e+000	 2.642180405736615e+000
 4.865895850150243e-001	 1.041983961373291e+000	 2.529500707952653e+000
 4.761088326056284e-001	 1.046814395924818e+000	 2.424298801646166e+000
 4.655992895901254e-001	 1.051530932274924e+000	 2.327217691421809e+000
 4.550627451587097e-001	 1.056133465980815e+000	 2.238884488586659e+000
 4.445009835650630e-001	 1.060621928683773e+000	 2.159909639718841e+000
 4.339157832535908e-001	 1.064996287805123e+000	 2.090886194816182e+000
 4.233089160010993e-001	 1.069256546218074e+000	 2.032389115971067e+000
 5.396711468296881e-001	 1.043733708043990e+000	 3.561700896107508e+000
 5.290985676941781e-001	 1.049132835099209e+000	 3.425276456257041e+000
 5.184892275957262e-001	 1.054416388757043e+000	 3.293993081370116e+000
 5.078449656107494e-001	 1.059584112239450e+000	 3.168581828250560e+000
 4.971676194702746e-001	 1.064635786620062e+000	 3.049759985679202e+000
 4.864590246172887e-001	 1.069571230618535e+000	 2.938230127552399e+000
 4.757210132755399e-001	 1.074390300367736e+000	 2.834679203927712e+000
 4.649554135306616e-001	 1.079092889154379e+000	 2.739777671384323e+000
 4.541640484244582e-001	 1.083678927133686e+000	 2.654178663981180e+000
 4.433487350631697e-001	 1.088148381018750e+000	 2.578517205968417e+000
 4.325112837404888e-001	 1.092501253745239e+000	 2.513409467280921e+000
 5.511535116547843e-001	 1.065940808214088e+000	 4.130727243041585e+000
 5.403559840269530e-001	 1.071454810313361e+000	 3.987312003617900e+000
 5.295209132880673e-001	 1.076850780006782e+000	 3.848727723646852e+000
 5.186501776438290e-001	 1.082128455052946e+000	 3.715752920226996e+000
 5.077456539259250e-001	 1.087287611867478e+000	 3.589151893005032e+000
 4.968092166293204e-001	 1.092328065313005e+000	 3.469673711125203e+000
 4.858427369612475e-001	 1.097249668461392e+000	 3.358051240074524e+000
 4.748480819027783e-001	 1.102052312328856e+000	 3.255000209936606e+000
 4.638271132838406e-001	 1.106735925584560e+000	 3.161218326436153e+000
 4.527816868725090e-001	 1.111300474233367e+000	 3.077384426020486e+000
 4.417136514793630e-001	 1.115745961273404e+000	 3.004157676090093e+000
 5.626358764798881e-001	 1.088147908384193e+000	 4.728079081684577e+000
 5.516134003599104e-001	 1.093776785527711e+000	 4.575952045253176e+000
 5.405525989807140e-001	 1.099285171256888e+000	 4.428355838383937e+000
 5.294553896772866e-001	 1.104672797866959e+000	 4.286118572138633e+000
 5.183236883819752e-001	 1.109939437115540e+000	 4.150053656161769e+000
 5.071594086417235e-001	 1.115084900008229e+000	 4.020958716764778e+000
 4.959644606472483e-001	 1.120109036555890e+000	 3.899614556994072e+000
 4.847407502750599e-001	 1.125011735504244e+000	 3.786784160306350e+000
 4.734901781432100e-001	 1.129792924036396e+000	 3.683211739334681e+000
 4.622146386816085e-001	 1.134452567448973e+000	 3.589621831087318e+000
 4.509160192177217e-001	 1.138990668802569e+000	 3.506718439775895e+000
 5.741182413050000e-001	 1.110355008554307e+000	 5.356236967850619e+000
 5.628708166930497e-001	 1.116098760742258e+000	 5.193630955450087e+000
 5.515842846736662e-001	 1.121719562507361e+000	 5.035265111545152e+000
 5.402606017111221e-001	 1.127217140681487e+000	 4.882019327886311e+000
 5.289017228384254e-001	 1.132591262364247e+000	 4.734758275957008e+000
 5.175096006544983e-001	 1.137841734704207e+000	 4.594330253448983e+000
 5.060861843335419e-001	 1.142968404651232e+000	 4.461566074911817e+000
 4.946334186475062e-001	 1.147971158680544e+000	 4.337278008313642e+000
 4.831532430025666e-001	 1.152849922489192e+000	 4.222258759103517e+000
 4.716475904904681e-001	 1.157604660665571e+000	 4.117280503214090e+000
 4.601183869555650e-001	 1.162235376332733e+000	 4.023093970291566e+000
 3.680947095539379e-001	 9.297883010760839e-001	-7.791824917638398e-001
 3.588540400425035e-001	 9.333936886206078e-001	-8.598403418735655e-001
 3.495975907518841e-001	 9.368999543945393e-001	-9.354082250241037e-001
 3.403268806206378e-001	 9.403071914665516e-001	-1.005454271840193e+000
 3.310434199417800e-001	 9.436155223939605e-001	-1.069557579105815e+000
 3.217487096881426e-001	 9.468250988417171e-001	-1.127308661801498e+000
 3.124442408536596e-001	 9.499361011842371e-001	-1.178309877426129e+000
 3.031314938110319e-001	 9.529487380907489e-001	-1.222175822282613e+000
 2.938119376861946e-001	 9.558632460948671e-001	-1.258533699483274e+000
 2.844870297499801e-001	 9.586798891490925e-001	-1.287023658508236e+000
 2.751582148273362e-001	 9.613989581649598e-001	-1.307299106224380e+000
 3.772970772964199e-001	 9.530330085972488e-001	-3.068006249089683e-001
 3.678253910496041e-001	 9.567285308306593e-001	-3.824856821522135e-001
 3.583375305287336e-001	 9.603224532492585e-001	-4.529956001197820e-001
 3.488350526458335e-001	 9.638148712484377e-001	-5.179037618241486e-001
 3.393195054512463e-001	 9.672059104494433e-001	-5.767947370731802e-001
 3.297924274421272e-001	 9.704957263088508e-001	-6.292647392570986e-001
 3.202553468872610e-001	 9.736845037104360e-001	-6.749220535631739e-001
 3.107097811686687e-001	 9.767724565401572e-001	-7.133874362941148e-001
 3.011572361404364e-001	 9.797598272449696e-001	-7.442944850494149e-001
 2.915992055051700e-001	 9.826468863761855e-001	-7.672899796056147e-001
 2.820371702084442e-001	 9.854339321181277e-001	-7.820341934108737e-001
 3.864994450383867e-001	 9.762777161194137e-001	 1.604554455182954e-001
 3.767967420559097e-001	 9.800633730417054e-001	 8.575403508287217e-002
 3.670774703045501e-001	 9.837449521049575e-001	 1.634147263092966e-002
 3.573432246697982e-001	 9.873225510312769e-001	-4.735826773806270e-002
 3.475955909593246e-001	 9.907962985058436e-001	-1.049326819703874e-001
 3.378361451946069e-001	 9.941663537768565e-001	-1.559811997037522e-001
 3.280664529192808e-001	 9.974329062374506e-001	-2.001156183471633e-001
 3.182880685246871e-001	 1.000596174990316e+000	-2.369605072684401e-001
 3.085025345930623e-001	 1.003656408395746e+000	-2.661535818489060e-001
 2.987113812587859e-001	 1.006613883603867e+000	-2.873460472451130e-001
 2.889161255880585e-001	 1.009468906071790e+000	-3.002029117799455e-001
 3.957018127798380e-001	 9.995224236425787e-001	 6.254095340097919e-001
 3.857680930614206e-001	 1.003398215253747e+000	 5.478457640097585e-001
 3.758174100793333e-001	 1.007167450961636e+000	 4.757128077530992e-001
 3.658513966925321e-001	 1.010830230815070e+000	 4.094345689480764e-001
 3.558716764660148e-001	 1.014386686563162e+000	 3.494231355209916e-001
 3.458798629455820e-001	 1.017836981245734e+000	 2.960783070130991e-001
 3.358775589497192e-001	 1.021181308765282e+000	 2.497871526752180e-001
 3.258663558790867e-001	 1.024419893441224e+000	 2.109236005876430e-001
 3.158478330440720e-001	 1.027552989547198e+000	 1.798480580466853e-001
 3.058235570108274e-001	 1.030580880832138e+000	 1.569070633746111e-001
 2.957950809661792e-001	 1.033503880025945e+000	 1.424329692238098e-001
 4.049041805207738e-001	 1.022767131166744e+000	 1.090724529158184e+000
 3.947394440661366e-001	 1.026733057466782e+000	 1.006578548934009e+000
 3.845573498530832e-001	 1.030589949819293e+000	 9.280333993800740e-001
 3.743595687140353e-001	 1.034337910599817e+000	 8.555154563873367e-001
 3.641477619713173e-001	 1.037977074621398e+000	 7.894388718488589e-001
 3.539235806950523e-001	 1.041507608715483e+000	 7.302050900118167e-001
 3.436886649785759e-001	 1.044929711293928e+000	 6.782023957916531e-001
 3.334446432318680e-001	 1.048243611892883e+000	 6.338054953839268e-001
 3.231931314934658e-001	 1.051449570699323e+000	 5.973751294159825e-001
 3.129357327612944e-001	 1.054547878060998e+000	 5.692577187912098e-001
 3.026740363428060e-001	 1.057538853980594e+000	 5.497850432907889e-001
 4.141065482611941e-001	 1.046011838691909e+000	 1.558920274311966e+000
 4.037107950700578e-001	 1.050067899680813e+000	 1.464583292051449e+000
 3.932972896257999e-001	 1.054012448677930e+000	 1.376045067963930e+000
 3.828677407343075e-001	 1.057845590385517e+000	 1.293736969063416e+000
 3.724238474752317e-001	 1.061567462680552e+000	 1.218077667575842e+000
 3.619672984430177e-001	 1.065178236186105e+000	 1.149472644156687e+000
 3.514997710058511e-001	 1.068678113823391e+000	 1.088313724475873e+000
 3.410229305830306e-001	 1.072067330345292e+000	 1.034978649511158e+000
 3.305384299412434e-001	 1.075346151852123e+000	 9.898306797930975e-001
 3.200479085101872e-001	 1.078514875290446e+000	 9.532182337532696e-001
 3.095529917179391e-001	 1.081573827935737e+000	 9.254745602319056e-001
 4.233089160010993e-001	 1.069256546218074e+000	 2.032389115971067e+000
 4.126821460731842e-001	 1.073402741895839e+000	 1.924349942808217e+000
 4.020372293974833e-001	 1.077434947537546e+000	 1.822335283500630e+000
 3.913759127533488e-001	 1.081353270172171e+000	 1.726783997102869e+000
 3.806999329777581e-001	 1.085157850740624e+000	 1.638121714323224e+000
 3.700110161894784e-001	 1.088848863657598e+000	 1.556760325519682e+000
 3.593108770315449e-001	 1.092426516353670e+000	 1.483097503606447e+000
 3.486012179325746e-001	 1.095891048798451e+000	 1.417516262219311e+000
 3.378837283874051e-001	 1.099242733005597e+000	 1.360384549385906e+000
 3.271600842575055e-001	 1.102481872520484e+000	 1.312054876849288e+000
 3.164319470915787e-001	 1.105608801891373e+000	 1.272863985096139e+000
 4.325112837404888e-001	 1.092501253745239e+000	 2.513409467280921e+000
 4.216534970755158e-001	 1.096737584111859e+000	 2.388242492873094e+000
 4.107771691681337e-001	 1.100857446398142e+000	 2.269353585791391e+000
 3.998840847711594e-001	 1.104860949959779e+000	 2.157191585035716e+000
 3.889760184788967e-001	 1.108748238801614e+000	 2.052191504657764e+000
 3.780547339344343e-001	 1.112519491129963e+000	 1.954774004443391e+000
 3.671219830556570e-001	 1.116174918884764e+000	 1.865344897189418e+000
 3.561795052805002e-001	 1.119714767252360e+000	 1.784294692930593e+000
 3.452290268319506e-001	 1.123139314159746e+000	 1.711998180365889e+000
 3.342722600032496e-001	 1.126448869751110e+000	 1.648814045631647e+000
 3.233109024637242e-001	 1.129643775847504e+000	 1.595084528464686e+000
 4.417136514793630e-001	 1.115745961273404e+000	 3.004157676090093e+000
 4.306248480770524e-001	 1.120072426328874e+000	 2.858512096739457e+000
 4.195171089377507e-001	 1.124279945259717e+000	 2.719425952170652e+000
 4.083922567877390e-001	 1.128368629748340e+000	 2.587360540711621e+000
 3.972521039786471e-001	 1.132338626863521e+000	 2.462762675743242e+000
 3.860984516778855e-001	 1.136190118603200e+000	 2.346064136971079e+000
 3.749330890781875e-001	 1.139923321416674e+000	 2.237681160115977e+000
 3.637577926268073e-001	 1.143538485707019e+000	 2.138013965387808e+000
 3.525743252748801e-001	 1.147035895314569e+000	 2.047446324997194e+000
 3.413844357474192e-001	 1.150415866982325e+000	 1.966345169849519e+000
 3.301898578343763e-001	 1.153678749804127e+000	 1.895060235458583e+000
 4.509160192177217e-001	 1.138990668802569e+000	 3.506718439775895e+000
 4.395961990777943e-001	 1.143407268546884e+000	 3.337308585722125e+000
 4.282570487063345e-001	 1.147702444122272e+000	 3.174767405921232e+000
 4.169004288030878e-001	 1.151876309537856e+000	 3.019571132920086e+000
 4.055281894770098e-001	 1.155929014926346e+000	 2.872180790503507e+000
 3.941421694198319e-001	 1.159860746077309e+000	 2.733041623448353e+000
 3.827441950991367e-001	 1.163671723949401e+000	 2.602582567663541e+000
 3.713360799714958e-001	 1.167362204162428e+000	 2.481215761091232e+000
 3.599196237161937e-001	 1.170932476470067e+000	 2.369336095627135e+000
 3.484966114900147e-001	 1.174382864214129e+000	 2.267320810204433e+000
 3.370688132035346e-001	 1.177713723761245e+000	 2.175529125071240e+000
 4.601183869555650e-001	 1.162235376332733e+000	 4.023093970291566e+000
 4.485675500777414e-001	 1.166742110765889e+000	 3.826690600275315e+000
 4.369969884738851e-001	 1.171124942985806e+000	 3.637493111678690e+000
 4.254086008172057e-001	 1.175383989328324e+000	 3.455995145296223e+000
 4.138042749739843e-001	 1.179519402990089e+000	 3.282674345046700e+000
 4.021858871602735e-001	 1.183531373552289e+000	 3.117991764092828e+000
 3.905553011185042e-001	 1.187420126482944e+000	 2.962391313457365e+000
 3.789143673145657e-001	 1.191185922618588e+000	 2.816299253522774e+000
 3.672649221558911e-001	 1.194829057626238e+000	 2.680123728677924e+000
 3.556087872310356e-001	 1.198349861446522e+000	 2.554254345255149e+000
 3.439477685711992e-001	 1.201748697718857e+000	 2.439061792781582e+000
 2.751582148273362e-001	 9.613989581649598e-001	-1.307299106224380e+000
 2.658269247236917e-001	 9.640207705404181e-001	-1.337415707811374e+000
 2.564945776709277e-001	 9.665456696725904e-001	-1.362090193716417e+000
 2.471625777918796e-001	 9.689740244583481e-001	-1.381118277039722e+000
 2.378323145820488e-001	 9.713062287851813e-001	-1.394304788586584e+000
 2.285051624109132e-001	 9.735427010105087e-001	-1.401463841191240e+000
 2.191824800423044e-001	 9.756838834310223e-001	-1.402418972889523e+000
 2.098656101739950e-001	 9.777302417428043e-001	-1.397003269166981e+000
 2.005558789966087e-001	 9.796822644929403e-001	-1.385059464557558e+000
 1.912545957719429e-001	 9.815404625233627e-001	-1.366440023913410e+000
 1.819630524307584e-001	 9.833053684076398e-001	-1.341007203709902e+000
 2.820371702084442e-001	 9.854339321181277e-001	-7.820341934108737e-001
 2.724725978510110e-001	 9.881212898035869e-001	-8.178062781904844e-001
 2.629069421207347e-001	 9.907093114145075e-001	-8.481116178905169e-001
 2.533416422435218e-001	 9.931983750701839e-001	-8.727363313639708e-001
 2.437781224522615e-001	 9.955888845052953e-001	-8.914760803450041e-001
 2.342177914756684e-001	 9.978812685361966e-001	-9.041362435746747e-001
 2.246620420466706e-001	 1.000075980516999e+000	-9.105320685268680e-001
 2.151122504304847e-001	 1.002173497786187e+000	-9.104888009759158e-001
 2.055697759725002e-001	 1.004174321104526e+000	-9.038417926975115e-001
 1.960359606660596e-001	 1.006078974084998e+000	-8.904365876452510e-001
 1.865121287401930e-001	 1.007888002615511e+000	-8.701289869873444e-001
 2.889161255880585e-001	 1.009468906071790e+000	-3.002029117799455e-001
 2.791182709769418e-001	 1.012221809067160e+000	-3.436418789819321e-001
 2.693193065692688e-001	 1.014872953156760e+000	-3.815404711313763e-001
 2.595207066940171e-001	 1.017422725682307e+000	-4.136739657254621e-001
 2.497239303214633e-001	 1.019871540225668e+000	-4.398276760213854e-001
 2.399304205395593e-001	 1.022219836062135e+000	-4.597971353188852e-001
 2.301416040503285e-001	 1.024468077603237e+000	-4.733882574805794e-001
 2.203588906864322e-001	 1.026616753829864e+000	-4.804174739475688e-001
 2.105836729480255e-001	 1.028666377716458e+000	-4.807118475627052e-001
 2.008173255599959e-001	 1.030617485647049e+000	-4.741091635642747e-001
 1.910612050496423e-001	 1.032470636823890e+000	-4.604579981630845e-001
 2.957950809661792e-001	 1.033503880025945e+000	 1.424329692238098e-001
 2.857639441014841e-001	 1.036322328331137e+000	 8.934398603475519e-002
 2.757316710165300e-001	 1.039036594899347e+000	 4.191754689528329e-002
 2.656997711433655e-001	 1.041647076294715e+000	 3.904734992304117e-004
 2.556697381896544e-001	 1.044154195946299e+000	-3.501100922804465e-002
 2.456430496025855e-001	 1.046558403588324e+000	-6.407146793629133e-002
 2.356211660532782e-001	 1.048860174689739e+000	-8.658643041640782e-002
 2.256055309418377e-001	 1.051060009873835e+000	-1.023625302021485e-001
 2.155975699231846e-001	 1.053158434328735e+000	-1.112176265421208e-001
 2.055986904537516e-001	 1.055155997209519e+000	-1.129809001291408e-001
 1.956102813591062e-001	 1.057053271032776e+000	-1.074929250292823e-001
 3.026740363428060e-001	 1.057538853980594e+000	 5.497850432907889e-001
 2.924096172246379e-001	 1.060422847595518e+000	 4.850852695333459e-001
 2.821440354625185e-001	 1.063200236642269e+000	 4.262184082653144e-001
 2.718788355915670e-001	 1.065871426907412e+000	 3.734346504745463e-001
 2.616155460568347e-001	 1.068436851667188e+000	 3.269729607242697e-001
 2.513556786647472e-001	 1.070896971114763e+000	 2.870608714429853e-001
 2.411007280555194e-001	 1.073252271776503e+000	 2.539143040514418e-001
 2.308521711967009e-001	 1.075503265918101e+000	 2.277374166273700e-001
 2.206114668979776e-001	 1.077650490941359e+000	 2.087224777520145e-001
 2.103800553473268e-001	 1.079694508772404e+000	 1.970497661203600e-001
 2.001593576685848e-001	 1.081635905242169e+000	 1.928874954446314e-001
 3.095529917179391e-001	 1.081573827935737e+000	 9.254745602319056e-001
 2.990552903464032e-001	 1.084523366860303e+000	 8.472203299246215e-001
 2.885563999072340e-001	 1.087363878385527e+000	 7.750173488252213e-001
 2.780579000386214e-001	 1.090095777520394e+000	 7.091304609572515e-001
 2.675613539230041e-001	 1.092719507388336e+000	 6.498125850154621e-001
 2.570683077260444e-001	 1.095235538641453e+000	 5.973044973627584e-001
 2.465802900570525e-001	 1.097644368863529e+000	 5.518346435774638e-001
 2.360988114510221e-001	 1.099946521962661e+000	 5.136189782307181e-001
 2.256253638724045e-001	 1.102142547554328e+000	 4.828608325097690e-001
 2.151614202407214e-001	 1.104233020335707e+000	 4.597508092399523e-001
 2.047084339780781e-001	 1.106218539452070e+000	 4.444667047999217e-001
 3.164319470915787e-001	 1.105608801891373e+000	 1.272863985096139e+000
 3.057009634667799e-001	 1.108623886125492e+000	 1.179124061167607e+000
 2.949687643506767e-001	 1.111527520129120e+000	 1.091701556913518e+000
 2.842369644845290e-001	 1.114320128133663e+000	 1.010877267993532e+000
 2.735071617881628e-001	 1.117002163109742e+000	 9.369192959155608e-001
 2.627809367864770e-001	 1.119574106168393e+000	 8.700828193372128e-001
 2.520598520578772e-001	 1.122036465950818e+000	 8.106098957519258e-001
 2.413454517048012e-001	 1.124389778007516e+000	 7.587292932161019e-001
 2.306392608464651e-001	 1.126634604167643e+000	 7.146563517022352e-001
 2.199427851339355e-001	 1.128771531899427e+000	 6.785928735989989e-001
 2.092575102875861e-001	 1.130801173662478e+000	 6.507270428156770e-001
 3.233109024637242e-001	 1.129643775847504e+000	 1.595084528464686e+000
 3.123466365857683e-001	 1.132724405391085e+000	 1.483935920903321e+000
 3.013811287928464e-001	 1.135691161873047e+000	 1.379418689053030e+000
 2.904160289292896e-001	 1.138544478747219e+000	 1.281830894760694e+000
 2.794529696523108e-001	 1.141284818831407e+000	 1.191457066243429e+000
 2.684935658460451e-001	 1.143912673695583e+000	 1.108567957280171e+000
 2.575394140579937e-001	 1.146428563038369e+000	 1.033420338746328e+000
 2.465920919580381e-001	 1.148833034052665e+000	 9.662568221193904e-001
 2.356531578201596e-001	 1.151126660781304e+000	 9.073057145092672e-001
 2.247241500269691e-001	 1.153310043463564e+000	 8.567809046989180e-001
 2.138065865971087e-001	 1.155383807873393e+000	 8.148817796120175e-001
 3.301898578343763e-001	 1.153678749804127e+000	 1.895060235458583e+000
 3.189923097033681e-001	 1.156824924657083e+000	 1.764584455071450e+000
 3.077934932337433e-001	 1.159854803617310e+000	 1.641101821181988e+000
 2.965950933729034e-001	 1.162768829361061e+000	 1.524928993304021e+000
 2.853987775154478e-001	 1.165567474553330e+000	 1.416368186393330e+000
 2.742061949047486e-001	 1.168251241223025e+000	 1.315706917505584e+000
 2.630189760574019e-001	 1.170820660126182e+000	 1.223217786878325e+000
 2.518387322107329e-001	 1.173276290098108e+000	 1.139158293037043e+000
 2.406670547934879e-001	 1.175618717395311e+000	 1.063770681444359e+000
 2.295055149198221e-001	 1.177848555028118e+000	 9.972818261390316e-001
 2.183556629066459e-001	 1.179966442084816e+000	 9.399031437397859e-001
 3.370688132035346e-001	 1.177713723761245e+000	 2.175529125071240e+000
 3.256379828195793e-001	 1.180925443923485e+000	 2.023808819512729e+000
 3.142058576733674e-001	 1.184018445361908e+000	 1.879491344632749e+000
 3.027741578153701e-001	 1.186993179975190e+000	 1.742913306897353e+000
 2.913445853775742e-001	 1.189850130275511e+000	 1.614395884990886e+000
 2.799188239625876e-001	 1.192589808750716e+000	 1.494244563503185e+000
 2.684985380561019e-001	 1.195212757214259e+000	 1.382748903250015e+000
 2.570853724628856e-001	 1.197719546143846e+000	 1.280182347793639e+000
 2.456809517664501e-001	 1.200110774009664e+000	 1.186802065647039e+000
 2.342868798124946e-001	 1.202387066593088e+000	 1.102848827566104e+000
 2.229047392161979e-001	 1.204549076296746e+000	 1.028546918259694e+000
 3.439477685711992e-001	 1.201748697718857e+000	 2.439061792781582e+000
 3.322836559344022e-001	 1.205025963190290e+000	 2.264177718979139e+000
 3.206182221117185e-001	 1.208182087106841e+000	 2.097154234592061e+000
 3.089532222566899e-001	 1.211217530589606e+000	 1.938349260920529e+000
 2.972903932386897e-001	 1.214132785997952e+000	 1.788104235070042e+000
 2.856314530195621e-001	 1.216928376278658e+000	 1.646743830221234e+000
 2.739781000540936e-001	 1.219604854302598e+000	 1.514575714869884e+000
 2.623320127144961e-001	 1.222162802189878e+000	 1.391890350569502e+000
 2.506948487390460e-001	 1.224602830624363e+000	 1.278960827621057e+000
 2.390682447049865e-001	 1.226925578158476e+000	 1.176042738069771e+000
 2.274538155257646e-001	 1.229131710509183e+000	 1.083374085291503e+000
 1.819630524307584e-001	 9.833053684076398e-001	-1.341007203709902e+000
 1.726825231903044e-001	 9.849775358802030e-001	-1.330458400372336e+000
 1.634142641909075e-001	 9.865575392624050e-001	-1.319014909616917e+000
 1.541595131519813e-001	 9.880459728836374e-001	-1.306574808034474e+000
 1.449194890479376e-001	 9.894434504957537e-001	-1.293040300811042e+000
 1.356953918032302e-001	 9.907506046851591e-001	-1.278317804110248e+000
 1.264884020066532e-001	 9.919680862820068e-001	-1.262318014625945e+000
 1.172996806447692e-001	 9.930965637671554e-001	-1.244955966611221e+000
 1.081303688543234e-001	 9.941367226775286e-001	-1.226151076716957e+000
 9.898158769347724e-002	 9.950892650105072e-001	-1.205827176990327e+000
 8.985443793167208e-002	 9.959549086279671e-001	-1.183912536406081e+000
 1.865121287401930e-001	 1.007888002615511e+000	-8.701289869873444e-001
 1.769995862676611e-001	 1.009601974274025e+000	-8.706007609788193e-001
 1.674996207923786e-001	 1.011221477740089e+000	-8.693198362334373e-001
 1.580135009767427e-001	 1.012747122201329e+000	-8.661799668157094e-001
 1.485424762695243e-001	 1.014179536753393e+000	-8.610800529212894e-001
 1.390877765932872e-001	 1.015519369797345e+000	-8.539242099885066e-001
 1.296506120515437e-001	 1.016767288434090e+000	-8.446218236238325e-001
 1.202321726555193e-001	 1.017923977856507e+000	-8.330875907116437e-001
 1.108336280703761e-001	 1.018990140739942e+000	-8.192415471043929e-001
 1.014561273807281e-001	 1.019966496631707e+000	-8.030090823132630e-001
 9.210079887525120e-002	 1.020853781340225e+000	-7.843209416353515e-001
 1.910612050496423e-001	 1.032470636823890e+000	-4.604579981630845e-001
 1.813166493452170e-001	 1.034226412668443e+000	-4.727700130768555e-001
 1.715849773942018e-001	 1.035885416218438e+000	-4.824500153831614e-001
 1.618674888019788e-001	 1.037448271519734e+000	-4.893867900350391e-001
 1.521654634916776e-001	 1.038915623011773e+000	-4.934753320782522e-001
 1.424801613839724e-001	 1.040288134910280e+000	-4.946169022530312e-001
 1.328128220970941e-001	 1.041566490586910e+000	-4.927190669786665e-001
 1.231646646669311e-001	 1.042751391946564e+000	-4.876957231608894e-001
 1.135368872870629e-001	 1.043843558803008e+000	-4.794671082843475e-001
 1.039306670685564e-001	 1.044843728253489e+000	-4.679597962793415e-001
 9.434715981932204e-002	 1.045752654052973e+000	-4.531066796699518e-001
 1.956102813591062e-001	 1.057053271032776e+000	-1.074929250292823e-001
 1.856337124229718e-001	 1.058850851063458e+000	-1.324863776066553e-001
 1.756703339963775e-001	 1.060549354697454e+000	-1.539449871885669e-001
 1.657214766276897e-001	 1.062149420838853e+000	-1.717519224723682e-001
 1.557884507143976e-001	 1.063651709270896e+000	-1.857976745133311e-001
 1.458725461752858e-001	 1.065056900023964e+000	-1.959800985440464e-001
 1.359750321433044e-001	 1.066365692740468e+000	-2.022044386733864e-001
 1.260971566790045e-001	 1.067578806037326e+000	-2.043833359712639e-001
 1.162401465043838e-001	 1.068696976866728e+000	-2.024368204770743e-001
 1.064052067569619e-001	 1.069720959875853e+000	-1.962922876878701e-001
 9.659352076388458e-002	 1.070651526766214e+000	-1.858844601109706e-001
 2.001593576685848e-001	 1.081635905242169e+000	 1.928874954446314e-001
 1.899507755009255e-001	 1.083475289459071e+000	 1.543493934046475e-001
 1.797556905989053e-001	 1.085213293177134e+000	 1.202745932219685e-001
 1.695754644538752e-001	 1.086850570158686e+000	 9.078619130946053e-002
 1.594114379376842e-001	 1.088387795530760e+000	 6.599879931744476e-002
 1.492649309672275e-001	 1.089825665138398e+000	 4.601851639796724e-002
 1.391372421901744e-001	 1.091164894894763e+000	 3.094292017095954e-002
 1.290296486917398e-001	 1.092406220128793e+000	 2.086107581266348e-002
 1.189434057223388e-001	 1.093550394931100e+000	 1.585356265661157e-002
 1.088797464459448e-001	 1.094598191498799e+000	 1.599251767295313e-002
 9.883988170893882e-002	 1.095550399479947e+000	 2.134169516884871e-002
 2.047084339780781e-001	 1.106218539452070e+000	 4.444667047999217e-001
 1.942678385790784e-001	 1.108099727855280e+000	 3.914982980755051e-001
 1.838410472017855e-001	 1.109877231657481e+000	 3.439493018265989e-001
 1.734294522805354e-001	 1.111551719479234e+000	 3.019497291635424e-001
 1.630344251615375e-001	 1.113123881791367e+000	 2.656198940915655e-001
 1.526573157597974e-001	 1.114594430253582e+000	 2.350703981882636e-001
 1.422994522377043e-001	 1.115964097049795e+000	 2.104021376436820e-001
 1.319621407051366e-001	 1.117233634220965e+000	 1.917063300068301e-001
 1.216466649409279e-001	 1.118403812996127e+000	 1.790645599528094e-001
 1.113542861355051e-001	 1.119475423122327e+000	 1.725488433577222e-001
 1.010862426544848e-001	 1.120449272194170e+000	 1.722217089438138e-001
 2.092575102875861e-001	 1.130801173662478e+000	 6.507270428156770e-001
 1.985849016574302e-001	 1.132724166252086e+000	 5.824198509592524e-001
 1.879264038050179e-001	 1.134541170138493e+000	 5.205177684161285e-001
 1.772834401076705e-001	 1.136252868800495e+000	 4.651583802269477e-001
 1.666574123859573e-001	 1.137859968052715e+000	 4.164683042800582e-001
 1.560497005529956e-001	 1.139363195369515e+000	 3.745631927593726e-001
 1.454616622858941e-001	 1.140763299205564e+000	 3.395477556961394e-001
 1.348946327191952e-001	 1.142061048313842e+000	 3.115158058895254e-001
 1.243499241601511e-001	 1.143257231061806e+000	 2.905503244300139e-001
 1.138288258256426e-001	 1.144352654746438e+000	 2.767235460307806e-001
 1.033326036005224e-001	 1.145348144908886e+000	 2.700970633472276e-001
 2.138065865971087e-001	 1.155383807873393e+000	 8.148817796120175e-001
 2.029019647359810e-001	 1.157348604649489e+000	 7.303041557638862e-001
 1.920117604086025e-001	 1.159205108620171e+000	 6.531487985293464e-001
 1.811374279352802e-001	 1.160954018122470e+000	 5.835615245718481e-001
 1.702803996109438e-001	 1.162596054314805e+000	 5.216758599142900e-001
 1.594420853468219e-001	 1.164131960486198e+000	 4.676130565400010e-001
 1.486238723347437e-001	 1.165562501362070e+000	 4.214821329219871e-001
 1.378271247339154e-001	 1.166888462407424e+000	 3.833799376630398e-001
 1.270531833800084e-001	 1.168110649128140e+000	 3.533912353970033e-001
 1.163033655163575e-001	 1.169229886371130e+000	 3.315888140714153e-001
 1.055789645470518e-001	 1.170247017624094e+000	 3.180336127052095e-001
 2.183556629066459e-001	 1.179966442084816e+000	 9.399031437397859e-001
 2.072190278147308e-001	 1.181973043047488e+000	 8.380999689826000e-001
 1.960971170125395e-001	 1.183869047102514e+000	 7.447694801461855e-001
 1.849914157633647e-001	 1.185655167445159e+000	 6.600663903998543e-001
 1.739033868364968e-001	 1.187332140577637e+000	 5.841317416319342e-001
 1.628344701412766e-001	 1.188900725603630e+000	 5.170929366121477e-001
 1.517860823842531e-001	 1.190361703519314e+000	 4.590637969907251e-001
 1.407596167492974e-001	 1.191715876501712e+000	 4.101446462323571e-001
 1.297564426004998e-001	 1.192964067195125e+000	 3.704224165475490e-001
 1.187779052076498e-001	 1.194107117996405e+000	 3.399707788532527e-001
 1.078253254940729e-001	 1.195145890339793e+000	 3.188502947665760e-001
 2.229047392161979e-001	 1.204549076296746e+000	 1.028546918259694e+000
 2.115360908936796e-001	 1.206597481446085e+000	 9.085393271606133e-001
 2.001824736168288e-001	 1.208532985585524e+000	 7.980898487451308e-001
 1.888454035919239e-001	 1.210356316768561e+000	 6.973627634169354e-001
 1.775263740626165e-001	 1.212068226841211e+000	 6.065072408193876e-001
 1.662268549363594e-001	 1.213669490721812e+000	 5.256573879912694e-001
 1.549482924344223e-001	 1.215160905677295e+000	 4.549323253540539e-001
 1.436921087653411e-001	 1.216543290596704e+000	 3.944362895416234e-001
 1.324597018216253e-001	 1.217817485262765e+000	 3.442587620435796e-001
 1.212524448995194e-001	 1.218984349622261e+000	 3.044746226020914e-001
 1.100716864415856e-001	 1.220044763055984e+000	 2.751443262715580e-001
 2.274538155257646e-001	 1.229131710509183e+000	 1.083374085291503e+000
 2.158531539728275e-001	 1.231221919845279e+000	 9.441592188904121e-001
 2.042678302214702e-001	 1.233196924069199e+000	 8.156245925536325e-001
 1.926993914209578e-001	 1.235057466092679e+000	 6.979447310831155e-001
 1.811493612893029e-001	 1.236804313105527e+000	 5.912775485371254e-001
 1.696192397320706e-001	 1.238438255840743e+000	 4.957644128331996e-001
 1.581105024852513e-001	 1.239960107836013e+000	 4.115302402677165e-001
 1.466246007820464e-001	 1.241370704692402e+000	 3.386836188700738e-001
 1.351629610433849e-001	 1.242670903331058e+000	 2.773169594683382e-001
 1.237269845919663e-001	 1.243861581248700e+000	 2.275066733103587e-001
 1.123180473895901e-001	 1.244943635772666e+000	 1.893133750525986e-001
 8.985443793167208e-002	 9.959549086279671e-001	-1.183912536406081e+000
 8.074999985732721e-002	 9.967343866612564e-001	-1.159175839910848e+000
 7.166933310492567e-002	 9.974284469156016e-001	-1.136055422851101e+000
 6.261347650004133e-002	 9.980378512759270e-001	-1.114587071443207e+000
 5.358344792087624e-002	 9.985633751160036e-001	-1.094806227044050e+000
 4.458024417780558e-002	 9.990058067093818e-001	-1.076747979703243e+000
 3.560484091004575e-002	 9.993659466433188e-001	-1.060447057673372e+000
 2.665819249913583e-002	 9.996446072361989e-001	-1.045937813148569e+000
 1.774123199891268e-002	 9.998426119589265e-001	-1.033254204505340e+000
 8.854871081647956e-003	 9.999607948607566e-001	-1.022429775321355e+000
 0.000000000000000e+000	 1.000000000000000e+000	-1.013497630444113e+000
 9.210079887525120e-002	 1.020853781340225e+000	-7.843209416353515e-001
 8.276874984949990e-002	 1.021652746325009e+000	-7.739209608360305e-001
 7.346106642874500e-002	 1.022364158086303e+000	-7.639360647609592e-001
 6.417881340919973e-002	 1.022988797556156e+000	-7.543902352614925e-001
 5.492303411602096e-002	 1.023527459492682e+000	-7.453085090970191e-001
 4.569475027984318e-002	 1.023980951876270e+000	-7.367169501793124e-001
 3.649496193086310e-002	 1.024350095308862e+000	-7.286426163767882e-001
 2.732464731015816e-002	 1.024635722416802e+000	-7.211135212327047e-001
 1.818476279791106e-002	 1.024838677257766e+000	-7.141585909568324e-001
 9.076242858200107e-003	 1.024959814732242e+000	-7.078076170474621e-001
 0.000000000000000e+000	 1.025000000000000e+000	-7.020912049009999e-001
 9.434715981932204e-002	 1.045752654052973e+000	-4.531066796699518e-001
 8.478749984206953e-002	 1.046571105989159e+000	-4.555213798060523e-001
 7.525279975287695e-002	 1.047299869257318e+000	-4.571455080576000e-001
 6.574415031859660e-002	 1.047939743836623e+000	-4.579916358244465e-001
 5.626262031134028e-002	 1.048491543869534e+000	-4.580748090148817e-001
 4.680925638200162e-002	 1.048956097043280e+000	-4.574124981196214e-001
 3.738508295175753e-002	 1.049334243974483e+000	-4.560245414275874e-001
 2.799110212122371e-002	 1.049626837597447e+000	-4.539330818250624e-001
 1.862829359692857e-002	 1.049834742556624e+000	-4.511624976213425e-001
 9.297614634757019e-003	 1.049958834603733e+000	-4.477393278471972e-001
 0.000000000000000e+000	 1.050000000000000e+000	-4.436921924655524e-001
 9.659352076388458e-002	 1.070651526766214e+000	-1.858844601109706e-001
 8.680624983503614e-002	 1.071489465653705e+000	-1.997382589154003e-001
 7.704453307732150e-002	 1.072235580428645e+000	-2.115877447584444e-001
 6.730948722823200e-002	 1.072890690117329e+000	-2.214344475514967e-001
 5.760220650683426e-002	 1.073455628246560e+000	-2.292838141136591e-001
 4.792376248428092e-002	 1.073931242210410e+000	-2.351451351693349e-001
 3.827520397272902e-002	 1.074318392640181e+000	-2.390314640457698e-001
 2.865755693233245e-002	 1.074617952778136e+000	-2.409595276022313e-001
 1.907182439596521e-002	 1.074830807855502e+000	-2.409496299240911e-001
 9.518986411318698e-003	 1.074957854475228e+000	-2.390255493133201e-001
 0.000000000000000e+000	 1.075000000000000e+000	-2.352144291074784e-001
 9.883988170893882e-002	 1.095550399479947e+000	 2.134169516884871e-002
 8.882499982839968e-002	 1.096407825318649e+000	-2.710166658618612e-003
 7.883626640207862e-002	 1.097171291600285e+000	-2.353249109104213e-002
 6.887482413810593e-002	 1.097841636398273e+000	-4.111611284838036e-002
 5.894179270250285e-002	 1.098419712623762e+000	-5.545725156470639e-002
 4.903826858668107e-002	 1.098906387377661e+000	-6.655741475849834e-002
 3.916532499377761e-002	 1.099302541305955e+000	-7.442329103675698e-002
 2.932401174348439e-002	 1.099609067958868e+000	-7.906663415628018e-002
 1.951535519502098e-002	 1.099826873154398e+000	-8.050413856769245e-002
 9.740358187885141e-003	 1.099956874346727e+000	-7.875730706507830e-002
 0.000000000000000e+000	 1.100000000000000e+000	-7.385231116243680e-002
 1.010862426544848e-001	 1.120449272194170e+000	 1.722217089438138e-001
 9.084374982216018e-002	 1.121326184983990e+000	 1.390888561136783e-001
 8.062799972714832e-002	 1.122107002772237e+000	 1.104254485301009e-001
 7.044016104821836e-002	 1.122792582679455e+000	 8.625102100195138e-002
 6.028137889834608e-002	 1.123383797001138e+000	 6.657822714453995e-002
 5.015277468920207e-002	 1.123881532545033e+000	 5.141296142977752e-002
 4.005544601490324e-002	 1.124286689971807e+000	 4.075449249546612e-002
 2.999046655467953e-002	 1.124600183139644e+000	 3.459560699615221e-002
 1.995888599409588e-002	 1.124822938453314e+000	 3.292276327575806e-002
 9.961729964456352e-003	 1.124955894218232e+000	 3.571625414404767e-002
 0.000000000000000e+000	 1.125000000000000e+000	 4.295037804213049e-002
 1.033326036005224e-001	 1.145348144908886e+000	 2.700970633472276e-001
 9.286249981631764e-002	 1.146244544649727e+000	 2.288857605813266e-001
 8.241973305253061e-002	 1.147042713944502e+000	 1.934015171761034e-001
 7.200549795856930e-002	 1.147743528960876e+000	 1.636739306303465e-001
 6.162096509436395e-002	 1.148347881378689e+000	 1.397241901577734e-001
 5.126728079184391e-002	 1.148856677712526e+000	 1.215652247909551e-001
 4.094556703610597e-002	 1.149270838637736e+000	 1.092018642676025e-001
 3.065692136591787e-002	 1.149591298320462e+000	 1.026310118833245e-001
 2.040241679318992e-002	 1.149819003752249e+000	 1.018418284943274e-001
 1.018310174103233e-002	 1.149954914089742e+000	 1.068159268532130e-001
 0.000000000000000e+000	 1.150000000000000e+000	 1.175275754684570e-001
 1.055789645470518e-001	 1.170247017624094e+000	 3.180336127052095e-001
 9.488124981087207e-002	 1.171162904315862e+000	 2.696402993126431e-001
 8.421146637822551e-002	 1.171978425117080e+000	 2.282522301386297e-001
 7.357083486915875e-002	 1.172694475242536e+000	 1.939087757392442e-001
 6.296055129055644e-002	 1.173311965756415e+000	 1.666393380548351e-001
 5.238178689460660e-002	 1.173831822880139e+000	 1.464635256415819e-001
 4.183568805738575e-002	 1.174254987303742e+000	 1.333913432403552e-001
 3.132337617719941e-002	 1.174582413501324e+000	 1.274233947654712e-001
 2.084594759230309e-002	 1.174815069051203e+000	 1.285510987954851e-001
 1.040447351761307e-002	 1.174953933961256e+000	 1.367569156507446e-001
 0.000000000000000e+000	 1.175000000000000e+000	 1.520145851462612e-001
 1.078253254940729e-001	 1.195145890339793e+000	 3.188502947665760e-001
 9.689999980582342e-002	 1.196081263982393e+000	 2.640728594528187e-001
 8.600319970423299e-002	 1.196914136289970e+000	 2.176021465735681e-001
 7.513617177998672e-002	 1.197645421524434e+000	 1.794870258658850e-001
 6.430013748692355e-002	 1.198276050134314e+000	 1.497648025559775e-001
 5.349629299749016e-002	 1.198806968047874e+000	 1.284614208314541e-001
 4.272580907874261e-002	 1.199239135969825e+000	 1.155916832388655e-001
 3.198983098852416e-002	 1.199573528682229e+000	 1.111594849851128e-001
 2.128947839143539e-002	 1.199811134350176e+000	 1.151580621207260e-001
 1.062584529419858e-002	 1.199952953832775e+000	 1.275702525854280e-001
 0.000000000000000e+000	 1.200000000000000e+000	 1.483687691031100e-001
 1.100716864415856e-001	 1.220044763055984e+000	 2.751443262715580e-001
 9.891874980117174e-002	 1.220999623649321e+000	 2.146888877671177e-001
 8.779493303055304e-002	 1.221849847463172e+000	 1.638675384944064e-001
 7.670150869105320e-002	 1.222596367806571e+000	 1.227383879501283e-001
 6.563972368346532e-002	 1.223240134512389e+000	 9.134634742608588e-002
 5.461079910049455e-002	 1.223782113215730e+000	 6.972336287289192e-002
 4.361593010017655e-002	 1.224223284635984e+000	 5.788866531300111e-002
 3.265628579989210e-002	 1.224564643863177e+000	 5.584903767318390e-002
 2.173300919058682e-002	 1.224807199649169e+000	 6.359909690732586e-002
 1.084721707078885e-002	 1.224951973704298e+000	 8.112159028285411e-002
 0.000000000000000e+000	 1.225000000000000e+000	 1.083877047115170e-001
 1.123180473895901e-001	 1.244943635772666e+000	 1.893133750525986e-001
 1.009374997969171e-001	 1.245917983316647e+000	 1.238003846787008e-001
 8.958666635718569e-002	 1.246785558636688e+000	 6.927721948618215e-002
 7.826684560235818e-002	 1.247547314088946e+000	 2.581098259396241e-002
 6.697930988018169e-002	 1.248204218890639e+000	-6.546094730189828e-003
 5.572530520361981e-002	 1.248757258383706e+000	-2.775638962561929e-002
 4.450605112168756e-002	 1.249207433302222e+000	-3.779660498480143e-002
 3.332274061130324e-002	 1.249555759044168e+000	-3.665746883001802e-002
 2.217653998975738e-002	 1.249803264948180e+000	-2.434341696120976e-002
 1.106858884738389e-002	 1.249950993575827e+000	-8.722601124785833e-004
 0.000000000000000e+000	 1.250000000000000e+000	 3.372516315444514e-002
 1.250000000000000e+000	 0.000000000000000e+000	 1.999317294508996e+001
 1.249950993575827e+000	 1.106858884738393e-002	 2.001393792272208e+001
 1.249803264948180e+000	 2.217653998975746e-002	 2.002770127766544e+001
 1.249555759044169e+000	 3.332274061130316e-002	 2.003417860553626e+001
 1.249207433302221e+000	 4.450605112168753e-002	 2.003308422838072e+001
 1.248757258383706e+000	 5.572530520361980e-002	 2.002413149428225e+001
 1.248204218890639e+000	 6.697930988018173e-002	 2.000703308742070e+001
 1.247547314088946e+000	 7.826684560235826e-002	 1.998150134835201e+001
 1.246785558636687e+000	 8.958666635718562e-002	 1.994724860424465e+001
 1.245917983316646e+000	 1.009374997969170e-001	 1.990398750877746e+001
 1.244943635772666e+000	 1.123180473895901e-001	 1.985143139137023e+001
 1.275000000000000e+000	 0.000000000000000e+000	 1.931223709106610e+001
 1.274950013447356e+000	 1.128996062397897e-002	 1.933676900228059e+001
 1.274799330247192e+000	 2.262007078892803e-002	 1.935472033362196e+001
 1.274546874225160e+000	 3.398919542271432e-002	 1.936584348303251e+001
 1.274191581968459e+000	 4.539617214319854e-002	 1.936988735625818e+001
 1.273732403551682e+000	 5.683981130674506e-002	 1.936659729433303e+001
 1.273168303268888e+000	 6.831889607689813e-002	 1.935571500083970e+001
 1.272498260371322e+000	 7.983218251366328e-002	 1.933697846929058e+001
 1.271721269810203e+000	 9.137839968381828e-002	 1.931012191099779e+001
 1.270836342983972e+000	 1.029562497926623e-001	 1.927487568382321e+001
 1.269842508489349e+000	 1.145644083375946e-001	 1.923096622222355e+001
 1.300000000000000e+000	 0.000000000000000e+000	 1.868806687836617e+001
 1.299949033318879e+000	 1.151133240056925e-002	 1.871562250614134e+001
 1.299795395546183e+000	 2.306360158807946e-002	 1.873636782834879e+001
 1.299537989406108e+000	 3.465565023408224e-002	 1.875005778710212e+001
 1.299175730634619e+000	 4.628629316463247e-002	 1.875644389955467e+001
 1.298707548719537e+000	 5.795431740974946e-002	 1.875527417169805e+001
 1.298132387646963e+000	 6.965848227343988e-002	 1.874629301135290e+001
 1.297449206653458e+000	 8.139751942472973e-002	 1.872924114071441e+001
 1.296656980983405e+000	 9.317013301013835e-002	 1.870385550884058e+001
 1.295754702650900e+000	 1.049749997880106e-001	 1.866986920449721e+001
 1.294741381205540e+000	 1.168107692851074e-001	 1.862701136979946e+001
 1.325000000000000e+000	 0.000000000000000e+000	 1.811938472205679e+001
 1.324948053190397e+000	 1.173270417715475e-002	 1.814949004798303e+001
 1.324791460845157e+000	 2.350713238721176e-002	 1.817256111936807e+001
 1.324529104587013e+000	 3.532210504540698e-002	 1.818835617333122e+001
 1.324159879300702e+000	 4.717641418598934e-002	 1.819663009335392e+001
 1.323682693887272e+000	 5.906882351263301e-002	 1.819713430832057e+001
 1.323096472024863e+000	 7.099806846980700e-002	 1.818961669013009e+001
 1.322400152935356e+000	 8.296285633555769e-002	 1.817382145025923e+001
 1.321592692156295e+000	 9.496186633614581e-002	 1.814948903568703e+001
 1.320673062317432e+000	 1.069937497829620e-001	 1.811635602461830e+001
 1.319640253921239e+000	 1.190571302321284e-001	 1.807415502247231e+001
 1.350000000000000e+000	 0.000000000000000e+000	 1.760500767312544e+001
 1.349947073061912e+000	 1.195407595373549e-002	 1.763714207314539e+001
 1.349787526144111e+000	 2.395066318632493e-002	 1.766202391695659e+001
 1.349520219767875e+000	 3.598855985668854e-002	 1.767941551356198e+001
 1.349144027966708e+000	 4.806653520726913e-002	 1.768907589413310e+001
 1.348657839054886e+000	 6.018332961539571e-002	 1.769076069519856e+001
 1.348060556402588e+000	 7.233765466599949e-002	 1.768422203974251e+001
 1.347351099217016e+000	 8.452819324614716e-002	 1.766920841661398e+001
 1.346528403328873e+000	 9.675359966184070e-002	 1.764546455867900e+001
 1.345591421983566e+000	 1.090124997775164e-001	 1.761273132017868e+001
 1.344539126636447e+000	 1.213034911786578e-001	 1.757074555378713e+001
 1.375000000000000e+000	 0.000000000000000e+000	 1.714383881521491e+001
 1.374946092933421e+000	 1.217544773031147e-002	 1.717743540705357e+001
 1.374783591443046e+000	 2.439419398541897e-002	 1.720356667804778e+001
 1.374511334948693e+000	 3.665501466792687e-002	 1.722199981207582e+001
 1.374128176632636e+000	 4.895665622847185e-002	 1.723249879586383e+001
 1.373632984222379e+000	 6.129783571803756e-002	 1.723482428520374e+001
 1.373024640780139e+000	 7.367724086201738e-002	 1.722873346838037e+001
 1.372302045498437e+000	 8.609353015649812e-002	 1.721397992722955e+001
 1.371464114501138e+000	 9.854533298722303e-002	 1.719031349628277e+001
 1.370509781649304e+000	 1.110312497716739e-001	 1.715748012048817e+001
 1.369437999351162e+000	 1.235498521246955e-001	 1.711522171203112e+001
 1.400000000000000e+000	 0.000000000000000e+000	 1.673485958313624e+001
 1.399945112804926e+000	 1.239681950688268e-002	 1.676930554271054e+001
 1.399779656741962e+000	 2.483772478449388e-002	 1.679607886099451e+001
 1.399502450129468e+000	 3.732146947912201e-002	 1.681495242591141e+001
 1.399112325298488e+000	 4.984677724959750e-002	 1.682569601416450e+001
 1.398608129389751e+000	 6.241234182055857e-002	 1.682807613934281e+001
 1.397988725157516e+000	 7.501682705786059e-002	 1.682185589649392e+001
 1.397252991779620e+000	 8.765886706661052e-002	 1.680679480360783e+001
 1.396399825673091e+000	 1.003370663122927e-001	 1.678264864049216e+001
 1.395428141314644e+000	 1.130499997654344e-001	 1.674916928555653e+001
 1.394336872065386e+000	 1.257962130702414e-001	 1.670610455106014e+001
 1.425000000000000e+000	 0.000000000000000e+000	 1.637712288995920e+001
 1.424944132676425e+000	 1.261819128344913e-002	 1.641175974003234e+001
 1.424775722040858e+000	 2.528125558354965e-002	 1.643852199562002e+001
 1.424493565310201e+000	 3.798792429027395e-002	 1.645718910409646e+001
 1.424096473964263e+000	 5.073689827064606e-002	 1.646753749317332e+001
 1.423583274557002e+000	 6.352684792295871e-002	 1.646934039972805e+001
 1.422952809534717e+000	 7.635641325352920e-002	 1.646236769431451e+001
 1.422203938060564e+000	 8.922420397648445e-002	 1.644638570182354e+001
 1.421335536844730e+000	 1.021287996370498e-001	 1.642115701879979e+001
 1.420346500979588e+000	 1.150687497587979e-001	 1.638644032796182e+001
 1.419235744779119e+000	 1.280425740152957e-001	 1.634199021051204e+001
 1.450000000000000e+000	 0.000000000000000e+000	 1.606974696509353e+001
 1.449943152547921e+000	 1.283956306001081e-002	 1.610387083904526e+001
 1.449771787339736e+000	 2.572478638258629e-002	 1.612992347016012e+001
 1.449484680490890e+000	 3.865437910138269e-002	 1.614769174695890e+001
 1.449080622629961e+000	 5.162701929161755e-002	 1.615695963584828e+001
 1.448558419724132e+000	 6.464135402523800e-002	 1.615750798948200e+001
 1.447916893911744e+000	 7.769599944902315e-002	 1.614911434997687e+001
 1.447154884341269e+000	 9.078954088611986e-002	 1.613155274747480e+001
 1.446271248016057e+000	 1.039205329614944e-001	 1.610459349458503e+001
 1.445264860644134e+000	 1.170874997517645e-001	 1.606800297728410e+001
 1.444134617492359e+000	 1.302889349598582e-001	 1.602154344289423e+001
 1.475000000000000e+000	 0.000000000000000e+000	 1.581190981900582e+001
 1.474942172419411e+000	 1.306093483656772e-002	 1.584477170224941e+001
 1.474767852638594e+000	 2.616831718160380e-002	 1.586937095004176e+001
 1.474475795671536e+000	 3.932083391244823e-002	 1.588550280008465e+001
 1.474064771295581e+000	 5.251714031251197e-002	 1.589295967186380e+001
 1.473533564891141e+000	 6.575586012739645e-002	 1.589153095332974e+001
 1.472880978288596e+000	 7.903558564434252e-002	 1.588100278156115e+001
 1.472105830621736e+000	 9.235487779551677e-002	 1.586115781792686e+001
 1.471206959187071e+000	 1.057122662856263e-001	 1.583177501831001e+001
 1.470183220308284e+000	 1.191062497443342e-001	 1.579262939900359e+001
 1.469033490205108e+000	 1.325352959039290e-001	 1.574349179893377e+001
 1.500000000000000e+000	 0.000000000000000e+000	 1.560284426146480e+001
 1.499941192290897e+000	 1.328230661311987e-002	 1.563365021274579e+001
 1.499763917937433e+000	 2.661184798060218e-002	 1.565600735478381e+001
 1.499466910852138e+000	 3.998728872347057e-002	 1.566972020887931e+001
 1.499048919961125e+000	 5.340726133332932e-002	 1.567459058871764e+001
 1.498508710058030e+000	 6.687036622943404e-002	 1.567041736413207e+001
 1.497845062665274e+000	 8.037517183948720e-002	 1.565699621793081e+001
 1.497056776901965e+000	 9.392021470467514e-002	 1.563411939633152e+001
 1.496142670357773e+000	 1.075039996094457e-001	 1.560157545359607e+001
 1.495101579972036e+000	 1.211249997365068e-001	 1.555914899150890e+001
 1.493932362917365e+000	 1.347816568475081e-001	 1.550662039439234e+001
 1.244943635772666e+000	 1.123180473895901e-001	 1.985143139137023e+001
 1.243861581248701e+000	 1.237269845919664e-001	 1.985227608303804e+001
 1.242670903331058e+000	 1.351629610433850e-001	 1.984321237186579e+001
 1.241370704692402e+000	 1.466246007820463e-001	 1.982396449499235e+001
 1.239960107836013e+000	 1.581105024852513e-001	 1.979425923848251e+001
 1.238438255840743e+000	 1.696192397320706e-001	 1.975382632686491e+001
 1.236804313105527e+000	 1.811493612893029e-001	 1.970239881877091e+001
 1.235057466092679e+000	 1.926993914209579e-001	 1.963971350809878e+001
 1.233196924069199e+000	 2.042678302214702e-001	 1.956551133009505e+001
 1.231221919845279e+000	 2.158531539728274e-001	 1.947953777171379e+001
 1.229131710509183e+000	 2.274538155257646e-001	 1.938154328558403e+001
 1.269842508489349e+000	 1.145644083375946e-001	 1.923096622222355e+001
 1.268738812875140e+000	 1.262015242844133e-001	 1.924267160991597e+001
 1.267524321399351e+000	 1.378662202651446e-001	 1.924516915478081e+001
 1.266198118788100e+000	 1.495570927987517e-001	 1.923818844820451e+001
 1.264759309994731e+000	 1.612727125360804e-001	 1.922145541357915e+001
 1.263207020959674e+000	 1.730116245277816e-001	 1.919469224377848e+001
 1.261540399369842e+000	 1.847723485159893e-001	 1.915761734203370e+001
 1.259758615416796e+000	 1.965533792499918e-001	 1.910994526675783e+001
 1.257860862552874e+000	 2.083531868261117e-001	 1.905138668088664e+001
 1.255846358244472e+000	 2.201702170519753e-001	 1.898164830632087e+001
 1.253714344721621e+000	 2.320028918353312e-001	 1.890043288407095e+001
 1.294741381205540e+000	 1.168107692851074e-001	 1.862701136979946e+001
 1.293616044500996e+000	 1.286760639762829e-001	 1.864173187236335e+001
 1.292377739466991e+000	 1.405694794862700e-001	 1.864709961690955e+001
 1.291025532883092e+000	 1.524895848147953e-001	 1.864285512272316e+001
 1.289558512152712e+000	 1.644349225862496e-001	 1.862873526688975e+001
 1.287975786077856e+000	 1.764040093228645e-001	 1.860447319767854e+001
 1.286276485633416e+000	 1.883953357421090e-001	 1.856979825074957e+001
 1.284459764740199e+000	 2.004073670785510e-001	 1.852443586877753e+001
 1.282524801035884e+000	 2.124385434304009e-001	 1.846810752510629e+001
 1.280470796643069e+000	 2.244872801309241e-001	 1.840053065206839e+001
 1.278296978933551e+000	 2.365519681448832e-001	 1.832141857462252e+001
 1.319640253921239e+000	 1.190571302321284e-001	 1.807415502247231e+001
 1.318493276126270e+000	 1.311506036675752e-001	 1.809206969935011e+001
 1.317231157533977e+000	 1.432727387067614e-001	 1.810050006509473e+001
 1.315852946977380e+000	 1.554220768301773e-001	 1.809919808261096e+001
 1.314357714309955e+000	 1.675971326357590e-001	 1.808791208693802e+001
 1.312744551195288e+000	 1.797963941173191e-001	 1.806638667327105e+001
 1.311012571896248e+000	 1.920183229676621e-001	 1.803436258721594e+001
 1.309160914062888e+000	 2.042613549066355e-001	 1.799157661791564e+001
 1.307188739518228e+000	 2.165239000343379e-001	 1.793776149471107e+001
 1.305095235041069e+000	 2.288043432096740e-001	 1.787264578802277e+001
 1.302879613144973e+000	 2.411010444544205e-001	 1.779595381516092e+001
 1.344539126636447e+000	 1.213034911786578e-001	 1.757074555378713e+001
 1.343370507750963e+000	 1.336251433582901e-001	 1.759195559769703e+001
 1.342084575600310e+000	 1.459759979266187e-001	 1.760356328372196e+001
 1.340680361070962e+000	 1.583545688448975e-001	 1.760533257537397e+001
 1.339156916466462e+000	 1.707593426846085e-001	 1.759702381147353e+001
 1.337513316311972e+000	 1.831887789111455e-001	 1.757839356750078e+001
 1.335748658158338e+000	 1.956413101926485e-001	 1.754919451857284e+001
 1.333862063384863e+000	 2.081153427342453e-001	 1.750917530473353e+001
 1.331852677999906e+000	 2.206092566379227e-001	 1.745808039927000e+001
 1.329719673438472e+000	 2.331214062882248e-001	 1.739564998079714e+001
 1.327462247355889e+000	 2.456501207639431e-001	 1.732161980987445e+001
 1.369437999351162e+000	 1.235498521246955e-001	 1.711522171203112e+001
 1.368247739375074e+000	 1.360996830484277e-001	 1.713975325755765e+001
 1.366937993665990e+000	 1.486792571458420e-001	 1.715457806861867e+001
 1.365507775163839e+000	 1.612870608589561e-001	 1.715947270665228e+001
 1.363956118622232e+000	 1.739215527327983e-001	 1.715421010069525e+001
 1.362282081427904e+000	 1.865811637043437e-001	 1.713855938071582e+001
 1.360484744419686e+000	 1.992642974170683e-001	 1.711228571194759e+001
 1.358563212706124e+000	 2.119693305613802e-001	 1.707515013096160e+001
 1.356516616480918e+000	 2.246946132411550e-001	 1.702690938424527e+001
 1.354344111835277e+000	 2.374384693665766e-001	 1.696731577008582e+001
 1.352044881566296e+000	 2.501991970734510e-001	 1.689611698458380e+001
 1.394336872065386e+000	 1.257962130702414e-001	 1.670610455106014e+001
 1.393124970998602e+000	 1.385742227379879e-001	 1.673391123247773e+001
 1.391791411731016e+000	 1.513825163644311e-001	 1.675192065460396e+001
 1.390335189256011e+000	 1.642195528723529e-001	 1.675992261360101e+001
 1.388755320777263e+000	 1.770837627803282e-001	 1.675770325489008e+001
 1.387050846543088e+000	 1.899735484969136e-001	 1.674504487707808e+001
 1.385220830680293e+000	 2.028872846409216e-001	 1.672172573624171e+001
 1.383264362026671e+000	 2.158233183880405e-001	 1.668751985135944e+001
 1.381180554961265e+000	 2.287799698440352e-001	 1.664219681171627e+001
 1.378968550231487e+000	 2.417555324447294e-001	 1.658552158713950e+001
 1.376627515776197e+000	 2.547482733829443e-001	 1.651725434195359e+001
 1.419235744779119e+000	 1.280425740152957e-001	 1.634199021051204e+001
 1.418002202621548e+000	 1.410487624269708e-001	 1.637295549523810e+001
 1.416644829795389e+000	 1.540857755823860e-001	 1.639404704540156e+001
 1.415162603347478e+000	 1.671520448850881e-001	 1.640506856738895e+001
 1.413554522931558e+000	 1.802459728271983e-001	 1.640582008810935e+001
 1.411819611657523e+000	 1.933659332888553e-001	 1.639609772808845e+001
 1.409956916940157e+000	 2.065102718642082e-001	 1.637569347425620e+001
 1.407965511346504e+000	 2.196773062142261e-001	 1.634439495327468e+001
 1.405844493440946e+000	 2.328653264465631e-001	 1.630198520629050e+001
 1.403592988627099e+000	 2.460725955226832e-001	 1.624824246603223e+001
 1.401210149985591e+000	 2.592973496924230e-001	 1.618293993720814e+001
 1.444134617492359e+000	 1.302889349598582e-001	 1.602154344289423e+001
 1.442879434243912e+000	 1.435233021153764e-001	 1.605548276378258e+001
 1.441498247859109e+000	 1.567890347997069e-001	 1.607948613701020e+001
 1.439990017438240e+000	 1.700845368971616e-001	 1.609337189268016e+001
 1.438353725085115e+000	 1.834081828734085e-001	 1.609695464249950e+001
 1.436588376771206e+000	 1.967583180801687e-001	 1.609004502057487e+001
 1.434693003199280e+000	 2.101332590869281e-001	 1.607244942321740e+001
 1.432666660665624e+000	 2.235312940399370e-001	 1.604396974866148e+001
 1.430508431919961e+000	 2.369506830487386e-001	 1.600440313764431e+001
 1.428217427022115e+000	 2.503896586004381e-001	 1.595354171583218e+001
 1.425792784194477e+000	 2.638464260018870e-001	 1.589117233911772e+001
 1.469033490205108e+000	 1.325352959039290e-001	 1.574349179893377e+001
 1.467756665865694e+000	 1.459978418032046e-001	 1.578015450586514e+001
 1.466351665922175e+000	 1.594922940163938e-001	 1.580683354039207e+001
 1.464817431528297e+000	 1.730170289085734e-001	 1.582336260716834e+001
 1.463152927237936e+000	 1.865703929189589e-001	 1.582957164354833e+001
 1.461357141884141e+000	 2.001507028708540e-001	 1.582528652657999e+001
 1.459429089457661e+000	 2.137562463090815e-001	 1.581032877830043e+001
 1.457367809984029e+000	 2.273852818651730e-001	 1.578451527030029e+001
 1.455172370398310e+000	 2.410360396505620e-001	 1.574765792856815e+001
 1.452841865416533e+000	 2.547067216779938e-001	 1.569956343966985e+001
 1.450375418402855e+000	 2.683955023113362e-001	 1.564003295935932e+001
 1.493932362917365e+000	 1.347816568475081e-001	 1.550662039439234e+001
 1.492633897486894e+000	 1.484723814904555e-001	 1.554569154323245e+001
 1.491205083984588e+000	 1.621955532324464e-001	 1.557474602189259e+001
 1.489644845617648e+000	 1.759495209193235e-001	 1.559363369715763e+001
 1.487952129390018e+000	 1.897326029638494e-001	 1.560220060980657e+001
 1.486125906996327e+000	 2.035430876609109e-001	 1.560028864625988e+001
 1.484165175715299e+000	 2.173792335306682e-001	 1.558773520780015e+001
 1.482068959301720e+000	 2.312392696899344e-001	 1.556437287839586e+001
 1.479836308875994e+000	 2.451213962520329e-001	 1.553002909220705e+001
 1.477466303810354e+000	 2.590237847553505e-001	 1.548452580189983e+001
 1.474958052610726e+000	 2.729445786207708e-001	 1.542767914894115e+001
 1.229131710509183e+000	 2.274538155257646e-001	 1.938154328558403e+001
 1.226925578158476e+000	 2.390682447049866e-001	 1.936290244503148e+001
 1.224602830624363e+000	 2.506948487390461e-001	 1.933278524384235e+001
 1.222162802189878e+000	 2.623320127144961e-001	 1.929102605108129e+001
 1.219604854302598e+000	 2.739781000540935e-001	 1.923746639476478e+001
 1.216928376278658e+000	 2.856314530195621e-001	 1.917195532242539e+001
 1.214132785997951e+000	 2.972903932386898e-001	 1.909434975869314e+001
 1.211217530589605e+000	 3.089532222566900e-001	 1.900451485909334e+001
 1.208182087106841e+000	 3.206182221117184e-001	 1.890232435924414e+001
 1.205025963190290e+000	 3.322836559344021e-001	 1.878766091862540e+001
 1.201748697718857e+000	 3.439477685711992e-001	 1.866041645807913e+001
 1.253714344721621e+000	 2.320028918353312e-001	 1.890043288407095e+001
 1.251464089723864e+000	 2.438496095974737e-001	 1.890378731403613e+001
 1.249094887239062e+000	 2.557087457116228e-001	 1.888947517766261e+001
 1.246606058235910e+000	 2.675786529660630e-001	 1.885253912434235e+001
 1.243996951390936e+000	 2.794576620520075e-001	 1.880322015088639e+001
 1.241266943806600e+000	 2.913440820764148e-001	 1.874135595631987e+001
 1.238415441720392e+000	 3.032362010996293e-001	 1.866679261538352e+001
 1.235441881204021e+000	 3.151322866977697e-001	 1.857938495742764e+001
 1.232345728851775e+000	 3.270305865497552e-001	 1.847899694043958e+001
 1.229126482457096e+000	 3.389293290488261e-001	 1.836550201931892e+001
 1.225783671676468e+000	 3.508267239383701e-001	 1.823878350750310e+001
 1.278296978933551e+000	 2.365519681448832e-001	 1.832141857462252e+001
 1.276002601288834e+000	 2.486309744901317e-001	 1.833069256406828e+001
 1.273586943853415e+000	 2.607226426845269e-001	 1.832849149117670e+001
 1.271049314281647e+000	 2.728252932180848e-001	 1.831455661774781e+001
 1.268389048479013e+000	 2.849372240504741e-001	 1.828862533492755e+001
 1.265605511334292e+000	 2.970567111338884e-001	 1.825043109711723e+001
 1.262698097442573e+000	 3.091820089612281e-001	 1.819970336399309e+001
 1.259666231818150e+000	 3.213113511395163e-001	 1.813616755139244e+001
 1.256509370596372e+000	 3.334429509884361e-001	 1.805954499182791e+001
 1.253227001723497e+000	 3.455750021638406e-001	 1.796955290539404e+001
 1.249818645633586e+000	 3.577056793060471e-001	 1.786474023373036e+001
 1.302879613144973e+000	 2.411010444544205e-001	 1.779595381516092e+001
 1.300541112853388e+000	 2.534123393829606e-001	 1.781066510248477e+001
 1.298079000467422e+000	 2.657365396577586e-001	 1.781369886725427e+001
 1.295492570327091e+000	 2.780719334705617e-001	 1.780479438502907e+001
 1.292781145566826e+000	 2.904167860494936e-001	 1.778368676376472e+001
 1.289944078861733e+000	 3.027693401919827e-001	 1.775010686030273e+001
 1.286980753164496e+000	 3.151278168234856e-001	 1.770378120523883e+001
 1.283890582431992e+000	 3.274904155819297e-001	 1.764443193698649e+001
 1.280673012340635e+000	 3.398553154277612e-001	 1.757177674585859e+001
 1.277327520989495e+000	 3.522206752794460e-001	 1.748552882899369e+001
 1.273853619590210e+000	 3.645846346742306e-001	 1.738539685695362e+001
 1.327462247355889e+000	 2.456501207639431e-001	 1.732161980987445e+001
 1.325079624417525e+000	 2.581937042759605e-001	 1.734125695540309e+001
 1.322571057081084e+000	 2.707504366313178e-001	 1.734903727924639e+001
 1.319935826372240e+000	 2.833185737234933e-001	 1.734469881799781e+001
 1.317173242654377e+000	 2.958963480490658e-001	 1.732797512086688e+001
 1.314282646388924e+000	 3.084819692506980e-001	 1.729859514713029e+001
 1.311263408886161e+000	 3.210736246864023e-001	 1.725628317223507e+001
 1.308114933045548e+000	 3.336694800250099e-001	 1.720075870343508e+001
 1.304836654084563e+000	 3.462676798677304e-001	 1.713173640584878e+001
 1.301428040255088e+000	 3.588663483956419e-001	 1.704892603983094e+001
 1.297888593546341e+000	 3.714635900429203e-001	 1.695203241055200e+001
 1.352044881566296e+000	 2.501991970734510e-001	 1.689611698458380e+001
 1.349618135981244e+000	 2.629750691691311e-001	 1.692013903035963e+001
 1.347063113694399e+000	 2.757643336052045e-001	 1.693214843204703e+001
 1.344379082417094e+000	 2.885652139768798e-001	 1.693188275597251e+001
 1.341565339741666e+000	 3.013759100491908e-001	 1.691907473820272e+001
 1.338621213915864e+000	 3.141945983100343e-001	 1.689345216130289e+001
 1.335546064607567e+000	 3.270194325499778e-001	 1.685473774002736e+001
 1.332339283658817e+000	 3.398485444687569e-001	 1.680264901689017e+001
 1.329000295828156e+000	 3.526800443083437e-001	 1.673689826857347e+001
 1.325528559520278e+000	 3.655120215124286e-001	 1.665719242413637e+001
 1.321923567501977e+000	 3.783425454121162e-001	 1.656323299598850e+001
 1.376627515776197e+000	 2.547482733829443e-001	 1.651725434195359e+001
 1.374156647544547e+000	 2.677564340624728e-001	 1.654509050189747e+001
 1.371555170307368e+000	 2.807782305794187e-001	 1.656078201449825e+001
 1.368822338461654e+000	 2.938118542307212e-001	 1.656406676629020e+001
 1.365957436828692e+000	 3.068554720498686e-001	 1.655467744729798e+001
 1.362959781442553e+000	 3.199072273699914e-001	 1.653234140541500e+001
 1.359828720328715e+000	 3.329652404142124e-001	 1.649678050999824e+001
 1.356563634271800e+000	 3.460276089131709e-001	 1.644771102570005e+001
 1.353163937571413e+000	 3.590924087496012e-001	 1.638484349756709e+001
 1.349629078785063e+000	 3.721576946298060e-001	 1.630788264844296e+001
 1.345958541457119e+000	 3.852215007818184e-001	 1.621652728971464e+001
 1.401210149985591e+000	 2.592973496924230e-001	 1.618293993720814e+001
 1.398695159107433e+000	 2.725377989559853e-001	 1.621398931446062e+001
 1.396047226919992e+000	 2.857921275539604e-001	 1.623278622711409e+001
 1.393265594505920e+000	 2.990584944850176e-001	 1.623906969448013e+001
 1.390349533915456e+000	 3.123350340510991e-001	 1.623257314944990e+001
 1.387298348968993e+000	 3.256198564305694e-001	 1.621302426876910e+001
 1.384111376049604e+000	 3.389110482791060e-001	 1.618014481282009e+001
 1.380787984884495e+000	 3.522066733582516e-001	 1.613365047600623e+001
 1.377327579314336e+000	 3.655047731915028e-001	 1.607325074884622e+001
 1.373729598049444e+000	 3.788033677477741e-001	 1.599864879289286e+001
 1.369993515411769e+000	 3.921004561520270e-001	 1.590954132959518e+001
 1.425792784194477e+000	 2.638464260018870e-001	 1.589117233911772e+001
 1.423233670669902e+000	 2.773191638496688e-001	 1.592480366774761e+001
 1.420539283532269e+000	 2.908060245288296e-001	 1.594609928969518e+001
 1.417708850549892e+000	 3.043051347397688e-001	 1.595480019200615e+001
 1.414741631001958e+000	 3.178145960528825e-001	 1.595064136143652e+001
 1.411636916495182e+000	 3.313324854917684e-001	 1.593335158886645e+001
 1.408394031770235e+000	 3.448568561446586e-001	 1.590265328351638e+001
 1.405012335496905e+000	 3.583857378039990e-001	 1.585826229814047e+001
 1.401491221056923e+000	 3.719171376340487e-001	 1.579988776638550e+001
 1.397830117313421e+000	 3.854490408663329e-001	 1.572723195351242e+001
 1.394028489365924e+000	 3.989794115227418e-001	 1.563999012168269e+001
 1.450375418402855e+000	 2.683955023113362e-001	 1.564003295935932e+001
 1.447772182231955e+000	 2.821005287435232e-001	 1.567558436796117e+001
 1.445031340144201e+000	 2.958199215040264e-001	 1.569874181257577e+001
 1.442152106593569e+000	 3.095517749949748e-001	 1.570924910559416e+001
 1.439133728088196e+000	 3.232941580552186e-001	 1.570684362098454e+001
 1.435975484021120e+000	 3.370451145535882e-001	 1.569125607105127e+001
 1.432676687490608e+000	 3.508026640108701e-001	 1.566221029329641e+001
 1.429236686109027e+000	 3.645648022504133e-001	 1.561942304864264e+001
 1.425654862799175e+000	 3.783295020772385e-001	 1.556260383229038e+001
 1.421930636576994e+000	 3.920947139854825e-001	 1.549145469849318e+001
 1.418063463319586e+000	 4.058583668939629e-001	 1.540567010054071e+001
 1.474958052610726e+000	 2.729445786207708e-001	 1.542767914894115e+001
 1.472310693793589e+000	 2.868818936375483e-001	 1.546445794393303e+001
 1.469523396755786e+000	 3.008338184795506e-001	 1.548880993074597e+001
 1.466595362636951e+000	 3.147984152506358e-001	 1.550048262762711e+001
 1.463525825174173e+000	 3.287737200581074e-001	 1.549921665169029e+001
 1.460314051546808e+000	 3.427577436160288e-001	 1.548474546619053e+001
 1.456959343210722e+000	 3.567484718777407e-001	 1.545679513820643e+001
 1.453461036720863e+000	 3.707438666974944e-001	 1.541508410807667e+001
 1.449818504541093e+000	 3.847418665210725e-001	 1.535932297195307e+001
 1.446031155840162e+000	 3.987403871052225e-001	 1.528921427884463e+001
 1.442098437272754e+000	 4.127373222656903e-001	 1.520445234353436e+001
 1.201748697718857e+000	 3.439477685711992e-001	 1.866041645807913e+001
 1.198349861446522e+000	 3.556087872310357e-001	 1.861328674750797e+001
 1.194829057626238e+000	 3.672649221558912e-001	 1.855172625010163e+001
 1.191185922618588e+000	 3.789143673145656e-001	 1.847565927117381e+001
 1.187420126482944e+000	 3.905553011185041e-001	 1.838502253090635e+001
 1.183531373552289e+000	 4.021858871602736e-001	 1.827976547913519e+001
 1.179519402990089e+000	 4.138042749739844e-001	 1.815985059656160e+001
 1.175383989328324e+000	 4.254086008172057e-001	 1.802525368146686e+001
 1.171124942985806e+000	 4.369969884738850e-001	 1.787596412102048e+001
 1.166742110765889e+000	 4.485675500777414e-001	 1.771198514628735e+001
 1.162235376332733e+000	 4.601183869555650e-001	 1.753333407005754e+001
 1.225783671676468e+000	 3.508267239383701e-001	 1.823878350750310e+001
 1.222316858678915e+000	 3.627209629714752e-001	 1.819426076694732e+001
 1.218725638782410e+000	 3.746102205949435e-001	 1.813532155886306e+001
 1.215009641074747e+000	 3.864926546569513e-001	 1.806190315346564e+001
 1.211168529016486e+000	 3.983664071371730e-001	 1.797395561330754e+001
 1.207202001027270e+000	 4.102296049000268e-001	 1.787144210465635e+001
 1.203109791053832e+000	 4.220803604703061e-001	 1.775433919453538e+001
 1.198891669118793e+000	 4.339167728307314e-001	 1.762263713248565e+001
 1.194547441849339e+000	 4.457369282409293e-001	 1.747634011612067e+001
 1.190076952984894e+000	 4.575389010772937e-001	 1.731546653956273e+001
 1.185480083862899e+000	 4.693207546931507e-001	 1.714004922386907e+001
 1.249818645633586e+000	 3.577056793060471e-001	 1.786474023373036e+001
 1.246283855910719e+000	 3.698331387123256e-001	 1.782414465644121e+001
 1.242622219937908e+000	 3.819555190343213e-001	 1.776911381059819e+001
 1.238833359530156e+000	 3.940709419995868e-001	 1.769959706339816e+001
 1.234916931549213e+000	 4.061775131560257e-001	 1.761555697405338e+001
 1.230872628501380e+000	 4.182733226399084e-001	 1.751696960301751e+001
 1.226700179116658e+000	 4.303564459667101e-001	 1.740382480609568e+001
 1.222399348908308e+000	 4.424249448443034e-001	 1.727612651247442e+001
 1.217969940711893e+000	 4.544768680079942e-001	 1.713389298572200e+001
 1.213411795202904e+000	 4.665102520768511e-001	 1.697715706682839e+001
 1.208724791392063e+000	 4.785231224307363e-001	 1.680596639837507e+001
 1.273853619590210e+000	 3.645846346742306e-001	 1.738539685695362e+001
 1.270250853141934e+000	 3.769453144535873e-001	 1.737501187251765e+001
 1.266518801092730e+000	 3.893008174740247e-001	 1.735043300469915e+001
 1.262657077984815e+000	 4.016492293424723e-001	 1.731141509307074e+001
 1.258665334081123e+000	 4.139886191750625e-001	 1.725770942152612e+001
 1.254543255974616e+000	 4.263170403799179e-001	 1.718906370438763e+001
 1.250290567178565e+000	 4.386325314631961e-001	 1.710522208671263e+001
 1.245907028696869e+000	 4.509331168579217e-001	 1.698419520855922e+001
 1.241392439573468e+000	 4.632168077750798e-001	 1.684705531154306e+001
 1.236746637419919e+000	 4.754816030764137e-001	 1.669544902574856e+001
 1.231969498920228e+000	 4.877254901683218e-001	 1.652943815044486e+001
 1.297888593546341e+000	 3.714635900429203e-001	 1.695203241055200e+001
 1.294217850372561e+000	 3.840574901952600e-001	 1.695024294348818e+001
 1.290415382246879e+000	 3.966461159140538e-001	 1.693465855099628e+001
 1.286480796438724e+000	 4.092275166856075e-001	 1.690504677849802e+001
 1.282413736612218e+000	 4.217997251942834e-001	 1.686117083561730e+001
 1.278213883446981e+000	 4.343607581200554e-001	 1.680278954593024e+001
 1.273880955239555e+000	 4.469086169597642e-001	 1.672965731183249e+001
 1.269414708484477e+000	 4.594412888715863e-001	 1.664152409540125e+001
 1.264814938434065e+000	 4.719567475421860e-001	 1.653813541610689e+001
 1.260081479635940e+000	 4.844529540759814e-001	 1.641923236620179e+001
 1.255214206447393e+000	 4.969278579059074e-001	 1.628455164458331e+001
 1.321923567501977e+000	 3.783425454121162e-001	 1.656323299598850e+001
 1.318184847602598e+000	 3.911696659373439e-001	 1.657060515127539e+001
 1.314311963400354e+000	 4.039914143544086e-001	 1.656459195748762e+001
 1.310304514891883e+000	 4.168058040289927e-001	 1.654497362904462e+001
 1.306162139142497e+000	 4.296108312136883e-001	 1.651152523179366e+001
 1.301884510918475e+000	 4.424044758603211e-001	 1.646401659548803e+001
 1.297471343299627e+000	 4.551847024564147e-001	 1.640221224234698e+001
 1.292922388271131e+000	 4.679494608852973e-001	 1.632587133268152e+001
 1.288237437293681e+000	 4.806966873093128e-001	 1.623474762854660e+001
 1.283416321850965e+000	 4.934243050755543e-001	 1.612858947635303e+001
 1.278458913973558e+000	 5.061302256434931e-001	 1.600713980933996e+001
 1.345958541457119e+000	 3.852215007818184e-001	 1.621652728971464e+001
 1.342151844832046e+000	 3.982818416798387e-001	 1.623355666379498e+001
 1.338208544553154e+000	 4.113367127950889e-001	 1.623762246154571e+001
 1.334128233344292e+000	 4.243840913726279e-001	 1.622851757385651e+001
 1.329910541671960e+000	 4.374219372332774e-001	 1.620602889666038e+001
 1.325555138389096e+000	 4.504481936007150e-001	 1.616993720516598e+001
 1.321061731358781e+000	 4.634607879531474e-001	 1.612001704518336e+001
 1.316430068056832e+000	 4.764576328990545e-001	 1.605603664263656e+001
 1.311659936152318e+000	 4.894366270764602e-001	 1.597775783233357e+001
 1.306751164064996e+000	 5.023956560751325e-001	 1.588493600703552e+001
 1.301703621498723e+000	 5.153325933810786e-001	 1.577732008783382e+001
 1.369993515411769e+000	 3.921004561520270e-001	 1.590954132959518e+001
 1.366118842060906e+000	 4.053940174227450e-001	 1.593665614606281e+001
 1.362105125705279e+000	 4.186820112360948e-001	 1.595124288785356e+001
 1.357951951795950e+000	 4.319623787165129e-001	 1.595310717243668e+001
 1.353658944200606e+000	 4.452330432530503e-001	 1.594204774138462e+001
 1.349225765858845e+000	 4.584919113412369e-001	 1.591785629532792e+001
 1.344652119417017e+000	 4.717368734499621e-001	 1.588031734706177e+001
 1.339937747841579e+000	 4.849658049128580e-001	 1.582920809401219e+001
 1.335082435009975e+000	 4.981765668436283e-001	 1.576429831124512e+001
 1.330086006278031e+000	 5.113670070747157e-001	 1.568535026617227e+001
 1.324948329022888e+000	 5.245349611186642e-001	 1.559211865607371e+001
 1.394028489365924e+000	 3.989794115227418e-001	 1.563999012168269e+001
 1.390085839289178e+000	 4.125061931660621e-001	 1.567755409665187e+001
 1.386001706856731e+000	 4.260273096774265e-001	 1.570304071846422e+001
 1.381775670246859e+000	 4.395406660606480e-001	 1.571626842237296e+001
 1.377407346728437e+000	 4.530441492730074e-001	 1.571704785130243e+001
 1.372896393327723e+000	 4.665356290818869e-001	 1.570518165043621e+001
 1.368242507474335e+000	 4.800129589468590e-001	 1.568046428106462e+001
 1.363445427625372e+000	 4.934739769267080e-001	 1.564268185501547e+001
 1.358504933866653e+000	 5.069165066108170e-001	 1.559161199096912e+001
 1.353420848490073e+000	 5.203383580743043e-001	 1.552702369392713e+001
 1.348193036546053e+000	 5.337373288562498e-001	 1.544867725906910e+001
 1.418063463319586e+000	 4.058583668939629e-001	 1.540567010054071e+001
 1.414052836516859e+000	 4.196183689097904e-001	 1.545398506518733e+001
 1.409898288007508e+000	 4.333726081190837e-001	 1.549069007098947e+001
 1.405599388697018e+000	 4.471189534050328e-001	 1.551561650187319e+001
 1.401155749255452e+000	 4.608552552931484e-001	 1.552858699658213e+001
 1.396567020795728e+000	 4.745793468226650e-001	 1.552941520175527e+001
 1.391832895530736e+000	 4.882890444438381e-001	 1.551790554541962e+001
 1.386953107408211e+000	 5.019821489406043e-001	 1.549385303234345e+001
 1.381927432722353e+000	 5.156564463780266e-001	 1.545704306267076e+001
 1.376755690701119e+000	 5.293097090738979e-001	 1.540725127522676e+001
 1.371437744068218e+000	 5.429396965938355e-001	 1.534424341684686e+001
 1.442098437272754e+000	 4.127373222656903e-001	 1.520445234353436e+001
 1.438019833743952e+000	 4.267305446539297e-001	 1.526376064809217e+001
 1.433794869157610e+000	 4.407179065610665e-001	 1.531194447897011e+001
 1.429423107146426e+000	 4.546972407496674e-001	 1.534884833804685e+001
 1.424904151781651e+000	 4.686663613134735e-001	 1.537430699182184e+001
 1.420237648262862e+000	 4.826230645635711e-001	 1.538814518178466e+001
 1.415423283586218e+000	 4.965651299408992e-001	 1.539017735640423e+001
 1.410460787190097e+000	 5.104903209545468e-001	 1.538020742630897e+001
 1.405349931577071e+000	 5.243963861452563e-001	 1.535802854420279e+001
 1.400090532911170e+000	 5.382810600734965e-001	 1.532342291103045e+001
 1.394682451589383e+000	 5.521420643314209e-001	 1.527616160986665e+001
 1.162235376332733e+000	 4.601183869555650e-001	 1.753333407005754e+001
 1.157604660665571e+000	 4.716475904904681e-001	 1.748104210193582e+001
 1.152849922489192e+000	 4.831532430025667e-001	 1.741812092925388e+001
 1.147971158680544e+000	 4.946334186475060e-001	 1.734489180084502e+001
 1.142968404651232e+000	 5.060861843335418e-001	 1.726169031999381e+001
 1.137841734704207e+000	 5.175096006544983e-001	 1.716886629795637e+001
 1.132591262364247e+000	 5.289017228384254e-001	 1.706678358228901e+001
 1.127217140681487e+000	 5.402606017111222e-001	 1.695581985974992e+001
 1.121719562507361e+000	 5.515842846736661e-001	 1.683636643359521e+001
 1.116098760742258e+000	 5.628708166930497e-001	 1.670882797514810e+001
 1.110355008554307e+000	 5.741182413050000e-001	 1.657362224958112e+001
 1.185480083862899e+000	 4.693207546931507e-001	 1.714004922386907e+001
 1.180756753882166e+000	 4.810805422992081e-001	 1.710383367841186e+001
 1.175906920941978e+000	 4.928163078619169e-001	 1.705482263295145e+001
 1.170930581856822e+000	 5.045260870200348e-001	 1.699323338704415e+001
 1.165827772746534e+000	 5.162079080199821e-001	 1.691929870839070e+001
 1.160598569400124e+000	 5.278597926674589e-001	 1.683326680843430e+001
 1.155243087612864e+000	 5.394797572950756e-001	 1.673540129260331e+001
 1.149761483495895e+000	 5.510658137451469e-001	 1.662598108475268e+001
 1.144153953757676e+000	 5.626159703667710e-001	 1.650530032541299e+001
 1.138420735956604e+000	 5.741282330262804e-001	 1.637366824351154e+001
 1.132562108724172e+000	 5.856006061301156e-001	 1.623140900128986e+001
 1.208724791392063e+000	 4.785231224307363e-001	 1.680596639837507e+001
 1.203908847097765e+000	 4.905134941079478e-001	 1.677967965132872e+001
 1.198963919393784e+000	 5.024793727212670e-001	 1.673846534858513e+001
 1.193890005032144e+000	 5.144187553925634e-001	 1.668243988270436e+001
 1.188687140840915e+000	 5.263296317064223e-001	 1.661173624659988e+001
 1.183355404095164e+000	 5.382099846804194e-001	 1.652650412888789e+001
 1.177894912860660e+000	 5.500577917517258e-001	 1.642690998365162e+001
 1.172305826309544e+000	 5.618710257791714e-001	 1.631313707396769e+001
 1.166588345007307e+000	 5.736476560598759e-001	 1.618538548859288e+001
 1.160742711170352e+000	 5.853856493595110e-001	 1.604387213126436e+001
 1.154769208893534e+000	 5.970829709552312e-001	 1.588883068212450e+001
 1.231969498920228e+000	 4.877254901683218e-001	 1.652943815044486e+001
 1.227060940312370e+000	 4.999464459166876e-001	 1.650729531614164e+001
 1.222020917844610e+000	 5.121424375806171e-001	 1.646812345843334e+001
 1.216849428206511e+000	 5.243114237650922e-001	 1.641194092174219e+001
 1.211546508934373e+000	 5.364513553928625e-001	 1.633878380252430e+001
 1.206112238789327e+000	 5.485601766933799e-001	 1.624870616221316e+001
 1.200546738107633e+000	 5.606358262083758e-001	 1.614178021428511e+001
 1.194850169122436e+000	 5.726762378131960e-001	 1.601809648458712e+001
 1.189022736256255e+000	 5.846793417529809e-001	 1.587776394411775e+001
 1.183064686383501e+000	 5.966430656927415e-001	 1.572091011350500e+001
 1.176976309062392e+000	 6.085653357803470e-001	 1.554768113848192e+001
 1.255214206447393e+000	 4.969278579059074e-001	 1.628455164458331e+001
 1.250213033525979e+000	 5.093793977254275e-001	 1.628459401626719e+001
 1.245077916294455e+000	 5.218055024399673e-001	 1.624298638229792e+001
 1.239808851379921e+000	 5.342040921376210e-001	 1.618125533284902e+001
 1.234405877026911e+000	 5.465730790793026e-001	 1.610028585477977e+001
 1.228869073482613e+000	 5.589103687063404e-001	 1.600003910979223e+001
 1.223198563353783e+000	 5.712138606650258e-001	 1.588049581454383e+001
 1.217394511934570e+000	 5.834814498472206e-001	 1.574165651565255e+001
 1.211457127504519e+000	 5.957110274460857e-001	 1.558354183638838e+001
 1.205386661596051e+000	 6.079004820259722e-001	 1.540619269408687e+001
 1.199183409230746e+000	 6.200477006054626e-001	 1.520967048737792e+001
 1.278458913973558e+000	 5.061302256434931e-001	 1.600713980933996e+001
 1.273365126738593e+000	 5.188123495341673e-001	 1.600749620900274e+001
 1.268134914743319e+000	 5.314685672993174e-001	 1.598507070201572e+001
 1.262768274552376e+000	 5.440967605101496e-001	 1.593928281431534e+001
 1.257265245118527e+000	 5.566948027657428e-001	 1.586955028338906e+001
 1.251625908175022e+000	 5.692605607193009e-001	 1.577528952386130e+001
 1.245850388599110e+000	 5.817918951216762e-001	 1.564355267918491e+001
 1.239938854745945e+000	 5.942866618812452e-001	 1.548460394970492e+001
 1.233891518752100e+000	 6.067427131391907e-001	 1.530379269473100e+001
 1.227708636808002e+000	 6.191578983592028e-001	 1.510107585754987e+001
 1.221390509398596e+000	 6.315300654305784e-001	 1.511859487724501e+001
 1.301703621498723e+000	 5.153325933810786e-001	 1.577732008783382e+001
 1.296517219950213e+000	 5.282453013429074e-001	 1.577294326870642e+001
 1.291191913191203e+000	 5.411316321586674e-001	 1.574429904174588e+001
 1.285727697723875e+000	 5.539894288826783e-001	 1.569070538760681e+001
 1.280124613209222e+000	 5.668165264521831e-001	 1.561147806686941e+001
 1.274382742866553e+000	 5.796107527322615e-001	 1.550593118136957e+001
 1.268502213843616e+000	 5.923699295783262e-001	 1.537337776261886e+001
 1.262483197556562e+000	 6.050918739152698e-001	 1.521313038719276e+001
 1.256325909998997e+000	 6.177743988322956e-001	 1.502450181888201e+001
 1.250030612019355e+000	 6.304153146924334e-001	 1.500018306605898e+001
 1.243597609565942e+000	 6.430124302556941e-001	 1.520204429319748e+001
 1.324948329022888e+000	 5.245349611186642e-001	 1.559211865607371e+001
 1.319669313160837e+000	 5.376782531516471e-001	 1.557820905996710e+001
 1.314248911638107e+000	 5.507946970180175e-001	 1.553861568354709e+001
 1.308687120894417e+000	 5.638820972552072e-001	 1.547255737158011e+001
 1.302983981298996e+000	 5.769382501386233e-001	 1.537925026333986e+001
 1.297139577557208e+000	 5.899609447452219e-001	 1.525790844678801e+001
 1.291154039087298e+000	 6.029479640349764e-001	 1.510774464257787e+001
 1.285027540366421e+000	 6.158970859492943e-001	 1.492797091766741e+001
 1.278760301245211e+000	 6.288060845254007e-001	 1.484805232206912e+001
 1.272352587230109e+000	 6.416727310256640e-001	 1.505578993687585e+001
 1.265804709732784e+000	 6.544947950808098e-001	 1.524375331259296e+001
 1.348193036546053e+000	 5.337373288562498e-001	 1.544867725906910e+001
 1.342821406370466e+000	 5.471112049603871e-001	 1.542066485033281e+001
 1.337305910084030e+000	 5.604577618773678e-001	 1.536562034476400e+001
 1.331646544064004e+000	 5.737747656277359e-001	 1.528266574793938e+001
 1.325843349387847e+000	 5.870599738250635e-001	 1.517091981986414e+001
 1.319896412246986e+000	 6.003111367581824e-001	 1.502949881919381e+001
 1.313805864330157e+000	 6.135259984916264e-001	 1.485751728007805e+001
 1.307571883175522e+000	 6.267022979833189e-001	 1.470977373576994e+001
 1.301194692490741e+000	 6.398377702185055e-001	 1.491150304814021e+001
 1.294674562440264e+000	 6.529301473588947e-001	 1.509261509140054e+001
 1.288011809899122e+000	 6.659771599059257e-001	 1.525240278503008e+001
 1.371437744068218e+000	 5.429396965938355e-001	 1.534424341684686e+001
 1.365973499579100e+000	 5.565441567691268e-001	 1.529777105582208e+001
 1.360362908528973e+000	 5.701208267367179e-001	 1.522298541139275e+001
 1.354605967232635e+000	 5.836674340002646e-001	 1.511891384229998e+001
 1.348702717475778e+000	 5.971816975115036e-001	 1.498457986608809e+001
 1.342653246935887e+000	 6.106613287711430e-001	 1.481900399063423e+001
 1.336457689572195e+000	 6.241040329482767e-001	 1.462120458116763e+001
 1.330116225983865e+000	 6.375075100173437e-001	 1.478674066062293e+001
 1.323629083735587e+000	 6.508694559116105e-001	 1.495900784672986e+001
 1.316996537649820e+000	 6.641875636921253e-001	 1.510928894006172e+001
 1.310218910064956e+000	 6.774595247310413e-001	 1.523679403535297e+001
 1.394682451589383e+000	 5.521420643314209e-001	 1.527616160986665e+001
 1.389125592786738e+000	 5.659771085778665e-001	 1.520706981188529e+001
 1.383419906972935e+000	 5.797838915960679e-001	 1.510844988236015e+001
 1.377565390400310e+000	 5.935601023727932e-001	 1.497923662886256e+001
 1.371562085562787e+000	 6.073034211979437e-001	 1.481836036569123e+001
 1.365410081623910e+000	 6.210115207841032e-001	 1.462474783004579e+001
 1.359109514813409e+000	 6.346820674049267e-001	 1.468922091628153e+001
 1.352660568791450e+000	 6.483127220513680e-001	 1.485030132759181e+001
 1.346063474979750e+000	 6.619011416047153e-001	 1.498898431300277e+001
 1.339318512858777e+000	 6.754449800253558e-001	 1.510440716670324e+001
 1.332426010230286e+000	 6.889418895561570e-001	 1.519569939106291e+001
 1.110355008554307e+000	 5.741182413050000e-001	 1.657362224958112e+001
 1.104488619568381e+000	 5.853246016274840e-001	 1.630029456437330e+001
 1.098499948025727e+000	 5.964879413854604e-001	 1.600211725918682e+001
 1.092389388913029e+000	 6.076063059449270e-001	 1.567871950493863e+001
 1.086157378059845e+000	 6.186777433540813e-001	 1.532975301267704e+001
 1.079804392204921e+000	 6.297003053920891e-001	 1.514862378792629e+001
 1.073330949030676e+000	 6.406720486238723e-001	 1.520305759661244e+001
 1.066737607165498e+000	 6.515910354597978e-001	 1.523308245776502e+001
 1.060024966153559e+000	 6.624553352191411e-001	 1.523791843202590e+001
 1.053193666391865e+000	 6.732630251961720e-001	 1.521678710677865e+001
 1.046244389034349e+000	 6.840121917276982e-001	 1.516891253738245e+001
 1.132562108724172e+000	 5.856006061301156e-001	 1.623140900128986e+001
 1.126578391957822e+000	 5.970310936587155e-001	 1.590455481277165e+001
 1.120469946983697e+000	 6.084177002116507e-001	 1.555368861026657e+001
 1.114237176688216e+000	 6.197584320622394e-001	 1.517852633324095e+001
 1.107880525617529e+000	 6.310512982196435e-001	 1.502537271124485e+001
 1.101400480045157e+000	 6.422943114986126e-001	 1.506343801338479e+001
 1.094797568007167e+000	 6.534854895953679e-001	 1.507984588202790e+001
 1.088072359304516e+000	 6.646228561684842e-001	 1.507387828906840e+001
 1.081225465472260e+000	 6.757044419236228e-001	 1.504481552352611e+001
 1.074257539715344e+000	 6.867282857009389e-001	 1.499193703078071e+001
 1.067169276810782e+000	 6.976924355639771e-001	 1.491452228355212e+001
 1.154769208893534e+000	 5.970829709552312e-001	 1.588883068212450e+001
 1.148668164346859e+000	 6.087375856899423e-001	 1.551312049498100e+001
 1.142439945941363e+000	 6.203474590378212e-001	 1.511416302190390e+001
 1.136084964463200e+000	 6.319105581795071e-001	 1.496887532614006e+001
 1.129603673175110e+000	 6.434248530851265e-001	 1.499027446496112e+001
 1.122996567885389e+000	 6.548883176050128e-001	 1.499262904159194e+001
 1.116264186983754e+000	 6.662989305666855e-001	 1.497528555650777e+001
 1.109407111443731e+000	 6.776546768769278e-001	 1.493758574491503e+001
 1.102425964791257e+000	 6.889535486277865e-001	 1.487886730786040e+001
 1.095321413039221e+000	 7.001935462053034e-001	 1.479846467980259e+001
 1.088094164587713e+000	 7.113726793997586e-001	 1.469570983183063e+001
 1.176976309062392e+000	 6.085653357803470e-001	 1.554768113848192e+001
 1.170757936735493e+000	 6.204440777211642e-001	 1.512751845537260e+001
 1.164409944898726e+000	 6.322772178639721e-001	 1.497062984805246e+001
 1.157932752237980e+000	 6.440626842967306e-001	 1.497501286608606e+001
 1.151326820732586e+000	 6.557984079505305e-001	 1.496283127643839e+001
 1.144592655725618e+000	 6.674823237112890e-001	 1.493349876459720e+001
 1.137730805960439e+000	 6.791123715378249e-001	 1.488642129737800e+001
 1.130741863583143e+000	 6.906864975851285e-001	 1.482099773983156e+001
 1.123626464110552e+000	 7.022026553316328e-001	 1.473662051301755e+001
 1.116385286363495e+000	 7.136588067092652e-001	 1.463267629213057e+001
 1.109019052365140e+000	 7.250529232350426e-001	 1.450854674432387e+001
 1.199183409230746e+000	 6.200477006054626e-001	 1.520967048737792e+001
 1.192847709123722e+000	 6.321505697523810e-001	 1.502288190861229e+001
 1.186379943855785e+000	 6.442069766901034e-001	 1.500984011746310e+001
 1.179780540012556e+000	 6.562148104139098e-001	 1.498258570436569e+001
 1.173049968289960e+000	 6.681719628158557e-001	 1.494060223566402e+001
 1.166188743565844e+000	 6.800763298174419e-001	 1.488336273710091e+001
 1.159197424937220e+000	 6.919258125087859e-001	 1.481033019051442e+001
 1.152076615722752e+000	 7.037183182930862e-001	 1.472095807547447e+001
 1.144826963430145e+000	 7.154517620351616e-001	 1.461469095566227e+001
 1.137449159688166e+000	 7.271240672128245e-001	 1.449096510964679e+001
 1.129943940143065e+000	 7.387331670698292e-001	 1.434920920556242e+001
 1.221390509398596e+000	 6.315300654305784e-001	 1.511859487724501e+001
 1.214937481511548e+000	 6.438570617835928e-001	 1.508765527246307e+001
 1.208349942812540e+000	 6.561367355162149e-001	 1.504473127127433e+001
 1.201628327786929e+000	 6.683669365310445e-001	 1.498937905508676e+001
 1.194773115847230e+000	 6.805455176811016e-001	 1.492114157740528e+001
 1.187784831406066e+000	 6.926703359234709e-001	 1.483954893439501e+001
 1.180664043914098e+000	 7.047392534795689e-001	 1.474411878411090e+001
 1.173411367862558e+000	 7.167501390008013e-001	 1.463435681452725e+001
 1.166027462750034e+000	 7.287008687383725e-001	 1.450975726034690e+001
 1.158513033013234e+000	 7.405893277159817e-001	 1.436980346841117e+001
 1.150868827921487e+000	 7.524134109041186e-001	 1.421396851137179e+001
 1.243597609565942e+000	 6.430124302556941e-001	 1.520204429319748e+001
 1.237027253898969e+000	 6.555635538147999e-001	 1.514278838237440e+001
 1.230319941768991e+000	 6.680664943423066e-001	 1.507328761213017e+001
 1.223476115561098e+000	 6.805190626481350e-001	 1.499315777234462e+001
 1.216496263404397e+000	 6.929190725462686e-001	 1.490199911471128e+001
 1.209380919246285e+000	 7.052643420293766e-001	 1.479939664338183e+001
 1.202130662891074e+000	 7.175526944501734e-001	 1.468492045811524e+001
 1.194746120002561e+000	 7.297819597082732e-001	 1.455812615025141e+001
 1.187227962070220e+000	 7.419499754412662e-001	 1.441855525166400e+001
 1.179576906338700e+000	 7.540545882187365e-001	 1.426573573668128e+001
 1.171793715700407e+000	 7.660936547379107e-001	 1.409918257679229e+001
 1.265804709732784e+000	 6.544947950808098e-001	 1.524375331259296e+001
 1.259117026285987e+000	 6.672700458460021e-001	 1.517451612155609e+001
 1.252289940725138e+000	 6.799962531683786e-001	 1.509139208489531e+001
 1.245323903335064e+000	 6.926711887651810e-001	 1.499166813618804e+001
 1.238219410961460e+000	 7.052926274113568e-001	 1.488072062678296e+001
 1.230977007086501e+000	 7.178583481351587e-001	 1.476025547032724e+001
 1.223597281868146e+000	 7.303661354205999e-001	 1.462989307056648e+001
 1.216080872142761e+000	 7.428137804155025e-001	 1.448923671082185e+001
 1.208428461390704e+000	 7.551990821438422e-001	 1.433787293669886e+001
 1.200640779664564e+000	 7.675198487210888e-001	 1.417537199629834e+001
 1.192718603479824e+000	 7.797738985712054e-001	 1.400128833790242e+001
 1.288011809899122e+000	 6.659771599059257e-001	 1.525240278503008e+001
 1.281206798672601e+000	 6.789765378771995e-001	 1.517139285141479e+001
 1.274259939680982e+000	 6.919260119944312e-001	 1.507793288388753e+001
 1.267171691108826e+000	 7.048233148821825e-001	 1.497173008117097e+001
 1.259942558518420e+000	 7.176661822763658e-001	 1.485248149691687e+001
 1.252573094926714e+000	 7.304523542408169e-001	 1.471987418476709e+001
 1.245063900845315e+000	 7.431795763908483e-001	 1.457621684741463e+001
 1.237415624283158e+000	 7.558456011224888e-001	 1.442469424597209e+001
 1.229628960711485e+000	 7.684481888461004e-001	 1.426454600653881e+001
 1.221704652990824e+000	 7.809851092230388e-001	 1.409538237772311e+001
 1.213643491259739e+000	 7.934541424040027e-001	 1.391679493965996e+001
 1.310218910064956e+000	 6.774595247310413e-001	 1.523679403535297e+001
 1.303296571058811e+000	 6.906830299083917e-001	 1.514703243735566e+001
 1.296229938636522e+000	 7.038557708204640e-001	 1.504626661129554e+001
 1.289019478882384e+000	 7.169754409991397e-001	 1.493425883292279e+001
 1.281665706075276e+000	 7.300397371412960e-001	 1.481075936930111e+001
 1.274169182766923e+000	 7.430463603463516e-001	 1.467550654618364e+001
 1.266530519822581e+000	 7.559930173609184e-001	 1.452822685567947e+001
 1.258750376423753e+000	 7.688774218292324e-001	 1.436863510487638e+001
 1.250829460032563e+000	 7.816972955480412e-001	 1.419643460596543e+001
 1.242768526317482e+000	 7.944503697245862e-001	 1.402249197116963e+001
 1.234568379040151e+000	 8.071343862363026e-001	 1.384227761650576e+001
 1.332426010230286e+000	 6.889418895561570e-001	 1.519569939106291e+001
 1.325386343444616e+000	 7.023895219395790e-001	 1.510003094973733e+001
 1.318199937591758e+000	 7.157855296464768e-001	 1.499481614585981e+001
 1.310867266655738e+000	 7.291275671160524e-001	 1.487987083845372e+001
 1.303388853632028e+000	 7.424132920061468e-001	 1.475499695911890e+001
 1.295765270607128e+000	 7.556403664517626e-001	 1.461998250244838e+001
 1.287997138799943e+000	 7.688064583308102e-001	 1.447460155974961e+001
 1.280085128564544e+000	 7.819092425357328e-001	 1.431861439691242e+001
 1.272029959353938e+000	 7.949464022496643e-001	 1.415176757714188e+001
 1.263832399644536e+000	 8.079156302257311e-001	 1.397379412913843e+001
 1.255493266821059e+000	 8.208146300681053e-001	 1.378441376117164e+001
 1.046244389034349e+000	 6.840121917276982e-001	 1.516891253738245e+001
 1.039177855863086e+000	 6.947009312609056e-001	 1.496452791870813e+001
 1.031994829125725e+000	 7.053273514202587e-001	 1.475265592088038e+001
 1.024696111339581e+000	 7.158895720722920e-001	 1.453332320782157e+001
 1.017282545062913e+000	 7.263857263871184e-001	 1.430654746515338e+001
 1.009755012632604e+000	 7.368139618953941e-001	 1.407233754844881e+001
 1.002114435868594e+000	 7.471724415395481e-001	 1.383069366571255e+001
 9.943617757451817e-001	 7.574593447180577e-001	 1.358160759379965e+001
 9.864980320293814e-001	 7.676728683215579e-001	 1.332506292836498e+001
 9.785242428865573e-001	 7.778112277595842e-001	 1.306103536681621e+001
 9.704414844536136e-001	 7.878726579767392e-001	 1.278949302362443e+001
 1.067169276810782e+000	 6.976924355639771e-001	 1.491452228355212e+001
 1.059961412976264e+000	 7.085949498887223e-001	 1.472584540312695e+001
 1.052634725704365e+000	 7.194338984519827e-001	 1.452978653015824e+001
 1.045190033562748e+000	 7.302073635176232e-001	 1.432635998814645e+001
 1.037628195960835e+000	 7.409134409191583e-001	 1.411557004583988e+001
 1.029950112882250e+000	 7.515502411378571e-001	 1.389741108449583e+001
 1.022156724583329e+000	 7.621158903749966e-001	 1.367186780219324e+001
 1.014249011257858e+000	 7.726085316170229e-001	 1.343891545487734e+001
 1.006227992668192e+000	 7.830263256923840e-001	 1.319852013369117e+001
 9.980947277430011e-001	 7.933674523188058e-001	 1.295063907801926e+001
 9.898503141419284e-001	 8.036301111397820e-001	 1.269522102354317e+001
 1.088094164587713e+000	 7.113726793997586e-001	 1.469570983183063e+001
 1.080744970090029e+000	 7.224889685159561e-001	 1.452314581407647e+001
 1.073274622283663e+000	 7.335404454830685e-001	 1.434335848924643e+001
 1.065683955786622e+000	 7.445251549622907e-001	 1.415634878499684e+001
 1.057973846859497e+000	 7.554411554505388e-001	 1.396210641423569e+001
 1.050145213132646e+000	 7.662865203796949e-001	 1.376061006258368e+001
 1.042199013298805e+000	 7.770593392098841e-001	 1.355182761587591e+001
 1.034136246771246e+000	 7.877577185155216e-001	 1.333571642735550e+001
 1.025957953307663e+000	 7.983797830628682e-001	 1.311222362407258e+001
 1.017665212600036e+000	 8.089236768778395e-001	 1.288128645186561e+001
 1.009259143830745e+000	 8.193875643028223e-001	 1.264283265816627e+001
 1.109019052365140e+000	 7.250529232350426e-001	 1.450854674432387e+001
 1.101528527204382e+000	 7.363829871426078e-001	 1.435248530507766e+001
 1.093914518863618e+000	 7.476469925135163e-001	 1.418941392321577e+001
 1.086177878011206e+000	 7.588429464062945e-001	 1.401931906637733e+001
 1.078319497758898e+000	 7.699688699812599e-001	 1.384217474210622e+001
 1.070340313383791e+000	 7.810227996209072e-001	 1.365794270671418e+001
 1.062241302015021e+000	 7.920027880442104e-001	 1.346657271734449e+001
 1.054023482285344e+000	 8.029069054135536e-001	 1.326800282685548e+001
 1.045687913947796e+000	 8.137332404330099e-001	 1.306215972099531e+001
 1.037235697457663e+000	 8.244799014366857e-001	 1.284895909719327e+001
 1.028667973520062e+000	 8.351450174658596e-001	 1.262830608414664e+001
 1.129943940143065e+000	 7.387331670698292e-001	 1.434920920556242e+001
 1.122312084319322e+000	 7.502770057686764e-001	 1.421002616242227e+001
 1.114554415444232e+000	 7.617535395433264e-001	 1.406410263044867e+001
 1.106671800236498e+000	 7.731607378496349e-001	 1.391140954369534e+001
 1.098665148659037e+000	 7.844965845113217e-001	 1.375190404359551e+001
 1.090535413635685e+000	 7.957590788614946e-001	 1.358552971044136e+001
 1.082283590731976e+000	 8.069462368779760e-001	 1.341221684139832e+001
 1.073910717800152e+000	 8.180560923111190e-001	 1.323188277463912e+001
 1.065417874588589e+000	 8.290866978028094e-001	 1.304443225902529e+001
 1.056806182315880e+000	 8.400361259953445e-001	 1.284975786860644e+001
 1.048076803209881e+000	 8.509024706288946e-001	 1.264774046105176e+001
 1.150868827921487e+000	 7.524134109041186e-001	 1.421396851137179e+001
 1.143095641434849e+000	 7.641710243941629e-001	 1.409202715673922e+001
 1.135194312025504e+000	 7.758600865724983e-001	 1.396367229415617e+001
 1.127165722462498e+000	 7.874785292923112e-001	 1.382885824054259e+001
 1.119010799559916e+000	 7.990242990407239e-001	 1.368752409864631e+001
 1.110730513888330e+000	 8.104953581014568e-001	 1.353959401236656e+001
 1.102325879449672e+000	 8.218896857111800e-001	 1.338497747212348e+001
 1.093797953315672e+000	 8.332052792082176e-001	 1.322356966982347e+001
 1.085147835230044e+000	 8.444401551722669e-001	 1.305525190280109e+001
 1.076376667174689e+000	 8.555923505538158e-001	 1.287989202595140e+001
 1.067485632900202e+000	 8.666599237919267e-001	 1.269734495109895e+001
 1.171793715700407e+000	 7.660936547379107e-001	 1.409918257679229e+001
 1.163879198550964e+000	 7.780650430190667e-001	 1.399483492832130e+001
 1.155834208607433e+000	 7.899666336010324e-001	 1.388445974266107e+001
 1.147659644689206e+000	 8.017963207343239e-001	 1.376799362553567e+001
 1.139356450461533e+000	 8.135520135694664e-001	 1.364535645605378e+001
 1.130925614141723e+000	 8.252316373407934e-001	 1.351645166711647e+001
 1.122368168168108e+000	 8.368331345438235e-001	 1.338116657956383e+001
 1.113685188831901e+000	 8.483544661048493e-001	 1.323937278957224e+001
 1.104877795872159e+000	 8.597936125413822e-001	 1.309092660863462e+001
 1.095947152034089e+000	 8.711485751120996e-001	 1.293566955527742e+001
 1.086894462591023e+000	 8.824173769549563e-001	 1.277342889749049e+001
 1.192718603479824e+000	 7.797738985712054e-001	 1.400128833790242e+001
 1.184662755667667e+000	 7.919590616433879e-001	 1.391487627926009e+001
 1.176474105190020e+000	 8.040731806289283e-001	 1.382288312965116e+001
 1.168153566916623e+000	 8.161141121756732e-001	 1.372522667854210e+001
 1.159702101363889e+000	 8.280797280975500e-001	 1.362180638356618e+001
 1.151120714395866e+000	 8.399679165795049e-001	 1.351250367727065e+001
 1.142410456887284e+000	 8.517765833759058e-001	 1.339718233147894e+001
 1.133572424348841e+000	 8.635036530010146e-001	 1.327568887874102e+001
 1.124607756514936e+000	 8.751470699101549e-001	 1.314785309015398e+001
 1.115517636894080e+000	 8.867047996701954e-001	 1.301348850864343e+001
 1.106303292282346e+000	 8.981748301179827e-001	 1.287239303660808e+001
 1.213643491259739e+000	 7.934541424040027e-001	 1.391679493965996e+001
 1.205446312784956e+000	 8.058530802671269e-001	 1.384865126294567e+001
 1.197114001773264e+000	 8.181797276561860e-001	 1.377543492337188e+001
 1.188647489144748e+000	 8.304319036163590e-001	 1.369704377764110e+001
 1.180047752266984e+000	 8.426074426249738e-001	 1.361335565073359e+001
 1.171315814650759e+000	 8.547041958175911e-001	 1.352422867026227e+001
 1.162452745607200e+000	 8.667200322074270e-001	 1.342950166250669e+001
 1.153459659866493e+000	 8.786528398967133e-001	 1.332899460955895e+001
 1.144337717158373e+000	 8.905005272785856e-001	 1.322250916681083e+001
 1.135088121754663e+000	 9.022610242281041e-001	 1.310982923980714e+001
 1.125712121974170e+000	 9.139322832810067e-001	 1.299072161929048e+001
 1.234568379040151e+000	 8.071343862363026e-001	 1.384227761650576e+001
 1.226229869902834e+000	 8.197470988902831e-001	 1.379272697632961e+001
 1.217753898357167e+000	 8.322862746828061e-001	 1.373867560878241e+001
 1.209141411373581e+000	 8.447496950563807e-001	 1.368000030944486e+001
 1.200393403170818e+000	 8.571351571517382e-001	 1.361655604570448e+001
 1.191510914906401e+000	 8.694404750550522e-001	 1.354817632000062e+001
 1.182495034327856e+000	 8.816634810383872e-001	 1.347467359900406e+001
 1.173346895384854e+000	 8.938020267919451e-001	 1.339583980812259e+001
 1.164067677802471e+000	 9.058539846466741e-001	 1.331144689050544e+001
 1.154658606615837e+000	 9.178172487858251e-001	 1.322124742950471e+001
 1.145120951666496e+000	 9.296897364440285e-001	 1.312497533333756e+001
 1.255493266821059e+000	 8.208146300681053e-001	 1.378441376117164e+001
 1.247013427021299e+000	 8.336411175128567e-001	 1.374373197296134e+001
 1.238393794941728e+000	 8.463928217087881e-001	 1.370922801949601e+001
 1.229635333603122e+000	 8.590674864957387e-001	 1.367071491838726e+001
 1.220739054075391e+000	 8.716628716778431e-001	 1.362802354034247e+001
 1.211706015162792e+000	 8.841767542918880e-001	 1.358096142633141e+001
 1.202537323049252e+000	 8.966069298687865e-001	 1.352931325140397e+001
 1.193234130903926e+000	 9.089512136867101e-001	 1.347284135824039e+001
 1.183797638447231e+000	 9.212074420144203e-001	 1.341128635954950e+001
 1.174229091477602e+000	 9.333734733433585e-001	 1.334436780820283e+001
 1.164529781359323e+000	 9.454471896070471e-001	 1.327178493376323e+001
 9.704414844536136e-001	 7.878726579767392e-001	 1.278949302362443e+001
 9.622508703799659e-001	 7.978554144576137e-001	 1.264583409928112e+001
 9.539535513369586e-001	 8.077577742177589e-001	 1.249211004456829e+001
 9.455507144959995e-001	 8.175780367805177e-001	 1.232832256125155e+001
 9.370435829756511e-001	 8.273145251396229e-001	 1.215446914484924e+001
 9.284334152585064e-001	 8.369655867049054e-001	 1.197054348081910e+001
 9.197215045783189e-001	 8.465295942305035e-001	 1.177653586449911e+001
 9.109091782780104e-001	 8.560049467244861e-001	 1.157243364351585e+001
 9.019977971392149e-001	 8.653900703388237e-001	 1.135822168128572e+001
 8.929887546840698e-001	 8.746834192386785e-001	 1.113388284015145e+001
 8.838834764499999e-001	 8.838834764499999e-001	 1.089939848261727e+001
 9.898503141419284e-001	 8.036301111397820e-001	 1.269522102354317e+001
 9.814958877873232e-001	 8.138125227497113e-001	 1.256992588634716e+001
 9.730326223639016e-001	 8.239129297045710e-001	 1.243381631137367e+001
 9.644617287864989e-001	 8.339295975181713e-001	 1.228680086619288e+001
 9.557844546360499e-001	 8.438608156441201e-001	 1.212878368734110e+001
 9.470020835647984e-001	 8.537048984404442e-001	 1.195966499850441e+001
 9.381159346711734e-001	 8.634601861163659e-001	 1.177934165399798e+001
 9.291273618449545e-001	 8.731250456601145e-001	 1.158770770601299e+001
 9.200377530834086e-001	 8.826978717467010e-001	 1.138465499400742e+001
 9.108485297791161e-001	 8.921770876245897e-001	 1.117007375452990e+001
 9.015611459802497e-001	 9.015611459802499e-001	 1.094385324968374e+001
 1.009259143830745e+000	 8.193875643028223e-001	 1.264283265816627e+001
 1.000740905195092e+000	 8.297696310419911e-001	 1.253250698175205e+001
 9.921116933911854e-001	 8.400680851917207e-001	 1.241068019019097e+001
 9.833727430772894e-001	 8.502811582562881e-001	 1.227716797745289e+001
 9.745253262967094e-001	 8.604071061491758e-001	 1.213178130500780e+001
 9.655707518713410e-001	 8.704442101766073e-001	 1.197432704286439e+001
 9.565103647642882e-001	 8.803907780028876e-001	 1.180460863759005e+001
 9.473455454121886e-001	 8.902451445964076e-001	 1.162242680553618e+001
 9.380777090279425e-001	 9.000056731552177e-001	 1.142758024939635e+001
 9.287083048745723e-001	 9.096707560110861e-001	 1.121986639612701e+001
 9.192388155110001e-001	 9.192388155110001e-001	 1.099908215417785e+001
 1.028667973520062e+000	 8.351450174658596e-001	 1.262830608414664e+001
 1.019985922603272e+000	 8.457267393344534e-001	 1.252979532085057e+001
 1.011190764418811e+000	 8.562232406792083e-001	 1.241915928022372e+001
 1.002283757368371e+000	 8.666327189948682e-001	 1.229612089972088e+001
 9.932661979576295e-001	 8.769533966547898e-001	 1.216039800530901e+001
 9.841394201781339e-001	 8.871835219133940e-001	 1.201170407637039e+001
 9.749047948576629e-001	 8.973213698900684e-001	 1.184974903941634e+001
 9.655637289797132e-001	 9.073652435333653e-001	 1.167424008858752e+001
 9.561176649728165e-001	 9.173134745643744e-001	 1.148488253081161e+001
 9.465680799704386e-001	 9.271644243981670e-001	 1.128138065338896e+001
 9.369164850422498e-001	 9.369164850422498e-001	 1.106343861168557e+001
 1.048076803209881e+000	 8.509024706288946e-001	 1.264774046105176e+001
 1.039230940011862e+000	 8.616838476270980e-001	 1.255811369730577e+001
 1.030269835446777e+000	 8.723783961670337e-001	 1.245580001561201e+001
 1.021194771659744e+000	 8.829842797339110e-001	 1.234042957836269e+001
 1.012007069618811e+000	 8.934996871609622e-001	 1.221162697904318e+001
 1.002708088485177e+000	 9.039228336508047e-001	 1.206901213215191e+001
 9.932992249512983e-001	 9.142519617779087e-001	 1.191220119390769e+001
 9.837819125475277e-001	 9.244853424709879e-001	 1.174080751146772e+001
 9.741576209180304e-001	 9.346212759741709e-001	 1.155444259826810e+001
 9.644278550667147e-001	 9.446580927858330e-001	 1.135271713299187e+001
 9.545941545740001e-001	 9.545941545740000e-001	 1.113524197957327e+001
 1.067485632900202e+000	 8.666599237919267e-001	 1.269734495109895e+001
 1.058475957420865e+000	 8.776409559199254e-001	 1.261388023051589e+001
 1.049348906475084e+000	 8.885335516551965e-001	 1.251722958952951e+001
 1.040105785951407e+000	 8.993358404734170e-001	 1.240693026845060e+001
 1.030747941280253e+000	 9.100459776676935e-001	 1.228251340186218e+001
 1.021276756792472e+000	 9.206621453888396e-001	 1.214350503484595e+001
 1.011693655045194e+000	 9.311825536664083e-001	 1.198942717212155e+001
 1.002000096115632e+000	 9.416054414092747e-001	 1.181979885756698e+001
 9.921975768635845e-001	 9.519290773846075e-001	 1.163413728146771e+001
 9.822876301634012e-001	 9.621517611740841e-001	 1.143195891272962e+001
 9.722718241062499e-001	 9.722718241062499e-001	 1.121278065318943e+001
 1.086894462591023e+000	 8.824173769549563e-001	 1.277342889749049e+001
 1.077720974830279e+000	 8.935980642129352e-001	 1.269359985438784e+001
 1.068427977503733e+000	 9.046887071436970e-001	 1.260014874355527e+001
 1.059016800243361e+000	 9.156874012133863e-001	 1.249251961425347e+001
 1.049488812941954e+000	 9.265922681749831e-001	 1.237014979276655e+001
 1.039845425100016e+000	 9.374014571274981e-001	 1.223247102635524e+001
 1.030088085139350e+000	 9.481131455555671e-001	 1.207891066240056e+001
 1.020218279684027e+000	 9.587255403482263e-001	 1.190889285994636e+001
 1.010237532809479e+000	 9.692368787956833e-001	 1.172183983072011e+001
 1.000147405260498e+000	 9.796454295629201e-001	 1.151717310659292e+001
 9.899494936390003e-001	 9.899494936390003e-001	 1.129431483033063e+001
 1.106303292282346e+000	 8.981748301179827e-001	 1.287239303660808e+001
 1.096965992240104e+000	 9.095551725061274e-001	 1.279385670202973e+001
 1.087507048532723e+000	 9.208438626325356e-001	 1.270132531605947e+001
 1.077927814535607e+000	 9.320389619538184e-001	 1.259414935193909e+001
 1.068229684603918e+000	 9.431385586828309e-001	 1.247167186118018e+001
 1.058414093407811e+000	 9.541407688667807e-001	 1.233322974678991e+001
 1.048482515233766e+000	 9.650437374453850e-001	 1.217815507411946e+001
 1.038436463252712e+000	 9.758456392878423e-001	 1.200577641627876e+001
 1.028277488755713e+000	 9.865446802073995e-001	 1.181542023092453e+001
 1.018007180358004e+000	 9.971390979523412e-001	 1.160641226510274e+001
 1.007627163172250e+000	 1.007627163172250e+000	 1.137807898471089e+001
 1.125712121974170e+000	 9.139322832810067e-001	 1.299072161929048e+001
 1.116211009650340e+000	 9.255122807995019e-001	 1.291130727823353e+001
 1.106586119562053e+000	 9.369990181217117e-001	 1.281758845799724e+001
 1.096838828828143e+000	 9.483905226947139e-001	 1.270882156027248e+001
 1.086970556266142e+000	 9.596848491912375e-001	 1.258425478363787e+001
 1.076982761715857e+000	 9.708800806066870e-001	 1.244312952772530e+001
 1.066876945328443e+000	 9.819743293358622e-001	 1.228468183759597e+001
 1.056654646821688e+000	 9.929657382281232e-001	 1.210814388500326e+001
 1.046317444702287e+000	 1.003852481619755e+000	 1.191274548307062e+001
 1.035866955455920e+000	 1.014632766342347e+000	 1.169771563078178e+001
 1.025304832706000e+000	 1.025304832706000e+000	 1.146228408355512e+001
 1.145120951666496e+000	 9.296897364440285e-001	 1.312497533333756e+001
 1.135456027060987e+000	 9.414693890930587e-001	 1.304267432628163e+001
 1.125665190591725e+000	 9.531541736112255e-001	 1.294582343692707e+001
 1.115749843120970e+000	 9.647420834360720e-001	 1.283358439429408e+001
 1.105711427928626e+000	 9.762311397002028e-001	 1.270510985911515e+001
 1.095551430024153e+000	 9.876193923472172e-001	 1.255954496072203e+001
 1.085271375423379e+000	 9.989049212269988e-001	 1.239602887689231e+001
 1.074872830390953e+000	 1.010085837169068e+000	 1.221369645305649e+001
 1.064357400649202e+000	 1.021160283032751e+000	 1.201167985711216e+001
 1.053726730554247e+000	 1.032126434732938e+000	 1.178911026595115e+001
 1.042982502240250e+000	 1.042982502240250e+000	 1.154511957967454e+001
 1.164529781359323e+000	 9.454471896070471e-001	 1.327178493376323e+001
 1.154701044472046e+000	 9.574264973867980e-001	 1.318474130807286e+001
 1.144744261621738e+000	 9.693093291010768e-001	 1.308296696062705e+001
 1.134660857414088e+000	 9.810936441778935e-001	 1.296552824563027e+001
 1.124452299591371e+000	 9.927774302097262e-001	 1.283148149882459e+001
 1.114120098332700e+000	 1.004358704088371e+000	 1.267987470899372e+001
 1.103665805518577e+000	 1.015835513118795e+000	 1.250974923533643e+001
 1.093091013960508e+000	 1.027205936110678e+000	 1.232014156683146e+001
 1.082397356596456e+000	 1.038468084446387e+000	 1.211008511955317e+001
 1.071586505652983e+000	 1.049620103124114e+000	 1.187861206774690e+001
 1.060660171775000e+000	 1.060660171775000e+000	 1.162475520433417e+001
 8.838834764499999e-001	 8.838834764499999e-001	 1.089939848261727e+001
 8.746834192386785e-001	 8.929887546840698e-001	 1.072552010748809e+001
 8.653900703388238e-001	 9.019977971392147e-001	 1.054685077488064e+001
 8.560049467244860e-001	 9.109091782780104e-001	 1.036344058790970e+001
 8.465295942305037e-001	 9.197215045783191e-001	 1.017533459411294e+001
 8.369655867049053e-001	 9.284334152585063e-001	 9.982573281109071e+000
 8.273145251396229e-001	 9.370435829756509e-001	 9.785193087775731e+000
 8.175780367805178e-001	 9.455507144959995e-001	 9.583226929139551e+000
 8.077577742177586e-001	 9.539535513369589e-001	 9.376704733128024e+000
 7.978554144576137e-001	 9.622508703799658e-001	 9.165653987298079e+000
 7.878726579767392e-001	 9.704414844536136e-001	 8.950100293629394e+000
 9.015611459802497e-001	 9.015611459802499e-001	 1.094385324968374e+001
 8.921770876245896e-001	 9.108485297791160e-001	 1.078279408723896e+001
 8.826978717467009e-001	 9.200377530834085e-001	 1.061543194598378e+001
 8.731250456601145e-001	 9.291273618449544e-001	 1.044174397200869e+001
 8.634601861163659e-001	 9.381159346711734e-001	 1.026170303386601e+001
 8.537048984404443e-001	 9.470020835647984e-001	 1.007527832617760e+001
 8.438608156441201e-001	 9.557844546360498e-001	 9.882435988121724e+000
 8.339295975181715e-001	 9.644617287864988e-001	 9.683139734754613e+000
 8.239129297045709e-001	 9.730326223639019e-001	 9.477351499083072e+000
 8.138125227497111e-001	 9.814958877873232e-001	 9.265032082769974e+000
 8.036301111397820e-001	 9.898503141419285e-001	 9.046141813331488e+000
 9.192388155110001e-001	 9.192388155110001e-001	 1.099908215417785e+001
 9.096707560110861e-001	 9.287083048745725e-001	 1.084904119554762e+001
 9.000056731552177e-001	 9.380777090279423e-001	 1.069124104292131e+001
 8.902451445964077e-001	 9.473455454121889e-001	 1.052558497344779e+001
 8.803907780028876e-001	 9.565103647642882e-001	 1.035197270711906e+001
 8.704442101766073e-001	 9.655707518713408e-001	 1.017030112083735e+001
 8.604071061491757e-001	 9.745253262967094e-001	 9.980464976810598e+000
 8.502811582562883e-001	 9.833727430772894e-001	 9.782357662989471e+000
 8.400680851917207e-001	 9.921116933911856e-001	 9.575871943220838e+000
 8.297696310419912e-001	 1.000740905195092e+000	 9.360900714759719e+000
 8.193875643028225e-001	 1.009259143830745e+000	 9.137337770761992e+000
 9.369164850422498e-001	 9.369164850422498e-001	 1.106343861168557e+001
 9.271644243981670e-001	 9.465680799704386e-001	 1.092279236959204e+001
 9.173134745643742e-001	 9.561176649728163e-001	 1.077298530099175e+001
 9.073652435333653e-001	 9.655637289797131e-001	 1.061384578329980e+001
 8.973213698900684e-001	 9.749047948576629e-001	 1.044519929997317e+001
 8.871835219133941e-001	 9.841394201781341e-001	 1.026686926768412e+001
 8.769533966547899e-001	 9.932661979576296e-001	 1.007867787736013e+001
 8.666327189948683e-001	 1.002283757368371e+000	 9.880446946556139e+000
 8.562232406792082e-001	 1.011190764418811e+000	 9.671998780583317e+000
 8.457267393344534e-001	 1.019985922603272e+000	 9.453157039791602e+000
 8.351450174658597e-001	 1.028667973520062e+000	 9.223747610380825e+000
 9.545941545740001e-001	 9.545941545740000e-001	 1.113524197957327e+001
 9.446580927858330e-001	 9.644278550667149e-001	 1.100253394408939e+001
 9.346212759741711e-001	 9.741576209180304e-001	 1.085931697931175e+001
 9.244853424709877e-001	 9.837819125475277e-001	 1.070534341821733e+001
 9.142519617779087e-001	 9.932992249512984e-001	 1.054036330620204e+001
 9.039228336508051e-001	 1.002708088485178e+000	 1.036412534413796e+001
 8.934996871609623e-001	 1.012007069618811e+000	 1.017637784492763e+001
 8.829842797339114e-001	 1.021194771659744e+000	 9.976869700761732e+000
 8.723783961670335e-001	 1.030269835446777e+000	 9.765351358249962e+000
 8.616838476270980e-001	 1.039230940011862e+000	 9.541575798566445e+000
 8.509024706288946e-001	 1.048076803209881e+000	 9.305299519732584e+000
 9.722718241062499e-001	 9.722718241062499e-001	 1.121278065318943e+001
 9.621517611740841e-001	 9.822876301634012e-001	 1.108671170606527e+001
 9.519290773846075e-001	 9.921975768635845e-001	 1.094883835865050e+001
 9.416054414092745e-001	 1.002000096115632e+000	 1.079883564538016e+001
 9.311825536664081e-001	 1.011693655045194e+000	 1.063637686291760e+001
 9.206621453888395e-001	 1.021276756792472e+000	 1.046113463200425e+001
 9.100459776676934e-001	 1.030747941280252e+000	 1.027278197252424e+001
 8.993358404734172e-001	 1.040105785951407e+000	 1.007099338872747e+001
 8.885335516551965e-001	 1.049348906475085e+000	 9.855445961516072e+000
 8.776409559199254e-001	 1.058475957420865e+000	 9.625820444672529e+000
 8.666599237919266e-001	 1.067485632900202e+000	 9.381802361893179e+000
 9.899494936390003e-001	 9.899494936390003e-001	 1.129431483033063e+001
 9.796454295629200e-001	 1.000147405260498e+000	 1.117373451518330e+001
 9.692368787956835e-001	 1.010237532809479e+000	 1.104010620378258e+001
 9.587255403482264e-001	 1.020218279684028e+000	 1.089302627262655e+001
 9.481131455555671e-001	 1.030088085139350e+000	 1.073208985384386e+001
 9.374014571274982e-001	 1.039845425100016e+000	 1.055689201886803e+001
 9.265922681749831e-001	 1.049488812941954e+000	 1.036702897513517e+001
 9.156874012133863e-001	 1.059016800243361e+000	 1.016209927247621e+001
 9.046887071436972e-001	 1.068427977503733e+000	 9.941705015837353e+000
 8.935980642129352e-001	 1.077720974830279e+000	 9.705453080934875e+000
 8.824173769549563e-001	 1.086894462591023e+000	 9.452956329439877e+000
 1.007627163172250e+000	 1.007627163172250e+000	 1.137807898471089e+001
 9.971390979523412e-001	 1.018007180358004e+000	 1.126197754298734e+001
 9.865446802073997e-001	 1.028277488755713e+000	 1.113163575611864e+001
 9.758456392878422e-001	 1.038436463252712e+000	 1.098656988172878e+001
 9.650437374453851e-001	 1.048482515233766e+000	 1.082629537013997e+001
 9.541407688667806e-001	 1.058414093407811e+000	 1.065032817302548e+001
 9.431385586828311e-001	 1.068229684603918e+000	 1.045818606498496e+001
 9.320389619538184e-001	 1.077927814535606e+000	 1.024938997443233e+001
 9.208438626325355e-001	 1.087507048532722e+000	 1.002346532014946e+001
 9.095551725061273e-001	 1.096965992240104e+000	 9.779943349832942e+000
 8.981748301179828e-001	 1.106303292282346e+000	 9.518362476951140e+000
 1.025304832706000e+000	 1.025304832706000e+000	 1.146228408355512e+001
 1.014632766342347e+000	 1.035866955455920e+000	 1.134978517704984e+001
 1.003852481619755e+000	 1.046317444702287e+000	 1.122190431330595e+001
 9.929657382281231e-001	 1.056654646821688e+000	 1.107807607201975e+001
 9.819743293358623e-001	 1.066876945328443e+000	 1.091773460631119e+001
 9.708800806066870e-001	 1.076982761715857e+000	 1.074031507962938e+001
 9.596848491912375e-001	 1.086970556266142e+000	 1.054525511556858e+001
 9.483905226947139e-001	 1.096838828828143e+000	 1.033199625669731e+001
 9.369990181217115e-001	 1.106586119562053e+000	 1.009998542846410e+001
 9.255122807995019e-001	 1.116211009650340e+000	 9.848676404219708e+000
 9.139322832810067e-001	 1.125712121974170e+000	 9.577531267385483e+000
 1.042982502240250e+000	 1.042982502240250e+000	 1.154511957967454e+001
 1.032126434732938e+000	 1.053726730554247e+000	 1.143547362978285e+001
 1.021160283032751e+000	 1.064357400649201e+000	 1.130935444480155e+001
 1.010085837169068e+000	 1.074872830390953e+000	 1.116611327246374e+001
 9.989049212269989e-001	 1.085271375423380e+000	 1.100510125823029e+001
 9.876193923472172e-001	 1.095551430024153e+000	 1.082567101383693e+001
 9.762311397002028e-001	 1.105711427928626e+000	 1.062717819883177e+001
 9.647420834360724e-001	 1.115749843120970e+000	 1.040898311090758e+001
 9.531541736112253e-001	 1.125665190591725e+000	 1.017045228079491e+001
 9.414693890930588e-001	 1.135456027060987e+000	 9.910960067459515e+000
 9.296897364440283e-001	 1.145120951666496e+000	 9.629890249337366e+000
 1.060660171775000e+000	 1.060660171775000e+000	 1.162475520433417e+001
 1.049620103124114e+000	 1.071586505652983e+000	 1.151733328636821e+001
 1.038468084446386e+000	 1.082397356596456e+000	 1.139239688588806e+001
 1.027205936110678e+000	 1.093091013960509e+000	 1.124921217252079e+001
 1.015835513118795e+000	 1.103665805518577e+000	 1.108704548135684e+001
 1.004358704088371e+000	 1.114120098332699e+000	 1.090516501664258e+001
 9.927774302097263e-001	 1.124452299591371e+000	 1.070284256863345e+001
 9.810936441778935e-001	 1.134660857414088e+000	 1.047935523910635e+001
 9.693093291010766e-001	 1.144744261621738e+000	 1.023398717099022e+001
 9.574264973867980e-001	 1.154701044472046e+000	 9.966031277551975e+000
 9.454471896070471e-001	 1.164529781359323e+000	 9.674790966567386e+000
 7.878726579767392e-001	 9.704414844536136e-001	 8.950100293629394e+000
 7.778112277595841e-001	 9.785242428865572e-001	 8.792256515687404e+000
 7.676728683215578e-001	 9.864980320293814e-001	 8.622283630886695e+000
 7.574593447180574e-001	 9.943617757451816e-001	 8.440048735730821e+000
 7.471724415395482e-001	 1.002114435868594e+000	 8.245426667188985e+000
 7.368139618953939e-001	 1.009755012632604e+000	 8.038300692297806e+000
 7.263857263871183e-001	 1.017282545062913e+000	 7.818563183809655e+000
 7.158895720722921e-001	 1.024696111339581e+000	 7.586116279866725e+000
 7.053273514202586e-001	 1.031994829125725e+000	 7.340872525734285e+000
 6.947009312609058e-001	 1.039177855863086e+000	 7.082755495688989e+000
 6.840121917276981e-001	 1.046244389034349e+000	 6.811700393226110e+000
 8.036301111397820e-001	 9.898503141419285e-001	 9.046141813331488e+000
 7.933674523188057e-001	 9.980947277430013e-001	 8.876836028083455e+000
 7.830263256923841e-001	 1.006227992668192e+000	 8.696215596791173e+000
 7.726085316170228e-001	 1.014249011257858e+000	 8.504174692738918e+000
 7.621158903749964e-001	 1.022156724583330e+000	 8.300613829504126e+000
 7.515502411378570e-001	 1.029950112882250e+000	 8.085440565920388e+000
 7.409134409191582e-001	 1.037628195960835e+000	 7.858570198954960e+000
 7.302073635176234e-001	 1.045190033562748e+000	 7.619926442378898e+000
 7.194338984519826e-001	 1.052634725704365e+000	 7.369442089162484e+000
 7.085949498887223e-001	 1.059961412976264e+000	 7.107059655585955e+000
 6.976924355639771e-001	 1.067169276810782e+000	 6.832732005122217e+000
 8.193875643028225e-001	 1.009259143830745e+000	 9.137337770761992e+000
 8.089236768778395e-001	 1.017665212600036e+000	 8.961114600233540e+000
 7.983797830628682e-001	 1.025957953307663e+000	 8.774317832362687e+000
 7.877577185155216e-001	 1.034136246771246e+000	 8.576864828167430e+000
 7.770593392098840e-001	 1.042199013298805e+000	 8.368677943927764e+000
 7.662865203796948e-001	 1.050145213132645e+000	 8.149685256434449e+000
 7.554411554505388e-001	 1.057973846859497e+000	 7.919821277923144e+000
 7.445251549622909e-001	 1.065683955786623e+000	 7.679027658464520e+000
 7.335404454830685e-001	 1.073274622283663e+000	 7.427253873628831e+000
 7.224889685159562e-001	 1.080744970090029e+000	 7.164457895302507e+000
 7.113726793997586e-001	 1.088094164587713e+000	 6.890606843597636e+000
 8.351450174658597e-001	 1.028667973520062e+000	 9.223747610380825e+000
 8.244799014366857e-001	 1.037235697457663e+000	 9.044981418026548e+000
 8.137332404330099e-001	 1.045687913947796e+000	 8.856313559568530e+000
 8.029069054135535e-001	 1.054023482285344e+000	 8.657680729445897e+000
 7.920027880442103e-001	 1.062241302015021e+000	 8.449023324482111e+000
 7.810227996209072e-001	 1.070340313383791e+000	 8.230286194360520e+000
 7.699688699812599e-001	 1.078319497758898e+000	 8.001419383465779e+000
 7.588429464062948e-001	 1.086177878011206e+000	 7.762378861739623e+000
 7.476469925135163e-001	 1.093914518863619e+000	 7.513127242250811e+000
 7.363829871426076e-001	 1.101528527204381e+000	 7.253634483230981e+000
 7.250529232350426e-001	 1.109019052365140e+000	 6.983878572395309e+000
 8.509024706288946e-001	 1.048076803209881e+000	 9.305299519732584e+000
 8.400361259953446e-001	 1.056806182315880e+000	 9.128210245351514e+000
 8.290866978028095e-001	 1.065417874588589e+000	 8.941826133761207e+000
 8.180560923111189e-001	 1.073910717800152e+000	 8.746099386303628e+000
 8.069462368779760e-001	 1.082283590731977e+000	 8.540984663196639e+000
 7.957590788614946e-001	 1.090535413635686e+000	 8.326439864201305e+000
 7.844965845113215e-001	 1.098665148659037e+000	 8.102426902244801e+000
 7.731607378496348e-001	 1.106671800236498e+000	 7.868912467518736e+000
 7.617535395433264e-001	 1.114554415444232e+000	 7.625868779620731e+000
 7.502770057686765e-001	 1.122312084319322e+000	 7.373274325358875e+000
 7.387331670698292e-001	 1.129943940143065e+000	 7.111114579905138e+000
 8.666599237919266e-001	 1.067485632900202e+000	 9.381802361893179e+000
 8.555923505538157e-001	 1.076376667174689e+000	 9.210469917006810e+000
 8.444401551722667e-001	 1.085147835230044e+000	 9.030388122461639e+000
 8.332052792082172e-001	 1.093797953315671e+000	 8.841520881469501e+000
 8.218896857111800e-001	 1.102325879449672e+000	 8.643833359380551e+000
 8.104953581014569e-001	 1.110730513888330e+000	 8.437292799534054e+000
 7.990242990407239e-001	 1.119010799559915e+000	 8.221869333567963e+000
 7.874785292923114e-001	 1.127165722462498e+000	 7.997536783569340e+000
 7.758600865724983e-001	 1.135194312025504e+000	 7.764273453489626e+000
 7.641710243941627e-001	 1.143095641434849e+000	 7.522062907305877e+000
 7.524134109041186e-001	 1.150868827921488e+000	 7.270894731468527e+000
 8.824173769549563e-001	 1.086894462591023e+000	 9.452956329439877e+000
 8.711485751120995e-001	 1.095947152034089e+000	 9.291333707368654e+000
 8.597936125413821e-001	 1.104877795872159e+000	 9.121449411415309e+000
 8.483544661048493e-001	 1.113685188831901e+000	 8.943275257368368e+000
 8.368331345438236e-001	 1.122368168168108e+000	 8.756783170758341e+000
 8.252316373407935e-001	 1.130925614141723e+000	 8.561946042914663e+000
 8.135520135694665e-001	 1.139356450461533e+000	 8.358738582902866e+000
 8.017963207343242e-001	 1.147659644689206e+000	 8.147138162571652e+000
 7.899666336010321e-001	 1.155834208607433e+000	 7.927125651985657e+000
 7.780650430190668e-001	 1.163879198550964e+000	 7.698686242571023e+000
 7.660936547379107e-001	 1.171793715700407e+000	 7.461810255364937e+000
 8.981748301179828e-001	 1.106303292282346e+000	 9.518362476951140e+000
 8.867047996701954e-001	 1.115517636894080e+000	 9.370287712884094e+000
 8.751470699101551e-001	 1.124607756514936e+000	 9.214384457379488e+000
 8.635036530010145e-001	 1.133572424348842e+000	 9.050628660007467e+000
 8.517765833759058e-001	 1.142410456887284e+000	 8.878995269748973e+000
 8.399679165795050e-001	 1.151120714395866e+000	 8.699459136318314e+000
 8.280797280975500e-001	 1.159702101363889e+000	 8.511995908704718e+000
 8.161141121756732e-001	 1.168153566916623e+000	 8.316582928003555e+000
 8.040731806289282e-001	 1.176474105190020e+000	 8.113200111650874e+000
 7.919590616433881e-001	 1.184662755667667e+000	 7.901830826227481e+000
 7.797738985712054e-001	 1.192718603479824e+000	 7.682462746063080e+000
 9.139322832810067e-001	 1.125712121974170e+000	 9.577531267385483e+000
 9.022610242281041e-001	 1.135088121754663e+000	 9.446738367409738e+000
 8.905005272785858e-001	 1.144337717158373e+000	 9.308498790622100e+000
 8.786528398967132e-001	 1.153459659866493e+000	 9.162788847288026e+000
 8.667200322074271e-001	 1.162452745607200e+000	 9.009582776682182e+000
 8.547041958175913e-001	 1.171315814650759e+000	 8.848853698775486e+000
 8.426074426249739e-001	 1.180047752266984e+000	 8.680574564400308e+000
 8.304319036163591e-001	 1.188647489144747e+000	 8.504719100795837e+000
 8.181797276561860e-001	 1.197114001773265e+000	 8.321262749474744e+000
 8.058530802671269e-001	 1.205446312784956e+000	 8.130183593407564e+000
 7.934541424040027e-001	 1.213643491259739e+000	 7.931463270583625e+000
 9.296897364440283e-001	 1.145120951666496e+000	 9.629890249337366e+000
 9.178172487858249e-001	 1.154658606615837e+000	 9.520019193278433e+000
 9.058539846466741e-001	 1.164067677802471e+000	 9.403034856149862e+000
 8.938020267919450e-001	 1.173346895384854e+000	 9.278910137149973e+000
 8.816634810383872e-001	 1.182495034327856e+000	 9.147614832009129e+000
 8.694404750550523e-001	 1.191510914906401e+000	 9.009116640180972e+000
 8.571351571517383e-001	 1.200393403170818e+000	 8.863382171695708e+000
 8.447496950563810e-001	 1.209141411373581e+000	 8.710377950395673e+000
 8.322862746828059e-001	 1.217753898357167e+000	 8.550071410313898e+000
 8.197470988902831e-001	 1.226229869902834e+000	 8.382431882009593e+000
 8.071343862363025e-001	 1.234568379040151e+000	 8.207431565740812e+000
 9.454471896070471e-001	 1.164529781359323e+000	 9.674790966567386e+000
 9.333734733433584e-001	 1.174229091477602e+000	 9.589396877259640e+000
 9.212074420144205e-001	 1.183797638447231e+000	 9.497177270812960e+000
 9.089512136867100e-001	 1.193234130903926e+000	 9.398097860902000e+000
 8.966069298687863e-001	 1.202537323049252e+000	 9.292120261292460e+000
 8.841767542918877e-001	 1.211706015162792e+000	 9.179203053721926e+000
 8.716628716778431e-001	 1.220739054075391e+000	 9.059302856552662e+000
 8.590674864957389e-001	 1.229635333603122e+000	 8.932375390723463e+000
 8.463928217087879e-001	 1.238393794941728e+000	 8.798376539569670e+000
 8.336411175128569e-001	 1.247013427021299e+000	 8.657263399134077e+000
 8.208146300681053e-001	 1.255493266821059e+000	 8.417450366596020e+000
 6.840121917276981e-001	 1.046244389034349e+000	 6.811700393226110e+000
 6.732630251961720e-001	 1.053193666391865e+000	 6.628808199103965e+000
 6.624553352191411e-001	 1.060024966153559e+000	 6.458010450518365e+000
 6.515910354597977e-001	 1.066737607165498e+000	 6.299527053039246e+000
 6.406720486238722e-001	 1.073330949030676e+000	 6.153565517549136e+000
 6.297003053920891e-001	 1.079804392204921e+000	 6.020321390801499e+000
 6.186777433540813e-001	 1.086157378059845e+000	 5.857395712296685e+000
 6.076063059449273e-001	 1.092389388913029e+000	 5.687567103232527e+000
 5.964879413854602e-001	 1.098499948025727e+000	 5.546725932318010e+000
 5.853246016274839e-001	 1.104488619568381e+000	 5.435940034337657e+000
 5.741182413050000e-001	 1.110355008554307e+000	 5.356236967850619e+000
 6.976924355639771e-001	 1.067169276810782e+000	 6.832732005122217e+000
 6.867282857009388e-001	 1.074257539715344e+000	 6.666133608377360e+000
 6.757044419236228e-001	 1.081225465472260e+000	 6.507486770092382e+000
 6.646228561684840e-001	 1.088072359304516e+000	 6.356959854231030e+000
 6.534854895953678e-001	 1.094797568007166e+000	 6.214712744425500e+000
 6.422943114986126e-001	 1.101400480045157e+000	 6.080897327955959e+000
 6.310512982196433e-001	 1.107880525617529e+000	 5.955657977698357e+000
 6.197584320622395e-001	 1.114237176688216e+000	 5.803786920693269e+000
 6.084177002116505e-001	 1.120469946983697e+000	 5.632246002830272e+000
 5.970310936587155e-001	 1.126578391957822e+000	 5.487402808693993e+000
 5.856006061301156e-001	 1.132562108724173e+000	 5.370337396827229e+000
 7.113726793997586e-001	 1.088094164587713e+000	 6.890606843597636e+000
 7.001935462053034e-001	 1.095321413039221e+000	 6.738391280626956e+000
 6.889535486277866e-001	 1.102425964791257e+000	 6.590078278830559e+000
 6.776546768769275e-001	 1.109407111443731e+000	 6.445783363522409e+000
 6.662989305666857e-001	 1.116264186983754e+000	 6.305617453546199e+000
 6.548883176050127e-001	 1.122996567885389e+000	 6.169687401724247e+000
 6.434248530851267e-001	 1.129603673175110e+000	 6.038096527210041e+000
 6.319105581795074e-001	 1.136084964463200e+000	 5.910945138048845e+000
 6.203474590378212e-001	 1.142439945941363e+000	 5.757133308071134e+000
 6.087375856899424e-001	 1.148668164346860e+000	 5.574864146650691e+000
 5.970829709552312e-001	 1.154769208893534e+000	 5.417189273620980e+000
 7.250529232350426e-001	 1.109019052365140e+000	 6.983878572395309e+000
 7.136588067092652e-001	 1.116385286363495e+000	 6.844323158544804e+000
 7.022026553316330e-001	 1.123626464110552e+000	 6.704708210064821e+000
 6.906864975851284e-001	 1.130741863583143e+000	 6.565095018883493e+000
 6.791123715378250e-001	 1.137730805960439e+000	 6.425544109049423e+000
 6.674823237112888e-001	 1.144592655725618e+000	 6.286115836772197e+000
 6.557984079505305e-001	 1.151326820732586e+000	 6.146870976289890e+000
 6.440626842967309e-001	 1.157932752237980e+000	 6.007871289786833e+000
 6.322772178639721e-001	 1.164409944898726e+000	 5.869180079672554e+000
 6.204440777211642e-001	 1.170757936735493e+000	 5.700723137156955e+000
 6.085653357803471e-001	 1.176976309062392e+000	 5.499224059961435e+000
 7.387331670698292e-001	 1.129943940143065e+000	 7.111114579905138e+000
 7.271240672128245e-001	 1.137449159688166e+000	 6.982674374715743e+000
 7.154517620351615e-001	 1.144826963430144e+000	 6.850292964826447e+000
 7.037183182930863e-001	 1.152076615722752e+000	 6.713975919333663e+000
 6.919258125087859e-001	 1.159197424937220e+000	 6.573731847654651e+000
 6.800763298174418e-001	 1.166188743565844e+000	 6.429573062360002e+000
 6.681719628158557e-001	 1.173049968289960e+000	 6.281516221733893e+000
 6.562148104139098e-001	 1.179780540012556e+000	 6.129582950199660e+000
 6.442069766901030e-001	 1.186379943855785e+000	 5.973800434850320e+000
 6.321505697523810e-001	 1.192847709123722e+000	 5.814201996429392e+000
 6.200477006054628e-001	 1.199183409230746e+000	 5.618804946030248e+000
 7.524134109041186e-001	 1.150868827921488e+000	 7.270894731468527e+000
 7.405893277159817e-001	 1.158513033013234e+000	 7.152192961626875e+000
 7.287008687383727e-001	 1.166027462750033e+000	 7.025742732964414e+000
 7.167501390008011e-001	 1.173411367862558e+000	 6.891492310300546e+000
 7.047392534795689e-001	 1.180664043914098e+000	 6.749396781155595e+000
 6.926703359234709e-001	 1.187784831406066e+000	 6.599418784651804e+000
 6.805455176811016e-001	 1.194773115847230e+000	 6.441529214014429e+000
 6.683669365310446e-001	 1.201628327786929e+000	 6.275707890718426e+000
 6.561367355162148e-001	 1.208349942812540e+000	 6.101944208441950e+000
 6.438570617835929e-001	 1.214937481511548e+000	 5.920237745110488e+000
 6.315300654305786e-001	 1.221390509398596e+000	 5.730598841442087e+000
 7.660936547379107e-001	 1.171793715700407e+000	 7.461810255364937e+000
 7.540545882187365e-001	 1.179576906338700e+000	 7.351629592747960e+000
 7.419499754412664e-001	 1.187227962070220e+000	 7.229962047715540e+000
 7.297819597082731e-001	 1.194746120002561e+000	 7.096696909833674e+000
 7.175526944501734e-001	 1.202130662891074e+000	 6.951734052216985e+000
 7.052643420293766e-001	 1.209380919246285e+000	 6.794984729849355e+000
 6.929190725462687e-001	 1.216496263404397e+000	 6.626372345345339e+000
 6.805190626481351e-001	 1.223476115561099e+000	 6.445833180094272e+000
 6.680664943423065e-001	 1.230319941768991e+000	 6.253317088866014e+000
 6.555635538148000e-001	 1.237027253898969e+000	 6.048788156092001e+000
 6.430124302556941e-001	 1.243597609565942e+000	 5.832225312180358e+000
 7.797738985712054e-001	 1.192718603479824e+000	 7.682462746063080e+000
 7.675198487210887e-001	 1.200640779664563e+000	 7.579737350866213e+000
 7.551990821438421e-001	 1.208428461390704e+000	 7.461850281898051e+000
 7.428137804155023e-001	 1.216080872142762e+000	 7.328630095216699e+000
 7.303661354205999e-001	 1.223597281868146e+000	 7.179919673771792e+000
 7.178583481351586e-001	 1.230977007086501e+000	 7.015577098574724e+000
 7.052926274113568e-001	 1.238219410961460e+000	 6.835476481107851e+000
 6.926711887651811e-001	 1.245323903335064e+000	 6.639508754808897e+000
 6.799962531683785e-001	 1.252289940725139e+000	 6.434623981560263e+000
 6.672700458460021e-001	 1.259117026285987e+000	 6.245849933043838e+000
 6.544947950808100e-001	 1.265804709732783e+000	 6.067834013730790e+000
 7.934541424040027e-001	 1.213643491259739e+000	 7.931463270583625e+000
 7.809851092230387e-001	 1.221704652990824e+000	 7.835271520386494e+000
 7.684481888461006e-001	 1.229628960711485e+000	 7.720302092775739e+000
 7.558456011224884e-001	 1.237415624283158e+000	 7.586320966826412e+000
 7.431795763908483e-001	 1.245063900845315e+000	 7.433112178136315e+000
 7.304523542408170e-001	 1.252573094926714e+000	 7.249185877641801e+000
 7.176661822763658e-001	 1.259942558518420e+000	 7.043423489825996e+000
 7.048233148821826e-001	 1.267171691108826e+000	 6.846539675521940e+000
 6.919260119944309e-001	 1.274259939680982e+000	 6.658417101853472e+000
 6.789765378771995e-001	 1.281206798672601e+000	 6.478922482286897e+000
 6.659771599059257e-001	 1.288011809899122e+000	 6.307906896544852e+000
 8.071343862363025e-001	 1.234568379040151e+000	 8.207431565740812e+000
 7.944503697245862e-001	 1.242768526317482e+000	 8.116989400753559e+000
 7.816972955480415e-001	 1.250829460032563e+000	 7.994639231676517e+000
 7.688774218292321e-001	 1.258750376423753e+000	 7.783437882423187e+000
 7.559930173609183e-001	 1.266530519822581e+000	 7.579326508725313e+000
 7.430463603463515e-001	 1.274169182766922e+000	 7.382207813163595e+000
 7.300397371412958e-001	 1.281665706075276e+000	 7.191969765741482e+000
 7.169754409991397e-001	 1.289019478882383e+000	 7.008485873275722e+000
 7.038557708204638e-001	 1.296229938636522e+000	 6.831615466449176e+000
 6.906830299083917e-001	 1.303296571058811e+000	 6.661204003868988e+000
 6.774595247310413e-001	 1.310218910064956e+000	 6.497083392449710e+000
 8.208146300681053e-001	 1.255493266821059e+000	 8.417450366596020e+000
 8.079156302257311e-001	 1.263832399644536e+000	 8.216716545057624e+000
 7.949464022496643e-001	 1.272029959353938e+000	 8.021332568808015e+000
 7.819092425357326e-001	 1.280085128564544e+000	 7.831197810697335e+000
 7.688064583308100e-001	 1.287997138799943e+000	 7.646198411386536e+000
 7.556403664517627e-001	 1.295765270607128e+000	 7.466207526256921e+000
 7.424132920061469e-001	 1.303388853632028e+000	 7.291085588431416e+000
 7.291275671160526e-001	 1.310867266655738e+000	 7.120680587324038e+000
 7.157855296464767e-001	 1.318199937591758e+000	 6.954828362109979e+000
 7.023895219395790e-001	 1.325386343444616e+000	 6.793352909484206e+000
 6.889418895561570e-001	 1.332426010230286e+000	 6.636066705055511e+000
 5.741182413050000e-001	 1.110355008554307e+000	 5.356236967850619e+000
 5.628708166930497e-001	 1.116098760742258e+000	 5.193630955450087e+000
 5.515842846736662e-001	 1.121719562507361e+000	 5.035265111545152e+000
 5.402606017111221e-001	 1.127217140681487e+000	 4.882019327886311e+000
 5.289017228384254e-001	 1.132591262364247e+000	 4.734758275957008e+000
 5.175096006544983e-001	 1.137841734704207e+000	 4.594330253448983e+000
 5.060861843335419e-001	 1.142968404651232e+000	 4.461566074911817e+000
 4.946334186475062e-001	 1.147971158680544e+000	 4.337278008313642e+000
 4.831532430025666e-001	 1.152849922489192e+000	 4.222258759103517e+000
 4.716475904904681e-001	 1.157604660665571e+000	 4.117280503214090e+000
 4.601183869555650e-001	 1.162235376332733e+000	 4.023093970291566e+000
 5.856006061301156e-001	 1.132562108724173e+000	 5.370337396827229e+000
 5.741282330262805e-001	 1.138420735956605e+000	 5.158046180794385e+000
 5.626159703667710e-001	 1.144153953757676e+000	 4.953859772128685e+000
 5.510658137451469e-001	 1.149761483495895e+000	 4.758717036875896e+000
 5.394797572950756e-001	 1.155243087612864e+000	 4.573537205192035e+000
 5.278597926674589e-001	 1.160598569400124e+000	 4.399218687616906e+000
 5.162079080199822e-001	 1.165827772746534e+000	 4.236637942156443e+000
 5.045260870200349e-001	 1.170930581856822e+000	 4.086648393885850e+000
 4.928163078619168e-001	 1.175906920941978e+000	 3.950079408626700e+000
 4.810805422992081e-001	 1.180756753882166e+000	 3.827735322081138e+000
 4.693207546931507e-001	 1.185480083862899e+000	 3.720394525645445e+000
 5.970829709552312e-001	 1.154769208893534e+000	 5.417189273620980e+000
 5.853856493595110e-001	 1.160742711170352e+000	 5.154771579452210e+000
 5.736476560598761e-001	 1.166588345007308e+000	 4.904174864798630e+000
 5.618710257791713e-001	 1.172305826309545e+000	 4.666399454171502e+000
 5.500577917517259e-001	 1.177894912860660e+000	 4.442421680814729e+000
 5.382099846804194e-001	 1.183355404095165e+000	 4.233192668709370e+000
 5.263296317064223e-001	 1.188687140840915e+000	 4.039637172030274e+000
 5.144187553925635e-001	 1.193890005032144e+000	 3.862652473751364e+000
 5.024793727212669e-001	 1.198963919393784e+000	 3.703107344919751e+000
 4.905134941079479e-001	 1.203908847097765e+000	 3.561841065937130e+000
 4.785231224307363e-001	 1.208724791392063e+000	 3.439662511009624e+000
 6.085653357803471e-001	 1.176976309062392e+000	 5.499224059961435e+000
 5.966430656927416e-001	 1.183064686383501e+000	 5.186112081578193e+000
 5.846793417529809e-001	 1.189022736256255e+000	 4.888397293134565e+000
 5.726762378131959e-001	 1.194850169122436e+000	 4.607144003340243e+000
 5.606358262083757e-001	 1.200546738107633e+000	 4.343388228658506e+000
 5.485601766933799e-001	 1.206112238789327e+000	 4.098136436975426e+000
 5.364513553928626e-001	 1.211546508934374e+000	 3.872364355382189e+000
 5.243114237650923e-001	 1.216849428206511e+000	 3.667015843756877e+000
 5.121424375806171e-001	 1.222020917844610e+000	 3.483001835642633e+000
 4.999464459166877e-001	 1.227060940312370e+000	 3.321199347721115e+000
 4.877254901683218e-001	 1.231969498920228e+000	 3.182450558988791e+000
 6.200477006054628e-001	 1.199183409230746e+000	 5.618804946030248e+000
 6.079004820259722e-001	 1.205386661596051e+000	 5.254310274486358e+000
 5.957110274460858e-001	 1.211457127504519e+000	 4.908656921383598e+000
 5.834814498472205e-001	 1.217394511934570e+000	 4.582975747559994e+000
 5.712138606650259e-001	 1.223198563353783e+000	 4.278365069562517e+000
 5.589103687063404e-001	 1.228869073482613e+000	 3.995889360912333e+000
 5.465730790793026e-001	 1.234405877026911e+000	 3.736578024166850e+000
 5.342040921376211e-001	 1.239808851379921e+000	 3.501424235464584e+000
 5.218055024399670e-001	 1.245077916294454e+000	 3.291383863030506e+000
 5.093793977254275e-001	 1.250213033525979e+000	 3.112929551172770e+000
 4.969278579059074e-001	 1.255214206447393e+000	 3.091806794914895e+000
 6.315300654305786e-001	 1.221390509398596e+000	 5.730598841442087e+000
 6.191578983592029e-001	 1.227708636808003e+000	 5.361552070181118e+000
 6.067427131391908e-001	 1.233891518752100e+000	 4.967031759854289e+000
 5.942866618812450e-001	 1.239938854745945e+000	 4.595872149654758e+000
 5.817918951216761e-001	 1.245850388599110e+000	 4.249236510734982e+000
 5.692605607193009e-001	 1.251625908175022e+000	 3.960292739625438e+000
 5.566948027657428e-001	 1.257265245118527e+000	 3.788559131118790e+000
 5.440967605101499e-001	 1.262768274552376e+000	 3.657883849763980e+000
 5.314685672993172e-001	 1.268134914743319e+000	 3.567002265194934e+000
 5.188123495341674e-001	 1.273365126738593e+000	 3.514670828805955e+000
 5.061302256434931e-001	 1.278458913973559e+000	 3.499669528229361e+000
 6.430124302556941e-001	 1.243597609565942e+000	 5.832225312180358e+000
 6.304153146924334e-001	 1.250030612019355e+000	 5.471901560026762e+000
 6.177743988322958e-001	 1.256325909998997e+000	 5.147058070843926e+000
 6.050918739152695e-001	 1.262483197556562e+000	 4.833331337072171e+000
 5.923699295783261e-001	 1.268502213843615e+000	 4.567682452267571e+000
 5.796107527322613e-001	 1.274382742866553e+000	 4.348681188719953e+000
 5.668165264521829e-001	 1.280124613209222e+000	 4.174910099414836e+000
 5.539894288826784e-001	 1.285727697723875e+000	 4.044967539379216e+000
 5.411316321586673e-001	 1.291191913191203e+000	 3.957470569939801e+000
 5.282453013429073e-001	 1.296517219950213e+000	 3.911057741012036e+000
 5.153325933810786e-001	 1.301703621498723e+000	 3.904391747012475e+000
 6.544947950808100e-001	 1.265804709732783e+000	 6.067834013730790e+000
 6.416727310256640e-001	 1.272352587230109e+000	 5.773328054906366e+000
 6.288060845254007e-001	 1.278760301245210e+000	 5.504639447246627e+000
 6.158970859492943e-001	 1.285027540366422e+000	 5.209207876349637e+000
 6.029479640349765e-001	 1.291154039087298e+000	 4.938999248608424e+000
 5.899609447452219e-001	 1.297139577557208e+000	 4.718286492544634e+000
 5.769382501386233e-001	 1.302983981298996e+000	 4.545527970657133e+000
 5.638820972552072e-001	 1.308687120894417e+000	 4.419198052320860e+000
 5.507946970180175e-001	 1.314248911638107e+000	 4.337790238296270e+000
 5.376782531516472e-001	 1.319669313160837e+000	 4.299820156722610e+000
 5.245349611186642e-001	 1.324948329022888e+000	 4.303828425842111e+000
 6.659771599059257e-001	 1.288011809899122e+000	 6.307906896544852e+000
 6.529301473588947e-001	 1.294674562440264e+000	 6.024977944561975e+000
 6.398377702185056e-001	 1.301194692490741e+000	 5.770980238259422e+000
 6.267022979833187e-001	 1.307571883175522e+000	 5.545708714242550e+000
 6.135259984916264e-001	 1.313805864330157e+000	 5.285453374855058e+000
 6.003111367581824e-001	 1.319896412246986e+000	 5.066349361261212e+000
 5.870599738250635e-001	 1.325843349387848e+000	 4.897763280259252e+000
 5.737747656277360e-001	 1.331646544064004e+000	 4.778039874359093e+000
 5.604577618773676e-001	 1.337305910084030e+000	 4.705543668842284e+000
 5.471112049603870e-001	 1.342821406370466e+000	 4.678662187518962e+000
 5.337373288562498e-001	 1.348193036546053e+000	 4.695809027839237e+000
 6.774595247310413e-001	 1.310218910064956e+000	 6.497083392449710e+000
 6.641875636921253e-001	 1.316996537649819e+000	 6.227539834560933e+000
 6.508694559116106e-001	 1.323629083735587e+000	 5.989944832318798e+000
 6.375075100173435e-001	 1.330116225983865e+000	 5.784082355391370e+000
 6.241040329482768e-001	 1.336457689572195e+000	 5.604149489834324e+000
 6.106613287711429e-001	 1.342653246935887e+000	 5.390082159761560e+000
 5.971816975115036e-001	 1.348702717475778e+000	 5.228939995233713e+000
 5.836674340002647e-001	 1.354605967232635e+000	 5.118932309187132e+000
 5.701208267367177e-001	 1.360362908528973e+000	 5.058289075437150e+000
 5.565441567691268e-001	 1.365973499579100e+000	 5.045264370458291e+000
 5.429396965938355e-001	 1.371437744068218e+000	 5.078139666655786e+000
 6.889418895561570e-001	 1.332426010230286e+000	 6.636066705055511e+000
 6.754449800253557e-001	 1.339318512858777e+000	 6.381666230603767e+000
 6.619011416047155e-001	 1.346063474979750e+000	 6.162140048890533e+000
 6.483127220513681e-001	 1.352660568791450e+000	 5.977260911082552e+000
 6.346820674049267e-001	 1.359109514813409e+000	 5.826764674094750e+000
 6.210115207841032e-001	 1.365410081623910e+000	 5.686671269773624e+000
 6.073034211979438e-001	 1.371562085562787e+000	 5.536357728225301e+000
 5.935601023727934e-001	 1.377565390400310e+000	 5.439291576927932e+000
 5.797838915960678e-001	 1.383419906972935e+000	 5.393562502614599e+000
 5.659771085778667e-001	 1.389125592786738e+000	 5.397285632617528e+000
 5.521420643314210e-001	 1.394682451589383e+000	 5.448605052263795e+000
 4.601183869555650e-001	 1.162235376332733e+000	 4.023093970291566e+000
 4.485675500777414e-001	 1.166742110765889e+000	 3.826690600275315e+000
 4.369969884738851e-001	 1.171124942985806e+000	 3.637493111678690e+000
 4.254086008172057e-001	 1.175383989328324e+000	 3.455995145296223e+000
 4.138042749739843e-001	 1.179519402990089e+000	 3.282674345046700e+000
 4.021858871602735e-001	 1.183531373552289e+000	 3.117991764092828e+000
 3.905553011185042e-001	 1.187420126482944e+000	 2.962391313457365e+000
 3.789143673145657e-001	 1.191185922618588e+000	 2.816299253522774e+000
 3.672649221558911e-001	 1.194829057626238e+000	 2.680123728677924e+000
 3.556087872310356e-001	 1.198349861446522e+000	 2.554254345255149e+000
 3.439477685711992e-001	 1.201748697718857e+000	 2.439061792781582e+000
 4.693207546931507e-001	 1.185480083862899e+000	 3.720394525645445e+000
 4.575389010772938e-001	 1.190076952984894e+000	 3.497245780007999e+000
 4.457369282409294e-001	 1.194547441849339e+000	 3.282275194155080e+000
 4.339167728307313e-001	 1.198891669118793e+000	 3.076029457686725e+000
 4.220803604703061e-001	 1.203109791053833e+000	 2.879037463394288e+000
 4.102296049000269e-001	 1.207202001027270e+000	 2.691809667681071e+000
 3.983664071371729e-001	 1.211168529016486e+000	 2.514837497277877e+000
 3.864926546569514e-001	 1.215009641074747e+000	 2.348592802653168e+000
 3.746102205949434e-001	 1.218725638782410e+000	 2.193527358387037e+000
 3.627209629714751e-001	 1.222316858678915e+000	 2.050072410646100e+000
 3.508267239383701e-001	 1.225783671676468e+000	 1.918638271769742e+000
 4.785231224307363e-001	 1.208724791392063e+000	 3.439662511009624e+000
 4.665102520768511e-001	 1.213411795202904e+000	 3.189099952008539e+000
 4.544768680079944e-001	 1.217969940711893e+000	 2.947691791305247e+000
 4.424249448443032e-001	 1.222399348908308e+000	 2.716039311981540e+000
 4.303564459667101e-001	 1.226700179116658e+000	 2.494724159594334e+000
 4.182733226399084e-001	 1.230872628501380e+000	 2.284307655212913e+000
 4.061775131560257e-001	 1.234916931549213e+000	 2.085330158659851e+000
 3.940709419995869e-001	 1.238833359530156e+000	 1.898310482371294e+000
 3.819555190343212e-001	 1.242622219937908e+000	 1.723745356151051e+000
 3.698331387123256e-001	 1.246283855910719e+000	 1.562108942950318e+000
 3.577056793060472e-001	 1.249818645633586e+000	 1.413852405670161e+000
 4.877254901683218e-001	 1.231969498920228e+000	 3.182450558988791e+000
 4.754816030764138e-001	 1.236746637419919e+000	 2.903700947387707e+000
 4.632168077750800e-001	 1.241392439573469e+000	 2.635087496209526e+000
 4.509331168579215e-001	 1.245907028696869e+000	 2.377267687785095e+000
 4.386325314631960e-001	 1.250290567178565e+000	 2.139781217748352e+000
 4.263170403799179e-001	 1.254543255974616e+000	 2.037973749532190e+000
 4.139886191750625e-001	 1.258665334081123e+000	 1.947982598210002e+000
 4.016492293424722e-001	 1.262657077984815e+000	 1.869006758023032e+000
 3.893008174740246e-001	 1.266518801092730e+000	 1.800296093509719e+000
 3.769453144535872e-001	 1.270250853141934e+000	 1.741152100529333e+000
 3.645846346742306e-001	 1.273853619590210e+000	 1.690928531101473e+000
 4.969278579059074e-001	 1.255214206447393e+000	 3.091806794914895e+000
 4.844529540759813e-001	 1.260081479635939e+000	 2.925868651366043e+000
 4.719567475421861e-001	 1.264814938434064e+000	 2.775098062601241e+000
 4.594412888715863e-001	 1.269414708484477e+000	 2.638429122373559e+000
 4.469086169597642e-001	 1.273880955239555e+000	 2.514845660356218e+000
 4.343607581200555e-001	 1.278213883446982e+000	 2.403382642192240e+000
 4.217997251942836e-001	 1.282413736612218e+000	 2.303127422121394e+000
 4.092275166856078e-001	 1.286480796438724e+000	 2.213220848201432e+000
 3.966461159140537e-001	 1.290415382246879e+000	 2.132858220562263e+000
 3.840574901952600e-001	 1.294217850372561e+000	 2.061290103540301e+000
 3.714635900429202e-001	 1.297888593546341e+000	 1.997822992936126e+000
 5.061302256434931e-001	 1.278458913973559e+000	 3.499669528229361e+000
 4.934243050755545e-001	 1.283416321850965e+000	 3.328709895389231e+000
 4.806966873093129e-001	 1.288237437293681e+000	 3.172480031595025e+000
 4.679494608852972e-001	 1.292922388271131e+000	 3.029837380143677e+000
 4.551847024564146e-001	 1.297471343299627e+000	 2.899692609737324e+000
 4.424044758603211e-001	 1.301884510918475e+000	 2.781011105124304e+000
 4.296108312136884e-001	 1.306162139142497e+000	 2.672814301054820e+000
 4.168058040289929e-001	 1.310304514891883e+000	 2.574180859564658e+000
 4.039914143544084e-001	 1.314311963400354e+000	 2.484247691048366e+000
 3.911696659373438e-001	 1.318184847602598e+000	 2.402210820017089e+000
 3.783425454121162e-001	 1.321923567501977e+000	 2.327326096854863e+000
 5.153325933810786e-001	 1.301703621498723e+000	 3.904391747012475e+000
 5.023956560751326e-001	 1.306751164064996e+000	 3.731339201674898e+000
 4.894366270764604e-001	 1.311659936152317e+000	 3.572480831053406e+000
 4.764576328990545e-001	 1.316430068056832e+000	 3.426592460584057e+000
 4.634607879531473e-001	 1.321061731358781e+000	 3.292506834342817e+000
 4.504481936007150e-001	 1.325555138389096e+000	 3.169115200631885e+000
 4.374219372332774e-001	 1.329910541671960e+000	 3.055368731169104e+000
 4.243840913726281e-001	 1.334128233344292e+000	 2.950279773892574e+000
 4.113367127950888e-001	 1.338208544553154e+000	 2.852922939866733e+000
 3.982818416798388e-001	 1.342151844832047e+000	 2.762436025232419e+000
 3.852215007818186e-001	 1.345958541457120e+000	 2.678020769593461e+000
 5.245349611186642e-001	 1.324948329022888e+000	 4.303828425842111e+000
 5.113670070747159e-001	 1.330086006278032e+000	 4.131692738785562e+000
 4.981765668436284e-001	 1.335082435009975e+000	 3.973116296819347e+000
 4.849658049128581e-001	 1.339937747841579e+000	 3.826788235613580e+000
 4.717368734499620e-001	 1.344652119417017e+000	 3.691458510165955e+000
 4.584919113412370e-001	 1.349225765858846e+000	 3.565939579776075e+000
 4.452330432530504e-001	 1.353658944200606e+000	 3.449107916457266e+000
 4.319623787165131e-001	 1.357951951795951e+000	 3.339905336796169e+000
 4.186820112360947e-001	 1.362105125705279e+000	 3.237340157769412e+000
 4.053940174227448e-001	 1.366118842060906e+000	 3.140488177515144e+000
 3.921004561520270e-001	 1.369993515411769e+000	 3.048493482529373e+000
 5.337373288562498e-001	 1.348193036546053e+000	 4.695809027839237e+000
 5.203383580743043e-001	 1.353420848490073e+000	 4.527684288448886e+000
 5.069165066108171e-001	 1.358504933866653e+000	 4.372382949618436e+000
 4.934739769267079e-001	 1.363445427625372e+000	 4.228502279813835e+000
 4.800129589468590e-001	 1.368242507474335e+000	 4.094704478712800e+000
 4.665356290818870e-001	 1.372896393327723e+000	 3.969718466103066e+000
 4.530441492730074e-001	 1.377407346728437e+000	 3.852341483588630e+000
 4.395406660606480e-001	 1.381775670246859e+000	 3.741440509111001e+000
 4.260273096774264e-001	 1.386001706856731e+000	 3.635953484822773e+000
 4.125061931660621e-001	 1.390085839289177e+000	 3.534890359366219e+000
 3.989794115227419e-001	 1.394028489365924e+000	 3.437333946109074e+000
 5.429396965938355e-001	 1.371437744068218e+000	 5.078139666655786e+000
 5.293097090738980e-001	 1.376755690701119e+000	 4.917207142747086e+000
 5.156564463780266e-001	 1.381927432722353e+000	 4.768259631933963e+000
 5.019821489406041e-001	 1.386953107408211e+000	 4.629797251559189e+000
 4.882890444438380e-001	 1.391832895530736e+000	 4.500389377043097e+000
 4.745793468226650e-001	 1.396567020795728e+000	 4.378676539332159e+000
 4.608552552931485e-001	 1.401155749255452e+000	 4.263372124054856e+000
 4.471189534050329e-001	 1.405599388697018e+000	 4.153263872386903e+000
 4.333726081190836e-001	 1.409898288007507e+000	 4.047215184194310e+000
 4.196183689097904e-001	 1.414052836516859e+000	 3.944166224562445e+000
 4.058583668939629e-001	 1.418063463319586e+000	 3.843134835350798e+000
 5.521420643314210e-001	 1.394682451589383e+000	 5.448605052263795e+000
 5.382810600734966e-001	 1.400090532911170e+000	 5.298135811587356e+000
 5.243963861452564e-001	 1.405349931577071e+000	 5.158708981193135e+000
 5.104903209545467e-001	 1.410460787190097e+000	 5.028722136034270e+000
 4.965651299408992e-001	 1.415423283586218e+000	 4.906646654807870e+000
 4.826230645635711e-001	 1.420237648262862e+000	 4.791029730674553e+000
 4.686663613134736e-001	 1.424904151781651e+000	 4.680496172101039e+000
 4.546972407496676e-001	 1.429423107146426e+000	 4.573749993828292e+000
 4.407179065610664e-001	 1.433794869157610e+000	 4.469575798561101e+000
 4.267305446539296e-001	 1.438019833743952e+000	 4.366839950550401e+000
 4.127373222656903e-001	 1.442098437272754e+000	 4.264491542796763e+000
 3.439477685711992e-001	 1.201748697718857e+000	 2.439061792781582e+000
 3.322836559344022e-001	 1.205025963190290e+000	 2.264177718979139e+000
 3.206182221117185e-001	 1.208182087106841e+000	 2.097154234592061e+000
 3.089532222566899e-001	 1.211217530589606e+000	 1.938349260920529e+000
 2.972903932386897e-001	 1.214132785997952e+000	 1.788104235070042e+000
 2.856314530195621e-001	 1.216928376278658e+000	 1.646743830221234e+000
 2.739781000540936e-001	 1.219604854302598e+000	 1.514575714869884e+000
 2.623320127144961e-001	 1.222162802189878e+000	 1.391890350569502e+000
 2.506948487390460e-001	 1.224602830624363e+000	 1.278960827621057e+000
 2.390682447049865e-001	 1.226925578158476e+000	 1.176042738069771e+000
 2.274538155257646e-001	 1.229131710509183e+000	 1.083374085291503e+000
 3.508267239383701e-001	 1.225783671676468e+000	 1.918638271769742e+000
 3.389293290488262e-001	 1.229126482457096e+000	 1.730162905567072e+000
 3.270305865497554e-001	 1.232345728851775e+000	 1.553045226639612e+000
 3.151322866977697e-001	 1.235441881204021e+000	 1.387658257447214e+000
 3.032362010996294e-001	 1.238415441720392e+000	 1.234354931474660e+000
 2.913440820764148e-001	 1.241266943806600e+000	 1.093467850558108e+000
 2.794576620520075e-001	 1.243996951390936e+000	 9.653090856465461e-001
 2.675786529660631e-001	 1.246606058235910e+000	 8.501700203693601e-001
 2.557087457116227e-001	 1.249094887239062e+000	 7.483212366866426e-001
 2.438496095974737e-001	 1.251464089723864e+000	 6.989589203764801e-001
 2.320028918353312e-001	 1.253714344721621e+000	 6.804769208336584e-001
 3.577056793060472e-001	 1.249818645633586e+000	 1.413852405670161e+000
 3.455750021638407e-001	 1.253227001723497e+000	 1.313673692319852e+000
 3.334429509884362e-001	 1.256509370596373e+000	 1.228420172047474e+000
 3.213113511395162e-001	 1.259666231818150e+000	 1.151859244017577e+000
 3.091820089612280e-001	 1.262698097442573e+000	 1.083597450921814e+000
 2.970567111338883e-001	 1.265605511334292e+000	 1.023291691566119e+000
 2.849372240504742e-001	 1.268389048479013e+000	 9.706490540049676e-001
 2.728252932180850e-001	 1.271049314281647e+000	 9.254265368512283e-001
 2.607226426845268e-001	 1.273586943853415e+000	 8.874306621968185e-001
 2.486309744901316e-001	 1.276002601288834e+000	 8.565169837884888e-001
 2.365519681448832e-001	 1.278296978933551e+000	 8.325894942934675e-001
 3.645846346742306e-001	 1.273853619590210e+000	 1.690928531101473e+000
 3.522206752794460e-001	 1.277327520989495e+000	 1.581956392632305e+000
 3.398553154277613e-001	 1.280673012340635e+000	 1.483275781379540e+000
 3.274904155819297e-001	 1.283890582431992e+000	 1.394392393443761e+000
 3.151278168234856e-001	 1.286980753164496e+000	 1.314864430571786e+000
 3.027693401919827e-001	 1.289944078861733e+000	 1.244302592025862e+000
 2.904167860494936e-001	 1.292781145566826e+000	 1.182369944843944e+000
 2.780719334705617e-001	 1.295492570327091e+000	 1.128781675807118e+000
 2.657365396577585e-001	 1.298079000467422e+000	 1.083304728672173e+000
 2.534123393829606e-001	 1.300541112853388e+000	 1.045757330449531e+000
 2.411010444544205e-001	 1.302879613144973e+000	 1.016008410711028e+000
 3.714635900429202e-001	 1.297888593546341e+000	 1.997822992936126e+000
 3.588663483956419e-001	 1.301428040255088e+000	 1.875857177492211e+000
 3.462676798677306e-001	 1.304836654084563e+000	 1.765133381099514e+000
 3.336694800250099e-001	 1.308114933045548e+000	 1.665104801238049e+000
 3.210736246864022e-001	 1.311263408886161e+000	 1.575279492240250e+000
 3.084819692506980e-001	 1.314282646388924e+000	 1.495220399819182e+000
 2.958963480490659e-001	 1.317173242654377e+000	 1.424545267012632e+000
 2.833185737234933e-001	 1.319935826372240e+000	 1.362926414977392e+000
 2.707504366313177e-001	 1.322571057081083e+000	 1.310090402325743e+000
 2.581937042759604e-001	 1.325079624417525e+000	 1.265817566933811e+000
 2.456501207639431e-001	 1.327462247355889e+000	 1.229941454367977e+000
 3.783425454121162e-001	 1.321923567501977e+000	 2.327326096854863e+000
 3.655120215124286e-001	 1.325528559520277e+000	 2.194013587862783e+000
 3.526800443083439e-001	 1.329000295828156e+000	 2.072690644361778e+000
 3.398485444687569e-001	 1.332339283658817e+000	 1.962755809468580e+000
 3.270194325499777e-001	 1.335546064607567e+000	 1.863665090127759e+000
 3.141945983100343e-001	 1.338621213915864e+000	 1.774932033325027e+000
 3.013759100491909e-001	 1.341565339741666e+000	 1.696127666334422e+000
 2.885652139768799e-001	 1.344379082417094e+000	 1.626880304562838e+000
 2.757643336052044e-001	 1.347063113694399e+000	 1.566875230831232e+000
 2.629750691691311e-001	 1.349618135981245e+000	 1.515854250182568e+000
 2.501991970734510e-001	 1.352044881566296e+000	 1.473615124541162e+000
 3.852215007818186e-001	 1.345958541457120e+000	 2.678020769593461e+000
 3.721576946298060e-001	 1.349629078785063e+000	 2.535069923228028e+000
 3.590924087496013e-001	 1.353163937571413e+000	 2.404654524670326e+000
 3.460276089131706e-001	 1.356563634271800e+000	 2.286116212786902e+000
 3.329652404142124e-001	 1.359828720328715e+000	 2.178856955467142e+000
 3.199072273699914e-001	 1.362959781442554e+000	 2.082339166611349e+000
 3.068554720498686e-001	 1.365957436828692e+000	 1.996085679356564e+000
 2.938118542307213e-001	 1.368822338461654e+000	 1.919679579244851e+000
 2.807782305794186e-001	 1.371555170307368e+000	 1.852763901332853e+000
 2.677564340624727e-001	 1.374156647544548e+000	 1.795041195507398e+000
 2.547482733829443e-001	 1.376627515776197e+000	 1.746272964521036e+000
 3.921004561520270e-001	 1.369993515411769e+000	 3.048493482529373e+000
 3.788033677477742e-001	 1.373729598049444e+000	 2.897676648739770e+000
 3.655047731915029e-001	 1.377327579314336e+000	 2.759740441812938e+000
 3.522066733582515e-001	 1.380787984884496e+000	 2.633967253815171e+000
 3.389110482791060e-001	 1.384111376049604e+000	 2.519702931871365e+000
 3.256198564305694e-001	 1.387298348968993e+000	 2.416356935076514e+000
 3.123350340510992e-001	 1.390349533915456e+000	 2.323402339427249e+000
 2.990584944850177e-001	 1.393265594505920e+000	 2.240375694634366e+000
 2.857921275539603e-001	 1.396047226919992e+000	 2.166876736983258e+000
 2.725377989559853e-001	 1.398695159107434e+000	 2.102567962697742e+000
 2.592973496924230e-001	 1.401210149985591e+000	 2.047174066522614e+000
 3.989794115227419e-001	 1.394028489365924e+000	 3.437333946109074e+000
 3.854490408663330e-001	 1.397830117313421e+000	 3.280489863694694e+000
 3.719171376340487e-001	 1.401491221056923e+000	 3.136671552009028e+000
 3.583857378039989e-001	 1.405012335496905e+000	 3.005099722458895e+000
 3.448568561446585e-001	 1.408394031770236e+000	 2.885061931162996e+000
 3.313324854917683e-001	 1.411636916495181e+000	 2.775912774989413e+000
 3.178145960528824e-001	 1.414741631001957e+000	 2.677073926971154e+000
 3.043051347397689e-001	 1.417708850549892e+000	 2.588034015122727e+000
 2.908060245288295e-001	 1.420539283532269e+000	 2.508348349011665e+000
 2.773191638496687e-001	 1.423233670669902e+000	 2.437638498738670e+000
 2.638464260018870e-001	 1.425792784194477e+000	 2.375591731261259e+000
 4.058583668939629e-001	 1.418063463319586e+000	 3.843134835350798e+000
 3.920947139854824e-001	 1.421930636576994e+000	 3.682170824064393e+000
 3.783295020772386e-001	 1.425654862799175e+000	 3.534178092279759e+000
 3.645648022504132e-001	 1.429236686109027e+000	 3.398313146815382e+000
 3.508026640108701e-001	 1.432676687490608e+000	 3.273802995389933e+000
 3.370451145535881e-001	 1.435975484021120e+000	 3.159945381043169e+000
 3.232941580552187e-001	 1.439133728088196e+000	 3.056108846855778e+000
 3.095517749949749e-001	 1.442152106593569e+000	 2.961732635171704e+000
 2.958199215040263e-001	 1.445031340144201e+000	 2.876326425869930e+000
 2.821005287435230e-001	 1.447772182231954e+000	 2.799469918556632e+000
 2.683955023113362e-001	 1.450375418402855e+000	 2.730812263842209e+000
 4.127373222656903e-001	 1.442098437272754e+000	 4.264491542796763e+000
 3.987403871052226e-001	 1.446031155840163e+000	 4.101385512772206e+000
 3.847418665210725e-001	 1.449818504541092e+000	 3.950996790381232e+000
 3.707438666974943e-001	 1.453461036720863e+000	 3.812415064990655e+000
 3.567484718777406e-001	 1.456959343210722e+000	 3.684804452640517e+000
 3.427577436160288e-001	 1.460314051546808e+000	 3.567403768152879e+000
 3.287737200581075e-001	 1.463525825174173e+000	 3.459526618021485e+000
 3.147984152506359e-001	 1.466595362636951e+000	 3.360561318473923e+000
 3.008338184795505e-001	 1.469523396755786e+000	 3.269970643463940e+000
 2.868818936375482e-001	 1.472310693793589e+000	 3.187291407691484e+000
 2.729445786207708e-001	 1.474958052610726e+000	 3.112133890061571e+000
 2.274538155257646e-001	 1.229131710509183e+000	 1.083374085291503e+000
 2.158531539728275e-001	 1.231221919845279e+000	 9.441592188904121e-001
 2.042678302214702e-001	 1.233196924069199e+000	 8.156245925536325e-001
 1.926993914209578e-001	 1.235057466092679e+000	 6.979447310831155e-001
 1.811493612893029e-001	 1.236804313105527e+000	 5.912775485371254e-001
 1.696192397320706e-001	 1.238438255840743e+000	 4.957644128331996e-001
 1.581105024852513e-001	 1.239960107836013e+000	 4.115302402677165e-001
 1.466246007820464e-001	 1.241370704692402e+000	 3.386836188700738e-001
 1.351629610433849e-001	 1.242670903331058e+000	 2.773169594683382e-001
 1.237269845919663e-001	 1.243861581248700e+000	 2.275066733103587e-001
 1.123180473895901e-001	 1.244943635772666e+000	 1.893133750525986e-001
 2.320028918353312e-001	 1.253714344721621e+000	 6.804769208336584e-001
 2.201702170519754e-001	 1.255846358244472e+000	 6.093787998617370e-001
 2.083531868261118e-001	 1.257860862552874e+000	 5.441361296699991e-001
 1.965533792499917e-001	 1.259758615416796e+000	 4.848138428839507e-001
 1.847723485159892e-001	 1.261540399369842e+000	 4.315210652564511e-001
 1.730116245277816e-001	 1.263207020959674e+000	 3.844100738629412e-001
 1.612727125360804e-001	 1.264759309994731e+000	 3.436751840724528e-001
 1.495570927987517e-001	 1.266198118788100e+000	 3.095515698189564e-001
 1.378662202651445e-001	 1.267524321399351e+000	 2.823140217407131e-001
 1.262015242844133e-001	 1.268738812875140e+000	 2.622756477845314e-001
 1.145644083375946e-001	 1.269842508489349e+000	 2.497865208840246e-001
 2.365519681448832e-001	 1.278296978933551e+000	 8.325894942934675e-001
 2.244872801309242e-001	 1.280470796643069e+000	 7.555614316490396e-001
 2.124385434304010e-001	 1.282524801035884e+000	 6.852328583804028e-001
 2.004073670785509e-001	 1.284459764740199e+000	 6.216418571119318e-001
 1.883953357421090e-001	 1.286276485633416e+000	 5.648728243137117e-001
 1.764040093228645e-001	 1.287975786077856e+000	 5.150554135745030e-001
 1.644349225862496e-001	 1.289558512152712e+000	 4.723634029483085e-001
 1.524895848147954e-001	 1.291025532883092e+000	 4.370134911053509e-001
 1.405694794862699e-001	 1.292377739466991e+000	 4.092640270685436e-001
 1.286760639762829e-001	 1.293616044500996e+000	 3.894136783476428e-001
 1.168107692851074e-001	 1.294741381205540e+000	 3.778000423017584e-001
 2.411010444544205e-001	 1.302879613144973e+000	 1.016008410711028e+000
 2.288043432096740e-001	 1.305095235041069e+000	 9.325194040311640e-001
 2.165239000343380e-001	 1.307188739518228e+000	 8.563633256847567e-001
 2.042613549066354e-001	 1.309160914062888e+000	 7.875517985379893e-001
 1.920183229676621e-001	 1.311012571896248e+000	 7.261451024817017e-001
 1.797963941173191e-001	 1.312744551195289e+000	 6.722510983910963e-001
 1.675971326357591e-001	 1.314357714309955e+000	 6.260240711991481e-001
 1.554220768301773e-001	 1.315852946977379e+000	 5.876634970383547e-001
 1.432727387067614e-001	 1.317231157533977e+000	 5.574127394581568e-001
 1.311506036675752e-001	 1.318493276126271e+000	 5.355576797641446e-001
 1.190571302321284e-001	 1.319640253921239e+000	 5.224252865443768e-001
 2.456501207639431e-001	 1.327462247355889e+000	 1.229941454367977e+000
 2.331214062882249e-001	 1.329719673438472e+000	 1.139528549403442e+000
 2.206092566379227e-001	 1.331852677999906e+000	 1.056872303688869e+000
 2.081153427342451e-001	 1.333862063384863e+000	 9.819581998398347e-001
 1.956413101926485e-001	 1.335748658158338e+000	 9.148229457320533e-001
 1.831887789111455e-001	 1.337513316311971e+000	 8.555533747644164e-001
 1.707593426846086e-001	 1.339156916466462e+000	 8.042852600154007e-001
 1.583545688448976e-001	 1.340680361070961e+000	 7.612020474836414e-001
 1.459759979266187e-001	 1.342084575600310e+000	 7.265335136653581e-001
 1.336251433582900e-001	 1.343370507750963e+000	 7.005543527612814e-001
 1.213034911786578e-001	 1.344539126636447e+000	 6.835826988321441e-001
 2.501991970734510e-001	 1.352044881566296e+000	 1.473615124541162e+000
 2.374384693665767e-001	 1.354344111835278e+000	 1.375883060714964e+000
 2.246946132411551e-001	 1.356516616480918e+000	 1.286122229668037e+000
 2.119693305613802e-001	 1.358563212706124e+000	 1.204292225870450e+000
 1.992642974170683e-001	 1.360484744419687e+000	 1.130406665085775e+000
 1.865811637043437e-001	 1.362282081427904e+000	 1.064532056558189e+000
 1.739215527327984e-001	 1.363956118622231e+000	 1.006786583604791e+000
 1.612870608589561e-001	 1.365507775163839e+000	 9.573387980574819e-001
 1.486792571458419e-001	 1.366937993665990e+000	 9.164062340661603e-001
 1.360996830484276e-001	 1.368247739375074e+000	 8.842539468211970e-001
 1.235498521246955e-001	 1.369437999351162e+000	 8.611929817812771e-001
 2.547482733829443e-001	 1.376627515776197e+000	 1.746272964521036e+000
 2.417555324447295e-001	 1.378968550231487e+000	 1.640893852133694e+000
 2.287799698440352e-001	 1.381180554961264e+000	 1.543491628819906e+000
 2.158233183880405e-001	 1.383264362026671e+000	 1.454000188642265e+000
 2.028872846409215e-001	 1.385220830680293e+000	 1.372410473662629e+000
 1.899735484969136e-001	 1.387050846543088e+000	 1.298769313672171e+000
 1.770837627803283e-001	 1.388755320777263e+000	 1.233178168566241e+000
 1.642195528723530e-001	 1.390335189256011e+000	 1.175791779077615e+000
 1.513825163644310e-001	 1.391791411731016e+000	 1.126816731655217e+000
 1.385742227379879e-001	 1.393124970998602e+000	 1.086509943327849e+000
 1.257962130702414e-001	 1.394336872065386e+000	 1.055177072422160e+000
 2.592973496924230e-001	 1.401210149985591e+000	 2.047174066522614e+000
 2.460725955226833e-001	 1.403592988627099e+000	 1.933887092272890e+000
 2.328653264465631e-001	 1.405844493440945e+000	 1.828373703043245e+000
 2.196773062142260e-001	 1.407965511346504e+000	 1.730542218629198e+000
 2.065102718642081e-001	 1.409956916940157e+000	 1.640361267198732e+000
 1.933659332888553e-001	 1.411819611657522e+000	 1.557858588179232e+000
 1.802459728271983e-001	 1.413554522931558e+000	 1.483119731750024e+000
 1.671520448850882e-001	 1.415162603347478e+000	 1.416286660940258e+000
 1.540857755823860e-001	 1.416644829795389e+000	 1.357556262412520e+000
 1.410487624269708e-001	 1.418002202621548e+000	 1.307178772066794e+000
 1.280425740152957e-001	 1.419235744779119e+000	 1.265456121636703e+000
 2.638464260018870e-001	 1.425792784194477e+000	 2.375591731261259e+000
 2.503896586004381e-001	 1.428217427022114e+000	 2.254202889152464e+000
 2.369506830487388e-001	 1.430508431919961e+000	 2.140175065705174e+000
 2.235312940399369e-001	 1.432666660665623e+000	 2.033391073519892e+000
 2.101332590869281e-001	 1.434693003199280e+000	 1.933797530717653e+000
 1.967583180801687e-001	 1.436588376771206e+000	 1.841403622586640e+000
 1.834081828734086e-001	 1.438353725085116e+000	 1.756279753512016e+000
 1.700845368971617e-001	 1.439990017438240e+000	 1.678556095492823e+000
 1.567890347997069e-001	 1.441498247859109e+000	 1.608421039632294e+000
 1.435233021153763e-001	 1.442879434243912e+000	 1.546119557052752e+000
 1.302889349598582e-001	 1.444134617492359e+000	 1.491951475722899e+000
 2.683955023113362e-001	 1.450375418402855e+000	 2.730812263842209e+000
 2.547067216779939e-001	 1.452841865416533e+000	 2.601194108893791e+000
 2.410360396505621e-001	 1.455172370398310e+000	 2.478314605076068e+000
 2.273852818651730e-001	 1.457367809984029e+000	 2.362031068114888e+000
 2.137562463090814e-001	 1.459429089457661e+000	 2.252268356387380e+000
 2.001507028708540e-001	 1.461357141884142e+000	 2.149017586917358e+000
 1.865703929189590e-001	 1.463152927237936e+000	 2.052334735043924e+000
 1.730170289085735e-001	 1.464817431528297e+000	 1.962339124385379e+000
 1.594922940163937e-001	 1.466351665922175e+000	 1.879211813811591e+000
 1.459978418032046e-001	 1.467756665865694e+000	 1.803193888205004e+000
 1.325352959039290e-001	 1.469033490205109e+000	 1.734584659834179e+000
 2.729445786207708e-001	 1.474958052610726e+000	 3.112133890061571e+000
 2.590237847553507e-001	 1.477466303810354e+000	 2.974225312544258e+000
 2.451213962520330e-001	 1.479836308875993e+000	 2.842222461420804e+000
 2.312392696899343e-001	 1.482068959301720e+000	 2.715957111233864e+000
 2.173792335306681e-001	 1.484165175715300e+000	 2.595332559591615e+000
 2.035430876609109e-001	 1.486125906996327e+000	 2.480322293084384e+000
 1.897326029638495e-001	 1.487952129390019e+000	 2.370968529970071e+000
 1.759495209193236e-001	 1.489644845617649e+000	 2.267380646587187e+000
 1.621955532324464e-001	 1.491205083984588e+000	 2.169733494550102e+000
 1.484723814904554e-001	 1.492633897486894e+000	 2.078265615855475e+000
 1.347816568475081e-001	 1.493932362917365e+000	 1.993277363074640e+000
 1.123180473895901e-001	 1.244943635772666e+000	 1.893133750525986e-001
 1.009374997969171e-001	 1.245917983316647e+000	 1.238003846787008e-001
 8.958666635718569e-002	 1.246785558636688e+000	 6.927721948618215e-002
 7.826684560235818e-002	 1.247547314088946e+000	 2.581098259396241e-002
 6.697930988018169e-002	 1.248204218890639e+000	-6.546094730189828e-003
 5.572530520361981e-002	 1.248757258383706e+000	-2.775638962561929e-002
 4.450605112168756e-002	 1.249207433302222e+000	-3.779660498480143e-002
 3.332274061130324e-002	 1.249555759044168e+000	-3.665746883001802e-002
 2.217653998975738e-002	 1.249803264948180e+000	-2.434341696120976e-002
 1.106858884738389e-002	 1.249950993575827e+000	-8.722601124785833e-004
 0.000000000000000e+000	 1.250000000000000e+000	 3.372516315444514e-002
 1.145644083375946e-001	 1.269842508489349e+000	 2.497865208840246e-001
 1.029562497926623e-001	 1.270836342983972e+000	 2.085444975662947e-001
 9.137839968381835e-002	 1.271721269810203e+000	 1.745186259966096e-001
 7.983218251366320e-002	 1.272498260371322e+000	 1.482031479388760e-001
 6.831889607689809e-002	 1.273168303268888e+000	 1.301239017092894e-001
 5.683981130674506e-002	 1.273732403551682e+000	 1.208367217342573e-001
 4.539617214319856e-002	 1.274191581968459e+000	 1.209258130966243e-001
 3.398919542271439e-002	 1.274546874225160e+000	 1.310021054494661e-001
 2.262007078892794e-002	 1.274799330247191e+000	 1.517015905869097e-001
 1.128996062397893e-002	 1.274950013447355e+000	 1.836836478613080e-001
 0.000000000000000e+000	 1.275000000000000e+000	 2.276293615279694e-001
 1.168107692851074e-001	 1.294741381205540e+000	 3.778000423017584e-001
 1.049749997880107e-001	 1.295754702650900e+000	 3.391915266804085e-001
 9.317013301013843e-002	 1.296656980983405e+000	 3.080512244109987e-001
 8.139751942472966e-002	 1.297449206653458e+000	 2.848562244422557e-001
 6.965848227343983e-002	 1.298132387646963e+000	 2.701175772203059e-001
 5.795431740974947e-002	 1.298707548719538e+000	 2.643786379537526e-001
 4.628629316463252e-002	 1.299175730634619e+000	 2.682133818137102e-001
 3.465565023408233e-002	 1.299537989406108e+000	 2.822246956947784e-001
 2.306360158807937e-002	 1.299795395546184e+000	 3.070426510721631e-001
 1.151133240056920e-002	 1.299949033318879e+000	 3.433227623858459e-001
 0.000000000000000e+000	 1.300000000000000e+000	 3.917442352733040e-001
 1.190571302321284e-001	 1.319640253921239e+000	 5.224252865443768e-001
 1.069937497829620e-001	 1.320673062317432e+000	 4.827123613145556e-001
 9.496186633614591e-002	 1.321592692156296e+000	 4.505416662510093e-001
 8.296285633555761e-002	 1.322400152935356e+000	 4.263757706014966e-001
 7.099806846980696e-002	 1.323096472024863e+000	 4.107137244555147e-001
 5.906882351263302e-002	 1.323682693887272e+000	 4.040893395658318e-001
 4.717641418598938e-002	 1.324159879300702e+000	 4.070694389622130e-001
 3.532210504540707e-002	 1.324529104587013e+000	 4.202520802450150e-001
 2.350713238721168e-002	 1.324791460845157e+000	 4.442647573521785e-001
 1.173270417715471e-002	 1.324948053190398e+000	 4.797625854871570e-001
 0.000000000000000e+000	 1.325000000000000e+000	 5.274264737818302e-001
 1.213034911786578e-001	 1.344539126636447e+000	 6.835826988321441e-001
 1.090124997775164e-001	 1.345591421983566e+000	 6.391651058679660e-001
 9.675359966184079e-002	 1.346528403328873e+000	 6.021849484284999e-001
 8.452819324614709e-002	 1.347351099217016e+000	 5.730928506770938e-001
 7.233765466599945e-002	 1.348060556402588e+000	 5.523785946365232e-001
 6.018332961539571e-002	 1.348657839054886e+000	 5.405693323758585e-001
 4.806653520726916e-002	 1.349144027966708e+000	 5.382277637538817e-001
 3.598855985668861e-002	 1.349520219767875e+000	 5.459502848814825e-001
 2.395066318632485e-002	 1.349787526144111e+000	 5.643651123708477e-001
 1.195407595373545e-002	 1.349947073061912e+000	 5.941303883289332e-001
 0.000000000000000e+000	 1.350000000000000e+000	 6.359322709345859e-001
 1.235498521246955e-001	 1.369437999351162e+000	 8.611929817812771e-001
 1.110312497716739e-001	 1.370509781649304e+000	 8.085999016388075e-001
 9.854533298722308e-002	 1.371464114501138e+000	 7.631596602176700e-001
 8.609353015649802e-002	 1.372302045498437e+000	 7.253134582487205e-001
 7.367724086201732e-002	 1.373024640780139e+000	 6.955444923213184e-001
 6.129783571803756e-002	 1.373632984222379e+000	 6.743760921989752e-001
 4.895665622847188e-002	 1.374128176632637e+000	 6.623698203582749e-001
 3.665501466792696e-002	 1.374511334948694e+000	 6.601235392040934e-001
 2.439419398541888e-002	 1.374783591443046e+000	 6.682694513167093e-001
 1.217544773031143e-002	 1.374946092933421e+000	 6.874721179725535e-001
 0.000000000000000e+000	 1.375000000000000e+000	 7.184264610577849e-001
 1.257962130702414e-001	 1.394336872065386e+000	 1.055177072422160e+000
 1.130499997654344e-001	 1.395428141314644e+000	 9.910596378156326e-001
 1.003370663122928e-001	 1.396399825673090e+000	 9.336294482228100e-001
 8.765886706661044e-002	 1.397252991779620e+000	 8.833207546689481e-001
 7.501682705786056e-002	 1.397988725157515e+000	 8.406128063565350e-001
 6.241234182055857e-002	 1.398608129389751e+000	 8.060279068232432e-001
 4.984677724959753e-002	 1.399112325298489e+000	 7.801294288883320e-001
 3.732146947912210e-002	 1.399502450129469e+000	 7.635197941474681e-001
 2.483772478449378e-002	 1.399779656741962e+000	 7.568384226724630e-001
 1.239681950688264e-002	 1.399945112804926e+000	 7.607596584576736e-001
 0.000000000000000e+000	 1.400000000000000e+000	 7.759906760259006e-001
 1.280425740152957e-001	 1.419235744779119e+000	 1.265456121636703e+000
 1.150687497587980e-001	 1.420346500979588e+000	 1.186580587627108e+000
 1.021287996370500e-001	 1.421335536844730e+000	 1.113744327138720e+000
 8.922420397648437e-002	 1.422203938060564e+000	 1.047377071890165e+000
 7.635641325352915e-002	 1.422952809534717e+000	 9.879567217819842e-001
 6.352684792295871e-002	 1.423583274557002e+000	 9.360073135559714e-001
 5.073689827064610e-002	 1.424096473964263e+000	 8.920969447038608e-001
 3.798792429027404e-002	 1.424493565310201e+000	 8.568356587060138e-001
 2.528125558354956e-002	 1.424775722040858e+000	 8.308732975750862e-001
 1.261819128344908e-002	 1.424944132676426e+000	 8.148973275586210e-001
 0.000000000000000e+000	 1.425000000000000e+000	 8.096306437223340e-001
 1.302889349598582e-001	 1.444134617492359e+000	 1.491951475722899e+000
 1.170874997517646e-001	 1.445264860644134e+000	 1.395192978683396e+000
 1.039205329614944e-001	 1.446271248016057e+000	 1.303641854915351e+000
 9.078954088611978e-002	 1.447154884341270e+000	 1.217725708102505e+000
 7.769599944902313e-002	 1.447916893911744e+000	 1.137923651193216e+000
 6.464135402523800e-002	 1.448558419724132e+000	 1.064764181161933e+000
 5.162701929161759e-002	 1.449080622629961e+000	 9.988230053728823e-001
 3.865437910138279e-002	 1.449484680490890e+000	 9.407208259631890e-001
 2.572478638258620e-002	 1.449771787339736e+000	 8.911210885526029e-001
 1.283956306001076e-002	 1.449943152547921e+000	 8.507277014621403e-001
 0.000000000000000e+000	 1.450000000000000e+000	 8.202827314868916e-001
 1.325352959039290e-001	 1.469033490205109e+000	 1.734584659834179e+000
 1.191062497443342e-001	 1.470183220308284e+000	 1.616921505317041e+000
 1.057122662856264e-001	 1.471206959187071e+000	 1.503448188414147e+000
 9.235487779551667e-002	 1.472105830621737e+000	 1.394592540764641e+000
 7.903558564434246e-002	 1.472880978288596e+000	 1.290837418847122e+000
 6.575586012739645e-002	 1.473533564891142e+000	 1.192718478383667e+000
 5.251714031251203e-002	 1.474064771295581e+000	 1.100821896586281e+000
 3.932083391244833e-002	 1.474475795671536e+000	 1.015782049016331e+000
 2.616831718160371e-002	 1.474767852638594e+000	 9.382791477112632e-001
 1.306093483656768e-002	 1.474942172419411e+000	 8.690368471057542e-001
 0.000000000000000e+000	 1.475000000000000e+000	 8.088198241279717e-001
 1.347816568475081e-001	 1.493932362917365e+000	 1.993277363074640e+000
 1.211249997365069e-001	 1.495101579972037e+000	 1.851785789688968e+000
 1.075039996094458e-001	 1.496142670357773e+000	 1.713279033498892e+000
 9.392021470467503e-002	 1.497056776901965e+000	 1.578187478331321e+000
 8.037517183948716e-002	 1.497845062665274e+000	 1.447000226356674e+000
 6.687036622943404e-002	 1.498508710058030e+000	 1.320262765610087e+000
 5.340726133332937e-002	 1.499048919961125e+000	 1.198574581480868e+000
 3.998728872347066e-002	 1.499466910852138e+000	 1.082586719308521e+000
 2.661184798060209e-002	 1.499763917937434e+000	 9.729993051040857e-001
 1.328230661311983e-002	 1.499941192290897e+000	 8.705590312814687e-001
 0.000000000000000e+000	 1.500000000000000e+000	 7.760566141335408e-001
 1.500000000000000e+000	 0.000000000000000e+000	 1.560284426146480e+001
 1.499941192290897e+000	 1.328230661311987e-002	 1.563365021274579e+001
 1.499763917937433e+000	 2.661184798060218e-002	 1.565600735478381e+001
 1.499466910852138e+000	 3.998728872347057e-002	 1.566972020887931e+001
 1.499048919961125e+000	 5.340726133332932e-002	 1.567459058871764e+001
 1.498508710058030e+000	 6.687036622943404e-002	 1.567041736413207e+001
 1.497845062665274e+000	 8.037517183948720e-002	 1.565699621793081e+001
 1.497056776901965e+000	 9.392021470467514e-002	 1.563411939633152e+001
 1.496142670357773e+000	 1.075039996094457e-001	 1.560157545359607e+001
 1.495101579972036e+000	 1.211249997365068e-001	 1.555914899150890e+001
 1.493932362917365e+000	 1.347816568475081e-001	 1.550662039439234e+001
 1.525000000000000e+000	 0.000000000000000e+000	 1.533276755063299e+001
 1.524940212162383e+000	 1.350367838967202e-002	 1.536573575139562e+001
 1.524759983236273e+000	 2.705537877960056e-002	 1.538958640009447e+001
 1.524458026032741e+000	 4.065374353449290e-002	 1.540415487172941e+001
 1.524033068626668e+000	 5.429738235414668e-002	 1.540927470705670e+001
 1.523483855224919e+000	 6.798487233147164e-002	 1.540477734917312e+001
 1.522809147041952e+000	 8.171475803463191e-002	 1.539049187123518e+001
 1.522007723182194e+000	 9.548555161383354e-002	 1.536624469586218e+001
 1.521078381528475e+000	 1.092957329332650e-001	 1.533185930682546e+001
 1.520019939635789e+000	 1.231437497286795e-001	 1.528715595368202e+001
 1.518831235629623e+000	 1.370280177910873e-001	 1.523195135006514e+001
 1.550000000000000e+000	 0.000000000000000e+000	 1.506430316796055e+001
 1.549939232033873e+000	 1.372505016622894e-002	 1.510031776748301e+001
 1.549756048535131e+000	 2.749890957861807e-002	 1.512656715472529e+001
 1.549449141213386e+000	 4.132019834555844e-002	 1.514291804667038e+001
 1.549017217292289e+000	 5.518750337504110e-002	 1.514923619007098e+001
 1.548459000391928e+000	 6.909937843363008e-002	 1.514538606961291e+001
 1.547773231418804e+000	 8.305434422995126e-002	 1.513123060525572e+001
 1.546958669462661e+000	 9.705088852323041e-002	 1.510663083930566e+001
 1.546014092699489e+000	 1.110874662573969e-001	 1.507144561383504e+001
 1.544938299299939e+000	 1.251624997212492e-001	 1.502553123912252e+001
 1.543730108342372e+000	 1.392743787351581e-001	 1.496874115384907e+001
 1.575000000000000e+000	 0.000000000000000e+000	 1.479900266801532e+001
 1.574938251905368e+000	 1.394642194279062e-002	 1.483881929123762e+001
 1.574752113834008e+000	 2.794244037765472e-002	 1.486824336123189e+001
 1.574440256394075e+000	 4.198665315666719e-002	 1.488717347550801e+001
 1.574001365957986e+000	 5.607762439601260e-002	 1.489550811713651e+001
 1.573434145559059e+000	 7.021388453590939e-002	 1.489314533322276e+001
 1.572737315795831e+000	 8.439393042544521e-002	 1.487998240056930e+001
 1.571909615743366e+000	 9.861622543286584e-002	 1.485591547908939e+001
 1.570949803870816e+000	 1.128791995818415e-001	 1.482083925359934e+001
 1.569856658964486e+000	 1.271812497142157e-001	 1.477464656468246e+001
 1.568628981055612e+000	 1.415207396797206e-001	 1.471722802938316e+001
 1.600000000000000e+000	 0.000000000000000e+000	 1.453832063320480e+001
 1.599937271776867e+000	 1.416779371935706e-002	 1.458257179921965e+001
 1.599748179132905e+000	 2.838597117671049e-002	 1.461582268306075e+001
 1.599431371574808e+000	 4.265310796781913e-002	 1.463800435011563e+001
 1.598985514623761e+000	 5.696774541706117e-002	 1.464904859998268e+001
 1.598409290726310e+000	 7.132839063830954e-002	 1.464888761396106e+001
 1.597701400173032e+000	 8.573351662111382e-002	 1.463745358770625e+001
 1.596860562024311e+000	 1.001815623427397e-001	 1.461467834962437e+001
 1.595885515042456e+000	 1.146709329065986e-001	 1.458049296564766e+001
 1.594775018629429e+000	 1.291999997075793e-001	 1.453482733110471e+001
 1.593527853769345e+000	 1.437671006247749e-001	 1.447760975046915e+001
 1.625000000000000e+000	 0.000000000000000e+000	 1.428362213317303e+001
 1.624936291648372e+000	 1.438916549592827e-002	 1.433282225690980e+001
 1.624744244431821e+000	 2.882950197578540e-002	 1.437043332601917e+001
 1.624422486755583e+000	 4.331956277901426e-002	 1.439641950858270e+001
 1.623969663289613e+000	 5.785786643818681e-002	 1.441074654943422e+001
 1.623384435893682e+000	 7.244289674083053e-002	 1.441338138534342e+001
 1.622665484550409e+000	 8.707310281695706e-002	 1.440429174330780e+001
 1.621811508305494e+000	 1.017468992528522e-001	 1.438344572253716e+001
 1.620821226214409e+000	 1.164626662316683e-001	 1.435081136079055e+001
 1.619693378294770e+000	 1.312187497013398e-001	 1.430635618580053e+001
 1.618426726483569e+000	 1.460134615703208e-001	 1.425004675259742e+001
 1.650000000000000e+000	 0.000000000000000e+000	 1.403618950607064e+001
 1.649935311519882e+000	 1.461053727250425e-002	 1.409073952106374e+001
 1.649740309730756e+000	 2.927303277487944e-002	 1.413313005779332e+001
 1.649413601936402e+000	 4.398601759025260e-002	 1.416335906807724e+001
 1.648953811955542e+000	 5.874798745938953e-002	 1.418142691790395e+001
 1.648359581061175e+000	 7.355740284347238e-002	 1.418733596896109e+001
 1.647629568927959e+000	 8.841268901297490e-002	 1.418109014117816e+001
 1.646762454586914e+000	 1.033122361632031e-001	 1.416269445688086e+001
 1.645756937386674e+000	 1.182543995570506e-001	 1.413215456723476e+001
 1.644611737960507e+000	 1.332374996954973e-001	 1.408947626173826e+001
 1.643325599198285e+000	 1.482598225163584e-001	 1.403466496160687e+001
 1.675000000000000e+000	 0.000000000000000e+000	 1.379722853254678e+001
 1.674934331391396e+000	 1.483190904908500e-002	 1.385742016872151e+001
 1.674736375029710e+000	 2.971656357399260e-002	 1.390489968840506e+001
 1.674404717117263e+000	 4.465247240153415e-002	 1.393969955327276e+001
 1.673937960621548e+000	 5.963810848066933e-002	 1.396185547240857e+001
 1.673334726228788e+000	 7.467190894623507e-002	 1.397140594880349e+001
 1.672593653305685e+000	 8.975227520916740e-002	 1.396839180473512e+001
 1.671713400868574e+000	 1.048775730737926e-001	 1.395285568664048e+001
 1.670692648559251e+000	 1.200461328827455e-001	 1.392484155018058e+001
 1.669530097626642e+000	 1.352562496900517e-001	 1.388439412628232e+001
 1.668224471913492e+000	 1.505061834628878e-001	 1.383155836903202e+001
 1.700000000000000e+000	 0.000000000000000e+000	 1.356787406497726e+001
 1.699933351262914e+000	 1.505328082567050e-002	 1.363389381189234e+001
 1.699732440328683e+000	 3.016009437312491e-002	 1.368666606709898e+001
 1.699395832298168e+000	 4.531892721285889e-002	 1.372625857226693e+001
 1.698922109287630e+000	 6.052822950202618e-002	 1.375274314643597e+001
 1.698309871396523e+000	 7.578641504911864e-002	 1.376619519608205e+001
 1.697557737683585e+000	 9.109186140553453e-002	 1.376669320189125e+001
 1.696664347150472e+000	 1.064429099846206e-001	 1.375431818287024e+001
 1.695628359732141e+000	 1.218378662087530e-001	 1.372915313851339e+001
 1.694448457293174e+000	 1.372749996850030e-001	 1.369128246984052e+001
 1.693123344629191e+000	 1.527525444099089e-001	 1.364079138021355e+001
 1.725000000000000e+000	 0.000000000000000e+000	 1.334919516719442e+001
 1.724932371134438e+000	 1.527465260226077e-002	 1.342112795009324e+001
 1.724728505627676e+000	 3.060362517227634e-002	 1.347929464471756e+001
 1.724386947479116e+000	 4.598538202422683e-002	 1.352379908589867e+001
 1.723906257953790e+000	 6.141835052346012e-002	 1.355475001338934e+001
 1.723285016564378e+000	 7.690092115212302e-002	 1.357226054406895e+001
 1.722521822061660e+000	 9.243144760207629e-002	 1.357644761864128e+001
 1.721615293432609e+000	 1.080082468956870e-001	 1.356743142347123e+001
 1.720564070905344e+000	 1.236295995350730e-001	 1.354533478830476e+001
 1.719366816960102e+000	 1.392937496803514e-001	 1.351028256071591e+001
 1.718022217345382e+000	 1.549989053574217e-001	 1.346240095822539e+001
 1.750000000000000e+000	 0.000000000000000e+000	 1.314219981366882e+001
 1.749931391005967e+000	 1.549602437885581e-002	 1.322003240695549e+001
 1.749724570926687e+000	 3.104715597144690e-002	 1.328359664501559e+001
 1.749378062660108e+000	 4.665183683563796e-002	 1.333303331112380e+001
 1.748890406620027e+000	 6.230847154497113e-002	 1.336848891945036e+001
 1.748260161732354e+000	 7.801542725524827e-002	 1.339011514795007e+001
 1.747485906439909e+000	 9.377103379879266e-002	 1.339806824348473e+001
 1.746566239714984e+000	 1.095735838069920e-001	 1.339250839984503e+001
 1.745499782078859e+000	 1.254213328617057e-001	 1.337359910944189e+001
 1.744285176627427e+000	 1.413124996760966e-001	 1.334150648954285e+001
 1.742921090062065e+000	 1.572452663054261e-001	 1.329639858403660e+001
 1.493932362917365e+000	 1.347816568475081e-001	 1.550662039439234e+001
 1.492633897486894e+000	 1.484723814904555e-001	 1.554569154323245e+001
 1.491205083984588e+000	 1.621955532324464e-001	 1.557474602189259e+001
 1.489644845617648e+000	 1.759495209193235e-001	 1.559363369715763e+001
 1.487952129390018e+000	 1.897326029638494e-001	 1.560220060980657e+001
 1.486125906996327e+000	 2.035430876609109e-001	 1.560028864625988e+001
 1.484165175715299e+000	 2.173792335306682e-001	 1.558773520780015e+001
 1.482068959301720e+000	 2.312392696899344e-001	 1.556437287839586e+001
 1.479836308875994e+000	 2.451213962520329e-001	 1.553002909220705e+001
 1.477466303810354e+000	 2.590237847553505e-001	 1.548452580189983e+001
 1.474958052610726e+000	 2.729445786207708e-001	 1.542767914894115e+001
 1.518831235629623e+000	 1.370280177910873e-001	 1.523195135006514e+001
 1.517511129108093e+000	 1.509469211777063e-001	 1.527374609527163e+001
 1.516058502047001e+000	 1.648988124484991e-001	 1.530506628538780e+001
 1.514472259707000e+000	 1.788820129300736e-001	 1.532579224320618e+001
 1.512751331542102e+000	 1.928948130087400e-001	 1.533580096631648e+001
 1.510894672108513e+000	 2.069354724509679e-001	 1.533496575995159e+001
 1.508901261972938e+000	 2.210022207522549e-001	 1.532315586592712e+001
 1.506770108619411e+000	 2.350932575146958e-001	 1.530023608875512e+001
 1.504500247353678e+000	 2.492067528535040e-001	 1.526606642006730e+001
 1.502090742204176e+000	 2.633408478327073e-001	 1.522050166253583e+001
 1.499540686818598e+000	 2.774936549302055e-001	 1.516339105452970e+001
 1.543730108342372e+000	 1.392743787351581e-001	 1.496874115384907e+001
 1.542388360729875e+000	 1.534214608655346e-001	 1.501392556595240e+001
 1.540911920110067e+000	 1.676020716651859e-001	 1.504820631803188e+001
 1.539299673797057e+000	 1.818145049414854e-001	 1.507149473574457e+001
 1.537550533694922e+000	 1.960570230542904e-001	 1.508369929864671e+001
 1.535663437221448e+000	 2.103278572416532e-001	 1.508472523264690e+001
 1.533637348231319e+000	 2.246252079744082e-001	 1.507447409706164e+001
 1.531471257937816e+000	 2.389472453399320e-001	 1.505284336740808e+001
 1.529164185832027e+000	 2.532921094553273e-001	 1.501972601512906e+001
 1.526715180598594e+000	 2.676579109102631e-001	 1.497501008550306e+001
 1.524123321026977e+000	 2.820427312396547e-001	 1.491857827504682e+001
 1.568628981055612e+000	 1.415207396797206e-001	 1.471722802938316e+001
 1.567265592352239e+000	 1.558960005539401e-001	 1.476635581722258e+001
 1.565765338173787e+000	 1.703053308825068e-001	 1.480417924538252e+001
 1.564127087887819e+000	 1.847469969535589e-001	 1.483064123936143e+001
 1.562349735848479e+000	 1.992192331005007e-001	 1.484568233668161e+001
 1.560432202335132e+000	 2.137202420329665e-001	 1.484924023731851e+001
 1.558373434490442e+000	 2.282481951971282e-001	 1.484124934722843e+001
 1.556172407256935e+000	 2.428012331656428e-001	 1.482164031616697e+001
 1.553828124311042e+000	 2.573774660575029e-001	 1.479033957105604e+001
 1.551339618993610e+000	 2.719749739880180e-001	 1.474726884621990e+001
 1.548705955235862e+000	 2.865918075491187e-001	 1.469234471187188e+001
 1.593527853769345e+000	 1.437671006247749e-001	 1.447760975046915e+001
 1.592142823975186e+000	 1.583705402429230e-001	 1.453112683076067e+001
 1.590618756238160e+000	 1.730085901004618e-001	 1.457296693150657e+001
 1.588954501979286e+000	 1.876794889662941e-001	 1.460310522378652e+001
 1.587148938002774e+000	 2.023814431473708e-001	 1.462151492852708e+001
 1.585200967449566e+000	 2.171126268249083e-001	 1.462816682323729e+001
 1.583109520750306e+000	 2.318711824204148e-001	 1.462302874032396e+001
 1.580873556576769e+000	 2.466552209918284e-001	 1.460606505824017e+001
 1.578492062790723e+000	 2.614628226600308e-001	 1.457723618679046e+001
 1.575964057389222e+000	 2.762920370659717e-001	 1.453649804798524e+001
 1.573288589445256e+000	 2.911408838585972e-001	 1.448380155390230e+001
 1.618426726483569e+000	 1.460134615703208e-001	 1.425004675259742e+001
 1.617020055598714e+000	 1.608450799324833e-001	 1.430829546799649e+001
 1.615472174303186e+000	 1.757118493190510e-001	 1.435452238371016e+001
 1.613781916071458e+000	 1.906119809796909e-001	 1.438873560964897e+001
 1.611948140157806e+000	 2.055436531949006e-001	 1.441094172372416e+001
 1.609969732564750e+000	 2.205050116174782e-001	 1.442114523318010e+001
 1.607845607010913e+000	 2.354941696442680e-001	 1.441934802597252e+001
 1.605574705897316e+000	 2.505092088184886e-001	 1.440554881350929e+001
 1.603156001271070e+000	 2.655481792629110e-001	 1.437974256614707e+001
 1.600588495785431e+000	 2.806091001441246e-001	 1.434191994291080e+001
 1.597871223655156e+000	 2.956899601680906e-001	 1.429206671697541e+001
 1.643325599198285e+000	 1.482598225163584e-001	 1.403466496160687e+001
 1.641897287222824e+000	 1.633196196226208e-001	 1.409788797922103e+001
 1.640325592368866e+000	 1.784151085382741e-001	 1.414877193865680e+001
 1.638609330164336e+000	 1.935444729937495e-001	 1.418735862825770e+001
 1.636747342313576e+000	 2.087058632430904e-001	 1.421368870344335e+001
 1.634738497680683e+000	 2.238973964106763e-001	 1.422780110089141e+001
 1.632581693272261e+000	 2.391171568686879e-001	 1.422973244121341e+001
 1.630275855218577e+000	 2.543631966456236e-001	 1.421951642150865e+001
 1.627819939752082e+000	 2.696335358661433e-001	 1.419718319926215e+001
 1.625212934182237e+000	 2.849261632224763e-001	 1.416275876913234e+001
 1.622453857865564e+000	 3.002390364775985e-001	 1.411626433425160e+001
 1.668224471913492e+000	 1.505061834628878e-001	 1.383155836903202e+001
 1.666774518847517e+000	 1.657941593133357e-001	 1.389990228799954e+001
 1.665179010435199e+000	 1.811183677581314e-001	 1.395561725271390e+001
 1.663436744257917e+000	 1.964769650084698e-001	 1.399877951483416e+001
 1.661546544470082e+000	 2.118680732919400e-001	 1.402946457364659e+001
 1.659507262797366e+000	 2.272897812045027e-001	 1.404774654130960e+001
 1.657317779534351e+000	 2.427401440936744e-001	 1.405369749502221e+001
 1.654977004540552e+000	 2.582171844732334e-001	 1.404738681757037e+001
 1.652483878233760e+000	 2.737188924697280e-001	 1.402888052779346e+001
 1.649837372579640e+000	 2.892432263010272e-001	 1.399824060259876e+001
 1.647036492076480e+000	 3.047881127871212e-001	 1.395552429223515e+001
 1.693123344629191e+000	 1.527525444099089e-001	 1.364079138021355e+001
 1.691651750472792e+000	 1.682686990046280e-001	 1.371431007401920e+001
 1.690032428502185e+000	 1.838216269786229e-001	 1.377493711668035e+001
 1.688264158352205e+000	 1.994094570238517e-001	 1.382278405234235e+001
 1.686345746627326e+000	 2.150302833414494e-001	 1.385796203532317e+001
 1.684276027914798e+000	 2.306821659989574e-001	 1.388058114459686e+001
 1.682053865797183e+000	 2.463631313192274e-001	 1.389074968360968e+001
 1.679678153863241e+000	 2.620711723013178e-001	 1.388857346695706e+001
 1.677147816716104e+000	 2.778042490736650e-001	 1.387415509554353e+001
 1.674461810977640e+000	 2.935602893797770e-001	 1.384759322193889e+001
 1.671619126287902e+000	 3.093371890966585e-001	 1.380898180773400e+001
 1.718022217345382e+000	 1.549989053574217e-001	 1.346240095822539e+001
 1.716528982098648e+000	 1.707432386964976e-001	 1.354105867481922e+001
 1.714885846569825e+000	 1.865248861997483e-001	 1.360658911271179e+001
 1.713091572447198e+000	 2.023419490398953e-001	 1.365913998107262e+001
 1.711144948785307e+000	 2.181924933916186e-001	 1.369885894427032e+001
 1.709044793032979e+000	 2.340745507940402e-001	 1.372589288373156e+001
 1.706789952060757e+000	 2.499861185453471e-001	 1.374038714352047e+001
 1.704379303186644e+000	 2.659251601298770e-001	 1.374248476124354e+001
 1.701811755199113e+000	 2.818896056779543e-001	 1.373232568598549e+001
 1.699086249376236e+000	 2.978773524587258e-001	 1.371004598507882e+001
 1.696201760499832e+000	 3.138862654062104e-001	 1.367577704160610e+001
 1.742921090062065e+000	 1.572452663054261e-001	 1.329639858403660e+001
 1.741406213725087e+000	 1.732177783889446e-001	 1.338007282451572e+001
 1.739739264638117e+000	 1.892281454215079e-001	 1.345041112922363e+001
 1.737918986542895e+000	 2.052744410566007e-001	 1.350759828740407e+001
 1.735944150944025e+000	 2.213547034424477e-001	 1.355181937146405e+001
 1.733813558151911e+000	 2.374669355897513e-001	 1.358325894430716e+001
 1.731526038325072e+000	 2.536091057720335e-001	 1.360210024875229e+001
 1.729080452510761e+000	 2.697791479589110e-001	 1.360852438072316e+001
 1.726475693682788e+000	 2.859749622825957e-001	 1.360270944800079e+001
 1.723710687775429e+000	 3.021944155378737e-001	 1.358482971643490e+001
 1.720784394712270e+000	 3.184353417157770e-001	 1.355505474561275e+001
 1.474958052610726e+000	 2.729445786207708e-001	 1.542767914894115e+001
 1.472310693793589e+000	 2.868818936375483e-001	 1.546445794393303e+001
 1.469523396755786e+000	 3.008338184795506e-001	 1.548880993074597e+001
 1.466595362636951e+000	 3.147984152506358e-001	 1.550048262762711e+001
 1.463525825174173e+000	 3.287737200581074e-001	 1.549921665169029e+001
 1.460314051546808e+000	 3.427577436160288e-001	 1.548474546619053e+001
 1.456959343210722e+000	 3.567484718777407e-001	 1.545679513820643e+001
 1.453461036720863e+000	 3.707438666974944e-001	 1.541508410807667e+001
 1.449818504541093e+000	 3.847418665210725e-001	 1.535932297195307e+001
 1.446031155840162e+000	 3.987403871052225e-001	 1.528921427884463e+001
 1.442098437272754e+000	 4.127373222656903e-001	 1.520445234353436e+001
 1.499540686818598e+000	 2.774936549302055e-001	 1.516339105452970e+001
 1.496849205355224e+000	 2.916632585315759e-001	 1.519828438910743e+001
 1.494015453367372e+000	 3.058477154550846e-001	 1.522102722093416e+001
 1.491038618680334e+000	 3.200450555063186e-001	 1.523140698693552e+001
 1.487917922260149e+000	 3.342532820610352e-001	 1.522920402098142e+001
 1.484652619072495e+000	 3.484703726785304e-001	 1.521419123965606e+001
 1.481241998930835e+000	 3.626942797446991e-001	 1.518613383779095e+001
 1.477685387332699e+000	 3.769229311446956e-001	 1.514478899522540e+001
 1.473982146283009e+000	 3.911542309650635e-001	 1.508990559627925e+001
 1.470131675103331e+000	 4.053860602251622e-001	 1.502122396343941e+001
 1.466133411225922e+000	 4.196162776376646e-001	 1.493847560677182e+001
 1.524123321026977e+000	 2.820427312396547e-001	 1.491857827504682e+001
 1.521387716917276e+000	 2.964446234254375e-001	 1.495275798374559e+001
 1.518507509979304e+000	 3.108616124303102e-001	 1.497508374072675e+001
 1.515481874724011e+000	 3.252916957615901e-001	 1.498538297120602e+001
 1.512310019346388e+000	 3.397328440634879e-001	 1.498347576281386e+001
 1.508991186598434e+000	 3.541830017405329e-001	 1.496917448854730e+001
 1.505524654651208e+000	 3.686400876111746e-001	 1.494228343886375e+001
 1.501909737944822e+000	 3.831019955914700e-001	 1.490259846450313e+001
 1.498145788025261e+000	 3.975665954087249e-001	 1.484990663164959e+001
 1.494232194366904e+000	 4.120317333449101e-001	 1.478398589106449e+001
 1.490168385179583e+000	 4.264952330096262e-001	 1.470460476283738e+001
 1.548705955235862e+000	 2.865918075491187e-001	 1.469234471187188e+001
 1.545926228479745e+000	 3.012259883191330e-001	 1.472685950668826e+001
 1.542999566591581e+000	 3.158755094052278e-001	 1.474983791157123e+001
 1.539925130767982e+000	 3.305383360164504e-001	 1.476114747398635e+001
 1.536702116432889e+000	 3.452124060654656e-001	 1.476064813669538e+001
 1.533329754124622e+000	 3.598956308020363e-001	 1.474819179651166e+001
 1.529807310371839e+000	 3.745858954771669e-001	 1.472362187159889e+001
 1.526134088557231e+000	 3.892810600378177e-001	 1.468677287902573e+001
 1.522309429767849e+000	 4.039789598520567e-001	 1.463747002431810e+001
 1.518332713630881e+000	 4.186774064644661e-001	 1.457552880477489e+001
 1.514203359133739e+000	 4.333741883815753e-001	 1.450075462833226e+001
 1.573288589445256e+000	 2.911408838585972e-001	 1.448380155390230e+001
 1.570464740042631e+000	 3.060073532126624e-001	 1.451958260345243e+001
 1.567491623204205e+000	 3.208894063798373e-001	 1.454416659608679e+001
 1.564368386812248e+000	 3.357849762708993e-001	 1.455746139745251e+001
 1.561094213519653e+000	 3.506919680669683e-001	 1.455936696877623e+001
 1.557668321651062e+000	 3.656082598630407e-001	 1.454977485998097e+001
 1.554089966092728e+000	 3.805317033426761e-001	 1.452856771077009e+001
 1.550358439169927e+000	 3.954601244837385e-001	 1.449561876152037e+001
 1.546473071510771e+000	 4.103913242950586e-001	 1.445079137586019e+001
 1.542433232895262e+000	 4.253230795838303e-001	 1.439393857683745e+001
 1.538238333088388e+000	 4.402531437535119e-001	 1.432490259860500e+001
 1.597871223655156e+000	 2.956899601680906e-001	 1.429206671697541e+001
 1.595003251605933e+000	 3.107887181060257e-001	 1.432993279648705e+001
 1.591983679817174e+000	 3.259033033541385e-001	 1.435696367951259e+001
 1.588811642856809e+000	 3.410316165249370e-001	 1.437310780559129e+001
 1.585486310606679e+000	 3.561715300679960e-001	 1.437830537749194e+001
 1.582006889177752e+000	 3.713208889235460e-001	 1.437248778718783e+001
 1.578372621813876e+000	 3.864775112077023e-001	 1.435557704924314e+001
 1.574582789782909e+000	 4.016391889292326e-001	 1.432748524358646e+001
 1.570636713254029e+000	 4.168036887377308e-001	 1.428811396968637e+001
 1.566533752160047e+000	 4.319687527030027e-001	 1.423735381417608e+001
 1.562273307043531e+000	 4.471320991254358e-001	 1.417508383400185e+001
 1.622453857865564e+000	 3.002390364775985e-001	 1.411626433425160e+001
 1.619541763169654e+000	 3.155700829992230e-001	 1.415692658540537e+001
 1.616475736430489e+000	 3.309172003281314e-001	 1.418713878011542e+001
 1.613254898901664e+000	 3.462782567785635e-001	 1.420689024527515e+001
 1.609878407693968e+000	 3.616510920685486e-001	 1.421616170596601e+001
 1.606345456704692e+000	 3.770335179835523e-001	 1.421492464272640e+001
 1.602655277535283e+000	 3.924233190722453e-001	 1.420314065569616e+001
 1.598807140396178e+000	 4.078182533743000e-001	 1.418076083775070e+001
 1.594800354997622e+000	 4.232160531800731e-001	 1.414772515878219e+001
 1.590634271425236e+000	 4.386144258219835e-001	 1.410396186332206e+001
 1.586308280999167e+000	 4.540110544973471e-001	 1.404938688373069e+001
 1.647036492076480e+000	 3.047881127871212e-001	 1.395552429223515e+001
 1.644080274733790e+000	 3.203514478922541e-001	 1.399959062779360e+001
 1.640967793044150e+000	 3.359310973018163e-001	 1.403361607508303e+001
 1.637698154946812e+000	 3.515248970317786e-001	 1.405763121768857e+001
 1.634270504781519e+000	 3.671306540686263e-001	 1.407165763957043e+001
 1.630684024231883e+000	 3.827461470430594e-001	 1.407570721200284e+001
 1.626937933256947e+000	 3.983691269363053e-001	 1.406978138687243e+001
 1.623031491009734e+000	 4.139973178189407e-001	 1.405387049859194e+001
 1.618963996741549e+000	 4.296284176220855e-001	 1.402795307693387e+001
 1.614734790690830e+000	 4.452600989407723e-001	 1.399199517313002e+001
 1.610343254955297e+000	 4.608900098692461e-001	 1.394594970161761e+001
 1.671619126287902e+000	 3.093371890966585e-001	 1.380898180773400e+001
 1.668618786298344e+000	 3.251328127851191e-001	 1.385696099230111e+001
 1.665459849658157e+000	 3.409449942751929e-001	 1.389533323001528e+001
 1.662141410992255e+000	 3.567715372845824e-001	 1.392417078462882e+001
 1.658662601869333e+000	 3.726102160682289e-001	 1.394353648958402e+001
 1.655022591759324e+000	 3.884587761020676e-001	 1.395348296294046e+001
 1.651220588978870e+000	 4.043149347998821e-001	 1.395405182816385e+001
 1.647255841623576e+000	 4.201763822631545e-001	 1.394527294317855e+001
 1.643127638485812e+000	 4.360407820637685e-001	 1.392716364014025e+001
 1.638835309956827e+000	 4.519057720593693e-001	 1.389972797843055e+001
 1.634378228911922e+000	 4.677689652411324e-001	 1.386295601341448e+001
 1.696201760499832e+000	 3.138862654062104e-001	 1.367577704160610e+001
 1.693157297863315e+000	 3.299141776778182e-001	 1.372808247667930e+001
 1.689951906272511e+000	 3.459588912482614e-001	 1.377124042150299e+001
 1.686584667037993e+000	 3.620181775369750e-001	 1.380536529599763e+001
 1.683054698957409e+000	 3.780897780673563e-001	 1.383056162609754e+001
 1.679361159287015e+000	 3.941714051605766e-001	 1.384692318492767e+001
 1.675503244701052e+000	 4.102607426629759e-001	 1.385453213936110e+001
 1.671480192237705e+000	 4.263554467069415e-001	 1.385345820451129e+001
 1.667291280230411e+000	 4.424531465051215e-001	 1.384375780877113e+001
 1.662935829223229e+000	 4.585514451777745e-001	 1.382547327206120e+001
 1.658413202869040e+000	 4.746479206130062e-001	 1.379863199999282e+001
 1.720784394712270e+000	 3.184353417157770e-001	 1.355505474561275e+001
 1.717695809428702e+000	 3.346955425703510e-001	 1.361200798427434e+001
 1.714443962887209e+000	 3.509727882210215e-001	 1.366029944348564e+001
 1.711027923084025e+000	 3.672648177889562e-001	 1.370008622636512e+001
 1.707446796045747e+000	 3.835693400660090e-001	 1.373151504524158e+001
 1.703699726814957e+000	 3.998840342185866e-001	 1.375472128728484e+001
 1.699785900423492e+000	 4.162065505255865e-001	 1.376982808505368e+001
 1.695704542852120e+000	 4.325345111503018e-001	 1.377694539467093e+001
 1.691454921975343e+000	 4.488655109461448e-001	 1.377616908439807e+001
 1.687036348490034e+000	 4.651971182959880e-001	 1.376758003643717e+001
 1.682448176826651e+000	 4.815268759848673e-001	 1.375124326483530e+001
 1.442098437272754e+000	 4.127373222656903e-001	 1.520445234353436e+001
 1.438019833743952e+000	 4.267305446539297e-001	 1.526376064809217e+001
 1.433794869157610e+000	 4.407179065610665e-001	 1.531194447897011e+001
 1.429423107146426e+000	 4.546972407496674e-001	 1.534884833804685e+001
 1.424904151781651e+000	 4.686663613134735e-001	 1.537430699182184e+001
 1.420237648262862e+000	 4.826230645635711e-001	 1.538814518178466e+001
 1.415423283586218e+000	 4.965651299408992e-001	 1.539017735640423e+001
 1.410460787190097e+000	 5.104903209545468e-001	 1.538020742630897e+001
 1.405349931577071e+000	 5.243963861452563e-001	 1.535802854420279e+001
 1.400090532911170e+000	 5.382810600734965e-001	 1.532342291103045e+001
 1.394682451589383e+000	 5.521420643314209e-001	 1.527616160986665e+001
 1.466133411225922e+000	 4.196162776376646e-001	 1.493847560677182e+001
 1.461986830971045e+000	 4.338427203983612e-001	 1.500796141079831e+001
 1.457691450307712e+000	 4.480632050033768e-001	 1.506547957076412e+001
 1.453246825595835e+000	 4.622755280946553e-001	 1.511083976675526e+001
 1.448652554307850e+000	 4.764774673341675e-001	 1.514384148912249e+001
 1.443908275729996e+000	 4.906667823048521e-001	 1.516427376289429e+001
 1.439013671641701e+000	 5.048412154383311e-001	 1.517191489530727e+001
 1.433968466971982e+000	 5.189984929688458e-001	 1.516653224806517e+001
 1.428772430431791e+000	 5.331363259128183e-001	 1.514788203590831e+001
 1.423425375121222e+000	 5.472524110733928e-001	 1.511570915304108e+001
 1.417927159110548e+000	 5.613444320692591e-001	 1.506974702892289e+001
 1.490168385179583e+000	 4.264952330096262e-001	 1.470460476283738e+001
 1.485953828198727e+000	 4.409548961429656e-001	 1.478219963160062e+001
 1.481588031458489e+000	 4.554085034460164e-001	 1.484704295947359e+001
 1.477070544045993e+000	 4.698538154400996e-001	 1.489891107545925e+001
 1.472400956834864e+000	 4.842885733554153e-001	 1.493756961530297e+001
 1.467578903198001e+000	 4.987105000467546e-001	 1.496277325747569e+001
 1.462604059698101e+000	 5.131173009364222e-001	 1.497426548381639e+001
 1.457476146754822e+000	 5.275066649838112e-001	 1.497177836649058e+001
 1.452194929287489e+000	 5.418762656810237e-001	 1.495503238288991e+001
 1.446760217332268e+000	 5.562237620738787e-001	 1.492373626006026e+001
 1.441171866632713e+000	 5.705467998076025e-001	 1.487758685019984e+001
 1.514203359133739e+000	 4.333741883815753e-001	 1.450075462833226e+001
 1.509920825426997e+000	 4.480670718877428e-001	 1.458444142933581e+001
 1.505484612609940e+000	 4.627538018889853e-001	 1.465465156522977e+001
 1.500894262496902e+000	 4.774321027860001e-001	 1.471112946126905e+001
 1.496149359362695e+000	 4.920996793772168e-001	 1.475360829633458e+001
 1.491249530666879e+000	 5.067542177892784e-001	 1.478180974801798e+001
 1.486194447755420e+000	 5.213933864351719e-001	 1.479544376395248e+001
 1.480983826538614e+000	 5.360148369994428e-001	 1.479420836109808e+001
 1.475617428144168e+000	 5.506162054498723e-001	 1.477778945465582e+001
 1.470095059544309e+000	 5.651951130749543e-001	 1.474586071824320e+001
 1.464416574155878e+000	 5.797491675464509e-001	 1.469808347691525e+001
 1.538238333088388e+000	 4.402531437535119e-001	 1.432490259860500e+001
 1.533887822655857e+000	 4.551792476326931e-001	 1.441271068113630e+001
 1.529381193762066e+000	 4.700991003322836e-001	 1.448637533543860e+001
 1.524717980948561e+000	 4.850103901323571e-001	 1.454561050970768e+001
 1.519897761891341e+000	 4.999107853995722e-001	 1.459011830260280e+001
 1.514920158136628e+000	 5.147979355324236e-001	 1.461958871496596e+001
 1.509784835813656e+000	 5.296694719345808e-001	 1.463369942942033e+001
 1.504491506323362e+000	 5.445230090157410e-001	 1.463211561961382e+001
 1.499039927001826e+000	 5.593561452193643e-001	 1.461448979083683e+001
 1.493429901757345e+000	 5.741664640766193e-001	 1.458046165369834e+001
 1.487661281680043e+000	 5.889515352858046e-001	 1.452965803249260e+001
 1.562273307043531e+000	 4.471320991254358e-001	 1.417508383400185e+001
 1.557854819885305e+000	 4.622914233778162e-001	 1.426508457948440e+001
 1.553277774914866e+000	 4.774443987759112e-001	 1.434033316575940e+001
 1.548541699400969e+000	 4.925886774791703e-001	 1.440051447252527e+001
 1.543646164420804e+000	 5.077218914224814e-001	 1.444530087626007e+001
 1.538590785607250e+000	 5.228416532761903e-001	 1.447435200610799e+001
 1.533375223872810e+000	 5.379455574346489e-001	 1.448731452932522e+001
 1.527999186109062e+000	 5.530311810327057e-001	 1.448382196811456e+001
 1.522462425860463e+000	 5.680960849894998e-001	 1.446349454963849e+001
 1.516764743971375e+000	 5.831378150788741e-001	 1.442593909095262e+001
 1.510905989205208e+000	 5.981539030256633e-001	 1.437074892054537e+001
 1.586308280999167e+000	 4.540110544973471e-001	 1.404938688373069e+001
 1.581821817115343e+000	 4.694035991231121e-001	 1.413968959317081e+001
 1.577174356068340e+000	 4.847896972198681e-001	 1.421468919190411e+001
 1.572365417854129e+000	 5.001669648264399e-001	 1.427404288389413e+001
 1.567394566951083e+000	 5.155329974459444e-001	 1.431739466518281e+001
 1.562261413078743e+000	 5.308853710205784e-001	 1.434437508147429e+001
 1.556965611932882e+000	 5.462216429353760e-001	 1.435460101700617e+001
 1.551506865895716e+000	 5.615393530503365e-001	 1.434767551660711e+001
 1.545884924720079e+000	 5.768360247602785e-001	 1.432318764279746e+001
 1.540099586186401e+000	 5.921091660817186e-001	 1.428071236973782e+001
 1.534150696731373e+000	 6.073562707660271e-001	 1.421981051577170e+001
 1.610343254955297e+000	 4.608900098692461e-001	 1.394594970161761e+001
 1.605788814345970e+000	 4.765157748685813e-001	 1.403469778995810e+001
 1.601070937222489e+000	 4.921349956641541e-001	 1.410764941351382e+001
 1.596189136308037e+000	 5.077452521741657e-001	 1.416443547963087e+001
 1.591142969482178e+000	 5.233441034699612e-001	 1.420467293149946e+001
 1.585932040551108e+000	 5.389290887655879e-001	 1.422796450496063e+001
 1.580555999993871e+000	 5.544977284367622e-001	 1.423389851837667e+001
 1.575014545683324e+000	 5.700475250686340e-001	 1.422204869754108e+001
 1.569307423580675e+000	 5.855759645317006e-001	 1.419197403755682e+001
 1.563434428402421e+000	 6.010805170851528e-001	 1.414321870355733e+001
 1.557395404258538e+000	 6.165586385068962e-001	 1.407531197208222e+001
 1.634378228911922e+000	 4.677689652411324e-001	 1.386295601341448e+001
 1.629755811577185e+000	 4.836279506142233e-001	 1.394832348371527e+001
 1.624967518377312e+000	 4.994802941087698e-001	 1.401745861592892e+001
 1.620012854762696e+000	 5.153235395223481e-001	 1.406996738825199e+001
 1.614891372014088e+000	 5.311552094945315e-001	 1.410544100642493e+001
 1.609602668024345e+000	 5.469728065112188e-001	 1.412345565727937e+001
 1.604146388055779e+000	 5.627738139388071e-001	 1.412357229717653e+001
 1.598522225471886e+000	 5.785556970875978e-001	 1.410533647739383e+001
 1.592729922442250e+000	 5.943159043037660e-001	 1.406827820846699e+001
 1.586769270619437e+000	 6.100518680891768e-001	 1.401191186543818e+001
 1.580640111786703e+000	 6.257610062482703e-001	 1.394945829571929e+001
 1.658413202869040e+000	 4.746479206130062e-001	 1.379863199999282e+001
 1.653722808808989e+000	 4.907401263600381e-001	 1.387882017310572e+001
 1.648864099532809e+000	 5.068255925537145e-001	 1.394239755963092e+001
 1.643836573218106e+000	 5.229018268709867e-001	 1.398894656628558e+001
 1.638639774546815e+000	 5.389663155196558e-001	 1.401803396641372e+001
 1.633273295498454e+000	 5.550165242574712e-001	 1.402921064778431e+001
 1.627736776118604e+000	 5.710498994415113e-001	 1.402201139715843e+001
 1.622029905261401e+000	 5.870638691072282e-001	 1.399595472376994e+001
 1.616152421304804e+000	 6.030558440764750e-001	 1.395054272381272e+001
 1.610104112837447e+000	 6.190232190937902e-001	 1.388526098796556e+001
 1.603884819315868e+000	 6.349633739901497e-001	 1.396726573557395e+001
 1.682448176826651e+000	 4.815268759848673e-001	 1.375124326483530e+001
 1.677689806041381e+000	 4.978523021060258e-001	 1.382447774267332e+001
 1.672760680688981e+000	 5.141708909989885e-001	 1.388078041058974e+001
 1.667660291674265e+000	 5.304801142200816e-001	 1.391971145341323e+001
 1.662388177080357e+000	 5.467774215453338e-001	 1.394081450849992e+001
 1.656943922973434e+000	 5.630602420043449e-001	 1.394361640528210e+001
 1.651327164182347e+000	 5.793259849448744e-001	 1.392762694351540e+001
 1.645537585051869e+000	 5.955720411275246e-001	 1.389233871246353e+001
 1.639574920168338e+000	 6.117957838498270e-001	 1.383722695320343e+001
 1.633438955056451e+000	 6.279945700989932e-001	 1.380691508999718e+001
 1.627129526846032e+000	 6.441657417325339e-001	 1.396461758122954e+001
 1.394682451589383e+000	 5.521420643314209e-001	 1.527616160986665e+001
 1.389125592786738e+000	 5.659771085778665e-001	 1.520706981188529e+001
 1.383419906972935e+000	 5.797838915960679e-001	 1.510844988236015e+001
 1.377565390400310e+000	 5.935601023727932e-001	 1.497923662886256e+001
 1.371562085562787e+000	 6.073034211979437e-001	 1.481836036569123e+001
 1.365410081623910e+000	 6.210115207841032e-001	 1.462474783004579e+001
 1.359109514813409e+000	 6.346820674049267e-001	 1.468922091628153e+001
 1.352660568791450e+000	 6.483127220513680e-001	 1.485030132759181e+001
 1.346063474979750e+000	 6.619011416047153e-001	 1.498898431300277e+001
 1.339318512858777e+000	 6.754449800253558e-001	 1.510440716670324e+001
 1.332426010230286e+000	 6.889418895561570e-001	 1.519569939106291e+001
 1.417927159110548e+000	 5.613444320692591e-001	 1.506974702892289e+001
 1.412277685994379e+000	 5.754100603868140e-001	 1.496402306294784e+001
 1.406476905416908e+000	 5.894469564555901e-001	 1.482967241012205e+001
 1.400524813568007e+000	 6.034527707454684e-001	 1.466568667305197e+001
 1.394421453649835e+000	 6.174251448845148e-001	 1.447105191969306e+001
 1.388166916311995e+000	 6.313617127971891e-001	 1.442650825592172e+001
 1.381761340054712e+000	 6.452601018617064e-001	 1.457540514768633e+001
 1.375204911599155e+000	 6.591179340855367e-001	 1.470451618558508e+001
 1.368497866224071e+000	 6.729328272979888e-001	 1.481305381301885e+001
 1.361640488067934e+000	 6.867023963587896e-001	 1.490022036720797e+001
 1.354633110395864e+000	 7.004242543815206e-001	 1.496520858254857e+001
 1.441171866632713e+000	 5.705467998076025e-001	 1.487758685019984e+001
 1.435429779203020e+000	 5.848430121961762e-001	 1.473865362967156e+001
 1.429533903861879e+000	 5.991100213154565e-001	 1.457200660579061e+001
 1.423484236736704e+000	 6.133454391184368e-001	 1.437669252418549e+001
 1.417280821737884e+000	 6.275468685713480e-001	 1.422044690107346e+001
 1.410923751001080e+000	 6.417119048105253e-001	 1.435586332791905e+001
 1.404413165297016e+000	 6.558381363187456e-001	 1.447397771791432e+001
 1.397749254407861e+000	 6.699231461199932e-001	 1.457408021826203e+001
 1.390932257469392e+000	 6.839645129915990e-001	 1.465544872842740e+001
 1.383962463278092e+000	 6.979598126926295e-001	 1.471734926633223e+001
 1.376840210562442e+000	 7.119066192073804e-001	 1.475903637857422e+001
 1.464416574155878e+000	 5.797491675464509e-001	 1.469808347691525e+001
 1.458581872412662e+000	 5.942759640059531e-001	 1.452917868530495e+001
 1.452590902307852e+000	 6.087730861756671e-001	 1.433348651868411e+001
 1.446443659906401e+000	 6.232381074916983e-001	 1.411010730666893e+001
 1.440140189826932e+000	 6.376685922584428e-001	 1.418604647207516e+001
 1.433680585691165e+000	 6.520620968241120e-001	 1.429171254677472e+001
 1.427064990540319e+000	 6.664161707760433e-001	 1.438180393885467e+001
 1.420293597217567e+000	 6.807283581547378e-001	 1.445567678360834e+001
 1.413366648715714e+000	 6.949961986855464e-001	 1.451267322925999e+001
 1.406284438489250e+000	 7.092172290268760e-001	 1.455212170785420e+001
 1.399047310730021e+000	 7.233889840337363e-001	 1.457333725244956e+001
 1.487661281680043e+000	 5.889515352858046e-001	 1.452965803249260e+001
 1.481733965623303e+000	 6.037089158161452e-001	 1.433384471773640e+001
 1.475647900754824e+000	 6.184361510362219e-001	 1.411218604378517e+001
 1.469403083077098e+000	 6.331307758652531e-001	 1.406095991770458e+001
 1.462999557916980e+000	 6.477903159457994e-001	 1.415269903591425e+001
 1.456437420382251e+000	 6.624122888379495e-001	 1.423117685362374e+001
 1.449716815784622e+000	 6.769942052336005e-001	 1.429583035490523e+001
 1.442837940028272e+000	 6.915335701897700e-001	 1.434608060872944e+001
 1.435801039963035e+000	 7.060278843798309e-001	 1.438133289695133e+001
 1.428606413701408e+000	 7.204746453615288e-001	 1.440097688979245e+001
 1.421254410898599e+000	 7.348713488605884e-001	 1.440438687002068e+001
 1.510905989205208e+000	 5.981539030256633e-001	 1.437074892054537e+001
 1.504886058834944e+000	 6.131418676267519e-001	 1.415092527452192e+001
 1.498704899202796e+000	 6.280992158971205e-001	 1.397621574659769e+001
 1.492362506248795e+000	 6.430234442391006e-001	 1.405252290753161e+001
 1.485858926008029e+000	 6.579120396334177e-001	 1.411775844415825e+001
 1.479194255074336e+000	 6.727624808520369e-001	 1.417144273425186e+001
 1.472368641029925e+000	 6.875722396914169e-001	 1.421307849431793e+001
 1.465382282839978e+000	 7.023387822250905e-001	 1.424215076145695e+001
 1.458235431211356e+000	 7.170595700744521e-001	 1.425812692346226e+001
 1.450928388914565e+000	 7.317320616965878e-001	 1.426045679869550e+001
 1.443461511068178e+000	 7.463537136879365e-001	 1.424857276716693e+001
 1.534150696731373e+000	 6.073562707660271e-001	 1.421981051577170e+001
 1.528038152047586e+000	 6.225748194377736e-001	 1.397871891291028e+001
 1.521761897651768e+000	 6.377622807583635e-001	 1.398735161496547e+001
 1.515321929421492e+000	 6.529161126132413e-001	 1.403769079193090e+001
 1.508718294100077e+000	 6.680337633212981e-001	 1.407863033170790e+001
 1.501951089767421e+000	 6.831126728663752e-001	 1.410975725359182e+001
 1.495020466276229e+000	 6.981502741494924e-001	 1.413063918860376e+001
 1.487926625652684e+000	 7.131439942606987e-001	 1.414082426089948e+001
 1.480669822460677e+000	 7.280912557694104e-001	 1.413984101957311e+001
 1.473250364128723e+000	 7.429894780320531e-001	 1.412719842263176e+001
 1.465668611238756e+000	 7.578360785157806e-001	 1.410238587479879e+001
 1.557395404258538e+000	 6.165586385068962e-001	 1.407531197208222e+001
 1.551190245261227e+000	 6.320077712492102e-001	 1.395391018523509e+001
 1.544818896101740e+000	 6.474253456199506e-001	 1.398767502050627e+001
 1.538281352595190e+000	 6.628087809876754e-001	 1.401406974373726e+001
 1.531577662193125e+000	 6.781554870094403e-001	 1.403276825236910e+001
 1.524707924461506e+000	 6.934628648809639e-001	 1.404342353489132e+001
 1.517672291523532e+000	 7.087283086078271e-001	 1.404566740064778e+001
 1.510470968466389e+000	 7.239492062965950e-001	 1.403911026018339e+001
 1.503104213710998e+000	 7.391229414647057e-001	 1.402334095825552e+001
 1.495572339343881e+000	 7.542468943679248e-001	 1.399792666152406e+001
 1.487875711410334e+000	 7.693184433441207e-001	 1.396241280281065e+001
 1.580640111786703e+000	 6.257610062482703e-001	 1.394945829571929e+001
 1.574342338475868e+000	 6.414407230610618e-001	 1.396494894667461e+001
 1.567875894552713e+000	 6.570884104818822e-001	 1.397497600488913e+001
 1.561240775769887e+000	 6.727014493624023e-001	 1.397930273261806e+001
 1.554437030287174e+000	 6.882772106978443e-001	 1.397767015540414e+001
 1.547464759156591e+000	 7.038130568958031e-001	 1.396979663777809e+001
 1.540324116771835e+000	 7.193063430664207e-001	 1.395537750916688e+001
 1.533015311281095e+000	 7.347544183327792e-001	 1.393408474248063e+001
 1.525538604962319e+000	 7.501546271603378e-001	 1.390556668774645e+001
 1.517894314560039e+000	 7.655043107042028e-001	 1.386944786304261e+001
 1.510082811582912e+000	 7.808008081729571e-001	 1.382532880486140e+001
 1.603884819315868e+000	 6.349633739901497e-001	 1.396726573557395e+001
 1.597494431691509e+000	 6.508736748733279e-001	 1.395908181746865e+001
 1.590932893004685e+000	 6.667514753441572e-001	 1.394707164216217e+001
 1.584200198945584e+000	 6.825941177374224e-001	 1.393106685863605e+001
 1.577296398382222e+000	 6.983989343865102e-001	 1.391087516846939e+001
 1.570221593852676e+000	 7.141632489108927e-001	 1.388627979475416e+001
 1.562975942021138e+000	 7.298843775252738e-001	 1.385703900321466e+001
 1.555559654096801e+000	 7.455596303692514e-001	 1.382288567825203e+001
 1.547972996214641e+000	 7.611863128563071e-001	 1.378352695652919e+001
 1.540216289777197e+000	 7.767617270408870e-001	 1.373864392059443e+001
 1.532289911756491e+000	 7.922831730022893e-001	 1.368789135491347e+001
 1.627129526846032e+000	 6.441657417325339e-001	 1.396461758122954e+001
 1.620646524908150e+000	 6.603066266860092e-001	 1.393428623771160e+001
 1.613989891457657e+000	 6.764145402067768e-001	 1.390180410786848e+001
 1.607159622122281e+000	 6.924867861127355e-001	 1.386707091436390e+001
 1.600155766478270e+000	 7.085206580754376e-001	 1.382996065630155e+001
 1.592978428549761e+000	 7.245134409262326e-001	 1.379032097027607e+001
 1.585627767271441e+000	 7.404624119843859e-001	 1.374797254572883e+001
 1.578103996913506e+000	 7.563648424060113e-001	 1.370270859758362e+001
 1.570407387467962e+000	 7.722179985526131e-001	 1.365429439902976e+001
 1.562538264995355e+000	 7.880191433779775e-001	 1.360246687719924e+001
 1.554497011931069e+000	 8.037655378321177e-001	 1.354693427435372e+001
 1.332426010230286e+000	 6.889418895561570e-001	 1.519569939106291e+001
 1.325386343444616e+000	 7.023895219395790e-001	 1.510003094973733e+001
 1.318199937591758e+000	 7.157855296464768e-001	 1.499481614585981e+001
 1.310867266655738e+000	 7.291275671160524e-001	 1.487987083845372e+001
 1.303388853632028e+000	 7.424132920061468e-001	 1.475499695911890e+001
 1.295765270607128e+000	 7.556403664517626e-001	 1.461998250244838e+001
 1.287997138799943e+000	 7.688064583308102e-001	 1.447460155974961e+001
 1.280085128564544e+000	 7.819092425357328e-001	 1.431861439691242e+001
 1.272029959353938e+000	 7.949464022496643e-001	 1.415176757714188e+001
 1.263832399644536e+000	 8.079156302257311e-001	 1.397379412913843e+001
 1.255493266821059e+000	 8.208146300681053e-001	 1.378441376117164e+001
 1.354633110395864e+000	 7.004242543815206e-001	 1.496520858254857e+001
 1.347476115830716e+000	 7.140960139710572e-001	 1.487694927851294e+001
 1.340169936547323e+000	 7.277152884728084e-001	 1.478060132028660e+001
 1.332715054429446e+000	 7.412796932332970e-001	 1.467598254233964e+001
 1.325112001189150e+000	 7.547868468713277e-001	 1.456289471073870e+001
 1.317361358447709e+000	 7.682343725574868e-001	 1.444112348896367e+001
 1.309463757777677e+000	 7.816198993009831e-001	 1.431043845081158e+001
 1.301419880705692e+000	 7.949410632424675e-001	 1.417059314133048e+001
 1.293230458675645e+000	 8.081955089514599e-001	 1.402132518658908e+001
 1.284896272971888e+000	 8.213808907269713e-001	 1.386235645294520e+001
 1.276418154602220e+000	 8.344948738999106e-001	 1.369339325632908e+001
 1.376840210562442e+000	 7.119066192073804e-001	 1.475903637857422e+001
 1.369565888217805e+000	 7.258025060031214e-001	 1.467819123903776e+001
 1.362139935503848e+000	 7.396450472997969e-001	 1.459074118257088e+001
 1.354562842204066e+000	 7.534318193512493e-001	 1.449650589927163e+001
 1.346835148747114e+000	 7.671604017372470e-001	 1.439528681322139e+001
 1.338957446289043e+000	 7.808283786639605e-001	 1.428686702320301e+001
 1.330930376756053e+000	 7.944333402718963e-001	 1.417101129440065e+001
 1.322754632847352e+000	 8.079728839499136e-001	 1.404746610212554e+001
 1.314430957997716e+000	 8.214446156539170e-001	 1.391595972846492e+001
 1.305960146299434e+000	 8.348461512288039e-001	 1.377620241259946e+001
 1.297343042383386e+000	 8.481751177322187e-001	 1.362788655537601e+001
 1.399047310730021e+000	 7.233889840337363e-001	 1.457333725244956e+001
 1.391655660605885e+000	 7.375089980357721e-001	 1.449988426912027e+001
 1.384109934461334e+000	 7.515748061274421e-001	 1.442133849180243e+001
 1.376410629979597e+000	 7.655839454699087e-001	 1.433752136486853e+001
 1.368558296305920e+000	 7.795339566039048e-001	 1.424823381041122e+001
 1.360553534131128e+000	 7.934223847711835e-001	 1.415325614332988e+001
 1.352396995735073e+000	 8.072467812435503e-001	 1.405234804140781e+001
 1.344089384989528e+000	 8.210047046580712e-001	 1.394524857152793e+001
 1.335631457320152e+000	 8.346937223570364e-001	 1.383167627301807e+001
 1.327024019627176e+000	 8.483114117312290e-001	 1.371132929895525e+001
 1.318267930164557e+000	 8.618553615650291e-001	 1.358388561608922e+001
 1.421254410898599e+000	 7.348713488605884e-001	 1.440438687002068e+001
 1.413745432994954e+000	 7.492154900690090e-001	 1.433827777236135e+001
 1.406079933419780e+000	 7.635045649557442e-001	 1.426861868033164e+001
 1.398258417756039e+000	 7.777360715892759e-001	 1.419523270906434e+001
 1.390281443865568e+000	 7.919075114713012e-001	 1.411792013451987e+001
 1.382149621973968e+000	 8.060163908791563e-001	 1.403645828237509e+001
 1.373863614714737e+000	 8.200602222159444e-001	 1.395060147602842e+001
 1.365424137132218e+000	 8.340365253669401e-001	 1.386008104497570e+001
 1.356831956642953e+000	 8.479428290608180e-001	 1.376460539464412e+001
 1.348087892955113e+000	 8.617766722342464e-001	 1.366386013859994e+001
 1.339192817945733e+000	 8.755356053983423e-001	 1.355750829386544e+001
 1.443461511068178e+000	 7.463537136879365e-001	 1.424857276716693e+001
 1.435835205385014e+000	 7.609219821028320e-001	 1.418973373617040e+001
 1.428049932379187e+000	 7.754343237847031e-001	 1.412892041736505e+001
 1.420106205533392e+000	 7.898881977093510e-001	 1.406595753039168e+001
 1.412004591426058e+000	 8.042810663394361e-001	 1.400064457625198e+001
 1.403745709817559e+000	 8.186103969878783e-001	 1.393275569940088e+001
 1.395330233695044e+000	 8.328736631890795e-001	 1.386203961320046e+001
 1.386758889275422e+000	 8.470683460765203e-001	 1.378821959009872e+001
 1.378032455966119e+000	 8.611919357652613e-001	 1.371099351772061e+001
 1.369151766283244e+000	 8.752419327378566e-001	 1.363003402187483e+001
 1.360117705726915e+000	 8.892158492321584e-001	 1.354498865728896e+001
 1.465668611238756e+000	 7.578360785157806e-001	 1.410238587479879e+001
 1.457924977776064e+000	 7.726284741372415e-001	 1.405071820268891e+001
 1.450019931339554e+000	 7.873640826143186e-001	 1.399868703041569e+001
 1.441953993311656e+000	 8.020403238301334e-001	 1.394611863260310e+001
 1.433727738987390e+000	 8.166546212083096e-001	 1.389281162128291e+001
 1.425341797661905e+000	 8.312044030973501e-001	 1.383853678055931e+001
 1.416796852675995e+000	 8.456871041629548e-001	 1.378303696900290e+001
 1.408093641419141e+000	 8.601001667868119e-001	 1.372602709124958e+001
 1.399232955289649e+000	 8.744410424703668e-001	 1.366719414009318e+001
 1.390215639611571e+000	 8.887071932420589e-001	 1.360619731016649e+001
 1.381042593508102e+000	 9.028960930664768e-001	 1.354266818410234e+001
 1.487875711410334e+000	 7.693184433441207e-001	 1.396241280281065e+001
 1.480014750168104e+000	 7.843349661722373e-001	 1.391779350351213e+001
 1.471989930300882e+000	 7.992938414445910e-001	 1.387445869498164e+001
 1.463801781090832e+000	 8.141924499516234e-001	 1.383223617353538e+001
 1.455450886549564e+000	 8.290281760779216e-001	 1.379092356257447e+001
 1.446937885507002e+000	 8.437984092075713e-001	 1.375028811915990e+001
 1.438263471657589e+000	 8.585005451375706e-001	 1.371006661280924e+001
 1.429428393563373e+000	 8.731319874978146e-001	 1.366996527810643e+001
 1.420433454613544e+000	 8.876901491761344e-001	 1.362965984251835e+001
 1.411279512940094e+000	 9.021724537468541e-001	 1.358879563060505e+001
 1.401967481289294e+000	 9.165763369012980e-001	 1.354698774559766e+001
 1.510082811582912e+000	 7.808008081729571e-001	 1.382532880486140e+001
 1.502104522561134e+000	 7.960414582078191e-001	 1.378761117958196e+001
 1.493959929263171e+000	 8.112236002755202e-001	 1.375286531337079e+001
 1.485649568870919e+000	 8.263445760738210e-001	 1.372092050672093e+001
 1.477174034112580e+000	 8.414017309482721e-001	 1.369157330866272e+001
 1.468533973352852e+000	 8.563924153185419e-001	 1.366458729455547e+001
 1.459730090639828e+000	 8.713139861129269e-001	 1.363969292072183e+001
 1.450763145708120e+000	 8.861638082095288e-001	 1.361658745763434e+001
 1.441633953937804e+000	 9.009392558825639e-001	 1.359493500315529e+001
 1.432343386268811e+000	 9.156377142522415e-001	 1.357436657711227e+001
 1.422892369070492e+000	 9.302565807366219e-001	 1.355448029826713e+001
 1.532289911756491e+000	 7.922831730022893e-001	 1.368789135491347e+001
 1.524194294955155e+000	 8.077479502439875e-001	 1.365690551674181e+001
 1.515929928226421e+000	 8.231533591071066e-001	 1.363062001275797e+001
 1.507497356651917e+000	 8.384967021967261e-001	 1.360886564546788e+001
 1.498897181676438e+000	 8.537752858193610e-001	 1.359143781731197e+001
 1.490130061199455e+000	 8.689864214302620e-001	 1.357809627895038e+001
 1.481196709622709e+000	 8.841274270890236e-001	 1.356856495914225e+001
 1.472097897853381e+000	 8.991956289219540e-001	 1.356253187805004e+001
 1.462834453262429e+000	 9.141883625896555e-001	 1.355964914558022e+001
 1.453407259597724e+000	 9.291029747582215e-001	 1.355953304614142e+001
 1.443817256851695e+000	 9.439368245724484e-001	 1.356176421096287e+001
 1.554497011931069e+000	 8.037655378321177e-001	 1.354693427435372e+001
 1.546284067350165e+000	 8.194544422807419e-001	 1.352248763538631e+001
 1.537899927190630e+000	 8.350831179393493e-001	 1.350451320055174e+001
 1.529345144433827e+000	 8.506488283203390e-001	 1.349284328716176e+001
 1.520620329241138e+000	 8.661488406911884e-001	 1.348727209199840e+001
 1.511726149046811e+000	 8.815804275427317e-001	 1.348755540933973e+001
 1.502663328606235e+000	 8.969408680658606e-001	 1.349341043546426e+001
 1.493432649999157e+000	 9.122274496350907e-001	 1.350451566158962e+001
 1.484034952587419e+000	 9.274374692974090e-001	 1.352051085697084e+001
 1.474471132926831e+000	 9.425682352647938e-001	 1.354099714363933e+001
 1.464742144632903e+000	 9.576170684087775e-001	 1.356553716401371e+001
 1.255493266821059e+000	 8.208146300681053e-001	 1.378441376117164e+001
 1.247013427021299e+000	 8.336411175128567e-001	 1.374373197296134e+001
 1.238393794941728e+000	 8.463928217087881e-001	 1.370922801949601e+001
 1.229635333603122e+000	 8.590674864957387e-001	 1.367071491838726e+001
 1.220739054075391e+000	 8.716628716778431e-001	 1.362802354034247e+001
 1.211706015162792e+000	 8.841767542918880e-001	 1.358096142633141e+001
 1.202537323049252e+000	 8.966069298687865e-001	 1.352931325140397e+001
 1.193234130903926e+000	 9.089512136867101e-001	 1.347284135824039e+001
 1.183797638447231e+000	 9.212074420144203e-001	 1.341128635954950e+001
 1.174229091477602e+000	 9.333734733433585e-001	 1.334436780820283e+001
 1.164529781359323e+000	 9.454471896070471e-001	 1.327178493376323e+001
 1.276418154602220e+000	 8.344948738999106e-001	 1.369339325632908e+001
 1.267796984139968e+000	 8.475351361353408e-001	 1.367774667375267e+001
 1.259033691526449e+000	 8.604993687346023e-001	 1.365070634155207e+001
 1.250129255832787e+000	 8.733852779348663e-001	 1.361203947064223e+001
 1.241084704980055e+000	 8.861905862036694e-001	 1.358937512376416e+001
 1.231901115419247e+000	 8.989130335284119e-001	 1.356115120318152e+001
 1.222579611770688e+000	 9.115503786988560e-001	 1.352659834316108e+001
 1.213121366423021e+000	 9.241004005811426e-001	 1.348528634952417e+001
 1.203527599092000e+000	 9.365608993818464e-001	 1.343676306348472e+001
 1.193799576339370e+000	 9.489296979005988e-001	 1.338055526063424e+001
 1.183938611052150e+000	 9.612046427698152e-001	 1.331616961928071e+001
 1.297343042383386e+000	 8.481751177322187e-001	 1.362788655537601e+001
 1.288580541258456e+000	 8.614291547582270e-001	 1.363604188308124e+001
 1.279673588110835e+000	 8.746059157607186e-001	 1.363156183198892e+001
 1.270623178061991e+000	 8.877030693741960e-001	 1.361403597797072e+001
 1.261430355884161e+000	 9.007183007295984e-001	 1.358303974979852e+001
 1.252096215675079e+000	 9.136493127649382e-001	 1.353813495874413e+001
 1.242621900491466e+000	 9.264938275288278e-001	 1.350629141586787e+001
 1.233008601941450e+000	 9.392495874753767e-001	 1.347302645396881e+001
 1.223257559736129e+000	 9.519143567489735e-001	 1.343055606706147e+001
 1.213370061200551e+000	 9.644859224574407e-001	 1.337821635523548e+001
 1.203347440744476e+000	 9.769620959320846e-001	 1.331532341726346e+001
 1.318267930164557e+000	 8.618553615650291e-001	 1.358388561608922e+001
 1.309364098376765e+000	 8.753231733815162e-001	 1.360848202243847e+001
 1.300313484694886e+000	 8.887124627871380e-001	 1.361930081160922e+001
 1.291117100290733e+000	 9.020208608137287e-001	 1.361575703401936e+001
 1.281776006787710e+000	 9.152460152556287e-001	 1.359725096584276e+001
 1.272291315930287e+000	 9.283855920014663e-001	 1.356316882928360e+001
 1.262664189211584e+000	 9.414372763587010e-001	 1.351288356765828e+001
 1.252895837459215e+000	 9.543987743694128e-001	 1.344575567426655e+001
 1.242987520379617e+000	 9.672678141158025e-001	 1.339117290863242e+001
 1.232940546061146e+000	 9.800421470138834e-001	 1.333623033638385e+001
 1.222756270436300e+000	 9.927195490938553e-001	 1.326849479926715e+001
 1.339192817945733e+000	 8.755356053983423e-001	 1.355750829386544e+001
 1.330147655494894e+000	 8.892171920052078e-001	 1.359153891944231e+001
 1.320953381278601e+000	 9.028190098138600e-001	 1.361074795573643e+001
 1.311611022519015e+000	 9.163386522534630e-001	 1.361437885573428e+001
 1.302121657690702e+000	 9.297737297817619e-001	 1.360165957874077e+001
 1.292486416184872e+000	 9.431218712379964e-001	 1.357180349865041e+001
 1.282706477931043e+000	 9.563807251884761e-001	 1.352401037044685e+001
 1.272783072976315e+000	 9.695479612632503e-001	 1.345746735360668e+001
 1.262717481022464e+000	 9.826212714823327e-001	 1.337135009088777e+001
 1.252511030921155e+000	 9.955983715699281e-001	 1.326482384078505e+001
 1.242165100127623e+000	 1.008477002255128e+000	 1.317482993837618e+001
 1.360117705726915e+000	 8.892158492321584e-001	 1.354498865728896e+001
 1.350931212612843e+000	 9.031112106293023e-001	 1.358177874490912e+001
 1.341593277861981e+000	 9.169255568408841e-001	 1.360280056351544e+001
 1.332104944746835e+000	 9.306564436934002e-001	 1.360712872590010e+001
 1.322467308593137e+000	 9.443014443079969e-001	 1.359382153876106e+001
 1.312681516438834e+000	 9.578581504745287e-001	 1.356192209644864e+001
 1.302748766649842e+000	 9.713241740181526e-001	 1.351045943651242e+001
 1.292670308492750e+000	 9.846971481568895e-001	 1.343844975542729e+001
 1.282447441664671e+000	 9.979747288485644e-001	 1.334489768266717e+001
 1.272081515780578e+000	 1.011154596125574e+000	 1.322879761108704e+001
 1.261573929818444e+000	 1.024234455415901e+000	 1.308913508137032e+001
 1.381042593508102e+000	 9.028960930664768e-001	 1.354266818410234e+001
 1.371714769730612e+000	 9.170052292537990e-001	 1.357585486564168e+001
 1.362233174445025e+000	 9.310321038682110e-001	 1.359242305610803e+001
 1.352598866974193e+000	 9.449742351335395e-001	 1.359128112451528e+001
 1.342812959495014e+000	 9.588291588343345e-001	 1.357132022766456e+001
 1.332876616692172e+000	 9.725944297110627e-001	 1.353141558698811e+001
 1.322791055367983e+000	 9.862676228477315e-001	 1.347042783092227e+001
 1.312557544008519e+000	 9.998463350503301e-001	 1.338720440089405e+001
 1.302177402306237e+000	 1.013328186214498e+000	 1.328058101878295e+001
 1.291652000639415e+000	 1.026710820680821e+000	 1.314938321349928e+001
 1.280982759508765e+000	 1.039991908576176e+000	 1.299242790410613e+001
 1.401967481289294e+000	 9.165763369012980e-001	 1.354698774559766e+001
 1.392498326848202e+000	 9.308992478786984e-001	 1.357050133726611e+001
 1.382873071027734e+000	 9.451386508958402e-001	 1.357664196758710e+001
 1.373092789201091e+000	 9.592920265738815e-001	 1.356415420661240e+001
 1.363158610396335e+000	 9.733568733607741e-001	 1.353176441157813e+001
 1.353071716944887e+000	 9.873307089475989e-001	 1.347818218460476e+001
 1.342833344085464e+000	 1.001211071677212e+000	 1.340210189981333e+001
 1.332444779523623e+000	 1.014995521943573e+000	 1.330220429765255e+001
 1.321907362947162e+000	 1.028681643580133e+000	 1.317715814399445e+001
 1.311222485497665e+000	 1.042267045235670e+000	 1.302562195132485e+001
 1.300391589198583e+000	 1.055749361735952e+000	 1.284624575912750e+001
 1.422892369070492e+000	 9.302565807366219e-001	 1.355448029826713e+001
 1.413281883965611e+000	 9.447932665040006e-001	 1.356252697123009e+001
 1.403512967610108e+000	 9.592451979237719e-001	 1.355254137781074e+001
 1.393586711427527e+000	 9.736098180144256e-001	 1.352310659085840e+001
 1.383504261297097e+000	 9.878845878873159e-001	 1.347278637449724e+001
 1.373266817196979e+000	 1.002066988184137e+000	 1.340012682057052e+001
 1.362875632802286e+000	 1.016154520506594e+000	 1.330365805854883e+001
 1.352332015038063e+000	 1.030144708836617e+000	 1.318189603641045e+001
 1.341637323587446e+000	 1.044035100945469e+000	 1.303334436975289e+001
 1.330792970355329e+000	 1.057823269790120e+000	 1.285649625614839e+001
 1.319800418887901e+000	 1.071506814895229e+000	 1.264983645151721e+001
 1.443817256851695e+000	 9.439368245724484e-001	 1.356176421096287e+001
 1.434065441082840e+000	 9.586872851297054e-001	 1.354880991771427e+001
 1.424152864192146e+000	 9.733517449520065e-001	 1.351725874243797e+001
 1.414080633653502e+000	 9.879276094551719e-001	 1.346553442740715e+001
 1.403849912197303e+000	 1.002412302413960e+000	 1.339204021409238e+001
 1.393461917448448e+000	 1.016803267420677e+000	 1.329516065635901e+001
 1.382917921518449e+000	 1.031097969335878e+000	 1.317326351133978e+001
 1.372219250551837e+000	 1.045293895729462e+000	 1.302470170520860e+001
 1.361367284227090e+000	 1.059388558310507e+000	 1.284781537081793e+001
 1.350363455212408e+000	 1.073379494344171e+000	 1.264093395390250e+001
 1.339209248576718e+000	 1.087264268054008e+000	 1.240237838430150e+001
 1.464742144632903e+000	 9.576170684087775e-001	 1.356553716401371e+001
 1.454848998199890e+000	 9.725813037558125e-001	 1.352629271286588e+001
 1.444792760773848e+000	 9.874582919805434e-001	 1.346798108037145e+001
 1.434574555879015e+000	 1.002245400896121e+000	 1.338886871707910e+001
 1.424195563096951e+000	 1.016940016940706e+000	 1.328720028358970e+001
 1.413657017699293e+000	 1.031539546657219e+000	 1.316120063863092e+001
 1.402960210233953e+000	 1.046041418165064e+000	 1.300907690918427e+001
 1.392106486064946e+000	 1.060443082622109e+000	 1.282902063961156e+001
 1.381097244866092e+000	 1.074742015675246e+000	 1.261921001645001e+001
 1.369933940068900e+000	 1.088935718897824e+000	 1.237781216527191e+001
 1.358618078265032e+000	 1.103021721212288e+000	 1.210298551573991e+001
 1.164529781359323e+000	 9.454471896070471e-001	 1.327178493376323e+001
 1.154701044472046e+000	 9.574264973867980e-001	 1.318474130807286e+001
 1.144744261621738e+000	 9.693093291010768e-001	 1.308296696062705e+001
 1.134660857414088e+000	 9.810936441778935e-001	 1.296552824563027e+001
 1.124452299591371e+000	 9.927774302097262e-001	 1.283148149882459e+001
 1.114120098332700e+000	 1.004358704088371e+000	 1.267987470899372e+001
 1.103665805518577e+000	 1.015835513118795e+000	 1.250974923533643e+001
 1.093091013960508e+000	 1.027205936110678e+000	 1.232014156683146e+001
 1.082397356596456e+000	 1.038468084446387e+000	 1.211008511955317e+001
 1.071586505652983e+000	 1.049620103124114e+000	 1.187861206774690e+001
 1.060660171775000e+000	 1.060660171775000e+000	 1.162475520433417e+001
 1.183938611052150e+000	 9.612046427698152e-001	 1.331616961928071e+001
 1.173946061883105e+000	 9.733836056803343e-001	 1.321354004876227e+001
 1.163823332651751e+000	 9.854644845907676e-001	 1.309803554075925e+001
 1.153571871707206e+000	 9.974452049195915e-001	 1.296878077602288e+001
 1.143193171254116e+000	 1.009323720719159e+000	 1.282488756335714e+001
 1.132688766641246e+000	 1.021098015829463e+000	 1.266545647944674e+001
 1.122060235613774e+000	 1.032766105010551e+000	 1.248957855985032e+001
 1.111309197530064e+000	 1.044326035052265e+000	 1.229633703728525e+001
 1.100437312543711e+000	 1.055775885860012e+000	 1.208480912315214e+001
 1.089446280751720e+000	 1.067113771515287e+000	 1.185406782808230e+001
 1.078337841309750e+000	 1.078337841309750e+000	 1.160318381713966e+001
 1.203347440744476e+000	 9.769620959320846e-001	 1.331532341726346e+001
 1.193191079293752e+000	 9.893407139732818e-001	 1.320311739990541e+001
 1.182902403681423e+000	 1.001619640079799e+000	 1.307988883321172e+001
 1.172482886000033e+000	 1.013796765660581e+000	 1.294481612075731e+001
 1.161934042916601e+000	 1.025870011227853e+000	 1.279706189262417e+001
 1.151257434949542e+000	 1.037837327569805e+000	 1.263577461903251e+001
 1.140454665708711e+000	 1.049696696901566e+000	 1.246009028055823e+001
 1.129527381099329e+000	 1.061446133993143e+000	 1.226913409105466e+001
 1.118477268490625e+000	 1.073083687272977e+000	 1.206202226920603e+001
 1.107306055850046e+000	 1.084607439905871e+000	 1.183786385445795e+001
 1.096015510844000e+000	 1.096015510844000e+000	 1.159576256290640e+001
 1.222756270436300e+000	 9.927195490938553e-001	 1.326849479926715e+001
 1.212436096703989e+000	 1.005297822265641e+000	 1.315248960859372e+001
 1.201981474710754e+000	 1.017774795568173e+000	 1.302731487432406e+001
 1.191393900292569e+000	 1.030148326400862e+000	 1.289219820643973e+001
 1.180674914578825e+000	 1.042416301735808e+000	 1.274634848863972e+001
 1.169826103257588e+000	 1.054576639309397e+000	 1.258895747119663e+001
 1.158849095803388e+000	 1.066627288791843e+000	 1.241920142594737e+001
 1.147745564668305e+000	 1.078566232933311e+000	 1.223624285952042e+001
 1.136517224437199e+000	 1.090391488685283e+000	 1.203923228069283e+001
 1.125165830947962e+000	 1.102101108295864e+000	 1.182731001757533e+001
 1.113693180377750e+000	 1.113693180377750e+000	 1.159960808014338e+001
 1.242165100127623e+000	 1.008477002255128e+000	 1.317482993837618e+001
 1.231681114113813e+000	 1.021254930557411e+000	 1.306058650163349e+001
 1.221060545739743e+000	 1.033929951055887e+000	 1.293903100259360e+001
 1.210304914584814e+000	 1.046499887140433e+000	 1.280943582075303e+001
 1.199415786240788e+000	 1.058962592243023e+000	 1.267105160220080e+001
 1.188394771565383e+000	 1.071315951048240e+000	 1.252310883706711e+001
 1.177243525897804e+000	 1.083557880681380e+000	 1.236481950479062e+001
 1.165963748236990e+000	 1.095686331872769e+000	 1.219537878327621e+001
 1.154557180383433e+000	 1.107699290096929e+000	 1.201396681779299e+001
 1.143025606045469e+000	 1.119594776685267e+000	 1.181975054525151e+001
 1.131370849911000e+000	 1.131370849911000e+000	 1.161188556930403e+001
 1.261573929818444e+000	 1.024234455415901e+000	 1.308913508137032e+001
 1.250926131523227e+000	 1.037212038848592e+000	 1.293096140522317e+001
 1.240139616768392e+000	 1.050085106542942e+000	 1.281368929697079e+001
 1.229215928876769e+000	 1.062851447879295e+000	 1.269498685391296e+001
 1.218156657902490e+000	 1.075508882749499e+000	 1.256943879067346e+001
 1.206963439872927e+000	 1.088055262786334e+000	 1.243630986332513e+001
 1.195637955991960e+000	 1.100488472570177e+000	 1.229484323843219e+001
 1.184181931805385e+000	 1.112806430811517e+000	 1.214426220372770e+001
 1.172597136329328e+000	 1.125007091507914e+000	 1.198377194425820e+001
 1.160885381142565e+000	 1.137088445074080e+000	 1.181256137956381e+001
 1.149048519443750e+000	 1.149048519443750e+000	 1.162980505725219e+001
 1.280982759508765e+000	 1.039991908576176e+000	 1.299242790410613e+001
 1.270171148932229e+000	 1.053169147139185e+000	 1.285076339769681e+001
 1.259218687796699e+000	 1.066240262029339e+000	 1.269902133166236e+001
 1.248126943168432e+000	 1.079203008617448e+000	 1.254726215453653e+001
 1.236897529563932e+000	 1.092055173255236e+000	 1.243974369779814e+001
 1.225532108180221e+000	 1.104794574523678e+000	 1.232662075845096e+001
 1.214032386085855e+000	 1.117419064458234e+000	 1.220716322650186e+001
 1.202400115373489e+000	 1.129926529749554e+000	 1.208061799181882e+001
 1.190637092274881e+000	 1.142314892918240e+000	 1.194621073320173e+001
 1.178745156239252e+000	 1.154582113462304e+000	 1.180314777425494e+001
 1.166726188976000e+000	 1.166726188976000e+000	 1.165061800132201e+001
 1.300391589198583e+000	 1.055749361735952e+000	 1.284624575912750e+001
 1.289416166340821e+000	 1.069126255429189e+000	 1.272600346320916e+001
 1.278297758824666e+000	 1.082395417515077e+000	 1.259724637799952e+001
 1.267037957459805e+000	 1.095554569354892e+000	 1.245965479181980e+001
 1.255638401225113e+000	 1.108601463760233e+000	 1.231288835004664e+001
 1.244100776487265e+000	 1.121533886260272e+000	 1.219208235527639e+001
 1.232426816179491e+000	 1.134349656345552e+000	 1.209966255301325e+001
 1.220618298941304e+000	 1.147046628686883e+000	 1.200217521000663e+001
 1.208677048220095e+000	 1.159622694327906e+000	 1.189886199774301e+001
 1.196604931335528e+000	 1.172075781849937e+000	 1.178894210729484e+001
 1.184403858507750e+000	 1.184403858507750e+000	 1.167161419749175e+001
 1.319800418887901e+000	 1.071506814895229e+000	 1.264983645151721e+001
 1.308661183749000e+000	 1.085083363718604e+000	 1.255575493378038e+001
 1.297376829852291e+000	 1.098550573000156e+000	 1.245472559296584e+001
 1.285948971750886e+000	 1.111906130091627e+000	 1.234647583623346e+001
 1.274379272886033e+000	 1.125147754264492e+000	 1.223070975373568e+001
 1.262669444794058e+000	 1.138273197996117e+000	 1.210710894823835e+001
 1.250821246272865e+000	 1.151280248232129e+000	 1.197533343203041e+001
 1.238836482508829e+000	 1.164166727623501e+000	 1.190666680406179e+001
 1.226717004164970e+000	 1.176930495736912e+000	 1.183931913365421e+001
 1.214464706431394e+000	 1.189569450236981e+000	 1.176740188645252e+001
 1.202081528039000e+000	 1.202081528039000e+000	 1.169011896136614e+001
 1.339209248576718e+000	 1.087264268054008e+000	 1.240237838430150e+001
 1.327906201156769e+000	 1.101040472007430e+000	 1.233903251156604e+001
 1.316455900879575e+000	 1.114705728484576e+000	 1.227031288691182e+001
 1.304859986041677e+000	 1.128257690827653e+000	 1.219599071109439e+001
 1.293120144546692e+000	 1.141694044768010e+000	 1.211581114667868e+001
 1.281238113100600e+000	 1.155012509731212e+000	 1.202949411881652e+001
 1.269215676365980e+000	 1.168210840117968e+000	 1.193673518845518e+001
 1.257054666076063e+000	 1.181286826559410e+000	 1.183720649575207e+001
 1.244756960109503e+000	 1.194238297145258e+000	 1.176518906264657e+001
 1.232324481526850e+000	 1.207063118623434e+000	 1.173600792829613e+001
 1.219759197569750e+000	 1.219759197569750e+000	 1.170349055429042e+001
 1.358618078265032e+000	 1.103021721212288e+000	 1.210298551573991e+001
 1.347151218564126e+000	 1.116997580295668e+000	 1.207479645670484e+001
 1.335534971906517e+000	 1.130860883968336e+000	 1.204281763280707e+001
 1.323771000332176e+000	 1.144609251562969e+000	 1.200686077299844e+001
 1.311861016207091e+000	 1.158240335270790e+000	 1.196670879745112e+001
 1.299806781406893e+000	 1.171751821465558e+000	 1.192211659328171e+001
 1.287610106458834e+000	 1.185141432003066e+000	 1.187281186796257e+001
 1.275272849643007e+000	 1.198406925494609e+000	 1.181849607820590e+001
 1.262796916053697e+000	 1.211546098552944e+000	 1.175884543186031e+001
 1.250184256621897e+000	 1.224556787009298e+000	 1.169351196012520e+001
 1.237436867100000e+000	 1.237436867100000e+000	 1.170911783008301e+001
 1.060660171775000e+000	 1.060660171775000e+000	 1.162475520433417e+001
 1.049620103124114e+000	 1.071586505652983e+000	 1.151733328636821e+001
 1.038468084446386e+000	 1.082397356596456e+000	 1.139239688588806e+001
 1.027205936110678e+000	 1.093091013960509e+000	 1.124921217252079e+001
 1.015835513118795e+000	 1.103665805518577e+000	 1.108704548135684e+001
 1.004358704088371e+000	 1.114120098332699e+000	 1.090516501664258e+001
 9.927774302097263e-001	 1.124452299591371e+000	 1.070284256863345e+001
 9.810936441778935e-001	 1.134660857414088e+000	 1.047935523910635e+001
 9.693093291010766e-001	 1.144744261621738e+000	 1.023398717099022e+001
 9.574264973867980e-001	 1.154701044472046e+000	 9.966031277551975e+000
 9.454471896070471e-001	 1.164529781359323e+000	 9.674790966567386e+000
 1.078337841309750e+000	 1.078337841309750e+000	 1.160318381713966e+001
 1.067113771515287e+000	 1.089446280751720e+000	 1.151417824228992e+001
 1.055775885860012e+000	 1.100437312543710e+000	 1.140957502692463e+001
 1.044326035052265e+000	 1.111309197530064e+000	 1.128867055534358e+001
 1.032766105010551e+000	 1.122060235613774e+000	 1.115075872714896e+001
 1.021098015829463e+000	 1.132688766641246e+000	 1.099513267780852e+001
 1.009323720719159e+000	 1.143193171254116e+000	 1.082108651674232e+001
 9.974452049195917e-001	 1.153571871707205e+000	 1.062791707830940e+001
 9.854644845907675e-001	 1.163823332651751e+000	 1.041492568102293e+001
 9.733836056803344e-001	 1.173946061883105e+000	 1.018141989028797e+001
 9.612046427698152e-001	 1.183938611052150e+000	 9.926715279942261e+000
 1.096015510844000e+000	 1.096015510844000e+000	 1.159576256290640e+001
 1.084607439905871e+000	 1.107306055850046e+000	 1.153087502269827e+001
 1.073083687272977e+000	 1.118477268490624e+000	 1.145226844420096e+001
 1.061446133993143e+000	 1.129527381099330e+000	 1.135926462199225e+001
 1.049696696901566e+000	 1.140454665708711e+000	 1.125118021858800e+001
 1.037837327569805e+000	 1.151257434949542e+000	 1.112732850807326e+001
 1.025870011227853e+000	 1.161934042916601e+000	 1.098702114163447e+001
 1.013796765660581e+000	 1.172482886000033e+000	 1.082956993023406e+001
 1.001619640079799e+000	 1.182902403681423e+000	 1.065428863961088e+001
 9.893407139732818e-001	 1.193191079293752e+000	 1.046049479274755e+001
 9.769620959320847e-001	 1.203347440744476e+000	 1.024751147492095e+001
 1.113693180377750e+000	 1.113693180377750e+000	 1.159960808014338e+001
 1.102101108295864e+000	 1.125165830947962e+000	 1.156435467112354e+001
 1.090391488685283e+000	 1.136517224437199e+000	 1.151722672016723e+001
 1.078566232933311e+000	 1.147745564668305e+000	 1.145756668015069e+001
 1.066627288791843e+000	 1.158849095803387e+000	 1.138470922415459e+001
 1.054576639309397e+000	 1.169826103257588e+000	 1.129798301835123e+001
 1.042416301735808e+000	 1.180674914578825e+000	 1.119671252118742e+001
 1.030148326400862e+000	 1.191393900292569e+000	 1.108021980395906e+001
 1.017774795568173e+000	 1.201981474710754e+000	 1.094782638780134e+001
 1.005297822265641e+000	 1.212436096703989e+000	 1.079885509206951e+001
 9.927195490938553e-001	 1.222756270436300e+000	 1.063263188905026e+001
 1.131370849911000e+000	 1.131370849911000e+000	 1.161188556930403e+001
 1.119594776685267e+000	 1.143025606045469e+000	 1.161161059112271e+001
 1.107699290096929e+000	 1.154557180383433e+000	 1.160127540442318e+001
 1.095686331872768e+000	 1.165963748236990e+000	 1.158023841429754e+001
 1.083557880681380e+000	 1.177243525897804e+000	 1.154784759490464e+001
 1.071315951048240e+000	 1.188394771565383e+000	 1.150344229779526e+001
 1.058962592243023e+000	 1.199415786240788e+000	 1.144635509095238e+001
 1.046499887140433e+000	 1.210304914584814e+000	 1.137591362348058e+001
 1.033929951055887e+000	 1.221060545739743e+000	 1.129144251079855e+001
 1.021254930557411e+000	 1.231681114113813e+000	 1.119226523512930e+001
 1.008477002255128e+000	 1.242165100127623e+000	 1.107770605603813e+001
 1.149048519443750e+000	 1.149048519443750e+000	 1.162980505725219e+001
 1.137088445074080e+000	 1.160885381142565e+000	 1.166969374935436e+001
 1.125007091507914e+000	 1.172597136329327e+000	 1.170131017009113e+001
 1.112806430811516e+000	 1.184181931805385e+000	 1.172402401056853e+001
 1.100488472570177e+000	 1.195637955991960e+000	 1.173719187350178e+001
 1.088055262786333e+000	 1.206963439872927e+000	 1.174015912316264e+001
 1.075508882749499e+000	 1.218156657902490e+000	 1.173226177048706e+001
 1.062851447879295e+000	 1.229215928876769e+000	 1.171282838810335e+001
 1.050085106542942e+000	 1.240139616768392e+000	 1.168118204995203e+001
 1.037212038848592e+000	 1.250926131523227e+000	 1.159917298397082e+001
 1.024234455415901e+000	 1.261573929818444e+000	 1.112427478053392e+001
 1.166726188976000e+000	 1.166726188976000e+000	 1.165061800132201e+001
 1.154582113462304e+000	 1.178745156239252e+000	 1.173570831473790e+001
 1.142314892918240e+000	 1.190637092274882e+000	 1.181429150142836e+001
 1.129926529749554e+000	 1.202400115373490e+000	 1.188574390663074e+001
 1.117419064458234e+000	 1.214032386085856e+000	 1.194942612061090e+001
 1.104794574523678e+000	 1.225532108180221e+000	 1.200468487642110e+001
 1.092055173255236e+000	 1.236897529563932e+000	 1.205085498729468e+001
 1.079203008617448e+000	 1.248126943168432e+000	 1.208726131825036e+001
 1.066240262029339e+000	 1.259218687796699e+000	 1.171645085908592e+001
 1.053169147139185e+000	 1.270171148932229e+000	 1.128310367253997e+001
 1.039991908576176e+000	 1.280982759508765e+000	 1.087021998186265e+001
 1.184403858507750e+000	 1.184403858507750e+000	 1.167161419749175e+001
 1.172075781849937e+000	 1.196604931335528e+000	 1.180680768813559e+001
 1.159622694327906e+000	 1.208677048220096e+000	 1.193723985717487e+001
 1.147046628686883e+000	 1.220618298941304e+000	 1.206228910126994e+001
 1.134349656345552e+000	 1.232426816179491e+000	 1.218131538370406e+001
 1.121533886260272e+000	 1.244100776487265e+000	 1.229366218615083e+001
 1.108601463760233e+000	 1.255638401225113e+000	 1.213615755192346e+001
 1.095554569354892e+000	 1.267037957459804e+000	 1.172023879647550e+001
 1.082395417515077e+000	 1.278297758824666e+000	 1.132689229589723e+001
 1.069126255429189e+000	 1.289416166340821e+000	 1.095650675677545e+001
 1.055749361735952e+000	 1.300391589198583e+000	 1.060944111366798e+001
 1.202081528039000e+000	 1.202081528039000e+000	 1.169011896136614e+001
 1.189569450236981e+000	 1.214464706431394e+000	 1.188019088235669e+001
 1.176930495736912e+000	 1.226717004164969e+000	 1.206723126066538e+001
 1.164166727623501e+000	 1.238836482508828e+000	 1.225061596607323e+001
 1.151280248232129e+000	 1.250821246272865e+000	 1.238881523217322e+001
 1.138273197996117e+000	 1.262669444794058e+000	 1.198499891905783e+001
 1.125147754264492e+000	 1.274379272886033e+000	 1.160548441042123e+001
 1.111906130091627e+000	 1.285948971750886e+000	 1.125077592935978e+001
 1.098550573000156e+000	 1.297376829852291e+000	 1.092134602895782e+001
 1.085083363718604e+000	 1.308661183749000e+000	 1.061763518513044e+001
 1.071506814895229e+000	 1.319800418887901e+000	 1.034005143307754e+001
 1.219759197569750e+000	 1.219759197569750e+000	 1.170349055429042e+001
 1.207063118623434e+000	 1.232324481526850e+000	 1.195309921694432e+001
 1.194238297145258e+000	 1.244756960109503e+000	 1.220139327340930e+001
 1.181286826559410e+000	 1.257054666076063e+000	 1.208175103376719e+001
 1.168210840117968e+000	 1.269215676365980e+000	 1.171138311804933e+001
 1.155012509731212e+000	 1.281238113100600e+000	 1.136727897601170e+001
 1.141694044768010e+000	 1.293120144546692e+000	 1.105003171730579e+001
 1.128257690827653e+000	 1.304859986041677e+000	 1.076020076860020e+001
 1.114705728484575e+000	 1.316455900879575e+000	 1.049831136318368e+001
 1.101040472007430e+000	 1.327906201156769e+000	 1.026485407701832e+001
 1.087264268054008e+000	 1.339209248576718e+000	 1.006028441189899e+001
 1.237436867100000e+000	 1.237436867100000e+000	 1.170911783008301e+001
 1.224556787009298e+000	 1.250184256621897e+000	 1.201275196698433e+001
 1.211546098552944e+000	 1.262796916053697e+000	 1.164788653937053e+001
 1.198406925494609e+000	 1.275272849643007e+000	 1.131034224454852e+001
 1.185141432003067e+000	 1.287610106458834e+000	 1.100083848720208e+001
 1.171751821465558e+000	 1.299806781406892e+000	 1.072005983967694e+001
 1.158240335270790e+000	 1.311861016207091e+000	 1.046865537583602e+001
 1.144609251562970e+000	 1.323771000332176e+000	 1.024723805292704e+001
 1.130860883968336e+000	 1.335534971906517e+000	 1.005638414241112e+001
 1.116997580295668e+000	 1.347151218564126e+000	 9.896632710601280e+000
 1.103021721212288e+000	 1.358618078265032e+000	 9.768485149856872e+000
 9.454471896070471e-001	 1.164529781359323e+000	 9.674790966567386e+000
 9.333734733433584e-001	 1.174229091477602e+000	 9.589396877259640e+000
 9.212074420144205e-001	 1.183797638447231e+000	 9.497177270812960e+000
 9.089512136867100e-001	 1.193234130903926e+000	 9.398097860902000e+000
 8.966069298687863e-001	 1.202537323049252e+000	 9.292120261292460e+000
 8.841767542918877e-001	 1.211706015162792e+000	 9.179203053721926e+000
 8.716628716778431e-001	 1.220739054075391e+000	 9.059302856552662e+000
 8.590674864957389e-001	 1.229635333603122e+000	 8.932375390723463e+000
 8.463928217087879e-001	 1.238393794941728e+000	 8.798376539569670e+000
 8.336411175128569e-001	 1.247013427021299e+000	 8.657263399134077e+000
 8.208146300681053e-001	 1.255493266821059e+000	 8.417450366596020e+000
 9.612046427698152e-001	 1.183938611052150e+000	 9.926715279942261e+000
 9.489296979005989e-001	 1.193799576339370e+000	 9.907831634966954e+000
 9.365608993818463e-001	 1.203527599092000e+000	 9.877776113713457e+000
 9.241004005811425e-001	 1.213121366423021e+000	 9.836306720220462e+000
 9.115503786988560e-001	 1.222579611770688e+000	 9.783181981652598e+000
 8.989130335284119e-001	 1.231901115419247e+000	 9.718162257979252e+000
 8.861905862036693e-001	 1.241084704980054e+000	 9.641011044839576e+000
 8.733852779348664e-001	 1.250129255832787e+000	 9.548498291789311e+000
 8.604993687346021e-001	 1.259033691526450e+000	 9.254153147813295e+000
 8.475351361353408e-001	 1.267796984139968e+000	 8.978727667582545e+000
 8.344948738999105e-001	 1.276418154602220e+000	 8.722425353492723e+000
 9.769620959320847e-001	 1.203347440744476e+000	 1.024751147492095e+001
 9.644859224574407e-001	 1.213370061200551e+000	 1.028836765948694e+001
 9.519143567489734e-001	 1.223257559736129e+000	 1.031383237390178e+001
 9.392495874753767e-001	 1.233008601941451e+000	 1.032345661263272e+001
 9.264938275288278e-001	 1.242621900491465e+000	 1.031679642565110e+001
 9.136493127649381e-001	 1.252096215675078e+000	 1.023502369606329e+001
 9.007183007295984e-001	 1.261430355884161e+000	 9.951570445483640e+000
 8.877030693741963e-001	 1.270623178061991e+000	 9.682824429901837e+000
 8.746059157607187e-001	 1.279673588110835e+000	 9.428908029952643e+000
 8.614291547582271e-001	 1.288580541258457e+000	 9.189920126431483e+000
 8.481751177322187e-001	 1.297343042383386e+000	 8.965936162804583e+000
 9.927195490938553e-001	 1.222756270436300e+000	 1.063263188905026e+001
 9.800421470138834e-001	 1.232940546061146e+000	 1.072688050294834e+001
 9.672678141158025e-001	 1.242987520379617e+000	 1.080163922957378e+001
 9.543987743694127e-001	 1.252895837459215e+000	 1.076272635881104e+001
 9.414372763587008e-001	 1.262664189211584e+000	 1.049883593285568e+001
 9.283855920014663e-001	 1.272291315930287e+000	 1.024604352366142e+001
 9.152460152556287e-001	 1.281776006787710e+000	 1.000437639642618e+001
 9.020208608137285e-001	 1.291117100290733e+000	 9.773842225727899e+000
 8.887124627871379e-001	 1.300313484694886e+000	 9.554429214778770e+000
 8.753231733815161e-001	 1.309364098376765e+000	 9.346106240578040e+000
 8.618553615650291e-001	 1.318267930164557e+000	 9.148823024554606e+000
 1.008477002255128e+000	 1.242165100127623e+000	 1.107770605603813e+001
 9.955983715699281e-001	 1.252511030921155e+000	 1.112773995508326e+001
 9.826212714823328e-001	 1.262717481022464e+000	 1.089003859482529e+001
 9.695479612632501e-001	 1.272783072976315e+000	 1.066045394035039e+001
 9.563807251884761e-001	 1.282706477931043e+000	 1.043890581576592e+001
 9.431218712379964e-001	 1.292486416184872e+000	 1.022529788281996e+001
 9.297737297817619e-001	 1.302121657690702e+000	 1.001951783781421e+001
 9.163386522534633e-001	 1.311611022519015e+000	 9.821437629340529e+000
 9.028190098138598e-001	 1.320953381278601e+000	 9.630913696366521e+000
 8.892171920052078e-001	 1.330147655494894e+000	 9.447787226156622e+000
 8.755356053983423e-001	 1.339192817945733e+000	 9.271884431480078e+000
 1.024234455415901e+000	 1.261573929818444e+000	 1.112427478053392e+001
 1.011154596125574e+000	 1.272081515780578e+000	 1.092310245400021e+001
 9.979747288485645e-001	 1.282447441664671e+000	 1.072751553183573e+001
 9.846971481568890e-001	 1.292670308492749e+000	 1.053730258428920e+001
 9.713241740181527e-001	 1.302748766649842e+000	 1.035223920987237e+001
 9.578581504745288e-001	 1.312681516438834e+000	 1.017208834499335e+001
 9.443014443079969e-001	 1.322467308593137e+000	 9.996600589398913e+000
 9.306564436934003e-001	 1.332104944746835e+000	 9.825514546812750e+000
 9.169255568408840e-001	 1.341593277861981e+000	 9.658557180128138e+000
 9.031112106293021e-001	 1.350931212612843e+000	 9.495444180492033e+000
 8.892158492321584e-001	 1.360117705726915e+000	 9.335880349592641e+000
 1.039991908576176e+000	 1.280982759508765e+000	 1.087021998186265e+001
 1.026710820680821e+000	 1.291652000639415e+000	 1.070783775384588e+001
 1.013328186214498e+000	 1.302177402306237e+000	 1.054856284257068e+001
 9.998463350503299e-001	 1.312557544008519e+000	 1.039203882347470e+001
 9.862676228477315e-001	 1.322791055367983e+000	 1.023789958499935e+001
 9.725944297110627e-001	 1.332876616692172e+000	 1.008576977024109e+001
 9.588291588343344e-001	 1.342812959495014e+000	 9.935265229068728e+000
 9.449742351335397e-001	 1.352598866974193e+000	 9.785993479914771e+000
 9.310321038682108e-001	 1.362233174445026e+000	 9.637554180439295e+000
 9.170052292537991e-001	 1.371714769730612e+000	 9.489539606251920e+000
 9.028960930664768e-001	 1.381042593508102e+000	 9.341535136869814e+000
 1.055749361735952e+000	 1.300391589198583e+000	 1.060944111366798e+001
 1.042267045235670e+000	 1.311222485497665e+000	 1.048022355327045e+001
 1.028681643580133e+000	 1.321907362947162e+000	 1.035174742915876e+001
 1.014995521943572e+000	 1.332444779523623e+000	 1.022351378983617e+001
 1.001211071677212e+000	 1.342833344085464e+000	 1.009501720362388e+001
 9.873307089475989e-001	 1.353071716944887e+000	 9.965746330466445e+000
 9.733568733607741e-001	 1.363158610396335e+000	 9.835184498958341e+000
 9.592920265738814e-001	 1.373092789201091e+000	 9.702810287629070e+000
 9.451386508958403e-001	 1.382873071027735e+000	 9.568098109522147e+000
 9.308992478786984e-001	 1.392498326848202e+000	 9.430518799107661e+000
 9.165763369012980e-001	 1.401967481289294e+000	 9.289540200571029e+000
 1.071506814895229e+000	 1.319800418887901e+000	 1.034005143307754e+001
 1.057823269790120e+000	 1.330792970355330e+000	 1.023864979956402e+001
 1.044035100945469e+000	 1.341637323587446e+000	 1.013573136384827e+001
 1.030144708836616e+000	 1.352332015038063e+000	 1.003065699386381e+001
 1.016154520506594e+000	 1.362875632802286e+000	 9.922784209651555e+000
 1.002066988184137e+000	 1.373266817196979e+000	 9.811467883545344e+000
 9.878845878873158e-001	 1.383504261297097e+000	 9.696060940430616e+000
 9.736098180144256e-001	 1.393586711427527e+000	 9.575915056943430e+000
 9.592451979237719e-001	 1.403512967610108e+000	 9.450381358486254e+000
 9.447932665040006e-001	 1.413281883965611e+000	 9.318811112954675e+000
 9.302565807366219e-001	 1.422892369070492e+000	 9.180556420084162e+000
 1.087264268054008e+000	 1.339209248576718e+000	 1.006028441189899e+001
 1.073379494344171e+000	 1.350363455212408e+000	 9.981610554696941e+000
 1.059388558310507e+000	 1.361367284227090e+000	 9.899264992621728e+000
 1.045293895729462e+000	 1.372219250551837e+000	 9.812470645003231e+000
 1.031097969335878e+000	 1.382917921518449e+000	 9.720450144254620e+000
 1.016803267420677e+000	 1.393461917448448e+000	 9.622426662748682e+000
 1.002412302413960e+000	 1.403849912197303e+000	 9.517624734712266e+000
 9.879276094551723e-001	 1.414080633653502e+000	 9.405271071836364e+000
 9.733517449520063e-001	 1.424152864192145e+000	 9.284595371322354e+000
 9.586872851297054e-001	 1.434065441082840e+000	 9.154831115113467e+000
 9.439368245724484e-001	 1.443817256851695e+000	 9.015216359090593e+000
 1.103021721212288e+000	 1.358618078265032e+000	 9.768485149856872e+000
 1.088935718897824e+000	 1.369933940068900e+000	 9.707696558557093e+000
 1.074742015675246e+000	 1.381097244866093e+000	 9.641180629928702e+000
 1.060443082622109e+000	 1.392106486064946e+000	 9.568024458872497e+000
 1.046041418165064e+000	 1.402960210233953e+000	 9.487317846067276e+000
 1.031539546657219e+000	 1.413657017699293e+000	 9.398154249928401e+000
 1.016940016940706e+000	 1.424195563096952e+000	 9.299631728617765e+000
 1.002245400896121e+000	 1.434574555879015e+000	 9.190853870634612e+000
 9.874582919805433e-001	 1.444792760773848e+000	 9.070930712553260e+000
 9.725813037558126e-001	 1.454848998199890e+000	 8.938979642513729e+000
 9.576170684087774e-001	 1.464742144632903e+000	 8.794126288115383e+000
 8.208146300681053e-001	 1.255493266821059e+000	 8.417450366596020e+000
 8.079156302257311e-001	 1.263832399644536e+000	 8.216716545057624e+000
 7.949464022496643e-001	 1.272029959353938e+000	 8.021332568808015e+000
 7.819092425357326e-001	 1.280085128564544e+000	 7.831197810697335e+000
 7.688064583308100e-001	 1.287997138799943e+000	 7.646198411386536e+000
 7.556403664517627e-001	 1.295765270607128e+000	 7.466207526256921e+000
 7.424132920061469e-001	 1.303388853632028e+000	 7.291085588431416e+000
 7.291275671160526e-001	 1.310867266655738e+000	 7.120680587324038e+000
 7.157855296464767e-001	 1.318199937591758e+000	 6.954828362109979e+000
 7.023895219395790e-001	 1.325386343444616e+000	 6.793352909484206e+000
 6.889418895561570e-001	 1.332426010230286e+000	 6.636066705055511e+000
 8.344948738999105e-001	 1.276418154602220e+000	 8.722425353492723e+000
 8.213808907269712e-001	 1.284896272971888e+000	 8.537545941810141e+000
 8.081955089514598e-001	 1.293230458675645e+000	 8.356531505431232e+000
 7.949410632424674e-001	 1.301419880705692e+000	 8.179233772640027e+000
 7.816198993009829e-001	 1.309463757777676e+000	 8.005492890102017e+000
 7.682343725574868e-001	 1.317361358447709e+000	 7.835137703202780e+000
 7.547868468713275e-001	 1.325112001189150e+000	 7.667986049980141e+000
 7.412796932332971e-001	 1.332715054429446e+000	 7.503845068044063e+000
 7.277152884728083e-001	 1.340169936547323e+000	 7.342511513860987e+000
 7.140960139710570e-001	 1.347476115830716e+000	 7.183772093758780e+000
 7.004242543815207e-001	 1.354633110395864e+000	 7.027403805993811e+000
 8.481751177322187e-001	 1.297343042383386e+000	 8.965936162804583e+000
 8.348461512288039e-001	 1.305960146299434e+000	 8.795497529235275e+000
 8.214446156539169e-001	 1.314430957997715e+000	 8.627504431147415e+000
 8.079728839499134e-001	 1.322754632847353e+000	 8.461761417926242e+000
 7.944333402718964e-001	 1.330930376756053e+000	 8.298063065724268e+000
 7.808283786639605e-001	 1.338957446289043e+000	 8.136194291081011e+000
 7.671604017372471e-001	 1.346835148747114e+000	 7.975930675666914e+000
 7.534318193512494e-001	 1.354562842204066e+000	 7.817038801524004e+000
 7.396450472997966e-001	 1.362139935503848e+000	 7.659276596163395e+000
 7.258025060031215e-001	 1.369565888217805e+000	 7.502393686864424e+000
 7.119066192073804e-001	 1.376840210562442e+000	 7.346131763510029e+000
 8.618553615650291e-001	 1.318267930164557e+000	 9.148823024554606e+000
 8.483114117312290e-001	 1.327024019627176e+000	 8.991513779522373e+000
 8.346937223570364e-001	 1.335631457320152e+000	 8.835293248680255e+000
 8.210047046580711e-001	 1.344089384989528e+000	 8.679919231708027e+000
 8.072467812435503e-001	 1.352396995735073e+000	 8.525141123284513e+000
 7.934223847711834e-001	 1.360553534131128e+000	 8.370700259854331e+000
 7.795339566039047e-001	 1.368558296305920e+000	 8.216330275097386e+000
 7.655839454699089e-001	 1.376410629979596e+000	 8.061757463450569e+000
 7.515748061274420e-001	 1.384109934461334e+000	 7.906701151024489e+000
 7.375089980357721e-001	 1.391655660605885e+000	 7.750874073249002e+000
 7.233889840337364e-001	 1.399047310730021e+000	 7.593982758575815e+000
 8.755356053983423e-001	 1.339192817945733e+000	 9.271884431480078e+000
 8.617766722342464e-001	 1.348087892955113e+000	 9.126488916545808e+000
 8.479428290608178e-001	 1.356831956642953e+000	 8.980885272119325e+000
 8.340365253669401e-001	 1.365424137132218e+000	 8.834784943305319e+000
 8.200602222159444e-001	 1.373863614714737e+000	 8.687892500191957e+000
 8.060163908791562e-001	 1.382149621973968e+000	 8.539906017645818e+000
 7.919075114713012e-001	 1.390281443865568e+000	 8.390517461431431e+000
 7.777360715892763e-001	 1.398258417756038e+000	 8.239413079983251e+000
 7.635045649557438e-001	 1.406079933419780e+000	 8.086273801155230e+000
 7.492154900690090e-001	 1.413745432994954e+000	 7.930775633269175e+000
 7.348713488605884e-001	 1.421254410898599e+000	 7.772590069783971e+000
 8.892158492321584e-001	 1.360117705726915e+000	 9.335880349592641e+000
 8.752419327378564e-001	 1.369151766283244e+000	 9.201272627273001e+000
 8.611919357652612e-001	 1.378032455966118e+000	 9.065217426045564e+000
 8.470683460765199e-001	 1.386758889275422e+000	 8.927380199731335e+000
 8.328736631890795e-001	 1.395330233695044e+000	 8.787421020666407e+000
 8.186103969878784e-001	 1.403745709817559e+000	 8.644994992418802e+000
 8.042810663394361e-001	 1.412004591426058e+000	 8.499752666493651e+000
 7.898881977093509e-001	 1.420106205533392e+000	 8.351340462332887e+000
 7.754343237847030e-001	 1.428049932379187e+000	 8.199401089916487e+000
 7.609219821028321e-001	 1.435835205385014e+000	 8.043573974274398e+000
 7.463537136879365e-001	 1.443461511068178e+000	 7.883495681223927e+000
 9.028960930664768e-001	 1.381042593508102e+000	 9.341535136869814e+000
 8.887071932420589e-001	 1.390215639611572e+000	 9.216673435773050e+000
 8.744410424703669e-001	 1.399232955289649e+000	 9.089180062918672e+000
 8.601001667868115e-001	 1.408093641419141e+000	 8.958674814352250e+000
 8.456871041629548e-001	 1.416796852675995e+000	 8.824773563403863e+000
 8.312044030973500e-001	 1.425341797661905e+000	 8.687088706231330e+000
 8.166546212083097e-001	 1.433727738987390e+000	 8.545229609056914e+000
 8.020403238301335e-001	 1.441953993311656e+000	 8.398803056379302e+000
 7.873640826143185e-001	 1.450019931339554e+000	 8.247413699451373e+000
 7.726284741372415e-001	 1.457924977776064e+000	 8.090664504319500e+000
 7.578360785157806e-001	 1.465668611238756e+000	 7.928157198731429e+000
 9.165763369012980e-001	 1.401967481289294e+000	 9.289540200571029e+000
 9.021724537468538e-001	 1.411279512940094e+000	 9.173461775074623e+000
 8.876901491761343e-001	 1.420433454613544e+000	 9.053620438608114e+000
 8.731319874978143e-001	 1.429428393563374e+000	 8.929590635069840e+000
 8.585005451375706e-001	 1.438263471657590e+000	 8.800944311242594e+000
 8.437984092075714e-001	 1.446937885507002e+000	 8.667251395080015e+000
 8.290281760779216e-001	 1.455450886549564e+000	 8.528080273427948e+000
 8.141924499516234e-001	 1.463801781090832e+000	 8.382998268441986e+000
 7.992938414445910e-001	 1.471989930300882e+000	 8.231572111970030e+000
 7.843349661722372e-001	 1.480014750168104e+000	 8.073368417186435e+000
 7.693184433441208e-001	 1.487875711410334e+000	 7.907954146773574e+000
 9.302565807366219e-001	 1.422892369070492e+000	 9.180556420084162e+000
 9.156377142522415e-001	 1.432343386268811e+000	 9.072372787977679e+000
 9.009392558825640e-001	 1.441633953937804e+000	 8.959345881260267e+000
 8.861638082095283e-001	 1.450763145708120e+000	 8.841005071193708e+000
 8.713139861129269e-001	 1.459730090639828e+000	 8.716878625858577e+000
 8.563924153185422e-001	 1.468533973352852e+000	 8.586494221109904e+000
 8.414017309482721e-001	 1.477174034112580e+000	 8.449379448746463e+000
 8.263445760738212e-001	 1.485649568870919e+000	 8.305062321130274e+000
 8.112236002755201e-001	 1.493959929263171e+000	 8.153071771509779e+000
 7.960414582078192e-001	 1.502104522561134e+000	 7.992938149316459e+000
 7.808008081729572e-001	 1.510082811582913e+000	 7.824193709725558e+000
 9.439368245724484e-001	 1.443817256851695e+000	 9.015216359090593e+000
 9.291029747582215e-001	 1.453407259597724e+000	 8.914108884316589e+000
 9.141883625896556e-001	 1.462834453262429e+000	 8.807126684611676e+000
 8.991956289219539e-001	 1.472097897853381e+000	 8.693754313629249e+000
 8.841274270890236e-001	 1.481196709622710e+000	 8.573476585530754e+000
 8.689864214302620e-001	 1.490130061199455e+000	 8.445779118546458e+000
 8.537752858193610e-001	 1.498897181676438e+000	 8.310148873562184e+000
 8.384967021967261e-001	 1.507497356651917e+000	 8.166074686945249e+000
 8.231533591071064e-001	 1.515929928226421e+000	 8.013047796845390e+000
 8.077479502439875e-001	 1.524194294955155e+000	 7.850562362225606e+000
 7.922831730022893e-001	 1.532289911756491e+000	 7.678115973906406e+000
 9.576170684087774e-001	 1.464742144632903e+000	 8.794126288115383e+000
 9.425682352647938e-001	 1.474471132926832e+000	 8.699342079028844e+000
 9.274374692974090e-001	 1.484034952587418e+000	 8.597698753303956e+000
 9.122274496350906e-001	 1.493432649999157e+000	 8.488636279049185e+000
 8.969408680658606e-001	 1.502663328606234e+000	 8.371596219669330e+000
 8.815804275427316e-001	 1.511726149046811e+000	 8.246022309974867e+000
 8.661488406911885e-001	 1.520620329241137e+000	 8.111361025162962e+000
 8.506488283203392e-001	 1.529345144433827e+000	 7.967062141859290e+000
 8.350831179393492e-001	 1.537899927190630e+000	 7.812579290437103e+000
 8.194544422807419e-001	 1.546284067350165e+000	 7.647370497856730e+000
 8.037655378321177e-001	 1.554497011931069e+000	 7.470898720297130e+000
 6.889418895561570e-001	 1.332426010230286e+000	 6.636066705055511e+000
 6.754449800253557e-001	 1.339318512858777e+000	 6.381666230603767e+000
 6.619011416047155e-001	 1.346063474979750e+000	 6.162140048890533e+000
 6.483127220513681e-001	 1.352660568791450e+000	 5.977260911082552e+000
 6.346820674049267e-001	 1.359109514813409e+000	 5.826764674094750e+000
 6.210115207841032e-001	 1.365410081623910e+000	 5.686671269773624e+000
 6.073034211979438e-001	 1.371562085562787e+000	 5.536357728225301e+000
 5.935601023727934e-001	 1.377565390400310e+000	 5.439291576927932e+000
 5.797838915960678e-001	 1.383419906972935e+000	 5.393562502614599e+000
 5.659771085778667e-001	 1.389125592786738e+000	 5.397285632617528e+000
 5.521420643314210e-001	 1.394682451589383e+000	 5.448605052263795e+000
 7.004242543815207e-001	 1.354633110395864e+000	 7.027403805993811e+000
 6.867023963587897e-001	 1.361640488067934e+000	 6.780857891278922e+000
 6.729328272979888e-001	 1.368497866224071e+000	 6.566689739392775e+000
 6.591179340855365e-001	 1.375204911599156e+000	 6.384658493184815e+000
 6.452601018617065e-001	 1.381761340054712e+000	 6.234488385827531e+000
 6.313617127971891e-001	 1.388166916311995e+000	 6.115869437360673e+000
 6.174251448845149e-001	 1.394421453649835e+000	 5.985182197526989e+000
 6.034527707454686e-001	 1.400524813568007e+000	 5.863456103649792e+000
 5.894469564555900e-001	 1.406476905416907e+000	 5.789602644486728e+000
 5.754100603868140e-001	 1.412277685994379e+000	 5.761618876611291e+000
 5.613444320692591e-001	 1.417927159110548e+000	 5.777537137234786e+000
 7.119066192073804e-001	 1.376840210562442e+000	 7.346131763510029e+000
 6.979598126926294e-001	 1.383962463278092e+000	 7.107326969476715e+000
 6.839645129915994e-001	 1.390932257469392e+000	 6.898490067792094e+000
 6.699231461199932e-001	 1.397749254407861e+000	 6.719366246236978e+000
 6.558381363187454e-001	 1.404413165297016e+000	 6.569667717791326e+000
 6.417119048105254e-001	 1.410923751001080e+000	 6.449074408452777e+000
 6.275468685713479e-001	 1.417280821737884e+000	 6.357234679341624e+000
 6.133454391184368e-001	 1.423484236736704e+000	 6.229235037493724e+000
 5.991100213154564e-001	 1.429533903861880e+000	 6.129960281665285e+000
 5.848430121961761e-001	 1.435429779203020e+000	 6.072974137029179e+000
 5.705467998076025e-001	 1.441171866632713e+000	 6.056190827643825e+000
 7.233889840337364e-001	 1.399047310730021e+000	 7.593982758575815e+000
 7.092172290268761e-001	 1.406284438489250e+000	 7.362848376017159e+000
 6.949961986855466e-001	 1.413366648715713e+000	 7.159354711084451e+000
 6.807283581547375e-001	 1.420293597217567e+000	 6.983232652495991e+000
 6.664161707760433e-001	 1.427064990540319e+000	 6.834182001804727e+000
 6.520620968241121e-001	 1.433680585691165e+000	 6.711872153210373e+000
 6.376685922584428e-001	 1.440140189826932e+000	 6.615942805413758e+000
 6.232381074916984e-001	 1.446443659906401e+000	 6.535539464602261e+000
 6.087730861756668e-001	 1.452590902307852e+000	 6.413697226896534e+000
 5.942759640059532e-001	 1.458581872412662e+000	 6.330558186587244e+000
 5.797491675464509e-001	 1.464416574155878e+000	 6.283911974207024e+000
 7.348713488605884e-001	 1.421254410898599e+000	 7.772590069783971e+000
 7.204746453615288e-001	 1.428606413701408e+000	 7.549095284017311e+000
 7.060278843798309e-001	 1.435801039963035e+000	 7.350993017427149e+000
 6.915335701897699e-001	 1.442837940028273e+000	 7.177999518424572e+000
 6.769942052336005e-001	 1.449716815784622e+000	 7.029801790956191e+000
 6.624122888379495e-001	 1.456437420382251e+000	 6.906058267001614e+000
 6.477903159457994e-001	 1.462999557916980e+000	 6.806399508910299e+000
 6.331307758652531e-001	 1.469403083077098e+000	 6.730428940032106e+000
 6.184361510362216e-001	 1.475647900754824e+000	 6.639760534251854e+000
 6.037089158161451e-001	 1.481733965623303e+000	 6.533462148914402e+000
 5.889515352858046e-001	 1.487661281680043e+000	 6.459930128121710e+000
 7.463537136879365e-001	 1.443461511068178e+000	 7.883495681223927e+000
 7.317320616965880e-001	 1.450928388914566e+000	 7.667646954868840e+000
 7.170595700744522e-001	 1.458235431211356e+000	 7.475018031434174e+000
 7.023387822250904e-001	 1.465382282839978e+000	 7.305310180521313e+000
 6.875722396914169e-001	 1.472368641029925e+000	 7.158197227199131e+000
 6.727624808520369e-001	 1.479194255074336e+000	 7.033326217851487e+000
 6.579120396334177e-001	 1.485858926008029e+000	 6.930318113702658e+000
 6.430234442391007e-001	 1.492362506248796e+000	 6.848768510522688e+000
 6.280992158971204e-001	 1.498704899202796e+000	 6.788248382981581e+000
 6.131418676267521e-001	 1.504886058834944e+000	 6.680670394635662e+000
 5.981539030256632e-001	 1.510905989205208e+000	 6.583367487183216e+000
 7.578360785157806e-001	 1.465668611238756e+000	 7.928157198731429e+000
 7.429894780320530e-001	 1.473250364128723e+000	 7.719995852762136e+000
 7.280912557694106e-001	 1.480669822460677e+000	 7.532953789899306e+000
 7.131439942606986e-001	 1.487926625652684e+000	 7.366716965166549e+000
 6.981502741494924e-001	 1.495020466276229e+000	 7.220945648255481e+000
 6.831126728663752e-001	 1.501951089767421e+000	 7.095275083361753e+000
 6.680337633212981e-001	 1.508718294100077e+000	 6.989316174577343e+000
 6.529161126132416e-001	 1.515321929421493e+000	 6.902656195384979e+000
 6.377622807583634e-001	 1.521761897651768e+000	 6.834859520775412e+000
 6.225748194377736e-001	 1.528038152047585e+000	 6.771068628721142e+000
 6.073562707660272e-001	 1.534150696731373e+000	 6.653247028618347e+000
 7.693184433441208e-001	 1.487875711410334e+000	 7.907954146773574e+000
 7.542468943679248e-001	 1.495572339343881e+000	 7.707554122089759e+000
 7.391229414647058e-001	 1.503104213710998e+000	 7.526241964170332e+000
 7.239492062965948e-001	 1.510470968466389e+000	 7.363687980422086e+000
 7.087283086078270e-001	 1.517672291523532e+000	 7.219538513304898e+000
 6.934628648809639e-001	 1.524707924461506e+000	 7.093416594772479e+000
 6.781554870094402e-001	 1.531577662193125e+000	 6.984922624182390e+000
 6.628087809876755e-001	 1.538281352595190e+000	 6.893635068267396e+000
 6.474253456199506e-001	 1.544818896101741e+000	 6.819111181735530e+000
 6.320077712492103e-001	 1.551190245261227e+000	 6.760887747048299e+000
 6.165586385068961e-001	 1.557395404258538e+000	 6.668499913605328e+000
 7.808008081729572e-001	 1.510082811582913e+000	 7.824193709725558e+000
 7.655043107042029e-001	 1.517894314560039e+000	 7.631659493313396e+000
 7.501546271603380e-001	 1.525538604962319e+000	 7.456247916432222e+000
 7.347544183327789e-001	 1.533015311281095e+000	 7.297613308554666e+000
 7.193063430664208e-001	 1.540324116771835e+000	 7.155387717583482e+000
 7.038130568958031e-001	 1.547464759156591e+000	 7.029181559488415e+000
 6.882772106978443e-001	 1.554437030287174e+000	 6.918584289361498e+000
 6.727014493624025e-001	 1.561240775769887e+000	 6.823165092524921e+000
 6.570884104818818e-001	 1.567875894552713e+000	 6.742473594307247e+000
 6.414407230610617e-001	 1.574342338475868e+000	 6.676040587085580e+000
 6.257610062482705e-001	 1.580640111786703e+000	 6.623378773180580e+000
 7.922831730022893e-001	 1.532289911756491e+000	 7.678115973906406e+000
 7.767617270408872e-001	 1.540216289777197e+000	 7.493580675277999e+000
 7.611863128563070e-001	 1.547972996214641e+000	 7.324266229356357e+000
 7.455596303692513e-001	 1.555559654096801e+000	 7.169810660079264e+000
 7.298843775252739e-001	 1.562975942021138e+000	 7.029831357886883e+000
 7.141632489108927e-001	 1.570221593852676e+000	 6.903925725125277e+000
 6.983989343865100e-001	 1.577296398382222e+000	 6.791671840849592e+000
 6.825941177374223e-001	 1.584200198945584e+000	 6.692629143704020e+000
 6.667514753441572e-001	 1.590932893004685e+000	 6.606339131539245e+000
 6.508736748733278e-001	 1.597494431691509e+000	 6.532326076414412e+000
 6.349633739901497e-001	 1.603884819315868e+000	 6.470097753620532e+000
 8.037655378321177e-001	 1.554497011931069e+000	 7.470898720297130e+000
 7.880191433779774e-001	 1.562538264995355e+000	 7.294522285327409e+000
 7.722179985526132e-001	 1.570407387467961e+000	 7.131525761779983e+000
 7.563648424060112e-001	 1.578103996913506e+000	 6.981530543169280e+000
 7.404624119843859e-001	 1.585627767271441e+000	 6.844139003887380e+000
 7.245134409262326e-001	 1.592978428549761e+000	 6.718935140923108e+000
 7.085206580754377e-001	 1.600155766478270e+000	 6.605485232995289e+000
 6.924867861127356e-001	 1.607159622122281e+000	 6.503338515814545e+000
 6.764145402067767e-001	 1.613989891457657e+000	 6.412027872183471e+000
 6.603066266860092e-001	 1.620646524908150e+000	 6.331070535625207e+000
 6.441657417325339e-001	 1.627129526846032e+000	 6.259968806230205e+000
 5.521420643314210e-001	 1.394682451589383e+000	 5.448605052263795e+000
 5.382810600734966e-001	 1.400090532911170e+000	 5.298135811587356e+000
 5.243963861452564e-001	 1.405349931577071e+000	 5.158708981193135e+000
 5.104903209545467e-001	 1.410460787190097e+000	 5.028722136034270e+000
 4.965651299408992e-001	 1.415423283586218e+000	 4.906646654807870e+000
 4.826230645635711e-001	 1.420237648262862e+000	 4.791029730674553e+000
 4.686663613134736e-001	 1.424904151781651e+000	 4.680496172101039e+000
 4.546972407496676e-001	 1.429423107146426e+000	 4.573749993828292e+000
 4.407179065610664e-001	 1.433794869157610e+000	 4.469575798561101e+000
 4.267305446539296e-001	 1.438019833743952e+000	 4.366839950550401e+000
 4.127373222656903e-001	 1.442098437272754e+000	 4.264491542796763e+000
 5.613444320692591e-001	 1.417927159110548e+000	 5.777537137234786e+000
 5.472524110733930e-001	 1.423425375121222e+000	 5.585366446437700e+000
 5.331363259128185e-001	 1.428772430431791e+000	 5.408235144800315e+000
 5.189984929688456e-001	 1.433968466971982e+000	 5.244444262334786e+000
 5.048412154383311e-001	 1.439013671641701e+000	 5.092368590377207e+000
 4.906667823048521e-001	 1.443908275729996e+000	 4.950458876568106e+000
 4.764774673341676e-001	 1.448652554307849e+000	 4.817243802783104e+000
 4.622755280946555e-001	 1.453246825595835e+000	 4.691331745809793e+000
 4.480632050033767e-001	 1.457691450307712e+000	 4.571412321188312e+000
 4.338427203983611e-001	 1.461986830971045e+000	 4.456257711234935e+000
 4.196162776376646e-001	 1.466133411225922e+000	 4.344723778854172e+000
 5.705467998076025e-001	 1.441171866632713e+000	 6.056190827643825e+000
 5.562237620738787e-001	 1.446760217332268e+000	 5.827903163347053e+000
 5.418762656810238e-001	 1.452194929287489e+000	 5.618374588970039e+000
 5.275066649838111e-001	 1.457476146754822e+000	 5.425804186558228e+000
 5.131173009364219e-001	 1.462604059698101e+000	 5.248465084285071e+000
 4.987105000467546e-001	 1.467578903198001e+000	 5.084706839072471e+000
 4.842885733554154e-001	 1.472400956834864e+000	 4.932957594400294e+000
 4.698538154400997e-001	 1.477070544045993e+000	 4.791726012898833e+000
 4.554085034460164e-001	 1.481588031458489e+000	 4.659602983969308e+000
 4.409548961429655e-001	 1.485953828198727e+000	 4.535263107306430e+000
 4.264952330096262e-001	 1.490168385179584e+000	 4.417465953813705e+000
 5.797491675464509e-001	 1.464416574155878e+000	 6.283911974207024e+000
 5.651951130749543e-001	 1.470095059544309e+000	 6.025086993688908e+000
 5.506162054498724e-001	 1.475617428144168e+000	 5.788469816763420e+000
 5.360148369994428e-001	 1.480983826538614e+000	 5.572152055157417e+000
 5.213933864351719e-001	 1.486194447755420e+000	 5.374299977872411e+000
 5.067542177892783e-001	 1.491249530666879e+000	 5.193157084987274e+000
 4.920996793772169e-001	 1.496149359362695e+000	 5.027046448298806e+000
 4.774321027860003e-001	 1.500894262496901e+000	 4.874372818194201e+000
 4.627538018889852e-001	 1.505484612609940e+000	 4.733624496830713e+000
 4.480670718877427e-001	 1.509920825426997e+000	 4.603374978362770e+000
 4.333741883815754e-001	 1.514203359133739e+000	 4.482284357595901e+000
 5.889515352858046e-001	 1.487661281680043e+000	 6.459930128121710e+000
 5.741664640766192e-001	 1.493429901757344e+000	 6.176150876840134e+000
 5.593561452193646e-001	 1.499039927001826e+000	 5.917762910213902e+000
 5.445230090157408e-001	 1.504491506323362e+000	 5.682744727963874e+000
 5.296694719345807e-001	 1.509784835813656e+000	 5.469150424015954e+000
 5.147979355324236e-001	 1.514920158136628e+000	 5.275112455192423e+000
 4.999107853995723e-001	 1.519897761891342e+000	 5.098844167790564e+000
 4.850103901323571e-001	 1.524717980948561e+000	 4.938642081249490e+000
 4.700991003322835e-001	 1.529381193762065e+000	 4.792887928817658e+000
 4.551792476326930e-001	 1.533887822655857e+000	 4.660050455829282e+000
 4.402531437535119e-001	 1.538238333088388e+000	 4.538686976870099e+000
 5.981539030256632e-001	 1.510905989205208e+000	 6.583367487183216e+000
 5.831378150788742e-001	 1.516764743971375e+000	 6.280227974949524e+000
 5.680960849894999e-001	 1.522462425860463e+000	 6.005403255021752e+000
 5.530311810327054e-001	 1.527999186109062e+000	 5.756752954080977e+000
 5.379455574346488e-001	 1.533375223872810e+000	 5.532213555471757e+000
 5.228416532761903e-001	 1.538590785607250e+000	 5.329801366642785e+000
 5.077218914224815e-001	 1.543646164420804e+000	 5.147615234924895e+000
 4.925886774791704e-001	 1.548541699400969e+000	 4.983839010653449e+000
 4.774443987759110e-001	 1.553277774914866e+000	 4.836743757392110e+000
 4.622914233778161e-001	 1.557854819885305e+000	 4.704689709741465e+000
 4.471320991254359e-001	 1.562273307043531e+000	 4.586127979919922e+000
 6.073562707660272e-001	 1.534150696731373e+000	 6.653247028618347e+000
 5.921091660817187e-001	 1.540099586186401e+000	 6.336359231819082e+000
 5.768360247602784e-001	 1.545884924720079e+000	 6.050454563003617e+000
 5.615393530503365e-001	 1.551506865895716e+000	 5.793267895424719e+000
 5.462216429353760e-001	 1.556965611932881e+000	 5.562612547004879e+000
 5.308853710205784e-001	 1.562261413078743e+000	 5.356383450543350e+000
 5.155329974459445e-001	 1.567394566951083e+000	 5.172560062099398e+000
 5.001669648264401e-001	 1.572365417854128e+000	 5.009209006375542e+000
 4.847896972198679e-001	 1.577174356068340e+000	 4.864486458704300e+000
 4.694035991231121e-001	 1.581821817115343e+000	 4.736640264001601e+000
 4.540110544973472e-001	 1.586308280999167e+000	 4.624011793793489e+000
 6.165586385068961e-001	 1.557395404258538e+000	 6.668499913605328e+000
 6.010805170851529e-001	 1.563434428402422e+000	 6.343500254869919e+000
 5.855759645317007e-001	 1.569307423580675e+000	 6.051901265666051e+000
 5.700475250686339e-001	 1.575014545683324e+000	 5.791307066065207e+000
 5.544977284367619e-001	 1.580555999993871e+000	 5.559402134643002e+000
 5.389290887655879e-001	 1.585932040551108e+000	 5.353954685614692e+000
 5.233441034699612e-001	 1.591142969482178e+000	 5.172819773377063e+000
 5.077452521741660e-001	 1.596189136308038e+000	 5.013942123096100e+000
 4.921349956641541e-001	 1.601070937222489e+000	 4.875358686794844e+000
 4.765157748685812e-001	 1.605788814345970e+000	 4.755200925194390e+000
 4.608900098692462e-001	 1.610343254955298e+000	 4.651696816336011e+000
 6.257610062482705e-001	 1.580640111786703e+000	 6.623378773180580e+000
 6.100518680891768e-001	 1.586769270619437e+000	 6.300527589876220e+000
 5.943159043037662e-001	 1.592729922442250e+000	 6.008654343639345e+000
 5.785556970875977e-001	 1.598522225471885e+000	 5.749819747510157e+000
 5.627738139388071e-001	 1.604146388055779e+000	 5.521573647936342e+000
 5.469728065112188e-001	 1.609602668024345e+000	 5.321552078422176e+000
 5.311552094945315e-001	 1.614891372014088e+000	 5.147480563922439e+000
 5.153235395223481e-001	 1.620012854762696e+000	 4.997177139712075e+000
 4.994802941087695e-001	 1.624967518377312e+000	 4.868555084044200e+000
 4.836279506142232e-001	 1.629755811577185e+000	 4.759625364742887e+000
 4.677689652411324e-001	 1.634378228911922e+000	 4.668498800689732e+000
 6.349633739901497e-001	 1.603884819315868e+000	 6.470097753620532e+000
 6.190232190937902e-001	 1.610104112837447e+000	 6.206244450070209e+000
 6.030558440764752e-001	 1.616152421304804e+000	 5.919556649205584e+000
 5.870638691072279e-001	 1.622029905261401e+000	 5.667691933092907e+000
 5.710498994415113e-001	 1.627736776118604e+000	 5.448059604629507e+000
 5.550165242574712e-001	 1.633273295498454e+000	 5.258157936720875e+000
 5.389663155196559e-001	 1.638639774546815e+000	 5.095577680357045e+000
 5.229018268709867e-001	 1.643836573218105e+000	 4.958005274974277e+000
 5.068255925537144e-001	 1.648864099532809e+000	 4.843225760278118e+000
 4.907401263600380e-001	 1.653722808808989e+000	 4.749125389572190e+000
 4.746479206130062e-001	 1.658413202869040e+000	 4.673693945489810e+000
 6.441657417325339e-001	 1.627129526846032e+000	 6.259968806230205e+000
 6.279945700989932e-001	 1.633438955056451e+000	 6.041069540272044e+000
 6.117957838498271e-001	 1.639574920168338e+000	 5.783387772608761e+000
 5.955720411275246e-001	 1.645537585051869e+000	 5.543750848556367e+000
 5.793259849448744e-001	 1.651327164182347e+000	 5.337737911505060e+000
 5.630602420043449e-001	 1.656943922973434e+000	 5.162703776513249e+000
 5.467774215453342e-001	 1.662388177080358e+000	 5.016099059940137e+000
 5.304801142200817e-001	 1.667660291674265e+000	 4.895473584639772e+000
 5.141708909989884e-001	 1.672760680688981e+000	 4.798479473664548e+000
 4.978523021060256e-001	 1.677689806041381e+000	 4.722873932430471e+000
 4.815268759848673e-001	 1.682448176826651e+000	 4.666521720186365e+000
 4.127373222656903e-001	 1.442098437272754e+000	 4.264491542796763e+000
 3.987403871052226e-001	 1.446031155840163e+000	 4.101385512772206e+000
 3.847418665210725e-001	 1.449818504541092e+000	 3.950996790381232e+000
 3.707438666974943e-001	 1.453461036720863e+000	 3.812415064990655e+000
 3.567484718777406e-001	 1.456959343210722e+000	 3.684804452640517e+000
 3.427577436160288e-001	 1.460314051546808e+000	 3.567403768152879e+000
 3.287737200581075e-001	 1.463525825174173e+000	 3.459526618021485e+000
 3.147984152506359e-001	 1.466595362636951e+000	 3.360561318473923e+000
 3.008338184795505e-001	 1.469523396755786e+000	 3.269970643463940e+000
 2.868818936375482e-001	 1.472310693793589e+000	 3.187291407691484e+000
 2.729445786207708e-001	 1.474958052610726e+000	 3.112133890061571e+000
 4.196162776376646e-001	 1.466133411225922e+000	 4.344723778854172e+000
 4.053860602251623e-001	 1.470131675103331e+000	 4.175248542712582e+000
 3.911542309650638e-001	 1.473982146283010e+000	 4.019405976414910e+000
 3.769229311446954e-001	 1.477685387332699e+000	 3.876236382593136e+000
 3.626942797446991e-001	 1.481241998930835e+000	 3.744857103971578e+000
 3.484703726785304e-001	 1.484652619072495e+000	 3.624462842154610e+000
 3.342532820610353e-001	 1.487917922260149e+000	 3.514325788985516e+000
 3.200450555063187e-001	 1.491038618680334e+000	 3.413795575012463e+000
 3.058477154550844e-001	 1.494015453367372e+000	 3.322299039983368e+000
 2.916632585315760e-001	 1.496849205355224e+000	 3.239339830648635e+000
 2.774936549302054e-001	 1.499540686818598e+000	 3.164497831479806e+000
 4.264952330096262e-001	 1.490168385179584e+000	 4.417465953813705e+000
 4.120317333449102e-001	 1.494232194366904e+000	 4.245511366188454e+000
 3.975665954087251e-001	 1.498145788025262e+000	 4.087854377999801e+000
 3.831019955914699e-001	 1.501909737944822e+000	 3.943482771821712e+000
 3.686400876111745e-001	 1.505524654651208e+000	 3.811464293943667e+000
 3.541830017405329e-001	 1.508991186598434e+000	 3.690947018970406e+000
 3.397328440634880e-001	 1.512310019346387e+000	 3.581159518295611e+000
 3.252916957615902e-001	 1.515481874724011e+000	 3.481410837143757e+000
 3.108616124303101e-001	 1.518507509979303e+000	 3.391090285278382e+000
 2.964446234254375e-001	 1.521387716917276e+000	 3.309667046852278e+000
 2.820427312396547e-001	 1.524123321026976e+000	 3.236689615222498e+000
 4.333741883815754e-001	 1.514203359133739e+000	 4.482284357595901e+000
 4.186774064644662e-001	 1.518332713630881e+000	 4.311731899898916e+000
 4.039789598520567e-001	 1.522309429767849e+000	 4.155893479006060e+000
 3.892810600378176e-001	 1.526134088557231e+000	 4.013701154519488e+000
 3.745858954771669e-001	 1.529807310371839e+000	 3.884170185335906e+000
 3.598956308020363e-001	 1.533329754124623e+000	 3.766399439246682e+000
 3.452124060654657e-001	 1.536702116432889e+000	 3.659571597220881e+000
 3.305383360164506e-001	 1.539925130767982e+000	 3.562953157236737e+000
 3.158755094052277e-001	 1.542999566591581e+000	 3.475894242951576e+000
 3.012259883191330e-001	 1.545926228479745e+000	 3.397828222897495e+000
 2.865918075491187e-001	 1.548705955235862e+000	 3.328271146254800e+000
 4.402531437535119e-001	 1.538238333088388e+000	 4.538686976870099e+000
 4.253230795838304e-001	 1.542433232895262e+000	 4.373416450765961e+000
 4.103913242950587e-001	 1.546473071510771e+000	 4.223029520440983e+000
 3.954601244837385e-001	 1.550358439169927e+000	 4.086399249804704e+000
 3.805317033426760e-001	 1.554089966092728e+000	 3.962485451544935e+000
 3.656082598630407e-001	 1.557668321651062e+000	 3.850335140966551e+000
 3.506919680669683e-001	 1.561094213519653e+000	 3.749082774823882e+000
 3.357849762708995e-001	 1.564368386812248e+000	 3.657950280195254e+000
 3.208894063798372e-001	 1.567491623204204e+000	 3.576246878896869e+000
 3.060073532126624e-001	 1.570464740042631e+000	 3.503368713350121e+000
 2.911408838585973e-001	 1.573288589445256e+000	 3.438798280198554e+000
 4.471320991254359e-001	 1.562273307043531e+000	 4.586127979919922e+000
 4.319687527030028e-001	 1.566533752160047e+000	 4.430023685917823e+000
 4.168036887377308e-001	 1.570636713254029e+000	 4.288726980668907e+000
 4.016391889292326e-001	 1.574582789782909e+000	 4.161048589664794e+000
 3.864775112077022e-001	 1.578372621813877e+000	 4.045889852691072e+000
 3.713208889235461e-001	 1.582006889177752e+000	 3.942243221192833e+000
 3.561715300679961e-001	 1.585486310606679e+000	 3.849192530437938e+000
 3.410316165249372e-001	 1.588811642856808e+000	 3.765913051724849e+000
 3.259033033541383e-001	 1.591983679817173e+000	 3.691671330354152e+000
 3.107887181060257e-001	 1.595003251605934e+000	 3.625824815517990e+000
 2.956899601680905e-001	 1.597871223655156e+000	 3.567821288666180e+000
 4.540110544973472e-001	 1.586308280999167e+000	 4.624011793793489e+000
 4.386144258219834e-001	 1.590634271425237e+000	 4.480968241763815e+000
 4.232160531800732e-001	 1.594800354997621e+000	 4.352411739248102e+000
 4.078182533742999e-001	 1.598807140396178e+000	 4.237087260405869e+000
 3.924233190722452e-001	 1.602655277535282e+000	 4.133834577533518e+000
 3.770335179835524e-001	 1.606345456704692e+000	 4.041588801289522e+000
 3.616510920685486e-001	 1.609878407693968e+000	 3.959380685010161e+000
 3.462782567785636e-001	 1.613254898901663e+000	 3.886336698575077e+000
 3.309172003281313e-001	 1.616475736430489e+000	 3.821678877776939e+000
 3.155700829992229e-001	 1.619541763169653e+000	 3.764724455606963e+000
 3.002390364775985e-001	 1.622453857865564e+000	 3.714885282291833e+000
 4.608900098692462e-001	 1.610343254955298e+000	 4.651696816336011e+000
 4.452600989407723e-001	 1.614734790690830e+000	 4.525624009869075e+000
 4.296284176220858e-001	 1.618963996741549e+000	 4.413473957438376e+000
 4.139973178189405e-001	 1.623031491009734e+000	 4.313922398598970e+000
 3.983691269363052e-001	 1.626937933256947e+000	 4.225744375661319e+000
 3.827461470430595e-001	 1.630684024231883e+000	 4.147814816153049e+000
 3.671306540686263e-001	 1.634270504781519e+000	 4.079108868145539e+000
 3.515248970317787e-001	 1.637698154946812e+000	 4.018701994133112e+000
 3.359310973018162e-001	 1.640967793044150e+000	 3.965769829667173e+000
 3.203514478922541e-001	 1.644080274733791e+000	 3.919587813430212e+000
 3.047881127871212e-001	 1.647036492076480e+000	 3.879530595878965e+000
 4.677689652411324e-001	 1.634378228911922e+000	 4.668498800689732e+000
 4.519057720593694e-001	 1.638835309956827e+000	 4.563327132899004e+000
 4.360407820637686e-001	 1.643127638485812e+000	 4.471270704546817e+000
 4.201763822631544e-001	 1.647255841623576e+000	 4.390932466795865e+000
 4.043149347998820e-001	 1.651220588978870e+000	 4.321019501550115e+000
 3.884587761020676e-001	 1.655022591759324e+000	 4.260343645569955e+000
 3.726102160682288e-001	 1.658662601869332e+000	 4.207821855705257e+000
 3.567715372845826e-001	 1.662141410992255e+000	 4.162476321171151e+000
 3.409449942751927e-001	 1.665459849658157e+000	 4.123434329336516e+000
 3.251328127851191e-001	 1.668618786298344e+000	 4.089927891995690e+000
 3.093371890966585e-001	 1.671619126287902e+000	 4.061293139564391e+000
 4.746479206130062e-001	 1.658413202869040e+000	 4.673693945489810e+000
 4.585514451777746e-001	 1.662935829223229e+000	 4.593378740046396e+000
 4.424531465051217e-001	 1.667291280230410e+000	 4.525128355895033e+000
 4.263554467069414e-001	 1.671480192237705e+000	 4.467469331356870e+000
 4.102607426629757e-001	 1.675503244701052e+000	 4.419037489570219e+000
 3.941714051605766e-001	 1.679361159287015e+000	 4.378578603718082e+000
 3.780897780673564e-001	 1.683054698957408e+000	 4.344948791092769e+000
 3.620181775369751e-001	 1.686584667037993e+000	 4.317114642180923e+000
 3.459588912482612e-001	 1.689951906272510e+000	 4.294153091514269e+000
 3.299141776778181e-001	 1.693157297863315e+000	 4.275251037564582e+000
 3.138862654062104e-001	 1.696201760499832e+000	 4.259704719446349e+000
 4.815268759848673e-001	 1.682448176826651e+000	 4.666521720186365e+000
 4.651971182959880e-001	 1.687036348490034e+000	 4.615047447993957e+000
 4.488655109461449e-001	 1.691454921975343e+000	 4.574344785246967e+000
 4.325345111503017e-001	 1.695704542852121e+000	 4.542860162178149e+000
 4.162065505255864e-001	 1.699785900423492e+000	 4.519154776851619e+000
 3.998840342185866e-001	 1.703699726814957e+000	 4.501905300995489e+000
 3.835693400660090e-001	 1.707446796045747e+000	 4.489904301858138e+000
 3.672648177889564e-001	 1.711027923084024e+000	 4.482060386536280e+000
 3.509727882210215e-001	 1.714443962887209e+000	 4.477398075817648e+000
 3.346955425703510e-001	 1.717695809428702e+000	 4.475057415133317e+000
 3.184353417157770e-001	 1.720784394712270e+000	 4.474293330729996e+000
 2.729445786207708e-001	 1.474958052610726e+000	 3.112133890061571e+000
 2.590237847553507e-001	 1.477466303810354e+000	 2.974225312544258e+000
 2.451213962520330e-001	 1.479836308875993e+000	 2.842222461420804e+000
 2.312392696899343e-001	 1.482068959301720e+000	 2.715957111233864e+000
 2.173792335306681e-001	 1.484165175715300e+000	 2.595332559591615e+000
 2.035430876609109e-001	 1.486125906996327e+000	 2.480322293084384e+000
 1.897326029638495e-001	 1.487952129390019e+000	 2.370968529970071e+000
 1.759495209193236e-001	 1.489644845617649e+000	 2.267380646587187e+000
 1.621955532324464e-001	 1.491205083984588e+000	 2.169733494550102e+000
 1.484723814904554e-001	 1.492633897486894e+000	 2.078265615855475e+000
 1.347816568475081e-001	 1.493932362917365e+000	 1.993277363074640e+000
 2.774936549302054e-001	 1.499540686818598e+000	 3.164497831479806e+000
 2.633408478327074e-001	 1.502090742204176e+000	 3.028465689468134e+000
 2.492067528535041e-001	 1.504500247353678e+000	 2.901448333296254e+000
 2.350932575146957e-001	 1.506770108619411e+000	 2.783252714790411e+000
 2.210022207522548e-001	 1.508901261972938e+000	 2.673757876764665e+000
 2.069354724509679e-001	 1.510894672108512e+000	 2.572913639550837e+000
 1.928948130087401e-001	 1.512751331542102e+000	 2.480739159710700e+000
 1.788820129300737e-001	 1.514472259707000e+000	 2.397321368057487e+000
 1.648988124484991e-001	 1.516058502047001e+000	 2.322813294217782e+000
 1.509469211777063e-001	 1.517511129108093e+000	 2.257432285046970e+000
 1.370280177910873e-001	 1.518831235629623e+000	 2.201458124260875e+000
 2.820427312396547e-001	 1.524123321026976e+000	 3.236689615222498e+000
 2.676579109102633e-001	 1.526715180598594e+000	 3.105172404504477e+000
 2.532921094553274e-001	 1.529164185832027e+000	 2.985424362246030e+000
 2.389472453399318e-001	 1.531471257937816e+000	 2.877227746543194e+000
 2.246252079744082e-001	 1.533637348231319e+000	 2.780437801420258e+000
 2.103278572416531e-001	 1.535663437221448e+000	 2.694981457876262e+000
 1.960570230542905e-001	 1.537550533694922e+000	 2.620855902174407e+000
 1.818145049414855e-001	 1.539299673797057e+000	 2.558127018691311e+000
 1.676020716651859e-001	 1.540911920110067e+000	 2.506927714756265e+000
 1.534214608655345e-001	 1.542388360729875e+000	 2.467456134995546e+000
 1.392743787351581e-001	 1.543730108342372e+000	 2.439973772757712e+000
 2.865918075491187e-001	 1.548705955235862e+000	 3.328271146254800e+000
 2.719749739880180e-001	 1.551339618993610e+000	 3.203850860830284e+000
 2.573774660575030e-001	 1.553828124311042e+000	 3.093604905349298e+000
 2.428012331656426e-001	 1.556172407256935e+000	 2.997290910740786e+000
 2.282481951971282e-001	 1.558373434490442e+000	 2.914740715696834e+000
 2.137202420329666e-001	 1.560432202335132e+000	 2.845859076189918e+000
 1.992192331005008e-001	 1.562349735848480e+000	 2.790622236938783e+000
 1.847469969535590e-001	 1.564127087887819e+000	 2.749076372350763e+000
 1.703053308825067e-001	 1.565765338173787e+000	 2.721335904590037e+000
 1.558960005539401e-001	 1.567265592352239e+000	 2.707581706512317e+000
 1.415207396797206e-001	 1.568628981055612e+000	 2.708059197271808e+000
 2.911408838585973e-001	 1.573288589445256e+000	 3.438798280198554e+000
 2.762920370659718e-001	 1.575964057389222e+000	 3.324007892050099e+000
 2.614628226600309e-001	 1.578492062790723e+000	 3.225452651630018e+000
 2.466552209918282e-001	 1.580873556576769e+000	 3.142865569184838e+000
 2.318711824204148e-001	 1.583109520750306e+000	 3.076055411625121e+000
 2.171126268249082e-001	 1.585200967449566e+000	 3.024905414511840e+000
 2.023814431473708e-001	 1.587148938002775e+000	 2.989371850338871e+000
 1.876794889662942e-001	 1.588954501979286e+000	 2.969482460871937e+000
 1.730085901004617e-001	 1.590618756238160e+000	 2.965334761432536e+000
 1.583705402429229e-001	 1.592142823975185e+000	 2.977094225114582e+000
 1.437671006247749e-001	 1.593527853769345e+000	 3.004992354991689e+000
 2.956899601680905e-001	 1.597871223655156e+000	 3.567821288666180e+000
 2.806091001441247e-001	 1.600588495785431e+000	 3.465151652163103e+000
 2.655481792629111e-001	 1.603156001271070e+000	 3.380437981138176e+000
 2.505092088184885e-001	 1.605574705897316e+000	 3.313388613725993e+000
 2.354941696442679e-001	 1.607845607010913e+000	 3.263789521136350e+000
 2.205050116174781e-001	 1.609969732564750e+000	 3.231503016145465e+000
 2.055436531949007e-001	 1.611948140157806e+000	 3.216466311869951e+000
 1.906119809796910e-001	 1.613781916071458e+000	 3.218689938836127e+000
 1.757118493190508e-001	 1.615472174303186e+000	 3.238256028494255e+000
 1.608450799324832e-001	 1.617020055598714e+000	 3.275316471433215e+000
 1.460134615703208e-001	 1.618426726483569e+000	 3.330090958627577e+000
 3.002390364775985e-001	 1.622453857865564e+000	 3.714885282291833e+000
 2.849261632224765e-001	 1.625212934182237e+000	 3.626791515533340e+000
 2.696335358661434e-001	 1.627819939752082e+000	 3.558038382296117e+000
 2.543631966456235e-001	 1.630275855218577e+000	 3.508309441260006e+000
 2.391171568686878e-001	 1.632581693272261e+000	 3.477368088797030e+000
 2.238973964106763e-001	 1.634738497680683e+000	 3.465056258035360e+000
 2.087058632430904e-001	 1.636747342313575e+000	 3.471292961827291e+000
 1.935444729937496e-001	 1.638609330164335e+000	 3.496072687907518e+000
 1.784151085382740e-001	 1.640325592368866e+000	 3.539463654672671e+000
 1.633196196226208e-001	 1.641897287222824e+000	 3.601605936128369e+000
 1.482598225163585e-001	 1.643325599198285e+000	 3.682709464629611e+000
 3.047881127871212e-001	 1.647036492076480e+000	 3.879530595878965e+000
 2.892432263010272e-001	 1.649837372579640e+000	 3.808437985817577e+000
 2.737188924697281e-001	 1.652483878233760e+000	 3.757737921423160e+000
 2.582171844732333e-001	 1.654977004540552e+000	 3.727089020515549e+000
 2.427401440936743e-001	 1.657317779534351e+000	 3.716232272358492e+000
 2.272897812045027e-001	 1.659507262797366e+000	 3.724989721390577e+000
 2.118680732919400e-001	 1.661546544470082e+000	 3.753262988111882e+000
 1.964769650084698e-001	 1.663436744257918e+000	 3.801031635707288e+000
 1.811183677581314e-001	 1.665179010435199e+000	 3.868351391142624e+000
 1.657941593133357e-001	 1.666774518847517e+000	 3.955352229588765e+000
 1.505061834628878e-001	 1.668224471913492e+000	 4.062236331117520e+000
 3.093371890966585e-001	 1.671619126287902e+000	 4.061293139564391e+000
 2.935602893797771e-001	 1.674461810977640e+000	 4.009602612929053e+000
 2.778042490736651e-001	 1.677147816716104e+000	 3.979026759066728e+000
 2.620711723013177e-001	 1.679678153863241e+000	 3.969199041184022e+000
 2.463631313192274e-001	 1.682053865797183e+000	 3.979838157963928e+000
 2.306821659989573e-001	 1.684276027914798e+000	 4.010746706077404e+000
 2.150302833414495e-001	 1.686345746627326e+000	 4.061809672730014e+000
 1.994094570238518e-001	 1.688264158352205e+000	 4.132992767140531e+000
 1.838216269786228e-001	 1.690032428502185e+000	 4.224340600012475e+000
 1.682686990046280e-001	 1.691651750472792e+000	 4.335974720186810e+000
 1.527525444099089e-001	 1.693123344629191e+000	 4.468091517758118e+000
 3.138862654062104e-001	 1.696201760499832e+000	 4.259704719446349e+000
 2.978773524587259e-001	 1.699086249376236e+000	 4.229797917221843e+000
 2.818896056779544e-001	 1.701811755199113e+000	 4.221400708391380e+000
 2.659251601298770e-001	 1.704379303186644e+000	 4.234121137038258e+000
 2.499861185453471e-001	 1.706789952060757e+000	 4.267655678380696e+000
 2.340745507940402e-001	 1.709044793032979e+000	 4.321787874194283e+000
 2.181924933916187e-001	 1.711144948785307e+000	 4.396386790771119e+000
 2.023419490398955e-001	 1.713091572447198e+000	 4.491405308650878e+000
 1.865248861997483e-001	 1.714885846569825e+000	 4.606878253531668e+000
 1.707432386964976e-001	 1.716528982098648e+000	 4.742920377903205e+000
 1.549989053574216e-001	 1.718022217345382e+000	 4.899724203044359e+000
 3.184353417157770e-001	 1.720784394712270e+000	 4.474293330729996e+000
 3.021944155378737e-001	 1.723710687775430e+000	 4.468537320173668e+000
 2.859749622825958e-001	 1.726475693682788e+000	 4.484360831420524e+000
 2.697791479589108e-001	 1.729080452510761e+000	 4.521346175640746e+000
 2.536091057720334e-001	 1.731526038325072e+000	 4.579167623955820e+000
 2.374669355897513e-001	 1.733813558151911e+000	 4.657590009913025e+000
 2.213547034424477e-001	 1.735944150944025e+000	 4.756467146616237e+000
 2.052744410566008e-001	 1.737918986542895e+000	 4.875740068110644e+000
 1.892281454215078e-001	 1.739739264638117e+000	 5.015435104795185e+000
 1.732177783889445e-001	 1.741406213725087e+000	 5.175661802783451e+000
 1.572452663054261e-001	 1.742921090062064e+000	 5.356610697236328e+000
 1.347816568475081e-001	 1.493932362917365e+000	 1.993277363074640e+000
 1.211249997365069e-001	 1.495101579972037e+000	 1.851785789688968e+000
 1.075039996094458e-001	 1.496142670357773e+000	 1.713279033498892e+000
 9.392021470467503e-002	 1.497056776901965e+000	 1.578187478331321e+000
 8.037517183948716e-002	 1.497845062665274e+000	 1.447000226356674e+000
 6.687036622943404e-002	 1.498508710058030e+000	 1.320262765610087e+000
 5.340726133332937e-002	 1.499048919961125e+000	 1.198574581480868e+000
 3.998728872347066e-002	 1.499466910852138e+000	 1.082586719308521e+000
 2.661184798060209e-002	 1.499763917937434e+000	 9.729993051040857e-001
 1.328230661311983e-002	 1.499941192290897e+000	 8.705590312814687e-001
 0.000000000000000e+000	 1.500000000000000e+000	 7.760566141335408e-001
 1.370280177910873e-001	 1.518831235629623e+000	 2.201458124260875e+000
 1.231437497286795e-001	 1.520019939635790e+000	 2.085375722294465e+000
 1.092957329332651e-001	 1.521078381528475e+000	 1.974343952923664e+000
 9.548555161383344e-002	 1.522007723182194e+000	 1.868802896596471e+000
 8.171475803463187e-002	 1.522809147041951e+000	 1.769252110838786e+000
 6.798487233147164e-002	 1.523483855224919e+000	 1.676248250104897e+000
 5.429738235414672e-002	 1.524033068626668e+000	 1.590402627533739e+000
 4.065374353449300e-002	 1.524458026032741e+000	 1.512378725979600e+000
 2.705537877960047e-002	 1.524759983236272e+000	 1.442889665565043e+000
 1.350367838967197e-002	 1.524940212162383e+000	 1.382695634864281e+000
 0.000000000000000e+000	 1.525000000000000e+000	 1.332601292672388e+000
 1.392743787351581e-001	 1.543730108342372e+000	 2.439973772757712e+000
 1.251624997212492e-001	 1.544938299299939e+000	 2.349751637370070e+000
 1.110874662573970e-001	 1.546014092699489e+000	 2.266329485776184e+000
 9.705088852323032e-002	 1.546958669462661e+000	 2.190159430694232e+000
 8.305434422995120e-002	 1.547773231418804e+000	 2.121754072901668e+000
 6.909937843363008e-002	 1.548459000391928e+000	 2.061684065329001e+000
 5.518750337504116e-002	 1.549017217292289e+000	 2.010575616839339e+000
 4.132019834555854e-002	 1.549449141213387e+000	 1.969107943312713e+000
 2.749890957861798e-002	 1.549756048535131e+000	 1.938010673529954e+000
 1.372505016622889e-002	 1.549939232033873e+000	 1.918061217207500e+000
 0.000000000000000e+000	 1.550000000000000e+000	 1.910082102376969e+000
 1.415207396797206e-001	 1.568628981055612e+000	 2.708059197271808e+000
 1.271812497142158e-001	 1.569856658964486e+000	 2.644081013186982e+000
 1.128791995818416e-001	 1.570949803870817e+000	 2.588339435742564e+000
 9.861622543286573e-002	 1.571909615743366e+000	 2.541300919649356e+000
 8.439393042544517e-002	 1.572737315795831e+000	 2.503493671187129e+000
 7.021388453590939e-002	 1.573434145559059e+000	 2.475505148450824e+000
 5.607762439601265e-002	 1.574001365957986e+000	 2.457979498903995e+000
 4.198665315666728e-002	 1.574440256394075e+000	 2.451614942127294e+000
 2.794244037765462e-002	 1.574752113834009e+000	 2.457161105523360e+000
 1.394642194279057e-002	 1.574938251905368e+000	 2.475416320591866e+000
 0.000000000000000e+000	 1.575000000000000e+000	 2.507224887224986e+000
 1.437671006247749e-001	 1.593527853769345e+000	 3.004992354991689e+000
 1.291999997075793e-001	 1.594775018629429e+000	 2.967580148859549e+000
 1.146709329065987e-001	 1.595885515042456e+000	 2.939531705771923e+000
 1.001815623427396e-001	 1.596860562024310e+000	 2.921330108947626e+000
 8.573351662111377e-002	 1.597701400173032e+000	 2.913521709709225e+000
 7.132839063830955e-002	 1.598409290726310e+000	 2.916713555780522e+000
 5.696774541706121e-002	 1.598985514623761e+000	 2.931570754350901e+000
 4.265310796781922e-002	 1.599431371574808e+000	 2.958813778084064e+000
 2.838597117671039e-002	 1.599748179132905e+000	 2.999215722118315e+000
 1.416779371935701e-002	 1.599937271776868e+000	 3.053599519952721e+000
 0.000000000000000e+000	 1.600000000000000e+000	 3.122835125945404e+000
 1.460134615703208e-001	 1.618426726483569e+000	 3.330090958627577e+000
 1.312187497013398e-001	 1.619693378294770e+000	 3.319510408895927e+000
 1.164626662316684e-001	 1.620821226214409e+000	 3.319114136594735e+000
 1.017468992528521e-001	 1.621811508305493e+000	 3.329404119269404e+000
 8.707310281695702e-002	 1.622665484550409e+000	 3.350947372825601e+000
 7.244289674083054e-002	 1.623384435893682e+000	 3.384373299759132e+000
 5.785786643818686e-002	 1.623969663289613e+000	 3.430370969449712e+000
 4.331956277901437e-002	 1.624422486755583e+000	 3.489686339005346e+000
 2.882950197578529e-002	 1.624744244431821e+000	 3.563119423009870e+000
 1.438916549592822e-002	 1.624936291648372e+000	 3.651521420368084e+000
 0.000000000000000e+000	 1.625000000000000e+000	 3.755791806268336e+000
 1.482598225163585e-001	 1.643325599198285e+000	 3.682709464629611e+000
 1.332374996954973e-001	 1.644611737960508e+000	 3.699174809153027e+000
 1.182543995570507e-001	 1.645756937386673e+000	 3.726340723557535e+000
 1.033122361632030e-001	 1.646762454586915e+000	 3.764730327156940e+000
 8.841268901297489e-002	 1.647629568927960e+000	 3.814933802484228e+000
 7.355740284347240e-002	 1.648359581061175e+000	 3.877605655312252e+000
 5.874798745938958e-002	 1.648953811955542e+000	 3.953461903870491e+000
 4.398601759025272e-002	 1.649413601936402e+000	 4.043277206074635e+000
 2.927303277487933e-002	 1.649740309730756e+000	 4.147881933445207e+000
 1.461053727250419e-002	 1.649935311519882e+000	 4.268159200229679e+000
 0.000000000000000e+000	 1.650000000000000e+000	 4.405041856061453e+000
 1.505061834628878e-001	 1.668224471913492e+000	 4.062236331117520e+000
 1.352562496900517e-001	 1.669530097626642e+000	 4.105914908527052e+000
 1.200461328827456e-001	 1.670692648559252e+000	 4.160508172248572e+000
 1.048775730737925e-001	 1.671713400868574e+000	 4.226562614576918e+000
 8.975227520916734e-002	 1.672593653305685e+000	 4.304694071537751e+000
 7.467190894623507e-002	 1.673334726228788e+000	 4.395584886530388e+000
 5.963810848066937e-002	 1.673937960621547e+000	 4.499981000131627e+000
 4.465247240153425e-002	 1.674404717117263e+000	 4.618688975227842e+000
 2.971656357399250e-002	 1.674736375029710e+000	 4.752572966495730e+000
 1.483190904908494e-002	 1.674934331391396e+000	 4.902551643085316e+000
 0.000000000000000e+000	 1.675000000000000e+000	 5.069595073170350e+000
 1.527525444099089e-001	 1.693123344629191e+000	 4.468091517758118e+000
 1.372749996850031e-001	 1.694448457293173e+000	 4.539107974906393e+000
 1.218378662087531e-001	 1.695628359732141e+000	 4.620952758039101e+000
 1.064429099846205e-001	 1.696664347150472e+000	 4.714197949403864e+000
 9.109186140553449e-002	 1.697557737683585e+000	 4.819487512353224e+000
 7.578641504911862e-002	 1.698309871396523e+000	 4.937534350406888e+000
 6.052822950202623e-002	 1.698922109287630e+000	 5.069117289272738e+000
 4.531892721285900e-002	 1.699395832298168e+000	 5.215077991362511e+000
 3.016009437312479e-002	 1.699732440328683e+000	 5.376317812187796e+000
 1.505328082567045e-002	 1.699933351262915e+000	 5.553794607847790e+000
 0.000000000000000e+000	 1.700000000000000e+000	 5.748519502626089e+000
 1.549989053574216e-001	 1.718022217345382e+000	 4.899724203044359e+000
 1.392937496803514e-001	 1.719366816960102e+000	 4.998164397563637e+000
 1.236295995350731e-001	 1.720564070905344e+000	 5.107047458707497e+000
 1.080082468956869e-001	 1.721615293432609e+000	 5.226973263253159e+000
 9.243144760207625e-002	 1.722521822061660e+000	 5.358616364673569e+000
 7.690092115212303e-002	 1.723285016564378e+000	 5.502722939381121e+000
 6.141835052346017e-002	 1.723906257953791e+000	 5.660107652555949e+000
 4.598538202422694e-002	 1.724386947479117e+000	 5.831650453485687e+000
 3.060362517227623e-002	 1.724728505627676e+000	 6.018293310187101e+000
 1.527465260226072e-002	 1.724932371134438e+000	 6.221036892899077e+000
 0.000000000000000e+000	 1.725000000000000e+000	 6.440937215834704e+000
 1.572452663054261e-001	 1.742921090062064e+000	 5.356610697236328e+000
 1.413124996760967e-001	 1.744285176627427e+000	 5.482525321342264e+000
 1.254213328617058e-001	 1.745499782078859e+000	 5.618199332839112e+000
 1.095735838069919e-001	 1.746566239714984e+000	 5.764262596927889e+000
 9.377103379879261e-002	 1.747485906439909e+000	 5.921422710804952e+000
 7.801542725524828e-002	 1.748260161732354e+000	 6.090461828806753e+000
 6.230847154497118e-002	 1.748890406620027e+000	 6.272233403592958e+000
 4.665183683563808e-002	 1.749378062660108e+000	 6.467658853705962e+000
 3.104715597144679e-002	 1.749724570926687e+000	 6.677724167681637e+000
 1.549602437885576e-002	 1.749931391005967e+000	 6.903476454699633e+000
 0.000000000000000e+000	 1.750000000000000e+000	 7.146020451550361e+000
 1.750000000000000e+000	 0.000000000000000e+000	 1.314219981366882e+001
 1.749931391005967e+000	 1.549602437885581e-002	 1.322003240695549e+001
 1.749724570926687e+000	 3.104715597144690e-002	 1.328359664501559e+001
 1.749378062660108e+000	 4.665183683563796e-002	 1.333303331112380e+001
 1.748890406620027e+000	 6.230847154497113e-002	 1.336848891945036e+001
 1.748260161732354e+000	 7.801542725524827e-002	 1.339011514795007e+001
 1.747485906439909e+000	 9.377103379879266e-002	 1.339806824348473e+001
 1.746566239714984e+000	 1.095735838069920e-001	 1.339250839984503e+001
 1.745499782078859e+000	 1.254213328617057e-001	 1.337359910944189e+001
 1.744285176627427e+000	 1.413124996760966e-001	 1.334150648954285e+001
 1.742921090062065e+000	 1.572452663054261e-001	 1.329639858403660e+001
 1.775000000000000e+000	 0.000000000000000e+000	 1.304122941024783e+001
 1.774930410877498e+000	 1.571739615545324e-002	 1.311849600602209e+001
 1.774720636225708e+000	 3.149068677062703e-002	 1.318112784633412e+001
 1.774369177841122e+000	 4.731829164707072e-002	 1.322928589178459e+001
 1.773874555286303e+000	 6.319859256652068e-002	 1.326313722340597e+001
 1.773235306900391e+000	 7.912993335843395e-002	 1.328285444196241e+001
 1.772449990818246e+000	 9.511061999559638e-002	 1.328861503788045e+001
 1.771517185997479e+000	 1.111389207184163e-001	 1.328060073250775e+001
 1.770435493252530e+000	 1.272130661884946e-001	 1.325899679150491e+001
 1.769203536294951e+000	 1.433312496720404e-001	 1.322399131128738e+001
 1.767819962778993e+000	 1.594916272536765e-001	 1.317577447954672e+001
 1.800000000000000e+000	 0.000000000000000e+000	 1.297586547619454e+001
 1.799929430749029e+000	 1.593876793205066e-002	 1.305122224958575e+001
 1.799716701524729e+000	 3.193421756980716e-002	 1.311158844393040e+001
 1.799360293022134e+000	 4.798474645850345e-002	 1.315714651324179e+001
 1.798858703952579e+000	 6.408871358807022e-002	 1.318808543034694e+001
 1.798210452068427e+000	 8.024443946161963e-002	 1.320460005097595e+001
 1.797414075196582e+000	 9.645020619240008e-002	 1.320689044682145e+001
 1.796468132279973e+000	 1.127042576298405e-001	 1.319516120829647e+001
 1.795371204426202e+000	 1.290047995152836e-001	 1.316962071783366e+001
 1.794121895962475e+000	 1.453499996679842e-001	 1.313048039468538e+001
 1.792718835495921e+000	 1.617379882019268e-001	 1.307795391230288e+001
 1.825000000000000e+000	 0.000000000000000e+000	 1.294605000485542e+001
 1.824928450620559e+000	 1.616013970864808e-002	 1.301811085359068e+001
 1.824712766823750e+000	 3.237774836898728e-002	 1.307483572262984e+001
 1.824351408203147e+000	 4.865120126993620e-002	 1.311642989964163e+001
 1.823842852618854e+000	 6.497883460961976e-002	 1.314310559871634e+001
 1.823185597236464e+000	 8.135894556480529e-002	 1.315508128760171e+001
 1.822378159574919e+000	 9.778979238920375e-002	 1.315258098218796e+001
 1.821419078562467e+000	 1.142695945412647e-001	 1.313583350900341e+001
 1.820306915599873e+000	 1.307965328420725e-001	 1.310507173660258e+001
 1.819040255629999e+000	 1.473687496639279e-001	 1.306053177685133e+001
 1.817617708212850e+000	 1.639843491501772e-001	 1.300245215723738e+001
 1.850000000000000e+000	 0.000000000000000e+000	 1.295172812507174e+001
 1.849927470492090e+000	 1.638151148524551e-002	 1.301906469374171e+001
 1.849708832122770e+000	 3.282127916816741e-002	 1.307073016682430e+001
 1.849342523384160e+000	 4.931765608136893e-002	 1.310695403019698e+001
 1.848827001285130e+000	 6.586895563116930e-002	 1.312797311336690e+001
 1.848160742404501e+000	 8.247345166799097e-002	 1.313403087818821e+001
 1.847342243953256e+000	 9.912937858600747e-002	 1.312537667304632e+001
 1.846370024844962e+000	 1.158349314526890e-001	 1.310226495330528e+001
 1.845242626773545e+000	 1.325882661688614e-001	 1.306495446894117e+001
 1.843958615297522e+000	 1.493874996598717e-001	 1.301370742041231e+001
 1.842516580929779e+000	 1.662307100984275e-001	 1.294878858394754e+001
 1.875000000000000e+000	 0.000000000000000e+000	 1.299284789214650e+001
 1.874926490363621e+000	 1.660288326184293e-002	 1.305398959485343e+001
 1.874704897421792e+000	 3.326480996734755e-002	 1.309913524716765e+001
 1.874333638565173e+000	 4.998411089280167e-002	 1.312853992218294e+001
 1.873811149951405e+000	 6.675907665271885e-002	 1.314246646380039e+001
 1.873135887572538e+000	 8.358795777117666e-002	 1.314118473523912e+001
 1.872306328331592e+000	 1.004689647828112e-001	 1.312497083116997e+001
 1.871320971127457e+000	 1.174002683641133e-001	 1.309410625430440e+001
 1.870178337947217e+000	 1.343799994956504e-001	 1.304887705740356e+001
 1.868876974965046e+000	 1.514062496558155e-001	 1.298957295180713e+001
 1.867415453646707e+000	 1.684770710466778e-001	 1.291648638371807e+001
 1.900000000000000e+000	 0.000000000000000e+000	 1.285803745263830e+001
 1.899925510235152e+000	 1.682425503844034e-002	 1.292510348624382e+001
 1.899700962720813e+000	 3.370834076652769e-002	 1.297699965659223e+001
 1.899324753746186e+000	 5.065056570423442e-002	 1.301376951232136e+001
 1.898795298617681e+000	 6.764919767426841e-002	 1.303545801124674e+001
 1.898111032740575e+000	 8.470246387436235e-002	 1.304211136383136e+001
 1.897270412709929e+000	 1.018085509796149e-001	 1.303377687560089e+001
 1.896271917409951e+000	 1.189656052755375e-001	 1.301050278897033e+001
 1.895114049120888e+000	 1.361717328224394e-001	 1.297233812496463e+001
 1.893795334632570e+000	 1.534249996517592e-001	 1.291933252533096e+001
 1.892314326363635e+000	 1.707234319949282e-001	 1.285153609555463e+001
 1.925000000000000e+000	 0.000000000000000e+000	 1.271131250927812e+001
 1.924924530106683e+000	 1.704562681503777e-002	 1.278363680830704e+001
 1.924697028019834e+000	 3.415187156570781e-002	 1.284074351490073e+001
 1.924315868927199e+000	 5.131702051566717e-002	 1.288267934541819e+001
 1.923779447283957e+000	 6.853931869581796e-002	 1.290949230062458e+001
 1.923086177908611e+000	 8.581696997754799e-002	 1.292123150022868e+001
 1.922234497088266e+000	 1.031481371764186e-001	 1.291794701645163e+001
 1.921222863692445e+000	 1.205309421869617e-001	 1.289968970711764e+001
 1.920049760294560e+000	 1.379634661492283e-001	 1.286651104877452e+001
 1.918713694300094e+000	 1.554437496477030e-001	 1.281846297036718e+001
 1.917213199080564e+000	 1.729697929431785e-001	 1.275559768800214e+001
 1.950000000000000e+000	 0.000000000000000e+000	 1.255262880023520e+001
 1.949923549978213e+000	 1.726699859163519e-002	 1.263005997118352e+001
 1.949693093318855e+000	 3.459540236488794e-002	 1.269224338903390e+001
 1.949306984108212e+000	 5.198347532709990e-002	 1.273922918111788e+001
 1.948763595950232e+000	 6.942943971736749e-002	 1.277106862174446e+001
 1.948061323076648e+000	 8.693147608073369e-002	 1.278781395725655e+001
 1.947198581466602e+000	 1.044877233732223e-001	 1.278951823020988e+001
 1.946173809974940e+000	 1.220962790983860e-001	 1.277623510319109e+001
 1.944985471468231e+000	 1.397551994760172e-001	 1.274801868280879e+001
 1.943632053967617e+000	 1.574624996436468e-001	 1.270492334440775e+001
 1.942112071797492e+000	 1.752161538914288e-001	 1.264700355807193e+001
 1.975000000000000e+000	 0.000000000000000e+000	 1.238194430478415e+001
 1.974922569849744e+000	 1.748837036823261e-002	 1.246433007948818e+001
 1.974689158617876e+000	 3.503893316406807e-002	 1.253145548867159e+001
 1.974298099289225e+000	 5.264993013853264e-002	 1.258337431402458e+001
 1.973747744616508e+000	 7.031956073891704e-002	 1.262014133405032e+001
 1.973036468244684e+000	 8.804598218391936e-002	 1.264181213908859e+001
 1.972162665844939e+000	 1.058273095700260e-001	 1.264844294555898e+001
 1.971124756257434e+000	 1.236616160098102e-001	 1.264009040996618e+001
 1.969921182641903e+000	 1.415469328028062e-001	 1.261681144322959e+001
 1.968550413635141e+000	 1.594812496395905e-001	 1.257866302591535e+001
 1.967010944514421e+000	 1.774625148396792e-001	 1.252570202496469e+001
 2.000000000000000e+000	 0.000000000000000e+000	 1.219921910323585e+001
 1.999921589721275e+000	 1.770974214483003e-002	 1.228640635513220e+001
 1.999685223916896e+000	 3.548246396324820e-002	 1.235833816746309e+001
 1.999289214470237e+000	 5.331638494996539e-002	 1.241507221990161e+001
 1.998731893282784e+000	 7.120968176046658e-002	 1.245666702595077e+001
 1.998011613412721e+000	 8.916048828710503e-002	 1.248318173738005e+001
 1.997126750223276e+000	 1.071668957668297e-001	 1.249467594798283e+001
 1.996075702539929e+000	 1.252269529212345e-001	 1.249120949722651e+001
 1.994856893815574e+000	 1.433386661295951e-001	 1.247284227438553e+001
 1.993468773302665e+000	 1.614999996355343e-001	 1.243963402376508e+001
 1.991909817231349e+000	 1.797088757879295e-001	 1.239164415163935e+001
 1.742921090062065e+000	 1.572452663054261e-001	 1.329639858403660e+001
 1.741406213725087e+000	 1.732177783889446e-001	 1.338007282451572e+001
 1.739739264638117e+000	 1.892281454215079e-001	 1.345041112922363e+001
 1.737918986542895e+000	 2.052744410566007e-001	 1.350759828740407e+001
 1.735944150944025e+000	 2.213547034424477e-001	 1.355181937146405e+001
 1.733813558151911e+000	 2.374669355897513e-001	 1.358325894430716e+001
 1.731526038325072e+000	 2.536091057720335e-001	 1.360210024875229e+001
 1.729080452510761e+000	 2.697791479589110e-001	 1.360852438072316e+001
 1.726475693682788e+000	 2.859749622825957e-001	 1.360270944800079e+001
 1.723710687775429e+000	 3.021944155378737e-001	 1.358482971643490e+001
 1.720784394712270e+000	 3.184353417157770e-001	 1.355505474561275e+001
 1.767819962778993e+000	 1.594916272536765e-001	 1.317577447954672e+001
 1.766283445351817e+000	 1.756923180816826e-001	 1.325833495255654e+001
 1.764592682706737e+000	 1.919314046435942e-001	 1.332774237452774e+001
 1.762746400638945e+000	 2.082069330736586e-001	 1.338419679897901e+001
 1.760743353103111e+000	 2.245169134936453e-001	 1.342789813808554e+001
 1.758582323271217e+000	 2.408593203858371e-001	 1.345904532069212e+001
 1.756262124589759e+000	 2.572320929990908e-001	 1.347783543181303e+001
 1.753781601835235e+000	 2.736331357883018e-001	 1.348446283540389e+001
 1.751139632166796e+000	 2.900603188875701e-001	 1.347911828230295e+001
 1.748335126174922e+000	 3.065114786173200e-001	 1.346198800534737e+001
 1.745367028924961e+000	 3.229844180255974e-001	 1.343325280377754e+001
 1.792718835495921e+000	 1.617379882019268e-001	 1.307795391230288e+001
 1.791160676978547e+000	 1.781668577744254e-001	 1.315765809771346e+001
 1.789446100775357e+000	 1.946346638656997e-001	 1.322440501547966e+001
 1.787573814734996e+000	 2.111394250907598e-001	 1.327841142917616e+001
 1.785542555262198e+000	 2.276791235449204e-001	 1.331989353472752e+001
 1.783351088390523e+000	 2.442517051820443e-001	 1.334906606702856e+001
 1.780998210854445e+000	 2.608550802263231e-001	 1.336614138740980e+001
 1.778482751159709e+000	 2.774871236179320e-001	 1.337132855383674e+001
 1.775803570650804e+000	 2.941456754928579e-001	 1.336483237584754e+001
 1.772959564574414e+000	 3.108285416971641e-001	 1.334685245634967e+001
 1.769949663137651e+000	 3.275334943359103e-001	 1.331758222250554e+001
 1.817617708212850e+000	 1.639843491501772e-001	 1.300245215723738e+001
 1.816037908605277e+000	 1.806413974671730e-001	 1.307753804234035e+001
 1.814299518843977e+000	 1.973379230878244e-001	 1.313987589726169e+001
 1.812401228831046e+000	 2.140719171079046e-001	 1.318970066328971e+001
 1.810341757421285e+000	 2.308413335962729e-001	 1.322724628574147e+001
 1.808119853509829e+000	 2.476440899783728e-001	 1.325274476708417e+001
 1.805734297119132e+000	 2.644780674537310e-001	 1.326642520021677e+001
 1.803183900484183e+000	 2.813411114478014e-001	 1.326851278390579e+001
 1.800467509134813e+000	 2.982310320984592e-001	 1.325922782249323e+001
 1.797584002973906e+000	 3.151456047774062e-001	 1.323878471211247e+001
 1.794532297350343e+000	 3.320825706467159e-001	 1.320739091576586e+001
 1.842516580929779e+000	 1.662307100984275e-001	 1.294878858394754e+001
 1.840915140232007e+000	 1.831159371599254e-001	 1.301747359556305e+001
 1.839152936912596e+000	 2.000411823099683e-001	 1.307363381621952e+001
 1.837228642927095e+000	 2.170044091250926e-001	 1.311752385480593e+001
 1.835140959580371e+000	 2.340035436477027e-001	 1.314939689369931e+001
 1.832888618629136e+000	 2.510364747748227e-001	 1.316950368624726e+001
 1.830470383383819e+000	 2.681010546813139e-001	 1.317809153368108e+001
 1.827885049808657e+000	 2.851950992779101e-001	 1.317540324356371e+001
 1.825131447618820e+000	 3.023163887043739e-001	 1.316167607200472e+001
 1.822208441373398e+000	 3.194626678580461e-001	 1.313714065200015e+001
 1.819114931563034e+000	 3.366316469580142e-001	 1.310201991037600e+001
 1.867415453646707e+000	 1.684770710466778e-001	 1.291648638371807e+001
 1.865792371858737e+000	 1.855904768526825e-001	 1.297696639149457e+001
 1.864006354981215e+000	 2.027444415321315e-001	 1.302515938978459e+001
 1.862056057023146e+000	 2.199369011423241e-001	 1.306134116752360e+001
 1.859940161739458e+000	 2.371657536992100e-001	 1.308578565417875e+001
 1.857657383748442e+000	 2.544288595713938e-001	 1.309876385941839e+001
 1.855206469648505e+000	 2.717240419090722e-001	 1.310054279143810e+001
 1.852586199133131e+000	 2.890490871082580e-001	 1.309138435616034e+001
 1.849795386102828e+000	 3.064017453106019e-001	 1.307154423965908e+001
 1.846832879772890e+000	 3.237797309390840e-001	 1.304127077629141e+001
 1.843697565775724e+000	 3.411807232698052e-001	 1.300080380514532e+001
 1.892314326363635e+000	 1.707234319949282e-001	 1.285153609555463e+001
 1.890669603485467e+000	 1.880650165454445e-001	 1.291562087495200e+001
 1.888859773049835e+000	 2.054477007543139e-001	 1.296620549478488e+001
 1.886883471119196e+000	 2.228693931595989e-001	 1.300331495329821e+001
 1.884739363898545e+000	 2.403279637507947e-001	 1.302697312368332e+001
 1.882426148867748e+000	 2.578212443680862e-001	 1.303720260939121e+001
 1.879942555913192e+000	 2.753470291370056e-001	 1.303402460462227e+001
 1.877287348457605e+000	 2.929030749388451e-001	 1.301745876058691e+001
 1.874459324586836e+000	 3.104871019171435e-001	 1.298819539140933e+001
 1.871457318172382e+000	 3.280967940205197e-001	 1.295052056006625e+001
 1.868280199988416e+000	 3.457297995820888e-001	 1.290307119377027e+001
 1.917213199080564e+000	 1.729697929431785e-001	 1.275559768800214e+001
 1.915546835112197e+000	 1.905395562382112e-001	 1.282369582560741e+001
 1.913713191118454e+000	 2.081509599765155e-001	 1.287854558116284e+001
 1.911710885215246e+000	 2.258018851769172e-001	 1.292016703019429e+001
 1.909538566057632e+000	 2.434901738024567e-001	 1.294857854858088e+001
 1.907194913987054e+000	 2.612136291649000e-001	 1.296379665949460e+001
 1.904678642177879e+000	 2.789700163651143e-001	 1.296583588627838e+001
 1.901988497782079e+000	 2.967570627696715e-001	 1.295470861189669e+001
 1.899123263070844e+000	 3.145724585239985e-001	 1.293042494559188e+001
 1.896081756571874e+000	 3.324138571023532e-001	 1.289299259737674e+001
 1.892862834201107e+000	 3.502788758948651e-001	 1.284241676098880e+001
 1.942112071797492e+000	 1.752161538914288e-001	 1.264700355807193e+001
 1.940424066738927e+000	 1.930140959309828e-001	 1.271870620246144e+001
 1.938566609187074e+000	 2.108542191987363e-001	 1.277742296201708e+001
 1.936538299311297e+000	 2.287343771942789e-001	 1.282316917720170e+001
 1.934337768216718e+000	 2.466523838541962e-001	 1.285595790274897e+001
 1.931963679106360e+000	 2.646060139618350e-001	 1.287579974582678e+001
 1.929414728442565e+000	 2.825930035933981e-001	 1.288270271091279e+001
 1.926689647106553e+000	 3.006110506007372e-001	 1.287667205205749e+001
 1.923787201554853e+000	 3.186578151311669e-001	 1.285771013320824e+001
 1.920706194971366e+000	 3.367309201845847e-001	 1.282581629726504e+001
 1.917445468413798e+000	 3.548279522081341e-001	 1.278098674453206e+001
 1.967010944514421e+000	 1.774625148396792e-001	 1.252570202496469e+001
 1.965301298365657e+000	 1.954886356237591e-001	 1.260061604547750e+001
 1.963420027255694e+000	 2.135574784209764e-001	 1.266281770364151e+001
 1.961365713407346e+000	 2.316668692116840e-001	 1.271231778813621e+001
 1.959136970375805e+000	 2.498145939060130e-001	 1.274912420399737e+001
 1.956732444225666e+000	 2.679983987588914e-001	 1.277324180159835e+001
 1.954150814707252e+000	 2.862159908218573e-001	 1.278467221312970e+001
 1.951390796431027e+000	 3.044650384320420e-001	 1.278341369729418e+001
 1.948451140038860e+000	 3.227431717386488e-001	 1.276946099293306e+001
 1.945330633370858e+000	 3.410479832672140e-001	 1.274280518229461e+001
 1.942028102626488e+000	 3.593770285218957e-001	 1.270343356464957e+001
 1.991909817231349e+000	 1.797088757879295e-001	 1.239164415163935e+001
 1.990178529992387e+000	 1.979631753165402e-001	 1.246939142280205e+001
 1.988273445324313e+000	 2.162607376432357e-001	 1.253471117976800e+001
 1.986193127503396e+000	 2.345993612291324e-001	 1.258760983857287e+001
 1.983936172534892e+000	 2.529768039579072e-001	 1.262809032152559e+001
 1.981501209344972e+000	 2.713907835560691e-001	 1.265615187659859e+001
 1.978886900971938e+000	 2.898389780504918e-001	 1.267178990511454e+001
 1.976091945755501e+000	 3.083190262635862e-001	 1.267499579849083e+001
 1.973115078522868e+000	 3.268285283464439e-001	 1.266575678479986e+001
 1.969955071770350e+000	 3.453650463502412e-001	 1.264405578589875e+001
 1.966610736839180e+000	 3.639261048361500e-001	 1.260987128587392e+001
 1.720784394712270e+000	 3.184353417157770e-001	 1.355505474561275e+001
 1.717695809428702e+000	 3.346955425703510e-001	 1.361200798427434e+001
 1.714443962887209e+000	 3.509727882210215e-001	 1.366029944348564e+001
 1.711027923084025e+000	 3.672648177889562e-001	 1.370008622636512e+001
 1.707446796045747e+000	 3.835693400660090e-001	 1.373151504524158e+001
 1.703699726814957e+000	 3.998840342185866e-001	 1.375472128728484e+001
 1.699785900423492e+000	 4.162065505255865e-001	 1.376982808505368e+001
 1.695704542852120e+000	 4.325345111503018e-001	 1.377694539467093e+001
 1.691454921975343e+000	 4.488655109461448e-001	 1.377616908439807e+001
 1.687036348490034e+000	 4.651971182959880e-001	 1.376758003643717e+001
 1.682448176826651e+000	 4.815268759848673e-001	 1.375124326483530e+001
 1.745367028924961e+000	 3.229844180255974e-001	 1.343325280377754e+001
 1.742234320994296e+000	 3.394769074630900e-001	 1.349149289389557e+001
 1.738936019502071e+000	 3.559866851939452e-001	 1.354151997448221e+001
 1.735471179130182e+000	 3.725114580410630e-001	 1.358349874128409e+001
 1.731838893134178e+000	 3.890489020647538e-001	 1.361758240467771e+001
 1.728038294342964e+000	 4.055966632766609e-001	 1.364391170305437e+001
 1.724068556145973e+000	 4.221523583882385e-001	 1.366261392189223e+001
 1.719928893466559e+000	 4.387135755936855e-001	 1.367380192137349e+001
 1.715618563720287e+000	 4.552778753871785e-001	 1.367757317546895e+001
 1.711136867756843e+000	 4.718427914142040e-001	 1.367400882547038e+001
 1.706483150784262e+000	 4.884058313567285e-001	 1.366317275099913e+001
 1.769949663137651e+000	 3.275334943359103e-001	 1.331758222250554e+001
 1.766772832559885e+000	 3.442582723564071e-001	 1.337544742672791e+001
 1.763428076116914e+000	 3.610005821675034e-001	 1.342557121446259e+001
 1.759914435176295e+000	 3.777580982938316e-001	 1.346812721678209e+001
 1.756230990222532e+000	 3.945284640641585e-001	 1.350327646338561e+001
 1.752376861870848e+000	 4.113092923353629e-001	 1.353116634143228e+001
 1.748351211868279e+000	 4.280981662514561e-001	 1.355192956082644e+001
 1.744153244080758e+000	 4.448926400375424e-001	 1.356568312896567e+001
 1.739782205464916e+000	 4.616902398285626e-001	 1.357252733802890e+001
 1.735237387023252e+000	 4.784884645326170e-001	 1.357254476794238e+001
 1.730518124741380e+000	 4.952847867286022e-001	 1.356579930821106e+001
 1.794532297350343e+000	 3.320825706467159e-001	 1.320739091576586e+001
 1.791311344125469e+000	 3.490396372503026e-001	 1.326321113721475e+001
 1.787920132731737e+000	 3.660144791416965e-001	 1.331178529112954e+001
 1.784357691222366e+000	 3.830047385472624e-001	 1.335329730424874e+001
 1.780623087310808e+000	 4.000080260642229e-001	 1.338791736383569e+001
 1.776715429398611e+000	 4.170219213946925e-001	 1.341580081961724e+001
 1.772633867590407e+000	 4.340439741152393e-001	 1.343708709293406e+001
 1.768377594694717e+000	 4.510717044818725e-001	 1.345189859627136e+001
 1.763945847209231e+000	 4.681026042702974e-001	 1.346033966640797e+001
 1.759337906289263e+000	 4.851341376512272e-001	 1.346249551448344e+001
 1.754553098698004e+000	 5.021637421004885e-001	 1.345843119633528e+001
 1.819114931563034e+000	 3.366316469580142e-001	 1.310201991037600e+001
 1.815849855691049e+000	 3.538210021447762e-001	 1.315411531445941e+001
 1.812412189346542e+000	 3.710283761165244e-001	 1.319948467556327e+001
 1.808800947268392e+000	 3.882513788013551e-001	 1.323832359454392e+001
 1.805015184399005e+000	 4.054875880649471e-001	 1.327081277192039e+001
 1.801053996926252e+000	 4.227345504546500e-001	 1.329711685053725e+001
 1.796916523312362e+000	 4.399897819795882e-001	 1.331738326619481e+001
 1.792601945308435e+000	 4.572507689266762e-001	 1.333174110957782e+001
 1.788109488953231e+000	 4.745149687123825e-001	 1.334030000288583e+001
 1.783438425554874e+000	 4.917798107700342e-001	 1.334314899463303e+001
 1.778588072654134e+000	 5.090426974723874e-001	 1.334035547613914e+001
 1.843697565775724e+000	 3.411807232698052e-001	 1.300080380514532e+001
 1.840388367256623e+000	 3.586023670398280e-001	 1.304748353324798e+001
 1.836904245961327e+000	 3.760422730919869e-001	 1.308798282599621e+001
 1.833244203314375e+000	 3.934980190561098e-001	 1.312251035536659e+001
 1.829407281487125e+000	 4.109671500663311e-001	 1.315125870872605e+001
 1.825392564453771e+000	 4.284471795152351e-001	 1.317440316980078e+001
 1.821199179034139e+000	 4.459355898445028e-001	 1.319210050836356e+001
 1.816826295921914e+000	 4.634298333719529e-001	 1.320448778213817e+001
 1.812273130696917e+000	 4.809273331548182e-001	 1.321168115449513e+001
 1.807538944820087e+000	 4.984254838890382e-001	 1.321377473157927e+001
 1.802623046609771e+000	 5.159216528442988e-001	 1.321083942256636e+001
 1.868280199988416e+000	 3.457297995820888e-001	 1.290307119377027e+001
 1.864926878822192e+000	 3.633837319354581e-001	 1.294263216157003e+001
 1.861396302576093e+000	 3.810561700680843e-001	 1.297658478076364e+001
 1.857687459360314e+000	 3.987446593115266e-001	 1.300515221041002e+001
 1.853799378575168e+000	 4.164467120683748e-001	 1.302854031663852e+001
 1.849731131981168e+000	 4.341598085764479e-001	 1.304693638946795e+001
 1.845481834755741e+000	 4.518813977099830e-001	 1.306050786909041e+001
 1.841050646535152e+000	 4.696088978177032e-001	 1.306940108529217e+001
 1.836436772440289e+000	 4.873396975976045e-001	 1.307374001376157e+001
 1.831639464084901e+000	 5.050711570082392e-001	 1.307362505310313e+001
 1.826658020564913e+000	 5.228006082162227e-001	 1.306913182643590e+001
 1.892862834201107e+000	 3.502788758948651e-001	 1.284241676098880e+001
 1.889465390387757e+000	 3.681650968316664e-001	 1.287457251372019e+001
 1.885888359190838e+000	 3.860700670448166e-001	 1.289738531008803e+001
 1.882130715406210e+000	 4.039912995676054e-001	 1.291085125331955e+001
 1.878191475663132e+000	 4.219262740710784e-001	 1.291496030469330e+001
 1.874069699508443e+000	 4.398724376382885e-001	 1.291398178529384e+001
 1.869764490477167e+000	 4.578272055760289e-001	 1.292186188862875e+001
 1.865274997148151e+000	 4.757879622639268e-001	 1.292572979923965e+001
 1.860600414183345e+000	 4.937520620407412e-001	 1.292571859211328e+001
 1.855739983349315e+000	 5.117168301276374e-001	 1.292193620816330e+001
 1.850692994519563e+000	 5.296795635881593e-001	 1.291446419470996e+001
 1.917445468413798e+000	 3.548279522081341e-001	 1.278098674453206e+001
 1.914003901953317e+000	 3.729464617284529e-001	 1.281833399678474e+001
 1.910380415805565e+000	 3.910839640221834e-001	 1.284663849535314e+001
 1.906573971452062e+000	 4.092379398243463e-001	 1.286588437480635e+001
 1.902583572751019e+000	 4.274058360744416e-001	 1.287604884682471e+001
 1.898408267035597e+000	 4.455850667007569e-001	 1.287710206936585e+001
 1.894047146198417e+000	 4.637730134426403e-001	 1.286900703174564e+001
 1.889499347760909e+000	 4.819670267106236e-001	 1.285171945635018e+001
 1.884764055926089e+000	 5.001644264842287e-001	 1.282518771766689e+001
 1.879840502613331e+000	 5.183625032472324e-001	 1.278935277929001e+001
 1.874727968473718e+000	 5.365585189601085e-001	 1.274605185843335e+001
 1.942028102626488e+000	 3.593770285218957e-001	 1.270343356464957e+001
 1.938542413518873e+000	 3.777278266258178e-001	 1.274561126131513e+001
 1.934872472420273e+000	 3.960978610001851e-001	 1.277905552260673e+001
 1.931017227497870e+000	 4.144845800817491e-001	 1.280373857235673e+001
 1.926975669838828e+000	 4.328853980784645e-001	 1.281962491733619e+001
 1.922746834562629e+000	 4.512976957638528e-001	 1.282667121510966e+001
 1.918329801919492e+000	 4.697188213098174e-001	 1.282482615911684e+001
 1.913723698373428e+000	 4.881460911577938e-001	 1.281403038173343e+001
 1.908927697668517e+000	 5.065767909280664e-001	 1.279421637603258e+001
 1.903941021876948e+000	 5.250081763670245e-001	 1.276530843693272e+001
 1.898762942427380e+000	 5.434374743320701e-001	 1.272722262238183e+001
 1.966610736839180e+000	 3.639261048361500e-001	 1.260987128587392e+001
 1.963080925084422e+000	 3.825091915237607e-001	 1.265653933834702e+001
 1.959364529034961e+000	 4.011117579788214e-001	 1.269479275158703e+001
 1.955460483543635e+000	 4.197312203398140e-001	 1.272459188864949e+001
 1.951367766926559e+000	 4.383649600831472e-001	 1.274588858769950e+001
 1.947085402089539e+000	 4.570103248275765e-001	 1.275862602834502e+001
 1.942612457640390e+000	 4.756646291775601e-001	 1.276273861653142e+001
 1.937948048985706e+000	 4.943251556054372e-001	 1.275815188878610e+001
 1.933091339410632e+000	 5.129891553722545e-001	 1.274478243656807e+001
 1.928041541140166e+000	 5.316538494870133e-001	 1.272253785144164e+001
 1.922797916380548e+000	 5.503164297040443e-001	 1.269131669175158e+001
 1.682448176826651e+000	 4.815268759848673e-001	 1.375124326483530e+001
 1.677689806041381e+000	 4.978523021060258e-001	 1.382447774267332e+001
 1.672760680688981e+000	 5.141708909989885e-001	 1.388078041058974e+001
 1.667660291674265e+000	 5.304801142200816e-001	 1.391971145341323e+001
 1.662388177080357e+000	 5.467774215453338e-001	 1.394081450849992e+001
 1.656943922973434e+000	 5.630602420043449e-001	 1.394361640528210e+001
 1.651327164182347e+000	 5.793259849448744e-001	 1.392762694351540e+001
 1.645537585051869e+000	 5.955720411275246e-001	 1.389233871246353e+001
 1.639574920168338e+000	 6.117957838498270e-001	 1.383722695320343e+001
 1.633438955056451e+000	 6.279945700989932e-001	 1.380691508999718e+001
 1.627129526846032e+000	 6.441657417325339e-001	 1.396461758122954e+001
 1.706483150784262e+000	 4.884058313567285e-001	 1.366317275099913e+001
 1.701656803273777e+000	 5.049644778520136e-001	 1.372553411628294e+001
 1.696657261845163e+000	 5.215161894442626e-001	 1.377107314979385e+001
 1.691484010130446e+000	 5.380584015691765e-001	 1.379943016288690e+001
 1.686136579613939e+000	 5.545885275710122e-001	 1.381022894082896e+001
 1.680614550448477e+000	 5.711039597512186e-001	 1.380307638333437e+001
 1.674917552246178e+000	 5.876020704482375e-001	 1.377756218305016e+001
 1.669045264842459e+000	 6.040802131478213e-001	 1.373325854442177e+001
 1.662997419032029e+000	 6.205357236231791e-001	 1.366971994531929e+001
 1.656773797275656e+000	 6.369659211041964e-001	 1.375217587386041e+001
 1.650374234376445e+000	 6.533681094749184e-001	 1.389114686420937e+001
 1.730518124741380e+000	 4.952847867286022e-001	 1.356579930821106e+001
 1.725623800505588e+000	 5.120766535978284e-001	 1.362028551430383e+001
 1.720553843000689e+000	 5.288614878892073e-001	 1.365811427066933e+001
 1.715307728585921e+000	 5.456366889178151e-001	 1.367900526775795e+001
 1.709884982146783e+000	 5.623996335961364e-001	 1.368266161587737e+001
 1.704285177922769e+000	 5.791476774974711e-001	 1.366876938567351e+001
 1.698507940309269e+000	 5.958781559509419e-001	 1.363699718591237e+001
 1.692552944632335e+000	 6.125883851674518e-001	 1.358699578119066e+001
 1.686419917895057e+000	 6.292756633958879e-001	 1.356998700718019e+001
 1.680108639494266e+000	 6.459372721088098e-001	 1.369457351550767e+001
 1.673618941906352e+000	 6.625704772167977e-001	 1.381757330780504e+001
 1.754553098698004e+000	 5.021637421004885e-001	 1.345843119633528e+001
 1.749590797736816e+000	 5.191888293434703e-001	 1.350786211272767e+001
 1.744450424155561e+000	 5.362067863338228e-001	 1.354085610160477e+001
 1.739131447040690e+000	 5.532149762659974e-001	 1.355721156717939e+001
 1.733633384678889e+000	 5.702107396207068e-001	 1.355671020428869e+001
 1.727955805396312e+000	 5.871913952431019e-001	 1.353911643770306e+001
 1.722098328371618e+000	 6.041542414529869e-001	 1.350417689818665e+001
 1.716060624421499e+000	 6.210965571864153e-001	 1.345161993813981e+001
 1.709842416757420e+000	 6.380156031679536e-001	 1.352168020511680e+001
 1.703443481712282e+000	 6.549086231128335e-001	 1.363144739177995e+001
 1.696863649435754e+000	 6.717728449581719e-001	 1.374105202429882e+001
 1.778588072654134e+000	 5.090426974723874e-001	 1.334035547613914e+001
 1.773557794967459e+000	 5.263010050889394e-001	 1.338738111865925e+001
 1.768347005309778e+000	 5.435520847781091e-001	 1.341824626980783e+001
 1.762955165494752e+000	 5.607932636137233e-001	 1.343282746098414e+001
 1.757381787210257e+000	 5.780218456447235e-001	 1.343098431000222e+001
 1.751626432869105e+000	 5.952351129881115e-001	 1.341255885803686e+001
 1.745688716433225e+000	 6.124303269543728e-001	 1.337737494287069e+001
 1.739568304209950e+000	 6.296047292047129e-001	 1.336660568685921e+001
 1.733264915619120e+000	 6.467555429393755e-001	 1.346290187826796e+001
 1.726778323929701e+000	 6.638799741162677e-001	 1.356019081439603e+001
 1.720108356964651e+000	 6.809752126990409e-001	 1.365880050359532e+001
 1.802623046609771e+000	 5.159216528442988e-001	 1.321083942256636e+001
 1.797524792197518e+000	 5.334131808342354e-001	 1.325794763490882e+001
 1.792243586463340e+000	 5.508973832220659e-001	 1.328922801471726e+001
 1.786778883948108e+000	 5.683715509609929e-001	 1.330463470963970e+001
 1.781130189740887e+000	 5.858329516681863e-001	 1.330410467469997e+001
 1.775297060341149e+000	 6.032788307324996e-001	 1.328755690561835e+001
 1.769279104494092e+000	 6.207064124550999e-001	 1.325489170808100e+001
 1.763075983997688e+000	 6.381129012223440e-001	 1.330671706621250e+001
 1.756687414480155e+000	 6.554954827101543e-001	 1.339126456898129e+001
 1.750113166146527e+000	 6.728513251191122e-001	 1.347824743429439e+001
 1.743353064493043e+000	 6.901775804394048e-001	 1.356809445471338e+001
 1.826658020564913e+000	 5.228006082162227e-001	 1.306913182643590e+001
 1.821491789426993e+000	 5.405253565793585e-001	 1.311865545632749e+001
 1.816140167616247e+000	 5.582426816656935e-001	 1.315274047667205e+001
 1.810602602400759e+000	 5.759498383078062e-001	 1.317141821315388e+001
 1.804878592270780e+000	 5.936440576910959e-001	 1.317470244506043e+001
 1.798967687812444e+000	 6.113225484762662e-001	 1.316258853364630e+001
 1.792869492554218e+000	 6.289824979551683e-001	 1.315830656383159e+001
 1.786583663784714e+000	 6.466210732393084e-001	 1.322967229716901e+001
 1.780109913340527e+000	 6.642354224802897e-001	 1.330442049361731e+001
 1.773448008362758e+000	 6.818226761213670e-001	 1.338310792984222e+001
 1.766597772020930e+000	 6.993799481792635e-001	 1.346626397558132e+001
 1.850692994519563e+000	 5.296795635881593e-001	 1.291446419470996e+001
 1.845458786655884e+000	 5.476375323243089e-001	 1.296858780409009e+001
 1.840036748768498e+000	 5.655879801089916e-001	 1.300771896308670e+001
 1.834426320852702e+000	 5.835281256541628e-001	 1.303196580720838e+001
 1.828626994799934e+000	 6.014551637134510e-001	 1.304141849710938e+001
 1.822638315282989e+000	 6.193662662194115e-001	 1.303614824059718e+001
 1.816459880613602e+000	 6.372585834545771e-001	 1.307142045326215e+001
 1.810091343571026e+000	 6.551292452556065e-001	 1.313331624185882e+001
 1.803532412200234e+000	 6.729753622497818e-001	 1.320005896631477e+001
 1.796782850578393e+000	 6.907940271230321e-001	 1.327230695310643e+001
 1.789842479548311e+000	 7.085823159186171e-001	 1.335069002128950e+001
 1.874727968473718e+000	 5.365585189601085e-001	 1.274605185843335e+001
 1.869425783884192e+000	 5.547497080690862e-001	 1.280681800349517e+001
 1.863933329920095e+000	 5.729332785519605e-001	 1.285309519415160e+001
 1.858250039303940e+000	 5.911064130000635e-001	 1.288506807497477e+001
 1.852375397328351e+000	 6.092662697352526e-001	 1.290290281254404e+001
 1.846308942752784e+000	 6.274099839619353e-001	 1.291309375680441e+001
 1.840050268672245e+000	 6.455346689533268e-001	 1.296151451565713e+001
 1.833599023356627e+000	 6.636374172712384e-001	 1.301552205685462e+001
 1.826954911059277e+000	 6.817153020186303e-001	 1.307590402092817e+001
 1.820117692793435e+000	 6.997653781241078e-001	 1.314342031102677e+001
 1.813087187075188e+000	 7.177846836574655e-001	 1.321880114401606e+001
 1.898762942427380e+000	 5.434374743320701e-001	 1.272722262238183e+001
 1.893392781111915e+000	 5.618618838136904e-001	 1.276902686039848e+001
 1.887829911071037e+000	 5.802785769946003e-001	 1.278962761139583e+001
 1.882073757754471e+000	 5.986847003455079e-001	 1.278917726447651e+001
 1.876123799856030e+000	 6.170773757565005e-001	 1.276783590035545e+001
 1.869979570221829e+000	 6.354537017038378e-001	 1.278615061799925e+001
 1.863640656730146e+000	 6.538107544514179e-001	 1.282663234638375e+001
 1.857106703141514e+000	 6.721455892862038e-001	 1.287418940238427e+001
 1.850377409917658e+000	 6.904552417868358e-001	 1.292971221357720e+001
 1.843452535007881e+000	 7.087367291245936e-001	 1.299406236067711e+001
 1.836331894601559e+000	 7.269870513958089e-001	 1.306807048055284e+001
 1.922797916380548e+000	 5.503164297040443e-001	 1.269131669175158e+001
 1.917359778339054e+000	 5.689740595581219e-001	 1.275695758501175e+001
 1.911726492221324e+000	 5.876238754369104e-001	 1.280135587172894e+001
 1.905897476204296e+000	 6.062629876904956e-001	 1.282471617656223e+001
 1.899872202382971e+000	 6.248884817771944e-001	 1.282725140131167e+001
 1.893650197690125e+000	 6.434974194451185e-001	 1.280723887517190e+001
 1.887231044787306e+000	 6.620868399488497e-001	 1.278590237411516e+001
 1.880614382925689e+000	 6.806537613005026e-001	 1.276505294962685e+001
 1.873799908775373e+000	 6.991951815543976e-001	 1.275927059000540e+001
 1.866787377221732e+000	 7.177080801244898e-001	 1.282188359988206e+001
 1.859576602127425e+000	 7.361894191336469e-001	 1.289601296576726e+001
 1.627129526846032e+000	 6.441657417325339e-001	 1.396461758122954e+001
 1.620646524908150e+000	 6.603066266860092e-001	 1.393428623771160e+001
 1.613989891457657e+000	 6.764145402067768e-001	 1.390180410786848e+001
 1.607159622122281e+000	 6.924867861127355e-001	 1.386707091436390e+001
 1.600155766478270e+000	 7.085206580754376e-001	 1.382996065630155e+001
 1.592978428549761e+000	 7.245134409262326e-001	 1.379032097027607e+001
 1.585627767271441e+000	 7.404624119843859e-001	 1.374797254572883e+001
 1.578103996913506e+000	 7.563648424060113e-001	 1.370270859758362e+001
 1.570407387467962e+000	 7.722179985526131e-001	 1.365429439902976e+001
 1.562538264995355e+000	 7.880191433779775e-001	 1.360246687719924e+001
 1.554497011931069e+000	 8.037655378321177e-001	 1.354693427435372e+001
 1.650374234376445e+000	 6.533681094749184e-001	 1.389114686420937e+001
 1.643798618125084e+000	 6.697395784986904e-001	 1.384460681388317e+001
 1.637046889910957e+000	 6.860776050693965e-001	 1.379855742243786e+001
 1.630119045299332e+000	 7.023794544880486e-001	 1.375300982779147e+001
 1.623015134574688e+000	 7.186423817643655e-001	 1.370794734255084e+001
 1.615735263247221e+000	 7.348636329415729e-001	 1.366332465797813e+001
 1.608279592522115e+000	 7.510404464434979e-001	 1.361906710414013e+001
 1.600648339730568e+000	 7.671700544427713e-001	 1.357506996954675e+001
 1.592841778721614e+000	 7.832496842489193e-001	 1.353119788347946e+001
 1.584860240213809e+000	 7.992765597150682e-001	 1.348728426408661e+001
 1.576704112105899e+000	 8.152479026619461e-001	 1.344313083518921e+001
 1.673618941906352e+000	 6.625704772167977e-001	 1.381757330780504e+001
 1.666950711341602e+000	 6.791725303109569e-001	 1.375790970167505e+001
 1.660103888363913e+000	 6.957406699316719e-001	 1.370140338263140e+001
 1.653078468476089e+000	 7.122721228630686e-001	 1.364817581751180e+001
 1.645874502670843e+000	 7.287641054530314e-001	 1.359831848087561e+001
 1.638492097944430e+000	 7.452138249566624e-001	 1.355189190145853e+001
 1.630931417772530e+000	 7.616184809023511e-001	 1.350892476679998e+001
 1.623192682547341e+000	 7.779752664792435e-001	 1.346941308968645e+001
 1.615276169974930e+000	 7.942813699448884e-001	 1.343331943994722e+001
 1.607182215431857e+000	 8.105339760517526e-001	 1.340057224501327e+001
 1.598911212280233e+000	 8.267302674912782e-001	 1.337106516251446e+001
 1.696863649435754e+000	 6.717728449581719e-001	 1.374105202429882e+001
 1.690102804557706e+000	 6.886054821228079e-001	 1.367115575048045e+001
 1.683160886816524e+000	 7.054037347936031e-001	 1.360711095439421e+001
 1.676037891652553e+000	 7.221647912377959e-001	 1.354914844916459e+001
 1.668733870766737e+000	 7.388858291414352e-001	 1.349746682230301e+001
 1.661248932641389e+000	 7.555640169715016e-001	 1.345223132411164e+001
 1.653583243022685e+000	 7.721965153609446e-001	 1.341357281636324e+001
 1.645737025363827e+000	 7.887804785154277e-001	 1.338158678524152e+001
 1.637710561227908e+000	 8.053130556405206e-001	 1.335633242241684e+001
 1.629504190649500e+000	 8.217913923880303e-001	 1.333783177800685e+001
 1.621118312454071e+000	 8.382126323201146e-001	 1.332606898903089e+001
 1.720108356964651e+000	 6.809752126990409e-001	 1.365880050359532e+001
 1.713254897773396e+000	 6.980384339342446e-001	 1.358137723136408e+001
 1.706217885268792e+000	 7.150667996551905e-001	 1.351252950282098e+001
 1.698997314828725e+000	 7.320574596122298e-001	 1.345259659397632e+001
 1.691593238862369e+000	 7.490075528295773e-001	 1.340188325437615e+001
 1.684005767338098e+000	 7.659142089860902e-001	 1.336065843680894e+001
 1.676235068272581e+000	 7.827745498192793e-001	 1.332915408950592e+001
 1.668281368180025e+000	 7.995856905513239e-001	 1.330756401516383e+001
 1.660144952480551e+000	 8.163447413358161e-001	 1.329604280100918e+001
 1.651826165866736e+000	 8.330488087239021e-001	 1.329470482399463e+001
 1.643325412627414e+000	 8.496949971484549e-001	 1.330362333507487e+001
 1.743353064493043e+000	 6.901775804394048e-001	 1.356809445471338e+001
 1.736406990988670e+000	 7.074713857452664e-001	 1.348567307561755e+001
 1.729274883720716e+000	 7.247298645164334e-001	 1.341458343221284e+001
 1.721956738004603e+000	 7.419501279863703e-001	 1.335527247505437e+001
 1.714452606957739e+000	 7.591292765174578e-001	 1.330815025871952e+001
 1.706762602034556e+000	 7.762644010004286e-001	 1.327358851206730e+001
 1.698886893522218e+000	 7.933525842773548e-001	 1.325191927332367e+001
 1.690825710995935e+000	 8.103909025869324e-001	 1.324343359467069e+001
 1.682579343732855e+000	 8.273764270307743e-001	 1.324838032090624e+001
 1.674148141083565e+000	 8.443062250593675e-001	 1.326696494661050e+001
 1.665532512800260e+000	 8.611773619762990e-001	 1.329934855610864e+001
 1.766597772020930e+000	 6.993799481792635e-001	 1.346626397558132e+001
 1.759559084203529e+000	 7.169043375558731e-001	 1.338120448921817e+001
 1.752331882172295e+000	 7.343929293773324e-001	 1.331026724928734e+001
 1.744916161180188e+000	 7.518427963602180e-001	 1.325400618371072e+001
 1.737311975052847e+000	 7.692510002050763e-001	 1.321293588511286e+001
 1.729519436730763e+000	 7.866145930145163e-001	 1.318753002078281e+001
 1.721538718771596e+000	 8.039306187351714e-001	 1.317821980990953e+001
 1.713370053811557e+000	 8.211961146222525e-001	 1.318539257312224e+001
 1.705013734984823e+000	 8.384081127253954e-001	 1.320939035925515e+001
 1.696470116299988e+000	 8.555636413944264e-001	 1.325050865412204e+001
 1.687739612972610e+000	 8.726597268036471e-001	 1.330899517593591e+001
 1.789842479548311e+000	 7.085823159186171e-001	 1.335069002128950e+001
 1.782711177417973e+000	 7.263372893660650e-001	 1.326519090901824e+001
 1.775388880623530e+000	 7.440559942378869e-001	 1.319664101107372e+001
 1.767875584355480e+000	 7.617354647337727e-001	 1.314570062308511e+001
 1.760171343147694e+000	 7.793727238924330e-001	 1.311298819511727e+001
 1.752276271426720e+000	 7.969647850283536e-001	 1.309907858038800e+001
 1.744190544020715e+000	 8.145086531927284e-001	 1.310450135382157e+001
 1.735914396626891e+000	 8.320013266572851e-001	 1.312973920583027e+001
 1.727448126236454e+000	 8.494397984196800e-001	 1.317522641659898e+001
 1.718792091516004e+000	 8.668210577290790e-001	 1.324134741601258e+001
 1.709946713144463e+000	 8.841420916304991e-001	 1.332843543421190e+001
 1.813087187075188e+000	 7.177846836574655e-001	 1.321880114401606e+001
 1.805863270632003e+000	 7.357702411758422e-001	 1.313490626999663e+001
 1.798445879074421e+000	 7.537190590980976e-001	 1.307082612296977e+001
 1.790835007530479e+000	 7.716281331070343e-001	 1.302732684072009e+001
 1.783030711242278e+000	 7.894944475795277e-001	 1.300513013311505e+001
 1.775033106122427e+000	 8.073149770419402e-001	 1.300491136853533e+001
 1.766842369269574e+000	 8.250866876500262e-001	 1.302729773282225e+001
 1.758458739441937e+000	 8.428065386920296e-001	 1.307286646649719e+001
 1.749882517487748e+000	 8.604714841136272e-001	 1.314214318588958e+001
 1.741114066731615e+000	 8.780784740633254e-001	 1.323560029367263e+001
 1.732153813315821e+000	 8.956244564568551e-001	 1.335365548414513e+001
 1.836331894601559e+000	 7.269870513958089e-001	 1.306807048055284e+001
 1.829015363845618e+000	 7.452031929852042e-001	 1.298767555601036e+001
 1.821502877524968e+000	 7.633821239579639e-001	 1.293000145593364e+001
 1.813794430705185e+000	 7.815208014800026e-001	 1.289591971562423e+001
 1.805890079336601e+000	 7.996161712663606e-001	 1.288625478689048e+001
 1.797789940817883e+000	 8.176651690552764e-001	 1.290178196105811e+001
 1.789494194518175e+000	 8.356647221070653e-001	 1.294322536729608e+001
 1.781003082256695e+000	 8.536117507264862e-001	 1.301125605238115e+001
 1.772316908738705e+000	 8.715031698072376e-001	 1.310649014790508e+001
 1.763436041946819e+000	 8.893358903971655e-001	 1.322948713078546e+001
 1.754360913486683e+000	 9.071068212827148e-001	 1.338074818277899e+001
 1.859576602127425e+000	 7.361894191336469e-001	 1.289601296576726e+001
 1.852167457058817e+000	 7.546361447941515e-001	 1.282087160923976e+001
 1.844559875975171e+000	 7.730451888174859e-001	 1.277139975488662e+001
 1.836753853879596e+000	 7.914134698526777e-001	 1.274857396880560e+001
 1.828749447430661e+000	 8.097378949529318e-001	 1.275332100366736e+001
 1.820546775513088e+000	 8.280153610683620e-001	 1.278651555708408e+001
 1.812146019766516e+000	 8.462427565638450e-001	 1.284897810821047e+001
 1.803547425071165e+000	 8.644169627606547e-001	 1.294147283907401e+001
 1.794751299989325e+000	 8.825348555005110e-001	 1.306470564701042e+001
 1.785758017161617e+000	 9.005933067305992e-001	 1.321932225443368e+001
 1.776568013657048e+000	 9.185891861080785e-001	 1.340590642200181e+001
 1.554497011931069e+000	 8.037655378321177e-001	 1.354693427435372e+001
 1.546284067350165e+000	 8.194544422807419e-001	 1.352248763538631e+001
 1.537899927190630e+000	 8.350831179393493e-001	 1.350451320055174e+001
 1.529345144433827e+000	 8.506488283203390e-001	 1.349284328716176e+001
 1.520620329241138e+000	 8.661488406911884e-001	 1.348727209199840e+001
 1.511726149046811e+000	 8.815804275427317e-001	 1.348755540933973e+001
 1.502663328606235e+000	 8.969408680658606e-001	 1.349341043546426e+001
 1.493432649999157e+000	 9.122274496350907e-001	 1.350451566158962e+001
 1.484034952587419e+000	 9.274374692974090e-001	 1.352051085697084e+001
 1.474471132926831e+000	 9.425682352647938e-001	 1.354099714363933e+001
 1.464742144632903e+000	 9.576170684087775e-001	 1.356553716401371e+001
 1.576704112105899e+000	 8.152479026619461e-001	 1.344313083518921e+001
 1.568373839745379e+000	 8.311609343174989e-001	 1.343506542108683e+001
 1.559869926154992e+000	 8.470128767716022e-001	 1.343342581237558e+001
 1.551192932215838e+000	 8.628009544439740e-001	 1.343789449651875e+001
 1.542343476805889e+000	 8.785223955630552e-001	 1.344811376814869e+001
 1.533322236894168e+000	 8.941744336552632e-001	 1.346368558223927e+001
 1.524129947589711e+000	 9.097543090427868e-001	 1.348417149935167e+001
 1.514767402144833e+000	 9.252592703483490e-001	 1.350909272476750e+001
 1.505235451912260e+000	 9.406865760053215e-001	 1.353793024307447e+001
 1.495535006255741e+000	 9.560334957715677e-001	 1.357012504951049e+001
 1.485667032413862e+000	 9.712973122453554e-001	 1.360507847910587e+001
 1.598911212280233e+000	 8.267302674912782e-001	 1.337106516251446e+001
 1.590463612140005e+000	 8.428674263536746e-001	 1.337276643327735e+001
 1.581839925118697e+000	 8.589426356032174e-001	 1.338094393900421e+001
 1.573040719997142e+000	 8.749530805669458e-001	 1.339513355475849e+001
 1.564066624369902e+000	 8.908959504342628e-001	 1.341482880360871e+001
 1.554918324740777e+000	 9.067684397671688e-001	 1.343948084126049e+001
 1.545596566572447e+000	 9.225677500191508e-001	 1.346849853848469e+001
 1.536102154289799e+000	 9.382910910611387e-001	 1.350124866302045e+001
 1.526435951236438e+000	 9.539356827128893e-001	 1.353705616236626e+001
 1.516598879584058e+000	 9.694987562781512e-001	 1.357520454859798e+001
 1.506591920194319e+000	 9.849775560819279e-001	 1.361493638606701e+001
 1.621118312454071e+000	 8.382126323201146e-001	 1.332606898903089e+001
 1.612553384534045e+000	 8.545739183892687e-001	 1.333116307492718e+001
 1.603809924081746e+000	 8.708723944341963e-001	 1.334288049266084e+001
 1.594888507777738e+000	 8.871052066892542e-001	 1.336061360576267e+001
 1.585789771933177e+000	 9.032695053048107e-001	 1.338371017846782e+001
 1.576514412586634e+000	 9.193624458784484e-001	 1.341147348821002e+001
 1.567063185554443e+000	 9.353811909949529e-001	 1.344316254176563e+001
 1.557436906434053e+000	 9.513229117734602e-001	 1.347799239659809e+001
 1.547636450559955e+000	 9.671847894201127e-001	 1.351513458867191e+001
 1.537662752911782e+000	 9.829640167845446e-001	 1.355371766771357e+001
 1.527516807974274e+000	 9.986577999184951e-001	 1.359282784059586e+001
 1.643325412627414e+000	 8.496949971484549e-001	 1.330362333507487e+001
 1.634643156927498e+000	 8.662804104242817e-001	 1.330596323482026e+001
 1.625779923044137e+000	 8.828021532645378e-001	 1.331517014876211e+001
 1.616736295557627e+000	 8.992573328108996e-001	 1.333049591994355e+001
 1.607512919495713e+000	 9.156430601746993e-001	 1.335114545539185e+001
 1.598110500431744e+000	 9.319564519891023e-001	 1.337627696296271e+001
 1.588529804535698e+000	 9.481946319701923e-001	 1.340500229782017e+001
 1.578771658577596e+000	 9.643547324853129e-001	 1.343638741998393e+001
 1.568836949882811e+000	 9.804338961269921e-001	 1.346945296407603e+001
 1.558726626238913e+000	 9.964292772907482e-001	 1.350317492209018e+001
 1.548441695753725e+000	 1.012338043755057e+000	 1.353648543968904e+001
 1.665532512800260e+000	 8.611773619762990e-001	 1.329934855610864e+001
 1.656732929320366e+000	 8.779869024587131e-001	 1.329300125516739e+001
 1.647749922005872e+000	 8.947319120942419e-001	 1.329386122837232e+001
 1.638584083336808e+000	 9.114094589318817e-001	 1.330104268580875e+001
 1.629236067057511e+000	 9.280166150439282e-001	 1.331361047411811e+001
 1.619706588276103e+000	 9.445504580991300e-001	 1.333058043425718e+001
 1.609996423516213e+000	 9.610080729448697e-001	 1.335091987501596e+001
 1.600106410720428e+000	 9.773865531966974e-001	 1.337354816361301e+001
 1.590037449205004e+000	 9.936830028335265e-001	 1.339733743437188e+001
 1.579790499565453e+000	 1.009894537796761e+000	 1.342111341615376e+001
 1.569366583532674e+000	 1.026018287591614e+000	 1.344365637888773e+001
 1.687739612972610e+000	 8.726597268036471e-001	 1.330899517593591e+001
 1.678822701712647e+000	 8.896933944925635e-001	 1.328822961230200e+001
 1.669719920966950e+000	 9.066616709233090e-001	 1.327510822151583e+001
 1.660431871115281e+000	 9.235615850522007e-001	 1.326861037061291e+001
 1.650959214618570e+000	 9.403901699124976e-001	 1.326766354375324e+001
 1.641302676119713e+000	 9.571444642085322e-001	 1.327114381753388e+001
 1.631463042495988e+000	 9.738215139189845e-001	 1.327787645832181e+001
 1.621441162862548e+000	 9.904183739076136e-001	 1.328663664282266e+001
 1.611237948526535e+000	 1.006932109539717e+000	 1.329615030276468e+001
 1.600854372891399e+000	 1.023359798302585e+000	 1.330509509423454e+001
 1.590291471311120e+000	 1.039698531428165e+000	 1.331210149184727e+001
 1.709946713144463e+000	 8.841420916304991e-001	 1.332843543421190e+001
 1.700912474104342e+000	 9.013998865258321e-001	 1.328771124563318e+001
 1.691689919927371e+000	 9.185914297517391e-001	 1.325516489308884e+001
 1.682279658893047e+000	 9.357137111718564e-001	 1.322964359836113e+001
 1.672682362178891e+000	 9.527637247804074e-001	 1.320994008761960e+001
 1.662898763962574e+000	 9.697384703173081e-001	 1.319479318099321e+001
 1.652929661475022e+000	 9.866349548925372e-001	 1.318288851056733e+001
 1.642775915003957e+000	 1.003450194618061e+000	 1.317285936792371e+001
 1.632438447847403e+000	 1.020181216245563e+000	 1.316328768198774e+001
 1.621918246216753e+000	 1.036825058808218e+000	 1.315270512758611e+001
 1.611216359089064e+000	 1.053378775264711e+000	 1.313959436474529e+001
 1.732153813315821e+000	 8.956244564568551e-001	 1.335365548414513e+001
 1.723002246495451e+000	 9.131063785585198e-001	 1.328761247667922e+001
 1.713659918887135e+000	 9.305211885795319e-001	 1.323037791908545e+001
 1.704127446670105e+000	 9.478658372908487e-001	 1.318066949873521e+001
 1.694405509738473e+000	 9.651372796476579e-001	 1.313714770003620e+001
 1.684494851804685e+000	 9.823324764254584e-001	 1.309841650503437e+001
 1.674396280453315e+000	 9.994483958655278e-001	 1.306302422899041e+001
 1.664110667144655e+000	 1.016482015328040e+000	 1.302946449195864e+001
 1.653638947167610e+000	 1.033430322951064e+000	 1.299617732702513e+001
 1.642982119541515e+000	 1.050290319313661e+000	 1.296155042548018e+001
 1.632141246866505e+000	 1.067059019101252e+000	 1.292392051881228e+001
 1.754360913486683e+000	 9.071068212827148e-001	 1.338074818277899e+001
 1.745092018885974e+000	 9.248128705906259e-001	 1.328419646589605e+001
 1.735629917846243e+000	 9.424509474066879e-001	 1.319718100614868e+001
 1.725975234446456e+000	 9.600179634091781e-001	 1.311829248521555e+001
 1.716128657297317e+000	 9.775108345142488e-001	 1.304606157853417e+001
 1.706090939646046e+000	 9.949264825329823e-001	 1.297895976376150e+001
 1.695862899430868e+000	 1.012261836837956e+000	 1.291540027090757e+001
 1.685445419284641e+000	 1.029513836037550e+000	 1.285373917508596e+001
 1.674839446487155e+000	 1.046679429656221e+000	 1.279227663243757e+001
 1.664045992865684e+000	 1.063755579818914e+000	 1.272925825938262e+001
 1.653066134643443e+000	 1.080739262937787e+000	 1.266287665494879e+001
 1.776568013657048e+000	 9.185891861080785e-001	 1.340590642200181e+001
 1.767181791275910e+000	 9.365193626221506e-001	 1.327381716024389e+001
 1.757599916804693e+000	 9.543807062332065e-001	 1.315208945215468e+001
 1.747823022222099e+000	 9.721700895268440e-001	 1.303918942484365e+001
 1.737851804855421e+000	 9.898843893801800e-001	 1.293352029865605e+001
 1.727687027486658e+000	 1.007520488639881e+000	 1.283342330037736e+001
 1.717329518407680e+000	 1.025075277809822e+000	 1.273717872495920e+001
 1.706780171423915e+000	 1.042545656746593e+000	 1.264300714663514e+001
 1.696039945806038e+000	 1.059928536361033e+000	 1.254907077988891e+001
 1.685109866189261e+000	 1.077220840323977e+000	 1.245347499031640e+001
 1.673991022419878e+000	 1.094419506774317e+000	 1.235426995499574e+001
 1.464742144632903e+000	 9.576170684087775e-001	 1.356553716401371e+001
 1.454848998199890e+000	 9.725813037558125e-001	 1.352629271286588e+001
 1.444792760773848e+000	 9.874582919805434e-001	 1.346798108037145e+001
 1.434574555879015e+000	 1.002245400896121e+000	 1.338886871707910e+001
 1.424195563096951e+000	 1.016940016940706e+000	 1.328720028358970e+001
 1.413657017699293e+000	 1.031539546657219e+000	 1.316120063863092e+001
 1.402960210233953e+000	 1.046041418165064e+000	 1.300907690918427e+001
 1.392106486064946e+000	 1.060443082622109e+000	 1.282902063961156e+001
 1.381097244866092e+000	 1.074742015675246e+000	 1.261921001645001e+001
 1.369933940068900e+000	 1.088935718897824e+000	 1.237781216527191e+001
 1.358618078265032e+000	 1.103021721212288e+000	 1.210298551573991e+001
 1.485667032413862e+000	 9.712973122453554e-001	 1.360507847910587e+001
 1.475632555316646e+000	 9.864753223822117e-001	 1.353272645528825e+001
 1.465432657355221e+000	 1.001564839009399e+000	 1.344595632646194e+001
 1.455068478104174e+000	 1.016563192337401e+000	 1.334317939895325e+001
 1.444541213996230e+000	 1.031467731467781e+000	 1.322278042536867e+001
 1.433852117949764e+000	 1.046275825894074e+000	 1.308311942750563e+001
 1.423002498949086e+000	 1.060984866994530e+000	 1.292253360849485e+001
 1.411993721577700e+000	 1.075592269514990e+000	 1.273933935142944e+001
 1.400827205504765e+000	 1.090095473040156e+000	 1.253183430144338e+001
 1.389504424925096e+000	 1.104491943451570e+000	 1.229829952790875e+001
 1.378026907953097e+000	 1.118779174370570e+000	 1.203700176313915e+001
 1.506591920194319e+000	 9.849775560819279e-001	 1.361493638606701e+001
 1.496416112432994e+000	 1.000369341008790e+000	 1.351723044770045e+001
 1.486072553936271e+000	 1.015671386038590e+000	 1.340972073381101e+001
 1.475562400329086e+000	 1.030880983779144e+000	 1.329095889767843e+001
 1.464886864895328e+000	 1.045995445995415e+000	 1.315946523399926e+001
 1.454047218200109e+000	 1.061012105131552e+000	 1.301373034083875e+001
 1.443044787664139e+000	 1.075928315824656e+000	 1.285221687812360e+001
 1.431880957090408e+000	 1.090741456408535e+000	 1.267336142023519e+001
 1.420557166143417e+000	 1.105448930405707e+000	 1.247557639995010e+001
 1.409074909781287e+000	 1.120048168005903e+000	 1.225725214066581e+001
 1.397435737641161e+000	 1.134536627529352e+000	 1.201675897354666e+001
 1.527516807974274e+000	 9.986577999184951e-001	 1.359282784059586e+001
 1.517199669548935e+000	 1.014263359635549e+000	 1.347721013633359e+001
 1.506712450517001e+000	 1.029777933068117e+000	 1.335637341821701e+001
 1.496056322553752e+000	 1.045198775221347e+000	 1.322900532841807e+001
 1.485232515794244e+000	 1.060523160523605e+000	 1.309375730119568e+001
 1.474242318450327e+000	 1.075748384369653e+000	 1.294924606794945e+001
 1.463087076379111e+000	 1.090871764655441e+000	 1.279405526625920e+001
 1.451768192603071e+000	 1.105890643302746e+000	 1.262673715076771e+001
 1.440287126782049e+000	 1.120802387771899e+000	 1.244581440343191e+001
 1.428645394637474e+000	 1.135604392560822e+000	 1.224978204034232e+001
 1.416844567329225e+000	 1.150294080688636e+000	 1.203710941198559e+001
 1.548441695753725e+000	 1.012338043755057e+000	 1.353648543968904e+001
 1.537983226664468e+000	 1.028157378262487e+000	 1.341010337057338e+001
 1.527352347097408e+000	 1.043884480097980e+000	 1.328306245205207e+001
 1.516550244778170e+000	 1.059516566664012e+000	 1.315418209939734e+001
 1.505578166692977e+000	 1.075050875052352e+000	 1.302224062289730e+001
 1.494437418700419e+000	 1.090484663608378e+000	 1.288597657993636e+001
 1.483129365094002e+000	 1.105815213486885e+000	 1.274409023864654e+001
 1.471655428115688e+000	 1.121039830197622e+000	 1.259524515127733e+001
 1.460017087420660e+000	 1.136155845138731e+000	 1.243806983508405e+001
 1.448215879493655e+000	 1.151160617116327e+000	 1.227115955818719e+001
 1.436253397017289e+000	 1.166051533848422e+000	 1.209307822751269e+001
 1.569366583532674e+000	 1.026018287591614e+000	 1.344365637888773e+001
 1.558766783779593e+000	 1.042051396889605e+000	 1.331337824274990e+001
 1.547992243677491e+000	 1.057991027128178e+000	 1.318698160049070e+001
 1.537044167002341e+000	 1.073834358107138e+000	 1.306341355903240e+001
 1.525923817591530e+000	 1.089578589581657e+000	 1.294157517231999e+001
 1.514632518950385e+000	 1.105220942847726e+000	 1.282032264422532e+001
 1.503171653808812e+000	 1.120758662318988e+000	 1.269846865074945e+001
 1.491542663628261e+000	 1.136189017093163e+000	 1.257478377995878e+001
 1.479747048059252e+000	 1.151509302506205e+000	 1.244799808771987e+001
 1.467786364349831e+000	 1.166716841672418e+000	 1.231680276693517e+001
 1.455662226705354e+000	 1.181808987008709e+000	 1.217985192761620e+001
 1.590291471311120e+000	 1.039698531428165e+000	 1.331210149184727e+001
 1.579550340894311e+000	 1.055945415516904e+000	 1.318453109847038e+001
 1.568632140257253e+000	 1.072097574158711e+000	 1.306536731540415e+001
 1.557538089226265e+000	 1.088152149550725e+000	 1.295368098670706e+001
 1.546269468489901e+000	 1.104106304111520e+000	 1.284849190145151e+001
 1.534827619200224e+000	 1.119957222087697e+000	 1.274876985112696e+001
 1.523213942523541e+000	 1.135702111151751e+000	 1.265343581421690e+001
 1.511429899140787e+000	 1.151338203989368e+000	 1.256136326666499e+001
 1.499477008697823e+000	 1.166862759874319e+000	 1.247137961655877e+001
 1.487356849206002e+000	 1.182273066229095e+000	 1.238226776097262e+001
 1.475071056393418e+000	 1.197566440169497e+000	 1.229276776252938e+001
 1.611216359089064e+000	 1.053378775264711e+000	 1.313959436474529e+001
 1.600333898008621e+000	 1.069839434144381e+000	 1.302108470199062e+001
 1.589272036836692e+000	 1.086204121189579e+000	 1.291549596349735e+001
 1.578032011449942e+000	 1.102469940994773e+000	 1.282201889595709e+001
 1.566615119388090e+000	 1.118634018641939e+000	 1.273978813203994e+001
 1.555022719449937e+000	 1.134693501328291e+000	 1.266788310585711e+001
 1.543256231238189e+000	 1.150645559985172e+000	 1.260532910362375e+001
 1.531317134653268e+000	 1.166487390886239e+000	 1.255109844851390e+001
 1.519206969336373e+000	 1.182216217243073e+000	 1.250411181829095e+001
 1.506927334062168e+000	 1.197829290786359e+000	 1.246323969389231e+001
 1.494479886081482e+000	 1.213323893330786e+000	 1.242730393674054e+001
 1.632141246866505e+000	 1.067059019101252e+000	 1.292392051881228e+001
 1.621117455122524e+000	 1.083733452772039e+000	 1.282058654271218e+001
 1.609911933415809e+000	 1.100310668220784e+000	 1.273468126766542e+001
 1.598525933673372e+000	 1.116787732439283e+000	 1.266551162202429e+001
 1.586960770286098e+000	 1.133161733172916e+000	 1.261232330112225e+001
 1.575217819699524e+000	 1.149429780569508e+000	 1.257430154424801e+001
 1.563298519952757e+000	 1.165589008819253e+000	 1.255057205500149e+001
 1.551204370165703e+000	 1.181636577783775e+000	 1.254020206429423e+001
 1.538936929974904e+000	 1.197569674612469e+000	 1.254220153482917e+001
 1.526497818918329e+000	 1.213385515344209e+000	 1.255552450546746e+001
 1.513888715769546e+000	 1.229081346492577e+000	 1.257907057346386e+001
 1.653066134643443e+000	 1.080739262937787e+000	 1.266287665494879e+001
 1.641901012236020e+000	 1.097627471399877e+000	 1.258060727029938e+001
 1.630551829994604e+000	 1.114417215252323e+000	 1.252027194267807e+001
 1.619019855896556e+000	 1.131105523884254e+000	 1.248129016858419e+001
 1.607306421183923e+000	 1.147689447704449e+000	 1.246301502967672e+001
 1.595412919948984e+000	 1.164166059811349e+000	 1.246473383460816e+001
 1.583340808667244e+000	 1.180532457653993e+000	 1.248566891258137e+001
 1.571091605678093e+000	 1.196785764681977e+000	 1.252497855815754e+001
 1.558666890613415e+000	 1.212923131982505e+000	 1.258175812639572e+001
 1.546068303774484e+000	 1.228941739902645e+000	 1.265504127695642e+001
 1.533297545457611e+000	 1.244838799654869e+000	 1.274380136535252e+001
 1.673991022419878e+000	 1.094419506774317e+000	 1.235426995499574e+001
 1.662684569349107e+000	 1.111521490027895e+000	 1.229873924716334e+001
 1.651191726573076e+000	 1.128523762284198e+000	 1.226964950818735e+001
 1.639513778119492e+000	 1.145423315329686e+000	 1.226652929096888e+001
 1.627652072081567e+000	 1.162217162236540e+000	 1.228883548612665e+001
 1.615608020198319e+000	 1.178902339053813e+000	 1.233595383194230e+001
 1.603383097381649e+000	 1.195475906489392e+000	 1.240719958453191e+001
 1.590978841190437e+000	 1.211934951580843e+000	 1.250181834803279e+001
 1.578396851251905e+000	 1.228276589353182e+000	 1.261898706412825e+001
 1.565638788630636e+000	 1.244497964461667e+000	 1.275781515976012e+001
 1.552706375145675e+000	 1.260596252817663e+000	 1.228877517614771e+001
 1.358618078265032e+000	 1.103021721212288e+000	 1.210298551573991e+001
 1.347151218564126e+000	 1.116997580295668e+000	 1.207479645670484e+001
 1.335534971906517e+000	 1.130860883968336e+000	 1.204281763280707e+001
 1.323771000332176e+000	 1.144609251562969e+000	 1.200686077299844e+001
 1.311861016207091e+000	 1.158240335270790e+000	 1.196670879745112e+001
 1.299806781406893e+000	 1.171751821465558e+000	 1.192211659328171e+001
 1.287610106458834e+000	 1.185141432003066e+000	 1.187281186796257e+001
 1.275272849643007e+000	 1.198406925494609e+000	 1.181849607820590e+001
 1.262796916053697e+000	 1.211546098552944e+000	 1.175884543186031e+001
 1.250184256621897e+000	 1.224556787009298e+000	 1.169351196012520e+001
 1.237436867100000e+000	 1.237436867100000e+000	 1.170911783008301e+001
 1.378026907953097e+000	 1.118779174370570e+000	 1.203700176313915e+001
 1.366396235971277e+000	 1.132954688583815e+000	 1.209733853762177e+001
 1.354614042933289e+000	 1.147016039451929e+000	 1.215553448027048e+001
 1.342682014622530e+000	 1.160960812298055e+000	 1.221129768627061e+001
 1.330601887867360e+000	 1.174786625773290e+000	 1.226430478485021e+001
 1.318375449713059e+000	 1.188491133199592e+000	 1.231420184140028e+001
 1.306004536551559e+000	 1.202072023887835e+000	 1.236060534254017e+001
 1.293491033209806e+000	 1.215527024429475e+000	 1.240310326166716e+001
 1.280836871997721e+000	 1.228853899960310e+000	 1.244125620226913e+001
 1.268044031716738e+000	 1.242050455394869e+000	 1.247459861603040e+001
 1.255114536630000e+000	 1.255114536630000e+000	 1.221439346066430e+001
 1.397435737641161e+000	 1.134536627529352e+000	 1.201675897354666e+001
 1.385641253378430e+000	 1.148911796872367e+000	 1.216402096607950e+001
 1.373693113960062e+000	 1.163171194935842e+000	 1.231082225545124e+001
 1.361593028912884e+000	 1.177312373033386e+000	 1.245676692142817e+001
 1.349342759527628e+000	 1.191332916275971e+000	 1.260142486035563e+001
 1.336944118019226e+000	 1.205230444933752e+000	 1.274433281489916e+001
 1.324398966644283e+000	 1.219002615772685e+000	 1.288499549211650e+001
 1.311709216776605e+000	 1.232647123364387e+000	 1.302288676714837e+001
 1.298876827941744e+000	 1.246161701367696e+000	 1.315745096954403e+001
 1.285903806811579e+000	 1.259544123780445e+000	 1.273559433896265e+001
 1.272792206160000e+000	 1.272792206160000e+000	 1.210781449390924e+001
 1.416844567329225e+000	 1.150294080688636e+000	 1.203710941198559e+001
 1.404886270785581e+000	 1.164868905161327e+000	 1.226980427758270e+001
 1.392772184986834e+000	 1.179326350420076e+000	 1.250375166569882e+001
 1.380504043203239e+000	 1.193663933768963e+000	 1.273845119198715e+001
 1.368083631187897e+000	 1.207879206778833e+000	 1.297336550905807e+001
 1.355512786325393e+000	 1.221969756668037e+000	 1.320792146513706e+001
 1.342793396737007e+000	 1.235933207657614e+000	 1.344151135656887e+001
 1.329927400343404e+000	 1.249767222299344e+000	 1.367349427120320e+001
 1.316916783885768e+000	 1.263469502775102e+000	 1.310644712569155e+001
 1.303763581906420e+000	 1.277037792166026e+000	 1.254261122511327e+001
 1.290469875690000e+000	 1.290469875690000e+000	 1.199767003791736e+001
 1.436253397017289e+000	 1.166051533848422e+000	 1.209307822751269e+001
 1.424131288192732e+000	 1.180826013450692e+000	 1.240981665257576e+001
 1.411851256013606e+000	 1.195481505904632e+000	 1.272955578586839e+001
 1.399415057493593e+000	 1.210015494504787e+000	 1.305169026568338e+001
 1.386824502848165e+000	 1.224425497281876e+000	 1.337557492364606e+001
 1.374081454631560e+000	 1.238709068402448e+000	 1.370052607365344e+001
 1.361187826829731e+000	 1.252863799542624e+000	 1.385287068565830e+001
 1.348145583910203e+000	 1.266887321234346e+000	 1.333514769311611e+001
 1.334956739829792e+000	 1.280777304182529e+000	 1.283327460204987e+001
 1.321623357001262e+000	 1.294531460551612e+000	 1.234908503394023e+001
 1.308147545220000e+000	 1.308147545220000e+000	 1.188441547445375e+001
 1.455662226705354e+000	 1.181808987008709e+000	 1.217985192761620e+001
 1.443376305599884e+000	 1.196783121740464e+000	 1.257934274011343e+001
 1.430930327040378e+000	 1.211636661389509e+000	 1.298361923382081e+001
 1.418326071783947e+000	 1.226367055240856e+000	 1.339197049419173e+001
 1.405565374508434e+000	 1.240971787785099e+000	 1.380364289056629e+001
 1.392650122937726e+000	 1.255448380136984e+000	 1.388568364292524e+001
 1.379582256922456e+000	 1.269794391427715e+000	 1.342945858544755e+001
 1.366363767477001e+000	 1.284007420169394e+000	 1.298779586299890e+001
 1.352996695773816e+000	 1.298085105589976e+000	 1.256253568042884e+001
 1.339483132096103e+000	 1.312025128937203e+000	 1.215552566028749e+001
 1.325825214750000e+000	 1.325825214750000e+000	 1.176861731881911e+001
 1.475071056393418e+000	 1.197566440169497e+000	 1.229276776252938e+001
 1.462621323007036e+000	 1.212740230030642e+000	 1.277381336387287e+001
 1.450009398067151e+000	 1.227791816874707e+000	 1.326146820048758e+001
 1.437237086074301e+000	 1.242718615977171e+000	 1.375491516944544e+001
 1.424306246168702e+000	 1.257518078288504e+000	 1.379285237349741e+001
 1.411218791243893e+000	 1.272187691871646e+000	 1.339668731746740e+001
 1.397976687015180e+000	 1.286724983312886e+000	 1.301372460690713e+001
 1.384581951043800e+000	 1.301127519104486e+000	 1.264580862194929e+001
 1.371036651717839e+000	 1.315392906997442e+000	 1.229479590329810e+001
 1.357342907190944e+000	 1.329518797322799e+000	 1.196255161021308e+001
 1.343502884280000e+000	 1.343502884280000e+000	 1.165094590843284e+001
 1.494479886081482e+000	 1.213323893330786e+000	 1.242730393674054e+001
 1.481866340414187e+000	 1.228697338321226e+000	 1.298879603029536e+001
 1.469088469093923e+000	 1.243946972360227e+000	 1.355876125681451e+001
 1.456148100364656e+000	 1.259070176713732e+000	 1.358094917275181e+001
 1.443047117828970e+000	 1.274064368792089e+000	 1.324366473155515e+001
 1.429787459550060e+000	 1.288927003606433e+000	 1.291814638667865e+001
 1.416371117107903e+000	 1.303655575198137e+000	 1.260623983918725e+001
 1.402800134610599e+000	 1.318247618039624e+000	 1.230980787870501e+001
 1.389076607661863e+000	 1.332700708404929e+000	 1.203072683528451e+001
 1.375202682285786e+000	 1.347012465708400e+000	 1.177088294831276e+001
 1.361180553810000e+000	 1.361180553810000e+000	 1.153216866113707e+001
 1.513888715769546e+000	 1.229081346492577e+000	 1.257907057346386e+001
 1.501111357821339e+000	 1.244654446612217e+000	 1.321998616687039e+001
 1.488167540120696e+000	 1.260102127846067e+000	 1.325603726384748e+001
 1.475059114655010e+000	 1.275421737450539e+000	 1.297672359934140e+001
 1.461787989489239e+000	 1.290610659295855e+000	 1.270766047560117e+001
 1.448356127856227e+000	 1.305666315341346e+000	 1.245069160697325e+001
 1.434765547200628e+000	 1.320586167083469e+000	 1.220768290354793e+001
 1.421018318177398e+000	 1.335367716974808e+000	 1.198051892978107e+001
 1.407116563605887e+000	 1.350008509812436e+000	 1.177109926688023e+001
 1.393062457380627e+000	 1.364506134094006e+000	 1.158133478755742e+001
 1.378858223340000e+000	 1.378858223340000e+000	 1.141314385209254e+001
 1.533297545457611e+000	 1.244838799654869e+000	 1.274380136535252e+001
 1.520356375228491e+000	 1.260611554903613e+000	 1.282365074401727e+001
 1.507246611147468e+000	 1.276257283332229e+000	 1.260167764322118e+001
 1.493970128945364e+000	 1.291773298187593e+000	 1.238835798597805e+001
 1.480528861149507e+000	 1.307156949799801e+000	 1.218552973431040e+001
 1.466924796162393e+000	 1.322405627076385e+000	 1.199505832475004e+001
 1.453159977293352e+000	 1.337516758968881e+000	 1.181883314752935e+001
 1.439236501744197e+000	 1.352487815910036e+000	 1.165876391593930e+001
 1.425156519549911e+000	 1.367316311219963e+000	 1.151677693432466e+001
 1.410922232475468e+000	 1.381999802479618e+000	 1.139481127357319e+001
 1.396535892870000e+000	 1.396535892870000e+000	 1.129481486331564e+001
 1.552706375145675e+000	 1.260596252817663e+000	 1.228877517614771e+001
 1.539601392635642e+000	 1.276568663195416e+000	 1.212380114238749e+001
 1.526325682174240e+000	 1.292412438818711e+000	 1.196580050869304e+001
 1.512881143235718e+000	 1.308124858924892e+000	 1.181660125899964e+001
 1.499269732809776e+000	 1.323703240303929e+000	 1.167806429277440e+001
 1.485493464468560e+000	 1.339144938811550e+000	 1.155207993951819e+001
 1.471554407386076e+000	 1.354447350854373e+000	 1.144056434955931e+001
 1.457454685310996e+000	 1.369607914845310e+000	 1.134545576942303e+001
 1.443196475493934e+000	 1.384624112627510e+000	 1.126871071049494e+001
 1.428782007570309e+000	 1.399493470865234e+000	 1.121230002010026e+001
 1.414213562400000e+000	 1.414213562400000e+000	 1.117820486449948e+001
 1.237436867100000e+000	 1.237436867100000e+000	 1.170911783008301e+001
 1.224556787009298e+000	 1.250184256621897e+000	 1.201275196698433e+001
 1.211546098552944e+000	 1.262796916053697e+000	 1.164788653937053e+001
 1.198406925494609e+000	 1.275272849643007e+000	 1.131034224454852e+001
 1.185141432003067e+000	 1.287610106458834e+000	 1.100083848720208e+001
 1.171751821465558e+000	 1.299806781406892e+000	 1.072005983967694e+001
 1.158240335270790e+000	 1.311861016207091e+000	 1.046865537583602e+001
 1.144609251562970e+000	 1.323771000332176e+000	 1.024723805292704e+001
 1.130860883968336e+000	 1.335534971906517e+000	 1.005638414241112e+001
 1.116997580295668e+000	 1.347151218564126e+000	 9.896632710601280e+000
 1.103021721212288e+000	 1.358618078265032e+000	 9.768485149856872e+000
 1.255114536630000e+000	 1.255114536630000e+000	 1.221439346066430e+001
 1.242050455394869e+000	 1.268044031716738e+000	 1.188168460320808e+001
 1.228853899960310e+000	 1.280836871997720e+000	 1.160652514869171e+001
 1.215527024429475e+000	 1.293491033209806e+000	 1.135392335427608e+001
 1.202072023887835e+000	 1.306004536551558e+000	 1.112436446928295e+001
 1.188491133199592e+000	 1.318375449713059e+000	 1.091830401462288e+001
 1.174786625773290e+000	 1.330601887867360e+000	 1.073616734837550e+001
 1.160960812298055e+000	 1.342682014622530e+000	 1.057834927176961e+001
 1.147016039451929e+000	 1.354614042933290e+000	 1.044521367615513e+001
 1.132954688583815e+000	 1.366396235971277e+000	 1.033709323147599e+001
 1.118779174370570e+000	 1.378026907953097e+000	 1.025428911666744e+001
 1.272792206160000e+000	 1.272792206160000e+000	 1.210781449390924e+001
 1.259544123780445e+000	 1.285903806811580e+000	 1.180378311478887e+001
 1.246161701367696e+000	 1.298876827941744e+000	 1.154124302572617e+001
 1.232647123364387e+000	 1.311709216776605e+000	 1.136447477549038e+001
 1.219002615772685e+000	 1.324398966644282e+000	 1.120592630425807e+001
 1.205230444933752e+000	 1.336944118019226e+000	 1.106582830041765e+001
 1.191332916275971e+000	 1.349342759527628e+000	 1.094438650936196e+001
 1.177312373033386e+000	 1.361593028912884e+000	 1.084178156006517e+001
 1.163171194935842e+000	 1.373693113960062e+000	 1.075816882482778e+001
 1.148911796872367e+000	 1.385641253378430e+000	 1.069367831236411e+001
 1.134536627529353e+000	 1.397435737641161e+000	 1.064841459433958e+001
 1.290469875690000e+000	 1.290469875690000e+000	 1.199767003791736e+001
 1.277037792166026e+000	 1.303763581906420e+000	 1.176855966265814e+001
 1.263469502775103e+000	 1.316916783885768e+000	 1.154865132836025e+001
 1.249767222299344e+000	 1.329927400343403e+000	 1.134119761672126e+001
 1.235933207657614e+000	 1.342793396737007e+000	 1.124511589929720e+001
 1.221969756668037e+000	 1.355512786325393e+000	 1.116260846985624e+001
 1.207879206778833e+000	 1.368083631187897e+000	 1.109366538441454e+001
 1.193663933768963e+000	 1.380504043203239e+000	 1.103825690850883e+001
 1.179326350420076e+000	 1.392772184986834e+000	 1.099633358649144e+001
 1.164868905161327e+000	 1.404886270785581e+000	 1.096782633615453e+001
 1.150294080688636e+000	 1.416844567329225e+000	 1.095264656847794e+001
 1.308147545220000e+000	 1.308147545220000e+000	 1.188441547445375e+001
 1.294531460551612e+000	 1.321623357001262e+000	 1.172071133639945e+001
 1.280777304182529e+000	 1.334956739829792e+000	 1.156158453632273e+001
 1.266887321234346e+000	 1.348145583910202e+000	 1.140844830092865e+001
 1.252863799542624e+000	 1.361187826829731e+000	 1.126272106263147e+001
 1.238709068402448e+000	 1.374081454631560e+000	 1.120863191077966e+001
 1.224425497281876e+000	 1.386824502848165e+000	 1.118434772012268e+001
 1.210015494504787e+000	 1.399415057493593e+000	 1.116846852316094e+001
 1.195481505904632e+000	 1.411851256013606e+000	 1.116074356666405e+001
 1.180826013450691e+000	 1.424131288192732e+000	 1.116090809192988e+001
 1.166051533848422e+000	 1.436253397017289e+000	 1.116868364494056e+001
 1.325825214750000e+000	 1.325825214750000e+000	 1.176861731881911e+001
 1.312025128937203e+000	 1.339483132096103e+000	 1.166113651757133e+001
 1.298085105589976e+000	 1.352996695773815e+000	 1.155371174446958e+001
 1.284007420169393e+000	 1.366363767477001e+000	 1.144762093563483e+001
 1.269794391427715e+000	 1.379582256922455e+000	 1.134415318960407e+001
 1.255448380136984e+000	 1.392650122937726e+000	 1.124460558835764e+001
 1.240971787785100e+000	 1.405565374508434e+000	 1.121676906931449e+001
 1.226367055240856e+000	 1.418326071783947e+000	 1.123308274442293e+001
 1.211636661389509e+000	 1.430930327040379e+000	 1.125238920448894e+001
 1.196783121740463e+000	 1.443376305599884e+000	 1.127423128122008e+001
 1.181808987008709e+000	 1.455662226705354e+000	 1.129814380848918e+001
 1.343502884280000e+000	 1.343502884280000e+000	 1.165094590843284e+001
 1.329518797322799e+000	 1.357342907190944e+000	 1.159081806248862e+001
 1.315392906997442e+000	 1.371036651717839e+000	 1.152632170460057e+001
 1.301127519104486e+000	 1.384581951043800e+000	 1.145860629244958e+001
 1.286724983312886e+000	 1.397976687015179e+000	 1.138883837412594e+001
 1.272187691871646e+000	 1.411218791243893e+000	 1.131819845862180e+001
 1.257518078288504e+000	 1.424306246168702e+000	 1.124787783432686e+001
 1.242718615977171e+000	 1.437237086074301e+000	 1.123274081451483e+001
 1.227791816874707e+000	 1.450009398067151e+000	 1.127221874420644e+001
 1.212740230030642e+000	 1.462621323007036e+000	 1.130904466849938e+001
 1.197566440169497e+000	 1.475071056393418e+000	 1.134256972680823e+001
 1.361180553810000e+000	 1.361180553810000e+000	 1.153216866113707e+001
 1.347012465708400e+000	 1.375202682285786e+000	 1.151081781684914e+001
 1.332700708404929e+000	 1.389076607661863e+000	 1.148076434289049e+001
 1.318247618039624e+000	 1.402800134610599e+000	 1.144303592791593e+001
 1.303655575198137e+000	 1.416371117107904e+000	 1.139868325501932e+001
 1.288927003606433e+000	 1.429787459550060e+000	 1.134877691330246e+001
 1.274064368792089e+000	 1.443047117828970e+000	 1.129440424771642e+001
 1.259070176713732e+000	 1.456148100364655e+000	 1.123666615600307e+001
 1.243946972360226e+000	 1.469088469093923e+000	 1.122114097508325e+001
 1.228697338321226e+000	 1.481866340414187e+000	 1.126654190826806e+001
 1.213323893330786e+000	 1.494479886081482e+000	 1.130343364122456e+001
 1.378858223340000e+000	 1.378858223340000e+000	 1.141314385209254e+001
 1.364506134094007e+000	 1.393062457380627e+000	 1.142227155231121e+001
 1.350008509812436e+000	 1.407116563605887e+000	 1.141844683845450e+001
 1.335367716974807e+000	 1.421018318177398e+000	 1.140258224481596e+001
 1.320586167083468e+000	 1.434765547200628e+000	 1.137561918476814e+001
 1.305666315341347e+000	 1.448356127856227e+000	 1.133852489506501e+001
 1.290610659295855e+000	 1.461787989489239e+000	 1.129228930867731e+001
 1.275421737450539e+000	 1.475059114655010e+000	 1.123792186510165e+001
 1.260102127846067e+000	 1.488167540120696e+000	 1.117644826727410e+001
 1.244654446612217e+000	 1.501111357821339e+000	 1.114786507774288e+001
 1.229081346492577e+000	 1.513888715769546e+000	 1.118214188121736e+001
 1.396535892870000e+000	 1.396535892870000e+000	 1.129481486331564e+001
 1.381999802479617e+000	 1.410922232475468e+000	 1.132638428763573e+001
 1.367316311219963e+000	 1.425156519549910e+000	 1.134082999974485e+001
 1.352487815910036e+000	 1.439236501744197e+000	 1.133895590696584e+001
 1.337516758968881e+000	 1.453159977293352e+000	 1.132160066536208e+001
 1.322405627076385e+000	 1.466924796162393e+000	 1.128963464846777e+001
 1.307156949799802e+000	 1.480528861149507e+000	 1.124395683479837e+001
 1.291773298187593e+000	 1.493970128945364e+000	 1.118549162321128e+001
 1.276257283332228e+000	 1.507246611147467e+000	 1.111518558540094e+001
 1.260611554903613e+000	 1.520356375228491e+000	 1.103400416499279e+001
 1.244838799654869e+000	 1.533297545457611e+000	 1.098003903605428e+001
 1.414213562400000e+000	 1.414213562400000e+000	 1.117820486449948e+001
 1.399493470865234e+000	 1.428782007570309e+000	 1.122442596074207e+001
 1.384624112627510e+000	 1.443196475493934e+000	 1.124942491271682e+001
 1.369607914845309e+000	 1.457454685310996e+000	 1.125390344790131e+001
 1.354447350854374e+000	 1.471554407386076e+000	 1.123860390145250e+001
 1.339144938811549e+000	 1.485493464468560e+000	 1.120430620109341e+001
 1.323703240303929e+000	 1.499269732809775e+000	 1.115182476100520e+001
 1.308124858924892e+000	 1.512881143235718e+000	 1.108200529394422e+001
 1.292412438818710e+000	 1.526325682174240e+000	 1.099572155103805e+001
 1.276568663195416e+000	 1.539601392635642e+000	 1.089387199891760e+001
 1.260596252817662e+000	 1.552706375145675e+000	 1.077737644400824e+001
 1.103021721212288e+000	 1.358618078265032e+000	 9.768485149856872e+000
 1.088935718897824e+000	 1.369933940068900e+000	 9.707696558557093e+000
 1.074742015675246e+000	 1.381097244866093e+000	 9.641180629928702e+000
 1.060443082622109e+000	 1.392106486064946e+000	 9.568024458872497e+000
 1.046041418165064e+000	 1.402960210233953e+000	 9.487317846067276e+000
 1.031539546657219e+000	 1.413657017699293e+000	 9.398154249928401e+000
 1.016940016940706e+000	 1.424195563096952e+000	 9.299631728617765e+000
 1.002245400896121e+000	 1.434574555879015e+000	 9.190853870634612e+000
 9.874582919805433e-001	 1.444792760773848e+000	 9.070930712553260e+000
 9.725813037558126e-001	 1.454848998199890e+000	 8.938979642513729e+000
 9.576170684087774e-001	 1.464742144632903e+000	 8.794126288115383e+000
 1.118779174370570e+000	 1.378026907953097e+000	 1.025428911666744e+001
 1.104491943451570e+000	 1.389504424925096e+000	 1.017769166685282e+001
 1.090095473040156e+000	 1.400827205504764e+000	 1.009539967155041e+001
 1.075592269514990e+000	 1.411993721577700e+000	 1.000651353846974e+001
 1.060984866994530e+000	 1.423002498949086e+000	 9.910136325768217e+000
 1.046275825894074e+000	 1.433852117949764e+000	 9.805374680164897e+000
 1.031467731467781e+000	 1.444541213996230e+000	 9.691339765165727e+000
 1.016563192337402e+000	 1.455068478104174e+000	 9.567148177953836e+000
 1.001564839009399e+000	 1.465432657355221e+000	 9.431922853538673e+000
 9.864753223822116e-001	 1.475632555316646e+000	 9.284793954792596e+000
 9.712973122453553e-001	 1.485667032413862e+000	 9.124899747049218e+000
 1.134536627529353e+000	 1.397435737641161e+000	 1.064841459433958e+001
 1.120048168005903e+000	 1.409074909781287e+000	 1.055802137628423e+001
 1.105448930405707e+000	 1.420557166143416e+000	 1.046198200986028e+001
 1.090741456408535e+000	 1.431880957090409e+000	 1.035940924950809e+001
 1.075928315824656e+000	 1.443044787664139e+000	 1.024941844129143e+001
 1.061012105131552e+000	 1.454047218200108e+000	 1.013112844799071e+001
 1.045995445995415e+000	 1.464886864895328e+000	 1.000366256436255e+001
 1.030880983779144e+000	 1.475562400329086e+000	 9.866149421146327e+000
 1.015671386038590e+000	 1.486072553936272e+000	 9.717723876430936e+000
 1.000369341008790e+000	 1.496416112432994e+000	 9.557527893038058e+000
 9.849775560819279e-001	 1.506591920194319e+000	 9.384711400617132e+000
 1.150294080688636e+000	 1.416844567329225e+000	 1.095264656847794e+001
 1.135604392560822e+000	 1.428645394637474e+000	 1.085041421589499e+001
 1.120802387771899e+000	 1.440287126782048e+000	 1.074259940831434e+001
 1.105890643302746e+000	 1.451768192603071e+000	 1.062832630909334e+001
 1.090871764655441e+000	 1.463087076379111e+000	 1.050672161103046e+001
 1.075748384369653e+000	 1.474242318450326e+000	 1.037691544923599e+001
 1.060523160523605e+000	 1.485232515794244e+000	 1.023804230422068e+001
 1.045198775221347e+000	 1.496056322553752e+000	 1.008924189380490e+001
 1.029777933068117e+000	 1.506712450517001e+000	 9.929660052486272e+000
 1.014263359635548e+000	 1.517199669548935e+000	 9.758449596942192e+000
 9.986577999184951e-001	 1.527516807974274e+000	 9.574771176387163e+000
 1.166051533848422e+000	 1.436253397017289e+000	 1.116868364494056e+001
 1.151160617116327e+000	 1.448215879493655e+000	 1.105651533075210e+001
 1.136155845138731e+000	 1.460017087420660e+000	 1.093884325364814e+001
 1.121039830197621e+000	 1.471655428115688e+000	 1.081480207488999e+001
 1.105815213486885e+000	 1.483129365094002e+000	 1.068352891977584e+001
 1.090484663608378e+000	 1.494437418700419e+000	 1.054416427906100e+001
 1.075050875052352e+000	 1.505578166692977e+000	 1.039585290064437e+001
 1.059516566664012e+000	 1.516550244778170e+000	 1.023774467014342e+001
 1.043884480097980e+000	 1.527352347097408e+000	 1.006899547901835e+001
 1.028157378262487e+000	 1.537983226664468e+000	 9.888768078943189e+000
 1.012338043755057e+000	 1.548441695753725e+000	 9.696232921165137e+000
 1.181808987008709e+000	 1.455662226705354e+000	 1.129814380848918e+001
 1.166716841672418e+000	 1.467786364349831e+000	 1.117789204087824e+001
 1.151509302506204e+000	 1.479747048059251e+000	 1.105222991432463e+001
 1.136189017093162e+000	 1.491542663628260e+000	 1.092030170241755e+001
 1.120758662318988e+000	 1.503171653808812e+000	 1.078125407428897e+001
 1.105220942847726e+000	 1.514632518950385e+000	 1.063423698533373e+001
 1.089578589581657e+000	 1.525923817591530e+000	 1.047840455823712e+001
 1.073834358107138e+000	 1.537044167002341e+000	 1.031291595295527e+001
 1.057991027128178e+000	 1.547992243677491e+000	 1.013693622432773e+001
 1.042051396889605e+000	 1.558766783779593e+000	 9.949637166042187e+000
 1.026018287591614e+000	 1.569366583532674e+000	 9.750198139711925e+000
 1.197566440169497e+000	 1.475071056393418e+000	 1.134256972680823e+001
 1.182273066229095e+000	 1.487356849206002e+000	 1.121603896132007e+001
 1.166862759874319e+000	 1.499477008697823e+000	 1.108420567594708e+001
 1.151338203989368e+000	 1.511429899140787e+000	 1.094622289519132e+001
 1.135702111151751e+000	 1.523213942523541e+000	 1.080124596764622e+001
 1.119957222087697e+000	 1.534827619200224e+000	 1.064843344674143e+001
 1.104106304111520e+000	 1.546269468489901e+000	 1.048694796183460e+001
 1.088152149550725e+000	 1.557538089226265e+000	 1.031595707831207e+001
 1.072097574158711e+000	 1.568632140257253e+000	 1.013463414540001e+001
 1.055945415516903e+000	 1.579550340894311e+000	 9.942159130424150e+000
 1.039698531428165e+000	 1.590291471311120e+000	 9.737719438299049e+000
 1.213323893330786e+000	 1.494479886081482e+000	 1.130343364122456e+001
 1.197829290786359e+000	 1.506927334062168e+000	 1.117238272325079e+001
 1.182216217243073e+000	 1.519206969336373e+000	 1.103615129209391e+001
 1.166487390886239e+000	 1.531317134653268e+000	 1.089390028472320e+001
 1.150645559985172e+000	 1.543256231238189e+000	 1.074479288791944e+001
 1.134693501328291e+000	 1.555022719449937e+000	 1.058799540975033e+001
 1.118634018641939e+000	 1.566615119388090e+000	 1.042267814142453e+001
 1.102469940994773e+000	 1.578032011449942e+000	 1.024801620820810e+001
 1.086204121189579e+000	 1.589272036836692e+000	 1.006319040812110e+001
 1.069839434144381e+000	 1.600333898008621e+000	 9.867388037173118e+000
 1.053378775264711e+000	 1.611216359089064e+000	 9.659803699935265e+000
 1.229081346492577e+000	 1.513888715769546e+000	 1.118214188121736e+001
 1.213385515344209e+000	 1.526497818918328e+000	 1.104828633191086e+001
 1.197569674612469e+000	 1.538936929974904e+000	 1.090938618508965e+001
 1.181636577783775e+000	 1.551204370165703e+000	 1.076460947359821e+001
 1.165589008819253e+000	 1.563298519952757e+000	 1.061312640311257e+001
 1.149429780569508e+000	 1.575217819699524e+000	 1.045411021502997e+001
 1.133161733172916e+000	 1.586960770286098e+000	 1.028673803976502e+001
 1.116787732439283e+000	 1.598525933673372e+000	 1.011019173915451e+001
 1.100310668220784e+000	 1.609911933415809e+000	 9.923658736706654e+000
 1.083733452772039e+000	 1.621117455122524e+000	 9.726332834470933e+000
 1.067059019101252e+000	 1.632141246866505e+000	 9.517415015344719e+000
 1.244838799654869e+000	 1.533297545457611e+000	 1.098003903605428e+001
 1.228941739902645e+000	 1.546068303774485e+000	 1.084505319356558e+001
 1.212923131982505e+000	 1.558666890613415e+000	 1.070517232773007e+001
 1.196785764681976e+000	 1.571091605678093e+000	 1.055957077148310e+001
 1.180532457653993e+000	 1.583340808667244e+000	 1.040742495103898e+001
 1.164166059811349e+000	 1.595412919948985e+000	 1.024791424085822e+001
 1.147689447704450e+000	 1.607306421183923e+000	 1.008022180904504e+001
 1.131105523884254e+000	 1.619019855896555e+000	 9.903535451894177e+000
 1.114417215252323e+000	 1.630551829994604e+000	 9.717048416339519e+000
 1.097627471399877e+000	 1.641901012236019e+000	 9.519960209097429e+000
 1.080739262937787e+000	 1.653066134643443e+000	 9.311477391339544e+000
 1.260596252817662e+000	 1.552706375145675e+000	 1.077737644400824e+001
 1.244497964461667e+000	 1.565638788630635e+000	 1.056393084044122e+001
 1.228276589353182e+000	 1.578396851251904e+000	 1.042471783387731e+001
 1.211934951580842e+000	 1.590978841190437e+000	 1.027995265093343e+001
 1.195475906489392e+000	 1.603383097381649e+000	 1.012881715995868e+001
 1.178902339053813e+000	 1.615608020198319e+000	 9.970496088270561e+000
 1.162217162236540e+000	 1.627652072081567e+000	 9.804177860294477e+000
 1.145423315329686e+000	 1.639513778119491e+000	 9.629055424886472e+000
 1.128523762284198e+000	 1.651191726573076e+000	 9.444327070608795e+000
 1.111521490027895e+000	 1.662684569349107e+000	 9.249197227767933e+000
 1.094419506774317e+000	 1.673991022419878e+000	 9.042877256064299e+000
 9.576170684087774e-001	 1.464742144632903e+000	 8.794126288115383e+000
 9.425682352647938e-001	 1.474471132926832e+000	 8.699342079028844e+000
 9.274374692974090e-001	 1.484034952587418e+000	 8.597698753303956e+000
 9.122274496350906e-001	 1.493432649999157e+000	 8.488636279049185e+000
 8.969408680658606e-001	 1.502663328606234e+000	 8.371596219669330e+000
 8.815804275427316e-001	 1.511726149046811e+000	 8.246022309974867e+000
 8.661488406911885e-001	 1.520620329241137e+000	 8.111361025162962e+000
 8.506488283203392e-001	 1.529345144433827e+000	 7.967062141859290e+000
 8.350831179393492e-001	 1.537899927190630e+000	 7.812579290437103e+000
 8.194544422807419e-001	 1.546284067350165e+000	 7.647370497856730e+000
 8.037655378321177e-001	 1.554497011931069e+000	 7.470898720297130e+000
 9.712973122453553e-001	 1.485667032413862e+000	 9.124899747049218e+000
 9.560334957715676e-001	 1.495535006255741e+000	 9.028614252772304e+000
 9.406865760053216e-001	 1.505235451912260e+000	 8.924910751827984e+000
 9.252592703483489e-001	 1.514767402144833e+000	 8.813187615679851e+000
 9.097543090427869e-001	 1.524129947589711e+000	 8.692845624146763e+000
 8.941744336552631e-001	 1.533322236894168e+000	 8.563288576481348e+000
 8.785223955630551e-001	 1.542343476805889e+000	 8.423923893844338e+000
 8.628009544439742e-001	 1.551192932215838e+000	 8.274163212327448e+000
 8.470128767716021e-001	 1.559869926154992e+000	 8.113422965708764e+000
 8.311609343174988e-001	 1.568373839745379e+000	 7.941124957154942e+000
 8.152479026619462e-001	 1.576704112105899e+000	 7.756696919116455e+000
 9.849775560819279e-001	 1.506591920194319e+000	 9.384711400617132e+000
 9.694987562781512e-001	 1.516598879584058e+000	 9.286439963388551e+000
 9.539356827128893e-001	 1.526435951236438e+000	 9.180219556264563e+000
 9.382910910611386e-001	 1.536102154289799e+000	 9.065407135532949e+000
 9.225677500191511e-001	 1.545596566572448e+000	 8.941362862455886e+000
 9.067684397671688e-001	 1.554918324740777e+000	 8.807450749207323e+000
 8.908959504342630e-001	 1.564066624369903e+000	 8.663039294747554e+000
 8.749530805669459e-001	 1.573040719997142e+000	 8.507502109753432e+000
 8.589426356032175e-001	 1.581839925118697e+000	 8.340218529754006e+000
 8.428674263536745e-001	 1.590463612140005e+000	 8.160574215658372e+000
 8.267302674912782e-001	 1.598911212280233e+000	 7.967961740895334e+000
 9.986577999184951e-001	 1.527516807974274e+000	 9.574771176387163e+000
 9.829640167845446e-001	 1.537662752911782e+000	 9.474078137931610e+000
 9.671847894201128e-001	 1.547636450559955e+000	 9.364932163932298e+000
 9.513229117734601e-001	 1.557436906434053e+000	 9.246648958315245e+000
 9.353811909949530e-001	 1.567063185554444e+000	 9.118548210893103e+000
 9.193624458784483e-001	 1.576514412586634e+000	 8.979954278059827e+000
 9.032695053048108e-001	 1.585789771933177e+000	 8.830196851982164e+000
 8.871052066892545e-001	 1.594888507777738e+000	 8.668611617369951e+000
 8.708723944341962e-001	 1.603809924081746e+000	 8.494540894942999e+000
 8.545739183892688e-001	 1.612553384534045e+000	 8.307334270752218e+000
 8.382126323201147e-001	 1.621118312454072e+000	 8.106349210550668e+000
 1.012338043755057e+000	 1.548441695753725e+000	 9.696232921165137e+000
 9.964292772907482e-001	 1.558726626238913e+000	 9.592728869515515e+000
 9.804338961269921e-001	 1.568836949882811e+000	 9.480294030921607e+000
 9.643547324853131e-001	 1.578771658577597e+000	 9.358203002227890e+000
 9.481946319701924e-001	 1.588529804535698e+000	 9.225735132067896e+000
 9.319564519891022e-001	 1.598110500431744e+000	 9.082175236223202e+000
 9.156430601746993e-001	 1.607512919495713e+000	 8.926814300056002e+000
 8.992573328108996e-001	 1.616736295557627e+000	 8.758950167059417e+000
 8.828021532645374e-001	 1.625779923044137e+000	 8.577888212612827e+000
 8.662804104242817e-001	 1.634643156927498e+000	 8.382942002069674e+000
 8.496949971484549e-001	 1.643325412627414e+000	 8.173433932349113e+000
 1.026018287591614e+000	 1.569366583532674e+000	 9.750198139711925e+000
 1.009894537796761e+000	 1.579790499565452e+000	 9.643537339576573e+000
 9.936830028335265e-001	 1.590037449205004e+000	 9.527493174842745e+000
 9.773865531966974e-001	 1.600106410720428e+000	 9.401299264066759e+000
 9.610080729448697e-001	 1.609996423516213e+000	 9.264194729148930e+000
 9.445504580991300e-001	 1.619706588276103e+000	 9.115424945274041e+000
 9.280166150439282e-001	 1.629236067057511e+000	 8.954242276514888e+000
 9.114094589318817e-001	 1.638584083336808e+000	 8.779906796110248e+000
 8.947319120942419e-001	 1.647749922005872e+000	 8.591686990470164e+000
 8.779869024587131e-001	 1.656732929320366e+000	 8.388860446009037e+000
 8.611773619762990e-001	 1.665532512800259e+000	 8.170714517950847e+000
 1.039698531428165e+000	 1.590291471311120e+000	 9.737719438299049e+000
 1.023359798302585e+000	 1.600854372891399e+000	 9.627597430483808e+000
 1.006932109539717e+000	 1.611237948526535e+000	 9.507663953673694e+000
 9.904183739076133e-001	 1.621441162862548e+000	 9.377111761419942e+000
 9.738215139189845e-001	 1.631463042495988e+000	 9.235139848458681e+000
 9.571444642085322e-001	 1.641302676119713e+000	 9.080954235155035e+000
 9.403901699124976e-001	 1.650959214618570e+000	 8.913768736216650e+000
 9.235615850522009e-001	 1.660431871115281e+000	 8.732805712650814e+000
 9.066616709233090e-001	 1.669719920966950e+000	 8.537296805988069e+000
 8.896933944925634e-001	 1.678822701712647e+000	 8.326483653841294e+000
 8.726597268036471e-001	 1.687739612972610e+000	 8.099618585922645e+000
 1.053378775264711e+000	 1.611216359089064e+000	 9.659803699935265e+000
 1.036825058808218e+000	 1.621918246216753e+000	 9.545955056647308e+000
 1.020181216245563e+000	 1.632438447847403e+000	 9.421890550151471e+000
 1.003450194618061e+000	 1.642775915003957e+000	 9.286762167681568e+000
 9.866349548925373e-001	 1.652929661475022e+000	 9.139728862385505e+000
 9.697384703173082e-001	 1.662898763962574e+000	 8.979957372203556e+000
 9.527637247804074e-001	 1.672682362178891e+000	 8.806623021635426e+000
 9.357137111718565e-001	 1.682279658893047e+000	 8.618910505335364e+000
 9.185914297517390e-001	 1.691689919927371e+000	 8.416014652524462e+000
 9.013998865258323e-001	 1.700912474104342e+000	 8.197141171263487e+000
 8.841420916304991e-001	 1.709946713144463e+000	 7.961507371679634e+000
 1.067059019101252e+000	 1.632141246866505e+000	 9.517415015344719e+000
 1.050290319313661e+000	 1.642982119541515e+000	 9.399611239386999e+000
 1.033430322951064e+000	 1.653638947167610e+000	 9.271210188133702e+000
 1.016482015328040e+000	 1.664110667144655e+000	 9.131323167448521e+000
 9.994483958655278e-001	 1.674396280453315e+000	 8.979069161302439e+000
 9.823324764254584e-001	 1.684494851804685e+000	 8.813575685023260e+000
 9.651372796476581e-001	 1.694405509738473e+000	 8.633979620065874e+000
 9.478658372908492e-001	 1.704127446670105e+000	 8.439428029207317e+000
 9.305211885795318e-001	 1.713659918887135e+000	 8.229078951125366e+000
 9.131063785585197e-001	 1.723002246495451e+000	 8.002102173372048e+000
 8.956244564568551e-001	 1.732153813315821e+000	 7.757679982815135e+000
 1.080739262937787e+000	 1.653066134643443e+000	 9.311477391339544e+000
 1.063755579818914e+000	 1.664045992865685e+000	 9.189524948267916e+000
 1.046679429656221e+000	 1.674839446487155e+000	 9.056616104679732e+000
 1.029513836037550e+000	 1.685445419284641e+000	 8.911821557077206e+000
 1.012261836837956e+000	 1.695862899430868e+000	 8.754220380277062e+000
 9.949264825329823e-001	 1.706090939646046e+000	 8.582900914974120e+000
 9.775108345142487e-001	 1.716128657297317e+000	 8.396961635469717e+000
 9.600179634091781e-001	 1.725975234446456e+000	 8.195511996434604e+000
 9.424509474066878e-001	 1.735629917846243e+000	 7.977673257632080e+000
 9.248128705906260e-001	 1.745092018885973e+000	 7.742579285586364e+000
 9.071068212827147e-001	 1.754360913486683e+000	 7.489377331241386e+000
 1.094419506774317e+000	 1.673991022419878e+000	 9.042877256064299e+000
 1.077220840323977e+000	 1.685109866189261e+000	 8.916615729334351e+000
 1.059928536361034e+000	 1.696039945806038e+000	 8.779060299225444e+000
 1.042545656746592e+000	 1.706780171423916e+000	 8.629241112698740e+000
 1.025075277809822e+000	 1.717329518407680e+000	 8.466197383777931e+000
 1.007520488639881e+000	 1.727687027486658e+000	 8.288978315374562e+000
 9.898843893801798e-001	 1.737851804855421e+000	 8.096643999934265e+000
 9.721700895268441e-001	 1.747823022222099e+000	 7.888266297738894e+000
 9.543807062332064e-001	 1.757599916804693e+000	 7.662929691757444e+000
 9.365193626221506e-001	 1.767181791275909e+000	 7.419732118003716e+000
 9.185891861080785e-001	 1.776568013657048e+000	 7.157785770419832e+000
 8.037655378321177e-001	 1.554497011931069e+000	 7.470898720297130e+000
 7.880191433779774e-001	 1.562538264995355e+000	 7.294522285327409e+000
 7.722179985526132e-001	 1.570407387467961e+000	 7.131525761779983e+000
 7.563648424060112e-001	 1.578103996913506e+000	 6.981530543169280e+000
 7.404624119843859e-001	 1.585627767271441e+000	 6.844139003887380e+000
 7.245134409262326e-001	 1.592978428549761e+000	 6.718935140923108e+000
 7.085206580754377e-001	 1.600155766478270e+000	 6.605485232995289e+000
 6.924867861127356e-001	 1.607159622122281e+000	 6.503338515814545e+000
 6.764145402067767e-001	 1.613989891457657e+000	 6.412027872183471e+000
 6.603066266860092e-001	 1.620646524908150e+000	 6.331070535625207e+000
 6.441657417325339e-001	 1.627129526846032e+000	 6.259968806230205e+000
 8.152479026619462e-001	 1.576704112105899e+000	 7.756696919116455e+000
 7.992765597150681e-001	 1.584860240213809e+000	 7.586024842883000e+000
 7.832496842489194e-001	 1.592841778721614e+000	 7.426959330517210e+000
 7.671700544427713e-001	 1.600648339730568e+000	 7.279140423987460e+000
 7.510404464434980e-001	 1.608279592522115e+000	 7.142190244959951e+000
 7.348636329415730e-001	 1.615735263247221e+000	 7.015713603061738e+000
 7.186423817643655e-001	 1.623015134574688e+000	 6.899298620667866e+000
 7.023794544880488e-001	 1.630119045299332e+000	 6.792517373001490e+000
 6.860776050693965e-001	 1.637046889910957e+000	 6.694926542324557e+000
 6.697395784986904e-001	 1.643798618125084e+000	 6.606068084985495e+000
 6.533681094749184e-001	 1.650374234376445e+000	 6.525469910083421e+000
 8.267302674912782e-001	 1.598911212280233e+000	 7.967961740895334e+000
 8.105339760517525e-001	 1.607182215431857e+000	 7.804805926867126e+000
 7.942813699448886e-001	 1.615276169974930e+000	 7.651532207045116e+000
 7.779752664792434e-001	 1.623192682547341e+000	 7.507798252468159e+000
 7.616184809023511e-001	 1.630931417772530e+000	 7.373244892280001e+000
 7.452138249566627e-001	 1.638492097944431e+000	 7.247496689540788e+000
 7.287641054530313e-001	 1.645874502670843e+000	 7.130162532682608e+000
 7.122721228630689e-001	 1.653078468476088e+000	 7.020836241469318e+000
 6.957406699316717e-001	 1.660103888363913e+000	 6.919097186308969e+000
 6.791725303109568e-001	 1.666950711341602e+000	 6.824510919754775e+000
 6.625704772167977e-001	 1.673618941906352e+000	 6.736629819025970e+000
 8.382126323201147e-001	 1.621118312454072e+000	 8.106349210550668e+000
 8.217913923880305e-001	 1.629504190649500e+000	 7.952477870955008e+000
 8.053130556405208e-001	 1.637710561227909e+000	 7.806811134712530e+000
 7.887804785154277e-001	 1.645737025363827e+000	 7.669023314009681e+000
 7.721965153609446e-001	 1.653583243022685e+000	 7.538772938068382e+000
 7.555640169715016e-001	 1.661248932641390e+000	 7.415703297470120e+000
 7.388858291414354e-001	 1.668733870766737e+000	 7.299443003256045e+000
 7.221647912377959e-001	 1.676037891652553e+000	 7.189606559729065e+000
 7.054037347936031e-001	 1.683160886816524e+000	 7.085794949877354e+000
 6.886054821228080e-001	 1.690102804557706e+000	 6.987596232323986e+000
 6.717728449581719e-001	 1.696863649435754e+000	 6.894586148702743e+000
 8.496949971484549e-001	 1.643325412627414e+000	 8.173433932349113e+000
 8.330488087239021e-001	 1.651826165866735e+000	 8.030573807410329e+000
 8.163447413358160e-001	 1.660144952480551e+000	 7.894285974285293e+000
 7.995856905513239e-001	 1.668281368180025e+000	 7.764260428288295e+000
 7.827745498192792e-001	 1.676235068272581e+000	 7.640172422108725e+000
 7.659142089860902e-001	 1.684005767338098e+000	 7.521682979577601e+000
 7.490075528295773e-001	 1.691593238862369e+000	 7.408439423348638e+000
 7.320574596122299e-001	 1.698997314828725e+000	 7.300075915489441e+000
 7.150667996551902e-001	 1.706217885268792e+000	 7.196214009966738e+000
 6.980384339342446e-001	 1.713254897773396e+000	 7.096463216001285e+000
 6.809752126990409e-001	 1.720108356964651e+000	 7.000421571257912e+000
 8.611773619762990e-001	 1.665532512800259e+000	 8.170714517950847e+000
 8.443062250593676e-001	 1.674148141083565e+000	 8.040552947179105e+000
 8.273764270307743e-001	 1.682579343732855e+000	 7.915374829451981e+000
 8.103909025869323e-001	 1.690825710995935e+000	 7.794884913639623e+000
 7.933525842773548e-001	 1.698886893522218e+000	 7.678774228577237e+000
 7.762644010004286e-001	 1.706762602034556e+000	 7.566720567168185e+000
 7.591292765174578e-001	 1.714452606957738e+000	 7.458388983548757e+000
 7.419501279863707e-001	 1.721956738004602e+000	 7.353432302377324e+000
 7.247298645164333e-001	 1.729274883720716e+000	 7.251491639297510e+000
 7.074713857452664e-001	 1.736406990988670e+000	 7.152196931616755e+000
 6.901775804394048e-001	 1.743353064493043e+000	 7.055167478234737e+000
 8.726597268036471e-001	 1.687739612972610e+000	 8.099618585922645e+000
 8.555636413944262e-001	 1.696470116299987e+000	 7.983805443134436e+000
 8.384081127253956e-001	 1.705013734984823e+000	 7.871428767684557e+000
 8.211961146222525e-001	 1.713370053811557e+000	 7.762207159515528e+000
 8.039306187351712e-001	 1.721538718771596e+000	 7.655846504174328e+000
 7.866145930145163e-001	 1.729519436730763e+000	 7.552040428112124e+000
 7.692510002050763e-001	 1.737311975052847e+000	 7.450470766202058e+000
 7.518427963602182e-001	 1.744916161180188e+000	 7.350808040601143e+000
 7.343929293773319e-001	 1.752331882172295e+000	 7.252711950071920e+000
 7.169043375558730e-001	 1.759559084203529e+000	 7.155831868870437e+000
 6.993799481792635e-001	 1.766597772020930e+000	 7.059807354299387e+000
 8.841420916304991e-001	 1.709946713144463e+000	 7.961507371679634e+000
 8.668210577290790e-001	 1.718792091516004e+000	 7.861656874367206e+000
 8.494397984196800e-001	 1.727448126236454e+000	 7.763736173238911e+000
 8.320013266572851e-001	 1.735914396626891e+000	 7.667476842645067e+000
 8.145086531927284e-001	 1.744190544020715e+000	 7.572598731986697e+000
 7.969647850283536e-001	 1.752276271426720e+000	 7.478810393042257e+000
 7.793727238924330e-001	 1.760171343147694e+000	 7.385809518674311e+000
 7.617354647337727e-001	 1.767875584355480e+000	 7.293283392107339e+000
 7.440559942378868e-001	 1.775388880623530e+000	 7.200909345955721e+000
 7.263372893660650e-001	 1.782711177417973e+000	 7.108355230171404e+000
 7.085823159186171e-001	 1.789842479548311e+000	 7.015279888077023e+000
 8.956244564568551e-001	 1.732153813315821e+000	 7.757679982815135e+000
 8.780784740633255e-001	 1.741114066731615e+000	 7.675372385530451e+000
 8.604714841136274e-001	 1.749882517487748e+000	 7.593526765310370e+000
 8.428065386920294e-001	 1.758458739441937e+000	 7.511886818875992e+000
 8.250866876500261e-001	 1.766842369269574e+000	 7.430185491975618e+000
 8.073149770419402e-001	 1.775033106122427e+000	 7.348145379535500e+000
 7.894944475795276e-001	 1.783030711242278e+000	 7.265479136362694e+000
 7.716281331070344e-001	 1.790835007530478e+000	 7.181889897649262e+000
 7.537190590980973e-001	 1.798445879074421e+000	 7.097071708522770e+000
 7.357702411758421e-001	 1.805863270632003e+000	 7.010709961874369e+000
 7.177846836574655e-001	 1.813087187075188e+000	 6.922481843692813e+000
 9.071068212827147e-001	 1.754360913486683e+000	 7.489377331241386e+000
 8.893358903971655e-001	 1.763436041946819e+000	 7.426160511804612e+000
 8.715031698072377e-001	 1.772316908738705e+000	 7.361975311011846e+000
 8.536117507264860e-001	 1.781003082256695e+000	 7.296576719433219e+000
 8.356647221070652e-001	 1.789494194518175e+000	 7.229709935858067e+000
 8.176651690552765e-001	 1.797789940817883e+000	 7.161110741040908e+000
 7.996161712663608e-001	 1.805890079336600e+000	 7.090505881174990e+000
 7.815208014800027e-001	 1.813794430705184e+000	 7.017613460406207e+000
 7.633821239579636e-001	 1.821502877524968e+000	 6.942143341691324e+000
 7.452031929852043e-001	 1.829015363845618e+000	 6.863797555296049e+000
 7.269870513958089e-001	 1.836331894601559e+000	 6.782270714221392e+000
 9.185891861080785e-001	 1.776568013657048e+000	 7.157785770419832e+000
 9.005933067305993e-001	 1.785758017161617e+000	 7.115176716989192e+000
 8.825348555005111e-001	 1.794751299989325e+000	 7.070205059878942e+000
 8.644169627606544e-001	 1.803547425071165e+000	 7.022636277456979e+000
 8.462427565638450e-001	 1.812146019766516e+000	 6.972227001372091e+000
 8.280153610683619e-001	 1.820546775513088e+000	 6.918725364637154e+000
 8.097378949529317e-001	 1.828749447430662e+000	 6.861871358622602e+000
 7.914134698526779e-001	 1.836753853879597e+000	 6.801397198332122e+000
 7.730451888174857e-001	 1.844559875975171e+000	 6.737027695327324e+000
 7.546361447941516e-001	 1.852167457058818e+000	 6.668480637654763e+000
 7.361894191336470e-001	 1.859576602127425e+000	 6.595467176127377e+000
 6.441657417325339e-001	 1.627129526846032e+000	 6.259968806230205e+000
 6.279945700989932e-001	 1.633438955056451e+000	 6.041069540272044e+000
 6.117957838498271e-001	 1.639574920168338e+000	 5.783387772608761e+000
 5.955720411275246e-001	 1.645537585051869e+000	 5.543750848556367e+000
 5.793259849448744e-001	 1.651327164182347e+000	 5.337737911505060e+000
 5.630602420043449e-001	 1.656943922973434e+000	 5.162703776513249e+000
 5.467774215453342e-001	 1.662388177080358e+000	 5.016099059940137e+000
 5.304801142200817e-001	 1.667660291674265e+000	 4.895473584639772e+000
 5.141708909989884e-001	 1.672760680688981e+000	 4.798479473664548e+000
 4.978523021060256e-001	 1.677689806041381e+000	 4.722873932430471e+000
 4.815268759848673e-001	 1.682448176826651e+000	 4.666521720186365e+000
 6.533681094749184e-001	 1.650374234376445e+000	 6.525469910083421e+000
 6.369659211041965e-001	 1.656773797275656e+000	 6.313874717716320e+000
 6.205357236231793e-001	 1.662997419032029e+000	 6.119151635479649e+000
 6.040802131478212e-001	 1.669045264842459e+000	 5.886613008461764e+000
 5.876020704482374e-001	 1.674917552246178e+000	 5.685551164994009e+000
 5.711039597512188e-001	 1.680614550448476e+000	 5.513194545560777e+000
 5.545885275710121e-001	 1.686136579613939e+000	 5.366873736607903e+000
 5.380584015691767e-001	 1.691484010130446e+000	 5.244025009145465e+000
 5.215161894442625e-001	 1.696657261845163e+000	 5.142193530066302e+000
 5.049644778520135e-001	 1.701656803273777e+000	 5.059036246194287e+000
 4.884058313567285e-001	 1.706483150784262e+000	 4.992324442003266e+000
 6.625704772167977e-001	 1.673618941906352e+000	 6.736629819025970e+000
 6.459372721088099e-001	 1.680108639494266e+000	 6.534604115934635e+000
 6.292756633958880e-001	 1.686419917895057e+000	 6.378142543899420e+000
 6.125883851674517e-001	 1.692552944632335e+000	 6.184509633905265e+000
 5.958781559509419e-001	 1.698507940309268e+000	 5.993468536607015e+000
 5.791476774974711e-001	 1.704285177922769e+000	 5.828696259262512e+000
 5.623996335961363e-001	 1.709884982146782e+000	 5.687397137623023e+000
 5.456366889178153e-001	 1.715307728585921e+000	 5.566887965993440e+000
 5.288614878892073e-001	 1.720553843000689e+000	 5.464601330318315e+000
 5.120766535978284e-001	 1.725623800505588e+000	 5.378088597665981e+000
 4.952847867286022e-001	 1.730518124741380e+000	 5.305022563161483e+000
 6.717728449581719e-001	 1.696863649435754e+000	 6.894586148702743e+000
 6.549086231128336e-001	 1.703443481712282e+000	 6.704333660517135e+000
 6.380156031679536e-001	 1.709842416757420e+000	 6.560164785678768e+000
 6.210965571864152e-001	 1.716060624421499e+000	 6.436141706313005e+000
 6.041542414529868e-001	 1.722098328371618e+000	 6.260254497055176e+000
 5.871913952431019e-001	 1.727955805396312e+000	 6.108035220471037e+000
 5.702107396207070e-001	 1.733633384678889e+000	 5.976555652121756e+000
 5.532149762659975e-001	 1.739131447040689e+000	 5.863007099830297e+000
 5.362067863338227e-001	 1.744450424155561e+000	 5.764703862749133e+000
 5.191888293434702e-001	 1.749590797736816e+000	 5.679086329892655e+000
 5.021637421004885e-001	 1.754553098698004e+000	 5.603723719294646e+000
 6.809752126990409e-001	 1.720108356964651e+000	 7.000421571257912e+000
 6.638799741162675e-001	 1.726778323929701e+000	 6.824087501629066e+000
 6.467555429393755e-001	 1.733264915619120e+000	 6.694336720989733e+000
 6.296047292047127e-001	 1.739568304209950e+000	 6.610808569048196e+000
 6.124303269543728e-001	 1.745688716433225e+000	 6.484630941656442e+000
 5.952351129881115e-001	 1.751626432869106e+000	 6.349998118484645e+000
 5.780218456447236e-001	 1.757381787210257e+000	 6.233198963492605e+000
 5.607932636137233e-001	 1.762955165494752e+000	 6.131293202422657e+000
 5.435520847781089e-001	 1.768347005309777e+000	 6.041471059875445e+000
 5.263010050889393e-001	 1.773557794967459e+000	 5.961056470557608e+000
 5.090426974723873e-001	 1.778588072654134e+000	 5.887509913724687e+000
 6.901775804394048e-001	 1.743353064493043e+000	 7.055167478234737e+000
 6.728513251191122e-001	 1.750113166146527e+000	 6.894841465705656e+000
 6.554954827101545e-001	 1.756687414480155e+000	 6.781579409949506e+000
 6.381129012223437e-001	 1.763075983997688e+000	 6.715032906398133e+000
 6.207064124550999e-001	 1.769279104494092e+000	 6.665280028695391e+000
 6.032788307324996e-001	 1.775297060341149e+000	 6.553334669951806e+000
 5.858329516681865e-001	 1.781130189740887e+000	 6.456142496426462e+000
 5.683715509609929e-001	 1.786778883948108e+000	 6.370625469516547e+000
 5.508973832220657e-001	 1.792243586463340e+000	 6.293843868789504e+000
 5.334131808342354e-001	 1.797524792197518e+000	 6.222999619671435e+000
 5.159216528442988e-001	 1.802623046609771e+000	 6.155439226282884e+000
 6.993799481792635e-001	 1.766597772020930e+000	 7.059807354299387e+000
 6.818226761213673e-001	 1.773448008362758e+000	 6.917526234644735e+000
 6.642354224802897e-001	 1.780109913340527e+000	 6.822771486889418e+000
 6.466210732393083e-001	 1.786583663784714e+000	 6.775206267925920e+000
 6.289824979551680e-001	 1.792869492554218e+000	 6.774444647357817e+000
 6.113225484762662e-001	 1.798967687812444e+000	 6.716760051281939e+000
 5.936440576910957e-001	 1.804878592270780e+000	 6.644169670777918e+000
 5.759498383078062e-001	 1.810602602400758e+000	 6.579853579522090e+000
 5.582426816656934e-001	 1.816140167616246e+000	 6.520736158094938e+000
 5.405253565793585e-001	 1.821491789426993e+000	 6.463891688234415e+000
 5.228006082162227e-001	 1.826658020564913e+000	 6.406547387223744e+000
 7.085823159186171e-001	 1.789842479548311e+000	 7.015279888077023e+000
 6.907940271230324e-001	 1.796782850578394e+000	 6.893030277270464e+000
 6.729753622497819e-001	 1.803532412200234e+000	 6.818751915276160e+000
 6.551292452556067e-001	 1.810091343571027e+000	 6.792118844935902e+000
 6.372585834545769e-001	 1.816459880613602e+000	 6.812754845440626e+000
 6.193662662194115e-001	 1.822638315282988e+000	 6.838957141518432e+000
 6.014551637134511e-001	 1.828626994799934e+000	 6.796033979801926e+000
 5.835281256541632e-001	 1.834426320852702e+000	 6.757799610224812e+000
 5.655879801089915e-001	 1.840036748768498e+000	 6.721036476250324e+000
 5.476375323243088e-001	 1.845458786655884e+000	 6.682685501419417e+000
 5.296795635881594e-001	 1.850692994519563e+000	 6.639849228496155e+000
 7.177846836574655e-001	 1.813087187075188e+000	 6.922481843692813e+000
 6.997653781241079e-001	 1.820117692793435e+000	 6.822202555299177e+000
 6.817153020186306e-001	 1.826954911059278e+000	 6.770322530715652e+000
 6.636374172712383e-001	 1.833599023356627e+000	 6.766526041154841e+000
 6.455346689533268e-001	 1.840050268672245e+000	 6.810445935463533e+000
 6.274099839619352e-001	 1.846308942752784e+000	 6.901664754423577e+000
 6.092662697352527e-001	 1.852375397328350e+000	 6.910460908525250e+000
 5.911064130000636e-001	 1.858250039303940e+000	 6.903259808055523e+000
 5.729332785519605e-001	 1.863933329920095e+000	 6.893609674655393e+000
 5.547497080690861e-001	 1.869425783884191e+000	 6.878312278432650e+000
 5.365585189601084e-001	 1.874727968473718e+000	 6.854340023378357e+000
 7.269870513958089e-001	 1.836331894601559e+000	 6.782270714221392e+000
 7.087367291245936e-001	 1.843452535007881e+000	 6.705855023789693e+000
 6.904552417868359e-001	 1.850377409917658e+000	 6.678250390818101e+000
 6.721455892862036e-001	 1.857106703141514e+000	 6.699150674476915e+000
 6.538107544514177e-001	 1.863640656730146e+000	 6.768197169939024e+000
 6.354537017038378e-001	 1.869979570221829e+000	 6.884979730002105e+000
 6.170773757565004e-001	 1.876123799856030e+000	 6.932150565660608e+000
 5.986847003455080e-001	 1.882073757754471e+000	 6.681728692488361e+000
 5.802785769946002e-001	 1.887829911071037e+000	 6.449038107691790e+000
 5.618618838136904e-001	 1.893392781111915e+000	 6.235644908979238e+000
 5.434374743320700e-001	 1.898762942427380e+000	 6.042912757175112e+000
 7.361894191336470e-001	 1.859576602127425e+000	 6.595467176127377e+000
 7.177080801244898e-001	 1.866787377221733e+000	 6.544764944059013e+000
 6.991951815543979e-001	 1.873799908775373e+000	 6.543269948822164e+000
 6.806537613005025e-001	 1.880614382925689e+000	 6.309955289271616e+000
 6.620868399488495e-001	 1.887231044787307e+000	 6.080507240016874e+000
 6.434974194451185e-001	 1.893650197690125e+000	 5.916266677670328e+000
 6.248884817771946e-001	 1.899872202382971e+000	 5.817143098450169e+000
 6.062629876904958e-001	 1.905897476204296e+000	 5.620817401831875e+000
 5.876238754369104e-001	 1.911726492221324e+000	 5.445089330418189e+000
 5.689740595581216e-001	 1.917359778339053e+000	 5.291644739279967e+000
 5.503164297040443e-001	 1.922797916380548e+000	 5.161957438447357e+000
 4.815268759848673e-001	 1.682448176826651e+000	 4.666521720186365e+000
 4.651971182959880e-001	 1.687036348490034e+000	 4.615047447993957e+000
 4.488655109461449e-001	 1.691454921975343e+000	 4.574344785246967e+000
 4.325345111503017e-001	 1.695704542852121e+000	 4.542860162178149e+000
 4.162065505255864e-001	 1.699785900423492e+000	 4.519154776851619e+000
 3.998840342185866e-001	 1.703699726814957e+000	 4.501905300995489e+000
 3.835693400660090e-001	 1.707446796045747e+000	 4.489904301858138e+000
 3.672648177889564e-001	 1.711027923084024e+000	 4.482060386536280e+000
 3.509727882210215e-001	 1.714443962887209e+000	 4.477398075817648e+000
 3.346955425703510e-001	 1.717695809428702e+000	 4.475057415133317e+000
 3.184353417157770e-001	 1.720784394712270e+000	 4.474293330729996e+000
 4.884058313567285e-001	 1.706483150784262e+000	 4.992324442003266e+000
 4.718427914142042e-001	 1.711136867756843e+000	 4.936784181737091e+000
 4.552778753871787e-001	 1.715618563720287e+000	 4.887251958714308e+000
 4.387135755936854e-001	 1.719928893466560e+000	 4.842100337294638e+000
 4.221523583882384e-001	 1.724068556145973e+000	 4.799825269028410e+000
 4.055966632766609e-001	 1.728038294342964e+000	 4.759046779797473e+000
 3.890489020647540e-001	 1.731838893134178e+000	 4.718509357334670e+000
 3.725114580410631e-001	 1.735471179130182e+000	 4.677082045996410e+000
 3.559866851939451e-001	 1.738936019502071e+000	 4.633758256286507e+000
 3.394769074630900e-001	 1.742234320994296e+000	 4.587655297209844e+000
 3.229844180255973e-001	 1.745367028924961e+000	 4.538013640067911e+000
 4.952847867286022e-001	 1.730518124741380e+000	 5.305022563161483e+000
 4.784884645326171e-001	 1.735237387023252e+000	 5.248346378929161e+000
 4.616902398285628e-001	 1.739782205464916e+000	 5.192765818543617e+000
 4.448926400375421e-001	 1.744153244080758e+000	 5.136575458619345e+000
 4.280981662514560e-001	 1.748351211868278e+000	 5.078202165318124e+000
 4.113092923353628e-001	 1.752376861870848e+000	 5.016205763426601e+000
 3.945284640641586e-001	 1.756230990222532e+000	 4.949279389653785e+000
 3.777580982938318e-001	 1.759914435176296e+000	 4.876249537463336e+000
 3.610005821675032e-001	 1.763428076116914e+000	 4.796075801406713e+000
 3.442582723564071e-001	 1.766772832559885e+000	 4.707850329528961e+000
 3.275334943359103e-001	 1.769949663137652e+000	 4.610796992982953e+000
 5.021637421004885e-001	 1.754553098698004e+000	 5.603723719294646e+000
 4.851341376512272e-001	 1.759337906289263e+000	 5.548927986891846e+000
 4.681026042702975e-001	 1.763945847209230e+000	 5.490162323571567e+000
 4.510717044818723e-001	 1.768377594694717e+000	 5.425639136880396e+000
 4.340439741152393e-001	 1.772633867590408e+000	 5.353712314567830e+000
 4.170219213946925e-001	 1.776715429398611e+000	 5.272877876217609e+000
 4.000080260642230e-001	 1.780623087310807e+000	 5.181774292420205e+000
 3.830047385472624e-001	 1.784357691222366e+000	 5.079182479252467e+000
 3.660144791416964e-001	 1.787920132731738e+000	 4.964025476510504e+000
 3.490396372503025e-001	 1.791311344125469e+000	 4.835367818779650e+000
 3.320825706467159e-001	 1.794532297350343e+000	 4.692414609008930e+000
 5.090426974723873e-001	 1.778588072654134e+000	 5.887509913724687e+000
 4.917798107700342e-001	 1.783438425554874e+000	 5.837697991482589e+000
 4.745149687123827e-001	 1.788109488953231e+000	 5.778693196915919e+000
 4.572507689266760e-001	 1.792601945308436e+000	 5.708621526995070e+000
 4.399897819795881e-001	 1.796916523312362e+000	 5.625759943127028e+000
 4.227345504546500e-001	 1.801053996926252e+000	 5.528537005947596e+000
 4.054875880649472e-001	 1.805015184399005e+000	 5.415533160447128e+000
 3.882513788013552e-001	 1.808800947268393e+000	 5.285480679658005e+000
 3.710283761165242e-001	 1.812412189346542e+000	 5.137263275845525e+000
 3.538210021447761e-001	 1.815849855691048e+000	 4.969915388809688e+000
 3.366316469580142e-001	 1.819114931563034e+000	 4.782621161514316e+000
 5.159216528442988e-001	 1.802623046609771e+000	 6.155439226282884e+000
 4.984254838890382e-001	 1.807538944820087e+000	 6.113802081192927e+000
 4.809273331548185e-001	 1.812273130696917e+000	 6.057587541690054e+000
 4.634298333719529e-001	 1.816826295921914e+000	 5.984830891790055e+000
 4.459355898445027e-001	 1.821199179034140e+000	 5.893728163014043e+000
 4.284471795152351e-001	 1.825392564453770e+000	 5.782636752939786e+000
 4.109671500663312e-001	 1.829407281487125e+000	 5.650075676341709e+000
 3.934980190561099e-001	 1.833244203314375e+000	 5.494725457621097e+000
 3.760422730919868e-001	 1.836904245961326e+000	 5.315427673980139e+000
 3.586023670398280e-001	 1.840388367256623e+000	 5.111184159481696e+000
 3.411807232698052e-001	 1.843697565775724e+000	 4.881155880779845e+000
 5.228006082162227e-001	 1.826658020564913e+000	 6.406547387223744e+000
 5.050711570082394e-001	 1.831639464084900e+000	 6.376364179869688e+000
 4.873396975976047e-001	 1.836436772440289e+000	 6.326053329161375e+000
 4.696088978177030e-001	 1.841050646535153e+000	 6.253555042271020e+000
 4.518813977099829e-001	 1.845481834755742e+000	 6.156980361016884e+000
 4.341598085764480e-001	 1.849731131981168e+000	 6.034611764764482e+000
 4.164467120683749e-001	 1.853799378575167e+000	 5.884903387624032e+000
 3.987446593115267e-001	 1.857687459360314e+000	 5.706480859134933e+000
 3.810561700680842e-001	 1.861396302576092e+000	 5.498140778414050e+000
 3.633837319354580e-001	 1.864926878822192e+000	 5.258849832461664e+000
 3.457297995820888e-001	 1.868280199988415e+000	 4.987743569991066e+000
 5.296795635881594e-001	 1.850692994519563e+000	 6.639849228496155e+000
 5.117168301276374e-001	 1.855739983349315e+000	 6.624487860003516e+000
 4.937520620407415e-001	 1.860600414183346e+000	 6.583278770948899e+000
 4.757879622639266e-001	 1.865274997148151e+000	 6.514062665662599e+000
 4.578272055760287e-001	 1.869764490477167e+000	 6.414861479552381e+000
 4.398724376382885e-001	 1.874069699508443e+000	 6.283878966937382e+000
 4.219262740710783e-001	 1.878191475663132e+000	 6.050369750537693e+000
 4.039912995676055e-001	 1.882130715406210e+000	 5.796119469952285e+000
 3.860700670448163e-001	 1.885888359190838e+000	 5.544952798621081e+000
 3.681650968316665e-001	 1.889465390387757e+000	 5.296715251741301e+000
 3.502788758948651e-001	 1.892862834201107e+000	 5.051093981575522e+000
 5.365585189601084e-001	 1.874727968473718e+000	 6.854340023378357e+000
 5.183625032472324e-001	 1.879840502613331e+000	 6.667490643156748e+000
 5.001644264842287e-001	 1.884764055926089e+000	 6.471441795975411e+000
 4.819670267106234e-001	 1.889499347760910e+000	 6.278407094464329e+000
 4.637730134426401e-001	 1.894047146198417e+000	 6.089125671080969e+000
 4.455850667007568e-001	 1.898408267035597e+000	 5.904159996118495e+000
 4.274058360744414e-001	 1.902583572751019e+000	 5.723897375914842e+000
 4.092379398243464e-001	 1.906573971452062e+000	 5.548551803023949e+000
 3.910839640221832e-001	 1.910380415805565e+000	 5.378166145867163e+000
 3.729464617284529e-001	 1.914003901953317e+000	 5.212614664771142e+000
 3.548279522081341e-001	 1.917445468413798e+000	 5.051605840760979e+000
 5.434374743320700e-001	 1.898762942427380e+000	 6.042912757175112e+000
 5.250081763670245e-001	 1.903941021876948e+000	 5.913483906236928e+000
 5.065767909280665e-001	 1.908927697668517e+000	 5.787869289651459e+000
 4.881460911577936e-001	 1.913723698373428e+000	 5.667062879524800e+000
 4.697188213098173e-001	 1.918329801919491e+000	 5.551872890246463e+000
 4.512976957638528e-001	 1.922746834562629e+000	 5.442922919677669e+000
 4.328853980784645e-001	 1.926975669838828e+000	 5.340653470269054e+000
 4.144845800817492e-001	 1.931017227497871e+000	 5.245323837846899e+000
 3.960978610001849e-001	 1.934872472420273e+000	 5.157014355109880e+000
 3.777278266258177e-001	 1.938542413518872e+000	 5.075628976248557e+000
 3.593770285218957e-001	 1.942028102626488e+000	 5.000898188530845e+000
 5.503164297040443e-001	 1.922797916380548e+000	 5.161957438447357e+000
 5.316538494870134e-001	 1.928041541140166e+000	 5.101193781710161e+000
 5.129891553722548e-001	 1.933091339410632e+000	 5.046136188618399e+000
 4.943251556054371e-001	 1.937948048985706e+000	 4.997858371181127e+000
 4.756646291775600e-001	 1.942612457640390e+000	 4.957240035792970e+000
 4.570103248275765e-001	 1.947085402089539e+000	 4.924968031877421e+000
 4.383649600831473e-001	 1.951367766926559e+000	 4.901537897101575e+000
 4.197312203398141e-001	 1.955460483543635e+000	 4.887255786444281e+000
 4.011117579788213e-001	 1.959364529034961e+000	 4.882240771677280e+000
 3.825091915237606e-001	 1.963080925084422e+000	 4.886427497157286e+000
 3.639261048361499e-001	 1.966610736839179e+000	 4.899569177231935e+000
 3.184353417157770e-001	 1.720784394712270e+000	 4.474293330729996e+000
 3.021944155378737e-001	 1.723710687775430e+000	 4.468537320173668e+000
 2.859749622825958e-001	 1.726475693682788e+000	 4.484360831420524e+000
 2.697791479589108e-001	 1.729080452510761e+000	 4.521346175640746e+000
 2.536091057720334e-001	 1.731526038325072e+000	 4.579167623955820e+000
 2.374669355897513e-001	 1.733813558151911e+000	 4.657590009913025e+000
 2.213547034424477e-001	 1.735944150944025e+000	 4.756467146616237e+000
 2.052744410566008e-001	 1.737918986542895e+000	 4.875740068110644e+000
 1.892281454215078e-001	 1.739739264638117e+000	 5.015435104795185e+000
 1.732177783889445e-001	 1.741406213725087e+000	 5.175661802783451e+000
 1.572452663054261e-001	 1.742921090062064e+000	 5.356610697236328e+000
 3.229844180255973e-001	 1.745367028924961e+000	 4.538013640067911e+000
 3.065114786173200e-001	 1.748335126174922e+000	 4.487410245820183e+000
 2.900603188875702e-001	 1.751139632166796e+000	 4.451852408392871e+000
 2.736331357883017e-001	 1.753781601835235e+000	 4.430916099802614e+000
 2.572320929990906e-001	 1.756262124589759e+000	 4.424278387986032e+000
 2.408593203858371e-001	 1.758582323271217e+000	 4.431715874694343e+000
 2.245169134936454e-001	 1.760743353103111e+000	 4.453102936360773e+000
 2.082069330736587e-001	 1.762746400638945e+000	 4.488409778198870e+000
 1.919314046435941e-001	 1.764592682706737e+000	 4.537700311976053e+000
 1.756923180816825e-001	 1.766283445351817e+000	 4.601129868057969e+000
 1.594916272536765e-001	 1.767819962778993e+000	 4.678942752424860e+000
 3.275334943359103e-001	 1.769949663137652e+000	 4.610796992982953e+000
 3.108285416971643e-001	 1.772959564574414e+000	 4.515018797968001e+000
 2.941456754928580e-001	 1.775803570650804e+000	 4.427617934439982e+000
 2.774871236179319e-001	 1.778482751159709e+000	 4.348162972092767e+000
 2.608550802263231e-001	 1.780998210854445e+000	 4.276332952038280e+000
 2.442517051820443e-001	 1.783351088390523e+000	 4.211915656571510e+000
 2.276791235449205e-001	 1.785542555262198e+000	 4.154805669888457e+000
 2.111394250907600e-001	 1.787573814734995e+000	 4.105002240693609e+000
 1.946346638656996e-001	 1.789446100775357e+000	 4.062606957831252e+000
 1.781668577744253e-001	 1.791160676978547e+000	 4.027821250225687e+000
 1.617379882019268e-001	 1.792718835495921e+000	 4.000943722530606e+000
 3.320825706467159e-001	 1.794532297350343e+000	 4.692414609008930e+000
 3.151456047774062e-001	 1.797584002973905e+000	 4.551241937353246e+000
 2.982310320984593e-001	 1.800467509134812e+000	 4.411637681422613e+000
 2.813411114478012e-001	 1.803183900484183e+000	 4.273161926891048e+000
 2.644780674537309e-001	 1.805734297119132e+000	 4.135494851889034e+000
 2.476440899783729e-001	 1.808119853509829e+000	 3.998434824992798e+000
 2.308413335962730e-001	 1.810341757421285e+000	 3.861896281804776e+000
 2.140719171079047e-001	 1.812401228831045e+000	 3.725907391758708e+000
 1.973379230878242e-001	 1.814299518843976e+000	 3.590607526989618e+000
 1.806413974671729e-001	 1.816037908605277e+000	 3.456244545264714e+000
 1.639843491501772e-001	 1.817617708212850e+000	 3.323171899088552e+000
 3.366316469580142e-001	 1.819114931563034e+000	 4.782621161514316e+000
 3.194626678580462e-001	 1.822208441373398e+000	 4.595939669538424e+000
 3.023163887043739e-001	 1.825131447618820e+000	 4.403870699381794e+000
 2.851950992779099e-001	 1.827885049808657e+000	 4.205964752129481e+000
 2.681010546813138e-001	 1.830470383383818e+000	 4.001902293835506e+000
 2.510364747748227e-001	 1.832888618629135e+000	 3.791491677997205e+000
 2.340035436477028e-001	 1.835140959580371e+000	 3.574666833909166e+000
 2.170044091250927e-001	 1.837228642927095e+000	 3.351484733248833e+000
 2.000411823099683e-001	 1.839152936912596e+000	 3.122122647453919e+000
 1.831159371599253e-001	 1.840915140232007e+000	 2.886875208619956e+000
 1.662307100984275e-001	 1.842516580929779e+000	 2.646151286762553e+000
 3.411807232698052e-001	 1.843697565775724e+000	 4.881155880779845e+000
 3.237797309390840e-001	 1.846832879772890e+000	 4.648954308590021e+000
 3.064017453106021e-001	 1.849795386102829e+000	 4.404256231326843e+000
 2.890490871082579e-001	 1.852586199133131e+000	 4.146601445722256e+000
 2.717240419090721e-001	 1.855206469648505e+000	 3.875669843327849e+000
 2.544288595713937e-001	 1.857657383748441e+000	 3.591279153641326e+000
 2.371657536992101e-001	 1.859940161739458e+000	 3.293382440048287e+000
 2.199369011423242e-001	 1.862056057023146e+000	 2.982065361663361e+000
 2.027444415321314e-001	 1.864006354981216e+000	 2.657543214375506e+000
 1.855904768526824e-001	 1.865792371858737e+000	 2.320157764571721e+000
 1.684770710466778e-001	 1.867415453646707e+000	 1.970373889136631e+000
 3.457297995820888e-001	 1.868280199988415e+000	 4.987743569991066e+000
 3.280967940205198e-001	 1.871457318172382e+000	 4.710111640993384e+000
 3.104871019171435e-001	 1.874459324586836e+000	 4.412715016329347e+000
 2.929030749388450e-001	 1.877287348457605e+000	 4.130655711510094e+000
 2.753470291370055e-001	 1.879942555913192e+000	 3.864902960180784e+000
 2.578212443680862e-001	 1.882426148867748e+000	 3.609137048908543e+000
 2.403279637507948e-001	 1.884739363898545e+000	 3.362054154929107e+000
 2.228693931595991e-001	 1.886883471119196e+000	 3.122215501833041e+000
 2.054477007543138e-001	 1.888859773049835e+000	 2.888052151433178e+000
 1.880650165454444e-001	 1.890669603485467e+000	 2.657869957103879e+000
 1.707234319949282e-001	 1.892314326363635e+000	 2.429854663320104e+000
 3.502788758948651e-001	 1.892862834201107e+000	 5.051093981575522e+000
 3.324138571023533e-001	 1.896081756571874e+000	 4.833982789287351e+000
 3.145724585239986e-001	 1.899123263070844e+000	 4.630498621052578e+000
 2.967570627696715e-001	 1.901988497782079e+000	 4.439754618006322e+000
 2.789700163651142e-001	 1.904678642177878e+000	 4.260710192037083e+000
 2.612136291649000e-001	 1.907194913987054e+000	 4.092175367189240e+000
 2.434901738024568e-001	 1.909538566057631e+000	 3.932815337171181e+000
 2.258018851769174e-001	 1.911710885215246e+000	 3.781155223202102e+000
 2.081509599765154e-001	 1.913713191118455e+000	 3.635585016358618e+000
 1.905395562382111e-001	 1.915546835112197e+000	 3.494364688560903e+000
 1.729697929431785e-001	 1.917213199080564e+000	 3.355629456365176e+000
 3.548279522081341e-001	 1.917445468413798e+000	 5.051605840760979e+000
 3.367309201845848e-001	 1.920706194971366e+000	 4.920154576637402e+000
 3.186578151311670e-001	 1.923787201554852e+000	 4.803130923413366e+000
 3.006110506007370e-001	 1.926689647106553e+000	 4.699633275547746e+000
 2.825930035933981e-001	 1.929414728442565e+000	 4.608600503178058e+000
 2.646060139618350e-001	 1.931963679106360e+000	 4.528816424242885e+000
 2.466523838541962e-001	 1.934337768216718e+000	 4.458914501883893e+000
 2.287343771942790e-001	 1.936538299311296e+000	 4.397382750789328e+000
 2.108542191987363e-001	 1.938566609187074e+000	 4.342568836063054e+000
 1.930140959309827e-001	 1.940424066738927e+000	 4.292685348179133e+000
 1.752161538914289e-001	 1.942112071797492e+000	 4.245815237606313e+000
 3.593770285218957e-001	 1.942028102626488e+000	 5.000898188530845e+000
 3.410479832672141e-001	 1.945330633370858e+000	 4.955738478090370e+000
 3.227431717386489e-001	 1.948451140038860e+000	 4.926025574919051e+000
 3.044650384320420e-001	 1.951390796431027e+000	 4.910843208130987e+000
 2.862159908218573e-001	 1.954150814707252e+000	 4.909109510843265e+000
 2.679983987588914e-001	 1.956732444225666e+000	 4.919581628153132e+000
 2.498145939060131e-001	 1.959136970375806e+000	 4.940860559909497e+000
 2.316668692116841e-001	 1.961365713407346e+000	 4.971396221349578e+000
 2.135574784209763e-001	 1.963420027255694e+000	 5.009492704589889e+000
 1.954886356237590e-001	 1.965301298365657e+000	 5.053313723928150e+000
 1.774625148396792e-001	 1.967010944514421e+000	 5.100888227940983e+000
 3.639261048361499e-001	 1.966610736839179e+000	 4.899569177231935e+000
 3.453650463502414e-001	 1.969955071770350e+000	 4.941310149538801e+000
 3.268285283464441e-001	 1.973115078522868e+000	 4.999737466144522e+000
 3.083190262635861e-001	 1.976091945755501e+000	 5.073920295735597e+000
 2.898389780504916e-001	 1.978886900971938e+000	 5.162755859463227e+000
 2.713907835560691e-001	 1.981501209344972e+000	 5.264974179952048e+000
 2.529768039579073e-001	 1.983936172534892e+000	 5.379143074963942e+000
 2.345993612291326e-001	 1.986193127503396e+000	 5.503673378177712e+000
 2.162607376432356e-001	 1.988273445324313e+000	 5.636824369454466e+000
 1.979631753165401e-001	 1.990178529992387e+000	 5.776709396927800e+000
 1.797088757879294e-001	 1.991909817231349e+000	 5.921301673276766e+000
 1.572452663054261e-001	 1.742921090062064e+000	 5.356610697236328e+000
 1.413124996760967e-001	 1.744285176627427e+000	 5.482525321342264e+000
 1.254213328617058e-001	 1.745499782078859e+000	 5.618199332839112e+000
 1.095735838069919e-001	 1.746566239714984e+000	 5.764262596927889e+000
 9.377103379879261e-002	 1.747485906439909e+000	 5.921422710804952e+000
 7.801542725524828e-002	 1.748260161732354e+000	 6.090461828806753e+000
 6.230847154497118e-002	 1.748890406620027e+000	 6.272233403592958e+000
 4.665183683563808e-002	 1.749378062660108e+000	 6.467658853705962e+000
 3.104715597144679e-002	 1.749724570926687e+000	 6.677724167681637e+000
 1.549602437885576e-002	 1.749931391005967e+000	 6.903476454699633e+000
 0.000000000000000e+000	 1.750000000000000e+000	 7.146020451550361e+000
 1.594916272536765e-001	 1.767819962778993e+000	 4.678942752424860e+000
 1.433312496720404e-001	 1.769203536294951e+000	 4.701687231271778e+000
 1.272130661884947e-001	 1.770435493252530e+000	 4.732569244594640e+000
 1.111389207184162e-001	 1.771517185997479e+000	 4.772237909786973e+000
 9.511061999559632e-002	 1.772449990818246e+000	 4.821424520426436e+000
 7.912993335843395e-002	 1.773235306900391e+000	 4.880939232643326e+000
 6.319859256652072e-002	 1.773874555286303e+000	 4.951667662596467e+000
 4.731829164707083e-002	 1.774369177841121e+000	 5.034567405878143e+000
 3.149068677062692e-002	 1.774720636225708e+000	 5.130664489498261e+000
 1.571739615545318e-002	 1.774930410877498e+000	 5.241049766906231e+000
 0.000000000000000e+000	 1.775000000000000e+000	 5.366875266289527e+000
 1.617379882019268e-001	 1.792718835495921e+000	 4.000943722530606e+000
 1.453499996679842e-001	 1.794121895962475e+000	 3.918364055599192e+000
 1.290047995152837e-001	 1.795371204426202e+000	 3.842038971925330e+000
 1.127042576298404e-001	 1.796468132279973e+000	 3.772639479070168e+000
 9.645020619240004e-002	 1.797414075196582e+000	 3.710923441095734e+000
 8.024443946161963e-002	 1.798210452068428e+000	 3.657732117978207e+000
 6.408871358807028e-002	 1.798858703952579e+000	 3.613986611045706e+000
 4.798474645850356e-002	 1.799360293022134e+000	 3.580684225762255e+000
 3.193421756980704e-002	 1.799716701524729e+000	 3.558894763006624e+000
 1.593876793205060e-002	 1.799929430749029e+000	 3.549756749791816e+000
 0.000000000000000e+000	 1.800000000000000e+000	 3.554473620145594e+000
 1.639843491501772e-001	 1.817617708212850e+000	 3.323171899088552e+000
 1.473687496639280e-001	 1.819040255629999e+000	 3.133176462894550e+000
 1.307965328420726e-001	 1.820306915599874e+000	 2.947290401152982e+000
 1.142695945412646e-001	 1.821419078562468e+000	 2.766209224404441e+000
 9.778979238920371e-002	 1.822378159574918e+000	 2.590720219086668e+000
 8.135894556480529e-002	 1.823185597236464e+000	 2.421698831754522e+000
 6.497883460961983e-002	 1.823842852618854e+000	 2.260104954084542e+000
 4.865120126993631e-002	 1.824351408203147e+000	 2.106979120507489e+000
 3.237774836898717e-002	 1.824712766823750e+000	 1.963438630133684e+000
 1.616013970864802e-002	 1.824928450620559e+000	 1.830673604425641e+000
 0.000000000000000e+000	 1.825000000000000e+000	 1.709942991838104e+000
 1.662307100984275e-001	 1.842516580929779e+000	 2.646151286762553e+000
 1.493874996598718e-001	 1.843958615297522e+000	 2.346708794333051e+000
 1.325882661688616e-001	 1.845242626773545e+000	 2.048966905387147e+000
 1.158349314526889e-001	 1.846370024844962e+000	 1.753648223404639e+000
 9.912937858600741e-002	 1.847342243953256e+000	 1.461572289231501e+000
 8.247345166799099e-002	 1.848160742404501e+000	 1.173651801807062e+000
 6.586895563116936e-002	 1.848827001285130e+000	 8.908887342751092e-001
 4.931765608136905e-002	 1.849342523384160e+000	 6.143703578652452e-001
 3.282127916816730e-002	 1.849708832122771e+000	 3.452651857459967e-001
 1.638151148524544e-002	 1.849927470492090e+000	 8.481884883301322e-002
 0.000000000000000e+000	 1.850000000000000e+000	-1.656500847089688e-001
 1.684770710466778e-001	 1.867415453646707e+000	 1.970373889136631e+000
 1.514062496558155e-001	 1.868876974965046e+000	 1.559511485521456e+000
 1.343799994956505e-001	 1.870178337947216e+000	 1.147675912073091e+000
 1.174002683641131e-001	 1.871320971127456e+000	 7.356194344744237e-001
 1.004689647828111e-001	 1.872306328331592e+000	 3.241966623501965e-001
 8.358795777117667e-002	 1.873135887572538e+000	-8.563940186347385e-002
 6.675907665271889e-002	 1.873811149951406e+000	-4.928414242298531e-001
 4.998411089280181e-002	 1.874333638565173e+000	-8.962718978512220e-001
 3.326480996734743e-002	 1.874704897421792e+000	-1.294707385879844e+000
 1.660288326184286e-002	 1.874926490363621e+000	-1.686842836468177e+000
 0.000000000000000e+000	 1.875000000000000e+000	-2.071295957380841e+000
 1.707234319949282e-001	 1.892314326363635e+000	 2.429854663320104e+000
 1.534249996517593e-001	 1.893795334632570e+000	 2.156916251307988e+000
 1.361717328224395e-001	 1.895114049120888e+000	 1.896320657921145e+000
 1.189656052755374e-001	 1.896271917409951e+000	 1.645814907440502e+000
 1.018085509796148e-001	 1.897270412709929e+000	 1.403039417637300e+000
 8.470246387436235e-002	 1.898111032740575e+000	 1.165533880571604e+000
 6.764919767426847e-002	 1.898795298617682e+000	 9.307432029081338e-001
 5.065056570423454e-002	 1.899324753746186e+000	 6.960234913860223e-001
 3.370834076652756e-002	 1.899700962720813e+000	 4.586480694237111e-001
 1.682425503844029e-002	 1.899925510235152e+000	 2.158135112117950e-001
 0.000000000000000e+000	 1.900000000000000e+000	-3.535431995288553e-002
 1.729697929431785e-001	 1.917213199080564e+000	 3.355629456365176e+000
 1.554437496477031e-001	 1.918713694300094e+000	 3.175959613195223e+000
 1.379634661492284e-001	 1.920049760294560e+000	 3.012736564632612e+000
 1.205309421869616e-001	 1.921222863692445e+000	 2.863594960703404e+000
 1.031481371764185e-001	 1.922234497088266e+000	 2.726056554215378e+000
 8.581696997754799e-002	 1.923086177908611e+000	 2.597536371618517e+000
 6.853931869581802e-002	 1.923779447283957e+000	 2.475348946738759e+000
 5.131702051566729e-002	 1.924315868927198e+000	 2.356714602343105e+000
 3.415187156570769e-002	 1.924697028019834e+000	 2.238765764854170e+000
 1.704562681503771e-002	 1.924924530106683e+000	 2.118553297920699e+000
 0.000000000000000e+000	 1.925000000000000e+000	 1.993052840968141e+000
 1.752161538914289e-001	 1.942112071797492e+000	 4.245815237606313e+000
 1.574624996436468e-001	 1.943632053967618e+000	 4.161843343601410e+000
 1.397551994760174e-001	 1.944985471468231e+000	 4.098528978866223e+000
 1.220962790983859e-001	 1.946173809974940e+000	 4.053393185843430e+000
 1.044877233732222e-001	 1.947198581466602e+000	 4.023837644695105e+000
 8.693147608073368e-002	 1.948061323076648e+000	 4.007151140166004e+000
 6.942943971736756e-002	 1.948763595950233e+000	 4.000516094818869e+000
 5.198347532710004e-002	 1.949306984108212e+000	 4.001015152902760e+000
 3.459540236488781e-002	 1.949693093318855e+000	 4.005637799493979e+000
 1.726699859163513e-002	 1.949923549978213e+000	 4.011286999953138e+000
 0.000000000000000e+000	 1.950000000000000e+000	 4.014785845176920e+000
 1.774625148396792e-001	 1.967010944514421e+000	 5.100888227940983e+000
 1.594812496395906e-001	 1.968550413635142e+000	 5.115053649953124e+000
 1.415469328028063e-001	 1.969921182641903e+000	 5.154199595621149e+000
 1.236616160098101e-001	 1.971124756257434e+000	 5.215732215830433e+000
 1.058273095700259e-001	 1.972162665844939e+000	 5.296931655808783e+000
 8.804598218391936e-002	 1.973036468244684e+000	 5.394958824073659e+000
 7.031956073891711e-002	 1.973747744616509e+000	 5.506862231390738e+000
 5.264993013853277e-002	 1.974298099289225e+000	 5.629584883297054e+000
 3.503893316406794e-002	 1.974689158617876e+000	 5.759971210128392e+000
 1.748837036823255e-002	 1.974922569849744e+000	 5.894774018916459e+000
 0.000000000000000e+000	 1.975000000000000e+000	 6.030661451972261e+000
 1.797088757879294e-001	 1.991909817231349e+000	 5.921301673276766e+000
 1.614999996355343e-001	 1.993468773302665e+000	 6.036052397370522e+000
 1.433386661295952e-001	 1.994856893815574e+000	 6.180224302915104e+000
 1.252269529212343e-001	 1.996075702539928e+000	 6.351107316167170e+000
 1.071668957668296e-001	 1.997126750223276e+000	 6.545858532103756e+000
 8.916048828710503e-002	 1.998011613412721e+000	 6.761509291667629e+000
 7.120968176046663e-002	 1.998731893282784e+000	 6.994972332813058e+000
 5.331638494996551e-002	 1.999289214470238e+000	 7.243048998173917e+000
 3.548246396324807e-002	 1.999685223916897e+000	 7.502436482580130e+000
 1.770974214482997e-002	 1.999921589721275e+000	 7.769735104091422e+000
 0.000000000000000e+000	 2.000000000000000e+000	 8.041455582687995e+000
 2.000000000000000e+000	 0.000000000000000e+000	 1.219921910323585e+001
 1.999921589721275e+000	 1.770974214483003e-002	 1.228640635513220e+001
 1.999685223916896e+000	 3.548246396324820e-002	 1.235833816746309e+001
 1.999289214470237e+000	 5.331638494996539e-002	 1.241507221990161e+001
 1.998731893282784e+000	 7.120968176046658e-002	 1.245666702595077e+001
 1.998011613412721e+000	 8.916048828710503e-002	 1.248318173738005e+001
 1.997126750223276e+000	 1.071668957668297e-001	 1.249467594798283e+001
 1.996075702539929e+000	 1.252269529212345e-001	 1.249120949722651e+001
 1.994856893815574e+000	 1.433386661295951e-001	 1.247284227438553e+001
 1.993468773302665e+000	 1.614999996355343e-001	 1.243963402376508e+001
 1.991909817231349e+000	 1.797088757879295e-001	 1.239164415163935e+001
 2.025000000000000e+000	 0.000000000000000e+000	 1.212673411912030e+001
 2.024920609592803e+000	 1.793111392142746e-002	 1.221018285533284e+001
 2.024681289215908e+000	 3.592599476242833e-002	 1.227831772480317e+001
 2.024280329651229e+000	 5.398283976139813e-002	 1.233121625036223e+001
 2.023716041949021e+000	 7.209980278201615e-002	 1.236895704529256e+001
 2.022986758580697e+000	 9.027499439029070e-002	 1.239161960298036e+001
 2.022090834601524e+000	 1.085064819636334e-001	 1.239928408540245e+001
 2.021026648822303e+000	 1.267922898326587e-001	 1.239203111103669e+001
 2.019792604989089e+000	 1.451303994563841e-001	 1.236994154280485e+001
 2.018387132969990e+000	 1.635187496314781e-001	 1.233309627667591e+001
 2.016808689948031e+000	 1.819552367361798e-001	 1.228157603157493e+001
 2.050000000000000e+000	 0.000000000000000e+000	 1.206012464843987e+001
 2.049919629464327e+000	 1.815248569802488e-002	 1.214045706762680e+001
 2.049677354514900e+000	 3.636952556160845e-002	 1.220544159001788e+001
 2.049271444832177e+000	 5.464929457283087e-002	 1.225517560509737e+001
 2.048700190615181e+000	 7.298992380356566e-002	 1.228975782911678e+001
 2.047961903748552e+000	 9.138950049347636e-002	 1.230928807942308e+001
 2.047054918979599e+000	 1.098460681604371e-001	 1.231386704714894e+001
 2.045977595104440e+000	 1.283576267440829e-001	 1.230359606887247e+001
 2.044728316162292e+000	 1.469221327831730e-001	 1.227857689787587e+001
 2.043305492636919e+000	 1.655374996274218e-001	 1.223891147565196e+001
 2.041707562664222e+000	 1.842015976844301e-001	 1.218470170432666e+001
 2.075000000000000e+000	 0.000000000000000e+000	 1.199870608306681e+001
 2.074918649335845e+000	 1.837385747462230e-002	 1.207651548429643e+001
 2.074673419813873e+000	 3.681305636078857e-002	 1.213896712592291e+001
 2.074262560013082e+000	 5.531574938426360e-002	 1.218617829607486e+001
 2.073684339281264e+000	 7.388004482511520e-002	 1.221826782582935e+001
 2.072937048916287e+000	 9.250400659666205e-002	 1.223535584767178e+001
 2.072019003357499e+000	 1.111856543572408e-001	 1.223756355185884e+001
 2.070928541386338e+000	 1.299229636555072e-001	 1.222501294131206e+001
 2.069664027335182e+000	 1.487138661099619e-001	 1.219782658569245e+001
 2.068223852303450e+000	 1.675562496233655e-001	 1.215612737532880e+001
 2.066606435379921e+000	 1.864479586326804e-001	 1.210003827569162e+001
 2.100000000000000e+000	 0.000000000000000e+000	 1.194182641526039e+001
 2.099917669207360e+000	 1.859522925121972e-002	 1.201767854801742e+001
 2.099669485112827e+000	 3.725658715996871e-002	 1.207818701563176e+001
 2.099253675193943e+000	 5.598220419569634e-002	 1.212348904506352e+001
 2.098668487947270e+000	 7.477016584666477e-002	 1.215372360242342e+001
 2.097912194083901e+000	 9.361851269984771e-002	 1.216903113501564e+001
 2.096983087735225e+000	 1.125252405540445e-001	 1.216955331083808e+001
 2.095879487667998e+000	 1.314883005669314e-001	 1.215543275618892e+001
 2.094599738507759e+000	 1.505055994367509e-001	 1.212681279205299e+001
 2.093142211969584e+000	 1.695749996193093e-001	 1.208383716996471e+001
 2.091505308095129e+000	 1.886943195809308e-001	 1.202664980806556e+001
 2.125000000000000e+000	 0.000000000000000e+000	 1.188886431999703e+001
 2.124916689078869e+000	 1.881660102781714e-002	 1.196329865477672e+001
 2.124665550411762e+000	 3.770011795914884e-002	 1.202242718489111e+001
 2.124244790374762e+000	 5.664865900712907e-002	 1.206640712423300e+001
 2.123652636613198e+000	 7.566028686821431e-002	 1.209539760220960e+001
 2.122887339251394e+000	 9.473301880303341e-002	 1.210955938881521e+001
 2.121947172112776e+000	 1.138648267508482e-001	 1.210905461672847e+001
 2.120830433949419e+000	 1.330536374783557e-001	 1.209404650110625e+001
 2.119535449680023e+000	 1.522973327635398e-001	 1.206469905777208e+001
 2.118060571635321e+000	 1.715937496152530e-001	 1.202117682052153e+001
 2.116404180809845e+000	 1.909406805291811e-001	 1.196364455828982e+001
 2.150000000000000e+000	 0.000000000000000e+000	 1.183922737109145e+001
 2.149915708950374e+000	 1.903797280441457e-002	 1.191275829612188e+001
 2.149661615710677e+000	 3.814364875832895e-002	 1.197104486936959e+001
 2.149235905555537e+000	 5.731511381856181e-002	 1.201426434740953e+001
 2.148636785279050e+000	 7.655040788976383e-002	 1.204259605898356e+001
 2.147862484418765e+000	 9.584752490621906e-002	 1.205622111254474e+001
 2.146911256490152e+000	 1.152044129476518e-001	 1.205532210040679e+001
 2.145781380230602e+000	 1.346189743897799e-001	 1.204008280019446e+001
 2.144471160851976e+000	 1.540890660903287e-001	 1.201068787431900e+001
 2.142978931300662e+000	 1.736124996111968e-001	 1.196732256822858e+001
 2.141303053524069e+000	 1.931870414774315e-001	 1.191017240820701e+001
 2.175000000000000e+000	 0.000000000000000e+000	 1.179235038034388e+001
 2.174914728821873e+000	 1.925934458101199e-002	 1.186546832953126e+001
 2.174657681009575e+000	 3.858717955750909e-002	 1.192342681523710e+001
 2.174227020736269e+000	 5.798156862999455e-002	 1.196642319986592e+001
 2.173620933944825e+000	 7.744052891131339e-002	 1.199465705504409e+001
 2.172837629586016e+000	 9.696203100940473e-002	 1.200832985107298e+001
 2.171875340867353e+000	 1.165439991444556e-001	 1.200764464258056e+001
 2.170732326511546e+000	 1.361843113012042e-001	 1.199280575109239e+001
 2.169406872023615e+000	 1.558807994171177e-001	 1.196401844527435e+001
 2.167897290965605e+000	 1.756312496071406e-001	 1.192148861962464e+001
 2.166201926237801e+000	 1.954334024256818e-001	 1.186542247241947e+001
 2.199999999999999e+000	 0.000000000000000e+000	 1.174769384992718e+001
 2.199913748693369e+000	 1.948071635760941e-002	 1.182086636671327e+001
 2.199653746308452e+000	 3.903071035668922e-002	 1.187898760243157e+001
 2.199218135916958e+000	 5.864802344142729e-002	 1.192227509562555e+001
 2.198605082610522e+000	 7.833064993286293e-002	 1.195094871161905e+001
 2.197812774753146e+000	 9.807653711259042e-002	 1.196523031331122e+001
 2.196839425244380e+000	 1.178835853412592e-001	 1.196534342777476e+001
 2.195683272792251e+000	 1.377496482126284e-001	 1.195151290940713e+001
 2.194342583194943e+000	 1.576725327439066e-001	 1.192396460041468e+001
 2.192815650630152e+000	 1.776499996030843e-001	 1.188292498943814e+001
 2.191100798951041e+000	 1.976797633739321e-001	 1.182862086915522e+001
 2.224999999999999e+000	 0.000000000000000e+000	 1.170474252910761e+001
 2.224912768564859e+000	 1.970208813420683e-002	 1.177841527055978e+001
 2.224649811607310e+000	 3.947424115586935e-002	 1.183716808096433e+001
 2.224209251097604e+000	 5.931447825286004e-002	 1.188123875225173e+001
 2.223589231276143e+000	 7.922077095441249e-002	 1.191086750128519e+001
 2.222787919920156e+000	 9.919104321577608e-002	 1.192629662142440e+001
 2.221803509621232e+000	 1.192231715380629e-001	 1.192777012951080e+001
 2.220634219072718e+000	 1.393149851240526e-001	 1.191553340905278e+001
 2.219278294365958e+000	 1.594642660706956e-001	 1.188983285042054e+001
 2.217734010294301e+000	 1.796687495990280e-001	 1.185091548889113e+001
 2.215999671663790e+000	 1.999261243221825e-001	 1.179902864141261e+001
 2.250000000000000e+000	 0.000000000000000e+000	 1.166300406718399e+001
 2.249911788436345e+000	 1.992345991080426e-002	 1.173760175230269e+001
 2.249645876906150e+000	 3.991777195504948e-002	 1.179743391147146e+001
 2.249200366278207e+000	 5.998093306429280e-002	 1.184275867398444e+001
 2.248573379941687e+000	 8.011089197596205e-002	 1.187383667289308e+001
 2.247763065087045e+000	 1.003055493189618e-001	 1.189093067676138e+001
 2.246767593997911e+000	 1.205627577348667e-001	 1.189430521647324e+001
 2.245585165352948e+000	 1.408803220354769e-001	 1.188422620790012e+001
 2.244214005536660e+000	 1.612559993974846e-001	 1.186096057127069e+001
 2.242652369958055e+000	 1.816874995949719e-001	 1.182477584811626e+001
 2.240898544376048e+000	 2.021724852704328e-001	 1.177593981669516e+001
 1.991909817231349e+000	 1.797088757879295e-001	 1.239164415163935e+001
 1.990178529992387e+000	 1.979631753165402e-001	 1.246939142280205e+001
 1.988273445324313e+000	 2.162607376432357e-001	 1.253471117976800e+001
 1.986193127503396e+000	 2.345993612291324e-001	 1.258760983857287e+001
 1.983936172534892e+000	 2.529768039579072e-001	 1.262809032152559e+001
 1.981501209344972e+000	 2.713907835560691e-001	 1.265615187659859e+001
 1.978886900971938e+000	 2.898389780504918e-001	 1.267178990511454e+001
 1.976091945755501e+000	 3.083190262635862e-001	 1.267499579849083e+001
 1.973115078522868e+000	 3.268285283464439e-001	 1.266575678479986e+001
 1.969955071770350e+000	 3.453650463502412e-001	 1.264405578589875e+001
 1.966610736839180e+000	 3.639261048361500e-001	 1.260987128587392e+001
 2.016808689948031e+000	 1.819552367361798e-001	 1.228157603157493e+001
 2.015055761618825e+000	 2.004377150093213e-001	 1.235345191900180e+001
 2.013126863392606e+000	 2.189639968654950e-001	 1.241361513387914e+001
 2.011020541599093e+000	 2.375318532465808e-001	 1.246208787175474e+001
 2.008735374693610e+000	 2.561390140098015e-001	 1.249888830264755e+001
 2.006269974463903e+000	 2.747831683532467e-001	 1.252403036441395e+001
 2.003622987236254e+000	 2.934619652791260e-001	 1.253752356474275e+001
 2.000793095079618e+000	 3.121730140951303e-001	 1.253937279259480e+001
 1.997779017006543e+000	 3.309138849542393e-001	 1.252957813990296e+001
 1.994579510169543e+000	 3.496821094332685e-001	 1.250813473434258e+001
 1.991193371051617e+000	 3.684751811504042e-001	 1.247503258397614e+001
 2.041707562664222e+000	 1.842015976844301e-001	 1.218470170432666e+001
 2.039932993244682e+000	 2.029122547020977e-001	 1.225105983643991e+001
 2.037980281460246e+000	 2.216672560877351e-001	 1.230642803386850e+001
 2.035847955694086e+000	 2.404643452639859e-001	 1.235084412477375e+001
 2.033534576851590e+000	 2.593012240616183e-001	 1.238434136478373e+001
 2.031038739582086e+000	 2.781755531503031e-001	 1.240694820413098e+001
 2.028359073499827e+000	 2.970849525075852e-001	 1.241868806376999e+001
 2.025494244403021e+000	 3.160270019264352e-001	 1.241957912134910e+001
 2.022442955489552e+000	 3.349992415617211e-001	 1.240963410790873e+001
 2.019203948568140e+000	 3.539991725158979e-001	 1.238886011617570e+001
 2.015776005263546e+000	 3.730242574641658e-001	 1.235725842131429e+001
 2.066606435379921e+000	 1.864479586326804e-001	 1.210003827569162e+001
 2.064810224869957e+000	 2.053867943948692e-001	 1.216121995619907e+001
 2.062833699527232e+000	 2.243705153099559e-001	 1.221214276797170e+001
 2.060675369788373e+000	 2.433968372813475e-001	 1.225286003288021e+001
 2.058333779008834e+000	 2.624634341133577e-001	 1.228341993782242e+001
 2.055807504699517e+000	 2.815679379472381e-001	 1.230386527541551e+001
 2.053095159762659e+000	 3.007079397358691e-001	 1.231423319404032e+001
 2.050195393725710e+000	 3.198809897575008e-001	 1.231455495817061e+001
 2.047106893971896e+000	 3.390845981688895e-001	 1.230485571991828e+001
 2.043828386966140e+000	 3.583162355981293e-001	 1.228515430272313e+001
 2.040358639474969e+000	 3.775733337774347e-001	 1.225546299810769e+001
 2.091505308095129e+000	 1.886943195809308e-001	 1.202664980806556e+001
 2.089687456494649e+000	 2.078613340876359e-001	 1.208298466995949e+001
 2.087687117593565e+000	 2.270737745321575e-001	 1.212980047808249e+001
 2.085502783881955e+000	 2.463293292986658e-001	 1.216716591674138e+001
 2.083132981165341e+000	 2.656256441650198e-001	 1.219514395716256e+001
 2.080576269816200e+000	 2.849603227440519e-001	 1.221379157151101e+001
 2.077831246024749e+000	 3.043309269639778e-001	 1.222315945665490e+001
 2.074896543047684e+000	 3.237349775883271e-001	 1.222329176866695e+001
 2.071770832453574e+000	 3.431699547757445e-001	 1.221422586905474e+001
 2.068452825363542e+000	 3.626332986799628e-001	 1.219599208370730e+001
 2.064941273685884e+000	 3.821224100902110e-001	 1.216861347554060e+001
 2.116404180809845e+000	 1.909406805291811e-001	 1.196364455828982e+001
 2.114564688118759e+000	 2.103358737803979e-001	 1.201545117937540e+001
 2.112540535659244e+000	 2.297770337543398e-001	 1.205848772130237e+001
 2.110330197974833e+000	 2.492618213159407e-001	 1.209283810682880e+001
 2.107932183321109e+000	 2.687878542166045e-001	 1.211857995162485e+001
 2.105345034932133e+000	 2.883527075407443e-001	 1.213578425138085e+001
 2.102567332286097e+000	 3.079539141919111e-001	 1.214451507907435e+001
 2.099597692368946e+000	 3.275889654189144e-001	 1.214482929344886e+001
 2.096434770934586e+000	 3.472553113822861e-001	 1.213677625975626e+001
 2.093077263760348e+000	 3.669503617613985e-001	 1.212039758381272e+001
 2.089523907896292e+000	 3.866714864024947e-001	 1.209572686041132e+001
 2.141303053524069e+000	 1.931870414774315e-001	 1.191017240820701e+001
 2.139441919742287e+000	 2.128104134731551e-001	 1.195775889084409e+001
 2.137393953724270e+000	 2.324802929765030e-001	 1.199733382952153e+001
 2.135157612067005e+000	 2.521943133331721e-001	 1.202899626842946e+001
 2.132731385476141e+000	 2.719500642681118e-001	 1.205283833453196e+001
 2.130113800047317e+000	 2.917450923373155e-001	 1.206894489751531e+001
 2.127303418546704e+000	 3.115769014196694e-001	 1.207739324033051e+001
 2.124298841689493e+000	 3.314429532492622e-001	 1.207825274144365e+001
 2.121098709414933e+000	 3.513406679885141e-001	 1.207158456990863e+001
 2.117701702156558e+000	 3.712674248424363e-001	 1.205744139437420e+001
 2.114106542106193e+000	 3.912205627142856e-001	 1.203586710713129e+001
 2.166201926237801e+000	 1.954334024256818e-001	 1.186542247241947e+001
 2.164319151365234e+000	 2.152849531659074e-001	 1.190908698994584e+001
 2.162247371788644e+000	 2.351835521986470e-001	 1.194550845109754e+001
 2.159985026158471e+000	 2.551268053503602e-001	 1.197480091113936e+001
 2.157530587630436e+000	 2.751122743195416e-001	 1.199707088161062e+001
 2.154882565161751e+000	 2.951374771337652e-001	 1.201241696285533e+001
 2.152039504806568e+000	 3.151998886472523e-001	 1.202092948760267e+001
 2.148999991009326e+000	 3.352969410793709e-001	 1.202269017677382e+001
 2.145762647894614e+000	 3.554260245944288e-001	 1.201777180869328e+001
 2.142326140552170e+000	 3.755844879230763e-001	 1.200623790287966e+001
 2.138689176315586e+000	 3.957696390255839e-001	 1.198814241958641e+001
 2.191100798951041e+000	 1.976797633739321e-001	 1.182862086915522e+001
 2.189196382987598e+000	 2.177594928586550e-001	 1.186865218126316e+001
 2.187100789852363e+000	 2.378868114207716e-001	 1.190221926014709e+001
 2.184812440249233e+000	 2.580592973675048e-001	 1.192945106816394e+001
 2.182329789783993e+000	 2.782744843708940e-001	 1.195046838085499e+001
 2.179651330275434e+000	 2.985298619300937e-001	 1.196538339178963e+001
 2.176775591065690e+000	 3.188228758746600e-001	 1.197429932893653e+001
 2.173701140328445e+000	 3.391509289092403e-001	 1.197731008380266e+001
 2.170426586373628e+000	 3.595113812000300e-001	 1.197449985458157e+001
 2.166950578947184e+000	 3.799015510033183e-001	 1.196594280455233e+001
 2.163271810524472e+000	 4.003187153363895e-001	 1.195170273696217e+001
 2.215999671663790e+000	 1.999261243221825e-001	 1.179902864141261e+001
 2.214073614609379e+000	 2.202340325513978e-001	 1.183570658057159e+001
 2.211954207915429e+000	 2.405900706428771e-001	 1.186670982026727e+001
 2.209639854339290e+000	 2.609917893846062e-001	 1.189218213207045e+001
 2.207128991936814e+000	 2.814366944221691e-001	 1.191225844082632e+001
 2.204420095388370e+000	 3.019222467263009e-001	 1.192706440153392e+001
 2.201511677324071e+000	 3.224458631018926e-001	 1.193671598825163e+001
 2.198402289646850e+000	 3.430049167388704e-001	 1.194131909633402e+001
 2.195090524851978e+000	 3.635967378053179e-001	 1.194096915930750e+001
 2.191575017341604e+000	 3.842186140831624e-001	 1.193575078169135e+001
 2.187854444732851e+000	 4.048677916467026e-001	 1.192573738906400e+001
 2.240898544376048e+000	 2.021724852704328e-001	 1.177593981669516e+001
 2.238950846230580e+000	 2.227085722441359e-001	 1.180953574755134e+001
 2.236807625977843e+000	 2.432933298649635e-001	 1.183825759067567e+001
 2.234467268428642e+000	 2.639242814016641e-001	 1.186226383482333e+001
 2.231928194088898e+000	 2.845989044733669e-001	 1.188170344506574e+001
 2.229188860500556e+000	 3.053146315223868e-001	 1.189671541141840e+001
 2.226247763581711e+000	 3.260688503289499e-001	 1.190742831001500e+001
 2.223103438964543e+000	 3.468589045682615e-001	 1.191395987819918e+001
 2.219754463329662e+000	 3.676820944102923e-001	 1.191641660490837e+001
 2.216199455735425e+000	 3.885356771626088e-001	 1.191489333772317e+001
 2.212437078940723e+000	 4.094168679565229e-001	 1.190947290794936e+001
 1.966610736839180e+000	 3.639261048361500e-001	 1.260987128587392e+001
 1.963080925084422e+000	 3.825091915237607e-001	 1.265653933834702e+001
 1.959364529034961e+000	 4.011117579788214e-001	 1.269479275158703e+001
 1.955460483543635e+000	 4.197312203398140e-001	 1.272459188864949e+001
 1.951367766926559e+000	 4.383649600831472e-001	 1.274588858769950e+001
 1.947085402089539e+000	 4.570103248275765e-001	 1.275862602834502e+001
 1.942612457640390e+000	 4.756646291775601e-001	 1.276273861653142e+001
 1.937948048985706e+000	 4.943251556054372e-001	 1.275815188878610e+001
 1.933091339410632e+000	 5.129891553722545e-001	 1.274478243656807e+001
 1.928041541140166e+000	 5.316538494870133e-001	 1.272253785144164e+001
 1.922797916380548e+000	 5.503164297040443e-001	 1.269131669175158e+001
 1.991193371051617e+000	 3.684751811504042e-001	 1.247503258397614e+001
 1.987619436649766e+000	 3.872905564217012e-001	 1.252211366969435e+001
 1.983856585649486e+000	 4.061256549574481e-001	 1.256056221224770e+001
 1.979903739589275e+000	 4.249778605978571e-001	 1.259034124203578e+001
 1.975759864014198e+000	 4.438445220877911e-001	 1.261140530296952e+001
 1.971423969616384e+000	 4.627229538912393e-001	 1.262370031986333e+001
 1.966895113361246e+000	 4.816104370452149e-001	 1.262716348471609e+001
 1.962172399597961e+000	 5.005042200529607e-001	 1.262172316267938e+001
 1.957254981152735e+000	 5.194015198162856e-001	 1.260729881847582e+001
 1.952142060403382e+000	 5.382995226068029e-001	 1.258380096399358e+001
 1.946832890333715e+000	 5.571953850757715e-001	 1.255113112774051e+001
 2.015776005263546e+000	 3.730242574641658e-001	 1.235725842131429e+001
 2.012157948214703e+000	 3.920719213190587e-001	 1.240526093202660e+001
 2.008348642263703e+000	 4.111395519354208e-001	 1.244444480953150e+001
 2.004346995634707e+000	 4.302245008551945e-001	 1.247477562566239e+001
 2.000151961101730e+000	 4.493240840916974e-001	 1.249621047496917e+001
 1.995762537143223e+000	 4.684355829541524e-001	 1.250869784285962e+001
 1.991177769082197e+000	 4.875562449121281e-001	 1.251217749299542e+001
 1.986396750210409e+000	 5.066832844997706e-001	 1.250658037475076e+001
 1.981418622895133e+000	 5.258138842596519e-001	 1.249182855150725e+001
 1.976242579666991e+000	 5.449451957259967e-001	 1.246783515051814e+001
 1.970867864287377e+000	 5.640743404469928e-001	 1.243450433503390e+001
 2.040358639474969e+000	 3.775733337774347e-001	 1.225546299810769e+001
 2.036696459779233e+000	 3.968532862158332e-001	 1.230488460291917e+001
 2.032840698877614e+000	 4.161534489127393e-001	 1.234533285532263e+001
 2.028790251679932e+000	 4.354711411118263e-001	 1.237677574135918e+001
 2.024544058189155e+000	 4.548036460948662e-001	 1.239917274992680e+001
 2.020101104670055e+000	 4.741482120163162e-001	 1.241247474136555e+001
 2.015460424803240e+000	 4.935020527782997e-001	 1.241662383570004e+001
 2.010621100823052e+000	 5.128623489458674e-001	 1.241155332136010e+001
 2.005582264637823e+000	 5.322262487023532e-001	 1.239718758516297e+001
 2.000343098930994e+000	 5.515908688445943e-001	 1.237344206430135e+001
 1.994902838241532e+000	 5.709532958177074e-001	 1.234022322103564e+001
 2.064941273685884e+000	 3.821224100902110e-001	 1.216861347554060e+001
 2.061234971343355e+000	 4.016346511120246e-001	 1.221994179437330e+001
 2.057332755491217e+000	 4.211673458894039e-001	 1.226217299979854e+001
 2.053233507724950e+000	 4.407177813677524e-001	 1.229527736349138e+001
 2.048936155276472e+000	 4.602832080972975e-001	 1.231921661117335e+001
 2.044439672196880e+000	 4.798608410777303e-001	 1.233394379133882e+001
 2.039743080524377e+000	 4.994478606437299e-001	 1.233940316407966e+001
 2.034845451435887e+000	 5.190414133912505e-001	 1.233553011084232e+001
 2.029745906380808e+000	 5.386386131443897e-001	 1.232225106591323e+001
 2.024443618195390e+000	 5.582365419625962e-001	 1.229948347038662e+001
 2.018937812196181e+000	 5.778322511879159e-001	 1.226713574932406e+001
 2.089523907896292e+000	 3.866714864024947e-001	 1.209572686041132e+001
 2.085773482907070e+000	 4.064160160076331e-001	 1.214944009784974e+001
 2.081824812104512e+000	 4.261812428654142e-001	 1.219396303505953e+001
 2.077676763769761e+000	 4.459644216229730e-001	 1.222926809939877e+001
 2.073328252363683e+000	 4.657627700989913e-001	 1.225531909460697e+001
 2.068778239723698e+000	 4.855734701383949e-001	 1.227207106937368e+001
 2.064025736245607e+000	 5.053936685084186e-001	 1.227947020648428e+001
 2.059069802048916e+000	 5.252204778359205e-001	 1.227745373339167e+001
 2.053909548124086e+000	 5.450509775857613e-001	 1.226594985502307e+001
 2.048544137460181e+000	 5.648822150800023e-001	 1.224487770958883e+001
 2.042972786151324e+000	 5.847112065576181e-001	 1.221414734811224e+001
 2.114106542106193e+000	 3.912205627142856e-001	 1.203586710713129e+001
 2.110311994470377e+000	 4.111973809026583e-001	 1.209243464941646e+001
 2.106316868717501e+000	 4.311951398407705e-001	 1.213974892176137e+001
 2.102120019814365e+000	 4.512110618774877e-001	 1.217778437585060e+001
 2.097720349450787e+000	 4.712423320999476e-001	 1.220650673331096e+001
 2.093116807250509e+000	 4.912860991983100e-001	 1.222587285382640e+001
 2.088308391966931e+000	 5.113394763723657e-001	 1.223583062434681e+001
 2.083294152662138e+000	 5.313995422798771e-001	 1.223631887025560e+001
 2.078073189867658e+000	 5.514633420264679e-001	 1.222726728932022e+001
 2.072644656725364e+000	 5.715278881968122e-001	 1.220859640920546e+001
 2.067007760106961e+000	 5.915901619268141e-001	 1.218021756928089e+001
 2.138689176315586e+000	 3.957696390255839e-001	 1.198814241958641e+001
 2.134850506033278e+000	 4.159787457971007e-001	 1.204802539729982e+001
 2.130808925330182e+000	 4.362090368154726e-001	 1.209862202080727e+001
 2.126563275858760e+000	 4.564577021312969e-001	 1.213990863333120e+001
 2.122112446537785e+000	 4.767218941001664e-001	 1.217185271288819e+001
 2.117455374777315e+000	 4.969987282574756e-001	 1.219441273965676e+001
 2.112591047688348e+000	 5.172852842355712e-001	 1.220753808499431e+001
 2.107518503275554e+000	 5.375786067231203e-001	 1.221116892298483e+001
 2.102236831611524e+000	 5.578757064665098e-001	 1.220523616535816e+001
 2.096745175990942e+000	 5.781735613130266e-001	 1.218966142057514e+001
 2.091042734063091e+000	 5.984691172955039e-001	 1.216435697782292e+001
 2.163271810524472e+000	 4.003187153363895e-001	 1.195170273696217e+001
 2.159389017595771e+000	 4.207601106909599e-001	 1.201535455573928e+001
 2.155300981942557e+000	 4.412229337895208e-001	 1.206971651378845e+001
 2.151006531902950e+000	 4.617043423844006e-001	 1.211476671162437e+001
 2.146504543624674e+000	 4.822014560996477e-001	 1.215047422074953e+001
 2.141793942304112e+000	 5.027113573158916e-001	 1.217679894998451e+001
 2.136873703409858e+000	 5.232310920980352e-001	 1.219369153404045e+001
 2.131742853889163e+000	 5.437576711656499e-001	 1.220109324523419e+001
 2.126400473355683e+000	 5.642880709058865e-001	 1.219893592920442e+001
 2.120845695256914e+000	 5.848192344286448e-001	 1.218714196543882e+001
 2.115077708019714e+000	 6.053480726636871e-001	 1.216562425337100e+001
 2.187854444732851e+000	 4.048677916467026e-001	 1.192573738906400e+001
 2.183927529157856e+000	 4.255414755842361e-001	 1.199360423049216e+001
 2.179793038554623e+000	 4.462368307629148e-001	 1.205220699732742e+001
 2.175449787946933e+000	 4.669509826367985e-001	 1.210152541165043e+001
 2.170896640711457e+000	 4.876810180983915e-001	 1.214152997410232e+001
 2.166132509830903e+000	 5.084239863735580e-001	 1.217218182888946e+001
 2.161156359131462e+000	 5.291768999597576e-001	 1.219343265166148e+001
 2.155967204502966e+000	 5.499367356074664e-001	 1.220522456118377e+001
 2.150564115100135e+000	 5.707004353445986e-001	 1.220749005568135e+001
 2.144946214523278e+000	 5.914649075436670e-001	 1.220015197468131e+001
 2.139112681976832e+000	 6.122270280313643e-001	 1.218312348712813e+001
 2.212437078940723e+000	 4.094168679565229e-001	 1.190947290794936e+001
 2.208466040719535e+000	 4.303228404769294e-001	 1.198199420263816e+001
 2.204285095166384e+000	 4.512507277356548e-001	 1.204530623779845e+001
 2.199893043990709e+000	 4.721976228884910e-001	 1.209939021984746e+001
 2.195288737798134e+000	 4.931605800963979e-001	 1.214421791273932e+001
 2.190471077357688e+000	 5.141366154304753e-001	 1.217975150135808e+001
 2.185439014853160e+000	 5.351227078207387e-001	 1.220594347845387e+001
 2.180191555116963e+000	 5.561158000485696e-001	 1.222273655606527e+001
 2.174727756844883e+000	 5.771127997826460e-001	 1.223006360232425e+001
 2.169046733790038e+000	 5.981105806580939e-001	 1.222784760449006e+001
 2.163147655934445e+000	 6.191059833985354e-001	 1.221600165900249e+001
 1.922797916380548e+000	 5.503164297040443e-001	 1.269131669175158e+001
 1.917359778339054e+000	 5.689740595581219e-001	 1.275695758501175e+001
 1.911726492221324e+000	 5.876238754369104e-001	 1.280135587172894e+001
 1.905897476204296e+000	 6.062629876904956e-001	 1.282471617656223e+001
 1.899872202382971e+000	 6.248884817771944e-001	 1.282725140131167e+001
 1.893650197690125e+000	 6.434974194451185e-001	 1.280723887517190e+001
 1.887231044787306e+000	 6.620868399488497e-001	 1.278590237411516e+001
 1.880614382925689e+000	 6.806537613005026e-001	 1.276505294962685e+001
 1.873799908775373e+000	 6.991951815543976e-001	 1.275927059000540e+001
 1.866787377221732e+000	 7.177080801244898e-001	 1.282188359988206e+001
 1.859576602127425e+000	 7.361894191336469e-001	 1.289601296576726e+001
 1.946832890333715e+000	 5.571953850757715e-001	 1.255113112774051e+001
 1.941326775566192e+000	 5.760862353022611e-001	 1.263456585403367e+001
 1.935623073371612e+000	 5.949691738788934e-001	 1.269934137201006e+001
 1.929721194654121e+000	 6.138412750351303e-001	 1.274566672040372e+001
 1.923620604909912e+000	 6.326995877975195e-001	 1.275912494251853e+001
 1.917320825158422e+000	 6.515411371860248e-001	 1.274558796466997e+001
 1.910821432844467e+000	 6.703629254459109e-001	 1.273281315260911e+001
 1.904122062709863e+000	 6.891619333144453e-001	 1.272258156656313e+001
 1.897222407633088e+000	 7.079351213216275e-001	 1.271673945084832e+001
 1.890122219435584e+000	 7.266794311240884e-001	 1.271719755903910e+001
 1.882821309653291e+000	 7.453917868712325e-001	 1.272593033309859e+001
 1.970867864287377e+000	 5.640743404469928e-001	 1.243450433503390e+001
 1.965293772793916e+000	 5.831984110459895e-001	 1.253571845340122e+001
 1.959519654522553e+000	 6.023144723205506e-001	 1.262081738522230e+001
 1.953544913104652e+000	 6.214195623795151e-001	 1.269001404509829e+001
 1.947369007437591e+000	 6.405106938176605e-001	 1.269438461052092e+001
 1.940991452627468e+000	 6.595848549268030e-001	 1.268689712927565e+001
 1.934411820902369e+000	 6.786390109428899e-001	 1.268209457390630e+001
 1.927629742494750e+000	 6.976701053283412e-001	 1.268179401811108e+001
 1.920644906491468e+000	 7.166750610888371e-001	 1.268787838345575e+001
 1.913457061650030e+000	 7.356507821236820e-001	 1.270229574798521e+001
 1.906066017179662e+000	 7.545941546088181e-001	 1.272705850567317e+001
 1.994902838241532e+000	 5.709532958177074e-001	 1.234022322103564e+001
 1.989260770022222e+000	 5.903105867893066e-001	 1.245921715795220e+001
 1.983416235674150e+000	 6.096597707618821e-001	 1.256460258293018e+001
 1.977368631555889e+000	 6.289978497236500e-001	 1.263752287200686e+001
 1.971117409966007e+000	 6.483217998376174e-001	 1.263289846383483e+001
 1.964662080097262e+000	 6.676285726674528e-001	 1.263099927702719e+001
 1.958002208961012e+000	 6.869150964397868e-001	 1.263361116918209e+001
 1.951137422280350e+000	 7.061782773421911e-001	 1.264258717645066e+001
 1.944067405350511e+000	 7.254150008560256e-001	 1.265984695663698e+001
 1.936791903865071e+000	 7.446221331232703e-001	 1.268737608297377e+001
 1.929310724706539e+000	 7.637965223464036e-001	 1.272722518545375e+001
 2.018937812196181e+000	 5.778322511879159e-001	 1.226713574932406e+001
 2.013227767251113e+000	 5.974227625322126e-001	 1.240392434098400e+001
 2.007312816826402e+000	 6.170050692028881e-001	 1.252957568863213e+001
 2.001192350007833e+000	 6.365761370675350e-001	 1.257568959718246e+001
 1.994865812495162e+000	 6.561329058573907e-001	 1.257452720080301e+001
 1.988332707567807e+000	 6.756722904079746e-001	 1.257778519155528e+001
 1.981592597020396e+000	 6.951911819366016e-001	 1.258728443978342e+001
 1.974645102066663e+000	 7.146864493559948e-001	 1.260491388812848e+001
 1.967489904210219e+000	 7.341549406231938e-001	 1.263262998487148e+001
 1.960126746080707e+000	 7.535934841228537e-001	 1.267245596460619e+001
 1.952555432233920e+000	 7.729988900839893e-001	 1.272648097302464e+001
 2.042972786151324e+000	 5.847112065576181e-001	 1.221414734811224e+001
 2.037194764480589e+000	 6.045349382747075e-001	 1.236875940963820e+001
 2.031209397979309e+000	 6.243503676435684e-001	 1.251467194529402e+001
 2.025016068460483e+000	 6.441544244111701e-001	 1.251719368432248e+001
 2.018614215025054e+000	 6.639440118769794e-001	 1.251918675820697e+001
 2.012003335039101e+000	 6.837160081483684e-001	 1.252720012763606e+001
 2.005182985080521e+000	 7.034672674333340e-001	 1.254308950604223e+001
 1.998152781853688e+000	 7.231946213697519e-001	 1.256877968144795e+001
 1.990912403070590e+000	 7.428948803903411e-001	 1.260626394194948e+001
 1.983461588296937e+000	 7.625648351224317e-001	 1.265760334503080e+001
 1.975800139761806e+000	 7.822012578215748e-001	 1.272492582738674e+001
 2.067007760106961e+000	 5.915901619268141e-001	 1.218021756928089e+001
 2.061161761710647e+000	 6.116471140167914e-001	 1.235269548897952e+001
 2.055105979132871e+000	 6.316956660839231e-001	 1.246281049905140e+001
 2.048839786913839e+000	 6.517327117545553e-001	 1.246197497503936e+001
 2.042362617555685e+000	 6.717551178963842e-001	 1.246684509973019e+001
 2.035673962511146e+000	 6.917597258886344e-001	 1.247924064426432e+001
 2.028773373141388e+000	 7.117433529299845e-001	 1.250105198989265e+001
 2.021660461641427e+000	 7.317027933834631e-001	 1.253423970357654e+001
 2.014334901931626e+000	 7.516348201574681e-001	 1.258083395752380e+001
 2.006796430513763e+000	 7.715361861220047e-001	 1.264293378889959e+001
 1.999044847290198e+000	 7.914036255591603e-001	 1.272270619628250e+001
 2.091042734063091e+000	 5.984691172955039e-001	 1.216435697782292e+001
 2.085128758941291e+000	 6.187592897584642e-001	 1.235475633475893e+001
 2.079002560287087e+000	 6.390409645239521e-001	 1.240960980265302e+001
 2.072663505367901e+000	 6.593109990976906e-001	 1.241002295382694e+001
 2.066111020087052e+000	 6.795662239156050e-001	 1.241751922590591e+001
 2.059344589983939e+000	 6.998034436287718e-001	 1.243395165613518e+001
 2.052363761202996e+000	 7.200194384265526e-001	 1.246124511248009e+001
 2.045168141429878e+000	 7.402109653971277e-001	 1.250139586888703e+001
 2.037757400793325e+000	 7.603747599245742e-001	 1.255647102079574e+001
 2.030131272731183e+000	 7.805075371215725e-001	 1.262860773701725e+001
 2.022289554819095e+000	 8.006059932967460e-001	 1.272001234442888e+001
 2.115077708019714e+000	 6.053480726636871e-001	 1.216562425337100e+001
 2.109095756172518e+000	 6.258714654997258e-001	 1.236486490706010e+001
 2.102899141441959e+000	 6.463862629636555e-001	 1.235984229591004e+001
 2.096487223822670e+000	 6.668892864405760e-001	 1.236137392744205e+001
 2.089859422619158e+000	 6.873773299346419e-001	 1.237127238793278e+001
 2.083015217457481e+000	 7.078471613687812e-001	 1.239142368616114e+001
 2.075954149265344e+000	 7.282955239230385e-001	 1.242378698966069e+001
 2.068675821219042e+000	 7.487191374107457e-001	 1.247039420172976e+001
 2.061179899655688e+000	 7.691146996916595e-001	 1.253334937485922e+001
 2.053466114949198e+000	 7.894788881211350e-001	 1.261482795655993e+001
 2.045534262348497e+000	 8.098083610343312e-001	 1.271707586391686e+001
 2.139112681976832e+000	 6.122270280313643e-001	 1.218312348712813e+001
 2.133062753404329e+000	 6.329836412405763e-001	 1.231872949589173e+001
 2.126795722597485e+000	 6.537315614030334e-001	 1.231356233944931e+001
 2.120310942278145e+000	 6.744675737832115e-001	 1.231610839444062e+001
 2.113607825152002e+000	 6.951884359534946e-001	 1.232821148932286e+001
 2.106685844931774e+000	 7.158908791086626e-001	 1.235179030321261e+001
 2.099544537328435e+000	 7.365716094194423e-001	 1.238883810982650e+001
 2.092183501008918e+000	 7.572273094243178e-001	 1.244142235834426e+001
 2.084602398518716e+000	 7.778546394587245e-001	 1.251168408670661e+001
 2.076800957167808e+000	 7.984502391206924e-001	 1.260183716318930e+001
 2.068778969878404e+000	 8.190107287719171e-001	 1.271416735244864e+001
 2.163147655934445e+000	 6.191059833985354e-001	 1.221600165900249e+001
 2.157029750636725e+000	 6.400958169810158e-001	 1.227616366544768e+001
 2.150692303753667e+000	 6.610768598420859e-001	 1.227086647717768e+001
 2.144134660734327e+000	 6.820458611255974e-001	 1.227434859007738e+001
 2.137356227685584e+000	 7.029995419721637e-001	 1.228848466077307e+001
 2.130356472406817e+000	 7.239345968484161e-001	 1.231522573067610e+001
 2.123134925392267e+000	 7.448476949157644e-001	 1.235659897987579e+001
 2.115691180799508e+000	 7.657354814378435e-001	 1.241470731397635e+001
 2.108024897382408e+000	 7.865945792257689e-001	 1.249172877923450e+001
 2.100135799387014e+000	 8.074215901202450e-001	 1.258991580169199e+001
 2.092023677408817e+000	 8.282130965095027e-001	 1.271159424635935e+001
 1.859576602127425e+000	 7.361894191336469e-001	 1.289601296576726e+001
 1.852167457058817e+000	 7.546361447941515e-001	 1.282087160923976e+001
 1.844559875975171e+000	 7.730451888174859e-001	 1.277139975488662e+001
 1.836753853879596e+000	 7.914134698526777e-001	 1.274857396880560e+001
 1.828749447430661e+000	 8.097378949529318e-001	 1.275332100366736e+001
 1.820546775513088e+000	 8.280153610683620e-001	 1.278651555708408e+001
 1.812146019766516e+000	 8.462427565638450e-001	 1.284897810821047e+001
 1.803547425071165e+000	 8.644169627606547e-001	 1.294147283907401e+001
 1.794751299989325e+000	 8.825348555005110e-001	 1.306470564701042e+001
 1.785758017161617e+000	 9.005933067305992e-001	 1.321932225443368e+001
 1.776568013657048e+000	 9.185891861080785e-001	 1.340590642200181e+001
 1.882821309653291e+000	 7.453917868712325e-001	 1.272593033309859e+001
 1.875319550272018e+000	 7.640690966028914e-001	 1.258405567974850e+001
 1.867616874425373e+000	 7.827082536768358e-001	 1.255257503715745e+001
 1.859713277054009e+000	 8.013061382252066e-001	 1.255416639459379e+001
 1.851608815524723e+000	 8.198596186393719e-001	 1.258598172793318e+001
 1.843303610208294e+000	 8.383655530813226e-001	 1.264883420420998e+001
 1.834797845014858e+000	 8.568207910204950e-001	 1.274347844969927e+001
 1.826091767885635e+000	 8.752221747946792e-001	 1.287060846456658e+001
 1.817185691239944e+000	 8.935665411936157e-001	 1.303085563587396e+001
 1.808079992376415e+000	 9.118507230638301e-001	 1.322478685534170e+001
 1.798775113827414e+000	 9.300715509331942e-001	 1.345290274807960e+001
 1.906066017179662e+000	 7.545941546088181e-001	 1.272705850567317e+001
 1.898471643485632e+000	 7.735020484116312e-001	 1.260135168581794e+001
 1.890673872875920e+000	 7.923713185361859e-001	 1.249989576269125e+001
 1.882672700228714e+000	 8.111988065977350e-001	 1.242489813747236e+001
 1.874468183619045e+000	 8.299813423258119e-001	 1.238515464757286e+001
 1.866060444903750e+000	 8.487157450942829e-001	 1.247306474961518e+001
 1.857449670263458e+000	 8.673988254771451e-001	 1.259534174776707e+001
 1.848636110700393e+000	 8.860273868287037e-001	 1.275261183700499e+001
 1.839620082490902e+000	 9.045982268867205e-001	 1.294543420770713e+001
 1.830401967591619e+000	 9.231081393970605e-001	 1.317429916816805e+001
 1.820982213998275e+000	 9.415539157583098e-001	 1.343962638575172e+001
 1.929310724706539e+000	 7.637965223464036e-001	 1.272722518545375e+001
 1.921623736699662e+000	 7.829350002203711e-001	 1.261400978308955e+001
 1.913730871326810e+000	 8.020343833955359e-001	 1.252578616243112e+001
 1.905632123403714e+000	 8.210914749702638e-001	 1.246473073548115e+001
 1.897327551713629e+000	 8.401030660122524e-001	 1.243307204091533e+001
 1.888817279599456e+000	 8.590659371072436e-001	 1.243308907493627e+001
 1.880101495512317e+000	 8.779768599337953e-001	 1.246710946858335e+001
 1.871180453515440e+000	 8.968325988627283e-001	 1.258543617264190e+001
 1.862054473742195e+000	 9.156299125798255e-001	 1.280650875297072e+001
 1.852723942807229e+000	 9.343655557302910e-001	 1.306604255494531e+001
 1.843189314169633e+000	 9.530362805834256e-001	 1.336437841946365e+001
 1.952555432233920e+000	 7.729988900839893e-001	 1.272648097302464e+001
 1.944775829914107e+000	 7.923679520291109e-001	 1.262220856158443e+001
 1.936787869778046e+000	 8.116974482548862e-001	 1.254359958077970e+001
 1.928591546579006e+000	 8.309841433427924e-001	 1.249280137493615e+001
 1.920186919808475e+000	 8.502247896986922e-001	 1.247201451681990e+001
 1.911574114295413e+000	 8.694161291202041e-001	 1.248349118073193e+001
 1.902753320761436e+000	 8.885548943904453e-001	 1.252953335881268e+001
 1.893724796330773e+000	 9.076378108967529e-001	 1.261249092011572e+001
 1.884488864993826e+000	 9.266615982729306e-001	 1.273475951244493e+001
 1.875045918023246e+000	 9.456229720635218e-001	 1.289877830739784e+001
 1.865396414341487e+000	 9.645186454085410e-001	 1.322545005125440e+001
 1.975800139761806e+000	 7.822012578215748e-001	 1.272492582738674e+001
 1.967927923128965e+000	 8.018009038378509e-001	 1.262617025926147e+001
 1.959844868229625e+000	 8.213605131142362e-001	 1.255368015914987e+001
 1.951550969754590e+000	 8.408768117153210e-001	 1.250957567602536e+001
 1.943046287903584e+000	 8.603465133851326e-001	 1.249603140298131e+001
 1.934330948991620e+000	 8.797663211331644e-001	 1.251527479212739e+001
 1.925405146010814e+000	 8.991329288470956e-001	 1.256958440924628e+001
 1.916269139146394e+000	 9.184430229307773e-001	 1.266128802762006e+001
 1.906923256245794e+000	 9.376932839660355e-001	 1.279276056087982e+001
 1.897367893239668e+000	 9.568803883967523e-001	 1.296642183519064e+001
 1.887603514513837e+000	 9.760010102336569e-001	 1.318473420155295e+001
 1.999044847290198e+000	 7.914036255591603e-001	 1.272270619628250e+001
 1.991080016344239e+000	 8.112338556465905e-001	 1.262615822434686e+001
 1.982901866681548e+000	 8.310235779735863e-001	 1.255640773207828e+001
 1.974510392930468e+000	 8.507694800878497e-001	 1.251554949847440e+001
 1.965905655998953e+000	 8.704682370715726e-001	 1.250573407675116e+001
 1.957087783688078e+000	 8.901165131461248e-001	 1.252916625064864e+001
 1.948056971260451e+000	 9.097109633037456e-001	 1.258810332684232e+001
 1.938813481962304e+000	 9.292482349648019e-001	 1.268485326271565e+001
 1.929357647498099e+000	 9.487249696591404e-001	 1.282177262920573e+001
 1.919689868456498e+000	 9.681378047299827e-001	 1.300126440890001e+001
 1.909810614686682e+000	 9.874833750587725e-001	 1.322577563004426e+001
 2.022289554819095e+000	 8.006059932967460e-001	 1.272001234442888e+001
 2.014232109559929e+000	 8.206668074553304e-001	 1.262247455267463e+001
 2.005958865133816e+000	 8.406866428329364e-001	 1.255219577589648e+001
 1.997469816106639e+000	 8.606621484603785e-001	 1.251124720364210e+001
 1.988765024094585e+000	 8.805899607580128e-001	 1.250175724474284e+001
 1.979844618384786e+000	 9.004667051590853e-001	 1.252591002468050e+001
 1.970708796510346e+000	 9.202889977603954e-001	 1.258594371519825e+001
 1.961357824778502e+000	 9.400534469988263e-001	 1.268414869525659e+001
 1.951792038750740e+000	 9.597566553522452e-001	 1.282286554289897e+001
 1.942011843673734e+000	 9.793952210632133e-001	 1.300448285807110e+001
 1.932017714860024e+000	 9.989657398838882e-001	 1.323143491693007e+001
 2.045534262348497e+000	 8.098083610343312e-001	 1.271707586391686e+001
 2.037384202776032e+000	 8.300997592640702e-001	 1.261545788611849e+001
 2.029015863586428e+000	 8.503497076922865e-001	 1.254148949726516e+001
 2.020429239283104e+000	 8.705548168329071e-001	 1.249722003510942e+001
 2.011624392190479e+000	 8.907116844444528e-001	 1.248475761730542e+001
 2.002601453081745e+000	 9.108168971720461e-001	 1.250626767953121e+001
 1.993360621760502e+000	 9.308670322170456e-001	 1.256397134178724e+001
 1.983902167594988e+000	 9.508586590328508e-001	 1.266014360181265e+001
 1.974226430003719e+000	 9.707883410453503e-001	 1.279711135503569e+001
 1.964333818891376e+000	 9.906526373964438e-001	 1.297725124096458e+001
 1.954224815033862e+000	 1.010448104709004e+000	 1.320298731642988e+001
 2.068778969878404e+000	 8.190107287719171e-001	 1.271416735244864e+001
 2.060536295992551e+000	 8.395327110728100e-001	 1.260548135944318e+001
 2.052072862039382e+000	 8.600127725516363e-001	 1.252476405057150e+001
 2.043388662459861e+000	 8.804474852054359e-001	 1.247404460844231e+001
 2.034483760286634e+000	 9.008334081308931e-001	 1.245541267235856e+001
 2.025358287778955e+000	 9.211670891850063e-001	 1.247101691693129e+001
 2.016012447010916e+000	 9.414450666736958e-001	 1.252306345459428e+001
 2.006446510411762e+000	 9.616638710668756e-001	 1.261381406079767e+001
 1.996660821257034e+000	 9.818200267384549e-001	 1.274558422114598e+001
 1.986655794109423e+000	 1.001910053729674e+000	 1.292074100024702e+001
 1.976431915208197e+000	 1.021930469534119e+000	 1.314170073255551e+001
 2.092023677408817e+000	 8.282130965095027e-001	 1.271159424635935e+001
 2.083688389209485e+000	 8.489656628815500e-001	 1.259295068403302e+001
 2.075129860492684e+000	 8.696758374109872e-001	 1.250252287416659e+001
 2.066348085636912e+000	 8.903401535779647e-001	 1.244232150163708e+001
 2.057343128383052e+000	 9.109551318173336e-001	 1.241441950163870e+001
 2.048115122476415e+000	 9.315172811979672e-001	 1.242095067856559e+001
 2.038664272261591e+000	 9.520231011303464e-001	 1.246410814431006e+001
 2.028990853228824e+000	 9.724690831009004e-001	 1.254614257458921e+001
 2.019095212510688e+000	 9.928517124315603e-001	 1.266936028241065e+001
 2.008977769327879e+000	 1.013167470062905e+000	 1.283612110830149e+001
 1.998639015383027e+000	 1.033412834359236e+000	 1.304883612745575e+001
 1.776568013657048e+000	 9.185891861080785e-001	 1.340590642200181e+001
 1.767181791275910e+000	 9.365193626221506e-001	 1.327381716024389e+001
 1.757599916804693e+000	 9.543807062332065e-001	 1.315208945215468e+001
 1.747823022222099e+000	 9.721700895268440e-001	 1.303918942484365e+001
 1.737851804855421e+000	 9.898843893801800e-001	 1.293352029865605e+001
 1.727687027486658e+000	 1.007520488639881e+000	 1.283342330037736e+001
 1.717329518407680e+000	 1.025075277809822e+000	 1.273717872495920e+001
 1.706780171423915e+000	 1.042545656746593e+000	 1.264300714663514e+001
 1.696039945806038e+000	 1.059928536361033e+000	 1.254907077988891e+001
 1.685109866189261e+000	 1.077220840323977e+000	 1.245347499031640e+001
 1.673991022419878e+000	 1.094419506774317e+000	 1.235426995499574e+001
 1.798775113827414e+000	 9.300715509331942e-001	 1.345290274807960e+001
 1.789271563665848e+000	 9.482258546533824e-001	 1.329463272323188e+001
 1.779569915763154e+000	 9.663104650593969e-001	 1.315064262834529e+001
 1.769670809997764e+000	 9.843222156441563e-001	 1.301959683393843e+001
 1.759574952413566e+000	 1.002257944245742e+000	 1.290009336289685e+001
 1.749283115327332e+000	 1.020114494746404e+000	 1.279066456102932e+001
 1.738796137384582e+000	 1.037888718781318e+000	 1.268977792050439e+001
 1.728114923563311e+000	 1.055577477455279e+000	 1.259583705751701e+001
 1.717240445125080e+000	 1.073177643065515e+000	 1.250718284511934e+001
 1.706173739513039e+000	 1.090686100828744e+000	 1.242209470172016e+001
 1.694915910196563e+000	 1.108099750610596e+000	 1.233879203531988e+001
 1.820982213998275e+000	 9.415539157583098e-001	 1.343962638575172e+001
 1.811361336056378e+000	 9.599323466846091e-001	 1.326265933326703e+001
 1.801539914722290e+000	 9.782402238855674e-001	 1.310392666176314e+001
 1.791518597774181e+000	 9.964743417614238e-001	 1.296228734365311e+001
 1.781298099972527e+000	 1.014631499111225e+000	 1.283653046493783e+001
 1.770879203168879e+000	 1.032708500852804e+000	 1.272537565533845e+001
 1.760262756362402e+000	 1.050702159752635e+000	 1.262747367586767e+001
 1.749449675703662e+000	 1.068609298163722e+000	 1.254140716566967e+001
 1.738440944445101e+000	 1.086426749769679e+000	 1.246569154953375e+001
 1.727237612837812e+000	 1.104151361333108e+000	 1.239877610704843e+001
 1.715840797974247e+000	 1.121779994446377e+000	 1.233904520391209e+001
 1.843189314169633e+000	 9.530362805834256e-001	 1.336437841946365e+001
 1.833451108447498e+000	 9.716388387158305e-001	 1.317589310572020e+001
 1.823509913682104e+000	 9.901699827117182e-001	 1.300963538152067e+001
 1.813366385551350e+000	 1.008626467878648e+000	 1.286465532910972e+001
 1.803021247532308e+000	 1.027005053976629e+000	 1.273992950622682e+001
 1.792475291011298e+000	 1.045302506959080e+000	 1.263436113789419e+001
 1.781729375341141e+000	 1.063515600723774e+000	 1.254678047040313e+001
 1.770784427844967e+000	 1.081641118871923e+000	 1.247594528980780e+001
 1.759641443766101e+000	 1.099675856473525e+000	 1.242054160680208e+001
 1.748301486163579e+000	 1.117616621837070e+000	 1.237918450940649e+001
 1.736765685752931e+000	 1.135460238281661e+000	 1.235041918442886e+001
 1.865396414341487e+000	 9.645186454085410e-001	 1.322545005125440e+001
 1.855540880839211e+000	 9.833453307470476e-001	 1.303233409763561e+001
 1.845479912642593e+000	 1.002099741537849e+000	 1.286548031683375e+001
 1.835214173329270e+000	 1.020778593995827e+000	 1.272412655160004e+001
 1.824744395092904e+000	 1.039378608841954e+000	 1.260743338136889e+001
 1.814071378854591e+000	 1.057896513065233e+000	 1.251448407764220e+001
 1.803195994320799e+000	 1.076329041694735e+000	 1.244428472653331e+001
 1.792119179987226e+000	 1.094672939579881e+000	 1.239576452125916e+001
 1.780841943088082e+000	 1.112924963177054e+000	 1.236777622692623e+001
 1.769365359490342e+000	 1.131081882340630e+000	 1.235909681949582e+001
 1.757690573532616e+000	 1.149140482116448e+000	 1.236842830034008e+001
 1.887603514513837e+000	 9.760010102336569e-001	 1.318473420155295e+001
 1.877630653231514e+000	 9.950518227782595e-001	 1.286309947502905e+001
 1.867449911603760e+000	 1.014029500363961e+000	 1.266918965583913e+001
 1.857061961107944e+000	 1.032930720112961e+000	 1.253815631234019e+001
 1.846467542654319e+000	 1.051752163707200e+000	 1.243622733146988e+001
 1.835667466698757e+000	 1.070490519171262e+000	 1.236266261586330e+001
 1.824662613301375e+000	 1.089142482665518e+000	 1.231664057780398e+001
 1.813453932130439e+000	 1.107704760287595e+000	 1.229725820792833e+001
 1.802042442411042e+000	 1.126174069880265e+000	 1.230353132233768e+001
 1.790429232818099e+000	 1.144547142843787e+000	 1.233439499046152e+001
 1.778615461313300e+000	 1.162820725950737e+000	 1.238870414552801e+001
 1.909810614686682e+000	 9.874833750587725e-001	 1.322577563004426e+001
 1.899720425624409e+000	 1.006758314809467e+000	 1.289551223172635e+001
 1.889419910565603e+000	 1.025959259190053e+000	 1.260357716963892e+001
 1.878909748887369e+000	 1.045082846230052e+000	 1.235229638442514e+001
 1.868190690216551e+000	 1.064125718572367e+000	 1.222353648213058e+001
 1.857263554543797e+000	 1.083084525277168e+000	 1.217586676429354e+001
 1.846129232282870e+000	 1.101955923636123e+000	 1.216056593219095e+001
 1.834788684274606e+000	 1.120736580995068e+000	 1.217689528821664e+001
 1.823242941734981e+000	 1.139423176583158e+000	 1.222403011822165e+001
 1.811493106146852e+000	 1.158012403346542e+000	 1.230105991077303e+001
 1.799540349094984e+000	 1.176500969784529e+000	 1.240698876624017e+001
 1.932017714860024e+000	 9.989657398838882e-001	 1.323143491693007e+001
 1.921810198017894e+000	 1.018464806840669e+000	 1.289854466498424e+001
 1.911389909528122e+000	 1.037889018016125e+000	 1.260600118709269e+001
 1.900757536667546e+000	 1.057234972347098e+000	 1.235638605131920e+001
 1.889913837779600e+000	 1.076499273437455e+000	 1.215232524555298e+001
 1.878859642389709e+000	 1.095678531382949e+000	 1.199648612499112e+001
 1.867595851265284e+000	 1.114769364606549e+000	 1.197283880690269e+001
 1.856123436419727e+000	 1.133768401702297e+000	 1.203121594674056e+001
 1.844443441059901e+000	 1.152672283285734e+000	 1.212557813454238e+001
 1.832556979476599e+000	 1.171477663848894e+000	 1.225516571828617e+001
 1.820465236877668e+000	 1.190181213617824e+000	 1.241912831325187e+001
 1.954224815033862e+000	 1.010448104709004e+000	 1.320298731642988e+001
 1.943899970411971e+000	 1.030171298871866e+000	 1.287323793995788e+001
 1.933359908491318e+000	 1.049818776842177e+000	 1.258578228417799e+001
 1.922605324448474e+000	 1.069387098464099e+000	 1.234345588481620e+001
 1.911636985343467e+000	 1.088872828302464e+000	 1.214914108246338e+001
 1.900455730236494e+000	 1.108272537488608e+000	 1.200576369670538e+001
 1.889062470248617e+000	 1.127582805576798e+000	 1.191628952573056e+001
 1.877458188565803e+000	 1.146800222409283e+000	 1.188372067567703e+001
 1.865643940385800e+000	 1.165921389987992e+000	 1.200455851020343e+001
 1.853620852807341e+000	 1.184942924350843e+000	 1.219287450198231e+001
 1.841390124661353e+000	 1.203861457450621e+000	 1.242106712683625e+001
 1.976431915208197e+000	 1.021930469534119e+000	 1.314170073255551e+001
 1.965989742806639e+000	 1.041877790903058e+000	 1.282063615348946e+001
 1.955329907455190e+000	 1.061748535668210e+000	 1.254374063199423e+001
 1.944453112230155e+000	 1.081539224581056e+000	 1.231410213080585e+001
 1.933360132908152e+000	 1.101246383167394e+000	 1.213485789321701e+001
 1.922051818084153e+000	 1.120866543594143e+000	 1.200919084515208e+001
 1.910529089232867e+000	 1.140396246546868e+000	 1.194032581406048e+001
 1.898792940712833e+000	 1.159832043116027e+000	 1.193152556927300e+001
 1.886844439712678e+000	 1.179170496689933e+000	 1.198608668907500e+001
 1.874684726139078e+000	 1.198408184852391e+000	 1.211043136089388e+001
 1.862315012446037e+000	 1.217541701282921e+000	 1.240884222050029e+001
 1.998639015383027e+000	 1.033412834359236e+000	 1.304883612745575e+001
 1.988079515201900e+000	 1.053584282934246e+000	 1.274178617123668e+001
 1.977299906419740e+000	 1.073678294494223e+000	 1.248070883501942e+001
 1.966300900012589e+000	 1.093691350697970e+000	 1.226894308228790e+001
 1.955083280473655e+000	 1.113619938032245e+000	 1.210987972487189e+001
 1.943647905932685e+000	 1.133460549699554e+000	 1.200695755416665e+001
 1.931995708218038e+000	 1.153209687516760e+000	 1.196365928033822e+001
 1.920127692860818e+000	 1.172863863822527e+000	 1.198350728453888e+001
 1.908044939040537e+000	 1.192419603391557e+000	 1.207005918979564e+001
 1.895748599471811e+000	 1.211873445353536e+000	 1.222690325686635e+001
 1.883239900231722e+000	 1.231221945114724e+000	 1.245765361198265e+001
 1.673991022419878e+000	 1.094419506774317e+000	 1.235426995499574e+001
 1.662684569349107e+000	 1.111521490027895e+000	 1.229873924716334e+001
 1.651191726573076e+000	 1.128523762284198e+000	 1.226964950818735e+001
 1.639513778119492e+000	 1.145423315329686e+000	 1.226652929096888e+001
 1.627652072081567e+000	 1.162217162236540e+000	 1.228883548612665e+001
 1.615608020198319e+000	 1.178902339053813e+000	 1.233595383194230e+001
 1.603383097381649e+000	 1.195475906489392e+000	 1.240719958453191e+001
 1.590978841190437e+000	 1.211934951580843e+000	 1.250181834803279e+001
 1.578396851251905e+000	 1.228276589353182e+000	 1.261898706412825e+001
 1.565638788630636e+000	 1.244497964461667e+000	 1.275781515976012e+001
 1.552706375145675e+000	 1.260596252817663e+000	 1.228877517614771e+001
 1.694915910196563e+000	 1.108099750610596e+000	 1.233879203531988e+001
 1.683468126462488e+000	 1.125415508655709e+000	 1.235913332898119e+001
 1.671831623151878e+000	 1.142630309315913e+000	 1.240707948698452e+001
 1.660007700342781e+000	 1.159741106774995e+000	 1.248202674639505e+001
 1.647997722979581e+000	 1.176744876768540e+000	 1.258329674212376e+001
 1.635803120448028e+000	 1.193638618296214e+000	 1.271013715195293e+001
 1.623425386096425e+000	 1.210419355324751e+000	 1.286172250865490e+001
 1.610866076703136e+000	 1.227084138479686e+000	 1.303715517879667e+001
 1.598126811890725e+000	 1.243630046723849e+000	 1.323546650733654e+001
 1.585209273487081e+000	 1.260054189020686e+000	 1.287196901529466e+001
 1.572115204833990e+000	 1.276353705980456e+000	 1.214865043979656e+001
 1.715840797974247e+000	 1.121779994446377e+000	 1.233904520391209e+001
 1.704251683576865e+000	 1.139309527282935e+000	 1.243195618153356e+001
 1.692471519731658e+000	 1.156736856346968e+000	 1.255373080427221e+001
 1.680501622567026e+000	 1.174058898219595e+000	 1.270363396419651e+001
 1.668343373878515e+000	 1.191272591299802e+000	 1.288085290205114e+001
 1.655998220698613e+000	 1.208374897537865e+000	 1.308449798644591e+001
 1.643467674812022e+000	 1.225362804159370e+000	 1.331360366719906e+001
 1.630753312216592e+000	 1.242233325377819e+000	 1.356712960223567e+001
 1.617856772530227e+000	 1.258983504093854e+000	 1.333679899253975e+001
 1.604779758344124e+000	 1.275610413579115e+000	 1.267604189646309e+001
 1.591524034522806e+000	 1.292111159142748e+000	 1.201831729422473e+001
 1.736765685752931e+000	 1.135460238281661e+000	 1.235041918442886e+001
 1.725035240692236e+000	 1.153203545909574e+000	 1.251272248187151e+001
 1.713111416312420e+000	 1.170843403377367e+000	 1.270524359761074e+001
 1.700995544792228e+000	 1.188376689663487e+000	 1.292711698102668e+001
 1.688689024778370e+000	 1.205800305830324e+000	 1.317739627047483e+001
 1.676193320950074e+000	 1.223111176778767e+000	 1.345505520578081e+001
 1.663509963528440e+000	 1.240306252993249e+000	 1.375898872215035e+001
 1.650640547730804e+000	 1.257382512275241e+000	 1.368545159428063e+001
 1.637586733170410e+000	 1.274336961463199e+000	 1.309043537035654e+001
 1.624350243201763e+000	 1.291166638136952e+000	 1.249444039809402e+001
 1.610932864212123e+000	 1.307868612304539e+000	 1.189919263087232e+001
 1.757690573532616e+000	 1.149140482116448e+000	 1.236842830034008e+001
 1.745818797808603e+000	 1.167097564535626e+000	 1.259706548931093e+001
 1.733751312894162e+000	 1.184949950407107e+000	 1.285737060812552e+001
 1.721489467018384e+000	 1.202694481106671e+000	 1.314834850021332e+001
 1.709034675679145e+000	 1.220328020360107e+000	 1.346891992649929e+001
 1.696388421202410e+000	 1.237847456018919e+000	 1.381792261040588e+001
 1.683552252245678e+000	 1.255249701826387e+000	 1.391971601579283e+001
 1.670527783245771e+000	 1.272531699171952e+000	 1.339370472370672e+001
 1.657316693811274e+000	 1.289690418831883e+000	 1.286277084563035e+001
 1.643920728059998e+000	 1.306722862694198e+000	 1.232855496960067e+001
 1.630341693901942e+000	 1.323626065465828e+000	 1.179275986540898e+001
 1.778615461313300e+000	 1.162820725950737e+000	 1.238870414552801e+001
 1.766602354925964e+000	 1.180991583161090e+000	 1.268073007000541e+001
 1.754391209476883e+000	 1.199056497436190e+000	 1.300597055676809e+001
 1.741983389245496e+000	 1.217012272549147e+000	 1.336330161724801e+001
 1.729380326580841e+000	 1.234855734889153e+000	 1.375151179585357e+001
 1.716583521455622e+000	 1.252583735258322e+000	 1.404096883122411e+001
 1.703594540963738e+000	 1.270193150658786e+000	 1.358731670699066e+001
 1.690415018761495e+000	 1.287680886067954e+000	 1.312486928827996e+001
 1.677046654452819e+000	 1.305043876199906e+000	 1.265517298756223e+001
 1.663491212918830e+000	 1.322279087250852e+000	 1.217984390702654e+001
 1.649750523592262e+000	 1.339383518626616e+000	 1.170056502454420e+001
 1.799540349094984e+000	 1.176500969784529e+000	 1.240698876624017e+001
 1.787385912044321e+000	 1.194885601785967e+000	 1.275956620817618e+001
 1.775031106060586e+000	 1.213163044464615e+000	 1.314700198269805e+001
 1.762477311473562e+000	 1.231330063990914e+000	 1.356804398303247e+001
 1.749725977483457e+000	 1.249383449417458e+000	 1.402134913655252e+001
 1.736778621709710e+000	 1.267320014496975e+000	 1.367231575094600e+001
 1.723636829682618e+000	 1.285136599490444e+000	 1.328187903577376e+001
 1.710302254277975e+000	 1.302830072963244e+000	 1.288029308518215e+001
 1.696776615095046e+000	 1.320397333567267e+000	 1.246907825357052e+001
 1.683061697778257e+000	 1.337835311806915e+000	 1.204982940847396e+001
 1.669159353283084e+000	 1.355140971786903e+000	 1.162421310585061e+001
 1.820465236877668e+000	 1.190181213617824e+000	 1.241912831325187e+001
 1.808169469163672e+000	 1.208779620410255e+000	 1.282952296484415e+001
 1.795671002645268e+000	 1.227269591492382e+000	 1.327651750660455e+001
 1.782971233702584e+000	 1.245647855431973e+000	 1.375873236965961e+001
 1.770071628386993e+000	 1.263911163945025e+000	 1.364931015079448e+001
 1.756973721964674e+000	 1.282056293734879e+000	 1.333451101533002e+001
 1.743679118402319e+000	 1.300080048321363e+000	 1.300473371821451e+001
 1.730189489795211e+000	 1.317979259857824e+000	 1.266139358977334e+001
 1.716506575737954e+000	 1.335750790933969e+000	 1.230598803019782e+001
 1.702632182638282e+000	 1.353391536362387e+000	 1.194009390157193e+001
 1.688568182974407e+000	 1.370898424946689e+000	 1.156536468863407e+001
 1.841390124661353e+000	 1.203861457450621e+000	 1.242106712683625e+001
 1.828953026284019e+000	 1.222673639033957e+000	 1.288664284846583e+001
 1.816310899230930e+000	 1.241376138519491e+000	 1.339065848516471e+001
 1.803465155932562e+000	 1.259965646872324e+000	 1.351845971132435e+001
 1.790417279291451e+000	 1.278438878471852e+000	 1.328303018255621e+001
 1.777168822220513e+000	 1.296792572972034e+000	 1.302887056631347e+001
 1.763721407122842e+000	 1.315023497151540e+000	 1.275728171320652e+001
 1.750076725313204e+000	 1.333128446751693e+000	 1.246965399660443e+001
 1.736236536381543e+000	 1.351104248300008e+000	 1.216746494395637e+001
 1.722202667498902e+000	 1.368947760917268e+000	 1.185227662134418e+001
 1.707977012666231e+000	 1.386655878105973e+000	 1.152573277588069e+001
 1.862315012446037e+000	 1.217541701282921e+000	 1.240884222050029e+001
 1.849736583405360e+000	 1.236567657657071e+000	 1.292705656507762e+001
 1.836950795817573e+000	 1.255482685545942e+000	 1.327946491439647e+001
 1.823959078163495e+000	 1.274283438311965e+000	 1.312724344941998e+001
 1.810762930196829e+000	 1.292966592997942e+000	 1.295262321026621e+001
 1.797363922477228e+000	 1.311528852208439e+000	 1.275678095170522e+001
 1.783763695844185e+000	 1.329966945980979e+000	 1.254099027623883e+001
 1.769963960831952e+000	 1.348277633644852e+000	 1.230661952732807e+001
 1.755966497025814e+000	 1.366457705665388e+000	 1.205512942088032e+001
 1.741773152360119e+000	 1.384503985471558e+000	 1.178807041878255e+001
 1.727385842358557e+000	 1.402413331264755e+000	 1.150707984910625e+001
 1.883239900231722e+000	 1.231221945114724e+000	 1.245765361198265e+001
 1.870520140527698e+000	 1.250461676279598e+000	 1.293155766327455e+001
 1.857590692405196e+000	 1.269589232571736e+000	 1.286648918763934e+001
 1.844453000395384e+000	 1.288601229750900e+000	 1.277544338017717e+001
 1.831108581103128e+000	 1.307494307523293e+000	 1.265946314414950e+001
 1.817559022734820e+000	 1.326265131444095e+000	 1.251969540263729e+001
 1.803805984566350e+000	 1.344910394809678e+000	 1.235738927625158e+001
 1.789851196351457e+000	 1.363426820537300e+000	 1.217389398474833e+001
 1.775696457670766e+000	 1.381811163030106e+000	 1.197065647544127e+001
 1.761343637221933e+000	 1.400060210025257e+000	 1.174921878218197e+001
 1.746794672051384e+000	 1.418170784423037e+000	 1.151121511954918e+001
 1.552706375145675e+000	 1.260596252817663e+000	 1.228877517614771e+001
 1.539601392635642e+000	 1.276568663195416e+000	 1.212380114238749e+001
 1.526325682174240e+000	 1.292412438818711e+000	 1.196580050869304e+001
 1.512881143235718e+000	 1.308124858924892e+000	 1.181660125899964e+001
 1.499269732809776e+000	 1.323703240303929e+000	 1.167806429277440e+001
 1.485493464468560e+000	 1.339144938811550e+000	 1.155207993951819e+001
 1.471554407386076e+000	 1.354447350854373e+000	 1.144056434955931e+001
 1.457454685310996e+000	 1.369607914845310e+000	 1.134545576942303e+001
 1.443196475493934e+000	 1.384624112627510e+000	 1.126871071049494e+001
 1.428782007570309e+000	 1.399493470865234e+000	 1.121230002010026e+001
 1.414213562400000e+000	 1.414213562400000e+000	 1.117820486449948e+001
 1.572115204833990e+000	 1.276353705980456e+000	 1.214865043979656e+001
 1.558846410042997e+000	 1.292525771487219e+000	 1.204726307585314e+001
 1.545404753201173e+000	 1.308567594305194e+000	 1.194826129853941e+001
 1.531792157526195e+000	 1.324476419662191e+000	 1.185335397074769e+001
 1.518010604470134e+000	 1.340249530808056e+000	 1.176428910769521e+001
 1.504062132774790e+000	 1.355884250546714e+000	 1.168285046481235e+001
 1.489948837478840e+000	 1.371377942739865e+000	 1.161085399068724e+001
 1.475672868877818e+000	 1.386728013780583e+000	 1.155014415331122e+001
 1.461236431437968e+000	 1.401931914035057e+000	 1.150259014833466e+001
 1.446641782665152e+000	 1.416987139250850e+000	 1.147008199847606e+001
 1.431891231930000e+000	 1.431891231930000e+000	 1.145452655363534e+001
 1.591524034522806e+000	 1.292111159142748e+000	 1.201831729422473e+001
 1.578091427450757e+000	 1.308482879778616e+000	 1.197358683219216e+001
 1.564483824228427e+000	 1.324722749791355e+000	 1.192668043730430e+001
 1.550703171816918e+000	 1.340827980399244e+000	 1.187919344126079e+001
 1.536751476130674e+000	 1.356795821312003e+000	 1.183276662233117e+001
 1.522630801081145e+000	 1.372623562281752e+000	 1.178908285986368e+001
 1.508343267571685e+000	 1.388308534625278e+000	 1.174986364244703e+001
 1.493891052444684e+000	 1.403848112715812e+000	 1.171686543794487e+001
 1.479276387382022e+000	 1.419239715442584e+000	 1.169187593411622e+001
 1.464501557760002e+000	 1.434480807636461e+000	 1.167671015900036e+001
 1.449568901460000e+000	 1.449568901460000e+000	 1.167320649068267e+001
 1.610932864212123e+000	 1.307868612304539e+000	 1.189919263087232e+001
 1.597336444858925e+000	 1.324439988069607e+000	 1.190441779832933e+001
 1.583562895256001e+000	 1.340877905277195e+000	 1.190292668767954e+001
 1.569614186107887e+000	 1.357179541136051e+000	 1.189620660233249e+001
 1.555492347791394e+000	 1.373342111815769e+000	 1.188579664796107e+001
 1.541199469387625e+000	 1.389362874016665e+000	 1.187328444692514e+001
 1.526737697664610e+000	 1.405239126510609e+000	 1.186030269477263e+001
 1.512109236011596e+000	 1.420968211650994e+000	 1.184852556702361e+001
 1.497316343326096e+000	 1.436547516850091e+000	 1.183966498497063e+001
 1.482361332854855e+000	 1.451974476022067e+000	 1.183546674972267e+001
 1.467246570990000e+000	 1.467246570990000e+000	 1.183770655418898e+001
 1.630341693901942e+000	 1.323626065465828e+000	 1.179275986540898e+001
 1.616581462267498e+000	 1.340397096360191e+000	 1.184145604882559e+001
 1.602641966283898e+000	 1.357033060762714e+000	 1.187891182389410e+001
 1.588525200399102e+000	 1.373531101872612e+000	 1.190651188752758e+001
 1.574233219452295e+000	 1.389888402319353e+000	 1.192569915994528e+001
 1.559768137694231e+000	 1.406102185751452e+000	 1.193797155236145e+001
 1.545132127757616e+000	 1.422169718395860e+000	 1.194487856499577e+001
 1.530327419578553e+000	 1.438088310586132e+000	 1.194801772361308e+001
 1.515356299270190e+000	 1.453855318257577e+000	 1.194903086335573e+001
 1.500221107949714e+000	 1.469468144407668e+000	 1.194960026916193e+001
 1.484924240520000e+000	 1.484924240520000e+000	 1.195144468255918e+001
 1.649750523592262e+000	 1.339383518626616e+000	 1.170056502454420e+001
 1.635826479676479e+000	 1.356354204650368e+000	 1.178645312895835e+001
 1.621721037312116e+000	 1.373188216247912e+000	 1.185658810162379e+001
 1.607436214690563e+000	 1.389882662608927e+000	 1.191225737913670e+001
 1.592974091113377e+000	 1.406434692822758e+000	 1.195481311160358e+001
 1.578336806000964e+000	 1.422841497486115e+000	 1.198566897699497e+001
 1.563526557850701e+000	 1.439100310281031e+000	 1.200629681388121e+001
 1.548545603145556e+000	 1.455208409521225e+000	 1.201822308077051e+001
 1.533396255214304e+000	 1.471163119665044e+000	 1.202302515086058e+001
 1.518080883044578e+000	 1.486961812793264e+000	 1.202232745157294e+001
 1.502601910049999e+000	 1.502601910049999e+000	 1.201779745876977e+001
 1.669159353283084e+000	 1.355140971786903e+000	 1.162421310585061e+001
 1.655071497085865e+000	 1.372311312940140e+000	 1.174120906223808e+001
 1.640800108340654e+000	 1.389343371732789e+000	 1.183794590441875e+001
 1.626347228982270e+000	 1.406234223344997e+000	 1.191561908441332e+001
 1.611714962774640e+000	 1.422980983325981e+000	 1.197549533084535e+001
 1.596905474307821e+000	 1.439580809220651e+000	 1.201890950340534e+001
 1.581920987943868e+000	 1.456030902166122e+000	 1.204726125356667e+001
 1.566763786712603e+000	 1.472328508456272e+000	 1.206201149980095e+001
 1.551436211158438e+000	 1.488470921072491e+000	 1.206467872616288e+001
 1.535940658139447e+000	 1.504455481178855e+000	 1.205683511370612e+001
 1.520279579580000e+000	 1.520279579580000e+000	 1.204010251475432e+001
 1.688568182974407e+000	 1.370898424946689e+000	 1.156536468863407e+001
 1.674316514495657e+000	 1.388268421229506e+000	 1.170756956430296e+001
 1.659879179369514e+000	 1.405498527217345e+000	 1.182501155244640e+001
 1.645258243274223e+000	 1.422585784080820e+000	 1.191879933069084e+001
 1.630455834436084e+000	 1.439527273829024e+000	 1.199011949289432e+001
 1.615474142614804e+000	 1.456320120955061e+000	 1.204023343720717e+001
 1.600315418037114e+000	 1.472961494051132e+000	 1.207047404805878e+001
 1.584981970279697e+000	 1.489448607391275e+000	 1.208224218035822e+001
 1.569476167102593e+000	 1.505778722479917e+000	 1.207700295485153e+001
 1.553800433234320e+000	 1.521949149564441e+000	 1.205628187420396e+001
 1.537957249110000e+000	 1.537957249110000e+000	 1.202166076996912e+001
 1.707977012666231e+000	 1.386655878105973e+000	 1.152573277588069e+001
 1.693561531905856e+000	 1.404225529518465e+000	 1.168742344677537e+001
 1.678958250398694e+000	 1.421653682701579e+000	 1.181984526063813e+001
 1.664169257566422e+000	 1.438937344816397e+000	 1.192402526992341e+001
 1.649196706097708e+000	 1.456073564331886e+000	 1.200107516305484e+001
 1.634042810921913e+000	 1.473059432689346e+000	 1.205218817960531e+001
 1.618709848130441e+000	 1.489892085936062e+000	 1.207863580687677e+001
 1.603200153846835e+000	 1.506568706326231e+000	 1.208176426622013e+001
 1.587516123046767e+000	 1.523086523887323e+000	 1.206299079812482e+001
 1.571660208329199e+000	 1.539442817950022e+000	 1.202379975576657e+001
 1.555634918639999e+000	 1.555634918639999e+000	 1.196573851732940e+001
 1.727385842358557e+000	 1.402413331264755e+000	 1.150707984910625e+001
 1.712806549316460e+000	 1.420182637807017e+000	 1.168270019613929e+001
 1.698037321428197e+000	 1.437808838185493e+000	 1.182453923448924e+001
 1.683080271858867e+000	 1.455288905551728e+000	 1.193354748404450e+001
 1.667937577759513e+000	 1.472619854834567e+000	 1.201076690401067e+001
 1.652611479229147e+000	 1.489798744423506e+000	 1.205732782876597e+001
 1.637104278223849e+000	 1.506822677820911e+000	 1.207444567238331e+001
 1.621418337414018e+000	 1.523688805261143e+000	 1.206341741022573e+001
 1.605556078990962e+000	 1.540394325294709e+000	 1.202561784674484e+001
 1.589519983424083e+000	 1.556936486335598e+000	 1.196249567930557e+001
 1.573312588170000e+000	 1.573312588170000e+000	 1.187556936852063e+001
 1.746794672051384e+000	 1.418170784423037e+000	 1.151121511954918e+001
 1.732051566727472e+000	 1.436139746095164e+000	 1.169536771402567e+001
 1.717116392458020e+000	 1.453963993669085e+000	 1.184121589280538e+001
 1.701991286151559e+000	 1.471640466286814e+000	 1.194963868330132e+001
 1.686678449421499e+000	 1.489166145337068e+000	 1.202161344263740e+001
 1.671180147536507e+000	 1.506538056157541e+000	 1.205821280776342e+001
 1.655498708317337e+000	 1.523753269705680e+000	 1.206060140129308e+001
 1.639636520981247e+000	 1.540808904196010e+000	 1.203003230154937e+001
 1.623596034935177e+000	 1.557702126702076e+000	 1.196784328606200e+001
 1.607379758518973e+000	 1.574430154721170e+000	 1.187545285848799e+001
 1.590990257700000e+000	 1.590990257700000e+000	 1.175435606962239e+001
 1.414213562400000e+000	 1.414213562400000e+000	 1.117820486449948e+001
 1.399493470865234e+000	 1.428782007570309e+000	 1.122442596074207e+001
 1.384624112627510e+000	 1.443196475493934e+000	 1.124942491271682e+001
 1.369607914845309e+000	 1.457454685310996e+000	 1.125390344790131e+001
 1.354447350854374e+000	 1.471554407386076e+000	 1.123860390145250e+001
 1.339144938811549e+000	 1.485493464468560e+000	 1.120430620109341e+001
 1.323703240303929e+000	 1.499269732809775e+000	 1.115182476100520e+001
 1.308124858924892e+000	 1.512881143235718e+000	 1.108200529394422e+001
 1.292412438818710e+000	 1.526325682174240e+000	 1.099572155103805e+001
 1.276568663195416e+000	 1.539601392635642e+000	 1.089387199891760e+001
 1.260596252817662e+000	 1.552706375145675e+000	 1.077737644400824e+001
 1.431891231930000e+000	 1.431891231930000e+000	 1.145452655363534e+001
 1.416987139250849e+000	 1.446641782665152e+000	 1.147065164205517e+001
 1.401931914035057e+000	 1.461236431437968e+000	 1.146869039337464e+001
 1.386728013780583e+000	 1.475672868877818e+000	 1.144951010426345e+001
 1.371377942739865e+000	 1.489948837478840e+000	 1.141401690581670e+001
 1.355884250546714e+000	 1.504062132774790e+000	 1.136315249334763e+001
 1.340249530808056e+000	 1.518010604470134e+000	 1.129789076632867e+001
 1.324476419662191e+000	 1.531792157526195e+000	 1.121923438826993e+001
 1.308567594305193e+000	 1.545404753201172e+000	 1.112821127656121e+001
 1.292525771487219e+000	 1.558846410042997e+000	 1.102587103250021e+001
 1.276353705980456e+000	 1.572115204833990e+000	 1.091328132189298e+001
 1.449568901460000e+000	 1.449568901460000e+000	 1.167320649068267e+001
 1.434480807636461e+000	 1.464501557760002e+000	 1.166181898763169e+001
 1.419239715442584e+000	 1.479276387382022e+000	 1.163535569916490e+001
 1.403848112715811e+000	 1.493891052444684e+000	 1.159485114690839e+001
 1.388308534625277e+000	 1.508343267571685e+000	 1.154137703692052e+001
 1.372623562281752e+000	 1.522630801081145e+000	 1.147603873010890e+001
 1.356795821312003e+000	 1.536751476130674e+000	 1.139997162374474e+001
 1.340827980399244e+000	 1.550703171816917e+000	 1.131433745444840e+001
 1.324722749791355e+000	 1.564483824228426e+000	 1.122032053325265e+001
 1.308482879778616e+000	 1.578091427450757e+000	 1.111912392354818e+001
 1.292111159142748e+000	 1.591524034522806e+000	 1.101196557287017e+001
 1.467246570990000e+000	 1.467246570990000e+000	 1.183770655418898e+001
 1.451974476022067e+000	 1.482361332854855e+000	 1.180123869462467e+001
 1.436547516850091e+000	 1.497316343326095e+000	 1.175258210358845e+001
 1.420968211650994e+000	 1.512109236011596e+000	 1.169294028979267e+001
 1.405239126510609e+000	 1.526737697664610e+000	 1.162355241894907e+001
 1.389362874016665e+000	 1.541199469387626e+000	 1.154568952040098e+001
 1.373342111815768e+000	 1.555492347791394e+000	 1.146065060561129e+001
 1.357179541136051e+000	 1.569614186107887e+000	 1.136975870947427e+001
 1.340877905277195e+000	 1.583562895256002e+000	 1.127435686565381e+001
 1.324439988069607e+000	 1.597336444858925e+000	 1.117580402734333e+001
 1.307868612304539e+000	 1.610932864212123e+000	 1.107547094499466e+001
 1.484924240520000e+000	 1.484924240520000e+000	 1.195144468255918e+001
 1.469468144407668e+000	 1.500221107949714e+000	 1.189218301755734e+001
 1.453855318257577e+000	 1.515356299270189e+000	 1.182349778895627e+001
 1.438088310586132e+000	 1.530327419578554e+000	 1.174676335850376e+001
 1.422169718395860e+000	 1.545132127757616e+000	 1.166338833947028e+001
 1.406102185751452e+000	 1.559768137694231e+000	 1.157481153496333e+001
 1.389888402319353e+000	 1.574233219452295e+000	 1.148249778866551e+001
 1.373531101872612e+000	 1.588525200399102e+000	 1.138793375957020e+001
 1.357033060762714e+000	 1.602641966283898e+000	 1.129262363252508e+001
 1.340397096360191e+000	 1.616581462267498e+000	 1.119808477658354e+001
 1.323626065465828e+000	 1.630341693901942e+000	 1.110584336331253e+001
 1.502601910049999e+000	 1.502601910049999e+000	 1.201779745876977e+001
 1.486961812793264e+000	 1.518080883044577e+000	 1.193788802965455e+001
 1.471163119665044e+000	 1.533396255214303e+000	 1.185119979293010e+001
 1.455208409521225e+000	 1.548545603145556e+000	 1.175927993075242e+001
 1.439100310281031e+000	 1.563526557850701e+000	 1.166370859276538e+001
 1.422841497486115e+000	 1.578336806000964e+000	 1.156609456144408e+001
 1.406434692822758e+000	 1.592974091113377e+000	 1.146807083023716e+001
 1.389882662608928e+000	 1.607436214690563e+000	 1.137129010670283e+001
 1.373188216247912e+000	 1.621721037312115e+000	 1.127742025306793e+001
 1.356354204650369e+000	 1.635826479676478e+000	 1.118813967682857e+001
 1.339383518626616e+000	 1.649750523592262e+000	 1.110513268415538e+001
 1.520279579580000e+000	 1.520279579580000e+000	 1.204010251475432e+001
 1.504455481178855e+000	 1.535940658139447e+000	 1.194155572640638e+001
 1.488470921072491e+000	 1.551436211158438e+000	 1.183875581925806e+001
 1.472328508456272e+000	 1.566763786712603e+000	 1.173342486241183e+001
 1.456030902166122e+000	 1.581920987943868e+000	 1.162731672943854e+001
 1.439580809220651e+000	 1.596905474307821e+000	 1.152221248597521e+001
 1.422980983325981e+000	 1.611714962774640e+000	 1.141991569030702e+001
 1.406234223344997e+000	 1.626347228982270e+000	 1.132224761976040e+001
 1.389343371732789e+000	 1.640800108340654e+000	 1.123104243596917e+001
 1.372311312940140e+000	 1.655071497085865e+000	 1.114814230226415e+001
 1.355140971786903e+000	 1.669159353283084e+000	 1.107539246657740e+001
 1.537957249110000e+000	 1.537957249110000e+000	 1.202166076996912e+001
 1.521949149564441e+000	 1.553800433234320e+000	 1.190635598405883e+001
 1.505778722479917e+000	 1.569476167102593e+000	 1.178920592363162e+001
 1.489448607391274e+000	 1.584981970279696e+000	 1.167210970831316e+001
 1.472961494051132e+000	 1.600315418037114e+000	 1.155699721984661e+001
 1.456320120955061e+000	 1.615474142614804e+000	 1.144582420705273e+001
 1.439527273829024e+000	 1.630455834436083e+000	 1.134056730376837e+001
 1.422585784080820e+000	 1.645258243274223e+000	 1.124321897323553e+001
 1.405498527217345e+000	 1.659879179369514e+000	 1.115578239264897e+001
 1.388268421229505e+000	 1.674316514495657e+000	 1.108026629175789e+001
 1.370898424946689e+000	 1.688568182974407e+000	 1.101867975955504e+001
 1.555634918639999e+000	 1.555634918639999e+000	 1.196573851732940e+001
 1.539442817950022e+000	 1.571660208329199e+000	 1.183542838457079e+001
 1.523086523887323e+000	 1.587516123046767e+000	 1.170556408459789e+001
 1.506568706326231e+000	 1.603200153846835e+000	 1.157822404616807e+001
 1.489892085936062e+000	 1.618709848130441e+000	 1.145551653820403e+001
 1.473059432689346e+000	 1.634042810921913e+000	 1.133957448710695e+001
 1.456073564331886e+000	 1.649196706097708e+000	 1.123255020685234e+001
 1.438937344816397e+000	 1.664169257566422e+000	 1.113661005599751e+001
 1.421653682701579e+000	 1.678958250398695e+000	 1.105392903596898e+001
 1.404225529518465e+000	 1.693561531905856e+000	 1.098668534518403e+001
 1.386655878105973e+000	 1.707977012666231e+000	 1.093705490369611e+001
 1.573312588170000e+000	 1.573312588170000e+000	 1.187556936852063e+001
 1.556936486335598e+000	 1.589519983424083e+000	 1.173188391754031e+001
 1.540394325294709e+000	 1.605556078990961e+000	 1.159081966856770e+001
 1.523688805261142e+000	 1.621418337414017e+000	 1.145463671123862e+001
 1.506822677820910e+000	 1.637104278223849e+000	 1.132562417360207e+001
 1.489798744423506e+000	 1.652611479229147e+000	 1.120609474666341e+001
 1.472619854834567e+000	 1.667937577759513e+000	 1.109837912132243e+001
 1.455288905551728e+000	 1.683080271858867e+000	 1.100482035250725e+001
 1.437808838185492e+000	 1.698037321428197e+000	 1.092776816554483e+001
 1.420182637807018e+000	 1.712806549316460e+000	 1.086957321999625e+001
 1.402413331264755e+000	 1.727385842358557e+000	 1.083258134631664e+001
 1.590990257700000e+000	 1.590990257700000e+000	 1.175435606962239e+001
 1.574430154721170e+000	 1.607379758518973e+000	 1.159880656866901e+001
 1.557702126702076e+000	 1.623596034935176e+000	 1.144793879715663e+001
 1.540808904196010e+000	 1.639636520981247e+000	 1.130419694869534e+001
 1.523753269705680e+000	 1.655498708317338e+000	 1.117005357362672e+001
 1.506538056157540e+000	 1.671180147536507e+000	 1.104800380555972e+001
 1.489166145337068e+000	 1.686678449421500e+000	 1.094055949972270e+001
 1.471640466286814e+000	 1.701991286151559e+000	 1.085024329861759e+001
 1.453963993669085e+000	 1.717116392458020e+000	 1.077958264070402e+001
 1.436139746095164e+000	 1.732051566727472e+000	 1.073110372802865e+001
 1.418170784423037e+000	 1.746794672051384e+000	 1.070732546884592e+001
 1.260596252817662e+000	 1.552706375145675e+000	 1.077737644400824e+001
 1.244497964461667e+000	 1.565638788630635e+000	 1.056393084044122e+001
 1.228276589353182e+000	 1.578396851251904e+000	 1.042471783387731e+001
 1.211934951580842e+000	 1.590978841190437e+000	 1.027995265093343e+001
 1.195475906489392e+000	 1.603383097381649e+000	 1.012881715995868e+001
 1.178902339053813e+000	 1.615608020198319e+000	 9.970496088270561e+000
 1.162217162236540e+000	 1.627652072081567e+000	 9.804177860294477e+000
 1.145423315329686e+000	 1.639513778119491e+000	 9.629055424886472e+000
 1.128523762284198e+000	 1.651191726573076e+000	 9.444327070608795e+000
 1.111521490027895e+000	 1.662684569349107e+000	 9.249197227767933e+000
 1.094419506774317e+000	 1.673991022419878e+000	 9.042877256064299e+000
 1.276353705980456e+000	 1.572115204833990e+000	 1.091328132189298e+001
 1.260054189020686e+000	 1.585209273487081e+000	 1.068509535476951e+001
 1.243630046723849e+000	 1.598126811890726e+000	 1.050815323962758e+001
 1.227084138479686e+000	 1.610866076703136e+000	 1.039826237737615e+001
 1.210419355324751e+000	 1.623425386096425e+000	 1.028086885979521e+001
 1.193638618296214e+000	 1.635803120448028e+000	 1.015510771309271e+001
 1.176744876768540e+000	 1.647997722979581e+000	 1.002011918542499e+001
 1.159741106774995e+000	 1.660007700342782e+000	 9.875049612601011e+000
 1.142630309315912e+000	 1.671831623151877e+000	 9.719052269296199e+000
 1.125415508655709e+000	 1.683468126462488e+000	 9.551288204548497e+000
 1.108099750610596e+000	 1.694915910196563e+000	 9.370927060354067e+000
 1.292111159142748e+000	 1.591524034522806e+000	 1.101196557287017e+001
 1.275610413579115e+000	 1.604779758344124e+000	 1.080576879477537e+001
 1.258983504093854e+000	 1.617856772530227e+000	 1.060634500979491e+001
 1.242233325377819e+000	 1.630753312216592e+000	 1.046662377594513e+001
 1.225362804159370e+000	 1.643467674812022e+000	 1.038258437835151e+001
 1.208374897537865e+000	 1.655998220698613e+000	 1.028904353915152e+001
 1.191272591299802e+000	 1.668343373878515e+000	 1.018509343028893e+001
 1.174058898219595e+000	 1.680501622567027e+000	 1.006983384660010e+001
 1.156736856346968e+000	 1.692471519731658e+000	 9.942373092968222e+000
 1.139309527282935e+000	 1.704251683576865e+000	 9.801828853308535e+000
 1.121779994446377e+000	 1.715840797974247e+000	 9.647329040171529e+000
 1.307868612304539e+000	 1.610932864212123e+000	 1.107547094499466e+001
 1.291166638136952e+000	 1.624350243201763e+000	 1.088920750738329e+001
 1.274336961463199e+000	 1.637586733170410e+000	 1.070896084706757e+001
 1.257382512275241e+000	 1.650640547730804e+000	 1.053636754651170e+001
 1.240306252993249e+000	 1.663509963528440e+000	 1.043422131640400e+001
 1.223111176778767e+000	 1.676193320950074e+000	 1.037259697780038e+001
 1.205800305830324e+000	 1.688689024778370e+000	 1.029942827782856e+001
 1.188376689663488e+000	 1.700995544792227e+000	 1.021376853054556e+001
 1.170843403377367e+000	 1.713111416312420e+000	 1.011468110432900e+001
 1.153203545909574e+000	 1.725035240692236e+000	 1.000124032438677e+001
 1.135460238281661e+000	 1.736765685752931e+000	 9.872532353430163e+000
 1.323626065465828e+000	 1.630341693901942e+000	 1.110584336331253e+001
 1.306722862694197e+000	 1.643920728059998e+000	 1.093745192886691e+001
 1.289690418831883e+000	 1.657316693811274e+000	 1.077434848603438e+001
 1.272531699171953e+000	 1.670527783245771e+000	 1.061824527544305e+001
 1.255249701826387e+000	 1.683552252245678e+000	 1.047084471851956e+001
 1.237847456018919e+000	 1.696388421202410e+000	 1.040605607953955e+001
 1.220328020360108e+000	 1.709034675679145e+000	 1.036344434651346e+001
 1.202694481106672e+000	 1.721489467018384e+000	 1.030720536959515e+001
 1.184949950407107e+000	 1.733751312894162e+000	 1.023635760373073e+001
 1.167097564535626e+000	 1.745818797808602e+000	 1.014993201265256e+001
 1.149140482116448e+000	 1.757690573532615e+000	 1.004697298068767e+001
 1.339383518626616e+000	 1.649750523592262e+000	 1.110513268415538e+001
 1.322279087250852e+000	 1.663491212918830e+000	 1.095254450583323e+001
 1.305043876199906e+000	 1.677046654452820e+000	 1.080454097617796e+001
 1.287680886067953e+000	 1.690415018761495e+000	 1.066291415631548e+001
 1.270193150658786e+000	 1.703594540963738e+000	 1.052944746262206e+001
 1.252583735258322e+000	 1.716583521455622e+000	 1.040591088641556e+001
 1.234855734889152e+000	 1.729380326580841e+000	 1.037745560589762e+001
 1.217012272549147e+000	 1.741983389245496e+000	 1.035048788207931e+001
 1.199056497436190e+000	 1.754391209476884e+000	 1.030777423284101e+001
 1.180991583161090e+000	 1.766602354925964e+000	 1.024830224900405e+001
 1.162820725950737e+000	 1.778615461313300e+000	 1.017107450028463e+001
 1.355140971786903e+000	 1.669159353283084e+000	 1.107539246657740e+001
 1.337835311806915e+000	 1.683061697778258e+000	 1.093652957834253e+001
 1.320397333567268e+000	 1.696776615095046e+000	 1.080157150959988e+001
 1.302830072963244e+000	 1.710302254277975e+000	 1.067239435165252e+001
 1.285136599490444e+000	 1.723636829682618e+000	 1.055086671267907e+001
 1.267320014496975e+000	 1.736778621709710e+000	 1.043884473410215e+001
 1.249383449417458e+000	 1.749725977483457e+000	 1.034176976318446e+001
 1.231330063990914e+000	 1.762477311473562e+000	 1.034395187547954e+001
 1.213163044464615e+000	 1.775031106060586e+000	 1.032929353619467e+001
 1.194885601785966e+000	 1.787385912044321e+000	 1.029673894362227e+001
 1.176500969784529e+000	 1.799540349094984e+000	 1.024524880940400e+001
 1.370898424946689e+000	 1.688568182974407e+000	 1.101867975955504e+001
 1.353391536362387e+000	 1.702632182638281e+000	 1.089145327108960e+001
 1.335750790933969e+000	 1.716506575737954e+000	 1.076747341282366e+001
 1.317979259857824e+000	 1.730189489795212e+000	 1.064870456395349e+001
 1.300080048321363e+000	 1.743679118402319e+000	 1.053710477057727e+001
 1.282056293734879e+000	 1.756973721964673e+000	 1.043462055192369e+001
 1.263911163945025e+000	 1.770071628386993e+000	 1.034318174048241e+001
 1.245647855431973e+000	 1.782971233702584e+000	 1.028792588958061e+001
 1.227269591492381e+000	 1.795671002645267e+000	 1.030126948401736e+001
 1.208779620410255e+000	 1.808169469163672e+000	 1.029562018486304e+001
 1.190181213617824e+000	 1.820465236877668e+000	 1.026989679540158e+001
 1.386655878105973e+000	 1.707977012666231e+000	 1.093705490369611e+001
 1.368947760917268e+000	 1.722202667498902e+000	 1.081936339200361e+001
 1.351104248300009e+000	 1.736236536381543e+000	 1.070428013915756e+001
 1.333128446751693e+000	 1.750076725313204e+000	 1.059386211864903e+001
 1.315023497151541e+000	 1.763721407122842e+000	 1.049016111049367e+001
 1.296792572972033e+000	 1.777168822220513e+000	 1.039521829041614e+001
 1.278438878471853e+000	 1.790417279291451e+000	 1.031105885235027e+001
 1.259965646872324e+000	 1.803465155932562e+000	 1.023968667863342e+001
 1.241376138519491e+000	 1.816310899230930e+000	 1.022404795940200e+001
 1.222673639033957e+000	 1.828953026284019e+000	 1.024531479731504e+001
 1.203861457450621e+000	 1.841390124661353e+000	 1.024540896136455e+001
 1.402413331264755e+000	 1.727385842358557e+000	 1.083258134631664e+001
 1.384503985471558e+000	 1.741773152360119e+000	 1.072230933768472e+001
 1.366457705665388e+000	 1.755966497025814e+000	 1.061402526157167e+001
 1.348277633644851e+000	 1.769963960831952e+000	 1.050988304146481e+001
 1.329966945980979e+000	 1.783763695844185e+000	 1.041203253775520e+001
 1.311528852208438e+000	 1.797363922477228e+000	 1.032261391288937e+001
 1.292966592997942e+000	 1.810762930196829e+000	 1.024375202929380e+001
 1.274283438311966e+000	 1.823959078163495e+000	 1.017755089502544e+001
 1.255482685545942e+000	 1.836950795817573e+000	 1.012608817187109e+001
 1.236567657657071e+000	 1.849736583405361e+000	 1.014618286223656e+001
 1.217541701282921e+000	 1.862315012446037e+000	 1.017216600949749e+001
 1.418170784423037e+000	 1.746794672051384e+000	 1.070732546884592e+001
 1.400060210025256e+000	 1.761343637221932e+000	 1.060234200514418e+001
 1.381811163030106e+000	 1.775696457670766e+000	 1.049874246604990e+001
 1.363426820537300e+000	 1.789851196351457e+000	 1.039878213062722e+001
 1.344910394809678e+000	 1.803805984566350e+000	 1.030471333710859e+001
 1.326265131444094e+000	 1.817559022734820e+000	 1.021877961693949e+001
 1.307494307523293e+000	 1.831108581103128e+000	 1.014320986109575e+001
 1.288601229750900e+000	 1.844453000395384e+000	 1.008021253421809e+001
 1.269589232571736e+000	 1.857590692405196e+000	 1.003196995186991e+001
 1.250461676279598e+000	 1.870520140527698e+000	 1.000063263594154e+001
 1.231221945114724e+000	 1.883239900231722e+000	 9.813564770872571e+000
 1.094419506774317e+000	 1.673991022419878e+000	 9.042877256064299e+000
 1.077220840323977e+000	 1.685109866189261e+000	 8.916615729334351e+000
 1.059928536361034e+000	 1.696039945806038e+000	 8.779060299225444e+000
 1.042545656746592e+000	 1.706780171423916e+000	 8.629241112698740e+000
 1.025075277809822e+000	 1.717329518407680e+000	 8.466197383777931e+000
 1.007520488639881e+000	 1.727687027486658e+000	 8.288978315374562e+000
 9.898843893801798e-001	 1.737851804855421e+000	 8.096643999934265e+000
 9.721700895268441e-001	 1.747823022222099e+000	 7.888266297738894e+000
 9.543807062332064e-001	 1.757599916804693e+000	 7.662929691757444e+000
 9.365193626221506e-001	 1.767181791275909e+000	 7.419732118003716e+000
 9.185891861080785e-001	 1.776568013657048e+000	 7.157785770419832e+000
 1.108099750610596e+000	 1.694915910196563e+000	 9.370927060354067e+000
 1.090686100828744e+000	 1.706173739513039e+000	 9.266441625625408e+000
 1.073177643065515e+000	 1.717240445125080e+000	 9.153751775341911e+000
 1.055577477455279e+000	 1.728114923563312e+000	 9.031947352270825e+000
 1.037888718781318e+000	 1.738796137384582e+000	 8.900123924225767e+000
 1.020114494746404e+000	 1.749283115327332e+000	 8.757383667717670e+000
 1.002257944245742e+000	 1.759574952413566e+000	 8.602836235144549e+000
 9.843222156441563e-001	 1.769670809997763e+000	 8.435599604366137e+000
 9.663104650593967e-001	 1.779569915763154e+000	 8.254800909564418e+000
 9.482258546533824e-001	 1.789271563665848e+000	 8.059577252336906e+000
 9.300715509331942e-001	 1.798775113827414e+000	 7.849076492031581e+000
 1.121779994446377e+000	 1.715840797974247e+000	 9.647329040171529e+000
 1.104151361333108e+000	 1.727237612837812e+000	 9.569114909195569e+000
 1.086426749769679e+000	 1.738440944445100e+000	 9.485718557098572e+000
 1.068609298163722e+000	 1.749449675703662e+000	 9.396287732125092e+000
 1.050702159752635e+000	 1.760262756362402e+000	 9.299972621536513e+000
 1.032708500852804e+000	 1.770879203168879e+000	 9.195926698132215e+000
 1.014631499111225e+000	 1.781298099972527e+000	 9.083307554947135e+000
 9.964743417614242e-001	 1.791518597774181e+000	 8.961277726986539e+000
 9.782402238855672e-001	 1.801539914722290e+000	 8.829005498899676e+000
 9.599323466846091e-001	 1.811361336056378e+000	 8.685665697537258e+000
 9.415539157583097e-001	 1.820982213998275e+000	 8.530440468382263e+000
 1.135460238281661e+000	 1.736765685752931e+000	 9.872532353430163e+000
 1.117616621837070e+000	 1.748301486163579e+000	 9.824946906412659e+000
 1.099675856473525e+000	 1.759641443766101e+000	 9.775136725064739e+000
 1.081641118871923e+000	 1.770784427844967e+000	 9.722305728647138e+000
 1.063515600723775e+000	 1.781729375341141e+000	 9.665657043455163e+000
 1.045302506959080e+000	 1.792475291011298e+000	 9.604393813219181e+000
 1.027005053976629e+000	 1.803021247532308e+000	 9.537720002242985e+000
 1.008626467878648e+000	 1.813366385551350e+000	 9.464841190153965e+000
 9.901699827117181e-001	 1.823509913682104e+000	 9.384965357169753e+000
 9.716388387158305e-001	 1.833451108447498e+000	 9.297303658820779e+000
 9.530362805834256e-001	 1.843189314169633e+000	 9.201071189101596e+000
 1.149140482116448e+000	 1.757690573532615e+000	 1.004697298068767e+001
 1.131081882340630e+000	 1.769365359490342e+000	 1.003424223758622e+001
 1.112924963177054e+000	 1.780841943088082e+000	 1.002218199809607e+001
 1.094672939579880e+000	 1.792119179987226e+000	 1.001005067133960e+001
 1.076329041694736e+000	 1.803195994320799e+000	 9.997102693695300e+000
 1.057896513065233e+000	 1.814071378854591e+000	 9.982589304052716e+000
 1.039378608841954e+000	 1.824744395092904e+000	 9.965759316293381e+000
 1.020778593995827e+000	 1.835214173329271e+000	 9.945859887883970e+000
 1.002099741537849e+000	 1.845479912642594e+000	 9.922137283488919e+000
 9.833453307470476e-001	 1.855540880839211e+000	 9.893837632535512e+000
 9.645186454085410e-001	 1.865396414341487e+000	 9.860207679689731e+000
 1.162820725950737e+000	 1.778615461313300e+000	 1.017107450028463e+001
 1.144547142843787e+000	 1.790429232818099e+000	 1.019729921144127e+001
 1.126174069880265e+000	 1.802042442411042e+000	 1.022702975461135e+001
 1.107704760287596e+000	 1.813453932130439e+000	 1.025957739852072e+001
 1.089142482665518e+000	 1.824662613301375e+000	 1.029424630982290e+001
 1.070490519171262e+000	 1.835667466698757e+000	 1.033033429415163e+001
 1.051752163707200e+000	 1.846467542654319e+000	 1.036713353881641e+001
 1.032930720112961e+000	 1.857061961107944e+000	 1.040393135603848e+001
 1.014029500363961e+000	 1.867449911603760e+000	 1.044001092563747e+001
 9.950518227782594e-001	 1.877630653231514e+000	 1.035322841917280e+001
 9.760010102336569e-001	 1.887603514513837e+000	 9.913937821657676e+000
 1.176500969784529e+000	 1.799540349094984e+000	 1.024524880940400e+001
 1.158012403346542e+000	 1.811493106146852e+000	 1.031441019207129e+001
 1.139423176583158e+000	 1.823242941734981e+000	 1.038985505238574e+001
 1.120736580995067e+000	 1.834788684274606e+000	 1.047094593704471e+001
 1.101955923636123e+000	 1.846129232282870e+000	 1.055703521012575e+001
 1.083084525277168e+000	 1.857263554543797e+000	 1.064746576084931e+001
 1.064125718572367e+000	 1.868190690216551e+000	 1.074157171733244e+001
 1.045082846230052e+000	 1.878909748887369e+000	 1.066855353189864e+001
 1.025959259190052e+000	 1.889419910565603e+000	 1.029434989642003e+001
 1.006758314809466e+000	 1.899720425624409e+000	 9.909607663348513e+000
 9.874833750587725e-001	 1.909810614686682e+000	 9.516857156351838e+000
 1.190181213617824e+000	 1.820465236877668e+000	 1.026989679540158e+001
 1.171477663848894e+000	 1.832556979476599e+000	 1.038586194058326e+001
 1.152672283285734e+000	 1.844443441059900e+000	 1.051083264697832e+001
 1.133768401702297e+000	 1.856123436419727e+000	 1.064422120410987e+001
 1.114769364606549e+000	 1.867595851265284e+000	 1.078542668552574e+001
 1.095678531382950e+000	 1.878859642389709e+000	 1.077843401268943e+001
 1.076499273437455e+000	 1.889913837779600e+000	 1.046812585148069e+001
 1.057234972347098e+000	 1.900757536667546e+000	 1.014489395092930e+001
 1.037889018016124e+000	 1.911389909528122e+000	 9.811580530102884e+000
 1.018464806840669e+000	 1.921810198017894e+000	 9.470967350238595e+000
 9.989657398838883e-001	 1.932017714860024e+000	 9.125769856032305e+000
 1.203861457450621e+000	 1.841390124661353e+000	 1.024540896136455e+001
 1.184942924350843e+000	 1.853620852807342e+000	 1.041193593344952e+001
 1.165921389987992e+000	 1.865643940385799e+000	 1.059013700890363e+001
 1.146800222409283e+000	 1.877458188565803e+000	 1.069001854001557e+001
 1.127582805576798e+000	 1.889062470248617e+000	 1.044538323650415e+001
 1.108272537488608e+000	 1.900455730236494e+000	 1.018436237726150e+001
 1.088872828302464e+000	 1.911636985343468e+000	 9.910110469734892e+000
 1.069387098464099e+000	 1.922605324448475e+000	 9.625729109586168e+000
 1.049818776842177e+000	 1.933359908491318e+000	 9.334260426674751e+000
 1.030171298871866e+000	 1.943899970411971e+000	 9.038680730140294e+000
 1.010448104709004e+000	 1.954224815033862e+000	 8.741894366491220e+000
 1.217541701282921e+000	 1.862315012446037e+000	 1.017216600949749e+001
 1.198408184852391e+000	 1.874684726139078e+000	 1.039290865939721e+001
 1.179170496689933e+000	 1.886844439712678e+000	 1.022887900583904e+001
 1.159832043116026e+000	 1.898792940712833e+000	 1.003384834746656e+001
 1.140396246546868e+000	 1.910529089232867e+000	 9.821329467733701e+000
 1.120866543594143e+000	 1.922051818084153e+000	 9.594741154075514e+000
 1.101246383167394e+000	 1.933360132908152e+000	 9.357451584115179e+000
 1.081539224581056e+000	 1.944453112230155e+000	 9.112771262427772e+000
 1.061748535668210e+000	 1.955329907455190e+000	 8.863946152699720e+000
 1.041877790903058e+000	 1.965989742806639e+000	 8.614151020566808e+000
 1.021930469534119e+000	 1.976431915208196e+000	 8.366483001600171e+000
 1.231221945114724e+000	 1.883239900231722e+000	 9.813564770872571e+000
 1.211873445353537e+000	 1.895748599471812e+000	 9.691504264685582e+000
 1.192419603391557e+000	 1.908044939040537e+000	 9.546571382851646e+000
 1.172863863822527e+000	 1.920127692860818e+000	 9.382494213512549e+000
 1.153209687516760e+000	 1.931995708218037e+000	 9.202961146382613e+000
 1.133460549699554e+000	 1.943647905932685e+000	 9.011613115216031e+000
 1.113619938032245e+000	 1.955083280473655e+000	 8.812036012594096e+000
 1.093691350697970e+000	 1.966300900012589e+000	 8.607753294492184e+000
 1.073678294494223e+000	 1.977299906419740e+000	 8.402218791329615e+000
 1.053584282934246e+000	 1.988079515201899e+000	 8.198809741401897e+000
 1.033412834359236e+000	 1.998639015383027e+000	 8.000820061749858e+000
 9.185891861080785e-001	 1.776568013657048e+000	 7.157785770419832e+000
 9.005933067305993e-001	 1.785758017161617e+000	 7.115176716989192e+000
 8.825348555005111e-001	 1.794751299989325e+000	 7.070205059878942e+000
 8.644169627606544e-001	 1.803547425071165e+000	 7.022636277456979e+000
 8.462427565638450e-001	 1.812146019766516e+000	 6.972227001372091e+000
 8.280153610683619e-001	 1.820546775513088e+000	 6.918725364637154e+000
 8.097378949529317e-001	 1.828749447430662e+000	 6.861871358622602e+000
 7.914134698526779e-001	 1.836753853879597e+000	 6.801397198332122e+000
 7.730451888174857e-001	 1.844559875975171e+000	 6.737027695327324e+000
 7.546361447941516e-001	 1.852167457058818e+000	 6.668480637654763e+000
 7.361894191336470e-001	 1.859576602127425e+000	 6.595467176127377e+000
 9.300715509331942e-001	 1.798775113827414e+000	 7.849076492031581e+000
 9.118507230638300e-001	 1.808079992376415e+000	 7.886120833738392e+000
 8.935665411936159e-001	 1.817185691239944e+000	 7.918002568764623e+000
 8.752221747946789e-001	 1.826091767885635e+000	 7.944395965101487e+000
 8.568207910204949e-001	 1.834797845014857e+000	 7.964969892087265e+000
 8.383655530813224e-001	 1.843303610208294e+000	 7.979388212538249e+000
 8.198596186393719e-001	 1.851608815524722e+000	 7.987310178772015e+000
 8.013061382252067e-001	 1.859713277054009e+000	 7.988390831913943e+000
 7.827082536768359e-001	 1.867616874425373e+000	 7.982281403879662e+000
 7.640690966028914e-001	 1.875319550272018e+000	 7.952293814409045e+000
 7.453917868712325e-001	 1.882821309653291e+000	 7.547960427213598e+000
 9.415539157583097e-001	 1.820982213998275e+000	 8.530440468382263e+000
 9.231081393970605e-001	 1.830401967591619e+000	 8.644601102592148e+000
 9.045982268867207e-001	 1.839620082490901e+000	 8.750879078329891e+000
 8.860273868287035e-001	 1.848636110700393e+000	 8.848858281405930e+000
 8.673988254771451e-001	 1.857449670263458e+000	 8.938120592068419e+000
 8.487157450942829e-001	 1.866060444903749e+000	 9.018246320946616e+000
 8.299813423258120e-001	 1.874468183619045e+000	 9.088814643936642e+000
 8.111988065977354e-001	 1.882672700228715e+000	 8.757289053048721e+000
 7.923713185361858e-001	 1.890673872875920e+000	 8.396876441702544e+000
 7.735020484116313e-001	 1.898471643485632e+000	 8.036257540480065e+000
 7.545941546088181e-001	 1.906066017179662e+000	 7.676947838038501e+000
 9.530362805834256e-001	 1.843189314169633e+000	 9.201071189101596e+000
 9.343655557302909e-001	 1.852723942807229e+000	 9.389928508896107e+000
 9.156299125798257e-001	 1.862054473742195e+000	 9.568260248917779e+000
 8.968325988627280e-001	 1.871180453515439e+000	 9.735560703149083e+000
 8.779768599337953e-001	 1.880101495512317e+000	 9.635329415233752e+000
 8.590659371072434e-001	 1.888817279599456e+000	 9.336211953295569e+000
 8.401030660122520e-001	 1.897327551713629e+000	 9.029939505406677e+000
 8.210914749702639e-001	 1.905632123403714e+000	 8.718321829705626e+000
 8.020343833955359e-001	 1.913730871326810e+000	 8.403086838900538e+000
 7.829350002203710e-001	 1.921623736699662e+000	 8.085877426912630e+000
 7.637965223464035e-001	 1.929310724706538e+000	 7.768248536463382e+000
 9.645186454085410e-001	 1.865396414341487e+000	 9.860207679689731e+000
 9.456229720635219e-001	 1.875045918023246e+000	 1.011923996941554e+001
 9.266615982729306e-001	 1.884488864993826e+000	 9.905557375636384e+000
 9.076378108967527e-001	 1.893724796330773e+000	 9.676928030344293e+000
 8.885548943904454e-001	 1.902753320761436e+000	 9.435431743845802e+000
 8.694161291202039e-001	 1.911574114295413e+000	 9.183077370033999e+000
 8.502247896986922e-001	 1.920186919808475e+000	 8.921798784863150e+000
 8.309841433427926e-001	 1.928591546579006e+000	 8.653451095486298e+000
 8.116974482548860e-001	 1.936787869778045e+000	 8.379807086215418e+000
 7.923679520291109e-001	 1.944775829914106e+000	 8.102553906663880e+000
 7.729988900839893e-001	 1.952555432233920e+000	 7.823290006628966e+000
 9.760010102336569e-001	 1.887603514513837e+000	 9.913937821657676e+000
 9.568803883967524e-001	 1.897367893239669e+000	 9.767294705399793e+000
 9.376932839660355e-001	 1.906923256245794e+000	 9.601704126052075e+000
 9.184430229307771e-001	 1.916269139146395e+000	 9.419363567108857e+000
 8.991329288470956e-001	 1.925405146010814e+000	 9.222403789253518e+000
 8.797663211331644e-001	 1.934330948991620e+000	 9.012884420092391e+000
 8.603465133851326e-001	 1.943046287903584e+000	 8.792789772571698e+000
 8.408768117153213e-001	 1.951550969754591e+000	 8.564024899360614e+000
 8.213605131142361e-001	 1.959844868229625e+000	 8.328411889663837e+000
 8.018009038378509e-001	 1.967927923128965e+000	 8.087686414102942e+000
 7.822012578215748e-001	 1.975800139761806e+000	 7.843494522478078e+000
 9.874833750587725e-001	 1.909810614686682e+000	 9.516857156351838e+000
 9.681378047299829e-001	 1.919689868456498e+000	 9.415844751201046e+000
 9.487249696591404e-001	 1.929357647498098e+000	 9.294126857908134e+000
 9.292482349648017e-001	 1.938813481962305e+000	 9.153957155834320e+000
 9.097109633037455e-001	 1.948056971260451e+000	 8.997522449597891e+000
 8.901165131461248e-001	 1.957087783688078e+000	 8.826938087617947e+000
 8.704682370715724e-001	 1.965905655998953e+000	 8.644243614638151e+000
 8.507694800878499e-001	 1.974510392930469e+000	 8.451398665847369e+000
 8.310235779735861e-001	 1.982901866681548e+000	 8.250279109372638e+000
 8.112338556465903e-001	 1.991080016344239e+000	 8.042673443068365e+000
 7.914036255591603e-001	 1.999044847290198e+000	 7.830279450673915e+000
 9.989657398838883e-001	 1.932017714860024e+000	 9.125769856032305e+000
 9.793952210632133e-001	 1.942011843673734e+000	 9.066104068902702e+000
 9.597566553522451e-001	 1.951792038750740e+000	 8.984068961380444e+000
 9.400534469988262e-001	 1.961357824778502e+000	 8.881979682977095e+000
 9.202889977603954e-001	 1.970708796510346e+000	 8.762084216680002e+000
 9.004667051590855e-001	 1.979844618384786e+000	 8.626558620073897e+000
 8.805899607580128e-001	 1.988765024094585e+000	 8.477502506059826e+000
 8.606621484603786e-001	 1.997469816106639e+000	 8.316934771132472e+000
 8.406866428329360e-001	 2.005958865133815e+000	 8.146789578308114e+000
 8.206668074553302e-001	 2.014232109559928e+000	 7.968912600921605e+000
 8.006059932967459e-001	 2.022289554819095e+000	 7.785057532627609e+000
 1.010448104709004e+000	 1.954224815033862e+000	 8.741894366491220e+000
 9.906526373964438e-001	 1.964333818891375e+000	 8.719317996627774e+000
 9.707883410453504e-001	 1.974226430003719e+000	 8.672800798410567e+000
 9.508586590328508e-001	 1.983902167594988e+000	 8.604724707726753e+000
 9.308670322170456e-001	 1.993360621760502e+000	 8.517404062685079e+000
 9.108168971720461e-001	 2.002601453081745e+000	 8.413080661005781e+000
 8.907116844444528e-001	 2.011624392190479e+000	 8.293919062948064e+000
 8.705548168329073e-001	 2.020429239283104e+000	 8.162002148087652e+000
 8.503497076922864e-001	 2.029015863586428e+000	 8.019326933364635e+000
 8.300997592640701e-001	 2.037384202776032e+000	 7.867800658915390e+000
 8.098083610343312e-001	 2.045534262348497e+000	 7.709237147296774e+000
 1.021930469534119e+000	 1.976431915208196e+000	 8.366483001600171e+000
 1.001910053729674e+000	 1.986655794109423e+000	 8.376761485839454e+000
 9.818200267384550e-001	 1.996660821257034e+000	 8.361618187437596e+000
 9.616638710668755e-001	 2.006446510411762e+000	 8.323507188256935e+000
 9.414450666736958e-001	 2.016012447010916e+000	 8.264814401958599e+000
 9.211670891850065e-001	 2.025358287778955e+000	 8.187852441272902e+000
 9.008334081308931e-001	 2.034483760286634e+000	 8.094855737071688e+000
 8.804474852054359e-001	 2.043388662459861e+000	 7.987975917917523e+000
 8.600127725516362e-001	 2.052072862039383e+000	 7.869277457840791e+000
 8.395327110728100e-001	 2.060536295992551e+000	 7.740733599165528e+000
 8.190107287719169e-001	 2.068778969878404e+000	 7.604222556267093e+000
 1.033412834359236e+000	 1.998639015383027e+000	 8.000820061749858e+000
 1.013167470062905e+000	 2.008977769327879e+000	 8.039737456156281e+000
 9.928517124315605e-001	 2.019095212510688e+000	 8.051840989148326e+000
 9.724690831009004e-001	 2.028990853228825e+000	 8.039662292892706e+000
 9.520231011303464e-001	 2.038664272261591e+000	 8.005664121997508e+000
 9.315172811979672e-001	 2.048115122476415e+000	 7.952235024197321e+000
 9.109551318173336e-001	 2.057343128383053e+000	 7.881684269432184e+000
 8.903401535779651e-001	 2.066348085636912e+000	 7.796237046363004e+000
 8.696758374109869e-001	 2.075129860492684e+000	 7.698029934416679e+000
 8.489656628815501e-001	 2.083688389209486e+000	 7.589106658492516e+000
 8.282130965095028e-001	 2.092023677408817e+000	 7.471414132495358e+000
 7.361894191336470e-001	 1.859576602127425e+000	 6.595467176127377e+000
 7.177080801244898e-001	 1.866787377221733e+000	 6.544764944059013e+000
 6.991951815543979e-001	 1.873799908775373e+000	 6.543269948822164e+000
 6.806537613005025e-001	 1.880614382925689e+000	 6.309955289271616e+000
 6.620868399488495e-001	 1.887231044787307e+000	 6.080507240016874e+000
 6.434974194451185e-001	 1.893650197690125e+000	 5.916266677670328e+000
 6.248884817771946e-001	 1.899872202382971e+000	 5.817143098450169e+000
 6.062629876904958e-001	 1.905897476204296e+000	 5.620817401831875e+000
 5.876238754369104e-001	 1.911726492221324e+000	 5.445089330418189e+000
 5.689740595581216e-001	 1.917359778339053e+000	 5.291644739279967e+000
 5.503164297040443e-001	 1.922797916380548e+000	 5.161957438447357e+000
 7.453917868712325e-001	 1.882821309653291e+000	 7.547960427213598e+000
 7.266794311240886e-001	 1.890122219435584e+000	 7.188633168765239e+000
 7.079351213216277e-001	 1.897222407633088e+000	 6.883154615663270e+000
 6.891619333144451e-001	 1.904122062709863e+000	 6.632734266159702e+000
 6.703629254459107e-001	 1.910821432844467e+000	 6.438443080537649e+000
 6.515411371860247e-001	 1.917320825158422e+000	 6.301212629917020e+000
 6.326995877975195e-001	 1.923620604909912e+000	 6.221834526584482e+000
 6.138412750351305e-001	 1.929721194654120e+000	 6.106716506040276e+000
 5.949691738788933e-001	 1.935623073371612e+000	 5.949185277837708e+000
 5.760862353022610e-001	 1.941326775566192e+000	 5.806562814851380e+000
 5.571953850757716e-001	 1.946832890333715e+000	 5.680437192165392e+000
 7.545941546088181e-001	 1.906066017179662e+000	 7.676947838038501e+000
 7.356507821236820e-001	 1.913457061650030e+000	 7.372009057283520e+000
 7.166750610888373e-001	 1.920644906491468e+000	 7.112988999315347e+000
 6.976701053283412e-001	 1.927629742494750e+000	 6.901125488462390e+000
 6.786390109428899e-001	 1.934411820902370e+000	 6.737522319155286e+000
 6.595848549268030e-001	 1.940991452627468e+000	 6.623148234361556e+000
 6.405106938176606e-001	 1.947369007437590e+000	 6.558836186217070e+000
 6.214195623795155e-001	 1.953544913104652e+000	 6.516346149574217e+000
 6.023144723205504e-001	 1.959519654522554e+000	 6.373114421528043e+000
 5.831984110459895e-001	 1.965293772793916e+000	 6.237810874478149e+000
 5.640743404469928e-001	 1.970867864287377e+000	 6.112141196946308e+000
 7.637965223464035e-001	 1.929310724706538e+000	 7.768248536463382e+000
 7.446221331232706e-001	 1.936791903865071e+000	 7.512409575756695e+000
 7.254150008560258e-001	 1.944067405350511e+000	 7.294857532497819e+000
 7.061782773421910e-001	 1.951137422280350e+000	 7.116861933552523e+000
 6.869150964397867e-001	 1.958002208961012e+000	 6.979562506784743e+000
 6.676285726674527e-001	 1.964662080097262e+000	 6.883967987890274e+000
 6.483217998376176e-001	 1.971117409966008e+000	 6.830955210534519e+000
 6.289978497236503e-001	 1.977368631555889e+000	 6.821268477401855e+000
 6.096597707618819e-001	 1.983416235674151e+000	 6.719390605920296e+000
 5.903105867893064e-001	 1.989260770022222e+000	 6.587909314465814e+000
 5.709532958177076e-001	 1.994902838241532e+000	 6.459590644569894e+000
 7.729988900839893e-001	 1.952555432233920e+000	 7.823290006628966e+000
 7.535934841228538e-001	 1.960126746080707e+000	 7.611361883993715e+000
 7.341549406231938e-001	 1.967489904210219e+000	 7.430379703397047e+000
 7.146864493559947e-001	 1.974645102066663e+000	 7.281648113375724e+000
 6.951911819366015e-001	 1.981592597020396e+000	 7.166345920451085e+000
 6.756722904079747e-001	 1.988332707567807e+000	 7.085524723025992e+000
 6.561329058573906e-001	 1.994865812495162e+000	 7.040107830126937e+000
 6.365761370675354e-001	 2.001192350007833e+000	 7.030889462897639e+000
 6.170050692028878e-001	 2.007312816826402e+000	 6.990469346228242e+000
 5.974227625322126e-001	 2.013227767251113e+000	 6.859315480777843e+000
 5.778322511879159e-001	 2.018937812196181e+000	 6.725239370804970e+000
 7.822012578215748e-001	 1.975800139761806e+000	 7.843494522478078e+000
 7.625648351224317e-001	 1.983461588296937e+000	 7.670380345786434e+000
 7.428948803903412e-001	 1.990912403070590e+000	 7.521155010345535e+000
 7.231946213697519e-001	 1.998152781853689e+000	 7.397161748887382e+000
 7.034672674333340e-001	 2.005182985080521e+000	 7.299621638224628e+000
 6.837160081483685e-001	 2.012003335039102e+000	 7.229632058773127e+000
 6.639440118769794e-001	 2.018614215025054e+000	 7.188165440892657e+000
 6.441544244111706e-001	 2.025016068460483e+000	 7.176068296247274e+000
 6.243503676435681e-001	 2.031209397979309e+000	 7.188751259579409e+000
 6.045349382747075e-001	 2.037194764480589e+000	 7.054427377879008e+000
 5.847112065576183e-001	 2.042972786151324e+000	 6.911477817527961e+000
 7.914036255591603e-001	 1.999044847290198e+000	 7.830279450673915e+000
 7.715361861220045e-001	 2.006796430513762e+000	 7.690967272863849e+000
 7.516348201574682e-001	 2.014334901931625e+000	 7.568764124022785e+000
 7.317027933834626e-001	 2.021660461641427e+000	 7.465055327668189e+000
 7.117433529299844e-001	 2.028773373141388e+000	 7.381107469392418e+000
 6.917597258886344e-001	 2.035673962511146e+000	 7.318066680473146e+000
 6.717551178963843e-001	 2.042362617555685e+000	 7.276957210706928e+000
 6.517327117545556e-001	 2.048839786913839e+000	 7.258680288956699e+000
 6.316956660839228e-001	 2.055105979132870e+000	 7.264013269124587e+000
 6.116471140167912e-001	 2.061161761710648e+000	 7.175587118822564e+000
 5.915901619268141e-001	 2.067007760106961e+000	 7.020636718414318e+000
 8.006059932967459e-001	 2.022289554819095e+000	 7.785057532627609e+000
 7.805075371215724e-001	 2.030131272731183e+000	 7.674613617539127e+000
 7.603747599245743e-001	 2.037757400793325e+000	 7.574769969504166e+000
 7.402109653971273e-001	 2.045168141429878e+000	 7.486957554117969e+000
 7.200194384265524e-001	 2.052363761202996e+000	 7.412491751514662e+000
 6.998034436287717e-001	 2.059344589983939e+000	 7.352570462429187e+000
 6.795662239156052e-001	 2.066111020087053e+000	 7.308272506319329e+000
 6.593109990976909e-001	 2.072663505367901e+000	 7.280556310324808e+000
 6.390409645239520e-001	 2.079002560287087e+000	 7.270258887038969e+000
 6.187592897584640e-001	 2.085128758941291e+000	 7.225084137400209e+000
 5.984691172955038e-001	 2.091042734063091e+000	 7.054990530443888e+000
 8.098083610343312e-001	 2.045534262348497e+000	 7.709237147296774e+000
 7.894788881211350e-001	 2.053466114949198e+000	 7.622799618131285e+000
 7.691146996916598e-001	 2.061179899655689e+000	 7.540718734533945e+000
 7.487191374107456e-001	 2.068675821219042e+000	 7.464474700773076e+000
 7.282955239230385e-001	 2.075954149265344e+000	 7.395435024954942e+000
 7.078471613687812e-001	 2.083015217457482e+000	 7.334852445805478e+000
 6.873773299346420e-001	 2.089859422619159e+000	 7.283863154781628e+000
 6.668892864405763e-001	 2.096487223822670e+000	 7.243485312569098e+000
 6.463862629636555e-001	 2.102899141441959e+000	 7.214617858204698e+000
 6.258714654997256e-001	 2.109095756172518e+000	 7.198039608260812e+000
 6.053480726636872e-001	 2.115077708019714e+000	 7.016760631440667e+000
 8.190107287719169e-001	 2.068778969878404e+000	 7.604222556267093e+000
 7.984502391206926e-001	 2.076800957167808e+000	 7.536995400874876e+000
 7.778546394587247e-001	 2.084602398518716e+000	 7.468140809824893e+000
 7.572273094243175e-001	 2.092183501008918e+000	 7.399191868523336e+000
 7.365716094194423e-001	 2.099544537328435e+000	 7.331571594520174e+000
 7.158908791086626e-001	 2.106685844931774e+000	 7.266590683186305e+000
 6.951884359534948e-001	 2.113607825152002e+000	 7.205445552419521e+000
 6.744675737832118e-001	 2.120310942278145e+000	 7.149216685717938e+000
 6.537315614030331e-001	 2.126795722597485e+000	 7.098867272110479e+000
 6.329836412405760e-001	 2.133062753404329e+000	 7.055242140616110e+000
 6.122270280313643e-001	 2.139112681976832e+000	 6.908118302047803e+000
 8.282130965095028e-001	 2.092023677408817e+000	 7.471414132495358e+000
 8.074215901202451e-001	 2.100135799387014e+000	 7.418661541702455e+000
 7.865945792257691e-001	 2.108024897382408e+000	 7.358551666670853e+000
 7.657354814378435e-001	 2.115691180799508e+000	 7.292674162814336e+000
 7.448476949157643e-001	 2.123134925392267e+000	 7.222510986991965e+000
 7.239345968484162e-001	 2.130356472406817e+000	 7.149433960163090e+000
 7.029995419721640e-001	 2.137356227685585e+000	 7.074702633206027e+000
 6.820458611255976e-001	 2.144134660734327e+000	 6.999462455509833e+000
 6.610768598420856e-001	 2.150692303753668e+000	 6.924743245081825e+000
 6.400958169810156e-001	 2.157029750636725e+000	 6.851457958069390e+000
 6.191059833985354e-001	 2.163147655934445e+000	 6.731187508903981e+000
 5.503164297040443e-001	 1.922797916380548e+000	 5.161957438447357e+000
 5.316538494870134e-001	 1.928041541140166e+000	 5.101193781710161e+000
 5.129891553722548e-001	 1.933091339410632e+000	 5.046136188618399e+000
 4.943251556054371e-001	 1.937948048985706e+000	 4.997858371181127e+000
 4.756646291775600e-001	 1.942612457640390e+000	 4.957240035792970e+000
 4.570103248275765e-001	 1.947085402089539e+000	 4.924968031877421e+000
 4.383649600831473e-001	 1.951367766926559e+000	 4.901537897101575e+000
 4.197312203398141e-001	 1.955460483543635e+000	 4.887255786444281e+000
 4.011117579788213e-001	 1.959364529034961e+000	 4.882240771677280e+000
 3.825091915237606e-001	 1.963080925084422e+000	 4.886427497157286e+000
 3.639261048361499e-001	 1.966610736839179e+000	 4.899569177231935e+000
 5.571953850757716e-001	 1.946832890333715e+000	 5.680437192165392e+000
 5.382995226068030e-001	 1.952142060403382e+000	 5.622073711281168e+000
 5.194015198162859e-001	 1.957254981152735e+000	 5.567654994713698e+000
 5.005042200529605e-001	 1.962172399597961e+000	 5.518345442014938e+000
 4.816104370452148e-001	 1.966895113361246e+000	 5.475110149656248e+000
 4.627229538912394e-001	 1.971423969616384e+000	 5.438716006166133e+000
 4.438445220877912e-001	 1.975759864014198e+000	 5.409733198208774e+000
 4.249778605978571e-001	 1.979903739589275e+000	 5.388537114574877e+000
 4.061256549574479e-001	 1.983856585649486e+000	 5.375310634307817e+000
 3.872905564217011e-001	 1.987619436649766e+000	 5.370046784492889e+000
 3.684751811504043e-001	 1.991193371051617e+000	 5.372551752619811e+000
 5.640743404469928e-001	 1.970867864287377e+000	 6.112141196946308e+000
 5.449451957259967e-001	 1.976242579666991e+000	 6.054465557061084e+000
 5.258138842596520e-001	 1.981418622895133e+000	 5.999244980676616e+000
 5.066832844997705e-001	 1.986396750210409e+000	 5.947737280423572e+000
 4.875562449121281e-001	 1.991177769082196e+000	 5.900995320440453e+000
 4.684355829541524e-001	 1.995762537143223e+000	 5.859868059605669e+000
 4.493240840916975e-001	 2.000151961101730e+000	 5.825002020630161e+000
 4.302245008551946e-001	 2.004346995634707e+000	 5.796843171660572e+000
 4.111395519354207e-001	 2.008348642263703e+000	 5.775639206255761e+000
 3.920719213190586e-001	 2.012157948214703e+000	 5.761442206881585e+000
 3.730242574641658e-001	 2.015776005263546e+000	 5.754111676418821e+000
 5.709532958177076e-001	 1.994902838241532e+000	 6.459590644569894e+000
 5.515908688445944e-001	 2.000343098930994e+000	 6.400849757114933e+000
 5.322262487023534e-001	 2.005582264637824e+000	 6.343345018032061e+000
 5.128623489458671e-001	 2.010621100823051e+000	 6.288430454504224e+000
 4.935020527782997e-001	 2.015460424803240e+000	 6.237249149491681e+000
 4.741482120163162e-001	 2.020101104670055e+000	 6.190734234611523e+000
 4.548036460948663e-001	 2.024544058189155e+000	 6.149610324356300e+000
 4.354711411118264e-001	 2.028790251679932e+000	 6.114395377962984e+000
 4.161534489127392e-001	 2.032840698877613e+000	 6.085402974419782e+000
 3.968532862158330e-001	 2.036696459779233e+000	 6.062744985350187e+000
 3.775733337774348e-001	 2.040358639474969e+000	 6.046334629839344e+000
 5.778322511879159e-001	 2.018937812196181e+000	 6.725239370804970e+000
 5.582365419625962e-001	 2.024443618195390e+000	 6.663637211167178e+000
 5.386386131443897e-001	 2.029745906380808e+000	 6.602322444394084e+000
 5.190414133912504e-001	 2.034845451435887e+000	 6.542748189050562e+000
 4.994478606437299e-001	 2.039743080524377e+000	 6.486150270952165e+000
 4.798608410777303e-001	 2.044439672196880e+000	 6.433548167200689e+000
 4.602832080972976e-001	 2.048936155276472e+000	 6.385746407605653e+000
 4.407177813677526e-001	 2.053233507724950e+000	 6.343336419439861e+000
 4.211673458894036e-001	 2.057332755491216e+000	 6.306698800629010e+000
 4.016346511120245e-001	 2.061234971343355e+000	 6.276006005691381e+000
 3.821224100902110e-001	 2.064941273685884e+000	 6.251225428038535e+000
 5.847112065576183e-001	 2.042972786151324e+000	 6.911477817527961e+000
 5.648822150800023e-001	 2.048544137460180e+000	 6.845173371091404e+000
 5.450509775857614e-001	 2.053909548124086e+000	 6.778477271342556e+000
 5.252204778359204e-001	 2.059069802048916e+000	 6.712944679864645e+000
 5.053936685084186e-001	 2.064025736245608e+000	 6.649906761594786e+000
 4.855734701383949e-001	 2.068778239723698e+000	 6.590471581485236e+000
 4.657627700989915e-001	 2.073328252363683e+000	 6.535525475164459e+000
 4.459644216229731e-001	 2.077676763769761e+000	 6.485734879174327e+000
 4.261812428654140e-001	 2.081824812104512e+000	 6.441548605470588e+000
 4.064160160076329e-001	 2.085773482907070e+000	 6.403200544065025e+000
 3.866714864024947e-001	 2.089523907896292e+000	 6.370712776947565e+000
 5.915901619268141e-001	 2.067007760106961e+000	 7.020636718414318e+000
 5.715278881968123e-001	 2.072644656725364e+000	 6.947742046018576e+000
 5.514633420264680e-001	 2.078073189867658e+000	 6.874046098727656e+000
 5.313995422798770e-001	 2.083294152662138e+000	 6.801209107070093e+000
 5.113394763723655e-001	 2.088308391966931e+000	 6.730660242996818e+000
 4.912860991983100e-001	 2.093116807250509e+000	 6.663598470597012e+000
 4.712423320999477e-001	 2.097720349450787e+000	 6.600993888004732e+000
 4.512110618774879e-001	 2.102120019814364e+000	 6.543589545681905e+000
 4.311951398407702e-001	 2.106316868717501e+000	 6.491903725338588e+000
 4.111973809026582e-001	 2.110311994470378e+000	 6.446232662908028e+000
 3.912205627142856e-001	 2.114106542106192e+000	 6.406653698226005e+000
 5.984691172955038e-001	 2.091042734063091e+000	 7.054990530443888e+000
 5.781735613130264e-001	 2.096745175990942e+000	 6.973568945022717e+000
 5.578757064665099e-001	 2.102236831611523e+000	 6.891205759021990e+000
 5.375786067231200e-001	 2.107518503275554e+000	 6.809669371645307e+000
 5.172852842355711e-001	 2.112591047688348e+000	 6.730489700803276e+000
 4.969987282574755e-001	 2.117455374777314e+000	 6.654958989272994e+000
 4.767218941001665e-001	 2.122112446537784e+000	 6.584133119825192e+000
 4.564577021312972e-001	 2.126563275858761e+000	 6.518833424092379e+000
 4.362090368154725e-001	 2.130808925330182e+000	 6.459648968996921e+000
 4.159787457971005e-001	 2.134850506033278e+000	 6.406939303676579e+000
 3.957696390255839e-001	 2.138689176315586e+000	 6.360837649048332e+000
 6.053480726636872e-001	 2.115077708019714e+000	 7.016760631440667e+000
 5.848192344286449e-001	 2.120845695256914e+000	 6.924824978261146e+000
 5.642880709058868e-001	 2.126400473355683e+000	 6.832076713194276e+000
 5.437576711656498e-001	 2.131742853889163e+000	 6.740395577193550e+000
 5.232310920980349e-001	 2.136873703409858e+000	 6.651415043586988e+000
 5.027113573158917e-001	 2.141793942304112e+000	 6.566523081036588e+000
 4.822014560996478e-001	 2.146504543624674e+000	 6.486863443828344e+000
 4.617043423844007e-001	 2.151006531902950e+000	 6.413337473842317e+000
 4.412229337895206e-001	 2.155300981942556e+000	 6.346606397558375e+000
 4.207601106909599e-001	 2.159389017595771e+000	 6.287094100538210e+000
 4.003187153363895e-001	 2.163271810524472e+000	 6.234990360994732e+000
 6.122270280313643e-001	 2.139112681976832e+000	 6.908118302047803e+000
 5.914649075436671e-001	 2.144946214523278e+000	 6.803629335564587e+000
 5.707004353445987e-001	 2.150564115100135e+000	 6.698726217647800e+000
 5.499367356074661e-001	 2.155967204502966e+000	 6.595403276985726e+000
 5.291768999597574e-001	 2.161156359131462e+000	 6.495400421785035e+000
 5.084239863735580e-001	 2.166132509830903e+000	 6.400203860849811e+000
 4.876810180983916e-001	 2.170896640711457e+000	 6.311047370950307e+000
 4.669509826367987e-001	 2.175449787946933e+000	 6.228914094388068e+000
 4.462368307629146e-001	 2.179793038554623e+000	 6.154538849633685e+000
 4.255414755842360e-001	 2.183927529157856e+000	 6.088410936961516e+000
 4.048677916467025e-001	 2.187854444732851e+000	 6.030777420140714e+000
 6.191059833985354e-001	 2.163147655934445e+000	 6.731187508903981e+000
 5.981105806580939e-001	 2.169046733790038e+000	 6.612052359789092e+000
 5.771127997826462e-001	 2.174727756844882e+000	 6.493171280029519e+000
 5.561158000485695e-001	 2.180191555116964e+000	 6.376656504534839e+000
 5.351227078207386e-001	 2.185439014853160e+000	 6.264357325373049e+000
 5.141366154304752e-001	 2.190471077357688e+000	 6.157860772256233e+000
 4.931605800963980e-001	 2.195288737798134e+000	 6.058492858876083e+000
 4.721976228884912e-001	 2.199893043990708e+000	 5.967320378537930e+000
 4.512507277356547e-001	 2.204285095166384e+000	 5.885153231470467e+000
 4.303228404769293e-001	 2.208466040719535e+000	 5.812547265198890e+000
 4.094168679565230e-001	 2.212437078940723e+000	 5.749807608474391e+000
 3.639261048361499e-001	 1.966610736839179e+000	 4.899569177231935e+000
 3.453650463502414e-001	 1.969955071770350e+000	 4.941310149538801e+000
 3.268285283464441e-001	 1.973115078522868e+000	 4.999737466144522e+000
 3.083190262635861e-001	 1.976091945755501e+000	 5.073920295735597e+000
 2.898389780504916e-001	 1.978886900971938e+000	 5.162755859463227e+000
 2.713907835560691e-001	 1.981501209344972e+000	 5.264974179952048e+000
 2.529768039579073e-001	 1.983936172534892e+000	 5.379143074963942e+000
 2.345993612291326e-001	 1.986193127503396e+000	 5.503673378177712e+000
 2.162607376432356e-001	 1.988273445324313e+000	 5.636824369454466e+000
 1.979631753165401e-001	 1.990178529992387e+000	 5.776709396927800e+000
 1.797088757879294e-001	 1.991909817231349e+000	 5.921301673276766e+000
 3.684751811504043e-001	 1.991193371051617e+000	 5.372551752619811e+000
 3.496821094332686e-001	 1.994579510169543e+000	 5.398509096806675e+000
 3.309138849542394e-001	 1.997779017006543e+000	 5.438096458227297e+000
 3.121730140951302e-001	 2.000793095079617e+000	 5.490452181010880e+000
 2.934619652791259e-001	 2.003622987236254e+000	 5.554538485894049e+000
 2.747831683532466e-001	 2.006269974463903e+000	 5.629146240161105e+000
 2.561390140098016e-001	 2.008735374693610e+000	 5.712899982370201e+000
 2.375318532465809e-001	 2.011020541599093e+000	 5.804263183881449e+000
 2.189639968654948e-001	 2.013126863392606e+000	 5.901543729107740e+000
 2.004377150093212e-001	 2.015055761618825e+000	 6.002899596360472e+000
 1.819552367361798e-001	 2.016808689948031e+000	 6.106344721178544e+000
 3.730242574641658e-001	 2.015776005263546e+000	 5.754111676418821e+000
 3.539991725158979e-001	 2.019203948568140e+000	 5.766003928974979e+000
 3.349992415617213e-001	 2.022442955489553e+000	 5.788799687702860e+000
 3.160270019264351e-001	 2.025494244403021e+000	 5.821705160482313e+000
 2.970849525075851e-001	 2.028359073499827e+000	 5.863745930355095e+000
 2.781755531503031e-001	 2.031038739582085e+000	 5.913771753541921e+000
 2.593012240616184e-001	 2.033534576851590e+000	 5.970461622730093e+000
 2.404643452639860e-001	 2.035847955694086e+000	 6.032329077185959e+000
 2.216672560877349e-001	 2.037980281460246e+000	 6.097727741132502e+000
 2.029122547020976e-001	 2.039932993244682e+000	 6.164857071779845e+000
 1.842015976844301e-001	 2.041707562664222e+000	 6.231768298402167e+000
 3.775733337774348e-001	 2.040358639474969e+000	 6.046334629839344e+000
 3.583162355981294e-001	 2.043828386966140e+000	 6.045811671206196e+000
 3.390845981688897e-001	 2.047106893971896e+000	 6.053793685072754e+000
 3.198809897575006e-001	 2.050195393725709e+000	 6.069553507236284e+000
 3.007079397358689e-001	 2.053095159762659e+000	 6.092178519636929e+000
 2.815679379472381e-001	 2.055807504699517e+000	 6.120575483573808e+000
 2.624634341133578e-001	 2.058333779008834e+000	 6.153475649038247e+000
 2.433968372813476e-001	 2.060675369788373e+000	 6.189440121229833e+000
 2.243705153099558e-001	 2.062833699527232e+000	 6.226865465195608e+000
 2.053867943948690e-001	 2.064810224869957e+000	 6.263989529469410e+000
 1.864479586326805e-001	 2.066606435379921e+000	 6.298897469587436e+000
 3.821224100902110e-001	 2.064941273685884e+000	 6.251225428038535e+000
 3.626332986799630e-001	 2.068452825363543e+000	 6.239869220190765e+000
 3.431699547757446e-001	 2.071770832453574e+000	 6.234945846245033e+000
 3.237349775883270e-001	 2.074896543047685e+000	 6.235793607243038e+000
 3.043309269639776e-001	 2.077831246024749e+000	 6.241560191684823e+000
 2.849603227440518e-001	 2.080576269816199e+000	 6.251207551048199e+000
 2.656256441650199e-001	 2.083132981165341e+000	 6.263517062637508e+000
 2.463293292986659e-001	 2.085502783881956e+000	 6.277094960314082e+000
 2.270737745321574e-001	 2.087687117593565e+000	 6.290378013526444e+000
 2.078613340876359e-001	 2.089687456494650e+000	 6.301639434983417e+000
 1.886943195809308e-001	 2.091505308095129e+000	 6.308994997301348e+000
 3.866714864024947e-001	 2.089523907896292e+000	 6.370712776947565e+000
 3.669503617613986e-001	 2.093077263760348e+000	 6.350038057586651e+000
 3.472553113822862e-001	 2.096434770934586e+000	 6.334049087509789e+000
 3.275889654189143e-001	 2.099597692368946e+000	 6.322148540951258e+000
 3.079539141919111e-001	 2.102567332286097e+000	 6.313542989060270e+000
 2.883527075407443e-001	 2.105345034932133e+000	 6.307247824815128e+000
 2.687878542166046e-001	 2.107932183321109e+000	 6.302092486845741e+000
 2.492618213159407e-001	 2.110330197974833e+000	 6.296725962186399e+000
 2.297770337543397e-001	 2.112540535659244e+000	 6.289622547825063e+000
 2.103358737803978e-001	 2.114564688118759e+000	 6.279087850836763e+000
 1.909406805291811e-001	 2.116404180809844e+000	 6.263265006865841e+000
 3.912205627142856e-001	 2.114106542106192e+000	 6.406653698226005e+000
 3.712674248424364e-001	 2.117701702156558e+000	 6.378108634614137e+000
 3.513406679885142e-001	 2.121098709414933e+000	 6.352826175750116e+000
 3.314429532492620e-001	 2.124298841689493e+000	 6.330272345237511e+000
 3.115769014196693e-001	 2.127303418546704e+000	 6.309711238905986e+000
 2.917450923373154e-001	 2.130113800047317e+000	 6.290210006198296e+000
 2.719500642681118e-001	 2.132731385476141e+000	 6.270644142422370e+000
 2.521943133331722e-001	 2.135157612067004e+000	 6.249703071329765e+000
 2.324802929765029e-001	 2.137393953724271e+000	 6.225895997316154e+000
 2.128104134731550e-001	 2.139441919742288e+000	 6.197558006449206e+000
 1.931870414774315e-001	 2.141303053524068e+000	 6.162856395499690e+000
 3.957696390255839e-001	 2.138689176315586e+000	 6.360837649048332e+000
 3.755844879230763e-001	 2.142326140552169e+000	 6.325804454265125e+000
 3.554260245944290e-001	 2.145762647894614e+000	 6.292933760016848e+000
 3.352969410793707e-001	 2.148999991009326e+000	 6.261753981427447e+000
 3.151998886472523e-001	 2.152039504806568e+000	 6.231585444635548e+000
 2.951374771337652e-001	 2.154882565161751e+000	 6.201545431726572e+000
 2.751122743195417e-001	 2.157530587630436e+000	 6.170553548864975e+000
 2.551268053503603e-001	 2.159985026158472e+000	 6.137337396505934e+000
 2.351835521986468e-001	 2.162247371788644e+000	 6.100438520385296e+000
 2.152849531659073e-001	 2.164319151365234e+000	 6.058218621886544e+000
 1.954334024256818e-001	 2.166201926237801e+000	 6.008866006347839e+000
 4.003187153363895e-001	 2.163271810524472e+000	 6.234990360994732e+000
 3.799015510033184e-001	 2.166950578947185e+000	 6.194785875179660e+000
 3.595113812000301e-001	 2.170426586373628e+000	 6.155966128223735e+000
 3.391509289092402e-001	 2.173701140328445e+000	 6.118121032770393e+000
 3.188228758746600e-001	 2.176775591065690e+000	 6.080625912282640e+000
 2.985298619300936e-001	 2.179651330275434e+000	 6.042646616587975e+000
 2.782744843708941e-001	 2.182329789783993e+000	 6.003144973344062e+000
 2.580592973675050e-001	 2.184812440249233e+000	 5.960884553694332e+000
 2.378868114207716e-001	 2.187100789852363e+000	 5.914436730195303e+000
 2.177594928586549e-001	 2.189196382987598e+000	 5.862187004982553e+000
 1.976797633739321e-001	 2.191100798951041e+000	 5.802341586098983e+000
 4.048677916467025e-001	 2.187854444732851e+000	 6.030777420140714e+000
 3.842186140831626e-001	 2.191575017341604e+000	 5.986653659081959e+000
 3.635967378053180e-001	 2.195090524851978e+000	 5.943458710582425e+000
 3.430049167388702e-001	 2.198402289646850e+000	 5.900843152645950e+000
 3.224458631018924e-001	 2.201511677324071e+000	 5.858236132375770e+000
 3.019222467263009e-001	 2.204420095388370e+000	 5.814850559200180e+000
 2.814366944221692e-001	 2.207128991936814e+000	 5.769688647127042e+000
 2.609917893846063e-001	 2.209639854339290e+000	 5.721547783664228e+000
 2.405900706428770e-001	 2.211954207915429e+000	 5.669026702844739e+000
 2.202340325513977e-001	 2.214073614609379e+000	 5.610531939667226e+000
 1.999261243221825e-001	 2.215999671663790e+000	 5.544284543213326e+000
 4.094168679565230e-001	 2.212437078940723e+000	 5.749807608474391e+000
 3.885356771626090e-001	 2.216199455735425e+000	 5.702952281719115e+000
 3.676820944102924e-001	 2.219754463329662e+000	 5.656891349474265e+000
 3.468589045682614e-001	 2.223103438964542e+000	 5.611335282889863e+000
 3.260688503289498e-001	 2.226247763581711e+000	 5.565765936355437e+000
 3.053146315223869e-001	 2.229188860500556e+000	 5.519441825474798e+000
 2.845989044733670e-001	 2.231928194088898e+000	 5.471403767571736e+000
 2.639242814016642e-001	 2.234467268428643e+000	 5.420480861708073e+000
 2.432933298649634e-001	 2.236807625977843e+000	 5.365296784982031e+000
 2.227085722441358e-001	 2.238950846230580e+000	 5.304276381739062e+000
 2.021724852704328e-001	 2.240898544376048e+000	 5.235652522268855e+000
 1.797088757879294e-001	 1.991909817231349e+000	 5.921301673276766e+000
 1.614999996355343e-001	 1.993468773302665e+000	 6.036052397370522e+000
 1.433386661295952e-001	 1.994856893815574e+000	 6.180224302915104e+000
 1.252269529212343e-001	 1.996075702539928e+000	 6.351107316167170e+000
 1.071668957668296e-001	 1.997126750223276e+000	 6.545858532103756e+000
 8.916048828710503e-002	 1.998011613412721e+000	 6.761509291667629e+000
 7.120968176046663e-002	 1.998731893282784e+000	 6.994972332813058e+000
 5.331638494996551e-002	 1.999289214470238e+000	 7.243048998173917e+000
 3.548246396324807e-002	 1.999685223916897e+000	 7.502436482580130e+000
 1.770974214482997e-002	 1.999921589721275e+000	 7.769735104091422e+000
 0.000000000000000e+000	 2.000000000000000e+000	 8.041455582687995e+000
 1.819552367361798e-001	 2.016808689948031e+000	 6.106344721178544e+000
 1.635187496314781e-001	 2.018387132969990e+000	 6.178332151496339e+000
 1.451303994563842e-001	 2.019792604989089e+000	 6.277059595002554e+000
 1.267922898326586e-001	 2.021026648822303e+000	 6.399860585938481e+000
 1.085064819636333e-001	 2.022090834601524e+000	 6.543931914069560e+000
 9.027499439029070e-002	 2.022986758580697e+000	 6.706340800034830e+000
 7.209980278201619e-002	 2.023716041949021e+000	 6.884032150398031e+000
 5.398283976139826e-002	 2.024280329651229e+000	 7.073835874729655e+000
 3.592599476242820e-002	 2.024681289215908e+000	 7.272474247459854e+000
 1.793111392142740e-002	 2.024920609592803e+000	 7.476569297690991e+000
 0.000000000000000e+000	 2.025000000000000e+000	 7.682650210635902e+000
 1.842015976844301e-001	 2.041707562664222e+000	 6.231768298402167e+000
 1.655374996274219e-001	 2.043305492636919e+000	 6.266547028254752e+000
 1.469221327831731e-001	 2.044728316162292e+000	 6.325688730413970e+000
 1.283576267440828e-001	 2.045977595104440e+000	 6.406566080477550e+000
 1.098460681604370e-001	 2.047054918979600e+000	 6.506410858990979e+000
 9.138950049347637e-002	 2.047961903748552e+000	 6.622321234687225e+000
 7.298992380356573e-002	 2.048700190615181e+000	 6.751269133446360e+000
 5.464929457283099e-002	 2.049271444832177e+000	 6.890107674793019e+000
 3.636952556160832e-002	 2.049677354514901e+000	 7.035578658163477e+000
 1.815248569802481e-002	 2.049919629464327e+000	 7.184320081631010e+000
 0.000000000000000e+000	 2.050000000000000e+000	 7.332873676259233e+000
 1.864479586326805e-001	 2.066606435379921e+000	 6.298897469587436e+000
 1.675562496233656e-001	 2.068223852303450e+000	 6.301915291562493e+000
 1.487138661099620e-001	 2.069664027335182e+000	 6.327221959551733e+000
 1.299229636555070e-001	 2.070928541386338e+000	 6.372224888748939e+000
 1.111856543572407e-001	 2.072019003357500e+000	 6.434186209194809e+000
 9.250400659666205e-002	 2.072937048916287e+000	 6.510230166703616e+000
 7.388004482511527e-002	 2.073684339281264e+000	 6.597350615651838e+000
 5.531574938426372e-002	 2.074262560013082e+000	 6.692418584910520e+000
 3.681305636078845e-002	 2.074673419813873e+000	 6.792189898627710e+000
 1.837385747462224e-002	 2.074918649335846e+000	 6.893312834022911e+000
 0.000000000000000e+000	 2.075000000000000e+000	 6.992335798853010e+000
 1.886943195809308e-001	 2.091505308095129e+000	 6.308994997301348e+000
 1.695749996193094e-001	 2.093142211969584e+000	 6.285597162354931e+000
 1.505055994367510e-001	 2.094599738507759e+000	 6.282715975912115e+000
 1.314883005669313e-001	 2.095879487667999e+000	 6.297789251844881e+000
 1.125252405540444e-001	 2.096983087735225e+000	 6.328104887041448e+000
 9.361851269984771e-002	 2.097912194083901e+000	 6.370808389835008e+000
 7.477016584666481e-002	 2.098668487947270e+000	 6.422910506559370e+000
 5.598220419569647e-002	 2.099253675193944e+000	 6.481294926962376e+000
 3.725658715996857e-002	 2.099669485112828e+000	 6.542726049627293e+000
 1.859522925121965e-002	 2.099917669207359e+000	 6.603856789024238e+000
 0.000000000000000e+000	 2.100000000000000e+000	 6.661236406317475e+000
 1.909406805291811e-001	 2.116404180809844e+000	 6.263265006865841e+000
 1.715937496152531e-001	 2.118060571635321e+000	 6.218698232878563e+000
 1.522973327635400e-001	 2.119535449680024e+000	 6.193177066491236e+000
 1.330536374783555e-001	 2.120830433949419e+000	 6.184165436388907e+000
 1.138648267508481e-001	 2.121947172112775e+000	 6.188972478452655e+000
 9.473301880303341e-002	 2.122887339251393e+000	 6.204760201523390e+000
 7.566028686821437e-002	 2.123652636613199e+000	 6.228551257691707e+000
 5.664865900712922e-002	 2.124244790374762e+000	 6.257236797260052e+000
 3.770011795914870e-002	 2.124665550411762e+000	 6.287584388960559e+000
 1.881660102781707e-002	 2.124916689078869e+000	 6.316245986483695e+000
 0.000000000000000e+000	 2.125000000000000e+000	 6.339765922886882e+000
 1.931870414774315e-001	 2.141303053524068e+000	 6.162856395499690e+000
 1.736124996111969e-001	 2.142978931300661e+000	 6.102272642778419e+000
 1.540890660903289e-001	 2.144471160851976e+000	 6.059564042396116e+000
 1.346189743897798e-001	 2.145781380230602e+000	 6.032216407471009e+000
 1.152044129476518e-001	 2.146911256490151e+000	 6.017555636192078e+000
 9.584752490621905e-002	 2.147862484418765e+000	 6.012755524780746e+000
 7.655040788976392e-002	 2.148636785279050e+000	 6.014845691503958e+000
 5.731511381856196e-002	 2.149235905555537e+000	 6.020719591288859e+000
 3.814364875832882e-002	 2.149661615710678e+000	 6.027142600925743e+000
 1.903797280441450e-002	 2.149915708950374e+000	 6.030760155330019e+000
 0.000000000000000e+000	 2.150000000000000e+000	 6.028105915854341e+000
 1.954334024256818e-001	 2.166201926237801e+000	 6.008866006347839e+000
 1.756312496071406e-001	 2.167897290965605e+000	 5.937326036143304e+000
 1.558807994171179e-001	 2.169406872023616e+000	 5.882790967343638e+000
 1.361843113012040e-001	 2.170732326511546e+000	 5.842764317240263e+000
 1.165439991444555e-001	 2.171875340867353e+000	 5.814584317403918e+000
 9.696203100940475e-002	 2.172837629586016e+000	 5.795431883730739e+000
 7.744052891131344e-002	 2.173620933944824e+000	 5.782338704203495e+000
 5.798156862999471e-002	 2.174227020736269e+000	 5.772195423295361e+000
 3.858717955750896e-002	 2.174657681009574e+000	 5.761759902383290e+000
 1.925934458101192e-002	 2.174914728821873e+000	 5.747665536039491e+000
 0.000000000000000e+000	 2.175000000000000e+000	 5.726429604591475e+000
 1.976797633739321e-001	 2.191100798951041e+000	 5.802341586098983e+000
 1.776499996030844e-001	 2.192815650630152e+000	 5.724818316935331e+000
 1.576725327439068e-001	 2.194342583194942e+000	 5.663729700125818e+000
 1.377496482126283e-001	 2.195683272792251e+000	 5.616592823823072e+000
 1.178835853412592e-001	 2.196839425244380e+000	 5.580753868590743e+000
 9.807653711259042e-002	 2.197812774753146e+000	 5.553396244454233e+000
 7.833064993286298e-002	 2.198605082610522e+000	 5.531548852469183e+000
 5.864802344142745e-002	 2.199218135916958e+000	 5.512094449085742e+000
 3.903071035668908e-002	 2.199653746308452e+000	 5.491778092042722e+000
 1.948071635760934e-002	 2.199913748693368e+000	 5.467215647025178e+000
 0.000000000000000e+000	 2.199999999999999e+000	 5.434902334862008e+000
 1.999261243221825e-001	 2.215999671663790e+000	 5.544284543213326e+000
 1.796687495990281e-001	 2.217734010294301e+000	 5.465666218660330e+000
 1.594642660706957e-001	 2.219278294365957e+000	 5.403212265673415e+000
 1.393149851240525e-001	 2.220634219072718e+000	 5.354449253907969e+000
 1.192231715380629e-001	 2.221803509621232e+000	 5.316726970031586e+000
 9.919104321577608e-002	 2.222787919920156e+000	 5.287226731734131e+000
 7.922077095441255e-002	 2.223589231276142e+000	 5.262969833199108e+000
 5.931447825286017e-002	 2.224209251097604e+000	 5.240826099645232e+000
 3.947424115586921e-002	 2.224649811607310e+000	 5.217522529009944e+000
 1.970208813420676e-002	 2.224912768564858e+000	 5.189651999359245e+000
 0.000000000000000e+000	 2.224999999999999e+000	 5.153682021159557e+000
 2.021724852704328e-001	 2.240898544376048e+000	 5.235652522268855e+000
 1.816874995949720e-001	 2.242652369958055e+000	 5.160745702726141e+000
 1.612559993974847e-001	 2.244214005536660e+000	 5.102033068047878e+000
 1.408803220354768e-001	 2.245585165352947e+000	 5.057046621159476e+000
 1.205627577348666e-001	 2.246767593997911e+000	 5.023135450572575e+000
 1.003055493189618e-001	 2.247763065087045e+000	 4.997474231349002e+000
 8.011089197596211e-002	 2.248573379941687e+000	 4.977071864610602e+000
 5.998093306429295e-002	 2.249200366278207e+000	 4.958780232517590e+000
 3.991777195504935e-002	 2.249645876906150e+000	 4.939303046098814e+000
 1.992345991080419e-002	 2.249911788436346e+000	 4.915204763847829e+000
 0.000000000000000e+000	 2.250000000000000e+000	 4.882919559555817e+000
 2.250000000000000e+000	 0.000000000000000e+000	 1.166300406718399e+001
 2.249911788436345e+000	 1.992345991080426e-002	 1.173760175230269e+001
 2.249645876906150e+000	 3.991777195504948e-002	 1.179743391147146e+001
 2.249200366278207e+000	 5.998093306429280e-002	 1.184275867398444e+001
 2.248573379941687e+000	 8.011089197596205e-002	 1.187383667289308e+001
 2.247763065087045e+000	 1.003055493189618e-001	 1.189093067676138e+001
 2.246767593997911e+000	 1.205627577348667e-001	 1.189430521647324e+001
 2.245585165352948e+000	 1.408803220354769e-001	 1.188422620790012e+001
 2.244214005536660e+000	 1.612559993974846e-001	 1.186096057127069e+001
 2.242652369958055e+000	 1.816874995949719e-001	 1.182477584811626e+001
 2.240898544376048e+000	 2.021724852704328e-001	 1.177593981669516e+001
 2.275000000000000e+000	 0.000000000000000e+000	 1.160498577725983e+001
 2.274910808307830e+000	 2.014483168749044e-002	 1.167845208522344e+001
 2.274641942204990e+000	 4.036130275438817e-002	 1.173761698708621e+001
 2.274191481458810e+000	 6.064738787593468e-002	 1.178275069702496e+001
 2.273557528607231e+000	 8.100101299775192e-002	 1.181412559496255e+001
 2.272738210253934e+000	 1.014200554223994e-001	 1.183201583683328e+001
 2.271731678374588e+000	 1.219023439319140e-001	 1.183669695998196e+001
 2.270536111633176e+000	 1.424456589471165e-001	 1.182844548455004e+001
 2.269149716707362e+000	 1.630477327244404e-001	 1.180753851173772e+001
 2.267570729621808e+000	 1.837062495910136e-001	 1.177425331986360e+001
 2.265797417088305e+000	 2.044188462186914e-001	 1.172886695917423e+001
 2.300000000000000e+000	 0.000000000000000e+000	 1.155483641276891e+001
 2.299909828179320e+000	 2.036620346435412e-002	 1.162702998011819e+001
 2.299638007503847e+000	 4.080483355404389e-002	 1.168540194997556e+001
 2.299182596639455e+000	 6.131384268799480e-002	 1.173023484135412e+001
 2.298541677272850e+000	 8.189113402002239e-002	 1.176181298770276e+001
 2.297713355420944e+000	 1.025345615263407e-001	 1.178042212511928e+001
 2.296695762751440e+000	 1.232419301294487e-001	 1.178634897578458e+001
 2.295487057913643e+000	 1.440109958591868e-001	 1.177988082751920e+001
 2.294085427878376e+000	 1.648394660517298e-001	 1.176130511039822e+001
 2.292489089285958e+000	 1.857249995872509e-001	 1.173090897139639e+001
 2.290696289801054e+000	 2.066652071669667e-001	 1.168897884806542e+001
 2.325000000000000e+000	 0.000000000000000e+000	 1.151188067576540e+001
 2.324908848050816e+000	 2.058757524139532e-002	 1.158265874163989e+001
 2.324634072802724e+000	 4.124836435401671e-002	 1.164011086400211e+001
 2.324173711820144e+000	 6.198029750047319e-002	 1.168453208884705e+001
 2.323525825938548e+000	 8.278125504277356e-002	 1.171621891185528e+001
 2.322688500588074e+000	 1.036490676307858e-001	 1.173546884398494e+001
 2.321659847128467e+000	 1.245815163274705e-001	 1.174257997237922e+001
 2.320438004194349e+000	 1.455763327716879e-001	 1.173785051753881e+001
 2.319021139049703e+000	 1.666311993793530e-001	 1.172157838774493e+001
 2.317407448950504e+000	 1.877437495836841e-001	 1.169406073175500e+001
 2.315595162514295e+000	 2.089115681152584e-001	 1.165559349082554e+001
 2.350000000000000e+000	 0.000000000000000e+000	 1.147547200438519e+001
 2.349907867922315e+000	 2.080894701861403e-002	 1.154469044660612e+001
 2.349630138101621e+000	 4.169189515430661e-002	 1.160109460261102e+001
 2.349164827000877e+000	 6.264675231336984e-002	 1.164499226971509e+001
 2.348509974604323e+000	 8.367137606600532e-002	 1.167669231658677e+001
 2.347663645755325e+000	 1.047635737357348e-001	 1.169650422564423e+001
 2.346623931505669e+000	 1.259211025259797e-001	 1.170473763086815e+001
 2.345388950475293e+000	 1.471416696846196e-001	 1.170170185203020e+001
 2.343956850221343e+000	 1.684229327073098e-001	 1.168770542637326e+001
 2.342325808615447e+000	 1.897624995803131e-001	 1.166305563881790e+001
 2.340494035228027e+000	 2.111579290635668e-001	 1.162805805180250e+001
 2.375000000000000e+000	 0.000000000000000e+000	 1.144499106042049e+001
 2.374906887793820e+000	 2.103031879601026e-002	 1.151250442967453e+001
 2.374626203400537e+000	 4.213542595491358e-002	 1.156773133253629e+001
 2.374155942181652e+000	 6.331320712668474e-002	 1.161099254417235e+001
 2.373494123270174e+000	 8.456149708971776e-002	 1.164260951904568e+001
 2.372638790922697e+000	 1.058780798411875e-001	 1.166290390953602e+001
 2.371588015883045e+000	 1.272606887249762e-001	 1.167219708008414e+001
 2.370339896756476e+000	 1.487070065979821e-001	 1.167080961791062e+001
 2.368892561393295e+000	 1.702146660356002e-001	 1.165906084139693e+001
 2.367244168280787e+000	 1.917812495771377e-001	 1.163726830725715e+001
 2.365392907942251e+000	 2.134042900118918e-001	 1.160574731766170e+001
 2.400000000000000e+000	 0.000000000000000e+000	 1.141984431142123e+001
 2.399905907665330e+000	 2.125169057358399e-002	 1.148550586366381e+001
 2.399622268699472e+000	 4.257895675583762e-002	 1.153942509227521e+001
 2.399147057362470e+000	 6.397966194041792e-002	 1.158193597899805e+001
 2.398478271936103e+000	 8.545161811391080e-002	 1.161337277894655e+001
 2.397613936090189e+000	 1.069925859471440e-001	 1.163406951486433e+001
 2.396552100260595e+000	 1.286002749244599e-001	 1.164435946702090e+001
 2.395290843037896e+000	 1.502723435117752e-001	 1.164457465984853e+001
 2.393828272565559e+000	 1.720063993642244e-001	 1.163504534646266e+001
 2.392162527946526e+000	 1.937999995741583e-001	 1.161609949224733e+001
 2.390291780656967e+000	 2.156506509602334e-001	 1.158806225872383e+001
 2.425000000000000e+000	 0.000000000000000e+000	 1.139946270050136e+001
 2.424904927536844e+000	 2.147306235133523e-002	 1.146312442768979e+001
 2.424618333998425e+000	 4.302248755707874e-002	 1.151560445849253e+001
 2.424138172543332e+000	 6.464611675456937e-002	 1.155725021214659e+001
 2.423462420602109e+000	 8.634173913858451e-002	 1.158840896132418e+001
 2.422589081257803e+000	 1.081070920536042e-001	 1.160942730143534e+001
 2.421516184638321e+000	 1.299398611244310e-001	 1.162065061569092e+001
 2.420241789319556e+000	 1.518376804259992e-001	 1.162242253708067e+001
 2.418763983738137e+000	 1.737981326931822e-001	 1.161508440846485e+001
 2.417080887612659e+000	 1.958187495713745e-001	 1.159897474201672e+001
 2.415190653372174e+000	 2.178970119085915e-001	 1.157442867929174e+001
 2.449999999999999e+000	 0.000000000000000e+000	 1.138330039758558e+001
 2.449903947408363e+000	 2.169443412926399e-002	 1.144481305684402e+001
 2.449614399297399e+000	 4.346601835863694e-002	 1.149572129407295e+001
 2.449129287724237e+000	 6.531257156913906e-002	 1.153638619911627e+001
 2.448446569268191e+000	 8.723186016373882e-002	 1.156716828116039e+001
 2.447564226425537e+000	 1.092215981605683e-001	 1.158842691248361e+001
 2.446480269016221e+000	 1.312794473248893e-001	 1.160051976809375e+001
 2.445192735601454e+000	 1.534030173406537e-001	 1.160380226246455e+001
 2.443699694911027e+000	 1.755898660224738e-001	 1.159862698462479e+001
 2.441999247279191e+000	 1.978374995687865e-001	 1.158534313289565e+001
 2.440089526087873e+000	 2.201433728569663e-001	 1.156429595061062e+001
 2.474999999999999e+000	 0.000000000000000e+000	 1.137083362633825e+001
 2.474902967279886e+000	 2.191580590737025e-002	 1.143004676764976e+001
 2.474610464596390e+000	 4.390954916051220e-002	 1.147924957204960e+001
 2.474120402905185e+000	 6.597902638412702e-002	 1.151881703529540e+001
 2.473430717934352e+000	 8.812198118937382e-002	 1.154912312409365e+001
 2.472539371593392e+000	 1.103361042680361e-001	 1.157054019369104e+001
 2.471444353394296e+000	 1.326190335258349e-001	 1.158343840148956e+001
 2.470143681883590e+000	 1.549683542557390e-001	 1.158818511795220e+001
 2.468635406084229e+000	 1.773815993520990e-001	 1.158514433611049e+001
 2.466917606946119e+000	 1.998562495663942e-001	 1.157467608102847e+001
 2.464988398804064e+000	 2.223897338053576e-001	 1.155713582061822e+001
 2.500000000000000e+000	 0.000000000000000e+000	 1.136155956147632e+001
 2.499901987151415e+000	 2.213717768565403e-002	 1.141832155399041e+001
 2.499606529895403e+000	 4.435307996270457e-002	 1.146568427009652e+001
 2.499111518086177e+000	 6.664548119953326e-002	 1.150403684896798e+001
 2.498414866600589e+000	 8.901210221548944e-002	 1.153376693788624e+001
 2.497514516761369e+000	 1.114506103760078e-001	 1.155526008306431e+001
 2.496408437772546e+000	 1.339586197272678e-001	 1.156889911663589e+001
 2.495094628165966e+000	 1.565336911712552e-001	 1.157506354113547e+001
 2.493571117257746e+000	 1.791733326820579e-001	 1.157412891283929e+001
 2.491835966613445e+000	 2.018749995641979e-001	 1.156646622538273e+001
 2.489887271520747e+000	 2.246360947537655e-001	 1.155244129511013e+001
 2.240898544376048e+000	 2.021724852704328e-001	 1.177593981669516e+001
 2.238950846230580e+000	 2.227085722441359e-001	 1.180953574755134e+001
 2.236807625977843e+000	 2.432933298649635e-001	 1.183825759067567e+001
 2.234467268428642e+000	 2.639242814016641e-001	 1.186226383482333e+001
 2.231928194088898e+000	 2.845989044733669e-001	 1.188170344506574e+001
 2.229188860500556e+000	 3.053146315223868e-001	 1.189671541141840e+001
 2.226247763581711e+000	 3.260688503289499e-001	 1.190742831001500e+001
 2.223103438964543e+000	 3.468589045682615e-001	 1.191395987819918e+001
 2.219754463329662e+000	 3.676820944102923e-001	 1.191641660490837e+001
 2.216199455735425e+000	 3.885356771626088e-001	 1.191489333772317e+001
 2.212437078940723e+000	 4.094168679565229e-001	 1.190947290794936e+001
 2.265797417088305e+000	 2.044188462186914e-001	 1.172886695917423e+001
 2.263828077851779e+000	 2.251831119367893e-001	 1.175944925591918e+001
 2.261661044040257e+000	 2.459965890868868e-001	 1.178505545045259e+001
 2.259294682517994e+000	 2.668567734184952e-001	 1.180585390927267e+001
 2.256727396240981e+000	 2.877611145242887e-001	 1.182200349358096e+001
 2.253957625612741e+000	 3.087070163181624e-001	 1.183365309898476e+001
 2.250983849839349e+000	 3.296918375556777e-001	 1.184094120788075e+001
 2.247804588282233e+000	 3.507128923973187e-001	 1.184399545591780e+001
 2.244418401807346e+000	 3.717674510149442e-001	 1.184293221394069e+001
 2.240823894129246e+000	 3.928527402417593e-001	 1.183785618681480e+001
 2.237019713148594e+000	 4.139659442660895e-001	 1.182886003052654e+001
 2.290696289801054e+000	 2.066652071669667e-001	 1.168897884806542e+001
 2.288705309473562e+000	 2.276576516292786e-001	 1.171695520547506e+001
 2.286514462103322e+000	 2.486998483085035e-001	 1.173988601941142e+001
 2.284122096608051e+000	 2.697892654349161e-001	 1.175794958857715e+001
 2.281526598393801e+000	 2.909233245747359e-001	 1.177131469749311e+001
 2.278726390725677e+000	 3.120994011134391e-001	 1.178014014668485e+001
 2.275719936097731e+000	 3.333148247819217e-001	 1.178457429571135e+001
 2.272505737600639e+000	 3.545668802259481e-001	 1.178475462046279e+001
 2.269082340285696e+000	 3.758528076192647e-001	 1.178080728615770e+001
 2.265448332523665e+000	 3.971698033207161e-001	 1.177284673746891e+001
 2.261602347356972e+000	 4.185150205756415e-001	 1.176097530720065e+001
 2.315595162514295e+000	 2.089115681152584e-001	 1.165559349082554e+001
 2.313582541095926e+000	 2.301321913216035e-001	 1.168135946626062e+001
 2.311367880167042e+000	 2.514031075298135e-001	 1.170204270652979e+001
 2.308949510698812e+000	 2.727217574509268e-001	 1.171783149779289e+001
 2.306325800547358e+000	 2.940855346247087e-001	 1.172890457595903e+001
 2.303495155839361e+000	 3.154917859082165e-001	 1.173543064676703e+001
 2.300456022356852e+000	 3.369378120076821e-001	 1.173756791889513e+001
 2.297206886919757e+000	 3.584208680541495e-001	 1.173546365155827e+001
 2.293746278764711e+000	 3.799381642232538e-001	 1.172925371805283e+001
 2.290072770918681e+000	 4.014868663994788e-001	 1.171906218670938e+001
 2.286184981565858e+000	 4.230640968851787e-001	 1.170500092070639e+001
 2.340494035228027e+000	 2.111579290635668e-001	 1.162805805180250e+001
 2.338459772718871e+000	 2.326067310137641e-001	 1.165199764166253e+001
 2.336221298231414e+000	 2.541063667508168e-001	 1.167084925295951e+001
 2.333776924790280e+000	 2.756542494665273e-001	 1.168481121533577e+001
 2.331125002701654e+000	 2.972477446742071e-001	 1.169407224500587e+001
 2.328263920953794e+000	 3.188841707024949e-001	 1.169881095414055e+001
 2.325192108616717e+000	 3.405607992329587e-001	 1.169919537349419e+001
 2.321908036239590e+000	 3.622748558819228e-001	 1.169538248976543e+001
 2.318410217244391e+000	 3.840235208269115e-001	 1.168751779918465e+001
 2.314697209314292e+000	 4.058039294780479e-001	 1.167573487881945e+001
 2.310767615775252e+000	 4.276131731947014e-001	 1.166015497708440e+001
 2.365392907942251e+000	 2.134042900118918e-001	 1.160574731766170e+001
 2.363337004342399e+000	 2.350812707057606e-001	 1.162823350349945e+001
 2.361074716296441e+000	 2.568096259715135e-001	 1.164565813559618e+001
 2.358604338882452e+000	 2.785867414817178e-001	 1.165822964385723e+001
 2.355924204856684e+000	 3.004099547232310e-001	 1.166614675453786e+001
 2.353032686068978e+000	 3.222765554962742e-001	 1.166959798834100e+001
 2.349928194877323e+000	 3.441837864577516e-001	 1.166876117199831e+001
 2.346609185560137e+000	 3.661288437092684e-001	 1.166380296485942e+001
 2.343074155724738e+000	 3.881088774302378e-001	 1.165487840201582e+001
 2.339321647710501e+000	 4.101209925564233e-001	 1.164213045548603e+001
 2.335350249985152e+000	 4.321622495042093e-001	 1.162568961498102e+001
 2.390291780656967e+000	 2.156506509602334e-001	 1.158806225872383e+001
 2.388214235966510e+000	 2.375558103975928e-001	 1.160945752491617e+001
 2.385928134362120e+000	 2.595128851919036e-001	 1.162584907042607e+001
 2.383431752975329e+000	 2.815192334964979e-001	 1.163745548294033e+001
 2.380723407012454e+000	 3.035721647717806e-001	 1.164448552928028e+001
 2.377801451184912e+000	 3.256689402895543e-001	 1.164713764162238e+001
 2.374664281138672e+000	 3.478067736820609e-001	 1.164559941746953e+001
 2.371310334881398e+000	 3.699828315361859e-001	 1.164004713493276e+001
 2.367738094205750e+000	 3.921942340332325e-001	 1.163064528488664e+001
 2.363946086107307e+000	 4.144380556346049e-001	 1.161754612155996e+001
 2.359932884195560e+000	 4.367113258137025e-001	 1.160088923311676e+001
 2.415190653372174e+000	 2.178970119085915e-001	 1.157442867929174e+001
 2.413091467591202e+000	 2.400303500892606e-001	 1.159508550402655e+001
 2.410781552428453e+000	 2.622161444119870e-001	 1.161082760844895e+001
 2.408259167068910e+000	 2.844517255108678e-001	 1.162188379626817e+001
 2.405522609168961e+000	 3.067343748198555e-001	 1.162847290615972e+001
 2.402570216301593e+000	 3.290613250823354e-001	 1.163080328551825e+001
 2.399400367400762e+000	 3.514297609058863e-001	 1.162907227825475e+001
 2.396011484203374e+000	 3.738368193626756e-001	 1.162346572823485e+001
 2.392402032687428e+000	 3.962795906358960e-001	 1.161415749995982e+001
 2.388570524504710e+000	 4.187551187125926e-001	 1.160130901808893e+001
 2.384515518406475e+000	 4.412604021231812e-001	 1.158506882739606e+001
 2.440089526087873e+000	 2.201433728569663e-001	 1.156429595061062e+001
 2.437968699216476e+000	 2.425048897807643e-001	 1.158455727182325e+001
 2.435634970495439e+000	 2.649194036317638e-001	 1.160002381756535e+001
 2.433086581163198e+000	 2.873842175248277e-001	 1.161093466651673e+001
 2.430321811326203e+000	 3.098965848674560e-001	 1.161751876123260e+001
 2.427338981419026e+000	 3.324537098746174e-001	 1.161999436883760e+001
 2.424136453663594e+000	 3.550527481292280e-001	 1.161856855608361e+001
 2.420712633526063e+000	 3.776908071887373e-001	 1.161343668040871e+001
 2.417065971169772e+000	 4.003649472382279e-001	 1.160478189863737e+001
 2.413194962902710e+000	 4.230721817903866e-001	 1.159277469496046e+001
 2.409098152617898e+000	 4.458094784326451e-001	 1.157757242982647e+001
 2.464988398804064e+000	 2.223897338053576e-001	 1.155713582061822e+001
 2.462845930842334e+000	 2.449794294721036e-001	 1.157733547839590e+001
 2.460488388563079e+000	 2.676226628512339e-001	 1.159289104434912e+001
 2.457913995258191e+000	 2.903167095383774e-001	 1.160405193176929e+001
 2.455121013484185e+000	 3.130587949145821e-001	 1.161105721983018e+001
 2.452107746537208e+000	 3.358460946664003e-001	 1.161413510063067e+001
 2.448872539927168e+000	 3.586757353520861e-001	 1.161350234094804e+001
 2.445413782849465e+000	 3.815447950143708e-001	 1.160936376038032e+001
 2.441729909652781e+000	 4.044503038402285e-001	 1.160191172755905e+001
 2.437819401301307e+000	 4.273892448679869e-001	 1.159132567611206e+001
 2.433680786829828e+000	 4.503585547420945e-001	 1.157777164204881e+001
 2.489887271520747e+000	 2.246360947537655e-001	 1.155244129511013e+001
 2.487723162468774e+000	 2.474539691632789e-001	 1.157290445197625e+001
 2.485341806631373e+000	 2.703259220703974e-001	 1.158890475011377e+001
 2.482741409353889e+000	 2.932492015515169e-001	 1.160070199774614e+001
 2.479920215642903e+000	 3.162210049612338e-001	 1.160854544409469e+001
 2.476876511656140e+000	 3.392384794576842e-001	 1.161267321217695e+001
 2.473608626191484e+000	 3.622987225744604e-001	 1.161331174668920e+001
 2.470114932173583e+000	 3.853987828395769e-001	 1.161067527869446e+001
 2.466393848136456e+000	 4.085356604418977e-001	 1.160496530884019e+001
 2.462443839700501e+000	 4.317063079453934e-001	 1.159637011082890e+001
 2.458263421042266e+000	 4.549076310515292e-001	 1.158506425685568e+001
 2.212437078940723e+000	 4.094168679565229e-001	 1.190947290794936e+001
 2.208466040719535e+000	 4.303228404769294e-001	 1.198199420263816e+001
 2.204285095166384e+000	 4.512507277356548e-001	 1.204530623779845e+001
 2.199893043990709e+000	 4.721976228884910e-001	 1.209939021984746e+001
 2.195288737798134e+000	 4.931605800963979e-001	 1.214421791273932e+001
 2.190471077357688e+000	 5.141366154304753e-001	 1.217975150135808e+001
 2.185439014853160e+000	 5.351227078207387e-001	 1.220594347845387e+001
 2.180191555116963e+000	 5.561158000485696e-001	 1.222273655606527e+001
 2.174727756844883e+000	 5.771127997826460e-001	 1.223006360232425e+001
 2.169046733790038e+000	 5.981105806580939e-001	 1.222784760449006e+001
 2.163147655934445e+000	 6.191059833985354e-001	 1.221600165900249e+001
 2.237019713148594e+000	 4.139659442660895e-001	 1.182886003052654e+001
 2.233004552281214e+000	 4.351042053694189e-001	 1.189821214626416e+001
 2.228777151778144e+000	 4.562646247082412e-001	 1.195974185999827e+001
 2.224336300034484e+000	 4.774442631400798e-001	 1.201345660989632e+001
 2.219680834884810e+000	 4.986401420943507e-001	 1.205935339652464e+001
 2.214809644884473e+000	 5.198492444873888e-001	 1.209741860668085e+001
 2.209721670574856e+000	 5.410685156817662e-001	 1.212762786165393e+001
 2.204415905730960e+000	 5.622948644897695e-001	 1.214994589094078e+001
 2.198891398589630e+000	 5.835251642208400e-001	 1.216432643240096e+001
 2.193147253056797e+000	 6.047562537727171e-001	 1.217071215978093e+001
 2.187182629892056e+000	 6.259849387659531e-001	 1.215618034863927e+001
 2.261602347356972e+000	 4.185150205756415e-001	 1.176097530720065e+001
 2.257543063843300e+000	 4.398855702620842e-001	 1.182811334282589e+001
 2.253269208390209e+000	 4.612785216811742e-001	 1.188881814444853e+001
 2.248779556078466e+000	 4.826909033921670e-001	 1.194312280430549e+001
 2.244072931971593e+000	 5.041197040929338e-001	 1.199104896309735e+001
 2.239148212411263e+000	 5.255618735450450e-001	 1.203260659449299e+001
 2.234004326296460e+000	 5.470143235436286e-001	 1.206779381498324e+001
 2.228640256344763e+000	 5.684739289318761e-001	 1.209659672019908e+001
 2.223055040334082e+000	 5.899375286599926e-001	 1.211898924876244e+001
 2.217247772323163e+000	 6.114019268883302e-001	 1.213493307468616e+001
 2.211217603849173e+000	 6.328638941343707e-001	 1.203611005518299e+001
 2.286184981565858e+000	 4.230640968851787e-001	 1.170500092070639e+001
 2.282081575405792e+000	 4.446669351549252e-001	 1.177085746646227e+001
 2.277761265002584e+000	 4.662924186544543e-001	 1.183167289708973e+001
 2.273222812122656e+000	 4.879375436447528e-001	 1.188750539376040e+001
 2.268465029058483e+000	 5.095992660921478e-001	 1.193840065305222e+001
 2.263486779938061e+000	 5.312745026034440e-001	 1.198439163234347e+001
 2.258286982017970e+000	 5.529601314063258e-001	 1.202549832151503e+001
 2.252864606958372e+000	 5.746529933748896e-001	 1.206172754216367e+001
 2.247218682078240e+000	 5.963498931001033e-001	 1.209307277548106e+001
 2.241348291589134e+000	 6.180476000049325e-001	 1.211951401990047e+001
 2.235252577805797e+000	 6.397428495037884e-001	 1.192811725781050e+001
 2.310767615775252e+000	 4.276131731947014e-001	 1.166015497708440e+001
 2.306620086968692e+000	 4.494483000479418e-001	 1.172564121796437e+001
 2.302253321615266e+000	 4.713063156280811e-001	 1.178748203492834e+001
 2.297666068167052e+000	 4.931841838978370e-001	 1.184576014487614e+001
 2.292857126145480e+000	 5.150788280919920e-001	 1.190054472761188e+001
 2.287825347464866e+000	 5.369871316625857e-001	 1.195189113233042e+001
 2.282569637739387e+000	 5.589059392698582e-001	 1.199984061140932e+001
 2.277088957571788e+000	 5.808320578188099e-001	 1.204442008279676e+001
 2.271382323822107e+000	 6.027622575411730e-001	 1.208564192223721e+001
 2.265448810854711e+000	 6.246932731225248e-001	 1.212350378652294e+001
 2.259287551761927e+000	 6.466218048742060e-001	 1.183213415909303e+001
 2.335350249985152e+000	 4.321622495042093e-001	 1.162568961498102e+001
 2.331158598532001e+000	 4.542296649411343e-001	 1.169169637600425e+001
 2.326745378228254e+000	 4.763202126020547e-001	 1.175545758019151e+001
 2.322109324211656e+000	 4.984308241514198e-001	 1.181707993830669e+001
 2.317249223232583e+000	 5.205583900924671e-001	 1.187665555175178e+001
 2.312163914991677e+000	 5.426997607224701e-001	 1.193426158033549e+001
 2.306852293460711e+000	 5.648517471342254e-001	 1.198995993838212e+001
 2.301313308185010e+000	 5.870111222636373e-001	 1.204379702056032e+001
 2.295545965565678e+000	 6.091746219832008e-001	 1.209580345876090e+001
 2.289549330119896e+000	 6.313389462411065e-001	 1.204763674953809e+001
 2.283322525717564e+000	 6.535007602456238e-001	 1.174813657033802e+001
 2.359932884195560e+000	 4.367113258137025e-001	 1.160088923311676e+001
 2.355697110095715e+000	 4.590110298345022e-001	 1.166828797016217e+001
 2.351237434841551e+000	 4.813341095763753e-001	 1.173484577984692e+001
 2.346552580256467e+000	 5.036774644055011e-001	 1.180069283572193e+001
 2.341641320319795e+000	 5.260379520935724e-001	 1.186594360962974e+001
 2.336502482518495e+000	 5.484123897830971e-001	 1.193069650093106e+001
 2.331134949181941e+000	 5.707975549994273e-001	 1.199503349514530e+001
 2.325537658798040e+000	 5.931901867093714e-001	 1.205901985347339e+001
 2.319709607308956e+000	 6.155869864261873e-001	 1.212270383462095e+001
 2.313649849384685e+000	 6.379846193606776e-001	 1.197812032401794e+001
 2.307357499672707e+000	 6.603797156180414e-001	 1.167614164030076e+001
 2.384515518406475e+000	 4.412604021231812e-001	 1.158506882739606e+001
 2.380235621659837e+000	 4.637923947280462e-001	 1.165471256696221e+001
 2.375729491455153e+000	 4.863480065510425e-001	 1.172492534144079e+001
 2.370995836301484e+000	 5.089241046600809e-001	 1.179586026635339e+001
 2.366033417407113e+000	 5.315175140953082e-001	 1.186765364277247e+001
 2.360841050045321e+000	 5.541250188444671e-001	 1.194042454816938e+001
 2.355417604903078e+000	 5.767433628654642e-001	 1.201427445778824e+001
 2.349762009410875e+000	 5.993692511560124e-001	 1.208928689810415e+001
 2.343873249051941e+000	 6.219993508701321e-001	 1.216552713387252e+001
 2.337750368649083e+000	 6.446302924812387e-001	 1.191960104100603e+001
 2.331392473627356e+000	 6.672586709914591e-001	 1.161620572438827e+001
 2.409098152617898e+000	 4.458094784326451e-001	 1.157757242982647e+001
 2.404774133224367e+000	 4.685737596217657e-001	 1.165029666084467e+001
 2.400221548069064e+000	 4.913619035260567e-001	 1.172500577694619e+001
 2.395439092346710e+000	 5.141707449151590e-001	 1.180187532456766e+001
 2.390425514494538e+000	 5.369970760976746e-001	 1.188106290225072e+001
 2.385179617572153e+000	 5.598376479065795e-001	 1.196270771326222e+001
 2.379700260624122e+000	 5.826891707323360e-001	 1.204693014989137e+001
 2.373986360023517e+000	 6.055483156035603e-001	 1.213383141107243e+001
 2.368036890794632e+000	 6.284117153150356e-001	 1.216683810298584e+001
 2.361850887913085e+000	 6.512759656027892e-001	 1.187217031141354e+001
 2.355427447581511e+000	 6.741376263658767e-001	 1.156842238431977e+001
 2.433680786829828e+000	 4.503585547420945e-001	 1.157777164204881e+001
 2.429312644789304e+000	 4.733551245156609e-001	 1.165439516265514e+001
 2.424713604683281e+000	 4.963758005014177e-001	 1.173442584698374e+001
 2.419882348392142e+000	 5.194173851707360e-001	 1.181806117061717e+001
 2.414817611582069e+000	 5.424766381006717e-001	 1.190547950678309e+001
 2.409518185098991e+000	 5.655502769694349e-001	 1.199683964088596e+001
 2.403982916345072e+000	 5.886349786000428e-001	 1.209228031790522e+001
 2.398210710635965e+000	 6.117273800520151e-001	 1.219191982440077e+001
 2.392200532537029e+000	 6.348240797608977e-001	 1.212950742085055e+001
 2.385951407176694e+000	 6.579216387253293e-001	 1.183595417417268e+001
 2.379462421535173e+000	 6.810165817412944e-001	 1.153292050902018e+001
 2.458263421042266e+000	 4.549076310515292e-001	 1.158506425685568e+001
 2.453851156354649e+000	 4.781364894097321e-001	 1.166638997882433e+001
 2.449205661297807e+000	 5.013896974771258e-001	 1.175255209838939e+001
 2.444325604437782e+000	 5.246640254268113e-001	 1.184376952734593e+001
 2.439209708669709e+000	 5.479562001042994e-001	 1.194024089935381e+001
 2.433856752625838e+000	 5.712629060330331e-001	 1.204214404650847e+001
 2.428265572065930e+000	 5.945807864685845e-001	 1.214963551000719e+001
 2.422435061248221e+000	 6.179064445013770e-001	 1.226285008674413e+001
 2.416364174279133e+000	 6.412364442077183e-001	 1.210240297153081e+001
 2.410051926439911e+000	 6.645673118488592e-001	 1.181111156483574e+001
 2.403497395488342e+000	 6.878955371177123e-001	 1.150986254825969e+001
 2.163147655934445e+000	 6.191059833985354e-001	 1.221600165900249e+001
 2.157029750636725e+000	 6.400958169810158e-001	 1.227616366544768e+001
 2.150692303753667e+000	 6.610768598420859e-001	 1.227086647717768e+001
 2.144134660734327e+000	 6.820458611255974e-001	 1.227434859007738e+001
 2.137356227685584e+000	 7.029995419721637e-001	 1.228848466077307e+001
 2.130356472406817e+000	 7.239345968484161e-001	 1.231522573067610e+001
 2.123134925392267e+000	 7.448476949157644e-001	 1.235659897987579e+001
 2.115691180799508e+000	 7.657354814378435e-001	 1.241470731397635e+001
 2.108024897382408e+000	 7.865945792257689e-001	 1.249172877923450e+001
 2.100135799387014e+000	 8.074215901202450e-001	 1.258991580169199e+001
 2.092023677408817e+000	 8.282130965095027e-001	 1.271159424635935e+001
 2.187182629892056e+000	 6.259849387659531e-001	 1.215618034863927e+001
 2.180996747869119e+000	 6.472079927217472e-001	 1.214708821663554e+001
 2.174588884909840e+000	 6.684221582814655e-001	 1.214572821276670e+001
 2.167958379190486e+000	 6.896241484683361e-001	 1.215389404882632e+001
 2.161104630219127e+000	 7.108106479912013e-001	 1.217345729570627e+001
 2.154027099881797e+000	 7.319783145885442e-001	 1.220636734597716e+001
 2.146725313456010e+000	 7.531237804124568e-001	 1.225465121121327e+001
 2.139198860589977e+000	 7.742436534517255e-001	 1.232041314890197e+001
 2.131447396245942e+000	 7.953345189931451e-001	 1.240583411409508e+001
 2.123470641606019e+000	 8.163929411200948e-001	 1.251317103130137e+001
 2.115268384938982e+000	 8.374154642473412e-001	 1.264475588248998e+001
 2.211217603849173e+000	 6.328638941343707e-001	 1.203611005518299e+001
 2.204963745100923e+000	 6.543201684634740e-001	 1.202917616775268e+001
 2.198485466065337e+000	 6.757674567218257e-001	 1.203063643259697e+001
 2.191782097645896e+000	 6.972024358120310e-001	 1.204228009155662e+001
 2.184853032751853e+000	 7.186217540111608e-001	 1.206597574423818e+001
 2.177697727355906e+000	 7.400220323295500e-001	 1.210367135921396e+001
 2.170315701518835e+000	 7.613998659099726e-001	 1.215739411666439e+001
 2.162706540379492e+000	 7.827518254663665e-001	 1.222925007709103e+001
 2.154869895108496e+000	 8.040744587612061e-001	 1.232142367104918e+001
 2.146805483824029e+000	 8.253642921205442e-001	 1.243617700519943e+001
 2.138513092468148e+000	 8.466178319856844e-001	 1.257584898035287e+001
 2.235252577805797e+000	 6.397428495037884e-001	 1.192811725781050e+001
 2.228930742332137e+000	 6.614323442061955e-001	 1.192237629517929e+001
 2.222382047220159e+000	 6.831127551631664e-001	 1.192560246960984e+001
 2.215605816100554e+000	 7.047807231566821e-001	 1.193958053324817e+001
 2.208601435283763e+000	 7.264328600320422e-001	 1.196617620338576e+001
 2.201368354829143e+000	 7.480657500714333e-001	 1.200733622434540e+001
 2.193906089580742e+000	 7.696759514083115e-001	 1.206508825735953e+001
 2.186214220168053e+000	 7.912599974817667e-001	 1.214154059284907e+001
 2.178292393970071e+000	 8.128143985299516e-001	 1.223888167983726e+001
 2.170140326041044e+000	 8.343356431215937e-001	 1.235937946758896e+001
 2.161757799996312e+000	 8.558201997245328e-001	 1.250538055495048e+001
 2.259287551761927e+000	 6.466218048742060e-001	 1.183213415909303e+001
 2.252897739562764e+000	 6.685445199499122e-001	 1.182668152346628e+001
 2.246278628374308e+000	 6.904580536054878e-001	 1.183067987595929e+001
 2.239429534554463e+000	 7.123590105022891e-001	 1.184590943395801e+001
 2.232349837814859e+000	 7.342439660538456e-001	 1.187423309647079e+001
 2.225038982301508e+000	 7.561094678141940e-001	 1.191759655879972e+001
 2.217496477641732e+000	 7.779520369074738e-001	 1.197802825160603e+001
 2.209721899955661e+000	 7.997681694979260e-001	 1.205763909854921e+001
 2.201714892830666e+000	 8.215543382993816e-001	 1.215862208701265e+001
 2.193475168257064e+000	 8.433069941232433e-001	 1.228325164679118e+001
 2.185002507523477e+000	 8.650225674638863e-001	 1.243388283200657e+001
 2.283322525717564e+000	 6.535007602456238e-001	 1.174813657033802e+001
 2.276864736792801e+000	 6.756566956946243e-001	 1.174212660174714e+001
 2.270175209527782e+000	 6.978033520487897e-001	 1.174596220094806e+001
 2.263253253007622e+000	 7.199372978488524e-001	 1.176141898065841e+001
 2.256098240345136e+000	 7.420550720765704e-001	 1.179035706120913e+001
 2.248709609773001e+000	 7.641531855578325e-001	 1.183472124013404e+001
 2.241086865701803e+000	 7.862281224074595e-001	 1.189654098240537e+001
 2.233229579742315e+000	 8.082763415148443e-001	 1.197793022526003e+001
 2.225137391690283e+000	 8.302942780694964e-001	 1.208108699189902e+001
 2.216810010472089e+000	 8.522783451254928e-001	 1.220829280871318e+001
 2.208247215049642e+000	 8.742249352037450e-001	 1.236191192108607e+001
 2.307357499672707e+000	 6.603797156180414e-001	 1.167614164030076e+001
 2.300831734022249e+000	 6.827688714403316e-001	 1.166878592537461e+001
 2.294071790680583e+000	 7.051486504930723e-001	 1.167158090784287e+001
 2.287076971460031e+000	 7.275155851963721e-001	 1.168629750145994e+001
 2.279846642874599e+000	 7.498661781002173e-001	 1.171479306354440e+001
 2.272380237243623e+000	 7.721969033023488e-001	 1.175901162165250e+001
 2.264677253760957e+000	 7.945042079082688e-001	 1.182098391700015e+001
 2.256737259528015e+000	 8.167845135325214e-001	 1.190282725833440e+001
 2.248559890548920e+000	 8.390342178402960e-001	 1.200674518030004e+001
 2.240144852686120e+000	 8.612496961283428e-001	 1.213502690072368e+001
 2.231491922574806e+000	 8.834273029441089e-001	 1.229004657164494e+001
 2.331392473627356e+000	 6.672586709914591e-001	 1.161620572438827e+001
 2.324798731251109e+000	 6.898810471870337e-001	 1.160677149230092e+001
 2.317968371832708e+000	 7.124939489383351e-001	 1.160770341954637e+001
 2.310900689911690e+000	 7.350938725448476e-001	 1.162076760266636e+001
 2.303595045403246e+000	 7.576772841247863e-001	 1.164781862815167e+001
 2.296050864713372e+000	 7.802406210477424e-001	 1.169079985839881e+001
 2.288267641819193e+000	 8.027802934099013e-001	 1.175174353036688e+001
 2.280244939312762e+000	 8.252926855509580e-001	 1.183277066038452e+001
 2.271982389406578e+000	 8.477741576117798e-001	 1.193609074890760e+001
 2.263479694899156e+000	 8.702210471317924e-001	 1.206400127941254e+001
 2.254736630098972e+000	 8.926296706849779e-001	 1.221888700602545e+001
 2.355427447581511e+000	 6.741376263658767e-001	 1.156842238431977e+001
 2.348765728479379e+000	 6.969932229347312e-001	 1.155623098457775e+001
 2.341864952984159e+000	 7.198392473845788e-001	 1.155453128392180e+001
 2.334724408362598e+000	 7.426721598942792e-001	 1.156508441988701e+001
 2.327343447931077e+000	 7.654883901502769e-001	 1.158974217727765e+001
 2.319721492182249e+000	 7.882843387940137e-001	 1.163044733563885e+001
 2.311858029876512e+000	 8.110563789123574e-001	 1.168923382522960e+001
 2.303752619096555e+000	 8.338008575701533e-001	 1.176822668468698e+001
 2.295404888263255e+000	 8.565140973839485e-001	 1.186964181393008e+001
 2.286814537111197e+000	 8.791923981358417e-001	 1.199578551624295e+001
 2.277981337622136e+000	 9.018320384263519e-001	 1.214905382390089e+001
 2.379462421535173e+000	 6.810165817412944e-001	 1.153292050902018e+001
 2.372732725707062e+000	 7.041053986834239e-001	 1.151734596612929e+001
 2.365761534134936e+000	 7.271845458318029e-001	 1.151229845031021e+001
 2.358548126812757e+000	 7.502504472446673e-001	 1.151953397514278e+001
 2.351091850458091e+000	 7.732994961766895e-001	 1.154090147025729e+001
 2.343392119650255e+000	 7.963280565411630e-001	 1.157834319258678e+001
 2.335448417932912e+000	 8.193324644156368e-001	 1.163389494176944e+001
 2.327260298879394e+000	 8.423090295901077e-001	 1.170968607262394e+001
 2.318827387118954e+000	 8.652540371568016e-001	 1.180793929798527e+001
 2.310149379322243e+000	 8.881637491404915e-001	 1.193097027558797e+001
 2.301226045144301e+000	 9.110344061682311e-001	 1.208118697311715e+001
 2.403497395488342e+000	 6.878955371177123e-001	 1.150986254825969e+001
 2.396699722934155e+000	 7.112175744331118e-001	 1.149033018865831e+001
 2.389658115285039e+000	 7.345298442800079e-001	 1.148126964945649e+001
 2.382371845262166e+000	 7.578287345960115e-001	 1.148443163254540e+001
 2.374840252984291e+000	 7.811106022040242e-001	 1.150166213665943e+001
 2.367062747117390e+000	 8.043717742891897e-001	 1.153490293470772e+001
 2.359038805988395e+000	 8.276085499197395e-001	 1.158619185075194e+001
 2.350767978661280e+000	 8.508172016108215e-001	 1.165766282927790e+001
 2.342249885973674e+000	 8.739939769303398e-001	 1.175154578977999e+001
 2.333484221532295e+000	 8.971351001457415e-001	 1.187016626008498e+001
 2.324470752665467e+000	 9.202367739106158e-001	 1.201594478228433e+001
 2.092023677408817e+000	 8.282130965095027e-001	 1.271159424635935e+001
 2.083688389209485e+000	 8.489656628815500e-001	 1.259295068403302e+001
 2.075129860492684e+000	 8.696758374109872e-001	 1.250252287416659e+001
 2.066348085636912e+000	 8.903401535779647e-001	 1.244232150163708e+001
 2.057343128383052e+000	 9.109551318173336e-001	 1.241441950163870e+001
 2.048115122476415e+000	 9.315172811979672e-001	 1.242095067856559e+001
 2.038664272261591e+000	 9.520231011303464e-001	 1.246410814431006e+001
 2.028990853228824e+000	 9.724690831009004e-001	 1.254614257458921e+001
 2.019095212510688e+000	 9.928517124315603e-001	 1.266936028241065e+001
 2.008977769327879e+000	 1.013167470062905e+000	 1.283612110830149e+001
 1.998639015383027e+000	 1.033412834359236e+000	 1.304883612745575e+001
 2.115268384938982e+000	 8.374154642473412e-001	 1.264475588248998e+001
 2.106840482426126e+000	 8.583986146904973e-001	 1.251747433226410e+001
 2.098186858945656e+000	 8.793389022705094e-001	 1.241860183165688e+001
 2.089307508813610e+000	 9.002328219506403e-001	 1.235026982652695e+001
 2.080202496479101e+000	 9.210768555039048e-001	 1.231467545621000e+001
 2.070871957173500e+000	 9.418674732110530e-001	 1.231408008774344e+001
 2.061316097511894e+000	 9.626011355871261e-001	 1.235080766115769e+001
 2.051535196045530e+000	 9.832742951350688e-001	 1.242724284442998e+001
 2.041529603764009e+000	 1.003883398124834e+000	 1.254582899721558e+001
 2.031299744546037e+000	 1.024424886396339e+000	 1.270906594300818e+001
 2.020846115557606e+000	 1.044895199184599e+000	 1.291950754993413e+001
 2.138513092468148e+000	 8.466178319856844e-001	 1.257584898035287e+001
 2.129992575641768e+000	 8.678315664998595e-001	 1.244221871277030e+001
 2.121243857397628e+000	 8.890019671303757e-001	 1.233712790694044e+001
 2.112266931989306e+000	 9.101254903236083e-001	 1.226282814521892e+001
 2.103061864574149e+000	 9.311985791907376e-001	 1.222164023955176e+001
 2.093628791869585e+000	 9.522176652243891e-001	 1.221595268253843e+001
 2.083967922761197e+000	 9.731791700441648e-001	 1.224821990105144e+001
 2.074079538861235e+000	 9.940795071695255e-001	 1.232096031098490e+001
 2.063963995016330e+000	 1.014915083818444e+000	 1.243675417224700e+001
 2.053621719763194e+000	 1.035682302730179e+000	 1.259824124366995e+001
 2.043053215731184e+000	 1.056377564010459e+000	 1.280811823808792e+001
 2.161757799996312e+000	 8.558201997245328e-001	 1.250538055495048e+001
 2.153144668856409e+000	 8.772645183096366e-001	 1.236761657341915e+001
 2.144300855848600e+000	 8.986650319905861e-001	 1.225845861740213e+001
 2.135226355164004e+000	 9.200181586968700e-001	 1.218027781800037e+001
 2.125921232668198e+000	 9.413203028778325e-001	 1.213551816653435e+001
 2.116385626564670e+000	 9.625678572379758e-001	 1.212669488392743e+001
 2.106619748009500e+000	 9.837572045014627e-001	 1.215639258397017e+001
 2.096623881675941e+000	 1.004884719204270e+000	 1.222726322901056e+001
 2.086398386267651e+000	 1.025946769512391e+000	 1.234202387717874e+001
 2.075943694979352e+000	 1.046939719064425e+000	 1.250345422083855e+001
 2.065260315903762e+000	 1.067859928836815e+000	 1.271439391655622e+001
 2.185002507523477e+000	 8.650225674638863e-001	 1.243388283200657e+001
 2.176296762070050e+000	 8.866974701198287e-001	 1.229412931573094e+001
 2.167357854298572e+000	 9.083280968511407e-001	 1.218298356664796e+001
 2.158185778337701e+000	 9.299108270704242e-001	 1.210293571196553e+001
 2.148780600761245e+000	 9.514420265651888e-001	 1.205655246581218e+001
 2.139142461258755e+000	 9.729180492518131e-001	 1.204647541840734e+001
 2.129271573256803e+000	 9.943352389590200e-001	 1.207541911027049e+001
 2.119168224489647e+000	 1.015689931239302e+000	 1.214616888997964e+001
 2.108832777517973e+000	 1.036978455206676e+000	 1.226157855457750e+001
 2.098265670194510e+000	 1.058197135399078e+000	 1.242456777233019e+001
 2.087467416075340e+000	 1.079342293663667e+000	 1.263811928816648e+001
 2.208247215049642e+000	 8.742249352037450e-001	 1.236191192108607e+001
 2.199448855282691e+000	 8.961304219304351e-001	 1.222224548679195e+001
 2.190414852747545e+000	 9.179911617120395e-001	 1.211112275575643e+001
 2.181145201510397e+000	 9.398034954442720e-001	 1.203115233223623e+001
 2.171639968853294e+000	 9.615637502528075e-001	 1.198502323172972e+001
 2.161899295951840e+000	 9.832682412659006e-001	 1.197550309138873e+001
 2.151923398503107e+000	 1.004913273416836e+000	 1.200543615645611e+001
 2.141712567302352e+000	 1.026495143274622e+000	 1.207774104120115e+001
 2.131267168767293e+000	 1.048010140901297e+000	 1.219540826343465e+001
 2.120587645408667e+000	 1.069454551734137e+000	 1.236149755231691e+001
 2.109674516245919e+000	 1.090824658491015e+000	 1.257913492981934e+001
 2.231491922574806e+000	 8.834273029441089e-001	 1.229004657164494e+001
 2.222600948494332e+000	 9.055633737414569e-001	 1.215247936542258e+001
 2.213471851195517e+000	 9.276542265732823e-001	 1.204332500007685e+001
 2.204104624682095e+000	 9.496961638184127e-001	 1.196531006998115e+001
 2.194499336944342e+000	 9.716854739406875e-001	 1.192124550423360e+001
 2.184656130643925e+000	 9.936184332802385e-001	 1.191402469975244e+001
 2.174575223748410e+000	 1.015491307874912e+000	 1.194662142121197e+001
 2.164256910114057e+000	 1.037300355310231e+000	 1.202208746624561e+001
 2.153701560015615e+000	 1.059041826596255e+000	 1.214355009497766e+001
 2.142909620621825e+000	 1.080711968069603e+000	 1.231420922359960e+001
 2.131881616415496e+000	 1.102307023318859e+000	 1.253733438238080e+001
 2.254736630098972e+000	 8.926296706849779e-001	 1.221888700602545e+001
 2.245753041704973e+000	 9.149963255528933e-001	 1.208536963579954e+001
 2.236528849642489e+000	 9.373172914348695e-001	 1.198006644395765e+001
 2.227064047852791e+000	 9.595888321928466e-001	 1.190582155880525e+001
 2.217358705034390e+000	 9.818071976288297e-001	 1.186556746755272e+001
 2.207412965335010e+000	 1.003968625294827e+000	 1.186232307352637e+001
 2.197227048992712e+000	 1.026069342333246e+000	 1.189919151085875e+001
 2.186801252924763e+000	 1.048105567346127e+000	 1.197935771503464e+001
 2.176135951262936e+000	 1.070073512291550e+000	 1.210608574832788e+001
 2.165231595833983e+000	 1.091969384405474e+000	 1.228271587984379e+001
 2.154088716584075e+000	 1.113789388147199e+000	 1.251266142058082e+001
 2.277981337622136e+000	 9.018320384263519e-001	 1.214905382390089e+001
 2.268905134914614e+000	 9.244292773647448e-001	 1.202147814228439e+001
 2.259585848088461e+000	 9.469803562968008e-001	 1.192184916640966e+001
 2.250023471022489e+000	 9.694815005675737e-001	 1.185312813176824e+001
 2.240218073123438e+000	 9.919289213172337e-001	 1.181836875916354e+001
 2.230169800025096e+000	 1.014318817309666e+000	 1.182071523745955e+001
 2.219878874236016e+000	 1.036647376791840e+000	 1.186339995426951e+001
 2.209345595734469e+000	 1.058910779382311e+000	 1.194974097290474e+001
 2.198570342509257e+000	 1.081105197987183e+000	 1.208313925458773e+001
 2.187553571045141e+000	 1.103226800741752e+000	 1.226707562563748e+001
 2.176295816751653e+000	 1.125271752976035e+000	 1.250510749006118e+001
 2.301226045144301e+000	 9.110344061682311e-001	 1.208118697311715e+001
 2.292057228123256e+000	 9.338622291770110e-001	 1.196138871971731e+001
 2.282642846533432e+000	 9.566434211590759e-001	 1.186919987127464e+001
 2.272982894191186e+000	 9.793741689425937e-001	 1.180769837191717e+001
 2.263077441211487e+000	 1.002050645005900e+000	 1.178005888124215e+001
 2.252926634714180e+000	 1.024669009324756e+000	 1.178955068401608e+001
 2.242530699478319e+000	 1.047225411250693e+000	 1.183953533809417e+001
 2.231889938543174e+000	 1.069715991418783e+000	 1.193346405881863e+001
 2.221004733754577e+000	 1.092136883683151e+000	 1.207487483886177e+001
 2.209875546255298e+000	 1.114484217078436e+000	 1.226738930321242e+001
 2.198502916918232e+000	 1.136754117805368e+000	 1.251470929975370e+001
 2.324470752665467e+000	 9.202367739106158e-001	 1.201594478228433e+001
 2.315209321330897e+000	 9.432951809896923e-001	 1.190570609389311e+001
 2.305699844977406e+000	 9.663064860216960e-001	 1.182266865598364e+001
 2.295942317358884e+000	 9.892668373179072e-001	 1.177002674978704e+001
 2.285936809298535e+000	 1.012172368694827e+000	 1.175107570742938e+001
 2.275683469402266e+000	 1.035019201340097e+000	 1.176920974998925e+001
 2.265182524719623e+000	 1.057803445709805e+000	 1.182791955387078e+001
 2.254434281350881e+000	 1.080521203455544e+000	 1.193078954368388e+001
 2.243439124998900e+000	 1.103168569379458e+000	 1.208149491055668e+001
 2.232197521464457e+000	 1.125741633415527e+000	 1.228379835556171e+001
 2.220710017083810e+000	 1.148236482635196e+000	 1.254154655871572e+001
 1.998639015383027e+000	 1.033412834359236e+000	 1.304883612745575e+001
 1.988079515201900e+000	 1.053584282934246e+000	 1.274178617123668e+001
 1.977299906419740e+000	 1.073678294494223e+000	 1.248070883501942e+001
 1.966300900012589e+000	 1.093691350697970e+000	 1.226894308228790e+001
 1.955083280473655e+000	 1.113619938032245e+000	 1.210987972487189e+001
 1.943647905932685e+000	 1.133460549699554e+000	 1.200695755416665e+001
 1.931995708218038e+000	 1.153209687516760e+000	 1.196365928033822e+001
 1.920127692860818e+000	 1.172863863822527e+000	 1.198350728453888e+001
 1.908044939040537e+000	 1.192419603391557e+000	 1.207005918979564e+001
 1.895748599471811e+000	 1.211873445353536e+000	 1.222690325686635e+001
 1.883239900231722e+000	 1.231221945114724e+000	 1.245765361198265e+001
 2.020846115557606e+000	 1.044895199184599e+000	 1.291950754993413e+001
 2.010169287596954e+000	 1.065290774965724e+000	 1.263481656337430e+001
 1.999269905384127e+000	 1.085608053320555e+000	 1.239800296543627e+001
 1.988148687794898e+000	 1.105843476815214e+000	 1.221241096360160e+001
 1.976806428039066e+000	 1.125993492897426e+000	 1.208143736099516e+001
 1.965243993781153e+000	 1.146054555805278e+000	 1.200852765993874e+001
 1.953462327203166e+000	 1.166023128486933e+000	 1.199717196924770e+001
 1.941462445008779e+000	 1.185895684529262e+000	 1.205090072031807e+001
 1.929245438368386e+000	 1.205668710093352e+000	 1.217328019770286e+001
 1.916812472804541e+000	 1.225338705854776e+000	 1.236790789052439e+001
 1.904164788017406e+000	 1.244902188946530e+000	 1.263840767171009e+001
 2.043053215731184e+000	 1.056377564010459e+000	 1.280811823808792e+001
 2.032259059991009e+000	 1.076997266997788e+000	 1.254215825148113e+001
 2.021239904347514e+000	 1.097537812147543e+000	 1.232589954191690e+001
 2.009996475576207e+000	 1.117995602933166e+000	 1.216269430760453e+001
 1.998529575603476e+000	 1.138367047763346e+000	 1.205594821485293e+001
 1.986840081628621e+000	 1.158648561911752e+000	 1.200911647172606e+001
 1.974928946187295e+000	 1.178836569457846e+000	 1.202569970095647e+001
 1.962797197155740e+000	 1.198927505236708e+000	 1.210923961718608e+001
 1.950445937695233e+000	 1.218917816795809e+000	 1.226331451427284e+001
 1.937876346136270e+000	 1.238803966356609e+000	 1.249153456906468e+001
 1.925089675802090e+000	 1.258582432778837e+000	 1.256917880608179e+001
 2.065260315903762e+000	 1.067859928836815e+000	 1.271439391655622e+001
 2.054348832384064e+000	 1.088703759030439e+000	 1.246362495146216e+001
 2.043209903309902e+000	 1.109467570975188e+000	 1.226430026211982e+001
 2.031844263356515e+000	 1.130147729051826e+000	 1.211978275826952e+001
 2.020252723166887e+000	 1.150740602630004e+000	 1.203348981583654e+001
 2.008436169475090e+000	 1.171242568018975e+000	 1.200888931847559e+001
 1.996395565170424e+000	 1.191650010429500e+000	 1.204949549364203e+001
 1.984131949301701e+000	 1.211959325944866e+000	 1.215886454828453e+001
 1.971646437021081e+000	 1.232166923498929e+000	 1.234059010993843e+001
 1.958940219467000e+000	 1.252269226859034e+000	 1.254729508679418e+001
 1.946014563585775e+000	 1.272262676611648e+000	 1.239640128657036e+001
 2.087467416075340e+000	 1.079342293663667e+000	 1.263811928816648e+001
 2.076438604776118e+000	 1.100410251063676e+000	 1.239908538685047e+001
 2.065179902271289e+000	 1.121397329803490e+000	 1.221315781197750e+001
 2.053692051135824e+000	 1.142299855171193e+000	 1.208371288135094e+001
 2.041975870729298e+000	 1.163114157497399e+000	 1.201418250318583e+001
 2.030032257320558e+000	 1.183836574126948e+000	 1.200805018334539e+001
 2.017862184152553e+000	 1.204463451401894e+000	 1.206884682212706e+001
 2.005466701446662e+000	 1.224991146653735e+000	 1.220014630571900e+001
 1.992846936345929e+000	 1.245416030202710e+000	 1.240556089814947e+001
 1.980004092796729e+000	 1.265734487362052e+000	 1.237147856392740e+001
 1.966939451368459e+000	 1.285942920444961e+000	 1.226700423795054e+001
 2.109674516245919e+000	 1.090824658491015e+000	 1.257913492981934e+001
 2.098528377167173e+000	 1.112116743097499e+000	 1.234846039366886e+001
 2.087149901231675e+000	 1.133327088632449e+000	 1.217247318210291e+001
 2.075539838914133e+000	 1.154451981291268e+000	 1.205456569481745e+001
 2.063699018290710e+000	 1.175487712365535e+000	 1.199818717283906e+001
 2.051628345165026e+000	 1.196430580235669e+000	 1.200683966927231e+001
 2.039328803133683e+000	 1.217276892375029e+000	 1.208407380437176e+001
 2.026801453590623e+000	 1.238022967363314e+000	 1.223348431008732e+001
 2.014047435669777e+000	 1.258665136907154e+000	 1.231762147307347e+001
 2.001067966125458e+000	 1.279199747865661e+000	 1.224093643064579e+001
 1.987864339150143e+000	 1.299623164278777e+000	 1.217991827634333e+001
 2.131881616415496e+000	 1.102307023318859e+000	 1.253733438238080e+001
 2.120618149557228e+000	 1.123823235131908e+000	 1.231172020623782e+001
 2.109119900191063e+000	 1.145256847462065e+000	 1.214229315192077e+001
 2.097387626691442e+000	 1.166604107412050e+000	 1.203246435363246e+001
 2.085422165851120e+000	 1.187861267234408e+000	 1.198570316510502e+001
 2.073224433008494e+000	 1.209024586345141e+000	 1.200553309169188e+001
 2.060795422113812e+000	 1.230090333348904e+000	 1.209552750131034e+001
 2.048136205733585e+000	 1.251054788073606e+000	 1.224603435739686e+001
 2.035247934992624e+000	 1.271914243612259e+000	 1.219178909682553e+001
 2.022131839453188e+000	 1.292665008369864e+000	 1.215452388262226e+001
 2.008789226930828e+000	 1.313303408113096e+000	 1.213408953926212e+001
 2.154088716584075e+000	 1.113789388147199e+000	 1.251266142058082e+001
 2.142707921946283e+000	 1.135529727166903e+000	 1.228888191087151e+001
 2.131089899149450e+000	 1.157186606292337e+000	 1.212270792941967e+001
 2.119235414467751e+000	 1.178756233533540e+000	 1.201757197774406e+001
 2.107145313410531e+000	 1.200234822104020e+000	 1.197696628299430e+001
 2.094820520850962e+000	 1.221618592455362e+000	 1.200443868923438e+001
 2.082262041092940e+000	 1.242903774323520e+000	 1.210358832185251e+001
 2.069470957875546e+000	 1.264086608784609e+000	 1.213060571155156e+001
 2.056448434314472e+000	 1.285163350318026e+000	 1.211174129414310e+001
 2.043195712779917e+000	 1.306130268874659e+000	 1.211111453917200e+001
 2.029714114710512e+000	 1.326983651947917e+000	 1.212847888554069e+001
 2.176295816751653e+000	 1.125271752976035e+000	 1.250510749006118e+001
 2.164797694334338e+000	 1.147236219202485e+000	 1.228000705546995e+001
 2.153059898106836e+000	 1.169116365123266e+000	 1.211384893540884e+001
 2.141083202243059e+000	 1.190908359655738e+000	 1.201008961305526e+001
 2.128868460968942e+000	 1.212608376974370e+000	 1.197224693187741e+001
 2.116416608692430e+000	 1.234212598566333e+000	 1.200389594396972e+001
 2.103728660071070e+000	 1.255717215298876e+000	 1.206844502078942e+001
 2.090805710016507e+000	 1.277118429496323e+000	 1.206246560438031e+001
 2.077648933635321e+000	 1.298412457024456e+000	 1.207628660536955e+001
 2.064259586105647e+000	 1.319595529380046e+000	 1.210959950327062e+001
 2.050639002489196e+000	 1.340663895783240e+000	 1.216206114424567e+001
 2.198502916918232e+000	 1.136754117805368e+000	 1.251470929975370e+001
 2.186887466721392e+000	 1.158942711238653e+000	 1.228519940398438e+001
 2.175029897063224e+000	 1.181046123954852e+000	 1.211588672206270e+001
 2.162930990017368e+000	 1.203060485778642e+000	 1.201025431597163e+001
 2.150591608526352e+000	 1.224981931845459e+000	 1.197184837189092e+001
 2.138012696532898e+000	 1.246806604678053e+000	 1.200427400345621e+001
 2.125195279048199e+000	 1.268530656274973e+000	 1.201762087914066e+001
 2.112140462156468e+000	 1.290150250208748e+000	 1.204036440870218e+001
 2.098849432955169e+000	 1.311661563731547e+000	 1.208425348102755e+001
 2.085323459430376e+000	 1.333060789886026e+000	 1.214888647854111e+001
 2.071563890266881e+000	 1.354344139619067e+000	 1.223382440910891e+001
 2.220710017083810e+000	 1.148236482635196e+000	 1.254154655871572e+001
 2.208977239107448e+000	 1.170649203275409e+000	 1.230460282561464e+001
 2.196999896018612e+000	 1.192975882787096e+000	 1.212902901635255e+001
 2.184778777790678e+000	 1.215212611902256e+000	 1.201833735287628e+001
 2.172314756082765e+000	 1.237355486717287e+000	 1.197610507519897e+001
 2.159608784372368e+000	 1.259400610790523e+000	 1.198816493424080e+001
 2.146661898024328e+000	 1.281344097251810e+000	 1.201414864503915e+001
 2.133475214295430e+000	 1.303182070921886e+000	 1.206307452953648e+001
 2.120049932274017e+000	 1.324910670439301e+000	 1.213448928631000e+001
 2.106387332754106e+000	 1.346526050392599e+000	 1.222789893922135e+001
 2.092488778043565e+000	 1.368024383455396e+000	 1.234276937529454e+001
 1.883239900231722e+000	 1.231221945114724e+000	 1.245765361198265e+001
 1.870520140527698e+000	 1.250461676279598e+000	 1.293155766327455e+001
 1.857590692405196e+000	 1.269589232571736e+000	 1.286648918763934e+001
 1.844453000395384e+000	 1.288601229750900e+000	 1.277544338017717e+001
 1.831108581103128e+000	 1.307494307523293e+000	 1.265946314414950e+001
 1.817559022734820e+000	 1.326265131444095e+000	 1.251969540263729e+001
 1.803805984566350e+000	 1.344910394809678e+000	 1.235738927625158e+001
 1.789851196351457e+000	 1.363426820537300e+000	 1.217389398474833e+001
 1.775696457670766e+000	 1.381811163030106e+000	 1.197065647544127e+001
 1.761343637221933e+000	 1.400060210025257e+000	 1.174921878218197e+001
 1.746794672051384e+000	 1.418170784423037e+000	 1.151121511954918e+001
 1.904164788017406e+000	 1.244902188946530e+000	 1.263840767171009e+001
 1.891303697650032e+000	 1.264355694902035e+000	 1.265443161224657e+001
 1.878230588992809e+000	 1.283695779597362e+000	 1.252472265542675e+001
 1.864946922627249e+000	 1.302919021189603e+000	 1.246526161830000e+001
 1.851454232009386e+000	 1.322022022048363e+000	 1.240363403731651e+001
 1.837754122992348e+000	 1.341001410679438e+000	 1.231508946562462e+001
 1.823848273288425e+000	 1.359853843638046e+000	 1.220088855434159e+001
 1.809738431870839e+000	 1.378576007429416e+000	 1.206239794334432e+001
 1.795426418315558e+000	 1.397164620394503e+000	 1.190108784915779e+001
 1.780914122083544e+000	 1.415616434578662e+000	 1.171852937102088e+001
 1.766203501743962e+000	 1.433928237581068e+000	 1.151639151984820e+001
 1.925089675802090e+000	 1.258582432778837e+000	 1.256917880608179e+001
 1.912087254771367e+000	 1.278249713524880e+000	 1.245894823504000e+001
 1.898870485579421e+000	 1.297802326623310e+000	 1.235006209663070e+001
 1.885440844858115e+000	 1.317236812628554e+000	 1.224180106120324e+001
 1.871799882914645e+000	 1.336549736573617e+000	 1.215411844501037e+001
 1.857949223248877e+000	 1.355737689914908e+000	 1.211585894581132e+001
 1.843890562009499e+000	 1.374797292466495e+000	 1.204875281534657e+001
 1.829625667389222e+000	 1.393725194321577e+000	 1.195418643668036e+001
 1.815156378959350e+000	 1.412518077758921e+000	 1.183365575655957e+001
 1.800484606944155e+000	 1.431172659132072e+000	 1.168876353552322e+001
 1.785612331435539e+000	 1.449685690739098e+000	 1.152121630830394e+001
 1.946014563585775e+000	 1.272262676611648e+000	 1.239640128657036e+001
 1.932870811891701e+000	 1.292143732148131e+000	 1.230656826744007e+001
 1.919510382165034e+000	 1.311908873649581e+000	 1.221717800541508e+001
 1.905934767087982e+000	 1.331554604067751e+000	 1.212744636840305e+001
 1.892145533818904e+000	 1.351077451099052e+000	 1.203657517255837e+001
 1.878144323504406e+000	 1.370473969150504e+000	 1.194375340359845e+001
 1.863932850729574e+000	 1.389740741295026e+000	 1.190369805559203e+001
 1.849512902906604e+000	 1.408874381213783e+000	 1.185200100874745e+001
 1.834886339602143e+000	 1.427871535123359e+000	 1.177112458885088e+001
 1.820055091803766e+000	 1.446728883685488e+000	 1.166270582124742e+001
 1.805021161126117e+000	 1.465443143897129e+000	 1.152849150221579e+001
 1.966939451368459e+000	 1.285942920444961e+000	 1.226700423795054e+001
 1.953654369011035e+000	 1.306037750771791e+000	 1.219624864058200e+001
 1.940150278749647e+000	 1.326015420676173e+000	 1.212506982975817e+001
 1.926428689316847e+000	 1.345872395507195e+000	 1.205261905986211e+001
 1.912491184722163e+000	 1.365605165624668e+000	 1.197803330894316e+001
 1.898339423758935e+000	 1.385210248386226e+000	 1.190043657965717e+001
 1.883975139448649e+000	 1.404684190123637e+000	 1.181894126128651e+001
 1.869400138422987e+000	 1.424023568106036e+000	 1.175858838453977e+001
 1.854616300243935e+000	 1.443224992487817e+000	 1.171626232339240e+001
 1.839625576662378e+000	 1.462285108238908e+000	 1.164314280118861e+001
 1.824429990815695e+000	 1.481200597055160e+000	 1.154101962454206e+001
 1.987864339150143e+000	 1.299623164278777e+000	 1.217991827634333e+001
 1.974437926129370e+000	 1.319931769395858e+000	 1.212696093249464e+001
 1.960790175333260e+000	 1.340121967703088e+000	 1.207274996552673e+001
 1.946922611544713e+000	 1.360190186946887e+000	 1.201637217968850e+001
 1.932836835624422e+000	 1.380132880150467e+000	 1.195689983273162e+001
 1.918534524012464e+000	 1.399946527622075e+000	 1.189339201646735e+001
 1.904017428166724e+000	 1.419627638952329e+000	 1.182489610042723e+001
 1.889287373938369e+000	 1.439172754998333e+000	 1.175044923613712e+001
 1.874346260884727e+000	 1.458578449852296e+000	 1.167184033495617e+001
 1.859196061519989e+000	 1.477841332792333e+000	 1.163286296907148e+001
 1.843838820504272e+000	 1.496958050213191e+000	 1.156160367728618e+001
 2.008789226930828e+000	 1.313303408113096e+000	 1.213408953926212e+001
 1.995221483246704e+000	 1.333825788020332e+000	 1.209769060524138e+001
 1.981430071915873e+000	 1.354228514730326e+000	 1.205924308210678e+001
 1.967416533771579e+000	 1.374507978386825e+000	 1.201776946268259e+001
 1.953182486525680e+000	 1.394660594676446e+000	 1.197227737727922e+001
 1.938729624264992e+000	 1.414682806858050e+000	 1.192176105388374e+001
 1.924059716883799e+000	 1.434571087781102e+000	 1.186520284356528e+001
 1.909174609452752e+000	 1.454321941890676e+000	 1.180157480846783e+001
 1.894076221524519e+000	 1.473931907216794e+000	 1.172984036952395e+001
 1.878766546376600e+000	 1.493397557345764e+000	 1.164895601079003e+001
 1.863247650191850e+000	 1.512715503371221e+000	 1.159304711654659e+001
 2.029714114710512e+000	 1.326983651947917e+000	 1.212847888554069e+001
 2.016005040363038e+000	 1.347719806645214e+000	 1.210743628924821e+001
 2.002069968497485e+000	 1.368335061757886e+000	 1.208358548974798e+001
 1.987910455997445e+000	 1.388825769827011e+000	 1.205588478327027e+001
 1.973528137425939e+000	 1.409188309202607e+000	 1.202327724137886e+001
 1.958924724516521e+000	 1.429419086094151e+000	 1.198469225083561e+001
 1.944102005599874e+000	 1.449514536609956e+000	 1.193904712087876e+001
 1.929061844966134e+000	 1.469471128783065e+000	 1.188524875515091e+001
 1.913806182163312e+000	 1.489285364581314e+000	 1.182219538526449e+001
 1.898337031232211e+000	 1.508953781899199e+000	 1.174877836275322e+001
 1.882656479878427e+000	 1.528472956529252e+000	 1.166388400592326e+001
 2.050639002489196e+000	 1.340663895783240e+000	 1.216206114424567e+001
 2.036788597478372e+000	 1.361613825270504e+000	 1.215520911144853e+001
 2.022709865078098e+000	 1.382441608785768e+000	 1.214482454564194e+001
 2.008404378222311e+000	 1.403143561267443e+000	 1.212980163817526e+001
 1.993873788325197e+000	 1.423716023728950e+000	 1.210901894714693e+001
 1.979119824767050e+000	 1.444155365330379e+000	 1.208134101700651e+001
 1.964144294314947e+000	 1.464457985438890e+000	 1.204562006785809e+001
 1.948949080478517e+000	 1.484620315675500e+000	 1.200069775156329e+001
 1.933536142801104e+000	 1.504638821945853e+000	 1.194540697148776e+001
 1.917907516086823e+000	 1.524510006452640e+000	 1.187857376248477e+001
 1.902065309564005e+000	 1.544230409687283e+000	 1.179901922746969e+001
 2.071563890266881e+000	 1.354344139619067e+000	 1.223382440910891e+001
 2.057572154592707e+000	 1.375507843896201e+000	 1.224003206414633e+001
 2.043349761657711e+000	 1.396548155813973e+000	 1.224201809599597e+001
 2.028898300446177e+000	 1.417461352708123e+000	 1.223861266044442e+001
 2.014219439223457e+000	 1.438243738255475e+000	 1.222862982470373e+001
 1.999314925016579e+000	 1.458891644566733e+000	 1.221086926683670e+001
 1.984186583029022e+000	 1.479401434267905e+000	 1.218411804725969e+001
 1.968836315989899e+000	 1.499769502567979e+000	 1.214715244928548e+001
 1.953266103437896e+000	 1.519992279310412e+000	 1.209873988540333e+001
 1.937478000940434e+000	 1.540066231006086e+000	 1.203764086573684e+001
 1.921474139248582e+000	 1.559987862845314e+000	 1.196261102487084e+001
 2.092488778043565e+000	 1.368024383455396e+000	 1.234276937529454e+001
 2.078355711706041e+000	 1.389401862522306e+000	 1.236093941174784e+001
 2.063989658236324e+000	 1.410654702842501e+000	 1.237423395158219e+001
 2.049392222669044e+000	 1.431779144149050e+000	 1.238141916263152e+001
 2.034565090120716e+000	 1.452771452782182e+000	 1.238124462177356e+001
 2.019510025265108e+000	 1.473627923803213e+000	 1.237244509428527e+001
 2.004228871742098e+000	 1.494344883097002e+000	 1.235374238774289e+001
 1.988723551500282e+000	 1.514918689460505e+000	 1.232384727729126e+001
 1.972996064073689e+000	 1.535345736674993e+000	 1.228146149883493e+001
 1.957048485793046e+000	 1.555622455559538e+000	 1.222527980643628e+001
 1.940882968932161e+000	 1.575745316003345e+000	 1.215399208994953e+001
 1.746794672051384e+000	 1.418170784423037e+000	 1.151121511954918e+001
 1.732051566727472e+000	 1.436139746095164e+000	 1.169536771402567e+001
 1.717116392458020e+000	 1.453963993669085e+000	 1.184121589280538e+001
 1.701991286151559e+000	 1.471640466286814e+000	 1.194963868330132e+001
 1.686678449421499e+000	 1.489166145337068e+000	 1.202161344263740e+001
 1.671180147536507e+000	 1.506538056157541e+000	 1.205821280776342e+001
 1.655498708317337e+000	 1.523753269705680e+000	 1.206060140129308e+001
 1.639636520981247e+000	 1.540808904196010e+000	 1.203003230154937e+001
 1.623596034935177e+000	 1.557702126702076e+000	 1.196784328606200e+001
 1.607379758518973e+000	 1.574430154721170e+000	 1.187545285848799e+001
 1.590990257700000e+000	 1.590990257700000e+000	 1.175435606962239e+001
 1.766203501743962e+000	 1.433928237581068e+000	 1.151639151984820e+001
 1.751296584138190e+000	 1.452096854383105e+000	 1.170241929779965e+001
 1.736195463487515e+000	 1.470119149152507e+000	 1.184806627994435e+001
 1.720902300443896e+000	 1.487992027021754e+000	 1.195430684837780e+001
 1.705419321083115e+000	 1.505712435839437e+000	 1.202221847091641e+001
 1.689748815843492e+000	 1.523277367891449e+000	 1.205297848156774e+001
 1.673893138410455e+000	 1.540683861590319e+000	 1.204786060630267e+001
 1.657854704548121e+000	 1.557929003130732e+000	 1.200823124300915e+001
 1.641635990879061e+000	 1.575009928109272e+000	 1.193554550529750e+001
 1.625239533613567e+000	 1.591923823106536e+000	 1.183134304058296e+001
 1.608667927229750e+000	 1.608667927229750e+000	 1.169724363359564e+001
 1.785612331435539e+000	 1.449685690739098e+000	 1.152121630830394e+001
 1.770541601547911e+000	 1.468053962671041e+000	 1.170942051639061e+001
 1.755274534516028e+000	 1.486274304635909e+000	 1.185509333051913e+001
 1.739813314735277e+000	 1.504343587756648e+000	 1.195930678380537e+001
 1.724160192743812e+000	 1.522258726341727e+000	 1.202324087691547e+001
 1.708317484149602e+000	 1.540016679625232e+000	 1.204818018493702e+001
 1.692287568502753e+000	 1.557614453474778e+000	 1.203551019887336e+001
 1.676072888114239e+000	 1.575049102065208e+000	 1.198671341104634e+001
 1.659675946822266e+000	 1.592317729516148e+000	 1.190336515451164e+001
 1.643099308707566e+000	 1.609417491491496e+000	 1.178712920737877e+001
 1.626345596759000e+000	 1.626345596759000e+000	 1.163975317367781e+001
 1.805021161126117e+000	 1.465443143897129e+000	 1.152849150221579e+001
 1.789786618956639e+000	 1.484011070958972e+000	 1.171913542109992e+001
 1.774353605543562e+000	 1.502429460119290e+000	 1.186502105054384e+001
 1.758724329025703e+000	 1.520695148491498e+000	 1.196732041500408e+001
 1.742901064403588e+000	 1.538805016843938e+000	 1.202731851635714e+001
 1.726886152454837e+000	 1.556755991358891e+000	 1.204640976315681e+001
 1.710681998594231e+000	 1.574545045359056e+000	 1.202609412357688e+001
 1.694291071679603e+000	 1.592169200999440e+000	 1.196797301173630e+001
 1.677715902764791e+000	 1.609625530922704e+000	 1.187374491795715e+001
 1.660959083800970e+000	 1.626911159876052e+000	 1.174520079432286e+001
 1.644023266287750e+000	 1.644023266287750e+000	 1.158421920768406e+001
 1.824429990815695e+000	 1.481200597055160e+000	 1.154101962454206e+001
 1.809031636364370e+000	 1.499968179246898e+000	 1.173432933029267e+001
 1.793432676570115e+000	 1.518584615602651e+000	 1.188057548854146e+001
 1.777635343315174e+000	 1.537046709226303e+000	 1.198103249903525e+001
 1.761641936062444e+000	 1.555351307346068e+000	 1.203709287906040e+001
 1.745454820759197e+000	 1.573495303092425e+000	 1.205026351101483e+001
 1.729076428684889e+000	 1.591475637243156e+000	 1.202216160246157e+001
 1.712509255244211e+000	 1.609289299933426e+000	 1.195451036878419e+001
 1.695755858706635e+000	 1.626933332328940e+000	 1.184913444944973e+001
 1.678818858893778e+000	 1.644404828260203e+000	 1.170795506973319e+001
 1.661700935816000e+000	 1.661700935816000e+000	 1.153298496056723e+001
 1.843838820504272e+000	 1.496958050213191e+000	 1.156160367728618e+001
 1.828276653771107e+000	 1.515925287534819e+000	 1.175776876270971e+001
 1.812511747595690e+000	 1.534739771085994e+000	 1.190448462804359e+001
 1.796546357603691e+000	 1.553398269961063e+000	 1.200313047556745e+001
 1.780382807720380e+000	 1.571897597848118e+000	 1.205520889767235e+001
 1.764023489062681e+000	 1.590234614825835e+000	 1.206234193861650e+001
 1.747470858774727e+000	 1.608406229127074e+000	 1.202626685729044e+001
 1.730727438808065e+000	 1.626409398867167e+000	 1.194883160154438e+001
 1.713795814647800e+000	 1.644241133734857e+000	 1.183199000554905e+001
 1.696678633985992e+000	 1.661898496643949e+000	 1.167779672254149e+001
 1.679378605343750e+000	 1.679378605343750e+000	 1.148840190614728e+001
 1.863247650191850e+000	 1.512715503371221e+000	 1.159304711654659e+001
 1.847521671176849e+000	 1.531882395822735e+000	 1.179222137494842e+001
 1.831590818620283e+000	 1.550894926569315e+000	 1.193947828680860e+001
 1.815457371891252e+000	 1.569749830695778e+000	 1.203630432715746e+001
 1.799123679377395e+000	 1.588443888350088e+000	 1.208431476835428e+001
 1.782592157365291e+000	 1.606973926559119e+000	 1.208524955183727e+001
 1.765865288863745e+000	 1.625336821010814e+000	 1.204096884913936e+001
 1.748945622371163e+000	 1.643529497800664e+000	 1.195344832316370e+001
 1.731835770588284e+000	 1.661548935140453e+000	 1.182477410166584e+001
 1.714538409077612e+000	 1.679392165027290e+000	 1.165713747580315e+001
 1.697056274871000e+000	 1.697056274871000e+000	 1.145282933748283e+001
 1.882656479878427e+000	 1.528472956529252e+000	 1.166388400592326e+001
 1.866766688581596e+000	 1.547839504110645e+000	 1.184045590281008e+001
 1.850669889643896e+000	 1.567050082052617e+000	 1.198828802227371e+001
 1.834368386177858e+000	 1.586101391430449e+000	 1.208324644817355e+001
 1.817864551033491e+000	 1.604990178851979e+000	 1.212706178255924e+001
 1.801160825667026e+000	 1.623713238292278e+000	 1.212159464635491e+001
 1.784259718951942e+000	 1.642267412894373e+000	 1.206883103410260e+001
 1.767163805933506e+000	 1.660649596733916e+000	 1.197087735739630e+001
 1.749875726528089e+000	 1.678856736545729e+000	 1.182995518944052e+001
 1.732398184168636e+000	 1.696885833410226e+000	 1.164839572411348e+001
 1.714733944397750e+000	 1.714733944397750e+000	 1.142863396381754e+001
 1.902065309564005e+000	 1.544230409687283e+000	 1.179901922746969e+001
 1.886011705985348e+000	 1.563796612398551e+000	 1.193741751703675e+001
 1.869748960666530e+000	 1.583205237535899e+000	 1.205364704279602e+001
 1.853279400463509e+000	 1.602452952165073e+000	 1.214665152174372e+001
 1.836605422688667e+000	 1.621536469353789e+000	 1.218610416910887e+001
 1.819729493967885e+000	 1.640452550025312e+000	 1.217398911429235e+001
 1.802654149039319e+000	 1.659198004777752e+000	 1.211242113395501e+001
 1.785381989495094e+000	 1.677769695666923e+000	 1.200364047275617e+001
 1.767915682467214e+000	 1.696164537950685e+000	 1.185000735387450e+001
 1.750257959259064e+000	 1.714379501792757e+000	 1.165399619322286e+001
 1.732411613923999e+000	 1.732411613923999e+000	 1.141818953220337e+001
 1.921474139248582e+000	 1.559987862845314e+000	 1.196261102487084e+001
 1.905256723388105e+000	 1.579753720686452e+000	 1.208496835211463e+001
 1.888828031688184e+000	 1.599360393019160e+000	 1.217268813276093e+001
 1.872190414748205e+000	 1.618804512899654e+000	 1.222921640416185e+001
 1.855346294342923e+000	 1.638082759855520e+000	 1.226409894584157e+001
 1.838298162267870e+000	 1.657191861758221e+000	 1.224504826257890e+001
 1.821048579125877e+000	 1.676128596660951e+000	 1.217431092071365e+001
 1.803600173055928e+000	 1.694889794599684e+000	 1.205426413278186e+001
 1.785955638405658e+000	 1.713472339355322e+000	 1.188741002881679e+001
 1.768117734348898e+000	 1.731873170174883e+000	 1.167636962028155e+001
 1.750089283449750e+000	 1.750089283449750e+000	 1.142387647205558e+001
 1.940882968932161e+000	 1.575745316003345e+000	 1.215399208994953e+001
 1.924501740789867e+000	 1.595710828974349e+000	 1.226083026348129e+001
 1.907907102708858e+000	 1.615515548502403e+000	 1.233243354773475e+001
 1.891101429031947e+000	 1.635156073634189e+000	 1.236688428429403e+001
 1.874087165996259e+000	 1.654629050357171e+000	 1.236370578016156e+001
 1.856866830566979e+000	 1.673931173491006e+000	 1.233739064220999e+001
 1.839443009211615e+000	 1.693059188543971e+000	 1.225707601412564e+001
 1.821818356616007e+000	 1.712009893532202e+000	 1.212527926128518e+001
 1.803995594343423e+000	 1.730780140759638e+000	 1.194464772952172e+001
 1.785977509438138e+000	 1.749366838556605e+000	 1.171795245326956e+001
 1.767766952975000e+000	 1.767766952975000e+000	 1.144808156103463e+001
 1.590990257700000e+000	 1.590990257700000e+000	 1.175435606962239e+001
 1.574430154721170e+000	 1.607379758518973e+000	 1.159880656866901e+001
 1.557702126702076e+000	 1.623596034935176e+000	 1.144793879715663e+001
 1.540808904196010e+000	 1.639636520981247e+000	 1.130419694869534e+001
 1.523753269705680e+000	 1.655498708317338e+000	 1.117005357362672e+001
 1.506538056157540e+000	 1.671180147536507e+000	 1.104800380555972e+001
 1.489166145337068e+000	 1.686678449421500e+000	 1.094055949972270e+001
 1.471640466286814e+000	 1.701991286151559e+000	 1.085024329861759e+001
 1.453963993669085e+000	 1.717116392458020e+000	 1.077958264070402e+001
 1.436139746095164e+000	 1.732051566727472e+000	 1.073110372802865e+001
 1.418170784423037e+000	 1.746794672051384e+000	 1.070732546884592e+001
 1.608667927229750e+000	 1.608667927229750e+000	 1.169724363359564e+001
 1.591923823106535e+000	 1.625239533613567e+000	 1.155516917661435e+001
 1.575009928109272e+000	 1.641635990879061e+000	 1.141728197716342e+001
 1.557929003130731e+000	 1.657854704548121e+000	 1.128617417953861e+001
 1.540683861590319e+000	 1.673893138410455e+000	 1.116446827877869e+001
 1.523277367891449e+000	 1.689748815843492e+000	 1.105481107857537e+001
 1.505712435839437e+000	 1.705419321083115e+000	 1.095986755668630e+001
 1.487992027021754e+000	 1.720902300443896e+000	 1.088231465398748e+001
 1.470119149152507e+000	 1.736195463487515e+000	 1.082483500355811e+001
 1.452096854383105e+000	 1.751296584138189e+000	 1.079011061638245e+001
 1.433928237581068e+000	 1.766203501743962e+000	 1.078081654039347e+001
 1.626345596759000e+000	 1.626345596759000e+000	 1.163975317367781e+001
 1.609417491491496e+000	 1.643099308707566e+000	 1.151117647181344e+001
 1.592317729516148e+000	 1.659675946822266e+000	 1.138623708900746e+001
 1.575049102065208e+000	 1.676072888114239e+000	 1.126767830786641e+001
 1.557614453474778e+000	 1.692287568502753e+000	 1.115827583788964e+001
 1.540016679625233e+000	 1.708317484149602e+000	 1.106083149885146e+001
 1.522258726341728e+000	 1.724160192743811e+000	 1.097816680722629e+001
 1.504343587756648e+000	 1.739813314735276e+000	 1.091311648246196e+001
 1.486274304635908e+000	 1.755274534516028e+000	 1.086852189016959e+001
 1.468053962671041e+000	 1.770541601547911e+000	 1.084722443950339e+001
 1.449685690739099e+000	 1.785612331435539e+000	 1.085205895214622e+001
 1.644023266287750e+000	 1.644023266287750e+000	 1.158421920768406e+001
 1.626911159876052e+000	 1.660959083800970e+000	 1.146909528084444e+001
 1.609625530922704e+000	 1.677715902764791e+000	 1.135700202216136e+001
 1.592169200999439e+000	 1.694291071679603e+000	 1.125083710844085e+001
 1.574545045359056e+000	 1.710681998594231e+000	 1.115353280294418e+001
 1.556755991358892e+000	 1.726886152454837e+000	 1.106804935824400e+001
 1.538805016843937e+000	 1.742901064403588e+000	 1.099736831751735e+001
 1.520695148491499e+000	 1.758724329025703e+000	 1.094448573176163e+001
 1.502429460119290e+000	 1.774353605543562e+000	 1.091240531069523e+001
 1.484011070958972e+000	 1.789786618956639e+000	 1.090413152531772e+001
 1.465443143897129e+000	 1.805021161126117e+000	 1.092266268025377e+001
 1.661700935816000e+000	 1.661700935816000e+000	 1.153298496056723e+001
 1.644404828260203e+000	 1.678818858893778e+000	 1.143120249732166e+001
 1.626933332328940e+000	 1.695755858706635e+000	 1.133178609031213e+001
 1.609289299933426e+000	 1.712509255244212e+000	 1.123779113404279e+001
 1.591475637243155e+000	 1.729076428684889e+000	 1.115230985372411e+001
 1.573495303092426e+000	 1.745454820759197e+000	 1.107846442151081e+001
 1.555351307346068e+000	 1.761641936062443e+000	 1.101939996642134e+001
 1.537046709226303e+000	 1.777635343315174e+000	 1.097827749612041e+001
 1.518584615602652e+000	 1.793432676570116e+000	 1.095826674903581e+001
 1.499968179246898e+000	 1.809031636364370e+000	 1.096253899550047e+001
 1.481200597055160e+000	 1.824429990815695e+000	 1.099425980676887e+001
 1.679378605343750e+000	 1.679378605343750e+000	 1.148840190614728e+001
 1.661898496643949e+000	 1.696678633985992e+000	 1.139978455205131e+001
 1.644241133734857e+000	 1.713795814647799e+000	 1.131280943008669e+001
 1.626409398867167e+000	 1.730727438808065e+000	 1.123069304294443e+001
 1.608406229127074e+000	 1.747470858774727e+000	 1.115669105424020e+001
 1.590234614825835e+000	 1.764023489062681e+000	 1.109409111194823e+001
 1.571897597848118e+000	 1.780382807720380e+000	 1.104620556060900e+001
 1.553398269961063e+000	 1.796546357603691e+000	 1.101636406120560e+001
 1.534739771085993e+000	 1.812511747595689e+000	 1.100790613790177e+001
 1.515925287534819e+000	 1.828276653771107e+000	 1.102417367106719e+001
 1.496958050213191e+000	 1.843838820504272e+000	 1.106850335617850e+001
 1.697056274871000e+000	 1.697056274871000e+000	 1.145282933748283e+001
 1.679392165027290e+000	 1.714538409077612e+000	 1.137713691630287e+001
 1.661548935140453e+000	 1.731835770588284e+000	 1.130230243735710e+001
 1.643529497800664e+000	 1.748945622371163e+000	 1.123170696841485e+001
 1.625336821010814e+000	 1.765865288863745e+000	 1.116877315563690e+001
 1.606973926559118e+000	 1.782592157365291e+000	 1.111695774792530e+001
 1.588443888350088e+000	 1.799123679377395e+000	 1.107974400498665e+001
 1.569749830695779e+000	 1.815457371891252e+000	 1.106063400873088e+001
 1.550894926569315e+000	 1.831590818620283e+000	 1.106314089793800e+001
 1.531882395822735e+000	 1.847521671176849e+000	 1.109078104636691e+001
 1.512715503371221e+000	 1.863247650191850e+000	 1.114706620465220e+001
 1.714733944397750e+000	 1.714733944397750e+000	 1.142863396381754e+001
 1.696885833410226e+000	 1.732398184168635e+000	 1.136556363580581e+001
 1.678856736545729e+000	 1.749875726528089e+000	 1.130250523841354e+001
 1.660649596733915e+000	 1.767163805933506e+000	 1.124300792722553e+001
 1.642267412894373e+000	 1.784259718951942e+000	 1.119066494221640e+001
 1.623713238292277e+000	 1.801160825667026e+000	 1.114910582664322e+001
 1.604990178851979e+000	 1.817864551033491e+000	 1.112198852443654e+001
 1.586101391430448e+000	 1.834368386177858e+000	 1.111299137645395e+001
 1.567050082052617e+000	 1.850669889643897e+000	 1.112580503628380e+001
 1.547839504110645e+000	 1.866766688581596e+000	 1.116412432653908e+001
 1.528472956529252e+000	 1.882656479878427e+000	 1.120104554907497e+001
 1.732411613923999e+000	 1.732411613923999e+000	 1.141818953220337e+001
 1.714379501792757e+000	 1.750257959259064e+000	 1.136737689327700e+001
 1.696164537950685e+000	 1.767915682467214e+000	 1.131566719351412e+001
 1.677769695666923e+000	 1.785381989495095e+000	 1.126678126436936e+001
 1.659198004777752e+000	 1.802654149039319e+000	 1.122448661750188e+001
 1.640452550025312e+000	 1.819729493967885e+000	 1.119258935174566e+001
 1.621536469353789e+000	 1.836605422688667e+000	 1.117492593320579e+001
 1.602452952165073e+000	 1.853279400463509e+000	 1.117535486960257e+001
 1.583205237535899e+000	 1.869748960666530e+000	 1.119774830032312e+001
 1.563796612398551e+000	 1.886011705985348e+000	 1.122392307688372e+001
 1.544230409687283e+000	 1.902065309564005e+000	 1.123916115216090e+001
 1.750089283449750e+000	 1.750089283449750e+000	 1.142387647205558e+001
 1.731873170174883e+000	 1.768117734348898e+000	 1.138489659746185e+001
 1.713472339355322e+000	 1.785955638405657e+000	 1.134404643052319e+001
 1.694889794599684e+000	 1.803600173055928e+000	 1.130522213143345e+001
 1.676128596660951e+000	 1.821048579125876e+000	 1.127236922750920e+001
 1.657191861758222e+000	 1.838298162267869e+000	 1.124947420168038e+001
 1.638082759855519e+000	 1.855346294342923e+000	 1.124055594857488e+001
 1.618804512899654e+000	 1.872190414748205e+000	 1.124965712009358e+001
 1.599360393019160e+000	 1.888828031688184e+000	 1.127810679248311e+001
 1.579753720686452e+000	 1.905256723388104e+000	 1.130150508070545e+001
 1.559987862845314e+000	 1.921474139248582e+000	 1.131868110479897e+001
 1.767766952975000e+000	 1.767766952975000e+000	 1.144808156103463e+001
 1.749366838556605e+000	 1.785977509438138e+000	 1.142044999683273e+001
 1.730780140759639e+000	 1.803995594343423e+000	 1.138990940653069e+001
 1.712009893532202e+000	 1.821818356616006e+000	 1.136053499626922e+001
 1.693059188543972e+000	 1.839443009211615e+000	 1.133645411862230e+001
 1.673931173491006e+000	 1.856866830566979e+000	 1.132183753595897e+001
 1.654629050357171e+000	 1.874087165996259e+000	 1.132089054570596e+001
 1.635156073634190e+000	 1.891101429031947e+000	 1.136066237516773e+001
 1.615515548502402e+000	 1.907907102708858e+000	 1.139405618947677e+001
 1.595710828974349e+000	 1.924501740789867e+000	 1.141997515210296e+001
 1.575745316003345e+000	 1.940882968932160e+000	 1.143938056853569e+001
 1.418170784423037e+000	 1.746794672051384e+000	 1.070732546884592e+001
 1.400060210025256e+000	 1.761343637221932e+000	 1.060234200514418e+001
 1.381811163030106e+000	 1.775696457670766e+000	 1.049874246604990e+001
 1.363426820537300e+000	 1.789851196351457e+000	 1.039878213062722e+001
 1.344910394809678e+000	 1.803805984566350e+000	 1.030471333710859e+001
 1.326265131444094e+000	 1.817559022734820e+000	 1.021877961693949e+001
 1.307494307523293e+000	 1.831108581103128e+000	 1.014320986109575e+001
 1.288601229750900e+000	 1.844453000395384e+000	 1.008021253421809e+001
 1.269589232571736e+000	 1.857590692405196e+000	 1.003196995186991e+001
 1.250461676279598e+000	 1.870520140527698e+000	 1.000063263594154e+001
 1.231221945114724e+000	 1.883239900231722e+000	 9.813564770872571e+000
 1.433928237581068e+000	 1.766203501743962e+000	 1.078081654039347e+001
 1.415616434578662e+000	 1.780914122083543e+000	 1.068280318408019e+001
 1.397164620394504e+000	 1.795426418315558e+000	 1.059093778286762e+001
 1.378576007429416e+000	 1.809738431870839e+000	 1.050764386562238e+001
 1.359853843638046e+000	 1.823848273288425e+000	 1.043533778219930e+001
 1.341001410679438e+000	 1.837754122992348e+000	 1.037642256073227e+001
 1.322022022048364e+000	 1.851454232009386e+000	 1.033328180409539e+001
 1.302919021189604e+000	 1.864946922627249e+000	 1.030827364169273e+001
 1.283695779597362e+000	 1.878230588992809e+000	 1.022819224813361e+001
 1.264355694902035e+000	 1.891303697650033e+000	 9.907807976891006e+000
 1.244902188946530e+000	 1.904164788017406e+000	 9.582193294262581e+000
 1.449685690739099e+000	 1.785612331435539e+000	 1.085205895214622e+001
 1.431172659132072e+000	 1.800484606944155e+000	 1.076146337024348e+001
 1.412518077758921e+000	 1.815156378959350e+000	 1.068167797223038e+001
 1.393725194321577e+000	 1.829625667389222e+000	 1.061529805762059e+001
 1.374797292466496e+000	 1.843890562009499e+000	 1.056490757977326e+001
 1.355737689914908e+000	 1.857949223248877e+000	 1.053307271969064e+001
 1.336549736573617e+000	 1.871799882914645e+000	 1.052233550583054e+001
 1.317236812628554e+000	 1.885440844858115e+000	 1.032444041253374e+001
 1.297802326623310e+000	 1.898870485579421e+000	 1.004639616460561e+001
 1.278249713524879e+000	 1.912087254771366e+000	 9.747477047102777e+000
 1.258582432778837e+000	 1.925089675802090e+000	 9.428289923935161e+000
 1.465443143897129e+000	 1.805021161126117e+000	 1.092266268025377e+001
 1.446728883685487e+000	 1.820055091803766e+000	 1.083982889754815e+001
 1.427871535123359e+000	 1.834886339602142e+000	 1.077236782659701e+001
 1.408874381213783e+000	 1.849512902906605e+000	 1.072305014165153e+001
 1.389740741295026e+000	 1.863932850729574e+000	 1.069463107326231e+001
 1.370473969150504e+000	 1.878144323504406e+000	 1.064143670464380e+001
 1.351077451099052e+000	 1.892145533818904e+000	 1.041749862553696e+001
 1.331554604067751e+000	 1.905934767087982e+000	 1.017529367382084e+001
 1.311908873649580e+000	 1.919510382165034e+000	 9.915423489636929e+000
 1.292143732148131e+000	 1.932870811891701e+000	 9.638511076954840e+000
 1.272262676611648e+000	 1.946014563585775e+000	 9.345199628136856e+000
 1.481200597055160e+000	 1.824429990815695e+000	 1.099425980676887e+001
 1.462285108238908e+000	 1.839625576662378e+000	 1.091943064552288e+001
 1.443224992487817e+000	 1.854616300243934e+000	 1.086443900324916e+001
 1.424023568106035e+000	 1.869400138422987e+000	 1.083223461538190e+001
 1.404684190123637e+000	 1.883975139448649e+000	 1.071260392274638e+001
 1.385210248386226e+000	 1.898339423758935e+000	 1.051530951977868e+001
 1.365605165624668e+000	 1.912491184722163e+000	 1.030277959864463e+001
 1.345872395507196e+000	 1.926428689316847e+000	 1.007564087178075e+001
 1.326015420676173e+000	 1.940150278749647e+000	 9.834538983840332e+000
 1.306037750771791e+000	 1.953654369011035e+000	 9.580137316081190e+000
 1.285942920444961e+000	 1.966939451368459e+000	 9.313115776098430e+000
 1.496958050213191e+000	 1.843838820504272e+000	 1.106850335617850e+001
 1.477841332792333e+000	 1.859196061519989e+000	 1.100182274743670e+001
 1.458578449852296e+000	 1.874346260884727e+000	 1.095934861035278e+001
 1.439172754998333e+000	 1.889287373938369e+000	 1.080162397552146e+001
 1.419627638952329e+000	 1.904017428166724e+000	 1.062531836385926e+001
 1.399946527622075e+000	 1.918534524012464e+000	 1.043664141170124e+001
 1.380132880150467e+000	 1.932836835624422e+000	 1.023625103869854e+001
 1.360190186946887e+000	 1.946922611544713e+000	 1.002482178802487e+001
 1.340121967703088e+000	 1.960790175333260e+000	 9.803043602335977e+000
 1.319931769395857e+000	 1.974437926129369e+000	 9.571620587320945e+000
 1.299623164278777e+000	 1.987864339150143e+000	 9.331269765677524e+000
 1.512715503371221e+000	 1.863247650191850e+000	 1.114706620465220e+001
 1.493397557345764e+000	 1.878766546376600e+000	 1.106534280984786e+001
 1.473931907216795e+000	 1.894076221524520e+000	 1.091508711483575e+001
 1.454321941890676e+000	 1.909174609452752e+000	 1.075447052933360e+001
 1.434571087781102e+000	 1.924059716883799e+000	 1.058417234538860e+001
 1.414682806858050e+000	 1.938729624264992e+000	 1.040488755284867e+001
 1.394660594676446e+000	 1.953182486525680e+000	 1.021732559223646e+001
 1.374507978386825e+000	 1.967416533771579e+000	 1.002220909436689e+001
 1.354228514730326e+000	 1.981430071915873e+000	 9.820272609620908e+000
 1.333825788020332e+000	 1.995221483246704e+000	 9.612261329780841e+000
 1.313303408113096e+000	 2.008789226930828e+000	 9.398929805316843e+000
 1.528472956529252e+000	 1.882656479878427e+000	 1.120104554907497e+001
 1.508953781899199e+000	 1.898337031232211e+000	 1.105907566564409e+001
 1.489285364581314e+000	 1.913806182163311e+000	 1.090920865196416e+001
 1.469471128783065e+000	 1.929061844966134e+000	 1.075216842497634e+001
 1.449514536609955e+000	 1.944102005599874e+000	 1.058869262048891e+001
 1.429419086094151e+000	 1.958924724516521e+000	 1.041953130040381e+001
 1.409188309202607e+000	 1.973528137425939e+000	 1.024544564845375e+001
 1.388825769827011e+000	 1.987910455997445e+000	 1.006720665745170e+001
 1.368335061757886e+000	 2.002069968497485e+000	 9.885593811044423e+000
 1.347719806645214e+000	 2.016005040363038e+000	 9.701393762944957e+000
 1.326983651947916e+000	 2.029714114710512e+000	 9.515399016590868e+000
 1.544230409687283e+000	 1.902065309564005e+000	 1.123916115216090e+001
 1.524510006452640e+000	 1.917907516086823e+000	 1.109546956835360e+001
 1.504638821945853e+000	 1.933536142801104e+000	 1.094692523618626e+001
 1.484620315675499e+000	 1.948949080478517e+000	 1.079431371124422e+001
 1.464457985438890e+000	 1.964144294314948e+000	 1.063843111074982e+001
 1.444155365330379e+000	 1.979119824767049e+000	 1.048008275829780e+001
 1.423716023728950e+000	 1.993873788325197e+000	 1.032008182172125e+001
 1.403143561267443e+000	 2.008404378222311e+000	 1.015924794718218e+001
 1.382441608785768e+000	 2.022709865078098e+000	 9.998405892560347e+000
 1.361613825270504e+000	 2.036788597478373e+000	 9.838384163186108e+000
 1.340663895783240e+000	 2.050639002489196e+000	 9.680013652923844e+000
 1.559987862845314e+000	 1.921474139248582e+000	 1.131868110479897e+001
 1.540066231006086e+000	 1.937478000940434e+000	 1.117423450564039e+001
 1.519992279310412e+000	 1.953266103437896e+000	 1.102789995057876e+001
 1.499769502567978e+000	 1.968836315989899e+000	 1.088052474128867e+001
 1.479401434267905e+000	 1.984186583029022e+000	 1.073296363506296e+001
 1.458891644566733e+000	 1.999314925016578e+000	 1.058607742636433e+001
 1.438243738255475e+000	 2.014219439223457e+000	 1.044073152607107e+001
 1.417461352708123e+000	 2.028898300446177e+000	 1.029779454160522e+001
 1.396548155813973e+000	 2.043349761657711e+000	 1.015813686110079e+001
 1.375507843896201e+000	 2.057572154592706e+000	 1.002262924473117e+001
 1.354344139619067e+000	 2.071563890266881e+000	 9.892141426263905e+000
 1.575745316003345e+000	 1.940882968932160e+000	 1.143938056853569e+001
 1.555622455559537e+000	 1.957048485793046e+000	 1.129509836101333e+001
 1.535345736674993e+000	 1.972996064073689e+000	 1.115181546496349e+001
 1.514918689460505e+000	 1.988723551500282e+000	 1.101044105740028e+001
 1.494344883097002e+000	 2.004228871742098e+000	 1.087188871475690e+001
 1.473627923803213e+000	 2.019510025265108e+000	 1.073707493054446e+001
 1.452771452782182e+000	 2.034565090120716e+000	 1.060691763521370e+001
 1.431779144149050e+000	 2.049392222669044e+000	 1.048233472150453e+001
 1.410654702842500e+000	 2.063989658236325e+000	 1.036424257852699e+001
 1.389401862522307e+000	 2.078355711706042e+000	 1.025355463776801e+001
 1.368024383455396e+000	 2.092488778043565e+000	 1.015117993415698e+001
 1.231221945114724e+000	 1.883239900231722e+000	 9.813564770872571e+000
 1.211873445353537e+000	 1.895748599471812e+000	 9.691504264685582e+000
 1.192419603391557e+000	 1.908044939040537e+000	 9.546571382851646e+000
 1.172863863822527e+000	 1.920127692860818e+000	 9.382494213512549e+000
 1.153209687516760e+000	 1.931995708218037e+000	 9.202961146382613e+000
 1.133460549699554e+000	 1.943647905932685e+000	 9.011613115216031e+000
 1.113619938032245e+000	 1.955083280473655e+000	 8.812036012594096e+000
 1.093691350697970e+000	 1.966300900012589e+000	 8.607753294492184e+000
 1.073678294494223e+000	 1.977299906419740e+000	 8.402218791329615e+000
 1.053584282934246e+000	 1.988079515201899e+000	 8.198809741401897e+000
 1.033412834359236e+000	 1.998639015383027e+000	 8.000820061749858e+000
 1.244902188946530e+000	 1.904164788017406e+000	 9.582193294262581e+000
 1.225338705854776e+000	 1.916812472804541e+000	 9.535866130848959e+000
 1.205668710093352e+000	 1.929245438368385e+000	 9.459484352946696e+000
 1.185895684529262e+000	 1.941462445008779e+000	 9.356793563685482e+000
 1.166023128486933e+000	 1.953462327203166e+000	 9.231505977060898e+000
 1.146054555805278e+000	 1.965243993781153e+000	 9.087292436043873e+000
 1.125993492897426e+000	 1.976806428039066e+000	 8.927774598238845e+000
 1.105843476815214e+000	 1.988148687794897e+000	 8.756517307210389e+000
 1.085608053320554e+000	 1.999269905384127e+000	 8.577021166836358e+000
 1.065290774965724e+000	 2.010169287596954e+000	 8.392715335234863e+000
 1.044895199184599e+000	 2.020846115557606e+000	 8.206950553958736e+000
 1.258582432778837e+000	 1.925089675802090e+000	 9.428289923935161e+000
 1.238803966356609e+000	 1.937876346136270e+000	 9.415236058750338e+000
 1.218917816795809e+000	 1.950445937695232e+000	 9.399813592616583e+000
 1.198927505236708e+000	 1.962797197155740e+000	 9.351055336087127e+000
 1.178836569457846e+000	 1.974928946187295e+000	 9.272704660033089e+000
 1.158648561911752e+000	 1.986840081628621e+000	 9.168469509886572e+000
 1.138367047763346e+000	 1.998529575603476e+000	 9.042014352918374e+000
 1.117995602933166e+000	 2.009996475576207e+000	 8.896952307367270e+000
 1.097537812147543e+000	 2.021239904347514e+000	 8.736837471449945e+000
 1.076997266997788e+000	 2.032259059991009e+000	 8.565157469463852e+000
 1.056377564010459e+000	 2.043053215731184e+000	 8.385326231329197e+000
 1.272262676611648e+000	 1.946014563585775e+000	 9.345199628136856e+000
 1.252269226859034e+000	 1.958940219467000e+000	 9.338877080884116e+000
 1.232166923498929e+000	 1.971646437021081e+000	 9.369483510759912e+000
 1.211959325944866e+000	 1.984131949301702e+000	 9.367314915050594e+000
 1.191650010429500e+000	 1.996395565170425e+000	 9.328698279744177e+000
 1.171242568018975e+000	 2.008436169475090e+000	 9.257385863150537e+000
 1.150740602630003e+000	 2.020252723166887e+000	 9.157092007122028e+000
 1.130147729051826e+000	 2.031844263356515e+000	 9.031485014944371e+000
 1.109467570975188e+000	 2.043209903309902e+000	 8.884179226271382e+000
 1.088703759030439e+000	 2.054348832384064e+000	 8.718727306995723e+000
 1.067859928836815e+000	 2.065260315903762e+000	 8.538612771070509e+000
 1.285942920444961e+000	 1.966939451368459e+000	 9.313115776098430e+000
 1.265734487362051e+000	 1.980004092796729e+000	 9.341287986450295e+000
 1.245416030202710e+000	 1.992846936345929e+000	 9.370443697515904e+000
 1.224991146653734e+000	 2.005466701446662e+000	 9.407625272422532e+000
 1.204463451401894e+000	 2.017862184152554e+000	 9.401638125536175e+000
 1.183836574126947e+000	 2.030032257320558e+000	 9.356286058317712e+000
 1.163114157497400e+000	 2.041975870729298e+000	 9.275340374922442e+000
 1.142299855171193e+000	 2.053692051135825e+000	 9.162531499726567e+000
 1.121397329803490e+000	 2.065179902271288e+000	 9.021540789367217e+000
 1.100410251063676e+000	 2.076438604776118e+000	 8.855992557884164e+000
 1.079342293663667e+000	 2.087467416075340e+000	 8.669446332662581e+000
 1.299623164278777e+000	 1.987864339150143e+000	 9.331269765677524e+000
 1.279199747865662e+000	 2.001067966125458e+000	 9.388142490254797e+000
 1.258665136907154e+000	 2.014047435669777e+000	 9.428171855344928e+000
 1.238022967363315e+000	 2.026801453590624e+000	 9.474056041904387e+000
 1.217276892375029e+000	 2.039328803133683e+000	 9.493685154548036e+000
 1.196430580235670e+000	 2.051628345165026e+000	 9.467417534151814e+000
 1.175487712365535e+000	 2.063699018290709e+000	 9.399088560102690e+000
 1.154451981291268e+000	 2.075539838914133e+000	 9.292497741838654e+000
 1.133327088632449e+000	 2.087149901231676e+000	 9.151400259086866e+000
 1.112116743097499e+000	 2.098528377167173e+000	 8.979498713690298e+000
 1.090824658491015e+000	 2.109674516245919e+000	 8.780435111420406e+000
 1.313303408113096e+000	 2.008789226930828e+000	 9.398929805316843e+000
 1.292665008369864e+000	 2.022131839453188e+000	 9.478869438572303e+000
 1.271914243612259e+000	 2.035247934992624e+000	 9.535933842746964e+000
 1.251054788073606e+000	 2.048136205733585e+000	 9.570759234968621e+000
 1.230090333348904e+000	 2.060795422113812e+000	 9.607009488184682e+000
 1.209024586345141e+000	 2.073224433008494e+000	 9.593030455892325e+000
 1.187861267234408e+000	 2.085422165851120e+000	 9.530662149400596e+000
 1.166604107412051e+000	 2.097387626691442e+000	 9.423780157248364e+000
 1.145256847462064e+000	 2.109119900191063e+000	 9.276220320923303e+000
 1.123823235131908e+000	 2.120618149557228e+000	 9.091770204695889e+000
 1.102307023318859e+000	 2.131881616415496e+000	 8.874160794961174e+000
 1.326983651947916e+000	 2.029714114710512e+000	 9.515399016590868e+000
 1.306130268874659e+000	 2.043195712779917e+000	 9.612925770703203e+000
 1.285163350318026e+000	 2.056448434314472e+000	 9.681669819957506e+000
 1.264086608784608e+000	 2.069470957875546e+000	 9.722164109538461e+000
 1.242903774323520e+000	 2.082262041092940e+000	 9.743789939732253e+000
 1.221618592455362e+000	 2.094820520850962e+000	 9.735377574714322e+000
 1.200234822104020e+000	 2.107145313410531e+000	 9.672383393799789e+000
 1.178756233533540e+000	 2.119235414467751e+000	 9.558766090764499e+000
 1.157186606292337e+000	 2.131089899149450e+000	 9.398449041989718e+000
 1.135529727166903e+000	 2.142707921946283e+000	 9.195311485536299e+000
 1.113789388147199e+000	 2.154088716584075e+000	 8.953179929580324e+000
 1.340663895783240e+000	 2.050639002489196e+000	 9.680013652923844e+000
 1.319595529380046e+000	 2.064259586105647e+000	 9.789795085655848e+000
 1.298412457024456e+000	 2.077648933635320e+000	 9.865006849744106e+000
 1.277118429496323e+000	 2.090805710016507e+000	 9.906081034837081e+000
 1.255717215298876e+000	 2.103728660071070e+000	 9.913482334296022e+000
 1.234212598566333e+000	 2.116416608692430e+000	 9.896714095793101e+000
 1.212608376974370e+000	 2.128868460968942e+000	 9.826571378721219e+000
 1.190908359655738e+000	 2.141083202243059e+000	 9.699834278850805e+000
 1.169116365123266e+000	 2.153059898106837e+000	 9.520520616855619e+000
 1.147236219202485e+000	 2.164797694334338e+000	 9.292608054366003e+000
 1.125271752976035e+000	 2.176295816751653e+000	 9.020025202972082e+000
 1.354344139619067e+000	 2.071563890266881e+000	 9.892141426263905e+000
 1.333060789886026e+000	 2.085323459430376e+000	 1.000898629569694e+001
 1.311661563731547e+000	 2.098849432955168e+000	 1.008559132042162e+001
 1.290150250208748e+000	 2.112140462156468e+000	 1.012229010257235e+001
 1.268530656274973e+000	 2.125195279048199e+000	 1.011945518133884e+001
 1.246806604678053e+000	 2.138012696532898e+000	 1.007929755436473e+001
 1.224981931845459e+000	 2.150591608526352e+000	 9.995542183900081e+000
 1.203060485778643e+000	 2.162930990017368e+000	 9.849355284391159e+000
 1.181046123954852e+000	 2.175029897063225e+000	 9.644856068180177e+000
 1.158942711238653e+000	 2.186887466721392e+000	 9.386127410256865e+000
 1.136754117805368e+000	 2.198502916918232e+000	 9.077206649209291e+000
 1.368024383455396e+000	 2.092488778043565e+000	 1.015117993415698e+001
 1.346526050392599e+000	 2.106387332754106e+000	 1.027003236068823e+001
 1.324910670439301e+000	 2.120049932274017e+000	 1.034308797957496e+001
 1.303182070921885e+000	 2.133475214295430e+000	 1.037058422724805e+001
 1.281344097251810e+000	 2.146661898024328e+000	 1.035280372222269e+001
 1.259400610790523e+000	 2.159608784372367e+000	 1.029007314097872e+001
 1.237355486717287e+000	 2.172314756082764e+000	 1.018160903367008e+001
 1.215212611902256e+000	 2.184778777790678e+000	 1.000969190536840e+001
 1.192975882787095e+000	 2.196999896018612e+000	 9.773863905307767e+000
 1.170649203275408e+000	 2.208977239107448e+000	 9.478319953151949e+000
 1.148236482635196e+000	 2.220710017083810e+000	 9.127212781424399e+000
 1.033412834359236e+000	 1.998639015383027e+000	 8.000820061749858e+000
 1.013167470062905e+000	 2.008977769327879e+000	 8.039737456156281e+000
 9.928517124315605e-001	 2.019095212510688e+000	 8.051840989148326e+000
 9.724690831009004e-001	 2.028990853228825e+000	 8.039662292892706e+000
 9.520231011303464e-001	 2.038664272261591e+000	 8.005664121997508e+000
 9.315172811979672e-001	 2.048115122476415e+000	 7.952235024197321e+000
 9.109551318173336e-001	 2.057343128383053e+000	 7.881684269432184e+000
 8.903401535779651e-001	 2.066348085636912e+000	 7.796237046363004e+000
 8.696758374109869e-001	 2.075129860492684e+000	 7.698029934416679e+000
 8.489656628815501e-001	 2.083688389209486e+000	 7.589106658492516e+000
 8.282130965095028e-001	 2.092023677408817e+000	 7.471414132495358e+000
 1.044895199184599e+000	 2.020846115557606e+000	 8.206950553958736e+000
 1.024424886396339e+000	 2.031299744546037e+000	 8.234311456044969e+000
 1.003883398124834e+000	 2.041529603764009e+000	 8.236786922709246e+000
 9.832742951350687e-001	 2.051535196045530e+000	 8.217093279854954e+000
 9.626011355871260e-001	 2.061316097511893e+000	 8.177872817790926e+000
 9.418674732110530e-001	 2.070871957173500e+000	 8.121688209575760e+000
 9.210768555039048e-001	 2.080202496479101e+000	 8.051017200959654e+000
 9.002328219506405e-001	 2.089307508813609e+000	 7.968247581322818e+000
 8.793389022705090e-001	 2.098186858945657e+000	 7.875672444018096e+000
 8.583986146904973e-001	 2.106840482426127e+000	 7.775485743517900e+000
 8.374154642473412e-001	 2.115268384938982e+000	 7.669778155761744e+000
 1.056377564010459e+000	 2.043053215731184e+000	 8.385326231329197e+000
 1.035682302730179e+000	 2.053621719763194e+000	 8.401018762837039e+000
 1.014915083818444e+000	 2.063963995016330e+000	 8.393755803402911e+000
 9.940795071695253e-001	 2.074079538861235e+000	 8.366442444891041e+000
 9.731791700441648e-001	 2.083967922761197e+000	 8.321904511125418e+000
 9.522176652243890e-001	 2.093628791869585e+000	 8.262882717813062e+000
 9.311985791907377e-001	 2.103061864574149e+000	 8.192027117516464e+000
 9.101254903236087e-001	 2.112266931989306e+000	 8.111891839442235e+000
 8.890019671303754e-001	 2.121243857397628e+000	 8.024930132770429e+000
 8.678315664998596e-001	 2.129992575641768e+000	 7.933489721208224e+000
 8.466178319856844e-001	 2.138513092468148e+000	 7.839808475395961e+000
 1.067859928836815e+000	 2.065260315903762e+000	 8.538612771070509e+000
 1.046939719064425e+000	 2.075943694979352e+000	 8.542401337273986e+000
 1.025946769512391e+000	 2.086398386267651e+000	 8.525167163538672e+000
 1.004884719204270e+000	 2.096623881675941e+000	 8.490008274255034e+000
 9.837572045014625e-001	 2.106619748009500e+000	 8.439938116895350e+000
 9.625678572379757e-001	 2.116385626564670e+000	 8.377879457338947e+000
 9.413203028778324e-001	 2.125921232668197e+000	 8.306658573952406e+000
 9.200181586968702e-001	 2.135226355164004e+000	 8.228999760564632e+000
 8.986650319905858e-001	 2.144300855848600e+000	 8.147520147393356e+000
 8.772645183096365e-001	 2.153144668856409e+000	 8.064724847890570e+000
 8.558201997245326e-001	 2.161757799996312e+000	 7.983002438379783e+000
 1.079342293663667e+000	 2.087467416075340e+000	 8.669446332662581e+000
 1.058197135399078e+000	 2.098265670194510e+000	 8.660974002829750e+000
 1.036978455206676e+000	 2.108832777517972e+000	 8.633415736987878e+000
 1.015689931239302e+000	 2.119168224489647e+000	 8.590066752087532e+000
 9.943352389590202e-001	 2.129271573256804e+000	 8.534132300861366e+000
 9.729180492518130e-001	 2.139142461258755e+000	 8.468721296278993e+000
 9.514420265651888e-001	 2.148780600761245e+000	 8.396840248719069e+000
 9.299108270704248e-001	 2.158185778337701e+000	 8.321387526381653e+000
 9.083280968511405e-001	 2.167357854298573e+000	 8.245147948336939e+000
 8.866974701198286e-001	 2.176296762070050e+000	 8.170787718472264e+000
 8.650225674638863e-001	 2.185002507523477e+000	 8.100849707458904e+000
 1.090824658491015e+000	 2.109674516245919e+000	 8.780435111420406e+000
 1.069454551734137e+000	 2.120587645408667e+000	 8.759225873988191e+000
 1.048010140901297e+000	 2.131267168767293e+000	 8.720872764365183e+000
 1.026495143274622e+000	 2.141712567302352e+000	 8.668872544737418e+000
 1.004913273416837e+000	 2.151923398503107e+000	 8.606626545394164e+000
 9.832682412659006e-001	 2.161899295951840e+000	 8.537434011943846e+000
 9.615637502528075e-001	 2.171639968853294e+000	 8.464485779470207e+000
 9.398034954442724e-001	 2.181145201510398e+000	 8.390858284546276e+000
 9.179911617120392e-001	 2.190414852747545e+000	 8.319507924848459e+000
 8.961304219304351e-001	 2.199448855282691e+000	 8.253265774936645e+000
 8.742249352037450e-001	 2.208247215049642e+000	 8.194832665576461e+000
 1.102307023318859e+000	 2.131881616415496e+000	 8.874160794961174e+000
 1.080711968069602e+000	 2.142909620621825e+000	 8.839621695252715e+000
 1.059041826596255e+000	 2.153701560015614e+000	 8.789887216635250e+000
 1.037300355310231e+000	 2.164256910114058e+000	 8.728660111063437e+000
 1.015491307874912e+000	 2.174575223748410e+000	 8.659542148609663e+000
 9.936184332802385e-001	 2.184656130643925e+000	 8.586027180975902e+000
 9.716854739406875e-001	 2.194499336944342e+000	 8.511494546436374e+000
 9.496961638184130e-001	 2.204104624682095e+000	 8.439202827529085e+000
 9.276542265732820e-001	 2.213471851195517e+000	 8.372283971597689e+000
 9.055633737414567e-001	 2.222600948494331e+000	 8.313737783057848e+000
 8.834273029441089e-001	 2.231491922574806e+000	 8.266426795029316e+000
 1.113789388147199e+000	 2.154088716584075e+000	 8.953179929580324e+000
 1.091969384405474e+000	 2.165231595833983e+000	 8.904603097330941e+000
 1.070073512291550e+000	 2.176135951262935e+000	 8.842786943032818e+000
 1.048105567346127e+000	 2.186801252924763e+000	 8.771644744057522e+000
 1.026069342333246e+000	 2.197227048992712e+000	 8.694983161701497e+000
 1.003968625294827e+000	 2.207412965335011e+000	 8.616495014435492e+000
 9.818071976288297e-001	 2.217358705034390e+000	 8.539752407343670e+000
 9.595888321928467e-001	 2.227064047852791e+000	 8.468200229483429e+000
 9.373172914348692e-001	 2.236528849642488e+000	 8.405150029634328e+000
 9.149963255528931e-001	 2.245753041704973e+000	 8.353774279628105e+000
 8.926296706849778e-001	 2.254736630098971e+000	 8.317101033171424e+000
 1.125271752976035e+000	 2.176295816751653e+000	 9.020025202972082e+000
 1.103226800741752e+000	 2.187553571045140e+000	 8.956589776410015e+000
 1.081105197987183e+000	 2.198570342509257e+000	 8.881879748702321e+000
 1.058910779382311e+000	 2.209345595734469e+000	 8.800023548694957e+000
 1.036647376791840e+000	 2.219878874236016e+000	 8.715037268886082e+000
 1.014318817309667e+000	 2.230169800025096e+000	 8.630817141759032e+000
 9.919289213172337e-001	 2.240218073123438e+000	 8.551132387337598e+000
 9.694815005675739e-001	 2.250023471022488e+000	 8.479618444118550e+000
 9.469803562968006e-001	 2.259585848088461e+000	 8.419770594225872e+000
 9.244292773647449e-001	 2.268905134914614e+000	 8.374937992303940e+000
 9.018320384263519e-001	 2.277981337622136e+000	 8.348318106339768e+000
 1.136754117805368e+000	 2.198502916918232e+000	 9.077206649209291e+000
 1.114484217078436e+000	 2.209875546255298e+000	 8.997980601960519e+000
 1.092136883683152e+000	 2.221004733754577e+000	 8.909454407025541e+000
 1.069715991418783e+000	 2.231889938543174e+000	 8.815976360521246e+000
 1.047225411250693e+000	 2.242530699478319e+000	 8.721776614017690e+000
 1.024669009324756e+000	 2.252926634714180e+000	 8.630959347204671e+000
 1.002050645005900e+000	 2.263077441211487e+000	 8.547495327092927e+000
 9.793741689425939e-001	 2.272982894191185e+000	 8.475214866338396e+000
 9.566434211590758e-001	 2.282642846533433e+000	 8.417801191917450e+000
 9.338622291770110e-001	 2.292057228123256e+000	 8.378784234006700e+000
 9.110344061682311e-001	 2.301226045144301e+000	 8.361534843541797e+000
 1.148236482635196e+000	 2.220710017083810e+000	 9.127212781424399e+000
 1.125741633415527e+000	 2.232197521464456e+000	 9.031154658072561e+000
 1.103168569379458e+000	 2.243439124998900e+000	 8.927781611209486e+000
 1.080521203455544e+000	 2.254434281350881e+000	 8.821666609123545e+000
 1.057803445709805e+000	 2.265182524719623e+000	 8.717258577606478e+000
 1.035019201340097e+000	 2.275683469402266e+000	 8.618874262111115e+000
 1.012172368694828e+000	 2.285936809298536e+000	 8.530690492037497e+000
 9.892668373179073e-001	 2.295942317358883e+000	 8.456736860181715e+000
 9.663064860216958e-001	 2.305699844977406e+000	 8.400888828967602e+000
 9.432951809896925e-001	 2.315209321330897e+000	 8.366861273659536e+000
 9.202367739106159e-001	 2.324470752665467e+000	 8.358202471322191e+000
 8.282130965095028e-001	 2.092023677408817e+000	 7.471414132495358e+000
 8.074215901202451e-001	 2.100135799387014e+000	 7.418661541702455e+000
 7.865945792257691e-001	 2.108024897382408e+000	 7.358551666670853e+000
 7.657354814378435e-001	 2.115691180799508e+000	 7.292674162814336e+000
 7.448476949157643e-001	 2.123134925392267e+000	 7.222510986991965e+000
 7.239345968484162e-001	 2.130356472406817e+000	 7.149433960163090e+000
 7.029995419721640e-001	 2.137356227685585e+000	 7.074702633206027e+000
 6.820458611255976e-001	 2.144134660734327e+000	 6.999462455509833e+000
 6.610768598420856e-001	 2.150692303753668e+000	 6.924743245081825e+000
 6.400958169810156e-001	 2.157029750636725e+000	 6.851457958069390e+000
 6.191059833985354e-001	 2.163147655934445e+000	 6.731187508903981e+000
 8.374154642473412e-001	 2.115268384938982e+000	 7.669778155761744e+000
 8.163929411200946e-001	 2.123470641606018e+000	 7.626537750693263e+000
 7.953345189931456e-001	 2.131447396245942e+000	 7.573930919694120e+000
 7.742436534517254e-001	 2.139198860589977e+000	 7.513648782350270e+000
 7.531237804124565e-001	 2.146725313456010e+000	 7.447273094791244e+000
 7.319783145885441e-001	 2.154027099881797e+000	 7.376273643395555e+000
 7.108106479912013e-001	 2.161104630219127e+000	 7.302005950737611e+000
 6.896241484683363e-001	 2.167958379190486e+000	 7.225709293540889e+000
 6.684221582814655e-001	 2.174588884909840e+000	 7.148505031502306e+000
 6.472079927217471e-001	 2.180996747869119e+000	 7.071395244980580e+000
 6.259849387659531e-001	 2.187182629892056e+000	 6.995261678693890e+000
 8.466178319856844e-001	 2.138513092468148e+000	 7.839808475395961e+000
 8.253642921205442e-001	 2.146805483824028e+000	 7.803881797523131e+000
 8.040744587612064e-001	 2.154869895108496e+000	 7.756742474583166e+000
 7.827518254663666e-001	 2.162706540379492e+000	 7.700186342727378e+000
 7.613998659099723e-001	 2.170315701518835e+000	 7.635898009252807e+000
 7.400220323295501e-001	 2.177697727355906e+000	 7.565448074973488e+000
 7.186217540111608e-001	 2.184853032751853e+000	 7.490290678286629e+000
 6.972024358120313e-001	 2.191782097645895e+000	 7.411761360851314e+000
 6.757674567218255e-001	 2.198485466065336e+000	 7.331075253866333e+000
 6.543201684634735e-001	 2.204963745100923e+000	 7.249325583027157e+000
 6.328638941343707e-001	 2.211217603849173e+000	 7.167482489368783e+000
 8.558201997245326e-001	 2.161757799996312e+000	 7.983002438379783e+000
 8.343356431215939e-001	 2.170140326041044e+000	 7.952157559611901e+000
 8.128143985299519e-001	 2.178292393970071e+000	 7.908414846248987e+000
 7.912599974817666e-001	 2.186214220168053e+000	 7.853678168364038e+000
 7.696759514083115e-001	 2.193906089580742e+000	 7.789738101004028e+000
 7.480657500714332e-001	 2.201368354829143e+000	 7.718268972764973e+000
 7.264328600320423e-001	 2.208601435283764e+000	 7.640826245894676e+000
 7.047807231566823e-001	 2.215605816100554e+000	 7.558844227990594e+000
 6.831127551631663e-001	 2.222382047220160e+000	 7.473634114397873e+000
 6.614323442061953e-001	 2.228930742332137e+000	 7.386382359473651e+000
 6.397428495037884e-001	 2.235252577805797e+000	 7.298149373977179e+000
 8.650225674638863e-001	 2.185002507523477e+000	 8.100849707458904e+000
 8.433069941232435e-001	 2.193475168257064e+000	 8.072820036380390e+000
 8.215543382993820e-001	 2.201714892830667e+000	 8.030366600193091e+000
 7.997681694979255e-001	 2.209721899955661e+000	 7.975504684911699e+000
 7.779520369074738e-001	 2.217496477641732e+000	 7.910134014229692e+000
 7.561094678141941e-001	 2.225038982301508e+000	 7.836035621760910e+000
 7.342439660538457e-001	 2.232349837814859e+000	 7.754869065022987e+000
 7.123590105022895e-001	 2.239429534554463e+000	 7.668169981378654e+000
 6.904580536054876e-001	 2.246278628374308e+000	 7.577347985154750e+000
 6.685445199499123e-001	 2.252897739562764e+000	 7.483684904186957e+000
 6.466218048742060e-001	 2.259287551761928e+000	 7.388333353099427e+000
 8.742249352037450e-001	 2.208247215049642e+000	 8.194832665576461e+000
 8.522783451254931e-001	 2.216810010472089e+000	 8.167315816513243e+000
 8.302942780694966e-001	 2.225137391690283e+000	 8.124006876160808e+000
 8.082763415148440e-001	 2.233229579742315e+000	 8.067035992874603e+000
 7.862281224074597e-001	 2.241086865701804e+000	 7.998415283853591e+000
 7.641531855578327e-001	 2.248709609773001e+000	 7.920035528436840e+000
 7.420550720765707e-001	 2.256098240345137e+000	 7.833663213740228e+000
 7.199372978488527e-001	 2.263253253007622e+000	 7.740937932996983e+000
 6.978033520487897e-001	 2.270175209527783e+000	 7.643370135932141e+000
 6.756566956946242e-001	 2.276864736792801e+000	 7.542339229499093e+000
 6.535007602456237e-001	 2.283322525717564e+000	 7.439092026332315e+000
 8.834273029441089e-001	 2.231491922574806e+000	 8.266426795029316e+000
 8.612496961283427e-001	 2.240144852686119e+000	 8.237083516018371e+000
 8.390342178402960e-001	 2.248559890548920e+000	 8.190735879066097e+000
 8.167845135325212e-001	 2.256737259528015e+000	 8.129632405377627e+000
 7.945042079082687e-001	 2.264677253760957e+000	 8.055900914145635e+000
 7.721969033023489e-001	 2.272380237243623e+000	 7.971545034217318e+000
 7.498661781002176e-001	 2.279846642874599e+000	 7.878441079087215e+000
 7.275155851963721e-001	 2.287076971460030e+000	 7.778335285723890e+000
 7.051486504930720e-001	 2.294071790680583e+000	 7.672841416671852e+000
 6.827688714403313e-001	 2.300831734022249e+000	 7.563438723829378e+000
 6.603797156180413e-001	 2.307357499672706e+000	 7.451470271298749e+000
 8.926296706849778e-001	 2.254736630098971e+000	 8.317101033171424e+000
 8.702210471317924e-001	 2.263479694899155e+000	 8.283554189189522e+000
 8.477741576117799e-001	 2.271982389406577e+000	 8.231945339549956e+000
 8.252926855509575e-001	 2.280244939312762e+000	 8.164644952670422e+000
 8.027802934099011e-001	 2.288267641819194e+000	 8.083899921539032e+000
 7.802406210477425e-001	 2.296050864713372e+000	 7.991829890994213e+000
 7.576772841247863e-001	 2.303595045403246e+000	 7.890423959706776e+000
 7.350938725448477e-001	 2.310900689911689e+000	 7.781537757515145e+000
 7.124939489383351e-001	 2.317968371832708e+000	 7.666890897661259e+000
 6.898810471870336e-001	 2.324798731251109e+000	 7.548064802401052e+000
 6.672586709914591e-001	 2.331392473627356e+000	 7.426500899419296e+000
 9.018320384263519e-001	 2.277981337622136e+000	 8.348318106339768e+000
 8.791923981358421e-001	 2.286814537111197e+000	 8.308151714408135e+000
 8.565140973839484e-001	 2.295404888263255e+000	 8.249018946341101e+000
 8.338008575701530e-001	 2.303752619096555e+000	 8.173415855743551e+000
 8.110563789123574e-001	 2.311858029876512e+000	 8.083711844213998e+000
 7.882843387940139e-001	 2.319721492182250e+000	 7.982145801408841e+000
 7.654883901502770e-001	 2.327343447931077e+000	 7.870822631578863e+000
 7.426721598942795e-001	 2.334724408362598e+000	 7.751710167369313e+000
 7.198392473845785e-001	 2.341864952984159e+000	 7.626636470536112e+000
 6.969932229347310e-001	 2.348765728479380e+000	 7.497287518119003e+000
 6.741376263658767e-001	 2.355427447581511e+000	 7.365205271535039e+000
 9.110344061682311e-001	 2.301226045144301e+000	 8.361534843541797e+000
 8.881637491404917e-001	 2.310149379322243e+000	 8.312293156563156e+000
 8.652540371568017e-001	 2.318827387118954e+000	 8.243332752413364e+000
 8.423090295901076e-001	 2.327260298879394e+000	 8.157278971240762e+000
 8.193324644156366e-001	 2.335448417932912e+000	 8.056627220797394e+000
 7.963280565411631e-001	 2.343392119650255e+000	 7.943738926389977e+000
 7.732994961766895e-001	 2.351091850458091e+000	 7.820837879467830e+000
 7.502504472446673e-001	 2.358548126812756e+000	 7.690006985780374e+000
 7.271845458318026e-001	 2.365761534134935e+000	 7.553185412858564e+000
 7.041053986834237e-001	 2.372732725707061e+000	 7.412166135424195e+000
 6.810165817412944e-001	 2.379462421535173e+000	 7.268593876219704e+000
 9.202367739106159e-001	 2.324470752665467e+000	 8.358202471322191e+000
 8.971351001457416e-001	 2.333484221532295e+000	 8.297389107725618e+000
 8.739939769303398e-001	 2.342249885973674e+000	 8.216255556773477e+000
 8.508172016108214e-001	 2.350767978661281e+000	 8.117560209675951e+000
 8.276085499197395e-001	 2.359038805988396e+000	 8.003928040340277e+000
 8.043717742891899e-001	 2.367062747117389e+000	 7.877846362239461e+000
 7.811106022040244e-001	 2.374840252984292e+000	 7.741660996483271e+000
 7.578287345960116e-001	 2.382371845262165e+000	 7.597572852162843e+000
 7.345298442800076e-001	 2.389658115285039e+000	 7.447634918821127e+000
 7.112175744331116e-001	 2.396699722934155e+000	 7.293749669716599e+000
 6.878955371177123e-001	 2.403497395488342e+000	 7.137666873392840e+000
 6.191059833985354e-001	 2.163147655934445e+000	 6.731187508903981e+000
 5.981105806580939e-001	 2.169046733790038e+000	 6.612052359789092e+000
 5.771127997826462e-001	 2.174727756844882e+000	 6.493171280029519e+000
 5.561158000485695e-001	 2.180191555116964e+000	 6.376656504534839e+000
 5.351227078207386e-001	 2.185439014853160e+000	 6.264357325373049e+000
 5.141366154304752e-001	 2.190471077357688e+000	 6.157860772256233e+000
 4.931605800963980e-001	 2.195288737798134e+000	 6.058492858876083e+000
 4.721976228884912e-001	 2.199893043990708e+000	 5.967320378537930e+000
 4.512507277356547e-001	 2.204285095166384e+000	 5.885153231470467e+000
 4.303228404769293e-001	 2.208466040719535e+000	 5.812547265198890e+000
 4.094168679565230e-001	 2.212437078940723e+000	 5.749807608474391e+000
 6.259849387659531e-001	 2.187182629892056e+000	 6.995261678693890e+000
 6.047562537727171e-001	 2.193147253056797e+000	 6.897864091220616e+000
 5.835251642208401e-001	 2.198891398589630e+000	 6.790531804072937e+000
 5.622948644897693e-001	 2.204415905730961e+000	 6.683385171367521e+000
 5.410685156817661e-001	 2.209721670574856e+000	 6.578366200640914e+000
 5.198492444873888e-001	 2.214809644884473e+000	 6.477148902290248e+000
 4.986401420943507e-001	 2.219680834884810e+000	 6.381140475277171e+000
 4.774442631400799e-001	 2.224336300034484e+000	 6.291483058783553e+000
 4.562646247082410e-001	 2.228777151778144e+000	 6.209056031814853e+000
 4.351042053694189e-001	 2.233004552281214e+000	 6.134478841724769e+000
 4.139659442660896e-001	 2.237019713148595e+000	 6.068114341706362e+000
 6.328638941343707e-001	 2.211217603849173e+000	 7.167482489368783e+000
 6.114019268883301e-001	 2.217247772323162e+000	 7.132814000211188e+000
 5.899375286599927e-001	 2.223055040334081e+000	 7.033409089032364e+000
 5.684739289318760e-001	 2.228640256344763e+000	 6.932358084248810e+000
 5.470143235436286e-001	 2.234004326296461e+000	 6.831698898998708e+000
 5.255618735450450e-001	 2.239148212411264e+000	 6.733195294838839e+000
 5.041197040929339e-001	 2.244072931971593e+000	 6.638338009304802e+000
 4.826909033921672e-001	 2.248779556078466e+000	 6.548346466709612e+000
 4.612785216811740e-001	 2.253269208390210e+000	 6.464171053778089e+000
 4.398855702620841e-001	 2.257543063843300e+000	 6.386495940653350e+000
 4.185150205756415e-001	 2.261602347356972e+000	 6.315742426849701e+000
 6.397428495037884e-001	 2.235252577805797e+000	 7.298149373977179e+000
 6.180476000049326e-001	 2.241348291589134e+000	 7.318340827486669e+000
 5.963498931001037e-001	 2.247218682078241e+000	 7.223239220554054e+000
 5.746529933748895e-001	 2.252864606958372e+000	 7.125006975022882e+000
 5.529601314063259e-001	 2.258286982017971e+000	 7.025781164658263e+000
 5.312745026034441e-001	 2.263486779938062e+000	 6.927418135799561e+000
 5.095992660921479e-001	 2.268465029058483e+000	 6.831494579220171e+000
 4.879375436447530e-001	 2.273222812122655e+000	 6.739309203153723e+000
 4.662924186544541e-001	 2.277761265002585e+000	 6.651884988662821e+000
 4.446669351549250e-001	 2.282081575405792e+000	 6.569972007427778e+000
 4.230640968851787e-001	 2.286184981565858e+000	 6.494050781040640e+000
 6.466218048742060e-001	 2.259287551761928e+000	 7.388333353099427e+000
 6.246932731225249e-001	 2.265448810854711e+000	 7.455865500674253e+000
 6.027622575411730e-001	 2.271382323822106e+000	 7.361437032103446e+000
 5.808320578188099e-001	 2.277088957571788e+000	 7.262739091571707e+000
 5.589059392698581e-001	 2.282569637739387e+000	 7.162011233144921e+000
 5.369871316625857e-001	 2.287825347464866e+000	 7.061205284353342e+000
 5.150788280919921e-001	 2.292857126145480e+000	 6.961986364754461e+000
 4.931841838978373e-001	 2.297666068167052e+000	 6.865734524233627e+000
 4.713063156280809e-001	 2.302253321615265e+000	 6.773546981779025e+000
 4.494483000479417e-001	 2.306620086968693e+000	 6.686240944330214e+000
 4.276131731947014e-001	 2.310767615775252e+000	 6.604356984267672e+000
 6.535007602456237e-001	 2.283322525717564e+000	 7.439092026332315e+000
 6.313389462411063e-001	 2.289549330119895e+000	 7.499781823058621e+000
 6.091746219832009e-001	 2.295545965565678e+000	 7.449397223500907e+000
 5.870111222636369e-001	 2.301313308185011e+000	 7.346938486444561e+000
 5.648517471342254e-001	 2.306852293460712e+000	 7.241761279122560e+000
 5.426997607224701e-001	 2.312163914991678e+000	 7.135915869107774e+000
 5.205583900924672e-001	 2.317249223232584e+000	 7.031158340715876e+000
 4.984308241514200e-001	 2.322109324211656e+000	 6.928952201594925e+000
 4.763202126020544e-001	 2.326745378228254e+000	 6.830470608549451e+000
 4.542296649411342e-001	 2.331158598532000e+000	 6.736599191700582e+000
 4.321622495042093e-001	 2.335350249985153e+000	 6.647939455010959e+000
 6.603797156180413e-001	 2.307357499672706e+000	 7.451470271298749e+000
 6.379846193606776e-001	 2.313649849384685e+000	 7.499964166827040e+000
 6.155869864261875e-001	 2.319709607308956e+000	 7.488495409549103e+000
 5.931901867093712e-001	 2.325537658798039e+000	 7.378967224948095e+000
 5.707975549994272e-001	 2.331134949181941e+000	 7.266378773730478e+000
 5.484123897830971e-001	 2.336502482518495e+000	 7.152881784480877e+000
 5.260379520935724e-001	 2.341641320319795e+000	 7.040325902246024e+000
 5.036774644055012e-001	 2.346552580256466e+000	 6.930260266394454e+000
 4.813341095763750e-001	 2.351237434841550e+000	 6.823935727107315e+000
 4.590110298345023e-001	 2.355697110095716e+000	 6.722307679079989e+000
 4.367113258137025e-001	 2.359932884195560e+000	 6.626039489903866e+000
 6.672586709914591e-001	 2.331392473627356e+000	 7.426500899419296e+000
 6.446302924812386e-001	 2.337750368649082e+000	 7.459836417332152e+000
 6.219993508701324e-001	 2.343873249051940e+000	 7.480089103796887e+000
 5.993692511560121e-001	 2.349762009410875e+000	 7.360166518509412e+000
 5.767433628654640e-001	 2.355417604903078e+000	 7.237187757960914e+000
 5.541250188444671e-001	 2.360841050045321e+000	 7.113409094525371e+000
 5.315175140953082e-001	 2.366033417407112e+000	 6.990776389544588e+000
 5.089241046600811e-001	 2.370995836301485e+000	 6.870926645407687e+000
 4.863480065510423e-001	 2.375729491455153e+000	 6.755190216301301e+000
 4.637923947280460e-001	 2.380235621659838e+000	 6.644593655663563e+000
 4.412604021231812e-001	 2.384515518406475e+000	 6.539863177230555e+000
 6.741376263658767e-001	 2.355427447581511e+000	 7.365205271535039e+000
 6.512759656027893e-001	 2.361850887913085e+000	 7.380439863000257e+000
 6.284117153150359e-001	 2.368036890794632e+000	 7.402029215667400e+000
 6.055483156035602e-001	 2.373986360023517e+000	 7.291857788649852e+000
 5.826891707323358e-001	 2.379700260624121e+000	 7.155490038074584e+000
 5.598376479065796e-001	 2.385179617572153e+000	 7.018779350804826e+000
 5.369970760976748e-001	 2.390425514494537e+000	 6.883770519244501e+000
 5.141707449151594e-001	 2.395439092346710e+000	 6.752190696966613e+000
 4.913619035260565e-001	 2.400221548069064e+000	 6.625451607291222e+000
 4.685737596217657e-001	 2.404774133224367e+000	 6.504652408685588e+000
 4.458094784326451e-001	 2.409098152617898e+000	 6.390583193269831e+000
 6.810165817412944e-001	 2.379462421535173e+000	 7.268593876219704e+000
 6.579216387253294e-001	 2.385951407176694e+000	 7.262802121449612e+000
 6.348240797608978e-001	 2.392200532537029e+000	 7.261428593658276e+000
 6.117273800520149e-001	 2.398210710635965e+000	 7.175343666474824e+000
 5.886349786000426e-001	 2.403982916345072e+000	 7.022566308567070e+000
 5.655502769694349e-001	 2.409518185098991e+000	 6.870250830397279e+000
 5.424766381006718e-001	 2.414817611582069e+000	 6.720543729035786e+000
 5.194173851707361e-001	 2.419882348392142e+000	 6.575264653810373e+000
 4.963758005014176e-001	 2.424713604683281e+000	 6.435908616260032e+000
 4.733551245156609e-001	 2.429312644789304e+000	 6.303648877660068e+000
 4.503585547420944e-001	 2.433680786829828e+000	 6.179340489770129e+000
 6.878955371177123e-001	 2.403497395488342e+000	 7.137666873392840e+000
 6.645673118488593e-001	 2.410051926439911e+000	 7.107937823031471e+000
 6.412364442077186e-001	 2.416364174279133e+000	 7.080921052886649e+000
 6.179064445013768e-001	 2.422435061248221e+000	 7.011908932194690e+000
 5.945807864685845e-001	 2.428265572065930e+000	 6.839677207756894e+000
 5.712629060330331e-001	 2.433856752625838e+000	 6.669059699620621e+000
 5.479562001042996e-001	 2.439209708669709e+000	 6.502307441613509e+000
 5.246640254268117e-001	 2.444325604437782e+000	 6.341334979364730e+000
 5.013896974771256e-001	 2.449205661297807e+000	 6.187722585162570e+000
 4.781364894097321e-001	 2.453851156354649e+000	 6.042719171766433e+000
 4.549076310515292e-001	 2.458263421042266e+000	 5.907245880176439e+000
 4.094168679565230e-001	 2.212437078940723e+000	 5.749807608474391e+000
 3.885356771626090e-001	 2.216199455735425e+000	 5.702952281719115e+000
 3.676820944102924e-001	 2.219754463329662e+000	 5.656891349474265e+000
 3.468589045682614e-001	 2.223103438964542e+000	 5.611335282889863e+000
 3.260688503289498e-001	 2.226247763581711e+000	 5.565765936355437e+000
 3.053146315223869e-001	 2.229188860500556e+000	 5.519441825474798e+000
 2.845989044733670e-001	 2.231928194088898e+000	 5.471403767571736e+000
 2.639242814016642e-001	 2.234467268428643e+000	 5.420480861708073e+000
 2.432933298649634e-001	 2.236807625977843e+000	 5.365296784982031e+000
 2.227085722441358e-001	 2.238950846230580e+000	 5.304276381739062e+000
 2.021724852704328e-001	 2.240898544376048e+000	 5.235652522268855e+000
 4.139659442660896e-001	 2.237019713148595e+000	 6.068114341706362e+000
 3.928527402417594e-001	 2.240823894129246e+000	 6.019118555916902e+000
 3.717674510149444e-001	 2.244418401807346e+000	 5.970720727220707e+000
 3.507128923973185e-001	 2.247804588282233e+000	 5.922678459831565e+000
 3.296918375556776e-001	 2.250983849839349e+000	 5.874513747323833e+000
 3.087070163181624e-001	 2.253957625612741e+000	 5.825518342999888e+000
 2.877611145242888e-001	 2.256727396240981e+000	 5.774759506030676e+000
 2.668567734184953e-001	 2.259294682517994e+000	 5.721086099686817e+000
 2.459965890868866e-001	 2.261661044040255e+000	 5.663135017751574e+000
 2.251831119367892e-001	 2.263828077851780e+000	 5.599337915061693e+000
 2.044188462186914e-001	 2.265797417088305e+000	 5.527928218053755e+000
 4.185150205756415e-001	 2.261602347356972e+000	 6.315742426849701e+000
 3.971698033207161e-001	 2.265448332523665e+000	 6.265018245608565e+000
 3.758528076192648e-001	 2.269082340285696e+000	 6.215026363328219e+000
 3.545668802259480e-001	 2.272505737600639e+000	 6.165571037035077e+000
 3.333148247819216e-001	 2.275719936097731e+000	 6.116213561722585e+000
 3.120994011134391e-001	 2.278726390725677e+000	 6.066277740196405e+000
 2.909233245747360e-001	 2.281526598393801e+000	 6.014855742346366e+000
 2.697892654349163e-001	 2.284122096608050e+000	 5.960814329473618e+000
 2.486998483085034e-001	 2.286514462103323e+000	 5.902801419062365e+000
 2.276576516292784e-001	 2.288705309473562e+000	 5.839252965230102e+000
 2.066652071669667e-001	 2.290696289801054e+000	 5.768400130016365e+000
 4.230640968851787e-001	 2.286184981565858e+000	 6.494050781040640e+000
 4.014868663994790e-001	 2.290072770918680e+000	 6.441968271086121e+000
 3.799381642232539e-001	 2.293746278764711e+000	 6.391083033400760e+000
 3.584208680541493e-001	 2.297206886919757e+000	 6.341245546708541e+000
 3.369378120076820e-001	 2.300456022356852e+000	 6.292055616231440e+000
 3.154917859082165e-001	 2.303495155839361e+000	 6.242867950106533e+000
 2.940855346247088e-001	 2.306325800547358e+000	 6.192798139299270e+000
 2.727217574509270e-001	 2.308949510698813e+000	 6.140729015928509e+000
 2.514031075298134e-001	 2.311367880167042e+000	 6.085317364664198e+000
 2.301321913216034e-001	 2.313582541095925e+000	 6.025000961693843e+000
 2.089115681152584e-001	 2.315595162514295e+000	 5.958005915673986e+000
 4.276131731947014e-001	 2.310767615775252e+000	 6.604356984267672e+000
 4.058039294780481e-001	 2.314697209314293e+000	 6.551243740174369e+000
 3.840235208269116e-001	 2.318410217244391e+000	 6.500123382339186e+000
 3.622748558819228e-001	 2.321908036239591e+000	 6.450892227931216e+000
 3.405607992329587e-001	 2.325192108616718e+000	 6.403187846440608e+000
 3.188841707024949e-001	 2.328263920953794e+000	 6.356394749772506e+000
 2.972477446742072e-001	 2.331125002701653e+000	 6.309650500330470e+000
 2.756542494665275e-001	 2.333776924790280e+000	 6.261852211259654e+000
 2.541063667508167e-001	 2.336221298231415e+000	 6.211663412763187e+000
 2.326067310137641e-001	 2.338459772718871e+000	 6.157521258221444e+000
 2.111579290635668e-001	 2.340494035228026e+000	 6.097644043758637e+000
 4.321622495042093e-001	 2.335350249985153e+000	 6.647939455010959e+000
 4.101209925564234e-001	 2.339321647710502e+000	 6.594080148886627e+000
 3.881088774302378e-001	 2.343074155724738e+000	 6.543340141746105e+000
 3.661288437092683e-001	 2.346609185560138e+000	 6.495661252607327e+000
 3.441837864577516e-001	 2.349928194877323e+000	 6.450718113223008e+000
 3.222765554962742e-001	 2.353032686068978e+000	 6.407923978973977e+000
 3.004099547232311e-001	 2.355924204856685e+000	 6.366436972665478e+000
 2.785867414817179e-001	 2.358604338882451e+000	 6.325166734636596e+000
 2.568096259715134e-001	 2.361074716296441e+000	 6.282781452313183e+000
 2.350812707057604e-001	 2.363337004342399e+000	 6.237715242146434e+000
 2.134042900118918e-001	 2.365392907942251e+000	 6.188175856785536e+000
 4.367113258137025e-001	 2.359932884195560e+000	 6.626039489903866e+000
 4.144380556346050e-001	 2.363946086107308e+000	 6.571675444539695e+000
 3.921942340332327e-001	 2.367738094205750e+000	 6.521888208744326e+000
 3.699828315361858e-001	 2.371310334881399e+000	 6.476664812298544e+000
 3.478067736820607e-001	 2.374664281138672e+000	 6.435716289960487e+000
 3.256689402895543e-001	 2.377801451184912e+000	 6.398483620293220e+000
 3.035721647717806e-001	 2.380723407012454e+000	 6.364144112741759e+000
 2.815192334964980e-001	 2.383431752975329e+000	 6.331618215578168e+000
 2.595128851919035e-001	 2.385928134362120e+000	 6.299576717039120e+000
 2.375558103975927e-001	 2.388214235966510e+000	 6.266448311786062e+000
 2.156506509602334e-001	 2.390291780656967e+000	 6.230427504709172e+000
 4.412604021231812e-001	 2.384515518406475e+000	 6.539863177230555e+000
 4.187551187125927e-001	 2.388570524504710e+000	 6.485191961253941e+000
 3.962795906358961e-001	 2.392402032687428e+000	 6.436886596206758e+000
 3.738368193626754e-001	 2.396011484203374e+000	 6.394979075973009e+000
 3.514297609058862e-001	 2.399400367400761e+000	 6.359216220660482e+000
 3.290613250823354e-001	 2.402570216301594e+000	 6.329065750517438e+000
 3.067343748198556e-001	 2.405522609168960e+000	 6.303722823878610e+000
 2.844517255108681e-001	 2.408259167068911e+000	 6.282117010943881e+000
 2.622161444119869e-001	 2.410781552428453e+000	 6.262919674881910e+000
 2.400303500892606e-001	 2.413091467591202e+000	 6.244551731545646e+000
 2.178970119085915e-001	 2.415190653372174e+000	 6.225191758973977e+000
 4.458094784326451e-001	 2.409098152617898e+000	 6.390583193269831e+000
 4.230721817903867e-001	 2.413194962902710e+000	 6.335758236952877e+000
 4.003649472382280e-001	 2.417065971169771e+000	 6.289420263586099e+000
 3.776908071887371e-001	 2.420712633526063e+000	 6.251646027893083e+000
 3.550527481292279e-001	 2.424136453663593e+000	 6.222217558190396e+000
 3.324537098746174e-001	 2.427338981419025e+000	 6.200628372566611e+000
 3.098965848674561e-001	 2.430321811326204e+000	 6.186090175313051e+000
 2.873842175248279e-001	 2.433086581163198e+000	 6.177540004560745e+000
 2.649194036317636e-001	 2.435634970495439e+000	 6.173647801763535e+000
 2.425048897807642e-001	 2.437968699216476e+000	 6.172824373444111e+000
 2.201433728569663e-001	 2.440089526087873e+000	 6.173229715499249e+000
 4.503585547420944e-001	 2.433680786829828e+000	 6.179340489770129e+000
 4.273892448679870e-001	 2.437819401301307e+000	 6.124470720241871e+000
 4.044503038402286e-001	 2.441729909652781e+000	 6.080541836784295e+000
 3.815447950143708e-001	 2.445413782849466e+000	 6.047675194115673e+000
 3.586757353520860e-001	 2.448872539927167e+000	 6.025687491102001e+000
 3.358460946664003e-001	 2.452107746537208e+000	 6.014097136396541e+000
 3.130587949145822e-001	 2.455121013484185e+000	 6.012131110992797e+000
 2.903167095383775e-001	 2.457913995258191e+000	 6.018732297779312e+000
 2.676226628512337e-001	 2.460488388563079e+000	 6.032567247850006e+000
 2.449794294721036e-001	 2.462845930842334e+000	 6.052034353093564e+000
 2.223897338053576e-001	 2.464988398804064e+000	 6.075272394452666e+000
 4.549076310515292e-001	 2.458263421042266e+000	 5.907245880176439e+000
 4.317063079453936e-001	 2.462443839700501e+000	 5.852395374873522e+000
 4.085356604418978e-001	 2.466393848136456e+000	 5.811273224829772e+000
 3.853987828395767e-001	 2.470114932173584e+000	 5.784045265401907e+000
 3.622987225744604e-001	 2.473608626191484e+000	 5.770562366848123e+000
 3.392384794576842e-001	 2.476876511656140e+000	 5.770366956646739e+000
 3.162210049612340e-001	 2.479920215642903e+000	 5.782700055840117e+000
 2.932492015515172e-001	 2.482741409353889e+000	 5.806508798597771e+000
 2.703259220703973e-001	 2.485341806631373e+000	 5.840454403839529e+000
 2.474539691632788e-001	 2.487723162468773e+000	 5.882920567519944e+000
 2.246360947537655e-001	 2.489887271520747e+000	 5.932022244038757e+000
 2.021724852704328e-001	 2.240898544376048e+000	 5.235652522268855e+000
 1.816874995949720e-001	 2.242652369958055e+000	 5.160745702726141e+000
 1.612559993974847e-001	 2.244214005536660e+000	 5.102033068047878e+000
 1.408803220354768e-001	 2.245585165352947e+000	 5.057046621159476e+000
 1.205627577348666e-001	 2.246767593997911e+000	 5.023135450572575e+000
 1.003055493189618e-001	 2.247763065087045e+000	 4.997474231349002e+000
 8.011089197596211e-002	 2.248573379941687e+000	 4.977071864610602e+000
 5.998093306429295e-002	 2.249200366278207e+000	 4.958780232517590e+000
 3.991777195504935e-002	 2.249645876906150e+000	 4.939303046098814e+000
 1.992345991080419e-002	 2.249911788436346e+000	 4.915204763847829e+000
 0.000000000000000e+000	 2.250000000000000e+000	 4.882919559555817e+000
 2.044188462186914e-001	 2.265797417088305e+000	 5.527928218053755e+000
 1.837062495910136e-001	 2.267570729621807e+000	 5.455066858853525e+000
 1.630477327244405e-001	 2.269149716707362e+000	 5.396161310945172e+000
 1.424456589471164e-001	 2.270536111633176e+000	 5.348738839959744e+000
 1.219023439319140e-001	 2.271731678374588e+000	 5.310139675640937e+000
 1.014200554223994e-001	 2.272738210253934e+000	 5.277525663380314e+000
 8.100101299775198e-002	 2.273557528607231e+000	 5.247889060129439e+000
 6.064738787593482e-002	 2.274191481458810e+000	 5.218061450996808e+000
 4.036130275438802e-002	 2.274641942204989e+000	 5.184722763323070e+000
 2.014483168749037e-002	 2.274910808307830e+000	 5.144410355553484e+000
 0.000000000000000e+000	 2.275000000000000e+000	 5.093528158806549e+000
 2.066652071669667e-001	 2.290696289801054e+000	 5.768400130016365e+000
 1.857249995872511e-001	 2.292489089285958e+000	 5.700723649507324e+000
 1.648394660517300e-001	 2.294085427878376e+000	 5.645124834249306e+000
 1.440109958591867e-001	 2.295487057913643e+000	 5.599122204677711e+000
 1.232419301294486e-001	 2.296695762751441e+000	 5.560042830708947e+000
 1.025345615263407e-001	 2.297713355420943e+000	 5.525031144605448e+000
 8.189113402002246e-002	 2.298541677272851e+000	 5.491057904209678e+000
 6.131384268799495e-002	 2.299182596639456e+000	 5.454929282228832e+000
 4.080483355404375e-002	 2.299638007503848e+000	 5.413296057735193e+000
 2.036620346435405e-002	 2.299909828179321e+000	 5.362662886593985e+000
 0.000000000000000e+000	 2.300000000000000e+000	 5.299397628113143e+000
 2.089115681152584e-001	 2.315595162514295e+000	 5.958005915673986e+000
 1.877437495836842e-001	 2.317407448950504e+000	 5.898628857709181e+000
 1.666311993793531e-001	 2.319021139049704e+000	 5.849810182969330e+000
 1.455763327716877e-001	 2.320438004194348e+000	 5.809055693425231e+000
 1.245815163274705e-001	 2.321659847128467e+000	 5.773675031164976e+000
 1.036490676307859e-001	 2.322688500588074e+000	 5.740790663368885e+000
 8.278125504277363e-002	 2.323525825938548e+000	 5.707347023815757e+000
 6.198029750047333e-002	 2.324173711820144e+000	 5.670119785948380e+000
 4.124836435401658e-002	 2.324634072802725e+000	 5.625725243014919e+000
 2.058757524139525e-002	 2.324908848050816e+000	 5.570629771360792e+000
 0.000000000000000e+000	 2.325000000000000e+000	 5.501159353541797e+000
 2.111579290635668e-001	 2.340494035228026e+000	 6.097644043758637e+000
 1.897624995803131e-001	 2.342325808615447e+000	 6.049656397469933e+000
 1.684229327073099e-001	 2.343956850221343e+000	 6.011065562128525e+000
 1.471416696846195e-001	 2.345388950475293e+000	 5.979360680293252e+000
 1.259211025259797e-001	 2.346623931505669e+000	 5.951829728892211e+000
 1.047635737357348e-001	 2.347663645755325e+000	 5.925568687114771e+000
 8.367137606600540e-002	 2.348509974604322e+000	 5.897490867171374e+000
 6.264675231337000e-002	 2.349164827000876e+000	 5.864336382265175e+000
 4.169189515430646e-002	 2.349630138101622e+000	 5.822681726623606e+000
 2.080894701861396e-002	 2.349907867922315e+000	 5.768949442999212e+000
 0.000000000000000e+000	 2.350000000000000e+000	 5.699417853667450e+000
 2.134042900118918e-001	 2.365392907942251e+000	 6.188175856785536e+000
 1.917812495771378e-001	 2.367244168280787e+000	 6.154643359526900e+000
 1.702146660356004e-001	 2.368892561393295e+000	 6.129702854658432e+000
 1.487070065979819e-001	 2.370339896756475e+000	 6.110822914510672e+000
 1.272606887249762e-001	 2.371588015883045e+000	 6.095265641926516e+000
 1.058780798411875e-001	 2.372638790922696e+000	 6.080096031907435e+000
 8.456149708971783e-002	 2.373494123270175e+000	 6.062191502640990e+000
 6.331320712668491e-002	 2.374155942181651e+000	 6.038251569539394e+000
 4.213542595491342e-002	 2.374626203400537e+000	 6.004807636446832e+000
 2.103031879601018e-002	 2.374906887793820e+000	 5.958232878736587e+000
 0.000000000000000e+000	 2.375000000000000e+000	 5.894752193652308e+000
 2.156506509602334e-001	 2.390291780656967e+000	 6.230427504709172e+000
 1.937999995741583e-001	 2.392162527946525e+000	 6.214391929223815e+000
 1.720063993642245e-001	 2.393828272565560e+000	 6.206499513174741e+000
 1.502723435117751e-001	 2.395290843037896e+000	 6.204194375906037e+000
 1.286002749244599e-001	 2.396552100260596e+000	 6.204708563510939e+000
 1.069925859471440e-001	 2.397613936090189e+000	 6.205071615107555e+000
 8.545161811391089e-002	 2.398478271936103e+000	 6.202120305180355e+000
 6.397966194041810e-002	 2.399147057362470e+000	 6.192508534888135e+000
 4.257895675583746e-002	 2.399622268699472e+000	 6.172717345772485e+000
 2.125169057358391e-002	 2.399905907665330e+000	 6.139065029878302e+000
 0.000000000000000e+000	 2.400000000000000e+000	 6.087717310944687e+000
 2.178970119085915e-001	 2.415190653372174e+000	 6.225191758973977e+000
 1.958187495713746e-001	 2.417080887612659e+000	 6.229671185756526e+000
 1.737981326931824e-001	 2.418763983738137e+000	 6.242200334735722e+000
 1.518376804259990e-001	 2.420241789319556e+000	 6.260195015598033e+000
 1.299398611244309e-001	 2.421516184638321e+000	 6.280853059250786e+000
 1.081070920536042e-001	 2.422589081257802e+000	 6.301164099635536e+000
 8.634173913858456e-002	 2.423462420602109e+000	 6.317919538471542e+000
 6.464611675456952e-002	 2.424138172543332e+000	 6.327722665075626e+000
 4.302248755707858e-002	 2.424618333998426e+000	 6.326998903940035e+000
 2.147306235133515e-002	 2.424904927536844e+000	 6.312006163349762e+000
 0.000000000000000e+000	 2.425000000000000e+000	 6.278845258975077e+000
 2.201433728569663e-001	 2.440089526087873e+000	 6.173229715499249e+000
 1.978374995687866e-001	 2.441999247279191e+000	 6.201218791263182e+000
 1.755898660224739e-001	 2.443699694911027e+000	 6.237519126941712e+000
 1.534030173406536e-001	 2.445192735601454e+000	 6.279514390113192e+000
 1.312794473248892e-001	 2.446480269016221e+000	 6.324364060359518e+000
 1.092215981605683e-001	 2.447564226425537e+000	 6.369013437564679e+000
 8.723186016373889e-002	 2.448446569268192e+000	 6.410203840192025e+000
 6.531257156913924e-002	 2.449129287724237e+000	 6.444482964898293e+000
 4.346601835863679e-002	 2.449614399297399e+000	 6.468215379399223e+000
 2.169443412926390e-002	 2.449903947408363e+000	 6.477593121103619e+000
 0.000000000000000e+000	 2.449999999999999e+000	 6.468646374708102e+000
 2.223897338053576e-001	 2.464988398804064e+000	 6.075272394452666e+000
 1.998562495663943e-001	 2.466917606946119e+000	 6.129742577544338e+000
 1.773815993520991e-001	 2.468635406084229e+000	 6.193140273060388e+000
 1.549683542557389e-001	 2.470143681883590e+000	 6.262813196467310e+000
 1.326190335258348e-001	 2.471444353394296e+000	 6.335878360345741e+000
 1.103361042680361e-001	 2.472539371593392e+000	 6.409232320165013e+000
 8.812198118937387e-002	 2.473430717934352e+000	 6.479561617266163e+000
 6.597902638412719e-002	 2.474120402905185e+000	 6.543353389606160e+000
 4.390954916051204e-002	 2.474610464596391e+000	 6.596906121370971e+000
 2.191580590737017e-002	 2.474902967279886e+000	 6.636340503199229e+000
 0.000000000000000e+000	 2.474999999999999e+000	 6.657610375434089e+000
 2.246360947537655e-001	 2.489887271520747e+000	 5.932022244038757e+000
 2.018749995641979e-001	 2.491835966613445e+000	 6.015922037578978e+000
 1.791733326820581e-001	 2.493571117257746e+000	 6.109720203242077e+000
 1.565336911712550e-001	 2.495094628165966e+000	 6.210724715139953e+000
 1.339586197272678e-001	 2.496408437772546e+000	 6.316006021898412e+000
 1.114506103760078e-001	 2.497514516761370e+000	 6.422407540942264e+000
 8.901210221548951e-002	 2.498414866600589e+000	 6.526556357405047e+000
 6.664548119953342e-002	 2.499111518086177e+000	 6.624874097381850e+000
 4.435307996270441e-002	 2.499606529895403e+000	 6.713587945808738e+000
 2.213717768565395e-002	 2.499901987151415e+000	 6.788741779897674e+000
 0.000000000000000e+000	 2.500000000000000e+000	 6.846207389752510e+000
 2.500000000000000e+000	 0.000000000000000e+000	 1.136155956147632e+001
 2.499901987151415e+000	 2.213717768565403e-002	 1.141832155399041e+001
 2.499606529895403e+000	 4.435307996270457e-002	 1.146568427009652e+001
 2.499111518086177e+000	 6.664548119953326e-002	 1.150403684896798e+001
 2.498414866600589e+000	 8.901210221548944e-002	 1.153376693788624e+001
 2.497514516761369e+000	 1.114506103760078e-001	 1.155526008306431e+001
 2.496408437772546e+000	 1.339586197272678e-001	 1.156889911663589e+001
 2.495094628165966e+000	 1.565336911712552e-001	 1.157506354113547e+001
 2.493571117257746e+000	 1.791733326820579e-001	 1.157412891283929e+001
 2.491835966613445e+000	 2.018749995641979e-001	 1.156646622538273e+001
 2.489887271520747e+000	 2.246360947537655e-001	 1.155244129511013e+001
 2.525000000000000e+000	 0.000000000000000e+000	 1.131775146057061e+001
 2.524901007022946e+000	 2.235854946393780e-002	 1.136979748789965e+001
 2.524602595194425e+000	 4.479661076489691e-002	 1.140963919845579e+001
 2.524102633267189e+000	 6.731193601493948e-002	 1.143776398499339e+001
 2.523399015266865e+000	 8.990222324160507e-002	 1.145471288791812e+001
 2.522489661929406e+000	 1.125651164839795e-001	 1.146107854753485e+001
 2.521372522150882e+000	 1.352982059287007e-001	 1.145750293906084e+001
 2.520045574448461e+000	 1.580990280867712e-001	 1.144467488866622e+001
 2.518506828431417e+000	 1.809650660120168e-001	 1.142332736938494e+001
 2.516754326280969e+000	 2.038937495620014e-001	 1.139423457635139e+001
 2.514786144237676e+000	 2.268824557021734e-001	 1.135820878145611e+001
 2.550000000000000e+000	 0.000000000000000e+000	 1.126637588348994e+001
 2.549900026894477e+000	 2.257992124204407e-002	 1.131728219205384e+001
 2.549598660493445e+000	 4.524014156677218e-002	 1.135549703323926e+001
 2.549093748448203e+000	 6.797839082992745e-002	 1.138172830914245e+001
 2.548383163933140e+000	 9.079234426724003e-002	 1.139674317907128e+001
 2.547464807097442e+000	 1.136796225914473e-001	 1.140136584613873e+001
 2.546336606529218e+000	 1.366377921296463e-001	 1.139647511273641e+001
 2.544996520730955e+000	 1.596643650018565e-001	 1.138300170304311e+001
 2.543442539605088e+000	 1.827567993416420e-001	 1.136192535133378e+001
 2.541672685948493e+000	 2.059124995596092e-001	 1.133427165549780e+001
 2.539685016954604e+000	 2.291288166505647e-001	 1.130110869584400e+001
 2.575000000000000e+000	 0.000000000000000e+000	 1.120882815879983e+001
 2.574899046766007e+000	 2.280129301997283e-002	 1.126078537902809e+001
 2.574594725792466e+000	 4.568367236833036e-002	 1.129953070805068e+001
 2.574084863629216e+000	 6.864484564449713e-002	 1.132599373766973e+001
 2.573367312599416e+000	 9.168246529239436e-002	 1.134116899081716e+001
 2.572439952265480e+000	 1.147941286984114e-001	 1.134611354096578e+001
 2.571300690907555e+000	 1.379773783301046e-001	 1.134194438635826e+001
 2.569947467013449e+000	 1.612297019165111e-001	 1.132983557710016e+001
 2.568378250778760e+000	 1.845485326709336e-001	 1.131101509380279e+001
 2.566591045616016e+000	 2.079312495570212e-001	 1.128676147713722e+001
 2.564583889671532e+000	 2.313751775989394e-001	 1.125840020836191e+001
 2.600000000000000e+000	 0.000000000000000e+000	 1.114644994857971e+001
 2.599898066637538e+000	 2.302266479772407e-002	 1.120139166235648e+001
 2.599590791091487e+000	 4.612720316957149e-002	 1.124256689425200e+001
 2.599075978810229e+000	 6.931130045864856e-002	 1.127112821674853e+001
 2.598351461265692e+000	 9.257258631706805e-002	 1.128829887428255e+001
 2.597415097433516e+000	 1.159086348048716e-001	 1.129537023389343e+001
 2.596264775285892e+000	 1.393169645300756e-001	 1.129369897644607e+001
 2.594898413295944e+000	 1.627950388307350e-001	 1.128470402636271e+001
 2.593313961952431e+000	 1.863402659998913e-001	 1.126986321846952e+001
 2.591509405283540e+000	 2.099499995542374e-001	 1.125070970126954e+001
 2.589482762388461e+000	 2.336215385472976e-001	 1.122882807668938e+001
 2.625000000000000e+000	 0.000000000000000e+000	 1.108053180397020e+001
 2.624897086509069e+000	 2.324403657529780e-002	 1.114014069029949e+001
 2.624586856390508e+000	 4.657073397049554e-002	 1.118539345130275e+001
 2.624067093991241e+000	 6.997775527238173e-002	 1.121766703949061e+001
 2.623335609931968e+000	 9.346270734126111e-002	 1.123841488956692e+001
 2.622390242601552e+000	 1.170231409108282e-001	 1.124916419868325e+001
 2.621228859664228e+000	 1.406565507295594e-001	 1.125151293283748e+001
 2.619849359578439e+000	 1.643603757445282e-001	 1.124712655723829e+001
 2.618249673126103e+000	 1.881319993285156e-001	 1.123773448915939e+001
 2.616427764951064e+000	 2.119687495512579e-001	 1.122512627254512e+001
 2.614381635105390e+000	 2.358678994956392e-001	 1.121114747439794e+001
 2.650000000000000e+000	 0.000000000000000e+000	 1.101231557606644e+001
 2.649896106380600e+000	 2.346540835269402e-002	 1.107802926684773e+001
 2.649582921689528e+000	 4.701426477110250e-002	 1.112876125751023e+001
 2.649058209172255e+000	 7.064421008569664e-002	 1.116611438618496e+001
 2.648319758598243e+000	 9.435282836497354e-002	 1.119177385531903e+001
 2.647365387769589e+000	 1.181376470162808e-001	 1.120750433985417e+001
 2.646192944042564e+000	 1.419961369285558e-001	 1.121514680692796e+001
 2.644800305860933e+000	 1.659257126578906e-001	 1.121661504480527e+001
 2.643185384299773e+000	 1.899237326568060e-001	 1.121389189948023e+001
 2.641346124618587e+000	 2.139874995480826e-001	 1.120902521815883e+001
 2.639280507822317e+000	 2.381142604439641e-001	 1.120412349963555e+001
 2.675000000000000e+000	 0.000000000000000e+000	 1.094299669162133e+001
 2.674895126252130e+000	 2.368678012991273e-002	 1.101601335379064e+001
 2.674578986988550e+000	 4.745779557139240e-002	 1.107338593812088e+001
 2.674049324353267e+000	 7.131066489859329e-002	 1.111694477816793e+001
 2.673303907264519e+000	 9.524294938820532e-002	 1.114860852824407e+001
 2.672340532937625e+000	 1.192521531212298e-001	 1.117038109778738e+001
 2.671157028420902e+000	 1.433357231270650e-001	 1.118434828243904e+001
 2.669751252143427e+000	 1.674910495708224e-001	 1.119267408941710e+001
 2.668121095473446e+000	 1.917154659847628e-001	 1.119759675554282e+001
 2.666264484286111e+000	 2.160062495447115e-001	 1.120142445707690e+001
 2.664179380539246e+000	 2.403606213922725e-001	 1.120653071136140e+001
 2.699999999999999e+000	 0.000000000000000e+000	 1.087372630232072e+001
 2.699894146123661e+000	 2.390815190695394e-002	 1.095500996155924e+001
 2.699575052287571e+000	 4.790132637136522e-002	 1.101994949740623e+001
 2.699040439534280e+000	 7.197711971107168e-002	 1.107060445092328e+001
 2.698288055930795e+000	 9.613307041095645e-002	 1.110912871708265e+001
 2.697315678105662e+000	 1.203666592256749e-001	 1.113776730354756e+001
 2.696121112799238e+000	 1.446753093250869e-001	 1.115885277114397e+001
 2.694702198425921e+000	 1.690563864833234e-001	 1.117480135349500e+001
 2.693056806647117e+000	 1.935071993123860e-001	 1.118810875408560e+001
 2.691182843953635e+000	 2.180249995411447e-001	 1.120134561986237e+001
 2.689078253256174e+000	 2.426069823405643e-001	 1.121715269134541e+001
 2.724999999999999e+000	 0.000000000000000e+000	 1.080561331574989e+001
 2.724893165995192e+000	 2.412952368381761e-002	 1.089589893598579e+001
 2.724571117586591e+000	 4.834485717102095e-002	 1.096910186090983e+001
 2.724031554715293e+000	 7.264357452313183e-002	 1.102751265159796e+001
 2.723272204597070e+000	 9.702319143322696e-002	 1.107352233526961e+001
 2.722290823273699e+000	 1.214811653296163e-001	 1.110961898664960e+001
 2.721085197177575e+000	 1.460148955226216e-001	 1.113838397580122e+001
 2.719653144708416e+000	 1.706217233953938e-001	 1.116248787978192e+001
 2.717992517820789e+000	 1.952989326396755e-001	 1.118468605629930e+001
 2.716101203621158e+000	 2.200437495373821e-001	 1.120781387841832e+001
 2.713977125973103e+000	 2.448533432888396e-001	 1.123478163027772e+001
 2.750000000000000e+000	 0.000000000000000e+000	 1.073972631558001e+001
 2.749892185866724e+000	 2.435089546050380e-002	 1.083952464760376e+001
 2.749567182885613e+000	 4.878838797035964e-002	 1.092146233357116e+001
 2.749022669896307e+000	 7.331002933477374e-002	 1.098806286574504e+001
 2.748256353263346e+000	 9.791331245501686e-002	 1.104195639617532e+001
 2.747265968441735e+000	 1.225956714330539e-001	 1.108587613876548e+001
 2.746049281555912e+000	 1.473544817196689e-001	 1.112265442238236e+001
 2.744604090990912e+000	 1.721870603070334e-001	 1.115521839223693e+001
 2.742928228994461e+000	 1.970906659666313e-001	 1.118658535762439e+001
 2.741019563288683e+000	 2.220624995334238e-001	 1.121985778501797e+001
 2.738875998690032e+000	 2.470997042370982e-001	 1.125821793645433e+001
 2.489887271520747e+000	 2.246360947537655e-001	 1.155244129511013e+001
 2.487723162468774e+000	 2.474539691632789e-001	 1.157290445197625e+001
 2.485341806631373e+000	 2.703259220703974e-001	 1.158890475011377e+001
 2.482741409353889e+000	 2.932492015515169e-001	 1.160070199774614e+001
 2.479920215642903e+000	 3.162210049612338e-001	 1.160854544409469e+001
 2.476876511656140e+000	 3.392384794576842e-001	 1.161267321217695e+001
 2.473608626191484e+000	 3.622987225744604e-001	 1.161331174668920e+001
 2.470114932173583e+000	 3.853987828395769e-001	 1.161067527869446e+001
 2.466393848136456e+000	 4.085356604418977e-001	 1.160496530884019e+001
 2.462443839700501e+000	 4.317063079453934e-001	 1.159637011082890e+001
 2.458263421042266e+000	 4.549076310515292e-001	 1.158506425685568e+001
 2.514786144237676e+000	 2.268824557021734e-001	 1.135820878145611e+001
 2.512600394095503e+000	 2.499285088544540e-001	 1.135151202455330e+001
 2.510195224699992e+000	 2.730291812895608e-001	 1.133966058691429e+001
 2.507568823449939e+000	 2.961816935646565e-001	 1.132341250542227e+001
 2.504719417801990e+000	 3.193832150078854e-001	 1.130354596378435e+001
 2.501645276775446e+000	 3.426308642489679e-001	 1.128085513995899e+001
 2.498344712456170e+000	 3.659217097968348e-001	 1.127396985119873e+001
 2.494816081498057e+000	 3.892527706647826e-001	 1.128410563918320e+001
 2.491057786620465e+000	 4.126210170435669e-001	 1.129328876543810e+001
 2.487068278099993e+000	 4.360233710227999e-001	 1.130182374499530e+001
 2.482846055254957e+000	 4.594567073609637e-001	 1.131000144187006e+001
 2.539685016954604e+000	 2.291288166505647e-001	 1.130110869584400e+001
 2.537477625722233e+000	 2.524030485457934e-001	 1.129197835361222e+001
 2.535048642768611e+000	 2.757324405090310e-001	 1.127852367369622e+001
 2.532396237545989e+000	 2.991141855782061e-001	 1.126171049133523e+001
 2.529518619961077e+000	 3.225454250550114e-001	 1.124252791739086e+001
 2.526414041894753e+000	 3.460232490407508e-001	 1.122198393402299e+001
 2.523080798720856e+000	 3.695446970196928e-001	 1.120110077861271e+001
 2.519517230822531e+000	 3.931067584904164e-001	 1.118091012138879e+001
 2.515721725104473e+000	 4.167063736455674e-001	 1.116244804304310e+001
 2.511692716499485e+000	 4.403404341004001e-001	 1.114674981946453e+001
 2.507428689467647e+000	 4.640057836704130e-001	 1.113484452156922e+001
 2.564583889671532e+000	 2.313751775989394e-001	 1.125840020836191e+001
 2.562354857348963e+000	 2.548775882372970e-001	 1.124690525759377e+001
 2.559902060837231e+000	 2.784356997288078e-001	 1.123191235586724e+001
 2.557223651642040e+000	 3.020466775921658e-001	 1.121459774765316e+001
 2.554317822120163e+000	 3.257076351026120e-001	 1.119616412724212e+001
 2.551182807014058e+000	 3.494156338330328e-001	 1.117783597872086e+001
 2.547816884985543e+000	 3.731676842430345e-001	 1.116085469201756e+001
 2.544218380147005e+000	 3.969607463164779e-001	 1.114647346067597e+001
 2.540385663588481e+000	 4.207917302478994e-001	 1.113595196788354e+001
 2.536317154898976e+000	 4.446574971781940e-001	 1.113055086816036e+001
 2.532011323680339e+000	 4.685548599798769e-001	 1.113152607300285e+001
 2.589482762388461e+000	 2.336215385472976e-001	 1.122882807668938e+001
 2.587232088975693e+000	 2.573521279289648e-001	 1.121483012841262e+001
 2.584755478905850e+000	 2.811389589488911e-001	 1.119815655145390e+001
 2.582051065738090e+000	 3.049791696065358e-001	 1.118019671826387e+001
 2.579117024279250e+000	 3.288698451506871e-001	 1.116236967239493e+001
 2.575951572133364e+000	 3.528080186258139e-001	 1.114611920874780e+001
 2.572552971250230e+000	 3.767906714668600e-001	 1.113290871751262e+001
 2.568919529471479e+000	 4.008147341429675e-001	 1.112421579767045e+001
 2.565049602072488e+000	 4.248770868505627e-001	 1.112152664682481e+001
 2.560941593298468e+000	 4.489745602561819e-001	 1.112633023505195e+001
 2.556593957893029e+000	 4.731039362893555e-001	 1.114011227138546e+001
 2.614381635105390e+000	 2.358678994956392e-001	 1.121114747439794e+001
 2.612109320602422e+000	 2.598266676207970e-001	 1.119430485902276e+001
 2.609608896974470e+000	 2.838422181692812e-001	 1.117560476461991e+001
 2.606878479834139e+000	 3.079116616213161e-001	 1.115665251661196e+001
 2.603916226438337e+000	 3.320320551992365e-001	 1.113908638155130e+001
 2.600720337252670e+000	 3.562004034190940e-001	 1.112457238352599e+001
 2.597289057514916e+000	 3.804136586911692e-001	 1.111479887168490e+001
 2.593620678795953e+000	 4.046687219698851e-001	 1.111147084495724e+001
 2.589713540556496e+000	 4.289624434535576e-001	 1.111630404098488e+001
 2.585566031697960e+000	 4.532916233343634e-001	 1.113101879724344e+001
 2.581176592105721e+000	 4.776530125988487e-001	 1.115733369329426e+001
 2.639280507822317e+000	 2.381142604439641e-001	 1.120412349963555e+001
 2.636986552229153e+000	 2.623012073127934e-001	 1.118389515940648e+001
 2.634462315043090e+000	 2.865454773899779e-001	 1.116262320896182e+001
 2.631705893930190e+000	 3.108441536365064e-001	 1.114213185638010e+001
 2.628715428597424e+000	 3.351942652482604e-001	 1.112428157128266e+001
 2.625489102371976e+000	 3.595927882128733e-001	 1.111096363320800e+001
 2.622025143779603e+000	 3.840366459159622e-001	 1.110409441832494e+001
 2.618321828120427e+000	 4.085227097972307e-001	 1.110560943077258e+001
 2.614377479040503e+000	 4.330478000568838e-001	 1.111745708589892e+001
 2.610190470097453e+000	 4.576086864127387e-001	 1.114159225366570e+001
 2.605759226318411e+000	 4.822020889083566e-001	 1.117996957149458e+001
 2.664179380539246e+000	 2.403606213922725e-001	 1.120653071136140e+001
 2.661863783855882e+000	 2.647757470049541e-001	 1.118217991091850e+001
 2.659315733111709e+000	 2.892487366109813e-001	 1.115759497996520e+001
 2.656533308026239e+000	 3.137766456521069e-001	 1.113482204213201e+001
 2.653514630756510e+000	 3.383564752977588e-001	 1.111594685500786e+001
 2.650257867491282e+000	 3.629851730071516e-001	 1.110308908621273e+001
 2.646761230044289e+000	 3.876596331412388e-001	 1.109839631481906e+001
 2.643022977444901e+000	 4.123766976250041e-001	 1.110403776462782e+001
 2.639041417524512e+000	 4.371331566605415e-001	 1.112219777682698e+001
 2.634814908496945e+000	 4.619257494913079e-001	 1.115506903059841e+001
 2.630341860531103e+000	 4.867511652178794e-001	 1.120484552128615e+001
 2.689078253256174e+000	 2.426069823405643e-001	 1.121715269134541e+001
 2.686741015482612e+000	 2.672502866972791e-001	 1.118775055650059e+001
 2.684169151180328e+000	 2.919519958322913e-001	 1.115891927343584e+001
 2.681360722122289e+000	 3.167091376681177e-001	 1.113293001603104e+001
 2.678313832915597e+000	 3.415186853477316e-001	 1.111209701813932e+001
 2.675026632610588e+000	 3.663775578019290e-001	 1.109877157300941e+001
 2.671497316308975e+000	 3.912826203669991e-001	 1.109533574485342e+001
 2.667724126769374e+000	 4.162306854532055e-001	 1.110419579928729e+001
 2.663705356008520e+000	 4.412185132645305e-001	 1.112777536043311e+001
 2.659439346896436e+000	 4.662428125700707e-001	 1.116850830355193e+001
 2.654924494743793e+000	 4.913002415274165e-001	 1.122883139316341e+001
 2.713977125973103e+000	 2.448533432888396e-001	 1.123478163027772e+001
 2.711618247109342e+000	 2.697248263897683e-001	 1.119921052446174e+001
 2.709022569248949e+000	 2.946552550539079e-001	 1.116501064695300e+001
 2.706188136218340e+000	 3.196416296845386e-001	 1.113468145703278e+001
 2.703113035074684e+000	 3.446808953981789e-001	 1.111076895514729e+001
 2.699795397729894e+000	 3.697699425972057e-001	 1.109585940125282e+001
 2.696233402573662e+000	 3.949056075932432e-001	 1.109257273188625e+001
 2.692425276093848e+000	 4.200846732818348e-001	 1.110355568291263e+001
 2.688369294492528e+000	 4.453038698688511e-001	 1.113147462600566e+001
 2.684063785295928e+000	 4.705598756490275e-001	 1.117900812803654e+001
 2.679507128956485e+000	 4.958493178369686e-001	 1.124883924367807e+001
 2.738875998690032e+000	 2.470997042370982e-001	 1.125821793645433e+001
 2.736495478736073e+000	 2.721993660824219e-001	 1.121517468368900e+001
 2.733875987317568e+000	 2.973585142758314e-001	 1.117429832160686e+001
 2.731015550314390e+000	 3.225741217013698e-001	 1.113831992921262e+001
 2.727912237233771e+000	 3.478431054491007e-001	 1.111002066460272e+001
 2.724564162849201e+000	 3.731623273929815e-001	 1.109222519772944e+001
 2.720969488838349e+000	 3.985285948199711e-001	 1.108779482824922e+001
 2.717126425418324e+000	 4.239386611108923e-001	 1.109962029563564e+001
 2.713033232976536e+000	 4.493892264735031e-001	 1.113061428988305e+001
 2.708688223695421e+000	 4.748769387281779e-001	 1.118370367228958e+001
 2.704089763169176e+000	 5.003983941465353e-001	 1.126182141698189e+001
 2.458263421042266e+000	 4.549076310515292e-001	 1.158506425685568e+001
 2.453851156354649e+000	 4.781364894097321e-001	 1.166638997882433e+001
 2.449205661297807e+000	 5.013896974771258e-001	 1.175255209838939e+001
 2.444325604437782e+000	 5.246640254268113e-001	 1.184376952734593e+001
 2.439209708669709e+000	 5.479562001042994e-001	 1.194024089935381e+001
 2.433856752625838e+000	 5.712629060330331e-001	 1.204214404650847e+001
 2.428265572065930e+000	 5.945807864685845e-001	 1.214963551000719e+001
 2.422435061248221e+000	 6.179064445013770e-001	 1.226285008674413e+001
 2.416364174279133e+000	 6.412364442077183e-001	 1.210240297153081e+001
 2.410051926439911e+000	 6.645673118488592e-001	 1.181111156483574e+001
 2.403497395488342e+000	 6.878955371177123e-001	 1.150986254825969e+001
 2.482846055254957e+000	 4.594567073609637e-001	 1.131000144187006e+001
 2.478389667920199e+000	 4.829178543038031e-001	 1.141265130106538e+001
 2.473697717912495e+000	 5.064035944528337e-001	 1.152240188053566e+001
 2.468768860483547e+000	 5.299106656828868e-001	 1.163946466852174e+001
 2.463601805757441e+000	 5.534357621079268e-001	 1.176402866117247e+001
 2.458195320152747e+000	 5.769755350966310e-001	 1.189625981158430e+001
 2.452548227786828e+000	 6.005265943371260e-001	 1.203630051563852e+001
 2.446659411860499e+000	 6.240855089507388e-001	 1.218426913657703e+001
 2.440527816021247e+000	 6.476488086545389e-001	 1.194502557161989e+001
 2.434152445703129e+000	 6.712129849723890e-001	 1.167875261172295e+001
 2.427532369441510e+000	 6.947744924941302e-001	 1.140254008326188e+001
 2.507428689467647e+000	 4.640057836704130e-001	 1.113484452156922e+001
 2.502928179485754e+000	 4.876992191976984e-001	 1.121732665453527e+001
 2.498189774527202e+000	 5.114174914281946e-001	 1.132612397147928e+001
 2.493212116529355e+000	 5.351573059384635e-001	 1.146861779970818e+001
 2.487993902845249e+000	 5.589153241109238e-001	 1.162085463538230e+001
 2.482533887679780e+000	 5.826881641594864e-001	 1.178298844170898e+001
 2.476830883507901e+000	 6.064724022048327e-001	 1.195514734908813e+001
 2.470883762473018e+000	 6.302645733991934e-001	 1.204707278316290e+001
 2.464691457763676e+000	 6.540611731004009e-001	 1.181723184995687e+001
 2.458252964966746e+000	 6.778586580949291e-001	 1.157586340833507e+001
 2.451567343395171e+000	 7.016534478695476e-001	 1.132448531652150e+001
 2.532011323680339e+000	 4.685548599798769e-001	 1.113152607300285e+001
 2.527466691051314e+000	 4.924805840914179e-001	 1.122050452969483e+001
 2.522681831141929e+000	 5.164313884032088e-001	 1.132458872726142e+001
 2.517655372575207e+000	 5.404039461935419e-001	 1.144470792146938e+001
 2.512385999933136e+000	 5.643948861132903e-001	 1.158175170586495e+001
 2.506872455206933e+000	 5.884007932215989e-001	 1.173656355276087e+001
 2.501113539229152e+000	 6.124182100717046e-001	 1.190993424106153e+001
 2.495108113085776e+000	 6.364436378467416e-001	 1.192357073064571e+001
 2.488855099506419e+000	 6.604735375453044e-001	 1.171871183466149e+001
 2.482353484230762e+000	 6.845043312164795e-001	 1.150217705695895e+001
 2.475602317349326e+000	 7.085324032439653e-001	 1.127547398780917e+001
 2.556593957893029e+000	 4.731039362893555e-001	 1.114011227138546e+001
 2.552005202616878e+000	 4.972619489849618e-001	 1.123143688812930e+001
 2.547173887756675e+000	 5.214452853778763e-001	 1.134059002909565e+001
 2.542098628621103e+000	 5.456505864481217e-001	 1.146861510483125e+001
 2.536778097021101e+000	 5.698744481150262e-001	 1.161651422593491e+001
 2.531211022734208e+000	 5.941134222829687e-001	 1.178524146036050e+001
 2.525396194950578e+000	 6.183640179377414e-001	 1.197569597291148e+001
 2.519332463698774e+000	 6.426227022933823e-001	 1.188499002974575e+001
 2.513018741249476e+000	 6.668859019892494e-001	 1.167869413854097e+001
 2.506454003495175e+000	 6.911500043370404e-001	 1.146830645294091e+001
 2.499637291303976e+000	 7.154113586173830e-001	 1.125532768959915e+001
 2.581176592105721e+000	 4.776530125988487e-001	 1.115733369329426e+001
 2.576543714182448e+000	 5.020433138783298e-001	 1.124677199867605e+001
 2.571665944371440e+000	 5.264591823521967e-001	 1.135678083332488e+001
 2.566541884667042e+000	 5.508972267022031e-001	 1.148852248130106e+001
 2.561170194109142e+000	 5.753540101161317e-001	 1.164311631256235e+001
 2.555549590261605e+000	 5.998260513435957e-001	 1.182163174976136e+001
 2.549678850672180e+000	 6.243098258029435e-001	 1.202508111240842e+001
 2.543556814312013e+000	 6.488017667391167e-001	 1.185080162268478e+001
 2.537182382992848e+000	 6.732982664322358e-001	 1.166088121885042e+001
 2.530554522759990e+000	 6.977956774566119e-001	 1.146754362678920e+001
 2.523672265259118e+000	 7.222903139898007e-001	 1.127181500051136e+001
 2.605759226318411e+000	 4.822020889083566e-001	 1.117996957149458e+001
 2.601082225748022e+000	 5.068246787715222e-001	 1.126320618738954e+001
 2.596158000986225e+000	 5.314730793261705e-001	 1.136977574566992e+001
 2.590985140713025e+000	 5.561438669557857e-001	 1.150096419395082e+001
 2.585562291197262e+000	 5.808335721166065e-001	 1.165801297513440e+001
 2.579888157789124e+000	 6.055386804034800e-001	 1.184211169678929e+001
 2.573961506393957e+000	 6.302556336673105e-001	 1.197161384630628e+001
 2.567781164925491e+000	 6.549808311839438e-001	 1.180326686990723e+001
 2.561346024736533e+000	 6.797106308742636e-001	 1.163121679475055e+001
 2.554655042025202e+000	 7.044413505751934e-001	 1.145635472079225e+001
 2.547707239214755e+000	 7.291692693612185e-001	 1.127964083992139e+001
 2.630341860531103e+000	 4.867511652178794e-001	 1.120484552128615e+001
 2.625620737313602e+000	 5.116060436645390e-001	 1.127748159187705e+001
 2.620650057601029e+000	 5.364869762997971e-001	 1.137623458982167e+001
 2.615428396759051e+000	 5.613905072088699e-001	 1.150251898769214e+001
 2.609954388285460e+000	 5.863131341164509e-001	 1.165770318626675e+001
 2.604226725316765e+000	 6.112513094626221e-001	 1.184310187948760e+001
 2.598244162115911e+000	 6.362014415308429e-001	 1.189274421938015e+001
 2.592005515539210e+000	 6.611598956278643e-001	 1.174324061526810e+001
 2.585509666480534e+000	 6.861229953153332e-001	 1.159063892530240e+001
 2.578755561290814e+000	 7.110870236927857e-001	 1.143576056430774e+001
 2.571742213170885e+000	 7.360482247316361e-001	 1.127949689958285e+001
 2.654924494743793e+000	 4.913002415274165e-001	 1.122883139316341e+001
 2.650159248879185e+000	 5.163874085573799e-001	 1.128638404039324e+001
 2.645142114215853e+000	 5.415008732730773e-001	 1.137286031401662e+001
 2.639871652805121e+000	 5.666371474614557e-001	 1.148980814437647e+001
 2.634346485373736e+000	 5.917926961156647e-001	 1.163872784646881e+001
 2.628565292844528e+000	 6.169639385210207e-001	 1.182106417338473e+001
 2.622526817838040e+000	 6.421472493935402e-001	 1.180054997317895e+001
 2.616229866153168e+000	 6.673389600708776e-001	 1.167161767557821e+001
 2.609673308224848e+000	 6.925353597554441e-001	 1.154012494862657e+001
 2.602856080556824e+000	 7.177326968093881e-001	 1.140682055094039e+001
 2.595777187127509e+000	 7.429271801010537e-001	 1.127252410793887e+001
 2.679507128956485e+000	 4.958493178369686e-001	 1.124883924367807e+001
 2.674697760444774e+000	 5.211687734500451e-001	 1.128674104768209e+001
 2.669634170830695e+000	 5.465147702460103e-001	 1.135639701284659e+001
 2.664314908851235e+000	 5.718837877135429e-001	 1.145949353155905e+001
 2.658738582462088e+000	 5.972722581142480e-001	 1.159766786084588e+001
 2.652903860372413e+000	 6.226765675786770e-001	 1.177249985711415e+001
 2.646809473560346e+000	 6.480930572554026e-001	 1.169588177357397e+001
 2.640454216767366e+000	 6.735180245129845e-001	 1.158933100698224e+001
 2.633836949969477e+000	 6.989477241945965e-001	 1.148068968011129e+001
 2.626956599823234e+000	 7.243783699250009e-001	 1.137063086953981e+001
 2.619812161084627e+000	 7.498061354694716e-001	 1.125989948683790e+001
 2.704089763169176e+000	 5.003983941465353e-001	 1.126182141698189e+001
 2.699236272010369e+000	 5.259501383425348e-001	 1.127541992013622e+001
 2.694126227445558e+000	 5.515286672185968e-001	 1.132362805696980e+001
 2.688758164897393e+000	 5.771304279651318e-001	 1.140827575769432e+001
 2.683130679550521e+000	 6.027518201122009e-001	 1.153114232070836e+001
 2.677242427900420e+000	 6.283891966355909e-001	 1.165968957512347e+001
 2.671092129282827e+000	 6.540388651164305e-001	 1.157962730496643e+001
 2.664678567381807e+000	 6.796970889541842e-001	 1.149734997135265e+001
 2.658000591714422e+000	 7.053600886327908e-001	 1.141338370890037e+001
 2.651057119090043e+000	 7.310240430396247e-001	 1.132832283168928e+001
 2.643847135042239e+000	 7.566850908368894e-001	 1.124283451092414e+001
 2.403497395488342e+000	 6.878955371177123e-001	 1.150986254825969e+001
 2.396699722934155e+000	 7.112175744331118e-001	 1.149033018865831e+001
 2.389658115285039e+000	 7.345298442800079e-001	 1.148126964945649e+001
 2.382371845262166e+000	 7.578287345960115e-001	 1.148443163254540e+001
 2.374840252984291e+000	 7.811106022040242e-001	 1.150166213665943e+001
 2.367062747117390e+000	 8.043717742891897e-001	 1.153490293470772e+001
 2.359038805988395e+000	 8.276085499197395e-001	 1.158619185075194e+001
 2.350767978661280e+000	 8.508172016108215e-001	 1.165766282927790e+001
 2.342249885973674e+000	 8.739939769303398e-001	 1.175154578977999e+001
 2.333484221532295e+000	 8.971351001457415e-001	 1.187016626008498e+001
 2.324470752665467e+000	 9.202367739106158e-001	 1.201594478228433e+001
 2.427532369441510e+000	 6.947744924941302e-001	 1.140254008326188e+001
 2.420666720161247e+000	 7.183297501827995e-001	 1.139967578074955e+001
 2.413554696435142e+000	 7.418751427282125e-001	 1.140529975026442e+001
 2.406195563711574e+000	 7.654070219473556e-001	 1.142108113481843e+001
 2.398588655510490e+000	 7.889217082313585e-001	 1.144878762347903e+001
 2.390733374584523e+000	 8.124154920372166e-001	 1.149028608556242e+001
 2.382629194043878e+000	 8.358846354238423e-001	 1.154754300029939e+001
 2.374275658443167e+000	 8.593253736315351e-001	 1.162262467420421e+001
 2.365672384828394e+000	 8.827339167038775e-001	 1.171769723875143e+001
 2.356819063742346e+000	 9.061064511509911e-001	 1.183502642137814e+001
 2.347715460186632e+000	 9.294391416530003e-001	 1.197697708327811e+001
 2.451567343395171e+000	 7.016534478695476e-001	 1.132448531652150e+001
 2.444633717388931e+000	 7.254419259314924e-001	 1.133574412095307e+001
 2.437451277585918e+000	 7.492204411754367e-001	 1.135345121460910e+001
 2.430019282161732e+000	 7.729853092977435e-001	 1.137919509598302e+001
 2.422337058037504e+000	 7.967328142577710e-001	 1.141466616331410e+001
 2.414404002052529e+000	 8.204592097843656e-001	 1.146165750692288e+001
 2.406219582100278e+000	 8.441607209271217e-001	 1.152206549268527e+001
 2.397783338226005e+000	 8.678335456514896e-001	 1.159789012845107e+001
 2.389094883684092e+000	 8.914738564767305e-001	 1.169123520559136e+001
 2.380153905953393e+000	 9.150778021556406e-001	 1.180430820827692e+001
 2.370960167708796e+000	 9.386415093948796e-001	 1.193941998354591e+001
 2.475602317349326e+000	 7.085324032439653e-001	 1.127547398780917e+001
 2.468600714617200e+000	 7.325541016791896e-001	 1.129841878687689e+001
 2.461347858737369e+000	 7.565657396216802e-001	 1.132571402989223e+001
 2.453843000612641e+000	 7.805635966471753e-001	 1.135886843001365e+001
 2.446085460565335e+000	 8.045439202832617e-001	 1.139949605918266e+001
 2.438074629521406e+000	 8.285029275306370e-001	 1.144931729994722e+001
 2.429809970157597e+000	 8.524368064295774e-001	 1.151015958392804e+001
 2.421291018009799e+000	 8.763417176706848e-001	 1.158395790830256e+001
 2.412517382540770e+000	 9.002137962488993e-001	 1.167275512206377e+001
 2.403488748165433e+000	 9.240491531596902e-001	 1.177870197423437e+001
 2.394204875231962e+000	 9.478438771362537e-001	 1.190405691667962e+001
 2.499637291303976e+000	 7.154113586173830e-001	 1.125532768959915e+001
 2.492567711846060e+000	 7.396662774258920e-001	 1.128762576692857e+001
 2.485244439889495e+000	 7.639110380669433e-001	 1.132211716417078e+001
 2.477666719064299e+000	 7.881418839956509e-001	 1.136023161474300e+001
 2.469833863093982e+000	 8.123550263078306e-001	 1.140350777610881e+001
 2.461745256991155e+000	 8.365466452760307e-001	 1.145359434249832e+001
 2.453400358215832e+000	 8.607128919312103e-001	 1.151225093961400e+001
 2.444798697794545e+000	 8.848498896891213e-001	 1.158134879225806e+001
 2.435939881398428e+000	 9.089537360203831e-001	 1.166287115620473e+001
 2.426823590378469e+000	 9.330205041631400e-001	 1.175891350606983e+001
 2.417449582756126e+000	 9.570462448771225e-001	 1.187168347140006e+001
 2.523672265259118e+000	 7.222903139898007e-001	 1.127181500051136e+001
 2.516534709075509e+000	 7.467784531715990e-001	 1.130102510385801e+001
 2.509141021042295e+000	 7.712563365112256e-001	 1.133750892317083e+001
 2.501490437516708e+000	 7.957201713431702e-001	 1.138201704926321e+001
 2.493582265623444e+000	 8.201661323314773e-001	 1.142696240959861e+001
 2.485415884461776e+000	 8.445903630205468e-001	 1.147484491882446e+001
 2.476990746274987e+000	 8.689889774320192e-001	 1.152878942491788e+001
 2.468306377580246e+000	 8.933580617067987e-001	 1.159060457045061e+001
 2.459362380257065e+000	 9.176936757911827e-001	 1.166221532011882e+001
 2.450158432592499e+000	 9.419918551659895e-001	 1.174566328904676e+001
 2.440694290281292e+000	 9.662486126174865e-001	 1.184310681274126e+001
 2.547707239214755e+000	 7.291692693612185e-001	 1.127964083992139e+001
 2.540501706305546e+000	 7.538906289163111e-001	 1.130932066609284e+001
 2.533037602195769e+000	 7.786016349545277e-001	 1.134484764774240e+001
 2.525314155969867e+000	 8.032984586897336e-001	 1.138683561542698e+001
 2.517330668153723e+000	 8.279772383542027e-001	 1.143597009883869e+001
 2.509086511933270e+000	 8.526340807641855e-001	 1.149301227846529e+001
 2.500581134335059e+000	 8.772650629320051e-001	 1.155880285449314e+001
 2.491814057366899e+000	 9.018662337237170e-001	 1.161228705353216e+001
 2.482784879116681e+000	 9.264336155612974e-001	 1.167143662827798e+001
 2.473493274807526e+000	 9.509632061682394e-001	 1.173968581354991e+001
 2.463938997807456e+000	 9.754509803573452e-001	 1.181914513599806e+001
 2.571742213170885e+000	 7.360482247316361e-001	 1.127949689958285e+001
 2.564468703536172e+000	 7.610028046600280e-001	 1.130905633537803e+001
 2.556934183349918e+000	 7.859469333968490e-001	 1.134298630814909e+001
 2.549137874423776e+000	 8.108767460353409e-001	 1.138176226977047e+001
 2.541079070684818e+000	 8.357883443760058e-001	 1.142593356739589e+001
 2.532757139405634e+000	 8.606777985069464e-001	 1.147612767567210e+001
 2.524171522396048e+000	 8.855411484311676e-001	 1.153305434632180e+001
 2.515321737154507e+000	 9.103744057398762e-001	 1.159750965955701e+001
 2.506207377977277e+000	 9.351735553307274e-001	 1.167037996161822e+001
 2.496828117023545e+000	 9.599345571698887e-001	 1.174172892064039e+001
 2.487183705334621e+000	 9.846533480966988e-001	 1.180062715129327e+001
 2.595777187127509e+000	 7.429271801010537e-001	 1.127252410793887e+001
 2.588435700767387e+000	 7.681149804027497e-001	 1.130150816790340e+001
 2.580830764504741e+000	 7.932922318381895e-001	 1.133333467497058e+001
 2.572961592878435e+000	 8.184550333799915e-001	 1.136833900055897e+001
 2.564827473216728e+000	 8.435994503968870e-001	 1.140693267882329e+001
 2.556427766878871e+000	 8.687215162488297e-001	 1.144960792424519e+001
 2.547761910457955e+000	 8.938172339295065e-001	 1.149694206667780e+001
 2.538829416943069e+000	 9.188825777552762e-001	 1.154960188763808e+001
 2.529629876838851e+000	 9.439134950994730e-001	 1.160834784146135e+001
 2.520162959240561e+000	 9.689059081709385e-001	 1.167403814480617e+001
 2.510428412862785e+000	 9.938557158355472e-001	 1.174763271792904e+001
 2.619812161084627e+000	 7.498061354694716e-001	 1.125989948683790e+001
 2.612402697999191e+000	 7.752271561444764e-001	 1.128798560393543e+001
 2.604727345660238e+000	 8.006375302785499e-001	 1.131733320279152e+001
 2.596785311333844e+000	 8.260333207236867e-001	 1.134813579049757e+001
 2.588575875749454e+000	 8.514105564168467e-001	 1.138066537616336e+001
 2.580098394352981e+000	 8.767652339898353e-001	 1.141527727880750e+001
 2.571352298520781e+000	 9.020933194270221e-001	 1.145241485274468e+001
 2.562337096732584e+000	 9.273907497699172e-001	 1.149261411358365e+001
 2.553052375701406e+000	 9.526534348675338e-001	 1.153650824775627e+001
 2.543497801458571e+000	 9.778772591713880e-001	 1.158483198835993e+001
 2.533673120391951e+000	 1.003058083573891e+000	 1.163842584001536e+001
 2.643847135042239e+000	 7.566850908368894e-001	 1.124283451092414e+001
 2.636369695231585e+000	 7.823393318852079e-001	 1.126982995035921e+001
 2.628623926816410e+000	 8.079828287179298e-001	 1.129645163547400e+001
 2.620609029790003e+000	 8.336116080664255e-001	 1.132274934425666e+001
 2.612324278282998e+000	 8.592216624358847e-001	 1.134885376834080e+001
 2.603769021827961e+000	 8.848089517299635e-001	 1.137498161621707e+001
 2.594942686584525e+000	 9.103694049237149e-001	 1.140144063394243e+001
 2.585844776523053e+000	 9.358989217837994e-001	 1.142863452576949e+001
 2.576474874564940e+000	 9.613933746349104e-001	 1.145706775690878e+001
 2.566832643677576e+000	 9.868486101712379e-001	 1.148735022048693e+001
 2.556917827922116e+000	 1.012260451311729e+000	 1.152020175067320e+001
 2.324470752665467e+000	 9.202367739106158e-001	 1.201594478228433e+001
 2.315209321330897e+000	 9.432951809896923e-001	 1.190570609389311e+001
 2.305699844977406e+000	 9.663064860216960e-001	 1.182266865598364e+001
 2.295942317358884e+000	 9.892668373179072e-001	 1.177002674978704e+001
 2.285936809298535e+000	 1.012172368694827e+000	 1.175107570742938e+001
 2.275683469402266e+000	 1.035019201340097e+000	 1.176920974998925e+001
 2.265182524719623e+000	 1.057803445709805e+000	 1.182791955387078e+001
 2.254434281350881e+000	 1.080521203455544e+000	 1.193078954368388e+001
 2.243439124998900e+000	 1.103168569379458e+000	 1.208149491055668e+001
 2.232197521464457e+000	 1.125741633415527e+000	 1.228379835556171e+001
 2.220710017083810e+000	 1.148236482635196e+000	 1.254154655871572e+001
 2.347715460186632e+000	 9.294391416530003e-001	 1.197697708327811e+001
 2.338361414538539e+000	 9.527281328023738e-001	 1.187774720672763e+001
 2.328756843421378e+000	 9.759695508843156e-001	 1.180557673729241e+001
 2.318901740526581e+000	 9.991595056932203e-001	 1.176365283808986e+001
 2.308796177385584e+000	 1.022294092383755e+000	 1.175526643871509e+001
 2.298440304090351e+000	 1.045369393355437e+000	 1.178381010987815e+001
 2.287834349960926e+000	 1.068381480168918e+000	 1.185277565993820e+001
 2.276978624158587e+000	 1.091326415492304e+000	 1.196575145133118e+001
 2.265873516243221e+000	 1.114200255075764e+000	 1.212641943563687e+001
 2.254519496673615e+000	 1.136999049752618e+000	 1.233855190680507e+001
 2.242917117249388e+000	 1.159718847465025e+000	 1.260600797285795e+001
 2.370960167708796e+000	 9.386415093948796e-001	 1.193941998354591e+001
 2.361513507747179e+000	 9.621610846146400e-001	 1.184880725466053e+001
 2.351813841866350e+000	 9.856326157465911e-001	 1.178502294485668e+001
 2.341861163695277e+000	 1.009052174068240e+000	 1.175124853658085e+001
 2.331655545473632e+000	 1.032415816072421e+000	 1.175077212770590e+001
 2.321197138779436e+000	 1.055719585370526e+000	 1.178698634288614e+001
 2.310486175203229e+000	 1.078959514627770e+000	 1.186338596015734e+001
 2.299522966967292e+000	 1.102131627528776e+000	 1.198356525057858e+001
 2.288307907488542e+000	 1.125231940771733e+000	 1.215121502947885e+001
 2.276841471883772e+000	 1.148256466089302e+000	 1.237011941866378e+001
 2.265124217415967e+000	 1.171201212294357e+000	 1.264415231975203e+001
 2.394204875231962e+000	 9.478438771362537e-001	 1.190405691667962e+001
 2.384665600956820e+000	 9.715940364264912e-001	 1.181974153177889e+001
 2.374870840312321e+000	 9.952956806085224e-001	 1.176193385958995e+001
 2.364820586864975e+000	 1.018944842442968e+000	 1.173381111193196e+001
 2.354514913562681e+000	 1.042537539760825e+000	 1.173866009913837e+001
 2.343953973469522e+000	 1.066069777385366e+000	 1.177987517829934e+001
 2.333138000446533e+000	 1.089537549086364e+000	 1.186095590986245e+001
 2.322067309776998e+000	 1.112936839564960e+000	 1.198550442018449e+001
 2.310742298734863e+000	 1.136263626467365e+000	 1.215722246841045e+001
 2.299163447094930e+000	 1.159513882425580e+000	 1.237990821686609e+001
 2.287331317583545e+000	 1.182683577123193e+000	 1.265745270498563e+001
 2.417449582756126e+000	 9.570462448771225e-001	 1.187168347140006e+001
 2.407817694167462e+000	 9.810269882379279e-001	 1.179141497888590e+001
 2.397927838759294e+000	 1.004958745470109e+000	 1.173724317635437e+001
 2.387780010035672e+000	 1.028837510817401e+000	 1.171234238864520e+001
 2.377374281652728e+000	 1.052659263448967e+000	 1.171999965713629e+001
 2.366710808160606e+000	 1.076419969399954e+000	 1.176361272507394e+001
 2.355789825690836e+000	 1.100115583544699e+000	 1.184668772413896e+001
 2.344611652587703e+000	 1.123742051600856e+000	 1.197283655963223e+001
 2.333176689982184e+000	 1.147295312162661e+000	 1.214577399246516e+001
 2.321485422307088e+000	 1.170771298761451e+000	 1.236931441696965e+001
 2.309538417752123e+000	 1.194165941951533e+000	 1.264736833439669e+001
 2.440694290281292e+000	 9.662486126174865e-001	 1.184310681274126e+001
 2.430969787379103e+000	 9.904599400489497e-001	 1.176470172413341e+001
 2.420984837207266e+000	 1.014621810331353e+000	 1.171189136520126e+001
 2.410739433207368e+000	 1.038730179191542e+000	 1.168784853201300e+001
 2.400233649743777e+000	 1.062780987136847e+000	 1.169586199095394e+001
 2.389467642852692e+000	 1.086770161414292e+000	 1.173933450137571e+001
 2.378441650936139e+000	 1.110693618002774e+000	 1.182178053212118e+001
 2.367155995399409e+000	 1.134547263636464e+000	 1.194682366909531e+001
 2.355611081230504e+000	 1.158326997857619e+000	 1.211819371187245e+001
 2.343807397520245e+000	 1.182028715096917e+000	 1.233972345817907e+001
 2.331745517921702e+000	 1.205648306779377e+000	 1.261534517596628e+001
 2.463938997807456e+000	 9.754509803573452e-001	 1.181914513599806e+001
 2.454121880591744e+000	 9.998928918595564e-001	 1.174048464965644e+001
 2.444041835656238e+000	 1.024284875192251e+000	 1.168682535178683e+001
 2.433698856380065e+000	 1.048622847565389e+000	 1.166133984336404e+001
 2.423093017835825e+000	 1.072902710824466e+000	 1.166732008605496e+001
 2.412224477545776e+000	 1.097120353428380e+000	 1.170817546244748e+001
 2.401093476182441e+000	 1.121271652460590e+000	 1.178743052255594e+001
 2.389700338212113e+000	 1.145352475671785e+000	 1.190872241355593e+001
 2.378045472479827e+000	 1.169358683552240e+000	 1.207579799053900e+001
 2.366129372734403e+000	 1.193286131431976e+000	 1.229251060694754e+001
 2.353952618092280e+000	 1.217130671606725e+000	 1.256281658424590e+001
 2.487183705334621e+000	 9.846533480966988e-001	 1.180062715129327e+001
 2.477273973805385e+000	 1.009325843669748e+000	 1.171965498250854e+001
 2.467098834106210e+000	 1.033947940052806e+000	 1.166299821570827e+001
 2.456658279553762e+000	 1.058515515938944e+000	 1.163383056679048e+001
 2.445952385928873e+000	 1.083024434511822e+000	 1.163544864017739e+001
 2.434981312239862e+000	 1.107470545442217e+000	 1.167127002691396e+001
 2.423745301429745e+000	 1.131849686918147e+000	 1.174483108120391e+001
 2.412244681025819e+000	 1.156157687706817e+000	 1.185978437211298e+001
 2.400479863730147e+000	 1.180390369246524e+000	 1.201989580802655e+001
 2.388451347949561e+000	 1.204543547766628e+000	 1.222904143233906e+001
 2.376159718263858e+000	 1.228613036433577e+000	 1.249120388977000e+001
 2.510428412862785e+000	 9.938557158355472e-001	 1.174763271792904e+001
 2.500426067020026e+000	 1.018758795479525e+000	 1.170145611084328e+001
 2.490155832557182e+000	 1.043611004913016e+000	 1.164136890559922e+001
 2.479617702728460e+000	 1.068408184312206e+000	 1.160633870661266e+001
 2.468811754022921e+000	 1.093146158198917e+000	 1.160132398406159e+001
 2.457738146934947e+000	 1.117820737455804e+000	 1.162975210162521e+001
 2.446397126678048e+000	 1.142427721375446e+000	 1.169517292060754e+001
 2.434789023840525e+000	 1.166962899741562e+000	 1.180125627343962e+001
 2.422914254981468e+000	 1.191422054940472e+000	 1.195178910141961e+001
 2.410773323165719e+000	 1.215800964100875e+000	 1.215067225498158e+001
 2.398366818436436e+000	 1.240095401259933e+000	 1.240191695572353e+001
 2.533673120391951e+000	 1.003058083573891e+000	 1.163842584001536e+001
 2.523578160235667e+000	 1.028191747288888e+000	 1.159173170449699e+001
 2.513212831009153e+000	 1.053274069772882e+000	 1.156810944757916e+001
 2.502577125904157e+000	 1.078300852685174e+000	 1.156953555841402e+001
 2.491671122117970e+000	 1.103267881885750e+000	 1.156602400654199e+001
 2.480494981631032e+000	 1.128170929469140e+000	 1.158475510513252e+001
 2.469048951927351e+000	 1.153005755832484e+000	 1.163964420271571e+001
 2.457333366656231e+000	 1.177768111776018e+000	 1.173438021827987e+001
 2.445348646233789e+000	 1.202453740634082e+000	 1.187277308837494e+001
 2.433095298382876e+000	 1.227058380434715e+000	 1.205875057130737e+001
 2.420573918610014e+000	 1.251577766085793e+000	 1.232168220287763e+001
 2.556917827922116e+000	 1.012260451311729e+000	 1.152020175067320e+001
 2.546730253452309e+000	 1.037624699097835e+000	 1.147270848805664e+001
 2.536269829462127e+000	 1.062937134632405e+000	 1.144747637970206e+001
 2.525536549080854e+000	 1.088193521057849e+000	 1.144640642873956e+001
 2.514530490214019e+000	 1.113389605572322e+000	 1.147151887543729e+001
 2.503251816328117e+000	 1.138521121482226e+000	 1.152495574109113e+001
 2.491700777177656e+000	 1.163583790289265e+000	 1.157943065481977e+001
 2.479877709472937e+000	 1.188573323810187e+000	 1.166039388980903e+001
 2.467783037487111e+000	 1.213485426327356e+000	 1.178413657255009e+001
 2.455417273601035e+000	 1.238315796768149e+000	 1.195461545465265e+001
 2.442781018784593e+000	 1.263060130911157e+000	 1.240079329291583e+001
 2.220710017083810e+000	 1.148236482635196e+000	 1.254154655871572e+001
 2.208977239107448e+000	 1.170649203275409e+000	 1.230460282561464e+001
 2.196999896018612e+000	 1.192975882787096e+000	 1.212902901635255e+001
 2.184778777790678e+000	 1.215212611902256e+000	 1.201833735287628e+001
 2.172314756082765e+000	 1.237355486717287e+000	 1.197610507519897e+001
 2.159608784372368e+000	 1.259400610790523e+000	 1.198816493424080e+001
 2.146661898024328e+000	 1.281344097251810e+000	 1.201414864503915e+001
 2.133475214295430e+000	 1.303182070921886e+000	 1.206307452953648e+001
 2.120049932274017e+000	 1.324910670439301e+000	 1.213448928631000e+001
 2.106387332754106e+000	 1.346526050392599e+000	 1.222789893922135e+001
 2.092488778043565e+000	 1.368024383455396e+000	 1.234276937529454e+001
 2.242917117249388e+000	 1.159718847465025e+000	 1.260600797285795e+001
 2.231067011493503e+000	 1.182355695312165e+000	 1.235638825457163e+001
 2.218969894973999e+000	 1.204905641619348e+000	 1.216483023995838e+001
 2.206626565563987e+000	 1.227364738025891e+000	 1.203486186843831e+001
 2.194037903639175e+000	 1.249729041589154e+000	 1.197008188130513e+001
 2.181204872211835e+000	 1.271994616903055e+000	 1.197323292804037e+001
 2.168128517000457e+000	 1.294157538228737e+000	 1.199710430112965e+001
 2.154809966434391e+000	 1.316213891635144e+000	 1.204090893845021e+001
 2.141250431592865e+000	 1.338159777147214e+000	 1.210410798025943e+001
 2.127451206077835e+000	 1.359991310899373e+000	 1.218612298447389e+001
 2.113413665820249e+000	 1.381704627291974e+000	 1.228633657100724e+001
 2.265124217415967e+000	 1.171201212294357e+000	 1.264415231975203e+001
 2.253156783880558e+000	 1.194062187348341e+000	 1.237896111028793e+001
 2.240939893930386e+000	 1.216835400450964e+000	 1.216851751430456e+001
 2.228474353338295e+000	 1.239516864148863e+000	 1.201636804758894e+001
 2.215761051196585e+000	 1.262102596460362e+000	 1.196033870919027e+001
 2.202800960052304e+000	 1.284588623014960e+000	 1.196250593118359e+001
 2.189595135977586e+000	 1.306970979205101e+000	 1.198225984167846e+001
 2.176144718574352e+000	 1.329245712347933e+000	 1.201901599193931e+001
 2.162450930912713e+000	 1.351408883854782e+000	 1.207215072503475e+001
 2.148515079402566e+000	 1.373456571405956e+000	 1.214100182203477e+001
 2.134338553597934e+000	 1.395384871128547e+000	 1.222486925189635e+001
 2.287331317583545e+000	 1.182683577123193e+000	 1.265745270498563e+001
 2.275246556268613e+000	 1.205768679383935e+000	 1.237385054806135e+001
 2.262909892887774e+000	 1.228765159281942e+000	 1.214167340204975e+001
 2.250322141113604e+000	 1.251668990271171e+000	 1.197365370005770e+001
 2.237484198754997e+000	 1.274476151330910e+000	 1.195707271416257e+001
 2.224397047893772e+000	 1.297182629126240e+000	 1.195593941231247e+001
 2.211061754955715e+000	 1.319784420180902e+000	 1.196962343924935e+001
 2.197479470715314e+000	 1.342277533060255e+000	 1.199745543209793e+001
 2.183651430233561e+000	 1.364657990562005e+000	 1.203872766496720e+001
 2.169578952728295e+000	 1.386921831912350e+000	 1.209269479856932e+001
 2.155263441376618e+000	 1.409065114965114e+000	 1.215857473477267e+001
 2.309538417752123e+000	 1.194165941951533e+000	 1.264736833439669e+001
 2.297336328657668e+000	 1.217475171418948e+000	 1.234256946318547e+001
 2.284879891846161e+000	 1.240694918112284e+000	 1.208586190275493e+001
 2.272169928889912e+000	 1.263821116392816e+000	 1.197912281543928e+001
 2.259207346314407e+000	 1.286849706200797e+000	 1.195987424070242e+001
 2.245993135736240e+000	 1.309776635236893e+000	 1.195346372383047e+001
 2.232528373934845e+000	 1.332597861156142e+000	 1.195917608874879e+001
 2.218814222857275e+000	 1.355309353772108e+000	 1.197625782547187e+001
 2.204851929555409e+000	 1.377907097268884e+000	 1.200391783565603e+001
 2.190642826055024e+000	 1.400387092418553e+000	 1.204132828467943e+001
 2.176188329156302e+000	 1.422745358801676e+000	 1.208762556001430e+001
 2.331745517921702e+000	 1.205648306779377e+000	 1.261534517596628e+001
 2.319426101047722e+000	 1.229181663453380e+000	 1.228661526523582e+001
 2.306849890805548e+000	 1.252624676941988e+000	 1.202749499323315e+001
 2.294017716667222e+000	 1.275973242513798e+000	 1.199251638574238e+001
 2.280930493874819e+000	 1.299223261070027e+000	 1.196860006217203e+001
 2.267589223579708e+000	 1.322370641346921e+000	 1.195498529791395e+001
 2.253994992914973e+000	 1.345411302130819e+000	 1.195087290160003e+001
 2.240148975000236e+000	 1.368341174483492e+000	 1.195542595237032e+001
 2.226052428878258e+000	 1.391156203975419e+000	 1.196777064533648e+001
 2.211706699382753e+000	 1.413852352924567e+000	 1.198699724519234e+001
 2.197113216936987e+000	 1.436425602638232e+000	 1.201216114758725e+001
 2.353952618092280e+000	 1.217130671606725e+000	 1.256281658424590e+001
 2.341515873438778e+000	 1.240888155487230e+000	 1.220747060852805e+001
 2.328819889765935e+000	 1.264554435771055e+000	 1.205283900004083e+001
 2.315865504445531e+000	 1.288125368634117e+000	 1.201362169480753e+001
 2.302653641436229e+000	 1.311596815938596e+000	 1.198308608721723e+001
 2.289185311424177e+000	 1.334964647456323e+000	 1.196038777482476e+001
 2.275461611896103e+000	 1.358224743104934e+000	 1.194464432666211e+001
 2.261483727144197e+000	 1.381372995194408e+000	 1.193493611753740e+001
 2.247252928202105e+000	 1.404405310681609e+000	 1.193030727239708e+001
 2.232770572711483e+000	 1.427317613430390e+000	 1.192976672056499e+001
 2.218038104718671e+000	 1.450105846474784e+000	 1.193228935932890e+001
 2.376159718263858e+000	 1.228613036433577e+000	 1.249120388977000e+001
 2.363605645830832e+000	 1.252594647520498e+000	 1.214033127123836e+001
 2.350789888727322e+000	 1.276484194599485e+000	 1.208763940923432e+001
 2.337713292224839e+000	 1.300277494753773e+000	 1.204220802671719e+001
 2.324376788998640e+000	 1.323970370806505e+000	 1.200314833475412e+001
 2.310781399269644e+000	 1.347558653565099e+000	 1.196953306795294e+001
 2.296928230878231e+000	 1.371038184078486e+000	 1.194039730268616e+001
 2.282818479289158e+000	 1.394404815904855e+000	 1.191473938732812e+001
 2.268453427526953e+000	 1.417654417387455e+000	 1.189152198453108e+001
 2.253834446041212e+000	 1.440782873936023e+000	 1.186967322521914e+001
 2.238962992501355e+000	 1.463786090311330e+000	 1.184808797362691e+001
 2.398366818436436e+000	 1.240095401259933e+000	 1.240191695572353e+001
 2.385695418223886e+000	 1.264301139553186e+000	 1.219028036366033e+001
 2.372759887689709e+000	 1.288413953427277e+000	 1.213160264390699e+001
 2.359561080005148e+000	 1.312429620872765e+000	 1.207802749911804e+001
 2.346099936562051e+000	 1.336343925673756e+000	 1.202858385478996e+001
 2.332377487116112e+000	 1.360152659673249e+000	 1.198226236969039e+001
 2.318394849861361e+000	 1.383851625051477e+000	 1.193801634674624e+001
 2.304153231435119e+000	 1.407436636614834e+000	 1.189476275815223e+001
 2.289653926852801e+000	 1.430903524092956e+000	 1.185138338460221e+001
 2.274898319371942e+000	 1.454248134441466e+000	 1.180672606819095e+001
 2.259887880285039e+000	 1.477466334147870e+000	 1.175960607817143e+001
 2.420573918610014e+000	 1.251577766085793e+000	 1.232168220287763e+001
 2.407785190617942e+000	 1.276007631585292e+000	 1.225103812465799e+001
 2.394729886653096e+000	 1.300343712254434e+000	 1.218442051502742e+001
 2.381408867786457e+000	 1.324581746991095e+000	 1.212081585067208e+001
 2.367823084126462e+000	 1.348717480540346e+000	 1.205917159855658e+001
 2.353973574963581e+000	 1.372746665780774e+000	 1.199839710193537e+001
 2.339861468845490e+000	 1.396665066023905e+000	 1.193736458275668e+001
 2.325487983582081e+000	 1.420468457324345e+000	 1.187491026060010e+001
 2.310854426179648e+000	 1.444152630798113e+000	 1.180983558793027e+001
 2.295962192703671e+000	 1.467713394946719e+000	 1.174090860108454e+001
 2.280812768069723e+000	 1.491146577984406e+000	 1.166686538604208e+001
 2.442781018784593e+000	 1.263060130911157e+000	 1.240079329291583e+001
 2.429874963012998e+000	 1.287714123616817e+000	 1.232223953173219e+001
 2.416699885617484e+000	 1.312273471080953e+000	 1.224577088562699e+001
 2.403256655568766e+000	 1.336733873108761e+000	 1.217029318555593e+001
 2.389546231691873e+000	 1.361091035406278e+000	 1.209467324118200e+001
 2.375569662812049e+000	 1.385340671887672e+000	 1.201773981475136e+001
 2.361328087830619e+000	 1.409478506995772e+000	 1.193828471388836e+001
 2.346822735730042e+000	 1.433500278033387e+000	 1.185506400334370e+001
 2.332054925507497e+000	 1.457401737502926e+000	 1.176679933536123e+001
 2.317026066036402e+000	 1.481178655451782e+000	 1.167217939795514e+001
 2.301737655855408e+000	 1.504826821820936e+000	 1.156986148000845e+001
 2.092488778043565e+000	 1.368024383455396e+000	 1.234276937529454e+001
 2.078355711706041e+000	 1.389401862522306e+000	 1.236093941174784e+001
 2.063989658236324e+000	 1.410654702842501e+000	 1.237423395158219e+001
 2.049392222669044e+000	 1.431779144149050e+000	 1.238141916263152e+001
 2.034565090120716e+000	 1.452771452782182e+000	 1.238124462177356e+001
 2.019510025265108e+000	 1.473627923803213e+000	 1.237244509428527e+001
 2.004228871742098e+000	 1.494344883097002e+000	 1.235374238774289e+001
 1.988723551500282e+000	 1.514918689460505e+000	 1.232384727729126e+001
 1.972996064073689e+000	 1.535345736674993e+000	 1.228146149883493e+001
 1.957048485793046e+000	 1.555622455559538e+000	 1.222527980643628e+001
 1.940882968932161e+000	 1.575745316003345e+000	 1.215399208994953e+001
 2.113413665820249e+000	 1.381704627291974e+000	 1.228633657100724e+001
 2.099139268819376e+000	 1.403295881148705e+000	 1.227547810216544e+001
 2.084629554814937e+000	 1.424761249871356e+000	 1.226256869746194e+001
 2.069886144891909e+000	 1.446096935590330e+000	 1.224652220382571e+001
 2.054910741017975e+000	 1.467299167309258e+000	 1.222623281914277e+001
 2.039705125513637e+000	 1.488364203040068e+000	 1.220057671517027e+001
 2.024271160455173e+000	 1.509288331926469e+000	 1.216841373965964e+001
 2.008610787010665e+000	 1.530067876353385e+000	 1.212858919478698e+001
 1.992726024709482e+000	 1.550699194039903e+000	 1.207993568870239e+001
 1.976618970645657e+000	 1.571178680113284e+000	 1.202127505673356e+001
 1.960291798615738e+000	 1.591502769161626e+000	 1.195142034850776e+001
 2.134338553597934e+000	 1.395384871128547e+000	 1.222486925189635e+001
 2.119922825933710e+000	 1.417189899775284e+000	 1.219005131593366e+001
 2.105269451394550e+000	 1.438867796900547e+000	 1.215597329442825e+001
 2.090380067115775e+000	 1.460414727032072e+000	 1.212169364424855e+001
 2.075256391916233e+000	 1.481826881836891e+000	 1.208624809961886e+001
 2.059900225763165e+000	 1.503100482277546e+000	 1.204865114161751e+001
 2.044313449169247e+000	 1.524231780756594e+000	 1.200789755161738e+001
 2.028498022522047e+000	 1.545217063246931e+000	 1.196296404603335e+001
 2.012455985346274e+000	 1.566052651405454e+000	 1.191281098944496e+001
 1.996189455499269e+000	 1.586734904667616e+000	 1.185638418287229e+001
 1.979700628300315e+000	 1.607260222320409e+000	 1.179261672370047e+001
 2.155263441376618e+000	 1.409065114965114e+000	 1.215857473477267e+001
 2.140706383049044e+000	 1.431083918402042e+000	 1.210471857536840e+001
 2.125909347975163e+000	 1.452974343930074e+000	 1.205436151461605e+001
 2.110873989340641e+000	 1.474732518474275e+000	 1.200670361989474e+001
 2.095602042815492e+000	 1.496354596365081e+000	 1.196091914553597e+001
 2.080095326013694e+000	 1.517836761515647e+000	 1.191615785186787e+001
 2.064355737884322e+000	 1.539175229587379e+000	 1.187154641300408e+001
 2.048385258034430e+000	 1.560366250141141e+000	 1.182618991100407e+001
 2.032185945984066e+000	 1.581406108771645e+000	 1.177917341372426e+001
 2.015759940353880e+000	 1.602291129222535e+000	 1.172956363337631e+001
 1.999109457985893e+000	 1.623017675479693e+000	 1.167641066251336e+001
 2.176188329156302e+000	 1.422745358801676e+000	 1.208762556001430e+001
 2.161489940165379e+000	 1.444977937028980e+000	 1.201951037480712e+001
 2.146549244556775e+000	 1.467080890959936e+000	 1.195762379124511e+001
 2.131367911566507e+000	 1.489050309916940e+000	 1.190130455463322e+001
 2.115947693715750e+000	 1.510882310893829e+000	 1.184986248876215e+001
 2.100290426265223e+000	 1.532573040754371e+000	 1.180257966739943e+001
 2.084398026600397e+000	 1.554118678418823e+000	 1.175871167939763e+001
 2.068272493547812e+000	 1.575515437036017e+000	 1.171748898530507e+001
 2.051915906622858e+000	 1.596759566138478e+000	 1.167811836304423e+001
 2.035330425209491e+000	 1.617847353778040e+000	 1.163978443990783e+001
 2.018518287672471e+000	 1.638775128639479e+000	 1.160165130781290e+001
 2.197113216936987e+000	 1.436425602638232e+000	 1.201216114758725e+001
 2.182273497282713e+000	 1.458871955656099e+000	 1.193442956289336e+001
 2.167189141139388e+000	 1.481187437990134e+000	 1.186562832999686e+001
 2.151861833793373e+000	 1.503368101360066e+000	 1.180523200364170e+001
 2.136293344617010e+000	 1.525410025423134e+000	 1.175268308929302e+001
 2.120485526517752e+000	 1.547309319993719e+000	 1.170739306991624e+001
 2.104440315317472e+000	 1.569062127250926e+000	 1.166874353131860e+001
 2.088159729062195e+000	 1.590664623931558e+000	 1.163608738419203e+001
 2.071645867262650e+000	 1.612113023505951e+000	 1.160875018066361e+001
 2.054900910066102e+000	 1.633403578334131e+000	 1.158603152283232e+001
 2.037927117360048e+000	 1.654532581799765e+000	 1.156720656044726e+001
 2.218038104718671e+000	 1.450105846474784e+000	 1.193228935932890e+001
 2.203057054401048e+000	 1.472765974283397e+000	 1.184945264661895e+001
 2.187829037723001e+000	 1.495293985020668e+000	 1.177822215748311e+001
 2.172355756021239e+000	 1.517685892803653e+000	 1.171820544909976e+001
 2.156638995519268e+000	 1.539937739952995e+000	 1.166897488109485e+001
 2.140680626771280e+000	 1.562045599233690e+000	 1.163006850039423e+001
 2.124482604035547e+000	 1.584005576083688e+000	 1.160099102965754e+001
 2.108046964577577e+000	 1.605813810827764e+000	 1.158121495768131e+001
 2.091375827903442e+000	 1.627466480874065e+000	 1.157018172981491e+001
 2.074471394923713e+000	 1.648959802890808e+000	 1.156730303609096e+001
 2.057335947048625e+000	 1.670290034960553e+000	 1.157196219443567e+001
 2.238962992501355e+000	 1.463786090311330e+000	 1.184808797362691e+001
 2.223840611520382e+000	 1.486659992910875e+000	 1.176453102224222e+001
 2.208468934307614e+000	 1.509400532051536e+000	 1.169523211092225e+001
 2.192849678250105e+000	 1.532003684247701e+000	 1.163992905126339e+001
 2.176984646422527e+000	 1.554465454483415e+000	 1.159832128733942e+001
 2.160875727025809e+000	 1.576781878474284e+000	 1.157007064135821e+001
 2.144524892754621e+000	 1.598949024917110e+000	 1.155480216799401e+001
 2.127934200093959e+000	 1.620962997724635e+000	 1.155210511602831e+001
 2.111105788545235e+000	 1.642819938242820e+000	 1.156153399557481e+001
 2.094041879782325e+000	 1.664516027448072e+000	 1.158260974880923e+001
 2.076744776738203e+000	 1.686047488121843e+000	 1.161482102177372e+001
 2.259887880285039e+000	 1.477466334147870e+000	 1.175960607817143e+001
 2.244624168640716e+000	 1.500554011538533e+000	 1.167959213782192e+001
 2.229108830893227e+000	 1.523507079082740e+000	 1.161646577283330e+001
 2.213343600479971e+000	 1.546321475692211e+000	 1.157009235781329e+001
 2.197330297326785e+000	 1.568993169014391e+000	 1.154029570701500e+001
 2.181070827281339e+000	 1.591518157715502e+000	 1.152685868347681e+001
 2.164567181474695e+000	 1.613892473751191e+000	 1.152952392200922e+001
 2.147821435611342e+000	 1.636112184622171e+000	 1.154799466490159e+001
 2.130835749188027e+000	 1.658173395612215e+000	 1.158193570885289e+001
 2.113612364641936e+000	 1.680072252005922e+000	 1.163097446126063e+001
 2.096153606428781e+000	 1.701804941283633e+000	 1.169470210363799e+001
 2.280812768069723e+000	 1.491146577984406e+000	 1.166686538604208e+001
 2.265407725762050e+000	 1.514448030166370e+000	 1.159454059175850e+001
 2.249748727479839e+000	 1.537613626114280e+000	 1.154171235427899e+001
 2.233837522710837e+000	 1.560639267137182e+000	 1.150837097415654e+001
 2.217675948232044e+000	 1.583520883545925e+000	 1.149446197475114e+001
 2.201265927537867e+000	 1.606254436957342e+000	 1.149988657748252e+001
 2.184609470195770e+000	 1.628835922585931e+000	 1.152450229617858e+001
 2.167708671129724e+000	 1.651261371520372e+000	 1.156812364963007e+001
 2.150565709831819e+000	 1.673526852982251e+000	 1.163052299107815e+001
 2.133182849502547e+000	 1.695628476564357e+000	 1.171143145297908e+001
 2.115562436120359e+000	 1.717562394445926e+000	 1.181054000501076e+001
 2.301737655855408e+000	 1.504826821820936e+000	 1.156986148000845e+001
 2.286191282884384e+000	 1.528342048794389e+000	 1.150925917141479e+001
 2.270388624067453e+000	 1.551720173146156e+000	 1.147074352993192e+001
 2.254331444942703e+000	 1.574957058582615e+000	 1.145442719716620e+001
 2.238021599138304e+000	 1.598048598078017e+000	 1.146037479556241e+001
 2.221461027795396e+000	 1.620990716199807e+000	 1.148860327235056e+001
 2.204651758917846e+000	 1.643779371421331e+000	 1.153908236791739e+001
 2.187595906649108e+000	 1.666410558419238e+000	 1.161173520794557e+001
 2.170295670476612e+000	 1.688880310352929e+000	 1.170643901826627e+001
 2.152753334364159e+000	 1.711184701123381e+000	 1.182302596097440e+001
 2.134971265812936e+000	 1.733319847608720e+000	 1.196128408996162e+001
 1.940882968932161e+000	 1.575745316003345e+000	 1.215399208994953e+001
 1.924501740789867e+000	 1.595710828974349e+000	 1.226083026348129e+001
 1.907907102708858e+000	 1.615515548502403e+000	 1.233243354773475e+001
 1.891101429031947e+000	 1.635156073634189e+000	 1.236688428429403e+001
 1.874087165996259e+000	 1.654629050357171e+000	 1.236370578016156e+001
 1.856866830566979e+000	 1.673931173491006e+000	 1.233739064220999e+001
 1.839443009211615e+000	 1.693059188543971e+000	 1.225707601412564e+001
 1.821818356616007e+000	 1.712009893532202e+000	 1.212527926128518e+001
 1.803995594343423e+000	 1.730780140759638e+000	 1.194464772952172e+001
 1.785977509438138e+000	 1.749366838556605e+000	 1.171795245326956e+001
 1.767766952975000e+000	 1.767766952975000e+000	 1.144808156103463e+001
 1.960291798615738e+000	 1.591502769161626e+000	 1.195142034850776e+001
 1.943746758191629e+000	 1.611667937262448e+000	 1.204310446865459e+001
 1.926986173729532e+000	 1.631670703985806e+000	 1.210129299139294e+001
 1.910012443315688e+000	 1.651507634368848e+000	 1.212406534931191e+001
 1.892828037649595e+000	 1.671175340858912e+000	 1.210951769298181e+001
 1.875435498866089e+000	 1.690670485223853e+000	 1.205576592871741e+001
 1.857837439297352e+000	 1.709989780427031e+000	 1.197655402672365e+001
 1.840036540176085e+000	 1.729129992464742e+000	 1.184657468863528e+001
 1.822035550281187e+000	 1.748087942163965e+000	 1.166809902828667e+001
 1.803837284527377e+000	 1.766860506938328e+000	 1.144406473145536e+001
 1.785444622500250e+000	 1.785444622500250e+000	 1.117752905074340e+001
 1.979700628300315e+000	 1.607260222320409e+000	 1.179261672370047e+001
 1.962991775594386e+000	 1.627625045550958e+000	 1.187039516985556e+001
 1.946065244751185e+000	 1.647825859469549e+000	 1.191639718065452e+001
 1.928923457600384e+000	 1.667859195103797e+000	 1.192869784755881e+001
 1.911568909303850e+000	 1.687721631360913e+000	 1.190538677833965e+001
 1.894004167166073e+000	 1.707409796956951e+000	 1.184457116527054e+001
 1.876231869383909e+000	 1.726920372310351e+000	 1.174437887455080e+001
 1.858254723736918e+000	 1.746250091397571e+000	 1.161496231831884e+001
 1.840075506219632e+000	 1.765395743568632e+000	 1.143844469623649e+001
 1.821697059617210e+000	 1.784354175320462e+000	 1.121675860411531e+001
 1.803122292026000e+000	 1.803122292026000e+000	 1.095313386256628e+001
 1.999109457985893e+000	 1.623017675479693e+000	 1.167641066251336e+001
 1.982236792998138e+000	 1.643582153839881e+000	 1.174150483767337e+001
 1.965144315773818e+000	 1.663981014953634e+000	 1.177652298714908e+001
 1.947834471886035e+000	 1.684210755839037e+000	 1.177953443528782e+001
 1.930309780959026e+000	 1.704267921863176e+000	 1.174862081075001e+001
 1.912572835466933e+000	 1.724149108690299e+000	 1.168187914708262e+001
 1.894626299471287e+000	 1.743850964193931e+000	 1.157742500865462e+001
 1.876472907298506e+000	 1.763370190330692e+000	 1.143339563511359e+001
 1.858115462158756e+000	 1.782703544973638e+000	 1.125754004966112e+001
 1.839556834707639e+000	 1.801847843703006e+000	 1.103783116817979e+001
 1.820799961552250e+000	 1.820799961552250e+000	 1.077663453573872e+001
 2.018518287672471e+000	 1.638775128639479e+000	 1.160165130781290e+001
 2.001481810402884e+000	 1.659539262129213e+000	 1.165525692083301e+001
 1.984223386797432e+000	 1.680136170438059e+000	 1.168046950615832e+001
 1.966745486172641e+000	 1.700562316574568e+000	 1.167535120053245e+001
 1.949050652615121e+000	 1.720814212365699e+000	 1.163797422163541e+001
 1.931141503768667e+000	 1.740888420423898e+000	 1.156642400299010e+001
 1.913020729559484e+000	 1.760781556077771e+000	 1.145880235840605e+001
 1.894691090860849e+000	 1.780490289264101e+000	 1.131323066901776e+001
 1.876155418098561e+000	 1.800011346378985e+000	 1.112785308581963e+001
 1.857416609798663e+000	 1.819341512085959e+000	 1.090910938253964e+001
 1.838477631079000e+000	 1.838477631079000e+000	 1.064980040166189e+001
 2.037927117360048e+000	 1.654532581799765e+000	 1.156720656044726e+001
 2.020726827808627e+000	 1.675496370418957e+000	 1.161049484723631e+001
 2.003302457822026e+000	 1.696291325922827e+000	 1.162705699834699e+001
 1.985656500460202e+000	 1.716913877310390e+000	 1.161494654730763e+001
 1.967791524272137e+000	 1.737360502868483e+000	 1.157222487279317e+001
 1.949710172071277e+000	 1.757627732157748e+000	 1.149696436981826e+001
 1.931415159648502e+000	 1.777712147961873e+000	 1.138725165468744e+001
 1.912909274423948e+000	 1.797610388197801e+000	 1.124119079665517e+001
 1.894195374039045e+000	 1.817319147784671e+000	 1.105690656908117e+001
 1.875276384890282e+000	 1.836835180469323e+000	 1.083254771272035e+001
 1.856155300606249e+000	 1.856155300606249e+000	 1.057443011760897e+001
 2.057335947048625e+000	 1.670290034960553e+000	 1.157196219443567e+001
 2.039971845215364e+000	 1.691453478709113e+000	 1.160608108154804e+001
 2.022381528847599e+000	 1.712446481407935e+000	 1.161512589139587e+001
 2.004567514748718e+000	 1.733265438046503e+000	 1.159714014296900e+001
 1.986532395930073e+000	 1.753906793371528e+000	 1.155017295118924e+001
 1.968278840374762e+000	 1.774367043891847e+000	 1.147228223634415e+001
 1.949809589738340e+000	 1.794642739846234e+000	 1.136153797154531e+001
 1.931127457987801e+000	 1.814730487131792e+000	 1.121602546105463e+001
 1.912235329980210e+000	 1.834626949190698e+000	 1.103384864214262e+001
 1.893136159982496e+000	 1.854328848853096e+000	 1.081313340298660e+001
 1.873832970134000e+000	 1.873832970134000e+000	 1.055235028342927e+001
 2.076744776738203e+000	 1.686047488121843e+000	 1.161482102177372e+001
 2.059216862623095e+000	 1.707410586999680e+000	 1.164089623562744e+001
 2.041460599874153e+000	 1.728601636893384e+000	 1.164353583761750e+001
 2.023478529038190e+000	 1.749616998782907e+000	 1.162077192459891e+001
 2.005273267588929e+000	 1.770453083874833e+000	 1.157063992572601e+001
 1.986847508679121e+000	 1.791106355626198e+000	 1.149118185208379e+001
 1.968204019828998e+000	 1.811573331730855e+000	 1.138044958865935e+001
 1.949345641552410e+000	 1.831850586066073e+000	 1.123650822138347e+001
 1.930275285922055e+000	 1.851934750597065e+000	 1.105743939178152e+001
 1.910995935075305e+000	 1.871822517237279e+000	 1.084134467160431e+001
 1.891510639662249e+000	 1.891510639662249e+000	 1.070160373355318e+001
 2.096153606428781e+000	 1.701804941283633e+000	 1.169470210363799e+001
 2.078461880031822e+000	 1.723367695290657e+000	 1.171383822838030e+001
 2.060539670901687e+000	 1.744756792379175e+000	 1.171116482392722e+001
 2.042389543328616e+000	 1.765968559519602e+000	 1.168470116059311e+001
 2.024014139248705e+000	 1.786999374378399e+000	 1.163246756196736e+001
 2.005416176984356e+000	 1.807845667360798e+000	 1.155248869670244e+001
 1.986598449920475e+000	 1.828503923615737e+000	 1.144279691700746e+001
 1.967563825117773e+000	 1.848970685000643e+000	 1.130143563645981e+001
 1.948315241864579e+000	 1.869242552003771e+000	 1.112646273954456e+001
 1.928855710168709e+000	 1.889316185621873e+000	 1.101774900863180e+001
 1.909188309190999e+000	 1.909188309190999e+000	 1.090901099323585e+001
 2.115562436120359e+000	 1.717562394445926e+000	 1.181054000501076e+001
 2.097706897441544e+000	 1.739324803582046e+000	 1.182382149185781e+001
 2.079618741930201e+000	 1.760911947865306e+000	 1.181690833080621e+001
 2.061300557619997e+000	 1.782320120256587e+000	 1.178780556390323e+001
 2.042755010909402e+000	 1.803545664882226e+000	 1.173451699109920e+001
 2.023984845290466e+000	 1.824584979095650e+000	 1.165504850615454e+001
 2.004992880012773e+000	 1.845434515500879e+000	 1.154741148366872e+001
 1.985782008683892e+000	 1.866090783935504e+000	 1.140962620972250e+001
 1.966355197807784e+000	 1.886550353410819e+000	 1.132345735024666e+001
 1.946715485262708e+000	 1.906809854006877e+000	 1.126413349327564e+001
 1.926865978720250e+000	 1.926865978720250e+000	 1.116485653302732e+001
 2.134971265812936e+000	 1.733319847608720e+000	 1.196128408996162e+001
 2.116951914852261e+000	 1.755281911873847e+000	 1.196977622065895e+001
 2.098697812959695e+000	 1.777067103351779e+000	 1.195967853713941e+001
 2.080211571912335e+000	 1.798671680993865e+000	 1.192898045364788e+001
 2.061495882571018e+000	 1.820091955386313e+000	 1.187566782967399e+001
 2.042553513597452e+000	 1.841324290830752e+000	 1.179772635194334e+001
 2.023387310105892e+000	 1.862365107386282e+000	 1.169314497200046e+001
 2.004000192250766e+000	 1.883210882870656e+000	 1.162065989486252e+001
 1.984395153751669e+000	 1.903858154818207e+000	 1.160725962695980e+001
 1.964575260357303e+000	 1.924303522392292e+000	 1.155683341032178e+001
 1.944543648250000e+000	 1.944543648250000e+000	 1.146783117462367e+001
 1.767766952975000e+000	 1.767766952975000e+000	 1.144808156103463e+001
 1.749366838556605e+000	 1.785977509438138e+000	 1.142044999683273e+001
 1.730780140759639e+000	 1.803995594343423e+000	 1.138990940653069e+001
 1.712009893532202e+000	 1.821818356616006e+000	 1.136053499626922e+001
 1.693059188543972e+000	 1.839443009211615e+000	 1.133645411862230e+001
 1.673931173491006e+000	 1.856866830566979e+000	 1.132183753595897e+001
 1.654629050357171e+000	 1.874087165996259e+000	 1.132089054570596e+001
 1.635156073634190e+000	 1.891101429031947e+000	 1.136066237516773e+001
 1.615515548502402e+000	 1.907907102708858e+000	 1.139405618947677e+001
 1.595710828974349e+000	 1.924501740789867e+000	 1.141997515210296e+001
 1.575745316003345e+000	 1.940882968932160e+000	 1.143938056853569e+001
 1.785444622500250e+000	 1.785444622500250e+000	 1.117752905074340e+001
 1.766860506938328e+000	 1.803837284527377e+000	 1.117890346296299e+001
 1.748087942163965e+000	 1.822035550281187e+000	 1.117267099909189e+001
 1.729129992464742e+000	 1.840036540176085e+000	 1.116292563157635e+001
 1.709989780427031e+000	 1.857837439297352e+000	 1.115382020395103e+001
 1.690670485223853e+000	 1.875435498866089e+000	 1.115109866947189e+001
 1.671175340858912e+000	 1.892828037649594e+000	 1.120492720361104e+001
 1.651507634368848e+000	 1.910012443315688e+000	 1.124457285266991e+001
 1.631670703985806e+000	 1.926986173729532e+000	 1.127087362363523e+001
 1.611667937262448e+000	 1.943746758191629e+000	 1.128468836297820e+001
 1.591502769161626e+000	 1.960291798615738e+000	 1.128689528119205e+001
 1.803122292026000e+000	 1.803122292026000e+000	 1.095313386256628e+001
 1.784354175320462e+000	 1.821697059617210e+000	 1.097790661836520e+001
 1.765395743568632e+000	 1.840075506219632e+000	 1.099038181410598e+001
 1.746250091397571e+000	 1.858254723736918e+000	 1.099467839399203e+001
 1.726920372310351e+000	 1.876231869383909e+000	 1.100069171349627e+001
 1.707409796956950e+000	 1.894004167166073e+000	 1.107253528274402e+001
 1.687721631360913e+000	 1.911568909303850e+000	 1.112471646664442e+001
 1.667859195103797e+000	 1.928923457600383e+000	 1.115795547325704e+001
 1.647825859469549e+000	 1.946065244751185e+000	 1.117299961816120e+001
 1.627625045550958e+000	 1.962991775594386e+000	 1.117062195046114e+001
 1.607260222320409e+000	 1.979700628300316e+000	 1.115161984233343e+001
 1.820799961552250e+000	 1.820799961552250e+000	 1.077663453573872e+001
 1.801847843703005e+000	 1.839556834707639e+000	 1.081928699646596e+001
 1.782703544973638e+000	 1.858115462158756e+000	 1.084495492137390e+001
 1.763370190330691e+000	 1.876472907298506e+000	 1.086592724448344e+001
 1.743850964193931e+000	 1.894626299471287e+000	 1.096137728693735e+001
 1.724149108690299e+000	 1.912572835466933e+000	 1.103197313782217e+001
 1.704267921863176e+000	 1.930309780959026e+000	 1.107830870378785e+001
 1.684210755839037e+000	 1.947834471886035e+000	 1.110101103478488e+001
 1.663981014953634e+000	 1.965144315773819e+000	 1.110073906606276e+001
 1.643582153839880e+000	 1.982236792998137e+000	 1.107818231369852e+001
 1.623017675479693e+000	 1.999109457985893e+000	 1.103405952688204e+001
 1.838477631079000e+000	 1.838477631079000e+000	 1.064980040166189e+001
 1.819341512085959e+000	 1.857416609798663e+000	 1.070489812563394e+001
 1.800011346378985e+000	 1.876155418098561e+000	 1.074549285023905e+001
 1.780490289264101e+000	 1.894691090860850e+000	 1.086972957910582e+001
 1.760781556077771e+000	 1.913020729559484e+000	 1.096421377499866e+001
 1.740888420423898e+000	 1.931141503768667e+000	 1.102940490389811e+001
 1.720814212365699e+000	 1.949050652615121e+000	 1.106580136415916e+001
 1.700562316574568e+000	 1.966745486172641e+000	 1.107393935856824e+001
 1.680136170438060e+000	 1.984223386797433e+000	 1.105439171022500e+001
 1.659539262129213e+000	 2.001481810402884e+000	 1.100776662529453e+001
 1.638775128639479e+000	 2.018518287672471e+000	 1.093470640578772e+001
 1.856155300606249e+000	 1.856155300606249e+000	 1.057443011760897e+001
 1.836835180469322e+000	 1.875276384890282e+000	 1.063846083810884e+001
 1.817319147784672e+000	 1.894195374039045e+000	 1.079625287436923e+001
 1.797610388197801e+000	 1.912909274423948e+000	 1.091969292009539e+001
 1.777712147961873e+000	 1.931415159648502e+000	 1.100909823511889e+001
 1.757627732157748e+000	 1.949710172071277e+000	 1.106483054013981e+001
 1.737360502868483e+000	 1.967791524272137e+000	 1.108729503241025e+001
 1.716913877310390e+000	 1.985656500460202e+000	 1.107693933588271e+001
 1.696291325922827e+000	 2.003302457822026e+000	 1.103425238865385e+001
 1.675496370418957e+000	 2.020726827808626e+000	 1.095976327067004e+001
 1.654532581799765e+000	 2.037927117360048e+000	 1.085403997478842e+001
 1.873832970134000e+000	 1.873832970134000e+000	 1.055235028342927e+001
 1.854328848853096e+000	 1.893136159982496e+000	 1.073999074925520e+001
 1.834626949190698e+000	 1.912235329980210e+000	 1.089704744231830e+001
 1.814730487131792e+000	 1.931127457987802e+000	 1.101562430078813e+001
 1.794642739846235e+000	 1.949809589738340e+000	 1.109593871216781e+001
 1.774367043891847e+000	 1.968278840374762e+000	 1.113825695182479e+001
 1.753906793371527e+000	 1.986532395930073e+000	 1.114289328082460e+001
 1.733265438046503e+000	 2.004567514748718e+000	 1.111020897183459e+001
 1.712446481407935e+000	 2.022381528847600e+000	 1.104061126583828e+001
 1.691453478709112e+000	 2.039971845215364e+000	 1.093455226255245e+001
 1.670290034960553e+000	 2.057335947048625e+000	 1.079252774758064e+001
 1.891510639662249e+000	 1.891510639662249e+000	 1.070160373355318e+001
 1.871822517237279e+000	 1.910995935075305e+000	 1.089529507734084e+001
 1.851934750597065e+000	 1.930275285922054e+000	 1.104759887711254e+001
 1.831850586066072e+000	 1.949345641552410e+000	 1.115734515816640e+001
 1.811573331730855e+000	 1.968204019828998e+000	 1.122465372501503e+001
 1.791106355626197e+000	 1.986847508679121e+000	 1.124969766575544e+001
 1.770453083874833e+000	 2.005273267588930e+000	 1.123270252970825e+001
 1.749616998782907e+000	 2.023478529038189e+000	 1.117394542677062e+001
 1.728601636893384e+000	 2.041460599874153e+000	 1.107375405113895e+001
 1.707410586999679e+000	 2.059216862623095e+000	 1.093250563222295e+001
 1.686047488121843e+000	 2.076744776738203e+000	 1.075062581572792e+001
 1.909188309190999e+000	 1.909188309190999e+000	 1.090901099323585e+001
 1.889316185621873e+000	 1.928855710168709e+000	 1.110422839794160e+001
 1.869242552003772e+000	 1.948315241864579e+000	 1.124764705814031e+001
 1.848970685000643e+000	 1.967563825117773e+000	 1.134469066602343e+001
 1.828503923615737e+000	 1.986598449920475e+000	 1.139517178162241e+001
 1.807845667360798e+000	 2.005416176984356e+000	 1.139917252370703e+001
 1.786999374378399e+000	 2.024014139248705e+000	 1.135683191553697e+001
 1.765968559519602e+000	 2.042389543328615e+000	 1.126834505538718e+001
 1.744756792379174e+000	 2.060539670901687e+000	 1.113396220504424e+001
 1.723367695290657e+000	 2.078461880031822e+000	 1.095398779902798e+001
 1.701804941283634e+000	 2.096153606428781e+000	 1.072877937746332e+001
 1.926865978720250e+000	 1.926865978720250e+000	 1.116485653302732e+001
 1.906809854006877e+000	 1.946715485262708e+000	 1.135897623883834e+001
 1.886550353410819e+000	 1.966355197807783e+000	 1.149661415022333e+001
 1.866090783935504e+000	 1.985782008683892e+000	 1.157750910483444e+001
 1.845434515500879e+000	 2.004992880012773e+000	 1.160743092082898e+001
 1.824584979095649e+000	 2.023984845290466e+000	 1.158670739275006e+001
 1.803545664882226e+000	 2.042755010909402e+000	 1.151539316636125e+001
 1.782320120256588e+000	 2.061300557619997e+000	 1.139360344368680e+001
 1.760911947865306e+000	 2.079618741930201e+000	 1.122151313407253e+001
 1.739324803582046e+000	 2.097706897441543e+000	 1.099935591955057e+001
 1.717562394445926e+000	 2.115562436120359e+000	 1.072742323738341e+001
 1.944543648250000e+000	 1.944543648250000e+000	 1.146783117462367e+001
 1.924303522392292e+000	 1.964575260357303e+000	 1.165760830887321e+001
 1.903858154818207e+000	 1.984395153751669e+000	 1.178742333657224e+001
 1.883210882870656e+000	 2.004000192250766e+000	 1.185521441659645e+001
 1.862365107386283e+000	 2.023387310105892e+000	 1.186137827912920e+001
 1.841324290830751e+000	 2.042553513597451e+000	 1.181233389137317e+001
 1.820091955386314e+000	 2.061495882571018e+000	 1.170850048400755e+001
 1.798671680993865e+000	 2.080211571912334e+000	 1.154991544391876e+001
 1.777067103351779e+000	 2.098697812959695e+000	 1.133668037504373e+001
 1.755281911873847e+000	 2.116951914852261e+000	 1.106896021773591e+001
 1.733319847608720e+000	 2.134971265812937e+000	 1.074698227888639e+001
 1.575745316003345e+000	 1.940882968932160e+000	 1.143938056853569e+001
 1.555622455559537e+000	 1.957048485793046e+000	 1.129509836101333e+001
 1.535345736674993e+000	 1.972996064073689e+000	 1.115181546496349e+001
 1.514918689460505e+000	 1.988723551500282e+000	 1.101044105740028e+001
 1.494344883097002e+000	 2.004228871742098e+000	 1.087188871475690e+001
 1.473627923803213e+000	 2.019510025265108e+000	 1.073707493054446e+001
 1.452771452782182e+000	 2.034565090120716e+000	 1.060691763521370e+001
 1.431779144149050e+000	 2.049392222669044e+000	 1.048233472150453e+001
 1.410654702842500e+000	 2.063989658236325e+000	 1.036424257852699e+001
 1.389401862522307e+000	 2.078355711706042e+000	 1.025355463776801e+001
 1.368024383455396e+000	 2.092488778043565e+000	 1.015117993415698e+001
 1.591502769161626e+000	 1.960291798615738e+000	 1.128689528119205e+001
 1.571178680113283e+000	 1.976618970645657e+000	 1.112535774457526e+001
 1.550699194039903e+000	 1.992726024709482e+000	 1.096787894363289e+001
 1.530067876353385e+000	 2.008610787010665e+000	 1.081553494084025e+001
 1.509288331926469e+000	 2.024271160455173e+000	 1.066940236148122e+001
 1.488364203040068e+000	 2.039705125513637e+000	 1.053055674122905e+001
 1.467299167309258e+000	 2.054910741017975e+000	 1.040007088218774e+001
 1.446096935590331e+000	 2.069886144891909e+000	 1.027901322094001e+001
 1.424761249871356e+000	 2.084629554814938e+000	 1.016844621209052e+001
 1.403295881148705e+000	 2.099139268819376e+000	 1.006942473072696e+001
 1.381704627291974e+000	 2.113413665820249e+000	 9.982994497143814e+000
 1.607260222320409e+000	 1.979700628300316e+000	 1.115161984233343e+001
 1.586734904667616e+000	 1.996189455499269e+000	 1.097679826118478e+001
 1.566052651405454e+000	 2.012455985346274e+000	 1.080901098294363e+001
 1.545217063246930e+000	 2.028498022522047e+000	 1.064949964482838e+001
 1.524231780756594e+000	 2.044313449169247e+000	 1.049950266935883e+001
 1.503100482277546e+000	 2.059900225763165e+000	 1.036025344237598e+001
 1.481826881836891e+000	 2.075256391916233e+000	 1.023297850570810e+001
 1.460414727032072e+000	 2.090380067115775e+000	 1.011889576828903e+001
 1.438867796900547e+000	 2.105269451394550e+000	 1.001921273946300e+001
 1.417189899775284e+000	 2.119922825933710e+000	 9.935124788127629e+000
 1.395384871128547e+000	 2.134338553597933e+000	 9.867813431272587e+000
 1.623017675479693e+000	 1.999109457985893e+000	 1.103405952688204e+001
 1.602291129222535e+000	 2.015759940353880e+000	 1.084979123764434e+001
 1.581406108771645e+000	 2.032185945984065e+000	 1.067545108494570e+001
 1.560366250141141e+000	 2.048385258034430e+000	 1.051244503323285e+001
 1.539175229587379e+000	 2.064355737884322e+000	 1.036217211226971e+001
 1.517836761515647e+000	 2.080095326013694e+000	 1.022602242606212e+001
 1.496354596365081e+000	 2.095602042815492e+000	 1.010537518254317e+001
 1.474732518474276e+000	 2.110873989340641e+000	 1.000159674808601e+001
 1.452974343930074e+000	 2.125909347975163e+000	 9.916038730824646e+000
 1.431083918402042e+000	 2.140706383049044e+000	 9.850036096663192e+000
 1.409065114965114e+000	 2.155263441376618e+000	 9.804905321745629e+000
 1.638775128639479e+000	 2.018518287672471e+000	 1.093470640578772e+001
 1.617847353778040e+000	 2.035330425209491e+000	 1.074469977217894e+001
 1.596759566138478e+000	 2.051915906622858e+000	 1.056743541513757e+001
 1.575515437036017e+000	 2.068272493547812e+000	 1.040448243983587e+001
 1.554118678418823e+000	 2.084398026600397e+000	 1.025739935278377e+001
 1.532573040754372e+000	 2.100290426265223e+000	 1.012773190207363e+001
 1.510882310893829e+000	 2.115947693715751e+000	 1.001701094443116e+001
 1.489050309916940e+000	 2.131367911566507e+000	 9.926750343400903e+000
 1.467080890959936e+000	 2.146549244556776e+000	 9.858444902892773e+000
 1.444977937028980e+000	 2.161489940165378e+000	 9.813568340201233e+000
 1.422745358801676e+000	 2.176188329156302e+000	 9.793571302482537e+000
 1.654532581799765e+000	 2.037927117360048e+000	 1.085403997478842e+001
 1.633403578334131e+000	 2.054900910066102e+000	 1.066187912627330e+001
 1.612113023505951e+000	 2.071645867262650e+000	 1.048519696134957e+001
 1.590664623931557e+000	 2.088159729062194e+000	 1.032572459833783e+001
 1.569062127250926e+000	 2.104440315317472e+000	 1.018517894746125e+001
 1.547309319993719e+000	 2.120485526517752e+000	 1.006526038277684e+001
 1.525410025423134e+000	 2.136293344617009e+000	 9.967650446891094e+000
 1.503368101360066e+000	 2.151861833793373e+000	 9.894009593051521e+000
 1.481187437990134e+000	 2.167189141139388e+000	 9.845974969086591e+000
 1.458871955656099e+000	 2.182273497282713e+000	 9.825158247537422e+000
 1.436425602638232e+000	 2.197113216936987e+000	 9.833143506181315e+000
 1.670290034960553e+000	 2.057335947048625e+000	 1.079252774758064e+001
 1.648959802890809e+000	 2.074471394923714e+000	 1.060167709432930e+001
 1.627466480874065e+000	 2.091375827903443e+000	 1.042896568363381e+001
 1.605813810827764e+000	 2.108046964577577e+000	 1.027628557632326e+001
 1.584005576083689e+000	 2.124482604035547e+000	 1.014551106883435e+001
 1.562045599233690e+000	 2.140680626771280e+000	 1.003849619714754e+001
 1.539937739952996e+000	 2.156638995519268e+000	 9.957072279421789e+000
 1.517685892803653e+000	 2.172355756021238e+000	 9.903045502181712e+000
 1.495293985020667e+000	 2.187829037723001e+000	 9.878194554777242e+000
 1.472765974283397e+000	 2.203057054401047e+000	 9.884268316691422e+000
 1.450105846474784e+000	 2.218038104718671e+000	 9.922983602111982e+000
 1.686047488121843e+000	 2.076744776738203e+000	 1.075062581572792e+001
 1.664516027448072e+000	 2.094041879782325e+000	 1.056443435259520e+001
 1.642819938242820e+000	 2.111105788545235e+000	 1.039896865574925e+001
 1.620962997724635e+000	 2.127934200093960e+000	 1.025628071293004e+001
 1.598949024917110e+000	 2.144524892754621e+000	 1.013840124297863e+001
 1.576781878474284e+000	 2.160875727025809e+000	 1.004733703205089e+001
 1.554465454483415e+000	 2.176984646422527e+000	 9.985068314381303e+000
 1.532003684247701e+000	 2.192849678250105e+000	 9.953546202713252e+000
 1.509400532051535e+000	 2.208468934307614e+000	 9.954690173364750e+000
 1.486659992910875e+000	 2.223840611520382e+000	 9.990385610737585e+000
 1.463786090311330e+000	 2.238962992501355e+000	 1.006248141590292e+001
 1.701804941283634e+000	 2.096153606428781e+000	 1.072877937746332e+001
 1.680072252005922e+000	 2.113612364641936e+000	 1.055048478870967e+001
 1.658173395612215e+000	 2.130835749188027e+000	 1.039543019878626e+001
 1.636112184622171e+000	 2.147821435611342e+000	 1.026582655998099e+001
 1.613892473751191e+000	 2.164567181474696e+000	 1.016386010166372e+001
 1.591518157715502e+000	 2.181070827281338e+000	 1.009168949900582e+001
 1.568993169014391e+000	 2.197330297326785e+000	 1.005144309203982e+001
 1.546321475692211e+000	 2.213343600479971e+000	 1.004521616043968e+001
 1.523507079082740e+000	 2.229108830893226e+000	 1.007506825923976e+001
 1.500554011538533e+000	 2.244624168640716e+000	 1.014302062053385e+001
 1.477466334147870e+000	 2.259887880285039e+000	 1.025105362600574e+001
 1.717562394445926e+000	 2.115562436120359e+000	 1.072742323738341e+001
 1.695628476564358e+000	 2.133182849502547e+000	 1.056015581310604e+001
 1.673526852982252e+000	 2.150565709831819e+000	 1.041857200743592e+001
 1.651261371520371e+000	 2.167708671129724e+000	 1.030504082635618e+001
 1.628835922585931e+000	 2.184609470195770e+000	 1.022190314814727e+001
 1.606254436957342e+000	 2.201265927537867e+000	 1.017146872479726e+001
 1.583520883545925e+000	 2.217675948232044e+000	 1.015601323948271e+001
 1.560639267137182e+000	 2.233837522710837e+000	 1.017777542576599e+001
 1.537613626114279e+000	 2.249748727479839e+000	 1.023895425397657e+001
 1.514448030166371e+000	 2.265407725762050e+000	 1.034170619005294e+001
 1.491146577984406e+000	 2.280812768069723e+000	 1.048814253191457e+001
 1.733319847608720e+000	 2.134971265812937e+000	 1.074698227888639e+001
 1.711184701123380e+000	 2.152753334364159e+000	 1.059376865343064e+001
 1.688880310352929e+000	 2.170295670476612e+000	 1.046861326937183e+001
 1.666410558419238e+000	 2.187595906649107e+000	 1.037404232539946e+001
 1.643779371421331e+000	 2.204651758917846e+000	 1.031255053574366e+001
 1.620990716199807e+000	 2.221461027795396e+000	 1.028659796441860e+001
 1.598048598078017e+000	 2.238021599138304e+000	 1.029860692120993e+001
 1.574957058582615e+000	 2.254331444942703e+000	 1.035095892531724e+001
 1.551720173146155e+000	 2.270388624067453e+000	 1.044599174237033e+001
 1.528342048794388e+000	 2.286191282884385e+000	 1.058599650033154e+001
 1.504826821820936e+000	 2.301737655855408e+000	 1.077321488957320e+001
 1.368024383455396e+000	 2.092488778043565e+000	 1.015117993415698e+001
 1.346526050392599e+000	 2.106387332754106e+000	 1.027003236068823e+001
 1.324910670439301e+000	 2.120049932274017e+000	 1.034308797957496e+001
 1.303182070921885e+000	 2.133475214295430e+000	 1.037058422724805e+001
 1.281344097251810e+000	 2.146661898024328e+000	 1.035280372222269e+001
 1.259400610790523e+000	 2.159608784372367e+000	 1.029007314097872e+001
 1.237355486717287e+000	 2.172314756082764e+000	 1.018160903367008e+001
 1.215212611902256e+000	 2.184778777790678e+000	 1.000969190536840e+001
 1.192975882787095e+000	 2.196999896018612e+000	 9.773863905307767e+000
 1.170649203275408e+000	 2.208977239107448e+000	 9.478319953151949e+000
 1.148236482635196e+000	 2.220710017083810e+000	 9.127212781424399e+000
 1.381704627291974e+000	 2.113413665820249e+000	 9.982994497143814e+000
 1.359991310899373e+000	 2.127451206077835e+000	 1.009236264567555e+001
 1.338159777147214e+000	 2.141250431592865e+000	 1.015909027046912e+001
 1.316213891635144e+000	 2.154809966434392e+000	 1.018344106827453e+001
 1.294157538228737e+000	 2.168128517000457e+000	 1.016572107006807e+001
 1.271994616903055e+000	 2.181204872211835e+000	 1.010627749989880e+001
 1.249729041589154e+000	 2.194037903639175e+000	 1.000544672383096e+001
 1.227364738025891e+000	 2.206626565563986e+000	 9.848240322280370e+000
 1.204905641619348e+000	 2.218969894973999e+000	 9.630846474055836e+000
 1.182355695312165e+000	 2.231067011493503e+000	 9.357644659897858e+000
 1.159718847465025e+000	 2.242917117249388e+000	 9.032966252227951e+000
 1.395384871128547e+000	 2.134338553597933e+000	 9.867813431272587e+000
 1.373456571405956e+000	 2.148515079402566e+000	 9.967730559317886e+000
 1.351408883854781e+000	 2.162450930912713e+000	 1.002809954332038e+001
 1.329245712347933e+000	 2.176144718574352e+000	 1.004921095566217e+001
 1.306970979205101e+000	 2.189595135977586e+000	 1.003139488897949e+001
 1.284588623014960e+000	 2.202800960052304e+000	 9.975019796843023e+000
 1.262102596460361e+000	 2.215761051196586e+000	 9.880491300882969e+000
 1.239516864148863e+000	 2.228474353338295e+000	 9.739735566398313e+000
 1.216835400450963e+000	 2.240939893930387e+000	 9.538322918747216e+000
 1.194062187348341e+000	 2.253156783880558e+000	 9.284967887295672e+000
 1.171201212294357e+000	 2.265124217415967e+000	 8.984186449758017e+000
 1.409065114965114e+000	 2.155263441376618e+000	 9.804905321745629e+000
 1.386921831912350e+000	 2.169578952728295e+000	 9.895383383284404e+000
 1.364657990562005e+000	 2.183651430233561e+000	 9.949343570714889e+000
 1.342277533060255e+000	 2.197479470715314e+000	 9.967103954244315e+000
 1.319784420180902e+000	 2.211061754955715e+000	 9.949019343043831e+000
 1.297182629126240e+000	 2.224397047893772e+000	 9.895480106631174e+000
 1.274476151330910e+000	 2.237484198754997e+000	 9.806910966700357e+000
 1.251668990271171e+000	 2.250322141113604e+000	 9.683769762433578e+000
 1.228765159281942e+000	 2.262909892887774e+000	 9.497472455027337e+000
 1.205768679383935e+000	 2.275246556268613e+000	 9.261398305650040e+000
 1.182683577123193e+000	 2.287331317583545e+000	 8.981913410669650e+000
 1.422745358801676e+000	 2.176188329156302e+000	 9.793571302482537e+000
 1.400387092418553e+000	 2.190642826055024e+000	 9.874601584645864e+000
 1.377907097268885e+000	 2.204851929555409e+000	 9.922083878987126e+000
 1.355309353772107e+000	 2.218814222857275e+000	 9.936364382575714e+000
 1.332597861156142e+000	 2.232528373934845e+000	 9.917823281677094e+000
 1.309776635236893e+000	 2.245993135736240e+000	 9.866873552706371e+000
 1.286849706200797e+000	 2.259207346314407e+000	 9.783959737609315e+000
 1.263821116392817e+000	 2.272169928889913e+000	 9.669556696716310e+000
 1.240694918112283e+000	 2.284879891846162e+000	 9.509510028316102e+000
 1.217475171418949e+000	 2.297336328657668e+000	 9.288080406440383e+000
 1.194165941951533e+000	 2.309538417752123e+000	 9.027223016768220e+000
 1.436425602638232e+000	 2.197113216936987e+000	 9.833143506181315e+000
 1.413852352924566e+000	 2.211706699382753e+000	 9.904697235617704e+000
 1.391156203975419e+000	 2.226052428878257e+000	 9.945614140898323e+000
 1.368341174483492e+000	 2.240148975000236e+000	 9.956269181802476e+000
 1.345411302130819e+000	 2.253994992914973e+000	 9.937068587942108e+000
 1.322370641346921e+000	 2.267589223579708e+000	 9.888448638152875e+000
 1.299223261070027e+000	 2.280930493874819e+000	 9.810874418275846e+000
 1.275973242513798e+000	 2.294017716667222e+000	 9.704838560384689e+000
 1.252624676941988e+000	 2.306849890805548e+000	 9.570859966487804e+000
 1.229181663453380e+000	 2.319426101047722e+000	 9.366192796550823e+000
 1.205648306779377e+000	 2.331745517921702e+000	 9.121225288097483e+000
 1.450105846474784e+000	 2.218038104718671e+000	 9.922983602111982e+000
 1.427317613430390e+000	 2.232770572711484e+000	 9.985012522751248e+000
 1.404405310681609e+000	 2.247252928202105e+000	 1.001925865929564e+001
 1.381372995194407e+000	 2.261483727144197e+000	 1.002612637686108e+001
 1.358224743104934e+000	 2.275461611896103e+000	 1.000604862035757e+001
 1.334964647456323e+000	 2.289185311424177e+000	 9.959485671184844e+000
 1.311596815938596e+000	 2.302653641436229e+000	 9.886923886263341e+000
 1.288125368634117e+000	 2.315865504445530e+000	 9.788874422468176e+000
 1.264554435771055e+000	 2.328819889765935e+000	 9.665871949500128e+000
 1.240888155487230e+000	 2.341515873438777e+000	 9.496946589052723e+000
 1.217130671606725e+000	 2.353952618092280e+000	 9.265062772645370e+000
 1.463786090311330e+000	 2.238962992501355e+000	 1.006248141590292e+001
 1.440782873936023e+000	 2.253834446041212e+000	 1.011491833972189e+001
 1.417654417387455e+000	 2.268453427526952e+000	 1.014237093579986e+001
 1.394404815904855e+000	 2.282818479289158e+000	 1.014527362396446e+001
 1.371038184078486e+000	 2.296928230878231e+000	 1.012408674208249e+001
 1.347558653565099e+000	 2.310781399269645e+000	 1.007929527892533e+001
 1.323970370806506e+000	 2.324376788998640e+000	 1.001140759329883e+001
 1.300277494753773e+000	 2.337713292224839e+000	 9.920954122519230e+000
 1.276484194599485e+000	 2.350789888727322e+000	 9.808486083276177e+000
 1.252594647520499e+000	 2.363605645830832e+000	 9.674574167870926e+000
 1.228613036433577e+000	 2.376159718263858e+000	 9.459909026346464e+000
 1.477466334147870e+000	 2.259887880285039e+000	 1.025105362600574e+001
 1.454248134441466e+000	 2.274898319371942e+000	 1.029381295829545e+001
 1.430903524092956e+000	 2.289653926852800e+000	 1.031433231901023e+001
 1.407436636614834e+000	 2.304153231435119e+000	 1.031307683878398e+001
 1.383851625051477e+000	 2.318394849861361e+000	 1.029053493181239e+001
 1.360152659673249e+000	 2.332377487116113e+000	 1.024721700375303e+001
 1.336343925673756e+000	 2.346099936562051e+000	 1.018365414980267e+001
 1.312429620872765e+000	 2.359561080005148e+000	 1.010039684605203e+001
 1.288413953427277e+000	 2.372759887689710e+000	 9.998013637166439e+000
 1.264301139553186e+000	 2.385695418223887e+000	 9.877089823381276e+000
 1.240095401259933e+000	 2.398366818436436e+000	 9.706967177528869e+000
 1.491146577984406e+000	 2.280812768069723e+000	 1.048814253191457e+001
 1.467713394946719e+000	 2.295962192703671e+000	 1.052112077245267e+001
 1.444152630798113e+000	 2.310854426179648e+000	 1.053455072712028e+001
 1.420468457324345e+000	 2.325487983582081e+000	 1.052892890014377e+001
 1.396665066023905e+000	 2.339861468845490e+000	 1.050477247114012e+001
 1.372746665780774e+000	 2.353973574963581e+000	 1.046261797691440e+001
 1.348717480540346e+000	 2.367823084126461e+000	 1.040301998733368e+001
 1.324581746991095e+000	 2.381408867786456e+000	 1.032654977839738e+001
 1.300343712254433e+000	 2.394729886653097e+000	 1.023379400556418e+001
 1.276007631585292e+000	 2.407785190617942e+000	 1.012535338032545e+001
 1.251577766085793e+000	 2.420573918610014e+000	 1.000184135293828e+001
 1.504826821820936e+000	 2.301737655855408e+000	 1.077321488957320e+001
 1.481178655451783e+000	 2.317026066036402e+000	 1.079629111101571e+001
 1.457401737502926e+000	 2.332054925507497e+000	 1.080245944020897e+001
 1.433500278033387e+000	 2.346822735730042e+000	 1.079224842442310e+001
 1.409478506995772e+000	 2.361328087830619e+000	 1.076620470351504e+001
 1.385340671887672e+000	 2.375569662812049e+000	 1.072489166448438e+001
 1.361091035406278e+000	 2.389546231691873e+000	 1.066888809399191e+001
 1.336733873108761e+000	 2.403256655568767e+000	 1.059878683198376e+001
 1.312273471080952e+000	 2.416699885617484e+000	 1.051519342949417e+001
 1.287714123616817e+000	 2.429874963012997e+000	 1.041872481362088e+001
 1.263060130911157e+000	 2.442781018784593e+000	 1.031000796258242e+001
 1.148236482635196e+000	 2.220710017083810e+000	 9.127212781424399e+000
 1.125741633415527e+000	 2.232197521464456e+000	 9.031154658072561e+000
 1.103168569379458e+000	 2.243439124998900e+000	 8.927781611209486e+000
 1.080521203455544e+000	 2.254434281350881e+000	 8.821666609123545e+000
 1.057803445709805e+000	 2.265182524719623e+000	 8.717258577606478e+000
 1.035019201340097e+000	 2.275683469402266e+000	 8.618874262111115e+000
 1.012172368694828e+000	 2.285936809298536e+000	 8.530690492037497e+000
 9.892668373179073e-001	 2.295942317358883e+000	 8.456736860181715e+000
 9.663064860216958e-001	 2.305699844977406e+000	 8.400888828967602e+000
 9.432951809896925e-001	 2.315209321330897e+000	 8.366861273659536e+000
 9.202367739106159e-001	 2.324470752665467e+000	 8.358202471322191e+000
 1.159718847465025e+000	 2.242917117249388e+000	 9.032966252227951e+000
 1.136999049752618e+000	 2.254519496673615e+000	 8.988045020474880e+000
 1.114200255075764e+000	 2.265873516243221e+000	 8.928710609905213e+000
 1.091326415492304e+000	 2.276978624158587e+000	 8.859572072188790e+000
 1.068381480168917e+000	 2.287834349960926e+000	 8.785119190191191e+000
 1.045369393355437e+000	 2.298440304090351e+000	 8.709714086348395e+000
 1.022294092383755e+000	 2.308796177385585e+000	 8.637583234233727e+000
 9.991595056932207e-001	 2.318901740526581e+000	 8.572809886943130e+000
 9.759695508843156e-001	 2.328756843421378e+000	 8.519326934488850e+000
 9.527281328023738e-001	 2.338361414538538e+000	 8.480910200942091e+000
 9.294391416530002e-001	 2.347715460186632e+000	 8.461172190609073e+000
 1.171201212294357e+000	 2.265124217415967e+000	 8.984186449758017e+000
 1.148256466089302e+000	 2.276841471883772e+000	 8.981616636253174e+000
 1.125231940771734e+000	 2.288307907488541e+000	 8.957744941250899e+000
 1.102131627528776e+000	 2.299522966967292e+000	 8.917223891141324e+000
 1.078959514627770e+000	 2.310486175203229e+000	 8.864591281516095e+000
 1.055719585370526e+000	 2.321197138779436e+000	 8.804261524171059e+000
 1.032415816072421e+000	 2.331655545473632e+000	 8.740517398829212e+000
 1.009052174068241e+000	 2.341861163695277e+000	 8.677502223810743e+000
 9.856326157465907e-001	 2.351813841866350e+000	 8.619212458417115e+000
 9.621610846146402e-001	 2.361513507747179e+000	 8.569490748319229e+000
 9.386415093948795e-001	 2.370960167708796e+000	 8.532019423756939e+000
 1.182683577123193e+000	 2.287331317583545e+000	 8.981913410669650e+000
 1.159513882425580e+000	 2.299163447094930e+000	 9.013024145265455e+000
 1.136263626467366e+000	 2.310742298734863e+000	 9.016149072305412e+000
 1.112936839564960e+000	 2.322067309776998e+000	 8.995991601420473e+000
 1.089537549086364e+000	 2.333138000446533e+000	 8.957144716150857e+000
 1.066069777385366e+000	 2.343953973469521e+000	 8.904082051910921e+000
 1.042537539760825e+000	 2.354514913562680e+000	 8.841149380664806e+000
 1.018944842442968e+000	 2.364820586864975e+000	 8.772556517150791e+000
 9.952956806085219e-001	 2.374870840312322e+000	 8.702369660005031e+000
 9.715940364264912e-001	 2.384665600956820e+000	 8.634504179630639e+000
 9.478438771362536e-001	 2.394204875231962e+000	 8.572717863147801e+000
 1.194165941951533e+000	 2.309538417752123e+000	 9.027223016768220e+000
 1.170771298761452e+000	 2.321485422307088e+000	 9.083451017950317e+000
 1.147295312162661e+000	 2.333176689982184e+000	 9.105209481741412e+000
 1.123742051600856e+000	 2.344611652587703e+000	 9.097260128894256e+000
 1.100115583544699e+000	 2.355789825690836e+000	 9.064258327729817e+000
 1.076419969399954e+000	 2.366710808160607e+000	 9.010743895320609e+000
 1.052659263448967e+000	 2.377374281652728e+000	 8.941132307837449e+000
 1.028837510817402e+000	 2.387780010035671e+000	 8.859706335518531e+000
 1.004958745470109e+000	 2.397927838759294e+000	 8.770608116202716e+000
 9.810269882379279e-001	 2.407817694167462e+000	 8.677831679836064e+000
 9.570462448771225e-001	 2.417449582756126e+000	 8.585215934819807e+000
 1.205648306779377e+000	 2.331745517921702e+000	 9.121225288097483e+000
 1.182028715096917e+000	 2.343807397520245e+000	 9.194108182442259e+000
 1.158326997857619e+000	 2.355611081230504e+000	 9.226233611673234e+000
 1.134547263636464e+000	 2.367155995399408e+000	 9.222429056981715e+000
 1.110693618002774e+000	 2.378441650936139e+000	 9.187419491853634e+000
 1.086770161414292e+000	 2.389467642852691e+000	 9.125817898648831e+000
 1.062780987136847e+000	 2.400233649743777e+000	 9.042116197259317e+000
 1.038730179191542e+000	 2.410739433207368e+000	 8.940676601934664e+000
 1.014621810331352e+000	 2.420984837207266e+000	 8.825723420815121e+000
 9.904599400489497e-001	 2.430969787379103e+000	 8.701335311152954e+000
 9.662486126174865e-001	 2.440694290281291e+000	 8.571438001626373e+000
 1.217130671606725e+000	 2.353952618092280e+000	 9.265062772645370e+000
 1.193286131431976e+000	 2.366129372734403e+000	 9.346232729397073e+000
 1.169358683552240e+000	 2.378045472479826e+000	 9.380548878815118e+000
 1.145352475671785e+000	 2.389700338212114e+000	 9.372911935259163e+000
 1.121271652460591e+000	 2.401093476182442e+000	 9.328123723166373e+000
 1.097120353428380e+000	 2.412224477545776e+000	 9.250877401126273e+000
 1.072902710824466e+000	 2.423093017835825e+000	 9.145748101411957e+000
 1.048622847565390e+000	 2.433698856380066e+000	 9.017184001693636e+000
 1.024284875192251e+000	 2.444041835656238e+000	 8.869497844084174e+000
 9.998928918595562e-001	 2.454121880591744e+000	 8.706858915072107e+000
 9.754509803573452e-001	 2.463938997807456e+000	 8.533285498292093e+000
 1.228613036433577e+000	 2.376159718263858e+000	 9.459909026346464e+000
 1.204543547766628e+000	 2.388451347949561e+000	 9.541086689444400e+000
 1.180390369246525e+000	 2.400479863730146e+000	 9.569501741088935e+000
 1.156157687706817e+000	 2.412244681025820e+000	 9.550135626835887e+000
 1.131849686918147e+000	 2.423745301429745e+000	 9.487874295026257e+000
 1.107470545442217e+000	 2.434981312239862e+000	 9.387498120377689e+000
 1.083024434511822e+000	 2.445952385928873e+000	 9.253672246870806e+000
 1.058515515938944e+000	 2.456658279553762e+000	 9.090937367304312e+000
 1.033947940052805e+000	 2.467098834106210e+000	 8.903700955285279e+000
 1.009325843669748e+000	 2.477273973805384e+000	 8.696228963793766e+000
 9.846533480966987e-001	 2.487183705334621e+000	 8.472638002820574e+000
 1.240095401259933e+000	 2.398366818436436e+000	 9.706967177528869e+000
 1.215800964100875e+000	 2.410773323165718e+000	 9.779955878558953e+000
 1.191422054940472e+000	 2.422914254981468e+000	 9.794456816086537e+000
 1.166962899741561e+000	 2.434789023840525e+000	 9.755539691986929e+000
 1.142427721375445e+000	 2.446397126678048e+000	 9.668181880306166e+000
 1.117820737455804e+000	 2.457738146934947e+000	 9.537258042311239e+000
 1.093146158198917e+000	 2.468811754022922e+000	 9.367530165134522e+000
 1.068408184312206e+000	 2.479617702728460e+000	 9.163638042044511e+000
 1.043611004913016e+000	 2.490155832557182e+000	 8.930090210734925e+000
 1.018758795479525e+000	 2.500426067020026e+000	 8.681458650679836e+000
 9.938557158355471e-001	 2.510428412862785e+000	 8.623018617665942e+000
 1.251577766085793e+000	 2.420573918610014e+000	 1.000184135293828e+001
 1.227058380434714e+000	 2.433095298382876e+000	 1.006414880698988e+001
 1.202453740634082e+000	 2.445348646233789e+000	 1.005679604805759e+001
 1.177768111776018e+000	 2.457333366656231e+000	 9.990575805714151e+000
 1.153005755832484e+000	 2.469048951927352e+000	 9.870564211966048e+000
 1.128170929469140e+000	 2.480494981631032e+000	 9.701737317068556e+000
 1.103267881885750e+000	 2.491671122117969e+000	 9.488960816252105e+000
 1.078300852685174e+000	 2.502577125904156e+000	 9.307754064205904e+000
 1.053274069772882e+000	 2.513212831009154e+000	 9.295153021600962e+000
 1.028191747288888e+000	 2.523578160235667e+000	 9.213014574108286e+000
 1.003058083573891e+000	 2.533673120391951e+000	 9.062138154711173e+000
 1.263060130911157e+000	 2.442781018784593e+000	 1.031000796258242e+001
 1.238315796768149e+000	 2.455417273601034e+000	 1.039499564770274e+001
 1.213485426327356e+000	 2.467783037487111e+000	 1.035791792033401e+001
 1.188573323810187e+000	 2.479877709472937e+000	 1.025670720707712e+001
 1.163583790289265e+000	 2.491700777177656e+000	 1.009654576214022e+001
 1.138521121482226e+000	 2.503251816328117e+000	 9.980341261572962e+000
 1.113389605572322e+000	 2.514530490214019e+000	 1.004214226363514e+001
 1.088193521057850e+000	 2.525536549080854e+000	 1.002576278126550e+001
 1.062937134632405e+000	 2.536269829462127e+000	 9.931813831744353e+000
 1.037624699097835e+000	 2.546730253452309e+000	 9.760962202058261e+000
 1.012260451311729e+000	 2.556917827922117e+000	 9.513930520759715e+000
 9.202367739106159e-001	 2.324470752665467e+000	 8.358202471322191e+000
 8.971351001457416e-001	 2.333484221532295e+000	 8.297389107725618e+000
 8.739939769303398e-001	 2.342249885973674e+000	 8.216255556773477e+000
 8.508172016108214e-001	 2.350767978661281e+000	 8.117560209675951e+000
 8.276085499197395e-001	 2.359038805988396e+000	 8.003928040340277e+000
 8.043717742891899e-001	 2.367062747117389e+000	 7.877846362239461e+000
 7.811106022040244e-001	 2.374840252984292e+000	 7.741660996483271e+000
 7.578287345960116e-001	 2.382371845262165e+000	 7.597572852162843e+000
 7.345298442800076e-001	 2.389658115285039e+000	 7.447634918821127e+000
 7.112175744331116e-001	 2.396699722934155e+000	 7.293749669716599e+000
 6.878955371177123e-001	 2.403497395488342e+000	 7.137666873392840e+000
 9.294391416530002e-001	 2.347715460186632e+000	 8.461172190609073e+000
 9.061064511509912e-001	 2.356819063742346e+000	 8.371316190519988e+000
 8.827339167038776e-001	 2.365672384828394e+000	 8.269961202464767e+000
 8.593253736315348e-001	 2.374275658443167e+000	 8.160029863064608e+000
 8.358846354238423e-001	 2.382629194043878e+000	 8.044298731007080e+000
 8.124154920372165e-001	 2.390733374584523e+000	 7.925393958625639e+000
 7.889217082313587e-001	 2.398588655510490e+000	 7.805787397084248e+000
 7.654070219473557e-001	 2.406195563711574e+000	 7.687793136008426e+000
 7.418751427282125e-001	 2.413554696435142e+000	 7.573564477136930e+000
 7.183297501827994e-001	 2.420666720161248e+000	 7.465091340331663e+000
 6.947744924941302e-001	 2.427532369441510e+000	 7.364198099085439e+000
 9.386415093948795e-001	 2.370960167708796e+000	 8.532019423756939e+000
 9.150778021556407e-001	 2.380153905953393e+000	 8.413577486758632e+000
 8.914738564767309e-001	 2.389094883684093e+000	 8.292415697722303e+000
 8.678335456514892e-001	 2.397783338226005e+000	 8.171624772859909e+000
 8.441607209271217e-001	 2.406219582100279e+000	 8.054136600092170e+000
 8.204592097843656e-001	 2.414404002052529e+000	 7.942719820720575e+000
 7.967328142577711e-001	 2.422337058037504e+000	 7.839975867402968e+000
 7.729853092977437e-001	 2.430019282161732e+000	 7.748335459051286e+000
 7.492204411754364e-001	 2.437451277585918e+000	 7.670055551945849e+000
 7.254419259314923e-001	 2.444633717388931e+000	 7.607216745077920e+000
 7.016534478695476e-001	 2.451567343395171e+000	 7.561721136486071e+000
 9.478438771362536e-001	 2.394204875231962e+000	 8.572717863147801e+000
 9.240491531596904e-001	 2.403488748165434e+000	 8.426015241608530e+000
 9.002137962488996e-001	 2.412517382540771e+000	 8.285334483291770e+000
 8.763417176706848e-001	 2.421291018009799e+000	 8.153938282381006e+000
 8.524368064295773e-001	 2.429809970157597e+000	 8.034917660451150e+000
 8.285029275306370e-001	 2.438074629521406e+000	 7.931187453589156e+000
 8.045439202832618e-001	 2.446085460565335e+000	 7.845482278824237e+000
 7.805635966471756e-001	 2.453843000612641e+000	 7.780352980259869e+000
 7.565657396216801e-001	 2.461347858737370e+000	 7.738163553929513e+000
 7.325541016791896e-001	 2.468600714617200e+000	 7.721088549060183e+000
 7.085324032439653e-001	 2.475602317349326e+000	 7.731110942135282e+000
 9.570462448771225e-001	 2.417449582756126e+000	 8.585215934819807e+000
 9.330205041631401e-001	 2.426823590378469e+000	 8.410449123285691e+000
 9.089537360203834e-001	 2.435939881398428e+000	 8.250412971574257e+000
 8.848498896891212e-001	 2.444798697794545e+000	 8.108546114180994e+000
 8.607128919312100e-001	 2.453400358215833e+000	 7.988102570568995e+000
 8.365466452760307e-001	 2.461745256991155e+000	 7.892147133072567e+000
 8.123550263078306e-001	 2.469833863093982e+000	 7.823551257425092e+000
 7.881418839956511e-001	 2.477666719064299e+000	 7.784989456084266e+000
 7.639110380669429e-001	 2.485244439889494e+000	 7.778936193101374e+000
 7.396662774258919e-001	 2.492567711846060e+000	 7.807663277894827e+000
 7.154113586173831e-001	 2.499637291303976e+000	 7.873237753945220e+000
 9.662486126174865e-001	 2.440694290281291e+000	 8.571438001626373e+000
 9.419918551659895e-001	 2.450158432592499e+000	 8.368677298148066e+000
 9.176936757911829e-001	 2.459362380257065e+000	 8.189327500357054e+000
 8.933580617067983e-001	 2.468306377580246e+000	 8.037007209130611e+000
 8.689889774320192e-001	 2.476990746274987e+000	 7.915137365720912e+000
 8.445903630205469e-001	 2.485415884461776e+000	 7.826936535750928e+000
 8.201661323314775e-001	 2.493582265623445e+000	 7.775416719465627e+000
 7.957201713431706e-001	 2.501490437516709e+000	 7.767307641249324e+000
 7.712563365112256e-001	 2.509141021042295e+000	 7.789448422830520e+000
 7.467784531715992e-001	 2.516534709075509e+000	 7.807506969159276e+000
 7.222903139898008e-001	 2.523672265259119e+000	 7.822804193575445e+000
 9.754509803573452e-001	 2.463938997807456e+000	 8.533285498292093e+000
 9.509632061682393e-001	 2.473493274807525e+000	 8.302477444934068e+000
 9.264336155612976e-001	 2.482784879116681e+000	 8.103736232559777e+000
 9.018662337237166e-001	 2.491814057366900e+000	 7.940864518007172e+000
 8.772650629320052e-001	 2.500581134335059e+000	 7.824378203029101e+000
 8.526340807641855e-001	 2.509086511933270e+000	 7.821660479810105e+000
 8.279772383542029e-001	 2.517330668153723e+000	 7.816601874083456e+000
 8.032984586897338e-001	 2.525314155969867e+000	 7.810545910217341e+000
 7.786016349545272e-001	 2.533037602195769e+000	 7.804826560963848e+000
 7.538906289163110e-001	 2.540501706305546e+000	 7.800768348337456e+000
 7.291692693612184e-001	 2.547707239214755e+000	 7.799686446797289e+000
 9.846533480966987e-001	 2.487183705334621e+000	 8.472638002820574e+000
 9.599345571698887e-001	 2.496828117023545e+000	 8.213607712128090e+000
 9.351735553307278e-001	 2.506207377977277e+000	 8.103777074632721e+000
 9.103744057398758e-001	 2.515321737154508e+000	 8.055146788092179e+000
 8.855411484311674e-001	 2.524171522396048e+000	 8.007054083684793e+000
 8.606777985069464e-001	 2.532757139405634e+000	 7.960883201798143e+000
 8.357883443760058e-001	 2.541079070684818e+000	 7.918002865075541e+000
 8.108767460353409e-001	 2.549137874423776e+000	 7.879766482908275e+000
 7.859469333968487e-001	 2.556934183349918e+000	 7.847512368371205e+000
 7.610028046600279e-001	 2.564468703536173e+000	 7.822563964691026e+000
 7.360482247316361e-001	 2.571742213170885e+000	 7.806230078435538e+000
 9.938557158355471e-001	 2.510428412862785e+000	 8.623018617665942e+000
 9.689059081709385e-001	 2.520162959240560e+000	 8.513722451299300e+000
 9.439134950994733e-001	 2.529629876838852e+000	 8.407592792197873e+000
 9.188825777552759e-001	 2.538829416943069e+000	 8.306077645770762e+000
 8.938172339295064e-001	 2.547761910457955e+000	 8.210603195802962e+000
 8.687215162488298e-001	 2.556427766878871e+000	 8.122574080470381e+000
 8.435994503968872e-001	 2.564827473216728e+000	 8.043373692658985e+000
 8.184550333799922e-001	 2.572961592878435e+000	 7.974364501146559e+000
 7.932922318381895e-001	 2.580830764504741e+000	 7.916888389285825e+000
 7.681149804027495e-001	 2.588435700767387e+000	 7.872267007916542e+000
 7.429271801010537e-001	 2.595777187127509e+000	 7.841802139335989e+000
 1.003058083573891e+000	 2.533673120391951e+000	 9.062138154711173e+000
 9.778772591713881e-001	 2.543497801458570e+000	 8.890960329474028e+000
 9.526534348675341e-001	 2.553052375701406e+000	 8.728307574255029e+000
 9.273907497699170e-001	 2.562337096732584e+000	 8.575659023098989e+000
 9.020933194270221e-001	 2.571352298520781e+000	 8.434466093536205e+000
 8.767652339898353e-001	 2.580098394352981e+000	 8.306152869308397e+000
 8.514105564168467e-001	 2.588575875749455e+000	 8.192116513099752e+000
 8.260333207236869e-001	 2.596785311333844e+000	 8.093727705472666e+000
 8.006375302785497e-001	 2.604727345660237e+000	 8.012331106284705e+000
 7.752271561444761e-001	 2.612402697999191e+000	 7.949245834952406e+000
 7.498061354694716e-001	 2.619812161084627e+000	 7.905765966030505e+000
 1.012260451311729e+000	 2.556917827922117e+000	 9.513930520759715e+000
 9.868486101712383e-001	 2.566832643677576e+000	 9.282764035825986e+000
 9.613933746349105e-001	 2.576474874564940e+000	 9.065398216512095e+000
 9.358989217837993e-001	 2.585844776523053e+000	 8.863342258619225e+000
 9.103694049237148e-001	 2.594942686584524e+000	 8.678071794073309e+000
 8.848089517299635e-001	 2.603769021827962e+000	 8.511029381622187e+000
 8.592216624358849e-001	 2.612324278282999e+000	 8.363625033166912e+000
 8.336116080664260e-001	 2.620609029790004e+000	 8.237236771564961e+000
 8.079828287179296e-001	 2.628623926816410e+000	 8.133211215818442e+000
 7.823393318852077e-001	 2.636369695231585e+000	 8.052864189649862e+000
 7.566850908368894e-001	 2.643847135042238e+000	 7.997481349569434e+000
 6.878955371177123e-001	 2.403497395488342e+000	 7.137666873392840e+000
 6.645673118488593e-001	 2.410051926439911e+000	 7.107937823031471e+000
 6.412364442077186e-001	 2.416364174279133e+000	 7.080921052886649e+000
 6.179064445013768e-001	 2.422435061248221e+000	 7.011908932194690e+000
 5.945807864685845e-001	 2.428265572065930e+000	 6.839677207756894e+000
 5.712629060330331e-001	 2.433856752625838e+000	 6.669059699620621e+000
 5.479562001042996e-001	 2.439209708669709e+000	 6.502307441613509e+000
 5.246640254268117e-001	 2.444325604437782e+000	 6.341334979364730e+000
 5.013896974771256e-001	 2.449205661297807e+000	 6.187722585162570e+000
 4.781364894097321e-001	 2.453851156354649e+000	 6.042719171766433e+000
 4.549076310515292e-001	 2.458263421042266e+000	 5.907245880176439e+000
 6.947744924941302e-001	 2.427532369441510e+000	 7.364198099085439e+000
 6.712129849723891e-001	 2.434152445703129e+000	 7.386558415444302e+000
 6.476488086545391e-001	 2.440527816021247e+000	 7.419038795590917e+000
 6.240855089507384e-001	 2.446659411860499e+000	 7.457045268147637e+000
 6.005265943371260e-001	 2.452548227786828e+000	 7.367884735579751e+000
 5.769755350966310e-001	 2.458195320152748e+000	 7.290722259700647e+000
 5.534357621079269e-001	 2.463601805757440e+000	 7.227899812134273e+000
 5.299106656828870e-001	 2.468768860483547e+000	 7.181404970601983e+000
 5.064035944528335e-001	 2.473697717912495e+000	 7.152873301593985e+000
 4.829178543038030e-001	 2.478389667920199e+000	 7.143591470279688e+000
 4.594567073609638e-001	 2.482846055254957e+000	 7.154501051587381e+000
 7.016534478695476e-001	 2.451567343395171e+000	 7.561721136486071e+000
 6.778586580949291e-001	 2.458252964966745e+000	 7.636592459174334e+000
 6.540611731004010e-001	 2.464691457763677e+000	 7.729032093465924e+000
 6.302645733991933e-001	 2.470883762473018e+000	 7.840086453304114e+000
 6.064724022048327e-001	 2.476830883507902e+000	 7.864055532987242e+000
 5.826881641594863e-001	 2.482533887679780e+000	 7.880163342153179e+000
 5.589153241109239e-001	 2.487993902845249e+000	 7.921250983525635e+000
 5.351573059384638e-001	 2.493212116529355e+000	 7.989382095474862e+000
 5.114174914281945e-001	 2.498189774527202e+000	 8.086250234736717e+000
 4.876992191976983e-001	 2.502928179485755e+000	 8.061517404442721e+000
 4.640057836704129e-001	 2.507428689467647e+000	 7.939246059234320e+000
 7.085324032439653e-001	 2.475602317349326e+000	 7.731110942135282e+000
 6.845043312164796e-001	 2.482353484230761e+000	 7.858825724639502e+000
 6.604735375453047e-001	 2.488855099506419e+000	 8.011601204776573e+000
 6.364436378467412e-001	 2.495108113085776e+000	 8.190550754389902e+000
 6.124182100717045e-001	 2.501113539229152e+000	 8.301617681340558e+000
 5.884007932215989e-001	 2.506872455206933e+000	 8.239176437410327e+000
 5.643948861132904e-001	 2.512385999933136e+000	 8.165160102416300e+000
 5.404039461935422e-001	 2.517655372575207e+000	 8.078645071864170e+000
 5.164313884032087e-001	 2.522681831141930e+000	 7.978926182834932e+000
 4.924805840914177e-001	 2.527466691051314e+000	 7.865513143761568e+000
 4.685548599798770e-001	 2.532011323680339e+000	 7.738126601340350e+000
 7.154113586173831e-001	 2.499637291303976e+000	 7.873237753945220e+000
 6.911500043370404e-001	 2.506454003495176e+000	 7.978269280862234e+000
 6.668859019892492e-001	 2.513018741249476e+000	 8.066619774841632e+000
 6.426227022933821e-001	 2.519332463698774e+000	 8.142330849473764e+000
 6.183640179377414e-001	 2.525396194950578e+000	 8.172648101261478e+000
 5.941134222829687e-001	 2.531211022734208e+000	 8.102661965164934e+000
 5.698744481150263e-001	 2.536778097021101e+000	 8.021611665657705e+000
 5.456505864481219e-001	 2.542098628621103e+000	 7.928540730370804e+000
 5.214452853778759e-001	 2.547173887756675e+000	 7.822715876082605e+000
 4.972619489849617e-001	 2.552005202616879e+000	 7.703623381381116e+000
 4.731039362893555e-001	 2.556593957893029e+000	 7.570965086903401e+000
 7.222903139898008e-001	 2.523672265259119e+000	 7.822804193575445e+000
 6.977956774566120e-001	 2.530554522759990e+000	 7.901098579808760e+000
 6.732982664322361e-001	 2.537182382992848e+000	 7.969206997647547e+000
 6.488017667391163e-001	 2.543556814312013e+000	 8.028199949485734e+000
 6.243098258029436e-001	 2.549678850672180e+000	 8.075802696009738e+000
 5.998260513435958e-001	 2.555549590261605e+000	 7.999066744471834e+000
 5.753540101161317e-001	 2.561170194109143e+000	 7.911585363741269e+000
 5.508972267022031e-001	 2.566541884667042e+000	 7.812368861021910e+000
 5.264591823521964e-001	 2.571665944371441e+000	 7.700655703315761e+000
 5.020433138783298e-001	 2.576543714182449e+000	 7.575908829395978e+000
 4.776530125988488e-001	 2.581176592105721e+000	 7.437811579514259e+000
 7.291692693612184e-001	 2.547707239214755e+000	 7.799686446797289e+000
 7.044413505751935e-001	 2.554655042025202e+000	 7.855449450404898e+000
 6.797106308742640e-001	 2.561346024736534e+000	 7.904486509147508e+000
 6.549808311839437e-001	 2.567781164925491e+000	 7.947870780912207e+000
 6.302556336673104e-001	 2.573961506393957e+000	 7.986681392953606e+000
 6.055386804034801e-001	 2.579888157789124e+000	 7.928497592521977e+000
 5.808335721166065e-001	 2.585562291197262e+000	 7.835177707359233e+000
 5.561438669557858e-001	 2.590985140713024e+000	 7.730215774579816e+000
 5.314730793261701e-001	 2.596158000986225e+000	 7.612821870301657e+000
 5.068246787715222e-001	 2.601082225748022e+000	 7.482435672995718e+000
 4.822020889083566e-001	 2.605759226318411e+000	 7.338722318789077e+000
 7.360482247316361e-001	 2.571742213170885e+000	 7.806230078435538e+000
 7.110870236927857e-001	 2.578755561290814e+000	 7.840683220384869e+000
 6.861229953153335e-001	 2.585509666480533e+000	 7.871812076481767e+000
 6.611598956278639e-001	 2.592005515539210e+000	 7.900691585325309e+000
 6.362014415308428e-001	 2.598244162115910e+000	 7.928399624197383e+000
 6.112513094626219e-001	 2.604226725316765e+000	 7.891063140758073e+000
 5.863131341164509e-001	 2.609954388285460e+000	 7.792487981188788e+000
 5.613905072088702e-001	 2.615428396759051e+000	 7.682171442721791e+000
 5.364869762997969e-001	 2.620650057601029e+000	 7.559295058083734e+000
 5.116060436645389e-001	 2.625620737313602e+000	 7.423275314712162e+000
 4.867511652178794e-001	 2.630341860531103e+000	 7.273759431769902e+000
 7.429271801010537e-001	 2.595777187127509e+000	 7.841802139335989e+000
 7.177326968093882e-001	 2.602856080556824e+000	 7.856158589068370e+000
 6.925353597554443e-001	 2.609673308224849e+000	 7.870536032879663e+000
 6.673389600708776e-001	 2.616229866153168e+000	 7.886010294947926e+000
 6.421472493935400e-001	 2.622526817838040e+000	 7.903657148014586e+000
 6.169639385210209e-001	 2.628565292844528e+000	 7.886873750881792e+000
 5.917926961156648e-001	 2.634346485373736e+000	 7.783618115467839e+000
 5.666371474614558e-001	 2.639871652805121e+000	 7.668329328553948e+000
 5.415008732730768e-001	 2.645142114215853e+000	 7.540160215793081e+000
 5.163874085573799e-001	 2.650159248879186e+000	 7.398504132876147e+000
 4.913002415274165e-001	 2.654924494743793e+000	 7.242990660359085e+000
 7.498061354694716e-001	 2.619812161084627e+000	 7.905765966030505e+000
 7.243783699250013e-001	 2.626956599823234e+000	 7.901231747929971e+000
 6.989477241945968e-001	 2.633836949969477e+000	 7.900009343435392e+000
 6.735180245129840e-001	 2.640454216767367e+000	 7.903174546843927e+000
 6.480930572554026e-001	 2.646809473560346e+000	 7.911800150551452e+000
 6.226765675786771e-001	 2.652903860372412e+000	 7.916041435483471e+000
 5.972722581142479e-001	 2.658738582462089e+000	 7.808672564638005e+000
 5.718837877135431e-001	 2.664314908851234e+000	 7.688786226453208e+000
 5.465147702460100e-001	 2.669634170830696e+000	 7.555506364864594e+000
 5.211687734500450e-001	 2.674697760444775e+000	 7.408203253369809e+000
 4.958493178369686e-001	 2.679507128956484e+000	 7.246489103756100e+000
 7.566850908368894e-001	 2.643847135042238e+000	 7.997481349569434e+000
 7.310240430396248e-001	 2.651057119090043e+000	 7.975256494592219e+000
 7.053600886327910e-001	 2.658000591714422e+000	 7.959581667295748e+000
 6.796970889541841e-001	 2.664678567381807e+000	 7.951531696334354e+000
 6.540388651164302e-001	 2.671092129282827e+000	 7.952175496777648e+000
 6.283891966355909e-001	 2.677242427900419e+000	 7.962576463132326e+000
 6.027518201122010e-001	 2.683130679550521e+000	 7.867758192608819e+000
 5.771304279651321e-001	 2.688758164897392e+000	 7.743642110646495e+000
 5.515286672185965e-001	 2.694126227445559e+000	 7.605426413932277e+000
 5.259501383425347e-001	 2.699236272010369e+000	 7.452458333828555e+000
 5.003983941465354e-001	 2.704089763169176e+000	 7.284332974944883e+000
 4.549076310515292e-001	 2.458263421042266e+000	 5.907245880176439e+000
 4.317063079453936e-001	 2.462443839700501e+000	 5.852395374873522e+000
 4.085356604418978e-001	 2.466393848136456e+000	 5.811273224829772e+000
 3.853987828395767e-001	 2.470114932173584e+000	 5.784045265401907e+000
 3.622987225744604e-001	 2.473608626191484e+000	 5.770562366848123e+000
 3.392384794576842e-001	 2.476876511656140e+000	 5.770366956646739e+000
 3.162210049612340e-001	 2.479920215642903e+000	 5.782700055840117e+000
 2.932492015515172e-001	 2.482741409353889e+000	 5.806508798597771e+000
 2.703259220703973e-001	 2.485341806631373e+000	 5.840454403839529e+000
 2.474539691632788e-001	 2.487723162468773e+000	 5.882920567519944e+000
 2.246360947537655e-001	 2.489887271520747e+000	 5.932022244038757e+000
 4.594567073609638e-001	 2.482846055254957e+000	 7.154501051587381e+000
 4.360233710227999e-001	 2.487068278099993e+000	 7.266415243214043e+000
 4.126210170435670e-001	 2.491057786620465e+000	 7.403286533900899e+000
 3.892527706647824e-001	 2.494816081498056e+000	 7.565252150633125e+000
 3.659217097968348e-001	 2.498344712456170e+000	 7.752117601238828e+000
 3.426308642489678e-001	 2.501645276775445e+000	 7.804492360790357e+000
 3.193832150078855e-001	 2.504719417801990e+000	 7.702347551923454e+000
 2.961816935646566e-001	 2.507568823449939e+000	 7.593255202215510e+000
 2.730291812895607e-001	 2.510195224699992e+000	 7.478580451876250e+000
 2.499285088544538e-001	 2.512600394095503e+000	 7.359835701171630e+000
 2.268824557021734e-001	 2.514786144237676e+000	 7.238674405786580e+000
 4.640057836704129e-001	 2.507428689467647e+000	 7.939246059234320e+000
 4.403404341004001e-001	 2.511692716499485e+000	 7.892490939580639e+000
 4.167063736455675e-001	 2.515721725104473e+000	 7.835708438614612e+000
 3.931067584904162e-001	 2.519517230822531e+000	 7.769434234621709e+000
 3.695446970196927e-001	 2.523080798720857e+000	 7.694382991520504e+000
 3.460232490407508e-001	 2.526414041894752e+000	 7.611442997182697e+000
 3.225454250550116e-001	 2.529518619961077e+000	 7.521670572566742e+000
 2.991141855782062e-001	 2.532396237545989e+000	 7.426284270777639e+000
 2.757324405090309e-001	 2.535048642768612e+000	 7.326658885131016e+000
 2.524030485457932e-001	 2.537477625722233e+000	 7.224319285206013e+000
 2.291288166505648e-001	 2.539685016954604e+000	 7.120934099722082e+000
 4.685548599798770e-001	 2.532011323680339e+000	 7.738126601340350e+000
 4.446574971781941e-001	 2.536317154898977e+000	 7.696989191957310e+000
 4.207917302478996e-001	 2.540385663588481e+000	 7.646952169916254e+000
 3.969607463164778e-001	 2.544218380147005e+000	 7.588546228064808e+000
 3.731676842430345e-001	 2.547816884985543e+000	 7.522484553777053e+000
 3.494156338330328e-001	 2.551182807014058e+000	 7.449657375027615e+000
 3.257076351026121e-001	 2.554317822120163e+000	 7.371126271145460e+000
 3.020466775921660e-001	 2.557223651642039e+000	 7.288118267806000e+000
 2.784356997288076e-001	 2.559902060837231e+000	 7.202019735781812e+000
 2.548775882372969e-001	 2.562354857348963e+000	 7.114370112879103e+000
 2.313751775989394e-001	 2.564583889671531e+000	 7.026855468340951e+000
 4.731039362893555e-001	 2.556593957893029e+000	 7.570965086903401e+000
 4.489745602561820e-001	 2.560941593298469e+000	 7.535302827143521e+000
 4.248770868505629e-001	 2.565049602072488e+000	 7.491665795309582e+000
 4.008147341429674e-001	 2.568919529471479e+000	 7.440580657878570e+000
 3.767906714668599e-001	 2.572552971250230e+000	 7.382760287716898e+000
 3.528080186258139e-001	 2.575951572133364e+000	 7.319098212725241e+000
 3.288698451506871e-001	 2.579117024279251e+000	 7.250662822839338e+000
 3.049791696065360e-001	 2.582051065738089e+000	 7.178691355394839e+000
 2.811389589488911e-001	 2.584755478905851e+000	 7.104583678839187e+000
 2.573521279289648e-001	 2.587232088975693e+000	 7.029895894678301e+000
 2.336215385472976e-001	 2.589482762388461e+000	 6.956333777393997e+000
 4.776530125988488e-001	 2.581176592105721e+000	 7.437811579514259e+000
 4.532916233343635e-001	 2.585566031697960e+000	 7.407465519240460e+000
 4.289624434535578e-001	 2.589713540556496e+000	 7.369867069457410e+000
 4.046687219698851e-001	 2.593620678795953e+000	 7.325539821978202e+000
 3.804136586911692e-001	 2.597289057514916e+000	 7.275197490656346e+000
 3.562004034190940e-001	 2.600720337252670e+000	 7.219738257409747e+000
 3.320320551992365e-001	 2.603916226438336e+000	 7.160238870070685e+000
 3.079116616213161e-001	 2.606878479834139e+000	 7.097948512548612e+000
 2.838422181692811e-001	 2.609608896974470e+000	 7.034282467758775e+000
 2.598266676207969e-001	 2.612109320602423e+000	 6.970815593681758e+000
 2.358678994956391e-001	 2.614381635105389e+000	 6.909275632762109e+000
 4.822020889083566e-001	 2.605759226318411e+000	 7.338722318789077e+000
 4.576086864127388e-001	 2.610190470097453e+000	 7.313517968153159e+000
 4.330478000568840e-001	 2.614377479040504e+000	 7.281581535191000e+000
 4.085227097972305e-001	 2.618321828120427e+000	 7.243434481865511e+000
 3.840366459159620e-001	 2.622025143779603e+000	 7.199792512485301e+000
 3.595927882128733e-001	 2.625489102371976e+000	 7.151559811895615e+000
 3.351942652482605e-001	 2.628715428597424e+000	 7.099823028765590e+000
 3.108441536365066e-001	 2.631705893930189e+000	 7.045845024950764e+000
 2.865454773899778e-001	 2.634462315043089e+000	 6.991058411873306e+000
 2.623012073127933e-001	 2.636986552229153e+000	 6.937058894775305e+000
 2.381142604439641e-001	 2.639280507822317e+000	 6.885598445543119e+000
 4.867511652178794e-001	 2.630341860531103e+000	 7.273759431769902e+000
 4.619257494913080e-001	 2.634814908496944e+000	 7.253507571282385e+000
 4.371331566605418e-001	 2.639041417524512e+000	 7.226842159576827e+000
 4.123766976250038e-001	 2.643022977444900e+000	 7.194283467134553e+000
 3.876596331412386e-001	 2.646761230044289e+000	 7.156550332648771e+000
 3.629851730071516e-001	 2.650257867491282e+000	 7.114554288150848e+000
 3.383564752977588e-001	 2.653514630756510e+000	 7.069393422303231e+000
 3.137766456521071e-001	 2.656533308026239e+000	 7.022346003343180e+000
 2.892487366109812e-001	 2.659315733111709e+000	 6.974863883126945e+000
 2.647757470049540e-001	 2.661863783855882e+000	 6.928565703634330e+000
 2.403606213922725e-001	 2.664179380539246e+000	 6.885229927136257e+000
 4.913002415274165e-001	 2.654924494743793e+000	 7.242990660359085e+000
 4.662428125700708e-001	 2.659439346896436e+000	 7.227488113454854e+000
 4.412185132645307e-001	 2.663705356008520e+000	 7.205688990201535e+000
 4.162306854532054e-001	 2.667724126769375e+000	 7.178113301948770e+000
 3.912826203669990e-001	 2.671497316308976e+000	 7.145484160630823e+000
 3.663775578019290e-001	 2.675026632610588e+000	 7.108721785576247e+000
 3.415186853477317e-001	 2.678313832915596e+000	 7.068937241355117e+000
 3.167091376681179e-001	 2.681360722122289e+000	 7.027425928662298e+000
 2.919519958322911e-001	 2.684169151180329e+000	 6.985660850214389e+000
 2.672502866972790e-001	 2.686741015482613e+000	 6.945285673538130e+000
 2.426069823405643e-001	 2.689078253256174e+000	 6.908107612375830e+000
 4.958493178369686e-001	 2.679507128956484e+000	 7.246489103756100e+000
 4.705598756490275e-001	 2.684063785295928e+000	 7.235519473922676e+000
 4.453038698688512e-001	 2.688369294492528e+000	 7.218168830377785e+000
 4.200846732818347e-001	 2.692425276093848e+000	 7.194957852079515e+000
 3.949056075932431e-001	 2.696233402573662e+000	 7.166615058429888e+000
 3.697699425972056e-001	 2.699795397729895e+000	 7.134070692500156e+000
 3.446808953981790e-001	 2.703113035074684e+000	 7.098450327955001e+000
 3.196416296845388e-001	 2.706188136218339e+000	 7.061068222213676e+000
 2.946552550539079e-001	 2.709022569248949e+000	 7.023420438362032e+000
 2.697248263897681e-001	 2.711618247109342e+000	 6.987177758233035e+000
 2.448533432888395e-001	 2.713977125973103e+000	 6.954178408914943e+000
 5.003983941465354e-001	 2.704089763169176e+000	 7.284332974944883e+000
 4.748769387281781e-001	 2.708688223695421e+000	 7.277667349343124e+000
 4.493892264735033e-001	 2.713033232976536e+000	 7.264334932065756e+000
 4.239386611108921e-001	 2.717126425418323e+000	 7.244857991195765e+000
 3.985285948199710e-001	 2.720969488838350e+000	 7.219971583626253e+000
 3.731623273929815e-001	 2.724564162849201e+000	 7.190617309408393e+000
 3.478431054491009e-001	 2.727912237233771e+000	 7.157936782255067e+000
 3.225741217013700e-001	 2.731015550314390e+000	 7.123264839291686e+000
 2.973585142758312e-001	 2.733875987317568e+000	 7.088122513122813e+000
 2.721993660824217e-001	 2.736495478736074e+000	 7.054209789183323e+000
 2.470997042370982e-001	 2.738875998690031e+000	 7.023398171188751e+000
 2.246360947537655e-001	 2.489887271520747e+000	 5.932022244038757e+000
 2.018749995641979e-001	 2.491835966613445e+000	 6.015922037578978e+000
 1.791733326820581e-001	 2.493571117257746e+000	 6.109720203242077e+000
 1.565336911712550e-001	 2.495094628165966e+000	 6.210724715139953e+000
 1.339586197272678e-001	 2.496408437772546e+000	 6.316006021898412e+000
 1.114506103760078e-001	 2.497514516761370e+000	 6.422407540942264e+000
 8.901210221548951e-002	 2.498414866600589e+000	 6.526556357405047e+000
 6.664548119953342e-002	 2.499111518086177e+000	 6.624874097381850e+000
 4.435307996270441e-002	 2.499606529895403e+000	 6.713587945808738e+000
 2.213717768565395e-002	 2.499901987151415e+000	 6.788741779897674e+000
 0.000000000000000e+000	 2.500000000000000e+000	 6.846207389752510e+000
 2.268824557021734e-001	 2.514786144237676e+000	 7.238674405786580e+000
 2.038937495620015e-001	 2.516754326280969e+000	 7.146559069689651e+000
 1.809650660120170e-001	 2.518506828431417e+000	 7.059667552825042e+000
 1.580990280867710e-001	 2.520045574448461e+000	 6.980017493019883e+000
 1.352982059287006e-001	 2.521372522150883e+000	 6.909736915479640e+000
 1.125651164839795e-001	 2.522489661929406e+000	 6.851057698961927e+000
 8.990222324160513e-002	 2.523399015266865e+000	 6.806308999445417e+000
 6.731193601493965e-002	 2.524102633267190e+000	 6.777910647140224e+000
 4.479661076489676e-002	 2.524602595194425e+000	 6.768366532220766e+000
 2.235854946393773e-002	 2.524901007022946e+000	 6.780257994169004e+000
 0.000000000000000e+000	 2.525000000000000e+000	 6.816237229091630e+000
 2.291288166505648e-001	 2.539685016954604e+000	 7.120934099722082e+000
 2.059124995596093e-001	 2.541672685948493e+000	 7.047136751242389e+000
 1.827567993416422e-001	 2.543442539605088e+000	 6.976182162389488e+000
 1.596643650018564e-001	 2.544996520730955e+000	 6.910146151222196e+000
 1.366377921296462e-001	 2.546336606529218e+000	 6.851219563382677e+000
 1.136796225914473e-001	 2.547464807097442e+000	 6.801701521880758e+000
 9.079234426724010e-002	 2.548383163933141e+000	 6.763992632164250e+000
 6.797839082992760e-002	 2.549093748448203e+000	 6.740588158849841e+000
 4.524014156677202e-002	 2.549598660493445e+000	 6.734071190008054e+000
 2.257992124204399e-002	 2.549900026894477e+000	 6.747105804389014e+000
 0.000000000000000e+000	 2.550000000000000e+000	 6.782430256436645e+000
 2.313751775989394e-001	 2.564583889671531e+000	 7.026855468340951e+000
 2.079312495570213e-001	 2.566591045616016e+000	 6.969074886216713e+000
 1.845485326709337e-001	 2.568378250778760e+000	 6.911644941003116e+000
 1.612297019165109e-001	 2.569947467013449e+000	 6.856701671111526e+000
 1.379773783301045e-001	 2.571300690907556e+000	 6.806500896819067e+000
 1.147941286984114e-001	 2.572439952265480e+000	 6.763411248359295e+000
 9.168246529239445e-002	 2.573367312599417e+000	 6.729907147045875e+000
 6.864484564449729e-002	 2.574084863629215e+000	 6.708561756341035e+000
 4.568367236833022e-002	 2.574594725792466e+000	 6.702039919290725e+000
 2.280129301997274e-002	 2.574899046766007e+000	 6.713091098221084e+000
 0.000000000000000e+000	 2.575000000000000e+000	 6.744542332035780e+000
 2.336215385472976e-001	 2.589482762388461e+000	 6.956333777393997e+000
 2.099499995542375e-001	 2.591509405283540e+000	 6.912262804258409e+000
 1.863402659998916e-001	 2.593313961952431e+000	 6.865937654637888e+000
 1.627950388307349e-001	 2.594898413295944e+000	 6.819556646593171e+000
 1.393169645300756e-001	 2.596264775285893e+000	 6.775442749837350e+000
 1.159086348048716e-001	 2.597415097433516e+000	 6.736036386772187e+000
 9.257258631706813e-002	 2.598351461265692e+000	 6.703888184256032e+000
 6.931130045864874e-002	 2.599075978810228e+000	 6.681651693571653e+000
 4.612720316957133e-002	 2.599590791091487e+000	 6.672076095549583e+000
 2.302266479772398e-002	 2.599898066637537e+000	 6.677998907260657e+000
 0.000000000000000e+000	 2.600000000000000e+000	 6.702338706128587e+000
 2.358678994956391e-001	 2.614381635105389e+000	 6.909275632762109e+000
 2.119687495512579e-001	 2.616427764951064e+000	 6.876600948665743e+000
 1.881319993285157e-001	 2.618249673126103e+000	 6.838952953172450e+000
 1.643603757445280e-001	 2.619849359578438e+000	 6.798594322586421e+000
 1.406565507295593e-001	 2.621228859664228e+000	 6.757917371582898e+000
 1.170231409108281e-001	 2.622390242601553e+000	 6.719436621768913e+000
 9.346270734126122e-002	 2.623335609931968e+000	 6.685781318632531e+000
 6.997775527238191e-002	 2.624067093991241e+000	 6.659687914908636e+000
 4.657073397049537e-002	 2.624586856390508e+000	 6.643992537868454e+000
 2.324403657529772e-002	 2.624897086509069e+000	 6.641623457480110e+000
 0.000000000000000e+000	 2.625000000000000e+000	 6.655593571802828e+000
 2.381142604439641e-001	 2.639280507822317e+000	 6.885598445543119e+000
 2.139874995480826e-001	 2.641346124618587e+000	 6.862000352161613e+000
 1.899237326568062e-001	 2.643185384299774e+000	 6.830593857001075e+000
 1.659257126578905e-001	 2.644800305860932e+000	 6.793708092618683e+000
 1.419961369285558e-001	 2.646192944042565e+000	 6.753806935018684e+000
 1.181376470162809e-001	 2.647365387769589e+000	 6.713481334262001e+000
 9.435282836497362e-002	 2.648319758598243e+000	 6.675441591069744e+000
 7.064421008569682e-002	 2.649058209172255e+000	 6.642509598031717e+000
 4.701426477110234e-002	 2.649582921689528e+000	 6.617611063481511e+000
 2.346540835269394e-002	 2.649896106380600e+000	 6.603767735532128e+000
 0.000000000000000e+000	 2.650000000000000e+000	 6.604089643162391e+000
 2.403606213922725e-001	 2.664179380539246e+000	 6.885229927136257e+000
 2.160062495447116e-001	 2.666264484286111e+000	 6.868382142059231e+000
 1.917154659847630e-001	 2.668121095473445e+000	 6.840773272429352e+000
 1.674910495708223e-001	 2.669751252143427e+000	 6.804801024590866e+000
 1.433357231270650e-001	 2.671157028420902e+000	 6.763003073196991e+000
 1.192521531212298e-001	 2.672340532937625e+000	 6.718049148329516e+000
 9.524294938820538e-002	 2.673303907264518e+000	 6.672733066178035e+000
 7.131066489859349e-002	 2.674049324353268e+000	 6.629964722471099e+000
 4.745779557139222e-002	 2.674578986988549e+000	 6.592762067298541e+000
 2.368678012991264e-002	 2.674895126252130e+000	 6.564243079371026e+000
 0.000000000000000e+000	 2.675000000000000e+000	 6.547617757148747e+000
 2.426069823405643e-001	 2.689078253256174e+000	 6.908107612375830e+000
 2.180249995411448e-001	 2.691182843953635e+000	 6.895677072920482e+000
 1.935071993123861e-001	 2.693056806647117e+000	 6.869413533993114e+000
 1.690563864833233e-001	 2.694702198425921e+000	 6.831785412890667e+000
 1.446753093250869e-001	 2.696121112799239e+000	 6.785406441291160e+000
 1.203666592256749e-001	 2.697315678105662e+000	 6.733027503291708e+000
 9.613307041095653e-002	 2.698288055930794e+000	 6.677528414520306e+000
 7.197711971107187e-002	 2.699040439534281e+000	 6.621909662114200e+000
 4.790132637136506e-002	 2.699575052287571e+000	 6.569284124790304e+000
 2.390815190695384e-002	 2.699894146123661e+000	 6.522868791619136e+000
 0.000000000000000e+000	 2.699999999999999e+000	 6.485976497483716e+000
 2.448533432888395e-001	 2.713977125973103e+000	 6.954178408914943e+000
 2.200437495373822e-001	 2.716101203621158e+000	 6.943825084939639e+000
 1.952989326396756e-001	 2.717992517820788e+000	 6.916445971971426e+000
 1.706217233953936e-001	 2.719653144708416e+000	 6.874582355158311e+000
 1.460148955226215e-001	 2.721085197177575e+000	 6.820926302737528e+000
 1.214811653296163e-001	 2.722290823273699e+000	 6.758312249341720e+000
 9.702319143322702e-002	 2.723272204597070e+000	 6.689708517842631e+000
 7.264357452313200e-002	 2.724031554715293e+000	 6.618208800143099e+000
 4.834485717102078e-002	 2.724571117586591e+000	 6.547023616733966e+000
 2.412952368381753e-002	 2.724893165995192e+000	 6.479471774214611e+000
 0.000000000000000e+000	 2.724999999999999e+000	 6.418971839312381e+000
 2.470997042370982e-001	 2.738875998690031e+000	 7.023398171188751e+000
 2.220624995334239e-001	 2.741019563288683e+000	 7.012774886413421e+000
 1.970906659666314e-001	 2.742928228994460e+000	 6.981810503488886e+000
 1.721870603070332e-001	 2.744604090990911e+000	 6.933121352139231e+000
 1.473544817196688e-001	 2.746049281555912e+000	 6.869480137950547e+000
 1.225956714330539e-001	 2.747265968441736e+000	 6.793807265233087e+000
 9.791331245501693e-002	 2.748256353263346e+000	 6.709162095839862e+000
 7.331002933477392e-002	 2.749022669896307e+000	 6.618734164975667e+000
 4.878838797035946e-002	 2.749567182885613e+000	 6.525834374425554e+000
 2.435089546050372e-002	 2.749892185866723e+000	 6.433886182988658e+000
 0.000000000000000e+000	 2.750000000000000e+000	 6.346416813229529e+000
 2.750000000000000e+000	 0.000000000000000e+000	 1.073972631558001e+001
 2.749892185866724e+000	 2.435089546050380e-002	 1.083952464760376e+001
 2.749567182885613e+000	 4.878838797035964e-002	 1.092146233357116e+001
 2.749022669896307e+000	 7.331002933477374e-002	 1.098806286574504e+001
 2.748256353263346e+000	 9.791331245501686e-002	 1.104195639617532e+001
 2.747265968441735e+000	 1.225956714330539e-001	 1.108587613876548e+001
 2.746049281555912e+000	 1.473544817196689e-001	 1.112265442238236e+001
 2.744604090990912e+000	 1.721870603070334e-001	 1.115521839223693e+001
 2.742928228994461e+000	 1.970906659666313e-001	 1.118658535762439e+001
 2.741019563288683e+000	 2.220624995334238e-001	 1.121985778501797e+001
 2.738875998690032e+000	 2.470997042370982e-001	 1.125821793645433e+001
 2.775000000000000e+000	 0.000000000000000e+000	 1.081671997335750e+001
 2.774891205738252e+000	 2.457226723710123e-002	 1.091252969503976e+001
 2.774563248184625e+000	 4.923191876953977e-002	 1.098933928692359e+001
 2.774013785077298e+000	 7.397648414620646e-002	 1.104992871925862e+001
 2.773240501929583e+000	 9.880343347656641e-002	 1.109719151641593e+001
 2.772241113609713e+000	 1.237101775362395e-001	 1.113413097163048e+001
 2.771013365934162e+000	 1.486940679164726e-001	 1.116385599628573e+001
 2.769555037273286e+000	 1.737523972184576e-001	 1.118957660082598e+001
 2.767863940167976e+000	 1.988823992934202e-001	 1.121459900527905e+001
 2.765937922956008e+000	 2.240812495293676e-001	 1.124232037831314e+001
 2.763774871406714e+000	 2.493460651853486e-001	 1.127622320473446e+001
 2.800000000000000e+000	 0.000000000000000e+000	 1.088211933911609e+001
 2.799890225609775e+000	 2.479363901369865e-002	 1.097487223023200e+001
 2.799559313483616e+000	 4.967544956871989e-002	 1.104744982202549e+001
 2.799004900258245e+000	 7.464293895763922e-002	 1.110289040021679e+001
 2.798224650595743e+000	 9.969355449811596e-002	 1.114435277771946e+001
 2.797216258777568e+000	 1.248246836394252e-001	 1.117511232014752e+001
 2.795977450312236e+000	 1.500336541132763e-001	 1.119855658915497e+001
 2.794505983555422e+000	 1.753177341298819e-001	 1.121818060055011e+001
 2.792799651341178e+000	 2.006741326202092e-001	 1.123758169505991e+001
 2.790856282622937e+000	 2.260999995253114e-001	 1.126045402059686e+001
 2.788673744122905e+000	 2.515924261335989e-001	 1.129058262590160e+001
 2.825000000000000e+000	 0.000000000000000e+000	 1.093730316763598e+001
 2.824889245481293e+000	 2.501501079029607e-002	 1.102769735670883e+001
 2.824555378782589e+000	 5.011898036790001e-002	 1.109670441249770e+001
 2.823996015439152e+000	 7.530939376907195e-002	 1.114762287457181e+001
 2.823208799261825e+000	 1.005836755196655e-001	 1.118387886394047e+001
 2.822191403945302e+000	 1.259391897426109e-001	 1.120902191736626e+001
 2.820941534690137e+000	 1.513732403100800e-001	 1.122672042258738e+001
 2.819456929837322e+000	 1.768830710413061e-001	 1.124075665124925e+001
 2.817735362514068e+000	 2.024658659469981e-001	 1.125502138730894e+001
 2.815774642289468e+000	 2.281187495212551e-001	 1.127350814969353e+001
 2.813572616838604e+000	 2.538387870818492e-001	 1.130030700905169e+001
 2.850000000000000e+000	 0.000000000000000e+000	 1.098360183633672e+001
 2.849888265352808e+000	 2.523638256689349e-002	 1.107210664016080e+001
 2.849551444081544e+000	 5.056251116708015e-002	 1.113797484372677e+001
 2.848987130620012e+000	 7.597584858050469e-002	 1.118476727800774e+001
 2.848192947927832e+000	 1.014737965412150e-001	 1.121617949324231e+001
 2.847166549112915e+000	 1.270536958457965e-001	 1.123603740004747e+001
 2.845905619067861e+000	 1.527128265068837e-001	 1.124829249430312e+001
 2.844407876118980e+000	 1.784484079527304e-001	 1.125701666245917e+001
 2.842671073686645e+000	 2.042575992737870e-001	 1.126639656491938e+001
 2.840693001955603e+000	 2.301374995171989e-001	 1.128072759620860e+001
 2.838471489553812e+000	 2.560851480300996e-001	 1.130440742172863e+001
 2.875000000000000e+000	 0.000000000000000e+000	 1.102229944864074e+001
 2.874887285224318e+000	 2.545775434349091e-002	 1.110916000138997e+001
 2.874547509380478e+000	 5.100604196626029e-002	 1.117209589496239e+001
 2.873978245800831e+000	 7.664230339193742e-002	 1.121493238682220e+001
 2.873177096593761e+000	 1.023639175627646e-001	 1.124163667747481e+001
 2.872141694280408e+000	 1.281682019489822e-001	 1.125631335632818e+001
 2.870869703445413e+000	 1.540524127036874e-001	 1.126319941396635e+001
 2.869358822400401e+000	 1.800137448641546e-001	 1.126665881733785e+001
 2.867606784858911e+000	 2.060493326005760e-001	 1.127117664539860e+001
 2.865611361621340e+000	 2.321562495131426e-001	 1.128135278384210e+001
 2.863370362268527e+000	 2.583315089783499e-001	 1.130189517868731e+001
 2.900000000000000e+000	 0.000000000000000e+000	 1.105463582854226e+001
 2.899886305095822e+000	 2.567912612008834e-002	 1.113987751134844e+001
 2.899543574679393e+000	 5.144957276544040e-002	 1.119986693440930e+001
 2.898969360981606e+000	 7.730875820337015e-002	 1.123869601272711e+001
 2.898161245259613e+000	 1.032540385843141e-001	 1.126060591641235e+001
 2.897116839447780e+000	 1.292827080521679e-001	 1.126998231919643e+001
 2.895833787822788e+000	 1.553919989004911e-001	 1.127135019577347e+001
 2.894309768681584e+000	 1.815790817755789e-001	 1.126936816431955e+001
 2.892542496030862e+000	 2.078410659273649e-001	 1.126882237161758e+001
 2.890529721286680e+000	 2.341749995090864e-001	 1.127461991934177e+001
 2.888269234982751e+000	 2.605778699266002e-001	 1.129178183123809e+001
 2.925000000000000e+000	 0.000000000000000e+000	 1.108180841289036e+001
 2.924885324967321e+000	 2.590049789668575e-002	 1.116524109412329e+001
 2.924539639978291e+000	 5.189310356462054e-002	 1.122205343252004e+001
 2.923960476162338e+000	 7.797521301480291e-002	 1.125660632612175e+001
 2.923145393925387e+000	 1.041441596058637e-001	 1.127341733074804e+001
 2.922091984615031e+000	 1.303972141553536e-001	 1.127715570901951e+001
 2.920797872199990e+000	 1.567315850972948e-001	 1.127263701039649e+001
 2.919260714962528e+000	 1.831444186870031e-001	 1.126481717842795e+001
 2.917478207202502e+000	 2.096327992541539e-001	 1.125878618252193e+001
 2.915448080951624e+000	 2.361937495050301e-001	 1.125976117271456e+001
 2.913168107696484e+000	 2.628242308748505e-001	 1.127307915713742e+001
 2.949999999999999e+000	 0.000000000000000e+000	 1.110497404745454e+001
 2.949884344838818e+000	 2.612186967328318e-002	 1.118619614332910e+001
 2.949535705277168e+000	 5.233663436380066e-002	 1.123938839834006e+001
 2.948951591343028e+000	 7.864166782623562e-002	 1.126918311208061e+001
 2.948129542591084e+000	 1.050342806274132e-001	 1.128037673747894e+001
 2.947067129782162e+000	 1.315117202585392e-001	 1.127792472814606e+001
 2.945761956577017e+000	 1.580711712940985e-001	 1.126693589869145e+001
 2.944211661243234e+000	 1.847097555984273e-001	 1.125266629404755e+001
 2.942413918373829e+000	 2.114245325809428e-001	 1.124051256499296e+001
 2.940366440616171e+000	 2.382124995009739e-001	 1.123600484827493e+001
 2.938066980409724e+000	 2.650705918231008e-001	 1.124479915099285e+001
 2.974999999999999e+000	 0.000000000000000e+000	 1.112525069243239e+001
 2.974883364710307e+000	 2.634324144988059e-002	 1.120365305700172e+001
 2.974531770576026e+000	 5.278016516298079e-002	 1.125257374343268e+001
 2.973942706523673e+000	 7.930812263766840e-002	 1.127691896301382e+001
 2.973113691256705e+000	 1.059244016489628e-001	 1.128176667106951e+001
 2.972042274949171e+000	 1.326262263617249e-001	 1.127236121040283e+001
 2.970726040953869e+000	 1.594107574909022e-001	 1.125410744942200e+001
 2.969162607523700e+000	 1.862750925098516e-001	 1.123256441083312e+001
 2.967349629544844e+000	 2.132162659077317e-001	 1.121343838796818e+001
 2.965284800280319e+000	 2.402312494969177e-001	 1.120257554706900e+001
 2.962965853122473e+000	 2.673169527713512e-001	 1.120595401515156e+001
 3.000000000000000e+000	 0.000000000000000e+000	 1.114371904268148e+001
 2.999882384581794e+000	 2.656461322647803e-002	 1.121848869574765e+001
 2.999527835874867e+000	 5.322369596216094e-002	 1.126228157760738e+001
 2.998933821704276e+000	 7.997457744910114e-002	 1.128028041169518e+001
 2.998097839922249e+000	 1.068145226705123e-001	 1.127784735355727e+001
 2.997017420116060e+000	 1.337407324649106e-001	 1.126051842811650e+001
 2.995690125330548e+000	 1.607503436877060e-001	 1.123399744309644e+001
 2.994113553803930e+000	 1.878404294212759e-001	 1.120414937432339e+001
 2.992285340715547e+000	 2.150079992345207e-001	 1.117699321985557e+001
 2.990203159944073e+000	 2.422499994928615e-001	 1.115869432117729e+001
 2.987864725834731e+000	 2.695633137196016e-001	 1.115555615104450e+001
 2.738875998690032e+000	 2.470997042370982e-001	 1.125821793645433e+001
 2.736495478736073e+000	 2.721993660824219e-001	 1.121517468368900e+001
 2.733875987317568e+000	 2.973585142758314e-001	 1.117429832160686e+001
 2.731015550314390e+000	 3.225741217013698e-001	 1.113831992921262e+001
 2.727912237233771e+000	 3.478431054491007e-001	 1.111002066460272e+001
 2.724564162849201e+000	 3.731623273929815e-001	 1.109222519772944e+001
 2.720969488838349e+000	 3.985285948199711e-001	 1.108779482824922e+001
 2.717126425418324e+000	 4.239386611108923e-001	 1.109962029563564e+001
 2.713033232976536e+000	 4.493892264735031e-001	 1.113061428988305e+001
 2.708688223695421e+000	 4.748769387281779e-001	 1.118370367228958e+001
 2.704089763169176e+000	 5.003983941465353e-001	 1.126182141698189e+001
 2.763774871406714e+000	 2.493460651853486e-001	 1.127622320473446e+001
 2.761372710362509e+000	 2.746739057751574e-001	 1.121156456612013e+001
 2.758729405385852e+000	 3.000617734979081e-001	 1.115216944636702e+001
 2.755842964410066e+000	 3.255066137184060e-001	 1.110117458872901e+001
 2.752711439392450e+000	 3.510053155002597e-001	 1.106177160515783e+001
 2.749332927968071e+000	 3.765547121890066e-001	 1.103719997949647e+001
 2.745705575102577e+000	 4.021515820469407e-001	 1.103073973722729e+001
 2.741827574742320e+000	 4.277926489401635e-001	 1.104570378928086e+001
 2.737697171460054e+000	 4.534745830783209e-001	 1.108542995861233e+001
 2.733312662094416e+000	 4.791940018074253e-001	 1.115327269946818e+001
 2.728672397381367e+000	 5.049474704561092e-001	 1.125259452049697e+001
 2.788673744122905e+000	 2.515924261335989e-001	 1.129058262590160e+001
 2.786249941988360e+000	 2.771484454678931e-001	 1.120777242073630e+001
 2.783582823453462e+000	 3.027650327199847e-001	 1.113329206927593e+001
 2.780670378504993e+000	 3.284391057354422e-001	 1.107068522422622e+001
 2.777510641550315e+000	 3.541675255514188e-001	 1.102355523739093e+001
 2.774101693086072e+000	 3.799470969850319e-001	 1.099555773011485e+001
 2.770441661365888e+000	 4.057745692739103e-001	 1.099039281157442e+001
 2.766528724065365e+000	 4.316466367694348e-001	 1.101179695275248e+001
 2.762361109942594e+000	 4.575599396831384e-001	 1.106353452518626e+001
 2.757937100492415e+000	 4.835110648866727e-001	 1.114938901485208e+001
 2.753255031592557e+000	 5.094965467656832e-001	 1.127315392283438e+001
 2.813572616838604e+000	 2.538387870818492e-001	 1.130030700905169e+001
 2.811127173613622e+000	 2.796229851606287e-001	 1.120249617813817e+001
 2.808436241520400e+000	 3.054682919420613e-001	 1.111605180727923e+001
 2.805497792599171e+000	 3.313715977524783e-001	 1.104492586011722e+001
 2.802309843707365e+000	 3.573297356025775e-001	 1.099313487259869e+001
 2.798870458203201e+000	 3.833394817810571e-001	 1.096475208737221e+001
 2.795177747628281e+000	 4.093975565008799e-001	 1.096389921714550e+001
 2.791229873387456e+000	 4.355006245987061e-001	 1.099473784517014e+001
 2.787025048424154e+000	 4.616452962879561e-001	 1.106146047233127e+001
 2.782561538889420e+000	 4.878281279659200e-001	 1.116828122164864e+001
 2.777837665802749e+000	 5.140456230752573e-001	 1.131942621233727e+001
 2.838471489553812e+000	 2.560851480300996e-001	 1.130440742172863e+001
 2.836004405238297e+000	 2.820975248533642e-001	 1.119444149221135e+001
 2.833289659586666e+000	 3.081715511641379e-001	 1.109884944178612e+001
 2.830325206692602e+000	 3.343040897695145e-001	 1.102199309959978e+001
 2.827109045863600e+000	 3.604919456537367e-001	 1.096830378509411e+001
 2.823639223319458e+000	 3.867318665770823e-001	 1.094227400295127e+001
 2.819913833889759e+000	 4.130205437278497e-001	 1.094844874792297e+001
 2.815931022708593e+000	 4.393546124279774e-001	 1.099141642804741e+001
 2.811688986904735e+000	 4.657306528927737e-001	 1.107579941612240e+001
 2.807185977285430e+000	 4.921451910451673e-001	 1.120624424068899e+001
 2.802420300011939e+000	 5.185946993848312e-001	 1.138741142917939e+001
 2.863370362268527e+000	 2.583315089783499e-001	 1.130189517868731e+001
 2.860881636862386e+000	 2.845720645460999e-001	 1.118232140433148e+001
 2.858143077652259e+000	 3.108748103862145e-001	 1.108010025934470e+001
 2.855152620785284e+000	 3.372365817865506e-001	 1.100000514297005e+001
 2.851908248019021e+000	 3.636541557048956e-001	 1.094688390946693e+001
 2.848407988434845e+000	 3.901242513731075e-001	 1.092565012008659e+001
 2.844649920150318e+000	 4.166435309548192e-001	 1.094127388566356e+001
 2.840632172028778e+000	 4.432086002572487e-001	 1.099877230866596e+001
 2.836352925384337e+000	 4.698160094975914e-001	 1.110319953496821e+001
 2.831810415680446e+000	 4.964622541244146e-001	 1.125963642705299e+001
 2.827002934220130e+000	 5.231437756944052e-001	 1.147317987180711e+001
 2.888269234982751e+000	 2.605778699266002e-001	 1.129178183123809e+001
 2.885758868485888e+000	 2.870466042388355e-001	 1.116485602493762e+001
 2.882996495717179e+000	 3.135780696082912e-001	 1.105823342642057e+001
 2.879980034877217e+000	 3.401690738035869e-001	 1.097710085671324e+001
 2.876707450173627e+000	 3.668163657560546e-001	 1.092672460522668e+001
 2.873176753549362e+000	 3.935166361691326e-001	 1.091244123513552e+001
 2.869386006409960e+000	 4.202665181817890e-001	 1.093964795990797e+001
 2.865333321348009e+000	 4.470625880865199e-001	 1.101379260017174e+001
 2.861016863862960e+000	 4.739013661024089e-001	 1.114036313157912e+001
 2.856434854074466e+000	 5.007793172036621e-001	 1.132487683583456e+001
 2.851585568427321e+000	 5.276928520039791e-001	 1.157286906856580e+001
 2.913168107696484e+000	 2.628242308748505e-001	 1.127307915713742e+001
 2.910636100108802e+000	 2.895211439315710e-001	 1.114077223143596e+001
 2.907849913781428e+000	 3.162813288303679e-001	 1.103169139623807e+001
 2.904807448968402e+000	 3.431015658206231e-001	 1.095143889033315e+001
 2.901506652327419e+000	 3.699785758072136e-001	 1.090570148479768e+001
 2.897945518663007e+000	 3.969090209651578e-001	 1.090024083804318e+001
 2.894122092668686e+000	 4.238895054087586e-001	 1.094088340234909e+001
 2.890034470666287e+000	 4.509165759157913e-001	 1.103350989140988e+001
 2.885680802340603e+000	 4.779867227072266e-001	 1.118404431996314e+001
 2.881059292467493e+000	 5.050963802829094e-001	 1.139844262812384e+001
 2.876168202633513e+000	 5.322419283135530e-001	 1.168268090462714e+001
 2.938066980409724e+000	 2.650705918231008e-001	 1.124479915099285e+001
 2.935513331731131e+000	 2.919956836243067e-001	 1.110880338146361e+001
 2.932703331845003e+000	 3.189845880524445e-001	 1.099892934578181e+001
 2.929634863058839e+000	 3.460340578376592e-001	 1.092119683808873e+001
 2.926305854480396e+000	 3.731407858583725e-001	 1.088171530110740e+001
 2.922714283775782e+000	 4.003014057611831e-001	 1.088667372702086e+001
 2.918858178926494e+000	 4.275124926357282e-001	 1.094233008996119e+001
 2.914735619983612e+000	 4.547705637450625e-001	 1.105500031998830e+001
 2.910344740817267e+000	 4.820720793120442e-001	 1.123104683003187e+001
 2.905683730859523e+000	 5.094134433621567e-001	 1.147686660888885e+001
 2.900750836838703e+000	 5.367910046231269e-001	 1.179887889500503e+001
 2.962965853122473e+000	 2.673169527713512e-001	 1.120595401515156e+001
 2.960390563352871e+000	 2.944702233170423e-001	 1.106768904061010e+001
 2.957556749907905e+000	 3.216878472745211e-001	 1.095841464118508e+001
 2.954462277148527e+000	 3.489665498546954e-001	 1.088457044299580e+001
 2.951105056632558e+000	 3.763029959095315e-001	 1.085269089126277e+001
 2.947483048887686e+000	 4.036937905572083e-001	 1.086939469307269e+001
 2.943594265183386e+000	 4.311354798626978e-001	 1.094137377166876e+001
 2.939436769299982e+000	 4.586245515743337e-001	 1.107538174249776e+001
 2.935008679292953e+000	 4.861574359168619e-001	 1.127822192289872e+001
 2.930308169250560e+000	 5.137305064414041e-001	 1.155673488899730e+001
 2.925333471042894e+000	 5.413400809327010e-001	 1.191778559506633e+001
 2.987864725834731e+000	 2.695633137196016e-001	 1.115555615104450e+001
 2.985267794974027e+000	 2.969447630097781e-001	 1.101617472375274e+001
 2.982410167970137e+000	 3.243911064965979e-001	 1.090862632984858e+001
 2.979289691237467e+000	 3.518990418717317e-001	 1.083977284062900e+001
 2.975904258783907e+000	 3.794652059606906e-001	 1.081657617304271e+001
 2.972251813998720e+000	 4.070861753532337e-001	 1.084608727029598e+001
 2.968330351439361e+000	 4.347584670896677e-001	 1.093543457368195e+001
 2.964137918615402e+000	 4.624785394036052e-001	 1.109181199622093e+001
 2.959672617767659e+000	 4.902427925216796e-001	 1.132246641041221e+001
 2.954932607640603e+000	 5.180475695206515e-001	 1.163468466413767e+001
 2.949916105246086e+000	 5.458891572422751e-001	 1.203578014051635e+001
 2.704089763169176e+000	 5.003983941465353e-001	 1.126182141698189e+001
 2.699236272010369e+000	 5.259501383425348e-001	 1.127541992013622e+001
 2.694126227445558e+000	 5.515286672185968e-001	 1.132362805696980e+001
 2.688758164897393e+000	 5.771304279651318e-001	 1.140827575769432e+001
 2.683130679550521e+000	 6.027518201122009e-001	 1.153114232070836e+001
 2.677242427900420e+000	 6.283891966355909e-001	 1.165968957512347e+001
 2.671092129282827e+000	 6.540388651164305e-001	 1.157962730496643e+001
 2.664678567381807e+000	 6.796970889541842e-001	 1.149734997135265e+001
 2.658000591714422e+000	 7.053600886327908e-001	 1.141338370890037e+001
 2.651057119090043e+000	 7.310240430396247e-001	 1.132832283168928e+001
 2.643847135042239e+000	 7.566850908368894e-001	 1.124283451092414e+001
 2.728672397381367e+000	 5.049474704561092e-001	 1.125259452049697e+001
 2.723774783575466e+000	 5.307315032349365e-001	 1.124804308025592e+001
 2.718618284059930e+000	 5.565425641910099e-001	 1.128091910456712e+001
 2.713201420943072e+000	 5.823770682164715e-001	 1.135302375338991e+001
 2.707522776638490e+000	 6.082313821098384e-001	 1.146610343611125e+001
 2.701580995427986e+000	 6.341018256921329e-001	 1.154679927134914e+001
 2.695374785004896e+000	 6.599846729770404e-001	 1.150134039863763e+001
 2.688902917995866e+000	 6.858761533949309e-001	 1.145310607280942e+001
 2.682164233459023e+000	 7.117724530705056e-001	 1.140235033959175e+001
 2.675157638356550e+000	 7.376697161537531e-001	 1.134939434508001e+001
 2.667882108999597e+000	 7.635640462038071e-001	 1.129463138672968e+001
 2.753255031592557e+000	 5.094965467656832e-001	 1.127315392283438e+001
 2.748313295139561e+000	 5.355128681273381e-001	 1.123988826071898e+001
 2.743110340673302e+000	 5.615564611634224e-001	 1.124688679754785e+001
 2.737644676987751e+000	 5.876237084678108e-001	 1.129592947980156e+001
 2.731914873725461e+000	 6.137109441074760e-001	 1.138873744288656e+001
 2.725919562954553e+000	 6.398144547486752e-001	 1.143611664016194e+001
 2.719657440725966e+000	 6.659304808376506e-001	 1.142162310462612e+001
 2.713127268608924e+000	 6.920552178356770e-001	 1.140373161014678e+001
 2.706327875202623e+000	 7.181848175082201e-001	 1.138242337256381e+001
 2.699258157622058e+000	 7.443153892678818e-001	 1.135774570422846e+001
 2.691917082955955e+000	 7.704430015707247e-001	 1.132981744264915e+001
 2.777837665802749e+000	 5.140456230752573e-001	 1.131942621233727e+001
 2.772851806702656e+000	 5.402942330197397e-001	 1.124694805213938e+001
 2.767602397285674e+000	 5.665703581358352e-001	 1.121759099429239e+001
 2.762087933031431e+000	 5.928703487191503e-001	 1.123312133813718e+001
 2.756306970811430e+000	 6.191905061051134e-001	 1.129524256883366e+001
 2.750258130480121e+000	 6.455270838052173e-001	 1.132817774819180e+001
 2.743940096446035e+000	 6.718762886982608e-001	 1.134124479189206e+001
 2.737351619220983e+000	 6.982342822764235e-001	 1.135022870438985e+001
 2.730491516945223e+000	 7.245971819459348e-001	 1.135483701001023e+001
 2.723358676886565e+000	 7.509610623820101e-001	 1.135484240030032e+001
 2.715952056911313e+000	 7.773219569376425e-001	 1.135008854476897e+001
 2.802420300011939e+000	 5.185946993848312e-001	 1.138741142917939e+001
 2.797390318264753e+000	 5.450755979121414e-001	 1.126528273616383e+001
 2.792094453897046e+000	 5.715842551082483e-001	 1.118915345942686e+001
 2.786531189074109e+000	 5.981169889704898e-001	 1.116078382929035e+001
 2.780699067896400e+000	 6.246700681027507e-001	 1.118186731536302e+001
 2.774596698004689e+000	 6.512397128617596e-001	 1.122356309238985e+001
 2.768222752165104e+000	 6.778220965588708e-001	 1.126101340155243e+001
 2.761575969832041e+000	 7.044133467171696e-001	 1.129363217805941e+001
 2.754655158686825e+000	 7.310095463836497e-001	 1.132085227487793e+001
 2.747459196150072e+000	 7.576067354961386e-001	 1.134217085684225e+001
 2.739987030865671e+000	 7.842009123045602e-001	 1.135715559804041e+001
 2.827002934220130e+000	 5.231437756944052e-001	 1.147317987180711e+001
 2.821928829825849e+000	 5.498569628045430e-001	 1.129101734238346e+001
 2.816586510507418e+000	 5.765981520806611e-001	 1.115775517224716e+001
 2.810974445115789e+000	 6.033636292218294e-001	 1.107515511472353e+001
 2.805091164980371e+000	 6.301496301003884e-001	 1.105927371151021e+001
 2.798935265528256e+000	 6.569523419183018e-001	 1.112289566827528e+001
 2.792505407883173e+000	 6.837679044194810e-001	 1.118177376983062e+001
 2.785800320442101e+000	 7.105924111579159e-001	 1.123500813336764e+001
 2.778818800427425e+000	 7.374219108213642e-001	 1.128175584474730e+001
 2.771559715412582e+000	 7.642524086102674e-001	 1.132123751967834e+001
 2.764022004819029e+000	 7.910798676714779e-001	 1.135274389241591e+001
 2.851585568427321e+000	 5.276928520039791e-001	 1.157286906856580e+001
 2.846467341385945e+000	 5.546383276969448e-001	 1.132033885747412e+001
 2.841078567116790e+000	 5.816120490530741e-001	 1.111963377436260e+001
 2.835417701156467e+000	 6.086102694731688e-001	 1.097252470351257e+001
 2.829483262063339e+000	 6.356291920980257e-001	 1.094392766693166e+001
 2.823273833050822e+000	 6.626649709748439e-001	 1.102683913810050e+001
 2.816788063600243e+000	 6.897137122800909e-001	 1.110440603775024e+001
 2.810024671051159e+000	 7.167714755986622e-001	 1.117545260395562e+001
 2.802982442167025e+000	 7.438342752590790e-001	 1.123885894602901e+001
 2.795660234674088e+000	 7.708980817243958e-001	 1.129356799388110e+001
 2.788056978771388e+000	 7.979588230383955e-001	 1.133859248280584e+001
 2.876168202633513e+000	 5.322419283135530e-001	 1.168268090462714e+001
 2.871005852945042e+000	 5.594196925893464e-001	 1.134949357745768e+001
 2.865570623725160e+000	 5.866259460254867e-001	 1.107108114822949e+001
 2.859860957196146e+000	 6.138569097245082e-001	 1.084923125800420e+001
 2.853875359145309e+000	 6.411087540956634e-001	 1.083635915690518e+001
 2.847612400572390e+000	 6.683776000313862e-001	 1.093609609295652e+001
 2.841070719316312e+000	 6.956595201407011e-001	 1.102982414238288e+001
 2.834249021659218e+000	 7.229505400394086e-001	 1.111609027577237e+001
 2.827146083905626e+000	 7.502466396967937e-001	 1.119349630486870e+001
 2.819760753934596e+000	 7.775437548385245e-001	 1.126070622499976e+001
 2.812091952722746e+000	 8.048377784053130e-001	 1.131645360083252e+001
 2.900750836838703e+000	 5.367910046231269e-001	 1.179887889500503e+001
 2.895544364503137e+000	 5.642010574817481e-001	 1.137478459459439e+001
 2.890062680332532e+000	 5.916398429978996e-001	 1.100844111881019e+001
 2.884304213234825e+000	 6.191035499758476e-001	 1.070166051105036e+001
 2.878267456226280e+000	 6.465883160933008e-001	 1.073710112250508e+001
 2.871950968092957e+000	 6.740902290879284e-001	 1.085140640324600e+001
 2.865353375031381e+000	 7.016053280013114e-001	 1.095897438481217e+001
 2.858473372266276e+000	 7.291296044801550e-001	 1.105807327299399e+001
 2.851309725643227e+000	 7.566590041345083e-001	 1.114702515139555e+001
 2.843861273194104e+000	 7.841894279526529e-001	 1.122421372192179e+001
 2.836126926673104e+000	 8.117167337722308e-001	 1.128809209649486e+001
 2.925333471042894e+000	 5.413400809327010e-001	 1.191778559506633e+001
 2.920082876060233e+000	 5.689824223741498e-001	 1.139256941098604e+001
 2.914554736938903e+000	 5.966537399703125e-001	 1.092810727111491e+001
 2.908747469272504e+000	 6.243501902271872e-001	 1.052624328825601e+001
 2.902659553306250e+000	 6.520678780909385e-001	 1.064672691457734e+001
 2.896289535612524e+000	 6.798028581444705e-001	 1.077354565232548e+001
 2.889636030745451e+000	 7.075511358619213e-001	 1.089283407030138e+001
 2.882697722872336e+000	 7.353086689209013e-001	 1.100258000515696e+001
 2.875473367379827e+000	 7.630713685722230e-001	 1.110082427417658e+001
 2.867961792452611e+000	 7.908351010667813e-001	 1.118566881891733e+001
 2.860161900622463e+000	 8.185956891391486e-001	 1.125528490798452e+001
 2.949916105246086e+000	 5.458891572422751e-001	 1.203578014051635e+001
 2.944621387616330e+000	 5.737637872665515e-001	 1.139925767149943e+001
 2.939046793544276e+000	 6.016676369427255e-001	 1.082652087686638e+001
 2.933190725309185e+000	 6.295968304785270e-001	 1.042232302803930e+001
 2.927051650385220e+000	 6.575474400885762e-001	 1.056584860999915e+001
 2.920628103131092e+000	 6.855154872010129e-001	 1.070332364846566e+001
 2.913918686458521e+000	 7.134969437225319e-001	 1.083241021645255e+001
 2.906922073477395e+000	 7.414877333616478e-001	 1.095081407193486e+001
 2.899637009115429e+000	 7.694837330099380e-001	 1.105629312194852e+001
 2.892062311710120e+000	 7.974807741809101e-001	 1.114666597458150e+001
 2.884196874570821e+000	 8.254746445060665e-001	 1.121982055801114e+001
 2.643847135042239e+000	 7.566850908368894e-001	 1.124283451092414e+001
 2.636369695231585e+000	 7.823393318852079e-001	 1.126982995035921e+001
 2.628623926816410e+000	 8.079828287179298e-001	 1.129645163547400e+001
 2.620609029790003e+000	 8.336116080664255e-001	 1.132274934425666e+001
 2.612324278282998e+000	 8.592216624358847e-001	 1.134885376834080e+001
 2.603769021827961e+000	 8.848089517299635e-001	 1.137498161621707e+001
 2.594942686584525e+000	 9.103694049237149e-001	 1.140144063394243e+001
 2.585844776523053e+000	 9.358989217837994e-001	 1.142863452576949e+001
 2.576474874564940e+000	 9.613933746349104e-001	 1.145706775690878e+001
 2.566832643677576e+000	 9.868486101712379e-001	 1.148735022048693e+001
 2.556917827922116e+000	 1.012260451311729e+000	 1.152020175067320e+001
 2.667882108999597e+000	 7.635640462038071e-001	 1.129463138672968e+001
 2.660336692463774e+000	 7.894515076254417e-001	 1.132688644960103e+001
 2.652520507972429e+000	 8.153281271568192e-001	 1.135767249919915e+001
 2.644432748246060e+000	 8.411898954086864e-001	 1.138691713558730e+001
 2.636072680816487e+000	 8.670327684544612e-001	 1.141463105998297e+001
 2.627439649302940e+000	 8.928526694696530e-001	 1.144091344880323e+001
 2.618533074648314e+000	 9.186454904199954e-001	 1.146595724505828e+001
 2.609352456313619e+000	 9.444070937973019e-001	 1.149005434885566e+001
 2.599897373428621e+000	 9.701333144019442e-001	 1.151360068855605e+001
 2.590167485896779e+000	 9.958199611707879e-001	 1.153710115395939e+001
 2.580162535452529e+000	 1.021462819049315e+000	 1.156117437279989e+001
 2.691917082955955e+000	 7.704430015707247e-001	 1.132981744264915e+001
 2.684303689694970e+000	 7.965636833656756e-001	 1.136803101421866e+001
 2.676417089127467e+000	 8.226734255957088e-001	 1.140361167119272e+001
 2.668256466701160e+000	 8.487681827509469e-001	 1.143636245239213e+001
 2.659821083349055e+000	 8.748438744730380e-001	 1.146617176184034e+001
 2.651110276777040e+000	 9.008963872093422e-001	 1.149301901920325e+001
 2.642123462711282e+000	 9.269215759162762e-001	 1.151698022738854e+001
 2.632860136103426e+000	 9.529152658108043e-001	 1.153823343839469e+001
 2.623319872291618e+000	 9.788732541689782e-001	 1.155706409826429e+001
 2.613502328115380e+000	 1.004791312170337e+000	 1.157387025182206e+001
 2.603407242982436e+000	 1.030665186786900e+000	 1.158916758776846e+001
 2.715952056911313e+000	 7.773219569376425e-001	 1.135008854476897e+001
 2.708270686925169e+000	 8.036758591059093e-001	 1.139506528704286e+001
 2.700313670281525e+000	 8.300187240345980e-001	 1.143617550809508e+001
 2.692080185155304e+000	 8.563464700932075e-001	 1.147309523410872e+001
 2.683569485880700e+000	 8.826549804916148e-001	 1.150558819751509e+001
 2.674780904250262e+000	 9.089401049490314e-001	 1.153351176947442e+001
 2.665713850773425e+000	 9.351976614125567e-001	 1.155682280928988e+001
 2.656367815892474e+000	 9.614234378243067e-001	 1.157558341115838e+001
 2.646742371153929e+000	 9.876131939360121e-001	 1.158996652841259e+001
 2.636837170333382e+000	 1.013762663169887e+000	 1.160026145522230e+001
 2.626651950511838e+000	 1.039867554524486e+000	 1.160687914560386e+001
 2.739987030865671e+000	 7.842009123045602e-001	 1.135715559804041e+001
 2.732237684154373e+000	 8.107880348461433e-001	 1.140980438913064e+001
 2.724210251434601e+000	 8.373640224734873e-001	 1.145728228068955e+001
 2.715903903608492e+000	 8.639247574354683e-001	 1.149913576744882e+001
 2.707317888411426e+000	 8.904660865101918e-001	 1.153500146889715e+001
 2.698451531722607e+000	 9.169838226887206e-001	 1.156461234953479e+001
 2.689304238834745e+000	 9.434737469088372e-001	 1.158780385579719e+001
 2.679875495680763e+000	 9.699316098378094e-001	 1.160451994935157e+001
 2.670164870015556e+000	 9.963531337030460e-001	 1.161481901620556e+001
 2.660172012550785e+000	 1.022734014169437e+000	 1.161887963087017e+001
 2.649896658040735e+000	 1.049069922262071e+000	 1.161700615468879e+001
 2.764022004819029e+000	 7.910798676714779e-001	 1.135274389241591e+001
 2.756204681382582e+000	 8.179002105863771e-001	 1.141407633375539e+001
 2.748106832586698e+000	 8.447093209123768e-001	 1.146886165589636e+001
 2.739727622060723e+000	 8.715030447777287e-001	 1.151651423651694e+001
 2.731066290941226e+000	 8.982771925287681e-001	 1.155654107449967e+001
 2.722122159194074e+000	 9.250275404284097e-001	 1.158854830377794e+001
 2.712894626895241e+000	 9.517498324051178e-001	 1.161224762355070e+001
 2.703383175468293e+000	 9.784397818513119e-001	 1.162746262385430e+001
 2.693587368876499e+000	 1.005093073470080e+000	 1.163413498520271e+001
 2.683506854767586e+000	 1.031705365168986e+000	 1.163233053079645e+001
 2.673141365569126e+000	 1.058272289999657e+000	 1.162224510966116e+001
 2.788056978771388e+000	 7.979588230383955e-001	 1.133859248280584e+001
 2.780171678609796e+000	 8.250123863266109e-001	 1.140972147070795e+001
 2.772003413737814e+000	 8.520546193512663e-001	 1.147285420555968e+001
 2.763551340511999e+000	 8.790813321199895e-001	 1.152727029619842e+001
 2.754814693470107e+000	 9.060882985473449e-001	 1.157234454753539e+001
 2.745792786664665e+000	 9.330712581680993e-001	 1.160755377389736e+001
 2.736485014954916e+000	 9.600259179013982e-001	 1.163248352839906e+001
 2.726890855255064e+000	 9.869479538648145e-001	 1.164683472660634e+001
 2.717009867736757e+000	 1.013833013237114e+000	 1.165043014245824e+001
 2.706841696983789e+000	 1.040676716168536e+000	 1.164322075419237e+001
 2.696386073097013e+000	 1.067474657737242e+000	 1.162529191786858e+001
 2.812091952722746e+000	 8.048377784053130e-001	 1.131645360083252e+001
 2.804138675836015e+000	 8.321245620668447e-001	 1.139859195909494e+001
 2.795899994887949e+000	 8.593999177901556e-001	 1.147121094042530e+001
 2.787375058962318e+000	 8.866596194622501e-001	 1.153345266742532e+001
 2.778563095998065e+000	 9.138994045659217e-001	 1.158455711255356e+001
 2.769463414134377e+000	 9.411149759077884e-001	 1.162386921695045e+001
 2.760075403013765e+000	 9.683020033976790e-001	 1.165084592492043e+001
 2.750398535041076e+000	 9.954561258783168e-001	 1.166506311158764e+001
 2.740432366596330e+000	 1.022572953004148e+000	 1.166622238093585e+001
 2.730176539199392e+000	 1.049648067168086e+000	 1.165415771120609e+001
 2.719630780624395e+000	 1.076677025474828e+000	 1.162884192446626e+001
 2.836126926673104e+000	 8.117167337722308e-001	 1.128809209649486e+001
 2.828105673061239e+000	 8.392367378070784e-001	 1.138255126694402e+001
 2.819796576037104e+000	 8.667452162290449e-001	 1.146589286781422e+001
 2.811198777411680e+000	 8.942379068045107e-001	 1.153711875302184e+001
 2.802311498525101e+000	 9.217105105844983e-001	 1.159533135953572e+001
 2.793134041603210e+000	 9.491586936474775e-001	 1.163974113775837e+001
 2.783665791071792e+000	 9.765780888939597e-001	 1.166967389715418e+001
 2.773906214826328e+000	 1.003964297891819e+000	 1.168457804388434e+001
 2.763854865455220e+000	 1.031312892771182e+000	 1.168403168688539e+001
 2.753511381414393e+000	 1.058619418167635e+000	 1.166774958858014e+001
 2.742875488151270e+000	 1.085879393212413e+000	 1.163558993623870e+001
 2.860161900622463e+000	 8.185956891391486e-001	 1.125528490798452e+001
 2.852072670285467e+000	 8.463489135473123e-001	 1.136347369603913e+001
 2.843693157185278e+000	 8.740905146679343e-001	 1.145887057159854e+001
 2.835022495860089e+000	 9.018161941467713e-001	 1.154033427291886e+001
 2.826059901051216e+000	 9.295216166030752e-001	 1.160682693442380e+001
 2.816804669071168e+000	 9.572024113871669e-001	 1.165742183479826e+001
 2.807256179128995e+000	 9.848541743902404e-001	 1.169131105988412e+001
 2.797413894610821e+000	 1.012472469905322e+000	 1.170781305636502e+001
 2.787277364313424e+000	 1.040052832538216e+000	 1.170638005188965e+001
 2.776846223628796e+000	 1.067590769167185e+000	 1.168660531702135e+001
 2.766120195677642e+000	 1.095081760949999e+000	 1.164823024422022e+001
 2.884196874570821e+000	 8.254746445060665e-001	 1.121982055801114e+001
 2.876039667508701e+000	 8.534610892875464e-001	 1.134324393051396e+001
 2.867589738332473e+000	 8.814358131068238e-001	 1.145212381317837e+001
 2.858846214307540e+000	 9.093944814890321e-001	 1.154517291760794e+001
 2.849808303576410e+000	 9.373327226216522e-001	 1.162121024512175e+001
 2.840475296538248e+000	 9.652461291268560e-001	 1.167916915880100e+001
 2.830846567185376e+000	 9.931302598865213e-001	 1.171810536985735e+001
 2.820921574394557e+000	 1.020980641918824e+000	 1.173720481352301e+001
 2.810699863170943e+000	 1.048792772305250e+000	 1.173579138930887e+001
 2.800181065842598e+000	 1.076562120166735e+000	 1.171333454020237e+001
 2.789364903203508e+000	 1.104284128687585e+000	 1.166945664518472e+001
 2.556917827922116e+000	 1.012260451311729e+000	 1.152020175067320e+001
 2.546730253452309e+000	 1.037624699097835e+000	 1.147270848805664e+001
 2.536269829462127e+000	 1.062937134632405e+000	 1.144747637970206e+001
 2.525536549080854e+000	 1.088193521057849e+000	 1.144640642873956e+001
 2.514530490214019e+000	 1.113389605572322e+000	 1.147151887543729e+001
 2.503251816328117e+000	 1.138521121482226e+000	 1.152495574109113e+001
 2.491700777177656e+000	 1.163583790289265e+000	 1.157943065481977e+001
 2.479877709472937e+000	 1.188573323810187e+000	 1.166039388980903e+001
 2.467783037487111e+000	 1.213485426327356e+000	 1.178413657255009e+001
 2.455417273601035e+000	 1.238315796768149e+000	 1.195461545465265e+001
 2.442781018784593e+000	 1.263060130911157e+000	 1.240079329291583e+001
 2.580162535452529e+000	 1.021462819049315e+000	 1.156117437279989e+001
 2.569882346669243e+000	 1.047057650906575e+000	 1.152137063185548e+001
 2.559326827915428e+000	 1.072600199491755e+000	 1.149801290101842e+001
 2.548495972257904e+000	 1.098086189430378e+000	 1.149279070817615e+001
 2.537389858310436e+000	 1.123511329258762e+000	 1.150751957627915e+001
 2.526008651025577e+000	 1.148871313495187e+000	 1.154414395551730e+001
 2.514352602428330e+000	 1.174161824745915e+000	 1.160473988409208e+001
 2.502422052289998e+000	 1.199378535844212e+000	 1.169151736130017e+001
 2.490217428740764e+000	 1.224517112020461e+000	 1.177789328225734e+001
 2.477739248819489e+000	 1.249573213101380e+000	 1.189623998155705e+001
 2.464988118959423e+000	 1.274542495736273e+000	 1.250858090977253e+001
 2.603407242982436e+000	 1.030665186786900e+000	 1.158916758776846e+001
 2.593034439885761e+000	 1.056490602715315e+000	 1.155376385939959e+001
 2.582383826368382e+000	 1.082263264351105e+000	 1.152896108349376e+001
 2.571455395434662e+000	 1.107978857802907e+000	 1.151623771395589e+001
 2.560249226406592e+000	 1.133633052945202e+000	 1.151720506548896e+001
 2.548765485722786e+000	 1.159221505508147e+000	 1.153361063685005e+001
 2.537004427678744e+000	 1.184739859202564e+000	 1.156734115487328e+001
 2.524966395106771e+000	 1.210183747878236e+000	 1.162042532201083e+001
 2.512651819994079e+000	 1.235548797713566e+000	 1.169503625064037e+001
 2.500061224037538e+000	 1.260830629434610e+000	 1.200609190608168e+001
 2.487195219133758e+000	 1.286024860561388e+000	 1.259086019510809e+001
 2.626651950511838e+000	 1.039867554524486e+000	 1.160687914560386e+001
 2.616186533101865e+000	 1.065923554524055e+000	 1.157276316783922e+001
 2.605440824820995e+000	 1.091926329210455e+000	 1.154336990660386e+001
 2.594414818611126e+000	 1.117871526175436e+000	 1.151996703632198e+001
 2.583108594502486e+000	 1.143754776631642e+000	 1.150396206763897e+001
 2.571522320419745e+000	 1.169571697521108e+000	 1.149690606468047e+001
 2.559656252928899e+000	 1.195317893659215e+000	 1.150049707507215e+001
 2.547510737923258e+000	 1.220988959912261e+000	 1.151658325449638e+001
 2.535086211247058e+000	 1.246580483406670e+000	 1.154716566806603e+001
 2.522383199255179e+000	 1.272088045767840e+000	 1.204828175665478e+001
 2.509402319307596e+000	 1.297507225386504e+000	 1.262885091419130e+001
 2.649896658040735e+000	 1.049069922262071e+000	 1.161700615468879e+001
 2.639338626317554e+000	 1.075356506332795e+000	 1.158123836263606e+001
 2.628497823273262e+000	 1.101589394069805e+000	 1.154427866605040e+001
 2.617374241787297e+000	 1.127764194547964e+000	 1.150718415000236e+001
 2.605967962598117e+000	 1.153876500318082e+000	 1.147115882275783e+001
 2.594279155116454e+000	 1.179921889534068e+000	 1.143755773009119e+001
 2.582308078178794e+000	 1.205895928115864e+000	 1.140789077417447e+001
 2.570055080739456e+000	 1.231794171946285e+000	 1.138382621783245e+001
 2.557520602499700e+000	 1.257612169099776e+000	 1.153060980561109e+001
 2.544705174472416e+000	 1.283345462101071e+000	 1.207269677583330e+001
 2.531609419480937e+000	 1.308989590211620e+000	 1.261788457587991e+001
 2.673141365569126e+000	 1.058272289999657e+000	 1.162224510966116e+001
 2.662490719532829e+000	 1.084789458141534e+000	 1.158205428328886e+001
 2.651554821725186e+000	 1.111252458929156e+000	 1.153471739479451e+001
 2.640333664963175e+000	 1.137656862920493e+000	 1.148108102792764e+001
 2.628827330693487e+000	 1.163998224004522e+000	 1.142214589000629e+001
 2.617035989812912e+000	 1.190272081547028e+000	 1.135907132646109e+001
 2.604959903428432e+000	 1.216473962572515e+000	 1.129317953159049e+001
 2.592599423555365e+000	 1.242599383980309e+000	 1.122595943532001e+001
 2.579954993752004e+000	 1.268643854792880e+000	 1.157210513755368e+001
 2.567027149689244e+000	 1.294602878434302e+000	 1.208023254504710e+001
 2.553816519653783e+000	 1.320471955036735e+000	 1.258591411275963e+001
 2.696386073097013e+000	 1.067474657737242e+000	 1.162529191786858e+001
 2.685642812747688e+000	 1.094222409950274e+000	 1.157807101738352e+001
 2.674611820176765e+000	 1.120915523788506e+000	 1.151770726231292e+001
 2.663293088138760e+000	 1.147549531293022e+000	 1.144483672320521e+001
 2.651686698788594e+000	 1.174119947690962e+000	 1.136025690978370e+001
 2.639792824509118e+000	 1.200622273559989e+000	 1.126493168902153e+001
 2.627611728677810e+000	 1.227051997029165e+000	 1.115999589088250e+001
 2.615143766370987e+000	 1.253404596014334e+000	 1.112412582494630e+001
 2.602389385003972e+000	 1.279675540485985e+000	 1.160167620623876e+001
 2.589349124905667e+000	 1.305860294767532e+000	 1.207174866790795e+001
 2.576023619826133e+000	 1.331954319861851e+000	 1.253389560790738e+001
 2.719630780624395e+000	 1.076677025474828e+000	 1.162884192446626e+001
 2.708794905962132e+000	 1.103655361759014e+000	 1.157214410366626e+001
 2.697668818628000e+000	 1.130578588647856e+000	 1.149626095337923e+001
 2.686252511314052e+000	 1.157442199665550e+000	 1.140161792124843e+001
 2.674546066883441e+000	 1.184241671377402e+000	 1.128880932675184e+001
 2.662549659205076e+000	 1.210972465572949e+000	 1.115860368623008e+001
 2.650263553926928e+000	 1.237630031485815e+000	 1.101194871685218e+001
 2.637688109186321e+000	 1.264209808048359e+000	 1.117928593212649e+001
 2.624823776255603e+000	 1.290707226179090e+000	 1.162005325474215e+001
 2.611671100121684e+000	 1.317117711100763e+000	 1.204807030772321e+001
 2.598230719997987e+000	 1.343436684686967e+000	 1.246274724831185e+001
 2.742875488151270e+000	 1.085879393212413e+000	 1.163558993623870e+001
 2.731946999176162e+000	 1.113088313567753e+000	 1.156712472479110e+001
 2.720725817078890e+000	 1.140241653507206e+000	 1.147338302758532e+001
 2.709211934489051e+000	 1.167334868038079e+000	 1.135457946383141e+001
 2.697405434978025e+000	 1.194363395063843e+000	 1.121110507609514e+001
 2.685306493900782e+000	 1.221322657585910e+000	 1.104353306582042e+001
 2.672915379175787e+000	 1.248208065942465e+000	 1.085262419887786e+001
 2.660232452001367e+000	 1.275015020082383e+000	 1.122792238368928e+001
 2.647258167506897e+000	 1.301738911872195e+000	 1.162793691868816e+001
 2.633993075337294e+000	 1.328375127433993e+000	 1.200998964683063e+001
 2.620437820169345e+000	 1.354919049512082e+000	 1.237335093063993e+001
 2.766120195677642e+000	 1.095081760949999e+000	 1.164823024422022e+001
 2.755099092389776e+000	 1.122521265376493e+000	 1.156585989034893e+001
 2.743782815529437e+000	 1.149904718366556e+000	 1.145207026073545e+001
 2.732171357663757e+000	 1.177227536410608e+000	 1.130686484672096e+001
 2.720264803072348e+000	 1.204485118750283e+000	 1.113043123517928e+001
 2.708063328596237e+000	 1.231672849598870e+000	 1.092314725819391e+001
 2.695567204424388e+000	 1.258786100399115e+000	 1.089301642219824e+001
 2.682776794816125e+000	 1.285820232116408e+000	 1.127061741252132e+001
 2.669692558757854e+000	 1.312770597565300e+000	 1.162599947026012e+001
 2.656315050552498e+000	 1.339632543767224e+000	 1.195826727235345e+001
 2.642644920340206e+000	 1.366401414337198e+000	 1.226655378604011e+001
 2.789364903203508e+000	 1.104284128687585e+000	 1.166945664518472e+001
 2.778251185602976e+000	 1.131954217185233e+000	 1.157119261074511e+001
 2.766839813979641e+000	 1.159567783225906e+000	 1.143531196917083e+001
 2.755130780838170e+000	 1.187120204783136e+000	 1.126160669242685e+001
 2.743124171166410e+000	 1.214606842436723e+000	 1.105006064262701e+001
 2.730820163291444e+000	 1.242023041611831e+000	 1.080085613964184e+001
 2.718219029672730e+000	 1.269364134855766e+000	 1.097379679955924e+001
 2.705321137630596e+000	 1.296625444150433e+000	 1.130792922418631e+001
 2.692126950008475e+000	 1.323802283258405e+000	 1.161488600001045e+001
 2.678637025767297e+000	 1.350889960100455e+000	 1.189363349266763e+001
 2.664852020510573e+000	 1.377883779162314e+000	 1.214316962870574e+001
 2.442781018784593e+000	 1.263060130911157e+000	 1.240079329291583e+001
 2.429874963012998e+000	 1.287714123616817e+000	 1.232223953173219e+001
 2.416699885617484e+000	 1.312273471080953e+000	 1.224577088562699e+001
 2.403256655568766e+000	 1.336733873108761e+000	 1.217029318555593e+001
 2.389546231691873e+000	 1.361091035406278e+000	 1.209467324118200e+001
 2.375569662812049e+000	 1.385340671887672e+000	 1.201773981475136e+001
 2.361328087830619e+000	 1.409478506995772e+000	 1.193828471388836e+001
 2.346822735730042e+000	 1.433500278033387e+000	 1.185506400334370e+001
 2.332054925507497e+000	 1.457401737502926e+000	 1.176679933536123e+001
 2.317026066036402e+000	 1.481178655451782e+000	 1.167217939795514e+001
 2.301737655855408e+000	 1.504826821820936e+000	 1.156986148000845e+001
 2.464988118959423e+000	 1.274542495736273e+000	 1.250858090977253e+001
 2.451964735408257e+000	 1.299420615648048e+000	 1.238545515187756e+001
 2.438669884582033e+000	 1.324203229907143e+000	 1.226825938432635e+001
 2.425104443351200e+000	 1.348885999226073e+000	 1.215613517356679e+001
 2.411269379257375e+000	 1.373464590271840e+000	 1.204818185447252e+001
 2.397165750660581e+000	 1.397934677994196e+000	 1.194345723180306e+001
 2.382794706815789e+000	 1.422291947967267e+000	 1.184097840402620e+001
 2.368157487878027e+000	 1.446532098742073e+000	 1.173972271003853e+001
 2.353255424835356e+000	 1.470650844207407e+000	 1.163862879894745e+001
 2.338089939369133e+000	 1.494643915956549e+000	 1.153659782269702e+001
 2.322662543641093e+000	 1.518507065657215e+000	 1.143249475093151e+001
 2.487195219133758e+000	 1.286024860561388e+000	 1.259086019510809e+001
 2.474054507802924e+000	 1.311127107679275e+000	 1.242957331245898e+001
 2.460639883545905e+000	 1.336132988733313e+000	 1.227803054034566e+001
 2.446952231132880e+000	 1.361038125343341e+000	 1.213560573463682e+001
 2.432992526822060e+000	 1.385838145137323e+000	 1.200162727781494e+001
 2.418761838508240e+000	 1.410528684100595e+000	 1.187537851083804e+001
 2.404261325800040e+000	 1.435105388938585e+000	 1.175609829090506e+001
 2.389492240025056e+000	 1.459563919450517e+000	 1.164298167616017e+001
 2.374455924162234e+000	 1.483899950911571e+000	 1.153518073799351e+001
 2.359153812700870e+000	 1.508109176460914e+000	 1.143180550120746e+001
 2.343587431425777e+000	 1.532187309492996e+000	 1.133192501192144e+001
 2.509402319307596e+000	 1.297507225386504e+000	 1.262885091419130e+001
 2.496144280197001e+000	 1.322833599710497e+000	 1.245495950456843e+001
 2.482609882509102e+000	 1.348062747559464e+000	 1.227527001548066e+001
 2.468800018913809e+000	 1.373190251460564e+000	 1.210871284984073e+001
 2.454715674385927e+000	 1.398211700002727e+000	 1.195484204931333e+001
 2.440357926355025e+000	 1.423122690206872e+000	 1.181316307283063e+001
 2.425727944783372e+000	 1.447918829909724e+000	 1.168313309113061e+001
 2.410826992171133e+000	 1.472595740158718e+000	 1.156416141237181e+001
 2.395656423488133e+000	 1.497149057615417e+000	 1.145561003997236e+001
 2.380217686031612e+000	 1.521574436964876e+000	 1.135679436342597e+001
 2.364512319209461e+000	 1.545867553328280e+000	 1.126698398244310e+001
 2.531609419480937e+000	 1.308989590211620e+000	 1.261788457587991e+001
 2.518234052590487e+000	 1.334540091741714e+000	 1.243268452871359e+001
 2.504579881471621e+000	 1.359992506385595e+000	 1.225443603551020e+001
 2.490647806693985e+000	 1.385342377577743e+000	 1.207543986198105e+001
 2.476438821948976e+000	 1.410585254868052e+000	 1.190764015690584e+001
 2.461954014200937e+000	 1.435716696313025e+000	 1.175645781333273e+001
 2.447194563765786e+000	 1.460732270880685e+000	 1.162156495418076e+001
 2.432161744316254e+000	 1.485627560866675e+000	 1.150258175099143e+001
 2.416856922813052e+000	 1.510398164318946e+000	 1.139907673024496e+001
 2.401281559361360e+000	 1.535039697468435e+000	 1.131056721785562e+001
 2.385437206992146e+000	 1.559547797163067e+000	 1.123651992266582e+001
 2.553816519653783e+000	 1.320471955036735e+000	 1.258591411275963e+001
 2.540323824983382e+000	 1.346246583772926e+000	 1.238895763417594e+001
 2.526549880433464e+000	 1.371922265211707e+000	 1.220170666733547e+001
 2.512495594473410e+000	 1.397494503694878e+000	 1.202527953911518e+001
 2.498161969511209e+000	 1.422958809733299e+000	 1.185981784489359e+001
 2.483550102045977e+000	 1.448310702419053e+000	 1.170489764705746e+001
 2.468661182747281e+000	 1.473545711851468e+000	 1.157086974793293e+001
 2.453496496460421e+000	 1.498659381574390e+000	 1.145756187548506e+001
 2.438057422136993e+000	 1.523647271022157e+000	 1.136474574867387e+001
 2.422345432690112e+000	 1.548504957971592e+000	 1.129213727858195e+001
 2.406362094773829e+000	 1.573228040997356e+000	 1.123939691430237e+001
 2.576023619826133e+000	 1.331954319861851e+000	 1.253389560790738e+001
 2.562413597375686e+000	 1.357953075804133e+000	 1.233099774318715e+001
 2.548519879394630e+000	 1.383852024037799e+000	 1.214050120332973e+001
 2.534343382252084e+000	 1.409646629811968e+000	 1.196377197866501e+001
 2.519885117072623e+000	 1.435332364598465e+000	 1.180219128916751e+001
 2.505146189890143e+000	 1.460904708524959e+000	 1.165715377903247e+001
 2.490127801727857e+000	 1.486359152822073e+000	 1.153051732942267e+001
 2.474831248603634e+000	 1.511691202281862e+000	 1.142842034843445e+001
 2.459257921459952e+000	 1.536896377725050e+000	 1.135178673779129e+001
 2.443409306017870e+000	 1.561970218474346e+000	 1.130052771675659e+001
 2.427286982554514e+000	 1.586908284831148e+000	 1.127449417864581e+001
 2.598230719997987e+000	 1.343436684686967e+000	 1.246274724831185e+001
 2.584503369767397e+000	 1.369659567835335e+000	 1.225956350690726e+001
 2.570489878355120e+000	 1.395781782863870e+000	 1.207142010171563e+001
 2.556191170030006e+000	 1.421798755929015e+000	 1.189992815917659e+001
 2.541608264633220e+000	 1.447705919463553e+000	 1.174671322287848e+001
 2.526742277733436e+000	 1.473498714630741e+000	 1.161341316544924e+001
 2.511594420707514e+000	 1.499172593792499e+000	 1.150167605255667e+001
 2.496166000745893e+000	 1.524723022989092e+000	 1.141447513807074e+001
 2.480458420781933e+000	 1.550145484427626e+000	 1.135937384183025e+001
 2.464473179344632e+000	 1.575435478976699e+000	 1.133477123508154e+001
 2.448211870334198e+000	 1.600588528664443e+000	 1.134070542957897e+001
 2.620437820169345e+000	 1.354919049512082e+000	 1.237335093063993e+001
 2.606593142158518e+000	 1.381366059866532e+000	 1.217538253820694e+001
 2.592459877314933e+000	 1.407711541689923e+000	 1.199503798915467e+001
 2.578038957807175e+000	 1.433950882046016e+000	 1.183417109883317e+001
 2.563331412193000e+000	 1.460079474328562e+000	 1.169464930808649e+001
 2.548338365575855e+000	 1.486092720736399e+000	 1.157835131444633e+001
 2.533061039686254e+000	 1.511986034762747e+000	 1.148716465374725e+001
 2.517500752887197e+000	 1.537754843696078e+000	 1.142298323650974e+001
 2.501658920102933e+000	 1.563394591129885e+000	 1.138770484361217e+001
 2.485537052670400e+000	 1.588900739478649e+000	 1.139390966392990e+001
 2.469136758112883e+000	 1.614268772497240e+000	 1.143693825948155e+001
 2.642644920340206e+000	 1.366401414337198e+000	 1.226655378604011e+001
 2.628682914549048e+000	 1.393072551897724e+000	 1.207915271579747e+001
 2.614429876274070e+000	 1.419641300515956e+000	 1.191190474610689e+001
 2.599886745583591e+000	 1.446103008162973e+000	 1.176690401165135e+001
 2.585054559751962e+000	 1.472453029193492e+000	 1.164625750149893e+001
 2.569934453417402e+000	 1.498686726841934e+000	 1.155208241151403e+001
 2.554527658664074e+000	 1.524799475732817e+000	 1.148650344549131e+001
 2.538835505027548e+000	 1.550786664402821e+000	 1.145165006983257e+001
 2.522859419422954e+000	 1.576643697831826e+000	 1.144965372677116e+001
 2.506600925995173e+000	 1.602365999980196e+000	 1.148264501132005e+001
 2.490061645890567e+000	 1.627949016329540e+000	 1.156211355610014e+001
 2.664852020510573e+000	 1.377883779162314e+000	 1.214316962870574e+001
 2.650772686938987e+000	 1.404779043928912e+000	 1.197154342315386e+001
 2.636399875232532e+000	 1.431571059341969e+000	 1.182254653792257e+001
 2.621734533359257e+000	 1.458255134279886e+000	 1.169851113265475e+001
 2.606777707310106e+000	 1.484826584058344e+000	 1.160178147053102e+001
 2.591530541258077e+000	 1.511280732947345e+000	 1.153471099374266e+001
 2.575994277640976e+000	 1.537612916702709e+000	 1.149965934597649e+001
 2.560170257166945e+000	 1.563818485109322e+000	 1.149898934720399e+001
 2.544059918741996e+000	 1.589892804533449e+000	 1.153506392625967e+001
 2.527664799318952e+000	 1.615831260481341e+000	 1.161024301687439e+001
 2.510986533667252e+000	 1.641629260161343e+000	 1.172688042299394e+001
 2.301737655855408e+000	 1.504826821820936e+000	 1.156986148000845e+001
 2.286191282884384e+000	 1.528342048794389e+000	 1.150925917141479e+001
 2.270388624067453e+000	 1.551720173146156e+000	 1.147074352993192e+001
 2.254331444942703e+000	 1.574957058582615e+000	 1.145442719716620e+001
 2.238021599138304e+000	 1.598048598078017e+000	 1.146037479556241e+001
 2.221461027795396e+000	 1.620990716199807e+000	 1.148860327235056e+001
 2.204651758917846e+000	 1.643779371421331e+000	 1.153908236791739e+001
 2.187595906649108e+000	 1.666410558419238e+000	 1.161173520794557e+001
 2.170295670476612e+000	 1.688880310352929e+000	 1.170643901826627e+001
 2.152753334364159e+000	 1.711184701123381e+000	 1.182302596097440e+001
 2.134971265812936e+000	 1.733319847608720e+000	 1.196128408996162e+001
 2.322662543641093e+000	 1.518507065657215e+000	 1.143249475093151e+001
 2.306974840006722e+000	 1.542236067422203e+000	 1.140834263949013e+001
 2.291028520655075e+000	 1.565826720177869e+000	 1.140308679542861e+001
 2.274825367174591e+000	 1.589274850027924e+000	 1.141661553098949e+001
 2.258367250044602e+000	 1.612576312610017e+000	 1.144876995179867e+001
 2.241656128052987e+000	 1.635726995442208e+000	 1.149934455991422e+001
 2.224694047640010e+000	 1.658722820256690e+000	 1.156808798335232e+001
 2.207483142168611e+000	 1.681559745318081e+000	 1.165470383099069e+001
 2.190025631121564e+000	 1.704233767723595e+000	 1.175885167134052e+001
 2.172323819225972e+000	 1.726740925682400e+000	 1.188014813327355e+001
 2.154380095505764e+000	 1.749077300771513e+000	 1.201816812638673e+001
 2.343587431425777e+000	 1.532187309492996e+000	 1.133192501192144e+001
 2.327758397128064e+000	 1.556130086049429e+000	 1.133881773456279e+001
 2.311668417241718e+000	 1.579933267208925e+000	 1.136150151188398e+001
 2.295319289405525e+000	 1.603592641472524e+000	 1.139964248033420e+001
 2.278712900949980e+000	 1.627104027141278e+000	 1.145286030841173e+001
 2.261851228309702e+000	 1.650463274683859e+000	 1.152072905697338e+001
 2.244736336361353e+000	 1.673666269091308e+000	 1.160277816819060e+001
 2.227370377687360e+000	 1.696708932216214e+000	 1.169849358161148e+001
 2.209755591765835e+000	 1.719587225093602e+000	 1.180731897536969e+001
 2.191894304087189e+000	 1.742297150240828e+000	 1.192865713016513e+001
 2.173788925198088e+000	 1.764834753933805e+000	 1.206187141322963e+001
 2.364512319209461e+000	 1.545867553328280e+000	 1.126698398244310e+001
 2.348541954248410e+000	 1.570024104676068e+000	 1.129966013170190e+001
 2.332308313827380e+000	 1.594039814239324e+000	 1.134510619384689e+001
 2.315813211635502e+000	 1.617910432916416e+000	 1.140276820615316e+001
 2.299058551854437e+000	 1.641631741671801e+000	 1.147204640289856e+001
 2.282046328565542e+000	 1.665199553924761e+000	 1.155229633116561e+001
 2.264778625081876e+000	 1.688609717925187e+000	 1.164283009757587e+001
 2.247257613205352e+000	 1.711858119113637e+000	 1.174291774397951e+001
 2.229485552409424e+000	 1.734940682462946e+000	 1.185178874969207e+001
 2.211464788947809e+000	 1.757853374798665e+000	 1.196863365744494e+001
 2.193197754889913e+000	 1.780592207095596e+000	 1.209260581979549e+001
 2.385437206992146e+000	 1.559547797163067e+000	 1.123651992266582e+001
 2.369325511367762e+000	 1.583918123302120e+000	 1.128985705403955e+001
 2.352948210412062e+000	 1.608146361269064e+000	 1.135302596799896e+001
 2.336307133864524e+000	 1.632228224359600e+000	 1.142525460482966e+001
 2.319404202757974e+000	 1.656159456201584e+000	 1.150572569320247e+001
 2.302241428820505e+000	 1.679935833164913e+000	 1.159357811976955e+001
 2.284820913801577e+000	 1.703553166758326e+000	 1.168790843209676e+001
 2.267144848722588e+000	 1.727007306010348e+000	 1.178777247252045e+001
 2.249215513052331e+000	 1.750294139831630e+000	 1.189218714007498e+001
 2.231035273807834e+000	 1.773409599355911e+000	 1.200013227720100e+001
 2.212606584581236e+000	 1.796349660256885e+000	 1.211055267751504e+001
 2.406362094773829e+000	 1.573228040997356e+000	 1.123939691430237e+001
 2.390109068486118e+000	 1.597812141927584e+000	 1.130840677068101e+001
 2.373588106995764e+000	 1.622252908298146e+000	 1.138439228567043e+001
 2.356801056092591e+000	 1.646546015802076e+000	 1.146636523272400e+001
 2.339749853660591e+000	 1.670687170730629e+000	 1.155329269160665e+001
 2.322436529074593e+000	 1.694672112404316e+000	 1.164409867015539e+001
 2.304863202520457e+000	 1.718496615590724e+000	 1.173766586189795e+001
 2.287032084239069e+000	 1.742156492906350e+000	 1.183283753668566e+001
 2.268945473694558e+000	 1.765647597199653e+000	 1.192841956104400e+001
 2.250605758667262e+000	 1.788965823912565e+000	 1.202318254449643e+001
 2.232015414272057e+000	 1.812107113417673e+000	 1.211586410767825e+001
 2.427286982554514e+000	 1.586908284831148e+000	 1.127449417864581e+001
 2.410892625603480e+000	 1.611706160552461e+000	 1.135431812058524e+001
 2.394228003578486e+000	 1.636359455326572e+000	 1.143834265022610e+001
 2.377294978319703e+000	 1.660863807243843e+000	 1.152536523462276e+001
 2.360095504562286e+000	 1.685214885258934e+000	 1.161413909170232e+001
 2.342631629327805e+000	 1.709408391642969e+000	 1.170337506262579e+001
 2.324905491238517e+000	 1.733440064422383e+000	 1.179174362264767e+001
 2.306919319754793e+000	 1.757305679801640e+000	 1.187787702720111e+001
 2.288675434336103e+000	 1.781001054567014e+000	 1.196037158947098e+001
 2.270176243526093e+000	 1.804522048468628e+000	 1.203779008525845e+001
 2.251424243962378e+000	 1.827864566577960e+000	 1.210866428049201e+001
 2.448211870334198e+000	 1.600588528664443e+000	 1.134070542957897e+001
 2.431676182719846e+000	 1.625600179176749e+000	 1.142661006086168e+001
 2.414867900160228e+000	 1.650466002354339e+000	 1.151402035843132e+001
 2.397788900545859e+000	 1.675181598684902e+000	 1.160152127585734e+001
 2.380441155463061e+000	 1.699742599786501e+000	 1.168765388884568e+001
 2.362826729580141e+000	 1.724144670880873e+000	 1.177091751670073e+001
 2.344947779955755e+000	 1.748383513253301e+000	 1.184977198504518e+001
 2.326806555269760e+000	 1.772454866696219e+000	 1.192264002609837e+001
 2.308405394976968e+000	 1.796354511933715e+000	 1.198790981233693e+001
 2.289746728384328e+000	 1.820078273024101e+000	 1.204393761889110e+001
 2.270833073652197e+000	 1.843622019737746e+000	 1.208905060957102e+001
 2.469136758112883e+000	 1.614268772497240e+000	 1.143693825948155e+001
 2.452459739835218e+000	 1.639494197800451e+000	 1.152431123803513e+001
 2.435507796740989e+000	 1.664572549381448e+000	 1.161057425496897e+001
 2.418282822771059e+000	 1.689499390125252e+000	 1.169410147787412e+001
 2.400786806362916e+000	 1.714270314313329e+000	 1.177322349448987e+001
 2.383021829831602e+000	 1.738880950118028e+000	 1.184622968182873e+001
 2.364990068672173e+000	 1.763326962083479e+000	 1.191137071943816e+001
 2.346693790783972e+000	 1.787604053590089e+000	 1.196686124267628e+001
 2.328135355617151e+000	 1.811707969299755e+000	 1.201088263138859e+001
 2.309317213241967e+000	 1.835634497578981e+000	 1.204158592889054e+001
 2.290241903341514e+000	 1.859379472897029e+000	 1.205709488569158e+001
 2.490061645890567e+000	 1.627949016329540e+000	 1.156211355610014e+001
 2.473243296949594e+000	 1.653388216423565e+000	 1.164645958092745e+001
 2.456147693320771e+000	 1.678679096407900e+000	 1.172715849933363e+001
 2.438776744995305e+000	 1.703817181564894e+000	 1.180237535705309e+001
 2.421132457261850e+000	 1.728798028839418e+000	 1.187023184475239e+001
 2.403216930082187e+000	 1.753617229354432e+000	 1.192880891344027e+001
 2.385032357387770e+000	 1.778270410912917e+000	 1.197614953701390e+001
 2.366581026297428e+000	 1.802753240483248e+000	 1.201026161739726e+001
 2.347865316256653e+000	 1.827061426665134e+000	 1.202912102722379e+001
 2.328887698099010e+000	 1.851190722133271e+000	 1.203067478452192e+001
 2.309650733030330e+000	 1.875136926055812e+000	 1.201406285109142e+001
 2.510986533667252e+000	 1.641629260161343e+000	 1.172688042299394e+001
 2.494026854062975e+000	 1.667282235046092e+000	 1.179210191389513e+001
 2.476787589899573e+000	 1.692785643433693e+000	 1.186293234438113e+001
 2.459270667218596e+000	 1.718134973003829e+000	 1.192561376658575e+001
 2.441478108159864e+000	 1.743325743364769e+000	 1.197806050355406e+001
 2.423412030331897e+000	 1.768353508590088e+000	 1.201814653519852e+001
 2.405074646102547e+000	 1.793213859741616e+000	 1.204370850893106e+001
 2.386468261810128e+000	 1.817902427375696e+000	 1.205254889558884e+001
 2.367595276895474e+000	 1.842414884029853e+000	 1.204243928517265e+001
 2.348458182955457e+000	 1.866746946686970e+000	 1.201112381641235e+001
 2.329059562718645e+000	 1.890894379214094e+000	 1.209900079923585e+001
 2.134971265812936e+000	 1.733319847608720e+000	 1.196128408996162e+001
 2.116951914852261e+000	 1.755281911873847e+000	 1.196977622065895e+001
 2.098697812959695e+000	 1.777067103351779e+000	 1.195967853713941e+001
 2.080211571912335e+000	 1.798671680993865e+000	 1.192898045364788e+001
 2.061495882571018e+000	 1.820091955386313e+000	 1.187566782967399e+001
 2.042553513597452e+000	 1.841324290830752e+000	 1.179772635194334e+001
 2.023387310105892e+000	 1.862365107386282e+000	 1.169314497200046e+001
 2.004000192250766e+000	 1.883210882870656e+000	 1.162065989486252e+001
 1.984395153751669e+000	 1.903858154818207e+000	 1.160725962695980e+001
 1.964575260357303e+000	 1.924303522392292e+000	 1.155683341032178e+001
 1.944543648250000e+000	 1.944543648250000e+000	 1.146783117462367e+001
 2.154380095505764e+000	 1.749077300771513e+000	 1.201816812638673e+001
 2.136196932263273e+000	 1.771239020165651e+000	 1.198130873919593e+001
 2.117776883989519e+000	 1.793222258838262e+000	 1.192825571411231e+001
 2.099122586205026e+000	 1.815023241731164e+000	 1.185707729643852e+001
 2.080236754233004e+000	 1.836638245890441e+000	 1.176583490159019e+001
 2.061122181904811e+000	 1.858063602565916e+000	 1.165258644388673e+001
 2.041781740199379e+000	 1.879295699271775e+000	 1.154784683353422e+001
 2.022218375817995e+000	 1.900330981805929e+000	 1.154146851767764e+001
 2.002435109695884e+000	 1.921165956225754e+000	 1.150238091720556e+001
 1.982435035452191e+000	 1.941797190777908e+000	 1.142909019836031e+001
 1.962221317780000e+000	 1.962221317780000e+000	 1.132011725527479e+001
 2.173788925198088e+000	 1.764834753933805e+000	 1.206187141322963e+001
 2.155441949673878e+000	 1.787196128457048e+000	 1.198315788252014e+001
 2.136855955019021e+000	 1.809377414324423e+000	 1.189061650434132e+001
 2.118033600497470e+000	 1.831374802468217e+000	 1.178239175091184e+001
 2.098977625894809e+000	 1.853184536394387e+000	 1.165661798317996e+001
 2.079690850212045e+000	 1.874802914300954e+000	 1.151142272948499e+001
 2.060176170292787e+000	 1.896226291157187e+000	 1.150681681111428e+001
 2.040436559385177e+000	 1.917451080741158e+000	 1.147515768713393e+001
 2.020475065640079e+000	 1.938473757633281e+000	 1.141349290931469e+001
 2.000294810547075e+000	 1.959290859163519e+000	 1.132040098556053e+001
 1.979898987310000e+000	 1.979898987310000e+000	 1.119447158117220e+001
 2.193197754889913e+000	 1.780592207095596e+000	 1.209260581979549e+001
 2.174686967084077e+000	 1.803153236748038e+000	 1.197545347512172e+001
 2.155935026048201e+000	 1.825532569810263e+000	 1.184681036478995e+001
 2.136944614789670e+000	 1.847726363205024e+000	 1.170489461670778e+001
 2.117718497556434e+000	 1.869730826898153e+000	 1.154791095864392e+001
 2.098259518519154e+000	 1.891542226035867e+000	 1.150302330663904e+001
 2.078570600386115e+000	 1.913156883042519e+000	 1.147515176810816e+001
 2.058654742952316e+000	 1.934571179676341e+000	 1.142129188508667e+001
 2.038515021584253e+000	 1.955781559040788e+000	 1.134008722947713e+001
 2.018154585641954e+000	 1.976784527549125e+000	 1.123018647817620e+001
 1.997576656840000e+000	 1.997576656840000e+000	 1.109024590270779e+001
 2.212606584581236e+000	 1.796349660256885e+000	 1.211055267751504e+001
 2.193931984493869e+000	 1.819110345038622e+000	 1.195829790561810e+001
 2.175014097077061e+000	 1.841687725295783e+000	 1.179686237451368e+001
 2.155855629081623e+000	 1.864077923941585e+000	 1.162453532795427e+001
 2.136459369217877e+000	 1.886277117401738e+000	 1.152954782640713e+001
 2.116828186826137e+000	 1.908281537770655e+000	 1.150209097720467e+001
 2.096965030479361e+000	 1.930087474927769e+000	 1.145247833135599e+001
 2.076872926519409e+000	 1.951691278611478e+000	 1.137942579208426e+001
 2.056554977528407e+000	 1.973089360448274e+000	 1.128164846511607e+001
 2.036014360736828e+000	 1.994278195934725e+000	 1.115786305207308e+001
 2.015254326370000e+000	 2.015254326370001e+000	 1.100679029278346e+001
 2.232015414272057e+000	 1.812107113417673e+000	 1.211586410767825e+001
 2.213177001903255e+000	 1.835067453328800e+000	 1.193176731961795e+001
 2.194093168105600e+000	 1.857842880780981e+000	 1.174077429456909e+001
 2.174766643373330e+000	 1.880429484677900e+000	 1.158559797190341e+001
 2.155200240879140e+000	 1.902823407905143e+000	 1.155544972949057e+001
 2.135396855132995e+000	 1.925020849505317e+000	 1.150678898928380e+001
 2.115359460572527e+000	 1.947018066812941e+000	 1.143841105959379e+001
 2.095091110086457e+000	 1.968811377546571e+000	 1.134910471351194e+001
 2.074594933472542e+000	 1.990397161855741e+000	 1.123765447092125e+001
 2.053874135831696e+000	 2.011771864320322e+000	 1.110284294100685e+001
 2.032931995899999e+000	 2.032931995899999e+000	 1.094345321974530e+001
 2.251424243962378e+000	 1.827864566577960e+000	 1.210866428049201e+001
 2.232422019312235e+000	 1.851024561618572e+000	 1.189591275088546e+001
 2.213172239133817e+000	 1.873998036265858e+000	 1.167852557309997e+001
 2.193677657664791e+000	 1.896781045413969e+000	 1.163445564157092e+001
 2.173941112540222e+000	 1.919369698408366e+000	 1.158371281310800e+001
 2.153965523439727e+000	 1.941760161239853e+000	 1.151678875733199e+001
 2.133753890665613e+000	 1.963948658698031e+000	 1.143255296363057e+001
 2.113309293653459e+000	 1.985931476481618e+000	 1.132986498369368e+001
 2.092634889416655e+000	 2.007704963263187e+000	 1.120757665905299e+001
 2.071733910926561e+000	 2.029265532705913e+000	 1.106453441516225e+001
 2.050609665430000e+000	 2.050609665430000e+000	 1.089958161654548e+001
 2.270833073652197e+000	 1.843622019737746e+000	 1.208905060957102e+001
 2.251667036720809e+000	 1.866981669907937e+000	 1.185076119449603e+001
 2.232251310161713e+000	 1.890153191750413e+000	 1.173809590865719e+001
 2.212588671956006e+000	 1.913132606149793e+000	 1.168249741662572e+001
 2.192681984201123e+000	 1.935915988911409e+000	 1.161406247226187e+001
 2.172534191746333e+000	 1.958499472974264e+000	 1.153174812958227e+001
 2.152148320758618e+000	 1.980879250583041e+000	 1.143449599984931e+001
 2.131527477220416e+000	 2.003051575416621e+000	 1.132123434927085e+001
 2.110674845360750e+000	 2.025012764670614e+000	 1.119088027446393e+001
 2.089593686021419e+000	 2.046759201091499e+000	 1.104234195053649e+001
 2.068287334960000e+000	 2.068287334960000e+000	 1.087452094635748e+001
 2.290241903341514e+000	 1.859379472897029e+000	 1.205709488569158e+001
 2.270912054128976e+000	 1.882938778196897e+000	 1.186512345416735e+001
 2.251330381189289e+000	 1.906308347234647e+000	 1.180215528733479e+001
 2.231499686246975e+000	 1.929484166885370e+000	 1.172949993858930e+001
 2.211422855861843e+000	 1.952462279414270e+000	 1.164620866325375e+001
 2.191102860052813e+000	 1.975238784708549e+000	 1.155131196288514e+001
 2.170542750851543e+000	 1.997809842467971e+000	 1.144382153861490e+001
 2.149745660787328e+000	 2.020171674351577e+000	 1.132273233308714e+001
 2.128714801304823e+000	 2.042320566078020e+000	 1.118702465622148e+001
 2.107453461116273e+000	 2.064252869477080e+000	 1.103566638970986e+001
 2.085965004490000e+000	 2.085965004490000e+000	 1.086761526485480e+001
 2.309650733030330e+000	 1.875136926055812e+000	 1.201406285109142e+001
 2.290157071536736e+000	 1.898895886485449e+000	 1.194146976719229e+001
 2.270409452216542e+000	 1.922463502718561e+000	 1.186213908512423e+001
 2.250410700537698e+000	 1.945835727620701e+000	 1.177522267545101e+001
 2.230163727522383e+000	 1.969008569916952e+000	 1.167984655236926e+001
 2.209671528359169e+000	 1.991978096442708e+000	 1.157511266856488e+001
 2.188937180944388e+000	 2.014740434352820e+000	 1.146010080906489e+001
 2.167963844354194e+000	 2.037291773286489e+000	 1.133387057972614e+001
 2.146754757248877e+000	 2.059628367485406e+000	 1.119546348565415e+001
 2.125313236211122e+000	 2.081746537862656e+000	 1.104390509451035e+001
 2.103642674020000e+000	 2.103642674020000e+000	 1.087820727934951e+001
 2.329059562718645e+000	 1.890894379214094e+000	 1.209900079923585e+001
 2.309402088944092e+000	 1.914852994773596e+000	 1.201079384332167e+001
 2.289488523243476e+000	 1.938618658202153e+000	 1.191785381284322e+001
 2.269321714828176e+000	 1.962187288355787e+000	 1.181940863723191e+001
 2.248904599182742e+000	 1.985554860419452e+000	 1.171465713212866e+001
 2.228240196665399e+000	 2.008717408176743e+000	 1.160277073098323e+001
 2.207331611037153e+000	 2.031671026237589e+000	 1.148289532166047e+001
 2.186182027921017e+000	 2.054411872221357e+000	 1.135415318377235e+001
 2.164794713192912e+000	 2.076936168892773e+000	 1.121564502209078e+001
 2.143173011305966e+000	 2.099240206248227e+000	 1.106645209104501e+001
 2.121320343550000e+000	 2.121320343550000e+000	 1.090563840497418e+001
 1.944543648250000e+000	 1.944543648250000e+000	 1.146783117462367e+001
 1.924303522392292e+000	 1.964575260357303e+000	 1.165760830887321e+001
 1.903858154818207e+000	 1.984395153751669e+000	 1.178742333657224e+001
 1.883210882870656e+000	 2.004000192250766e+000	 1.185521441659645e+001
 1.862365107386283e+000	 2.023387310105892e+000	 1.186137827912920e+001
 1.841324290830751e+000	 2.042553513597451e+000	 1.181233389137317e+001
 1.820091955386314e+000	 2.061495882571018e+000	 1.170850048400755e+001
 1.798671680993865e+000	 2.080211571912334e+000	 1.154991544391876e+001
 1.777067103351779e+000	 2.098697812959695e+000	 1.133668037504373e+001
 1.755281911873847e+000	 2.116951914852261e+000	 1.106896021773591e+001
 1.733319847608720e+000	 2.134971265812937e+000	 1.074698227888639e+001
 1.962221317780000e+000	 1.962221317780000e+000	 1.132011725527479e+001
 1.941797190777907e+000	 1.982435035452191e+000	 1.147955040355862e+001
 1.921165956225753e+000	 2.002435109695884e+000	 1.158371938009537e+001
 1.900330981805929e+000	 2.022218375817995e+000	 1.163072247323076e+001
 1.879295699271775e+000	 2.041781740199379e+000	 1.161869739038198e+001
 1.858063602565916e+000	 2.061122181904811e+000	 1.154953774977789e+001
 1.836638245890441e+000	 2.080236754233004e+000	 1.143051452197477e+001
 1.815023241731165e+000	 2.099122586205026e+000	 1.126212718891170e+001
 1.793222258838262e+000	 2.117776883989519e+000	 1.104467846692953e+001
 1.771239020165651e+000	 2.136196932263273e+000	 1.077852908771407e+001
 1.749077300771513e+000	 2.154380095505764e+000	 1.046409661569958e+001
 1.979898987310000e+000	 1.979898987310000e+000	 1.119447158117220e+001
 1.959290859163519e+000	 2.000294810547075e+000	 1.132941655586657e+001
 1.938473757633281e+000	 2.020475065640078e+000	 1.141371243841704e+001
 1.917451080741157e+000	 2.040436559385178e+000	 1.144561412211428e+001
 1.896226291157187e+000	 2.060176170292787e+000	 1.142341056695195e+001
 1.874802914300954e+000	 2.079690850212046e+000	 1.134541944912942e+001
 1.853184536394388e+000	 2.098977625894809e+000	 1.121594518732888e+001
 1.831374802468217e+000	 2.118033600497470e+000	 1.104237657964764e+001
 1.809377414324423e+000	 2.136855955019021e+000	 1.082521578256291e+001
 1.787196128457048e+000	 2.155441949673878e+000	 1.056501772919965e+001
 1.764834753933805e+000	 2.173788925198089e+000	 1.026238873484456e+001
 1.997576656840000e+000	 1.997576656840000e+000	 1.109024590270779e+001
 1.976784527549125e+000	 2.018154585641954e+000	 1.120641475134133e+001
 1.955781559040787e+000	 2.038515021584253e+000	 1.127646953068479e+001
 1.934571179676340e+000	 2.058654742952317e+000	 1.129881827493213e+001
 1.913156883042519e+000	 2.078570600386115e+000	 1.127189777061092e+001
 1.891542226035867e+000	 2.098259518519154e+000	 1.119417643379070e+001
 1.869730826898153e+000	 2.117718497556434e+000	 1.106415323225481e+001
 1.847726363205024e+000	 2.136944614789669e+000	 1.088988487261641e+001
 1.825532569810264e+000	 2.155935026048202e+000	 1.067737684922563e+001
 1.803153236748038e+000	 2.174686967084077e+000	 1.042737677307925e+001
 1.780592207095596e+000	 2.193197754889913e+000	 1.014067826802385e+001
 2.015254326370000e+000	 2.015254326370001e+000	 1.100679029278346e+001
 1.994278195934726e+000	 2.036014360736828e+000	 1.110975658890511e+001
 1.973089360448274e+000	 2.056554977528407e+000	 1.117106649484009e+001
 1.951691278611479e+000	 2.076872926519410e+000	 1.118927777963686e+001
 1.930087474927769e+000	 2.096965030479361e+000	 1.116297168634025e+001
 1.908281537770655e+000	 2.116828186826137e+000	 1.109075569253830e+001
 1.886277117401738e+000	 2.136459369217877e+000	 1.097126627026879e+001
 1.864077923941585e+000	 2.155855629081622e+000	 1.080390680330060e+001
 1.841687725295782e+000	 2.175014097077062e+000	 1.060028431569134e+001
 1.819110345038622e+000	 2.193931984493869e+000	 1.036459951263058e+001
 1.796349660256885e+000	 2.212606584581236e+000	 1.009783194658650e+001
 2.032931995899999e+000	 2.032931995899999e+000	 1.094345321974530e+001
 2.011771864320322e+000	 2.053874135831696e+000	 1.103865712375467e+001
 1.990397161855741e+000	 2.074594933472541e+000	 1.109658760419262e+001
 1.968811377546571e+000	 2.095091110086456e+000	 1.111594881452361e+001
 1.947018066812941e+000	 2.115359460572527e+000	 1.109546313799260e+001
 1.925020849505317e+000	 2.135396855132995e+000	 1.103387383517572e+001
 1.902823407905143e+000	 2.155200240879140e+000	 1.092994769926769e+001
 1.880429484677901e+000	 2.174766643373330e+000	 1.078247771229351e+001
 1.857842880780981e+000	 2.194093168105600e+000	 1.059309729476938e+001
 1.835067453328800e+000	 2.213177001903255e+000	 1.037572004863590e+001
 1.812107113417673e+000	 2.232015414272058e+000	 1.013276155371750e+001
 2.050609665430000e+000	 2.050609665430000e+000	 1.089958161654548e+001
 2.029265532705913e+000	 2.071733910926561e+000	 1.099233471838406e+001
 2.007704963263187e+000	 2.092634889416655e+000	 1.105212520382666e+001
 1.985931476481618e+000	 2.113309293653459e+000	 1.107780031364658e+001
 1.963948658698031e+000	 2.133753890665613e+000	 1.106822030644409e+001
 1.941760161239853e+000	 2.153965523439727e+000	 1.102226099682924e+001
 1.919369698408366e+000	 2.173941112540221e+000	 1.093881630969261e+001
 1.896781045413970e+000	 2.193677657664791e+000	 1.081680084384806e+001
 1.873998036265857e+000	 2.213172239133817e+000	 1.065500979157905e+001
 1.851024561618572e+000	 2.232422019312235e+000	 1.045981153043794e+001
 1.827864566577960e+000	 2.251424243962378e+000	 1.024442198254823e+001
 2.068287334960000e+000	 2.068287334960000e+000	 1.087452094635748e+001
 2.046759201091498e+000	 2.089593686021419e+000	 1.097001090124704e+001
 2.025012764670613e+000	 2.110674845360750e+000	 1.103677936565359e+001
 2.003051575416620e+000	 2.131527477220416e+000	 1.107381342170097e+001
 1.980879250583041e+000	 2.152148320758619e+000	 1.108010798784118e+001
 1.958499472974264e+000	 2.172534191746333e+000	 1.105466825126100e+001
 1.935915988911409e+000	 2.192681984201123e+000	 1.099651212470504e+001
 1.913132606149792e+000	 2.212588671956005e+000	 1.090467272108894e+001
 1.890153191750413e+000	 2.232251310161714e+000	 1.077820083917209e+001
 1.866981669907937e+000	 2.251667036720808e+000	 1.061598448719790e+001
 1.843622019737746e+000	 2.270833073652197e+000	 1.043180939385112e+001
 2.085965004490000e+000	 2.085965004490000e+000	 1.086761526485480e+001
 2.064252869477080e+000	 2.107453461116273e+000	 1.097091023260630e+001
 2.042320566078020e+000	 2.128714801304823e+000	 1.104965756100391e+001
 2.020171674351578e+000	 2.149745660787329e+000	 1.110298097662296e+001
 1.997809842467971e+000	 2.170542750851543e+000	 1.113000688956370e+001
 1.975238784708549e+000	 2.191102860052813e+000	 1.112986672363867e+001
 1.952462279414270e+000	 2.211422855861843e+000	 1.110169927928496e+001
 1.929484166885370e+000	 2.231499686246975e+000	 1.104465312265788e+001
 1.906308347234647e+000	 2.251330381189289e+000	 1.095788899423783e+001
 1.882938778196897e+000	 2.270912054128976e+000	 1.084058223018120e+001
 1.859379472897029e+000	 2.290241903341515e+000	 1.069395946741077e+001
 2.103642674020000e+000	 2.103642674020000e+000	 1.087820727934951e+001
 2.081746537862656e+000	 2.125313236211122e+000	 1.099426017714652e+001
 2.059628367485406e+000	 2.146754757248877e+000	 1.108987434972724e+001
 2.037291773286489e+000	 2.167963844354194e+000	 1.116430701827716e+001
 2.014740434352820e+000	 2.188937180944388e+000	 1.121681296168577e+001
 1.991978096442708e+000	 2.209671528359169e+000	 1.124664674803939e+001
 1.969008569916952e+000	 2.230163727522383e+000	 1.125306500712921e+001
 1.945835727620701e+000	 2.250410700537698e+000	 1.123532873750690e+001
 1.922463502718561e+000	 2.270409452216543e+000	 1.119270564147601e+001
 1.898895886485449e+000	 2.290157071536736e+000	 1.112447248128638e+001
 1.875136926055812e+000	 2.309650733030330e+000	 1.102991744970327e+001
 2.121320343550000e+000	 2.121320343550000e+000	 1.090563840497418e+001
 2.099240206248228e+000	 2.143173011305966e+000	 1.103929098295672e+001
 2.076936168892773e+000	 2.164794713192911e+000	 1.115655108483742e+001
 2.054411872221356e+000	 2.186182027921017e+000	 1.125680632170949e+001
 2.031671026237590e+000	 2.207331611037154e+000	 1.133943676186340e+001
 2.008717408176743e+000	 2.228240196665399e+000	 1.140381706707864e+001
 1.985554860419452e+000	 2.248904599182742e+000	 1.144931867820498e+001
 1.962187288355787e+000	 2.269321714828175e+000	 1.147531204363536e+001
 1.938618658202153e+000	 2.289488523243476e+000	 1.148116888410791e+001
 1.914852994773596e+000	 2.309402088944092e+000	 1.146626448713387e+001
 1.890894379214094e+000	 2.329059562718646e+000	 1.142998002423346e+001
 1.733319847608720e+000	 2.134971265812937e+000	 1.074698227888639e+001
 1.711184701123380e+000	 2.152753334364159e+000	 1.059376865343064e+001
 1.688880310352929e+000	 2.170295670476612e+000	 1.046861326937183e+001
 1.666410558419238e+000	 2.187595906649107e+000	 1.037404232539946e+001
 1.643779371421331e+000	 2.204651758917846e+000	 1.031255053574366e+001
 1.620990716199807e+000	 2.221461027795396e+000	 1.028659796441860e+001
 1.598048598078017e+000	 2.238021599138304e+000	 1.029860692120993e+001
 1.574957058582615e+000	 2.254331444942703e+000	 1.035095892531724e+001
 1.551720173146155e+000	 2.270388624067453e+000	 1.044599174237033e+001
 1.528342048794388e+000	 2.286191282884385e+000	 1.058599650033154e+001
 1.504826821820936e+000	 2.301737655855408e+000	 1.077321488957320e+001
 1.749077300771513e+000	 2.154380095505764e+000	 1.046409661569958e+001
 1.726740925682399e+000	 2.172323819225972e+000	 1.037902940775549e+001
 1.704233767723596e+000	 2.190025631121564e+000	 1.031388046365397e+001
 1.681559745318081e+000	 2.207483142168611e+000	 1.027092368404474e+001
 1.658722820256690e+000	 2.224694047640010e+000	 1.025241046076274e+001
 1.635726995442208e+000	 2.241656128052987e+000	 1.026056670860875e+001
 1.612576312610017e+000	 2.258367250044602e+000	 1.029758994571850e+001
 1.589274850027924e+000	 2.274825367174592e+000	 1.036564642823323e+001
 1.565826720177869e+000	 2.291028520655076e+000	 1.046686834482034e+001
 1.542236067422203e+000	 2.306974840006722e+000	 1.060335107641593e+001
 1.518507065657215e+000	 2.322662543641092e+000	 1.077715052636687e+001
 1.764834753933805e+000	 2.173788925198089e+000	 1.026238873484456e+001
 1.742297150240828e+000	 2.191894304087189e+000	 1.023635663561373e+001
 1.719587225093601e+000	 2.209755591765834e+000	 1.022224069795023e+001
 1.696708932216214e+000	 2.227370377687360e+000	 1.022206700811308e+001
 1.673666269091309e+000	 2.244736336361353e+000	 1.023784801557215e+001
 1.650463274683859e+000	 2.261851228309702e+000	 1.027157975844052e+001
 1.627104027141278e+000	 2.278712900949980e+000	 1.032523912448824e+001
 1.603592641472524e+000	 2.295319289405525e+000	 1.040078115325718e+001
 1.579933267208925e+000	 2.311668417241718e+000	 1.050013638466169e+001
 1.556130086049429e+000	 2.327758397128064e+000	 1.062520825931070e+001
 1.532187309492996e+000	 2.343587431425777e+000	 1.077787057562242e+001
 1.780592207095596e+000	 2.193197754889913e+000	 1.014067826802385e+001
 1.757853374798665e+000	 2.211464788947809e+000	 1.016479357586991e+001
 1.734940682462946e+000	 2.229485552409423e+000	 1.019295685139185e+001
 1.711858119113637e+000	 2.247257613205353e+000	 1.022695075609295e+001
 1.688609717925187e+000	 2.264778625081876e+000	 1.026855308597883e+001
 1.665199553924761e+000	 2.282046328565542e+000	 1.031953418682205e+001
 1.641631741671801e+000	 2.299058551854437e+000	 1.038165439214564e+001
 1.617910432916417e+000	 2.315813211635502e+000	 1.045666148925688e+001
 1.594039814239324e+000	 2.332308313827380e+000	 1.054628821855794e+001
 1.570024104676068e+000	 2.348541954248410e+000	 1.065224981123741e+001
 1.545867553328280e+000	 2.364512319209462e+000	 1.077624157031136e+001
 1.796349660256885e+000	 2.212606584581236e+000	 1.009783194658650e+001
 1.773409599355911e+000	 2.231035273807834e+000	 1.016342256019270e+001
 1.750294139831630e+000	 2.249215513052330e+000	 1.022532302670891e+001
 1.727007306010348e+000	 2.267144848722589e+000	 1.028507688202145e+001
 1.703553166758326e+000	 2.284820913801577e+000	 1.034423146985997e+001
 1.679935833164913e+000	 2.302241428820505e+000	 1.040433554313879e+001
 1.656159456201584e+000	 2.319404202757974e+000	 1.046693687529448e+001
 1.632228224359600e+000	 2.336307133864525e+000	 1.053357988676978e+001
 1.608146361269064e+000	 2.352948210412063e+000	 1.060580329171595e+001
 1.583918123302120e+000	 2.369325511367762e+000	 1.068513776989173e+001
 1.559547797163067e+000	 2.385437206992145e+000	 1.077310366862947e+001
 1.812107113417673e+000	 2.232015414272058e+000	 1.013276155371750e+001
 1.788965823912565e+000	 2.250605758667261e+000	 1.023136331336774e+001
 1.765647597199653e+000	 2.268945473694558e+000	 1.031866319268264e+001
 1.742156492906349e+000	 2.287032084239069e+000	 1.039596981393870e+001
 1.718496615590724e+000	 2.304863202520457e+000	 1.046460418533393e+001
 1.694672112404316e+000	 2.322436529074593e+000	 1.052589748471092e+001
 1.670687170730629e+000	 2.339749853660591e+000	 1.058118884069077e+001
 1.646546015802076e+000	 2.356801056092591e+000	 1.063182311619134e+001
 1.622252908298147e+000	 2.373588106995765e+000	 1.067914869925344e+001
 1.597812141927584e+000	 2.390109068486118e+000	 1.072451530603162e+001
 1.573228040997356e+000	 2.406362094773829e+000	 1.076927180072609e+001
 1.827864566577960e+000	 2.251424243962378e+000	 1.024442198254823e+001
 1.804522048468628e+000	 2.270176243526093e+000	 1.036777134152539e+001
 1.781001054567015e+000	 2.288675434336103e+000	 1.047232989681563e+001
 1.757305679801640e+000	 2.306919319754793e+000	 1.055917548518086e+001
 1.733440064422383e+000	 2.324905491238517e+000	 1.062940681471523e+001
 1.709408391642969e+000	 2.342631629327805e+000	 1.068414142731351e+001
 1.685214885258934e+000	 2.360095504562286e+000	 1.072451364609824e+001
 1.660863807243843e+000	 2.377294978319702e+000	 1.075167251260864e+001
 1.636359455326572e+000	 2.394228003578486e+000	 1.076677971853048e+001
 1.611706160552460e+000	 2.410892625603480e+000	 1.077100753670729e+001
 1.586908284831148e+000	 2.427286982554514e+000	 1.076553675611996e+001
 1.843622019737746e+000	 2.270833073652197e+000	 1.043180939385112e+001
 1.820078273024101e+000	 2.289746728384328e+000	 1.057183640302342e+001
 1.796354511933716e+000	 2.308405394976967e+000	 1.068570304401888e+001
 1.772454866696219e+000	 2.326806555269760e+000	 1.077426041535033e+001
 1.748383513253301e+000	 2.344947779955755e+000	 1.083838888211315e+001
 1.724144670880873e+000	 2.362826729580141e+000	 1.087899621361853e+001
 1.699742599786501e+000	 2.380441155463061e+000	 1.089701569366402e+001
 1.675181598684902e+000	 2.397788900545858e+000	 1.089340420807855e+001
 1.650466002354339e+000	 2.414867900160228e+000	 1.086914031418179e+001
 1.625600179176749e+000	 2.431676182719846e+000	 1.082522229678730e+001
 1.600588528664443e+000	 2.448211870334198e+000	 1.076266621535027e+001
 1.859379472897029e+000	 2.290241903341515e+000	 1.069395946741077e+001
 1.835634497578981e+000	 2.309317213241967e+000	 1.084278105708145e+001
 1.811707969299756e+000	 2.328135355617151e+000	 1.095818873739960e+001
 1.787604053590088e+000	 2.346693790783972e+000	 1.104081083801635e+001
 1.763326962083479e+000	 2.364990068672173e+000	 1.109131326267756e+001
 1.738880950118027e+000	 2.383021829831602e+000	 1.111039779849588e+001
 1.714270314313329e+000	 2.400786806362916e+000	 1.109880038566529e+001
 1.689499390125252e+000	 2.418282822771059e+000	 1.105728935209515e+001
 1.664572549381448e+000	 2.435507796740990e+000	 1.098666361746964e+001
 1.639494197800451e+000	 2.452459739835218e+000	 1.088775087125430e+001
 1.614268772497240e+000	 2.469136758112883e+000	 1.076140572917038e+001
 1.875136926055812e+000	 2.309650733030330e+000	 1.102991744970327e+001
 1.851190722133271e+000	 2.328887698099010e+000	 1.117985928559340e+001
 1.827061426665134e+000	 2.347865316256653e+000	 1.128921817749668e+001
 1.802753240483247e+000	 2.366581026297427e+000	 1.135843187239709e+001
 1.778270410912917e+000	 2.385032357387770e+000	 1.138795562163098e+001
 1.753617229354432e+000	 2.403216930082187e+000	 1.137828895018149e+001
 1.728798028839418e+000	 2.421132457261850e+000	 1.132997408248674e+001
 1.703817181564894e+000	 2.438776744995305e+000	 1.124359432094110e+001
 1.678679096407899e+000	 2.456147693320771e+000	 1.111977238146750e+001
 1.653388216423565e+000	 2.473243296949593e+000	 1.095916869057846e+001
 1.627949016329540e+000	 2.490061645890567e+000	 1.076247964837113e+001
 1.890894379214094e+000	 2.329059562718646e+000	 1.142998002423346e+001
 1.866746946686970e+000	 2.348458182955457e+000	 1.158235518384961e+001
 1.842414884029853e+000	 2.367595276895474e+000	 1.167824661655443e+001
 1.817902427375696e+000	 2.386468261810128e+000	 1.172674673645756e+001
 1.793213859741616e+000	 2.405074646102547e+000	 1.172810388134873e+001
 1.768353508590088e+000	 2.423412030331897e+000	 1.168261896638719e+001
 1.743325743364769e+000	 2.441478108159864e+000	 1.159064406269961e+001
 1.718134973003829e+000	 2.459270667218596e+000	 1.145258091657142e+001
 1.692785643433693e+000	 2.476787589899573e+000	 1.126887941348454e+001
 1.667282235046092e+000	 2.494026854062976e+000	 1.104003599132222e+001
 1.641629260161343e+000	 2.510986533667252e+000	 1.107118025027038e+001
 1.504826821820936e+000	 2.301737655855408e+000	 1.077321488957320e+001
 1.481178655451783e+000	 2.317026066036402e+000	 1.079629111101571e+001
 1.457401737502926e+000	 2.332054925507497e+000	 1.080245944020897e+001
 1.433500278033387e+000	 2.346822735730042e+000	 1.079224842442310e+001
 1.409478506995772e+000	 2.361328087830619e+000	 1.076620470351504e+001
 1.385340671887672e+000	 2.375569662812049e+000	 1.072489166448438e+001
 1.361091035406278e+000	 2.389546231691873e+000	 1.066888809399191e+001
 1.336733873108761e+000	 2.403256655568767e+000	 1.059878683198376e+001
 1.312273471080952e+000	 2.416699885617484e+000	 1.051519342949417e+001
 1.287714123616817e+000	 2.429874963012997e+000	 1.041872481362088e+001
 1.263060130911157e+000	 2.442781018784593e+000	 1.031000796258242e+001
 1.518507065657215e+000	 2.322662543641092e+000	 1.077715052636687e+001
 1.494643915956549e+000	 2.338089939369133e+000	 1.073192776172114e+001
 1.470650844207407e+000	 2.353255424835356e+000	 1.067082033113601e+001
 1.446532098742074e+000	 2.368157487878027e+000	 1.059446266760500e+001
 1.422291947967267e+000	 2.382794706815789e+000	 1.050350539813546e+001
 1.397934677994196e+000	 2.397165750660582e+000	 1.039861389299741e+001
 1.373464590271840e+000	 2.411269379257375e+000	 1.028046681676778e+001
 1.348885999226073e+000	 2.425104443351199e+000	 1.014975468446240e+001
 1.324203229907142e+000	 2.438669884582033e+000	 1.000717842596673e+001
 1.299420615648048e+000	 2.451964735408257e+000	 9.853447961887261e+000
 1.274542495736273e+000	 2.464988118959423e+000	 9.689280793847990e+000
 1.532187309492996e+000	 2.343587431425777e+000	 1.077787057562242e+001
 1.508109176460914e+000	 2.359153812700871e+000	 1.066583155440546e+001
 1.483899950911571e+000	 2.374455924162234e+000	 1.053890015270359e+001
 1.459563919450516e+000	 2.389492240025056e+000	 1.039781653049999e+001
 1.435105388938585e+000	 2.404261325800040e+000	 1.024333516067791e+001
 1.410528684100595e+000	 2.418761838508240e+000	 1.007622327260504e+001
 1.385838145137323e+000	 2.432992526822060e+000	 9.897259301335927e+000
 1.361038125343342e+000	 2.446952231132881e+000	 9.707231345874289e+000
 1.336132988733313e+000	 2.460639883545905e+000	 9.506935639846233e+000
 1.311127107679275e+000	 2.474054507802925e+000	 9.297175037833988e+000
 1.286024860561388e+000	 2.487195219133758e+000	 9.078757520512818e+000
 1.545867553328280e+000	 2.364512319209462e+000	 1.077624157031136e+001
 1.521574436964876e+000	 2.380217686031613e+000	 1.059880944089553e+001
 1.497149057615418e+000	 2.395656423488133e+000	 1.040744704236128e+001
 1.472595740158718e+000	 2.410826992171133e+000	 1.020300013187984e+001
 1.447918829909724e+000	 2.425727944783372e+000	 9.986326915180541e+000
 1.423122690206872e+000	 2.440357926355025e+000	 9.758296384090516e+000
 1.398211700002727e+000	 2.454715674385927e+000	 9.519786663505336e+000
 1.373190251460564e+000	 2.468800018913809e+000	 9.271683371383336e+000
 1.348062747559464e+000	 2.482609882509102e+000	 9.014877995255116e+000
 1.322833599710497e+000	 2.496144280197001e+000	 8.750266288628707e+000
 1.297507225386504e+000	 2.509402319307596e+000	 8.785775748788675e+000
 1.559547797163067e+000	 2.385437206992145e+000	 1.077310366862947e+001
 1.535039697468435e+000	 2.401281559361360e+000	 1.053164392215147e+001
 1.510398164318946e+000	 2.416856922813052e+000	 1.027718658431652e+001
 1.485627560866675e+000	 2.432161744316253e+000	 1.001068290780834e+001
 1.460732270880685e+000	 2.447194563765786e+000	 9.733094745632817e+000
 1.435716696313025e+000	 2.461954014200937e+000	 9.445392782210655e+000
 1.410585254868052e+000	 2.476438821948977e+000	 9.148554777703916e+000
 1.385342377577744e+000	 2.490647806693986e+000	 8.843563829323585e+000
 1.359992506385595e+000	 2.504579881471621e+000	 8.680895428119380e+000
 1.334540091741714e+000	 2.518234052590487e+000	 8.808162513803183e+000
 1.308989590211620e+000	 2.531609419480937e+000	 8.918897475965757e+000
 1.573228040997356e+000	 2.406362094773829e+000	 1.076927180072609e+001
 1.548504957971592e+000	 2.422345432690113e+000	 1.046509411134788e+001
 1.523647271022157e+000	 2.438057422136991e+000	 1.014882279011040e+001
 1.498659381574390e+000	 2.453496496460421e+000	 9.821514510889353e+000
 1.473545711851468e+000	 2.468661182747281e+000	 9.484234715108240e+000
 1.448310702419053e+000	 2.483550102045977e+000	 9.138055735957956e+000
 1.422958809733299e+000	 2.498161969511209e+000	 8.784054939647129e+000
 1.397494503694878e+000	 2.512495594473410e+000	 8.828168166946950e+000
 1.371922265211707e+000	 2.526549880433465e+000	 8.919519095493588e+000
 1.346246583772926e+000	 2.540323824983382e+000	 8.996952694908986e+000
 1.320471955036735e+000	 2.553816519653783e+000	 9.058656096930733e+000
 1.586908284831148e+000	 2.427286982554514e+000	 1.076553675611996e+001
 1.561970218474347e+000	 2.443409306017870e+000	 1.039989674196795e+001
 1.536896377725050e+000	 2.459257921459952e+000	 1.002303902847377e+001
 1.511691202281862e+000	 2.474831248603634e+000	 9.636125663002357e+000
 1.486359152822073e+000	 2.490127801727857e+000	 9.240325642527751e+000
 1.460904708524959e+000	 2.505146189890143e+000	 9.000313426919583e+000
 1.435332364598465e+000	 2.519885117072623e+000	 9.063594374255397e+000
 1.409646629811969e+000	 2.534343382252084e+000	 9.117628403516665e+000
 1.383852024037798e+000	 2.548519879394630e+000	 9.160427460583591e+000
 1.357953075804133e+000	 2.562413597375685e+000	 9.190079456669592e+000
 1.331954319861851e+000	 2.576023619826133e+000	 9.204752414047668e+000
 1.600588528664443e+000	 2.448211870334198e+000	 1.076266621535027e+001
 1.575435478976699e+000	 2.464473179344633e+000	 1.033676712420067e+001
 1.550145484427626e+000	 2.480458420781932e+000	 9.900498907498896e+000
 1.524723022989091e+000	 2.496166000745893e+000	 9.455128964307592e+000
 1.499172593792499e+000	 2.511594420707515e+000	 9.363215073474668e+000
 1.473498714630741e+000	 2.526742277733436e+000	 9.384910328098346e+000
 1.447705919463553e+000	 2.541608264633220e+000	 9.400207646073358e+000
 1.421798755929015e+000	 2.556191170030004e+000	 9.407025032115358e+000
 1.395781782863870e+000	 2.570489878355120e+000	 9.403352202246488e+000
 1.369659567835335e+000	 2.584503369767397e+000	 9.387255043166130e+000
 1.343436684686967e+000	 2.598230719997987e+000	 9.356879860546083e+000
 1.614268772497240e+000	 2.469136758112883e+000	 1.076140572917038e+001
 1.588900739478649e+000	 2.485537052670400e+000	 1.027640005270754e+001
 1.563394591129885e+000	 2.501658920102933e+000	 9.831424082999252e+000
 1.537754843696077e+000	 2.517500752887198e+000	 9.811242020845191e+000
 1.511986034762747e+000	 2.533061039686253e+000	 9.789823224320116e+000
 1.486092720736399e+000	 2.548338365575855e+000	 9.764931337263715e+000
 1.460079474328563e+000	 2.563331412193000e+000	 9.734392133593866e+000
 1.433950882046016e+000	 2.578038957807174e+000	 9.696098484142556e+000
 1.407711541689923e+000	 2.592459877314933e+000	 9.648015129526010e+000
 1.381366059866532e+000	 2.606593142158518e+000	 9.588183248599089e+000
 1.354919049512082e+000	 2.620437820169344e+000	 9.514724812772364e+000
 1.627949016329540e+000	 2.490061645890567e+000	 1.076247964837113e+001
 1.602365999980196e+000	 2.506600925995173e+000	 1.041011078987853e+001
 1.576643697831826e+000	 2.522859419422954e+000	 1.034214601235486e+001
 1.550786664402821e+000	 2.538835505027548e+000	 1.027603435380464e+001
 1.524799475732817e+000	 2.554527658664074e+000	 1.020945458233753e+001
 1.498686726841934e+000	 2.569934453417402e+000	 1.014014230888798e+001
 1.472453029193492e+000	 2.585054559751961e+000	 1.006589525747790e+001
 1.446103008162973e+000	 2.599886745583591e+000	 9.984578350326135e+000
 1.419641300515955e+000	 2.614429876274071e+000	 9.894128596350615e+000
 1.393072551897724e+000	 2.628682914549047e+000	 9.792559772325229e+000
 1.366401414337198e+000	 2.642644920340206e+000	 9.677966886697506e+000
 1.641629260161343e+000	 2.510986533667252e+000	 1.107118025027038e+001
 1.615831260481341e+000	 2.527664799318952e+000	 1.095370923123132e+001
 1.589892804533449e+000	 2.544059918741996e+000	 1.084126243340530e+001
 1.563818485109322e+000	 2.560170257166945e+000	 1.073143657043086e+001
 1.537612916702709e+000	 2.575994277640975e+000	 1.062187953765719e+001
 1.511280732947345e+000	 2.591530541258076e+000	 1.051029598220420e+001
 1.484826584058343e+000	 2.606777707310107e+000	 1.039445269786892e+001
 1.458255134279887e+000	 2.621734533359257e+000	 1.027218383241696e+001
 1.431571059341969e+000	 2.636399875232532e+000	 1.014139589549652e+001
 1.404779043928912e+000	 2.650772686938987e+000	 1.000007255614277e+001
 1.377883779162314e+000	 2.664852020510572e+000	 9.846279219599415e+000
 1.263060130911157e+000	 2.442781018784593e+000	 1.031000796258242e+001
 1.238315796768149e+000	 2.455417273601034e+000	 1.039499564770274e+001
 1.213485426327356e+000	 2.467783037487111e+000	 1.035791792033401e+001
 1.188573323810187e+000	 2.479877709472937e+000	 1.025670720707712e+001
 1.163583790289265e+000	 2.491700777177656e+000	 1.009654576214022e+001
 1.138521121482226e+000	 2.503251816328117e+000	 9.980341261572962e+000
 1.113389605572322e+000	 2.514530490214019e+000	 1.004214226363514e+001
 1.088193521057850e+000	 2.525536549080854e+000	 1.002576278126550e+001
 1.062937134632405e+000	 2.536269829462127e+000	 9.931813831744353e+000
 1.037624699097835e+000	 2.546730253452309e+000	 9.760962202058261e+000
 1.012260451311729e+000	 2.556917827922117e+000	 9.513930520759715e+000
 1.274542495736273e+000	 2.464988118959423e+000	 9.689280793847990e+000
 1.249573213101380e+000	 2.477739248819489e+000	 9.743161833250658e+000
 1.224517112020461e+000	 2.490217428740764e+000	 9.627067516349735e+000
 1.199378535844211e+000	 2.502422052289999e+000	 9.535362754776314e+000
 1.174161824745915e+000	 2.514352602428329e+000	 9.689759319017208e+000
 1.148871313495187e+000	 2.526008651025577e+000	 9.775177181785141e+000
 1.123511329258762e+000	 2.537389858310436e+000	 9.792208040244098e+000
 1.098086189430378e+000	 2.548495972257904e+000	 9.741488170788502e+000
 1.072600199491755e+000	 2.559326827915428e+000	 9.623698699818048e+000
 1.047057650906575e+000	 2.569882346669242e+000	 9.439565835345546e+000
 1.021462819049315e+000	 2.580162535452528e+000	 9.189861056695360e+000
 1.286024860561388e+000	 2.487195219133758e+000	 9.078757520512818e+000
 1.260830629434610e+000	 2.500061224037538e+000	 9.065823609157730e+000
 1.235548797713566e+000	 2.512651819994079e+000	 9.332548313043343e+000
 1.210183747878236e+000	 2.524966395106772e+000	 9.485555376214347e+000
 1.184739859202564e+000	 2.537004427678743e+000	 9.579034297250150e+000
 1.159221505508147e+000	 2.548765485722786e+000	 9.613633357094544e+000
 1.133633052945202e+000	 2.560249226406592e+000	 9.590034236015779e+000
 1.107978857802907e+000	 2.571455395434662e+000	 9.508952400622626e+000
 1.082263264351105e+000	 2.582383826368382e+000	 9.371137468071373e+000
 1.056490602715315e+000	 2.593034439885762e+000	 9.177373544151129e+000
 1.030665186786900e+000	 2.603407242982436e+000	 8.928479532045964e+000
 1.297507225386504e+000	 2.509402319307596e+000	 8.785775748788675e+000
 1.272088045767840e+000	 2.522383199255179e+000	 9.124787868347527e+000
 1.246580483406671e+000	 2.535086211247057e+000	 9.382751332120797e+000
 1.220988959912261e+000	 2.547510737923258e+000	 9.469349308021187e+000
 1.195317893659215e+000	 2.559656252928899e+000	 9.506266104230898e+000
 1.169571697521108e+000	 2.571522320419745e+000	 9.494248975836012e+000
 1.143754776631642e+000	 2.583108594502486e+000	 9.434067791566886e+000
 1.117871526175436e+000	 2.594414818611126e+000	 9.326515502359317e+000
 1.091926329210455e+000	 2.605440824820994e+000	 9.172408600487044e+000
 1.065923554524055e+000	 2.616186533101865e+000	 8.972587565509183e+000
 1.039867554524486e+000	 2.626651950511838e+000	 8.727917293368973e+000
 1.308989590211620e+000	 2.531609419480937e+000	 8.918897475965757e+000
 1.283345462101071e+000	 2.544705174472416e+000	 9.195864882579297e+000
 1.257612169099776e+000	 2.557520602499699e+000	 9.417696931482285e+000
 1.231794171946285e+000	 2.570055080739456e+000	 9.485489616939786e+000
 1.205895928115865e+000	 2.582308078178795e+000	 9.470101170778330e+000
 1.179921889534068e+000	 2.594279155116453e+000	 9.415576986074996e+000
 1.153876500318082e+000	 2.605967962598117e+000	 9.322773334233421e+000
 1.127764194547964e+000	 2.617374241787297e+000	 9.192558950028808e+000
 1.101589394069805e+000	 2.628497823273261e+000	 9.025815587200336e+000
 1.075356506332795e+000	 2.639338626317554e+000	 8.823438573689845e+000
 1.049069922262071e+000	 2.649896658040735e+000	 8.586337362398055e+000
 1.320471955036735e+000	 2.553816519653783e+000	 9.058656096930733e+000
 1.294602878434302e+000	 2.567027149689244e+000	 9.278658670833886e+000
 1.268643854792880e+000	 2.579954993752005e+000	 9.451480337894827e+000
 1.242599383980310e+000	 2.592599423555365e+000	 9.532726530584592e+000
 1.216473962572515e+000	 2.604959903428432e+000	 9.469195169932501e+000
 1.190272081547028e+000	 2.617035989812912e+000	 9.376183497358348e+000
 1.163998224004522e+000	 2.628827330693487e+000	 9.254632409082808e+000
 1.137656862920493e+000	 2.640333664963175e+000	 9.105484727820093e+000
 1.111252458929155e+000	 2.651554821725185e+000	 8.929685856405415e+000
 1.084789458141534e+000	 2.662490719532829e+000	 8.728184443797652e+000
 1.058272289999657e+000	 2.673141365569126e+000	 8.501933058861537e+000
 1.331954319861851e+000	 2.576023619826133e+000	 9.204752414047668e+000
 1.305860294767532e+000	 2.589349124905667e+000	 9.372769918389238e+000
 1.279675540485985e+000	 2.602389385003972e+000	 9.501377243455654e+000
 1.253404596014334e+000	 2.615143766370987e+000	 9.588833536605304e+000
 1.227051997029165e+000	 2.627611728677810e+000	 9.502212618583032e+000
 1.200622273559989e+000	 2.639792824509118e+000	 9.374647213409160e+000
 1.174119947690962e+000	 2.651686698788595e+000	 9.228142749701370e+000
 1.147549531293022e+000	 2.663293088138761e+000	 9.063714446022432e+000
 1.120915523788505e+000	 2.674611820176764e+000	 8.882369742542473e+000
 1.094222409950274e+000	 2.685642812747688e+000	 8.685109079321826e+000
 1.067474657737242e+000	 2.696386073097013e+000	 8.472926694534314e+000
 1.343436684686967e+000	 2.598230719997987e+000	 9.356879860546083e+000
 1.317117711100763e+000	 2.611671100121684e+000	 9.477796119286278e+000
 1.290707226179090e+000	 2.624823776255602e+000	 9.566893087889158e+000
 1.264209808048359e+000	 2.637688109186322e+000	 9.622472247969707e+000
 1.237630031485815e+000	 2.650263553926928e+000	 9.567826499526872e+000
 1.210972465572949e+000	 2.662549659205076e+000	 9.409558893913987e+000
 1.184241671377402e+000	 2.674546066883441e+000	 9.241817586377261e+000
 1.157442199665550e+000	 2.686252511314052e+000	 9.065688502303088e+000
 1.130578588647855e+000	 2.697668818627999e+000	 8.882239507398245e+000
 1.103655361759014e+000	 2.708794905962132e+000	 8.692521299812118e+000
 1.076677025474828e+000	 2.719630780624395e+000	 8.497568334261528e+000
 1.354919049512082e+000	 2.620437820169344e+000	 9.514724812772364e+000
 1.328375127433993e+000	 2.633993075337294e+000	 9.593331711550867e+000
 1.301738911872195e+000	 2.647258167506897e+000	 9.647534116584975e+000
 1.275015020082383e+000	 2.660232452001367e+000	 9.675672770000199e+000
 1.248208065942465e+000	 2.672915379175787e+000	 9.664717902743387e+000
 1.221322657585910e+000	 2.685306493900782e+000	 9.479520843677117e+000
 1.194363395063843e+000	 2.697405434978026e+000	 9.294184989460554e+000
 1.167334868038079e+000	 2.709211934489050e+000	 9.109865285631951e+000
 1.140241653507206e+000	 2.720725817078891e+000	 8.927688410981279e+000
 1.113088313567753e+000	 2.731946999176162e+000	 8.748753785113474e+000
 1.085879393212413e+000	 2.742875488151270e+000	 8.574134619980985e+000
 1.366401414337198e+000	 2.642644920340206e+000	 9.677966886697506e+000
 1.339632543767224e+000	 2.656315050552498e+000	 9.718968205597822e+000
 1.312770597565300e+000	 2.669692558757853e+000	 9.742807346746625e+000
 1.285820232116408e+000	 2.682776794816125e+000	 9.747861244677837e+000
 1.258786100399115e+000	 2.695567204424388e+000	 9.732603453976346e+000
 1.231672849598870e+000	 2.708063328596238e+000	 9.583146427531387e+000
 1.204485118750283e+000	 2.720264803072348e+000	 9.383787245831277e+000
 1.177227536410608e+000	 2.732171357663756e+000	 9.194720420344494e+000
 1.149904718366555e+000	 2.743782815529437e+000	 9.017129829243615e+000
 1.122521265376493e+000	 2.755099092389776e+000	 8.852162072832687e+000
 1.095081760949999e+000	 2.766120195677642e+000	 8.700927654038583e+000
 1.377883779162314e+000	 2.664852020510572e+000	 9.846279219599415e+000
 1.350889960100455e+000	 2.678637025767296e+000	 9.854294306214538e+000
 1.323802283258406e+000	 2.692126950008474e+000	 9.852220535232494e+000
 1.296625444150432e+000	 2.705321137630596e+000	 9.838467970132792e+000
 1.269364134855766e+000	 2.718219029672730e+000	 9.811537403630235e+000
 1.242023041611831e+000	 2.730820163291444e+000	 9.719059609503834e+000
 1.214606842436724e+000	 2.743124171166410e+000	 9.509180266543920e+000
 1.187120204783137e+000	 2.755130780838170e+000	 9.318746048001547e+000
 1.159567783225906e+000	 2.766839813979641e+000	 9.148996415916505e+000
 1.131954217185234e+000	 2.778251185602977e+000	 9.001123605931634e+000
 1.104284128687585e+000	 2.789364903203509e+000	 8.876273938338027e+000
 1.012260451311729e+000	 2.556917827922117e+000	 9.513930520759715e+000
 9.868486101712383e-001	 2.566832643677576e+000	 9.282764035825986e+000
 9.613933746349105e-001	 2.576474874564940e+000	 9.065398216512095e+000
 9.358989217837993e-001	 2.585844776523053e+000	 8.863342258619225e+000
 9.103694049237148e-001	 2.594942686584524e+000	 8.678071794073309e+000
 8.848089517299635e-001	 2.603769021827962e+000	 8.511029381622187e+000
 8.592216624358849e-001	 2.612324278282999e+000	 8.363625033166912e+000
 8.336116080664260e-001	 2.620609029790004e+000	 8.237236771564961e+000
 8.079828287179296e-001	 2.628623926816410e+000	 8.133211215818442e+000
 7.823393318852077e-001	 2.636369695231585e+000	 8.052864189649862e+000
 7.566850908368894e-001	 2.643847135042238e+000	 7.997481349569434e+000
 1.021462819049315e+000	 2.580162535452528e+000	 9.189861056695360e+000
 9.958199611707879e-001	 2.590167485896778e+000	 8.996538426951735e+000
 9.701333144019444e-001	 2.599897373428621e+000	 8.814002208490878e+000
 9.444070937973018e-001	 2.609352456313620e+000	 8.643671261652466e+000
 9.186454904199952e-001	 2.618533074648314e+000	 8.486934400322534e+000
 8.928526694696530e-001	 2.627439649302940e+000	 8.345150962254484e+000
 8.670327684544615e-001	 2.636072680816487e+000	 8.219651409335993e+000
 8.411898954086866e-001	 2.644432748246060e+000	 8.111737953550414e+000
 8.153281271568190e-001	 2.652520507972429e+000	 8.022685204473234e+000
 7.894515076254415e-001	 2.660336692463774e+000	 7.953740834246438e+000
 7.635640462038073e-001	 2.667882108999597e+000	 7.906126256090755e+000
 1.030665186786900e+000	 2.603407242982436e+000	 8.928479532045964e+000
 1.004791312170337e+000	 2.613502328115380e+000	 8.769876329476102e+000
 9.788732541689785e-001	 2.623319872291618e+000	 8.619132148383507e+000
 9.529152658108042e-001	 2.632860136103427e+000	 8.477575515344773e+000
 9.269215759162761e-001	 2.642123462711282e+000	 8.346508360888345e+000
 9.008963872093423e-001	 2.651110276777040e+000	 8.227206671354423e+000
 8.748438744730380e-001	 2.659821083349055e+000	 8.120921165059068e+000
 8.487681827509470e-001	 2.668256466701160e+000	 8.028877988418836e+000
 8.226734255957083e-001	 2.676417089127467e+000	 7.952279427796451e+000
 7.965636833656755e-001	 2.684303689694970e+000	 7.892304632947014e+000
 7.704430015707247e-001	 2.691917082955955e+000	 7.850110348075131e+000
 1.039867554524486e+000	 2.626651950511838e+000	 8.727917293368973e+000
 1.013762663169887e+000	 2.636837170333383e+000	 8.601014519118357e+000
 9.876131939360127e-001	 2.646742371153929e+000	 8.479128769619054e+000
 9.614234378243066e-001	 2.656367815892474e+000	 8.363498195134136e+000
 9.351976614125565e-001	 2.665713850773424e+000	 8.255337734499101e+000
 9.089401049490314e-001	 2.674780904250262e+000	 8.155839850464973e+000
 8.826549804916150e-001	 2.683569485880700e+000	 8.066175283750425e+000
 8.563464700932076e-001	 2.692080185155304e+000	 7.987493821359783e+000
 8.300187240345979e-001	 2.700313670281525e+000	 7.920925074843927e+000
 8.036758591059092e-001	 2.708270686925169e+000	 7.867579264313932e+000
 7.773219569376425e-001	 2.715952056911313e+000	 7.828548004162992e+000
 1.049069922262071e+000	 2.649896658040735e+000	 8.586337362398055e+000
 1.022734014169437e+000	 2.660172012550785e+000	 8.488218511493461e+000
 9.963531337030465e-001	 2.670164870015556e+000	 8.392358674630035e+000
 9.699316098378089e-001	 2.679875495680763e+000	 8.299905539829629e+000
 9.434737469088371e-001	 2.689304238834746e+000	 8.211986903704812e+000
 9.169838226887206e-001	 2.698451531722607e+000	 8.129711492259775e+000
 8.904660865101917e-001	 2.707317888411425e+000	 8.054169794848452e+000
 8.639247574354684e-001	 2.715903903608491e+000	 7.986434906743400e+000
 8.373640224734872e-001	 2.724210251434602e+000	 7.927563375901444e+000
 8.107880348461430e-001	 2.732237684154373e+000	 7.878596049663253e+000
 7.842009123045602e-001	 2.739987030865671e+000	 7.840558917280752e+000
 1.058272289999657e+000	 2.673141365569126e+000	 8.501933058861537e+000
 1.031705365168986e+000	 2.683506854767587e+000	 8.429781312551434e+000
 1.005093073470081e+000	 2.693587368876500e+000	 8.357213210113175e+000
 9.784397818513116e-001	 2.703383175468292e+000	 8.285285848856184e+000
 9.517498324051178e-001	 2.712894626895242e+000	 8.215039691233072e+000
 9.250275404284100e-001	 2.722122159194075e+000	 8.147499473102668e+000
 8.982771925287684e-001	 2.731066290941226e+000	 8.083675119640878e+000
 8.715030447777293e-001	 2.739727622060724e+000	 8.024562664242925e+000
 8.447093209123765e-001	 2.748106832586698e+000	 7.971145165909352e+000
 8.179002105863769e-001	 2.756204681382582e+000	 7.924393620771101e+000
 7.910798676714780e-001	 2.764022004819030e+000	 7.885267863584974e+000
 1.067474657737242e+000	 2.696386073097013e+000	 8.472926694534314e+000
 1.040676716168536e+000	 2.706841696983788e+000	 8.424022233649030e+000
 1.013833013237114e+000	 2.717009867736757e+000	 8.372107400466307e+000
 9.869479538648138e-001	 2.726890855255063e+000	 8.318148531365932e+000
 9.600259179013986e-001	 2.736485014954916e+000	 8.263098522050115e+000
 9.330712581680992e-001	 2.745792786664665e+000	 8.207897825302501e+000
 9.060882985473451e-001	 2.754814693470107e+000	 8.153475450926214e+000
 8.790813321199896e-001	 2.763551340511998e+000	 8.100749963089116e+000
 8.520546193512658e-001	 2.772003413737813e+000	 8.050630470468851e+000
 8.250123863266107e-001	 2.780171678609796e+000	 8.004017604767615e+000
 7.979588230383954e-001	 2.788056978771388e+000	 7.961804483357631e+000
 1.076677025474828e+000	 2.719630780624395e+000	 8.497568334261528e+000
 1.049648067168086e+000	 2.730176539199391e+000	 8.469285767387129e+000
 1.022572953004148e+000	 2.740432366596331e+000	 8.435478935920717e+000
 9.954561258783166e-001	 2.750398535041075e+000	 8.397023204113102e+000
 9.683020033976790e-001	 2.760075403013765e+000	 8.354783628393472e+000
 9.411149759077881e-001	 2.769463414134377e+000	 8.309616046688076e+000
 9.138994045659219e-001	 2.778563095998065e+000	 8.262368164487839e+000
 8.866596194622503e-001	 2.787375058962318e+000	 8.213880632772600e+000
 8.593999177901553e-001	 2.795899994887950e+000	 8.164988113078746e+000
 8.321245620668445e-001	 2.804138675836015e+000	 8.116520325190189e+000
 8.048377784053131e-001	 2.812091952722746e+000	 8.069303073137427e+000
 1.085879393212413e+000	 2.742875488151270e+000	 8.574134619980985e+000
 1.058619418167635e+000	 2.753511381414393e+000	 8.563940520608851e+000
 1.031312892771182e+000	 2.763854865455219e+000	 8.545787212124605e+000
 1.003964297891819e+000	 2.773906214826328e+000	 8.520458835199746e+000
 9.765780888939597e-001	 2.783665791071792e+000	 8.488732295226518e+000
 9.491586936474775e-001	 2.793134041603211e+000	 8.451378445289439e+000
 9.217105105844986e-001	 2.802311498525102e+000	 8.409163260492854e+000
 8.942379068045111e-001	 2.811198777411681e+000	 8.362848998626310e+000
 8.667452162290448e-001	 2.819796576037104e+000	 8.313195342343311e+000
 8.392367378070782e-001	 2.828105673061239e+000	 8.260960518237489e+000
 8.117167337722309e-001	 2.836126926673104e+000	 8.206902388420907e+000
 1.095081760949999e+000	 2.766120195677642e+000	 8.700927654038583e+000
 1.067590769167185e+000	 2.776846223628796e+000	 8.706378201196046e+000
 1.040052832538216e+000	 2.787277364313423e+000	 8.701512418150614e+000
 1.012472469905321e+000	 2.797413894610821e+000	 8.687022930993848e+000
 9.848541743902404e-001	 2.807256179128995e+000	 8.663598143737485e+000
 9.572024113871669e-001	 2.816804669071168e+000	 8.631923517060656e+000
 9.295216166030752e-001	 2.826059901051216e+000	 8.592682833055861e+000
 9.018161941467714e-001	 2.835022495860088e+000	 8.546559440823708e+000
 8.740905146679339e-001	 2.843693157185277e+000	 8.494237477976004e+000
 8.463489135473121e-001	 2.852072670285467e+000	 8.436403063329790e+000
 8.185956891391485e-001	 2.860161900622463e+000	 8.373745456311164e+000
 1.104284128687585e+000	 2.789364903203509e+000	 8.876273938338027e+000
 1.076562120166735e+000	 2.800181065842599e+000	 8.895012655526093e+000
 1.048792772305250e+000	 2.810699863170943e+000	 8.901154670103324e+000
 1.020980641918824e+000	 2.820921574394557e+000	 8.895300763701576e+000
 9.931302598865212e-001	 2.830846567185376e+000	 8.878050450663283e+000
 9.652461291268561e-001	 2.840475296538248e+000	 8.850003354716263e+000
 9.373327226216525e-001	 2.849808303576410e+000	 8.811760566324415e+000
 9.093944814890325e-001	 2.858846214307540e+000	 8.763925975426911e+000
 8.814358131068237e-001	 2.867589738332473e+000	 8.707107574503400e+000
 8.534610892875463e-001	 2.876039667508701e+000	 8.641918727141533e+000
 8.254746445060665e-001	 2.884196874570822e+000	 8.568979397534395e+000
 7.566850908368894e-001	 2.643847135042238e+000	 7.997481349569434e+000
 7.310240430396248e-001	 2.651057119090043e+000	 7.975256494592219e+000
 7.053600886327910e-001	 2.658000591714422e+000	 7.959581667295748e+000
 6.796970889541841e-001	 2.664678567381807e+000	 7.951531696334354e+000
 6.540388651164302e-001	 2.671092129282827e+000	 7.952175496777648e+000
 6.283891966355909e-001	 2.677242427900419e+000	 7.962576463132326e+000
 6.027518201122010e-001	 2.683130679550521e+000	 7.867758192608819e+000
 5.771304279651321e-001	 2.688758164897392e+000	 7.743642110646495e+000
 5.515286672185965e-001	 2.694126227445559e+000	 7.605426413932277e+000
 5.259501383425347e-001	 2.699236272010369e+000	 7.452458333828555e+000
 5.003983941465354e-001	 2.704089763169176e+000	 7.284332974944883e+000
 7.635640462038073e-001	 2.667882108999597e+000	 7.906126256090755e+000
 7.376697161537533e-001	 2.675157638356550e+000	 7.881873305803016e+000
 7.117724530705057e-001	 2.682164233459022e+000	 7.866975434996135e+000
 6.858761533949306e-001	 2.688902917995866e+000	 7.862434540753954e+000
 6.599846729770403e-001	 2.695374785004896e+000	 7.869245241565102e+000
 6.341018256921330e-001	 2.701580995427987e+000	 7.888395409106769e+000
 6.082313821098385e-001	 2.707522776638490e+000	 7.830477567429033e+000
 5.823770682164716e-001	 2.713201420943071e+000	 7.713632328806417e+000
 5.565425641910096e-001	 2.718618284059930e+000	 7.581003267298601e+000
 5.307315032349363e-001	 2.723774783575466e+000	 7.431853215962907e+000
 5.049474704561093e-001	 2.728672397381367e+000	 7.265700756863362e+000
 7.704430015707247e-001	 2.691917082955955e+000	 7.850110348075131e+000
 7.443153892678818e-001	 2.699258157622057e+000	 7.822720558875008e+000
 7.181848175082203e-001	 2.706327875202622e+000	 7.807455441170463e+000
 6.920552178356768e-001	 2.713127268608924e+000	 7.805243859904214e+000
 6.659304808376505e-001	 2.719657440725967e+000	 7.817006054490182e+000
 6.398144547486752e-001	 2.725919562954553e+000	 7.843654310098421e+000
 6.137109441074761e-001	 2.731914873725461e+000	 7.822747934708563e+000
 5.876237084678111e-001	 2.737644676987750e+000	 7.711324146156587e+000
 5.615564611634222e-001	 2.743110340673302e+000	 7.582257479263375e+000
 5.355128681273379e-001	 2.748313295139560e+000	 7.434727146233541e+000
 5.094965467656832e-001	 2.753255031592557e+000	 7.268176187039749e+000
 7.773219569376425e-001	 2.715952056911313e+000	 7.828548004162992e+000
 7.509610623820103e-001	 2.723358676886565e+000	 7.796970856555594e+000
 7.245971819459354e-001	 2.730491516945223e+000	 7.780253831592682e+000
 6.982342822764233e-001	 2.737351619220983e+000	 7.779252618019870e+000
 6.718762886982608e-001	 2.743940096446035e+000	 7.794812949931973e+000
 6.455270838052174e-001	 2.750258130480121e+000	 7.827771418346242e+000
 6.191905061051134e-001	 2.756306970811430e+000	 7.844807556183210e+000
 5.928703487191506e-001	 2.762087933031430e+000	 7.737009600641721e+000
 5.665703581358352e-001	 2.767602397285674e+000	 7.609534022235335e+000
 5.402942330197397e-001	 2.772851806702656e+000	 7.461477160860730e+000
 5.140456230752573e-001	 2.777837665802749e+000	 7.292207467846441e+000
 7.842009123045602e-001	 2.739987030865671e+000	 7.840558917280752e+000
 7.576067354961388e-001	 2.747459196150073e+000	 7.803800933444909e+000
 7.310095463836498e-001	 2.754655158686824e+000	 7.784605661011326e+000
 7.044133467171695e-001	 2.761575969832042e+000	 7.783755425823616e+000
 6.778220965588707e-001	 2.768222752165104e+000	 7.802021287511981e+000
 6.512397128617596e-001	 2.774596698004689e+000	 7.840163992188630e+000
 6.246700681027508e-001	 2.780699067896399e+000	 7.896892323520581e+000
 5.981169889704902e-001	 2.786531189074110e+000	 7.790976947831303e+000
 5.715842551082480e-001	 2.792094453897045e+000	 7.663172638693156e+000
 5.450755979121412e-001	 2.797390318264753e+000	 7.512493584236159e+000
 5.185946993848312e-001	 2.802420300011939e+000	 7.338234574493917e+000
 7.910798676714780e-001	 2.764022004819030e+000	 7.885267863584974e+000
 7.642524086102673e-001	 2.771559715412581e+000	 7.842391476349589e+000
 7.374219108213646e-001	 2.778818800427425e+000	 7.819748766671959e+000
 7.105924111579157e-001	 2.785800320442100e+000	 7.818048468939743e+000
 6.837679044194811e-001	 2.792505407883174e+000	 7.837986757083396e+000
 6.569523419183018e-001	 2.798935265528256e+000	 7.880248339276392e+000
 6.301496301003886e-001	 2.805091164980371e+000	 7.945507521399293e+000
 6.033636292218295e-001	 2.810974445115789e+000	 7.873510825370058e+000
 5.765981520806607e-001	 2.816586510507417e+000	 7.743508068573648e+000
 5.498569628045430e-001	 2.821928829825850e+000	 7.588160320740848e+000
 5.231437756944052e-001	 2.827002934220130e+000	 7.406689612733163e+000
 7.979588230383954e-001	 2.788056978771388e+000	 7.961804483357631e+000
 7.708980817243957e-001	 2.795660234674088e+000	 7.911926953929344e+000
 7.438342752590791e-001	 2.802982442167025e+000	 7.884923648382325e+000
 7.167714755986623e-001	 2.810024671051159e+000	 7.881429440010119e+000
 6.897137122800909e-001	 2.816788063600243e+000	 7.902065364497120e+000
 6.626649709748439e-001	 2.823273833050822e+000	 7.947439857550675e+000
 6.356291920980260e-001	 2.829483262063339e+000	 8.018149959347618e+000
 6.086102694731691e-001	 2.835417701156467e+000	 7.984892408923347e+000
 5.816120490530735e-001	 2.841078567116789e+000	 7.850870264898615e+000
 5.546383276969445e-001	 2.846467341385945e+000	 7.688855131470224e+000
 5.276928520039791e-001	 2.851585568427321e+000	 7.497997158056406e+000
 8.048377784053131e-001	 2.812091952722746e+000	 8.069303073137427e+000
 7.775437548385245e-001	 2.819760753934596e+000	 8.011595455079096e+000
 7.502466396967938e-001	 2.827146083905626e+000	 7.979373354727485e+000
 7.229505400394083e-001	 2.834249021659217e+000	 7.973197474292236e+000
 6.956595201407010e-001	 2.841070719316312e+000	 7.993613418097630e+000
 6.683776000313861e-001	 2.847612400572389e+000	 8.041153074119306e+000
 6.411087540956635e-001	 2.853875359145309e+000	 8.116335960336221e+000
 6.138569097245084e-001	 2.859860957196147e+000	 8.125399560124833e+000
 5.866259460254865e-001	 2.865570623725161e+000	 7.985584598344002e+000
 5.594196925893462e-001	 2.871005852945041e+000	 7.814949896767503e+000
 5.322419283135530e-001	 2.876168202633512e+000	 7.612574577503397e+000
 8.117167337722309e-001	 2.836126926673104e+000	 8.206902388420907e+000
 7.841894279526530e-001	 2.843861273194103e+000	 8.140588535529398e+000
 7.566590041345087e-001	 2.851309725643227e+000	 8.102343375070786e+000
 7.291296044801549e-001	 2.858473372266277e+000	 8.092653088530927e+000
 7.016053280013110e-001	 2.865353375031381e+000	 8.111987515905250e+000
 6.740902290879285e-001	 2.871950968092957e+000	 8.160801682156805e+000
 6.465883160933009e-001	 2.878267456226280e+000	 8.239537286440267e+000
 6.191035499758479e-001	 2.884304213234826e+000	 8.295306967001693e+000
 5.916398429978994e-001	 2.890062680332532e+000	 8.147972051406896e+000
 5.642010574817480e-001	 2.895544364503138e+000	 7.966810865408009e+000
 5.367910046231269e-001	 2.900750836838703e+000	 7.750832335103962e+000
 8.185956891391485e-001	 2.860161900622463e+000	 8.373745456311164e+000
 7.908351010667816e-001	 2.867961792452611e+000	 8.298101072180929e+000
 7.630713685722232e-001	 2.875473367379827e+000	 8.253081537000215e+000
 7.353086689209010e-001	 2.882697722872336e+000	 8.239098122913100e+000
 7.075511358619213e-001	 2.889636030745451e+000	 8.256544533445162e+000
 6.798028581444705e-001	 2.896289535612524e+000	 8.305798575943351e+000
 6.520678780909384e-001	 2.902659553306250e+000	 8.387223794681569e+000
 6.243501902271874e-001	 2.908747469272504e+000	 8.494886277319319e+000
 5.966537399703122e-001	 2.914554736938904e+000	 8.338349402782916e+000
 5.689824223741495e-001	 2.920082876060233e+000	 8.144798891219981e+000
 5.413400809327010e-001	 2.925333471042894e+000	 7.913174281920578e+000
 8.254746445060665e-001	 2.884196874570822e+000	 8.568979397534395e+000
 7.974807741809102e-001	 2.892062311710120e+000	 8.483331124722499e+000
 7.694837330099383e-001	 2.899637009115428e+000	 8.430837908902324e+000
 7.414877333616478e-001	 2.906922073477395e+000	 8.411835685924078e+000
 7.134969437225316e-001	 2.913918686458521e+000	 8.426641612184518e+000
 6.855154872010129e-001	 2.920628103131092e+000	 8.475555884152222e+000
 6.575474400885762e-001	 2.927051650385220e+000	 8.558863516406118e+000
 6.295968304785271e-001	 2.933190725309185e+000	 8.676836073844736e+000
 6.016676369427254e-001	 2.939046793544277e+000	 8.557029402524575e+000
 5.737637872665514e-001	 2.944621387616330e+000	 8.349269657873609e+000
 5.458891572422751e-001	 2.949916105246086e+000	 8.099997931588780e+000
 5.003983941465354e-001	 2.704089763169176e+000	 7.284332974944883e+000
 4.748769387281781e-001	 2.708688223695421e+000	 7.277667349343124e+000
 4.493892264735033e-001	 2.713033232976536e+000	 7.264334932065756e+000
 4.239386611108921e-001	 2.717126425418323e+000	 7.244857991195765e+000
 3.985285948199710e-001	 2.720969488838350e+000	 7.219971583626253e+000
 3.731623273929815e-001	 2.724564162849201e+000	 7.190617309408393e+000
 3.478431054491009e-001	 2.727912237233771e+000	 7.157936782255067e+000
 3.225741217013700e-001	 2.731015550314390e+000	 7.123264839291686e+000
 2.973585142758312e-001	 2.733875987317568e+000	 7.088122513122813e+000
 2.721993660824217e-001	 2.736495478736074e+000	 7.054209789183323e+000
 2.470997042370982e-001	 2.738875998690031e+000	 7.023398171188751e+000
 5.049474704561093e-001	 2.728672397381367e+000	 7.265700756863362e+000
 4.791940018074254e-001	 2.733312662094415e+000	 7.272918574867399e+000
 4.534745830783211e-001	 2.737697171460055e+000	 7.272612567474647e+000
 4.277926489401633e-001	 2.741827574742321e+000	 7.265356353021276e+000
 4.021515820469407e-001	 2.745705575102577e+000	 7.251940827043519e+000
 3.765547121890066e-001	 2.749332927968071e+000	 7.233367749602541e+000
 3.510053155002598e-001	 2.752711439392450e+000	 7.210843042613192e+000
 3.255066137184062e-001	 2.755842964410066e+000	 7.185769820844906e+000
 3.000617734979079e-001	 2.758729405385851e+000	 7.159741180232401e+000
 2.746739057751573e-001	 2.761372710362509e+000	 7.134532767041295e+000
 2.493460651853486e-001	 2.763774871406714e+000	 7.112095151261060e+000
 5.094965467656832e-001	 2.753255031592557e+000	 7.268176187039749e+000
 4.835110648866728e-001	 2.757937100492415e+000	 7.290605552550423e+000
 4.575599396831386e-001	 2.762361109942594e+000	 7.304452055397496e+000
 4.316466367694347e-001	 2.766528724065365e+000	 7.310340935145449e+000
 4.057745692739102e-001	 2.770441661365888e+000	 7.309119417210509e+000
 3.799470969850319e-001	 2.774101693086072e+000	 7.301850128159488e+000
 3.541675255514188e-001	 2.777510641550315e+000	 7.289804214635331e+000
 3.284391057354423e-001	 2.780670378504993e+000	 7.274454190166121e+000
 3.027650327199846e-001	 2.783582823453463e+000	 7.257466534088712e+000
 2.771484454678929e-001	 2.786249941988359e+000	 7.240694066713793e+000
 2.515924261335989e-001	 2.788673744122905e+000	 7.226168124688685e+000
 5.140456230752573e-001	 2.777837665802749e+000	 7.292207467846441e+000
 4.878281279659201e-001	 2.782561538889420e+000	 7.331123947227028e+000
 4.616452962879563e-001	 2.787025048424154e+000	 7.360196412475647e+000
 4.355006245987059e-001	 2.791229873387455e+000	 7.380102008225828e+000
 4.093975565008799e-001	 2.795177747628282e+000	 7.391744794735866e+000
 3.833394817810571e-001	 2.798870458203201e+000	 7.396248986127161e+000
 3.573297356025777e-001	 2.802309843707365e+000	 7.394951885642168e+000
 3.313715977524785e-001	 2.805497792599171e+000	 7.389396542787980e+000
 3.054682919420611e-001	 2.808436241520401e+000	 7.381324157201691e+000
 2.796229851606286e-001	 2.811127173613622e+000	 7.372666253967059e+000
 2.538387870818492e-001	 2.813572616838604e+000	 7.365536654935510e+000
 5.185946993848312e-001	 2.802420300011939e+000	 7.338234574493917e+000
 4.921451910451676e-001	 2.807185977285431e+000	 7.394863255067664e+000
 4.657306528927738e-001	 2.811688986904735e+000	 7.440184484279068e+000
 4.393546124279772e-001	 2.815931022708593e+000	 7.474927608263524e+000
 4.130205437278496e-001	 2.819913833889759e+000	 7.500054040574838e+000
 3.867318665770823e-001	 2.823639223319458e+000	 7.516750318293782e+000
 3.604919456537368e-001	 2.827109045863601e+000	 7.526420848321279e+000
 3.343040897695147e-001	 2.830325206692602e+000	 7.530680369346538e+000
 3.081715511641378e-001	 2.833289659586666e+000	 7.531346154947176e+000
 2.820975248533642e-001	 2.836004405238298e+000	 7.530429983172058e+000
 2.560851480300995e-001	 2.838471489553812e+000	 7.530129897770592e+000
 5.231437756944052e-001	 2.827002934220130e+000	 7.406689612733163e+000
 4.964622541244147e-001	 2.831810415680446e+000	 7.482207071781156e+000
 4.698160094975916e-001	 2.836352925384337e+000	 7.544751126657247e+000
 4.432086002572486e-001	 2.840632172028778e+000	 7.595103633762782e+000
 4.166435309548192e-001	 2.844649920150318e+000	 7.634283891666560e+000
 3.901242513731075e-001	 2.848407988434846e+000	 7.663541509982082e+000
 3.636541557048957e-001	 2.851908248019020e+000	 7.684348961363624e+000
 3.372365817865509e-001	 2.855152620785284e+000	 7.698393842751326e+000
 3.108748103862144e-001	 2.858143077652259e+000	 7.707570871964639e+000
 2.845720645460997e-001	 2.860881636862386e+000	 7.713973645626029e+000
 2.583315089783498e-001	 2.863370362268527e+000	 7.719886184211603e+000
 5.276928520039791e-001	 2.851585568427321e+000	 7.497997158056406e+000
 5.007793172036622e-001	 2.856434854074466e+000	 7.593533346944709e+000
 4.739013661024092e-001	 2.861016863862959e+000	 7.674227377710066e+000
 4.470625880865198e-001	 2.865333321348009e+000	 7.740913937864045e+000
 4.202665181817888e-001	 2.869386006409961e+000	 7.794670755762222e+000
 3.935166361691326e-001	 2.873176753549362e+000	 7.836811277112873e+000
 3.668163657560547e-001	 2.876707450173628e+000	 7.868877017307852e+000
 3.401690738035870e-001	 2.879980034877217e+000	 7.892629616363234e+000
 3.135780696082910e-001	 2.882996495717180e+000	 7.910042623223062e+000
 2.870466042388354e-001	 2.885758868485888e+000	 7.923293036063834e+000
 2.605778699266002e-001	 2.888269234982751e+000	 7.934752625039225e+000
 5.322419283135530e-001	 2.876168202633512e+000	 7.612574577503397e+000
 5.050963802829095e-001	 2.881059292467493e+000	 7.729214625292054e+000
 4.779867227072269e-001	 2.885680802340604e+000	 7.828940620939170e+000
 4.509165759157910e-001	 2.890034470666286e+000	 7.912640415752919e+000
 4.238895054087584e-001	 2.894122092668686e+000	 7.981450725493064e+000
 3.969090209651579e-001	 2.897945518663008e+000	 8.036749609341387e+000
 3.699785758072137e-001	 2.901506652327419e+000	 8.080148617162903e+000
 3.431015658206232e-001	 2.904807448968402e+000	 8.113484632521795e+000
 3.162813288303678e-001	 2.907849913781428e+000	 8.138811438878538e+000
 2.895211439315709e-001	 2.910636100108803e+000	 8.158391036272757e+000
 2.628242308748505e-001	 2.913168107696484e+000	 8.174684735594857e+000
 5.367910046231269e-001	 2.900750836838703e+000	 7.750832335103962e+000
 5.094134433621568e-001	 2.905683730859524e+000	 7.889618275731826e+000
 4.820720793120443e-001	 2.910344740817267e+000	 8.009214740104385e+000
 4.547705637450623e-001	 2.914735619983611e+000	 8.110563087624104e+000
 4.275124926357281e-001	 2.918858178926494e+000	 8.194859591722686e+000
 4.003014057611831e-001	 2.922714283775782e+000	 8.263547716085526e+000
 3.731407858583726e-001	 2.926305854480396e+000	 8.318310051403866e+000
 3.460340578376594e-001	 2.929634863058839e+000	 8.361059940809223e+000
 3.189845880524443e-001	 2.932703331845003e+000	 8.393932822106004e+000
 2.919956836243065e-001	 2.935513331731130e+000	 8.419277314792479e+000
 2.650705918231008e-001	 2.938066980409724e+000	 8.439646079654020e+000
 5.413400809327010e-001	 2.925333471042894e+000	 7.913174281920578e+000
 5.137305064414042e-001	 2.930308169250560e+000	 8.075106708819446e+000
 4.861574359168621e-001	 2.935008679292952e+000	 8.215370266270975e+000
 4.586245515743336e-001	 2.939436769299983e+000	 8.334960177462856e+000
 4.311354798626977e-001	 2.943594265183386e+000	 8.435132856226584e+000
 4.036937905572083e-001	 2.947483048887686e+000	 8.517397975275456e+000
 3.763029959095316e-001	 2.951105056632559e+000	 8.583510186970191e+000
 3.489665498546956e-001	 2.954462277148526e+000	 8.635460525477036e+000
 3.216878472745210e-001	 2.957556749907905e+000	 8.675467519139605e+000
 2.944702233170422e-001	 2.960390563352872e+000	 8.705968041758300e+000
 2.673169527713512e-001	 2.962965853122473e+000	 8.729607931257506e+000
 5.458891572422751e-001	 2.949916105246086e+000	 8.099997931588780e+000
 5.180475695206517e-001	 2.954932607640603e+000	 8.286037583355050e+000
 4.902427925216797e-001	 2.959672617767659e+000	 8.447724517505904e+000
 4.624785394036050e-001	 2.964137918615402e+000	 8.586108187886715e+000
 4.347584670896675e-001	 2.968330351439361e+000	 8.702505743737412e+000
 4.070861753532337e-001	 2.972251813998719e+000	 8.798493884665732e+000
 3.794652059606907e-001	 2.975904258783907e+000	 8.875900359912754e+000
 3.518990418717319e-001	 2.979289691237467e+000	 8.936795141501419e+000
 3.243911064965978e-001	 2.982410167970138e+000	 8.983481300812322e+000
 2.969447630097779e-001	 2.985267794974027e+000	 9.018485618000902e+000
 2.695633137196015e-001	 2.987864725834731e+000	 9.044548953449965e+000
 2.470997042370982e-001	 2.738875998690031e+000	 7.023398171188751e+000
 2.220624995334239e-001	 2.741019563288683e+000	 7.012774886413421e+000
 1.970906659666314e-001	 2.742928228994460e+000	 6.981810503488886e+000
 1.721870603070332e-001	 2.744604090990911e+000	 6.933121352139231e+000
 1.473544817196688e-001	 2.746049281555912e+000	 6.869480137950547e+000
 1.225956714330539e-001	 2.747265968441736e+000	 6.793807265233087e+000
 9.791331245501693e-002	 2.748256353263346e+000	 6.709162095839862e+000
 7.331002933477392e-002	 2.749022669896307e+000	 6.618734164975667e+000
 4.878838797035946e-002	 2.749567182885613e+000	 6.525834374425554e+000
 2.435089546050372e-002	 2.749892185866723e+000	 6.433886182988658e+000
 0.000000000000000e+000	 2.750000000000000e+000	 6.346416813229529e+000
 2.493460651853486e-001	 2.763774871406714e+000	 7.112095151261060e+000
 2.240812495293676e-001	 2.765937922956008e+000	 7.110819722205316e+000
 1.988823992934204e-001	 2.767863940167976e+000	 7.092311591763007e+000
 1.737523972184575e-001	 2.769555037273286e+000	 7.059260844002974e+000
 1.486940679164726e-001	 2.771013365934161e+000	 7.014514198603091e+000
 1.237101775362395e-001	 2.772241113609713e+000	 6.961066197244474e+000
 9.880343347656646e-002	 2.773240501929583e+000	 6.902050326241241e+000
 7.397648414620664e-002	 2.774013785077298e+000	 6.840730096801431e+000
 4.923191876953960e-002	 2.774563248184625e+000	 6.780490103699885e+000
 2.457226723710114e-002	 2.774891205738252e+000	 6.724827082484191e+000
 0.000000000000000e+000	 2.775000000000000e+000	 6.677340984649415e+000
 2.515924261335989e-001	 2.788673744122905e+000	 7.226168124688685e+000
 2.260999995253115e-001	 2.790856282622937e+000	 7.234337683593591e+000
 2.006741326202093e-001	 2.792799651341178e+000	 7.228132030606088e+000
 1.753177341298817e-001	 2.794505983555423e+000	 7.210317573261579e+000
 1.500336541132762e-001	 2.795977450312236e+000	 7.183817804228371e+000
 1.248246836394252e-001	 2.797216258777567e+000	 7.151704343855609e+000
 9.969355449811602e-002	 2.798224650595743e+000	 7.117187919157144e+000
 7.464293895763939e-002	 2.799004900258246e+000	 7.083609301009419e+000
 4.967544956871973e-002	 2.799559313483616e+000	 7.054430220703441e+000
 2.479363901369855e-002	 2.799890225609775e+000	 7.033224286329655e+000
 0.000000000000000e+000	 2.800000000000000e+000	 7.023667918765143e+000
 2.538387870818492e-001	 2.813572616838604e+000	 7.365536654935510e+000
 2.281187495212552e-001	 2.815774642289468e+000	 7.383175412490797e+000
 2.024658659469983e-001	 2.817735362514068e+000	 7.389047209259714e+000
 1.768830710413059e-001	 2.819456929837321e+000	 7.385997356101334e+000
 1.513732403100800e-001	 2.820941534690137e+000	 7.377028888064395e+000
 1.259391897426109e-001	 2.822191403945301e+000	 7.365293455693407e+000
 1.005836755196656e-001	 2.823208799261826e+000	 7.354082152895572e+000
 7.530939376907211e-002	 2.823996015439151e+000	 7.346816303538883e+000
 5.011898036789984e-002	 2.824555378782589e+000	 7.347038228306055e+000
 2.501501079029598e-002	 2.824889245481295e+000	 7.358402012646455e+000
 0.000000000000000e+000	 2.825000000000000e+000	 7.384664295947631e+000
 2.560851480300995e-001	 2.838471489553812e+000	 7.530129897770592e+000
 2.301374995171990e-001	 2.840693001955602e+000	 7.557191284884314e+000
 2.042575992737872e-001	 2.842671073686646e+000	 7.574846274134150e+000
 1.784484079527302e-001	 2.844407876118981e+000	 7.586021670703757e+000
 1.527128265068837e-001	 2.845905619067862e+000	 7.593802832370425e+000
 1.270536958457965e-001	 2.847166549112915e+000	 7.601424402156937e+000
 1.014737965412151e-001	 2.848192947927832e+000	 7.612260977589343e+000
 7.597584858050487e-002	 2.848987130620012e+000	 7.629817739144377e+000
 5.056251116707998e-002	 2.849551444081544e+000	 7.657721059805446e+000
 2.523638256689339e-002	 2.849888265352807e+000	 7.699709116954100e+000
 0.000000000000000e+000	 2.850000000000000e+000	 7.759622527081059e+000
 2.583315089783498e-001	 2.863370362268527e+000	 7.719886184211603e+000
 2.321562495131427e-001	 2.865611361621340e+000	 7.756254900658671e+000
 2.060493326005761e-001	 2.867606784858910e+000	 7.785331530670550e+000
 1.800137448641544e-001	 2.869358822400401e+000	 7.810126976288927e+000
 1.540524127036873e-001	 2.870869703445412e+000	 7.833811709773995e+000
 1.281682019489822e-001	 2.872141694280408e+000	 7.859706340165436e+000
 1.023639175627647e-001	 2.873177096593761e+000	 7.891272116421807e+000
 7.664230339193760e-002	 2.873978245800831e+000	 7.932101390143119e+000
 5.100604196626010e-002	 2.874547509380479e+000	 7.985908060212627e+000
 2.545775434349082e-002	 2.874887285224317e+000	 8.056518020979103e+000
 0.000000000000000e+000	 2.875000000000000e+000	 8.147859634844940e+000
 2.605778699266002e-001	 2.888269234982751e+000	 7.934752625039225e+000
 2.341749995090864e-001	 2.890529721286680e+000	 7.980246599808003e+000
 2.078410659273651e-001	 2.892542496030862e+000	 8.020317876140688e+000
 1.815790817755787e-001	 2.894309768681583e+000	 8.058064067381054e+000
 1.553919989004910e-001	 2.895833787822788e+000	 8.096743563857965e+000
 1.292827080521679e-001	 2.897116839447781e+000	 8.139765925903680e+000
 1.032540385843142e-001	 2.898161245259612e+000	 8.190682213339496e+000
 7.730875820337035e-002	 2.898969360981606e+000	 8.253175274881668e+000
 5.144957276544022e-002	 2.899543574679394e+000	 8.331050020230148e+000
 2.567912612008824e-002	 2.899886305095822e+000	 8.428223696871454e+000
 0.000000000000000e+000	 2.900000000000000e+000	 8.548716192860651e+000
 2.628242308748505e-001	 2.913168107696484e+000	 8.174684735594857e+000
 2.361937495050302e-001	 2.915448080951624e+000	 8.229057003455482e+000
 2.096327992541540e-001	 2.917478207202503e+000	 8.279632261535090e+000
 1.831444186870029e-001	 2.919260714962529e+000	 8.329597461188152e+000
 1.567315850972948e-001	 2.920797872199990e+000	 8.382301726641783e+000
 1.303972141553536e-001	 2.922091984615031e+000	 8.441246566989943e+000
 1.041441596058637e-001	 2.923145393925386e+000	 8.510076024472644e+000
 7.797521301480311e-002	 2.923960476162339e+000	 8.592566782948655e+000
 5.189310356462035e-002	 2.924539639978291e+000	 8.692618259768970e+000
 2.590049789668566e-002	 2.924885324967322e+000	 8.814242703509541e+000
 0.000000000000000e+000	 2.925000000000000e+000	 8.961555319241214e+000
 2.650705918231008e-001	 2.938066980409724e+000	 8.439646079654020e+000
 2.382124995009740e-001	 2.940366440616170e+000	 8.502586578213681e+000
 2.114245325809429e-001	 2.942413918373830e+000	 8.563113180812302e+000
 1.847097555984271e-001	 2.944211661243234e+000	 8.624504816133968e+000
 1.580711712940984e-001	 2.945761956577017e+000	 8.690204170765929e+000
 1.315117202585392e-001	 2.947067129782162e+000	 8.763807712669200e+000
 1.050342806274133e-001	 2.948129542591085e+000	 8.849055650670046e+000
 7.864166782623584e-002	 2.948951591343027e+000	 8.949821854359787e+000
 5.233663436380049e-002	 2.949535705277169e+000	 9.070103758067297e+000
 2.612186967328308e-002	 2.949884344838817e+000	 9.214012271809589e+000
 0.000000000000000e+000	 2.949999999999999e+000	 9.385761721316333e+000
 2.673169527713512e-001	 2.962965853122473e+000	 8.729607931257506e+000
 2.402312494969177e-001	 2.965284800280320e+000	 8.800745222507533e+000
 2.132162659077319e-001	 2.967349629544843e+000	 8.870610185899871e+000
 1.862750925098514e-001	 2.969162607523701e+000	 8.942576379703903e+000
 1.594107574909021e-001	 2.970726040953869e+000	 9.020182894339822e+000
 1.326262263617249e-001	 2.972042274949171e+000	 9.107124179795855e+000
 1.059244016489628e-001	 2.973113691256704e+000	 9.207239808729250e+000
 7.930812263766857e-002	 2.973942706523673e+000	 9.324504200127029e+000
 5.278016516298060e-002	 2.974531770576026e+000	 9.463016327668640e+000
 2.634324144988050e-002	 2.974883364710307e+000	 9.626989436151826e+000
 0.000000000000000e+000	 2.974999999999999e+000	 9.820740788521865e+000
 2.695633137196015e-001	 2.987864725834731e+000	 9.044548953449965e+000
 2.422499994928616e-001	 2.990203159944074e+000	 9.123451873582555e+000
 2.150079992345209e-001	 2.992285340715546e+000	 9.201983425945635e+000
 1.878404294212756e-001	 2.994113553803930e+000	 9.283614463902568e+000
 1.607503436877059e-001	 2.995690125330548e+000	 9.371983336547334e+000
 1.337407324649106e-001	 2.997017420116060e+000	 9.470885512516089e+000
 1.068145226705124e-001	 2.998097839922249e+000	 9.584263139065008e+000
 7.997457744910133e-002	 2.998933821704276e+000	 9.716194561801460e+000
 5.322369596216075e-002	 2.999527835874867e+000	 9.870883829699464e+000
 2.656461322647793e-002	 2.999882384581794e+000	 1.005265020923649e+001
 0.000000000000000e+000	 3.000000000000000e+000	 1.026591773064614e+001
 3.000000000000000e+000	 0.000000000000000e+000	 1.114371904268148e+001
 2.999882384581794e+000	 2.656461322647803e-002	 1.121848869574765e+001
 2.999527835874867e+000	 5.322369596216094e-002	 1.126228157760738e+001
 2.998933821704276e+000	 7.997457744910114e-002	 1.128028041169518e+001
 2.998097839922249e+000	 1.068145226705123e-001	 1.127784735355727e+001
 2.997017420116060e+000	 1.337407324649106e-001	 1.126051842811650e+001
 2.995690125330548e+000	 1.607503436877060e-001	 1.123399744309644e+001
 2.994113553803930e+000	 1.878404294212759e-001	 1.120414937432339e+001
 2.992285340715547e+000	 2.150079992345207e-001	 1.117699321985557e+001
 2.990203159944073e+000	 2.422499994928615e-001	 1.115869432117729e+001
 2.987864725834731e+000	 2.695633137196016e-001	 1.115555615104450e+001
 3.025000000000000e+000	 0.000000000000000e+000	 1.065171880367934e+001
 3.024881404453279e+000	 2.678598500307306e-002	 1.075937270524358e+001
 3.024523901173706e+000	 5.366722676133150e-002	 1.083539400196491e+001
 3.023924936884879e+000	 8.064103226051231e-002	 1.088508346333103e+001
 3.023081988587793e+000	 1.077046436920233e-001	 1.091392543457224e+001
 3.021992565282949e+000	 1.348552385680359e-001	 1.092758213449226e+001
 3.020654209707225e+000	 1.620899298844223e-001	 1.093188741668659e+001
 3.019064500084158e+000	 1.894057663325809e-001	 1.093283998977013e+001
 3.017221051886248e+000	 2.167997325611534e-001	 1.093659609349890e+001
 3.015121519607826e+000	 2.442687494886068e-001	 1.094946162898908e+001
 3.012763598546988e+000	 2.718096746676061e-001	 1.097788374262058e+001
 3.050000000000000e+000	 0.000000000000000e+000	 1.024629044299526e+001
 3.049880424324768e+000	 2.700735677966334e-002	 1.037996858160883e+001
 3.049519966472564e+000	 5.411075756048293e-002	 1.048129391930672e+001
 3.048916052065525e+000	 8.130748707188022e-002	 1.055568997605600e+001
 3.048066137253413e+000	 1.085947647134573e-001	 1.060876813476316e+001
 3.046967710449958e+000	 1.359697446710402e-001	 1.064632179667620e+001
 3.045618294084077e+000	 1.634295160809641e-001	 1.067431998709435e+001
 3.044015446364626e+000	 1.909711032436473e-001	 1.069890040690746e+001
 3.042156763057263e+000	 2.185914658874734e-001	 1.072636192678074e+001
 3.040039879271977e+000	 2.462874994839551e-001	 1.076315652215394e+001
 3.037662471259737e+000	 2.740560356151188e-001	 1.081588064863909e+001
 3.075000000000000e+000	 0.000000000000000e+000	 9.926306324691018e+000
 3.074879444196264e+000	 2.722872855624884e-002	 1.007909294734344e+001
 3.074516031771441e+000	 5.455428835961522e-002	 1.019874178608262e+001
 3.073907167246214e+000	 8.197394188320498e-002	 1.029080385543240e+001
 3.073050285919110e+000	 1.094848857348141e-001	 1.036102246475790e+001
 3.071942855617088e+000	 1.370842507739238e-001	 1.041532722821997e+001
 3.070582378461104e+000	 1.647691022773312e-001	 1.045982751164459e+001
 3.068966392645331e+000	 1.925364401544753e-001	 1.050080531172786e+001
 3.067092474228589e+000	 2.203831992134809e-001	 1.054470756432115e+001
 3.064958238936522e+000	 2.483062494789064e-001	 1.059813787992808e+001
 3.062561343972977e+000	 2.763023965621398e-001	 1.066784770599509e+001
 3.100000000000000e+000	 0.000000000000000e+000	 9.690675188181270e+000
 3.099878464067764e+000	 2.745010033282959e-002	 9.855597510516571e+000
 3.099512097070338e+000	 5.499781915872840e-002	 9.986531845920315e+000
 3.098898282426945e+000	 8.264039669448649e-002	 1.008916148759543e+001
 3.098034434584885e+000	 1.103750067560939e-001	 1.016936660134658e+001
 3.096918000784339e+000	 1.381987568766865e-001	 1.023321808703924e+001
 3.095546462838306e+000	 1.661086884735237e-001	 1.028697086326861e+001
 3.093917338926274e+000	 1.941017770650647e-001	 1.033705657055303e+001
 3.092028185400229e+000	 2.221749325391758e-001	 1.039007568972273e+001
 3.089876598601465e+000	 2.503249994734608e-001	 1.045278907359564e+001
 3.087460216686710e+000	 2.785487575086693e-001	 1.053210889151926e+001
 3.125000000000000e+000	 0.000000000000000e+000	 9.538340693219126e+000
 3.124877483939268e+000	 2.767147210940556e-002	 9.708367661344123e+000
 3.124508162369254e+000	 5.544134995782243e-002	 9.843490778137605e+000
 3.123889397607720e+000	 8.330685150572482e-002	 9.949530440030388e+000
 3.123018583250737e+000	 1.112651277772966e-001	 1.003250864083558e+001
 3.121893145951711e+000	 1.393132629793284e-001	 1.009864268163931e+001
 3.120510547215681e+000	 1.674482746695415e-001	 1.015433828987986e+001
 3.118868285207457e+000	 1.956671139754157e-001	 1.020618214282078e+001
 3.116963896572181e+000	 2.239666658645581e-001	 1.026093379201139e+001
 3.114794958266806e+000	 2.523437494676183e-001	 1.032551698678695e+001
 3.112359089400934e+000	 2.807951184547070e-001	 1.040701039638025e+001
 3.150000000000000e+000	 0.000000000000000e+000	 1.018455237985607e+001
 3.149876503810778e+000	 2.789284388597678e-002	 1.029852185404746e+001
 3.149504227668188e+000	 5.588488075689733e-002	 1.037339431692384e+001
 3.148880512788539e+000	 8.397330631691997e-002	 1.041622706823968e+001
 3.148002731916666e+000	 1.121552487984223e-001	 1.043417786526726e+001
 3.146868291119204e+000	 1.404277690818493e-001	 1.043451597801491e+001
 3.145474631593232e+000	 1.687878608653847e-001	 1.042463384939125e+001
 3.143819231488878e+000	 1.972324508855280e-001	 1.041205935025450e+001
 3.141899607744445e+000	 2.257583991896278e-001	 1.040446861668497e+001
 3.139713317932544e+000	 2.543624994613788e-001	 1.040969945413334e+001
 3.137257962115649e+000	 2.830414794002528e-001	 1.043576529034058e+001
 3.175000000000000e+000	 0.000000000000000e+000	 1.072353111795302e+001
 3.174875523682292e+000	 2.811421566254322e-002	 1.079183525029073e+001
 3.174500292967143e+000	 5.632841155595311e-002	 1.082325624339468e+001
 3.173871627969401e+000	 8.463976112807191e-002	 1.082461012419625e+001
 3.172986880582672e+000	 1.130453698194708e-001	 1.080280602519285e+001
 3.171843436286817e+000	 1.415422751842494e-001	 1.076485768248004e+001
 3.170438715970958e+000	 1.701274470610533e-001	 1.071789556927130e+001
 3.168770177770539e+000	 1.987977877954020e-001	 1.066917965478836e+001
 3.166835318917023e+000	 2.275501325143849e-001	 1.062611277572042e+001
 3.164631677598678e+000	 2.563812494547423e-001	 1.059625460467581e+001
 3.162156834830856e+000	 2.852878403453070e-001	 1.058733619719876e+001
 3.199999999999999e+000	 0.000000000000000e+000	 1.115431727220240e+001
 3.199874543553811e+000	 2.833558743910490e-002	 1.118394276117787e+001
 3.199496358266115e+000	 5.677194235498975e-002	 1.117896011070443e+001
 3.198862743150305e+000	 8.530621593918064e-002	 1.114593446344776e+001
 3.197971029248754e+000	 1.139354908404423e-001	 1.109151648181583e+001
 3.196818581454552e+000	 1.426567812865288e-001	 1.102245429831956e+001
 3.195402800348857e+000	 1.714670332565473e-001	 1.094560613263696e+001
 3.193721124052436e+000	 2.003631247050374e-001	 1.086795356521355e+001
 3.191771030089914e+000	 2.293418658388294e-001	 1.079661545445368e+001
 3.189550037265210e+000	 2.583999994477089e-001	 1.073886248169644e+001
 3.187055707546556e+000	 2.875342012898696e-001	 1.070213230522086e+001
 3.224999999999999e+000	 0.000000000000000e+000	 1.147598096343039e+001
 3.224873563425334e+000	 2.855695921566181e-002	 1.147419787903438e+001
 3.224492423565108e+000	 5.721547315400726e-002	 1.144014410158346e+001
 3.223853858331254e+000	 8.597267075024617e-002	 1.138012412507043e+001
 3.222955177914915e+000	 1.148256118613368e-001	 1.130052013998390e+001
 3.221793726622407e+000	 1.437712873886872e-001	 1.120780444560895e+001
 3.220366884726932e+000	 1.728066194518667e-001	 1.110855256093406e+001
 3.218672070334573e+000	 2.019284616144343e-001	 1.100945702394394e+001
 3.216706741263116e+000	 2.311335991629614e-001	 1.091734186621306e+001
 3.214468396932137e+000	 2.604187494402785e-001	 1.083917774675655e+001
 3.211954580262747e+000	 2.897805622339404e-001	 1.078209772605425e+001
 3.250000000000000e+000	 0.000000000000000e+000	 1.168762092412981e+001
 3.249872583296864e+000	 2.877833099221397e-002	 1.166198169335101e+001
 3.249488488864120e+000	 5.765900395300565e-002	 1.160647297465414e+001
 3.248844973512246e+000	 8.663912556126854e-002	 1.152712869630018e+001
 3.247939326581152e+000	 1.157157328821541e-001	 1.143005241883198e+001
 3.246768871790384e+000	 1.448857934907248e-001	 1.132143021902757e+001
 3.245330969105183e+000	 1.741462056470114e-001	 1.120754430505432e+001
 3.243623016616949e+000	 2.034937985235927e-001	 1.109478735255361e+001
 3.241642452436632e+000	 2.329253324867808e-001	 1.098967754842749e+001
 3.239386756599463e+000	 2.624374994324513e-001	 1.089887432604714e+001
 3.236853452979430e+000	 2.920269231775197e-001	 1.082919477246412e+001
 2.987864725834731e+000	 2.695633137196016e-001	 1.115555615104450e+001
 2.985267794974027e+000	 2.969447630097781e-001	 1.101617472375274e+001
 2.982410167970137e+000	 3.243911064965979e-001	 1.090862632984858e+001
 2.979289691237467e+000	 3.518990418717317e-001	 1.083977284062900e+001
 2.975904258783907e+000	 3.794652059606906e-001	 1.081657617304271e+001
 2.972251813998720e+000	 4.070861753532337e-001	 1.084608727029598e+001
 2.968330351439361e+000	 4.347584670896677e-001	 1.093543457368195e+001
 2.964137918615402e+000	 4.624785394036052e-001	 1.109181199622093e+001
 2.959672617767659e+000	 4.902427925216796e-001	 1.132246641041221e+001
 2.954932607640603e+000	 5.180475695206515e-001	 1.163468466413767e+001
 2.949916105246086e+000	 5.458891572422751e-001	 1.203578014051635e+001
 3.012763598546988e+000	 2.718096746676061e-001	 1.097788374262058e+001
 3.010145026595181e+000	 2.994193027022249e-001	 1.087550639642016e+001
 3.007263586032368e+000	 3.270943657183575e-001	 1.080537182248725e+001
 3.004117105326406e+000	 3.548315338884370e-001	 1.077451508944441e+001
 3.000703460935255e+000	 3.826274160115196e-001	 1.079007413212537e+001
 2.997020579109752e+000	 4.104785601489446e-001	 1.085927845711769e+001
 2.993066437695334e+000	 4.383814543163540e-001	 1.098943732637003e+001
 2.988839067930820e+000	 4.663325272326390e-001	 1.118792742970540e+001
 2.984336556242365e+000	 4.943281491263212e-001	 1.146218005884087e+001
 2.979557046030644e+000	 5.223646325997994e-001	 1.181966779729644e+001
 2.974498739449277e+000	 5.504382335518415e-001	 1.226789074237996e+001
 3.037662471259737e+000	 2.740560356151188e-001	 1.081588064863909e+001
 3.035022258216923e+000	 3.018938423940945e-001	 1.074398620982855e+001
 3.032117004095270e+000	 3.297976249394829e-001	 1.070474050562119e+001
 3.028944519416094e+000	 3.577640259044806e-001	 1.070535753993076e+001
 3.025502663087416e+000	 3.857896260616888e-001	 1.075315709533088e+001
 3.021789344221656e+000	 4.138709449440277e-001	 1.085555315743572e+001
 3.017802523952225e+000	 4.420044415424736e-001	 1.102004180388559e+001
 3.013540217247193e+000	 4.701865150611983e-001	 1.125418856903867e+001
 3.009000494718050e+000	 4.984135057306104e-001	 1.156561529727373e+001
 3.004181484421681e+000	 5.266816956787482e-001	 1.196198649963518e+001
 2.999081373653468e+000	 5.549873098613937e-001	 1.245099523040302e+001
 3.062561343972977e+000	 2.763023965621398e-001	 1.066784770599509e+001
 3.059899489839250e+000	 3.043683820853868e-001	 1.061983853326075e+001
 3.056970422158845e+000	 3.325008841599744e-001	 1.060488011750124e+001
 3.053771933506530e+000	 3.606965179198625e-001	 1.063037119105917e+001
 3.050301865240394e+000	 3.889518361111982e-001	 1.070381927022235e+001
 3.046558109334430e+000	 4.172633297384822e-001	 1.083282879229028e+001
 3.042538610210034e+000	 4.456274287680267e-001	 1.102508870348275e+001
 3.038241366564517e+000	 4.740405028892827e-001	 1.128835950905703e+001
 3.033664433194715e+000	 5.024988623345474e-001	 1.163045979884688e+001
 3.028805922813712e+000	 5.309987587574979e-001	 1.205925226331145e+001
 3.023664007858659e+000	 5.595363861709308e-001	 1.258262921707818e+001
 3.087460216686710e+000	 2.785487575086693e-001	 1.053210889151926e+001
 3.084776721462165e+000	 3.068429217761016e-001	 1.050131011261159e+001
 3.081823840223093e+000	 3.352041433798316e-001	 1.050396001140834e+001
 3.078599347597715e+000	 3.636290099345828e-001	 1.054764789731132e+001
 3.075101067394186e+000	 3.921140461600479e-001	 1.064007496274076e+001
 3.071326874448076e+000	 4.206557145323085e-001	 1.078904212668151e+001
 3.067274696468759e+000	 4.492504159930132e-001	 1.100243731500379e+001
 3.062942515882794e+000	 4.778944907168924e-001	 1.128822218919328e+001
 3.058328371672358e+000	 5.065842189381320e-001	 1.165441833701900e+001
 3.053430361206737e+000	 5.353158218360486e-001	 1.210909294058902e+001
 3.048246642064849e+000	 5.640854624804536e-001	 1.266034393918754e+001
 3.112359089400934e+000	 2.807951184547070e-001	 1.040701039638025e+001
 3.109653953085667e+000	 3.093174614662391e-001	 1.038666917532322e+001
 3.106677258288014e+000	 3.379074025990548e-001	 1.040017029105205e+001
 3.103426761689649e+000	 3.665615019486414e-001	 1.045529953445897e+001
 3.099900269548792e+000	 3.952762562082375e-001	 1.055995777326984e+001
 3.096095639562592e+000	 4.240480993255067e-001	 1.072214849581125e+001
 3.092010782728402e+000	 4.528734032174330e-001	 1.094996477717562e+001
 3.087643665202025e+000	 4.817484785440275e-001	 1.125157567969305e+001
 3.082992310150981e+000	 5.106695755413645e-001	 1.163521210155853e+001
 3.078054799600758e+000	 5.396328849144005e-001	 1.210915208943349e+001
 3.072829276272041e+000	 5.686345387899614e-001	 1.268170563283115e+001
 3.137257962115649e+000	 2.830414794002528e-001	 1.043576529034058e+001
 3.134531184709755e+000	 3.117920011557995e-001	 1.037339554275238e+001
 3.131530676353606e+000	 3.406106618176438e-001	 1.035057691442663e+001
 3.128254175782331e+000	 3.694939939620383e-001	 1.037626302922271e+001
 3.124699471704213e+000	 3.984384662557674e-001	 1.046151983098366e+001
 3.120864404677979e+000	 4.274404841180766e-001	 1.063012106817022e+001
 3.116746868988962e+000	 4.564963904412862e-001	 1.086556536932076e+001
 3.112344814522210e+000	 4.856024663706877e-001	 1.117623550182057e+001
 3.107656248630582e+000	 5.147549321442445e-001	 1.157057804710294e+001
 3.102679237995774e+000	 5.439499479925535e-001	 1.205708835027030e+001
 3.097411910480231e+000	 5.731836150994546e-001	 1.264429493821599e+001
 3.162156834830856e+000	 2.852878403453070e-001	 1.058733619719876e+001
 3.159408416334431e+000	 3.142665408447823e-001	 1.049896338968616e+001
 3.156384094419872e+000	 3.433139210355989e-001	 1.044943201123527e+001
 3.153081589875761e+000	 3.724264859747735e-001	 1.044742468699209e+001
 3.149498673860448e+000	 4.016006763026375e-001	 1.050186338338325e+001
 3.145633169794237e+000	 4.308328689100182e-001	 1.062192623026018e+001
 3.141482955250439e+000	 4.601193776645729e-001	 1.081706473714817e+001
 3.137045963843347e+000	 4.894564541968733e-001	 1.109702136386724e+001
 3.132320187111163e+000	 5.188402887467722e-001	 1.147184740267879e+001
 3.127303676391783e+000	 5.482670110705071e-001	 1.195192112601520e+001
 3.121994544689422e+000	 5.777326914089332e-001	 1.254570633256505e+001
 3.187055707546556e+000	 2.875342012898696e-001	 1.070213230522086e+001
 3.184285647959694e+000	 3.167410805331879e-001	 1.059554831071801e+001
 3.181237512486811e+000	 3.460171802529198e-001	 1.052705831934187e+001
 3.177909003969940e+000	 3.753589779868468e-001	 1.050506231771335e+001
 3.174297876017498e+000	 4.047628863488477e-001	 1.053819855161219e+001
 3.170401934911366e+000	 4.342252537013316e-001	 1.063536109179037e+001
 3.166219041512832e+000	 4.637423648872926e-001	 1.080571781936241e+001
 3.161747113165439e+000	 4.933104420225841e-001	 1.105872878997525e+001
 3.156984125592723e+000	 5.229256453489479e-001	 1.140416493273727e+001
 3.151928114788789e+000	 5.525840741482619e-001	 1.185212703668156e+001
 3.146577178899613e+000	 5.822817677183971e-001	 1.241306497436453e+001
 3.211954580262747e+000	 2.897805622339404e-001	 1.078209772605425e+001
 3.209162879585543e+000	 3.192156202210161e-001	 1.066536852131187e+001
 3.206090930554421e+000	 3.487204394696066e-001	 1.058594765006020e+001
 3.202736418064867e+000	 3.782914699982586e-001	 1.055194064213482e+001
 3.199097078175363e+000	 4.079250963943981e-001	 1.057169008726417e+001
 3.195170700029366e+000	 4.376176384920169e-001	 1.065379396088131e+001
 3.190955127776143e+000	 4.673653521094461e-001	 1.080712439560553e+001
 3.186448262488482e+000	 4.971644298478201e-001	 1.104084685651163e+001
 3.181648064075263e+000	 5.270110019507712e-001	 1.136443967497319e+001
 3.176552553186789e+000	 5.569011372258178e-001	 1.178771389255057e+001
 3.171159813110805e+000	 5.868308440278466e-001	 1.232083336310800e+001
 3.236853452979430e+000	 2.920269231775197e-001	 1.082919477246412e+001
 3.234040111211981e+000	 3.216901599082671e-001	 1.071065983764377e+001
 3.230944348622705e+000	 3.514236986856594e-001	 1.062860881638047e+001
 3.227563832160543e+000	 3.812239620090088e-001	 1.059084078526820e+001
 3.223896280334043e+000	 4.110873064392887e-001	 1.060539056233195e+001
 3.219939465148238e+000	 4.410100232820740e-001	 1.068054780934336e+001
 3.215691214040372e+000	 4.709883393310329e-001	 1.082487660652516e+001
 3.211149411812481e+000	 5.010184176725818e-001	 1.104723545666039e+001
 3.206312002558781e+000	 5.310963585522424e-001	 1.135679767217834e+001
 3.201176991585784e+000	 5.612182003031746e-001	 1.176307209536005e+001
 3.195742447322996e+000	 5.913799203372813e-001	 1.227592409840778e+001
 2.949916105246086e+000	 5.458891572422751e-001	 1.203578014051635e+001
 2.944621387616330e+000	 5.737637872665515e-001	 1.139925767149943e+001
 2.939046793544276e+000	 6.016676369427255e-001	 1.082652087686638e+001
 2.933190725309185e+000	 6.295968304785270e-001	 1.042232302803930e+001
 2.927051650385220e+000	 6.575474400885762e-001	 1.056584860999915e+001
 2.920628103131092e+000	 6.855154872010129e-001	 1.070332364846566e+001
 2.913918686458521e+000	 7.134969437225319e-001	 1.083241021645255e+001
 2.906922073477395e+000	 7.414877333616478e-001	 1.095081407193486e+001
 2.899637009115429e+000	 7.694837330099380e-001	 1.105629312194852e+001
 2.892062311710120e+000	 7.974807741809101e-001	 1.114666597458150e+001
 2.884196874570821e+000	 8.254746445060665e-001	 1.121982055801114e+001
 2.974498739449277e+000	 5.504382335518415e-001	 1.226789074237996e+001
 2.969159899172426e+000	 5.785451521590409e-001	 1.151726770280669e+001
 2.963538850149648e+000	 6.066815339153120e-001	 1.083128375842936e+001
 2.957633981345865e+000	 6.348434707301158e-001	 1.047606746745556e+001
 2.951443747464190e+000	 6.630270020865289e-001	 1.063011405583606e+001
 2.944966670649659e+000	 6.912281162579265e-001	 1.077541301344679e+001
 2.938201342171590e+000	 7.194427515835593e-001	 1.090939933378577e+001
 2.931146424082455e+000	 7.476667978028477e-001	 1.102955304135967e+001
 2.923800650851029e+000	 7.758960974481320e-001	 1.113340804682611e+001
 2.916162830967627e+000	 8.041264472955334e-001	 1.121856109524858e+001
 2.908231848519180e+000	 8.323535998734841e-001	 1.128268078587149e+001
 2.999081373653468e+000	 5.549873098613937e-001	 1.245099523040302e+001
 2.993698410729522e+000	 5.833265170517062e-001	 1.157814565253118e+001
 2.988030906756019e+000	 6.116954308882450e-001	 1.077085427030698e+001
 2.982077237383543e+000	 6.400901109822029e-001	 1.050717402988754e+001
 2.975835844544160e+000	 6.685065640851121e-001	 1.067244496990686e+001
 2.969305238169227e+000	 6.969407453155827e-001	 1.082624030272491e+001
 2.962483997885658e+000	 7.253885594454217e-001	 1.096576533245344e+001
 2.955370774688512e+000	 7.538458622449542e-001	 1.108827177202688e+001
 2.947964292587630e+000	 7.823084618872844e-001	 1.119106699488056e+001
 2.940263350226135e+000	 8.107721204111466e-001	 1.127152338501747e+001
 2.932266822468538e+000	 8.392325552419018e-001	 1.132708776311178e+001
 3.023664007858659e+000	 5.595363861709308e-001	 1.258262921707818e+001
 3.018236922287618e+000	 5.881078819445471e-001	 1.157939636979687e+001
 3.012522963363392e+000	 6.167093278615249e-001	 1.064270670918740e+001
 3.006520493422222e+000	 6.453367512347887e-001	 1.051702660043380e+001
 3.000227941625130e+000	 6.739861260843260e-001	 1.069435944878760e+001
 2.993643805689794e+000	 7.026533743739816e-001	 1.085745655697748e+001
 2.986766653600728e+000	 7.313343673081191e-001	 1.100329084579672e+001
 2.979595125295572e+000	 7.600249266879678e-001	 1.112888305454240e+001
 2.972127934325230e+000	 7.887208263273955e-001	 1.123131139481727e+001
 2.964363869485642e+000	 8.174177935277489e-001	 1.130772130805226e+001
 2.956301796418896e+000	 8.461115106113193e-001	 1.135533530362782e+001
 3.048246642064849e+000	 5.640854624804536e-001	 1.266034393918754e+001
 3.042775433846714e+000	 5.928892468375639e-001	 1.151853815327197e+001
 3.037015019971764e+000	 6.217232248351519e-001	 1.044432665852139e+001
 3.030963749461900e+000	 6.505833914878728e-001	 1.050701820114851e+001
 3.024620038707100e+000	 6.794656880841702e-001	 1.069738259019048e+001
 3.017982373211360e+000	 7.083660034331233e-001	 1.087071769720854e+001
 3.011049309316797e+000	 7.372801751716513e-001	 1.102376128270890e+001
 3.003819475903630e+000	 7.662039911318881e-001	 1.115330036735345e+001
 2.996291576063832e+000	 7.951331907684649e-001	 1.125618129356696e+001
 2.988464388746150e+000	 8.240634666453409e-001	 1.132931989625560e+001
 2.980336770370254e+000	 8.529904659817371e-001	 1.136971175873076e+001
 3.072829276272041e+000	 5.686345387899614e-001	 1.268170563283115e+001
 3.067313945406811e+000	 5.976706117307563e-001	 1.139310221318718e+001
 3.061507076581136e+000	 6.267371218091253e-001	 1.025773822318659e+001
 3.055407005502580e+000	 6.558300317414558e-001	 1.047855062556297e+001
 3.049012135790070e+000	 6.849452500846451e-001	 1.068304621291864e+001
 3.042320940733928e+000	 7.140786324930076e-001	 1.086768432953589e+001
 3.035331965033867e+000	 7.432259830360184e-001	 1.102896471661327e+001
 3.028043826512689e+000	 7.723830555767155e-001	 1.116343784923461e+001
 3.020455217803432e+000	 8.015455552104926e-001	 1.126771541155697e+001
 3.012564908007658e+000	 8.307091397639227e-001	 1.133848088655922e+001
 3.004371744322612e+000	 8.598694213531548e-001	 1.137250023565053e+001
 3.097411910480231e+000	 5.731836150994546e-001	 1.264429493821599e+001
 3.091852456967906e+000	 6.024519766241243e-001	 1.120063215897210e+001
 3.085999133191508e+000	 6.317510187834460e-001	 1.019424076854361e+001
 3.079850261544259e+000	 6.610766719955370e-001	 1.043303409061156e+001
 3.073404232874039e+000	 6.904248120857505e-001	 1.065288859015609e+001
 3.066659508257495e+000	 7.197912615536347e-001	 1.085002155927386e+001
 3.059614620751936e+000	 7.491717909012203e-001	 1.102069177972797e+001
 3.052268177122748e+000	 7.785621200224495e-001	 1.116121027308465e+001
 3.044618859544032e+000	 8.079579196534793e-001	 1.126795119535001e+001
 3.036665427270165e+000	 8.373548128834938e-001	 1.133736285167680e+001
 3.028406718275971e+000	 8.667483767255725e-001	 1.136597880563425e+001
 3.121994544689422e+000	 5.777326914089332e-001	 1.254570633256505e+001
 3.116390968530002e+000	 6.072333415176683e-001	 1.093868351109764e+001
 3.110491189802878e+000	 6.367649157581131e-001	 1.011372474956111e+001
 3.104293517586937e+000	 6.663233122501168e-001	 1.037188690500132e+001
 3.097796329959009e+000	 6.959043740874864e-001	 1.060845419535827e+001
 3.090998075782062e+000	 7.255038906150046e-001	 1.081939881379958e+001
 3.083897276471005e+000	 7.551175987672573e-001	 1.100073556232588e+001
 3.076492527733806e+000	 7.847411844690906e-001	 1.114853302096091e+001
 3.068782501285633e+000	 8.143702840974244e-001	 1.125892486779657e+001
 3.060765946533673e+000	 8.440004860040550e-001	 1.132812132467945e+001
 3.052441692230329e+000	 8.736273320989901e-001	 1.135242070221347e+001
 3.146577178899613e+000	 5.822817677183971e-001	 1.241306497436453e+001
 3.140929480093099e+000	 6.120147064113878e-001	 1.060881985076312e+001
 3.134983246415251e+000	 6.417788127331275e-001	 1.000683661431773e+001
 3.128736773630616e+000	 6.715699525051951e-001	 1.028741804178463e+001
 3.122188427044979e+000	 7.013839360898527e-001	 1.055129346005406e+001
 3.115336643307630e+000	 7.312165196771172e-001	 1.077748967372249e+001
 3.108179932191074e+000	 7.610634066341291e-001	 1.097089151671702e+001
 3.100716878345864e+000	 7.909202489166383e-001	 1.112732206028414e+001
 3.092946143028234e+000	 8.207826485423276e-001	 1.124267147583611e+001
 3.084866465798181e+000	 8.506461591256057e-001	 1.131290891773190e+001
 3.076476666185687e+000	 8.805062874734078e-001	 1.133409451017732e+001
 3.171159813110805e+000	 5.868308440278466e-001	 1.232083336310800e+001
 3.165467991657194e+000	 6.167960713052830e-001	 1.030858132118950e+001
 3.159475303028622e+000	 6.467927097084883e-001	 9.954504504933382e+000
 3.153180029675296e+000	 6.768165927607718e-001	 1.020460512520005e+001
 3.146580524131949e+000	 7.068634980928498e-001	 1.044889534350275e+001
 3.139675210834197e+000	 7.369291487399725e-001	 1.068278765848989e+001
 3.132462587912143e+000	 7.670092145018358e-001	 1.090145266536126e+001
 3.124941228958924e+000	 7.970993133650932e-001	 1.109949392114990e+001
 3.117109784771834e+000	 8.271950129881898e-001	 1.122122493607509e+001
 3.108966985063688e+000	 8.572918322481455e-001	 1.129387543530585e+001
 3.100511640142045e+000	 8.873852428488256e-001	 1.131326434575642e+001
 3.195742447322996e+000	 5.913799203372813e-001	 1.227592409840778e+001
 3.190006503222291e+000	 6.215774361993541e-001	 1.006155234055264e+001
 3.183967359642995e+000	 6.518066066841965e-001	 1.000625314571654e+001
 3.177623285720976e+000	 6.820632330168475e-001	 1.022050837451813e+001
 3.170972621219920e+000	 7.123430600964775e-001	 1.042943423861933e+001
 3.164013778361765e+000	 7.426417778035708e-001	 1.062842504727595e+001
 3.156745243634213e+000	 7.729550223703776e-001	 1.081262743766363e+001
 3.149165579572983e+000	 8.032783778144551e-001	 1.097693293514157e+001
 3.141273426516435e+000	 8.336073774350103e-001	 1.111597079392772e+001
 3.133067504330196e+000	 8.639375053716755e-001	 1.122410115111131e+001
 3.124546614099405e+000	 8.942641982252434e-001	 1.129219002849056e+001
 2.884196874570821e+000	 8.254746445060665e-001	 1.121982055801114e+001
 2.876039667508701e+000	 8.534610892875464e-001	 1.134324393051396e+001
 2.867589738332473e+000	 8.814358131068238e-001	 1.145212381317837e+001
 2.858846214307540e+000	 9.093944814890321e-001	 1.154517291760794e+001
 2.849808303576410e+000	 9.373327226216522e-001	 1.162121024512175e+001
 2.840475296538248e+000	 9.652461291268560e-001	 1.167916915880100e+001
 2.830846567185376e+000	 9.931302598865213e-001	 1.171810536985735e+001
 2.820921574394557e+000	 1.020980641918824e+000	 1.173720481352301e+001
 2.810699863170943e+000	 1.048792772305250e+000	 1.173579138930887e+001
 2.800181065842598e+000	 1.076562120166735e+000	 1.171333454020237e+001
 2.789364903203508e+000	 1.104284128687585e+000	 1.166945664518472e+001
 2.908231848519180e+000	 8.323535998734841e-001	 1.128268078587149e+001
 2.900006664731933e+000	 8.605732650282778e-001	 1.140940233902785e+001
 2.891486319479657e+000	 8.887811115462038e-001	 1.151929059789953e+001
 2.882669932754969e+000	 9.169727688317708e-001	 1.161085790017993e+001
 2.873556706101564e+000	 9.451438286406897e-001	 1.168272537912829e+001
 2.864145924005266e+000	 9.732898468669844e-001	 1.173363141076395e+001
 2.854436955241667e+000	 1.001406345383214e+000	 1.176243997626155e+001
 2.844429254178170e+000	 1.029488813932706e+000	 1.176814891389832e+001
 2.834122362028305e+000	 1.057532712072626e+000	 1.174989803453224e+001
 2.823515908056201e+000	 1.085533471166585e+000	 1.170697707429812e+001
 2.812609610729128e+000	 1.113486496425423e+000	 1.163883345800066e+001
 2.932266822468538e+000	 8.392325552419018e-001	 1.132708776311178e+001
 2.923973661956154e+000	 8.676854407700045e-001	 1.145737026750397e+001
 2.915382900627801e+000	 8.961264099865641e-001	 1.156844958511752e+001
 2.906493651203310e+000	 9.245510561754659e-001	 1.165863526362374e+001
 2.897305108627561e+000	 9.529549346606492e-001	 1.172634824067241e+001
 2.887816551473040e+000	 9.813335646079899e-001	 1.177012967220937e+001
 2.878027343298606e+000	 1.009682430880729e+000	 1.178864967682467e+001
 2.867936933962303e+000	 1.037996985947347e+000	 1.178071596961947e+001
 2.857544860886037e+000	 1.066272651840687e+000	 1.174528235868766e+001
 2.846850750270003e+000	 1.094504822167034e+000	 1.168145707699909e+001
 2.835854318254756e+000	 1.122688864163766e+000	 1.158851092224835e+001
 2.956301796418896e+000	 8.461115106113193e-001	 1.135533530362782e+001
 2.947940659181365e+000	 8.747976165127259e-001	 1.148956927827987e+001
 2.939279481776907e+000	 9.034717084279046e-001	 1.160214901066160e+001
 2.930317369652564e+000	 9.321293435201169e-001	 1.169117876453578e+001
 2.921053511154402e+000	 9.607660406815306e-001	 1.175487687697919e+001
 2.911487178941568e+000	 9.893772823498731e-001	 1.179158497389202e+001
 2.901617731356190e+000	 1.017958516379068e+000	 1.179977710231941e+001
 2.891444613746952e+000	 1.046505157962747e+000	 1.177806875219475e+001
 2.880967359744136e+000	 1.075012591609432e+000	 1.172522573970317e+001
 2.870185592484005e+000	 1.103476173168083e+000	 1.164017292413588e+001
 2.859099025780396e+000	 1.131891231902615e+000	 1.152200272986962e+001
 2.980336770370254e+000	 8.529904659817371e-001	 1.136971175873076e+001
 2.971907656407567e+000	 8.819097922564430e-001	 1.150841332756335e+001
 2.963176062926975e+000	 9.108170068702260e-001	 1.162292735790691e+001
 2.954141088102730e+000	 9.397076308657238e-001	 1.171115025887352e+001
 2.944801913682087e+000	 9.685771467033343e-001	 1.177109528551932e+001
 2.935157806410852e+000	 9.974210000926341e-001	 1.180090214770754e+001
 2.925208119414423e+000	 1.026234601878231e+000	 1.179884653651658e+001
 2.914952293532121e+000	 1.055013329978907e+000	 1.176334953991087e+001
 2.904389858602606e+000	 1.083752531378863e+000	 1.169298691895837e+001
 2.893520434698208e+000	 1.112447524169733e+000	 1.158649821553481e+001
 2.882343733306045e+000	 1.141093599641968e+000	 1.144279566220271e+001
 3.004371744322612e+000	 8.598694213531548e-001	 1.137250023565053e+001
 2.995874653634759e+000	 8.890219680011550e-001	 1.151630906967776e+001
 2.987072644078003e+000	 9.181623053135278e-001	 1.163331374787283e+001
 2.977964806553807e+000	 9.472859182122873e-001	 1.172120017798099e+001
 2.968550316210615e+000	 9.763882527260589e-001	 1.177777397599942e+001
 2.958828433880890e+000	 1.005464717836273e+000	 1.180097047464690e+001
 2.948798507473301e+000	 1.034510687378216e+000	 1.178886465006536e+001
 2.938459973317807e+000	 1.063521501995825e+000	 1.173968093756197e+001
 2.927812357461445e+000	 1.092492471148977e+000	 1.165180290674660e+001
 2.916855276912610e+000	 1.121418875171983e+000	 1.152378276605835e+001
 2.905588440831705e+000	 1.150295967381827e+000	 1.135435066640652e+001
 3.028406718275971e+000	 8.667483767255725e-001	 1.136597880563425e+001
 3.019841650862942e+000	 8.961341437468621e-001	 1.151565614681926e+001
 3.010969225229993e+000	 9.255076037578103e-001	 1.163582831074491e+001
 3.001788525005797e+000	 9.548642055598066e-001	 1.172396798194656e+001
 2.992298718739988e+000	 9.841993587497060e-001	 1.177767050559058e+001
 2.982499061351686e+000	 1.013508435580789e+000	 1.179466430189572e+001
 2.972388895532826e+000	 1.042786772879026e+000	 1.177282119942666e+001
 2.961967653104012e+000	 1.072029674013502e+000	 1.171016665714372e+001
 2.951234856320653e+000	 1.101232410919777e+000	 1.160488984461947e+001
 2.940190119127212e+000	 1.130390226174832e+000	 1.145535354945262e+001
 2.928833148357375e+000	 1.159498335122191e+000	 1.126010388062644e+001
 3.052441692230329e+000	 8.736273320989901e-001	 1.135242070221347e+001
 3.043808648092115e+000	 9.032463194935644e-001	 1.150884746512497e+001
 3.034865806382944e+000	 9.328529022030734e-001	 1.163298253984488e+001
 3.025612243458701e+000	 9.624424929082823e-001	 1.172208259154222e+001
 3.016047121270204e+000	 9.920104647742746e-001	 1.177352998887102e+001
 3.006169688823235e+000	 1.021552153326183e+000	 1.178484363077961e+001
 2.995979283592998e+000	 1.051062858380658e+000	 1.175368969278608e+001
 2.985475332890736e+000	 1.080537846031939e+000	 1.167789226166435e+001
 2.974657355180231e+000	 1.109972350691261e+000	 1.155544382699104e+001
 2.963524961342014e+000	 1.139361577178282e+000	 1.138451559760415e+001
 2.952077855883055e+000	 1.168700702863060e+000	 1.116346761072719e+001
 3.076476666185687e+000	 8.805062874734078e-001	 1.133409451017732e+001
 3.067775645322278e+000	 9.103584952412617e-001	 1.149826945780021e+001
 3.058762387536855e+000	 9.401982006493168e-001	 1.162727962900814e+001
 3.049435961912515e+000	 9.700207802577138e-001	 1.171816279991553e+001
 3.039795523801263e+000	 9.998215707997652e-001	 1.176808558386470e+001
 3.029840316295539e+000	 1.029595871072454e+000	 1.177435467714913e+001
 3.019569671653817e+000	 1.059338943883114e+000	 1.173442802475218e+001
 3.008983012677976e+000	 1.089046018051134e+000	 1.164592587408954e+001
 2.998079854040177e+000	 1.118712290463429e+000	 1.150664168422902e+001
 2.986859803557016e+000	 1.148332928182332e+000	 1.131455285764380e+001
 2.975322563408745e+000	 1.177903070604434e+000	 1.106783126124122e+001
 3.100511640142045e+000	 8.873852428488256e-001	 1.131326434575642e+001
 3.091742642553431e+000	 9.174706709899544e-001	 1.148630233600745e+001
 3.082658968691728e+000	 9.475434990965410e-001	 1.162121479426925e+001
 3.073259680367243e+000	 9.775990676081021e-001	 1.171481766513334e+001
 3.063543926333167e+000	 1.007632676826178e+000	 1.176405895547376e+001
 3.053510943768600e+000	 1.037639588819603e+000	 1.176603040570067e+001
 3.043160059715283e+000	 1.067615029386393e+000	 1.171797908153395e+001
 3.032490692465736e+000	 1.097554190071088e+000	 1.161731885331298e+001
 3.021502352900493e+000	 1.127452230236283e+000	 1.146164172932339e+001
 3.010194645772218e+000	 1.157304279186981e+000	 1.124872900918520e+001
 2.998567270934446e+000	 1.187105438346313e+000	 1.097656222301740e+001
 3.124546614099405e+000	 8.942641982252434e-001	 1.129219002849056e+001
 3.115709639785576e+000	 9.245828467396423e-001	 1.147532032817561e+001
 3.106555549847563e+000	 9.548887975447460e-001	 1.161727558070054e+001
 3.097083398822883e+000	 9.851773549594461e-001	 1.171464688460804e+001
 3.087292328865915e+000	 1.015443782853513e+000	 1.176416071752176e+001
 3.077181571242415e+000	 1.045683306567630e+000	 1.176269103963629e+001
 3.066750447777396e+000	 1.075891114890496e+000	 1.170727131818700e+001
 3.055998372254012e+000	 1.106062362091802e+000	 1.159510643892853e+001
 3.044924851761178e+000	 1.136192170009821e+000	 1.142358447009312e+001
 3.033529487987621e+000	 1.166275630192231e+000	 1.119028824384489e+001
 3.021811978460158e+000	 1.196307806088698e+000	 1.089300671990112e+001
 2.789364903203508e+000	 1.104284128687585e+000	 1.166945664518472e+001
 2.778251185602976e+000	 1.131954217185233e+000	 1.157119261074511e+001
 2.766839813979641e+000	 1.159567783225906e+000	 1.143531196917083e+001
 2.755130780838170e+000	 1.187120204783136e+000	 1.126160669242685e+001
 2.743124171166410e+000	 1.214606842436723e+000	 1.105006064262701e+001
 2.730820163291444e+000	 1.242023041611831e+000	 1.080085613964184e+001
 2.718219029672730e+000	 1.269364134855766e+000	 1.097379679955924e+001
 2.705321137630596e+000	 1.296625444150433e+000	 1.130792922418631e+001
 2.692126950008475e+000	 1.323802283258405e+000	 1.161488600001045e+001
 2.678637025767297e+000	 1.350889960100455e+000	 1.189363349266763e+001
 2.664852020510573e+000	 1.377883779162314e+000	 1.214316962870574e+001
 2.812609610729128e+000	 1.113486496425423e+000	 1.163883345800066e+001
 2.801403278815884e+000	 1.141387168994181e+000	 1.150877362586362e+001
 2.789896812429516e+000	 1.169230848085429e+000	 1.133820984239434e+001
 2.778090204012230e+000	 1.197012873155812e+000	 1.112700388330861e+001
 2.765983539260103e+000	 1.224728566123295e+000	 1.087521709570968e+001
 2.753576997986275e+000	 1.252373233624917e+000	 1.063877897330606e+001
 2.740870854920701e+000	 1.279942169312546e+000	 1.096214761539547e+001
 2.727865480444710e+000	 1.307430656184601e+000	 1.125941183472914e+001
 2.714561341258762e+000	 1.334833968951679e+000	 1.152964585723322e+001
 2.700959000981798e+000	 1.362147376433889e+000	 1.177195593509197e+001
 2.687059120680686e+000	 1.389366143987678e+000	 1.198548107855009e+001
 2.835854318254756e+000	 1.122688864163766e+000	 1.158851092224835e+001
 2.824555372028621e+000	 1.150820120803543e+000	 1.143211396718015e+001
 2.812953810879079e+000	 1.178893912945295e+000	 1.123221902141994e+001
 2.801049627185874e+000	 1.206905541528780e+000	 1.098875359037304e+001
 2.788842907353316e+000	 1.234850289810127e+000	 1.070185255677888e+001
 2.776333832680607e+000	 1.262723425638253e+000	 1.066870182167359e+001
 2.763522680168190e+000	 1.290520203769584e+000	 1.095835710207162e+001
 2.750409823258400e+000	 1.318235868219058e+000	 1.122190057169935e+001
 2.736995732508725e+000	 1.345865654645289e+000	 1.145854381732175e+001
 2.723280976196111e+000	 1.373404792767729e+000	 1.166753179578949e+001
 2.709266220850791e+000	 1.400848508813537e+000	 1.184814342281091e+001
 2.859099025780396e+000	 1.131891231902615e+000	 1.152200272986962e+001
 2.847707465241187e+000	 1.160253072613320e+000	 1.134469226326364e+001
 2.836010809328330e+000	 1.188556977805505e+000	 1.112078142027183e+001
 2.824009050359106e+000	 1.216798209902042e+000	 1.085025936037839e+001
 2.811702275446057e+000	 1.244972013497222e+000	 1.053333055283790e+001
 2.799090667374439e+000	 1.273073617651840e+000	 1.070361318838745e+001
 2.786174505415197e+000	 1.301098238226882e+000	 1.096262984949202e+001
 2.772954166071666e+000	 1.329041080253802e+000	 1.119551315036221e+001
 2.759430123758361e+000	 1.356897340339236e+000	 1.140161089733601e+001
 2.745602951410237e+000	 1.384662209101975e+000	 1.158030561382013e+001
 2.731473321020889e+000	 1.412330873639893e+000	 1.173101498674932e+001
 2.882343733306045e+000	 1.141093599641968e+000	 1.144279566220271e+001
 2.870859558453585e+000	 1.169686024423512e+000	 1.124996289769804e+001
 2.859067807777270e+000	 1.198220042666060e+000	 1.100731737484167e+001
 2.846968473531923e+000	 1.226690878275596e+000	 1.071490582883468e+001
 2.834561643538319e+000	 1.255093737184579e+000	 1.048680648711861e+001
 2.821847502067773e+000	 1.283423809665677e+000	 1.074379108866703e+001
 2.808826330661722e+000	 1.311676272684440e+000	 1.097515952497169e+001
 2.795498508884507e+000	 1.339846292288835e+000	 1.118035901817422e+001
 2.781864515007672e+000	 1.367929026033521e+000	 1.135887249518079e+001
 2.767924926624177e+000	 1.395919625436628e+000	 1.151021895036111e+001
 2.753680421190979e+000	 1.423813238466745e+000	 1.163395375037564e+001
 2.905588440831705e+000	 1.150295967381827e+000	 1.135435066640652e+001
 2.894011651665810e+000	 1.179118976234119e+000	 1.115135697888181e+001
 2.882124806225897e+000	 1.207883107526959e+000	 1.089522650601406e+001
 2.869927896704327e+000	 1.236583546649444e+000	 1.058605947645343e+001
 2.857421011630105e+000	 1.265215460872197e+000	 1.055707345783905e+001
 2.844604336760608e+000	 1.293774001679765e+000	 1.078950049877299e+001
 2.831478155907767e+000	 1.322254307142256e+000	 1.099612931013985e+001
 2.818042851696924e+000	 1.350651504324155e+000	 1.117653968549544e+001
 2.804298906256655e+000	 1.378960711728142e+000	 1.133034861437202e+001
 2.790246901837927e+000	 1.407177041771687e+000	 1.145721050782231e+001
 2.775887521361062e+000	 1.435295603294094e+000	 1.155681736225930e+001
 2.928833148357375e+000	 1.159498335122191e+000	 1.126010388062644e+001
 2.917163744877866e+000	 1.188551928045140e+000	 1.105228326364630e+001
 2.905181804674214e+000	 1.217546172388202e+000	 1.078788854169047e+001
 2.892887319876317e+000	 1.246476215023584e+000	 1.046706934957631e+001
 2.880280379721415e+000	 1.275337184560077e+000	 1.063028236606992e+001
 2.867361171452942e+000	 1.304124193694102e+000	 1.084099387342624e+001
 2.854129981153329e+000	 1.332832341600331e+000	 1.102571231703859e+001
 2.840587194508918e+000	 1.361456716359763e+000	 1.118414904055358e+001
 2.826733297505314e+000	 1.389992397423100e+000	 1.131605407809969e+001
 2.812568877051491e+000	 1.418434458107152e+000	 1.142121624328942e+001
 2.798094621531136e+000	 1.446777968121937e+000	 1.149946315268136e+001
 2.952077855883055e+000	 1.168700702863060e+000	 1.116346761072719e+001
 2.940315838089752e+000	 1.197984879856577e+000	 1.095612903723881e+001
 2.928238803122218e+000	 1.227209237249789e+000	 1.068866409997765e+001
 2.915846743047894e+000	 1.256368883398018e+000	 1.048898742715996e+001
 2.903139747812249e+000	 1.285458908248220e+000	 1.070675070123576e+001
 2.890118006144780e+000	 1.314474385708691e+000	 1.089851163878199e+001
 2.876781806398410e+000	 1.343410376058666e+000	 1.106407198456331e+001
 2.863131537320488e+000	 1.372261928395659e+000	 1.120327364952804e+001
 2.849167688753645e+000	 1.401024083118395e+000	 1.131599873317779e+001
 2.834890852264868e+000	 1.429691874443023e+000	 1.140216947660752e+001
 2.820301721701203e+000	 1.458260332950277e+000	 1.146174814616542e+001
 2.975322563408745e+000	 1.177903070604434e+000	 1.106783126124122e+001
 2.963467931301467e+000	 1.207417831668428e+000	 1.086626095205624e+001
 2.951295801569911e+000	 1.236872302111720e+000	 1.060089543566395e+001
 2.938806166219057e+000	 1.266261551772745e+000	 1.058493111862877e+001
 2.925999115902606e+000	 1.295580631936623e+000	 1.078678212755483e+001
 2.912874840836117e+000	 1.324824577723530e+000	 1.096228266229559e+001
 2.899433631643009e+000	 1.353988410517259e+000	 1.111136245632002e+001
 2.885675880131633e+000	 1.383067140431844e+000	 1.123399304256736e+001
 2.871602080001652e+000	 1.412055768814028e+000	 1.133018764443392e+001
 2.857212827478058e+000	 1.440949290779302e+000	 1.140000099339840e+001
 2.842508821871260e+000	 1.469742697779114e+000	 1.144352907342144e+001
 2.998567270934446e+000	 1.187105438346313e+000	 1.097656222301740e+001
 2.986620024513012e+000	 1.216850783480695e+000	 1.078602582736810e+001
 2.974352800017291e+000	 1.246535366973995e+000	 1.052790715197587e+001
 2.961765589389805e+000	 1.276154220147765e+000	 1.068209908865139e+001
 2.948858483992487e+000	 1.305702355625290e+000	 1.087066701989989e+001
 2.935631675526955e+000	 1.335174769738620e+000	 1.103252470073415e+001
 2.922085456887126e+000	 1.364566444976112e+000	 1.116772894090785e+001
 2.908220222942354e+000	 1.393872352468316e+000	 1.127637998650359e+001
 2.894036471249331e+000	 1.423087454509997e+000	 1.135862128005768e+001
 2.879534802691059e+000	 1.452206707115986e+000	 1.141463914328607e+001
 2.864715922041312e+000	 1.481225062608446e+000	 1.144466238273371e+001
 3.021811978460158e+000	 1.196307806088698e+000	 1.089300671990112e+001
 3.009772117724388e+000	 1.226283735293376e+000	 1.071875141212903e+001
 2.997409798464362e+000	 1.256198431836615e+000	 1.057577672647451e+001
 2.984725012560141e+000	 1.286046888523079e+000	 1.078083948900067e+001
 2.971717852081893e+000	 1.315824079314217e+000	 1.095868297492683e+001
 2.958388510217295e+000	 1.345524961753960e+000	 1.110944482751067e+001
 2.944737282130763e+000	 1.375144479435225e+000	 1.123330805557317e+001
 2.930764565752652e+000	 1.404677564505076e+000	 1.133050074497990e+001
 2.916470862496686e+000	 1.434119140206303e+000	 1.140129568839434e+001
 2.901856777903874e+000	 1.463464123453077e+000	 1.144600993358921e+001
 2.886923022211355e+000	 1.492707427438275e+000	 1.146500425082340e+001
 2.664852020510573e+000	 1.377883779162314e+000	 1.214316962870574e+001
 2.650772686938987e+000	 1.404779043928912e+000	 1.197154342315386e+001
 2.636399875232532e+000	 1.431571059341969e+000	 1.182254653792257e+001
 2.621734533359257e+000	 1.458255134279886e+000	 1.169851113265475e+001
 2.606777707310106e+000	 1.484826584058344e+000	 1.160178147053102e+001
 2.591530541258077e+000	 1.511280732947345e+000	 1.153471099374266e+001
 2.575994277640976e+000	 1.537612916702709e+000	 1.149965934597649e+001
 2.560170257166945e+000	 1.563818485109322e+000	 1.149898934720399e+001
 2.544059918741996e+000	 1.589892804533449e+000	 1.153506392625967e+001
 2.527664799318952e+000	 1.615831260481341e+000	 1.161024301687439e+001
 2.510986533667252e+000	 1.641629260161343e+000	 1.172688042299394e+001
 2.687059120680686e+000	 1.389366143987678e+000	 1.198548107855009e+001
 2.672862459328722e+000	 1.416485535960390e+000	 1.185349699638242e+001
 2.658369874190830e+000	 1.443500818168300e+000	 1.174143833342990e+001
 2.643582321134799e+000	 1.470407260397131e+000	 1.165150678482471e+001
 2.628500854868160e+000	 1.497200138923525e+000	 1.158591755421805e+001
 2.613126629098687e+000	 1.523874739053070e+000	 1.154689655916980e+001
 2.597460896617837e+000	 1.550426357672883e+000	 1.153667758278298e+001
 2.581505009306319e+000	 1.576850305816057e+000	 1.155749937667835e+001
 2.565260418061028e+000	 1.603141911235244e+000	 1.161160272059859e+001
 2.548728672642727e+000	 1.629296520982581e+000	 1.170122744411137e+001
 2.531911421443936e+000	 1.655309503993148e+000	 1.182860941604720e+001
 2.709266220850791e+000	 1.400848508813537e+000	 1.184814342281091e+001
 2.694952231718638e+000	 1.428192027992455e+000	 1.175164216259931e+001
 2.680339873149483e+000	 1.455430576995289e+000	 1.167238786352382e+001
 2.665430108910844e+000	 1.482559386515083e+000	 1.161245415414073e+001
 2.650224002426849e+000	 1.509573693789444e+000	 1.157392957665759e+001
 2.634722716940044e+000	 1.536468745159543e+000	 1.155891491980539e+001
 2.618927515595535e+000	 1.563239798643796e+000	 1.156952049716281e+001
 2.602839761446600e+000	 1.589882126523503e+000	 1.160786337583634e+001
 2.586460917381019e+000	 1.616391017937702e+000	 1.167606456059316e+001
 2.569792545967492e+000	 1.642761781484414e+000	 1.177624613872491e+001
 2.552836309221620e+000	 1.668989747825456e+000	 1.191052839108734e+001
 2.731473321020889e+000	 1.412330873639893e+000	 1.173101498674932e+001
 2.717042004108736e+000	 1.439898520025105e+000	 1.166592787249428e+001
 2.702309872108486e+000	 1.467360335822935e+000	 1.161543394423386e+001
 2.687277896687393e+000	 1.494711512633743e+000	 1.158148111947051e+001
 2.671947149986172e+000	 1.521947248656102e+000	 1.156603363486543e+001
 2.656318804782146e+000	 1.549062751266766e+000	 1.157106950419441e+001
 2.640394134574071e+000	 1.576053239615449e+000	 1.159857792093896e+001
 2.624174513587791e+000	 1.602913947231661e+000	 1.165055661022775e+001
 2.607661416701968e+000	 1.629640124640821e+000	 1.172900913503759e+001
 2.590856419293248e+000	 1.656227041986839e+000	 1.183594216174439e+001
 2.573761197000304e+000	 1.682669991658267e+000	 1.197336269028344e+001
 2.753680421190979e+000	 1.423813238466745e+000	 1.163395375037564e+001
 2.739131776499018e+000	 1.451605012058342e+000	 1.159629965969037e+001
 2.724279871067844e+000	 1.479290094651236e+000	 1.157060892743255e+001
 2.709125684464445e+000	 1.506863638753109e+000	 1.155870607469329e+001
 2.693670297546130e+000	 1.534320803523498e+000	 1.156243334782267e+001
 2.677914892624994e+000	 1.561656757374739e+000	 1.158364829910583e+001
 2.661860753553444e+000	 1.588866680587844e+000	 1.162422131123248e+001
 2.645509265729889e+000	 1.615945767940529e+000	 1.168603307009053e+001
 2.628861916023877e+000	 1.642889231344602e+000	 1.177097199060901e+001
 2.611920292619992e+000	 1.669692302489857e+000	 1.188093160055770e+001
 2.594686084779988e+000	 1.696350235491580e+000	 1.201780788738056e+001
 2.775887521361062e+000	 1.435295603294094e+000	 1.155681736225930e+001
 2.761221548889481e+000	 1.463311504092165e+000	 1.154269977742650e+001
 2.746249870027555e+000	 1.491219853480195e+000	 1.153793895940185e+001
 2.730973472242002e+000	 1.519015764873184e+000	 1.154423830809934e+001
 2.715393445106724e+000	 1.546694358391633e+000	 1.156332035559710e+001
 2.699510980468590e+000	 1.574250763483461e+000	 1.159692446720360e+001
 2.683327372533654e+000	 1.601680121560979e+000	 1.164680448545059e+001
 2.666844017872895e+000	 1.628977588650109e+000	 1.171472632136324e+001
 2.650062415346746e+000	 1.656138338049046e+000	 1.180246549755224e+001
 2.632984165947726e+000	 1.683157562993467e+000	 1.191180464785676e+001
 2.615610972560673e+000	 1.710030479325396e+000	 1.204453097843684e+001
 2.798094621531136e+000	 1.446777968121937e+000	 1.149946315268136e+001
 2.783311321280128e+000	 1.475017996126575e+000	 1.150506732873146e+001
 2.768219868987619e+000	 1.503149612309811e+000	 1.151744422708661e+001
 2.752821260020063e+000	 1.531167890993967e+000	 1.153817836372286e+001
 2.737116592667952e+000	 1.559067913260507e+000	 1.156887479469698e+001
 2.721107068312932e+000	 1.586844769592933e+000	 1.161115693530487e+001
 2.704793991514703e+000	 1.614493562534854e+000	 1.166666432127537e+001
 2.688178770016811e+000	 1.642009409360401e+000	 1.173705031617310e+001
 2.671262914670573e+000	 1.669387444754151e+000	 1.182397976937944e+001
 2.654048039276451e+000	 1.696622823497669e+000	 1.192912662920496e+001
 2.636535860342357e+000	 1.723710723159714e+000	 1.205417151585863e+001
 2.820301721701203e+000	 1.458260332950277e+000	 1.146174814616542e+001
 2.805401093670956e+000	 1.486724488161570e+000	 1.148333839044795e+001
 2.790189867948035e+000	 1.515079371140083e+000	 1.150913919271425e+001
 2.774669047798628e+000	 1.543320017115457e+000	 1.154061838560407e+001
 2.758839740229814e+000	 1.571441468130118e+000	 1.157926575096700e+001
 2.742703156158019e+000	 1.599438775703154e+000	 1.162659095484637e+001
 2.726260610496587e+000	 1.627307003509469e+000	 1.168412142358203e+001
 2.709513522161635e+000	 1.655041230071403e+000	 1.175340016503341e+001
 2.692463413995360e+000	 1.682636551459918e+000	 1.183598353911945e+001
 2.675111912606165e+000	 1.710088084002464e+000	 1.193343898205787e+001
 2.657460748125041e+000	 1.737390966994536e+000	 1.204734268885929e+001
 2.842508821871260e+000	 1.469742697779114e+000	 1.144352907342144e+001
 2.827490866061967e+000	 1.498430980197152e+000	 1.147744613144291e+001
 2.812159866908804e+000	 1.527009129971012e+000	 1.151303281741648e+001
 2.796516835577696e+000	 1.555472143237654e+000	 1.155164244591392e+001
 2.780562887792313e+000	 1.583815023000468e+000	 1.159465169125489e+001
 2.764299244003852e+000	 1.612032781814124e+000	 1.164345863607893e+001
 2.747727229479309e+000	 1.640120444484826e+000	 1.169948076009544e+001
 2.730848274307367e+000	 1.668073050783117e+000	 1.176415287284394e+001
 2.713663913321106e+000	 1.695885658166348e+000	 1.183892499449293e+001
 2.696175785936869e+000	 1.723553344507852e+000	 1.192526018889259e+001
 2.678385635908726e+000	 1.751071210829859e+000	 1.202463235327135e+001
 2.864715922041312e+000	 1.481225062608446e+000	 1.144466238273371e+001
 2.849580638453159e+000	 1.510137472233320e+000	 1.148732092531985e+001
 2.834129865869927e+000	 1.538938888802599e+000	 1.152912877445006e+001
 2.818364623357268e+000	 1.567624269360559e+000	 1.157132685781728e+001
 2.802286035355447e+000	 1.596188577871557e+000	 1.161518087500041e+001
 2.785895331850432e+000	 1.624626787925845e+000	 1.166197945741582e+001
 2.769193848462869e+000	 1.652933885460923e+000	 1.171303226748127e+001
 2.752183026454008e+000	 1.681104871495543e+000	 1.176966804065904e+001
 2.734864412647811e+000	 1.709134764873439e+000	 1.183323257424214e+001
 2.717239659268562e+000	 1.737018605013831e+000	 1.190508666693551e+001
 2.699310523693410e+000	 1.764751454665686e+000	 1.198660401346069e+001
 2.886923022211355e+000	 1.492707427438275e+000	 1.146500425082340e+001
 2.871670410844536e+000	 1.521843964270075e+000	 1.151289045792896e+001
 2.856099864831404e+000	 1.550868647634841e+000	 1.155742565257664e+001
 2.840212411137345e+000	 1.579776395484173e+000	 1.159974047389628e+001
 2.824009182919216e+000	 1.608562132743385e+000	 1.164099174682801e+001
 2.807491419697759e+000	 1.637220794038314e+000	 1.168236075127262e+001
 2.790660467447267e+000	 1.665747326437760e+000	 1.172505142946359e+001
 2.773517778601557e+000	 1.694136692208680e+000	 1.177028853506624e+001
 2.756064911975476e+000	 1.722383871581193e+000	 1.181931572770707e+001
 2.738303532601247e+000	 1.750483865520404e+000	 1.187339361682584e+001
 2.720235411479095e+000	 1.778431698502015e+000	 1.193379775892116e+001
 2.510986533667252e+000	 1.641629260161343e+000	 1.172688042299394e+001
 2.494026854062975e+000	 1.667282235046092e+000	 1.179210191389513e+001
 2.476787589899573e+000	 1.692785643433693e+000	 1.186293234438113e+001
 2.459270667218596e+000	 1.718134973003829e+000	 1.192561376658575e+001
 2.441478108159864e+000	 1.743325743364769e+000	 1.197806050355406e+001
 2.423412030331897e+000	 1.768353508590088e+000	 1.201814653519852e+001
 2.405074646102547e+000	 1.793213859741616e+000	 1.204370850893106e+001
 2.386468261810128e+000	 1.817902427375696e+000	 1.205254889558884e+001
 2.367595276895474e+000	 1.842414884029853e+000	 1.204243928517265e+001
 2.348458182955457e+000	 1.866746946686970e+000	 1.201112381641235e+001
 2.329059562718645e+000	 1.890894379214094e+000	 1.209900079923585e+001
 2.531911421443936e+000	 1.655309503993148e+000	 1.182860941604720e+001
 2.514810411176357e+000	 1.681176253668529e+000	 1.183984840640010e+001
 2.497427486478374e+000	 1.706892190459319e+000	 1.184894430870994e+001
 2.479764589441885e+000	 1.732452764442532e+000	 1.187091293936501e+001
 2.461823759057878e+000	 1.757853457889840e+000	 1.188535255906889e+001
 2.443607130581607e+000	 1.783089787825432e+000	 1.189022219099549e+001
 2.425116934817322e+000	 1.808157308569985e+000	 1.188343981501206e+001
 2.406355497322827e+000	 1.833051614267811e+000	 1.186288544450595e+001
 2.387325237534295e+000	 1.857768341394250e+000	 1.182640434963800e+001
 2.368028667811903e+000	 1.882303171240376e+000	 1.183917901014836e+001
 2.348468392406961e+000	 1.906651832372125e+000	 1.198341818757590e+001
 2.552836309221620e+000	 1.668989747825456e+000	 1.191052839108734e+001
 2.535593968290734e+000	 1.695070272291373e+000	 1.187728248656545e+001
 2.518067383058155e+000	 1.720998737485267e+000	 1.184040315455045e+001
 2.500258511666131e+000	 1.746770555881482e+000	 1.180012400781130e+001
 2.482169409956812e+000	 1.772381172415094e+000	 1.177929914222455e+001
 2.463802230832191e+000	 1.797826067060902e+000	 1.175202953601422e+001
 2.445159223532919e+000	 1.823100757398434e+000	 1.171596448177171e+001
 2.426242732836283e+000	 1.848200801159972e+000	 1.166905922512417e+001
 2.407055198173796e+000	 1.873121798758668e+000	 1.160923038107361e+001
 2.387599152668946e+000	 1.897859395793786e+000	 1.174702353558053e+001
 2.367877222095776e+000	 1.922409285530155e+000	 1.187497917264550e+001
 2.573761197000304e+000	 1.682669991658267e+000	 1.197336269028344e+001
 2.556377525406104e+000	 1.708964290914625e+000	 1.189840274499940e+001
 2.538707279638917e+000	 1.735105284511537e+000	 1.182149271214511e+001
 2.520752433891332e+000	 1.761088347320680e+000	 1.174301350014419e+001
 2.502515060856666e+000	 1.786908886940528e+000	 1.166336166969825e+001
 2.483997331083652e+000	 1.812562346296498e+000	 1.160343330034227e+001
 2.465201512249337e+000	 1.838044206226964e+000	 1.154107937775510e+001
 2.446129968350495e+000	 1.863349988052179e+000	 1.147080077611247e+001
 2.426785158813979e+000	 1.888475256123106e+000	 1.151951719567167e+001
 2.407169637526585e+000	 1.913415620347201e+000	 1.165870983333604e+001
 2.387286051785095e+000	 1.938166738688187e+000	 1.177313890095763e+001
 2.594686084779988e+000	 1.696350235491580e+000	 1.201780788738056e+001
 2.577161082522472e+000	 1.722858309538284e+000	 1.190382620171354e+001
 2.559347176220658e+000	 1.749211831538130e+000	 1.178954252978300e+001
 2.541246356117488e+000	 1.775406138760124e+000	 1.167548407179098e+001
 2.522860711757442e+000	 1.801436601466145e+000	 1.156219248619385e+001
 2.504192431335988e+000	 1.827298625532221e+000	 1.145022272906465e+001
 2.485243800966575e+000	 1.852987655055575e+000	 1.135856600511311e+001
 2.466017203865462e+000	 1.878499174944431e+000	 1.130228782647733e+001
 2.446515119454843e+000	 1.903828713487564e+000	 1.144825779682467e+001
 2.426740122384820e+000	 1.928971844900622e+000	 1.157374947734740e+001
 2.406694881474913e+000	 1.953924191846217e+000	 1.167734608434524e+001
 2.615610972560673e+000	 1.710030479325396e+000	 1.204453097843684e+001
 2.597944639639833e+000	 1.736752328162351e+000	 1.189414367502435e+001
 2.579987072803379e+000	 1.763318378565045e+000	 1.174506812559726e+001
 2.561740278344600e+000	 1.789723930199816e+000	 1.159797685965341e+001
 2.543206362659138e+000	 1.815964315991943e+000	 1.145355568688726e+001
 2.524387531589200e+000	 1.842034904768069e+000	 1.131250235977293e+001
 2.505286089684636e+000	 1.867931103884267e+000	 1.117552521166787e+001
 2.485904439381187e+000	 1.893648361836729e+000	 1.124504483370610e+001
 2.466245080096388e+000	 1.919182170852043e+000	 1.137719992929267e+001
 2.446310607243651e+000	 1.944528069454047e+000	 1.149164577392455e+001
 2.426103711165233e+000	 1.969681645004247e+000	 1.158704325734833e+001
 2.636535860342357e+000	 1.723710723159714e+000	 1.205417151585863e+001
 2.618728196758190e+000	 1.750646346786826e+000	 1.186992082130291e+001
 2.600626969387082e+000	 1.777424925592283e+000	 1.168856211147406e+001
 2.582234200572667e+000	 1.804041721639754e+000	 1.151091232292612e+001
 2.563552013561753e+000	 1.830492030517922e+000	 1.133780050991052e+001
 2.544582631843289e+000	 1.856771184004044e+000	 1.117006633071213e+001
 2.525328378403515e+000	 1.882874552713040e+000	 1.108900105563599e+001
 2.505791674897666e+000	 1.908797548729072e+000	 1.119260338592654e+001
 2.485975040738615e+000	 1.934535628216541e+000	 1.130589924051896e+001
 2.465881092103079e+000	 1.960084294007477e+000	 1.141189408983513e+001
 2.445512540856055e+000	 1.985439098162278e+000	 1.150166702234466e+001
 2.657460748125041e+000	 1.737390966994536e+000	 1.204734268885929e+001
 2.639511753877541e+000	 1.764540365411708e+000	 1.183169912560271e+001
 2.621266865971764e+000	 1.791531472619843e+000	 1.162049509487327e+001
 2.602728122801689e+000	 1.818359513079940e+000	 1.141469105717954e+001
 2.583897664465291e+000	 1.845019745044084e+000	 1.121525844339110e+001
 2.564777732098252e+000	 1.871507463240145e+000	 1.102317796532004e+001
 2.545370667123217e+000	 1.897818001541894e+000	 1.107388687468894e+001
 2.525678910414902e+000	 1.923946735621460e+000	 1.115907201787812e+001
 2.505705001381524e+000	 1.949889085581060e+000	 1.124106919413469e+001
 2.485451576963103e+000	 1.975640518560913e+000	 1.133398216488485e+001
 2.464921370547378e+000	 2.001196551320309e+000	 1.142064828309943e+001
 2.678385635908726e+000	 1.751071210829859e+000	 1.202463235327135e+001
 2.660295310997888e+000	 1.778434384036998e+000	 1.177999684585184e+001
 2.641906762557427e+000	 1.805638019647725e+000	 1.154131653837642e+001
 2.623222045031667e+000	 1.832677304520372e+000	 1.130969457028282e+001
 2.604243315369748e+000	 1.859547459570427e+000	 1.108624391881141e+001
 2.584972832354091e+000	 1.886243742476373e+000	 1.098960961695812e+001
 2.565412955843738e+000	 1.912761450370828e+000	 1.105803129232623e+001
 2.545566145932895e+000	 1.939095922513895e+000	 1.112725737416092e+001
 2.525434962025113e+000	 1.965242542945600e+000	 1.119611565852066e+001
 2.505022061823724e+000	 1.991196743114353e+000	 1.126337709781493e+001
 2.484330200239203e+000	 2.016954004478340e+000	 1.134341246736731e+001
 2.699310523693410e+000	 1.764751454665686e+000	 1.198660401346069e+001
 2.681078868119230e+000	 1.792328402662695e+000	 1.171530991312910e+001
 2.662546659144069e+000	 1.819744566675930e+000	 1.145145557925559e+001
 2.643715967262600e+000	 1.846995095961051e+000	 1.119628602223711e+001
 2.624588966275126e+000	 1.874075174096952e+000	 1.095105497211918e+001
 2.605167932610806e+000	 1.900980021712726e+000	 1.098883987250608e+001
 2.585455244565083e+000	 1.927704899199844e+000	 1.104096278829466e+001
 2.565453381451643e+000	 1.954245109406375e+000	 1.109663187864777e+001
 2.545164922669383e+000	 1.980596000310159e+000	 1.115474627438690e+001
 2.524592546684941e+000	 2.006752967667799e+000	 1.121414401916555e+001
 2.503739029931528e+000	 2.032711457636371e+000	 1.127360420671183e+001
 2.720235411479095e+000	 1.778431698502015e+000	 1.193379775892116e+001
 2.701862425241567e+000	 1.806222421288800e+000	 1.163811279038896e+001
 2.683186555731693e+000	 1.833851113704457e+000	 1.135132181121613e+001
 2.664209889494488e+000	 1.861312887401978e+000	 1.107481093086287e+001
 2.644934617181425e+000	 1.888602888623658e+000	 1.095309453193344e+001
 2.625363032868398e+000	 1.915716300949207e+000	 1.098402199531511e+001
 2.605497533287247e+000	 1.942648348028941e+000	 1.102219775563607e+001
 2.585340616971148e+000	 1.969394296298900e+000	 1.106665766761367e+001
 2.564894883314335e+000	 1.995949457674740e+000	 1.111637034618760e+001
 2.544163031546755e+000	 2.022309192221251e+000	 1.117023903904820e+001
 2.523147859624355e+000	 2.048468910794402e+000	 1.122710370188912e+001
 2.329059562718645e+000	 1.890894379214094e+000	 1.209900079923585e+001
 2.309402088944092e+000	 1.914852994773596e+000	 1.201079384332167e+001
 2.289488523243476e+000	 1.938618658202153e+000	 1.191785381284322e+001
 2.269321714828176e+000	 1.962187288355787e+000	 1.181940863723191e+001
 2.248904599182742e+000	 1.985554860419452e+000	 1.171465713212866e+001
 2.228240196665399e+000	 2.008717408176743e+000	 1.160277073098323e+001
 2.207331611037153e+000	 2.031671026237589e+000	 1.148289532166047e+001
 2.186182027921017e+000	 2.054411872221357e+000	 1.135415318377235e+001
 2.164794713192912e+000	 2.076936168892773e+000	 1.121564502209078e+001
 2.143173011305966e+000	 2.099240206248227e+000	 1.106645209104501e+001
 2.121320343550000e+000	 2.121320343550000e+000	 1.090563840497418e+001
 2.348468392406961e+000	 1.906651832372125e+000	 1.198341818757590e+001
 2.328647106351446e+000	 1.930810103061539e+000	 1.190102859249473e+001
 2.308567594270409e+000	 1.954773813685585e+000	 1.181324313068846e+001
 2.288232729118653e+000	 1.978538849090749e+000	 1.171929857039527e+001
 2.267645470843101e+000	 2.002101150921862e+000	 1.161840188712696e+001
 2.246808864971628e+000	 2.025456719910714e+000	 1.150973200738483e+001
 2.225726041129918e+000	 2.048601618122318e+000	 1.139244166004340e+001
 2.204400211487839e+000	 2.071531971156200e+000	 1.126565933106799e+001
 2.182834669136945e+000	 2.094243970300128e+000	 1.112849131685756e+001
 2.161032786400810e+000	 2.116733874633796e+000	 1.098002387114483e+001
 2.138998013080000e+000	 2.138998013080000e+000	 1.081932544004295e+001
 2.367877222095776e+000	 1.922409285530155e+000	 1.187497917264550e+001
 2.347892123759207e+000	 1.946767211349483e+000	 1.179950186420859e+001
 2.327646665297662e+000	 1.970928969169017e+000	 1.171799623765958e+001
 2.307143743409376e+000	 1.994890409825711e+000	 1.162970679854523e+001
 2.286386342503640e+000	 2.018647441424272e+000	 1.153384753468842e+001
 2.265377533277983e+000	 2.042196031644684e+000	 1.142960367342133e+001
 2.244120471222762e+000	 2.065532210007047e+000	 1.131613354923892e+001
 2.222618395054706e+000	 2.088652070091044e+000	 1.119257057748159e+001
 2.200874625080999e+000	 2.111551771707485e+000	 1.105802532927265e+001
 2.178892561495658e+000	 2.134227543019364e+000	 1.091158770256719e+001
 2.156675682610000e+000	 2.156675682610000e+000	 1.075232918381719e+001
 2.387286051785095e+000	 1.938166738688187e+000	 1.177313890095763e+001
 2.367137141167375e+000	 1.962724319637426e+000	 1.170564684895816e+001
 2.346725736325238e+000	 1.987084124652448e+000	 1.163152456809624e+001
 2.326054757700345e+000	 2.011241970560673e+000	 1.155002320550286e+001
 2.305127214164361e+000	 2.035193731926682e+000	 1.146036261919801e+001
 2.283946201584464e+000	 2.058935343378656e+000	 1.136173315024095e+001
 2.262514901315687e+000	 2.082462801891776e+000	 1.125329750814395e+001
 2.240836578621618e+000	 2.105772169025888e+000	 1.113419276509975e+001
 2.218914581025073e+000	 2.128859573114841e+000	 1.100353245417858e+001
 2.196752336590512e+000	 2.151721211404932e+000	 1.086040876627279e+001
 2.174353352140000e+000	 2.174353352140000e+000	 1.070389484020620e+001
 2.406694881474913e+000	 1.953924191846217e+000	 1.167734608434524e+001
 2.386382158575948e+000	 1.978681427925369e+000	 1.161889110469864e+001
 2.365804807353134e+000	 2.003239280135879e+000	 1.155323473381936e+001
 2.344965771991560e+000	 2.027593531295636e+000	 1.147963367009294e+001
 2.323868085825262e+000	 2.051740022429092e+000	 1.139731250468400e+001
 2.302514869891070e+000	 2.075674655112627e+000	 1.130546551000155e+001
 2.280909331408693e+000	 2.099393393776504e+000	 1.120325854436357e+001
 2.259054762188574e+000	 2.122892267960731e+000	 1.108983106834852e+001
 2.236954536969167e+000	 2.146167374522197e+000	 1.096429826791767e+001
 2.214612111685371e+000	 2.169214879790501e+000	 1.082575327900416e+001
 2.192031021670000e+000	 2.192031021670000e+000	 1.067326950789399e+001
 2.426103711165233e+000	 1.969681645004247e+000	 1.158704325734833e+001
 2.405627175984928e+000	 1.994638536213313e+000	 1.153865678214705e+001
 2.384883878381352e+000	 2.019394435619311e+000	 1.148252871703182e+001
 2.363876786283021e+000	 2.043945092030598e+000	 1.141792022634396e+001
 2.342608957486344e+000	 2.068286312931502e+000	 1.134405950203213e+001
 2.321083538197802e+000	 2.092413966846599e+000	 1.126014356983024e+001
 2.299303761501779e+000	 2.116323985661233e+000	 1.116534021466263e+001
 2.277272945755577e+000	 2.140012366895575e+000	 1.105879002069970e+001
 2.254994492913282e+000	 2.163475175929552e+000	 1.093960852107212e+001
 2.232471886780234e+000	 2.186708548176069e+000	 1.080688845185446e+001
 2.209708691200000e+000	 2.209708691200000e+000	 1.065970210454819e+001
 2.445512540856055e+000	 1.985439098162278e+000	 1.150166702234466e+001
 2.424872193394315e+000	 2.010595644501256e+000	 1.146436083935515e+001
 2.403962949409890e+000	 2.035549591102742e+000	 1.141880405403357e+001
 2.382787800574729e+000	 2.060296652765560e+000	 1.136426121605931e+001
 2.361349829147607e+000	 2.084832603433911e+000	 1.129996299014209e+001
 2.339652206504660e+000	 2.109153278580569e+000	 1.122510798130866e+001
 2.317698191594945e+000	 2.133254577545962e+000	 1.113886468253886e+001
 2.295491129322625e+000	 2.157132465830419e+000	 1.104037354010568e+001
 2.273034448857415e+000	 2.180782977336909e+000	 1.092874913154959e+001
 2.250331661875104e+000	 2.204202216561638e+000	 1.080308245080905e+001
 2.227386360730000e+000	 2.227386360730000e+000	 1.066244329463825e+001
 2.464921370547378e+000	 2.001196551320309e+000	 1.142064828309943e+001
 2.444117210804107e+000	 2.026552752789199e+000	 1.139541524614523e+001
 2.423042020438750e+000	 2.051704746586175e+000	 1.136145401025710e+001
 2.401698814866681e+000	 2.076648213500522e+000	 1.131803143418054e+001
 2.380090700809050e+000	 2.101378893936321e+000	 1.126437953136001e+001
 2.358220874811643e+000	 2.125892590314541e+000	 1.119969731573077e+001
 2.336092621688192e+000	 2.150185169430690e+000	 1.112315277307584e+001
 2.313709312889718e+000	 2.174252564765263e+000	 1.103388495323235e+001
 2.291074404801570e+000	 2.198090778744265e+000	 1.093100617799572e+001
 2.268191436969977e+000	 2.221695884947206e+000	 1.081360435915146e+001
 2.245064030260000e+000	 2.245064030260000e+000	 1.068074542066372e+001
 2.484330200239203e+000	 2.016954004478340e+000	 1.134341246736731e+001
 2.463362228214306e+000	 2.042509861077142e+000	 1.133122717896261e+001
 2.442121091467931e+000	 2.067859902069606e+000	 1.130986774709817e+001
 2.420609829158880e+000	 2.092999774235484e+000	 1.127860226733660e+001
 2.398831572470674e+000	 2.117925184438732e+000	 1.123666298150017e+001
 2.376789543118751e+000	 2.142631902048512e+000	 1.118324814536399e+001
 2.354487051781519e+000	 2.167115761315419e+000	 1.111752402522479e+001
 2.331927496456856e+000	 2.191372663700107e+000	 1.103862701855635e+001
 2.309114360745745e+000	 2.215398580151621e+000	 1.094566589351521e+001
 2.286051212064856e+000	 2.239189553332774e+000	 1.083772414163124e+001
 2.262741699790000e+000	 2.262741699790000e+000	 1.071386243760605e+001
 2.503739029931528e+000	 2.032711457636371e+000	 1.127360420671183e+001
 2.482607245624910e+000	 2.058466969365085e+000	 1.127119920666557e+001
 2.461200162497433e+000	 2.084015057553037e+000	 1.126343048098708e+001
 2.439520843451326e+000	 2.109351334970447e+000	 1.124534182594897e+001
 2.417572444132480e+000	 2.134471474941141e+000	 1.121616459474924e+001
 2.395358211425986e+000	 2.159371213782483e+000	 1.117509512093095e+001
 2.372881481874926e+000	 2.184046353200148e+000	 1.112129674165477e+001
 2.350145680024039e+000	 2.208492762634951e+000	 1.105390194838783e+001
 2.327154316689939e+000	 2.232706381558977e+000	 1.097201465968507e+001
 2.303910987159740e+000	 2.256683221718343e+000	 1.087471261029875e+001
 2.280419369320000e+000	 2.280419369320000e+000	 1.076104985042949e+001
 2.523147859624355e+000	 2.048468910794402e+000	 1.122710370188912e+001
 2.501852263035922e+000	 2.074424077653029e+000	 1.121671142734218e+001
 2.480279233527257e+000	 2.100170213036469e+000	 1.122152363511806e+001
 2.458431857744017e+000	 2.125702895705409e+000	 1.121761507023969e+001
 2.436313315794466e+000	 2.151017765443552e+000	 1.120223312372889e+001
 2.413926879733346e+000	 2.176110525516454e+000	 1.117457104551495e+001
 2.391275911968414e+000	 2.200976945084877e+000	 1.113378803630187e+001
 2.368363863591268e+000	 2.225612861569795e+000	 1.107901142987689e+001
 2.345194272634154e+000	 2.250014182966334e+000	 1.100933900084417e+001
 2.321770762254630e+000	 2.274176890103913e+000	 1.092384139191659e+001
 2.298097038850000e+000	 2.298097038850000e+000	 1.082156465446626e+001
 2.121320343550000e+000	 2.121320343550000e+000	 1.090563840497418e+001
 2.099240206248228e+000	 2.143173011305966e+000	 1.103929098295672e+001
 2.076936168892773e+000	 2.164794713192911e+000	 1.115655108483742e+001
 2.054411872221356e+000	 2.186182027921017e+000	 1.125680632170949e+001
 2.031671026237590e+000	 2.207331611037154e+000	 1.133943676186340e+001
 2.008717408176743e+000	 2.228240196665399e+000	 1.140381706707864e+001
 1.985554860419452e+000	 2.248904599182742e+000	 1.144931867820498e+001
 1.962187288355787e+000	 2.269321714828175e+000	 1.147531204363536e+001
 1.938618658202153e+000	 2.289488523243476e+000	 1.148116888410791e+001
 1.914852994773596e+000	 2.309402088944092e+000	 1.146626448713387e+001
 1.890894379214094e+000	 2.329059562718646e+000	 1.142998002423346e+001
 2.138998013080000e+000	 2.138998013080000e+000	 1.081932544004295e+001
 2.116733874633795e+000	 2.161032786400810e+000	 1.096084420852458e+001
 2.094243970300128e+000	 2.182834669136945e+000	 1.108474475224719e+001
 2.071531971156200e+000	 2.204400211487839e+000	 1.119026516043753e+001
 2.048601618122318e+000	 2.225726041129918e+000	 1.127663631258201e+001
 2.025456719910714e+000	 2.246808864971628e+000	 1.134308421119001e+001
 2.002101150921862e+000	 2.267645470843101e+000	 1.138883236416094e+001
 1.978538849090749e+000	 2.288232729118653e+000	 1.141310420995836e+001
 1.954773813685585e+000	 2.308567594270409e+000	 1.141512557862787e+001
 1.930810103061539e+000	 2.328647106351446e+000	 1.139412718155572e+001
 1.906651832372125e+000	 2.348468392406962e+000	 1.134934712274993e+001
 2.156675682610000e+000	 2.156675682610000e+000	 1.075232918381719e+001
 2.134227543019364e+000	 2.178892561495658e+000	 1.089912036263158e+001
 2.111551771707485e+000	 2.200874625080999e+000	 1.102709460756804e+001
 2.088652070091043e+000	 2.222618395054705e+000	 1.113534088957030e+001
 2.065532210007047e+000	 2.244120471222762e+000	 1.122294126621041e+001
 2.042196031644685e+000	 2.265377533277983e+000	 1.128897341140107e+001
 2.018647441424272e+000	 2.286386342503640e+000	 1.133251319509240e+001
 1.994890409825711e+000	 2.307143743409375e+000	 1.135263730575493e+001
 1.970928969169016e+000	 2.327646665297662e+000	 1.134842590828336e+001
 1.946767211349483e+000	 2.347892123759207e+000	 1.131896532981418e+001
 1.922409285530155e+000	 2.367877222095777e+000	 1.126335076583740e+001
 2.174353352140000e+000	 2.174353352140000e+000	 1.070389484020620e+001
 2.151721211404932e+000	 2.196752336590512e+000	 1.085344094467915e+001
 2.128859573114841e+000	 2.218914581025073e+000	 1.098299845433892e+001
 2.105772169025888e+000	 2.240836578621618e+000	 1.109150758177492e+001
 2.082462801891776e+000	 2.262514901315687e+000	 1.117790188576851e+001
 2.058935343378656e+000	 2.283946201584464e+000	 1.124111099847724e+001
 2.035193731926682e+000	 2.305127214164361e+000	 1.128006340305099e+001
 2.011241970560673e+000	 2.326054757700345e+000	 1.129368925407783e+001
 1.987084124652448e+000	 2.346725736325238e+000	 1.128092323308906e+001
 1.962724319637426e+000	 2.367137141167375e+000	 1.124070743121059e+001
 1.938166738688187e+000	 2.387286051785094e+000	 1.117199425093613e+001
 2.192031021670000e+000	 2.192031021670000e+000	 1.067326950789399e+001
 2.169214879790501e+000	 2.214612111685371e+000	 1.082312711430797e+001
 2.146167374522197e+000	 2.236954536969167e+000	 1.095185153323543e+001
 2.122892267960732e+000	 2.259054762188575e+000	 1.105823453625528e+001
 2.099393393776504e+000	 2.280909331408693e+000	 1.114106146377669e+001
 2.075674655112627e+000	 2.302514869891070e+000	 1.119911415026335e+001
 2.051740022429092e+000	 2.323868085825262e+000	 1.123117390040315e+001
 2.027593531295636e+000	 2.344965771991560e+000	 1.123602450821613e+001
 2.003239280135879e+000	 2.365804807353134e+000	 1.121245531092110e+001
 1.978681427925369e+000	 2.386382158575948e+000	 1.115926426924086e+001
 1.953924191846217e+000	 2.406694881474913e+000	 1.107526106571248e+001
 2.209708691200000e+000	 2.209708691200000e+000	 1.065970210454819e+001
 2.186708548176069e+000	 2.232471886780235e+000	 1.080749970498830e+001
 2.163475175929553e+000	 2.254994492913281e+000	 1.093304662458440e+001
 2.140012366895575e+000	 2.277272945755577e+000	 1.103498646969043e+001
 2.116323985661233e+000	 2.299303761501779e+000	 1.111195660107572e+001
 2.092413966846598e+000	 2.321083538197802e+000	 1.116259125780040e+001
 2.068286312931502e+000	 2.342608957486344e+000	 1.118552473261752e+001
 2.043945092030598e+000	 2.363876786283021e+000	 1.117939459048567e+001
 2.019394435619311e+000	 2.384883878381352e+000	 1.114284492160258e+001
 1.994638536213312e+000	 2.405627175984928e+000	 1.107452962022768e+001
 1.969681645004248e+000	 2.426103711165233e+000	 1.097311568044997e+001
 2.227386360730000e+000	 2.227386360730000e+000	 1.066244329463825e+001
 2.204202216561638e+000	 2.250331661875104e+000	 1.080587923696333e+001
 2.180782977336909e+000	 2.273034448857415e+000	 1.092597414599672e+001
 2.157132465830419e+000	 2.295491129322625e+000	 1.102122369808097e+001
 2.133254577545962e+000	 2.317698191594946e+000	 1.109011747236965e+001
 2.109153278580569e+000	 2.339652206504660e+000	 1.113114227400841e+001
 2.084832603433911e+000	 2.361349829147606e+000	 1.114278550949100e+001
 2.060296652765560e+000	 2.382787800574728e+000	 1.112353860536300e+001
 2.035549591102742e+000	 2.403962949409890e+000	 1.107190046127070e+001
 2.010595644501256e+000	 2.424872193394315e+000	 1.098638092820842e+001
 1.985439098162278e+000	 2.445512540856055e+000	 1.086550430270725e+001
 2.245064030260000e+000	 2.245064030260000e+000	 1.068074542066372e+001
 2.221695884947205e+000	 2.268191436969977e+000	 1.081758592958088e+001
 2.198090778744265e+000	 2.291074404801570e+000	 1.093002224538766e+001
 2.174252564765263e+000	 2.313709312889717e+000	 1.101640231000397e+001
 2.150185169430690e+000	 2.336092621688192e+000	 1.107506807922329e+001
 2.125892590314540e+000	 2.358220874811642e+000	 1.110435904589576e+001
 2.101378893936321e+000	 2.380090700809050e+000	 1.110261581600194e+001
 2.076648213500522e+000	 2.401698814866680e+000	 1.106818372837661e+001
 2.051704746586174e+000	 2.423042020438750e+000	 1.099941650866364e+001
 2.026552752789199e+000	 2.444117210804107e+000	 1.089467994793836e+001
 2.001196551320309e+000	 2.464921370547378e+000	 1.075235559632303e+001
 2.262741699790000e+000	 2.262741699790000e+000	 1.071386243760605e+001
 2.239189553332774e+000	 2.286051212064856e+000	 1.084193971304722e+001
 2.215398580151621e+000	 2.309114360745745e+000	 1.094457688963690e+001
 2.191372663700107e+000	 2.331927496456856e+000	 1.101997433174674e+001
 2.167115761315419e+000	 2.354487051781518e+000	 1.106632649120047e+001
 2.142631902048512e+000	 2.376789543118751e+000	 1.108182563119645e+001
 2.117925184438731e+000	 2.398831572470674e+000	 1.106466560390471e+001
 2.092999774235484e+000	 2.420609829158880e+000	 1.101304567208148e+001
 2.067859902069606e+000	 2.442121091467931e+000	 1.092517436486269e+001
 2.042509861077142e+000	 2.463362228214305e+000	 1.079927335775335e+001
 2.016954004478340e+000	 2.484330200239203e+000	 1.063358136671765e+001
 2.280419369320000e+000	 2.280419369320000e+000	 1.076104985042949e+001
 2.256683221718343e+000	 2.303910987159740e+000	 1.087826023963403e+001
 2.232706381558977e+000	 2.327154316689938e+000	 1.096902194912472e+001
 2.208492762634950e+000	 2.350145680024038e+000	 1.103138788475998e+001
 2.184046353200148e+000	 2.372881481874926e+000	 1.106340507578658e+001
 2.159371213782483e+000	 2.395358211425986e+000	 1.106311860027985e+001
 2.134471474941142e+000	 2.417572444132480e+000	 1.102857556511040e+001
 2.109351334970446e+000	 2.439520843451325e+000	 1.095782913036039e+001
 2.084015057553037e+000	 2.461200162497433e+000	 1.084894256793012e+001
 2.058466969365085e+000	 2.482607245624910e+000	 1.069999334392710e+001
 2.032711457636371e+000	 2.503739029931528e+000	 1.054642509838665e+001
 2.298097038850000e+000	 2.298097038850000e+000	 1.082156465446626e+001
 2.274176890103912e+000	 2.321770762254630e+000	 1.092586689436816e+001
 2.250014182966333e+000	 2.345194272634154e+000	 1.100273927836667e+001
 2.225612861569795e+000	 2.368363863591268e+000	 1.105008733584375e+001
 2.200976945084877e+000	 2.391275911968415e+000	 1.106581071769923e+001
 2.176110525516454e+000	 2.413926879733345e+000	 1.104780732412646e+001
 2.151017765443552e+000	 2.436313315794466e+000	 1.099397748783461e+001
 2.125702895705410e+000	 2.458431857744016e+000	 1.090222820221900e+001
 2.100170213036469e+000	 2.480279233527257e+000	 1.077047738379449e+001
 2.074424077653029e+000	 2.501852263035922e+000	 1.061174016815868e+001
 2.048468910794402e+000	 2.523147859624355e+000	 1.059367544632025e+001
 1.890894379214094e+000	 2.329059562718646e+000	 1.142998002423346e+001
 1.866746946686970e+000	 2.348458182955457e+000	 1.158235518384961e+001
 1.842414884029853e+000	 2.367595276895474e+000	 1.167824661655443e+001
 1.817902427375696e+000	 2.386468261810128e+000	 1.172674673645756e+001
 1.793213859741616e+000	 2.405074646102547e+000	 1.172810388134873e+001
 1.768353508590088e+000	 2.423412030331897e+000	 1.168261896638719e+001
 1.743325743364769e+000	 2.441478108159864e+000	 1.159064406269961e+001
 1.718134973003829e+000	 2.459270667218596e+000	 1.145258091657142e+001
 1.692785643433693e+000	 2.476787589899573e+000	 1.126887941348454e+001
 1.667282235046092e+000	 2.494026854062976e+000	 1.104003599132222e+001
 1.641629260161343e+000	 2.510986533667252e+000	 1.107118025027038e+001
 1.906651832372125e+000	 2.348468392406962e+000	 1.134934712274993e+001
 1.882303171240375e+000	 2.368028667811902e+000	 1.144384510438589e+001
 1.857768341394251e+000	 2.387325237534294e+000	 1.146903483561236e+001
 1.833051614267811e+000	 2.406355497322827e+000	 1.144631574373110e+001
 1.808157308569985e+000	 2.425116934817322e+000	 1.137889505974314e+001
 1.783089787825431e+000	 2.443607130581606e+000	 1.126723645319971e+001
 1.757853457889840e+000	 2.461823759057878e+000	 1.111185164468925e+001
 1.732452764442532e+000	 2.479764589441885e+000	 1.091329875563762e+001
 1.706892190459319e+000	 2.497427486478374e+000	 1.067218060835571e+001
 1.681176253668529e+000	 2.514810411176357e+000	 1.078029228955881e+001
 1.655309503993148e+000	 2.531911421443936e+000	 1.093421291640136e+001
 1.922409285530155e+000	 2.367877222095777e+000	 1.126335076583740e+001
 1.897859395793785e+000	 2.387599152668946e+000	 1.130355325266993e+001
 1.873121798758668e+000	 2.407055198173796e+000	 1.127259995528162e+001
 1.848200801159972e+000	 2.426242732836283e+000	 1.118143001835720e+001
 1.823100757398434e+000	 2.445159223532919e+000	 1.104793810248141e+001
 1.797826067060902e+000	 2.463802230832191e+000	 1.087274994771319e+001
 1.772381172415094e+000	 2.482169409956812e+000	 1.065653628245975e+001
 1.746770555881482e+000	 2.500258511666131e+000	 1.040619792384488e+001
 1.720998737485267e+000	 2.518067383058155e+000	 1.055448101645851e+001
 1.695070272291373e+000	 2.535593968290734e+000	 1.069010840347118e+001
 1.668989747825456e+000	 2.552836309221620e+000	 1.080953288962875e+001
 1.938166738688187e+000	 2.387286051785094e+000	 1.117199425093613e+001
 1.913415620347201e+000	 2.407169637526585e+000	 1.116160437546812e+001
 1.888475256123106e+000	 2.426785158813978e+000	 1.108219523054801e+001
 1.863349988052179e+000	 2.446129968350495e+000	 1.093260288690889e+001
 1.838044206226964e+000	 2.465201512249337e+000	 1.073566121757296e+001
 1.812562346296498e+000	 2.483997331083652e+000	 1.049950384206831e+001
 1.786908886940528e+000	 2.502515060856667e+000	 1.028076642710706e+001
 1.761088347320680e+000	 2.520752433891332e+000	 1.039645132130696e+001
 1.735105284511538e+000	 2.538707279638917e+000	 1.050665098741074e+001
 1.708964290914625e+000	 2.556377525406104e+000	 1.060776084528755e+001
 1.682669991658267e+000	 2.573761197000304e+000	 1.069622951229226e+001
 1.953924191846217e+000	 2.406694881474913e+000	 1.107526106571248e+001
 1.928971844900621e+000	 2.426740122384820e+000	 1.101791063404887e+001
 1.903828713487564e+000	 2.446515119454843e+000	 1.089332129715173e+001
 1.878499174944431e+000	 2.466017203865463e+000	 1.069931987328116e+001
 1.852987655055575e+000	 2.485243800966576e+000	 1.044248342502100e+001
 1.827298625532221e+000	 2.504192431335988e+000	 1.023284794588572e+001
 1.801436601466145e+000	 2.522860711757442e+000	 1.030884721418363e+001
 1.775406138760124e+000	 2.541246356117489e+000	 1.038653174389257e+001
 1.749211831538130e+000	 2.559347176220658e+000	 1.046224955713359e+001
 1.722858309538284e+000	 2.577161082522472e+000	 1.053239124524352e+001
 1.696350235491580e+000	 2.594686084779988e+000	 1.059339756550729e+001
 1.969681645004248e+000	 2.426103711165233e+000	 1.097311568044997e+001
 1.944528069454047e+000	 2.446310607243651e+000	 1.087236777927348e+001
 1.919182170852043e+000	 2.466245080096388e+000	 1.070611764930768e+001
 1.893648361836729e+000	 2.485904439381185e+000	 1.047226108155994e+001
 1.867931103884267e+000	 2.505286089684635e+000	 1.026499791386735e+001
 1.842034904768069e+000	 2.524387531589201e+000	 1.029426956262884e+001
 1.815964315991943e+000	 2.543206362659138e+000	 1.033239245152205e+001
 1.789723930199816e+000	 2.561740278344599e+000	 1.037567755944972e+001
 1.763318378565046e+000	 2.579987072803380e+000	 1.042046747088151e+001
 1.736752328162351e+000	 2.597944639639833e+000	 1.046314422674025e+001
 1.710030479325396e+000	 2.615610972560673e+000	 1.050013705161415e+001
 1.985439098162278e+000	 2.445512540856055e+000	 1.086550430270725e+001
 1.960084294007477e+000	 2.465881092103079e+000	 1.072485580280264e+001
 1.934535628216542e+000	 2.485975040738615e+000	 1.052039941114260e+001
 1.908797548729072e+000	 2.505791674897666e+000	 1.034291395352578e+001
 1.882874552713040e+000	 2.525328378403515e+000	 1.035230324441913e+001
 1.856771184004044e+000	 2.544582631843288e+000	 1.034684345315859e+001
 1.830492030517922e+000	 2.563552013561753e+000	 1.035068582230969e+001
 1.804041721639754e+000	 2.582234200572666e+000	 1.036312559878041e+001
 1.777424925592283e+000	 2.600626969387082e+000	 1.038049616430209e+001
 1.750646346786826e+000	 2.618728196758190e+000	 1.039916728756812e+001
 1.723710723159714e+000	 2.636535860342358e+000	 1.041555298698627e+001
 2.001196551320309e+000	 2.464921370547378e+000	 1.075235559632303e+001
 1.975640518560913e+000	 2.485451576963104e+000	 1.057523955753754e+001
 1.949889085581061e+000	 2.505705001381523e+000	 1.041545012666530e+001
 1.923946735621460e+000	 2.525678910414903e+000	 1.042386194684024e+001
 1.897818001541894e+000	 2.545370667123217e+000	 1.041562062736036e+001
 1.871507463240145e+000	 2.564777732098252e+000	 1.038989573169111e+001
 1.845019745044084e+000	 2.583897664465290e+000	 1.036300735262702e+001
 1.818359513079940e+000	 2.602728122801688e+000	 1.034811121615419e+001
 1.791531472619842e+000	 2.621266865971764e+000	 1.034152773625543e+001
 1.764540365411708e+000	 2.639511753877541e+000	 1.033961068674180e+001
 1.737390966994536e+000	 2.657460748125041e+000	 1.033875520462757e+001
 2.016954004478340e+000	 2.484330200239203e+000	 1.063358136671765e+001
 1.991196743114353e+000	 2.505022061823724e+000	 1.048322694653776e+001
 1.965242542945600e+000	 2.525434962025112e+000	 1.048762625020889e+001
 1.939095922513894e+000	 2.545566145932895e+000	 1.047852463733907e+001
 1.912761450370828e+000	 2.565412955843739e+000	 1.045546874126929e+001
 1.886243742476373e+000	 2.584972832354091e+000	 1.041802285922853e+001
 1.859547459570427e+000	 2.604243315369748e+000	 1.036863355430315e+001
 1.832677304520372e+000	 2.623222045031667e+000	 1.032986834698528e+001
 1.805638019647725e+000	 2.641906762557427e+000	 1.030275492290735e+001
 1.778434384036998e+000	 2.660295310997888e+000	 1.028362733663989e+001
 1.751071210829859e+000	 2.678385635908726e+000	 1.026885816602270e+001
 2.032711457636371e+000	 2.503739029931528e+000	 1.054642509838665e+001
 2.006752967667799e+000	 2.524592546684941e+000	 1.054419316636298e+001
 1.980596000310160e+000	 2.545164922669383e+000	 1.053134414648478e+001
 1.954245109406374e+000	 2.565453381451643e+000	 1.050752600971778e+001
 1.927704899199844e+000	 2.585455244565083e+000	 1.047240200630037e+001
 1.900980021712726e+000	 2.605167932610806e+000	 1.042565041626804e+001
 1.874075174096952e+000	 2.624588966275126e+000	 1.036683756112715e+001
 1.846995095961051e+000	 2.643715967262599e+000	 1.030762956282687e+001
 1.819744566675930e+000	 2.662546659144069e+000	 1.026337107302751e+001
 1.792328402662695e+000	 2.681078868119229e+000	 1.023037270016128e+001
 1.764751454665686e+000	 2.699310523693410e+000	 1.020498078173852e+001
 2.048468910794402e+000	 2.523147859624355e+000	 1.059367544632025e+001
 2.022309192221251e+000	 2.544163031546754e+000	 1.057460718479895e+001
 1.995949457674740e+000	 2.564894883314335e+000	 1.054728693587851e+001
 1.969394296298900e+000	 2.585340616971148e+000	 1.051148078126011e+001
 1.942648348028941e+000	 2.605497533287247e+000	 1.046696761562168e+001
 1.915716300949207e+000	 2.625363032868398e+000	 1.041353877253681e+001
 1.888602888623659e+000	 2.644934617181425e+000	 1.035099761523466e+001
 1.861312887401978e+000	 2.664209889494488e+000	 1.028062612382744e+001
 1.833851113704457e+000	 2.683186555731693e+000	 1.022257012442784e+001
 1.806222421288800e+000	 2.701862425241568e+000	 1.017900469262841e+001
 1.778431698502015e+000	 2.720235411479095e+000	 1.014624624030567e+001
 1.641629260161343e+000	 2.510986533667252e+000	 1.107118025027038e+001
 1.615831260481341e+000	 2.527664799318952e+000	 1.095370923123132e+001
 1.589892804533449e+000	 2.544059918741996e+000	 1.084126243340530e+001
 1.563818485109322e+000	 2.560170257166945e+000	 1.073143657043086e+001
 1.537612916702709e+000	 2.575994277640975e+000	 1.062187953765719e+001
 1.511280732947345e+000	 2.591530541258076e+000	 1.051029598220420e+001
 1.484826584058343e+000	 2.606777707310107e+000	 1.039445269786892e+001
 1.458255134279887e+000	 2.621734533359257e+000	 1.027218383241696e+001
 1.431571059341969e+000	 2.636399875232532e+000	 1.014139589549652e+001
 1.404779043928912e+000	 2.650772686938987e+000	 1.000007255614277e+001
 1.377883779162314e+000	 2.664852020510572e+000	 9.846279219599415e+000
 1.655309503993148e+000	 2.531911421443936e+000	 1.093421291640136e+001
 1.629296520982582e+000	 2.548728672642727e+000	 1.080795086951384e+001
 1.603141911235245e+000	 2.565260418061028e+000	 1.068795683488637e+001
 1.576850305816056e+000	 2.581505009306319e+000	 1.057179286513431e+001
 1.550426357672883e+000	 2.597460896617837e+000	 1.045707181803754e+001
 1.523874739053070e+000	 2.613126629098687e+000	 1.034146305650613e+001
 1.497200138923525e+000	 2.628500854868160e+000	 1.022269797137295e+001
 1.470407260397131e+000	 2.643582321134798e+000	 1.009857531422386e+001
 1.443500818168300e+000	 2.658369874190830e+000	 9.966966328188942e+000
 1.416485535960391e+000	 2.672862459328722e+000	 9.825819665362007e+000
 1.389366143987678e+000	 2.687059120680686e+000	 9.673166080288763e+000
 1.668989747825456e+000	 2.552836309221620e+000	 1.080953288962875e+001
 1.642761781484414e+000	 2.569792545967492e+000	 1.067687456109657e+001
 1.616391017937702e+000	 2.586460917381019e+000	 1.055170234261083e+001
 1.589882126523502e+000	 2.602839761446600e+000	 1.043154051253867e+001
 1.563239798643796e+000	 2.618927515595535e+000	 1.031396382098011e+001
 1.536468745159543e+000	 2.634722716940044e+000	 1.019660332388903e+001
 1.509573693789444e+000	 2.650224002426849e+000	 1.007715203788552e+001
 1.482559386515083e+000	 2.665430108910843e+000	 9.953370402635501e+000
 1.455430576995289e+000	 2.680339873149482e+000	 9.823091538398913e+000
 1.428192027992455e+000	 2.694952231718638e+000	 9.684226287106119e+000
 1.400848508813537e+000	 2.709266220850791e+000	 9.534768026110225e+000
 1.682669991658267e+000	 2.573761197000304e+000	 1.069622951229226e+001
 1.656227041986839e+000	 2.590856419293247e+000	 1.055954968651155e+001
 1.629640124640821e+000	 2.607661416701968e+000	 1.043154898329633e+001
 1.602913947231660e+000	 2.624174513587791e+000	 1.030971078338658e+001
 1.576053239615450e+000	 2.640394134574071e+000	 1.019156864868207e+001
 1.549062751266767e+000	 2.656318804782146e+000	 1.007471229479392e+001
 1.521947248656102e+000	 2.671947149986172e+000	 9.956793382036800e+000
 1.494711512633743e+000	 2.687277896687392e+000	 9.835531111394255e+000
 1.467360335822934e+000	 2.702309872108487e+000	 9.708717612729295e+000
 1.439898520025105e+000	 2.717042004108736e+000	 9.574223113284772e+000
 1.412330873639893e+000	 2.731473321020890e+000	 9.430000875322170e+000
 1.696350235491580e+000	 2.594686084779988e+000	 1.059339756550729e+001
 1.669692302489857e+000	 2.611920292619992e+000	 1.045505244618807e+001
 1.642889231344602e+000	 2.628861916023877e+000	 1.032655496657881e+001
 1.615945767940529e+000	 2.645509265729889e+000	 1.020534447567849e+001
 1.588866680587844e+000	 2.661860753553444e+000	 1.008891025568946e+001
 1.561656757374739e+000	 2.677914892624994e+000	 9.974797637302272e+000
 1.534320803523498e+000	 2.693670297546130e+000	 9.860613931053956e+000
 1.506863638753110e+000	 2.709125684464445e+000	 9.744034160941597e+000
 1.479290094651236e+000	 2.724279871067844e+000	 9.622806587226698e+000
 1.451605012058342e+000	 2.739131776499018e+000	 9.494758006152313e+000
 1.423813238466745e+000	 2.753680421190979e+000	 9.357798815115674e+000
 1.710030479325396e+000	 2.615610972560673e+000	 1.050013705161415e+001
 1.683157562993467e+000	 2.632984165947726e+000	 1.036246558765683e+001
 1.656138338049046e+000	 2.650062415346746e+000	 1.023578635769619e+001
 1.628977588650109e+000	 2.666844017872896e+000	 1.011749153358249e+001
 1.601680121560979e+000	 2.683327372533654e+000	 1.000502301480338e+001
 1.574250763483461e+000	 2.699510980468590e+000	 9.895878690830511e+000
 1.546694358391633e+000	 2.715393445106724e+000	 9.787618517057258e+000
 1.519015764873185e+000	 2.730973472242002e+000	 9.677870390150108e+000
 1.491219853480195e+000	 2.746249870027555e+000	 9.564335809403820e+000
 1.463311504092165e+000	 2.761221548889481e+000	 9.444795311494104e+000
 1.435295603294094e+000	 2.775887521361062e+000	 9.317113666857317e+000
 1.723710723159714e+000	 2.636535860342358e+000	 1.041555298698627e+001
 1.696622823497669e+000	 2.654048039276451e+000	 1.028087814574431e+001
 1.669387444754151e+000	 2.671262914670574e+000	 1.015831676575766e+001
 1.642009409360400e+000	 2.688178770016811e+000	 1.004521068449106e+001
 1.614493562534854e+000	 2.704793991514702e+000	 9.938951303657046e+000
 1.586844769592933e+000	 2.721107068312931e+000	 9.836986002981528e+000
 1.559067913260507e+000	 2.737116592667952e+000	 9.736824364961167e+000
 1.531167890993967e+000	 2.752821260020063e+000	 9.636044196068344e+000
 1.503149612309810e+000	 2.768219868987618e+000	 9.532297330641470e+000
 1.475017996126574e+000	 2.783311321280127e+000	 9.423315204518124e+000
 1.446777968121937e+000	 2.798094621531136e+000	 9.306914186320181e+000
 1.737390966994536e+000	 2.657460748125041e+000	 1.033875520462757e+001
 1.710088084002464e+000	 2.675111912606165e+000	 1.020938519504136e+001
 1.682636551459918e+000	 2.692463413995360e+000	 1.009322704674127e+001
 1.655041230071403e+000	 2.709513522161635e+000	 9.987569093224812e+000
 1.627307003509469e+000	 2.726260610496586e+000	 9.889749110824798e+000
 1.599438775703154e+000	 2.742703156158019e+000	 9.797160888277793e+000
 1.571441468130118e+000	 2.758839740229814e+000	 9.707260604569036e+000
 1.543320017115457e+000	 2.774669047798627e+000	 9.617573000134243e+000
 1.515079371140083e+000	 2.790189867948035e+000	 9.525697327296225e+000
 1.486724488161570e+000	 2.805401093670956e+000	 9.429313066649286e+000
 1.458260332950278e+000	 2.820301721701202e+000	 9.326185396975028e+000
 1.751071210829859e+000	 2.678385635908726e+000	 1.026885816602270e+001
 1.723553344507851e+000	 2.696175785936869e+000	 1.014708761397505e+001
 1.695885658166348e+000	 2.713663913321106e+000	 1.003960502041287e+001
 1.668073050783117e+000	 2.730848274307367e+000	 9.943642032445499e+000
 1.640120444484825e+000	 2.747727229479309e+000	 9.856479660394722e+000
 1.612032781814124e+000	 2.764299244003852e+000	 9.775455007578353e+000
 1.583815023000468e+000	 2.780562887792313e+000	 9.697967805538234e+000
 1.555472143237654e+000	 2.796516835577696e+000	 9.621486739409981e+000
 1.527009129971012e+000	 2.812159866908805e+000	 9.543555548943397e+000
 1.498430980197152e+000	 2.827490866061967e+000	 9.461798891536665e+000
 1.469742697779114e+000	 2.842508821871260e+000	 9.373927954533320e+000
 1.764751454665686e+000	 2.699310523693410e+000	 1.020498078173852e+001
 1.737018605013831e+000	 2.717239659268562e+000	 1.009309185985358e+001
 1.709134764873440e+000	 2.734864412647811e+000	 9.996545200411852e+000
 1.681104871495542e+000	 2.752183026454008e+000	 9.912512568398514e+000
 1.652933885460923e+000	 2.769193848462869e+000	 9.838215054002975e+000
 1.624626787925844e+000	 2.785895331850432e+000	 9.770929967058040e+000
 1.596188577871557e+000	 2.802286035355447e+000	 9.707997533975210e+000
 1.567624269360560e+000	 2.818364623357268e+000	 9.646827381480234e+000
 1.538938888802598e+000	 2.834129865869928e+000	 9.584904792283455e+000
 1.510137472233320e+000	 2.849580638453159e+000	 9.519796718688138e+000
 1.481225062608446e+000	 2.864715922041312e+000	 9.449157541046363e+000
 1.778431698502015e+000	 2.720235411479095e+000	 1.014624624030567e+001
 1.750483865520404e+000	 2.738303532601247e+000	 1.004650975429407e+001
 1.722383871581194e+000	 2.756064911975476e+000	 9.963148536794572e+000
 1.694136692208680e+000	 2.773517778601557e+000	 9.893271261159750e+000
 1.665747326437760e+000	 2.790660467447267e+000	 9.834035929389513e+000
 1.637220794038314e+000	 2.807491419697759e+000	 9.782656935695378e+000
 1.608562132743385e+000	 2.824009182919216e+000	 9.736411929494857e+000
 1.579776395484173e+000	 2.840212411137346e+000	 9.692648461739777e+000
 1.550868647634841e+000	 2.856099864831404e+000	 9.648790399329375e+000
 1.521843964270075e+000	 2.871670410844536e+000	 9.602344093245089e+000
 1.492707427438275e+000	 2.886923022211355e+000	 9.550904286969278e+000
 1.377883779162314e+000	 2.664852020510572e+000	 9.846279219599415e+000
 1.350889960100455e+000	 2.678637025767296e+000	 9.854294306214538e+000
 1.323802283258406e+000	 2.692126950008474e+000	 9.852220535232494e+000
 1.296625444150432e+000	 2.705321137630596e+000	 9.838467970132792e+000
 1.269364134855766e+000	 2.718219029672730e+000	 9.811537403630235e+000
 1.242023041611831e+000	 2.730820163291444e+000	 9.719059609503834e+000
 1.214606842436724e+000	 2.743124171166410e+000	 9.509180266543920e+000
 1.187120204783137e+000	 2.755130780838170e+000	 9.318746048001547e+000
 1.159567783225906e+000	 2.766839813979641e+000	 9.148996415916505e+000
 1.131954217185234e+000	 2.778251185602977e+000	 9.001123605931634e+000
 1.104284128687585e+000	 2.789364903203509e+000	 8.876273938338027e+000
 1.389366143987678e+000	 2.687059120680686e+000	 9.673166080288763e+000
 1.362147376433888e+000	 2.700959000981797e+000	 9.685847950061788e+000
 1.334833968951679e+000	 2.714561341258762e+000	 9.688530347302525e+000
 1.307430656184601e+000	 2.727865480444711e+000	 9.679536387146163e+000
 1.279942169312546e+000	 2.740870854920701e+000	 9.657281994508026e+000
 1.252373233624917e+000	 2.753576997986275e+000	 9.620279384358451e+000
 1.224728566123295e+000	 2.765983539260102e+000	 9.416960372769260e+000
 1.197012873155812e+000	 2.778090204012229e+000	 9.219083649943412e+000
 1.169230848085428e+000	 2.789896812429516e+000	 9.043576137930689e+000
 1.141387168994181e+000	 2.801403278815884e+000	 8.891604186436727e+000
 1.113486496425423e+000	 2.812609610729128e+000	 8.764286282823022e+000
 1.400848508813537e+000	 2.709266220850791e+000	 9.534768026110225e+000
 1.373404792767729e+000	 2.723280976196111e+000	 9.552527253898880e+000
 1.345865654645289e+000	 2.736995732508725e+000	 9.560337401468619e+000
 1.318235868219058e+000	 2.750409823258400e+000	 9.556432780448120e+000
 1.290520203769584e+000	 2.763522680168190e+000	 9.539142657330043e+000
 1.262723425638253e+000	 2.776333832680606e+000	 9.506894873379597e+000
 1.234850289810128e+000	 2.788842907353317e+000	 9.365570363464837e+000
 1.206905541528780e+000	 2.801049627185874e+000	 9.160217877755352e+000
 1.178893912945294e+000	 2.812953810879079e+000	 8.978931668417605e+000
 1.150820120803543e+000	 2.824555372028621e+000	 8.822851325475030e+000
 1.122688864163766e+000	 2.835854318254756e+000	 8.693066610284253e+000
 1.412330873639893e+000	 2.731473321020890e+000	 9.430000875322170e+000
 1.384662209101975e+000	 2.745602951410237e+000	 9.453272529917552e+000
 1.356897340339236e+000	 2.759430123758361e+000	 9.466606626054501e+000
 1.329041080253802e+000	 2.772954166071666e+000	 9.468146789246275e+000
 1.301098238226882e+000	 2.786174505415197e+000	 9.456133809851744e+000
 1.273073617651840e+000	 2.799090667374439e+000	 9.428909405041400e+000
 1.244972013497222e+000	 2.811702275446057e+000	 9.353411347398517e+000
 1.216798209902042e+000	 2.824009050359106e+000	 9.140574388810331e+000
 1.188556977805505e+000	 2.836010809328329e+000	 8.953513975490786e+000
 1.160253072613320e+000	 2.847707465241187e+000	 8.793342041465936e+000
 1.131891231902615e+000	 2.859099025780396e+000	 8.661118706027219e+000
 1.423813238466745e+000	 2.753680421190979e+000	 9.357798815115674e+000
 1.395919625436628e+000	 2.767924926624177e+000	 9.387042381580518e+000
 1.367929026033521e+000	 2.781864515007671e+000	 9.406321151916981e+000
 1.339846292288834e+000	 2.795498508884507e+000	 9.413686155562523e+000
 1.311676272684440e+000	 2.808826330661723e+000	 9.407287862044814e+000
 1.283423809665677e+000	 2.821847502067772e+000	 9.385380087460492e+000
 1.255093737184579e+000	 2.834561643538319e+000	 9.346323616663922e+000
 1.226690878275597e+000	 2.846968473531924e+000	 9.158596436730347e+000
 1.198220042666059e+000	 2.859067807777269e+000	 8.965791470528679e+000
 1.169686024423512e+000	 2.870859558453585e+000	 8.801570632823514e+000
 1.141093599641968e+000	 2.882343733306045e+000	 8.666963461930521e+000
 1.435295603294094e+000	 2.775887521361062e+000	 9.317113666857317e+000
 1.407177041771687e+000	 2.790246901837927e+000	 9.352812971970719e+000
 1.378960711728142e+000	 2.804298906256655e+000	 9.378481584344593e+000
 1.350651504324155e+000	 2.818042851696924e+000	 9.392076000120548e+000
 1.322254307142256e+000	 2.831478155907767e+000	 9.391654496408590e+000
 1.293774001679765e+000	 2.844604336760608e+000	 9.375381184765951e+000
 1.265215460872197e+000	 2.857421011630105e+000	 9.341529772930448e+000
 1.236583546649444e+000	 2.869927896704327e+000	 9.212744167536521e+000
 1.207883107526959e+000	 2.882124806225897e+000	 9.014249310444018e+000
 1.179118976234119e+000	 2.894011651665810e+000	 8.846047986756695e+000
 1.150295967381827e+000	 2.905588440831705e+000	 8.709138192182868e+000
 1.446777968121937e+000	 2.798094621531136e+000	 9.306914186320181e+000
 1.418434458107152e+000	 2.812568877051492e+000	 9.349577326980979e+000
 1.389992397423100e+000	 2.826733297505313e+000	 9.382105309627827e+000
 1.361456716359763e+000	 2.840587194508919e+000	 9.402358132714751e+000
 1.332832341600331e+000	 2.854129981153329e+000	 9.408299982552228e+000
 1.304124193694102e+000	 2.867361171452942e+000	 9.398003436305187e+000
 1.275337184560077e+000	 2.880280379721414e+000	 9.369653365633601e+000
 1.246476215023585e+000	 2.892887319876318e+000	 9.301493949315779e+000
 1.217546172388201e+000	 2.905181804674213e+000	 9.097388733178494e+000
 1.188551928045140e+000	 2.917163744877866e+000	 8.925300920983755e+000
 1.159498335122191e+000	 2.928833148357375e+000	 8.786195981604124e+000
 1.458260332950278e+000	 2.820301721701202e+000	 9.326185396975028e+000
 1.429691874443023e+000	 2.834890852264868e+000	 9.376344671423741e+000
 1.401024083118395e+000	 2.849167688753644e+000	 9.416225834389735e+000
 1.372261928395659e+000	 2.863131537320488e+000	 9.443590395160232e+000
 1.343410376058666e+000	 2.876781806398410e+000	 9.456306524158901e+000
 1.314474385708691e+000	 2.890118006144780e+000	 9.452353408013160e+000
 1.285458908248220e+000	 2.903139747812248e+000	 9.429825297495302e+000
 1.256368883398019e+000	 2.915846743047894e+000	 9.386935242277229e+000
 1.227209237249788e+000	 2.928238803122218e+000	 9.213726424591355e+000
 1.197984879856576e+000	 2.940315838089752e+000	 9.037871556546909e+000
 1.168700702863060e+000	 2.952077855883055e+000	 8.896705064754364e+000
 1.469742697779114e+000	 2.842508821871260e+000	 9.373927954533320e+000
 1.440949290779301e+000	 2.857212827478057e+000	 9.432139796260941e+000
 1.412055768814028e+000	 2.871602080001652e+000	 9.479892155885436e+000
 1.383067140431843e+000	 2.885675880131633e+000	 9.514846035042012e+000
 1.353988410517259e+000	 2.899433631643008e+000	 9.534771636561018e+000
 1.324824577723530e+000	 2.912874840836117e+000	 9.537552874186446e+000
 1.295580631936623e+000	 2.925999115902606e+000	 9.521191567240651e+000
 1.266261551772745e+000	 2.938806166219056e+000	 9.483811313955748e+000
 1.236872302111720e+000	 2.951295801569911e+000	 9.361793915025146e+000
 1.207417831668428e+000	 2.963467931301467e+000	 9.182316720026213e+000
 1.177903070604434e+000	 2.975322563408745e+000	 9.039248234147062e+000
 1.481225062608446e+000	 2.864715922041312e+000	 9.449157541046363e+000
 1.452206707115985e+000	 2.879534802691059e+000	 9.516002455264742e+000
 1.423087454509997e+000	 2.894036471249331e+000	 9.572168161589966e+000
 1.393872352468315e+000	 2.908220222942355e+000	 9.615213108592105e+000
 1.364566444976112e+000	 2.922085456887126e+000	 9.642807553265484e+000
 1.335174769738620e+000	 2.935631675526955e+000	 9.652738228011758e+000
 1.305702355625289e+000	 2.948858483992487e+000	 9.642912684481516e+000
 1.276154220147765e+000	 2.961765589389805e+000	 9.611363307772249e+000
 1.246535366973995e+000	 2.974352800017292e+000	 9.540137003938124e+000
 1.216850783480694e+000	 2.986620024513012e+000	 9.357207373557461e+000
 1.187105438346313e+000	 2.998567270934446e+000	 9.212422275987358e+000
 1.492707427438275e+000	 2.886923022211355e+000	 9.550904286969278e+000
 1.463464123453077e+000	 2.901856777903874e+000	 9.626986789524839e+000
 1.434119140206303e+000	 2.916470862496686e+000	 9.692132056497634e+000
 1.404677564505076e+000	 2.930764565752653e+000	 9.743793911126238e+000
 1.375144479435225e+000	 2.944737282130762e+000	 9.779540659870030e+000
 1.345524961753960e+000	 2.958388510217295e+000	 9.797059919301006e+000
 1.315824079314217e+000	 2.971717852081893e+000	 9.794163111605402e+000
 1.286046888523079e+000	 2.984725012560141e+000	 9.768789621967246e+000
 1.256198431836615e+000	 2.997409798464362e+000	 9.719010612200634e+000
 1.226283735293376e+000	 3.009772117724388e+000	 9.561128071156956e+000
 1.196307806088698e+000	 3.021811978460158e+000	 9.414837431953140e+000
 1.104284128687585e+000	 2.789364903203509e+000	 8.876273938338027e+000
 1.076562120166735e+000	 2.800181065842599e+000	 8.895012655526093e+000
 1.048792772305250e+000	 2.810699863170943e+000	 8.901154670103324e+000
 1.020980641918824e+000	 2.820921574394557e+000	 8.895300763701576e+000
 9.931302598865212e-001	 2.830846567185376e+000	 8.878050450663283e+000
 9.652461291268561e-001	 2.840475296538248e+000	 8.850003354716263e+000
 9.373327226216525e-001	 2.849808303576410e+000	 8.811760566324415e+000
 9.093944814890325e-001	 2.858846214307540e+000	 8.763925975426911e+000
 8.814358131068237e-001	 2.867589738332473e+000	 8.707107574503400e+000
 8.534610892875463e-001	 2.876039667508701e+000	 8.641918727141533e+000
 8.254746445060665e-001	 2.884196874570822e+000	 8.568979397534395e+000
 1.113486496425423e+000	 2.812609610729128e+000	 8.764286282823022e+000
 1.085533471166585e+000	 2.823515908056200e+000	 8.764617419699800e+000
 1.057532712072626e+000	 2.834122362028305e+000	 8.756960398817116e+000
 1.029488813932706e+000	 2.844429254178170e+000	 8.741871924438268e+000
 1.001406345383213e+000	 2.854436955241667e+000	 8.719903478220431e+000
 9.732898468669844e-001	 2.864145924005266e+000	 8.691602853526208e+000
 9.451438286406900e-001	 2.873556706101563e+000	 8.657515672766627e+000
 9.169727688317710e-001	 2.882669932754969e+000	 8.618186882100837e+000
 8.887811115462034e-001	 2.891486319479657e+000	 8.574162218048047e+000
 8.605732650282777e-001	 2.900006664731933e+000	 8.525989640813094e+000
 8.323535998734841e-001	 2.908231848519181e+000	 8.474220729385554e+000
 1.122688864163766e+000	 2.835854318254756e+000	 8.693066610284253e+000
 1.094504822167034e+000	 2.846850750270003e+000	 8.675369650007653e+000
 1.066272651840688e+000	 2.857544860886037e+000	 8.654251939561039e+000
 1.037996985947347e+000	 2.867936933962302e+000	 8.630225343003975e+000
 1.009682430880729e+000	 2.878027343298606e+000	 8.603792563874240e+000
 9.813335646079902e-001	 2.887816551473039e+000	 8.575448838653925e+000
 9.529549346606492e-001	 2.897305108627561e+000	 8.545683615581005e+000
 9.245510561754662e-001	 2.906493651203310e+000	 8.514982212740643e+000
 8.961264099865637e-001	 2.915382900627801e+000	 8.483827449606979e+000
 8.676854407700044e-001	 2.923973661956154e+000	 8.452701246458460e+000
 8.392325552419019e-001	 2.932266822468538e+000	 8.422086186357232e+000
 1.131891231902615e+000	 2.859099025780396e+000	 8.661118706027219e+000
 1.103476173168084e+000	 2.870185592484005e+000	 8.625791609060427e+000
 1.075012591609433e+000	 2.880967359744138e+000	 8.591571920672873e+000
 1.046505157962747e+000	 2.891444613746952e+000	 8.558925873569216e+000
 1.017958516379068e+000	 2.901617731356191e+000	 8.528306618442295e+000
 9.893772823498731e-001	 2.911487178941568e+000	 8.500156078158277e+000
 9.607660406815307e-001	 2.921053511154402e+000	 8.474906789559528e+000
 9.321293435201170e-001	 2.930317369652563e+000	 8.452983726425392e+000
 9.034717084279045e-001	 2.939279481776909e+000	 8.434806097373732e+000
 8.747976165127258e-001	 2.947940659181365e+000	 8.420789112745425e+000
 8.461115106113193e-001	 2.956301796418897e+000	 8.411345714789171e+000
 1.141093599641968e+000	 2.882343733306045e+000	 8.666963461930521e+000
 1.112447524169733e+000	 2.893520434698208e+000	 8.614422772376228e+000
 1.083752531378863e+000	 2.904389858602606e+000	 8.567480240544761e+000
 1.055013329978906e+000	 2.914952293532121e+000	 8.526555648605633e+000
 1.026234601878231e+000	 2.925208119414423e+000	 8.492051790704213e+000
 9.974210000926342e-001	 2.935157806410852e+000	 8.464356489475581e+000
 9.685771467033342e-001	 2.944801913682086e+000	 8.443844602407275e+000
 9.397076308657241e-001	 2.954141088102729e+000	 8.430880011193825e+000
 9.108170068702257e-001	 2.963176062926975e+000	 8.425817587474363e+000
 8.819097922564428e-001	 2.971907656407568e+000	 8.429005128611681e+000
 8.529904659817370e-001	 2.980336770370254e+000	 8.440785257454930e+000
 1.150295967381827e+000	 2.905588440831705e+000	 8.709138192182868e+000
 1.121418875171983e+000	 2.916855276912609e+000	 8.639819139864223e+000
 1.092492471148978e+000	 2.927812357461445e+000	 8.580553376820857e+000
 1.063521501995824e+000	 2.938459973317808e+000	 8.531713387753964e+000
 1.034510687378216e+000	 2.948798507473302e+000	 8.493650777883293e+000
 1.005464717836273e+000	 2.958828433880891e+000	 8.466698453444492e+000
 9.763882527260590e-001	 2.968550316210615e+000	 8.451172794225846e+000
 9.472859182122877e-001	 2.977964806553808e+000	 8.447375810886017e+000
 9.181623053135277e-001	 2.987072644078004e+000	 8.455597280049982e+000
 8.890219680011547e-001	 2.995874653634759e+000	 8.476116850454128e+000
 8.598694213531549e-001	 3.004371744322613e+000	 8.509206113704432e+000
 1.159498335122191e+000	 2.928833148357375e+000	 8.786195981604124e+000
 1.130390226174833e+000	 2.940190119127211e+000	 8.700552580094774e+000
 1.101232410919777e+000	 2.951234856320653e+000	 8.629383728490616e+000
 1.072029674013502e+000	 2.961967653104012e+000	 8.573013739603070e+000
 1.042786772879025e+000	 2.972388895532827e+000	 8.531742168962163e+000
 1.013508435580789e+000	 2.982499061351686e+000	 8.505846160996432e+000
 9.841993587497061e-001	 2.992298718739987e+000	 8.495582789402354e+000
 9.548642055598070e-001	 3.001788525005797e+000	 8.501191384040114e+000
 9.255076037578098e-001	 3.010969225229992e+000	 8.522895836954749e+000
 8.961341437468618e-001	 3.019841650862941e+000	 8.560906880404209e+000
 8.667483767255724e-001	 3.028406718275971e+000	 8.615424330076023e+000
 1.168700702863060e+000	 2.952077855883055e+000	 8.896705064754364e+000
 1.139361577178282e+000	 2.963524961342014e+000	 8.795210205549029e+000
 1.109972350691261e+000	 2.974657355180230e+000	 8.712578989064079e+000
 1.080537846031938e+000	 2.985475332890735e+000	 8.649086654565942e+000
 1.051062858380658e+000	 2.995979283592999e+000	 8.604979819022960e+000
 1.021552153326183e+000	 3.006169688823234e+000	 8.580478990710908e+000
 9.920104647742748e-001	 3.016047121270203e+000	 8.575781079117938e+000
 9.624424929082825e-001	 3.025612243458701e+000	 8.591061893077329e+000
 9.328529022030730e-001	 3.034865806382944e+000	 8.626478619325935e+000
 9.032463194935642e-001	 3.043808648092115e+000	 8.682172273976091e+000
 8.736273320989901e-001	 3.052441692230329e+000	 8.758270119698521e+000
 1.177903070604434e+000	 2.975322563408745e+000	 9.039248234147062e+000
 1.148332928182332e+000	 2.986859803557016e+000	 8.922393777153713e+000
 1.118712290463430e+000	 2.998079854040177e+000	 8.828761549129709e+000
 1.089046018051134e+000	 3.008983012677976e+000	 8.758576787152192e+000
 1.059338943883114e+000	 3.019569671653818e+000	 8.712032252915316e+000
 1.029595871072454e+000	 3.029840316295539e+000	 8.689290915548034e+000
 9.998215707997656e-001	 3.039795523801263e+000	 8.690488632800966e+000
 9.700207802577143e-001	 3.049435961912515e+000	 8.715736822119180e+000
 9.401982006493166e-001	 3.058762387536855e+000	 8.765125113393470e+000
 9.103584952412615e-001	 3.067775645322277e+000	 8.838723975481575e+000
 8.805062874734078e-001	 3.076476666185687e+000	 8.936587308908726e+000
 1.187105438346313e+000	 2.998567270934446e+000	 9.212422275987358e+000
 1.157304279186982e+000	 3.010194645772219e+000	 9.080719136511737e+000
 1.127452230236283e+000	 3.021502352900493e+000	 8.976567926700145e+000
 1.097554190071088e+000	 3.032490692465735e+000	 8.900142926041777e+000
 1.067615029386393e+000	 3.043160059715283e+000	 8.851582096660678e+000
 1.037639588819603e+000	 3.053510943768599e+000	 8.830989937174833e+000
 1.007632676826178e+000	 3.063543926333166e+000	 8.838440336954800e+000
 9.775990676081021e-001	 3.073259680367242e+000	 8.873979421882673e+000
 9.475434990965406e-001	 3.082658968691728e+000	 8.937628382995467e+000
 9.174706709899542e-001	 3.091742642553431e+000	 9.029386279704296e+000
 8.873852428488256e-001	 3.100511640142046e+000	 9.149232809607668e+000
 1.196307806088698e+000	 3.021811978460158e+000	 9.414837431953140e+000
 1.166275630192232e+000	 3.033529487987621e+000	 9.268815664337923e+000
 1.136192170009821e+000	 3.044924851761178e+000	 9.154648223849756e+000
 1.106062362091802e+000	 3.055998372254013e+000	 9.072457450463160e+000
 1.075891114890496e+000	 3.066750447777396e+000	 9.022325535099585e+000
 1.045683306567630e+000	 3.077181571242415e+000	 9.004297546399565e+000
 1.015443782853513e+000	 3.087292328865915e+000	 9.018384459885558e+000
 9.851773549594465e-001	 3.097083398822883e+000	 9.064566180195925e+000
 9.548887975447457e-001	 3.106555549847563e+000	 9.142794547362710e+000
 9.245828467396422e-001	 3.115709639785575e+000	 9.252996318420372e+000
 8.942641982252435e-001	 3.124546614099404e+000	 9.395076115969737e+000
 8.254746445060665e-001	 2.884196874570822e+000	 8.568979397534395e+000
 7.974807741809102e-001	 2.892062311710120e+000	 8.483331124722499e+000
 7.694837330099383e-001	 2.899637009115428e+000	 8.430837908902324e+000
 7.414877333616478e-001	 2.906922073477395e+000	 8.411835685924078e+000
 7.134969437225316e-001	 2.913918686458521e+000	 8.426641612184518e+000
 6.855154872010129e-001	 2.920628103131092e+000	 8.475555884152222e+000
 6.575474400885762e-001	 2.927051650385220e+000	 8.558863516406118e+000
 6.295968304785271e-001	 2.933190725309185e+000	 8.676836073844736e+000
 6.016676369427254e-001	 2.939046793544277e+000	 8.557029402524575e+000
 5.737637872665514e-001	 2.944621387616330e+000	 8.349269657873609e+000
 5.458891572422751e-001	 2.949916105246086e+000	 8.099997931588780e+000
 8.323535998734841e-001	 2.908231848519181e+000	 8.474220729385554e+000
 8.041264472955336e-001	 2.916162830967627e+000	 8.408178287456394e+000
 7.758960974481322e-001	 2.923800650851029e+000	 8.368434653254187e+000
 7.476667978028474e-001	 2.931146424082455e+000	 8.355266262549936e+000
 7.194427515835592e-001	 2.938201342171590e+000	 8.368937748766804e+000
 6.912281162579265e-001	 2.944966670649659e+000	 8.409703743377065e+000
 6.630270020865289e-001	 2.951443747464190e+000	 8.477810626007027e+000
 6.348434707301159e-001	 2.957633981345864e+000	 8.573498220078179e+000
 6.066815339153117e-001	 2.963538850149649e+000	 8.468002460306865e+000
 5.785451521590409e-001	 2.969159899172426e+000	 8.200498009573327e+000
 5.504382335518416e-001	 2.974498739449277e+000	 7.878849293058316e+000
 8.392325552419019e-001	 2.932266822468538e+000	 8.422086186357232e+000
 8.107721204111463e-001	 2.940263350226134e+000	 8.373375988168128e+000
 7.823084618872848e-001	 2.947964292587630e+000	 8.344244133648425e+000
 7.538458622449540e-001	 2.955370774688512e+000	 8.334906487031681e+000
 7.253885594454216e-001	 2.962483997885659e+000	 8.345574016361010e+000
 6.969407453155827e-001	 2.969305238169226e+000	 8.376454577801004e+000
 6.685065640851122e-001	 2.975835844544160e+000	 8.427754640859325e+000
 6.400901109822031e-001	 2.982077237383543e+000	 8.499680950512243e+000
 6.116954308882447e-001	 2.988030906756019e+000	 8.414656679218032e+000
 5.833265170517062e-001	 2.993698410729522e+000	 8.085227496840508e+000
 5.549873098613937e-001	 2.999081373653468e+000	 7.688991153643206e+000
 8.461115106113193e-001	 2.956301796418897e+000	 8.411345714789171e+000
 8.174177935277489e-001	 2.964363869485642e+000	 8.377784049984056e+000
 7.887208263273956e-001	 2.972127934325231e+000	 8.357213139046591e+000
 7.600249266879676e-001	 2.979595125295572e+000	 8.349787180552283e+000
 7.313343673081191e-001	 2.986766653600728e+000	 8.355662314059595e+000
 7.026533743739817e-001	 2.993643805689793e+000	 8.374998391375355e+000
 6.739861260843261e-001	 3.000227941625130e+000	 8.407960679937375e+000
 6.453367512347888e-001	 3.006520493422221e+000	 8.454721494467895e+000
 6.167093278615247e-001	 3.012522963363392e+000	 8.397128703581220e+000
 5.881078819445469e-001	 3.018236922287618e+000	 8.003645345654341e+000
 5.595363861709308e-001	 3.023664007858659e+000	 7.530656419413454e+000
 8.529904659817370e-001	 2.980336770370254e+000	 8.440785257454930e+000
 8.240634666453410e-001	 2.988464388746150e+000	 8.420276184334071e+000
 7.951331907684651e-001	 2.996291576063831e+000	 8.406300337848203e+000
 7.662039911318878e-001	 3.003819475903630e+000	 8.398949134228717e+000
 7.372801751716512e-001	 3.011049309316797e+000	 8.398322700783561e+000
 7.083660034331233e-001	 3.017982373211360e+000	 8.404531637151747e+000
 6.794656880841703e-001	 3.024620038707100e+000	 8.417698699885152e+000
 6.505833914878733e-001	 3.030963749461901e+000	 8.437960406666267e+000
 6.217232248351515e-001	 3.037015019971764e+000	 8.415557089819338e+000
 5.928892468375637e-001	 3.042775433846714e+000	 7.955939379514089e+000
 5.640854624804536e-001	 3.048246642064849e+000	 7.404077377800036e+000
 8.598694213531549e-001	 3.004371744322613e+000	 8.509206113704432e+000
 8.307091397639229e-001	 3.012564908007657e+000	 8.499739435419400e+000
 8.015455552104932e-001	 3.020455217803432e+000	 8.490475802712963e+000
 7.723830555767151e-001	 3.028043826512689e+000	 8.481442710314216e+000
 7.432259830360183e-001	 3.035331965033867e+000	 8.472683068889296e+000
 7.140786324930076e-001	 3.042320940733928e+000	 8.464256959318133e+000
 6.849452500846452e-001	 3.049012135790070e+000	 8.456243301509620e+000
 6.558300317414558e-001	 3.055407005502579e+000	 8.448741434212767e+000
 6.267371218091252e-001	 3.061507076581135e+000	 8.441872602667154e+000
 5.976706117307562e-001	 3.067313945406811e+000	 7.942297995538319e+000
 5.686345387899615e-001	 3.072829276272041e+000	 7.309485722340435e+000
 8.667483767255724e-001	 3.028406718275971e+000	 8.615424330076023e+000
 8.373548128834940e-001	 3.036665427270165e+000	 8.615073651134313e+000
 8.079579196534796e-001	 3.044618859544032e+000	 8.608720558011099e+000
 7.785621200224494e-001	 3.052268177122748e+000	 8.596327462391605e+000
 7.491717909012202e-001	 3.059614620751936e+000	 8.577878833317952e+000
 7.197912615536347e-001	 3.066659508257495e+000	 8.553382947518781e+000
 6.904248120857505e-001	 3.073404232874039e+000	 8.522873545488531e+000
 6.610766719955372e-001	 3.079850261544258e+000	 8.486411389914986e+000
 6.317510187834454e-001	 3.085999133191507e+000	 8.444085723458974e+000
 6.024519766241242e-001	 3.091852456967906e+000	 7.962910141702295e+000
 5.731836150994546e-001	 3.097411910480231e+000	 7.247112576245943e+000
 8.736273320989901e-001	 3.052441692230329e+000	 8.758270119698521e+000
 8.440004860040550e-001	 3.060765946533674e+000	 8.765190978983796e+000
 8.143702840974244e-001	 3.068782501285632e+000	 8.760026148653294e+000
 7.847411844690904e-001	 3.076492527733806e+000	 8.742671773509747e+000
 7.551175987672572e-001	 3.083897276471005e+000	 8.713052635430577e+000
 7.255038906150046e-001	 3.090998075782062e+000	 8.671123902781144e+000
 6.959043740874865e-001	 3.097796329959009e+000	 8.616872776784788e+000
 6.663233122501171e-001	 3.104293517586938e+000	 8.550320031585917e+000
 6.367649157581130e-001	 3.110491189802879e+000	 8.471521445163022e+000
 6.072333415176682e-001	 3.116390968530002e+000	 8.017965295150523e+000
 5.777326914089334e-001	 3.121994544689422e+000	 7.217188514855246e+000
 8.805062874734078e-001	 3.076476666185687e+000	 8.936587308908726e+000
 8.506461591256057e-001	 3.084866465798181e+000	 8.949015385629963e+000
 8.207826485423281e-001	 3.092946143028234e+000	 8.943394229132270e+000
 7.909202489166383e-001	 3.100716878345866e+000	 8.919552511282486e+000
 7.610634066341288e-001	 3.108179932191074e+000	 8.877354060726248e+000
 7.312165196771172e-001	 3.115336643307630e+000	 8.816699614414924e+000
 7.013839360898529e-001	 3.122188427044979e+000	 8.737528457291766e+000
 6.715699525051954e-001	 3.128736773630617e+000	 8.727383329585200e+000
 6.417788127331272e-001	 3.134983246415251e+000	 8.757008695284863e+000
 6.120147064113878e-001	 3.140929480093099e+000	 8.479114991415802e+000
 5.822817677183971e-001	 3.146577178899613e+000	 7.730663501295803e+000
 8.873852428488256e-001	 3.100511640142046e+000	 9.149232809607668e+000
 8.572918322481457e-001	 3.108966985063688e+000	 9.165482198785227e+000
 8.271950129881900e-001	 3.117109784771833e+000	 9.157836171678568e+000
 7.970993133650929e-001	 3.124941228958924e+000	 9.126054699029687e+000
 7.670092145018357e-001	 3.132462587912143e+000	 9.237547059952016e+000
 7.369291487399725e-001	 3.139675210834196e+000	 9.321937964667695e+000
 7.068634980928500e-001	 3.146580524131949e+000	 9.375571847857227e+000
 6.768165927607722e-001	 3.153180029675296e+000	 9.396369279660519e+000
 6.467927097084881e-001	 3.159475303028622e+000	 9.382520912865626e+000
 6.167960713052829e-001	 3.165467991657194e+000	 9.147042705154483e+000
 5.868308440278466e-001	 3.171159813110805e+000	 8.315788711402412e+000
 8.942641982252435e-001	 3.124546614099404e+000	 9.395076115969737e+000
 8.639375053716756e-001	 3.133067504330197e+000	 9.580931641363362e+000
 8.336073774350107e-001	 3.141273426516435e+000	 9.747933931760842e+000
 8.032783778144549e-001	 3.149165579572983e+000	 9.883666484053608e+000
 7.729550223703774e-001	 3.156745243634214e+000	 9.985148770054234e+000
 7.426417778035707e-001	 3.164013778361765e+000	 1.004969376874435e+001
 7.123430600964776e-001	 3.170972621219920e+000	 1.007490487739769e+001
 6.820632330168476e-001	 3.177623285720976e+000	 1.005867231847924e+001
 6.518066066841962e-001	 3.183967359642995e+000	 9.999169064554465e+000
 6.215774361993540e-001	 3.190006503222291e+000	 9.814182168899411e+000
 5.913799203372813e-001	 3.195742447322996e+000	 8.898601847531161e+000
 5.458891572422751e-001	 2.949916105246086e+000	 8.099997931588780e+000
 5.180475695206517e-001	 2.954932607640603e+000	 8.286037583355050e+000
 4.902427925216797e-001	 2.959672617767659e+000	 8.447724517505904e+000
 4.624785394036050e-001	 2.964137918615402e+000	 8.586108187886715e+000
 4.347584670896675e-001	 2.968330351439361e+000	 8.702505743737412e+000
 4.070861753532337e-001	 2.972251813998719e+000	 8.798493884665732e+000
 3.794652059606907e-001	 2.975904258783907e+000	 8.875900359912754e+000
 3.518990418717319e-001	 2.979289691237467e+000	 8.936795141501419e+000
 3.243911064965978e-001	 2.982410167970138e+000	 8.983481300812322e+000
 2.969447630097779e-001	 2.985267794974027e+000	 9.018485618000902e+000
 2.695633137196015e-001	 2.987864725834731e+000	 9.044548953449965e+000
 5.504382335518416e-001	 2.974498739449277e+000	 7.878849293058316e+000
 5.223646325997995e-001	 2.979557046030643e+000	 8.032356120667389e+000
 4.943281491263213e-001	 2.984336556242365e+000	 8.159303385965350e+000
 4.663325272326387e-001	 2.988839067930820e+000	 8.260747739975523e+000
 4.383814543163538e-001	 2.993066437695334e+000	 8.338020742407020e+000
 4.104785601489446e-001	 2.997020579109751e+000	 8.392720535698858e+000
 3.826274160115197e-001	 3.000703460935255e+000	 8.426703153340919e+000
 3.548315338884371e-001	 3.004117105326406e+000	 8.442073492789982e+000
 3.270943657183573e-001	 3.007263586032367e+000	 8.441175983254972e+000
 2.994193027022248e-001	 3.010145026595181e+000	 8.426584978494436e+000
 2.718096746676061e-001	 3.012763598546989e+000	 8.401094904546667e+000
 5.549873098613937e-001	 2.999081373653468e+000	 7.688991153643206e+000
 5.266816956787482e-001	 3.004181484421681e+000	 7.809319823949183e+000
 4.984135057306106e-001	 3.009000494718050e+000	 7.900674213890321e+000
 4.701865150611981e-001	 3.013540217247192e+000	 7.964119208618979e+000
 4.420044415424734e-001	 3.017802523952225e+000	 8.001002037619559e+000
 4.138709449440277e-001	 3.021789344221657e+000	 8.012943762104165e+000
 3.857896260616890e-001	 3.025502663087416e+000	 8.001830386448123e+000
 3.577640259044809e-001	 3.028944519416094e+000	 7.969803624726327e+000
 3.297976249394828e-001	 3.032117004095270e+000	 7.919251353375457e+000
 3.018938423940943e-001	 3.035022258216922e+000	 7.852797780867818e+000
 2.740560356151188e-001	 3.037662471259737e+000	 7.773293365061823e+000
 5.595363861709308e-001	 3.023664007858659e+000	 7.530656419413454e+000
 5.309987587574980e-001	 3.028805922813711e+000	 7.617163459065696e+000
 5.024988623345476e-001	 3.033664433194716e+000	 7.672073067980535e+000
 4.740405028892825e-001	 3.038241366564517e+000	 7.696459397179724e+000
 4.456274287680266e-001	 3.042538610210034e+000	 7.691686601394503e+000
 4.172633297384822e-001	 3.046558109334430e+000	 7.659400134066808e+000
 3.889518361111983e-001	 3.050301865240394e+000	 7.601517655927486e+000
 3.606965179198629e-001	 3.053771933506530e+000	 7.520219588977043e+000
 3.325008841599741e-001	 3.056970422158845e+000	 7.417939347656822e+000
 3.043683820853866e-001	 3.059899489839250e+000	 7.297353278861694e+000
 2.763023965621398e-001	 3.062561343972977e+000	 7.161370342219229e+000
 5.640854624804536e-001	 3.048246642064849e+000	 7.404077377800036e+000
 5.353158218360488e-001	 3.053430361206738e+000	 7.456121310980167e+000
 5.065842189381322e-001	 3.058328371672358e+000	 7.473735630239641e+000
 4.778944907168923e-001	 3.062942515882795e+000	 7.458004779330180e+000
 4.492504159930130e-001	 3.067274696468759e+000	 7.410311090218241e+000
 4.206557145323085e-001	 3.071326874448076e+000	 7.332325879915830e+000
 3.921140461600480e-001	 3.075101067394186e+000	 7.226000150200798e+000
 3.636290099345831e-001	 3.078599347597715e+000	 7.093554922832167e+000
 3.352041433798315e-001	 3.081823840223094e+000	 6.937471242830534e+000
 3.068429217761015e-001	 3.084776721462165e+000	 6.760479882257003e+000
 2.785487575086692e-001	 3.087460216686710e+000	 6.565550776692226e+000
 5.686345387899615e-001	 3.072829276272041e+000	 7.309485722340435e+000
 5.396328849144008e-001	 3.078054799600758e+000	 7.326427202989979e+000
 5.106695755413646e-001	 3.082992310150981e+000	 7.305897213362409e+000
 4.817484785440273e-001	 3.087643665202026e+000	 7.248991512239834e+000
 4.528734032174329e-001	 3.092010782728402e+000	 7.157111857665115e+000
 4.240480993255067e-001	 3.096095639562592e+000	 7.031956899798879e+000
 3.952762562082376e-001	 3.099900269548792e+000	 6.875512665749279e+000
 3.665615019486416e-001	 3.103426761689649e+000	 6.690042669780144e+000
 3.379074025990547e-001	 3.106677258288014e+000	 6.478077682267075e+000
 3.093174614662391e-001	 3.109653953085666e+000	 6.242405190633650e+000
 2.807951184547069e-001	 3.112359089400934e+000	 5.986058585265616e+000
 5.731836150994546e-001	 3.097411910480231e+000	 7.247112576245943e+000
 5.439499479925536e-001	 3.102679237995774e+000	 7.228314515046770e+000
 5.147549321442447e-001	 3.107656248630582e+000	 7.168792775390581e+000
 4.856024663706874e-001	 3.112344814522210e+000	 7.069655449135265e+000
 4.564963904412860e-001	 3.116746868988962e+000	 6.932324966418212e+000
 4.274404841180766e-001	 3.120864404677980e+000	 6.758528778705196e+000
 3.984384662557676e-001	 3.124699471704213e+000	 6.550289622666550e+000
 3.694939939620384e-001	 3.128254175782330e+000	 6.438630659114772e+000
 3.406106618176438e-001	 3.131530676353607e+000	 6.322848211829851e+000
 3.117920011557994e-001	 3.134531184709755e+000	 6.195858032603446e+000
 2.830414794002528e-001	 3.137257962115649e+000	 6.061004542204150e+000
 5.777326914089334e-001	 3.121994544689422e+000	 7.217188514855246e+000
 5.482670110705072e-001	 3.127303676391783e+000	 7.219955469812380e+000
 5.188402887467726e-001	 3.132320187111164e+000	 7.255847571276646e+000
 4.894564541968731e-001	 3.137045963843348e+000	 7.258427010867855e+000
 4.601193776645727e-001	 3.141482955250438e+000	 7.233931348911146e+000
 4.308328689100183e-001	 3.145633169794238e+000	 7.188076117438664e+000
 4.016006763026376e-001	 3.149498673860448e+000	 7.126064789134272e+000
 3.724264859747737e-001	 3.153081589875761e+000	 7.052599435223328e+000
 3.433139210355988e-001	 3.156384094419873e+000	 6.971892024186887e+000
 3.142665408447822e-001	 3.159408416334431e+000	 6.887676313248440e+000
 2.852878403453070e-001	 3.162156834830856e+000	 6.803220284793602e+000
 5.822817677183971e-001	 3.146577178899613e+000	 7.730663501295803e+000
 5.525840741482619e-001	 3.151928114788789e+000	 7.786946227870579e+000
 5.229256453489481e-001	 3.156984125592723e+000	 7.811128007613777e+000
 4.933104420225839e-001	 3.161747113165438e+000	 7.810005033676813e+000
 4.637423648872925e-001	 3.166219041512832e+000	 7.789825763753388e+000
 4.342252537013316e-001	 3.170401934911366e+000	 7.756300566946781e+000
 4.047628863488477e-001	 3.174297876017497e+000	 7.714612124964529e+000
 3.753589779868471e-001	 3.177909003969940e+000	 7.669426538176712e+000
 3.460171802529196e-001	 3.181237512486811e+000	 7.624905087001956e+000
 3.167410805331877e-001	 3.184285647959694e+000	 7.584716599163696e+000
 2.875342012898696e-001	 3.187055707546556e+000	 7.552050373587321e+000
 5.868308440278466e-001	 3.171159813110805e+000	 8.315788711402412e+000
 5.569011372258178e-001	 3.176552553186789e+000	 8.352466527955983e+000
 5.270110019507714e-001	 3.181648064075263e+000	 8.365179127828704e+000
 4.971644298478201e-001	 3.186448262488483e+000	 8.360749325835508e+000
 4.673653521094459e-001	 3.190955127776143e+000	 8.345435483062081e+000
 4.376176384920170e-001	 3.195170700029367e+000	 8.324941575737904e+000
 4.079250963943982e-001	 3.199097078175363e+000	 8.304428036016361e+000
 3.782914699982589e-001	 3.202736418064867e+000	 8.288523313753469e+000
 3.487204394696065e-001	 3.206090930554421e+000	 8.281336108311473e+000
 3.192156202210159e-001	 3.209162879585544e+000	 8.286468219503654e+000
 2.897805622339404e-001	 3.211954580262747e+000	 8.307027967038687e+000
 5.913799203372813e-001	 3.195742447322996e+000	 8.898601847531161e+000
 5.612182003031748e-001	 3.201176991585784e+000	 8.915774142333778e+000
 5.310963585522425e-001	 3.206312002558782e+000	 8.917275657564900e+000
 5.010184176725815e-001	 3.211149411812481e+000	 8.909955046193360e+000
 4.709883393310327e-001	 3.215691214040372e+000	 8.900079543299665e+000
 4.410100232820740e-001	 3.219939465148238e+000	 8.893345464145590e+000
 4.110873064392889e-001	 3.223896280334044e+000	 8.894889491970595e+000
 3.812239620090090e-001	 3.227563832160544e+000	 8.909300703140399e+000
 3.514236986856592e-001	 3.230944348622705e+000	 8.940633277213172e+000
 3.216901599082669e-001	 3.234040111211981e+000	 8.992419839591952e+000
 2.920269231775196e-001	 3.236853452979430e+000	 9.067685384687199e+000
 2.695633137196015e-001	 2.987864725834731e+000	 9.044548953449965e+000
 2.422499994928616e-001	 2.990203159944074e+000	 9.123451873582555e+000
 2.150079992345209e-001	 2.992285340715546e+000	 9.201983425945635e+000
 1.878404294212756e-001	 2.994113553803930e+000	 9.283614463902568e+000
 1.607503436877059e-001	 2.995690125330548e+000	 9.371983336547334e+000
 1.337407324649106e-001	 2.997017420116060e+000	 9.470885512516089e+000
 1.068145226705124e-001	 2.998097839922249e+000	 9.584263139065008e+000
 7.997457744910133e-002	 2.998933821704276e+000	 9.716194561801460e+000
 5.322369596216075e-002	 2.999527835874867e+000	 9.870883829699464e+000
 2.656461322647793e-002	 2.999882384581794e+000	 1.005265020923649e+001
 0.000000000000000e+000	 3.000000000000000e+000	 1.026591773064614e+001
 2.718096746676061e-001	 3.012763598546989e+000	 8.401094904546667e+000
 2.442687494886068e-001	 3.015121519607826e+000	 8.430183948051237e+000
 2.167997325611536e-001	 3.017221051886249e+000	 8.453627449231684e+000
 1.894057663325807e-001	 3.019064500084158e+000	 8.474952204662602e+000
 1.620899298844222e-001	 3.020654209707225e+000	 8.497860706133929e+000
 1.348552385680359e-001	 3.021992565282949e+000	 8.526220455658068e+000
 1.077046436920234e-001	 3.023081988587792e+000	 8.564053210757496e+000
 8.064103226051250e-002	 3.023924936884879e+000	 8.615524186219686e+000
 5.366722676133132e-002	 3.024523901173706e+000	 8.684931237736095e+000
 2.678598500307297e-002	 3.024881404453279e+000	 8.776694052021826e+000
 0.000000000000000e+000	 3.025000000000000e+000	 8.895343367156420e+000
 2.740560356151188e-001	 3.037662471259737e+000	 7.773293365061823e+000
 2.462874994839552e-001	 3.040039879271976e+000	 7.748196465898320e+000
 2.185914658874736e-001	 3.042156763057263e+000	 7.712053312680895e+000
 1.909711032436471e-001	 3.044015446364626e+000	 7.668449648492621e+000
 1.634295160809640e-001	 3.045618294084078e+000	 7.621155234175173e+000
 1.359697446710402e-001	 3.046967710449958e+000	 7.574112848040309e+000
 1.085947647134573e-001	 3.048066137253413e+000	 7.531427210840944e+000
 8.130748707188042e-002	 3.048916052065525e+000	 7.497353863004476e+000
 5.411075756048274e-002	 3.049519966472564e+000	 7.476288020338351e+000
 2.700735677966324e-002	 3.049880424324769e+000	 7.472753433583685e+000
 0.000000000000000e+000	 3.050000000000000e+000	 7.491391276310675e+000
 2.763023965621398e-001	 3.062561343972977e+000	 7.161370342219229e+000
 2.483062494789065e-001	 3.064958238936522e+000	 7.077753582437260e+000
 2.203831992134811e-001	 3.067092474228589e+000	 6.977561262280783e+000
 1.925364401544751e-001	 3.068966392645331e+000	 6.864441081190371e+000
 1.647691022773311e-001	 3.070582378461104e+000	 6.742233203831850e+000
 1.370842507739238e-001	 3.071942855617088e+000	 6.614958937965548e+000
 1.094848857348142e-001	 3.073050285919111e+000	 6.486809332517695e+000
 8.197394188320514e-002	 3.073907167246214e+000	 6.362133723684835e+000
 5.455428835961503e-002	 3.074516031771442e+000	 6.245428256091942e+000
 2.722872855624875e-002	 3.074879444196264e+000	 6.141324405169668e+000
 0.000000000000000e+000	 3.075000000000000e+000	 6.054577526010112e+000
 2.785487575086692e-001	 3.087460216686710e+000	 6.565550776692226e+000
 2.503249994734609e-001	 3.089876598601465e+000	 6.419116772585000e+000
 2.221749325391760e-001	 3.092028185400229e+000	 6.250447260875083e+000
 1.941017770650646e-001	 3.093917338926275e+000	 6.063254914270651e+000
 1.661086884735236e-001	 3.095546462838306e+000	 5.861453444947586e+000
 1.381987568766865e-001	 3.096918000784339e+000	 5.649145953972538e+000
 1.103750067560940e-001	 3.098034434584885e+000	 5.430613195832629e+000
 8.264039669448670e-002	 3.098898282426946e+000	 5.210301786745872e+000
 5.499781915872820e-002	 3.099512097070338e+000	 4.992812384597990e+000
 2.745010033282948e-002	 3.099878464067764e+000	 4.782887867470729e+000
 0.000000000000000e+000	 3.100000000000000e+000	 4.585401536804058e+000
 2.807951184547069e-001	 3.112359089400934e+000	 5.986058585265616e+000
 2.523437494676183e-001	 3.114794958266807e+000	 5.772544938078248e+000
 2.239666658645582e-001	 3.116963896572182e+000	 5.531003159489671e+000
 1.956671139754155e-001	 3.118868285207458e+000	 5.265213919936978e+000
 1.674482746695415e-001	 3.120510547215681e+000	 4.979167632182011e+000
 1.393132629793283e-001	 3.121893145951711e+000	 4.677052465626190e+000
 1.112651277772967e-001	 3.123018583250737e+000	 4.363242270599153e+000
 8.330685150572503e-002	 3.123889397607721e+000	 4.042284442151054e+000
 5.544134995782223e-002	 3.124508162369253e+000	 3.718887752032277e+000
 2.767147210940546e-002	 3.124877483939268e+000	 3.397910176642673e+000
 0.000000000000000e+000	 3.125000000000000e+000	 3.084346747784788e+000
 2.830414794002528e-001	 3.137257962115649e+000	 6.061004542204150e+000
 2.543624994613788e-001	 3.139713317932543e+000	 5.976875329653196e+000
 2.257583991896280e-001	 3.141899607744446e+000	 5.873004753648671e+000
 1.972324508855279e-001	 3.143819231488879e+000	 5.751519605833141e+000
 1.687878608653847e-001	 3.145474631593233e+000	 5.614158903474327e+000
 1.404277690818493e-001	 3.146868291119204e+000	 5.462287498017634e+000
 1.121552487984223e-001	 3.148002731916666e+000	 5.296909944108517e+000
 8.397330631692018e-002	 3.148880512788539e+000	 5.118684587967310e+000
 5.588488075689713e-002	 3.149504227668189e+000	 4.927937835051231e+000
 2.789284388597667e-002	 3.149876503810777e+000	 4.724678558066932e+000
 0.000000000000000e+000	 3.150000000000000e+000	 4.508612607592200e+000
 2.852878403453070e-001	 3.162156834830856e+000	 6.803220284793602e+000
 2.563812494547424e-001	 3.164631677598678e+000	 6.770942796524974e+000
 2.275501325143851e-001	 3.166835318917024e+000	 6.723263592952470e+000
 1.987977877954018e-001	 3.168770177770539e+000	 6.662181258212460e+000
 1.701274470610533e-001	 3.170438715970958e+000	 6.589298016079384e+000
 1.415422751842495e-001	 3.171843436286817e+000	 6.505833799630856e+000
 1.130453698194709e-001	 3.172986880582671e+000	 6.412640583244287e+000
 8.463976112807213e-002	 3.173871627969401e+000	 6.310216934763195e+000
 5.632841155595290e-002	 3.174500292967142e+000	 6.198722746759191e+000
 2.811421566254312e-002	 3.174875523682292e+000	 6.077994106980806e+000
 0.000000000000000e+000	 3.175000000000000e+000	 5.947558269312808e+000
 2.875342012898696e-001	 3.187055707546556e+000	 7.552050373587321e+000
 2.583999994477090e-001	 3.189550037265209e+000	 7.571666478709508e+000
 2.293418658388295e-001	 3.191771030089913e+000	 7.580408411988533e+000
 2.003631247050372e-001	 3.193721124052436e+000	 7.580143788721049e+000
 1.714670332565472e-001	 3.195402800348858e+000	 7.572335086150551e+000
 1.426567812865288e-001	 3.196818581454552e+000	 7.558054183243498e+000
 1.139354908404424e-001	 3.197971029248754e+000	 7.537997164705240e+000
 8.530621593918086e-002	 3.198862743150305e+000	 7.512499346010443e+000
 5.677194235498956e-002	 3.199496358266116e+000	 7.481550477347294e+000
 2.833558743910480e-002	 3.199874543553810e+000	 7.444810085575118e+000
 0.000000000000000e+000	 3.199999999999999e+000	 7.401622914567399e+000
 2.897805622339404e-001	 3.211954580262747e+000	 8.307027967038687e+000
 2.604187494402786e-001	 3.214468396932137e+000	 8.378661115266876e+000
 2.311335991629615e-001	 3.216706741263115e+000	 8.444137390169892e+000
 2.019284616144341e-001	 3.218672070334574e+000	 8.505190619605221e+000
 1.728066194518666e-001	 3.220366884726932e+000	 8.563140522837507e+000
 1.437712873886872e-001	 3.221793726622408e+000	 8.618907729514421e+000
 1.148256118613368e-001	 3.222955177914914e+000	 8.673029064837261e+000
 8.597267075024639e-002	 3.223853858331254e+000	 8.725673056618279e+000
 5.721547315400705e-002	 3.224492423565107e+000	 8.776655621077396e+000
 2.855695921566170e-002	 3.224873563425334e+000	 8.825455885469015e+000
 0.000000000000000e+000	 3.224999999999999e+000	 8.871232106941999e+000
 2.920269231775196e-001	 3.236853452979430e+000	 9.067685384687199e+000
 2.624374994324514e-001	 3.239386756599464e+000	 9.191539336945064e+000
 2.329253324867810e-001	 3.241642452436632e+000	 9.314145337928517e+000
 2.034937985235925e-001	 3.243623016616949e+000	 9.437100552592215e+000
 1.741462056470113e-001	 3.245330969105182e+000	 9.561578872753961e+000
 1.448857934907249e-001	 3.246768871790385e+000	 9.688346424449906e+000
 1.157157328821542e-001	 3.247939326581152e+000	 9.817777343485306e+000
 8.663912556126877e-002	 3.248844973512246e+000	 9.949869773770724e+000
 5.765900395300546e-002	 3.249488488864120e+000	 1.008426204423050e+001
 2.877833099221386e-002	 3.249872583296864e+000	 1.022024898134736e+001
 0.000000000000000e+000	 3.250000000000000e+000	 1.035679831575857e+001
 3.250000000000000e+000	 0.000000000000000e+000	 1.168762092412981e+001
 3.249872583296864e+000	 2.877833099221397e-002	 1.166198169335101e+001
 3.249488488864120e+000	 5.765900395300565e-002	 1.160647297465414e+001
 3.248844973512246e+000	 8.663912556126854e-002	 1.152712869630018e+001
 3.247939326581152e+000	 1.157157328821541e-001	 1.143005241883198e+001
 3.246768871790384e+000	 1.448857934907248e-001	 1.132143021902757e+001
 3.245330969105183e+000	 1.741462056470114e-001	 1.120754430505432e+001
 3.243623016616949e+000	 2.034937985235927e-001	 1.109478735255361e+001
 3.241642452436632e+000	 2.329253324867808e-001	 1.098967754842749e+001
 3.239386756599463e+000	 2.624374994324513e-001	 1.089887432604714e+001
 3.236853452979430e+000	 2.920269231775197e-001	 1.082919477246412e+001
 3.275000000000000e+000	 0.000000000000000e+000	 1.142984807139411e+001
 3.274871603168394e+000	 2.899970276876611e-002	 1.141848587759426e+001
 3.274484554163141e+000	 5.810253475200403e-002	 1.138161691850983e+001
 3.273836088693259e+000	 8.730558037229089e-002	 1.132460800150682e+001
 3.272923475247428e+000	 1.166058539029715e-001	 1.125287830260254e+001
 3.271744016958421e+000	 1.460002995927624e-001	 1.117191289157263e+001
 3.270295053483519e+000	 1.754857918421561e-001	 1.108727703612042e+001
 3.268573962899444e+000	 2.050591354327511e-001	 1.100463127496701e+001
 3.266578163610304e+000	 2.347170658106001e-001	 1.092974724664666e+001
 3.264305116266987e+000	 2.644562494246239e-001	 1.086852425762279e+001
 3.261752325696358e+000	 2.942732841210988e-001	 1.082700657007569e+001
 3.300000000000000e+000	 0.000000000000000e+000	 1.121119279030420e+001
 3.299870623039924e+000	 2.922107454532303e-002	 1.120951586934020e+001
 3.299480619462162e+000	 5.854606555102154e-002	 1.118671044070871e+001
 3.298827203874272e+000	 8.797203518335642e-002	 1.114747022505337e+001
 3.297907623913702e+000	 1.174959749238659e-001	 1.109652389678355e+001
 3.296719162126458e+000	 1.471148056949209e-001	 1.103864925893077e+001
 3.295259137861856e+000	 1.768253780374754e-001	 1.097868824550474e+001
 3.293524909181938e+000	 2.066244723421480e-001	 1.092156274133474e+001
 3.291513874783975e+000	 2.365087991347321e-001	 1.087229120619222e+001
 3.289223475934511e+000	 2.664749994171936e-001	 1.083600608670099e+001
 3.286651198413287e+000	 2.965196450651695e-001	 1.081797199615149e+001
 3.324999999999999e+000	 0.000000000000000e+000	 1.102743038251915e+001
 3.324869642911456e+000	 2.944244632188471e-002	 1.103141311095922e+001
 3.324476684761182e+000	 5.898959635005818e-002	 1.101866356416977e+001
 3.323818319055285e+000	 8.863848999446515e-002	 1.099319616246497e+001
 3.322891772579979e+000	 1.183860959448374e-001	 1.095904270808138e+001
 3.321694307294494e+000	 1.482293117972002e-001	 1.092026721850926e+001
 3.320223222240192e+000	 1.781649642329694e-001	 1.088098163634629e+001
 3.318475855464432e+000	 2.081898092517834e-001	 1.084536240578673e+001
 3.316449585957646e+000	 2.383005324591765e-001	 1.081766790255107e+001
 3.314141835602035e+000	 2.684937494101602e-001	 1.080225670064943e+001
 3.311550071130215e+000	 2.987660060097320e-001	 1.080360665585566e+001
 3.350000000000000e+000	 0.000000000000000e+000	 1.087446226009624e+001
 3.349868662782986e+000	 2.966381809845116e-002	 1.088063573012932e+001
 3.349472750060204e+000	 5.943312714911397e-002	 1.087449353199995e+001
 3.348809434236297e+000	 8.930494480561710e-002	 1.085936432743732e+001
 3.347875921246254e+000	 1.192762169658859e-001	 1.083857642566347e+001
 3.346669452462531e+000	 1.493438178996003e-001	 1.081547328405129e+001
 3.345187306618529e+000	 1.795045504286380e-001	 1.079342993492654e+001
 3.343426801746927e+000	 2.097551461616573e-001	 1.077587032875039e+001
 3.341385297131318e+000	 2.400922657839337e-001	 1.076628558049639e+001
 3.339060195269558e+000	 2.705124994035237e-001	 1.076825310249698e+001
 3.336448943847143e+000	 3.010123669547863e-001	 1.078545660339183e+001
 3.375000000000000e+000	 0.000000000000000e+000	 1.074831127473515e+001
 3.374867682654517e+000	 2.988518987502237e-002	 1.075375421815842e+001
 3.374468815359225e+000	 5.987665794818887e-002	 1.075132083637560e+001
 3.373800549417310e+000	 8.997139961681223e-002	 1.074364733264521e+001
 3.372860069912530e+000	 1.201663379870116e-001	 1.073335165514123e+001
 3.371644597630567e+000	 1.504583240021213e-001	 1.072304967391982e+001
 3.370151390996865e+000	 1.808441366244812e-001	 1.071537233425661e+001
 3.368377748029421e+000	 2.113204830717697e-001	 1.071298377671746e+001
 3.366321008304989e+000	 2.418839991090034e-001	 1.071860041078099e+001
 3.363978554937082e+000	 2.725312493972842e-001	 1.073501092516839e+001
 3.361347816564072e+000	 3.032587279003323e-001	 1.076509721426084e+001
 3.400000000000000e+000	 0.000000000000000e+000	 1.064511725308556e+001
 3.399866702526047e+000	 3.010656165159834e-002	 1.064744729896804e+001
 3.399464880658245e+000	 6.032018874728289e-002	 1.064636542262141e+001
 3.398791664598323e+000	 9.063785442805056e-002	 1.064380843022127e+001
 3.397844218578805e+000	 1.210564590082143e-001	 1.064167679664208e+001
 3.396619742798603e+000	 1.515728301047631e-001	 1.064185152783962e+001
 3.395115475375202e+000	 1.821837228204991e-001	 1.064621205044792e+001
 3.393328694311914e+000	 2.128858199821206e-001	 1.065665511907993e+001
 3.391256719478661e+000	 2.436757324343857e-001	 1.067511472815271e+001
 3.388896914604606e+000	 2.745499993914417e-001	 1.070358301126779e+001
 3.386246689281000e+000	 3.055050888463699e-001	 1.074413210727201e+001
 3.425000000000000e+000	 0.000000000000000e+000	 1.056113272758827e+001
 3.424865722397579e+000	 3.032793342817908e-002	 1.055849797899839e+001
 3.424460945957267e+000	 6.076371954639608e-002	 1.055694305953307e+001
 3.423782779779336e+000	 9.130430923933212e-002	 1.055769820374648e+001
 3.422828367245081e+000	 1.219465800294941e-001	 1.056193905960804e+001
 3.421594887966640e+000	 1.526873362075258e-001	 1.057080424553355e+001
 3.420079559753539e+000	 1.835233090166916e-001	 1.058541398610232e+001
 3.418279640594410e+000	 2.144511568927102e-001	 1.060688981707551e+001
 3.416192430652332e+000	 2.454674657600806e-001	 1.063637534653722e+001
 3.413815274272130e+000	 2.765687493859961e-001	 1.067505805506115e+001
 3.411145561997928e+000	 3.077514497928993e-001	 1.072419211376557e+001
 3.449999999999999e+000	 0.000000000000000e+000	 1.049271885293194e+001
 3.449864742269110e+000	 3.054930520476459e-002	 1.048378976885583e+001
 3.449457011256287e+000	 6.120725034552838e-002	 1.048046186751267e+001
 3.448773894960349e+000	 9.197076405065684e-002	 1.048325140406751e+001
 3.447812515911356e+000	 1.228367010508510e-001	 1.049260160738603e+001
 3.446570033134677e+000	 1.538018423104094e-001	 1.050890094107084e+001
 3.445043644131875e+000	 1.848628952130587e-001	 1.053250249529472e+001
 3.443230586876903e+000	 2.160164938035381e-001	 1.056374450016979e+001
 3.441128141826004e+000	 2.472591990860880e-001	 1.060297194747363e+001
 3.438733633939654e+000	 2.785874993809474e-001	 1.065055930350304e+001
 3.436044434714856e+000	 3.099978107399203e-001	 1.070693429165139e+001
 3.474999999999999e+000	 0.000000000000000e+000	 1.043634149877814e+001
 3.474863762140640e+000	 3.077067698135486e-002	 1.042030306805563e+001
 3.474453076555308e+000	 6.165078114467980e-002	 1.041441899656826e+001
 3.473765010141362e+000	 9.263721886202479e-002	 1.041848392169715e+001
 3.472796664577632e+000	 1.237268220722849e-001	 1.043220082507289e+001
 3.471545178302714e+000	 1.549163484134138e-001	 1.045520000709895e+001
 3.470007728510212e+000	 1.862024814096004e-001	 1.048705924503073e+001
 3.468181533159398e+000	 2.175818307146046e-001	 1.052732512547281e+001
 3.466063852999675e+000	 2.490509324124081e-001	 1.057553553811408e+001
 3.463651993607177e+000	 2.806062493762958e-001	 1.063124331333438e+001
 3.460943307431786e+000	 3.122441716874331e-001	 1.069404098200729e+001
 3.500000000000000e+000	 0.000000000000000e+000	 1.038856750994083e+001
 3.499862782012172e+000	 3.099204875794991e-002	 1.036511170470329e+001
 3.499449141854330e+000	 6.209431194385037e-002	 1.035639744668526e+001
 3.498756125322376e+000	 9.330367367343595e-002	 1.036148988896911e+001
 3.497780813243909e+000	 1.246169430937959e-001	 1.037934370445293e+001
 3.496520323470751e+000	 1.560308545165391e-001	 1.040882278346605e+001
 3.494971812888549e+000	 1.875420676063169e-001	 1.044872116835636e+001
 3.493132479441893e+000	 2.191471676259096e-001	 1.049778521603743e+001
 3.490999564173347e+000	 2.508426657390408e-001	 1.055473697530905e+001
 3.488570353274701e+000	 2.826249993720411e-001	 1.061829876144715e+001
 3.485842180148715e+000	 3.144905326354376e-001	 1.068721890610885e+001
 3.236853452979430e+000	 2.920269231775197e-001	 1.082919477246412e+001
 3.234040111211981e+000	 3.216901599082671e-001	 1.071065983764377e+001
 3.230944348622705e+000	 3.514236986856594e-001	 1.062860881638047e+001
 3.227563832160543e+000	 3.812239620090088e-001	 1.059084078526820e+001
 3.223896280334043e+000	 4.110873064392887e-001	 1.060539056233195e+001
 3.219939465148238e+000	 4.410100232820740e-001	 1.068054780934336e+001
 3.215691214040372e+000	 4.709883393310329e-001	 1.082487660652516e+001
 3.211149411812481e+000	 5.010184176725818e-001	 1.104723545666039e+001
 3.206312002558781e+000	 5.310963585522424e-001	 1.135679767217834e+001
 3.201176991585784e+000	 5.612182003031746e-001	 1.176307209536005e+001
 3.195742447322996e+000	 5.913799203372813e-001	 1.227592409840778e+001
 3.261752325696358e+000	 2.942732841210988e-001	 1.082700657007569e+001
 3.258917342838710e+000	 3.241646995955180e-001	 1.074444898467490e+001
 3.255797766691325e+000	 3.541269579017121e-001	 1.069455653192242e+001
 3.252391246256594e+000	 3.841564540197591e-001	 1.068424416427654e+001
 3.248695482493130e+000	 4.142495164841794e-001	 1.072065308903433e+001
 3.244708230267543e+000	 4.444024080721309e-001	 1.081117104090897e+001
 3.240427300305057e+000	 4.746113265526195e-001	 1.096345307279710e+001
 3.235850561136954e+000	 5.048724054973430e-001	 1.118544282052858e+001
 3.230975941042790e+000	 5.351817151537135e-001	 1.148539419379419e+001
 3.225801429985276e+000	 5.655352633805314e-001	 1.187189344186278e+001
 3.220325081535687e+000	 5.959289966467158e-001	 1.235388153914705e+001
 3.286651198413287e+000	 2.965196450651695e-001	 1.081797199615149e+001
 3.283794574465441e+000	 3.266392392833462e-001	 1.076451974400491e+001
 3.280651184759944e+000	 3.568302171183990e-001	 1.073986959058633e+001
 3.277218660352643e+000	 3.870889460311707e-001	 1.075004625069217e+001
 3.273494684652216e+000	 4.174117265297296e-001	 1.080129117769208e+001
 3.269476995386850e+000	 4.477947928628163e-001	 1.090008401994747e+001
 3.265163386569745e+000	 4.782343137747729e-001	 1.105316464169107e+001
 3.260551710461429e+000	 5.087263933225793e-001	 1.126755566291805e+001
 3.255639879526798e+000	 5.392670717555368e-001	 1.155058546908791e+001
 3.250425868384768e+000	 5.698523264580871e-001	 1.190991163769560e+001
 3.244907715748377e+000	 6.004780729561651e-001	 1.235354472506193e+001
 3.311550071130215e+000	 2.987660060097320e-001	 1.080360665585566e+001
 3.308671806092171e+000	 3.291137789717518e-001	 1.077301497274747e+001
 3.305504602828564e+000	 3.595334763357197e-001	 1.076731770000219e+001
 3.302046074448694e+000	 3.900214380432441e-001	 1.079164288301225e+001
 3.298293886811303e+000	 4.205739365759399e-001	 1.085132575564979e+001
 3.294245760506156e+000	 4.511871776541295e-001	 1.095193139435464e+001
 3.289899472834430e+000	 4.818573009974929e-001	 1.109927798343498e+001
 3.285252859785903e+000	 5.125803811482900e-001	 1.129946064487159e+001
 3.280303818010806e+000	 5.433524283577124e-001	 1.155887578200741e+001
 3.275050306784260e+000	 5.741693895358420e-001	 1.188424588260676e+001
 3.269490349961068e+000	 6.050271492656288e-001	 1.228264472289979e+001
 3.336448943847143e+000	 3.010123669547863e-001	 1.078545660339183e+001
 3.333549037718900e+000	 3.315883186607346e-001	 1.077209685283823e+001
 3.330358020897183e+000	 3.622367355536747e-001	 1.077967876655313e+001
 3.326873488544744e+000	 3.929539300559794e-001	 1.081242697498402e+001
 3.323093088970390e+000	 4.237361466228101e-001	 1.087476370904717e+001
 3.319014525625462e+000	 4.545795624460712e-001	 1.097133266595992e+001
 3.314635559099118e+000	 4.854802882207795e-001	 1.110702353352903e+001
 3.309954009110376e+000	 5.164343689744756e-001	 1.128699712490748e+001
 3.304967756494813e+000	 5.474377849602401e-001	 1.151671107176405e+001
 3.299674745183751e+000	 5.784864526137957e-001	 1.180194601975300e+001
 3.294072984173759e+000	 6.095762255751076e-001	 1.214883226614107e+001
 3.361347816564072e+000	 3.032587279003323e-001	 1.076509721426084e+001
 3.358426269345630e+000	 3.340628583502949e-001	 1.076394617530061e+001
 3.355211438965803e+000	 3.649399947722639e-001	 1.077973859171801e+001
 3.351700902640793e+000	 3.958864220693762e-001	 1.081578862392900e+001
 3.347892291129476e+000	 4.268983566703398e-001	 1.087559840286371e+001
 3.343783290744768e+000	 4.579719472386412e-001	 1.096288312186235e+001
 3.339371645363804e+000	 4.891032754446326e-001	 1.108159683477285e+001
 3.334655158434851e+000	 5.202883568011358e-001	 1.123595891096510e+001
 3.329631694978821e+000	 5.515231415631203e-001	 1.143048109374883e+001
 3.324299183583244e+000	 5.828035156919486e-001	 1.166999510446214e+001
 3.318655618386451e+000	 6.141253018846009e-001	 1.195968073030565e+001
 3.386246689281000e+000	 3.055050888463699e-001	 1.074413210727201e+001
 3.383303500972360e+000	 3.365373980404324e-001	 1.075076165608832e+001
 3.380064857034422e+000	 3.676432539914870e-001	 1.077029058181060e+001
 3.376528316736844e+000	 3.988189140834348e-001	 1.080511521428796e+001
 3.372691493288563e+000	 4.300605667185297e-001	 1.085781017802005e+001
 3.368552055864074e+000	 4.613643320318394e-001	 1.093115472467799e+001
 3.364107731628490e+000	 4.927262626690525e-001	 1.102815982008541e+001
 3.359356307759325e+000	 5.241423446282708e-001	 1.115209593505866e+001
 3.354295633462829e+000	 5.556084981663527e-001	 1.130652148511427e+001
 3.348923621982736e+000	 5.871205787703004e-001	 1.149531185966846e+001
 3.343238252599141e+000	 6.186743781941089e-001	 1.172268897699568e+001
 3.411145561997928e+000	 3.077514497928993e-001	 1.072419211376557e+001
 3.408180732599090e+000	 3.390119377311472e-001	 1.073475928189085e+001
 3.404918275103042e+000	 3.703465132113444e-001	 1.075413547043087e+001
 3.401355730832894e+000	 4.017514060981550e-001	 1.078379151663135e+001
 3.397490695447650e+000	 4.332227767673792e-001	 1.082536682670888e+001
 3.393320820983380e+000	 4.647567168256657e-001	 1.088069696379855e+001
 3.388843817893178e+000	 4.963492498940390e-001	 1.095184203914311e+001
 3.384057457083798e+000	 5.279963324558805e-001	 1.104111585458833e+001
 3.378959571946838e+000	 5.596938547699373e-001	 1.115111573989256e+001
 3.373548060382228e+000	 5.914376418488513e-001	 1.128475302381001e+001
 3.367820886811832e+000	 6.232234545036315e-001	 1.144528407338167e+001
 3.436044434714856e+000	 3.099978107399203e-001	 1.070693429165139e+001
 3.433057964225819e+000	 3.414864774224395e-001	 1.071817168438221e+001
 3.429771693171661e+000	 3.730497724318357e-001	 1.073408105298374e+001
 3.426183144928944e+000	 4.046838981135369e-001	 1.075519978236472e+001
 3.422289897606735e+000	 4.363849868168885e-001	 1.078222404705893e+001
 3.418089586102685e+000	 4.681491016201202e-001	 1.081603766963867e+001
 3.413579904157863e+000	 4.999722371195919e-001	 1.085774183168572e+001
 3.408758606408273e+000	 5.318503202839651e-001	 1.090868558402929e+001
 3.403623510430845e+000	 5.637792113738743e-001	 1.097049709823927e+001
 3.398172498781719e+000	 5.957547049276010e-001	 1.104511559664410e+001
 3.392403521024523e+000	 6.277725308131688e-001	 1.142089682526914e+001
 3.460943307431786e+000	 3.122441716874331e-001	 1.069404098200729e+001
 3.457935195852550e+000	 3.439610171143091e-001	 1.070324754148061e+001
 3.454625111240281e+000	 3.757530316529612e-001	 1.071294193265728e+001
 3.451010559024994e+000	 4.076163901295806e-001	 1.072271983434631e+001
 3.447089099765823e+000	 4.395471968670578e-001	 1.073232587817328e+001
 3.442858351221993e+000	 4.715414864152032e-001	 1.074168379273590e+001
 3.438315990422550e+000	 5.035952243457118e-001	 1.075092745017596e+001
 3.433459755732745e+000	 5.357043081125240e-001	 1.076043276050472e+001
 3.428287448914853e+000	 5.678645679781635e-001	 1.077085035412677e+001
 3.422796937181212e+000	 6.000717680065498e-001	 1.078313898812064e+001
 3.416986155237214e+000	 6.323216071227208e-001	 1.155866269471824e+001
 3.485842180148715e+000	 3.144905326354376e-001	 1.068721890610885e+001
 3.482812427479281e+000	 3.464355568067562e-001	 1.069225100426828e+001
 3.479478529308901e+000	 3.784562908747209e-001	 1.069353927728774e+001
 3.475837973121044e+000	 4.105488821462860e-001	 1.068972915362078e+001
 3.471888301924910e+000	 4.427094069178869e-001	 1.067960511652328e+001
 3.467627116341299e+000	 4.749338712109144e-001	 1.066212214946066e+001
 3.463052076687238e+000	 5.072182115723981e-001	 1.063643813434541e+001
 3.458160905057221e+000	 5.395582959415582e-001	 1.060194714654826e+001
 3.452951387398861e+000	 5.719499245828053e-001	 1.055831358556519e+001
 3.447421375580704e+000	 6.043888310856977e-001	 1.050550707516119e+001
 3.441568789449906e+000	 6.368706834322875e-001	 1.167771091856501e+001
 3.195742447322996e+000	 5.913799203372813e-001	 1.227592409840778e+001
 3.190006503222291e+000	 6.215774361993541e-001	 1.006155234055264e+001
 3.183967359642995e+000	 6.518066066841965e-001	 1.000625314571654e+001
 3.177623285720976e+000	 6.820632330168475e-001	 1.022050837451813e+001
 3.170972621219920e+000	 7.123430600964775e-001	 1.042943423861933e+001
 3.164013778361765e+000	 7.426417778035708e-001	 1.062842504727595e+001
 3.156745243634213e+000	 7.729550223703776e-001	 1.081262743766363e+001
 3.149165579572983e+000	 8.032783778144551e-001	 1.097693293514157e+001
 3.141273426516435e+000	 8.336073774350103e-001	 1.111597079392772e+001
 3.133067504330196e+000	 8.639375053716755e-001	 1.122410115111131e+001
 3.124546614099405e+000	 8.942641982252434e-001	 1.129219002849056e+001
 3.220325081535687e+000	 5.959289966467158e-001	 1.235388153914705e+001
 3.214545014787886e+000	 6.263588010934251e-001	 1.004760663532525e+001
 3.208459416257858e+000	 6.568205036599045e-001	 1.021100701373406e+001
 3.202066541767134e+000	 6.873098732729227e-001	 1.037417504656608e+001
 3.195364718308351e+000	 7.178226221001052e-001	 1.053309749264398e+001
 3.188352345889771e+000	 7.483544068671686e-001	 1.068352049366714e+001
 3.181027899356695e+000	 7.789008302389191e-001	 1.082094133180013e+001
 3.173389930187422e+000	 8.094574422638170e-001	 1.094060042761737e+001
 3.165437068261379e+000	 8.400197418818309e-001	 1.103747361195699e+001
 3.157168023597005e+000	 8.705831784952052e-001	 1.110626470572062e+001
 3.148581588057016e+000	 9.011431536016611e-001	 1.114139844204054e+001
 3.244907715748377e+000	 6.004780729561651e-001	 1.235354472506193e+001
 3.239083526353474e+000	 6.311401659873205e-001	 1.028433551631819e+001
 3.232951472872700e+000	 6.618344006352653e-001	 1.040028946814037e+001
 3.226509797813247e+000	 6.925565135284995e-001	 1.051684484288434e+001
 3.219756815396703e+000	 7.233021841031020e-001	 1.063034202568710e+001
 3.212690913417656e+000	 7.540670359300240e-001	 1.073688001916214e+001
 3.205310555079000e+000	 7.848466381066257e-001	 1.083230763962295e+001
 3.197614280801620e+000	 8.156365067122716e-001	 1.091221494615862e+001
 3.189600710006009e+000	 8.464321063276927e-001	 1.097192493719989e+001
 3.181268542863414e+000	 8.772288516177456e-001	 1.100648554974200e+001
 3.172616562014134e+000	 9.080221089770787e-001	 1.101066199681576e+001
 3.269490349961068e+000	 6.050271492656288e-001	 1.228264472289979e+001
 3.263622037919057e+000	 6.359215308810399e-001	 1.050190400591166e+001
 3.257443529487524e+000	 6.668482976102796e-001	 1.057453147839943e+001
 3.250953053859317e+000	 6.978031537835777e-001	 1.064869752609026e+001
 3.244148912484980e+000	 7.287817461054684e-001	 1.072109745183431e+001
 3.237029480945418e+000	 7.597796649921365e-001	 1.078818427829027e+001
 3.229593210801129e+000	 7.907924459734975e-001	 1.084615937603900e+001
 3.221838631415580e+000	 8.218155711598196e-001	 1.089096331710943e+001
 3.213764351750323e+000	 8.528444707725963e-001	 1.091826698965725e+001
 3.205369062129424e+000	 8.838745247392957e-001	 1.092346301011021e+001
 3.196651535970757e+000	 9.149010643514963e-001	 1.090165746956170e+001
 3.294072984173759e+000	 6.095762255751076e-001	 1.214883226614107e+001
 3.288160549484637e+000	 6.407028957745838e-001	 1.070092005944302e+001
 3.281935586102328e+000	 6.718621945849470e-001	 1.073409406300637e+001
 3.275396309905343e+000	 7.030497940381575e-001	 1.076984811773035e+001
 3.268541009573177e+000	 7.342613081072044e-001	 1.080523386371909e+001
 3.261368048473059e+000	 7.654922940535064e-001	 1.083705963134269e+001
 3.253875866523083e+000	 7.967382538395345e-001	 1.086188049436897e+001
 3.246062982029298e+000	 8.279946356064606e-001	 1.087598854112901e+001
 3.237927993494324e+000	 8.592568352165414e-001	 1.087540340057737e+001
 3.229469581395036e+000	 8.905201978598566e-001	 1.085586306072633e+001
 3.220686509926887e+000	 9.217800197249140e-001	 1.081281501744300e+001
 3.318655618386451e+000	 6.141253018846009e-001	 1.195968073030565e+001
 3.312699061050211e+000	 6.454842606679520e-001	 1.088191926649469e+001
 3.306427642717112e+000	 6.768760915592673e-001	 1.087927088026427e+001
 3.299839565951326e+000	 7.082964342922389e-001	 1.088034929609756e+001
 3.292933106661296e+000	 7.397408701083097e-001	 1.088256403702097e+001
 3.285706616000578e+000	 7.712049231141334e-001	 1.088308015527029e+001
 3.278158522244861e+000	 8.026840617047366e-001	 1.087880770344302e+001
 3.270287332642777e+000	 8.341737000521948e-001	 1.086639141636478e+001
 3.262091635238009e+000	 8.656691996595277e-001	 1.084220064166937e+001
 3.253570100660249e+000	 8.971658709794281e-001	 1.080231955775527e+001
 3.244721483882524e+000	 9.286589750973319e-001	 1.074253771833391e+001
 3.343238252599141e+000	 6.186743781941089e-001	 1.172268897699568e+001
 3.337237572615780e+000	 6.502656255611442e-001	 1.104536751139967e+001
 3.330919699331878e+000	 6.818899885332411e-001	 1.101029070476175e+001
 3.324282821997265e+000	 7.135430745458216e-001	 1.098019368826300e+001
 3.317325203749339e+000	 7.452204321087845e-001	 1.095284553770663e+001
 3.310045183527974e+000	 7.769175521740177e-001	 1.092576956586527e+001
 3.302441177966462e+000	 8.086298695691037e-001	 1.089623220453067e+001
 3.294511683256015e+000	 8.403527644970220e-001	 1.086123209001563e+001
 3.286255276981380e+000	 8.720815641015558e-001	 1.081748939126263e+001
 3.277670619925062e+000	 9.038115440980098e-001	 1.076143542042487e+001
 3.268756457837667e+000	 9.355379304687496e-001	 1.068920256638034e+001
 3.367820886811832e+000	 6.232234545036315e-001	 1.144528407338167e+001
 3.361776084181346e+000	 6.550469904541610e-001	 1.119166351722910e+001
 3.355411755946624e+000	 6.869038855068678e-001	 1.112731979539209e+001
 3.348726078043160e+000	 7.187897147989056e-001	 1.106931606172632e+001
 3.341717300837303e+000	 7.506999941086290e-001	 1.101578273698309e+001
 3.334383751055251e+000	 7.826301812331595e-001	 1.096460305575970e+001
 3.326723833687888e+000	 8.145756774326358e-001	 1.091340135220074e+001
 3.318736033869013e+000	 8.465318289409424e-001	 1.085953154194309e+001
 3.310418918724438e+000	 8.784939285426251e-001	 1.080006584063447e+001
 3.301771139189478e+000	 9.104572172156019e-001	 1.073178376011131e+001
 3.292791431792316e+000	 9.424168858391672e-001	 1.065116142396083e+001
 3.392403521024523e+000	 6.277725308131688e-001	 1.142089682526914e+001
 3.386314595746905e+000	 6.598283553470019e-001	 1.132114127917137e+001
 3.379903812561350e+000	 6.919177824801479e-001	 1.123046416041457e+001
 3.373169334089012e+000	 7.240363550514914e-001	 1.114759542077712e+001
 3.366109397925190e+000	 7.561795561078428e-001	 1.107102873864398e+001
 3.358722318582403e+000	 7.883428102915583e-001	 1.099900905251125e+001
 3.351006489409138e+000	 8.205214852953331e-001	 1.092952024296999e+001
 3.342960384481771e+000	 8.527108933839557e-001	 1.086027300377784e+001
 3.334582560467180e+000	 8.849062929827362e-001	 1.078869294354132e+001
 3.325871658453493e+000	 9.171028903322045e-001	 1.071190896033374e+001
 3.316826405746471e+000	 9.492958412085848e-001	 1.062674193225786e+001
 3.416986155237214e+000	 6.323216071227208e-001	 1.155866269471824e+001
 3.410853107312460e+000	 6.646097202396671e-001	 1.143407239287336e+001
 3.404395869176057e+000	 6.969316794530809e-001	 1.131977172474367e+001
 3.397612590134821e+000	 7.292829953035789e-001	 1.121485701236596e+001
 3.390501495013000e+000	 7.616591181064262e-001	 1.111818722322134e+001
 3.383060886109436e+000	 7.940554393492147e-001	 1.102837090080000e+001
 3.375289145130212e+000	 8.264672931571958e-001	 1.094375323537697e+001
 3.367184735094290e+000	 8.588899578260625e-001	 1.086240331676984e+001
 3.358746202209609e+000	 8.913186574218885e-001	 1.078210161181274e+001
 3.349972177717109e+000	 9.237485634478172e-001	 1.070032771013040e+001
 3.340861379700133e+000	 9.561747965770026e-001	 1.061424838252386e+001
 3.441568789449906e+000	 6.368706834322875e-001	 1.167771091856501e+001
 3.435391618878011e+000	 6.693910851321568e-001	 1.153066828299561e+001
 3.428887925790747e+000	 7.019455764256674e-001	 1.139523440435433e+001
 3.422055846180587e+000	 7.345296355551677e-001	 1.127087424600936e+001
 3.414893592100732e+000	 7.671386801043790e-001	 1.115681421310207e+001
 3.407399453636346e+000	 7.997680684061285e-001	 1.105202847253132e+001
 3.399571800851111e+000	 8.324131010182234e-001	 1.095522540490989e+001
 3.391409085706569e+000	 8.650690222672625e-001	 1.086483423144474e+001
 3.382909843951724e+000	 8.977310218600828e-001	 1.077899185970620e+001
 3.374072696980329e+000	 9.303942365624409e-001	 1.069552999314730e+001
 3.364896353653301e+000	 9.630537519444204e-001	 1.061196255000737e+001
 3.124546614099405e+000	 8.942641982252434e-001	 1.129219002849056e+001
 3.115709639785576e+000	 9.245828467396423e-001	 1.147532032817561e+001
 3.106555549847563e+000	 9.548887975447460e-001	 1.161727558070054e+001
 3.097083398822883e+000	 9.851773549594461e-001	 1.171464688460804e+001
 3.087292328865915e+000	 1.015443782853513e+000	 1.176416071752176e+001
 3.077181571242415e+000	 1.045683306567630e+000	 1.176269103963629e+001
 3.066750447777396e+000	 1.075891114890496e+000	 1.170727131818700e+001
 3.055998372254012e+000	 1.106062362091802e+000	 1.159510643892853e+001
 3.044924851761178e+000	 1.136192170009821e+000	 1.142358447009312e+001
 3.033529487987621e+000	 1.166275630192231e+000	 1.119028824384489e+001
 3.021811978460158e+000	 1.196307806088698e+000	 1.089300671990112e+001
 3.148581588057016e+000	 9.011431536016611e-001	 1.114139844204054e+001
 3.139676637017926e+000	 9.316950224893300e-001	 1.137381304985279e+001
 3.130452131003560e+000	 9.622340959929508e-001	 1.158085287315760e+001
 3.120907117278647e+000	 9.927556423107905e-001	 1.172136260625105e+001
 3.111040731398753e+000	 1.023254888880847e+000	 1.176560831008724e+001
 3.100852198716295e+000	 1.053727024315657e+000	 1.175323788697232e+001
 3.090340835839549e+000	 1.084167200394599e+000	 1.168137365927701e+001
 3.079506052042313e+000	 1.114570534112516e+000	 1.154731972903633e+001
 3.068347350621874e+000	 1.144932109783358e+000	 1.134857394714840e+001
 3.056864330203026e+000	 1.175246981197481e+000	 1.108283968652938e+001
 3.045056685985869e+000	 1.205510173831083e+000	 1.074803738302197e+001
 3.172616562014134e+000	 9.080221089770787e-001	 1.101066199681576e+001
 3.163643634249695e+000	 9.388071982380229e-001	 1.122471185192083e+001
 3.154348712158920e+000	 9.695793944401748e-001	 1.141282829262618e+001
 3.144730835733751e+000	 1.000333929661178e+000	 1.156933767630880e+001
 3.134789133930934e+000	 1.031065994907259e+000	 1.168824888530653e+001
 3.124522826189546e+000	 1.061770742062806e+000	 1.175882546868004e+001
 3.113931223901139e+000	 1.092443285897878e+000	 1.167977404938449e+001
 3.103013731830142e+000	 1.123078706132470e+000	 1.153302169776803e+001
 3.091769849482220e+000	 1.153672049556212e+000	 1.131616996940922e+001
 3.080199172418235e+000	 1.184218332202131e+000	 1.102703676919990e+001
 3.068301393511570e+000	 1.214712541572961e+000	 1.066366807831273e+001
 3.196651535970757e+000	 9.149010643514963e-001	 1.090165746956170e+001
 3.187610631480886e+000	 9.459193739857201e-001	 1.110060498486359e+001
 3.178245293313646e+000	 9.769246928864183e-001	 1.127323332641148e+001
 3.168554554188189e+000	 1.007912217010610e+000	 1.141409841946678e+001
 3.158537536462453e+000	 1.038877100932750e+000	 1.151743518785657e+001
 3.148193453662171e+000	 1.069814459809077e+000	 1.157715106447345e+001
 3.137521611962162e+000	 1.100719371400334e+000	 1.158682005886977e+001
 3.126521411617497e+000	 1.131586878151666e+000	 1.153967741928858e+001
 3.115192348342218e+000	 1.162411989328380e+000	 1.132879966981286e+001
 3.103534014633251e+000	 1.193189683206180e+000	 1.102521624748285e+001
 3.091546101037261e+000	 1.223914909314336e+000	 1.064214289970848e+001
 3.220686509926887e+000	 9.217800197249140e-001	 1.081281501744300e+001
 3.211577628711498e+000	 9.530315497324225e-001	 1.099972956073023e+001
 3.202141874467737e+000	 9.842699913316814e-001	 1.116011272328280e+001
 3.192378272641967e+000	 1.015490504359086e+000	 1.128875119841856e+001
 3.182285938993314e+000	 1.046688206957319e+000	 1.138010693735409e+001
 3.171864081134169e+000	 1.077858177554471e+000	 1.142831019843765e+001
 3.161112000022622e+000	 1.108995456901967e+000	 1.142715315651608e+001
 3.150029091404383e+000	 1.140095050170102e+000	 1.137008411096130e+001
 3.138614847201868e+000	 1.171151929099864e+000	 1.125020233033534e+001
 3.126868856848072e+000	 1.202161034209630e+000	 1.106025357097444e+001
 3.114790808562941e+000	 1.233117277055205e+000	 1.068571893724213e+001
 3.244721483882524e+000	 9.286589750973319e-001	 1.074253771833391e+001
 3.235544625941530e+000	 9.601437254781297e-001	 1.092029943618145e+001
 3.226038455621191e+000	 9.916152897759637e-001	 1.107149183463013e+001
 3.216201991095082e+000	 1.023068791706605e+000	 1.119113367305997e+001
 3.206034341523513e+000	 1.054499312980966e+000	 1.127391501350899e+001
 3.195534708605540e+000	 1.085901895298987e+000	 1.131418980153025e+001
 3.184702388082517e+000	 1.117271542402776e+000	 1.130596901045928e+001
 3.173536771190797e+000	 1.148603222187779e+000	 1.124291438882126e+001
 3.162037346061168e+000	 1.179891868870663e+000	 1.111833285007478e+001
 3.150203699062697e+000	 1.211132385212480e+000	 1.092517154319915e+001
 3.138035516088611e+000	 1.242319644795568e+000	 1.065601364178376e+001
 3.268756457837667e+000	 9.355379304687496e-001	 1.068920256638034e+001
 3.259511623170984e+000	 9.672559012228417e-001	 1.086050606746694e+001
 3.249935036774011e+000	 9.989605882192657e-001	 1.100537732760294e+001
 3.240025709547534e+000	 1.030647079053168e+000	 1.111906856668592e+001
 3.229782744053054e+000	 1.062310419003691e+000	 1.119649913712018e+001
 3.219205336076284e+000	 1.093945613042626e+000	 1.123224762907926e+001
 3.208292776141848e+000	 1.125547627902762e+000	 1.122054454269120e+001
 3.197044450976738e+000	 1.157111394204698e+000	 1.115526556810143e+001
 3.185459844920121e+000	 1.188631808640778e+000	 1.102992551384886e+001
 3.173538541277128e+000	 1.220103736214729e+000	 1.083767292331097e+001
 3.161280223614271e+000	 1.251522012535427e+000	 1.058087512894002e+001
 3.292791431792316e+000	 9.424168858391672e-001	 1.065116142396083e+001
 3.283478620399857e+000	 9.743680769665586e-001	 1.081851932795889e+001
 3.273831617926194e+000	 1.006305886661587e+000	 1.095975786701697e+001
 3.263849427999325e+000	 1.038225366398776e+000	 1.107036421112208e+001
 3.253531146581935e+000	 1.070121525025494e+000	 1.114548827733544e+001
 3.242875963546400e+000	 1.101989330785387e+000	 1.117993435213351e+001
 3.231883164200613e+000	 1.133823713401924e+000	 1.116815328441888e+001
 3.220552130762207e+000	 1.165619566220857e+000	 1.110423529140386e+001
 3.208882343778725e+000	 1.197371748410209e+000	 1.098190341906309e+001
 3.196873383491363e+000	 1.229075087216379e+000	 1.079450769818058e+001
 3.184524931139920e+000	 1.260724380274781e+000	 1.058707128582418e+001
 3.316826405746471e+000	 9.492958412085848e-001	 1.062674193225786e+001
 3.307445617628153e+000	 9.814802527092802e-001	 1.079248829014011e+001
 3.297728199077743e+000	 1.013651185102928e+000	 1.093260476761269e+001
 3.287673146450452e+000	 1.045803653743426e+000	 1.104281506815477e+001
 3.277279549110157e+000	 1.077932631046375e+000	 1.111850104120377e+001
 3.266546591015890e+000	 1.110033048527270e+000	 1.115469381413942e+001
 3.255473552258815e+000	 1.142099798900263e+000	 1.114606549891915e+001
 3.244059810547205e+000	 1.174127738236257e+000	 1.108692151683868e+001
 3.232304842636979e+000	 1.206111688178954e+000	 1.097119358439602e+001
 3.220208225705404e+000	 1.238046438217428e+000	 1.079243340257614e+001
 3.207769638665559e+000	 1.269926748013629e+000	 1.061361119081895e+001
 3.340861379700133e+000	 9.561747965770026e-001	 1.061424838252386e+001
 3.331412614855868e+000	 9.885924284510067e-001	 1.078054197383763e+001
 3.321624780228655e+000	 1.020996483543288e+000	 1.092187261815877e+001
 3.311496864900918e+000	 1.053381941087122e+000	 1.103420222845335e+001
 3.301027951637719e+000	 1.085743737066335e+000	 1.111314604641304e+001
 3.290217218484751e+000	 1.118076766268275e+000	 1.115396327653830e+001
 3.279063940316452e+000	 1.150375884397779e+000	 1.115154829909009e+001
 3.267567490331730e+000	 1.182635910250898e+000	 1.110042250667477e+001
 3.255727341494886e+000	 1.214851627947015e+000	 1.099472680874632e+001
 3.243543067919250e+000	 1.247017789217878e+000	 1.082821484765620e+001
 3.231014346191188e+000	 1.279129115751972e+000	 1.065976278038504e+001
 3.364896353653301e+000	 9.630537519444204e-001	 1.061196255000737e+001
 3.355379612083005e+000	 9.957046041917383e-001	 1.078079006238894e+001
 3.345521361378934e+000	 1.028341781982668e+000	 1.092549987880815e+001
 3.335320583350721e+000	 1.060960228429860e+000	 1.104229388911016e+001
 3.324776354164621e+000	 1.093554843085373e+000	 1.112702227805263e+001
 3.313887845952988e+000	 1.126120484008404e+000	 1.117517365383795e+001
 3.302654328373525e+000	 1.158651969894472e+000	 1.118186575996464e+001
 3.291075170115785e+000	 1.191144082264780e+000	 1.114183681647707e+001
 3.279149840352444e+000	 1.223591567714391e+000	 1.104943753622491e+001
 3.266877910132902e+000	 1.255989140217728e+000	 1.090169040910599e+001
 3.254259053716807e+000	 1.288331483489811e+000	 1.072480439681024e+001
 3.021811978460158e+000	 1.196307806088698e+000	 1.089300671990112e+001
 3.009772117724388e+000	 1.226283735293376e+000	 1.071875141212903e+001
 2.997409798464362e+000	 1.256198431836615e+000	 1.057577672647451e+001
 2.984725012560141e+000	 1.286046888523079e+000	 1.078083948900067e+001
 2.971717852081893e+000	 1.315824079314217e+000	 1.095868297492683e+001
 2.958388510217295e+000	 1.345524961753960e+000	 1.110944482751067e+001
 2.944737282130763e+000	 1.375144479435225e+000	 1.123330805557317e+001
 2.930764565752652e+000	 1.404677564505076e+000	 1.133050074497990e+001
 2.916470862496686e+000	 1.434119140206303e+000	 1.140129568839434e+001
 2.901856777903874e+000	 1.463464123453077e+000	 1.144600993358921e+001
 2.886923022211355e+000	 1.492707427438275e+000	 1.146500425082340e+001
 3.045056685985869e+000	 1.205510173831083e+000	 1.074803738302197e+001
 3.032924210935764e+000	 1.235716687106057e+000	 1.057737444216389e+001
 3.020466796911431e+000	 1.265861496699235e+000	 1.057818122595570e+001
 3.007684435730476e+000	 1.295939556898392e+000	 1.076209971073068e+001
 2.994577220171298e+000	 1.325945803003145e+000	 1.092032849842116e+001
 2.981145344907635e+000	 1.355875153769300e+000	 1.105298078264240e+001
 2.967389107374398e+000	 1.385722513894337e+000	 1.116021368750962e+001
 2.953308908562949e+000	 1.415482776541836e+000	 1.124222797376964e+001
 2.938905253744040e+000	 1.445150825902609e+000	 1.129926766462531e+001
 2.924178753116689e+000	 1.474721539790167e+000	 1.133161959158826e+001
 2.909130122381398e+000	 1.504189792268103e+000	 1.133961286091619e+001
 3.068301393511570e+000	 1.214712541572961e+000	 1.066366807831273e+001
 3.056076304147308e+000	 1.245149638918323e+000	 1.049786407227609e+001
 3.043523795358812e+000	 1.275524561561510e+000	 1.061869788636473e+001
 3.030643858901224e+000	 1.305832225273412e+000	 1.077988817687180e+001
 3.017436588261178e+000	 1.336067526691811e+000	 1.091687578891465e+001
 3.003902179598474e+000	 1.366225345784390e+000	 1.102975032063808e+001
 2.990040932618514e+000	 1.396300548353190e+000	 1.111864390287169e+001
 2.975853251373670e+000	 1.426287988578308e+000	 1.118373089923546e+001
 2.961339644991720e+000	 1.456182511598578e+000	 1.122522752730034e+001
 2.946500728329691e+000	 1.485978956126852e+000	 1.124339140118907e+001
 2.931337222551448e+000	 1.515672157097435e+000	 1.123852099622322e+001
 3.091546101037261e+000	 1.223914909314336e+000	 1.064214289970848e+001
 3.079228397359024e+000	 1.254582590730175e+000	 1.053714685343516e+001
 3.066580793806505e+000	 1.285187626423441e+000	 1.069683390248853e+001
 3.053603282072387e+000	 1.315724893648139e+000	 1.083373799204324e+001
 3.040295956351537e+000	 1.346189250380215e+000	 1.094788457314466e+001
 3.026659014289811e+000	 1.376575537799230e+000	 1.103934049723604e+001
 3.012692757863114e+000	 1.406878582811784e+000	 1.110821378742186e+001
 2.998397594184816e+000	 1.437093200614492e+000	 1.115465333186944e+001
 2.983774036239725e+000	 1.467214197294210e+000	 1.117884849956844e+001
 2.968822703542879e+000	 1.497236372463129e+000	 1.118102867888558e+001
 2.953544322721507e+000	 1.527154521926272e+000	 1.116146273956973e+001
 3.114790808562941e+000	 1.233117277055205e+000	 1.068571893724213e+001
 3.102380490570910e+000	 1.264015542541612e+000	 1.067966447314646e+001
 3.089637792254510e+000	 1.294850691285028e+000	 1.081210771897774e+001
 3.076562705243963e+000	 1.325617562022573e+000	 1.092319260371646e+001
 3.063155324442370e+000	 1.356310974068357e+000	 1.101292399146318e+001
 3.049415848981648e+000	 1.386925729813818e+000	 1.108134683062298e+001
 3.035344583108194e+000	 1.417456617270118e+000	 1.112854591659051e+001
 3.020941936996386e+000	 1.447898412650389e+000	 1.115464557776668e+001
 3.006208427488057e+000	 1.478245882989506e+000	 1.115980928517876e+001
 2.991144678756257e+000	 1.508493788799001e+000	 1.114423918619282e+001
 2.975751422891574e+000	 1.538636886754612e+000	 1.110817556302452e+001
 3.138035516088611e+000	 1.242319644795568e+000	 1.065601364178376e+001
 3.125532583782966e+000	 1.273448494352633e+000	 1.085458048729677e+001
 3.112694790702826e+000	 1.304513756146272e+000	 1.096404861368521e+001
 3.099522128415953e+000	 1.335510230396713e+000	 1.104780541914668e+001
 3.086014692533679e+000	 1.366432697756237e+000	 1.111157224918441e+001
 3.072172683673983e+000	 1.397275921828156e+000	 1.115537298801010e+001
 3.057996408353757e+000	 1.428034651728194e+000	 1.117927007808079e+001
 3.043486279808379e+000	 1.458703624685997e+000	 1.118336419804747e+001
 3.028642818736715e+000	 1.489277568684464e+000	 1.116779386549535e+001
 3.013466653969821e+000	 1.519751205134466e+000	 1.113273496501638e+001
 2.997958523061648e+000	 1.550119251582456e+000	 1.107840020237238e+001
 3.161280223614271e+000	 1.251522012535427e+000	 1.058087512894002e+001
 3.148684676995192e+000	 1.282881446163240e+000	 1.081469247041451e+001
 3.135751789151454e+000	 1.314176821007170e+000	 1.103314894321186e+001
 3.122481551588358e+000	 1.345402898770561e+000	 1.120713943920439e+001
 3.108874060625466e+000	 1.376554421443856e+000	 1.124341628331412e+001
 3.094929518366817e+000	 1.407626113842244e+000	 1.126103048603658e+001
 3.080648233599801e+000	 1.438612686186010e+000	 1.126002300671157e+001
 3.066030622620796e+000	 1.469508836721317e+000	 1.124047177889316e+001
 3.051077209985699e+000	 1.500309254379085e+000	 1.120249130546724e+001
 3.035788629183572e+000	 1.531008621469525e+000	 1.114623218028520e+001
 3.020165623231730e+000	 1.561601616409804e+000	 1.107188053712468e+001
 3.184524931139920e+000	 1.260724380274781e+000	 1.058707128582418e+001
 3.171836770207588e+000	 1.292314397973432e+000	 1.079454617219770e+001
 3.158808787600394e+000	 1.323839885867725e+000	 1.098898783331139e+001
 3.145440974761175e+000	 1.355295567144116e+000	 1.116886903367164e+001
 3.131733428717729e+000	 1.386676145131212e+000	 1.133261141520902e+001
 3.117686353060151e+000	 1.417976305856081e+000	 1.139793840429404e+001
 3.103300058846326e+000	 1.449190720643567e+000	 1.137044813087302e+001
 3.088574965433638e+000	 1.480314048756350e+000	 1.132563671165328e+001
 3.073511601235010e+000	 1.511340940073369e+000	 1.126359556809608e+001
 3.058110604397510e+000	 1.542266037804178e+000	 1.118445096947626e+001
 3.042372723401820e+000	 1.573083981236655e+000	 1.108836347578465e+001
 3.207769638665559e+000	 1.269926748013629e+000	 1.061361119081895e+001
 3.194988863420155e+000	 1.301747349783208e+000	 1.079341824867576e+001
 3.181865786049645e+000	 1.333502950727936e+000	 1.096250831727644e+001
 3.168400397934406e+000	 1.365188235517377e+000	 1.111931434790882e+001
 3.154592796810468e+000	 1.396797868818307e+000	 1.126221455383496e+001
 3.140443187753983e+000	 1.428326497869668e+000	 1.138953276131487e+001
 3.125951884093334e+000	 1.459768755100865e+000	 1.149953889167155e+001
 3.111119308246904e+000	 1.491119260791094e+000	 1.143853298251353e+001
 3.095945992484646e+000	 1.522372625767317e+000	 1.135080533697052e+001
 3.080432579611637e+000	 1.553523454138424e+000	 1.124711529868172e+001
 3.064579823571918e+000	 1.584566346063012e+000	 1.112759884610138e+001
 3.231014346191188e+000	 1.279129115751972e+000	 1.065976278038504e+001
 3.218140956632892e+000	 1.311180301592571e+000	 1.081059543157358e+001
 3.204922784499208e+000	 1.343166015587802e+000	 1.095301683153780e+001
 3.191359821108052e+000	 1.375080903890346e+000	 1.108542066242972e+001
 3.177452164903683e+000	 1.406919592505140e+000	 1.120614224518226e+001
 3.163200022448315e+000	 1.438676689883004e+000	 1.131345887665021e+001
 3.148603709340823e+000	 1.470346789557903e+000	 1.140559030355215e+001
 3.133663651060593e+000	 1.501924472825550e+000	 1.148069933648202e+001
 3.118380383734608e+000	 1.533404311460927e+000	 1.146382384646093e+001
 3.102754554825951e+000	 1.564780870472264e+000	 1.133395282488875e+001
 3.086786923742023e+000	 1.596048710888871e+000	 1.118933929006097e+001
 3.254259053716807e+000	 1.288331483489811e+000	 1.072480439681024e+001
 3.241293049845800e+000	 1.320613253401518e+000	 1.084537416846517e+001
 3.227979782949084e+000	 1.352829080447324e+000	 1.095982882016353e+001
 3.214319244282112e+000	 1.384973572263021e+000	 1.106652330577868e+001
 3.200311532997376e+000	 1.417041316191711e+000	 1.116375058631302e+001
 3.185956857143146e+000	 1.449026881896090e+000	 1.124974195235154e+001
 3.171255534588795e+000	 1.480924824014684e+000	 1.132266748909673e+001
 3.156207993874709e+000	 1.512729684859719e+000	 1.138063668740003e+001
 3.140814774984898e+000	 1.544435997154201e+000	 1.142169920387752e+001
 3.125076530040452e+000	 1.576038286805698e+000	 1.144384577284963e+001
 3.108994023912139e+000	 1.607531075714235e+000	 1.127334016337811e+001
 2.886923022211355e+000	 1.492707427438275e+000	 1.146500425082340e+001
 2.871670410844536e+000	 1.521843964270075e+000	 1.151289045792896e+001
 2.856099864831404e+000	 1.550868647634841e+000	 1.155742565257664e+001
 2.840212411137345e+000	 1.579776395484173e+000	 1.159974047389628e+001
 2.824009182919216e+000	 1.608562132743385e+000	 1.164099174682801e+001
 2.807491419697759e+000	 1.637220794038314e+000	 1.168236075127262e+001
 2.790660467447267e+000	 1.665747326437760e+000	 1.172505142946359e+001
 2.773517778601557e+000	 1.694136692208680e+000	 1.177028853506624e+001
 2.756064911975476e+000	 1.722383871581193e+000	 1.181931572770707e+001
 2.738303532601247e+000	 1.750483865520404e+000	 1.187339361682584e+001
 2.720235411479095e+000	 1.778431698502015e+000	 1.193379775892116e+001
 2.909130122381398e+000	 1.504189792268103e+000	 1.133961286091619e+001
 2.893760183235911e+000	 1.533550456306829e+000	 1.139126462505630e+001
 2.878069863792879e+000	 1.562798406467084e+000	 1.143910966956237e+001
 2.862060198917423e+000	 1.591928521607786e+000	 1.148423660342040e+001
 2.845732330482985e+000	 1.620935687615213e+000	 1.152776032092877e+001
 2.829087507545085e+000	 1.649814800150784e+000	 1.157082029657521e+001
 2.812127086431664e+000	 1.678560767414597e+000	 1.161457881807039e+001
 2.794852530749106e+000	 1.707168512921817e+000	 1.166021916103035e+001
 2.777265411303141e+000	 1.735632978288948e+000	 1.170894370899859e+001
 2.759367405933931e+000	 1.763949126026977e+000	 1.176197202268888e+001
 2.741160299264779e+000	 1.792111942338345e+000	 1.182053886250841e+001
 2.931337222551448e+000	 1.515672157097435e+000	 1.123852099622322e+001
 2.915849955627105e+000	 1.545256948342998e+000	 1.129199802846610e+001
 2.900039862754003e+000	 1.574728165298670e+000	 1.134120469548127e+001
 2.883907986696995e+000	 1.604080647730691e+000	 1.138718883355484e+001
 2.867455478046118e+000	 1.633309242486302e+000	 1.143102467794398e+001
 2.850683595391665e+000	 1.662408806262504e+000	 1.147381118212626e+001
 2.833593705415224e+000	 1.691374208390694e+000	 1.151667027510835e+001
 2.816187282895747e+000	 1.720200333634242e+000	 1.156074506027498e+001
 2.798465910629847e+000	 1.748882084996039e+000	 1.160719795945973e+001
 2.780431279265625e+000	 1.777414386532957e+000	 1.165720880610898e+001
 2.762085187049463e+000	 1.805792186174171e+000	 1.171197289159083e+001
 2.953544322721507e+000	 1.527154521926272e+000	 1.116146273956973e+001
 2.937939728018115e+000	 1.556963440378580e+000	 1.121485712583585e+001
 2.922009861714772e+000	 1.586657924129600e+000	 1.126350961481634e+001
 2.905755774476064e+000	 1.616232773852888e+000	 1.130842851557846e+001
 2.889178625608617e+000	 1.645682797356652e+000	 1.135064866387820e+001
 2.872279683237499e+000	 1.675002812373475e+000	 1.139122976443503e+001
 2.855060324397947e+000	 1.704187649366050e+000	 1.143125467113610e+001
 2.837522035041479e+000	 1.733232154345956e+000	 1.147182760864265e+001
 2.819666409955593e+000	 1.762131191702468e+000	 1.151407233907250e+001
 2.801495152596329e+000	 1.790879647038344e+000	 1.155913027762356e+001
 2.783010074833148e+000	 1.819472430009495e+000	 1.160815856118425e+001
 2.975751422891574e+000	 1.538636886754612e+000	 1.110817556302452e+001
 2.960029500408944e+000	 1.568669932413575e+000	 1.115961066033391e+001
 2.943979860675189e+000	 1.598587682959872e+000	 1.120582449242917e+001
 2.927603562254629e+000	 1.628384899974378e+000	 1.124778707518643e+001
 2.910901773170480e+000	 1.658056352226264e+000	 1.128649509285363e+001
 2.893875771082586e+000	 1.687596818483696e+000	 1.132297026201032e+001
 2.876526943379831e+000	 1.717001090340666e+000	 1.135825763329479e+001
 2.858856787186303e+000	 1.746263975056959e+000	 1.139342383436538e+001
 2.840866909280380e+000	 1.775380298408235e+000	 1.142955525776504e+001
 2.822559025926043e+000	 1.804344907543139e+000	 1.146775619754974e+001
 2.803934962615832e+000	 1.833152673844316e+000	 1.150914693872330e+001
 2.997958523061648e+000	 1.550119251582456e+000	 1.107840020237238e+001
 2.982119272799590e+000	 1.580376424447985e+000	 1.112602957597165e+001
 2.965949859635252e+000	 1.610517441789487e+000	 1.116795052984228e+001
 2.949451350032689e+000	 1.640537026095161e+000	 1.120509600973411e+001
 2.932624920731709e+000	 1.670429907095137e+000	 1.123842578532791e+001
 2.915471858926927e+000	 1.700190824593167e+000	 1.126892483454570e+001
 2.897993562360879e+000	 1.729814531314541e+000	 1.129760166543462e+001
 2.880191539330218e+000	 1.759295795767250e+000	 1.132548657908742e+001
 2.862067408604207e+000	 1.788629405113341e+000	 1.135362987726565e+001
 2.843622899254766e+000	 1.817810168047342e+000	 1.138310001858511e+001
 2.824859850397516e+000	 1.846832917678635e+000	 1.141498172730530e+001
 3.020165623231730e+000	 1.561601616409804e+000	 1.107188053712468e+001
 3.004209045190053e+000	 1.592082916481808e+000	 1.111388693669013e+001
 2.987919858594963e+000	 1.622447200618447e+000	 1.114969002344998e+001
 2.971299137810247e+000	 1.652689152215236e+000	 1.118018688560250e+001
 2.954348068292302e+000	 1.682803461963273e+000	 1.120630160462595e+001
 2.937067946770523e+000	 1.712784830701890e+000	 1.122898365861117e+001
 2.919460181341089e+000	 1.742627972287676e+000	 1.124920626294175e+001
 2.901526291473225e+000	 1.772327616476831e+000	 1.126796465178385e+001
 2.883267907927075e+000	 1.801878511817784e+000	 1.128627430405112e+001
 2.864686772582501e+000	 1.831275428550951e+000	 1.130516911770559e+001
 2.845784738178201e+000	 1.860513161512450e+000	 1.132569953643779e+001
 3.042372723401820e+000	 1.573083981236655e+000	 1.108836347578465e+001
 3.026298817580335e+000	 1.603789408515045e+000	 1.112295784899040e+001
 3.009889857554320e+000	 1.634376959446748e+000	 1.115084632455966e+001
 2.993146925587299e+000	 1.664841278334603e+000	 1.117289133567900e+001
 2.976071215852259e+000	 1.695177016830668e+000	 1.118998249187176e+001
 2.958664034613371e+000	 1.725378836809862e+000	 1.120303500002999e+001
 2.940926800320462e+000	 1.755441413260070e+000	 1.121298802253622e+001
 2.922861043615324e+000	 1.785359437185700e+000	 1.122080297593830e+001
 2.904468407248984e+000	 1.815127618521566e+000	 1.122746177384510e+001
 2.885750645909246e+000	 1.844740689053969e+000	 1.123396501790691e+001
 2.866709625957885e+000	 1.874193405345763e+000	 1.124133014092880e+001
 3.064579823571918e+000	 1.584566346063012e+000	 1.112759884610138e+001
 3.048388589970434e+000	 1.615495900547695e+000	 1.115301938792767e+001
 3.031859856513325e+000	 1.646306718274394e+000	 1.117122380117026e+001
 3.014994713363848e+000	 1.676993404453262e+000	 1.118304105694780e+001
 2.997794363411584e+000	 1.707550571697327e+000	 1.118932749940158e+001
 2.980260122455474e+000	 1.737972842917085e+000	 1.119096528310868e+001
 2.962393419298998e+000	 1.768254854231724e+000	 1.118886074729608e+001
 2.944195795756514e+000	 1.798391257893857e+000	 1.118394273032161e+001
 2.925668906569935e+000	 1.828376725224685e+000	 1.117716082809457e+001
 2.906814519235000e+000	 1.858205949556393e+000	 1.116948360030551e+001
 2.887634513736569e+000	 1.887873649178574e+000	 1.127819539100331e+001
 3.086786923742023e+000	 1.596048710888871e+000	 1.118933929006097e+001
 3.070478362360350e+000	 1.627202392579759e+000	 1.120385052630009e+001
 3.053829855471977e+000	 1.658236477101382e+000	 1.121062780140065e+001
 3.036842501139893e+000	 1.689145530571214e+000	 1.121046780818425e+001
 3.019517510970271e+000	 1.719924126563246e+000	 1.120419482273454e+001
 3.001856210296831e+000	 1.750566849023559e+000	 1.119265915687852e+001
 2.983860038276696e+000	 1.781068295202637e+000	 1.117673554714815e+001
 2.965530547896796e+000	 1.811423078601303e+000	 1.115732148369378e+001
 2.946869405889925e+000	 1.841625831927142e+000	 1.113533548282875e+001
 2.927878392559766e+000	 1.871671210058226e+000	 1.111171530708379e+001
 2.908559401514253e+000	 1.901553893010882e+000	 1.132044546556972e+001
 3.108994023912139e+000	 1.607531075714235e+000	 1.127334016337811e+001
 3.092568134750085e+000	 1.638908884611238e+000	 1.127523206687214e+001
 3.075799854430276e+000	 1.670166235927714e+000	 1.126886461848529e+001
 3.058690288915435e+000	 1.701297656688459e+000	 1.125500340774801e+001
 3.041240658528325e+000	 1.732297681428427e+000	 1.123444183117342e+001
 3.023452298137441e+000	 1.763160855129283e+000	 1.120799955849831e+001
 3.005326657253558e+000	 1.793881736172811e+000	 1.117652093505197e+001
 2.986865300036170e+000	 1.824454899308038e+000	 1.114087332373280e+001
 2.968069905208957e+000	 1.854874938628938e+000	 1.110194539028119e+001
 2.948942265883543e+000	 1.885136470559467e+000	 1.114378041285388e+001
 2.929484289290938e+000	 1.915234136842687e+000	 1.135993974567093e+001
 2.720235411479095e+000	 1.778431698502015e+000	 1.193379775892116e+001
 2.701862425241567e+000	 1.806222421288800e+000	 1.163811279038896e+001
 2.683186555731693e+000	 1.833851113704457e+000	 1.135132181121613e+001
 2.664209889494488e+000	 1.861312887401978e+000	 1.107481093086287e+001
 2.644934617181425e+000	 1.888602888623658e+000	 1.095309453193344e+001
 2.625363032868398e+000	 1.915716300949207e+000	 1.098402199531511e+001
 2.605497533287247e+000	 1.942648348028941e+000	 1.102219775563607e+001
 2.585340616971148e+000	 1.969394296298900e+000	 1.106665766761367e+001
 2.564894883314335e+000	 1.995949457674740e+000	 1.111637034618760e+001
 2.544163031546755e+000	 2.022309192221251e+000	 1.117023903904820e+001
 2.523147859624355e+000	 2.048468910794402e+000	 1.122710370188912e+001
 2.741160299264779e+000	 1.792111942338345e+000	 1.182053886250841e+001
 2.722645982363904e+000	 1.820116439914905e+000	 1.152337101654973e+001
 2.703826452319316e+000	 1.847957660732984e+000	 1.123358979759366e+001
 2.684703811726376e+000	 1.875630678842904e+000	 1.095924787897635e+001
 2.665280268087723e+000	 1.903130603150365e+000	 1.097676269442541e+001
 2.645558133125989e+000	 1.930452580185686e+000	 1.100180528034642e+001
 2.625539822009412e+000	 1.957591796858037e+000	 1.103347135649361e+001
 2.605227852490652e+000	 1.984543483191425e+000	 1.107078640743096e+001
 2.584624843959287e+000	 2.011302915039319e+000	 1.111270737582614e+001
 2.563733516408568e+000	 2.037865416774702e+000	 1.115812456601026e+001
 2.542556689317182e+000	 2.064226363952433e+000	 1.120586375472156e+001
 2.762085187049463e+000	 1.805792186174171e+000	 1.171197289159083e+001
 2.743429539485246e+000	 1.834010458540603e+000	 1.141347299256626e+001
 2.724466348905958e+000	 1.862064207761188e+000	 1.112086974398353e+001
 2.705197733957309e+000	 1.889948470283585e+000	 1.099137801731421e+001
 2.685625918993101e+000	 1.917658317676889e+000	 1.100401688773215e+001
 2.665753233382703e+000	 1.945188859422040e+000	 1.102361957490515e+001
 2.645582110730754e+000	 1.972535245687052e+000	 1.104927201651699e+001
 2.625115088009400e+000	 1.999692670083905e+000	 1.107998851542838e+001
 2.604354804603557e+000	 2.026656372403878e+000	 1.111471346031314e+001
 2.583304001269784e+000	 2.053421641328147e+000	 1.115232326120577e+001
 2.561965519009508e+000	 2.079983817110463e+000	 1.119162849682649e+001
 2.783010074833148e+000	 1.819472430009495e+000	 1.160815856118425e+001
 2.764213096605592e+000	 1.847904477165892e+000	 1.130846212881227e+001
 2.745106245491620e+000	 1.876170754789071e+000	 1.102521190201757e+001
 2.725691656187286e+000	 1.904266261724016e+000	 1.102605474024223e+001
 2.705971569897559e+000	 1.932186032203232e+000	 1.103419937225769e+001
 2.685948333638542e+000	 1.959925138658268e+000	 1.104879584639852e+001
 2.665624399451278e+000	 1.987478694515987e+000	 1.106891957852281e+001
 2.645002323527393e+000	 2.014841856976339e+000	 1.109357287866468e+001
 2.624084765247146e+000	 2.042009829768418e+000	 1.112168669983424e+001
 2.602874486130406e+000	 2.068977865881588e+000	 1.115212260651067e+001
 2.581374348701332e+000	 2.095741270268494e+000	 1.118367495964214e+001
 2.803934962615832e+000	 1.833152673844316e+000	 1.150914693872330e+001
 2.784996653724944e+000	 1.861798495790774e+000	 1.120837451645788e+001
 2.765746142076302e+000	 1.890277301816630e+000	 1.106545581028719e+001
 2.746185578416309e+000	 1.918584053164202e+000	 1.106262514259461e+001
 2.726317220801094e+000	 1.946713746729394e+000	 1.106664614663156e+001
 2.706143433893507e+000	 1.974661417894369e+000	 1.107665917658633e+001
 2.685666688170978e+000	 2.002422143344840e+000	 1.109172838738815e+001
 2.664889559044628e+000	 2.029991043868728e+000	 1.111084328538940e+001
 2.643814725890054e+000	 2.057363287132937e+000	 1.113292050615186e+001
 2.622444970990429e+000	 2.084534090435024e+000	 1.115680581684524e+001
 2.600783178392654e+000	 2.111498723426525e+000	 1.118127634001820e+001
 2.824859850397516e+000	 1.846832917678635e+000	 1.141498172730530e+001
 2.805780210843301e+000	 1.875692514415249e+000	 1.112006997498749e+001
 2.786386038660004e+000	 1.904383848843868e+000	 1.110662726176222e+001
 2.766679500644376e+000	 1.932901844604140e+000	 1.110042993844933e+001
 2.746662871703712e+000	 1.961241461255374e+000	 1.110068717962644e+001
 2.726338534147595e+000	 1.989397697130344e+000	 1.110652897956790e+001
 2.705708976889859e+000	 2.017365592173614e+000	 1.111700749367802e+001
 2.684776794561109e+000	 2.045140230761071e+000	 1.113109861388764e+001
 2.663544686532281e+000	 2.072716744497436e+000	 1.114770377625055e+001
 2.642015455849857e+000	 2.100090314988454e+000	 1.116565199820948e+001
 2.620192008083476e+000	 2.127256176584556e+000	 1.118370214223760e+001
 2.845784738178201e+000	 1.860513161512450e+000	 1.132569953643779e+001
 2.826563767960662e+000	 1.889586533039316e+000	 1.116424995926868e+001
 2.807025935242726e+000	 1.918490395870783e+000	 1.114807143240474e+001
 2.787173422871487e+000	 1.947219636043832e+000	 1.113880369571488e+001
 2.767008522605407e+000	 1.975769175781172e+000	 1.113564663184399e+001
 2.746533634400807e+000	 2.004133976366193e+000	 1.113771921015189e+001
 2.725751265607919e+000	 2.032309041002305e+000	 1.114406084828912e+001
 2.704664030076832e+000	 2.060289417653369e+000	 1.115363301299347e+001
 2.683274647173826e+000	 2.088070201861914e+000	 1.116532105832143e+001
 2.661585940708688e+000	 2.115646539541879e+000	 1.117793629874638e+001
 2.639600837773796e+000	 2.143013629742586e+000	 1.119021831377264e+001
 2.866709625957885e+000	 1.874193405345763e+000	 1.124133014092880e+001
 2.847347325077028e+000	 1.903480551662975e+000	 1.120780966963993e+001
 2.827665831824468e+000	 1.932596942897376e+000	 1.118912726126929e+001
 2.807667345097644e+000	 1.961537427483276e+000	 1.117707506044299e+001
 2.787354173506182e+000	 1.990296890306788e+000	 1.117084306769203e+001
 2.766728734653143e+000	 2.018870255601915e+000	 1.116953856310055e+001
 2.745793554325158e+000	 2.047252489830916e+000	 1.117218748856928e+001
 2.724551265591801e+000	 2.075438604545620e+000	 1.117773607469763e+001
 2.703004607814691e+000	 2.103423659226372e+000	 1.118505271047733e+001
 2.681156425566923e+000	 2.131202764095300e+000	 1.119293005318924e+001
 2.659009667463616e+000	 2.158771082900617e+000	 1.120008737509561e+001
 2.887634513736569e+000	 1.887873649178574e+000	 1.127819539100331e+001
 2.868130882192400e+000	 1.917374570286227e+000	 1.125009224424619e+001
 2.848305728405229e+000	 1.946703489923646e+000	 1.122912767647782e+001
 2.828161267322845e+000	 1.975855218922473e+000	 1.121456697138869e+001
 2.807699824406037e+000	 2.004824604832223e+000	 1.120558965814500e+001
 2.786923834904604e+000	 2.033606534837511e+000	 1.120129066371103e+001
 2.765835843041575e+000	 2.062195938659446e+000	 1.120068171634437e+001
 2.744438501106012e+000	 2.090587791437828e+000	 1.120269299925057e+001
 2.722734568454874e+000	 2.118777116590811e+000	 1.120617505256722e+001
 2.700726910424563e+000	 2.146758988648715e+000	 1.120990092102870e+001
 2.678418497152933e+000	 2.174528536058647e+000	 1.121256854384546e+001
 2.908559401514253e+000	 1.901553893010882e+000	 1.132044546556972e+001
 2.888914439306776e+000	 1.931268588909071e+000	 1.129043474377804e+001
 2.868945624985010e+000	 1.960810036949595e+000	 1.126739981144037e+001
 2.848655189547090e+000	 1.990173010361424e+000	 1.125059686530868e+001
 2.828045475304971e+000	 2.019352319357477e+000	 1.123919437475262e+001
 2.807118935155189e+000	 2.048342814072982e+000	 1.123227425017041e+001
 2.785878131757172e+000	 2.077139387487895e+000	 1.122883326826100e+001
 2.764325736619468e+000	 2.105736978329988e+000	 1.122778475313870e+001
 2.742464529094375e+000	 2.134130573955228e+000	 1.122796051143750e+001
 2.720297395281605e+000	 2.162315213202126e+000	 1.122811301871575e+001
 2.697827326841749e+000	 2.190285989216679e+000	 1.122691785363476e+001
 2.929484289290938e+000	 1.915234136842687e+000	 1.135993974567093e+001
 2.909697996420158e+000	 1.945162607531509e+000	 1.132816836852370e+001
 2.889585521563812e+000	 1.974916583975221e+000	 1.130326521180893e+001
 2.869149111770381e+000	 2.004490801800127e+000	 1.128447687346140e+001
 2.848391126202986e+000	 2.033880033882548e+000	 1.127096017533335e+001
 2.827314035404899e+000	 2.063079093308326e+000	 1.126178334809514e+001
 2.805920420471948e+000	 2.092082836316265e+000	 1.125592747882864e+001
 2.784212972132169e+000	 2.120886165222105e+000	 1.125228822029029e+001
 2.762194489733197e+000	 2.149484031319626e+000	 1.124967775996778e+001
 2.739867880138053e+000	 2.177871437755532e+000	 1.124682704619881e+001
 2.717236156530065e+000	 2.206043442374710e+000	 1.124238826776494e+001
 2.523147859624355e+000	 2.048468910794402e+000	 1.122710370188912e+001
 2.501852263035922e+000	 2.074424077653029e+000	 1.121671142734218e+001
 2.480279233527257e+000	 2.100170213036469e+000	 1.122152363511806e+001
 2.458431857744017e+000	 2.125702895705409e+000	 1.121761507023969e+001
 2.436313315794466e+000	 2.151017765443552e+000	 1.120223312372889e+001
 2.413926879733346e+000	 2.176110525516454e+000	 1.117457104551495e+001
 2.391275911968414e+000	 2.200976945084877e+000	 1.113378803630187e+001
 2.368363863591268e+000	 2.225612861569795e+000	 1.107901142987689e+001
 2.345194272634154e+000	 2.250014182966334e+000	 1.100933900084417e+001
 2.321770762254630e+000	 2.274176890103913e+000	 1.092384139191659e+001
 2.298097038850000e+000	 2.298097038850000e+000	 1.082156465446626e+001
 2.542556689317182e+000	 2.064226363952433e+000	 1.120586375472156e+001
 2.521097280446934e+000	 2.090381185940973e+000	 1.119459490907851e+001
 2.499358304557080e+000	 2.116325368519902e+000	 1.118257174875842e+001
 2.477342872036707e+000	 2.142054456440371e+000	 1.118574031957786e+001
 2.455054187456451e+000	 2.167564055945962e+000	 1.117801158731073e+001
 2.432495548040706e+000	 2.192849837250425e+000	 1.115850200095639e+001
 2.409670342061902e+000	 2.217907536969605e+000	 1.112629183307025e+001
 2.386582047158496e+000	 2.242732960504639e+000	 1.108042747264099e+001
 2.363234228578369e+000	 2.267321984373689e+000	 1.101992384826702e+001
 2.339630537349519e+000	 2.291670558489480e+000	 1.094376697552897e+001
 2.315774708380000e+000	 2.315774708380000e+000	 1.085091662200881e+001
 2.561965519009508e+000	 2.079983817110463e+000	 1.119162849682649e+001
 2.540342297857539e+000	 2.106338294228916e+000	 1.117866075398602e+001
 2.518437375586582e+000	 2.132480524003333e+000	 1.116519277435081e+001
 2.496253886329152e+000	 2.158406017175334e+000	 1.115370213756989e+001
 2.473795059118257e+000	 2.184110346448371e+000	 1.115287409012775e+001
 2.451064216347939e+000	 2.209589148984396e+000	 1.114077888910258e+001
 2.428064772155310e+000	 2.234838128854334e+000	 1.111641751547586e+001
 2.404800230725679e+000	 2.259853059439483e+000	 1.107875501503303e+001
 2.381274184522563e+000	 2.284629785781046e+000	 1.102672303791954e+001
 2.357490312444403e+000	 2.309164226875049e+000	 1.095922250710703e+001
 2.333452377910000e+000	 2.333452377910000e+000	 1.087512640896724e+001
 2.581374348701332e+000	 2.095741270268494e+000	 1.118367495964214e+001
 2.559587315267738e+000	 2.122295402516860e+000	 1.116821090165718e+001
 2.537516446615764e+000	 2.148635679486764e+000	 1.115317158907700e+001
 2.515164900621352e+000	 2.174757577910296e+000	 1.113735783822392e+001
 2.492535930779882e+000	 2.200656636950781e+000	 1.112630168219794e+001
 2.469632884655048e+000	 2.226328460718368e+000	 1.112090855408846e+001
 2.446459202248637e+000	 2.251768720739063e+000	 1.110369831339769e+001
 2.423018414292818e+000	 2.276973158374327e+000	 1.107355424622254e+001
 2.399314140466738e+000	 2.301937587188402e+000	 1.102932427315098e+001
 2.375350087539282e+000	 2.326657895260617e+000	 1.096982373985589e+001
 2.351130047440000e+000	 2.351130047440000e+000	 1.089383833433199e+001
 2.600783178392654e+000	 2.111498723426525e+000	 1.118127634001820e+001
 2.578832332677530e+000	 2.138252510804803e+000	 1.116254284967237e+001
 2.556595517644623e+000	 2.164790834970196e+000	 1.114518062797926e+001
 2.534075914913305e+000	 2.191109138645258e+000	 1.112790735715492e+001
 2.511276802441324e+000	 2.217202927453191e+000	 1.110938038443079e+001
 2.488201552962031e+000	 2.243067772452339e+000	 1.109839090746123e+001
 2.464853632341883e+000	 2.268699312623791e+000	 1.108765988772869e+001
 2.441236597859911e+000	 2.294093257309171e+000	 1.106437714509355e+001
 2.417354096410892e+000	 2.319245388595757e+000	 1.102730640113104e+001
 2.393209862634155e+000	 2.344151563646185e+000	 1.097517692062218e+001
 2.368807716970000e+000	 2.368807716970000e+000	 1.090668655658403e+001
 2.620192008083476e+000	 2.127256176584556e+000	 1.118370214223760e+001
 2.598077350086916e+000	 2.154209619092746e+000	 1.116094981811882e+001
 2.575674588673162e+000	 2.180945990453628e+000	 1.114053754565599e+001
 2.552986929205012e+000	 2.207460699380221e+000	 1.112109933229149e+001
 2.530017674102587e+000	 2.233749217955601e+000	 1.110120596761978e+001
 2.506770221268889e+000	 2.259807084186310e+000	 1.107936826443897e+001
 2.483248062435050e+000	 2.285629904508520e+000	 1.106782061070867e+001
 2.459454781426959e+000	 2.311213356244015e+000	 1.105076778432934e+001
 2.435394052355027e+000	 2.336553190003114e+000	 1.102023974085659e+001
 2.411069637729024e+000	 2.361645232031754e+000	 1.097487914198159e+001
 2.386485386499999e+000	 2.386485386500000e+000	 1.091329545001008e+001
 2.639600837773796e+000	 2.143013629742586e+000	 1.119021831377264e+001
 2.617322367495897e+000	 2.170166727380690e+000	 1.116272090685140e+001
 2.594753659701379e+000	 2.197101145937059e+000	 1.113855530713648e+001
 2.571897943496473e+000	 2.223812260115183e+000	 1.111627128924320e+001
 2.548758545763669e+000	 2.250295508458011e+000	 1.109435247881063e+001
 2.525338889575621e+000	 2.276546395920281e+000	 1.107121972068300e+001
 2.501642492528136e+000	 2.302560496393249e+000	 1.104523465026797e+001
 2.477672964993961e+000	 2.328333455178859e+000	 1.103226262108149e+001
 2.453434008299141e+000	 2.353860991410470e+000	 1.100768639668735e+001
 2.428929412823889e+000	 2.379138900417323e+000	 1.096851867879270e+001
 2.404163056029999e+000	 2.404163056029999e+000	 1.091327996441555e+001
 2.659009667463616e+000	 2.158771082900617e+000	 1.120008737509561e+001
 2.636567384904470e+000	 2.186123835668633e+000	 1.116714124586609e+001
 2.613832730729275e+000	 2.213256301420491e+000	 1.113854235903296e+001
 2.590808957787688e+000	 2.240163820850145e+000	 1.111275568120142e+001
 2.567499417424571e+000	 2.266841798960421e+000	 1.108817704988697e+001
 2.543907557882227e+000	 2.293285707654253e+000	 1.106313667003547e+001
 2.520036922621142e+000	 2.319491088277978e+000	 1.103590282047904e+001
 2.495891148560918e+000	 2.345453554113703e+000	 1.100839077490904e+001
 2.471473964243236e+000	 2.371168792817826e+000	 1.098920055815026e+001
 2.446789187918747e+000	 2.396632568802891e+000	 1.095567531001167e+001
 2.421840725560000e+000	 2.421840725560000e+000	 1.090624596908378e+001
 2.678418497152933e+000	 2.174528536058647e+000	 1.121256854384546e+001
 2.655812402312637e+000	 2.202080943956577e+000	 1.117349213913542e+001
 2.632911801756850e+000	 2.229411456903923e+000	 1.113980279325134e+001
 2.609719972078657e+000	 2.256515381585107e+000	 1.110988007272267e+001
 2.586240289085291e+000	 2.283388089462831e+000	 1.108203138517390e+001
 2.562476226188708e+000	 2.310025019388224e+000	 1.105449560541243e+001
 2.538431352714066e+000	 2.336421680162706e+000	 1.102544691831635e+001
 2.514109332127830e+000	 2.362573653048547e+000	 1.099299886947240e+001
 2.489513920187309e+000	 2.388476594225181e+000	 1.096432878670873e+001
 2.464648963013601e+000	 2.414126237188460e+000	 1.093592062651474e+001
 2.439518395090000e+000	 2.439518395090000e+000	 1.089179058178037e+001
 2.697827326841749e+000	 2.190285989216679e+000	 1.122691785363476e+001
 2.675057419720397e+000	 2.218038052244520e+000	 1.118105120223521e+001
 2.651990872784105e+000	 2.245566612387354e+000	 1.114163650363543e+001
 2.628630986369380e+000	 2.272866942320069e+000	 1.110696731557868e+001
 2.604981160745831e+000	 2.299934379965241e+000	 1.107526195667393e+001
 2.581044894495063e+000	 2.326764331122195e+000	 1.104466726329942e+001
 2.556825782806911e+000	 2.353352272047435e+000	 1.101326257027793e+001
 2.532327515694697e+000	 2.379693751983390e+000	 1.097906390599132e+001
 2.507553876131363e+000	 2.405784395632538e+000	 1.094002839186617e+001
 2.482508738108449e+000	 2.431619905574028e+000	 1.090881832563339e+001
 2.457196064620000e+000	 2.457196064620000e+000	 1.086950248355610e+001
 2.717236156530065e+000	 2.206043442374710e+000	 1.124238826776494e+001
 2.694302437127753e+000	 2.233995160532463e+000	 1.118909249407310e+001
 2.671069943811038e+000	 2.261721767870786e+000	 1.114333933589765e+001
 2.647542000659858e+000	 2.289218503055032e+000	 1.110333571707027e+001
 2.623722032406190e+000	 2.316480670467651e+000	 1.106721019093562e+001
 2.599613562801293e+000	 2.343503642856166e+000	 1.103301682933835e+001
 2.575220212899676e+000	 2.370282863932164e+000	 1.099873934246136e+001
 2.550545699261519e+000	 2.396813850918235e+000	 1.096229541989779e+001
 2.525593832075397e+000	 2.423092197039895e+000	 1.092154128258339e+001
 2.500368513203295e+000	 2.449113573959597e+000	 1.087427643449038e+001
 2.474873734150000e+000	 2.474873734150000e+000	 1.083896222005806e+001
 2.298097038850000e+000	 2.298097038850000e+000	 1.082156465446626e+001
 2.274176890103912e+000	 2.321770762254630e+000	 1.092586689436816e+001
 2.250014182966333e+000	 2.345194272634154e+000	 1.100273927836667e+001
 2.225612861569795e+000	 2.368363863591268e+000	 1.105008733584375e+001
 2.200976945084877e+000	 2.391275911968415e+000	 1.106581071769923e+001
 2.176110525516454e+000	 2.413926879733345e+000	 1.104780732412646e+001
 2.151017765443552e+000	 2.436313315794466e+000	 1.099397748783461e+001
 2.125702895705410e+000	 2.458431857744016e+000	 1.090222820221900e+001
 2.100170213036469e+000	 2.480279233527257e+000	 1.077047738379449e+001
 2.074424077653029e+000	 2.501852263035922e+000	 1.061174016815868e+001
 2.048468910794402e+000	 2.523147859624355e+000	 1.059367544632025e+001
 2.315774708380000e+000	 2.315774708380000e+000	 1.085091662200881e+001
 2.291670558489480e+000	 2.339630537349518e+000	 1.094079765587744e+001
 2.267321984373690e+000	 2.363234228578369e+000	 1.100352617907973e+001
 2.242732960504639e+000	 2.386582047158496e+000	 1.103701708047612e+001
 2.217907536969605e+000	 2.409670342061902e+000	 1.103917780195938e+001
 2.192849837250426e+000	 2.432495548040706e+000	 1.100791250430856e+001
 2.167564055945962e+000	 2.455054187456451e+000	 1.094112629196073e+001
 2.142054456440372e+000	 2.477342872036708e+000	 1.083672948604724e+001
 2.116325368519901e+000	 2.499358304557081e+000	 1.069264193484553e+001
 2.090381185940973e+000	 2.521097280446934e+000	 1.066440390367336e+001
 2.064226363952433e+000	 2.542556689317182e+000	 1.064311980243400e+001
 2.333452377910000e+000	 2.333452377910000e+000	 1.087512640896724e+001
 2.309164226875049e+000	 2.357490312444403e+000	 1.095237685454491e+001
 2.284629785781046e+000	 2.381274184522563e+000	 1.100275806322313e+001
 2.259853059439483e+000	 2.404800230725679e+000	 1.102419251873950e+001
 2.234838128854334e+000	 2.428064772155310e+000	 1.101459366718170e+001
 2.209589148984396e+000	 2.451064216347939e+000	 1.097187012337314e+001
 2.184110346448371e+000	 2.473795059118257e+000	 1.089392993969373e+001
 2.158406017175333e+000	 2.496253886329152e+000	 1.077868492652234e+001
 2.132480524003332e+000	 2.518437375586582e+000	 1.072991114580851e+001
 2.106338294228916e+000	 2.540342297857539e+000	 1.070290529878084e+001
 2.079983817110463e+000	 2.561965519009508e+000	 1.067973701346054e+001
 2.351130047440000e+000	 2.351130047440000e+000	 1.089383833433199e+001
 2.326657895260617e+000	 2.375350087539281e+000	 1.096022258490614e+001
 2.301937587188402e+000	 2.399314140466737e+000	 1.100002739425383e+001
 2.276973158374327e+000	 2.423018414292818e+000	 1.101118108176607e+001
 2.251768720739063e+000	 2.446459202248637e+000	 1.099160131576154e+001
 2.226328460718368e+000	 2.469632884655048e+000	 1.093919936285985e+001
 2.200656636950781e+000	 2.492535930779882e+000	 1.085188440335423e+001
 2.174757577910297e+000	 2.515164900621352e+000	 1.078974541773568e+001
 2.148635679486764e+000	 2.537516446615764e+000	 1.075617359090217e+001
 2.122295402516860e+000	 2.559587315267738e+000	 1.072762930869902e+001
 2.095741270268495e+000	 2.581374348701332e+000	 1.070387880050131e+001
 2.368807716970000e+000	 2.368807716970000e+000	 1.090668655658403e+001
 2.344151563646185e+000	 2.393209862634155e+000	 1.096394377350513e+001
 2.319245388595758e+000	 2.417354096410892e+000	 1.099491845328005e+001
 2.294093257309171e+000	 2.441236597859911e+000	 1.099754299663338e+001
 2.268699312623791e+000	 2.464853632341883e+000	 1.096973751651614e+001
 2.243067772452339e+000	 2.488201552962031e+000	 1.090941413292570e+001
 2.217202927453191e+000	 2.511276802441325e+000	 1.084321214514953e+001
 2.191109138645258e+000	 2.534075914913305e+000	 1.080244189628355e+001
 2.164790834970196e+000	 2.556595517644623e+000	 1.076775005403524e+001
 2.138252510804803e+000	 2.578832332677530e+000	 1.073895937417583e+001
 2.111498723426525e+000	 2.600783178392654e+000	 1.071589628424199e+001
 2.386485386499999e+000	 2.386485386500000e+000	 1.091329545001008e+001
 2.361645232031754e+000	 2.411069637729024e+000	 1.096314051844940e+001
 2.336553190003114e+000	 2.435394052355026e+000	 1.098700764211126e+001
 2.311213356244014e+000	 2.459454781426959e+000	 1.098283155318127e+001
 2.285629904508520e+000	 2.483248062435050e+000	 1.094853303555805e+001
 2.259807084186310e+000	 2.506770221268889e+000	 1.088937272862309e+001
 2.233749217955601e+000	 2.530017674102588e+000	 1.084098306167527e+001
 2.207460699380221e+000	 2.552986929205012e+000	 1.079958367893614e+001
 2.180945990453627e+000	 2.575674588673162e+000	 1.076505412107584e+001
 2.154209619092746e+000	 2.598077350086916e+000	 1.073727747758060e+001
 2.127256176584556e+000	 2.620192008083476e+000	 1.071614000719029e+001
 2.404163056029999e+000	 2.404163056029999e+000	 1.091327996441555e+001
 2.379138900417322e+000	 2.428929412823889e+000	 1.095740441398501e+001
 2.353860991410470e+000	 2.453434008299141e+000	 1.097586377293816e+001
 2.328333455178858e+000	 2.477672964993961e+000	 1.096659335905732e+001
 2.302560496393249e+000	 2.501642492528136e+000	 1.092704384661311e+001
 2.276546395920281e+000	 2.525338889575621e+000	 1.087082445751222e+001
 2.250295508458011e+000	 2.548758545763669e+000	 1.082236872085724e+001
 2.223812260115183e+000	 2.571897943496473e+000	 1.078161297287749e+001
 2.197101145937059e+000	 2.594753659701379e+000	 1.074849711554738e+001
 2.170166727380690e+000	 2.617322367495896e+000	 1.072296419652101e+001
 2.143013629742586e+000	 2.639600837773797e+000	 1.070495995493236e+001
 2.421840725560000e+000	 2.421840725560000e+000	 1.090624596908378e+001
 2.396632568802890e+000	 2.446789187918747e+000	 1.094631886085636e+001
 2.371168792817826e+000	 2.471473964243235e+000	 1.096104834532624e+001
 2.345453554113702e+000	 2.495891148560919e+000	 1.094836858359247e+001
 2.319491088277978e+000	 2.520036922621141e+000	 1.089074738479461e+001
 2.293285707654252e+000	 2.543907557882227e+000	 1.083509682000999e+001
 2.266841798960421e+000	 2.567499417424571e+000	 1.078783847612749e+001
 2.240163820850145e+000	 2.590808957787687e+000	 1.074896897022741e+001
 2.213256301420490e+000	 2.613832730729275e+000	 1.071848818119584e+001
 2.186123835668633e+000	 2.636567384904469e+000	 1.069639875511177e+001
 2.158771082900617e+000	 2.659009667463616e+000	 1.068270557645841e+001
 2.439518395090000e+000	 2.439518395090000e+000	 1.089179058178037e+001
 2.414126237188460e+000	 2.464648963013600e+000	 1.092945936317226e+001
 2.388476594225182e+000	 2.489513920187309e+000	 1.094211581116580e+001
 2.362573653048546e+000	 2.514109332127830e+000	 1.089928700069146e+001
 2.336421680162706e+000	 2.538431352714067e+000	 1.083651223030003e+001
 2.310025019388224e+000	 2.562476226188708e+000	 1.078268488758862e+001
 2.283388089462831e+000	 2.586240289085291e+000	 1.073785796177336e+001
 2.256515381585107e+000	 2.609719972078657e+000	 1.070208795728292e+001
 2.229411456903922e+000	 2.632911801756850e+000	 1.067543436096731e+001
 2.202080943956577e+000	 2.655812402312637e+000	 1.065795907301415e+001
 2.174528536058648e+000	 2.678418497152933e+000	 1.064972580360467e+001
 2.457196064620000e+000	 2.457196064620000e+000	 1.086950248355610e+001
 2.431619905574028e+000	 2.482508738108450e+000	 1.090639381245753e+001
 2.405784395632538e+000	 2.507553876131362e+000	 1.089473276752733e+001
 2.379693751983389e+000	 2.532327515694696e+000	 1.082511185247186e+001
 2.353352272047435e+000	 2.556825782806911e+000	 1.076485778952102e+001
 2.326764331122194e+000	 2.581044894495063e+000	 1.071407935466106e+001
 2.299934379965241e+000	 2.604981160745831e+000	 1.067288922671976e+001
 2.272866942320070e+000	 2.628630986369379e+000	 1.064140341904428e+001
 2.245566612387353e+000	 2.651990872784105e+000	 1.061974067257625e+001
 2.218038052244520e+000	 2.675057419720398e+000	 1.060802181235882e+001
 2.190285989216679e+000	 2.697827326841749e+000	 1.060636906965594e+001
 2.474873734150000e+000	 2.474873734150000e+000	 1.083896222005806e+001
 2.449113573959596e+000	 2.500368513203294e+000	 1.087512942819409e+001
 2.423092197039895e+000	 2.525593832075397e+000	 1.079914579388097e+001
 2.396813850918235e+000	 2.550545699261519e+000	 1.073281423070186e+001
 2.370282863932165e+000	 2.575220212899676e+000	 1.067629847769463e+001
 2.343503642856166e+000	 2.599613562801293e+000	 1.062976669490459e+001
 2.316480670467651e+000	 2.623722032406190e+000	 1.059339086257779e+001
 2.289218503055032e+000	 2.647542000659858e+000	 1.056734613926128e+001
 2.261721767870785e+000	 2.671069943811037e+000	 1.055181018083519e+001
 2.233995160532464e+000	 2.694302437127753e+000	 1.054696242265767e+001
 2.206043442374710e+000	 2.717236156530064e+000	 1.055298332715109e+001
 2.048468910794402e+000	 2.523147859624355e+000	 1.059367544632025e+001
 2.022309192221251e+000	 2.544163031546754e+000	 1.057460718479895e+001
 1.995949457674740e+000	 2.564894883314335e+000	 1.054728693587851e+001
 1.969394296298900e+000	 2.585340616971148e+000	 1.051148078126011e+001
 1.942648348028941e+000	 2.605497533287247e+000	 1.046696761562168e+001
 1.915716300949207e+000	 2.625363032868398e+000	 1.041353877253681e+001
 1.888602888623659e+000	 2.644934617181425e+000	 1.035099761523466e+001
 1.861312887401978e+000	 2.664209889494488e+000	 1.028062612382744e+001
 1.833851113704457e+000	 2.683186555731693e+000	 1.022257012442784e+001
 1.806222421288800e+000	 2.701862425241568e+000	 1.017900469262841e+001
 1.778431698502015e+000	 2.720235411479095e+000	 1.014624624030567e+001
 2.064226363952433e+000	 2.542556689317182e+000	 1.064311980243400e+001
 2.037865416774701e+000	 2.563733516408568e+000	 1.062410144484522e+001
 2.011302915039320e+000	 2.584624843959287e+000	 1.059650042373060e+001
 1.984543483191425e+000	 2.605227852490652e+000	 1.056011141874523e+001
 1.957591796858037e+000	 2.625539822009412e+000	 1.051474259337001e+001
 1.930452580185686e+000	 2.645558133125988e+000	 1.046021517289575e+001
 1.903130603150365e+000	 2.665280268087723e+000	 1.039636298608452e+001
 1.875630678842904e+000	 2.684703811726376e+000	 1.032303197266481e+001
 1.847957660732984e+000	 2.703826452319316e+000	 1.024843808369855e+001
 1.820116439914905e+000	 2.722645982363904e+000	 1.018821232312432e+001
 1.792111942338345e+000	 2.741160299264779e+000	 1.013868118479285e+001
 2.079983817110463e+000	 2.561965519009508e+000	 1.067973701346054e+001
 2.053421641328147e+000	 2.583304001269784e+000	 1.066124874984467e+001
 2.026656372403879e+000	 2.604354804603557e+000	 1.063384594902614e+001
 1.999692670083905e+000	 2.625115088009401e+000	 1.059735189285864e+001
 1.972535245687052e+000	 2.645582110730755e+000	 1.055160402740463e+001
 1.945188859422041e+000	 2.665753233382704e+000	 1.049645349267273e+001
 1.917658317676889e+000	 2.685625918993101e+000	 1.043176461484813e+001
 1.889948470283585e+000	 2.705197733957309e+000	 1.035741436329167e+001
 1.862064207761188e+000	 2.724466348905958e+000	 1.027385092015828e+001
 1.834010458540603e+000	 2.743429539485246e+000	 1.019837499190029e+001
 1.805792186174171e+000	 2.762085187049463e+000	 1.013348784330605e+001
 2.095741270268495e+000	 2.581374348701332e+000	 1.070387880050131e+001
 2.068977865881588e+000	 2.602874486130406e+000	 1.068638655206373e+001
 2.042009829768418e+000	 2.624084765247146e+000	 1.065964641057095e+001
 2.014841856976339e+000	 2.645002323527393e+000	 1.062351027358619e+001
 1.987478694515987e+000	 2.665624399451278e+000	 1.057784489301403e+001
 1.959925138658268e+000	 2.685948333638543e+000	 1.052253135626727e+001
 1.932186032203233e+000	 2.705971569897559e+000	 1.045746452872333e+001
 1.904266261724017e+000	 2.725691656187287e+000	 1.038255245986454e+001
 1.876170754789071e+000	 2.745106245491620e+000	 1.029771575559668e+001
 1.847904477165892e+000	 2.764213096605592e+000	 1.020864060886379e+001
 1.819472430009494e+000	 2.783010074833148e+000	 1.012982451405812e+001
 2.111498723426525e+000	 2.600783178392654e+000	 1.071589628424199e+001
 2.084534090435024e+000	 2.622444970990429e+000	 1.069985204636977e+001
 2.057363287132937e+000	 2.643814725890054e+000	 1.067422479647373e+001
 2.029991043868728e+000	 2.664889559044628e+000	 1.063889507043098e+001
 2.002422143344841e+000	 2.685666688170979e+000	 1.059375895855578e+001
 1.974661417894369e+000	 2.706143433893507e+000	 1.053872753786133e+001
 1.946713746729394e+000	 2.726317220801095e+000	 1.047372626438730e+001
 1.918584053164202e+000	 2.746185578416309e+000	 1.039869432810756e+001
 1.890277301816630e+000	 2.765746142076302e+000	 1.031358397303508e+001
 1.861798495790774e+000	 2.784996653724944e+000	 1.021815968860179e+001
 1.833152673844316e+000	 2.803934962615831e+000	 1.012685246977491e+001
 2.127256176584556e+000	 2.620192008083476e+000	 1.071614000719029e+001
 2.100090314988453e+000	 2.642015455849857e+000	 1.070198217976449e+001
 2.072716744497436e+000	 2.663544686532280e+000	 1.067790418083860e+001
 2.045140230761070e+000	 2.684776794561108e+000	 1.064381521613477e+001
 2.017365592173613e+000	 2.705708976889859e+000	 1.059964075608346e+001
 1.989397697130344e+000	 2.726338534147595e+000	 1.054532191883457e+001
 1.961241461255374e+000	 2.746662871703712e+000	 1.048081481209002e+001
 1.932901844604140e+000	 2.766679500644376e+000	 1.040608983639350e+001
 1.904383848843868e+000	 2.786386038660005e+000	 1.032113095261875e+001
 1.875692514415249e+000	 2.805780210843301e+000	 1.022593491649028e+001
 1.846832917678635e+000	 2.824859850397516e+000	 1.012373584752798e+001
 2.143013629742586e+000	 2.639600837773797e+000	 1.070495995493236e+001
 2.115646539541880e+000	 2.661585940708688e+000	 1.069311366049663e+001
 2.088070201861914e+000	 2.683274647173827e+000	 1.067100772060348e+001
 2.060289417653368e+000	 2.704664030076833e+000	 1.063858005111786e+001
 2.032309041002305e+000	 2.725751265607919e+000	 1.059578555326974e+001
 2.004133976366192e+000	 2.746533634400806e+000	 1.054259544705864e+001
 1.975769175781172e+000	 2.767008522605407e+000	 1.047899656221390e+001
 1.947219636043831e+000	 2.787173422871487e+000	 1.040499058947003e+001
 1.918490395870783e+000	 2.807025935242726e+000	 1.032059329502310e+001
 1.889586533039316e+000	 2.826563767960661e+000	 1.022583370112993e+001
 1.860513161512450e+000	 2.845784738178200e+000	 1.011964154342775e+001
 2.158771082900617e+000	 2.659009667463616e+000	 1.068270557645841e+001
 2.131202764095300e+000	 2.681156425566923e+000	 1.067358296677547e+001
 2.103423659226372e+000	 2.703004607814691e+000	 1.065385865251696e+001
 2.075438604545620e+000	 2.724551265591801e+000	 1.062349930860016e+001
 2.047252489830916e+000	 2.745793554325158e+000	 1.058248932655888e+001
 2.018870255601915e+000	 2.766728734653143e+000	 1.053083009797410e+001
 1.990296890306788e+000	 2.787354173506182e+000	 1.046853925417426e+001
 1.961537427483276e+000	 2.807667345097644e+000	 1.039564986508823e+001
 1.932596942897376e+000	 2.827665831824468e+000	 1.031220960024357e+001
 1.903480551662975e+000	 2.847347325077028e+000	 1.021827985500090e+001
 1.874193405345763e+000	 2.866709625957885e+000	 1.011373911192882e+001
 2.174528536058648e+000	 2.678418497152933e+000	 1.064972580360467e+001
 2.146758988648715e+000	 2.700726910424563e+000	 1.064372635510567e+001
 2.118777116590811e+000	 2.722734568454874e+000	 1.062678029024661e+001
 2.090587791437827e+000	 2.744438501106012e+000	 1.059888310036950e+001
 2.062195938659447e+000	 2.765835843041575e+000	 1.056004873548662e+001
 2.033606534837511e+000	 2.786923834904604e+000	 1.051030883735963e+001
 2.004824604832223e+000	 2.807699824406037e+000	 1.044971192754118e+001
 1.975855218922474e+000	 2.828161267322844e+000	 1.037832255338661e+001
 1.946703489923646e+000	 2.848305728405229e+000	 1.029622039515671e+001
 1.917374570286227e+000	 2.868130882192400e+000	 1.020349933743202e+001
 1.887873649178574e+000	 2.887634513736569e+000	 1.010026650814594e+001
 2.190285989216679e+000	 2.697827326841749e+000	 1.060636906965594e+001
 2.162315213202126e+000	 2.720297395281605e+000	 1.060387986826228e+001
 2.134130573955228e+000	 2.742464529094375e+000	 1.059009602161209e+001
 2.105736978329988e+000	 2.764325736619468e+000	 1.056504190316395e+001
 2.077139387487895e+000	 2.785878131757172e+000	 1.052876109810852e+001
 2.048342814072981e+000	 2.807118935155188e+000	 1.048131558570840e+001
 2.019352319357476e+000	 2.828045475304971e+000	 1.042278487527143e+001
 1.990173010361424e+000	 2.848655189547090e+000	 1.035326509889158e+001
 1.960810036949594e+000	 2.868945624985010e+000	 1.027286806420758e+001
 1.931268588909071e+000	 2.888914439306776e+000	 1.018172027053103e+001
 1.901553893010882e+000	 2.908559401514253e+000	 1.007996189178474e+001
 2.206043442374710e+000	 2.717236156530064e+000	 1.055298332715109e+001
 2.177871437755532e+000	 2.739867880138052e+000	 1.055437934292388e+001
 2.149484031319626e+000	 2.762194489733196e+000	 1.054412930593689e+001
 2.120886165222104e+000	 2.784212972132168e+000	 1.052228654563794e+001
 2.092082836316265e+000	 2.805920420471948e+000	 1.048892436748148e+001
 2.063079093308326e+000	 2.827314035404899e+000	 1.044413518413110e+001
 2.033880033882548e+000	 2.848391126202985e+000	 1.038802959894457e+001
 2.004490801800128e+000	 2.869149111770381e+000	 1.032073544500355e+001
 1.974916583975221e+000	 2.889585521563813e+000	 1.024239678306829e+001
 1.945162607531509e+000	 2.909697996420158e+000	 1.015317286194252e+001
 1.915234136842688e+000	 2.929484289290938e+000	 1.005323704482316e+001
 1.778431698502015e+000	 2.720235411479095e+000	 1.014624624030567e+001
 1.750483865520404e+000	 2.738303532601247e+000	 1.004650975429407e+001
 1.722383871581194e+000	 2.756064911975476e+000	 9.963148536794572e+000
 1.694136692208680e+000	 2.773517778601557e+000	 9.893271261159750e+000
 1.665747326437760e+000	 2.790660467447267e+000	 9.834035929389513e+000
 1.637220794038314e+000	 2.807491419697759e+000	 9.782656935695378e+000
 1.608562132743385e+000	 2.824009182919216e+000	 9.736411929494857e+000
 1.579776395484173e+000	 2.840212411137346e+000	 9.692648461739777e+000
 1.550868647634841e+000	 2.856099864831404e+000	 9.648790399329375e+000
 1.521843964270075e+000	 2.871670410844536e+000	 9.602344093245089e+000
 1.492707427438275e+000	 2.886923022211355e+000	 9.550904286969278e+000
 1.792111942338345e+000	 2.741160299264779e+000	 1.013868118479285e+001
 1.763949126026976e+000	 2.759367405933930e+000	 1.003871577222508e+001
 1.735632978288948e+000	 2.777265411303141e+000	 9.955603581809850e+000
 1.707168512921817e+000	 2.794852530749107e+000	 9.886309600504498e+000
 1.678560767414597e+000	 2.812127086431664e+000	 9.827849281729026e+000
 1.649814800150784e+000	 2.829087507545086e+000	 9.777295855731465e+000
 1.620935687615213e+000	 2.845732330482985e+000	 9.731787434003733e+000
 1.591928521607785e+000	 2.862060198917422e+000	 9.688533891148467e+000
 1.562798406467084e+000	 2.878069863792879e+000	 9.644823508464929e+000
 1.533550456306829e+000	 2.893760183235912e+000	 9.598029364434805e+000
 1.504189792268103e+000	 2.909130122381397e+000	 9.545615458236670e+000
 1.805792186174171e+000	 2.762085187049463e+000	 1.013348784330605e+001
 1.777414386532957e+000	 2.780431279265624e+000	 1.003356928680932e+001
 1.748882084996038e+000	 2.798465910629846e+000	 9.950971409283707e+000
 1.720200333634242e+000	 2.816187282895747e+000	 9.882513166888742e+000
 1.691374208390694e+000	 2.833593705415225e+000	 9.825065149588957e+000
 1.662408806262504e+000	 2.850683595391665e+000	 9.775557142153586e+000
 1.633309242486302e+000	 2.867455478046118e+000	 9.730985473730565e+000
 1.604080647730691e+000	 2.883907986696995e+000	 9.688420138882615e+000
 1.574728165298670e+000	 2.900039862754003e+000	 9.645011673865309e+000
 1.545256948342998e+000	 2.915849955627105e+000	 9.597997772863048e+000
 1.515672157097435e+000	 2.931337222551448e+000	 9.544709629873625e+000
 1.819472430009494e+000	 2.783010074833148e+000	 1.012982451405812e+001
 1.790879647038344e+000	 2.801495152596328e+000	 1.003026480458114e+001
 1.762131191702469e+000	 2.819666409955593e+000	 9.948482967674929e+000
 1.733232154345956e+000	 2.837522035041479e+000	 9.881149549091392e+000
 1.704187649366050e+000	 2.855060324397947e+000	 9.824987925388346e+000
 1.675002812373475e+000	 2.872279683237500e+000	 9.776782119442498e+000
 1.645682797356652e+000	 2.889178625608618e+000	 9.733384398962118e+000
 1.616232773852888e+000	 2.905755774476063e+000	 9.691722640367125e+000
 1.586657924129600e+000	 2.922009861714772e+000	 9.648807441320878e+000
 1.556963440378580e+000	 2.937939728018115e+000	 9.601738966157454e+000
 1.527154521926272e+000	 2.953544322721507e+000	 9.547713509450739e+000
 1.833152673844316e+000	 2.803934962615831e+000	 1.012685246977491e+001
 1.804344907543139e+000	 2.822559025926043e+000	 1.002799940792023e+001
 1.775380298408235e+000	 2.840866909280380e+000	 9.947371377046377e+000
 1.746263975056959e+000	 2.858856787186303e+000	 9.881488097890228e+000
 1.717001090340666e+000	 2.876526943379832e+000	 9.826923348788059e+000
 1.687596818483696e+000	 2.893875771082586e+000	 9.780313039625792e+000
 1.658056352226264e+000	 2.910901773170480e+000	 9.738363063115090e+000
 1.628384899974379e+000	 2.927603562254629e+000	 9.697856905235662e+000
 1.598587682959872e+000	 2.943979860675189e+000	 9.655662997624235e+000
 1.568669932413575e+000	 2.960029500408944e+000	 9.608741795676231e+000
 1.538636886754612e+000	 2.975751422891574e+000	 9.554152567153659e+000
 1.846832917678635e+000	 2.824859850397516e+000	 1.012373584752798e+001
 1.817810168047342e+000	 2.843622899254767e+000	 1.002597265964997e+001
 1.788629405113341e+000	 2.862067408604207e+000	 9.946871848635354e+000
 1.759295795767250e+000	 2.880191539330219e+000	 9.882799860802829e+000
 1.729814531314541e+000	 2.897993562360880e+000	 9.830178456793027e+000
 1.700190824593167e+000	 2.915471858926927e+000	 9.785493047924447e+000
 1.670429907095137e+000	 2.932624920731709e+000	 9.745300804101891e+000
 1.640537026095160e+000	 2.949451350032689e+000	 9.706238514582170e+000
 1.610517441789488e+000	 2.965949859635252e+000	 9.665030183866437e+000
 1.580376424447985e+000	 2.982119272799590e+000	 9.618494345999611e+000
 1.550119251582456e+000	 2.997958523061648e+000	 9.563551081612316e+000
 1.860513161512450e+000	 2.845784738178200e+000	 1.011964154342775e+001
 1.831275428550952e+000	 2.864686772582501e+000	 1.002338651184468e+001
 1.801878511817784e+000	 2.883267907927075e+000	 9.946221607972058e+000
 1.772327616476830e+000	 2.901526291473225e+000	 9.884357519706368e+000
 1.742627972287676e+000	 2.919460181341089e+000	 9.834061536055671e+000
 1.712784830701890e+000	 2.937067946770523e+000	 9.791666149914711e+000
 1.682803461963272e+000	 2.954348068292302e+000	 9.753577426518111e+000
 1.652689152215236e+000	 2.971299137810246e+000	 9.716283118333818e+000
 1.622447200618446e+000	 2.987919858594963e+000	 9.676360508146596e+000
 1.592082916481808e+000	 3.004209045190053e+000	 9.630483963120250e+000
 1.561601616409804e+000	 3.020165623231730e+000	 9.575432183708012e+000
 1.874193405345763e+000	 2.866709625957885e+000	 1.011373911192882e+001
 1.844740689053969e+000	 2.885750645909246e+000	 1.001944521863063e+001
 1.815127618521566e+000	 2.904468407248984e+000	 9.944659821365331e+000
 1.785359437185699e+000	 2.922861043615324e+000	 9.885435331189433e+000
 1.755441413260070e+000	 2.940926800320462e+000	 9.837882077268432e+000
 1.725378836809862e+000	 2.958664034613371e+000	 9.798177180128356e+000
 1.695177016830668e+000	 2.976071215852259e+000	 9.762573184610396e+000
 1.664841278334603e+000	 2.993146925587299e+000	 9.727406432738627e+000
 1.634376959446748e+000	 3.009889857554320e+000	 9.689105157724876e+000
 1.603789408515045e+000	 3.026298817580335e+000	 9.644197281398975e+000
 1.573083981236656e+000	 3.042372723401821e+000	 9.589317898462092e+000
 1.887873649178574e+000	 2.887634513736569e+000	 1.010026650814594e+001
 1.858205949556393e+000	 2.906814519235001e+000	 1.001335525277844e+001
 1.828376725224685e+000	 2.925668906569934e+000	 9.941427525584572e+000
 1.798391257893857e+000	 2.944195795756514e+000	 9.885309069497378e+000
 1.768254854231724e+000	 2.962393419298998e+000	 9.840950731539076e+000
 1.737972842917085e+000	 2.980260122455474e+000	 9.804371772018092e+000
 1.707550571697327e+000	 2.997794363411583e+000	 9.771668765984691e+000
 1.676993404453262e+000	 3.014994713363848e+000	 9.739024237962726e+000
 1.646306718274393e+000	 3.031859856513325e+000	 9.702715010647138e+000
 1.615495900547695e+000	 3.048388589970434e+000	 9.659120249348529e+000
 1.584566346063012e+000	 3.064579823571918e+000	 9.604729185103381e+000
 1.901553893010882e+000	 2.908559401514253e+000	 1.007996189178474e+001
 1.871671210058226e+000	 2.927878392559766e+000	 1.000432522589571e+001
 1.841625831927143e+000	 2.946869405889925e+000	 9.935767560576997e+000
 1.811423078601302e+000	 2.965530547896796e+000	 9.883255971940249e+000
 1.781068295202637e+000	 2.983860038276696e+000	 9.842579268649192e+000
 1.750566849023559e+000	 3.001856210296831e+000	 9.809596329219330e+000
 1.719924126563246e+000	 3.019517510970271e+000	 9.780245276017832e+000
 1.689145530571214e+000	 3.036842501139892e+000	 9.750552375791013e+000
 1.658236477101382e+000	 3.053829855471977e+000	 9.716640646867692e+000
 1.627202392579759e+000	 3.070478362360350e+000	 9.674738154304416e+000
 1.596048710888871e+000	 3.086786923742023e+000	 9.621185975405963e+000
 1.915234136842688e+000	 2.929484289290938e+000	 1.005323704482316e+001
 1.885136470559467e+000	 2.948942265883543e+000	 9.987617708312857e+000
 1.854874938628939e+000	 2.968069905208957e+000	 9.926924505068413e+000
 1.824454899308038e+000	 2.986865300036170e+000	 9.878554686640568e+000
 1.793881736172811e+000	 3.005326657253558e+000	 9.842080537101511e+000
 1.763160855129283e+000	 3.023452298137441e+000	 9.813197998043734e+000
 1.732297681428427e+000	 3.041240658528325e+000	 9.787684222937132e+000
 1.701297656688460e+000	 3.058690288915435e+000	 9.761406747426639e+000
 1.670166235927714e+000	 3.075799854430276e+000	 9.730332358895481e+000
 1.638908884611238e+000	 3.092568134750086e+000	 9.690535646038301e+000
 1.607531075714235e+000	 3.108994023912138e+000	 9.638207210384122e+000
 1.492707427438275e+000	 2.886923022211355e+000	 9.550904286969278e+000
 1.463464123453077e+000	 2.901856777903874e+000	 9.626986789524839e+000
 1.434119140206303e+000	 2.916470862496686e+000	 9.692132056497634e+000
 1.404677564505076e+000	 2.930764565752653e+000	 9.743793911126238e+000
 1.375144479435225e+000	 2.944737282130762e+000	 9.779540659870030e+000
 1.345524961753960e+000	 2.958388510217295e+000	 9.797059919301006e+000
 1.315824079314217e+000	 2.971717852081893e+000	 9.794163111605402e+000
 1.286046888523079e+000	 2.984725012560141e+000	 9.768789621967246e+000
 1.256198431836615e+000	 2.997409798464362e+000	 9.719010612200634e+000
 1.226283735293376e+000	 3.009772117724388e+000	 9.561128071156956e+000
 1.196307806088698e+000	 3.021811978460158e+000	 9.414837431953140e+000
 1.504189792268103e+000	 2.909130122381397e+000	 9.545615458236670e+000
 1.474721539790167e+000	 2.924178753116689e+000	 9.610113712663242e+000
 1.445150825902609e+000	 2.938905253744039e+000	 9.663496336027148e+000
 1.415482776541836e+000	 2.953308908562949e+000	 9.703134880681667e+000
 1.385722513894337e+000	 2.967389107374397e+000	 9.726517633247923e+000
 1.355875153769300e+000	 2.981145344907636e+000	 9.731254587117901e+000
 1.325945803003145e+000	 2.994577220171298e+000	 9.715082076041904e+000
 1.295939556898392e+000	 3.007684435730476e+000	 9.675867061855191e+000
 1.265861496699235e+000	 3.020466796911432e+000	 9.611611070519334e+000
 1.235716687106057e+000	 3.032924210935764e+000	 9.473261025817084e+000
 1.205510173831083e+000	 3.045056685985870e+000	 9.306149165648050e+000
 1.515672157097435e+000	 2.931337222551448e+000	 9.544709629873625e+000
 1.485978956126852e+000	 2.946500728329692e+000	 9.598819832924717e+000
 1.456182511598578e+000	 2.961339644991719e+000	 9.641591829561230e+000
 1.426287988578308e+000	 2.975853251373670e+000	 9.670312557007044e+000
 1.396300548353190e+000	 2.990040932618514e+000	 9.682388011704571e+000
 1.366225345784390e+000	 3.003902179598473e+000	 9.675348370264755e+000
 1.336067526691811e+000	 3.017436588261179e+000	 9.646852763804597e+000
 1.305832225273413e+000	 3.030643858901224e+000	 9.594693698505489e+000
 1.275524561561510e+000	 3.043523795358813e+000	 9.516801116374518e+000
 1.245149638918324e+000	 3.056076304147309e+000	 9.396058586093339e+000
 1.214712541572961e+000	 3.068301393511570e+000	 9.208870372434493e+000
 1.527154521926272e+000	 2.953544322721507e+000	 9.547713509450739e+000
 1.497236372463129e+000	 2.968822703542879e+000	 9.592643431901211e+000
 1.467214197294211e+000	 2.983774036239725e+000	 9.625968556211319e+000
 1.437093200614492e+000	 2.998397594184816e+000	 9.644888838515024e+000
 1.406878582811784e+000	 3.012692757863114e+000	 9.646725693304465e+000
 1.376575537799229e+000	 3.026659014289811e+000	 9.628927265690813e+000
 1.346189250380215e+000	 3.040295956351536e+000	 9.589073349182414e+000
 1.315724893648139e+000	 3.053603282072388e+000	 9.524879941589678e+000
 1.285187626423441e+000	 3.066580793806505e+000	 9.434203432841706e+000
 1.254582590730175e+000	 3.079228397359024e+000	 9.315044419673932e+000
 1.223914909314336e+000	 3.091546101037260e+000	 9.121989057460661e+000
 1.538636886754612e+000	 2.975751422891574e+000	 9.554152567153659e+000
 1.508493788799001e+000	 2.991144678756257e+000	 9.591121867602757e+000
 1.478245882989506e+000	 3.006208427488057e+000	 9.616175913827338e+000
 1.447898412650388e+000	 3.020941936996385e+000	 9.626425293111922e+000
 1.417456617270118e+000	 3.035344583108195e+000	 9.619104524720935e+000
 1.386925729813818e+000	 3.049415848981647e+000	 9.591577486361906e+000
 1.356310974068357e+000	 3.063155324442370e+000	 9.541342478122058e+000
 1.325617562022573e+000	 3.076562705243963e+000	 9.466036916260013e+000
 1.294850691285028e+000	 3.089637792254510e+000	 9.363441650437768e+000
 1.264015542541612e+000	 3.102380490570910e+000	 9.231484899180112e+000
 1.233117277055205e+000	 3.114790808562941e+000	 9.044494601514248e+000
 1.550119251582456e+000	 2.997958523061648e+000	 9.563551081612316e+000
 1.519751205134466e+000	 3.013466653969821e+000	 9.593791608664139e+000
 1.489277568684464e+000	 3.028642818736715e+000	 9.611762702007408e+000
 1.458703624685996e+000	 3.043486279808379e+000	 9.614483170438863e+000
 1.428034651728194e+000	 3.057996408353757e+000	 9.599098303139554e+000
 1.397275921828156e+000	 3.072172683673983e+000	 9.562885453259897e+000
 1.366432697756237e+000	 3.086014692533680e+000	 9.503259250759195e+000
 1.335510230396714e+000	 3.099522128415953e+000	 9.417776436650094e+000
 1.304513756146271e+000	 3.112694790702827e+000	 9.304140312030652e+000
 1.273448494352633e+000	 3.125532583782966e+000	 9.162626003449876e+000
 1.242319644795568e+000	 3.138035516088611e+000	 9.058011811083976e+000
 1.561601616409804e+000	 3.020165623231730e+000	 9.575432183708012e+000
 1.531008621469525e+000	 3.035788629183572e+000	 9.600188267042588e+000
 1.500309254379085e+000	 3.051077209985700e+000	 9.612277144092417e+000
 1.469508836721317e+000	 3.066030622620796e+000	 9.608623413572612e+000
 1.438612686186010e+000	 3.080648233599801e+000	 9.586280778077546e+000
 1.407626113842244e+000	 3.094929518366817e+000	 9.542437787735073e+000
 1.376554421443855e+000	 3.108874060625466e+000	 9.474423204720276e+000
 1.345402898770562e+000	 3.122481551588358e+000	 9.379710980544649e+000
 1.314176821007170e+000	 3.135751789151454e+000	 9.283231760697431e+000
 1.282881446163240e+000	 3.148684676995191e+000	 9.200776163549033e+000
 1.251522012535427e+000	 3.161280223614271e+000	 9.130487258412767e+000
 1.573083981236656e+000	 3.042372723401821e+000	 9.589317898462092e+000
 1.542266037804178e+000	 3.058110604397511e+000	 9.609846629283373e+000
 1.511340940073370e+000	 3.073511601235009e+000	 9.617266908197312e+000
 1.480314048756349e+000	 3.088574965433638e+000	 9.608406670214098e+000
 1.449190720643567e+000	 3.103300058846326e+000	 9.580225653123430e+000
 1.417976305856081e+000	 3.117686353060152e+000	 9.529821304193245e+000
 1.386676145131212e+000	 3.131733428717729e+000	 9.449364211468959e+000
 1.355295567144116e+000	 3.145440974761175e+000	 9.365436809245711e+000
 1.323839885867724e+000	 3.158808787600393e+000	 9.293969444087084e+000
 1.292314397973432e+000	 3.171836770207588e+000	 9.235642951705836e+000
 1.260724380274781e+000	 3.184524931139920e+000	 9.191077395570790e+000
 1.584566346063012e+000	 3.064579823571918e+000	 9.604729185103381e+000
 1.553523454138424e+000	 3.080432579611637e+000	 9.622300686425948e+000
 1.522372625767317e+000	 3.095945992484646e+000	 9.626279127327951e+000
 1.491119260791094e+000	 3.111119308246904e+000	 9.613393303390424e+000
 1.459768755100865e+000	 3.125951884093334e+000	 9.577167917444699e+000
 1.428326497869667e+000	 3.140443187753983e+000	 9.488819491246881e+000
 1.396797868818307e+000	 3.154592796810469e+000	 9.412853683949290e+000
 1.365188235517377e+000	 3.168400397934406e+000	 9.350105902765641e+000
 1.333502950727935e+000	 3.181865786049646e+000	 9.301350626420792e+000
 1.301747349783209e+000	 3.194988863420155e+000	 9.267300150548783e+000
 1.269926748013629e+000	 3.207769638665559e+000	 9.248603483316833e+000
 1.596048710888871e+000	 3.086786923742023e+000	 9.621185975405963e+000
 1.564780870472264e+000	 3.102754554825951e+000	 9.637083662619430e+000
 1.533404311460927e+000	 3.118380383734608e+000	 9.638860418629660e+000
 1.501924472825550e+000	 3.133663651060593e+000	 9.581823651111369e+000
 1.470346789557904e+000	 3.148603709340823e+000	 9.498930821691014e+000
 1.438676689883004e+000	 3.163200022448315e+000	 9.428945060384276e+000
 1.406919592505140e+000	 3.177452164903683e+000	 9.372800748424542e+000
 1.375080903890346e+000	 3.191359821108051e+000	 9.331370313413608e+000
 1.343166015587801e+000	 3.204922784499208e+000	 9.305462786252303e+000
 1.311180301592571e+000	 3.218140956632892e+000	 9.295822512135844e+000
 1.279129115751972e+000	 3.231014346191188e+000	 9.303128016604815e+000
 1.607531075714235e+000	 3.108994023912138e+000	 9.638207210384122e+000
 1.576038286805698e+000	 3.125076530040452e+000	 9.653219022065773e+000
 1.544435997154201e+000	 3.140814774984898e+000	 9.561929140834550e+000
 1.512729684859719e+000	 3.156207993874709e+000	 9.482826774144250e+000
 1.480924824014684e+000	 3.171255534588795e+000	 9.417010115009090e+000
 1.449026881896090e+000	 3.185956857143146e+000	 9.365516395726589e+000
 1.417041316191712e+000	 3.200311532997376e+000	 9.329320091737779e+000
 1.384973572263021e+000	 3.214319244282112e+000	 9.309331280987566e+000
 1.352829080447324e+000	 3.227979782949084e+000	 9.306394160740920e+000
 1.320613253401519e+000	 3.241293049845800e+000	 9.321285723331874e+000
 1.288331483489811e+000	 3.254259053716808e+000	 9.354714591847355e+000
 1.196307806088698e+000	 3.021811978460158e+000	 9.414837431953140e+000
 1.166275630192232e+000	 3.033529487987621e+000	 9.268815664337923e+000
 1.136192170009821e+000	 3.044924851761178e+000	 9.154648223849756e+000
 1.106062362091802e+000	 3.055998372254013e+000	 9.072457450463160e+000
 1.075891114890496e+000	 3.066750447777396e+000	 9.022325535099585e+000
 1.045683306567630e+000	 3.077181571242415e+000	 9.004297546399565e+000
 1.015443782853513e+000	 3.087292328865915e+000	 9.018384459885558e+000
 9.851773549594465e-001	 3.097083398822883e+000	 9.064566180195925e+000
 9.548887975447457e-001	 3.106555549847563e+000	 9.142794547362710e+000
 9.245828467396422e-001	 3.115709639785575e+000	 9.252996318420372e+000
 8.942641982252435e-001	 3.124546614099404e+000	 9.395076115969737e+000
 1.205510173831083e+000	 3.045056685985870e+000	 9.306149165648050e+000
 1.175246981197481e+000	 3.056864330203026e+000	 9.124208216130597e+000
 1.144932109783359e+000	 3.068347350621874e+000	 8.972940750090082e+000
 1.114570534112516e+000	 3.079506052042313e+000	 8.852477942865557e+000
 1.084167200394599e+000	 3.090340835839550e+000	 8.762911131818132e+000
 1.053727024315657e+000	 3.100852198716295e+000	 8.704294894168994e+000
 1.023254888880847e+000	 3.111040731398753e+000	 8.676650126095591e+000
 9.927556423107906e-001	 3.120907117278648e+000	 8.679967113601686e+000
 9.622340959929506e-001	 3.130452131003561e+000	 8.813525488990118e+000
 9.316950224893299e-001	 3.139676637017925e+000	 9.058264728190576e+000
 9.011431536016610e-001	 3.148581588057016e+000	 9.339465053517230e+000
 1.214712541572961e+000	 3.068301393511570e+000	 9.208870372434493e+000
 1.184218332202131e+000	 3.080199172418236e+000	 8.992087344204077e+000
 1.153672049556212e+000	 3.091769849482220e+000	 8.804852677934447e+000
 1.123078706132470e+000	 3.103013731830142e+000	 8.647304578797062e+000
 1.092443285897879e+000	 3.113931223901139e+000	 8.519541693449119e+000
 1.061770742062806e+000	 3.124522826189546e+000	 8.421626242084640e+000
 1.031065994907259e+000	 3.134789133930934e+000	 8.509179443707106e+000
 1.000333929661179e+000	 3.144730835733750e+000	 8.648831963539667e+000
 9.695793944401745e-001	 3.154348712158920e+000	 8.829147969251302e+000
 9.388071982380229e-001	 3.163643634249695e+000	 9.045997209629009e+000
 9.080221089770787e-001	 3.172616562014134e+000	 9.295505151771511e+000
 1.223914909314336e+000	 3.091546101037260e+000	 9.121989057460661e+000
 1.193189683206180e+000	 3.103534014633252e+000	 8.871448954421695e+000
 1.162411989328381e+000	 3.115192348342218e+000	 8.649387484955600e+000
 1.131586878151665e+000	 3.126521411617498e+000	 8.473921379878158e+000
 1.100719371400334e+000	 3.137521611962162e+000	 8.456046868264139e+000
 1.069814459809077e+000	 3.148193453662171e+000	 8.489101451432909e+000
 1.038877100932750e+000	 3.158537536462453e+000	 8.568134227493379e+000
 1.007912217010610e+000	 3.168554554188189e+000	 8.688454714026817e+000
 9.769246928864181e-001	 3.178245293313647e+000	 8.845634791544711e+000
 9.459193739857200e-001	 3.187610631480886e+000	 9.035510022310435e+000
 9.149010643514963e-001	 3.196651535970757e+000	 9.254180357740758e+000
 1.233117277055205e+000	 3.114790808562941e+000	 9.044494601514248e+000
 1.202161034209630e+000	 3.126868856848071e+000	 8.776982980465796e+000
 1.171151929099864e+000	 3.138614847201867e+000	 8.641532714521217e+000
 1.140095050170102e+000	 3.150029091404383e+000	 8.564133001750745e+000
 1.108995456901967e+000	 3.161112000022622e+000	 8.539239775782756e+000
 1.077858177554471e+000	 3.171864081134169e+000	 8.561572644418318e+000
 1.046688206957319e+000	 3.182285938993313e+000	 8.626118099316113e+000
 1.015490504359086e+000	 3.192378272641967e+000	 8.728132061841807e+000
 9.842699913316808e-001	 3.202141874467737e+000	 8.863141775797741e+000
 9.530315497324224e-001	 3.211577628711497e+000	 9.026947059283712e+000
 9.217800197249140e-001	 3.220686509926887e+000	 9.215620929394854e+000
 1.242319644795568e+000	 3.138035516088611e+000	 9.058011811083976e+000
 1.211132385212480e+000	 3.150203699062697e+000	 8.863678184132086e+000
 1.179891868870664e+000	 3.162037346061168e+000	 8.729688728496036e+000
 1.148603222187779e+000	 3.173536771190796e+000	 8.650147418973035e+000
 1.117271542402776e+000	 3.184702388082517e+000	 8.619427221261491e+000
 1.085901895298987e+000	 3.195534708605540e+000	 8.632173976149092e+000
 1.054499312980966e+000	 3.206034341523514e+000	 8.683309592988342e+000
 1.023068791706606e+000	 3.216201991095082e+000	 8.768034561948978e+000
 9.916152897759637e-001	 3.226038455621192e+000	 8.881829796190111e+000
 9.601437254781294e-001	 3.235544625941530e+000	 9.020457816665822e+000
 9.286589750973320e-001	 3.244721483882524e+000	 9.179963293765685e+000
 1.251522012535427e+000	 3.161280223614271e+000	 9.130487258412767e+000
 1.220103736214729e+000	 3.173538541277126e+000	 8.943827388134205e+000
 1.188631808640779e+000	 3.185459844920121e+000	 8.812597226988890e+000
 1.157111394204697e+000	 3.197044450976737e+000	 8.732159353748228e+000
 1.125547627902761e+000	 3.208292776141848e+000	 8.696801506218428e+000
 1.093945613042626e+000	 3.219205336076285e+000	 8.701093639613564e+000
 1.062310419003691e+000	 3.229782744053054e+000	 8.739891104526164e+000
 1.030647079053169e+000	 3.240025709547533e+000	 8.808337126007890e+000
 9.989605882192654e-001	 3.249935036774010e+000	 8.901864595335711e+000
 9.672559012228416e-001	 3.259511623170983e+000	 9.016197187646688e+000
 9.355379304687495e-001	 3.268756457837667e+000	 9.147349820143441e+000
 1.260724380274781e+000	 3.184524931139920e+000	 9.191077395570790e+000
 1.229075087216379e+000	 3.196873383491363e+000	 9.017626702802881e+000
 1.197371748410209e+000	 3.208882343778725e+000	 8.890455655411925e+000
 1.165619566220856e+000	 3.220552130762207e+000	 8.810365923141404e+000
 1.133823713401924e+000	 3.231883164200613e+000	 8.771557751685641e+000
 1.101989330785386e+000	 3.242875963546399e+000	 8.768523089547211e+000
 1.070121525025494e+000	 3.253531146581936e+000	 8.796048751192561e+000
 1.038225366398776e+000	 3.263849427999324e+000	 8.849218863369858e+000
 1.006305886661587e+000	 3.273831617926195e+000	 8.923416606602551e+000
 9.743680769665584e-001	 3.283478620399857e+000	 9.014325265515629e+000
 9.424168858391672e-001	 3.292791431792316e+000	 9.117928603205954e+000
 1.269926748013629e+000	 3.207769638665559e+000	 9.248603483316833e+000
 1.238046438217428e+000	 3.220208225705404e+000	 9.085273780034601e+000
 1.206111688178954e+000	 3.232304842636979e+000	 8.963463375242046e+000
 1.174127738236257e+000	 3.244059810547205e+000	 8.884966552309102e+000
 1.142099798900263e+000	 3.255473552258815e+000	 8.843893796053044e+000
 1.110033048527270e+000	 3.266546591015890e+000	 8.834656924253416e+000
 1.077932631046376e+000	 3.277279549110157e+000	 8.851972236669399e+000
 1.045803653743427e+000	 3.287673146450453e+000	 8.890862928987710e+000
 1.013651185102928e+000	 3.297728199077743e+000	 8.946660784157826e+000
 9.814802527092800e-001	 3.307445617628152e+000	 9.015007155252127e+000
 9.492958412085848e-001	 3.316826405746471e+000	 9.091853255577037e+000
 1.279129115751972e+000	 3.231014346191188e+000	 9.303128016604815e+000
 1.247017789217878e+000	 3.243543067919251e+000	 9.146967757839647e+000
 1.214851627947015e+000	 3.255727341494886e+000	 9.031821595097767e+000
 1.182635910250898e+000	 3.267567490331730e+000	 8.956162891474449e+000
 1.150375884397779e+000	 3.279063940316452e+000	 8.914010097321510e+000
 1.118076766268276e+000	 3.290217218484752e+000	 8.899692772525347e+000
 1.085743737066335e+000	 3.301027951637718e+000	 8.907854722049725e+000
 1.053381941087122e+000	 3.311496864900918e+000	 8.933456377890575e+000
 1.020996483543287e+000	 3.321624780228655e+000	 8.971776440349347e+000
 9.885924284510065e-001	 3.331412614855867e+000	 9.018412793248968e+000
 9.561747965770026e-001	 3.340861379700133e+000	 9.069282709339202e+000
 1.288331483489811e+000	 3.254259053716808e+000	 9.354714591847355e+000
 1.255989140217728e+000	 3.266877910132902e+000	 9.209205029870635e+000
 1.223591567714392e+000	 3.279149840352444e+000	 9.095733304769752e+000
 1.191144082264780e+000	 3.291075170115786e+000	 9.024158736460553e+000
 1.158651969894471e+000	 3.302654328373525e+000	 8.982109639545472e+000
 1.126120484008404e+000	 3.313887845952988e+000	 8.963831185414383e+000
 1.093554843085373e+000	 3.324776354164622e+000	 8.963892702358729e+000
 1.060960228429861e+000	 3.335320583350722e+000	 8.977190025895277e+000
 1.028341781982668e+000	 3.345521361378934e+000	 8.998947090056191e+000
 9.957046041917382e-001	 3.355379612083005e+000	 9.024716774762029e+000
 9.630537519444204e-001	 3.364896353653301e+000	 9.050381026053062e+000
 8.942641982252435e-001	 3.124546614099404e+000	 9.395076115969737e+000
 8.639375053716756e-001	 3.133067504330197e+000	 9.580931641363362e+000
 8.336073774350107e-001	 3.141273426516435e+000	 9.747933931760842e+000
 8.032783778144549e-001	 3.149165579572983e+000	 9.883666484053608e+000
 7.729550223703774e-001	 3.156745243634214e+000	 9.985148770054234e+000
 7.426417778035707e-001	 3.164013778361765e+000	 1.004969376874435e+001
 7.123430600964776e-001	 3.170972621219920e+000	 1.007490487739769e+001
 6.820632330168476e-001	 3.177623285720976e+000	 1.005867231847924e+001
 6.518066066841962e-001	 3.183967359642995e+000	 9.999169064554465e+000
 6.215774361993540e-001	 3.190006503222291e+000	 9.814182168899411e+000
 5.913799203372813e-001	 3.195742447322996e+000	 8.898601847531161e+000
 9.011431536016610e-001	 3.148581588057016e+000	 9.339465053517230e+000
 8.705831784952053e-001	 3.157168023597005e+000	 9.483968177451709e+000
 8.400197418818312e-001	 3.165437068261379e+000	 9.605710182896521e+000
 8.094574422638166e-001	 3.173389930187422e+000	 9.701431067654941e+000
 7.789008302389191e-001	 3.181027899356694e+000	 9.768166842841763e+000
 7.483544068671686e-001	 3.188352345889772e+000	 9.803246950045352e+000
 7.178226221001053e-001	 3.195364718308351e+000	 9.804291148232336e+000
 6.873098732729230e-001	 3.202066541767132e+000	 9.769205892177274e+000
 6.568205036599041e-001	 3.208459416257858e+000	 9.696180224913967e+000
 6.263588010934251e-001	 3.214545014787885e+000	 9.583681207328780e+000
 5.959289966467158e-001	 3.220325081535687e+000	 8.677738023532646e+000
 9.080221089770787e-001	 3.172616562014134e+000	 9.295505151771511e+000
 8.772288516177454e-001	 3.181268542863414e+000	 9.392853553848722e+000
 8.464321063276931e-001	 3.189600710006008e+000	 9.472469121780032e+000
 8.156365067122714e-001	 3.197614280801621e+000	 9.531107488892991e+000
 7.848466381066257e-001	 3.205310555079000e+000	 9.565820459804055e+000
 7.540670359300239e-001	 3.212690913417656e+000	 9.573953405055548e+000
 7.233021841031021e-001	 3.219756815396703e+000	 9.553142120718608e+000
 6.925565135284997e-001	 3.226509797813246e+000	 9.501309175010288e+000
 6.618344006352651e-001	 3.232951472872700e+000	 9.416659764696631e+000
 6.311401659873202e-001	 3.239083526353473e+000	 9.297677104683631e+000
 6.004780729561651e-001	 3.244907715748377e+000	 8.492177939286094e+000
 9.149010643514963e-001	 3.196651535970757e+000	 9.254180357740758e+000
 8.838745247392960e-001	 3.205369062129424e+000	 9.307638628467785e+000
 8.528444707725966e-001	 3.213764351750323e+000	 9.348190103575458e+000
 8.218155711598192e-001	 3.221838631415580e+000	 9.372605101282799e+000
 7.907924459734976e-001	 3.229593210801130e+000	 9.377950483659863e+000
 7.597796649921365e-001	 3.237029480945418e+000	 9.361587025925184e+000
 7.287817461054688e-001	 3.244148912484980e+000	 9.321166245659647e+000
 6.978031537835781e-001	 3.250953053859317e+000	 9.254626714263866e+000
 6.668482976102793e-001	 3.257443529487524e+000	 9.160189873718432e+000
 6.359215308810396e-001	 3.263622037919057e+000	 9.036355382344022e+000
 6.050271492656288e-001	 3.269490349961068e+000	 8.340281975796456e+000
 9.217800197249140e-001	 3.220686509926887e+000	 9.215620929394854e+000
 8.905201978598567e-001	 3.229469581395036e+000	 9.228382973858169e+000
 8.592568352165415e-001	 3.237927993494322e+000	 9.232863427973205e+000
 8.279946356064604e-001	 3.246062982029298e+000	 9.225846353991487e+000
 7.967382538395343e-001	 3.253875866523083e+000	 9.204412944839788e+000
 7.654922940535065e-001	 3.261368048473059e+000	 9.165938865258514e+000
 7.342613081072044e-001	 3.268541009573177e+000	 9.108091047534963e+000
 7.030497940381579e-001	 3.275396309905343e+000	 9.028823964449378e+000
 6.718621945849467e-001	 3.281935586102327e+000	 8.926375402793259e+000
 6.407028957745837e-001	 3.288160549484636e+000	 8.799261761464429e+000
 6.095762255751076e-001	 3.294072984173759e+000	 8.220436443096073e+000
 9.286589750973320e-001	 3.244721483882524e+000	 9.179963293765685e+000
 8.971658709794282e-001	 3.253570100660248e+000	 9.155154554441049e+000
 8.656691996595282e-001	 3.262091635238010e+000	 9.126489933837114e+000
 8.341737000521943e-001	 3.270287332642776e+000	 9.090766306814260e+000
 8.026840617047365e-001	 3.278158522244862e+000	 9.045078479719285e+000
 7.712049231141334e-001	 3.285706616000578e+000	 8.986816500541323e+000
 7.397408701083099e-001	 3.292933106661297e+000	 8.913662418067837e+000
 7.082964342922391e-001	 3.299839565951325e+000	 8.823586512962386e+000
 6.768760915592670e-001	 3.306427642717112e+000	 8.714843024436549e+000
 6.454842606679518e-001	 3.312699061050212e+000	 8.585965396840509e+000
 6.141253018846009e-001	 3.318655618386451e+000	 8.131052619910152e+000
 9.355379304687495e-001	 3.268756457837667e+000	 9.147349820143441e+000
 9.038115440980098e-001	 3.277670619925062e+000	 9.088029417984544e+000
 8.720815641015560e-001	 3.286255276981380e+000	 9.029080611734957e+000
 8.403527644970217e-001	 3.294511683256016e+000	 8.967312166548240e+000
 8.086298695691034e-001	 3.302441177966462e+000	 8.899831793635340e+000
 7.769175521740177e-001	 3.310045183527975e+000	 8.824043426608625e+000
 7.452204321087848e-001	 3.317325203749339e+000	 8.737643940959057e+000
 7.135430745458218e-001	 3.324282821997265e+000	 8.638619339902983e+000
 6.818899885332407e-001	 3.330919699331877e+000	 8.525240430596881e+000
 6.502656255611443e-001	 3.337237572615780e+000	 8.396058015378088e+000
 6.186743781941089e-001	 3.343238252599141e+000	 8.070565835690188e+000
 9.424168858391672e-001	 3.292791431792316e+000	 9.117928603205954e+000
 9.104572172156019e-001	 3.301771139189477e+000	 9.027091400591260e+000
 8.784939285426255e-001	 3.310418918724437e+000	 8.940656233438221e+000
 8.465318289409420e-001	 3.318736033869013e+000	 8.855442843671410e+000
 8.145756774326358e-001	 3.326723833687888e+000	 8.768571147420660e+000
 7.826301812331594e-001	 3.334383751055250e+000	 8.677458474719355e+000
 7.506999941086291e-001	 3.341717300837304e+000	 8.579816246194262e+000
 7.187897147989062e-001	 3.348726078043161e+000	 8.473646110312817e+000
 6.869038855068675e-001	 3.355411755946624e+000	 8.357235565523331e+000
 6.550469904541608e-001	 3.361776084181345e+000	 8.229153092293521e+000
 6.232234545036314e-001	 3.367820886811832e+000	 8.037434592850046e+000
 9.492958412085848e-001	 3.316826405746471e+000	 9.091853255577037e+000
 9.171028903322046e-001	 3.325871658453493e+000	 8.972431844512030e+000
 8.849062929827364e-001	 3.334582560467181e+000	 8.861246997530660e+000
 8.527108933839558e-001	 3.342960384481772e+000	 8.755128528295897e+000
 8.205214852953330e-001	 3.351006489409139e+000	 8.651207866262572e+000
 7.883428102915585e-001	 3.358722318582404e+000	 8.546915256888870e+000
 7.561795561078429e-001	 3.366109397925190e+000	 8.439976392424903e+000
 7.240363550514918e-001	 3.373169334089012e+000	 8.328408497184432e+000
 6.919177824801477e-001	 3.379903812561350e+000	 8.210515891986432e+000
 6.598283553470018e-001	 3.386314595746906e+000	 8.084885063131418e+000
 6.277725308131688e-001	 3.392403521024523e+000	 7.950379261852754e+000
 9.561747965770026e-001	 3.340861379700133e+000	 9.069282709339202e+000
 9.237485634478174e-001	 3.349972177717110e+000	 8.924149328140803e+000
 8.913186574218889e-001	 3.358746202209609e+000	 8.790892190314354e+000
 8.588899578260621e-001	 3.367184735094290e+000	 8.666350284426049e+000
 8.264672931571956e-001	 3.375289145130211e+000	 8.547665869762204e+000
 7.940554393492146e-001	 3.383060886109435e+000	 8.432281634207158e+000
 7.616591181064262e-001	 3.390501495012999e+000	 8.317937276009090e+000
 7.292829953035791e-001	 3.397612590134821e+000	 8.202665533693271e+000
 6.969316794530807e-001	 3.404395869176058e+000	 8.084787689173059e+000
 6.646097202396671e-001	 3.410853107312461e+000	 7.962908569795858e+000
 6.323216071227208e-001	 3.416986155237214e+000	 7.835911075644990e+000
 9.630537519444204e-001	 3.364896353653301e+000	 9.050381026053062e+000
 9.303942365624410e-001	 3.374072696980329e+000	 8.882349407580813e+000
 8.977310218600831e-001	 3.382909843951724e+000	 8.729639861248332e+000
 8.650690222672622e-001	 3.391409085706569e+000	 8.589099661604926e+000
 8.324131010182233e-001	 3.399571800851111e+000	 8.457881222133945e+000
 7.997680684061285e-001	 3.407399453636346e+000	 8.333439207943123e+000
 7.671386801043791e-001	 3.414893592100732e+000	 8.213527065379045e+000
 7.345296355551679e-001	 3.422055846180586e+000	 8.096192993191087e+000
 7.019455764256671e-001	 3.428887925790747e+000	 7.979775380671480e+000
 6.693910851321567e-001	 3.435391618878011e+000	 7.862897738894809e+000
 6.368706834322875e-001	 3.441568789449906e+000	 7.744463151770491e+000
 5.913799203372813e-001	 3.195742447322996e+000	 8.898601847531161e+000
 5.612182003031748e-001	 3.201176991585784e+000	 8.915774142333778e+000
 5.310963585522425e-001	 3.206312002558782e+000	 8.917275657564900e+000
 5.010184176725815e-001	 3.211149411812481e+000	 8.909955046193360e+000
 4.709883393310327e-001	 3.215691214040372e+000	 8.900079543299665e+000
 4.410100232820740e-001	 3.219939465148238e+000	 8.893345464145590e+000
 4.110873064392889e-001	 3.223896280334044e+000	 8.894889491970595e+000
 3.812239620090090e-001	 3.227563832160544e+000	 8.909300703140399e+000
 3.514236986856592e-001	 3.230944348622705e+000	 8.940633277213172e+000
 3.216901599082669e-001	 3.234040111211981e+000	 8.992419839591952e+000
 2.920269231775196e-001	 3.236853452979430e+000	 9.067685384687199e+000
 5.959289966467158e-001	 3.220325081535687e+000	 8.677738023532646e+000
 5.655352633805315e-001	 3.225801429985276e+000	 8.733091851648313e+000
 5.351817151537136e-001	 3.230975941042790e+000	 8.767855155631574e+000
 5.048724054973427e-001	 3.235850561136954e+000	 8.788805602875513e+000
 4.746113265526194e-001	 3.240427300305058e+000	 8.802135764746611e+000
 4.444024080721309e-001	 3.244708230267543e+000	 8.813463855983292e+000
 4.142495164841795e-001	 3.248695482493129e+000	 8.827845270337189e+000
 3.841564540197592e-001	 3.252391246256594e+000	 8.849784859198719e+000
 3.541269579017118e-001	 3.255797766691325e+000	 8.883249899899937e+000
 3.241646995955179e-001	 3.258917342838711e+000	 8.931683700502946e+000
 2.942732841210988e-001	 3.261752325696358e+000	 8.998019788153663e+000
 6.004780729561651e-001	 3.244907715748377e+000	 8.492177939286094e+000
 5.698523264580873e-001	 3.250425868384768e+000	 8.579634817392744e+000
 5.392670717555369e-001	 3.255639879526798e+000	 8.641972472318443e+000
 5.087263933225791e-001	 3.260551710461429e+000	 8.685897170521281e+000
 4.782343137747728e-001	 3.265163386569744e+000	 8.717526018167773e+000
 4.477947928628162e-001	 3.269476995386849e+000	 8.742397951354882e+000
 4.174117265297299e-001	 3.273494684652216e+000	 8.765485529433438e+000
 3.870889460311708e-001	 3.277218660352643e+000	 8.791207477262832e+000
 3.568302171183988e-001	 3.280651184759945e+000	 8.823441922188737e+000
 3.266392392833460e-001	 3.283794574465440e+000	 8.865540271664635e+000
 2.965196450651695e-001	 3.286651198413287e+000	 8.920341677724354e+000
 6.050271492656288e-001	 3.269490349961068e+000	 8.340281975796456e+000
 5.741693895358421e-001	 3.275050306784259e+000	 8.453917126289117e+000
 5.433524283577125e-001	 3.280303818010806e+000	 8.538293737381062e+000
 5.125803811482899e-001	 3.285252859785903e+000	 8.600046217605220e+000
 4.818573009974927e-001	 3.289899472834430e+000	 8.645215365067324e+000
 4.511871776541295e-001	 3.294245760506156e+000	 8.679259618030283e+000
 4.205739365759401e-001	 3.298293886811303e+000	 8.707067115801561e+000
 3.900214380432444e-001	 3.302046074448694e+000	 8.732968514812828e+000
 3.595334763357196e-001	 3.305504602828564e+000	 8.760750504754723e+000
 3.291137789717515e-001	 3.308671806092170e+000	 8.793669969771079e+000
 2.987660060097320e-001	 3.311550071130214e+000	 8.834468740020679e+000
 6.095762255751076e-001	 3.294072984173759e+000	 8.220436443096073e+000
 5.784864526137959e-001	 3.299674745183752e+000	 8.354474708949997e+000
 5.474377849602403e-001	 3.304967756494813e+000	 8.455502963092554e+000
 5.164343689744753e-001	 3.309954009110377e+000	 8.530083258025551e+000
 4.854802882207794e-001	 3.314635559099118e+000	 8.584179199995338e+000
 4.545795624460711e-001	 3.319014525625462e+000	 8.623167469524104e+000
 4.237361466228101e-001	 3.323093088970389e+000	 8.651850159788058e+000
 3.929539300559796e-001	 3.326873488544744e+000	 8.674467876763357e+000
 3.622367355536746e-001	 3.330358020897184e+000	 8.694713545044479e+000
 3.315883186607344e-001	 3.333549037718901e+000	 8.715746863395394e+000
 3.010123669547862e-001	 3.336448943847143e+000	 8.740209354414285e+000
 6.141253018846009e-001	 3.318655618386451e+000	 8.131052619910152e+000
 5.828035156919487e-001	 3.324299183583244e+000	 8.279864530845405e+000
 5.515231415631204e-001	 3.329631694978822e+000	 8.392301381928091e+000
 5.202883568011357e-001	 3.334655158434851e+000	 8.474852330903223e+000
 4.891032754446326e-001	 3.339371645363804e+000	 8.533402867842439e+000
 4.579719472386412e-001	 3.343783290744768e+000	 8.573246615253176e+000
 4.268983566703400e-001	 3.347892291129476e+000	 8.599097953921328e+000
 3.958864220693765e-001	 3.351700902640793e+000	 8.615105417410440e+000
 3.649399947722636e-001	 3.355211438965803e+000	 8.624865798136398e+000
 3.340628583502946e-001	 3.358426269345630e+000	 8.631438908105370e+000
 3.032587279003322e-001	 3.361347816564072e+000	 8.637362937739969e+000
 6.186743781941089e-001	 3.343238252599141e+000	 8.070565835690188e+000
 5.871205787703006e-001	 3.348923621982736e+000	 8.228663818962454e+000
 5.556084981663528e-001	 3.354295633462829e+000	 8.347406813469211e+000
 5.241423446282706e-001	 3.359356307759324e+000	 8.433210503331042e+000
 4.927262626690523e-001	 3.364107731628491e+000	 8.491881298018308e+000
 4.613643320318393e-001	 3.368552055864074e+000	 8.528628421716695e+000
 4.300605667185297e-001	 3.372691493288563e+000	 8.548076836654992e+000
 3.988189140834350e-001	 3.376528316736843e+000	 8.554280942292380e+000
 3.676432539914868e-001	 3.380064857034423e+000	 8.550738992268846e+000
 3.365373980404323e-001	 3.383303500972360e+000	 8.540408171206220e+000
 3.055050888463698e-001	 3.386246689281000e+000	 8.525720273800733e+000
 6.232234545036314e-001	 3.367820886811832e+000	 8.037434592850046e+000
 5.914376418488513e-001	 3.373548060382227e+000	 8.199469322333915e+000
 5.596938547699376e-001	 3.378959571946838e+000	 8.319553059034986e+000
 5.279963324558803e-001	 3.384057457083798e+000	 8.404027394900277e+000
 4.963492498940388e-001	 3.388843817893178e+000	 8.458618654651872e+000
 4.647567168256657e-001	 3.393320820983380e+000	 8.488450284135457e+000
 4.332227767673793e-001	 3.397490695447649e+000	 8.498056081202719e+000
 4.017514060981554e-001	 3.401355730832893e+000	 8.491394209969336e+000
 3.703465132113441e-001	 3.404918275103043e+000	 8.471861939308838e+000
 3.390119377311472e-001	 3.408180732599090e+000	 8.442311046640738e+000
 3.077514497928993e-001	 3.411145561997928e+000	 8.405063828441870e+000
 6.277725308131688e-001	 3.392403521024523e+000	 7.950379261852754e+000
 5.957547049276010e-001	 3.398172498781718e+000	 8.190896604717599e+000
 5.637792113738745e-001	 3.403623510430845e+000	 8.307489322633449e+000
 5.318503202839647e-001	 3.408758606408273e+000	 8.386184722899973e+000
 4.999722371195919e-001	 3.413579904157864e+000	 8.432628001999897e+000
 4.681491016201202e-001	 3.418089586102685e+000	 8.451855408020007e+000
 4.363849868168886e-001	 3.422289897606736e+000	 8.448307789206361e+000
 4.046838981135373e-001	 3.426183144928944e+000	 8.425844933725347e+000
 3.730497724318355e-001	 3.429771693171662e+000	 8.387760640417557e+000
 3.414864774224393e-001	 3.433057964225819e+000	 8.336798460545877e+000
 3.099978107399203e-001	 3.436044434714856e+000	 8.275168050926258e+000
 6.323216071227208e-001	 3.416986155237214e+000	 7.835911075644990e+000
 6.000717680065499e-001	 3.422796937181211e+000	 8.201579367807709e+000
 5.678645679781637e-001	 3.428287448914853e+000	 8.309979656908086e+000
 5.357043081125240e-001	 3.433459755732746e+000	 8.378575867147873e+000
 5.035952243457116e-001	 3.438315990422550e+000	 8.412930984298541e+000
 4.715414864152032e-001	 3.442858351221992e+000	 8.417992600167262e+000
 4.395471968670580e-001	 3.447089099765823e+000	 8.398106788993877e+000
 4.076163901295808e-001	 3.451010559024994e+000	 8.357032783197006e+000
 3.757530316529610e-001	 3.454625111240281e+000	 8.297958387154985e+000
 3.439610171143090e-001	 3.457935195852550e+000	 8.223516067936387e+000
 3.122441716874331e-001	 3.460943307431786e+000	 8.135799662300586e+000
 6.368706834322875e-001	 3.441568789449906e+000	 7.744463151770491e+000
 6.043888310856980e-001	 3.447421375580705e+000	 8.230168803451441e+000
 5.719499245828054e-001	 3.452951387398861e+000	 8.325802432829422e+000
 5.395582959415579e-001	 3.458160905057221e+000	 8.380105453471630e+000
 5.072182115723980e-001	 3.463052076687238e+000	 8.398557519335492e+000
 4.749338712109144e-001	 3.467627116341299e+000	 8.386016068614692e+000
 4.427094069178871e-001	 3.471888301924911e+000	 8.346730538197731e+000
 4.105488821462863e-001	 3.475837973121045e+000	 8.284357385932310e+000
 3.784562908747207e-001	 3.479478529308901e+000	 8.201975858251249e+000
 3.464355568067561e-001	 3.482812427479280e+000	 8.102104440959170e+000
 3.144905326354376e-001	 3.485842180148714e+000	 7.986717931403167e+000
 2.920269231775196e-001	 3.236853452979430e+000	 9.067685384687199e+000
 2.624374994324514e-001	 3.239386756599464e+000	 9.191539336945064e+000
 2.329253324867810e-001	 3.241642452436632e+000	 9.314145337928517e+000
 2.034937985235925e-001	 3.243623016616949e+000	 9.437100552592215e+000
 1.741462056470113e-001	 3.245330969105182e+000	 9.561578872753961e+000
 1.448857934907249e-001	 3.246768871790385e+000	 9.688346424449906e+000
 1.157157328821542e-001	 3.247939326581152e+000	 9.817777343485306e+000
 8.663912556126877e-002	 3.248844973512246e+000	 9.949869773770724e+000
 5.765900395300546e-002	 3.249488488864120e+000	 1.008426204423050e+001
 2.877833099221386e-002	 3.249872583296864e+000	 1.022024898134736e+001
 0.000000000000000e+000	 3.250000000000000e+000	 1.035679831575857e+001
 2.942732841210988e-001	 3.261752325696358e+000	 8.998019788153663e+000
 2.644562494246240e-001	 3.264305116266987e+000	 9.101459531834051e+000
 2.347170658106003e-001	 3.266578163610304e+000	 9.203684936152920e+000
 2.050591354327509e-001	 3.268573962899443e+000	 9.306194670061970e+000
 1.754857918421560e-001	 3.270295053483519e+000	 9.410058342731661e+000
 1.460002995927624e-001	 3.271744016958421e+000	 9.515932390085938e+000
 1.166058539029716e-001	 3.272923475247428e+000	 9.624076230485406e+000
 8.730558037229109e-002	 3.273836088693259e+000	 9.734368643232973e+000
 5.810253475200383e-002	 3.274484554163141e+000	 9.846324324803499e+000
 2.899970276876601e-002	 3.274871603168394e+000	 9.959110579011526e+000
 0.000000000000000e+000	 3.275000000000000e+000	 1.007156409871707e+001
 2.965196450651695e-001	 3.286651198413287e+000	 8.920341677724354e+000
 2.664749994171937e-001	 3.289223475934511e+000	 9.003009628361820e+000
 2.365087991347322e-001	 3.291513874783975e+000	 9.084774021611331e+000
 2.066244723421478e-001	 3.293524909181937e+000	 9.167031466572691e+000
 1.768253780374754e-001	 3.295259137861856e+000	 9.250743494047233e+000
 1.471148056949209e-001	 3.296719162126458e+000	 9.336452832778495e+000
 1.174959749238660e-001	 3.297907623913702e+000	 9.424299955848769e+000
 8.797203518335663e-002	 3.298827203874272e+000	 9.514039849966167e+000
 5.854606555102134e-002	 3.299480619462162e+000	 9.605058961638903e+000
 2.922107454532293e-002	 3.299870623039924e+000	 9.696392275579393e+000
 0.000000000000000e+000	 3.300000000000000e+000	 9.786740482103845e+000
 2.987660060097320e-001	 3.311550071130214e+000	 8.834468740020679e+000
 2.684937494101602e-001	 3.314141835602035e+000	 8.896100301582251e+000
 2.383005324591768e-001	 3.316449585957646e+000	 8.957416305746365e+000
 2.081898092517832e-001	 3.318475855464431e+000	 9.019707695151723e+000
 1.781649642329693e-001	 3.320223222240192e+000	 9.083824083362325e+000
 1.482293117972002e-001	 3.321694307294495e+000	 9.150190431405280e+000
 1.183860959448375e-001	 3.322891772579979e+000	 9.218823995524682e+000
 8.863848999446536e-002	 3.323818319055284e+000	 9.289351497925310e+000
 5.898959635005797e-002	 3.324476684761183e+000	 9.361026473576246e+000
 2.944244632188460e-002	 3.324869642911456e+000	 9.432746747526005e+000
 0.000000000000000e+000	 3.324999999999999e+000	 9.503071998639642e+000
 3.010123669547862e-001	 3.336448943847143e+000	 8.740209354414285e+000
 2.705124994035238e-001	 3.339060195269558e+000	 8.780631347261581e+000
 2.400922657839339e-001	 3.341385297131319e+000	 8.821603111227189e+000
 2.097551461616571e-001	 3.343426801746927e+000	 8.864306273075640e+000
 1.795045504286379e-001	 3.345187306618529e+000	 8.909474647042229e+000
 1.493438178996003e-001	 3.346669452462530e+000	 8.957411322323983e+000
 1.192762169658860e-001	 3.347875921246255e+000	 9.008006022898902e+000
 8.930494480561731e-002	 3.348809434236298e+000	 9.060752690464966e+000
 5.943312714911376e-002	 3.349472750060204e+000	 9.114767242620731e+000
 2.966381809845104e-002	 3.349868662782986e+000	 9.168805459827313e+000
 0.000000000000000e+000	 3.350000000000000e+000	 9.221280956187977e+000
 3.032587279003322e-001	 3.361347816564072e+000	 8.637362937739969e+000
 2.725312493972843e-001	 3.363978554937082e+000	 8.656492084815024e+000
 2.418839991090036e-001	 3.366321008304990e+000	 8.677313830793024e+000
 2.113204830717695e-001	 3.368377748029420e+000	 8.700896794305535e+000
 1.808441366244811e-001	 3.370151390996865e+000	 8.727855064870660e+000
 1.504583240021213e-001	 3.371644597630567e+000	 8.758365712058259e+000
 1.201663379870117e-001	 3.372860069912531e+000	 8.792186568147768e+000
 8.997139961681246e-002	 3.373800549417310e+000	 8.828674234065247e+000
 5.987665794818865e-002	 3.374468815359224e+000	 8.866802259751868e+000
 2.988518987502226e-002	 3.374867682654517e+000	 8.905179451571339e+000
 0.000000000000000e+000	 3.375000000000000e+000	 8.942068260897838e+000
 3.055050888463698e-001	 3.386246689281000e+000	 8.525720273800733e+000
 2.745499993914417e-001	 3.388896914604605e+000	 8.523561742466791e+000
 2.436757324343858e-001	 3.391256719478660e+000	 8.524516365853351e+000
 2.128858199821205e-001	 3.393328694311915e+000	 8.529536019314636e+000
 1.821837228204990e-001	 3.395115475375202e+000	 8.539111098894473e+000
 1.515728301047632e-001	 3.396619742798604e+000	 8.553288462953304e+000
 1.210564590082144e-001	 3.397844218578805e+000	 8.571689648503291e+000
 9.063785442805079e-002	 3.398791664598323e+000	 8.593529311010983e+000
 6.032018874728268e-002	 3.399464880658245e+000	 8.617633837828912e+000
 3.010656165159823e-002	 3.399866702526048e+000	 8.642460086909923e+000
 0.000000000000000e+000	 3.400000000000000e+000	 8.666114204031540e+000
 3.077514497928993e-001	 3.411145561997928e+000	 8.405063828441870e+000
 2.765687493859962e-001	 3.413815274272130e+000	 8.381709825541593e+000
 2.454674657600808e-001	 3.416192430652333e+000	 8.363167545879582e+000
 2.144511568927100e-001	 3.418279640594410e+000	 8.350268343463897e+000
 1.835233090166915e-001	 3.420079559753539e+000	 8.343374908669709e+000
 1.526873362075258e-001	 3.421594887966641e+000	 8.342399653182469e+000
 1.219465800294942e-001	 3.422828367245081e+000	 8.346823370915308e+000
 9.130430923933233e-002	 3.423782779779336e+000	 8.355714122610536e+000
 6.076371954639585e-002	 3.424460945957266e+000	 8.367746293274029e+000
 3.032793342817898e-002	 3.424865722397578e+000	 8.381219773121989e+000
 0.000000000000000e+000	 3.425000000000000e+000	 8.394079214332839e+000
 3.099978107399203e-001	 3.436044434714856e+000	 8.275168050926258e+000
 2.785874993809475e-001	 3.438733633939654e+000	 8.230796468743703e+000
 2.472591990860882e-001	 3.441128141826003e+000	 8.193213529562289e+000
 2.160164938035379e-001	 3.443230586876903e+000	 8.163126245013263e+000
 1.848628952130586e-001	 3.445043644131875e+000	 8.140765544105292e+000
 1.538018423104094e-001	 3.446570033134677e+000	 8.125905112405524e+000
 1.228367010508511e-001	 3.447812515911356e+000	 8.117880508511028e+000
 9.197076405065707e-002	 3.448773894960349e+000	 8.115608504448575e+000
 6.120725034552816e-002	 3.449457011256288e+000	 8.117606598117112e+000
 3.054930520476448e-002	 3.449864742269110e+000	 8.122012647456906e+000
 0.000000000000000e+000	 3.449999999999999e+000	 8.126604577683320e+000
 3.122441716874331e-001	 3.460943307431786e+000	 8.135799662300586e+000
 2.806062493762958e-001	 3.463651993607177e+000	 8.070672773229546e+000
 2.490509324124082e-001	 3.466063852999674e+000	 8.014590188652081e+000
 2.175818307146044e-001	 3.468181533159398e+000	 7.968130713794306e+000
 1.862024814096004e-001	 3.470007728510212e+000	 7.931389417033184e+000
 1.549163484134138e-001	 3.471545178302714e+000	 7.903996934305216e+000
 1.237268220722850e-001	 3.472796664577632e+000	 7.885139052171312e+000
 9.263721886202500e-002	 3.473765010141362e+000	 7.873576515081139e+000
 6.165078114467958e-002	 3.474453076555308e+000	 7.867665003894809e+000
 3.077067698135475e-002	 3.474863762140640e+000	 7.865375234329671e+000
 0.000000000000000e+000	 3.474999999999999e+000	 7.864313125694704e+000
 3.144905326354376e-001	 3.485842180148714e+000	 7.986717931403167e+000
 2.826249993720412e-001	 3.488570353274702e+000	 7.901181129234443e+000
 2.508426657390410e-001	 3.490999564173347e+000	 7.827223475350387e+000
 2.191471676259094e-001	 3.493132479441893e+000	 7.765291661511284e+000
 1.875420676063168e-001	 3.494971812888549e+000	 7.715340752568173e+000
 1.560308545165391e-001	 3.496520323470751e+000	 7.676853967157777e+000
 1.246169430937960e-001	 3.497780813243908e+000	 7.648862738468098e+000
 9.330367367343619e-002	 3.498756125322376e+000	 7.629966999500939e+000
 6.209431194385016e-002	 3.499449141854330e+000	 7.618355638810936e+000
 3.099204875794980e-002	 3.499862782012172e+000	 7.611827074350795e+000
 0.000000000000000e+000	 3.500000000000000e+000	 7.607809894789719e+000
 3.500000000000000e+000	 0.000000000000000e+000	 1.038856750994083e+001
 3.499862782012172e+000	 3.099204875794991e-002	 1.036511170470329e+001
 3.499449141854330e+000	 6.209431194385037e-002	 1.035639744668526e+001
 3.498756125322376e+000	 9.330367367343595e-002	 1.036148988896911e+001
 3.497780813243909e+000	 1.246169430937959e-001	 1.037934370445293e+001
 3.496520323470751e+000	 1.560308545165391e-001	 1.040882278346605e+001
 3.494971812888549e+000	 1.875420676063169e-001	 1.044872116835636e+001
 3.493132479441893e+000	 2.191471676259096e-001	 1.049778521603743e+001
 3.490999564173347e+000	 2.508426657390408e-001	 1.055473697530905e+001
 3.488570353274701e+000	 2.826249993720411e-001	 1.061829876144715e+001
 3.485842180148715e+000	 3.144905326354376e-001	 1.068721890610885e+001
 3.525000000000000e+000	 0.000000000000000e+000	 1.043567719011213e+001
 3.524861801883700e+000	 3.121342053454733e-002	 1.040351566463857e+001
 3.524445207153342e+000	 6.253784274303052e-002	 1.039082431908447e+001
 3.523747240503367e+000	 9.397012848486869e-002	 1.039581956980844e+001
 3.522764961910145e+000	 1.255070641153455e-001	 1.041658590956056e+001
 3.521495468638728e+000	 1.571453606197247e-001	 1.045109638564944e+001
 3.519935897266799e+000	 1.888816538031206e-001	 1.049723437323856e+001
 3.518083425724269e+000	 2.207125045373338e-001	 1.055281663493136e+001
 3.515935275346863e+000	 2.526343990658297e-001	 1.061561765349245e+001
 3.513488712942027e+000	 2.846437493679848e-001	 1.068339522009258e+001
 3.510741052865397e+000	 3.167368935836880e-001	 1.075391725586611e+001
 3.549999999999999e+000	 0.000000000000000e+000	 1.049276090157343e+001
 3.549860821755223e+000	 3.143479231114475e-002	 1.044927707573387e+001
 3.549441272452333e+000	 6.298137354221063e-002	 1.043001744368273e+001
 3.548738355684315e+000	 9.463658329630142e-002	 1.043234247810303e+001
 3.547749110576305e+000	 1.263971851368950e-001	 1.045345910436988e+001
 3.546470613806581e+000	 1.582598667229104e-001	 1.049044196877168e+001
 3.544899981644873e+000	 1.902212399999243e-001	 1.054025606066246e+001
 3.543034372006405e+000	 2.222778414487581e-001	 1.059978067987422e+001
 3.540870986520065e+000	 2.544261323926187e-001	 1.066583473626959e+001
 3.538407072608955e+000	 2.866624993639286e-001	 1.073520336370921e+001
 3.535639925581588e+000	 3.189832545319382e-001	 1.080466582596115e+001
 3.574999999999999e+000	 0.000000000000000e+000	 1.055650078237765e+001
 3.574859841626743e+000	 3.165616408774217e-002	 1.049963323107813e+001
 3.574437337751306e+000	 6.342490434139073e-002	 1.047177163863113e+001
 3.573729470865220e+000	 9.530303810773416e-002	 1.046941308271967e+001
 3.572733259242388e+000	 1.272873061584445e-001	 1.048887928413526e+001
 3.571445758974317e+000	 1.593743728260961e-001	 1.052633867468455e+001
 3.569864066022773e+000	 1.915608261967280e-001	 1.057782987848291e+001
 3.567985318288304e+000	 2.238431783601823e-001	 1.063928659813366e+001
 3.565806697692955e+000	 2.562178657194076e-001	 1.070656389270284e+001
 3.563325432275486e+000	 2.886812493598724e-001	 1.077546582964791e+001
 3.560538798297286e+000	 3.212296154801885e-001	 1.084177448795957e+001
 3.600000000000000e+000	 0.000000000000000e+000	 1.062367113340949e+001
 3.599858861498257e+000	 3.187753586433959e-002	 1.055190512117973e+001
 3.599433403050260e+000	 6.386843514057089e-002	 1.051395691877739e+001
 3.598720586046081e+000	 9.596949291916691e-002	 1.050545251600856e+001
 3.597717407908394e+000	 1.281774271799941e-001	 1.052182054477592e+001
 3.596420904141930e+000	 1.604888789292818e-001	 1.055831515642987e+001
 3.594828150400499e+000	 1.929004123935317e-001	 1.061004037262658e+001
 3.592936264569962e+000	 2.254085152716066e-001	 1.067197590136217e+001
 3.590742408865532e+000	 2.580095990461965e-001	 1.073900440511960e+001
 3.588243791941620e+000	 2.906999993558161e-001	 1.080594020316714e+001
 3.585437671012494e+000	 3.234759764284390e-001	 1.086755938499401e+001
 3.625000000000000e+000	 0.000000000000000e+000	 1.069113524035669e+001
 3.624857881369765e+000	 3.209890764093702e-002	 1.060349454784884e+001
 3.624429468349195e+000	 6.431196593975101e-002	 1.055451590267637e+001
 3.623711701226900e+000	 9.663594773059965e-002	 1.053894627506233e+001
 3.622701556574323e+000	 1.290675482015436e-001	 1.055131307940456e+001
 3.621396049309424e+000	 1.616033850324674e-001	 1.058594787095707e+001
 3.619792234778049e+000	 1.942399985903353e-001	 1.063701157681372e+001
 3.617887210851384e+000	 2.269738521830308e-001	 1.069852125303216e+001
 3.615678120037797e+000	 2.598013323729855e-001	 1.076437835486162e+001
 3.613162151607358e+000	 2.927187493517598e-001	 1.082839850198793e+001
 3.610336543727210e+000	 3.257223373766893e-001	 1.088434271550337e+001
 3.650000000000000e+000	 0.000000000000000e+000	 1.075584232628536e+001
 3.649856901241271e+000	 3.232027941753444e-002	 1.065188135668664e+001
 3.649425533648110e+000	 6.475549673893113e-002	 1.059146132616181e+001
 3.648702816407675e+000	 9.730240254203239e-002	 1.056844201744431e+001
 3.647685705240175e+000	 1.299576692230932e-001	 1.057644125719055e+001
 3.646371194476795e+000	 1.627178911356531e-001	 1.060885944200312e+001
 3.644756319155425e+000	 1.955795847871390e-001	 1.065890566023630e+001
 3.642838157132565e+000	 2.285391890944550e-001	 1.071962540159286e+001
 3.640613831209749e+000	 2.615930656997744e-001	 1.078392984149698e+001
 3.638080511272699e+000	 2.947374993477036e-001	 1.084462668203135e+001
 3.635235416441434e+000	 3.279686983249396e-001	 1.089445252585905e+001
 3.675000000000000e+000	 0.000000000000000e+000	 1.081482462859977e+001
 3.674855921112770e+000	 3.254165119413186e-002	 1.069462078253507e+001
 3.674421598947007e+000	 6.519902753811127e-002	 1.062287365740461e+001
 3.673693931588407e+000	 9.796885735346513e-002	 1.059254744688647e+001
 3.672669853905949e+000	 1.308477902446427e-001	 1.059634178063712e+001
 3.671346339644046e+000	 1.638323972388388e-001	 1.062671708979345e+001
 3.669720403532627e+000	 1.969191709839428e-001	 1.067592163043330e+001
 3.667789103413511e+000	 2.301045260058793e-001	 1.073602015717156e+001
 3.665549542381389e+000	 2.633847990265633e-001	 1.079892423390076e+001
 3.662998870937642e+000	 2.967562493436474e-001	 1.085642416333021e+001
 3.660134289155166e+000	 3.302150592731899e-001	 1.090022251145594e+001
 3.699999999999999e+000	 0.000000000000000e+000	 1.086519459450411e+001
 3.699854940984265e+000	 3.276302297072929e-002	 1.072934090254273e+001
 3.699417664245885e+000	 6.564255833729141e-002	 1.064689880865858e+001
 3.698685046769097e+000	 9.863531216489786e-002	 1.060992828470285e+001
 3.697654002571647e+000	 1.317379112661923e-001	 1.061020191756293e+001
 3.696321484811177e+000	 1.649469033420245e-001	 1.063923112440413e+001
 3.694684487909653e+000	 1.982587571807465e-001	 1.068829408875189e+001
 3.692740049694216e+000	 2.316698629173035e-001	 1.074846540976059e+001
 3.690485253552716e+000	 2.651765323533523e-001	 1.081064745169733e+001
 3.687917230602189e+000	 2.987749993395912e-001	 1.086560337516026e+001
 3.685033161868407e+000	 3.324614202214402e-001	 1.090399182586688e+001
 3.724999999999999e+000	 0.000000000000000e+000	 1.090414218939821e+001
 3.724853960855755e+000	 3.298439474732670e-002	 1.075374019179234e+001
 3.724413729544743e+000	 6.608608913647153e-002	 1.066174594015004e+001
 3.723676161949742e+000	 9.930176697633060e-002	 1.061930632289099e+001
 3.722638151237268e+000	 1.326280322877418e-001	 1.061725780427995e+001
 3.721296629978185e+000	 1.660614094452101e-001	 1.064615349979342e+001
 3.719648572286506e+000	 1.995983433775501e-001	 1.069629203592424e+001
 3.717690995974683e+000	 2.332351998287278e-001	 1.075774818693945e+001
 3.715420964723730e+000	 2.669682656801413e-001	 1.082040527563796e+001
 3.712835590266338e+000	 3.007937493355349e-001	 1.087398931948863e+001
 3.709932034581156e+000	 3.347077811696906e-001	 1.090810489768216e+001
 3.750000000000000e+000	 0.000000000000000e+000	 1.092893231293777e+001
 3.749852980727241e+000	 3.320576652392414e-002	 1.076558517670267e+001
 3.749409794843583e+000	 6.652961993565168e-002	 1.066568535181203e+001
 3.748667277130346e+000	 9.996822178776336e-002	 1.061945755510879e+001
 3.747622299902811e+000	 1.335181533092914e-001	 1.061679281664324e+001
 3.746271775145075e+000	 1.671759155483958e-001	 1.064727642567256e+001
 3.744612656663185e+000	 2.009379295743539e-001	 1.070021772542148e+001
 3.742641942254912e+000	 2.348005367401521e-001	 1.076468174928899e+001
 3.740356675894433e+000	 2.687599990069302e-001	 1.082952268556322e+001
 3.737753949930092e+000	 3.028124993314787e-001	 1.088341915188379e+001
 3.734830907293414e+000	 3.369541421179410e-001	 1.091491125467604e+001
 3.485842180148715e+000	 3.144905326354376e-001	 1.068721890610885e+001
 3.482812427479281e+000	 3.464355568067562e-001	 1.069225100426828e+001
 3.479478529308901e+000	 3.784562908747209e-001	 1.069353927728774e+001
 3.475837973121044e+000	 4.105488821462860e-001	 1.068972915362078e+001
 3.471888301924910e+000	 4.427094069178869e-001	 1.067960511652328e+001
 3.467627116341299e+000	 4.749338712109144e-001	 1.066212214946066e+001
 3.463052076687238e+000	 5.072182115723981e-001	 1.063643813434541e+001
 3.458160905057221e+000	 5.395582959415582e-001	 1.060194714654826e+001
 3.452951387398861e+000	 5.719499245828053e-001	 1.055831358556519e+001
 3.447421375580704e+000	 6.043888310856977e-001	 1.050550707516119e+001
 3.441568789449906e+000	 6.368706834322875e-001	 1.167771091856501e+001
 3.510741052865397e+000	 3.167368935836880e-001	 1.075391725586611e+001
 3.507689659105719e+000	 3.489100964994941e-001	 1.075026348990927e+001
 3.504331947377194e+000	 3.811595500968071e-001	 1.073861603617875e+001
 3.500665387216742e+000	 4.134813741633439e-001	 1.071670259878941e+001
 3.496687504083628e+000	 4.458716169690846e-001	 1.068238056838627e+001
 3.492395881460230e+000	 4.783262560070001e-001	 1.063366975549209e+001
 3.487788162951552e+000	 5.108411987994553e-001	 1.056878612628654e+001
 3.482862054381337e+000	 5.434122837709491e-001	 1.048617648335866e+001
 3.477615325882536e+000	 5.760352811877795e-001	 1.038455402874174e+001
 3.472045813979897e+000	 6.087058941651440e-001	 1.026293474130821e+001
 3.466151423662342e+000	 6.414197597421076e-001	 1.182138170532312e+001
 3.535639925581588e+000	 3.189832545319382e-001	 1.080466582596115e+001
 3.532566890731576e+000	 3.513846361922370e-001	 1.079239149044335e+001
 3.529185365444834e+000	 3.838628093189126e-001	 1.076782414859943e+001
 3.525492801311734e+000	 4.164138661804452e-001	 1.072776420830609e+001
 3.521486706241609e+000	 4.490338270203597e-001	 1.066913232111586e+001
 3.517164646578412e+000	 4.817186408032074e-001	 1.058900341977268e+001
 3.512524249215127e+000	 5.144641860266879e-001	 1.048464180834695e+001
 3.507563203704741e+000	 5.472662716005793e-001	 1.035353724610953e+001
 3.502279264365546e+000	 5.801206377930674e-001	 1.019344196085912e+001
 3.496670252378495e+000	 6.130229572449882e-001	 1.000240852201261e+001
 3.490734057874272e+000	 6.459688360524207e-001	 1.193259961654922e+001
 3.560538798297286e+000	 3.212296154801885e-001	 1.084177448795957e+001
 3.557444122356851e+000	 3.538591758849846e-001	 1.082145394179157e+001
 3.554038783511820e+000	 3.865660685410373e-001	 1.078449122098086e+001
 3.550320215406021e+000	 4.193463581975898e-001	 1.072674959423477e+001
 3.546285908398853e+000	 4.521960370717121e-001	 1.064420305302946e+001
 3.541933411695844e+000	 4.851110255995358e-001	 1.053297166974525e+001
 3.537260335477958e+000	 5.180871732540956e-001	 1.038935805920493e+001
 3.532264353027430e+000	 5.511202594304486e-001	 1.020988488329234e+001
 3.526943202847890e+000	 5.842059943986687e-001	 9.991333332749171e+000
 3.521294690776494e+000	 6.173400203252302e-001	 9.730782514666419e+000
 3.515316692085695e+000	 6.505179123632263e-001	 1.201191922108763e+001
 3.585437671012494e+000	 3.234759764284390e-001	 1.086755938499401e+001
 3.582321353981543e+000	 3.563337155777368e-001	 1.084026898272775e+001
 3.578892201578153e+000	 3.892693277631812e-001	 1.079193699195943e+001
 3.575147629499604e+000	 4.222788502147779e-001	 1.071747943106348e+001
 3.571085110555359e+000	 4.553582471231420e-001	 1.061191343879524e+001
 3.566702176812527e+000	 4.885034103959857e-001	 1.047039396971979e+001
 3.561996421740048e+000	 5.217101604816786e-001	 1.028825164443285e+001
 3.556965502349404e+000	 5.549742472605573e-001	 1.006103169278843e+001
 3.551607141329567e+000	 5.882913510045832e-001	 9.784533922592095e+000
 3.545919129173896e+000	 6.216570834058701e-001	 9.454853640458916e+000
 3.539899326296611e+000	 6.550669886745246e-001	 1.205983092957791e+001
 3.610336543727210e+000	 3.257223373766893e-001	 1.088434271550337e+001
 3.607198585605653e+000	 3.588082552704940e-001	 1.085165398236627e+001
 3.603745619643832e+000	 3.919725869853444e-001	 1.079347360368004e+001
 3.599975043592481e+000	 4.252113422320094e-001	 1.070375997079322e+001
 3.595884312711128e+000	 4.585204571746492e-001	 1.057656290817859e+001
 3.591470941928460e+000	 4.918957951925567e-001	 1.040606172305023e+001
 3.586732508001396e+000	 5.253331477094367e-001	 1.018660446177654e+001
 3.581666651670666e+000	 5.588282350909053e-001	 9.912748309820978e+000
 3.576271079810581e+000	 5.923767076108114e-001	 9.579301066007863e+000
 3.570543567570702e+000	 6.259741464869079e-001	 9.275378414679258e+000
 3.564481960507018e+000	 6.596160649863155e-001	 1.207676320680669e+001
 3.635235416441434e+000	 3.279686983249396e-001	 1.089445252585905e+001
 3.632075817229181e+000	 3.612827949632560e-001	 1.085842556652031e+001
 3.628599037708858e+000	 3.946758462075267e-001	 1.079240586194991e+001
 3.624802457684653e+000	 4.281438342492843e-001	 1.068938353685858e+001
 3.620683514866161e+000	 4.616826672262339e-001	 1.054243037360719e+001
 3.616239707043643e+000	 4.952881799892492e-001	 1.034473923312618e+001
 3.611468594262003e+000	 5.289561349373702e-001	 1.008966473525905e+001
 3.606367800991213e+000	 5.626822229214923e-001	 9.770765133758529e+000
 3.600935018290927e+000	 5.964620642173529e-001	 9.381845315048016e+000
 3.595168005966912e+000	 6.302912095683437e-001	 9.411868455201434e+000
 3.589064594716919e+000	 6.641651412985992e-001	 1.206308469314099e+001
 3.660134289155166e+000	 3.302150592731899e-001	 1.090022251145594e+001
 3.656953048852127e+000	 3.637573346560227e-001	 1.086339964298422e+001
 3.653452455773231e+000	 3.973791054297284e-001	 1.079203148577391e+001
 3.649629871776120e+000	 4.310763262666025e-001	 1.067812899788866e+001
 3.645482717020455e+000	 4.648448772778959e-001	 1.051377492803977e+001
 3.641008472158077e+000	 4.986805647860629e-001	 1.029116462514038e+001
 3.636204680521868e+000	 5.325791221654790e-001	 1.000264816054521e+001
 3.631068950311046e+000	 5.665362107523188e-001	 9.640773696681134e+000
 3.625598956770607e+000	 6.005474208242078e-001	 9.198332029473432e+000
 3.619792444362524e+000	 6.346082726501773e-001	 9.533561994980923e+000
 3.613647228926312e+000	 6.687142176113755e-001	 1.201910623937232e+001
 3.685033161868407e+000	 3.324614202214402e-001	 1.090399182586688e+001
 3.681830280474491e+000	 3.662318743487942e-001	 1.086939142579083e+001
 3.678305873836951e+000	 4.000823646519492e-001	 1.079564134677351e+001
 3.674457285866882e+000	 4.340088182839642e-001	 1.067376222226116e+001
 3.670281919174012e+000	 4.680070873296354e-001	 1.049483651454265e+001
 3.665777237271761e+000	 5.020729495829980e-001	 1.025005073048721e+001
 3.660940766780990e+000	 5.362021093937627e-001	 9.930739003872739e+000
 3.655770099630165e+000	 5.703901985833844e-001	 9.528427976464810e+000
 3.650262895249622e+000	 6.046327774313762e-001	 9.034882903520959e+000
 3.644416882757539e+000	 6.389253357324086e-001	 9.640575758591046e+000
 3.638229863135198e+000	 6.732632939246445e-001	 1.194508285906706e+001
 3.709932034581156e+000	 3.347077811696906e-001	 1.090810489768216e+001
 3.706707512096273e+000	 3.687064140415705e-001	 1.087921545849209e+001
 3.703159291900017e+000	 4.027856238741893e-001	 1.080651969896470e+001
 3.699284699956938e+000	 4.369413103013691e-001	 1.068003651435252e+001
 3.695081121326833e+000	 4.711692973814522e-001	 1.048983656890363e+001
 3.690546002384696e+000	 5.054653343800544e-001	 1.022608593554792e+001
 3.685676853039371e+000	 5.398250966222219e-001	 9.879091156730919e+000
 3.680471248948569e+000	 5.742441864146891e-001	 9.439345656989355e+000
 3.674926833727972e+000	 6.087181340388581e-001	 8.897577431189278e+000
 3.669041321151958e+000	 6.432423988150380e-001	 9.732978379676787e+000
 3.662812497343578e+000	 6.778123702384060e-001	 1.184121560229906e+001
 3.734830907293414e+000	 3.369541421179410e-001	 1.091491125467604e+001
 3.731584743717474e+000	 3.711809537343518e-001	 1.089568563650831e+001
 3.728012709962431e+000	 4.054888830964487e-001	 1.082794439934495e+001
 3.724112114046291e+000	 4.398738023188177e-001	 1.070069303333787e+001
 3.719880323478916e+000	 4.743315074333465e-001	 1.050297863654111e+001
 3.715314767496883e+000	 5.088577191772322e-001	 1.022393499652424e+001
 3.710412939297010e+000	 5.434480838508564e-001	 9.852829148352246e+000
 3.705172398266262e+000	 5.780981742462336e-001	 9.379109337938401e+000
 3.699590772205656e+000	 6.128034906466535e-001	 8.792454312913611e+000
 3.693665759545779e+000	 6.475594618980652e-001	 9.810792003985490e+000
 3.687395131551449e+000	 6.823614465526605e-001	 1.170765335443222e+001
 3.441568789449906e+000	 6.368706834322875e-001	 1.167771091856501e+001
 3.435391618878011e+000	 6.693910851321568e-001	 1.153066828299561e+001
 3.428887925790747e+000	 7.019455764256674e-001	 1.139523440435433e+001
 3.422055846180587e+000	 7.345296355551677e-001	 1.127087424600936e+001
 3.414893592100732e+000	 7.671386801043790e-001	 1.115681421310207e+001
 3.407399453636346e+000	 7.997680684061285e-001	 1.105202847253132e+001
 3.399571800851111e+000	 8.324131010182234e-001	 1.095522540490989e+001
 3.391409085706569e+000	 8.650690222672625e-001	 1.086483423144474e+001
 3.382909843951724e+000	 8.977310218600828e-001	 1.077899185970620e+001
 3.374072696980329e+000	 9.303942365624409e-001	 1.069552999314730e+001
 3.364896353653301e+000	 9.630537519444204e-001	 1.061196255000737e+001
 3.466151423662342e+000	 6.414197597421076e-001	 1.182138170532312e+001
 3.459930130443355e+000	 6.741724500248499e-001	 1.165266635881787e+001
 3.453379982405272e+000	 7.069594733984075e-001	 1.149508044127742e+001
 3.446499102226226e+000	 7.397762758068601e-001	 1.134852587580996e+001
 3.439285689188370e+000	 7.726182421023854e-001	 1.121266740249810e+001
 3.431738021163191e+000	 8.054806974630454e-001	 1.108691826294338e+001
 3.423854456571968e+000	 8.383589088792042e-001	 1.097042600487780e+001
 3.415633436318824e+000	 8.712480867083656e-001	 1.086205845093946e+001
 3.407073485693827e+000	 9.041433862981300e-001	 1.076038987677759e+001
 3.398173216243544e+000	 9.370399096768673e-001	 1.066368744460305e+001
 3.388931327606469e+000	 9.699327073115912e-001	 1.056989793912495e+001
 3.490734057874272e+000	 6.459688360524207e-001	 1.193259961654922e+001
 3.484468642008293e+000	 6.789538149181262e-001	 1.174625617028308e+001
 3.477872039019489e+000	 7.119733703718012e-001	 1.157070312017017e+001
 3.470942358271659e+000	 7.450229160592580e-001	 1.140628122459346e+001
 3.463677786275902e+000	 7.780978041011289e-001	 1.125309528633298e+001
 3.456076588690030e+000	 8.111933265207119e-001	 1.111099919390067e+001
 3.448137112292918e+000	 8.443047167409267e-001	 1.097958107109330e+001
 3.439857786931271e+000	 8.774271511501820e-001	 1.085814858002443e+001
 3.431237127436225e+000	 9.105557507368419e-001	 1.074571442402114e+001
 3.422273735507154e+000	 9.436855827918899e-001	 1.064098209777620e+001
 3.412966301560131e+000	 9.768116626792683e-001	 1.054233193302312e+001
 3.515316692085695e+000	 6.505179123632263e-001	 1.201191922108763e+001
 3.509007153572822e+000	 6.837351798119854e-001	 1.181173961692380e+001
 3.502364095633400e+000	 7.169872673458494e-001	 1.162215194629065e+001
 3.495385614316884e+000	 7.502695563123617e-001	 1.144393780364205e+001
 3.488069883363327e+000	 7.835773661006105e-001	 1.127764390827484e+001
 3.480415156216862e+000	 8.169059555791279e-001	 1.112356649456592e+001
 3.472419768013961e+000	 8.502505246033906e-001	 1.098173579863203e+001
 3.464082137543915e+000	 8.836062155927117e-001	 1.085190068785564e+001
 3.455400769178915e+000	 9.169681151762189e-001	 1.073351348090311e+001
 3.446374254771156e+000	 9.503312559075078e-001	 1.062571500692087e+001
 3.437001275514286e+000	 9.836906180474516e-001	 1.052731995352369e+001
 3.539899326296611e+000	 6.550669886745246e-001	 1.205983092957791e+001
 3.533545665136944e+000	 6.885165447064279e-001	 1.184935925693142e+001
 3.526856152247003e+000	 7.220011643205517e-001	 1.164942192786512e+001
 3.519828870361901e+000	 7.555161965661709e-001	 1.146124349716924e+001
 3.512461980450645e+000	 7.890569281008292e-001	 1.128581457870858e+001
 3.504753723743688e+000	 8.226185846382935e-001	 1.112387557655727e+001
 3.496702423735099e+000	 8.561963324665961e-001	 1.097590050081050e+001
 3.488306488156749e+000	 8.897852800359548e-001	 1.084208091571959e+001
 3.479564410921900e+000	 9.233804796162607e-001	 1.072231006903647e+001
 3.470474774035552e+000	 9.569769290237220e-001	 1.061616725256871e+001
 3.461036249468935e+000	 9.905695734161415e-001	 1.052290244492682e+001
 3.564481960507018e+000	 6.596160649863155e-001	 1.207676320680669e+001
 3.558084176700659e+000	 6.932979096014533e-001	 1.185930035340923e+001
 3.551348208860298e+000	 7.270150612959079e-001	 1.165245545529614e+001
 3.544272126406713e+000	 7.607628368206859e-001	 1.145789827359804e+001
 3.536854077537856e+000	 7.945364901017854e-001	 1.127706541726291e+001
 3.529092291270506e+000	 8.283312136982085e-001	 1.111114340696710e+001
 3.520985079456329e+000	 8.621421403305435e-001	 1.096105181200540e+001
 3.512530838769779e+000	 8.959643444799115e-001	 1.082742650902884e+001
 3.503728052665179e+000	 9.297928440569673e-001	 1.071060311279647e+001
 3.494575293300343e+000	 9.636226021405324e-001	 1.061060063027796e+001
 3.485071223424078e+000	 9.974485287853374e-001	 1.052710539047755e+001
 3.589064594716919e+000	 6.641651412985992e-001	 1.206308469314099e+001
 3.582622688263967e+000	 6.980792744970616e-001	 1.184169283653302e+001
 3.575840265473288e+000	 7.320289582719184e-001	 1.163114410314265e+001
 3.568715382451316e+000	 7.660094770759063e-001	 1.143355582651267e+001
 3.561246174624959e+000	 8.000160521034790e-001	 1.125081283194578e+001
 3.553430858797317e+000	 8.340438427588731e-001	 1.108454982495533e+001
 3.545267735177652e+000	 8.680879481952318e-001	 1.093613384104188e+001
 3.536755189383001e+000	 9.021434089245812e-001	 1.080664680690666e+001
 3.527891694408750e+000	 9.362052084983389e-001	 1.069686826456853e+001
 3.518675812565527e+000	 9.702682752579382e-001	 1.060725831107777e+001
 3.509106197379714e+000	 1.004327484155040e+000	 1.053794080760725e+001
 3.613647228926312e+000	 6.687142176113755e-001	 1.201910623937232e+001
 3.607161199826867e+000	 7.028606393932529e-001	 1.179661318562323e+001
 3.600332322085968e+000	 7.370428552485825e-001	 1.158533035855007e+001
 3.593158638495712e+000	 7.712561173318322e-001	 1.138782514863264e+001
 3.585638271711956e+000	 8.054956141059104e-001	 1.120643293790697e+001
 3.577769426324122e+000	 8.397564718202876e-001	 1.104323880460427e+001
 3.569550390899070e+000	 8.740337560606620e-001	 1.090005927750492e+001
 3.560979539996417e+000	 9.083224733699646e-001	 1.077842419138062e+001
 3.552055336152617e+000	 9.426175729403754e-001	 1.067955869631247e+001
 3.542776331831104e+000	 9.769139483759401e-001	 1.060436547495551e+001
 3.533141171335844e+000	 1.011206439525248e+000	 1.055340722296134e+001
 3.638229863135198e+000	 6.732632939246445e-001	 1.194508285906706e+001
 3.631699711389360e+000	 7.076420042900274e-001	 1.172408623491720e+001
 3.624824378698343e+000	 7.420567522259013e-001	 1.151480927960888e+001
 3.617601894539901e+000	 7.765027575884640e-001	 1.132027204197712e+001
 3.610030368798846e+000	 8.109751761090793e-001	 1.114326291868326e+001
 3.602107993850920e+000	 8.454691008824511e-001	 1.098631966657660e+001
 3.593833046620580e+000	 8.799795639268339e-001	 1.085171045320001e+001
 3.585203890610026e+000	 9.145015378160613e-001	 1.074141499809518e+001
 3.576218977896775e+000	 9.490299373830767e-001	 1.065710585903643e+001
 3.566876851097076e+000	 9.835596214945378e-001	 1.060012991866230e+001
 3.557176145292468e+000	 1.018085394895963e+000	 1.057149012816911e+001
 3.662812497343578e+000	 6.778123702384060e-001	 1.184121560229906e+001
 3.656238222951446e+000	 7.124233691873849e-001	 1.162408690662558e+001
 3.649316435310409e+000	 7.470706492038739e-001	 1.141933008693344e+001
 3.642045150583884e+000	 7.817493978458017e-001	 1.123042056721719e+001
 3.634422465885629e+000	 8.164547381129856e-001	 1.106060233262844e+001
 3.626446561377711e+000	 8.511817299453643e-001	 1.091286824098184e+001
 3.618115702342184e+000	 8.859253717937471e-001	 1.078994036087071e+001
 3.609428241223830e+000	 9.206806022628714e-001	 1.069425039035150e+001
 3.600382619641227e+000	 9.554423018264429e-001	 1.062792021168778e+001
 3.590977370363441e+000	 9.902052946137316e-001	 1.059274263904308e+001
 3.581211119249587e+000	 1.024964350267184e+000	 1.059016241726034e+001
 3.687395131551449e+000	 6.823614465526605e-001	 1.170765335443222e+001
 3.680776734513125e+000	 7.172047340853256e-001	 1.149654187466641e+001
 3.673808491922170e+000	 7.520845461825008e-001	 1.129859769157809e+001
 3.666488406627660e+000	 7.869960381038449e-001	 1.111775443505415e+001
 3.658814562972306e+000	 8.219343001176298e-001	 1.095771436708603e+001
 3.650785128904496e+000	 8.568943590090273e-001	 1.082192798372806e+001
 3.642398358063882e+000	 8.918711796614021e-001	 1.071357363216728e+001
 3.633652591837826e+000	 9.268596667103950e-001	 1.063553719818545e+001
 3.624546261385975e+000	 9.618546662704742e-001	 1.059039192088858e+001
 3.615077889630201e+000	 9.968509677335213e-001	 1.058037839303343e+001
 3.605246093207198e+000	 1.031843305638912e+000	 1.060738480658526e+001
 3.364896353653301e+000	 9.630537519444204e-001	 1.061196255000737e+001
 3.355379612083005e+000	 9.957046041917383e-001	 1.078079006238894e+001
 3.345521361378934e+000	 1.028341781982668e+000	 1.092549987880815e+001
 3.335320583350721e+000	 1.060960228429860e+000	 1.104229388911016e+001
 3.324776354164621e+000	 1.093554843085373e+000	 1.112702227805263e+001
 3.313887845952988e+000	 1.126120484008404e+000	 1.117517365383795e+001
 3.302654328373525e+000	 1.158651969894472e+000	 1.118186575996464e+001
 3.291075170115785e+000	 1.191144082264780e+000	 1.114183681647707e+001
 3.279149840352444e+000	 1.223591567714391e+000	 1.104943753622491e+001
 3.266877910132902e+000	 1.255989140217728e+000	 1.090169040910599e+001
 3.254259053716807e+000	 1.288331483489811e+000	 1.072480439681024e+001
 3.388931327606469e+000	 9.699327073115912e-001	 1.056989793912495e+001
 3.379346609310144e+000	 1.002816779932178e+000	 1.072623426439381e+001
 3.369417942529220e+000	 1.035687080421720e+000	 1.086339071232137e+001
 3.359144301800547e+000	 1.068538515772246e+000	 1.097775419469950e+001
 3.348524756691562e+000	 1.101365949104042e+000	 1.106535030536262e+001
 3.337558473421284e+000	 1.134164201748157e+000	 1.112183292804448e+001
 3.326244716430685e+000	 1.166928055390793e+000	 1.114247443769016e+001
 3.314582849899959e+000	 1.199652254278306e+000	 1.112215654275219e+001
 3.302572339210160e+000	 1.232331507481435e+000	 1.105536181553480e+001
 3.290212752346754e+000	 1.264960491217280e+000	 1.092894623972921e+001
 3.277503761242674e+000	 1.297533851227396e+000	 1.075971686084766e+001
 3.412966301560131e+000	 9.768116626792683e-001	 1.054233193302312e+001
 3.403313606537867e+000	 1.009928955673029e+000	 1.068573679793924e+001
 3.393314523680163e+000	 1.043032378861098e+000	 1.081502004385046e+001
 3.382968020251078e+000	 1.076116803114882e+000	 1.092675605302059e+001
 3.372273159219241e+000	 1.109177055122894e+000	 1.101714810068847e+001
 3.361229100890329e+000	 1.142207919488038e+000	 1.108201743451050e+001
 3.349835104488588e+000	 1.175204140887197e+000	 1.111679295778296e+001
 3.338090529684847e+000	 1.208160426291878e+000	 1.111650156544327e+001
 3.325994838068540e+000	 1.241071447248501e+000	 1.107575918139021e+001
 3.313547594561200e+000	 1.273931842216838e+000	 1.095574693181328e+001
 3.300748468769045e+000	 1.306736218964982e+000	 1.079636140973299e+001
 3.437001275514286e+000	 9.836906180474516e-001	 1.052731995352369e+001
 3.427280603766174e+000	 1.017041131414290e+000	 1.065723375918196e+001
 3.417211104831760e+000	 1.050377677300802e+000	 1.077820684419837e+001
 3.406791738702316e+000	 1.083695090457767e+000	 1.088700358736801e+001
 3.396021561747658e+000	 1.116988161141931e+000	 1.098000729378033e+001
 3.384899728360125e+000	 1.150251637228048e+000	 1.105320873800109e+001
 3.373425492547229e+000	 1.183480226383683e+000	 1.110219532154679e+001
 3.361598209470447e+000	 1.216668598305496e+000	 1.112214089514431e+001
 3.349417336927582e+000	 1.249811387015586e+000	 1.110779629581252e+001
 3.336882436776240e+000	 1.282903193216400e+000	 1.098178688042619e+001
 3.323993176295922e+000	 1.315938586702568e+000	 1.083437575258542e+001
 3.461036249468935e+000	 9.905695734161415e-001	 1.052290244492682e+001
 3.451247600995065e+000	 1.024153307155963e+000	 1.063864780390292e+001
 3.441107685984012e+000	 1.057722975740830e+000	 1.075075817073351e+001
 3.430615457154259e+000	 1.091273377800902e+000	 1.085619052359527e+001
 3.419769964276813e+000	 1.124799267161153e+000	 1.095151062124800e+001
 3.408570355830670e+000	 1.158295354968185e+000	 1.103288100200236e+001
 3.397015880606614e+000	 1.191756311880251e+000	 1.109604960768190e+001
 3.385105889256760e+000	 1.225176770319161e+000	 1.113633908458819e+001
 3.372839835787290e+000	 1.258551326782692e+000	 1.112185373754924e+001
 3.360217278991877e+000	 1.291874544215968e+000	 1.100675890747756e+001
 3.347237883823303e+000	 1.325140954440153e+000	 1.087339744383766e+001
 3.485071223424078e+000	 9.974485287853374e-001	 1.052710539047755e+001
 3.475214598224541e+000	 1.031265482898046e+000	 1.062788861096862e+001
 3.465004267136918e+000	 1.065068274181185e+000	 1.073046957819799e+001
 3.454439175606909e+000	 1.098851665144287e+000	 1.083200054864738e+001
 3.443518366806704e+000	 1.132610373180557e+000	 1.092923223322091e+001
 3.432240983301964e+000	 1.166339072708451e+000	 1.101850124393804e+001
 3.420606268666739e+000	 1.200032397376902e+000	 1.109571817651270e+001
 3.408613569043786e+000	 1.233684942332872e+000	 1.115635638236610e+001
 3.396262334647661e+000	 1.267291266549819e+000	 1.113203539983432e+001
 3.383552121208107e+000	 1.300845895215541e+000	 1.103035431596540e+001
 3.370482591351189e+000	 1.334343322177739e+000	 1.091306388857004e+001
 3.509106197379714e+000	 1.004327484155040e+000	 1.053794080760725e+001
 3.499181595454600e+000	 1.038377658640541e+000	 1.062285332674590e+001
 3.488900848290481e+000	 1.072413572621866e+000	 1.071512551263302e+001
 3.478262894060265e+000	 1.106429952487922e+000	 1.081210765435898e+001
 3.467266769337335e+000	 1.140421479200146e+000	 1.091073798740566e+001
 3.455911610774009e+000	 1.174382790448845e+000	 1.100752957989762e+001
 3.444196656727606e+000	 1.208308482873634e+000	 1.109855786582257e+001
 3.432121248831523e+000	 1.242193114346629e+000	 1.117944888032958e+001
 3.419684833508697e+000	 1.276031206316967e+000	 1.113855574736634e+001
 3.406886963424933e+000	 1.309817246215119e+000	 1.105226294199373e+001
 3.393727298879581e+000	 1.343545689915324e+000	 1.095301234762525e+001
 3.533141171335844e+000	 1.011206439525248e+000	 1.055340722296134e+001
 3.523148592685243e+000	 1.045489834383448e+000	 1.062142699137750e+001
 3.512797429444697e+000	 1.079758871062871e+000	 1.070249968922593e+001
 3.502086612514328e+000	 1.114008239831808e+000	 1.079417646722009e+001
 3.491015171868703e+000	 1.148232585219919e+000	 1.089358573114122e+001
 3.479582238246801e+000	 1.182426508189367e+000	 1.099741945937556e+001
 3.467787044789213e+000	 1.216584568370449e+000	 1.110192017869540e+001
 3.455628928619976e+000	 1.250701286360433e+000	 1.119976252032104e+001
 3.443107332370397e+000	 1.284771146084134e+000	 1.114115527992985e+001
 3.430221805642353e+000	 1.318788597214702e+000	 1.107217320466681e+001
 3.416972006408479e+000	 1.352748057652910e+000	 1.099287994251448e+001
 3.557176145292468e+000	 1.018085394895963e+000	 1.057149012816911e+001
 3.547115589916470e+000	 1.052602010126765e+000	 1.062148294777608e+001
 3.536694010599569e+000	 1.087104169504203e+000	 1.069035545483905e+001
 3.525910330969095e+000	 1.121586527175942e+000	 1.077586256477277e+001
 3.514763574400809e+000	 1.156043691239876e+000	 1.087532557201937e+001
 3.503252865720343e+000	 1.190470225930017e+000	 1.098561789049412e+001
 3.491377432851563e+000	 1.224860653867346e+000	 1.110315146374184e+001
 3.479136608409139e+000	 1.259209458374282e+000	 1.118152762398900e+001
 3.466529831232760e+000	 1.293511085851323e+000	 1.113957187960730e+001
 3.453556647860368e+000	 1.327759948214290e+000	 1.108977215396089e+001
 3.440216713937880e+000	 1.361950425390495e+000	 1.103230366012442e+001
 3.581211119249587e+000	 1.024964350267184e+000	 1.059016241726034e+001
 3.571082587148281e+000	 1.059714185870493e+000	 1.062088323414874e+001
 3.560590591755095e+000	 1.094449467945860e+000	 1.067644613594001e+001
 3.549734049424571e+000	 1.129164814520327e+000	 1.075481277926717e+001
 3.538511976933652e+000	 1.163854797260017e+000	 1.085350013760788e+001
 3.526923493194636e+000	 1.198513943670795e+000	 1.096956565615677e+001
 3.514967820914652e+000	 1.233136739364325e+000	 1.109959308806826e+001
 3.502644288199015e+000	 1.267717630388179e+000	 1.115702049189354e+001
 3.489952330095787e+000	 1.302251025618533e+000	 1.113354089862143e+001
 3.476891490078978e+000	 1.336731299213884e+000	 1.110474551666796e+001
 3.463461421467788e+000	 1.371152793128081e+000	 1.107092035723500e+001
 3.605246093207198e+000	 1.031843305638912e+000	 1.060738480658526e+001
 3.595049584380677e+000	 1.066826361614633e+000	 1.061747896082047e+001
 3.584487172911277e+000	 1.101794766387843e+000	 1.065851537261491e+001
 3.573557767880753e+000	 1.136743101864962e+000	 1.072866548917117e+001
 3.562260379467235e+000	 1.171665903280343e+000	 1.082564482478451e+001
 3.550594120669679e+000	 1.206557661411701e+000	 1.094669752155548e+001
 3.538558208978485e+000	 1.241412824861386e+000	 1.108858160332683e+001
 3.526151967989605e+000	 1.276225802402121e+000	 1.112602320517536e+001
 3.513374828959480e+000	 1.310990965385763e+000	 1.112279524366389e+001
 3.500226332298183e+000	 1.345702650213483e+000	 1.111677774050199e+001
 3.486706128998200e+000	 1.380355160865667e+000	 1.110836676485620e+001
 3.254259053716807e+000	 1.288331483489811e+000	 1.072480439681024e+001
 3.241293049845800e+000	 1.320613253401518e+000	 1.084537416846517e+001
 3.227979782949084e+000	 1.352829080447324e+000	 1.095982882016353e+001
 3.214319244282112e+000	 1.384973572263021e+000	 1.106652330577868e+001
 3.200311532997376e+000	 1.417041316191711e+000	 1.116375058631302e+001
 3.185956857143146e+000	 1.449026881896090e+000	 1.124974195235154e+001
 3.171255534588795e+000	 1.480924824014684e+000	 1.132266748909673e+001
 3.156207993874709e+000	 1.512729684859719e+000	 1.138063668740003e+001
 3.140814774984898e+000	 1.544435997154201e+000	 1.142169920387752e+001
 3.125076530040452e+000	 1.576038286805698e+000	 1.144384577284963e+001
 3.108994023912139e+000	 1.607531075714235e+000	 1.127334016337811e+001
 3.277503761242674e+000	 1.297533851227396e+000	 1.075971686084766e+001
 3.264445143058997e+000	 1.330046205210258e+000	 1.086722519261838e+001
 3.251036781399276e+000	 1.362492145306674e+000	 1.096763113673356e+001
 3.237278667456502e+000	 1.394866240635550e+000	 1.105933297922305e+001
 3.223170901091398e+000	 1.427163039878151e+000	 1.114066725965080e+001
 3.208713691838290e+000	 1.459377073909050e+000	 1.120990903846215e+001
 3.193907359837047e+000	 1.491502858471334e+000	 1.126527230713471e+001
 3.178752336689058e+000	 1.523534896893744e+000	 1.130491054468259e+001
 3.163249166235359e+000	 1.555467682847305e+000	 1.132691742373598e+001
 3.147398505255051e+000	 1.587295703138930e+000	 1.132932766906834e+001
 3.131201124082256e+000	 1.619013440539351e+000	 1.131011807107484e+001
 3.300748468769045e+000	 1.306736218964982e+000	 1.079636140973299e+001
 3.287597236272605e+000	 1.339479157018998e+000	 1.089193744349339e+001
 3.274093779849794e+000	 1.372155210166024e+000	 1.097946475065528e+001
 3.260238090631141e+000	 1.404758909008078e+000	 1.105738467271930e+001
 3.246030269185602e+000	 1.437284763564591e+000	 1.112407700415351e+001
 3.231470526533562e+000	 1.469727265922011e+000	 1.117786020412840e+001
 3.216559185085382e+000	 1.502080892927984e+000	 1.121699175134736e+001
 3.201296679503453e+000	 1.534340108927768e+000	 1.123966864565919e+001
 3.185683557485841e+000	 1.566499368540411e+000	 1.124402805981081e+001
 3.169720480469652e+000	 1.598553119472159e+000	 1.122814814434805e+001
 3.153408224252373e+000	 1.630495805364467e+000	 1.119004898830201e+001
 3.323993176295922e+000	 1.315938586702568e+000	 1.083437575258542e+001
 3.310749329486621e+000	 1.348912108827738e+000	 1.091911480735967e+001
 3.297150778300636e+000	 1.381818275025375e+000	 1.099489954173932e+001
 3.283197513806030e+000	 1.414651577380607e+000	 1.106021409040636e+001
 3.268889637279991e+000	 1.447406487251032e+000	 1.111348119357156e+001
 3.254227361228962e+000	 1.480077457934971e+000	 1.115306235257823e+001
 3.239211010333798e+000	 1.512658927384634e+000	 1.117725812896237e+001
 3.223841022317894e+000	 1.545145320961793e+000	 1.118430859079553e+001
 3.208117948736344e+000	 1.577531054233515e+000	 1.117239390980670e+001
 3.192042455684259e+000	 1.609810535805390e+000	 1.113963511242896e+001
 3.175615324422491e+000	 1.641978170189583e+000	 1.108409498754409e+001
 3.347237883823303e+000	 1.325140954440153e+000	 1.087339744383766e+001
 3.333901422701049e+000	 1.358345060636478e+000	 1.094836180660271e+001
 3.320207776751802e+000	 1.391481339884725e+000	 1.101350682934969e+001
 3.306156936981168e+000	 1.424544245753136e+000	 1.106735919175985e+001
 3.291749005374561e+000	 1.457528210937472e+000	 1.110838428482224e+001
 3.276984195924488e+000	 1.490427649947932e+000	 1.113498630977401e+001
 3.261862835582296e+000	 1.523236961841284e+000	 1.114550852092741e+001
 3.246385365132381e+000	 1.555950532995818e+000	 1.113823361635172e+001
 3.230552339986867e+000	 1.588562739926620e+000	 1.111138428004708e+001
 3.214364430898872e+000	 1.621067952138621e+000	 1.106312387889592e+001
 3.197822424592608e+000	 1.653460535014698e+000	 1.099155731730285e+001
 3.370482591351189e+000	 1.334343322177739e+000	 1.091306388857004e+001
 3.357053515915887e+000	 1.367778012445218e+000	 1.097928357778889e+001
 3.343264775203294e+000	 1.401144404744075e+000	 1.103485932276398e+001
 3.329116360156554e+000	 1.434436914125664e+000	 1.107836011382196e+001
 3.314608373469317e+000	 1.467649934623912e+000	 1.110829371167371e+001
 3.299741030620142e+000	 1.500777841960892e+000	 1.112310668914589e+001
 3.284514660830876e+000	 1.533814996297935e+000	 1.112118461729913e+001
 3.268929707946914e+000	 1.566755745029842e+000	 1.110085240004448e+001
 3.252986731237411e+000	 1.599594425619725e+000	 1.106037476103895e+001
 3.236686406113489e+000	 1.632325368471851e+000	 1.099795688628734e+001
 3.220029524762726e+000	 1.664942899839814e+000	 1.091174522550147e+001
 3.393727298879581e+000	 1.343545689915324e+000	 1.095301234762525e+001
 3.380205609131133e+000	 1.377210964253957e+000	 1.101148585063200e+001
 3.366321773655109e+000	 1.410807469603425e+000	 1.105853107357356e+001
 3.352075783332190e+000	 1.444329582498193e+000	 1.109275909662720e+001
 3.337467741564254e+000	 1.477771658310352e+000	 1.111271978279796e+001
 3.322497865315922e+000	 1.511128033973852e+000	 1.111690176188401e+001
 3.307166486079536e+000	 1.544393030754585e+000	 1.110373255939698e+001
 3.291474050761494e+000	 1.577560957063867e+000	 1.107157887469594e+001
 3.275421122487976e+000	 1.610626111312830e+000	 1.101874701226113e+001
 3.259008381328112e+000	 1.643582784805082e+000	 1.094348346967899e+001
 3.242236624932843e+000	 1.676425264664929e+000	 1.084397568553166e+001
 3.416972006408479e+000	 1.352748057652910e+000	 1.099287994251448e+001
 3.403357702346791e+000	 1.386643916062697e+000	 1.104457492781802e+001
 3.389378772107251e+000	 1.420470534462775e+000	 1.108409743002672e+001
 3.375035206508074e+000	 1.454222250870722e+000	 1.111010041167205e+001
 3.360327109659375e+000	 1.487893381996793e+000	 1.112117558398505e+001
 3.345254700011832e+000	 1.521478225986813e+000	 1.111585333252481e+001
 3.329818311328278e+000	 1.554971065211234e+000	 1.109260278839967e+001
 3.314018393576120e+000	 1.588366169097891e+000	 1.104983204948851e+001
 3.297855513738560e+000	 1.621657797005935e+000	 1.098588855573663e+001
 3.281330356542740e+000	 1.654840201138312e+000	 1.089905962224388e+001
 3.264443725102960e+000	 1.687907629490045e+000	 1.078757313348272e+001
 3.440216713937880e+000	 1.361950425390495e+000	 1.103230366012442e+001
 3.426509795562858e+000	 1.396076867871437e+000	 1.107815766564808e+001
 3.412435770559715e+000	 1.430133599322125e+000	 1.111113499322258e+001
 3.397994629684208e+000	 1.464114919243250e+000	 1.112993029328446e+001
 3.383186477754680e+000	 1.498015105683233e+000	 1.113317688432146e+001
 3.368011534707869e+000	 1.531828417999774e+000	 1.111944661958133e+001
 3.352470136577104e+000	 1.565549099667885e+000	 1.108724990007972e+001
 3.336562736390792e+000	 1.599171381131916e+000	 1.103503583846625e+001
 3.320289904989166e+000	 1.632689482699040e+000	 1.096119257797373e+001
 3.303652331757374e+000	 1.666097617471543e+000	 1.086404777031666e+001
 3.286650825273078e+000	 1.699389994315161e+000	 1.074186921602330e+001
 3.463461421467788e+000	 1.371152793128081e+000	 1.107092035723500e+001
 3.449661888779335e+000	 1.405509819680177e+000	 1.111184145546068e+001
 3.435492769012504e+000	 1.439796664181475e+000	 1.113922157506923e+001
 3.420954052860590e+000	 1.474007587615779e+000	 1.115179687275710e+001
 3.406045845850167e+000	 1.508136829369673e+000	 1.114824204614670e+001
 3.390768369404032e+000	 1.542178610012734e+000	 1.112717014098016e+001
 3.375121961826010e+000	 1.576127134124535e+000	 1.108713250538748e+001
 3.359107079205510e+000	 1.609976593165940e+000	 1.102661889594220e+001
 3.342724296239791e+000	 1.643721168392145e+000	 1.094405773988258e+001
 3.325974306972011e+000	 1.677355033804773e+000	 1.083781655751551e+001
 3.308857925443196e+000	 1.710872359140276e+000	 1.070620254843570e+001
 3.486706128998200e+000	 1.380355160865667e+000	 1.110836676485620e+001
 3.472813981996224e+000	 1.414942771488917e+000	 1.114523420579721e+001
 3.458549767465619e+000	 1.449459729040826e+000	 1.116793615792339e+001
 3.443913476037222e+000	 1.483900255988308e+000	 1.117525011511512e+001
 3.428905213945839e+000	 1.518258553056113e+000	 1.116589193861142e+001
 3.413525204100325e+000	 1.552528802025695e+000	 1.113851560408102e+001
 3.397773787075000e+000	 1.586705168581185e+000	 1.109171309661196e+001
 3.381651422020273e+000	 1.620781805199965e+000	 1.102401445848937e+001
 3.365158687490438e+000	 1.654752854085250e+000	 1.093388799429515e+001
 3.348296282186655e+000	 1.688612450138004e+000	 1.081974063749964e+001
 3.331065025613314e+000	 1.722354723965393e+000	 1.067991848232873e+001
 3.108994023912139e+000	 1.607531075714235e+000	 1.127334016337811e+001
 3.092568134750085e+000	 1.638908884611238e+000	 1.127523206687214e+001
 3.075799854430276e+000	 1.670166235927714e+000	 1.126886461848529e+001
 3.058690288915435e+000	 1.701297656688459e+000	 1.125500340774801e+001
 3.041240658528325e+000	 1.732297681428427e+000	 1.123444183117342e+001
 3.023452298137441e+000	 1.763160855129283e+000	 1.120799955849831e+001
 3.005326657253558e+000	 1.793881736172811e+000	 1.117652093505197e+001
 2.986865300036170e+000	 1.824454899308038e+000	 1.114087332373280e+001
 2.968069905208957e+000	 1.854874938628938e+000	 1.110194539028119e+001
 2.948942265883543e+000	 1.885136470559467e+000	 1.114378041285388e+001
 2.929484289290938e+000	 1.915234136842687e+000	 1.135993974567093e+001
 3.131201124082256e+000	 1.619013440539351e+000	 1.131011807107484e+001
 3.114657907139728e+000	 1.650615376642425e+000	 1.135678937487022e+001
 3.097769853388399e+000	 1.682095994753727e+000	 1.132609609485022e+001
 3.080538076690724e+000	 1.713449782805372e+000	 1.128770179941451e+001
 3.062963806086062e+000	 1.744671236293278e+000	 1.124241177932818e+001
 3.045048385977678e+000	 1.775754861234694e+000	 1.119105793378911e+001
 3.026793276230001e+000	 1.806695177142703e+000	 1.113449714285612e+001
 3.008200052175089e+000	 1.837486720014539e+000	 1.107360957859679e+001
 2.989270404527509e+000	 1.868124045330562e+000	 1.100929695871992e+001
 2.970006139206822e+000	 1.898601731060612e+000	 1.112858887605138e+001
 2.950409177067122e+000	 1.928914380674490e+000	 1.131676335482244e+001
 3.153408224252373e+000	 1.630495805364467e+000	 1.119004898830201e+001
 3.136747679529372e+000	 1.662321868673618e+000	 1.133933616549592e+001
 3.119739852346521e+000	 1.694025753579760e+000	 1.141370957770885e+001
 3.102385864466013e+000	 1.725601908922329e+000	 1.134998154057433e+001
 3.084686953643797e+000	 1.757044791158208e+000	 1.127915545694576e+001
 3.066644473817915e+000	 1.788348867340229e+000	 1.120207622269508e+001
 3.048259895206442e+000	 1.819508618112772e+000	 1.111961402928089e+001
 3.029534804314007e+000	 1.850518540721283e+000	 1.103266264306466e+001
 3.010470903846060e+000	 1.881373152032502e+000	 1.098788336774534e+001
 2.991070012530103e+000	 1.912066991562159e+000	 1.112892265021876e+001
 2.971334064843307e+000	 1.942594624506790e+000	 1.128835374879839e+001
 3.175615324422491e+000	 1.641978170189583e+000	 1.108409498754409e+001
 3.158837451919014e+000	 1.674028360704815e+000	 1.122489549479399e+001
 3.141709851304642e+000	 1.705955512405812e+000	 1.134727077977642e+001
 3.124233652241302e+000	 1.737754035039331e+000	 1.144140590215378e+001
 3.106410101201532e+000	 1.769418346023218e+000	 1.134424089757032e+001
 3.088240561658153e+000	 1.800942873445888e+000	 1.124062728560479e+001
 3.069726514182884e+000	 1.832322059083021e+000	 1.113144934675204e+001
 3.050869556452927e+000	 1.863550361428269e+000	 1.101761522772493e+001
 3.031671403164613e+000	 1.894622258734760e+000	 1.103352890722503e+001
 3.012133885853384e+000	 1.925532252064109e+000	 1.114370211210292e+001
 2.992258952619491e+000	 1.956274868339587e+000	 1.127363929790618e+001
 3.197822424592608e+000	 1.653460535014698e+000	 1.099155731730285e+001
 3.180927224308658e+000	 1.685734852736017e+000	 1.112341762568744e+001
 3.163679850262765e+000	 1.717885271231884e+000	 1.123745464307438e+001
 3.146081440016591e+000	 1.749906161156377e+000	 1.133187202180719e+001
 3.128133248759268e+000	 1.781791900888305e+000	 1.140481324577976e+001
 3.109836649498389e+000	 1.813536879551669e+000	 1.130629097938178e+001
 3.091193133159327e+000	 1.845135500053447e+000	 1.116958758279646e+001
 3.072204308591847e+000	 1.876582182135497e+000	 1.103748541703750e+001
 3.052871902483164e+000	 1.907871365437336e+000	 1.109333124653441e+001
 3.033197759176664e+000	 1.938997512566462e+000	 1.117185358426511e+001
 3.013183840395675e+000	 1.969955112172882e+000	 1.127155405385503e+001
 3.220029524762726e+000	 1.664942899839814e+000	 1.091174522550147e+001
 3.203016996698300e+000	 1.697441344767224e+000	 1.103421798614598e+001
 3.185649849220887e+000	 1.729815030057976e+000	 1.113948787090303e+001
 3.167929227791881e+000	 1.762058287273467e+000	 1.122572089810131e+001
 3.149856396317004e+000	 1.794165455753472e+000	 1.129102078556971e+001
 3.131432737338627e+000	 1.826130885657575e+000	 1.133343028356019e+001
 3.112659752135769e+000	 1.857948941024052e+000	 1.123361972779732e+001
 3.093539060730765e+000	 1.889614002842969e+000	 1.114429231455958e+001
 3.074072401801717e+000	 1.921120472140230e+000	 1.116621556691318e+001
 3.054261632499945e+000	 1.952462773069216e+000	 1.121230913005295e+001
 3.034108728171860e+000	 1.983635356006674e+000	 1.128103755384559e+001
 3.242236624932843e+000	 1.676425264664929e+000	 1.084397568553166e+001
 3.225106769087943e+000	 1.709147836798436e+000	 1.095661949191362e+001
 3.207619848179009e+000	 1.741744788884088e+000	 1.105269966983738e+001
 3.189777015567170e+000	 1.774210413390602e+000	 1.113034468373274e+001
 3.171579543874740e+000	 1.806539010618718e+000	 1.118761853229983e+001
 3.153028825178865e+000	 1.838724891763604e+000	 1.122252210225910e+001
 3.134126371112211e+000	 1.870762381994835e+000	 1.123299470311310e+001
 3.114873812869684e+000	 1.902645823550685e+000	 1.126392657134621e+001
 3.095272901120267e+000	 1.934369578843441e+000	 1.125111283979894e+001
 3.075325505823225e+000	 1.965928033572373e+000	 1.126400635699816e+001
 3.055033615948044e+000	 1.997315599840964e+000	 1.130103463271062e+001
 3.264443725102960e+000	 1.687907629490045e+000	 1.078757313348272e+001
 3.247196541477585e+000	 1.720854328829652e+000	 1.088995229182244e+001
 3.229589847137131e+000	 1.753674547710219e+000	 1.097642624856103e+001
 3.211624803342460e+000	 1.786362539507781e+000	 1.104508599168763e+001
 3.193302691432475e+000	 1.818912565484043e+000	 1.109395584466632e+001
 3.174624913019101e+000	 1.851318897869757e+000	 1.112099484067040e+001
 3.155592990088653e+000	 1.883575822965795e+000	 1.115912260274530e+001
 3.136208565008604e+000	 1.915677644258642e+000	 1.128817760670885e+001
 3.116473400438819e+000	 1.947618685546969e+000	 1.134695962988182e+001
 3.096389379146505e+000	 1.979393294075933e+000	 1.132588822823874e+001
 3.075958503724228e+000	 2.010995843675750e+000	 1.133049524272352e+001
 3.286650825273078e+000	 1.699389994315161e+000	 1.074186921602330e+001
 3.269286313867229e+000	 1.732560820860875e+000	 1.083355352343142e+001
 3.251559846095252e+000	 1.765604306536369e+000	 1.091001058130845e+001
 3.233472591117748e+000	 1.798514665625005e+000	 1.096929397610138e+001
 3.215025838990211e+000	 1.831286120349447e+000	 1.100938839698705e+001
 3.196221000859339e+000	 1.863912903976033e+000	 1.102821103024705e+001
 3.177059609065095e+000	 1.896389263936935e+000	 1.110146708935622e+001
 3.157543317147523e+000	 1.928709464966843e+000	 1.121576930362690e+001
 3.137673899757371e+000	 1.960867792250816e+000	 1.133589230052755e+001
 3.117453252469785e+000	 1.992858554579895e+000	 1.139690288158649e+001
 3.096883391500412e+000	 2.024676087511034e+000	 1.136837428071163e+001
 3.308857925443196e+000	 1.710872359140276e+000	 1.070620254843570e+001
 3.291376086256872e+000	 1.744267312892101e+000	 1.078676707850553e+001
 3.273529845053375e+000	 1.777534065362540e+000	 1.085280218083306e+001
 3.255320378893036e+000	 1.810666791742272e+000	 1.090232411275693e+001
 3.236748986547946e+000	 1.843659675214930e+000	 1.093327796726799e+001
 3.217817088699575e+000	 1.876506910082433e+000	 1.094768625553733e+001
 3.198526228041538e+000	 1.909202704908252e+000	 1.104086086984379e+001
 3.178878069286442e+000	 1.941741285675286e+000	 1.114013829483793e+001
 3.158874399075922e+000	 1.974116898954979e+000	 1.124534421744374e+001
 3.138517125793066e+000	 2.006323815084259e+000	 1.135631736103674e+001
 3.117808279276597e+000	 2.038356331346816e+000	 1.141363142213187e+001
 3.331065025613314e+000	 1.722354723965393e+000	 1.067991848232873e+001
 3.313465858646516e+000	 1.755973804923333e+000	 1.074894337787550e+001
 3.295499844011498e+000	 1.789463824188730e+000	 1.080415688045662e+001
 3.277168166668326e+000	 1.822818917859585e+000	 1.084353798836326e+001
 3.258472134105683e+000	 1.856033230080492e+000	 1.086499223374691e+001
 3.239413176539813e+000	 1.889100916188957e+000	 1.089963669728707e+001
 3.219992847017981e+000	 1.922016145879749e+000	 1.097741140138014e+001
 3.200212821425362e+000	 1.954773106383973e+000	 1.106140212144871e+001
 3.180074898394475e+000	 1.987366005659461e+000	 1.115141767063536e+001
 3.159580999116347e+000	 2.019789075589026e+000	 1.124728047475059e+001
 3.138733167052782e+000	 2.052036575183095e+000	 1.134882714032333e+001
 2.929484289290938e+000	 1.915234136842687e+000	 1.135993974567093e+001
 2.909697996420158e+000	 1.945162607531509e+000	 1.132816836852370e+001
 2.889585521563812e+000	 1.974916583975221e+000	 1.130326521180893e+001
 2.869149111770381e+000	 2.004490801800127e+000	 1.128447687346140e+001
 2.848391126202986e+000	 2.033880033882548e+000	 1.127096017533335e+001
 2.827314035404899e+000	 2.063079093308326e+000	 1.126178334809514e+001
 2.805920420471948e+000	 2.092082836316265e+000	 1.125592747882864e+001
 2.784212972132169e+000	 2.120886165222105e+000	 1.125228822029029e+001
 2.762194489733197e+000	 2.149484031319626e+000	 1.124967775996778e+001
 2.739867880138053e+000	 2.177871437755532e+000	 1.124682704619881e+001
 2.717236156530065e+000	 2.206043442374710e+000	 1.124238826776494e+001
 2.950409177067122e+000	 1.928914380674490e+000	 1.131676335482244e+001
 2.930481553533042e+000	 1.959056626154036e+000	 1.127797526001545e+001
 2.910225418142123e+000	 1.989023131001015e+000	 1.124804829619277e+001
 2.889643033993194e+000	 2.018808593239061e+000	 1.122614652961546e+001
 2.868736777100538e+000	 2.048407748407898e+000	 1.121133996339001e+001
 2.847509135654170e+000	 2.077815372543980e+000	 1.120260580591353e+001
 2.825962709186313e+000	 2.107026285144964e+000	 1.119883001120393e+001
 2.804100207644490e+000	 2.136035352114552e+000	 1.119880908999321e+001
 2.781924450371677e+000	 2.164837488684344e+000	 1.120125218958316e+001
 2.759438364994201e+000	 2.193427662309230e+000	 1.120478343958026e+001
 2.736644986218128e+000	 2.221800895532991e+000	 1.120794455974603e+001
 2.971334064843307e+000	 1.942594624506790e+000	 1.128835374879839e+001
 2.951265110645926e+000	 1.972950644777149e+000	 1.124095121171925e+001
 2.930865314720434e+000	 2.003129678027466e+000	 1.120443159036871e+001
 2.910136956216006e+000	 2.033126384678703e+000	 1.117787666418939e+001
 2.889082427998092e+000	 2.062935462933988e+000	 1.116026980571690e+001
 2.867704235903441e+000	 2.092551651780386e+000	 1.115049733238988e+001
 2.846004997900678e+000	 2.121969733974401e+000	 1.114735013955580e+001
 2.823987443156810e+000	 2.151184539007711e+000	 1.114952561345277e+001
 2.801654411010157e+000	 2.180190946049723e+000	 1.115562982204202e+001
 2.779008849850348e+000	 2.208983886863519e+000	 1.116417998065710e+001
 2.756053815906193e+000	 2.237558348691773e+000	 1.117360718852806e+001
 2.992258952619491e+000	 1.956274868339587e+000	 1.127363929790618e+001
 2.972048667758809e+000	 1.986844663400851e+000	 1.121605163618064e+001
 2.951505211298744e+000	 2.017236225054575e+000	 1.117139837870000e+001
 2.930630878438818e+000	 2.047444176119054e+000	 1.113867924796490e+001
 2.909428078895645e+000	 2.077463177460815e+000	 1.111679115827132e+001
 2.887899336152713e+000	 2.107287931017540e+000	 1.110452965071713e+001
 2.866047286615044e+000	 2.136913182804580e+000	 1.110059061883529e+001
 2.843874678669133e+000	 2.166333725901581e+000	 1.110357232353678e+001
 2.821384371648636e+000	 2.195544403415763e+000	 1.111197769511378e+001
 2.798579334706496e+000	 2.224540111418400e+000	 1.112421691911806e+001
 2.775462645594258e+000	 2.253315801851058e+000	 1.113861030199525e+001
 3.013183840395675e+000	 1.969955112172882e+000	 1.127155405385503e+001
 2.992832224871694e+000	 2.000738682025141e+000	 1.120223684966857e+001
 2.972145107877057e+000	 2.031342772082342e+000	 1.114793606436940e+001
 2.951124800661630e+000	 2.061761967560113e+000	 1.110756957876598e+001
 2.929773729793199e+000	 2.091990891988382e+000	 1.107994800576040e+001
 2.908094436401984e+000	 2.122024210255444e+000	 1.106377620839425e+001
 2.886089575329409e+000	 2.151856631635498e+000	 1.105765511807359e+001
 2.863761914181453e+000	 2.181482912796160e+000	 1.106008385155968e+001
 2.841114332287117e+000	 2.210897860782464e+000	 1.106946212435218e+001
 2.818149819562645e+000	 2.240096335973872e+000	 1.108409295712876e+001
 2.794871475282322e+000	 2.269073255010843e+000	 1.110218567094380e+001
 3.034108728171860e+000	 1.983635356006674e+000	 1.128103755384559e+001
 3.013615781984577e+000	 2.014632700650016e+000	 1.119847190308157e+001
 2.992785004455367e+000	 2.045449319110766e+000	 1.113303602735092e+001
 2.971618722884444e+000	 2.076079759001881e+000	 1.108356616673330e+001
 2.950119380690753e+000	 2.106518606516688e+000	 1.104878677444285e+001
 2.928289536651255e+000	 2.136760489494098e+000	 1.102731211776743e+001
 2.906131864043775e+000	 2.166800080467156e+000	 1.101764818886207e+001
 2.883649149693775e+000	 2.196632099691451e+000	 1.101819492388775e+001
 2.860844292925597e+000	 2.226251318149826e+000	 1.102724872799926e+001
 2.837720304418793e+000	 2.255652560529936e+000	 1.104300530269462e+001
 2.814280304970386e+000	 2.284830708171129e+000	 1.106356277105058e+001
 3.055033615948044e+000	 1.997315599840964e+000	 1.130103463271062e+001
 3.034399339097461e+000	 2.028526719275481e+000	 1.120372641980292e+001
 3.013424901033678e+000	 2.059555866139850e+000	 1.112569348821844e+001
 2.992112645107255e+000	 2.090397550444356e+000	 1.106569062431324e+001
 2.970465031588305e+000	 2.121046321045732e+000	 1.102235624851399e+001
 2.948484636900526e+000	 2.151496768733500e+000	 1.099421409901474e+001
 2.926174152758140e+000	 2.181743529299555e+000	 1.097967523512759e+001
 2.903536385206096e+000	 2.211781286587452e+000	 1.097704035868390e+001
 2.880574253564076e+000	 2.241604775517848e+000	 1.098450245086583e+001
 2.857290789274941e+000	 2.271208785086590e+000	 1.100014972083064e+001
 2.833689134658449e+000	 2.300588161331918e+000	 1.102196886147302e+001
 3.075958503724228e+000	 2.010995843675750e+000	 1.133049524272352e+001
 3.055182896210345e+000	 2.042420737901532e+000	 1.121697444017384e+001
 3.034064797611990e+000	 2.073662413169590e+000	 1.112490737751293e+001
 3.012606567330068e+000	 2.104715341887540e+000	 1.105296756073753e+001
 2.990810682485858e+000	 2.135574035575516e+000	 1.099970748990413e+001
 2.968679737149798e+000	 2.166233047973652e+000	 1.096356042545794e+001
 2.946216441472506e+000	 2.196686978132694e+000	 1.094284248414154e+001
 2.923423620718417e+000	 2.226930473484163e+000	 1.093575506278541e+001
 2.900304214202556e+000	 2.256958232886532e+000	 1.094038758723743e+001
 2.876861274131089e+000	 2.286765009643835e+000	 1.095472058264283e+001
 2.853097964346514e+000	 2.316345614493208e+000	 1.097662906024095e+001
 3.096883391500412e+000	 2.024676087511034e+000	 1.136837428071163e+001
 3.075966453323229e+000	 2.056314756528171e+000	 1.123719427227214e+001
 3.054704694190301e+000	 2.087768960199989e+000	 1.112968021040580e+001
 3.033100489552880e+000	 2.119033133331432e+000	 1.104442448078027e+001
 3.011156333383411e+000	 2.150101750106038e+000	 1.097989376132779e+001
 2.988874837399069e+000	 2.180969327214555e+000	 1.093443087109146e+001
 2.966258730186870e+000	 2.211630426966571e+000	 1.090625695870408e+001
 2.943310856230740e+000	 2.242079660381585e+000	 1.089347402870812e+001
 2.920034174841036e+000	 2.272311690255878e+000	 1.089406780285140e+001
 2.896431758987238e+000	 2.302321234201673e+000	 1.090591091241962e+001
 2.872506794034578e+000	 2.332103067654998e+000	 1.092676641659193e+001
 3.117808279276597e+000	 2.038356331346816e+000	 1.141363142213187e+001
 3.096750010436112e+000	 2.070208775155397e+000	 1.126336834869933e+001
 3.075344590768612e+000	 2.101875507231044e+000	 1.113901796640929e+001
 3.053594411775693e+000	 2.133350924776032e+000	 1.103909168759223e+001
 3.031501984280965e+000	 2.164629464637300e+000	 1.096197045243202e+001
 3.009069937648340e+000	 2.195705606456206e+000	 1.090590666022422e+001
 2.986301018901236e+000	 2.226573875801191e+000	 1.086902645044863e+001
 2.963198091743061e+000	 2.257228847279718e+000	 1.084933233177128e+001
 2.939764135479516e+000	 2.287665147625883e+000	 1.084470615598913e+001
 2.916002243843385e+000	 2.317877458760101e+000	 1.085291243282714e+001
 2.891915623722642e+000	 2.347860520817291e+000	 1.087160198039398e+001
 3.138733167052782e+000	 2.052036575183095e+000	 1.134882714032333e+001
 3.117533567548996e+000	 2.084102793783212e+000	 1.129448308909675e+001
 3.095984487346924e+000	 2.115982054262759e+000	 1.115192997389843e+001
 3.074088333998507e+000	 2.147668716221342e+000	 1.103600218942151e+001
 3.051847635178519e+000	 2.179157179169301e+000	 1.094499500889857e+001
 3.029265037897612e+000	 2.210441885698607e+000	 1.087707041913586e+001
 3.006343307615602e+000	 2.241517324636550e+000	 1.083025949421400e+001
 2.983085327255383e+000	 2.272378034178562e+000	 1.080246512733748e+001
 2.959494096117997e+000	 2.303018604996550e+000	 1.079146511772467e+001
 2.935572728699535e+000	 2.333433683319122e+000	 1.079491560829660e+001
 2.911324453410707e+000	 2.363617973980084e+000	 1.081035486879101e+001
 2.717236156530065e+000	 2.206043442374710e+000	 1.124238826776494e+001
 2.694302437127753e+000	 2.233995160532463e+000	 1.118909249407310e+001
 2.671069943811038e+000	 2.261721767870786e+000	 1.114333933589765e+001
 2.647542000659858e+000	 2.289218503055032e+000	 1.110333571707027e+001
 2.623722032406190e+000	 2.316480670467651e+000	 1.106721019093562e+001
 2.599613562801293e+000	 2.343503642856166e+000	 1.103301682933835e+001
 2.575220212899676e+000	 2.370282863932164e+000	 1.099873934246136e+001
 2.550545699261519e+000	 2.396813850918235e+000	 1.096229541989779e+001
 2.525593832075397e+000	 2.423092197039895e+000	 1.092154128258339e+001
 2.500368513203295e+000	 2.449113573959597e+000	 1.087427643449038e+001
 2.474873734150000e+000	 2.474873734150000e+000	 1.083896222005806e+001
 2.736644986218128e+000	 2.221800895532991e+000	 1.120794455974603e+001
 2.713547454534904e+000	 2.249952268820610e+000	 1.115935671401301e+001
 2.690149014837810e+000	 2.277876923354378e+000	 1.111971938675585e+001
 2.666453014950212e+000	 2.305570063790118e+000	 1.108721667126568e+001
 2.642462904066458e+000	 2.333026960970151e+000	 1.105995097008587e+001
 2.618182231107459e+000	 2.360242954590201e+000	 1.103594694697806e+001
 2.593614642992400e+000	 2.387213455816933e+000	 1.101315571699186e+001
 2.568763882828318e+000	 2.413933949853102e+000	 1.098945926485328e+001
 2.543633788019420e+000	 2.440399998447261e+000	 1.096267508110800e+001
 2.518228288298135e+000	 2.466607242345167e+000	 1.093056100471140e+001
 2.492551403680000e+000	 2.492551403680000e+000	 1.089778245583333e+001
 2.756053815906193e+000	 2.237558348691773e+000	 1.117360718852806e+001
 2.732792471942056e+000	 2.265909377109163e+000	 1.113057957140392e+001
 2.709228085864582e+000	 2.294032078838291e+000	 1.109793467658651e+001
 2.685364029240567e+000	 2.321921624525449e+000	 1.107383240898400e+001
 2.661203775726726e+000	 2.349573251472833e+000	 1.105634761083668e+001
 2.636750899413626e+000	 2.376982266324359e+000	 1.104347407859422e+001
 2.612009073085125e+000	 2.404144047701782e+000	 1.103312882525978e+001
 2.586982066395117e+000	 2.431054048788012e+000	 1.102315657824343e+001
 2.561673743963445e+000	 2.457707799854648e+000	 1.101133450196769e+001
 2.536088063392976e+000	 2.484100910730744e+000	 1.099537713370114e+001
 2.510229073210000e+000	 2.510229073210000e+000	 1.091681511060546e+001
 2.775462645594258e+000	 2.253315801851058e+000	 1.113861030199525e+001
 2.752037489349208e+000	 2.281866485398122e+000	 1.110198452380053e+001
 2.728307156891355e+000	 2.310187234322526e+000	 1.107719870904102e+001
 2.704275043530920e+000	 2.338273185261025e+000	 1.106238721532227e+001
 2.679944647386995e+000	 2.366119541975694e+000	 1.105559591328532e+001
 2.655319567719793e+000	 2.393721578058645e+000	 1.105478627033273e+001
 2.630403503177848e+000	 2.421074639586712e+000	 1.105783968729670e+001
 2.605200249961916e+000	 2.448174147722970e+000	 1.106256207791463e+001
 2.579713699907468e+000	 2.475015601262054e+000	 1.106668868015636e+001
 2.553947838487818e+000	 2.501594579116325e+000	 1.105781083289656e+001
 2.527906742740000e+000	 2.527906742740000e+000	 1.090233423694970e+001
 2.794871475282322e+000	 2.269073255010843e+000	 1.110218567094380e+001
 2.771282506756359e+000	 2.297823593687487e+000	 1.107279307527506e+001
 2.747386227918126e+000	 2.326342389807081e+000	 1.105672345181500e+001
 2.723186057821274e+000	 2.354624745996849e+000	 1.105208425066067e+001
 2.698685519047263e+000	 2.382665832478737e+000	 1.105689095755737e+001
 2.673888236025959e+000	 2.410460889793056e+000	 1.106907124641755e+001
 2.648797933270572e+000	 2.438005231471722e+000	 1.108646939236903e+001
 2.623418433528714e+000	 2.465294246657972e+000	 1.110685093501782e+001
 2.597753655851491e+000	 2.492323402669479e+000	 1.112790758076634e+001
 2.571807613582659e+000	 2.519088247501911e+000	 1.102155264298519e+001
 2.545584412270000e+000	 2.545584412270000e+000	 1.088587199357586e+001
 2.814280304970386e+000	 2.284830708171129e+000	 1.106356277105058e+001
 2.790527524163510e+000	 2.313780701977259e+000	 1.104222484377868e+001
 2.766465298944899e+000	 2.342497545291958e+000	 1.103571938961235e+001
 2.742097072111628e+000	 2.370976306732918e+000	 1.104212558944567e+001
 2.717426390707531e+000	 2.399212122981961e+000	 1.105942712863329e+001
 2.692456904332127e+000	 2.427200201527592e+000	 1.108551642025152e+001
 2.667192363363296e+000	 2.454935823356812e+000	 1.111819909659053e+001
 2.641636617095514e+000	 2.482414345593019e+000	 1.115519875837742e+001
 2.615793611795516e+000	 2.509631204076926e+000	 1.112383791403462e+001
 2.589667388677500e+000	 2.536581915887501e+000	 1.098259534835774e+001
 2.563262081800000e+000	 2.563262081800000e+000	 1.086738507576485e+001
 2.833689134658449e+000	 2.300588161331918e+000	 1.102196886147302e+001
 2.809772541570663e+000	 2.329737810267437e+000	 1.100949762573471e+001
 2.785544369971670e+000	 2.358652700777156e+000	 1.101339557493257e+001
 2.761008086401982e+000	 2.387327867469233e+000	 1.103171225737970e+001
 2.736167262367800e+000	 2.415758413485365e+000	 1.106239814015472e+001
 2.711025572638294e+000	 2.443939513262254e+000	 1.110330890506092e+001
 2.685586793456021e+000	 2.471866415241984e+000	 1.115221002063300e+001
 2.659854800662312e+000	 2.499534444528111e+000	 1.120678157950237e+001
 2.633833567739539e+000	 2.526939005484393e+000	 1.106209210667826e+001
 2.607527163772341e+000	 2.554075584273098e+000	 1.094090752396494e+001
 2.580939751329999e+000	 2.580939751329999e+000	 1.084683163446974e+001
 2.853097964346514e+000	 2.316345614493208e+000	 1.097662906024095e+001
 2.829017558977814e+000	 2.345694918558022e+000	 1.097382745799539e+001
 2.804623440998443e+000	 2.374807856262675e+000	 1.098895967678524e+001
 2.779919100692337e+000	 2.403679428205794e+000	 1.102004426709262e+001
 2.754908134028069e+000	 2.432304703988950e+000	 1.106499705725922e+001
 2.729594240944460e+000	 2.460678824997042e+000	 1.112163552410551e+001
 2.703981223548745e+000	 2.488797007127235e+000	 1.118768344753040e+001
 2.678072984229111e+000	 2.516654543463250e+000	 1.112563590073921e+001
 2.651873523683563e+000	 2.544246806891879e+000	 1.099692123873809e+001
 2.625386938867182e+000	 2.571569252658699e+000	 1.089645882512801e+001
 2.598617420860000e+000	 2.598617420860000e+000	 1.082417122680309e+001
 2.872506794034578e+000	 2.332103067654998e+000	 1.092676641659193e+001
 2.848262576384966e+000	 2.361652026849011e+000	 1.093442867728673e+001
 2.823702512025215e+000	 2.390963011748516e+000	 1.096161802742954e+001
 2.798830114982690e+000	 2.420030988942601e+000	 1.100632065236722e+001
 2.773649005688337e+000	 2.448850994492715e+000	 1.106641631848912e+001
 2.748162909250627e+000	 2.477418136731954e+000	 1.113968282047475e+001
 2.722375653641469e+000	 2.505727599012566e+000	 1.117440674023398e+001
 2.696291167795910e+000	 2.533774642398433e+000	 1.103668928421509e+001
 2.669913479627586e+000	 2.561554608299386e+000	 1.092830602919841e+001
 2.643246713962023e+000	 2.589062921044305e+000	 1.084921995103959e+001
 2.616295090390000e+000	 2.616295090390000e+000	 1.079936476853157e+001
 2.891915623722642e+000	 2.347860520817291e+000	 1.087160198039398e+001
 2.867507593792117e+000	 2.377609135140408e+000	 1.089051397725990e+001
 2.842781583051987e+000	 2.407118167234677e+000	 1.093057566723159e+001
 2.817741129273045e+000	 2.436382549679655e+000	 1.098973950098632e+001
 2.792389877348605e+000	 2.465397284996662e+000	 1.106584775681825e+001
 2.766731577556794e+000	 2.494157448466993e+000	 1.115663706648946e+001
 2.740770083734193e+000	 2.522658190897978e+000	 1.106138232522701e+001
 2.714509351362709e+000	 2.550894741333661e+000	 1.094362600866077e+001
 2.687953435571610e+000	 2.578862409706913e+000	 1.085622789523965e+001
 2.661106489056865e+000	 2.606556589429915e+000	 1.079916260973457e+001
 2.633972759920000e+000	 2.633972759920000e+000	 1.077237448848352e+001
 2.911324453410707e+000	 2.363617973980084e+000	 1.081035486879101e+001
 2.886752611199269e+000	 2.393566243432211e+000	 1.084129446326023e+001
 2.861860654078760e+000	 2.423273322721160e+000	 1.089503638772762e+001
 2.836652143563399e+000	 2.452734110416955e+000	 1.096949798626626e+001
 2.811130749008874e+000	 2.481943575500790e+000	 1.106248261983751e+001
 2.785300245862961e+000	 2.510896760202158e+000	 1.107207894097084e+001
 2.759164513826918e+000	 2.539588782783472e+000	 1.094358034763395e+001
 2.732727534929508e+000	 2.568014840268935e+000	 1.084643779566146e+001
 2.705993391515634e+000	 2.596170211114460e+000	 1.078066892896507e+001
 2.678966264151707e+000	 2.624050257815533e+000	 1.074625948446200e+001
 2.651650429450000e+000	 2.651650429450000e+000	 1.074316388478025e+001
 2.474873734150000e+000	 2.474873734150000e+000	 1.083896222005806e+001
 2.449113573959596e+000	 2.500368513203294e+000	 1.087512942819409e+001
 2.423092197039895e+000	 2.525593832075397e+000	 1.079914579388097e+001
 2.396813850918235e+000	 2.550545699261519e+000	 1.073281423070186e+001
 2.370282863932165e+000	 2.575220212899676e+000	 1.067629847769463e+001
 2.343503642856166e+000	 2.599613562801293e+000	 1.062976669490459e+001
 2.316480670467651e+000	 2.623722032406190e+000	 1.059339086257779e+001
 2.289218503055032e+000	 2.647542000659858e+000	 1.056734613926128e+001
 2.261721767870785e+000	 2.671069943811037e+000	 1.055181018083519e+001
 2.233995160532464e+000	 2.694302437127753e+000	 1.054696242265767e+001
 2.206043442374710e+000	 2.717236156530064e+000	 1.055298332715109e+001
 2.492551403680000e+000	 2.492551403680000e+000	 1.089778245583333e+001
 2.466607242345168e+000	 2.518228288298135e+000	 1.086963891342715e+001
 2.440399998447261e+000	 2.543633788019420e+000	 1.080997340513287e+001
 2.413933949853101e+000	 2.568763882828318e+000	 1.075744722620522e+001
 2.387213455816933e+000	 2.593614642992400e+000	 1.071219366212021e+001
 2.360242954590201e+000	 2.618182231107459e+000	 1.067435347043253e+001
 2.333026960970151e+000	 2.642462904066458e+000	 1.064407429530701e+001
 2.305570063790118e+000	 2.666453014950212e+000	 1.062151003596335e+001
 2.277876923354377e+000	 2.690149014837810e+000	 1.060682017107032e+001
 2.249952268820610e+000	 2.713547454534904e+000	 1.060016904129465e+001
 2.221800895532991e+000	 2.736644986218128e+000	 1.060172509236931e+001
 2.510229073210000e+000	 2.510229073210000e+000	 1.091681511060546e+001
 2.484100910730744e+000	 2.536088063392976e+000	 1.085745978824625e+001
 2.457707799854647e+000	 2.561673743963444e+000	 1.081332720171040e+001
 2.431054048788012e+000	 2.586982066395117e+000	 1.077384515721942e+001
 2.404144047701782e+000	 2.612009073085125e+000	 1.073911699864007e+001
 2.376982266324359e+000	 2.636750899413626e+000	 1.070925658837139e+001
 2.349573251472832e+000	 2.661203775726727e+000	 1.068438773660163e+001
 2.321921624525448e+000	 2.685364029240566e+000	 1.066464357947634e+001
 2.294032078838291e+000	 2.709228085864582e+000	 1.065016590822776e+001
 2.265909377109162e+000	 2.732792471942056e+000	 1.064110445149592e+001
 2.237558348691774e+000	 2.756053815906193e+000	 1.063761611324354e+001
 2.527906742740000e+000	 2.527906742740000e+000	 1.090233423694970e+001
 2.501594579116325e+000	 2.553947838487817e+000	 1.084052736023698e+001
 2.475015601262053e+000	 2.579713699907468e+000	 1.080953349243223e+001
 2.448174147722970e+000	 2.605200249961916e+000	 1.078234929776040e+001
 2.421074639586712e+000	 2.630403503177848e+000	 1.075742381879216e+001
 2.393721578058645e+000	 2.655319567719793e+000	 1.073484452501613e+001
 2.366119541975694e+000	 2.679944647386995e+000	 1.071471189033040e+001
 2.338273185261026e+000	 2.704275043530920e+000	 1.069713878031527e+001
 2.310187234322525e+000	 2.728307156891355e+000	 1.068224978547165e+001
 2.281866485398122e+000	 2.752037489349207e+000	 1.067018050268223e+001
 2.253315801851058e+000	 2.775462645594258e+000	 1.066107676733664e+001
 2.545584412270000e+000	 2.545584412270000e+000	 1.088587199357586e+001
 2.519088247501911e+000	 2.571807613582659e+000	 1.083550916099118e+001
 2.492323402669479e+000	 2.597753655851491e+000	 1.079891917939089e+001
 2.465294246657972e+000	 2.623418433528715e+000	 1.078330106097315e+001
 2.438005231471722e+000	 2.648797933270572e+000	 1.076746915923800e+001
 2.410460889793055e+000	 2.673888236025959e+000	 1.075148504811645e+001
 2.382665832478737e+000	 2.698685519047263e+000	 1.073542635866965e+001
 2.354624745996849e+000	 2.723186057821274e+000	 1.071938617484854e+001
 2.326342389807081e+000	 2.747386227918127e+000	 1.070347237021570e+001
 2.297823593687487e+000	 2.771282506756359e+000	 1.068780688791461e+001
 2.269073255010843e+000	 2.794871475282322e+000	 1.067252496636737e+001
 2.563262081800000e+000	 2.563262081800000e+000	 1.086738507576485e+001
 2.536581915887501e+000	 2.589667388677499e+000	 1.082776386523626e+001
 2.509631204076926e+000	 2.615793611795515e+000	 1.079219413699587e+001
 2.482414345593019e+000	 2.641636617095514e+000	 1.077704199433435e+001
 2.454935823356812e+000	 2.667192363363296e+000	 1.076960777193061e+001
 2.427200201527592e+000	 2.692456904332126e+000	 1.075954524130937e+001
 2.399212122981961e+000	 2.717426390707532e+000	 1.074690968009278e+001
 2.370976306732918e+000	 2.742097072111629e+000	 1.073177487613050e+001
 2.342497545291958e+000	 2.766465298944899e+000	 1.071423246708012e+001
 2.313780701977259e+000	 2.790527524163510e+000	 1.069439121825169e+001
 2.284830708171130e+000	 2.814280304970386e+000	 1.067237624123954e+001
 2.580939751329999e+000	 2.580939751329999e+000	 1.084683163446974e+001
 2.554075584273098e+000	 2.607527163772341e+000	 1.081726751242414e+001
 2.526939005484393e+000	 2.633833567739539e+000	 1.078968999628026e+001
 2.499534444528111e+000	 2.659854800662312e+000	 1.076391377505176e+001
 2.471866415241984e+000	 2.685586793456022e+000	 1.076419413386498e+001
 2.443939513262254e+000	 2.711025572638294e+000	 1.075939152754776e+001
 2.415758413485365e+000	 2.736167262367800e+000	 1.074953936579832e+001
 2.387327867469234e+000	 2.761008086401982e+000	 1.073469262264514e+001
 2.358652700777156e+000	 2.785544369971671e+000	 1.071492717826121e+001
 2.329737810267437e+000	 2.809772541570662e+000	 1.069033909405113e+001
 2.300588161331918e+000	 2.833689134658449e+000	 1.066104382357672e+001
 2.598617420860000e+000	 2.598617420860000e+000	 1.082417122680309e+001
 2.571569252658698e+000	 2.625386938867181e+000	 1.080399710340385e+001
 2.544246806891880e+000	 2.651873523683562e+000	 1.078377616962920e+001
 2.516654543463250e+000	 2.678072984229111e+000	 1.076278698609404e+001
 2.488797007127235e+000	 2.703981223548745e+000	 1.075158245643030e+001
 2.460678824997041e+000	 2.729594240944460e+000	 1.075138969157257e+001
 2.432304703988950e+000	 2.754908134028068e+000	 1.074369193465137e+001
 2.403679428205795e+000	 2.779919100692336e+000	 1.072852582506012e+001
 2.374807856262675e+000	 2.804623440998443e+000	 1.070595196143698e+001
 2.345694918558021e+000	 2.829017558977813e+000	 1.067605417336076e+001
 2.316345614493208e+000	 2.853097964346514e+000	 1.063893872392910e+001
 2.616295090390000e+000	 2.616295090390000e+000	 1.079936476853157e+001
 2.589062921044304e+000	 2.643246713962023e+000	 1.078793056794190e+001
 2.561554608299387e+000	 2.669913479627586e+000	 1.077444697595610e+001
 2.533774642398432e+000	 2.696291167795910e+000	 1.075814181321761e+001
 2.505727599012566e+000	 2.722375653641469e+000	 1.073824575958014e+001
 2.477418136731954e+000	 2.748162909250627e+000	 1.073590490147408e+001
 2.448850994492716e+000	 2.773649005688336e+000	 1.072974294670830e+001
 2.420030988942601e+000	 2.798830114982690e+000	 1.071365961108550e+001
 2.390963011748515e+000	 2.823702512025216e+000	 1.068770068532520e+001
 2.361652026849012e+000	 2.848262576384966e+000	 1.065193823753725e+001
 2.332103067654998e+000	 2.872506794034578e+000	 1.060646980680971e+001
 2.633972759920000e+000	 2.633972759920000e+000	 1.077237448848352e+001
 2.606556589429916e+000	 2.661106489056865e+000	 1.076904673355050e+001
 2.578862409706913e+000	 2.687953435571610e+000	 1.076169723317730e+001
 2.550894741333660e+000	 2.714509351362708e+000	 1.074950313170182e+001
 2.522658190897978e+000	 2.740770083734193e+000	 1.073164653085246e+001
 2.494157448466993e+000	 2.766731577556793e+000	 1.071330172938486e+001
 2.465397284996662e+000	 2.792389877348606e+000	 1.070806703539157e+001
 2.436382549679655e+000	 2.817741129273045e+000	 1.069047786852599e+001
 2.407118167234677e+000	 2.842781583051988e+000	 1.066056568300418e+001
 2.377609135140408e+000	 2.867507593792117e+000	 1.061839125422224e+001
 2.347860520817291e+000	 2.891915623722642e+000	 1.056404386270915e+001
 2.651650429450000e+000	 2.651650429450000e+000	 1.074316388478025e+001
 2.624050257815533e+000	 2.678966264151706e+000	 1.074732529556276e+001
 2.596170211114461e+000	 2.705993391515634e+000	 1.074552224157860e+001
 2.568014840268935e+000	 2.732727534929508e+000	 1.073688124565434e+001
 2.539588782783472e+000	 2.759164513826918e+000	 1.072053586781678e+001
 2.510896760202157e+000	 2.785300245862960e+000	 1.069562822224996e+001
 2.481943575500790e+000	 2.811130749008874e+000	 1.067903793837755e+001
 2.452734110416955e+000	 2.836652143563399e+000	 1.065936328661107e+001
 2.423273322721160e+000	 2.861860654078760e+000	 1.062493780310081e+001
 2.393566243432212e+000	 2.886752611199269e+000	 1.057581143779955e+001
 2.363617973980084e+000	 2.911324453410707e+000	 1.051206567722958e+001
 2.206043442374710e+000	 2.717236156530064e+000	 1.055298332715109e+001
 2.177871437755532e+000	 2.739867880138052e+000	 1.055437934292388e+001
 2.149484031319626e+000	 2.762194489733196e+000	 1.054412930593689e+001
 2.120886165222104e+000	 2.784212972132168e+000	 1.052228654563794e+001
 2.092082836316265e+000	 2.805920420471948e+000	 1.048892436748148e+001
 2.063079093308326e+000	 2.827314035404899e+000	 1.044413518413110e+001
 2.033880033882548e+000	 2.848391126202985e+000	 1.038802959894457e+001
 2.004490801800128e+000	 2.869149111770381e+000	 1.032073544500355e+001
 1.974916583975221e+000	 2.889585521563813e+000	 1.024239678306829e+001
 1.945162607531509e+000	 2.909697996420158e+000	 1.015317286194252e+001
 1.915234136842688e+000	 2.929484289290938e+000	 1.005323704482316e+001
 2.221800895532991e+000	 2.736644986218128e+000	 1.060172509236931e+001
 2.193427662309230e+000	 2.759438364994201e+000	 1.059448768426156e+001
 2.164837488684345e+000	 2.781924450371677e+000	 1.057728812443532e+001
 2.136035352114552e+000	 2.804100207644489e+000	 1.055022669621121e+001
 2.107026285144963e+000	 2.825962709186313e+000	 1.051342236236437e+001
 2.077815372543980e+000	 2.847509135654169e+000	 1.046701183791399e+001
 2.048407748407898e+000	 2.868736777100538e+000	 1.041114861662932e+001
 2.018808593239061e+000	 2.889643033993193e+000	 1.034600195463256e+001
 1.989023131001014e+000	 2.910225418142124e+000	 1.027175581459498e+001
 1.959056626154036e+000	 2.930481553533042e+000	 1.018860777412339e+001
 1.928914380674490e+000	 2.950409177067122e+000	 1.009676790202081e+001
 2.237558348691774e+000	 2.756053815906193e+000	 1.063761611324354e+001
 2.208983886863519e+000	 2.779008849850348e+000	 1.062256485213113e+001
 2.180190946049723e+000	 2.801654411010157e+000	 1.059920175571638e+001
 2.151184539007711e+000	 2.823987443156810e+000	 1.056767399563144e+001
 2.121969733974401e+000	 2.846004997900678e+000	 1.052814615757870e+001
 2.092551651780386e+000	 2.867704235903441e+000	 1.048079925533389e+001
 2.062935462933988e+000	 2.889082427998092e+000	 1.042582969985335e+001
 2.033126384678703e+000	 2.910136956216005e+000	 1.036344822698604e+001
 2.003129678027465e+000	 2.930865314720434e+000	 1.029387878740389e+001
 1.972950644777149e+000	 2.951265110645926e+000	 1.021735740246127e+001
 1.942594624506790e+000	 2.971334064843307e+000	 1.013413098977847e+001
 2.253315801851058e+000	 2.775462645594258e+000	 1.066107676733664e+001
 2.224540111418400e+000	 2.798579334706496e+000	 1.063901005620274e+001
 2.195544403415763e+000	 2.821384371648636e+000	 1.061024861120249e+001
 2.166333725901581e+000	 2.843874678669132e+000	 1.057498643777246e+001
 2.136913182804580e+000	 2.866047286615044e+000	 1.053343372099376e+001
 2.107287931017540e+000	 2.887899336152712e+000	 1.048581578042421e+001
 2.077463177460816e+000	 2.909428078895646e+000	 1.043237198137672e+001
 2.047444176119055e+000	 2.930630878438818e+000	 1.037335460626596e+001
 2.017236225054575e+000	 2.951505211298745e+000	 1.030902768975560e+001
 1.986844663400851e+000	 2.972048667758809e+000	 1.023966582153275e+001
 1.956274868339587e+000	 2.992258952619491e+000	 1.016555292061632e+001
 2.269073255010843e+000	 2.794871475282322e+000	 1.067252496636737e+001
 2.240096335973872e+000	 2.818149819562644e+000	 1.064422055113905e+001
 2.210897860782464e+000	 2.841114332287116e+000	 1.061080564340025e+001
 2.181482912796160e+000	 2.863761914181454e+000	 1.057252103872858e+001
 2.151856631635498e+000	 2.886089575329409e+000	 1.052962250867975e+001
 2.122024210255444e+000	 2.908094436401985e+000	 1.048237969605382e+001
 2.091990891988382e+000	 2.929773729793199e+000	 1.043107496790393e+001
 2.061761967560114e+000	 2.951124800661631e+000	 1.037600223003308e+001
 2.031342772082342e+000	 2.972145107877056e+000	 1.031746570683101e+001
 2.000738682025140e+000	 2.992832224871693e+000	 1.025577869039560e+001
 1.969955112172882e+000	 3.013183840395675e+000	 1.019126226295921e+001
 2.284830708171130e+000	 2.814280304970386e+000	 1.067237624123954e+001
 2.255652560529935e+000	 2.837720304418793e+000	 1.063859170400929e+001
 2.226251318149826e+000	 2.860844292925596e+000	 1.060124839620798e+001
 2.196632099691450e+000	 2.883649149693774e+000	 1.056063387053114e+001
 2.166800080467156e+000	 2.906131864043775e+000	 1.051704948255605e+001
 2.136760489494098e+000	 2.928289536651255e+000	 1.047080922603610e+001
 2.106518606516688e+000	 2.950119380690753e+000	 1.042223852718925e+001
 2.076079759001881e+000	 2.971618722884443e+000	 1.037167300184980e+001
 2.045449319110767e+000	 2.992785004455368e+000	 1.031945717945816e+001
 2.014632700650016e+000	 3.013615781984577e+000	 1.026594319795149e+001
 1.983635356006674e+000	 3.034108728171860e+000	 1.021148947369177e+001
 2.300588161331918e+000	 2.833689134658449e+000	 1.066104382357672e+001
 2.271208785086590e+000	 2.857290789274941e+000	 1.062251705893282e+001
 2.241604775517849e+000	 2.880574253564076e+000	 1.058195105315558e+001
 2.211781286587451e+000	 2.903536385206097e+000	 1.053968009347944e+001
 2.181743529299555e+000	 2.926174152758140e+000	 1.049605112731413e+001
 2.151496768733500e+000	 2.948484636900527e+000	 1.045142253715145e+001
 2.121046321045732e+000	 2.970465031588305e+000	 1.040616287567195e+001
 2.090397550444356e+000	 2.992112645107255e+000	 1.036064956504719e+001
 2.059555866139849e+000	 3.013424901033678e+000	 1.031526756453532e+001
 2.028526719275481e+000	 3.034399339097460e+000	 1.027040801055409e+001
 1.997315599840964e+000	 3.055033615948044e+000	 1.022646683348498e+001
 2.316345614493208e+000	 2.853097964346514e+000	 1.063893872392910e+001
 2.286765009643835e+000	 2.876861274131089e+000	 1.059638839908429e+001
 2.256958232886533e+000	 2.900304214202556e+000	 1.055328648367576e+001
 2.226930473484163e+000	 2.923423620718418e+000	 1.051001398715203e+001
 2.196686978132694e+000	 2.946216441472505e+000	 1.046696346664988e+001
 2.166233047973652e+000	 2.968679737149798e+000	 1.042453774108714e+001
 2.135574035575516e+000	 2.990810682485858e+000	 1.038314856661640e+001
 2.104715341887540e+000	 3.012606567330067e+000	 1.034321527756282e+001
 2.073662413169589e+000	 3.034064797611989e+000	 1.030516339706937e+001
 2.042420737901532e+000	 3.055182896210345e+000	 1.026942322175554e+001
 2.010995843675750e+000	 3.075958503724228e+000	 1.023642838476277e+001
 2.332103067654998e+000	 2.872506794034578e+000	 1.060646980680971e+001
 2.302321234201673e+000	 2.896431758987238e+000	 1.056059580618498e+001
 2.272311690255878e+000	 2.920034174841036e+000	 1.051562628749906e+001
 2.242079660381585e+000	 2.943310856230740e+000	 1.047198898016075e+001
 2.211630426966572e+000	 2.966258730186870e+000	 1.043012207883770e+001
 2.180969327214554e+000	 2.988874837399069e+000	 1.039047289629862e+001
 2.150101750106038e+000	 3.011156333383411e+000	 1.035349647873269e+001
 2.119033133331432e+000	 3.033100489552880e+000	 1.031965418779864e+001
 2.087768960199988e+000	 3.054704694190300e+000	 1.028941225375329e+001
 2.056314756528171e+000	 3.075966453323229e+000	 1.026324030409035e+001
 2.024676087511034e+000	 3.096883391500412e+000	 1.024160987218320e+001
 2.347860520817291e+000	 2.891915623722642e+000	 1.056404386270915e+001
 2.317877458760101e+000	 2.916002243843385e+000	 1.051552771759853e+001
 2.287665147625883e+000	 2.939764135479516e+000	 1.046934083726137e+001
 2.257228847279718e+000	 2.963198091743061e+000	 1.042595767870675e+001
 2.226573875801191e+000	 2.986301018901236e+000	 1.038586211167762e+001
 2.195705606456205e+000	 3.009069937648340e+000	 1.034954600979575e+001
 2.164629464637300e+000	 3.031501984280965e+000	 1.031750780525574e+001
 2.133350924776032e+000	 3.053594411775692e+000	 1.029025101145096e+001
 2.101875507231044e+000	 3.075344590768612e+000	 1.026828271801015e+001
 2.070208775155397e+000	 3.096750010436112e+000	 1.025211206280079e+001
 2.038356331346816e+000	 3.117808279276597e+000	 1.024224868551666e+001
 2.363617973980084e+000	 2.911324453410707e+000	 1.051206567722958e+001
 2.333433683319122e+000	 2.935572728699535e+000	 1.046157098114295e+001
 2.303018604996550e+000	 2.959494096117997e+000	 1.041479931940707e+001
 2.272378034178562e+000	 2.983085327255383e+000	 1.037227189399408e+001
 2.241517324636550e+000	 3.006343307615601e+000	 1.033451829684435e+001
 2.210441885698607e+000	 3.029265037897612e+000	 1.030207503885774e+001
 2.179157179169300e+000	 3.051847635178518e+000	 1.027548404346111e+001
 2.147668716221342e+000	 3.074088333998506e+000	 1.025529110926750e+001
 2.115982054262759e+000	 3.095984487346924e+000	 1.024204434643553e+001
 2.084102793783212e+000	 3.117533567548997e+000	 1.023629259141335e+001
 2.052036575183095e+000	 3.138733167052782e+000	 1.015220192585330e+001
 1.915234136842688e+000	 2.929484289290938e+000	 1.005323704482316e+001
 1.885136470559467e+000	 2.948942265883543e+000	 9.987617708312857e+000
 1.854874938628939e+000	 2.968069905208957e+000	 9.926924505068413e+000
 1.824454899308038e+000	 2.986865300036170e+000	 9.878554686640568e+000
 1.793881736172811e+000	 3.005326657253558e+000	 9.842080537101511e+000
 1.763160855129283e+000	 3.023452298137441e+000	 9.813197998043734e+000
 1.732297681428427e+000	 3.041240658528325e+000	 9.787684222937132e+000
 1.701297656688460e+000	 3.058690288915435e+000	 9.761406747426639e+000
 1.670166235927714e+000	 3.075799854430276e+000	 9.730332358895481e+000
 1.638908884611238e+000	 3.092568134750086e+000	 9.690535646038301e+000
 1.607531075714235e+000	 3.108994023912138e+000	 9.638207210384122e+000
 1.928914380674490e+000	 2.950409177067122e+000	 1.009676790202081e+001
 1.898601731060612e+000	 2.970006139206823e+000	 1.004660172414303e+001
 1.868124045330562e+000	 2.989270404527509e+000	 1.000443461147803e+001
 1.837486720014539e+000	 3.008200052175089e+000	 9.967506017107816e+000
 1.806695177142703e+000	 3.026793276230001e+000	 9.942412389020232e+000
 1.775754861234695e+000	 3.045048385977679e+000	 9.924696136709347e+000
 1.744671236293278e+000	 3.062963806086061e+000	 9.909982882886029e+000
 1.713449782805372e+000	 3.080538076690723e+000	 9.893990894494753e+000
 1.682095994753727e+000	 3.097769853388399e+000	 9.872540205622569e+000
 1.650615376642425e+000	 3.114657907139728e+000	 9.841561412534562e+000
 1.619013440539351e+000	 3.131201124082256e+000	 9.751126063941587e+000
 1.942594624506790e+000	 2.971334064843307e+000	 1.013413098977847e+001
 1.912066991562159e+000	 2.991070012530103e+000	 1.009909905806915e+001
 1.881373152032502e+000	 3.010470903846060e+000	 1.007494852623950e+001
 1.850518540721282e+000	 3.029534804314007e+000	 1.005303073764128e+001
 1.819508618112772e+000	 3.048259895206442e+000	 1.004019052209472e+001
 1.788348867340229e+000	 3.066644473817915e+000	 1.003449800768161e+001
 1.757044791158208e+000	 3.084686953643796e+000	 1.003142456659461e+001
 1.725601908922329e+000	 3.102385864466013e+000	 1.002653652111584e+001
 1.694025753579759e+000	 3.119739852346521e+000	 1.001550452392483e+001
 1.662321868673618e+000	 3.136747679529371e+000	 9.900249881697478e+000
 1.630495805364467e+000	 3.153408224252373e+000	 9.745541944679658e+000
 1.956274868339587e+000	 2.992258952619491e+000	 1.016555292061632e+001
 1.925532252064109e+000	 3.012133885853384e+000	 1.014533617450244e+001
 1.894622258734761e+000	 3.031671403164613e+000	 1.013649753995875e+001
 1.863550361428269e+000	 3.050869556452928e+000	 1.013439758564044e+001
 1.832322059083021e+000	 3.069726514182885e+000	 1.013471097755252e+001
 1.800942873445888e+000	 3.088240561658154e+000	 1.014192702319902e+001
 1.769418346023218e+000	 3.106410101201532e+000	 1.015136009453886e+001
 1.737754035039331e+000	 3.124233652241302e+000	 1.015842186354476e+001
 1.705955512405812e+000	 3.141709851304644e+000	 1.001873082116618e+001
 1.674028360704815e+000	 3.158837451919015e+000	 9.876217635454051e+000
 1.641978170189583e+000	 3.175615324422491e+000	 9.738932354562406e+000
 1.969955112172882e+000	 3.013183840395675e+000	 1.019126226295921e+001
 1.938997512566461e+000	 3.033197759176664e+000	 1.018554138077376e+001
 1.907871365437337e+000	 3.052871902483164e+000	 1.019168520457597e+001
 1.876582182135497e+000	 3.072204308591847e+000	 1.021010587410781e+001
 1.845135500053447e+000	 3.091193133159327e+000	 1.022527128228179e+001
 1.813536879551670e+000	 3.109836649498390e+000	 1.024630795619609e+001
 1.781791900888305e+000	 3.128133248759268e+000	 1.024207618764600e+001
 1.749906161156377e+000	 3.146081440016592e+000	 1.010864034365920e+001
 1.717885271231884e+000	 3.163679850262765e+000	 9.978041444760953e+000
 1.685734852736017e+000	 3.180927224308658e+000	 9.851814151977708e+000
 1.653460535014698e+000	 3.197822424592608e+000	 9.731443487581840e+000
 1.983635356006674e+000	 3.034108728171860e+000	 1.021148947369177e+001
 1.952462773069216e+000	 3.054261632499945e+000	 1.021994476358475e+001
 1.921120472140230e+000	 3.074072401801716e+000	 1.024074122183152e+001
 1.889614002842969e+000	 3.093539060730766e+000	 1.027429643247903e+001
 1.857948941024052e+000	 3.112659752135769e+000	 1.031117039760182e+001
 1.826130885657575e+000	 3.131432737338627e+000	 1.029252174519354e+001
 1.794165455753472e+000	 3.149856396317004e+000	 1.017190277503260e+001
 1.762058287273467e+000	 3.167929227791880e+000	 1.005307176504516e+001
 1.729815030057976e+000	 3.185649849220887e+000	 9.937644542608121e+000
 1.697441344767224e+000	 3.203016996698300e+000	 9.827189034259076e+000
 1.664942899839814e+000	 3.220029524762726e+000	 9.723222208719228e+000
 1.997315599840964e+000	 3.055033615948044e+000	 1.022646683348498e+001
 1.965928033572373e+000	 3.075325505823225e+000	 1.024877812807045e+001
 1.934369578843441e+000	 3.095272901120267e+000	 1.028389690366063e+001
 1.902645823550684e+000	 3.114873812869684e+000	 1.033224671335521e+001
 1.870762381994835e+000	 3.134126371112212e+000	 1.031797485176038e+001
 1.838724891763604e+000	 3.153028825178865e+000	 1.021028364762089e+001
 1.806539010618718e+000	 3.171579543874740e+000	 1.010321580507882e+001
 1.774210413390602e+000	 3.189777015567169e+000	 9.998468625907147e+000
 1.741744788884087e+000	 3.207619848179009e+000	 9.897693503971722e+000
 1.709147836798436e+000	 3.225106769087943e+000	 9.802492662313977e+000
 1.676425264664929e+000	 3.242236624932843e+000	 9.714416030965964e+000
 2.010995843675750e+000	 3.075958503724228e+000	 1.023642838476277e+001
 1.979393294075933e+000	 3.096389379146505e+000	 1.027227493934911e+001
 1.947618685546970e+000	 3.116473400438819e+000	 1.032138511742495e+001
 1.915677644258642e+000	 3.136208565008604e+000	 1.029921406508413e+001
 1.883575822965795e+000	 3.155592990088653e+000	 1.022018133223576e+001
 1.851318897869757e+000	 3.174624913019101e+000	 1.013021781045568e+001
 1.818912565484043e+000	 3.193302691432475e+000	 1.003617619772949e+001
 1.786362539507781e+000	 3.211624803342458e+000	 9.944988453713680e+000
 1.753674547710218e+000	 3.229589847137131e+000	 9.858342591057687e+000
 1.720854328829653e+000	 3.247196541477585e+000	 9.777876166754089e+000
 1.687907629490045e+000	 3.264443725102961e+000	 9.705173093282445e+000
 2.024676087511034e+000	 3.096883391500412e+000	 1.024160987218320e+001
 1.992858554579895e+000	 3.117453252469786e+000	 1.029067026644191e+001
 1.960867792250816e+000	 3.137673899757371e+000	 1.026325027692076e+001
 1.928709464966843e+000	 3.157543317147523e+000	 1.018992305445019e+001
 1.896389263936935e+000	 3.177059609065096e+000	 1.012229022513439e+001
 1.863912903976033e+000	 3.196221000859338e+000	 1.005248985092843e+001
 1.831286120349447e+000	 3.215025838990211e+000	 9.970945945935169e+000
 1.798514665625005e+000	 3.233472591117748e+000	 9.892789735327785e+000
 1.765604306536369e+000	 3.251559846095253e+000	 9.819746909522490e+000
 1.732560820860875e+000	 3.269286313867229e+000	 9.753491403428876e+000
 1.699389994315161e+000	 3.286650825273078e+000	 9.695642139450452e+000
 2.038356331346816e+000	 3.117808279276597e+000	 1.024224868551666e+001
 2.006323815084259e+000	 3.138517125793066e+000	 1.021382966128335e+001
 1.974116898954979e+000	 3.158874399075922e+000	 1.014535791217176e+001
 1.941741285675286e+000	 3.178878069286442e+000	 1.008304826033808e+001
 1.909202704908252e+000	 3.198526228041538e+000	 1.002672188066311e+001
 1.876506910082433e+000	 3.217817088699575e+000	 9.976194045403211e+000
 1.843659675214930e+000	 3.236748986547947e+000	 9.907688079645212e+000
 1.810666791742272e+000	 3.255320378893037e+000	 9.842031884812650e+000
 1.777534065362540e+000	 3.273529845053375e+000	 9.782062380169540e+000
 1.744267312892101e+000	 3.291376086256872e+000	 9.729490929088851e+000
 1.710872359140276e+000	 3.308857925443196e+000	 9.685972497777113e+000
 2.052036575183095e+000	 3.138733167052782e+000	 1.015220192585330e+001
 2.019789075589026e+000	 3.159580999116348e+000	 1.008770498853930e+001
 1.987366005659461e+000	 3.180074898394475e+000	 1.002986354763682e+001
 1.954773106383973e+000	 3.200212821425363e+000	 9.978487143740541e+000
 1.922016145879748e+000	 3.219992847017981e+000	 9.933378585929942e+000
 1.889100916188957e+000	 3.239413176539813e+000	 9.894334555710580e+000
 1.856033230080492e+000	 3.258472134105683e+000	 9.846566631241164e+000
 1.822818917859585e+000	 3.277168166668327e+000	 9.792875212524917e+000
 1.789463824188730e+000	 3.295499844011498e+000	 9.745445711777533e+000
 1.755973804923333e+000	 3.313465858646516e+000	 9.706027978022098e+000
 1.722354723965393e+000	 3.331065025613313e+000	 9.676314061610784e+000
 1.607531075714235e+000	 3.108994023912138e+000	 9.638207210384122e+000
 1.576038286805698e+000	 3.125076530040452e+000	 9.653219022065773e+000
 1.544435997154201e+000	 3.140814774984898e+000	 9.561929140834550e+000
 1.512729684859719e+000	 3.156207993874709e+000	 9.482826774144250e+000
 1.480924824014684e+000	 3.171255534588795e+000	 9.417010115009090e+000
 1.449026881896090e+000	 3.185956857143146e+000	 9.365516395726589e+000
 1.417041316191712e+000	 3.200311532997376e+000	 9.329320091737779e+000
 1.384973572263021e+000	 3.214319244282112e+000	 9.309331280987566e+000
 1.352829080447324e+000	 3.227979782949084e+000	 9.306394160740920e+000
 1.320613253401519e+000	 3.241293049845800e+000	 9.321285723331874e+000
 1.288331483489811e+000	 3.254259053716808e+000	 9.354714591847355e+000
 1.619013440539351e+000	 3.131201124082256e+000	 9.751126063941587e+000
 1.587295703138929e+000	 3.147398505255050e+000	 9.665397299129232e+000
 1.555467682847306e+000	 3.163249166235358e+000	 9.588159124339306e+000
 1.523534896893743e+000	 3.178752336689058e+000	 9.520569763307206e+000
 1.491502858471334e+000	 3.193907359837046e+000	 9.463730197087397e+000
 1.459377073909050e+000	 3.208713691838291e+000	 9.418682158189895e+000
 1.427163039878152e+000	 3.223170901091399e+000	 9.386406277321173e+000
 1.394866240635550e+000	 3.237278667456502e+000	 9.367820385305270e+000
 1.362492145306674e+000	 3.251036781399277e+000	 9.363777972275322e+000
 1.330046205210258e+000	 3.264445143058997e+000	 9.375066805741643e+000
 1.297533851227396e+000	 3.277503761242674e+000	 9.402407708663056e+000
 1.630495805364467e+000	 3.153408224252373e+000	 9.745541944679658e+000
 1.598553119472159e+000	 3.169720480469653e+000	 9.674951201998166e+000
 1.566499368540411e+000	 3.185683557485841e+000	 9.610362785229698e+000
 1.534340108927768e+000	 3.201296679503453e+000	 9.552937062153788e+000
 1.502080892927984e+000	 3.216559185085382e+000	 9.503778875577631e+000
 1.469727265922010e+000	 3.231470526533562e+000	 9.463935479810406e+000
 1.437284763564592e+000	 3.246030269185602e+000	 9.434394629374111e+000
 1.404758909008079e+000	 3.260238090631141e+000	 9.416082822665851e+000
 1.372155210166024e+000	 3.274093779849795e+000	 9.409863702796317e+000
 1.339479157018998e+000	 3.287597236272605e+000	 9.416536617340661e+000
 1.306736218964982e+000	 3.300748468769045e+000	 9.436835338252793e+000
 1.641978170189583e+000	 3.175615324422491e+000	 9.738932354562406e+000
 1.609810535805390e+000	 3.192042455684259e+000	 9.682043939262069e+000
 1.577531054233516e+000	 3.208117948736343e+000	 9.628720224207335e+000
 1.545145320961793e+000	 3.223841022317894e+000	 9.580124847493257e+000
 1.512658927384634e+000	 3.239211010333797e+000	 9.537367589252460e+000
 1.480077457934971e+000	 3.254227361228961e+000	 9.501502249456591e+000
 1.447406487251032e+000	 3.268889637279991e+000	 9.473524677676267e+000
 1.414651577380608e+000	 3.283197513806030e+000	 9.454370957654414e+000
 1.381818275025374e+000	 3.297150778300636e+000	 9.444915749052989e+000
 1.348912108827738e+000	 3.310749329486621e+000	 9.445970788239430e+000
 1.315938586702568e+000	 3.323993176295921e+000	 9.458283549488593e+000
 1.653460535014698e+000	 3.197822424592608e+000	 9.731443487581840e+000
 1.621067952138621e+000	 3.214364430898872e+000	 9.686838717528090e+000
 1.588562739926621e+000	 3.230552339986867e+000	 9.643410867854232e+000
 1.555950532995817e+000	 3.246385365132382e+000	 9.602327974863774e+000
 1.523236961841284e+000	 3.261862835582296e+000	 9.564705833618373e+000
 1.490427649947932e+000	 3.276984195924488e+000	 9.531605816045875e+000
 1.457528210937472e+000	 3.291749005374561e+000	 9.504032840818308e+000
 1.424544245753136e+000	 3.306156936981168e+000	 9.482933497995980e+000
 1.391481339884724e+000	 3.320207776751802e+000	 9.469194330933204e+000
 1.358345060636478e+000	 3.333901422701050e+000	 9.463640277442632e+000
 1.325140954440153e+000	 3.347237883823303e+000	 9.467033271718575e+000
 1.664942899839814e+000	 3.220029524762726e+000	 9.723222208719228e+000
 1.632325368471851e+000	 3.236686406113489e+000	 9.689498741489393e+000
 1.599594425619725e+000	 3.252986731237410e+000	 9.654613491878278e+000
 1.566755745029842e+000	 3.268929707946914e+000	 9.619740024093444e+000
 1.533814996297935e+000	 3.284514660830876e+000	 9.586001227924930e+000
 1.500777841960892e+000	 3.299741030620142e+000	 9.554467076129175e+000
 1.467649934623912e+000	 3.314608373469317e+000	 9.526152533484279e+000
 1.434436914125665e+000	 3.329116360156554e+000	 9.502015620654076e+000
 1.401144404744074e+000	 3.343264775203294e+000	 9.482955635493370e+000
 1.367778012445217e+000	 3.357053515915887e+000	 9.469811533921792e+000
 1.334343322177739e+000	 3.370482591351189e+000	 9.463360471991859e+000
 1.676425264664929e+000	 3.242236624932843e+000	 9.714416030965964e+000
 1.643582784805082e+000	 3.259008381328112e+000	 9.690187213990724e+000
 1.610626111312830e+000	 3.275421122487975e+000	 9.662506243403424e+000
 1.577560957063866e+000	 3.291474050761495e+000	 9.632553342989050e+000
 1.544393030754585e+000	 3.307166486079536e+000	 9.601459579420085e+000
 1.511128033973852e+000	 3.322497865315922e+000	 9.570304557876092e+000
 1.477771658310352e+000	 3.337467741564254e+000	 9.540114269325141e+000
 1.444329582498193e+000	 3.352075783332190e+000	 9.511859092747232e+000
 1.410807469603424e+000	 3.366321773655109e+000	 9.486451955069022e+000
 1.377210964253957e+000	 3.380205609131133e+000	 9.464746651068476e+000
 1.343545689915324e+000	 3.393727298879581e+000	 9.447536325000332e+000
 1.687907629490045e+000	 3.264443725102961e+000	 9.705173093282445e+000
 1.654840201138312e+000	 3.281330356542740e+000	 9.689067336091226e+000
 1.621657797005935e+000	 3.297855513738559e+000	 9.667266662350157e+000
 1.588366169097891e+000	 3.314018393576120e+000	 9.640959089241553e+000
 1.554971065211234e+000	 3.329818311328278e+000	 9.611284944982922e+000
 1.521478225986813e+000	 3.345254700011833e+000	 9.579334501631971e+000
 1.487893381996792e+000	 3.360327109659375e+000	 9.546145759633260e+000
 1.454222250870722e+000	 3.375035206508074e+000	 9.512702387530057e+000
 1.420470534462774e+000	 3.389378772107250e+000	 9.479931819748344e+000
 1.386643916062697e+000	 3.403357702346791e+000	 9.448703514843215e+000
 1.352748057652909e+000	 3.416972006408478e+000	 9.419827376084035e+000
 1.699389994315161e+000	 3.286650825273078e+000	 9.695642139450452e+000
 1.666097617471543e+000	 3.303652331757373e+000	 9.686302307124834e+000
 1.632689482699040e+000	 3.320289904989165e+000	 9.669071701949054e+000
 1.599171381131915e+000	 3.336562736390792e+000	 9.645147270632648e+000
 1.565549099667884e+000	 3.352470136577104e+000	 9.615679690257711e+000
 1.531828417999774e+000	 3.368011534707868e+000	 9.581770937209388e+000
 1.498015105683233e+000	 3.383186477754680e+000	 9.544472008016806e+000
 1.464114919243251e+000	 3.397994629684207e+000	 9.504780795672494e+000
 1.430133599322125e+000	 3.412435770559716e+000	 9.463640124475131e+000
 1.396076867871437e+000	 3.426509795562858e+000	 9.421935945918502e+000
 1.361950425390495e+000	 3.440216713937880e+000	 9.380495697628119e+000
 1.710872359140276e+000	 3.308857925443196e+000	 9.685972497777113e+000
 1.677355033804773e+000	 3.325974306972011e+000	 9.682055324758142e+000
 1.643721168392145e+000	 3.342724296239791e+000	 9.668097748428437e+000
 1.609976593165940e+000	 3.359107079205510e+000	 9.645306783622395e+000
 1.576127134124535e+000	 3.375121961826010e+000	 9.614844546406792e+000
 1.542178610012734e+000	 3.390768369404033e+000	 9.577825758067037e+000
 1.508136829369672e+000	 3.406045845850167e+000	 9.535315401261613e+000
 1.474007587615779e+000	 3.420954052860590e+000	 9.488326532057918e+000
 1.439796664181474e+000	 3.435492769012503e+000	 9.437818251033500e+000
 1.405509819680177e+000	 3.449661888779335e+000	 9.384693836097808e+000
 1.371152793128081e+000	 3.463461421467788e+000	 9.329799039162042e+000
 1.722354723965393e+000	 3.331065025613313e+000	 9.676314061610784e+000
 1.688612450138004e+000	 3.348296282186655e+000	 9.676489585045919e+000
 1.654752854085250e+000	 3.365158687490438e+000	 9.664520639914352e+000
 1.620781805199965e+000	 3.381651422020275e+000	 9.641625450393228e+000
 1.586705168581185e+000	 3.397773787075000e+000	 9.608978664593291e+000
 1.552528802025695e+000	 3.413525204100325e+000	 9.567708792521545e+000
 1.518258553056114e+000	 3.428905213945840e+000	 9.518895796558500e+000
 1.483900255988309e+000	 3.443913476037222e+000	 9.463568838309364e+000
 1.449459729040825e+000	 3.458549767465619e+000	 9.402704185153199e+000
 1.414942771488917e+000	 3.472813981996224e+000	 9.337223279277882e+000
 1.380355160865667e+000	 3.486706128998200e+000	 9.267990971454736e+000
 1.288331483489811e+000	 3.254259053716808e+000	 9.354714591847355e+000
 1.255989140217728e+000	 3.266877910132902e+000	 9.209205029870635e+000
 1.223591567714392e+000	 3.279149840352444e+000	 9.095733304769752e+000
 1.191144082264780e+000	 3.291075170115786e+000	 9.024158736460553e+000
 1.158651969894471e+000	 3.302654328373525e+000	 8.982109639545472e+000
 1.126120484008404e+000	 3.313887845952988e+000	 8.963831185414383e+000
 1.093554843085373e+000	 3.324776354164622e+000	 8.963892702358729e+000
 1.060960228429861e+000	 3.335320583350722e+000	 8.977190025895277e+000
 1.028341781982668e+000	 3.345521361378934e+000	 8.998947090056191e+000
 9.957046041917382e-001	 3.355379612083005e+000	 9.024716774762029e+000
 9.630537519444204e-001	 3.364896353653301e+000	 9.050381026053062e+000
 1.297533851227396e+000	 3.277503761242674e+000	 9.402407708663056e+000
 1.264960491217280e+000	 3.290212752346754e+000	 9.240892041224418e+000
 1.232331507481436e+000	 3.302572339210159e+000	 9.101499169195835e+000
 1.199652254278306e+000	 3.314582849899959e+000	 9.018463768094870e+000
 1.166928055390793e+000	 3.326244716430685e+000	 8.967389884495939e+000
 1.134164201748157e+000	 3.337558473421284e+000	 8.942463547649391e+000
 1.101365949104042e+000	 3.348524756691562e+000	 8.938198689023576e+000
 1.068538515772246e+000	 3.359144301800546e+000	 8.949439535191150e+000
 1.035687080421720e+000	 3.369417942529221e+000	 8.971362229658336e+000
 1.002816779932178e+000	 3.379346609310144e+000	 8.999475698998102e+000
 9.699327073115912e-001	 3.388931327606469e+000	 9.029621780335708e+000
 1.306736218964982e+000	 3.300748468769045e+000	 9.436835338252793e+000
 1.273931842216838e+000	 3.313547594561200e+000	 9.261620334977941e+000
 1.241071447248501e+000	 3.325994838068540e+000	 9.096574010974527e+000
 1.208160426291877e+000	 3.338090529684847e+000	 9.005084724907531e+000
 1.175204140887197e+000	 3.349835104488588e+000	 8.947832051724278e+000
 1.142207919488038e+000	 3.361229100890329e+000	 8.918940637368998e+000
 1.109177055122894e+000	 3.372273159219242e+000	 8.912866986044067e+000
 1.076116803114882e+000	 3.382968020251078e+000	 8.924401895257727e+000
 1.043032378861098e+000	 3.393314523680163e+000	 8.948672107449546e+000
 1.009928955673028e+000	 3.403313606537868e+000	 8.981141193806799e+000
 9.768116626792683e-001	 3.412966301560131e+000	 9.017609687603114e+000
 1.315938586702568e+000	 3.323993176295921e+000	 9.458283549488593e+000
 1.282903193216400e+000	 3.336882436776241e+000	 9.271618468165700e+000
 1.249811387015587e+000	 3.349417336927583e+000	 9.081305422656770e+000
 1.216668598305496e+000	 3.361598209470447e+000	 8.984334136441010e+000
 1.183480226383683e+000	 3.373425492547229e+000	 8.923714037804835e+000
 1.150251637228048e+000	 3.384899728360124e+000	 8.893506146177636e+000
 1.116988161141931e+000	 3.396021561747658e+000	 8.888107506404900e+000
 1.083695090457767e+000	 3.406791738702315e+000	 8.902253665557474e+000
 1.050377677300801e+000	 3.417211104831760e+000	 8.931020353609537e+000
 1.017041131414290e+000	 3.427280603766174e+000	 8.969824383859928e+000
 9.836906180474517e-001	 3.437001275514286e+000	 9.014423790719434e+000
 1.325140954440153e+000	 3.347237883823303e+000	 9.467033271718575e+000
 1.291874544215968e+000	 3.360217278991877e+000	 9.271111281330935e+000
 1.258551326782692e+000	 3.372839835787290e+000	 9.076237869136344e+000
 1.225176770319160e+000	 3.385105889256760e+000	 8.956523538256695e+000
 1.191756311880251e+000	 3.397015880606614e+000	 8.895314044125971e+000
 1.158295354968185e+000	 3.408570355830670e+000	 8.866405327241569e+000
 1.124799267161153e+000	 3.419769964276813e+000	 8.864132939083529e+000
 1.091273377800902e+000	 3.430615457154258e+000	 8.883175353418045e+000
 1.057722975740830e+000	 3.441107685984012e+000	 8.918555675283910e+000
 1.024153307155962e+000	 3.451247600995065e+000	 8.965642556938498e+000
 9.905695734161415e-001	 3.461036249468935e+000	 9.020150338686833e+000
 1.334343322177739e+000	 3.370482591351189e+000	 9.463360471991859e+000
 1.300845895215541e+000	 3.383552121208107e+000	 9.260320026680544e+000
 1.267291266549819e+000	 3.396262334647662e+000	 9.063403347820684e+000
 1.233684942332871e+000	 3.408613569043786e+000	 8.921963506210064e+000
 1.200032397376902e+000	 3.420606268666740e+000	 8.862910566379116e+000
 1.166339072708451e+000	 3.432240983301965e+000	 8.837884941441894e+000
 1.132610373180557e+000	 3.443518366806705e+000	 8.841158653326259e+000
 1.098851665144288e+000	 3.454439175606909e+000	 8.867351277899035e+000
 1.065068274181185e+000	 3.465004267136919e+000	 8.911431681516318e+000
 1.031265482898046e+000	 3.475214598224541e+000	 8.968718951411972e+000
 9.974485287853375e-001	 3.485071223424078e+000	 9.034882538157792e+000
 1.343545689915324e+000	 3.393727298879581e+000	 9.447536325000332e+000
 1.309817246215119e+000	 3.406886963424932e+000	 9.239462490973258e+000
 1.276031206316967e+000	 3.419684833508697e+000	 9.042539234447844e+000
 1.242193114346628e+000	 3.432121248831524e+000	 8.880963689317328e+000
 1.208308482873634e+000	 3.444196656727606e+000	 8.826782384479984e+000
 1.174382790448845e+000	 3.455911610774008e+000	 8.808193205740581e+000
 1.140421479200146e+000	 3.467266769337335e+000	 8.819402606858198e+000
 1.106429952487922e+000	 3.478262894060265e+000	 8.854969439253129e+000
 1.072413572621865e+000	 3.488900848290479e+000	 8.909806715375243e+000
 1.038377658640541e+000	 3.499181595454599e+000	 8.979182552450727e+000
 1.004327484155040e+000	 3.509106197379714e+000	 9.058720315159507e+000
 1.352748057652909e+000	 3.416972006408478e+000	 9.419827376084035e+000
 1.318788597214702e+000	 3.430221805642352e+000	 9.208753113392060e+000
 1.284771146084135e+000	 3.443107332370397e+000	 9.013809332311208e+000
 1.250701286360432e+000	 3.455628928619975e+000	 8.835933794089637e+000
 1.216584568370449e+000	 3.467787044789213e+000	 8.787208552901053e+000
 1.182426508189367e+000	 3.479582238246800e+000	 8.777579743653780e+000
 1.148232585219919e+000	 3.491015171868703e+000	 8.799085257839783e+000
 1.114008239831808e+000	 3.502086612514327e+000	 8.846221393715521e+000
 1.079758871062871e+000	 3.512797429444697e+000	 8.913843692932808e+000
 1.045489834383447e+000	 3.523148592685243e+000	 8.997167896556835e+000
 1.011206439525248e+000	 3.533141171335845e+000	 9.091770086543658e+000
 1.361950425390495e+000	 3.440216713937880e+000	 9.380495697628119e+000
 1.327759948214291e+000	 3.453556647860368e+000	 9.168403098637937e+000
 1.293511085851323e+000	 3.466529831232760e+000	 8.977375412954610e+000
 1.259209458374282e+000	 3.479136608409139e+000	 8.808442511932025e+000
 1.224860653867346e+000	 3.491377432851563e+000	 8.744468391396016e+000
 1.190470225930017e+000	 3.503252865720344e+000	 8.746295537733243e+000
 1.156043691239876e+000	 3.514763574400809e+000	 8.780429480392636e+000
 1.121586527175943e+000	 3.525910330969096e+000	 8.841302133369419e+000
 1.087104169504203e+000	 3.536694010599568e+000	 8.923709948771309e+000
 1.052602010126764e+000	 3.547115589916470e+000	 9.022814884018965e+000
 1.018085394895963e+000	 3.557176145292468e+000	 9.134144540701822e+000
 1.371152793128081e+000	 3.463461421467788e+000	 9.329799039162042e+000
 1.336731299213884e+000	 3.476891490078979e+000	 9.118620525469590e+000
 1.302251025618533e+000	 3.489952330095787e+000	 8.933397284351782e+000
 1.267717630388178e+000	 3.502644288199015e+000	 8.775251354986644e+000
 1.233136739364325e+000	 3.514967820914653e+000	 8.698841476097705e+000
 1.198513943670795e+000	 3.526923493194636e+000	 8.714592883960929e+000
 1.163854797260017e+000	 3.538511976933652e+000	 8.763660483526994e+000
 1.129164814520327e+000	 3.549734049424570e+000	 8.840409970848972e+000
 1.094449467945860e+000	 3.560590591755095e+000	 8.939577087711104e+000
 1.059714185870493e+000	 3.571082587148281e+000	 9.056268598919488e+000
 1.024964350267184e+000	 3.581211119249587e+000	 9.185962427111084e+000
 1.380355160865667e+000	 3.486706128998200e+000	 9.267990971454736e+000
 1.345702650213483e+000	 3.500226332298184e+000	 9.059610450901444e+000
 1.310990965385763e+000	 3.513374828959480e+000	 8.882032856358732e+000
 1.276225802402121e+000	 3.526151967989605e+000	 8.736472469083546e+000
 1.241412824861386e+000	 3.538558208978484e+000	 8.650607630972109e+000
 1.206557661411701e+000	 3.550594120669679e+000	 8.682725347968177e+000
 1.171665903280343e+000	 3.562260379467235e+000	 8.749005733312135e+000
 1.136743101864962e+000	 3.573557767880753e+000	 8.843746428654388e+000
 1.101794766387843e+000	 3.584487172911278e+000	 8.961620842469408e+000
 1.066826361614632e+000	 3.595049584380677e+000	 9.097679136341593e+000
 1.031843305638912e+000	 3.605246093207198e+000	 9.247348354297897e+000
 9.630537519444204e-001	 3.364896353653301e+000	 9.050381026053062e+000
 9.303942365624410e-001	 3.374072696980329e+000	 8.882349407580813e+000
 8.977310218600831e-001	 3.382909843951724e+000	 8.729639861248332e+000
 8.650690222672622e-001	 3.391409085706569e+000	 8.589099661604926e+000
 8.324131010182233e-001	 3.399571800851111e+000	 8.457881222133945e+000
 7.997680684061285e-001	 3.407399453636346e+000	 8.333439207943123e+000
 7.671386801043791e-001	 3.414893592100732e+000	 8.213527065379045e+000
 7.345296355551679e-001	 3.422055846180586e+000	 8.096192993191087e+000
 7.019455764256671e-001	 3.428887925790747e+000	 7.979775380671480e+000
 6.693910851321567e-001	 3.435391618878011e+000	 7.862897738894809e+000
 6.368706834322875e-001	 3.441568789449906e+000	 7.744463151770491e+000
 9.699327073115912e-001	 3.388931327606469e+000	 9.029621780335708e+000
 9.370399096768675e-001	 3.398173216243544e+000	 8.870443703777800e+000
 9.041433862981303e-001	 3.407073485693827e+000	 8.724928668565655e+000
 8.712480867083653e-001	 3.415633436318824e+000	 8.589952916392035e+000
 8.383589088792042e-001	 3.423854456571968e+000	 8.462703930889834e+000
 8.054806974630456e-001	 3.431738021163193e+000	 8.340677405941865e+000
 7.726182421023856e-001	 3.439285689188370e+000	 8.221673620737285e+000
 7.397762758068605e-001	 3.446499102226226e+000	 8.103793246797892e+000
 7.069594733984072e-001	 3.453379982405272e+000	 7.985432613009700e+000
 6.741724500248497e-001	 3.459930130443356e+000	 7.865278455399960e+000
 6.414197597421077e-001	 3.466151423662343e+000	 7.742302178996932e+000
 9.768116626792683e-001	 3.412966301560131e+000	 9.017609687603114e+000
 9.436855827918899e-001	 3.422273735507152e+000	 8.869598875959083e+000
 9.105557507368421e-001	 3.431237127436225e+000	 8.733469966904419e+000
 8.774271511501816e-001	 3.439857786931272e+000	 8.606126893271053e+000
 8.443047167409266e-001	 3.448137112292918e+000	 8.484791109996520e+000
 8.111933265207117e-001	 3.456076588690030e+000	 8.366998416091203e+000
 7.780978041011291e-001	 3.463677786275902e+000	 8.250595172922175e+000
 7.450229160592582e-001	 3.470942358271658e+000	 8.133733944644927e+000
 7.119733703718011e-001	 3.477872039019489e+000	 8.014868587437992e+000
 6.789538149181261e-001	 3.484468642008292e+000	 7.892748814909374e+000
 6.459688360524208e-001	 3.490734057874272e+000	 7.766414267647462e+000
 9.836906180474517e-001	 3.437001275514286e+000	 9.014423790719434e+000
 9.503312559075080e-001	 3.446374254771155e+000	 8.879848769751238e+000
 9.169681151762193e-001	 3.455400769178916e+000	 8.755251761155288e+000
 8.836062155927114e-001	 3.464082137543914e+000	 8.637563128461473e+000
 8.502505246033907e-001	 3.472419768013962e+000	 8.524037215444842e+000
 8.169059555791279e-001	 3.480415156216863e+000	 8.412249019761923e+000
 7.835773661006105e-001	 3.488069883363327e+000	 8.300090252219007e+000
 7.502695563123619e-001	 3.495385614316883e+000	 8.185764808123032e+000
 7.169872673458493e-001	 3.502364095633400e+000	 8.067783678001051e+000
 6.837351798119852e-001	 3.509007153572822e+000	 7.944959325697341e+000
 6.505179123632263e-001	 3.515316692085695e+000	 7.816399562467105e+000
 9.905695734161415e-001	 3.461036249468935e+000	 9.020150338686833e+000
 9.569769290237222e-001	 3.470474774035552e+000	 8.901235812797703e+000
 9.233804796162610e-001	 3.479564410921900e+000	 8.790272000428853e+000
 8.897852800359546e-001	 3.488306488156749e+000	 8.684214450450751e+000
 8.561963324665962e-001	 3.496702423735099e+000	 8.580349328922168e+000
 8.226185846382935e-001	 3.504753723743688e+000	 8.476289942379868e+000
 7.890569281008294e-001	 3.512461980450646e+000	 8.369972635820254e+000
 7.555161965661713e-001	 3.519828870361902e+000	 8.259652092454550e+000
 7.220011643205513e-001	 3.526856152247003e+000	 8.143896063164828e+000
 6.885165447064278e-001	 3.533545665136944e+000	 8.021579554321971e+000
 6.550669886745246e-001	 3.539899326296611e+000	 7.891878503243294e+000
 9.974485287853375e-001	 3.485071223424078e+000	 9.034882538157792e+000
 9.636226021405323e-001	 3.494575293300343e+000	 8.933810718827196e+000
 9.297928440569677e-001	 3.503728052665179e+000	 8.838538235151383e+000
 8.959643444799109e-001	 3.512530838769778e+000	 8.746044590605841e+000
 8.621421403305434e-001	 3.520985079456330e+000	 8.653646722443696e+000
 8.283312136982085e-001	 3.529092291270506e+000	 8.558995372596367e+000
 7.945364901017857e-001	 3.536854077537856e+000	 8.460070822070167e+000
 7.607628368206859e-001	 3.544272126406711e+000	 8.355178016561274e+000
 7.270150612959075e-001	 3.551348208860298e+000	 8.242941111870810e+000
 6.932979096014529e-001	 3.558084176700660e+000	 8.122297468443206e+000
 6.596160649863155e-001	 3.564481960507018e+000	 7.992491124976799e+000
 1.004327484155040e+000	 3.509106197379714e+000	 9.058720315159507e+000
 9.702682752579384e-001	 3.518675812565526e+000	 8.977632203883564e+000
 9.362052084983391e-001	 3.527891694408750e+000	 8.900067288252698e+000
 9.021434089245810e-001	 3.536755189383001e+000	 8.823027809786900e+000
 8.680879481952318e-001	 3.545267735177653e+000	 8.743860440875331e+000
 8.340438427588731e-001	 3.553430858797317e+000	 8.660252501218960e+000
 8.000160521034795e-001	 3.561246174624960e+000	 8.570227526315634e+000
 7.660094770759065e-001	 3.568715382451315e+000	 8.472140216362293e+000
 7.320289582719179e-001	 3.575840265473287e+000	 8.364670794821123e+000
 6.980792744970613e-001	 3.582622688263967e+000	 8.246818806647863e+000
 6.641651412985992e-001	 3.589064594716919e+000	 8.117896386812911e+000
 1.011206439525248e+000	 3.533141171335845e+000	 9.091770086543658e+000
 9.769139483759403e-001	 3.542776331831105e+000	 9.032766714138296e+000
 9.426175729403755e-001	 3.552055336152616e+000	 8.974884939774896e+000
 9.083224733699642e-001	 3.560979539996417e+000	 8.915148540201244e+000
 8.740337560606618e-001	 3.569550390899069e+000	 8.850932901496634e+000
 8.397564718202875e-001	 3.577769426324121e+000	 8.779961078961110e+000
 8.054956141059108e-001	 3.585638271711956e+000	 8.700299197334838e+000
 7.712561173318328e-001	 3.593158638495712e+000	 8.610351220386463e+000
 7.370428552485824e-001	 3.600332322085968e+000	 8.508853119792963e+000
 7.028606393932527e-001	 3.607161199826867e+000	 8.394866473996508e+000
 6.687142176113755e-001	 3.613647228926312e+000	 8.267771528362905e+000
 1.018085394895963e+000	 3.557176145292468e+000	 9.134144540701822e+000
 9.835596214945382e-001	 3.566876851097076e+000	 9.099288164737459e+000
 9.490299373830770e-001	 3.576218977896776e+000	 9.063025624267160e+000
 9.145015378160609e-001	 3.585203890610027e+000	 9.022401041776712e+000
 8.799795639268335e-001	 3.593833046620580e+000	 8.974817509797632e+000
 8.454691008824512e-001	 3.602107993850920e+000	 8.918032992120970e+000
 8.109751761090794e-001	 3.610030368798847e+000	 8.850155553369826e+000
 7.765027575884643e-001	 3.617601894539902e+000	 8.769637946643616e+000
 7.420567522259008e-001	 3.624824378698343e+000	 8.675271589845357e+000
 7.076420042900276e-001	 3.631699711389361e+000	 8.566179962075017e+000
 6.732632939246444e-001	 3.638229863135198e+000	 8.441811452120913e+000
 1.024964350267184e+000	 3.581211119249587e+000	 9.185962427111084e+000
 9.902052946137315e-001	 3.590977370363441e+000	 9.177277689165052e+000
 9.554423018264432e-001	 3.600382619641227e+000	 9.164532140366042e+000
 9.206806022628710e-001	 3.609428241223829e+000	 9.144789072372497e+000
 8.859253717937469e-001	 3.618115702342183e+000	 9.115478290747001e+000
 8.511817299453643e-001	 3.626446561377711e+000	 9.074391855347274e+000
 8.164547381129858e-001	 3.634422465885629e+000	 9.019679136842621e+000
 7.817493978458019e-001	 3.642045150583884e+000	 8.949841219756200e+000
 7.470706492038737e-001	 3.649316435310409e+000	 8.863724683343380e+000
 7.124233691873848e-001	 3.656238222951445e+000	 8.760514792399713e+000
 6.778123702384060e-001	 3.662812497343578e+000	 8.639728130749601e+000
 1.031843305638912e+000	 3.605246093207198e+000	 9.247348354297897e+000
 9.968509677335214e-001	 3.615077889630200e+000	 9.266823398631651e+000
 9.618546662704745e-001	 3.624546261385974e+000	 9.279455371992640e+000
 9.268596667103948e-001	 3.633652591837827e+000	 9.282325571181248e+000
 8.918711796614018e-001	 3.642398358063881e+000	 9.272889534809359e+000
 8.568943590090273e-001	 3.650785128904496e+000	 9.248972620694005e+000
 8.219343001176299e-001	 3.658814562972306e+000	 9.208764886882383e+000
 7.869960381038450e-001	 3.666488406627660e+000	 9.150815307405312e+000
 7.520845461825005e-001	 3.673808491922170e+000	 9.074025354781091e+000
 7.172047340853255e-001	 3.680776734513124e+000	 8.977641982086409e+000
 6.823614465526605e-001	 3.687395131551449e+000	 8.861250038074736e+000
 6.368706834322875e-001	 3.441568789449906e+000	 7.744463151770491e+000
 6.043888310856980e-001	 3.447421375580705e+000	 8.230168803451441e+000
 5.719499245828054e-001	 3.452951387398861e+000	 8.325802432829422e+000
 5.395582959415579e-001	 3.458160905057221e+000	 8.380105453471630e+000
 5.072182115723980e-001	 3.463052076687238e+000	 8.398557519335492e+000
 4.749338712109144e-001	 3.467627116341299e+000	 8.386016068614692e+000
 4.427094069178871e-001	 3.471888301924911e+000	 8.346730538197731e+000
 4.105488821462863e-001	 3.475837973121045e+000	 8.284357385932310e+000
 3.784562908747207e-001	 3.479478529308901e+000	 8.201975858251249e+000
 3.464355568067561e-001	 3.482812427479280e+000	 8.102104440959170e+000
 3.144905326354376e-001	 3.485842180148714e+000	 7.986717931403167e+000
 6.414197597421077e-001	 3.466151423662343e+000	 7.742302178996932e+000
 6.087058941651441e-001	 3.472045813979897e+000	 8.329213162977091e+000
 5.760352811877797e-001	 3.477615325882537e+000	 8.401229415937943e+000
 5.434122837709488e-001	 3.482862054381337e+000	 8.437094357767549e+000
 5.108411987994552e-001	 3.487788162951553e+000	 8.442183407895147e+000
 4.783262560070001e-001	 3.492395881460230e+000	 8.421237505517230e+000
 4.458716169690847e-001	 3.496687504083629e+000	 8.378377798206314e+000
 4.134813741633441e-001	 3.500665387216742e+000	 8.317121150117240e+000
 3.811595500968069e-001	 3.504331947377193e+000	 8.240396405915995e+000
 3.489100964994940e-001	 3.507689659105719e+000	 8.150561346817810e+000
 3.167368935836879e-001	 3.510741052865397e+000	 8.049420275567904e+000
 6.459688360524208e-001	 3.490734057874272e+000	 7.766414267647462e+000
 6.130229572449885e-001	 3.496670252378494e+000	 8.448646975177011e+000
 5.801206377930676e-001	 3.502279264365547e+000	 8.493812187414445e+000
 5.472662716005791e-001	 3.507563203704741e+000	 8.508292970853953e+000
 5.144641860266878e-001	 3.512524249215126e+000	 8.497359729035217e+000
 4.817186408032074e-001	 3.517164646578412e+000	 8.465635789618716e+000
 4.490338270203598e-001	 3.521486706241609e+000	 8.417112576295400e+000
 4.164138661804455e-001	 3.525492801311734e+000	 8.355165612375751e+000
 3.838628093189125e-001	 3.529185365444834e+000	 8.282571290726887e+000
 3.513846361922368e-001	 3.532566890731576e+000	 8.201524345004451e+000
 3.189832545319382e-001	 3.535639925581587e+000	 8.113655957595483e+000
 6.505179123632263e-001	 3.515316692085695e+000	 7.816399562467105e+000
 6.173400203252304e-001	 3.521294690776494e+000	 8.587062654233698e+000
 5.842059943986689e-001	 3.526943202847890e+000	 8.602238503290597e+000
 5.511202594304484e-001	 3.532264353027429e+000	 8.592485655113730e+000
 5.180871732540955e-001	 3.537260335477958e+000	 8.562968669611184e+000
 4.851110255995359e-001	 3.541933411695844e+000	 8.518192102677352e+000
 4.521960370717122e-001	 3.546285908398853e+000	 8.462016170631436e+000
 4.193463581975900e-001	 3.550320215406021e+000	 8.397673258709933e+000
 3.865660685410371e-001	 3.554038783511820e+000	 8.327785206795960e+000
 3.538591758849843e-001	 3.557444122356851e+000	 8.254381305866572e+000
 3.212296154801886e-001	 3.560538798297287e+000	 8.178916939130474e+000
 6.550669886745246e-001	 3.539899326296611e+000	 7.891878503243294e+000
 6.216570834058705e-001	 3.545919129173898e+000	 8.743070765519194e+000
 5.882913510045833e-001	 3.551607141329567e+000	 8.725212159543341e+000
 5.549742472605570e-001	 3.556965502349404e+000	 8.688470734812080e+000
 5.217101604816784e-001	 3.561996421740048e+000	 8.637904334025221e+000
 4.885034103959856e-001	 3.566702176812526e+000	 8.577897533908406e+000
 4.553582471231421e-001	 3.571085110555359e+000	 8.512177811487097e+000
 4.222788502147781e-001	 3.575147629499604e+000	 8.443832567081378e+000
 3.892693277631811e-001	 3.578892201578153e+000	 8.375326935691030e+000
 3.563337155777367e-001	 3.582321353981544e+000	 8.308522318759897e+000
 3.234759764284389e-001	 3.585437671012494e+000	 8.244695568820475e+000
 6.596160649863155e-001	 3.564481960507018e+000	 7.992491124976799e+000
 6.259741464869081e-001	 3.570543567570702e+000	 8.889339733556717e+000
 5.923767076108115e-001	 3.576271079810580e+000	 8.861452438993375e+000
 5.588282350909050e-001	 3.581666651670666e+000	 8.795060014652343e+000
 5.253331477094367e-001	 3.586732508001397e+000	 8.721072333276181e+000
 4.918957951925567e-001	 3.591470941928460e+000	 8.643752738347768e+000
 4.585204571746493e-001	 3.595884312711128e+000	 8.566694387720409e+000
 4.252113422320096e-001	 3.599975043592481e+000	 8.492837800791790e+000
 3.919725869853442e-001	 3.603745619643832e+000	 8.424489205489129e+000
 3.588082552704939e-001	 3.607198585605653e+000	 8.363339615530963e+000
 3.257223373766892e-001	 3.610336543727210e+000	 8.310484568971038e+000
 6.641651412985992e-001	 3.589064594716919e+000	 8.117896386812911e+000
 6.302912095683438e-001	 3.595168005966912e+000	 8.964919091580725e+000
 5.964620642173529e-001	 3.600935018290926e+000	 9.009693580933723e+000
 5.626822229214921e-001	 3.606367800991212e+000	 8.911078318117168e+000
 5.289561349373702e-001	 3.611468594262003e+000	 8.811389390898077e+000
 4.952881799892492e-001	 3.616239707043643e+000	 8.714767609255588e+000
 4.616826672262341e-001	 3.620683514866161e+000	 8.624670184494232e+000
 4.281438342492845e-001	 3.624802457684652e+000	 8.543888810355000e+000
 3.946758462075265e-001	 3.628599037708859e+000	 8.474568555622019e+000
 3.612827949632559e-001	 3.632075817229181e+000	 8.418227497144056e+000
 3.279686983249396e-001	 3.635235416441434e+000	 8.375777022749356e+000
 6.687142176113755e-001	 3.613647228926312e+000	 8.267771528362905e+000
 6.346082726501774e-001	 3.619792444362524e+000	 9.060583632975865e+000
 6.005474208242082e-001	 3.625598956770607e+000	 9.168684272406253e+000
 5.665362107523185e-001	 3.631068950311045e+000	 9.035363044652790e+000
 5.325791221654787e-001	 3.636204680521868e+000	 8.907782964982797e+000
 4.986805647860629e-001	 3.641008472158078e+000	 8.789960963890593e+000
 4.648448772778961e-001	 3.645482717020455e+000	 8.685216631701580e+000
 4.310763262666027e-001	 3.649629871776120e+000	 8.596190843455615e+000
 3.973791054297283e-001	 3.653452455773232e+000	 8.524865207238294e+000
 3.637573346560226e-001	 3.656953048852127e+000	 8.472582263303069e+000
 3.302150592731899e-001	 3.660134289155166e+000	 8.440066361909880e+000
 6.732632939246444e-001	 3.638229863135198e+000	 8.441811452120913e+000
 6.389253357324087e-001	 3.644416882757539e+000	 9.176088483770590e+000
 6.046327774313762e-001	 3.650262895249622e+000	 9.337187160102014e+000
 5.703901985833841e-001	 3.655770099630165e+000	 9.166763744805625e+000
 5.362021093937626e-001	 3.660940766780990e+000	 9.009190885526085e+000
 5.020729495829980e-001	 3.665777237271762e+000	 8.868360242024068e+000
 4.680070873296354e-001	 3.670281919174012e+000	 8.747452062589417e+000
 4.340088182839644e-001	 3.674457285866882e+000	 8.648954362612273e+000
 4.000823646519490e-001	 3.678305873836951e+000	 8.574682938821134e+000
 3.662318743487941e-001	 3.681830280474491e+000	 8.525802144926646e+000
 3.324614202214402e-001	 3.685033161868407e+000	 8.502846355017825e+000
 6.778123702384060e-001	 3.662812497343578e+000	 8.639728130749601e+000
 6.432423988150381e-001	 3.669041321151957e+000	 9.311204036966306e+000
 6.087181340388583e-001	 3.674926833727972e+000	 9.513978381916694e+000
 5.742441864146889e-001	 3.680471248948570e+000	 9.304141712466953e+000
 5.398250966222218e-001	 3.685676853039371e+000	 9.114561006377015e+000
 5.054653343800544e-001	 3.690546002384696e+000	 8.949001216593430e+000
 4.711692973814524e-001	 3.695081121326833e+000	 8.810501482102449e+000
 4.369413103013694e-001	 3.699284699956939e+000	 8.701394870183171e+000
 4.027856238741890e-001	 3.703159291900017e+000	 8.623328966814416e+000
 3.687064140415705e-001	 3.706707512096273e+000	 8.577287239342121e+000
 3.347077811696906e-001	 3.709932034581156e+000	 8.563611096146774e+000
 6.823614465526605e-001	 3.687395131551449e+000	 8.861250038074736e+000
 6.475594618980655e-001	 3.693665759545780e+000	 9.465715443638505e+000
 6.128034906466536e-001	 3.699590772205656e+000	 9.697847117243853e+000
 5.780981742462332e-001	 3.705172398266263e+000	 9.446369593428406e+000
 5.434480838508562e-001	 3.710412939297010e+000	 9.222850871109690e+000
 5.088577191772321e-001	 3.715314767496883e+000	 9.030927715930243e+000
 4.743315074333467e-001	 3.719880323478916e+000	 8.873496344493352e+000
 4.398738023188180e-001	 3.724112114046291e+000	 8.752732740371506e+000
 4.054888830964485e-001	 3.728012709962431e+000	 8.670113831024299e+000
 3.711809537343516e-001	 3.731584743717474e+000	 8.626439448072050e+000
 3.369541421179410e-001	 3.734830907293413e+000	 8.621854994028476e+000
 3.144905326354376e-001	 3.485842180148714e+000	 7.986717931403167e+000
 2.826249993720412e-001	 3.488570353274702e+000	 7.901181129234443e+000
 2.508426657390410e-001	 3.490999564173347e+000	 7.827223475350387e+000
 2.191471676259094e-001	 3.493132479441893e+000	 7.765291661511284e+000
 1.875420676063168e-001	 3.494971812888549e+000	 7.715340752568173e+000
 1.560308545165391e-001	 3.496520323470751e+000	 7.676853967157777e+000
 1.246169430937960e-001	 3.497780813243908e+000	 7.648862738468098e+000
 9.330367367343619e-002	 3.498756125322376e+000	 7.629966999500939e+000
 6.209431194385016e-002	 3.499449141854330e+000	 7.618355638810936e+000
 3.099204875794980e-002	 3.499862782012172e+000	 7.611827074350795e+000
 0.000000000000000e+000	 3.500000000000000e+000	 7.607809894789719e+000
 3.167368935836879e-001	 3.510741052865397e+000	 8.049420275567904e+000
 2.846437493679849e-001	 3.513488712942027e+000	 7.985640151762372e+000
 2.526343990658300e-001	 3.515935275346863e+000	 7.930225641113175e+000
 2.207125045373336e-001	 3.518083425724269e+000	 7.883443556013258e+000
 1.888816538031205e-001	 3.519935897266799e+000	 7.845066877923332e+000
 1.571453606197248e-001	 3.521495468638728e+000	 7.814394926357259e+000
 1.255070641153455e-001	 3.522764961910145e+000	 7.790273805202918e+000
 9.397012848486894e-002	 3.523747240503367e+000	 7.771117069934399e+000
 6.253784274303029e-002	 3.524445207153342e+000	 7.754926560862391e+000
 3.121342053454722e-002	 3.524861801883700e+000	 7.739313349260269e+000
 0.000000000000000e+000	 3.525000000000000e+000	 7.721518744979518e+000
 3.189832545319382e-001	 3.535639925581587e+000	 8.113655957595483e+000
 2.866624993639287e-001	 3.538407072608955e+000	 8.069227748645798e+000
 2.544261323926189e-001	 3.540870986520065e+000	 8.030325688193754e+000
 2.222778414487579e-001	 3.543034372006406e+000	 7.997032866087660e+000
 1.902212399999242e-001	 3.544899981644873e+000	 7.968936046256984e+000
 1.582598667229104e-001	 3.546470613806582e+000	 7.945146236167986e+000
 1.263971851368951e-001	 3.547749110576305e+000	 7.924319530959492e+000
 9.463658329630166e-002	 3.548738355684315e+000	 7.904678174918883e+000
 6.298137354221041e-002	 3.549441272452334e+000	 7.884031784589066e+000
 3.143479231114464e-002	 3.549860821755225e+000	 7.859798679526322e+000
 0.000000000000000e+000	 3.549999999999999e+000	 7.829027268547968e+000
 3.212296154801886e-001	 3.560538798297287e+000	 8.178916939130474e+000
 2.886812493598724e-001	 3.563325432275487e+000	 8.151576594853271e+000
 2.562178657194078e-001	 3.565806697692955e+000	 8.127295616176941e+000
 2.238431783601821e-001	 3.567985318288303e+000	 8.105969480950616e+000
 1.915608261967279e-001	 3.569864066022773e+000	 8.086994555612900e+000
 1.593743728260961e-001	 3.571445758974317e+000	 8.069289077346793e+000
 1.272873061584447e-001	 3.572733259242388e+000	 8.051314408338458e+000
 9.530303810773438e-002	 3.573729470865220e+000	 8.031096503878857e+000
 6.342490434139052e-002	 3.574437337751307e+000	 8.006247537717551e+000
 3.165616408774206e-002	 3.574859841626743e+000	 7.973987629848415e+000
 0.000000000000000e+000	 3.574999999999999e+000	 7.931166623767807e+000
 3.234759764284389e-001	 3.585437671012494e+000	 8.244695568820475e+000
 2.906999993558162e-001	 3.588243791941620e+000	 8.232316963796356e+000
 2.580095990461968e-001	 3.590742408865532e+000	 8.220902332645872e+000
 2.254085152716064e-001	 3.592936264569963e+000	 8.210155605544765e+000
 1.929004123935316e-001	 3.594828150400499e+000	 8.199278525664935e+000
 1.604888789292818e-001	 3.596420904141930e+000	 8.186992056308634e+000
 1.281774271799942e-001	 3.597717407908395e+000	 8.171558057647802e+000
 9.596949291916714e-002	 3.598720586046082e+000	 8.150801173861304e+000
 6.386843514057067e-002	 3.599433403050261e+000	 8.122130873173253e+000
 3.187753586433948e-002	 3.599858861498256e+000	 8.082563585108156e+000
 0.000000000000000e+000	 3.600000000000000e+000	 8.028744881181940e+000
 3.257223373766892e-001	 3.610336543727210e+000	 8.310484568971038e+000
 2.927187493517600e-001	 3.613162151607358e+000	 8.311076810141904e+000
 2.598013323729857e-001	 3.615678120037797e+000	 8.310907828768379e+000
 2.269738521830306e-001	 3.617887210851384e+000	 8.309486025514268e+000
 1.942399985903353e-001	 3.619792234778049e+000	 8.305814248695384e+000
 1.616033850324674e-001	 3.621396049309423e+000	 8.298411638724700e+000
 1.290675482015437e-001	 3.622701556574323e+000	 8.285335739740493e+000
 9.663594773059987e-002	 3.623711701226900e+000	 8.264204818238440e+000
 6.431196593975078e-002	 3.624429468349195e+000	 8.232220330280502e+000
 3.209890764093690e-002	 3.624857881369766e+000	 8.186189480707787e+000
 0.000000000000000e+000	 3.625000000000000e+000	 8.122547819732144e+000
 3.279686983249396e-001	 3.635235416441434e+000	 8.375777022749356e+000
 2.947374993477037e-001	 3.638080511272698e+000	 8.387481849221121e+000
 2.615930656997746e-001	 3.640613831209749e+000	 8.397069347667301e+000
 2.285391890944548e-001	 3.642838157132567e+000	 8.403848361290303e+000
 1.955795847871390e-001	 3.644756319155425e+000	 8.406618526149428e+000
 1.627178911356531e-001	 3.646371194476795e+000	 8.403692565301279e+000
 1.299576692230933e-001	 3.647685705240175e+000	 8.392918847776585e+000
 9.730240254203262e-002	 3.648702816407676e+000	 8.371704151217115e+000
 6.475549673893091e-002	 3.649425533648111e+000	 8.337036568789994e+000
 3.232027941753433e-002	 3.649856901241271e+000	 8.285508502894780e+000
 0.000000000000000e+000	 3.650000000000000e+000	 8.213339690170074e+000
 3.302150592731899e-001	 3.660134289155166e+000	 8.440066361909880e+000
 2.967562493436475e-001	 3.662998870937642e+000	 8.461155633197446e+000
 2.633847990265636e-001	 3.665549542381390e+000	 8.479139545918709e+000
 2.301045260058791e-001	 3.667789103413511e+000	 8.493123311805881e+000
 1.969191709839427e-001	 3.669720403532627e+000	 8.501698991452736e+000
 1.638323972388388e-001	 3.671346339644046e+000	 8.502968250588056e+000
 1.308477902446428e-001	 3.672669853905949e+000	 8.494565378913531e+000
 9.796885735346539e-002	 3.673693931588408e+000	 8.473680509306986e+000
 6.519902753811104e-002	 3.674421598947007e+000	 8.437082977027499e+000
 3.254165119413175e-002	 3.674855921112770e+000	 8.381144760501909e+000
 0.000000000000000e+000	 3.675000000000000e+000	 8.301863947308535e+000
 3.324614202214402e-001	 3.685033161868407e+000	 8.502846355017825e+000
 2.987749993395912e-001	 3.687917230602189e+000	 8.531719624146623e+000
 2.651765323533525e-001	 3.690485253552716e+000	 8.556866648502657e+000
 2.316698629173033e-001	 3.692740049694216e+000	 8.577184888330121e+000
 1.982587571807463e-001	 3.694684487909653e+000	 8.591054419741882e+000
 1.649469033420244e-001	 3.696321484811176e+000	 8.596361165618582e+000
 1.317379112661924e-001	 3.697654002571646e+000	 8.590520386873813e+000
 9.863531216489810e-002	 3.698685046769097e+000	 8.570500370837419e+000
 6.564255833729117e-002	 3.699417664245885e+000	 8.532846255388023e+000
 3.276302297072916e-002	 3.699854940984265e+000	 8.473703929454372e+000
 0.000000000000000e+000	 3.699999999999999e+000	 8.388843952587044e+000
 3.347077811696906e-001	 3.709932034581156e+000	 8.563611096146774e+000
 3.007937493355350e-001	 3.712835590266338e+000	 8.598793264193771e+000
 2.669682656801414e-001	 3.715420964723729e+000	 8.629994597514665e+000
 2.332351998287276e-001	 3.717690995974684e+000	 8.655900638886665e+000
 1.995983433775501e-001	 3.719648572286506e+000	 8.674675025122340e+000
 1.660614094452101e-001	 3.721296629978185e+000	 8.683983205142299e+000
 1.326280322877419e-001	 3.722638151237267e+000	 8.681016416288387e+000
 9.930176697633084e-002	 3.723676161949741e+000	 8.662515854553977e+000
 6.608608913647129e-002	 3.724413729544744e+000	 8.624796976333368e+000
 3.298439474732658e-002	 3.724853960855755e+000	 8.563773871323884e+000
 0.000000000000000e+000	 3.724999999999999e+000	 8.474983648346109e+000
 3.369541421179410e-001	 3.734830907293413e+000	 8.621854994028476e+000
 3.028124993314788e-001	 3.737753949930092e+000	 8.661994042845118e+000
 2.687599990069305e-001	 3.740356675894433e+000	 8.698263194928281e+000
 2.348005367401518e-001	 3.742641942254912e+000	 8.729131863694986e+000
 2.009379295743538e-001	 3.744612656663184e+000	 8.752542746036150e+000
 1.671759155483958e-001	 3.746271775145075e+000	 8.765936040167466e+000
 1.335181533092915e-001	 3.747622299902811e+000	 8.766273919666380e+000
 9.996822178776361e-002	 3.748667277130346e+000	 8.750065198271420e+000
 6.652961993565144e-002	 3.749409794843583e+000	 8.713390121990033e+000
 3.320576652392401e-002	 3.749852980727242e+000	 8.651925227140398e+000
 0.000000000000000e+000	 3.750000000000000e+000	 8.560968205130518e+000
 3.750000000000000e+000	 0.000000000000000e+000	 1.092893231293777e+001
 3.749852980727241e+000	 3.320576652392414e-002	 1.076558517670267e+001
 3.749409794843583e+000	 6.652961993565168e-002	 1.066568535181203e+001
 3.748667277130346e+000	 9.996822178776336e-002	 1.061945755510879e+001
 3.747622299902811e+000	 1.335181533092914e-001	 1.061679281664324e+001
 3.746271775145075e+000	 1.671759155483958e-001	 1.064727642567256e+001
 3.744612656663185e+000	 2.009379295743539e-001	 1.070021772542148e+001
 3.742641942254912e+000	 2.348005367401521e-001	 1.076468174928899e+001
 3.740356675894433e+000	 2.687599990069302e-001	 1.082952268556322e+001
 3.737753949930092e+000	 3.028124993314787e-001	 1.088341915188379e+001
 3.734830907293414e+000	 3.369541421179410e-001	 1.091491125467604e+001
 3.775000000000000e+000	 0.000000000000000e+000	 1.089433024616809e+001
 3.774852000598727e+000	 3.342713830051917e-002	 1.073514882301353e+001
 3.774405860142423e+000	 6.697315073482224e-002	 1.064983799020519e+001
 3.773658392310948e+000	 1.006346765991745e-001	 1.062629489245627e+001
 3.772606448568355e+000	 1.344082743308024e-001	 1.065225578849092e+001
 3.771246920311963e+000	 1.682904216515211e-001	 1.071528976333222e+001
 3.769576741039862e+000	 2.022775157710703e-001	 1.080279199938343e+001
 3.767592888535142e+000	 2.363658736514571e-001	 1.090197661124747e+001
 3.765292387065134e+000	 2.705517323335629e-001	 1.099986905133024e+001
 3.762672309593844e+000	 3.048312493272240e-001	 1.108329809546363e+001
 3.759729780005671e+000	 3.392005030659454e-001	 1.113888742004819e+001
 3.800000000000000e+000	 0.000000000000000e+000	 1.085222086098238e+001
 3.799851020470218e+000	 3.364851007710944e-002	 1.069257376958381e+001
 3.799401925441280e+000	 6.741668153397368e-002	 1.060369091605115e+001
 3.798649507491594e+000	 1.013011314105425e-001	 1.057382593239009e+001
 3.797590597233974e+000	 1.352983953522363e-001	 1.059108286495418e+001
 3.796222065478973e+000	 1.694049277545255e-001	 1.064340951693109e+001
 3.794540825416714e+000	 2.036171019676120e-001	 1.071859031755158e+001
 3.792543834815608e+000	 2.379312105625235e-001	 1.080423872275995e+001
 3.790228098236149e+000	 2.723434656598830e-001	 1.088778915427792e+001
 3.787590669257994e+000	 3.068499993225723e-001	 1.095648848625448e+001
 3.784628652718419e+000	 3.414468640134583e-001	 1.099738709104309e+001
 3.824999999999999e+000	 0.000000000000000e+000	 1.080442042964676e+001
 3.824850040341712e+000	 3.386988185369495e-002	 1.064708013963702e+001
 3.824397990740157e+000	 6.786021233310595e-002	 1.055736205618452e+001
 3.823640622672282e+000	 1.019675862218672e-001	 1.052387998666979e+001
 3.822574745899673e+000	 1.361885163735932e-001	 1.053510958051279e+001
 3.821197210646104e+000	 1.705194338574090e-001	 1.057938129727636e+001
 3.819504909793741e+000	 2.049566881639791e-001	 1.064487286902051e+001
 3.817494781096314e+000	 2.394965474733515e-001	 1.071960126145143e+001
 3.815163809407477e+000	 2.741351989858904e-001	 1.079141414067409e+001
 3.812509028922540e+000	 3.088687493175237e-001	 1.084798085469951e+001
 3.809527525431660e+000	 3.436932249604792e-001	 1.087678294129162e+001
 3.850000000000000e+000	 0.000000000000000e+000	 1.075269804852388e+001
 3.849849060213212e+000	 3.409125363027569e-002	 1.060015662800942e+001
 3.849394056039055e+000	 6.830374313221913e-002	 1.051205826272198e+001
 3.848631737853014e+000	 1.026340410331487e-001	 1.047738074766288e+001
 3.847558894565447e+000	 1.370786373948730e-001	 1.048497527803752e+001
 3.846172355813355e+000	 1.716339399601717e-001	 1.052355903833027e+001
 3.844468994170942e+000	 2.062962743601716e-001	 1.058170725275904e+001
 3.842445727377257e+000	 2.410618843839409e-001	 1.064784470145604e+001
 3.840099520579115e+000	 2.759269323115853e-001	 1.071023670905865e+001
 3.837427388587484e+000	 3.108874993120782e-001	 1.075697961482157e+001
 3.834426398145392e+000	 3.459395859070087e-001	 1.077599073587909e+001
 3.875000000000000e+000	 0.000000000000000e+000	 1.069877715987747e+001
 3.874848080084717e+000	 3.431262540685167e-002	 1.055324990806516e+001
 3.874390121337971e+000	 6.874727393131318e-002	 1.046894801389859e+001
 3.873622853033790e+000	 1.033004958443871e-001	 1.043521719519683e+001
 3.872543043231299e+000	 1.379687584160757e-001	 1.044128826171125e+001
 3.871147500980726e+000	 1.727484460628136e-001	 1.047626932046376e+001
 3.869433078548318e+000	 2.076358605561895e-001	 1.052913740919077e+001
 3.867396673658440e+000	 2.426272212942919e-001	 1.058872956203662e+001
 3.865035231751068e+000	 2.777186656369676e-001	 1.064373331405500e+001
 3.862345748252824e+000	 3.129062493062356e-001	 1.068267665359067e+001
 3.859325270859617e+000	 3.481859468530463e-001	 1.069391743421112e+001
 3.900000000000000e+000	 0.000000000000000e+000	 1.064433701514345e+001
 3.899847099956226e+000	 3.453399718342289e-002	 1.050776597853820e+001
 3.899386186636904e+000	 6.919080473038806e-002	 1.042916264399943e+001
 3.898613968214608e+000	 1.039669506555822e-001	 1.039824470914035e+001
 3.897527191897228e+000	 1.388588794372014e-001	 1.040462679185933e+001
 3.896122646148219e+000	 1.738629521653345e-001	 1.043781224717478e+001
 3.894397162925869e+000	 2.089754467520327e-001	 1.048718437848116e+001
 3.892347619939861e+000	 2.441925582044043e-001	 1.054199704716418e+001
 3.889970942923333e+000	 2.795103989620373e-001	 1.059136468700913e+001
 3.887264107918563e+000	 3.149249992999961e-001	 1.062425173243159e+001
 3.884224143574332e+000	 3.504323077985923e-001	 1.062946147224691e+001
 3.924999999999999e+000	 0.000000000000000e+000	 1.059101408228205e+001
 3.924846119827740e+000	 3.475536895998933e-002	 1.046507145890244e+001
 3.924382251935859e+000	 6.963433552944384e-002	 1.039379752628798e+001
 3.923605083395470e+000	 1.046334054667341e-001	 1.036728613946561e+001
 3.922511340563233e+000	 1.397490004582499e-001	 1.037554004176032e+001
 3.921097791315832e+000	 1.749774582677347e-001	 1.040846228830091e+001
 3.919361247303594e+000	 2.103150329477013e-001	 1.045584702984489e+001
 3.917298566221521e+000	 2.457578951142783e-001	 1.050736966065460e+001
 3.914906654095910e+000	 2.813021322867944e-001	 1.055257633673037e+001
 3.912182467584696e+000	 3.169437492933596e-001	 1.058087287338826e+001
 3.909123016289540e+000	 3.526786687436464e-001	 1.058151303394644e+001
 3.949999999999999e+000	 0.000000000000000e+000	 1.054040339968468e+001
 3.949845139699260e+000	 3.497674073655101e-002	 1.042649483555084e+001
 3.949378317234833e+000	 7.007786632848050e-002	 1.036391321101374e+001
 3.948596198576375e+000	 1.052998602778429e-001	 1.034313283567570e+001
 3.947495489229316e+000	 1.406391214792214e-001	 1.035454901812198e+001
 3.946072936483568e+000	 1.760919643700140e-001	 1.038846909121047e+001
 3.944325331681494e+000	 2.116546191431953e-001	 1.043510276315835e+001
 3.942249512503419e+000	 2.473232320239136e-001	 1.048455179794587e+001
 3.939842365268800e+000	 2.830938656112390e-001	 1.052679903121740e+001
 3.937100827251228e+000	 3.189624992863262e-001	 1.055169673062270e+001
 3.934021889005238e+000	 3.549250296882090e-001	 1.054895431240995e+001
 3.974999999999999e+000	 0.000000000000000e+000	 1.049405987899102e+001
 3.974844159570782e+000	 3.519811251310792e-002	 1.039332766094953e+001
 3.974374382533824e+000	 7.052139712749800e-002	 1.034053652047494e+001
 3.973587313757323e+000	 1.059663150889084e-001	 1.032654563738515e+001
 3.972479637895477e+000	 1.415292425001158e-001	 1.034214744682265e+001
 3.971048081651422e+000	 1.772064704721724e-001	 1.037805826138429e+001
 3.969289416059570e+000	 2.129942053385146e-001	 1.042490818409603e+001
 3.967200458785555e+000	 2.488885689333105e-001	 1.047323031554361e+001
 3.964778076442002e+000	 2.848855989353709e-001	 1.051344926120604e+001
 3.962019186918155e+000	 3.209812492788958e-001	 1.053586894789589e+001
 3.958920761721430e+000	 3.571713906322798e-001	 1.053065976116263e+001
 4.000000000000000e+000	 0.000000000000000e+000	 1.045349955904971e+001
 3.999843179442312e+000	 3.541948428966008e-002	 1.036682570782168e+001
 3.999370447832837e+000	 7.096492792649639e-002	 1.032466160301729e+001
 3.998578428938315e+000	 1.066327698999308e-001	 1.031825582775403e+001
 3.997463786561714e+000	 1.424193635209332e-001	 1.033880262543728e+001
 3.996023226819399e+000	 1.783209765742101e-001	 1.037743211372387e+001
 3.994253500437819e+000	 2.143337915336594e-001	 1.042519975394953e+001
 3.992151405067931e+000	 2.504539058424689e-001	 1.047307507911290e+001
 3.989713787615519e+000	 2.866773322591902e-001	 1.051192968633334e+001
 3.986937546585482e+000	 3.229999992710685e-001	 1.053252450264288e+001
 3.983819634438112e+000	 3.594177515758590e-001	 1.052549633601678e+001
 3.734830907293414e+000	 3.369541421179410e-001	 1.091491125467604e+001
 3.731584743717474e+000	 3.711809537343518e-001	 1.089568563650831e+001
 3.728012709962431e+000	 4.054888830964487e-001	 1.082794439934495e+001
 3.724112114046291e+000	 4.398738023188177e-001	 1.070069303333787e+001
 3.719880323478916e+000	 4.743315074333465e-001	 1.050297863654111e+001
 3.715314767496883e+000	 5.088577191772322e-001	 1.022393499652424e+001
 3.710412939297010e+000	 5.434480838508564e-001	 9.852829148352246e+000
 3.705172398266262e+000	 5.780981742462336e-001	 9.379109337938401e+000
 3.699590772205656e+000	 6.128034906466535e-001	 8.792454312913611e+000
 3.693665759545779e+000	 6.475594618980652e-001	 9.810792003985490e+000
 3.687395131551449e+000	 6.823614465526605e-001	 1.170765335443222e+001
 3.759729780005671e+000	 3.392005030659454e-001	 1.113888742004819e+001
 3.756461975338673e+000	 3.736554934268418e-001	 1.115377025774943e+001
 3.752866128024844e+000	 4.081921423183813e-001	 1.111200105846564e+001
 3.748939528135643e+000	 4.428062943359137e-001	 1.098121918996004e+001
 3.744679525630999e+000	 4.774937174848721e-001	 1.072182101111693e+001
 3.740083532609068e+000	 5.122501039740349e-001	 1.038028420818879e+001
 3.735149025554648e+000	 5.470710710791199e-001	 9.945539069836887e+000
 3.729873547583952e+000	 5.819521620774205e-001	 9.406698368446305e+000
 3.724254710683340e+000	 6.168888472541159e-001	 8.753107722943428e+000
 3.718290197939601e+000	 6.518765249807942e-001	 9.885710754232825e+000
 3.711977765759320e+000	 6.869105228666610e-001	 1.155103077941576e+001
 3.784628652718419e+000	 3.414468640134583e-001	 1.099738709104309e+001
 3.781339206960455e+000	 3.761300331187450e-001	 1.101436220991641e+001
 3.777719546087910e+000	 4.108954015396414e-001	 1.097710206517613e+001
 3.773766942225699e+000	 4.457387863522611e-001	 1.087259181810153e+001
 3.769478727783819e+000	 4.806559275355832e-001	 1.068759131756713e+001
 3.764852297722004e+000	 5.156424887699671e-001	 1.040862387152652e+001
 3.759885111813030e+000	 5.506940583064662e-001	 1.002196467863173e+001
 3.754574696902358e+000	 5.858061499076545e-001	 9.513628949551215e+000
 3.748918649161690e+000	 6.209742038605992e-001	 8.860532075213394e+000
 3.742914636334020e+000	 6.561935880625283e-001	 1.006451559352147e+001
 3.736560399967698e+000	 6.914595991796617e-001	 1.149928877446833e+001
 3.809527525431660e+000	 3.436932249604792e-001	 1.087678294129162e+001
 3.806216438582819e+000	 3.786045728100612e-001	 1.089730114728718e+001
 3.802572964151630e+000	 4.135986607602288e-001	 1.086598432081610e+001
 3.798594356316461e+000	 4.486712783678600e-001	 1.077024216915561e+001
 3.794277929937377e+000	 4.838181375854795e-001	 1.059726350347583e+001
 3.789621062835688e+000	 5.190348735650283e-001	 1.033400430205674e+001
 3.784621198072152e+000	 5.543170455328953e-001	 9.967175404959450e+000
 3.779275846221477e+000	 5.896601377369352e-001	 9.483229870488804e+000
 3.773582587640705e+000	 6.250595604661032e-001	 8.871767472313920e+000
 3.767539074729034e+000	 6.605106511432674e-001	 1.019851159434154e+001
 3.761143034176585e+000	 6.960086754916621e-001	 1.148070200594000e+001
 3.834426398145392e+000	 3.459395859070087e-001	 1.077599073587909e+001
 3.831093670205765e+000	 3.810791125007904e-001	 1.080123627501068e+001
 3.827426382216002e+000	 4.163019199801439e-001	 1.077703084776194e+001
 3.823421770407928e+000	 4.516037703827104e-001	 1.069121380340661e+001
 3.819077132091671e+000	 4.869803476345613e-001	 1.053140809350975e+001
 3.814389827950121e+000	 5.224272583592186e-001	 1.028500761836819e+001
 3.809357284332017e+000	 5.579400327584075e-001	 9.939164175836464e+000
 3.803976995541309e+000	 5.935141255652625e-001	 9.480774043656734e+000
 3.798246526120385e+000	 6.291449170706281e-001	 9.109514761365491e+000
 3.792163513124647e+000	 6.648277142230117e-001	 1.027678070687196e+001
 3.785725668385978e+000	 7.005577518026629e-001	 1.140261151387349e+001
 3.859325270859617e+000	 3.481859468530463e-001	 1.069391743421112e+001
 3.855970901829293e+000	 3.835536521909328e-001	 1.072481114136972e+001
 3.852279800281028e+000	 4.190051791993862e-001	 1.070862215049620e+001
 3.848249184500101e+000	 4.545362623968124e-001	 1.063362469471625e+001
 3.843876334246703e+000	 4.901425576828284e-001	 1.048788119185852e+001
 3.839158593065305e+000	 5.258196431525382e-001	 1.025922886548858e+001
 3.834093370592623e+000	 5.615630199830025e-001	 9.935265938865856e+000
 3.828678144861857e+000	 5.973681133926371e-001	 9.503337433733227e+000
 3.822910464600732e+000	 6.332302736741742e-001	 9.326674671755971e+000
 3.816787951520856e+000	 6.691447773017615e-001	 1.034226946875579e+001
 3.810308302595879e+000	 7.051068281126635e-001	 1.131945348724459e+001
 3.884224143574332e+000	 3.504323077985923e-001	 1.062946147224691e+001
 3.880848133453403e+000	 3.860281918804883e-001	 1.066666381909065e+001
 3.877133218346707e+000	 4.217084384179560e-001	 1.065913629630908e+001
 3.873076598592977e+000	 4.574687544101659e-001	 1.059559340728741e+001
 3.868675536402474e+000	 4.933047677302810e-001	 1.046454250843720e+001
 3.863927358181238e+000	 5.292120279449866e-001	 1.025426969607443e+001
 3.858829456853972e+000	 5.651860072066807e-001	 9.952825236359024e+000
 3.853379294183119e+000	 6.012221012190580e-001	 9.548008571005754e+000
 3.847574403081743e+000	 6.373156302767409e-001	 9.523520015621292e+000
 3.841412389917662e+000	 6.734618403795164e-001	 1.039518271532322e+001
 3.834890936806286e+000	 7.096559044216639e-001	 1.123136486904022e+001
 3.909123016289540e+000	 3.526786687436464e-001	 1.058151303394644e+001
 3.905725365078095e+000	 3.885027315694568e-001	 1.062542707972430e+001
 3.901986636413041e+000	 4.244116976358535e-001	 1.062694899291633e+001
 3.897904012686559e+000	 4.604012464227708e-001	 1.057523907686359e+001
 3.893474738558979e+000	 4.964669777769188e-001	 1.045925524405417e+001
 3.888696123297920e+000	 5.326044127365643e-001	 1.026773815997717e+001
 3.883565543116061e+000	 5.688089944294416e-001	 9.989195899771806e+000
 3.878080443505094e+000	 6.050760890445258e-001	 9.611888151192130e+000
 3.872238341563422e+000	 6.414009868783283e-001	 9.700338629827897e+000
 3.866036828315065e+000	 6.777789034562765e-001	 1.043574314762056e+001
 3.859473571017202e+000	 7.142049807296647e-001	 1.113850328929513e+001
 3.934021889005238e+000	 3.549250296882090e-001	 1.054895431240995e+001
 3.930602596703371e+000	 3.909772712578384e-001	 1.059972856140471e+001
 3.926840054480028e+000	 4.271149568530782e-001	 1.061043366312919e+001
 3.922731426780846e+000	 4.633337384346273e-001	 1.057068139264206e+001
 3.918273940716221e+000	 4.996291878227420e-001	 1.046988597993994e+001
 3.913464888415352e+000	 5.359967975272711e-001	 1.029724850180021e+001
 3.908301629378892e+000	 5.724319816512853e-001	 1.004174075574417e+001
 3.902781592827783e+000	 6.089300768690403e-001	 9.692088650458910e+000
 3.896902280045765e+000	 6.454863434789369e-001	 9.857432900506502e+000
 3.890661266713064e+000	 6.820959665320419e-001	 1.046419076703963e+001
 3.884056205228624e+000	 7.187540570366653e-001	 1.104104641043853e+001
 3.958920761721430e+000	 3.571713906322798e-001	 1.053065976116263e+001
 3.955479828329226e+000	 3.934518109456330e-001	 1.058819093027739e+001
 3.951693472547667e+000	 4.298182160696303e-001	 1.060796151670674e+001
 3.947558840875840e+000	 4.662662304457353e-001	 1.058004057986984e+001
 3.943073142874203e+000	 5.027913978677507e-001	 1.049430457144456e+001
 3.938233653533534e+000	 5.393891823171072e-001	 1.034042096609556e+001
 3.933037715642466e+000	 5.760549688722120e-001	 1.010783134323292e+001
 3.927482742151185e+000	 6.127840646926016e-001	 9.785733954966768e+000
 3.921566218528775e+000	 6.495717000785660e-001	 9.995119305528101e+000
 3.915285705111661e+000	 6.864130296068124e-001	 1.048078233128164e+001
 3.908638839440555e+000	 7.233031333426659e-001	 1.093919129734450e+001
 3.983819634438112e+000	 3.594177515758590e-001	 1.052549633601678e+001
 3.980357059955668e+000	 3.959263506328409e-001	 1.058943203587368e+001
 3.976546890615960e+000	 4.325214752855101e-001	 1.061790161951391e+001
 3.972386254971537e+000	 4.691987224560948e-001	 1.060143738309210e+001
 3.967872345032922e+000	 5.059536079119448e-001	 1.053038404572134e+001
 3.963002418652467e+000	 5.427815671060725e-001	 1.039488160986531e+001
 3.957773801906783e+000	 5.796779560922217e-001	 1.018484764125168e+001
 3.952183891475304e+000	 6.166380525152101e-001	 9.889959004308439e+000
 3.946230157012450e+000	 6.536570566772162e-001	 1.011372797413700e+001
 3.939910143510855e+000	 6.907300926805884e-001	 1.048579083072249e+001
 3.933221473652993e+000	 7.278522096476667e-001	 1.083315381100555e+001
 3.687395131551449e+000	 6.823614465526605e-001	 1.170765335443222e+001
 3.680776734513125e+000	 7.172047340853256e-001	 1.149654187466641e+001
 3.673808491922170e+000	 7.520845461825008e-001	 1.129859769157809e+001
 3.666488406627660e+000	 7.869960381038449e-001	 1.111775443505415e+001
 3.658814562972306e+000	 8.219343001176298e-001	 1.095771436708603e+001
 3.650785128904496e+000	 8.568943590090273e-001	 1.082192798372806e+001
 3.642398358063882e+000	 8.918711796614021e-001	 1.071357363216728e+001
 3.633652591837826e+000	 9.268596667103950e-001	 1.063553719818545e+001
 3.624546261385975e+000	 9.618546662704742e-001	 1.059039192088858e+001
 3.615077889630201e+000	 9.968509677335213e-001	 1.058037839303343e+001
 3.605246093207198e+000	 1.031843305638912e+000	 1.060738480658526e+001
 3.711977765759320e+000	 6.869105228666610e-001	 1.155103077941576e+001
 3.705315246074803e+000	 7.219860989830625e-001	 1.133666644267299e+001
 3.698300548533930e+000	 7.570984431609740e-001	 1.114052309256662e+001
 3.690931662671435e+000	 7.922426783617844e-001	 1.096655482111787e+001
 3.683206660058982e+000	 8.274138621222201e-001	 1.081847422149506e+001
 3.675123696431280e+000	 8.626069880726867e-001	 1.069973153577871e+001
 3.666681013785578e+000	 8.978169875291034e-001	 1.061349382410718e+001
 3.657876942451824e+000	 9.330387311580154e-001	 1.056262421179952e+001
 3.648709903130721e+000	 9.682670307146521e-001	 1.054966127267121e+001
 3.639178408896959e+000	 1.003496640853508e+000	 1.057679860823570e+001
 3.629281067164810e+000	 1.038722261010886e+000	 1.064586468380642e+001
 3.736560399967698e+000	 6.914595991796617e-001	 1.149928877446833e+001
 3.729853757636888e+000	 7.267674638798090e-001	 1.127190531421816e+001
 3.722792605145995e+000	 7.621123401384855e-001	 1.106787518231614e+001
 3.715374918715418e+000	 7.974893186188110e-001	 1.089118025885508e+001
 3.707598757145765e+000	 8.328934241259659e-001	 1.074555074560254e+001
 3.699462263958071e+000	 8.683196171355897e-001	 1.063444384861139e+001
 3.690963669507182e+000	 9.037627953961568e-001	 1.056102248836761e+001
 3.682101293065626e+000	 9.392177956051155e-001	 1.052813409541018e+001
 3.672873544875174e+000	 9.746793951584587e-001	 1.053828955100027e+001
 3.663278928163325e+000	 1.010142313973292e+000	 1.059364233391798e+001
 3.653316041121927e+000	 1.045601216382847e+000	 1.069596793580557e+001
 3.761143034176585e+000	 6.960086754916621e-001	 1.148070200594000e+001
 3.754392269199381e+000	 7.315488287755653e-001	 1.128117771056987e+001
 3.747284661758370e+000	 7.671262371150364e-001	 1.107805025885435e+001
 3.739818174759607e+000	 8.027359588749251e-001	 1.088904458872215e+001
 3.731990854232656e+000	 8.383729861288674e-001	 1.073637716908072e+001
 3.723800831484869e+000	 8.740322461977362e-001	 1.062351941120655e+001
 3.715246325228692e+000	 9.097086032625616e-001	 1.055363726514095e+001
 3.706325643679236e+000	 9.453968600516960e-001	 1.052956955257291e+001
 3.697037186619333e+000	 9.810917596018941e-001	 1.055380645356055e+001
 3.687379447429296e+000	 1.016787987092874e+000	 1.062846820957594e+001
 3.677351015078551e+000	 1.052480171754797e+000	 1.075528410671966e+001
 3.785725668385978e+000	 7.005577518026629e-001	 1.140261151387349e+001
 3.778930780762281e+000	 7.363301936703310e-001	 1.123847601049515e+001
 3.771776718371052e+000	 7.721401340906254e-001	 1.107725569851771e+001
 3.764261430804003e+000	 8.079825991301263e-001	 1.092400199004471e+001
 3.756382951319652e+000	 8.438525481309243e-001	 1.078402727492473e+001
 3.748139399011674e+000	 8.797448752591266e-001	 1.066442329198922e+001
 3.739528980950109e+000	 9.156544111283187e-001	 1.058882389362205e+001
 3.730549994292652e+000	 9.515759244977564e-001	 1.056443889625462e+001
 3.721200828363199e+000	 9.875041240449581e-001	 1.059374478970197e+001
 3.711479966694873e+000	 1.023433660212254e+000	 1.067883548147921e+001
 3.701385989034681e+000	 1.059359127126733e+000	 1.082140083645064e+001
 3.810308302595879e+000	 7.051068281126635e-001	 1.131945348724459e+001
 3.803469292325589e+000	 7.411115585641065e-001	 1.118812429589353e+001
 3.796268774984041e+000	 7.771540310652531e-001	 1.105975110444827e+001
 3.788704686848607e+000	 8.132292393844147e-001	 1.093916260030735e+001
 3.780775048406756e+000	 8.493321101321366e-001	 1.083144915153303e+001
 3.772477966538485e+000	 8.854575043197607e-001	 1.074196999364506e+001
 3.763811636671433e+000	 9.216002189934274e-001	 1.067636013030461e+001
 3.754774344905874e+000	 9.577549889432973e-001	 1.064053691623286e+001
 3.745364470106770e+000	 9.939164884876511e-001	 1.065564038006327e+001
 3.735580485960059e+000	 1.030079333331432e+000	 1.074230398309805e+001
 3.725420962990317e+000	 1.066238082498657e+000	 1.089190392209265e+001
 3.834890936806286e+000	 7.096559044216639e-001	 1.123136486904022e+001
 3.828007803889303e+000	 7.458929234568915e-001	 1.113038779109368e+001
 3.820760831597337e+000	 7.821679280389193e-001	 1.103232215337523e+001
 3.813147942893418e+000	 8.184758796377905e-001	 1.094177290497806e+001
 3.805167145493967e+000	 8.548116721325045e-001	 1.086360747495156e+001
 3.796816534065303e+000	 8.911701333796380e-001	 1.080296334246395e+001
 3.788094292392663e+000	 9.275460268578878e-001	 1.076525532539080e+001
 3.778998695518902e+000	 9.639340533883180e-001	 1.075618255489343e+001
 3.769528111850048e+000	 1.000328852929973e+000	 1.078173510318240e+001
 3.759681005224847e+000	 1.036725006450407e+000	 1.084820023139205e+001
 3.749455936945461e+000	 1.073117037870568e+000	 1.096437737699622e+001
 3.859473571017202e+000	 7.142049807296647e-001	 1.113850328929513e+001
 3.852546315453426e+000	 7.506742883486862e-001	 1.106555021240099e+001
 3.845252888210939e+000	 7.871818250116243e-001	 1.099537837503031e+001
 3.837591198938435e+000	 8.237225198902530e-001	 1.093236791065528e+001
 3.829559242581285e+000	 8.602912341320280e-001	 1.088116232809951e+001
 3.821155101592128e+000	 8.968827624387593e-001	 1.084667646979347e+001
 3.812376948113800e+000	 9.334918347217001e-001	 1.083410419294378e+001
 3.803223046131738e+000	 9.701131178328188e-001	 1.084892574038770e+001
 3.793691753593033e+000	 1.006741217371923e+000	 1.089691476750592e+001
 3.783781524489245e+000	 1.043370679569180e+000	 1.098414499126769e+001
 3.773490910900110e+000	 1.079995993242467e+000	 1.111699642729200e+001
 3.884056205228624e+000	 7.187540570366653e-001	 1.104104641043853e+001
 3.877084827017956e+000	 7.554556532394905e-001	 1.099391318290815e+001
 3.869744944824850e+000	 7.921957219833682e-001	 1.094934506817070e+001
 3.862034454983661e+000	 8.289691601418032e-001	 1.091149624383594e+001
 3.853951339668710e+000	 8.657707961307067e-001	 1.088478525411043e+001
 3.845493669118960e+000	 9.025953914971242e-001	 1.087390336093199e+001
 3.836659603834844e+000	 9.394376425848642e-001	 1.088382262245931e+001
 3.827447396744379e+000	 9.762921822767998e-001	 1.091980366488428e+001
 3.817855395335724e+000	 1.013153581813502e+000	 1.098740311310467e+001
 3.807882043753248e+000	 1.050016352687751e+000	 1.109248064546737e+001
 3.797525884854265e+000	 1.086874948614353e+000	 1.124120563757419e+001
 3.908638839440555e+000	 7.233031333426659e-001	 1.093919129734450e+001
 3.901623338582893e+000	 7.602370181293046e-001	 1.091579566938884e+001
 3.894237001439066e+000	 7.972096189541506e-001	 1.089466280469731e+001
 3.886477711029093e+000	 8.342158003924406e-001	 1.087971972261638e+001
 3.878343436756242e+000	 8.712503581285412e-001	 1.087515889594819e+001
 3.869832236645799e+000	 9.083080205547327e-001	 1.088544699981253e+001
 3.860942259555794e+000	 9.453834504473802e-001	 1.091533339226020e+001
 3.851671747356828e+000	 9.824712467202609e-001	 1.096985829178932e+001
 3.842019037078121e+000	 1.019565946254710e+000	 1.105436061645434e+001
 3.831982563016857e+000	 1.056662025806120e+000	 1.117448544890133e+001
 3.821560858807927e+000	 1.093753903986227e+000	 1.133619109141753e+001
 3.933221473652993e+000	 7.278522096476667e-001	 1.083315381100555e+001
 3.926161850148238e+000	 7.650183830181283e-001	 1.083153344030777e+001
 3.918729058053593e+000	 8.022235159239719e-001	 1.083178695236949e+001
 3.910920967074733e+000	 8.394624406421654e-001	 1.083761294445525e+001
 3.902735533843881e+000	 8.767299201255313e-001	 1.085297664953726e+001
 3.894170804172645e+000	 9.140206496115850e-001	 1.088211908779526e+001
 3.885224915276652e+000	 9.513292583092481e-001	 1.092956595422030e+001
 3.875896097969084e+000	 9.886503111632025e-001	 1.100013620664527e+001
 3.866182678820226e+000	 1.025978310695547e+000	 1.109895031803208e+001
 3.856083082280073e+000	 1.063307698924287e+000	 1.123143815645919e+001
 3.845595832761096e+000	 1.100632859358089e+000	 1.140334645598076e+001
 3.605246093207198e+000	 1.031843305638912e+000	 1.060738480658526e+001
 3.595049584380677e+000	 1.066826361614633e+000	 1.061747896082047e+001
 3.584487172911277e+000	 1.101794766387843e+000	 1.065851537261491e+001
 3.573557767880753e+000	 1.136743101864962e+000	 1.072866548917117e+001
 3.562260379467235e+000	 1.171665903280343e+000	 1.082564482478451e+001
 3.550594120669679e+000	 1.206557661411701e+000	 1.094669752155548e+001
 3.538558208978485e+000	 1.241412824861386e+000	 1.108858160332683e+001
 3.526151967989605e+000	 1.276225802402121e+000	 1.112602320517536e+001
 3.513374828959480e+000	 1.310990965385763e+000	 1.112279524366389e+001
 3.500226332298183e+000	 1.345702650213483e+000	 1.111677774050199e+001
 3.486706128998200e+000	 1.380355160865667e+000	 1.110836676485620e+001
 3.629281067164810e+000	 1.038722261010886e+000	 1.064586468380642e+001
 3.619016581613070e+000	 1.073938537359064e+000	 1.064640759691080e+001
 3.608383754067449e+000	 1.109140064830154e+000	 1.068181112768940e+001
 3.597381486336913e+000	 1.144321389209950e+000	 1.075031031223948e+001
 3.586008782000778e+000	 1.179477009301036e+000	 1.084967300523756e+001
 3.574264748144659e+000	 1.214601379152982e+000	 1.097718399306004e+001
 3.562148597042228e+000	 1.249688910358818e+000	 1.112962981450991e+001
 3.549659647780074e+000	 1.284733974416420e+000	 1.114686973402430e+001
 3.536797327823013e+000	 1.319730905153324e+000	 1.115878367191586e+001
 3.523561174517189e+000	 1.354674001213380e+000	 1.116707560076037e+001
 3.509950836528365e+000	 1.389557528603505e+000	 1.117210627675621e+001
 3.653316041121927e+000	 1.045601216382847e+000	 1.069596793580557e+001
 3.642983578844875e+000	 1.081050713103668e+000	 1.068236393911817e+001
 3.632280335222947e+000	 1.116485363272793e+000	 1.070770708786585e+001
 3.621205204792322e+000	 1.151899676555394e+000	 1.077030070516727e+001
 3.609757184533504e+000	 1.187288115322284e+000	 1.086796949416865e+001
 3.597935375618768e+000	 1.222645096894885e+000	 1.099804319351285e+001
 3.585738985105053e+000	 1.257964995856909e+000	 1.112666899859776e+001
 3.573167327569588e+000	 1.293242146431385e+000	 1.115739066928477e+001
 3.560219826685567e+000	 1.328470844921530e+000	 1.118331622173380e+001
 3.546896016735199e+000	 1.363645352213865e+000	 1.120482338888602e+001
 3.533195544057530e+000	 1.398759896341848e+000	 1.122223840600920e+001
 3.677351015078551e+000	 1.052480171754797e+000	 1.075528410671966e+001
 3.666950576076089e+000	 1.088162888848445e+000	 1.072289075431894e+001
 3.656176916377769e+000	 1.123830661715762e+000	 1.073370084262149e+001
 3.645028923246980e+000	 1.159477963901295e+000	 1.078609072152561e+001
 3.633505587065415e+000	 1.195099221344086e+000	 1.087794649092843e+001
 3.621606003092005e+000	 1.230688814637408e+000	 1.100664718840598e+001
 3.609329373166961e+000	 1.266241081355659e+000	 1.111308453778823e+001
 3.596675007358150e+000	 1.301750318447017e+000	 1.115742437485582e+001
 3.583642325547142e+000	 1.337210784690379e+000	 1.119624050511146e+001
 3.570230858952213e+000	 1.372616703214940e+000	 1.122987792677788e+001
 3.556440251585695e+000	 1.407962264080697e+000	 1.125862914231068e+001
 3.701385989034681e+000	 1.059359127126733e+000	 1.082140083645064e+001
 3.690917573306717e+000	 1.095275064593396e+000	 1.076552845811141e+001
 3.680073497531918e+000	 1.131175960159060e+000	 1.075728718916647e+001
 3.668852641700889e+000	 1.167056251247652e+000	 1.079513118792130e+001
 3.657253989596510e+000	 1.202910327366441e+000	 1.087701253973428e+001
 3.645276630564371e+000	 1.238732532380554e+000	 1.100036396669260e+001
 3.632919761227950e+000	 1.274517166855068e+000	 1.108999370616495e+001
 3.620182687145758e+000	 1.310258490463315e+000	 1.114680431650884e+001
 3.607064824407738e+000	 1.345950724459871e+000	 1.119739883619361e+001
 3.593565701168235e+000	 1.381588054216606e+000	 1.124209034645081e+001
 3.579684959112860e+000	 1.417164631820050e+000	 1.128113840134853e+001
 3.725420962990317e+000	 1.066238082498657e+000	 1.089190392209265e+001
 3.714884570536753e+000	 1.102387240338519e+000	 1.080781519066346e+001
 3.703970078685392e+000	 1.138521258602688e+000	 1.077595822251700e+001
 3.692676360154048e+000	 1.174634538594465e+000	 1.079486980809242e+001
 3.681002392126787e+000	 1.210721433389350e+000	 1.086257264757782e+001
 3.668947258035864e+000	 1.246776250124320e+000	 1.097655757228818e+001
 3.656510149288022e+000	 1.282793252355136e+000	 1.105721674809386e+001
 3.643690366932412e+000	 1.318766662480280e+000	 1.112535921989176e+001
 3.630487323267354e+000	 1.354690664230006e+000	 1.118662840217439e+001
 3.616900543383260e+000	 1.390559405218861e+000	 1.124130627358029e+001
 3.602929666639025e+000	 1.426366999559909e+000	 1.128962022073883e+001
 3.749455936945461e+000	 1.073117037870568e+000	 1.096437737699622e+001
 3.738851567766202e+000	 1.109499416083815e+000	 1.084728688964300e+001
 3.727866659838193e+000	 1.145866557046645e+000	 1.078720342210407e+001
 3.716500078606456e+000	 1.182212825941734e+000	 1.078275126300033e+001
 3.704750794656250e+000	 1.218532539412813e+000	 1.083202839759756e+001
 3.692617885506486e+000	 1.254819967868708e+000	 1.092842574212604e+001
 3.680100537347176e+000	 1.291069337855863e+000	 1.101456970115993e+001
 3.667198046718112e+000	 1.327274834497911e+000	 1.109291322245598e+001
 3.653909822125992e+000	 1.363430604000785e+000	 1.116376142762267e+001
 3.640235385597291e+000	 1.399530756221705e+000	 1.122736600398760e+001
 3.626174374164190e+000	 1.435569367300273e+000	 1.128392294842550e+001
 3.773490910900110e+000	 1.079995993242467e+000	 1.111699642729200e+001
 3.762818564995062e+000	 1.116611591829284e+000	 1.093418150620878e+001
 3.751763240990317e+000	 1.153211855490931e+000	 1.079655352428351e+001
 3.740323797058115e+000	 1.189791113289460e+000	 1.075621730709644e+001
 3.728499197184896e+000	 1.226343645436830e+000	 1.078277805811874e+001
 3.716288512976234e+000	 1.262863685613718e+000	 1.086608410380835e+001
 3.703690925405412e+000	 1.299345423357249e+000	 1.096186453014101e+001
 3.690705726502859e+000	 1.335783006516208e+000	 1.104928601957734e+001
 3.677332320983649e+000	 1.372170543772207e+000	 1.112862533252740e+001
 3.663570227810326e+000	 1.408502107225139e+000	 1.120010467338048e+001
 3.649419081688355e+000	 1.444771735041142e+000	 1.126388942388015e+001
 3.797525884854265e+000	 1.086874948614353e+000	 1.124120563757419e+001
 3.786785562223331e+000	 1.123723767574926e+000	 1.104247208039196e+001
 3.775659822141769e+000	 1.160557153935546e+000	 1.088584165562709e+001
 3.764147515509023e+000	 1.197369400637642e+000	 1.077717020731050e+001
 3.752247599712727e+000	 1.234154751461400e+000	 1.072263988972875e+001
 3.739959140445111e+000	 1.270907403359349e+000	 1.079464239934341e+001
 3.727281313462729e+000	 1.307621508859294e+000	 1.089890925589417e+001
 3.714213406286651e+000	 1.344291178535172e+000	 1.099429300512815e+001
 3.700754819840327e+000	 1.380910483544272e+000	 1.108104288434135e+001
 3.686905070022366e+000	 1.417473458229163e+000	 1.115935242064782e+001
 3.672663789211519e+000	 1.453974102782516e+000	 1.122935715242074e+001
 3.821560858807927e+000	 1.093753903986227e+000	 1.133619109141753e+001
 3.810752559451014e+000	 1.130835943320741e+000	 1.112209894567794e+001
 3.799556403292546e+000	 1.167902452380491e+000	 1.094695001032540e+001
 3.787971233959183e+000	 1.204947687986281e+000	 1.081655365814234e+001
 3.775996002239742e+000	 1.241965857486524e+000	 1.073705348918274e+001
 3.763629767913117e+000	 1.278951121105601e+000	 1.077520046339503e+001
 3.750871701519130e+000	 1.315897594361998e+000	 1.082931206456760e+001
 3.737721086069491e+000	 1.352799350554802e+000	 1.092774540674455e+001
 3.724177318696026e+000	 1.389650423316981e+000	 1.102083234428720e+001
 3.710239912233413e+000	 1.426444809233777e+000	 1.110493454499231e+001
 3.695908496733685e+000	 1.463176470524395e+000	 1.118015847295233e+001
 3.845595832761096e+000	 1.100632859358089e+000	 1.140334645598076e+001
 3.834719556678107e+000	 1.137948119066728e+000	 1.117450332754950e+001
 3.823452984442649e+000	 1.175247750825766e+000	 1.098136612395529e+001
 3.811794952408592e+000	 1.212525975335376e+000	 1.082969624473193e+001
 3.799744404765942e+000	 1.249776963512203e+000	 1.072559734940192e+001
 3.787300395380251e+000	 1.286994838852475e+000	 1.079099026545803e+001
 3.774462089574614e+000	 1.324173679865361e+000	 1.084820985716492e+001
 3.761228765851377e+000	 1.361307522575099e+000	 1.089699604776853e+001
 3.747599817550746e+000	 1.398390363090333e+000	 1.094780760817730e+001
 3.733574754443465e+000	 1.435416160238980e+000	 1.103667165717070e+001
 3.719153204254849e+000	 1.472378838266780e+000	 1.111612071941744e+001
 3.486706128998200e+000	 1.380355160865667e+000	 1.110836676485620e+001
 3.472813981996224e+000	 1.414942771488917e+000	 1.114523420579721e+001
 3.458549767465619e+000	 1.449459729040826e+000	 1.116793615792339e+001
 3.443913476037222e+000	 1.483900255988308e+000	 1.117525011511512e+001
 3.428905213945839e+000	 1.518258553056113e+000	 1.116589193861142e+001
 3.413525204100325e+000	 1.552528802025695e+000	 1.113851560408102e+001
 3.397773787075000e+000	 1.586705168581185e+000	 1.109171309661196e+001
 3.381651422020273e+000	 1.620781805199965e+000	 1.102401445848937e+001
 3.365158687490438e+000	 1.654752854085250e+000	 1.093388799429515e+001
 3.348296282186655e+000	 1.688612450138004e+000	 1.081974063749964e+001
 3.331065025613314e+000	 1.722354723965393e+000	 1.067991848232873e+001
 3.509950836528365e+000	 1.389557528603505e+000	 1.117210627675621e+001
 3.495966075212821e+000	 1.424375723297864e+000	 1.119327927993463e+001
 3.481606765918415e+000	 1.459122793900348e+000	 1.120257709432823e+001
 3.466872899213523e+000	 1.493792924360984e+000	 1.119885249841536e+001
 3.451764582041180e+000	 1.528380276742684e+000	 1.118089398139393e+001
 3.436282038796304e+000	 1.562878994038781e+000	 1.114742536468635e+001
 3.420425612323706e+000	 1.597283203037965e+000	 1.109710557462235e+001
 3.404195764834802e+000	 1.631587017234134e+000	 1.102852857146981e+001
 3.387593078740911e+000	 1.665784539778523e+000	 1.094022343964277e+001
 3.370618257401203e+000	 1.699869866471439e+000	 1.083065464354783e+001
 3.353272125783427e+000	 1.733837088790756e+000	 1.069822245313627e+001
 3.533195544057530e+000	 1.398759896341848e+000	 1.122223840600920e+001
 3.519118168428428e+000	 1.433808675107226e+000	 1.122891933431252e+001
 3.504663764370251e+000	 1.468785858760214e+000	 1.122601529831605e+001
 3.489832322388910e+000	 1.503685592733951e+000	 1.121245382555015e+001
 3.474623950135680e+000	 1.538502000429517e+000	 1.118709547241858e+001
 3.459038873491527e+000	 1.573229186052117e+000	 1.114873332006543e+001
 3.443077437571767e+000	 1.607861237495004e+000	 1.109609262472993e+001
 3.426740107648815e+000	 1.642392229268590e+000	 1.102783062806153e+001
 3.410027469991016e+000	 1.676816225472134e+000	 1.094253653252094e+001
 3.392940232615552e+000	 1.711127282805278e+000	 1.083873164662092e+001
 3.375479225953534e+000	 1.745319453616616e+000	 1.071486970435959e+001
 3.556440251585695e+000	 1.407962264080697e+000	 1.125862914231068e+001
 3.542270261643044e+000	 1.443241626917004e+000	 1.125198591098549e+001
 3.527720762821125e+000	 1.478448923620425e+000	 1.123804856761306e+001
 3.512791745563388e+000	 1.513578261107214e+000	 1.121581887280482e+001
 3.497483318229335e+000	 1.548623724116612e+000	 1.118422890858837e+001
 3.481795708185998e+000	 1.583579378065704e+000	 1.114214044854135e+001
 3.465729262819184e+000	 1.618439271952301e+000	 1.108834448577471e+001
 3.449284450462312e+000	 1.653197441303335e+000	 1.102156092454056e+001
 3.432461861240755e+000	 1.687847911166081e+000	 1.094043844088959e+001
 3.415262207829704e+000	 1.722384699139524e+000	 1.084355451742451e+001
 3.397686326123631e+000	 1.756801818442972e+000	 1.072941565678970e+001
 3.579684959112860e+000	 1.417164631820050e+000	 1.128113840134853e+001
 3.565422354856672e+000	 1.452674578727196e+000	 1.126230523368059e+001
 3.550777761271038e+000	 1.488111988480979e+000	 1.123847012607542e+001
 3.535751168736951e+000	 1.523470929480768e+000	 1.120870857542512e+001
 3.520342686322147e+000	 1.558745447803968e+000	 1.117202366656882e+001
 3.504552542879714e+000	 1.593929570079541e+000	 1.112734531657615e+001
 3.488381088065955e+000	 1.629017306409859e+000	 1.107352968029303e+001
 3.471828793275291e+000	 1.664002653338367e+000	 1.100935872322935e+001
 3.454896252490127e+000	 1.698879596860366e+000	 1.093353996751431e+001
 3.437584183043659e+000	 1.733642115474177e+000	 1.084470641626015e+001
 3.419893426293720e+000	 1.768284183269824e+000	 1.074141666126271e+001
 3.602929666639025e+000	 1.426366999559909e+000	 1.128962022073883e+001
 3.588574448069307e+000	 1.462107530537802e+000	 1.125969837935619e+001
 3.573834759719991e+000	 1.497775053341878e+000	 1.122706877123350e+001
 3.558710591909605e+000	 1.533363597854615e+000	 1.119088015152178e+001
 3.543202054414117e+000	 1.568867171491587e+000	 1.115020610344080e+001
 3.527309377572676e+000	 1.604279762093628e+000	 1.110404415657270e+001
 3.511032913312080e+000	 1.639595340867676e+000	 1.105131506988222e+001
 3.494373136087754e+000	 1.674807865373687e+000	 1.099086228585015e+001
 3.477330643739132e+000	 1.709911282554987e+000	 1.092145156174689e+001
 3.459906158257415e+000	 1.744899531809236e+000	 1.084177078368353e+001
 3.442100526463804e+000	 1.779766548097172e+000	 1.075042996865829e+001
 3.626174374164190e+000	 1.435569367300273e+000	 1.128392294842550e+001
 3.611726541280953e+000	 1.471540482348824e+000	 1.124398144316259e+001
 3.596891758167983e+000	 1.507438118203121e+000	 1.120362901616124e+001
 3.581670015081345e+000	 1.543256266228756e+000	 1.116208722120938e+001
 3.566061422505243e+000	 1.578988895179467e+000	 1.111849965348213e+001
 3.550066212264883e+000	 1.614629954107966e+000	 1.107193094168430e+001
 3.533684738557561e+000	 1.650173375325751e+000	 1.102136590843589e+001
 3.516917478899702e+000	 1.685613077409295e+000	 1.096570890559556e+001
 3.499765034987770e+000	 1.720942968249945e+000	 1.090378333085259e+001
 3.482228133470974e+000	 1.756156948144701e+000	 1.083433133152211e+001
 3.464307626633878e+000	 1.791248912925016e+000	 1.075601370105215e+001
 3.649419081688355e+000	 1.444771735041142e+000	 1.126388942388015e+001
 3.634878634491609e+000	 1.480973434160260e+000	 1.121496569709829e+001
 3.619948756615013e+000	 1.517101183064708e+000	 1.116793122592390e+001
 3.604629438252175e+000	 1.553148934603190e+000	 1.112207992119227e+001
 3.588920790595527e+000	 1.589110618867609e+000	 1.107662492125043e+001
 3.572823046956338e+000	 1.624980146122555e+000	 1.103069745776538e+001
 3.556336563802396e+000	 1.660751409784085e+000	 1.098334589334458e+001
 3.539461821711133e+000	 1.696418289445192e+000	 1.093353493797336e+001
 3.522199426236039e+000	 1.731974653945240e+000	 1.088014505090471e+001
 3.504550108684335e+000	 1.767414364480573e+000	 1.082197203423568e+001
 3.486514726803943e+000	 1.802731277753356e+000	 1.075772682397095e+001
 3.672663789211519e+000	 1.453974102782516e+000	 1.122935715242074e+001
 3.658030727701275e+000	 1.490406385972112e+000	 1.117245774264137e+001
 3.643005755061083e+000	 1.526764247926639e+000	 1.111975174884404e+001
 3.627588861422094e+000	 1.563041602977917e+000	 1.107060501499911e+001
 3.611780158684968e+000	 1.599232342556013e+000	 1.102429977113129e+001
 3.595579881647038e+000	 1.635330338137394e+000	 1.098003337258971e+001
 3.578988389046586e+000	 1.671329444242679e+000	 1.093691721475226e+001
 3.562006164522048e+000	 1.707223501481376e+000	 1.089397583048011e+001
 3.544633817483943e+000	 1.743006339640873e+000	 1.085014617726527e+001
 3.526872083897499e+000	 1.778671780816851e+000	 1.080427712060544e+001
 3.508721826974002e+000	 1.814213642582192e+000	 1.075512911970080e+001
 3.695908496733685e+000	 1.463176470524395e+000	 1.118015847295233e+001
 3.681182820909950e+000	 1.499839337784378e+000	 1.111625965762129e+001
 3.666062753506191e+000	 1.536427312788914e+000	 1.105886304281429e+001
 3.650548284591099e+000	 1.572934271352937e+000	 1.100740599905750e+001
 3.634639526773566e+000	 1.609354066244679e+000	 1.096123941350712e+001
 3.618336716336984e+000	 1.645680530152484e+000	 1.091962630245682e+001
 3.601640214290131e+000	 1.681907478701532e+000	 1.088174060295400e+001
 3.584550507332447e+000	 1.718028713517848e+000	 1.084666615115502e+001
 3.567068208731479e+000	 1.754038025336841e+000	 1.081339585467033e+001
 3.549194059110464e+000	 1.789929197153535e+000	 1.078083106573623e+001
 3.530928927144053e+000	 1.825696007411524e+000	 1.074778116160302e+001
 3.719153204254849e+000	 1.472378838266780e+000	 1.111612071941744e+001
 3.704334914117635e+000	 1.509272289597060e+000	 1.104616913758278e+001
 3.689119751950341e+000	 1.546090377651535e+000	 1.098503379687324e+001
 3.673507707759193e+000	 1.582826939728250e+000	 1.093222320479091e+001
 3.657498894861322e+000	 1.619475789933607e+000	 1.088715648769486e+001
 3.641093551026176e+000	 1.656030722167824e+000	 1.084916187630050e+001
 3.624292039533033e+000	 1.692485513160644e+000	 1.081747537401623e+001
 3.607094850142330e+000	 1.728833925554609e+000	 1.079123961606288e+001
 3.589502599978649e+000	 1.765069711033148e+000	 1.076950292693699e+001
 3.571516034323234e+000	 1.801186613490626e+000	 1.075121858335915e+001
 3.553136027314097e+000	 1.837178372241353e+000	 1.073524428939300e+001
 3.331065025613314e+000	 1.722354723965393e+000	 1.067991848232873e+001
 3.313465858646516e+000	 1.755973804923333e+000	 1.074894337787550e+001
 3.295499844011498e+000	 1.789463824188730e+000	 1.080415688045662e+001
 3.277168166668326e+000	 1.822818917859585e+000	 1.084353798836326e+001
 3.258472134105683e+000	 1.856033230080492e+000	 1.086499223374691e+001
 3.239413176539813e+000	 1.889100916188957e+000	 1.089963669728707e+001
 3.219992847017981e+000	 1.922016145879749e+000	 1.097741140138014e+001
 3.200212821425362e+000	 1.954773106383973e+000	 1.106140212144871e+001
 3.180074898394475e+000	 1.987366005659461e+000	 1.115141767063536e+001
 3.159580999116347e+000	 2.019789075589026e+000	 1.124728047475059e+001
 3.138733167052782e+000	 2.052036575183095e+000	 1.134882714032333e+001
 3.353272125783427e+000	 1.733837088790756e+000	 1.069822245313627e+001
 3.335555631036250e+000	 1.767680296954858e+000	 1.077048721756450e+001
 3.317469842969797e+000	 1.801393583015249e+000	 1.082741385735536e+001
 3.299015954443869e+000	 1.834971043977251e+000	 1.086697002195530e+001
 3.280195281663736e+000	 1.868406784946424e+000	 1.088704984932144e+001
 3.261009264380423e+000	 1.901694922295855e+000	 1.093853976448996e+001
 3.241459465994842e+000	 1.934829586851615e+000	 1.100482330057849e+001
 3.221547573564735e+000	 1.967804927093015e+000	 1.107531115831807e+001
 3.201275397713506e+000	 2.000615112364274e+000	 1.114983252177268e+001
 3.180644872440122e+000	 2.033254336094089e+000	 1.122823300106529e+001
 3.159658054829465e+000	 2.065716819019625e+000	 1.131037520651396e+001
 3.375479225953534e+000	 1.745319453616616e+000	 1.071486970435959e+001
 3.357645403426167e+000	 1.779386788986964e+000	 1.079074298529204e+001
 3.339439841928447e+000	 1.813323341842405e+000	 1.084980167451154e+001
 3.320863742219913e+000	 1.847123170095580e+000	 1.089000189310759e+001
 3.301918429222424e+000	 1.880780339813014e+000	 1.091639062647503e+001
 3.282605352221780e+000	 1.914288928403380e+000	 1.096949740189179e+001
 3.262926084972539e+000	 1.947643027824043e+000	 1.102498231852314e+001
 3.242882325705017e+000	 1.980836747802526e+000	 1.108267605101427e+001
 3.222475897033497e+000	 2.013864219069431e+000	 1.114242786754734e+001
 3.201708745764888e+000	 2.046719596599342e+000	 1.120410627677464e+001
 3.180582942607150e+000	 2.079397062856160e+000	 1.126759960841628e+001
 3.397686326123631e+000	 1.756801818442972e+000	 1.072941565678970e+001
 3.379735175816265e+000	 1.791093281019651e+000	 1.080925531564959e+001
 3.361409840887453e+000	 1.825253100670198e+000	 1.087085394426038e+001
 3.342711529996462e+000	 1.859275296214572e+000	 1.091215595853241e+001
 3.323641576781748e+000	 1.893153894680265e+000	 1.094774262951134e+001
 3.304201440063882e+000	 1.926882934511530e+000	 1.099273188352522e+001
 3.284392703951075e+000	 1.960456468797033e+000	 1.103810226635256e+001
 3.264217077846207e+000	 1.993868568512505e+000	 1.108370144708807e+001
 3.243676396354447e+000	 2.027113325774932e+000	 1.112939849285158e+001
 3.222772619090644e+000	 2.060184857104785e+000	 1.117508452720172e+001
 3.201507830385834e+000	 2.093077306692701e+000	 1.122067331757341e+001
 3.419893426293720e+000	 1.768284183269824e+000	 1.074141666126271e+001
 3.401824948206546e+000	 1.802799773052920e+000	 1.082556998860890e+001
 3.383379839846811e+000	 1.837182859498628e+000	 1.089010565352751e+001
 3.364559317773515e+000	 1.871427422334228e+000	 1.093295619257308e+001
 3.345364724341706e+000	 1.905527449548174e+000	 1.097093507490444e+001
 3.325797527906732e+000	 1.939476940620305e+000	 1.100846762840349e+001
 3.305859322930448e+000	 1.973269909770586e+000	 1.104439938436025e+001
 3.285551829988306e+000	 2.006900389222952e+000	 1.107859472098142e+001
 3.264876895676356e+000	 2.040362432480778e+000	 1.111094222067707e+001
 3.243836492417388e+000	 2.073650117610419e+000	 1.114135534035022e+001
 3.222432718165519e+000	 2.106757550529247e+000	 1.116977300605547e+001
 3.442100526463804e+000	 1.779766548097172e+000	 1.075042996865829e+001
 3.423914720597010e+000	 1.814506265086770e+000	 1.083923389257410e+001
 3.405349838806521e+000	 1.849112618327695e+000	 1.090709311948728e+001
 3.386407105551071e+000	 1.883579548454547e+000	 1.095204937832282e+001
 3.367087871902299e+000	 1.917901004416744e+000	 1.098620168623018e+001
 3.347393615750326e+000	 1.952070946729707e+000	 1.101693113132754e+001
 3.327325941910659e+000	 1.986083350744701e+000	 1.104409226363486e+001
 3.306886582131312e+000	 2.019932209933868e+000	 1.106756588606332e+001
 3.286077394999225e+000	 2.053611539186969e+000	 1.108725981411169e+001
 3.264900365745122e+000	 2.087115378116242e+000	 1.110310955843098e+001
 3.243357605946203e+000	 2.120437794365798e+000	 1.111507892708774e+001
 3.464307626633878e+000	 1.791248912925016e+000	 1.075601370105215e+001
 3.446004492987656e+000	 1.826212757121202e+000	 1.084979498885513e+001
 3.427319837766585e+000	 1.861042377157399e+000	 1.092135394692663e+001
 3.408254893329133e+000	 1.895731674575529e+000	 1.096381501302909e+001
 3.388811019463529e+000	 1.930274559285973e+000	 1.099377794290658e+001
 3.368989703594667e+000	 1.964664952839736e+000	 1.101835089635432e+001
 3.348792560891706e+000	 1.998896791719378e+000	 1.103740177071427e+001
 3.328221334275228e+000	 2.032964030645252e+000	 1.105082751004876e+001
 3.307277894323051e+000	 2.066860645893502e+000	 1.105855488210566e+001
 3.285964239073846e+000	 2.100580638622255e+000	 1.106054117356037e+001
 3.264282493727888e+000	 2.134118038202354e+000	 1.105677480027001e+001
 3.486514726803943e+000	 1.802731277753356e+000	 1.075772682397095e+001
 3.468094265378485e+000	 1.837919249156214e+000	 1.085680227749869e+001
 3.449289836727001e+000	 1.872972135987741e+000	 1.093242698723827e+001
 3.430102681107698e+000	 1.907883800697174e+000	 1.096750097042182e+001
 3.410534167025391e+000	 1.942648114155861e+000	 1.099390102427535e+001
 3.390585791439755e+000	 1.977258958950389e+000	 1.101295737280775e+001
 3.370259179873592e+000	 2.011710232694617e+000	 1.102455097511894e+001
 3.349556086420052e+000	 2.045995851357105e+000	 1.102859463365015e+001
 3.328478393647839e+000	 2.080109752600381e+000	 1.102503378883906e+001
 3.307028112403561e+000	 2.114045899128458e+000	 1.101384722744490e+001
 3.285207381510571e+000	 2.147798282038917e+000	 1.099504770118260e+001
 3.508721826974002e+000	 1.814213642582192e+000	 1.075512911970080e+001
 3.490184037769495e+000	 1.849625741191809e+000	 1.085980576441685e+001
 3.471259835687771e+000	 1.884901894818718e+000	 1.093074942514694e+001
 3.451950468886766e+000	 1.920035926819483e+000	 1.096335193038223e+001
 3.432257314587890e+000	 1.955021669026409e+000	 1.098680975580678e+001
 3.412181879285589e+000	 1.989852965061668e+000	 1.100098289371965e+001
 3.391725798856314e+000	 2.024523673670419e+000	 1.100576507963738e+001
 3.370890838565784e+000	 2.059027672069426e+000	 1.100108469231788e+001
 3.349678892973585e+000	 2.093358859307605e+000	 1.098690556653088e+001
 3.328091985734264e+000	 2.127511159634852e+000	 1.096322771487513e+001
 3.306132269294255e+000	 2.161478525875483e+000	 1.093008795518432e+001
 3.530928927144053e+000	 1.825696007411524e+000	 1.074778116160302e+001
 3.512273810160687e+000	 1.861332233227984e+000	 1.085835642975604e+001
 3.493229834648894e+000	 1.896831653650335e+000	 1.091940008777240e+001
 3.473798256666338e+000	 1.932188052942454e+000	 1.095161394871186e+001
 3.453980462151023e+000	 1.967395223897617e+000	 1.097274455733469e+001
 3.433777967132169e+000	 2.002446971173574e+000	 1.098266161659364e+001
 3.413192417839874e+000	 2.037337114646784e+000	 1.098127135324219e+001
 3.392225590712425e+000	 2.072059492782216e+000	 1.096851744093414e+001
 3.370879392300290e+000	 2.106607966015173e+000	 1.094438183153854e+001
 3.349155859065959e+000	 2.140976420141436e+000	 1.090888549086147e+001
 3.327057157078940e+000	 2.175158769712056e+000	 1.086208903521822e+001
 3.553136027314097e+000	 1.837178372241353e+000	 1.073524428939300e+001
 3.534363582552064e+000	 1.873038725264742e+000	 1.085200619745229e+001
 3.515199833610370e+000	 1.908761412482587e+000	 1.090011140434978e+001
 3.495646044446416e+000	 1.944340179066090e+000	 1.093253441413511e+001
 3.475703609714793e+000	 1.979768778769484e+000	 1.095194739323265e+001
 3.455374054979496e+000	 2.015040977286106e+000	 1.095822946639038e+001
 3.434659036824272e+000	 2.050150555623710e+000	 1.095129906652181e+001
 3.413560342859975e+000	 2.085091313495475e+000	 1.093111488133065e+001
 3.392079891627955e+000	 2.119857072723085e+000	 1.089767670360349e+001
 3.370219732398642e+000	 2.154441680648209e+000	 1.085102618125224e+001
 3.347982044864625e+000	 2.188839013548634e+000	 1.079124746344959e+001
 3.138733167052782e+000	 2.052036575183095e+000	 1.134882714032333e+001
 3.117533567548996e+000	 2.084102793783212e+000	 1.129448308909675e+001
 3.095984487346924e+000	 2.115982054262759e+000	 1.115192997389843e+001
 3.074088333998507e+000	 2.147668716221342e+000	 1.103600218942151e+001
 3.051847635178519e+000	 2.179157179169301e+000	 1.094499500889857e+001
 3.029265037897612e+000	 2.210441885698607e+000	 1.087707041913586e+001
 3.006343307615602e+000	 2.241517324636550e+000	 1.083025949421400e+001
 2.983085327255383e+000	 2.272378034178562e+000	 1.080246512733748e+001
 2.959494096117997e+000	 2.303018604996550e+000	 1.079146511772467e+001
 2.935572728699535e+000	 2.333433683319122e+000	 1.079491560829660e+001
 2.911324453410707e+000	 2.363617973980084e+000	 1.081035486879101e+001
 3.159658054829465e+000	 2.065716819019625e+000	 1.131037520651396e+001
 3.138317124662376e+000	 2.097996812411230e+000	 1.130694070714697e+001
 3.116624383925715e+000	 2.130088601294634e+000	 1.124911668726312e+001
 3.094582256221773e+000	 2.161986507666774e+000	 1.111355970796943e+001
 3.072193286076493e+000	 2.193684893701391e+000	 1.100620991273948e+001
 3.049460138147258e+000	 2.225178164941071e+000	 1.092521136225467e+001
 3.026385596330288e+000	 2.256460773471950e+000	 1.086857174365301e+001
 3.002972562767960e+000	 2.287527221077428e+000	 1.083416512480172e+001
 2.979224056756658e+000	 2.318372062367228e+000	 1.081973507444161e+001
 2.955143213555779e+000	 2.348989907878144e+000	 1.082289814394836e+001
 2.930733283098773e+000	 2.379375427142877e+000	 1.084114770529460e+001
 3.180582942607150e+000	 2.079397062856160e+000	 1.126759960841628e+001
 3.159100681776744e+000	 2.111890831039068e+000	 1.125665675466255e+001
 3.137264280505466e+000	 2.144195148326173e+000	 1.125595388554951e+001
 3.115076178445952e+000	 2.176304299111745e+000	 1.119513256972722e+001
 3.092538936975307e+000	 2.208212608232925e+000	 1.107162343645925e+001
 3.069655238397657e+000	 2.239914444182912e+000	 1.097775751773280e+001
 3.046427885045616e+000	 2.271404222306690e+000	 1.091151831624686e+001
 3.022859798281050e+000	 2.302676407975629e+000	 1.087075021867821e+001
 2.998954017395681e+000	 2.333725519737263e+000	 1.085316165006055e+001
 2.974713698412216e+000	 2.364546132436579e+000	 1.085632860072740e+001
 2.950142112786840e+000	 2.395132880305170e+000	 1.087769852035824e+001
 3.201507830385834e+000	 2.093077306692701e+000	 1.122067331757341e+001
 3.179884238892103e+000	 2.125784849666726e+000	 1.120267955727827e+001
 3.157904177086178e+000	 2.158301695357377e+000	 1.119655284466699e+001
 3.135570100671041e+000	 2.190622090556254e+000	 1.120283853283787e+001
 3.112884587874963e+000	 2.222740322763901e+000	 1.114019820844236e+001
 3.089850338648807e+000	 2.254650723424129e+000	 1.103366705494116e+001
 3.066470173761587e+000	 2.286347671140771e+000	 1.095805391951155e+001
 3.042747033794652e+000	 2.317825594873165e+000	 1.091117265047039e+001
 3.018683978035067e+000	 2.349078977106659e+000	 1.089069561368779e+001
 2.994284183268845e+000	 2.380102356994429e+000	 1.089415726582231e+001
 2.969550942474911e+000	 2.410890333466961e+000	 1.091895810569031e+001
 3.222432718165519e+000	 2.106757550529247e+000	 1.116977300605547e+001
 3.200667796008453e+000	 2.139678868294204e+000	 1.114518006167466e+001
 3.178544073667850e+000	 2.172408242388246e+000	 1.113404927471658e+001
 3.156064022897041e+000	 2.204939882000303e+000	 1.113695417843514e+001
 3.133230238775460e+000	 2.237268037294321e+000	 1.115448460432796e+001
 3.110045438900709e+000	 2.269387002664723e+000	 1.109190270503876e+001
 3.086512462478198e+000	 2.301291119974192e+000	 1.100713796107531e+001
 3.062634269308765e+000	 2.332974781770036e+000	 1.095438948857622e+001
 3.038413938674816e+000	 2.364432434475414e+000	 1.093129267647884e+001
 3.013854668125669e+000	 2.395658581551693e+000	 1.093533947191941e+001
 2.988959772162985e+000	 2.426647786628250e+000	 1.096388239016812e+001
 3.243357605946203e+000	 2.120437794365798e+000	 1.111507892708774e+001
 3.221451353125792e+000	 2.153572886921502e+000	 1.108433298391783e+001
 3.199183970250482e+000	 2.186514789418779e+000	 1.106861257098757e+001
 3.176557945123952e+000	 2.219257673443890e+000	 1.106851916387990e+001
 3.153575889676799e+000	 2.251795751824183e+000	 1.108467001661834e+001
 3.130240539153362e+000	 2.284123281904694e+000	 1.111769766870125e+001
 3.106554751195452e+000	 2.316234568806955e+000	 1.105773439706205e+001
 3.082521504823393e+000	 2.348123968666242e+000	 1.099936247258189e+001
 3.058143899314926e+000	 2.379785891843527e+000	 1.097391333221743e+001
 3.033425152982683e+000	 2.411214806108370e+000	 1.097883543444477e+001
 3.008368601851061e+000	 2.442405239789038e+000	 1.101143227412275e+001
 3.264282493727888e+000	 2.134118038202354e+000	 1.105677480027001e+001
 3.242234910244121e+000	 2.167466905548621e+000	 1.102031668864577e+001
 3.219823866834076e+000	 2.200621336448978e+000	 1.100041594922544e+001
 3.197051867351773e+000	 2.233575464887016e+000	 1.099770176549833e+001
 3.173921540578977e+000	 2.266323466353488e+000	 1.101281861240738e+001
 3.150435639406766e+000	 2.298859561144042e+000	 1.104642573384411e+001
 3.126597039913347e+000	 2.331178017639058e+000	 1.109919654017590e+001
 3.102408740338531e+000	 2.363273155561783e+000	 1.104505786354424e+001
 3.077873859955401e+000	 2.395139349211001e+000	 1.101752270402623e+001
 3.052995637839890e+000	 2.426771030664460e+000	 1.102361009506622e+001
 3.027777431539140e+000	 2.458162692949324e+000	 1.106057346999769e+001
 3.285207381510571e+000	 2.147798282038917e+000	 1.099504770118260e+001
 3.263018467363441e+000	 2.181360924175559e+000	 1.095331307287177e+001
 3.240463763418629e+000	 2.214727883478840e+000	 1.092963632396130e+001
 3.217545789580505e+000	 2.247893256329681e+000	 1.092467411471923e+001
 3.194267191481998e+000	 2.280851180882235e+000	 1.093909794267184e+001
 3.170630739660923e+000	 2.313595840382766e+000	 1.097359359095029e+001
 3.146639328631884e+000	 2.346121466470502e+000	 1.102886049593985e+001
 3.122295975854181e+000	 2.378422342456659e+000	 1.109044629999493e+001
 3.097603820596237e+000	 2.410492806577833e+000	 1.106109039693563e+001
 3.072566122697291e+000	 2.442327255219966e+000	 1.106863297117603e+001
 3.047186261227222e+000	 2.473920146109110e+000	 1.111027634909675e+001
 3.306132269294255e+000	 2.161478525875483e+000	 1.093008795518432e+001
 3.283802024483750e+000	 2.195254942802317e+000	 1.088350745420052e+001
 3.261103660004143e+000	 2.228834430508366e+000	 1.085645419146164e+001
 3.238039711810148e+000	 2.262211047771884e+000	 1.084961207607702e+001
 3.214612842385859e+000	 2.295378895410425e+000	 1.086367943299099e+001
 3.190825839915830e+000	 2.328332119620868e+000	 1.089936842256998e+001
 3.166681617351064e+000	 2.361064915301286e+000	 1.095740437870706e+001
 3.142183211370345e+000	 2.393571529350870e+000	 1.103852506541521e+001
 3.117333781237435e+000	 2.425846263944024e+000	 1.110359035605123e+001
 3.092136607554884e+000	 2.457883479774885e+000	 1.111287801108952e+001
 3.066595090915306e+000	 2.489677599268394e+000	 1.115951579415183e+001
 3.327057157078940e+000	 2.175158769712056e+000	 1.086208903521822e+001
 3.304585581605049e+000	 2.209148961428895e+000	 1.081108846326218e+001
 3.281743556590617e+000	 2.242940977537558e+000	 1.078105351709523e+001
 3.258533634040701e+000	 2.276528839213626e+000	 1.077269512981851e+001
 3.234958493290562e+000	 2.309906609938059e+000	 1.078673826170376e+001
 3.211020940171490e+000	 2.343068398858346e+000	 1.082392129140674e+001
 3.186723906070885e+000	 2.376008364131412e+000	 1.088499532485808e+001
 3.162070446887021e+000	 2.408720716244415e+000	 1.097072342183444e+001
 3.137063741878996e+000	 2.441199721309576e+000	 1.108187974051390e+001
 3.111707092412668e+000	 2.473439704329218e+000	 1.115532345470788e+001
 3.086003920603393e+000	 2.505435052427177e+000	 1.115736623322026e+001
 3.347982044864625e+000	 2.188839013548634e+000	 1.079124746344959e+001
 3.325369138727341e+000	 2.223042980055294e+000	 1.073624794018042e+001
 3.302383453178052e+000	 2.257047524566414e+000	 1.070362162692361e+001
 3.279027556272166e+000	 2.290846630654907e+000	 1.069410625891188e+001
 3.255304144196106e+000	 2.324434324465135e+000	 1.070845324263497e+001
 3.231216040427900e+000	 2.357804678095201e+000	 1.074742701906276e+001
 3.206766194791349e+000	 2.390951812960879e+000	 1.081180434365072e+001
 3.181957682404208e+000	 2.423869903137296e+000	 1.090237348316093e+001
 3.156793702520920e+000	 2.456553178674487e+000	 1.101993332963813e+001
 3.131277577270648e+000	 2.488995928882965e+000	 1.116529243218988e+001
 3.105412750291483e+000	 2.521192505585459e+000	 1.106189260372947e+001
 2.911324453410707e+000	 2.363617973980084e+000	 1.081035486879101e+001
 2.886752611199269e+000	 2.393566243432211e+000	 1.084129446326023e+001
 2.861860654078760e+000	 2.423273322721160e+000	 1.089503638772762e+001
 2.836652143563399e+000	 2.452734110416955e+000	 1.096949798626626e+001
 2.811130749008874e+000	 2.481943575500790e+000	 1.106248261983751e+001
 2.785300245862961e+000	 2.510896760202158e+000	 1.107207894097084e+001
 2.759164513826918e+000	 2.539588782783472e+000	 1.094358034763395e+001
 2.732727534929508e+000	 2.568014840268935e+000	 1.084643779566146e+001
 2.705993391515634e+000	 2.596170211114460e+000	 1.078066892896507e+001
 2.678966264151707e+000	 2.624050257815533e+000	 1.074625948446200e+001
 2.651650429450000e+000	 2.651650429450000e+000	 1.074316388478025e+001
 2.930733283098773e+000	 2.379375427142877e+000	 1.084114770529460e+001
 2.905997628606329e+000	 2.409523351724013e+000	 1.089030969688341e+001
 2.880939725105363e+000	 2.439428478207633e+000	 1.096219927555525e+001
 2.855563157853521e+000	 2.469085671154231e+000	 1.105460227349533e+001
 2.829871620668864e+000	 2.498489866004878e+000	 1.116518831335407e+001
 2.803868914168815e+000	 2.527636071937260e+000	 1.103674516085151e+001
 2.777558943919312e+000	 2.556519374668874e+000	 1.092420855641315e+001
 2.750945718495975e+000	 2.585134939204087e+000	 1.084180776726960e+001
 2.724033347459338e+000	 2.613478012521847e+000	 1.078948623801569e+001
 2.696826039246255e+000	 2.641543926200947e+000	 1.076715663006669e+001
 2.669328098979750e+000	 2.669328098979750e+000	 1.077470150464642e+001
 2.950142112786840e+000	 2.395132880305170e+000	 1.087769852035824e+001
 2.925242646013206e+000	 2.425480460015402e+000	 1.094393890751245e+001
 2.900018796131630e+000	 2.455583633693764e+000	 1.103288813790925e+001
 2.874474172143181e+000	 2.485437231891217e+000	 1.114220009407388e+001
 2.848612492328293e+000	 2.515036156508704e+000	 1.112686977167278e+001
 2.822437582474045e+000	 2.544375383672111e+000	 1.100012471080362e+001
 2.795953374011047e+000	 2.573449966554016e+000	 1.090241682716485e+001
 2.769163902061778e+000	 2.602255038138947e+000	 1.083364609336680e+001
 2.742073303402402e+000	 2.630785813928895e+000	 1.079368207780217e+001
 2.714685814340219e+000	 2.659037594585950e+000	 1.078236467541594e+001
 2.687005768509000e+000	 2.687005768509000e+000	 1.079950488089059e+001
 2.969550942474911e+000	 2.410890333466961e+000	 1.091895810569031e+001
 2.944487663419903e+000	 2.441437568306380e+000	 1.100116323043772e+001
 2.919097867157557e+000	 2.471738789179554e+000	 1.110611465574079e+001
 2.893385186432377e+000	 2.501788792627911e+000	 1.121406836075824e+001
 2.867353363987166e+000	 2.531582447012270e+000	 1.107406859749268e+001
 2.841006250778652e+000	 2.561114695406711e+000	 1.096214752502561e+001
 2.814347804102123e+000	 2.590380558438898e+000	 1.087816072307089e+001
 2.787382085626915e+000	 2.619375137073518e+000	 1.082193359282892e+001
 2.760113259344826e+000	 2.648093615335601e+000	 1.079326213572020e+001
 2.732545589433598e+000	 2.676531262970544e+000	 1.079191377560327e+001
 2.704683438037750e+000	 2.704683438037750e+000	 1.081762822208515e+001
 2.988959772162985e+000	 2.426647786628250e+000	 1.096388239016812e+001
 2.963732680826416e+000	 2.457394676596947e+000	 1.106096826840133e+001
 2.938176938183147e+000	 2.487893944665003e+000	 1.118089431593082e+001
 2.912296200721112e+000	 2.518140353364315e+000	 1.114621733952765e+001
 2.886094235645479e+000	 2.548128737515575e+000	 1.102094564585505e+001
 2.859574919082636e+000	 2.577854007141061e+000	 1.092274541152156e+001
 2.832742234192540e+000	 2.607311150323519e+000	 1.085139705562328e+001
 2.805600269191387e+000	 2.636495236007798e+000	 1.080665171713835e+001
 2.778153215286610e+000	 2.665401416741968e+000	 1.078823212616265e+001
 2.750405364526391e+000	 2.694024931354727e+000	 1.079583351750069e+001
 2.722361107566000e+000	 2.722361107566000e+000	 1.082912458404247e+001
 3.008368601851061e+000	 2.442405239789038e+000	 1.101143227412275e+001
 2.982977698232747e+000	 2.473351784887102e+000	 1.112234394748572e+001
 2.957256009208400e+000	 2.504049100150113e+000	 1.121704281201996e+001
 2.931207215009381e+000	 2.534491914100428e+000	 1.107905170027456e+001
 2.904835107303235e+000	 2.564675028018620e+000	 1.096740979943370e+001
 2.878143587385996e+000	 2.594593318875161e+000	 1.088185199165581e+001
 2.851136664282297e+000	 2.624241742207880e+000	 1.082208384435617e+001
 2.823818452755195e+000	 2.653615334941789e+000	 1.078778252997740e+001
 2.796193171227755e+000	 2.682709218147996e+000	 1.077859778964883e+001
 2.768265139618600e+000	 2.711518599738501e+000	 1.079415293808840e+001
 2.740038777093750e+000	 2.740038777093750e+000	 1.083404590700076e+001
 3.027777431539140e+000	 2.458162692949324e+000	 1.106057346999769e+001
 3.002222715638894e+000	 2.489308893176847e+000	 1.118428437854517e+001
 2.976335080233315e+000	 2.520204255634879e+000	 1.113700086277364e+001
 2.950118229297189e+000	 2.550843474836250e+000	 1.101245821358892e+001
 2.923575978960431e+000	 2.581221318521404e+000	 1.091337229094236e+001
 2.896712255688731e+000	 2.611332630609010e+000	 1.083940264203251e+001
 2.869531094371395e+000	 2.641172334091981e+000	 1.079018027812651e+001
 2.842036636318339e+000	 2.670735433875489e+000	 1.076530868760641e+001
 2.814233127168260e+000	 2.700017019553682e+000	 1.076436489198695e+001
 2.786124914710225e+000	 2.729012268121865e+000	 1.078690054207957e+001
 2.757716446621000e+000	 2.757716446620999e+000	 1.083244305137964e+001
 3.047186261227222e+000	 2.473920146109110e+000	 1.111027634909675e+001
 3.021467733044860e+000	 2.505266001466179e+000	 1.119562248501160e+001
 2.995414151257892e+000	 2.536359411119305e+000	 1.105848957455807e+001
 2.969029243584533e+000	 2.567195035571781e+000	 1.094632650943152e+001
 2.942316850617070e+000	 2.597767609023927e+000	 1.085874662829278e+001
 2.915280923990842e+000	 2.628071942342609e+000	 1.079533443859621e+001
 2.887925524459833e+000	 2.658102925975822e+000	 1.075564667787448e+001
 2.860254819880818e+000	 2.687855532808900e+000	 1.073921341999196e+001
 2.832273083108124e+000	 2.717324820959029e+000	 1.074553922346880e+001
 2.803984689801263e+000	 2.746505936504818e+000	 1.077410431887150e+001
 2.775394116147749e+000	 2.775394116147750e+000	 1.082436583216924e+001
 3.066595090915306e+000	 2.489677599268394e+000	 1.115951579415183e+001
 3.040712750450644e+000	 2.521223109755101e+000	 1.110639687635416e+001
 3.014493222282131e+000	 2.552514566603390e+000	 1.098137774510032e+001
 2.987940257871414e+000	 2.583546596307021e+000	 1.088054898664755e+001
 2.961057722273150e+000	 2.614313899526189e+000	 1.080344852259467e+001
 2.933849592292329e+000	 2.644811254075957e+000	 1.074958610285532e+001
 2.906319954547613e+000	 2.675033517859402e+000	 1.071844446079812e+001
 2.878473003442633e+000	 2.704975631742019e+000	 1.070948051265151e+001
 2.850313039047349e+000	 2.734632622364035e+000	 1.072212659809499e+001
 2.821844464891718e+000	 2.763999604887362e+000	 1.075579175885303e+001
 2.793071785673999e+000	 2.793071785673999e+000	 1.080986305201344e+001
 3.086003920603393e+000	 2.505435052427177e+000	 1.115736623322026e+001
 3.059957767856244e+000	 2.537180218043611e+000	 1.101948308287294e+001
 3.033572293306033e+000	 2.568669722087134e+000	 1.090553740936479e+001
 3.006851272157832e+000	 2.599898157041971e+000	 1.081502072589487e+001
 2.979798593928671e+000	 2.630860190028191e+000	 1.074739581887283e+001
 2.952418260593193e+000	 2.661550565809055e+000	 1.070209795013476e+001
 2.924714384634734e+000	 2.691964109742721e+000	 1.067853610587971e+001
 2.896691187003782e+000	 2.722095730674849e+000	 1.067609428918328e+001
 2.868352994985935e+000	 2.751940423768701e+000	 1.069413285282935e+001
 2.839704239981586e+000	 2.781493273269495e+000	 1.073198986909675e+001
 2.810749455199750e+000	 2.810749455199749e+000	 1.078898253304468e+001
 3.105412750291483e+000	 2.521192505585459e+000	 1.106189260372947e+001
 3.079202785261663e+000	 2.553137326331711e+000	 1.093473350656980e+001
 3.052651364329597e+000	 2.584824877570536e+000	 1.083084373838951e+001
 3.025762286443788e+000	 2.616249717776630e+000	 1.074963940583728e+001
 2.998539465583634e+000	 2.647406480529932e+000	 1.069050842938224e+001
 2.970986928893433e+000	 2.678289877541903e+000	 1.065281183976921e+001
 2.943108814721196e+000	 2.708894701625782e+000	 1.063588512070515e+001
 2.914909370564268e+000	 2.739215829607388e+000	 1.063903959445127e+001
 2.886392950923881e+000	 2.769248225173028e+000	 1.066156384688133e+001
 2.857564015070872e+000	 2.798986941651220e+000	 1.070272518846250e+001
 2.828427124725000e+000	 2.828427124725000e+000	 1.076177114752486e+001
 2.651650429450000e+000	 2.651650429450000e+000	 1.074316388478025e+001
 2.624050257815533e+000	 2.678966264151706e+000	 1.074732529556276e+001
 2.596170211114461e+000	 2.705993391515634e+000	 1.074552224157860e+001
 2.568014840268935e+000	 2.732727534929508e+000	 1.073688124565434e+001
 2.539588782783472e+000	 2.759164513826918e+000	 1.072053586781678e+001
 2.510896760202157e+000	 2.785300245862960e+000	 1.069562822224996e+001
 2.481943575500790e+000	 2.811130749008874e+000	 1.067903793837755e+001
 2.452734110416955e+000	 2.836652143563399e+000	 1.065936328661107e+001
 2.423273322721160e+000	 2.861860654078760e+000	 1.062493780310081e+001
 2.393566243432212e+000	 2.886752611199269e+000	 1.057581143779955e+001
 2.363617973980084e+000	 2.911324453410707e+000	 1.051206567722958e+001
 2.669328098979750e+000	 2.669328098979750e+000	 1.077470150464642e+001
 2.641543926200946e+000	 2.696826039246255e+000	 1.077359088422863e+001
 2.613478012521847e+000	 2.724033347459337e+000	 1.076723191473843e+001
 2.585134939204086e+000	 2.750945718495975e+000	 1.075476131854119e+001
 2.556519374668874e+000	 2.777558943919311e+000	 1.073532225412236e+001
 2.527636071937259e+000	 2.803868914168815e+000	 1.070806583553985e+001
 2.498489866004878e+000	 2.829871620668864e+000	 1.067369585258384e+001
 2.469085671154231e+000	 2.855563157853522e+000	 1.065584115671344e+001
 2.439428478207632e+000	 2.880939725105363e+000	 1.062378000946862e+001
 2.409523351724013e+000	 2.905997628606329e+000	 1.057759598514544e+001
 2.379375427142877e+000	 2.930733283098773e+000	 1.051740426270841e+001
 2.687005768509000e+000	 2.687005768509000e+000	 1.079950488089059e+001
 2.659037594585950e+000	 2.714685814340219e+000	 1.079379248940600e+001
 2.630785813928895e+000	 2.742073303402402e+000	 1.078354093636995e+001
 2.602255038138947e+000	 2.769163902061777e+000	 1.076789660085773e+001
 2.573449966554016e+000	 2.795953374011047e+000	 1.074601170281952e+001
 2.544375383672111e+000	 2.822437582474046e+000	 1.071704582570203e+001
 2.515036156508704e+000	 2.848612492328293e+000	 1.068016742342328e+001
 2.485437231891216e+000	 2.874474172143180e+000	 1.064873425696938e+001
 2.455583633693764e+000	 2.900018796131629e+000	 1.061948988172815e+001
 2.425480460015402e+000	 2.925242646013206e+000	 1.057668019940447e+001
 2.395132880305170e+000	 2.950142112786840e+000	 1.052045413717747e+001
 2.704683438037750e+000	 2.704683438037750e+000	 1.081762822208515e+001
 2.676531262970543e+000	 2.732545589433597e+000	 1.080797475686754e+001
 2.648093615335602e+000	 2.760113259344826e+000	 1.079448453674396e+001
 2.619375137073518e+000	 2.787382085626915e+000	 1.077631305769027e+001
 2.590380558438898e+000	 2.814347804102123e+000	 1.075262106705396e+001
 2.561114695406711e+000	 2.841006250778652e+000	 1.072257609001766e+001
 2.531582447012270e+000	 2.867353363987166e+000	 1.068535394108832e+001
 2.501788792627911e+000	 2.893385186432378e+000	 1.064014021703807e+001
 2.471738789179555e+000	 2.919097867157557e+000	 1.061236423760278e+001
 2.441437568306380e+000	 2.944487663419903e+000	 1.057334872541492e+001
 2.410890333466960e+000	 2.969550942474911e+000	 1.052148779853738e+001
 2.722361107566000e+000	 2.722361107566000e+000	 1.082912458404247e+001
 2.694024931354727e+000	 2.750405364526391e+000	 1.081618146810080e+001
 2.665401416741969e+000	 2.778153215286610e+000	 1.080009736630007e+001
 2.636495236007799e+000	 2.805600269191388e+000	 1.078003635459085e+001
 2.607311150323519e+000	 2.832742234192540e+000	 1.075516717644349e+001
 2.577854007141061e+000	 2.859574919082636e+000	 1.072466477382519e+001
 2.548128737515575e+000	 2.886094235645479e+000	 1.068771180386524e+001
 2.518140353364315e+000	 2.912296200721112e+000	 1.064350013760425e+001
 2.487893944665004e+000	 2.938176938183148e+000	 1.060270092983988e+001
 2.457394676596946e+000	 2.963732680826416e+000	 1.056788749569376e+001
 2.426647786628250e+000	 2.988959772162985e+000	 1.052077927999456e+001
 2.740038777093750e+000	 2.740038777093750e+000	 1.083404590700076e+001
 2.711518599738501e+000	 2.768265139618600e+000	 1.081845556818834e+001
 2.682709218147995e+000	 2.796193171227754e+000	 1.080041351435098e+001
 2.653615334941789e+000	 2.823818452755196e+000	 1.077909186723969e+001
 2.624241742207880e+000	 2.851136664282297e+000	 1.075366683783706e+001
 2.594593318875161e+000	 2.878143587385995e+000	 1.072332026251847e+001
 2.564675028018620e+000	 2.904835107303235e+000	 1.068724112555445e+001
 2.534491914100429e+000	 2.931207215009382e+000	 1.064462706431802e+001
 2.504049100150112e+000	 2.957256009208400e+000	 1.059468585361831e+001
 2.473351784887102e+000	 2.982977698232746e+000	 1.056058368889869e+001
 2.442405239789038e+000	 3.008368601851061e+000	 1.051860410053515e+001
 2.757716446621000e+000	 2.757716446620999e+000	 1.083244305137964e+001
 2.729012268121864e+000	 2.786124914710225e+000	 1.081483919261557e+001
 2.700017019553682e+000	 2.814233127168259e+000	 1.079546652706733e+001
 2.670735433875489e+000	 2.842036636318339e+000	 1.077350469073598e+001
 2.641172334091982e+000	 2.869531094371395e+000	 1.074813683604447e+001
 2.611332630609010e+000	 2.896712255688730e+000	 1.071855117385270e+001
 2.581221318521404e+000	 2.923575978960431e+000	 1.068394250245711e+001
 2.550843474836251e+000	 2.950118229297189e+000	 1.064351371990533e+001
 2.520204255634879e+000	 2.976335080233315e+000	 1.059647731601330e+001
 2.489308893176847e+000	 3.002222715638894e+000	 1.055172568988778e+001
 2.458162692949325e+000	 3.027777431539140e+000	 1.051523921730395e+001
 2.775394116147749e+000	 2.775394116147750e+000	 1.082436583216924e+001
 2.746505936504817e+000	 2.803984689801263e+000	 1.080537369305410e+001
 2.717324820959029e+000	 2.832273083108124e+000	 1.078528942477517e+001
 2.687855532808899e+000	 2.860254819880818e+000	 1.076329964853353e+001
 2.658102925975822e+000	 2.887925524459834e+000	 1.073859393453827e+001
 2.628071942342609e+000	 2.915280923990842e+000	 1.071036635054434e+001
 2.597767609023927e+000	 2.942316850617070e+000	 1.067781699800884e+001
 2.567195035571781e+000	 2.969029243584532e+000	 1.064015353216145e+001
 2.536359411119304e+000	 2.995414151257892e+000	 1.059659266234154e+001
 2.505266001466179e+000	 3.021467733044860e+000	 1.054636162902128e+001
 2.473920146109110e+000	 3.047186261227222e+000	 1.051096297980316e+001
 2.793071785673999e+000	 2.793071785673999e+000	 1.080986305201344e+001
 2.763999604887362e+000	 2.821844464891717e+000	 1.079009966216598e+001
 2.734632622364035e+000	 2.850313039047350e+000	 1.076991471859664e+001
 2.704975631742019e+000	 2.878473003442633e+000	 1.074850130103717e+001
 2.675033517859402e+000	 2.906319954547613e+000	 1.072505487612899e+001
 2.644811254075957e+000	 2.933849592292329e+000	 1.069877485315216e+001
 2.614313899526189e+000	 2.961057722273150e+000	 1.066886612799696e+001
 2.583546596307021e+000	 2.987940257871413e+000	 1.063454061163852e+001
 2.552514566603390e+000	 3.014493222282131e+000	 1.059501873942969e+001
 2.521223109755101e+000	 3.040712750450644e+000	 1.054953095759460e+001
 2.489677599268394e+000	 3.066595090915306e+000	 1.050605508583038e+001
 2.810749455199750e+000	 2.810749455199749e+000	 1.078898253304468e+001
 2.781493273269495e+000	 2.839704239981586e+000	 1.076905695747197e+001
 2.751940423768702e+000	 2.868352994985934e+000	 1.074937442646266e+001
 2.722095730674848e+000	 2.896691187003782e+000	 1.072913395387471e+001
 2.691964109742721e+000	 2.924714384634734e+000	 1.070753638361494e+001
 2.661550565809055e+000	 2.952418260593193e+000	 1.068378595322675e+001
 2.630860190028191e+000	 2.979798593928671e+000	 1.065709184633563e+001
 2.599898157041970e+000	 3.006851272157832e+000	 1.062666973017531e+001
 2.568669722087133e+000	 3.033572293306033e+000	 1.059174327447235e+001
 2.537180218043611e+000	 3.059957767856244e+000	 1.055154564803233e+001
 2.505435052427177e+000	 3.086003920603393e+000	 1.050532098945024e+001
 2.828427124725000e+000	 2.828427124725000e+000	 1.076177114752486e+001
 2.798986941651219e+000	 2.857564015070872e+000	 1.074228472432462e+001
 2.769248225173028e+000	 2.886392950923880e+000	 1.072370008852516e+001
 2.739215829607388e+000	 2.914909370564268e+000	 1.070522166585875e+001
 2.708894701625783e+000	 2.943108814721196e+000	 1.068605516040747e+001
 2.678289877541903e+000	 2.970986928893433e+000	 1.066540912671714e+001
 2.647406480529932e+000	 2.998539465583634e+000	 1.064249653137438e+001
 2.616249717776630e+000	 3.025762286443787e+000	 1.061653630023200e+001
 2.584824877570536e+000	 3.052651364329597e+000	 1.058675484752052e+001
 2.553137326331711e+000	 3.079202785261663e+000	 1.055238758314940e+001
 2.521192505585459e+000	 3.105412750291483e+000	 1.051268039458001e+001
 2.363617973980084e+000	 2.911324453410707e+000	 1.051206567722958e+001
 2.333433683319122e+000	 2.935572728699535e+000	 1.046157098114295e+001
 2.303018604996550e+000	 2.959494096117997e+000	 1.041479931940707e+001
 2.272378034178562e+000	 2.983085327255383e+000	 1.037227189399408e+001
 2.241517324636550e+000	 3.006343307615601e+000	 1.033451829684435e+001
 2.210441885698607e+000	 3.029265037897612e+000	 1.030207503885774e+001
 2.179157179169300e+000	 3.051847635178518e+000	 1.027548404346111e+001
 2.147668716221342e+000	 3.074088333998506e+000	 1.025529110926750e+001
 2.115982054262759e+000	 3.095984487346924e+000	 1.024204434643553e+001
 2.084102793783212e+000	 3.117533567548997e+000	 1.023629259141335e+001
 2.052036575183095e+000	 3.138733167052782e+000	 1.015220192585330e+001
 2.379375427142877e+000	 2.930733283098773e+000	 1.051740426270841e+001
 2.348989907878144e+000	 2.955143213555779e+000	 1.047894395335448e+001
 2.318372062367228e+000	 2.979224056756658e+000	 1.044407948218630e+001
 2.287527221077428e+000	 3.002972562767960e+000	 1.041333854851158e+001
 2.256460773471950e+000	 3.026385596330287e+000	 1.038725791115732e+001
 2.225178164941071e+000	 3.049460138147258e+000	 1.036638188763115e+001
 2.193684893701392e+000	 3.072193286076492e+000	 1.035126081641020e+001
 2.161986507666774e+000	 3.094582256221773e+000	 1.034244948697157e+001
 2.130088601294634e+000	 3.116624383925715e+000	 1.034050554227408e+001
 2.097996812411230e+000	 3.138317124662376e+000	 1.026702331961444e+001
 2.065716819019625e+000	 3.159658054829465e+000	 1.014680626977329e+001
 2.395132880305170e+000	 2.950142112786840e+000	 1.052045413717747e+001
 2.364546132436579e+000	 2.974713698412216e+000	 1.049379113038622e+001
 2.333725519737264e+000	 2.998954017395681e+000	 1.047058737664736e+001
 2.302676407975629e+000	 3.022859798281050e+000	 1.045137747495050e+001
 2.271404222306690e+000	 3.046427885045616e+000	 1.043670576802566e+001
 2.239914444182912e+000	 3.069655238397657e+000	 1.042712481094428e+001
 2.208212608232925e+000	 3.092538936975307e+000	 1.042319380137447e+001
 2.176304299111745e+000	 3.115076178445951e+000	 1.042547697620427e+001
 2.144195148326173e+000	 3.137264280505467e+000	 1.036580633120382e+001
 2.111890831039068e+000	 3.159100681776744e+000	 1.025355802231576e+001
 2.079397062856160e+000	 3.180582942607150e+000	 1.014252664761001e+001
 2.410890333466960e+000	 2.969550942474911e+000	 1.052148779853738e+001
 2.380102356994429e+000	 2.994284183268845e+000	 1.050638521827884e+001
 2.349078977106659e+000	 3.018683978035067e+000	 1.049459574589554e+001
 2.317825594873165e+000	 3.042747033794653e+000	 1.048666128447037e+001
 2.286347671140771e+000	 3.066470173761587e+000	 1.048313417988677e+001
 2.254650723424129e+000	 3.089850338648807e+000	 1.048457565813447e+001
 2.222740322763901e+000	 3.112884587874964e+000	 1.049155422277089e+001
 2.190622090556255e+000	 3.135570100671041e+000	 1.044846143007936e+001
 2.158301695357377e+000	 3.157904177086178e+000	 1.034418508852961e+001
 2.125784849666726e+000	 3.179884238892103e+000	 1.024117155481305e+001
 2.093077306692701e+000	 3.201507830385834e+000	 1.013927485031183e+001
 2.426647786628250e+000	 2.988959772162985e+000	 1.052077927999456e+001
 2.395658581551693e+000	 3.013854668125669e+000	 1.051700038082256e+001
 2.364432434475413e+000	 3.038413938674816e+000	 1.051637871348666e+001
 2.332974781770036e+000	 3.062634269308767e+000	 1.051946389167613e+001
 2.301291119974192e+000	 3.086512462478199e+000	 1.052681668594854e+001
 2.269387002664723e+000	 3.110045438900708e+000	 1.053900742900059e+001
 2.237268037294321e+000	 3.133230238775461e+000	 1.051495414722285e+001
 2.204939882000303e+000	 3.156064022897041e+000	 1.041860789971886e+001
 2.172408242388246e+000	 3.178544073667851e+000	 1.032360014587637e+001
 2.139678868294204e+000	 3.200667796008453e+000	 1.022977257159448e+001
 2.106757550529247e+000	 3.222432718165518e+000	 1.013696344446653e+001
 2.442405239789038e+000	 3.008368601851061e+000	 1.051860410053515e+001
 2.411214806108369e+000	 3.033425152982682e+000	 1.052591219253286e+001
 2.379785891843528e+000	 3.058143899314927e+000	 1.053621173889645e+001
 2.348123968666241e+000	 3.082521504823392e+000	 1.055006047257156e+001
 2.316234568806955e+000	 3.106554751195452e+000	 1.056802801261606e+001
 2.284123281904694e+000	 3.130240539153362e+000	 1.056530615848269e+001
 2.251795751824183e+000	 3.153575889676799e+000	 1.047680267391350e+001
 2.219257673443891e+000	 3.176557945123951e+000	 1.038974310212650e+001
 2.186514789418780e+000	 3.199183970250483e+000	 1.030395713921111e+001
 2.153572886921501e+000	 3.221451353125791e+000	 1.021927054933437e+001
 2.120437794365798e+000	 3.243357605946203e+000	 1.013550574728070e+001
 2.458162692949325e+000	 3.027777431539140e+000	 1.051523921730395e+001
 2.426771030664461e+000	 3.052995637839891e+000	 1.053339759343509e+001
 2.395139349211001e+000	 3.077873859955400e+000	 1.055437157470255e+001
 2.363273155561783e+000	 3.102408740338531e+000	 1.057872742412981e+001
 2.331178017639058e+000	 3.126597039913347e+000	 1.059959625272243e+001
 2.298859561144042e+000	 3.150435639406766e+000	 1.051880248714706e+001
 2.266323466353488e+000	 3.173921540578977e+000	 1.043958762004055e+001
 2.233575464887016e+000	 3.197051867351772e+000	 1.036176977082962e+001
 2.200621336448977e+000	 3.219823866834076e+000	 1.028516257011405e+001
 2.167466905548620e+000	 3.242234910244121e+000	 1.020957576054110e+001
 2.134118038202355e+000	 3.264282493727888e+000	 1.013481580252135e+001
 2.473920146109110e+000	 3.047186261227222e+000	 1.051096297980316e+001
 2.442327255219966e+000	 3.072566122697290e+000	 1.053973484557672e+001
 2.410492806577833e+000	 3.097603820596236e+000	 1.057113622540297e+001
 2.378422342456658e+000	 3.122295975854182e+000	 1.060574232540899e+001
 2.346121466470502e+000	 3.146639328631884e+000	 1.054469822777728e+001
 2.313595840382766e+000	 3.170630739660922e+000	 1.047317847018140e+001
 2.280851180882235e+000	 3.194267191481998e+000	 1.040320893100613e+001
 2.247893256329681e+000	 3.217545789580505e+000	 1.033459154541733e+001
 2.214727883478839e+000	 3.240463763418629e+000	 1.026712377821145e+001
 2.181360924175558e+000	 3.263018467363440e+000	 1.020059924821200e+001
 2.147798282038917e+000	 3.285207381510571e+000	 1.013480835737711e+001
 2.489677599268394e+000	 3.066595090915306e+000	 1.050605508583038e+001
 2.457883479774885e+000	 3.092136607554884e+000	 1.054520349119136e+001
 2.425846263944025e+000	 3.117333781237435e+000	 1.058678490779834e+001
 2.393571529350869e+000	 3.142183211370345e+000	 1.055463942942151e+001
 2.361064915301287e+000	 3.166681617351064e+000	 1.049061893739948e+001
 2.328332119620868e+000	 3.190825839915830e+000	 1.042833137749430e+001
 2.295378895410425e+000	 3.214612842385859e+000	 1.036756749587900e+001
 2.262211047771884e+000	 3.238039711810147e+000	 1.030811294286770e+001
 2.228834430508366e+000	 3.261103660004143e+000	 1.024974891465502e+001
 2.195254942802317e+000	 3.283802024483750e+000	 1.019225280145086e+001
 2.161478525875483e+000	 3.306132269294256e+000	 1.013539884019804e+001
 2.505435052427177e+000	 3.086003920603393e+000	 1.050532098945024e+001
 2.473439704329218e+000	 3.111707092412669e+000	 1.055008431244119e+001
 2.441199721309576e+000	 3.137063741878996e+000	 1.054883497839832e+001
 2.408720716244414e+000	 3.162070446887020e+000	 1.049207163788469e+001
 2.376008364131412e+000	 3.186723906070886e+000	 1.043725308703054e+001
 2.343068398858345e+000	 3.211020940171488e+000	 1.038415945755084e+001
 2.309906609938059e+000	 3.234958493290562e+000	 1.033256511771936e+001
 2.276528839213626e+000	 3.258533634040700e+000	 1.028223932995690e+001
 2.242940977537558e+000	 3.281743556590617e+000	 1.023294691660236e+001
 2.209148961428895e+000	 3.304585581605049e+000	 1.018444893200542e+001
 2.175158769712056e+000	 3.327057157078940e+000	 1.013650333907543e+001
 2.521192505585459e+000	 3.105412750291483e+000	 1.051268039458001e+001
 2.488995928882964e+000	 3.131277577270647e+000	 1.052755369190790e+001
 2.456553178674486e+000	 3.156793702520920e+000	 1.047775920897838e+001
 2.423869903137295e+000	 3.181957682404208e+000	 1.043015005619193e+001
 2.390951812960879e+000	 3.206766194791349e+000	 1.038449639296693e+001
 2.357804678095201e+000	 3.231216040427900e+000	 1.034056190679266e+001
 2.324434324465135e+000	 3.255304144196106e+000	 1.029810448501671e+001
 2.290846630654907e+000	 3.279027556272165e+000	 1.025687689670295e+001
 2.257047524566414e+000	 3.302383453178052e+000	 1.021662748265422e+001
 2.223042980055295e+000	 3.325369138727341e+000	 1.017710085168478e+001
 2.188839013548634e+000	 3.347982044864625e+000	 1.013803858122491e+001
 2.052036575183095e+000	 3.138733167052782e+000	 1.015220192585330e+001
 2.019789075589026e+000	 3.159580999116348e+000	 1.008770498853930e+001
 1.987366005659461e+000	 3.180074898394475e+000	 1.002986354763682e+001
 1.954773106383973e+000	 3.200212821425363e+000	 9.978487143740541e+000
 1.922016145879748e+000	 3.219992847017981e+000	 9.933378585929942e+000
 1.889100916188957e+000	 3.239413176539813e+000	 9.894334555710580e+000
 1.856033230080492e+000	 3.258472134105683e+000	 9.846566631241164e+000
 1.822818917859585e+000	 3.277168166668327e+000	 9.792875212524917e+000
 1.789463824188730e+000	 3.295499844011498e+000	 9.745445711777533e+000
 1.755973804923333e+000	 3.313465858646516e+000	 9.706027978022098e+000
 1.722354723965393e+000	 3.331065025613313e+000	 9.676314061610784e+000
 2.065716819019625e+000	 3.159658054829465e+000	 1.014680626977329e+001
 2.033254336094089e+000	 3.180644872440123e+000	 1.008985836359821e+001
 2.000615112364274e+000	 3.201275397713506e+000	 1.003858470842542e+001
 1.967804927093015e+000	 3.221547573564735e+000	 9.992770679599738e+000
 1.934829586851615e+000	 3.241459465994842e+000	 9.952195933598439e+000
 1.901694922295856e+000	 3.261009264380424e+000	 9.916635035008094e+000
 1.868406784946424e+000	 3.280195281663736e+000	 9.880639104338494e+000
 1.834971043977251e+000	 3.299015954443868e+000	 9.827830688824129e+000
 1.801393583015249e+000	 3.317469842969797e+000	 9.780546140251683e+000
 1.767680296954858e+000	 3.335555631036250e+000	 9.740576345984790e+000
 1.733837088790757e+000	 3.353272125783427e+000	 9.709654188228768e+000
 2.079397062856160e+000	 3.180582942607150e+000	 1.014252664761001e+001
 2.046719596599342e+000	 3.201708745764888e+000	 1.009281253798328e+001
 2.013864219069431e+000	 3.222475897033497e+000	 1.004780437438233e+001
 1.980836747802525e+000	 3.242882325705017e+000	 1.000726335087474e+001
 1.947643027824043e+000	 3.262926084972539e+000	 9.970945946644617e+000
 1.914288928403380e+000	 3.282605352221780e+000	 9.938604576198600e+000
 1.880780339813014e+000	 3.301918429222424e+000	 9.909988239092778e+000
 1.847123170095580e+000	 3.320863742219913e+000	 9.862120768499530e+000
 1.813323341842404e+000	 3.339439841928448e+000	 9.814311347832375e+000
 1.779386788986964e+000	 3.357645403426167e+000	 9.773139943086719e+000
 1.745319453616616e+000	 3.375479225953533e+000	 9.740381297460294e+000
 2.093077306692701e+000	 3.201507830385834e+000	 1.013927485031183e+001
 2.060184857104785e+000	 3.222772619090644e+000	 1.009648841963899e+001
 2.027113325774932e+000	 3.243676396354447e+000	 1.005745234036994e+001
 1.993868568512505e+000	 3.264217077846208e+000	 1.002190360509978e+001
 1.960456468797033e+000	 3.284392703951076e+000	 9.989575487027286e+000
 1.926882934511530e+000	 3.304201440063883e+000	 9.960198213586898e+000
 1.893153894680265e+000	 3.323641576781748e+000	 9.933499638068380e+000
 1.859275296214572e+000	 3.342711529996462e+000	 9.895959057091757e+000
 1.825253100670198e+000	 3.361409840887453e+000	 9.846953563764160e+000
 1.791093281019651e+000	 3.379735175816265e+000	 9.803929409167607e+000
 1.756801818442972e+000	 3.397686326123631e+000	 9.768704233742028e+000
 2.106757550529247e+000	 3.222432718165518e+000	 1.013696344446653e+001
 2.073650117610419e+000	 3.243836492417388e+000	 1.010080748539752e+001
 2.040362432480778e+000	 3.264876895676356e+000	 1.006745876979998e+001
 2.006900389222952e+000	 3.285551829988306e+000	 1.003663006450597e+001
 1.973269909770586e+000	 3.305859322930449e+000	 1.000803140410381e+001
 1.939476940620305e+000	 3.325797527906732e+000	 9.981370788195868e+000
 1.905527449548174e+000	 3.345364724341706e+000	 9.956354875118519e+000
 1.871427422334229e+000	 3.364559317773515e+000	 9.929558625583749e+000
 1.837182859498628e+000	 3.383379839846811e+000	 9.878684322243148e+000
 1.802799773052920e+000	 3.401824948206546e+000	 9.833154535354753e+000
 1.768284183269824e+000	 3.419893426293720e+000	 9.794830846001910e+000
 2.120437794365798e+000	 3.243357605946203e+000	 1.013550574728070e+001
 2.087115378116242e+000	 3.264900365745122e+000	 1.010569176262759e+001
 2.053611539186969e+000	 3.286077394999225e+000	 1.007775418274483e+001
 2.019932209933868e+000	 3.306886582131313e+000	 1.005138152038598e+001
 1.986083350744701e+000	 3.327325941910659e+000	 1.002626053503673e+001
 1.952070946729707e+000	 3.347393615750327e+000	 1.000207695400133e+001
 1.917901004416744e+000	 3.367087871902299e+000	 9.978516188433600e+000
 1.883579548454547e+000	 3.386407105551073e+000	 9.955264042553489e+000
 1.849112618327695e+000	 3.405349838806522e+000	 9.909714484837929e+000
 1.814506265086770e+000	 3.423914720597010e+000	 9.861024291440929e+000
 1.779766548097172e+000	 3.442100526463804e+000	 9.818968019772452e+000
 2.134118038202355e+000	 3.264282493727888e+000	 1.013481580252135e+001
 2.100580638622255e+000	 3.285964239073846e+000	 1.011106381158901e+001
 2.066860645893503e+000	 3.307277894323052e+000	 1.008826944450609e+001
 2.032964030645252e+000	 3.328221334275228e+000	 1.006609692767533e+001
 1.998896791719378e+000	 3.348792560891706e+000	 1.004420970518442e+001
 1.964664952839736e+000	 3.368989703594667e+000	 1.002227118392717e+001
 1.930274559285973e+000	 3.388811019463529e+000	 9.999945472158586e+000
 1.895731674575529e+000	 3.408254893329133e+000	 9.976898109691536e+000
 1.861042377157399e+000	 3.427319837766585e+000	 9.940254262048136e+000
 1.826212757121202e+000	 3.446004492987656e+000	 9.887746852209164e+000
 1.791248912925016e+000	 3.464307626633877e+000	 9.841321708068703e+000
 2.147798282038917e+000	 3.285207381510571e+000	 1.013480835737711e+001
 2.114045899128458e+000	 3.307028112403561e+000	 1.011684670846167e+001
 2.080109752600382e+000	 3.328478393647839e+000	 1.009893575462006e+001
 2.045995851357105e+000	 3.349556086420052e+000	 1.008071539974087e+001
 2.011710232694617e+000	 3.370259179873592e+000	 1.006182572847721e+001
 1.977258958950389e+000	 3.390585791439756e+000	 1.004190777561129e+001
 1.942648114155861e+000	 3.410534167025391e+000	 1.002060428734991e+001
 1.907883800697174e+000	 3.430102681107697e+000	 9.997560472723730e+000
 1.872972135987740e+000	 3.449289836727001e+000	 9.970513234039135e+000
 1.837919249156214e+000	 3.468094265378485e+000	 9.913529622751542e+000
 1.802731277753356e+000	 3.486514726803944e+000	 9.862096961086314e+000
 2.161478525875483e+000	 3.306132269294256e+000	 1.013539884019804e+001
 2.127511159634852e+000	 3.328091985734265e+000	 1.012296402901893e+001
 2.093358859307605e+000	 3.349678892973584e+000	 1.010968463628061e+001
 2.059027672069426e+000	 3.370890838565784e+000	 1.009517620336714e+001
 2.024523673670419e+000	 3.391725798856314e+000	 1.007905540777891e+001
 1.989852965061668e+000	 3.412181879285589e+000	 1.006094085695268e+001
 1.955021669026409e+000	 3.432257314587890e+000	 1.004045387251617e+001
 1.920035926819483e+000	 3.451950468886766e+000	 1.001721926311542e+001
 1.884901894818718e+000	 3.471259835687771e+000	 9.990866084006665e+000
 1.849625741191809e+000	 3.490184037769495e+000	 9.938579262826526e+000
 1.814213642582192e+000	 3.508721826974003e+000	 9.881497954771767e+000
 2.175158769712056e+000	 3.327057157078940e+000	 1.013650333907543e+001
 2.140976420141436e+000	 3.349155859065959e+000	 1.012933983291713e+001
 2.106607966015173e+000	 3.370879392300290e+000	 1.012044792616135e+001
 2.072059492782216e+000	 3.392225590712425e+000	 1.010941875393189e+001
 2.037337114646783e+000	 3.413192417839874e+000	 1.009584553523490e+001
 2.002446971173574e+000	 3.433777967132169e+000	 1.007932439144910e+001
 1.967395223897617e+000	 3.453980462151022e+000	 1.005945515376126e+001
 1.932188052942454e+000	 3.473798256666338e+000	 1.003584215764927e+001
 1.896831653650335e+000	 3.493229834648894e+000	 1.000809502257312e+001
 1.861332233227984e+000	 3.512273810160688e+000	 9.963101710297080e+000
 1.825696007411525e+000	 3.530928927144053e+000	 9.899728018314457e+000
 2.188839013548634e+000	 3.347982044864625e+000	 1.013803858122491e+001
 2.154441680648210e+000	 3.370219732398643e+000	 1.013589864857426e+001
 2.119857072723086e+000	 3.392079891627955e+000	 1.013115776461933e+001
 2.085091313495474e+000	 3.413560342859974e+000	 1.012338261076253e+001
 2.050150555623710e+000	 3.434659036824271e+000	 1.011214289260698e+001
 2.015040977286106e+000	 3.455374054979496e+000	 1.009701218333461e+001
 1.979768778769484e+000	 3.475703609714792e+000	 1.007756875454688e+001
 1.944340179066090e+000	 3.495646044446416e+000	 1.005339639263409e+001
 1.908761412482587e+000	 3.515199833610370e+000	 1.002408519880100e+001
 1.873038725264741e+000	 3.534363582552064e+000	 9.987302203689945e+000
 1.837178372241353e+000	 3.553136027314097e+000	 9.916989660607889e+000
 1.722354723965393e+000	 3.331065025613313e+000	 9.676314061610784e+000
 1.688612450138004e+000	 3.348296282186655e+000	 9.676489585045919e+000
 1.654752854085250e+000	 3.365158687490438e+000	 9.664520639914352e+000
 1.620781805199965e+000	 3.381651422020275e+000	 9.641625450393228e+000
 1.586705168581185e+000	 3.397773787075000e+000	 9.608978664593291e+000
 1.552528802025695e+000	 3.413525204100325e+000	 9.567708792521545e+000
 1.518258553056114e+000	 3.428905213945840e+000	 9.518895796558500e+000
 1.483900255988309e+000	 3.443913476037222e+000	 9.463568838309364e+000
 1.449459729040825e+000	 3.458549767465619e+000	 9.402704185153199e+000
 1.414942771488917e+000	 3.472813981996224e+000	 9.337223279277882e+000
 1.380355160865667e+000	 3.486706128998200e+000	 9.267990971454736e+000
 1.733837088790757e+000	 3.353272125783427e+000	 9.709654188228768e+000
 1.699869866471438e+000	 3.370618257401203e+000	 9.700908286965669e+000
 1.665784539778524e+000	 3.387593078740911e+000	 9.682756926563060e+000
 1.631587017234133e+000	 3.404195764834802e+000	 9.656497101665522e+000
 1.597283203037965e+000	 3.420425612323706e+000	 9.623378302481919e+000
 1.562878994038781e+000	 3.436282038796304e+000	 9.584599880722728e+000
 1.528380276742684e+000	 3.451764582041180e+000	 9.541308575284933e+000
 1.493792924360984e+000	 3.466872899213522e+000	 9.494596201589014e+000
 1.459122793900348e+000	 3.481606765918416e+000	 9.445497507919024e+000
 1.424375723297864e+000	 3.495966075212821e+000	 9.394988201562281e+000
 1.389557528603505e+000	 3.509950836528365e+000	 9.343983146993010e+000
 1.745319453616616e+000	 3.375479225953533e+000	 9.740381297460294e+000
 1.711127282805278e+000	 3.392940232615552e+000	 9.723391179652779e+000
 1.676816225472134e+000	 3.410027469991017e+000	 9.699712582679739e+000
 1.642392229268590e+000	 3.426740107648814e+000	 9.670721862355052e+000
 1.607861237495004e+000	 3.443077437571767e+000	 9.637743939966663e+000
 1.573229186052117e+000	 3.459038873491527e+000	 9.602049595079595e+000
 1.538502000429517e+000	 3.474623950135680e+000	 9.564852925354762e+000
 1.503685592733952e+000	 3.489832322388910e+000	 9.527308977335235e+000
 1.468785858760214e+000	 3.504663764370250e+000	 9.490511551579552e+000
 1.433808675107226e+000	 3.519118168428429e+000	 9.455491184948899e+000
 1.398759896341848e+000	 3.533195544057530e+000	 9.423213312284108e+000
 1.756801818442972e+000	 3.397686326123631e+000	 9.768704233742028e+000
 1.722384699139524e+000	 3.415262207829704e+000	 9.744119953448108e+000
 1.687847911166081e+000	 3.432461861240755e+000	 9.715542841072599e+000
 1.653197441303334e+000	 3.449284450462311e+000	 9.684429218254630e+000
 1.618439271952301e+000	 3.465729262819184e+000	 9.652180039677784e+000
 1.583579378065703e+000	 3.481795708185998e+000	 9.620138111620280e+000
 1.548623724116612e+000	 3.497483318229334e+000	 9.589585484825324e+000
 1.513578261107214e+000	 3.512791745563388e+000	 9.561741025692671e+000
 1.478448923620424e+000	 3.527720762821125e+000	 9.537758169200940e+000
 1.443241626917003e+000	 3.542270261643044e+000	 9.518722856379178e+000
 1.407962264080697e+000	 3.556440251585694e+000	 9.505651658557133e+000
 1.768284183269824e+000	 3.419893426293720e+000	 9.794830846001910e+000
 1.733642115474177e+000	 3.437584183043659e+000	 9.763275816793446e+000
 1.698879596860366e+000	 3.454896252490127e+000	 9.730402950123578e+000
 1.664002653338367e+000	 3.471828793275292e+000	 9.697749151917012e+000
 1.629017306409859e+000	 3.488381088065955e+000	 9.666792025766645e+000
 1.593929570079541e+000	 3.504552542879714e+000	 9.638947016102827e+000
 1.558745447803969e+000	 3.520342686322147e+000	 9.615564733024513e+000
 1.523470929480768e+000	 3.535751168736953e+000	 9.597928462844349e+000
 1.488111988480978e+000	 3.550777761271039e+000	 9.587251867789083e+000
 1.452674578727196e+000	 3.565422354856672e+000	 9.584676877687109e+000
 1.417164631820050e+000	 3.579684959112860e+000	 9.591271775866748e+000
 1.779766548097172e+000	 3.442100526463804e+000	 9.818968019772452e+000
 1.744899531809236e+000	 3.459906158257415e+000	 9.781039511776610e+000
 1.709911282554987e+000	 3.477330643739131e+000	 9.744448173285923e+000
 1.674807865373687e+000	 3.494373136087755e+000	 9.710812126630358e+000
 1.639595340867676e+000	 3.511032913312080e+000	 9.681686252888873e+000
 1.604279762093628e+000	 3.527309377572676e+000	 9.658559258540125e+000
 1.568867171491587e+000	 3.543202054414117e+000	 9.642850931155063e+000
 1.533363597854616e+000	 3.558710591909605e+000	 9.635909588236219e+000
 1.497775053341877e+000	 3.573834759719990e+000	 9.639009722678742e+000
 1.462107530537802e+000	 3.588574448069307e+000	 9.653349847699444e+000
 1.426366999559909e+000	 3.602929666639025e+000	 9.680050543453641e+000
 1.791248912925016e+000	 3.464307626633877e+000	 9.841321708068703e+000
 1.756156948144701e+000	 3.482228133470974e+000	 9.797591329078708e+000
 1.720942968249945e+000	 3.499765034987769e+000	 9.757833788601138e+000
 1.685613077409295e+000	 3.516917478899702e+000	 9.723749071010053e+000
 1.650173375325751e+000	 3.533684738557561e+000	 9.696969976380551e+000
 1.614629954107966e+000	 3.550066212264883e+000	 9.679059109473753e+000
 1.578988895179467e+000	 3.566061422505243e+000	 9.671506065183110e+000
 1.543256266228757e+000	 3.581670015081346e+000	 9.675724814600782e+000
 1.507438118203120e+000	 3.596891758167982e+000	 9.693051295215183e+000
 1.471540482348824e+000	 3.611726541280953e+000	 9.724741208101355e+000
 1.435569367300273e+000	 3.626174374164190e+000	 9.771968024321863e+000
 1.802731277753356e+000	 3.486514726803944e+000	 9.862096961086314e+000
 1.767414364480573e+000	 3.504550108684335e+000	 9.813111122350158e+000
 1.731974653945240e+000	 3.522199426236039e+000	 9.770715088234439e+000
 1.696418289445191e+000	 3.539461821711133e+000	 9.736691364179395e+000
 1.660751409784085e+000	 3.556336563802396e+000	 9.712751323574022e+000
 1.624980146122555e+000	 3.572823046956338e+000	 9.700532117918909e+000
 1.589110618867609e+000	 3.588920790595527e+000	 9.701593790909419e+000
 1.553148934603190e+000	 3.604629438252175e+000	 9.717416600655005e+000
 1.517101183064707e+000	 3.619948756615012e+000	 9.749398553581976e+000
 1.480973434160260e+000	 3.634878634491609e+000	 9.798853152899516e+000
 1.444771735041142e+000	 3.649419081688354e+000	 9.867007363845149e+000
 1.814213642582192e+000	 3.508721826974003e+000	 9.881497954771767e+000
 1.778671780816851e+000	 3.526872083897497e+000	 9.827778322040752e+000
 1.743006339640873e+000	 3.544633817483943e+000	 9.783247378027726e+000
 1.707223501481376e+000	 3.562006164522048e+000	 9.749770821512962e+000
 1.671329444242679e+000	 3.578988389046586e+000	 9.729139266203235e+000
 1.635330338137394e+000	 3.595579881647038e+000	 9.723065070906396e+000
 1.599232342556013e+000	 3.611780158684968e+000	 9.733179381126558e+000
 1.563041602977918e+000	 3.627588861422092e+000	 9.761029386353956e+000
 1.526764247926639e+000	 3.643005755061083e+000	 9.808075796635196e+000
 1.490406385972112e+000	 3.658030727701275e+000	 9.875690541323326e+000
 1.453974102782516e+000	 3.672663789211519e+000	 9.965154692223523e+000
 1.825696007411525e+000	 3.530928927144053e+000	 9.899728018314457e+000
 1.789929197153535e+000	 3.549194059110465e+000	 9.841771948707878e+000
 1.754038025336842e+000	 3.567068208731479e+000	 9.795585977069582e+000
 1.718028713517848e+000	 3.584550507332447e+000	 9.763119680918067e+000
 1.681907478701532e+000	 3.601640214290131e+000	 9.746243593850055e+000
 1.645680530152484e+000	 3.618336716336984e+000	 9.746745954551294e+000
 1.609354066244679e+000	 3.634639526773566e+000	 9.766329674770097e+000
 1.572934271352937e+000	 3.650548284591098e+000	 9.806609530587680e+000
 1.536427312788914e+000	 3.666062753506191e+000	 9.869109580611768e+000
 1.499839337784378e+000	 3.681182820909950e+000	 9.955260814012835e+000
 1.463176470524395e+000	 3.695908496733685e+000	 1.006639903062085e+001
 1.837178372241353e+000	 3.553136027314097e+000	 9.916989660607889e+000
 1.801186613490626e+000	 3.571516034323234e+000	 9.855270625825634e+000
 1.765069711033149e+000	 3.589502599978649e+000	 9.807886217281254e+000
 1.728833925554609e+000	 3.607094850142331e+000	 9.776870589630590e+000
 1.692485513160644e+000	 3.624292039533032e+000	 9.764174888386672e+000
 1.656030722167824e+000	 3.641093551026176e+000	 9.771663916581680e+000
 1.619475789933607e+000	 3.657498894861323e+000	 9.801113027976564e+000
 1.582826939728251e+000	 3.673507707759193e+000	 9.854205251214561e+000
 1.546090377651534e+000	 3.689119751950341e+000	 9.932528648586429e+000
 1.509272289597059e+000	 3.704334914117636e+000	 1.003757391234973e+001
 1.472378838266780e+000	 3.719153204254850e+000	 1.017073220082223e+001
 1.380355160865667e+000	 3.486706128998200e+000	 9.267990971454736e+000
 1.345702650213483e+000	 3.500226332298184e+000	 9.059610450901444e+000
 1.310990965385763e+000	 3.513374828959480e+000	 8.882032856358732e+000
 1.276225802402121e+000	 3.526151967989605e+000	 8.736472469083546e+000
 1.241412824861386e+000	 3.538558208978484e+000	 8.650607630972109e+000
 1.206557661411701e+000	 3.550594120669679e+000	 8.682725347968177e+000
 1.171665903280343e+000	 3.562260379467235e+000	 8.749005733312135e+000
 1.136743101864962e+000	 3.573557767880753e+000	 8.843746428654388e+000
 1.101794766387843e+000	 3.584487172911278e+000	 8.961620842469408e+000
 1.066826361614632e+000	 3.595049584380677e+000	 9.097679136341593e+000
 1.031843305638912e+000	 3.605246093207198e+000	 9.247348354297897e+000
 1.389557528603505e+000	 3.509950836528365e+000	 9.343983146993010e+000
 1.354674001213380e+000	 3.523561174517189e+000	 9.168565891594064e+000
 1.319730905153325e+000	 3.536797327823012e+000	 9.018687841640540e+000
 1.284733974416420e+000	 3.549659647780074e+000	 8.895546382175418e+000
 1.249688910358818e+000	 3.562148597042228e+000	 8.801177904177605e+000
 1.214601379152982e+000	 3.574264748144659e+000	 8.839515051133207e+000
 1.179477009301037e+000	 3.586008782000778e+000	 8.902255931235418e+000
 1.144321389209951e+000	 3.597381486336912e+000	 8.983561702514590e+000
 1.109140064830153e+000	 3.608383754067450e+000	 9.077985683896406e+000
 1.073938537359064e+000	 3.619016581613070e+000	 9.180474245360207e+000
 1.038722261010886e+000	 3.629281067164810e+000	 9.286366815158894e+000
 1.398759896341848e+000	 3.533195544057530e+000	 9.423213312284108e+000
 1.363645352213865e+000	 3.546896016735199e+000	 9.278592366506226e+000
 1.328470844921530e+000	 3.560219826685568e+000	 9.154348605168936e+000
 1.293242146431385e+000	 3.573167327569589e+000	 9.051663424500147e+000
 1.257964995856909e+000	 3.585738985105054e+000	 8.971628751277258e+000
 1.222645096894885e+000	 3.597935375618769e+000	 8.992144332908136e+000
 1.187288115322284e+000	 3.609757184533504e+000	 9.050334222692607e+000
 1.151899676555395e+000	 3.621205204792322e+000	 9.117173876855114e+000
 1.116485363272793e+000	 3.632280335222947e+000	 9.187095232461667e+000
 1.081050713103668e+000	 3.642983578844875e+000	 9.254939698631130e+000
 1.045601216382847e+000	 3.653316041121927e+000	 9.315958041257041e+000
 1.407962264080697e+000	 3.556440251585694e+000	 9.505651658557133e+000
 1.372616703214941e+000	 3.570230858952214e+000	 9.389692391548707e+000
 1.337210784690379e+000	 3.583642325547142e+000	 9.289048480659650e+000
 1.301750318447017e+000	 3.596675007358150e+000	 9.204886240723010e+000
 1.266241081355659e+000	 3.609329373166961e+000	 9.138286504165071e+000
 1.230688814637408e+000	 3.621606003092005e+000	 9.140958681260608e+000
 1.195099221344086e+000	 3.633505587065414e+000	 9.193626321121251e+000
 1.159477963901295e+000	 3.645028923246981e+000	 9.245006109571794e+000
 1.123830661715762e+000	 3.656176916377770e+000	 9.289407300233654e+000
 1.088162888848445e+000	 3.666950576076089e+000	 9.321565165244584e+000
 1.052480171754797e+000	 3.677351015078551e+000	 9.336640757071438e+000
 1.417164631820050e+000	 3.579684959112860e+000	 9.591271775866748e+000
 1.381588054216606e+000	 3.593565701168235e+000	 9.501870878669759e+000
 1.345950724459871e+000	 3.607064824407739e+000	 9.422822238058171e+000
 1.310258490463315e+000	 3.620182687145757e+000	 9.355277995066642e+000
 1.274517166855068e+000	 3.632919761227950e+000	 9.300308710344897e+000
 1.238732532380554e+000	 3.645276630564371e+000	 9.286302400258363e+000
 1.202910327366441e+000	 3.657253989596509e+000	 9.332515969446666e+000
 1.167056251247652e+000	 3.668852641700889e+000	 9.367478844916448e+000
 1.131175960159060e+000	 3.680073497531919e+000	 9.385376286004899e+000
 1.095275064593396e+000	 3.690917573306717e+000	 9.380836244875592e+000
 1.059359127126733e+000	 3.701385989034681e+000	 9.348929004986401e+000
 1.426366999559909e+000	 3.602929666639025e+000	 9.680050543453641e+000
 1.390559405218861e+000	 3.616900543383259e+000	 9.615135058563528e+000
 1.354690664230007e+000	 3.630487323267354e+000	 9.555706037209687e+000
 1.318766662480280e+000	 3.643690366932413e+000	 9.502902354551148e+000
 1.282793252355136e+000	 3.656510149288022e+000	 9.457785123119274e+000
 1.246776250124320e+000	 3.668947258035864e+000	 9.428518648259660e+000
 1.210721433389350e+000	 3.681002392126788e+000	 9.467385003646932e+000
 1.174634538594466e+000	 3.692676360154049e+000	 9.485009901033962e+000
 1.138521258602688e+000	 3.703970078685392e+000	 9.475453285397794e+000
 1.102387240338519e+000	 3.714884570536753e+000	 9.433234599055540e+000
 1.066238082498657e+000	 3.725420962990318e+000	 9.353332296326716e+000
 1.435569367300273e+000	 3.626174374164190e+000	 9.771968024321863e+000
 1.399530756221705e+000	 3.640235385597289e+000	 9.729494406351217e+000
 1.363430604000785e+000	 3.653909822125991e+000	 9.687737383311070e+000
 1.327274834497910e+000	 3.667198046718112e+000	 9.647823472878843e+000
 1.291069337855863e+000	 3.680100537347176e+000	 9.610805164328562e+000
 1.254819967868708e+000	 3.692617885506485e+000	 9.577659553053913e+000
 1.218532539412814e+000	 3.704750794656250e+000	 9.598613413872871e+000
 1.182212825941735e+000	 3.716500078606457e+000	 9.598014554132288e+000
 1.145866557046644e+000	 3.727866659838192e+000	 9.560086196735426e+000
 1.109499416083815e+000	 3.738851567766201e+000	 9.479238077394600e+000
 1.073117037870568e+000	 3.749455936945461e+000	 9.350355756583925e+000
 1.444771735041142e+000	 3.649419081688354e+000	 9.867007363845149e+000
 1.408502107225139e+000	 3.663570227810325e+000	 9.844960570102636e+000
 1.372170543772207e+000	 3.677332320983648e+000	 9.818955084065211e+000
 1.335783006516208e+000	 3.690705726502858e+000	 9.790105974934729e+000
 1.299345423357249e+000	 3.703690925405412e+000	 9.759457934907070e+000
 1.262863685613718e+000	 3.716288512976234e+000	 9.727983839417634e+000
 1.226343645436830e+000	 3.728499197184897e+000	 9.726579403232485e+000
 1.189791113289461e+000	 3.740323797058116e+000	 9.706905619435842e+000
 1.153211855490931e+000	 3.751763240990319e+000	 9.650365099746894e+000
 1.116611591829284e+000	 3.762818564995061e+000	 9.596659987389520e+000
 1.079995993242467e+000	 3.773490910900110e+000	 9.487048932373817e+000
 1.453974102782516e+000	 3.672663789211519e+000	 9.965154692223523e+000
 1.417473458229163e+000	 3.686905070022366e+000	 9.961547302071885e+000
 1.380910483544273e+000	 3.700754819840327e+000	 9.949399208462593e+000
 1.344291178535171e+000	 3.714213406286652e+000	 9.929814941875732e+000
 1.307621508859294e+000	 3.727281313462730e+000	 9.903832225038338e+000
 1.270907403359349e+000	 3.739959140445111e+000	 9.872420458817238e+000
 1.234154751461400e+000	 3.752247599712728e+000	 9.866819022739531e+000
 1.197369400637643e+000	 3.764147515509024e+000	 9.901436888097882e+000
 1.160557153935546e+000	 3.775659822141769e+000	 9.871338761196270e+000
 1.123723767574925e+000	 3.786785562223331e+000	 9.778341907395959e+000
 1.086874948614353e+000	 3.797525884854265e+000	 9.624200693918697e+000
 1.463176470524395e+000	 3.695908496733685e+000	 1.006639903062085e+001
 1.426444809233777e+000	 3.710239912233413e+000	 1.007927039252818e+001
 1.389650423316982e+000	 3.724177318696026e+000	 1.007911104711808e+001
 1.352799350554802e+000	 3.737721086069491e+000	 1.006701589678246e+001
 1.315897594361998e+000	 3.750871701519130e+000	 1.005093470522464e+001
 1.278951121105601e+000	 3.763629767913117e+000	 1.011189266491090e+001
 1.241965857486524e+000	 3.775996002239742e+000	 1.015102195254695e+001
 1.204947687986281e+000	 3.787971233959182e+000	 1.015581094728825e+001
 1.167902452380490e+000	 3.799556403292545e+000	 1.009075107778128e+001
 1.130835943320740e+000	 3.810752559451013e+000	 9.957655132926442e+000
 1.093753903986227e+000	 3.821560858807927e+000	 9.758276109476444e+000
 1.472378838266780e+000	 3.719153204254850e+000	 1.017073220082223e+001
 1.435416160238980e+000	 3.733574754443465e+000	 1.019814760606772e+001
 1.398390363090334e+000	 3.747599817550745e+000	 1.020813307409508e+001
 1.361307522575099e+000	 3.761228765851378e+000	 1.029650268649622e+001
 1.324173679865361e+000	 3.774462089574614e+000	 1.037528897972944e+001
 1.286994838852475e+000	 3.787300395380251e+000	 1.042193916057553e+001
 1.249776963512203e+000	 3.799744404765943e+000	 1.043527341510775e+001
 1.212525975335377e+000	 3.811794952408592e+000	 1.040925621674242e+001
 1.175247750825765e+000	 3.823452984442649e+000	 1.030835675698260e+001
 1.137948119066728e+000	 3.834719556678107e+000	 1.013438295608435e+001
 1.100632859358089e+000	 3.845595832761096e+000	 9.889085968222345e+000
 1.031843305638912e+000	 3.605246093207198e+000	 9.247348354297897e+000
 9.968509677335214e-001	 3.615077889630200e+000	 9.266823398631651e+000
 9.618546662704745e-001	 3.624546261385974e+000	 9.279455371992640e+000
 9.268596667103948e-001	 3.633652591837827e+000	 9.282325571181248e+000
 8.918711796614018e-001	 3.642398358063881e+000	 9.272889534809359e+000
 8.568943590090273e-001	 3.650785128904496e+000	 9.248972620694005e+000
 8.219343001176299e-001	 3.658814562972306e+000	 9.208764886882383e+000
 7.869960381038450e-001	 3.666488406627660e+000	 9.150815307405312e+000
 7.520845461825005e-001	 3.673808491922170e+000	 9.074025354781091e+000
 7.172047340853255e-001	 3.680776734513124e+000	 8.977641982086409e+000
 6.823614465526605e-001	 3.687395131551449e+000	 8.861250038074736e+000
 1.038722261010886e+000	 3.629281067164810e+000	 9.286366815158894e+000
 1.003496640853508e+000	 3.639178408896960e+000	 9.267741459013767e+000
 9.682670307146524e-001	 3.648709903130721e+000	 9.243114773717597e+000
 9.330387311580148e-001	 3.657876942451823e+000	 9.209498992831962e+000
 8.978169875291034e-001	 3.666681013785578e+000	 9.164286523660961e+000
 8.626069880726867e-001	 3.675123696431280e+000	 9.105245485641049e+000
 8.274138621222203e-001	 3.683206660058982e+000	 9.030514539371927e+000
 7.922426783617848e-001	 3.690931662671435e+000	 8.938597037903797e+000
 7.570984431609736e-001	 3.698300548533930e+000	 8.828354532839667e+000
 7.219860989830624e-001	 3.705315246074803e+000	 8.698999668622726e+000
 6.869105228666611e-001	 3.711977765759321e+000	 8.550088499058917e+000
 1.045601216382847e+000	 3.653316041121927e+000	 9.315958041257041e+000
 1.010142313973292e+000	 3.663278928163324e+000	 9.259632810946824e+000
 9.746793951584590e-001	 3.672873544875174e+000	 9.197971875015341e+000
 9.392177956051151e-001	 3.682101293065625e+000	 9.127918296996873e+000
 9.037627953961567e-001	 3.690963669507182e+000	 9.046801446663769e+000
 8.683196171355896e-001	 3.699462263958071e+000	 8.952332496102988e+000
 8.328934241259661e-001	 3.707598757145765e+000	 8.842599193184462e+000
 7.974893186188113e-001	 3.715374918715417e+000	 8.716059944566492e+000
 7.621123401384853e-001	 3.722792605145996e+000	 8.571537241347050e+000
 7.267674638798087e-001	 3.729853757636888e+000	 8.408210461298529e+000
 6.914595991796617e-001	 3.736560399967698e+000	 8.225608082319017e+000
 1.052480171754797e+000	 3.677351015078551e+000	 9.336640757071438e+000
 1.016787987092874e+000	 3.687379447429296e+000	 9.243012582578079e+000
 9.810917596018945e-001	 3.697037186619333e+000	 9.144538368337797e+000
 9.453968600516957e-001	 3.706325643679235e+000	 9.038091892250938e+000
 9.097086032625616e-001	 3.715246325228693e+000	 8.920939572164151e+000
 8.740322461977363e-001	 3.723800831484869e+000	 8.790735916320585e+000
 8.383729861288674e-001	 3.731990854232656e+000	 8.645518237691222e+000
 8.027359588749252e-001	 3.739818174759607e+000	 8.483700664875778e+000
 7.671262371150359e-001	 3.747284661758370e+000	 8.304067483245399e+000
 7.315488287755649e-001	 3.754392269199381e+000	 8.176441206125988e+000
 6.960086754916622e-001	 3.761143034176585e+000	 8.090477397526520e+000
 1.059359127126733e+000	 3.701385989034681e+000	 9.348929004986401e+000
 1.023433660212254e+000	 3.711479966694873e+000	 9.218391425952992e+000
 9.875041240449586e-001	 3.721200828363198e+000	 9.083321642353781e+000
 9.515759244977561e-001	 3.730549994292652e+000	 8.940524022215511e+000
 9.156544111283184e-001	 3.739528980950109e+000	 8.787202109098462e+000
 8.797448752591266e-001	 3.748139399011674e+000	 8.620954023602314e+000
 8.438525481309244e-001	 3.756382951319652e+000	 8.511275972393682e+000
 8.079825991301267e-001	 3.764261430804004e+000	 8.423737419471648e+000
 7.721401340906250e-001	 3.771776718371052e+000	 8.341459270563746e+000
 7.363301936703308e-001	 3.778930780762282e+000	 8.265795607437660e+000
 7.005577518026629e-001	 3.785725668385978e+000	 8.198008239629635e+000
 1.066238082498657e+000	 3.725420962990318e+000	 9.353332296326716e+000
 1.030079333331432e+000	 3.735580485960057e+000	 9.186275661405814e+000
 9.939164884876516e-001	 3.745364470106771e+000	 9.014824920780777e+000
 9.577549889432969e-001	 3.754774344905874e+000	 8.873187284492934e+000
 9.216002189934274e-001	 3.763811636671434e+000	 8.768150570320559e+000
 8.854575043197607e-001	 3.772477966538485e+000	 8.668725625761795e+000
 8.493321101321368e-001	 3.780775048406757e+000	 8.576523307321036e+000
 8.132292393844149e-001	 3.788704686848607e+000	 8.493050291967116e+000
 7.771540310652526e-001	 3.796268774984041e+000	 8.419711306108425e+000
 7.411115585641064e-001	 3.803469292325590e+000	 8.357811477784781e+000
 7.051068281126635e-001	 3.810308302595879e+000	 8.308558801790660e+000
 1.073117037870568e+000	 3.749455936945461e+000	 9.350355756583925e+000
 1.036725006450407e+000	 3.759681005224847e+000	 9.210678569483077e+000
 1.000328852929973e+000	 3.769528111850049e+000	 9.079502611508072e+000
 9.639340533883177e-001	 3.778998695518903e+000	 8.955397377936869e+000
 9.275460268578878e-001	 3.788094292392663e+000	 8.840166042525654e+000
 8.911701333796380e-001	 3.796816534065304e+000	 8.735497834986779e+000
 8.548116721325048e-001	 3.805167145493967e+000	 8.642970156638969e+000
 8.184758796377906e-001	 3.813147942893417e+000	 8.564050844529445e+000
 7.821679280389191e-001	 3.820760831597336e+000	 8.500100573252610e+000
 7.458929234568915e-001	 3.828007803889304e+000	 8.452375383701090e+000
 7.096559044216639e-001	 3.834890936806286e+000	 8.422029328030726e+000
 1.079995993242467e+000	 3.773490910900110e+000	 9.487048932373817e+000
 1.043370679569180e+000	 3.783781524489244e+000	 9.326246029006240e+000
 1.006741217371923e+000	 3.793691753593033e+000	 9.175576259714813e+000
 9.701131178328185e-001	 3.803223046131738e+000	 9.036942224193279e+000
 9.334918347216998e-001	 3.812376948113800e+000	 8.912124746042197e+000
 8.968827624387593e-001	 3.821155101592128e+000	 8.802784988907494e+000
 8.602912341320280e-001	 3.829559242581284e+000	 8.710466736880875e+000
 8.237225198902534e-001	 3.837591198938436e+000	 8.636598827965399e+000
 7.871818250116240e-001	 3.845252888210939e+000	 8.582497729388182e+000
 7.506742883486861e-001	 3.852546315453426e+000	 8.549370243557158e+000
 7.142049807296647e-001	 3.859473571017202e+000	 8.538316333507666e+000
 1.086874948614353e+000	 3.797525884854265e+000	 9.624200693918697e+000
 1.050016352687752e+000	 3.807882043753248e+000	 9.439641423575472e+000
 1.013153581813503e+000	 3.817855395335725e+000	 9.270161937816770e+000
 9.762921822767995e-001	 3.827447396744380e+000	 9.117648181775834e+000
 9.394376425848640e-001	 3.836659603834843e+000	 8.983858449008112e+000
 9.025953914971243e-001	 3.845493669118960e+000	 8.870425658020251e+000
 8.657707961307070e-001	 3.853951339668710e+000	 8.778859798101449e+000
 8.289691601418034e-001	 3.862034454983661e+000	 8.710550532813551e+000
 7.921957219833679e-001	 3.869744944824850e+000	 8.666769949477061e+000
 7.554556532394906e-001	 3.877084827017957e+000	 8.648675443008417e+000
 7.187540570366653e-001	 3.884056205228624e+000	 8.657312722518084e+000
 1.093753903986227e+000	 3.821560858807927e+000	 9.758276109476444e+000
 1.056662025806120e+000	 3.831982563016857e+000	 9.550680721652970e+000
 1.019565946254710e+000	 3.842019037078121e+000	 9.363078341502767e+000
 9.824712467202608e-001	 3.851671747356828e+000	 9.197338066583448e+000
 9.453834504473798e-001	 3.860942259555793e+000	 9.055195466719546e+000
 9.083080205547327e-001	 3.869832236645799e+000	 8.938255021627363e+000
 8.712503581285412e-001	 3.878343436756241e+000	 8.847992732885409e+000
 8.342158003924408e-001	 3.886477711029093e+000	 8.785758898157923e+000
 7.972096189541502e-001	 3.894237001439067e+000	 8.752781035561503e+000
 7.602370181293044e-001	 3.901623338582893e+000	 8.750166946086875e+000
 7.233031333426661e-001	 3.908638839440555e+000	 8.778907902046557e+000
 1.100632859358089e+000	 3.845595832761096e+000	 9.889085968222345e+000
 1.063307698924287e+000	 3.856083082280073e+000	 9.659176203407665e+000
 1.025978310695547e+000	 3.866182678820226e+000	 9.454140620158389e+000
 9.886503111632020e-001	 3.875896097969085e+000	 9.275831262606930e+000
 9.513292583092478e-001	 3.885224915276651e+000	 9.125960769532108e+000
 9.140206496115850e-001	 3.894170804172645e+000	 9.006104973811947e+000
 8.767299201255315e-001	 3.902735533843882e+000	 8.917705681268457e+000
 8.394624406421656e-001	 3.910920967074734e+000	 8.862073616360785e+000
 8.022235159239715e-001	 3.918729058053593e+000	 8.840391522167879e+000
 7.650183830181282e-001	 3.926161850148238e+000	 8.853717402126881e+000
 7.278522096476668e-001	 3.933221473652993e+000	 8.902987891056418e+000
 6.823614465526605e-001	 3.687395131551449e+000	 8.861250038074736e+000
 6.475594618980655e-001	 3.693665759545780e+000	 9.465715443638505e+000
 6.128034906466536e-001	 3.699590772205656e+000	 9.697847117243853e+000
 5.780981742462332e-001	 3.705172398266263e+000	 9.446369593428406e+000
 5.434480838508562e-001	 3.710412939297010e+000	 9.222850871109690e+000
 5.088577191772321e-001	 3.715314767496883e+000	 9.030927715930243e+000
 4.743315074333467e-001	 3.719880323478916e+000	 8.873496344493352e+000
 4.398738023188180e-001	 3.724112114046291e+000	 8.752732740371506e+000
 4.054888830964485e-001	 3.728012709962431e+000	 8.670113831024299e+000
 3.711809537343516e-001	 3.731584743717474e+000	 8.626439448072050e+000
 3.369541421179410e-001	 3.734830907293413e+000	 8.621854994028476e+000
 6.869105228666611e-001	 3.711977765759321e+000	 8.550088499058917e+000
 6.518765249807942e-001	 3.718290197939601e+000	 9.053630189967732e+000
 6.168888472541161e-001	 3.724254710683340e+000	 9.278076084806799e+000
 5.819521620774202e-001	 3.729873547583952e+000	 8.965259669206178e+000
 5.470710710791198e-001	 3.735149025554649e+000	 8.694713778835027e+000
 5.122501039740348e-001	 3.740083532609068e+000	 8.470072591243723e+000
 4.774937174848724e-001	 3.744679525630999e+000	 8.294206701014478e+000
 4.428062943359139e-001	 3.748939528135642e+000	 8.169244070511194e+000
 4.081921423183810e-001	 3.752866128024844e+000	 8.169054882697779e+000
 3.736554934268416e-001	 3.756461975338673e+000	 8.230457916206515e+000
 3.392005030659454e-001	 3.759729780005672e+000	 8.321059503548710e+000
 6.914595991796617e-001	 3.736560399967698e+000	 8.225608082319017e+000
 6.561935880625281e-001	 3.742914636334019e+000	 8.629032715247263e+000
 6.209742038605993e-001	 3.748918649161690e+000	 8.836287569311928e+000
 5.858061499076541e-001	 3.754574696902358e+000	 8.576522812118025e+000
 5.506940583064660e-001	 3.759885111813030e+000	 8.405599305687238e+000
 5.156424887699670e-001	 3.764852297722003e+000	 8.291677828260861e+000
 4.806559275355834e-001	 3.769478727783819e+000	 8.227761513709790e+000
 4.457387863522613e-001	 3.773766942225699e+000	 8.207487234848559e+000
 4.108954015396412e-001	 3.777719546087911e+000	 8.225112889838329e+000
 3.761300331187448e-001	 3.781339206960455e+000	 8.275503866859681e+000
 3.414468640134582e-001	 3.784628652718419e+000	 8.354118746224255e+000
 6.960086754916622e-001	 3.761143034176585e+000	 8.090477397526520e+000
 6.605106511432675e-001	 3.767539074729034e+000	 8.549664593394008e+000
 6.250595604661036e-001	 3.773582587640705e+000	 8.907849745050701e+000
 5.896601377369348e-001	 3.779275846221478e+000	 8.670424318140240e+000
 5.543170455328952e-001	 3.784621198072152e+000	 8.495407220677498e+000
 5.190348735650283e-001	 3.789621062835687e+000	 8.376117727260157e+000
 4.838181375854797e-001	 3.794277929937377e+000	 8.305556143130300e+000
 4.486712783678602e-001	 3.798594356316461e+000	 8.277367095201369e+000
 4.135986607602287e-001	 3.802572964151630e+000	 8.285826494999020e+000
 3.786045728100609e-001	 3.806216438582819e+000	 8.325827667792868e+000
 3.436932249604792e-001	 3.809527525431660e+000	 8.392866708240955e+000
 7.005577518026629e-001	 3.785725668385978e+000	 8.198008239629635e+000
 6.648277142230121e-001	 3.792163513124647e+000	 8.617612336761264e+000
 6.291449170706286e-001	 3.798246526120384e+000	 8.939993160757986e+000
 5.935141255652624e-001	 3.803976995541310e+000	 8.763053256296454e+000
 5.579400327584075e-001	 3.809357284332017e+000	 8.585602015258456e+000
 5.224272583592184e-001	 3.814389827950121e+000	 8.462385415860181e+000
 4.869803476345614e-001	 3.819077132091672e+000	 8.386401745181100e+000
 4.516037703827107e-001	 3.823421770407929e+000	 8.351304446198949e+000
 4.163019199801437e-001	 3.827426382216003e+000	 8.351388750139444e+000
 3.810791125007904e-001	 3.831093670205766e+000	 8.381577462721848e+000
 3.459395859070087e-001	 3.834426398145392e+000	 8.437405965795618e+000
 7.051068281126635e-001	 3.810308302595879e+000	 8.308558801790660e+000
 6.691447773017617e-001	 3.816787951520856e+000	 8.690923364863304e+000
 6.332302736741743e-001	 3.822910464600731e+000	 8.979811344513744e+000
 5.973681133926367e-001	 3.828678144861858e+000	 8.854815300195124e+000
 5.615630199830025e-001	 3.834093370592623e+000	 8.676548954948824e+000
 5.258196431525382e-001	 3.839158593065305e+000	 8.550804956460928e+000
 4.901425576828286e-001	 3.843876334246704e+000	 8.470580403937673e+000
 4.545362623968127e-001	 3.848249184500100e+000	 8.429538639278855e+000
 4.190051791993861e-001	 3.852279800281029e+000	 8.421995541660504e+000
 3.835536521909326e-001	 3.855970901829293e+000	 8.442904963500933e+000
 3.481859468530463e-001	 3.859325270859617e+000	 8.487843370500549e+000
 7.096559044216639e-001	 3.834890936806286e+000	 8.422029328030726e+000
 6.734618403795165e-001	 3.841412389917662e+000	 8.769473989360858e+000
 6.373156302767410e-001	 3.847574403081744e+000	 9.027157839878454e+000
 6.012221012190578e-001	 3.853379294183118e+000	 8.946114934160516e+000
 5.651860072066806e-001	 3.858829456853971e+000	 8.768612953256495e+000
 5.292120279449868e-001	 3.863927358181238e+000	 8.641700871461055e+000
 4.933047677302811e-001	 3.868675536402473e+000	 8.558375450126796e+000
 4.574687544101661e-001	 3.873076598592977e+000	 8.512311033748837e+000
 4.217084384179559e-001	 3.877133218346708e+000	 8.497845499556810e+000
 3.860281918804882e-001	 3.880848133453403e+000	 8.509965335759738e+000
 3.504323077985923e-001	 3.884224143574332e+000	 8.544289912351193e+000
 7.142049807296647e-001	 3.859473571017202e+000	 8.538316333507666e+000
 6.777789034562769e-001	 3.866036828315065e+000	 8.853137676345718e+000
 6.414009868783286e-001	 3.872238341563422e+000	 9.081884204040762e+000
 6.050760890445256e-001	 3.878080443505093e+000	 9.037355491107965e+000
 5.688089944294413e-001	 3.883565543116061e+000	 8.862158582889252e+000
 5.326044127365643e-001	 3.888696123297920e+000	 8.735398128608253e+000
 4.964669777769190e-001	 3.893474738558979e+000	 8.650071421424395e+000
 4.604012464227710e-001	 3.897904012686559e+000	 8.599864932842264e+000
 4.244116976358532e-001	 3.901986636413041e+000	 8.579139910041178e+000
 3.885027315694566e-001	 3.905725365078096e+000	 8.582917088910017e+000
 3.526786687436464e-001	 3.909123016289539e+000	 8.606860587930308e+000
 7.187540570366653e-001	 3.884056205228624e+000	 8.657312722518084e+000
 6.820959665320421e-001	 3.890661266713064e+000	 8.941785136390584e+000
 6.454863434789370e-001	 3.896902280045765e+000	 9.143840070677200e+000
 6.089300768690401e-001	 3.902781592827782e+000	 9.128939188981025e+000
 5.724319816512852e-001	 3.908301629378893e+000	 8.957550086539509e+000
 5.359967975272713e-001	 3.913464888415352e+000	 8.832222126906089e+000
 4.996291878227421e-001	 3.918273940716222e+000	 8.745954024261105e+000
 4.633337384346276e-001	 3.922731426780847e+000	 8.692445522201084e+000
 4.271149568530779e-001	 3.926840054480027e+000	 8.666082631486964e+000
 3.909772712578382e-001	 3.930602596703370e+000	 8.661921970330209e+000
 3.549250296882090e-001	 3.934021889005239e+000	 8.675674273617291e+000
 7.233031333426661e-001	 3.908638839440555e+000	 8.778907902046557e+000
 6.864130296068128e-001	 3.915285705111661e+000	 9.035284411200482e+000
 6.495717000785661e-001	 3.921566218528774e+000	 9.212873210440135e+000
 6.127840646926014e-001	 3.927482742151186e+000	 9.221267165813119e+000
 5.760549688722118e-001	 3.933037715642467e+000	 9.055151387262164e+000
 5.393891823171073e-001	 3.938233653533534e+000	 8.932498683052282e+000
 5.027913978677507e-001	 3.943073142874203e+000	 8.846310097068683e+000
 4.662662304457357e-001	 3.947558840875840e+000	 8.790299810680850e+000
 4.298182160696302e-001	 3.951693472547667e+000	 8.758880013542617e+000
 3.934518109456329e-001	 3.955479828329227e+000	 8.747144863542124e+000
 3.571713906322799e-001	 3.958920761721430e+000	 8.750853603582010e+000
 7.278522096476668e-001	 3.933221473652993e+000	 8.902987891056418e+000
 6.907300926805886e-001	 3.939910143510855e+000	 9.133500957015050e+000
 6.536570566772164e-001	 3.946230157012450e+000	 9.288829589177155e+000
 6.166380525152096e-001	 3.952183891475303e+000	 9.314739513475178e+000
 5.796779560922215e-001	 3.957773801906784e+000	 9.155326098463219e+000
 5.427815671060725e-001	 3.963002418652466e+000	 9.036554018385804e+000
 5.059536079119449e-001	 3.967872345032923e+000	 8.951427574905120e+000
 4.691987224560952e-001	 3.972386254971538e+000	 8.893676573375275e+000
 4.325214752855099e-001	 3.976546890615961e+000	 8.857740819279282e+000
 3.959263506328407e-001	 3.980357059955667e+000	 8.838753690206712e+000
 3.594177515758589e-001	 3.983819634438112e+000	 8.832524852353750e+000
 3.369541421179410e-001	 3.734830907293413e+000	 8.621854994028476e+000
 3.028124993314788e-001	 3.737753949930092e+000	 8.661994042845118e+000
 2.687599990069305e-001	 3.740356675894433e+000	 8.698263194928281e+000
 2.348005367401518e-001	 3.742641942254912e+000	 8.729131863694986e+000
 2.009379295743538e-001	 3.744612656663184e+000	 8.752542746036150e+000
 1.671759155483958e-001	 3.746271775145075e+000	 8.765936040167466e+000
 1.335181533092915e-001	 3.747622299902811e+000	 8.766273919666380e+000
 9.996822178776361e-002	 3.748667277130346e+000	 8.750065198271420e+000
 6.652961993565144e-002	 3.749409794843583e+000	 8.713390121990033e+000
 3.320576652392401e-002	 3.749852980727242e+000	 8.651925227140398e+000
 0.000000000000000e+000	 3.750000000000000e+000	 8.560968205130518e+000
 3.392005030659454e-001	 3.759729780005672e+000	 8.321059503548710e+000
 3.048312493272241e-001	 3.762672309593844e+000	 8.436906565351238e+000
 2.705517323335631e-001	 3.765292387065135e+000	 8.537062754677038e+000
 2.363658736514568e-001	 3.767592888535141e+000	 8.618730919162141e+000
 2.022775157710701e-001	 3.769576741039862e+000	 8.679664401988365e+000
 1.682904216515211e-001	 3.771246920311963e+000	 8.718149402743073e+000
 1.344082743308025e-001	 3.772606448568355e+000	 8.732986912844535e+000
 1.006346765991747e-001	 3.773658392310948e+000	 8.723474280714736e+000
 6.697315073482200e-002	 3.774405860142423e+000	 8.689386460693935e+000
 3.342713830051906e-002	 3.774852000598727e+000	 8.630956998395314e+000
 0.000000000000000e+000	 3.775000000000000e+000	 8.548858803801794e+000
 3.414468640134582e-001	 3.784628652718419e+000	 8.354118746224255e+000
 3.068499993225725e-001	 3.787590669257995e+000	 8.451431841881831e+000
 2.723434656598832e-001	 3.790228098236149e+000	 8.536078138237835e+000
 2.379312105625233e-001	 3.792543834815608e+000	 8.605296093357664e+000
 2.036171019676119e-001	 3.794540825416714e+000	 8.656879961453035e+000
 1.694049277545255e-001	 3.796222065478974e+000	 8.689161861410664e+000
 1.352983953522364e-001	 3.797590597233975e+000	 8.700993416429082e+000
 1.013011314105427e-001	 3.798649507491593e+000	 8.691727020802933e+000
 6.741668153397343e-002	 3.799401925441281e+000	 8.661196788682815e+000
 3.364851007710933e-002	 3.799851020470218e+000	 8.609699238316347e+000
 0.000000000000000e+000	 3.800000000000000e+000	 8.537973763852669e+000
 3.436932249604792e-001	 3.809527525431660e+000	 8.392866708240955e+000
 3.088687493175238e-001	 3.812509028922540e+000	 8.472285544669957e+000
 2.741351989858907e-001	 3.815163809407477e+000	 8.541802269749800e+000
 2.394965474733513e-001	 3.817494781096314e+000	 8.598693715003311e+000
 2.049566881639790e-001	 3.819504909793741e+000	 8.640798028294169e+000
 1.705194338574090e-001	 3.821197210646104e+000	 8.666496441112740e+000
 1.361885163735933e-001	 3.822574745899673e+000	 8.674694603430256e+000
 1.019675862218674e-001	 3.823640622672282e+000	 8.664803543038584e+000
 6.786021233310573e-002	 3.824397990740158e+000	 8.636720305055356e+000
 3.386988185369484e-002	 3.824850040341713e+000	 8.590808325926687e+000
 0.000000000000000e+000	 3.824999999999999e+000	 8.527877594806236e+000
 3.459395859070087e-001	 3.834426398145392e+000	 8.437405965795618e+000
 3.108874993120783e-001	 3.837427388587484e+000	 8.499515510467262e+000
 2.759269323115856e-001	 3.840099520579116e+000	 8.554228653478040e+000
 2.410618843839407e-001	 3.842445727377258e+000	 8.598863381815544e+000
 2.062962743601715e-001	 3.844468994170943e+000	 8.631304738870437e+000
 1.716339399601717e-001	 3.846172355813355e+000	 8.649986281531882e+000
 1.370786373948731e-001	 3.847558894565447e+000	 8.653871101230354e+000
 1.026340410331490e-001	 3.848631737853014e+000	 8.642432466741203e+000
 6.830374313221890e-002	 3.849394056039055e+000	 8.615634145300856e+000
 3.409125363027557e-002	 3.849849060213211e+000	 8.573910457211078e+000
 0.000000000000000e+000	 3.850000000000000e+000	 8.518146117626420e+000
 3.481859468530463e-001	 3.859325270859617e+000	 8.487843370500549e+000
 3.129062493062357e-001	 3.862345748252824e+000	 8.533174752599019e+000
 2.777186656369678e-001	 3.865035231751069e+000	 8.573356818759214e+000
 2.426272212942916e-001	 3.867396673658439e+000	 8.605751512620833e+000
 2.076358605561894e-001	 3.869433078548318e+000	 8.628293794455326e+000
 1.727484460628136e-001	 3.871147500980726e+000	 8.639472779087937e+000
 1.379687584160758e-001	 3.872543043231299e+000	 8.638312434063996e+000
 1.033004958443873e-001	 3.873622853033789e+000	 8.624351896789433e+000
 6.874727393131293e-002	 3.874390121337970e+000	 8.597625468087580e+000
 3.431262540685155e-002	 3.874848080084716e+000	 8.558642338210452e+000
 0.000000000000000e+000	 3.875000000000000e+000	 8.508366099832998e+000
 3.504323077985923e-001	 3.884224143574332e+000	 8.544289912351193e+000
 3.149249992999961e-001	 3.887264107918561e+000	 8.573321295048114e+000
 2.795103989620376e-001	 3.889970942923332e+000	 8.599192126890250e+000
 2.441925582044041e-001	 3.892347619939861e+000	 8.619311128730313e+000
 2.089754467520326e-001	 3.894397162925869e+000	 8.631666218772008e+000
 1.738629521653346e-001	 3.896122646148220e+000	 8.634805322298909e+000
 1.388588794372014e-001	 3.897527191897228e+000	 8.627816737862631e+000
 1.039669506555825e-001	 3.898613968214609e+000	 8.610309119596630e+000
 6.919080473038783e-002	 3.899386186636904e+000	 8.582391134007191e+000
 3.453399718342276e-002	 3.899847099956226e+000	 8.544650848161213e+000
 0.000000000000000e+000	 3.900000000000000e+000	 8.498134904650296e+000
 3.526786687436464e-001	 3.909123016289539e+000	 8.606860587930308e+000
 3.169437492933597e-001	 3.912182467584696e+000	 8.620018012880207e+000
 2.813021322867946e-001	 3.914906654095911e+000	 8.631745585397265e+000
 2.457578951142780e-001	 3.917298566221521e+000	 8.639501643669519e+000
 2.103150329477012e-001	 3.919361247303594e+000	 8.641330124794125e+000
 1.749774582677347e-001	 3.921097791315833e+000	 8.635841037255540e+000
 1.397490004582500e-001	 3.922511340563233e+000	 8.622190485996665e+000
 1.046334054667344e-001	 3.923605083395470e+000	 8.600060310705281e+000
 6.963433552944359e-002	 3.924382251935859e+000	 8.569637396596175e+000
 3.475536895998920e-002	 3.924846119827740e+000	 8.531592715508056e+000
 0.000000000000000e+000	 3.924999999999999e+000	 8.487060153564462e+000
 3.549250296882090e-001	 3.934021889005239e+000	 8.675674273617291e+000
 3.189624992863263e-001	 3.937100827251227e+000	 8.673332478728259e+000
 2.830938656112391e-001	 3.939842365268800e+000	 8.671033669357145e+000
 2.473232320239134e-001	 3.942249512503419e+000	 8.666288660893107e+000
 2.116546191431952e-001	 3.944325331681494e+000	 8.657200490402653e+000
 1.760919643700140e-001	 3.946072936483568e+000	 8.642444542761565e+000
 1.406391214792215e-001	 3.947495489229316e+000	 8.621248225432447e+000
 1.052998602778431e-001	 3.948596198576375e+000	 8.593370253485501e+000
 7.007786632848025e-002	 3.949378317234833e+000	 8.559079605090821e+000
 3.497674073655088e-002	 3.949845139699259e+000	 8.519134206220173e+000
 0.000000000000000e+000	 3.949999999999999e+000	 8.474759401694874e+000
 3.571713906322799e-001	 3.958920761721430e+000	 8.750853603582010e+000
 3.209812492788959e-001	 3.962019186918155e+000	 8.733336815070430e+000
 2.848855989353711e-001	 3.964778076442002e+000	 8.717078149462191e+000
 2.488885689333103e-001	 3.967200458785556e+000	 8.699643779133094e+000
 2.129942053385145e-001	 3.969289416059570e+000	 8.679198942508117e+000
 1.772064704721725e-001	 3.971048081651423e+000	 8.654487714713554e+000
 1.415292425001159e-001	 3.972479637895476e+000	 8.624812322845612e+000
 1.059663150889087e-001	 3.973587313757323e+000	 8.590012068448621e+000
 7.052139712749775e-002	 3.974374382533824e+000	 8.550441918398892e+000
 3.519811251310778e-002	 3.974844159570782e+000	 8.506950823869085e+000
 0.000000000000000e+000	 3.974999999999999e+000	 8.460859825415769e+000
 3.594177515758589e-001	 3.983819634438112e+000	 8.832524852353750e+000
 3.229999992710687e-001	 3.986937546585482e+000	 8.800107552047345e+000
 2.866773322591905e-001	 3.989713787615519e+000	 8.769905926532093e+000
 2.504539058424687e-001	 3.992151405067931e+000	 8.739544405046269e+000
 2.143337915336593e-001	 3.994253500437819e+000	 8.707253549268474e+000
 1.783209765742101e-001	 3.996023226819399e+000	 8.671849459316965e+000
 1.424193635209333e-001	 3.997463786561714e+000	 8.632712720255125e+000
 1.066327698999310e-001	 3.998578428938315e+000	 8.589766952711482e+000
 7.096492792649614e-002	 3.999370447832837e+000	 8.543457029797379e+000
 3.541948428965995e-002	 3.999843179442312e+000	 8.494727020953597e+000
 0.000000000000000e+000	 4.000000000000000e+000	 8.444997921692020e+000
 4.000000000000000e+000	 0.000000000000000e+000	 1.045349955904971e+001
 3.999843179442312e+000	 3.541948428966008e-002	 1.036682570782168e+001
 3.999370447832837e+000	 7.096492792649639e-002	 1.032466160301729e+001
 3.998578428938315e+000	 1.066327698999308e-001	 1.031825582775403e+001
 3.997463786561714e+000	 1.424193635209332e-001	 1.033880262543728e+001
 3.996023226819399e+000	 1.783209765742101e-001	 1.037743211372387e+001
 3.994253500437819e+000	 2.143337915336594e-001	 1.042519975394953e+001
 3.992151405067931e+000	 2.504539058424689e-001	 1.047307507911290e+001
 3.989713787615519e+000	 2.866773322591902e-001	 1.051192968633334e+001
 3.986937546585482e+000	 3.229999992710685e-001	 1.053252450264288e+001
 3.983819634438112e+000	 3.594177515758590e-001	 1.052549633601678e+001
 4.025000000000000e+000	 0.000000000000000e+000	 1.054144525535753e+001
 4.024842199313842e+000	 3.564085606630336e-002	 1.044633222753692e+001
 4.024366513131858e+000	 7.140845872566287e-002	 1.039409929660410e+001
 4.023569544119328e+000	 1.072992247111839e-001	 1.037644566610162e+001
 4.022447935227990e+000	 1.433094845420294e-001	 1.038502825897480e+001
 4.020998371987436e+000	 1.794354826765600e-001	 1.041145145362183e+001
 4.019217584816155e+000	 2.156733777291350e-001	 1.044725603851859e+001
 4.017102351350426e+000	 2.520192427519619e-001	 1.048390738835715e+001
 4.014649498789190e+000	 2.884690655833327e-001	 1.051278286755509e+001
 4.011855906253005e+000	 3.250187492635375e-001	 1.052515847002318e+001
 4.008718507155041e+000	 3.616641125196922e-001	 1.051219470722450e+001
 4.050000000000000e+000	 0.000000000000000e+000	 1.062486692270450e+001
 4.049841219185373e+000	 3.586222784313369e-002	 1.052257258322561e+001
 4.049362578430878e+000	 7.185198952518471e-002	 1.046145784981976e+001
 4.048560659300342e+000	 1.079656795229416e-001	 1.043367673820905e+001
 4.047432083894265e+000	 1.441996055637604e-001	 1.043135320012523e+001
 4.045973517155471e+000	 1.805499887796554e-001	 1.044657037682768e+001
 4.044181669194492e+000	 2.170129639254472e-001	 1.047135903387158e+001
 4.042053297632920e+000	 2.535845796623626e-001	 1.049768517991001e+001
 4.039585209962861e+000	 2.902607989084342e-001	 1.051743687532174e+001
 4.036774265920530e+000	 3.270374992569963e-001	 1.052241023958198e+001
 4.033617379871969e+000	 3.639104734645255e-001	 1.050429466953646e+001
 4.074999999999999e+000	 0.000000000000000e+000	 1.070541449842489e+001
 4.074840239056903e+000	 3.608359962015106e-002	 1.059692882903111e+001
 4.074358643729899e+000	 7.229552032506183e-002	 1.052785052891913e+001
 4.073551774481353e+000	 1.086321343352040e-001	 1.049079274283254e+001
 4.072416232560542e+000	 1.450897265861261e-001	 1.047835092846335e+001
 4.070948662323509e+000	 1.816644948834962e-001	 1.048309162275325e+001
 4.069145753572830e+000	 2.183525501225959e-001	 1.049754035167712e+001
 4.067004243915415e+000	 2.551499165736712e-001	 1.051416868613940e+001
 4.064520921136532e+000	 2.920525322344943e-001	 1.052538044970417e+001
 4.061692625588053e+000	 3.290562492514447e-001	 1.052349708710646e+001
 4.058516252588897e+000	 3.661568344103587e-001	 1.050074220583112e+001
 4.100000000000000e+000	 0.000000000000000e+000	 1.078469767748162e+001
 4.099839258928435e+000	 3.630497139735547e-002	 1.067074590467558e+001
 4.099354709028920e+000	 7.273905112529436e-002	 1.059435661474287e+001
 4.098542889662367e+000	 1.092985891479710e-001	 1.054860652220943e+001
 4.097400381226816e+000	 1.459798476091267e-001	 1.052656719464237e+001
 4.095923807491546e+000	 1.827790009880826e-001	 1.052129332697961e+001
 4.094109837951166e+000	 2.196921363205812e-001	 1.052581012113283e+001
 4.091955190197909e+000	 2.567152534858873e-001	 1.053309977332792e+001
 4.089456632310204e+000	 2.938442655615133e-001	 1.053608707483906e+001
 4.086610985255576e+000	 3.310749992468828e-001	 1.052762413508838e+001
 4.083415125305826e+000	 3.684031953571920e-001	 1.050047423952526e+001
 4.125000000000000e+000	 0.000000000000000e+000	 1.086428713193235e+001
 4.124838278799966e+000	 3.652634317474693e-002	 1.074533276013938e+001
 4.124350774327941e+000	 7.318258192588219e-002	 1.066202243257817e+001
 4.123534004843379e+000	 1.099650439612427e-001	 1.060790099710462e+001
 4.122384529893092e+000	 1.468699686327621e-001	 1.057652086066315e+001
 4.120898952659583e+000	 1.838935070934145e-001	 1.056142976682711e+001
 4.119073922329502e+000	 2.210317225194031e-001	 1.055615763994896e+001
 4.116906136480403e+000	 2.582805903990113e-001	 1.055420249822082e+001
 4.114392343483875e+000	 2.956359988894912e-001	 1.054901544122990e+001
 4.111529344923100e+000	 3.330937492433104e-001	 1.053398472100595e+001
 4.108313998022755e+000	 3.706495563050253e-001	 1.050241890910328e+001
 4.150000000000000e+000	 0.000000000000000e+000	 1.094571568631783e+001
 4.149837298671496e+000	 3.674771495232542e-002	 1.082196343968944e+001
 4.149346839626961e+000	 7.362611272682534e-002	 1.073186234479607e+001
 4.148525120024392e+000	 1.106314987750191e-001	 1.066943006805912e+001
 4.147368678559367e+000	 1.477600896570322e-001	 1.062870470977437e+001
 4.145874097827618e+000	 1.850080131994918e-001	 1.060373207997804e+001
 4.144038006707839e+000	 2.223713087190614e-001	 1.058855200180303e+001
 4.141857082762897e+000	 2.598459273130429e-001	 1.057718364445789e+001
 4.139328054657547e+000	 2.974277322184279e-001	 1.056360989133809e+001
 4.136447704590624e+000	 3.351124992407279e-001	 1.054176075229407e+001
 4.133212870739683e+000	 3.728959172538585e-001	 1.050549583272335e+001
 4.175000000000000e+000	 0.000000000000000e+000	 1.103047945082098e+001
 4.174836318543028e+000	 3.696908673009096e-002	 1.090187812695997e+001
 4.174342904925982e+000	 7.406964352812387e-002	 1.080485970782459e+001
 4.173516235205405e+000	 1.112979535893001e-001	 1.073391948425933e+001
 4.172352827225644e+000	 1.486502106819371e-001	 1.068358622727267e+001
 4.170849242995654e+000	 1.861225193063147e-001	 1.064840895727963e+001
 4.169002091086175e+000	 2.237108949195564e-001	 1.062294270125093e+001
 4.166808029045392e+000	 2.614112642279824e-001	 1.060173323973217e+001
 4.164263765831218e+000	 2.992194655483236e-001	 1.057930084916530e+001
 4.161366064258147e+000	 3.371312492391351e-001	 1.055012304856099e+001
 4.158111743456611e+000	 3.751422782036917e-001	 1.050861636331699e+001
 4.199999999999999e+000	 0.000000000000000e+000	 1.112003891395637e+001
 4.199835338414558e+000	 3.719045850804355e-002	 1.098628415271001e+001
 4.199338970225004e+000	 7.451317432977773e-002	 1.088196779494497e+001
 4.198507350386417e+000	 1.119644084040858e-001	 1.080206768137469e+001
 4.197336975891918e+000	 1.495403317074768e-001	 1.074160835341837e+001
 4.195824388163693e+000	 1.872370254138830e-001	 1.069564731080502e+001
 4.193966175464511e+000	 2.250504811208879e-001	 1.065926021703396e+001
 4.191758975327885e+000	 2.629766011438295e-001	 1.062752505447893e+001
 4.189199477004890e+000	 3.010111988791780e-001	 1.059550523449306e+001
 4.186284423925671e+000	 3.391499992385318e-001	 1.055823167158334e+001
 4.183010616173539e+000	 3.773886391545250e-001	 1.051068383457799e+001
 4.224999999999999e+000	 0.000000000000000e+000	 1.121581999646525e+001
 4.224834358286089e+000	 3.741183028618317e-002	 1.107635696680133e+001
 4.224335035524025e+000	 7.495670513178691e-002	 1.096411068632532e+001
 4.223498465567432e+000	 1.126308632193762e-001	 1.087454658964989e+001
 4.222321124558195e+000	 1.504304527336513e-001	 1.080319020961941e+001
 4.220799533331729e+000	 1.883515315221968e-001	 1.074561291819563e+001
 4.218930259842849e+000	 2.263900673230559e-001	 1.069741657467687e+001
 4.216709921610381e+000	 2.645419380605845e-001	 1.065421708285937e+001
 4.214135188178561e+000	 3.028029322109914e-001	 1.061162686241601e+001
 4.211202783593194e+000	 3.411687492389183e-001	 1.056523624358495e+001
 4.207909488890469e+000	 3.796350001063583e-001	 1.051059379821784e+001
 4.250000000000000e+000	 0.000000000000000e+000	 1.131921506801492e+001
 4.249833378157620e+000	 3.763320206450985e-002	 1.117324107587224e+001
 4.249331100823047e+000	 7.540023593415146e-002	 1.105218412764158e+001
 4.248489580748444e+000	 1.132973180351712e-001	 1.095200241347652e+001
 4.247305273224471e+000	 1.513205737604606e-001	 1.086872779898632e+001
 4.245774678499766e+000	 1.894660376312561e-001	 1.079845104426154e+001
 4.243894344221186e+000	 2.277296535260605e-001	 1.073730588922967e+001
 4.241660867892875e+000	 2.661072749782472e-001	 1.068145200676899e+001
 4.239070899352234e+000	 3.045946655437636e-001	 1.062705682877373e+001
 4.236121143260720e+000	 3.431874992402945e-001	 1.057027625428253e+001
 4.232808361607396e+000	 3.818813610591916e-001	 1.050723425284768e+001
 3.983819634438112e+000	 3.594177515758590e-001	 1.052549633601678e+001
 3.980357059955668e+000	 3.959263506328409e-001	 1.058943203587368e+001
 3.976546890615960e+000	 4.325214752855101e-001	 1.061790161951391e+001
 3.972386254971537e+000	 4.691987224560948e-001	 1.060143738309210e+001
 3.967872345032922e+000	 5.059536079119448e-001	 1.053038404572134e+001
 3.963002418652467e+000	 5.427815671060725e-001	 1.039488160986531e+001
 3.957773801906783e+000	 5.796779560922217e-001	 1.018484764125168e+001
 3.952183891475304e+000	 6.166380525152101e-001	 9.889959004308439e+000
 3.946230157012450e+000	 6.536570566772162e-001	 1.011372797413700e+001
 3.939910143510855e+000	 6.907300926805884e-001	 1.048579083072249e+001
 3.933221473652993e+000	 7.278522096476667e-001	 1.083315381100555e+001
 4.008718507155041e+000	 3.616641125196922e-001	 1.051219470722450e+001
 4.005234291582396e+000	 3.984008903202551e-001	 1.057950706666620e+001
 4.001400308684580e+000	 4.352247345015535e-001	 1.061415358298796e+001
 3.997213669067587e+000	 4.721312144665802e-001	 1.060722390434802e+001
 3.992671547192009e+000	 5.091158179562314e-001	 1.054962641631168e+001
 3.987771183771772e+000	 5.461739518951022e-001	 1.043207026225755e+001
 3.982509888171469e+000	 5.833009433122727e-001	 1.024504674853753e+001
 3.976885040799777e+000	 6.204920403378413e-001	 9.978810171257507e+000
 3.970894095496459e+000	 6.577424132758768e-001	 1.019359908253346e+001
 3.964534581910347e+000	 6.950471557543668e-001	 1.046375641003064e+001
 3.957804107865683e+000	 7.324012859526673e-001	 1.071292754553352e+001
 4.033617379871969e+000	 3.639104734645255e-001	 1.050429466953646e+001
 4.030111523209127e+000	 4.008754300086695e-001	 1.057613518832091e+001
 4.026253726753200e+000	 4.379279937185969e-001	 1.061809613656922e+001
 4.022041083163638e+000	 4.750637064780655e-001	 1.062182994303636e+001
 4.017470749351095e+000	 5.122780280015181e-001	 1.057881417399078e+001
 4.012539948891079e+000	 5.495663366851321e-001	 1.048033270461437e+001
 4.007245974436156e+000	 5.869239305333237e-001	 1.031745623997913e+001
 4.001586190124251e+000	 6.243460281614731e-001	 1.008102222334341e+001
 3.995558033980466e+000	 6.618277698755375e-001	 1.026554499028531e+001
 3.989159020309840e+000	 6.993642188291455e-001	 1.044315180451916e+001
 3.982386742078373e+000	 7.369503622586678e-001	 1.060338488246869e+001
 4.058516252588897e+000	 3.661568344103587e-001	 1.050074220583112e+001
 4.054988754835856e+000	 4.033499696980837e-001	 1.057798412682101e+001
 4.051107144821818e+000	 4.406312529366403e-001	 1.062811905797938e+001
 4.046868497259687e+000	 4.779961984905507e-001	 1.064336778847192e+001
 4.042269951510182e+000	 5.154402380478047e-001	 1.061578273276621e+001
 4.037308714010385e+000	 5.529587214761617e-001	 1.053722824388145e+001
 4.031982060700842e+000	 5.905469177553746e-001	 1.039936024062470e+001
 4.026287339448724e+000	 6.282000159861044e-001	 1.022344709336206e+001
 4.020221972464475e+000	 6.659131264761979e-001	 1.032974191259853e+001
 4.013783458709330e+000	 7.036812819049237e-001	 1.042406715913267e+001
 4.006969376291065e+000	 7.414994385656684e-001	 1.050452998846472e+001
 4.083415125305826e+000	 3.684031953571920e-001	 1.050047423952526e+001
 4.079865986462586e+000	 4.058245093884980e-001	 1.058371580999237e+001
 4.075960562890438e+000	 4.433345121556837e-001	 1.064260958045732e+001
 4.071695911355738e+000	 4.809286905040360e-001	 1.066995043015968e+001
 4.067069153669269e+000	 5.186024480950915e-001	 1.065837144111887e+001
 4.062077479129690e+000	 5.563511062681913e-001	 1.060032334396900e+001
 4.056718146965530e+000	 5.941699049784259e-001	 1.048805324176917e+001
 4.050988488773198e+000	 6.320540038117360e-001	 1.035735791744916e+001
 4.044885910948482e+000	 6.699984830778581e-001	 1.038638280413327e+001
 4.038407897108822e+000	 7.079983449817023e-001	 1.040661251929820e+001
 4.031552010503756e+000	 7.460485148736690e-001	 1.041639007268726e+001
 4.108313998022755e+000	 3.706495563050253e-001	 1.050241890910328e+001
 4.104743218089316e+000	 4.082990490799123e-001	 1.059198654320533e+001
 4.100813980959058e+000	 4.460377713757270e-001	 1.065995246986484e+001
 4.096523325451788e+000	 4.838611825185213e-001	 1.069969153657676e+001
 4.091868355828354e+000	 5.217646581433781e-001	 1.070442346277654e+001
 4.086846244248997e+000	 5.597434910612210e-001	 1.066719140887387e+001
 4.081454233230216e+000	 5.977928922024768e-001	 1.058083978682539e+001
 4.075689638097673e+000	 6.359079916383678e-001	 1.047472088014048e+001
 4.069549849432490e+000	 6.740838396805191e-001	 1.043567685174795e+001
 4.063032335508314e+000	 7.123154080594807e-001	 1.039091722788013e+001
 4.056134644716447e+000	 7.505975911826697e-001	 1.033901468855611e+001
 4.133212870739683e+000	 3.728959172538585e-001	 1.050549583272335e+001
 4.129620449716046e+000	 4.107735887723266e-001	 1.060144717872563e+001
 4.125667399027677e+000	 4.487410305967704e-001	 1.067853009900503e+001
 4.121350739547837e+000	 4.867936745340066e-001	 1.073070543472143e+001
 4.116667557987442e+000	 5.249268681926648e-001	 1.075178566179672e+001
 4.111615009368302e+000	 5.631358758552508e-001	 1.073541257364087e+001
 4.106190319494902e+000	 6.014158794275279e-001	 1.067503416854954e+001
 4.100390787422146e+000	 6.397619794659991e-001	 1.057583779700776e+001
 4.094213787916497e+000	 6.781691962841794e-001	 1.047784898557741e+001
 4.087656773907807e+000	 7.166324711382593e-001	 1.037712934393217e+001
 4.080717278929137e+000	 7.551466674926702e-001	 1.027247506072543e+001
 4.158111743456611e+000	 3.751422782036917e-001	 1.050861636331699e+001
 4.154497681342774e+000	 4.132481284657408e-001	 1.061074327898109e+001
 4.150520817096297e+000	 4.514442898188139e-001	 1.069672251927078e+001
 4.146178153643887e+000	 4.897261665504918e-001	 1.076110709039693e+001
 4.141466760146528e+000	 5.280890782429515e-001	 1.079830849177834e+001
 4.136383774487609e+000	 5.665282606502805e-001	 1.080257350283434e+001
 4.130926405759589e+000	 6.050388666535790e-001	 1.076796013714447e+001
 4.125091936746621e+000	 6.436159672946306e-001	 1.066102285564302e+001
 4.118877726400505e+000	 6.822545528888399e-001	 1.051313940767743e+001
 4.112281212307298e+000	 7.209495342180373e-001	 1.036541508233240e+001
 4.105299913141828e+000	 7.596957438036709e-001	 1.021686343624448e+001
 4.183010616173539e+000	 3.773886391545250e-001	 1.051068383457799e+001
 4.179374912969506e+000	 4.157226681601551e-001	 1.061851527399707e+001
 4.175374235164916e+000	 4.541475490418572e-001	 1.071290752973431e+001
 4.171005567739937e+000	 4.926586585679771e-001	 1.078901208919930e+001
 4.166265962305615e+000	 5.312512882942381e-001	 1.084184588903010e+001
 4.161152539606915e+000	 5.699206454463102e-001	 1.086626719620706e+001
 4.155662492024274e+000	 6.086618538806299e-001	 1.085695061878814e+001
 4.149793086071094e+000	 6.474699551242622e-001	 1.073060224744361e+001
 4.143541664884514e+000	 6.863399094945004e-001	 1.054180313750337e+001
 4.136905650706790e+000	 7.252665972988159e-001	 1.035595827343146e+001
 4.129882547354518e+000	 7.642448201156715e-001	 1.017229245889105e+001
 4.207909488890469e+000	 3.796350001063583e-001	 1.051059379821784e+001
 4.204252144596236e+000	 4.181972078555695e-001	 1.062339861324289e+001
 4.200227653233535e+000	 4.568508082659006e-001	 1.072546074378385e+001
 4.195832981835988e+000	 4.955911505864624e-001	 1.081253661818034e+001
 4.191065164464702e+000	 5.344134983465247e-001	 1.088025516953167e+001
 4.185921304726221e+000	 5.733130302433399e-001	 1.092409280126878e+001
 4.180398578288962e+000	 6.122848411086811e-001	 1.093934744415500e+001
 4.174494235395567e+000	 6.513239429548936e-001	 1.078491381247019e+001
 4.168205603368522e+000	 6.904252661011610e-001	 1.056410957352538e+001
 4.161530089106282e+000	 7.295836603805944e-001	 1.034895984188458e+001
 4.154465181567210e+000	 7.687938964286721e-001	 1.013889456571800e+001
 4.232808361607396e+000	 3.818813610591916e-001	 1.050723425284768e+001
 4.229129376222968e+000	 4.206717475519838e-001	 1.062402391211847e+001
 4.225081071302157e+000	 4.595540674909441e-001	 1.073275565340839e+001
 4.220660395932038e+000	 4.985236426059477e-001	 1.082979744815771e+001
 4.215864366623790e+000	 5.375757083998116e-001	 1.091139692953156e+001
 4.210690069845527e+000	 5.767054150413699e-001	 1.097365543246964e+001
 4.205134664553649e+000	 6.159078283377322e-001	 1.101250108651895e+001
 4.199195384720043e+000	 6.551779307865254e-001	 1.082430669683887e+001
 4.192869541852530e+000	 6.945106227088215e-001	 1.058034207031642e+001
 4.186154527505775e+000	 7.339007234633730e-001	 1.034463730387800e+001
 4.179047815779902e+000	 7.733429727426728e-001	 1.011682140489809e+001
 3.933221473652993e+000	 7.278522096476667e-001	 1.083315381100555e+001
 3.926161850148238e+000	 7.650183830181283e-001	 1.083153344030777e+001
 3.918729058053593e+000	 8.022235159239719e-001	 1.083178695236949e+001
 3.910920967074733e+000	 8.394624406421654e-001	 1.083761294445525e+001
 3.902735533843881e+000	 8.767299201255313e-001	 1.085297664953726e+001
 3.894170804172645e+000	 9.140206496115850e-001	 1.088211908779526e+001
 3.885224915276652e+000	 9.513292583092481e-001	 1.092956595422030e+001
 3.875896097969084e+000	 9.886503111632025e-001	 1.100013620664527e+001
 3.866182678820226e+000	 1.025978310695547e+000	 1.109895031803208e+001
 3.856083082280073e+000	 1.063307698924287e+000	 1.123143815645919e+001
 3.845595832761096e+000	 1.100632859358089e+000	 1.140334645598076e+001
 3.957804107865683e+000	 7.324012859526673e-001	 1.071292754553352e+001
 3.950700361713788e+000	 7.697997479069519e-001	 1.073563094814696e+001
 3.943221114668281e+000	 8.072374128937929e-001	 1.075871227936212e+001
 3.935364223120499e+000	 8.447090808918899e-001	 1.078560719657835e+001
 3.927127630931612e+000	 8.822094821225209e-001	 1.082001975397184e+001
 3.918509371699555e+000	 9.197332786684371e-001	 1.086593200424040e+001
 3.909507570997550e+000	 9.572750661711155e-001	 1.092761334099888e+001
 3.900120448581363e+000	 9.948293756061437e-001	 1.100962954524455e+001
 3.890346320562340e+000	 1.032390675136383e+000	 1.111685149878480e+001
 3.880183601543291e+000	 1.069953372042453e+000	 1.125446352710281e+001
 3.869630806714263e+000	 1.107511814729950e+000	 1.142797133383290e+001
 3.982386742078373e+000	 7.369503622586678e-001	 1.060338488246869e+001
 3.975238873279343e+000	 7.745811127967659e-001	 1.064812834009494e+001
 3.967713171282988e+000	 8.122513098645752e-001	 1.069168024903815e+001
 3.959807479166307e+000	 8.499557211425273e-001	 1.073721228753538e+001
 3.951519728019422e+000	 8.876890441203553e-001	 1.078816638307839e+001
 3.942847939226587e+000	 9.254459077260456e-001	 1.084826476909587e+001
 3.933790226718623e+000	 9.632208740336313e-001	 1.092151978678935e+001
 3.924344799193880e+000	 1.001008440049605e+000	 1.101224339462612e+001
 3.914509962304769e+000	 1.038803039577591e+000	 1.112505634743260e+001
 3.904284120806908e+000	 1.076599045160823e+000	 1.126489700658190e+001
 3.893665780667924e+000	 1.114390770101823e+000	 1.143702974243705e+001
 4.006969376291065e+000	 7.414994385656684e-001	 1.050452998846472e+001
 3.999777384844903e+000	 7.793624776875702e-001	 1.056915429261035e+001
 3.992205227897715e+000	 8.172652068363189e-001	 1.063094345598587e+001
 3.984250735212159e+000	 8.552023613940772e-001	 1.069280407268765e+001
 3.975911825107308e+000	 8.931686061190344e-001	 1.075791492984461e+001
 3.967186506753740e+000	 9.311585367844105e-001	 1.082973752399757e+001
 3.958072882439873e+000	 9.691666818967953e-001	 1.091202632709265e+001
 3.948569149806640e+000	 1.007187504493586e+000	 1.100883876366426e+001
 3.938673604047511e+000	 1.045215404019170e+000	 1.112454486018910e+001
 3.928384640070924e+000	 1.083244718279393e+000	 1.126383652711166e+001
 3.917700754622081e+000	 1.121269725473710e+000	 1.143173643367810e+001
 4.031552010503756e+000	 7.460485148736690e-001	 1.041639007268726e+001
 4.024315896410468e+000	 7.841438425793651e-001	 1.049885851527355e+001
 4.016697284512461e+000	 8.222791038090240e-001	 1.057677351459082e+001
 4.008693991258054e+000	 8.604490016465400e-001	 1.065277541074460e+001
 4.000303922195272e+000	 8.986481681185579e-001	 1.072977877185471e+001
 3.991525074281016e+000	 9.368711658435318e-001	 1.081098337495802e+001
 3.982355538161299e+000	 9.751124897606078e-001	 1.089988494094432e+001
 3.972793500419638e+000	 1.013366568938087e+000	 1.100028558416068e+001
 3.962837245790567e+000	 1.051627768461120e+000	 1.111630393669132e+001
 3.952485159335338e+000	 1.089890391398166e+000	 1.125238490680714e+001
 3.941735728576730e+000	 1.128148680845609e+000	 1.141330903068531e+001
 4.056134644716447e+000	 7.505975911826697e-001	 1.033901468855611e+001
 4.048854407976037e+000	 7.889252074721501e-001	 1.043741111341947e+001
 4.041189341127226e+000	 8.272930007826903e-001	 1.052946048267840e+001
 4.033137247303994e+000	 8.656956418999159e-001	 1.061753564851087e+001
 4.024696019283315e+000	 9.041277301189258e-001	 1.070428581721062e+001
 4.015863641808413e+000	 9.425837949034094e-001	 1.079264799950634e+001
 4.006638193882901e+000	 9.810582976250684e-001	 1.088585821929214e+001
 3.997017851032876e+000	 1.019545633383107e+000	 1.098746244045294e+001
 3.987000887533940e+000	 1.058040132903442e+000	 1.110132717080494e+001
 3.976585678600152e+000	 1.096536064517142e+000	 1.123164970162573e+001
 3.965770702531872e+000	 1.135027636217520e+000	 1.138296794082505e+001
 4.080717278929137e+000	 7.551466674926702e-001	 1.027247506072543e+001
 4.073392919541611e+000	 7.937065723659253e-001	 1.038500197380749e+001
 4.065681397742011e+000	 8.323068977573183e-001	 1.048931230598853e+001
 4.057580503349977e+000	 8.709422821542041e-001	 1.058751012425679e+001
 4.049088116371435e+000	 9.096072921201380e-001	 1.068197806686582e+001
 4.040202209335932e+000	 9.482964239640432e-001	 1.077538926802822e+001
 4.030920849604678e+000	 9.870041054901769e-001	 1.087071904536020e+001
 4.021242201646355e+000	 1.025724697828648e+000	 1.097125630879571e+001
 4.011164529277626e+000	 1.064452497346135e+000	 1.108061464899090e+001
 4.000686197865364e+000	 1.103181737636319e+000	 1.120274306266092e+001
 3.989805676487509e+000	 1.141906591589444e+000	 1.134193627183819e+001
 4.105299913141828e+000	 7.596957438036709e-001	 1.021686343624448e+001
 4.097931431107191e+000	 7.984879372606913e-001	 1.034184017236335e+001
 4.090173454356815e+000	 8.373207947329071e-001	 1.045665428260932e+001
 4.082023759396002e+000	 8.761889224094052e-001	 1.056313968893216e+001
 4.073480213459632e+000	 9.150868541221949e-001	 1.066341119268372e+001
 4.064540776863573e+000	 9.540090530254336e-001	 1.075987687871030e+001
 4.055203505326632e+000	 9.929499133559337e-001	 1.085525028649701e+001
 4.045466552260073e+000	 1.031903762274709e+000	 1.095256230610597e+001
 4.035328171021626e+000	 1.070864861789199e+000	 1.105517275591632e+001
 4.024786717130976e+000	 1.109827410755699e+000	 1.116678159856351e+001
 4.013840650443639e+000	 1.148785546961380e+000	 1.129143975099051e+001
 4.129882547354518e+000	 7.642448201156715e-001	 1.017229245889105e+001
 4.122469942672774e+000	 8.032693021564474e-001	 1.030815340307291e+001
 4.114665510971639e+000	 8.423346917094579e-001	 1.043182854653820e+001
 4.106467015442071e+000	 8.814355626655193e-001	 1.054488024447924e+001
 4.097872310547907e+000	 9.205664161250964e-001	 1.064915413056525e+001
 4.088879344391335e+000	 9.597216820875801e-001	 1.074679200552219e+001
 4.079486161048761e+000	 9.988957212223389e-001	 1.084024449702886e+001
 4.069690902874030e+000	 1.038082826721289e+000	 1.093228344768124e+001
 4.059491812765941e+000	 1.077277226232634e+000	 1.102601398700796e+001
 4.048887236396987e+000	 1.116473083875281e+000	 1.112488624287613e+001
 4.037875624400262e+000	 1.155664502333329e+000	 1.123270664711074e+001
 4.154465181567210e+000	 7.687938964286721e-001	 1.013889456571800e+001
 4.147008454238363e+000	 8.080506670531940e-001	 1.028418742715206e+001
 4.139157567586481e+000	 8.473485886869693e-001	 1.041519356957807e+001
 4.130910271488186e+000	 8.866822029225459e-001	 1.053320229853718e+001
 4.122264407636262e+000	 9.260459781288420e-001	 1.063978868802182e+001
 4.113217911919220e+000	 9.654343111504832e-001	 1.073682695869641e+001
 4.103768816771067e+000	 1.004841529089392e+000	 1.082650363166288e+001
 4.093915253488230e+000	 1.044261891168389e+000	 1.091133041351971e+001
 4.083655454510570e+000	 1.083689590676441e+000	 1.099415676766038e+001
 4.072987755663395e+000	 1.123118756995065e+000	 1.107818212607784e+001
 4.061910598357380e+000	 1.162543457705291e+000	 1.116696769539630e+001
 4.179047815779902e+000	 7.733429727426728e-001	 1.011682140489809e+001
 4.171546965803959e+000	 8.128320319509310e-001	 1.027020554165759e+001
 4.163649624201344e+000	 8.523624856654427e-001	 1.040712368081363e+001
 4.155353527534343e+000	 8.919288431804857e-001	 1.052859053486266e+001
 4.146656504724693e+000	 9.315255401334327e-001	 1.063590916559840e+001
 4.137556479447227e+000	 9.711469402141428e-001	 1.073068485719114e+001
 4.128051472493549e+000	 1.010787336957094e+000	 1.081483876900515e+001
 4.118139604102669e+000	 1.050440955616010e+000	 1.089062132288789e+001
 4.107819096255514e+000	 1.090101955120619e+000	 1.096062527882523e+001
 4.097088274930205e+000	 1.129764430115052e+000	 1.102779845214493e+001
 4.085945572314992e+000	 1.169422413077266e+000	 1.109545602487306e+001
 3.845595832761096e+000	 1.100632859358089e+000	 1.140334645598076e+001
 3.834719556678107e+000	 1.137948119066728e+000	 1.117450332754950e+001
 3.823452984442649e+000	 1.175247750825766e+000	 1.098136612395529e+001
 3.811794952408592e+000	 1.212525975335376e+000	 1.082969624473193e+001
 3.799744404765942e+000	 1.249776963512203e+000	 1.072559734940192e+001
 3.787300395380251e+000	 1.286994838852475e+000	 1.079099026545803e+001
 3.774462089574614e+000	 1.324173679865361e+000	 1.084820985716492e+001
 3.761228765851377e+000	 1.361307522575099e+000	 1.089699604776853e+001
 3.747599817550746e+000	 1.398390363090333e+000	 1.094780760817730e+001
 3.733574754443465e+000	 1.435416160238980e+000	 1.103667165717070e+001
 3.719153204254849e+000	 1.472378838266780e+000	 1.111612071941744e+001
 3.869630806714263e+000	 1.107511814729950e+000	 1.142797133383290e+001
 3.858686553905200e+000	 1.145060294812716e+000	 1.117941359521387e+001
 3.847349565592751e+000	 1.182593049271040e+000	 1.096562033335656e+001
 3.835618670858001e+000	 1.220104262684471e+000	 1.079227902679827e+001
 3.823492807292140e+000	 1.257588069537881e+000	 1.070287797310534e+001
 3.810971022847386e+000	 1.295038556599349e+000	 1.077616908808580e+001
 3.798052477630097e+000	 1.332449765368725e+000	 1.084181908173355e+001
 3.784736445633263e+000	 1.369815694595396e+000	 1.090038256271427e+001
 3.771022316405465e+000	 1.407130302863685e+000	 1.095240373428745e+001
 3.756909596653517e+000	 1.444387511244183e+000	 1.099841629923014e+001
 3.742397911776015e+000	 1.481581206009164e+000	 1.106819379599454e+001
 3.893665780667924e+000	 1.114390770101823e+000	 1.143702974243705e+001
 3.882653551132883e+000	 1.152172470558531e+000	 1.116857596363251e+001
 3.871246146743528e+000	 1.189938347715985e+000	 1.093383536940782e+001
 3.859442389308159e+000	 1.227682550033110e+000	 1.073842012673444e+001
 3.847241209819154e+000	 1.265399175563005e+000	 1.067775094637892e+001
 3.834641650315390e+000	 1.303082274345601e+000	 1.075638098692980e+001
 3.821642865686497e+000	 1.340725850871429e+000	 1.082878292626134e+001
 3.808244125416103e+000	 1.378323866615026e+000	 1.089543378345783e+001
 3.794444815261164e+000	 1.415870242636394e+000	 1.095679760767329e+001
 3.780244438864563e+000	 1.453358862248796e+000	 1.101332543955152e+001
 3.765642619298180e+000	 1.490783573751044e+000	 1.106545531854219e+001
 3.917700754622081e+000	 1.121269725473710e+000	 1.143173643367810e+001
 3.906620548361152e+000	 1.159284646304173e+000	 1.114326795813371e+001
 3.895142727894979e+000	 1.197283646160600e+000	 1.088735084882913e+001
 3.883266107759067e+000	 1.235260837381292e+000	 1.066952053400576e+001
 3.870989612346986e+000	 1.273210281587576e+000	 1.064937928919279e+001
 3.858312277784268e+000	 1.311125992091232e+000	 1.073171533901082e+001
 3.845233253743815e+000	 1.349001936373474e+000	 1.080922480317614e+001
 3.831751805199895e+000	 1.386832038633990e+000	 1.088230751564603e+001
 3.817867314117842e+000	 1.424610182408460e+000	 1.095134778203902e+001
 3.803579281076603e+000	 1.462330213252820e+000	 1.101671439746725e+001
 3.788887326821345e+000	 1.499985941492418e+000	 1.107876071494455e+001
 3.941735728576730e+000	 1.128148680845609e+000	 1.141330903068531e+001
 3.930587545590011e+000	 1.166396822049642e+000	 1.110476925379648e+001
 3.919039309047104e+000	 1.204628944604886e+000	 1.082750780753354e+001
 3.907089826210726e+000	 1.242839124729018e+000	 1.058698191790190e+001
 3.894738014875633e+000	 1.281021387611592e+000	 1.061781864699286e+001
 3.881982905254017e+000	 1.319169709836242e+000	 1.070226069705601e+001
 3.868823641802051e+000	 1.357278021874860e+000	 1.078326653640925e+001
 3.855259484984642e+000	 1.395340210652287e+000	 1.086115920450760e+001
 3.841289812975500e+000	 1.433350122179882e+000	 1.093624365978581e+001
 3.826914123289639e+000	 1.471301564256254e+000	 1.100880685382722e+001
 3.812132034345510e+000	 1.509188309233287e+000	 1.107911786078871e+001
 3.965770702531872e+000	 1.135027636217520e+000	 1.138296794082505e+001
 3.954554542819460e+000	 1.173508997794938e+000	 1.105436161030648e+001
 3.942935890199904e+000	 1.211974243048843e+000	 1.075564865762125e+001
 3.930913544663134e+000	 1.250417412076288e+000	 1.049582044249398e+001
 3.918486417405095e+000	 1.288832493635055e+000	 1.058312459919423e+001
 3.905653532724638e+000	 1.327213427580630e+000	 1.066810481447762e+001
 3.892414029861204e+000	 1.365554107375587e+000	 1.075102840953167e+001
 3.878767164770343e+000	 1.403848382669918e+000	 1.083214200638093e+001
 3.864712311834136e+000	 1.442090061950661e+000	 1.091167159869343e+001
 3.850248965503670e+000	 1.480272915259099e+000	 1.098982268221899e+001
 3.835376741870674e+000	 1.518390676973651e+000	 1.106678044516411e+001
 3.989805676487509e+000	 1.141906591589444e+000	 1.134193627183819e+001
 3.978521540049498e+000	 1.180621173540061e+000	 1.099332880916674e+001
 3.966832471353379e+000	 1.219319541492470e+000	 1.067311714592811e+001
 3.954737263116293e+000	 1.257995699423101e+000	 1.046048932589416e+001
 3.942234819935373e+000	 1.296643599657964e+000	 1.054535266117006e+001
 3.929324160196132e+000	 1.335257145324397e+000	 1.062933466944858e+001
 3.916004417921276e+000	 1.373830192875655e+000	 1.071262921215056e+001
 3.902274844556996e+000	 1.412356554686883e+000	 1.079540685765655e+001
 3.888134810693753e+000	 1.450830001720796e+000	 1.087781500362576e+001
 3.873583807718696e+000	 1.489244266261354e+000	 1.095997806364430e+001
 3.858621449396840e+000	 1.527593044713509e+000	 1.104199771849208e+001
 4.013840650443639e+000	 1.148785546961380e+000	 1.129143975099051e+001
 4.002488537280124e+000	 1.187733349285011e+000	 1.092295659316413e+001
 3.990729052507526e+000	 1.226664839935768e+000	 1.058125831406358e+001
 3.978560981570202e+000	 1.265573986769458e+000	 1.042363093104847e+001
 3.965983222466468e+000	 1.304454705680320e+000	 1.050455828616901e+001
 3.952994787668497e+000	 1.343300863067542e+000	 1.058603648811335e+001
 3.939594805982265e+000	 1.382106278375064e+000	 1.066818628463867e+001
 3.925782524344604e+000	 1.420864726703181e+000	 1.075110254124264e+001
 3.911557309554348e+000	 1.459569941490288e+000	 1.083485441494138e+001
 3.896918649934715e+000	 1.498215617263019e+000	 1.091948559707561e+001
 3.881866156924004e+000	 1.536795412452863e+000	 1.100501462542004e+001
 4.037875624400262e+000	 1.155664502333329e+000	 1.123270664711074e+001
 4.026455534511339e+000	 1.194845525029789e+000	 1.084453260799791e+001
 4.014625633662350e+000	 1.234010138378737e+000	 1.048141845987576e+001
 4.002384700024860e+000	 1.273152274115358e+000	 1.038527089405878e+001
 3.989731624998377e+000	 1.312265811702121e+000	 1.046079686716414e+001
 3.976665415141733e+000	 1.351344580810065e+000	 1.053829576696972e+001
 3.963185194044173e+000	 1.390382363873814e+000	 1.061781556126627e+001
 3.949290204133165e+000	 1.429372898718813e+000	 1.069937575065679e+001
 3.934979808415923e+000	 1.468309881259137e+000	 1.078296759374673e+001
 3.920253492151731e+000	 1.507186968264094e+000	 1.086855440606404e+001
 3.905110864452169e+000	 1.545997780191711e+000	 1.095607193296958e+001
 4.061910598357380e+000	 1.162543457705291e+000	 1.116696769539630e+001
 4.050422531743143e+000	 1.201957700774393e+000	 1.075934634598049e+001
 4.038522214817848e+000	 1.241355436821377e+000	 1.037494510028452e+001
 4.026208418480270e+000	 1.280730561460802e+000	 1.034543543498885e+001
 4.013480027531105e+000	 1.320076917723369e+000	 1.041412373863629e+001
 4.000336042615841e+000	 1.359388298551968e+000	 1.048619729445599e+001
 3.986775582106998e+000	 1.398658449371905e+000	 1.056163161180188e+001
 3.972797883922680e+000	 1.437881070733778e+000	 1.064037115184227e+001
 3.958402307278478e+000	 1.477049821027342e+000	 1.072232960412251e+001
 3.943588334369740e+000	 1.516158319264580e+000	 1.080739024156252e+001
 3.928355571981333e+000	 1.555200147930054e+000	 1.089540635413481e+001
 4.085945572314992e+000	 1.169422413077266e+000	 1.109545602487306e+001
 4.074389528975536e+000	 1.209069876518825e+000	 1.066868909172524e+001
 4.062418795974019e+000	 1.248700735263687e+000	 1.026318693542650e+001
 4.050032136936430e+000	 1.288308848805790e+000	 1.030415134068897e+001
 4.037228430064649e+000	 1.327888023744063e+000	 1.036459417829433e+001
 4.024006670090824e+000	 1.367432016293249e+000	 1.042982517177621e+001
 4.010365970170742e+000	 1.406934534869337e+000	 1.049974768164464e+001
 3.996305563713150e+000	 1.446389242748077e+000	 1.057423144280256e+001
 3.981824806142011e+000	 1.485789760794904e+000	 1.065311289244798e+001
 3.966923176588746e+000	 1.525129670264476e+000	 1.073619558111987e+001
 3.951600279511499e+000	 1.564402515667893e+000	 1.082325066711847e+001
 3.719153204254849e+000	 1.472378838266780e+000	 1.111612071941744e+001
 3.704334914117635e+000	 1.509272289597060e+000	 1.104616913758278e+001
 3.689119751950341e+000	 1.546090377651535e+000	 1.098503379687324e+001
 3.673507707759193e+000	 1.582826939728250e+000	 1.093222320479091e+001
 3.657498894861322e+000	 1.619475789933607e+000	 1.088715648769486e+001
 3.641093551026176e+000	 1.656030722167824e+000	 1.084916187630050e+001
 3.624292039533033e+000	 1.692485513160644e+000	 1.081747537401623e+001
 3.607094850142330e+000	 1.728833925554609e+000	 1.079123961606288e+001
 3.589502599978649e+000	 1.765069711033148e+000	 1.076950292693699e+001
 3.571516034323234e+000	 1.801186613490626e+000	 1.075121858335915e+001
 3.553136027314097e+000	 1.837178372241353e+000	 1.073524428939300e+001
 3.742397911776015e+000	 1.481581206009164e+000	 1.106819379599454e+001
 3.727487007325320e+000	 1.518705241409741e+000	 1.100795152721361e+001
 3.712176750394489e+000	 1.555753442514154e+000	 1.095626927060325e+001
 3.696467130927288e+000	 1.592719608103564e+000	 1.091269482150317e+001
 3.680358262949079e+000	 1.629597513622535e+000	 1.087668574025377e+001
 3.663850385715369e+000	 1.666380914183165e+000	 1.084760776718863e+001
 3.646943864775933e+000	 1.703063547619757e+000	 1.082473342228865e+001
 3.629639192952212e+000	 1.739639137591369e+000	 1.080724079763981e+001
 3.611936991225818e+000	 1.776101396729453e+000	 1.079421255044855e+001
 3.593838009536003e+000	 1.812444029827717e+000	 1.078463510394508e+001
 3.575343127484140e+000	 1.848660737071182e+000	 1.077739806304495e+001
 3.765642619298180e+000	 1.490783573751044e+000	 1.106545531854219e+001
 3.750639100533996e+000	 1.528138193222007e+000	 1.095683014074100e+001
 3.735233748839598e+000	 1.565416507376430e+000	 1.091280007142244e+001
 3.719426554096293e+000	 1.602612276478584e+000	 1.087910263506671e+001
 3.703217631037676e+000	 1.639719237311201e+000	 1.085282969932244e+001
 3.686607220405314e+000	 1.676731106198254e+000	 1.083338438490324e+001
 3.669595690019477e+000	 1.713641582078609e+000	 1.082007555202232e+001
 3.652183535762613e+000	 1.750444349627840e+000	 1.081211652559226e+001
 3.634371382473355e+000	 1.787133082425423e+000	 1.080862402326996e+001
 3.616159984748968e+000	 1.823701446164401e+000	 1.080861729386873e+001
 3.597550227654190e+000	 1.860143101900514e+000	 1.081101747319490e+001
 3.788887326821345e+000	 1.499985941492418e+000	 1.107876071494455e+001
 3.773791193743661e+000	 1.537571145033858e+000	 1.097662573463025e+001
 3.758290747285668e+000	 1.575079572238361e+000	 1.088502597005023e+001
 3.742385977266211e+000	 1.612504944853311e+000	 1.083120661396474e+001
 3.726076999127117e+000	 1.649840960999605e+000	 1.081532653030717e+001
 3.709364055096013e+000	 1.687081298213093e+000	 1.080620815247093e+001
 3.692247515263667e+000	 1.724219616537203e+000	 1.080319651450231e+001
 3.674727878573526e+000	 1.761249561664025e+000	 1.080553995994088e+001
 3.656805773721258e+000	 1.798164768121055e+000	 1.081238900436046e+001
 3.638481959962131e+000	 1.834958862500678e+000	 1.082279541083295e+001
 3.619757327824249e+000	 1.871625466729350e+000	 1.083571148556160e+001
 3.812132034345510e+000	 1.509188309233287e+000	 1.107911786078871e+001
 3.796943286954317e+000	 1.547004096845295e+000	 1.098439669626448e+001
 3.781347745732699e+000	 1.584742637099948e+000	 1.089946559195428e+001
 3.765345400437040e+000	 1.622397613227745e+000	 1.082463829488068e+001
 3.748936367217401e+000	 1.659962684687746e+000	 1.076391133037908e+001
 3.732120889787467e+000	 1.697431490227682e+000	 1.076579285142178e+001
 3.714899340508502e+000	 1.734797650995538e+000	 1.077378885149817e+001
 3.697272221384958e+000	 1.772054773699921e+000	 1.078718248824399e+001
 3.679240164969529e+000	 1.809196453816351e+000	 1.080515782216762e+001
 3.660803935175493e+000	 1.846216278836551e+000	 1.082679882869785e+001
 3.641964427994314e+000	 1.883107831557690e+000	 1.083573394243520e+001
 3.835376741870674e+000	 1.518390676973651e+000	 1.106678044516411e+001
 3.820095380165963e+000	 1.556437048656317e+000	 1.098038382402324e+001
 3.804404744180690e+000	 1.594405701961191e+000	 1.090304907558241e+001
 3.788304823608781e+000	 1.632290281601885e+000	 1.083511477523909e+001
 3.771795735308528e+000	 1.670084408375627e+000	 1.077689374985147e+001
 3.754877724479676e+000	 1.707781682242020e+000	 1.072867327602610e+001
 3.737551165753983e+000	 1.745375685453613e+000	 1.073154296221891e+001
 3.719816564196904e+000	 1.782859985735529e+000	 1.075671377930848e+001
 3.701674556218166e+000	 1.820228139511309e+000	 1.078657951494580e+001
 3.683125910389052e+000	 1.857473695172016e+000	 1.082025606426392e+001
 3.664171528164389e+000	 1.894590196385535e+000	 1.081936020085356e+001
 3.858621449396840e+000	 1.527593044713509e+000	 1.104199771849208e+001
 3.843247473378598e+000	 1.565870000466923e+000	 1.096482385772936e+001
 3.827461742629643e+000	 1.604068766822089e+000	 1.089600045440074e+001
 3.811264246781434e+000	 1.642182949975733e+000	 1.083589031255815e+001
 3.794655103400497e+000	 1.680206132063246e+000	 1.078483110408004e+001
 3.777634559172637e+000	 1.718131874256107e+000	 1.074313556457363e+001
 3.760202991000109e+000	 1.755953719911430e+000	 1.071109175167200e+001
 3.742360907009368e+000	 1.793665197770850e+000	 1.071380183495950e+001
 3.724108947467171e+000	 1.831259825205930e+000	 1.075630186961739e+001
 3.705447885602809e+000	 1.868731111507075e+000	 1.080279480308714e+001
 3.686378628334472e+000	 1.906072561212882e+000	 1.079316777636945e+001
 3.881866156924004e+000	 1.536795412452863e+000	 1.100501462542004e+001
 3.866399566592226e+000	 1.575302952277115e+000	 1.093794960016261e+001
 3.850518741079557e+000	 1.613731831682644e+000	 1.087854019892316e+001
 3.834223669954998e+000	 1.652075618349287e+000	 1.082717285741771e+001
 3.817514471493309e+000	 1.690327855750602e+000	 1.078420947638704e+001
 3.800391393866355e+000	 1.728482066269945e+000	 1.074998761566811e+001
 3.782854816246879e+000	 1.766531754368986e+000	 1.072482075032845e+001
 3.764905249822348e+000	 1.804470409805882e+000	 1.070899858827614e+001
 3.746543338716543e+000	 1.842291510900214e+000	 1.071397145923789e+001
 3.727769860816763e+000	 1.879988527841727e+000	 1.076442751410404e+001
 3.708585728504561e+000	 1.917554926039734e+000	 1.075746261857598e+001
 3.905110864452169e+000	 1.545997780191711e+000	 1.095607193296958e+001
 3.889551659806843e+000	 1.584735904086892e+000	 1.089999003423365e+001
 3.873575739530430e+000	 1.623394896542854e+000	 1.085088532275161e+001
 3.857183093129475e+000	 1.661968286722549e+000	 1.080916727150973e+001
 3.840373839586965e+000	 1.700449579437697e+000	 1.077522139666348e+001
 3.823148228560824e+000	 1.738832258283531e+000	 1.074940945033303e+001
 3.805506641494295e+000	 1.777109788826284e+000	 1.073206967516590e+001
 3.787449592635845e+000	 1.815275621840626e+000	 1.072351712005598e+001
 3.768977729966282e+000	 1.853323196594162e+000	 1.072404401619926e+001
 3.750091836030915e+000	 1.891245944175974e+000	 1.070364565892874e+001
 3.730792828674659e+000	 1.929037290866090e+000	 1.071255029410373e+001
 3.928355571981333e+000	 1.555200147930054e+000	 1.089540635413481e+001
 3.912703753022449e+000	 1.594168855896254e+000	 1.085117043599781e+001
 3.896632737982265e+000	 1.633057961402721e+000	 1.081324948485155e+001
 3.880142516304864e+000	 1.671860955095518e+000	 1.078207541902552e+001
 3.863233207681463e+000	 1.710571303124530e+000	 1.075805675921863e+001
 3.845905063256048e+000	 1.749182450296868e+000	 1.074157882057429e+001
 3.828158466742356e+000	 1.787687823283323e+000	 1.073300396626230e+001
 3.809993935449857e+000	 1.826080833875083e+000	 1.073267192193353e+001
 3.791412121216387e+000	 1.864354882287772e+000	 1.074090015020210e+001
 3.772413811245263e+000	 1.902503360509814e+000	 1.070867434484203e+001
 3.752999928844765e+000	 1.940519655691950e+000	 1.066838557434406e+001
 3.951600279511499e+000	 1.564402515667893e+000	 1.082325066711847e+001
 3.935855846239047e+000	 1.603601807705202e+000	 1.079171248368033e+001
 3.919689736435062e+000	 1.642721026262243e+000	 1.076584308821774e+001
 3.903101939481164e+000	 1.681753623468193e+000	 1.074609625481746e+001
 3.886092575776805e+000	 1.720693026811101e+000	 1.073290290029719e+001
 3.868661897952027e+000	 1.759532642309954e+000	 1.072667127611594e+001
 3.850810291991064e+000	 1.798265857740103e+000	 1.072778722156713e+001
 3.832538278264387e+000	 1.836886045909252e+000	 1.073661447759547e+001
 3.813846512466861e+000	 1.875386567981046e+000	 1.075281952032015e+001
 3.794735786459811e+000	 1.913760776843248e+000	 1.071183520393252e+001
 3.775207029014879e+000	 1.952002020517314e+000	 1.068164277744075e+001
 3.553136027314097e+000	 1.837178372241353e+000	 1.073524428939300e+001
 3.534363582552064e+000	 1.873038725264742e+000	 1.085200619745229e+001
 3.515199833610370e+000	 1.908761412482587e+000	 1.090011140434978e+001
 3.495646044446416e+000	 1.944340179066090e+000	 1.093253441413511e+001
 3.475703609714793e+000	 1.979768778769484e+000	 1.095194739323265e+001
 3.455374054979496e+000	 2.015040977286106e+000	 1.095822946639038e+001
 3.434659036824272e+000	 2.050150555623710e+000	 1.095129906652181e+001
 3.413560342859975e+000	 2.085091313495475e+000	 1.093111488133065e+001
 3.392079891627955e+000	 2.119857072723085e+000	 1.089767670360349e+001
 3.370219732398642e+000	 2.154441680648209e+000	 1.085102618125224e+001
 3.347982044864625e+000	 2.188839013548634e+000	 1.079124746344959e+001
 3.575343127484140e+000	 1.848660737071182e+000	 1.077739806304495e+001
 3.556453354943440e+000	 1.884745217301496e+000	 1.087613957906524e+001
 3.537169832571846e+000	 1.920691171314831e+000	 1.091737057665195e+001
 3.517493832226493e+000	 1.956492305189702e+000	 1.094639689320163e+001
 3.497426757278562e+000	 1.992142333641312e+000	 1.096308241168169e+001
 3.476970142826822e+000	 2.027634983398575e+000	 1.096732969678641e+001
 3.456125655808669e+000	 2.062963996600547e+000	 1.095908102509029e+001
 3.434895095007523e+000	 2.098123134208612e+000	 1.093831932136877e+001
 3.413280390955621e+000	 2.133106179430840e+000	 1.090506899689159e+001
 3.391283605731326e+000	 2.167906941154782e+000	 1.085939668574297e+001
 3.368906932650309e+000	 2.202519257384963e+000	 1.080141187549034e+001
 3.597550227654190e+000	 1.860143101900514e+000	 1.081101747319490e+001
 3.578543127334634e+000	 1.896451709337664e+000	 1.088712194589970e+001
 3.559139831532968e+000	 1.932620930146416e+000	 1.092501613605000e+001
 3.539341620006065e+000	 1.968644431312608e+000	 1.095133059110881e+001
 3.519149904841695e+000	 2.004515888512400e+000	 1.096595174306887e+001
 3.498566230673402e+000	 2.040228989510295e+000	 1.096880514140361e+001
 3.477592274792229e+000	 2.075777437576643e+000	 1.095985647535646e+001
 3.456229847154164e+000	 2.111154954921037e+000	 1.093911250069818e+001
 3.434480890282325e+000	 2.146355286137931e+000	 1.090662186672291e+001
 3.412347479063020e+000	 2.181372201660762e+000	 1.086247583950813e+001
 3.389831820434993e+000	 2.216199501220790e+000	 1.080680891773637e+001
 3.619757327824249e+000	 1.871625466729350e+000	 1.083571148556160e+001
 3.600632899725644e+000	 1.908158201373246e+000	 1.088808618113917e+001
 3.581109830493738e+000	 1.944550688977346e+000	 1.092334363106810e+001
 3.561189407785134e+000	 1.980796557434805e+000	 1.094762504274209e+001
 3.540873052404193e+000	 2.016889443382751e+000	 1.096083892106003e+001
 3.520162318519235e+000	 2.052822995621266e+000	 1.096293334764169e+001
 3.499058893774951e+000	 2.088590878552000e+000	 1.095389699602985e+001
 3.477564599299897e+000	 2.124186775632751e+000	 1.093376004962384e+001
 3.455681389608072e+000	 2.159604392844361e+000	 1.090259501807985e+001
 3.433411352393724e+000	 2.194837462166150e+000	 1.086051744817155e+001
 3.410756708218677e+000	 2.229879745056114e+000	 1.080768652538334e+001
 3.641964427994314e+000	 1.883107831557690e+000	 1.083573394243520e+001
 3.622722672116472e+000	 1.919864693408242e+000	 1.087933365276868e+001
 3.603079829454155e+000	 1.956480447807618e+000	 1.091264863031616e+001
 3.583037195563698e+000	 1.992948683556295e+000	 1.093557002293392e+001
 3.562596199966056e+000	 2.029262998252362e+000	 1.094802793463196e+001
 3.541758406364323e+000	 2.065417001731487e+000	 1.094999252895843e+001
 3.520525512756837e+000	 2.101404319526616e+000	 1.094147503789045e+001
 3.498899351444720e+000	 2.137218596343754e+000	 1.092252867168363e+001
 3.476881888932859e+000	 2.172853499550128e+000	 1.089324942537720e+001
 3.454475225723438e+000	 2.208302722670944e+000	 1.085377677791542e+001
 3.431681596001361e+000	 2.243559988890935e+000	 1.080429428012998e+001
 3.664171528164389e+000	 1.894590196385535e+000	 1.081936020085356e+001
 3.644812444507119e+000	 1.931571185442651e+000	 1.086116553080889e+001
 3.625049828414218e+000	 1.968410206637234e+000	 1.089322672188126e+001
 3.604884983341758e+000	 2.005100809677078e+000	 1.091545553919254e+001
 3.584319347527286e+000	 2.041636553121236e+000	 1.092780321427518e+001
 3.563354494208663e+000	 2.078011007840959e+000	 1.093026154468607e+001
 3.541992131737885e+000	 2.114217760500491e+000	 1.092286389736236e+001
 3.520234103588635e+000	 2.150250417054045e+000	 1.090568611112613e+001
 3.498082388256686e+000	 2.186102606255233e+000	 1.087884729399444e+001
 3.475539099052162e+000	 2.221767983175147e+000	 1.084251051122095e+001
 3.452606483783046e+000	 2.257240232725254e+000	 1.079688336028403e+001
 3.686378628334472e+000	 1.906072561212882e+000	 1.079316777636945e+001
 3.666902216897582e+000	 1.943277677476475e+000	 1.083388279327889e+001
 3.647019827373930e+000	 1.980339965466193e+000	 1.086537351274089e+001
 3.626732771119317e+000	 2.017252935797153e+000	 1.088757182469376e+001
 3.606042495087878e+000	 2.054010107989371e+000	 1.090044961869526e+001
 3.584950582052259e+000	 2.090605013949682e+000	 1.090401988057725e+001
 3.563458750718094e+000	 2.127031201473626e+000	 1.089833769104260e+001
 3.541568855731642e+000	 2.163282237763625e+000	 1.088350112156395e+001
 3.519282887579553e+000	 2.199351712959676e+000	 1.085965202319858e+001
 3.496602972379896e+000	 2.235233243678757e+000	 1.082697670420881e+001
 3.473531371563731e+000	 2.270920476559069e+000	 1.078570649267160e+001
 3.708585728504561e+000	 1.917554926039734e+000	 1.075746261857598e+001
 3.688991989287863e+000	 1.954984169509711e+000	 1.079778623194469e+001
 3.668989826333287e+000	 1.992269724294494e+000	 1.082938462819742e+001
 3.648580558896370e+000	 2.029405061916520e+000	 1.085220933152441e+001
 3.627765642647836e+000	 2.066383662856767e+000	 1.086625242199203e+001
 3.606546669895108e+000	 2.103199020057653e+000	 1.087154763004990e+001
 3.584925369697467e+000	 2.139844642446019e+000	 1.086817133114496e+001
 3.562903607873741e+000	 2.176314058472495e+000	 1.085624343575321e+001
 3.540483386901463e+000	 2.212600819663458e+000	 1.083592817039896e+001
 3.517666845706641e+000	 2.248698504181774e+000	 1.080743474551212e+001
 3.494456259343415e+000	 2.284600720392382e+000	 1.077101790627441e+001
 3.730792828674659e+000	 1.929037290866090e+000	 1.071255029410373e+001
 3.711081761677962e+000	 1.966690661542362e+000	 1.075317645786260e+001
 3.690959825292291e+000	 2.004199483122140e+000	 1.078555571133274e+001
 3.670428346672918e+000	 2.041557188035180e+000	 1.080965872416709e+001
 3.649488790207160e+000	 2.078757217723425e+000	 1.082549730129669e+001
 3.628142757737210e+000	 2.115793026164877e+000	 1.083312547610202e+001
 3.606391988676003e+000	 2.152658083417674e+000	 1.083264050182098e+001
 3.584238360014931e+000	 2.189345879180652e+000	 1.082418373645236e+001
 3.561683886222414e+000	 2.225849926366578e+000	 1.080794141667873e+001
 3.538730719032396e+000	 2.262163764684199e+000	 1.078414531661842e+001
 3.515381147122099e+000	 2.298280964225193e+000	 1.075307328752263e+001
 3.752999928844765e+000	 1.940519655691950e+000	 1.066838557434406e+001
 3.733171534067878e+000	 1.978397153574426e+000	 1.070035390672549e+001
 3.712929824250943e+000	 2.016129241949128e+000	 1.073418242248214e+001
 3.692276134448962e+000	 2.053709314153131e+000	 1.076021087321633e+001
 3.671211937765847e+000	 2.091130772589344e+000	 1.077847032484771e+001
 3.649738845578567e+000	 2.128387032271351e+000	 1.078903467386840e+001
 3.627858607653701e+000	 2.165471524388587e+000	 1.079202163632156e+001
 3.605573112155213e+000	 2.202377699888097e+000	 1.078759362831565e+001
 3.582884385542403e+000	 2.239099033069035e+000	 1.077595853355011e+001
 3.559794592357162e+000	 2.275629025186031e+000	 1.075737035361948e+001
 3.536306034899783e+000	 2.311961208057501e+000	 1.073212973717531e+001
 3.775207029014879e+000	 1.952002020517314e+000	 1.068164277744075e+001
 3.755261306457614e+000	 1.990103645605905e+000	 1.065640611139331e+001
 3.734899823209242e+000	 2.028059000775460e+000	 1.067556043872698e+001
 3.714123922224505e+000	 2.065861440270376e+000	 1.070415684931644e+001
 3.692935085323902e+000	 2.103504327454526e+000	 1.072545794048775e+001
 3.671334933419178e+000	 2.140981038377075e+000	 1.073955703379311e+001
 3.649325226630563e+000	 2.178284965358760e+000	 1.074659189496460e+001
 3.626907864294587e+000	 2.215409520594833e+000	 1.074674561077849e+001
 3.604084884861436e+000	 2.252348139770831e+000	 1.074024735088289e+001
 3.580858465680938e+000	 2.289094285687272e+000	 1.072737301031120e+001
 3.557230922676468e+000	 2.325641451889307e+000	 1.070844572872224e+001
 3.347982044864625e+000	 2.188839013548634e+000	 1.079124746344959e+001
 3.325369138727341e+000	 2.223042980055294e+000	 1.073624794018042e+001
 3.302383453178052e+000	 2.257047524566414e+000	 1.070362162692361e+001
 3.279027556272166e+000	 2.290846630654907e+000	 1.069410625891188e+001
 3.255304144196106e+000	 2.324434324465135e+000	 1.070845324263497e+001
 3.231216040427900e+000	 2.357804678095201e+000	 1.074742701906276e+001
 3.206766194791349e+000	 2.390951812960879e+000	 1.081180434365072e+001
 3.181957682404208e+000	 2.423869903137296e+000	 1.090237348316093e+001
 3.156793702520920e+000	 2.456553178674487e+000	 1.101993332963813e+001
 3.131277577270648e+000	 2.488995928882965e+000	 1.116529243218988e+001
 3.105412750291483e+000	 2.521192505585459e+000	 1.106189260372947e+001
 3.368906932650309e+000	 2.202519257384963e+000	 1.080141187549034e+001
 3.346152695849630e+000	 2.236936998681402e+000	 1.075701484621615e+001
 3.323023349765487e+000	 2.271154071594951e+000	 1.073397766286120e+001
 3.299521478503630e+000	 2.305164422095855e+000	 1.073304465044928e+001
 3.275649795101650e+000	 2.338962038991882e+000	 1.075497565602924e+001
 3.251411140684310e+000	 2.372540957331743e+000	 1.080054541594437e+001
 3.226808483511812e+000	 2.405895261790065e+000	 1.087054283621054e+001
 3.201844917921395e+000	 2.439019090029943e+000	 1.096577018599742e+001
 3.176523663162844e+000	 2.471906636039226e+000	 1.108704220452383e+001
 3.150848062128626e+000	 2.504552153436617e+000	 1.119573880619612e+001
 3.124821579979573e+000	 2.536949958743739e+000	 1.108545048973791e+001
 3.389831820434993e+000	 2.216199501220790e+000	 1.080680891773637e+001
 3.366936252970930e+000	 2.250831017307106e+000	 1.077318279434465e+001
 3.343663246351960e+000	 2.285260618623185e+000	 1.075990142748578e+001
 3.320015400734183e+000	 2.319482213536602e+000	 1.076771570309294e+001
 3.295995446006352e+000	 2.353489753518526e+000	 1.079739389499896e+001
 3.271606240939970e+000	 2.387277236568283e+000	 1.084972103638413e+001
 3.246850772231634e+000	 2.420838710619349e+000	 1.092549820062359e+001
 3.221732153438071e+000	 2.454168276922789e+000	 1.102554169148952e+001
 3.196253623804405e+000	 2.487260093404263e+000	 1.115068214298970e+001
 3.170418546986411e+000	 2.520108377990668e+000	 1.113165345994040e+001
 3.144230409667659e+000	 2.552707411902517e+000	 1.102730323772927e+001
 3.410756708218677e+000	 2.229879745056114e+000	 1.080768652538334e+001
 3.387719810091239e+000	 2.264725035932409e+000	 1.078499997660339e+001
 3.364303142937474e+000	 2.299367165651117e+000	 1.078164098261373e+001
 3.340509322963825e+000	 2.333800004977146e+000	 1.079836696063944e+001
 3.316341096910214e+000	 2.368017468045067e+000	 1.083595459711821e+001
 3.291801341194878e+000	 2.402013515804821e+000	 1.089519922346109e+001
 3.266893060950814e+000	 2.435782159448731e+000	 1.097691409746792e+001
 3.241619388954234e+000	 2.469317463815833e+000	 1.108192959031241e+001
 3.215983584445602e+000	 2.502613550769600e+000	 1.118980856899102e+001
 3.189989031844004e+000	 2.535664602545118e+000	 1.107071671683912e+001
 3.163639239355744e+000	 2.568464865061795e+000	 1.097169775138393e+001
 3.431681596001361e+000	 2.243559988890935e+000	 1.080429428012998e+001
 3.408503367210559e+000	 2.278619054557308e+000	 1.079271626352547e+001
 3.384943039522027e+000	 2.313473712678746e+000	 1.079944610545793e+001
 3.361003245192558e+000	 2.348117796417488e+000	 1.082524772408784e+001
 3.336686747813234e+000	 2.382545182571506e+000	 1.087090620386830e+001
 3.311996441449033e+000	 2.416749795041357e+000	 1.093722717575595e+001
 3.286935349669350e+000	 2.450725608278211e+000	 1.102503609929467e+001
 3.261506624469884e+000	 2.484466650709074e+000	 1.113517744644709e+001
 3.235713545086438e+000	 2.517967008135234e+000	 1.112566679997472e+001
 3.209559516701404e+000	 2.551220827099967e+000	 1.101293795614338e+001
 3.183048069043826e+000	 2.584222318221571e+000	 1.091941010559775e+001
 3.452606483783046e+000	 2.257240232725254e+000	 1.079688336028403e+001
 3.429286924328888e+000	 2.292513073181805e+000	 1.079658315327620e+001
 3.405582936105619e+000	 2.327580259706072e+000	 1.081356823664607e+001
 3.381497167420379e+000	 2.362435587857628e+000	 1.084860899839103e+001
 3.357032398715414e+000	 2.397072897097844e+000	 1.090249890597401e+001
 3.332191541702438e+000	 2.431486074277891e+000	 1.097605389112373e+001
 3.306977638387247e+000	 2.465669057107790e+000	 1.107011163268937e+001
 3.281393859985023e+000	 2.499615837602515e+000	 1.118553073738307e+001
 3.255443505726912e+000	 2.533320465501167e+000	 1.106454357773751e+001
 3.229130001558612e+000	 2.566777051655214e+000	 1.095832860362688e+001
 3.202456898731904e+000	 2.599979771381846e+000	 1.087044779131440e+001
 3.473531371563731e+000	 2.270920476559069e+000	 1.078570649267160e+001
 3.450070481446228e+000	 2.306407091805899e+000	 1.079685372262796e+001
 3.426222832688253e+000	 2.341686806733097e+000	 1.082426043011770e+001
 3.401991089647289e+000	 2.376753379297564e+000	 1.086870344113186e+001
 3.377378049616752e+000	 2.411600611624079e+000	 1.093098459071539e+001
 3.352386641955091e+000	 2.446222353514424e+000	 1.101193011249877e+001
 3.327019927104500e+000	 2.480612505937467e+000	 1.111238992242765e+001
 3.301281095499650e+000	 2.514765024496154e+000	 1.112284353848517e+001
 3.275173466367022e+000	 2.548673922867399e+000	 1.100645592999532e+001
 3.248700486415626e+000	 2.582333276210859e+000	 1.090690206994356e+001
 3.221865728419981e+000	 2.615737224542619e+000	 1.082482035563823e+001
 3.494456259343415e+000	 2.284600720392382e+000	 1.077101790627441e+001
 3.470854038562576e+000	 2.320301110429591e+000	 1.079378257969655e+001
 3.446862729269925e+000	 2.355793353759819e+000	 1.083177730482157e+001
 3.422485011873289e+000	 2.391071170737299e+000	 1.088578531304318e+001
 3.397723700517249e+000	 2.426128326150212e+000	 1.095661679113283e+001
 3.372581742206992e+000	 2.460958632750953e+000	 1.104510827564683e+001
 3.347062215821112e+000	 2.495555954767242e+000	 1.115212193763712e+001
 3.321168331013763e+000	 2.529914211389992e+000	 1.106013002957443e+001
 3.294903427006771e+000	 2.564027380233930e+000	 1.095142274514536e+001
 3.268270971272449e+000	 2.597889500766904e+000	 1.085867369120007e+001
 3.241274558108055e+000	 2.631494677703892e+000	 1.078253934027244e+001
 3.515381147122099e+000	 2.298280964225193e+000	 1.075307328752263e+001
 3.491637595677935e+000	 2.334195129052880e+000	 1.078762581836551e+001
 3.467502625850638e+000	 2.369899900786238e+000	 1.083637499813797e+001
 3.442978934098379e+000	 2.405388962176831e+000	 1.090011043029505e+001
 3.418069351416905e+000	 2.440656040676242e+000	 1.097965063704603e+001
 3.392776842458142e+000	 2.475694911987481e+000	 1.107584245878323e+001
 3.367104504537082e+000	 2.510499403597115e+000	 1.111566453647958e+001
 3.341055566527366e+000	 2.545063398284028e+000	 1.100035567310846e+001
 3.314633387646158e+000	 2.579380837600758e+000	 1.089946471688880e+001
 3.287841456129079e+000	 2.613445725323347e+000	 1.081366067165062e+001
 3.260683387796125e+000	 2.647252130865662e+000	 1.074361822215612e+001
 3.536306034899783e+000	 2.311961208057501e+000	 1.073212973717531e+001
 3.512421152792304e+000	 2.348089147675766e+000	 1.077864097432842e+001
 3.488142522430389e+000	 2.384006447812355e+000	 1.083831112095465e+001
 3.463472856322557e+000	 2.419706753616161e+000	 1.091193611847596e+001
 3.438415002315720e+000	 2.455183755202171e+000	 1.100034280781201e+001
 3.412971942708541e+000	 2.490431191224007e+000	 1.110438833397963e+001
 3.387146793252410e+000	 2.525442852427087e+000	 1.105002137113696e+001
 3.360942802040456e+000	 2.560212585178262e+000	 1.094354610700677e+001
 3.334363348285181e+000	 2.594734294967886e+000	 1.085060429081931e+001
 3.307411940985515e+000	 2.629001949880189e+000	 1.077188202842635e+001
 3.280092217484194e+000	 2.663009584027932e+000	 1.070807235620867e+001
 3.557230922676468e+000	 2.325641451889307e+000	 1.070844572872224e+001
 3.533204709905683e+000	 2.361983166298250e+000	 1.076708698268285e+001
 3.508782419009181e+000	 2.398112994838169e+000	 1.083784471432839e+001
 3.483966778545826e+000	 2.434024545055289e+000	 1.092152116819798e+001
 3.458760653213694e+000	 2.469711469727998e+000	 1.101895148675050e+001
 3.433167042958189e+000	 2.505167470460532e+000	 1.109671847510137e+001
 3.407189081967098e+000	 2.540386301257156e+000	 1.098724419659796e+001
 3.380830037553034e+000	 2.575361772072695e+000	 1.088972861438331e+001
 3.354093308923843e+000	 2.610087752335312e+000	 1.080486561289685e+001
 3.326982425841761e+000	 2.644558174437430e+000	 1.073335853821546e+001
 3.299501047172259e+000	 2.678767037190700e+000	 1.067591892009514e+001
 3.105412750291483e+000	 2.521192505585459e+000	 1.106189260372947e+001
 3.079202785261663e+000	 2.553137326331711e+000	 1.093473350656980e+001
 3.052651364329597e+000	 2.584824877570536e+000	 1.083084373838951e+001
 3.025762286443788e+000	 2.616249717776630e+000	 1.074963940583728e+001
 2.998539465583634e+000	 2.647406480529932e+000	 1.069050842938224e+001
 2.970986928893433e+000	 2.678289877541903e+000	 1.065281183976921e+001
 2.943108814721196e+000	 2.708894701625782e+000	 1.063588512070515e+001
 2.914909370564268e+000	 2.739215829607388e+000	 1.063903959445127e+001
 2.886392950923881e+000	 2.769248225173028e+000	 1.066156384688133e+001
 2.857564015070872e+000	 2.798986941651220e+000	 1.070272518846250e+001
 2.828427124725000e+000	 2.828427124725000e+000	 1.076177114752486e+001
 3.124821579979573e+000	 2.536949958743739e+000	 1.108545048973791e+001
 3.098447802667084e+000	 2.569094434619900e+000	 1.095931936054051e+001
 3.071730435353171e+000	 2.600980033054108e+000	 1.085618266466100e+001
 3.044673300729765e+000	 2.632601278511519e+000	 1.077540978892491e+001
 3.017280337238636e+000	 2.663952771031953e+000	 1.071634210731079e+001
 2.989555597193735e+000	 2.695029189275061e+000	 1.067829434119581e+001
 2.961503244807746e+000	 2.725825293509172e+000	 1.066055596579970e+001
 2.933127554124876e+000	 2.756335928540261e+000	 1.066239265937174e+001
 2.904432906861986e+000	 2.786556026577674e+000	 1.068304779155032e+001
 2.875423790160358e+000	 2.816480610033235e+000	 1.072174394722114e+001
 2.846104794250500e+000	 2.846104794250500e+000	 1.077768448211005e+001
 3.144230409667659e+000	 2.552707411902517e+000	 1.102730323772927e+001
 3.117692820072692e+000	 2.585051542908685e+000	 1.098284866203617e+001
 3.090809506377104e+000	 2.617135188538358e+000	 1.088000137628908e+001
 3.063584315016250e+000	 2.648952839247163e+000	 1.079920814893190e+001
 3.036021208894278e+000	 2.680499061534792e+000	 1.073976380269393e+001
 3.008124265494786e+000	 2.711768501009096e+000	 1.070093673608718e+001
 2.979897674895137e+000	 2.742755885393480e+000	 1.068197039381297e+001
 2.951345737686393e+000	 2.773456027474087e+000	 1.068208477976097e+001
 2.922472862801051e+000	 2.803863827983302e+000	 1.070047800889893e+001
 2.893283565250835e+000	 2.833974278416246e+000	 1.073632789424818e+001
 2.863782463777000e+000	 2.863782463776999e+000	 1.078879356504973e+001
 3.163639239355744e+000	 2.568464865061795e+000	 1.097169775138393e+001
 3.136937837478489e+000	 2.601008651198063e+000	 1.095950145099767e+001
 3.109888577401392e+000	 2.633290344023286e+000	 1.090222853723973e+001
 3.082495329303243e+000	 2.665304399983560e+000	 1.082097485673278e+001
 3.054762080550558e+000	 2.697045352038451e+000	 1.076072544513487e+001
 3.026692933796586e+000	 2.728507812744004e+000	 1.072070235739357e+001
 2.998292104983366e+000	 2.759686477278709e+000	 1.070010297854228e+001
 2.969563921248820e+000	 2.790576126408869e+000	 1.069810160073640e+001
 2.940512818741076e+000	 2.821171629389907e+000	 1.071385103890993e+001
 2.911143340342301e+000	 2.851467946800253e+000	 1.074648428111562e+001
 2.881460133304500e+000	 2.881460133304500e+000	 1.079511616952204e+001
 3.183048069043826e+000	 2.584222318221571e+000	 1.091941010559775e+001
 3.156182854884472e+000	 2.616965759488034e+000	 1.091017367316374e+001
 3.128967648426040e+000	 2.649445499508894e+000	 1.090905681930833e+001
 3.101406343590746e+000	 2.681655960720713e+000	 1.084065171320269e+001
 3.073502952207474e+000	 2.713591642542929e+000	 1.077918014971566e+001
 3.045261602099134e+000	 2.745247124479786e+000	 1.073755548301075e+001
 3.016686535072434e+000	 2.776617069164856e+000	 1.071492900230509e+001
 2.987782104812156e+000	 2.807696225344604e+000	 1.071042924373521e+001
 2.958552774682061e+000	 2.838479430797494e+000	 1.072316367002472e+001
 2.929003115434757e+000	 2.868961615185254e+000	 1.075222038444404e+001
 2.899137802833000e+000	 2.899137802833000e+000	 1.079666987490360e+001
 3.202456898731904e+000	 2.599979771381846e+000	 1.087044779131440e+001
 3.175427872290643e+000	 2.632922867778599e+000	 1.086362353620086e+001
 3.148046719451044e+000	 2.665600654995181e+000	 1.086424167380204e+001
 3.120317357878754e+000	 2.698007521458619e+000	 1.085818190588407e+001
 3.092243823865031e+000	 2.730137933048226e+000	 1.079508218107357e+001
 3.063830270402432e+000	 2.761986436216443e+000	 1.075146130714525e+001
 3.035080965162342e+000	 2.793547661051924e+000	 1.072642443446872e+001
 3.006000288376402e+000	 2.824816324281296e+000	 1.071905429208043e+001
 2.976592730624005e+000	 2.855787232206059e+000	 1.072841293161434e+001
 2.946862890528204e+000	 2.886455283571249e+000	 1.075354350514362e+001
 2.916815472362500e+000	 2.916815472362500e+000	 1.079347207264219e+001
 3.221865728419981e+000	 2.615737224542619e+000	 1.082482035563823e+001
 3.194672889697001e+000	 2.648879976069759e+000	 1.081986928960865e+001
 3.167125790476407e+000	 2.681755810482147e+000	 1.082168620129926e+001
 3.139228372167272e+000	 2.714359082197278e+000	 1.083071158118479e+001
 3.110984695523225e+000	 2.746684223554342e+000	 1.080838691877590e+001
 3.082398938706478e+000	 2.778725747953974e+000	 1.076238591271468e+001
 3.053475395253089e+000	 2.810478252939912e+000	 1.073456591075601e+001
 3.024218471941557e+000	 2.841936423218941e+000	 1.072396377706861e+001
 2.994632686566910e+000	 2.873095033615605e+000	 1.072959608672248e+001
 2.964722665622640e+000	 2.903948951958240e+000	 1.075046096768238e+001
 2.934493141892999e+000	 2.934493141893000e+000	 1.078553997191729e+001
 3.241274558108055e+000	 2.631494677703892e+000	 1.078253934027244e+001
 3.213917907103547e+000	 2.664837084361511e+000	 1.077893094415966e+001
 3.186204861502127e+000	 2.697910965969791e+000	 1.078141868657935e+001
 3.158139386456297e+000	 2.730710642936693e+000	 1.079042803298557e+001
 3.129725567182059e+000	 2.763230514061278e+000	 1.080639437294065e+001
 3.100967607011273e+000	 2.795465059692380e+000	 1.077029624473959e+001
 3.071869825344674e+000	 2.827408844828819e+000	 1.073933071329463e+001
 3.042436655507622e+000	 2.859056522157542e+000	 1.072514516455754e+001
 3.012672642510774e+000	 2.890402835026131e+000	 1.072671062506938e+001
 2.982582440718066e+000	 2.921442620346226e+000	 1.074298011938107e+001
 2.952170811424500e+000	 2.952170811424500e+000	 1.077289060509727e+001
 3.260683387796125e+000	 2.647252130865662e+000	 1.074361822215612e+001
 3.233162924510279e+000	 2.680794192653857e+000	 1.074083021948051e+001
 3.205283932528204e+000	 2.714066121458115e+000	 1.074346890009504e+001
 3.177050400745831e+000	 2.747062203676860e+000	 1.075194517043845e+001
 3.148466438841530e+000	 2.779776804569033e+000	 1.076668082175241e+001
 3.119536275316816e+000	 2.812204371431659e+000	 1.077516008468565e+001
 3.090264255437100e+000	 2.844339436718645e+000	 1.074069675137881e+001
 3.060654839074597e+000	 2.876176621097097e+000	 1.072258634203281e+001
 3.030712598455597e+000	 2.907710636437636e+000	 1.071975425630544e+001
 3.000442215814482e+000	 2.938936288735206e+000	 1.073110832973284e+001
 2.969848480956999e+000	 2.969848480956999e+000	 1.075554083300156e+001
 3.280092217484194e+000	 2.663009584027932e+000	 1.070807235620867e+001
 3.252407941917199e+000	 2.696751300946797e+000	 1.070559049349413e+001
 3.224363003554640e+000	 2.730221276947117e+000	 1.070786805401756e+001
 3.195961415035872e+000	 2.763413764417782e+000	 1.071530184845226e+001
 3.167207310501641e+000	 2.796323095077607e+000	 1.072830053704119e+001
 3.138104943623110e+000	 2.828943683171814e+000	 1.074728352321215e+001
 3.108658685530364e+000	 2.861270028609391e+000	 1.073864254291410e+001
 3.078873022642481e+000	 2.893296720037607e+000	 1.071627560613368e+001
 3.048752554401381e+000	 2.925018437850121e+000	 1.070872490350446e+001
 3.018301990911889e+000	 2.956429957125182e+000	 1.071485298974735e+001
 2.987526150490500e+000	 2.987526150490500e+000	 1.073350734997609e+001
 3.299501047172259e+000	 2.678767037190700e+000	 1.067591892009514e+001
 3.271652959324307e+000	 2.712708409240331e+000	 1.067323675364628e+001
 3.243442074581433e+000	 2.746376432436798e+000	 1.067464875983312e+001
 3.214872429326423e+000	 2.779765325159458e+000	 1.068053811416316e+001
 3.185948182162389e+000	 2.812869385587000e+000	 1.069130081069706e+001
 3.156673611930151e+000	 2.845682994912844e+000	 1.070734455956751e+001
 3.127053115624468e+000	 2.878200620501057e+000	 1.072908763961725e+001
 3.097091206211275e+000	 2.910416818979073e+000	 1.070620165061906e+001
 3.066792510348125e+000	 2.942326239263588e+000	 1.069362069688641e+001
 3.036161766010286e+000	 2.973923625516154e+000	 1.069422151131790e+001
 3.005203820025000e+000	 3.005203820025000e+000	 1.070680668878953e+001
 2.828427124725000e+000	 2.828427124725000e+000	 1.076177114752486e+001
 2.798986941651219e+000	 2.857564015070872e+000	 1.074228472432462e+001
 2.769248225173028e+000	 2.886392950923880e+000	 1.072370008852516e+001
 2.739215829607388e+000	 2.914909370564268e+000	 1.070522166585875e+001
 2.708894701625783e+000	 2.943108814721196e+000	 1.068605516040747e+001
 2.678289877541903e+000	 2.970986928893433e+000	 1.066540912671714e+001
 2.647406480529932e+000	 2.998539465583634e+000	 1.064249653137438e+001
 2.616249717776630e+000	 3.025762286443787e+000	 1.061653630023200e+001
 2.584824877570536e+000	 3.052651364329597e+000	 1.058675484752052e+001
 2.553137326331711e+000	 3.079202785261663e+000	 1.055238758314940e+001
 2.521192505585459e+000	 3.105412750291483e+000	 1.051268039458001e+001
 2.846104794250500e+000	 2.846104794250500e+000	 1.077768448211005e+001
 2.816480610033235e+000	 2.875423790160357e+000	 1.075541790938966e+001
 2.786556026577674e+000	 2.904432906861986e+000	 1.073552331248410e+001
 2.756335928540261e+000	 2.933127554124876e+000	 1.071721116658444e+001
 2.725825293509172e+000	 2.961503244807746e+000	 1.069969190094829e+001
 2.695029189275062e+000	 2.989555597193736e+000	 1.068217748067567e+001
 2.663952771031954e+000	 3.017280337238637e+000	 1.066388297958120e+001
 2.632601278511519e+000	 3.044673300729766e+000	 1.064402814030349e+001
 2.600980033054107e+000	 3.071730435353172e+000	 1.062183891784287e+001
 2.569094434619901e+000	 3.098447802667084e+000	 1.059654900278111e+001
 2.536949958743739e+000	 3.124821579979572e+000	 1.056740132051270e+001
 2.863782463777000e+000	 2.863782463776999e+000	 1.078879356504973e+001
 2.833974278416246e+000	 2.893283565250835e+000	 1.076435994966361e+001
 2.803863827983302e+000	 2.922472862801051e+000	 1.074375304523550e+001
 2.773456027474087e+000	 2.951345737686393e+000	 1.072618885245730e+001
 2.742755885393480e+000	 2.979897674895137e+000	 1.071088201315012e+001
 2.711768501009095e+000	 3.008124265494786e+000	 1.069704740236304e+001
 2.680499061534792e+000	 3.036021208894278e+000	 1.068390171318470e+001
 2.648952839247162e+000	 3.063584315016250e+000	 1.067066503036314e+001
 2.617135188538357e+000	 3.090809506377103e+000	 1.065656238887656e+001
 2.585051542908685e+000	 3.117692820072692e+000	 1.064082531365802e+001
 2.552707411902518e+000	 3.144230409667660e+000	 1.054073142772503e+001
 2.881460133304500e+000	 2.881460133304500e+000	 1.079511616952204e+001
 2.851467946800252e+000	 2.911143340342301e+000	 1.076912107286874e+001
 2.821171629389907e+000	 2.940512818741075e+000	 1.074839226236897e+001
 2.790576126408868e+000	 2.969563921248820e+000	 1.073215074219845e+001
 2.759686477278708e+000	 2.998292104983366e+000	 1.071961485588475e+001
 2.728507812744004e+000	 3.026692933796586e+000	 1.071000188938996e+001
 2.697045352038451e+000	 3.054762080550558e+000	 1.070252966850611e+001
 2.665304399983561e+000	 3.082495329303243e+000	 1.069641814661204e+001
 2.633290344023287e+000	 3.109888577401393e+000	 1.069089097888478e+001
 2.601008651198063e+000	 3.136937837478489e+000	 1.063501833480905e+001
 2.568464865061795e+000	 3.163639239355744e+000	 1.051464473323840e+001
 2.899137802833000e+000	 2.899137802833000e+000	 1.079666987490360e+001
 2.868961615185253e+000	 2.929003115434757e+000	 1.076971153460706e+001
 2.838479430797494e+000	 2.958552774682060e+000	 1.074944418169805e+001
 2.807696225344605e+000	 2.987782104812157e+000	 1.073509330365820e+001
 2.776617069164856e+000	 3.016686535072434e+000	 1.072588043652273e+001
 2.745247124479786e+000	 3.045261602099134e+000	 1.072102477960796e+001
 2.713591642542929e+000	 3.073502952207475e+000	 1.071974480613510e+001
 2.681655960720712e+000	 3.101406343590744e+000	 1.072125986575113e+001
 2.649445499508894e+000	 3.128967648426040e+000	 1.070843854876968e+001
 2.616965759488034e+000	 3.156182854884472e+000	 1.059939846816858e+001
 2.584222318221571e+000	 3.183048069043826e+000	 1.048996570828472e+001
 2.916815472362500e+000	 2.916815472362500e+000	 1.079347207264219e+001
 2.886455283571249e+000	 2.946862890528204e+000	 1.076614161751559e+001
 2.855787232206061e+000	 2.976592730624005e+000	 1.074691225592012e+001
 2.824816324281295e+000	 3.006000288376402e+000	 1.073501344020609e+001
 2.793547661051924e+000	 3.035080965162342e+000	 1.072966939128199e+001
 2.761986436216443e+000	 3.063830270402431e+000	 1.073010072564765e+001
 2.730137933048226e+000	 3.092243823865031e+000	 1.073552607989140e+001
 2.698007521458619e+000	 3.120317357878755e+000	 1.074516372860244e+001
 2.665600654995181e+000	 3.148046719451045e+000	 1.066401909103311e+001
 2.632922867778599e+000	 3.175427872290642e+000	 1.056492311951739e+001
 2.599979771381846e+000	 3.202456898731905e+000	 1.046675655536294e+001
 2.934493141892999e+000	 2.934493141893000e+000	 1.078553997191729e+001
 2.903948951958240e+000	 2.964722665622640e+000	 1.075842163045199e+001
 2.873095033615605e+000	 2.994632686566909e+000	 1.074080016554155e+001
 2.841936423218941e+000	 3.024218471941557e+000	 1.073190847761286e+001
 2.810478252939913e+000	 3.053475395253089e+000	 1.073097296628656e+001
 2.778725747953974e+000	 3.082398938706477e+000	 1.073721517037706e+001
 2.746684223554341e+000	 3.110984695523225e+000	 1.074985340690822e+001
 2.714359082197279e+000	 3.139228372167272e+000	 1.071145220188376e+001
 2.681755810482146e+000	 3.167125790476407e+000	 1.062047408224878e+001
 2.648879976069758e+000	 3.194672889697001e+000	 1.053166254228206e+001
 2.615737224542619e+000	 3.221865728419981e+000	 1.044508105856979e+001
 2.952170811424500e+000	 2.952170811424500e+000	 1.077289060509727e+001
 2.921442620346225e+000	 2.982582440718066e+000	 1.074656190770956e+001
 2.890402835026131e+000	 3.012672642510772e+000	 1.073111181205711e+001
 2.859056522157541e+000	 3.042436655507622e+000	 1.072577615140364e+001
 2.827408844828819e+000	 3.071869825344675e+000	 1.072978299930593e+001
 2.795465059692380e+000	 3.100967607011272e+000	 1.074235432324190e+001
 2.763230514061278e+000	 3.129725567182059e+000	 1.074448960930092e+001
 2.730710642936692e+000	 3.158139386456296e+000	 1.065950551424280e+001
 2.697910965969791e+000	 3.186204861502127e+000	 1.057788173187562e+001
 2.664837084361510e+000	 3.213917907103546e+000	 1.049968838509147e+001
 2.631494677703891e+000	 3.241274558108055e+000	 1.042500453624656e+001
 2.969848480956999e+000	 2.969848480956999e+000	 1.075554083300156e+001
 2.938936288735207e+000	 3.000442215814482e+000	 1.073057280826014e+001
 2.907710636437637e+000	 3.030712598455597e+000	 1.071785131137287e+001
 2.876176621097097e+000	 3.060654839074597e+000	 1.071661459466299e+001
 2.844339436718645e+000	 3.090264255437100e+000	 1.072609190214662e+001
 2.812204371431660e+000	 3.119536275316816e+000	 1.074550513745077e+001
 2.779776804569033e+000	 3.148466438841531e+000	 1.068475073099859e+001
 2.747062203676861e+000	 3.177050400745830e+000	 1.060824266327533e+001
 2.714066121458115e+000	 3.205283932528205e+000	 1.053632146105604e+001
 2.680794192653857e+000	 3.233162924510279e+000	 1.046907365025301e+001
 2.647252130865662e+000	 3.260683387796125e+000	 1.040659379531701e+001
 2.987526150490500e+000	 2.987526150490500e+000	 1.073350734997609e+001
 2.956429957125182e+000	 3.018301990911889e+000	 1.071046471502407e+001
 2.925018437850121e+000	 3.048752554401380e+000	 1.070102298746276e+001
 2.893296720037606e+000	 3.078873022642481e+000	 1.070442232627265e+001
 2.861270028609391e+000	 3.108658685530364e+000	 1.071989264366873e+001
 2.828943683171814e+000	 3.138104943623109e+000	 1.069878762603742e+001
 2.796323095077607e+000	 3.167207310501641e+000	 1.062542044541096e+001
 2.763413764417782e+000	 3.195961415035872e+000	 1.055775074057216e+001
 2.730221276947116e+000	 3.224363003554640e+000	 1.049587386676736e+001
 2.696751300946797e+000	 3.252407941917199e+000	 1.043989265370282e+001
 2.663009584027932e+000	 3.280092217484194e+000	 1.038991708724656e+001
 3.005203820025000e+000	 3.005203820025000e+000	 1.070680668878953e+001
 2.973923625516154e+000	 3.036161766010285e+000	 1.068624803416575e+001
 2.942326239263588e+000	 3.066792510348125e+000	 1.068063136624885e+001
 2.910416818979071e+000	 3.097091206211275e+000	 1.068919823956468e+001
 2.878200620501058e+000	 3.127053115624469e+000	 1.070403707651683e+001
 2.845682994912843e+000	 3.156673611930151e+000	 1.063193497364261e+001
 2.812869385587000e+000	 3.185948182162389e+000	 1.056659340316212e+001
 2.779765325159459e+000	 3.214872429326423e+000	 1.050811783861095e+001
 2.746376432436797e+000	 3.243442074581434e+000	 1.045662068723838e+001
 2.712708409240331e+000	 3.271652959324307e+000	 1.041222098636975e+001
 2.678767037190700e+000	 3.299501047172260e+000	 1.037504406555571e+001
 2.521192505585459e+000	 3.105412750291483e+000	 1.051268039458001e+001
 2.488995928882964e+000	 3.131277577270647e+000	 1.052755369190790e+001
 2.456553178674486e+000	 3.156793702520920e+000	 1.047775920897838e+001
 2.423869903137295e+000	 3.181957682404208e+000	 1.043015005619193e+001
 2.390951812960879e+000	 3.206766194791349e+000	 1.038449639296693e+001
 2.357804678095201e+000	 3.231216040427900e+000	 1.034056190679266e+001
 2.324434324465135e+000	 3.255304144196106e+000	 1.029810448501671e+001
 2.290846630654907e+000	 3.279027556272165e+000	 1.025687689670295e+001
 2.257047524566414e+000	 3.302383453178052e+000	 1.021662748265422e+001
 2.223042980055295e+000	 3.325369138727341e+000	 1.017710085168478e+001
 2.188839013548634e+000	 3.347982044864625e+000	 1.013803858122491e+001
 2.536949958743739e+000	 3.124821579979572e+000	 1.056740132051270e+001
 2.504552153436617e+000	 3.150848062128625e+000	 1.050249524555530e+001
 2.471906636039226e+000	 3.176523663162843e+000	 1.046025993458463e+001
 2.439019090029943e+000	 3.201844917921395e+000	 1.042245144152751e+001
 2.405895261790065e+000	 3.226808483511813e+000	 1.038537440886373e+001
 2.372540957331742e+000	 3.251411140684310e+000	 1.034875188892212e+001
 2.338962038991882e+000	 3.275649795101650e+000	 1.031230239983517e+001
 2.305164422095856e+000	 3.299521478503630e+000	 1.027574064959010e+001
 2.271154071594951e+000	 3.323023349765487e+000	 1.023877826636946e+001
 2.236936998681402e+000	 3.346152695849630e+000	 1.020112453319903e+001
 2.202519257384963e+000	 3.368906932650309e+000	 1.016248712492193e+001
 2.552707411902518e+000	 3.144230409667660e+000	 1.054073142772503e+001
 2.520108377990668e+000	 3.170418546986411e+000	 1.048655291113565e+001
 2.487260093404263e+000	 3.196253623804405e+000	 1.044337149473016e+001
 2.454168276922788e+000	 3.221732153438071e+000	 1.041479628828824e+001
 2.420838710619349e+000	 3.246850772231634e+000	 1.038574639841588e+001
 2.387277236568283e+000	 3.271606240939970e+000	 1.035590435197947e+001
 2.353489753518525e+000	 3.295995446006352e+000	 1.032494939415242e+001
 2.319482213536602e+000	 3.320015400734183e+000	 1.029255825474898e+001
 2.285260618623185e+000	 3.343663246351960e+000	 1.025840591898962e+001
 2.250831017307107e+000	 3.366936252970930e+000	 1.022216640064740e+001
 2.216199501220790e+000	 3.389831820434993e+000	 1.018351351553087e+001
 2.568464865061795e+000	 3.163639239355744e+000	 1.051464473323840e+001
 2.535664602545119e+000	 3.189989031844004e+000	 1.047128067026178e+001
 2.502613550769600e+000	 3.215983584445602e+000	 1.042877879698902e+001
 2.469317463815832e+000	 3.241619388954234e+000	 1.040708705796105e+001
 2.435782159448731e+000	 3.266893060950813e+000	 1.038552766642017e+001
 2.402013515804821e+000	 3.291801341194877e+000	 1.036194717029732e+001
 2.368017468045067e+000	 3.316341096910215e+000	 1.033598563197612e+001
 2.333800004977147e+000	 3.340509322963826e+000	 1.030728188010697e+001
 2.299367165651117e+000	 3.364303142937474e+000	 1.027547432090891e+001
 2.264725035932409e+000	 3.387719810091239e+000	 1.024020174994241e+001
 2.229879745056114e+000	 3.410756708218677e+000	 1.020110416224452e+001
 2.584222318221571e+000	 3.183048069043826e+000	 1.048996570828472e+001
 2.551220827099967e+000	 3.209559516701404e+000	 1.045675076394098e+001
 2.517967008135234e+000	 3.235713545086438e+000	 1.042318302400546e+001
 2.484466650709074e+000	 3.261506624469885e+000	 1.039922698462661e+001
 2.450725608278212e+000	 3.286935349669351e+000	 1.038463400145006e+001
 2.416749795041357e+000	 3.311996441449034e+000	 1.036680842048136e+001
 2.382545182571506e+000	 3.336686747813235e+000	 1.034535120551449e+001
 2.348117796417489e+000	 3.361003245192557e+000	 1.031986335526280e+001
 2.313473712678746e+000	 3.384943039522027e+000	 1.028994675531405e+001
 2.278619054557308e+000	 3.408503367210559e+000	 1.025520502866215e+001
 2.243559988890935e+000	 3.431681596001361e+000	 1.021524438264276e+001
 2.599979771381846e+000	 3.202456898731905e+000	 1.046675655536294e+001
 2.566777051655214e+000	 3.229130001558612e+000	 1.044303676328792e+001
 2.533320465501168e+000	 3.255443505726912e+000	 1.041775912303875e+001
 2.499615837602515e+000	 3.281393859985023e+000	 1.039112005154724e+001
 2.465669057107791e+000	 3.306977638387247e+000	 1.038298166119566e+001
 2.431486074277891e+000	 3.332191541702438e+000	 1.037041637528086e+001
 2.397072897097844e+000	 3.357032398715414e+000	 1.035298613735205e+001
 2.362435587857628e+000	 3.381497167420379e+000	 1.033025418173891e+001
 2.327580259706072e+000	 3.405582936105621e+000	 1.030178592628133e+001
 2.292513073181805e+000	 3.429286924328888e+000	 1.026714986175742e+001
 2.257240232725254e+000	 3.452606483783046e+000	 1.022591843577183e+001
 2.615737224542619e+000	 3.221865728419981e+000	 1.044508105856979e+001
 2.582333276210860e+000	 3.248700486415626e+000	 1.043021352946113e+001
 2.548673922867399e+000	 3.275173466367023e+000	 1.041259270254884e+001
 2.514765024496154e+000	 3.301281095499650e+000	 1.039213917057264e+001
 2.480612505937467e+000	 3.327019927104500e+000	 1.038048735833382e+001
 2.446222353514423e+000	 3.352386641955090e+000	 1.037269949768077e+001
 2.411600611624079e+000	 3.377378049616752e+000	 1.035883038254672e+001
 2.376753379297564e+000	 3.401991089647289e+000	 1.033840554286327e+001
 2.341686806733097e+000	 3.426222832688254e+000	 1.031095397621983e+001
 2.306407091805899e+000	 3.450070481446227e+000	 1.027600907632968e+001
 2.270920476559069e+000	 3.473531371563730e+000	 1.023310955402780e+001
 2.631494677703891e+000	 3.241274558108055e+000	 1.042500453624656e+001
 2.597889500766904e+000	 3.268270971272449e+000	 1.041835717503890e+001
 2.564027380233929e+000	 3.294903427006771e+000	 1.040777034591402e+001
 2.529914211389991e+000	 3.321168331013764e+000	 1.039313497726533e+001
 2.495555954767242e+000	 3.347062215821112e+000	 1.037706824690572e+001
 2.460958632750953e+000	 3.372581742206992e+000	 1.037358643520602e+001
 2.426128326150212e+000	 3.397723700517249e+000	 1.036282383065161e+001
 2.391071170737299e+000	 3.422485011873289e+000	 1.034426831329618e+001
 2.355793353759818e+000	 3.446862729269924e+000	 1.031741250268766e+001
 2.320301110429590e+000	 3.470854038562576e+000	 1.028175472551868e+001
 2.284600720392382e+000	 3.494456259343415e+000	 1.023679997389466e+001
 2.647252130865662e+000	 3.260683387796125e+000	 1.040659379531701e+001
 2.613445725323347e+000	 3.287841456129079e+000	 1.040754502677469e+001
 2.579380837600759e+000	 3.314633387646157e+000	 1.040337958241543e+001
 2.545063398284027e+000	 3.341055566527366e+000	 1.039395906313331e+001
 2.510499403597115e+000	 3.367104504537082e+000	 1.037916152845126e+001
 2.475694911987481e+000	 3.392776842458142e+000	 1.037300601442922e+001
 2.440656040676242e+000	 3.418069351416904e+000	 1.036490630766449e+001
 2.405388962176831e+000	 3.442978934098378e+000	 1.034779306821678e+001
 2.369899900786238e+000	 3.467502625850638e+000	 1.032112257460792e+001
 2.334195129052880e+000	 3.491637595677935e+000	 1.028435811153709e+001
 2.298280964225193e+000	 3.515381147122099e+000	 1.023697096558454e+001
 2.663009584027932e+000	 3.280092217484194e+000	 1.038991708724656e+001
 2.629001949880189e+000	 3.307411940985516e+000	 1.039785558967480e+001
 2.594734294967886e+000	 3.334363348285180e+000	 1.039950885925193e+001
 2.560212585178261e+000	 3.360942802040456e+000	 1.039470950238619e+001
 2.525442852427085e+000	 3.387146793252410e+000	 1.038330819069380e+001
 2.490431191224007e+000	 3.412971942708540e+000	 1.037088723567351e+001
 2.455183755202171e+000	 3.438415002315720e+000	 1.036501757790823e+001
 2.419706753616161e+000	 3.463472856322557e+000	 1.034893009218348e+001
 2.384006447812355e+000	 3.488142522430389e+000	 1.032204474790863e+001
 2.348089147675766e+000	 3.512421152792304e+000	 1.028378980788727e+001
 2.311961208057501e+000	 3.536306034899784e+000	 1.023360286162560e+001
 2.678767037190700e+000	 3.299501047172260e+000	 1.037504406555571e+001
 2.644558174437429e+000	 3.326982425841761e+000	 1.038936851234378e+001
 2.610087752335312e+000	 3.354093308923843e+000	 1.039624751454230e+001
 2.575361772072694e+000	 3.380830037553033e+000	 1.039548501336430e+001
 2.540386301257157e+000	 3.407189081967098e+000	 1.038690462010241e+001
 2.505167470460533e+000	 3.433167042958189e+000	 1.037034940429072e+001
 2.469711469727998e+000	 3.458760653213694e+000	 1.036309734584465e+001
 2.434024545055289e+000	 3.483966778545826e+000	 1.034762938768155e+001
 2.398112994838169e+000	 3.508782419009181e+000	 1.032013908061096e+001
 2.361983166298250e+000	 3.533204709905684e+000	 1.028001968079390e+001
 2.325641451889307e+000	 3.557230922676468e+000	 1.022667508444102e+001
 2.188839013548634e+000	 3.347982044864625e+000	 1.013803858122491e+001
 2.154441680648210e+000	 3.370219732398643e+000	 1.013589864857426e+001
 2.119857072723086e+000	 3.392079891627955e+000	 1.013115776461933e+001
 2.085091313495474e+000	 3.413560342859974e+000	 1.012338261076253e+001
 2.050150555623710e+000	 3.434659036824271e+000	 1.011214289260698e+001
 2.015040977286106e+000	 3.455374054979496e+000	 1.009701218333461e+001
 1.979768778769484e+000	 3.475703609714792e+000	 1.007756875454688e+001
 1.944340179066090e+000	 3.495646044446416e+000	 1.005339639263409e+001
 1.908761412482587e+000	 3.515199833610370e+000	 1.002408519880100e+001
 1.873038725264741e+000	 3.534363582552064e+000	 9.987302203689945e+000
 1.837178372241353e+000	 3.553136027314097e+000	 9.916989660607889e+000
 2.202519257384963e+000	 3.368906932650309e+000	 1.016248712492193e+001
 2.167906941154782e+000	 3.391283605731326e+000	 1.015684553636277e+001
 2.133106179430840e+000	 3.413280390955621e+000	 1.014852818127979e+001
 2.098123134208612e+000	 3.434895095007524e+000	 1.013709934420627e+001
 2.062963996600547e+000	 3.456125655808669e+000	 1.012212632154952e+001
 2.027634983398576e+000	 3.476970142826822e+000	 1.010318027589509e+001
 1.992142333641311e+000	 3.497426757278562e+000	 1.007983707768950e+001
 1.956492305189702e+000	 3.517493832226492e+000	 1.005167813233752e+001
 1.920691171314830e+000	 3.537169832571846e+000	 1.001829119081166e+001
 1.884745217301497e+000	 3.556453354943440e+000	 9.979271141939643e+000
 1.848660737071182e+000	 3.575343127484140e+000	 9.911048930258367e+000
 2.216199501220790e+000	 3.389831820434993e+000	 1.018351351553087e+001
 2.181372201660762e+000	 3.412347479063020e+000	 1.017461201925690e+001
 2.146355286137931e+000	 3.434480890282324e+000	 1.016296002276514e+001
 2.111154954921036e+000	 3.456229847154164e+000	 1.014811917717685e+001
 2.075777437576643e+000	 3.477592274792229e+000	 1.012965413391874e+001
 2.040228989510295e+000	 3.498566230673402e+000	 1.010713341027416e+001
 2.004515888512400e+000	 3.519149904841695e+000	 1.008013024222524e+001
 1.968644431312608e+000	 3.539341620006065e+000	 1.004822342259037e+001
 1.932620930146416e+000	 3.559139831532969e+000	 1.001099812252473e+001
 1.896451709337664e+000	 3.578543127334634e+000	 9.968046694520274e+000
 1.860143101900514e+000	 3.597550227654190e+000	 9.905090733188473e+000
 2.229879745056114e+000	 3.410756708218677e+000	 1.020110416224452e+001
 2.194837462166150e+000	 3.433411352393724e+000	 1.018918309684470e+001
 2.159604392844361e+000	 3.455681389608071e+000	 1.017443690389347e+001
 2.124186775632751e+000	 3.477564599299897e+000	 1.015642436436747e+001
 2.088590878552000e+000	 3.499058893774952e+000	 1.013470724871955e+001
 2.052822995621267e+000	 3.520162318519236e+000	 1.010885119399957e+001
 2.016889443382751e+000	 3.540873052404194e+000	 1.007842656817381e+001
 1.980796557434805e+000	 3.561189407785133e+000	 1.004300931961634e+001
 1.944550688977346e+000	 3.581109830493739e+000	 1.000218180980878e+001
 1.908158201373246e+000	 3.600632899725644e+000	 9.955533627354773e+000
 1.871625466729350e+000	 3.619757327824249e+000	 9.899305175174193e+000
 2.243559988890935e+000	 3.431681596001361e+000	 1.021524438264276e+001
 2.208302722670944e+000	 3.454475225723438e+000	 1.020054273970284e+001
 2.172853499550128e+000	 3.476881888932858e+000	 1.018294147287793e+001
 2.137218596343753e+000	 3.498899351444720e+000	 1.016199625604869e+001
 2.101404319526616e+000	 3.520525512756837e+000	 1.013726574246425e+001
 2.065417001731487e+000	 3.541758406364323e+000	 1.010831245375572e+001
 2.029262998252363e+000	 3.562596199966057e+000	 1.007470365605251e+001
 1.992948683556296e+000	 3.583037195563699e+000	 1.003601222114182e+001
 1.956480447807618e+000	 3.603079829454155e+000	 9.991817470677002e+000
 1.919864693408242e+000	 3.622722672116473e+000	 9.941706001509965e+000
 1.883107831557690e+000	 3.641964427994314e+000	 9.885272490299327e+000
 2.257240232725254e+000	 3.452606483783046e+000	 1.022591843577183e+001
 2.221767983175147e+000	 3.475539099052162e+000	 1.020867392057884e+001
 2.186102606255234e+000	 3.498082388256686e+000	 1.018845544061771e+001
 2.150250417054045e+000	 3.520234103588635e+000	 1.016481532547524e+001
 2.114217760500491e+000	 3.541992131737884e+000	 1.013730887470250e+001
 2.078011007840959e+000	 3.563354494208663e+000	 1.010549525904569e+001
 2.041636553121236e+000	 3.584319347527285e+000	 1.006893840867936e+001
 2.005100809677078e+000	 3.604884983341758e+000	 1.002720788635021e+001
 1.968410206637234e+000	 3.625049828414220e+000	 9.979879743404032e+000
 1.931571185442651e+000	 3.644812444507119e+000	 9.926537356740759e+000
 1.894590196385535e+000	 3.664171528164389e+000	 9.866772244818275e+000
 2.270920476559069e+000	 3.473531371563730e+000	 1.023310955402780e+001
 2.235233243678757e+000	 3.496602972379897e+000	 1.021355864444615e+001
 2.199351712959677e+000	 3.519282887579554e+000	 1.019095960893047e+001
 2.163282237763625e+000	 3.541568855731642e+000	 1.016486119530214e+001
 2.127031201473626e+000	 3.563458750718094e+000	 1.013481511262877e+001
 2.090605013949681e+000	 3.584950582052259e+000	 1.010037694499773e+001
 2.054010107989371e+000	 3.606042495087878e+000	 1.006110705218810e+001
 2.017252935797153e+000	 3.626732771119316e+000	 1.001657145511518e+001
 1.980339965466192e+000	 3.647019827373930e+000	 9.966342703988012e+000
 1.943277677476475e+000	 3.666902216897582e+000	 9.910000727192230e+000
 1.906072561212882e+000	 3.686378628334472e+000	 9.847133658988939e+000
 2.284600720392382e+000	 3.494456259343415e+000	 1.023679997389466e+001
 2.248698504181774e+000	 3.517666845706641e+000	 1.021517797747940e+001
 2.212600819663458e+000	 3.540483386901463e+000	 1.019043389777024e+001
 2.176314058472493e+000	 3.562903607873740e+000	 1.016211266305175e+001
 2.139844642446020e+000	 3.584925369697467e+000	 1.012976215480545e+001
 2.103199020057654e+000	 3.606546669895108e+000	 1.009293413435273e+001
 2.066383662856767e+000	 3.627765642647836e+000	 1.005118515628820e+001
 2.029405061916520e+000	 3.648580558896368e+000	 1.000407746654294e+001
 1.992269724294494e+000	 3.668989826333287e+000	 9.951179882985143e+000
 1.954984169509711e+000	 3.688991989287863e+000	 9.892068656537660e+000
 1.917554926039734e+000	 3.708585728504561e+000	 9.826328310872178e+000
 2.298280964225193e+000	 3.515381147122099e+000	 1.023697096558454e+001
 2.262163764684199e+000	 3.538730719032396e+000	 1.021351207499487e+001
 2.225849926366577e+000	 3.561683886222412e+000	 1.018685737147348e+001
 2.189345879180651e+000	 3.584238360014931e+000	 1.015654772567134e+001
 2.152658083417674e+000	 3.606391988676003e+000	 1.012212695403884e+001
 2.115793026164877e+000	 3.628142757737210e+000	 1.008314275866611e+001
 2.078757217723425e+000	 3.649488790207160e+000	 1.003914765380131e+001
 2.041557188035180e+000	 3.670428346672918e+000	 9.989699876852157e+000
 2.004199483122139e+000	 3.690959825292292e+000	 9.934364281743125e+000
 1.966690661542362e+000	 3.711081761677962e+000	 9.872713212576000e+000
 1.929037290866090e+000	 3.730792828674659e+000	 9.804327355620428e+000
 2.311961208057501e+000	 3.536306034899784e+000	 1.023360286162560e+001
 2.275629025186031e+000	 3.559794592357162e+000	 1.020854020839894e+001
 2.239099033069035e+000	 3.582884385542403e+000	 1.018020826407313e+001
 2.202377699888097e+000	 3.605573112155213e+000	 1.014814360321866e+001
 2.165471524388587e+000	 3.627858607653701e+000	 1.011188573944297e+001
 2.128387032271351e+000	 3.649738845578567e+000	 1.007097807875708e+001
 2.091130772589344e+000	 3.671211937765847e+000	 1.002496885950414e+001
 2.053709314153131e+000	 3.692276134448962e+000	 9.973412076619141e+000
 2.016129241949128e+000	 3.712929824250944e+000	 9.915868388058211e+000
 1.978397153574426e+000	 3.733171534067878e+000	 9.851906001310848e+000
 1.940519655691950e+000	 3.752999928844765e+000	 9.799264413995541e+000
 2.325641451889307e+000	 3.557230922676468e+000	 1.022667508444102e+001
 2.289094285687273e+000	 3.580858465680938e+000	 1.020024079118545e+001
 2.252348139770831e+000	 3.604084884861436e+000	 1.017046400371933e+001
 2.215409520594833e+000	 3.626907864294587e+000	 1.013687676171170e+001
 2.178284965358760e+000	 3.649325226630563e+000	 1.009901403772456e+001
 2.140981038377075e+000	 3.671334933419178e+000	 1.005641470443624e+001
 2.103504327454525e+000	 3.692935085323902e+000	 1.000862248830613e+001
 2.065861440270377e+000	 3.714123922224504e+000	 9.955186907414452e+000
 2.028059000775460e+000	 3.734899823209243e+000	 9.895664191279632e+000
 1.990103645605905e+000	 3.755261306457614e+000	 9.857908312386389e+000
 1.952002020517314e+000	 3.775207029014879e+000	 9.904659875610861e+000
 1.837178372241353e+000	 3.553136027314097e+000	 9.916989660607889e+000
 1.801186613490626e+000	 3.571516034323234e+000	 9.855270625825634e+000
 1.765069711033149e+000	 3.589502599978649e+000	 9.807886217281254e+000
 1.728833925554609e+000	 3.607094850142331e+000	 9.776870589630590e+000
 1.692485513160644e+000	 3.624292039533032e+000	 9.764174888386672e+000
 1.656030722167824e+000	 3.641093551026176e+000	 9.771663916581680e+000
 1.619475789933607e+000	 3.657498894861323e+000	 9.801113027976564e+000
 1.582826939728251e+000	 3.673507707759193e+000	 9.854205251214561e+000
 1.546090377651534e+000	 3.689119751950341e+000	 9.932528648586429e+000
 1.509272289597059e+000	 3.704334914117636e+000	 1.003757391234973e+001
 1.472378838266780e+000	 3.719153204254850e+000	 1.017073220082223e+001
 1.848660737071182e+000	 3.575343127484140e+000	 9.911048930258367e+000
 1.812444029827717e+000	 3.593838009536003e+000	 9.842196329822325e+000
 1.776101396729454e+000	 3.611936991225818e+000	 9.784608809771942e+000
 1.739639137591368e+000	 3.629639192952213e+000	 9.740359501657531e+000
 1.703063547619757e+000	 3.646943864775932e+000	 9.711440316246614e+000
 1.666380914183164e+000	 3.663850385715369e+000	 9.699758505187477e+000
 1.629597513622535e+000	 3.680358262949078e+000	 9.707133449687870e+000
 1.592719608103564e+000	 3.696467130927287e+000	 9.735293680818437e+000
 1.555753442514154e+000	 3.712176750394490e+000	 9.785874135314291e+000
 1.518705241409741e+000	 3.727487007325320e+000	 9.860413650013422e+000
 1.481581206009164e+000	 3.742397911776015e+000	 9.960352697339097e+000
 1.860143101900514e+000	 3.597550227654190e+000	 9.905090733188473e+000
 1.823701446164401e+000	 3.616159984748968e+000	 9.827934891573037e+000
 1.787133082425423e+000	 3.634371382473355e+000	 9.759030688978337e+000
 1.750444349627840e+000	 3.652183535762612e+000	 9.700491306791220e+000
 1.713641582078610e+000	 3.669595690019477e+000	 9.654350439014671e+000
 1.676731106198254e+000	 3.686607220405314e+000	 9.622558747936079e+000
 1.639719237311201e+000	 3.703217631037676e+000	 9.606980547375111e+000
 1.602612276478584e+000	 3.719426554096293e+000	 9.609390718335220e+000
 1.565416507376429e+000	 3.735233748839598e+000	 9.631471861138031e+000
 1.528138193222007e+000	 3.750639100533996e+000	 9.680873675203699e+000
 1.490783573751044e+000	 3.765642619298180e+000	 9.887130915689948e+000
 1.871625466729350e+000	 3.619757327824249e+000	 9.899305175174193e+000
 1.834958862500679e+000	 3.638481959962132e+000	 9.812683109303272e+000
 1.798164768121055e+000	 3.656805773721259e+000	 9.731354579834276e+000
 1.761249561664024e+000	 3.674727878573526e+000	 9.657473897164431e+000
 1.724219616537203e+000	 3.692247515263667e+000	 9.593117563098970e+000
 1.687081298213093e+000	 3.709364055096013e+000	 9.540280619513888e+000
 1.649840960999605e+000	 3.726076999127117e+000	 9.500873225259880e+000
 1.612504944853311e+000	 3.742385977266211e+000	 9.476717466346571e+000
 1.575079572238360e+000	 3.758290747285667e+000	 9.548316926585425e+000
 1.537571145033858e+000	 3.773791193743661e+000	 9.705914468771558e+000
 1.499985941492418e+000	 3.788887326821345e+000	 9.875503653376329e+000
 1.883107831557690e+000	 3.641964427994314e+000	 9.885272490299327e+000
 1.846216278836551e+000	 3.660803935175493e+000	 9.796636960238493e+000
 1.809196453816351e+000	 3.679240164969528e+000	 9.701782063553143e+000
 1.772054773699920e+000	 3.697272221384957e+000	 9.611513719029869e+000
 1.734797650995538e+000	 3.714899340508502e+000	 9.527952267463308e+000
 1.697431490227682e+000	 3.732120889787467e+000	 9.453138106215725e+000
 1.659962684687746e+000	 3.748936367217401e+000	 9.389028158850522e+000
 1.622397613227745e+000	 3.765345400437040e+000	 9.481835664573257e+000
 1.584742637099947e+000	 3.781347745732699e+000	 9.596563441083269e+000
 1.547004096845295e+000	 3.796943286954317e+000	 9.721356596137786e+000
 1.509188309233287e+000	 3.812132034345510e+000	 9.854305624654881e+000
 1.894590196385535e+000	 3.664171528164389e+000	 9.866772244818275e+000
 1.857473695172016e+000	 3.683125910389052e+000	 9.779991625482923e+000
 1.820228139511309e+000	 3.701674556218166e+000	 9.670513612285991e+000
 1.782859985735529e+000	 3.719816564196905e+000	 9.562815816574668e+000
 1.745375685453613e+000	 3.737551165753983e+000	 9.459063455974002e+000
 1.707781682242020e+000	 3.754877724479676e+000	 9.405169108968401e+000
 1.670084408375627e+000	 3.771795735308528e+000	 9.472122938285111e+000
 1.632290281601885e+000	 3.788304823608780e+000	 9.549492163976277e+000
 1.594405701961191e+000	 3.804404744180690e+000	 9.635186022023097e+000
 1.556437048656317e+000	 3.820095380165963e+000	 9.727182569169980e+000
 1.518390676973651e+000	 3.835376741870674e+000	 9.823531819551677e+000
 1.906072561212882e+000	 3.686378628334472e+000	 9.847133658988939e+000
 1.868731111507075e+000	 3.705447885602808e+000	 9.762941513999104e+000
 1.831259825205930e+000	 3.724108947467171e+000	 9.637748622527161e+000
 1.793665197770849e+000	 3.742360907009368e+000	 9.511583874151354e+000
 1.755953719911430e+000	 3.760202991000109e+000	 9.474039527849417e+000
 1.718131874256107e+000	 3.777634559172637e+000	 9.510270237832009e+000
 1.680206132063246e+000	 3.794655103400498e+000	 9.555495376205954e+000
 1.642182949975733e+000	 3.811264246781434e+000	 9.607502978365730e+000
 1.604068766822089e+000	 3.827461742629643e+000	 9.664151308987535e+000
 1.565870000466923e+000	 3.843247473378598e+000	 9.723372241884938e+000
 1.527593044713509e+000	 3.858621449396840e+000	 9.783174421656899e+000
 1.917554926039734e+000	 3.708585728504561e+000	 9.826328310872178e+000
 1.879988527841727e+000	 3.727769860816763e+000	 9.740481283038218e+000
 1.842291510900214e+000	 3.746543338716541e+000	 9.603685447319469e+000
 1.804470409805881e+000	 3.764905249822348e+000	 9.577599877406705e+000
 1.766531754368986e+000	 3.782854816246879e+000	 9.587789245081027e+000
 1.728482066269945e+000	 3.800391393866355e+000	 9.605770186791123e+000
 1.690327855750602e+000	 3.817514471493310e+000	 9.629202772549590e+000
 1.652075618349288e+000	 3.834223669954998e+000	 9.655818419155015e+000
 1.613731831682643e+000	 3.850518741079555e+000	 9.683423526154604e+000
 1.575302952277115e+000	 3.866399566592225e+000	 9.709902890025006e+000
 1.536795412452863e+000	 3.881866156924004e+000	 9.733222892149719e+000
 1.929037290866090e+000	 3.730792828674659e+000	 9.804327355620428e+000
 1.891245944175973e+000	 3.750091836030914e+000	 9.710798753180509e+000
 1.853323196594162e+000	 3.768977729966281e+000	 9.708147907467797e+000
 1.815275621840626e+000	 3.787449592635845e+000	 9.696633494745917e+000
 1.777109788826284e+000	 3.805506641494296e+000	 9.691938001477929e+000
 1.738832258283531e+000	 3.823148228560824e+000	 9.691587121010224e+000
 1.700449579437697e+000	 3.840373839586965e+000	 9.693178697534172e+000
 1.661968286722549e+000	 3.857183093129475e+000	 9.694386630475266e+000
 1.623394896542854e+000	 3.873575739530430e+000	 9.692964554184774e+000
 1.584735904086892e+000	 3.889551659806843e+000	 9.686749287792383e+000
 1.545997780191711e+000	 3.905110864452169e+000	 9.673664050822559e+000
 1.940519655691950e+000	 3.752999928844765e+000	 9.799264413995541e+000
 1.902503360509814e+000	 3.772413811245263e+000	 9.825897048756980e+000
 1.864354882287772e+000	 3.791412121216387e+000	 9.829219878849601e+000
 1.826080833875083e+000	 3.809993935449858e+000	 9.806066346342313e+000
 1.787687823283323e+000	 3.828158466742356e+000	 9.786386249034067e+000
 1.749182450296868e+000	 3.845905063256049e+000	 9.767637497646426e+000
 1.710571303124530e+000	 3.863233207681463e+000	 9.747354806936624e+000
 1.671860955095518e+000	 3.880142516304862e+000	 9.723153653296061e+000
 1.633057961402721e+000	 3.896632737982265e+000	 9.692733999555744e+000
 1.594168855896254e+000	 3.912703753022449e+000	 9.653883781859268e+000
 1.555200147930054e+000	 3.928355571981333e+000	 9.604482154228556e+000
 1.952002020517314e+000	 3.775207029014879e+000	 9.904659875610861e+000
 1.913760776843248e+000	 3.794735786459811e+000	 9.930657585205013e+000
 1.875386567981046e+000	 3.813846512466861e+000	 9.940312913838891e+000
 1.836886045909252e+000	 3.832538278264387e+000	 9.905780874524549e+000
 1.798265857740103e+000	 3.850810291991064e+000	 9.871032999529849e+000
 1.759532642309953e+000	 3.868661897952027e+000	 9.833836116084935e+000
 1.720693026811101e+000	 3.886092575776806e+000	 9.791660898399712e+000
 1.681753623468193e+000	 3.903101939481164e+000	 9.742063487283208e+000
 1.642721026262243e+000	 3.919689736435062e+000	 9.682689261450282e+000
 1.603601807705202e+000	 3.935855846239047e+000	 9.611276362765782e+000
 1.564402515667893e+000	 3.951600279511499e+000	 9.525658971071003e+000
 1.472378838266780e+000	 3.719153204254850e+000	 1.017073220082223e+001
 1.435416160238980e+000	 3.733574754443465e+000	 1.019814760606772e+001
 1.398390363090334e+000	 3.747599817550745e+000	 1.020813307409508e+001
 1.361307522575099e+000	 3.761228765851378e+000	 1.029650268649622e+001
 1.324173679865361e+000	 3.774462089574614e+000	 1.037528897972944e+001
 1.286994838852475e+000	 3.787300395380251e+000	 1.042193916057553e+001
 1.249776963512203e+000	 3.799744404765943e+000	 1.043527341510775e+001
 1.212525975335377e+000	 3.811794952408592e+000	 1.040925621674242e+001
 1.175247750825765e+000	 3.823452984442649e+000	 1.030835675698260e+001
 1.137948119066728e+000	 3.834719556678107e+000	 1.013438295608435e+001
 1.100632859358089e+000	 3.845595832761096e+000	 9.889085968222345e+000
 1.481581206009164e+000	 3.742397911776015e+000	 9.960352697339097e+000
 1.444387511244183e+000	 3.756909596653516e+000	 1.001327054762286e+001
 1.407130302863686e+000	 3.771022316405464e+000	 1.011622446069230e+001
 1.369815694595395e+000	 3.784736445633263e+000	 1.019645069720647e+001
 1.332449765368725e+000	 3.798052477630096e+000	 1.025244790961905e+001
 1.295038556599349e+000	 3.810971022847385e+000	 1.028281550614759e+001
 1.257588069537881e+000	 3.823492807292140e+000	 1.028625495416480e+001
 1.220104262684472e+000	 3.835618670858000e+000	 1.025116107251214e+001
 1.182593049271040e+000	 3.847349565592752e+000	 1.015014695010482e+001
 1.145060294812716e+000	 3.858686553905200e+000	 9.983627378172180e+000
 1.107511814729950e+000	 3.869630806714263e+000	 9.753342600313051e+000
 1.490783573751044e+000	 3.765642619298180e+000	 9.887130915689948e+000
 1.453358862248797e+000	 3.780244438864562e+000	 9.970759763655890e+000
 1.415870242636395e+000	 3.794444815261164e+000	 1.003970763779658e+001
 1.378323866615026e+000	 3.808244125416103e+000	 1.009236470849459e+001
 1.340725850871429e+000	 3.821642865686497e+000	 1.012721559381539e+001
 1.303082274345601e+000	 3.834641650315390e+000	 1.014284100557188e+001
 1.265399175563005e+000	 3.847241209819155e+000	 1.013791916805793e+001
 1.227682550033110e+000	 3.859442389308159e+000	 1.009868845388793e+001
 1.189938347715984e+000	 3.871246146743527e+000	 9.998856359613200e+000
 1.152172470558531e+000	 3.882653551132882e+000	 9.841026280293098e+000
 1.114390770101823e+000	 3.893665780667925e+000	 9.626927374443575e+000
 1.499985941492418e+000	 3.788887326821345e+000	 9.875503653376329e+000
 1.462330213252820e+000	 3.803579281076603e+000	 9.920602654819033e+000
 1.424610182408461e+000	 3.817867314117842e+000	 9.957368156033096e+000
 1.386832038633989e+000	 3.831751805199896e+000	 9.984180253077367e+000
 1.349001936373474e+000	 3.845233253743816e+000	 9.999508796897018e+000
 1.311125992091232e+000	 3.858312277784268e+000	 1.000191515212751e+001
 1.273210281587576e+000	 3.870989612346985e+000	 9.990053731061027e+000
 1.235260837381292e+000	 3.883266107759067e+000	 9.951426283626052e+000
 1.197283646160599e+000	 3.895142727894979e+000	 9.854061990045794e+000
 1.159284646304173e+000	 3.906620548361152e+000	 9.706147683475408e+000
 1.121269725473710e+000	 3.917700754622081e+000	 9.509401252057847e+000
 1.509188309233287e+000	 3.812132034345510e+000	 9.854305624654881e+000
 1.471301564256254e+000	 3.826914123289639e+000	 9.862774536454454e+000
 1.433350122179882e+000	 3.841289812975499e+000	 9.869160233323250e+000
 1.395340210652287e+000	 3.855259484984642e+000	 9.871831918491827e+000
 1.357278021874860e+000	 3.868823641802051e+000	 9.869243938466113e+000
 1.319169709836242e+000	 3.881982905254017e+000	 9.859937654591903e+000
 1.281021387611593e+000	 3.894738014875633e+000	 9.842543092162046e+000
 1.242839124729018e+000	 3.907089826210725e+000	 9.808963701855348e+000
 1.204628944604885e+000	 3.919039309047104e+000	 9.715342504826923e+000
 1.166396822049642e+000	 3.930587545590012e+000	 9.578561669646506e+000
 1.128148680845609e+000	 3.941735728576730e+000	 9.400327618124786e+000
 1.518390676973651e+000	 3.835376741870674e+000	 9.823531819551677e+000
 1.480272915259099e+000	 3.850248965503670e+000	 9.797248527793915e+000
 1.442090061950661e+000	 3.864712311834137e+000	 9.775036550512567e+000
 1.403848382669918e+000	 3.878767164770343e+000	 9.755253375737134e+000
 1.365554107375587e+000	 3.892414029861205e+000	 9.736337103602196e+000
 1.327213427580630e+000	 3.905653532724638e+000	 9.716808430710461e+000
 1.288832493635056e+000	 3.918486417405096e+000	 9.695272414304052e+000
 1.250417412076288e+000	 3.930913544663135e+000	 9.670420016484950e+000
 1.211974243048843e+000	 3.942935890199906e+000	 9.582278175998120e+000
 1.173508997794938e+000	 3.954554542819460e+000	 9.457840319181345e+000
 1.135027636217520e+000	 3.965770702531872e+000	 9.299272207697998e+000
 1.527593044713509e+000	 3.858621449396840e+000	 9.783174421656899e+000
 1.489244266261353e+000	 3.873583807718694e+000	 9.723995618106612e+000
 1.450830001720796e+000	 3.888134810693752e+000	 9.674948297668319e+000
 1.412356554686882e+000	 3.902274844556997e+000	 9.634377406880994e+000
 1.373830192875655e+000	 3.916004417921276e+000	 9.600704052938198e+000
 1.335257145324396e+000	 3.929324160196132e+000	 9.572427600902412e+000
 1.296643599657965e+000	 3.942234819935373e+000	 9.548127552880505e+000
 1.257995699423101e+000	 3.954737263116293e+000	 9.526465209158046e+000
 1.219319541492470e+000	 3.966832471353379e+000	 9.454450835765526e+000
 1.180621173540061e+000	 3.978521540049497e+000	 9.343557650708277e+000
 1.141906591589444e+000	 3.989805676487508e+000	 9.205803035130137e+000
 1.536795412452863e+000	 3.881866156924004e+000	 9.733222892149719e+000
 1.498215617263019e+000	 3.896918649934715e+000	 9.642984730470554e+000
 1.459569941490289e+000	 3.911557309554347e+000	 9.568845218713513e+000
 1.420864726703181e+000	 3.925782524344604e+000	 9.509135931674530e+000
 1.382106278375064e+000	 3.939594805982265e+000	 9.462260232374367e+000
 1.343300863067541e+000	 3.952994787668497e+000	 9.426695482192690e+000
 1.304454705680320e+000	 3.965983222466468e+000	 9.400995035003215e+000
 1.265573986769458e+000	 3.978560981570202e+000	 9.383790015066369e+000
 1.226664839935768e+000	 3.990729052507527e+000	 9.331443829788620e+000
 1.187733349285011e+000	 4.002488537280124e+000	 9.235289563077496e+000
 1.148785546961380e+000	 4.013840650443639e+000	 9.119490325830459e+000
 1.545997780191711e+000	 3.905110864452169e+000	 9.673664050822559e+000
 1.507186968264094e+000	 3.920253492151730e+000	 9.554182783266308e+000
 1.468309881259137e+000	 3.934979808415923e+000	 9.456675654466935e+000
 1.429372898718812e+000	 3.949290204133165e+000	 9.379460033216398e+000
 1.390382363873814e+000	 3.963185194044173e+000	 9.320920782445395e+000
 1.351344580810065e+000	 3.976665415141734e+000	 9.279512582360651e+000
 1.312265811702122e+000	 3.989731624998379e+000	 9.253762039510701e+000
 1.273152274115359e+000	 4.002384700024861e+000	 9.242269581297300e+000
 1.234010138378737e+000	 4.014625633662349e+000	 9.212841972136804e+000
 1.194845525029788e+000	 4.026455534511339e+000	 9.132613779401986e+000
 1.155664502333329e+000	 4.037875624400262e+000	 9.039906450459469e+000
 1.555200147930054e+000	 3.928355571981333e+000	 9.604482154228556e+000
 1.516158319264580e+000	 3.943588334369741e+000	 9.457554749487604e+000
 1.477049821027342e+000	 3.958402307278478e+000	 9.338386584155105e+000
 1.437881070733778e+000	 3.972797883922680e+000	 9.245279982705769e+000
 1.398658449371905e+000	 3.986775582106998e+000	 9.176600547354804e+000
 1.359388298551968e+000	 4.000336042615841e+000	 9.130779594296341e+000
 1.320076917723369e+000	 4.013480027531105e+000	 9.106316377686349e+000
 1.280730561460803e+000	 4.026208418480270e+000	 9.101780100648456e+000
 1.241355436821376e+000	 4.038522214817848e+000	 9.098231501845433e+000
 1.201957700774393e+000	 4.050422531743143e+000	 9.035109793085358e+000
 1.162543457705291e+000	 4.061910598357380e+000	 8.966625861460045e+000
 1.564402515667893e+000	 3.951600279511499e+000	 9.525658971071003e+000
 1.525129670264477e+000	 3.966923176588746e+000	 9.353063713958552e+000
 1.485789760794904e+000	 3.981824806142011e+000	 9.213923665459046e+000
 1.446389242748077e+000	 3.996305563713150e+000	 9.106525263321830e+000
 1.406934534869337e+000	 4.010365970170742e+000	 9.029214083690619e+000
 1.367432016293249e+000	 4.024006670090824e+000	 8.980397390556169e+000
 1.327888023744064e+000	 4.037228430064649e+000	 8.958546474657128e+000
 1.288308848805791e+000	 4.050032136936430e+000	 8.962198780871573e+000
 1.248700735263687e+000	 4.062418795974020e+000	 8.987200041004922e+000
 1.209069876518824e+000	 4.074389528975535e+000	 8.942358815754373e+000
 1.169422413077266e+000	 4.085945572314992e+000	 8.899225031828420e+000
 1.100632859358089e+000	 3.845595832761096e+000	 9.889085968222345e+000
 1.063307698924287e+000	 3.856083082280073e+000	 9.659176203407665e+000
 1.025978310695547e+000	 3.866182678820226e+000	 9.454140620158389e+000
 9.886503111632020e-001	 3.875896097969085e+000	 9.275831262606930e+000
 9.513292583092478e-001	 3.885224915276651e+000	 9.125960769532108e+000
 9.140206496115850e-001	 3.894170804172645e+000	 9.006104973811947e+000
 8.767299201255315e-001	 3.902735533843882e+000	 8.917705681268457e+000
 8.394624406421656e-001	 3.910920967074734e+000	 8.862073616360785e+000
 8.022235159239715e-001	 3.918729058053593e+000	 8.840391522167879e+000
 7.650183830181282e-001	 3.926161850148238e+000	 8.853717402126881e+000
 7.278522096476668e-001	 3.933221473652993e+000	 8.902987891056418e+000
 1.107511814729950e+000	 3.869630806714263e+000	 9.753342600313051e+000
 1.069953372042454e+000	 3.880183601543291e+000	 9.562794169744597e+000
 1.032390675136383e+000	 3.890346320562340e+000	 9.392816891166449e+000
 9.948293756061433e-001	 3.900120448581363e+000	 9.245186543400571e+000
 9.572750661711154e-001	 3.909507570997550e+000	 9.121542740269288e+000
 9.197332786684372e-001	 3.918509371699555e+000	 9.023391581049038e+000
 8.822094821225213e-001	 3.927127630931612e+000	 8.952108476476120e+000
 8.447090808918900e-001	 3.935364223120498e+000	 8.908941137691699e+000
 8.072374128937925e-001	 3.943221114668281e+000	 8.895012715506429e+000
 7.697997479069518e-001	 3.950700361713788e+000	 8.911325077399997e+000
 7.324012859526674e-001	 3.957804107865683e+000	 8.958762209742806e+000
 1.114390770101823e+000	 3.893665780667925e+000	 9.626927374443575e+000
 1.076599045160822e+000	 3.904284120806908e+000	 9.473662583572333e+000
 1.038803039577591e+000	 3.914509962304769e+000	 9.336756943353928e+000
 1.001008440049604e+000	 3.924344799193880e+000	 9.217909959224702e+000
 9.632208740336311e-001	 3.933790226718624e+000	 9.118688135212729e+000
 9.254459077260457e-001	 3.942847939226587e+000	 9.040527677170488e+000
 8.876890441203557e-001	 3.951519728019421e+000	 8.984737367787355e+000
 8.499557211425274e-001	 3.959807479166306e+000	 8.952501600693555e+000
 8.122513098645748e-001	 3.967713171282988e+000	 8.944883560970684e+000
 7.745811127967657e-001	 3.975238873279342e+000	 8.962828539427493e+000
 7.369503622586678e-001	 3.982386742078373e+000	 9.007167368081442e+000
 1.121269725473710e+000	 3.917700754622081e+000	 9.509401252057847e+000
 1.083244718279394e+000	 3.928384640070924e+000	 9.391395962901813e+000
 1.045215404019170e+000	 3.938673604047511e+000	 9.285627935356372e+000
 1.007187504493585e+000	 3.948569149806639e+000	 9.193720376889457e+000
 9.691666818967955e-001	 3.958072882439874e+000	 9.117166580992333e+000
 9.311585367844106e-001	 3.967186506753740e+000	 9.057332684977533e+000
 8.931686061190346e-001	 3.975911825107308e+000	 9.015460595849955e+000
 8.552023613940775e-001	 3.984250735212159e+000	 8.992671071482931e+000
 8.172652068363187e-001	 3.992205227897716e+000	 8.989966944343536e+000
 7.793624776875701e-001	 3.999777384844903e+000	 9.008236475064578e+000
 7.414994385656684e-001	 4.006969376291065e+000	 9.048256823250945e+000
 1.128148680845609e+000	 3.941735728576730e+000	 9.400327618124786e+000
 1.089890391398167e+000	 3.952485159335339e+000	 9.315610140834405e+000
 1.051627768461121e+000	 3.962837245790567e+000	 9.239097262026718e+000
 1.013366568938086e+000	 3.972793500419637e+000	 9.172335850345160e+000
 9.751124897606076e-001	 3.982355538161299e+000	 9.116745872311872e+000
 9.368711658435319e-001	 3.991525074281015e+000	 9.073623206484077e+000
 8.986481681185581e-001	 4.000303922195272e+000	 9.044142622042511e+000
 8.604490016465405e-001	 4.008693991258054e+000	 9.029360908958934e+000
 8.222791038090236e-001	 4.016697284512461e+000	 9.030220146910633e+000
 7.841438425793649e-001	 4.024315896410467e+000	 9.047551100172738e+000
 7.460485148736690e-001	 4.031552010503755e+000	 9.082076725818972e+000
 1.135027636217520e+000	 3.965770702531872e+000	 9.299272207697998e+000
 1.096536064517142e+000	 3.976585678600152e+000	 9.245922225710968e+000
 1.058040132903442e+000	 3.987000887533941e+000	 9.196832547277245e+000
 1.019545633383107e+000	 3.997017851032875e+000	 9.153473645314575e+000
 9.810582976250684e-001	 4.006638193882902e+000	 9.117192027462014e+000
 9.425837949034094e-001	 4.015863641808413e+000	 9.089213108395079e+000
 9.041277301189261e-001	 4.024696019283316e+000	 9.070644242997691e+000
 8.656956418999160e-001	 4.033137247303993e+000	 9.062477907446249e+000
 8.272930007826900e-001	 4.041189341127226e+000	 9.065595015293500e+000
 7.889252074721500e-001	 4.048854407976037e+000	 9.080768355710513e+000
 7.505975911826697e-001	 4.056134644716447e+000	 9.108666141154693e+000
 1.141906591589444e+000	 3.989805676487508e+000	 9.205803035130137e+000
 1.103181737636320e+000	 4.000686197865364e+000	 9.181950562700790e+000
 1.064452497346135e+000	 4.011164529277626e+000	 9.158501637180009e+000
 1.025724697828648e+000	 4.021242201646355e+000	 9.136850263034704e+000
 9.870041054901767e-001	 4.030920849604678e+000	 9.118269341826629e+000
 9.482964239640432e-001	 4.040202209335932e+000	 9.103913604495403e+000
 9.096072921201384e-001	 4.049088116371435e+000	 9.094822700986098e+000
 8.709422821542044e-001	 4.057580503349976e+000	 9.091924434182223e+000
 8.323068977573177e-001	 4.065681397742011e+000	 9.096038125144460e+000
 7.937065723659252e-001	 4.073392919541612e+000	 9.107878096736481e+000
 7.551466674926702e-001	 4.080717278929137e+000	 9.128057262838455e+000
 1.148785546961380e+000	 4.013840650443639e+000	 9.119490325830459e+000
 1.109827410755699e+000	 4.024786717130976e+000	 9.123314696770928e+000
 1.070864861789199e+000	 4.035328171021625e+000	 9.123772593315533e+000
 1.031903762274708e+000	 4.045466552260072e+000	 9.122181463145463e+000
 9.929499133559335e-001	 4.055203505326632e+000	 9.119740439466991e+000
 9.540090530254335e-001	 4.064540776863572e+000	 9.117533335078562e+000
 9.150868541221949e-001	 4.073480213459632e+000	 9.116531790334406e+000
 8.761889224094058e-001	 4.082023759396003e+000	 9.117598561864527e+000
 8.373207947329068e-001	 4.090173454356815e+000	 9.121490938959900e+000
 7.984879372606911e-001	 4.097931431107191e+000	 9.128864274621970e+000
 7.596957438036709e-001	 4.105299913141828e+000	 9.140275618403887e+000
 1.155664502333329e+000	 4.037875624400262e+000	 9.039906450459469e+000
 1.116473083875282e+000	 4.048887236396987e+000	 9.069635336977857e+000
 1.077277226232635e+000	 4.059491812765941e+000	 9.092313686358867e+000
 1.038082826721289e+000	 4.069690902874031e+000	 9.109182285761188e+000
 9.988957212223386e-001	 4.079486161048761e+000	 9.121366322863326e+000
 9.597216820875802e-001	 4.088879344391336e+000	 9.129878443538718e+000
 9.205664161250965e-001	 4.097872310547908e+000	 9.135621960042677e+000
 8.814355626655196e-001	 4.106467015442072e+000	 9.139394196464657e+000
 8.423346917094572e-001	 4.114665510971639e+000	 9.141889958257597e+000
 8.032693021564474e-001	 4.122469942672775e+000	 9.143705112755955e+000
 7.642448201156715e-001	 4.129882547354518e+000	 9.145340267732149e+000
 1.162543457705291e+000	 4.061910598357380e+000	 8.966625861460045e+000
 1.123118756995066e+000	 4.072987755663395e+000	 9.020534322026991e+000
 1.083689590676441e+000	 4.083655454510569e+000	 9.063793389893123e+000
 1.044261891168389e+000	 4.093915253488230e+000	 9.097567072758229e+000
 1.004841529089392e+000	 4.103768816771066e+000	 9.122906420890720e+000
 9.654343111504832e-001	 4.113217911919220e+000	 9.140752650243419e+000
 9.260459781288423e-001	 4.122264407636261e+000	 9.151940412758522e+000
 8.866822029225463e-001	 4.130910271488186e+000	 9.157201200504012e+000
 8.473485886869692e-001	 4.139157567586482e+000	 9.157166870351215e+000
 8.080506670531938e-001	 4.147008454238363e+000	 9.152373276011980e+000
 7.687938964286722e-001	 4.154465181567210e+000	 9.143263994402661e+000
 1.169422413077266e+000	 4.085945572314992e+000	 8.899225031828420e+000
 1.129764430115052e+000	 4.097088274930204e+000	 8.975634587047709e+000
 1.090101955120620e+000	 4.107819096255514e+000	 9.037880374441928e+000
 1.050440955616010e+000	 4.118139604102670e+000	 9.087049488311459e+000
 1.010787336957094e+000	 4.128051472493549e+000	 9.124118635101569e+000
 9.711469402141429e-001	 4.137556479447227e+000	 9.149957323799139e+000
 9.315255401334329e-001	 4.146656504724693e+000	 9.165331200258049e+000
 8.919288431804859e-001	 4.155353527534343e+000	 9.170905511978836e+000
 8.523624856654425e-001	 4.163649624201344e+000	 9.167248689944579e+000
 8.128320319509309e-001	 4.171546965803958e+000	 9.154836034233965e+000
 7.733429727426728e-001	 4.179047815779902e+000	 9.134053490290089e+000
 7.278522096476668e-001	 3.933221473652993e+000	 8.902987891056418e+000
 6.907300926805886e-001	 3.939910143510855e+000	 9.133500957015050e+000
 6.536570566772164e-001	 3.946230157012450e+000	 9.288829589177155e+000
 6.166380525152096e-001	 3.952183891475303e+000	 9.314739513475178e+000
 5.796779560922215e-001	 3.957773801906784e+000	 9.155326098463219e+000
 5.427815671060725e-001	 3.963002418652466e+000	 9.036554018385804e+000
 5.059536079119449e-001	 3.967872345032923e+000	 8.951427574905120e+000
 4.691987224560952e-001	 3.972386254971538e+000	 8.893676573375275e+000
 4.325214752855099e-001	 3.976546890615961e+000	 8.857740819279282e+000
 3.959263506328407e-001	 3.980357059955667e+000	 8.838753690206712e+000
 3.594177515758589e-001	 3.983819634438112e+000	 8.832524852353750e+000
 7.324012859526674e-001	 3.957804107865683e+000	 8.958762209742806e+000
 6.950471557543670e-001	 3.964534581910347e+000	 9.141824589879443e+000
 6.577424132758770e-001	 3.970894095496459e+000	 9.257724096354366e+000
 6.204920403378411e-001	 3.976885040799776e+000	 9.281026381132095e+000
 5.833009433122726e-001	 3.982509888171469e+000	 9.119274349965517e+000
 5.461739518951021e-001	 3.987771183771772e+000	 8.999587376851530e+000
 5.091158179562316e-001	 3.992671547192009e+000	 8.914974734465424e+000
 4.721312144665805e-001	 3.997213669067587e+000	 8.859179949910224e+000
 4.352247345015533e-001	 4.001400308684579e+000	 8.826665003132669e+000
 3.984008903202549e-001	 4.005234291582396e+000	 8.812593589580054e+000
 3.616641125196922e-001	 4.008718507155041e+000	 8.812813517206365e+000
 7.369503622586678e-001	 3.982386742078373e+000	 9.007167368081442e+000
 6.993642188291456e-001	 3.989159020309839e+000	 9.146192067092200e+000
 6.618277698755376e-001	 3.995558033980466e+000	 9.225992032628941e+000
 6.243460281614728e-001	 4.001586190124251e+000	 9.243119640503073e+000
 5.869239305333236e-001	 4.007245974436156e+000	 9.081429720833182e+000
 5.495663366851321e-001	 4.012539948891078e+000	 8.962944267755892e+000
 5.122780280015182e-001	 4.017470749351095e+000	 8.880678640722376e+000
 4.750637064780657e-001	 4.022041083163638e+000	 8.828391495668637e+000
 4.379279937185968e-001	 4.026253726753200e+000	 8.800568677196738e+000
 4.008754300086693e-001	 4.030111523209127e+000	 8.792406163456644e+000
 3.639104734645255e-001	 4.033617379871969e+000	 8.799792134988506e+000
 7.414994385656684e-001	 4.006969376291065e+000	 9.048256823250945e+000
 7.036812819049239e-001	 4.013783458709330e+000	 9.146616102680094e+000
 6.659131264761982e-001	 4.020221972464474e+000	 9.193607465541465e+000
 6.282000159861042e-001	 4.026287339448725e+000	 9.188896860980069e+000
 5.905469177553745e-001	 4.031982060700842e+000	 9.042248681146001e+000
 5.529587214761617e-001	 4.037308714010385e+000	 8.927027675876444e+000
 5.154402380478049e-001	 4.042269951510182e+000	 8.848888914665317e+000
 4.779961984905510e-001	 4.046868497259687e+000	 8.801607606392572e+000
 4.406312529366401e-001	 4.051107144821819e+000	 8.779695168111271e+000
 4.033499696980836e-001	 4.054988754835856e+000	 8.778381843664681e+000
 3.661568344103588e-001	 4.058516252588897e+000	 8.793598435656932e+000
 7.460485148736690e-001	 4.031552010503755e+000	 9.082076725818972e+000
 7.079983449817026e-001	 4.038407897108823e+000	 9.143103359671111e+000
 6.699984830778585e-001	 4.044885910948482e+000	 9.160539621435254e+000
 6.320540038117358e-001	 4.050988488773197e+000	 9.134071957506333e+000
 5.941699049784256e-001	 4.056718146965529e+000	 9.002185141642935e+000
 5.563511062681912e-001	 4.062077479129690e+000	 8.892239098614413e+000
 5.186024480950916e-001	 4.067069153669269e+000	 8.819954715881130e+000
 4.809286905040363e-001	 4.071695911355738e+000	 8.779125196425236e+000
 4.433345121556834e-001	 4.075960562890439e+000	 8.764289255197310e+000
 4.058245093884980e-001	 4.079865986462586e+000	 8.770713402941254e+000
 3.684031953571920e-001	 4.083415125305826e+000	 8.794373332548812e+000
 7.505975911826697e-001	 4.056134644716447e+000	 9.108666141154693e+000
 7.123154080594807e-001	 4.063032335508314e+000	 9.135654633457992e+000
 6.740838396805190e-001	 4.069549849432490e+000	 9.126753032159476e+000
 6.359079916383675e-001	 4.075689638097673e+000	 9.081667297938429e+000
 5.977928922024768e-001	 4.081454233230216e+000	 8.961690531277760e+000
 5.597434910612210e-001	 4.086846244248997e+000	 8.858978591066897e+000
 5.217646581433783e-001	 4.091868355828354e+000	 8.794224756535931e+000
 4.838611825185215e-001	 4.096523325451788e+000	 8.761241682995605e+000
 4.460377713757269e-001	 4.100813980959058e+000	 8.754597126436186e+000
 4.082990490799122e-001	 4.104743218089316e+000	 8.769595883995665e+000
 3.706495563050253e-001	 4.108313998022754e+000	 8.802260825915672e+000
 7.551466674926702e-001	 4.080717278929137e+000	 9.128057262838455e+000
 7.166324711382593e-001	 4.087656773907806e+000	 9.124265028534422e+000
 6.781691962841796e-001	 4.094213787916498e+000	 9.092207676469327e+000
 6.397619794659990e-001	 4.100390787422146e+000	 9.031609693292198e+000
 6.014158794275277e-001	 4.106190319494902e+000	 8.921213871971629e+000
 5.631358758552507e-001	 4.111615009368303e+000	 8.827644809469618e+000
 5.249268681926650e-001	 4.116667557987442e+000	 8.772047314851811e+000
 4.867936745340067e-001	 4.121350739547837e+000	 8.748254971071399e+000
 4.487410305967702e-001	 4.125667399027678e+000	 8.750866336040126e+000
 4.107735887723265e-001	 4.129620449716046e+000	 8.775226531136850e+000
 3.728959172538585e-001	 4.133212870739683e+000	 8.817407909944171e+000
 7.596957438036709e-001	 4.105299913141828e+000	 9.140275618403887e+000
 7.209495342180375e-001	 4.112281212307298e+000	 9.108924128881000e+000
 6.822545528888403e-001	 4.118877726400506e+000	 9.056859116346470e+000
 6.436159672946303e-001	 4.125091936746619e+000	 8.983822599676628e+000
 6.050388666535788e-001	 4.130926405759588e+000	 8.881201850680004e+000
 5.665282606502805e-001	 4.136383774487609e+000	 8.798635053079069e+000
 5.280890782429517e-001	 4.141466760146528e+000	 8.753770248098929e+000
 4.897261665504921e-001	 4.146178153643888e+000	 8.740463438756146e+000
 4.514442898188136e-001	 4.150520817096297e+000	 8.753345763547159e+000
 4.132481284657408e-001	 4.154497681342776e+000	 8.787804724357081e+000
 3.751422782036917e-001	 4.158111743456611e+000	 8.839964483117132e+000
 7.642448201156715e-001	 4.129882547354518e+000	 9.145340267732149e+000
 7.252665972988160e-001	 4.136905650706790e+000	 9.089616162266385e+000
 6.863399094945006e-001	 4.143541664884513e+000	 9.020658628450377e+000
 6.474699551242620e-001	 4.149793086071095e+000	 8.938226218142287e+000
 6.086618538806298e-001	 4.155662492024274e+000	 8.842098888885634e+000
 5.699206454463102e-001	 4.161152539606915e+000	 8.772345304558872e+000
 5.312512882942383e-001	 4.166265962305615e+000	 8.739741005124159e+000
 4.926586585679774e-001	 4.171005567739938e+000	 8.738165923207605e+000
 4.541475490418570e-001	 4.175374235164916e+000	 8.762285574376779e+000
 4.157226681601550e-001	 4.179374912969506e+000	 8.807531915770220e+000
 3.773886391545250e-001	 4.183010616173539e+000	 8.870083261776360e+000
 7.687938964286722e-001	 4.154465181567210e+000	 9.143263994402661e+000
 7.295836603805946e-001	 4.161530089106282e+000	 9.066320158714996e+000
 6.904252661011612e-001	 4.168205603368522e+000	 8.983553330903291e+000
 6.513239429548935e-001	 4.174494235395568e+000	 8.894737590984605e+000
 6.122848411086810e-001	 4.180398578288962e+000	 8.804347209624421e+000
 5.733130302433399e-001	 4.185921304726221e+000	 8.749170268932067e+000
 5.344134983465251e-001	 4.191065164464702e+000	 8.730306638434414e+000
 4.955911505864627e-001	 4.195832981835988e+000	 8.741661707056448e+000
 4.568508082659004e-001	 4.200227653233536e+000	 8.777937181786330e+000
 4.181972078555694e-001	 4.204252144596237e+000	 8.834611568306082e+000
 3.796350001063584e-001	 4.207909488890468e+000	 8.907919696753901e+000
 7.733429727426728e-001	 4.179047815779902e+000	 9.134053490290089e+000
 7.339007234633732e-001	 4.186154527505775e+000	 9.039010103381923e+000
 6.945106227088217e-001	 4.192869541852530e+000	 8.945486305599816e+000
 6.551779307865252e-001	 4.199195384720043e+000	 8.853270694648753e+000
 6.159078283377321e-001	 4.205134664553649e+000	 8.768386902145474e+000
 5.767054150413697e-001	 4.210690069845527e+000	 8.729503411158875e+000
 5.375757083998120e-001	 4.215864366623790e+000	 8.725813815853631e+000
 4.985236426059480e-001	 4.220660395932039e+000	 8.751250505304062e+000
 4.595540674909438e-001	 4.225081071302157e+000	 8.800553210169625e+000
 4.206717475519837e-001	 4.229129376222966e+000	 8.869249096568886e+000
 3.818813610591916e-001	 4.232808361607396e+000	 8.953631892945936e+000
 3.594177515758589e-001	 3.983819634438112e+000	 8.832524852353750e+000
 3.229999992710687e-001	 3.986937546585482e+000	 8.800107552047345e+000
 2.866773322591905e-001	 3.989713787615519e+000	 8.769905926532093e+000
 2.504539058424687e-001	 3.992151405067931e+000	 8.739544405046269e+000
 2.143337915336593e-001	 3.994253500437819e+000	 8.707253549268474e+000
 1.783209765742101e-001	 3.996023226819399e+000	 8.671849459316965e+000
 1.424193635209333e-001	 3.997463786561714e+000	 8.632712720255125e+000
 1.066327698999310e-001	 3.998578428938315e+000	 8.589766952711482e+000
 7.096492792649614e-002	 3.999370447832837e+000	 8.543457029797379e+000
 3.541948428965995e-002	 3.999843179442312e+000	 8.494727020953597e+000
 0.000000000000000e+000	 4.000000000000000e+000	 8.444997921692020e+000
 3.616641125196922e-001	 4.008718507155041e+000	 8.812813517206365e+000
 3.250187492635377e-001	 4.011855906253005e+000	 8.784718803633634e+000
 2.884690655833330e-001	 4.014649498789190e+000	 8.760207783833575e+000
 2.520192427519617e-001	 4.017102351350427e+000	 8.736993645377382e+000
 2.156733777291349e-001	 4.019217584816156e+000	 8.713401819885753e+000
 1.794354826765600e-001	 4.020998371987436e+000	 8.688349016153930e+000
 1.433094845420295e-001	 4.022447935227990e+000	 8.661321790949661e+000
 1.072992247111841e-001	 4.023569544119328e+000	 8.632354722087721e+000
 7.140845872566262e-002	 4.024366513131858e+000	 8.602008246926355e+000
 3.564085606630323e-002	 4.024842199313843e+000	 8.571346227848236e+000
 0.000000000000000e+000	 4.025000000000000e+000	 8.541913304589409e+000
 3.639104734645255e-001	 4.033617379871969e+000	 8.799792134988506e+000
 3.270374992569964e-001	 4.036774265920530e+000	 8.777130627534726e+000
 2.902607989084344e-001	 4.039585209962862e+000	 8.759151428189657e+000
 2.535845796623624e-001	 4.042053297632919e+000	 8.743659185544495e+000
 2.170129639254471e-001	 4.044181669194493e+000	 8.729077137134423e+000
 1.805499887796554e-001	 4.045973517155472e+000	 8.714425760406979e+000
 1.441996055637605e-001	 4.047432083894266e+000	 8.699300958440537e+000
 1.079656795229418e-001	 4.048560659300342e+000	 8.683851846029379e+000
 7.185198952518444e-002	 4.049362578430879e+000	 8.668758200264231e+000
 3.586222784313356e-002	 4.049841219185373e+000	 8.655207638121491e+000
 0.000000000000000e+000	 4.050000000000000e+000	 8.644872581840644e+000
 3.661568344103588e-001	 4.058516252588897e+000	 8.793598435656932e+000
 3.290562492514448e-001	 4.061692625588052e+000	 8.777415992257151e+000
 2.920525322344945e-001	 4.064520921136532e+000	 8.766745274752607e+000
 2.551499165736709e-001	 4.067004243915415e+000	 8.759485120390755e+000
 2.183525501225958e-001	 4.069145753572829e+000	 8.754159533828346e+000
 1.816644948834962e-001	 4.070948662323509e+000	 8.749895946622155e+000
 1.450897265861263e-001	 4.072416232560541e+000	 8.746403008454585e+000
 1.086321343352042e-001	 4.073551774481353e+000	 8.743947976745957e+000
 7.229552032506161e-002	 4.074358643729899e+000	 8.743333769785400e+000
 3.608359962015094e-002	 4.074840239056904e+000	 8.745875746863337e+000
 0.000000000000000e+000	 4.074999999999999e+000	 8.753378277120092e+000
 3.684031953571920e-001	 4.083415125305826e+000	 8.794373332548812e+000
 3.310749992468829e-001	 4.086610985255576e+000	 8.785652145831257e+000
 2.938442655615136e-001	 4.089456632310205e+000	 8.783003069422124e+000
 2.567152534858871e-001	 4.091955190197909e+000	 8.784421881853907e+000
 2.196921363205811e-001	 4.094109837951166e+000	 8.788536341415393e+000
 1.827790009880826e-001	 4.095923807491546e+000	 8.794584044801622e+000
 1.459798476091268e-001	 4.097400381226817e+000	 8.802389814393569e+000
 1.092985891479713e-001	 4.098542889662366e+000	 8.812342681873954e+000
 7.273905112529411e-002	 4.099354709028921e+000	 8.825372534334578e+000
 3.630497139735534e-002	 4.099839258928435e+000	 8.842926487347800e+000
 0.000000000000000e+000	 4.100000000000000e+000	 8.866945047670132e+000
 3.706495563050253e-001	 4.108313998022754e+000	 8.802260825915672e+000
 3.330937492433106e-001	 4.111529344923100e+000	 8.801920486128777e+000
 2.956359988894915e-001	 4.114392343483876e+000	 8.807943727307297e+000
 2.582805903990110e-001	 4.116906136480403e+000	 8.818426046933388e+000
 2.210317225194030e-001	 4.119073922329502e+000	 8.832101968806688e+000
 1.838935070934145e-001	 4.120898952659582e+000	 8.848322491450388e+000
 1.468699686327622e-001	 4.122384529893093e+000	 8.867032061950187e+000
 1.099650439612430e-001	 4.123534004843380e+000	 8.888745144009389e+000
 7.318258192588194e-002	 4.124350774327941e+000	 8.914522447418561e+000
 3.652634317474679e-002	 4.124838278799965e+000	 8.945946884421334e+000
 0.000000000000000e+000	 4.125000000000000e+000	 8.985099316617387e+000
 3.728959172538585e-001	 4.133212870739683e+000	 8.817407909944171e+000
 3.351124992407280e-001	 4.136447704590624e+000	 8.826306435867270e+000
 2.974277322184281e-001	 4.139328054657547e+000	 8.841591177027649e+000
 2.598459273130427e-001	 4.141857082762898e+000	 8.861460152597957e+000
 2.223713087190614e-001	 4.144038006707839e+000	 8.884757689200065e+000
 1.850080131994918e-001	 4.145874097827619e+000	 8.910951449621395e+000
 1.477600896570323e-001	 4.147368678559368e+000	 8.940108983677545e+000
 1.106314987750194e-001	 4.148525120024393e+000	 8.972873871100742e+000
 7.362611272682511e-002	 4.149346839626961e+000	 9.010441524716564e+000
 3.674771495232530e-002	 4.149837298671496e+000	 9.054534720419269e+000
 0.000000000000000e+000	 4.150000000000000e+000	 9.107378918578625e+000
 3.751422782036917e-001	 4.158111743456611e+000	 8.839964483117132e+000
 3.371312492391351e-001	 4.161366064258147e+000	 8.858899322106126e+000
 2.992194655483239e-001	 4.164263765831219e+000	 8.883974210608074e+000
 2.614112642279822e-001	 4.166808029045393e+000	 8.913492517343670e+000
 2.237108949195563e-001	 4.169002091086175e+000	 8.946411434562407e+000
 1.861225193063147e-001	 4.170849242995655e+000	 8.982318577581783e+000
 1.486502106819372e-001	 4.172352827225643e+000	 9.021408103095316e+000
 1.112979535893004e-001	 4.173516235205406e+000	 9.064456417246737e+000
 7.406964352812362e-002	 4.174342904925982e+000	 9.112797542817487e+000
 3.696908673009083e-002	 4.174836318543028e+000	 9.168298213085430e+000
 0.000000000000000e+000	 4.175000000000000e+000	 9.233332757999319e+000
 3.773886391545250e-001	 4.183010616173539e+000	 8.870083261776360e+000
 3.391499992385319e-001	 4.186284423925672e+000	 8.899792260045800e+000
 3.010111988791782e-001	 4.189199477004890e+000	 8.935126338734603e+000
 2.629766011438293e-001	 4.191758975327886e+000	 8.974497069124441e+000
 2.250504811208877e-001	 4.193966175464512e+000	 9.016977597452119e+000
 1.872370254138830e-001	 4.195824388163692e+000	 9.062278805741153e+000
 1.495403317074769e-001	 4.197336975891918e+000	 9.110724987934555e+000
 1.119644084040861e-001	 4.198507350386419e+000	 9.163229113465546e+000
 7.451317432977747e-002	 4.199338970225004e+000	 9.221267748716658e+000
 3.719045850804342e-002	 4.199835338414558e+000	 9.286855704994510e+000
 0.000000000000000e+000	 4.199999999999999e+000	 9.362520479694641e+000
 3.796350001063584e-001	 4.207909488890468e+000	 8.907919696753901e+000
 3.411687492389183e-001	 4.211202783593194e+000	 8.949082040952474e+000
 3.028029322109916e-001	 4.214135188178561e+000	 8.995085651148981e+000
 2.645419380605842e-001	 4.216709921610382e+000	 9.044453179391930e+000
 2.263900673230558e-001	 4.218930259842849e+000	 9.096376839877349e+000
 1.883515315221968e-001	 4.220799533331729e+000	 9.150694121499173e+000
 1.504304527336514e-001	 4.222321124558194e+000	 9.207863012143555e+000
 1.126308632193765e-001	 4.223498465567431e+000	 9.268936808022948e+000
 7.495670513178664e-002	 4.224335035524025e+000	 9.335538579626427e+000
 3.741183028618303e-002	 4.224834358286088e+000	 9.409835364000779e+000
 0.000000000000000e+000	 4.224999999999999e+000	 9.494512151086886e+000
 3.818813610591916e-001	 4.232808361607396e+000	 8.953631892945936e+000
 3.431874992402947e-001	 4.236121143260720e+000	 9.006869024038812e+000
 3.045946655437639e-001	 4.239070899352234e+000	 9.063894681970696e+000
 2.661072749782468e-001	 4.241660867892875e+000	 9.123345502992535e+000
 2.277296535260604e-001	 4.243894344221186e+000	 9.184535908900356e+000
 1.894660376312561e-001	 4.245774678499766e+000	 9.247433361687385e+000
 1.513205737604607e-001	 4.247305273224471e+000	 9.312633126293015e+000
 1.132973180351715e-001	 4.248489580748445e+000	 9.381332615924769e+000
 7.540023593415120e-002	 4.249331100823047e+000	 9.455305392675538e+000
 3.763320206450971e-002	 4.249833378157621e+000	 9.536874894259407e+000
 0.000000000000000e+000	 4.250000000000000e+000	 9.628887955658387e+000
 4.250000000000000e+000	 0.000000000000000e+000	 1.131921506801492e+001
 4.249833378157620e+000	 3.763320206450985e-002	 1.117324107587224e+001
 4.249331100823047e+000	 7.540023593415146e-002	 1.105218412764158e+001
 4.248489580748444e+000	 1.132973180351712e-001	 1.095200241347652e+001
 4.247305273224471e+000	 1.513205737604606e-001	 1.086872779898632e+001
 4.245774678499766e+000	 1.894660376312561e-001	 1.079845104426154e+001
 4.243894344221186e+000	 2.277296535260605e-001	 1.073730588922967e+001
 4.241660867892875e+000	 2.661072749782472e-001	 1.068145200676899e+001
 4.239070899352234e+000	 3.045946655437636e-001	 1.062705682877373e+001
 4.236121143260720e+000	 3.431874992402945e-001	 1.057027625428253e+001
 4.232808361607396e+000	 3.818813610591916e-001	 1.050723425284768e+001
 4.275000000000000e+000	 0.000000000000000e+000	 1.092392544385861e+001
 4.274832398029148e+000	 3.785457384283890e-002	 1.081249010528291e+001
 4.274327166122059e+000	 7.584376673652557e-002	 1.072244819801778e+001
 4.273480695929435e+000	 1.139637728509879e-001	 1.065025242414851e+001
 4.272289421890708e+000	 1.522106947873084e-001	 1.059244401635171e+001
 4.270749823667742e+000	 1.905805437403758e-001	 1.054563745848473e+001
 4.268858428599435e+000	 2.290692397291523e-001	 1.050650403042570e+001
 4.266611814175251e+000	 2.676726118960291e-001	 1.047175417834943e+001
 4.264006610525748e+000	 3.063863988766921e-001	 1.043811871548403e+001
 4.261039502928045e+000	 3.452062492418692e-001	 1.040232886241847e+001
 4.257707234324079e+000	 3.841277220122707e-001	 1.036109514020399e+001
 4.300000000000000e+000	 0.000000000000000e+000	 1.055040823202419e+001
 4.299831417900671e+000	 3.807594562098566e-002	 1.047255815506996e+001
 4.299323231421049e+000	 7.628729753856345e-002	 1.041251667774686e+001
 4.298471811110385e+000	 1.146302276663430e-001	 1.036723647677462e+001
 4.297273570556867e+000	 1.531008158135985e-001	 1.033377379067816e+001
 4.295724968835596e+000	 1.916950498488709e-001	 1.030927263643388e+001
 4.293822512977509e+000	 2.304088259315823e-001	 1.029094780780557e+001
 4.291562760457388e+000	 2.692379488131417e-001	 1.027606665630205e+001
 4.288942321698952e+000	 3.081781322089743e-001	 1.026192965965607e+001
 4.285957862594973e+000	 3.472249992428511e-001	 1.024584978685013e+001
 4.282606107040270e+000	 3.863740829648416e-001	 1.022513067299788e+001
 4.324999999999999e+000	 0.000000000000000e+000	 1.019976199012492e+001
 4.324830437772191e+000	 3.829731739895016e-002	 1.015429744365666e+001
 4.324319296720021e+000	 7.673082834026511e-002	 1.012299422764109e+001
 4.323462926291289e+000	 1.152966824812367e-001	 1.010331056980098e+001
 4.322257719222951e+000	 1.539909368393309e-001	 1.009282346978028e+001
 4.320700114003333e+000	 1.928095559567414e-001	 1.008921240628503e+001
 4.318786597355409e+000	 2.317484121333504e-001	 1.009024178285891e+001
 4.316513706739286e+000	 2.708032857295852e-001	 1.009374211297483e+001
 4.313878032871841e+000	 3.099698655406102e-001	 1.009758994919161e+001
 4.310876222261504e+000	 3.492437492432403e-001	 1.009968656535643e+001
 4.307504979755969e+000	 3.886204439169040e-001	 1.009793540522890e+001
 4.350000000000000e+000	 0.000000000000000e+000	 9.873060021573851e+000
 4.349829457643704e+000	 3.851868917673237e-002	 9.858537388186040e+000
 4.349315362018976e+000	 7.717435914163061e-002	 9.854465168360086e+000
 4.348454041472150e+000	 1.159631372956689e-001	 9.858812830017881e+000
 4.347241867888956e+000	 1.548810578645055e-001	 9.869684004827780e+000
 4.345675259170945e+000	 1.939240620639871e-001	 9.885299680218328e+000
 4.343750681733135e+000	 2.330879983344565e-001	 9.903980086475334e+000
 4.341464653020945e+000	 2.723686226453594e-001	 9.924125279349706e+000
 4.338813744044418e+000	 3.117615988715999e-001	 9.944194422772290e+000
 4.335794581927638e+000	 3.512624992430367e-001	 9.962683780612174e+000
 4.332403852471177e+000	 3.908668048684583e-001	 9.978103430919949e+000
 4.374999999999999e+000	 0.000000000000000e+000	 9.571351097132723e+000
 4.374828477515215e+000	 3.874006095433233e-002	 9.586085255985738e+000
 4.374311427317912e+000	 7.761788994265988e-002	 9.607494061558079e+000
 4.373445156652968e+000	 1.166295921096397e-001	 9.634064023179050e+000
 4.372226016554885e+000	 1.557711788891225e-001	 9.664431390249138e+000
 4.370650404338438e+000	 1.950385681706083e-001	 9.697364823446144e+000
 4.368714766110685e+000	 2.344275845349007e-001	 9.731746716961631e+000
 4.366415599302367e+000	 2.739339595604644e-001	 9.766553171938671e+000
 4.363749455216683e+000	 3.135533322019433e-001	 9.800832625551776e+000
 4.360712941593376e+000	 3.532812492422404e-001	 9.833683144619682e+000
 4.357302725185893e+000	 3.931131658195044e-001	 9.864228397259733e+000
 4.400000000000000e+000	 0.000000000000000e+000	 1.005195434543682e+001
 4.399827497386720e+000	 3.896143273174999e-002	 1.002271636750536e+001
 4.399307492616827e+000	 7.806142074335290e-002	 9.992094901270534e+000
 4.398436271833743e+000	 1.172960469231490e-001	 9.961290889179777e+000
 4.397210165220737e+000	 1.566612999131817e-001	 9.931423232186907e+000
 4.395625549505810e+000	 1.961530742766048e-001	 9.903525269764238e+000
 4.393678850488062e+000	 2.357671707346830e-001	 9.878541354921955e+000
 4.391366545583549e+000	 2.754992964749001e-001	 9.857323535148730e+000
 4.388685166388635e+000	 3.153450655316404e-001	 9.840628350283973e+000
 4.385631301258717e+000	 3.552999992408514e-001	 9.829113758396817e+000
 4.382201597900116e+000	 3.953595267700419e-001	 9.823336200780569e+000
 4.425000000000000e+000	 0.000000000000000e+000	 1.047780055923111e+001
 4.424826517258218e+000	 3.918280450898538e-002	 1.041512462416784e+001
 4.424303557915724e+000	 7.850495154370979e-002	 1.035125789247043e+001
 4.423427387014476e+000	 1.179625017361969e-001	 1.028764716432276e+001
 4.422194313886513e+000	 1.575514209366833e-001	 1.022566015653641e+001
 4.420600694673061e+000	 1.972675803819767e-001	 1.016658181317848e+001
 4.418642934865264e+000	 2.371067569338034e-001	 1.011161070493567e+001
 4.416317491864494e+000	 2.770646333886667e-001	 1.006185552825028e+001
 4.413620877560275e+000	 3.171367988606913e-001	 1.001833171537483e+001
 4.410549660923660e+000	 3.573187492388697e-001	 9.981958166570939e+000
 4.407100470613848e+000	 3.976058877200713e-001	 9.953554115725630e+000
 4.449999999999999e+000	 0.000000000000000e+000	 1.084986899945260e+001
 4.449825537129715e+000	 3.940417628603850e-002	 1.075921123696509e+001
 4.449299623214602e+000	 7.894848234373043e-002	 1.066759971813887e+001
 4.448418502195165e+000	 1.186289565487833e-001	 1.057672532475785e+001
 4.447178462552209e+000	 1.584415419596271e-001	 1.048820273909550e+001
 4.445575839840191e+000	 1.983820864867240e-001	 1.040356658489207e+001
 4.443607019242291e+000	 2.384463431322619e-001	 1.032426765088743e+001
 4.441268438145198e+000	 2.786299703017640e-001	 1.025166920807129e+001
 4.438556588731602e+000	 3.189285321890960e-001	 1.018704343193693e+001
 4.435468020588207e+000	 3.593374992362953e-001	 1.013156794111788e+001
 4.431999343327089e+000	 3.998522486695924e-001	 1.008632246384891e+001
 4.474999999999999e+000	 0.000000000000000e+000	 1.116911704411066e+001
 4.474824557001205e+000	 3.962554806290932e-002	 1.105584438101017e+001
 4.474295688513459e+000	 7.939201314341488e-002	 1.094189929270515e+001
 4.473409617375811e+000	 1.192954113609082e-001	 1.082921499841666e+001
 4.472162611217830e+000	 1.593316629820132e-001	 1.071965132788879e+001
 4.470550985007201e+000	 1.994965925908466e-001	 1.061499069243173e+001
 4.468571103619143e+000	 2.397859293300585e-001	 1.051693413243033e+001
 4.466219384425665e+000	 2.801953072141921e-001	 1.042709745260925e+001
 4.463492299902617e+000	 3.207202655168542e-001	 1.034700745648365e+001
 4.460386380252356e+000	 3.613562492331280e-001	 1.027809829153229e+001
 4.456898216039838e+000	 4.020986096186052e-001	 1.022170791670537e+001
 4.500000000000000e+000	 0.000000000000000e+000	 1.143648079614610e+001
 4.499823576872690e+000	 3.984691983959790e-002	 1.130587302277732e+001
 4.499291753812299e+000	 7.983554394276311e-002	 1.117491839530402e+001
 4.498400732556415e+000	 1.199618661725717e-001	 1.104579075748916e+001
 4.497146759883374e+000	 1.602217840038417e-001	 1.092059330023905e+001
 4.495526130174089e+000	 2.006110986943446e-001	 1.080135436241244e+001
 4.493535187995821e+000	 2.411255155271932e-001	 1.069002330209487e+001
 4.491170330705895e+000	 2.817606441259510e-001	 1.058846644976141e+001
 4.488428011073320e+000	 3.225119988439664e-001	 1.049846315490386e+001
 4.485304739916110e+000	 3.633749992293683e-001	 1.042170193781944e+001
 4.481797088752097e+000	 4.043449705671097e-001	 1.035977675834815e+001
 4.232808361607396e+000	 3.818813610591916e-001	 1.050723425284768e+001
 4.229129376222968e+000	 4.206717475519838e-001	 1.062402391211847e+001
 4.225081071302157e+000	 4.595540674909441e-001	 1.073275565340839e+001
 4.220660395932038e+000	 4.985236426059477e-001	 1.082979744815771e+001
 4.215864366623790e+000	 5.375757083998116e-001	 1.091139692953156e+001
 4.210690069845527e+000	 5.767054150413699e-001	 1.097365543246964e+001
 4.205134664553649e+000	 6.159078283377322e-001	 1.101250108651895e+001
 4.199195384720043e+000	 6.551779307865254e-001	 1.082430669683887e+001
 4.192869541852530e+000	 6.945106227088215e-001	 1.058034207031642e+001
 4.186154527505775e+000	 7.339007234633730e-001	 1.034463730387800e+001
 4.179047815779902e+000	 7.733429727426728e-001	 1.011682140489809e+001
 4.257707234324079e+000	 3.841277220122707e-001	 1.036109514020399e+001
 4.254006607849405e+000	 4.231462872486892e-001	 1.050868044824678e+001
 4.249934489370448e+000	 4.622573267163141e-001	 1.064816955382198e+001
 4.245487810027736e+000	 5.014561346257856e-001	 1.077638283646830e+001
 4.240663568782507e+000	 5.407379184534669e-001	 1.089002697528448e+001
 4.235458834964459e+000	 5.800977998397743e-001	 1.098566820044966e+001
 4.229870750817964e+000	 6.195308155671542e-001	 1.105970456254812e+001
 4.223896534044159e+000	 6.590319186185139e-001	 1.084436142765562e+001
 4.217533480336205e+000	 6.985959793168148e-001	 1.059159101090962e+001
 4.210778965904968e+000	 7.382177865464500e-001	 1.034571033386629e+001
 4.203630449992338e+000	 7.778920490569271e-001	 1.010637438683657e+001
 4.282606107040270e+000	 3.863740829648416e-001	 1.022513067299788e+001
 4.278883839475262e+000	 4.256208269449768e-001	 1.039891012399555e+001
 4.274787907438089e+000	 4.649605859413375e-001	 1.056456850471443e+001
 4.270315224122728e+000	 5.043886266453285e-001	 1.071938695725247e+001
 4.265462770940488e+000	 5.439001285068594e-001	 1.086053967388341e+001
 4.260227600082641e+000	 5.834901846379283e-001	 1.098506634879889e+001
 4.254606837081538e+000	 6.231538027963179e-001	 1.108984361218173e+001
 4.248597683367563e+000	 6.628859064502164e-001	 1.084474529619356e+001
 4.242197418819215e+000	 7.026813359244741e-001	 1.058898748925060e+001
 4.235403404303566e+000	 7.425348496291238e-001	 1.033868932121632e+001
 4.228213084204269e+000	 7.824411253706887e-001	 1.009352721164330e+001
 4.307504979755969e+000	 3.886204439169040e-001	 1.009793540522890e+001
 4.303761071100537e+000	 4.280953666408464e-001	 1.029311166334392e+001
 4.299641325505075e+000	 4.676638451660142e-001	 1.048015521442763e+001
 4.295142638217016e+000	 5.073211186645764e-001	 1.065681643129795e+001
 4.290261973097732e+000	 5.470623385599891e-001	 1.082074560210095e+001
 4.284996365200072e+000	 5.868825694358318e-001	 1.096946457092699e+001
 4.279342923344370e+000	 6.267767900252236e-001	 1.108336075457257e+001
 4.273298832690252e+000	 6.667398942816329e-001	 1.082593451121353e+001
 4.266861357301559e+000	 7.067666925317988e-001	 1.057299974913804e+001
 4.260027842701565e+000	 7.468519127113943e-001	 1.032403384852198e+001
 4.252795718415691e+000	 7.869902016839576e-001	 1.007873009220568e+001
 4.332403852471177e+000	 3.908668048684583e-001	 9.978103430919949e+000
 4.328638302725228e+000	 4.305699063362981e-001	 1.018968450929681e+001
 4.324494743571407e+000	 4.703671043903442e-001	 1.039313429350228e+001
 4.319970052310598e+000	 5.102536106835296e-001	 1.058668096850479e+001
 4.315061175254238e+000	 5.502245486128563e-001	 1.076845961603624e+001
 4.309765130316756e+000	 5.902749542334850e-001	 1.093648303263775e+001
 4.304079009606459e+000	 6.303997772538713e-001	 1.103565416714674e+001
 4.297999982012226e+000	 6.705938821127633e-001	 1.078841314673252e+001
 4.291525295783236e+000	 7.108520491387893e-001	 1.054410509848601e+001
 4.284652281098967e+000	 7.511689757932618e-001	 1.030221376233388e+001
 4.277378352626607e+000	 7.915392779967340e-001	 1.006244470570437e+001
 4.357302725185893e+000	 3.931131658195044e-001	 9.864228397259733e+000
 4.353515534349339e+000	 4.330444460313320e-001	 1.008702880334120e+001
 4.349348161637088e+000	 4.730703636143275e-001	 1.030171220032938e+001
 4.344797466403474e+000	 5.131861027021878e-001	 1.050699327962493e+001
 4.339860377410006e+000	 5.533867586654604e-001	 1.070150072884853e+001
 4.334533895432689e+000	 5.936673390308876e-001	 1.088374721577494e+001
 4.328815095867808e+000	 6.340227644822606e-001	 1.096387319908729e+001
 4.322701131333488e+000	 6.744478699436078e-001	 1.073267291730198e+001
 4.316189234264249e+000	 7.149374057454456e-001	 1.050278965034933e+001
 4.309276719495773e+000	 7.554860388747262e-001	 1.027370887990347e+001
 4.301960986837014e+000	 7.960883543090176e-001	 1.004514386606196e+001
 4.382201597900116e+000	 3.953595267700419e-001	 9.823336200780569e+000
 4.378392765972867e+000	 4.355189857259480e-001	 1.001080866300628e+001
 4.374201579702113e+000	 4.757736228379642e-001	 1.020409718865469e+001
 4.369624880495647e+000	 5.161185947205511e-001	 1.041576899101069e+001
 4.364659579565039e+000	 5.565489687178018e-001	 1.061769199265883e+001
 4.359302660547873e+000	 5.970597238280400e-001	 1.080888776719853e+001
 4.353551182128414e+000	 6.376457517103920e-001	 1.086852077921188e+001
 4.347402280654035e+000	 6.783018577741661e-001	 1.065921296094721e+001
 4.340853172744595e+000	 7.190227623517677e-001	 1.044954807277746e+001
 4.333901157891982e+000	 7.598031019557877e-001	 1.023900870592439e+001
 4.326543621046915e+000	 8.006374306208084e-001	 1.002731120755828e+001
 4.407100470613848e+000	 3.976058877200713e-001	 9.953554115725630e+000
 4.403269997595813e+000	 4.379935254201460e-001	 1.010949322829468e+001
 4.399054997766486e+000	 4.784768820612543e-001	 1.026671297676655e+001
 4.394452294587114e+000	 5.190510867386193e-001	 1.042507650126240e+001
 4.389458781719333e+000	 5.597111787698805e-001	 1.058433106632691e+001
 4.384071425662305e+000	 6.004521086249417e-001	 1.074410625776568e+001
 4.378287268388279e+000	 6.412687389382651e-001	 1.075948233728802e+001
 4.372103429973867e+000	 6.821558456044385e-001	 1.056853962946466e+001
 4.365517111224276e+000	 7.231081189577551e-001	 1.038488334714796e+001
 4.358525596287595e+000	 7.641201650364460e-001	 1.019861215887601e+001
 4.351126255256309e+000	 8.051865069321068e-001	 1.000944087917058e+001
 4.431999343327089e+000	 3.998522486695924e-001	 1.008632246384891e+001
 4.428147229218177e+000	 4.404680651139264e-001	 1.021356188731224e+001
 4.423908415830206e+000	 4.811801412841976e-001	 1.034289380608203e+001
 4.419279708677876e+000	 5.219835787563928e-001	 1.047429234130308e+001
 4.414257983872892e+000	 5.628733888216964e-001	 1.060761542518069e+001
 4.408840190775990e+000	 6.038444934215930e-001	 1.074260289668928e+001
 4.403023354647401e+000	 6.448917261658800e-001	 1.071559779708388e+001
 4.396804579292986e+000	 6.860098334344249e-001	 1.052248075121805e+001
 4.390181049703291e+000	 7.271934755634086e-001	 1.033840517015285e+001
 4.383150034682610e+000	 7.684372281167010e-001	 1.016213345241705e+001
 4.375708889465193e+000	 8.097355832429123e-001	 9.992333458896946e+000
 4.456898216039838e+000	 4.020986096186052e-001	 1.022170791670537e+001
 4.453024460839959e+000	 4.429426048072887e-001	 1.032304291296108e+001
 4.448761833893272e+000	 4.838834005067942e-001	 1.042731716798871e+001
 4.444107122767933e+000	 5.249160707738714e-001	 1.053461457463481e+001
 4.439057186025712e+000	 5.660355988732495e-001	 1.064490246341261e+001
 4.433608955888926e+000	 6.072368782179941e-001	 1.075802959705374e+001
 4.427759440905781e+000	 6.485147133932370e-001	 1.069581330287286e+001
 4.421505728611392e+000	 6.898638212641249e-001	 1.050826718918088e+001
 4.414844988181640e+000	 7.312788321687278e-001	 1.033090638889084e+001
 4.407774473077028e+000	 7.727542911965529e-001	 1.016264487651255e+001
 4.400291523673573e+000	 8.142846595532255e-001	 1.000230265673389e+001
 4.481797088752097e+000	 4.043449705671097e-001	 1.035977675834815e+001
 4.477901692461161e+000	 4.454171445002335e-001	 1.043796518387649e+001
 4.473615251955685e+000	 4.865866597290443e-001	 1.051997462423037e+001
 4.468934536857284e+000	 5.278485627910551e-001	 1.060599754799759e+001
 4.463856388177794e+000	 5.691978089245400e-001	 1.069610942802611e+001
 4.458377721001112e+000	 6.106292630141444e-001	 1.079026663478047e+001
 4.452495527163421e+000	 6.521377006203358e-001	 1.069967734746525e+001
 4.446206877929084e+000	 6.937178090935396e-001	 1.051977031120325e+001
 4.439508926659324e+000	 7.353641887737125e-001	 1.035121068468579e+001
 4.432398911470851e+000	 7.770713542760019e-001	 1.019306380494790e+001
 4.424874157881446e+000	 8.188337358630459e-001	 1.004430157955426e+001
 4.179047815779902e+000	 7.733429727426728e-001	 1.011682140489809e+001
 4.171546965803959e+000	 8.128320319509310e-001	 1.027020554165759e+001
 4.163649624201344e+000	 8.523624856654427e-001	 1.040712368081363e+001
 4.155353527534343e+000	 8.919288431804857e-001	 1.052859053486266e+001
 4.146656504724693e+000	 9.315255401334327e-001	 1.063590916559840e+001
 4.137556479447227e+000	 9.711469402141428e-001	 1.073068485719114e+001
 4.128051472493549e+000	 1.010787336957094e+000	 1.081483876900515e+001
 4.118139604102669e+000	 1.050440955616010e+000	 1.089062132288789e+001
 4.107819096255514e+000	 1.090101955120619e+000	 1.096062527882523e+001
 4.097088274930205e+000	 1.129764430115052e+000	 1.102779845214493e+001
 4.085945572314992e+000	 1.169422413077266e+000	 1.109545602487306e+001
 4.203630449992338e+000	 7.778920490569271e-001	 1.010637438683657e+001
 4.196085477369345e+000	 8.176133968488740e-001	 1.026476709230610e+001
 4.188141680816043e+000	 8.573763826440791e-001	 1.040562449706718e+001
 4.179796783580376e+000	 8.971754834385506e-001	 1.052974880973379e+001
 4.171048601813031e+000	 9.370051021381152e-001	 1.063823313790114e+001
 4.161895046975168e+000	 9.768595692778664e-001	 1.073247579487611e+001
 4.152334128215989e+000	 1.016733144824837e+000	 1.081419438913382e+001
 4.142363954717085e+000	 1.056620020063654e+000	 1.088543965028580e+001
 4.131982738000447e+000	 1.096514319564807e+000	 1.094860894447288e+001
 4.121188794197010e+000	 1.136410103235041e+000	 1.100645943135451e+001
 4.109980546272603e+000	 1.176301368449240e+000	 1.106212081426115e+001
 4.228213084204269e+000	 7.824411253706887e-001	 1.009352721164330e+001
 4.220623988934317e+000	 8.223947617462386e-001	 1.025695921789283e+001
 4.212633737430396e+000	 8.623902796220805e-001	 1.040169412778220e+001
 4.204240039626114e+000	 9.024221236959534e-001	 1.052831939435964e+001
 4.195440698901107e+000	 9.424846641421384e-001	 1.063771601021243e+001
 4.186233614502861e+000	 9.825721983409623e-001	 1.073107325367830e+001
 4.176616783938171e+000	 1.022678952692014e+000	 1.080990322074758e+001
 4.166588305331214e+000	 1.062799084510823e+000	 1.087605509547881e+001
 4.156146379745046e+000	 1.102926684008645e+000	 1.093172911084680e+001
 4.145289313463413e+000	 1.143055776354834e+000	 1.097949015116946e+001
 4.134015520229721e+000	 1.183180323821201e+000	 1.102228094662820e+001
 4.252795718415691e+000	 7.869902016839576e-001	 1.007873009220568e+001
 4.245162500498869e+000	 8.271761266430252e-001	 1.024731904887213e+001
 4.237125794044403e+000	 8.674041765994475e-001	 1.039595621835630e+001
 4.228683295671557e+000	 9.076687639526941e-001	 1.052501199808465e+001
 4.219832795988922e+000	 9.479642261455015e-001	 1.063515305645558e+001
 4.210572182030301e+000	 9.882848274034306e-001	 1.072735752441662e+001
 4.200899439660092e+000	 1.028624760558625e+000	 1.080292997567376e+001
 4.190812655945056e+000	 1.068978148957520e+000	 1.086351614737965e+001
 4.180310021489308e+000	 1.109339048452132e+000	 1.091111735221065e+001
 4.169389832729409e+000	 1.149701449474428e+000	 1.094810453194086e+001
 4.158050494186345e+000	 1.190059279193150e+000	 1.097723190196035e+001
 4.277378352626607e+000	 7.915392779967340e-001	 1.006244470570437e+001
 4.269701012063006e+000	 8.319574915392335e-001	 1.023639415027263e+001
 4.261617850658065e+000	 8.724180735761798e-001	 1.038904381098831e+001
 4.253126551716705e+000	 9.129154042087730e-001	 1.052054468159241e+001
 4.244224893076472e+000	 9.534437881482050e-001	 1.063134684911657e+001
 4.234910749557492e+000	 9.939974564652715e-001	 1.072221513676537e+001
 4.225182095381759e+000	 1.034570568424671e+000	 1.079424453834999e+001
 4.215037006558611e+000	 1.075157213403744e+000	 1.084887539512970e+001
 4.204473663233235e+000	 1.115751412895269e+000	 1.088790826494921e+001
 4.193490351995003e+000	 1.156347122593826e+000	 1.091351843272627e+001
 4.182085468142476e+000	 1.196938234565087e+000	 1.092827001065524e+001
 4.301960986837014e+000	 7.960883543090176e-001	 1.004514386606196e+001
 4.294239523626727e+000	 8.367388564348637e-001	 1.022474222356646e+001
 4.286109907271380e+000	 8.774319705522771e-001	 1.038159907619816e+001
 4.277569807761561e+000	 9.181620444641898e-001	 1.051564361829594e+001
 4.268616990163762e+000	 9.589233501502488e-001	 1.062710705071362e+001
 4.259249317084431e+000	 9.997100855264841e-001	 1.071653868100126e+001
 4.249464751103164e+000	 1.040516376290151e+000	 1.078482181803514e+001
 4.239261357171881e+000	 1.081336277849494e+000	 1.083318941094959e+001
 4.228637304976828e+000	 1.122163777338055e+000	 1.086323938122210e+001
 4.217590871260192e+000	 1.162992795713027e+000	 1.087694959589797e+001
 4.206120442098111e+000	 1.203817189937011e+000	 1.087669242922460e+001
 4.326543621046915e+000	 8.006374306208084e-001	 1.002731120755828e+001
 4.318778035190028e+000	 8.415202213299152e-001	 1.021293081870214e+001
 4.310601963884349e+000	 8.824458675277399e-001	 1.037427305349957e+001
 4.302013063806120e+000	 9.234086847189446e-001	 1.051104286386238e+001
 4.293009087250787e+000	 9.644029121516327e-001	 1.062325021237588e+001
 4.283587884611121e+000	 1.005422714587069e+000	 1.071122663582720e+001
 4.273747406824311e+000	 1.046462184155065e+000	 1.077564160605882e+001
 4.263485707784863e+000	 1.087515342294771e+000	 1.081751863698356e+001
 4.252800946720086e+000	 1.128576141780491e+000	 1.083825108556096e+001
 4.241691390524975e+000	 1.169638468832031e+000	 1.083961759363973e+001
 4.230155416053255e+000	 1.210696145308922e+000	 1.082379711682507e+001
 4.351126255256309e+000	 8.051865069321068e-001	 1.000944087917058e+001
 4.343316546752915e+000	 8.463015862243891e-001	 1.020153705589893e+001
 4.335094020496972e+000	 8.874597645025674e-001	 1.036772540086354e+001
 4.326456319850386e+000	 9.286553249730370e-001	 1.050748413355053e+001
 4.317401184337552e+000	 9.698824741523567e-001	 1.062059957924985e+001
 4.307926452137561e+000	 1.011135343647027e+000	 1.070718320203249e+001
 4.298030062545202e+000	 1.052407992019414e+000	 1.076768843790976e+001
 4.287710058397559e+000	 1.093694406739574e+000	 1.080292727597954e+001
 4.276964588463008e+000	 1.134988506222576e+000	 1.081408653429408e+001
 4.265791909789358e+000	 1.176284141950839e+000	 1.080274377625731e+001
 4.254190390007903e+000	 1.217575100680821e+000	 1.077088281258457e+001
 4.375708889465193e+000	 8.097355832429123e-001	 9.992333458896946e+000
 4.367855058315383e+000	 8.510829511182845e-001	 1.019114735681911e+001
 4.359586077109249e+000	 8.924736614767607e-001	 1.036262415262673e+001
 4.350899575894356e+000	 9.339019652264679e-001	 1.050571658705365e+001
 4.341793281424052e+000	 9.753620361524212e-001	 1.061998490246516e+001
 4.332265019663749e+000	 1.016847972706356e+000	 1.070531814176013e+001
 4.322312718265833e+000	 1.058353799883198e+000	 1.076195145997289e+001
 4.311934409009967e+000	 1.099873471183904e+000	 1.079048318565428e+001
 4.301128230205594e+000	 1.141400870664311e+000	 1.079189157768693e+001
 4.289892429053334e+000	 1.182929815069449e+000	 1.076755122223107e+001
 4.278225363962058e+000	 1.224454056052707e+000	 1.071924901369309e+001
 4.400291523673573e+000	 8.142846595532255e-001	 1.000230265673389e+001
 4.392393569877434e+000	 8.558643160116016e-001	 1.018912538439654e+001
 4.384078133721181e+000	 8.974875584503188e-001	 1.035812794288151e+001
 4.375342831938033e+000	 9.391486054792365e-001	 1.050628770983757e+001
 4.366185378510290e+000	 9.808415981518260e-001	 1.062224225740326e+001
 4.356603587189687e+000	 1.022560601765058e+000	 1.070654662316176e+001
 4.346595373986204e+000	 1.064299607746415e+000	 1.075942430073337e+001
 4.336158759622090e+000	 1.106052535627761e+000	 1.078125777659916e+001
 4.325291871947847e+000	 1.147813235105695e+000	 1.077281468469246e+001
 4.313992948316907e+000	 1.189575488187861e+000	 1.073526468994307e+001
 4.302260337915721e+000	 1.231333011424581e+000	 1.067019595422767e+001
 4.424874157881446e+000	 8.188337358630459e-001	 1.004430157955426e+001
 4.416932081439071e+000	 8.606456809043407e-001	 1.021512839791436e+001
 4.408570190332767e+000	 9.025014554232427e-001	 1.036994995648151e+001
 4.399786087981418e+000	 9.443952457313434e-001	 1.050565672603514e+001
 4.390577475596269e+000	 9.863211601505711e-001	 1.061902115318602e+001
 4.380942154715376e+000	 1.028273230823133e+000	 1.070669550119365e+001
 4.370878029706319e+000	 1.070245415609068e+000	 1.076110494627378e+001
 4.360383110233927e+000	 1.112231600071145e+000	 1.077632591358930e+001
 4.349455513689765e+000	 1.154225599546729e+000	 1.075800687020981e+001
 4.338093467580077e+000	 1.196221161306078e+000	 1.070711057101298e+001
 4.326295311868889e+000	 1.238211966796443e+000	 1.062502458468339e+001
 4.085945572314992e+000	 1.169422413077266e+000	 1.109545602487306e+001
 4.074389528975536e+000	 1.209069876518825e+000	 1.066868909172524e+001
 4.062418795974019e+000	 1.248700735263687e+000	 1.026318693542650e+001
 4.050032136936430e+000	 1.288308848805790e+000	 1.030415134068897e+001
 4.037228430064649e+000	 1.327888023744063e+000	 1.036459417829433e+001
 4.024006670090824e+000	 1.367432016293249e+000	 1.042982517177621e+001
 4.010365970170742e+000	 1.406934534869337e+000	 1.049974768164464e+001
 3.996305563713150e+000	 1.446389242748077e+000	 1.057423144280256e+001
 3.981824806142011e+000	 1.485789760794904e+000	 1.065311289244798e+001
 3.966923176588746e+000	 1.525129670264476e+000	 1.073619558111987e+001
 3.951600279511499e+000	 1.564402515667893e+000	 1.082325066711847e+001
 4.109980546272603e+000	 1.176301368449240e+000	 1.106212081426115e+001
 4.098356526207931e+000	 1.216182052263254e+000	 1.062773009544373e+001
 4.086315377130201e+000	 1.256046033705988e+000	 1.027996032102423e+001
 4.073855855392611e+000	 1.295887136150756e+000	 1.033163962927145e+001
 4.060976832598230e+000	 1.335699129764719e+000	 1.038772470516109e+001
 4.047677297565866e+000	 1.375475734034469e+000	 1.044814379246567e+001
 4.033956358234573e+000	 1.415210620366680e+000	 1.051279122564016e+001
 4.019813243503739e+000	 1.454897414762255e+000	 1.058152769746218e+001
 4.005247305005702e+000	 1.494529700562308e+000	 1.065418061035521e+001
 3.990258018807951e+000	 1.534101021264173e+000	 1.073054451183458e+001
 3.974844987041911e+000	 1.573604883405484e+000	 1.081038161427220e+001
 4.134015520229721e+000	 1.183180323821201e+000	 1.102228094662820e+001
 4.122323523439744e+000	 1.223294228007851e+000	 1.058210238513069e+001
 4.110211958285729e+000	 1.263391332148599e+000	 1.031097244838584e+001
 4.097679573848086e+000	 1.303465423496135e+000	 1.035886865890643e+001
 4.084725235131073e+000	 1.343510235785849e+000	 1.041074245764757e+001
 4.071347925040157e+000	 1.383519451776188e+000	 1.046651290793442e+001
 4.057546746297664e+000	 1.423486705864506e+000	 1.052606510750107e+001
 4.043320923293615e+000	 1.463405586776860e+000	 1.058925047865963e+001
 4.028669803868731e+000	 1.503269640330041e+000	 1.065588714319262e+001
 4.013592861026560e+000	 1.543072372264059e+000	 1.072576038237762e+001
 3.998089694571819e+000	 1.582807251143084e+000	 1.079862318230660e+001
 4.158050494186345e+000	 1.190059279193150e+000	 1.097723190196035e+001
 4.146290520670970e+000	 1.230406403752616e+000	 1.053313327684175e+001
 4.134108539440599e+000	 1.270736630591519e+000	 1.034160367350232e+001
 4.121503292302855e+000	 1.311043710841926e+000	 1.038584715200594e+001
 4.108473637663178e+000	 1.351321341807455e+000	 1.043365688931029e+001
 4.095018552513700e+000	 1.391563169518405e+000	 1.048494257273742e+001
 4.081137134360011e+000	 1.431762791362815e+000	 1.053957984997093e+001
 4.066828603082779e+000	 1.471913758791889e+000	 1.059741064187467e+001
 4.052092302731094e+000	 1.512009580098101e+000	 1.065824354110552e+001
 4.036927703244575e+000	 1.552043723264134e+000	 1.072185429689950e+001
 4.021334402101221e+000	 1.592009618880696e+000	 1.078798638615934e+001
 4.182085468142476e+000	 1.196938234565087e+000	 1.092827001065524e+001
 4.170257517901614e+000	 1.237518579497549e+000	 1.048215096821959e+001
 4.158005120594816e+000	 1.278081929034749e+000	 1.037186277695547e+001
 4.145327010756917e+000	 1.318621998188129e+000	 1.041258478698379e+001
 4.132222040194549e+000	 1.359132447829537e+000	 1.045647845297282e+001
 4.118689179986494e+000	 1.399606887261122e+000	 1.050344388801415e+001
 4.104727522421620e+000	 1.440038876861605e+000	 1.055334707375489e+001
 4.090336282871229e+000	 1.480421930807344e+000	 1.060602019598989e+001
 4.075514801592792e+000	 1.520749519866489e+000	 1.066126206715015e+001
 4.060262545461995e+000	 1.561015074264399e+000	 1.071883863603646e+001
 4.044579109630118e+000	 1.601211986618317e+000	 1.077848358489275e+001
 4.206120442098111e+000	 1.203817189937011e+000	 1.087669242922460e+001
 4.194224515131673e+000	 1.244630755242650e+000	 1.043048451330570e+001
 4.181901701748377e+000	 1.285427227478289e+000	 1.040175942991246e+001
 4.169150729210273e+000	 1.326200285534745e+000	 1.043909217094123e+001
 4.155970442725177e+000	 1.366943553852094e+000	 1.047921857217530e+001
 4.142359807458537e+000	 1.407650605004338e+000	 1.052202897158630e+001
 4.128317910482487e+000	 1.448314962360878e+000	 1.056737946614932e+001
 4.113843962658969e+000	 1.488930102823224e+000	 1.061509227033643e+001
 4.098937300453828e+000	 1.529489459635205e+000	 1.066495616263909e+001
 4.083597387678821e+000	 1.569986425264854e+000	 1.071672702043937e+001
 4.067823817158510e+000	 1.610414354355949e+000	 1.077012844329028e+001
 4.230155416053255e+000	 1.210696145308922e+000	 1.082379711682507e+001
 4.218191512361147e+000	 1.251742930987919e+000	 1.039974465974827e+001
 4.205798282901285e+000	 1.292772525922139e+000	 1.043130416882514e+001
 4.192974447662923e+000	 1.333778572881773e+000	 1.046538081328378e+001
 4.179718845255071e+000	 1.374754659875128e+000	 1.050188961359731e+001
 4.166030434929832e+000	 1.415694322748053e+000	 1.054071092907468e+001
 4.151908298542612e+000	 1.456591047860634e+000	 1.058169075074095e+001
 4.137351642445993e+000	 1.497438274839530e+000	 1.062464108286295e+001
 4.122359799314200e+000	 1.538229399404250e+000	 1.066934041366799e+001
 4.106932229895052e+000	 1.578957776265498e+000	 1.071553427554608e+001
 4.091068524686397e+000	 1.619616722093591e+000	 1.076293589476210e+001
 4.254190390007903e+000	 1.217575100680821e+000	 1.077088281258457e+001
 4.242158509590039e+000	 1.258855106733357e+000	 1.043173567009498e+001
 4.229694864053536e+000	 1.300117824366298e+000	 1.046050837098697e+001
 4.216798166114867e+000	 1.341356860229214e+000	 1.049146310023242e+001
 4.203467247784223e+000	 1.382565765898636e+000	 1.052450486041546e+001
 4.189701062400376e+000	 1.423738040492267e+000	 1.055950382599536e+001
 4.175498686601996e+000	 1.464867133360872e+000	 1.059629565813310e+001
 4.160859322232307e+000	 1.505946446856262e+000	 1.063468190938378e+001
 4.145782298173908e+000	 1.546969339173621e+000	 1.067443051877717e+001
 4.130267072110688e+000	 1.587929127266332e+000	 1.071527639754791e+001
 4.114313232213778e+000	 1.628819089831244e+000	 1.075692210550819e+001
 4.278225363962058e+000	 1.224454056052707e+000	 1.071924901369309e+001
 4.266125506818345e+000	 1.265967282478963e+000	 1.046327957501956e+001
 4.253591445205132e+000	 1.307463122810768e+000	 1.048938423091389e+001
 4.240621884566103e+000	 1.348935147577067e+000	 1.051735227019389e+001
 4.227215650312640e+000	 1.390376871922621e+000	 1.054707848655915e+001
 4.213371689870171e+000	 1.431781758236980e+000	 1.057842266079626e+001
 4.199089074660639e+000	 1.473143218861593e+000	 1.061120989765874e+001
 4.184367002017906e+000	 1.514454618873418e+000	 1.064523105386363e+001
 4.169204797032951e+000	 1.555709278943321e+000	 1.068024325770309e+001
 4.153601914325729e+000	 1.596900478267356e+000	 1.071597052050323e+001
 4.137557939740653e+000	 1.638021457568906e+000	 1.075210443988945e+001
 4.302260337915721e+000	 1.231333011424581e+000	 1.067019595422767e+001
 4.290092504046069e+000	 1.273079458224736e+000	 1.049438818331870e+001
 4.277488026356076e+000	 1.314808421255548e+000	 1.051794473751688e+001
 4.264445603016635e+000	 1.356513434925334e+000	 1.054306238995674e+001
 4.250964052840319e+000	 1.398187977947081e+000	 1.056962553182911e+001
 4.237042317339218e+000	 1.439825475982193e+000	 1.059748333879762e+001
 4.222679462718540e+000	 1.481419304362795e+000	 1.062645013004161e+001
 4.207874681802794e+000	 1.522962790891000e+000	 1.065630581969820e+001
 4.192627295891330e+000	 1.564449218713350e+000	 1.068679646117737e+001
 4.176936756540174e+000	 1.605871829268569e+000	 1.071763488455358e+001
 4.160802647267024e+000	 1.647223825306579e+000	 1.074850142695953e+001
 4.326295311868889e+000	 1.238211966796443e+000	 1.062502458468339e+001
 4.314059501273209e+000	 1.280191633970678e+000	 1.052507404647052e+001
 4.301384607506363e+000	 1.322153719700637e+000	 1.054620365203536e+001
 4.288269321466461e+000	 1.364091722274012e+000	 1.056860833168057e+001
 4.274712455367262e+000	 1.405999083972017e+000	 1.059216187784554e+001
 4.260712944807515e+000	 1.447869193727904e+000	 1.061670264700113e+001
 4.246269850775702e+000	 1.489695389864481e+000	 1.064203394096876e+001
 4.231382361586969e+000	 1.531470962909008e+000	 1.066792448195229e+001
 4.216049794749047e+000	 1.573189158483706e+000	 1.069410898173249e+001
 4.200271598754028e+000	 1.614843180269973e+000	 1.072028880519903e+001
 4.184047354792891e+000	 1.656426193044263e+000	 1.074613272811211e+001
 3.951600279511499e+000	 1.564402515667893e+000	 1.082325066711847e+001
 3.935855846239047e+000	 1.603601807705202e+000	 1.079171248368033e+001
 3.919689736435062e+000	 1.642721026262243e+000	 1.076584308821774e+001
 3.903101939481164e+000	 1.681753623468193e+000	 1.074609625481746e+001
 3.886092575776805e+000	 1.720693026811101e+000	 1.073290290029719e+001
 3.868661897952027e+000	 1.759532642309954e+000	 1.072667127611594e+001
 3.850810291991064e+000	 1.798265857740103e+000	 1.072778722156713e+001
 3.832538278264387e+000	 1.836886045909252e+000	 1.073661447759547e+001
 3.813846512466861e+000	 1.875386567981046e+000	 1.075281952032015e+001
 3.794735786459811e+000	 1.913760776843248e+000	 1.071183520393252e+001
 3.775207029014879e+000	 1.952002020517314e+000	 1.068164277744075e+001
 3.974844987041911e+000	 1.573604883405484e+000	 1.081038161427220e+001
 3.959007939455936e+000	 1.613034759513854e+000	 1.078555044541037e+001
 3.942746734888186e+000	 1.652384091121428e+000	 1.076677004044730e+001
 3.926061362657818e+000	 1.691646291840493e+000	 1.075442214349800e+001
 3.908951943872515e+000	 1.730814750497264e+000	 1.074886427092705e+001
 3.891418732648381e+000	 1.769882834322603e+000	 1.075042997883852e+001
 3.873462117240142e+000	 1.808843892196424e+000	 1.075942919510429e+001
 3.855082621079272e+000	 1.847691257942943e+000	 1.077614861517206e+001
 3.836280903717666e+000	 1.886418253673829e+000	 1.078161959292914e+001
 3.817057761674656e+000	 1.925018193176184e+000	 1.075055412784998e+001
 3.797414129185245e+000	 1.963484385342178e+000	 1.073004639252358e+001
 3.998089694571819e+000	 1.582807251143084e+000	 1.079862318230660e+001
 3.982160032672422e+000	 1.622467711322332e+000	 1.077939618534897e+001
 3.965803733341005e+000	 1.662047155980281e+000	 1.076660378239670e+001
 3.949020785834266e+000	 1.701538960212334e+000	 1.076055590283965e+001
 3.931811311968122e+000	 1.740936474182872e+000	 1.076153687461082e+001
 3.914175567344729e+000	 1.780233026334631e+000	 1.076980576728324e+001
 3.896113942489314e+000	 1.819421926652086e+000	 1.078559680297211e+001
 3.877626963894351e+000	 1.858496469975969e+000	 1.080911983418368e+001
 3.858715294968766e+000	 1.897449939365970e+000	 1.080407257991056e+001
 3.839379736889895e+000	 1.936275609508532e+000	 1.078169501876726e+001
 3.819621229356107e+000	 1.974966750166537e+000	 1.076964629912387e+001
 4.021334402101221e+000	 1.592009618880696e+000	 1.078798638615934e+001
 4.005312125888501e+000	 1.631900663130633e+000	 1.077328409820974e+001
 3.988860731793518e+000	 1.671710220838803e+000	 1.076540216734276e+001
 3.971980209010511e+000	 1.711431628583718e+000	 1.076457891157320e+001
 3.954670680063623e+000	 1.751058197867925e+000	 1.077102567035404e+001
 3.936932402041073e+000	 1.790583218346036e+000	 1.078492722331754e+001
 3.918765767738582e+000	 1.829999961107088e+000	 1.080644228010029e+001
 3.900171306709628e+000	 1.869301682008328e+000	 1.083570404029309e+001
 3.881149686220161e+000	 1.908481625057469e+000	 1.082024202778435e+001
 3.861701712105531e+000	 1.947533025840291e+000	 1.080534195876445e+001
 3.841828329527464e+000	 1.986449114990393e+000	 1.080054712909143e+001
 4.044579109630118e+000	 1.601211986618317e+000	 1.077848358489275e+001
 4.028464219104175e+000	 1.641333614938760e+000	 1.076724945166172e+001
 4.011917730245727e+000	 1.681373285696994e+000	 1.076322344918142e+001
 3.994939632186549e+000	 1.721324296954644e+000	 1.076657247575256e+001
 3.977530048159018e+000	 1.761179921552422e+000	 1.077743507043932e+001
 3.959689236737413e+000	 1.800933410356820e+000	 1.079592190750214e+001
 3.941417592987946e+000	 1.840577995561431e+000	 1.082211636520443e+001
 3.922715649525100e+000	 1.880106894040022e+000	 1.084824230703480e+001
 3.903584077471855e+000	 1.919513310748325e+000	 1.083018903693816e+001
 3.884023687321564e+000	 1.958790442171462e+000	 1.082157610921641e+001
 3.864035429699317e+000	 1.997931479813745e+000	 1.082285011955023e+001
 4.067823817158510e+000	 1.610414354355949e+000	 1.077012844329028e+001
 4.051616312319444e+000	 1.650766566746712e+000	 1.076132836138771e+001
 4.034974728697631e+000	 1.691036350554854e+000	 1.076012627098152e+001
 4.017899055362382e+000	 1.731216965325112e+000	 1.076661783083119e+001
 4.000389416254310e+000	 1.771301645236366e+000	 1.078086895604708e+001
 3.982446071433747e+000	 1.811283602366981e+000	 1.080291638827122e+001
 3.964069418237406e+000	 1.851156030015116e+000	 1.083276834353497e+001
 3.945259992340768e+000	 1.890912106071049e+000	 1.084675760611236e+001
 3.926018468723842e+000	 1.930544996438538e+000	 1.083397233151671e+001
 3.906345662537991e+000	 1.970047858502044e+000	 1.083047579424153e+001
 3.886242529871669e+000	 2.009413844636593e+000	 1.083665320989055e+001
 4.091068524686397e+000	 1.619616722093591e+000	 1.076293589476210e+001
 4.074768405534308e+000	 1.660199518554488e+000	 1.075555776699307e+001
 4.058031727149230e+000	 1.700699415412381e+000	 1.075616965392865e+001
 4.040858478538012e+000	 1.741109633695123e+000	 1.076479614366787e+001
 4.023248784349496e+000	 1.781423368919754e+000	 1.078143069234360e+001
 4.005202906130077e+000	 1.821633794376520e+000	 1.080603627011782e+001
 3.986721243486961e+000	 1.861734064468140e+000	 1.083854608816886e+001
 3.967804335156631e+000	 1.901717318101411e+000	 1.084032203229377e+001
 3.948452859976127e+000	 1.941576682128110e+000	 1.083164832692879e+001
 3.928667637754816e+000	 1.981305274832037e+000	 1.083211658130556e+001
 3.908449630044514e+000	 2.020896209458937e+000	 1.084205113545464e+001
 4.114313232213778e+000	 1.628819089831244e+000	 1.075692210550819e+001
 4.097920498748768e+000	 1.669632470362090e+000	 1.074997540873099e+001
 4.081088725600525e+000	 1.710362480269579e+000	 1.075141298664398e+001
 4.063817901713436e+000	 1.751002302064675e+000	 1.076118851446430e+001
 4.046108152444578e+000	 1.791545092602588e+000	 1.077922314305773e+001
 4.027959740826403e+000	 1.831983986385438e+000	 1.080540622082388e+001
 4.009373068736611e+000	 1.872312098920506e+000	 1.083959609990143e+001
 3.990348677972690e+000	 1.912522530131107e+000	 1.082897106584535e+001
 3.970887251228708e+000	 1.952608367817038e+000	 1.082327119506574e+001
 3.950989612972036e+000	 1.992562691161443e+000	 1.082657135909324e+001
 3.930656730217855e+000	 2.032378574280777e+000	 1.083913551804652e+001
 4.137557939740653e+000	 1.638021457568906e+000	 1.075210443988945e+001
 4.121072591962822e+000	 1.679065422169517e+000	 1.074461980501243e+001
 4.104145724051513e+000	 1.720025545126444e+000	 1.074591601486298e+001
 4.086777324888655e+000	 1.760894970433769e+000	 1.075587597863758e+001
 4.068967520539554e+000	 1.801666816284866e+000	 1.077434868456621e+001
 4.050716575522725e+000	 1.842334178393734e+000	 1.080114999777225e+001
 4.032024893986358e+000	 1.882890133372213e+000	 1.082522230247748e+001
 4.012893020788947e+000	 1.923327742160137e+000	 1.081273842986816e+001
 3.993321642481584e+000	 1.963640053505324e+000	 1.080889292732162e+001
 3.973311588189652e+000	 2.003820107490259e+000	 1.081391041275488e+001
 3.952863830391693e+000	 2.043860939102113e+000	 1.082799495339088e+001
 4.160802647267024e+000	 1.647223825306579e+000	 1.074850142695953e+001
 4.144224685176470e+000	 1.688498373976768e+000	 1.073953023066981e+001
 4.127202722502195e+000	 1.729688609982978e+000	 1.073973883146018e+001
 4.109736748063670e+000	 1.770787638802406e+000	 1.074893950862979e+001
 4.091826888634428e+000	 1.811788539966590e+000	 1.076690921950687e+001
 4.073473410219042e+000	 1.852684370401407e+000	 1.079339047337692e+001
 4.054676719236199e+000	 1.893468167823261e+000	 1.080331374020390e+001
 4.035437363605398e+000	 1.934132954188501e+000	 1.079165613938082e+001
 4.015756033734755e+000	 1.974671739192967e+000	 1.078856339550096e+001
 3.995633563407664e+000	 2.015077523818487e+000	 1.079420149663082e+001
 3.975070930566027e+000	 2.055343303922946e+000	 1.080871509566050e+001
 4.184047354792891e+000	 1.656426193044263e+000	 1.074613272811211e+001
 4.167376778389714e+000	 1.697931325783844e+000	 1.073474669594539e+001
 4.150259720952576e+000	 1.739351674839182e+000	 1.073294186680641e+001
 4.132696171238480e+000	 1.780680307170585e+000	 1.074046001565729e+001
 4.114686256729197e+000	 1.821910263647759e+000	 1.075700618993801e+001
 4.096230244915354e+000	 1.863034562408459e+000	 1.078224965966546e+001
 4.077328544486139e+000	 1.904046202273650e+000	 1.077767448724515e+001
 4.057981706422046e+000	 1.944938166216198e+000	 1.076575454876623e+001
 4.038190424988224e+000	 1.985703424879969e+000	 1.076233041069623e+001
 4.017955538626072e+000	 2.026334940146126e+000	 1.076750990455172e+001
 3.997278030740859e+000	 2.066825668743275e+000	 1.078137873918602e+001
 3.775207029014879e+000	 1.952002020517314e+000	 1.068164277744075e+001
 3.755261306457614e+000	 1.990103645605905e+000	 1.065640611139331e+001
 3.734899823209242e+000	 2.028059000775460e+000	 1.067556043872698e+001
 3.714123922224505e+000	 2.065861440270376e+000	 1.070415684931644e+001
 3.692935085323902e+000	 2.103504327454526e+000	 1.072545794048775e+001
 3.671334933419178e+000	 2.140981038377075e+000	 1.073955703379311e+001
 3.649325226630563e+000	 2.178284965358760e+000	 1.074659189496460e+001
 3.626907864294587e+000	 2.215409520594833e+000	 1.074674561077849e+001
 3.604084884861436e+000	 2.252348139770831e+000	 1.074024735088289e+001
 3.580858465680938e+000	 2.289094285687272e+000	 1.072737301031120e+001
 3.557230922676468e+000	 2.325641451889307e+000	 1.070844572872224e+001
 3.797414129185245e+000	 1.963484385342178e+000	 1.073004639252358e+001
 3.777351078847552e+000	 2.001810137636888e+000	 1.069913968257362e+001
 3.756869822167703e+000	 2.039988759601311e+000	 1.066804870137886e+001
 3.735971710000170e+000	 2.078013566387165e+000	 1.067819422788890e+001
 3.714658232882046e+000	 2.115877882319285e+000	 1.070313647799782e+001
 3.692931021259852e+000	 2.153575044482422e+000	 1.072136315058182e+001
 3.670791845607464e+000	 2.191098406328612e+000	 1.073306595956197e+001
 3.648242616433983e+000	 2.228441341301310e+000	 1.073848275818250e+001
 3.625285384180478e+000	 2.265597246472443e+000	 1.073789826056554e+001
 3.601922339004716e+000	 2.302559546188415e+000	 1.073164464131032e+001
 3.578155810453152e+000	 2.339321695721108e+000	 1.072010200919237e+001
 3.819621229356107e+000	 1.974966750166537e+000	 1.076964629912387e+001
 3.799440851238083e+000	 2.013516629667467e+000	 1.073409915632713e+001
 3.778839821126840e+000	 2.051918518426859e+000	 1.069916418109196e+001
 3.757819497776587e+000	 2.090165692503750e+000	 1.066467805366153e+001
 3.736381380441008e+000	 2.128251437183941e+000	 1.067024400392297e+001
 3.714527109101399e+000	 2.166169050587767e+000	 1.069382565721654e+001
 3.692258464585284e+000	 2.203911847298560e+000	 1.071140044118286e+001
 3.669577368574334e+000	 2.241473162007985e+000	 1.072326028910839e+001
 3.646485883500498e+000	 2.278846353174354e+000	 1.072974479860720e+001
 3.622986212329488e+000	 2.316024806689955e+000	 1.073124178922300e+001
 3.599080698230837e+000	 2.353001939553409e+000	 1.072818773146330e+001
 3.841828329527464e+000	 1.986449114990393e+000	 1.080054712909143e+001
 3.821530623629203e+000	 2.025223121697641e+000	 1.076137071044686e+001
 3.800809820086653e+000	 2.063848277252102e+000	 1.072359946719319e+001
 3.779667285553756e+000	 2.102317818620132e+000	 1.068712515570361e+001
 3.758104528000788e+000	 2.140624992048494e+000	 1.065182520513573e+001
 3.736123196943818e+000	 2.178763056693108e+000	 1.065730635098382e+001
 3.713725083564023e+000	 2.216725288268604e+000	 1.068194192883113e+001
 3.690912120715638e+000	 2.254504982714857e+000	 1.070140957997896e+001
 3.667686382821499e+000	 2.292095459876561e+000	 1.071610313162599e+001
 3.644050085655257e+000	 2.329490067191892e+000	 1.072646542083668e+001
 3.620005586009521e+000	 2.366682183386207e+000	 1.073298867978142e+001
 3.864035429699317e+000	 1.997931479813745e+000	 1.082285011955023e+001
 3.843620396020914e+000	 2.036929613727413e+000	 1.078103755149536e+001
 3.822779819047143e+000	 2.075778036077042e+000	 1.074141989970856e+001
 3.801515073331677e+000	 2.114469944736309e+000	 1.070394345729816e+001
 3.779827675561385e+000	 2.152998546912943e+000	 1.066853958739458e+001
 3.757719284787112e+000	 2.191357062798446e+000	 1.063512477497364e+001
 3.735191702543681e+000	 2.229538729238746e+000	 1.064503610908764e+001
 3.712246872857897e+000	 2.267536803421926e+000	 1.067326150736497e+001
 3.688886882143479e+000	 2.305344566579065e+000	 1.069728932474803e+001
 3.665113958982019e+000	 2.342955327694226e+000	 1.071761679539247e+001
 3.640930473789205e+000	 2.380362427219501e+000	 1.073479132017655e+001
 3.886242529871669e+000	 2.009413844636593e+000	 1.083665320989055e+001
 3.865710168413219e+000	 2.048636105756780e+000	 1.079317999969716e+001
 3.844749818008309e+000	 2.087707794901678e+000	 1.075268834084038e+001
 3.823362861110349e+000	 2.126622070852284e+000	 1.071517853227524e+001
 3.801550823122800e+000	 2.165372101777289e+000	 1.068063533537821e+001
 3.779315372631277e+000	 2.203951068903780e+000	 1.064902796528081e+001
 3.756658321524258e+000	 2.242352170208985e+000	 1.062031012182827e+001
 3.733581625001110e+000	 2.280568624129191e+000	 1.063914646226669e+001
 3.710087381466440e+000	 2.318593673281867e+000	 1.067361934450720e+001
 3.686177832309777e+000	 2.356420588196958e+000	 1.070499745622937e+001
 3.661855361569890e+000	 2.394042671053293e+000	 1.073388278098249e+001
 3.908449630044514e+000	 2.020896209458937e+000	 1.084205113545464e+001
 3.887799940806113e+000	 2.060342597785744e+000	 1.079787557093687e+001
 3.866719816970153e+000	 2.099637553726011e+000	 1.075746524535996e+001
 3.845210648889776e+000	 2.138774196968054e+000	 1.072087394094569e+001
 3.823273970685031e+000	 2.177745656641532e+000	 1.068813928983057e+001
 3.800911460476317e+000	 2.216545075009111e+000	 1.065928270535822e+001
 3.778124940505752e+000	 2.255165611179321e+000	 1.063430935358689e+001
 3.754916377145277e+000	 2.293600444836655e+000	 1.061320816553011e+001
 3.731287880790379e+000	 2.331842779984966e+000	 1.064540906164612e+001
 3.707241705638529e+000	 2.369885848700087e+000	 1.068890922271333e+001
 3.682780249351574e+000	 2.407722914887582e+000	 1.073055083402147e+001
 3.930656730217855e+000	 2.032378574280777e+000	 1.083913551804652e+001
 3.909889713199599e+000	 2.072049089814303e+000	 1.079519905597789e+001
 3.888689815932672e+000	 2.111567312550039e+000	 1.075580872861417e+001
 3.867058436669952e+000	 2.150926323083621e+000	 1.072107128698027e+001
 3.844997118248081e+000	 2.190119211505671e+000	 1.069107671453570e+001
 3.822507548322229e+000	 2.229139081114439e+000	 1.066589809886691e+001
 3.799591559488166e+000	 2.267979052149753e+000	 1.064559154419885e+001
 3.776251129290399e+000	 2.306632265544315e+000	 1.063019612534987e+001
 3.752488380115298e+000	 2.345091886688362e+000	 1.061973388363421e+001
 3.728305578968275e+000	 2.383351109203613e+000	 1.066965418243983e+001
 3.703705137134258e+000	 2.421403158722369e+000	 1.072508387642662e+001
 3.952863830391693e+000	 2.043860939102113e+000	 1.082799495339088e+001
 3.931979485593676e+000	 2.083755581842459e+000	 1.078522259701074e+001
 3.910659814895868e+000	 2.123497071373763e+000	 1.074777463223958e+001
 3.888906224450881e+000	 2.163078449198984e+000	 1.071581027237138e+001
 3.866720265811948e+000	 2.202492766369706e+000	 1.068947134061444e+001
 3.844103636169014e+000	 2.241733087219764e+000	 1.066888208261724e+001
 3.821058178471498e+000	 2.280792493120282e+000	 1.065414902043237e+001
 3.797585881436475e+000	 2.319664086252172e+000	 1.064536084864739e+001
 3.773688879441198e+000	 2.358340993392056e+000	 1.064258837329157e+001
 3.749369452299018e+000	 2.396816369707536e+000	 1.064753468369936e+001
 3.724630024917941e+000	 2.435083402557653e+000	 1.071777091307695e+001
 3.975070930566027e+000	 2.055343303922946e+000	 1.080871509566050e+001
 3.954069257988343e+000	 2.095462073870210e+000	 1.076801576163553e+001
 3.932629813859740e+000	 2.135426830197184e+000	 1.073341658767388e+001
 3.910754012232562e+000	 2.175230575314143e+000	 1.070512875055263e+001
 3.888443413376632e+000	 2.214866321233638e+000	 1.068334540933617e+001
 3.865699724016673e+000	 2.254327093325085e+000	 1.066824145916249e+001
 3.842524797455749e+000	 2.293605934090909e+000	 1.065997332710022e+001
 3.818920633583504e+000	 2.332695906960226e+000	 1.065867881091043e+001
 3.794889378768076e+000	 2.371590100096046e+000	 1.066447696142567e+001
 3.770433325630755e+000	 2.410281630211857e+000	 1.067746800913339e+001
 3.745554912702627e+000	 2.448763646393434e+000	 1.070890153962129e+001
 3.997278030740859e+000	 2.066825668743275e+000	 1.078137873918602e+001
 3.976159030383603e+000	 2.107168565897559e+000	 1.074364561437836e+001
 3.954599812824289e+000	 2.147356589020302e+000	 1.071278607755040e+001
 3.932601800014995e+000	 2.187382701429100e+000	 1.068906277774766e+001
 3.910166560942136e+000	 2.227239876097467e+000	 1.067271971350367e+001
 3.887295811865205e+000	 2.266921099430403e+000	 1.066398192830602e+001
 3.863991416440920e+000	 2.306419375061632e+000	 1.066305524878075e+001
 3.840255385731489e+000	 2.345727727668478e+000	 1.067012606653296e+001
 3.816089878095935e+000	 2.384839206800335e+000	 1.068536116445933e+001
 3.791497198963488e+000	 2.423746890716576e+000	 1.070890758822207e+001
 3.766479800488311e+000	 2.462443890229713e+000	 1.074089256344274e+001
 3.557230922676468e+000	 2.325641451889307e+000	 1.070844572872224e+001
 3.533204709905683e+000	 2.361983166298250e+000	 1.076708698268285e+001
 3.508782419009181e+000	 2.398112994838169e+000	 1.083784471432839e+001
 3.483966778545826e+000	 2.434024545055289e+000	 1.092152116819798e+001
 3.458760653213694e+000	 2.469711469727998e+000	 1.101895148675050e+001
 3.433167042958189e+000	 2.505167470460532e+000	 1.109671847510137e+001
 3.407189081967098e+000	 2.540386301257156e+000	 1.098724419659796e+001
 3.380830037553034e+000	 2.575361772072695e+000	 1.088972861438331e+001
 3.354093308923843e+000	 2.610087752335312e+000	 1.080486561289685e+001
 3.326982425841761e+000	 2.644558174437430e+000	 1.073335853821546e+001
 3.299501047172259e+000	 2.678767037190700e+000	 1.067591892009514e+001
 3.578155810453152e+000	 2.339321695721108e+000	 1.072010200919237e+001
 3.553988267019065e+000	 2.375877184920824e+000	 1.079125201546554e+001
 3.529422315587982e+000	 2.412219541864152e+000	 1.087339096821354e+001
 3.504460700769116e+000	 2.448342336494647e+000	 1.096731212452817e+001
 3.479106304111708e+000	 2.484239184254102e+000	 1.107384363504147e+001
 3.453362143207897e+000	 2.519903749697368e+000	 1.106476494473748e+001
 3.427231370681873e+000	 2.555329750087556e+000	 1.096492116669215e+001
 3.400717273065733e+000	 2.590510958967459e+000	 1.087598610265912e+001
 3.373823269562664e+000	 2.625441209703058e+000	 1.079865454006644e+001
 3.346552910698207e+000	 2.660114398994963e+000	 1.073363206916276e+001
 3.318909876860575e+000	 2.694524490353718e+000	 1.068163379777268e+001
 3.599080698230837e+000	 2.353001939553409e+000	 1.072818773146330e+001
 3.574771824133441e+000	 2.389771203543980e+000	 1.081174366705543e+001
 3.550062212167763e+000	 2.426326088890771e+000	 1.090515588983881e+001
 3.524954622993362e+000	 2.462660127934669e+000	 1.100920876468499e+001
 3.499451955010642e+000	 2.498766898780868e+000	 1.112472356425711e+001
 3.473557243458482e+000	 2.534640028934829e+000	 1.103290222754217e+001
 3.447273659397470e+000	 2.570273198918516e+000	 1.094253388154348e+001
 3.420604508579188e+000	 2.605660145862692e+000	 1.086202818793396e+001
 3.393553230202165e+000	 2.640794667071146e+000	 1.079208110757118e+001
 3.366123395555250e+000	 2.675670623552684e+000	 1.073340074924823e+001
 3.338318706549391e+000	 2.710281943516740e+000	 1.068670607678595e+001
 3.620005586009521e+000	 2.366682183386207e+000	 1.073298867978142e+001
 3.595555381248813e+000	 2.403665222167719e+000	 1.082885302985709e+001
 3.570702108748524e+000	 2.440432635918028e+000	 1.093343553111969e+001
 3.545448545218561e+000	 2.476977919375354e+000	 1.104751174840281e+001
 3.519797605910497e+000	 2.513294613308291e+000	 1.109039816376067e+001
 3.493752343709943e+000	 2.549376308172915e+000	 1.100121476662534e+001
 3.467315948113888e+000	 2.585216647750037e+000	 1.092016897622950e+001
 3.440491744093401e+000	 2.620809332758390e+000	 1.084794345641102e+001
 3.413283190842348e+000	 2.656148124439577e+000	 1.078523561155052e+001
 3.385693880412889e+000	 2.691226848110592e+000	 1.073275634319795e+001
 3.357727536238708e+000	 2.726039396679764e+000	 1.069122874912477e+001
 3.640930473789205e+000	 2.380362427219501e+000	 1.073479132017655e+001
 3.616338938365180e+000	 2.417559240792040e+000	 1.084287179209030e+001
 3.591342005330266e+000	 2.454539182945925e+000	 1.095852645756167e+001
 3.565942467444719e+000	 2.491295710816703e+000	 1.108252217057392e+001
 3.540143256811271e+000	 2.527822327836374e+000	 1.104875959509648e+001
 3.513947443962280e+000	 2.564112587411626e+000	 1.096978729495978e+001
 3.487358236831126e+000	 2.600160096582118e+000	 1.089791330891696e+001
 3.460378979608368e+000	 2.635958519654555e+000	 1.083382065458044e+001
 3.433013151483213e+000	 2.671501581808350e+000	 1.077820844963870e+001
 3.405264365271124e+000	 2.706783072668689e+000	 1.073179066248688e+001
 3.377136365928527e+000	 2.741796849842790e+000	 1.069529480286211e+001
 3.661855361569890e+000	 2.394042671053293e+000	 1.073388278098249e+001
 3.637122495482541e+000	 2.431453259416944e+000	 1.085409222076674e+001
 3.611981901912987e+000	 2.468645729974458e+000	 1.098072573358616e+001
 3.586436389671830e+000	 2.505613502258716e+000	 1.108192749165341e+001
 3.560488907712968e+000	 2.542350042365117e+000	 1.100761766642097e+001
 3.534142544215492e+000	 2.578848866650963e+000	 1.093870482709933e+001
 3.507400525549186e+000	 2.615103545414763e+000	 1.087585395448780e+001
 3.480266215124092e+000	 2.651107706551187e+000	 1.081974868463961e+001
 3.452743112124757e+000	 2.686855039177465e+000	 1.077109011806483e+001
 3.424834850129956e+000	 2.722339297226972e+000	 1.073059556400331e+001
 3.396545195618846e+000	 2.757554303005819e+000	 1.069899722226601e+001
 3.682780249351574e+000	 2.407722914887582e+000	 1.073055083402147e+001
 3.657906052600898e+000	 2.445347278042430e+000	 1.086280714524708e+001
 3.632621798496690e+000	 2.482752277003630e+000	 1.100033090835676e+001
 3.606930311899896e+000	 2.519931293701393e+000	 1.103042207416194e+001
 3.580834558615584e+000	 2.556877756894518e+000	 1.096705543971462e+001
 3.554337644469579e+000	 2.593585145890925e+000	 1.090805265117946e+001
 3.527442814268066e+000	 2.630046994247966e+000	 1.085407819838257e+001
 3.500153450640571e+000	 2.666256893448285e+000	 1.080581660006974e+001
 3.472473072766985e+000	 2.702208496546922e+000	 1.076397120885192e+001
 3.444405334989382e+000	 2.737895521785442e+000	 1.072926294875855e+001
 3.415954025309669e+000	 2.773311756168852e+000	 1.070242898790767e+001
 3.703705137134258e+000	 2.421403158722369e+000	 1.072508387642662e+001
 3.678689609720249e+000	 2.459241296668499e+000	 1.086930994135540e+001
 3.653261695081372e+000	 2.496858824033440e+000	 1.101764000208606e+001
 3.627424234128919e+000	 2.534249085144733e+000	 1.097972923288366e+001
 3.601180209519121e+000	 2.571405471424580e+000	 1.092715630765877e+001
 3.574532744724543e+000	 2.608321425131512e+000	 1.087791632118894e+001
 3.547485102987768e+000	 2.644990443081732e+000	 1.083267353065225e+001
 3.520040686157808e+000	 2.681406080345850e+000	 1.079211360136230e+001
 3.492203033409893e+000	 2.717561953916722e+000	 1.075694240711093e+001
 3.463975819849408e+000	 2.753451746344102e+000	 1.072788476064057e+001
 3.435362855000992e+000	 2.789069209331887e+000	 1.070568307676592e+001
 3.724630024917941e+000	 2.435083402557653e+000	 1.071777091307695e+001
 3.699473166840595e+000	 2.473135315295151e+000	 1.087389451602908e+001
 3.673901591667034e+000	 2.510965371063888e+000	 1.097352042436967e+001
 3.647918156358897e+000	 2.548566876588737e+000	 1.092993036240341e+001
 3.621525860423578e+000	 2.585933185955301e+000	 1.088800398434624e+001
 3.594727844980382e+000	 2.623057704372725e+000	 1.084838164950211e+001
 3.567527391708289e+000	 2.659933891916058e+000	 1.081172764021101e+001
 3.539927921675801e+000	 2.696555267243883e+000	 1.077872903188949e+001
 3.511932994053483e+000	 2.732915411286863e+000	 1.075009448842580e+001
 3.483546304710028e+000	 2.769007970902949e+000	 1.072655298520967e+001
 3.454771684692816e+000	 2.804826662494924e+000	 1.070885246232806e+001
 3.745554912702627e+000	 2.448763646393434e+000	 1.070890153962129e+001
 3.720256723961937e+000	 2.487029333922384e+000	 1.087685529248328e+001
 3.694541488253677e+000	 2.525071918094974e+000	 1.091316966568626e+001
 3.668412078589830e+000	 2.562884668033404e+000	 1.088110723437313e+001
 3.641871511328957e+000	 2.600460900486682e+000	 1.084968249630344e+001
 3.614922945237098e+000	 2.637793983614563e+000	 1.081953469966133e+001
 3.587569680429633e+000	 2.674877340750946e+000	 1.079132840928117e+001
 3.559815157194549e+000	 2.711704454142382e+000	 1.076575237391316e+001
 3.531662954697752e+000	 2.748268868657348e+000	 1.074351831632636e+001
 3.503116789571245e+000	 2.784564195461981e+000	 1.072535964853439e+001
 3.474180514385142e+000	 2.820584115657964e+000	 1.071203011468747e+001
 3.766479800488311e+000	 2.462443890229713e+000	 1.074089256344274e+001
 3.741040281084275e+000	 2.500923352550201e+000	 1.087370209047059e+001
 3.715181384841300e+000	 2.539178465126699e+000	 1.085402083151842e+001
 3.688906000821719e+000	 2.577202459478736e+000	 1.083334198703772e+001
 3.662217162235255e+000	 2.614988615018722e+000	 1.081227617381164e+001
 3.635118045494690e+000	 2.652530262857026e+000	 1.079146177940016e+001
 3.607611969151798e+000	 2.689820789586394e+000	 1.077156390802363e+001
 3.579702392714054e+000	 2.726853641041348e+000	 1.075327324472681e+001
 3.551392915342705e+000	 2.763622326028175e+000	 1.073730483984535e+001
 3.522687274433059e+000	 2.800120420021205e+000	 1.072439681606621e+001
 3.493589344077969e+000	 2.836341568821007e+000	 1.071530900063780e+001
 3.299501047172259e+000	 2.678767037190700e+000	 1.067591892009514e+001
 3.271652959324307e+000	 2.712708409240331e+000	 1.067323675364628e+001
 3.243442074581433e+000	 2.746376432436798e+000	 1.067464875983312e+001
 3.214872429326423e+000	 2.779765325159458e+000	 1.068053811416316e+001
 3.185948182162389e+000	 2.812869385587000e+000	 1.069130081069706e+001
 3.156673611930151e+000	 2.845682994912844e+000	 1.070734455956751e+001
 3.127053115624468e+000	 2.878200620501057e+000	 1.072908763961725e+001
 3.097091206211275e+000	 2.910416818979073e+000	 1.070620165061906e+001
 3.066792510348125e+000	 2.942326239263588e+000	 1.069362069688641e+001
 3.036161766010286e+000	 2.973923625516154e+000	 1.069422151131790e+001
 3.005203820025000e+000	 3.005203820025000e+000	 1.070680668878953e+001
 3.318909876860575e+000	 2.694524490353718e+000	 1.068163379777268e+001
 3.290897976731710e+000	 2.728665517534071e+000	 1.067774241359277e+001
 3.262521145608556e+000	 2.762531587926649e+000	 1.067763283276540e+001
 3.233783443617327e+000	 2.796116885901280e+000	 1.068171463643100e+001
 3.204689053823507e+000	 2.829415676096524e+000	 1.069041088788439e+001
 3.175242280237567e+000	 2.862422306653998e+000	 1.070415699042280e+001
 3.145447545718942e+000	 2.895131212392854e+000	 1.072339949889280e+001
 3.115309389780423e+000	 2.927536917920682e+000	 1.073198578329140e+001
 3.084832466295199e+000	 2.959634040677222e+000	 1.071683840616005e+001
 3.054021541108976e+000	 2.991417293907330e+000	 1.071500611370382e+001
 3.022881489559751e+000	 3.022881489559750e+000	 1.072528302687190e+001
 3.338318706549391e+000	 2.710281943516740e+000	 1.068670607678595e+001
 3.310142994139513e+000	 2.744622625827627e+000	 1.068182503918789e+001
 3.281600216635980e+000	 2.778686743416163e+000	 1.068041057284616e+001
 3.252694457908432e+000	 2.812468446642638e+000	 1.068289877395889e+001
 3.223429925484727e+000	 2.845961966605489e+000	 1.068973989140888e+001
 3.193810948544984e+000	 2.879161618394527e+000	 1.070139714466867e+001
 3.163841975813316e+000	 2.912061804283989e+000	 1.071834549396829e+001
 3.133527573349372e+000	 2.944657016861628e+000	 1.074107036586794e+001
 3.102872422241972e+000	 2.976941842090219e+000	 1.073744604196078e+001
 3.071881316207268e+000	 3.008910962297920e+000	 1.073356277644600e+001
 3.040559159093999e+000	 3.040559159093999e+000	 1.074191629981400e+001
 3.357727536238708e+000	 2.726039396679764e+000	 1.069122874912477e+001
 3.329388011547718e+000	 2.760579734121002e+000	 1.068557249954200e+001
 3.300679287663705e+000	 2.794841898905339e+000	 1.068306462729308e+001
 3.271605472199738e+000	 2.828820007383533e+000	 1.068416785670922e+001
 3.242170797146046e+000	 2.862508257113895e+000	 1.068935974236336e+001
 3.212379616852402e+000	 2.895900930134435e+000	 1.069913144675529e+001
 3.182236405907591e+000	 2.928992396174468e+000	 1.071398646880858e+001
 3.151745756918121e+000	 2.961777115801909e+000	 1.073443932640812e+001
 3.120912378188446e+000	 2.994249643502574e+000	 1.075541686513982e+001
 3.089741091305159e+000	 3.026404630687927e+000	 1.074986197661226e+001
 3.058236828627750e+000	 3.058236828627750e+000	 1.075667417560035e+001
 3.377136365928527e+000	 2.741796849842790e+000	 1.069529480286211e+001
 3.348633028956324e+000	 2.776536842414193e+000	 1.068907275373173e+001
 3.319758358691729e+000	 2.810997054394176e+000	 1.068567782805579e+001
 3.290516486491244e+000	 2.845171568123966e+000	 1.068559949498025e+001
 3.260911668807467e+000	 2.879054547621742e+000	 1.068934273857340e+001
 3.230948285159820e+000	 2.912640241873717e+000	 1.069742679501016e+001
 3.200630836001766e+000	 2.945922988064285e+000	 1.071038383910185e+001
 3.169963940486670e+000	 2.978897214741524e+000	 1.072875762348718e+001
 3.138952334134619e+000	 3.011557444914291e+000	 1.075310207397238e+001
 3.107600866402650e+000	 3.043898299077347e+000	 1.076387506027031e+001
 3.075914498161000e+000	 3.075914498161000e+000	 1.076952529139542e+001
 3.396545195618846e+000	 2.757554303005819e+000	 1.069899722226601e+001
 3.367878046365330e+000	 2.792493950707203e+000	 1.069241384822953e+001
 3.338837429720058e+000	 2.827152209882677e+000	 1.068833318653780e+001
 3.309427500782953e+000	 2.861523128863934e+000	 1.068727157139649e+001
 3.279652540468988e+000	 2.895600838129032e+000	 1.068976154383362e+001
 3.249516953467239e+000	 2.929379553612376e+000	 1.069635054809877e+001
 3.219025266095842e+000	 2.962853579953444e+000	 1.070759957592452e+001
 3.188182124055020e+000	 2.996017313680476e+000	 1.072408176205528e+001
 3.156992290080493e+000	 3.028865246325366e+000	 1.074638093462398e+001
 3.125460641499740e+000	 3.061391967466183e+000	 1.077509012411946e+001
 3.093592167693749e+000	 3.093592167693749e+000	 1.078043922585277e+001
 3.415954025309669e+000	 2.773311756168852e+000	 1.070242898790767e+001
 3.387123063774741e+000	 2.808451059000032e+000	 1.069568391442080e+001
 3.357916500748686e+000	 2.843307365370840e+000	 1.069111388849848e+001
 3.328338515074862e+000	 2.877874689603440e+000	 1.068926223317204e+001
 3.298393412130610e+000	 2.912147128635764e+000	 1.069068917751083e+001
 3.268085621774659e+000	 2.946118865350410e+000	 1.069597051194685e+001
 3.237419696189817e+000	 2.979784171841943e+000	 1.070569618996322e+001
 3.206400307623169e+000	 3.013137412618762e+000	 1.072046887964063e+001
 3.175032246026067e+000	 3.046173047735802e+000	 1.074090246873596e+001
 3.143320416596433e+000	 3.078885635854434e+000	 1.076762052713328e+001
 3.111269837226000e+000	 3.111269837226000e+000	 1.078938647236824e+001
 3.435362855000992e+000	 2.789069209331887e+000	 1.070568307676592e+001
 3.406368081184549e+000	 2.824408167292675e+000	 1.069897116620527e+001
 3.376995571777615e+000	 2.859462520858666e+000	 1.069410328912759e+001
 3.347249529366973e+000	 2.894226250342483e+000	 1.069164988463651e+001
 3.317134283792334e+000	 2.928693419141936e+000	 1.069219900449962e+001
 3.286654290082080e+000	 2.962858177087821e+000	 1.069635492710582e+001
 3.255814126283694e+000	 2.996714763729783e+000	 1.070473671627152e+001
 3.224618491191120e+000	 3.030257511556385e+000	 1.071797672848015e+001
 3.193072201971343e+000	 3.063480849145600e+000	 1.073671907232349e+001
 3.161180191692723e+000	 3.096379304242100e+000	 1.076161802408354e+001
 3.128947506757750e+000	 3.128947506757750e+000	 1.078433242527912e+001
 3.454771684692816e+000	 2.804826662494924e+000	 1.070885246232806e+001
 3.425613098594761e+000	 2.840365275585138e+000	 1.070236389767912e+001
 3.396074642806846e+000	 2.875617676346153e+000	 1.069738490828616e+001
 3.366160543659284e+000	 2.910577811081063e+000	 1.069451318001249e+001
 3.335875155454158e+000	 2.945239709647550e+000	 1.069436472551648e+001
 3.305222958389500e+000	 2.979597488824607e+000	 1.069757245654431e+001
 3.274208556377471e+000	 3.013645355616964e+000	 1.070478469954060e+001
 3.242836674758870e+000	 3.047377610493343e+000	 1.071666365825227e+001
 3.211112157916316e+000	 3.080788650554756e+000	 1.073388382718884e+001
 3.179039966788615e+000	 3.113872972629181e+000	 1.075713035997759e+001
 3.146625176289000e+000	 3.146625176289000e+000	 1.073991874702393e+001
 3.474180514385142e+000	 2.820584115657964e+000	 1.071203011468747e+001
 3.444858116005373e+000	 2.856322383877417e+000	 1.070595048089495e+001
 3.415153713836379e+000	 2.891772831833303e+000	 1.070104242590658e+001
 3.385071557951797e+000	 2.926929371819181e+000	 1.069793101643540e+001
 3.354616027116084e+000	 2.961786000152606e+000	 1.069726036771938e+001
 3.323791626696921e+000	 2.996336800560770e+000	 1.069969217384871e+001
 3.292602986471148e+000	 3.030575947503486e+000	 1.070590417986352e+001
 3.261054858326421e+000	 3.064497709429636e+000	 1.071658859938870e+001
 3.229152113860990e+000	 3.098096451963273e+000	 1.073245048176531e+001
 3.196899741884107e+000	 3.131366641015677e+000	 1.074209021072630e+001
 3.164302845819750e+000	 3.164302845819750e+000	 1.070065918321900e+001
 3.493589344077969e+000	 2.836341568821007e+000	 1.071530900063780e+001
 3.464103133416387e+000	 2.872279492169516e+000	 1.070981936369617e+001
 3.434232784866212e+000	 2.907927987320115e+000	 1.070515967754634e+001
 3.403982572244511e+000	 2.943280932556834e+000	 1.070198252720591e+001
 3.373356898778110e+000	 2.978332290657103e+000	 1.070096027563984e+001
 3.342360295004344e+000	 3.013076112296310e+000	 1.070278355181714e+001
 3.310997416564726e+000	 3.047506539389349e+000	 1.070815967897400e+001
 3.279273041893773e+000	 3.081617808365265e+000	 1.071781104694235e+001
 3.247192069805366e+000	 3.115404253371150e+000	 1.073247343259974e+001
 3.214759516979199e+000	 3.148860309401589e+000	 1.070971052716945e+001
 3.181980515350000e+000	 3.181980515350000e+000	 1.066649214011994e+001
 3.005203820025000e+000	 3.005203820025000e+000	 1.070680668878953e+001
 2.973923625516154e+000	 3.036161766010285e+000	 1.068624803416575e+001
 2.942326239263588e+000	 3.066792510348125e+000	 1.068063136624885e+001
 2.910416818979071e+000	 3.097091206211275e+000	 1.068919823956468e+001
 2.878200620501058e+000	 3.127053115624469e+000	 1.070403707651683e+001
 2.845682994912843e+000	 3.156673611930151e+000	 1.063193497364261e+001
 2.812869385587000e+000	 3.185948182162389e+000	 1.056659340316212e+001
 2.779765325159459e+000	 3.214872429326423e+000	 1.050811783861095e+001
 2.746376432436797e+000	 3.243442074581434e+000	 1.045662068723838e+001
 2.712708409240331e+000	 3.271652959324307e+000	 1.041222098636975e+001
 2.678767037190700e+000	 3.299501047172260e+000	 1.037504406555571e+001
 3.022881489559751e+000	 3.022881489559750e+000	 1.072528302687190e+001
 2.991417293907329e+000	 3.054021541108976e+000	 1.071095861247425e+001
 2.959634040677222e+000	 3.084832466295199e+000	 1.071193171387581e+001
 2.927536917920681e+000	 3.115309389780423e+000	 1.072740368718352e+001
 2.895131212392853e+000	 3.145447545718942e+000	 1.068676938053805e+001
 2.862422306653998e+000	 3.175242280237567e+000	 1.062099687730349e+001
 2.829415676096524e+000	 3.204689053823507e+000	 1.056198506116057e+001
 2.796116885901280e+000	 3.233783443617327e+000	 1.050982038380739e+001
 2.762531587926648e+000	 3.262521145608556e+000	 1.046459660103104e+001
 2.728665517534071e+000	 3.290897976731710e+000	 1.042641448448005e+001
 2.694524490353718e+000	 3.318909876860575e+000	 1.039538149818353e+001
 3.040559159093999e+000	 3.040559159093999e+000	 1.074191629981400e+001
 3.008910962297920e+000	 3.071881316207268e+000	 1.073362291784756e+001
 2.976941842090219e+000	 3.102872422241972e+000	 1.074098147772447e+001
 2.944657016861627e+000	 3.133527573349372e+000	 1.073576967059239e+001
 2.912061804283990e+000	 3.163841975813316e+000	 1.066931392980951e+001
 2.879161618394527e+000	 3.193810948544984e+000	 1.060955265464728e+001
 2.845961966605489e+000	 3.223429925484727e+000	 1.055654554863960e+001
 2.812468446642638e+000	 3.252694457908431e+000	 1.051036023472713e+001
 2.778686743416162e+000	 3.281600216635980e+000	 1.047107201946569e+001
 2.744622625827627e+000	 3.310142994139513e+000	 1.043876361996353e+001
 2.710281943516740e+000	 3.338318706549391e+000	 1.041352485450770e+001
 3.058236828627750e+000	 3.058236828627750e+000	 1.075667417560035e+001
 3.026404630687927e+000	 3.089741091305159e+000	 1.075421602158742e+001
 2.994249643502575e+000	 3.120912378188445e+000	 1.076776315819931e+001
 2.961777115801909e+000	 3.151745756918122e+000	 1.071254599966221e+001
 2.928992396174468e+000	 3.182236405907591e+000	 1.065178299633223e+001
 2.895900930134435e+000	 3.212379616852402e+000	 1.059772023132204e+001
 2.862508257113895e+000	 3.242170797146047e+000	 1.055039839724577e+001
 2.828820007383534e+000	 3.271605472199738e+000	 1.050986647888780e+001
 2.794841898905339e+000	 3.300679287663704e+000	 1.047618153339162e+001
 2.760579734121003e+000	 3.329388011547718e+000	 1.044940843211808e+001
 2.726039396679764e+000	 3.357727536238708e+000	 1.042961956511825e+001
 3.075914498161000e+000	 3.075914498161000e+000	 1.076952529139542e+001
 3.043898299077347e+000	 3.107600866402649e+000	 1.077271382946670e+001
 3.011557444914291e+000	 3.138952334134619e+000	 1.075171636078006e+001
 2.978897214741524e+000	 3.169963940486671e+000	 1.068965979853515e+001
 2.945922988064285e+000	 3.200630836001766e+000	 1.063428927812258e+001
 2.912640241873717e+000	 3.230948285159820e+000	 1.058561782161608e+001
 2.879054547621743e+000	 3.260911668807467e+000	 1.054366728938995e+001
 2.845171568123966e+000	 3.290516486491244e+000	 1.050846821626139e+001
 2.810997054394177e+000	 3.319758358691731e+000	 1.048005960743548e+001
 2.776536842414193e+000	 3.348633028956324e+000	 1.045848869504215e+001
 2.741796849842790e+000	 3.377136365928527e+000	 1.044381065619634e+001
 3.093592167693749e+000	 3.093592167693749e+000	 1.078043922585277e+001
 3.061391967466183e+000	 3.125460641499740e+000	 1.078787051988757e+001
 3.028865246325367e+000	 3.156992290080494e+000	 1.072418851830186e+001
 2.996017313680475e+000	 3.188182124055019e+000	 1.066721875002578e+001
 2.962853579953444e+000	 3.219025266095841e+000	 1.061694588704047e+001
 2.929379553612376e+000	 3.249516953467239e+000	 1.057336392021114e+001
 2.895600838129033e+000	 3.279652540468989e+000	 1.053647605393971e+001
 2.861523128863935e+000	 3.309427500782953e+000	 1.050629455891834e+001
 2.827152209882678e+000	 3.338837429720058e+000	 1.048284058360763e+001
 2.792493950707203e+000	 3.367878046365331e+000	 1.046614392521189e+001
 2.757554303005820e+000	 3.396545195618847e+000	 1.045624276106889e+001
 3.111269837226000e+000	 3.111269837226000e+000	 1.078938647236824e+001
 3.078885635854434e+000	 3.143320416596433e+000	 1.075639678689411e+001
 3.046173047735802e+000	 3.175032246026067e+000	 1.069749636386349e+001
 3.013137412618761e+000	 3.206400307623170e+000	 1.064533106815857e+001
 2.979784171841943e+000	 3.237419696189817e+000	 1.059986633703238e+001
 2.946118865350409e+000	 3.268085621774659e+000	 1.056107729421660e+001
 2.912147128635763e+000	 3.298393412130610e+000	 1.052894866205869e+001
 2.877874689603441e+000	 3.328338515074862e+000	 1.050347463068388e+001
 2.843307365370841e+000	 3.357916500748686e+000	 1.048465868478556e+001
 2.808451059000031e+000	 3.387123063774740e+000	 1.047251338879995e+001
 2.773311756168852e+000	 3.415954025309669e+000	 1.046706013136907e+001
 3.128947506757750e+000	 3.128947506757750e+000	 1.078433242527912e+001
 3.096379304242098e+000	 3.161180191692723e+000	 1.072613195408911e+001
 3.063480849145600e+000	 3.193072201971341e+000	 1.067174340832017e+001
 3.030257511556384e+000	 3.224618491191119e+000	 1.062410548316201e+001
 2.996714763729783e+000	 3.255814126283694e+000	 1.058316453277303e+001
 2.962858177087820e+000	 3.286654290082079e+000	 1.054887697547384e+001
 2.928693419141936e+000	 3.317134283792334e+000	 1.052120922318689e+001
 2.894226250342483e+000	 3.347249529366971e+000	 1.050013756680594e+001
 2.859462520858665e+000	 3.376995571777615e+000	 1.048564801807927e+001
 2.824408167292675e+000	 3.406368081184549e+000	 1.047773610874626e+001
 2.789069209331887e+000	 3.435362855000992e+000	 1.047640664781875e+001
 3.146625176289000e+000	 3.146625176289000e+000	 1.073991874702393e+001
 3.113872972629181e+000	 3.179039966788615e+000	 1.069717501429483e+001
 3.080788650554756e+000	 3.211112157916316e+000	 1.064703378561723e+001
 3.047377610493343e+000	 3.242836674758871e+000	 1.060365122696847e+001
 3.013645355616964e+000	 3.274208556377471e+000	 1.056695475868984e+001
 2.979597488824608e+000	 3.305222958389499e+000	 1.053688225311994e+001
 2.945239709647550e+000	 3.335875155454158e+000	 1.051338198115653e+001
 2.910577811081063e+000	 3.366160543659283e+000	 1.049641251363430e+001
 2.875617676346153e+000	 3.396074642806847e+000	 1.048594257808307e+001
 2.840365275585138e+000	 3.425613098594761e+000	 1.048195087159032e+001
 2.804826662494924e+000	 3.454771684692816e+000	 1.048442583064727e+001
 3.164302845819750e+000	 3.164302845819750e+000	 1.070065918321900e+001
 3.131366641015677e+000	 3.196899741884106e+000	 1.066642166664515e+001
 3.098096451963273e+000	 3.229152113860990e+000	 1.062347223538538e+001
 3.064497709429635e+000	 3.261054858326420e+000	 1.058407801920011e+001
 3.030575947503486e+000	 3.292602986471148e+000	 1.055135166835530e+001
 2.996336800560770e+000	 3.323791626696921e+000	 1.052521266640060e+001
 2.961786000152606e+000	 3.354616027116084e+000	 1.050559131043804e+001
 2.926929371819180e+000	 3.385071557951795e+000	 1.049242862831050e+001
 2.891772831833303e+000	 3.415153713836379e+000	 1.048567625001860e+001
 2.856322383877417e+000	 3.444858116005373e+000	 1.048529623407463e+001
 2.820584115657964e+000	 3.474180514385142e+000	 1.049126084966109e+001
 3.181980515350000e+000	 3.181980515350000e+000	 1.066649214011994e+001
 3.148860309401589e+000	 3.214759516979199e+000	 1.063378313582128e+001
 3.115404253371151e+000	 3.247192069805366e+000	 1.060116408611607e+001
 3.081617808365265e+000	 3.279273041893773e+000	 1.056549605362196e+001
 3.047506539389349e+000	 3.310997416564727e+000	 1.053647027423297e+001
 3.013076112296310e+000	 3.342360295004343e+000	 1.051398799772275e+001
 2.978332290657103e+000	 3.373356898778110e+000	 1.049796171251127e+001
 2.943280932556834e+000	 3.403982572244511e+000	 1.048831507846803e+001
 2.907927987320115e+000	 3.434232784866213e+000	 1.048498281277284e+001
 2.872279492169515e+000	 3.464103133416387e+000	 1.048791052952790e+001
 2.836341568821007e+000	 3.493589344077969e+000	 1.049705453397779e+001
 2.678767037190700e+000	 3.299501047172260e+000	 1.037504406555571e+001
 2.644558174437429e+000	 3.326982425841761e+000	 1.038936851234378e+001
 2.610087752335312e+000	 3.354093308923843e+000	 1.039624751454230e+001
 2.575361772072694e+000	 3.380830037553033e+000	 1.039548501336430e+001
 2.540386301257157e+000	 3.407189081967098e+000	 1.038690462010241e+001
 2.505167470460533e+000	 3.433167042958189e+000	 1.037034940429072e+001
 2.469711469727998e+000	 3.458760653213694e+000	 1.036309734584465e+001
 2.434024545055289e+000	 3.483966778545826e+000	 1.034762938768155e+001
 2.398112994838169e+000	 3.508782419009181e+000	 1.032013908061096e+001
 2.361983166298250e+000	 3.533204709905684e+000	 1.028001968079390e+001
 2.325641451889307e+000	 3.557230922676468e+000	 1.022667508444102e+001
 2.694524490353718e+000	 3.318909876860575e+000	 1.039538149818353e+001
 2.660114398994962e+000	 3.346552910698207e+000	 1.040890941965313e+001
 2.625441209703059e+000	 3.373823269562664e+000	 1.041464529803564e+001
 2.590510958967459e+000	 3.400717273065733e+000	 1.041239481549122e+001
 2.555329750087555e+000	 3.427231370681872e+000	 1.040198397519859e+001
 2.519903749697367e+000	 3.453362143207897e+000	 1.038325887838927e+001
 2.484239184254103e+000	 3.479106304111708e+000	 1.036554637232321e+001
 2.448342336494647e+000	 3.504460700769116e+000	 1.034897608997997e+001
 2.412219541864151e+000	 3.529422315587982e+000	 1.032014610565666e+001
 2.375877184920824e+000	 3.553988267019066e+000	 1.027843867983619e+001
 2.339321695721108e+000	 3.578155810453152e+000	 1.022324692706617e+001
 2.710281943516740e+000	 3.338318706549391e+000	 1.041352485450770e+001
 2.675670623552684e+000	 3.366123395555250e+000	 1.042624119230876e+001
 2.640794667071147e+000	 3.393553230202165e+000	 1.043081618261870e+001
 2.605660145862692e+000	 3.420604508579189e+000	 1.042705732324104e+001
 2.570273198918516e+000	 3.447273659397471e+000	 1.041479309027627e+001
 2.534640028934828e+000	 3.473557243458482e+000	 1.039387270384646e+001
 2.498766898780867e+000	 3.499451955010643e+000	 1.036494247500846e+001
 2.462660127934669e+000	 3.524954622993361e+000	 1.034738432298687e+001
 2.426326088890771e+000	 3.550062212167763e+000	 1.031733293910592e+001
 2.389771203543980e+000	 3.574771824133441e+000	 1.027415939455996e+001
 2.353001939553409e+000	 3.599080698230837e+000	 1.021724582600724e+001
 2.726039396679764e+000	 3.357727536238708e+000	 1.042961956511825e+001
 2.691226848110592e+000	 3.385693880412889e+000	 1.044150869213616e+001
 2.656148124439577e+000	 3.413283190842348e+000	 1.044490435345818e+001
 2.620809332758390e+000	 3.440491744093401e+000	 1.043961593810836e+001
 2.585216647750037e+000	 3.467315948113888e+000	 1.042547447711971e+001
 2.549376308172915e+000	 3.493752343709943e+000	 1.040233239776584e+001
 2.513294613308291e+000	 3.519797605910497e+000	 1.037006322665387e+001
 2.476977919375355e+000	 3.545448545218562e+000	 1.034281022655756e+001
 2.440432635918028e+000	 3.570702108748525e+000	 1.031165668778610e+001
 2.403665222167719e+000	 3.595555381248814e+000	 1.026713987821687e+001
 2.366682183386207e+000	 3.620005586009521e+000	 1.020863075925706e+001
 2.741796849842790e+000	 3.377136365928527e+000	 1.044381065619634e+001
 2.706783072668689e+000	 3.405264365271124e+000	 1.045485637282537e+001
 2.671501581808350e+000	 3.433013151483212e+000	 1.045705358482730e+001
 2.635958519654555e+000	 3.460378979608368e+000	 1.045021364890430e+001
 2.600160096582119e+000	 3.487358236831126e+000	 1.043417023400679e+001
 2.564112587411626e+000	 3.513947443962280e+000	 1.040877906388693e+001
 2.527822327836374e+000	 3.540143256811272e+000	 1.037391760724831e+001
 2.491295710816703e+000	 3.565942467444719e+000	 1.033520953035421e+001
 2.454539182945924e+000	 3.591342005330265e+000	 1.030307405135345e+001
 2.417559240792040e+000	 3.616338938365180e+000	 1.025733778086199e+001
 2.380362427219501e+000	 3.640930473789204e+000	 1.019736030653430e+001
 2.757554303005820e+000	 3.396545195618847e+000	 1.045624276106889e+001
 2.722339297226972e+000	 3.424834850129955e+000	 1.046642829159201e+001
 2.686855039177465e+000	 3.452743112124757e+000	 1.046740725184567e+001
 2.651107706551186e+000	 3.480266215124091e+000	 1.045899304354756e+001
 2.615103545414763e+000	 3.507400525549186e+000	 1.044102205752350e+001
 2.578848866650963e+000	 3.534142544215492e+000	 1.041335340439567e+001
 2.542350042365117e+000	 3.560488907712968e+000	 1.037586859158940e+001
 2.505613502258716e+000	 3.586436389671829e+000	 1.032847114831272e+001
 2.468645729974459e+000	 3.611981901912988e+000	 1.029154133392651e+001
 2.431453259416943e+000	 3.637122495482540e+000	 1.024471036087369e+001
 2.394042671053293e+000	 3.661855361569890e+000	 1.018339266066255e+001
 2.773311756168852e+000	 3.415954025309669e+000	 1.046706013136907e+001
 2.737895521785443e+000	 3.444405334989383e+000	 1.047636812044075e+001
 2.702208496546922e+000	 3.472473072766984e+000	 1.047610834181876e+001
 2.666256893448285e+000	 3.500153450640572e+000	 1.046609632045332e+001
 2.630046994247966e+000	 3.527442814268066e+000	 1.044617125397559e+001
 2.593585145890925e+000	 3.554337644469579e+000	 1.041619573133213e+001
 2.556877756894519e+000	 3.580834558615584e+000	 1.037605539644708e+001
 2.519931293701393e+000	 3.606930311899896e+000	 1.032565855861031e+001
 2.482752277003631e+000	 3.632621798496690e+000	 1.027701445532300e+001
 2.445347278042431e+000	 3.657906052600898e+000	 1.022921449608083e+001
 2.407722914887582e+000	 3.682780249351574e+000	 1.016668563856183e+001
 2.789069209331887e+000	 3.435362855000992e+000	 1.047640664781875e+001
 2.753451746344101e+000	 3.463975819849408e+000	 1.048481915704701e+001
 2.717561953916722e+000	 3.492203033409893e+000	 1.048329946519324e+001
 2.681406080345851e+000	 3.520040686157808e+000	 1.047166529953624e+001
 2.644990443081732e+000	 3.547485102987768e+000	 1.044975875041351e+001
 2.608321425131512e+000	 3.574532744724543e+000	 1.041744597761163e+001
 2.571405471424580e+000	 3.601180209519120e+000	 1.037461686048033e+001
 2.534249085144733e+000	 3.627424234128919e+000	 1.032118459351327e+001
 2.496858824033439e+000	 3.653261695081372e+000	 1.025944896191576e+001
 2.459241296668499e+000	 3.678689609720248e+000	 1.021080669451275e+001
 2.421403158722368e+000	 3.703705137134258e+000	 1.014719669186723e+001
 2.804826662494924e+000	 3.454771684692816e+000	 1.048442583064727e+001
 2.769007970902948e+000	 3.483546304710028e+000	 1.049192433527177e+001
 2.732915411286864e+000	 3.511932994053482e+000	 1.048912286614281e+001
 2.696555267243883e+000	 3.539927921675801e+000	 1.047584143284243e+001
 2.659933891916058e+000	 3.567527391708290e+000	 1.045192510528559e+001
 2.623057704372724e+000	 3.594727844980382e+000	 1.041724370767430e+001
 2.585933185955301e+000	 3.621525860423578e+000	 1.037169145485830e+001
 2.548566876588737e+000	 3.647918156358897e+000	 1.031518653289051e+001
 2.510965371063888e+000	 3.673901591667035e+000	 1.024767062571848e+001
 2.473135315295151e+000	 3.699473166840596e+000	 1.018944310478689e+001
 2.435083402557653e+000	 3.724630024917941e+000	 1.012488291718978e+001
 2.820584115657964e+000	 3.474180514385142e+000	 1.049126084966109e+001
 2.784564195461982e+000	 3.503116789571245e+000	 1.049782623532405e+001
 2.748268868657348e+000	 3.531662954697752e+000	 1.049372043279934e+001
 2.711704454142381e+000	 3.559815157194549e+000	 1.047876581482519e+001
 2.674877340750945e+000	 3.587569680429633e+000	 1.045281051873424e+001
 2.637793983614562e+000	 3.614922945237098e+000	 1.041572812777768e+001
 2.600460900486682e+000	 3.641871511328956e+000	 1.036741729352537e+001
 2.562884668033405e+000	 3.668412078589829e+000	 1.030780130117591e+001
 2.525071918094973e+000	 3.694541488253677e+000	 1.023682757976699e+001
 2.487029333922384e+000	 3.720256723961937e+000	 1.016507952614820e+001
 2.448763646393434e+000	 3.745554912702627e+000	 1.009970106603324e+001
 2.836341568821007e+000	 3.493589344077969e+000	 1.049705453397779e+001
 2.800120420021204e+000	 3.522687274433059e+000	 1.050266709358454e+001
 2.763622326028175e+000	 3.551392915342705e+000	 1.049723370714287e+001
 2.726853641041347e+000	 3.579702392714053e+000	 1.048057919227803e+001
 2.689820789586394e+000	 3.607611969151798e+000	 1.045255484254884e+001
 2.652530262857026e+000	 3.635118045494689e+000	 1.041303809594626e+001
 2.614988615018723e+000	 3.662217162235256e+000	 1.036193214312402e+001
 2.577202459478736e+000	 3.688906000821718e+000	 1.029916547724149e+001
 2.539178465126699e+000	 3.715181384841301e+000	 1.022469138745852e+001
 2.500923352550201e+000	 3.741040281084275e+000	 1.013848739827382e+001
 2.462443890229713e+000	 3.766479800488312e+000	 1.010579151455951e+001
 2.325641451889307e+000	 3.557230922676468e+000	 1.022667508444102e+001
 2.289094285687273e+000	 3.580858465680938e+000	 1.020024079118545e+001
 2.252348139770831e+000	 3.604084884861436e+000	 1.017046400371933e+001
 2.215409520594833e+000	 3.626907864294587e+000	 1.013687676171170e+001
 2.178284965358760e+000	 3.649325226630563e+000	 1.009901403772456e+001
 2.140981038377075e+000	 3.671334933419178e+000	 1.005641470443624e+001
 2.103504327454525e+000	 3.692935085323902e+000	 1.000862248830613e+001
 2.065861440270377e+000	 3.714123922224504e+000	 9.955186907414452e+000
 2.028059000775460e+000	 3.734899823209243e+000	 9.895664191279632e+000
 1.990103645605905e+000	 3.755261306457614e+000	 9.857908312386389e+000
 1.952002020517314e+000	 3.775207029014879e+000	 9.904659875610861e+000
 2.339321695721108e+000	 3.578155810453152e+000	 1.022324692706617e+001
 2.302559546188415e+000	 3.601922339004716e+000	 1.019672525524759e+001
 2.265597246472444e+000	 3.625285384180478e+000	 1.016528260790883e+001
 2.228441341301310e+000	 3.648242616433984e+000	 1.012843786947805e+001
 2.191098406328612e+000	 3.670791845607464e+000	 1.008571435665408e+001
 2.153575044482423e+000	 3.692931021259852e+000	 1.003664079529915e+001
 2.115877882319285e+000	 3.714658232882046e+000	 9.980752281713112e+000
 2.078013566387165e+000	 3.735971710000169e+000	 9.917591226016318e+000
 2.039988759601311e+000	 3.756869822167703e+000	 9.879404722437268e+000
 2.001810137636888e+000	 3.777351078847552e+000	 9.910172176807608e+000
 1.963484385342178e+000	 3.797414129185244e+000	 9.950104786606362e+000
 2.353001939553409e+000	 3.599080698230837e+000	 1.021724582600724e+001
 2.316024806689954e+000	 3.622986212329489e+000	 1.019059770804038e+001
 2.278846353174354e+000	 3.646485883500497e+000	 1.015746839897111e+001
 2.241473162007985e+000	 3.669577368574334e+000	 1.011736344579085e+001
 2.203911847298559e+000	 3.692258464585284e+000	 1.006979431603811e+001
 2.166169050587767e+000	 3.714527109101399e+000	 1.001427938473380e+001
 2.128251437183941e+000	 3.736381380441009e+000	 9.950344903647817e+000
 2.090165692503751e+000	 3.757819497776587e+000	 9.910388570031266e+000
 2.051918518426859e+000	 3.778839821126840e+000	 9.928269173839720e+000
 2.013516629667467e+000	 3.799440851238082e+000	 9.953033474402908e+000
 1.974966750166537e+000	 3.819621229356107e+000	 9.985866924949168e+000
 2.366682183386207e+000	 3.620005586009521e+000	 1.020863075925706e+001
 2.329490067191891e+000	 3.644050085655256e+000	 1.018182093659741e+001
 2.292095459876561e+000	 3.667686382821499e+000	 1.014698768493874e+001
 2.254504982714857e+000	 3.690912120715639e+000	 1.010362303020190e+001
 2.216725288268604e+000	 3.713725083564024e+000	 1.005122639621657e+001
 2.178763056693108e+000	 3.736123196943818e+000	 9.989305602073431e+000
 2.140624992048494e+000	 3.758104528000788e+000	 9.947426186851965e+000
 2.102317818620132e+000	 3.779667285553756e+000	 9.955645987449207e+000
 2.063848277252102e+000	 3.800809820086653e+000	 9.968346563927879e+000
 2.025223121697641e+000	 3.821530623629203e+000	 9.986801907247108e+000
 1.986449114990393e+000	 3.841828329527464e+000	 1.001224877811526e+001
 2.380362427219501e+000	 3.640930473789204e+000	 1.019736030653430e+001
 2.342955327694226e+000	 3.665113958982019e+000	 1.017035726871292e+001
 2.305344566579066e+000	 3.688886882143479e+000	 1.013380626064845e+001
 2.267536803421926e+000	 3.712246872857897e+000	 1.008718560212071e+001
 2.229538729238746e+000	 3.735191702543681e+000	 1.002998247744810e+001
 2.191357062798446e+000	 3.757719284787112e+000	 9.986975800564670e+000
 2.152998546912944e+000	 3.779827675561386e+000	 9.988889210972353e+000
 2.114469944736310e+000	 3.801515073331678e+000	 9.992762160871767e+000
 2.075778036077042e+000	 3.822779819047144e+000	 9.999952776839205e+000
 2.036929613727413e+000	 3.843620396020915e+000	 1.001178648234128e+001
 1.997931479813745e+000	 3.864035429699317e+000	 1.002955214030754e+001
 2.394042671053293e+000	 3.661855361569890e+000	 1.018339266066255e+001
 2.356420588196958e+000	 3.686177832309777e+000	 1.015616858606290e+001
 2.318593673281868e+000	 3.710087381466440e+000	 1.011788942240385e+001
 2.280568624129192e+000	 3.733581625001111e+000	 1.006801959681870e+001
 2.242352170208985e+000	 3.756658321524258e+000	 1.002538390775286e+001
 2.203951068903780e+000	 3.779315372631278e+000	 1.002447283383063e+001
 2.165372101777289e+000	 3.801550823122800e+000	 1.002288532181269e+001
 2.126622070852283e+000	 3.823362861110350e+000	 1.002205884839436e+001
 2.087707794901678e+000	 3.844749818008310e+000	 1.002340302644950e+001
 2.048636105756780e+000	 3.865710168413219e+000	 1.002829553147206e+001
 2.009413844636593e+000	 3.886242529871669e+000	 1.003807813226363e+001
 2.407722914887582e+000	 3.682780249351574e+000	 1.016668563856183e+001
 2.369885848700086e+000	 3.707241705638530e+000	 1.013921633687892e+001
 2.331842779984966e+000	 3.731287880790379e+000	 1.009920198213823e+001
 2.293600444836655e+000	 3.754916377145277e+000	 1.005888212853213e+001
 2.255165611179321e+000	 3.778124940505752e+000	 1.005875463273028e+001
 2.216545075009111e+000	 3.800911460476316e+000	 1.005520398816561e+001
 2.177745656641532e+000	 3.823273970685031e+000	 1.004974185310514e+001
 2.138774196968055e+000	 3.845210648889775e+000	 1.004385716824291e+001
 2.099637553726010e+000	 3.866719816970152e+000	 1.003901187541435e+001
 2.060342597785744e+000	 3.887799940806113e+000	 1.003663673039383e+001
 2.020896209458937e+000	 3.908449630044514e+000	 1.003812722038837e+001
 2.421403158722368e+000	 3.703705137134258e+000	 1.014719669186723e+001
 2.383351109203613e+000	 3.728305578968275e+000	 1.011946154819230e+001
 2.345091886688362e+000	 3.752488380115298e+000	 1.008358456401487e+001
 2.306632265544314e+000	 3.776251129290399e+000	 1.008797305299940e+001
 2.267979052149753e+000	 3.799591559488166e+000	 1.008608539622172e+001
 2.229139081114439e+000	 3.822507548322229e+000	 1.007950188358669e+001
 2.190119211505671e+000	 3.844997118248081e+000	 1.006978553419397e+001
 2.150926323083621e+000	 3.867058436669951e+000	 1.005847761684915e+001
 2.111567312550038e+000	 3.888689815932671e+000	 1.004709325356523e+001
 2.072049089814303e+000	 3.909889713199599e+000	 1.003711711736078e+001
 2.032378574280778e+000	 3.930656730217856e+000	 1.002999923523787e+001
 2.435083402557653e+000	 3.724630024917941e+000	 1.012488291718978e+001
 2.396816369707536e+000	 3.749369452299018e+000	 1.009686483766563e+001
 2.358340993392056e+000	 3.773688879441198e+000	 1.010824460141941e+001
 2.319664086252171e+000	 3.797585881436474e+000	 1.011177298591586e+001
 2.280792493120282e+000	 3.821058178471498e+000	 1.010771382338066e+001
 2.241733087219764e+000	 3.844103636169014e+000	 1.009769857583280e+001
 2.202492766369706e+000	 3.866720265811948e+000	 1.008334250701283e+001
 2.163078449198984e+000	 3.888906224450881e+000	 1.006624008631679e+001
 2.123497071373763e+000	 3.910659814895868e+000	 1.004796047568549e+001
 2.083755581842459e+000	 3.931979485593676e+000	 1.003004311103413e+001
 2.043860939102113e+000	 3.952863830391693e+000	 1.001399338938035e+001
 2.448763646393434e+000	 3.745554912702627e+000	 1.009970106603324e+001
 2.410281630211857e+000	 3.770433325630755e+000	 1.011556177071508e+001
 2.371590100096047e+000	 3.794889378768076e+000	 1.012838382985741e+001
 2.332695906960225e+000	 3.818920633583504e+000	 1.013062428390616e+001
 2.293605934090909e+000	 3.842524797455749e+000	 1.012397701938637e+001
 2.254327093325085e+000	 3.865699724016673e+000	 1.011012557212678e+001
 2.214866321233638e+000	 3.888443413376632e+000	 1.009073834249273e+001
 2.175230575314143e+000	 3.910754012232561e+000	 1.006746388130225e+001
 2.135426830197184e+000	 3.932629813859740e+000	 1.004192625869039e+001
 2.095462073870210e+000	 3.954069257988343e+000	 1.001572052778923e+001
 2.055343303922946e+000	 3.975070930566027e+000	 9.990408294658405e+000
 2.462443890229713e+000	 3.766479800488312e+000	 1.010579151455951e+001
 2.423746890716576e+000	 3.791497198963489e+000	 1.013190660293623e+001
 2.384839206800335e+000	 3.816089878095935e+000	 1.014434907056679e+001
 2.345727727668478e+000	 3.840255385731489e+000	 1.014486883171061e+001
 2.306419375061632e+000	 3.863991416440919e+000	 1.013521158388756e+001
 2.266921099430403e+000	 3.887295811865205e+000	 1.011711384641188e+001
 2.227239876097467e+000	 3.910166560942135e+000	 1.009229805642337e+001
 2.187382701429100e+000	 3.932601800014995e+000	 1.006246773533253e+001
 2.147356589020302e+000	 3.954599812824290e+000	 1.002930273823460e+001
 2.107168565897559e+000	 3.976159030383603e+000	 9.994454598445760e+000
 2.066825668743274e+000	 3.997278030740858e+000	 9.959541978875830e+000
 1.952002020517314e+000	 3.775207029014879e+000	 9.904659875610861e+000
 1.913760776843248e+000	 3.794735786459811e+000	 9.930657585205013e+000
 1.875386567981046e+000	 3.813846512466861e+000	 9.940312913838891e+000
 1.836886045909252e+000	 3.832538278264387e+000	 9.905780874524549e+000
 1.798265857740103e+000	 3.850810291991064e+000	 9.871032999529849e+000
 1.759532642309953e+000	 3.868661897952027e+000	 9.833836116084935e+000
 1.720693026811101e+000	 3.886092575776806e+000	 9.791660898399712e+000
 1.681753623468193e+000	 3.903101939481164e+000	 9.742063487283208e+000
 1.642721026262243e+000	 3.919689736435062e+000	 9.682689261450282e+000
 1.603601807705202e+000	 3.935855846239047e+000	 9.611276362765782e+000
 1.564402515667893e+000	 3.951600279511499e+000	 9.525658971071003e+000
 1.963484385342178e+000	 3.797414129185244e+000	 9.950104786606362e+000
 1.925018193176184e+000	 3.817057761674655e+000	 9.964446397633493e+000
 1.886418253673830e+000	 3.836280903717665e+000	 9.965155202400071e+000
 1.847691257942943e+000	 3.855082621079272e+000	 9.930923886975405e+000
 1.808843892196424e+000	 3.873462117240140e+000	 9.887382092922980e+000
 1.769882834322603e+000	 3.891418732648380e+000	 9.843565047343166e+000
 1.730814750497264e+000	 3.908951943872516e+000	 9.796891036260639e+000
 1.691646291840493e+000	 3.926061362657818e+000	 9.744863248567821e+000
 1.652384091121428e+000	 3.942746734888187e+000	 9.685073650495850e+000
 1.613034759513854e+000	 3.959007939455937e+000	 9.615206611802606e+000
 1.573604883405484e+000	 3.974844987041912e+000	 9.533042279148802e+000
 1.974966750166537e+000	 3.819621229356107e+000	 9.985866924949168e+000
 1.936275609508532e+000	 3.839379736889895e+000	 9.988739257137169e+000
 1.897449939365971e+000	 3.858715294968765e+000	 9.980664713059554e+000
 1.858496469975968e+000	 3.877626963894351e+000	 9.948386717717231e+000
 1.819421926652086e+000	 3.896113942489314e+000	 9.896912658140121e+000
 1.780233026334630e+000	 3.914175567344729e+000	 9.847303266721189e+000
 1.740936474182872e+000	 3.931811311968122e+000	 9.796923478145956e+000
 1.701538960212335e+000	 3.949020785834266e+000	 9.743222606573514e+000
 1.662047155980281e+000	 3.965803733341005e+000	 9.683738324229399e+000
 1.622467711322332e+000	 3.982160032672422e+000	 9.616100389415506e+000
 1.582807251143084e+000	 3.998089694571819e+000	 9.538034119233560e+000
 1.986449114990393e+000	 3.841828329527464e+000	 1.001224877811526e+001
 1.947533025840291e+000	 3.861701712105530e+000	 1.000382334232536e+001
 1.908481625057469e+000	 3.881149686220162e+000	 9.987113752116249e+000
 1.869301682008328e+000	 3.900171306709628e+000	 9.958008918363852e+000
 1.829999961107088e+000	 3.918765767738582e+000	 9.899464330877372e+000
 1.790583218346036e+000	 3.936932402041073e+000	 9.844890892024479e+000
 1.751058197867925e+000	 3.954670680063622e+000	 9.791599215160181e+000
 1.711431628583719e+000	 3.971980209010510e+000	 9.736983809935396e+000
 1.671710220838802e+000	 3.988860731793519e+000	 9.678527165979981e+000
 1.631900663130633e+000	 4.005312125888501e+000	 9.613803583623215e+000
 1.592009618880696e+000	 4.021334402101220e+000	 9.540482746772828e+000
 1.997931479813745e+000	 3.864035429699317e+000	 1.002955214030754e+001
 1.958790442171462e+000	 3.884023687321564e+000	 1.000998532561088e+001
 1.919513310748325e+000	 3.903584077471854e+000	 9.984774296090055e+000
 1.880106894040022e+000	 3.922715649525100e+000	 9.954955960481838e+000
 1.840577995561431e+000	 3.941417592987946e+000	 9.894876737801514e+000
 1.800933410356819e+000	 3.959689236737412e+000	 9.836168176323989e+000
 1.761179921552422e+000	 3.977530048159018e+000	 9.780759507234775e+000
 1.721324296954645e+000	 3.994939632186549e+000	 9.725989498941951e+000
 1.681373285696993e+000	 4.011917730245727e+000	 9.669284562826364e+000
 1.641333614938760e+000	 4.028464219104175e+000	 9.608162687571845e+000
 1.601211986618317e+000	 4.044579109630118e+000	 9.540237113018483e+000
 2.009413844636593e+000	 3.886242529871669e+000	 1.003807813226363e+001
 1.970047858502044e+000	 3.906345662537992e+000	 1.000751138767289e+001
 1.930544996438539e+000	 3.926018468723842e+000	 9.973918001144199e+000
 1.890912106071049e+000	 3.945259992340768e+000	 9.938390460246165e+000
 1.851156030015116e+000	 3.964069418237406e+000	 9.882989496807873e+000
 1.811283602366981e+000	 3.982446071433747e+000	 9.820975504091386e+000
 1.771301645236366e+000	 4.000389416254310e+000	 9.764245875447394e+000
 1.731216965325113e+000	 4.017899055362383e+000	 9.710082694344964e+000
 1.691036350554853e+000	 4.034974728697631e+000	 9.655855391204113e+000
 1.650766566746712e+000	 4.051616312319444e+000	 9.599024782245420e+000
 1.610414354355949e+000	 4.067823817158510e+000	 9.537146845146451e+000
 2.020896209458937e+000	 3.908449630044514e+000	 1.003812722038837e+001
 1.981305274832037e+000	 3.928667637754816e+000	 9.996687231426368e+000
 1.941576682128110e+000	 3.948452859976126e+000	 9.954816212186211e+000
 1.901717318101411e+000	 3.967804335156631e+000	 9.913663014934992e+000
 1.861734064468140e+000	 3.986721243486961e+000	 9.863642217269572e+000
 1.821633794376520e+000	 4.005202906130077e+000	 9.799153387466106e+000
 1.781423368919754e+000	 4.023248784349496e+000	 9.741900094602933e+000
 1.741109633695123e+000	 4.040858478538012e+000	 9.689106786550889e+000
 1.700699415412381e+000	 4.058031727149230e+000	 9.638085003003504e+000
 1.660199518554488e+000	 4.074768405534308e+000	 9.586237519766062e+000
 1.619616722093591e+000	 4.091068524686397e+000	 9.531062227054418e+000
 2.032378574280778e+000	 3.930656730217856e+000	 1.002999923523787e+001
 1.992562691161443e+000	 3.950989612972036e+000	 9.977798095518541e+000
 1.952608367817038e+000	 3.970887251228706e+000	 9.927739971660479e+000
 1.912522530131106e+000	 3.990348677972691e+000	 9.881030875237586e+000
 1.872312098920506e+000	 4.009373068736611e+000	 9.836674500278233e+000
 1.831983986385438e+000	 4.027959740826404e+000	 9.770542462648907e+000
 1.791545092602588e+000	 4.046108152444578e+000	 9.713564186066133e+000
 1.751002302064675e+000	 4.063817901713436e+000	 9.662905525178639e+000
 1.710362480269578e+000	 4.081088725600523e+000	 9.615819212138485e+000
 1.669632470362090e+000	 4.097920498748767e+000	 9.569649107260032e+000
 1.628819089831244e+000	 4.114313232213777e+000	 9.521834180810325e+000
 2.043860939102113e+000	 3.952863830391693e+000	 1.001399338938035e+001
 2.003820107490259e+000	 3.973311588189652e+000	 9.951128767369925e+000
 1.963640053505324e+000	 3.993321642481583e+000	 9.892960028044429e+000
 1.923327742160136e+000	 4.012893020788947e+000	 9.840751145608605e+000
 1.882890133372213e+000	 4.032024893986358e+000	 9.795718447808678e+000
 1.842334178393734e+000	 4.050716575522725e+000	 9.734983486417011e+000
 1.801666816284866e+000	 4.068967520539554e+000	 9.679080410835699e+000
 1.760894970433770e+000	 4.086777324888655e+000	 9.631323008969348e+000
 1.720025545126444e+000	 4.104145724051513e+000	 9.588904281568626e+000
 1.679065422169517e+000	 4.121072591962822e+000	 9.549108291267833e+000
 1.638021457568906e+000	 4.137557939740653e+000	 9.509314248726284e+000
 2.055343303922946e+000	 3.975070930566027e+000	 9.990408294658405e+000
 2.015077523818487e+000	 3.995633563407664e+000	 9.916963595778528e+000
 1.974671739192968e+000	 4.015756033734754e+000	 9.850746844059835e+000
 1.934132954188500e+000	 4.035437363605398e+000	 9.793080788352954e+000
 1.893468167823261e+000	 4.054676719236199e+000	 9.745237479282798e+000
 1.852684370401407e+000	 4.073473410219042e+000	 9.692317332756028e+000
 1.811788539966590e+000	 4.091826888634428e+000	 9.638291262850661e+000
 1.770787638802406e+000	 4.109736748063669e+000	 9.594203676034313e+000
 1.729688609982978e+000	 4.127202722502196e+000	 9.557186910755792e+000
 1.688498373976768e+000	 4.144224685176470e+000	 9.524464342676664e+000
 1.647223825306579e+000	 4.160802647267024e+000	 9.493354576033241e+000
 2.066825668743274e+000	 3.997278030740858e+000	 9.959541978875830e+000
 2.026334940146127e+000	 4.017955538626073e+000	 9.875586503103731e+000
 1.985703424879969e+000	 4.038190424988225e+000	 9.801370604610547e+000
 1.944938166216198e+000	 4.057981706422046e+000	 9.738276627574305e+000
 1.904046202273650e+000	 4.077328544486139e+000	 9.687633169501005e+000
 1.863034562408458e+000	 4.096230244915353e+000	 9.642384989604187e+000
 1.821910263647759e+000	 4.114686256729197e+000	 9.591039462519749e+000
 1.780680307170585e+000	 4.132696171238480e+000	 9.551392294428153e+000
 1.739351674839182e+000	 4.150259720952576e+000	 9.520514223539204e+000
 1.697931325783844e+000	 4.167376778389715e+000	 9.495567042155331e+000
 1.656426193044263e+000	 4.184047354792892e+000	 9.473807894133307e+000
 1.564402515667893e+000	 3.951600279511499e+000	 9.525658971071003e+000
 1.525129670264477e+000	 3.966923176588746e+000	 9.353063713958552e+000
 1.485789760794904e+000	 3.981824806142011e+000	 9.213923665459046e+000
 1.446389242748077e+000	 3.996305563713150e+000	 9.106525263321830e+000
 1.406934534869337e+000	 4.010365970170742e+000	 9.029214083690619e+000
 1.367432016293249e+000	 4.024006670090824e+000	 8.980397390556169e+000
 1.327888023744064e+000	 4.037228430064649e+000	 8.958546474657128e+000
 1.288308848805791e+000	 4.050032136936430e+000	 8.962198780871573e+000
 1.248700735263687e+000	 4.062418795974020e+000	 8.987200041004922e+000
 1.209069876518824e+000	 4.074389528975535e+000	 8.942358815754373e+000
 1.169422413077266e+000	 4.085945572314992e+000	 8.899225031828420e+000
 1.573604883405484e+000	 3.974844987041912e+000	 9.533042279148802e+000
 1.534101021264173e+000	 3.990258018807951e+000	 9.373712431362220e+000
 1.494529700562309e+000	 4.005247305005702e+000	 9.245637305587680e+000
 1.454897414762255e+000	 4.019813243503740e+000	 9.147037795523376e+000
 1.415210620366680e+000	 4.033956358234573e+000	 9.076197679264219e+000
 1.375475734034469e+000	 4.047677297565866e+000	 9.031466209821792e+000
 1.335699129764719e+000	 4.060976832598230e+000	 9.011260488084563e+000
 1.295887136150757e+000	 4.073855855392611e+000	 9.014067617314838e+000
 1.256046033705988e+000	 4.086315377130202e+000	 9.038446638932241e+000
 1.216182052263253e+000	 4.098356526207932e+000	 9.000136093364322e+000
 1.176301368449240e+000	 4.109980546272603e+000	 8.949259494807686e+000
 1.582807251143084e+000	 3.998089694571819e+000	 9.538034119233560e+000
 1.543072372264059e+000	 4.013592861026560e+000	 9.391758091447633e+000
 1.503269640330041e+000	 4.028669803868731e+000	 9.274544488290088e+000
 1.463405586776859e+000	 4.043320923293615e+000	 9.184548034807209e+000
 1.423486705864506e+000	 4.057546746297664e+000	 9.119990102341092e+000
 1.383519451776188e+000	 4.071347925040158e+000	 9.079161340871638e+000
 1.343510235785849e+000	 4.084725235131073e+000	 9.060424086739058e+000
 1.303465423496135e+000	 4.097679573848086e+000	 9.062214544895383e+000
 1.263391332148598e+000	 4.110211958285729e+000	 9.083044745504592e+000
 1.223294228007851e+000	 4.122323523439744e+000	 9.054967106261572e+000
 1.183180323821201e+000	 4.134015520229720e+000	 8.996368914568217e+000
 1.592009618880696e+000	 4.021334402101220e+000	 9.540482746772828e+000
 1.552043723264134e+000	 4.036927703244576e+000	 9.407065850523125e+000
 1.512009580098102e+000	 4.052092302731094e+000	 9.300526788260225e+000
 1.471913758791888e+000	 4.066828603082779e+000	 9.218953483641267e+000
 1.431762791362814e+000	 4.081137134360013e+000	 9.160504284876678e+000
 1.391563169518405e+000	 4.095018552513700e+000	 9.123410639652990e+000
 1.351321341807455e+000	 4.108473637663178e+000	 9.105979538322307e+000
 1.311043710841926e+000	 4.121503292302855e+000	 9.106595724559833e+000
 1.270736630591518e+000	 4.134108539440599e+000	 9.123723673377910e+000
 1.230406403752616e+000	 4.146290520670970e+000	 9.106557001135334e+000
 1.190059279193150e+000	 4.158050494186345e+000	 9.040273576135384e+000
 1.601211986618317e+000	 4.044579109630118e+000	 9.540237113018483e+000
 1.561015074264399e+000	 4.060262545461995e+000	 9.419501314770001e+000
 1.520749519866489e+000	 4.075514801592793e+000	 9.323465992579413e+000
 1.480421930807344e+000	 4.090336282871230e+000	 9.250151627892940e+000
 1.440038876861605e+000	 4.104727522421621e+000	 9.197652921782511e+000
 1.399606887261122e+000	 4.118689179986494e+000	 9.164141513211041e+000
 1.359132447829537e+000	 4.132222040194547e+000	 9.147868458396474e+000
 1.318621998188130e+000	 4.145327010756917e+000	 9.147166470528367e+000
 1.278081929034748e+000	 4.158005120594816e+000	 9.160451919794369e+000
 1.237518579497549e+000	 4.170257517901614e+000	 9.154609714817394e+000
 1.196938234565087e+000	 4.182085468142475e+000	 9.080692386165328e+000
 1.610414354355949e+000	 4.067823817158510e+000	 9.537146845146451e+000
 1.569986425264854e+000	 4.083597387678821e+000	 9.428930527389129e+000
 1.529489459635206e+000	 4.098937300453828e+000	 9.343244094648110e+000
 1.488930102823224e+000	 4.113843962658969e+000	 9.278039937303401e+000
 1.448314962360878e+000	 4.128317910482487e+000	 9.231348477698807e+000
 1.407650605004338e+000	 4.142359807458538e+000	 9.201280932514681e+000
 1.366943553852095e+000	 4.155970442725177e+000	 9.186031829016729e+000
 1.326200285534746e+000	 4.169150729210274e+000	 9.183881274486787e+000
 1.285427227478289e+000	 4.181901701748378e+000	 9.193196978861330e+000
 1.244630755242650e+000	 4.194224515131674e+000	 9.198828008849372e+000
 1.203817189937011e+000	 4.206120442098112e+000	 9.117342912326922e+000
 1.619616722093591e+000	 4.091068524686397e+000	 9.531062227054418e+000
 1.578957776265498e+000	 4.106932229895052e+000	 9.435219956185520e+000
 1.538229399404250e+000	 4.122359799314200e+000	 9.359743288324561e+000
 1.497438274839530e+000	 4.137351642445993e+000	 9.302515865945754e+000
 1.456591047860634e+000	 4.151908298542613e+000	 9.261503193536328e+000
 1.415694322748053e+000	 4.166030434929833e+000	 9.234755444845030e+000
 1.374754659875128e+000	 4.179718845255070e+000	 9.220410016728668e+000
 1.333778572881774e+000	 4.192974447662922e+000	 9.216693828954032e+000
 1.292772525922138e+000	 4.205798282901284e+000	 9.221925370049464e+000
 1.251742930987919e+000	 4.218191512361147e+000	 9.234516490018313e+000
 1.210696145308922e+000	 4.230155416053254e+000	 9.149941421341211e+000
 1.628819089831244e+000	 4.114313232213777e+000	 9.521834180810325e+000
 1.587929127266333e+000	 4.130267072110688e+000	 9.438236481573867e+000
 1.546969339173622e+000	 4.145782298173907e+000	 9.372845962262169e+000
 1.505946446856261e+000	 4.160859322232307e+000	 9.323476852667655e+000
 1.464867133360872e+000	 4.175498686601997e+000	 9.288029092796355e+000
 1.423738040492267e+000	 4.189701062400376e+000	 9.264491185763950e+000
 1.382565765898636e+000	 4.203467247784224e+000	 9.250942789955547e+000
 1.341356860229215e+000	 4.216798166114867e+000	 9.245557049857585e+000
 1.300117824366298e+000	 4.229694864053538e+000	 9.246602665724957e+000
 1.258855106733357e+000	 4.242158509590039e+000	 9.252445702979857e+000
 1.217575100680821e+000	 4.254190390007903e+000	 9.178202915731385e+000
 1.638021457568906e+000	 4.137557939740653e+000	 9.509314248726284e+000
 1.596900478267356e+000	 4.153601914325729e+000	 9.437847384988467e+000
 1.555709278943322e+000	 4.169204797032950e+000	 9.382434694437714e+000
 1.514454618873417e+000	 4.184367002017907e+000	 9.340820321518910e+000
 1.473143218861592e+000	 4.199089074660639e+000	 9.310837987677752e+000
 1.431781758236980e+000	 4.213371689870171e+000	 9.290413890679352e+000
 1.390376871922621e+000	 4.227215650312640e+000	 9.277569335799456e+000
 1.348935147577068e+000	 4.240621884566104e+000	 9.270423098347655e+000
 1.307463122810768e+000	 4.253591445205132e+000	 9.267193517753448e+000
 1.265967282478963e+000	 4.266125506818345e+000	 9.266200324196955e+000
 1.224454056052708e+000	 4.278225363962058e+000	 9.201841169333850e+000
 1.647223825306579e+000	 4.160802647267024e+000	 9.493354576033241e+000
 1.605871829268570e+000	 4.176936756540175e+000	 9.433920337681446e+000
 1.564449218713350e+000	 4.192627295891330e+000	 9.388392246862983e+000
 1.522962790891000e+000	 4.207874681802794e+000	 9.354443682164932e+000
 1.481419304362795e+000	 4.222679462718541e+000	 9.329841484979262e+000
 1.439825475982193e+000	 4.237042317339218e+000	 9.312448906022500e+000
 1.398187977947081e+000	 4.250964052840319e+000	 9.300228276279384e+000
 1.356513434925333e+000	 4.264445603016635e+000	 9.291243401880511e+000
 1.314808421255547e+000	 4.277488026356075e+000	 9.283661683212456e+000
 1.273079458224736e+000	 4.290092504046069e+000	 9.275755959327364e+000
 1.231333011424581e+000	 4.302260337915721e+000	 9.220568761619207e+000
 1.656426193044263e+000	 4.184047354792892e+000	 9.473807894133307e+000
 1.614843180269973e+000	 4.200271598754027e+000	 9.426323389894574e+000
 1.573189158483706e+000	 4.216049794749046e+000	 9.390601560472666e+000
 1.531470962909008e+000	 4.231382361586969e+000	 9.364244330286201e+000
 1.489695389864481e+000	 4.246269850775701e+000	 9.344950991805023e+000
 1.447869193727904e+000	 4.260712944807515e+000	 9.330521200053006e+000
 1.405999083972017e+000	 4.274712455367262e+000	 9.318857684027936e+000
 1.364091722274012e+000	 4.288269321466461e+000	 9.307968674598776e+000
 1.322153719700637e+000	 4.301384607506363e+000	 9.295970049246510e+000
 1.280191633970678e+000	 4.314059501273208e+000	 9.281087194800337e+000
 1.238211966796443e+000	 4.326295311868889e+000	 9.234097110868925e+000
 1.169422413077266e+000	 4.085945572314992e+000	 8.899225031828420e+000
 1.129764430115052e+000	 4.097088274930204e+000	 8.975634587047709e+000
 1.090101955120620e+000	 4.107819096255514e+000	 9.037880374441928e+000
 1.050440955616010e+000	 4.118139604102670e+000	 9.087049488311459e+000
 1.010787336957094e+000	 4.128051472493549e+000	 9.124118635101569e+000
 9.711469402141429e-001	 4.137556479447227e+000	 9.149957323799139e+000
 9.315255401334329e-001	 4.146656504724693e+000	 9.165331200258049e+000
 8.919288431804859e-001	 4.155353527534343e+000	 9.170905511978836e+000
 8.523624856654425e-001	 4.163649624201344e+000	 9.167248689944579e+000
 8.128320319509309e-001	 4.171546965803958e+000	 9.154836034233965e+000
 7.733429727426728e-001	 4.179047815779902e+000	 9.134053490290089e+000
 1.176301368449240e+000	 4.109980546272603e+000	 8.949259494807686e+000
 1.136410103235041e+000	 4.121188794197010e+000	 9.012879062930777e+000
 1.096514319564808e+000	 4.131982738000447e+000	 9.064908032832047e+000
 1.056620020063653e+000	 4.142363954717085e+000	 9.106407206079837e+000
 1.016733144824837e+000	 4.152334128215989e+000	 9.138323308810783e+000
 9.768595692778667e-001	 4.161895046975169e+000	 9.161492315785297e+000
 9.370051021381155e-001	 4.171048601813031e+000	 9.176642921441166e+000
 8.971754834385509e-001	 4.179796783580375e+000	 9.184400144099930e+000
 8.573763826440788e-001	 4.188141680816043e+000	 9.185289049561177e+000
 8.176133968488739e-001	 4.196085477369345e+000	 9.179738580443951e+000
 7.778920490569271e-001	 4.203630449992339e+000	 9.168085477797172e+000
 1.183180323821201e+000	 4.134015520229720e+000	 8.996368914568217e+000
 1.143055776354833e+000	 4.145289313463412e+000	 9.047613129555566e+000
 1.102926684008646e+000	 4.156146379745046e+000	 9.089847876006814e+000
 1.062799084510823e+000	 4.166588305331214e+000	 9.124107251415760e+000
 1.022678952692014e+000	 4.176616783938171e+000	 9.151307566088414e+000
 9.825721983409622e-001	 4.186233614502861e+000	 9.172250802161459e+000
 9.424846641421387e-001	 4.195440698901107e+000	 9.187628222706969e+000
 9.024221236959535e-001	 4.204240039626113e+000	 9.198024116703619e+000
 8.623902796220803e-001	 4.212633737430396e+000	 9.203919665739571e+000
 8.223947617462384e-001	 4.220623988934316e+000	 9.205696918440181e+000
 7.824411253706887e-001	 4.228213084204269e+000	 9.203642858783661e+000
 1.190059279193150e+000	 4.158050494186345e+000	 9.040273576135384e+000
 1.149701449474428e+000	 4.169389832729408e+000	 9.079566188509967e+000
 1.109339048452133e+000	 4.180310021489308e+000	 9.112439068061446e+000
 1.068978148957520e+000	 4.190812655945056e+000	 9.139899186716592e+000
 1.028624760558625e+000	 4.200899439660094e+000	 9.162831992881960e+000
 9.882848274034307e-001	 4.210572182030302e+000	 9.182005006747557e+000
 9.479642261455018e-001	 4.219832795988921e+000	 9.198071568783842e+000
 9.076687639526946e-001	 4.228683295671557e+000	 9.211574726834382e+000
 8.674041765994472e-001	 4.237125794044403e+000	 9.222951247295589e+000
 8.271761266430249e-001	 4.245162500498869e+000	 9.232535736008128e+000
 7.869902016839576e-001	 4.252795718415691e+000	 9.240564854659375e+000
 1.196938234565087e+000	 4.182085468142475e+000	 9.080692386165328e+000
 1.156347122593826e+000	 4.193490351995003e+000	 9.108466239890896e+000
 1.115751412895269e+000	 4.204473663233235e+000	 9.132419340435082e+000
 1.075157213403743e+000	 4.215037006558612e+000	 9.153531102590556e+000
 1.034570568424671e+000	 4.225182095381759e+000	 9.172655656327940e+000
 9.939974564652714e-001	 4.234910749557492e+000	 9.190525579724739e+000
 9.534437881482052e-001	 4.244224893076473e+000	 9.207755788213856e+000
 9.129154042087735e-001	 4.253126551716706e+000	 9.224847565172677e+000
 8.724180735761793e-001	 4.261617850658064e+000	 9.242192718966665e+000
 8.319574915392334e-001	 4.269701012063005e+000	 9.260077851699597e+000
 7.915392779967340e-001	 4.277378352626607e+000	 9.278688725103711e+000
 1.203817189937011e+000	 4.206120442098112e+000	 9.117342912326922e+000
 1.162992795713028e+000	 4.217590871260192e+000	 9.134039922346791e+000
 1.122163777338056e+000	 4.228637304976828e+000	 9.149525032843730e+000
 1.081336277849493e+000	 4.239261357171881e+000	 9.164749659907892e+000
 1.040516376290151e+000	 4.249464751103165e+000	 9.180536148146597e+000
 9.997100855264841e-001	 4.259249317084431e+000	 9.197581642596450e+000
 9.589233501502491e-001	 4.268616990163762e+000	 9.216462120100831e+000
 9.181620444641900e-001	 4.277569807761560e+000	 9.237636564788303e+000
 8.774319705522766e-001	 4.286109907271379e+000	 9.261451272385392e+000
 8.367388564348636e-001	 4.294239523626726e+000	 9.288144268239391e+000
 7.960883543090176e-001	 4.301960986837015e+000	 9.317849824114996e+000
 1.210696145308922e+000	 4.230155416053254e+000	 9.149941421341211e+000
 1.169638468832031e+000	 4.241691390524976e+000	 9.156012551755167e+000
 1.128576141780491e+000	 4.252800946720085e+000	 9.163491132817930e+000
 1.087515342294771e+000	 4.263485707784863e+000	 9.173300130418388e+000
 1.046462184155065e+000	 4.273747406824311e+000	 9.186229626556999e+000
 1.005422714587069e+000	 4.283587884611121e+000	 9.202940831616788e+000
 9.644029121516329e-001	 4.293009087250787e+000	 9.223970259264867e+000
 9.234086847189448e-001	 4.302013063806120e+000	 9.249734048231609e+000
 8.824458675277391e-001	 4.310601963884349e+000	 9.280532415315596e+000
 8.415202213299152e-001	 4.318778035190028e+000	 9.316554224111211e+000
 8.006374306208084e-001	 4.326543621046915e+000	 9.357881654149209e+000
 1.217575100680821e+000	 4.254190390007903e+000	 9.178202915731385e+000
 1.176284141950838e+000	 4.265791909789358e+000	 9.174108158589062e+000
 1.134988506222576e+000	 4.276964588463007e+000	 9.174051313900066e+000
 1.093694406739574e+000	 4.287710058397558e+000	 9.178926435992121e+000
 1.052407992019414e+000	 4.298030062545201e+000	 9.189490856771585e+000
 1.011135343647027e+000	 4.307926452137560e+000	 9.206369339746701e+000
 9.698824741523568e-001	 4.317401184337551e+000	 9.230058399866275e+000
 9.286553249730376e-001	 4.326456319850386e+000	 9.260930773028390e+000
 8.874597645025671e-001	 4.335094020496972e+000	 9.299240019219145e+000
 8.463015862243888e-001	 4.343316546752914e+000	 9.345125243395199e+000
 8.051865069321068e-001	 4.351126255256308e+000	 9.398615918423454e+000
 1.224454056052708e+000	 4.278225363962058e+000	 9.201841169333850e+000
 1.182929815069449e+000	 4.289892429053334e+000	 9.188049524023850e+000
 1.141400870664311e+000	 4.301128230205595e+000	 9.180937972554196e+000
 1.099873471183904e+000	 4.311934409009968e+000	 9.181371186537367e+000
 1.058353799883197e+000	 4.322312718265831e+000	 9.190073250125394e+000
 1.016847972706357e+000	 4.332265019663750e+000	 9.207631957195954e+000
 9.753620361524213e-001	 4.341793281424052e+000	 9.234503277558787e+000
 9.339019652264682e-001	 4.350899575894357e+000	 9.271015975641173e+000
 8.924736614767602e-001	 4.359586077109249e+000	 9.317376365219525e+000
 8.510829511182841e-001	 4.367855058315384e+000	 9.373673183925130e+000
 8.097355832429123e-001	 4.375708889465194e+000	 9.432653635086137e+000
 1.231333011424581e+000	 4.302260337915721e+000	 9.220568761619207e+000
 1.189575488187862e+000	 4.313992948316907e+000	 9.197558214833816e+000
 1.147813235105695e+000	 4.325291871947846e+000	 9.183882263838477e+000
 1.106052535627761e+000	 4.336158759622090e+000	 9.180375716647605e+000
 1.064299607746415e+000	 4.346595373986204e+000	 9.187728901894012e+000
 1.022560601765058e+000	 4.356603587189687e+000	 9.206492110605991e+000
 9.808415981518260e-001	 4.366185378510290e+000	 9.237080210230051e+000
 9.391486054792371e-001	 4.375342831938033e+000	 9.276138474528924e+000
 8.974875584503186e-001	 4.384078133721181e+000	 9.239243974058875e+000
 8.558643160116015e-001	 4.392393569877434e+000	 9.220415514437534e+000
 8.142846595532254e-001	 4.400291523673573e+000	 9.219087673386628e+000
 1.238211966796443e+000	 4.326295311868889e+000	 9.234097110868925e+000
 1.196221161306078e+000	 4.338093467580077e+000	 9.202354617125607e+000
 1.154225599546729e+000	 4.349455513689764e+000	 9.182614135888867e+000
 1.112231600071145e+000	 4.360383110233927e+000	 9.175680121026947e+000
 1.070245415609067e+000	 4.370878029706319e+000	 9.182208627850663e+000
 1.028273230823133e+000	 4.380942154715376e+000	 9.137739635466719e+000
 9.863211601505714e-001	 4.390577475596269e+000	 9.068962004038831e+000
 9.443952457313436e-001	 4.399786087981417e+000	 9.021030092501420e+000
 9.025014554232422e-001	 4.408570190332767e+000	 8.993450637700953e+000
 8.606456809043406e-001	 4.416932081439071e+000	 8.985688160333904e+000
 8.188337358630459e-001	 4.424874157881446e+000	 8.997165175396793e+000
 7.733429727426728e-001	 4.179047815779902e+000	 9.134053490290089e+000
 7.339007234633732e-001	 4.186154527505775e+000	 9.039010103381923e+000
 6.945106227088217e-001	 4.192869541852530e+000	 8.945486305599816e+000
 6.551779307865252e-001	 4.199195384720043e+000	 8.853270694648753e+000
 6.159078283377321e-001	 4.205134664553649e+000	 8.768386902145474e+000
 5.767054150413697e-001	 4.210690069845527e+000	 8.729503411158875e+000
 5.375757083998120e-001	 4.215864366623790e+000	 8.725813815853631e+000
 4.985236426059480e-001	 4.220660395932039e+000	 8.751250505304062e+000
 4.595540674909438e-001	 4.225081071302157e+000	 8.800553210169625e+000
 4.206717475519837e-001	 4.229129376222966e+000	 8.869249096568886e+000
 3.818813610591916e-001	 4.232808361607396e+000	 8.953631892945936e+000
 7.778920490569271e-001	 4.203630449992339e+000	 9.168085477797172e+000
 7.382177865464501e-001	 4.210778965904968e+000	 9.078253372006490e+000
 6.985959793168153e-001	 4.217533480336205e+000	 8.990804775006961e+000
 6.590319186185135e-001	 4.223896534044159e+000	 8.905535900069234e+000
 6.195308155671541e-001	 4.229870750817963e+000	 8.827428019481442e+000
 5.800977998397743e-001	 4.235458834964458e+000	 8.801068438871260e+000
 5.407379184534670e-001	 4.240663568782507e+000	 8.802097294584652e+000
 5.014561346257858e-001	 4.245487810027735e+000	 8.824491736513599e+000
 4.622573267163138e-001	 4.249934489370448e+000	 8.863052784135046e+000
 4.231462872486891e-001	 4.254006607849405e+000	 8.913384895490987e+000
 3.841277220122707e-001	 4.257707234324079e+000	 8.971874553835416e+000
 7.824411253706887e-001	 4.228213084204269e+000	 9.203642858783661e+000
 7.425348496291238e-001	 4.235403404303565e+000	 9.120656435433602e+000
 7.026813359244744e-001	 4.242197418819215e+000	 9.040932398139912e+000
 6.628859064502161e-001	 4.248597683367562e+000	 8.964273394853619e+000
 6.231538027963176e-001	 4.254606837081536e+000	 8.892580025325239e+000
 5.834901846379285e-001	 4.260227600082640e+000	 8.879263245946694e+000
 5.439001285068597e-001	 4.265462770940489e+000	 8.885323974022940e+000
 5.043886266453288e-001	 4.270315224122728e+000	 8.904785373643023e+000
 4.649605859413373e-001	 4.274787907438089e+000	 8.932511257341432e+000
 4.256208269449765e-001	 4.278883839475261e+000	 8.964185122348690e+000
 3.863740829648416e-001	 4.282606107040270e+000	 8.996288188981000e+000
 7.869902016839576e-001	 4.252795718415691e+000	 9.240564854659375e+000
 7.468519127113944e-001	 4.260027842701565e+000	 9.166053452380140e+000
 7.067666925317991e-001	 4.266861357301558e+000	 9.095698591029322e+000
 6.667398942816325e-001	 4.273298832690252e+000	 9.029308169258179e+000
 6.267767900252235e-001	 4.279342923344370e+000	 8.966608293671476e+000
 5.868825694358320e-001	 4.284996365200073e+000	 8.964437242048348e+000
 5.470623385599893e-001	 4.290261973097732e+000	 8.975816726990022e+000
 5.073211186645767e-001	 4.295142638217016e+000	 8.992426134210303e+000
 4.676638451660140e-001	 4.299641325505075e+000	 9.009193597863060e+000
 4.280953666408461e-001	 4.303761071100536e+000	 9.021883427375103e+000
 3.886204439169041e-001	 4.307504979755969e+000	 9.027073589480379e+000
 7.915392779967340e-001	 4.277378352626607e+000	 9.278688725103711e+000
 7.511689757932621e-001	 4.284652281098968e+000	 9.214276983042609e+000
 7.108520491387896e-001	 4.291525295783235e+000	 9.154931532060527e+000
 6.705938821127631e-001	 4.297999982012227e+000	 9.100464334307103e+000
 6.303997772538712e-001	 4.304079009606460e+000	 9.050603202110091e+000
 5.902749542334850e-001	 4.309765130316754e+000	 9.056939666556188e+000
 5.502245486128563e-001	 4.315061175254239e+000	 9.073898606322533e+000
 5.102536106835299e-001	 4.319970052310598e+000	 9.087709263109471e+000
 4.703671043903441e-001	 4.324494743571407e+000	 9.093365645463514e+000
 4.305699063362979e-001	 4.328638302725230e+000	 9.086714673650409e+000
 3.908668048684583e-001	 4.332403852471176e+000	 9.064433097177068e+000
 7.960883543090176e-001	 4.301960986837015e+000	 9.317849824114996e+000
 7.554860388747265e-001	 4.309276719495773e+000	 9.265158034769215e+000
 7.149374057454458e-001	 4.316189234264248e+000	 9.218458197334899e+000
 6.744478699436075e-001	 4.322701131333488e+000	 9.177565146913331e+000
 6.340227644822606e-001	 4.328815095867808e+000	 9.142207201243039e+000
 5.936673390308876e-001	 4.334533895432689e+000	 9.157119593432393e+000
 5.533867586654606e-001	 4.339860377410007e+000	 9.179892839728854e+000
 5.131861027021881e-001	 4.344797466403474e+000	 9.190930517542657e+000
 4.730703636143274e-001	 4.349348161637087e+000	 9.185294086690043e+000
 4.330444460313317e-001	 4.353515534349339e+000	 9.158914902448899e+000
 3.931131658195043e-001	 4.357302725185893e+000	 9.108570560353293e+000
 8.006374306208084e-001	 4.326543621046915e+000	 9.357881654149209e+000
 7.598031019557878e-001	 4.333901157891983e+000	 9.318526106174801e+000
 7.190227623517680e-001	 4.340853172744595e+000	 9.286104394825536e+000
 6.783018577741659e-001	 4.347402280654034e+000	 9.260433034143135e+000
 6.376457517103917e-001	 4.353551182128414e+000	 9.241239643268678e+000
 5.970597238280400e-001	 4.359302660547872e+000	 9.265325935920405e+000
 5.565489687178020e-001	 4.364659579565039e+000	 9.294122824821258e+000
 5.161185947205512e-001	 4.369624880495647e+000	 9.302386152466024e+000
 4.757736228379639e-001	 4.374201579702113e+000	 9.285246430817198e+000
 4.355189857259478e-001	 4.378392765972867e+000	 9.222134456341248e+000
 3.953595267700419e-001	 4.382201597900117e+000	 9.139610833498690e+000
 8.051865069321068e-001	 4.351126255256308e+000	 9.398615918423454e+000
 7.641201650364461e-001	 4.358525596287595e+000	 9.374209229760439e+000
 7.231081189577555e-001	 4.365517111224277e+000	 9.357694797375375e+000
 6.821558456044382e-001	 4.372103429973867e+000	 9.348889616658125e+000
 6.412687389382651e-001	 4.378287268388280e+000	 9.315548994953934e+000
 6.004521086249417e-001	 4.384071425662305e+000	 9.294883703149534e+000
 5.597111787698806e-001	 4.389458781719333e+000	 9.285704941050060e+000
 5.190510867386197e-001	 4.394452294587114e+000	 9.263916622029003e+000
 4.784768820612541e-001	 4.399054997766486e+000	 9.229635431461023e+000
 4.379935254201459e-001	 4.403269997595814e+000	 9.182853111225139e+000
 3.976058877200713e-001	 4.407100470613849e+000	 9.123439552074320e+000
 8.097355832429123e-001	 4.375708889465194e+000	 9.432653635086137e+000
 7.684372281167010e-001	 4.383150034682610e+000	 9.349497201216861e+000
 7.271934755634087e-001	 4.390181049703290e+000	 9.280193491180276e+000
 6.860098334344247e-001	 4.396804579292988e+000	 9.224223721730631e+000
 6.448917261658799e-001	 4.403023354647401e+000	 9.181030546939173e+000
 6.038444934215930e-001	 4.408840190775990e+000	 9.173505928421015e+000
 5.628733888216966e-001	 4.414257983872890e+000	 9.182290144688125e+000
 5.219835787563931e-001	 4.419279708677876e+000	 9.179907565347609e+000
 4.811801412841973e-001	 4.423908415830206e+000	 9.166509295804783e+000
 4.404680651139261e-001	 4.428147229218177e+000	 9.142117688267602e+000
 3.998522486695924e-001	 4.431999343327089e+000	 9.106629487973386e+000
 8.142846595532254e-001	 4.400291523673573e+000	 9.219087673386628e+000
 7.727542911965530e-001	 4.407774473077029e+000	 9.153434054249086e+000
 7.312788321687278e-001	 4.414844988181641e+000	 9.102144756827800e+000
 6.898638212641248e-001	 4.421505728611392e+000	 9.064743151546495e+000
 6.485147133932367e-001	 4.427759440905782e+000	 9.040712291202873e+000
 6.072368782179939e-001	 4.433608955888925e+000	 9.047674772334455e+000
 5.660355988732496e-001	 4.439057186025711e+000	 9.075129816694100e+000
 5.249160707738717e-001	 4.444107122767933e+000	 9.092884081794448e+000
 4.838834005067940e-001	 4.448761833893272e+000	 9.101122909730819e+000
 4.429426048072886e-001	 4.453024460839959e+000	 9.099899044706305e+000
 4.020986096186051e-001	 4.456898216039838e+000	 9.089135834024294e+000
 8.188337358630459e-001	 4.424874157881446e+000	 8.997165175396793e+000
 7.770713542760024e-001	 4.432398911470850e+000	 8.949671922731174e+000
 7.353641887737129e-001	 4.439508926659324e+000	 8.917056626807760e+000
 6.937178090935393e-001	 4.446206877929084e+000	 8.898884824981666e+000
 6.521377006203357e-001	 4.452495527163421e+000	 8.894679974335002e+000
 6.106292630141446e-001	 4.458377721001112e+000	 8.917427475615877e+000
 5.691978089245402e-001	 4.463856388177795e+000	 8.964244289859865e+000
 5.278485627910554e-001	 4.468934536857286e+000	 9.002849971378289e+000
 4.865866597290441e-001	 4.473615251955685e+000	 9.033463920494006e+000
 4.454171445002333e-001	 4.477901692461161e+000	 9.056169059526003e+000
 4.043449705671096e-001	 4.481797088752095e+000	 9.070915089460859e+000
 3.818813610591916e-001	 4.232808361607396e+000	 8.953631892945936e+000
 3.431874992402947e-001	 4.236121143260720e+000	 9.006869024038812e+000
 3.045946655437639e-001	 4.239070899352234e+000	 9.063894681970696e+000
 2.661072749782468e-001	 4.241660867892875e+000	 9.123345502992535e+000
 2.277296535260604e-001	 4.243894344221186e+000	 9.184535908900356e+000
 1.894660376312561e-001	 4.245774678499766e+000	 9.247433361687385e+000
 1.513205737604607e-001	 4.247305273224471e+000	 9.312633126293015e+000
 1.132973180351715e-001	 4.248489580748445e+000	 9.381332615924769e+000
 7.540023593415120e-002	 4.249331100823047e+000	 9.455305392675538e+000
 3.763320206450971e-002	 4.249833378157621e+000	 9.536874894259407e+000
 0.000000000000000e+000	 4.250000000000000e+000	 9.628887955658387e+000
 3.841277220122707e-001	 4.257707234324079e+000	 8.971874553835416e+000
 3.452062492418693e-001	 4.261039502928045e+000	 8.995887396327387e+000
 3.063863988766923e-001	 4.264006610525749e+000	 9.019942805629206e+000
 2.676726118960288e-001	 4.266611814175250e+000	 9.042774568187127e+000
 2.290692397291523e-001	 4.268858428599435e+000	 9.063805259878711e+000
 1.905805437403758e-001	 4.270749823667742e+000	 9.083120993944878e+000
 1.522106947873085e-001	 4.272289421890708e+000	 9.101445671320601e+000
 1.139637728509881e-001	 4.273480695929435e+000	 9.120114809159059e+000
 7.584376673652529e-002	 4.274327166122059e+000	 9.141049021552874e+000
 3.785457384283875e-002	 4.274832398029149e+000	 9.166727224518809e+000
 0.000000000000000e+000	 4.275000000000000e+000	 9.200159635240295e+000
 3.863740829648416e-001	 4.282606107040270e+000	 8.996288188981000e+000
 3.472249992428512e-001	 4.285957862594974e+000	 8.990371963226748e+000
 3.081781322089745e-001	 4.288942321698952e+000	 8.980516564876654e+000
 2.692379488131415e-001	 4.291562760457388e+000	 8.965556006521748e+000
 2.304088259315822e-001	 4.293822512977510e+000	 8.945024310933341e+000
 1.916950498488709e-001	 4.295724968835596e+000	 8.919129742888964e+000
 1.531008158135986e-001	 4.297273570556868e+000	 8.888728537622889e+000
 1.146302276663433e-001	 4.298471811110384e+000	 8.855298203034330e+000
 7.628729753856317e-002	 4.299323231421051e+000	 8.820910470958497e+000
 3.807594562098553e-002	 4.299831417900672e+000	 8.788203970829635e+000
 0.000000000000000e+000	 4.300000000000000e+000	 8.760356696951414e+000
 3.886204439169041e-001	 4.307504979755969e+000	 9.027073589480379e+000
 3.492437492432404e-001	 4.310876222261504e+000	 8.990489396166677e+000
 3.099698655406105e-001	 4.313878032871843e+000	 8.945747746730140e+000
 2.708032857295849e-001	 4.316513706739285e+000	 8.891785979074378e+000
 2.317484121333502e-001	 4.318786597355409e+000	 8.828252879742239e+000
 1.928095559567414e-001	 4.320700114003333e+000	 8.755482390199505e+000
 1.539909368393310e-001	 4.322257719222951e+000	 8.674466803892477e+000
 1.152966824812370e-001	 4.323462926291288e+000	 8.586829532571704e+000
 7.673082834026486e-002	 4.324319296720024e+000	 8.494797518508563e+000
 3.829731739895002e-002	 4.324830437772191e+000	 8.401173367215973e+000
 0.000000000000000e+000	 4.324999999999999e+000	 8.309307273128230e+000
 3.908668048684583e-001	 4.332403852471176e+000	 9.064433097177068e+000
 3.512624992430367e-001	 4.335794581927638e+000	 8.996408246060591e+000
 3.117615988716001e-001	 4.338813744044420e+000	 8.915770326454060e+000
 2.723686226453592e-001	 4.341464653020945e+000	 8.821563124041077e+000
 2.330879983344563e-001	 4.343750681733136e+000	 8.713553530170112e+000
 1.939240620639871e-001	 4.345675259170945e+000	 8.592204713109449e+000
 1.548810578645057e-001	 4.347241867888957e+000	 8.458648774148514e+000
 1.159631372956692e-001	 4.348454041472150e+000	 8.314658968417687e+000
 7.717435914163033e-002	 4.349315362018977e+000	 8.162621568395517e+000
 3.851868917673224e-002	 4.349829457643704e+000	 8.005507446015725e+000
 0.000000000000000e+000	 4.350000000000000e+000	 7.846843447088221e+000
 3.931131658195043e-001	 4.357302725185893e+000	 9.108570560353293e+000
 3.532812492422405e-001	 4.360712941593376e+000	 9.008298889605909e+000
 3.135533322019435e-001	 4.363749455216683e+000	 8.890720405038824e+000
 2.739339595604641e-001	 4.366415599302365e+000	 8.754988485961167e+000
 2.344275845349006e-001	 4.368714766110686e+000	 8.600991493805749e+000
 1.950385681706083e-001	 4.370650404338438e+000	 8.429325398817642e+000
 1.557711788891227e-001	 4.372226016554885e+000	 8.241265885584737e+000
 1.166295921096400e-001	 4.373445156652969e+000	 8.038740018683628e+000
 7.761788994265960e-002	 4.374311427317911e+000	 7.824297547771377e+000
 3.874006095433218e-002	 4.374828477515214e+000	 7.601081929357068e+000
 0.000000000000000e+000	 4.374999999999999e+000	 7.372801140244895e+000
 3.953595267700419e-001	 4.382201597900117e+000	 9.139610833498690e+000
 3.552999992408514e-001	 4.385631301258716e+000	 9.023130257115639e+000
 3.153450655316407e-001	 4.388685166388635e+000	 8.905867530202931e+000
 2.754992964748999e-001	 4.391366545583549e+000	 8.787282577781975e+000
 2.357671707346829e-001	 4.393678850488063e+000	 8.666720917786874e+000
 1.961530742766049e-001	 4.395625549505810e+000	 8.543417718906012e+000
 1.566612999131819e-001	 4.397210165220737e+000	 8.416501974302106e+000
 1.172960469231493e-001	 4.398436271833745e+000	 8.285000778315965e+000
 7.806142074335265e-002	 4.399307492616828e+000	 8.147843693438340e+000
 3.896143273174985e-002	 4.399827497386719e+000	 8.003867195043103e+000
 0.000000000000000e+000	 4.400000000000000e+000	 7.851819181611809e+000
 3.976058877200713e-001	 4.407100470613849e+000	 9.123439552074320e+000
 3.573187492388698e-001	 4.410549660923660e+000	 9.035611827384155e+000
 3.171367988606916e-001	 4.413620877560275e+000	 8.951873266514223e+000
 2.770646333886664e-001	 4.416317491864493e+000	 8.871664003342263e+000
 2.371067569338033e-001	 4.418642934865265e+000	 8.794304213948779e+000
 1.972675803819767e-001	 4.420600694673062e+000	 8.718998331924190e+000
 1.575514209366834e-001	 4.422194313886511e+000	 8.644839383392535e+000
 1.179625017361972e-001	 4.423427387014477e+000	 8.570813428455603e+000
 7.850495154370950e-002	 4.424303557915724e+000	 8.495804095945474e+000
 3.918280450898524e-002	 4.424826517258219e+000	 8.418597198588776e+000
 0.000000000000000e+000	 4.425000000000000e+000	 8.337885415930790e+000
 3.998522486695924e-001	 4.431999343327089e+000	 9.106629487973386e+000
 3.593374992362954e-001	 4.435468020588207e+000	 9.048278708299165e+000
 3.189285321890961e-001	 4.438556588731601e+000	 8.998872645216041e+000
 2.786299703017637e-001	 4.441268438145198e+000	 8.957831685283415e+000
 2.384463431322618e-001	 4.443607019242291e+000	 8.924450690958466e+000
 1.983820864867240e-001	 4.445575839840192e+000	 8.897903373847518e+000
 1.584415419596272e-001	 4.447178462552208e+000	 8.877246791536800e+000
 1.186289565487836e-001	 4.448418502195166e+000	 8.861425954302163e+000
 7.894848234373017e-002	 4.449299623214603e+000	 8.849278528187124e+000
 3.940417628603835e-002	 4.449825537129714e+000	 8.839539621161009e+000
 0.000000000000000e+000	 4.449999999999999e+000	 8.830846639321385e+000
 4.020986096186051e-001	 4.456898216039838e+000	 9.089135834024294e+000
 3.613562492331282e-001	 4.460386380252357e+000	 9.061071043176826e+000
 3.207202655168545e-001	 4.463492299902615e+000	 9.046791784541570e+000
 2.801953072141918e-001	 4.466219384425667e+000	 9.045698737447198e+000
 2.397859293300584e-001	 4.468571103619143e+000	 9.057061474585627e+000
 1.994965925908466e-001	 4.470550985007201e+000	 9.080022993704217e+000
 1.593316629820133e-001	 4.472162611217828e+000	 9.113604376763574e+000
 1.192954113609085e-001	 4.473409617375810e+000	 9.156709562455472e+000
 7.939201314341458e-002	 4.474295688513459e+000	 9.208130218169499e+000
 3.962554806290918e-002	 4.474824557001202e+000	 9.266550697726142e+000
 0.000000000000000e+000	 4.474999999999999e+000	 9.330553071453787e+000
 4.043449705671096e-001	 4.481797088752095e+000	 9.070915089460859e+000
 3.633749992293684e-001	 4.485304739916109e+000	 9.073930558679663e+000
 3.225119988439666e-001	 4.488428011073319e+000	 9.095558646184403e+000
 2.817606441259506e-001	 4.491170330705894e+000	 9.135180360490883e+000
 2.411255155271930e-001	 4.493535187995821e+000	 9.192040004088893e+000
 2.006110986943447e-001	 4.495526130174090e+000	 9.265249864086981e+000
 1.602217840038418e-001	 4.497146759883373e+000	 9.353795034235592e+000
 1.199618661725720e-001	 4.498400732556415e+000	 9.456538353812903e+000
 7.983554394276284e-002	 4.499291753812300e+000	 9.572225449060465e+000
 3.984691983959775e-002	 4.499823576872690e+000	 9.699489863090001e+000
 0.000000000000000e+000	 4.500000000000000e+000	 9.836858260450249e+000
 4.500000000000000e+000	 0.000000000000000e+000	 1.143648079614610e+001
 4.499823576872690e+000	 3.984691983959790e-002	 1.130587302277732e+001
 4.499291753812299e+000	 7.983554394276311e-002	 1.117491839530402e+001
 4.498400732556415e+000	 1.199618661725717e-001	 1.104579075748916e+001
 4.497146759883374e+000	 1.602217840038417e-001	 1.092059330023905e+001
 4.495526130174089e+000	 2.006110986943446e-001	 1.080135436241244e+001
 4.493535187995821e+000	 2.411255155271932e-001	 1.069002330209487e+001
 4.491170330705895e+000	 2.817606441259510e-001	 1.058846644976141e+001
 4.488428011073320e+000	 3.225119988439664e-001	 1.049846315490386e+001
 4.485304739916110e+000	 3.633749992293683e-001	 1.042170193781944e+001
 4.481797088752097e+000	 4.043449705671097e-001	 1.035977675834815e+001
 4.525000000000000e+000	 0.000000000000000e+000	 1.123170422928153e+001
 4.524822596744175e+000	 4.006829161619294e-002	 1.112591148668191e+001
 4.524287819111140e+000	 8.027907474193370e-002	 1.101965839871883e+001
 4.523391847737016e+000	 1.206283209839829e-001	 1.091500368895796e+001
 4.522130908548917e+000	 1.611119050253527e-001	 1.081393155807325e+001
 4.520501275340979e+000	 2.017256047974699e-001	 1.071834749652278e+001
 4.518499272372498e+000	 2.424651017239095e-001	 1.063007417410511e+001
 4.516121276986123e+000	 2.833259810372560e-001	 1.055084741803770e+001
 4.513363722244021e+000	 3.243037321705991e-001	 1.048231229134444e+001
 4.510223099579862e+000	 3.653937492251135e-001	 1.042601928345443e+001
 4.506695961464353e+000	 4.065913315151141e-001	 1.038342062499487e+001
 4.550000000000000e+000	 0.000000000000000e+000	 1.104566983232207e+001
 4.549821616615666e+000	 4.028966339278321e-002	 1.096190916716342e+001
 4.549283884409996e+000	 8.072260554108510e-002	 1.087760693044015e+001
 4.548382962917662e+000	 1.212947757953508e-001	 1.079470792428370e+001
 4.547115057214538e+000	 1.620020260467866e-001	 1.071507853806747e+001
 4.545476420507988e+000	 2.028401109004743e-001	 1.064050257149230e+001
 4.543463356749350e+000	 2.438046879204513e-001	 1.057267714097413e+001
 4.541072223266592e+000	 2.848913179483225e-001	 1.051320868119602e+001
 4.538299433415035e+000	 3.260954654969191e-001	 1.046360905382628e+001
 4.535141459244013e+000	 3.674124992204619e-001	 1.042529177551183e+001
 4.531594834177102e+000	 4.088376924626270e-001	 1.039956837732969e+001
 4.574999999999999e+000	 0.000000000000000e+000	 1.087812520544819e+001
 4.574820636487161e+000	 4.051103516936872e-002	 1.081366180928403e+001
 4.574279949708873e+000	 8.116613634021740e-002	 1.074860804413241e+001
 4.573374078098351e+000	 1.219612306066755e-001	 1.068479597197622e+001
 4.572099205880235e+000	 1.628921470681435e-001	 1.062397533184928e+001
 4.570451565675120e+000	 2.039546170033579e-001	 1.056780937187732e+001
 4.568427441126377e+000	 2.451442741168184e-001	 1.051787077104946e+001
 4.566023169547297e+000	 2.864566548591504e-001	 1.047563766280618e+001
 4.563235144586362e+000	 3.278871988229265e-001	 1.044248977266269e+001
 4.560059818908559e+000	 3.694312492154132e-001	 1.041970468218755e+001
 4.556493706890342e+000	 4.110840534096479e-001	 1.040845423172156e+001
 4.600000000000000e+000	 0.000000000000000e+000	 1.072882343579293e+001
 4.599819656358659e+000	 4.073240694594946e-002	 1.068096968074413e+001
 4.599276015007772e+000	 8.160966713933057e-002	 1.063250935373299e+001
 4.598365193279084e+000	 1.226276854179570e-001	 1.058516294078617e+001
 4.597083354546009e+000	 1.637822680894232e-001	 1.054056467397736e+001
 4.595426710842369e+000	 2.050691231061205e-001	 1.050025837097218e+001
 4.593391525503580e+000	 2.464838603130109e-001	 1.046569337073931e+001
 4.590974115828240e+000	 2.880219917697399e-001	 1.043822057774045e+001
 4.588170855758003e+000	 3.296789321486214e-001	 1.041908862703851e+001
 4.584978178573501e+000	 3.714499992099676e-001	 1.040944018285723e+001
 4.581392579604074e+000	 4.133304143561773e-001	 1.041030838318277e+001
 4.624999999999999e+000	 0.000000000000000e+000	 1.059752294914589e+001
 4.624818676230165e+000	 4.095377872252544e-002	 1.056363744964880e+001
 4.624272080306688e+000	 8.205319793842462e-002	 1.052916193722864e+001
 4.623356308459858e+000	 1.232941402291954e-001	 1.049570646942827e+001
 4.622067503211861e+000	 1.646723891106260e-001	 1.046479089753801e+001
 4.620401856009741e+000	 2.061836292087624e-001	 1.043784071219481e+001
 4.618355609880956e+000	 2.478234465090287e-001	 1.041618299159200e+001
 4.615925062109422e+000	 2.895873286800908e-001	 1.040104246484109e+001
 4.613106566929955e+000	 3.314706654740037e-001	 1.039353770314864e+001
 4.609896538238842e+000	 3.734687492041251e-001	 1.039467745155795e+001
 4.606291452318299e+000	 4.155767753022150e-001	 1.040535711405426e+001
 4.650000000000000e+000	 0.000000000000000e+000	 1.048398736644099e+001
 4.649817696101674e+000	 4.117515049909665e-002	 1.046147406621748e+001
 4.649268145605621e+000	 8.249672873749950e-002	 1.043842024353579e+001
 4.648347423640677e+000	 1.239605950403905e-001	 1.041632665857154e+001
 4.647051651877790e+000	 1.655625101317516e-001	 1.039659989117398e+001
 4.645377001177234e+000	 2.072981353112834e-001	 1.038054819107259e+001
 4.643319694258506e+000	 2.491630327048719e-001	 1.036937743714704e+001
 4.640876008390843e+000	 2.911526655902032e-001	 1.036418721853405e+001
 4.638042278102219e+000	 3.332623987990734e-001	 1.036596705046131e+001
 4.634814897904581e+000	 3.754874991978856e-001	 1.037559273777686e+001
 4.631190325033014e+000	 4.178231362477610e-001	 1.039382289918498e+001
 4.675000000000000e+000	 0.000000000000000e+000	 1.038798536484886e+001
 4.674816715973187e+000	 4.139652227566309e-002	 1.037429264828884e+001
 4.674264210904576e+000	 8.294025953655530e-002	 1.036014200236889e+001
 4.673338538821540e+000	 1.246270498515425e-001	 1.034692600501161e+001
 4.672035800543796e+000	 1.664526311528002e-001	 1.033593905749200e+001
 4.670352146344847e+000	 2.084126414136835e-001	 1.032837323780631e+001
 4.668283778636232e+000	 2.505026189005405e-001	 1.032531426956632e+001
 4.665826954672503e+000	 2.927180025000771e-001	 1.032773761942835e+001
 4.662977989274797e+000	 3.350541321238305e-001	 1.033650473617592e+001
 4.659733257570715e+000	 3.775062491912492e-001	 1.035235944464778e+001
 4.656089197748221e+000	 4.200694971928152e-001	 1.037592450773647e+001
 4.699999999999999e+000	 0.000000000000000e+000	 1.030929054330243e+001
 4.699815735844708e+000	 4.161789405222478e-002	 1.030191037047988e+001
 4.699260276203549e+000	 8.338379033559194e-002	 1.029418813698498e+001
 4.698329654002444e+000	 1.252935046626512e-001	 1.028740933794396e+001
 4.697019949209880e+000	 1.673427521737716e-001	 1.028275727279786e+001
 4.695327291512582e+000	 2.095271475159629e-001	 1.028130890039050e+001
 4.693247863014131e+000	 2.518422050960345e-001	 1.028403081605385e+001
 4.690777900954401e+000	 2.942833394097125e-001	 1.029177536393886e+001
 4.687913700447686e+000	 3.368458654482751e-001	 1.030527689794302e+001
 4.684651617237247e+000	 3.795249991842158e-001	 1.032514820465199e+001
 4.680988070463921e+000	 4.223158581373777e-001	 1.035187710173840e+001
 4.725000000000000e+000	 0.000000000000000e+000	 1.024768129229161e+001
 4.724814755716230e+000	 4.183926582878168e-002	 1.024414835686370e+001
 4.724256341502540e+000	 8.382732113460945e-002	 1.024042267969857e+001
 4.723320769183393e+000	 1.259599594737167e-001	 1.023768375726021e+001
 4.722004097876039e+000	 1.682328731946661e-001	 1.023700484810958e+001
 4.720302436680437e+000	 2.106416536181213e-001	 1.023934882826973e+001
 4.718211947392206e+000	 2.531817912913539e-001	 1.024556417507146e+001
 4.715728847236537e+000	 2.958486763191094e-001	 1.025638109296868e+001
 4.712849411620889e+000	 3.386375987724070e-001	 1.027240779491056e+001
 4.709569976904174e+000	 3.815437491767853e-001	 1.029412695291601e+001
 4.705886943180112e+000	 4.245622190814485e-001	 1.032189233151533e+001
 4.750000000000000e+000	 0.000000000000000e+000	 1.020294066776966e+001
 4.749813775587761e+000	 4.206063760533384e-002	 1.020083157703655e+001
 4.749252406801552e+000	 8.427085193360784e-002	 1.019871269006421e+001
 4.748311884364385e+000	 1.266264142847391e-001	 1.019765857379298e+001
 4.746988246542277e+000	 1.691229942154834e-001	 1.019863349140189e+001
 4.745277581848414e+000	 2.117561597201589e-001	 1.020248725651097e+001
 4.743176031770457e+000	 2.545213774864986e-001	 1.020995122235837e+001
 4.740679793518913e+000	 2.974140132282679e-001	 1.022163441968581e+001
 4.737785122794405e+000	 3.404293320962264e-001	 1.023801985715815e+001
 4.734488336571500e+000	 3.835624991689580e-001	 1.025946099819453e+001
 4.730785815896796e+000	 4.268085800250276e-001	 1.028617842810000e+001
 4.481797088752097e+000	 4.043449705671097e-001	 1.035977675834815e+001
 4.477901692461161e+000	 4.454171445002335e-001	 1.043796518387649e+001
 4.473615251955685e+000	 4.865866597290443e-001	 1.051997462423037e+001
 4.468934536857284e+000	 5.278485627910551e-001	 1.060599754799759e+001
 4.463856388177794e+000	 5.691978089245400e-001	 1.069610942802611e+001
 4.458377721001112e+000	 6.106292630141444e-001	 1.079026663478047e+001
 4.452495527163421e+000	 6.521377006203358e-001	 1.069967734746525e+001
 4.446206877929084e+000	 6.937178090935396e-001	 1.051977031120325e+001
 4.439508926659324e+000	 7.353641887737125e-001	 1.035121068468579e+001
 4.432398911470851e+000	 7.770713542760019e-001	 1.019306380494790e+001
 4.424874157881446e+000	 8.188337358630459e-001	 1.004430157955426e+001
 4.506695961464353e+000	 4.065913315151141e-001	 1.038342062499487e+001
 4.502778924082358e+000	 4.478916841926803e-001	 1.046051194280681e+001
 4.498468670018098e+000	 4.892899189508039e-001	 1.054077053576532e+001
 4.493761950946638e+000	 5.307810548077605e-001	 1.062435160704702e+001
 4.488655590329879e+000	 5.723600189753691e-001	 1.071129143843717e+001
 4.483146486113297e+000	 6.140216478098557e-001	 1.080150529032234e+001
 4.477231613421060e+000	 6.557606878470222e-001	 1.069906519150272e+001
 4.470908027246774e+000	 6.975717969225734e-001	 1.053651774418798e+001
 4.464172865137007e+000	 7.394495453783541e-001	 1.038404035884024e+001
 4.457023349864672e+000	 7.813884173551499e-001	 1.024069799793562e+001
 4.449456792089316e+000	 8.233828121726123e-001	 1.010546198468810e+001
 4.531594834177102e+000	 4.088376924626270e-001	 1.039956837732969e+001
 4.527656155704141e+000	 4.503662238845501e-001	 1.047552051603787e+001
 4.523322088081165e+000	 4.919931781719293e-001	 1.055402823204732e+001
 4.518589365036693e+000	 5.337135468238041e-001	 1.063520944502095e+001
 4.513454792482697e+000	 5.755222290255383e-001	 1.071906118052207e+001
 4.507915251226233e+000	 6.174140326049386e-001	 1.080545747590242e+001
 4.501967699679440e+000	 6.593836750731418e-001	 1.069466208184129e+001
 4.495609176565180e+000	 7.014257847511327e-001	 1.054876339031770e+001
 4.488836803615358e+000	 7.435349019826434e-001	 1.041168981838764e+001
 4.481647788259091e+000	 7.857054804340988e-001	 1.028250701171032e+001
 4.474039426297694e+000	 8.279318884821644e-001	 1.016018674826989e+001
 4.556493706890342e+000	 4.110840534096479e-001	 1.040845423172156e+001
 4.552533387326506e+000	 4.528407635758423e-001	 1.048323525429720e+001
 4.548175506144884e+000	 4.946964373924208e-001	 1.056000218416738e+001
 4.543416779127454e+000	 5.366460388391861e-001	 1.063883563282250e+001
 4.538253994636254e+000	 5.786844390750475e-001	 1.071969329767364e+001
 4.532684016339916e+000	 6.208064173993930e-001	 1.080240787309649e+001
 4.526703785938562e+000	 6.630066622986948e-001	 1.068646774266824e+001
 4.520310325884299e+000	 7.052797725792170e-001	 1.055649729040839e+001
 4.513500742094372e+000	 7.476202585865805e-001	 1.043413929496698e+001
 4.506272226654104e+000	 7.900225435128486e-001	 1.031846114847711e+001
 4.498622060506580e+000	 8.324809647917016e-001	 1.020843612843169e+001
 4.581392579604074e+000	 4.133304143561773e-001	 1.041030838318277e+001
 4.577410618949450e+000	 4.553153032665570e-001	 1.048389640353332e+001
 4.573028924209256e+000	 4.973996966122780e-001	 1.055894268060464e+001
 4.568244193218922e+000	 5.395785308539063e-001	 1.063549048658575e+001
 4.563053196790550e+000	 5.818466491238972e-001	 1.071345811211817e+001
 4.557452781454350e+000	 6.241988021932194e-001	 1.079263678175794e+001
 4.551439872198428e+000	 6.666296495236814e-001	 1.067447746181463e+001
 4.545011475204132e+000	 7.091337604068270e-001	 1.055970500028525e+001
 4.538164680574053e+000	 7.517056151901649e-001	 1.045136449266689e+001
 4.530896665049717e+000	 7.943396065913994e-001	 1.034852614647903e+001
 4.523204694715974e+000	 8.370300411012241e-001	 1.025016578915046e+001
 4.606291452318299e+000	 4.155767753022150e-001	 1.040535711405426e+001
 4.602287850572980e+000	 4.577898429566946e-001	 1.047774021585560e+001
 4.597882342274283e+000	 5.001029558315012e-001	 1.055109594026994e+001
 4.593071607311094e+000	 5.425110228679648e-001	 1.062543018266953e+001
 4.587852398945581e+000	 5.850088591720870e-001	 1.070062174170365e+001
 4.582221546569533e+000	 6.275911869864177e-001	 1.076511579904413e+001
 4.576175958459033e+000	 6.702526367481011e-001	 1.065868221065674e+001
 4.569712624524680e+000	 7.129877482339619e-001	 1.055836771199860e+001
 4.562828619054401e+000	 7.557909717933975e-001	 1.046333671039181e+001
 4.555521103445927e+000	 7.986566696697511e-001	 1.037266330334747e+001
 4.547787328925875e+000	 8.415791174107322e-001	 1.028532692441434e+001
 4.631190325033014e+000	 4.178231362477610e-001	 1.039382289918498e+001
 4.627165082197091e+000	 4.602643826462549e-001	 1.046499905689566e+001
 4.622735760339963e+000	 5.028062150500903e-001	 1.053670422190282e+001
 4.617899021403972e+000	 5.454435148813617e-001	 1.060890686894158e+001
 4.612651601101352e+000	 5.881710692196168e-001	 1.068144621292065e+001
 4.606990311685467e+000	 6.309835717789875e-001	 1.073067251551630e+001
 4.600912044720382e+000	 6.738756239719543e-001	 1.063906876014986e+001
 4.594413773845941e+000	 7.168417360606222e-001	 1.055246237112980e+001
 4.587492557535411e+000	 7.598763283962775e-001	 1.047002296028104e+001
 4.580145541842733e+000	 8.029737327479041e-001	 1.039082959547348e+001
 4.572369963136282e+000	 8.461281937202254e-001	 1.031386637838368e+001
 4.656089197748221e+000	 4.200694971928152e-001	 1.037592450773647e+001
 4.652042313821781e+000	 4.627389223352377e-001	 1.044590150972378e+001
 4.647589178406296e+000	 5.055094742680454e-001	 1.051600592995850e+001
 4.642726435497553e+000	 5.483760068940968e-001	 1.058616877249235e+001
 4.637450803257858e+000	 5.913332792664869e-001	 1.065618957029703e+001
 4.631759076802149e+000	 6.343759565709292e-001	 1.069318417183449e+001
 4.625648130982473e+000	 6.774986111952410e-001	 1.061561979313895e+001
 4.619114923167915e+000	 7.206957238868077e-001	 1.054196179033302e+001
 4.612156496017089e+000	 7.639616849988052e-001	 1.047138608232793e+001
 4.604769980240135e+000	 8.072907958258577e-001	 1.040297779354883e+001
 4.596952597347198e+000	 8.506772700297042e-001	 1.033572676169653e+001
 4.680988070463921e+000	 4.223158581373777e-001	 1.035187710173840e+001
 4.676919545447057e+000	 4.652134620236433e-001	 1.042067247544899e+001
 4.672442596473283e+000	 5.082127334853662e-001	 1.048923571711536e+001
 4.667553849591841e+000	 5.513084989061704e-001	 1.055746030391086e+001
 4.662250005415101e+000	 5.944954893126971e-001	 1.062510598230104e+001
 4.656527841919582e+000	 6.377683413622425e-001	 1.065263928242461e+001
 4.650384217245303e+000	 6.811215984179608e-001	 1.058831401308501e+001
 4.643816072490604e+000	 7.245497117125186e-001	 1.052683475925361e+001
 4.636820434499433e+000	 7.680470416009809e-001	 1.046738485534139e+001
 4.629394418638134e+000	 8.116078589036125e-001	 1.040905657441977e+001
 4.621535231558619e+000	 8.552263463391679e-001	 1.035084656406237e+001
 4.705886943180112e+000	 4.245622190814485e-001	 1.032189233151533e+001
 4.701796777072913e+000	 4.676880017114715e-001	 1.038953327062549e+001
 4.697296014540922e+000	 5.109159927020530e-001	 1.045662458352835e+001
 4.692381263686833e+000	 5.542409909175822e-001	 1.052302215825046e+001
 4.687049207573082e+000	 5.976576993582475e-001	 1.058844584388270e+001
 4.681296607037764e+000	 6.411607261529279e-001	 1.060902253531326e+001
 4.675120303508878e+000	 6.847445856401142e-001	 1.055712624933979e+001
 4.668517221814007e+000	 7.284036995377544e-001	 1.050704615095692e+001
 4.661484372982444e+000	 7.721323982028043e-001	 1.045797410438452e+001
 4.654018857036731e+000	 8.159249219811683e-001	 1.040901062938983e+001
 4.646117865770552e+000	 8.597754226486175e-001	 1.035916026328131e+001
 4.730785815896796e+000	 4.268085800250276e-001	 1.028617842810000e+001
 4.726674008699353e+000	 4.701625413987225e-001	 1.035270172158296e+001
 4.722149432609216e+000	 5.136192519181058e-001	 1.041839997294803e+001
 4.717208677782531e+000	 5.571734829283322e-001	 1.048309141280600e+001
 4.711848409731801e+000	 6.008199094031381e-001	 1.054645587577683e+001
 4.706065372156695e+000	 6.445531109429850e-001	 1.056231489282243e+001
 4.699856389773195e+000	 6.883675728617011e-001	 1.052202755909599e+001
 4.693218371138125e+000	 7.322576873625162e-001	 1.048255702499614e+001
 4.686148311466118e+000	 7.762177548042752e-001	 1.044310480482056e+001
 4.678643295435926e+000	 8.202419850585251e-001	 1.040278076910250e+001
 4.670700499982989e+000	 8.643244989580522e-001	 1.036059843082071e+001
 4.424874157881446e+000	 8.188337358630459e-001	 1.004430157955426e+001
 4.416932081439071e+000	 8.606456809043407e-001	 1.021512839791436e+001
 4.408570190332767e+000	 9.025014554232427e-001	 1.036994995648151e+001
 4.399786087981418e+000	 9.443952457313434e-001	 1.050565672603514e+001
 4.390577475596269e+000	 9.863211601505711e-001	 1.061902115318602e+001
 4.380942154715376e+000	 1.028273230823133e+000	 1.070669550119365e+001
 4.370878029706319e+000	 1.070245415609068e+000	 1.076110494627378e+001
 4.360383110233927e+000	 1.112231600071145e+000	 1.077632591358930e+001
 4.349455513689765e+000	 1.154225599546729e+000	 1.075800687020981e+001
 4.338093467580077e+000	 1.196221161306078e+000	 1.070711057101298e+001
 4.326295311868889e+000	 1.238211966796443e+000	 1.062502458468339e+001
 4.449456792089316e+000	 8.233828121726123e-001	 1.010546198468810e+001
 4.441470593000705e+000	 8.654270457968737e-001	 1.025879623085335e+001
 4.433062246944354e+000	 9.075153523960031e-001	 1.039661402557890e+001
 4.424229344024801e+000	 9.496418859833248e-001	 1.051592349966918e+001
 4.414969572682244e+000	 9.918007221492236e-001	 1.061361471769810e+001
 4.405280722241064e+000	 1.033985859881143e+000	 1.068645734876099e+001
 4.395160685426433e+000	 1.076191223471678e+000	 1.073109847719376e+001
 4.384607460845764e+000	 1.118410664514506e+000	 1.074406056590548e+001
 4.373619155431682e+000	 1.160637963987752e+000	 1.072063043883327e+001
 4.362193986843246e+000	 1.202866834424291e+000	 1.065283442248636e+001
 4.350330285822056e+000	 1.245090922168304e+000	 1.055047088089162e+001
 4.474039426297694e+000	 8.279318884821644e-001	 1.016018674826989e+001
 4.466009104562758e+000	 8.702084106895727e-001	 1.029765670835734e+001
 4.457554303556283e+000	 9.125292493690713e-001	 1.042012187292166e+001
 4.448672600068478e+000	 9.548885262357172e-001	 1.052470796887893e+001
 4.439361669768483e+000	 9.972802841483512e-001	 1.060842258337512e+001
 4.429619289767003e+000	 1.039698488939652e+000	 1.066815266331417e+001
 4.419443341146805e+000	 1.082137031334772e+000	 1.070066215220218e+001
 4.408831811457884e+000	 1.124589728958293e+000	 1.070258977726284e+001
 4.397782797173934e+000	 1.167050328429105e+000	 1.067044699988958e+001
 4.386294506106820e+000	 1.209512507542697e+000	 1.060061614256916e+001
 4.374365259775718e+000	 1.251969877540177e+000	 1.050707130284805e+001
 4.498622060506580e+000	 8.324809647917016e-001	 1.020843612843169e+001
 4.490547616125227e+000	 8.749897755824375e-001	 1.033162381704285e+001
 4.482046360168561e+000	 9.175431463424479e-001	 1.044034133447535e+001
 4.473115856112449e+000	 9.601351664885212e-001	 1.053183196260379e+001
 4.463753766854984e+000	 1.002759846147954e+000	 1.060322073863936e+001
 4.453957857293191e+000	 1.045411117998660e+000	 1.065151178225513e+001
 4.443725996867436e+000	 1.088082839198348e+000	 1.067358575739692e+001
 4.433056162070295e+000	 1.130768793402506e+000	 1.066619748204714e+001
 4.421946438916522e+000	 1.173462692870788e+000	 1.062597369933357e+001
 4.410395025370796e+000	 1.216158180661293e+000	 1.054941102345736e+001
 4.398400233729874e+000	 1.258848832912064e+000	 1.050816928343975e+001
 4.523204694715974e+000	 8.370300411012241e-001	 1.025016578915046e+001
 4.515086127688112e+000	 8.797711404754689e-001	 1.036060771064873e+001
 4.506538416781186e+000	 9.225570433161329e-001	 1.045713717608528e+001
 4.497559112156714e+000	 9.653818067417361e-001	 1.053711500359353e+001
 4.488145863941748e+000	 1.008239408148032e+000	 1.059778363051575e+001
 4.478296424819630e+000	 1.051123747058167e+000	 1.063626426692620e+001
 4.468008652588325e+000	 1.094028647062409e+000	 1.064955418122932e+001
 4.457280512682991e+000	 1.136947857847147e+000	 1.063452413141600e+001
 4.446110080659444e+000	 1.179875057312801e+000	 1.058791595570016e+001
 4.434495544635175e+000	 1.222803853780082e+000	 1.050634033635271e+001
 4.422435207684522e+000	 1.265727788283963e+000	 1.051120711706956e+001
 4.547787328925875e+000	 8.415791174107322e-001	 1.028532692441434e+001
 4.539624639251415e+000	 8.845525053686660e-001	 1.038451481362738e+001
 4.531030473394155e+000	 9.275709402901259e-001	 1.047037117645269e+001
 4.522002368201274e+000	 9.706284469953628e-001	 1.054037437073772e+001
 4.512537961028774e+000	 1.013718970148584e+000	 1.059188420629124e+001
 4.502634992346319e+000	 1.056836376118173e+000	 1.062213892358474e+001
 4.492291308309473e+000	 1.099974454926952e+000	 1.062825230193751e+001
 4.481504863295973e+000	 1.143126922292215e+000	 1.060721091108830e+001
 4.470273722402700e+000	 1.186287421755143e+000	 1.055587152020916e+001
 4.458596063899961e+000	 1.229449526899063e+000	 1.047095867852493e+001
 4.446470181639666e+000	 1.272606743655874e+000	 1.051631209175673e+001
 4.572369963136282e+000	 8.461281937202254e-001	 1.031386637838368e+001
 4.564163150815135e+000	 8.893338702620293e-001	 1.040324792139443e+001
 4.555522530007471e+000	 9.325848372644270e-001	 1.047990220743432e+001
 4.546445624246128e+000	 9.758750872494004e-001	 1.054142515938451e+001
 4.536930058116062e+000	 1.019198532149612e+000	 1.058529395383038e+001
 4.526973559873261e+000	 1.062549005178678e+000	 1.060886382370110e+001
 4.516573964030878e+000	 1.105920262791978e+000	 1.060936498782088e+001
 4.505729213909241e+000	 1.149305986737708e+000	 1.058389972159791e+001
 4.494437364146294e+000	 1.192699786197815e+000	 1.052943958324316e+001
 4.482696583165150e+000	 1.236095200018235e+000	 1.044282281003325e+001
 4.470505155595303e+000	 1.279485699027798e+000	 1.052342067497264e+001
 4.596952597347198e+000	 8.506772700297042e-001	 1.033572676169653e+001
 4.588701662379272e+000	 8.941152351555588e-001	 1.041670629736171e+001
 4.580014586621130e+000	 9.375987342390362e-001	 1.048558631176551e+001
 4.570888880291276e+000	 9.811217275038490e-001	 1.054008033972418e+001
 4.561322155203613e+000	 1.024678094151114e+000	 1.057778294059724e+001
 4.551312127400451e+000	 1.068261634239683e+000	 1.059616632360526e+001
 4.540856619752543e+000	 1.111866070657487e+000	 1.059257709750589e+001
 4.529953564522796e+000	 1.155485051183629e+000	 1.056423315918098e+001
 4.518601005890221e+000	 1.199112150640817e+000	 1.050822073586712e+001
 4.506797102430744e+000	 1.242740873137600e+000	 1.042149159589778e+001
 4.494540129551432e+000	 1.286364654399735e+000	 1.053247214241658e+001
 4.621535231558619e+000	 8.552263463391679e-001	 1.035084656406237e+001
 4.613240173943826e+000	 8.988966000492542e-001	 1.042478576687359e+001
 4.604506643235138e+000	 9.426126312139539e-001	 1.048727677830278e+001
 4.595332136336720e+000	 9.863683677587093e-001	 1.053615081330919e+001
 4.585714252291426e+000	 1.030157656153092e+000	 1.056911985143207e+001
 4.575650694927891e+000	 1.073974263301186e+000	 1.058377308350659e+001
 4.565139275474467e+000	 1.117811878523479e+000	 1.057757348020326e+001
 4.554177915136639e+000	 1.161664115629977e+000	 1.054785449727327e+001
 4.542764647634484e+000	 1.205524515084149e+000	 1.049181693257627e+001
 4.530897621696742e+000	 1.249386546257156e+000	 1.040652595011658e+001
 4.518575103508055e+000	 1.293243609771683e+000	 1.054340850332891e+001
 4.646117865770552e+000	 8.597754226486175e-001	 1.035916026328131e+001
 4.637778685508796e+000	 9.036779649431156e-001	 1.042737880816113e+001
 4.628998699849491e+000	 9.476265281891795e-001	 1.048482421487778e+001
 4.619775392382458e+000	 9.916150080139811e-001	 1.052944546778016e+001
 4.610106349379503e+000	 1.035637218155545e+000	 1.055907202512862e+001
 4.599989262455583e+000	 1.079686892363189e+000	 1.057141008590973e+001
 4.589421931196649e+000	 1.123757686389955e+000	 1.056403897595713e+001
 4.578402265750768e+000	 1.167843180076751e+000	 1.053440766859472e+001
 4.566928289379082e+000	 1.211936879527810e+000	 1.047983145522649e+001
 4.554998140963142e+000	 1.256032219376903e+000	 1.042804918856364e+001
 4.542610077465175e+000	 1.300122565143645e+000	 1.055617442817504e+001
 4.670700499982989e+000	 8.643244989580522e-001	 1.036059843082071e+001
 4.662317197074184e+000	 9.084593298371435e-001	 1.042437464042397e+001
 4.653490756464190e+000	 9.526404251647136e-001	 1.047807661885059e+001
 4.644218648428491e+000	 9.968616482696640e-001	 1.051977122986341e+001
 4.634498446467842e+000	 1.041116780158473e+000	 1.054740548985642e+001
 4.624327829983526e+000	 1.085399521425691e+000	 1.055880265344891e+001
 4.613704586919089e+000	 1.129703494256913e+000	 1.055165841588621e+001
 4.602626616365184e+000	 1.174022244523953e+000	 1.052353724779997e+001
 4.591091931124016e+000	 1.218349243971801e+000	 1.047186887810374e+001
 4.579098660229949e+000	 1.262677892496843e+000	 1.045274043215666e+001
 4.566645051422785e+000	 1.307001520515620e+000	 1.057071717861324e+001
 4.326295311868889e+000	 1.238211966796443e+000	 1.062502458468339e+001
 4.314059501273209e+000	 1.280191633970678e+000	 1.052507404647052e+001
 4.301384607506363e+000	 1.322153719700637e+000	 1.054620365203536e+001
 4.288269321466461e+000	 1.364091722274012e+000	 1.056860833168057e+001
 4.274712455367262e+000	 1.405999083972017e+000	 1.059216187784554e+001
 4.260712944807515e+000	 1.447869193727904e+000	 1.061670264700113e+001
 4.246269850775702e+000	 1.489695389864481e+000	 1.064203394096876e+001
 4.231382361586969e+000	 1.531470962909008e+000	 1.066792448195229e+001
 4.216049794749047e+000	 1.573189158483706e+000	 1.069410898173249e+001
 4.200271598754028e+000	 1.614843180269973e+000	 1.072028880519903e+001
 4.184047354792891e+000	 1.656426193044263e+000	 1.074613272811211e+001
 4.350330285822056e+000	 1.245090922168304e+000	 1.055047088089162e+001
 4.338026498500345e+000	 1.287303809716620e+000	 1.051611445006108e+001
 4.325281188656641e+000	 1.329499018145727e+000	 1.053156189112148e+001
 4.312093039916264e+000	 1.371670009622690e+000	 1.054928800774997e+001
 4.298460857894163e+000	 1.413810189996952e+000	 1.056913514918921e+001
 4.284383572275750e+000	 1.455912911473615e+000	 1.059090859295416e+001
 4.269860238832774e+000	 1.497971475366166e+000	 1.061437694937204e+001
 4.254890041371023e+000	 1.539979134927016e+000	 1.063927266297382e+001
 4.239472293606604e+000	 1.581929098254062e+000	 1.066529261119381e+001
 4.223606440967679e+000	 1.623814531271376e+000	 1.069209880055124e+001
 4.207292062318510e+000	 1.665628560781946e+000	 1.071931916019742e+001
 4.374365259775718e+000	 1.251969877540177e+000	 1.050707130284805e+001
 4.361993495728061e+000	 1.294415985462394e+000	 1.051296449437898e+001
 4.349177769807554e+000	 1.336844316590506e+000	 1.052229181932247e+001
 4.335916758366730e+000	 1.379248296970956e+000	 1.053490317544768e+001
 4.322209260421725e+000	 1.421621296021412e+000	 1.055060941681368e+001
 4.308054199744611e+000	 1.463956629218827e+000	 1.056918268239191e+001
 4.293450626890412e+000	 1.506247560867369e+000	 1.059035682395255e+001
 4.278397721155549e+000	 1.548487306944598e+000	 1.061382793396095e+001
 4.262894792464511e+000	 1.590669038024090e+000	 1.063925497394755e+001
 4.246941283181525e+000	 1.632785882272589e+000	 1.066626050352427e+001
 4.230536769844139e+000	 1.674830928519619e+000	 1.069443150992193e+001
 4.398400233729874e+000	 1.258848832912064e+000	 1.050816928343975e+001
 4.385960492956355e+000	 1.301528161207999e+000	 1.051521387932531e+001
 4.373074350959102e+000	 1.344189615034976e+000	 1.051831687281227e+001
 4.359740476817858e+000	 1.386826584318810e+000	 1.052538791709606e+001
 4.345957662949947e+000	 1.429432402045397e+000	 1.053652954968212e+001
 4.331724827214101e+000	 1.472000346963540e+000	 1.055148070619627e+001
 4.317041014948612e+000	 1.514523646368089e+000	 1.056994040740317e+001
 4.301905400940546e+000	 1.556995478961755e+000	 1.059156831375630e+001
 4.286317291322765e+000	 1.599408977793790e+000	 1.061598538360708e+001
 4.270276125395565e+000	 1.641757233273613e+000	 1.064277463524509e+001
 4.253781477369779e+000	 1.684033296257282e+000	 1.067148201263464e+001
 4.422435207684522e+000	 1.265727788283963e+000	 1.051120711706956e+001
 4.409927490185231e+000	 1.308640336953436e+000	 1.051989863898553e+001
 4.396970932111286e+000	 1.351534913479136e+000	 1.052450348472851e+001
 4.383564195269647e+000	 1.394404871666250e+000	 1.052527158538118e+001
 4.369706065478828e+000	 1.437243508068906e+000	 1.052684276572970e+001
 4.355395454684218e+000	 1.480044064707754e+000	 1.053776062459915e+001
 4.340631403007379e+000	 1.522799731868327e+000	 1.055309653027276e+001
 4.325413080726016e+000	 1.565503650978486e+000	 1.057247362576026e+001
 4.309739790181369e+000	 1.608148917563162e+000	 1.059547477331081e+001
 4.293610967609801e+000	 1.650728584274447e+000	 1.062164334966986e+001
 4.277026184895429e+000	 1.693235663994934e+000	 1.065048414822806e+001
 4.446470181639666e+000	 1.272606743655874e+000	 1.051631209175673e+001
 4.433894487414683e+000	 1.315752512698706e+000	 1.052629077348957e+001
 4.420867513264104e+000	 1.358880211922986e+000	 1.053261422015062e+001
 4.407387913722100e+000	 1.401983159013279e+000	 1.053551109498963e+001
 4.393454468008369e+000	 1.445054614091939e+000	 1.053523818377308e+001
 4.379066082154961e+000	 1.488087782451469e+000	 1.053208101701406e+001
 4.364221791066709e+000	 1.531075817368083e+000	 1.053979595724032e+001
 4.348920760511957e+000	 1.574011822994792e+000	 1.055652544915910e+001
 4.333162289040321e+000	 1.616888857332206e+000	 1.057771565195115e+001
 4.316945809824232e+000	 1.659699935275091e+000	 1.060287019485879e+001
 4.300270892421088e+000	 1.702438031732576e+000	 1.063145260750190e+001
 4.470505155595303e+000	 1.279485699027798e+000	 1.052342067497264e+001
 4.457861484644715e+000	 1.322864688443807e+000	 1.053433570890962e+001
 4.444764094417560e+000	 1.366225510366526e+000	 1.054201626951483e+001
 4.431211632175215e+000	 1.409561446359894e+000	 1.054666980944869e+001
 4.417202870538570e+000	 1.452865720114496e+000	 1.054853176149669e+001
 4.402736709626333e+000	 1.496131500194685e+000	 1.054786618858366e+001
 4.387812179126605e+000	 1.539351902867356e+000	 1.054496638300002e+001
 4.372428440298370e+000	 1.582519995010672e+000	 1.054370707172652e+001
 4.356584787899623e+000	 1.625628797100923e+000	 1.056270206181561e+001
 4.340280652038858e+000	 1.668671286275547e+000	 1.058646007550026e+001
 4.323515599946758e+000	 1.711640399470208e+000	 1.061440325961180e+001
 4.494540129551432e+000	 1.286364654399735e+000	 1.053247214241658e+001
 4.481828481875328e+000	 1.329976864188740e+000	 1.054398152151525e+001
 4.468660675571649e+000	 1.373570808809755e+000	 1.055266653841545e+001
 4.455035350628992e+000	 1.417139733706098e+000	 1.055871348866009e+001
 4.440951273069429e+000	 1.460676826136578e+000	 1.056233651838698e+001
 4.426407337098330e+000	 1.504175217937402e+000	 1.056377830236031e+001
 4.411402567187063e+000	 1.547627988366147e+000	 1.056331067139627e+001
 4.395936120085256e+000	 1.591028167026127e+000	 1.056123518590046e+001
 4.380007286759272e+000	 1.634368736869311e+000	 1.055788365229909e+001
 4.363615494253677e+000	 1.677642637275812e+000	 1.057241921663732e+001
 4.346760307472438e+000	 1.720842767207830e+000	 1.059935312056249e+001
 4.518575103508055e+000	 1.293243609771683e+000	 1.054340850332891e+001
 4.505795479106517e+000	 1.337089039933506e+000	 1.055517886728949e+001
 4.492557256726375e+000	 1.380916107252676e+000	 1.056452435642679e+001
 4.478859069083431e+000	 1.424718021051889e+000	 1.057161015892012e+001
 4.464699675600949e+000	 1.468487932158184e+000	 1.057662919685080e+001
 4.450077964570954e+000	 1.512218935679619e+000	 1.057980283248629e+001
 4.434992955248088e+000	 1.555904073864455e+000	 1.058138152412486e+001
 4.419443799872613e+000	 1.599536339041156e+000	 1.058164542815416e+001
 4.403429785619270e+000	 1.643108676637371e+000	 1.058090494404115e+001
 4.386950336468694e+000	 1.686613988275887e+000	 1.057950119904769e+001
 4.370005014998127e+000	 1.730045134945440e+000	 1.058632032270648e+001
 4.542610077465175e+000	 1.300122565143645e+000	 1.055617442817504e+001
 4.529762476338289e+000	 1.344201215678103e+000	 1.056788091368247e+001
 4.516453837881738e+000	 1.388261405695286e+000	 1.057755141297663e+001
 4.502682787538535e+000	 1.432296308397268e+000	 1.058533005296222e+001
 4.488448078133128e+000	 1.476299038179315e+000	 1.059138859056715e+001
 4.473748592044207e+000	 1.520262653421338e+000	 1.059592714751872e+001
 4.458583343309677e+000	 1.564180159362281e+000	 1.059917489482983e+001
 4.442951479660441e+000	 1.608044511055760e+000	 1.060139068358451e+001
 4.426852284479617e+000	 1.651848616405103e+000	 1.060286361867368e+001
 4.410285178683902e+000	 1.695585339275773e+000	 1.060391357220913e+001
 4.393249722523829e+000	 1.739247502683042e+000	 1.060489163343287e+001
 4.566645051422785e+000	 1.307001520515620e+000	 1.057071717861324e+001
 4.553729473570638e+000	 1.351313391422532e+000	 1.058204327352008e+001
 4.540350419037734e+000	 1.395606704137587e+000	 1.059171169524482e+001
 4.526506505994300e+000	 1.439874595742233e+000	 1.059984555189271e+001
 4.512196480665969e+000	 1.484110144199970e+000	 1.060659549050640e+001
 4.497419219518086e+000	 1.528306371162558e+000	 1.061214046057648e+001
 4.482173731371831e+000	 1.572456244859625e+000	 1.061668842739570e+001
 4.466459159448741e+000	 1.616552683069939e+000	 1.062047703178013e+001
 4.450274783340313e+000	 1.660588556172508e+000	 1.062377419274174e+001
 4.433620020899308e+000	 1.704556690275469e+000	 1.062687864977252e+001
 4.416494430049541e+000	 1.748449870420633e+000	 1.063012044148900e+001
 4.184047354792891e+000	 1.656426193044263e+000	 1.074613272811211e+001
 4.167376778389714e+000	 1.697931325783844e+000	 1.073474669594539e+001
 4.150259720952576e+000	 1.739351674839182e+000	 1.073294186680641e+001
 4.132696171238480e+000	 1.780680307170585e+000	 1.074046001565729e+001
 4.114686256729197e+000	 1.821910263647759e+000	 1.075700618993801e+001
 4.096230244915354e+000	 1.863034562408459e+000	 1.078224965966546e+001
 4.077328544486139e+000	 1.904046202273650e+000	 1.077767448724515e+001
 4.057981706422046e+000	 1.944938166216198e+000	 1.076575454876623e+001
 4.038190424988224e+000	 1.985703424879969e+000	 1.076233041069623e+001
 4.017955538626072e+000	 2.026334940146126e+000	 1.076750990455172e+001
 3.997278030740859e+000	 2.066825668743275e+000	 1.078137873918602e+001
 4.207292062318510e+000	 1.665628560781946e+000	 1.071931916019742e+001
 4.190528871602665e+000	 1.707364277590921e+000	 1.071169174748862e+001
 4.173316719402627e+000	 1.749014739695385e+000	 1.071312099655729e+001
 4.155655594412936e+000	 1.790572975538764e+000	 1.072332954733357e+001
 4.137545624823596e+000	 1.832031987328928e+000	 1.074200337111024e+001
 4.118987079611292e+000	 1.873384754415510e+000	 1.076879276107871e+001
 4.099980369735707e+000	 1.914624236724039e+000	 1.075222674132256e+001
 4.080526049238336e+000	 1.955743378243896e+000	 1.074128147214681e+001
 4.060624816241361e+000	 1.996735110566970e+000	 1.073816777577017e+001
 4.040277513844186e+000	 2.037592356473766e+000	 1.074299527619132e+001
 4.019485130915437e+000	 2.078308033563603e+000	 1.075585190281378e+001
 4.230536769844139e+000	 1.674830928519619e+000	 1.069443150992193e+001
 4.213680964815437e+000	 1.716797229398172e+000	 1.069072152894650e+001
 4.196373717852327e+000	 1.758677804551920e+000	 1.069555908771670e+001
 4.178615017586889e+000	 1.800465643907400e+000	 1.070864739170725e+001
 4.160404992917361e+000	 1.842153711010651e+000	 1.072965302039463e+001
 4.141743914306484e+000	 1.883734946423183e+000	 1.074714594379404e+001
 4.122632194984438e+000	 1.925202271175087e+000	 1.073018888290510e+001
 4.103070392053720e+000	 1.966548590272260e+000	 1.072028156403472e+001
 4.083059207493538e+000	 2.007766796254614e+000	 1.071755634931435e+001
 4.062599489061308e+000	 2.048849772801994e+000	 1.072212464379060e+001
 4.041692231089015e+000	 2.089790398384435e+000	 1.073407657300839e+001
 4.253781477369779e+000	 1.684033296257282e+000	 1.067148201263464e+001
 4.236833058028028e+000	 1.726230181205598e+000	 1.067185032535566e+001
 4.219430716301676e+000	 1.768340869408785e+000	 1.068027233323828e+001
 4.201574440760344e+000	 1.810358312276495e+000	 1.069643150443968e+001
 4.183264361010494e+000	 1.852275434692931e+000	 1.071997470754743e+001
 4.164500749000932e+000	 1.894085138431479e+000	 1.072667523242906e+001
 4.145284020232332e+000	 1.935780305626794e+000	 1.071145357244453e+001
 4.125614734868195e+000	 1.977353802301289e+000	 1.070264544058757e+001
 4.105493598744756e+000	 2.018798481942899e+000	 1.070038456988673e+001
 4.084921464277438e+000	 2.060107189130810e+000	 1.070478413504901e+001
 4.063899331261593e+000	 2.101272763205771e+000	 1.071593643346202e+001
 4.277026184895429e+000	 1.693235663994934e+000	 1.065048414822806e+001
 4.259985151240440e+000	 1.735663133013200e+000	 1.065509368443161e+001
 4.242487714750675e+000	 1.778003934265982e+000	 1.066727821058107e+001
 4.224533863933292e+000	 1.820250980646047e+000	 1.068670115122741e+001
 4.206123729102991e+000	 1.862397158375764e+000	 1.071298934160318e+001
 4.187257583694635e+000	 1.904435330440397e+000	 1.070935640025594e+001
 4.167935845479390e+000	 1.946358340079160e+000	 1.069591487932555e+001
 4.148159077681762e+000	 1.988159014330985e+000	 1.068826516731630e+001
 4.127927989995017e+000	 2.029830167631828e+000	 1.068654236954968e+001
 4.107243439492581e+000	 2.071364605460215e+000	 1.069086141905084e+001
 4.086106431433171e+000	 2.112755128027612e+000	 1.070131676085781e+001
 4.300270892421088e+000	 1.702438031732576e+000	 1.063145260750190e+001
 4.283137244452671e+000	 1.745096084820976e+000	 1.064046838244229e+001
 4.265544713199322e+000	 1.787666999123511e+000	 1.065659544699322e+001
 4.247493287105740e+000	 1.830143649016057e+000	 1.067947687239591e+001
 4.228983097194856e+000	 1.872518882059152e+000	 1.070871913467801e+001
 4.210014418387591e+000	 1.914785522449936e+000	 1.069508672612850e+001
 4.190587670725612e+000	 1.956936374532185e+000	 1.068346824378662e+001
 4.170703420494421e+000	 1.998964226361346e+000	 1.067703421991349e+001
 4.150362381244316e+000	 2.040861853321399e+000	 1.067592113350509e+001
 4.129565414706734e+000	 2.082622021790209e+000	 1.068024566460627e+001
 4.108313531603750e+000	 2.124237492849956e+000	 1.069010438181608e+001
 4.323515599946758e+000	 1.711640399470208e+000	 1.061440325961180e+001
 4.306289337664721e+000	 1.754529036628928e+000	 1.062799239118253e+001
 4.288601711647619e+000	 1.797330063981370e+000	 1.064824398591546e+001
 4.270452710277685e+000	 1.840036317386525e+000	 1.067478044863532e+001
 4.251842465286088e+000	 1.882640605743095e+000	 1.069795355080822e+001
 4.232771253079803e+000	 1.925135714460097e+000	 1.068376478816407e+001
 4.213239495970997e+000	 1.967514408985869e+000	 1.067401044006897e+001
 4.193247763306173e+000	 2.009769438392374e+000	 1.066884744634529e+001
 4.172796772492658e+000	 2.051893539011612e+000	 1.066841366103140e+001
 4.151887389919897e+000	 2.093879438120791e+000	 1.067282749993611e+001
 4.130520631773328e+000	 2.135719857672803e+000	 1.068218763122928e+001
 4.346760307472438e+000	 1.720842767207830e+000	 1.059935312056249e+001
 4.329441430876592e+000	 1.763961988437055e+000	 1.061768484600801e+001
 4.311658710095564e+000	 1.806993128839561e+000	 1.064224495446261e+001
 4.293412133449130e+000	 1.849928985757451e+000	 1.067263486783561e+001
 4.274701833376684e+000	 1.892762329427593e+000	 1.068699572381276e+001
 4.255528087771272e+000	 1.935485906470881e+000	 1.067529042900381e+001
 4.235891321215544e+000	 1.978092443440212e+000	 1.066743954074813e+001
 4.215792106117018e+000	 2.020574650424067e+000	 1.066360103015958e+001
 4.195231163740042e+000	 2.062925224702469e+000	 1.066391412767413e+001
 4.174209365132069e+000	 2.105136854451962e+000	 1.066849897365009e+001
 4.152727731941906e+000	 2.147202222496155e+000	 1.067745631193392e+001
 4.370005014998127e+000	 1.730045134945440e+000	 1.058632032270648e+001
 4.352593524088284e+000	 1.773394940245357e+000	 1.060956601488959e+001
 4.334715708543159e+000	 1.816656193698083e+000	 1.063862063194285e+001
 4.316371556620072e+000	 1.859821654128835e+000	 1.067306429298025e+001
 4.297561201466650e+000	 1.902884053112646e+000	 1.067876295876000e+001
 4.278284922461995e+000	 1.945836098482287e+000	 1.066956472218173e+001
 4.258543146459256e+000	 1.988670477895215e+000	 1.066365488220376e+001
 4.238336448926953e+000	 2.031379862456427e+000	 1.066119245496515e+001
 4.217665554986465e+000	 2.073956910393967e+000	 1.066231804864295e+001
 4.196531340343253e+000	 2.116394270783720e+000	 1.066715351697062e+001
 4.174934832109484e+000	 2.158684587320011e+000	 1.067580165566947e+001
 4.393249722523829e+000	 1.739247502683042e+000	 1.060489163343287e+001
 4.375745617299795e+000	 1.782827892053834e+000	 1.060494597522111e+001
 4.357772706990403e+000	 1.826319258556935e+000	 1.063739441937647e+001
 4.339330979790511e+000	 1.869714322500677e+000	 1.067609403105902e+001
 4.320420569555981e+000	 1.913005776798254e+000	 1.067315912032834e+001
 4.301041757151972e+000	 1.956186290494314e+000	 1.066648993956143e+001
 4.281194971702131e+000	 1.999248512350876e+000	 1.066255703118564e+001
 4.260880791735981e+000	 2.042185074489453e+000	 1.066152047003863e+001
 4.240099946231929e+000	 2.084988596086108e+000	 1.066352224337092e+001
 4.218853315553446e+000	 2.127651687116068e+000	 1.066868590715571e+001
 4.197141932276062e+000	 2.170166952144371e+000	 1.067711628527671e+001
 4.416494430049541e+000	 1.748449870420633e+000	 1.063012044148900e+001
 4.398897710511125e+000	 1.792260843862486e+000	 1.063922486311429e+001
 4.380829705437297e+000	 1.835982323416121e+000	 1.064863030103382e+001
 4.362290402960451e+000	 1.879606990872977e+000	 1.067622828465372e+001
 4.343279937644680e+000	 1.923127500484417e+000	 1.067008921196196e+001
 4.323798591841205e+000	 1.966536482506963e+000	 1.066596951980111e+001
 4.303846796944172e+000	 2.009826546807197e+000	 1.066404775243557e+001
 4.283425134544102e+000	 2.052990286523145e+000	 1.066448505701736e+001
 4.262534337476436e+000	 2.096020281778892e+000	 1.066742480119277e+001
 4.241175290762651e+000	 2.138909103449004e+000	 1.067299223207698e+001
 4.219349032441642e+000	 2.181649316969236e+000	 1.068129417808977e+001
 3.997278030740859e+000	 2.066825668743275e+000	 1.078137873918602e+001
 3.976159030383603e+000	 2.107168565897559e+000	 1.074364561437836e+001
 3.954599812824289e+000	 2.147356589020302e+000	 1.071278607755040e+001
 3.932601800014995e+000	 2.187382701429100e+000	 1.068906277774766e+001
 3.910166560942136e+000	 2.227239876097467e+000	 1.067271971350367e+001
 3.887295811865205e+000	 2.266921099430403e+000	 1.066398192830602e+001
 3.863991416440920e+000	 2.306419375061632e+000	 1.066305524878075e+001
 3.840255385731489e+000	 2.345727727668478e+000	 1.067012606653296e+001
 3.816089878095935e+000	 2.384839206800335e+000	 1.068536116445933e+001
 3.791497198963488e+000	 2.423746890716576e+000	 1.070890758822207e+001
 3.766479800488311e+000	 2.462443890229713e+000	 1.074089256344274e+001
 4.019485130915437e+000	 2.078308033563603e+000	 1.075585190281378e+001
 3.998248802778659e+000	 2.118875057924907e+000	 1.072125459568926e+001
 3.976569811788677e+000	 2.159286347843419e+000	 1.069452881431640e+001
 3.954449587797304e+000	 2.199534827544055e+000	 1.067590700268765e+001
 3.931889708507547e+000	 2.239613430961295e+000	 1.066560155982782e+001
 3.908891899713674e+000	 2.279515105535722e+000	 1.066380455703645e+001
 3.885458035426050e+000	 2.319232816032355e+000	 1.067068750023759e+001
 3.861590137879450e+000	 2.358759548376729e+000	 1.068640113836305e+001
 3.837290377423783e+000	 2.398088313504623e+000	 1.071107531856736e+001
 3.812561072296218e+000	 2.437212151221294e+000	 1.074481888893970e+001
 3.787404688273996e+000	 2.476124134065992e+000	 1.078771964924216e+001
 4.041692231089015e+000	 2.089790398384435e+000	 1.073407657300839e+001
 4.020338575172714e+000	 2.130581549952659e+000	 1.070202032318448e+001
 3.998539810752065e+000	 2.171216106666840e+000	 1.067882886321933e+001
 3.976297375578612e+000	 2.211686953659215e+000	 1.066470462492716e+001
 3.953612856071957e+000	 2.251986985825227e+000	 1.065982860123027e+001
 3.930487987561142e+000	 2.292109111641043e+000	 1.066436008504005e+001
 3.906924654410178e+000	 2.332046257002981e+000	 1.067843645563738e+001
 3.882924890026412e+000	 2.371791369084783e+000	 1.070217301346716e+001
 3.858490876750631e+000	 2.411337420208613e+000	 1.073566286412712e+001
 3.833624945627947e+000	 2.450677411725616e+000	 1.077897685219322e+001
 3.808329576058680e+000	 2.489804377901773e+000	 1.083216354538134e+001
 4.063899331261593e+000	 2.101272763205771e+000	 1.071593643346202e+001
 4.042428347565767e+000	 2.142288041980814e+000	 1.068583565696202e+001
 4.020509809714452e+000	 2.183145865490565e+000	 1.066558844456325e+001
 3.998145163358921e+000	 2.223839079774579e+000	 1.065536740487239e+001
 3.975336003635368e+000	 2.264360540689263e+000	 1.065532231405106e+001
 3.952084075407610e+000	 2.304703117746367e+000	 1.066557987620021e+001
 3.928391273393306e+000	 2.344859697973511e+000	 1.068624353363911e+001
 3.904259642172373e+000	 2.384823189792640e+000	 1.071739332798225e+001
 3.879691376076479e+000	 2.424586526912307e+000	 1.075908581277695e+001
 3.854688818958677e+000	 2.464142672229539e+000	 1.081135401832074e+001
 3.829254463842364e+000	 2.503484621737058e+000	 1.085727183656685e+001
 4.086106431433171e+000	 2.112755128027612e+000	 1.070131676085781e+001
 4.064518119957823e+000	 2.153994534009374e+000	 1.067259484992803e+001
 4.042479808675838e+000	 2.195075624314593e+000	 1.065471096810736e+001
 4.019992951138230e+000	 2.235991205890145e+000	 1.064780808594215e+001
 3.997059151197778e+000	 2.276734095553401e+000	 1.065200494819394e+001
 3.973680163253078e+000	 2.317297123851696e+000	 1.066739585559435e+001
 3.949857892375436e+000	 2.357673138943944e+000	 1.069405049889317e+001
 3.925594394317334e+000	 2.397855010500301e+000	 1.073201384609160e+001
 3.900891875401327e+000	 2.437835633615703e+000	 1.078130608360645e+001
 3.875752692288405e+000	 2.477607932733065e+000	 1.084192261196135e+001
 3.850179351625048e+000	 2.517164865571844e+000	 1.083206518236475e+001
 4.108313531603750e+000	 2.124237492849956e+000	 1.069010438181608e+001
 4.086607892348878e+000	 2.165701026038337e+000	 1.066219351015326e+001
 4.064449807636225e+000	 2.207005383138925e+000	 1.064610100091853e+001
 4.041840738916539e+000	 2.248143332005916e+000	 1.064194036799993e+001
 4.018782298759190e+000	 2.289107650417644e+000	 1.064979950621920e+001
 3.995276251097546e+000	 2.329891129957026e+000	 1.066974049432643e+001
 3.971324511356565e+000	 2.370486579914279e+000	 1.070179945269025e+001
 3.946929146461295e+000	 2.410886831207763e+000	 1.074598645656407e+001
 3.922092374725175e+000	 2.451084740318802e+000	 1.080228550565774e+001
 3.896816565617135e+000	 2.491073193236195e+000	 1.087065455058745e+001
 3.871104239406733e+000	 2.530845109406134e+000	 1.080711440062084e+001
 4.130520631773328e+000	 2.135719857672803e+000	 1.068218763122928e+001
 4.108697664738933e+000	 2.177407518067704e+000	 1.065452856444397e+001
 4.086419806595614e+000	 2.218935141963562e+000	 1.063966423626087e+001
 4.063688526693849e+000	 2.260295458121890e+000	 1.063767888164305e+001
 4.040505446319600e+000	 2.301481205281990e+000	 1.064862972311103e+001
 4.016872338941014e+000	 2.342485136062361e+000	 1.067254679484891e+001
 3.992791130336694e+000	 2.383300020884518e+000	 1.070943282391188e+001
 3.968263898604257e+000	 2.423918651915029e+000	 1.075926316940506e+001
 3.943292874048022e+000	 2.464333847021603e+000	 1.082198582034608e+001
 3.917880438944865e+000	 2.504538453738926e+000	 1.087714679964268e+001
 3.892029127187417e+000	 2.544525353239926e+000	 1.078247340145889e+001
 4.152727731941906e+000	 2.147202222496155e+000	 1.067745631193392e+001
 4.130787437127987e+000	 2.189114010097476e+000	 1.064949822308159e+001
 4.108389805554000e+000	 2.230864900788501e+000	 1.063530746348355e+001
 4.085536314470158e+000	 2.272447584238068e+000	 1.063493916331673e+001
 4.062228593879011e+000	 2.313854760146438e+000	 1.064842004669399e+001
 4.038468426783481e+000	 2.355079142167698e+000	 1.067574827675547e+001
 4.014257749315822e+000	 2.396113461854660e+000	 1.071689336027129e+001
 3.989598650746218e+000	 2.436950472622099e+000	 1.077179611261482e+001
 3.964493373369870e+000	 2.477582953724108e+000	 1.084036868380286e+001
 3.938944312271593e+000	 2.518003714241261e+000	 1.084358553620017e+001
 3.912954014967101e+000	 2.558205597073220e+000	 1.075819559618679e+001
 4.174934832109484e+000	 2.158684587320011e+000	 1.067580165566947e+001
 4.152877209516043e+000	 2.200820502127651e+000	 1.064700194568774e+001
 4.130359804511387e+000	 2.242794659613744e+000	 1.063293853886955e+001
 4.107384102245466e+000	 2.284599710354449e+000	 1.063363763122235e+001
 4.083951741437423e+000	 2.326228315010992e+000	 1.064909561867443e+001
 4.060064514624950e+000	 2.367673148273040e+000	 1.067927896302735e+001
 4.035724368293952e+000	 2.408926902824705e+000	 1.072412411983388e+001
 4.010933402887178e+000	 2.449982293328970e+000	 1.078353752905039e+001
 3.985693872690719e+000	 2.490832060426315e+000	 1.085739566914382e+001
 3.960008185597324e+000	 2.531468974743198e+000	 1.081102397556548e+001
 3.933878902745785e+000	 2.571885840906018e+000	 1.073433391056278e+001
 4.197141932276062e+000	 2.170166952144371e+000	 1.067711628527671e+001
 4.174966981903096e+000	 2.212526994158230e+000	 1.064694040817292e+001
 4.152329803467773e+000	 2.254724418439292e+000	 1.063246635740991e+001
 4.129231890019774e+000	 2.296751836471034e+000	 1.063369156199061e+001
 4.105674888994832e+000	 2.338601869875647e+000	 1.065058225628389e+001
 4.081660602465419e+000	 2.380267154378384e+000	 1.068307336671614e+001
 4.057190987271081e+000	 2.421740343794653e+000	 1.073106846280680e+001
 4.032268155027139e+000	 2.463014114035645e+000	 1.079443977338699e+001
 4.006894372010566e+000	 2.504081167128225e+000	 1.085642548046814e+001
 3.981072058922053e+000	 2.544934235244737e+000	 1.077950589934341e+001
 3.954803790523469e+000	 2.585566084738318e+000	 1.071094079764078e+001
 4.219349032441642e+000	 2.181649316969236e+000	 1.068129417808977e+001
 4.197056754289153e+000	 2.224233486189214e+000	 1.064921547072889e+001
 4.174299802423162e+000	 2.266654177265144e+000	 1.063380082546934e+001
 4.151079677793083e+000	 2.308903962587823e+000	 1.063501906809125e+001
 4.127398036551244e+000	 2.350975424740408e+000	 1.065280643450209e+001
 4.103256690304887e+000	 2.392861160483732e+000	 1.068706647804724e+001
 4.078657606247210e+000	 2.434553784764504e+000	 1.073767004358791e+001
 4.053602907166101e+000	 2.476045934742123e+000	 1.080445530917544e+001
 4.028094871329415e+000	 2.517330273829839e+000	 1.081874907506789e+001
 4.002135932245784e+000	 2.558399495745880e+000	 1.074907482070518e+001
 3.975728678300154e+000	 2.599246328570120e+000	 1.068806825020996e+001
 3.766479800488311e+000	 2.462443890229713e+000	 1.074089256344274e+001
 3.741040281084275e+000	 2.500923352550201e+000	 1.087370209047059e+001
 3.715181384841300e+000	 2.539178465126699e+000	 1.085402083151842e+001
 3.688906000821719e+000	 2.577202459478736e+000	 1.083334198703772e+001
 3.662217162235255e+000	 2.614988615018722e+000	 1.081227617381164e+001
 3.635118045494690e+000	 2.652530262857026e+000	 1.079146177940016e+001
 3.607611969151798e+000	 2.689820789586394e+000	 1.077156390802363e+001
 3.579702392714054e+000	 2.726853641041348e+000	 1.075327324472681e+001
 3.551392915342705e+000	 2.763622326028175e+000	 1.073730483984535e+001
 3.522687274433059e+000	 2.800120420021205e+000	 1.072439681606621e+001
 3.493589344077969e+000	 2.836341568821007e+000	 1.071530900063780e+001
 3.787404688273996e+000	 2.476124134065992e+000	 1.078771964924216e+001
 3.761823838206611e+000	 2.514817371178015e+000	 1.083440260392517e+001
 3.735821281428924e+000	 2.553285012158413e+000	 1.079717875733810e+001
 3.709399923053605e+000	 2.591520250924044e+000	 1.078678840963825e+001
 3.682562813141554e+000	 2.629516329550723e+000	 1.077504038132043e+001
 3.655313145752280e+000	 2.667266542099426e+000	 1.076258892427301e+001
 3.627654257873963e+000	 2.704764238421754e+000	 1.075011640790781e+001
 3.599589628233558e+000	 2.742002827940190e+000	 1.073833216228403e+001
 3.571122875987657e+000	 2.778975783398840e+000	 1.072797123891210e+001
 3.542257759294872e+000	 2.815676644580224e+000	 1.071979309156509e+001
 3.512998173770796e+000	 2.852099021983801e+000	 1.071458017969656e+001
 3.808329576058680e+000	 2.489804377901773e+000	 1.083216354538134e+001
 3.782607395327954e+000	 2.528711389805241e+000	 1.081681913509242e+001
 3.756461178015566e+000	 2.567391559189468e+000	 1.075428960697286e+001
 3.729893845284539e+000	 2.605838042368645e+000	 1.073933962228106e+001
 3.702908464046931e+000	 2.644044044081984e+000	 1.073705034968327e+001
 3.675508246008995e+000	 2.682002821341078e+000	 1.073310303696723e+001
 3.647696546595306e+000	 2.719707687256372e+000	 1.072819743942026e+001
 3.619476863752306e+000	 2.757152014838323e+000	 1.072306165937732e+001
 3.590852836631927e+000	 2.794329240768847e+000	 1.071845088313954e+001
 3.561828244156089e+000	 2.831232869138651e+000	 1.071514603529652e+001
 3.532407003463121e+000	 2.867856475146093e+000	 1.071395235309468e+001
 3.829254463842364e+000	 2.503484621737058e+000	 1.085727183656685e+001
 3.803390952448300e+000	 2.542605408431881e+000	 1.079946940126268e+001
 3.777101074601228e+000	 2.581498106219867e+000	 1.074418139124355e+001
 3.750387767514517e+000	 2.620155833812537e+000	 1.069196724210604e+001
 3.723254114951389e+000	 2.658571758612506e+000	 1.069842141780671e+001
 3.695703346264835e+000	 2.696739100581980e+000	 1.070311669824772e+001
 3.667738835315829e+000	 2.734651136090251e+000	 1.070591663691205e+001
 3.639364099270299e+000	 2.772301201735746e+000	 1.070756823771753e+001
 3.610582797275516e+000	 2.809682698138192e+000	 1.070884695757849e+001
 3.581398729016709e+000	 2.846789093696489e+000	 1.071055533399665e+001
 3.551815833154945e+000	 2.883613928307883e+000	 1.071352153012057e+001
 3.850179351625048e+000	 2.517164865571844e+000	 1.083206518236475e+001
 3.824174509567652e+000	 2.556499427057932e+000	 1.078240628437840e+001
 3.797740971185911e+000	 2.595604653249608e+000	 1.073444879484428e+001
 3.770881689743538e+000	 2.634473625255720e+000	 1.068876414792043e+001
 3.743599765854925e+000	 2.673099473142290e+000	 1.065926854104478e+001
 3.715898446519798e+000	 2.711475379822133e+000	 1.067274215130062e+001
 3.687781124035530e+000	 2.749594584923389e+000	 1.068338334571479e+001
 3.659251334787534e+000	 2.787450388632457e+000	 1.069195816112364e+001
 3.630312757918424e+000	 2.825036155506876e+000	 1.069926246306478e+001
 3.600969213876734e+000	 2.862345318253735e+000	 1.070612054639221e+001
 3.571224662846269e+000	 2.899371381469173e+000	 1.071338365076516e+001
 3.871104239406733e+000	 2.530845109406134e+000	 1.080711440062084e+001
 3.844958066686008e+000	 2.570393445683397e+000	 1.076568217423870e+001
 3.818380867769611e+000	 2.609711200278689e+000	 1.072514202972661e+001
 3.791375611971606e+000	 2.648791416698197e+000	 1.068607748518028e+001
 3.763945416757542e+000	 2.687627187671335e+000	 1.064908857884436e+001
 3.736093546773887e+000	 2.726211659061535e+000	 1.064209131085706e+001
 3.707823412754411e+000	 2.764538033755788e+000	 1.066070662995193e+001
 3.679138570304015e+000	 2.802599575528459e+000	 1.067633746195217e+001
 3.650042718560651e+000	 2.840389612874898e+000	 1.068980022119796e+001
 3.620539698736161e+000	 2.877901542810390e+000	 1.070194110666023e+001
 3.590633492537089e+000	 2.915128834629961e+000	 1.071363458759486e+001
 3.892029127187417e+000	 2.544525353239926e+000	 1.078247340145889e+001
 3.865741623803371e+000	 2.584287464308273e+000	 1.074934898172898e+001
 3.839020764352334e+000	 2.623817747307115e+000	 1.071631086503136e+001
 3.811869534198717e+000	 2.663109208139963e+000	 1.068395474000364e+001
 3.784291067659237e+000	 2.702154902199640e+000	 1.065289383082772e+001
 3.756288647027098e+000	 2.740947938300189e+000	 1.062375793997733e+001
 3.727865701472470e+000	 2.779481482587446e+000	 1.063799528009813e+001
 3.699025805819738e+000	 2.817748762423748e+000	 1.066081194731937e+001
 3.669772679202196e+000	 2.855743070242260e+000	 1.068056287915951e+001
 3.640110183594993e+000	 2.893457767366452e+000	 1.069811632777612e+001
 3.610042322227410e+000	 2.930886287790248e+000	 1.071437014756405e+001
 3.912954014967101e+000	 2.558205597073220e+000	 1.075819559618679e+001
 3.886525180919736e+000	 2.598181482932562e+000	 1.073345815162618e+001
 3.859660660934076e+000	 2.637924294334882e+000	 1.070800463892867e+001
 3.832363456424874e+000	 2.677426999581023e+000	 1.068244300509622e+001
 3.804636718560013e+000	 2.716682616727206e+000	 1.065739974908690e+001
 3.776483747279435e+000	 2.755684217538093e+000	 1.063351894925872e+001
 3.747907990189709e+000	 2.794424931418365e+000	 1.061535782029609e+001
 3.718913041334707e+000	 2.832897949318328e+000	 1.064548720512363e+001
 3.689502639843060e+000	 2.871096527608962e+000	 1.067165291437646e+001
 3.659680668453228e+000	 2.909013991921924e+000	 1.069474540475436e+001
 3.629451151917229e+000	 2.946643740950033e+000	 1.071568607376936e+001
 3.933878902745785e+000	 2.571885840906018e+000	 1.073433391056278e+001
 3.907308738035108e+000	 2.612075501556264e+000	 1.071806067499520e+001
 3.880300557514837e+000	 2.652030841361991e+000	 1.070027227007980e+001
 3.852857378650074e+000	 2.691744791021373e+000	 1.068158899021449e+001
 3.824982369459867e+000	 2.731210331254034e+000	 1.066265069928923e+001
 3.796678847530896e+000	 2.770420496775247e+000	 1.064411584266164e+001
 3.767950278906125e+000	 2.809368380248543e+000	 1.062666040735626e+001
 3.738800276848919e+000	 2.848047136212198e+000	 1.063046860987576e+001
 3.709232600483243e+000	 2.886449984975001e+000	 1.066317263903609e+001
 3.679251153310866e+000	 2.924570216476806e+000	 1.069192741778582e+001
 3.648859981606546e+000	 2.962401194109317e+000	 1.071767804714810e+001
 3.954803790523469e+000	 2.585566084738318e+000	 1.071094079764078e+001
 3.928092295149484e+000	 2.625969520179377e+000	 1.070320710119193e+001
 3.900940454094618e+000	 2.666137388388442e+000	 1.069316226873541e+001
 3.873351300874320e+000	 2.706062582461015e+000	 1.068143903229658e+001
 3.845328020358802e+000	 2.745738045780124e+000	 1.066869071215954e+001
 3.816873947781481e+000	 2.785156776011651e+000	 1.065559021320845e+001
 3.787992567621723e+000	 2.824311829077982e+000	 1.064282896773252e+001
 3.758687512362374e+000	 2.863196323105357e+000	 1.063111582669885e+001
 3.728962561122744e+000	 2.901803442340380e+000	 1.065522420445739e+001
 3.698821638167910e+000	 2.940126441031095e+000	 1.068976133527534e+001
 3.668268811295363e+000	 2.978158647268101e+000	 1.072044168812261e+001
 3.975728678300154e+000	 2.599246328570120e+000	 1.068806825020996e+001
 3.948875852262866e+000	 2.639863538801905e+000	 1.068894754948716e+001
 3.921580350673420e+000	 2.680243935414237e+000	 1.068672274748309e+001
 3.893845223097611e+000	 2.720380373899949e+000	 1.068203910527335e+001
 3.865673671256816e+000	 2.760265760305475e+000	 1.067556349229446e+001
 3.837069048031190e+000	 2.799893055247307e+000	 1.066798336688397e+001
 3.808034856336499e+000	 2.839255277906680e+000	 1.066000570151800e+001
 3.778574747875074e+000	 2.878345509997806e+000	 1.065235585477641e+001
 3.748692521761566e+000	 2.917156899705098e+000	 1.064790960532435e+001
 3.718392123024357e+000	 2.955682665584794e+000	 1.068834601678351e+001
 3.687677640983678e+000	 2.993916100426382e+000	 1.072407255819277e+001
 3.493589344077969e+000	 2.836341568821007e+000	 1.071530900063780e+001
 3.464103133416387e+000	 2.872279492169516e+000	 1.070981936369617e+001
 3.434232784866212e+000	 2.907927987320115e+000	 1.070515967754634e+001
 3.403982572244511e+000	 2.943280932556834e+000	 1.070198252720591e+001
 3.373356898778110e+000	 2.978332290657103e+000	 1.070096027563984e+001
 3.342360295004344e+000	 3.013076112296310e+000	 1.070278355181714e+001
 3.310997416564726e+000	 3.047506539389349e+000	 1.070815967897400e+001
 3.279273041893773e+000	 3.081617808365265e+000	 1.071781104694235e+001
 3.247192069805366e+000	 3.115404253371150e+000	 1.073247343259974e+001
 3.214759516979199e+000	 3.148860309401589e+000	 1.070971052716945e+001
 3.181980515350000e+000	 3.181980515350000e+000	 1.066649214011994e+001
 3.512998173770796e+000	 2.852099021983801e+000	 1.071458017969656e+001
 3.483348150827399e+000	 2.888236600461318e+000	 1.070965088970680e+001
 3.453311855896036e+000	 2.924083142806598e+000	 1.070556680960570e+001
 3.422893586537202e+000	 2.959632493294133e+000	 1.070299720710608e+001
 3.392097770440096e+000	 2.994878581161231e+000	 1.070263149217362e+001
 3.360928963311704e+000	 3.029815424031474e+000	 1.070517767361555e+001
 3.329391846658214e+000	 3.064437131274841e+000	 1.071136075481332e+001
 3.297491225461001e+000	 3.098737907300539e+000	 1.072192107253366e+001
 3.265232025749580e+000	 3.132712054778697e+000	 1.072567286711303e+001
 3.232619292074088e+000	 3.166353977787205e+000	 1.068812504756775e+001
 3.199658184880000e+000	 3.199658184880000e+000	 1.064592711318456e+001
 3.532407003463121e+000	 2.867856475146093e+000	 1.071395235309468e+001
 3.502593168238003e+000	 2.904193708752715e+000	 1.070956423900082e+001
 3.472390926925538e+000	 2.940238298292760e+000	 1.070602864550197e+001
 3.441804600829647e+000	 2.975984054031186e+000	 1.070403175555998e+001
 3.410838642101900e+000	 3.011424871665177e+000	 1.070428026934868e+001
 3.379497631618938e+000	 3.046554735766512e+000	 1.070749982898661e+001
 3.347786276751621e+000	 3.081367723160253e+000	 1.071443338133125e+001
 3.315709409028185e+000	 3.115858006235766e+000	 1.072583948284475e+001
 3.283271981693775e+000	 3.150019856186225e+000	 1.070592887730071e+001
 3.250479067168972e+000	 3.183847646172816e+000	 1.066927199590343e+001
 3.217335854410000e+000	 3.217335854410000e+000	 1.062805856526745e+001
 3.551815833154945e+000	 2.883613928307883e+000	 1.071352153012057e+001
 3.521838185648202e+000	 2.920150817043707e+000	 1.070965426452445e+001
 3.491469997954719e+000	 2.956393453778600e+000	 1.070663885835604e+001
 3.460715615121846e+000	 2.992335614767994e+000	 1.070517864418857e+001
 3.429579513763525e+000	 3.027971162168943e+000	 1.070599785746630e+001
 3.398066299926047e+000	 3.063294047501425e+000	 1.070984002899085e+001
 3.366180706844948e+000	 3.098298315045585e+000	 1.071746631436618e+001
 3.333927592595323e+000	 3.132978105170950e+000	 1.071994570241009e+001
 3.301311937637951e+000	 3.167327657593731e+000	 1.068893016541660e+001
 3.268338842263851e+000	 3.201341314558423e+000	 1.065312995795719e+001
 3.235013523940000e+000	 3.235013523940000e+000	 1.061286451825469e+001
 3.571224662846269e+000	 2.899371381469173e+000	 1.071338365076516e+001
 3.541083203057994e+000	 2.936107925334290e+000	 1.071001575247814e+001
 3.510549068983578e+000	 2.972548609264119e+000	 1.070749105628744e+001
 3.479626629413799e+000	 3.008687175504555e+000	 1.070653028054653e+001
 3.448320385424968e+000	 3.044517452672528e+000	 1.070787544288578e+001
 3.416634968233030e+000	 3.080033359236213e+000	 1.071228822005950e+001
 3.384575136938195e+000	 3.115228906930835e+000	 1.072054824362802e+001
 3.352145776162415e+000	 3.150098204106087e+000	 1.070492993560341e+001
 3.319351893582104e+000	 3.184635459001217e+000	 1.067465585938943e+001
 3.286198617358724e+000	 3.218834982944023e+000	 1.063967744401528e+001
 3.252691193470001e+000	 3.252691193470001e+000	 1.060032291379706e+001
 3.590633492537089e+000	 2.915128834629961e+000	 1.071363458759486e+001
 3.560328220467381e+000	 2.952065033624467e+000	 1.071074342412054e+001
 3.529628140012117e+000	 2.988703764749317e+000	 1.070867878417111e+001
 3.498537643705506e+000	 3.025038736240870e+000	 1.070817900985371e+001
 3.467061257086232e+000	 3.061063743175933e+000	 1.071000414975262e+001
 3.435203636539888e+000	 3.096772670970875e+000	 1.071493428574133e+001
 3.402969567031362e+000	 3.132159498816006e+000	 1.071725742047035e+001
 3.370363959729464e+000	 3.167218303041180e+000	 1.069265082910777e+001
 3.337391849526239e+000	 3.201943260408684e+000	 1.066308501751999e+001
 3.304058392453593e+000	 3.236328651329619e+000	 1.062889289090987e+001
 3.270368862999999e+000	 3.270368862999999e+000	 1.059041161547872e+001
 3.610042322227410e+000	 2.930886287790248e+000	 1.071437014756405e+001
 3.579573237876362e+000	 2.968022141914240e+000	 1.071193193751426e+001
 3.548707211040334e+000	 3.004858920234193e+000	 1.071029552533753e+001
 3.517448657996967e+000	 3.041390296976938e+000	 1.071021711667086e+001
 3.485802128747313e+000	 3.077610033679156e+000	 1.071247504167092e+001
 3.453772304846619e+000	 3.113511982705412e+000	 1.071786804839295e+001
 3.421363997124448e+000	 3.149090090701097e+000	 1.070708674141548e+001
 3.388582143296465e+000	 3.184338401976227e+000	 1.068308804504540e+001
 3.355431805470352e+000	 3.219251061816131e+000	 1.065419663035281e+001
 3.321918167548457e+000	 3.253822319715210e+000	 1.062075466399357e+001
 3.288046532530000e+000	 3.288046532530000e+000	 1.058310841091567e+001
 3.629451151917229e+000	 2.946643740950033e+000	 1.071568607376936e+001
 3.598818255284934e+000	 2.983979250203605e+000	 1.071367588921560e+001
 3.567786282068231e+000	 3.021014075718749e+000	 1.071243470321826e+001
 3.536359672288182e+000	 3.057741857712763e+000	 1.071273682652145e+001
 3.504543000408214e+000	 3.094156324182198e+000	 1.071537912332215e+001
 3.472340973153226e+000	 3.130251294439822e+000	 1.071789185302290e+001
 3.439758427217453e+000	 3.166020682586108e+000	 1.069964415356220e+001
 3.406800326863423e+000	 3.201458500911230e+000	 1.067622118247122e+001
 3.373471761414447e+000	 3.236558863223558e+000	 1.064796962248787e+001
 3.339777942643316e+000	 3.271315988100797e+000	 1.061524105905077e+001
 3.305724202060000e+000	 3.305724202060000e+000	 1.057839101378700e+001
 3.648859981606546e+000	 2.962401194109317e+000	 1.071767804714810e+001
 3.618063272693102e+000	 2.999936358492565e+000	 1.071606981591033e+001
 3.586865353095805e+000	 3.037169231202984e+000	 1.071518968293907e+001
 3.555270686579151e+000	 3.074093418448340e+000	 1.071583030746192e+001
 3.523283872068934e+000	 3.110702614685061e+000	 1.071880734203220e+001
 3.490909641459706e+000	 3.146990606174107e+000	 1.071266686271447e+001
 3.458152857310378e+000	 3.182951274471037e+000	 1.069490991563816e+001
 3.425018510430335e+000	 3.218578599846186e+000	 1.067202977905018e+001
 3.391511717358520e+000	 3.253866664630963e+000	 1.064438285433443e+001
 3.357637717738170e+000	 3.288809656486378e+000	 1.061233030414772e+001
 3.323401871590000e+000	 3.323401871590000e+000	 1.057623706580135e+001
 3.668268811295363e+000	 2.978158647268101e+000	 1.072044168812261e+001
 3.637308290100862e+000	 3.015893466781117e+000	 1.071920819599761e+001
 3.605944424123059e+000	 3.053324386686897e+000	 1.071865377286235e+001
 3.574181700869874e+000	 3.090444979183671e+000	 1.071958967160187e+001
 3.542024743729475e+000	 3.127248905187742e+000	 1.072202475086854e+001
 3.509478309766061e+000	 3.163729917908267e+000	 1.071016159287059e+001
 3.476547287403223e+000	 3.199881866355886e+000	 1.069286422862332e+001
 3.443236693997201e+000	 3.235698698781098e+000	 1.067049331268133e+001
 3.409551673302575e+000	 3.271174466038350e+000	 1.064341512380915e+001
 3.375497492833019e+000	 3.306303324871954e+000	 1.061200056142414e+001
 3.341079541120000e+000	 3.341079541120000e+000	 1.057662413860080e+001
 3.687677640983678e+000	 2.993916100426382e+000	 1.072407255819277e+001
 3.656553307508218e+000	 3.031850575069264e+000	 1.072318545112379e+001
 3.625023495149993e+000	 3.069479542170490e+000	 1.072292022608087e+001
 3.593092715160351e+000	 3.106796539918756e+000	 1.072410697657641e+001
 3.560765615389833e+000	 3.143795195690242e+000	 1.072182954418873e+001
 3.528046978072291e+000	 3.180469229642301e+000	 1.071035695455977e+001
 3.494941717495987e+000	 3.216812458240656e+000	 1.069348723726968e+001
 3.461454877564024e+000	 3.252818797715965e+000	 1.067159120307059e+001
 3.427591629246608e+000	 3.288482267445716e+000	 1.064504516798071e+001
 3.393357267927863e+000	 3.323796993257525e+000	 1.061422992882801e+001
 3.358757210650000e+000	 3.358757210650000e+000	 1.057952973560483e+001
 3.181980515350000e+000	 3.181980515350000e+000	 1.066649214011994e+001
 3.148860309401589e+000	 3.214759516979199e+000	 1.063378313582128e+001
 3.115404253371151e+000	 3.247192069805366e+000	 1.060116408611607e+001
 3.081617808365265e+000	 3.279273041893773e+000	 1.056549605362196e+001
 3.047506539389349e+000	 3.310997416564727e+000	 1.053647027423297e+001
 3.013076112296310e+000	 3.342360295004343e+000	 1.051398799772275e+001
 2.978332290657103e+000	 3.373356898778110e+000	 1.049796171251127e+001
 2.943280932556834e+000	 3.403982572244511e+000	 1.048831507846803e+001
 2.907927987320115e+000	 3.434232784866213e+000	 1.048498281277284e+001
 2.872279492169515e+000	 3.464103133416387e+000	 1.048791052952790e+001
 2.836341568821007e+000	 3.493589344077969e+000	 1.049705453397779e+001
 3.199658184880000e+000	 3.199658184880000e+000	 1.064592711318456e+001
 3.166353977787205e+000	 3.232619292074087e+000	 1.061692670267125e+001
 3.132712054778697e+000	 3.265232025749580e+000	 1.059074627252011e+001
 3.098737907300538e+000	 3.297491225461001e+000	 1.056146410980546e+001
 3.064437131274841e+000	 3.329391846658215e+000	 1.053578798127896e+001
 3.029815424031474e+000	 3.360928963311704e+000	 1.051576554982311e+001
 2.994878581161231e+000	 3.392097770440096e+000	 1.050130322788101e+001
 2.959632493294133e+000	 3.422893586537202e+000	 1.049231981112166e+001
 2.924083142806598e+000	 3.453311855896037e+000	 1.048874636400804e+001
 2.888236600461318e+000	 3.483348150827398e+000	 1.049052605695262e+001
 2.852099021983801e+000	 3.512998173770796e+000	 1.049761395593495e+001
 3.217335854410000e+000	 3.217335854410000e+000	 1.062805856526745e+001
 3.183847646172816e+000	 3.250479067168972e+000	 1.060260799523286e+001
 3.150019856186225e+000	 3.283271981693775e+000	 1.057921320066894e+001
 3.115858006235766e+000	 3.315709409028184e+000	 1.055684323076444e+001
 3.081367723160253e+000	 3.347786276751621e+000	 1.053443218444020e+001
 3.046554735766512e+000	 3.379497631618938e+000	 1.051678651025697e+001
 3.011424871665177e+000	 3.410838642101901e+000	 1.050380661045219e+001
 2.975984054031187e+000	 3.441804600829646e+000	 1.049540648682319e+001
 2.940238298292759e+000	 3.472390926925538e+000	 1.049151362588994e+001
 2.904193708752715e+000	 3.502593168238004e+000	 1.049206883346871e+001
 2.867856475146093e+000	 3.532407003463121e+000	 1.049702601955029e+001
 3.235013523940000e+000	 3.235013523940000e+000	 1.061286451825469e+001
 3.201341314558423e+000	 3.268338842263850e+000	 1.059080650035780e+001
 3.167327657593731e+000	 3.301311937637950e+000	 1.057004765344152e+001
 3.132978105170949e+000	 3.333927592595323e+000	 1.055106483385042e+001
 3.098298315045584e+000	 3.366180706844948e+000	 1.053254557470185e+001
 3.063294047501425e+000	 3.398066299926047e+000	 1.051719498718290e+001
 3.027971162168943e+000	 3.429579513763525e+000	 1.050561719059240e+001
 2.992335614767994e+000	 3.460715615121845e+000	 1.049772146294759e+001
 2.956393453778600e+000	 3.491469997954719e+000	 1.049343178751846e+001
 2.920150817043706e+000	 3.521838185648203e+000	 1.049268668469408e+001
 2.883613928307883e+000	 3.551815833154945e+000	 1.049543899198316e+001
 3.252691193470001e+000	 3.252691193470001e+000	 1.060032291379706e+001
 3.218834982944023e+000	 3.286198617358724e+000	 1.058150157611530e+001
 3.184635459001219e+000	 3.319351893582104e+000	 1.056323030080120e+001
 3.150098204106087e+000	 3.352145776162416e+000	 1.054598865694646e+001
 3.115228906930835e+000	 3.384575136938195e+000	 1.053027058462919e+001
 3.080033359236213e+000	 3.416634968233030e+000	 1.051713479252776e+001
 3.044517452672528e+000	 3.448320385424968e+000	 1.050687996735458e+001
 3.008687175504555e+000	 3.479626629413798e+000	 1.049941073321563e+001
 2.972548609264119e+000	 3.510549068983579e+000	 1.049464764475589e+001
 2.936107925334290e+000	 3.541083203057994e+000	 1.049252701619232e+001
 2.899371381469173e+000	 3.571224662846268e+000	 1.049300069629826e+001
 3.270368862999999e+000	 3.270368862999999e+000	 1.059041161547872e+001
 3.236328651329619e+000	 3.304058392453593e+000	 1.057467245527272e+001
 3.201943260408684e+000	 3.337391849526239e+000	 1.055874164275594e+001
 3.167218303041179e+000	 3.370363959729463e+000	 1.054310166471468e+001
 3.132159498816006e+000	 3.402969567031361e+000	 1.052823194509572e+001
 3.096772670970875e+000	 3.435203636539887e+000	 1.051674944999296e+001
 3.061063743175933e+000	 3.467061257086232e+000	 1.050773961743151e+001
 3.025038736240870e+000	 3.498537643705505e+000	 1.050061993752231e+001
 2.988703764749316e+000	 3.529628140012117e+000	 1.049530761085473e+001
 2.952065033624467e+000	 3.560328220467380e+000	 1.049173682482564e+001
 2.915128834629961e+000	 3.590633492537090e+000	 1.048985852346819e+001
 3.288046532530000e+000	 3.288046532530000e+000	 1.058310841091567e+001
 3.253822319715210e+000	 3.321918167548457e+000	 1.057029824866390e+001
 3.219251061816132e+000	 3.355431805470353e+000	 1.055656201392704e+001
 3.184338401976227e+000	 3.388582143296467e+000	 1.054238531630487e+001
 3.149090090701098e+000	 3.421363997124448e+000	 1.052825126741946e+001
 3.113511982705411e+000	 3.453772304846619e+000	 1.051618220280245e+001
 3.077610033679155e+000	 3.485802128747312e+000	 1.050834050382132e+001
 3.041390296976939e+000	 3.517448657996968e+000	 1.050149437144831e+001
 3.004858920234194e+000	 3.548707211040334e+000	 1.049555772674303e+001
 2.968022141914239e+000	 3.579573237876362e+000	 1.049046270974137e+001
 2.930886287790248e+000	 3.610042322227410e+000	 1.048615944398878e+001
 3.305724202060000e+000	 3.305724202060000e+000	 1.057839101378700e+001
 3.271315988100795e+000	 3.339777942643316e+000	 1.056835794844945e+001
 3.236558863223558e+000	 3.373471761414446e+000	 1.055667158797126e+001
 3.201458500911229e+000	 3.406800326863423e+000	 1.054382087007584e+001
 3.166020682586108e+000	 3.439758427217453e+000	 1.053029279311040e+001
 3.130251294439821e+000	 3.472340973153225e+000	 1.051657133377781e+001
 3.094156324182199e+000	 3.504543000408214e+000	 1.050882668421504e+001
 3.057741857712761e+000	 3.536359672288181e+000	 1.050217899546634e+001
 3.021014075718749e+000	 3.567786282068231e+000	 1.049554367097955e+001
 2.983979250203605e+000	 3.598818255284934e+000	 1.048885088300611e+001
 2.946643740950033e+000	 3.629451151917229e+000	 1.048205001912185e+001
 3.323401871590000e+000	 3.323401871590000e+000	 1.057623706580135e+001
 3.288809656486377e+000	 3.357637717738170e+000	 1.056883043127291e+001
 3.253866664630964e+000	 3.391511717358519e+000	 1.055905038186167e+001
 3.218578599846186e+000	 3.425018510430335e+000	 1.054738938893557e+001
 3.182951274471037e+000	 3.458152857310378e+000	 1.053433853688028e+001
 3.146990606174107e+000	 3.490909641459706e+000	 1.052038642681327e+001
 3.110702614685061e+000	 3.523283872068934e+000	 1.050934191911658e+001
 3.074093418448340e+000	 3.555270686579151e+000	 1.050281844385344e+001
 3.037169231202984e+000	 3.586865353095806e+000	 1.049541076939124e+001
 2.999936358492564e+000	 3.618063272693102e+000	 1.048704717990039e+001
 2.962401194109317e+000	 3.648859981606546e+000	 1.047767641177907e+001
 3.341079541120000e+000	 3.341079541120000e+000	 1.057662413860080e+001
 3.306303324871953e+000	 3.375497492833018e+000	 1.057169446131675e+001
 3.271174466038349e+000	 3.409551673302574e+000	 1.056367826003290e+001
 3.235698698781097e+000	 3.443236693997201e+000	 1.055307174551184e+001
 3.199881866355886e+000	 3.476547287403222e+000	 1.054037028777209e+001
 3.163729917908266e+000	 3.509478309766061e+000	 1.052606730548978e+001
 3.127248905187742e+000	 3.542024743729475e+000	 1.051065316908168e+001
 3.090444979183671e+000	 3.574181700869873e+000	 1.050355703332062e+001
 3.053324386686897e+000	 3.605944424123060e+000	 1.049530400440476e+001
 3.015893466781116e+000	 3.637308290100862e+000	 1.048519706888658e+001
 2.978158647268101e+000	 3.668268811295363e+000	 1.047318439706029e+001
 3.358757210650000e+000	 3.358757210650000e+000	 1.057952973560483e+001
 3.323796993257525e+000	 3.393357267927863e+000	 1.057692869326192e+001
 3.288482267445717e+000	 3.427591629246607e+000	 1.057053493839518e+001
 3.252818797715964e+000	 3.461454877564024e+000	 1.056084862715966e+001
 3.216812458240656e+000	 3.494941717495988e+000	 1.054836961509883e+001
 3.180469229642301e+000	 3.528046978072291e+000	 1.053359633193838e+001
 3.143795195690242e+000	 3.560765615389833e+000	 1.051702466955406e+001
 3.106796539918756e+000	 3.593092715160352e+000	 1.050453877136979e+001
 3.069479542170489e+000	 3.625023495149993e+000	 1.049536802408336e+001
 3.031850575069263e+000	 3.656553307508218e+000	 1.048344566126197e+001
 2.993916100426382e+000	 3.687677640983678e+000	 1.046871937245916e+001
 2.836341568821007e+000	 3.493589344077969e+000	 1.049705453397779e+001
 2.800120420021204e+000	 3.522687274433059e+000	 1.050266709358454e+001
 2.763622326028175e+000	 3.551392915342705e+000	 1.049723370714287e+001
 2.726853641041347e+000	 3.579702392714053e+000	 1.048057919227803e+001
 2.689820789586394e+000	 3.607611969151798e+000	 1.045255484254884e+001
 2.652530262857026e+000	 3.635118045494689e+000	 1.041303809594626e+001
 2.614988615018723e+000	 3.662217162235256e+000	 1.036193214312402e+001
 2.577202459478736e+000	 3.688906000821718e+000	 1.029916547724149e+001
 2.539178465126699e+000	 3.715181384841301e+000	 1.022469138745852e+001
 2.500923352550201e+000	 3.741040281084275e+000	 1.013848739827382e+001
 2.462443890229713e+000	 3.766479800488312e+000	 1.010579151455951e+001
 2.852099021983801e+000	 3.512998173770796e+000	 1.049761395593495e+001
 2.815676644580223e+000	 3.542257759294872e+000	 1.049740949992085e+001
 2.778975783398841e+000	 3.571122875987657e+000	 1.048671036809444e+001
 2.742002827940190e+000	 3.599589628233558e+000	 1.046535617002902e+001
 2.704764238421754e+000	 3.627654257873963e+000	 1.043321276128610e+001
 2.667266542099426e+000	 3.655313145752280e+000	 1.039017189129224e+001
 2.629516329550723e+000	 3.682562813141554e+000	 1.033615079090012e+001
 2.591520250924044e+000	 3.709399923053606e+000	 1.027109170156296e+001
 2.553285012158413e+000	 3.735821281428924e+000	 1.019496134821266e+001
 2.514817371178015e+000	 3.761823838206612e+000	 1.013198949762908e+001
 2.476124134065992e+000	 3.787404688273996e+000	 1.010853199655413e+001
 2.867856475146093e+000	 3.532407003463121e+000	 1.049702601955029e+001
 2.831232869138651e+000	 3.561828244156089e+000	 1.049122321644057e+001
 2.794329240768847e+000	 3.590852836631926e+000	 1.047546291566665e+001
 2.757152014838323e+000	 3.619476863752307e+000	 1.044959951143957e+001
 2.719707687256372e+000	 3.647696546595306e+000	 1.041351342821609e+001
 2.682002821341078e+000	 3.675508246008995e+000	 1.036711074780249e+001
 2.644044044081984e+000	 3.702908464046931e+000	 1.031032277607210e+001
 2.605838042368645e+000	 3.729893845284539e+000	 1.024310555127592e+001
 2.567391559189468e+000	 3.756461178015566e+000	 1.017859783604164e+001
 2.528711389805241e+000	 3.782607395327954e+000	 1.014449709464696e+001
 2.489804377901773e+000	 3.808329576058680e+000	 1.011023317868864e+001
 2.883613928307883e+000	 3.551815833154945e+000	 1.049543899198316e+001
 2.846789093696489e+000	 3.581398729016709e+000	 1.048425198127733e+001
 2.809682698138191e+000	 3.610582797275515e+000	 1.046363062925353e+001
 2.772301201735745e+000	 3.639364099270299e+000	 1.043344410981539e+001
 2.734651136090251e+000	 3.667738835315829e+000	 1.039358742554773e+001
 2.696739100581980e+000	 3.695703346264835e+000	 1.034398101389341e+001
 2.658571758612506e+000	 3.723254114951389e+000	 1.028457029285106e+001
 2.620155833812537e+000	 3.750387767514517e+000	 1.021610773074064e+001
 2.581498106219867e+000	 3.777101074601228e+000	 1.019157518349507e+001
 2.542605408431881e+000	 3.803390952448300e+000	 1.015773171155395e+001
 2.503484621737058e+000	 3.829254463842364e+000	 1.011474795874811e+001
 2.899371381469173e+000	 3.571224662846268e+000	 1.049300069629826e+001
 2.862345318253735e+000	 3.600969213876733e+000	 1.047663917103871e+001
 2.825036155506875e+000	 3.630312757918423e+000	 1.045135250633402e+001
 2.787450388632457e+000	 3.659251334787535e+000	 1.041702465316780e+001
 2.749594584923389e+000	 3.687781124035531e+000	 1.037356520379527e+001
 2.711475379822133e+000	 3.715898446519798e+000	 1.032090897683686e+001
 2.673099473142290e+000	 3.743599765854926e+000	 1.025901554177730e+001
 2.634473625255721e+000	 3.770881689743539e+000	 1.023002509001467e+001
 2.595604653249607e+000	 3.797740971185911e+000	 1.020510716422810e+001
 2.556499427057932e+000	 3.824174509567651e+000	 1.017167538711627e+001
 2.517164865571844e+000	 3.850179351625048e+000	 1.012991251794505e+001
 2.915128834629961e+000	 3.590633492537090e+000	 1.048985852346819e+001
 2.877901542810389e+000	 3.620539698736160e+000	 1.046852781057715e+001
 2.840389612874899e+000	 3.650042718560650e+000	 1.043876727009129e+001
 2.802599575528457e+000	 3.679138570304013e+000	 1.040047562976220e+001
 2.764538033755787e+000	 3.707823412754410e+000	 1.035357708533759e+001
 2.726211659061535e+000	 3.736093546773887e+000	 1.029802086441264e+001
 2.687627187671335e+000	 3.763945416757542e+000	 1.026154853907742e+001
 2.648791416698197e+000	 3.791375611971605e+000	 1.024432378119760e+001
 2.609711200278690e+000	 3.818380867769612e+000	 1.021917901699383e+001
 2.570393445683396e+000	 3.844958066686008e+000	 1.018631034502146e+001
 2.530845109406134e+000	 3.871104239406732e+000	 1.014591267743624e+001
 2.930886287790248e+000	 3.610042322227410e+000	 1.048615944398878e+001
 2.893457767366452e+000	 3.640110183594993e+000	 1.046006058244575e+001
 2.855743070242261e+000	 3.669772679202195e+000	 1.042601337678623e+001
 2.817748762423749e+000	 3.699025805819739e+000	 1.038393133348761e+001
 2.779481482587447e+000	 3.727865701472469e+000	 1.033375326786276e+001
 2.740947938300188e+000	 3.756288647027098e+000	 1.028776341741682e+001
 2.702154902199640e+000	 3.784291067659237e+000	 1.027705830011074e+001
 2.663109208139963e+000	 3.811869534198717e+000	 1.025899227719027e+001
 2.623817747307115e+000	 3.839020764352334e+000	 1.023377610547985e+001
 2.584287464308273e+000	 3.865741623803370e+000	 1.020161898890736e+001
 2.544525353239926e+000	 3.892029127187417e+000	 1.016272803141866e+001
 2.946643740950033e+000	 3.629451151917229e+000	 1.048205001912185e+001
 2.909013991921924e+000	 3.659680668453228e+000	 1.045137983605063e+001
 2.871096527608962e+000	 3.689502639843060e+000	 1.041322902289447e+001
 2.832897949318328e+000	 3.718913041334707e+000	 1.036752586905390e+001
 2.794424931418365e+000	 3.747907990189709e+000	 1.031422382770196e+001
 2.755684217538092e+000	 3.776483747279435e+000	 1.030490323146230e+001
 2.716682616727207e+000	 3.804636718560013e+000	 1.029276715382261e+001
 2.677426999581023e+000	 3.832363456424874e+000	 1.027401911604587e+001
 2.637924294334881e+000	 3.859660660934076e+000	 1.024888391496782e+001
 2.598181482932562e+000	 3.886525180919735e+000	 1.021758389755062e+001
 2.558205597073221e+000	 3.912954014967101e+000	 1.018033839985904e+001
 2.962401194109317e+000	 3.648859981606546e+000	 1.047767641177907e+001
 2.924570216476806e+000	 3.679251153310866e+000	 1.044262759651130e+001
 2.886449984975001e+000	 3.709232600483242e+000	 1.040055215201552e+001
 2.848047136212198e+000	 3.738800276848918e+000	 1.035139315702314e+001
 2.809368380248543e+000	 3.767950278906126e+000	 1.032936375897861e+001
 2.770420496775246e+000	 3.796678847530895e+000	 1.032207100238035e+001
 2.731210331254034e+000	 3.824982369459867e+000	 1.030866684144519e+001
 2.691744791021373e+000	 3.852857378650074e+000	 1.028939289923710e+001
 2.652030841361991e+000	 3.880300557514837e+000	 1.026448804909951e+001
 2.612075501556264e+000	 3.907308738035108e+000	 1.023418782020873e+001
 2.571885840906018e+000	 3.933878902745785e+000	 1.019872382248935e+001
 2.978158647268101e+000	 3.668268811295363e+000	 1.047318439706029e+001
 2.940126441031095e+000	 3.698821638167910e+000	 1.043394557323952e+001
 2.901803442340381e+000	 3.728962561122744e+000	 1.038812046156266e+001
 2.863196323105356e+000	 3.758687512362373e+000	 1.035185472920553e+001
 2.824311829077981e+000	 3.787992567621723e+000	 1.034838344124097e+001
 2.785156776011651e+000	 3.816873947781481e+000	 1.033926169807280e+001
 2.745738045780124e+000	 3.845328020358802e+000	 1.032474910973779e+001
 2.706062582461016e+000	 3.873351300874320e+000	 1.030510228997844e+001
 2.666137388388442e+000	 3.900940454094619e+000	 1.028057422674561e+001
 2.625969520179377e+000	 3.928092295149483e+000	 1.025141367210995e+001
 2.585566084738318e+000	 3.954803790523470e+000	 1.021786455299286e+001
 2.993916100426382e+000	 3.687677640983678e+000	 1.046871937245916e+001
 2.955682665584793e+000	 3.718392123024356e+000	 1.042547516824760e+001
 2.917156899705098e+000	 3.748692521761566e+000	 1.037607140924145e+001
 2.878345509997805e+000	 3.778574747875074e+000	 1.037309333621523e+001
 2.839255277906680e+000	 3.808034856336499e+000	 1.036725794093003e+001
 2.799893055247307e+000	 3.837069048031190e+000	 1.035647023445131e+001
 2.760265760305475e+000	 3.865673671256816e+000	 1.034100571084140e+001
 2.720380373899950e+000	 3.893845223097610e+000	 1.032113601160138e+001
 2.680243935414236e+000	 3.921580350673420e+000	 1.029712827897342e+001
 2.639863538801905e+000	 3.948875852262866e+000	 1.026924453008569e+001
 2.599246328570120e+000	 3.975728678300154e+000	 1.023774105337394e+001
 2.462443890229713e+000	 3.766479800488312e+000	 1.010579151455951e+001
 2.423746890716576e+000	 3.791497198963489e+000	 1.013190660293623e+001
 2.384839206800335e+000	 3.816089878095935e+000	 1.014434907056679e+001
 2.345727727668478e+000	 3.840255385731489e+000	 1.014486883171061e+001
 2.306419375061632e+000	 3.863991416440919e+000	 1.013521158388756e+001
 2.266921099430403e+000	 3.887295811865205e+000	 1.011711384641188e+001
 2.227239876097467e+000	 3.910166560942135e+000	 1.009229805642337e+001
 2.187382701429100e+000	 3.932601800014995e+000	 1.006246773533253e+001
 2.147356589020302e+000	 3.954599812824290e+000	 1.002930273823460e+001
 2.107168565897559e+000	 3.976159030383603e+000	 9.994454598445760e+000
 2.066825668743274e+000	 3.997278030740858e+000	 9.959541978875830e+000
 2.476124134065992e+000	 3.787404688273996e+000	 1.010853199655413e+001
 2.437212151221294e+000	 3.812561072296217e+000	 1.013971938478346e+001
 2.398088313504623e+000	 3.837290377423782e+000	 1.015652809452421e+001
 2.358759548376729e+000	 3.861590137879451e+000	 1.016073935742499e+001
 2.319232816032355e+000	 3.885458035426049e+000	 1.015413099402287e+001
 2.279515105535722e+000	 3.908891899713674e+000	 1.013847235713555e+001
 2.239613430961295e+000	 3.931889708507546e+000	 1.011551933258204e+001
 2.199534827544056e+000	 3.954449587797303e+000	 1.008700941040062e+001
 2.159286347843419e+000	 3.976569811788677e+000	 1.005465683936640e+001
 2.118875057924907e+000	 3.998248802778659e+000	 1.002014787720468e+001
 2.078308033563603e+000	 4.019485130915437e+000	 9.985136148451328e+000
 2.489804377901773e+000	 3.808329576058680e+000	 1.011023317868864e+001
 2.450677411725615e+000	 3.833624945627947e+000	 1.014574206664736e+001
 2.411337420208613e+000	 3.858490876750630e+000	 1.016616764367756e+001
 2.371791369084783e+000	 3.882924890026412e+000	 1.017332356209583e+001
 2.332046257002981e+000	 3.906924654410177e+000	 1.016902086596961e+001
 2.292109111641043e+000	 3.930487987561142e+000	 1.015506283767292e+001
 2.251986985825227e+000	 3.953612856071957e+000	 1.013323990162099e+001
 2.211686953659216e+000	 3.976297375578613e+000	 1.010532459860797e+001
 2.171216106666839e+000	 3.998539810752065e+000	 1.007306664380113e+001
 2.130581549952659e+000	 4.020338575172714e+000	 1.003818808103386e+001
 2.089790398384435e+000	 4.041692231089016e+000	 1.000237854558903e+001
 2.503484621737058e+000	 3.829254463842364e+000	 1.011474795874811e+001
 2.464142672229539e+000	 3.854688818958676e+000	 1.015030463267469e+001
 2.424586526912307e+000	 3.879691376076478e+000	 1.017359786776681e+001
 2.384823189792641e+000	 3.904259642172373e+000	 1.018295153191797e+001
 2.344859697973511e+000	 3.928391273393308e+000	 1.018021099827239e+001
 2.304703117746368e+000	 3.952084075407610e+000	 1.016721457998185e+001
 2.264360540689263e+000	 3.975336003635369e+000	 1.014578833526917e+001
 2.223839079774579e+000	 3.998145163358921e+000	 1.011774094322277e+001
 2.183145865490564e+000	 4.020509809714451e+000	 1.008485866363099e+001
 2.142288041980814e+000	 4.042428347565767e+000	 1.004890039374745e+001
 2.101272763205771e+000	 4.063899331261593e+000	 1.001159283442285e+001
 2.517164865571844e+000	 3.850179351625048e+000	 1.012991251794505e+001
 2.477607932733066e+000	 3.875752692288406e+000	 1.015373716254446e+001
 2.437835633615703e+000	 3.900891875401327e+000	 1.017914886541783e+001
 2.397855010500300e+000	 3.925594394317334e+000	 1.018995315820859e+001
 2.357673138943943e+000	 3.949857892375436e+000	 1.018803085377483e+001
 2.317297123851696e+000	 3.973680163253078e+000	 1.017525640249152e+001
 2.276734095553401e+000	 3.997059151197778e+000	 1.015349259694762e+001
 2.235991205890146e+000	 4.019992951138231e+000	 1.012458534752548e+001
 2.195075624314593e+000	 4.042479808675838e+000	 1.009035854242849e+001
 2.153994534009374e+000	 4.064518119957823e+000	 1.005260900530202e+001
 2.112755128027612e+000	 4.086106431433171e+000	 1.001310156312935e+001
 2.530845109406134e+000	 3.871104239406732e+000	 1.014591267743624e+001
 2.491073193236195e+000	 3.896816565617135e+000	 1.015636982888597e+001
 2.451084740318802e+000	 3.922092374725174e+000	 1.018315068552380e+001
 2.410886831207764e+000	 3.946929146461295e+000	 1.019465814267416e+001
 2.370486579914279e+000	 3.971324511356565e+000	 1.019280956869270e+001
 2.329891129957026e+000	 3.995276251097546e+000	 1.017951666290046e+001
 2.289107650417644e+000	 4.018782298759190e+000	 1.015668005821029e+001
 2.248143332005916e+000	 4.041840738916538e+000	 1.012618399480848e+001
 2.207005383138925e+000	 4.064449807636226e+000	 1.008989107871993e+001
 2.165701026038338e+000	 4.086607892348878e+000	 1.004963713865764e+001
 2.124237492849956e+000	 4.108313531603750e+000	 1.000722619408875e+001
 2.544525353239926e+000	 3.892029127187417e+000	 1.016272803141866e+001
 2.504538453738926e+000	 3.917880438944866e+000	 1.016344282430132e+001
 2.464333847021603e+000	 3.943292874048022e+000	 1.018593332858213e+001
 2.423918651915029e+000	 3.968263898604256e+000	 1.019739600250750e+001
 2.383300020884518e+000	 3.992791130336694e+000	 1.019487596139407e+001
 2.342485136062361e+000	 4.016872338941014e+000	 1.018032327056185e+001
 2.301481205281990e+000	 4.040505446319600e+000	 1.015567751465435e+001
 2.260295458121890e+000	 4.063688526693848e+000	 1.012286236773062e+001
 2.218935141963561e+000	 4.086419806595613e+000	 1.008378024870175e+001
 2.177407518067704e+000	 4.108697664738933e+000	 1.004030707577237e+001
 2.135719857672804e+000	 4.130520631773328e+000	 9.994287133072962e+000
 2.558205597073221e+000	 3.912954014967101e+000	 1.018033839985904e+001
 2.518003714241260e+000	 3.938944312271593e+000	 1.018034808740097e+001
 2.477582953724108e+000	 3.964493373369870e+000	 1.018782674798848e+001
 2.436950472622098e+000	 3.989598650746217e+000	 1.019849607532131e+001
 2.396113461854660e+000	 4.014257749315822e+000	 1.019455854089800e+001
 2.355079142167699e+000	 4.038468426783482e+000	 1.017800369847130e+001
 2.313854760146438e+000	 4.062228593879011e+000	 1.015081120132019e+001
 2.272447584238069e+000	 4.085536314470157e+000	 1.011494526705073e+001
 2.230864900788501e+000	 4.108389805554000e+000	 1.007234922822791e+001
 2.189114010097476e+000	 4.130787437127987e+000	 1.002494018276278e+001
 2.147202222496156e+000	 4.152727731941907e+000	 9.974603757497254e+000
 2.571885840906018e+000	 3.933878902745785e+000	 1.019872382248935e+001
 2.531468974743198e+000	 3.960008185597324e+000	 1.019764580212442e+001
 2.490832060426316e+000	 3.985693872690718e+000	 1.018916085128943e+001
 2.449982293328969e+000	 4.010933402887178e+000	 1.019828752392421e+001
 2.408926902824705e+000	 4.035724368293952e+000	 1.019218551510193e+001
 2.367673148273040e+000	 4.060064514624950e+000	 1.017288499487213e+001
 2.326228315010992e+000	 4.083951741437423e+000	 1.014240680759981e+001
 2.284599710354450e+000	 4.107384102245465e+000	 1.010275682976323e+001
 2.242794659613744e+000	 4.130359804511387e+000	 1.005592041409560e+001
 2.200820502127651e+000	 4.152877209516042e+000	 1.000385693426136e+001
 2.158684587320011e+000	 4.174934832109484e+000	 9.948494443770048e+000
 2.585566084738318e+000	 3.954803790523470e+000	 1.021786455299286e+001
 2.544934235244737e+000	 3.981072058922053e+000	 1.021532183158124e+001
 2.504081167128226e+000	 4.006894372010565e+000	 1.019475005283291e+001
 2.463014114035644e+000	 4.032268155027139e+000	 1.019709934094527e+001
 2.421740343794653e+000	 4.057190987271081e+000	 1.018808479874778e+001
 2.380267154378384e+000	 4.081660602465419e+000	 1.016529379449220e+001
 2.338601869875647e+000	 4.105674888994832e+000	 1.013078949167191e+001
 2.296751836471034e+000	 4.129231890019774e+000	 1.008662054665807e+001
 2.254724418439292e+000	 4.152329803467775e+000	 1.003481544465526e+001
 2.212526994158230e+000	 4.174966981903096e+000	 9.977376937000878e+000
 2.170166952144371e+000	 4.197141932276062e+000	 9.916276593774649e+000
 2.599246328570120e+000	 3.975728678300154e+000	 1.023774105337394e+001
 2.558399495745880e+000	 4.002135932245784e+000	 1.023336212011050e+001
 2.517330273829839e+000	 4.028094871329415e+000	 1.021039787171720e+001
 2.476045934742123e+000	 4.053602907166102e+000	 1.019526035331228e+001
 2.434553784764504e+000	 4.078657606247210e+000	 1.018258402113666e+001
 2.392861160483732e+000	 4.103256690304888e+000	 1.015555632942589e+001
 2.350975424740408e+000	 4.127398036551245e+000	 1.011628389448131e+001
 2.308903962587824e+000	 4.151079677793084e+000	 1.006685927932609e+001
 2.266654177265143e+000	 4.174299802423162e+000	 1.000935521976961e+001
 2.224233486189214e+000	 4.197056754289153e+000	 9.945818952653742e+000
 2.181649316969235e+000	 4.219349032441642e+000	 9.878266660514631e+000
 2.066825668743274e+000	 3.997278030740858e+000	 9.959541978875830e+000
 2.026334940146127e+000	 4.017955538626073e+000	 9.875586503103731e+000
 1.985703424879969e+000	 4.038190424988225e+000	 9.801370604610547e+000
 1.944938166216198e+000	 4.057981706422046e+000	 9.738276627574305e+000
 1.904046202273650e+000	 4.077328544486139e+000	 9.687633169501005e+000
 1.863034562408458e+000	 4.096230244915353e+000	 9.642384989604187e+000
 1.821910263647759e+000	 4.114686256729197e+000	 9.591039462519749e+000
 1.780680307170585e+000	 4.132696171238480e+000	 9.551392294428153e+000
 1.739351674839182e+000	 4.150259720952576e+000	 9.520514223539204e+000
 1.697931325783844e+000	 4.167376778389715e+000	 9.495567042155331e+000
 1.656426193044263e+000	 4.184047354792892e+000	 9.473807894133307e+000
 2.078308033563603e+000	 4.019485130915437e+000	 9.985136148451328e+000
 2.037592356473766e+000	 4.040277513844186e+000	 9.900309815058234e+000
 1.996735110566970e+000	 4.060624816241361e+000	 9.826375308164664e+000
 1.955743378243896e+000	 4.080526049238337e+000	 9.764780632897894e+000
 1.914624236724039e+000	 4.099980369735707e+000	 9.716918163297656e+000
 1.873384754415510e+000	 4.118987079611292e+000	 9.683059749746857e+000
 1.832031987328928e+000	 4.137545624823596e+000	 9.638152058738148e+000
 1.790572975538764e+000	 4.155655594412936e+000	 9.605368254950543e+000
 1.749014739695385e+000	 4.173316719402627e+000	 9.581727360475767e+000
 1.707364277590921e+000	 4.190528871602666e+000	 9.564340559099380e+000
 1.665628560781946e+000	 4.207292062318510e+000	 9.550415575197103e+000
 2.089790398384435e+000	 4.041692231089016e+000	 1.000237854558903e+001
 2.048849772801994e+000	 4.062599489061308e+000	 9.916707531925017e+000
 2.007766796254614e+000	 4.083059207493538e+000	 9.843075015240810e+000
 1.966548590272259e+000	 4.103070392053720e+000	 9.782995430484643e+000
 1.925202271175087e+000	 4.122632194984438e+000	 9.737925691605101e+000
 1.883734946423183e+000	 4.141743914306483e+000	 9.709261302585421e+000
 1.842153711010652e+000	 4.160404992917361e+000	 9.676941655840615e+000
 1.800465643907401e+000	 4.178615017586891e+000	 9.651864522786898e+000
 1.758677804551919e+000	 4.196373717852327e+000	 9.636284441052908e+000
 1.716797229398172e+000	 4.213680964815437e+000	 9.627260959420504e+000
 1.674830928519619e+000	 4.230536769844139e+000	 9.621951391435692e+000
 2.101272763205771e+000	 4.063899331261593e+000	 1.001159283442285e+001
 2.060107189130810e+000	 4.084921464277438e+000	 9.925089911563529e+000
 2.018798481942900e+000	 4.105493598744757e+000	 9.851766688035099e+000
 1.977353802301289e+000	 4.125614734868196e+000	 9.793204807208440e+000
 1.935780305626794e+000	 4.145284020232332e+000	 9.750926495882030e+000
 1.894085138431479e+000	 4.164500749000931e+000	 9.726390576307173e+000
 1.852275434692931e+000	 4.183264361010493e+000	 9.707276968436482e+000
 1.810358312276495e+000	 4.201574440760342e+000	 9.690751034026606e+000
 1.768340869408785e+000	 4.219430716301676e+000	 9.684056682192532e+000
 1.726230181205598e+000	 4.236833058028028e+000	 9.684200795059738e+000
 1.684033296257282e+000	 4.253781477369778e+000	 9.688289278916379e+000
 2.112755128027612e+000	 4.086106431433171e+000	 1.001310156312935e+001
 2.071364605460215e+000	 4.107243439492581e+000	 9.925766231424655e+000
 2.029830167631828e+000	 4.127927989995016e+000	 9.852746440889725e+000
 1.988159014330985e+000	 4.148159077681763e+000	 9.795691831603584e+000
 1.946358340079160e+000	 4.167935845479390e+000	 9.756190725677538e+000
 1.904435330440397e+000	 4.187257583694634e+000	 9.735766038956378e+000
 1.862397158375764e+000	 4.206123729102990e+000	 9.729026362666877e+000
 1.820250980646048e+000	 4.224533863933293e+000	 9.721897493225745e+000
 1.778003934265982e+000	 4.242487714750674e+000	 9.724915182979986e+000
 1.735663133013200e+000	 4.259985151240440e+000	 9.735032610547576e+000
 1.693235663994934e+000	 4.277026184895429e+000	 9.749303273420912e+000
 2.124237492849956e+000	 4.108313531603750e+000	 1.000722619408875e+001
 2.082622021790209e+000	 4.129565414706734e+000	 9.919044815048128e+000
 2.040861853321399e+000	 4.150362381244316e+000	 9.846309563207939e+000
 1.998964226361346e+000	 4.170703420494422e+000	 9.790738873279411e+000
 1.956936374532185e+000	 4.190587670725612e+000	 9.753987954628586e+000
 1.914785522449936e+000	 4.210014418387591e+000	 9.737644601328174e+000
 1.872518882059152e+000	 4.228983097194856e+000	 9.742057865622872e+000
 1.830143649016057e+000	 4.247493287105740e+000	 9.745173379664630e+000
 1.787666999123510e+000	 4.265544713199322e+000	 9.758730927848694e+000
 1.745096084820976e+000	 4.283137244452671e+000	 9.779628943204212e+000
 1.702438031732576e+000	 4.300270892421088e+000	 9.804867507750389e+000
 2.135719857672804e+000	 4.130520631773328e+000	 9.994287133072962e+000
 2.093879438120791e+000	 4.151887389919897e+000	 9.905233057705374e+000
 2.051893539011612e+000	 4.172796772492658e+000	 9.832750541629828e+000
 2.009769438392373e+000	 4.193247763306173e+000	 9.778627621708575e+000
 1.967514408985869e+000	 4.213239495970997e+000	 9.744587195941604e+000
 1.925135714460097e+000	 4.232771253079803e+000	 9.732282730533250e+000
 1.882640605743095e+000	 4.251842465286088e+000	 9.743294163209875e+000
 1.840036317386526e+000	 4.270452710277686e+000	 9.760447953403686e+000
 1.797330063981369e+000	 4.288601711647618e+000	 9.785374789662345e+000
 1.754529036628928e+000	 4.306289337664721e+000	 9.817862323333349e+000
 1.711640399470208e+000	 4.323515599946758e+000	 9.854856209117310e+000
 2.147202222496156e+000	 4.152727731941907e+000	 9.974603757497254e+000
 2.105136854451962e+000	 4.174209365132070e+000	 9.884637451219495e+000
 2.062925224702469e+000	 4.195231163740040e+000	 9.812363081496510e+000
 2.020574650424067e+000	 4.215792106117017e+000	 9.759639104412539e+000
 1.978092443440212e+000	 4.235891321215544e+000	 9.728256917377214e+000
 1.935485906470881e+000	 4.255528087771273e+000	 9.719936461861050e+000
 1.892762329427593e+000	 4.274701833376684e+000	 9.736322027088653e+000
 1.849928985757451e+000	 4.293412133449130e+000	 9.767590261144944e+000
 1.806993128839560e+000	 4.311658710095563e+000	 9.804717532697923e+000
 1.763961988437054e+000	 4.329441430876592e+000	 9.849605274409914e+000
 1.720842767207830e+000	 4.346760307472438e+000	 9.899143696621138e+000
 2.158684587320011e+000	 4.174934832109484e+000	 9.948494443770048e+000
 2.116394270783720e+000	 4.196531340343253e+000	 9.857563607993145e+000
 2.073956910393968e+000	 4.217665554986464e+000	 9.785440127629473e+000
 2.031379862456427e+000	 4.238336448926953e+000	 9.734053704566630e+000
 1.988670477895215e+000	 4.258543146459256e+000	 9.705265055756767e+000
 1.945836098482286e+000	 4.278284922461995e+000	 9.700861410264361e+000
 1.902884053112646e+000	 4.297561201466650e+000	 9.722552212014126e+000
 1.859821654128836e+000	 4.316371556620072e+000	 9.766469141906374e+000
 1.816656193698082e+000	 4.334715708543159e+000	 9.816629815533760e+000
 1.773394940245357e+000	 4.352593524088284e+000	 9.874730313261502e+000
 1.730045134945440e+000	 4.370005014998127e+000	 9.937604378804522e+000
 2.170166952144371e+000	 4.197141932276062e+000	 9.916276593774649e+000
 2.127651687116068e+000	 4.218853315553446e+000	 9.824316284273628e+000
 2.084988596086108e+000	 4.240099946231929e+000	 9.752273884450059e+000
 2.042185074489452e+000	 4.260880791735981e+000	 9.702151178046286e+000
 1.999248512350876e+000	 4.281194971702131e+000	 9.675879031008421e+000
 1.956186290494314e+000	 4.301041757151972e+000	 9.675312781479386e+000
 1.913005776798254e+000	 4.320420569555981e+000	 9.702227840270835e+000
 1.869714322500677e+000	 4.339330979790511e+000	 9.756953232516310e+000
 1.826319258556935e+000	 4.357772706990403e+000	 9.820982193845650e+000
 1.782827892053834e+000	 4.375745617299795e+000	 9.886918777455326e+000
 1.739247502683042e+000	 4.393249722523829e+000	 9.806512376202774e+000
 2.181649316969235e+000	 4.219349032441642e+000	 9.878266660514631e+000
 2.138909103449004e+000	 4.241175290762651e+000	 9.785199402683345e+000
 2.096020281778892e+000	 4.262534337476436e+000	 9.713155835463688e+000
 2.052990286523145e+000	 4.283425134544102e+000	 9.664210669934887e+000
 2.009826546807197e+000	 4.303846796944171e+000	 9.640365759769480e+000
 1.966536482506964e+000	 4.323798591841205e+000	 9.643545382794518e+000
 1.923127500484418e+000	 4.343279937644681e+000	 9.675591737846739e+000
 1.879606990872978e+000	 4.362290402960451e+000	 9.738260666109609e+000
 1.835982323416120e+000	 4.380829705437297e+000	 9.774847713631619e+000
 1.792260843862487e+000	 4.398897710511126e+000	 9.711184308570298e+000
 1.748449870420633e+000	 4.416494430049542e+000	 9.632445615350761e+000
 1.656426193044263e+000	 4.184047354792892e+000	 9.473807894133307e+000
 1.614843180269973e+000	 4.200271598754027e+000	 9.426323389894574e+000
 1.573189158483706e+000	 4.216049794749046e+000	 9.390601560472666e+000
 1.531470962909008e+000	 4.231382361586969e+000	 9.364244330286201e+000
 1.489695389864481e+000	 4.246269850775701e+000	 9.344950991805023e+000
 1.447869193727904e+000	 4.260712944807515e+000	 9.330521200053006e+000
 1.405999083972017e+000	 4.274712455367262e+000	 9.318857684027936e+000
 1.364091722274012e+000	 4.288269321466461e+000	 9.307968674598776e+000
 1.322153719700637e+000	 4.301384607506363e+000	 9.295970049246510e+000
 1.280191633970678e+000	 4.314059501273208e+000	 9.281087194800337e+000
 1.238211966796443e+000	 4.326295311868889e+000	 9.234097110868925e+000
 1.665628560781946e+000	 4.207292062318510e+000	 9.550415575197103e+000
 1.623814531271376e+000	 4.223606440967679e+000	 9.513835734477862e+000
 1.581929098254062e+000	 4.239472293606605e+000	 9.489871708053512e+000
 1.539979134927016e+000	 4.254890041371023e+000	 9.476074182217069e+000
 1.497971475366166e+000	 4.269860238832774e+000	 9.470092095959187e+000
 1.455912911473615e+000	 4.284383572275750e+000	 9.469675709529231e+000
 1.413810189996953e+000	 4.298460857894164e+000	 9.472679385760216e+000
 1.371670009622691e+000	 4.312093039916263e+000	 9.477064083658679e+000
 1.329499018145727e+000	 4.325281188656642e+000	 9.480899564581346e+000
 1.287303809716620e+000	 4.338026498500345e+000	 9.482366312117449e+000
 1.245090922168304e+000	 4.350330285822056e+000	 9.468791264361398e+000
 1.674830928519619e+000	 4.230536769844139e+000	 9.621951391435692e+000
 1.632785882272589e+000	 4.246941283181525e+000	 9.597010873637109e+000
 1.590669038024091e+000	 4.262894792464511e+000	 9.585508322698553e+000
 1.548487306944598e+000	 4.278397721155550e+000	 9.584942367792774e+000
 1.506247560867369e+000	 4.293450626890412e+000	 9.592910817980158e+000
 1.463956629218827e+000	 4.308054199744612e+000	 9.607113805415434e+000
 1.421621296021413e+000	 4.322209260421725e+000	 9.625356637083119e+000
 1.379248296970957e+000	 4.335916758366730e+000	 9.645552354504737e+000
 1.336844316590506e+000	 4.349177769807553e+000	 9.665724001694846e+000
 1.294415985462393e+000	 4.361993495728061e+000	 9.684006602453977e+000
 1.251969877540177e+000	 4.374365259775718e+000	 9.698648848872942e+000
 1.684033296257282e+000	 4.253781477369778e+000	 9.688289278916379e+000
 1.641757233273613e+000	 4.270276125395566e+000	 9.675724564296802e+000
 1.599408977793790e+000	 4.286317291322766e+000	 9.677389143153587e+000
 1.556995478961755e+000	 4.301905400940547e+000	 9.690728762757798e+000
 1.514523646368089e+000	 4.317041014948612e+000	 9.713289320048601e+000
 1.472000346963540e+000	 4.331724827214101e+000	 9.742720080079764e+000
 1.429432402045397e+000	 4.345957662949947e+000	 9.776776598677863e+000
 1.386826584318810e+000	 4.359740476817858e+000	 9.813323348697567e+000
 1.344189615034976e+000	 4.373074350959102e+000	 9.850336050106739e+000
 1.301528161207999e+000	 4.385960492956356e+000	 9.755738797918196e+000
 1.258848832912064e+000	 4.398400233729873e+000	 9.643722377130779e+000
 1.693235663994934e+000	 4.277026184895429e+000	 9.749303273420912e+000
 1.650728584274448e+000	 4.293610967609801e+000	 9.749852758356608e+000
 1.608148917563162e+000	 4.309739790181370e+000	 9.765392192399162e+000
 1.565503650978485e+000	 4.325413080726016e+000	 9.793313610347976e+000
 1.522799731868327e+000	 4.340631403007379e+000	 9.831110209092191e+000
 1.480044064707754e+000	 4.355395454684218e+000	 9.876379641897755e+000
 1.437243508068906e+000	 4.369706065478828e+000	 9.926827012507273e+000
 1.394404871666251e+000	 4.383564195269647e+000	 9.878424505415707e+000
 1.351534913479135e+000	 4.396970932111286e+000	 9.773180381561790e+000
 1.308640336953436e+000	 4.409927490185231e+000	 9.674524303092309e+000
 1.265727788283963e+000	 4.422435207684523e+000	 9.583278154368427e+000
 1.702438031732576e+000	 4.300270892421088e+000	 9.804867507750389e+000
 1.659699935275092e+000	 4.316945809824232e+000	 9.819271597421794e+000
 1.616888857332206e+000	 4.333162289040322e+000	 9.849395769968542e+000
 1.574011822994792e+000	 4.348920760511958e+000	 9.892577511358320e+000
 1.531075817368083e+000	 4.364221791066709e+000	 9.946256524765435e+000
 1.488087782451469e+000	 4.379066082154962e+000	 9.960929647440651e+000
 1.445054614091940e+000	 4.393454468008369e+000	 9.858842394054220e+000
 1.401983159013279e+000	 4.407387913722100e+000	 9.763237113905197e+000
 1.358880211922985e+000	 4.420867513264106e+000	 9.675100012054831e+000
 1.315752512698706e+000	 4.433894487414682e+000	 9.595344289887473e+000
 1.272606743655874e+000	 4.446470181639666e+000	 9.524809202755908e+000
 1.711640399470208e+000	 4.323515599946758e+000	 9.854856209117310e+000
 1.668671286275546e+000	 4.340280652038856e+000	 9.883857407703617e+000
 1.625628797100923e+000	 4.356584787899623e+000	 9.929278444513479e+000
 1.582519995010671e+000	 4.372428440298371e+000	 9.988401414531170e+000
 1.539351902867356e+000	 4.387812179126605e+000	 9.914776054160054e+000
 1.496131500194685e+000	 4.402736709626333e+000	 9.819091851301957e+000
 1.452865720114497e+000	 4.417202870538569e+000	 9.730549181512874e+000
 1.409561446359895e+000	 4.431211632175214e+000	 9.650231894259123e+000
 1.366225510366525e+000	 4.444764094417558e+000	 9.579149314486736e+000
 1.322864688443807e+000	 4.457861484644716e+000	 9.518235115747945e+000
 1.279485699027798e+000	 4.470505155595302e+000	 9.468346377591724e+000
 1.720842767207830e+000	 4.346760307472438e+000	 9.899143696621138e+000
 1.677642637275812e+000	 4.363615494253677e+000	 9.943486695083319e+000
 1.634368736869311e+000	 4.380007286759271e+000	 9.953004663408908e+000
 1.591028167026127e+000	 4.395936120085256e+000	 9.855038360378620e+000
 1.547627988366146e+000	 4.411402567187063e+000	 9.763477547355359e+000
 1.504175217937402e+000	 4.426407337098329e+000	 9.679582522147912e+000
 1.460676826136578e+000	 4.440951273069429e+000	 9.604539239554123e+000
 1.417139733706099e+000	 4.455035350628992e+000	 9.539457798919141e+000
 1.373570808809755e+000	 4.468660675571651e+000	 9.485371122093531e+000
 1.329976864188740e+000	 4.481828481875327e+000	 9.443233821255838e+000
 1.286364654399735e+000	 4.494540129551433e+000	 9.413921255545585e+000
 1.730045134945440e+000	 4.370005014998127e+000	 9.937604378804522e+000
 1.686613988275887e+000	 4.386950336468694e+000	 9.881859101535710e+000
 1.643108676637371e+000	 4.403429785619270e+000	 9.785642275507291e+000
 1.599536339041156e+000	 4.419443799872612e+000	 9.696105016128595e+000
 1.555904073864455e+000	 4.434992955248088e+000	 9.614614909325969e+000
 1.512218935679620e+000	 4.450077964570956e+000	 9.542464283216219e+000
 1.468487932158185e+000	 4.464699675600949e+000	 9.480868485319743e+000
 1.424718021051890e+000	 4.478859069083432e+000	 9.430964354925155e+000
 1.380916107252676e+000	 4.492557256726376e+000	 9.393808890558169e+000
 1.337089039933505e+000	 4.505795479106518e+000	 9.370378111962422e+000
 1.293243609771684e+000	 4.518575103508055e+000	 9.361566115473019e+000
 1.739247502683042e+000	 4.393249722523829e+000	 9.806512376202774e+000
 1.695585339275773e+000	 4.410285178683903e+000	 9.710289815933413e+000
 1.651848616405103e+000	 4.426852284479617e+000	 9.620866787535235e+000
 1.608044511055760e+000	 4.442951479660441e+000	 9.539721987450314e+000
 1.564180159362281e+000	 4.458583343309677e+000	 9.468258170760089e+000
 1.520262653421339e+000	 4.473748592044207e+000	 9.407800208355168e+000
 1.476299038179315e+000	 4.488448078133128e+000	 9.359593343563613e+000
 1.432296308397268e+000	 4.502682787538533e+000	 9.324801648714384e+000
 1.388261405695286e+000	 4.516453837881736e+000	 9.304506681543611e+000
 1.344201215678103e+000	 4.529762476338287e+000	 9.299706340796520e+000
 1.300122565143645e+000	 4.542610077465175e+000	 9.311313919838984e+000
 1.748449870420633e+000	 4.416494430049542e+000	 9.632445615350761e+000
 1.704556690275469e+000	 4.433620020899308e+000	 9.541428540815033e+000
 1.660588556172508e+000	 4.450274783340313e+000	 9.458763295316949e+000
 1.616552683069939e+000	 4.466459159448743e+000	 9.385966878790455e+000
 1.572456244859625e+000	 4.482173731371831e+000	 9.324477740506822e+000
 1.528306371162558e+000	 4.497419219518086e+000	 9.275653810165379e+000
 1.484110144199970e+000	 4.512196480665969e+000	 9.240770733293557e+000
 1.439874595742234e+000	 4.526506505994299e+000	 9.221020311400253e+000
 1.395606704137587e+000	 4.540350419037734e+000	 9.217509146746005e+000
 1.351313391422532e+000	 4.553729473570638e+000	 9.231257491028073e+000
 1.307001520515620e+000	 4.566645051422786e+000	 9.263198296728209e+000
 1.238211966796443e+000	 4.326295311868889e+000	 9.234097110868925e+000
 1.196221161306078e+000	 4.338093467580077e+000	 9.202354617125607e+000
 1.154225599546729e+000	 4.349455513689764e+000	 9.182614135888867e+000
 1.112231600071145e+000	 4.360383110233927e+000	 9.175680121026947e+000
 1.070245415609067e+000	 4.370878029706319e+000	 9.182208627850663e+000
 1.028273230823133e+000	 4.380942154715376e+000	 9.137739635466719e+000
 9.863211601505714e-001	 4.390577475596269e+000	 9.068962004038831e+000
 9.443952457313436e-001	 4.399786087981417e+000	 9.021030092501420e+000
 9.025014554232422e-001	 4.408570190332767e+000	 8.993450637700953e+000
 8.606456809043406e-001	 4.416932081439071e+000	 8.985688160333904e+000
 8.188337358630459e-001	 4.424874157881446e+000	 8.997165175396793e+000
 1.245090922168304e+000	 4.350330285822056e+000	 9.468791264361398e+000
 1.202866834424291e+000	 4.362193986843245e+000	 9.454141518938799e+000
 1.160637963987752e+000	 4.373619155431682e+000	 9.449648437973854e+000
 1.118410664514505e+000	 4.384607460845763e+000	 9.348012776424877e+000
 1.076191223471678e+000	 4.395160685426433e+000	 9.249987236481523e+000
 1.033985859881143e+000	 4.405280722241064e+000	 9.170977017624965e+000
 9.918007221492238e-001	 4.414969572682244e+000	 9.110599266534983e+000
 9.496418859833251e-001	 4.424229344024799e+000	 9.068430341423795e+000
 9.075153523960025e-001	 4.433062246944354e+000	 9.044005750826139e+000
 8.654270457968732e-001	 4.441470593000706e+000	 9.036820191085505e+000
 8.233828121726124e-001	 4.449456792089316e+000	 9.046327681083398e+000
 1.251969877540177e+000	 4.374365259775718e+000	 9.698648848872942e+000
 1.209512507542697e+000	 4.386294506106817e+000	 9.574726422572866e+000
 1.167050328429106e+000	 4.397782797173934e+000	 9.456373228765884e+000
 1.124589728958293e+000	 4.408831811457885e+000	 9.354980311161210e+000
 1.082137031334772e+000	 4.419443341146804e+000	 9.270268475676877e+000
 1.039698488939652e+000	 4.429619289767003e+000	 9.201919845207963e+000
 9.972802841483516e-001	 4.439361669768482e+000	 9.149577520093990e+000
 9.548885262357177e-001	 4.448672600068478e+000	 9.112845339684798e+000
 9.125292493690708e-001	 4.457554303556283e+000	 9.091287744241932e+000
 8.702084106895723e-001	 4.466009104562757e+000	 9.084429736121523e+000
 8.279318884821645e-001	 4.474039426297694e+000	 9.091756938905089e+000
 1.258848832912064e+000	 4.398400233729873e+000	 9.643722377130779e+000
 1.216158180661293e+000	 4.410395025370794e+000	 9.546658141683343e+000
 1.173462692870789e+000	 4.421946438916520e+000	 9.446479036011052e+000
 1.130768793402506e+000	 4.433056162070294e+000	 9.360597826540586e+000
 1.088082839198348e+000	 4.443725996867436e+000	 9.288758271031657e+000
 1.045411117998660e+000	 4.453957857293191e+000	 9.230667097184213e+000
 1.002759846147954e+000	 4.463753766854984e+000	 9.185993585372117e+000
 9.601351664885216e-001	 4.473115856112448e+000	 9.154369252846529e+000
 9.175431463424475e-001	 4.482046360168563e+000	 9.135387638777143e+000
 8.749897755824373e-001	 4.490547616125227e+000	 9.128604189202608e+000
 8.324809647917018e-001	 4.498622060506580e+000	 9.133536240675305e+000
 1.265727788283963e+000	 4.422435207684523e+000	 9.583278154368427e+000
 1.222803853780082e+000	 4.434495544635175e+000	 9.518336680201246e+000
 1.179875057312801e+000	 4.446110080659443e+000	 9.435816233258477e+000
 1.136947857847147e+000	 4.457280512682990e+000	 9.364967542092000e+000
 1.094028647062408e+000	 4.468008652588325e+000	 9.305557608158615e+000
 1.051123747058167e+000	 4.478296424819630e+000	 9.257318026476002e+000
 1.008239408148032e+000	 4.488145863941748e+000	 9.219944490554468e+000
 9.653818067417367e-001	 4.497559112156714e+000	 9.193096399213236e+000
 9.225570433161322e-001	 4.506538416781186e+000	 9.176396564780132e+000
 8.797711404754686e-001	 4.515086127688112e+000	 9.169431021870642e+000
 8.370300411012241e-001	 4.523204694715973e+000	 9.171748935649411e+000
 1.272606743655874e+000	 4.446470181639666e+000	 9.524809202755908e+000
 1.229449526899063e+000	 4.458596063899961e+000	 9.489865842735654e+000
 1.186287421755143e+000	 4.470273722402702e+000	 9.424488297651315e+000
 1.143126922292214e+000	 4.481504863295973e+000	 9.368192107383615e+000
 1.099974454926952e+000	 4.492291308309474e+000	 9.320767815239675e+000
 1.056836376118173e+000	 4.502634992346319e+000	 9.281972152555241e+000
 1.013718970148585e+000	 4.512537961028775e+000	 9.251527465746134e+000
 9.706284469953630e-001	 4.522002368201274e+000	 9.229121245703052e+000
 9.275709402901251e-001	 4.531030473394154e+000	 9.214405759158691e+000
 8.845525053686659e-001	 4.539624639251416e+000	 9.206997781346557e+000
 8.415791174107322e-001	 4.547787328925875e+000	 9.206478428972247e+000
 1.279485699027798e+000	 4.470505155595302e+000	 9.468346377591724e+000
 1.236095200018235e+000	 4.482696583165149e+000	 9.461350056245069e+000
 1.192699786197815e+000	 4.494437364146294e+000	 9.412599221125751e+000
 1.149305986737708e+000	 4.505729213909241e+000	 9.370374590462555e+000
 1.105920262791978e+000	 4.516573964030878e+000	 9.334490553817172e+000
 1.062549005178678e+000	 4.526973559873260e+000	 9.304729254278175e+000
 1.019198532149612e+000	 4.536930058116062e+000	 9.280839937544210e+000
 9.758750872494005e-001	 4.546445624246128e+000	 9.262538403853119e+000
 9.325848372644264e-001	 4.555522530007470e+000	 9.249506562515654e+000
 8.893338702620292e-001	 4.564163150815134e+000	 9.241392088495928e+000
 8.461281937202254e-001	 4.572369963136283e+000	 9.237808180175696e+000
 1.286364654399735e+000	 4.494540129551433e+000	 9.413921255545585e+000
 1.242740873137600e+000	 4.506797102430743e+000	 9.432894353397145e+000
 1.199112150640817e+000	 4.518601005890221e+000	 9.400253496646490e+000
 1.155485051183629e+000	 4.529953564522797e+000	 9.371618466665606e+000
 1.111866070657487e+000	 4.540856619752544e+000	 9.346827809880390e+000
 1.068261634239683e+000	 4.551312127400450e+000	 9.325689362949978e+000
 1.024678094151114e+000	 4.561322155203613e+000	 9.307979523784040e+000
 9.811217275038495e-001	 4.570888880291277e+000	 9.293442625952677e+000
 9.375987342390358e-001	 4.580014586621130e+000	 9.281790416376280e+000
 8.941152351555585e-001	 4.588701662379271e+000	 9.272701635859855e+000
 8.506772700297042e-001	 4.596952597347197e+000	 9.265821701724503e+000
 1.293243609771684e+000	 4.518575103508055e+000	 9.361566115473019e+000
 1.249386546257156e+000	 4.530897621696742e+000	 9.404604356459403e+000
 1.205524515084149e+000	 4.542764647634485e+000	 9.387556104881504e+000
 1.161664115629977e+000	 4.554177915136640e+000	 9.372027607787123e+000
 1.117811878523479e+000	 4.565139275474467e+000	 9.357881885236759e+000
 1.073974263301186e+000	 4.575650694927892e+000	 9.344952755610654e+000
 1.030157656153092e+000	 4.585714252291426e+000	 9.333044028453065e+000
 9.863683677587096e-001	 4.595332136336720e+000	 9.321928801299707e+000
 9.426126312139533e-001	 4.604506643235137e+000	 9.311348860504106e+000
 8.988966000492540e-001	 4.613240173943826e+000	 9.301014185748732e+000
 8.552263463391679e-001	 4.621535231558619e+000	 9.290602557608505e+000
 1.300122565143645e+000	 4.542610077465175e+000	 9.311313919838984e+000
 1.256032219376904e+000	 4.554998140963141e+000	 9.368901121598618e+000
 1.211936879527810e+000	 4.566928289379082e+000	 9.374612501299870e+000
 1.167843180076751e+000	 4.578402265750768e+000	 9.371706271590668e+000
 1.123757686389954e+000	 4.589421931196648e+000	 9.367755389156811e+000
 1.079686892363189e+000	 4.599989262455583e+000	 9.362619948534157e+000
 1.035637218155545e+000	 4.610106349379503e+000	 9.356131436766161e+000
 9.916150080139813e-001	 4.619775392382458e+000	 9.348091952576343e+000
 9.476265281891790e-001	 4.628998699849491e+000	 9.338273530302098e+000
 9.036779649431154e-001	 4.637778685508796e+000	 9.326417568396462e+000
 8.597754226486175e-001	 4.646117865770551e+000	 9.312234361979471e+000
 1.307001520515620e+000	 4.566645051422786e+000	 9.263198296728209e+000
 1.262677892496843e+000	 4.579098660229949e+000	 9.334004597604890e+000
 1.218349243971802e+000	 4.591091931124016e+000	 9.361528603676955e+000
 1.174022244523952e+000	 4.602626616365185e+000	 9.370759091651946e+000
 1.129703494256913e+000	 4.613704586919090e+000	 9.376551230283004e+000
 1.085399521425690e+000	 4.624327829983526e+000	 9.378791690932705e+000
 1.041116780158473e+000	 4.634498446467843e+000	 9.377339910396501e+000
 9.968616482696642e-001	 4.644218648428491e+000	 9.372027232338763e+000
 9.526404251647134e-001	 4.653490756464190e+000	 9.362656154295792e+000
 9.084593298371433e-001	 4.662317197074184e+000	 9.348999680173050e+000
 8.643244989580522e-001	 4.670700499982988e+000	 9.330800777831135e+000
 8.188337358630459e-001	 4.424874157881446e+000	 8.997165175396793e+000
 7.770713542760024e-001	 4.432398911470850e+000	 8.949671922731174e+000
 7.353641887737129e-001	 4.439508926659324e+000	 8.917056626807760e+000
 6.937178090935393e-001	 4.446206877929084e+000	 8.898884824981666e+000
 6.521377006203357e-001	 4.452495527163421e+000	 8.894679974335002e+000
 6.106292630141446e-001	 4.458377721001112e+000	 8.917427475615877e+000
 5.691978089245402e-001	 4.463856388177795e+000	 8.964244289859865e+000
 5.278485627910554e-001	 4.468934536857286e+000	 9.002849971378289e+000
 4.865866597290441e-001	 4.473615251955685e+000	 9.033463920494006e+000
 4.454171445002333e-001	 4.477901692461161e+000	 9.056169059526003e+000
 4.043449705671096e-001	 4.481797088752095e+000	 9.070915089460859e+000
 8.233828121726124e-001	 4.449456792089316e+000	 9.046327681083398e+000
 7.813884173551501e-001	 4.457023349864672e+000	 8.999975727502646e+000
 7.394495453783545e-001	 4.464172865137007e+000	 8.967739910396475e+000
 6.975717969225731e-001	 4.470908027246774e+000	 8.949205662342900e+000
 6.557606878470220e-001	 4.477231613421060e+000	 8.943916153845240e+000
 6.140216478098556e-001	 4.483146486113297e+000	 8.960801964621517e+000
 5.723600189753694e-001	 4.488655590329879e+000	 9.003401137192890e+000
 5.307810548077608e-001	 4.493761950946637e+000	 9.037929497750666e+000
 4.892899189508035e-001	 4.498468670018098e+000	 9.064625854812894e+000
 4.478916841926801e-001	 4.502778924082358e+000	 9.083590140131124e+000
 4.065913315151142e-001	 4.506695961464353e+000	 9.094786703152993e+000
 8.279318884821645e-001	 4.474039426297694e+000	 9.091756938905089e+000
 7.857054804340988e-001	 4.481647788259090e+000	 9.046393603801942e+000
 7.435349019826437e-001	 4.488836803615357e+000	 9.014404194395070e+000
 7.014257847511325e-001	 4.495609176565181e+000	 8.995394222496884e+000
 6.593836750731416e-001	 4.501967699679441e+000	 8.988926735789949e+000
 6.174140326049386e-001	 4.507915251226232e+000	 9.000448456914507e+000
 5.755222290255385e-001	 4.513454792482698e+000	 9.038801640308915e+000
 5.337135468238045e-001	 4.518589365036694e+000	 9.069266654607839e+000
 4.919931781719292e-001	 4.523322088081166e+000	 9.092101643412757e+000
 4.503662238845498e-001	 4.527656155704141e+000	 9.107423427036968e+000
 4.088376924626270e-001	 4.531594834177102e+000	 9.115210835830505e+000
 8.324809647917018e-001	 4.498622060506580e+000	 9.133536240675305e+000
 7.900225435128486e-001	 4.506272226654105e+000	 9.089003956077903e+000
 7.476202585865805e-001	 4.513500742094372e+000	 9.057122849581843e+000
 7.052797725792167e-001	 4.520310325884299e+000	 9.037518701298311e+000
 6.630066622986947e-001	 4.526703785938562e+000	 9.029774604874939e+000
 6.208064173993930e-001	 4.532684016339916e+000	 9.036393719285071e+000
 5.786844390750477e-001	 4.538253994636254e+000	 9.070467746781151e+000
 5.366460388391863e-001	 4.543416779127455e+000	 9.096878644191122e+000
 4.946964373924205e-001	 4.548175506144885e+000	 9.115903820130214e+000
 4.528407635758420e-001	 4.552533387326506e+000	 9.127676865417763e+000
 4.110840534096479e-001	 4.556493706890342e+000	 9.132190926337575e+000
 8.370300411012241e-001	 4.523204694715973e+000	 9.171748935649411e+000
 7.943396065913998e-001	 4.530896665049719e+000	 9.127885244106251e+000
 7.517056151901652e-001	 4.538164680574053e+000	 9.095969304349307e+000
 7.091337604068266e-001	 4.545011475204132e+000	 9.075647358865719e+000
 6.666296495236811e-001	 4.551439872198428e+000	 9.066522721039258e+000
 6.241988021932194e-001	 4.557452781454349e+000	 9.068664609001997e+000
 5.818466491238974e-001	 4.563053196790550e+000	 9.098421514136739e+000
 5.395785308539065e-001	 4.568244193218922e+000	 9.120782802353430e+000
 4.973996966122779e-001	 4.573028924209257e+000	 9.136045080204475e+000
 4.553153032665570e-001	 4.577410618949452e+000	 9.144358593723483e+000
 4.133304143561772e-001	 4.581392579604075e+000	 9.145730642697409e+000
 8.415791174107322e-001	 4.547787328925875e+000	 9.206478428972247e+000
 7.986566696697515e-001	 4.555521103445926e+000	 9.163115981494233e+000
 7.557909717933976e-001	 4.562828619054400e+000	 9.131017043147127e+000
 7.129877482339616e-001	 4.569712624524679e+000	 9.109848517844482e+000
 6.702526367481011e-001	 4.576175958459034e+000	 9.099234117421867e+000
 6.275911869864177e-001	 4.582221546569534e+000	 9.098754649693914e+000
 5.850088591720872e-001	 4.587852398945581e+000	 9.122685106884916e+000
 5.425110228679650e-001	 4.593071607311093e+000	 9.140996594948183e+000
 5.001029558315010e-001	 4.597882342274283e+000	 9.152538275914990e+000
 4.577898429566945e-001	 4.602287850572979e+000	 9.157476938456199e+000
 4.155767753022150e-001	 4.606291452318299e+000	 9.155833875918095e+000
 8.461281937202254e-001	 4.572369963136283e+000	 9.237808180175696e+000
 8.029737327479043e-001	 4.580145541842733e+000	 9.194774734233548e+000
 7.598763283962778e-001	 4.587492557535412e+000	 9.162339604975099e+000
 7.168417360606217e-001	 4.594413773845941e+000	 9.140190561726104e+000
 6.738756239719542e-001	 4.600912044720382e+000	 9.127971898393849e+000
 6.309835717789875e-001	 4.606990311685467e+000	 9.125284690348973e+000
 5.881710692196170e-001	 4.612651601101351e+000	 9.143280793641255e+000
 5.454435148813620e-001	 4.617899021403971e+000	 9.157537614334634e+000
 5.028062150500900e-001	 4.622735760339963e+000	 9.165396412359989e+000
 4.602643826462547e-001	 4.627165082197090e+000	 9.167040409114927e+000
 4.178231362477610e-001	 4.631190325033014e+000	 9.162504733998528e+000
 8.506772700297042e-001	 4.596952597347197e+000	 9.265821701724503e+000
 8.072907958258579e-001	 4.604769980240135e+000	 9.222940119299722e+000
 7.639616849988057e-001	 4.612156496017090e+000	 9.190010581924657e+000
 7.206957238868073e-001	 4.619114923167915e+000	 9.166741933221228e+000
 6.774986111952407e-001	 4.625648130982472e+000	 9.152799237653886e+000
 6.343759565709292e-001	 4.631759076802148e+000	 9.147804006237891e+000
 5.913332792664872e-001	 4.637450803257858e+000	 9.160230944344017e+000
 5.483760068940971e-001	 4.642726435497554e+000	 9.170423575995407e+000
 5.055094742680453e-001	 4.647589178406296e+000	 9.174632643370400e+000
 4.627389223352376e-001	 4.652042313821782e+000	 9.173057693302546e+000
 4.200694971928152e-001	 4.656089197748221e+000	 9.165747536126425e+000
 8.552263463391679e-001	 4.621535231558619e+000	 9.290602557608505e+000
 8.116078589036128e-001	 4.629394418638134e+000	 9.247690803296115e+000
 7.680470416009811e-001	 4.636820434499433e+000	 9.214103617766854e+000
 7.245497117125181e-001	 4.643816072490604e+000	 9.189571132684707e+000
 6.811215984179607e-001	 4.650384217245303e+000	 9.173779376384399e+000
 6.377683413622425e-001	 4.656527841919581e+000	 9.166370468403294e+000
 5.944954893126973e-001	 4.662250005415101e+000	 9.173558027559425e+000
 5.513084989061706e-001	 4.667553849591840e+000	 9.179672315261888e+000
 5.082127334853660e-001	 4.672442596473283e+000	 9.180260267554196e+000
 4.652134620236431e-001	 4.676919545447056e+000	 9.175537651989153e+000
 4.223158581373777e-001	 4.680988070463921e+000	 9.165566807061635e+000
 8.597754226486175e-001	 4.646117865770551e+000	 9.312234361979471e+000
 8.159249219811684e-001	 4.654018857036731e+000	 9.269105501141043e+000
 7.721323982028044e-001	 4.661484372982442e+000	 9.234692406585154e+000
 7.284036995377543e-001	 4.668517221814007e+000	 9.208746716590625e+000
 6.847445856401141e-001	 4.675120303508878e+000	 9.190975621466256e+000
 6.411607261529279e-001	 4.681296607037764e+000	 9.181042026899466e+000
 5.976576993582478e-001	 4.687049207573082e+000	 9.183284607872464e+000
 5.542409909175825e-001	 4.692381263686833e+000	 9.185301784143658e+000
 5.109159927020528e-001	 4.697296014540922e+000	 9.182292724466324e+000
 4.676880017114714e-001	 4.701796777072913e+000	 9.174489314925506e+000
 4.245622190814485e-001	 4.705886943180112e+000	 9.161967271697677e+000
 8.643244989580522e-001	 4.670700499982988e+000	 9.330800777831135e+000
 8.202419850585254e-001	 4.678643295435927e+000	 9.287262974796326e+000
 7.762177548042755e-001	 4.686148311466118e+000	 9.251850691451441e+000
 7.322576873625158e-001	 4.693218371138126e+000	 9.224337296055454e+000
 6.883675728617010e-001	 4.699856389773195e+000	 9.204451343749879e+000
 6.445531109429850e-001	 4.706065372156695e+000	 9.191876708713057e+000
 6.008199094031385e-001	 4.711848409731801e+000	 9.189433343359996e+000
 5.571734829283327e-001	 4.717208677782532e+000	 9.187330048258007e+000
 5.136192519181055e-001	 4.722149432609216e+000	 9.180743590899558e+000
 4.701625413987223e-001	 4.726674008699353e+000	 9.169921876201510e+000
 4.268085800250276e-001	 4.730785815896795e+000	 9.154953849795133e+000
 4.043449705671096e-001	 4.481797088752095e+000	 9.070915089460859e+000
 3.633749992293684e-001	 4.485304739916109e+000	 9.073930558679663e+000
 3.225119988439666e-001	 4.488428011073319e+000	 9.095558646184403e+000
 2.817606441259506e-001	 4.491170330705894e+000	 9.135180360490883e+000
 2.411255155271930e-001	 4.493535187995821e+000	 9.192040004088893e+000
 2.006110986943447e-001	 4.495526130174090e+000	 9.265249864086981e+000
 1.602217840038418e-001	 4.497146759883373e+000	 9.353795034235592e+000
 1.199618661725720e-001	 4.498400732556415e+000	 9.456538353812903e+000
 7.983554394276284e-002	 4.499291753812300e+000	 9.572225449060465e+000
 3.984691983959775e-002	 4.499823576872690e+000	 9.699489863090001e+000
 0.000000000000000e+000	 4.500000000000000e+000	 9.836858260450249e+000
 4.065913315151142e-001	 4.506695961464353e+000	 9.094786703152993e+000
 3.653937492251137e-001	 4.510223099579862e+000	 9.095448991566626e+000
 3.243037321705993e-001	 4.513363722244021e+000	 9.112359196667409e+000
 2.833259810372557e-001	 4.516121276986122e+000	 9.144928648283978e+000
 2.424651017239094e-001	 4.518499272372497e+000	 9.192431425884831e+000
 2.017256047974699e-001	 4.520501275340979e+000	 9.254009045625459e+000
 1.611119050253528e-001	 4.522130908548917e+000	 9.328675281102365e+000
 1.206283209839831e-001	 4.523391847737017e+000	 9.415321103174028e+000
 8.027907474193338e-002	 4.524287819111140e+000	 9.512719724409315e+000
 4.006829161619280e-002	 4.524822596744175e+000	 9.619531733957611e+000
 0.000000000000000e+000	 4.525000000000000e+000	 9.734310308904462e+000
 4.088376924626270e-001	 4.531594834177102e+000	 9.115210835830505e+000
 3.674124992204621e-001	 4.535141459244013e+000	 9.113581477496716e+000
 3.260954654969194e-001	 4.538299433415035e+000	 9.125905511604032e+000
 2.848913179483222e-001	 4.541072223266592e+000	 9.151624035566837e+000
 2.438046879204512e-001	 4.543463356749351e+000	 9.190040298527670e+000
 2.028401109004743e-001	 4.545476420507987e+000	 9.240324386523346e+000
 1.620020260467867e-001	 4.547115057214537e+000	 9.301518043720600e+000
 1.212947757953511e-001	 4.548382962917662e+000	 9.372539614952160e+000
 8.072260554108483e-002	 4.549283884409997e+000	 9.452189094983735e+000
 4.028966339278307e-002	 4.549821616615666e+000	 9.539153270175669e+000
 0.000000000000000e+000	 4.550000000000000e+000	 9.632010938472559e+000
 4.110840534096479e-001	 4.556493706890342e+000	 9.132190926337575e+000
 3.694312492154133e-001	 4.560059818908559e+000	 9.128329009523712e+000
 3.278871988229268e-001	 4.563235144586363e+000	 9.136195754823515e+000
 2.864566548591501e-001	 4.566023169547295e+000	 9.155261479591680e+000
 2.451442741168182e-001	 4.568427441126377e+000	 9.184858001401087e+000
 2.039546170033579e-001	 4.570451565675120e+000	 9.224183323041000e+000
 1.628921470681436e-001	 4.572099205880234e+000	 9.272306455982049e+000
 1.219612306066758e-001	 4.573374078098350e+000	 9.328172367405148e+000
 8.116613634021710e-002	 4.574279949708876e+000	 9.390607036090174e+000
 4.051103516936858e-002	 4.574820636487162e+000	 9.458322602694471e+000
 0.000000000000000e+000	 4.574999999999999e+000	 9.529922600220258e+000
 4.133304143561772e-001	 4.581392579604075e+000	 9.145730642697409e+000
 3.714499992099677e-001	 4.584978178573502e+000	 9.139692806806833e+000
 3.296789321486217e-001	 4.588170855758004e+000	 9.143228327331576e+000
 2.880219917697396e-001	 4.590974115828240e+000	 9.155836199856429e+000
 2.464838603130108e-001	 4.593391525503579e+000	 9.176876215049433e+000
 2.050691231061205e-001	 4.595426710842369e+000	 9.205573645203092e+000
 1.637822680894234e-001	 4.597083354546010e+000	 9.241024071673401e+000
 1.226276854179574e-001	 4.598365193279084e+000	 9.282198338176274e+000
 8.160966713933031e-002	 4.599276015007772e+000	 9.327947615099241e+000
 4.073240694594931e-002	 4.599819656358660e+000	 9.377008560220402e+000
 0.000000000000000e+000	 4.600000000000000e+000	 9.428008561494547e+000
 4.155767753022150e-001	 4.606291452318299e+000	 9.155833875918095e+000
 3.734687492041253e-001	 4.609896538238842e+000	 9.147674308499795e+000
 3.314706654740040e-001	 4.613106566929956e+000	 9.147001860900270e+000
 2.895873286800905e-001	 4.615925062109422e+000	 9.153343671016675e+000
 2.478234465090286e-001	 4.618355609880955e+000	 9.166086913038138e+000
 2.061836292087624e-001	 4.620401856009741e+000	 9.184483487237710e+000
 1.646723891106261e-001	 4.622067503211863e+000	 9.207654853127881e+000
 1.232941402291957e-001	 4.623356308459859e+000	 9.234596990797174e+000
 8.205319793842432e-002	 4.624272080306686e+000	 9.264185475444203e+000
 4.095377872252528e-002	 4.624818676230165e+000	 9.295180650357743e+000
 0.000000000000000e+000	 4.624999999999999e+000	 9.326232883861776e+000
 4.178231362477610e-001	 4.631190325033014e+000	 9.162504733998528e+000
 3.754874991978857e-001	 4.634814897904579e+000	 9.152275167836850e+000
 3.332623987990737e-001	 4.638042278102219e+000	 9.147515211864503e+000
 2.911526655902029e-001	 4.640876008390843e+000	 9.147779616026861e+000
 2.491630327048718e-001	 4.643319694258506e+000	 9.152482354076890e+000
 2.072981353112834e-001	 4.645377001177234e+000	 9.160901318323345e+000
 1.655625101317517e-001	 4.647051651877790e+000	 9.172183160242634e+000
 1.239605950403908e-001	 4.648347423640677e+000	 9.185348261626595e+000
 8.249672873749922e-002	 4.649268145605621e+000	 9.199295821135301e+000
 4.117515049909649e-002	 4.649817696101675e+000	 9.212809041358563e+000
 0.000000000000000e+000	 4.650000000000000e+000	 9.224560401757973e+000
 4.200694971928152e-001	 4.656089197748221e+000	 9.165747536126425e+000
 3.775062491912493e-001	 4.659733257570714e+000	 9.153497246408906e+000
 3.350541321238309e-001	 4.662977989274798e+000	 9.144767455117824e+000
 2.927180025000769e-001	 4.665826954672504e+000	 9.139139999501163e+000
 2.505026189005404e-001	 4.668283778636232e+000	 9.136055074395383e+000
 2.084126414136835e-001	 4.670352146344848e+000	 9.134815933633016e+000
 1.664526311528003e-001	 4.672035800543796e+000	 9.134593739848947e+000
 1.246270498515428e-001	 4.673338538821540e+000	 9.134432547207732e+000
 8.294025953655498e-002	 4.674264210904576e+000	 9.133254401771074e+000
 4.139652227566294e-002	 4.674816715973188e+000	 9.129864544458524e+000
 0.000000000000000e+000	 4.675000000000000e+000	 9.122956701823672e+000
 4.223158581373777e-001	 4.680988070463921e+000	 9.165566807061635e+000
 3.795249991842159e-001	 4.684651617237246e+000	 9.151342608621940e+000
 3.368458654482753e-001	 4.687913700447686e+000	 9.138757878299517e+000
 2.942833394097122e-001	 4.690777900954401e+000	 9.127421021286304e+000
 2.518422050960344e-001	 4.693247863014131e+000	 9.116797880362467e+000
 2.095271475159629e-001	 4.695327291512582e+000	 9.106216445664362e+000
 1.673427521737718e-001	 4.697019949209878e+000	 9.094871715421212e+000
 1.252935046626515e-001	 4.698329654002444e+000	 9.081830692029353e+000
 8.338379033559164e-002	 4.699260276203551e+000	 9.066037498028056e+000
 4.161789405222462e-002	 4.699815735844708e+000	 9.046318596776164e+000
 0.000000000000000e+000	 4.699999999999999e+000	 9.021388102898563e+000
 4.245622190814485e-001	 4.705886943180112e+000	 9.161967271697677e+000
 3.815437491767854e-001	 4.709569976904174e+000	 9.145813516331645e+000
 3.386375987724072e-001	 4.712849411620889e+000	 9.129485976166588e+000
 2.958486763191092e-001	 4.715728847236538e+000	 9.112619110238676e+000
 2.531817912913537e-001	 4.718211947392206e+000	 9.094703841339729e+000
 2.106416536181213e-001	 4.720302436680438e+000	 9.075092275844623e+000
 1.682328731946662e-001	 4.722004097876039e+000	 9.053002577112972e+000
 1.259599594737171e-001	 4.723320769183392e+000	 9.027523976675434e+000
 8.382732113460913e-002	 4.724256341502541e+000	 8.997621907610965e+000
 4.183926582878153e-002	 4.724814755716230e+000	 8.962143244755060e+000
 0.000000000000000e+000	 4.725000000000000e+000	 8.919821636651156e+000
 4.268085800250276e-001	 4.730785815896795e+000	 9.154953849795133e+000
 3.835624991689582e-001	 4.734488336571500e+000	 9.136912423647312e+000
 3.404293320962267e-001	 4.737785122794405e+000	 9.116951445143133e+000
 2.974140132282676e-001	 4.740679793518913e+000	 9.094730918197511e+000
 2.545213774864985e-001	 4.743176031770457e+000	 9.069766282760421e+000
 2.117561597201589e-001	 4.745277581848414e+000	 9.041433146401015e+000
 1.691229942154836e-001	 4.746988246542276e+000	 9.008972172107301e+000
 1.266264142847394e-001	 4.748311884364385e+000	 8.971494106348940e+000
 8.427085193360755e-002	 4.749252406801554e+000	 8.927984931647030e+000
 4.206063760533369e-002	 4.749813775587760e+000	 8.877311128129227e+000
 0.000000000000000e+000	 4.750000000000000e+000	 8.818225028820022e+000
 4.750000000000000e+000	 0.000000000000000e+000	 1.020294066776966e+001
 4.749813775587761e+000	 4.206063760533384e-002	 1.020083157703655e+001
 4.749252406801552e+000	 8.427085193360784e-002	 1.019871269006421e+001
 4.748311884364385e+000	 1.266264142847391e-001	 1.019765857379298e+001
 4.746988246542277e+000	 1.691229942154834e-001	 1.019863349140189e+001
 4.745277581848414e+000	 2.117561597201589e-001	 1.020248725651097e+001
 4.743176031770457e+000	 2.545213774864986e-001	 1.020995122235837e+001
 4.740679793518913e+000	 2.974140132282679e-001	 1.022163441968581e+001
 4.737785122794405e+000	 3.404293320962264e-001	 1.023801985715815e+001
 4.734488336571500e+000	 3.835624991689580e-001	 1.025946099819453e+001
 4.730785815896796e+000	 4.268085800250276e-001	 1.028617842810000e+001
 4.775000000000001e+000	 0.000000000000000e+000	 1.025369872894427e+001
 4.774812795459289e+000	 4.228200938188836e-002	 1.025061228400114e+001
 4.774248472100565e+000	 8.471438273261578e-002	 1.024654778140016e+001
 4.773302999545376e+000	 1.272928690957831e-001	 1.024261671947804e+001
 4.771972395208514e+000	 1.700131152363393e-001	 1.023981998824848e+001
 4.770252727016390e+000	 2.128706658222569e-001	 1.023904367560898e+001
 4.768140116148707e+000	 2.558609636817307e-001	 1.024105500942564e+001
 4.765630739801289e+000	 2.989793501375455e-001	 1.024649844938398e+001
 4.762720833967920e+000	 3.422210654202020e-001	 1.025589194258738e+001
 4.759406696238825e+000	 3.855812491613292e-001	 1.026962335693828e+001
 4.755684688613478e+000	 4.290549409688527e-001	 1.028794710634900e+001
 4.800000000000001e+000	 0.000000000000000e+000	 1.029333645052769e+001
 4.799811815330812e+000	 4.250338115845243e-002	 1.029025853723232e+001
 4.799244537399557e+000	 8.515791353166197e-002	 1.028528881285126e+001
 4.798294114726322e+000	 1.279593239069134e-001	 1.027957570846233e+001
 4.796956543874674e+000	 1.709032362573494e-001	 1.027415668967918e+001
 4.795227872184246e+000	 2.139851719245966e-001	 1.026995401365683e+001
 4.793104200526780e+000	 2.572005498773120e-001	 1.026777062292593e+001
 4.790581686083425e+000	 3.005446870473001e-001	 1.026828619010152e+001
 4.787656545141124e+000	 3.440127987448029e-001	 1.027205332760805e+001
 4.784325055905753e+000	 3.875999991544943e-001	 1.027949397661685e+001
 4.780583561329669e+000	 4.313013019136611e-001	 1.029089598940452e+001
 4.825000000000000e+000	 0.000000000000000e+000	 1.032207869449603e+001
 4.824810835202331e+000	 4.272475293502601e-002	 1.031998305079204e+001
 4.824240602698530e+000	 8.560144433074646e-002	 1.031513621257181e+001
 4.823285229907229e+000	 1.286257787181301e-001	 1.030872354707893e+001
 4.821940692540756e+000	 1.717933572785135e-001	 1.030181904636072e+001
 4.820203017351980e+000	 2.150996780271781e-001	 1.029538103386427e+001
 4.818068284904680e+000	 2.585401360732425e-001	 1.029024800885898e+001
 4.815532632365324e+000	 3.021100239575318e-001	 1.028713464289380e+001
 4.812592256314012e+000	 3.458045320700288e-001	 1.028662794259408e+001
 4.809243415572285e+000	 3.896187491484532e-001	 1.028918359315914e+001
 4.805482434045368e+000	 4.335476628594529e-001	 1.029512249693452e+001
 4.850000000000000e+000	 0.000000000000000e+000	 1.034014568649595e+001
 4.849809855073845e+000	 4.294612471160915e-002	 1.033999423095587e+001
 4.849236667997485e+000	 8.604497512986921e-002	 1.033628643754224e+001
 4.848276345088090e+000	 1.292922335294333e-001	 1.033024461513013e+001
 4.846924841206762e+000	 1.726834782998319e-001	 1.032297923505882e+001
 4.845178162519593e+000	 2.162141841300012e-001	 1.031548458610712e+001
 4.843032369282406e+000	 2.598797222695223e-001	 1.030863456834091e+001
 4.840483578646983e+000	 3.036753608682405e-001	 1.030317864020664e+001
 4.837527967486590e+000	 3.475962653958800e-001	 1.029973793334283e+001
 4.834161775238419e+000	 3.916374991432062e-001	 1.029880154963936e+001
 4.830381306760575e+000	 4.357940238062281e-001	 1.030072305508756e+001
 4.875000000000000e+000	 0.000000000000000e+000	 1.034775313472501e+001
 4.874808874945352e+000	 4.316749648820179e-002	 1.035049628666898e+001
 4.874232733296419e+000	 8.648850592903019e-002	 1.034893207539406e+001
 4.873267460268909e+000	 1.299586883408228e-001	 1.034431975887548e+001
 4.871908989872691e+000	 1.735735993213043e-001	 1.033780624258428e+001
 4.870153307687087e+000	 2.173286902330660e-001	 1.033042168162811e+001
 4.867996453659956e+000	 2.612193084661514e-001	 1.032307522285768e+001
 4.865434524928405e+000	 3.052406977794263e-001	 1.031655090148169e+001
 4.862463678658855e+000	 3.493879987223564e-001	 1.031150370683353e+001
 4.859080134904157e+000	 3.936562491387530e-001	 1.030845583199130e+001
 4.855280179475290e+000	 4.380403847539867e-001	 1.030779312196765e+001
 4.900000000000000e+000	 0.000000000000000e+000	 1.034511234517261e+001
 4.899807894816859e+000	 4.338886826480400e-002	 1.035168933662104e+001
 4.899228798595335e+000	 8.693203672822945e-002	 1.035326194311779e+001
 4.898258575449684e+000	 1.306251431522988e-001	 1.035112638117311e+001
 4.896893138538543e+000	 1.744637203429310e-001	 1.034646594716939e+001
 4.895128452854458e+000	 2.184431963363725e-001	 1.034034656545102e+001
 4.892960538037332e+000	 2.625588946631297e-001	 1.033371247752091e+001
 4.890385471209588e+000	 3.068060346910890e-001	 1.032738208705960e+001
 4.887399389830808e+000	 3.511797320494579e-001	 1.032204397558483e+001
 4.883998494569497e+000	 3.956749991350937e-001	 1.031825310362924e+001
 4.880179052189514e+000	 4.402867457027287e-001	 1.031642721232923e+001
 4.925000000000000e+000	 0.000000000000000e+000	 1.033243033335124e+001
 4.924806914688357e+000	 4.361024004141571e-002	 1.034376951305958e+001
 4.924224863894231e+000	 8.737556752746696e-002	 1.034946118276448e+001
 4.923249690630416e+000	 1.312915979638611e-001	 1.035083852887579e+001
 4.921877287204318e+000	 1.753538413647117e-001	 1.034912119736593e+001
 4.920103598021710e+000	 2.195577024399207e-001	 1.034541078658926e+001
 4.917924622414534e+000	 2.638984808604573e-001	 1.034068648239722e+001
 4.915336417490530e+000	 3.083713716032288e-001	 1.033580085044142e+001
 4.912335101002447e+000	 3.529714653771846e-001	 1.033147580066144e+001
 4.908916854234440e+000	 3.976937491322283e-001	 1.032829873901444e+001
 4.905077924903247e+000	 4.425331066524542e-001	 1.032671892152007e+001
 4.949999999999999e+000	 0.000000000000000e+000	 1.030990993264183e+001
 4.949805934559854e+000	 4.383161181803696e-002	 1.032692906245801e+001
 4.949220929193109e+000	 8.781909832674277e-002	 1.033771135424723e+001
 4.948240805811104e+000	 1.319580527755098e-001	 1.034362697757845e+001
 4.946861435870015e+000	 1.762439623866466e-001	 1.034593188855212e+001
 4.945078743188839e+000	 2.206722085437106e-001	 1.034576326612696e+001
 4.942888706791562e+000	 2.652380670581341e-001	 1.034413509197905e+001
 4.940287363771237e+000	 3.099367085158457e-001	 1.034193388896643e+001
 4.937270812173773e+000	 3.547631987055365e-001	 1.033991463337751e+001
 4.933835213898987e+000	 3.997124991301568e-001	 1.033869685620444e+001
 4.929976797616488e+000	 4.447794676031630e-001	 1.033876094869864e+001
 4.975000000000000e+000	 0.000000000000000e+000	 1.027774989937242e+001
 4.974804954431343e+000	 4.405298359466774e-002	 1.030135644314783e+001
 4.974216994491966e+000	 8.826262912605680e-002	 1.031819052534461e+001
 4.973231920991751e+000	 1.326245075872450e-001	 1.032965931381062e+001
 4.971845584535635e+000	 1.771340834087357e-001	 1.033705503713310e+001
 4.970053888355849e+000	 2.217867146477423e-001	 1.034155036324729e+001
 4.967852791168413e+000	 2.665776532561602e-001	 1.034419392286240e+001
 4.965238310051703e+000	 3.115020454289394e-001	 1.034590599296188e+001
 4.962206523344788e+000	 3.565549320345135e-001	 1.034747435574261e+001
 4.958753573563137e+000	 4.017312491288793e-001	 1.034955034842101e+001
 4.954875670329236e+000	 4.470258285548553e-001	 1.035264511935138e+001
 5.000000000000000e+000	 0.000000000000000e+000	 1.023614501474449e+001
 4.999803974302830e+000	 4.427435537130806e-002	 1.026723642002247e+001
 4.999213059790807e+000	 8.870615992540913e-002	 1.029107335900406e+001
 4.998223036172354e+000	 1.332909623990665e-001	 1.030910001476309e+001
 4.996829733201179e+000	 1.780242044309789e-001	 1.032264485251516e+001
 4.995029033522738e+000	 2.229012207520156e-001	 1.033291593928006e+001
 4.992816875545091e+000	 2.679172394545357e-001	 1.034099640969420e+001
 4.990189256331933e+000	 3.130673823425104e-001	 1.034784009341832e+001
 4.987142234515491e+000	 3.583466653641159e-001	 1.035426731969437e+001
 4.983671933226891e+000	 4.037499991283957e-001	 1.036096091467102e+001
 4.979774543041494e+000	 4.492721895075311e-001	 1.036846240713453e+001
 4.730785815896796e+000	 4.268085800250276e-001	 1.028617842810000e+001
 4.726674008699353e+000	 4.701625413987225e-001	 1.035270172158296e+001
 4.722149432609216e+000	 5.136192519181058e-001	 1.041839997294803e+001
 4.717208677782531e+000	 5.571734829283322e-001	 1.048309141280600e+001
 4.711848409731801e+000	 6.008199094031381e-001	 1.054645587577683e+001
 4.706065372156695e+000	 6.445531109429850e-001	 1.056231489282243e+001
 4.699856389773195e+000	 6.883675728617011e-001	 1.052202755909599e+001
 4.693218371138125e+000	 7.322576873625162e-001	 1.048255702499614e+001
 4.686148311466118e+000	 7.762177548042752e-001	 1.044310480482056e+001
 4.678643295435926e+000	 8.202419850585251e-001	 1.040278076910250e+001
 4.670700499982989e+000	 8.643244989580522e-001	 1.036059843082071e+001
 4.755684688613478e+000	 4.290549409688527e-001	 1.028794710634900e+001
 4.751551240325787e+000	 4.726370810862668e-001	 1.034689357698011e+001
 4.747002850677490e+000	 5.163225111344948e-001	 1.040537577040731e+001
 4.742036091878186e+000	 5.601059749394566e-001	 1.046319885370364e+001
 4.736647611890442e+000	 6.039821194484362e-001	 1.052002718468919e+001
 4.730834137275503e+000	 6.479454957334772e-001	 1.052916042071916e+001
 4.724592476037334e+000	 6.919905600837464e-001	 1.049636343768080e+001
 4.717919520462004e+000	 7.361116751877541e-001	 1.046413132984364e+001
 4.710812249949480e+000	 7.803031114062359e-001	 1.043170078409549e+001
 4.703267733834722e+000	 8.245590481363794e-001	 1.039821640045069e+001
 4.695283134194934e+000	 8.688735752679868e-001	 1.036272587504330e+001
 4.780583561329669e+000	 4.313013019136611e-001	 1.029089598940452e+001
 4.776428471951631e+000	 4.751116207749754e-001	 1.034269161239511e+001
 4.771856268745071e+000	 5.190257703521903e-001	 1.039442180303624e+001
 4.766863505973048e+000	 5.630384669519912e-001	 1.044587839896090e+001
 4.761446814048191e+000	 6.071443294952085e-001	 1.049670996557999e+001
 4.755602902393323e+000	 6.513378805254688e-001	 1.050117754812398e+001
 4.749328562300383e+000	 6.956135473072753e-001	 1.047537899737159e+001
 4.742620669784687e+000	 7.399656630144201e-001	 1.044991867877675e+001
 4.735476188431549e+000	 7.843884680095280e-001	 1.042406939768593e+001
 4.727892172232125e+000	 8.288761112154274e-001	 1.039701141369544e+001
 4.719865768405383e+000	 8.734226515789357e-001	 1.036782751863262e+001
 4.805482434045368e+000	 4.335476628594529e-001	 1.029512249693452e+001
 4.801305703576881e+000	 4.775861604648483e-001	 1.034019688648498e+001
 4.796709686811962e+000	 5.217290295711926e-001	 1.038564286718387e+001
 4.791690920067119e+000	 5.659709589659360e-001	 1.043123867841811e+001
 4.786246016205046e+000	 6.103065395434554e-001	 1.047661677445116e+001
 4.780371667510148e+000	 6.547302653189593e-001	 1.047820744122234e+001
 4.774064648562337e+000	 6.992365345322879e-001	 1.045889995678720e+001
 4.767321819106181e+000	 7.438196508425139e-001	 1.043972934239528e+001
 4.760140126912325e+000	 7.884738246141514e-001	 1.042000547676174e+001
 4.752516610628136e+000	 8.331931742956691e-001	 1.039894521825708e+001
 4.744448402614344e+000	 8.779717278908998e-001	 1.037566737607082e+001
 4.830381306760575e+000	 4.357940238062281e-001	 1.030072305508756e+001
 4.826182935201540e+000	 4.800607001558854e-001	 1.033950951919019e+001
 4.821563104878160e+000	 5.244322887915016e-001	 1.037914287826328e+001
 4.816518334160396e+000	 5.689034509812907e-001	 1.041938750174433e+001
 4.811045218361012e+000	 6.134687495931764e-001	 1.045985941088676e+001
 4.805140432625982e+000	 6.581226501139490e-001	 1.046009057652660e+001
 4.798800734823201e+000	 7.028595217587843e-001	 1.044675141461171e+001
 4.792022968426482e+000	 7.476736386720355e-001	 1.043337304409541e+001
 4.784804065391810e+000	 7.925591812201062e-001	 1.041930338101100e+001
 4.777141049022752e+000	 8.375102373771044e-001	 1.040379683078308e+001
 4.769031036821811e+000	 8.825208042038785e-001	 1.038600915075750e+001
 4.855280179475290e+000	 4.380403847539867e-001	 1.030779312196765e+001
 4.851060166825605e+000	 4.825352398480867e-001	 1.034072871580426e+001
 4.846416522943666e+000	 5.271355480131171e-001	 1.037502489333966e+001
 4.841345748252882e+000	 5.718359429980557e-001	 1.041043187946733e+001
 4.835844420516085e+000	 6.166309596443722e-001	 1.044654893744820e+001
 4.829909197740824e+000	 6.615150349104378e-001	 1.044666675856011e+001
 4.823536821082973e+000	 7.064825089867645e-001	 1.043875786549026e+001
 4.816724117745589e+000	 7.515276265029854e-001	 1.043065897410053e+001
 4.809468003870002e+000	 7.966445378273926e-001	 1.042175701072932e+001
 4.801765487415977e+000	 8.418273004597336e-001	 1.041134488521907e+001
 4.793613671027784e+000	 8.870698805178717e-001	 1.039861624298609e+001
 4.880179052189514e+000	 4.402867457027287e-001	 1.031642721232923e+001
 4.875937398449081e+000	 4.850097795414525e-001	 1.034395279030658e+001
 4.871269941008482e+000	 5.298388072360395e-001	 1.037339113302695e+001
 4.866173162344577e+000	 5.747684350162309e-001	 1.040447804335987e+001
 4.860643622670264e+000	 6.197931696970424e-001	 1.043679569847595e+001
 4.854677962854673e+000	 6.649074197084256e-001	 1.043777513699969e+001
 4.848272907341651e+000	 7.101054962162283e-001	 1.043474321543817e+001
 4.841425267063504e+000	 7.553816143353630e-001	 1.043139580306261e+001
 4.834131942346900e+000	 8.007298944360103e-001	 1.042715981853898e+001
 4.826389925807810e+000	 8.461443635435569e-001	 1.042136764257172e+001
 4.818196305232266e+000	 8.916189568328796e-001	 1.041325175767619e+001
 4.905077924903247e+000	 4.425331066524542e-001	 1.032671892152007e+001
 4.900814630071965e+000	 4.874843192359823e-001	 1.034927918798461e+001
 4.896123359072603e+000	 5.325420664602684e-001	 1.037434300271759e+001
 4.891000576435481e+000	 5.777009270358166e-001	 1.040163146620505e+001
 4.885442824823554e+000	 6.229553797511870e-001	 1.043070933831844e+001
 4.879446727967530e+000	 6.682998045079126e-001	 1.043325422329611e+001
 4.873008993599238e+000	 7.137284834471758e-001	 1.043453079678077e+001
 4.866126416380227e+000	 7.592356021691689e-001	 1.043539169524924e+001
 4.858795880822505e+000	 8.048152510459594e-001	 1.043530482075124e+001
 4.851014364198249e+000	 8.504614266285735e-001	 1.043364300037409e+001
 4.842778939435253e+000	 8.961680331489021e-001	 1.042967851187035e+001
 4.929976797616488e+000	 4.447794676031630e-001	 1.033876094869864e+001
 4.925691861694258e+000	 4.899588589316765e-001	 1.035680450737057e+001
 4.920976777136034e+000	 5.352453256858037e-001	 1.037798111316887e+001
 4.915827990525591e+000	 5.806334190568120e-001	 1.040199688096275e+001
 4.910242026975950e+000	 6.261175898068060e-001	 1.042784996905626e+001
 4.904215493079395e+000	 6.716921893088987e-001	 1.043294190679095e+001
 4.897745079855732e+000	 7.173514706796073e-001	 1.043794338264056e+001
 4.890827565695758e+000	 7.630895900044026e-001	 1.044245432133120e+001
 4.883459819296819e+000	 8.089006076572398e-001	 1.044598460838426e+001
 4.875638802587297e+000	 8.547784897147842e-001	 1.044794850186434e+001
 4.867361573636751e+000	 9.007171094659396e-001	 1.044765904200370e+001
 4.954875670329236e+000	 4.470258285548553e-001	 1.035264511935138e+001
 4.950569093315958e+000	 4.924333986285350e-001	 1.036662452151666e+001
 4.945830195198775e+000	 5.379485849126460e-001	 1.038440530046871e+001
 4.940655404614911e+000	 5.835659110792179e-001	 1.040567829935810e+001
 4.935041229127454e+000	 6.292797998638995e-001	 1.042836430963645e+001
 4.928984258190267e+000	 6.750845741113840e-001	 1.043667547034744e+001
 4.922481166111133e+000	 7.209744579135221e-001	 1.044480320098747e+001
 4.915528715010096e+000	 7.669435778410640e-001	 1.045239087078429e+001
 4.908123757769840e+000	 8.129859642698519e-001	 1.045899135784888e+001
 4.900263240974951e+000	 8.590955528021886e-001	 1.046406134488758e+001
 4.891944207836753e+000	 9.052661857839915e-001	 1.046695561095439e+001
 4.979774543041494e+000	 4.492721895075311e-001	 1.036846240713453e+001
 4.975446324937067e+000	 4.949079383265578e-001	 1.037883419863207e+001
 4.970683613260823e+000	 5.406518441407948e-001	 1.039371464540234e+001
 4.965482818703437e+000	 5.864984031030339e-001	 1.041277902991239e+001
 4.959840431278067e+000	 6.324420099224676e-001	 1.043339919022000e+001
 4.953753023300148e+000	 6.784769589153683e-001	 1.044429160551240e+001
 4.947217252365444e+000	 7.245974451489210e-001	 1.045493194826774e+001
 4.940229864323243e+000	 7.707975656791538e-001	 1.046500806391926e+001
 4.932787696241570e+000	 8.170713208837953e-001	 1.047411684131379e+001
 4.924887679361214e+000	 8.634126158907869e-001	 1.048175839053070e+001
 4.916526842035265e+000	 9.098152621030583e-001	 1.048733021488251e+001
 4.670700499982989e+000	 8.643244989580522e-001	 1.036059843082071e+001
 4.662317197074184e+000	 9.084593298371435e-001	 1.042437464042397e+001
 4.653490756464190e+000	 9.526404251647136e-001	 1.047807661885059e+001
 4.644218648428491e+000	 9.968616482696640e-001	 1.051977122986341e+001
 4.634498446467842e+000	 1.041116780158473e+000	 1.054740548985642e+001
 4.624327829983526e+000	 1.085399521425691e+000	 1.055880265344891e+001
 4.613704586919089e+000	 1.129703494256913e+000	 1.055165841588621e+001
 4.602626616365184e+000	 1.174022244523953e+000	 1.052353724779997e+001
 4.591091931124016e+000	 1.218349243971801e+000	 1.047186887810374e+001
 4.579098660229949e+000	 1.262677892496843e+000	 1.045274043215666e+001
 4.566645051422785e+000	 1.307001520515620e+000	 1.057071717861324e+001
 4.695283134194934e+000	 8.688735752679868e-001	 1.036272587504330e+001
 4.686855708638989e+000	 9.132406947316664e-001	 1.042246941135103e+001
 4.677982813078237e+000	 9.576543221407282e-001	 1.047283329117283e+001
 4.668661904473816e+000	 1.002108288525803e+000	 1.051191878728941e+001
 4.658890543555444e+000	 1.046596342161823e+000	 1.053770569291002e+001
 4.648666397510717e+000	 1.091112150488570e+000	 1.054804828529056e+001
 4.637987242640787e+000	 1.135649302124196e+000	 1.054067140648035e+001
 4.626850966978887e+000	 1.180201308971414e+000	 1.051316667705815e+001
 4.615255572868284e+000	 1.224761608415978e+000	 1.046298885894807e+001
 4.603199179496159e+000	 1.269323565616884e+000	 1.046918516886493e+001
 4.590680025379892e+000	 1.313880475887600e+000	 1.057478575017938e+001
 4.719865768405383e+000	 8.734226515789357e-001	 1.036782751863262e+001
 4.711394220202210e+000	 9.180220596270136e-001	 1.042313875561574e+001
 4.702474869690624e+000	 9.626682191173959e-001	 1.046978618644839e+001
 4.693105160517438e+000	 1.007354928782444e+000	 1.050590628954559e+001
 4.683282640641308e+000	 1.052075904165542e+000	 1.052951241101383e+001
 4.673004965036161e+000	 1.096824779551707e+000	 1.053849060456018e+001
 4.662269898360744e+000	 1.141595109991644e+000	 1.053059558885117e+001
 4.651075317590875e+000	 1.186380373418968e+000	 1.050344683849278e+001
 4.639419214610887e+000	 1.231173972860196e+000	 1.045452482504136e+001
 4.627299698760771e+000	 1.275969238736935e+000	 1.048095066895064e+001
 4.614714999335491e+000	 1.320759431259581e+000	 1.057451344659750e+001
 4.744448402614344e+000	 8.779717278908998e-001	 1.037566737607082e+001
 4.735932731763849e+000	 9.228034245231848e-001	 1.042613200344620e+001
 4.726966926301361e+000	 9.676821160947169e-001	 1.046867012884693e+001
 4.717548416559353e+000	 1.012601569039586e+000	 1.050145424293600e+001
 4.707674737725433e+000	 1.057555466169631e+000	 1.052253203072387e+001
 4.697343532559855e+000	 1.102537408615102e+000	 1.052982208602262e+001
 4.686552554078959e+000	 1.147540917859256e+000	 1.052110974366945e+001
 4.675299668201152e+000	 1.192559437866616e+000	 1.049404304600530e+001
 4.663582856351827e+000	 1.237586337304456e+000	 1.044612886034185e+001
 4.651400218023791e+000	 1.282614911856996e+000	 1.048808698753512e+001
 4.638749973289582e+000	 1.327638386631561e+000	 1.056994847542276e+001
 4.769031036821811e+000	 8.825208042038785e-001	 1.038600915075750e+001
 4.760471243323902e+000	 9.275847894201803e-001	 1.043119824474067e+001
 4.751458982910444e+000	 9.726960130726908e-001	 1.046921977318261e+001
 4.741991672599561e+000	 1.017848209297229e+000	 1.049828305557729e+001
 4.732066834807823e+000	 1.063035028174090e+000	 1.051647091174236e+001
 4.721682100081798e+000	 1.108250037678753e+000	 1.052173524905927e+001
 4.710835209795434e+000	 1.153486725727034e+000	 1.051189276780025e+001
 4.699524018809713e+000	 1.198738502314355e+000	 1.048462080134699e+001
 4.687746498091099e+000	 1.243998701748758e+000	 1.043745330836102e+001
 4.675500737285211e+000	 1.289260584977068e+000	 1.049064451101330e+001
 4.662784947242169e+000	 1.334517342003541e+000	 1.056113944719100e+001
 4.793613671027784e+000	 8.870698805178717e-001	 1.039861624298609e+001
 4.785009754882376e+000	 9.323661543180003e-001	 1.043808633522978e+001
 4.775951039517873e+000	 9.777099100513179e-001	 1.047116960925653e+001
 4.766434928638065e+000	 1.023094849555374e+000	 1.049611303991632e+001
 4.756458931888474e+000	 1.068514590178917e+000	 1.051103538760630e+001
 4.746020667601993e+000	 1.113962666742662e+000	 1.051392265652401e+001
 4.735117865510166e+000	 1.159432533594977e+000	 1.050262367132364e+001
 4.723748369416560e+000	 1.204917566762189e+000	 1.047484578930244e+001
 4.711910139828708e+000	 1.250411066193100e+000	 1.042920132312994e+001
 4.699601256545038e+000	 1.295906258097151e+000	 1.048867394855970e+001
 4.686819921193249e+000	 1.341396297375522e+000	 1.054813536508579e+001
 4.818196305232266e+000	 8.916189568328796e-001	 1.041325175767619e+001
 4.809548266439266e+000	 9.371475192166445e-001	 1.044654490245031e+001
 4.800443096123647e+000	 9.827238070305986e-001	 1.047425396606619e+001
 4.790878184674864e+000	 1.028341489814021e+000	 1.049466441517077e+001
 4.780851028967387e+000	 1.073994152184114e+000	 1.050593176635494e+001
 4.770359235120436e+000	 1.119675295806828e+000	 1.050607691363424e+001
 4.759400521223157e+000	 1.165378341463086e+000	 1.049298157464649e+001
 4.747972720021696e+000	 1.211096631210116e+000	 1.046438387302025e+001
 4.736073781564651e+000	 1.256823430637485e+000	 1.043333602255470e+001
 4.723701775803269e+000	 1.302551931217243e+000	 1.048222632389409e+001
 4.710854895142822e+000	 1.348275252747503e+000	 1.053098561492203e+001
 4.842778939435253e+000	 8.961680331489021e-001	 1.042967851187035e+001
 4.834086777994573e+000	 9.419288841161130e-001	 1.045632235153683e+001
 4.824935152727766e+000	 9.877377040105320e-001	 1.047820701588687e+001
 4.815321440709956e+000	 1.033588130073170e+000	 1.049365730969530e+001
 4.805243126044563e+000	 1.079473714189681e+000	 1.050086633117695e+001
 4.794697802637132e+000	 1.125387924871252e+000	 1.049789066689569e+001
 4.783683176934406e+000	 1.171324149331358e+000	 1.048264570570234e+001
 4.772197070625118e+000	 1.217275695658136e+000	 1.045290108948603e+001
 4.760237423298931e+000	 1.263235795081910e+000	 1.043270961696718e+001
 4.747802295059902e+000	 1.309197604337347e+000	 1.047135296729823e+001
 4.734889869090889e+000	 1.355154208119483e+000	 1.050973995543446e+001
 4.867361573636751e+000	 9.007171094659396e-001	 1.044765904200370e+001
 4.858625289548295e+000	 9.467102490164057e-001	 1.046716687083795e+001
 4.849427209330234e+000	 9.927516009911185e-001	 1.048276277822921e+001
 4.839764696743343e+000	 1.038834770332819e+000	 1.049281176327610e+001
 4.829635223120001e+000	 1.084953276195618e+000	 1.049554534103794e+001
 4.819036370152078e+000	 1.131100553935933e+000	 1.048905660305975e+001
 4.807965832643914e+000	 1.177269957199797e+000	 1.047129539723612e+001
 4.796421421226826e+000	 1.223454760106248e+000	 1.044006364513261e+001
 4.784401065031545e+000	 1.269648159526378e+000	 1.042737518471858e+001
 4.771902814314941e+000	 1.315843277457460e+000	 1.045610550787431e+001
 4.758924843037452e+000	 1.362033163491464e+000	 1.048444850886042e+001
 4.891944207836753e+000	 9.052661857839915e-001	 1.046695561095439e+001
 4.883163801100436e+000	 9.514916139175227e-001	 1.047882643736320e+001
 4.873919265931045e+000	 9.977654979723585e-001	 1.048765512367758e+001
 4.864207952775024e+000	 1.044081410592970e+000	 1.049184772935626e+001
 4.854027320193703e+000	 1.090432838201923e+000	 1.048967503128906e+001
 4.843374937665274e+000	 1.136813183000871e+000	 1.047926744811227e+001
 4.832248488351680e+000	 1.183215765068400e+000	 1.045861008417059e+001
 4.820645771826822e+000	 1.229633824554455e+000	 1.042553791158259e+001
 4.808564706762494e+000	 1.276060523970886e+000	 1.041738603240354e+001
 4.796003333568383e+000	 1.322488950577584e+000	 1.043653586603698e+001
 4.782959816982506e+000	 1.368912118863444e+000	 1.045516175180674e+001
 4.916526842035265e+000	 9.098152621030583e-001	 1.048733021488251e+001
 4.907702312650993e+000	 9.562729788194643e-001	 1.049104882206649e+001
 4.898411322530204e+000	 1.002779394954252e+000	 1.049261777761315e+001
 4.888651208805000e+000	 1.049328050853623e+000	 1.049048507719428e+001
 4.878419417265667e+000	 1.095912400208599e+000	 1.048296161425743e+001
 4.867713505176722e+000	 1.142525812066066e+000	 1.046821596629275e+001
 4.856531144057706e+000	 1.189161572937169e+000	 1.044426930105202e+001
 4.844870122425104e+000	 1.235812889002754e+000	 1.040899042151852e+001
 4.832728348491778e+000	 1.282472888415437e+000	 1.040279568915406e+001
 4.820103852820230e+000	 1.329134623697718e+000	 1.041269624623049e+001
 4.806994790926056e+000	 1.375791074235425e+000	 1.042193050639039e+001
 4.566645051422785e+000	 1.307001520515620e+000	 1.057071717861324e+001
 4.553729473570638e+000	 1.351313391422532e+000	 1.058204327352008e+001
 4.540350419037734e+000	 1.395606704137587e+000	 1.059171169524482e+001
 4.526506505994300e+000	 1.439874595742233e+000	 1.059984555189271e+001
 4.512196480665969e+000	 1.484110144199970e+000	 1.060659549050640e+001
 4.497419219518086e+000	 1.528306371162558e+000	 1.061214046057648e+001
 4.482173731371831e+000	 1.572456244859625e+000	 1.061668842739570e+001
 4.466459159448741e+000	 1.616552683069939e+000	 1.062047703178013e+001
 4.450274783340313e+000	 1.660588556172508e+000	 1.062377419274174e+001
 4.433620020899308e+000	 1.704556690275469e+000	 1.062687864977252e+001
 4.416494430049541e+000	 1.748449870420633e+000	 1.063012044148900e+001
 4.590680025379892e+000	 1.313880475887600e+000	 1.057478575017938e+001
 4.577696470802579e+000	 1.358425567166879e+000	 1.058214570394016e+001
 4.564247000193416e+000	 1.402952002579742e+000	 1.058809953543027e+001
 4.550330224449836e+000	 1.447452883087015e+000	 1.059281262252685e+001
 4.535944883198662e+000	 1.491921250220426e+000	 1.059647873313952e+001
 4.521089846991900e+000	 1.536350088903590e+000	 1.059932076724307e+001
 4.505764119433992e+000	 1.580732330356816e+000	 1.060159144684933e+001
 4.489966839237115e+000	 1.625060855084026e+000	 1.060357395041916e+001
 4.473697282201146e+000	 1.669328495939906e+000	 1.060558248828063e+001
 4.456954863114908e+000	 1.713528041275270e+000	 1.060796281569886e+001
 4.439739137575500e+000	 1.757652238158466e+000	 1.061109268033659e+001
 4.614714999335491e+000	 1.320759431259581e+000	 1.057451344659750e+001
 4.601663468033124e+000	 1.365537742911231e+000	 1.057876023130770e+001
 4.588143581347830e+000	 1.410297301021918e+000	 1.058184497209290e+001
 4.574153942904254e+000	 1.455031170431841e+000	 1.058397486863279e+001
 4.559693285730408e+000	 1.499732356240961e+000	 1.058538636745250e+001
 4.544760474464951e+000	 1.544393806644744e+000	 1.058634588304181e+001
 4.529354507495598e+000	 1.589008415854183e+000	 1.058715046500586e+001
 4.513474519025167e+000	 1.633569027098352e+000	 1.058812840772450e+001
 4.497119781061903e+000	 1.678068435707619e+000	 1.058963979906696e+001
 4.480289705330702e+000	 1.722499392275472e+000	 1.059207700479160e+001
 4.462983845101943e+000	 1.766854605896794e+000	 1.059586508535839e+001
 4.638749973289582e+000	 1.327638386631561e+000	 1.056994847542276e+001
 4.625630465262270e+000	 1.372649918655588e+000	 1.057192507387108e+001
 4.612040162500976e+000	 1.417642599464112e+000	 1.057297620462446e+001
 4.597977661357555e+000	 1.462609457776710e+000	 1.057335044524152e+001
 4.583441688261202e+000	 1.507543462261573e+000	 1.057332648274978e+001
 4.568431101937241e+000	 1.552437524386020e+000	 1.057321381441450e+001
 4.552944895556653e+000	 1.597284501351727e+000	 1.057335339262732e+001
 4.536982198812894e+000	 1.642077199112920e+000	 1.057411821036779e+001
 4.520542279922586e+000	 1.686808375475648e+000	 1.057591382376329e+001
 4.503624547546691e+000	 1.731470743276073e+000	 1.057917880836042e+001
 4.486228552628871e+000	 1.776056973635617e+000	 1.058438514582307e+001
 4.662784947242169e+000	 1.334517342003541e+000	 1.056113944719100e+001
 4.649597462490021e+000	 1.379762094399950e+000	 1.056167909120951e+001
 4.635936743652853e+000	 1.424987897906325e+000	 1.056152231145294e+001
 4.621801379809735e+000	 1.470187745121623e+000	 1.056095862337193e+001
 4.607190090791048e+000	 1.515354568282263e+000	 1.056030852041237e+001
 4.592101729408772e+000	 1.560481242127419e+000	 1.055992415499473e+001
 4.576535283617155e+000	 1.605560586849447e+000	 1.056018996169859e+001
 4.560489878600299e+000	 1.650585371127729e+000	 1.056152321907901e+001
 4.543964778783195e+000	 1.695548315243992e+000	 1.056437454661852e+001
 4.526959389762876e+000	 1.740442094277074e+000	 1.056922833340984e+001
 4.509473260156283e+000	 1.785259341374934e+000	 1.057660309527066e+001
 4.686819921193249e+000	 1.341396297375522e+000	 1.054813536508579e+001
 4.673564459716376e+000	 1.386874270144317e+000	 1.054806176778871e+001
 4.659833324803467e+000	 1.432333196348558e+000	 1.054751322750310e+001
 4.645625098260800e+000	 1.477766032466580e+000	 1.054681976141584e+001
 4.630938493319944e+000	 1.523165674303032e+000	 1.054634323922919e+001
 4.615772356879539e+000	 1.568524959868940e+000	 1.054647804491066e+001
 4.600125671677105e+000	 1.613836672347344e+000	 1.054765167872937e+001
 4.583997558387379e+000	 1.659093543142780e+000	 1.055032529597824e+001
 4.567387277643730e+000	 1.704288255012652e+000	 1.055499417886313e+001
 4.550294231979255e+000	 1.749413445278476e+000	 1.056218813813421e+001
 4.532717967684180e+000	 1.794461709114747e+000	 1.057247184114660e+001
 4.710854895142822e+000	 1.348275252747503e+000	 1.053098561492203e+001
 4.697531456941334e+000	 1.393986445888689e+000	 1.053111319701981e+001
 4.683729905952809e+000	 1.439678494790811e+000	 1.053097972234709e+001
 4.669448816710744e+000	 1.485344319811581e+000	 1.053095527739878e+001
 4.654686895847891e+000	 1.530976780323879e+000	 1.053144268178973e+001
 4.639442984349548e+000	 1.576568677610583e+000	 1.053287813133366e+001
 4.623716059736505e+000	 1.622112757845418e+000	 1.053573177948565e+001
 4.607505238174135e+000	 1.667601715158070e+000	 1.054050825351983e+001
 4.590809776504189e+000	 1.713028194781626e+000	 1.054774710189838e+001
 4.573629074195829e+000	 1.758384796280277e+000	 1.055802316938738e+001
 4.555962675212561e+000	 1.803664076855054e+000	 1.057194689658987e+001
 4.734889869090889e+000	 1.355154208119483e+000	 1.050973995543446e+001
 4.721498454164894e+000	 1.401098621633065e+000	 1.051087406580401e+001
 4.707626487100888e+000	 1.447023793233083e+000	 1.051195337902054e+001
 4.693272535159571e+000	 1.492922607156626e+000	 1.051338762208581e+001
 4.678435298374886e+000	 1.538787886344804e+000	 1.051562014190031e+001
 4.663113611818793e+000	 1.584612395352348e+000	 1.051912853022842e+001
 4.647306447795349e+000	 1.630388843343668e+000	 1.052442518510002e+001
 4.631012917960569e+000	 1.676109887173602e+000	 1.053205780499150e+001
 4.614232275364576e+000	 1.721768134550916e+000	 1.054260981221589e+001
 4.596963916412597e+000	 1.767356147282478e+000	 1.055670070205679e+001
 4.579207382741428e+000	 1.812866444595856e+000	 1.057498631429868e+001
 4.758924843037452e+000	 1.362033163491464e+000	 1.048444850886042e+001
 4.745465451387058e+000	 1.408210797377446e+000	 1.048738563954534e+001
 4.731523068247697e+000	 1.454369091675374e+000	 1.049046657348048e+001
 4.717096253607278e+000	 1.500500894501714e+000	 1.049414025290218e+001
 4.702183700900934e+000	 1.546598992365807e+000	 1.049889013298769e+001
 4.686784239287278e+000	 1.592656113094236e+000	 1.050523478926224e+001
 4.670896835853643e+000	 1.638664928842095e+000	 1.051372845951188e+001
 4.654520597746678e+000	 1.684618059189374e+000	 1.052496151651351e+001
 4.637654774224886e+000	 1.730508074320521e+000	 1.053956086798622e+001
 4.620298758629560e+000	 1.776327498285080e+000	 1.055819028027480e+001
 4.602452090270778e+000	 1.822068812337153e+000	 1.058155062240010e+001
 4.782959816982506e+000	 1.368912118863444e+000	 1.045516175180674e+001
 4.769432448607826e+000	 1.415322973121832e+000	 1.046068974761553e+001
 4.755419649393240e+000	 1.461714390117685e+000	 1.046655245468276e+001
 4.740919972053868e+000	 1.508079181846846e+000	 1.047323760864044e+001
 4.725932103426031e+000	 1.554410098386889e+000	 1.048126835745527e+001
 4.710454866755004e+000	 1.600699830836247e+000	 1.049120385183267e+001
 4.694487223911384e+000	 1.646941014340699e+000	 1.050363976819084e+001
 4.678028277532466e+000	 1.693126231205388e+000	 1.051920876048510e+001
 4.661077273085121e+000	 1.739248014090443e+000	 1.053858083725792e+001
 4.643633600846719e+000	 1.785298849288081e+000	 1.056246366040242e+001
 4.625696797800613e+000	 1.831271180078945e+000	 1.059160276225343e+001
 4.806994790926056e+000	 1.375791074235425e+000	 1.042193050639039e+001
 4.793399445827198e+000	 1.422435148866224e+000	 1.043082876925470e+001
 4.779316230537516e+000	 1.469059688560016e+000	 1.044024492525705e+001
 4.764743690499341e+000	 1.515657469192023e+000	 1.045070508492615e+001
 4.749680505950178e+000	 1.562221204408048e+000	 1.046277167695875e+001
 4.734125494221968e+000	 1.608743548578379e+000	 1.047704402217410e+001
 4.718077611968574e+000	 1.655217099839479e+000	 1.049415883809857e+001
 4.701535957317930e+000	 1.701634403221643e+000	 1.051479067042747e+001
 4.684499771945284e+000	 1.747987953860679e+000	 1.053965224771059e+001
 4.666968443064072e+000	 1.794270200291483e+000	 1.056949475572363e+001
 4.648941505330933e+000	 1.840473547821232e+000	 1.060510802811936e+001
 4.416494430049541e+000	 1.748449870420633e+000	 1.063012044148900e+001
 4.398897710511125e+000	 1.792260843862486e+000	 1.063922486311429e+001
 4.380829705437297e+000	 1.835982323416121e+000	 1.064863030103382e+001
 4.362290402960451e+000	 1.879606990872977e+000	 1.067622828465372e+001
 4.343279937644680e+000	 1.923127500484417e+000	 1.067008921196196e+001
 4.323798591841205e+000	 1.966536482506963e+000	 1.066596951980111e+001
 4.303846796944172e+000	 2.009826546807197e+000	 1.066404775243557e+001
 4.283425134544102e+000	 2.052990286523145e+000	 1.066448505701736e+001
 4.262534337476436e+000	 2.096020281778892e+000	 1.066742480119277e+001
 4.241175290762651e+000	 2.138909103449004e+000	 1.067299223207698e+001
 4.219349032441642e+000	 2.181649316969236e+000	 1.068129417808977e+001
 4.439739137575500e+000	 1.757652238158466e+000	 1.061109268033659e+001
 4.422049803722750e+000	 1.801693795671522e+000	 1.062708208770184e+001
 4.403886703884518e+000	 1.845645388275808e+000	 1.064358017134280e+001
 4.385249826130742e+000	 1.889499659245882e+000	 1.064384348468498e+001
 4.366139305733747e+000	 1.933249224171266e+000	 1.062441343392929e+001
 4.346555426530812e+000	 1.976886674520361e+000	 1.062471113420306e+001
 4.326498622186580e+000	 2.020404581264306e+000	 1.062757498611046e+001
 4.305969477352577e+000	 2.063795498557647e+000	 1.063311066278486e+001
 4.284968728721273e+000	 2.107051967472487e+000	 1.064140496383312e+001
 4.263497265972151e+000	 2.150166519782733e+000	 1.065252552094249e+001
 4.241556132607472e+000	 2.193131681794851e+000	 1.066652054868458e+001
 4.462983845101943e+000	 1.766854605896794e+000	 1.059586508535839e+001
 4.445201896935138e+000	 1.811126747481146e+000	 1.061784735818891e+001
 4.426943702332747e+000	 1.855308453136171e+000	 1.064053606612570e+001
 4.408209249302242e+000	 1.899392327619536e+000	 1.063496165960905e+001
 4.388998673824184e+000	 1.943370947858931e+000	 1.060566130698580e+001
 4.369312261221915e+000	 1.987236866534630e+000	 1.058635493989457e+001
 4.349150447430568e+000	 2.030982615722334e+000	 1.059299014965672e+001
 4.328513820162675e+000	 2.074600710593102e+000	 1.060261294583536e+001
 4.307403119967730e+000	 2.118083653167060e+000	 1.061525399204608e+001
 4.285819241183235e+000	 2.161423936117456e+000	 1.063092373406460e+001
 4.263763232774805e+000	 2.204614046621467e+000	 1.064961219920477e+001
 4.486228552628871e+000	 1.776056973635617e+000	 1.058438514582307e+001
 4.468353990148293e+000	 1.820559699291361e+000	 1.061148373524289e+001
 4.450000700781981e+000	 1.864971517997210e+000	 1.063947660545790e+001
 4.431168672474952e+000	 1.909284995993943e+000	 1.062708459372305e+001
 4.411858041915995e+000	 1.953492671547413e+000	 1.060238053198476e+001
 4.392069095914511e+000	 1.997587058549771e+000	 1.057809180450275e+001
 4.371802272676131e+000	 2.041560650181279e+000	 1.056020630830922e+001
 4.351058162974390e+000	 2.085405922629511e+000	 1.057291969729316e+001
 4.329837511215814e+000	 2.129115338862615e+000	 1.058891446031494e+001
 4.308141216395904e+000	 2.172681352453174e+000	 1.060814427994190e+001
 4.285970332943644e+000	 2.216096411449083e+000	 1.063054141590194e+001
 4.509473260156283e+000	 1.785259341374934e+000	 1.057660309527066e+001
 4.491506083362213e+000	 1.829992651102166e+000	 1.060795672159230e+001
 4.473057699232222e+000	 1.874634582858924e+000	 1.064038254806199e+001
 4.454128095648871e+000	 1.919177664369100e+000	 1.062028528575873e+001
 4.434717410009177e+000	 1.963614395236711e+000	 1.059937785710432e+001
 4.414825930608602e+000	 2.007937250565786e+000	 1.057880863764441e+001
 4.394454097923272e+000	 2.052138684641143e+000	 1.055933829386764e+001
 4.373602505787726e+000	 2.096211134666875e+000	 1.054395931643278e+001
 4.352271902465517e+000	 2.140147024559147e+000	 1.056232924343806e+001
 4.330463191610154e+000	 2.183938768789886e+000	 1.058414455929782e+001
 4.308177433113985e+000	 2.227578776277698e+000	 1.060928016904870e+001
 4.532717967684180e+000	 1.794461709114747e+000	 1.057247184114660e+001
 4.514658176576894e+000	 1.839425602913561e+000	 1.060723419940985e+001
 4.496114697683470e+000	 1.884297647721313e+000	 1.063212193690583e+001
 4.477087518823996e+000	 1.929070332745008e+000	 1.061463852157811e+001
 4.457576778103729e+000	 1.973736118926827e+000	 1.059674448046677e+001
 4.437582765304186e+000	 2.018287442582672e+000	 1.057909943603035e+001
 4.417105923171991e+000	 2.062716719101926e+000	 1.056241252012269e+001
 4.396146848602681e+000	 2.107016346705192e+000	 1.054744298952576e+001
 4.374706293716842e+000	 2.151178710256660e+000	 1.053544150882838e+001
 4.352785166825989e+000	 2.195196185127593e+000	 1.055888196527994e+001
 4.330384533285831e+000	 2.239061141107313e+000	 1.058580012104078e+001
 4.555962675212561e+000	 1.803664076855054e+000	 1.057194689658987e+001
 4.537810269792344e+000	 1.848858554725545e+000	 1.060928636961233e+001
 4.519171696135725e+000	 1.893960712584378e+000	 1.062540826076421e+001
 4.500046942000333e+000	 1.938963001121667e+000	 1.061022082858346e+001
 4.480436146199654e+000	 1.983857842617759e+000	 1.059457305172968e+001
 4.460339600001269e+000	 2.028637634600432e+000	 1.057907290199518e+001
 4.439757748422287e+000	 2.073294753563626e+000	 1.056437823884425e+001
 4.418691191419258e+000	 2.117821558744463e+000	 1.055119749568390e+001
 4.397140684969789e+000	 2.162210395955152e+000	 1.054029025184353e+001
 4.375107142043407e+000	 2.206453601466296e+000	 1.053246768547269e+001
 4.352591633459181e+000	 2.250543505937929e+000	 1.056007263425097e+001
 4.579207382741428e+000	 1.812866444595856e+000	 1.057498631429868e+001
 4.560962363008558e+000	 1.858291506538120e+000	 1.061408569300923e+001
 4.542228694588986e+000	 1.903623777448119e+000	 1.062074070209395e+001
 4.523006365177878e+000	 1.948855669499078e+000	 1.060711043151574e+001
 4.503295514296950e+000	 1.993979566309508e+000	 1.059295763524492e+001
 4.483096434699841e+000	 2.038987826619063e+000	 1.057883886917660e+001
 4.462409573674160e+000	 2.083872788026245e+000	 1.056536097488217e+001
 4.441235534237453e+000	 2.128626770784688e+000	 1.055318183676918e+001
 4.419575076224358e+000	 2.173242081654624e+000	 1.054301102438128e+001
 4.397429117262409e+000	 2.217711017805993e+000	 1.053561031488931e+001
 4.374798733634036e+000	 2.262025870769545e+000	 1.053206877864394e+001
 4.602452090270778e+000	 1.822068812337153e+000	 1.058155062240010e+001
 4.584114456225539e+000	 1.867724458351285e+000	 1.062160683323478e+001
 4.565285693043254e+000	 1.913286842312534e+000	 1.061818351261078e+001
 4.545965788356632e+000	 1.958748337877239e+000	 1.060538720959255e+001
 4.526154882395620e+000	 2.004101290002073e+000	 1.059199367433410e+001
 4.505853269399911e+000	 2.049338018638567e+000	 1.057850827394730e+001
 4.485061398927612e+000	 2.094450822489782e+000	 1.056548707898100e+001
 4.463779877057269e+000	 2.139431982825867e+000	 1.055353769162909e+001
 4.442009467480550e+000	 2.184273767355075e+000	 1.054331995847749e+001
 4.419751092482993e+000	 2.228968434146685e+000	 1.053554656268243e+001
 4.397005833810392e+000	 2.273508235602161e+000	 1.053098349072730e+001
 4.625696797800613e+000	 1.831271180078945e+000	 1.059160276225343e+001
 4.607266549443284e+000	 1.877157410165040e+000	 1.062938419897044e+001
 4.588342691498530e+000	 1.922949907177626e+000	 1.061780282469447e+001
 4.568925211536596e+000	 1.968641006256151e+000	 1.060513265493836e+001
 4.549014250495659e+000	 2.014223013695456e+000	 1.059177795664103e+001
 4.528610104101475e+000	 2.059688210658944e+000	 1.057819312770795e+001
 4.507713224182639e+000	 2.105028856954237e+000	 1.056488370702889e+001
 4.486324219878704e+000	 2.150237194868000e+000	 1.055240727390077e+001
 4.464443858738362e+000	 2.195305453056506e+000	 1.054137423135641e+001
 4.442073067705160e+000	 2.240225850488372e+000	 1.053244846813109e+001
 4.419212933988254e+000	 2.284990600435776e+000	 1.052634789425472e+001
 4.648941505330933e+000	 1.840473547821232e+000	 1.060510802811936e+001
 4.630418642661795e+000	 1.886590361979385e+000	 1.063176577243991e+001
 4.611399689954812e+000	 1.932612972043392e+000	 1.061966660437219e+001
 4.591884634717767e+000	 1.978533674635814e+000	 1.060642983226180e+001
 4.571873618597071e+000	 2.024344737389655e+000	 1.059240858052368e+001
 4.551366938804532e+000	 2.070038402680193e+000	 1.057800649001154e+001
 4.530365049439246e+000	 2.115606891419611e+000	 1.056367879992897e+001
 4.508868562701760e+000	 2.161042406911087e+000	 1.054993331864134e+001
 4.486878249997798e+000	 2.206337138758916e+000	 1.053733127772844e+001
 4.464395042928913e+000	 2.251483266831054e+000	 1.052648806384812e+001
 4.441420034167620e+000	 2.296472965270393e+000	 1.051807382323831e+001
 4.219349032441642e+000	 2.181649316969236e+000	 1.068129417808977e+001
 4.197056754289153e+000	 2.224233486189214e+000	 1.064921547072889e+001
 4.174299802423162e+000	 2.266654177265144e+000	 1.063380082546934e+001
 4.151079677793083e+000	 2.308903962587823e+000	 1.063501906809125e+001
 4.127398036551244e+000	 2.350975424740408e+000	 1.065280643450209e+001
 4.103256690304887e+000	 2.392861160483732e+000	 1.068706647804724e+001
 4.078657606247210e+000	 2.434553784764504e+000	 1.073767004358791e+001
 4.053602907166101e+000	 2.476045934742123e+000	 1.080445530917544e+001
 4.028094871329415e+000	 2.517330273829839e+000	 1.081874907506789e+001
 4.002135932245784e+000	 2.558399495745880e+000	 1.074907482070518e+001
 3.975728678300154e+000	 2.599246328570120e+000	 1.068806825020996e+001
 4.241556132607472e+000	 2.193131681794851e+000	 1.066652054868458e+001
 4.219146526675409e+000	 2.235939978220896e+000	 1.063847450067791e+001
 4.196269801378700e+000	 2.278583936091637e+000	 1.062677018303412e+001
 4.172927465566493e+000	 2.321056088705192e+000	 1.063140385605646e+001
 4.149121184107708e+000	 2.363348979605680e+000	 1.065233942809329e+001
 4.124852778144358e+000	 2.405455166589521e+000	 1.068950833801992e+001
 4.100124225223292e+000	 2.447367225734718e+000	 1.074280950433292e+001
 4.074937659304964e+000	 2.489077755448880e+000	 1.081210934172614e+001
 4.049295370648115e+000	 2.530579380531644e+000	 1.078003730753471e+001
 4.023199805569314e+000	 2.571864756247123e+000	 1.071491560924428e+001
 3.996653566076591e+000	 2.612926572401926e+000	 1.065797370333508e+001
 4.263763232774805e+000	 2.204614046621467e+000	 1.064961219920477e+001
 4.241236299063069e+000	 2.247646470253574e+000	 1.062612378784900e+001
 4.218239800335544e+000	 2.290513694919111e+000	 1.061866607445038e+001
 4.194775253341109e+000	 2.333208214823516e+000	 1.062726248501403e+001
 4.170844331665272e+000	 2.375722534471873e+000	 1.065190431889139e+001
 4.146448865984831e+000	 2.418049172696184e+000	 1.069255060660314e+001
 4.121590844200274e+000	 2.460180666705753e+000	 1.074912803414108e+001
 4.096272411444629e+000	 2.502109576156395e+000	 1.081394639459269e+001
 4.070495869967517e+000	 2.543828487234132e+000	 1.074691509468366e+001
 4.044263678893447e+000	 2.585330016748963e+000	 1.068694352032841e+001
 4.017578453853528e+000	 2.626606816234234e+000	 1.063466475168552e+001
 4.285970332943644e+000	 2.216096411449083e+000	 1.063054141590194e+001
 4.263326071452134e+000	 2.259352962287246e+000	 1.061212690755596e+001
 4.240209799293691e+000	 2.302443453747564e+000	 1.060944329795638e+001
 4.216623041116926e+000	 2.345360340942796e+000	 1.062254091342307e+001
 4.192567479223943e+000	 2.388096089338987e+000	 1.065143816635013e+001
 4.168044953826307e+000	 2.430643178803724e+000	 1.069612138853705e+001
 4.143057463178162e+000	 2.472994107677610e+000	 1.075654473088660e+001
 4.117607163585097e+000	 2.515141396864667e+000	 1.078012144177627e+001
 4.091696369287622e+000	 2.557077593937303e+000	 1.071935706540409e+001
 4.065327552218183e+000	 2.598795277251401e+000	 1.066512336722352e+001
 4.038503341630969e+000	 2.640287060067045e+000	 1.061809628981158e+001
 4.308177433113985e+000	 2.227578776277698e+000	 1.060928016904870e+001
 4.285415843842603e+000	 2.271059454321914e+000	 1.059644729808074e+001
 4.262179798253142e+000	 2.314373212576999e+000	 1.059905669585217e+001
 4.238470828893949e+000	 2.357512467063032e+000	 1.061718532696998e+001
 4.214290626783716e+000	 2.400469644207023e+000	 1.065087844231120e+001
 4.189641041668788e+000	 2.443237184912142e+000	 1.070014938802703e+001
 4.164524082156950e+000	 2.485807548650289e+000	 1.076497948082290e+001
 4.138941915726369e+000	 2.528173217573695e+000	 1.075125920171445e+001
 4.112896868608430e+000	 2.570326700641155e+000	 1.069733901997314e+001
 4.086391425543521e+000	 2.612260537754436e+000	 1.064942132850986e+001
 4.059428229408913e+000	 2.653967303900358e+000	 1.060822477300438e+001
 4.330384533285831e+000	 2.239061141107313e+000	 1.058580012104078e+001
 4.307505616234475e+000	 2.282765946357576e+000	 1.057904826418701e+001
 4.284149797213895e+000	 2.326302971407414e+000	 1.058746115336984e+001
 4.260318616672175e+000	 2.369664593184222e+000	 1.061114213274212e+001
 4.236013774344592e+000	 2.412843199075978e+000	 1.065016302043012e+001
 4.211237129512270e+000	 2.455831191021434e+000	 1.070456389337281e+001
 4.185990701136643e+000	 2.498620989623790e+000	 1.077435293836763e+001
 4.160276667868444e+000	 2.541205038283482e+000	 1.072734594396327e+001
 4.134097367929940e+000	 2.583575807345691e+000	 1.068083790002023e+001
 4.107455298869463e+000	 2.625725798258069e+000	 1.063980491307391e+001
 4.080353117187359e+000	 2.667647547734174e+000	 1.060500817727691e+001
 4.352591633459181e+000	 2.250543505937929e+000	 1.056007263425097e+001
 4.329595388627752e+000	 2.294472438394234e+000	 1.055989298052630e+001
 4.306119796175953e+000	 2.338232730238807e+000	 1.057461159757828e+001
 4.282166404451602e+000	 2.381816719306368e+000	 1.060435795357984e+001
 4.257736921906572e+000	 2.425216753945855e+000	 1.064923016592596e+001
 4.232833217356756e+000	 2.468425197131603e+000	 1.070929476206810e+001
 4.207457320117240e+000	 2.511434430598112e+000	 1.075106976809064e+001
 4.181611420011322e+000	 2.554236858994026e+000	 1.070836886768750e+001
 4.155297867252153e+000	 2.596824914050908e+000	 1.066983175941091e+001
 4.128519172196008e+000	 2.639191058762300e+000	 1.063624292617203e+001
 4.101278004966307e+000	 2.681327791568492e+000	 1.060840596057001e+001
 4.374798733634036e+000	 2.262025870769545e+000	 1.053206877864394e+001
 4.351685161022432e+000	 2.306178930431887e+000	 1.053894449494029e+001
 4.328089795139316e+000	 2.350162489071184e+000	 1.056046299632136e+001
 4.304014192232235e+000	 2.393968845429471e+000	 1.059677962260048e+001
 4.279460069469656e+000	 2.437590308816654e+000	 1.064801852564314e+001
 4.254429305202245e+000	 2.481019203242649e+000	 1.071427240635404e+001
 4.228923939098740e+000	 2.524247871573257e+000	 1.072792878124524e+001
 4.202946172155001e+000	 2.567268679705326e+000	 1.069431607806650e+001
 4.176498366575069e+000	 2.610074020756808e+000	 1.066429973601751e+001
 4.149583045523155e+000	 2.652656319267127e+000	 1.063870543652767e+001
 4.122202892745759e+000	 2.695008035403313e+000	 1.061837902514006e+001
 4.397005833810392e+000	 2.273508235602161e+000	 1.053098349072730e+001
 4.373774933418516e+000	 2.317885422470535e+000	 1.051616573166311e+001
 4.350059794103981e+000	 2.362092247904539e+000	 1.054497035718824e+001
 4.325861980014071e+000	 2.406120971553529e+000	 1.058835417788839e+001
 4.301183217033842e+000	 2.449963863688372e+000	 1.064646711841443e+001
 4.276025393048738e+000	 2.493613209354572e+000	 1.071942777921042e+001
 4.250390558081142e+000	 2.537061312549223e+000	 1.070916062502522e+001
 4.224280924299484e+000	 2.580300500417384e+000	 1.068517656341506e+001
 4.197698865898687e+000	 2.623323127463390e+000	 1.066422202434523e+001
 4.170646918850905e+000	 2.666121579772553e+000	 1.064716374442561e+001
 4.143127780525714e+000	 2.708688279238637e+000	 1.063488968108637e+001
 4.419212933988254e+000	 2.284990600435776e+000	 1.052634789425472e+001
 4.395864705816003e+000	 2.329591914510178e+000	 1.051776591946811e+001
 4.372029793069951e+000	 2.374022006738874e+000	 1.052808872651475e+001
 4.347709767797110e+000	 2.418273097678542e+000	 1.057902885734493e+001
 4.322906364599133e+000	 2.462337418561012e+000	 1.064451532571450e+001
 4.297621480896234e+000	 2.506207215467371e+000	 1.071016613335893e+001
 4.271857177064447e+000	 2.549874753526011e+000	 1.069476367008042e+001
 4.245615676444769e+000	 2.593332321130198e+000	 1.068094017299409e+001
 4.218899365223009e+000	 2.636572234170655e+000	 1.066957984898359e+001
 4.191710792179257e+000	 2.679586840278577e+000	 1.066159035076823e+001
 4.164052668306169e+000	 2.722368523074463e+000	 1.065790161097820e+001
 4.441420034167620e+000	 2.296472965270393e+000	 1.051807382323831e+001
 4.417954478214896e+000	 2.341298406550817e+000	 1.051786218010824e+001
 4.393999792037223e+000	 2.385951765574191e+000	 1.053220132484920e+001
 4.369557555581356e+000	 2.430425223804512e+000	 1.056875109369317e+001
 4.344629512165527e+000	 2.474710973434573e+000	 1.064210288259391e+001
 4.319217568744735e+000	 2.518801221581046e+000	 1.068884965622802e+001
 4.293323796048657e+000	 2.562688194503620e+000	 1.068473696300644e+001
 4.266950428590860e+000	 2.606364141843771e+000	 1.068159759548692e+001
 4.240099864548035e+000	 2.649821340878603e+000	 1.068035543885431e+001
 4.212774665508213e+000	 2.693052100785198e+000	 1.068195892706008e+001
 4.184977556087130e+000	 2.736048766910793e+000	 1.068737983554300e+001
 3.975728678300154e+000	 2.599246328570120e+000	 1.068806825020996e+001
 3.948875852262866e+000	 2.639863538801905e+000	 1.068894754948716e+001
 3.921580350673420e+000	 2.680243935414237e+000	 1.068672274748309e+001
 3.893845223097611e+000	 2.720380373899949e+000	 1.068203910527335e+001
 3.865673671256816e+000	 2.760265760305475e+000	 1.067556349229446e+001
 3.837069048031190e+000	 2.799893055247307e+000	 1.066798336688397e+001
 3.808034856336499e+000	 2.839255277906680e+000	 1.066000570151800e+001
 3.778574747875074e+000	 2.878345509997806e+000	 1.065235585477641e+001
 3.748692521761566e+000	 2.917156899705098e+000	 1.064790960532435e+001
 3.718392123024357e+000	 2.955682665584794e+000	 1.068834601678351e+001
 3.687677640983678e+000	 2.993916100426382e+000	 1.072407255819277e+001
 3.996653566076591e+000	 2.612926572401926e+000	 1.065797370333508e+001
 3.969659409375954e+000	 2.653757557424342e+000	 1.066348392052336e+001
 3.942220247251891e+000	 2.694350482439861e+000	 1.066577865375404e+001
 3.914339145320547e+000	 2.734698165338652e+000	 1.066545485826971e+001
 3.886019322154460e+000	 2.774793474830546e+000	 1.066313122592896e+001
 3.857264148280524e+000	 2.814629334482651e+000	 1.065944721053248e+001
 3.828077145050906e+000	 2.854198726735049e+000	 1.065506199758848e+001
 3.798461983387418e+000	 2.893494696889920e+000	 1.065065342048216e+001
 3.768422482400056e+000	 2.932510357069496e+000	 1.064691682518863e+001
 3.737962607880508e+000	 2.971238890138200e+000	 1.066271384856729e+001
 3.707086470671743e+000	 3.009673553584413e+000	 1.070339392605534e+001
 4.017578453853528e+000	 2.626606816234234e+000	 1.063466475168552e+001
 3.990442966489449e+000	 2.667651576047185e+000	 1.064384038759652e+001
 3.962860143830686e+000	 2.708457029465810e+000	 1.064968484120977e+001
 3.934833067543730e+000	 2.749015956777603e+000	 1.065274733095568e+001
 3.906364973052286e+000	 2.789321189355799e+000	 1.065359894800340e+001
 3.877459248529986e+000	 2.829365613718122e+000	 1.065283172581056e+001
 3.848119433765391e+000	 2.869142175563498e+000	 1.065105765383829e+001
 3.818349218899807e+000	 2.908643883782081e+000	 1.064890763733039e+001
 3.788152443038567e+000	 2.947863814433914e+000	 1.064703040523189e+001
 3.757533092736663e+000	 2.986795114691609e+000	 1.064609136849356e+001
 3.726495300359807e+000	 3.025431006742444e+000	 1.067932357268851e+001
 4.038503341630969e+000	 2.640287060067045e+000	 1.061809628981158e+001
 4.011226523603352e+000	 2.681545594670439e+000	 1.062998615032153e+001
 3.983500040409804e+000	 2.722563576492080e+000	 1.063842479744503e+001
 3.955326989767160e+000	 2.763333748216801e+000	 1.064391427560001e+001
 3.926710623950293e+000	 2.803848903881234e+000	 1.064697864593603e+001
 3.897654348779572e+000	 2.844101892953717e+000	 1.064816309955040e+001
 3.868161722479959e+000	 2.884085624392029e+000	 1.064803301457908e+001
 3.838236454412243e+000	 2.923793070674288e+000	 1.064717295899678e+001
 3.807882403677097e+000	 2.963217271798351e+000	 1.064618564113738e+001
 3.777103577592825e+000	 3.002351339245025e+000	 1.064569081011897e+001
 3.745904130047871e+000	 3.041188459900474e+000	 1.065202606136017e+001
 4.059428229408913e+000	 2.653967303900358e+000	 1.060822477300438e+001
 4.032010080717662e+000	 2.695439613294097e+000	 1.062189166441023e+001
 4.004139936989243e+000	 2.736670123518673e+000	 1.063198296126413e+001
 3.975820911990837e+000	 2.777651539656246e+000	 1.063895409069463e+001
 3.947056274848481e+000	 2.818376618406850e+000	 1.064328264842800e+001
 3.917849449029285e+000	 2.858838172189440e+000	 1.064546755511834e+001
 3.888204011194607e+000	 2.899029073220639e+000	 1.064602815624596e+001
 3.858123689924724e+000	 2.938942257566541e+000	 1.064550326735397e+001
 3.827612364315648e+000	 2.978570729162809e+000	 1.064445016657219e+001
 3.796674062448990e+000	 3.017907563798445e+000	 1.064344353655041e+001
 3.765312959735935e+000	 3.056945913058504e+000	 1.064307435809174e+001
 4.080353117187359e+000	 2.667647547734174e+000	 1.060500817727691e+001
 4.052793637832379e+000	 2.709333631918165e+000	 1.061952860946373e+001
 4.024779833569005e+000	 2.750776670545589e+000	 1.063034469829093e+001
 3.996314834214761e+000	 2.791969331095936e+000	 1.063786580438480e+001
 3.967401925746852e+000	 2.832904332932649e+000	 1.064252361671240e+001
 3.938044549279125e+000	 2.873574451425288e+000	 1.064477135147823e+001
 3.908246299909336e+000	 2.913972522049331e+000	 1.064508289426616e+001
 3.878010925437250e+000	 2.954091444458838e+000	 1.064395188713331e+001
 3.847342324954219e+000	 2.993924186527288e+000	 1.064189076254345e+001
 3.816244547305160e+000	 3.033463788351871e+000	 1.063942972620127e+001
 3.784721789423999e+000	 3.072703366216536e+000	 1.063711569101868e+001
 4.101278004966307e+000	 2.681327791568492e+000	 1.060840596057001e+001
 4.073577194947506e+000	 2.723227650542639e+000	 1.062286985775074e+001
 4.045419730149089e+000	 2.764883217572826e+000	 1.063349627732552e+001
 4.016808756438932e+000	 2.806287122535875e+000	 1.064064905840657e+001
 3.987747576645405e+000	 2.847432047458629e+000	 1.064471453607136e+001
 3.958239649529091e+000	 2.888310730661264e+000	 1.064610078228322e+001
 3.928288588624146e+000	 2.928915970878104e+000	 1.064523678971732e+001
 3.897898160949821e+000	 2.969240631351181e+000	 1.064257160013749e+001
 3.867072285592810e+000	 3.009277643891787e+000	 1.063857337914979e+001
 3.835815032161337e+000	 3.049020012905301e+000	 1.063372843933490e+001
 3.804130619112063e+000	 3.088460819374566e+000	 1.062854021393240e+001
 4.122202892745759e+000	 2.695008035403313e+000	 1.061837902514006e+001
 4.094360752063038e+000	 2.737121669167521e+000	 1.063188944393691e+001
 4.066059626729495e+000	 2.778989764600386e+000	 1.064142484742098e+001
 4.037302678663349e+000	 2.820604913976060e+000	 1.064730409251334e+001
 4.008093227544139e+000	 2.861959761984790e+000	 1.064986870761148e+001
 3.978434749779182e+000	 2.903047009897365e+000	 1.064948217499534e+001
 3.948330877339037e+000	 2.943859419706958e+000	 1.064652915578311e+001
 3.917785396462439e+000	 2.984389818243570e+000	 1.064141465902060e+001
 3.886802246231421e+000	 3.024631101256305e+000	 1.063456315667039e+001
 3.855385517017517e+000	 3.064576237458736e+000	 1.062641764644422e+001
 3.823539448800127e+000	 3.104218272532597e+000	 1.061743866459424e+001
 4.143127780525714e+000	 2.708688279238637e+000	 1.063488968108637e+001
 4.115144309178978e+000	 2.751015687792811e+000	 1.064656253573127e+001
 4.086699523310224e+000	 2.793096311628269e+000	 1.065411841565470e+001
 4.057796600888015e+000	 2.834922705416493e+000	 1.065783172937451e+001
 4.028438878443055e+000	 2.876487476511133e+000	 1.065799974028838e+001
 3.998629850029400e+000	 2.917783289133592e+000	 1.065494189003181e+001
 3.968373166054009e+000	 2.958802868535892e+000	 1.064899906401319e+001
 3.937672631975101e+000	 2.999539005136004e+000	 1.064053280065035e+001
 3.906532206870053e+000	 3.039984558620845e+000	 1.062992444601496e+001
 3.874956001873704e+000	 3.080132462012177e+000	 1.061757425577106e+001
 3.842948278488191e+000	 3.119975725690628e+000	 1.060390044646679e+001
 4.164052668306169e+000	 2.722368523074463e+000	 1.065790161097820e+001
 4.135927866295327e+000	 2.764909706418508e+000	 1.066686540541786e+001
 4.107339419891274e+000	 2.807202858656473e+000	 1.067156582557006e+001
 4.078290523112927e+000	 2.849240496857172e+000	 1.067223335992924e+001
 4.048784529342152e+000	 2.891015191037657e+000	 1.066912154317190e+001
 4.018824950279744e+000	 2.932519568369946e+000	 1.066250631993691e+001
 3.988415454769062e+000	 2.973746317364908e+000	 1.065268535039436e+001
 3.957559867487810e+000	 3.014688192028483e+000	 1.063997725906760e+001
 3.926262167508706e+000	 3.055338015985404e+000	 1.062472082855722e+001
 3.894526486729895e+000	 3.095688686565624e+000	 1.060727413999595e+001
 3.862357108176255e+000	 3.135733178848658e+000	 1.059301430284401e+001
 4.184977556087130e+000	 2.736048766910793e+000	 1.068737983554300e+001
 4.156711423412083e+000	 2.778803725044614e+000	 1.069277540224132e+001
 4.127979316472649e+000	 2.821309405685001e+000	 1.069375673626472e+001
 4.098784445338088e+000	 2.863558288298099e+000	 1.069051092917980e+001
 4.069130180241431e+000	 2.905542905564365e+000	 1.068324831794317e+001
 4.039020050530216e+000	 2.947255847606427e+000	 1.067220188857895e+001
 4.008457743484196e+000	 2.988689766194005e+000	 1.065762662123969e+001
 3.977447103000564e+000	 3.029837378921009e+000	 1.063979877805700e+001
 3.945992128147378e+000	 3.070691473349985e+000	 1.061901513537317e+001
 3.914096971586092e+000	 3.111244911119074e+000	 1.059559216212714e+001
 3.881765937864321e+000	 3.151490632006690e+000	 1.058282086871387e+001
 3.687677640983678e+000	 2.993916100426382e+000	 1.072407255819277e+001
 3.656553307508218e+000	 3.031850575069264e+000	 1.072318545112379e+001
 3.625023495149993e+000	 3.069479542170490e+000	 1.072292022608087e+001
 3.593092715160351e+000	 3.106796539918756e+000	 1.072410697657641e+001
 3.560765615389833e+000	 3.143795195690242e+000	 1.072182954418873e+001
 3.528046978072291e+000	 3.180469229642301e+000	 1.071035695455977e+001
 3.494941717495987e+000	 3.216812458240656e+000	 1.069348723726968e+001
 3.461454877564024e+000	 3.252818797715965e+000	 1.067159120307059e+001
 3.427591629246608e+000	 3.288482267445716e+000	 1.064504516798071e+001
 3.393357267927863e+000	 3.323796993257525e+000	 1.061422992882801e+001
 3.358757210650000e+000	 3.358757210650000e+000	 1.057952973560483e+001
 3.707086470671743e+000	 3.009673553584413e+000	 1.070339392605534e+001
 3.675798324915369e+000	 3.047807683357208e+000	 1.070348129704284e+001
 3.644102566176765e+000	 3.085634697653921e+000	 1.070398669941061e+001
 3.612003729450705e+000	 3.123148100653718e+000	 1.070580024429761e+001
 3.579506487050102e+000	 3.160341486192652e+000	 1.070103712445902e+001
 3.546615646378458e+000	 3.197208541376272e+000	 1.069027476583352e+001
 3.513336147588712e+000	 3.233743050125384e+000	 1.067417585641724e+001
 3.479673061130822e+000	 3.269938896650809e+000	 1.065316282782709e+001
 3.445631585190633e+000	 3.305790068853073e+000	 1.062766348281236e+001
 3.411217043022704e+000	 3.341290661643094e+000	 1.059810990528850e+001
 3.376434880180000e+000	 3.376434880180000e+000	 1.056493736745750e+001
 3.726495300359807e+000	 3.025431006742444e+000	 1.067932357268851e+001
 3.695043342322521e+000	 3.063764791645150e+000	 1.068102130147123e+001
 3.663181637203538e+000	 3.101789853137353e+000	 1.068292597364595e+001
 3.630914743741059e+000	 3.139499661388680e+000	 1.068482705908190e+001
 3.598247358710370e+000	 3.176887776695062e+000	 1.068115871168586e+001
 3.565184314684625e+000	 3.213947853110243e+000	 1.067174409823278e+001
 3.531730577681437e+000	 3.250673642010113e+000	 1.065705072205860e+001
 3.497891244697621e+000	 3.287058995585653e+000	 1.063755247434939e+001
 3.463671541134656e+000	 3.323097870260429e+000	 1.061372848436377e+001
 3.429076818117546e+000	 3.358784330028662e+000	 1.058606196396926e+001
 3.394112549710000e+000	 3.394112549710000e+000	 1.055503904954058e+001
 3.745904130047871e+000	 3.041188459900474e+000	 1.065202606136017e+001
 3.714288359729673e+000	 3.079721899933094e+000	 1.065595853378271e+001
 3.682260708230310e+000	 3.117945008620785e+000	 1.065987957838372e+001
 3.649825758031414e+000	 3.155851222123643e+000	 1.066390148444756e+001
 3.616988230370638e+000	 3.193434067197471e+000	 1.066220352575599e+001
 3.583752982990791e+000	 3.230687164844214e+000	 1.065476297232742e+001
 3.550125007774159e+000	 3.267604233894841e+000	 1.064209869832811e+001
 3.516109428264420e+000	 3.304179094520496e+000	 1.062473589939753e+001
 3.481711497078680e+000	 3.340405671667785e+000	 1.060320487723283e+001
 3.446936593212385e+000	 3.376277998414230e+000	 1.057803981863408e+001
 3.411790219240000e+000	 3.411790219240000e+000	 1.054977757218643e+001
 3.765312959735935e+000	 3.056945913058504e+000	 1.064307435809174e+001
 3.733533377136824e+000	 3.095679008221037e+000	 1.062844479970713e+001
 3.701339779257081e+000	 3.134100164104216e+000	 1.063609549783646e+001
 3.668736772321768e+000	 3.172202782858605e+000	 1.064328985439343e+001
 3.635729102030907e+000	 3.209980357699882e+000	 1.064418016736965e+001
 3.602321651296959e+000	 3.247426476578185e+000	 1.063932900322702e+001
 3.568519437866884e+000	 3.284534825779570e+000	 1.062930645690687e+001
 3.534327611831219e+000	 3.321299193455340e+000	 1.061468887946282e+001
 3.499751453022703e+000	 3.357713473075141e+000	 1.059605759700790e+001
 3.464796368307228e+000	 3.393771666799799e+000	 1.057399762426883e+001
 3.429467888769999e+000	 3.429467888769999e+000	 1.054909637605182e+001
 3.784721789423999e+000	 3.072703366216536e+000	 1.063711569101868e+001
 3.752778394543975e+000	 3.111636116508981e+000	 1.060216441707181e+001
 3.720418850283854e+000	 3.150255319587647e+000	 1.061256880469221e+001
 3.687647786612123e+000	 3.188554343593568e+000	 1.062301097911778e+001
 3.654469973691175e+000	 3.226526648202291e+000	 1.062709663391712e+001
 3.620890319603124e+000	 3.264165788312155e+000	 1.062543941097729e+001
 3.586913867959608e+000	 3.301465417664299e+000	 1.061866048195739e+001
 3.552545795398018e+000	 3.338419292390185e+000	 1.060738721026188e+001
 3.517791408966728e+000	 3.375021274482496e+000	 1.059225180434500e+001
 3.482656143402068e+000	 3.411265335185366e+000	 1.057388996576806e+001
 3.447145558300000e+000	 3.447145558300000e+000	 1.055293953544293e+001
 3.804130619112063e+000	 3.088460819374566e+000	 1.062854021393240e+001
 3.772023411951127e+000	 3.127593224796924e+000	 1.059550488489190e+001
 3.739497921310627e+000	 3.166410475071080e+000	 1.058879408000286e+001
 3.706558800902476e+000	 3.204905904328530e+000	 1.060308287738122e+001
 3.673210845351445e+000	 3.243072938704702e+000	 1.061096033486926e+001
 3.639458987909292e+000	 3.280905100046127e+000	 1.061309103063827e+001
 3.605308298052332e+000	 3.318396009549028e+000	 1.061014707490728e+001
 3.570763978964817e+000	 3.355539391325028e+000	 1.060280670624622e+001
 3.535831364910751e+000	 3.392329075889852e+000	 1.059175287922621e+001
 3.500515918496910e+000	 3.428759003570936e+000	 1.057767184696798e+001
 3.464823227830000e+000	 3.464823227830000e+000	 1.056125174215086e+001
 3.823539448800127e+000	 3.104218272532597e+000	 1.061743866459424e+001
 3.791268429358279e+000	 3.143550333084867e+000	 1.059152985482685e+001
 3.758576992337398e+000	 3.182565630554511e+000	 1.057465148526044e+001
 3.725469815192830e+000	 3.221257465063492e+000	 1.058352279659390e+001
 3.691951717011711e+000	 3.259619229207110e+000	 1.059577810669941e+001
 3.658027656215458e+000	 3.297644411780099e+000	 1.060228032205550e+001
 3.623702728145057e+000	 3.335326601433757e+000	 1.060375235908714e+001
 3.588982162531615e+000	 3.372659490259871e+000	 1.060092320012676e+001
 3.553871320854773e+000	 3.409636877297208e+000	 1.059452641539316e+001
 3.518375693591751e+000	 3.446252671956504e+000	 1.058529868001340e+001
 3.482500897360000e+000	 3.482500897360000e+000	 1.057397828977937e+001
 3.842948278488191e+000	 3.119975725690628e+000	 1.060390044646679e+001
 3.810513446765430e+000	 3.159507441372810e+000	 1.058672440382911e+001
 3.777656063364171e+000	 3.198720786037943e+000	 1.057234588202451e+001
 3.744380829483184e+000	 3.237609025798454e+000	 1.056434723229415e+001
 3.710692588671981e+000	 3.276165519709522e+000	 1.058155622735290e+001
 3.676596324521625e+000	 3.314383723514069e+000	 1.059300337933518e+001
 3.642097158237780e+000	 3.352257193318485e+000	 1.059946228422800e+001
 3.607200346098414e+000	 3.389779589194716e+000	 1.060171254241265e+001
 3.571911276798798e+000	 3.426944678704564e+000	 1.060053821494892e+001
 3.536235468686593e+000	 3.463746340342071e+000	 1.059672627504691e+001
 3.500178566889999e+000	 3.500178566889999e+000	 1.059106505854766e+001
 3.862357108176255e+000	 3.135733178848658e+000	 1.059301430284401e+001
 3.829758464172582e+000	 3.175464549660754e+000	 1.058103748959765e+001
 3.796735134390942e+000	 3.214875941521374e+000	 1.056975627158496e+001
 3.763291843773539e+000	 3.253960586533416e+000	 1.055921408996350e+001
 3.729433460332249e+000	 3.292711810211932e+000	 1.056830043028053e+001
 3.695164992827791e+000	 3.331123035248041e+000	 1.058525594003352e+001
 3.660491588330504e+000	 3.369187785203213e+000	 1.059726263082310e+001
 3.625418529665213e+000	 3.406899688129559e+000	 1.060515060096420e+001
 3.589951232742822e+000	 3.444252480111921e+000	 1.060975428312288e+001
 3.554095243781433e+000	 3.481240008727640e+000	 1.061191083020892e+001
 3.517856236419999e+000	 3.517856236419999e+000	 1.061245850055122e+001
 3.881765937864321e+000	 3.151490632006690e+000	 1.058282086871387e+001
 3.849003481579734e+000	 3.191421657948697e+000	 1.057441698640016e+001
 3.815814205417716e+000	 3.231031097004806e+000	 1.056682141143864e+001
 3.782202858063893e+000	 3.270312147268379e+000	 1.056011280827896e+001
 3.748174331992518e+000	 3.309258100714341e+000	 1.055601591805086e+001
 3.713733661133959e+000	 3.347862346982013e+000	 1.057903339407057e+001
 3.678886018423229e+000	 3.386118377087943e+000	 1.059713901435884e+001
 3.643636713232013e+000	 3.424019787064404e+000	 1.061121326055897e+001
 3.607991188686845e+000	 3.461560281519278e+000	 1.062214082319253e+001
 3.571955018876275e+000	 3.498733677113209e+000	 1.063080892193777e+001
 3.535533905950000e+000	 3.535533905950000e+000	 1.063810562546497e+001
 3.358757210650000e+000	 3.358757210650000e+000	 1.057952973560483e+001
 3.323796993257525e+000	 3.393357267927863e+000	 1.057692869326192e+001
 3.288482267445717e+000	 3.427591629246607e+000	 1.057053493839518e+001
 3.252818797715964e+000	 3.461454877564024e+000	 1.056084862715966e+001
 3.216812458240656e+000	 3.494941717495988e+000	 1.054836961509883e+001
 3.180469229642301e+000	 3.528046978072291e+000	 1.053359633193838e+001
 3.143795195690242e+000	 3.560765615389833e+000	 1.051702466955406e+001
 3.106796539918756e+000	 3.593092715160352e+000	 1.050453877136979e+001
 3.069479542170489e+000	 3.625023495149993e+000	 1.049536802408336e+001
 3.031850575069263e+000	 3.656553307508218e+000	 1.048344566126197e+001
 2.993916100426382e+000	 3.687677640983678e+000	 1.046871937245916e+001
 3.376434880180000e+000	 3.376434880180000e+000	 1.056493736745750e+001
 3.341290661643093e+000	 3.411217043022703e+000	 1.056497503718732e+001
 3.305790068853073e+000	 3.445631585190631e+000	 1.056046192525710e+001
 3.269938896650808e+000	 3.479673061130823e+000	 1.055187936261872e+001
 3.233743050125384e+000	 3.513336147588712e+000	 1.053970902846060e+001
 3.197208541376273e+000	 3.546615646378458e+000	 1.052443183445419e+001
 3.160341486192652e+000	 3.579506487050102e+000	 1.050652682145744e+001
 3.123148100653718e+000	 3.612003729450705e+000	 1.048708181278136e+001
 3.085634697653921e+000	 3.644102566176766e+000	 1.047649024465705e+001
 3.047807683357207e+000	 3.675798324915369e+000	 1.046203316246971e+001
 3.009673553584413e+000	 3.707086470671743e+000	 1.044363618964429e+001
 3.394112549710000e+000	 3.394112549710000e+000	 1.055503904954058e+001
 3.358784330028662e+000	 3.429076818117545e+000	 1.055719789580705e+001
 3.323097870260429e+000	 3.463671541134656e+000	 1.055405569114789e+001
 3.287058995585653e+000	 3.497891244697622e+000	 1.054607532625680e+001
 3.250673642010113e+000	 3.531730577681437e+000	 1.053372068202129e+001
 3.213947853110243e+000	 3.565184314684625e+000	 1.051745552276686e+001
 3.176887776695062e+000	 3.598247358710370e+000	 1.049774240125227e+001
 3.139499661388681e+000	 3.630914743741060e+000	 1.047504157823439e+001
 3.101789853137353e+000	 3.663181637203538e+000	 1.045736052327925e+001
 3.063764791645150e+000	 3.695043342322521e+000	 1.043993946201462e+001
 3.025431006742444e+000	 3.726495300359807e+000	 1.041744501282828e+001
 3.411790219240000e+000	 3.411790219240000e+000	 1.054977757218643e+001
 3.376277998414230e+000	 3.446936593212386e+000	 1.055354686622608e+001
 3.340405671667785e+000	 3.481711497078680e+000	 1.055127253996931e+001
 3.304179094520497e+000	 3.516109428264421e+000	 1.054339942632318e+001
 3.267604233894842e+000	 3.550125007774160e+000	 1.053037398351476e+001
 3.230687164844214e+000	 3.583752982990791e+000	 1.051264319687915e+001
 3.193434067197472e+000	 3.616988230370639e+000	 1.049065349170426e+001
 3.155851222123643e+000	 3.649825758031414e+000	 1.046484965995439e+001
 3.117945008620784e+000	 3.682260708230310e+000	 1.043813360901577e+001
 3.079721899933094e+000	 3.714288359729672e+000	 1.041732527267022e+001
 3.041188459900474e+000	 3.745904130047871e+000	 1.039031231014280e+001
 3.429467888769999e+000	 3.429467888769999e+000	 1.054909637605182e+001
 3.393771666799799e+000	 3.464796368307228e+000	 1.055397203968864e+001
 3.357713473075141e+000	 3.499751453022703e+000	 1.055206911594529e+001
 3.321299193455340e+000	 3.534327611831218e+000	 1.054381476001397e+001
 3.284534825779571e+000	 3.568519437866885e+000	 1.052963838076005e+001
 3.247426476578186e+000	 3.602321651296958e+000	 1.050997055060142e+001
 3.209980357699882e+000	 3.635729102030906e+000	 1.048524192576194e+001
 3.172202782858606e+000	 3.668736772321768e+000	 1.045588217972487e+001
 3.134100164104216e+000	 3.701339779257082e+000	 1.042231895265171e+001
 3.095679008221037e+000	 3.733533377136823e+000	 1.039435064309348e+001
 3.056945913058505e+000	 3.765312959735935e+000	 1.038746933098620e+001
 3.447145558300000e+000	 3.447145558300000e+000	 1.055293953544293e+001
 3.411265335185366e+000	 3.482656143402068e+000	 1.055842398890800e+001
 3.375021274482497e+000	 3.517791408966727e+000	 1.055640239489572e+001
 3.338419292390183e+000	 3.552545795398019e+000	 1.054728460862733e+001
 3.301465417664299e+000	 3.586913867959607e+000	 1.053148336063356e+001
 3.264165788312155e+000	 3.620890319603124e+000	 1.050941317427456e+001
 3.226526648202291e+000	 3.654469973691175e+000	 1.048148929296214e+001
 3.188554343593566e+000	 3.687647786612121e+000	 1.044812661991568e+001
 3.150255319587648e+000	 3.720418850283854e+000	 1.040973867322280e+001
 3.111636116508981e+000	 3.752778394543975e+000	 1.037554154004235e+001
 3.072703366216536e+000	 3.784721789423999e+000	 1.038932173612639e+001
 3.464823227830000e+000	 3.464823227830000e+000	 1.056125174215086e+001
 3.428759003570936e+000	 3.500515918496910e+000	 1.056685375578403e+001
 3.392329075889854e+000	 3.535831364910751e+000	 1.056422967577740e+001
 3.355539391325027e+000	 3.570763978964816e+000	 1.055377243286691e+001
 3.318396009549028e+000	 3.605308298052332e+000	 1.053587844807266e+001
 3.280905100046127e+000	 3.639458987909291e+000	 1.051094655740947e+001
 3.243072938704701e+000	 3.673210845351444e+000	 1.047937694563955e+001
 3.204905904328530e+000	 3.706558800902475e+000	 1.044157009190447e+001
 3.166410475071079e+000	 3.739497921310626e+000	 1.039792573001442e+001
 3.127593224796923e+000	 3.772023411951127e+000	 1.038247287958174e+001
 3.088460819374566e+000	 3.804130619112063e+000	 1.038904089735153e+001
 3.482500897360000e+000	 3.482500897360000e+000	 1.057397828977937e+001
 3.446252671956504e+000	 3.518375693591751e+000	 1.057921283949501e+001
 3.409636877297208e+000	 3.553871320854773e+000	 1.057550857248256e+001
 3.372659490259871e+000	 3.588982162531616e+000	 1.056324186828849e+001
 3.335326601433757e+000	 3.623702728145057e+000	 1.054279320510970e+001
 3.297644411780098e+000	 3.658027656215457e+000	 1.051454609124621e+001
 3.259619229207111e+000	 3.691951717011712e+000	 1.047888600494700e+001
 3.221257465063493e+000	 3.725469815192830e+000	 1.043619934549277e+001
 3.182565630554511e+000	 3.758576992337399e+000	 1.039937878906321e+001
 3.143550333084867e+000	 3.791268429358279e+000	 1.039247709027195e+001
 3.104218272532596e+000	 3.823539448800127e+000	 1.038665751625261e+001
 3.500178566889999e+000	 3.500178566889999e+000	 1.059106505854766e+001
 3.463746340342071e+000	 3.536235468686592e+000	 1.059545318495009e+001
 3.426944678704565e+000	 3.571911276798797e+000	 1.059019700588596e+001
 3.389779589194716e+000	 3.607200346098415e+000	 1.057565672088452e+001
 3.352257193318486e+000	 3.642097158237780e+000	 1.055219722993529e+001
 3.314383723514069e+000	 3.676596324521625e+000	 1.052018707123564e+001
 3.276165519709521e+000	 3.710692588671980e+000	 1.047999736669348e+001
 3.237609025798454e+000	 3.744380829483184e+000	 1.043200077803673e+001
 3.198720786037942e+000	 3.777656063364171e+000	 1.041564697247478e+001
 3.159507441372810e+000	 3.810513446765430e+000	 1.040111777374769e+001
 3.119975725690628e+000	 3.842948278488191e+000	 1.038220157596693e+001
 3.517856236419999e+000	 3.517856236419999e+000	 1.061245850055122e+001
 3.481240008727641e+000	 3.554095243781433e+000	 1.061552717159010e+001
 3.444252480111921e+000	 3.589951232742822e+000	 1.060825319613176e+001
 3.406899688129559e+000	 3.625418529665214e+000	 1.059098096280172e+001
 3.369187785203214e+000	 3.660491588330505e+000	 1.056406015598973e+001
 3.331123035248041e+000	 3.695164992827792e+000	 1.052784469944608e+001
 3.292711810211932e+000	 3.729433460332249e+000	 1.048269170700595e+001
 3.253960586533416e+000	 3.763291843773537e+000	 1.044674951668425e+001
 3.214875941521374e+000	 3.796735134390943e+000	 1.043093739900616e+001
 3.175464549660754e+000	 3.829758464172582e+000	 1.040839653383707e+001
 3.135733178848659e+000	 3.862357108176256e+000	 1.037912188943060e+001
 3.535533905950000e+000	 3.535533905950000e+000	 1.063810562546497e+001
 3.498733677113209e+000	 3.571955018876275e+000	 1.063938760252423e+001
 3.461560281519278e+000	 3.607991188686845e+000	 1.062963565515182e+001
 3.424019787064404e+000	 3.643636713232013e+000	 1.060917872818732e+001
 3.386118377087943e+000	 3.678886018423229e+000	 1.057835165108187e+001
 3.347862346982013e+000	 3.713733661133959e+000	 1.053749408689797e+001
 3.309258100714341e+000	 3.748174331992518e+000	 1.048694948782148e+001
 3.270312147268379e+000	 3.782202858063893e+000	 1.046868286530396e+001
 3.231031097004806e+000	 3.815814205417716e+000	 1.044524556480072e+001
 3.191421657948698e+000	 3.849003481579734e+000	 1.041431440496359e+001
 3.151490632006690e+000	 3.881765937864321e+000	 1.037586549060728e+001
 2.993916100426382e+000	 3.687677640983678e+000	 1.046871937245916e+001
 2.955682665584793e+000	 3.718392123024356e+000	 1.042547516824760e+001
 2.917156899705098e+000	 3.748692521761566e+000	 1.037607140924145e+001
 2.878345509997805e+000	 3.778574747875074e+000	 1.037309333621523e+001
 2.839255277906680e+000	 3.808034856336499e+000	 1.036725794093003e+001
 2.799893055247307e+000	 3.837069048031190e+000	 1.035647023445131e+001
 2.760265760305475e+000	 3.865673671256816e+000	 1.034100571084140e+001
 2.720380373899950e+000	 3.893845223097610e+000	 1.032113601160138e+001
 2.680243935414236e+000	 3.921580350673420e+000	 1.029712827897342e+001
 2.639863538801905e+000	 3.948875852262866e+000	 1.026924453008569e+001
 2.599246328570120e+000	 3.975728678300154e+000	 1.023774105337394e+001
 3.009673553584413e+000	 3.707086470671743e+000	 1.044363618964429e+001
 2.971238890138199e+000	 3.737962607880507e+000	 1.039588918370535e+001
 2.932510357069496e+000	 3.768422482400055e+000	 1.037558081699733e+001
 2.893494696889920e+000	 3.798461983387418e+000	 1.037189247358448e+001
 2.854198726735048e+000	 3.828077145050905e+000	 1.036388781193603e+001
 2.814629334482651e+000	 3.857264148280524e+000	 1.035186606087007e+001
 2.774793474830546e+000	 3.886019322154459e+000	 1.033612216382610e+001
 2.734698165338653e+000	 3.914339145320546e+000	 1.031694609172642e+001
 2.694350482439861e+000	 3.942220247251892e+000	 1.029462217693914e+001
 2.653757557424342e+000	 3.969659409375954e+000	 1.026942846988866e+001
 2.612926572401926e+000	 3.996653566076591e+000	 1.024163611977335e+001
 3.025431006742444e+000	 3.726495300359807e+000	 1.041744501282828e+001
 2.986795114691609e+000	 3.757533092736663e+000	 1.037850721690083e+001
 2.947863814433914e+000	 3.788152443038567e+000	 1.037571261734316e+001
 2.908643883782081e+000	 3.818349218899807e+000	 1.036918281505867e+001
 2.869142175563498e+000	 3.848119433765391e+000	 1.035924224467520e+001
 2.829365613718121e+000	 3.877459248529986e+000	 1.034621069073366e+001
 2.789321189355799e+000	 3.906364973052286e+000	 1.033040255810696e+001
 2.749015956777603e+000	 3.934833067543729e+000	 1.031212616363295e+001
 2.708457029465810e+000	 3.962860143830687e+000	 1.029168305062260e+001
 2.667651576047185e+000	 3.990442966489449e+000	 1.026936732781868e+001
 2.626606816234234e+000	 4.017578453853528e+000	 1.024546503428944e+001
 3.041188459900474e+000	 3.745904130047871e+000	 1.039031231014280e+001
 3.002351339245025e+000	 3.777103577592825e+000	 1.038039044771582e+001
 2.963217271798352e+000	 3.807882403677097e+000	 1.037411739947238e+001
 2.923793070674288e+000	 3.838236454412244e+000	 1.036498410845596e+001
 2.884085624392029e+000	 3.868161722479959e+000	 1.035333664154357e+001
 2.844101892953717e+000	 3.897654348779572e+000	 1.033951534874506e+001
 2.803848903881234e+000	 3.926710623950293e+000	 1.032385411054222e+001
 2.763333748216802e+000	 3.955326989767160e+000	 1.030667960817891e+001
 2.722563576492080e+000	 3.983500040409804e+000	 1.028831061859746e+001
 2.681545594670438e+000	 4.011226523603352e+000	 1.026905733562637e+001
 2.640287060067045e+000	 4.038503341630969e+000	 1.024922071892904e+001
 3.056945913058505e+000	 3.765312959735935e+000	 1.038746933098620e+001
 3.017907563798445e+000	 3.796674062448990e+000	 1.038032795173354e+001
 2.978570729162810e+000	 3.827612364315648e+000	 1.037081879932043e+001
 2.938942257566540e+000	 3.858123689924723e+000	 1.035931556090839e+001
 2.899029073220639e+000	 3.888204011194608e+000	 1.034618594315576e+001
 2.858838172189439e+000	 3.917849449029285e+000	 1.033179087349726e+001
 2.818376618406850e+000	 3.947056274848481e+000	 1.031648372428972e+001
 2.777651539656245e+000	 3.975820911990836e+000	 1.030060956164315e+001
 2.736670123518674e+000	 4.004139936989244e+000	 1.028450442066694e+001
 2.695439613294097e+000	 4.032010080717662e+000	 1.026849460876595e+001
 2.653967303900358e+000	 4.059428229408913e+000	 1.025289603852219e+001
 3.072703366216536e+000	 3.784721789423999e+000	 1.038932173612639e+001
 3.033463788351870e+000	 3.816244547305160e+000	 1.037834726373748e+001
 2.993924186527289e+000	 3.847342324954219e+000	 1.036583984599847e+001
 2.954091444458838e+000	 3.878010925437250e+000	 1.035219585272554e+001
 2.913972522049332e+000	 3.908246299909337e+000	 1.033780464018546e+001
 2.873574451425288e+000	 3.938044549279125e+000	 1.032304772737356e+001
 2.832904332932649e+000	 3.967401925746852e+000	 1.030829799685053e+001
 2.791969331095936e+000	 3.996314834214760e+000	 1.029391892199667e+001
 2.750776670545588e+000	 4.024779833569006e+000	 1.028026382244766e+001
 2.709333631918164e+000	 4.052793637832379e+000	 1.026767514937723e+001
 2.667647547734174e+000	 4.080353117187359e+000	 1.025648380218823e+001
 3.088460819374566e+000	 3.804130619112063e+000	 1.038904089735153e+001
 3.049020012905300e+000	 3.835815032161337e+000	 1.037447524619665e+001
 3.009277643891787e+000	 3.867072285592808e+000	 1.035920297727359e+001
 2.969240631351180e+000	 3.897898160949821e+000	 1.034364315083386e+001
 2.928915970878104e+000	 3.928288588624146e+000	 1.032820678484352e+001
 2.888310730661264e+000	 3.958239649529090e+000	 1.031329600614468e+001
 2.847432047458628e+000	 3.987747576645405e+000	 1.029930322786634e+001
 2.806287122535875e+000	 4.016808756438931e+000	 1.028661035498193e+001
 2.764883217572826e+000	 4.045419730149088e+000	 1.027558801981323e+001
 2.723227650542639e+000	 4.073577194947505e+000	 1.026659484917624e+001
 2.681327791568492e+000	 4.101278004966307e+000	 1.025997676475690e+001
 3.104218272532596e+000	 3.823539448800127e+000	 1.038665751625261e+001
 3.064576237458737e+000	 3.855385517017518e+000	 1.036873810632944e+001
 3.024631101256306e+000	 3.886802246231421e+000	 1.035093005457754e+001
 2.984389818243570e+000	 3.917785396462439e+000	 1.033367512180678e+001
 2.943859419706957e+000	 3.948330877339037e+000	 1.031740600200645e+001
 2.903047009897364e+000	 3.978434749779182e+000	 1.030254544827374e+001
 2.861959761984790e+000	 4.008093227544139e+000	 1.028950542667927e+001
 2.820604913976060e+000	 4.037302678663349e+000	 1.027868630000692e+001
 2.778989764600386e+000	 4.066059626729496e+000	 1.027047604320244e+001
 2.737121669167521e+000	 4.094360752063039e+000	 1.026524949225795e+001
 2.695008035403313e+000	 4.122202892745759e+000	 1.026336762814638e+001
 3.119975725690628e+000	 3.842948278488191e+000	 1.038220157596693e+001
 3.080132462012176e+000	 3.874956001873703e+000	 1.036116141265030e+001
 3.039984558620846e+000	 3.906532206870053e+000	 1.034104237756066e+001
 2.999539005136003e+000	 3.937672631975102e+000	 1.032230894449984e+001
 2.958802868535893e+000	 3.968373166054009e+000	 1.030541550000774e+001
 2.917783289133592e+000	 3.998629850029400e+000	 1.029080544393908e+001
 2.876487476511133e+000	 4.028438878443054e+000	 1.027891031966274e+001
 2.834922705416493e+000	 4.057796600888015e+000	 1.027014897586072e+001
 2.793096311628267e+000	 4.086699523310224e+000	 1.026492676179687e+001
 2.751015687792810e+000	 4.115144309178978e+000	 1.026363475781390e+001
 2.708688279238637e+000	 4.143127780525714e+000	 1.026664904269935e+001
 3.135733178848659e+000	 3.862357108176256e+000	 1.037912188943060e+001
 3.095688686565623e+000	 3.894526486729895e+000	 1.035177011101763e+001
 3.055338015985406e+000	 3.926262167508705e+000	 1.032956069820697e+001
 3.014688192028483e+000	 3.957559867487810e+000	 1.030956132230489e+001
 2.973746317364908e+000	 3.988415454769062e+000	 1.029224808110369e+001
 2.932519568369945e+000	 4.018824950279744e+000	 1.027808504378522e+001
 2.891015191037657e+000	 4.048784529342152e+000	 1.026752335733122e+001
 2.849240496857172e+000	 4.078290523112926e+000	 1.026100038625669e+001
 2.807202858656473e+000	 4.107339419891274e+000	 1.025893888757262e+001
 2.764909706418508e+000	 4.135927866295328e+000	 1.026174622276794e+001
 2.722368523074464e+000	 4.164052668306170e+000	 1.026981360847887e+001
 3.151490632006690e+000	 3.881765937864321e+000	 1.037586549060728e+001
 3.111244911119075e+000	 3.914096971586092e+000	 1.034058854020012e+001
 3.070691473349985e+000	 3.945992128147378e+000	 1.031650523452586e+001
 3.029837378921009e+000	 3.977447103000565e+000	 1.029544849503673e+001
 2.988689766194005e+000	 4.008457743484196e+000	 1.027791615162539e+001
 2.947255847606426e+000	 4.039020050530216e+000	 1.026439296741116e+001
 2.905542905564364e+000	 4.069130180241432e+000	 1.025534972123666e+001
 2.863558288298099e+000	 4.098784445338088e+000	 1.025124232520934e+001
 2.821309405685000e+000	 4.127979316472649e+000	 1.025251097923041e+001
 2.778803725044614e+000	 4.156711423412083e+000	 1.025957936433306e+001
 2.736048766910793e+000	 4.184977556087130e+000	 1.027285387652541e+001
 2.599246328570120e+000	 3.975728678300154e+000	 1.023774105337394e+001
 2.558399495745880e+000	 4.002135932245784e+000	 1.023336212011050e+001
 2.517330273829839e+000	 4.028094871329415e+000	 1.021039787171720e+001
 2.476045934742123e+000	 4.053602907166102e+000	 1.019526035331228e+001
 2.434553784764504e+000	 4.078657606247210e+000	 1.018258402113666e+001
 2.392861160483732e+000	 4.103256690304888e+000	 1.015555632942589e+001
 2.350975424740408e+000	 4.127398036551245e+000	 1.011628389448131e+001
 2.308903962587824e+000	 4.151079677793084e+000	 1.006685927932609e+001
 2.266654177265143e+000	 4.174299802423162e+000	 1.000935521976961e+001
 2.224233486189214e+000	 4.197056754289153e+000	 9.945818952653742e+000
 2.181649316969235e+000	 4.219349032441642e+000	 9.878266660514631e+000
 2.612926572401926e+000	 3.996653566076591e+000	 1.024163611977335e+001
 2.571864756247123e+000	 4.023199805569313e+000	 1.023750871328639e+001
 2.530579380531644e+000	 4.049295370648115e+000	 1.021526104421400e+001
 2.489077755448880e+000	 4.074937659304963e+000	 1.018683447637387e+001
 2.447367225734718e+000	 4.100124225223292e+000	 1.017533568945456e+001
 2.405455166589521e+000	 4.124852778144358e+000	 1.015002134994654e+001
 2.363348979605680e+000	 4.149121184107708e+000	 1.011307182765017e+001
 2.321056088705193e+000	 4.172927465566493e+000	 1.006665259823248e+001
 2.278583936091637e+000	 4.196269801378701e+000	 1.001290833919426e+001
 2.235939978220896e+000	 4.219146526675410e+000	 9.953957130785431e+000
 2.193131681794851e+000	 4.241556132607472e+000	 9.891884776378696e+000
 2.626606816234234e+000	 4.017578453853528e+000	 1.024546503428944e+001
 2.585330016748962e+000	 4.044263678893447e+000	 1.024185131185523e+001
 2.543828487234133e+000	 4.070495869967516e+000	 1.022057946178525e+001
 2.502109576156395e+000	 4.096272411444630e+000	 1.018173415813451e+001
 2.460180666705753e+000	 4.121590844200274e+000	 1.016900185514599e+001
 2.418049172696184e+000	 4.146448865984830e+000	 1.014522799021846e+001
 2.375722534471873e+000	 4.170844331665272e+000	 1.011042007469449e+001
 2.333208214823517e+000	 4.194775253341109e+000	 1.006681742047581e+001
 2.290513694919110e+000	 4.218239800335543e+000	 1.001663757108160e+001
 2.247646470253574e+000	 4.241236299063070e+000	 9.962070373641915e+000
 2.204614046621467e+000	 4.263763232774805e+000	 9.905272173413177e+000
 2.640287060067045e+000	 4.038503341630969e+000	 1.024922071892904e+001
 2.598795277251401e+000	 4.065327552218183e+000	 1.024637827338509e+001
 2.557077593937302e+000	 4.091696369287622e+000	 1.022633700383872e+001
 2.515141396864667e+000	 4.117607163585098e+000	 1.018920025945850e+001
 2.472994107677610e+000	 4.143057463178161e+000	 1.016388353001982e+001
 2.430643178803725e+000	 4.168044953826307e+000	 1.014146657078088e+001
 2.388096089338987e+000	 4.192567479223944e+000	 1.010860826849571e+001
 2.345360340942797e+000	 4.216623041116926e+000	 1.006762270409154e+001
 2.302443453747564e+000	 4.240209799293691e+000	 1.002080122057618e+001
 2.259352962287246e+000	 4.263326071452134e+000	 9.970406364506964e+000
 2.216096411449083e+000	 4.285970332943644e+000	 9.918665953066549e+000
 2.653967303900358e+000	 4.059428229408913e+000	 1.025289603852219e+001
 2.612260537754436e+000	 4.086391425543521e+000	 1.025107798356651e+001
 2.570326700641156e+000	 4.112896868608430e+000	 1.023251766174757e+001
 2.528173217573696e+000	 4.138941915726369e+000	 1.019733707558260e+001
 2.485807548650290e+000	 4.164524082156951e+000	 1.016028200102922e+001
 2.443237184912141e+000	 4.189641041668788e+000	 1.013902776658756e+001
 2.400469644207022e+000	 4.214290626783716e+000	 1.010791647403205e+001
 2.357512467063031e+000	 4.238470828893948e+000	 1.006933791527609e+001
 2.314373212576998e+000	 4.262179798253141e+000	 1.002565817540090e+001
 2.271059454321914e+000	 4.285415843842602e+000	 9.979213441985769e+000
 2.227578776277698e+000	 4.308177433113985e+000	 9.932303943151315e+000
 2.667647547734174e+000	 4.080353117187359e+000	 1.025648380218823e+001
 2.625725798258069e+000	 4.107455298869463e+000	 1.025593885549154e+001
 2.583575807345691e+000	 4.134097367929940e+000	 1.023910553597940e+001
 2.541205038283481e+000	 4.160276667868444e+000	 1.020612447995453e+001
 2.498620989623790e+000	 4.185990701136644e+000	 1.015849882321676e+001
 2.455831191021434e+000	 4.211237129512269e+000	 1.013820259791929e+001
 2.412843199075978e+000	 4.236013774344592e+000	 1.010862517729902e+001
 2.369664593184222e+000	 4.260318616672175e+000	 1.007223301535697e+001
 2.326302971407413e+000	 4.284149797213895e+000	 1.003146789091907e+001
 2.282765946357576e+000	 4.307505616234475e+000	 9.988740583201878e+000
 2.239061141107313e+000	 4.330384533285831e+000	 9.946424679219209e+000
 2.681327791568492e+000	 4.101278004966307e+000	 1.025997676475690e+001
 2.639191058762300e+000	 4.128519172196009e+000	 1.026094932895463e+001
 2.596824914050908e+000	 4.155297867252152e+000	 1.024608483331330e+001
 2.554236858994026e+000	 4.181611420011321e+000	 1.021554253052666e+001
 2.511434430598112e+000	 4.207457320117239e+000	 1.016948527076368e+001
 2.468425197131604e+000	 4.232833217356756e+000	 1.013928242157451e+001
 2.425216753945855e+000	 4.257736921906573e+000	 1.011101527456926e+001
 2.381816719306369e+000	 4.282166404451602e+000	 1.007657844816200e+001
 2.338232730238807e+000	 4.306119796175953e+000	 1.003849037565381e+001
 2.294472438394234e+000	 4.329595388627752e+000	 9.999237387508453e+000
 2.250543505937929e+000	 4.352591633459181e+000	 9.961267386506714e+000
 2.695008035403313e+000	 4.122202892745759e+000	 1.026336762814638e+001
 2.652656319267128e+000	 4.149583045523155e+000	 1.026609786977499e+001
 2.610074020756808e+000	 4.176498366575068e+000	 1.025343986414150e+001
 2.567268679705326e+000	 4.202946172155001e+000	 1.022557146507311e+001
 2.524247871573256e+000	 4.228923939098740e+000	 1.018267345699271e+001
 2.481019203242650e+000	 4.254429305202246e+000	 1.014255892232824e+001
 2.437590308816653e+000	 4.279460069469656e+000	 1.011536806197940e+001
 2.393968845429471e+000	 4.304014192232235e+000	 1.008264512777302e+001
 2.350162489071183e+000	 4.328089795139315e+000	 1.004698617724845e+001
 2.306178930431887e+000	 4.351685161022433e+000	 1.001095406069562e+001
 2.262025870769545e+000	 4.374798733634035e+000	 9.977071962430300e+000
 2.708688279238637e+000	 4.143127780525714e+000	 1.026664904269935e+001
 2.666121579772554e+000	 4.170646918850905e+000	 1.027137296913931e+001
 2.623323127463390e+000	 4.197698865898687e+000	 1.026115503985296e+001
 2.580300500417384e+000	 4.224280924299485e+000	 1.023619169664885e+001
 2.537061312549223e+000	 4.250390558081143e+000	 1.019668164479037e+001
 2.493613209354573e+000	 4.276025393048738e+000	 1.014832410464988e+001
 2.449963863688373e+000	 4.301183217033843e+000	 1.012196522543246e+001
 2.406120971553529e+000	 4.325861980014071e+000	 1.009070442665084e+001
 2.362092247904538e+000	 4.350059794103981e+000	 1.005721636885240e+001
 2.317885422470535e+000	 4.373774933418515e+000	 1.002414139967645e+001
 2.273508235602161e+000	 4.397005833810392e+000	 9.971396581069373e+000
 2.722368523074464e+000	 4.164052668306170e+000	 1.026981360847887e+001
 2.679586840278577e+000	 4.191710792179257e+000	 1.027676314296444e+001
 2.636572234170655e+000	 4.218899365223009e+000	 1.026921487029573e+001
 2.593332321130198e+000	 4.245615676444770e+000	 1.024738380918564e+001
 2.549874753526011e+000	 4.271857177064447e+000	 1.021148657432839e+001
 2.506207215467371e+000	 4.297621480896234e+000	 1.016174079373683e+001
 2.462337418561012e+000	 4.322906364599133e+000	 1.013108883080476e+001
 2.418273097678543e+000	 4.347709767797111e+000	 1.010102816411817e+001
 2.374022006738874e+000	 4.372029793069950e+000	 1.006944253591746e+001
 2.329591914510179e+000	 4.395864705816004e+000	 1.002499964892493e+001
 2.284990600435776e+000	 4.419212933988255e+000	 9.970653911780380e+000
 2.736048766910793e+000	 4.184977556087130e+000	 1.027285387652541e+001
 2.693052100785198e+000	 4.212774665508213e+000	 1.028225693127917e+001
 2.649821340878603e+000	 4.240099864548034e+000	 1.027760396131544e+001
 2.606364141843770e+000	 4.266950428590860e+000	 1.025912855322009e+001
 2.562688194503621e+000	 4.293323796048657e+000	 1.022706522168347e+001
 2.518801221581046e+000	 4.319217568744734e+000	 1.018164880753903e+001
 2.474710973434573e+000	 4.344629512165527e+000	 1.014302131444659e+001
 2.430425223804512e+000	 4.369557555581356e+000	 1.011388859518811e+001
 2.385951765574191e+000	 4.393999792037224e+000	 1.007599668185195e+001
 2.341298406550817e+000	 4.417954478214896e+000	 1.002948339983396e+001
 2.296472965270393e+000	 4.441420034167621e+000	 9.974858799552473e+000
 2.181649316969235e+000	 4.219349032441642e+000	 9.878266660514631e+000
 2.138909103449004e+000	 4.241175290762651e+000	 9.785199402683345e+000
 2.096020281778892e+000	 4.262534337476436e+000	 9.713155835463688e+000
 2.052990286523145e+000	 4.283425134544102e+000	 9.664210669934887e+000
 2.009826546807197e+000	 4.303846796944171e+000	 9.640365759769480e+000
 1.966536482506964e+000	 4.323798591841205e+000	 9.643545382794518e+000
 1.923127500484418e+000	 4.343279937644681e+000	 9.675591737846739e+000
 1.879606990872978e+000	 4.362290402960451e+000	 9.738260666109609e+000
 1.835982323416120e+000	 4.380829705437297e+000	 9.774847713631619e+000
 1.792260843862487e+000	 4.398897710511126e+000	 9.711184308570298e+000
 1.748449870420633e+000	 4.416494430049542e+000	 9.632445615350761e+000
 2.193131681794851e+000	 4.241556132607472e+000	 9.891884776378696e+000
 2.150166519782733e+000	 4.263497265972152e+000	 9.810326437120127e+000
 2.107051967472487e+000	 4.284968728721272e+000	 9.750749640278039e+000
 2.063795498557646e+000	 4.305969477352578e+000	 9.715272503256319e+000
 2.020404581264306e+000	 4.326498622186580e+000	 9.705938827639843e+000
 1.976886674520360e+000	 4.346555426530812e+000	 9.724713295325058e+000
 1.933249224171266e+000	 4.366139305733747e+000	 9.773476883825232e+000
 1.889499659245882e+000	 4.385249826130742e+000	 9.789747125773150e+000
 1.845645388275808e+000	 4.403886703884519e+000	 9.754225451119497e+000
 1.801693795671522e+000	 4.422049803722750e+000	 9.702111175278894e+000
 1.757652238158466e+000	 4.439739137575500e+000	 9.635394844879343e+000
 2.204614046621467e+000	 4.263763232774805e+000	 9.905272173413177e+000
 2.161423936117456e+000	 4.285819241183235e+000	 9.834620829379970e+000
 2.118083653167060e+000	 4.307403119967731e+000	 9.786907204008321e+000
 2.074600710593102e+000	 4.328513820162675e+000	 9.764293899767850e+000
 2.030982615722333e+000	 4.349150447430567e+000	 9.768867734243287e+000
 1.987236866534630e+000	 4.369312261221915e+000	 9.802634849289875e+000
 1.943370947858931e+000	 4.388998673824185e+000	 9.794193268634162e+000
 1.899392327619537e+000	 4.408209249302242e+000	 9.765083847804524e+000
 1.855308453136171e+000	 4.426943702332746e+000	 9.737606520459210e+000
 1.811126747481146e+000	 4.445201896935138e+000	 9.696552821940411e+000
 1.766854605896794e+000	 4.462983845101943e+000	 9.641372105520892e+000
 2.216096411449083e+000	 4.285970332943644e+000	 9.918665953066549e+000
 2.172681352453174e+000	 4.308141216395904e+000	 9.858315246260961e+000
 2.129115338862615e+000	 4.329837511215812e+000	 9.821856797391545e+000
 2.085405922629511e+000	 4.351058162974391e+000	 9.811498778719020e+000
 2.041560650181279e+000	 4.371802272676131e+000	 9.829372097811476e+000
 1.997587058549771e+000	 4.392069095914510e+000	 9.804174564317608e+000
 1.953492671547413e+000	 4.411858041915995e+000	 9.773006420488612e+000
 1.909284995993943e+000	 4.431168672474952e+000	 9.746933215599164e+000
 1.864971517997210e+000	 4.450000700781982e+000	 9.725092968972056e+000
 1.820559699291361e+000	 4.468353990148293e+000	 9.694610117870143e+000
 1.776056973635617e+000	 4.486228552628871e+000	 9.650477182904922e+000
 2.227578776277698e+000	 4.308177433113985e+000	 9.932303943151315e+000
 2.183938768789886e+000	 4.330463191610154e+000	 9.881643024504857e+000
 2.140147024559148e+000	 4.352271902465517e+000	 9.855827303333481e+000
 2.096211134666874e+000	 4.373602505787726e+000	 9.857111612431641e+000
 2.052138684641143e+000	 4.394454097923273e+000	 9.820541816214314e+000
 2.007937250565785e+000	 4.414825930608601e+000	 9.786432485690638e+000
 1.963614395236711e+000	 4.434717410009177e+000	 9.758161731751532e+000
 1.919177664369100e+000	 4.454128095648869e+000	 9.735129998441716e+000
 1.874634582858924e+000	 4.473057699232222e+000	 9.716787082951127e+000
 1.829992651102166e+000	 4.491506083362213e+000	 9.696384105058559e+000
 1.785259341374934e+000	 4.509473260156284e+000	 9.662809967964739e+000
 2.239061141107313e+000	 4.330384533285831e+000	 9.946424679219209e+000
 2.195196185127593e+000	 4.352785166825989e+000	 9.904838153619087e+000
 2.151178710256661e+000	 4.374706293716842e+000	 9.889048201211969e+000
 2.107016346705191e+000	 4.396146848602682e+000	 9.844272400397360e+000
 2.062716719101926e+000	 4.417105923171991e+000	 9.806217433179409e+000
 2.018287442582672e+000	 4.437582765304187e+000	 9.774843027047819e+000
 1.973736118926827e+000	 4.457576778103730e+000	 9.749487002683901e+000
 1.929070332745009e+000	 4.477087518823997e+000	 9.729509261975212e+000
 1.884297647721313e+000	 4.496114697683471e+000	 9.714294176297427e+000
 1.839425602913561e+000	 4.514658176576894e+000	 9.701975993743627e+000
 1.794461709114746e+000	 4.532717967684179e+000	 9.678470454237335e+000
 2.250543505937929e+000	 4.352591633459181e+000	 9.961267386506714e+000
 2.206453601466296e+000	 4.375107142043407e+000	 9.927963451672486e+000
 2.162210395955153e+000	 4.397140684969789e+000	 9.876474192659243e+000
 2.117821558744462e+000	 4.418691191419257e+000	 9.833345796899415e+000
 2.073294753563626e+000	 4.439757748422287e+000	 9.797837872881983e+000
 2.028637634600432e+000	 4.460339600001269e+000	 9.769227204183409e+000
 1.983857842617759e+000	 4.480436146199654e+000	 9.746810383149562e+000
 1.938963001121667e+000	 4.500046942000331e+000	 9.729906360640936e+000
 1.893960712584378e+000	 4.519171696135725e+000	 9.717858905765226e+000
 1.848858554725545e+000	 4.537810269792345e+000	 9.711487158118743e+000
 1.803664076855054e+000	 4.555962675212561e+000	 9.697558735245947e+000
 2.262025870769545e+000	 4.374798733634035e+000	 9.977071962430300e+000
 2.217711017805993e+000	 4.397429117262409e+000	 9.918389157704953e+000
 2.173242081654625e+000	 4.419575076224358e+000	 9.868935181116866e+000
 2.128626770784688e+000	 4.441235534237453e+000	 9.828138773680319e+000
 2.083872788026245e+000	 4.462409573674162e+000	 9.795217549321023e+000
 2.038987826619063e+000	 4.483096434699841e+000	 9.769406431788019e+000
 1.993979566309508e+000	 4.503295514296951e+000	 9.749960363742019e+000
 1.948855669499078e+000	 4.523006365177878e+000	 9.736156930348475e+000
 1.903623777448118e+000	 4.542228694588987e+000	 9.727298891151911e+000
 1.858291506538120e+000	 4.560962363008559e+000	 9.725019132171568e+000
 1.812866444595856e+000	 4.579207382741427e+000	 9.720175001962344e+000
 2.273508235602161e+000	 4.397005833810392e+000	 9.971396581069373e+000
 2.228968434146685e+000	 4.419751092482993e+000	 9.914239842956633e+000
 2.184273767355075e+000	 4.442009467480548e+000	 9.866873891647472e+000
 2.139431982825867e+000	 4.463779877057269e+000	 9.828459323952462e+000
 2.094450822489782e+000	 4.485061398927612e+000	 9.798171320917522e+000
 2.049338018638567e+000	 4.505853269399911e+000	 9.775202513375390e+000
 2.004101290002073e+000	 4.526154882395619e+000	 9.758765767180201e+000
 1.958748337877239e+000	 4.545965788356631e+000	 9.748096881367959e+000
 1.913286842312534e+000	 4.565285693043253e+000	 9.742457192871028e+000
 1.867724458351285e+000	 4.584114456225539e+000	 9.742673605648690e+000
 1.822068812337153e+000	 4.602452090270778e+000	 9.746419540346004e+000
 2.284990600435776e+000	 4.419212933988255e+000	 9.970653911780380e+000
 2.240225850488372e+000	 4.442073067705161e+000	 9.915310622075914e+000
 2.195305453056506e+000	 4.464443858738362e+000	 9.870092076232279e+000
 2.150237194868000e+000	 4.486324219878704e+000	 9.834115927283710e+000
 2.105028856954237e+000	 4.507713224182639e+000	 9.806514479348103e+000
 2.059688210658944e+000	 4.528610104101474e+000	 9.786437631513055e+000
 2.014223013695456e+000	 4.549014250495659e+000	 9.773055739963555e+000
 1.968641006256151e+000	 4.568925211536594e+000	 9.765562391436587e+000
 1.922949907177625e+000	 4.588342691498529e+000	 9.763177081480832e+000
 1.877157410165040e+000	 4.607266549443284e+000	 9.765147791406413e+000
 1.831271180078945e+000	 4.625696797800614e+000	 9.776392728957481e+000
 2.296472965270393e+000	 4.441420034167621e+000	 9.974858799552473e+000
 2.251483266831054e+000	 4.464395042928913e+000	 9.921397184111751e+000
 2.206337138758916e+000	 4.486878249997798e+000	 9.878392011717635e+000
 2.161042406911087e+000	 4.508868562701761e+000	 9.844917537438553e+000
 2.115606891419611e+000	 4.530365049439245e+000	 9.820062738713592e+000
 2.070038402680193e+000	 4.551366938804532e+000	 9.802934338345944e+000
 2.024344737389655e+000	 4.571873618597071e+000	 9.792659744277581e+000
 1.978533674635815e+000	 4.591884634717767e+000	 9.788389899071898e+000
 1.932612972043392e+000	 4.611399689954811e+000	 9.789302032430721e+000
 1.886590361979385e+000	 4.630418642661794e+000	 9.794602310486788e+000
 1.840473547821232e+000	 4.648941505330933e+000	 9.810195036643400e+000
 1.748449870420633e+000	 4.416494430049542e+000	 9.632445615350761e+000
 1.704556690275469e+000	 4.433620020899308e+000	 9.541428540815033e+000
 1.660588556172508e+000	 4.450274783340313e+000	 9.458763295316949e+000
 1.616552683069939e+000	 4.466459159448743e+000	 9.385966878790455e+000
 1.572456244859625e+000	 4.482173731371831e+000	 9.324477740506822e+000
 1.528306371162558e+000	 4.497419219518086e+000	 9.275653810165379e+000
 1.484110144199970e+000	 4.512196480665969e+000	 9.240770733293557e+000
 1.439874595742234e+000	 4.526506505994299e+000	 9.221020311400253e+000
 1.395606704137587e+000	 4.540350419037734e+000	 9.217509146746005e+000
 1.351313391422532e+000	 4.553729473570638e+000	 9.231257491028073e+000
 1.307001520515620e+000	 4.566645051422786e+000	 9.263198296728209e+000
 1.757652238158466e+000	 4.439739137575500e+000	 9.635394844879343e+000
 1.713528041275271e+000	 4.456954863114908e+000	 9.557757714811650e+000
 1.669328495939905e+000	 4.473697282201146e+000	 9.486360809753343e+000
 1.625060855084024e+000	 4.489966839237116e+000	 9.422743910416966e+000
 1.580732330356815e+000	 4.505764119433992e+000	 9.368369171327240e+000
 1.536350088903590e+000	 4.521089846991899e+000	 9.324619087023228e+000
 1.491921250220426e+000	 4.535944883198664e+000	 9.292794663644528e+000
 1.447452883087016e+000	 4.550330224449835e+000	 9.274113796450063e+000
 1.402952002579742e+000	 4.564247000193416e+000	 9.269709853231078e+000
 1.358425567166879e+000	 4.577696470802579e+000	 9.280630463006904e+000
 1.313880475887600e+000	 4.590680025379892e+000	 9.307836508834575e+000
 1.766854605896794e+000	 4.462983845101943e+000	 9.641372105520892e+000
 1.722499392275472e+000	 4.480289705330701e+000	 9.576347889270910e+000
 1.678068435707619e+000	 4.497119781061904e+000	 9.515483370110328e+000
 1.633569027098352e+000	 4.513474519025167e+000	 9.460341707817136e+000
 1.589008415854182e+000	 4.529354507495599e+000	 9.412409327306115e+000
 1.544393806644744e+000	 4.544760474464952e+000	 9.373093819539864e+000
 1.499732356240960e+000	 4.559693285730408e+000	 9.343722048956298e+000
 1.455031170431841e+000	 4.574153942904255e+000	 9.325538468066187e+000
 1.410297301021917e+000	 4.588143581347830e+000	 9.319703639279656e+000
 1.365537742911231e+000	 4.601663468033123e+000	 9.327292963440302e+000
 1.320759431259581e+000	 4.614714999335489e+000	 9.349295613980800e+000
 1.776056973635617e+000	 4.486228552628871e+000	 9.650477182904922e+000
 1.731470743276074e+000	 4.503624547546692e+000	 9.597302258434185e+000
 1.686808375475648e+000	 4.520542279922586e+000	 9.546237244656791e+000
 1.642077199112920e+000	 4.536982198812895e+000	 9.498869281906908e+000
 1.597284501351727e+000	 4.552944895556654e+000	 9.456709633957258e+000
 1.552437524386020e+000	 4.568431101937240e+000	 9.421191523229997e+000
 1.507543462261574e+000	 4.583441688261202e+000	 9.393668173714628e+000
 1.462609457776710e+000	 4.597977661357555e+000	 9.375411062351505e+000
 1.417642599464111e+000	 4.612040162500976e+000	 9.367608379036330e+000
 1.372649918655588e+000	 4.625630465262271e+000	 9.371363694814272e+000
 1.327638386631561e+000	 4.638749973289583e+000	 9.387694837259675e+000
 1.785259341374934e+000	 4.509473260156284e+000	 9.662809967964739e+000
 1.740442094277075e+000	 4.526959389762877e+000	 9.620723962808238e+000
 1.695548315243992e+000	 4.543964778783195e+000	 9.578728496830149e+000
 1.650585371127729e+000	 4.560489878600298e+000	 9.538435295632409e+000
 1.605560586849447e+000	 4.576535283617154e+000	 9.501381033656676e+000
 1.560481242127419e+000	 4.592101729408770e+000	 9.469025103279838e+000
 1.515354568282264e+000	 4.607190090791048e+000	 9.442747592865670e+000
 1.470187745121624e+000	 4.621801379809735e+000	 9.423847474634860e+000
 1.424987897906324e+000	 4.635936743652854e+000	 9.413541002606403e+000
 1.379762094399950e+000	 4.649597462490021e+000	 9.412960320267320e+000
 1.334517342003541e+000	 4.662784947242169e+000	 9.423152277048704e+000
 1.794461709114746e+000	 4.532717967684179e+000	 9.678470454237335e+000
 1.749413445278476e+000	 4.550294231979255e+000	 9.646716090543100e+000
 1.704288255012651e+000	 4.567387277643729e+000	 9.613062990488528e+000
 1.659093543142779e+000	 4.583997558387379e+000	 9.579148072892284e+000
 1.613836672347344e+000	 4.600125671677105e+000	 9.546533998030688e+000
 1.568524959868940e+000	 4.615772356879540e+000	 9.516706870196687e+000
 1.523165674303032e+000	 4.630938493319944e+000	 9.491074150522072e+000
 1.477766032466580e+000	 4.645625098260799e+000	 9.470962781029265e+000
 1.432333196348558e+000	 4.659833324803467e+000	 9.457617520261946e+000
 1.386874270144317e+000	 4.673564459716376e+000	 9.452199490240417e+000
 1.341396297375522e+000	 4.686819921193250e+000	 9.455784933900132e+000
 1.803664076855054e+000	 4.555962675212561e+000	 9.697558735245947e+000
 1.758384796280277e+000	 4.573629074195829e+000	 9.675381678767598e+000
 1.713028194781627e+000	 4.590809776504190e+000	 9.649346395002011e+000
 1.667601715158070e+000	 4.607505238174136e+000	 9.621115607186853e+000
 1.622112757845418e+000	 4.623716059736503e+000	 9.592278539964948e+000
 1.576568677610583e+000	 4.639442984349548e+000	 9.564348554979199e+000
 1.530976780323879e+000	 4.654686895847889e+000	 9.538760998096544e+000
 1.485344319811581e+000	 4.669448816710744e+000	 9.516871259330314e+000
 1.439678494790811e+000	 4.683729905952811e+000	 9.499953045907024e+000
 1.393986445888689e+000	 4.697531456941334e+000	 9.489196868311101e+000
 1.348275252747503e+000	 4.710854895142822e+000	 9.485708738546762e+000
 1.812866444595856e+000	 4.579207382741427e+000	 9.720175001962344e+000
 1.767356147282479e+000	 4.596963916412597e+000	 9.706823714884447e+000
 1.721768134550916e+000	 4.614232275364574e+000	 9.687684190188923e+000
 1.676109887173601e+000	 4.631012917960568e+000	 9.664445570003910e+000
 1.630388843343668e+000	 4.647306447795351e+000	 9.638724225247509e+000
 1.584612395352348e+000	 4.663113611818793e+000	 9.612061323825785e+000
 1.538787886344805e+000	 4.678435298374887e+000	 9.585920611883001e+000
 1.492922607156626e+000	 4.693272535159570e+000	 9.561686409278064e+000
 1.447023793233082e+000	 4.707626487100887e+000	 9.540661819828053e+000
 1.401098621633065e+000	 4.721498454164895e+000	 9.524067156240781e+000
 1.355154208119483e+000	 4.734889869090891e+000	 9.513038579054697e+000
 1.822068812337153e+000	 4.602452090270778e+000	 9.746419540346004e+000
 1.776327498285080e+000	 4.620298758629560e+000	 9.741145137825809e+000
 1.730508074320522e+000	 4.637654774224886e+000	 9.728181671102460e+000
 1.684618059189374e+000	 4.654520597746678e+000	 9.709245318950229e+000
 1.638664928842095e+000	 4.670896835853642e+000	 9.685980183859259e+000
 1.592656113094236e+000	 4.686784239287280e+000	 9.659955792397183e+000
 1.546598992365808e+000	 4.702183700900934e+000	 9.632664810105061e+000
 1.500500894501714e+000	 4.717096253607278e+000	 9.605520972204824e+000
 1.454369091675374e+000	 4.731523068247697e+000	 9.579857230754927e+000
 1.408210797377446e+000	 4.745465451387059e+000	 9.556924118263007e+000
 1.362033163491464e+000	 4.758924843037452e+000	 9.537888327153357e+000
 1.831271180078945e+000	 4.625696797800614e+000	 9.776392728957481e+000
 1.785298849288082e+000	 4.643633600846719e+000	 9.778448839271285e+000
 1.739248014090443e+000	 4.661077273085121e+000	 9.770943952673079e+000
 1.693126231205387e+000	 4.678028277532466e+000	 9.755621905638146e+000
 1.646941014340698e+000	 4.694487223911383e+000	 9.734155120923743e+000
 1.600699830836247e+000	 4.710454866755005e+000	 9.708142039649159e+000
 1.554410098386889e+000	 4.725932103426031e+000	 9.679104769450500e+000
 1.508079181846847e+000	 4.740919972053868e+000	 9.648486950090755e+000
 1.461714390117684e+000	 4.755419649393240e+000	 9.617651837256886e+000
 1.415322973121832e+000	 4.769432448607827e+000	 9.587880604639480e+000
 1.368912118863444e+000	 4.782959816982506e+000	 9.560370863771510e+000
 1.840473547821232e+000	 4.648941505330933e+000	 9.810195036643400e+000
 1.794270200291483e+000	 4.666968443064073e+000	 9.818837664829136e+000
 1.747987953860680e+000	 4.684499771945285e+000	 9.816075974211495e+000
 1.701634403221643e+000	 4.701535957317928e+000	 9.803682083335382e+000
 1.655217099839479e+000	 4.718077611968575e+000	 9.783357327328712e+000
 1.608743548578379e+000	 4.734125494221968e+000	 9.756729621250047e+000
 1.562221204408049e+000	 4.749680505950178e+000	 9.725351041109567e+000
 1.515657469192024e+000	 4.764743690499341e+000	 9.690695624047550e+000
 1.469059688560015e+000	 4.779316230537515e+000	 9.654157388496524e+000
 1.422435148866224e+000	 4.793399445827199e+000	 9.617048574509301e+000
 1.375791074235425e+000	 4.806994790926056e+000	 9.580598103807317e+000
 1.307001520515620e+000	 4.566645051422786e+000	 9.263198296728209e+000
 1.262677892496843e+000	 4.579098660229949e+000	 9.334004597604890e+000
 1.218349243971802e+000	 4.591091931124016e+000	 9.361528603676955e+000
 1.174022244523952e+000	 4.602626616365185e+000	 9.370759091651946e+000
 1.129703494256913e+000	 4.613704586919090e+000	 9.376551230283004e+000
 1.085399521425690e+000	 4.624327829983526e+000	 9.378791690932705e+000
 1.041116780158473e+000	 4.634498446467843e+000	 9.377339910396501e+000
 9.968616482696642e-001	 4.644218648428491e+000	 9.372027232338763e+000
 9.526404251647134e-001	 4.653490756464190e+000	 9.362656154295792e+000
 9.084593298371433e-001	 4.662317197074184e+000	 9.348999680173050e+000
 8.643244989580522e-001	 4.670700499982988e+000	 9.330800777831135e+000
 1.313880475887600e+000	 4.590680025379892e+000	 9.307836508834575e+000
 1.269323565616884e+000	 4.603199179496159e+000	 9.366740661770706e+000
 1.224761608415979e+000	 4.615255572868285e+000	 9.392900470582115e+000
 1.180201308971413e+000	 4.626850966978888e+000	 9.395519783372789e+000
 1.135649302124196e+000	 4.637987242640786e+000	 9.395555507727915e+000
 1.091112150488570e+000	 4.648666397510717e+000	 9.392935795468009e+000
 1.046596342161823e+000	 4.658890543555444e+000	 9.387559810221740e+000
 1.002108288525804e+000	 4.668661904473817e+000	 9.379296835954797e+000
 9.576543221407279e-001	 4.677982813078235e+000	 9.367985494742765e+000
 9.132406947316660e-001	 4.686855708638988e+000	 9.353433073696046e+000
 8.688735752679867e-001	 4.695283134194933e+000	 9.335414960604481e+000
 1.320759431259581e+000	 4.614714999335489e+000	 9.349295613980800e+000
 1.275969238736935e+000	 4.627299698760772e+000	 9.396632248241605e+000
 1.231173972860197e+000	 4.639419214610888e+000	 9.420564603478285e+000
 1.186380373418968e+000	 4.651075317590875e+000	 9.416833254293257e+000
 1.141595109991643e+000	 4.662269898360744e+000	 9.411370398037089e+000
 1.096824779551707e+000	 4.673004965036161e+000	 9.404145959760951e+000
 1.052075904165542e+000	 4.683282640641307e+000	 9.395099115649135e+000
 1.007354928782444e+000	 4.693105160517438e+000	 9.384137368211061e+000
 9.626682191173955e-001	 4.702474869690625e+000	 9.371135734420900e+000
 9.180220596270133e-001	 4.711394220202210e+000	 9.355936046694588e+000
 8.734226515789358e-001	 4.719865768405385e+000	 9.338346366244419e+000
 1.327638386631561e+000	 4.638749973289583e+000	 9.387694837259675e+000
 1.282614911856997e+000	 4.651400218023791e+000	 9.423786864837270e+000
 1.237586337304457e+000	 4.663582856351826e+000	 9.444687001971879e+000
 1.192559437866615e+000	 4.675299668201150e+000	 9.434852332993010e+000
 1.147540917859256e+000	 4.686552554078961e+000	 9.424135699357983e+000
 1.102537408615102e+000	 4.697343532559854e+000	 9.412549098536923e+000
 1.057555466169631e+000	 4.707674737725433e+000	 9.400072011216997e+000
 1.012601569039586e+000	 4.717548416559352e+000	 9.386650442724010e+000
 9.676821160947164e-001	 4.726966926301362e+000	 9.372196081122329e+000
 9.228034245231843e-001	 4.735932731763849e+000	 9.356585571865271e+000
 8.779717278908999e-001	 4.744448402614344e+000	 9.339659908508528e+000
 1.334517342003541e+000	 4.662784947242169e+000	 9.423152277048704e+000
 1.289260584977069e+000	 4.675500737285212e+000	 9.448311059361556e+000
 1.243998701748758e+000	 4.687746498091098e+000	 9.465432870110751e+000
 1.198738502314355e+000	 4.699524018809712e+000	 9.449729214654990e+000
 1.153486725727034e+000	 4.710835209795433e+000	 9.433990736256389e+000
 1.108250037678753e+000	 4.721682100081797e+000	 9.418271810358716e+000
 1.063035028174089e+000	 4.732066834807822e+000	 9.402592520276945e+000
 1.017848209297230e+000	 4.741991672599561e+000	 9.386937664410777e+000
 9.726960130726905e-001	 4.751458982910444e+000	 9.371255883895568e+000
 9.275847894201801e-001	 4.760471243323902e+000	 9.355458910543955e+000
 8.825208042038785e-001	 4.769031036821811e+000	 9.339420934564437e+000
 1.341396297375522e+000	 4.686819921193250e+000	 9.455784933900132e+000
 1.295906258097151e+000	 4.699601256545038e+000	 9.470310444218239e+000
 1.250411066193101e+000	 4.711910139828708e+000	 9.482666362868940e+000
 1.204917566762189e+000	 4.723748369416562e+000	 9.461615477306278e+000
 1.159432533594977e+000	 4.735117865510166e+000	 9.441074371859502e+000
 1.113962666742662e+000	 4.746020667601992e+000	 9.421440385733312e+000
 1.068514590178917e+000	 4.756458931888473e+000	 9.402774509126829e+000
 1.023094849555375e+000	 4.766434928638065e+000	 9.385100629712222e+000
 9.777099100513177e-001	 4.775951039517873e+000	 9.368404629423514e+000
 9.323661543180000e-001	 4.785009754882377e+000	 9.352633605304664e+000
 8.870698805178715e-001	 4.793613671027785e+000	 9.337695213876756e+000
 1.348275252747503e+000	 4.710854895142822e+000	 9.485708738546762e+000
 1.302551931217244e+000	 4.723701775803268e+000	 9.489889720273265e+000
 1.256823430637485e+000	 4.736073781564651e+000	 9.492946413187147e+000
 1.211096631210115e+000	 4.747972720021696e+000	 9.470662097561968e+000
 1.165378341463085e+000	 4.759400521223156e+000	 9.445525019627404e+000
 1.119675295806828e+000	 4.770359235120436e+000	 9.422180814970425e+000
 1.073994152184115e+000	 4.780851028967388e+000	 9.400731691017279e+000
 1.028341489814022e+000	 4.790878184674862e+000	 9.381240926809182e+000
 9.827238070305978e-001	 4.800443096123647e+000	 9.363731938512414e+000
 9.371475192166442e-001	 4.809548266439267e+000	 9.348187472785245e+000
 8.916189568328796e-001	 4.818196305232266e+000	 9.334548927434193e+000
 1.355154208119483e+000	 4.734889869090891e+000	 9.513038579054697e+000
 1.309197604337347e+000	 4.747802295059902e+000	 9.507152699990268e+000
 1.263235795081911e+000	 4.760237423298930e+000	 9.501192689921510e+000
 1.217275695658135e+000	 4.772197070625118e+000	 9.477019465889322e+000
 1.171324149331358e+000	 4.783683176934406e+000	 9.447480654765888e+000
 1.125387924871252e+000	 4.794697802637133e+000	 9.420618795801714e+000
 1.079473714189682e+000	 4.805243126044564e+000	 9.396577630036131e+000
 1.033588130073170e+000	 4.815321440709956e+000	 9.375460135832052e+000
 9.877377040105315e-001	 4.824935152727767e+000	 9.357327562687688e+000
 9.419288841161128e-001	 4.834086777994572e+000	 9.342198596731301e+000
 8.961680331489021e-001	 4.842778939435253e+000	 9.330048657304795e+000
 1.362033163491464e+000	 4.758924843037452e+000	 9.537888327153357e+000
 1.315843277457460e+000	 4.771902814314941e+000	 9.522202329864905e+000
 1.269648159526378e+000	 4.784401065031544e+000	 9.507497397694779e+000
 1.223454760106248e+000	 4.796421421226827e+000	 9.480837401409534e+000
 1.177269957199797e+000	 4.807965832643913e+000	 9.447078825293485e+000
 1.131100553935933e+000	 4.819036370152078e+000	 9.416879740769126e+000
 1.084953276195618e+000	 4.829635223120002e+000	 9.390425744875149e+000
 1.038834770332819e+000	 4.839764696743343e+000	 9.367859829064143e+000
 9.927516009911181e-001	 4.849427209330234e+000	 9.349281380892945e+000
 9.467102490164057e-001	 4.858625289548296e+000	 9.334745321251184e+000
 9.007171094659395e-001	 4.867361573636750e+000	 9.324261376507653e+000
 1.368912118863444e+000	 4.782959816982506e+000	 9.560370863771510e+000
 1.322488950577584e+000	 4.796003333568383e+000	 9.535140712182937e+000
 1.276060523970887e+000	 4.808564706762494e+000	 9.511952041538724e+000
 1.229633824554454e+000	 4.820645771826822e+000	 9.482265166253193e+000
 1.183215765068400e+000	 4.832248488351680e+000	 9.444456662774810e+000
 1.136813183000870e+000	 4.843374937665274e+000	 9.411088784390479e+000
 1.090432838201924e+000	 4.854027320193703e+000	 9.382389312483202e+000
 1.044081410592971e+000	 4.864207952775024e+000	 9.358541571138858e+000
 9.977654979723580e-001	 4.873919265931046e+000	 9.339683396288532e+000
 9.514916139175227e-001	 4.883163801100436e+000	 9.325906244274115e+000
 9.052661857839915e-001	 4.891944207836753e+000	 9.317254439190046e+000
 1.375791074235425e+000	 4.806994790926056e+000	 9.580598103807317e+000
 1.329134623697719e+000	 4.820103852820232e+000	 9.546069126125387e+000
 1.282472888415437e+000	 4.832728348491778e+000	 9.514647444383854e+000
 1.235812889002754e+000	 4.844870122425104e+000	 9.481451479484969e+000
 1.189161572937169e+000	 4.856531144057705e+000	 9.439750892731961e+000
 1.142525812066066e+000	 4.867713505176722e+000	 9.403370790110030e+000
 1.095912400208599e+000	 4.878419417265667e+000	 9.372581471609838e+000
 1.049328050853623e+000	 4.888651208805000e+000	 9.347606919230845e+000
 1.002779394954251e+000	 4.898411322530205e+000	 9.328623733146078e+000
 9.562729788194642e-001	 4.907702312650993e+000	 9.315760211204708e+000
 9.098152621030583e-001	 4.916526842035265e+000	 9.309095571099212e+000
 8.643244989580522e-001	 4.670700499982988e+000	 9.330800777831135e+000
 8.202419850585254e-001	 4.678643295435927e+000	 9.287262974796326e+000
 7.762177548042755e-001	 4.686148311466118e+000	 9.251850691451441e+000
 7.322576873625158e-001	 4.693218371138126e+000	 9.224337296055454e+000
 6.883675728617010e-001	 4.699856389773195e+000	 9.204451343749879e+000
 6.445531109429850e-001	 4.706065372156695e+000	 9.191876708713057e+000
 6.008199094031385e-001	 4.711848409731801e+000	 9.189433343359996e+000
 5.571734829283327e-001	 4.717208677782532e+000	 9.187330048258007e+000
 5.136192519181055e-001	 4.722149432609216e+000	 9.180743590899558e+000
 4.701625413987223e-001	 4.726674008699353e+000	 9.169921876201510e+000
 4.268085800250276e-001	 4.730785815896795e+000	 9.154953849795133e+000
 8.688735752679867e-001	 4.695283134194933e+000	 9.335414960604481e+000
 8.245590481363796e-001	 4.703267733834722e+000	 9.296914605670942e+000
 7.803031114062362e-001	 4.710812249949480e+000	 9.265618278002661e+000
 7.361116751877538e-001	 4.717919520462003e+000	 9.241322909292549e+000
 6.919905600837462e-001	 4.724592476037333e+000	 9.223780503943519e+000
 6.479454957334770e-001	 4.730834137275505e+000	 9.212698232442525e+000
 6.039821194484363e-001	 4.736647611890442e+000	 9.209706021460059e+000
 5.601059749394569e-001	 4.742036091878187e+000	 9.207028721733993e+000
 5.163225111344945e-001	 4.747002850677489e+000	 9.200118278574102e+000
 4.726370810862667e-001	 4.751551240325788e+000	 9.189241636797624e+000
 4.290549409688527e-001	 4.755684688613479e+000	 9.174504168096537e+000
 8.734226515789358e-001	 4.719865768405385e+000	 9.338346366244419e+000
 8.288761112154275e-001	 4.727892172232124e+000	 9.304663289847779e+000
 7.843884680095284e-001	 4.735476188431549e+000	 9.277284820908674e+000
 7.399656630144197e-001	 4.742620669784688e+000	 9.256031660005878e+000
 6.956135473072752e-001	 4.749328562300383e+000	 9.240679443934278e+000
 6.513378805254688e-001	 4.755602902393324e+000	 9.230958800332720e+000
 6.071443294952086e-001	 4.761446814048191e+000	 9.227605975944558e+000
 5.630384669519916e-001	 4.766863505973046e+000	 9.224325662999682e+000
 5.190257703521901e-001	 4.771856268745071e+000	 9.217108969372518e+000
 4.751116207749753e-001	 4.776428471951631e+000	 9.206241747936920e+000
 4.313013019136611e-001	 4.780583561329669e+000	 9.191845614197925e+000
 8.779717278908999e-001	 4.744448402614344e+000	 9.339659908508528e+000
 8.331931742956691e-001	 4.752516610628134e+000	 9.310569322911935e+000
 7.884738246141516e-001	 4.760140126912325e+000	 9.286905832218967e+000
 7.438196508425135e-001	 4.767321819106181e+000	 9.268514116467065e+000
 6.992365345322877e-001	 4.774064648562337e+000	 9.255193633079264e+000
 6.547302653189593e-001	 4.780371667510148e+000	 9.246698632774811e+000
 6.103065395434555e-001	 4.786246016205046e+000	 9.243138107132493e+000
 5.659709589659362e-001	 4.791690920067119e+000	 9.239221183104920e+000
 5.217290295711923e-001	 4.796709686811960e+000	 9.231711443496895e+000
 4.775861604648481e-001	 4.801305703576880e+000	 9.220913520333728e+000
 4.335476628594530e-001	 4.805482434045368e+000	 9.206965093408076e+000
 8.825208042038785e-001	 4.769031036821811e+000	 9.339420934564437e+000
 8.375102373771048e-001	 4.777141049022752e+000	 9.314693426302165e+000
 7.925591812201065e-001	 4.784804065391811e+000	 9.294537246848684e+000
 7.476736386720354e-001	 4.792022968426481e+000	 9.278821271354325e+000
 7.028595217587842e-001	 4.798800734823201e+000	 9.267368971170223e+000
 6.581226501139491e-001	 4.805140432625983e+000	 9.259958391066324e+000
 6.134687495931768e-001	 4.811045218361013e+000	 9.256307771118832e+000
 5.689034509812911e-001	 4.816518334160397e+000	 9.251716068095949e+000
 5.244322887915013e-001	 4.821563104878159e+000	 9.243921979667887e+000
 4.800607001558850e-001	 4.826182935201539e+000	 9.233248790994010e+000
 4.357940238062281e-001	 4.830381306760575e+000	 9.219850069298969e+000
 8.870698805178715e-001	 4.793613671027785e+000	 9.337695213876756e+000
 8.418273004597338e-001	 4.801765487415977e+000	 9.317096736391530e+000
 7.966445378273929e-001	 4.809468003870001e+000	 9.300235411735981e+000
 7.515276265029854e-001	 4.816724117745588e+000	 9.287004530870179e+000
 7.064825089867642e-001	 4.823536821082972e+000	 9.277251777396771e+000
 6.615150349104378e-001	 4.829909197740824e+000	 9.270779166105681e+000
 6.166309596443723e-001	 4.835844420516084e+000	 9.267120768087926e+000
 5.718359429980561e-001	 4.841345748252881e+000	 9.261811566836023e+000
 5.271355480131169e-001	 4.846416522943665e+000	 9.253737342342141e+000
 4.825352398480866e-001	 4.851060166825606e+000	 9.243239909720661e+000
 4.380403847539867e-001	 4.855280179475290e+000	 9.230488549391350e+000
 8.916189568328796e-001	 4.818196305232266e+000	 9.334548927434193e+000
 8.461443635435570e-001	 4.826389925807810e+000	 9.317840793902386e+000
 8.007298944360106e-001	 4.834131942346899e+000	 9.304057075331185e+000
 7.553816143353628e-001	 4.841425267063504e+000	 9.293115704192434e+000
 7.101054962162282e-001	 4.848272907341652e+000	 9.284888779647398e+000
 6.649074197084257e-001	 4.854677962854673e+000	 9.279202467433136e+000
 6.197931696970425e-001	 4.860643622670265e+000	 9.275583330984736e+000
 5.747684350162314e-001	 4.866173162344577e+000	 9.269509379198910e+000
 5.298388072360390e-001	 4.871269941008480e+000	 9.261154769321129e+000
 4.850097795414523e-001	 4.875937398449082e+000	 9.250879726031950e+000
 4.402867457027287e-001	 4.880179052189514e+000	 9.238869071278481e+000
 8.961680331489021e-001	 4.842778939435253e+000	 9.330048657304795e+000
 8.504614266285739e-001	 4.851014364198250e+000	 9.316987533643671e+000
 8.048152510459596e-001	 4.858795880822506e+000	 9.306059377406200e+000
 7.592356021691685e-001	 4.866126416380228e+000	 9.297206993246395e+000
 7.137284834471757e-001	 4.873008993599236e+000	 9.290327104136502e+000
 6.682998045079127e-001	 4.879446727967530e+000	 9.285270212605237e+000
 6.229553797511871e-001	 4.885442824823553e+000	 9.281702114531027e+000
 5.777009270358168e-001	 4.891000576435481e+000	 9.274811644621801e+000
 5.325420664602679e-001	 4.896123359072603e+000	 9.266171959737259e+000
 4.874843192359822e-001	 4.900814630071966e+000	 9.256161576478426e+000
 4.425331066524542e-001	 4.905077924903247e+000	 9.244980689172580e+000
 9.007171094659395e-001	 4.867361573636750e+000	 9.324261376507653e+000
 8.547784897147843e-001	 4.875638802587297e+000	 9.314599274559217e+000
 8.089006076572401e-001	 4.883459819296819e+000	 9.306299839172548e+000
 7.630895900044020e-001	 4.890827565695757e+000	 9.299330982786930e+000
 7.173514706796069e-001	 4.897745079855731e+000	 9.293614265345603e+000
 6.716921893088989e-001	 4.904215493079394e+000	 9.289024716891518e+000
 6.261175898068063e-001	 4.910242026975950e+000	 9.285390785633872e+000
 5.806334190568124e-001	 4.915827990525591e+000	 9.277720931005359e+000
 5.352453256858034e-001	 4.920976777136034e+000	 9.268787062404156e+000
 4.899588589316763e-001	 4.925691861694258e+000	 9.259079272344089e+000
 4.447794676031630e-001	 4.929976797616488e+000	 9.248812960858819e+000
 9.052661857839915e-001	 4.891944207836753e+000	 9.317254439190046e+000
 8.590955528021887e-001	 4.900263240974951e+000	 9.310738710076196e+000
 8.129859642698522e-001	 4.908123757769840e+000	 9.304836353697572e+000
 7.669435778410637e-001	 4.915528715010096e+000	 9.299540630779696e+000
 7.209744579135220e-001	 4.922481166111133e+000	 9.294798156267877e+000
 6.750845741113839e-001	 4.928984258190266e+000	 9.290508683281541e+000
 6.292797998638997e-001	 4.935041229127454e+000	 9.286525014790183e+000
 5.835659110792182e-001	 4.940655404614911e+000	 9.278240223948238e+000
 5.379485849126456e-001	 4.945830195198774e+000	 9.268998664518128e+000
 4.924333986285348e-001	 4.950569093315958e+000	 9.259627087718439e+000
 4.470258285548553e-001	 4.954875670329237e+000	 9.250355935042780e+000
 9.098152621030583e-001	 4.916526842035265e+000	 9.309095571099212e+000
 8.634126158907872e-001	 4.924887679361214e+000	 9.305468898742930e+000
 8.170713208837958e-001	 4.932787696241570e+000	 9.301727176607965e+000
 7.707975656791535e-001	 4.940229864323243e+000	 9.297889259070866e+000
 7.245974451489209e-001	 4.947217252365443e+000	 9.293927038945377e+000
 6.784769589153683e-001	 4.953753023300147e+000	 9.289765192792052e+000
 6.324420099224679e-001	 4.959840431278068e+000	 9.285281056236332e+000
 5.864984031030343e-001	 4.965482818703439e+000	 9.276372916304634e+000
 5.406518441407947e-001	 4.970683613260823e+000	 9.266805780698554e+000
 4.949079383265576e-001	 4.975446324937067e+000	 9.257799747926299e+000
 4.492721895075311e-001	 4.979774543041494e+000	 9.249600139077435e+000
 4.268085800250276e-001	 4.730785815896795e+000	 9.154953849795133e+000
 3.835624991689582e-001	 4.734488336571500e+000	 9.136912423647312e+000
 3.404293320962267e-001	 4.737785122794405e+000	 9.116951445143133e+000
 2.974140132282676e-001	 4.740679793518913e+000	 9.094730918197511e+000
 2.545213774864985e-001	 4.743176031770457e+000	 9.069766282760421e+000
 2.117561597201589e-001	 4.745277581848414e+000	 9.041433146401015e+000
 1.691229942154836e-001	 4.746988246542276e+000	 9.008972172107301e+000
 1.266264142847394e-001	 4.748311884364385e+000	 8.971494106348940e+000
 8.427085193360755e-002	 4.749252406801554e+000	 8.927984931647030e+000
 4.206063760533369e-002	 4.749813775587760e+000	 8.877311128129227e+000
 0.000000000000000e+000	 4.750000000000000e+000	 8.818225028820022e+000
 4.290549409688527e-001	 4.755684688613479e+000	 9.174504168096537e+000
 3.855812491613293e-001	 4.759406696238825e+000	 9.158018390578922e+000
 3.422210654202023e-001	 4.762720833967920e+000	 9.140010953675617e+000
 2.989793501375452e-001	 4.765630739801289e+000	 9.120139264414643e+000
 2.558609636817305e-001	 4.768140116148707e+000	 9.097913908544063e+000
 2.128706658222569e-001	 4.770252727016390e+000	 9.072703448440469e+000
 1.700131152363395e-001	 4.771972395208514e+000	 9.043739379878771e+000
 1.272928690957834e-001	 4.773302999545376e+000	 9.010121231468471e+000
 8.471438273261547e-002	 4.774248472100564e+000	 8.970821790760377e+000
 4.228200938188822e-002	 4.774812795459289e+000	 8.924692441265041e+000
 0.000000000000000e+000	 4.775000000000001e+000	 8.870468594899130e+000
 4.313013019136611e-001	 4.780583561329669e+000	 9.191845614197925e+000
 3.875999991544945e-001	 4.784325055905754e+000	 9.176848348400721e+000
 3.440127987448031e-001	 4.787656545141123e+000	 9.160773005644314e+000
 3.005446870472999e-001	 4.790581686083426e+000	 9.143274159475698e+000
 2.572005498773117e-001	 4.793104200526780e+000	 9.123857258240959e+000
 2.139851719245966e-001	 4.795227872184246e+000	 9.101883490660452e+000
 1.709032362573495e-001	 4.796956543874674e+000	 9.076574812947024e+000
 1.279593239069137e-001	 4.798294114726324e+000	 9.047019121027972e+000
 8.515791353166169e-002	 4.799244537399557e+000	 9.012175551629918e+000
 4.250338115845228e-002	 4.799811815330811e+000	 8.970879896227482e+000
 0.000000000000000e+000	 4.800000000000001e+000	 8.921850112135710e+000
 4.335476628594530e-001	 4.805482434045368e+000	 9.206965093408076e+000
 3.896187491484534e-001	 4.809243415572285e+000	 9.193388347221083e+000
 3.458045320700291e-001	 4.812592256314011e+000	 9.179222868413332e+000
 3.021100239575316e-001	 4.815532632365324e+000	 9.164120161156030e+000
 2.585401360732423e-001	 4.818068284904680e+000	 9.147580253709169e+000
 2.150996780271780e-001	 4.820203017351980e+000	 9.128956633008979e+000
 1.717933572785137e-001	 4.821940692540757e+000	 9.107461343518569e+000
 1.286257787181304e-001	 4.823285229907229e+000	 9.082170233651564e+000
 8.560144433074615e-002	 4.824240602698530e+000	 9.052028333281449e+000
 4.272475293502587e-002	 4.824810835202332e+000	 9.015855346092890e+000
 0.000000000000000e+000	 4.825000000000000e+000	 8.972351240814239e+000
 4.357940238062281e-001	 4.830381306760575e+000	 9.219850069298969e+000
 3.916374991432063e-001	 4.834161775238420e+000	 9.207624959700913e+000
 3.475962653958803e-001	 4.837527967486588e+000	 9.195346300204102e+000
 3.036753608682403e-001	 4.840483578646984e+000	 9.182662290380971e+000
 2.598797222695222e-001	 4.843032369282405e+000	 9.169067256206889e+000
 2.162141841300012e-001	 4.845178162519593e+000	 9.153906655010943e+000
 1.726834782998320e-001	 4.846924841206762e+000	 9.136382247446440e+000
 1.292922335294336e-001	 4.848276345088089e+000	 9.115557419537781e+000
 8.604497512986886e-002	 4.849236667997482e+000	 9.090362638065287e+000
 4.294612471160900e-002	 4.849809855073845e+000	 9.059601022796253e+000
 0.000000000000000e+000	 4.850000000000000e+000	 9.021954019357604e+000
 4.380403847539867e-001	 4.855280179475290e+000	 9.230488549391350e+000
 3.936562491387531e-001	 4.859080134904158e+000	 9.219545267654659e+000
 3.493879987223567e-001	 4.862463678658854e+000	 9.209129537509357e+000
 3.052406977794260e-001	 4.865434524928404e+000	 9.198886019350043e+000
 2.612193084661512e-001	 4.867996453659956e+000	 9.188303055125910e+000
 2.173286902330660e-001	 4.870153307687087e+000	 9.176717745009629e+000
 1.735735993213044e-001	 4.871908989872691e+000	 9.163321193880202e+000
 1.299586883408231e-001	 4.873267460268909e+000	 9.147163910419319e+000
 8.648850592902987e-002	 4.874232733296418e+000	 9.127161341827449e+000
 4.316749648820165e-002	 4.874808874945355e+000	 9.102099527417268e+000
 0.000000000000000e+000	 4.875000000000000e+000	 9.070640854631309e+000
 4.402867457027287e-001	 4.880179052189514e+000	 9.238869071278481e+000
 3.956749991350939e-001	 4.883998494569498e+000	 9.229136849061824e+000
 3.511797320494583e-001	 4.887399389830808e+000	 9.220559282892234e+000
 3.068060346910887e-001	 4.890385471209587e+000	 9.212777260024978e+000
 2.625588946631296e-001	 4.892960538037332e+000	 9.205272857069863e+000
 2.184431963363725e-001	 4.895128452854459e+000	 9.197374489737715e+000
 1.744637203429311e-001	 4.896893138538542e+000	 9.188262235232886e+000
 1.306251431522991e-001	 4.898258575449684e+000	 9.176973309829805e+000
 8.693203672822913e-002	 4.899228798595334e+000	 9.162407684381558e+000
 4.338886826480384e-002	 4.899807894816859e+000	 9.143333820763086e+000
 0.000000000000000e+000	 4.900000000000000e+000	 9.118394512544379e+000
 4.425331066524542e-001	 4.905077924903247e+000	 9.244980689172580e+000
 3.976937491322284e-001	 4.908916854234440e+000	 9.236387765473911e+000
 3.529714653771849e-001	 4.912335101002447e+000	 9.229622693157131e+000
 3.083713716032285e-001	 4.915336417490530e+000	 9.224322352968139e+000
 2.638984808604571e-001	 4.917924622414534e+000	 9.219962275264953e+000
 2.195577024399207e-001	 4.920103598021710e+000	 9.215861864205891e+000
 1.753538413647119e-001	 4.921877287204317e+000	 9.211189797453555e+000
 1.312915979638614e-001	 4.923249690630415e+000	 9.204969583667412e+000
 8.737556752746666e-002	 4.924224863894231e+000	 9.196085260271239e+000
 4.361024004141555e-002	 4.924806914688358e+000	 9.183287214238421e+000
 0.000000000000000e+000	 4.925000000000000e+000	 9.165198108936693e+000
 4.447794676031630e-001	 4.929976797616488e+000	 9.248812960858819e+000
 3.997124991301571e-001	 4.933835213898987e+000	 9.241286549803011e+000
 3.547631987055368e-001	 4.937270812173773e+000	 9.236307367879011e+000
 3.099367085158453e-001	 4.940287363771237e+000	 9.233508056519385e+000
 2.652380670581340e-001	 4.942888706791560e+000	 9.232357319291822e+000
 2.206722085437106e-001	 4.945078743188839e+000	 9.232165221897796e+000
 1.762439623866468e-001	 4.946861435870015e+000	 9.232088670594468e+000
 1.319580527755102e-001	 4.948240805811105e+000	 9.231137051044227e+000
 8.781909832674244e-002	 4.949220929193108e+000	 9.228178009812149e+000
 4.383161181803680e-002	 4.949805934559853e+000	 9.221943360991805e+000
 0.000000000000000e+000	 4.949999999999999e+000	 9.211035100742194e+000
 4.470258285548553e-001	 4.954875670329237e+000	 9.250355935042780e+000
 4.017312491288794e-001	 4.958753573563137e+000	 9.243822194478570e+000
 3.565549320345138e-001	 4.962206523344788e+000	 9.240601338278433e+000
 3.115020454289392e-001	 4.965238310051703e+000	 9.240321536299028e+000
 2.665776532561601e-001	 4.967852791168413e+000	 9.242444385126911e+000
 2.217867146477423e-001	 4.970053888355850e+000	 9.246270285260765e+000
 1.771340834087358e-001	 4.971845584535635e+000	 9.250943999662844e+000
 1.326245075872453e-001	 4.973231920991751e+000	 9.255460375411397e+000
 8.826262912605648e-002	 4.974216994491966e+000	 9.258670210404416e+000
 4.405298359466758e-002	 4.974804954431344e+000	 9.259286247329325e+000
 0.000000000000000e+000	 4.975000000000000e+000	 9.255889277418834e+000
 4.492721895075311e-001	 4.979774543041494e+000	 9.249600139077435e+000
 4.037499991283959e-001	 4.983671933226891e+000	 9.243984139959471e+000
 3.583466653641162e-001	 4.987142234515491e+000	 9.242493056430483e+000
 3.130673823425100e-001	 4.990189256331933e+000	 9.244750355025952e+000
 2.679172394545356e-001	 4.992816875545092e+000	 9.250210245482474e+000
 2.229012207520157e-001	 4.995029033522739e+000	 9.258163136481567e+000
 1.780242044309790e-001	 4.996829733201179e+000	 9.267741275746962e+000
 1.332909623990669e-001	 4.998223036172353e+000	 9.277924555950765e+000
 8.870615992540883e-002	 4.999213059790806e+000	 9.287546468105369e+000
 4.427435537130790e-002	 4.999803974302830e+000	 9.295300184385516e+000
 0.000000000000000e+000	 5.000000000000000e+000	 9.299744752635339e+000
