x	y	stress_xx
 1.0000000000e+000	 0.0000000000e+000	 1.4746283640e+000
 9.9996079486e-001	 8.8548710816e-003	 1.4761384215e+000
 9.9984261196e-001	 1.7741231999e-002	 1.4819282688e+000
 9.9964460724e-001	 2.6658192499e-002	 1.4920286802e+000
 9.9936594664e-001	 3.5604840910e-002	 1.5064666615e+000
 9.9900580671e-001	 4.4580244178e-002	 1.5252653387e+000
 9.9856337512e-001	 5.3583447921e-002	 1.5484438473e+000
 9.9803785128e-001	 6.2613476500e-002	 1.5760172234e+000
 9.9742844692e-001	 7.1669333105e-002	 1.6079962953e+000
 9.9673438666e-001	 8.0749999857e-002	 1.6443875774e+000
 9.9595490863e-001	 8.9854437932e-002	 1.6851931652e+000
 1.0250000000e+000	 0.0000000000e+000	 1.3885384386e+000
 1.0249598147e+000	 9.0762428582e-003	 1.3915510994e+000
 1.0248386773e+000	 1.8184762798e-002	 1.3978203485e+000
 1.0246357224e+000	 2.7324647310e-002	 1.4073612370e+000
 1.0243500953e+000	 3.6494961931e-002	 1.4201855667e+000
 1.0239809519e+000	 4.5694750280e-002	 1.4363018066e+000
 1.0235274595e+000	 5.4923034116e-002	 1.4557150102e+000
 1.0229887976e+000	 6.4178813409e-002	 1.4784267346e+000
 1.0223641581e+000	 7.3461066429e-002	 1.5044349601e+000
 1.0216527463e+000	 8.2768749849e-002	 1.5337340118e+000
 1.0208537813e+000	 9.2100798875e-002	 1.5663144821e+000
 1.0500000000e+000	 0.0000000000e+000	 1.3950210062e+000
 1.0499588346e+000	 9.2976146348e-003	 1.3992670844e+000
 1.0498347426e+000	 1.8628293597e-002	 1.4057785623e+000
 1.0496268376e+000	 2.7991102121e-002	 1.4145551309e+000
 1.0493342440e+000	 3.7385082952e-002	 1.4255937455e+000
 1.0489560970e+000	 4.6809256382e-002	 1.4388885694e+000
 1.0484915439e+000	 5.6262620311e-002	 1.4544309192e+000
 1.0479397438e+000	 6.5744150319e-002	 1.4722092112e+000
 1.0472998693e+000	 7.5252799753e-002	 1.4922089086e+000
 1.0465711060e+000	 8.4787499842e-002	 1.5144124713e+000
 1.0457526541e+000	 9.4347159819e-002	 1.5387993054e+000
 1.0750000000e+000	 0.0000000000e+000	 1.4876307385e+000
 1.0749578545e+000	 9.5189864113e-003	 1.4928748349e+000
 1.0748308079e+000	 1.9071824396e-002	 1.4994219317e+000
 1.0746179528e+000	 2.8657556932e-002	 1.5072566753e+000
 1.0743183926e+000	 3.8275203973e-002	 1.5163614844e+000
 1.0739312422e+000	 4.7923762484e-002	 1.5267165218e+000
 1.0734556282e+000	 5.7602206507e-002	 1.5382996671e+000
 1.0728906901e+000	 6.7309487228e-002	 1.5510864900e+000
 1.0722355804e+000	 7.7044533077e-002	 1.5650502262e+000
 1.0714894657e+000	 8.6806249835e-002	 1.5801617528e+000
 1.0706515268e+000	 9.6593520764e-002	 1.5963895670e+000
 1.1000000000e+000	 0.0000000000e+000	 1.6605082464e+000
 1.0999568743e+000	 9.7403581879e-003	 1.6665464359e+000
 1.0998268732e+000	 1.9515355195e-002	 1.6729510622e+000
 1.0996090680e+000	 2.9324011743e-002	 1.6796919969e+000
 1.0993025413e+000	 3.9165324994e-002	 1.6867373888e+000
 1.0989063874e+000	 4.9038268587e-002	 1.6940536628e+000
 1.0984197126e+000	 5.8941792703e-002	 1.7016055193e+000
 1.0978416364e+000	 6.8874824138e-002	 1.7093559363e+000
 1.0971712916e+000	 7.8836266402e-002	 1.7172661708e+000
 1.0964078253e+000	 8.8824999828e-002	 1.7252957634e+000
 1.0955503995e+000	 9.8839881709e-002	 1.7334025425e+000
 1.1250000000e+000	 0.0000000000e+000	 1.9083149752e+000
 1.1249558942e+000	 9.9617299645e-003	 1.9149727521e+000
 1.1248229385e+000	 1.9958885994e-002	 1.9210835224e+000
 1.1246001831e+000	 2.9990466555e-002	 1.9266026119e+000
 1.1242866900e+000	 4.0055446015e-002	 1.9314841255e+000
 1.1238815325e+000	 5.0152774689e-002	 1.9356809726e+000
 1.1233837970e+000	 6.0281378898e-002	 1.9391448951e+000
 1.1227925827e+000	 7.0440161048e-002	 1.9418264951e+000
 1.1221070028e+000	 8.0627999727e-002	 1.9436752653e+000
 1.1213261850e+000	 9.0843749822e-002	 1.9446396195e+000
 1.1204492722e+000	 1.0108624265e-001	 1.9446669245e+000
 1.1500000000e+000	 0.0000000000e+000	 2.2261765925e+000
 1.1499549141e+000	 1.0183101741e-002	 2.2333070384e+000
 1.1498190038e+000	 2.0402416793e-002	 2.2389976526e+000
 1.1495912983e+000	 3.0656921366e-002	 2.2431894054e+000
 1.1492708386e+000	 4.0945567036e-002	 2.2458225459e+000
 1.1488566777e+000	 5.1267280792e-002	 2.2468366545e+000
 1.1483478814e+000	 6.1620965094e-002	 2.2461706982e+000
 1.1477435290e+000	 7.2005497959e-002	 2.2437630857e+000
 1.1470427139e+000	 8.2419733053e-002	 2.2395517249e+000
 1.1462445446e+000	 9.2862499816e-002	 2.2334740805e+000
 1.1453481449e+000	 1.0333260360e-001	 2.2254672335e+000
 1.1750000000e+000	 0.0000000000e+000	 2.6096336026e+000
 1.1749539340e+000	 1.0404473518e-002	 2.6171157494e+000
 1.1748150691e+000	 2.0845947592e-002	 2.6222835462e+000
 1.1745824135e+000	 3.1323376177e-002	 2.6250637621e+000
 1.1742549873e+000	 4.1835688057e-002	 2.6253829434e+000
 1.1738318229e+000	 5.2381786895e-002	 2.6231674935e+000
 1.1733119658e+000	 6.2960551291e-002	 2.6183437551e+000
 1.1726944752e+000	 7.3570834869e-002	 2.6108380931e+000
 1.1719784251e+000	 8.4211466378e-002	 2.6005769791e+000
 1.1711629043e+000	 9.4881249811e-002	 2.5874870763e+000
 1.1702470176e+000	 1.0557896455e-001	 2.5714953258e+000
 1.2000000000e+000	 0.0000000000e+000	 3.0545981346e+000
 1.1999529538e+000	 1.0625845294e-002	 3.0623354983e+000
 1.1998111344e+000	 2.1289478391e-002	 3.0669001594e+000
 1.1995735287e+000	 3.1989830989e-002	 3.0682048064e+000
 1.1992391360e+000	 4.2725809079e-002	 3.0661624031e+000
 1.1988069680e+000	 5.3496292997e-002	 3.0606862959e+000
 1.1982760501e+000	 6.4300137487e-002	 3.0516903227e+000
 1.1976454215e+000	 7.5136171780e-002	 3.0390889240e+000
 1.1969141363e+000	 8.6003199704e-002	 3.0227972540e+000
 1.1960812640e+000	 9.6899999806e-002	 3.0027312934e+000
 1.1951458903e+000	 1.0782532549e-001	 2.9788079625e+000
 1.2250000000e+000	 0.0000000000e+000	 3.5573160210e+000
 1.2249519737e+000	 1.0847217071e-002	 3.5652352851e+000
 1.2248071996e+000	 2.1733009191e-002	 3.5691376713e+000
 1.2245646439e+000	 3.2656285800e-002	 3.5689218774e+000
 1.2242232846e+000	 4.3615930100e-002	 3.5644873741e+000
 1.2237821132e+000	 5.4610799100e-002	 3.5557345403e+000
 1.2232401345e+000	 6.5639723683e-002	 3.5425647999e+000
 1.2225963678e+000	 7.6701508691e-002	 3.5248807595e+000
 1.2218498475e+000	 8.7794933031e-002	 3.5025863477e+000
 1.2209996236e+000	 9.8918749801e-002	 3.4755869550e+000
 1.2200447631e+000	 1.1007168644e-001	 3.4437895743e+000
 1.2500000000e+000	 0.0000000000e+000	 4.1143334281e+000
 1.2499509936e+000	 1.1068588847e-002	 4.1223832579e+000
 1.2498032649e+000	 2.2176539990e-002	 4.1255843625e+000
 1.2495557590e+000	 3.3322740611e-002	 4.1238215080e+000
 1.2492074333e+000	 4.4506051122e-002	 4.1169807329e+000
 1.2487572584e+000	 5.5725305204e-002	 4.1049495104e+000
 1.2482042189e+000	 6.6979309880e-002	 4.0876169129e+000
 1.2475473141e+000	 7.8266845602e-002	 4.0648737777e+000
 1.2467855586e+000	 8.9586666357e-002	 4.0366128733e+000
 1.2459179833e+000	 1.0093749980e-001	 4.0027290675e+000
 1.2449436358e+000	 1.1231804739e-001	 3.9631194948e+000
 9.9595490863e-001	 8.9854437932e-002	 1.6851931652e+000
 9.9508926501e-001	 9.8981587693e-002	 1.7311293589e+000
 9.9413672268e-001	 1.0813036885e-001	 1.7803022081e+000
 9.9309656377e-001	 1.1729968064e-001	 1.8327473619e+000
 9.9196808628e-001	 1.2648840201e-001	 1.8884976342e+000
 9.9075060469e-001	 1.3569539180e-001	 1.9475829061e+000
 9.8944345050e-001	 1.4491948905e-001	 2.0100300272e+000
 9.8804597288e-001	 1.5415951315e-001	 2.0758627185e+000
 9.8655753926e-001	 1.6341426419e-001	 2.1451014741e+000
 9.8497753588e-001	 1.7268252319e-001	 2.2177634641e+000
 9.8330536841e-001	 1.8196305243e-001	 2.2938624380e+000
 1.0208537813e+000	 9.2100798875e-002	 1.5663144821e+000
 1.0199664966e+000	 1.0145612738e-001	 1.6082332289e+000
 1.0189901407e+000	 1.1083362807e-001	 1.6523227684e+000
 1.0179239779e+000	 1.2023217266e-001	 1.6986040068e+000
 1.0167672884e+000	 1.2965061205e-001	 1.7470956608e+000
 1.0155193698e+000	 1.3908777659e-001	 1.7978141879e+000
 1.0141795368e+000	 1.4854247627e-001	 1.8507737166e+000
 1.0127471222e+000	 1.5801350098e-001	 1.9059859770e+000
 1.0112214777e+000	 1.6749962079e-001	 1.9634602304e+000
 1.0096019743e+000	 1.7699958627e-001	 2.0232031996e+000
 1.0078880026e+000	 1.8651212874e-001	 2.0852189992e+000
 1.0457526541e+000	 9.4347159819e-002	 1.5387993054e+000
 1.0448437283e+000	 1.0393066707e-001	 1.5761255877e+000
 1.0438435588e+000	 1.1353688729e-001	 1.6145866292e+000
 1.0427513919e+000	 1.2316466467e-001	 1.6541890896e+000
 1.0415664906e+000	 1.3281282210e-001	 1.6949380821e+000
 1.0402881349e+000	 1.4248016138e-001	 1.7368371319e+000
 1.0389156230e+000	 1.5216546349e-001	 1.7798881347e+000
 1.0374482715e+000	 1.6186748880e-001	 1.8240913141e+000
 1.0358854162e+000	 1.7158497739e-001	 1.8694451799e+000
 1.0342264127e+000	 1.8131664935e-001	 1.9159464844e+000
 1.0324706368e+000	 1.9106120505e-001	 1.9635901801e+000
 1.0706515268e+000	 9.6593520764e-002	 1.5963895670e+000
 1.0697209599e+000	 1.0640520676e-001	 1.6285926470e+000
 1.0686969769e+000	 1.1624014650e-001	 1.6609210167e+000
 1.0675788060e+000	 1.2609715668e-001	 1.6933675368e+000
 1.0663656927e+000	 1.3597503214e-001	 1.7259241633e+000
 1.0650569000e+000	 1.4587254618e-001	 1.7585819342e+000
 1.0636517093e+000	 1.5578845071e-001	 1.7913309555e+000
 1.0621494208e+000	 1.6572147663e-001	 1.8241603865e+000
 1.0605493547e+000	 1.7567033400e-001	 1.8570584244e+000
 1.0588508511e+000	 1.8563371242e-001	 1.8900122885e+000
 1.0570532710e+000	 1.9561028136e-001	 1.9230082028e+000
 1.0955503995e+000	 9.8839881709e-002	 1.7334025425e+000
 1.0945981915e+000	 1.0887974645e-001	 1.7599924257e+000
 1.0935503949e+000	 1.1894340572e-001	 1.7857216941e+000
 1.0924062201e+000	 1.2902964869e-001	 1.8105698118e+000
 1.0911648949e+000	 1.3913724219e-001	 1.8345159807e+000
 1.0898256651e+000	 1.4926493097e-001	 1.8575391541e+000
 1.0883877955e+000	 1.5941143794e-001	 1.8796180507e+000
 1.0868505702e+000	 1.6957546445e-001	 1.9007311673e+000
 1.0852132932e+000	 1.7975569060e-001	 1.9208567899e+000
 1.0834752895e+000	 1.8995077550e-001	 1.9399730047e+000
 1.0816359052e+000	 2.0015935767e-001	 1.9580577069e+000
 1.1204492722e+000	 1.0108624265e-001	 1.9446669245e+000
 1.1194754231e+000	 1.1135428614e-001	 1.9651912157e+000
 1.1184038130e+000	 1.2164666494e-001	 1.9838897904e+000
 1.1172336342e+000	 1.3196214071e-001	 2.0007290778e+000
 1.1159640970e+000	 1.4229945224e-001	 2.0156758875e+000
 1.1145944303e+000	 1.5265731576e-001	 2.0286974520e+000
 1.1131238818e+000	 1.6303442516e-001	 2.0397614674e+000
 1.1115517195e+000	 1.7342945228e-001	 2.0488361331e+000
 1.1098772317e+000	 1.8384104720e-001	 2.0558901901e+000
 1.1080997279e+000	 1.9426783858e-001	 2.0608929581e+000
 1.1062185395e+000	 2.0470843398e-001	 2.0638143702e+000
 1.1453481449e+000	 1.0333260360e-001	 2.2254672335e+000
 1.1443526547e+000	 1.1382882583e-001	 2.2395083346e+000
 1.1432572311e+000	 1.2434992416e-001	 2.2507768698e+000
 1.1420610483e+000	 1.3489463272e-001	 2.2592265558e+000
 1.1407632992e+000	 1.4546166229e-001	 2.2648121356e+000
 1.1393631954e+000	 1.5604970055e-001	 2.2674894480e+000
 1.1378599681e+000	 1.6665741239e-001	 2.2672154962e+000
 1.1362528688e+000	 1.7728344011e-001	 2.2639485137e+000
 1.1345411701e+000	 1.8792640381e-001	 2.2576480304e+000
 1.1327241663e+000	 1.9858490166e-001	 2.2482749346e+000
 1.1308011737e+000	 2.0925751029e-001	 2.2357915347e+000
 1.1702470176e+000	 1.0557896455e-001	 2.5714953258e+000
 1.1692298864e+000	 1.1630336552e-001	 2.5786679322e+000
 1.1681106491e+000	 1.2705318338e-001	 2.5821370129e+000
 1.1668884624e+000	 1.3782712473e-001	 2.5818438597e+000
 1.1655625014e+000	 1.4862387233e-001	 2.5777314396e+000
 1.1641319605e+000	 1.5944208535e-001	 2.5697444919e+000
 1.1625960543e+000	 1.7028039961e-001	 2.5578296237e+000
 1.1609540181e+000	 1.8113742794e-001	 2.5419354036e+000
 1.1592051086e+000	 1.9201176041e-001	 2.5220124532e+000
 1.1573486046e+000	 2.0290196474e-001	 2.4980135365e+000
 1.1553838079e+000	 2.1380658660e-001	 2.4698936463e+000
 1.1951458903e+000	 1.0782532549e-001	 2.9788079625e+000
 1.1941071180e+000	 1.1877790521e-001	 2.9787568195e+000
 1.1929640672e+000	 1.2975644260e-001	 2.9740848877e+000
 1.1917158765e+000	 1.4075961675e-001	 2.9647212882e+000
 1.1903617035e+000	 1.5178608238e-001	 2.9505974705e+000
 1.1889007256e+000	 1.6283447014e-001	 2.9316473372e+000
 1.1873321406e+000	 1.7390338684e-001	 2.9078073667e+000
 1.1856551674e+000	 1.8499141576e-001	 2.8790167338e+000
 1.1838690471e+000	 1.9609711701e-001	 2.8452174278e+000
 1.1819730430e+000	 2.0721902781e-001	 2.8063543679e+000
 1.1799664421e+000	 2.1835566291e-001	 2.7623755156e+000
 1.2200447631e+000	 1.1007168644e-001	 3.4437895743e+000
 1.2189843496e+000	 1.2125244490e-001	 3.4361874633e+000
 1.2178174853e+000	 1.3245970182e-001	 3.4230589553e+000
 1.2165432906e+000	 1.4369210877e-001	 3.4043212243e+000
 1.2151609057e+000	 1.5494829243e-001	 3.3798944312e+000
 1.2136694907e+000	 1.6622685494e-001	 3.3497018757e+000
 1.2120682268e+000	 1.7752637406e-001	 3.3136701465e+000
 1.2103563168e+000	 1.8884540359e-001	 3.2717292690e+000
 1.2085329856e+000	 2.0018247362e-001	 3.2238128498e+000
 1.2065974814e+000	 2.1153609089e-001	 3.1698582186e+000
 1.2045490763e+000	 2.2290473922e-001	 3.1098065655e+000
 1.2449436358e+000	 1.1231804739e-001	 3.9631194948e+000
 1.2438615812e+000	 1.2372698459e-001	 3.9476654201e+000
 1.2426709033e+000	 1.3516296104e-001	 3.9257890902e+000
 1.2413707047e+000	 1.4662460078e-001	 3.8973959271e+000
 1.2399601078e+000	 1.5811050249e-001	 3.8623950035e+000
 1.2384382558e+000	 1.6961923973e-001	 3.8206992232e+000
 1.2368043131e+000	 1.8114936129e-001	 3.7722254981e+000
 1.2350574661e+000	 1.9269939142e-001	 3.7168949234e+000
 1.2331969241e+000	 2.0426783022e-001	 3.6546329485e+000
 1.2312219198e+000	 2.1585315397e-001	 3.5853695452e+000
 1.2291317105e+000	 2.2745381553e-001	 3.5090393707e+000
 9.8330536841e-001	 1.8196305243e-001	 2.2938624380e+000
 9.8154046252e-001	 1.9125459577e-001	 2.3842745443e+000
 9.7968226449e-001	 2.0055587900e-001	 2.4732651696e+000
 9.7773024174e-001	 2.0986561017e-001	 2.5608616463e+000
 9.7568388343e-001	 2.1918248004e-001	 2.6470923908e+000
 9.7354270101e-001	 2.2850516241e-001	 2.7319868761e+000
 9.7130622879e-001	 2.3783231458e-001	 2.8155756004e+000
 9.6897402446e-001	 2.4716257779e-001	 2.8978900532e+000
 9.6654566967e-001	 2.5649457767e-001	 2.9789626765e+000
 9.6402077054e-001	 2.6582692472e-001	 3.0588268230e+000
 9.6139895816e-001	 2.7515821483e-001	 3.1375167102e+000
 1.0078880026e+000	 1.8651212874e-001	 2.0852189992e+000
 1.0060789741e+000	 1.9603596067e-001	 2.1663200257e+000
 1.0041743211e+000	 2.0556977597e-001	 2.2455628339e+000
 1.0021734978e+000	 2.1511225043e-001	 2.3229688907e+000
 1.0000759805e+000	 2.2466204205e-001	 2.3985610971e+000
 9.9788126854e-001	 2.3421779148e-001	 2.4723637740e+000
 9.9558888451e-001	 2.4377812245e-001	 2.5444026437e+000
 9.9319837507e-001	 2.5334164224e-001	 2.6147048075e+000
 9.9070931141e-001	 2.6290694212e-001	 2.6832987193e+000
 9.8812128980e-001	 2.7247259785e-001	 2.7502141555e+000
 9.8543393212e-001	 2.8203717021e-001	 2.8154821794e+000
 1.0324706368e+000	 1.9106120505e-001	 1.9635901801e+000
 1.0306174856e+000	 2.0081732556e-001	 2.0346440451e+000
 1.0286663777e+000	 2.1058367295e-001	 2.1034015501e+000
 1.0266167538e+000	 2.2035889069e-001	 2.1698786577e+000
 1.0244680776e+000	 2.3014160405e-001	 2.2340931294e+000
 1.0222198361e+000	 2.3993042054e-001	 2.2960645235e+000
 1.0198715402e+000	 2.4972393032e-001	 2.3558141895e+000
 1.0174227257e+000	 2.5952070669e-001	 2.4133652580e+000
 1.0148729532e+000	 2.6931930657e-001	 2.4687426258e+000
 1.0122218091e+000	 2.7911827098e-001	 2.5219729368e+000
 1.0094689061e+000	 2.8891612559e-001	 2.5730845583e+000
 1.0570532710e+000	 1.9561028136e-001	 1.9230082028e+000
 1.0551559972e+000	 2.0559869045e-001	 1.9833220064e+000
 1.0531584343e+000	 2.1559756992e-001	 2.0408987317e+000
 1.0510600099e+000	 2.2560553094e-001	 2.0957491728e+000
 1.0488601747e+000	 2.3562116605e-001	 2.1478863017e+000
 1.0465584036e+000	 2.4564304960e-001	 2.1973252786e+000
 1.0441541959e+000	 2.5566973819e-001	 2.2440834592e+000
 1.0416470763e+000	 2.6569977114e-001	 2.2881803967e+000
 1.0390365949e+000	 2.7573167102e-001	 2.3296378384e+000
 1.0363223283e+000	 2.8576394410e-001	 2.3684797183e+000
 1.0335038800e+000	 2.9579508097e-001	 2.4047321435e+000
 1.0816359052e+000	 2.0015935767e-001	 1.9580577069e+000
 1.0796945088e+000	 2.1038005535e-001	 2.0069779704e+000
 1.0776504909e+000	 2.2061146690e-001	 2.0527167613e+000
 1.0755032659e+000	 2.3085217120e-001	 2.0952800171e+000
 1.0732522718e+000	 2.4110072806e-001	 2.1346762464e+000
 1.0708969711e+000	 2.5135567866e-001	 2.1709165534e+000
 1.0684368517e+000	 2.6161554606e-001	 2.2040146565e+000
 1.0658714269e+000	 2.7187883559e-001	 2.2339869033e+000
 1.0632002366e+000	 2.8214403546e-001	 2.2608522784e+000
 1.0604228476e+000	 2.9240961722e-001	 2.2846324075e+000
 1.0575388540e+000	 3.0267403634e-001	 2.3053515545e+000
 1.1062185395e+000	 2.0470843398e-001	 2.0638143702e+000
 1.1042330203e+000	 2.1516142024e-001	 2.1007236933e+000
 1.1021425476e+000	 2.2562536387e-001	 2.1340024386e+000
 1.0999465220e+000	 2.3609881145e-001	 2.1636519761e+000
 1.0976443689e+000	 2.4658029006e-001	 2.1896766566e+000
 1.0952355386e+000	 2.5706830773e-001	 2.2120838484e+000
 1.0927195074e+000	 2.6756135392e-001	 2.2308839694e+000
 1.0900957775e+000	 2.7805790004e-001	 2.2460905133e+000
 1.0873638784e+000	 2.8855639991e-001	 2.2577200699e+000
 1.0845233669e+000	 2.9905529035e-001	 2.2657923399e+000
 1.0815738279e+000	 3.0955299172e-001	 2.2703301427e+000
 1.1308011737e+000	 2.0925751029e-001	 2.2357915347e+000
 1.1287715319e+000	 2.1994278513e-001	 2.2601056162e+000
 1.1266346042e+000	 2.3063926085e-001	 2.2803343258e+000
 1.1243897780e+000	 2.4134545170e-001	 2.2964747352e+000
 1.1220364660e+000	 2.5205985206e-001	 2.3085273225e+000
 1.1195741062e+000	 2.6278093679e-001	 2.3164960217e+000
 1.1170021631e+000	 2.7350716179e-001	 2.3203882676e+000
 1.1143201281e+000	 2.8423696448e-001	 2.3202150340e+000
 1.1115275201e+000	 2.9496876435e-001	 2.3159908660e+000
 1.1086238861e+000	 3.0570096347e-001	 2.3077339058e+000
 1.1056088019e+000	 3.1643194709e-001	 2.2954659112e+000
 1.1553838079e+000	 2.1380658660e-001	 2.4698936463e+000
 1.1533100435e+000	 2.2472415003e-001	 2.4810586220e+000
 1.1511266608e+000	 2.3565315782e-001	 2.4876768158e+000
 1.1488330341e+000	 2.4659209196e-001	 2.4897412520e+000
 1.1464285630e+000	 2.5753941406e-001	 2.4872488025e+000
 1.1439126737e+000	 2.6849356585e-001	 2.4802002508e+000
 1.1412848188e+000	 2.7945296965e-001	 2.4686003490e+000
 1.1385444787e+000	 2.9041602893e-001	 2.4524578683e+000
 1.1356911619e+000	 3.0138112879e-001	 2.4317856435e+000
 1.1327244054e+000	 3.1234663659e-001	 2.4066006090e+000
 1.1296437758e+000	 3.2331090246e-001	 2.3769238291e+000
 1.1799664421e+000	 2.1835566291e-001	 2.7623755156e+000
 1.1778485550e+000	 2.2950551492e-001	 2.7598655728e+000
 1.1756187174e+000	 2.4066705479e-001	 2.7523399418e+000
 1.1732762901e+000	 2.5183873221e-001	 2.7397878320e+000
 1.1708206601e+000	 2.6301897606e-001	 2.7222027595e+000
 1.1682512412e+000	 2.7420619490e-001	 2.6995826245e+000
 1.1655674746e+000	 2.8539877752e-001	 2.6719297807e+000
 1.1627688294e+000	 2.9659509337e-001	 2.6392510991e+000
 1.1598548036e+000	 3.0779349323e-001	 2.6015580231e+000
 1.1568249247e+000	 3.1899230970e-001	 2.5588666169e+000
 1.1536787498e+000	 3.3018985783e-001	 2.5111976056e+000
 1.2045490763e+000	 2.2290473922e-001	 3.1098065655e+000
 1.2023870666e+000	 2.3428687981e-001	 3.0931218016e+000
 1.2001107740e+000	 2.4568095177e-001	 3.0709441071e+000
 1.1977195461e+000	 2.5708537246e-001	 3.0432590932e+000
 1.1952127572e+000	 2.6849853806e-001	 3.0100571546e+000
 1.1925898088e+000	 2.7991882396e-001	 2.9713335599e+000
 1.1898501303e+000	 2.9134458538e-001	 2.9270885349e+000
 1.1869931800e+000	 3.0277415782e-001	 2.8773273377e+000
 1.1840184454e+000	 3.1420585767e-001	 2.8220603266e+000
 1.1809254439e+000	 3.2563798282e-001	 2.7613030197e+000
 1.1777137238e+000	 3.3706881320e-001	 2.6950761450e+000
 1.2291317105e+000	 2.2745381553e-001	 3.5090393707e+000
 1.2269255782e+000	 2.3906824470e-001	 3.4777038657e+000
 1.2246028306e+000	 2.5069484874e-001	 3.4403890488e+000
 1.2221628022e+000	 2.6233201271e-001	 3.3970771349e+000
 1.2196048543e+000	 2.7397810005e-001	 3.3477556169e+000
 1.2169283763e+000	 2.8563145302e-001	 3.2924173699e+000
 1.2141327860e+000	 2.9729039324e-001	 3.2310607478e+000
 1.2112175306e+000	 3.0895322226e-001	 3.1636896710e+000
 1.2081820871e+000	 3.2061822211e-001	 3.0903137064e+000
 1.2050259632e+000	 3.3228365593e-001	 3.0109481378e+000
 1.2017486977e+000	 3.4394776857e-001	 2.9256140274e+000
 9.6139895816e-001	 2.7515821483e-001	 3.1375167102e+000
 9.5867988915e-001	 2.8448702975e-001	 3.2341886605e+000
 9.5586324609e-001	 2.9381193769e-001	 3.3298363484e+000
 9.5294873809e-001	 3.0313149381e-001	 3.4245665964e+000
 9.4993610118e-001	 3.1244424085e-001	 3.5184880293e+000
 9.4682509884e-001	 3.2174870969e-001	 3.6117109550e+000
 9.4361552239e-001	 3.3104341994e-001	 3.7043472401e+000
 9.4030719147e-001	 3.4032688062e-001	 3.7965101786e+000
 9.3689995439e-001	 3.4959759075e-001	 3.8883143542e+000
 9.3339368862e-001	 3.5885404004e-001	 3.9798754976e+000
 9.2978830108e-001	 3.6809470955e-001	 4.0713103367e+000
 9.8543393212e-001	 2.8203717021e-001	 2.8154821794e+000
 9.8264688638e-001	 2.9159920551e-001	 2.9041151686e+000
 9.7975982724e-001	 3.0115723614e-001	 2.9907513485e+000
 9.7677245654e-001	 3.1070978117e-001	 3.0754887553e+000
 9.7368450371e-001	 3.2025534689e-001	 3.1584280650e+000
 9.7049572631e-001	 3.2979242744e-001	 3.2396724951e+000
 9.6720591045e-001	 3.3931950545e-001	 3.3193277003e+000
 9.6381487125e-001	 3.4883505265e-001	 3.3975016602e+000
 9.6032245325e-001	 3.5833753053e-001	 3.4743045602e+000
 9.5672853083e-001	 3.6782539105e-001	 3.5498486656e+000
 9.5303300860e-001	 3.7729707730e-001	 3.6242481885e+000
 1.0094689061e+000	 2.8891612559e-001	 2.5730845583e+000
 1.0066138836e+000	 2.9871138126e-001	 2.6525673427e+000
 1.0036564084e+000	 3.0850253459e-001	 2.7291068822e+000
 1.0005961750e+000	 3.1828806852e-001	 2.8027932511e+000
 9.9743290624e-001	 3.2806645292e-001	 2.8737200026e+000
 9.9416635378e-001	 3.3783614519e-001	 2.9419840911e+000
 9.9079629851e-001	 3.4759559096e-001	 3.0076857872e+000
 9.8732255103e-001	 3.5734322467e-001	 3.0709285843e+000
 9.8374495210e-001	 3.6707747030e-001	 3.1318190961e+000
 9.8006337304e-001	 3.7679674206e-001	 3.1904669481e+000
 9.7627771612e-001	 3.8649944504e-001	 3.2469846585e+000
 1.0335038800e+000	 2.9579508097e-001	 2.4047321435e+000
 1.0305808808e+000	 3.0582355701e-001	 2.4740102854e+000
 1.0275529895e+000	 3.1584783304e-001	 2.5394218298e+000
 1.0244198934e+000	 3.2586635588e-001	 2.6010496708e+000
 1.0211813088e+000	 3.3587755895e-001	 2.6589810245e+000
 1.0178369812e+000	 3.4587986295e-001	 2.7133073711e+000
 1.0143866866e+000	 3.5587167647e-001	 2.7641243881e+000
 1.0108302308e+000	 3.6585139669e-001	 2.8115318747e+000
 1.0071674510e+000	 3.7581741008e-001	 2.8556336668e+000
 1.0033982153e+000	 3.8576809306e-001	 2.8965375431e+000
 9.9952242364e-001	 3.9570181278e-001	 2.9343551214e+000
 1.0575388540e+000	 3.0267403634e-001	 2.3053515545e+000
 1.0545478781e+000	 3.1293573276e-001	 2.3634220764e+000
 1.0514495707e+000	 3.2319313149e-001	 2.4167229428e+000
 1.0482436119e+000	 3.3344464323e-001	 2.4653306122e+000
 1.0449297113e+000	 3.4368866498e-001	 2.5093267125e+000
 1.0415076087e+000	 3.5392358070e-001	 2.5487980033e+000
 1.0379770746e+000	 3.6414776197e-001	 2.5838363264e+000
 1.0343379106e+000	 3.7435956871e-001	 2.6145385480e+000
 1.0305899498e+000	 3.8455734985e-001	 2.6410064893e+000
 1.0267330575e+000	 3.9473944407e-001	 2.6633468475e+000
 1.0227671312e+000	 4.0490418052e-001	 2.6816711062e+000
 1.0815738279e+000	 3.0955299172e-001	 2.2703301427e+000
 1.0785148753e+000	 3.2004790851e-001	 2.3162367747e+000
 1.0753461519e+000	 3.3053842994e-001	 2.3564884145e+000
 1.0720673303e+000	 3.4102293058e-001	 2.3911557941e+000
 1.0686781138e+000	 3.5149977101e-001	 2.4203156697e+000
 1.0651782362e+000	 3.6196729844e-001	 2.4440508020e+000
 1.0615674627e+000	 3.7242384748e-001	 2.4624499248e+000
 1.0578455904e+000	 3.8286774073e-001	 2.4756077035e+000
 1.0540124487e+000	 3.9329728963e-001	 2.4836246807e+000
 1.0500678997e+000	 4.0371079507e-001	 2.4866072123e+000
 1.0460118387e+000	 4.1410654826e-001	 2.4846673903e+000
 1.1056088019e+000	 3.1643194709e-001	 2.2954659112e+000
 1.1024818725e+000	 3.2716008426e-001	 2.3282948560e+000
 1.0992427330e+000	 3.3788372839e-001	 2.3545988097e+000
 1.0958910488e+000	 3.4860121793e-001	 2.3744434562e+000
 1.0924265164e+000	 3.5931087703e-001	 2.3879013659e+000
 1.0888488637e+000	 3.7001101619e-001	 2.3950519945e+000
 1.0851578507e+000	 3.8069993298e-001	 2.3959816680e+000
 1.0813532702e+000	 3.9137591275e-001	 2.3907835571e+000
 1.0774349475e+000	 4.0203722940e-001	 2.3795576385e+000
 1.0734027419e+000	 4.1268214607e-001	 2.3624106434e+000
 1.0692565462e+000	 4.2330891600e-001	 2.3394559939e+000
 1.1296437758e+000	 3.2331090246e-001	 2.3769238291e+000
 1.1264488698e+000	 3.3427226000e-001	 2.3957999767e+000
 1.1231393142e+000	 3.4522902683e-001	 2.4072942595e+000
 1.1197147673e+000	 3.5617950528e-001	 2.4114679629e+000
 1.1161749189e+000	 3.6712198306e-001	 2.4083901311e+000
 1.1125194911e+000	 3.7805473393e-001	 2.3981375817e+000
 1.1087482388e+000	 3.8897601848e-001	 2.3807949089e+000
 1.1048609500e+000	 3.9988408477e-001	 2.3564544723e+000
 1.1008574464e+000	 4.1077716917e-001	 2.3252163724e+000
 1.0967375841e+000	 4.2165349708e-001	 2.2871884129e+000
 1.0925012537e+000	 4.3251128374e-001	 2.2424860486e+000
 1.1536787498e+000	 3.3018985783e-001	 2.5111976056e+000
 1.1504158670e+000	 3.4138443575e-001	 2.5152811426e+000
 1.1470358953e+000	 3.5257432527e-001	 2.5111370061e+000
 1.1435384857e+000	 3.6375779263e-001	 2.4988227075e+000
 1.1399233214e+000	 3.7493308908e-001	 2.4784043984e+000
 1.1361901186e+000	 3.8609845168e-001	 2.4499569030e+000
 1.1323386269e+000	 3.9725210398e-001	 2.4135637368e+000
 1.1283686297e+000	 4.0839225679e-001	 2.3693171105e+000
 1.1242799453e+000	 4.1951710894e-001	 2.3173179197e+000
 1.1200724263e+000	 4.3062484808e-001	 2.2576757187e+000
 1.1157459613e+000	 4.4171365148e-001	 2.1905086805e+000
 1.1777137238e+000	 3.3706881320e-001	 2.6950761450e+000
 1.1743828642e+000	 3.4849661149e-001	 2.6835595100e+000
 1.1709324765e+000	 3.5991962372e-001	 2.6629785351e+000
 1.1673622042e+000	 3.7133607997e-001	 2.6333875578e+000
 1.1636717239e+000	 3.8274419510e-001	 2.5948504493e+000
 1.1598607461e+000	 3.9414216942e-001	 2.5474406630e+000
 1.1559290149e+000	 4.0552818948e-001	 2.4912412691e+000
 1.1518763095e+000	 4.1690042880e-001	 2.4263449731e+000
 1.1477024441e+000	 4.2825704871e-001	 2.3528541181e+000
 1.1434072685e+000	 4.3959619908e-001	 2.2708806716e+000
 1.1389906688e+000	 4.5091601922e-001	 2.1805461954e+000
 1.2017486977e+000	 3.4394776857e-001	 2.9256140274e+000
 1.1983498614e+000	 3.5560878723e-001	 2.8977191706e+000
 1.1948290576e+000	 3.6726492216e-001	 2.8599306502e+000
 1.1911859226e+000	 3.7891436731e-001	 2.8123002089e+000
 1.1874201265e+000	 3.9055530112e-001	 2.7548900286e+000
 1.1835313736e+000	 4.0218588716e-001	 2.6877727953e+000
 1.1795194030e+000	 4.1380427497e-001	 2.6110317491e+000
 1.1753839893e+000	 4.2540860082e-001	 2.5247607165e+000
 1.1711249430e+000	 4.3699698847e-001	 2.4290641256e+000
 1.1667421108e+000	 4.4856755008e-001	 2.3240570043e+000
 1.1622353763e+000	 4.6011838696e-001	 2.2098649604e+000
 9.2978830108e-001	 3.6809470955e-001	 4.0713103367e+000
 9.2608372854e-001	 3.7731807239e-001	 4.1754097698e+000
 9.2227993800e-001	 3.8652259441e-001	 4.2704176766e+000
 9.1837692696e-001	 3.9570673493e-001	 4.3565102285e+000
 9.1437472374e-001	 4.0486894748e-001	 4.4338732639e+000
 9.1027338778e-001	 4.1400768054e-001	 4.5027021649e+000
 9.0607300991e-001	 4.2312137829e-001	 4.5632017177e+000
 9.0177371256e-001	 4.3220848139e-001	 4.6155859564e+000
 8.9737565002e-001	 4.4126742776e-001	 4.6600779914e+000
 8.9287900861e-001	 4.5029665337e-001	 4.6969098210e+000
 8.8828400685e-001	 4.5929459305e-001	 4.7263221276e+000
 9.5303300860e-001	 3.7729707730e-001	 3.6242481885e+000
 9.4923582175e-001	 3.8675102420e-001	 3.7196626550e+000
 9.4533693645e-001	 3.9618565927e-001	 3.8064059346e+000
 9.4133635013e-001	 4.0559940330e-001	 3.8846612355e+000
 9.3723409182e-001	 4.1499067117e-001	 3.9546213115e+000
 9.3303022247e-001	 4.2435787255e-001	 4.0164883283e+000
 9.2872483515e-001	 4.3369941274e-001	 4.0704737128e+000
 9.2431805537e-001	 4.4301369342e-001	 4.1167979874e+000
 9.1981004127e-001	 4.5229911345e-001	 4.1556905869e+000
 9.1520098382e-001	 4.6155406970e-001	 4.1873896594e+000
 9.1049110702e-001	 4.7077695788e-001	 4.2121418516e+000
 9.7627771612e-001	 3.8649944504e-001	 3.2469846585e+000
 9.7238791496e-001	 3.9618397601e-001	 3.3327225528e+000
 9.6839393489e-001	 4.0584872413e-001	 3.4101759292e+000
 9.6429577330e-001	 4.1549207167e-001	 3.4795355487e+000
 9.6009345991e-001	 4.2511239485e-001	 3.5410016292e+000
 9.5578705716e-001	 4.3470806456e-001	 3.5947837019e+000
 9.5137666039e-001	 4.4427744720e-001	 3.6411004501e+000
 9.4686239818e-001	 4.5381890545e-001	 3.6801795320e+000
 9.4224443251e-001	 4.6333079914e-001	 3.7122573870e+000
 9.3752295903e-001	 4.7281148603e-001	 3.7375790248e+000
 9.3269820719e-001	 4.8225932270e-001	 3.7563977995e+000
 9.9952242364e-001	 3.9570181278e-001	 2.9343551214e+000
 9.9554000817e-001	 4.0561692782e-001	 3.0094621331e+000
 9.9145093334e-001	 4.1551178899e-001	 3.0766390012e+000
 9.8725519647e-001	 4.2538474004e-001	 3.1360845513e+000
 9.8295282800e-001	 4.3523411854e-001	 3.1880070107e+000
 9.7854389185e-001	 4.4505825657e-001	 3.2326238538e+000
 9.7402848564e-001	 4.5485548165e-001	 3.2701616301e+000
 9.6940674099e-001	 4.6462411748e-001	 3.3008557758e+000
 9.6467882376e-001	 4.7436248483e-001	 3.3249504080e+000
 9.5984493424e-001	 4.8406890236e-001	 3.3426981027e+000
 9.5490530736e-001	 4.9374168753e-001	 3.3543596563e+000
 1.0227671312e+000	 4.0490418052e-001	 2.6816711062e+000
 1.0186921014e+000	 4.1504987963e-001	 2.7452263158e+000
 1.0145079318e+000	 4.2517485385e-001	 2.8011746806e+000
 1.0102146196e+000	 4.3527740842e-001	 2.8497236008e+000
 1.0058121961e+000	 4.4535584222e-001	 2.8910898552e+000
 1.0013007265e+000	 4.5540844858e-001	 2.9254994358e+000
 9.9668031088e-001	 4.6543351611e-001	 2.9531873643e+000
 9.9195108380e-001	 4.7542932951e-001	 2.9743974919e+000
 9.8711321501e-001	 4.8539417052e-001	 2.9893822818e+000
 9.8216690946e-001	 4.9532631870e-001	 2.9984025749e+000
 9.7711240753e-001	 5.0522405235e-001	 3.0017273386e+000
 1.0460118387e+000	 4.1410654826e-001	 2.4846673903e+000
 1.0418441946e+000	 4.2448283144e-001	 2.5357797984e+000
 1.0375649302e+000	 4.3483791871e-001	 2.5795786662e+000
 1.0331740428e+000	 4.4517007679e-001	 2.6162804766e+000
 1.0286715642e+000	 4.5547756591e-001	 2.6461111004e+000
 1.0240575612e+000	 4.6575864059e-001	 2.6693056189e+000
 1.0193321361e+000	 4.7601155056e-001	 2.6861081291e+000
 1.0144954266e+000	 4.8623454155e-001	 2.6967715310e+000
 1.0095476063e+000	 4.9642585621e-001	 2.7015572983e+000
 1.0044888847e+000	 5.0658373503e-001	 2.7007352307e+000
 9.9931950770e-001	 5.1670641718e-001	 2.6945831906e+000
 1.0692565462e+000	 4.2330891600e-001	 2.3394559939e+000
 1.0649962878e+000	 4.3391578325e-001	 2.3772614282e+000
 1.0606219287e+000	 4.4450098357e-001	 2.4080175894e+000
 1.0561334660e+000	 4.5506274516e-001	 2.4319505513e+000
 1.0515309323e+000	 4.6559928959e-001	 2.4492958158e+000
 1.0468143959e+000	 4.7610883261e-001	 2.4602981237e+000
 1.0419839614e+000	 4.8658958502e-001	 2.4652112482e+000
 1.0370397694e+000	 4.9703975358e-001	 2.4642977698e+000
 1.0319819975e+000	 5.0745754190e-001	 2.4578288339e+000
 1.0268108599e+000	 5.1784115136e-001	 2.4460838905e+000
 1.0215266079e+000	 5.2818878200e-001	 2.4293504164e+000
 1.0925012537e+000	 4.3251128374e-001	 2.2424860486e+000
 1.0881483810e+000	 4.4334873506e-001	 2.2661443988e+000
 1.0836789271e+000	 4.5416404842e-001	 2.2829895537e+000
 1.0790928892e+000	 4.6495541353e-001	 2.2932576854e+000
 1.0743903004e+000	 4.7572101328e-001	 2.2971944655e+000
 1.0695712306e+000	 4.8645902462e-001	 2.2950548639e+000
 1.0646357866e+000	 4.9716761947e-001	 2.2871029299e+000
 1.0595841122e+000	 5.0784496561e-001	 2.2736115546e+000
 1.0544163888e+000	 5.1848922760e-001	 2.2548622150e+000
 1.0491328351e+000	 5.2909856769e-001	 2.2311446998e+000
 1.0437337080e+000	 5.3967114683e-001	 2.2027568179e+000
 1.1157459613e+000	 4.4171365148e-001	 2.1905086805e+000
 1.1113004742e+000	 4.5278168687e-001	 2.1992014227e+000
 1.1067359256e+000	 4.6382711328e-001	 2.2012896061e+000
 1.1020523123e+000	 4.7484808190e-001	 2.1970200094e+000
 1.0972496685e+000	 4.8584273696e-001	 2.1866490127e+000
 1.0923280653e+000	 4.9680921663e-001	 2.1704423846e+000
 1.0872876119e+000	 5.0774565393e-001	 2.1486750501e+000
 1.0821284551e+000	 5.1865017764e-001	 2.1216308404e+000
 1.0768507800e+000	 5.2952091329e-001	 2.0896022227e+000
 1.0714548103e+000	 5.4035598403e-001	 2.0528900122e+000
 1.0659408082e+000	 5.5115351165e-001	 2.0118030660e+000
 1.1389906688e+000	 4.5091601922e-001	 2.1805461954e+000
 1.1344525674e+000	 4.6221463868e-001	 2.1734741680e+000
 1.1297929240e+000	 4.7349017814e-001	 2.1599794369e+000
 1.1250117355e+000	 4.8474075028e-001	 2.1403198965e+000
 1.1201090366e+000	 4.9596446065e-001	 2.1147631753e+000
 1.1150849000e+000	 5.0715940864e-001	 2.0835864103e+000
 1.1099394371e+000	 5.1832368838e-001	 2.0470760026e+000
 1.1046727979e+000	 5.2945538968e-001	 2.0055273528e+000
 1.0992851713e+000	 5.4055259898e-001	 1.9592445773e+000
 1.0937767855e+000	 5.5161340036e-001	 1.9085402051e+000
 1.0881479084e+000	 5.6263587648e-001	 1.8537348569e+000
 1.1622353763e+000	 4.6011838696e-001	 2.2098649604e+000
 1.1576046607e+000	 4.7164759049e-001	 2.1862463628e+000
 1.1528499225e+000	 4.8315324300e-001	 2.1563607153e+000
 1.1479711587e+000	 4.9463341865e-001	 2.1204775383e+000
 1.1429684047e+000	 5.0608618433e-001	 2.0788762499e+000
 1.1378417347e+000	 5.1750960065e-001	 2.0318459268e+000
 1.1325912624e+000	 5.2890172284e-001	 1.9796850471e+000
 1.1272171407e+000	 5.4026060171e-001	 1.9227012114e+000
 1.1217195625e+000	 5.5158428467e-001	 1.8612108443e+000
 1.1160987607e+000	 5.6287081669e-001	 1.7955388772e+000
 1.1103550086e+000	 5.7411824131e-001	 1.7260184096e+000
 8.8828400685e-001	 4.5929459305e-001	 4.7263221276e+000
 8.8359089566e-001	 4.6825968131e-001	 4.7781159556e+000
 8.7879995843e-001	 4.7719035311e-001	 4.8323639497e+000
 8.7391151114e-001	 4.8608504475e-001	 4.8894724300e+000
 8.6892590245e-001	 4.9494219467e-001	 4.9498480810e+000
 8.6384351377e-001	 5.0376024430e-001	 5.0138974566e+000
 8.5866475923e-001	 5.1253763888e-001	 5.0820264787e+000
 8.5339008574e-001	 5.2127282835e-001	 5.1546399296e+000
 8.4801997294e-001	 5.2996426816e-001	 5.2321409394e+000
 8.4255493313e-001	 5.3861042014e-001	 5.3149304694e+000
 8.3699551125e-001	 5.4720975336e-001	 5.4034067917e+000
 9.1049110702e-001	 4.7077695788e-001	 4.2121418516e+000
 9.0568066805e-001	 4.7996617334e-001	 4.2658963419e+000
 9.0076995739e-001	 4.8912011194e-001	 4.3197354874e+000
 8.9575929892e-001	 4.9823717087e-001	 4.3740232308e+000
 8.9064905002e-001	 5.0731574954e-001	 4.4291258544e+000
 8.8543960162e-001	 5.1635425041e-001	 4.4854115432e+000
 8.8013137822e-001	 5.2535107986e-001	 4.5432499389e+000
 8.7472483789e-001	 5.3430464906e-001	 4.6030116850e+000
 8.6922047226e-001	 5.4321337486e-001	 4.6650679649e+000
 8.6361880646e-001	 5.5207568064e-001	 4.7297900332e+000
 8.5792039903e-001	 5.6088999720e-001	 4.7975487409e+000
 9.3269820719e-001	 4.8225932270e-001	 3.7563977995e+000
 9.2777044045e-001	 4.9167266537e-001	 3.8078631462e+000
 9.2273995635e-001	 5.0104987077e-001	 3.8571479034e+000
 9.1760708670e-001	 5.1038929699e-001	 3.9045763741e+000
 9.1237219758e-001	 5.1968930441e-001	 3.9504771346e+000
 9.0703568946e-001	 5.2894825652e-001	 3.9951826520e+000
 9.0159799720e-001	 5.3816452084e-001	 4.0390288902e+000
 8.9605959003e-001	 5.4733646978e-001	 4.0823549058e+000
 8.9042097158e-001	 5.5646248157e-001	 4.1255024332e+000
 8.8468267979e-001	 5.6554094115e-001	 4.1688154613e+000
 8.7884528681e-001	 5.7457024104e-001	 4.2126398010e+000
 9.5490530736e-001	 4.9374168753e-001	 3.3543596563e+000
 9.4986021284e-001	 5.0337915740e-001	 3.3995425947e+000
 9.4470995531e-001	 5.1297962959e-001	 3.4403761153e+000
 9.3945487447e-001	 5.2254142311e-001	 3.4771474765e+000
 9.3409534514e-001	 5.3206285928e-001	 3.5101501057e+000
 9.2863177731e-001	 5.4154226263e-001	 3.5396832683e+000
 9.2306461618e-001	 5.5097796181e-001	 3.5660517233e+000
 9.1739434218e-001	 5.6036829049e-001	 3.5895653664e+000
 9.1162147091e-001	 5.6971158828e-001	 3.6105388603e+000
 9.0574655311e-001	 5.7900620166e-001	 3.6292912532e+000
 8.9977017459e-001	 5.8825048487e-001	 3.6461455866e+000
 9.7711240753e-001	 5.0522405235e-001	 3.0017273386e+000
 9.7194998523e-001	 5.1508564944e-001	 3.0368670343e+000
 9.6667995427e-001	 5.2490938842e-001	 3.0655777420e+000
 9.6130266225e-001	 5.3469354923e-001	 3.0881121414e+000
 9.5581849270e-001	 5.4443641415e-001	 3.1047309426e+000
 9.5022786515e-001	 5.5413626874e-001	 3.1157026044e+000
 9.4453123516e-001	 5.6379140279e-001	 3.1213030365e+000
 9.3872909432e-001	 5.7340011120e-001	 3.1218152873e+000
 9.3282197023e-001	 5.8296069499e-001	 3.1175292161e+000
 9.2681042644e-001	 5.9247146216e-001	 3.1087411518e+000
 9.2069506237e-001	 6.0193072871e-001	 3.0957535375e+000
 9.9931950770e-001	 5.1670641718e-001	 2.6945831906e+000
 9.9403975762e-001	 5.2679214147e-001	 2.7161298084e+000
 9.8864995323e-001	 5.3683914725e-001	 2.7292505816e+000
 9.8315045003e-001	 5.4684567535e-001	 2.7341659605e+000
 9.7754164026e-001	 5.5680996902e-001	 2.7311062566e+000
 9.7182395300e-001	 5.6673027485e-001	 2.7203114078e+000
 9.6599785414e-001	 5.7660484376e-001	 2.7020307243e+000
 9.6006384646e-001	 5.8643193191e-001	 2.6765226190e+000
 9.5402246955e-001	 5.9620980169e-001	 2.6440543187e+000
 9.4787429977e-001	 6.0593672267e-001	 2.6049015606e+000
 9.4161995015e-001	 6.1561097254e-001	 2.5593482714e+000
 1.0215266079e+000	 5.2818878200e-001	 2.4293504164e+000
 1.0161295300e+000	 5.3849863350e-001	 2.4339460180e+000
 1.0106199522e+000	 5.4876890608e-001	 2.4281956352e+000
 1.0049982378e+000	 5.5899780147e-001	 2.4122897325e+000
 9.9926478782e-001	 5.6918352389e-001	 2.3864304394e+000
 9.9342004084e-001	 5.7932428096e-001	 2.3508313593e+000
 9.8746447312e-001	 5.8941828473e-001	 2.3057173578e+000
 9.8139859860e-001	 5.9946375262e-001	 2.2513243320e+000
 9.7522296887e-001	 6.0945890840e-001	 2.1878989594e+000
 9.6893817309e-001	 6.1940198317e-001	 2.1156984288e+000
 9.6254483793e-001	 6.2929121638e-001	 2.1114783490e+000
 1.0437337080e+000	 5.3967114683e-001	 2.2027568179e+000
 1.0382193024e+000	 5.5020512553e-001	 2.1872182924e+000
 1.0325899511e+000	 5.6069866491e-001	 2.1594848515e+000
 1.0268460256e+000	 5.7114992759e-001	 2.1197191220e+000
 1.0209879354e+000	 5.8155707876e-001	 2.0680971754e+000
 1.0150161287e+000	 5.9191828707e-001	 2.0048083780e+000
 1.0089310921e+000	 6.0223172571e-001	 1.9300552192e+000
 1.0027333507e+000	 6.1249557333e-001	 1.8440531172e+000
 9.9642346820e-001	 6.2270801510e-001	 1.7470302037e+000
 9.9000204642e-001	 6.3286724368e-001	 1.7807775890e+000
 9.8346972570e-001	 6.4297146022e-001	 1.8475321672e+000
 1.0659408082e+000	 5.5115351165e-001	 2.0118030660e+000
 1.0603090748e+000	 5.6191161756e-001	 1.9731068380e+000
 1.0545599501e+000	 5.7262842373e-001	 1.9204329028e+000
 1.0486938134e+000	 5.8330205371e-001	 1.8539181109e+000
 1.0427110829e+000	 5.9393063362e-001	 1.7737145159e+000
 1.0366122165e+000	 6.0451229318e-001	 1.6799892635e+000
 1.0303977111e+000	 6.1504516668e-001	 1.5729244569e+000
 1.0240681029e+000	 6.2552739404e-001	 1.4621354810e+000
 1.0176239675e+000	 6.3595712181e-001	 1.5178320253e+000
 1.0110659197e+000	 6.4633250419e-001	 1.5644401557e+000
 1.0043946135e+000	 6.5665170405e-001	 1.6016937912e+000
 1.0881479084e+000	 5.6263587648e-001	 1.8537348569e+000
 1.0823988472e+000	 5.7361810960e-001	 1.7890031552e+000
 1.0765299491e+000	 5.8455818256e-001	 1.7085724174e+000
 1.0705416011e+000	 5.9545417983e-001	 1.6125557008e+000
 1.0644342305e+000	 6.0630418849e-001	 1.5010830048e+000
 1.0582083044e+000	 6.1710629929e-001	 1.3743011973e+000
 1.0518643301e+000	 6.2785860765e-001	 1.2833973284e+000
 1.0454028550e+000	 6.3855921475e-001	 1.3212319339e+000
 1.0388244668e+000	 6.4920622851e-001	 1.3488705350e+000
 1.0321297931e+000	 6.5979776469e-001	 1.3659974987e+000
 1.0253195013e+000	 6.7033194789e-001	 1.3722985590e+000
 1.1103550086e+000	 5.7411824131e-001	 1.7260184096e+000
 1.1044886196e+000	 5.8532460163e-001	 1.6325069088e+000
 1.0984999480e+000	 5.9648794139e-001	 1.5216321841e+000
 1.0923893889e+000	 6.0760630594e-001	 1.3934854109e+000
 1.0861573781e+000	 6.1867774335e-001	 1.2481764290e+000
 1.0798043922e+000	 6.2970030539e-001	 1.1693296109e+000
 1.0733309490e+000	 6.4067204862e-001	 1.1899654943e+000
 1.0667376072e+000	 6.5159103546e-001	 1.1994953639e+000
 1.0600249662e+000	 6.6245533522e-001	 1.1975530752e+000
 1.0531936664e+000	 6.7326302520e-001	 1.1837739612e+000
 1.0462443890e+000	 6.8401219173e-001	 1.1577955095e+000
 8.3699551125e-001	 5.4720975336e-001	 5.4034067917e+000
 8.3134228471e-001	 5.5576074499e-001	 5.4619779698e+000
 8.2559586333e-001	 5.6426188112e-001	 5.5067194716e+000
 8.1975688910e-001	 5.7271165764e-001	 5.5376383273e+000
 8.1382603608e-001	 5.8110858109e-001	 5.5547538805e+000
 8.0780401013e-001	 5.8945116950e-001	 5.5580977645e+000
 8.0169154872e-001	 5.9773795322e-001	 5.5477138608e+000
 7.9548942062e-001	 6.0596747576e-001	 5.5236582409e+000
 7.8919842564e-001	 6.1413829464e-001	 5.4859990901e+000
 7.8281939432e-001	 6.2224898220e-001	 5.4348166153e+000
 7.7635318757e-001	 6.3029812637e-001	 5.4516620085e+000
 8.5792039903e-001	 5.6088999720e-001	 4.7975487409e+000
 8.5212584183e-001	 5.6965476362e-001	 4.8100783013e+000
 8.4623575991e-001	 5.7836842815e-001	 4.8102234431e+000
 8.4025081132e-001	 5.8702944908e-001	 4.7980440868e+000
 8.3417168698e-001	 5.9563629562e-001	 4.7736115693e+000
 8.2799911038e-001	 6.0418744874e-001	 4.7370085569e+000
 8.2173383744e-001	 6.1268140204e-001	 4.6883289427e+000
 8.1537665613e-001	 6.2111666265e-001	 4.6276777277e+000
 8.0892838628e-001	 6.2949175201e-001	 4.6271613180e+000
 8.0238987918e-001	 6.3780520675e-001	 4.6754737739e+000
 7.9576201726e-001	 6.4605557953e-001	 4.7100133415e+000
 8.7884528681e-001	 5.7457024104e-001	 4.2126398010e+000
 8.7290939895e-001	 5.8354878224e-001	 4.1811558644e+000
 8.6687565649e-001	 5.9247497517e-001	 4.1386697664e+000
 8.6074473355e-001	 6.0134724052e-001	 4.0852935913e+000
 8.5451733788e-001	 6.1016401015e-001	 4.0211499828e+000
 8.4819421063e-001	 6.1892372797e-001	 3.9463719959e+000
 8.4177612615e-001	 6.2762485087e-001	 3.9046027620e+000
 8.3526389165e-001	 6.3626584955e-001	 3.9520538466e+000
 8.2865834692e-001	 6.4484520937e-001	 3.9878273927e+000
 8.2196036404e-001	 6.5336143130e-001	 4.0117282700e+000
 8.1517084695e-001	 6.6181303269e-001	 4.0235684053e+000
 8.9977017459e-001	 5.8825048487e-001	 3.6461455866e+000
 8.9369295606e-001	 5.9744280087e-001	 3.5724913638e+000
 8.8751555307e-001	 6.0658152220e-001	 3.4891585852e+000
 8.8123865577e-001	 6.1566503196e-001	 3.3963108803e+000
 8.7486298878e-001	 6.2469172467e-001	 3.2941216202e+000
 8.6838931088e-001	 6.3366000721e-001	 3.3302656772e+000
 8.6181841487e-001	 6.4256829971e-001	 3.3619789480e+000
 8.5515112716e-001	 6.5141503644e-001	 3.3838291265e+000
 8.4838830756e-001	 6.6019866674e-001	 3.3956294828e+000
 8.4153084889e-001	 6.6891765586e-001	 3.3971984391e+000
 8.3457967664e-001	 6.7757048585e-001	 3.3883600117e+000
 9.2069506237e-001	 6.0193072871e-001	 3.0957535375e+000
 9.1447651318e-001	 6.1133681950e-001	 2.9816031736e+000
 9.0815544965e-001	 6.2068806923e-001	 2.8590431506e+000
 9.0173257800e-001	 6.2998282341e-001	 2.8148846832e+000
 8.9520863967e-001	 6.3921943920e-001	 2.8375763894e+000
 8.8858441113e-001	 6.4839628645e-001	 2.8523274430e+000
 8.8186070358e-001	 6.5751174854e-001	 2.8589578672e+000
 8.7503836267e-001	 6.6656422333e-001	 2.8572905152e+000
 8.6811826820e-001	 6.7555212411e-001	 2.8471515069e+000
 8.6110133375e-001	 6.8447388041e-001	 2.8283706690e+000
 8.5398850633e-001	 6.9332793901e-001	 2.8007819780e+000
 9.4161995015e-001	 6.1561097254e-001	 2.5593482714e+000
 9.3526007029e-001	 6.2523083812e-001	 2.4102821222e+000
 9.2879534623e-001	 6.3479461626e-001	 2.4193002187e+000
 9.2222650022e-001	 6.4430061485e-001	 2.4222095828e+000
 9.1555429057e-001	 6.5374715373e-001	 2.4188423077e+000
 9.0877951138e-001	 6.6313256569e-001	 2.4090310329e+000
 9.0190299230e-001	 6.7245519737e-001	 2.3926093659e+000
 8.9492559818e-001	 6.8171341023e-001	 2.3694123114e+000
 8.8784822884e-001	 6.9090558147e-001	 2.3392767070e+000
 8.8067181861e-001	 7.0003010497e-001	 2.3020416646e+000
 8.7339733601e-001	 7.0908539217e-001	 2.2575490151e+000
 9.6254483793e-001	 6.2929121638e-001	 2.1114783490e+000
 9.5604362741e-001	 6.3912485675e-001	 2.0980879634e+000
 9.4943524281e-001	 6.4890116329e-001	 2.0801759900e+000
 9.4272042245e-001	 6.5861840629e-001	 2.0575901299e+000
 9.3589994147e-001	 6.6827486826e-001	 2.0301767969e+000
 9.2897461163e-001	 6.7786884493e-001	 1.9977815260e+000
 9.2194528101e-001	 6.8739864620e-001	 1.9602493921e+000
 9.1481283370e-001	 6.9686259713e-001	 1.9174254385e+000
 9.0757818948e-001	 7.0625903884e-001	 1.8691551139e+000
 9.0024230346e-001	 7.1558632953e-001	 1.8152847171e+000
 8.9280616570e-001	 7.2484284533e-001	 1.7556618477e+000
 9.8346972570e-001	 6.4297146022e-001	 1.8475321672e+000
 9.7682718452e-001	 6.5301887538e-001	 1.8077986369e+000
 9.7007513939e-001	 6.6300771033e-001	 1.7649380282e+000
 9.6321434467e-001	 6.7293619774e-001	 1.7188117045e+000
 9.5624559237e-001	 6.8280258279e-001	 1.6692783154e+000
 9.4916971188e-001	 6.9260512417e-001	 1.6161942017e+000
 9.4198756973e-001	 7.0234209504e-001	 1.5594138144e+000
 9.3470006921e-001	 7.1201178402e-001	 1.4987901446e+000
 9.2730815011e-001	 7.2161249621e-001	 1.4341751649e+000
 9.1981278832e-001	 7.3114255408e-001	 1.3654202802e+000
 9.1221499539e-001	 7.4060029849e-001	 1.2923767876e+000
 1.0043946135e+000	 6.5665170405e-001	 1.6016937912e+000
 9.9761074164e-001	 6.6691289401e-001	 1.5375352213e+000
 9.9071503597e-001	 6.7711425736e-001	 1.4716228807e+000
 9.8370826689e-001	 6.8725398918e-001	 1.4038297451e+000
 9.7659124327e-001	 6.9733029732e-001	 1.3340246398e+000
 9.6936481213e-001	 7.0734140341e-001	 1.2620726443e+000
 9.6202985844e-001	 7.1728554387e-001	 1.1878355140e+000
 9.5458730472e-001	 7.2716097092e-001	 1.1111721145e+000
 9.4703811075e-001	 7.3696595358e-001	 1.0319388701e+000
 9.3938327317e-001	 7.4669877864e-001	 9.4999022416e-001
 9.3162382508e-001	 7.5635775165e-001	 8.6517910981e-001
 1.0253195013e+000	 6.7033194789e-001	 1.3722985590e+000
 1.0183942987e+000	 6.8080691263e-001	 1.2855541523e+000
 1.0113549325e+000	 6.9122080439e-001	 1.1984112446e+000
 1.0042021891e+000	 7.0157178063e-001	 1.1107523961e+000
 9.9693689417e-001	 7.1185801186e-001	 1.0224545675e+000
 9.8955991238e-001	 7.2207768265e-001	 9.3338952793e-001
 9.8207214715e-001	 7.3222899270e-001	 8.4342428077e-001
 9.7447454023e-001	 7.4231015782e-001	 7.5242150625e-001
 9.6676807139e-001	 7.5231941095e-001	 6.6024001930e-001
 9.5895375803e-001	 7.6225500320e-001	 5.6673524200e-001
 9.5103265477e-001	 7.7211520481e-001	 4.7175968892e-001
 1.0462443890e+000	 6.8401219173e-001	 1.1577955095e+000
 1.0391778559e+000	 6.9470093126e-001	 1.0502336878e+000
 1.0319948291e+000	 7.0532735142e-001	 9.4361355214e-001
 1.0246961113e+000	 7.1588957207e-001	 8.3782523713e-001
 1.0172825451e+000	 7.2638572639e-001	 7.3275181473e-001
 1.0097550126e+000	 7.3681396190e-001	 6.2826970763e-001
 1.0021144359e+000	 7.4717244154e-001	 5.2424912285e-001
 9.9436177575e-001	 7.5745934472e-001	 4.2055450437e-001
 9.8649803203e-001	 7.6767286832e-001	 3.1704500374e-001
 9.7852424289e-001	 7.7781122776e-001	 2.1357496738e-001
 9.7044148445e-001	 7.8787265798e-001	 1.0999443931e-001
 7.7635318757e-001	 6.3029812637e-001	 5.4516620085e+000
 7.6980069631e-001	 6.3828433156e-001	 5.3816943909e+000
 7.6316284107e-001	 6.4620621937e-001	 5.3067110601e+000
 7.5644057159e-001	 6.5406242942e-001	 5.2269303145e+000
 7.4963486637e-001	 6.6185162011e-001	 5.1425726014e+000
 7.4274673220e-001	 6.6957246936e-001	 5.0538604864e+000
 7.3577720365e-001	 6.7722367538e-001	 4.9610186218e+000
 7.2872734261e-001	 6.8480395737e-001	 4.8642737146e+000
 7.2159823770e-001	 6.9231205626e-001	 4.7638544915e+000
 7.1439100374e-001	 6.9974673538e-001	 4.6599916638e+000
 7.0710678115e-001	 7.0710678115e-001	 4.5529178888e+000
 7.9576201726e-001	 6.4605557953e-001	 4.7100133415e+000
 7.8904571372e-001	 6.5424143985e-001	 4.6444456787e+000
 7.8224191210e-001	 6.6236137485e-001	 4.5737347367e+000
 7.7535158588e-001	 6.7041399015e-001	 4.4980773543e+000
 7.6837573803e-001	 6.7839791061e-001	 4.4176726503e+000
 7.6131540050e-001	 6.8631178109e-001	 4.3327220313e+000
 7.5417163374e-001	 6.9415426726e-001	 4.2434291977e+000
 7.4694552618e-001	 7.0192405631e-001	 4.1500001497e+000
 7.3963819364e-001	 7.0961985767e-001	 4.0526431902e+000
 7.3225077883e-001	 7.1724040377e-001	 3.9515689269e+000
 7.2478445068e-001	 7.2478445068e-001	 3.8469902709e+000
 8.1517084695e-001	 6.6181303269e-001	 4.0235684053e+000
 8.0829073112e-001	 6.7019854813e-001	 3.9617329186e+000
 8.0132098312e-001	 6.7851653033e-001	 3.8946490990e+000
 7.9426260017e-001	 6.8676555089e-001	 3.8224916116e+000
 7.8711660969e-001	 6.9494420111e-001	 3.7454375127e+000
 7.7988406881e-001	 7.0305109283e-001	 3.6636662962e+000
 7.7256606384e-001	 7.1108485915e-001	 3.5773599407e+000
 7.6516370974e-001	 7.1904415524e-001	 3.4867029533e+000
 7.5767814959e-001	 7.2692765908e-001	 3.3918824136e+000
 7.5011055393e-001	 7.3473407215e-001	 3.2930880131e+000
 7.4246212021e-001	 7.4246212021e-001	 3.1905120938e+000
 8.3457967664e-001	 6.7757048585e-001	 3.3883600117e+000
 8.2753574853e-001	 6.8615565642e-001	 3.3296801513e+000
 8.2040005415e-001	 6.9467168582e-001	 3.2656685569e+000
 8.1317361446e-001	 7.0311711162e-001	 3.1964769359e+000
 8.0585748135e-001	 7.1149049161e-001	 3.1222594770e+000
 7.9845273712e-001	 7.1979040456e-001	 3.0431729395e+000
 7.9096049393e-001	 7.2801545103e-001	 2.9593767398e+000
 7.8338189331e-001	 7.3616425418e-001	 2.8710330381e+000
 7.7571810553e-001	 7.4423546049e-001	 2.7783068223e+000
 7.6797032902e-001	 7.5222774054e-001	 2.6813659890e+000
 7.6013978974e-001	 7.6013978974e-001	 2.5803814216e+000
 8.5398850633e-001	 6.9332793901e-001	 2.8007819780e+000
 8.4678076594e-001	 7.0211276471e-001	 2.7447665532e+000
 8.3947912518e-001	 7.1082684130e-001	 2.6833568833e+000
 8.3208462875e-001	 7.1946867236e-001	 2.6166808657e+000
 8.2459835301e-001	 7.2803678212e-001	 2.5448689506e+000
 8.1702140542e-001	 7.3652971630e-001	 2.4680542721e+000
 8.0935492402e-001	 7.4494604292e-001	 2.3863727793e+000
 8.0160007688e-001	 7.5328435311e-001	 2.2999633648e+000
 7.9375806148e-001	 7.6154326189e-001	 2.2089679918e+000
 7.8583010412e-001	 7.6972140893e-001	 2.1135318177e+000
 7.7781745927e-001	 7.7781745927e-001	 2.0138033151e+000
 8.7339733601e-001	 7.0908539217e-001	 2.2575490151e+000
 8.6602578334e-001	 7.1806987300e-001	 2.2037869768e+000
 8.5855819620e-001	 7.2698199679e-001	 2.1445883954e+000
 8.5099564304e-001	 7.3582023310e-001	 2.0800564416e+000
 8.4333922467e-001	 7.4458307262e-001	 2.0102968902e+000
 8.3559007373e-001	 7.5326902803e-001	 1.9354182967e+000
 8.2774935411e-001	 7.6187663480e-001	 1.8555321727e+000
 8.1981826044e-001	 7.7040445205e-001	 1.7707531592e+000
 8.1179801742e-001	 7.7885106330e-001	 1.6811991989e+000
 8.0368987921e-001	 7.8721507731e-001	 1.5869917039e+000
 7.9549512880e-001	 7.9549512880e-001	 1.4882557211e+000
 8.9280616570e-001	 7.2484284533e-001	 1.7556618477e+000
 8.8527080075e-001	 7.3402698129e-001	 1.7038176384e+000
 8.7763726723e-001	 7.4313715227e-001	 1.6465142006e+000
 8.6990665733e-001	 7.5217179383e-001	 1.5838289988e+000
 8.6208009633e-001	 7.6112936312e-001	 1.5158421341e+000
 8.5415874203e-001	 7.7000833977e-001	 1.4426365670e+000
 8.4614378421e-001	 7.7880722669e-001	 1.3642983396e+000
 8.3803644401e-001	 7.8752455098e-001	 1.2809167965e+000
 8.2983797336e-001	 7.9615886471e-001	 1.1925848025e+000
 8.2154965430e-001	 8.0470874570e-001	 1.0993989583e+000
 8.1317279833e-001	 8.1317279833e-001	 1.0014598105e+000
 9.1221499539e-001	 7.4060029849e-001	 1.2923767876e+000
 9.0451581816e-001	 7.4998408958e-001	 1.2421861853e+000
 8.9671633826e-001	 7.5929230776e-001	 1.1865327501e+000
 8.8881767162e-001	 7.6852335457e-001	 1.1254672002e+000
 8.8082096799e-001	 7.7767565363e-001	 1.0590429039e+000
 8.7272741034e-001	 7.8674765150e-001	 9.8731615013e-001
 8.6453821430e-001	 7.9573781857e-001	 9.1034642037e-001
 8.5625462758e-001	 8.0464464992e-001	 8.2819665745e-001
 8.4787792931e-001	 8.1346666612e-001	 7.4093353286e-001
 8.3940942940e-001	 8.2220241408e-001	 6.4862771017e-001
 8.3085046786e-001	 8.3085046786e-001	 5.5135410407e-001
 9.3162382508e-001	 7.5635775165e-001	 8.6517910981e-001
 9.2376083557e-001	 7.6594119787e-001	 8.1644550548e-001
 9.1579540928e-001	 7.7544746325e-001	 7.6226407420e-001
 9.0772868592e-001	 7.8487491531e-001	 7.0265768950e-001
 8.9956183966e-001	 7.9422194413e-001	 6.3765186863e-001
 8.9129607865e-001	 8.0348696323e-001	 5.6727509467e-001
 8.8293264439e-001	 8.1266841046e-001	 4.9155913833e-001
 8.7447281114e-001	 8.2176474885e-001	 4.1053937827e-001
 8.6591788525e-001	 8.3077446752e-001	 3.2425511906e-001
 8.5726920449e-001	 8.3969608247e-001	 2.3274990528e-001
 8.4852813739e-001	 8.4852813739e-001	 1.3607183105e-001
 9.5103265477e-001	 7.7211520481e-001	 4.7175968892e-001
 9.4300585297e-001	 7.8189830617e-001	 4.2435074364e-001
 9.3487448031e-001	 7.9160261873e-001	 3.7152717237e-001
 9.2663970021e-001	 8.0122647604e-001	 3.1328284812e-001
 9.1830271132e-001	 8.1076823464e-001	 2.4961426266e-001
 9.0986474695e-001	 8.2022627497e-001	 1.8052090134e-001
 9.0132707449e-001	 8.2959900235e-001	 1.0600561788e-001
 8.9269099471e-001	 8.3888484779e-001	 2.6075007791e-002
 8.8395784120e-001	 8.4808226893e-001	-5.9260220668e-002
 8.7512897959e-001	 8.5718975085e-001	-1.4998487941e-001
 8.6620580692e-001	 8.6620580692e-001	-2.4607893845e-001
 9.7044148445e-001	 7.8787265798e-001	 1.0999443931e-001
 9.6225087038e-001	 7.9785541446e-001	 6.3839075594e-002
 9.5395355134e-001	 8.0775777422e-001	 1.2320115982e-002
 9.4555071450e-001	 8.1757803678e-001	-4.4598778290e-002
 9.3704358298e-001	 8.2731452514e-001	-1.0695137115e-001
 9.2843341526e-001	 8.3696558670e-001	-1.7476842198e-001
 9.1972150458e-001	 8.4652959423e-001	-2.4807725561e-001
 9.1090917828e-001	 8.5600494672e-001	-3.2690133360e-001
 9.0199779714e-001	 8.6539007034e-001	-4.1125982797e-001
 8.9298875468e-001	 8.7468341924e-001	-5.0116719893e-001
 8.8388347645e-001	 8.8388347645e-001	-5.9663277784e-001
 7.0710678115e-001	 7.0710678115e-001	 4.5529178888e+000
 6.9974673538e-001	 7.1439100374e-001	 4.4488192849e+000
 6.9231205626e-001	 7.2159823770e-001	 4.3286504061e+000
 6.8480395737e-001	 7.2872734261e-001	 4.1927838294e+000
 6.7722367538e-001	 7.3577720365e-001	 4.0416059631e+000
 6.6957246936e-001	 7.4274673220e-001	 3.8755168286e+000
 6.6185162011e-001	 7.4963486637e-001	 3.6949298231e+000
 6.5406242942e-001	 7.5644057159e-001	 3.5002714639e+000
 6.4620621937e-001	 7.6316284107e-001	 3.2919811125e+000
 6.3828433156e-001	 7.6980069631e-001	 3.0705106811e+000
 6.3029812637e-001	 7.7635318757e-001	 2.8363243197e+000
 7.2478445068e-001	 7.2478445068e-001	 3.8469902709e+000
 7.1724040377e-001	 7.3225077883e-001	 3.7545400934e+000
 7.0961985767e-001	 7.3963819364e-001	 3.6479502750e+000
 7.0192405631e-001	 7.4694552618e-001	 3.5275515583e+000
 6.9415426726e-001	 7.5417163374e-001	 3.3936870418e+000
 6.8631178109e-001	 7.6131540050e-001	 3.2467120243e+000
 6.7839791061e-001	 7.6837573803e-001	 3.0869938300e+000
 6.7041399015e-001	 7.7535158588e-001	 2.9149116169e+000
 6.6236137485e-001	 7.8224191210e-001	 2.7308561679e+000
 6.5424143985e-001	 7.8904571372e-001	 2.5352296629e+000
 6.4605557953e-001	 7.9576201726e-001	 2.3284454349e+000
 7.4246212021e-001	 7.4246212021e-001	 3.1905120938e+000
 7.3473407215e-001	 7.5011055393e-001	 3.1075722810e+000
 7.2692765908e-001	 7.5767814959e-001	 3.0123301691e+000
 7.1904415524e-001	 7.6516370974e-001	 2.9050747005e+000
 7.1108485915e-001	 7.7256606384e-001	 2.7861057638e+000
 7.0305109283e-001	 7.7988406881e-001	 2.6557340997e+000
 6.9494420111e-001	 7.8711660969e-001	 2.5142811904e+000
 6.8676555089e-001	 7.9426260017e-001	 2.3620791327e+000
 6.7851653033e-001	 8.0132098312e-001	 2.1994704950e+000
 6.7019854813e-001	 8.0829073112e-001	 2.0268081579e+000
 6.6181303269e-001	 8.1517084695e-001	 1.8444551380e+000
 7.6013978974e-001	 7.6013978974e-001	 2.5803814216e+000
 7.5222774054e-001	 7.6797032902e-001	 2.5050093310e+000
 7.4423546049e-001	 7.7571810553e-001	 2.4190849830e+000
 7.3616425418e-001	 7.8338189331e-001	 2.3228554303e+000
 7.2801545103e-001	 7.9096049393e-001	 2.2165773228e+000
 7.1979040456e-001	 7.9845273712e-001	 2.1005168766e+000
 7.1149049161e-001	 8.0585748135e-001	 1.9749498275e+000
 7.0311711162e-001	 8.1317361446e-001	 1.8401613706e+000
 6.9467168582e-001	 8.2040005415e-001	 1.6964460839e+000
 6.8615565642e-001	 8.2753574853e-001	 1.5441078371e+000
 6.7757048585e-001	 8.3457967664e-001	 1.3834596842e+000
 7.7781745927e-001	 7.7781745927e-001	 2.0138033151e+000
 7.6972140893e-001	 7.8583010412e-001	 1.9442364079e+000
 7.6154326189e-001	 7.9375806148e-001	 1.8657854159e+000
 7.5328435311e-001	 8.0160007688e-001	 1.7786552957e+000
 7.4494604292e-001	 8.0935492402e-001	 1.6830593099e+000
 7.3652971630e-001	 8.1702140542e-001	 1.5792190597e+000
 7.2803678212e-001	 8.2459835301e-001	 1.4673645048e+000
 7.1946867236e-001	 8.3208462875e-001	 1.3477339689e+000
 7.1082684130e-001	 8.3947912518e-001	 1.2205741320e+000
 7.0211276471e-001	 8.4678076594e-001	 1.0861400070e+000
 6.9332793901e-001	 8.5398850633e-001	 9.4469490294e-001
 7.9549512880e-001	 7.9549512880e-001	 1.4882557211e+000
 7.8721507731e-001	 8.0368987921e-001	 1.4228979487e+000
 7.7885106330e-001	 8.1179801742e-001	 1.3502473266e+000
 7.7040445205e-001	 8.1981826044e-001	 1.2704663992e+000
 7.6187663480e-001	 8.2774935411e-001	 1.1837247800e+000
 7.5326902803e-001	 8.3559007373e-001	 1.0901992500e+000
 7.4458307262e-001	 8.4333922467e-001	 9.9007384432e-001
 7.3582023310e-001	 8.5099564304e-001	 8.8353992525e-001
 7.2698199679e-001	 8.5855819620e-001	 7.7079624331e-001
 7.1806987300e-001	 8.6602578334e-001	 6.5204898398e-001
 7.0908539217e-001	 8.7339733601e-001	 5.2751180056e-001
 8.1317279833e-001	 8.1317279833e-001	 1.0014598105e+000
 8.0470874570e-001	 8.2154965430e-001	 9.3886948095e-001
 7.9615886471e-001	 8.2983797336e-001	 8.7050508598e-001
 7.8752455098e-001	 8.3803644401e-001	 7.9648633747e-001
 7.7880722669e-001	 8.4614378421e-001	 7.1693883220e-001
 7.7000833977e-001	 8.5415874203e-001	 6.3199421683e-001
 7.6112936312e-001	 8.6208009633e-001	 5.4179034199e-001
 7.5217179383e-001	 8.6990665733e-001	 4.4647140491e-001
 7.4313715227e-001	 8.7763726723e-001	 3.4618807995e-001
 7.3402698129e-001	 8.8527080075e-001	 2.4109763614e-001
 7.2484284533e-001	 8.9280616570e-001	 1.3136404128e-001
 8.3085046786e-001	 8.3085046786e-001	 5.5135410407e-001
 8.2220241408e-001	 8.3940942940e-001	 4.9023303892e-001
 8.1346666612e-001	 8.4787792931e-001	 4.2478833047e-001
 8.0464464992e-001	 8.5625462758e-001	 3.5509634009e-001
 7.9573781857e-001	 8.6453821430e-001	 2.8123817945e-001
 7.8674765150e-001	 8.7272741034e-001	 2.0329994355e-001
 7.7767565363e-001	 8.8082096799e-001	 1.2137293404e-001
 7.6852335457e-001	 8.8881767162e-001	 3.5553872216e-002
 7.5929230776e-001	 8.9671633826e-001	-5.4054899518e-002
 7.4998408958e-001	 9.0451581816e-001	-1.4734522821e-001
 7.4060029849e-001	 9.1221499539e-001	-2.4420297398e-001
 8.4852813739e-001	 8.4852813739e-001	 1.3607183105e-001
 8.3969608247e-001	 8.5726920449e-001	 7.5255652145e-002
 8.3077446752e-001	 8.6591788525e-001	 1.1501622390e-002
 8.2176474885e-001	 8.7447281114e-001	-5.5157858580e-002
 8.1266841046e-001	 8.8293264439e-001	-1.2468672793e-001
 8.0348696323e-001	 8.9129607865e-001	-1.9704495697e-001
 7.9422194413e-001	 8.9956183966e-001	-2.7218825702e-001
 7.8487491531e-001	 9.0772868592e-001	-3.5006779487e-001
 7.7544746325e-001	 9.1579540928e-001	-4.3062991878e-001
 7.6594119787e-001	 9.2376083557e-001	-5.1381589612e-001
 7.5635775165e-001	 9.3162382508e-001	-5.9956166345e-001
 8.6620580692e-001	 8.6620580692e-001	-2.4607893845e-001
 8.5718975085e-001	 8.7512897959e-001	-3.0762953148e-001
 8.4808226893e-001	 8.8395784120e-001	-3.7079339987e-001
 8.3888484779e-001	 8.9269099471e-001	-4.3558280579e-001
 8.2959900235e-001	 9.0132707449e-001	-5.0200738971e-001
 8.2022627497e-001	 9.0986474695e-001	-5.7007379649e-001
 8.1076823464e-001	 9.1830271132e-001	-6.3978530886e-001
 8.0122647604e-001	 9.2663970021e-001	-7.1114148979e-001
 7.9160261873e-001	 9.3487448031e-001	-7.8413783457e-001
 7.8189830617e-001	 9.4300585297e-001	-8.5876543413e-001
 7.7211520481e-001	 9.5103265477e-001	-9.3501065035e-001
 8.8388347645e-001	 8.8388347645e-001	-5.9663277784e-001
 8.7468341924e-001	 8.9298875468e-001	-6.5983985752e-001
 8.6539007034e-001	 9.0199779714e-001	-7.2339372938e-001
 8.5600494672e-001	 9.1090917828e-001	-7.8735210218e-001
 8.4652959423e-001	 9.1972150458e-001	-8.5177106074e-001
 8.3696558670e-001	 9.2843341526e-001	-9.1670461895e-001
 8.2731452514e-001	 9.3704358298e-001	-9.8220427926e-001
 8.1757803678e-001	 9.4555071450e-001	-1.0483186003e+000
 8.0775777422e-001	 9.5395355134e-001	-1.1150927734e+000
 7.9785541446e-001	 9.6225087038e-001	-1.1825682103e+000
 7.8787265798e-001	 9.7044148445e-001	-1.2507821424e+000
 6.3029812637e-001	 7.7635318757e-001	 2.8363243197e+000
 6.2224898220e-001	 7.8281939432e-001	 2.6555454998e+000
 6.1413829464e-001	 7.8919842564e-001	 2.3978816519e+000
 6.0596747576e-001	 7.9548942062e-001	 2.1396709974e+000
 5.9773795322e-001	 8.0169154872e-001	 1.8814729446e+000
 5.8945116950e-001	 8.0780401013e-001	 1.6238453398e+000
 5.8110858109e-001	 8.1382603608e-001	 1.3673438125e+000
 5.7271165764e-001	 8.1975688910e-001	 1.1125211242e+000
 5.6426188112e-001	 8.2559586333e-001	 8.5992652457e-001
 5.5576074499e-001	 8.3134228471e-001	 6.1010511232e-001
 5.4720975336e-001	 8.3699551125e-001	 3.6359720568e-001
 6.4605557953e-001	 7.9576201726e-001	 2.3284454349e+000
 6.3780520675e-001	 8.0238987918e-001	 2.2026185411e+000
 6.2949175201e-001	 8.0892838628e-001	 2.0770766444e+000
 6.2111666265e-001	 8.1537665613e-001	 1.8943385616e+000
 6.1268140204e-001	 8.2173383744e-001	 1.6444314102e+000
 6.0418744874e-001	 8.2799911038e-001	 1.3945196898e+000
 5.9563629562e-001	 8.3417168698e-001	 1.1451520922e+000
 5.8702944908e-001	 8.4025081132e-001	 8.9687511364e-001
 5.7836842815e-001	 8.4623575991e-001	 6.5023240440e-001
 5.6965476362e-001	 8.5212584183e-001	 4.0576412509e-001
 5.6088999720e-001	 8.5792039903e-001	 1.6400630931e-001
 6.6181303269e-001	 8.1517084695e-001	 1.8444551380e+000
 6.5336143130e-001	 8.2196036404e-001	 1.7320829652e+000
 6.4484520937e-001	 8.2865834692e-001	 1.6195317973e+000
 6.3626584955e-001	 8.3526389165e-001	 1.5070081854e+000
 6.2762485087e-001	 8.4177612615e-001	 1.3947203042e+000
 6.1892372797e-001	 8.4819421063e-001	 1.1900250507e+000
 6.1016401015e-001	 8.5451733788e-001	 9.4518108764e-001
 6.0134724052e-001	 8.6074473355e-001	 7.0084600437e-001
 5.9247497517e-001	 8.6687565649e-001	 4.5755953121e-001
 5.8354878224e-001	 8.7290939895e-001	 2.1585856544e-001
 5.7457024104e-001	 8.7884528681e-001	-2.3723474764e-002
 6.7757048585e-001	 8.3457967664e-001	 1.3834596842e+000
 6.6891765586e-001	 8.4153084889e-001	 1.2827514684e+000
 6.6019866674e-001	 8.4838830756e-001	 1.1813997581e+000
 6.5141503644e-001	 8.5515112716e-001	 1.0795749611e+000
 6.4256829971e-001	 8.6181841487e-001	 9.7744992536e-001
 6.3366000721e-001	 8.6838931088e-001	 8.7519996052e-001
 6.2469172467e-001	 8.7486298878e-001	 7.6817785560e-001
 6.1566503196e-001	 8.8123865577e-001	 5.2530397794e-001
 6.0658152220e-001	 8.8751555307e-001	 2.8289908108e-001
 5.9744280087e-001	 8.9369295606e-001	 4.1498433728e-002
 5.8825048487e-001	 8.9977017459e-001	-1.9836553076e-001
 6.9332793901e-001	 8.5398850633e-001	 9.4469490294e-001
 6.8447388041e-001	 8.6110133375e-001	 8.5401903502e-001
 6.7555212411e-001	 8.6811826820e-001	 7.6223301469e-001
 6.6656422333e-001	 8.7503836267e-001	 6.6947087577e-001
 6.5751174854e-001	 8.8186070358e-001	 5.7586992502e-001
 6.4839628645e-001	 8.8858441113e-001	 4.8157081171e-001
 6.3921943920e-001	 8.9520863967e-001	 3.8671758645e-001
 6.2998282341e-001	 9.0173257800e-001	 2.9145774902e-001
 6.2068806923e-001	 9.0815544965e-001	 1.2726660080e-001
 6.1133681950e-001	 9.1447651318e-001	-1.1619442962e-001
 6.0193072871e-001	 9.2069506237e-001	-3.5869377666e-001
 7.0908539217e-001	 8.7339733601e-001	 5.2751180056e-001
 7.0003010497e-001	 8.8067181861e-001	 4.4538375832e-001
 6.9090558147e-001	 8.8784822884e-001	 3.6167519288e-001
 6.8171341023e-001	 8.9492559818e-001	 2.7648344304e-001
 6.7245519737e-001	 9.0190299230e-001	 1.8990997114e-001
 6.6313256569e-001	 9.0877951138e-001	 1.0206048186e-001
 6.5374715373e-001	 9.1555429057e-001	 1.3045028467e-002
 6.4430061485e-001	 9.2222650022e-001	-7.7021894019e-002
 6.3479461626e-001	 9.2879534623e-001	-1.6802126905e-001
 6.2523083812e-001	 9.3526007029e-001	-2.5982949264e-001
 6.1561097254e-001	 9.4161995015e-001	-5.0348260496e-001
 7.2484284533e-001	 8.9280616570e-001	 1.3136404128e-001
 7.1558632953e-001	 9.0024230346e-001	 5.6435632517e-002
 7.0625903884e-001	 9.0757818948e-001	-2.0548850291e-002
 6.9686259713e-001	 9.1481283370e-001	-9.9529170124e-002
 6.8739864620e-001	 9.2194528101e-001	-1.8044009630e-001
 6.7786884493e-001	 9.2897461163e-001	-2.6321123526e-001
 6.6827486826e-001	 9.3589994147e-001	-3.4776687594e-001
 6.5861840629e-001	 9.4272042245e-001	-4.3402585006e-001
 6.4890116329e-001	 9.4943524281e-001	-5.2190140810e-001
 6.3912485675e-001	 9.5604362741e-001	-6.1130111115e-001
 6.2929121638e-001	 9.6254483793e-001	-7.0212673923e-001
 7.4060029849e-001	 9.1221499539e-001	-2.4420297398e-001
 7.3114255408e-001	 9.1981278832e-001	-3.1315322367e-001
 7.2161249621e-001	 9.2730815011e-001	-3.8464166803e-001
 7.1201178402e-001	 9.3470006921e-001	-4.5864565971e-001
 7.0234209504e-001	 9.4198756973e-001	-5.3513666657e-001
 6.9260512417e-001	 9.4916971188e-001	-6.1408005081e-001
 6.8280258279e-001	 9.5624559237e-001	-6.9543486473e-001
 6.7293619774e-001	 9.6321434467e-001	-7.7915366348e-001
 6.6300771033e-001	 9.7007513939e-001	-8.6518233561e-001
 6.5301887538e-001	 9.7682718452e-001	-9.5345995183e-001
 6.4297146022e-001	 9.8346972570e-001	-1.0439186324e+000
 7.5635775165e-001	 9.3162382508e-001	-5.9956166345e-001
 7.4669877864e-001	 9.3938327317e-001	-6.6363712175e-001
 7.3696595358e-001	 9.4703811075e-001	-7.3074078525e-001
 7.2716097092e-001	 9.5458730472e-001	-8.0088816144e-001
 7.1728554387e-001	 9.6202985844e-001	-8.7408795932e-001
 7.0734140341e-001	 9.6936481213e-001	-9.5034181571e-001
 6.9733029732e-001	 9.7659124327e-001	-1.0296440400e+000
 6.8725398918e-001	 9.8370826689e-001	-1.1119813785e+000
 6.7711425736e-001	 9.9071503597e-001	-1.1973327979e+000
 6.6691289401e-001	 9.9761074164e-001	-1.2856692905e+000
 6.5665170405e-001	 1.0043946135e+000	-1.3769536993e+000
 7.7211520481e-001	 9.5103265477e-001	-9.3501065035e-001
 7.6225500320e-001	 9.5895375803e-001	-9.9520431051e-001
 7.5231941095e-001	 9.6676807139e-001	-1.0589253341e+000
 7.4231015782e-001	 9.7447454023e-001	-1.1262280222e+000
 7.3222899270e-001	 9.8207214715e-001	-1.1971589398e+000
 7.2207768265e-001	 9.8955991238e-001	-1.2717565880e+000
 7.1185801186e-001	 9.9693689417e-001	-1.3500510963e+000
 7.0157178063e-001	 1.0042021891e+000	-1.4320639372e+000
 6.9122080439e-001	 1.0113549325e+000	-1.5178076618e+000
 6.8080691263e-001	 1.0183942987e+000	-1.6072856598e+000
 6.7033194789e-001	 1.0253195013e+000	-1.7004919418e+000
 7.8787265798e-001	 9.7044148445e-001	-1.2507821424e+000
 7.7781122776e-001	 9.7852424289e-001	-1.3079835823e+000
 7.6767286832e-001	 9.8649803203e-001	-1.3692218933e+000
 7.5745934472e-001	 9.9436177575e-001	-1.4345908790e+000
 7.4717244154e-001	 1.0021144359e+000	-1.5041756445e+000
 7.3681396190e-001	 1.0097550126e+000	-1.5780522123e+000
 7.2638572639e-001	 1.0172825451e+000	-1.6562871612e+000
 7.1588957207e-001	 1.0246961113e+000	-1.7389372896e+000
 7.0532735142e-001	 1.0319948291e+000	-1.8260493024e+000
 6.9470093126e-001	 1.0391778559e+000	-1.9176595236e+000
 6.8401219173e-001	 1.0462443890e+000	-2.0137936358e+000
 5.4720975336e-001	 8.3699551125e-001	 3.6359720568e-001
 5.3861042014e-001	 8.4255493313e-001	 1.5976982367e-001
 5.2996426816e-001	 8.4801997294e-001	-5.7548831740e-002
 5.2127282835e-001	 8.5339008574e-001	-2.8757777091e-001
 5.1253763888e-001	 8.5866475923e-001	-5.2952830667e-001
 5.0376024430e-001	 8.6384351377e-001	-7.8260503419e-001
 4.9494219467e-001	 8.6892590245e-001	-1.0460068119e+000
 4.8608504475e-001	 8.7391151114e-001	-1.3189277412e+000
 4.7719035311e-001	 8.7879995843e-001	-1.6005581442e+000
 4.6825968131e-001	 8.8359089566e-001	-1.8900855361e+000
 4.5929459305e-001	 8.8828400685e-001	-2.1866955919e+000
 5.6088999720e-001	 8.5792039903e-001	 1.6400630931e-001
 5.5207568064e-001	 8.6361880646e-001	-2.0009990192e-002
 5.4321337486e-001	 8.6922047226e-001	-2.1415380482e-001
 5.3430464906e-001	 8.7472483789e-001	-4.1768906254e-001
 5.2535107986e-001	 8.8013137822e-001	-6.2987460103e-001
 5.1635425041e-001	 8.8543960162e-001	-8.4996508785e-001
 5.0731574954e-001	 8.9064905002e-001	-1.0772119389e+000
 4.9823717087e-001	 8.9575929892e-001	-1.3108642335e+000
 4.8912011194e-001	 9.0076995739e-001	-1.5501696239e+000
 4.7996617334e-001	 9.0568066805e-001	-1.7943752384e+000
 4.7077695788e-001	 9.1049110702e-001	-2.0427285760e+000
 5.7457024104e-001	 8.7884528681e-001	-2.3723474764e-002
 5.6554094115e-001	 8.8468267979e-001	-1.9262171660e-001
 5.5646248157e-001	 8.9042097158e-001	-3.6845688667e-001
 5.4733646978e-001	 8.9605959003e-001	-5.5053445487e-001
 5.3816452084e-001	 9.0159799720e-001	-7.3815731322e-001
 5.2894825652e-001	 9.0703568946e-001	-9.3062664060e-001
 5.1968930441e-001	 9.1237219758e-001	-1.1272427631e+000
 5.1038929699e-001	 9.1760708670e-001	-1.3273060082e+000
 5.0104987077e-001	 9.2273995635e-001	-1.5301175517e+000
 4.9167266537e-001	 9.2777044045e-001	-1.7349802552e+000
 4.8225932270e-001	 9.3269820719e-001	-1.9411994929e+000
 5.8825048487e-001	 8.9977017459e-001	-1.9836553076e-001
 5.7900620166e-001	 9.0574655311e-001	-3.5657563442e-001
 5.6971158828e-001	 9.1162147091e-001	-5.1869441587e-001
 5.6036829049e-001	 9.1739434218e-001	-6.8406566557e-001
 5.5097796181e-001	 9.2306461618e-001	-8.5203301945e-001
 5.4154226263e-001	 9.2863177731e-001	-1.0219407723e+000
 5.3206285928e-001	 9.3409534514e-001	-1.1931346839e+000
 5.2254142311e-001	 9.3945487447e-001	-1.3649627773e+000
 5.1297962959e-001	 9.4470995531e-001	-1.5367761262e+000
 5.0337915740e-001	 9.4986021284e-001	-1.7079296316e+000
 4.9374168753e-001	 9.5490530736e-001	-1.8777827857e+000
 6.0193072871e-001	 9.2069506237e-001	-3.5869377666e-001
 5.9247146216e-001	 9.2681042644e-001	-5.1040828946e-001
 5.8296069499e-001	 9.3282197023e-001	-6.6315575607e-001
 5.7340011120e-001	 9.3872909432e-001	-8.1631520429e-001
 5.6379140279e-001	 9.4453123516e-001	-9.6926784694e-001
 5.5413626874e-001	 9.5022786515e-001	-1.1213978477e+000
 5.4443641415e-001	 9.5581849270e-001	-1.2720930774e+000
 5.3469354923e-001	 9.6130266225e-001	-1.4207458595e+000
 5.2490938842e-001	 9.6667995427e-001	-1.5667537030e+000
 5.1508564944e-001	 9.7194998523e-001	-1.7095200220e+000
 5.0522405235e-001	 9.7711240753e-001	-1.8484548401e+000
 6.1561097254e-001	 9.4161995015e-001	-5.0348260496e-001
 6.0593672267e-001	 9.4787429977e-001	-6.5267957594e-001
 5.9620980169e-001	 9.5402246955e-001	-8.0017740429e-001
 5.8643193191e-001	 9.6006384646e-001	-9.4538739578e-001
 5.7660484376e-001	 9.6599785414e-001	-1.0877253017e+000
 5.6673027485e-001	 9.7182395300e-001	-1.2266120408e+000
 5.5680996902e-001	 9.7754164026e-001	-1.3614744097e+000
 5.4684567535e-001	 9.8315045003e-001	-1.4917457794e+000
 5.3683914725e-001	 9.8864995323e-001	-1.6168667775e+000
 5.2679214147e-001	 9.9403975762e-001	-1.7362859550e+000
 5.1670641718e-001	 9.9931950770e-001	-1.8494604351e+000
 6.2929121638e-001	 9.6254483793e-001	-7.0212673923e-001
 6.1940198317e-001	 9.6893817309e-001	-7.8197019858e-001
 6.0945890840e-001	 9.7522296887e-001	-9.2813786771e-001
 5.9946375262e-001	 9.8139859860e-001	-1.0694505739e+000
 5.8941828473e-001	 9.8746447312e-001	-1.2053556836e+000
 5.7932428096e-001	 9.9342004084e-001	-1.3353078768e+000
 5.6918352389e-001	 9.9926478782e-001	-1.4587698139e+000
 5.5899780147e-001	 1.0049982378e+000	-1.5752127883e+000
 5.4876890608e-001	 1.0106199522e+000	-1.6841173610e+000
 5.3849863350e-001	 1.0161295300e+000	-1.7849739783e+000
 5.2818878200e-001	 1.0215266079e+000	-1.8772835697e+000
 6.4297146022e-001	 9.8346972570e-001	-1.0439186324e+000
 6.3286724368e-001	 9.9000204642e-001	-1.0279842990e+000
 6.2270801510e-001	 9.9642346820e-001	-1.0454531946e+000
 6.1249557333e-001	 1.0027333507e+000	-1.1867302720e+000
 6.0223172571e-001	 1.0089310921e+000	-1.3201868535e+000
 5.9191828707e-001	 1.0150161287e+000	-1.4453084930e+000
 5.8155707876e-001	 1.0209879354e+000	-1.5615907644e+000
 5.7114992759e-001	 1.0268460256e+000	-1.6685398725e+000
 5.6069866491e-001	 1.0325899511e+000	-1.7656732448e+000
 5.5020512553e-001	 1.0382193024e+000	-1.8525201032e+000
 5.3967114683e-001	 1.0437337080e+000	-1.9286220143e+000
 6.5665170405e-001	 1.0043946135e+000	-1.3769536993e+000
 6.4633250419e-001	 1.0110659197e+000	-1.3591980198e+000
 6.3595712181e-001	 1.0176239675e+000	-1.3349776948e+000
 6.2552739404e-001	 1.0240681029e+000	-1.3042694156e+000
 6.1504516668e-001	 1.0303977111e+000	-1.4303161534e+000
 6.0451229318e-001	 1.0366122165e+000	-1.5545253665e+000
 5.9393063362e-001	 1.0427110829e+000	-1.6676565407e+000
 5.8330205371e-001	 1.0486938134e+000	-1.7692478848e+000
 5.7262842373e-001	 1.0545599501e+000	-1.8588507318e+000
 5.6191161756e-001	 1.0603090748e+000	-1.9360300685e+000
 5.5115351165e-001	 1.0659408082e+000	-2.0003650423e+000
 6.7033194789e-001	 1.0253195013e+000	-1.7004919418e+000
 6.5979776469e-001	 1.0321297931e+000	-1.6833533619e+000
 6.4920622851e-001	 1.0388244668e+000	-1.6578106191e+000
 6.3855921475e-001	 1.0454028550e+000	-1.6238991602e+000
 6.2785860765e-001	 1.0518643301e+000	-1.5816552084e+000
 6.1710629929e-001	 1.0582083044e+000	-1.6609492999e+000
 6.0630418849e-001	 1.0644342305e+000	-1.7747832273e+000
 5.9545417983e-001	 1.0705416011e+000	-1.8749724969e+000
 5.8455818256e-001	 1.0765299491e+000	-1.9610994817e+000
 5.7361810960e-001	 1.0823988472e+000	-2.0327620217e+000
 5.6263587648e-001	 1.0881479084e+000	-2.0895738895e+000
 6.8401219173e-001	 1.0462443890e+000	-2.0137936358e+000
 6.7326302520e-001	 1.0531936664e+000	-1.9995424915e+000
 6.6245533522e-001	 1.0600249662e+000	-1.9750739190e+000
 6.5159103546e-001	 1.0667376072e+000	-1.9404815037e+000
 6.4067204862e-001	 1.0733309490e+000	-1.8958606673e+000
 6.2970030539e-001	 1.0798043922e+000	-1.8413083316e+000
 6.1867774335e-001	 1.0861573781e+000	-1.8808740331e+000
 6.0760630594e-001	 1.0923893889e+000	-1.9834527174e+000
 5.9648794139e-001	 1.0984999480e+000	-2.0699891759e+000
 5.8532460163e-001	 1.1044886196e+000	-2.1401112781e+000
 5.7411824131e-001	 1.1103550086e+000	-2.1934645576e+000
 4.5929459305e-001	 8.8828400685e-001	-2.1866955919e+000
 4.5029665337e-001	 8.9287900861e-001	-2.4750251717e+000
 4.4126742776e-001	 8.9737565002e-001	-2.7605267246e+000
 4.3220848139e-001	 9.0177371256e-001	-3.0426994141e+000
 4.2312137829e-001	 9.0607300991e-001	-3.3210486323e+000
 4.1400768054e-001	 9.1027338778e-001	-3.5950865363e+000
 4.0486894748e-001	 9.1437472374e-001	-3.8643325685e+000
 3.9570673493e-001	 9.1837692696e-001	-4.1283139605e+000
 3.8652259441e-001	 9.2227993800e-001	-4.3865662190e+000
 3.7731807239e-001	 9.2608372854e-001	-4.6386335946e+000
 3.6809470955e-001	 9.2978830108e-001	-4.8840695305e+000
 4.7077695788e-001	 9.1049110702e-001	-2.0427285760e+000
 4.6155406970e-001	 9.1520098382e-001	-2.3001889640e+000
 4.5229911345e-001	 9.1981004127e-001	-2.5552975097e+000
 4.4301369342e-001	 9.2431805537e-001	-2.8075329076e+000
 4.3369941274e-001	 9.2872483515e-001	-3.0563799125e+000
 4.2435787255e-001	 9.3303022247e-001	-3.3013299095e+000
 4.1499067117e-001	 9.3723409182e-001	-3.5418814677e+000
 4.0559940330e-001	 9.4133635013e-001	-3.7775408766e+000
 3.9618565927e-001	 9.4533693645e-001	-4.0078226643e+000
 3.8675102420e-001	 9.4923582175e-001	-4.2322500980e+000
 3.7729707730e-001	 9.5303300860e-001	-4.4503556643e+000
 4.8225932270e-001	 9.3269820719e-001	-1.9411994929e+000
 4.7281148603e-001	 9.3752295903e-001	-2.1683816777e+000
 4.6333079914e-001	 9.4224443251e-001	-2.3936742638e+000
 4.5381890545e-001	 9.4686239818e-001	-2.6165347680e+000
 4.4427744720e-001	 9.5137666039e-001	-2.8364266136e+000
 4.3470806456e-001	 9.5578705716e-001	-3.0528197341e+000
 4.2511239485e-001	 9.6009345991e-001	-3.2651911618e+000
 4.1549207167e-001	 9.6429577330e-001	-3.4730255971e+000
 4.0584872413e-001	 9.6839393489e-001	-3.6758159604e+000
 3.9618397601e-001	 9.7238791496e-001	-3.8730639250e+000
 3.8649944504e-001	 9.7627771612e-001	-4.0642804292e+000
 4.9374168753e-001	 9.5490530736e-001	-1.8777827857e+000
 4.8406890236e-001	 9.5984493424e-001	-2.0753095779e+000
 4.7436248483e-001	 9.6467882376e-001	-2.2713964582e+000
 4.6462411748e-001	 9.6940674099e-001	-2.4654790229e+000
 4.5485548165e-001	 9.7402848564e-001	-2.6569986339e+000
 4.4505825657e-001	 9.7854389185e-001	-2.8454030584e+000
 4.3523411854e-001	 9.8295282800e-001	-3.0301470916e+000
 4.2538474004e-001	 9.8725519647e-001	-3.2106931617e+000
 4.1551178899e-001	 9.9145093334e-001	-3.3865119153e+000
 4.0561692782e-001	 9.9554000817e-001	-3.5570827833e+000
 3.9570181278e-001	 9.9952242364e-001	-3.7218945266e+000
 5.0522405235e-001	 9.7711240753e-001	-1.8484548401e+000
 4.9532631870e-001	 9.8216690946e-001	-2.0169800965e+000
 4.8539417052e-001	 9.8711321501e-001	-2.1845038479e+000
 4.7542932951e-001	 9.9195108380e-001	-2.3504389934e+000
 4.6543351611e-001	 9.9668031088e-001	-2.5142040700e+000
 4.5540844858e-001	 1.0013007265e+000	-2.6752239284e+000
 4.4535584222e-001	 1.0058121961e+000	-2.8329303924e+000
 4.3527740842e-001	 1.0102146196e+000	-2.9867628986e+000
 4.2517485385e-001	 1.0145079318e+000	-3.1361691178e+000
 4.1504987963e-001	 1.0186921014e+000	-3.2806055545e+000
 4.0490418052e-001	 1.0227671312e+000	-3.4195381265e+000
 5.1670641718e-001	 9.9931950770e-001	-1.8494604351e+000
 5.0658373503e-001	 1.0044888847e+000	-1.9896683693e+000
 4.9642585621e-001	 1.0095476063e+000	-2.1293031068e+000
 4.8623454155e-001	 1.0144954266e+000	-2.2677540400e+000
 4.7601155056e-001	 1.0193321361e+000	-2.4044160838e+000
 4.6575864059e-001	 1.0240575612e+000	-2.5386903890e+000
 4.5547756591e-001	 1.0286715642e+000	-2.6699850389e+000
 4.4517007679e-001	 1.0331740428e+000	-2.7977157254e+000
 4.3483791871e-001	 1.0375649302e+000	-2.9213064066e+000
 4.2448283144e-001	 1.0418441946e+000	-3.0401899414e+000
 4.1410654826e-001	 1.0460118387e+000	-3.1538087042e+000
 5.2818878200e-001	 1.0215266079e+000	-1.8772835697e+000
 5.1784115136e-001	 1.0268108599e+000	-1.9898881379e+000
 5.0745754190e-001	 1.0319819975e+000	-2.1023388147e+000
 4.9703975358e-001	 1.0370397694e+000	-2.2140006445e+000
 4.8658958502e-001	 1.0419839614e+000	-2.3242440906e+000
 4.7610883261e-001	 1.0468143959e+000	-2.4324457876e+000
 4.6559928959e-001	 1.0515309323e+000	-2.5379892758e+000
 4.5506274516e-001	 1.0561334660e+000	-2.6402657158e+000
 4.4450098357e-001	 1.0606219287e+000	-2.7386745822e+000
 4.3391578325e-001	 1.0649962878e+000	-2.8326243357e+000
 4.2330891600e-001	 1.0692565462e+000	-2.9215330716e+000
 5.3967114683e-001	 1.0437337080e+000	-1.9286220143e+000
 5.2909856769e-001	 1.0491328351e+000	-2.0143663658e+000
 5.1848922760e-001	 1.0544163888e+000	-2.1003681482e+000
 5.0784496561e-001	 1.0595841122e+000	-2.1859671850e+000
 4.9716761947e-001	 1.0646357866e+000	-2.2705086264e+000
 4.8645902462e-001	 1.0695712306e+000	-2.3533437422e+000
 4.7572101328e-001	 1.0743903004e+000	-2.4338306953e+000
 4.6495541353e-001	 1.0790928892e+000	-2.5113352954e+000
 4.5416404842e-001	 1.0836789271e+000	-2.5852317303e+000
 4.4334873506e-001	 1.0881483810e+000	-2.6549032759e+000
 4.3251128374e-001	 1.0925012537e+000	-2.7197429809e+000
 5.5115351165e-001	 1.0659408082e+000	-2.0003650423e+000
 5.4035598403e-001	 1.0714548103e+000	-2.0600210280e+000
 5.2952091329e-001	 1.0768507800e+000	-2.1203387352e+000
 5.1865017764e-001	 1.0821284551e+000	-2.1806318628e+000
 5.0774565393e-001	 1.0872876119e+000	-2.2402193556e+000
 4.9680921663e-001	 1.0923280653e+000	-2.2984262384e+000
 4.8584273696e-001	 1.0972496685e+000	-2.3545844304e+000
 4.7484808190e-001	 1.1020523123e+000	-2.4080335388e+000
 4.6382711328e-001	 1.1067359256e+000	-2.4581216293e+000
 4.5278168687e-001	 1.1113004742e+000	-2.5042059743e+000
 4.4171365148e-001	 1.1157459613e+000	-2.5456537756e+000
 5.6263587648e-001	 1.0881479084e+000	-2.0895738895e+000
 5.5161340036e-001	 1.0937767855e+000	-2.1239416200e+000
 5.4055259898e-001	 1.0992851713e+000	-2.1593692212e+000
 5.2945538968e-001	 1.1046727979e+000	-2.1951433333e+000
 5.1832368838e-001	 1.1099394371e+000	-2.2305557725e+000
 5.0715940864e-001	 1.1150849000e+000	-2.2649044080e+000
 4.9596446065e-001	 1.1201090366e+000	-2.2974940177e+000
 4.8474075028e-001	 1.1250117355e+000	-2.3276371236e+000
 4.7349017814e-001	 1.1297929240e+000	-2.3546548022e+000
 4.6221463868e-001	 1.1344525674e+000	-2.3778774724e+000
 4.5091601922e-001	 1.1389906688e+000	-2.3966456571e+000
 5.7411824131e-001	 1.1103550086e+000	-2.1934645576e+000
 5.6287081669e-001	 1.1160987607e+000	-2.2033720057e+000
 5.5158428467e-001	 1.1217195625e+000	-2.2147321673e+000
 5.4026060171e-001	 1.1272171407e+000	-2.2268036600e+000
 5.2890172284e-001	 1.1325912624e+000	-2.2388502183e+000
 5.1750960065e-001	 1.1378417347e+000	-2.2501416144e+000
 5.0608618433e-001	 1.1429684047e+000	-2.2599545573e+000
 4.9463341865e-001	 1.1479711587e+000	-2.2675735699e+000
 4.8315324300e-001	 1.1528499225e+000	-2.2722918420e+000
 4.7164759049e-001	 1.1576046607e+000	-2.2734120581e+000
 4.6011838696e-001	 1.1622353763e+000	-2.2702471991e+000
 3.6809470955e-001	 9.2978830108e-001	-4.8840695305e+000
 3.5885404004e-001	 9.3339368862e-001	-5.1723422011e+000
 3.4959759075e-001	 9.3689995439e-001	-5.4589008839e+000
 3.4032688062e-001	 9.4030719147e-001	-5.7430152415e+000
 3.3104341994e-001	 9.4361552239e-001	-6.0239644484e+000
 3.2174870969e-001	 9.4682509884e-001	-6.3010378758e+000
 3.1244424085e-001	 9.4993610118e-001	-6.5735357508e+000
 3.0313149381e-001	 9.5294873809e-001	-6.8407697888e+000
 2.9381193769e-001	 9.5586324609e-001	-7.1020637994e+000
 2.8448702975e-001	 9.5867988915e-001	-7.3567542658e+000
 2.7515821483e-001	 9.6139895816e-001	-7.6041908946e+000
 3.7729707730e-001	 9.5303300860e-001	-4.4503556643e+000
 3.6782539105e-001	 9.5672853083e-001	-4.6918750078e+000
 3.5833753053e-001	 9.6032245325e-001	-4.9311625111e+000
 3.4883505265e-001	 9.6381487125e-001	-5.1675458320e+000
 3.3931950545e-001	 9.6720591045e-001	-5.4003619082e+000
 3.2979242744e-001	 9.7049572631e-001	-5.6289575967e+000
 3.2025534689e-001	 9.7368450371e-001	-5.8526902887e+000
 3.1070978117e-001	 9.7677245654e-001	-6.0709284992e+000
 3.0115723614e-001	 9.7975982724e-001	-6.2830524313e+000
 2.9159920551e-001	 9.8264688638e-001	-6.4884545131e+000
 2.8203717021e-001	 9.8543393212e-001	-6.6865399087e+000
 3.8649944504e-001	 9.7627771612e-001	-4.0642804292e+000
 3.7679674206e-001	 9.8006337304e-001	-4.2656426897e+000
 3.6707747030e-001	 9.8374495210e-001	-4.4642624136e+000
 3.5734322467e-001	 9.8732255103e-001	-4.6595217826e+000
 3.4759559096e-001	 9.9079629851e-001	-4.8508120623e+000
 3.3783614519e-001	 9.9416635378e-001	-5.0375341991e+000
 3.2806645292e-001	 9.9743290624e-001	-5.2190993945e+000
 3.1828806852e-001	 1.0005961750e+000	-5.3949296541e+000
 3.0850253459e-001	 1.0036564084e+000	-5.5644583117e+000
 2.9871138126e-001	 1.0066138836e+000	-5.7271305282e+000
 2.8891612559e-001	 1.0094689061e+000	-5.8824037646e+000
 3.9570181278e-001	 9.9952242364e-001	-3.7218945266e+000
 3.8576809306e-001	 1.0033982153e+000	-3.8893092073e+000
 3.7581741008e-001	 1.0071674510e+000	-4.0534769146e+000
 3.6585139669e-001	 1.0108302308e+000	-4.2138310493e+000
 3.5587167647e-001	 1.0143866866e+000	-4.3698139354e+000
 3.4587986295e-001	 1.0178369812e+000	-4.5208773777e+000
 3.3587755895e-001	 1.0211813088e+000	-4.6664831971e+000
 3.2586635588e-001	 1.0244198934e+000	-4.8061037420e+000
 3.1584783304e-001	 1.0275529895e+000	-4.9392223753e+000
 3.0582355701e-001	 1.0305808808e+000	-5.0653339366e+000
 2.9579508097e-001	 1.0335038800e+000	-5.1839451800e+000
 4.0490418052e-001	 1.0227671312e+000	-3.4195381265e+000
 3.9473944407e-001	 1.0267330575e+000	-3.5588653497e+000
 3.8455734985e-001	 1.0305899498e+000	-3.6944466036e+000
 3.7435956871e-001	 1.0343379106e+000	-3.8257633537e+000
 3.6414776197e-001	 1.0379770746e+000	-3.9523058616e+000
 3.5392358070e-001	 1.0415076087e+000	-4.0735737068e+000
 3.4368866498e-001	 1.0449297113e+000	-4.1890762854e+000
 3.3344464323e-001	 1.0482436119e+000	-4.2983332863e+000
 3.2319313149e-001	 1.0514495707e+000	-4.4008751432e+000
 3.1293573276e-001	 1.0545478781e+000	-4.4962434630e+000
 3.0267403634e-001	 1.0575388540e+000	-4.5839914302e+000
 4.1410654826e-001	 1.0460118387e+000	-3.1538087042e+000
 4.0371079507e-001	 1.0500678997e+000	-3.2705924196e+000
 3.9329728963e-001	 1.0540124487e+000	-3.3831358626e+000
 3.8286774073e-001	 1.0578455904e+000	-3.4909655425e+000
 3.7242384748e-001	 1.0615674627e+000	-3.5936166718e+000
 3.6196729844e-001	 1.0651782362e+000	-3.6906336535e+000
 3.5149977101e-001	 1.0686781138e+000	-3.7815705463e+000
 3.4102293058e-001	 1.0720673303e+000	-3.8659915077e+000
 3.3053842994e-001	 1.0753461519e+000	-3.9434712134e+000
 3.2004790851e-001	 1.0785148753e+000	-4.0135952541e+000
 3.0955299172e-001	 1.0815738279e+000	-4.0759605079e+000
 4.2330891600e-001	 1.0692565462e+000	-2.9215330716e+000
 4.1268214607e-001	 1.0734027419e+000	-3.0210306564e+000
 4.0203722940e-001	 1.0774349475e+000	-3.1157976712e+000
 3.9137591275e-001	 1.0813532702e+000	-3.2054027698e+000
 3.8069993298e-001	 1.0851578507e+000	-3.2894232487e+000
 3.7001101619e-001	 1.0888488637e+000	-3.3674455026e+000
 3.5931087703e-001	 1.0924265164e+000	-3.4390654585e+000
 3.4860121793e-001	 1.0958910488e+000	-3.5038889879e+000
 3.3788372839e-001	 1.0992427330e+000	-3.5615322961e+000
 3.2716008426e-001	 1.1024818725e+000	-3.6116222887e+000
 3.1643194709e-001	 1.1056088019e+000	-3.6537969151e+000
 4.3251128374e-001	 1.0925012537e+000	-2.7197429809e+000
 4.2165349708e-001	 1.0967375841e+000	-2.8069516893e+000
 4.1077716917e-001	 1.1008574464e+000	-2.8889429047e+000
 3.9988408477e-001	 1.1048609500e+000	-2.9653246343e+000
 3.8897601848e-001	 1.1087482388e+000	-3.0357134999e+000
 3.7805473393e-001	 1.1125194911e+000	-3.0997351631e+000
 3.6712198306e-001	 1.1161749189e+000	-3.1570247316e+000
 3.5617950528e-001	 1.1197147673e+000	-3.2072271419e+000
 3.4522902683e-001	 1.1231393142e+000	-3.2499975206e+000
 3.3427226000e-001	 1.1264488698e+000	-3.2850015235e+000
 3.2331090246e-001	 1.1296437758e+000	-3.3119156513e+000
 4.4171365148e-001	 1.1157459613e+000	-2.5456537756e+000
 4.3062484808e-001	 1.1200724263e+000	-2.6253344344e+000
 4.1951710894e-001	 1.1242799453e+000	-2.6993134699e+000
 4.0839225679e-001	 1.1283686297e+000	-2.7672355499e+000
 3.9725210398e-001	 1.1323386269e+000	-2.8287539593e+000
 3.8609845168e-001	 1.1361901186e+000	-2.8835309991e+000
 3.7493308908e-001	 1.1399233214e+000	-2.9312383653e+000
 3.6375779263e-001	 1.1435384857e+000	-2.9715575055e+000
 3.5257432527e-001	 1.1470358953e+000	-3.0041799541e+000
 3.4138443575e-001	 1.1504158670e+000	-3.0288076453e+000
 3.3018985783e-001	 1.1536787498e+000	-3.0451532037e+000
 4.5091601922e-001	 1.1389906688e+000	-2.3966456571e+000
 4.3959619908e-001	 1.1434072685e+000	-2.4733439430e+000
 4.2825704871e-001	 1.1477024441e+000	-2.5438587307e+000
 4.1690042880e-001	 1.1518763095e+000	-2.6078687438e+000
 4.0552818948e-001	 1.1559290149e+000	-2.6650613562e+000
 3.9414216942e-001	 1.1598607461e+000	-2.7151329669e+000
 3.8274419510e-001	 1.1636717239e+000	-2.7577893546e+000
 3.7133607997e-001	 1.1673622042e+000	-2.7927460096e+000
 3.5991962372e-001	 1.1709324765e+000	-2.8197284452e+000
 3.4849661149e-001	 1.1743828642e+000	-2.8384724866e+000
 3.3706881320e-001	 1.1777137238e+000	-2.8487245377e+000
 4.6011838696e-001	 1.1622353763e+000	-2.2702471991e+000
 4.4856755008e-001	 1.1667421108e+000	-2.3483127877e+000
 4.3699698847e-001	 1.1711249430e+000	-2.4197147623e+000
 4.2540860082e-001	 1.1753839893e+000	-2.4841633758e+000
 4.1380427497e-001	 1.1795194030e+000	-2.5413775955e+000
 4.0218588716e-001	 1.1835313736e+000	-2.5910854560e+000
 3.9055530112e-001	 1.1874201265e+000	-2.6330243902e+000
 3.7891436731e-001	 1.1911859226e+000	-2.6669415401e+000
 3.6726492216e-001	 1.1948290576e+000	-2.6925940454e+000
 3.5560878723e-001	 1.1983498614e+000	-2.7097493105e+000
 3.4394776857e-001	 1.2017486977e+000	-2.7181852496e+000
 2.7515821483e-001	 9.6139895816e-001	-7.6041908946e+000
 2.6582692472e-001	 9.6402077054e-001	-7.8439167418e+000
 2.5649457767e-001	 9.6654566967e-001	-8.0750191963e+000
 2.4716257779e-001	 9.6897402446e-001	-8.2971261972e+000
 2.3783231458e-001	 9.7130622879e-001	-8.5098769810e+000
 2.2850516241e-001	 9.7354270101e-001	-8.7129223266e+000
 2.1918248004e-001	 9.7568388343e-001	-8.9059247787e+000
 2.0986561017e-001	 9.7773024174e-001	-9.0885588511e+000
 2.0055587900e-001	 9.7968226449e-001	-9.2605112080e+000
 1.9125459577e-001	 9.8154046252e-001	-9.4214808255e+000
 1.8196305243e-001	 9.8330536841e-001	-9.5711791317e+000
 2.8203717021e-001	 9.8543393212e-001	-6.6865399087e+000
 2.7247259785e-001	 9.8812128980e-001	-6.8962970161e+000
 2.6290694212e-001	 9.9070931141e-001	-7.0977375547e+000
 2.5334164224e-001	 9.9319837507e-001	-7.2905022140e+000
 2.4377812245e-001	 9.9558888451e-001	-7.4742427216e+000
 2.3421779148e-001	 9.9788126854e-001	-7.6486220858e+000
 2.2466204205e-001	 1.0000759805e+000	-7.8133148184e+000
 2.1511225043e-001	 1.0021734978e+000	-7.9680071357e+000
 2.0556977597e-001	 1.0041743211e+000	-8.1123971390e+000
 1.9603596067e-001	 1.0060789741e+000	-8.2461949745e+000
 1.8651212874e-001	 1.0078880026e+000	-8.3691229724e+000
 2.8891612559e-001	 1.0094689061e+000	-5.8824037646e+000
 2.7911827098e-001	 1.0122218091e+000	-6.0651841446e+000
 2.6931930657e-001	 1.0148729532e+000	-6.2399229305e+000
 2.5952070669e-001	 1.0174227257e+000	-6.4062721333e+000
 2.4972393032e-001	 1.0198715402e+000	-6.5638945864e+000
 2.3993042054e-001	 1.0222198361e+000	-6.7124641882e+000
 2.3014160405e-001	 1.0244680776e+000	-6.8516661229e+000
 2.2035889069e-001	 1.0266167538e+000	-6.9811970615e+000
 2.1058367295e-001	 1.0286663777e+000	-7.1007653412e+000
 2.0081732556e-001	 1.0306174856e+000	-7.2100911245e+000
 1.9106120505e-001	 1.0324706368e+000	-7.3089065375e+000
 2.9579508097e-001	 1.0335038800e+000	-5.1839451800e+000
 2.8576394410e-001	 1.0363223283e+000	-5.3425983897e+000
 2.7573167102e-001	 1.0390365949e+000	-5.4934542763e+000
 2.6569977114e-001	 1.0416470763e+000	-5.6361747849e+000
 2.5566973819e-001	 1.0441541959e+000	-5.7704325110e+000
 2.4564304960e-001	 1.0465584036e+000	-5.8959109425e+000
 2.3562116605e-001	 1.0488601747e+000	-6.0123046810e+000
 2.2560553094e-001	 1.0510600099e+000	-6.1193196420e+000
 2.1559756992e-001	 1.0531584343e+000	-6.2166732340e+000
 2.0559869045e-001	 1.0551559972e+000	-6.3040945176e+000
 1.9561028136e-001	 1.0570532710e+000	-6.3813243428e+000
 3.0267403634e-001	 1.0575388540e+000	-4.5839914302e+000
 2.9240961722e-001	 1.0604228476e+000	-4.7212396046e+000
 2.8214403546e-001	 1.0632002366e+000	-4.8509050426e+000
 2.7187883559e-001	 1.0658714269e+000	-4.9726582726e+000
 2.6161554606e-001	 1.0684368517e+000	-5.0861803437e+000
 2.5135567866e-001	 1.0708969711e+000	-5.1911630681e+000
 2.4110072806e-001	 1.0732522718e+000	-5.2873092430e+000
 2.3085217120e-001	 1.0755032659e+000	-5.3743328512e+000
 2.2061146690e-001	 1.0776504909e+000	-5.4519592402e+000
 2.1038005535e-001	 1.0796945088e+000	-5.5199252812e+000
 2.0015935767e-001	 1.0816359052e+000	-5.5779795072e+000
 3.0955299172e-001	 1.0815738279e+000	-4.0759605079e+000
 2.9905529035e-001	 1.0845233669e+000	-4.1944117227e+000
 2.8855639991e-001	 1.0873638784e+000	-4.3054660109e+000
 2.7805790004e-001	 1.0900957775e+000	-4.4088011653e+000
 2.6756135392e-001	 1.0927195074e+000	-4.5041054108e+000
 2.5706830773e-001	 1.0952355386e+000	-4.5910776488e+000
 2.4658029006e-001	 1.0976443689e+000	-4.6694276801e+000
 2.3609881145e-001	 1.0999465220e+000	-4.7388764058e+000
 2.2562536387e-001	 1.1021425476e+000	-4.7991560079e+000
 2.1516142024e-001	 1.1042330203e+000	-4.8500101084e+000
 2.0470843398e-001	 1.1062185395e+000	-4.8911939075e+000
 3.1643194709e-001	 1.1056088019e+000	-3.6537969151e+000
 3.0570096347e-001	 1.1086238861e+000	-3.7559570970e+000
 2.9496876435e-001	 1.1115275201e+000	-3.8508781931e+000
 2.8423696448e-001	 1.1143201281e+000	-3.9382439685e+000
 2.7350716179e-001	 1.1170021631e+000	-4.0177485735e+000
 2.6278093679e-001	 1.1195741062e+000	-4.0890967896e+000
 2.5205985206e-001	 1.1220364660e+000	-4.1520042541e+000
 2.4134545170e-001	 1.1243897780e+000	-4.2061976628e+000
 2.3063926085e-001	 1.1266346042e+000	-4.2514149516e+000
 2.1994278513e-001	 1.1287715319e+000	-4.2874054566e+000
 2.0925751029e-001	 1.1308011737e+000	-4.3139300529e+000
 3.2331090246e-001	 1.1296437758e+000	-3.3119156513e+000
 3.1234663659e-001	 1.1327244054e+000	-3.4001992213e+000
 3.0138112879e-001	 1.1356911619e+000	-3.4813742957e+000
 2.9041602893e-001	 1.1385444787e+000	-3.5551293439e+000
 2.7945296965e-001	 1.1412848188e+000	-3.6211632137e+000
 2.6849356585e-001	 1.1439126737e+000	-3.6791853799e+000
 2.5753941406e-001	 1.1464285630e+000	-3.7289161716e+000
 2.4659209196e-001	 1.1488330341e+000	-3.7700869768e+000
 2.3565315782e-001	 1.1511266608e+000	-3.8024404256e+000
 2.2472415003e-001	 1.1533100435e+000	-3.8257305517e+000
 2.1380658660e-001	 1.1553838079e+000	-3.8397229324e+000
 3.3018985783e-001	 1.1536787498e+000	-3.0451532037e+000
 3.1899230970e-001	 1.1568249247e+000	-3.1218926114e+000
 3.0779349323e-001	 1.1598548036e+000	-3.1916275020e+000
 2.9659509337e-001	 1.1627688294e+000	-3.2540498011e+000
 2.8539877752e-001	 1.1655674746e+000	-3.3088618458e+000
 2.7420619490e-001	 1.1682512412e+000	-3.3557766369e+000
 2.6301897606e-001	 1.1708206601e+000	-3.3945180689e+000
 2.5183873221e-001	 1.1732762901e+000	-3.4248211378e+000
 2.4066705479e-001	 1.1756187174e+000	-3.4464321261e+000
 2.2950551492e-001	 1.1778485550e+000	-3.4591087662e+000
 2.1835566291e-001	 1.1799664421e+000	-3.4626203816e+000
 3.3706881320e-001	 1.1777137238e+000	-2.8487245377e+000
 3.2563798282e-001	 1.1809254439e+000	-2.9161788232e+000
 3.1420585767e-001	 1.1840184454e+000	-2.9767065255e+000
 3.0277415782e-001	 1.1869931800e+000	-3.0300017952e+000
 2.9134458538e-001	 1.1898501303e+000	-3.0757692672e+000
 2.7991882396e-001	 1.1925898088e+000	-3.1137243171e+000
 2.6849853806e-001	 1.1952127572e+000	-3.1435932947e+000
 2.5708537246e-001	 1.1977195461e+000	-3.1651137351e+000
 2.4568095177e-001	 1.2001107740e+000	-3.1780345465e+000
 2.3428687981e-001	 1.2023870666e+000	-3.1821161757e+000
 2.2290473922e-001	 1.2045490763e+000	-3.1771307512e+000
 3.4394776857e-001	 1.2017486977e+000	-2.7181852496e+000
 3.3228365593e-001	 1.2050259632e+000	-2.7785477487e+000
 3.2061822211e-001	 1.2081820871e+000	-2.8320360566e+000
 3.0895322226e-001	 1.2112175306e+000	-2.8783453318e+000
 2.9729039324e-001	 1.2141327860e+000	-2.9171813295e+000
 2.8563145302e-001	 1.2169283763e+000	-2.9482606624e+000
 2.7397810005e-001	 1.2196048543e+000	-2.9713110387e+000
 2.6233201271e-001	 1.2221628022e+000	-2.9860714770e+000
 2.5069484874e-001	 1.2246028306e+000	-2.9922924972e+000
 2.3906824470e-001	 1.2269255782e+000	-2.9897362888e+000
 2.2745381553e-001	 1.2291317105e+000	-2.9781768559e+000
 1.8196305243e-001	 9.8330536841e-001	-9.5711791317e+000
 1.7268252319e-001	 9.8497753588e-001	-9.7390453771e+000
 1.6341426419e-001	 9.8655753926e-001	-9.8973384817e+000
 1.5415951315e-001	 9.8804597288e-001	-1.0045879204e+001
 1.4491948905e-001	 9.8944345050e-001	-1.0184497719e+001
 1.3569539180e-001	 9.9075060469e-001	-1.0313033660e+001
 1.2648840201e-001	 9.9196808628e-001	-1.0431336152e+001
 1.1729968064e-001	 9.9309656377e-001	-1.0539263819e+001
 1.0813036885e-001	 9.9413672268e-001	-1.0636684791e+001
 9.8981587693e-002	 9.9508926501e-001	-1.0723476686e+001
 8.9854437932e-002	 9.9595490863e-001	-1.0799526585e+001
 1.8651212874e-001	 1.0078880026e+000	-8.3691229724e+000
 1.7699958627e-001	 1.0096019743e+000	-8.5193246101e+000
 1.6749962079e-001	 1.0112214777e+000	-8.6600710546e+000
 1.5801350098e-001	 1.0127471222e+000	-8.7911873167e+000
 1.4854247627e-001	 1.0141795368e+000	-8.9125078728e+000
 1.3908777659e-001	 1.0155193698e+000	-9.0238767065e+000
 1.2965061205e-001	 1.0167672884e+000	-9.1251473344e+000
 1.2023217266e-001	 1.0179239779e+000	-9.2161828190e+000
 1.1083362807e-001	 1.0189901407e+000	-9.2968557656e+000
 1.0145612738e-001	 1.0199664966e+000	-9.3670483068e+000
 9.2100798875e-002	 1.0208537813e+000	-9.4266520730e+000
 1.9106120505e-001	 1.0324706368e+000	-7.3089065375e+000
 1.8131664935e-001	 1.0342264127e+000	-7.4431746258e+000
 1.7158497739e-001	 1.0358854162e+000	-7.5680772072e+000
 1.6186748880e-001	 1.0374482715e+000	-7.6834427970e+000
 1.5216546349e-001	 1.0389156230e+000	-7.7891094615e+000
 1.4248016138e-001	 1.0402881349e+000	-7.8849248579e+000
 1.3281282210e-001	 1.0415664906e+000	-7.9707462582e+000
 1.2316466467e-001	 1.0427513919e+000	-8.0464405589e+000
 1.1353688729e-001	 1.0438435588e+000	-8.1118842762e+000
 1.0393066707e-001	 1.0448437283e+000	-8.1669635268e+000
 9.4347159819e-002	 1.0457526541e+000	-8.2115739953e+000
 1.9561028136e-001	 1.0570532710e+000	-6.3813243428e+000
 1.8563371242e-001	 1.0588508511e+000	-6.5013223455e+000
 1.7567033400e-001	 1.0605493547e+000	-6.6120166804e+000
 1.6572147663e-001	 1.0621494208e+000	-6.7132386355e+000
 1.5578845071e-001	 1.0636517093e+000	-6.8048291718e+000
 1.4587254618e-001	 1.0650569000e+000	-6.8866389607e+000
 1.3597503214e-001	 1.0663656927e+000	-6.9585284063e+000
 1.2609715668e-001	 1.0675788060e+000	-7.0203676525e+000
 1.1624014650e-001	 1.0686969769e+000	-7.0720365754e+000
 1.0640520676e-001	 1.0697209599e+000	-7.1134247608e+000
 9.6593520764e-002	 1.0706515268e+000	-7.1444314683e+000
 2.0015935767e-001	 1.0816359052e+000	-5.5779795072e+000
 1.8995077550e-001	 1.0834752895e+000	-5.6853112369e+000
 1.7975569060e-001	 1.0852132932e+000	-5.7833736314e+000
 1.6957546445e-001	 1.0868505702e+000	-5.8720000339e+000
 1.5941143794e-001	 1.0883877955e+000	-5.9510336179e+000
 1.4926493097e-001	 1.0898256651e+000	-6.0203274235e+000
 1.3913724219e-001	 1.0911648949e+000	-6.0797443770e+000
 1.2902964869e-001	 1.0924062201e+000	-6.1291572961e+000
 1.1894340572e-001	 1.0935503949e+000	-6.1684488784e+000
 1.0887974645e-001	 1.0945981915e+000	-6.1975116770e+000
 9.8839881709e-002	 1.0955503995e+000	-6.2162480598e+000
 2.0470843398e-001	 1.1062185395e+000	-4.8911939075e+000
 1.9426783858e-001	 1.1080997279e+000	-4.9874105866e+000
 1.8384104720e-001	 1.1098772317e+000	-5.0743650323e+000
 1.7342945228e-001	 1.1115517195e+000	-5.1518919368e+000
 1.6303442516e-001	 1.1131238818e+000	-5.2198360161e+000
 1.5265731576e-001	 1.1145944303e+000	-5.2780520441e+000
 1.4229945224e-001	 1.1159640970e+000	-5.3264048712e+000
 1.3196214071e-001	 1.1172336342e+000	-5.3647694257e+000
 1.2164666494e-001	 1.1184038130e+000	-5.3930307004e+000
 1.1135428614e-001	 1.1194754231e+000	-5.4110837240e+000
 1.0108624265e-001	 1.1204492722e+000	-5.4188335171e+000
 2.0925751029e-001	 1.1308011737e+000	-4.3139300529e+000
 1.9858490166e-001	 1.1327241663e+000	-4.4005366067e+000
 1.8792640381e-001	 1.1345411701e+000	-4.4778610160e+000
 1.7728344011e-001	 1.1362528688e+000	-4.5457386253e+000
 1.6665741239e-001	 1.1378599681e+000	-4.6040150320e+000
 1.5604970055e-001	 1.1393631954e+000	-4.6525461194e+000
 1.4546166229e-001	 1.1407632992e+000	-4.6911980722e+000
 1.3489463272e-001	 1.1420610483e+000	-4.7198473764e+000
 1.2434992416e-001	 1.1432572311e+000	-4.7383808023e+000
 1.1382882583e-001	 1.1443526547e+000	-4.7466953722e+000
 1.0333260360e-001	 1.1453481449e+000	-4.7446983128e+000
 2.1380658660e-001	 1.1553838079e+000	-3.8397229324e+000
 2.0290196474e-001	 1.1573486046e+000	-3.9181836130e+000
 1.9201176041e-001	 1.1592051086e+000	-3.9873153911e+000
 1.8113742794e-001	 1.1609540181e+000	-4.0469535743e+000
 1.7028039961e-001	 1.1625960543e+000	-4.0969439886e+000
 1.5944208535e-001	 1.1641319605e+000	-4.1371430089e+000
 1.4862387233e-001	 1.1655625014e+000	-4.1674175733e+000
 1.3782712473e-001	 1.1668884624e+000	-4.1876451798e+000
 1.2705318338e-001	 1.1681106491e+000	-4.1977138664e+000
 1.1630336552e-001	 1.1692298864e+000	-4.1975221748e+000
 1.0557896455e-001	 1.1702470176e+000	-4.1869790990e+000
 2.1835566291e-001	 1.1799664421e+000	-3.4626203816e+000
 2.0721902781e-001	 1.1819730430e+000	-3.5343638061e+000
 1.9609711701e-001	 1.1838690471e+000	-3.5967048424e+000
 1.8499141576e-001	 1.1856551674e+000	-3.6494780787e+000
 1.7390338684e-001	 1.1873321406e+000	-3.6925289222e+000
 1.6283447014e-001	 1.1889007256e+000	-3.7257136287e+000
 1.5178608238e-001	 1.1903617035e+000	-3.7488993144e+000
 1.4075961675e-001	 1.1917158765e+000	-3.7619639503e+000
 1.2975644260e-001	 1.1929640672e+000	-3.7647963385e+000
 1.1877790521e-001	 1.1941071180e+000	-3.7572960725e+000
 1.0782532549e-001	 1.1951458903e+000	-3.7393734812e+000
 2.2290473922e-001	 1.2045490763e+000	-3.1771307512e+000
 2.1153609089e-001	 1.2065974814e+000	-3.2435544254e+000
 2.0018247362e-001	 1.2085329856e+000	-3.3004755760e+000
 1.8884540359e-001	 1.2103563168e+000	-3.3477273936e+000
 1.7752637406e-001	 1.2120682268e+000	-3.3851542243e+000
 1.6622685494e-001	 1.2136694907e+000	-3.4126115984e+000
 1.5494829243e-001	 1.2151609057e+000	-3.4299662405e+000
 1.4369210877e-001	 1.2165432906e+000	-3.4370960599e+000
 1.3245970182e-001	 1.2178174853e+000	-3.4338901249e+000
 1.2125244490e-001	 1.2189843496e+000	-3.4202486184e+000
 1.1007168644e-001	 1.2200447631e+000	-3.3960827771e+000
 2.2745381553e-001	 1.2291317105e+000	-2.9781768559e+000
 2.1585315397e-001	 1.2312219198e+000	-3.0406512458e+000
 2.0426783022e-001	 1.2331969241e+000	-3.0934963675e+000
 1.9269939142e-001	 1.2350574661e+000	-3.1365433388e+000
 1.8114936129e-001	 1.2368043131e+000	-3.1696348059e+000
 1.6961923973e-001	 1.2384382558e+000	-3.1926249712e+000
 1.5811050249e-001	 1.2399601078e+000	-3.2053796007e+000
 1.4662460078e-001	 1.2413707047e+000	-3.2077760126e+000
 1.3516296104e-001	 1.2426709033e+000	-3.1997030468e+000
 1.2372698459e-001	 1.2438615812e+000	-3.1810610173e+000
 1.1231804739e-001	 1.2449436358e+000	-3.1517616464e+000
 8.9854437932e-002	 9.9595490863e-001	-1.0799526585e+001
 8.0749999857e-002	 9.9673438666e-001	-1.0857845198e+001
 7.1669333105e-002	 9.9742844692e-001	-1.0906135229e+001
 6.2613476500e-002	 9.9803785128e-001	-1.0944590536e+001
 5.3583447921e-002	 9.9856337512e-001	-1.0973407703e+001
 4.4580244178e-002	 9.9900580671e-001	-1.0992785843e+001
 3.5604840910e-002	 9.9936594664e-001	-1.1002926410e+001
 2.6658192499e-002	 9.9964460724e-001	-1.1004033002e+001
 1.7741231999e-002	 9.9984261196e-001	-1.0996311166e+001
 8.8548710816e-003	 9.9996079486e-001	-1.0979968211e+001
 0.0000000000e+000	 1.0000000000e+000	-1.0955213008e+001
 9.2100798875e-002	 1.0208537813e+000	-9.4266520730e+000
 8.2768749849e-002	 1.0216527463e+000	-9.4953155382e+000
 7.3461066429e-002	 1.0223641581e+000	-9.5539896899e+000
 6.4178813409e-002	 1.0229887976e+000	-9.6028276753e+000
 5.4923034116e-002	 1.0235274595e+000	-9.6419863484e+000
 4.5694750280e-002	 1.0239809519e+000	-9.6716260916e+000
 3.6494961931e-002	 1.0243500953e+000	-9.6919106349e+000
 2.7324647310e-002	 1.0246357224e+000	-9.7030068740e+000
 1.8184762798e-002	 1.0248386773e+000	-9.7050846869e+000
 9.0762428582e-003	 1.0249598147e+000	-9.6983167497e+000
 0.0000000000e+000	 1.0250000000e+000	-9.6828783521e+000
 9.4347159819e-002	 1.0457526541e+000	-8.2115739953e+000
 8.4787499842e-002	 1.0465711060e+000	-8.2872326519e+000
 7.5252799753e-002	 1.0472998693e+000	-8.3529241573e+000
 6.5744150319e-002	 1.0479397438e+000	-8.4087622356e+000
 5.6262620311e-002	 1.0484915439e+000	-8.4548652975e+000
 4.6809256382e-002	 1.0489560970e+000	-8.4913562756e+000
 3.7385082952e-002	 1.0493342440e+000	-8.5183624564e+000
 2.7991102121e-002	 1.0496268376e+000	-8.5360153094e+000
 1.8628293597e-002	 1.0498347426e+000	-8.5444503122e+000
 9.2976146348e-003	 1.0499588346e+000	-8.5438067746e+000
 0.0000000000e+000	 1.0500000000e+000	-8.5342276598e+000
 9.6593520764e-002	 1.0706515268e+000	-7.1444314683e+000
 8.6806249835e-002	 1.0714894657e+000	-7.2240056158e+000
 7.7044533077e-002	 1.0722355804e+000	-7.2936170494e+000
 6.7309487228e-002	 1.0728906901e+000	-7.3533412540e+000
 5.7602206507e-002	 1.0734556282e+000	-7.4032593814e+000
 4.7923762484e-002	 1.0739312422e+000	-7.4434580989e+000
 3.8275203973e-002	 1.0743183926e+000	-7.4740294331e+000
 2.8657556932e-002	 1.0746179528e+000	-7.4950706084e+000
 1.9071824396e-002	 1.0748308079e+000	-7.5066838811e+000
 9.5189864113e-003	 1.0749578545e+000	-7.5089763699e+000
 0.0000000000e+000	 1.0750000000e+000	-7.5020598819e+000
 9.8839881709e-002	 1.0955503995e+000	-6.2162480598e+000
 8.8824999828e-002	 1.0964078253e+000	-6.2969048180e+000
 7.8836266402e-002	 1.0971712916e+000	-6.3675849675e+000
 6.8874824138e-002	 1.0978416364e+000	-6.4283268436e+000
 5.8941792703e-002	 1.0984197126e+000	-6.4791754315e+000
 4.9038268587e-002	 1.0989063874e+000	-6.5201822278e+000
 3.9165324994e-002	 1.0993025413e+000	-6.5514050946e+000
 2.9324011743e-002	 1.0996090680e+000	-6.5729081074e+000
 1.9515355195e-002	 1.0998268732e+000	-6.5847613964e+000
 9.7403581879e-003	 1.0999568743e+000	-6.5870409829e+000
 0.0000000000e+000	 1.1000000000e+000	-6.5798286101e+000
 1.0108624265e-001	 1.1204492722e+000	-5.4188335171e+000
 9.0843749822e-002	 1.1213261850e+000	-5.4979662566e+000
 8.0627999727e-002	 1.1221070028e+000	-5.5670895645e+000
 7.0440161048e-002	 1.1227925827e+000	-5.6262056296e+000
 6.0281378898e-002	 1.1233837970e+000	-5.6753242788e+000
 5.0152774689e-002	 1.1238815325e+000	-5.7144628500e+000
 4.0055446015e-002	 1.1242866900e+000	-5.7436460561e+000
 2.9990466555e-002	 1.1246001831e+000	-5.7629058410e+000
 1.9958885994e-002	 1.1248229385e+000	-5.7722812281e+000
 9.9617299645e-003	 1.1249558942e+000	-5.7718181611e+000
 0.0000000000e+000	 1.1250000000e+000	-5.7615693386e+000
 1.0333260360e-001	 1.1453481449e+000	-4.7446983128e+000
 9.2862499816e-002	 1.1462445446e+000	-4.8199083212e+000
 8.2419733053e-002	 1.1470427139e+000	-4.8850565611e+000
 7.2005497959e-002	 1.1477435290e+000	-4.9401099986e+000
 6.1620965094e-002	 1.1483478814e+000	-4.9850442328e+000
 5.1267280792e-002	 1.1488566777e+000	-5.0198433794e+000
 4.0945567036e-002	 1.1492708386e+000	-5.0444999436e+000
 3.0656921366e-002	 1.1495912983e+000	-5.0590146838e+000
 2.0402416793e-002	 1.1498190038e+000	-5.0633964654e+000
 1.0183101741e-002	 1.1499549141e+000	-5.0576621064e+000
 0.0000000000e+000	 1.1500000000e+000	-5.0418362146e+000
 1.0557896455e-001	 1.1702470176e+000	-4.1869790990e+000
 9.4881249811e-002	 1.1711629043e+000	-4.2560591981e+000
 8.4211466378e-002	 1.1719784251e+000	-4.3150051003e+000
 7.3570834869e-002	 1.1726944752e+000	-4.3637494000e+000
 6.2960551291e-002	 1.1733119658e+000	-4.4022343280e+000
 5.2381786895e-002	 1.1738318229e+000	-4.4304116444e+000
 4.1835688057e-002	 1.1742549873e+000	-4.4482425208e+000
 3.1323376177e-002	 1.1745824135e+000	-4.4556974097e+000
 2.0845947592e-002	 1.1748150691e+000	-4.4527559036e+000
 1.0404473518e-002	 1.1749539340e+000	-4.4394065844e+000
 0.0000000000e+000	 1.1750000000e+000	-4.4156468621e+000
 1.0782532549e-001	 1.1951458903e+000	-3.7393734812e+000
 9.6899999806e-002	 1.1960812640e+000	-3.8002933498e+000
 8.6003199704e-002	 1.1969141363e+000	-3.8509859325e+000
 7.5136171780e-002	 1.1976454215e+000	-3.8913502356e+000
 6.4300137487e-002	 1.1982760501e+000	-3.9212959149e+000
 5.3496292997e-002	 1.1988069680e+000	-3.9407431783e+000
 4.2725809079e-002	 1.1992391360e+000	-3.9496226745e+000
 3.1989830989e-002	 1.1995735287e+000	-3.9478753693e+000
 2.1289478391e-002	 1.1998111344e+000	-3.9354524085e+000
 1.0625845294e-002	 1.1999529538e+000	-3.9123149698e+000
 0.0000000000e+000	 1.2000000000e+000	-3.8784341029e+000
 1.1007168644e-001	 1.2200447631e+000	-3.3960827771e+000
 9.8918749801e-002	 1.2209996236e+000	-3.4469757722e+000
 8.7794933031e-002	 1.2218498475e+000	-3.4875271699e+000
 7.6701508691e-002	 1.2225963678e+000	-3.5176031093e+000
 6.5639723683e-002	 1.2232401345e+000	-3.5370814041e+000
 5.4610799100e-002	 1.2237821132e+000	-3.5458514532e+000
 4.3615930100e-002	 1.2242232846e+000	-3.5438141366e+000
 3.2656285800e-002	 1.2245646439e+000	-3.5308816962e+000
 2.1733009191e-002	 1.2248071996e+000	-3.5069776026e+000
 1.0847217071e-002	 1.2249519737e+000	-3.4720364085e+000
 0.0000000000e+000	 1.2250000000e+000	-3.4260035898e+000
 1.1231804739e-001	 1.2449436358e+000	-3.1517616464e+000
 1.0093749980e-001	 1.2459179833e+000	-3.1909129418e+000
 8.9586666357e-002	 1.2467855586e+000	-3.2195865502e+000
 7.8266845602e-002	 1.2475473141e+000	-3.2376164068e+000
 6.6979309880e-002	 1.2482042189e+000	-3.2448491593e+000
 5.5725305204e-002	 1.2487572584e+000	-3.2411440866e+000
 4.4506051122e-002	 1.2492074333e+000	-3.2263730000e+000
 3.3322740611e-002	 1.2495557590e+000	-3.2004201289e+000
 2.2176539990e-002	 1.2498032649e+000	-3.1631819897e+000
 1.1068588847e-002	 1.2499509936e+000	-3.1145672409e+000
 0.0000000000e+000	 1.2500000000e+000	-3.0544965234e+000
 1.2500000000e+000	 0.0000000000e+000	 4.1143334281e+000
 1.2499509936e+000	 1.1068588847e-002	 4.1223832579e+000
 1.2498032649e+000	 2.2176539990e-002	 4.1255843625e+000
 1.2495557590e+000	 3.3322740611e-002	 4.1238215080e+000
 1.2492074333e+000	 4.4506051122e-002	 4.1169807329e+000
 1.2487572584e+000	 5.5725305204e-002	 4.1049495104e+000
 1.2482042189e+000	 6.6979309880e-002	 4.0876169129e+000
 1.2475473141e+000	 7.8266845602e-002	 4.0648737777e+000
 1.2467855586e+000	 8.9586666357e-002	 4.0366128733e+000
 1.2459179833e+000	 1.0093749980e-001	 4.0027290675e+000
 1.2449436358e+000	 1.1231804739e-001	 3.9631194948e+000
 1.2750000000e+000	 0.0000000000e+000	 3.9915836233e+000
 1.2749500134e+000	 1.1289960624e-002	 4.0027744350e+000
 1.2747993302e+000	 2.2620070789e-002	 4.0101995069e+000
 1.2745468742e+000	 3.3989195423e-002	 4.0138193742e+000
 1.2741915820e+000	 4.5396172143e-002	 4.0135882355e+000
 1.2737324036e+000	 5.6839811307e-002	 4.0094536706e+000
 1.2731683033e+000	 6.8318896077e-002	 4.0013563613e+000
 1.2724982604e+000	 7.9832182514e-002	 3.9892298162e+000
 1.2717212698e+000	 9.1378399684e-002	 3.9730000989e+000
 1.2708363430e+000	 1.0295624979e-001	 3.9525855632e+000
 1.2698425085e+000	 1.1456440834e-001	 3.9278965928e+000
 1.3000000000e+000	 0.0000000000e+000	 3.8931619504e+000
 1.2999490333e+000	 1.1511332401e-002	 3.9061112530e+000
 1.2997953955e+000	 2.3063601588e-002	 3.9148782212e+000
 1.2995379894e+000	 3.4655650234e-002	 3.9194222690e+000
 1.2991757306e+000	 4.6286293165e-002	 3.9196963790e+000
 1.2987075487e+000	 5.7954317410e-002	 3.9156468097e+000
 1.2981323876e+000	 6.9658482273e-002	 3.9072128058e+000
 1.2974492067e+000	 8.1397519425e-002	 3.8943263131e+000
 1.2966569810e+000	 9.3170133010e-002	 3.8769116963e+000
 1.2957547027e+000	 1.0497499979e-001	 3.8548854639e+000
 1.2947413812e+000	 1.1681076929e-001	 3.8281559984e+000
 1.3250000000e+000	 0.0000000000e+000	 3.8185208732e+000
 1.3249480532e+000	 1.1732704177e-002	 3.8325731084e+000
 1.3247914608e+000	 2.3507132387e-002	 3.8420570697e+000
 1.3245291046e+000	 3.5322105045e-002	 3.8469318203e+000
 1.3241598793e+000	 4.7176414186e-002	 3.8471498777e+000
 1.3236826939e+000	 5.9068823513e-002	 3.8426569098e+000
 1.3230964720e+000	 7.0998068470e-002	 3.8333914338e+000
 1.3224001529e+000	 8.2962856336e-002	 3.8192845184e+000
 1.3215926922e+000	 9.4961866336e-002	 3.8002594909e+000
 1.3206730623e+000	 1.0699374978e-001	 3.7762316505e+000
 1.3196402539e+000	 1.1905713023e-001	 3.7471079864e+000
 1.3500000000e+000	 0.0000000000e+000	 3.7671534133e+000
 1.3499470731e+000	 1.1954075954e-002	 3.7816417916e+000
 1.3497875261e+000	 2.3950663186e-002	 3.7912062592e+000
 1.3495202198e+000	 3.5988559857e-002	 3.7958063026e+000
 1.3491440280e+000	 4.8066535207e-002	 3.7953947303e+000
 1.3486578391e+000	 6.0183329615e-002	 3.7899173547e+000
 1.3480605564e+000	 7.2337654666e-002	 3.7793126787e+000
 1.3473510992e+000	 8.4528193246e-002	 3.7635115844e+000
 1.3465284033e+000	 9.6753599662e-002	 3.7424370274e+000
 1.3455914220e+000	 1.0901249978e-001	 3.7160037369e+000
 1.3445391266e+000	 1.2130349118e-001	 3.6841179215e+000
 1.3750000000e+000	 0.0000000000e+000	 3.7385894640e+000
 1.3749460929e+000	 1.2175447730e-002	 3.7528354954e+000
 1.3747835914e+000	 2.4394193985e-002	 3.7618319957e+000
 1.3745113349e+000	 3.6655014668e-002	 3.7655396548e+000
 1.3741281766e+000	 4.8956656228e-002	 3.7639123324e+000
 1.3736329842e+000	 6.1297835718e-002	 3.7568967262e+000
 1.3730246408e+000	 7.3677240862e-002	 3.7444320431e+000
 1.3723020455e+000	 8.6093530156e-002	 3.7264496739e+000
 1.3714641145e+000	 9.8545332987e-002	 3.7028728732e+000
 1.3705097816e+000	 1.1103124977e-001	 3.6736164446e+000
 1.3694379994e+000	 1.2354985212e-001	 3.6385864328e+000
 1.4000000000e+000	 0.0000000000e+000	 3.7323924971e+000
 1.3999451128e+000	 1.2396819507e-002	 3.7457055645e+000
 1.3997796567e+000	 2.4837724784e-002	 3.7534732711e+000
 1.3995024501e+000	 3.7321469479e-002	 3.7556582957e+000
 1.3991123253e+000	 4.9846777250e-002	 3.7522163163e+000
 1.3986081294e+000	 6.2412341821e-002	 3.7430956618e+000
 1.3979887252e+000	 7.5016827058e-002	 3.7282369677e+000
 1.3972529918e+000	 8.7658867067e-002	 3.7075728345e+000
 1.3963998257e+000	 1.0033706631e-001	 3.6810274918e+000
 1.3954281413e+000	 1.1304999977e-001	 3.6485164677e+000
 1.3943368721e+000	 1.2579621307e-001	 3.6099462653e+000
 1.4250000000e+000	 0.0000000000e+000	 3.7481566183e+000
 1.4249441327e+000	 1.2618191283e-002	 3.7598335880e+000
 1.4247757220e+000	 2.5281255584e-002	 3.7656989868e+000
 1.4244935653e+000	 3.7987924290e-002	 3.7657182752e+000
 1.4240964740e+000	 5.0736898271e-002	 3.7598497227e+000
 1.4235832746e+000	 6.3526847923e-002	 3.7480440426e+000
 1.4229528095e+000	 7.6356413254e-002	 3.7302440296e+000
 1.4222039381e+000	 8.9224203976e-002	 3.7063842014e+000
 1.4213355368e+000	 1.0212879964e-001	 3.6763904449e+000
 1.4203465010e+000	 1.1506874976e-001	 3.6401796687e+000
 1.4192357448e+000	 1.2804257402e-001	 3.5976594625e+000
 1.4500000000e+000	 0.0000000000e+000	 3.7855039260e+000
 1.4499431525e+000	 1.2839563060e-002	 3.7948287915e+000
 1.4497717873e+000	 2.5724786383e-002	 3.7981053752e+000
 1.4494846805e+000	 3.8654379101e-002	 3.7953027193e+000
 1.4490806226e+000	 5.1627019292e-002	 3.7863824658e+000
 1.4485584197e+000	 6.4641354025e-002	 3.7712984723e+000
 1.4479168939e+000	 7.7695999449e-002	 3.7499964306e+000
 1.4471548843e+000	 9.0789540886e-002	 3.7224134899e+000
 1.4462712480e+000	 1.0392053296e-001	 3.6884778838e+000
 1.4452648606e+000	 1.1708749975e-001	 3.6481085638e+000
 1.4441346175e+000	 1.3028893496e-001	 3.6012148407e+000
 1.4750000000e+000	 0.0000000000e+000	 3.8440821388e+000
 1.4749421724e+000	 1.3060934837e-002	 3.8503256954e+000
 1.4747678526e+000	 2.6168317182e-002	 3.8503136839e+000
 1.4744757957e+000	 3.9320833912e-002	 3.8440195364e+000
 1.4740647713e+000	 5.2517140313e-002	 3.8314090560e+000
 1.4735335649e+000	 6.5755860127e-002	 3.8124400125e+000
 1.4728809783e+000	 7.9035585644e-002	 3.7870617408e+000
 1.4721058306e+000	 9.2354877796e-002	 3.7552147430e+000
 1.4712069592e+000	 1.0571226629e-001	 3.7168302959e+000
 1.4701832203e+000	 1.1910624974e-001	 3.6718300640e+000
 1.4690334902e+000	 1.3253529590e-001	 3.6201257205e+000
 1.5000000000e+000	 0.0000000000e+000	 3.9235624610e+000
 1.4999411923e+000	 1.3282306613e-002	 3.9259820069e+000
 1.4997639179e+000	 2.6611847981e-002	 3.9219680908e+000
 1.4994669109e+000	 3.9987288723e-002	 3.9114993513e+000
 1.4990489200e+000	 5.3407261333e-002	 3.8945465499e+000
 1.4985087101e+000	 6.6870366229e-002	 3.8710721450e+000
 1.4978450627e+000	 8.0375171839e-002	 3.8410298680e+000
 1.4970567769e+000	 9.3920214705e-002	 3.8043643040e+000
 1.4961426704e+000	 1.0750399961e-001	 3.7610104773e+000
 1.4951015800e+000	 1.2112499974e-001	 3.7108934425e+000
 1.4939323629e+000	 1.3478165685e-001	 3.6539278840e+000
 1.2449436358e+000	 1.1231804739e-001	 3.9631194948e+000
 1.2438615812e+000	 1.2372698459e-001	 3.9476654201e+000
 1.2426709033e+000	 1.3516296104e-001	 3.9257890902e+000
 1.2413707047e+000	 1.4662460078e-001	 3.8973959271e+000
 1.2399601078e+000	 1.5811050249e-001	 3.8623950035e+000
 1.2384382558e+000	 1.6961923973e-001	 3.8206992232e+000
 1.2368043131e+000	 1.8114936129e-001	 3.7722254981e+000
 1.2350574661e+000	 1.9269939142e-001	 3.7168949234e+000
 1.2331969241e+000	 2.0426783022e-001	 3.6546329485e+000
 1.2312219198e+000	 2.1585315397e-001	 3.5853695452e+000
 1.2291317105e+000	 2.2745381553e-001	 3.5090393707e+000
 1.2698425085e+000	 1.1456440834e-001	 3.9278965928e+000
 1.2687388129e+000	 1.2620152428e-001	 3.9296669756e+000
 1.2675243214e+000	 1.3786622027e-001	 3.9265219115e+000
 1.2661981188e+000	 1.4955709280e-001	 3.9183508349e+000
 1.2647593100e+000	 1.6127271254e-001	 3.9050350015e+000
 1.2632070210e+000	 1.7301162453e-001	 3.8864472863e+000
 1.2615403994e+000	 1.8477234852e-001	 3.8624519907e+000
 1.2597586154e+000	 1.9655337925e-001	 3.8329046633e+000
 1.2578608626e+000	 2.0835318683e-001	 3.7976519320e+000
 1.2558463582e+000	 2.2017021705e-001	 3.7565313508e+000
 1.2537143447e+000	 2.3200289184e-001	 3.7093712606e+000
 1.2947413812e+000	 1.1681076929e-001	 3.8281559984e+000
 1.2936160445e+000	 1.2867606398e-001	 3.8285523661e+000
 1.2923777395e+000	 1.4056947949e-001	 3.8236599479e+000
 1.2910255329e+000	 1.5248958481e-001	 3.8133695002e+000
 1.2895585122e+000	 1.6443492259e-001	 3.7975634414e+000
 1.2879757861e+000	 1.7640400932e-001	 3.7761156369e+000
 1.2862764856e+000	 1.8839533574e-001	 3.7488911959e+000
 1.2844597647e+000	 2.0040736708e-001	 3.7157462805e+000
 1.2825248010e+000	 2.1243854343e-001	 3.6765279272e+000
 1.2804707966e+000	 2.2448728013e-001	 3.6310738836e+000
 1.2782969789e+000	 2.3655196814e-001	 3.5792124591e+000
 1.3196402539e+000	 1.1905713023e-001	 3.7471079864e+000
 1.3184932761e+000	 1.3115060367e-001	 3.7460469273e+000
 1.3172311575e+000	 1.4327273871e-001	 3.7393597666e+000
 1.3158529470e+000	 1.5542207683e-001	 3.7269389959e+000
 1.3143577143e+000	 1.6759713264e-001	 3.7086685746e+000
 1.3127445512e+000	 1.7979639412e-001	 3.6844237026e+000
 1.3110125719e+000	 1.9201832297e-001	 3.6540706047e+000
 1.3091609141e+000	 2.0426135491e-001	 3.6174663266e+000
 1.3071887395e+000	 2.1652390003e-001	 3.5744585457e+000
 1.3050952350e+000	 2.2880434321e-001	 3.5248853949e+000
 1.3028796131e+000	 2.4110104445e-001	 3.4685753033e+000
 1.3445391266e+000	 1.2130349118e-001	 3.6841179215e+000
 1.3433705078e+000	 1.3362514336e-001	 3.6814884872e+000
 1.3420845756e+000	 1.4597599793e-001	 3.6729314216e+000
 1.3406803611e+000	 1.5835456884e-001	 3.6583413727e+000
 1.3391569165e+000	 1.7075934268e-001	 3.6376042294e+000
 1.3375133163e+000	 1.8318877891e-001	 3.6105968795e+000
 1.3357486582e+000	 1.9564131019e-001	 3.5771869799e+000
 1.3338620634e+000	 2.0811534273e-001	 3.5372327399e+000
 1.3318526780e+000	 2.2060925664e-001	 3.4905827177e+000
 1.3297196734e+000	 2.3312140629e-001	 3.4370756327e+000
 1.3274622474e+000	 2.4565012076e-001	 3.3765401934e+000
 1.3694379994e+000	 1.2354985212e-001	 3.6385864328e+000
 1.3682477394e+000	 1.3609968305e-001	 3.6342513124e+000
 1.3669379937e+000	 1.4867925715e-001	 3.6237226467e+000
 1.3655077752e+000	 1.6128706086e-001	 3.6068976723e+000
 1.3639561186e+000	 1.7392155273e-001	 3.5836646051e+000
 1.3622820814e+000	 1.8658116370e-001	 3.5539023833e+000
 1.3604847444e+000	 1.9926429742e-001	 3.5174804223e+000
 1.3585632127e+000	 2.1196933056e-001	 3.4742583830e+000
 1.3565166165e+000	 2.2469461324e-001	 3.4240859542e+000
 1.3543441118e+000	 2.3743846937e-001	 3.3668026511e+000
 1.3520448816e+000	 2.5019919707e-001	 3.3022376295e+000
 1.3943368721e+000	 1.2579621307e-001	 3.6099462653e+000
 1.3931249710e+000	 1.3857422274e-001	 3.6037428536e+000
 1.3917914117e+000	 1.5138251636e-001	 3.5911154918e+000
 1.3903351893e+000	 1.6421955287e-001	 3.5719644463e+000
 1.3887553208e+000	 1.7708376278e-001	 3.5461806675e+000
 1.3870508465e+000	 1.8997354850e-001	 3.5136455159e+000
 1.3852208307e+000	 2.0288728464e-001	 3.4742305009e+000
 1.3832643620e+000	 2.1582331839e-001	 3.4277970324e+000
 1.3811805550e+000	 2.2877996984e-001	 3.3741961882e+000
 1.3789685502e+000	 2.4175553244e-001	 3.3132684971e+000
 1.3766275158e+000	 2.5474827338e-001	 3.2448437386e+000
 1.4192357448e+000	 1.2804257402e-001	 3.5976594625e+000
 1.4180022026e+000	 1.4104876243e-001	 3.5894008357e+000
 1.4166448298e+000	 1.5408577558e-001	 3.5745233128e+000
 1.4151626033e+000	 1.6715204489e-001	 3.5529306413e+000
 1.4135545229e+000	 1.8024597283e-001	 3.5245169236e+000
 1.4118196117e+000	 1.9336593329e-001	 3.4891663242e+000
 1.4099569169e+000	 2.0651027186e-001	 3.4467527908e+000
 1.4079655113e+000	 2.1967730621e-001	 3.3971397891e+000
 1.4058444934e+000	 2.3286532645e-001	 3.3401800531e+000
 1.4035929886e+000	 2.4607259552e-001	 3.2757153514e+000
 1.4012101500e+000	 2.5929734969e-001	 3.2035762721e+000
 1.4441346175e+000	 1.3028893496e-001	 3.6012148407e+000
 1.4428794342e+000	 1.4352330212e-001	 3.5906906471e+000
 1.4414982479e+000	 1.5678903480e-001	 3.5733880721e+000
 1.4399900174e+000	 1.7008453690e-001	 3.5492148062e+000
 1.4383537251e+000	 1.8340818287e-001	 3.5180685305e+000
 1.4365883768e+000	 1.9675831808e-001	 3.4798366047e+000
 1.4346930032e+000	 2.1013325909e-001	 3.4343957694e+000
 1.4326666607e+000	 2.2353129404e-001	 3.3816118614e+000
 1.4305084319e+000	 2.3695068305e-001	 3.3213395468e+000
 1.4282174270e+000	 2.5038965860e-001	 3.2534220691e+000
 1.4257927842e+000	 2.6384642600e-001	 3.1776910175e+000
 1.4690334902e+000	 1.3253529590e-001	 3.6201257205e+000
 1.4677566659e+000	 1.4599784180e-001	 3.6071029958e+000
 1.4663516659e+000	 1.5949229402e-001	 3.5871779151e+000
 1.4648174315e+000	 1.7301702891e-001	 3.5602625833e+000
 1.4631529272e+000	 1.8657039292e-001	 3.5262586974e+000
 1.4613571419e+000	 2.0015070287e-001	 3.4850572134e+000
 1.4594290895e+000	 2.1375624631e-001	 3.4365380279e+000
 1.4573678100e+000	 2.2738528187e-001	 3.3805696741e+000
 1.4551723704e+000	 2.4103603965e-001	 3.3170090345e+000
 1.4528418654e+000	 2.5470672168e-001	 3.2457010711e+000
 1.4503754184e+000	 2.6839550231e-001	 3.1664785752e+000
 1.4939323629e+000	 1.3478165685e-001	 3.6539278840e+000
 1.4926338975e+000	 1.4847238149e-001	 3.6381517996e+000
 1.4912050840e+000	 1.6219555323e-001	 3.6153849880e+000
 1.4896448456e+000	 1.7594952092e-001	 3.5855444509e+000
 1.4879521294e+000	 1.8973260296e-001	 3.5485363484e+000
 1.4861259070e+000	 2.0354308766e-001	 3.5042556435e+000
 1.4841651757e+000	 2.1737923353e-001	 3.4525857620e+000
 1.4820689593e+000	 2.3123926969e-001	 3.3933982672e+000
 1.4798363089e+000	 2.4512139625e-001	 3.3265525516e+000
 1.4774663038e+000	 2.5902378476e-001	 3.2518955475e+000
 1.4749580526e+000	 2.7294457862e-001	 3.1692614571e+000
 1.2291317105e+000	 2.2745381553e-001	 3.5090393707e+000
 1.2269255782e+000	 2.3906824470e-001	 3.4777038657e+000
 1.2246028306e+000	 2.5069484874e-001	 3.4403890488e+000
 1.2221628022e+000	 2.6233201271e-001	 3.3970771349e+000
 1.2196048543e+000	 2.7397810005e-001	 3.3477556169e+000
 1.2169283763e+000	 2.8563145302e-001	 3.2924173699e+000
 1.2141327860e+000	 2.9729039324e-001	 3.2310607478e+000
 1.2112175306e+000	 3.0895322226e-001	 3.1636896710e+000
 1.2081820871e+000	 3.2061822211e-001	 3.0903137064e+000
 1.2050259632e+000	 3.3228365593e-001	 3.0109481378e+000
 1.2017486977e+000	 3.4394776857e-001	 2.9256140274e+000
 1.2537143447e+000	 2.3200289184e-001	 3.7093712606e+000
 1.2514640897e+000	 2.4384960960e-001	 3.7100412386e+000
 1.2490948872e+000	 2.5570874571e-001	 3.6902477032e+000
 1.2466060582e+000	 2.6757865297e-001	 3.6389655038e+000
 1.2439969514e+000	 2.7945766205e-001	 3.5805096804e+000
 1.2412669438e+000	 2.9134408208e-001	 3.5148725918e+000
 1.2384154417e+000	 3.0323620110e-001	 3.4420531827e+000
 1.2354418812e+000	 3.1513228670e-001	 3.3620570923e+000
 1.2323457289e+000	 3.2703058655e-001	 3.2748967523e+000
 1.2291264825e+000	 3.3892932905e-001	 3.1805914755e+000
 1.2257836717e+000	 3.5082672394e-001	 3.0791675330e+000
 1.2782969789e+000	 2.3655196814e-001	 3.5792124591e+000
 1.2760026013e+000	 2.4863097449e-001	 3.5764549241e+000
 1.2735869439e+000	 2.6072264268e-001	 3.5675403075e+000
 1.2710493143e+000	 2.7282529322e-001	 3.5522883942e+000
 1.2683890485e+000	 2.8493722405e-001	 3.5305094192e+000
 1.2656055113e+000	 2.9705671113e-001	 3.5020039941e+000
 1.2626980974e+000	 3.0918200896e-001	 3.4665630535e+000
 1.2596662318e+000	 3.2131135114e-001	 3.4239678213e+000
 1.2565093706e+000	 3.3344295099e-001	 3.3739897985e+000
 1.2532270017e+000	 3.4557500216e-001	 3.3163907738e+000
 1.2498186456e+000	 3.5770567931e-001	 3.2482065340e+000
 1.3028796131e+000	 2.4110104445e-001	 3.4685753033e+000
 1.3005411129e+000	 2.5341233938e-001	 3.4624108965e+000
 1.2980790005e+000	 2.6573653966e-001	 3.4494842563e+000
 1.2954925703e+000	 2.7807193347e-001	 3.4296087042e+000
 1.2927811456e+000	 2.9041678605e-001	 3.4025878650e+000
 1.2899440789e+000	 3.0276934019e-001	 3.3682155934e+000
 1.2869807532e+000	 3.1512781682e-001	 3.3262759215e+000
 1.2838905824e+000	 3.2749041558e-001	 3.2765430275e+000
 1.2806730123e+000	 3.3985531543e-001	 3.2187812266e+000
 1.2773275210e+000	 3.5222067528e-001	 3.1527449843e+000
 1.2738536196e+000	 3.6458463467e-001	 3.0781789543e+000
 1.3274622474e+000	 2.4565012076e-001	 3.3765401934e+000
 1.3250796244e+000	 2.5819370428e-001	 3.3669750755e+000
 1.3225710571e+000	 2.7075043663e-001	 3.3500904673e+000
 1.3199358264e+000	 2.8331857372e-001	 3.3256934432e+000
 1.3171732427e+000	 2.9589634805e-001	 3.2935811850e+000
 1.3142826464e+000	 3.0848196925e-001	 3.2535409084e+000
 1.3112634089e+000	 3.2107362469e-001	 3.2053498110e+000
 1.3081149330e+000	 3.3366948003e-001	 3.1487750411e+000
 1.3048366541e+000	 3.4626767987e-001	 3.0835736914e+000
 1.3014280403e+000	 3.5886634840e-001	 3.0094928147e+000
 1.2978885935e+000	 3.7146359004e-001	 2.9262694654e+000
 1.3520448816e+000	 2.5019919707e-001	 3.3022376295e+000
 1.3496181360e+000	 2.6297506917e-001	 3.2892642505e+000
 1.3470631137e+000	 2.7576433361e-001	 3.2684614174e+000
 1.3443790824e+000	 2.8856521398e-001	 3.2396301706e+000
 1.3415653397e+000	 3.0137591005e-001	 3.2025614140e+000
 1.3386212139e+000	 3.1419459831e-001	 3.1570358396e+000
 1.3355460646e+000	 3.2701943255e-001	 3.1028238746e+000
 1.3323392837e+000	 3.3984854447e-001	 3.0396856509e+000
 1.3290002958e+000	 3.5268004431e-001	 2.9673709987e+000
 1.3255285595e+000	 3.6551202151e-001	 2.8856194653e+000
 1.3219235675e+000	 3.7834254541e-001	 2.7941603587e+000
 1.3766275158e+000	 2.5474827338e-001	 3.2448437386e+000
 1.3741566475e+000	 2.6775643406e-001	 3.2284415396e+000
 1.3715551703e+000	 2.8077823058e-001	 3.2037467132e+000
 1.3688223385e+000	 2.9381185423e-001	 3.1705544772e+000
 1.3659574368e+000	 3.0685547205e-001	 3.1286496202e+000
 1.3629597814e+000	 3.1990722737e-001	 3.0778064235e+000
 1.3598287203e+000	 3.3296524041e-001	 3.0177886061e+000
 1.3565636343e+000	 3.4602760891e-001	 2.9483492935e+000
 1.3531639376e+000	 3.5909240875e-001	 2.8692310113e+000
 1.3496290788e+000	 3.7215769463e-001	 2.7801657048e+000
 1.3459585415e+000	 3.8522150078e-001	 2.6808747850e+000
 1.4012101500e+000	 2.5929734969e-001	 3.2035762721e+000
 1.3986951591e+000	 2.7253779896e-001	 3.1837123249e+000
 1.3960472269e+000	 2.8579212755e-001	 3.1551389562e+000
 1.3932655945e+000	 2.9905849449e-001	 3.1176457709e+000
 1.3903495339e+000	 3.1233503405e-001	 3.0710116033e+000
 1.3872983490e+000	 3.2561985643e-001	 3.0150044350e+000
 1.3841113760e+000	 3.3891104828e-001	 2.9493813367e+000
 1.3807879849e+000	 3.5220667336e-001	 2.8738884354e+000
 1.3773275793e+000	 3.6550477319e-001	 2.7882609067e+000
 1.3737295980e+000	 3.7880336775e-001	 2.6922229952e+000
 1.3699935154e+000	 3.9210045615e-001	 2.5854880612e+000
 1.4257927842e+000	 2.6384642600e-001	 3.1776910175e+000
 1.4232336707e+000	 2.7731916385e-001	 3.1543206095e+000
 1.4205392835e+000	 2.9080602453e-001	 3.1218700366e+000
 1.4177088505e+000	 3.0430513474e-001	 3.0801234999e+000
 1.4147416310e+000	 3.1781459605e-001	 3.0288540388e+000
 1.4116369165e+000	 3.3133248549e-001	 2.9678234446e+000
 1.4083940318e+000	 3.4485685614e-001	 2.8967821977e+000
 1.4050123355e+000	 3.5838573780e-001	 2.8154694322e+000
 1.4014912211e+000	 3.7191713763e-001	 2.7236129264e+000
 1.3978301173e+000	 3.8544904087e-001	 2.6209291222e+000
 1.3940284894e+000	 3.9897941152e-001	 2.5071231726e+000
 1.4503754184e+000	 2.6839550231e-001	 3.1664785752e+000
 1.4477721822e+000	 2.8210052874e-001	 3.1395457444e+000
 1.4450313401e+000	 2.9581992150e-001	 3.1032078041e+000
 1.4421521066e+000	 3.0955177499e-001	 3.0572437594e+000
 1.4391337281e+000	 3.2329415806e-001	 3.0014210138e+000
 1.4359754840e+000	 3.3704511455e-001	 2.9354952761e+000
 1.4326766875e+000	 3.5080266401e-001	 2.8592104930e+000
 1.4292366861e+000	 3.6456480225e-001	 2.7722988093e+000
 1.4256548628e+000	 3.7832950208e-001	 2.6744805564e+000
 1.4219306366e+000	 3.9209471399e-001	 2.5654642691e+000
 1.4180634633e+000	 4.0585836689e-001	 2.4449467337e+000
 1.4749580526e+000	 2.7294457862e-001	 3.1692614571e+000
 1.4723106938e+000	 2.8688189364e-001	 3.1386994827e+000
 1.4695233968e+000	 3.0083381848e-001	 3.0984530705e+000
 1.4665953626e+000	 3.1479841525e-001	 3.0482962376e+000
 1.4635258252e+000	 3.2877372006e-001	 2.9879909093e+000
 1.4603140515e+000	 3.4275774362e-001	 2.9172868191e+000
 1.4569593432e+000	 3.5674847188e-001	 2.8359214349e+000
 1.4534610367e+000	 3.7074386670e-001	 2.7436199147e+000
 1.4498185045e+000	 3.8474186652e-001	 2.6400950906e+000
 1.4460311558e+000	 3.9874038711e-001	 2.5250474839e+000
 1.4420984373e+000	 4.1273732227e-001	 2.3981653521e+000
 1.2017486977e+000	 3.4394776857e-001	 2.9256140274e+000
 1.1983498614e+000	 3.5560878723e-001	 2.8977191706e+000
 1.1948290576e+000	 3.6726492216e-001	 2.8599306502e+000
 1.1911859226e+000	 3.7891436731e-001	 2.8123002089e+000
 1.1874201265e+000	 3.9055530112e-001	 2.7548900286e+000
 1.1835313736e+000	 4.0218588716e-001	 2.6877727953e+000
 1.1795194030e+000	 4.1380427497e-001	 2.6110317491e+000
 1.1753839893e+000	 4.2540860082e-001	 2.5247607165e+000
 1.1711249430e+000	 4.3699698847e-001	 2.4290641256e+000
 1.1667421108e+000	 4.4856755008e-001	 2.3240570043e+000
 1.1622353763e+000	 4.6011838696e-001	 2.2098649604e+000
 1.2257836717e+000	 3.5082672394e-001	 3.0791675330e+000
 1.2223168587e+000	 3.6272096297e-001	 3.0378707022e+000
 1.2187256388e+000	 3.7461022059e-001	 2.9867180809e+000
 1.2150096411e+000	 3.8649265466e-001	 2.9257771406e+000
 1.2111685290e+000	 3.9836640714e-001	 2.8551261058e+000
 1.2072020010e+000	 4.1022960490e-001	 2.7748540077e+000
 1.2031097911e+000	 4.2208036047e-001	 2.6850607205e+000
 1.1988916691e+000	 4.3391677283e-001	 2.5858569800e+000
 1.1945474418e+000	 4.4573692824e-001	 2.4773643846e+000
 1.1900769530e+000	 4.5753890108e-001	 2.3597153773e+000
 1.1854800839e+000	 4.6932075469e-001	 2.2330532097e+000
 1.2498186456e+000	 3.5770567931e-001	 3.2482065340e+000
 1.2462838559e+000	 3.6983313871e-001	 3.1936242385e+000
 1.2426222199e+000	 3.8195551903e-001	 3.1291929129e+000
 1.2388333595e+000	 3.9407094200e-001	 3.0549956855e+000
 1.2349169315e+000	 4.0617751316e-001	 2.9711267818e+000
 1.2308726285e+000	 4.1827332264e-001	 2.8776915651e+000
 1.2267001791e+000	 4.3035644597e-001	 2.7748065610e+000
 1.2223993489e+000	 4.4242494484e-001	 2.6625994624e+000
 1.2179699407e+000	 4.5447686801e-001	 2.5412091154e+000
 1.2134117952e+000	 4.6651025208e-001	 2.4107854869e+000
 1.2087247914e+000	 4.7852312243e-001	 2.2714896117e+000
 1.2738536196e+000	 3.6458463467e-001	 3.0781789543e+000
 1.2702508531e+000	 3.7694531445e-001	 3.0694301823e+000
 1.2665188011e+000	 3.8930081747e-001	 3.0510164615e+000
 1.2626570780e+000	 4.0164922934e-001	 3.0226864428e+000
 1.2586653341e+000	 4.1398861918e-001	 2.9841812034e+000
 1.2545432560e+000	 4.2631704038e-001	 2.9352344081e+000
 1.2502905672e+000	 4.3863253146e-001	 2.8755724944e+000
 1.2459070287e+000	 4.5093311686e-001	 2.7540022238e+000
 1.2413924396e+000	 4.6321680778e-001	 2.6195913094e+000
 1.2367466374e+000	 4.7548160308e-001	 2.4762398795e+000
 1.2319694989e+000	 4.8772549017e-001	 2.3241269100e+000
 1.2978885935e+000	 3.7146359004e-001	 2.9262694654e+000
 1.2942178504e+000	 3.8405749020e-001	 2.9118207509e+000
 1.2904153822e+000	 3.9664611591e-001	 2.8881250828e+000
 1.2864807964e+000	 4.0922751669e-001	 2.8549291085e+000
 1.2824137366e+000	 4.2179972519e-001	 2.8119708920e+000
 1.2782138834e+000	 4.3436075812e-001	 2.7589800646e+000
 1.2738809552e+000	 4.4690861696e-001	 2.6956780013e+000
 1.2694147085e+000	 4.5944128887e-001	 2.6217780246e+000
 1.2648149384e+000	 4.7195674754e-001	 2.5369856352e+000
 1.2600814796e+000	 4.8445295408e-001	 2.4409987698e+000
 1.2552142064e+000	 4.9692785791e-001	 2.3335080875e+000
 1.3219235675e+000	 3.7834254541e-001	 2.7941603587e+000
 1.3181848476e+000	 3.9116966594e-001	 2.7744052343e+000
 1.3143119634e+000	 4.0399141435e-001	 2.7458303638e+000
 1.3103045149e+000	 4.1680580403e-001	 2.7081798473e+000
 1.3061621391e+000	 4.2961083121e-001	 2.6611881558e+000
 1.3018845109e+000	 4.4240447586e-001	 2.6045802714e+000
 1.2974713433e+000	 4.5518470246e-001	 2.5380718544e+000
 1.2929223883e+000	 4.6794946089e-001	 2.4613694411e+000
 1.2882374373e+000	 4.8069668731e-001	 2.3741706690e+000
 1.2834163219e+000	 4.9342430508e-001	 2.2761645324e+000
 1.2784589140e+000	 5.0613022564e-001	 2.1670316676e+000
 1.3459585415e+000	 3.8522150078e-001	 2.6808747850e+000
 1.3421518448e+000	 3.9828184168e-001	 2.6561926793e+000
 1.3382085446e+000	 4.1133671280e-001	 2.6231287474e+000
 1.3341282333e+000	 4.2438409137e-001	 2.5814240074e+000
 1.3299105417e+000	 4.3742193723e-001	 2.5308087649e+000
 1.3255551384e+000	 4.5044819360e-001	 2.4710027424e+000
 1.3210617314e+000	 4.6346078795e-001	 2.4017152387e+000
 1.3164300681e+000	 4.7645763290e-001	 2.3226453192e+000
 1.3116599362e+000	 4.8943662708e-001	 2.2334820371e+000
 1.3067511641e+000	 5.0239565608e-001	 2.1339046867e+000
 1.3017036215e+000	 5.1533259338e-001	 2.0235830878e+000
 1.3699935154e+000	 3.9210045615e-001	 2.5854880612e+000
 1.3661188421e+000	 4.0539401742e-001	 2.5562455803e+000
 1.3621051257e+000	 4.1868201124e-001	 2.5190713576e+000
 1.3579519518e+000	 4.3196237872e-001	 2.4737028015e+000
 1.3536589442e+000	 4.4523304325e-001	 2.4198654860e+000
 1.3492257659e+000	 4.5849191134e-001	 2.3572732694e+000
 1.3446521194e+000	 4.7173687345e-001	 2.2856284453e+000
 1.3399377478e+000	 4.8496580491e-001	 2.2046219264e+000
 1.3350824350e+000	 4.9817656684e-001	 2.1139334616e+000
 1.3300860063e+000	 5.1136700707e-001	 2.0132318871e+000
 1.3249483290e+000	 5.2453496112e-001	 1.9021754112e+000
 1.3940284894e+000	 3.9897941152e-001	 2.5071231726e+000
 1.3900858393e+000	 4.1250619317e-001	 2.4736752720e+000
 1.3860017069e+000	 4.2602730968e-001	 2.4327592853e+000
 1.3817756702e+000	 4.3954066606e-001	 2.3841084905e+000
 1.3774073467e+000	 4.5304414927e-001	 2.3274431694e+000
 1.3728963933e+000	 4.6653562908e-001	 2.2624707155e+000
 1.3682425075e+000	 4.8001295895e-001	 2.1888857766e+000
 1.3634454276e+000	 4.9347397693e-001	 2.1063704326e+000
 1.3585049339e+000	 5.0691650661e-001	 2.0145944086e+000
 1.3534208485e+000	 5.2033835807e-001	 1.9132153239e+000
 1.3481930365e+000	 5.3373732886e-001	 1.8018789779e+000
 1.4180634633e+000	 4.0585836689e-001	 2.4449467337e+000
 1.4140528365e+000	 4.1961836891e-001	 2.4076377906e+000
 1.4098982880e+000	 4.3337260812e-001	 2.3633393542e+000
 1.4055993887e+000	 4.4711895341e-001	 2.3117800578e+000
 1.4011557493e+000	 4.6085525529e-001	 2.2526743349e+000
 1.3965670208e+000	 4.7457934682e-001	 2.1857225171e+000
 1.3918328955e+000	 4.8828904444e-001	 2.1106109685e+000
 1.3869531074e+000	 5.0198214894e-001	 2.0270122571e+000
 1.3819274327e+000	 5.1565644638e-001	 1.9345853641e+000
 1.3767556907e+000	 5.2930970907e-001	 1.8329759319e+000
 1.3714377441e+000	 5.4293969659e-001	 1.7218165505e+000
 1.4420984373e+000	 4.1273732227e-001	 2.3981653521e+000
 1.4380198337e+000	 4.2673054465e-001	 2.3573301482e+000
 1.4337948692e+000	 4.4071790656e-001	 2.3100003097e+000
 1.4294231071e+000	 4.5469724075e-001	 2.2558993154e+000
 1.4249041518e+000	 4.6866636131e-001	 2.1947351992e+000
 1.4202376483e+000	 4.8262306456e-001	 2.1262006367e+000
 1.4154232836e+000	 4.9656512994e-001	 2.0499730716e+000
 1.4104607872e+000	 5.1049032095e-001	 1.9657148813e+000
 1.4053499316e+000	 5.2439638615e-001	 1.8730735826e+000
 1.4000905329e+000	 5.3828106007e-001	 1.7716820784e+000
 1.3946824516e+000	 5.5214206433e-001	 1.6611589457e+000
 1.1622353763e+000	 4.6011838696e-001	 2.2098649604e+000
 1.1576046607e+000	 4.7164759049e-001	 2.1862463628e+000
 1.1528499225e+000	 4.8315324300e-001	 2.1563607153e+000
 1.1479711587e+000	 4.9463341865e-001	 2.1204775383e+000
 1.1429684047e+000	 5.0608618433e-001	 2.0788762499e+000
 1.1378417347e+000	 5.1750960065e-001	 2.0318459268e+000
 1.1325912624e+000	 5.2890172284e-001	 1.9796850471e+000
 1.1272171407e+000	 5.4026060171e-001	 1.9227012114e+000
 1.1217195625e+000	 5.5158428467e-001	 1.8612108443e+000
 1.1160987607e+000	 5.6287081669e-001	 1.7955388772e+000
 1.1103550086e+000	 5.7411824131e-001	 1.7260184096e+000
 1.1854800839e+000	 4.6932075469e-001	 2.2330532097e+000
 1.1807567539e+000	 4.8108054230e-001	 2.2025615818e+000
 1.1759069209e+000	 4.9281630786e-001	 2.1637461576e+000
 1.1709305819e+000	 5.0452608702e-001	 2.1168522664e+000
 1.1658277727e+000	 5.1620790802e-001	 2.0621369316e+000
 1.1605985694e+000	 5.2785979267e-001	 1.9998686765e+000
 1.1552430876e+000	 5.3947975730e-001	 1.9303273069e+000
 1.1497614835e+000	 5.5106581375e-001	 1.8538036716e+000
 1.1441539538e+000	 5.6261597037e-001	 1.7705994012e+000
 1.1384207360e+000	 5.7412823303e-001	 1.6810266241e+000
 1.1325621087e+000	 5.8560060613e-001	 1.5854076609e+000
 1.2087247914e+000	 4.7852312243e-001	 2.2714896117e+000
 1.2039088471e+000	 4.9051349411e-001	 2.2318919204e+000
 1.1989639194e+000	 5.0247937272e-001	 2.1819662726e+000
 1.1938900050e+000	 5.1441875539e-001	 2.1219354220e+000
 1.1886871408e+000	 5.2632963171e-001	 2.0520356056e+000
 1.1833554041e+000	 5.3820998468e-001	 1.9725163903e+000
 1.1778949129e+000	 5.5005779175e-001	 1.8836404956e+000
 1.1723058263e+000	 5.6187102578e-001	 1.7856835912e+000
 1.1665883450e+000	 5.7364765606e-001	 1.6789340705e+000
 1.1607427112e+000	 5.8538564936e-001	 1.5636927994e+000
 1.1547692089e+000	 5.9708297096e-001	 1.4402728412e+000
 1.2319694989e+000	 4.8772549017e-001	 2.3241269100e+000
 1.2270609403e+000	 4.9994644592e-001	 2.2732863831e+000
 1.2220209178e+000	 5.1214243758e-001	 2.2101623035e+000
 1.2168494282e+000	 5.2431142377e-001	 2.1349564057e+000
 1.2115465089e+000	 5.3645135539e-001	 2.0478856901e+000
 1.2061122388e+000	 5.4856017669e-001	 1.9491823097e+000
 1.2005467381e+000	 5.6063582621e-001	 1.8390934307e+000
 1.1948501691e+000	 5.7267623781e-001	 1.7178810652e+000
 1.1890227363e+000	 5.8467934175e-001	 1.5858218786e+000
 1.1830646864e+000	 5.9664306569e-001	 1.4432069691e+000
 1.1769763091e+000	 6.0856533578e-001	 1.2903416211e+000
 1.2552142064e+000	 4.9692785791e-001	 2.3335080875e+000
 1.2502130335e+000	 5.0937939773e-001	 2.3236698410e+000
 1.2450779163e+000	 5.2180550244e-001	 2.2475436552e+000
 1.2398088514e+000	 5.3420409214e-001	 2.1552057808e+000
 1.2344058770e+000	 5.4657307908e-001	 2.0490550505e+000
 1.2288690735e+000	 5.5891036871e-001	 1.9293076950e+000
 1.2231985634e+000	 5.7121386067e-001	 1.7961968112e+000
 1.2173945119e+000	 5.8348144985e-001	 1.6499722297e+000
 1.2114571275e+000	 5.9571102745e-001	 1.4909003529e+000
 1.2053866616e+000	 6.0790048203e-001	 1.3192639644e+000
 1.1991834092e+000	 6.2004770061e-001	 1.1353620090e+000
 1.2784589140e+000	 5.0613022564e-001	 2.1670316676e+000
 1.2733651267e+000	 5.1881234953e-001	 2.1538286152e+000
 1.2681349147e+000	 5.3146856730e-001	 2.1209346697e+000
 1.2627682746e+000	 5.4409676051e-001	 2.0679208829e+000
 1.2572652451e+000	 5.5669480277e-001	 1.9943588071e+000
 1.2516259082e+000	 5.6926056072e-001	 1.8998211068e+000
 1.2458503886e+000	 5.8179189512e-001	 1.7544994104e+000
 1.2399388547e+000	 5.9428666188e-001	 1.5815659853e+000
 1.2338915188e+000	 6.0674271314e-001	 1.3938347486e+000
 1.2277086368e+000	 6.1915789836e-001	 1.1915815845e+000
 1.2213905094e+000	 6.3153006543e-001	 1.0800995619e+000
 1.3017036215e+000	 5.1533259338e-001	 2.0235830878e+000
 1.2965172200e+000	 5.2824530134e-001	 2.0058478129e+000
 1.2911919132e+000	 5.4113163216e-001	 1.9668863662e+000
 1.2857276977e+000	 5.5398942888e-001	 1.9062194297e+000
 1.2801246132e+000	 5.6681652645e-001	 1.8233685567e+000
 1.2743827429e+000	 5.7961075273e-001	 1.7178568511e+000
 1.2685022138e+000	 5.9236992958e-001	 1.5892096694e+000
 1.2624831976e+000	 6.0509187392e-001	 1.4369553449e+000
 1.2563259100e+000	 6.1777439883e-001	 1.2606259330e+000
 1.2500306120e+000	 6.3041531469e-001	 1.1435130377e+000
 1.2435976096e+000	 6.4301243026e-001	 1.0986067506e+000
 1.3249483290e+000	 5.2453496112e-001	 1.9021754112e+000
 1.3196693132e+000	 5.3767825315e-001	 1.8788279282e+000
 1.3142489116e+000	 5.5079469702e-001	 1.8327868986e+000
 1.3086871209e+000	 5.6388209726e-001	 1.7635227753e+000
 1.3029839813e+000	 5.7693825014e-001	 1.6705071889e+000
 1.2971395776e+000	 5.8996094475e-001	 1.5532136938e+000
 1.2911540391e+000	 6.0294796403e-001	 1.4111185388e+000
 1.2850275404e+000	 6.1589708595e-001	 1.2437014609e+000
 1.2787603012e+000	 6.2880608453e-001	 1.1066930105e+000
 1.2723525872e+000	 6.4167273103e-001	 1.0873119178e+000
 1.2658047097e+000	 6.5449479508e-001	 1.0561068379e+000
 1.3481930365e+000	 5.3373732886e-001	 1.8018789779e+000
 1.3428214064e+000	 5.4711120496e-001	 1.7719215215e+000
 1.3373059101e+000	 5.6045776188e-001	 1.7178692198e+000
 1.3316465441e+000	 5.7377476563e-001	 1.6391423772e+000
 1.3258433494e+000	 5.8705997383e-001	 1.5351627173e+000
 1.3198964122e+000	 6.0031113676e-001	 1.4053541962e+000
 1.3138058643e+000	 6.1352599849e-001	 1.2491438414e+000
 1.3075718832e+000	 6.2670229798e-001	 1.0899102785e+000
 1.3011946925e+000	 6.3983777022e-001	 1.0729256489e+000
 1.2946745624e+000	 6.5293014736e-001	 1.0432087478e+000
 1.2880118099e+000	 6.6597715991e-001	 1.0003531371e+000
 1.3714377441e+000	 5.4293969659e-001	 1.7218165505e+000
 1.3659734996e+000	 5.5654415677e-001	 1.6843288072e+000
 1.3603629085e+000	 5.7012082674e-001	 1.6214093405e+000
 1.3546059672e+000	 5.8366743400e-001	 1.5324283293e+000
 1.3487027175e+000	 5.9718169751e-001	 1.4167575494e+000
 1.3426532469e+000	 6.1066132877e-001	 1.2737712528e+000
 1.3364576896e+000	 6.2410403295e-001	 1.1028470747e+000
 1.3301162260e+000	 6.3750751002e-001	 1.0776900681e+000
 1.3236290837e+000	 6.5086945591e-001	 1.0509796346e+000
 1.3169965376e+000	 6.6418756369e-001	 1.0103249740e+000
 1.3102189101e+000	 6.7745952473e-001	 9.5528702624e-001
 1.3946824516e+000	 5.5214206433e-001	 1.6611589457e+000
 1.3891255928e+000	 5.6597710858e-001	 1.6152936824e+000
 1.3834199070e+000	 5.7978389160e-001	 1.5427227405e+000
 1.3775653904e+000	 5.9356010237e-001	 1.4427661425e+000
 1.3715620856e+000	 6.0730342120e-001	 1.3147456206e+000
 1.3654100816e+000	 6.2101152078e-001	 1.1579855630e+000
 1.3591095148e+000	 6.3468206740e-001	 1.0994677887e+000
 1.3526605688e+000	 6.4831272205e-001	 1.0770164514e+000
 1.3460634750e+000	 6.6190114160e-001	 1.0399507197e+000
 1.3393185129e+000	 6.7544498003e-001	 9.8779667253e-001
 1.3324260102e+000	 6.8894188956e-001	 9.2008297627e-001
 1.1103550086e+000	 5.7411824131e-001	 1.7260184096e+000
 1.1044886196e+000	 5.8532460163e-001	 1.6325069088e+000
 1.0984999480e+000	 5.9648794139e-001	 1.5216321841e+000
 1.0923893889e+000	 6.0760630594e-001	 1.3934854109e+000
 1.0861573781e+000	 6.1867774335e-001	 1.2481764290e+000
 1.0798043922e+000	 6.2970030539e-001	 1.1693296109e+000
 1.0733309490e+000	 6.4067204862e-001	 1.1899654943e+000
 1.0667376072e+000	 6.5159103546e-001	 1.1994953639e+000
 1.0600249662e+000	 6.6245533522e-001	 1.1975530752e+000
 1.0531936664e+000	 6.7326302520e-001	 1.1837739612e+000
 1.0462443890e+000	 6.8401219173e-001	 1.1577955095e+000
 1.1325621087e+000	 5.8560060613e-001	 1.5854076609e+000
 1.1265783920e+000	 5.9703109366e-001	 1.4525041115e+000
 1.1204699470e+000	 6.0841770021e-001	 1.3032940955e+000
 1.1142371767e+000	 6.1975843206e-001	 1.1379203743e+000
 1.1078805256e+000	 6.3105129822e-001	 1.0630443823e+000
 1.1014004800e+000	 6.4229431150e-001	 1.0699369446e+000
 1.0947975680e+000	 6.5348548960e-001	 1.0679503737e+000
 1.0880723593e+000	 6.6462285617e-001	 1.0567302333e+000
 1.0812254655e+000	 6.7570444192e-001	 1.0359210269e+000
 1.0742575397e+000	 6.8672828570e-001	 1.0051668529e+000
 1.0671692768e+000	 6.9769243556e-001	 9.6411207640e-001
 1.1547692089e+000	 5.9708297096e-001	 1.4402728412e+000
 1.1486681643e+000	 6.0873758569e-001	 1.2691951993e+000
 1.1424399459e+000	 6.2034745904e-001	 1.0828144241e+000
 1.1360849645e+000	 6.3191055818e-001	 1.0012396136e+000
 1.1296036732e+000	 6.4342485309e-001	 9.9209490878e-001
 1.1229965679e+000	 6.5488831761e-001	 9.7625152978e-001
 1.1162641870e+000	 6.6629893057e-001	 9.5336920993e-001
 1.1094071114e+000	 6.7765467688e-001	 9.2310410104e-001
 1.1024259648e+000	 6.8895354863e-001	 8.8510940018e-001
 1.0953214130e+000	 7.0019354621e-001	 8.3903599869e-001
 1.0880941646e+000	 7.1137267940e-001	 7.8453315227e-001
 1.1769763091e+000	 6.0856533578e-001	 1.2903416211e+000
 1.1707579367e+000	 6.2044407772e-001	 1.0821999378e+000
 1.1644099449e+000	 6.3227721786e-001	 9.8355834154e-001
 1.1579327522e+000	 6.4406268430e-001	 9.5610252103e-001
 1.1513268207e+000	 6.5579840795e-001	 9.2408506572e-001
 1.1445926557e+000	 6.6748232371e-001	 8.8718238445e-001
 1.1377308060e+000	 6.7911237154e-001	 8.4506479931e-001
 1.1307418636e+000	 6.9068649759e-001	 7.9739713979e-001
 1.1236264641e+000	 7.0220265533e-001	 7.4383936339e-001
 1.1163852864e+000	 7.1365880671e-001	 6.8404720171e-001
 1.1090190524e+000	 7.2505292324e-001	 6.1767283069e-001
 1.1991834092e+000	 6.2004770061e-001	 1.1353620090e+000
 1.1928477091e+000	 6.3215056975e-001	 1.0098349137e+000
 1.1863799439e+000	 6.4420697669e-001	 9.6180421661e-001
 1.1797805400e+000	 6.5621481041e-001	 9.1130810716e-001
 1.1730499683e+000	 6.6817196282e-001	 8.5804222487e-001
 1.1661887436e+000	 6.8007632982e-001	 8.0169363537e-001
 1.1591974249e+000	 6.9192581251e-001	 7.4194138658e-001
 1.1520766157e+000	 7.0371831829e-001	 6.7845709575e-001
 1.1448269634e+000	 7.1545176204e-001	 6.1090556622e-001
 1.1374491597e+000	 7.2712406721e-001	 5.3894543284e-001
 1.1299439401e+000	 7.3873316707e-001	 4.6222983487e-001
 1.2213905094e+000	 6.3153006543e-001	 1.0800995619e+000
 1.2149374815e+000	 6.4385706178e-001	 1.0092311200e+000
 1.2083499428e+000	 6.5613673552e-001	 9.3795488310e-001
 1.2016283278e+000	 6.6836693653e-001	 8.6598833107e-001
 1.1947731158e+000	 6.8054551768e-001	 7.9303790258e-001
 1.1877848314e+000	 6.9267033592e-001	 7.1879950822e-001
 1.1806640439e+000	 7.0473925348e-001	 6.4295907849e-001
 1.1734113679e+000	 7.1675013900e-001	 5.6519314582e-001
 1.1660274628e+000	 7.2870086874e-001	 4.8516945971e-001
 1.1585130330e+000	 7.4058932772e-001	 4.0254763384e-001
 1.1508688279e+000	 7.5241341090e-001	 3.1697982408e-001
 1.2435976096e+000	 6.4301243026e-001	 1.0986067506e+000
 1.2370272539e+000	 6.5556355381e-001	 1.0042432188e+000
 1.2303199418e+000	 6.6806649434e-001	 9.1123472182e-001
 1.2234761156e+000	 6.8051906265e-001	 8.1930976152e-001
 1.2164962634e+000	 6.9291907255e-001	 7.2818381828e-001
 1.2093809192e+000	 7.0526434203e-001	 6.3755985445e-001
 1.2021306629e+000	 7.1755269445e-001	 5.4712885620e-001
 1.1947461200e+000	 7.2978195971e-001	 4.5657041269e-001
 1.1872279621e+000	 7.4194997544e-001	 3.6555333181e-001
 1.1795769063e+000	 7.5405458822e-001	 2.7373629134e-001
 1.1717937157e+000	 7.6609365474e-001	 1.8076852431e-001
 1.2658047097e+000	 6.5449479508e-001	 1.0561068379e+000
 1.2591170263e+000	 6.6727004585e-001	 9.6928444109e-001
 1.2522899407e+000	 6.7999625317e-001	 8.7625092000e-001
 1.2453239033e+000	 6.9267118877e-001	 7.7047054102e-001
 1.2382194110e+000	 7.0529262741e-001	 6.6262836797e-001
 1.2309770071e+000	 7.1785834814e-001	 5.5707614901e-001
 1.2235972819e+000	 7.3036613542e-001	 4.5350811254e-001
 1.2160808721e+000	 7.4281378042e-001	 3.5160505728e-001
 1.2084284614e+000	 7.5519908214e-001	 2.5103497085e-001
 1.2006407797e+000	 7.6751984872e-001	 1.5145368725e-001
 1.1927186035e+000	 7.7977389857e-001	 5.2505582101e-002
 1.2880118099e+000	 6.6597715991e-001	 1.0003531371e+000
 1.2812067987e+000	 6.7897653788e-001	 9.0641324927e-001
 1.2742599397e+000	 6.9192601199e-001	 8.0743045365e-001
 1.2671716911e+000	 7.0482331488e-001	 7.0314480865e-001
 1.2599425585e+000	 7.1766618228e-001	 5.9329366103e-001
 1.2525730949e+000	 7.3045235424e-001	 4.7761197151e-001
 1.2450639008e+000	 7.4317957639e-001	 3.6119665105e-001
 1.2374156243e+000	 7.5584560112e-001	 2.4935987891e-001
 1.2296289607e+000	 7.6844818885e-001	 1.4064288096e-001
 1.2217046530e+000	 7.8098510922e-001	 3.4696744058e-002
 1.2136434913e+000	 7.9345414240e-001	-6.8840945863e-002
 1.3102189101e+000	 6.7745952473e-001	 9.5528702624e-001
 1.3032965711e+000	 6.9068302991e-001	 8.5570833445e-001
 1.2962299386e+000	 7.0385577082e-001	 7.5224302444e-001
 1.2890194789e+000	 7.1697544100e-001	 6.4464454529e-001
 1.2816657061e+000	 7.3003973714e-001	 5.3266232322e-001
 1.2741691828e+000	 7.4304636035e-001	 4.1604206532e-001
 1.2665305198e+000	 7.5599301736e-001	 2.9452608207e-001
 1.2587503764e+000	 7.6887742183e-001	 1.6785362830e-001
 1.2508294600e+000	 7.8169729555e-001	 3.5761262301e-002
 1.2427685263e+000	 7.9445036972e-001	-7.7487605763e-002
 1.2345683790e+000	 8.0713438624e-001	-1.8424954277e-001
 1.3324260102e+000	 6.8894188956e-001	 9.2008297627e-001
 1.3253863434e+000	 7.0238952194e-001	 8.1628360081e-001
 1.3181999376e+000	 7.1578552965e-001	 7.0974411122e-001
 1.3108672667e+000	 7.2912756712e-001	 6.0023034409e-001
 1.3033888536e+000	 7.4241329201e-001	 4.8750278419e-001
 1.2957652706e+000	 7.5564036645e-001	 3.7131684722e-001
 1.2879971388e+000	 7.6880645833e-001	 2.5142318347e-001
 1.2800851286e+000	 7.8190924254e-001	 1.2756800210e-001
 1.2720299594e+000	 7.9494640225e-001	-5.0658430509e-004
 1.2638323996e+000	 8.0791563023e-001	-1.3306219516e-001
 1.2554932668e+000	 8.2081463007e-001	-2.7036379797e-001
 1.0462443890e+000	 6.8401219173e-001	 1.1577955095e+000
 1.0391778559e+000	 6.9470093126e-001	 1.0502336878e+000
 1.0319948291e+000	 7.0532735142e-001	 9.4361355214e-001
 1.0246961113e+000	 7.1588957207e-001	 8.3782523713e-001
 1.0172825451e+000	 7.2638572639e-001	 7.3275181473e-001
 1.0097550126e+000	 7.3681396190e-001	 6.2826970763e-001
 1.0021144359e+000	 7.4717244154e-001	 5.2424912285e-001
 9.9436177575e-001	 7.5745934472e-001	 4.2055450437e-001
 9.8649803203e-001	 7.6767286832e-001	 3.1704500374e-001
 9.7852424289e-001	 7.7781122776e-001	 2.1357496738e-001
 9.7044148445e-001	 7.8787265798e-001	 1.0999443931e-001
 1.0671692768e+000	 6.9769243556e-001	 9.6411207640e-001
 1.0599614130e+000	 7.0859494989e-001	 8.5518705490e-001
 1.0526347257e+000	 7.1943389845e-001	 7.4702644759e-001
 1.0451900336e+000	 7.3020736352e-001	 6.3951611166e-001
 1.0376281960e+000	 7.4091344092e-001	 5.3253478586e-001
 1.0299501129e+000	 7.5155024114e-001	 4.2595452862e-001
 1.0221567246e+000	 7.6211589037e-001	 3.1964117700e-001
 1.0142490113e+000	 7.7260853162e-001	 2.1345482530e-001
 1.0062279927e+000	 7.8302632569e-001	 1.0725032223e-001
 9.9809472774e-001	 7.9336745232e-001	 8.7778515211e-004
 9.8985031414e-001	 8.0363011114e-001	-1.0581686976e-001
 1.0880941646e+000	 7.1137267940e-001	 7.8453315227e-001
 1.0807449701e+000	 7.2248896852e-001	 6.7566472592e-001
 1.0732746223e+000	 7.3354044548e-001	 5.6743236031e-001
 1.0656839558e+000	 7.4452515496e-001	 4.5971590340e-001
 1.0579738469e+000	 7.5544115545e-001	 3.5238797437e-001
 1.0501452131e+000	 7.6628652038e-001	 2.4531442856e-001
 1.0421990133e+000	 7.7705933921e-001	 1.3835484424e-001
 1.0341362468e+000	 7.8775771852e-001	 3.1363029661e-002
 1.0259579533e+000	 7.9837978306e-001	-7.5812450757e-002
 1.0176652126e+000	 8.0892367688e-001	-1.8332773242e-001
 1.0092591438e+000	 8.1938756430e-001	-2.9134309033e-001
 1.1090190524e+000	 7.2505292324e-001	 6.1767283069e-001
 1.1015285272e+000	 7.3638298714e-001	 5.1024288050e-001
 1.0939145189e+000	 7.4764699251e-001	 4.0336868060e-001
 1.0861778780e+000	 7.5884294641e-001	 2.9692233085e-001
 1.0783194978e+000	 7.6996886998e-001	 1.9076853737e-001
 1.0703403134e+000	 7.8102279962e-001	 8.4765106888e-002
 1.0622413020e+000	 7.9200278804e-001	-2.1236536482e-002
 1.0540234823e+000	 8.0290690541e-001	-1.2739081322e-001
 1.0456879139e+000	 8.1373324043e-001	-2.3385743046e-001
 1.0372356975e+000	 8.2447990144e-001	-3.4080080575e-001
 1.0286679735e+000	 8.3514501747e-001	-4.4838947381e-001
 1.1299439401e+000	 7.3873316707e-001	 4.6222983487e-001
 1.1223120843e+000	 7.5027700577e-001	 3.5758681151e-001
 1.1145544154e+000	 7.6175353954e-001	 2.5346650197e-001
 1.1066718002e+000	 7.7316073785e-001	 1.4973150997e-001
 1.0986651487e+000	 7.8449658451e-001	 4.6236826293e-002
 1.0905354136e+000	 7.9575907886e-001	-5.7169645372e-002
 1.0822835907e+000	 8.0694623688e-001	-1.6064653905e-001
 1.0739107178e+000	 8.1805609231e-001	-2.6435845495e-001
 1.0654178746e+000	 8.2908669780e-001	-3.6847536730e-001
 1.0568061823e+000	 8.4003612600e-001	-4.7317201295e-001
 1.0480768032e+000	 8.5090247063e-001	-5.7862726254e-001
 1.1508688279e+000	 7.5241341090e-001	 3.1697982408e-001
 1.1430956414e+000	 7.6417102439e-001	 2.1644282387e-001
 1.1351943120e+000	 7.7586008657e-001	 1.1644210261e-001
 1.1271657225e+000	 7.8747852929e-001	 1.6829009068e-002
 1.1190107996e+000	 7.9902429904e-001	-8.2552994396e-002
 1.1107305139e+000	 8.1049535810e-001	-1.8186777212e-001
 1.1023258794e+000	 8.2188968571e-001	-2.8128593075e-001
 1.0937979533e+000	 8.3320527921e-001	-3.8098421167e-001
 1.0851478352e+000	 8.4444015517e-001	-4.8114486182e-001
 1.0763766672e+000	 8.5559235055e-001	-5.8195498460e-001
 1.0674856329e+000	 8.6665992379e-001	-6.8360587246e-001
 1.1717937157e+000	 7.6609365474e-001	 1.8076852431e-001
 1.1638791986e+000	 7.7806504302e-001	 8.5631001369e-002
 1.1558342086e+000	 7.8996663360e-001	-8.9106603628e-003
 1.1476596447e+000	 8.0179632073e-001	-1.0301813812e-001
 1.1393564505e+000	 8.1355201357e-001	-1.9686132339e-001
 1.1309256141e+000	 8.2523163734e-001	-2.9061772586e-001
 1.1223681682e+000	 8.3683313454e-001	-3.8447185152e-001
 1.1136851888e+000	 8.4835446610e-001	-4.7861455647e-001
 1.1048777959e+000	 8.5979361254e-001	-5.7324237812e-001
 1.0959471520e+000	 8.7114857511e-001	-6.6855684548e-001
 1.0868944626e+000	 8.8241737695e-001	-7.6476377042e-001
 1.1927186035e+000	 7.7977389857e-001	 5.2505582101e-002
 1.1846627557e+000	 7.9195906164e-001	-3.5961265232e-002
 1.1764741052e+000	 8.0407318063e-001	-1.2372715605e-001
 1.1681535669e+000	 8.1611411218e-001	-2.1096857846e-001
 1.1597021014e+000	 8.2807972810e-001	-2.9787061697e-001
 1.1511207144e+000	 8.3996791658e-001	-3.8462631778e-001
 1.1424104569e+000	 8.5177658338e-001	-4.7143602678e-001
 1.1335724243e+000	 8.6350365300e-001	-5.5850670215e-001
 1.1246077565e+000	 8.7514706991e-001	-6.4605120318e-001
 1.1155176369e+000	 8.8670479967e-001	-7.3428755721e-001
 1.1063032923e+000	 8.9817483012e-001	-8.2343820661e-001
 1.2136434913e+000	 7.9345414240e-001	-6.8840945863e-002
 1.2054463128e+000	 8.0585308027e-001	-1.4938508047e-001
 1.1971140018e+000	 8.1817972766e-001	-2.2907808100e-001
 1.1886474891e+000	 8.3043190362e-001	-3.0811304628e-001
 1.1800477523e+000	 8.4260744262e-001	-3.8669210822e-001
 1.1713158147e+000	 8.5470419582e-001	-4.6502575586e-001
 1.1624527456e+000	 8.6672003221e-001	-5.4333213083e-001
 1.1534596599e+000	 8.7865283990e-001	-6.2183629604e-001
 1.1443377172e+000	 8.9050052728e-001	-7.0076947935e-001
 1.1350881218e+000	 9.0226102423e-001	-7.8036829435e-001
 1.1257121220e+000	 9.1393228328e-001	-8.6087394009e-001
 1.2345683790e+000	 8.0713438624e-001	-1.8424954277e-001
 1.2262298699e+000	 8.1974709889e-001	-2.5563525648e-001
 1.2177538984e+000	 8.3228627468e-001	-3.2597493990e-001
 1.2091414114e+000	 8.4474969506e-001	-3.9548011868e-001
 1.2003934032e+000	 8.5713515715e-001	-4.6437184284e-001
 1.1915109149e+000	 8.6944047506e-001	-5.3287996712e-001
 1.1824950343e+000	 8.8166348104e-001	-6.0124240132e-001
 1.1733468954e+000	 8.9380202679e-001	-6.6970433234e-001
 1.1640676778e+000	 9.0585398465e-001	-7.3851742002e-001
 1.1546586066e+000	 9.1781724879e-001	-8.0793896873e-001
 1.1451209517e+000	 9.2968973644e-001	-8.7823107706e-001
 1.2554932668e+000	 8.2081463007e-001	-2.7036379797e-001
 1.2470134270e+000	 8.3364111751e-001	-3.5565500399e-001
 1.2383937949e+000	 8.4639282171e-001	-4.1537497824e-001
 1.2296353336e+000	 8.5906748650e-001	-4.7404139530e-001
 1.2207390541e+000	 8.7166287168e-001	-5.3189611146e-001
 1.2117060152e+000	 8.8417675429e-001	-5.8919028773e-001
 1.2025373230e+000	 8.9660692987e-001	-6.4618359229e-001
 1.1932341309e+000	 9.0895121369e-001	-7.0314337323e-001
 1.1837976384e+000	 9.2120744201e-001	-7.6034380367e-001
 1.1742290915e+000	 9.3337347334e-001	-8.1806500138e-001
 1.1645297814e+000	 9.4544718961e-001	-8.7659212523e-001
 9.7044148445e-001	 7.8787265798e-001	 1.0999443931e-001
 9.6225087038e-001	 7.9785541446e-001	 6.3839075594e-002
 9.5395355134e-001	 8.0775777422e-001	 1.2320115982e-002
 9.4555071450e-001	 8.1757803678e-001	-4.4598778290e-002
 9.3704358298e-001	 8.2731452514e-001	-1.0695137115e-001
 9.2843341526e-001	 8.3696558670e-001	-1.7476842198e-001
 9.1972150458e-001	 8.4652959423e-001	-2.4807725561e-001
 9.1090917828e-001	 8.5600494672e-001	-3.2690133360e-001
 9.0199779714e-001	 8.6539007034e-001	-4.1125982797e-001
 8.9298875468e-001	 8.7468341924e-001	-5.0116719893e-001
 8.8388347645e-001	 8.8388347645e-001	-5.9663277784e-001
 9.8985031414e-001	 8.0363011114e-001	-1.0581686976e-001
 9.8149588779e-001	 8.1381252275e-001	-1.4844504997e-001
 9.7303262236e-001	 8.2391292970e-001	-1.9554238153e-001
 9.6446172879e-001	 8.3392959752e-001	-2.4721457385e-001
 9.5578445464e-001	 8.4386081564e-001	-3.0356570196e-001
 9.4700208356e-001	 8.5370489844e-001	-3.6469768072e-001
 9.3811593467e-001	 8.6346018612e-001	-4.3070973738e-001
 9.2912736184e-001	 8.7312504566e-001	-5.0169788385e-001
 9.2003775308e-001	 8.8269787175e-001	-5.7775439051e-001
 9.1084852978e-001	 8.9217708762e-001	-6.5896726293e-001
 9.0156114598e-001	 9.0156114598e-001	-7.4541972321e-001
 1.0092591438e+000	 8.1938756430e-001	-2.9134309033e-001
 1.0007409052e+000	 8.2976963104e-001	-3.3265472343e-001
 9.9211169339e-001	 8.4006808519e-001	-3.7755710202e-001
 9.8337274308e-001	 8.5028115826e-001	-4.2622556911e-001
 9.7452532630e-001	 8.6040710615e-001	-4.7883476993e-001
 9.6557075187e-001	 8.7044421018e-001	-5.3555802868e-001
 9.5651036476e-001	 8.8039077800e-001	-5.9656672214e-001
 9.4734554541e-001	 8.9024514460e-001	-6.6202965169e-001
 9.3807770903e-001	 9.0000567316e-001	-7.3211241561e-001
 9.2870830487e-001	 9.0967075601e-001	-8.0697678349e-001
 9.1923881551e-001	 9.1923881551e-001	-8.8678007447e-001
 1.0286679735e+000	 8.3514501747e-001	-4.4838947381e-001
 1.0199859226e+000	 8.4572673933e-001	-4.9041372608e-001
 1.0111907644e+000	 8.5622324068e-001	-5.3516471784e-001
 1.0022837574e+000	 8.6663271899e-001	-5.8288780029e-001
 9.9326619796e-001	 8.7695339665e-001	-6.3382856089e-001
 9.8413942018e-001	 8.8718352191e-001	-6.8823210118e-001
 9.7490479486e-001	 8.9732136989e-001	-7.4634230989e-001
 9.6556372898e-001	 9.0736524353e-001	-8.0840113310e-001
 9.5611766497e-001	 9.1731347456e-001	-8.7464784359e-001
 9.4656807997e-001	 9.2716442440e-001	-9.4531831135e-001
 9.3691648504e-001	 9.3691648504e-001	-1.0206442772e+000
 1.0480768032e+000	 8.5090247063e-001	-5.7862726254e-001
 1.0392309400e+000	 8.6168384763e-001	-6.2322329739e-001
 1.0302698354e+000	 8.7237839617e-001	-6.6969493302e-001
 1.0211947717e+000	 8.8298427973e-001	-7.1835800962e-001
 1.0120070696e+000	 8.9349968716e-001	-7.6952953637e-001
 1.0027080885e+000	 9.0392283365e-001	-8.2352686873e-001
 9.9329922495e-001	 9.1425196178e-001	-8.8066687939e-001
 9.8378191255e-001	 9.2448534247e-001	-9.4126512488e-001
 9.7415762092e-001	 9.3462127597e-001	-1.0056350103e+000
 9.6442785507e-001	 9.4465809279e-001	-1.0740869545e+000
 9.5459415457e-001	 9.5459415457e-001	-1.1469275569e+000
 1.0674856329e+000	 8.6665992379e-001	-6.8360587246e-001
 1.0584759574e+000	 8.7764095592e-001	-7.3247327514e-001
 1.0493489065e+000	 8.8853355166e-001	-7.8237657127e-001
 1.0401057860e+000	 8.9933584047e-001	-8.3370267205e-001
 1.0307479413e+000	 9.1004597767e-001	-8.8684059034e-001
 1.0212767568e+000	 9.2066214539e-001	-9.4218051564e-001
 1.0116936550e+000	 9.3118255367e-001	-1.0001128810e+000
 1.0020000961e+000	 9.4160544141e-001	-1.0610274246e+000
 9.9219757686e-001	 9.5192907738e-001	-1.1253122477e+000
 9.8228763016e-001	 9.6215176117e-001	-1.1933528727e+000
 9.7227182411e-001	 9.7227182411e-001	-1.2655313023e+000
 1.0868944626e+000	 8.8241737695e-001	-7.6476377042e-001
 1.0777209748e+000	 8.9359806421e-001	-8.1945204204e-001
 1.0684279775e+000	 9.0468870714e-001	-8.7434658317e-001
 1.0590168002e+000	 9.1568740121e-001	-9.2990605486e-001
 1.0494888129e+000	 9.2659226817e-001	-9.8659215350e-001
 1.0398454251e+000	 9.3740145713e-001	-1.0448685816e+000
 1.0300880851e+000	 9.4811314556e-001	-1.1052000090e+000
 1.0202182797e+000	 9.5872554035e-001	-1.1680510268e+000
 1.0102375328e+000	 9.6923687880e-001	-1.2338850981e+000
 1.0001474053e+000	 9.7964542956e-001	-1.3031635055e+000
 9.8994949364e-001	 9.8994949364e-001	-1.3763443011e+000
 1.1063032923e+000	 8.9817483012e-001	-8.2343820661e-001
 1.0969659922e+000	 9.0955517251e-001	-8.8535542528e-001
 1.0875070485e+000	 9.2084386263e-001	-9.4665810522e-001
 1.0779278145e+000	 9.3203896195e-001	-1.0078774288e+000
 1.0682296846e+000	 9.4313855868e-001	-1.0695485497e+000
 1.0584140934e+000	 9.5414076887e-001	-1.1322094569e+000
 1.0484825152e+000	 9.6504373745e-001	-1.1963998289e+000
 1.0384364633e+000	 9.7584563929e-001	-1.2626598781e+000
 1.0282774888e+000	 9.8654468021e-001	-1.3315291909e+000
 1.0180071804e+000	 9.9713909795e-001	-1.4035455646e+000
 1.0076271632e+000	 1.0076271632e+000	-1.4792438453e+000
 1.1257121220e+000	 9.1393228328e-001	-8.6087394009e-001
 1.1162110097e+000	 9.2551228080e-001	-9.3129467543e-001
 1.1065861196e+000	 9.3699901812e-001	-1.0002876852e+000
 1.0968388288e+000	 9.4839052269e-001	-1.0684575335e+000
 1.0869705563e+000	 9.5968484919e-001	-1.1364136946e+000
 1.0769827617e+000	 9.7088008061e-001	-1.2047693091e+000
 1.0668769453e+000	 9.8197432934e-001	-1.2741399271e+000
 1.0566546468e+000	 9.9296573823e-001	-1.3451422428e+000
 1.0463174447e+000	 1.0038524816e+000	-1.4183928209e+000
 1.0358669555e+000	 1.0146327663e+000	-1.4945068213e+000
 1.0253048327e+000	 1.0253048327e+000	-1.5740967222e+000
 1.1451209517e+000	 9.2968973644e-001	-8.7823107706e-001
 1.1354560271e+000	 9.4146938909e-001	-9.5830363400e-001
 1.1256651906e+000	 9.5315417361e-001	-1.0361417726e+000
 1.1157498431e+000	 9.6474208344e-001	-1.1124243848e+000
 1.1057114279e+000	 9.7623113970e-001	-1.1878362155e+000
 1.0955514300e+000	 9.8761939235e-001	-1.2630665084e+000
 1.0852713754e+000	 9.9890492123e-001	-1.3388076374e+000
 1.0748728304e+000	 1.0100858372e+000	-1.4157537271e+000
 1.0643574006e+000	 1.0211602830e+000	-1.4945992653e+000
 1.0537267306e+000	 1.0321264347e+000	-1.5760377114e+000
 1.0429825022e+000	 1.0429825022e+000	-1.6607601042e+000
 1.1645297814e+000	 9.4544718961e-001	-8.7659212523e-001
 1.1547010445e+000	 9.5742649739e-001	-9.6734518413e-001
 1.1447442616e+000	 9.6930932910e-001	-1.0550625604e+000
 1.1346608574e+000	 9.8109364418e-001	-1.1404985021e+000
 1.1244522996e+000	 9.9277743021e-001	-1.2244140582e+000
 1.1141200983e+000	 1.0043587041e+000	-1.3075756114e+000
 1.1036658055e+000	 1.0158355131e+000	-1.3907533957e+000
 1.0930910140e+000	 1.0272059361e+000	-1.4747200008e+000
 1.0823973566e+000	 1.0384680844e+000	-1.5602488677e+000
 1.0715865057e+000	 1.0496201031e+000	-1.6481127796e+000
 1.0606601718e+000	 1.0606601718e+000	-1.7390823508e+000
 8.8388347645e-001	 8.8388347645e-001	-5.9663277784e-001
 8.7468341924e-001	 8.9298875468e-001	-6.5983985752e-001
 8.6539007034e-001	 9.0199779714e-001	-7.2339372938e-001
 8.5600494672e-001	 9.1090917828e-001	-7.8735210218e-001
 8.4652959423e-001	 9.1972150458e-001	-8.5177106074e-001
 8.3696558670e-001	 9.2843341526e-001	-9.1670461895e-001
 8.2731452514e-001	 9.3704358298e-001	-9.8220427926e-001
 8.1757803678e-001	 9.4555071450e-001	-1.0483186003e+000
 8.0775777422e-001	 9.5395355134e-001	-1.1150927734e+000
 7.9785541446e-001	 9.6225087038e-001	-1.1825682103e+000
 7.8787265798e-001	 9.7044148445e-001	-1.2507821424e+000
 9.0156114598e-001	 9.0156114598e-001	-7.4541972321e-001
 8.9217708762e-001	 9.1084852978e-001	-8.0223415254e-001
 8.8269787175e-001	 9.2003775308e-001	-8.5950073251e-001
 8.7312504566e-001	 9.2912736184e-001	-9.1733362539e-001
 8.6346018612e-001	 9.3811593467e-001	-9.7584512861e-001
 8.5370489844e-001	 9.4700208356e-001	-1.0351451448e+000
 8.4386081564e-001	 9.5578445464e-001	-1.0953406593e+000
 8.3392959752e-001	 9.6446172879e-001	-1.1565352259e+000
 8.2391292970e-001	 9.7303262236e-001	-1.2188284639e+000
 8.1381252275e-001	 9.8149588779e-001	-1.2823155663e+000
 8.0363011114e-001	 9.8985031414e-001	-1.3470868214e+000
 9.1923881551e-001	 9.1923881551e-001	-8.8678007447e-001
 9.0967075601e-001	 9.2870830487e-001	-9.3850244632e-001
 9.0000567316e-001	 9.3807770903e-001	-9.9078989727e-001
 8.9024514460e-001	 9.4734554541e-001	-1.0438137337e+000
 8.8039077800e-001	 9.5651036476e-001	-1.0977431451e+000
 8.7044421018e-001	 9.6557075187e-001	-1.1527445888e+000
 8.6040710615e-001	 9.7452532630e-001	-1.2089811840e+000
 8.5028115826e-001	 9.8337274308e-001	-1.2666121146e+000
 8.4006808519e-001	 9.9211169339e-001	-1.3257920440e+000
 8.2976963104e-001	 1.0007409052e+000	-1.3866705427e+000
 8.1938756430e-001	 1.0092591438e+000	-1.4493915308e+000
 9.3691648504e-001	 9.3691648504e-001	-1.0206442772e+000
 9.2716442440e-001	 9.4656807997e-001	-1.0684436997e+000
 9.1731347456e-001	 9.5611766497e-001	-1.1169288307e+000
 9.0736524353e-001	 9.6556372898e-001	-1.1663289008e+000
 8.9732136989e-001	 9.7490479486e-001	-1.2168707595e+000
 8.8718352191e-001	 9.8413942018e-001	-1.2687781739e+000
 8.7695339665e-001	 9.9326619796e-001	-1.3222711362e+000
 8.6663271899e-001	 1.0022837574e+000	-1.3775651824e+000
 8.5622324068e-001	 1.0111907644e+000	-1.4348707229e+000
 8.4572673933e-001	 1.0199859226e+000	-1.4943923881e+000
 8.3514501747e-001	 1.0286679735e+000	-1.5563283900e+000
 9.5459415457e-001	 9.5459415457e-001	-1.1469275569e+000
 9.4465809279e-001	 9.6442785507e-001	-1.1918493964e+000
 9.3462127597e-001	 9.7415762092e-001	-1.2375854101e+000
 9.2448534247e-001	 9.8378191255e-001	-1.2844236181e+000
 9.1425196178e-001	 9.9329922495e-001	-1.3326493835e+000
 9.0392283365e-001	 1.0027080885e+000	-1.3825446226e+000
 8.9349968716e-001	 1.0120070696e+000	-1.4343870244e+000
 8.8298427973e-001	 1.0211947717e+000	-1.4884492826e+000
 8.7237839617e-001	 1.0302698354e+000	-1.5449983409e+000
 8.6168384763e-001	 1.0392309400e+000	-1.6042946541e+000
 8.5090247063e-001	 1.0480768032e+000	-1.6665914674e+000
 9.7227182411e-001	 9.7227182411e-001	-1.2655313023e+000
 9.6215176117e-001	 9.8228763016e-001	-1.3085042229e+000
 9.5192907738e-001	 9.9219757686e-001	-1.3524277583e+000
 9.4160544141e-001	 1.0020000961e+000	-1.3976496659e+000
 9.3118255367e-001	 1.0116936550e+000	-1.4445147578e+000
 9.2066214539e-001	 1.0212767568e+000	-1.4933640203e+000
 9.1004597767e-001	 1.0307479413e+000	-1.5445337439e+000
 8.9933584047e-001	 1.0401057860e+000	-1.5983546663e+000
 8.8853355166e-001	 1.0493489065e+000	-1.6551511301e+000
 8.7764095592e-001	 1.0584759574e+000	-1.7152402583e+000
 8.6665992379e-001	 1.0674856329e+000	-1.7789311485e+000
 9.8994949364e-001	 9.8994949364e-001	-1.3763443011e+000
 9.7964542956e-001	 1.0001474053e+000	-1.4181866753e+000
 9.6923687880e-001	 1.0102375328e+000	-1.4611242220e+000
 9.5872554035e-001	 1.0202182797e+000	-1.5055654629e+000
 9.4811314556e-001	 1.0300880851e+000	-1.5519156730e+000
 9.3740145713e-001	 1.0398454251e+000	-1.6005759081e+000
 9.2659226817e-001	 1.0494888129e+000	-1.6519420426e+000
 9.1568740121e-001	 1.0590168002e+000	-1.7064038217e+000
 9.0468870714e-001	 1.0684279775e+000	-1.7643439296e+000
 8.9359806421e-001	 1.0777209748e+000	-1.8261370768e+000
 8.8241737695e-001	 1.0868944626e+000	-1.8921491078e+000
 1.0076271632e+000	 1.0076271632e+000	-1.4792438453e+000
 9.9713909795e-001	 1.0180071804e+000	-1.5206696021e+000
 9.8654468021e-001	 1.0282774888e+000	-1.5633433520e+000
 9.7584563929e-001	 1.0384364633e+000	-1.6077354834e+000
 9.6504373745e-001	 1.0484825152e+000	-1.6543128247e+000
 9.5414076887e-001	 1.0584140934e+000	-1.7035375760e+000
 9.4313855868e-001	 1.0682296846e+000	-1.7558662530e+000
 9.3203896195e-001	 1.0779278145e+000	-1.8117486466e+000
 9.2084386263e-001	 1.0875070485e+000	-1.8716267988e+000
 9.0955517251e-001	 1.0969659922e+000	-1.9359340003e+000
 8.9817483012e-001	 1.1063032923e+000	-2.0050938094e+000
 1.0253048327e+000	 1.0253048327e+000	-1.5740967222e+000
 1.0146327663e+000	 1.0358669555e+000	-1.6157206917e+000
 1.0038524816e+000	 1.0463174447e+000	-1.6587538856e+000
 9.9296573823e-001	 1.0566546468e+000	-1.7037297359e+000
 9.8197432934e-001	 1.0668769453e+000	-1.7511777875e+000
 9.7088008061e-001	 1.0769827617e+000	-1.8016225328e+000
 9.5968484919e-001	 1.0869705563e+000	-1.8555822591e+000
 9.4839052269e-001	 1.0968388288e+000	-1.9135679126e+000
 9.3699901812e-001	 1.1065861196e+000	-1.9760819811e+000
 9.2551228080e-001	 1.1162110097e+000	-2.0436173985e+000
 9.1393228328e-001	 1.1257121220e+000	-2.1166564737e+000
 1.0429825022e+000	 1.0429825022e+000	-1.6607601042e+000
 1.0321264347e+000	 1.0537267306e+000	-1.7031029087e+000
 1.0211602830e+000	 1.0643574006e+000	-1.7470247306e+000
 1.0100858372e+000	 1.0748728304e+000	-1.7931232933e+000
 9.9890492123e-001	 1.0852713754e+000	-1.8419920927e+000
 9.8761939235e-001	 1.0955514300e+000	-1.8942191318e+000
 9.7623113970e-001	 1.1057114279e+000	-1.9503856698e+000
 9.6474208344e-001	 1.1157498431e+000	-2.0110649881e+000
 9.5315417361e-001	 1.1256651906e+000	-2.0768211767e+000
 9.4146938909e-001	 1.1354560271e+000	-2.1482079441e+000
 9.2968973644e-001	 1.1451209517e+000	-2.2257674539e+000
 1.0606601718e+000	 1.0606601718e+000	-1.7390823508e+000
 1.0496201031e+000	 1.0715865057e+000	-1.7825748886e+000
 1.0384680844e+000	 1.0823973566e+000	-1.8278249516e+000
 1.0272059361e+000	 1.0930910140e+000	-1.8754958716e+000
 1.0158355131e+000	 1.1036658055e+000	-1.9262463987e+000
 1.0043587041e+000	 1.1141200983e+000	-1.9807293337e+000
 9.9277743021e-001	 1.1244522996e+000	-2.0395901758e+000
 9.8109364418e-001	 1.1346608574e+000	-2.1034657884e+000
 9.6930932910e-001	 1.1447442616e+000	-2.1729830874e+000
 9.5742649739e-001	 1.1547010445e+000	-2.2487577538e+000
 9.4544718961e-001	 1.1645297814e+000	-2.3313929748e+000
 7.8787265798e-001	 9.7044148445e-001	-1.2507821424e+000
 7.7781122776e-001	 9.7852424289e-001	-1.3079835823e+000
 7.6767286832e-001	 9.8649803203e-001	-1.3692218933e+000
 7.5745934472e-001	 9.9436177575e-001	-1.4345908790e+000
 7.4717244154e-001	 1.0021144359e+000	-1.5041756445e+000
 7.3681396190e-001	 1.0097550126e+000	-1.5780522123e+000
 7.2638572639e-001	 1.0172825451e+000	-1.6562871612e+000
 7.1588957207e-001	 1.0246961113e+000	-1.7389372896e+000
 7.0532735142e-001	 1.0319948291e+000	-1.8260493024e+000
 6.9470093126e-001	 1.0391778559e+000	-1.9176595236e+000
 6.8401219173e-001	 1.0462443890e+000	-2.0137936358e+000
 8.0363011114e-001	 9.8985031414e-001	-1.3470868214e+000
 7.9336745232e-001	 9.9809472774e-001	-1.4039020576e+000
 7.8302632569e-001	 1.0062279927e+000	-1.4648291902e+000
 7.7260853162e-001	 1.0142490113e+000	-1.5299443619e+000
 7.6211589037e-001	 1.0221567246e+000	-1.5993148162e+000
 7.5155024114e-001	 1.0299501129e+000	-1.6729985140e+000
 7.4091344092e-001	 1.0376281960e+000	-1.7510437728e+000
 7.3020736352e-001	 1.0451900336e+000	-1.8334889315e+000
 7.1943389845e-001	 1.0526347257e+000	-1.9203620396e+000
 7.0859494989e-001	 1.0599614130e+000	-2.0116805734e+000
 6.9769243556e-001	 1.0671692768e+000	-2.1074511783e+000
 8.1938756430e-001	 1.0092591438e+000	-1.4493915308e+000
 8.0892367688e-001	 1.0176652126e+000	-1.5030035739e+000
 7.9837978306e-001	 1.0259579533e+000	-1.5608399347e+000
 7.8775771852e-001	 1.0341362468e+000	-1.6229615643e+000
 7.7705933921e-001	 1.0421990133e+000	-1.6894202654e+000
 7.6628652038e-001	 1.0501452131e+000	-1.7602583052e+000
 7.5544115545e-001	 1.0579738469e+000	-1.8355080525e+000
 7.4452515496e-001	 1.0656839558e+000	-1.9151916413e+000
 7.3354044548e-001	 1.0732746223e+000	-1.9993206597e+000
 7.2248896852e-001	 1.0807449701e+000	-2.0878958661e+000
 7.1137267940e-001	 1.0880941646e+000	-2.1809069345e+000
 8.3514501747e-001	 1.0286679735e+000	-1.5563283900e+000
 8.2447990144e-001	 1.0372356975e+000	-1.6040330539e+000
 8.1373324043e-001	 1.0456879139e+000	-1.6561115125e+000
 8.0290690541e-001	 1.0540234823e+000	-1.7126119661e+000
 7.9200278804e-001	 1.0622413020e+000	-1.7735731675e+000
 7.8102279962e-001	 1.0703403134e+000	-1.8390240283e+000
 7.6996886998e-001	 1.0783194978e+000	-1.9089832517e+000
 7.5884294641e-001	 1.0861778780e+000	-1.9834589918e+000
 7.4764699251e-001	 1.0939145189e+000	-2.0624485392e+000
 7.3638298714e-001	 1.1015285272e+000	-2.1459380362e+000
 7.2505292324e-001	 1.1090190524e+000	-2.2339022203e+000
 8.5090247063e-001	 1.0480768032e+000	-1.6665914674e+000
 8.4003612600e-001	 1.0568061823e+000	-1.7057872807e+000
 8.2908669780e-001	 1.0654178746e+000	-1.7495431485e+000
 8.1805609231e-001	 1.0739107178e+000	-1.7978969358e+000
 8.0694623688e-001	 1.0822835907e+000	-1.8508767110e+000
 7.9575907886e-001	 1.0905354136e+000	-1.9085003437e+000
 7.8449658451e-001	 1.0986651487e+000	-1.9707751295e+000
 7.7316073785e-001	 1.1066718002e+000	-2.0376974420e+000
 7.6175353954e-001	 1.1145544154e+000	-2.1092524138e+000
 7.5027700577e-001	 1.1223120843e+000	-2.1854136467e+000
 7.3873316707e-001	 1.1299439401e+000	-2.2661429520e+000
 8.6665992379e-001	 1.0674856329e+000	-1.7789311485e+000
 8.5559235055e-001	 1.0763766672e+000	-1.8071101840e+000
 8.4444015517e-001	 1.0851478352e+000	-1.8400721033e+000
 8.3320527921e-001	 1.0937979533e+000	-1.8778468311e+000
 8.2188968571e-001	 1.1023258794e+000	-1.9204540965e+000
 8.1049535810e-001	 1.1107305139e+000	-1.9679030196e+000
 7.9902429904e-001	 1.1190107996e+000	-2.0201917249e+000
 7.8747852929e-001	 1.1271657225e+000	-2.0773069847e+000
 7.7586008657e-001	 1.1351943120e+000	-2.1392238910e+000
 7.6417102439e-001	 1.1430956414e+000	-2.2059055595e+000
 7.5241341090e-001	 1.1508688279e+000	-2.2773028645e+000
 8.8241737695e-001	 1.0868944626e+000	-1.8921491078e+000
 8.7114857511e-001	 1.0959471520e+000	-1.9068886300e+000
 8.5979361254e-001	 1.1048777959e+000	-1.9266702769e+000
 8.4835446610e-001	 1.1136851888e+000	-1.9515184108e+000
 8.3683313454e-001	 1.1223681682e+000	-1.9814467498e+000
 8.2523163734e-001	 1.1309256141e+000	-2.0164579396e+000
 8.1355201357e-001	 1.1393564505e+000	-2.0565431535e+000
 8.0179632073e-001	 1.1476596447e+000	-2.1016817231e+000
 7.8996663360e-001	 1.1558342086e+000	-2.1518408004e+000
 7.7806504302e-001	 1.1638791986e+000	-2.2069750516e+000
 7.6609365474e-001	 1.1717937157e+000	-2.2670263846e+000
 8.9817483012e-001	 1.1063032923e+000	-2.0050938094e+000
 8.8670479967e-001	 1.1155176369e+000	-2.0040486552e+000
 8.7514706991e-001	 1.1246077565e+000	-2.0083411702e+000
 8.6350365300e-001	 1.1335724243e+000	-2.0179925190e+000
 8.5177658338e-001	 1.1424104569e+000	-2.0330127234e+000
 8.3996791658e-001	 1.1511207144e+000	-2.0534002161e+000
 8.2807972810e-001	 1.1597021014e+000	-2.0791414249e+000
 8.1611411218e-001	 1.1681535669e+000	-2.1102103880e+000
 8.0407318063e-001	 1.1764741052e+000	-2.1465684028e+000
 7.9195906164e-001	 1.1846627557e+000	-2.1881637084e+000
 7.7977389857e-001	 1.1927186035e+000	-2.2349312020e+000
 9.1393228328e-001	 1.1257121220e+000	-2.1166564737e+000
 9.0226102423e-001	 1.1350881218e+000	-2.0975520899e+000
 8.9050052728e-001	 1.1443377172e+000	-2.0841171610e+000
 8.7865283990e-001	 1.1534596599e+000	-2.0763720086e+000
 8.6672003221e-001	 1.1624527456e+000	-2.0743252626e+000
 8.5470419582e-001	 1.1713158147e+000	-2.0779733941e+000
 8.4260744262e-001	 1.1800477523e+000	-2.0873002797e+000
 8.3043190362e-001	 1.1886474891e+000	-2.1022768004e+000
 8.1817972766e-001	 1.1971140018e+000	-2.1228604736e+000
 8.0585308027e-001	 1.2054463128e+000	-2.1489951212e+000
 7.9345414240e-001	 1.2136434913e+000	-2.1806105742e+000
 9.2968973644e-001	 1.1451209517e+000	-2.2257674539e+000
 9.1781724879e-001	 1.1546586066e+000	-2.1863935245e+000
 9.0585398465e-001	 1.1640676778e+000	-2.1530570564e+000
 8.9380202679e-001	 1.1733468954e+000	-2.1257798762e+000
 8.8166348104e-001	 1.1824950343e+000	-2.1045715188e+000
 8.6944047506e-001	 1.1915109149e+000	-2.0894287367e+000
 8.5713515715e-001	 1.2003934032e+000	-2.0803350428e+000
 8.4474969506e-001	 1.2091414114e+000	-2.0772602881e+000
 8.3228627468e-001	 1.2177538984e+000	-2.0801602758e+000
 8.1974709889e-001	 1.2262298699e+000	-2.0889764123e+000
 8.0713438624e-001	 1.2345683790e+000	-2.1036353968e+000
 9.4544718961e-001	 1.1645297814e+000	-2.3313929748e+000
 9.3337347334e-001	 1.1742290915e+000	-2.2695975795e+000
 9.2120744201e-001	 1.1837976384e+000	-2.2142438909e+000
 9.0895121369e-001	 1.1932341309e+000	-2.1653575837e+000
 8.9660692987e-001	 1.2025373230e+000	-2.1229513900e+000
 8.8417675429e-001	 1.2117060152e+000	-2.0870245823e+000
 8.7166287168e-001	 1.2207390541e+000	-2.0575624912e+000
 8.5906748650e-001	 1.2296353336e+000	-2.0345360597e+000
 8.4639282171e-001	 1.2383937949e+000	-2.0179014365e+000
 8.3364111751e-001	 1.2470134270e+000	-2.0075996074e+000
 8.2081463007e-001	 1.2554932668e+000	-2.0425585710e+000
 6.8401219173e-001	 1.0462443890e+000	-2.0137936358e+000
 6.7326302520e-001	 1.0531936664e+000	-1.9995424915e+000
 6.6245533522e-001	 1.0600249662e+000	-1.9750739190e+000
 6.5159103546e-001	 1.0667376072e+000	-1.9404815037e+000
 6.4067204862e-001	 1.0733309490e+000	-1.8958606673e+000
 6.2970030539e-001	 1.0798043922e+000	-1.8413083316e+000
 6.1867774335e-001	 1.0861573781e+000	-1.8808740331e+000
 6.0760630594e-001	 1.0923893889e+000	-1.9834527174e+000
 5.9648794139e-001	 1.0984999480e+000	-2.0699891759e+000
 5.8532460163e-001	 1.1044886196e+000	-2.1401112781e+000
 5.7411824131e-001	 1.1103550086e+000	-2.1934645576e+000
 6.9769243556e-001	 1.0671692768e+000	-2.1074511783e+000
 6.8672828570e-001	 1.0742575397e+000	-2.0958812639e+000
 6.7570444192e-001	 1.0812254655e+000	-2.0764407975e+000
 6.6462285617e-001	 1.0880723593e+000	-2.0492200733e+000
 6.5348548960e-001	 1.0947975680e+000	-2.0143087680e+000
 6.4229431150e-001	 1.1014004800e+000	-1.9717956139e+000
 6.3105129822e-001	 1.1078805256e+000	-1.9217680900e+000
 6.1975843206e-001	 1.1142371767e+000	-1.9501711880e+000
 6.0841770021e-001	 1.1204699470e+000	-2.0654025096e+000
 5.9703109366e-001	 1.1265783920e+000	-2.1658997905e+000
 5.8560060613e-001	 1.1325621087e+000	-2.2512548074e+000
 7.1137267940e-001	 1.0880941646e+000	-2.1809069345e+000
 7.0019354621e-001	 1.0953214130e+000	-2.1712916203e+000
 6.8895354863e-001	 1.1024259648e+000	-2.1561160751e+000
 6.7765467688e-001	 1.1094071114e+000	-2.1354687703e+000
 6.6629893057e-001	 1.1162641870e+000	-2.1094350939e+000
 6.5488831761e-001	 1.1229965679e+000	-2.0780970334e+000
 6.4342485309e-001	 1.1296036732e+000	-2.0415328783e+000
 6.3191055818e-001	 1.1360849645e+000	-1.9998169450e+000
 6.2034745904e-001	 1.1424399459e+000	-2.0286657938e+000
 6.0873758569e-001	 1.1486681643e+000	-2.1593420701e+000
 5.9708297096e-001	 1.1547692089e+000	-2.2764455099e+000
 7.2505292324e-001	 1.1090190524e+000	-2.2339022203e+000
 7.1365880671e-001	 1.1163852864e+000	-2.2255317187e+000
 7.0220265533e-001	 1.1236264641e+000	-2.2138795568e+000
 6.9068649759e-001	 1.1307418636e+000	-2.1990338430e+000
 6.7911237154e-001	 1.1377308060e+000	-2.1810771231e+000
 6.6748232371e-001	 1.1445926557e+000	-2.1600860694e+000
 6.5579840795e-001	 1.1513268207e+000	-2.1361311944e+000
 6.4406268430e-001	 1.1579327522e+000	-2.1092765897e+000
 6.3227721786e-001	 1.1644099449e+000	-2.0795796911e+000
 6.2044407772e-001	 1.1707579367e+000	-2.1203276142e+000
 6.0856533578e-001	 1.1769763091e+000	-2.2690167765e+000
 7.3873316707e-001	 1.1299439401e+000	-2.2661429520e+000
 7.2712406721e-001	 1.1374491597e+000	-2.2583218538e+000
 7.1545176204e-001	 1.1448269634e+000	-2.2494704266e+000
 7.0371831829e-001	 1.1520766157e+000	-2.2396778712e+000
 6.9192581251e-001	 1.1591974249e+000	-2.2290253289e+000
 6.8007632982e-001	 1.1661887436e+000	-2.2175855753e+000
 6.6817196282e-001	 1.1730499683e+000	-2.2054227431e+000
 6.5621481041e-001	 1.1797805400e+000	-2.1925920736e+000
 6.4420697669e-001	 1.1863799439e+000	-2.1791396987e+000
 6.3215056975e-001	 1.1928477091e+000	-2.1651024522e+000
 6.2004770061e-001	 1.1991834092e+000	-2.2288758075e+000
 7.5241341090e-001	 1.1508688279e+000	-2.2773028645e+000
 7.4058932772e-001	 1.1585130330e+000	-2.2693478983e+000
 7.2870086874e-001	 1.1660274628e+000	-2.2625909403e+000
 7.1675013900e-001	 1.1734113679e+000	-2.2571237359e+000
 7.0473925348e-001	 1.1806640439e+000	-2.2530274534e+000
 6.9267033592e-001	 1.1877848314e+000	-2.2503723812e+000
 6.8054551768e-001	 1.1947731158e+000	-2.2492176568e+000
 6.6836693653e-001	 1.2016283278e+000	-2.2496110303e+000
 6.5613673552e-001	 1.2083499428e+000	-2.2515886614e+000
 6.4385706178e-001	 1.2149374815e+000	-2.2551749497e+000
 6.3153006543e-001	 1.2213905094e+000	-2.2603823998e+000
 7.6609365474e-001	 1.1717937157e+000	-2.2670263846e+000
 7.5405458822e-001	 1.1795769063e+000	-2.2582643771e+000
 7.4194997544e-001	 1.1872279621e+000	-2.2529097230e+000
 7.2978195971e-001	 1.1947461200e+000	-2.2510581639e+000
 7.1755269445e-001	 1.2021306629e+000	-2.2527923228e+000
 7.0526434203e-001	 1.2093809192e+000	-2.2581814027e+000
 6.9291907255e-001	 1.2164962634e+000	-2.2672809210e+000
 6.8051906265e-001	 1.2234761156e+000	-2.2801324828e+000
 6.6806649434e-001	 1.2303199418e+000	-2.2967635910e+000
 6.5556355381e-001	 1.2370272539e+000	-2.3171874950e+000
 6.4301243026e-001	 1.2435976096e+000	-2.3414030771e+000
 7.7977389857e-001	 1.1927186035e+000	-2.2349312020e+000
 7.6751984872e-001	 1.2006407797e+000	-2.2246972164e+000
 7.5519908214e-001	 1.2084284614e+000	-2.2200647189e+000
 7.4281378042e-001	 1.2160808721e+000	-2.2211348992e+000
 7.3036613542e-001	 1.2235972819e+000	-2.2279932607e+000
 7.1785834814e-001	 1.2309770071e+000	-2.2407093179e+000
 7.0529262741e-001	 1.2382194110e+000	-2.2593363353e+000
 6.9267118877e-001	 1.2453239033e+000	-2.2839111080e+000
 6.7999625317e-001	 1.2522899407e+000	-2.3113737073e+000
 6.6727004585e-001	 1.2591170263e+000	-2.3301380581e+000
 6.5449479508e-001	 1.2658047097e+000	-2.3421737282e+000
 7.9345414240e-001	 1.2136434913e+000	-2.1806105742e+000
 7.8098510922e-001	 1.2217046530e+000	-2.1682462093e+000
 7.6844818885e-001	 1.2296289607e+000	-2.1636658360e+000
 7.5584560112e-001	 1.2374156243e+000	-2.1669775464e+000
 7.4317957639e-001	 1.2450639008e+000	-2.1782711489e+000
 7.3045235424e-001	 1.2525730949e+000	-2.2023890614e+000
 7.1766618228e-001	 1.2599425585e+000	-2.2346449957e+000
 7.0482331488e-001	 1.2671716911e+000	-2.2615408273e+000
 6.9192601199e-001	 1.2742599397e+000	-2.2830328824e+000
 6.7897653788e-001	 1.2812067987e+000	-2.2990820042e+000
 6.6597715991e-001	 1.2880118099e+000	-2.3096535695e+000
 8.0713438624e-001	 1.2345683790e+000	-2.1036353968e+000
 7.9445036972e-001	 1.2427685263e+000	-2.0884872308e+000
 7.8169729555e-001	 1.2508294600e+000	-2.0873920730e+000
 7.6887742183e-001	 1.2587503764e+000	-2.1240555078e+000
 7.5599301736e-001	 1.2665305198e+000	-2.1568119604e+000
 7.4304636035e-001	 1.2741691828e+000	-2.1855936171e+000
 7.3003973714e-001	 1.2816657061e+000	-2.2103358759e+000
 7.1697544100e-001	 1.2890194789e+000	-2.2309773993e+000
 7.0385577082e-001	 1.2962299386e+000	-2.2474601655e+000
 6.9068302991e-001	 1.3032965711e+000	-2.2597295169e+000
 6.7745952473e-001	 1.3102189101e+000	-2.2677342051e+000
 8.2081463007e-001	 1.2554932668e+000	-2.0425585710e+000
 8.0791563023e-001	 1.2638323996e+000	-2.0721211547e+000
 7.9494640225e-001	 1.2720299594e+000	-2.0991942512e+000
 7.8190924254e-001	 1.2800851286e+000	-2.1236961063e+000
 7.6880645833e-001	 1.2879971388e+000	-2.1455468044e+000
 7.5564036645e-001	 1.2957652706e+000	-2.1646683479e+000
 7.4241329201e-001	 1.3033888536e+000	-2.1809847353e+000
 7.2912756712e-001	 1.3108672667e+000	-2.1944220392e+000
 7.1578552965e-001	 1.3181999376e+000	-2.2049084827e+000
 7.0238952194e-001	 1.3253863434e+000	-2.2123745148e+000
 6.8894188956e-001	 1.3324260102e+000	-2.2167528844e+000
 5.7411824131e-001	 1.1103550086e+000	-2.1934645576e+000
 5.6287081669e-001	 1.1160987607e+000	-2.2033720057e+000
 5.5158428467e-001	 1.1217195625e+000	-2.2147321673e+000
 5.4026060171e-001	 1.1272171407e+000	-2.2268036600e+000
 5.2890172284e-001	 1.1325912624e+000	-2.2388502183e+000
 5.1750960065e-001	 1.1378417347e+000	-2.2501416144e+000
 5.0608618433e-001	 1.1429684047e+000	-2.2599545573e+000
 4.9463341865e-001	 1.1479711587e+000	-2.2675735699e+000
 4.8315324300e-001	 1.1528499225e+000	-2.2722918420e+000
 4.7164759049e-001	 1.1576046607e+000	-2.2734120581e+000
 4.6011838696e-001	 1.1622353763e+000	-2.2702471991e+000
 5.8560060613e-001	 1.1325621087e+000	-2.2512548074e+000
 5.7412823303e-001	 1.1384207360e+000	-2.2731641689e+000
 5.6261597037e-001	 1.1441539538e+000	-2.2934847152e+000
 5.5106581375e-001	 1.1497614835e+000	-2.3115211648e+000
 5.3947975730e-001	 1.1552430876e+000	-2.3265855492e+000
 5.2785979267e-001	 1.1605985694e+000	-2.3379980714e+000
 5.1620790802e-001	 1.1658277727e+000	-2.3450879416e+000
 5.0452608702e-001	 1.1709305819e+000	-2.3471941880e+000
 4.9281630786e-001	 1.1759069209e+000	-2.3436664427e+000
 4.8108054230e-001	 1.1807567539e+000	-2.3338656997e+000
 4.6932075469e-001	 1.1854800839e+000	-2.3171650459e+000
 5.9708297096e-001	 1.1547692089e+000	-2.2764455099e+000
 5.8538564936e-001	 1.1607427112e+000	-2.3150801632e+000
 5.7364765606e-001	 1.1665883450e+000	-2.3491962349e+000
 5.6187102578e-001	 1.1723058263e+000	-2.3781411308e+000
 5.5005779175e-001	 1.1778949129e+000	-2.4012717238e+000
 5.3820998468e-001	 1.1833554041e+000	-2.4179551552e+000
 5.2632963171e-001	 1.1886871408e+000	-2.4275696097e+000
 5.1441875539e-001	 1.1938900050e+000	-2.4295050649e+000
 5.0247937272e-001	 1.1989639194e+000	-2.4231640135e+000
 4.9051349411e-001	 1.2039088471e+000	-2.4079621559e+000
 4.7852312243e-001	 1.2087247914e+000	-2.3833290641e+000
 6.0856533578e-001	 1.1769763091e+000	-2.2690167765e+000
 5.9664306569e-001	 1.1830646864e+000	-2.3289095867e+000
 5.8467934175e-001	 1.1890227363e+000	-2.3814599706e+000
 5.7267623781e-001	 1.1948501691e+000	-2.4260547144e+000
 5.6063582621e-001	 1.2005467381e+000	-2.4620921865e+000
 5.4856017669e-001	 1.2061122388e+000	-2.4889830855e+000
 5.3645135539e-001	 1.2115465089e+000	-2.5061511589e+000
 5.2431142377e-001	 1.2168494282e+000	-2.5130338948e+000
 5.1214243758e-001	 1.2220209178e+000	-2.5090831839e+000
 4.9994644592e-001	 1.2270609403e+000	-2.4937659514e+000
 4.8772549017e-001	 1.2319694989e+000	-2.4665647567e+000
 6.2004770061e-001	 1.1991834092e+000	-2.2288758075e+000
 6.0790048203e-001	 1.2053866616e+000	-2.3143849637e+000
 5.9571102745e-001	 1.2114571275e+000	-2.3898283777e+000
 5.8348144985e-001	 1.2173945119e+000	-2.4546290056e+000
 5.7121386067e-001	 1.2231985634e+000	-2.5082234656e+000
 5.5891036871e-001	 1.2288690735e+000	-2.5500627344e+000
 5.4657307908e-001	 1.2344058770e+000	-2.5796128148e+000
 5.3420409214e-001	 1.2398088514e+000	-2.5963553730e+000
 5.2180550244e-001	 1.2450779163e+000	-2.5997883442e+000
 5.0937939773e-001	 1.2502130335e+000	-2.5870452160e+000
 4.9692785791e-001	 1.2552142064e+000	-2.5038279123e+000
 6.3153006543e-001	 1.2213905094e+000	-2.2603823998e+000
 6.1915789836e-001	 1.2277086368e+000	-2.2711869331e+000
 6.0674271314e-001	 1.2338915188e+000	-2.3738168302e+000
 5.9428666188e-001	 1.2399388547e+000	-2.4632092160e+000
 5.8179189512e-001	 1.2458503886e+000	-2.5388358022e+000
 5.6926056072e-001	 1.2516259082e+000	-2.5864184449e+000
 5.5669480277e-001	 1.2572652451e+000	-2.5798588925e+000
 5.4409676051e-001	 1.2627682746e+000	-2.5516343905e+000
 5.3146856730e-001	 1.2681349147e+000	-2.5023455161e+000
 5.1881234953e-001	 1.2733651267e+000	-2.4325796811e+000
 5.0613022564e-001	 1.2784589140e+000	-2.3429101986e+000
 6.4301243026e-001	 1.2435976096e+000	-2.3414030771e+000
 6.3041531469e-001	 1.2500306120e+000	-2.2836001868e+000
 6.1777439883e-001	 1.2563259100e+000	-2.2974390994e+000
 6.0509187392e-001	 1.2624831976e+000	-2.3695309405e+000
 5.9236992958e-001	 1.2685022138e+000	-2.4158394964e+000
 5.7961075273e-001	 1.2743827429e+000	-2.4371128193e+000
 5.6681652645e-001	 1.2801246132e+000	-2.4340888272e+000
 5.5398942888e-001	 1.2857276977e+000	-2.4074940392e+000
 5.4113163216e-001	 1.2911919132e+000	-2.3580423724e+000
 5.2824530134e-001	 1.2965172200e+000	-2.2864340034e+000
 5.1533259338e-001	 1.3017036215e+000	-2.1933542953e+000
 6.5449479508e-001	 1.2658047097e+000	-2.3421737282e+000
 6.4167273103e-001	 1.2723525872e+000	-2.2665695877e+000
 6.2880608453e-001	 1.2787603012e+000	-2.1744366888e+000
 6.1589708595e-001	 1.2850275404e+000	-2.2003908994e+000
 6.0294796403e-001	 1.2911540391e+000	-2.2565114015e+000
 5.8996094475e-001	 1.2971395776e+000	-2.2855756451e+000
 5.7693825014e-001	 1.3029839813e+000	-2.2884361113e+000
 5.6388209726e-001	 1.3086871209e+000	-2.2659334811e+000
 5.5079469702e-001	 1.3142489116e+000	-2.2188952837e+000
 5.3767825315e-001	 1.3196693132e+000	-2.1481346142e+000
 5.2453496112e-001	 1.3249483290e+000	-2.0544489200e+000
 6.6597715991e-001	 1.2880118099e+000	-2.3096535695e+000
 6.5293014736e-001	 1.2946745624e+000	-2.2421768473e+000
 6.3983777022e-001	 1.3011946925e+000	-2.1558340567e+000
 6.2670229798e-001	 1.3075718832e+000	-2.0509026281e+000
 6.1352599849e-001	 1.3138058643e+000	-2.0933885981e+000
 6.0031113676e-001	 1.3198964122e+000	-2.1322669850e+000
 5.8705997383e-001	 1.3258433494e+000	-2.1431456424e+000
 5.7377476563e-001	 1.3316465441e+000	-2.1269799532e+000
 5.6045776188e-001	 1.3373059101e+000	-2.0847114803e+000
 5.4711120496e-001	 1.3428214064e+000	-2.0172665389e+000
 5.3373732886e-001	 1.3481930365e+000	-1.9255548431e+000
 6.7745952473e-001	 1.3102189101e+000	-2.2677342051e+000
 6.6418756369e-001	 1.3169965376e+000	-2.2106667905e+000
 6.5086945591e-001	 1.3236290837e+000	-2.1324742534e+000
 6.3750751002e-001	 1.3301162260e+000	-2.0334955192e+000
 6.2410403295e-001	 1.3364576896e+000	-1.9271393000e+000
 6.1066132877e-001	 1.3426532469e+000	-1.9776536310e+000
 5.9718169751e-001	 1.3487027175e+000	-1.9984804025e+000
 5.8366743400e-001	 1.3546059672e+000	-1.9906903831e+000
 5.7012082674e-001	 1.3603629085e+000	-1.9553397331e+000
 5.5654415677e-001	 1.3659734996e+000	-1.8934684311e+000
 5.4293969659e-001	 1.3714377441e+000	-1.8060987813e+000
 6.8894188956e-001	 1.3324260102e+000	-2.2167528844e+000
 6.7544498003e-001	 1.3393185129e+000	-2.1722511937e+000
 6.6190114160e-001	 1.3460634750e+000	-2.1044400998e+000
 6.4831272205e-001	 1.3526605688e+000	-2.0137185985e+000
 6.3468206740e-001	 1.3591095148e+000	-1.9005011560e+000
 6.2101152078e-001	 1.3654100816e+000	-1.8222085433e+000
 6.0730342120e-001	 1.3715620856e+000	-1.8547199510e+000
 5.9356010237e-001	 1.3775653904e+000	-1.8571489147e+000
 5.7978389160e-001	 1.3834199070e+000	-1.8306668919e+000
 5.6597710858e-001	 1.3891255928e+000	-1.7764281043e+000
 5.5214206433e-001	 1.3946824516e+000	-1.6955679029e+000
 4.6011838696e-001	 1.1622353763e+000	-2.2702471991e+000
 4.4856755008e-001	 1.1667421108e+000	-2.3483127877e+000
 4.3699698847e-001	 1.1711249430e+000	-2.4197147623e+000
 4.2540860082e-001	 1.1753839893e+000	-2.4841633758e+000
 4.1380427497e-001	 1.1795194030e+000	-2.5413775955e+000
 4.0218588716e-001	 1.1835313736e+000	-2.5910854560e+000
 3.9055530112e-001	 1.1874201265e+000	-2.6330243902e+000
 3.7891436731e-001	 1.1911859226e+000	-2.6669415401e+000
 3.6726492216e-001	 1.1948290576e+000	-2.6925940454e+000
 3.5560878723e-001	 1.1983498614e+000	-2.7097493105e+000
 3.4394776857e-001	 1.2017486977e+000	-2.7181852496e+000
 4.6932075469e-001	 1.1854800839e+000	-2.3171650459e+000
 4.5753890108e-001	 1.1900769530e+000	-2.4022779799e+000
 4.4573692824e-001	 1.1945474418e+000	-2.4807428320e+000
 4.3391677283e-001	 1.1988916691e+000	-2.5522209631e+000
 4.2208036047e-001	 1.2031097911e+000	-2.6163831193e+000
 4.1022960490e-001	 1.2072020010e+000	-2.6729098345e+000
 3.9836640714e-001	 1.2111685290e+000	-2.7214918098e+000
 3.8649265466e-001	 1.2150096411e+000	-2.7618302703e+000
 3.7461022059e-001	 1.2187256388e+000	-2.7936372980e+000
 3.6272096297e-001	 1.2223168587e+000	-2.8166361409e+000
 3.5082672394e-001	 1.2257836717e+000	-2.8305614979e+000
 4.7852312243e-001	 1.2087247914e+000	-2.3833290641e+000
 4.6651025208e-001	 1.2134117952e+000	-2.4746645951e+000
 4.5447686801e-001	 1.2179699407e+000	-2.5593581464e+000
 4.4242494484e-001	 1.2223993489e+000	-2.6370220229e+000
 4.3035644597e-001	 1.2267001791e+000	-2.7072785976e+000
 4.1827332264e-001	 1.2308726285e+000	-2.7697607647e+000
 4.0617751316e-001	 1.2349169315e+000	-2.8241123680e+000
 3.9407094200e-001	 1.2388333595e+000	-2.8699886042e+000
 3.8195551903e-001	 1.2426222199e+000	-2.9070564004e+000
 3.6983313871e-001	 1.2462838559e+000	-2.9349947649e+000
 3.5770567931e-001	 1.2498186456e+000	-2.9534951133e+000
 4.8772549017e-001	 1.2319694989e+000	-2.4665647567e+000
 4.7548160308e-001	 1.2367466374e+000	-2.5634226996e+000
 4.6321680778e-001	 1.2413924396e+000	-2.6536355199e+000
 4.5093311686e-001	 1.2459070287e+000	-2.7367662336e+000
 4.3863253146e-001	 1.2502905672e+000	-2.8085718203e+000
 4.2631704038e-001	 1.2545432560e+000	-2.8192493483e+000
 4.1398861918e-001	 1.2586653341e+000	-2.8216031914e+000
 4.0164922934e-001	 1.2626570780e+000	-2.8158800272e+000
 3.8930081747e-001	 1.2665188011e+000	-2.8023035966e+000
 3.7694531445e-001	 1.2702508531e+000	-2.7810746311e+000
 3.6458463467e-001	 1.2738536196e+000	-2.7523708374e+000
 4.9692785791e-001	 1.2552142064e+000	-2.5038279123e+000
 4.8445295408e-001	 1.2600814796e+000	-2.5439722419e+000
 4.7195674754e-001	 1.2648149384e+000	-2.5752626482e+000
 4.5944128887e-001	 1.2694147085e+000	-2.5980417913e+000
 4.4690861696e-001	 1.2738809552e+000	-2.6126285024e+000
 4.3436075812e-001	 1.2782138834e+000	-2.6193174702e+000
 4.2179972519e-001	 1.2824137366e+000	-2.6183789930e+000
 4.0922751669e-001	 1.2864807964e+000	-2.6100587954e+000
 3.9664611591e-001	 1.2904153822e+000	-2.5945779077e+000
 3.8405749020e-001	 1.2942178504e+000	-2.5721326091e+000
 3.7146359004e-001	 1.2978885935e+000	-2.5428944313e+000
 5.0613022564e-001	 1.2784589140e+000	-2.3429101986e+000
 4.9342430508e-001	 1.2834163219e+000	-2.3742375935e+000
 4.8069668731e-001	 1.2882374373e+000	-2.3974391767e+000
 4.6794946089e-001	 1.2929223883e+000	-2.4128660677e+000
 4.5518470246e-001	 1.2974713433e+000	-2.4208436735e+000
 4.4240447586e-001	 1.3018845109e+000	-2.4216713741e+000
 4.2961083121e-001	 1.3061621391e+000	-2.4156222773e+000
 4.1680580403e-001	 1.3103045149e+000	-2.4029430425e+000
 4.0399141435e-001	 1.3143119634e+000	-2.3838537714e+000
 3.9116966594e-001	 1.3181848476e+000	-2.3585479652e+000
 3.7834254541e-001	 1.3219235675e+000	-2.3271925469e+000
 5.1533259338e-001	 1.3017036215e+000	-2.1933542953e+000
 5.0239565608e-001	 1.3067511641e+000	-2.2138342357e+000
 4.8943662708e-001	 1.3116599362e+000	-2.2269638950e+000
 4.7645763290e-001	 1.3164300681e+000	-2.2331051601e+000
 4.6346078795e-001	 1.3210617314e+000	-2.2325922173e+000
 4.5044819360e-001	 1.3255551384e+000	-2.2257312358e+000
 4.3742193723e-001	 1.3299105417e+000	-2.2128001245e+000
 4.2438409137e-001	 1.3341282333e+000	-2.1940483614e+000
 4.1133671280e-001	 1.3382085446e+000	-2.1696968946e+000
 3.9828184168e-001	 1.3421518448e+000	-2.1399381134e+000
 3.8522150078e-001	 1.3459585415e+000	-2.1049358883e+000
 5.2453496112e-001	 1.3249483290e+000	-2.0544489200e+000
 5.1136700707e-001	 1.3300860063e+000	-2.0620841054e+000
 4.9817656684e-001	 1.3350824350e+000	-2.0631935594e+000
 4.8496580491e-001	 1.3399377478e+000	-2.0581522492e+000
 4.7173687345e-001	 1.3446521194e+000	-2.0473053476e+000
 4.5849191134e-001	 1.3492257659e+000	-2.0309679132e+000
 4.4523304325e-001	 1.3536589442e+000	-2.0094246472e+000
 4.3196237872e-001	 1.3579519518e+000	-1.9829297278e+000
 4.1868201124e-001	 1.3621051257e+000	-1.9517067205e+000
 4.0539401742e-001	 1.3661188421e+000	-1.9159485627e+000
 3.9210045615e-001	 1.3699935154e+000	-1.8758176207e+000
 5.3373732886e-001	 1.3481930365e+000	-1.9255548431e+000
 5.2033835807e-001	 1.3534208485e+000	-1.9183760623e+000
 5.0691650661e-001	 1.3585049339e+000	-1.9055467073e+000
 4.9347397693e-001	 1.3634454276e+000	-1.8874571464e+000
 4.8001295895e-001	 1.3682425075e+000	-1.8644657527e+000
 4.6653562908e-001	 1.3728963933e+000	-1.8368985778e+000
 4.5304414927e-001	 1.3774073467e+000	-1.8050491085e+000
 4.3954066606e-001	 1.3817756702e+000	-1.7691781051e+000
 4.2602730968e-001	 1.3860017069e+000	-1.7295135201e+000
 4.1250619317e-001	 1.3900858393e+000	-1.6862504948e+000
 3.9897941152e-001	 1.3940284894e+000	-1.6395514342e+000
 5.4293969659e-001	 1.3714377441e+000	-1.8060987813e+000
 5.2930970907e-001	 1.3767556907e+000	-1.7821602173e+000
 5.1565644638e-001	 1.3819274327e+000	-1.7534984215e+000
 5.0198214894e-001	 1.3869531074e+000	-1.7205214952e+000
 4.8828904444e-001	 1.3918328955e+000	-1.6836032327e+000
 4.7457934682e-001	 1.3965670208e+000	-1.6430827891e+000
 4.6085525529e-001	 1.4011557493e+000	-1.5992644344e+000
 4.4711895341e-001	 1.4055993887e+000	-1.5524173951e+000
 4.3337260812e-001	 1.4098982880e+000	-1.5027757798e+000
 4.1961836891e-001	 1.4140528365e+000	-1.4505385888e+000
 4.0585836689e-001	 1.4180634633e+000	-1.3958698046e+000
 5.5214206433e-001	 1.3946824516e+000	-1.6955679029e+000
 5.3828106007e-001	 1.4000905329e+000	-1.6529428283e+000
 5.2439638615e-001	 1.4053499316e+000	-1.6065756187e+000
 5.1049032095e-001	 1.4104607872e+000	-1.5568944515e+000
 4.9656512994e-001	 1.4154232836e+000	-1.5042907740e+000
 4.8262306456e-001	 1.4202376483e+000	-1.4491189630e+000
 4.6866636131e-001	 1.4249041518e+000	-1.3916960756e+000
 4.5469724075e-001	 1.4294231071e+000	-1.3323016924e+000
 4.4071790656e-001	 1.4337948692e+000	-1.2711778502e+000
 4.2673054465e-001	 1.4380198337e+000	-1.2085290627e+000
 4.1273732227e-001	 1.4420984373e+000	-1.1445224276e+000
 3.4394776857e-001	 1.2017486977e+000	-2.7181852496e+000
 3.3228365593e-001	 1.2050259632e+000	-2.7785477487e+000
 3.2061822211e-001	 1.2081820871e+000	-2.8320360566e+000
 3.0895322226e-001	 1.2112175306e+000	-2.8783453318e+000
 2.9729039324e-001	 1.2141327860e+000	-2.9171813295e+000
 2.8563145302e-001	 1.2169283763e+000	-2.9482606624e+000
 2.7397810005e-001	 1.2196048543e+000	-2.9713110387e+000
 2.6233201271e-001	 1.2221628022e+000	-2.9860714770e+000
 2.5069484874e-001	 1.2246028306e+000	-2.9922924972e+000
 2.3906824470e-001	 1.2269255782e+000	-2.9897362888e+000
 2.2745381553e-001	 1.2291317105e+000	-2.9781768559e+000
 3.5082672394e-001	 1.2257836717e+000	-2.8305614979e+000
 3.3892932905e-001	 1.2291264825e+000	-2.8903450460e+000
 3.2703058655e-001	 1.2323457289e+000	-2.9416642026e+000
 3.1513228670e-001	 1.2354418812e+000	-2.9842141530e+000
 3.0323620110e-001	 1.2384154417e+000	-3.0177021280e+000
 2.9134408208e-001	 1.2412669438e+000	-3.0418476479e+000
 2.7945766205e-001	 1.2439969514e+000	-3.0563827417e+000
 2.6757865297e-001	 1.2466060582e+000	-3.0610521411e+000
 2.5570874571e-001	 1.2490948872e+000	-3.0556134489e+000
 2.4384960960e-001	 1.2514640897e+000	-3.0231287488e+000
 2.3200289184e-001	 1.2537143447e+000	-2.9726829324e+000
 3.5770567931e-001	 1.2498186456e+000	-2.9534951133e+000
 3.4557500216e-001	 1.2532270017e+000	-2.9698912331e+000
 3.3344295099e-001	 1.2565093706e+000	-2.9760080985e+000
 3.2131135114e-001	 1.2596662318e+000	-2.9744114639e+000
 3.0918200896e-001	 1.2626980974e+000	-2.9651655518e+000
 2.9705671113e-001	 1.2656055113e+000	-2.9483138755e+000
 2.8493722405e-001	 1.2683890485e+000	-2.9238795382e+000
 2.7282529322e-001	 1.2710493143e+000	-2.8918655760e+000
 2.6072264268e-001	 1.2735869439e+000	-2.8522553404e+000
 2.4863097449e-001	 1.2760026013e+000	-2.8050129217e+000
 2.3655196814e-001	 1.2782969789e+000	-2.7500836086e+000
 3.6458463467e-001	 1.2738536196e+000	-2.7523708374e+000
 3.5222067528e-001	 1.2773275210e+000	-2.7665075802e+000
 3.3985531543e-001	 1.2806730123e+000	-2.7723722902e+000
 3.2749041558e-001	 1.2838905824e+000	-2.7700754774e+000
 3.1512781682e-001	 1.2869807532e+000	-2.7597055343e+000
 3.0276934019e-001	 1.2899440789e+000	-2.7413289802e+000
 2.9041678605e-001	 1.2927811456e+000	-2.7149907530e+000
 2.7807193347e-001	 1.2954925703e+000	-2.6807145479e+000
 2.6573653966e-001	 1.2980790005e+000	-2.6385031994e+000
 2.5341233938e-001	 1.3005411129e+000	-2.5883391057e+000
 2.4110104445e-001	 1.3028796131e+000	-2.5301846922e+000
 3.7146359004e-001	 1.2978885935e+000	-2.5428944313e+000
 3.5886634840e-001	 1.3014280403e+000	-2.5575841601e+000
 3.4626767987e-001	 1.3048366541e+000	-2.5636265298e+000
 3.3366948003e-001	 1.3081149330e+000	-2.5611575263e+000
 3.2107362469e-001	 1.3112634089e+000	-2.5502897508e+000
 3.0848196925e-001	 1.3142826464e+000	-2.5311126553e+000
 2.9589634805e-001	 1.3171732427e+000	-2.5036928297e+000
 2.8331857372e-001	 1.3199358264e+000	-2.4680743372e+000
 2.7075043663e-001	 1.3225710571e+000	-2.4242790978e+000
 2.5819370428e-001	 1.3250796244e+000	-2.3723073157e+000
 2.4565012076e-001	 1.3274622474e+000	-2.3121379499e+000
 3.7834254541e-001	 1.3219235675e+000	-2.3271925469e+000
 3.6551202151e-001	 1.3255285595e+000	-2.3427237409e+000
 3.5268004431e-001	 1.3290002958e+000	-2.3493298807e+000
 3.3984854447e-001	 1.3323392837e+000	-2.3471726220e+000
 3.2701943255e-001	 1.3355460646e+000	-2.3363888542e+000
 3.1419459831e-001	 1.3386212139e+000	-2.3170909290e+000
 3.0137591005e-001	 1.3415653397e+000	-2.2893669432e+000
 2.8856521398e-001	 1.3443790824e+000	-2.2532810742e+000
 2.7576433361e-001	 1.3470631137e+000	-2.2088739655e+000
 2.6297506917e-001	 1.3496181360e+000	-2.1561631602e+000
 2.5019919707e-001	 1.3520448816e+000	-2.0951435799e+000
 3.8522150078e-001	 1.3459585415e+000	-2.1049358883e+000
 3.7215769463e-001	 1.3496290788e+000	-2.1215550002e+000
 3.5909240875e-001	 1.3531639376e+000	-2.1290687562e+000
 3.4602760891e-001	 1.3565636343e+000	-2.1276647162e+000
 3.3296524041e-001	 1.3598287203e+000	-2.1175041765e+000
 3.1990722737e-001	 1.3629597814e+000	-2.0987223927e+000
 3.0685547205e-001	 1.3659574368e+000	-2.0714288605e+000
 2.9381185423e-001	 1.3688223385e+000	-2.0357076522e+000
 2.8077823058e-001	 1.3715551703e+000	-1.9916178066e+000
 2.6775643406e-001	 1.3741566475e+000	-1.9391937703e+000
 2.5474827338e-001	 1.3766275158e+000	-1.8784458876e+000
 3.9210045615e-001	 1.3699935154e+000	-1.8758176207e+000
 3.7880336775e-001	 1.3737295980e+000	-1.8937302526e+000
 3.6550477319e-001	 1.3773275793e+000	-1.9024545207e+000
 3.5220667336e-001	 1.3807879849e+000	-1.9022041622e+000
 3.3891104828e-001	 1.3841113760e+000	-1.8931650368e+000
 3.2561985643e-001	 1.3872983490e+000	-1.8754953444e+000
 3.1233503405e-001	 1.3903495339e+000	-1.8493259059e+000
 2.9905849449e-001	 1.3932655945e+000	-1.8147605022e+000
 2.8579212755e-001	 1.3960472269e+000	-1.7718762710e+000
 2.7253779896e-001	 1.3986951591e+000	-1.7207241574e+000
 2.5929734969e-001	 1.4012101500e+000	-1.6613294168e+000
 3.9897941152e-001	 1.3940284894e+000	-1.6395514342e+000
 3.8544904087e-001	 1.3978301173e+000	-1.6589234118e+000
 3.7191713763e-001	 1.4014912211e+000	-1.6691213381e+000
 3.5838573780e-001	 1.4050123355e+000	-1.6703854391e+000
 3.4485685614e-001	 1.4083940318e+000	-1.6629263293e+000
 3.3133248549e-001	 1.4116369165e+000	-1.6469252281e+000
 3.1781459605e-001	 1.4147416310e+000	-1.6225342408e+000
 3.0430513474e-001	 1.4177088505e+000	-1.5898767023e+000
 2.9080602453e-001	 1.4205392835e+000	-1.5490475822e+000
 2.7731916385e-001	 1.4232336707e+000	-1.5001139476e+000
 2.6384642600e-001	 1.4257927842e+000	-1.4431154802e+000
 4.0585836689e-001	 1.4180634633e+000	-1.3958698046e+000
 3.9209471399e-001	 1.4219306366e+000	-1.4168281601e+000
 3.7832950208e-001	 1.4256548628e+000	-1.4287242405e+000
 3.6456480225e-001	 1.4292366861e+000	-1.4318251067e+000
 3.5080266401e-001	 1.4326766875e+000	-1.4263663554e+000
 3.3704511455e-001	 1.4359754840e+000	-1.4125523331e+000
 3.2329415806e-001	 1.4391337281e+000	-1.3905564200e+000
 3.0955177499e-001	 1.4421521066e+000	-1.3605213801e+000
 2.9581992150e-001	 1.4450313401e+000	-1.3225597767e+000
 2.8210052874e-001	 1.4477721822e+000	-1.2767544484e+000
 2.6839550231e-001	 1.4503754184e+000	-1.2231590443e+000
 4.1273732227e-001	 1.4420984373e+000	-1.1445224276e+000
 3.9874038711e-001	 1.4460311558e+000	-1.1671563013e+000
 3.8474186652e-001	 1.4498185045e+000	-1.1809373883e+000
 3.7074386670e-001	 1.4534610367e+000	-1.1861599663e+000
 3.5674847188e-001	 1.4569593432e+000	-1.1830848737e+000
 3.4275774362e-001	 1.4603140515e+000	-1.1719397237e+000
 3.2877372006e-001	 1.4635258252e+000	-1.1529191919e+000
 3.1479841525e-001	 1.4665953626e+000	-1.1261853754e+000
 3.0083381848e-001	 1.4695233968e+000	-1.0918682190e+000
 2.8688189364e-001	 1.4723106938e+000	-1.0500660084e+000
 2.7294457862e-001	 1.4749580526e+000	-1.0008459241e+000
 2.2745381553e-001	 1.2291317105e+000	-2.9781768559e+000
 2.1585315397e-001	 1.2312219198e+000	-3.0406512458e+000
 2.0426783022e-001	 1.2331969241e+000	-3.0934963675e+000
 1.9269939142e-001	 1.2350574661e+000	-3.1365433388e+000
 1.8114936129e-001	 1.2368043131e+000	-3.1696348059e+000
 1.6961923973e-001	 1.2384382558e+000	-3.1926249712e+000
 1.5811050249e-001	 1.2399601078e+000	-3.2053796007e+000
 1.4662460078e-001	 1.2413707047e+000	-3.2077760126e+000
 1.3516296104e-001	 1.2426709033e+000	-3.1997030468e+000
 1.2372698459e-001	 1.2438615812e+000	-3.1810610173e+000
 1.1231804739e-001	 1.2449436358e+000	-3.1517616464e+000
 2.3200289184e-001	 1.2537143447e+000	-2.9726829324e+000
 2.2017021705e-001	 1.2558463582e+000	-3.0004290869e+000
 2.0835318683e-001	 1.2578608626e+000	-3.0205465076e+000
 1.9655337925e-001	 1.2597586154e+000	-3.0329300605e+000
 1.8477234852e-001	 1.2615403994e+000	-3.0374583719e+000
 1.7301162453e-001	 1.2632070210e+000	-3.0339944236e+000
 1.6127271254e-001	 1.2647593100e+000	-3.0223861714e+000
 1.4955709280e-001	 1.2661981188e+000	-3.0024671844e+000
 1.3786622027e-001	 1.2675243214e+000	-2.9740573032e+000
 1.2620152428e-001	 1.2687388129e+000	-2.9369633156e+000
 1.1456440834e-001	 1.2698425085e+000	-2.8909796461e+000
 2.3655196814e-001	 1.2782969789e+000	-2.7500836086e+000
 2.2448728013e-001	 1.2804707966e+000	-2.7750492136e+000
 2.1243854343e-001	 1.2825248010e+000	-2.7920810163e+000
 2.0040736708e-001	 1.2844597647e+000	-2.8010850604e+000
 1.8839533574e-001	 1.2862764856e+000	-2.8019501095e+000
 1.7640400932e-001	 1.2879757861e+000	-2.7945482586e+000
 1.6443492259e-001	 1.2895585122e+000	-2.7787355713e+000
 1.5248958481e-001	 1.2910255329e+000	-2.7543527395e+000
 1.4056947949e-001	 1.2923777395e+000	-2.7212257633e+000
 1.2867606398e-001	 1.2936160445e+000	-2.6791666500e+000
 1.1681076929e-001	 1.2947413812e+000	-2.6279741291e+000
 2.4110104445e-001	 1.3028796131e+000	-2.5301846922e+000
 2.2880434321e-001	 1.3050952350e+000	-2.5535053123e+000
 2.1652390003e-001	 1.3071887395e+000	-2.5686799251e+000
 2.0426135491e-001	 1.3091609141e+000	-2.5756249334e+000
 1.9201832297e-001	 1.3110125719e+000	-2.5742383276e+000
 1.7979639412e-001	 1.3127445512e+000	-2.5644003177e+000
 1.6759713264e-001	 1.3143577143e+000	-2.5459739904e+000
 1.5542207683e-001	 1.3158529470e+000	-2.5188059927e+000
 1.4327273871e-001	 1.3172311575e+000	-2.4827272366e+000
 1.3115060367e-001	 1.3184932761e+000	-2.4375536243e+000
 1.1905713023e-001	 1.3196402539e+000	-2.3830867909e+000
 2.4565012076e-001	 1.3274622474e+000	-2.3121379499e+000
 2.3312140629e-001	 1.3297196734e+000	-2.3349128364e+000
 2.2060925664e-001	 1.3318526780e+000	-2.3494223126e+000
 2.0811534273e-001	 1.3338620634e+000	-2.3555923464e+000
 1.9564131019e-001	 1.3357486582e+000	-2.3533292696e+000
 1.8318877891e-001	 1.3375133163e+000	-2.3425204305e+000
 1.7075934268e-001	 1.3391569165e+000	-2.3230348764e+000
 1.5835456884e-001	 1.3406803611e+000	-2.2947240621e+000
 1.4597599793e-001	 1.3420845756e+000	-2.2574225825e+000
 1.3362514336e-001	 1.3433705078e+000	-2.2109489277e+000
 1.2130349118e-001	 1.3445391266e+000	-2.1551062559e+000
 2.5019919707e-001	 1.3520448816e+000	-2.0951435799e+000
 2.3743846937e-001	 1.3543441118e+000	-2.1184377727e+000
 2.2469461324e-001	 1.3565166165e+000	-2.1334400282e+000
 2.1196933056e-001	 1.3585632127e+000	-2.1400851093e+000
 1.9926429742e-001	 1.3604847444e+000	-2.1382868245e+000
 1.8658116370e-001	 1.3622820814e+000	-2.1279387057e+000
 1.7392155273e-001	 1.3639561186e+000	-2.1089147166e+000
 1.6128706086e-001	 1.3655077752e+000	-2.0810699904e+000
 1.4867925715e-001	 1.3669379937e+000	-2.0442415930e+000
 1.3609968305e-001	 1.3682477394e+000	-1.9982493104e+000
 1.2354985212e-001	 1.3694379994e+000	-1.9428964557e+000
 2.5474827338e-001	 1.3766275158e+000	-1.8784458876e+000
 2.4175553244e-001	 1.3789685502e+000	-1.9032921292e+000
 2.2877996984e-001	 1.3811805550e+000	-1.9199129806e+000
 2.1582331839e-001	 1.3832643620e+000	-1.9282512508e+000
 2.0288728464e-001	 1.3852208307e+000	-1.9282273810e+000
 1.8997354850e-001	 1.3870508465e+000	-1.9197401493e+000
 1.7708376278e-001	 1.3887553208e+000	-1.9026674094e+000
 1.6421955287e-001	 1.3903351893e+000	-1.8768668592e+000
 1.5138251636e-001	 1.3917914117e+000	-1.8421768382e+000
 1.3857422274e-001	 1.3931249710e+000	-1.7984171497e+000
 1.2579621307e-001	 1.3943368721e+000	-1.7453899051e+000
 2.5929734969e-001	 1.4012101500e+000	-1.6613294168e+000
 2.4607259552e-001	 1.4035929886e+000	-1.6887298980e+000
 2.3286532645e-001	 1.4058444934e+000	-1.7080649219e+000
 2.1967730621e-001	 1.4079655113e+000	-1.7192846138e+000
 2.0651027186e-001	 1.4099569169e+000	-1.7223152213e+000
 1.9336593329e-001	 1.4118196117e+000	-1.7170598487e+000
 1.8024597283e-001	 1.4135545229e+000	-1.7033992279e+000
 1.6715204489e-001	 1.4151626033e+000	-1.6811925223e+000
 1.5408577558e-001	 1.4166448298e+000	-1.6502781595e+000
 1.4104876243e-001	 1.4180022026e+000	-1.6104746929e+000
 1.2804257402e-001	 1.4192357448e+000	-1.5615816859e+000
 2.6384642600e-001	 1.4257927842e+000	-1.4431154802e+000
 2.5038965860e-001	 1.4282174270e+000	-1.4740434364e+000
 2.3695068305e-001	 1.4305084319e+000	-1.4971596682e+000
 2.2353129404e-001	 1.4326666607e+000	-1.5124209059e+000
 2.1013325909e-001	 1.4346930032e+000	-1.5197583932e+000
 1.9675831808e-001	 1.4365883768e+000	-1.5190786555e+000
 1.8340818287e-001	 1.4383537251e+000	-1.5102643054e+000
 1.7008453690e-001	 1.4399900174e+000	-1.4931748837e+000
 1.5678903480e-001	 1.4414982479e+000	-1.4676477323e+000
 1.4352330212e-001	 1.4428794342e+000	-1.4334988966e+000
 1.3028893496e-001	 1.4441346175e+000	-1.3905240536e+000
 2.6839550231e-001	 1.4503754184e+000	-1.2231590443e+000
 2.5470672168e-001	 1.4528418654e+000	-1.2585602153e+000
 2.4103603965e-001	 1.4551723704e+000	-1.2864977044e+000
 2.2738528187e-001	 1.4573678100e+000	-1.3069341510e+000
 2.1375624631e-001	 1.4594290895e+000	-1.3198050005e+000
 2.0015070287e-001	 1.4613571419e+000	-1.3250193074e+000
 1.8657039292e-001	 1.4631529272e+000	-1.3224605789e+000
 1.7301702891e-001	 1.4648174315e+000	-1.3119876563e+000
 1.5949229402e-001	 1.4663516659e+000	-1.2934356308e+000
 1.4599784180e-001	 1.4677566659e+000	-1.2666167897e+000
 1.3253529590e-001	 1.4690334902e+000	-1.2313215915e+000
 2.7294457862e-001	 1.4749580526e+000	-1.0008459241e+000
 2.5902378476e-001	 1.4774663038e+000	-1.0416398932e+000
 2.4512139625e-001	 1.4798363089e+000	-1.0754131280e+000
 2.3123926969e-001	 1.4820689593e+000	-1.1021334969e+000
 2.1737923353e-001	 1.4841651757e+000	-1.1217398655e+000
 2.0354308766e-001	 1.4861259070e+000	-1.1341429373e+000
 1.8973260296e-001	 1.4879521294e+000	-1.1392261390e+000
 1.7594952092e-001	 1.4896448456e+000	-1.1368465447e+000
 1.6219555323e-001	 1.4912050840e+000	-1.1268358369e+000
 1.4847238149e-001	 1.4926338975e+000	-1.1090013013e+000
 1.3478165685e-001	 1.4939323629e+000	-1.0831268508e+000
 1.1231804739e-001	 1.2449436358e+000	-3.1517616464e+000
 1.0093749980e-001	 1.2459179833e+000	-3.1909129418e+000
 8.9586666357e-002	 1.2467855586e+000	-3.2195865502e+000
 7.8266845602e-002	 1.2475473141e+000	-3.2376164068e+000
 6.6979309880e-002	 1.2482042189e+000	-3.2448491593e+000
 5.5725305204e-002	 1.2487572584e+000	-3.2411440866e+000
 4.4506051122e-002	 1.2492074333e+000	-3.2263730000e+000
 3.3322740611e-002	 1.2495557590e+000	-3.2004201289e+000
 2.2176539990e-002	 1.2498032649e+000	-3.1631819897e+000
 1.1068588847e-002	 1.2499509936e+000	-3.1145672409e+000
 0.0000000000e+000	 1.2500000000e+000	-3.0544965234e+000
 1.1456440834e-001	 1.2698425085e+000	-2.8909796461e+000
 1.0295624979e-001	 1.2708363430e+000	-2.9087017490e+000
 9.1378399684e-002	 1.2717212698e+000	-2.9175512598e+000
 7.9832182514e-002	 1.2724982604e+000	-2.9172105026e+000
 6.8318896077e-002	 1.2731683033e+000	-2.9073532587e+000
 5.6839811307e-002	 1.2737324036e+000	-2.8876455496e+000
 4.5396172143e-002	 1.2741915820e+000	-2.8577464218e+000
 3.3989195423e-002	 1.2745468742e+000	-2.8173087289e+000
 2.2620070789e-002	 1.2747993302e+000	-2.7659799119e+000
 1.1289960624e-002	 1.2749500134e+000	-2.7034027741e+000
 0.0000000000e+000	 1.2750000000e+000	-2.6292162501e+000
 1.1681076929e-001	 1.2947413812e+000	-2.6279741291e+000
 1.0497499979e-001	 1.2957547027e+000	-2.6365538725e+000
 9.3170133010e-002	 1.2966569810e+000	-2.6361503113e+000
 8.1397519425e-002	 1.2974492067e+000	-2.6264787760e+000
 6.9658482273e-002	 1.2981323876e+000	-2.6072444989e+000
 5.7954317410e-002	 1.2987075487e+000	-2.5781434163e+000
 4.6286293165e-002	 1.2991757306e+000	-2.5388629736e+000
 3.4655650234e-002	 1.2995379894e+000	-2.4890829312e+000
 2.3063601588e-002	 1.2997953955e+000	-2.4284761689e+000
 1.1511332401e-002	 1.2999490333e+000	-2.3567094865e+000
 0.0000000000e+000	 1.3000000000e+000	-2.2734444010e+000
 1.1905713023e-001	 1.3196402539e+000	-2.3830867909e+000
 1.0699374978e-001	 1.3206730623e+000	-2.3870685807e+000
 9.4961866336e-002	 1.3215926922e+000	-2.3820248640e+000
 8.2962856336e-002	 1.3224001529e+000	-2.3677015226e+000
 7.0998068470e-002	 1.3230964720e+000	-2.3438327436e+000
 5.9068823513e-002	 1.3236826939e+000	-2.3101418439e+000
 4.7176414186e-002	 1.3241598793e+000	-2.2663420998e+000
 3.5322105045e-002	 1.3245291046e+000	-2.2121375790e+000
 2.3507132387e-002	 1.3247914608e+000	-2.1472239728e+000
 1.1732704177e-002	 1.3249480532e+000	-2.0712894266e+000
 0.0000000000e+000	 1.3250000000e+000	-1.9840153674e+000
 1.2130349118e-001	 1.3445391266e+000	-2.1551062559e+000
 1.0901249978e-001	 1.3455914220e+000	-2.1588581416e+000
 9.6753599662e-002	 1.3465284033e+000	-2.1536116525e+000
 8.4528193246e-002	 1.3473510992e+000	-2.1391408274e+000
 7.2337654666e-002	 1.3480605564e+000	-2.1152063699e+000
 6.0183329615e-002	 1.3486578391e+000	-2.0815564994e+000
 4.8066535207e-002	 1.3491440280e+000	-2.0379278084e+000
 3.5988559857e-002	 1.3495202198e+000	-1.9840461240e+000
 2.3950663186e-002	 1.3497875261e+000	-1.9196273713e+000
 1.1954075954e-002	 1.3499470731e+000	-1.8443784369e+000
 0.0000000000e+000	 1.3500000000e+000	-1.7579980303e+000
 1.2354985212e-001	 1.3694379994e+000	-1.9428964557e+000
 1.1103124977e-001	 1.3705097816e+000	-1.9506237034e+000
 9.8545332987e-002	 1.3714641145e+000	-1.9494499279e+000
 8.6093530156e-002	 1.3723020455e+000	-1.9391749849e+000
 7.3677240862e-002	 1.3730246408e+000	-1.9195837086e+000
 6.1297835718e-002	 1.3736329842e+000	-1.8904467931e+000
 4.8956656228e-002	 1.3741281766e+000	-1.8515216800e+000
 3.6655014668e-002	 1.3745113349e+000	-1.8025534536e+000
 2.4394193985e-002	 1.3747835914e+000	-1.7432757386e+000
 1.2175447730e-002	 1.3749460929e+000	-1.6734116003e+000
 0.0000000000e+000	 1.3750000000e+000	-1.5926744429e+000
 1.2579621307e-001	 1.3943368721e+000	-1.7453899051e+000
 1.1304999977e-001	 1.3954281413e+000	-1.7611473588e+000
 1.0033706631e-001	 1.3963998257e+000	-1.7681723046e+000
 8.7658867067e-002	 1.3972529918e+000	-1.7662881235e+000
 7.5016827058e-002	 1.3979887252e+000	-1.7553014418e+000
 6.2412341821e-002	 1.3986081294e+000	-1.7350030446e+000
 4.9846777250e-002	 1.3991123253e+000	-1.7051687986e+000
 3.7321469479e-002	 1.3995024501e+000	-1.6655605838e+000
 2.4837724784e-002	 1.3997796567e+000	-1.6159272290e+000
 1.2396819507e-002	 1.3999451128e+000	-1.5560054517e+000
 0.0000000000e+000	 1.4000000000e+000	-1.4855207976e+000
 1.2804257402e-001	 1.4192357448e+000	-1.5615816859e+000
 1.1506874976e-001	 1.4203465010e+000	-1.5892850449e+000
 1.0212879964e-001	 1.4213355368e+000	-1.6084965705e+000
 8.9224203976e-002	 1.4222039381e+000	-1.6190609220e+000
 7.6356413254e-002	 1.4229528095e+000	-1.6208042207e+000
 6.3526847923e-002	 1.4235832746e+000	-1.6135349994e+000
 5.0736898271e-002	 1.4240964740e+000	-1.5970451640e+000
 3.7987924290e-002	 1.4244935653e+000	-1.5711109640e+000
 2.5281255584e-002	 1.4247757220e+000	-1.5354939709e+000
 1.2618191283e-002	 1.4249441327e+000	-1.4899420603e+000
 0.0000000000e+000	 1.4250000000e+000	-1.4341903959e+000
 1.3028893496e-001	 1.4441346175e+000	-1.3905240536e+000
 1.1708749975e-001	 1.4452648606e+000	-1.4339601771e+000
 1.0392053296e-001	 1.4462712480e+000	-1.4692183444e+000
 9.0789540886e-002	 1.4471548843e+000	-1.4961622857e+000
 7.7695999449e-002	 1.4479168939e+000	-1.5146353578e+000
 6.4641354025e-002	 1.4485584197e+000	-1.5244615338e+000
 5.1627019292e-002	 1.4490806226e+000	-1.5254464054e+000
 3.8654379101e-002	 1.4494846805e+000	-1.5173781982e+000
 2.5724786383e-002	 1.4497717873e+000	-1.5000287940e+000
 1.2839563060e-002	 1.4499431525e+000	-1.4731547600e+000
 0.0000000000e+000	 1.4500000000e+000	-1.4364983807e+000
 1.3253529590e-001	 1.4690334902e+000	-1.2313215915e+000
 1.1910624974e-001	 1.4701832203e+000	-1.2941579306e+000
 1.0571226629e-001	 1.4712069592e+000	-1.3492044804e+000
 9.2354877796e-002	 1.4721058306e+000	-1.3963418701e+000
 7.9035585644e-002	 1.4728809783e+000	-1.4354284665e+000
 6.5755860127e-002	 1.4735335649e+000	-1.4663014061e+000
 5.2517140313e-002	 1.4740647713e+000	-1.4887776439e+000
 3.9320833912e-002	 1.4744757957e+000	-1.5026550148e+000
 2.6168317182e-002	 1.4747678526e+000	-1.5077133048e+000
 1.3060934837e-002	 1.4749421724e+000	-1.5037153302e+000
 0.0000000000e+000	 1.4750000000e+000	-1.4904080207e+000
 1.3478165685e-001	 1.4939323629e+000	-1.0831268508e+000
 1.2112499974e-001	 1.4951015800e+000	-1.1689200937e+000
 1.0750399961e-001	 1.4961426704e+000	-1.2473871313e+000
 9.3920214705e-002	 1.4970567769e+000	-1.3184233516e+000
 8.0375171839e-002	 1.4978450627e+000	-1.3818999350e+000
 6.6870366229e-002	 1.4985087101e+000	-1.4376649335e+000
 5.3407261333e-002	 1.4990489200e+000	-1.4855443677e+000
 3.9987288723e-002	 1.4994669109e+000	-1.5253433396e+000
 2.6611847981e-002	 1.4997639179e+000	-1.5568471555e+000
 1.3282306613e-002	 1.4999411923e+000	-1.5798224585e+000
 0.0000000000e+000	 1.5000000000e+000	-1.5940183670e+000
 1.5000000000e+000	 0.0000000000e+000	 3.9235624610e+000
 1.4999411923e+000	 1.3282306613e-002	 3.9259820069e+000
 1.4997639179e+000	 2.6611847981e-002	 3.9219680908e+000
 1.4994669109e+000	 3.9987288723e-002	 3.9114993513e+000
 1.4990489200e+000	 5.3407261333e-002	 3.8945465499e+000
 1.4985087101e+000	 6.6870366229e-002	 3.8710721450e+000
 1.4978450627e+000	 8.0375171839e-002	 3.8410298680e+000
 1.4970567769e+000	 9.3920214705e-002	 3.8043643040e+000
 1.4961426704e+000	 1.0750399961e-001	 3.7610104773e+000
 1.4951015800e+000	 1.2112499974e-001	 3.7108934425e+000
 1.4939323629e+000	 1.3478165685e-001	 3.6539278840e+000
 1.5250000000e+000	 0.0000000000e+000	 3.8141958623e+000
 1.5249402122e+000	 1.3503678390e-002	 3.8224497926e+000
 1.5247599832e+000	 2.7055378780e-002	 3.8237863596e+000
 1.5244580260e+000	 4.0653743534e-002	 3.8181946935e+000
 1.5240330686e+000	 5.4297382354e-002	 3.8056561453e+000
 1.5234838552e+000	 6.7984872331e-002	 3.7861438414e+000
 1.5228091470e+000	 8.1714758035e-002	 3.7596222393e+000
 1.5220077232e+000	 9.5485551614e-002	 3.7260466881e+000
 1.5210783815e+000	 1.0929573293e-001	 3.6853629925e+000
 1.5200199396e+000	 1.2314374973e-001	 3.6375069835e+000
 1.5188312356e+000	 1.3702801779e-001	 3.5824040958e+000
 1.5500000000e+000	 0.0000000000e+000	 3.7055202614e+000
 1.5499392320e+000	 1.3725050166e-002	 3.7194650382e+000
 1.5497560485e+000	 2.7498909579e-002	 3.7260497486e+000
 1.5494491412e+000	 4.1320198346e-002	 3.7252747369e+000
 1.5490172173e+000	 5.5187503375e-002	 3.7171326386e+000
 1.5484590004e+000	 6.9099378434e-002	 3.7016079129e+000
 1.5477732314e+000	 8.3054344230e-002	 3.6786763778e+000
 1.5469586695e+000	 9.7050888523e-002	 3.6483047469e+000
 1.5460140927e+000	 1.1108746626e-001	 3.6104501723e+000
 1.5449382993e+000	 1.2516249972e-001	 3.5650597918e+000
 1.5437301083e+000	 1.3927437874e-001	 3.5120702837e+000
 1.5750000000e+000	 0.0000000000e+000	 3.5982006103e+000
 1.5749382519e+000	 1.3946421943e-002	 3.6176485852e+000
 1.5747521138e+000	 2.7942440378e-002	 3.6293345038e+000
 1.5744402564e+000	 4.1986653157e-002	 3.6332706627e+000
 1.5740013660e+000	 5.6077624396e-002	 3.6294616918e+000
 1.5734341456e+000	 7.0213884536e-002	 3.6179040647e+000
 1.5727373158e+000	 8.4393930425e-002	 3.5985856089e+000
 1.5719096157e+000	 9.8616225433e-002	 3.5714850206e+000
 1.5709498039e+000	 1.1287919958e-001	 3.5365713820e+000
 1.5698566590e+000	 1.2718124971e-001	 3.4938036849e+000
 1.5686289811e+000	 1.4152073968e-001	 3.4431303608e+000
 1.6000000000e+000	 0.0000000000e+000	 3.4928603013e+000
 1.5999372718e+000	 1.4167793719e-002	 3.5175813677e+000
 1.5997481791e+000	 2.8385971177e-002	 3.5341786813e+000
 1.5994313716e+000	 4.2653107968e-002	 3.5426772444e+000
 1.5989855146e+000	 5.6967745417e-002	 3.5430944076e+000
 1.5984092907e+000	 7.1328390638e-002	 3.5354393550e+000
 1.5977014002e+000	 8.5733516621e-002	 3.5197125903e+000
 1.5968605620e+000	 1.0018156234e-001	 3.4959054250e+000
 1.5958855150e+000	 1.1467093291e-001	 3.4639994711e+000
 1.5947750186e+000	 1.2919999971e-001	 3.4239661379e+000
 1.5935278538e+000	 1.4376710062e-001	 3.3757661361e+000
 1.6250000000e+000	 0.0000000000e+000	 3.3900843644e+000
 1.6249362916e+000	 1.4389165496e-002	 3.4198074824e+000
 1.6247442444e+000	 2.8829501976e-002	 3.4410850848e+000
 1.6244224868e+000	 4.3319562779e-002	 3.4539556487e+000
 1.6239696633e+000	 5.7857866438e-002	 3.4584499869e+000
 1.6233844359e+000	 7.2442896741e-002	 3.4545907069e+000
 1.6226654846e+000	 8.7073102817e-002	 3.4423916701e+000
 1.6218115083e+000	 1.0174689925e-001	 3.4218574532e+000
 1.6208212262e+000	 1.1646266623e-001	 3.3929828130e+000
 1.6196933783e+000	 1.3121874970e-001	 3.3557521560e+000
 1.6184267265e+000	 1.4601346157e-001	 3.3101390151e+000
 1.6500000000e+000	 0.0000000000e+000	 3.2904223731e+000
 1.6499353115e+000	 1.4610537273e-002	 3.3248369787e+000
 1.6497403097e+000	 2.9273032775e-002	 3.3505239359e+000
 1.6494136019e+000	 4.3986017590e-002	 3.3675359810e+000
 1.6489538120e+000	 5.8747987459e-002	 3.3759181464e+000
 1.6483595811e+000	 7.3557402843e-002	 3.3757071912e+000
 1.6476295689e+000	 8.8412689013e-002	 3.3669310324e+000
 1.6467624546e+000	 1.0331223616e-001	 3.3496081772e+000
 1.6457569374e+000	 1.1825439956e-001	 3.3237471589e+000
 1.6446117380e+000	 1.3323749970e-001	 3.2893459773e+000
 1.6433255992e+000	 1.4825982252e-001	 3.2463915452e+000
 1.6750000000e+000	 0.0000000000e+000	 3.1943910904e+000
 1.6749343314e+000	 1.4831909049e-002	 3.2331484002e+000
 1.6747363750e+000	 2.9716563574e-002	 3.2629353060e+000
 1.6744047171e+000	 4.4652472402e-002	 3.2838196037e+000
 1.6739379606e+000	 5.9638108481e-002	 3.2958613183e+000
 1.6733347262e+000	 7.4671908946e-002	 3.2991121048e+000
 1.6725936533e+000	 8.9752275209e-002	 3.2936146492e+000
 1.6717134009e+000	 1.0487757307e-001	 3.2794020707e+000
 1.6706926486e+000	 1.2004613288e-001	 3.2564973266e+000
 1.6695300976e+000	 1.3525624969e-001	 3.2249126216e+000
 1.6682244719e+000	 1.5050618346e-001	 3.1846488235e+000
 1.7000000000e+000	 0.0000000000e+000	 3.1024768817e+000
 1.6999333513e+000	 1.5053280826e-002	 3.1451911009e+000
 1.6997324403e+000	 3.0160094373e-002	 3.1787313331e+000
 1.6993958323e+000	 4.5318927213e-002	 3.2031812497e+000
 1.6989221093e+000	 6.0528229502e-002	 3.2186166570e+000
 1.6983098714e+000	 7.5786415049e-002	 3.2251048658e+000
 1.6975577377e+000	 9.1091861406e-002	 3.2227040608e+000
 1.6966643472e+000	 1.0644290998e-001	 3.2114626705e+000
 1.6956283597e+000	 1.2183786621e-001	 3.1914187393e+000
 1.6944484573e+000	 1.3727499969e-001	 3.1625993047e+000
 1.6931233446e+000	 1.5275254441e-001	 3.1250197795e+000
 1.7250000000e+000	 0.0000000000e+000	 3.0151379172e+000
 1.7249323711e+000	 1.5274652602e-002	 3.0613873605e+000
 1.7247285056e+000	 3.0603625172e-002	 3.0982982459e+000
 1.7243869475e+000	 4.5985382024e-002	 3.1259709518e+000
 1.7239062580e+000	 6.1418350523e-002	 3.1444978704e+000
 1.7232850166e+000	 7.6900921152e-002	 3.1539627442e+000
 1.7225218221e+000	 9.2431447602e-002	 3.1544400017e+000
 1.7216152934e+000	 1.0800824690e-001	 3.1459940937e+000
 1.7205640709e+000	 1.2362959954e-001	 3.1286788311e+000
 1.7193668170e+000	 1.3929374968e-001	 3.1025367274e+000
 1.7180222173e+000	 1.5499890536e-001	 3.0675983467e+000
 1.7500000000e+000	 0.0000000000e+000	 2.9328061859e+000
 1.7499313910e+000	 1.5496024379e-002	 2.9821343182e+000
 1.7497245709e+000	 3.1047155971e-002	 3.0219982145e+000
 1.7493780627e+000	 4.6651836836e-002	 3.0525158074e+000
 1.7488904066e+000	 6.2308471545e-002	 3.0737968951e+000
 1.7482601617e+000	 7.8015427255e-002	 3.0859424435e+000
 1.7474859064e+000	 9.3771033799e-002	 3.0890438862e+000
 1.7465662397e+000	 1.0957358381e-001	 3.0831824249e+000
 1.7454997821e+000	 1.2542133286e-001	 3.0684283319e+000
 1.7442851766e+000	 1.4131249968e-001	 3.0448402560e+000
 1.7429210901e+000	 1.5724526631e-001	 3.0124645339e+000
 1.4939323629e+000	 1.3478165685e-001	 3.6539278840e+000
 1.4926338975e+000	 1.4847238149e-001	 3.6381517996e+000
 1.4912050840e+000	 1.6219555323e-001	 3.6153849880e+000
 1.4896448456e+000	 1.7594952092e-001	 3.5855444509e+000
 1.4879521294e+000	 1.8973260296e-001	 3.5485363484e+000
 1.4861259070e+000	 2.0354308766e-001	 3.5042556435e+000
 1.4841651757e+000	 2.1737923353e-001	 3.4525857620e+000
 1.4820689593e+000	 2.3123926969e-001	 3.3933982672e+000
 1.4798363089e+000	 2.4512139625e-001	 3.3265525516e+000
 1.4774663038e+000	 2.5902378476e-001	 3.2518955475e+000
 1.4749580526e+000	 2.7294457862e-001	 3.1692614571e+000
 1.5188312356e+000	 1.3702801779e-001	 3.5824040958e+000
 1.5175111291e+000	 1.5094692118e-001	 3.5705819129e+000
 1.5160585020e+000	 1.6489881245e-001	 3.5511033669e+000
 1.5144722597e+000	 1.7888201293e-001	 3.5238912680e+000
 1.5127513315e+000	 1.9289481301e-001	 3.4888576449e+000
 1.5108946721e+000	 2.0693547245e-001	 3.4459033760e+000
 1.5089012620e+000	 2.2100222075e-001	 3.3949178351e+000
 1.5067701086e+000	 2.3509325751e-001	 3.3357785532e+000
 1.5045002474e+000	 2.4920675285e-001	 3.2683508967e+000
 1.5020907422e+000	 2.6334084783e-001	 3.1924877649e+000
 1.4995406868e+000	 2.7749365493e-001	 3.1080293071e+000
 1.5437301083e+000	 1.3927437874e-001	 3.5120702837e+000
 1.5423883607e+000	 1.5342146087e-001	 3.5043470310e+000
 1.5409119201e+000	 1.6760207167e-001	 3.4883578142e+000
 1.5392996738e+000	 1.8181450494e-001	 3.4640317691e+000
 1.5375505337e+000	 1.9605702305e-001	 3.4312872634e+000
 1.5356634372e+000	 2.1032785724e-001	 3.3900315124e+000
 1.5336373482e+000	 2.2462520797e-001	 3.3401602101e+000
 1.5314712579e+000	 2.3894724534e-001	 3.2815571754e+000
 1.5291641858e+000	 2.5329210946e-001	 3.2140940154e+000
 1.5267151806e+000	 2.6765791091e-001	 3.1376298088e+000
 1.5241233210e+000	 2.8204273124e-001	 3.0520108083e+000
 1.5686289811e+000	 1.4152073968e-001	 3.4431303608e+000
 1.5672655924e+000	 1.5589600055e-001	 3.4396100723e+000
 1.5657653382e+000	 1.7030533088e-001	 3.4272694995e+000
 1.5641270879e+000	 1.8474699695e-001	 3.4060446308e+000
 1.5623497358e+000	 1.9921923310e-001	 3.3758606531e+000
 1.5604322023e+000	 2.1372024203e-001	 3.3366315512e+000
 1.5583734345e+000	 2.2824819520e-001	 3.2882597214e+000
 1.5561724073e+000	 2.4280123317e-001	 3.2306356012e+000
 1.5538281243e+000	 2.5737746606e-001	 3.1636373167e+000
 1.5513396190e+000	 2.7197497399e-001	 3.0871303494e+000
 1.5487059552e+000	 2.8659180755e-001	 3.0009672228e+000
 1.5935278538e+000	 1.4376710062e-001	 3.3757661361e+000
 1.5921428240e+000	 1.5837054024e-001	 3.3765137012e+000
 1.5906187562e+000	 1.7300859010e-001	 3.3679412794e+000
 1.5889545020e+000	 1.8767948897e-001	 3.3499922487e+000
 1.5871489380e+000	 2.0238144315e-001	 3.3225991061e+000
 1.5852009674e+000	 2.1711262682e-001	 3.2856830483e+000
 1.5831095208e+000	 2.3187118242e-001	 3.2391535669e+000
 1.5808735566e+000	 2.4665522099e-001	 3.1829080598e+000
 1.5784920628e+000	 2.6146282266e-001	 3.1168314605e+000
 1.5759640574e+000	 2.7629203707e-001	 3.0407958873e+000
 1.5732885894e+000	 2.9114088386e-001	 2.9546603133e+000
 1.6184267265e+000	 1.4601346157e-001	 3.3101390151e+000
 1.6170200556e+000	 1.6084507993e-001	 3.3151818859e+000
 1.6154721743e+000	 1.7571184932e-001	 3.3104591057e+000
 1.6137819161e+000	 1.9061198098e-001	 3.2959219896e+000
 1.6119481402e+000	 2.0554365319e-001	 3.2715108458e+000
 1.6099697326e+000	 2.2050501162e-001	 3.2371545359e+000
 1.6078456070e+000	 2.3549416964e-001	 3.1927700501e+000
 1.6055747059e+000	 2.5050920882e-001	 3.1382620987e+000
 1.6031560013e+000	 2.6554817926e-001	 3.0735227221e+000
 1.6005884958e+000	 2.8060910014e-001	 2.9984309205e+000
 1.5978712237e+000	 2.9568996017e-001	 2.9128523049e+000
 1.6433255992e+000	 1.4825982252e-001	 3.2463915452e+000
 1.6418972872e+000	 1.6331961962e-001	 3.2557213145e+000
 1.6403255924e+000	 1.7841510854e-001	 3.2548933063e+000
 1.6386093302e+000	 1.9354447299e-001	 3.2438673303e+000
 1.6367473423e+000	 2.0870586324e-001	 3.2225920174e+000
 1.6347384977e+000	 2.2389739641e-001	 3.1910043575e+000
 1.6325816933e+000	 2.3911715687e-001	 3.1490292533e+000
 1.6302758552e+000	 2.5436319665e-001	 3.0965790902e+000
 1.6278199398e+000	 2.6963353587e-001	 3.0335533252e+000
 1.6252129342e+000	 2.8492616322e-001	 2.9598380955e+000
 1.6224538579e+000	 3.0023903648e-001	 2.8753058502e+000
 1.6682244719e+000	 1.5050618346e-001	 3.1846488235e+000
 1.6667745188e+000	 1.6579415931e-001	 3.1982226851e+000
 1.6651790104e+000	 1.8111836776e-001	 3.2012997510e+000
 1.6634367443e+000	 1.9647696501e-001	 3.1938488939e+000
 1.6615465445e+000	 2.1186807329e-001	 3.1758275889e+000
 1.6595072628e+000	 2.2728978120e-001	 3.1471814282e+000
 1.6573177795e+000	 2.4274014409e-001	 3.1078436513e+000
 1.6549770045e+000	 2.5821718447e-001	 3.0577346919e+000
 1.6524838782e+000	 2.7371889247e-001	 2.9967617434e+000
 1.6498373726e+000	 2.8924322630e-001	 2.9248183462e+000
 1.6470364921e+000	 3.0478811279e-001	 2.8417839968e+000
 1.6931233446e+000	 1.5275254441e-001	 3.1250197795e+000
 1.6916517505e+000	 1.6826869900e-001	 3.1427618812e+000
 1.6900324285e+000	 1.8382162698e-001	 3.1497209151e+000
 1.6882641584e+000	 1.9940945702e-001	 3.1458753951e+000
 1.6863457466e+000	 2.1503028334e-001	 3.1311921731e+000
 1.6842760279e+000	 2.3068216600e-001	 3.1056259280e+000
 1.6820538658e+000	 2.4636313132e-001	 3.0691186710e+000
 1.6796781539e+000	 2.6207117230e-001	 3.0215992670e+000
 1.6771478167e+000	 2.7780424907e-001	 2.9629829766e+000
 1.6744618110e+000	 2.9356028938e-001	 2.8931710193e+000
 1.6716191263e+000	 3.0933718910e-001	 2.8120501591e+000
 1.7180222173e+000	 1.5499890536e-001	 3.0675983467e+000
 1.7165289821e+000	 1.7074323870e-001	 3.0894010452e+000
 1.7148858466e+000	 1.8652488620e-001	 3.1001868493e+000
 1.7130915724e+000	 2.0234194904e-001	 3.0999445030e+000
 1.7111449488e+000	 2.1819249339e-001	 3.0886507781e+000
 1.7090447930e+000	 2.3407455079e-001	 3.0662699351e+000
 1.7067899521e+000	 2.4998611855e-001	 3.0327532016e+000
 1.7043793032e+000	 2.6592516013e-001	 2.9880382680e+000
 1.7018117552e+000	 2.8188960568e-001	 2.9320488026e+000
 1.6990862494e+000	 2.9787735246e-001	 2.8646939898e+000
 1.6962017605e+000	 3.1388626541e-001	 2.7858680909e+000
 1.7429210901e+000	 1.5724526631e-001	 3.0124645339e+000
 1.7414062137e+000	 1.7321777839e-001	 3.0381895602e+000
 1.7397392646e+000	 1.8922814542e-001	 3.0527160675e+000
 1.7379189865e+000	 2.0527444106e-001	 3.0560436303e+000
 1.7359441509e+000	 2.2135470344e-001	 3.0481594932e+000
 1.7338135582e+000	 2.3746693559e-001	 3.0290380039e+000
 1.7315260383e+000	 2.5360910577e-001	 2.9986400622e+000
 1.7290804525e+000	 2.6977914796e-001	 2.9569125875e+000
 1.7264756937e+000	 2.8597496228e-001	 2.9037880068e+000
 1.7237106878e+000	 3.0219441554e-001	 2.8391837655e+000
 1.7207843947e+000	 3.1843534172e-001	 2.7630018617e+000
 1.4749580526e+000	 2.7294457862e-001	 3.1692614571e+000
 1.4723106938e+000	 2.8688189364e-001	 3.1386994827e+000
 1.4695233968e+000	 3.0083381848e-001	 3.0984530705e+000
 1.4665953626e+000	 3.1479841525e-001	 3.0482962376e+000
 1.4635258252e+000	 3.2877372006e-001	 2.9879909093e+000
 1.4603140515e+000	 3.4275774362e-001	 2.9172868191e+000
 1.4569593432e+000	 3.5674847188e-001	 2.8359214349e+000
 1.4534610367e+000	 3.7074386670e-001	 2.7436199147e+000
 1.4498185045e+000	 3.8474186652e-001	 2.6400950906e+000
 1.4460311558e+000	 3.9874038711e-001	 2.5250474839e+000
 1.4420984373e+000	 4.1273732227e-001	 2.3981653521e+000
 1.4995406868e+000	 2.7749365493e-001	 3.1080293071e+000
 1.4968492054e+000	 2.9166325853e-001	 3.0752652292e+000
 1.4940154534e+000	 3.0584771546e-001	 3.0331058305e+000
 1.4910386187e+000	 3.2004505551e-001	 2.9813354175e+000
 1.4879179223e+000	 3.3425328206e-001	 2.9197254320e+000
 1.4846526191e+000	 3.4847037268e-001	 2.8480343228e+000
 1.4812419989e+000	 3.6269427974e-001	 2.7660074453e+000
 1.4776853873e+000	 3.7692293114e-001	 2.6733769914e+000
 1.4739821463e+000	 3.9115423097e-001	 2.5698619492e+000
 1.4701316751e+000	 4.0538606023e-001	 2.4551680953e+000
 1.4661334112e+000	 4.1961627764e-001	 2.3289880195e+000
 1.5241233210e+000	 2.8204273124e-001	 3.0520108083e+000
 1.5213877169e+000	 2.9644462343e-001	 3.0176135151e+000
 1.5185075100e+000	 3.1086161243e-001	 2.9741395850e+000
 1.5154818747e+000	 3.2529169576e-001	 2.9213834168e+000
 1.5123100193e+000	 3.3973284406e-001	 2.8591257245e+000
 1.5089911866e+000	 3.5418300174e-001	 2.7871333815e+000
 1.5055246547e+000	 3.6864008761e-001	 2.7051592917e+000
 1.5019097379e+000	 3.8310199559e-001	 2.6129422937e+000
 1.4981457880e+000	 3.9756659541e-001	 2.5102070952e+000
 1.4942321944e+000	 4.1203173334e-001	 2.3966642418e+000
 1.4901683852e+000	 4.2649523301e-001	 2.2720101200e+000
 1.5487059552e+000	 2.8659180755e-001	 3.0009672228e+000
 1.5459262285e+000	 3.0122598832e-001	 2.9654648602e+000
 1.5429995666e+000	 3.1587550941e-001	 2.9212348622e+000
 1.5399251308e+000	 3.3053833602e-001	 2.8680815420e+000
 1.5367021164e+000	 3.4521240607e-001	 2.8057946620e+000
 1.5333297541e+000	 3.5989563080e-001	 2.7341492472e+000
 1.5298073104e+000	 3.7458589548e-001	 2.6529054296e+000
 1.5261340886e+000	 3.8928106004e-001	 2.5618083241e+000
 1.5223094298e+000	 4.0397895985e-001	 2.4605879382e+000
 1.5183327136e+000	 4.1867740646e-001	 2.3489591166e+000
 1.5142033591e+000	 4.3337418838e-001	 2.2266215214e+000
 1.5732885894e+000	 2.9114088386e-001	 2.9546603133e+000
 1.5704647400e+000	 3.0600735321e-001	 2.9185425880e+000
 1.5674916232e+000	 3.2088940638e-001	 2.8740772997e+000
 1.5643683868e+000	 3.3578497627e-001	 2.8210785174e+000
 1.5610942135e+000	 3.5069196807e-001	 2.7593448456e+000
 1.5576683217e+000	 3.6560825986e-001	 2.6886592067e+000
 1.5540899661e+000	 3.8053170334e-001	 2.6087886564e+000
 1.5503584392e+000	 3.9546012448e-001	 2.5194842324e+000
 1.5464730715e+000	 4.1039132430e-001	 2.4204808376e+000
 1.5424332329e+000	 4.2532307958e-001	 2.3114971602e+000
 1.5382383331e+000	 4.4025314375e-001	 2.1922356314e+000
 1.5978712237e+000	 2.9568996017e-001	 2.9128523049e+000
 1.5950032516e+000	 3.1078871811e-001	 2.8765726108e+000
 1.5919836798e+000	 3.2590330335e-001	 2.8323572523e+000
 1.5888116429e+000	 3.4103161652e-001	 2.7800299146e+000
 1.5854863106e+000	 3.5617153007e-001	 2.7193978550e+000
 1.5820068892e+000	 3.7132088892e-001	 2.6502516557e+000
 1.5783726218e+000	 3.8647751121e-001	 2.5723650084e+000
 1.5745827898e+000	 4.0163918893e-001	 2.4854945351e+000
 1.5706367133e+000	 4.1680368874e-001	 2.3893796444e+000
 1.5665337522e+000	 4.3196875270e-001	 2.2837424265e+000
 1.5622733070e+000	 4.4713209913e-001	 2.1682875875e+000
 1.6224538579e+000	 3.0023903648e-001	 2.8753058502e+000
 1.6195417632e+000	 3.1557008300e-001	 2.8392832327e+000
 1.6164757364e+000	 3.3091720033e-001	 2.7957694345e+000
 1.6132548989e+000	 3.4627825678e-001	 2.7445976333e+000
 1.6098784077e+000	 3.6165109207e-001	 2.6855835678e+000
 1.6063454567e+000	 3.7703351798e-001	 2.6185252575e+000
 1.6026552775e+000	 3.9242331907e-001	 2.5432027580e+000
 1.5988071404e+000	 4.0781825337e-001	 2.4593779515e+000
 1.5948003550e+000	 4.2321605318e-001	 2.3667943764e+000
 1.5906342714e+000	 4.3861442582e-001	 2.2651770962e+000
 1.5863082810e+000	 4.5401105450e-001	 2.1542326104e+000
 1.6470364921e+000	 3.0478811279e-001	 2.8417839968e+000
 1.6440802747e+000	 3.2035144789e-001	 2.8064049720e+000
 1.6409677930e+000	 3.3593109730e-001	 2.7640125950e+000
 1.6376981549e+000	 3.5152489703e-001	 2.7144494297e+000
 1.6342705048e+000	 3.6713065407e-001	 2.6575395401e+000
 1.6306840242e+000	 3.8274614704e-001	 2.5930881766e+000
 1.6269379333e+000	 3.9836912694e-001	 2.5208815003e+000
 1.6230314910e+000	 4.1399731782e-001	 2.4406863436e+000
 1.6189639967e+000	 4.2962841762e-001	 2.3522500115e+000
 1.6147347907e+000	 4.4526009894e-001	 2.2553001248e+000
 1.6103432550e+000	 4.6089000987e-001	 2.1495445055e+000
 1.6716191263e+000	 3.0933718910e-001	 2.8120501591e+000
 1.6686187863e+000	 3.2513281279e-001	 2.7776703975e+000
 1.6654598497e+000	 3.4094499428e-001	 2.7367892198e+000
 1.6621414110e+000	 3.5677153728e-001	 2.6892584854e+000
 1.6586626019e+000	 3.7261021607e-001	 2.6349104423e+000
 1.6550225918e+000	 3.8845877610e-001	 2.5735573800e+000
 1.6512205890e+000	 4.0431493480e-001	 2.5049913206e+000
 1.6472558416e+000	 4.2017638226e-001	 2.4289837497e+000
 1.6431276385e+000	 4.3604078206e-001	 2.3452853882e+000
 1.6388353100e+000	 4.5190577206e-001	 2.2536260086e+000
 1.6343782289e+000	 4.6776896524e-001	 2.1537142961e+000
 1.6962017605e+000	 3.1388626541e-001	 2.7858680909e+000
 1.6931572979e+000	 3.2991417768e-001	 2.7528139808e+000
 1.6899519063e+000	 3.4595889125e-001	 2.7138052621e+000
 1.6865846670e+000	 3.6201817754e-001	 2.6687030144e+000
 1.6830546990e+000	 3.7808977807e-001	 2.6173475436e+000
 1.6793611593e+000	 3.9417140516e-001	 2.5595579995e+000
 1.6755032447e+000	 4.1026074266e-001	 2.4951320345e+000
 1.6714801922e+000	 4.2635544671e-001	 2.4238455021e+000
 1.6672912802e+000	 4.4245314651e-001	 2.3454522002e+000
 1.6629358292e+000	 4.5855144518e-001	 2.2596836589e+000
 1.6584132029e+000	 4.7464792061e-001	 2.1662489761e+000
 1.7207843947e+000	 3.1843534172e-001	 2.7630018617e+000
 1.7176958094e+000	 3.3469554257e-001	 2.7315719597e+000
 1.7144439629e+000	 3.5097278822e-001	 2.6947698939e+000
 1.7110279231e+000	 3.6726481779e-001	 2.6524659037e+000
 1.7074467960e+000	 3.8356934007e-001	 2.6045082401e+000
 1.7036997268e+000	 3.9988403422e-001	 2.5507227484e+000
 1.6997859004e+000	 4.1620655053e-001	 2.4909124924e+000
 1.6957045429e+000	 4.3253451115e-001	 2.4248574207e+000
 1.6914549220e+000	 4.4886551095e-001	 2.3523140794e+000
 1.6870363485e+000	 4.6519711830e-001	 2.2730153720e+000
 1.6824481768e+000	 4.8152687598e-001	 2.1866703689e+000
 1.4420984373e+000	 4.1273732227e-001	 2.3981653521e+000
 1.4380198337e+000	 4.2673054465e-001	 2.3573301482e+000
 1.4337948692e+000	 4.4071790656e-001	 2.3100003097e+000
 1.4294231071e+000	 4.5469724075e-001	 2.2558993154e+000
 1.4249041518e+000	 4.6866636131e-001	 2.1947351992e+000
 1.4202376483e+000	 4.8262306456e-001	 2.1262006367e+000
 1.4154232836e+000	 4.9656512994e-001	 2.0499730716e+000
 1.4104607872e+000	 5.1049032095e-001	 1.9657148813e+000
 1.4053499316e+000	 5.2439638615e-001	 1.8730735826e+000
 1.4000905329e+000	 5.3828106007e-001	 1.7716820784e+000
 1.3946824516e+000	 5.5214206433e-001	 1.6611589457e+000
 1.4661334112e+000	 4.1961627764e-001	 2.3289880195e+000
 1.4619868310e+000	 4.3384272040e-001	 2.2904817660e+000
 1.4576914503e+000	 4.4806320500e-001	 2.2436818755e+000
 1.4532468256e+000	 4.6227552809e-001	 2.1882863993e+000
 1.4486525543e+000	 4.7647746733e-001	 2.1239785092e+000
 1.4439082757e+000	 4.9066678230e-001	 2.0504266216e+000
 1.4390136716e+000	 5.0484121544e-001	 1.9672845627e+000
 1.4339684670e+000	 5.1899849297e-001	 1.8741917724e+000
 1.4287724304e+000	 5.3313632591e-001	 1.7707735507e+000
 1.4234253751e+000	 5.4725241107e-001	 1.6566413444e+000
 1.4179271591e+000	 5.6134443207e-001	 1.5313930761e+000
 1.4901683852e+000	 4.2649523301e-001	 2.2720101200e+000
 1.4859538282e+000	 4.4095489614e-001	 2.2359503860e+000
 1.4815880315e+000	 4.5540850345e-001	 2.1898910668e+000
 1.4770705440e+000	 4.6985381544e-001	 2.1335048882e+000
 1.4724009568e+000	 4.8428857336e-001	 2.0664501781e+000
 1.4675789032e+000	 4.9871050005e-001	 1.9883710282e+000
 1.4626040597e+000	 5.1311730094e-001	 1.8988974962e+000
 1.4574761468e+000	 5.2750666498e-001	 1.7976458480e+000
 1.4521949293e+000	 5.4187626568e-001	 1.6842188433e+000
 1.4467602173e+000	 5.5622376207e-001	 1.5582060620e+000
 1.4411718666e+000	 5.7054679981e-001	 1.4191842741e+000
 1.5142033591e+000	 4.3337418838e-001	 2.2266215214e+000
 1.5099208254e+000	 4.4806707189e-001	 2.1931283312e+000
 1.5054846126e+000	 4.6275380189e-001	 2.1480203606e+000
 1.5008942625e+000	 4.7743210279e-001	 2.0909450857e+000
 1.4961493594e+000	 4.9209967938e-001	 2.0215359850e+000
 1.4912495307e+000	 5.0675421779e-001	 1.9394127362e+000
 1.4861944478e+000	 5.2139338644e-001	 1.8441814544e+000
 1.4809838265e+000	 5.3601483700e-001	 1.7354349728e+000
 1.4756174281e+000	 5.5061620545e-001	 1.6127531656e+000
 1.4700950595e+000	 5.6519511307e-001	 1.4757033147e+000
 1.4644165742e+000	 5.7974916755e-001	 1.3238405192e+000
 1.5382383331e+000	 4.4025314375e-001	 2.1922356314e+000
 1.5338878227e+000	 4.5517924763e-001	 2.1614315720e+000
 1.5293811938e+000	 4.7009910033e-001	 2.1174861816e+000
 1.5247179809e+000	 4.8501039013e-001	 2.0600217399e+000
 1.5198977619e+000	 4.9991078540e-001	 1.9886468466e+000
 1.5149201581e+000	 5.1479793553e-001	 1.9029566531e+000
 1.5097848358e+000	 5.2966947193e-001	 1.8025331365e+000
 1.5044915063e+000	 5.4452300902e-001	 1.6869454167e+000
 1.4990399270e+000	 5.5935614522e-001	 1.5557501171e+000
 1.4934299018e+000	 5.7416646408e-001	 1.4084917699e+000
 1.4876612817e+000	 5.8895153529e-001	 1.2447032658e+000
 1.5622733070e+000	 4.4713209913e-001	 2.1682875875e+000
 1.5578548199e+000	 4.6229142338e-001	 2.1402979067e+000
 1.5532777749e+000	 4.7744439878e-001	 2.0977270609e+000
 1.5485416994e+000	 4.9258867748e-001	 2.0401721630e+000
 1.5436461644e+000	 5.0772189142e-001	 1.9672168829e+000
 1.5385907856e+000	 5.2284165328e-001	 1.8784317120e+000
 1.5333752239e+000	 5.3794555743e-001	 1.7733742725e+000
 1.5279991861e+000	 5.5303118103e-001	 1.6515896699e+000
 1.5224624259e+000	 5.6809608499e-001	 1.5126108914e+000
 1.5167647440e+000	 5.8313781508e-001	 1.3559592489e+000
 1.5109059892e+000	 5.9815390303e-001	 1.1811448679e+000
 1.5863082810e+000	 4.5401105450e-001	 2.1542326104e+000
 1.5818218171e+000	 4.6940359912e-001	 2.1291853085e+000
 1.5771743561e+000	 4.8478969722e-001	 2.0882019607e+000
 1.5723654179e+000	 5.0016696483e-001	 2.0308545220e+000
 1.5673945670e+000	 5.1553299745e-001	 1.9567016598e+000
 1.5622614131e+000	 5.3088537102e-001	 1.8652890515e+000
 1.5569656119e+000	 5.4622164294e-001	 1.7561497270e+000
 1.5515068659e+000	 5.6153935305e-001	 1.6288044568e+000
 1.5458849247e+000	 5.7683602476e-001	 1.4827621866e+000
 1.5400995862e+000	 5.9210916608e-001	 1.3175205185e+000
 1.5341506967e+000	 6.0735627077e-001	 1.1325662386e+000
 1.6103432550e+000	 4.6089000987e-001	 2.1495445055e+000
 1.6057888143e+000	 4.7651577487e-001	 2.1275704194e+000
 1.6010709372e+000	 4.9213499566e-001	 2.0883887498e+000
 1.5961891363e+000	 5.0774525217e-001	 2.0315462821e+000
 1.5911429695e+000	 5.2334410347e-001	 1.9565765886e+000
 1.5859320406e+000	 5.3892908877e-001	 1.8630003585e+000
 1.5805560000e+000	 5.5449772844e-001	 1.7503257727e+000
 1.5750145457e+000	 5.7004752507e-001	 1.6180489267e+000
 1.5693074236e+000	 5.8557596453e-001	 1.4656543012e+000
 1.5634344284e+000	 6.0108051709e-001	 1.2926152804e+000
 1.5573954043e+000	 6.1655863851e-001	 1.0983947183e+000
 1.6343782289e+000	 4.6776896524e-001	 2.1537142961e+000
 1.6297558116e+000	 4.8362795061e-001	 2.1349471776e+000
 1.6249675184e+000	 4.9948029411e-001	 2.0977828135e+000
 1.6200128548e+000	 5.1532353952e-001	 2.0417427880e+000
 1.6148913720e+000	 5.3115520949e-001	 1.9663354669e+000
 1.6096026680e+000	 5.4697280651e-001	 1.8710563575e+000
 1.6041463881e+000	 5.6277381394e-001	 1.7553885164e+000
 1.5985222255e+000	 5.7855569709e-001	 1.6188030057e+000
 1.5927299224e+000	 5.9431590430e-001	 1.4607593992e+000
 1.5867692706e+000	 6.1005186809e-001	 1.2807063372e+000
 1.5806401118e+000	 6.2576100625e-001	 1.0839756387e+000
 1.6584132029e+000	 4.7464792061e-001	 2.1662489761e+000
 1.6537228088e+000	 4.9074012636e-001	 2.1508255645e+000
 1.6488640995e+000	 5.0682559255e-001	 2.1158957842e+000
 1.6438365732e+000	 5.2290182687e-001	 2.0609559684e+000
 1.6386397745e+000	 5.3896631552e-001	 1.9854891459e+000
 1.6332732955e+000	 5.5501652426e-001	 1.8889654308e+000
 1.6277367761e+000	 5.7104989944e-001	 1.7708424615e+000
 1.6220299053e+000	 5.8706386911e-001	 1.6305658907e+000
 1.6161524213e+000	 6.0305584408e-001	 1.4675699254e+000
 1.6101041128e+000	 6.1902321909e-001	 1.2812779191e+000
 1.6038848193e+000	 6.3496337399e-001	 1.1450679146e+000
 1.6824481768e+000	 4.8152687598e-001	 2.1866703689e+000
 1.6776898060e+000	 4.9785230211e-001	 2.1747304581e+000
 1.6727606807e+000	 5.1417089100e-001	 2.1422543806e+000
 1.6676602917e+000	 5.3048011422e-001	 2.0887131508e+000
 1.6623881771e+000	 5.4677742155e-001	 2.0135643125e+000
 1.6569439230e+000	 5.6306024200e-001	 1.9162523572e+000
 1.6513271642e+000	 5.7932598494e-001	 1.7962091944e+000
 1.6455375851e+000	 5.9557204113e-001	 1.6528546731e+000
 1.6395749202e+000	 6.1179578385e-001	 1.4855971572e+000
 1.6334389551e+000	 6.2799457010e-001	 1.3133738446e+000
 1.6271295268e+000	 6.4416574173e-001	 1.2127657381e+000
 1.3946824516e+000	 5.5214206433e-001	 1.6611589457e+000
 1.3891255928e+000	 5.6597710858e-001	 1.6152936824e+000
 1.3834199070e+000	 5.7978389160e-001	 1.5427227405e+000
 1.3775653904e+000	 5.9356010237e-001	 1.4427661425e+000
 1.3715620856e+000	 6.0730342120e-001	 1.3147456206e+000
 1.3654100816e+000	 6.2101152078e-001	 1.1579855630e+000
 1.3591095148e+000	 6.3468206740e-001	 1.0994677887e+000
 1.3526605688e+000	 6.4831272205e-001	 1.0770164514e+000
 1.3460634750e+000	 6.6190114160e-001	 1.0399507197e+000
 1.3393185129e+000	 6.7544498003e-001	 9.8779667253e-001
 1.3324260102e+000	 6.8894188956e-001	 9.2008297627e-001
 1.4179271591e+000	 5.6134443207e-001	 1.5313930761e+000
 1.4122776860e+000	 5.7541006039e-001	 1.4613250483e+000
 1.4064769054e+000	 5.8944695646e-001	 1.3649332506e+000
 1.4005248136e+000	 6.0345277075e-001	 1.2415512836e+000
 1.3944214536e+000	 6.1742514488e-001	 1.0905137089e+000
 1.3881669163e+000	 6.3136171280e-001	 9.9012719932e-001
 1.3817613401e+000	 6.4526010186e-001	 9.6648126835e-001
 1.3752049116e+000	 6.5911793409e-001	 9.2958883106e-001
 1.3684978662e+000	 6.7293282730e-001	 8.7900018468e-001
 1.3616404881e+000	 6.8670239636e-001	 8.1426691268e-001
 1.3546331104e+000	 7.0042425438e-001	 7.3494239295e-001
 1.4411718666e+000	 5.7054679981e-001	 1.4191842741e+000
 1.4354297792e+000	 5.8484301220e-001	 1.3270447698e+000
 1.4295339039e+000	 5.9911002132e-001	 1.2089779109e+000
 1.4234842367e+000	 6.1334543912e-001	 1.0643292014e+000
 1.4172808217e+000	 6.2754686857e-001	 9.2205255442e-001
 1.4109237510e+000	 6.4171190481e-001	 8.9691119432e-001
 1.4044131653e+000	 6.5583813632e-001	 8.5985017503e-001
 1.3977492544e+000	 6.6992314612e-001	 8.1044497438e-001
 1.3909322575e+000	 6.8396451299e-001	 7.4827110376e-001
 1.3839624633e+000	 6.9795981269e-001	 6.7290456756e-001
 1.3768402106e+000	 7.1190661921e-001	 5.8392233958e-001
 1.4644165742e+000	 5.7974916755e-001	 1.3238405192e+000
 1.4585818724e+000	 5.9427596401e-001	 1.2116873753e+000
 1.4525909023e+000	 6.0877308618e-001	 1.0740188857e+000
 1.4464436599e+000	 6.2323810749e-001	 9.1019080872e-001
 1.4401401898e+000	 6.3766859226e-001	 8.6414166080e-001
 1.4336805857e+000	 6.5206209682e-001	 8.2652736832e-001
 1.4270649905e+000	 6.6641617078e-001	 7.7788229484e-001
 1.4202935972e+000	 6.8072835815e-001	 7.1780691748e-001
 1.4133666487e+000	 6.9499619869e-001	 6.4590095273e-001
 1.4062844385e+000	 7.0921722903e-001	 5.6176378353e-001
 1.3990473107e+000	 7.2338898403e-001	 4.6499490455e-001
 1.4876612817e+000	 5.8895153529e-001	 1.2447032658e+000
 1.4817339656e+000	 6.0370891582e-001	 1.1145262012e+000
 1.4756479008e+000	 6.1843615104e-001	 9.5926245689e-001
 1.4694030831e+000	 6.3313077587e-001	 8.6437847162e-001
 1.4629995579e+000	 6.4779031595e-001	 8.2578178433e-001
 1.4564374204e+000	 6.6241228884e-001	 7.7743028779e-001
 1.4497168158e+000	 6.7699420523e-001	 7.1895048791e-001
 1.4428379400e+000	 6.9153357019e-001	 6.4996692584e-001
 1.4358010400e+000	 7.0602788438e-001	 5.7010255349e-001
 1.4286064137e+000	 7.2047464536e-001	 4.7897912864e-001
 1.4212544109e+000	 7.3487134886e-001	 3.7621762968e-001
 1.5109059892e+000	 5.9815390303e-001	 1.1811448679e+000
 1.5048860588e+000	 6.1314186763e-001	 1.0348704068e+000
 1.4987048992e+000	 6.2809921590e-001	 8.9418388941e-001
 1.4923625062e+000	 6.4302344424e-001	 8.5412996113e-001
 1.4858589260e+000	 6.5791203963e-001	 8.0556072283e-001
 1.4791942551e+000	 6.7276248085e-001	 7.4812979554e-001
 1.4723686410e+000	 6.8757223969e-001	 6.8148768274e-001
 1.4653822828e+000	 7.0233878223e-001	 6.0528209210e-001
 1.4582354312e+000	 7.1705957007e-001	 5.1915827820e-001
 1.4509283889e+000	 7.3173206170e-001	 4.2275940631e-001
 1.4434615111e+000	 7.4635371369e-001	 3.1572693695e-001
 1.5341506967e+000	 6.0735627077e-001	 1.1325662386e+000
 1.5280381520e+000	 6.2257481944e-001	 9.7206226014e-001
 1.5217618977e+000	 6.3776228076e-001	 9.0843117221e-001
 1.5153219294e+000	 6.5291611261e-001	 8.5908689704e-001
 1.5087182941e+000	 6.6803376332e-001	 8.0211290526e-001
 1.5019510898e+000	 6.8311267287e-001	 7.3718682309e-001
 1.4950204663e+000	 6.9815027415e-001	 6.6398232560e-001
 1.4879266257e+000	 7.1314399426e-001	 5.8216942488e-001
 1.4806698225e+000	 7.2809125577e-001	 4.9141478033e-001
 1.4732503641e+000	 7.4298947803e-001	 3.9138203143e-001
 1.4656686112e+000	 7.5783607852e-001	 2.8173215271e-001
 1.5573954043e+000	 6.1655863851e-001	 1.0983947183e+000
 1.5511902453e+000	 6.3200777125e-001	 9.8587598311e-001
 1.5448188961e+000	 6.4742534562e-001	 9.3515251728e-001
 1.5382813526e+000	 6.6280878099e-001	 8.7799718369e-001
 1.5315776622e+000	 6.7815548701e-001	 8.1411591181e-001
 1.5247079245e+000	 6.9346286488e-001	 7.4320957810e-001
 1.5176722915e+000	 7.0872830861e-001	 6.6497423737e-001
 1.5104709685e+000	 7.2394920630e-001	 5.7910137745e-001
 1.5031042137e+000	 7.3912294146e-001	 4.8527819753e-001
 1.4955723393e+000	 7.5424689437e-001	 3.8318791015e-001
 1.4878757114e+000	 7.6931844334e-001	 2.7251006703e-001
 1.5806401118e+000	 6.2576100625e-001	 1.0839756387e+000
 1.5743423385e+000	 6.4144072306e-001	 1.0312214090e+000
 1.5678758946e+000	 6.5708841048e-001	 9.7319933923e-001
 1.5612407758e+000	 6.7270144936e-001	 9.0964485952e-001
 1.5544370303e+000	 6.8827721070e-001	 8.4028730098e-001
 1.5474647592e+000	 7.0381305690e-001	 7.6485006819e-001
 1.5403241168e+000	 7.1930634307e-001	 6.8305083599e-001
 1.5330153113e+000	 7.3475441833e-001	 5.9460177093e-001
 1.5255386050e+000	 7.5015462716e-001	 4.9920977782e-001
 1.5178943146e+000	 7.6550431070e-001	 3.9657677135e-001
 1.5100828116e+000	 7.8080080817e-001	 2.8639997315e-001
 1.6038848193e+000	 6.3496337399e-001	 1.1450679146e+000
 1.5974944317e+000	 6.5087367487e-001	 1.0854461470e+000
 1.5909328930e+000	 6.6675147534e-001	 1.0214529834e+000
 1.5842001989e+000	 6.8259411774e-001	 9.5284747865e-001
 1.5772963984e+000	 6.9839893439e-001	 8.7938171265e-001
 1.5702215939e+000	 7.1416324891e-001	 8.0080092703e-001
 1.5629759420e+000	 7.2988437753e-001	 7.1684368744e-001
 1.5555596541e+000	 7.4555963037e-001	 6.2724207196e-001
 1.5479729962e+000	 7.6118631286e-001	 5.3172188604e-001
 1.5402162898e+000	 7.7676172704e-001	 4.3000290414e-001
 1.5322899118e+000	 7.9228317300e-001	 3.2179913828e-001
 1.6271295268e+000	 6.4416574173e-001	 1.2127657381e+000
 1.6206465249e+000	 6.6030662669e-001	 1.1475206271e+000
 1.6139898915e+000	 6.7641454021e-001	 1.0788225881e+000
 1.6071596221e+000	 6.9248678611e-001	 1.0064537169e+000
 1.6001557665e+000	 7.0852065808e-001	 9.3018821935e-001
 1.5929784285e+000	 7.2451344093e-001	 8.4979251246e-001
 1.5856277673e+000	 7.4046241198e-001	 7.6502535228e-001
 1.5781039969e+000	 7.5636484241e-001	 6.7563798946e-001
 1.5704073875e+000	 7.7221799855e-001	 5.8137435272e-001
 1.5625382650e+000	 7.8801914338e-001	 4.8197126071e-001
 1.5544970119e+000	 8.0376553783e-001	 3.7715866257e-001
 1.3324260102e+000	 6.8894188956e-001	 9.2008297627e-001
 1.3253863434e+000	 7.0238952194e-001	 8.1628360081e-001
 1.3181999376e+000	 7.1578552965e-001	 7.0974411122e-001
 1.3108672667e+000	 7.2912756712e-001	 6.0023034409e-001
 1.3033888536e+000	 7.4241329201e-001	 4.8750278419e-001
 1.2957652706e+000	 7.5564036645e-001	 3.7131684722e-001
 1.2879971388e+000	 7.6880645833e-001	 2.5142318347e-001
 1.2800851286e+000	 7.8190924254e-001	 1.2756800210e-001
 1.2720299594e+000	 7.9494640225e-001	-5.0658430509e-004
 1.2638323996e+000	 8.0791563023e-001	-1.3306219516e-001
 1.2554932668e+000	 8.2081463007e-001	-2.7036379797e-001
 1.3546331104e+000	 7.0042425438e-001	 7.3494239295e-001
 1.3474761158e+000	 7.1409601397e-001	 6.2916273670e-001
 1.3401699365e+000	 7.2771528847e-001	 5.2193168632e-001
 1.3327150544e+000	 7.4127969323e-001	 4.1300568086e-001
 1.3251120012e+000	 7.5478684687e-001	 3.0213426023e-001
 1.3173613584e+000	 7.6823437256e-001	 1.8906034835e-001
 1.3094637578e+000	 7.8161989930e-001	 7.3520560023e-002
 1.3014198807e+000	 7.9494106324e-001	-4.4754469158e-002
 1.2932304587e+000	 8.0819550895e-001	-1.6603972977e-001
 1.2848962730e+000	 8.2138089073e-001	-2.9061546301e-001
 1.2764181546e+000	 8.3449487390e-001	-4.1876676308e-001
 1.3768402106e+000	 7.1190661921e-001	 5.8392233958e-001
 1.3695658882e+000	 7.2580250600e-001	 4.7636697731e-001
 1.3621399355e+000	 7.3964504730e-001	 3.6864239909e-001
 1.3545628422e+000	 7.5343181935e-001	 2.6049521228e-001
 1.3468351487e+000	 7.6716040174e-001	 1.5166356091e-001
 1.3389574463e+000	 7.8082837866e-001	 4.1877409803e-002
 1.3309303768e+000	 7.9443334027e-001	-6.9141145140e-002
 1.3227546328e+000	 8.0797288395e-001	-1.8167754070e-001
 1.3144309580e+000	 8.2144461565e-001	-2.9602438447e-001
 1.3059601463e+000	 8.3484615123e-001	-4.1248106774e-001
 1.2973430424e+000	 8.4817511773e-001	-5.3135335347e-001
 1.3990473107e+000	 7.2338898403e-001	 4.6499490455e-001
 1.3916556606e+000	 7.3750899804e-001	 3.5587121399e-001
 1.3841099345e+000	 7.5157480613e-001	 2.4785583537e-001
 1.3764106300e+000	 7.6558394547e-001	 1.4068511134e-001
 1.3685582963e+000	 7.7953395660e-001	 3.4085338794e-002
 1.3605535341e+000	 7.9342238477e-001	-7.2226945736e-002
 1.3523969957e+000	 8.0724678124e-001	-1.7854465183e-001
 1.3440893850e+000	 8.2100470466e-001	-2.8516979232e-001
 1.3356314573e+000	 8.3469372236e-001	-3.9241311197e-001
 1.3270240196e+000	 8.4831141173e-001	-5.0059368821e-001
 1.3182679302e+000	 8.6185536157e-001	-6.1003850422e-001
 1.4212544109e+000	 7.3487134886e-001	 3.7621762968e-001
 1.4137454330e+000	 7.4921549007e-001	 2.6573555525e-001
 1.4060799334e+000	 7.6350456496e-001	 1.5763647918e-001
 1.3982584178e+000	 7.7773607159e-001	 5.1646047345e-002
 1.3902814439e+000	 7.9190751147e-001	-5.2521742195e-002
 1.3821496220e+000	 8.0601639088e-001	-1.5516425225e-001
 1.3738636147e+000	 8.2006022222e-001	-2.5658988787e-001
 1.3654241371e+000	 8.3403652537e-001	-3.5711774639e-001
 1.3568319566e+000	 8.4794282906e-001	-4.5707723616e-001
 1.3480878930e+000	 8.6177667223e-001	-5.5680766458e-001
 1.3391928179e+000	 8.7553560540e-001	-6.5665779565e-001
 1.4434615111e+000	 7.4635371369e-001	 3.1572693695e-001
 1.4358352054e+000	 7.6092198210e-001	 2.0409877158e-001
 1.4280499324e+000	 7.7543432378e-001	 9.6127182028e-002
 1.4201062055e+000	 7.8988819771e-001	-8.4733138261e-003
 1.4120045914e+000	 8.0428106634e-001	-1.1000146913e-001
 1.4037457098e+000	 8.1861039699e-001	-2.0876901911e-001
 1.3953302337e+000	 8.3287366319e-001	-3.0510035770e-001
 1.3867588893e+000	 8.4706834608e-001	-3.9933217997e-001
 1.3780324560e+000	 8.6119193577e-001	-4.9181309054e-001
 1.3691517663e+000	 8.7524193274e-001	-5.8290317821e-001
 1.3601177057e+000	 8.8921584923e-001	-6.7297355748e-001
 1.4656686112e+000	 7.5783607852e-001	 2.8173215271e-001
 1.4579249778e+000	 7.7262847414e-001	 1.6917233620e-001
 1.4500199313e+000	 7.8736408261e-001	 6.1543226072e-002
 1.4419539933e+000	 8.0204032383e-001	-4.1452218524e-002
 1.4337277390e+000	 8.1665462121e-001	-1.4012595504e-001
 1.4253417977e+000	 8.3120440310e-001	-2.3480456630e-001
 1.4167968527e+000	 8.4568710416e-001	-3.2582893200e-001
 1.4080936414e+000	 8.6010016679e-001	-4.1355386309e-001
 1.3992329553e+000	 8.7444104247e-001	-4.9834769925e-001
 1.3902156396e+000	 8.8870719324e-001	-5.8059186975e-001
 1.3810425935e+000	 9.0289609307e-001	-6.6068041816e-001
 1.4878757114e+000	 7.6931844334e-001	 2.7251006703e-001
 1.4800147502e+000	 7.8433496617e-001	 1.5923499951e-001
 1.4719899303e+000	 7.9929384144e-001	 5.2166918779e-002
 1.4638017811e+000	 8.1419244995e-001	-4.9003205032e-002
 1.4554508865e+000	 8.2902817608e-001	-1.4460098770e-001
 1.4469378855e+000	 8.4379840921e-001	-2.3496833705e-001
 1.4382634717e+000	 8.5850054514e-001	-3.2046311894e-001
 1.4294283936e+000	 8.7313198750e-001	-4.0145878315e-001
 1.4204334546e+000	 8.8769014918e-001	-4.7834394946e-001
 1.4112795129e+000	 9.0217245375e-001	-5.5152195411e-001
 1.4019674813e+000	 9.1657633690e-001	-6.2141035719e-001
 1.5100828116e+000	 7.8080080817e-001	 2.8639997315e-001
 1.5021045226e+000	 7.9604145821e-001	 1.7262784221e-001
 1.4939599293e+000	 8.1122360028e-001	 6.6342664622e-002
 1.4856495689e+000	 8.2634457607e-001	-3.2777008563e-002
 1.4771740341e+000	 8.4140173095e-001	-1.2507090649e-001
 1.4685339734e+000	 8.5639241532e-001	-2.1089674169e-001
 1.4597300906e+000	 8.7131398611e-001	-2.9062987016e-001
 1.4507631457e+000	 8.8616380821e-001	-3.6466290834e-001
 1.4416339539e+000	 9.0093925588e-001	-4.3340530728e-001
 1.4323433863e+000	 9.1563771425e-001	-4.9728288415e-001
 1.4228923691e+000	 9.3025658074e-001	-5.5673731165e-001
 1.5322899118e+000	 7.9228317300e-001	 3.2179913828e-001
 1.5241942950e+000	 8.0774795024e-001	 2.0774975863e-001
 1.5159299282e+000	 8.2315335911e-001	 1.0247246529e-001
 1.5074973567e+000	 8.3849670220e-001	 5.6329602529e-003
 1.4988971817e+000	 8.5377528582e-001	-8.3123055180e-002
 1.4901300612e+000	 8.6898642143e-001	-1.6416958034e-001
 1.4811967096e+000	 8.8412742709e-001	-2.3789996898e-001
 1.4720978979e+000	 8.9919562892e-001	-3.0472653689e-001
 1.4628344533e+000	 9.1418836259e-001	-3.6508012367e-001
 1.4534072596e+000	 9.2910297476e-001	-4.1940960874e-001
 1.4438172569e+000	 9.4393682457e-001	-4.6818138219e-001
 1.5544970119e+000	 8.0376553783e-001	 3.7715866257e-001
 1.5462840674e+000	 8.1945444228e-001	 2.6305332717e-001
 1.5378999272e+000	 8.3508311794e-001	 1.5901180560e-001
 1.5293451444e+000	 8.5064882832e-001	 6.4686520759e-002
 1.5206203292e+000	 8.6614884069e-001	-2.0291853056e-002
 1.5117261490e+000	 8.8158042754e-001	-9.6314086522e-002
 1.5026633286e+000	 8.9694086807e-001	-1.6379204241e-001
 1.4934326500e+000	 9.1222744964e-001	-2.2315827346e-001
 1.4840349526e+000	 9.2743746930e-001	-2.7486557121e-001
 1.4744711329e+000	 9.4256823526e-001	-3.1938646597e-001
 1.4647421446e+000	 9.5761706841e-001	-3.5721267849e-001
 1.2554932668e+000	 8.2081463007e-001	-2.7036379797e-001
 1.2470134270e+000	 8.3364111751e-001	-3.5565500399e-001
 1.2383937949e+000	 8.4639282171e-001	-4.1537497824e-001
 1.2296353336e+000	 8.5906748650e-001	-4.7404139530e-001
 1.2207390541e+000	 8.7166287168e-001	-5.3189611146e-001
 1.2117060152e+000	 8.8417675429e-001	-5.8919028773e-001
 1.2025373230e+000	 8.9660692987e-001	-6.4618359229e-001
 1.1932341309e+000	 9.0895121369e-001	-7.0314337323e-001
 1.1837976384e+000	 9.2120744201e-001	-7.6034380367e-001
 1.1742290915e+000	 9.3337347334e-001	-8.1806500138e-001
 1.1645297814e+000	 9.4544718961e-001	-8.7659212523e-001
 1.2764181546e+000	 8.3449487390e-001	-4.1876676308e-001
 1.2677969841e+000	 8.4753513614e-001	-4.9987263441e-001
 1.2590336915e+000	 8.6049936873e-001	-5.8914129747e-001
 1.2501292558e+000	 8.7338527793e-001	-6.8675872933e-001
 1.2410847050e+000	 8.8619058620e-001	-7.2988642731e-001
 1.2319011154e+000	 8.9891303353e-001	-7.7048996156e-001
 1.2225796118e+000	 9.1155037870e-001	-8.0980809645e-001
 1.2131213664e+000	 9.2410040058e-001	-8.4824404935e-001
 1.2035275991e+000	 9.3656089938e-001	-8.8620948714e-001
 1.1937995763e+000	 9.4892969790e-001	-9.2412347677e-001
 1.1839386111e+000	 9.6120464277e-001	-9.6241140931e-001
 1.2973430424e+000	 8.4817511773e-001	-5.3135335347e-001
 1.2885805413e+000	 8.6142915476e-001	-5.9771613261e-001
 1.2796735881e+000	 8.7460591576e-001	-6.7128725129e-001
 1.2706231781e+000	 8.8770306937e-001	-7.5236272883e-001
 1.2614303559e+000	 9.0071830073e-001	-8.4123938847e-001
 1.2520962157e+000	 9.1364931276e-001	-9.3821434537e-001
 1.2426219005e+000	 9.2649382753e-001	-9.8088601068e-001
 1.2330086019e+000	 9.3924958748e-001	-1.0050531861e+000
 1.2232575597e+000	 9.5191435675e-001	-1.0280337243e+000
 1.2133700612e+000	 9.6448592246e-001	-1.0503851150e+000
 1.2033474407e+000	 9.7696209593e-001	-1.0726724697e+000
 1.3182679302e+000	 8.6185536157e-001	-6.1003850422e-001
 1.3093640984e+000	 8.7532317338e-001	-6.6579605797e-001
 1.3003134847e+000	 8.8871246279e-001	-7.2781722666e-001
 1.2911171003e+000	 9.0202086081e-001	-7.9650662953e-001
 1.2817760068e+000	 9.1524601526e-001	-8.7227138021e-001
 1.2722913159e+000	 9.2838559200e-001	-9.5552045896e-001
 1.2626641892e+000	 9.4143727636e-001	-1.0466640661e+000
 1.2528958375e+000	 9.5439877437e-001	-1.1461129577e+000
 1.2429875204e+000	 9.6726781412e-001	-1.1852565836e+000
 1.2329405461e+000	 9.8004214701e-001	-1.1960254108e+000
 1.2227562704e+000	 9.9271954909e-001	-1.2062855109e+000
 1.3391928179e+000	 8.7553560540e-001	-6.5665779565e-001
 1.3301476555e+000	 8.8921719201e-001	-7.0572697385e-001
 1.3209533813e+000	 9.0281900981e-001	-7.6012301757e-001
 1.3116110225e+000	 9.1633865225e-001	-8.2035781262e-001
 1.3021216577e+000	 9.2977372978e-001	-8.8694743608e-001
 1.2924864162e+000	 9.4312187124e-001	-9.6041141372e-001
 1.2827064779e+000	 9.5638072519e-001	-1.0412719551e+000
 1.2727830730e+000	 9.6954796126e-001	-1.1300531677e+000
 1.2627174810e+000	 9.8262127148e-001	-1.2272802514e+000
 1.2525110309e+000	 9.9559837157e-001	-1.3334786757e+000
 1.2421651001e+000	 1.0084770023e+000	-1.3622286081e+000
 1.3601177057e+000	 8.8921584923e-001	-6.7297355748e-001
 1.3509312126e+000	 9.0311121063e-001	-7.1906351566e-001
 1.3415932779e+000	 9.1692555684e-001	-7.6954988882e-001
 1.3321049447e+000	 9.3065644369e-001	-8.2505059877e-001
 1.3224673086e+000	 9.4430144431e-001	-8.8618946369e-001
 1.3126815164e+000	 9.5785815047e-001	-9.5359534145e-001
 1.3027487666e+000	 9.7132417402e-001	-1.0279012471e+000
 1.2926703085e+000	 9.8469714816e-001	-1.1097434460e+000
 1.2824474417e+000	 9.9797472885e-001	-1.1997605246e+000
 1.2720815158e+000	 1.0111545961e+000	-1.2985924401e+000
 1.2615739298e+000	 1.0242344554e+000	-1.4068795515e+000
 1.3810425935e+000	 9.0289609307e-001	-6.6068041816e-001
 1.3717147697e+000	 9.1700522925e-001	-7.0730493082e-001
 1.3622331744e+000	 9.3103210387e-001	-7.5740010087e-001
 1.3525988670e+000	 9.4497423513e-001	-8.1168875271e-001
 1.3428129595e+000	 9.5882915883e-001	-8.7090132204e-001
 1.3328766167e+000	 9.7259442971e-001	-9.3577488572e-001
 1.3227910554e+000	 9.8626762285e-001	-1.0070521624e+000
 1.3125575440e+000	 9.9984633505e-001	-1.0854804852e+000
 1.3021774023e+000	 1.0133281862e+000	-1.1718107492e+000
 1.2916520006e+000	 1.0267108207e+000	-1.2667963346e+000
 1.2809827595e+000	 1.0399919086e+000	-1.3711920087e+000
 1.4019674813e+000	 9.1657633690e-001	-6.2141035719e-001
 1.3924983268e+000	 9.3089924788e-001	-6.7189921220e-001
 1.3828730710e+000	 9.4513865090e-001	-7.2493611919e-001
 1.3730927892e+000	 9.5929202657e-001	-7.8134776357e-001
 1.3631586104e+000	 9.7335687336e-001	-8.4197016838e-001
 1.3530717169e+000	 9.8733070895e-001	-9.0764761145e-001
 1.3428333441e+000	 1.0012110717e+000	-9.7923150944e-001
 1.3324447795e+000	 1.0149955219e+000	-1.0575792710e+000
 1.3219073629e+000	 1.0286816436e+000	-1.1435531209e+000
 1.3112224855e+000	 1.0422670452e+000	-1.2380188978e+000
 1.3003915892e+000	 1.0557493617e+000	-1.3418448267e+000
 1.4228923691e+000	 9.3025658074e-001	-5.5673731165e-001
 1.4132818840e+000	 9.4479326650e-001	-6.1424686687e-001
 1.4035129676e+000	 9.5924519792e-001	-6.7338354035e-001
 1.3935867114e+000	 9.7360981801e-001	-7.3507692389e-001
 1.3835042613e+000	 9.8788458789e-001	-8.0026768634e-001
 1.3732668172e+000	 1.0020669882e+000	-8.6990637832e-001
 1.3628756328e+000	 1.0161545205e+000	-9.4495220046e-001
 1.3523320150e+000	 1.0301447088e+000	-1.0263717372e+000
 1.3416373236e+000	 1.0440351009e+000	-1.1151376582e+000
 1.3307929704e+000	 1.0578232698e+000	-1.2122273907e+000
 1.3198004189e+000	 1.0715068149e+000	-1.3186217635e+000
 1.4438172569e+000	 9.4393682457e-001	-4.6818138219e-001
 1.4340654411e+000	 9.5868728513e-001	-5.3570435706e-001
 1.4241528642e+000	 9.7335174495e-001	-6.0393376363e-001
 1.4140806337e+000	 9.8792760946e-001	-6.7390122799e-001
 1.4038499122e+000	 1.0024123024e+000	-7.4665120712e-001
 1.3934619174e+000	 1.0168032674e+000	-8.2323968175e-001
 1.3829179215e+000	 1.0310979693e+000	-9.0473280903e-001
 1.3722192506e+000	 1.0452938957e+000	-9.9220553738e-001
 1.3613672842e+000	 1.0593885583e+000	-1.0867401859e+000
 1.3503634552e+000	 1.0733794943e+000	-1.1894249908e+000
 1.3392092486e+000	 1.0872642681e+000	-1.3013526220e+000
 1.4647421446e+000	 9.5761706841e-001	-3.5721267849e-001
 1.4548489982e+000	 9.7258130376e-001	-4.3758724623e-001
 1.4447927608e+000	 9.8745829198e-001	-5.1774643374e-001
 1.4345745559e+000	 1.0022454009e+000	-5.9882310754e-001
 1.4241955631e+000	 1.0169400169e+000	-6.8196473478e-001
 1.4136570177e+000	 1.0315395467e+000	-7.6833196461e-001
 1.4029602102e+000	 1.0460414182e+000	-8.5909716573e-001
 1.3921064861e+000	 1.0604430826e+000	-9.5544292246e-001
 1.3810972449e+000	 1.0747420157e+000	-1.0585604922e+000
 1.3699339401e+000	 1.0889357189e+000	-1.1696482268e+000
 1.3586180783e+000	 1.1030217212e+000	-1.2899099611e+000
 1.1645297814e+000	 9.4544718961e-001	-8.7659212523e-001
 1.1547010445e+000	 9.5742649739e-001	-9.6734518413e-001
 1.1447442616e+000	 9.6930932910e-001	-1.0550625604e+000
 1.1346608574e+000	 9.8109364418e-001	-1.1404985021e+000
 1.1244522996e+000	 9.9277743021e-001	-1.2244140582e+000
 1.1141200983e+000	 1.0043587041e+000	-1.3075756114e+000
 1.1036658055e+000	 1.0158355131e+000	-1.3907533957e+000
 1.0930910140e+000	 1.0272059361e+000	-1.4747200008e+000
 1.0823973566e+000	 1.0384680844e+000	-1.5602488677e+000
 1.0715865057e+000	 1.0496201031e+000	-1.6481127796e+000
 1.0606601718e+000	 1.0606601718e+000	-1.7390823508e+000
 1.1839386111e+000	 9.6120464277e-001	-9.6241140931e-001
 1.1739460619e+000	 9.7338360568e-001	-1.0526269016e+000
 1.1638233327e+000	 9.8546448459e-001	-1.1399364168e+000
 1.1535718717e+000	 9.9744520492e-001	-1.2250729735e+000
 1.1431931713e+000	 1.0093237207e+000	-1.3087764181e+000
 1.1326887666e+000	 1.0210980158e+000	-1.3917919465e+000
 1.1220602356e+000	 1.0327661050e+000	-1.4748686106e+000
 1.1113091975e+000	 1.0443260351e+000	-1.5587578114e+000
 1.1004373125e+000	 1.0557758859e+000	-1.6442117836e+000
 1.0894462808e+000	 1.0671137715e+000	-1.7319820743e+000
 1.0783378413e+000	 1.0783378413e+000	-1.8228180206e+000
 1.2033474407e+000	 9.7696209593e-001	-1.0726724697e+000
 1.1931910793e+000	 9.8934071397e-001	-1.1581559332e+000
 1.1829024037e+000	 1.0016196401e+000	-1.2408417648e+000
 1.1724828860e+000	 1.0137967657e+000	-1.3214453240e+000
 1.1619340429e+000	 1.0258700112e+000	-1.4006888501e+000
 1.1512574349e+000	 1.0378373276e+000	-1.4792999693e+000
 1.1404546657e+000	 1.0496966969e+000	-1.5580101852e+000
 1.1295273811e+000	 1.0614461340e+000	-1.6375533563e+000
 1.1184772685e+000	 1.0730836873e+000	-1.7186641641e+000
 1.1073060559e+000	 1.0846074399e+000	-1.8020765757e+000
 1.0960155108e+000	 1.0960155108e+000	-1.8885223052e+000
 1.2227562704e+000	 9.9271954909e-001	-1.2062855109e+000
 1.2124360967e+000	 1.0052978223e+000	-1.2829778942e+000
 1.2019814747e+000	 1.0177747956e+000	-1.3569599033e+000
 1.1913939003e+000	 1.0301483264e+000	-1.4289327691e+000
 1.1806749146e+000	 1.0424163017e+000	-1.4996046804e+000
 1.1698261033e+000	 1.0545766393e+000	-1.5696892715e+000
 1.1588490958e+000	 1.0666272888e+000	-1.6399040921e+000
 1.1477455647e+000	 1.0785662329e+000	-1.7109690645e+000
 1.1365172244e+000	 1.0903914887e+000	-1.7836049306e+000
 1.1251658309e+000	 1.1021011083e+000	-1.8585316939e+000
 1.1136931804e+000	 1.1136931804e+000	-1.9364670604e+000
 1.2421651001e+000	 1.0084770023e+000	-1.3622286081e+000
 1.2316811141e+000	 1.0212549306e+000	-1.4261961408e+000
 1.2210605457e+000	 1.0339299511e+000	-1.4875197123e+000
 1.2103049146e+000	 1.0464998871e+000	-1.5468899212e+000
 1.1994157862e+000	 1.0589625922e+000	-1.6050044279e+000
 1.1883947716e+000	 1.0713159510e+000	-1.6625664180e+000
 1.1772435259e+000	 1.0835578807e+000	-1.7202830470e+000
 1.1659637482e+000	 1.0956863319e+000	-1.7788638728e+000
 1.1545571804e+000	 1.1076992901e+000	-1.8390192767e+000
 1.1430256060e+000	 1.1195947767e+000	-1.9014588806e+000
 1.1313708499e+000	 1.1313708499e+000	-1.9668899614e+000
 1.2615739298e+000	 1.0242344554e+000	-1.4068795515e+000
 1.2509261315e+000	 1.0372120388e+000	-1.5759770789e+000
 1.2401396168e+000	 1.0500851065e+000	-1.6317939931e+000
 1.2292159289e+000	 1.0628514479e+000	-1.6747059130e+000
 1.2181566579e+000	 1.0755088827e+000	-1.7163937124e+000
 1.2069634399e+000	 1.0880552628e+000	-1.7575536410e+000
 1.1956379560e+000	 1.1004884726e+000	-1.7988859902e+000
 1.1841819318e+000	 1.1128064308e+000	-1.8410934947e+000
 1.1725971363e+000	 1.1250070915e+000	-1.8848797247e+000
 1.1608853811e+000	 1.1370884451e+000	-1.9309474717e+000
 1.1490485194e+000	 1.1490485194e+000	-1.9799971330e+000
 1.2809827595e+000	 1.0399919086e+000	-1.3711920087e+000
 1.2701711489e+000	 1.0531691471e+000	-1.5180989486e+000
 1.2592186878e+000	 1.0662402620e+000	-1.6729676796e+000
 1.2481269432e+000	 1.0792030086e+000	-1.8118017826e+000
 1.2368975296e+000	 1.0920551733e+000	-1.8333013528e+000
 1.2255321082e+000	 1.1047945745e+000	-1.8542876532e+000
 1.2140323861e+000	 1.1174190645e+000	-1.8754576146e+000
 1.2024001154e+000	 1.1299265297e+000	-1.8975106648e+000
 1.1906370923e+000	 1.1423148929e+000	-1.9211470852e+000
 1.1787451562e+000	 1.1545821135e+000	-1.9470663628e+000
 1.1667261890e+000	 1.1667261890e+000	-1.9759655390e+000
 1.3003915892e+000	 1.0557493617e+000	-1.3418448267e+000
 1.2894161663e+000	 1.0691262554e+000	-1.4632244957e+000
 1.2782977588e+000	 1.0823954175e+000	-1.5929466614e+000
 1.2670379575e+000	 1.0955545694e+000	-1.7312675534e+000
 1.2556384012e+000	 1.1086014638e+000	-1.8784427484e+000
 1.2441007765e+000	 1.1215338863e+000	-1.9524185671e+000
 1.2324268162e+000	 1.1343496563e+000	-1.9497479371e+000
 1.2206182989e+000	 1.1470466287e+000	-1.9479653604e+000
 1.2086770482e+000	 1.1596226943e+000	-1.9477713311e+000
 1.1966049313e+000	 1.1720757818e+000	-1.9498655348e+000
 1.1844038585e+000	 1.1844038585e+000	-1.9549451587e+000
 1.3198004189e+000	 1.0715068149e+000	-1.3186217635e+000
 1.3086611837e+000	 1.0850833637e+000	-1.4112468236e+000
 1.2973768299e+000	 1.0985505730e+000	-1.5125769974e+000
 1.2859489718e+000	 1.1119061301e+000	-1.6228437689e+000
 1.2743792729e+000	 1.1251477543e+000	-1.7422779973e+000
 1.2626694448e+000	 1.1382731980e+000	-1.8711092768e+000
 1.2508212463e+000	 1.1512802482e+000	-2.0095652850e+000
 1.2388364825e+000	 1.1641667276e+000	-1.9923050049e+000
 1.2267170042e+000	 1.1769304957e+000	-1.9646923945e+000
 1.2144647064e+000	 1.1895694502e+000	-1.9393774447e+000
 1.2020815280e+000	 1.2020815280e+000	-1.9170609709e+000
 1.3392092486e+000	 1.0872642681e+000	-1.3013526220e+000
 1.3279062012e+000	 1.1010404720e+000	-1.3620982087e+000
 1.3164559009e+000	 1.1147057285e+000	-1.4318933672e+000
 1.3048599860e+000	 1.1282576908e+000	-1.5109470418e+000
 1.2931201445e+000	 1.1416940448e+000	-1.5994676083e+000
 1.2812381131e+000	 1.1550125097e+000	-1.6976622429e+000
 1.2692156764e+000	 1.1682108401e+000	-1.8057362803e+000
 1.2570546661e+000	 1.1812868266e+000	-1.9238925614e+000
 1.2447569601e+000	 1.1942382971e+000	-1.9718408946e+000
 1.2323244815e+000	 1.2070631186e+000	-1.9156182951e+000
 1.2197591976e+000	 1.2197591976e+000	-1.8624147660e+000
 1.3586180783e+000	 1.1030217212e+000	-1.2899099611e+000
 1.3471512186e+000	 1.1169975803e+000	-1.3157473020e+000
 1.3355349719e+000	 1.1308608840e+000	-1.3509604249e+000
 1.3237710003e+000	 1.1446092516e+000	-1.3957379050e+000
 1.3118610162e+000	 1.1582403353e+000	-1.4502678324e+000
 1.2998067814e+000	 1.1717518215e+000	-1.5147371892e+000
 1.2876101065e+000	 1.1851414320e+000	-1.5893312140e+000
 1.2752728496e+000	 1.1984069255e+000	-1.6742327555e+000
 1.2627969161e+000	 1.2115460986e+000	-1.7696216174e+000
 1.2501842566e+000	 1.2245567870e+000	-1.8756738952e+000
 1.2374368671e+000	 1.2374368671e+000	-1.7910868016e+000
 1.0606601718e+000	 1.0606601718e+000	-1.7390823508e+000
 1.0496201031e+000	 1.0715865057e+000	-1.7825748886e+000
 1.0384680844e+000	 1.0823973566e+000	-1.8278249516e+000
 1.0272059361e+000	 1.0930910140e+000	-1.8754958716e+000
 1.0158355131e+000	 1.1036658055e+000	-1.9262463987e+000
 1.0043587041e+000	 1.1141200983e+000	-1.9807293337e+000
 9.9277743021e-001	 1.1244522996e+000	-2.0395901758e+000
 9.8109364418e-001	 1.1346608574e+000	-2.1034657884e+000
 9.6930932910e-001	 1.1447442616e+000	-2.1729830874e+000
 9.5742649739e-001	 1.1547010445e+000	-2.2487577538e+000
 9.4544718961e-001	 1.1645297814e+000	-2.3313929748e+000
 1.0783378413e+000	 1.0783378413e+000	-1.8228180206e+000
 1.0671137715e+000	 1.0894462808e+000	-1.8606738981e+000
 1.0557758859e+000	 1.1004373125e+000	-1.9006932726e+000
 1.0443260351e+000	 1.1113091975e+000	-1.9435067271e+000
 1.0327661050e+000	 1.1220602356e+000	-1.9897397585e+000
 1.0210980158e+000	 1.1326887666e+000	-2.0400114131e+000
 1.0093237207e+000	 1.1431931713e+000	-2.0949329378e+000
 9.9744520492e-001	 1.1535718717e+000	-2.1551064514e+000
 9.8546448459e-001	 1.1638233327e+000	-2.2211236383e+000
 9.7338360568e-001	 1.1739460619e+000	-2.2935644685e+000
 9.6120464277e-001	 1.1839386111e+000	-2.3729959468e+000
 1.0960155108e+000	 1.0960155108e+000	-1.8885223052e+000
 1.0846074399e+000	 1.1073060559e+000	-1.9160011278e+000
 1.0730836873e+000	 1.1184772685e+000	-1.9460484943e+000
 1.0614461340e+000	 1.1295273811e+000	-1.9792661094e+000
 1.0496966969e+000	 1.1404546657e+000	-2.0162500765e+000
 1.0378373276e+000	 1.1512574349e+000	-2.0575895315e+000
 1.0258700112e+000	 1.1619340429e+000	-2.1038652933e+000
 1.0137967657e+000	 1.1724828860e+000	-2.1556485347e+000
 1.0016196401e+000	 1.1829024037e+000	-2.2134994776e+000
 9.8934071397e-001	 1.1931910793e+000	-2.2779661156e+000
 9.7696209593e-001	 1.2033474407e+000	-2.3495829664e+000
 1.1136931804e+000	 1.1136931804e+000	-1.9364670604e+000
 1.1021011083e+000	 1.1251658309e+000	-1.9489883728e+000
 1.0903914887e+000	 1.1365172244e+000	-1.9644829844e+000
 1.0785662329e+000	 1.1477455647e+000	-1.9835275401e+000
 1.0666272888e+000	 1.1588490958e+000	-2.0066925577e+000
 1.0545766393e+000	 1.1698261033e+000	-2.0345410544e+000
 1.0424163017e+000	 1.1806749146e+000	-2.0676271918e+000
 1.0301483264e+000	 1.1913939003e+000	-2.1064949422e+000
 1.0177747956e+000	 1.2019814747e+000	-2.1516767805e+000
 1.0052978223e+000	 1.2124360967e+000	-2.2036924042e+000
 9.9271954909e-001	 1.2227562704e+000	-2.2630474854e+000
 1.1313708499e+000	 1.1313708499e+000	-1.9668899614e+000
 1.1195947767e+000	 1.1430256060e+000	-1.9600215673e+000
 1.1076992901e+000	 1.1545571804e+000	-1.9565315409e+000
 1.0956863319e+000	 1.1659637482e+000	-1.9569752405e+000
 1.0835578807e+000	 1.1772435259e+000	-1.9619013593e+000
 1.0713159510e+000	 1.1883947716e+000	-1.9718505406e+000
 1.0589625922e+000	 1.1994157862e+000	-1.9873540126e+000
 1.0464998871e+000	 1.2103049146e+000	-2.0089322447e+000
 1.0339299511e+000	 1.2210605457e+000	-2.0370936319e+000
 1.0212549306e+000	 1.2316811141e+000	-2.0723332078e+000
 1.0084770023e+000	 1.2421651001e+000	-2.1151313913e+000
 1.1490485194e+000	 1.1490485194e+000	-1.9799971330e+000
 1.1370884451e+000	 1.1608853811e+000	-1.9494443123e+000
 1.1250070915e+000	 1.1725971363e+000	-1.9226758208e+000
 1.1128064308e+000	 1.1841819318e+000	-1.9002294621e+000
 1.1004884726e+000	 1.1956379560e+000	-1.8826358248e+000
 1.0880552628e+000	 1.2069634399e+000	-1.8704168818e+000
 1.0755088827e+000	 1.2181566579e+000	-1.8640846088e+000
 1.0628514479e+000	 1.2292159289e+000	-1.8641396281e+000
 1.0500851065e+000	 1.2401396168e+000	-1.8710698792e+000
 1.0372120388e+000	 1.2509261315e+000	-1.9014065864e+000
 1.0242344554e+000	 1.2615739298e+000	-2.1019067126e+000
 1.1667261890e+000	 1.1667261890e+000	-1.9759655390e+000
 1.1545821135e+000	 1.1787451562e+000	-1.9175610828e+000
 1.1423148929e+000	 1.1906370923e+000	-1.8633483659e+000
 1.1299265297e+000	 1.2024001154e+000	-1.8138513332e+000
 1.1174190645e+000	 1.2140323861e+000	-1.7695861524e+000
 1.1047945745e+000	 1.2255321082e+000	-1.7310597919e+000
 1.0920551733e+000	 1.2368975296e+000	-1.6987686201e+000
 1.0792030086e+000	 1.2481269432e+000	-1.6731970293e+000
 1.0662402620e+000	 1.2592186878e+000	-1.8248343475e+000
 1.0531691471e+000	 1.2701711489e+000	-2.0059159310e+000
 1.0399919086e+000	 1.2809827595e+000	-2.1807387825e+000
 1.1844038585e+000	 1.1844038585e+000	-1.9549451587e+000
 1.1720757818e+000	 1.1966049313e+000	-1.8646401475e+000
 1.1596226943e+000	 1.2086770482e+000	-1.7789362679e+000
 1.1470466287e+000	 1.2206182989e+000	-1.6983472705e+000
 1.1343496563e+000	 1.2324268162e+000	-1.6233785540e+000
 1.1215338863e+000	 1.2441007765e+000	-1.5545257166e+000
 1.1086014638e+000	 1.2556384012e+000	-1.6048041491e+000
 1.0955545694e+000	 1.2670379575e+000	-1.7695652233e+000
 1.0823954175e+000	 1.2782977588e+000	-1.9282827186e+000
 1.0691262554e+000	 1.2894161663e+000	-2.0806306903e+000
 1.0557493617e+000	 1.3003915892e+000	-2.2262872274e+000
 1.2020815280e+000	 1.2020815280e+000	-1.9170609709e+000
 1.1895694502e+000	 1.2144647064e+000	-1.7909162312e+000
 1.1769304957e+000	 1.2267170042e+000	-1.6697845105e+000
 1.1641667276e+000	 1.2388364825e+000	-1.5541730028e+000
 1.1512802482e+000	 1.2508212463e+000	-1.4621034057e+000
 1.1382731980e+000	 1.2626694448e+000	-1.6069986918e+000
 1.1251477543e+000	 1.2743792729e+000	-1.7463150788e+000
 1.1119061301e+000	 1.2859489718e+000	-1.8796625604e+000
 1.0985505730e+000	 1.2973768299e+000	-2.0066546802e+000
 1.0850833637e+000	 1.3086611837e+000	-2.1269088811e+000
 1.0715068149e+000	 1.3198004189e+000	-2.2400468526e+000
 1.2197591976e+000	 1.2197591976e+000	-1.8624147660e+000
 1.2070631186e+000	 1.2323244815e+000	-1.6965929453e+000
 1.1942382971e+000	 1.2447569601e+000	-1.5361990207e+000
 1.1812868266e+000	 1.2570546661e+000	-1.5387465684e+000
 1.1682108401e+000	 1.2692156764e+000	-1.6547623970e+000
 1.1550125097e+000	 1.2812381131e+000	-1.7654508753e+000
 1.1416940448e+000	 1.2931201445e+000	-1.8703635829e+000
 1.1282576908e+000	 1.3048599860e+000	-1.9690553203e+000
 1.1147057285e+000	 1.3164559009e+000	-2.0610845192e+000
 1.1010404720e+000	 1.3279062012e+000	-2.1460136518e+000
 1.0872642681e+000	 1.3392092486e+000	-2.2234096386e+000
 1.2374368671e+000	 1.2374368671e+000	-1.7910868016e+000
 1.2245567870e+000	 1.2501842566e+000	-1.5861571592e+000
 1.2115460986e+000	 1.2627969161e+000	-1.6744041045e+000
 1.1984069255e+000	 1.2752728496e+000	-1.7581937991e+000
 1.1851414320e+000	 1.2876101065e+000	-1.8370191608e+000
 1.1717518215e+000	 1.2998067814e+000	-1.9103754026e+000
 1.1582403353e+000	 1.3118610162e+000	-1.9777605024e+000
 1.1446092516e+000	 1.3237710003e+000	-2.0386756727e+000
 1.1308608840e+000	 1.3355349719e+000	-2.0926258292e+000
 1.1169975803e+000	 1.3471512186e+000	-2.1391200589e+000
 1.1030217212e+000	 1.3586180783e+000	-2.1776720853e+000
 9.4544718961e-001	 1.1645297814e+000	-2.3313929748e+000
 9.3337347334e-001	 1.1742290915e+000	-2.2695975795e+000
 9.2120744201e-001	 1.1837976384e+000	-2.2142438909e+000
 9.0895121369e-001	 1.1932341309e+000	-2.1653575837e+000
 8.9660692987e-001	 1.2025373230e+000	-2.1229513900e+000
 8.8417675429e-001	 1.2117060152e+000	-2.0870245823e+000
 8.7166287168e-001	 1.2207390541e+000	-2.0575624912e+000
 8.5906748650e-001	 1.2296353336e+000	-2.0345360597e+000
 8.4639282171e-001	 1.2383937949e+000	-2.0179014365e+000
 8.3364111751e-001	 1.2470134270e+000	-2.0075996074e+000
 8.2081463007e-001	 1.2554932668e+000	-2.0425585710e+000
 9.6120464277e-001	 1.1839386111e+000	-2.3729959468e+000
 9.4892969790e-001	 1.1937995763e+000	-2.2839381322e+000
 9.3656089938e-001	 1.2035275991e+000	-2.2017970704e+000
 9.2410040058e-001	 1.2131213664e+000	-2.1267504708e+000
 9.1155037870e-001	 1.2225796118e+000	-2.0589614754e+000
 8.9891303353e-001	 1.2319011154e+000	-1.9985779619e+000
 8.8619058620e-001	 1.2410847050e+000	-1.9457318866e+000
 8.7338527793e-001	 1.2501292558e+000	-1.9018234123e+000
 8.6049936873e-001	 1.2590336915e+000	-1.9462423736e+000
 8.4753513614e-001	 1.2677969841e+000	-1.9837789782e+000
 8.3449487390e-001	 1.2764181546e+000	-2.0141917390e+000
 9.7696209593e-001	 1.2033474407e+000	-2.3495829664e+000
 9.6448592246e-001	 1.2133700612e+000	-2.2385207830e+000
 9.5191435675e-001	 1.2232575597e+000	-2.1348702248e+000
 9.3924958748e-001	 1.2330086019e+000	-2.0389599136e+000
 9.2649382753e-001	 1.2426219005e+000	-1.9511022501e+000
 9.1364931276e-001	 1.2520962157e+000	-1.8965957299e+000
 9.0071830073e-001	 1.2614303559e+000	-1.9291538014e+000
 8.8770306937e-001	 1.2706231781e+000	-1.9557120718e+000
 8.7460591576e-001	 1.2796735881e+000	-1.9761306886e+000
 8.6142915476e-001	 1.2885805413e+000	-1.9902748788e+000
 8.4817511773e-001	 1.2973430424e+000	-1.9980150579e+000
 9.9271954909e-001	 1.2227562704e+000	-2.2630474854e+000
 9.8004214701e-001	 1.2329405461e+000	-2.1349345077e+000
 9.6726781412e-001	 1.2429875204e+000	-2.0147487575e+000
 9.5439877437e-001	 1.2528958375e+000	-1.9430208019e+000
 9.4143727636e-001	 1.2626641892e+000	-1.9670804003e+000
 9.2838559200e-001	 1.2722913159e+000	-1.9855720567e+000
 9.1524601526e-001	 1.2817760068e+000	-1.9984601090e+000
 9.0202086081e-001	 1.2911171003e+000	-2.0057127975e+000
 8.8871246279e-001	 1.3003134847e+000	-2.0073022691e+000
 8.7532317338e-001	 1.3093640984e+000	-2.0032045793e+000
 8.6185536157e-001	 1.3182679302e+000	-1.9933996918e+000
 1.0084770023e+000	 1.2421651001e+000	-2.1151313913e+000
 9.9559837157e-001	 1.2525110309e+000	-2.0139015427e+000
 9.8262127148e-001	 1.2627174810e+000	-2.0339676809e+000
 9.6954796126e-001	 1.2727830730e+000	-2.0484502685e+000
 9.5638072519e-001	 1.2827064779e+000	-2.0574190968e+000
 9.4312187124e-001	 1.2924864162e+000	-2.0609471403e+000
 9.2977372978e-001	 1.3021216577e+000	-2.0591104493e+000
 9.1633865225e-001	 1.3116110225e+000	-2.0519880415e+000
 9.0281900981e-001	 1.3209533813e+000	-2.0396617944e+000
 8.8921719201e-001	 1.3301476555e+000	-2.0222163384e+000
 8.7553560540e-001	 1.3391928179e+000	-1.9997389499e+000
 1.0242344554e+000	 1.2615739298e+000	-2.1019067126e+000
 1.0111545961e+000	 1.2720815158e+000	-2.1175657560e+000
 9.9797472885e-001	 1.2824474417e+000	-2.1273594902e+000
 9.8469714816e-001	 1.2926703085e+000	-2.1314660460e+000
 9.7132417402e-001	 1.3027487666e+000	-2.1300662613e+000
 9.5785815047e-001	 1.3126815164e+000	-2.1233434582e+000
 9.4430144431e-001	 1.3224673086e+000	-2.1114832211e+000
 9.3065644369e-001	 1.3321049447e+000	-2.0946731775e+000
 9.1692555684e-001	 1.3415932779e+000	-2.0731027805e+000
 9.0311121063e-001	 1.3509312126e+000	-2.0469630945e+000
 8.8921584923e-001	 1.3601177057e+000	-2.0164465834e+000
 1.0399919086e+000	 1.2809827595e+000	-2.1807387825e+000
 1.0267108207e+000	 1.2916520006e+000	-2.1908452481e+000
 1.0133281862e+000	 1.3021774023e+000	-2.1948687844e+000
 9.9984633505e-001	 1.3125575440e+000	-2.1930970664e+000
 9.8626762285e-001	 1.3227910554e+000	-2.1858198960e+000
 9.7259442971e-001	 1.3328766167e+000	-2.1733288658e+000
 9.5882915883e-001	 1.3428129595e+000	-2.1559170255e+000
 9.4497423513e-001	 1.3525988670e+000	-2.1338785524e+000
 9.3103210387e-001	 1.3622331744e+000	-2.1075084267e+000
 9.1700522925e-001	 1.3717147697e+000	-2.0771021113e+000
 9.0289609307e-001	 1.3810425935e+000	-2.0429552368e+000
 1.0557493617e+000	 1.3003915892e+000	-2.2262872274e+000
 1.0422670452e+000	 1.3112224855e+000	-2.2351269344e+000
 1.0286816436e+000	 1.3219073629e+000	-2.2376641650e+000
 1.0149955219e+000	 1.3324447795e+000	-2.2342941563e+000
 1.0012110717e+000	 1.3428333441e+000	-2.2254136958e+000
 9.8733070895e-001	 1.3530717169e+000	-2.2114206729e+000
 9.7335687336e-001	 1.3631586104e+000	-2.1927136357e+000
 9.5929202657e-001	 1.3730927892e+000	-2.1696913533e+000
 9.4513865090e-001	 1.3828730710e+000	-2.1427523847e+000
 9.3089924788e-001	 1.3924983268e+000	-2.1122946548e+000
 9.1657633690e-001	 1.4019674813e+000	-2.0787150377e+000
 1.0715068149e+000	 1.3198004189e+000	-2.2400468526e+000
 1.0578232698e+000	 1.3307929704e+000	-2.2516997219e+000
 1.0440351009e+000	 1.3416373236e+000	-2.2568290589e+000
 1.0301447088e+000	 1.3523320150e+000	-2.2559357797e+000
 1.0161545205e+000	 1.3628756328e+000	-2.2495217766e+000
 1.0020669882e+000	 1.3732668172e+000	-2.2380893598e+000
 9.8788458789e-001	 1.3835042613e+000	-2.2221407054e+000
 9.7360981801e-001	 1.3935867114e+000	-2.2021773113e+000
 9.5924519792e-001	 1.4035129676e+000	-2.1786994613e+000
 9.4479326650e-001	 1.4132818840e+000	-2.1522056990e+000
 9.3025658074e-001	 1.4228923691e+000	-2.1231923115e+000
 1.0872642681e+000	 1.3392092486e+000	-2.2234096386e+000
 1.0733794943e+000	 1.3503634552e+000	-2.2417616115e+000
 1.0593885583e+000	 1.3613672842e+000	-2.2533678908e+000
 1.0452938957e+000	 1.3722192506e+000	-2.2588332816e+000
 1.0310979693e+000	 1.3829179215e+000	-2.2587629931e+000
 1.0168032674e+000	 1.3934619174e+000	-2.2537619715e+000
 1.0024123024e+000	 1.4038499122e+000	-2.2444342411e+000
 9.8792760946e-001	 1.4140806337e+000	-2.2313822556e+000
 9.7335174495e-001	 1.4241528642e+000	-2.2152062587e+000
 9.5868728513e-001	 1.4340654411e+000	-2.1965036575e+000
 9.4393682457e-001	 1.4438172569e+000	-2.1758684077e+000
 1.1030217212e+000	 1.3586180783e+000	-2.1776720853e+000
 1.0889357189e+000	 1.3699339401e+000	-2.2064261905e+000
 1.0747420157e+000	 1.3810972449e+000	-2.2282117257e+000
 1.0604430826e+000	 1.3921064861e+000	-2.2437356825e+000
 1.0460414182e+000	 1.4029602102e+000	-2.2537048857e+000
 1.0315395467e+000	 1.4136570177e+000	-2.2588252194e+000
 1.0169400169e+000	 1.4241955631e+000	-2.2598008623e+000
 1.0022454009e+000	 1.4345745559e+000	-2.2573335353e+000
 9.8745829198e-001	 1.4447927608e+000	-2.2521217610e+000
 9.7258130376e-001	 1.4548489982e+000	-2.2448601374e+000
 9.5761706841e-001	 1.4647421446e+000	-2.2362386264e+000
 8.2081463007e-001	 1.2554932668e+000	-2.0425585710e+000
 8.0791563023e-001	 1.2638323996e+000	-2.0721211547e+000
 7.9494640225e-001	 1.2720299594e+000	-2.0991942512e+000
 7.8190924254e-001	 1.2800851286e+000	-2.1236961063e+000
 7.6880645833e-001	 1.2879971388e+000	-2.1455468044e+000
 7.5564036645e-001	 1.2957652706e+000	-2.1646683479e+000
 7.4241329201e-001	 1.3033888536e+000	-2.1809847353e+000
 7.2912756712e-001	 1.3108672667e+000	-2.1944220392e+000
 7.1578552965e-001	 1.3181999376e+000	-2.2049084827e+000
 7.0238952194e-001	 1.3253863434e+000	-2.2123745148e+000
 6.8894188956e-001	 1.3324260102e+000	-2.2167528844e+000
 8.3449487390e-001	 1.2764181546e+000	-2.0141917390e+000
 8.2138089073e-001	 1.2848962730e+000	-2.0288478808e+000
 8.0819550895e-001	 1.2932304587e+000	-2.0413951671e+000
 7.9494106324e-001	 1.3014198807e+000	-2.0517940866e+000
 7.8161989930e-001	 1.3094637578e+000	-2.0600062248e+000
 7.6823437256e-001	 1.3173613584e+000	-2.0659943066e+000
 7.5478684687e-001	 1.3251120012e+000	-2.0697222404e+000
 7.4127969323e-001	 1.3327150544e+000	-2.0711551624e+000
 7.2771528847e-001	 1.3401699365e+000	-2.0702594813e+000
 7.1409601397e-001	 1.3474761158e+000	-2.0670029239e+000
 7.0042425438e-001	 1.3546331104e+000	-2.0613545805e+000
 8.4817511773e-001	 1.2973430424e+000	-1.9980150579e+000
 8.3484615123e-001	 1.3059601463e+000	-1.9994325811e+000
 8.2144461565e-001	 1.3144309580e+000	-1.9991143734e+000
 8.0797288395e-001	 1.3227546328e+000	-1.9970624234e+000
 7.9443334027e-001	 1.3309303768e+000	-1.9932790786e+000
 7.8082837866e-001	 1.3389574463e+000	-1.9877670531e+000
 7.6716040174e-001	 1.3468351487e+000	-1.9805294370e+000
 7.5343181935e-001	 1.3545628422e+000	-1.9715697088e+000
 7.3964504730e-001	 1.3621399355e+000	-1.9608917489e+000
 7.2580250600e-001	 1.3695658882e+000	-1.9484998555e+000
 7.1190661921e-001	 1.3768402106e+000	-1.9343987625e+000
 8.6185536157e-001	 1.3182679302e+000	-1.9933996918e+000
 8.4831141173e-001	 1.3270240196e+000	-1.9831524901e+000
 8.3469372236e-001	 1.3356314573e+000	-1.9715359350e+000
 8.2100470466e-001	 1.3440893850e+000	-1.9585928126e+000
 8.0724678124e-001	 1.3523969957e+000	-1.9443655346e+000
 7.9342238477e-001	 1.3605535341e+000	-1.9288961102e+000
 7.7953395660e-001	 1.3685582963e+000	-1.9122261231e+000
 7.6558394547e-001	 1.3764106300e+000	-1.8943967108e+000
 7.5157480613e-001	 1.3841099345e+000	-1.8754485485e+000
 7.3750899804e-001	 1.3916556606e+000	-1.8554218358e+000
 7.2338898403e-001	 1.3990473107e+000	-1.8343562875e+000
 8.7553560540e-001	 1.3391928179e+000	-1.9997389499e+000
 8.6177667223e-001	 1.3480878930e+000	-1.9793129430e+000
 8.4794282906e-001	 1.3568319566e+000	-1.9578779346e+000
 8.3403652537e-001	 1.3654241371e+000	-1.9355168458e+000
 8.2006022222e-001	 1.3738636147e+000	-1.9123114921e+000
 8.0601639088e-001	 1.3821496220e+000	-1.8883425221e+000
 7.9190751147e-001	 1.3902814439e+000	-1.8636893604e+000
 7.7773607159e-001	 1.3982584178e+000	-1.8384301565e+000
 7.6350456496e-001	 1.4060799334e+000	-1.8126417383e+000
 7.4921549007e-001	 1.4137454330e+000	-1.7863995709e+000
 7.3487134886e-001	 1.4212544109e+000	-1.7597777204e+000
 8.8921584923e-001	 1.3601177057e+000	-2.0164465834e+000
 8.7524193274e-001	 1.3691517663e+000	-1.9872452135e+000
 8.6119193577e-001	 1.3780324560e+000	-1.9573898562e+000
 8.4706834608e-001	 1.3867588893e+000	-1.9270029411e+000
 8.3287366319e-001	 1.3953302337e+000	-1.8962050638e+000
 8.1861039699e-001	 1.4037457098e+000	-1.8651148905e+000
 8.0428106634e-001	 1.4120045914e+000	-1.8338490691e+000
 7.8988819771e-001	 1.4201062055e+000	-1.8025221470e+000
 7.7543432378e-001	 1.4280499324e+000	-1.7712464956e+000
 7.6092198210e-001	 1.4358352054e+000	-1.7401322410e+000
 7.4635371369e-001	 1.4434615111e+000	-1.7092872019e+000
 9.0289609307e-001	 1.3810425935e+000	-2.0429552368e+000
 8.8870719324e-001	 1.3902156396e+000	-2.0063045489e+000
 8.7444104247e-001	 1.3992329553e+000	-1.9693502061e+000
 8.6010016679e-001	 1.4080936414e+000	-1.9322535541e+000
 8.4568710416e-001	 1.4167968527e+000	-1.8951733777e+000
 8.3120440310e-001	 1.4253417977e+000	-1.8582657725e+000
 8.1665462121e-001	 1.4337277390e+000	-1.8216840237e+000
 8.0204032383e-001	 1.4419539933e+000	-1.7855784942e+000
 7.8736408261e-001	 1.4500199313e+000	-1.7500965197e+000
 7.7262847414e-001	 1.4579249778e+000	-1.7153823128e+000
 7.5783607852e-001	 1.4656686112e+000	-1.6815768750e+000
 9.1657633690e-001	 1.4019674813e+000	-2.0787150377e+000
 9.0217245375e-001	 1.4112795129e+000	-2.0358683814e+000
 8.8769014918e-001	 1.4204334546e+000	-1.9930643471e+000
 8.7313198750e-001	 1.4294283936e+000	-1.9505026367e+000
 8.5850054514e-001	 1.4382634717e+000	-1.9083796653e+000
 8.4379840921e-001	 1.4469378855e+000	-1.8668883998e+000
 8.2902817608e-001	 1.4554508865e+000	-1.8262182071e+000
 8.1419244995e-001	 1.4638017811e+000	-1.7865547120e+000
 7.9929384144e-001	 1.4719899303e+000	-1.7480796644e+000
 7.8433496617e-001	 1.4800147502e+000	-1.7109708165e+000
 7.6931844334e-001	 1.4878757114e+000	-1.6754018099e+000
 9.3025658074e-001	 1.4228923691e+000	-2.1231923115e+000
 9.1563771425e-001	 1.4323433863e+000	-2.0753346961e+000
 9.0093925588e-001	 1.4416339539e+000	-2.0278625237e+000
 8.8616380821e-001	 1.4507631457e+000	-1.9810133221e+000
 8.7131398611e-001	 1.4597300906e+000	-1.9350206071e+000
 8.5639241532e-001	 1.4685339734e+000	-1.8901136882e+000
 8.4140173095e-001	 1.4771740341e+000	-1.8465174862e+000
 8.2634457607e-001	 1.4856495689e+000	-1.8044523621e+000
 8.1122360028e-001	 1.4939599293e+000	-1.7641339563e+000
 7.9604145821e-001	 1.5021045226e+000	-1.7257730401e+000
 7.8080080817e-001	 1.5100828116e+000	-1.6895753773e+000
 9.4393682457e-001	 1.4438172569e+000	-2.1758684077e+000
 9.2910297476e-001	 1.4534072596e+000	-2.1241205424e+000
 9.1418836259e-001	 1.4628344533e+000	-2.0730980589e+000
 8.9919562892e-001	 1.4720978979e+000	-2.0230758097e+000
 8.8412742709e-001	 1.4811967096e+000	-1.9743239088e+000
 8.6898642143e-001	 1.4901300612e+000	-1.9271075067e+000
 8.5377528582e-001	 1.4988971817e+000	-1.8816865771e+000
 8.3849670220e-001	 1.5074973567e+000	-1.8383157171e+000
 8.2315335911e-001	 1.5159299282e+000	-1.7972439593e+000
 8.0774795024e-001	 1.5241942950e+000	-1.7587145973e+000
 7.9228317300e-001	 1.5322899118e+000	-1.7229650236e+000
 9.5761706841e-001	 1.4647421446e+000	-2.2362386264e+000
 9.4256823526e-001	 1.4744711329e+000	-2.1816606720e+000
 9.2743746930e-001	 1.4840349526e+000	-2.1281457064e+000
 9.1222744964e-001	 1.4934326500e+000	-2.0760054318e+000
 8.9694086807e-001	 1.5026633286e+000	-2.0255460850e+000
 8.8158042754e-001	 1.5117261490e+000	-1.9770681811e+000
 8.6614884069e-001	 1.5206203292e+000	-1.9308662702e+000
 8.5064882832e-001	 1.5293451444e+000	-1.8872287098e+000
 8.3508311794e-001	 1.5378999272e+000	-1.8464374498e+000
 8.1945444228e-001	 1.5462840674e+000	-1.8087678327e+000
 8.0376553783e-001	 1.5544970119e+000	-1.7744884081e+000
 6.8894188956e-001	 1.3324260102e+000	-2.2167528844e+000
 6.7544498003e-001	 1.3393185129e+000	-2.1722511937e+000
 6.6190114160e-001	 1.3460634750e+000	-2.1044400998e+000
 6.4831272205e-001	 1.3526605688e+000	-2.0137185985e+000
 6.3468206740e-001	 1.3591095148e+000	-1.9005011560e+000
 6.2101152078e-001	 1.3654100816e+000	-1.8222085433e+000
 6.0730342120e-001	 1.3715620856e+000	-1.8547199510e+000
 5.9356010237e-001	 1.3775653904e+000	-1.8571489147e+000
 5.7978389160e-001	 1.3834199070e+000	-1.8306668919e+000
 5.6597710858e-001	 1.3891255928e+000	-1.7764281043e+000
 5.5214206433e-001	 1.3946824516e+000	-1.6955679029e+000
 7.0042425438e-001	 1.3546331104e+000	-2.0613545805e+000
 6.8670239636e-001	 1.3616404881e+000	-2.0251963060e+000
 6.7293282730e-001	 1.3684978662e+000	-1.9672416055e+000
 6.5911793409e-001	 1.3752049116e+000	-1.8878841654e+000
 6.4526010186e-001	 1.3817613401e+000	-1.7875319714e+000
 6.3136171280e-001	 1.3881669163e+000	-1.6666067706e+000
 6.1742514488e-001	 1.3944214536e+000	-1.6320029191e+000
 6.0345277075e-001	 1.4005248136e+000	-1.6607908387e+000
 5.8944695646e-001	 1.4064769054e+000	-1.6626281759e+000
 5.7541006039e-001	 1.4122776860e+000	-1.6387061314e+000
 5.6134443207e-001	 1.4179271591e+000	-1.5901937526e+000
 7.1190661921e-001	 1.3768402106e+000	-1.9343987625e+000
 6.9795981269e-001	 1.3839624633e+000	-1.9061714725e+000
 6.8396451299e-001	 1.3909322575e+000	-1.8576239532e+000
 6.6992314612e-001	 1.3977492544e+000	-1.7891449396e+000
 6.5583813632e-001	 1.4044131653e+000	-1.7011363115e+000
 6.4171190481e-001	 1.4109237510e+000	-1.5940125740e+000
 6.2754686857e-001	 1.4172808217e+000	-1.4682003304e+000
 6.1334543912e-001	 1.4234842367e+000	-1.4858162377e+000
 5.9911002132e-001	 1.4295339039e+000	-1.5145150983e+000
 5.8484301220e-001	 1.4354297792e+000	-1.5194643798e+000
 5.7054679981e-001	 1.4411718666e+000	-1.5018694997e+000
 7.2338898403e-001	 1.3990473107e+000	-1.8343562875e+000
 7.0921722903e-001	 1.4062844385e+000	-1.8136569089e+000
 6.9499619869e-001	 1.4133666487e+000	-1.7740789058e+000
 6.8072835815e-001	 1.4202935972e+000	-1.7160064041e+000
 6.6641617078e-001	 1.4270649905e+000	-1.6398355341e+000
 6.5206209682e-001	 1.4336805857e+000	-1.5459739298e+000
 6.3766859226e-001	 1.4401401898e+000	-1.4348402213e+000
 6.2323810749e-001	 1.4464436599e+000	-1.3315024471e+000
 6.0877308618e-001	 1.4525909023e+000	-1.3855801946e+000
 5.9427596401e-001	 1.4585818724e+000	-1.4179338107e+000
 5.7974916755e-001	 1.4644165742e+000	-1.4298077826e+000
 7.3487134886e-001	 1.4212544109e+000	-1.7597777204e+000
 7.2047464536e-001	 1.4286064137e+000	-1.7462121353e+000
 7.0602788438e-001	 1.4358010400e+000	-1.7151770006e+000
 6.9153357019e-001	 1.4428379400e+000	-1.6670521591e+000
 6.7699420523e-001	 1.4497168158e+000	-1.6022283314e+000
 6.6241228884e-001	 1.4564374204e+000	-1.5211066327e+000
 6.4779031595e-001	 1.4629995579e+000	-1.4240980852e+000
 6.3313077587e-001	 1.4694030831e+000	-1.3116231259e+000
 6.1843615104e-001	 1.4756479008e+000	-1.2751489637e+000
 6.0370891582e-001	 1.4817339656e+000	-1.3334169532e+000
 5.8895153529e-001	 1.4876612817e+000	-1.3732912929e+000
 7.4635371369e-001	 1.4434615111e+000	-1.7092872019e+000
 7.3173206170e-001	 1.4509283889e+000	-1.7024698765e+000
 7.1705957007e-001	 1.4582354312e+000	-1.6795614898e+000
 7.0233878223e-001	 1.4653822828e+000	-1.6409379132e+000
 6.8757223969e-001	 1.4723686410e+000	-1.5869847807e+000
 6.7276248085e-001	 1.4791942551e+000	-1.5180970243e+000
 6.5791203963e-001	 1.4858589260e+000	-1.4346784054e+000
 6.4302344424e-001	 1.4923625062e+000	-1.3371410424e+000
 6.2809921590e-001	 1.4987048992e+000	-1.2259049372e+000
 6.1314186763e-001	 1.5048860588e+000	-1.2652823989e+000
 5.9815390303e-001	 1.5109059892e+000	-1.3316673860e+000
 7.5783607852e-001	 1.4656686112e+000	-1.6815768750e+000
 7.4298947803e-001	 1.4732503641e+000	-1.6811305158e+000
 7.2809125577e-001	 1.4806698225e+000	-1.6659428319e+000
 7.1314399426e-001	 1.4879266257e+000	-1.6363860202e+000
 6.9815027415e-001	 1.4950204663e+000	-1.5928409368e+000
 6.8311267287e-001	 1.5019510898e+000	-1.5356966494e+000
 6.6803376332e-001	 1.5087182941e+000	-1.4653499878e+000
 6.5291611261e-001	 1.5153219294e+000	-1.3822050921e+000
 6.3776228076e-001	 1.5217618977e+000	-1.2866729594e+000
 6.2257481944e-001	 1.5280381520e+000	-1.2129597972e+000
 6.0735627077e-001	 1.5341506967e+000	-1.3043431827e+000
 7.6931844334e-001	 1.4878757114e+000	-1.6754018099e+000
 7.5424689437e-001	 1.4955723393e+000	-1.6809570461e+000
 7.3912294146e-001	 1.5031042137e+000	-1.6730936761e+000
 7.2394920630e-001	 1.5104709685e+000	-1.6521805062e+000
 7.0872830861e-001	 1.5176722915e+000	-1.6185939081e+000
 6.9346286488e-001	 1.5247079245e+000	-1.5727173890e+000
 6.7815548701e-001	 1.5315776622e+000	-1.5149411605e+000
 6.6280878099e-001	 1.5382813526e+000	-1.4456617061e+000
 6.4742534562e-001	 1.5448188961e+000	-1.3652813500e+000
 6.3200777125e-001	 1.5511902453e+000	-1.2742078247e+000
 6.1655863851e-001	 1.5573954043e+000	-1.2907811091e+000
 7.8080080817e-001	 1.5100828116e+000	-1.6895753773e+000
 7.6550431070e-001	 1.5178943146e+000	-1.7007704660e+000
 7.5015462716e-001	 1.5255386050e+000	-1.6998442894e+000
 7.3475441833e-001	 1.5330153113e+000	-1.6871625341e+000
 7.1930634307e-001	 1.5403241168e+000	-1.6630973675e+000
 7.0381305690e-001	 1.5474647592e+000	-1.6280270249e+000
 6.8827721070e-001	 1.5544370303e+000	-1.5823353970e+000
 6.7270144936e-001	 1.5612407758e+000	-1.5264116168e+000
 6.5708841048e-001	 1.5678758946e+000	-1.4606496491e+000
 6.4144072306e-001	 1.5743423385e+000	-1.3854478797e+000
 6.2576100625e-001	 1.5806401118e+000	-1.3012087087e+000
 7.9228317300e-001	 1.5322899118e+000	-1.7229650236e+000
 7.7676172704e-001	 1.5402162898e+000	-1.7394455768e+000
 7.6118631286e-001	 1.5479729962e+000	-1.7450783818e+000
 7.4555963037e-001	 1.5555596541e+000	-1.7402262640e+000
 7.2988437753e-001	 1.5629759420e+000	-1.7252574534e+000
 7.1416324891e-001	 1.5702215939e+000	-1.7005451882e+000
 6.9839893439e-001	 1.5772963984e+000	-1.6664673205e+000
 6.8259411774e-001	 1.5842001989e+000	-1.6234059228e+000
 6.6675147534e-001	 1.5909328930e+000	-1.5717468976e+000
 6.5087367487e-001	 1.5974944317e+000	-1.5118795884e+000
 6.3496337399e-001	 1.6038848193e+000	-1.4441963954e+000
 8.0376553783e-001	 1.5544970119e+000	-1.7744884081e+000
 7.8801914338e-001	 1.5625382650e+000	-1.7959071392e+000
 7.7221799855e-001	 1.5704073875e+000	-1.8077292885e+000
 7.5636484241e-001	 1.5781039969e+000	-1.8103150673e+000
 7.4046241198e-001	 1.5856277673e+000	-1.8040290222e+000
 7.2451344093e-001	 1.5929784285e+000	-1.7892396559e+000
 7.0852065808e-001	 1.6001557665e+000	-1.7663190500e+000
 6.9248678611e-001	 1.6071596221e+000	-1.7356424913e+000
 6.7641454021e-001	 1.6139898915e+000	-1.6975881012e+000
 6.6030662669e-001	 1.6206465249e+000	-1.6525364687e+000
 6.4416574173e-001	 1.6271295268e+000	-1.6008702874e+000
 5.5214206433e-001	 1.3946824516e+000	-1.6955679029e+000
 5.3828106007e-001	 1.4000905329e+000	-1.6529428283e+000
 5.2439638615e-001	 1.4053499316e+000	-1.6065756187e+000
 5.1049032095e-001	 1.4104607872e+000	-1.5568944515e+000
 4.9656512994e-001	 1.4154232836e+000	-1.5042907740e+000
 4.8262306456e-001	 1.4202376483e+000	-1.4491189630e+000
 4.6866636131e-001	 1.4249041518e+000	-1.3916960756e+000
 4.5469724075e-001	 1.4294231071e+000	-1.3323016924e+000
 4.4071790656e-001	 1.4337948692e+000	-1.2711778502e+000
 4.2673054465e-001	 1.4380198337e+000	-1.2085290627e+000
 4.1273732227e-001	 1.4420984373e+000	-1.1445224276e+000
 5.6134443207e-001	 1.4179271591e+000	-1.5901937526e+000
 5.4725241107e-001	 1.4234253751e+000	-1.5538105373e+000
 5.3313632591e-001	 1.4287724304e+000	-1.5116923327e+000
 5.1899849297e-001	 1.4339684670e+000	-1.4643549961e+000
 5.0484121544e-001	 1.4390136716e+000	-1.4122770164e+000
 4.9066678230e-001	 1.4439082757e+000	-1.3558990661e+000
 4.7647746733e-001	 1.4486525543e+000	-1.2956236500e+000
 4.6227552809e-001	 1.4532468256e+000	-1.2318148502e+000
 4.4806320500e-001	 1.4576914503e+000	-1.1647981666e+000
 4.3384272040e-001	 1.4619868310e+000	-1.0948604489e+000
 4.1961627764e-001	 1.4661334112e+000	-1.0222499209e+000
 5.7054679981e-001	 1.4411718666e+000	-1.5018694997e+000
 5.5622376207e-001	 1.4467602173e+000	-1.4724452229e+000
 5.4187626568e-001	 1.4521949293e+000	-1.4354426295e+000
 5.2750666498e-001	 1.4574761468e+000	-1.3914658314e+000
 5.1311730094e-001	 1.4626040597e+000	-1.3410807806e+000
 4.9871050005e-001	 1.4675789032e+000	-1.2848147143e+000
 4.8428857336e-001	 1.4724009568e+000	-1.2231557020e+000
 4.6985381544e-001	 1.4770705440e+000	-1.1565522943e+000
 4.5540850345e-001	 1.4815880315e+000	-1.0854132708e+000
 4.4095489614e-001	 1.4859538282e+000	-1.0101074863e+000
 4.2649523301e-001	 1.4901683852e+000	-9.3096381336e-001
 5.7974916755e-001	 1.4644165742e+000	-1.4298077826e+000
 5.6519511307e-001	 1.4700950595e+000	-1.4079430587e+000
 5.5061620545e-001	 1.4756174281e+000	-1.3768033498e+000
 5.3601483700e-001	 1.4809838265e+000	-1.3370817004e+000
 5.2139338644e-001	 1.4861944478e+000	-1.2894320496e+000
 5.0675421779e-001	 1.4912495307e+000	-1.2344685702e+000
 4.9209967938e-001	 1.4961493594e+000	-1.1727651159e+000
 4.7743210279e-001	 1.5008942625e+000	-1.1048547731e+000
 4.6275380189e-001	 1.5054846126e+000	-1.0312295187e+000
 4.4806707189e-001	 1.5099208254e+000	-9.5233998154e-001
 4.3337418838e-001	 1.5142033591e+000	-8.6859530413e-001
 5.8895153529e-001	 1.4876612817e+000	-1.3732912929e+000
 5.7416646408e-001	 1.4934299018e+000	-1.3594749769e+000
 5.5935614522e-001	 1.4990399270e+000	-1.3348310684e+000
 5.4452300902e-001	 1.5044915063e+000	-1.3001423204e+000
 5.2966947193e-001	 1.5097848358e+000	-1.2561512817e+000
 5.1479793553e-001	 1.5149201581e+000	-1.2035595305e+000
 4.9991078540e-001	 1.5198977619e+000	-1.1430270204e+000
 4.8501039013e-001	 1.5247179809e+000	-1.0751715383e+000
 4.7009910033e-001	 1.5293811938e+000	-1.0005682723e+000
 4.5517924763e-001	 1.5338878227e+000	-9.1974948852e-001
 4.4025314375e-001	 1.5382383331e+000	-8.3320431592e-001
 5.9815390303e-001	 1.5109059892e+000	-1.3316673860e+000
 5.8313781508e-001	 1.5167647440e+000	-1.3262809182e+000
 5.6809608499e-001	 1.5224624259e+000	-1.3086559607e+000
 5.5303118103e-001	 1.5279991861e+000	-1.2796658465e+000
 5.3794555743e-001	 1.5333752239e+000	-1.2401424514e+000
 5.2284165328e-001	 1.5385907856e+000	-1.1908753225e+000
 5.0772189142e-001	 1.5436461644e+000	-1.1326109234e+000
 4.9258867748e-001	 1.5485416994e+000	-1.0660519985e+000
 4.7744439878e-001	 1.5532777749e+000	-9.9185705224e-001
 4.6229142338e-001	 1.5578548199e+000	-9.1063994356e-001
 4.4713209913e-001	 1.5622733070e+000	-8.2296959319e-001
 6.0735627077e-001	 1.5341506967e+000	-1.3043431827e+000
 5.9210916608e-001	 1.5400995862e+000	-1.3076646036e+000
 5.7683602476e-001	 1.5458849247e+000	-1.2974762268e+000
 5.6153935305e-001	 1.5515068659e+000	-1.2747429290e+000
 5.4622164294e-001	 1.5569656119e+000	-1.2403867219e+000
 5.3088537102e-001	 1.5622614131e+000	-1.1952857750e+000
 5.1553299745e-001	 1.5673945670e+000	-1.1402735621e+000
 5.0016696483e-001	 1.5723654179e+000	-1.0761381312e+000
 4.8478969722e-001	 1.5771743561e+000	-1.0036214964e+000
 4.6940359912e-001	 1.5818218171e+000	-9.2341915140e-001
 4.5401105450e-001	 1.5863082810e+000	-8.3617970058e-001
 6.1655863851e-001	 1.5573954043e+000	-1.2907811091e+000
 6.0108051709e-001	 1.5634344284e+000	-1.3029887746e+000
 5.8557596453e-001	 1.5693074236e+000	-1.3005530154e+000
 5.7004752507e-001	 1.5750145457e+000	-1.2845313039e+000
 5.5449772844e-001	 1.5805560000e+000	-1.2559366848e+000
 5.3892908877e-001	 1.5859320406e+000	-1.2157366915e+000
 5.2334410347e-001	 1.5911429695e+000	-1.1648523937e+000
 5.0774525217e-001	 1.5961891363e+000	-1.1041575749e+000
 4.9213499566e-001	 1.6010709372e+000	-1.0344780371e+000
 4.7651577487e-001	 1.6057888143e+000	-9.5659103385e-001
 4.6089000987e-001	 1.6103432550e+000	-8.7122482732e-001
 6.2576100625e-001	 1.5806401118e+000	-1.3012087087e+000
 6.1005186809e-001	 1.5867692706e+000	-1.3116708537e+000
 5.9431590430e-001	 1.5927299224e+000	-1.3172057948e+000
 5.7855569709e-001	 1.5985222255e+000	-1.3082508599e+000
 5.6277381394e-001	 1.6041463881e+000	-1.2859111084e+000
 5.4697280651e-001	 1.6096026680e+000	-1.2512442631e+000
 5.3115520949e-001	 1.6148913720e+000	-1.2052596597e+000
 5.1532353952e-001	 1.6200128548e+000	-1.1489173307e+000
 4.9948029411e-001	 1.6249675184e+000	-1.0831272254e+000
 4.8362795061e-001	 1.6297558116e+000	-1.0087485624e+000
 4.6776896524e-001	 1.6343782289e+000	-9.2658931482e-001
 6.3496337399e-001	 1.6038848193e+000	-1.4441963954e+000
 6.1902321909e-001	 1.6101041128e+000	-1.3331789816e+000
 6.0305584408e-001	 1.6161524213e+000	-1.3468081271e+000
 5.8706386911e-001	 1.6220299053e+000	-1.3451791344e+000
 5.7104989944e-001	 1.6277367761e+000	-1.3294901417e+000
 5.5501652426e-001	 1.6332732955e+000	-1.3008899688e+000
 5.3896631552e-001	 1.6386397745e+000	-1.2604769669e+000
 5.2290182687e-001	 1.6438365732e+000	-1.2092980111e+000
 5.0682559255e-001	 1.6488640995e+000	-1.1483476350e+000
 4.9074012636e-001	 1.6537228088e+000	-1.0785673053e+000
 4.7464792061e-001	 1.6584132029e+000	-1.0008448341e+000
 6.4416574173e-001	 1.6271295268e+000	-1.6008702874e+000
 6.2799457010e-001	 1.6334389551e+000	-1.4099260109e+000
 6.1179578385e-001	 1.6395749202e+000	-1.3887838043e+000
 5.9557204113e-001	 1.6455375851e+000	-1.3946471958e+000
 5.7932598494e-001	 1.6513271642e+000	-1.3859109308e+000
 5.6306024200e-001	 1.6569439230e+000	-1.3638159116e+000
 5.4677742155e-001	 1.6623881771e+000	-1.3295503327e+000
 5.3048011422e-001	 1.6676602917e+000	-1.2842485819e+000
 5.1417089100e-001	 1.6727606807e+000	-1.2289902901e+000
 4.9785230211e-001	 1.6776898060e+000	-1.1647995277e+000
 4.8152687598e-001	 1.6824481768e+000	-1.0926441480e+000
 4.1273732227e-001	 1.4420984373e+000	-1.1445224276e+000
 3.9874038711e-001	 1.4460311558e+000	-1.1671563013e+000
 3.8474186652e-001	 1.4498185045e+000	-1.1809373883e+000
 3.7074386670e-001	 1.4534610367e+000	-1.1861599663e+000
 3.5674847188e-001	 1.4569593432e+000	-1.1830848737e+000
 3.4275774362e-001	 1.4603140515e+000	-1.1719397237e+000
 3.2877372006e-001	 1.4635258252e+000	-1.1529191919e+000
 3.1479841525e-001	 1.4665953626e+000	-1.1261853754e+000
 3.0083381848e-001	 1.4695233968e+000	-1.0918682190e+000
 2.8688189364e-001	 1.4723106938e+000	-1.0500660084e+000
 2.7294457862e-001	 1.4749580526e+000	-1.0008459241e+000
 4.1961627764e-001	 1.4661334112e+000	-1.0222499209e+000
 4.0538606023e-001	 1.4701316751e+000	-1.0445232096e+000
 3.9115423097e-001	 1.4739821463e+000	-1.0582970895e+000
 3.7692293114e-001	 1.4776853873e+000	-1.0638522893e+000
 3.6269427974e-001	 1.4812419989e+000	-1.0614347445e+000
 3.4847037268e-001	 1.4846526191e+000	-1.0512558396e+000
 3.3425328206e-001	 1.4879179223e+000	-1.0334927259e+000
 3.2004505551e-001	 1.4910386187e+000	-1.0082887133e+000
 3.0584771546e-001	 1.4940154534e+000	-9.7575373356e-001
 2.9166325853e-001	 1.4968492054e+000	-9.3596487051e-001
 2.7749365493e-001	 1.4995406868e+000	-8.8896695540e-001
 4.2649523301e-001	 1.4901683852e+000	-9.3096381336e-001
 4.1203173334e-001	 1.4942321944e+000	-9.5052517042e-001
 3.9756659541e-001	 1.4981457880e+000	-9.6205036943e-001
 3.8310199559e-001	 1.5019097379e+000	-9.6580796051e-001
 3.6864008761e-001	 1.5055246547e+000	-9.6203020379e-001
 3.5418300174e-001	 1.5089911866e+000	-9.5091333951e-001
 3.3973284406e-001	 1.5123100193e+000	-9.3261793774e-001
 3.2529169576e-001	 1.5154818747e+000	-9.0726932491e-001
 3.1086161243e-001	 1.5185075100e+000	-8.7495808396e-001
 2.9644462343e-001	 1.5213877169e+000	-8.3574062493e-001
 2.8204273124e-001	 1.5241233210e+000	-7.8963982269e-001
 4.3337418838e-001	 1.5142033591e+000	-8.6859530413e-001
 4.1867740646e-001	 1.5183327136e+000	-8.8317049918e-001
 4.0397895985e-001	 1.5223094298e+000	-8.9028263614e-001
 3.8928106004e-001	 1.5261340886e+000	-8.9018944499e-001
 3.7458589548e-001	 1.5298073104e+000	-8.8311072438e-001
 3.5989563080e-001	 1.5333297541e+000	-8.6922864107e-001
 3.4521240607e-001	 1.5367021164e+000	-8.4868811252e-001
 3.3053833602e-001	 1.5399251308e+000	-8.2159726922e-001
 3.1587550941e-001	 1.5429995666e+000	-7.8802799377e-001
 3.0122598832e-001	 1.5459262285e+000	-7.4801653325e-001
 2.8659180755e-001	 1.5487059552e+000	-7.0156418139e-001
 4.4025314375e-001	 1.5382383331e+000	-8.3320431592e-001
 4.2532307958e-001	 1.5424332329e+000	-8.4058983541e-001
 4.1039132430e-001	 1.5464730715e+000	-8.4119533238e-001
 3.9546012448e-001	 1.5503584392e+000	-8.3526906453e-001
 3.8053170334e-001	 1.5540899661e+000	-8.2301957165e-001
 3.6560825986e-001	 1.5576683217e+000	-8.0461600552e-001
 3.5069196807e-001	 1.5610942135e+000	-7.8018854629e-001
 3.3578497627e-001	 1.5643683868e+000	-7.4982890218e-001
 3.2088940638e-001	 1.5674916232e+000	-7.1359088900e-001
 3.0600735321e-001	 1.5704647400e+000	-6.7149108603e-001
 2.9114088386e-001	 1.5732885894e+000	-6.2350956459e-001
 4.4713209913e-001	 1.5622733070e+000	-8.2296959319e-001
 4.3196875270e-001	 1.5665337522e+000	-8.2102673333e-001
 4.1680368874e-001	 1.5706367133e+000	-8.1309700987e-001
 4.0163918893e-001	 1.5745827898e+000	-7.9942054731e-001
 3.8647751121e-001	 1.5783726218e+000	-7.8019581956e-001
 3.7132088892e-001	 1.5820068892e+000	-7.5558001107e-001
 3.5617153007e-001	 1.5854863106e+000	-7.2568946838e-001
 3.4103161652e-001	 1.5888116429e+000	-6.9060023844e-001
 3.2590330335e-001	 1.5919836798e+000	-6.5034869023e-001
 3.1078871811e-001	 1.5950032516e+000	-6.0493221596e-001
 2.9568996017e-001	 1.5978712237e+000	-5.5431000796e-001
 4.5401105450e-001	 1.5863082810e+000	-8.3617970058e-001
 4.3861442582e-001	 1.5906342714e+000	-8.2282910766e-001
 4.2321605318e-001	 1.5948003550e+000	-8.0439521488e-001
 4.0781825337e-001	 1.5988071404e+000	-7.8111134556e-001
 3.9242331907e-001	 1.6026552775e+000	-7.5316709233e-001
 3.7703351798e-001	 1.6063454567e+000	-7.2070871077e-001
 3.6165109207e-001	 1.6098784077e+000	-6.8383960709e-001
 3.4627825678e-001	 1.6132548989e+000	-6.4262091663e-001
 3.3091720033e-001	 1.6164757364e+000	-5.9707216914e-001
 3.1557008300e-001	 1.6195417632e+000	-5.4717203712e-001
 3.0023903648e-001	 1.6224538579e+000	-4.9285916310e-001
 4.6089000987e-001	 1.6103432550e+000	-8.7122482732e-001
 4.4526009894e-001	 1.6147347907e+000	-8.4444144552e-001
 4.2962841762e-001	 1.6189639967e+000	-8.1358910070e-001
 4.1399731782e-001	 1.6230314910e+000	-7.7889564121e-001
 3.9836912694e-001	 1.6269379333e+000	-7.4054295630e-001
 3.8274614704e-001	 1.6306840242e+000	-6.9866740304e-001
 3.6713065407e-001	 1.6342705048e+000	-6.5336033155e-001
 3.5152489703e-001	 1.6376981549e+000	-6.0466870501e-001
 3.3593109730e-001	 1.6409677930e+000	-5.5259581031e-001
 3.2035144789e-001	 1.6440802747e+000	-4.9710205532e-001
 3.0478811279e-001	 1.6470364921e+000	-4.3810584866e-001
 4.6776896524e-001	 1.6343782289e+000	-9.2658931482e-001
 4.5190577206e-001	 1.6388353100e+000	-8.8439770552e-001
 4.3604078206e-001	 1.6431276385e+000	-8.3926269173e-001
 4.2017638226e-001	 1.6472558416e+000	-7.9140796875e-001
 4.0431493480e-001	 1.6512205890e+000	-7.4100889472e-001
 3.8845877610e-001	 1.6550225918e+000	-6.8819295184e-001
 3.7261021607e-001	 1.6586626019e+000	-6.3304031045e-001
 3.5677153728e-001	 1.6621414110e+000	-5.7558449194e-001
 3.4094499428e-001	 1.6654598497e+000	-5.1581312646e-001
 3.2513281279e-001	 1.6686187863e+000	-4.5366880107e-001
 3.0933718910e-001	 1.6716191263e+000	-3.8904999389e-001
 4.7464792061e-001	 1.6584132029e+000	-1.0008448341e+000
 4.5855144518e-001	 1.6629358292e+000	-9.4131483434e-001
 4.4245314651e-001	 1.6672912802e+000	-8.8007873347e-001
 4.2635544671e-001	 1.6714801922e+000	-8.1735739255e-001
 4.1026074266e-001	 1.6755032447e+000	-7.5332080652e-001
 3.9417140516e-001	 1.6793611593e+000	-6.8808860079e-001
 3.7808977807e-001	 1.6830546990e+000	-6.2173063529e-001
 3.6201817754e-001	 1.6865846670e+000	-5.5426771196e-001
 3.4595889125e-001	 1.6899519063e+000	-4.8567238108e-001
 3.2991417768e-001	 1.6931572979e+000	-4.1586984223e-001
 3.1388626541e-001	 1.6962017605e+000	-3.4473893503e-001
 4.8152687598e-001	 1.6824481768e+000	-1.0926441480e+000
 4.6519711830e-001	 1.6870363485e+000	-1.0138868390e+000
 4.4886551095e-001	 1.6914549220e+000	-9.3477306952e-001
 4.3253451115e-001	 1.6957045429e+000	-8.5552218329e-001
 4.1620655053e-001	 1.6997859004e+000	-7.7629997667e-001
 3.9988403422e-001	 1.7036997268e+000	-6.9721923173e-001
 3.8356934007e-001	 1.7074467960e+000	-6.1834036160e-001
 3.6726481779e-001	 1.7110279231e+000	-5.3967216391e-001
 3.5097278822e-001	 1.7144439629e+000	-4.6117267761e-001
 3.3469554257e-001	 1.7176958094e+000	-3.8275013858e-001
 3.1843534172e-001	 1.7207843947e+000	-3.0426402903e-001
 2.7294457862e-001	 1.4749580526e+000	-1.0008459241e+000
 2.5902378476e-001	 1.4774663038e+000	-1.0416398932e+000
 2.4512139625e-001	 1.4798363089e+000	-1.0754131280e+000
 2.3123926969e-001	 1.4820689593e+000	-1.1021334969e+000
 2.1737923353e-001	 1.4841651757e+000	-1.1217398655e+000
 2.0354308766e-001	 1.4861259070e+000	-1.1341429373e+000
 1.8973260296e-001	 1.4879521294e+000	-1.1392261390e+000
 1.7594952092e-001	 1.4896448456e+000	-1.1368465447e+000
 1.6219555323e-001	 1.4912050840e+000	-1.1268358369e+000
 1.4847238149e-001	 1.4926338975e+000	-1.1090013013e+000
 1.3478165685e-001	 1.4939323629e+000	-1.0831268508e+000
 2.7749365493e-001	 1.4995406868e+000	-8.8896695540e-001
 2.6334084783e-001	 1.5020907422e+000	-9.3133982792e-001
 2.4920675285e-001	 1.5045002474e+000	-9.6585309806e-001
 2.3509325751e-001	 1.5067701086e+000	-9.9243152494e-001
 2.2100222075e-001	 1.5089012620e+000	-1.0109710865e+000
 2.0693547245e-001	 1.5108946721e+000	-1.0213398626e+000
 1.9289481301e-001	 1.5127513315e+000	-1.0233789624e+000
 1.7888201293e-001	 1.5144722597e+000	-1.0169034908e+000
 1.6489881245e-001	 1.5160585020e+000	-1.0017035519e+000
 1.5094692118e-001	 1.5175111291e+000	-9.7754528564e-001
 1.3702801779e-001	 1.5188312356e+000	-9.4417193372e-001
 2.8204273124e-001	 1.5241233210e+000	-7.8963982269e-001
 2.6765791091e-001	 1.5267151806e+000	-8.3071617235e-001
 2.5329210946e-001	 1.5291641858e+000	-8.6324831342e-001
 2.3894724534e-001	 1.5314712579e+000	-8.8711823386e-001
 2.2462520797e-001	 1.5336373482e+000	-9.0217921040e-001
 2.1032785724e-001	 1.5356634372e+000	-9.0825673705e-001
 1.9605702305e-001	 1.5375505337e+000	-9.0514949721e-001
 1.8181450494e-001	 1.5392996738e+000	-8.9263037618e-001
 1.6760207167e-001	 1.5409119201e+000	-8.7044751007e-001
 1.5342146087e-001	 1.5423883607e+000	-8.3832536769e-001
 1.3927437874e-001	 1.5437301083e+000	-7.9596586188e-001
 2.8659180755e-001	 1.5487059552e+000	-7.0156418139e-001
 2.7197497399e-001	 1.5513396190e+000	-7.3862421866e-001
 2.5737746606e-001	 1.5538281243e+000	-7.6660776035e-001
 2.4280123317e-001	 1.5561724073e+000	-7.8535432558e-001
 2.2824819520e-001	 1.5583734345e+000	-7.9467464140e-001
 2.1372024203e-001	 1.5604322023e+000	-7.9435161913e-001
 1.9921923310e-001	 1.5623497358e+000	-7.8414137502e-001
 1.8474699695e-001	 1.5641270879e+000	-7.6377429134e-001
 1.7030533088e-001	 1.5657653382e+000	-7.3295611428e-001
 1.5589600055e-001	 1.5672655924e+000	-6.9136908479e-001
 1.4152073968e-001	 1.5686289811e+000	-6.3867309873e-001
 2.9114088386e-001	 1.5732885894e+000	-6.2350956459e-001
 2.7629203707e-001	 1.5759640574e+000	-6.5397894608e-001
 2.6146282266e-001	 1.5784920628e+000	-6.7499015590e-001
 2.4665522099e-001	 1.5808735566e+000	-6.8634051307e-001
 2.3187118242e-001	 1.5831095208e+000	-6.8779831315e-001
 2.1711262682e-001	 1.5852009674e+000	-6.7910385553e-001
 2.0238144315e-001	 1.5871489380e+000	-6.5997051552e-001
 1.8767948897e-001	 1.5889545020e+000	-6.3008585748e-001
 1.7300859010e-001	 1.5906187562e+000	-5.8911278487e-001
 1.5837054024e-001	 1.5921428240e+000	-5.3669072364e-001
 1.4376710062e-001	 1.5935278538e+000	-4.7243683478e-001
 2.9568996017e-001	 1.5978712237e+000	-5.5431000796e-001
 2.8060910014e-001	 1.6005884958e+000	-5.7575042954e-001
 2.6554817926e-001	 1.6031560013e+000	-5.8750012248e-001
 2.5050920882e-001	 1.6055747059e+000	-5.8931444254e-001
 2.3549416964e-001	 1.6078456070e+000	-5.8091934053e-001
 2.2050501162e-001	 1.6099697326e+000	-5.6201244347e-001
 2.0554365319e-001	 1.6119481402e+000	-5.3226418129e-001
 1.9061198098e-001	 1.6137819161e+000	-4.9131895513e-001
 1.7571184932e-001	 1.6154721743e+000	-4.3879634312e-001
 1.6084507993e-001	 1.6170200556e+000	-3.7429233962e-001
 1.4601346157e-001	 1.6184267265e+000	-2.9738062402e-001
 3.0023903648e-001	 1.6224538579e+000	-4.9285916310e-001
 2.8492616322e-001	 1.6252129342e+000	-5.0295966575e-001
 2.6963353587e-001	 1.6278199398e+000	-5.0328471015e-001
 2.5436319665e-001	 1.6302758552e+000	-4.9354789550e-001
 2.3911715687e-001	 1.6325816933e+000	-4.7343288465e-001
 2.2389739641e-001	 1.6347384977e+000	-4.4259454210e-001
 2.0870586324e-001	 1.6367473423e+000	-4.0066011845e-001
 1.9354447299e-001	 1.6386093302e+000	-3.4723047720e-001
 1.7841510854e-001	 1.6403255924e+000	-2.8188135961e-001
 1.6331961962e-001	 1.6418972872e+000	-2.0416468343e-001
 1.4825982252e-001	 1.6433255992e+000	-1.1360987146e-001
 3.0478811279e-001	 1.6470364921e+000	-4.3810584866e-001
 2.8924322630e-001	 1.6498373726e+000	-4.3467477305e-001
 2.7371889247e-001	 1.6524838782e+000	-4.2153023038e-001
 2.5821718447e-001	 1.6549770045e+000	-3.9834424135e-001
 2.4274014409e-001	 1.6573177795e+000	-3.6475820912e-001
 2.2728978120e-001	 1.6595072628e+000	-3.2038411708e-001
 2.1186807329e-001	 1.6615465445e+000	-2.6480577432e-001
 1.9647696501e-001	 1.6634367443e+000	-1.9758010414e-001
 1.8111836776e-001	 1.6651790104e+000	-1.1823847147e-001
 1.6579415931e-001	 1.6667745188e+000	-2.6288044691e-002
 1.5050618346e-001	 1.6682244719e+000	 7.8786812384e-002
 3.0933718910e-001	 1.6716191263e+000	-3.8904999389e-001
 2.9356028938e-001	 1.6744618110e+000	-3.7000752662e-001
 2.7780424907e-001	 1.6771478167e+000	-3.4145936917e-001
 2.6207117230e-001	 1.6796781539e+000	-3.0303611473e-001
 2.4636313132e-001	 1.6820538658e+000	-2.5433690777e-001
 2.3068216600e-001	 1.6842760279e+000	-1.9493070486e-001
 2.1503028334e-001	 1.6863457466e+000	-1.2435758413e-001
 1.9940945702e-001	 1.6882641584e+000	-4.2130099001e-002
 1.8382162698e-001	 1.6900324285e+000	 5.2265328413e-002
 1.6826869900e-001	 1.6916517505e+000	 1.5936697884e-001
 1.5275254441e-001	 1.6931233446e+000	 2.7973637668e-001
 3.1388626541e-001	 1.6962017605e+000	-3.4473893503e-001
 2.9787735246e-001	 1.6990862494e+000	-3.0811019491e-001
 2.8188960568e-001	 1.7018117552e+000	-2.6232855127e-001
 2.6592516013e-001	 1.7043793032e+000	-2.0698329483e-001
 2.4998611855e-001	 1.7067899521e+000	-1.4163128656e-001
 2.3407455079e-001	 1.7090447930e+000	-6.5798284290e-002
 2.1819249339e-001	 1.7111449488e+000	 2.1019680342e-002
 2.0234194904e-001	 1.7130915724e+000	 1.1935487972e-001
 1.8652488620e-001	 1.7148858466e+000	 2.2976642732e-001
 1.7074323870e-001	 1.7165289821e+000	 3.5283877895e-001
 1.5499890536e-001	 1.7180222173e+000	 4.8918020271e-001
 3.1843534172e-001	 1.7207843947e+000	-3.0426402903e-001
 3.0219441554e-001	 1.7237106878e+000	-2.4817264730e-001
 2.8597496228e-001	 1.7264756937e+000	-1.8342553019e-001
 2.6977914796e-001	 1.7290804525e+000	-1.0957076656e-001
 2.5360910577e-001	 1.7315260383e+000	-2.6122884107e-002
 2.3746693559e-001	 1.7338135582e+000	 6.7435754906e-002
 2.2135470344e-001	 1.7359441509e+000	 1.7165350617e-001
 2.0527444106e-001	 1.7379189865e+000	 2.8710794916e-001
 1.8922814542e-001	 1.7397392646e+000	 4.1440435125e-001
 1.7321777839e-001	 1.7414062137e+000	 5.5417409491e-001
 1.5724526631e-001	 1.7429210901e+000	 7.0707307304e-001
 1.3478165685e-001	 1.4939323629e+000	-1.0831268508e+000
 1.2112499974e-001	 1.4951015800e+000	-1.1689200937e+000
 1.0750399961e-001	 1.4961426704e+000	-1.2473871313e+000
 9.3920214705e-002	 1.4970567769e+000	-1.3184233516e+000
 8.0375171839e-002	 1.4978450627e+000	-1.3818999350e+000
 6.6870366229e-002	 1.4985087101e+000	-1.4376649335e+000
 5.3407261333e-002	 1.4990489200e+000	-1.4855443677e+000
 3.9987288723e-002	 1.4994669109e+000	-1.5253433396e+000
 2.6611847981e-002	 1.4997639179e+000	-1.5568471555e+000
 1.3282306613e-002	 1.4999411923e+000	-1.5798224585e+000
 0.0000000000e+000	 1.5000000000e+000	-1.5940183670e+000
 1.3702801779e-001	 1.5188312356e+000	-9.4417193372e-001
 1.2314374973e-001	 1.5200199396e+000	-1.0337135285e+000
 1.0929573293e-001	 1.5210783815e+000	-1.1150918744e+000
 9.5485551614e-002	 1.5220077232e+000	-1.1881098180e+000
 8.1714758035e-002	 1.5228091470e+000	-1.2525473388e+000
 6.7984872331e-002	 1.5234838552e+000	-1.3081627008e+000
 5.4297382354e-002	 1.5240330686e+000	-1.3546936190e+000
 4.0653743534e-002	 1.5244580260e+000	-1.3918584381e+000
 2.7055378780e-002	 1.5247599832e+000	-1.4193573207e+000
 1.3503678390e-002	 1.5249402122e+000	-1.4368734408e+000
 0.0000000000e+000	 1.5250000000e+000	-1.4440741804e+000
 1.3927437874e-001	 1.5437301083e+000	-7.9596586188e-001
 1.2516249972e-001	 1.5449382993e+000	-8.8463410934e-001
 1.1108746626e-001	 1.5460140927e+000	-9.6444895608e-001
 9.7050888523e-002	 1.5469586695e+000	-1.0351209967e+000
 8.3054344230e-002	 1.5477732314e+000	-1.0963391634e+000
 6.9099378434e-002	 1.5484590004e+000	-1.1477719529e+000
 5.5187503375e-002	 1.5490172173e+000	-1.1890686660e+000
 4.1320198346e-002	 1.5494491412e+000	-1.2198606569e+000
 2.7498909579e-002	 1.5497560485e+000	-1.2397625883e+000
 1.3725050166e-002	 1.5499392320e+000	-1.2483736907e+000
 0.0000000000e+000	 1.5500000000e+000	-1.2452790210e+000
 1.4152073968e-001	 1.5686289811e+000	-6.3867309873e-001
 1.2718124971e-001	 1.5698566590e+000	-7.2213749019e-001
 1.1287919958e-001	 1.5709498039e+000	-7.9620315874e-001
 9.8616225433e-002	 1.5719096157e+000	-8.6048864529e-001
 8.4393930425e-002	 1.5727373158e+000	-9.1459189899e-001
 7.0213884536e-002	 1.5734341456e+000	-9.5809158277e-001
 5.6077624396e-002	 1.5740013660e+000	-9.9054838938e-001
 4.1986653157e-002	 1.5744402564e+000	-1.0115063646e+000
 2.7942440378e-002	 1.5747521138e+000	-1.0204942339e+000
 1.3946421943e-002	 1.5749382519e+000	-1.0170267305e+000
 0.0000000000e+000	 1.5750000000e+000	-1.0006059197e+000
 1.4376710062e-001	 1.5935278538e+000	-4.7243683478e-001
 1.2919999971e-001	 1.5947750186e+000	-5.4664049496e-001
 1.1467093291e-001	 1.5958855150e+000	-6.1104311191e-001
 1.0018156234e-001	 1.5968605620e+000	-6.6517128454e-001
 8.5733516621e-002	 1.5977014002e+000	-7.0853195800e-001
 7.1328390638e-002	 1.5984092907e+000	-7.4061381140e-001
 5.6967745417e-002	 1.5989855146e+000	-7.6088865379e-001
 4.2653107968e-002	 1.5994313716e+000	-7.6881282491e-001
 2.8385971177e-002	 1.5997481791e+000	-7.6382859713e-001
 1.4167793719e-002	 1.5999372718e+000	-7.4536557552e-001
 0.0000000000e+000	 1.6000000000e+000	-7.1284209266e-001
 1.4601346157e-001	 1.6184267265e+000	-2.9738062402e-001
 1.3121874970e-001	 1.6196933783e+000	-3.5852410446e-001
 1.1646266623e-001	 1.6208212262e+000	-4.0960561174e-001
 1.0174689925e-001	 1.6218115083e+000	-4.5005983190e-001
 8.7073102817e-002	 1.6226654846e+000	-4.7930260392e-001
 7.2442896741e-002	 1.6233844359e+000	-4.9673239323e-001
 5.7857866438e-002	 1.6239696633e+000	-5.0173177121e-001
 4.3319562779e-002	 1.6244224868e+000	-4.9366889709e-001
 2.8829501976e-002	 1.6247442444e+000	-4.7189899883e-001
 1.4389165496e-002	 1.6249362916e+000	-4.3576584937e-001
 0.0000000000e+000	 1.6250000000e+000	-3.8460323522e-001
 1.4825982252e-001	 1.6433255992e+000	-1.1360987146e-001
 1.3323749970e-001	 1.6446117380e+000	-1.5813617168e-001
 1.1825439956e-001	 1.6457569374e+000	-1.9247954777e-001
 1.0331223616e-001	 1.6467624546e+000	-2.1598272306e-001
 8.8412689013e-002	 1.6476295689e+000	-2.2797025057e-001
 7.3557402843e-002	 1.6483595811e+000	-2.2775007575e-001
 5.8747987459e-002	 1.6489538120e+000	-2.1461510319e-001
 4.3986017590e-002	 1.6494136019e+000	-1.8784476342e-001
 2.9273032775e-002	 1.6497403097e+000	-1.4670657640e-001
 1.4610537273e-002	 1.6499353115e+000	-9.0457707902e-002
 0.0000000000e+000	 1.6500000000e+000	-1.8346515680e-002
 1.5050618346e-001	 1.6682244719e+000	 7.8786812384e-002
 1.3525624969e-001	 1.6695300976e+000	 5.4206105871e-002
 1.2004613288e-001	 1.6706926486e+000	 3.9790521940e-002
 1.0487757307e-001	 1.6717134009e+000	 3.6289425219e-002
 8.9752275209e-002	 1.6725936533e+000	 4.4469802870e-002
 7.4671908946e-002	 1.6733347262e+000	 6.5114608972e-002
 5.9638108481e-002	 1.6739379606e+000	 9.9021106992e-002
 4.4652472402e-002	 1.6744047171e+000	 1.4699921422e-001
 2.9716563574e-002	 1.6747363750e+000	 2.0986985196e-001
 1.4831909049e-002	 1.6749343314e+000	 2.8846330505e-001
 0.0000000000e+000	 1.6750000000e+000	 3.8361759426e-001
 1.5275254441e-001	 1.6931233446e+000	 2.7973637668e-001
 1.3727499969e-001	 1.6944484573e+000	 2.7821393217e-001
 1.2183786621e-001	 1.6956283597e+000	 2.8670111116e-001
 1.0644290998e-001	 1.6966643472e+000	 3.0603956374e-001
 9.1091861406e-002	 1.6975577377e+000	 3.3708814282e-001
 7.5786415049e-002	 1.6983098714e+000	 3.8072115196e-001
 6.0528229502e-002	 1.6989221093e+000	 4.3782659327e-001
 4.5318927213e-002	 1.6993958323e+000	 5.0930441935e-001
 3.0160094373e-002	 1.6997324403e+000	 5.9606479318e-001
 1.5053280826e-002	 1.6999333513e+000	 6.9902635976e-001
 0.0000000000e+000	 1.7000000000e+000	 8.1911453302e-001
 1.5499890536e-001	 1.7180222173e+000	 4.8918020271e-001
 1.3929374968e-001	 1.7193668170e+000	 5.1362485456e-001
 1.2362959954e-001	 1.7205640709e+000	 5.4778682926e-001
 1.0800824690e-001	 1.7216152934e+000	 5.9260032917e-001
 9.2431447602e-002	 1.7225218221e+000	 6.4901646702e-001
 7.6900921152e-002	 1.7232850166e+000	 7.1800141348e-001
 6.1418350523e-002	 1.7239062580e+000	 8.0053454672e-001
 4.5985382024e-002	 1.7243869475e+000	 8.9760660799e-001
 3.0603625172e-002	 1.7247285056e+000	 1.0102178673e+000
 1.5274652602e-002	 1.7249323711e+000	 1.1393763033e+000
 0.0000000000e+000	 1.7250000000e+000	 1.2860958005e+000
 1.5724526631e-001	 1.7429210901e+000	 7.0707307304e-001
 1.4131249968e-001	 1.7442851766e+000	 7.6020088210e-001
 1.2542133286e-001	 1.7454997821e+000	 8.2261766009e-001
 1.0957358381e-001	 1.7465662397e+000	 8.9535049503e-001
 9.3771033799e-002	 1.7474859064e+000	 9.7944321938e-001
 7.8015427255e-002	 1.7482601617e+000	 1.0759544538e+000
 6.2308471545e-002	 1.7488904066e+000	 1.1859556543e+000
 4.6651836836e-002	 1.7493780627e+000	 1.3105291678e+000
 3.1047155971e-002	 1.7497245709e+000	 1.4507662996e+000
 1.5496024379e-002	 1.7499313910e+000	 1.6077653971e+000
 0.0000000000e+000	 1.7500000000e+000	 1.7826299539e+000
 1.7500000000e+000	 0.0000000000e+000	 2.9328061859e+000
 1.7499313910e+000	 1.5496024379e-002	 2.9821343182e+000
 1.7497245709e+000	 3.1047155971e-002	 3.0219982145e+000
 1.7493780627e+000	 4.6651836836e-002	 3.0525158074e+000
 1.7488904066e+000	 6.2308471545e-002	 3.0737968951e+000
 1.7482601617e+000	 7.8015427255e-002	 3.0859424435e+000
 1.7474859064e+000	 9.3771033799e-002	 3.0890438862e+000
 1.7465662397e+000	 1.0957358381e-001	 3.0831824249e+000
 1.7454997821e+000	 1.2542133286e-001	 3.0684283319e+000
 1.7442851766e+000	 1.4131249968e-001	 3.0448402560e+000
 1.7429210901e+000	 1.5724526631e-001	 3.0124645339e+000
 1.7750000000e+000	 0.0000000000e+000	 3.0521769328e+000
 1.7749304109e+000	 1.5717396155e-002	 3.0902246661e+000
 1.7747206362e+000	 3.1490686771e-002	 3.1185639618e+000
 1.7743691778e+000	 4.7318291647e-002	 3.1373256573e+000
 1.7738745553e+000	 6.3198592567e-002	 3.1466322770e+000
 1.7732353069e+000	 7.9129933358e-002	 3.1465973038e+000
 1.7724499908e+000	 9.5110619996e-002	 3.1373244474e+000
 1.7715171860e+000	 1.1113892072e-001	 3.1189069142e+000
 1.7704354933e+000	 1.2721306619e-001	 3.0914266776e+000
 1.7692035363e+000	 1.4333124967e-001	 3.0549537525e+000
 1.7678199628e+000	 1.5949162725e-001	 3.0095454753e+000
 1.8000000000e+000	 0.0000000000e+000	 3.1868075950e+000
 1.7999294307e+000	 1.5938767932e-002	 3.2127161217e+000
 1.7997167015e+000	 3.1934217570e-002	 3.2287135957e+000
 1.7993602930e+000	 4.7984746459e-002	 3.2349447943e+000
 1.7988587040e+000	 6.4088713588e-002	 3.2315459772e+000
 1.7982104521e+000	 8.0244439462e-002	 3.2186441253e+000
 1.7974140752e+000	 9.6450206192e-002	 3.1963561763e+000
 1.7964681323e+000	 1.1270425763e-001	 3.1647882606e+000
 1.7953712044e+000	 1.2900479952e-001	 3.1240349389e+000
 1.7941218960e+000	 1.4534999967e-001	 3.0741784431e+000
 1.7927188355e+000	 1.6173798820e-001	 3.0152879228e+000
 1.8250000000e+000	 0.0000000000e+000	 3.3366733128e+000
 1.8249284506e+000	 1.6160139709e-002	 3.3495654654e+000
 1.8247127668e+000	 3.2377748369e-002	 3.3523854086e+000
 1.8243514082e+000	 4.8651201270e-002	 3.3452929037e+000
 1.8238428526e+000	 6.4978834610e-002	 3.3284389642e+000
 1.8231855972e+000	 8.1358945565e-002	 3.3019650593e+000
 1.8223781596e+000	 9.7789792389e-002	 3.2660023153e+000
 1.8214190786e+000	 1.1426959454e-001	 3.2206707158e+000
 1.8203069156e+000	 1.3079653284e-001	 3.1660783038e+000
 1.8190402556e+000	 1.4736874966e-001	 3.1023203878e+000
 1.8176177082e+000	 1.6398434915e-001	 3.0294787522e+000
 1.8500000000e+000	 0.0000000000e+000	 3.5017505697e+000
 1.8499274705e+000	 1.6381511485e-002	 3.5007308584e+000
 1.8497088321e+000	 3.2821279168e-002	 3.4895191475e+000
 1.8493425234e+000	 4.9317656081e-002	 3.4682912368e+000
 1.8488270013e+000	 6.5868955631e-002	 3.4372139217e+000
 1.8481607424e+000	 8.2473451668e-002	 3.3964441601e+000
 1.8473422440e+000	 9.9129378586e-002	 3.3461282366e+000
 1.8463700248e+000	 1.1583493145e-001	 3.2864009262e+000
 1.8452426268e+000	 1.3258826617e-001	 3.2173846590e+000
 1.8439586153e+000	 1.4938749966e-001	 3.1391886884e+000
 1.8425165809e+000	 1.6623071010e-001	 3.0519082649e+000
 1.8750000000e+000	 0.0000000000e+000	 3.6820171039e+000
 1.8749264904e+000	 1.6602883262e-002	 3.6661717503e+000
 1.8747048974e+000	 3.3264809967e-002	 3.6400559171e+000
 1.8743336386e+000	 4.9984110893e-002	 3.6038625068e+000
 1.8738111500e+000	 6.6759076653e-002	 3.5577751350e+000
 1.8731358876e+000	 8.3587957771e-002	 3.5019672580e+000
 1.8723063283e+000	 1.0046896478e-001	 3.4366012992e+000
 1.8713209711e+000	 1.1740026836e-001	 3.3618277728e+000
 1.8701783379e+000	 1.3437999950e-001	 3.2777844097e+000
 1.8688769750e+000	 1.5140624966e-001	 3.1845952864e+000
 1.8674154536e+000	 1.6847707105e-001	 3.0823699597e+000
 1.9000000000e+000	 0.0000000000e+000	 3.4293754545e+000
 1.8999255102e+000	 1.6824255038e-002	 3.4283216227e+000
 1.8997009627e+000	 3.3708340767e-002	 3.4191200652e+000
 1.8993247537e+000	 5.0650565704e-002	 3.4014695860e+000
 1.8987952986e+000	 6.7649197674e-002	 3.3750523317e+000
 1.8981110327e+000	 8.4702463874e-002	 3.3395335010e+000
 1.8972704127e+000	 1.0180855098e-001	 3.2945610755e+000
 1.8962719174e+000	 1.1896560528e-001	 3.2397655768e+000
 1.8951140491e+000	 1.3617173282e-001	 3.1747598479e+000
 1.8937953346e+000	 1.5342499965e-001	 3.0991388640e+000
 1.8923143264e+000	 1.7072343199e-001	 3.0124795714e+000
 1.9250000000e+000	 0.0000000000e+000	 3.1716275892e+000
 1.9249245301e+000	 1.7045626815e-002	 3.1844357853e+000
 1.9246970280e+000	 3.4151871566e-002	 3.1891731106e+000
 1.9243158689e+000	 5.1317020516e-002	 3.1855319199e+000
 1.9237794473e+000	 6.8539318696e-002	 3.1731872860e+000
 1.9230861779e+000	 8.5816969978e-002	 3.1517966954e+000
 1.9222344971e+000	 1.0314813718e-001	 3.1209997665e+000
 1.9212228637e+000	 1.2053094219e-001	 3.0804179940e+000
 1.9200497603e+000	 1.3796346615e-001	 3.0296545198e+000
 1.9187136943e+000	 1.5544374965e-001	 2.9682939329e+000
 1.9172131991e+000	 1.7296979294e-001	 2.8959020997e+000
 1.9500000000e+000	 0.0000000000e+000	 2.9087545386e+000
 1.9499235500e+000	 1.7266998592e-002	 2.9356980561e+000
 1.9496930933e+000	 3.4595402365e-002	 2.9546870165e+000
 1.9493069841e+000	 5.1983475327e-002	 2.9654076183e+000
 1.9487635960e+000	 6.9429439717e-002	 2.9675281200e+000
 1.9480613231e+000	 8.6931476081e-002	 2.9606985211e+000
 1.9471985815e+000	 1.0448772337e-001	 2.9445502662e+000
 1.9461738100e+000	 1.2209627910e-001	 2.9186959763e+000
 1.9449854715e+000	 1.3975519948e-001	 2.8827292074e+000
 1.9436320540e+000	 1.5746249964e-001	 2.8362242395e+000
 1.9421120718e+000	 1.7521615389e-001	 2.7787358964e+000
 1.9750000000e+000	 0.0000000000e+000	 2.6407382938e+000
 1.9749225698e+000	 1.7488370368e-002	 2.6820898762e+000
 1.9746891586e+000	 3.5038933164e-002	 2.7156426191e+000
 1.9742980993e+000	 5.2649930139e-002	 2.7410768565e+000
 1.9737477446e+000	 7.0319560739e-002	 2.7580542914e+000
 1.9730364682e+000	 8.8045982184e-002	 2.7662176603e+000
 1.9721626658e+000	 1.0582730957e-001	 2.7651904224e+000
 1.9711247563e+000	 1.2366161601e-001	 2.7545764766e+000
 1.9699211826e+000	 1.4154693280e-001	 2.7339599070e+000
 1.9685504136e+000	 1.5948124964e-001	 2.7029047595e+000
 1.9670109445e+000	 1.7746251484e-001	 2.6609548502e+000
 2.0000000000e+000	 0.0000000000e+000	 2.3675617465e+000
 1.9999215897e+000	 1.7709742145e-002	 2.4235936121e+000
 1.9996852239e+000	 3.5482463963e-002	 2.4720217293e+000
 1.9992892145e+000	 5.3316384950e-002	 2.5125208592e+000
 1.9987318933e+000	 7.1209681760e-002	 2.5447464074e+000
 1.9980116134e+000	 8.9160488287e-002	 2.5683340705e+000
 1.9971267502e+000	 1.0716689577e-001	 2.5828995097e+000
 1.9960757025e+000	 1.2522695292e-001	 2.5880380524e+000
 1.9948568938e+000	 1.4333866613e-001	 2.5833244230e+000
 1.9934687733e+000	 1.6149999964e-001	 2.5683125065e+000
 1.9919098172e+000	 1.7970887579e-001	 2.5425351448e+000
 1.7429210901e+000	 1.5724526631e-001	 3.0124645339e+000
 1.7414062137e+000	 1.7321777839e-001	 3.0381895602e+000
 1.7397392646e+000	 1.8922814542e-001	 3.0527160675e+000
 1.7379189865e+000	 2.0527444106e-001	 3.0560436303e+000
 1.7359441509e+000	 2.2135470344e-001	 3.0481594932e+000
 1.7338135582e+000	 2.3746693559e-001	 3.0290380039e+000
 1.7315260383e+000	 2.5360910577e-001	 2.9986400622e+000
 1.7290804525e+000	 2.6977914796e-001	 2.9569125875e+000
 1.7264756937e+000	 2.8597496228e-001	 2.9037880068e+000
 1.7237106878e+000	 3.0219441554e-001	 2.8391837655e+000
 1.7207843947e+000	 3.1843534172e-001	 2.7630018617e+000
 1.7678199628e+000	 1.5949162725e-001	 3.0095454753e+000
 1.7662834454e+000	 1.7569231808e-001	 3.0237422775e+000
 1.7645926827e+000	 1.9193140464e-001	 3.0274577613e+000
 1.7627464006e+000	 2.0820693307e-001	 3.0207026862e+000
 1.7607433531e+000	 2.2451691349e-001	 3.0034743146e+000
 1.7585823233e+000	 2.4085932039e-001	 2.9757557996e+000
 1.7562621246e+000	 2.5723209300e-001	 2.9375155895e+000
 1.7537816018e+000	 2.7363313579e-001	 2.8887068515e+000
 1.7511396322e+000	 2.9006031889e-001	 2.8292669175e+000
 1.7483351262e+000	 3.0651147862e-001	 2.7591167535e+000
 1.7453670289e+000	 3.2298441803e-001	 2.6781604553e+000
 1.7927188355e+000	 1.6173798820e-001	 3.0152879228e+000
 1.7911606770e+000	 1.7816685777e-001	 3.0172098051e+000
 1.7894461008e+000	 1.9463466387e-001	 3.0093936183e+000
 1.7875738147e+000	 2.1113942509e-001	 2.9918619035e+000
 1.7855425553e+000	 2.2767912354e-001	 2.9646225059e+000
 1.7833510884e+000	 2.4425170518e-001	 2.9276679150e+000
 1.7809982109e+000	 2.6085508023e-001	 2.8809746230e+000
 1.7784827512e+000	 2.7748712362e-001	 2.8245025034e+000
 1.7758035707e+000	 2.9414567549e-001	 2.7581942136e+000
 1.7729595646e+000	 3.1082854170e-001	 2.6819746210e+000
 1.7699496631e+000	 3.2753349434e-001	 2.5957502585e+000
 1.8176177082e+000	 1.6398434915e-001	 3.0294787522e+000
 1.8160379086e+000	 1.8064139747e-001	 3.0183740403e+000
 1.8142995188e+000	 1.9733792309e-001	 2.9983015245e+000
 1.8124012288e+000	 2.1407191711e-001	 2.9692961366e+000
 1.8103417574e+000	 2.3084133360e-001	 2.9313768803e+000
 1.8081198535e+000	 2.4764408998e-001	 2.8845461229e+000
 1.8057342971e+000	 2.6447806745e-001	 2.8287889054e+000
 1.8031839005e+000	 2.8134111145e-001	 2.7640722754e+000
 1.8004675091e+000	 2.9823103210e-001	 2.6903446433e+000
 1.7975840030e+000	 3.1514560478e-001	 2.6075351662e+000
 1.7945322974e+000	 3.3208257065e-001	 2.5155531597e+000
 1.8425165809e+000	 1.6623071010e-001	 3.0519082649e+000
 1.8409151402e+000	 1.8311593716e-001	 3.0270199589e+000
 1.8391529369e+000	 2.0004118231e-001	 2.9939620833e+000
 1.8372286429e+000	 2.1700440913e-001	 2.9527825816e+000
 1.8351409596e+000	 2.3400354365e-001	 2.9035122033e+000
 1.8328886186e+000	 2.5103647477e-001	 2.8461637445e+000
 1.8304703834e+000	 2.6810105468e-001	 2.7807313102e+000
 1.8278850498e+000	 2.8519509928e-001	 2.7071895977e+000
 1.8251314476e+000	 3.0231638870e-001	 2.6254932072e+000
 1.8222084414e+000	 3.1946266786e-001	 2.5355759797e+000
 1.8191149316e+000	 3.3663164696e-001	 2.4373503653e+000
 1.8674154536e+000	 1.6847707105e-001	 3.0823699597e+000
 1.8657923719e+000	 1.8559047685e-001	 3.0429354099e+000
 1.8640063550e+000	 2.0274444153e-001	 2.9961584343e+000
 1.8620560570e+000	 2.1993690114e-001	 2.9421006208e+000
 1.8599401617e+000	 2.3716575370e-001	 2.8808050623e+000
 1.8576573837e+000	 2.5442885957e-001	 2.8122955464e+000
 1.8552064696e+000	 2.7172404191e-001	 2.7365757657e+000
 1.8525861991e+000	 2.8904908711e-001	 2.6536285528e+000
 1.8497953861e+000	 3.0640174531e-001	 2.5634151414e+000
 1.8468328798e+000	 3.2377973094e-001	 2.4658744580e+000
 1.8436975658e+000	 3.4118072327e-001	 2.3609224458e+000
 1.8923143264e+000	 1.7072343199e-001	 3.0124795714e+000
 1.8906696035e+000	 1.8806501655e-001	 2.9861159937e+000
 1.8888597730e+000	 2.0544770075e-001	 2.9500662806e+000
 1.8868834711e+000	 2.2286939316e-001	 2.9038543793e+000
 1.8847393639e+000	 2.4032796375e-001	 2.8469846528e+000
 1.8824261489e+000	 2.5782124437e-001	 2.7789418650e+000
 1.8799425559e+000	 2.7534702914e-001	 2.6991912041e+000
 1.8772873485e+000	 2.9290307494e-001	 2.6071783481e+000
 1.8744593246e+000	 3.1048710192e-001	 2.5038859018e+000
 1.8714573182e+000	 3.2809679402e-001	 2.3982078167e+000
 1.8682802000e+000	 3.4572979958e-001	 2.2860493768e+000
 1.9172131991e+000	 1.7296979294e-001	 2.8959020997e+000
 1.9155468351e+000	 1.9053955624e-001	 2.8835609347e+000
 1.9137131911e+000	 2.0815095998e-001	 2.8622276674e+000
 1.9117108852e+000	 2.2580188518e-001	 2.8314140083e+000
 1.9095385661e+000	 2.4349017380e-001	 2.7906107574e+000
 1.9071949140e+000	 2.6121362916e-001	 2.7392877716e+000
 1.9046786422e+000	 2.7897001637e-001	 2.6768939736e+000
 1.9019884978e+000	 2.9675706277e-001	 2.6028574043e+000
 1.8991232631e+000	 3.1457245852e-001	 2.5165853182e+000
 1.8960817566e+000	 3.3241385710e-001	 2.4174643259e+000
 1.8928628342e+000	 3.5027887589e-001	 2.3048605827e+000
 1.9421120718e+000	 1.7521615389e-001	 2.7787358964e+000
 1.9404240667e+000	 1.9301409593e-001	 2.7808220935e+000
 1.9385666092e+000	 2.1085421920e-001	 2.7746317809e+000
 1.9365382993e+000	 2.2873437719e-001	 2.7596642731e+000
 1.9343377682e+000	 2.4665238385e-001	 2.7353966132e+000
 1.9319636791e+000	 2.6460601396e-001	 2.7012835239e+000
 1.9294147284e+000	 2.8259300359e-001	 2.6567574008e+000
 1.9266896471e+000	 3.0061105060e-001	 2.6012283506e+000
 1.9237872016e+000	 3.1865781513e-001	 2.5340842760e+000
 1.9207061950e+000	 3.3673092018e-001	 2.4546910081e+000
 1.9174454684e+000	 3.5482795221e-001	 2.3623924881e+000
 1.9670109445e+000	 1.7746251484e-001	 2.6609548502e+000
 1.9653012984e+000	 1.9548863562e-001	 2.6778825279e+000
 1.9634200273e+000	 2.1355747842e-001	 2.6872715068e+000
 1.9613657134e+000	 2.3166686921e-001	 2.6886085448e+000
 1.9591369704e+000	 2.4981459391e-001	 2.6813567345e+000
 1.9567324442e+000	 2.6799839876e-001	 2.6649554355e+000
 1.9541508147e+000	 2.8621599082e-001	 2.6388202525e+000
 1.9513907964e+000	 3.0446503843e-001	 2.6023430587e+000
 1.9484511400e+000	 3.2274317174e-001	 2.5548920694e+000
 1.9453306334e+000	 3.4104798327e-001	 2.4958119642e+000
 1.9420281026e+000	 3.5937702852e-001	 2.4244240622e+000
 1.9919098172e+000	 1.7970887579e-001	 2.5425351448e+000
 1.9901785300e+000	 1.9796317532e-001	 2.5747273590e+000
 1.9882734453e+000	 2.1626073764e-001	 2.6001415516e+000
 1.9861931275e+000	 2.3459936123e-001	 2.6182517642e+000
 1.9839361725e+000	 2.5297680396e-001	 2.6285069439e+000
 1.9815012093e+000	 2.7139078356e-001	 2.6303308576e+000
 1.9788869010e+000	 2.8983897805e-001	 2.6231220528e+000
 1.9760919458e+000	 3.0831902626e-001	 2.6062538678e+000
 1.9731150785e+000	 3.2682852835e-001	 2.5790744915e+000
 1.9699550718e+000	 3.4536504635e-001	 2.5409070767e+000
 1.9666107368e+000	 3.6392610484e-001	 2.4910499064e+000
 1.7207843947e+000	 3.1843534172e-001	 2.7630018617e+000
 1.7176958094e+000	 3.3469554257e-001	 2.7315719597e+000
 1.7144439629e+000	 3.5097278822e-001	 2.6947698939e+000
 1.7110279231e+000	 3.6726481779e-001	 2.6524659037e+000
 1.7074467960e+000	 3.8356934007e-001	 2.6045082401e+000
 1.7036997268e+000	 3.9988403422e-001	 2.5507227484e+000
 1.6997859004e+000	 4.1620655053e-001	 2.4909124924e+000
 1.6957045429e+000	 4.3253451115e-001	 2.4248574207e+000
 1.6914549220e+000	 4.4886551095e-001	 2.3523140794e+000
 1.6870363485e+000	 4.6519711830e-001	 2.2730153720e+000
 1.6824481768e+000	 4.8152687598e-001	 2.1866703689e+000
 1.7453670289e+000	 3.2298441803e-001	 2.6781604553e+000
 1.7422343210e+000	 3.3947690746e-001	 2.6415303083e+000
 1.7389360195e+000	 3.5598668519e-001	 2.6006383527e+000
 1.7354711791e+000	 3.7251145804e-001	 2.5553523396e+000
 1.7318388931e+000	 3.8904890206e-001	 2.5055161155e+000
 1.7280382943e+000	 4.0559666328e-001	 2.4509491681e+000
 1.7240685561e+000	 4.2215235839e-001	 2.3914462163e+000
 1.7199288935e+000	 4.3871357559e-001	 2.3267768450e+000
 1.7156185637e+000	 4.5527787539e-001	 2.2566851898e+000
 1.7111368678e+000	 4.7184279141e-001	 2.1808896704e+000
 1.7064831508e+000	 4.8840583136e-001	 2.0990827783e+000
 1.7699496631e+000	 3.2753349434e-001	 2.5957502585e+000
 1.7667728326e+000	 3.4425827236e-001	 2.5533270157e+000
 1.7634280761e+000	 3.6100058217e-001	 2.5077727858e+000
 1.7599144352e+000	 3.7775809829e-001	 2.4589530128e+000
 1.7562309902e+000	 3.9452846406e-001	 2.4067072793e+000
 1.7523768619e+000	 4.1130929234e-001	 2.3508488145e+000
 1.7483512119e+000	 4.2809816625e-001	 2.2911640485e+000
 1.7441532441e+000	 4.4489264004e-001	 2.2274122159e+000
 1.7397822055e+000	 4.6169023983e-001	 2.1593250098e+000
 1.7352373870e+000	 4.7848846453e-001	 2.0866062902e+000
 1.7305181247e+000	 4.9528478673e-001	 2.0089318473e+000
 1.7945322974e+000	 3.3208257065e-001	 2.5155531597e+000
 1.7913113441e+000	 3.4903963725e-001	 2.4667544198e+000
 1.7879201327e+000	 3.6601447914e-001	 2.4159774375e+000
 1.7843576912e+000	 3.8300473855e-001	 2.3630855354e+000
 1.7806230873e+000	 4.0000802606e-001	 2.3079141759e+000
 1.7767154294e+000	 4.1702192139e-001	 2.2502704300e+000
 1.7726338676e+000	 4.3404397412e-001	 2.1899324966e+000
 1.7683775947e+000	 4.5107170448e-001	 2.1266492715e+000
 1.7639458472e+000	 4.6810260427e-001	 2.0601399724e+000
 1.7593379063e+000	 4.8513413765e-001	 1.9900938192e+000
 1.7545530987e+000	 5.0216374210e-001	 1.9161697742e+000
 1.8191149316e+000	 3.3663164696e-001	 2.4373503653e+000
 1.8158498557e+000	 3.5382100214e-001	 2.3816034013e+000
 1.8124121893e+000	 3.7102837612e-001	 2.3250542842e+000
 1.8088009473e+000	 3.8825137880e-001	 2.2675644049e+000
 1.8050151844e+000	 4.0548758806e-001	 2.2089652522e+000
 1.8010539969e+000	 4.2273455045e-001	 2.1490578419e+000
 1.7969165233e+000	 4.3998978198e-001	 2.0876121989e+000
 1.7926019453e+000	 4.5725076893e-001	 2.0243668920e+000
 1.7881094890e+000	 4.7451496871e-001	 1.9590286278e+000
 1.7834384256e+000	 4.9177981077e-001	 1.8912719030e+000
 1.7785880727e+000	 5.0904269747e-001	 1.8207387202e+000
 1.8436975658e+000	 3.4118072327e-001	 2.3609224458e+000
 1.8403883673e+000	 3.5860236704e-001	 2.2976634816e+000
 1.8369042460e+000	 3.7604227309e-001	 2.2348031858e+000
 1.8332442033e+000	 3.9349801906e-001	 2.1722012117e+000
 1.8294072815e+000	 4.1096715007e-001	 2.1096852245e+000
 1.8253925645e+000	 4.2844717952e-001	 2.0470502897e+000
 1.8211991790e+000	 4.4593558984e-001	 1.9840583160e+000
 1.8168262959e+000	 4.6342983337e-001	 1.9204375564e+000
 1.8122731307e+000	 4.8092733315e-001	 1.8558821689e+000
 1.8075389448e+000	 4.9842548389e-001	 1.7900518408e+000
 1.8026230466e+000	 5.1592165284e-001	 1.7225714787e+000
 1.8682802000e+000	 3.4572979958e-001	 2.2860493768e+000
 1.8649268788e+000	 3.6338373194e-001	 2.2147229113e+000
 1.8613963026e+000	 3.8105617007e-001	 2.1450220244e+000
 1.8576874594e+000	 3.9874465931e-001	 2.0768048304e+000
 1.8537993786e+000	 4.1644671207e-001	 2.0098953242e+000
 1.8497311320e+000	 4.3415980858e-001	 1.9440827270e+000
 1.8454818348e+000	 4.5188139771e-001	 1.8791208911e+000
 1.8410506465e+000	 4.6960889782e-001	 1.8147277637e+000
 1.8364367724e+000	 4.8733969760e-001	 1.7505849154e+000
 1.8316394641e+000	 5.0507115701e-001	 1.6863371345e+000
 1.8266580206e+000	 5.2280060822e-001	 1.6215920915e+000
 1.8928628342e+000	 3.5027887589e-001	 2.3048605827e+000
 1.8894653904e+000	 3.6816509683e-001	 2.2236382094e+000
 1.8858883592e+000	 3.8607006704e-001	 2.1362331547e+000
 1.8821307154e+000	 4.0399129957e-001	 2.0419677187e+000
 1.8781914757e+000	 4.2192627407e-001	 1.9401376682e+000
 1.8740696995e+000	 4.3987243764e-001	 1.8399861000e+000
 1.8697644905e+000	 4.5782720558e-001	 1.7726451822e+000
 1.8652749971e+000	 4.7578796226e-001	 1.7070984214e+000
 1.8606004142e+000	 4.9375206204e-001	 1.6430147599e+000
 1.8557399833e+000	 5.1171683013e-001	 1.5800239953e+000
 1.8506929945e+000	 5.2967956359e-001	 1.5177164168e+000
 1.9174454684e+000	 3.5482795221e-001	 2.3623924881e+000
 1.9140039020e+000	 3.7294646173e-001	 2.3000281535e+000
 1.9103804158e+000	 3.9108396402e-001	 2.2322873342e+000
 1.9065739715e+000	 4.0923793982e-001	 2.1584655268e+000
 1.9025835728e+000	 4.2740583607e-001	 2.0778299366e+000
 1.8984082670e+000	 4.4558506670e-001	 1.9896197683e+000
 1.8940471462e+000	 4.6377301344e-001	 1.8930465788e+000
 1.8894993478e+000	 4.8196702671e-001	 1.7872946937e+000
 1.8847640559e+000	 5.0016442648e-001	 1.6715216893e+000
 1.8798405026e+000	 5.1836250325e-001	 1.5448589399e+000
 1.8747279685e+000	 5.3655851896e-001	 1.4108526543e+000
 1.9420281026e+000	 3.5937702852e-001	 2.4244240622e+000
 1.9385424135e+000	 3.7772782663e-001	 2.3814451449e+000
 1.9348724724e+000	 3.9609786100e-001	 2.3339074855e+000
 1.9310172275e+000	 4.1448458008e-001	 2.2810792360e+000
 1.9269756698e+000	 4.3288539808e-001	 2.2221984662e+000
 1.9227468346e+000	 4.5129769576e-001	 2.1564734525e+000
 1.9183298019e+000	 4.6971882131e-001	 2.0830830340e+000
 1.9137236984e+000	 4.8814609116e-001	 2.0011770334e+000
 1.9089276977e+000	 5.0657679093e-001	 1.9098767479e+000
 1.9039410219e+000	 5.2500817637e-001	 1.8082755077e+000
 1.8987629424e+000	 5.4343747433e-001	 1.6954393049e+000
 1.9666107368e+000	 3.6392610484e-001	 2.4910499064e+000
 1.9630809251e+000	 3.8250919152e-001	 2.4680027865e+000
 1.9593645290e+000	 4.0111175798e-001	 2.4412271125e+000
 1.9554604835e+000	 4.1973122034e-001	 2.4099631452e+000
 1.9513677669e+000	 4.3836496008e-001	 2.3734192374e+000
 1.9470854021e+000	 4.5701032483e-001	 2.3307721228e+000
 1.9426124576e+000	 4.7566462918e-001	 2.2811672729e+000
 1.9379480490e+000	 4.9432515561e-001	 2.2237193249e+000
 1.9330913394e+000	 5.1298915537e-001	 2.1575125801e+000
 1.9280415411e+000	 5.3165384949e-001	 2.0816015746e+000
 1.9227979164e+000	 5.5031642970e-001	 1.9950117239e+000
 1.6824481768e+000	 4.8152687598e-001	 2.1866703689e+000
 1.6776898060e+000	 4.9785230211e-001	 2.1747304581e+000
 1.6727606807e+000	 5.1417089100e-001	 2.1422543806e+000
 1.6676602917e+000	 5.3048011422e-001	 2.0887131508e+000
 1.6623881771e+000	 5.4677742155e-001	 2.0135643125e+000
 1.6569439230e+000	 5.6306024200e-001	 1.9162523572e+000
 1.6513271642e+000	 5.7932598494e-001	 1.7962091944e+000
 1.6455375851e+000	 5.9557204113e-001	 1.6528546731e+000
 1.6395749202e+000	 6.1179578385e-001	 1.4855971572e+000
 1.6334389551e+000	 6.2799457010e-001	 1.3133738446e+000
 1.6271295268e+000	 6.4416574173e-001	 1.2127657381e+000
 1.7064831508e+000	 4.8840583136e-001	 2.0990827783e+000
 1.7016568033e+000	 5.0496447785e-001	 2.0892606756e+000
 1.6966572618e+000	 5.2151618944e-001	 2.0575151529e+000
 1.6914840101e+000	 5.3805840157e-001	 2.0033367973e+000
 1.6861365796e+000	 5.5458852757e-001	 1.9262034792e+000
 1.6806145504e+000	 5.7110395975e-001	 1.8255807674e+000
 1.6749175522e+000	 5.8760207045e-001	 1.7009223972e+000
 1.6690452648e+000	 6.0408021315e-001	 1.5516707896e+000
 1.6629974190e+000	 6.2053572362e-001	 1.3772576243e+000
 1.6567737973e+000	 6.3696592110e-001	 1.2509542365e+000
 1.6503742344e+000	 6.5336810947e-001	 1.1415973904e+000
 1.7305181247e+000	 4.9528478673e-001	 2.0089318473e+000
 1.7256238005e+000	 5.1207665360e-001	 2.0036687480e+000
 1.7205538430e+000	 5.2886148789e-001	 1.9751887827e+000
 1.7153077286e+000	 5.4563668892e-001	 1.9230011212e+000
 1.7098849821e+000	 5.6239963360e-001	 1.8466028696e+000
 1.7042851779e+000	 5.7914767750e-001	 1.7454794839e+000
 1.6985079403e+000	 5.9587815595e-001	 1.6191052339e+000
 1.6925529446e+000	 6.1258838517e-001	 1.4669437214e+000
 1.6864199179e+000	 6.2927566340e-001	 1.3109070200e+000
 1.6801086395e+000	 6.4593727211e-001	 1.2045369760e+000
 1.6736189419e+000	 6.6257047722e-001	 1.0892093553e+000
 1.7545530987e+000	 5.0216374210e-001	 1.9161697742e+000
 1.7495907977e+000	 5.1918882934e-001	 1.9178157838e+000
 1.7444504242e+000	 5.3620678633e-001	 1.8950437117e+000
 1.7391314470e+000	 5.5321497627e-001	 1.8473803402e+000
 1.7336333847e+000	 5.7021073962e-001	 1.7743409430e+000
 1.7279558054e+000	 5.8719139524e-001	 1.6754296944e+000
 1.7220983284e+000	 6.0415424145e-001	 1.5501401312e+000
 1.7160606244e+000	 6.2109655719e-001	 1.3979556679e+000
 1.7098424168e+000	 6.3801560317e-001	 1.2817091754e+000
 1.7034434817e+000	 6.5490862311e-001	 1.1727547639e+000
 1.6968636494e+000	 6.7177284496e-001	 1.0541114986e+000
 1.7785880727e+000	 5.0904269747e-001	 1.8207387202e+000
 1.7735577950e+000	 5.2630100509e-001	 1.8315580038e+000
 1.7683470053e+000	 5.4355208478e-001	 1.8168487711e+000
 1.7629551655e+000	 5.6079326361e-001	 1.7761544670e+000
 1.7573817872e+000	 5.7802184564e-001	 1.7090074838e+000
 1.7516264329e+000	 5.9523511299e-001	 1.6149295671e+000
 1.7456887164e+000	 6.1243032695e-001	 1.4934322738e+000
 1.7395683042e+000	 6.2960472920e-001	 1.3621231954e+000
 1.7332649156e+000	 6.4675554294e-001	 1.2633585437e+000
 1.7267783239e+000	 6.6387997412e-001	 1.1542811108e+000
 1.7201083570e+000	 6.8097521270e-001	 1.0348607457e+000
 1.8026230466e+000	 5.1592165284e-001	 1.7225714787e+000
 1.7975247922e+000	 5.3341318083e-001	 1.7447470664e+000
 1.7922435865e+000	 5.5089738322e-001	 1.7403731556e+000
 1.7867788839e+000	 5.6837155096e-001	 1.7090089220e+000
 1.7811301897e+000	 5.8583295167e-001	 1.6502028468e+000
 1.7752970603e+000	 6.0327883073e-001	 1.5634931184e+000
 1.7692791045e+000	 6.2070641246e-001	 1.4484080873e+000
 1.7630759840e+000	 6.3811290122e-001	 1.3505881186e+000
 1.7566874145e+000	 6.5549548271e-001	 1.2546761144e+000
 1.7501131661e+000	 6.7285132512e-001	 1.1478276161e+000
 1.7433530645e+000	 6.9017758044e-001	 1.0300579447e+000
 1.8266580206e+000	 5.2280060822e-001	 1.6215920915e+000
 1.8214917894e+000	 5.4052535658e-001	 1.6572303677e+000
 1.8161401676e+000	 5.5824268167e-001	 1.6653863994e+000
 1.8106026024e+000	 5.7594983831e-001	 1.6456341781e+000
 1.8048785923e+000	 5.9364405769e-001	 1.5975372615e+000
 1.7989676878e+000	 6.1132254848e-001	 1.5206491705e+000
 1.7928694926e+000	 6.2898249796e-001	 1.4247403830e+000
 1.7865836638e+000	 6.4662107324e-001	 1.3453997446e+000
 1.7801099133e+000	 6.6423542248e-001	 1.2545131106e+000
 1.7734480084e+000	 6.8182267612e-001	 1.1521414621e+000
 1.7665977720e+000	 6.9937994818e-001	 1.0383449765e+000
 1.8506929945e+000	 5.2967956359e-001	 1.5177164168e+000
 1.8454587867e+000	 5.4763753232e-001	 1.5688513189e+000
 1.8400367488e+000	 5.6558798011e-001	 1.5916583546e+000
 1.8344263209e+000	 5.8352812565e-001	 1.5857254326e+000
 1.8286269948e+000	 6.0145516371e-001	 1.5506301909e+000
 1.8226383153e+000	 6.1936626622e-001	 1.4859403896e+000
 1.8164598806e+000	 6.3725858345e-001	 1.4172577490e+000
 1.8100913436e+000	 6.5512924526e-001	 1.3455354034e+000
 1.8035324122e+000	 6.7297536225e-001	 1.2617490259e+000
 1.7967828506e+000	 6.9079402712e-001	 1.1660031040e+000
 1.7898424795e+000	 7.0858231592e-001	 1.0584020902e+000
 1.8747279685e+000	 5.3655851896e-001	 1.4108526543e+000
 1.8694257839e+000	 5.5474970807e-001	 1.4794496009e+000
 1.8639333299e+000	 5.7293327855e-001	 1.5189591703e+000
 1.8582500393e+000	 5.9110641300e-001	 1.5289823040e+000
 1.8523753973e+000	 6.0926626974e-001	 1.5091097398e+000
 1.8463089428e+000	 6.2740998396e-001	 1.4617305299e+000
 1.8400502687e+000	 6.4553466895e-001	 1.4121900540e+000
 1.8335990234e+000	 6.6363741727e-001	 1.3499942911e+000
 1.8269549111e+000	 6.8171530202e-001	 1.2752898125e+000
 1.8201176928e+000	 6.9976537812e-001	 1.1882241364e+000
 1.8130871871e+000	 7.1778468366e-001	 1.0889454439e+000
 1.8987629424e+000	 5.4343747433e-001	 1.6954393049e+000
 1.8933927811e+000	 5.6186188381e-001	 1.7139762227e+000
 1.8878299111e+000	 5.8027857699e-001	 1.6874614689e+000
 1.8820737578e+000	 5.9868470035e-001	 1.6150765384e+000
 1.8761237999e+000	 6.1707737576e-001	 1.4960138360e+000
 1.8699795702e+000	 6.3545370170e-001	 1.4464240304e+000
 1.8636406567e+000	 6.5381075445e-001	 1.4086448583e+000
 1.8571067031e+000	 6.7214558929e-001	 1.3577960864e+000
 1.8503774099e+000	 6.9045524179e-001	 1.2940662061e+000
 1.8434525350e+000	 7.0873672912e-001	 1.2176453225e+000
 1.8363318946e+000	 7.2698705140e-001	 1.1287248317e+000
 1.9227979164e+000	 5.5031642970e-001	 1.9950117239e+000
 1.9173597783e+000	 5.6897405956e-001	 2.0586061202e+000
 1.9117264922e+000	 5.8762387544e-001	 2.0758008156e+000
 1.9058974762e+000	 6.0626298769e-001	 2.0457684480e+000
 1.8998722024e+000	 6.2488848178e-001	 1.9676933823e+000
 1.8936501977e+000	 6.4349741945e-001	 1.8442890088e+000
 1.8872310448e+000	 6.6208683995e-001	 1.6889899438e+000
 1.8806143829e+000	 6.8065376130e-001	 1.5029084967e+000
 1.8737999088e+000	 6.9919518155e-001	 1.3170321774e+000
 1.8667873772e+000	 7.1770808012e-001	 1.2531347717e+000
 1.8595766021e+000	 7.3618941913e-001	 1.1765215817e+000
 1.6271295268e+000	 6.4416574173e-001	 1.2127657381e+000
 1.6206465249e+000	 6.6030662669e-001	 1.1475206271e+000
 1.6139898915e+000	 6.7641454021e-001	 1.0788225881e+000
 1.6071596221e+000	 6.9248678611e-001	 1.0064537169e+000
 1.6001557665e+000	 7.0852065808e-001	 9.3018821935e-001
 1.5929784285e+000	 7.2451344093e-001	 8.4979251246e-001
 1.5856277673e+000	 7.4046241198e-001	 7.6502535228e-001
 1.5781039969e+000	 7.5636484241e-001	 6.7563798946e-001
 1.5704073875e+000	 7.7221799855e-001	 5.8137435272e-001
 1.5625382650e+000	 7.8801914338e-001	 4.8197126071e-001
 1.5544970119e+000	 8.0376553783e-001	 3.7715866257e-001
 1.6503742344e+000	 6.5336810947e-001	 1.1415973904e+000
 1.6437986181e+000	 6.6973957850e-001	 1.0676017287e+000
 1.6370468899e+000	 6.8607760507e-001	 9.9154245429e-001
 1.6301190453e+000	 7.0237945449e-001	 9.1324616407e-001
 1.6230151346e+000	 7.1864238176e-001	 8.3253050260e-001
 1.6157352632e+000	 7.3486363294e-001	 7.4920420394e-001
 1.6082795925e+000	 7.5104044644e-001	 6.6306716158e-001
 1.6006483397e+000	 7.6717005444e-001	 5.7391052735e-001
 1.5928417787e+000	 7.8324968425e-001	 4.8151683978e-001
 1.5848602402e+000	 7.9927655972e-001	 3.8566018250e-001
 1.5767041121e+000	 8.1524790266e-001	 2.8610637305e-001
 1.6736189419e+000	 6.6257047722e-001	 1.0892093553e+000
 1.6669507113e+000	 6.7917253031e-001	 1.0084657406e+000
 1.6601038884e+000	 6.9574066993e-001	 9.2706391122e-001
 1.6530784685e+000	 7.1227212286e-001	 8.4487400007e-001
 1.6458745027e+000	 7.2876410545e-001	 7.6175608656e-001
 1.6384920979e+000	 7.4521382496e-001	 6.7756017922e-001
 1.6309314178e+000	 7.6161848090e-001	 5.9212622817e-001
 1.6231926825e+000	 7.7797526648e-001	 5.0528416782e-001
 1.6152761700e+000	 7.9428136994e-001	 4.1685399067e-001
 1.6071822154e+000	 8.1053397605e-001	 3.2664585283e-001
 1.5989112123e+000	 8.2673026749e-001	 2.3446021174e-001
 1.6968636494e+000	 6.7177284496e-001	 1.0541114986e+000
 1.6901028046e+000	 6.8860548212e-001	 9.6853328071e-001
 1.6831608868e+000	 7.0540373479e-001	 8.8371939743e-001
 1.6760378917e+000	 7.2216479124e-001	 7.9958259721e-001
 1.6687338708e+000	 7.3888582914e-001	 7.1602443403e-001
 1.6612489326e+000	 7.5556401697e-001	 6.3293519152e-001
 1.6535832430e+000	 7.7219651536e-001	 5.5019383808e-001
 1.6457370254e+000	 7.8878047852e-001	 4.6766801385e-001
 1.6377105612e+000	 8.0531305564e-001	 3.8521405048e-001
 1.6295041906e+000	 8.2179139239e-001	 3.0267702425e-001
 1.6211183125e+000	 8.3821263232e-001	 2.1989084344e-001
 1.7201083570e+000	 6.8097521270e-001	 1.0348607457e+000
 1.7132548978e+000	 6.9803843393e-001	 9.4627649106e-001
 1.7062178853e+000	 7.1506679966e-001	 8.5989731266e-001
 1.6989973148e+000	 7.3205745961e-001	 7.7567769599e-001
 1.6915932389e+000	 7.4900755283e-001	 6.9355975104e-001
 1.6840057673e+000	 7.6591420899e-001	 6.1347307806e-001
 1.6762350683e+000	 7.8277454982e-001	 5.3533466572e-001
 1.6682813682e+000	 7.9958569055e-001	 4.5904882267e-001
 1.6601449525e+000	 8.1634474134e-001	 3.8450714367e-001
 1.6518261659e+000	 8.3304880872e-001	 3.1158851097e-001
 1.6433254126e+000	 8.4969499715e-001	 2.4015913181e-001
 1.7433530645e+000	 6.9017758044e-001	 1.0300579447e+000
 1.7364069910e+000	 7.0747138575e-001	 9.4021560318e-001
 1.7292748837e+000	 7.2472986452e-001	 8.5403828709e-001
 1.7219567380e+000	 7.4195012799e-001	 7.7152138055e-001
 1.7144526070e+000	 7.5912927652e-001	 6.9264667055e-001
 1.7067626020e+000	 7.7626440100e-001	 6.1738215444e-001
 1.6988868935e+000	 7.9335258428e-001	 5.4568188135e-001
 1.6908257110e+000	 8.1039090259e-001	 4.7748582879e-001
 1.6825793437e+000	 8.2737642703e-001	 4.1271981547e-001
 1.6741481411e+000	 8.4430622506e-001	 3.5129545141e-001
 1.6655325128e+000	 8.6117736198e-001	 2.9311012614e-001
 1.7665977720e+000	 6.9937994818e-001	 1.0383449765e+000
 1.7595590842e+000	 7.1690433756e-001	 9.4891577416e-001
 1.7523318822e+000	 7.3439292938e-001	 8.6463174510e-001
 1.7449161612e+000	 7.5184279636e-001	 7.8552837188e-001
 1.7373119751e+000	 7.6925100021e-001	 7.1162627708e-001
 1.7295194367e+000	 7.8661459301e-001	 6.4293097262e-001
 1.7215387188e+000	 8.0393061874e-001	 5.7943264473e-001
 1.7133700538e+000	 8.2119611462e-001	 5.2110597578e-001
 1.7050137350e+000	 8.3840811273e-001	 4.6791000418e-001
 1.6964701163e+000	 8.5556364139e-001	 4.1978802367e-001
 1.6877396130e+000	 8.7265972680e-001	 3.7666752282e-001
 1.7898424795e+000	 7.0858231592e-001	 1.0584020902e+000
 1.7827111774e+000	 7.2633728937e-001	 9.7098416942e-001
 1.7753888806e+000	 7.4405599424e-001	 8.9021273685e-001
 1.7678755844e+000	 7.6173546473e-001	 8.1616260982e-001
 1.7601713431e+000	 7.7937272389e-001	 7.4889244095e-001
 1.7522762714e+000	 7.9696478503e-001	 6.8844440951e-001
 1.7441905440e+000	 8.1450865319e-001	 6.3484395002e-001
 1.7359143966e+000	 8.3200132666e-001	 5.8809951958e-001
 1.7274481262e+000	 8.4943979842e-001	 5.4820240526e-001
 1.7187920915e+000	 8.6682105773e-001	 5.1512657290e-001
 1.7099467131e+000	 8.8414209163e-001	 4.8882855835e-001
 1.8130871871e+000	 7.1778468366e-001	 1.0889454439e+000
 1.8058632706e+000	 7.3577024118e-001	 1.0050672699e+000
 1.7984458791e+000	 7.5371905910e-001	 9.2935901354e-001
 1.7908350075e+000	 7.7162813311e-001	 8.6193409800e-001
 1.7830307112e+000	 7.8949444758e-001	 8.0288843463e-001
 1.7750331061e+000	 8.0731497704e-001	 7.5230005637e-001
 1.7668423693e+000	 8.2508668765e-001	 7.1022879017e-001
 1.7584587394e+000	 8.4280653869e-001	 6.7671597000e-001
 1.7498825175e+000	 8.6047148411e-001	 6.5178419204e-001
 1.7411140667e+000	 8.7807847406e-001	 6.3543711332e-001
 1.7321538133e+000	 8.9562445646e-001	 6.2765929528e-001
 1.8363318946e+000	 7.2698705140e-001	 1.1287248317e+000
 1.8290153638e+000	 7.4520319299e-001	 1.0498483836e+000
 1.8215028775e+000	 7.6338212396e-001	 9.8068832478e-001
 1.8137944307e+000	 7.8152080148e-001	 9.2139598843e-001
 1.8058900793e+000	 7.9961617127e-001	 8.7210380600e-001
 1.7977899408e+000	 8.1766516906e-001	 8.3292488247e-001
 1.7894941945e+000	 8.3566472211e-001	 8.0395261273e-001
 1.7810030823e+000	 8.5361175073e-001	 7.8526034048e-001
 1.7723169087e+000	 8.7150316981e-001	 7.7690106138e-001
 1.7634360419e+000	 8.8933589040e-001	 7.7890717204e-001
 1.7543609135e+000	 9.0710682128e-001	 7.9129026608e-001
 1.8595766021e+000	 7.3618941913e-001	 1.1765215817e+000
 1.8521674571e+000	 7.5463614479e-001	 1.1040453442e+000
 1.8445598760e+000	 7.7304518882e-001	 1.0428559187e+000
 1.8367538539e+000	 7.9141346985e-001	 9.9314188470e-001
 1.8287494474e+000	 8.0973789495e-001	 9.5507148611e-001
 1.8205467755e+000	 8.2801536107e-001	 9.2879214894e-001
 1.8121460198e+000	 8.4624275656e-001	 9.1443004145e-001
 1.8035474251e+000	 8.6441696276e-001	 9.1208967911e-001
 1.7947513000e+000	 8.8253485550e-001	 9.2185357603e-001
 1.7857580172e+000	 9.0059330673e-001	 9.4378194442e-001
 1.7765680137e+000	 9.1858918611e-001	 9.7791244382e-001
 1.5544970119e+000	 8.0376553783e-001	 3.7715866257e-001
 1.5462840674e+000	 8.1945444228e-001	 2.6305332717e-001
 1.5378999272e+000	 8.3508311794e-001	 1.5901180560e-001
 1.5293451444e+000	 8.5064882832e-001	 6.4686520759e-002
 1.5206203292e+000	 8.6614884069e-001	-2.0291853056e-002
 1.5117261490e+000	 8.8158042754e-001	-9.6314086522e-002
 1.5026633286e+000	 8.9694086807e-001	-1.6379204241e-001
 1.4934326500e+000	 9.1222744964e-001	-2.2315827346e-001
 1.4840349526e+000	 9.2743746930e-001	-2.7486557121e-001
 1.4744711329e+000	 9.4256823526e-001	-3.1938646597e-001
 1.4647421446e+000	 9.5761706841e-001	-3.5721267849e-001
 1.5767041121e+000	 8.1524790266e-001	 2.8610637305e-001
 1.5683738397e+000	 8.3116093432e-001	 1.7088197056e-001
 1.5598699262e+000	 8.4701287677e-001	 6.6321420657e-002
 1.5511929322e+000	 8.6280095444e-001	-2.7998391989e-002
 1.5423434768e+000	 8.7852239556e-001	-1.1252384106e-001
 1.5333222369e+000	 8.9417443366e-001	-1.8772418289e-001
 1.5241299476e+000	 9.0975430904e-001	-2.5409112800e-001
 1.5147674021e+000	 9.2525927035e-001	-3.1213836021e-001
 1.5052354519e+000	 9.4068657601e-001	-3.6240100327e-001
 1.4955350063e+000	 9.5603349577e-001	-4.0543503569e-001
 1.4856670324e+000	 9.7129731225e-001	-4.4181665407e-001
 1.5989112123e+000	 8.2673026749e-001	 2.3446021174e-001
 1.5904636121e+000	 8.4286742635e-001	 1.1568591637e-001
 1.5818399251e+000	 8.5894263560e-001	 8.2047756891e-003
 1.5730407200e+000	 8.7495308057e-001	-8.8480975410e-002
 1.5640666244e+000	 8.9089595043e-001	-1.7489390421e-001
 1.5549183247e+000	 9.0676843977e-001	-2.5158093323e-001
 1.5455965666e+000	 9.2256775002e-001	-3.1911283711e-001
 1.5361021543e+000	 9.3829109106e-001	-3.7808368363e-001
 1.5264359512e+000	 9.5393568271e-001	-4.2911021894e-001
 1.5165988796e+000	 9.6949875628e-001	-4.7283119781e-001
 1.5065919202e+000	 9.8497755608e-001	-5.0990665926e-001
 1.6211183125e+000	 8.3821263232e-001	 2.1989084344e-001
 1.6125533845e+000	 8.5457391839e-001	 9.5246016513e-002
 1.6038099241e+000	 8.7087239443e-001	-1.7446617533e-002
 1.5948885078e+000	 8.8710520669e-001	-1.1875863978e-001
 1.5857897719e+000	 9.0326950530e-001	-2.0928801229e-001
 1.5765144126e+000	 9.1936244588e-001	-2.8965856076e-001
 1.5670631856e+000	 9.3538119099e-001	-3.6051939763e-001
 1.5574369064e+000	 9.5132291177e-001	-4.2254428561e-001
 1.5476364506e+000	 9.6718478942e-001	-4.7643094230e-001
 1.5376627529e+000	 9.8296401678e-001	-5.2290028637e-001
 1.5275168080e+000	 9.9865779992e-001	-5.6269562610e-001
 1.6433254126e+000	 8.4969499715e-001	 2.4015913181e-001
 1.6346431569e+000	 8.6628041042e-001	 1.0742731285e-001
 1.6257799230e+000	 8.8280215326e-001	-1.2663061037e-002
 1.6167362956e+000	 8.9925733281e-001	-1.2075660490e-001
 1.6075129195e+000	 9.1564306017e-001	-2.1752592943e-001
 1.5981105004e+000	 9.3195645199e-001	-3.0367105419e-001
 1.5885298045e+000	 9.4819463197e-001	-3.7991875745e-001
 1.5787716586e+000	 9.6435473249e-001	-4.4702186313e-001
 1.5688369499e+000	 9.8043389613e-001	-5.0575846531e-001
 1.5587266262e+000	 9.9642927729e-001	-5.5693109089e-001
 1.5484416958e+000	 1.0123380438e+000	-6.0136580154e-001
 1.6655325128e+000	 8.6117736198e-001	 2.9311012614e-001
 1.6567329293e+000	 8.7798690246e-001	 1.5017342452e-001
 1.6477499220e+000	 8.9473191209e-001	 2.0598116936e-002
 1.6385840833e+000	 9.1140945893e-001	-9.6332712737e-002
 1.6292360671e+000	 9.2801661504e-001	-2.0136562784e-001
 1.6197065883e+000	 9.4455045810e-001	-2.9527618330e-001
 1.6099964235e+000	 9.6100807294e-001	-3.7886820312e-001
 1.6001064107e+000	 9.7738655320e-001	-4.5297299126e-001
 1.5900374492e+000	 9.9368300283e-001	-5.1844847658e-001
 1.5797904996e+000	 1.0098945378e+000	-5.7617829260e-001
 1.5693665835e+000	 1.0260182876e+000	-6.2707079315e-001
 1.6877396130e+000	 8.7265972680e-001	 3.7666752282e-001
 1.6788227017e+000	 8.8969339449e-001	 2.2150137835e-001
 1.6697199210e+000	 9.0666167092e-001	 8.0447761027e-002
 1.6604318711e+000	 9.2356158505e-001	-4.7281860247e-002
 1.6509592146e+000	 9.4039016991e-001	-1.6250735300e-001
 1.6413026761e+000	 9.5714446421e-001	-2.6607919758e-001
 1.6314630425e+000	 9.7382151392e-001	-3.5887769285e-001
 1.6214411629e+000	 9.9041837391e-001	-4.4181209169e-001
 1.6112379485e+000	 1.0069321095e+000	-5.1581966688e-001
 1.6008543729e+000	 1.0233597983e+000	-5.8186470843e-001
 1.5902914713e+000	 1.0396985314e+000	-6.4093745332e-001
 1.7099467131e+000	 8.8414209163e-001	 4.8882855835e-001
 1.7009124741e+000	 9.0139988653e-001	 3.1949684219e-001
 1.6916899199e+000	 9.1859142975e-001	 1.6506046195e-001
 1.6822796589e+000	 9.3571371117e-001	 2.4659913337e-002
 1.6726823622e+000	 9.5276372478e-001	-1.0259737221e-001
 1.6628987640e+000	 9.6973847032e-001	-2.1763623663e-001
 1.6529296615e+000	 9.8663495489e-001	-3.2141292975e-001
 1.6427759150e+000	 1.0034501946e+000	-4.1491416996e-001
 1.6324384478e+000	 1.0201812162e+000	-4.9915613159e-001
 1.6219182462e+000	 1.0368250588e+000	-5.7518336015e-001
 1.6112163591e+000	 1.0533787753e+000	-6.4406761653e-001
 1.7321538133e+000	 8.9562445646e-001	 6.2765929528e-001
 1.7230022465e+000	 9.1310637856e-001	 4.4230972476e-001
 1.7136599189e+000	 9.3052118858e-001	 2.7267047019e-001
 1.7041274467e+000	 9.4786583729e-001	 1.1781165355e-001
 1.6944055097e+000	 9.6513727965e-001	-2.3231434724e-002
 1.6844948518e+000	 9.8233247643e-001	-1.5145747826e-001
 1.6743962805e+000	 9.9944839587e-001	-2.6789819873e-001
 1.6641106671e+000	 1.0164820153e+000	-3.7361734218e-001
 1.6536389472e+000	 1.0334303230e+000	-4.6970958836e-001
 1.6429821195e+000	 1.0502903193e+000	-5.5729938427e-001
 1.6321412469e+000	 1.0670590191e+000	-6.3753970315e-001
 1.7543609135e+000	 9.0710682128e-001	 7.9129026608e-001
 1.7450920189e+000	 9.2481287059e-001	 5.8815010987e-001
 1.7356299178e+000	 9.4245094741e-001	 4.0156792009e-001
 1.7259752344e+000	 9.6001796341e-001	 2.3054400433e-001
 1.7161286573e+000	 9.7751083451e-001	 7.4042030950e-002
 1.7060909396e+000	 9.9492648253e-001	-6.9010047408e-002
 1.6958628994e+000	 1.0122618368e+000	-1.9971898786e-001
 1.6854454193e+000	 1.0295138360e+000	-3.1922516973e-001
 1.6748394465e+000	 1.0466794297e+000	-4.2870142631e-001
 1.6640459929e+000	 1.0637555798e+000	-5.2935179697e-001
 1.6530661346e+000	 1.0807392629e+000	-6.2241020129e-001
 1.7765680137e+000	 9.1858918611e-001	 9.7791244382e-001
 1.7671817913e+000	 9.3651936262e-001	 7.5528449538e-001
 1.7575999168e+000	 9.5438070623e-001	 5.5009533710e-001
 1.7478230222e+000	 9.7217008953e-001	 3.6127598312e-001
 1.7378518049e+000	 9.8988438938e-001	 1.8771895946e-001
 1.7276870275e+000	 1.0075204886e+000	 2.8279292994e-002
 1.7173295184e+000	 1.0250752778e+000	-1.1822441322e-001
 1.7067801714e+000	 1.0425456567e+000	-2.5300881901e-001
 1.6960399458e+000	 1.0599285364e+000	-3.7732460158e-001
 1.6851098662e+000	 1.0772208403e+000	-4.9245512660e-001
 1.6739910224e+000	 1.0944195068e+000	-5.9971503756e-001
 1.4647421446e+000	 9.5761706841e-001	-3.5721267849e-001
 1.4548489982e+000	 9.7258130376e-001	-4.3758724623e-001
 1.4447927608e+000	 9.8745829198e-001	-5.1774643374e-001
 1.4345745559e+000	 1.0022454009e+000	-5.9882310754e-001
 1.4241955631e+000	 1.0169400169e+000	-6.8196473478e-001
 1.4136570177e+000	 1.0315395467e+000	-7.6833196461e-001
 1.4029602102e+000	 1.0460414182e+000	-8.5909716573e-001
 1.3921064861e+000	 1.0604430826e+000	-9.5544292246e-001
 1.3810972449e+000	 1.0747420157e+000	-1.0585604922e+000
 1.3699339401e+000	 1.0889357189e+000	-1.1696482268e+000
 1.3586180783e+000	 1.1030217212e+000	-1.2899099611e+000
 1.4856670324e+000	 9.7129731225e-001	-4.4181665407e-001
 1.4756325553e+000	 9.8647532238e-001	-5.4301795876e-001
 1.4654326574e+000	 1.0015648390e+000	-6.4209946200e-001
 1.4550684781e+000	 1.0165631923e+000	-7.4013879242e-001
 1.4445412140e+000	 1.0314677315e+000	-8.3823010242e-001
 1.4338521179e+000	 1.0462758259e+000	-9.3748270471e-001
 1.4230024989e+000	 1.0609848670e+000	-1.0390196620e+000
 1.4119937216e+000	 1.0755922695e+000	-1.1439763323e+000
 1.4008272055e+000	 1.0900954730e+000	-1.2534988721e+000
 1.3895044249e+000	 1.1044919435e+000	-1.3687427006e+000
 1.3780269080e+000	 1.1187791744e+000	-1.4908709278e+000
 1.5065919202e+000	 9.8497755608e-001	-5.0990665926e-001
 1.4964161124e+000	 1.0003693410e+000	-6.2783467718e-001
 1.4860725539e+000	 1.0156713860e+000	-7.4175398812e-001
 1.4755624003e+000	 1.0308809838e+000	-8.5268954843e-001
 1.4648868649e+000	 1.0459954460e+000	-9.6168478010e-001
 1.4540472182e+000	 1.0610121051e+000	-1.0698002598e+000
 1.4430447877e+000	 1.0759283158e+000	-1.1781123582e+000
 1.4318809571e+000	 1.0907414564e+000	-1.2877118314e+000
 1.4205571661e+000	 1.1054489304e+000	-1.3997023675e+000
 1.4090749098e+000	 1.1200481680e+000	-1.5151990907e+000
 1.3974357376e+000	 1.1345366275e+000	-1.6353270259e+000
 1.5275168080e+000	 9.9865779992e-001	-5.6269562610e-001
 1.5171996695e+000	 1.0142633596e+000	-6.9339287732e-001
 1.5067124505e+000	 1.0297779331e+000	-8.1820600343e-001
 1.4960563226e+000	 1.0451987752e+000	-9.3810978937e-001
 1.4852325158e+000	 1.0605231605e+000	-1.0540994476e+000
 1.4742423185e+000	 1.0757483844e+000	-1.1671893570e+000
 1.4630870764e+000	 1.0908717647e+000	-1.2784117495e+000
 1.4517681926e+000	 1.1058906433e+000	-1.3888153446e+000
 1.4402871268e+000	 1.1208023878e+000	-1.4994639370e+000
 1.4286453946e+000	 1.1356043926e+000	-1.6114349374e+000
 1.4168445673e+000	 1.1502940807e+000	-1.7258178708e+000
 1.5484416958e+000	 1.0123380438e+000	-6.0136580154e-001
 1.5379832267e+000	 1.0281573783e+000	-7.4100940033e-001
 1.5273523471e+000	 1.0438844801e+000	-8.7290499674e-001
 1.5165502448e+000	 1.0595165667e+000	-9.9797964439e-001
 1.5055781667e+000	 1.0750508751e+000	-1.1171828075e+000
 1.4944374187e+000	 1.0904846636e+000	-1.2314851477e+000
 1.4831293651e+000	 1.1058152135e+000	-1.3418772542e+000
 1.4716554281e+000	 1.1210398302e+000	-1.4493683201e+000
 1.4600170874e+000	 1.1361558451e+000	-1.5549847676e+000
 1.4482158795e+000	 1.1511606171e+000	-1.6597688231e+000
 1.4362533970e+000	 1.1660515338e+000	-1.7647770463e+000
 1.5693665835e+000	 1.0260182876e+000	-6.2707079315e-001
 1.5587667838e+000	 1.0420513969e+000	-7.7196502829e-001
 1.5479922437e+000	 1.0579910271e+000	-9.0725705445e-001
 1.5370441670e+000	 1.0738343581e+000	-1.0338285770e+000
 1.5259238176e+000	 1.0895785896e+000	-1.1525857176e+000
 1.5146325190e+000	 1.1052209428e+000	-1.2644578459e+000
 1.5031716538e+000	 1.1207586623e+000	-1.3703963520e+000
 1.4915426636e+000	 1.1361890171e+000	-1.4713733608e+000
 1.4797470481e+000	 1.1515093025e+000	-1.5683803925e+000
 1.4677863643e+000	 1.1667168417e+000	-1.6624269696e+000
 1.4556622267e+000	 1.1818089870e+000	-1.7545391738e+000
 1.5902914713e+000	 1.0396985314e+000	-6.4093745332e-001
 1.5795503409e+000	 1.0559454155e+000	-7.8750685654e-001
 1.5686321403e+000	 1.0720975742e+000	-9.2262771599e-001
 1.5575380892e+000	 1.0881521496e+000	-1.0471387182e+000
 1.5462694685e+000	 1.1041063041e+000	-1.1619049956e+000
 1.5348276192e+000	 1.1199572221e+000	-1.2678170004e+000
 1.5232139425e+000	 1.1357021112e+000	-1.3657893169e+000
 1.5114298991e+000	 1.1513382040e+000	-1.4567594118e+000
 1.4994770087e+000	 1.1668627599e+000	-1.5416863267e+000
 1.4873568492e+000	 1.1822730662e+000	-1.6215493146e+000
 1.4750710564e+000	 1.1975664402e+000	-1.6973464226e+000
 1.6112163591e+000	 1.0533787753e+000	-6.4406761653e-001
 1.6003338980e+000	 1.0698394341e+000	-7.8885048112e-001
 1.5892720368e+000	 1.0862041212e+000	-9.2034460675e-001
 1.5780320114e+000	 1.1024699410e+000	-1.0393479403e+000
 1.5666151194e+000	 1.1186340186e+000	-1.1466869289e+000
 1.5550227194e+000	 1.1346935013e+000	-1.2432154343e+000
 1.5432562312e+000	 1.1506455600e+000	-1.3298135815e+000
 1.5313171347e+000	 1.1664873909e+000	-1.4073865432e+000
 1.5192069693e+000	 1.1822162172e+000	-1.4768632623e+000
 1.5069273341e+000	 1.1978292908e+000	-1.5391951144e+000
 1.4944798861e+000	 1.2133238933e+000	-1.5953545135e+000
 1.6321412469e+000	 1.0670590191e+000	-6.3753970315e-001
 1.6211174551e+000	 1.0837334528e+000	-7.7718201795e-001
 1.6099119334e+000	 1.1003106682e+000	-9.0169986843e-001
 1.5985259337e+000	 1.1167877324e+000	-1.0118526937e+000
 1.5869607703e+000	 1.1331617332e+000	-1.1084305136e+000
 1.5752178197e+000	 1.1494297806e+000	-1.1922528808e+000
 1.5632985200e+000	 1.1655890088e+000	-1.2641677645e+000
 1.5512043702e+000	 1.1816365778e+000	-1.3250503653e+000
 1.5389369300e+000	 1.1975696746e+000	-1.3758018656e+000
 1.5264978189e+000	 1.2133855153e+000	-1.4173481158e+000
 1.5138887158e+000	 1.2290813465e+000	-1.4506382603e+000
 1.6530661346e+000	 1.0807392629e+000	-6.2241020129e-001
 1.6419010122e+000	 1.0976274714e+000	-7.5365996868e-001
 1.6305518300e+000	 1.1144172153e+000	-8.6795240490e-001
 1.6190198559e+000	 1.1311055239e+000	-9.6601062881e-001
 1.6073064212e+000	 1.1476894477e+000	-1.0485904474e+000
 1.5954129199e+000	 1.1641660598e+000	-1.1164793441e+000
 1.5833408087e+000	 1.1805324577e+000	-1.1704953941e+000
 1.5710916057e+000	 1.1967857647e+000	-1.2114861083e+000
 1.5586668906e+000	 1.2129231320e+000	-1.2403272086e+000
 1.5460683038e+000	 1.2289417399e+000	-1.2579213351e+000
 1.5332975455e+000	 1.2448387997e+000	-1.2651966905e+000
 1.6739910224e+000	 1.0944195068e+000	-5.9971503756e-001
 1.6626845693e+000	 1.1115214900e+000	-7.1941694656e-001
 1.6511917266e+000	 1.1285237623e+000	-8.2032995953e-001
 1.6395137781e+000	 1.1454233153e+000	-9.0314302070e-001
 1.6276520721e+000	 1.1622171622e+000	-9.6857989834e-001
 1.6156080202e+000	 1.1789023391e+000	-1.0173982065e+000
 1.6033830974e+000	 1.1954759065e+000	-1.0503883502e+000
 1.5909788412e+000	 1.2119349516e+000	-1.0683723959e+000
 1.5783968513e+000	 1.2282765894e+000	-1.0722028686e+000
 1.5656387886e+000	 1.2444979645e+000	-1.0627614791e+000
 1.5527063751e+000	 1.2605962528e+000	-1.3120582836e+000
 1.3586180783e+000	 1.1030217212e+000	-1.2899099611e+000
 1.3471512186e+000	 1.1169975803e+000	-1.3157473020e+000
 1.3355349719e+000	 1.1308608840e+000	-1.3509604249e+000
 1.3237710003e+000	 1.1446092516e+000	-1.3957379050e+000
 1.3118610162e+000	 1.1582403353e+000	-1.4502678324e+000
 1.2998067814e+000	 1.1717518215e+000	-1.5147371892e+000
 1.2876101065e+000	 1.1851414320e+000	-1.5893312140e+000
 1.2752728496e+000	 1.1984069255e+000	-1.6742327555e+000
 1.2627969161e+000	 1.2115460986e+000	-1.7696216174e+000
 1.2501842566e+000	 1.2245567870e+000	-1.8756738952e+000
 1.2374368671e+000	 1.2374368671e+000	-1.7910868016e+000
 1.3780269080e+000	 1.1187791744e+000	-1.4908709278e+000
 1.3663962360e+000	 1.1329546886e+000	-1.4729266295e+000
 1.3546140429e+000	 1.1470160395e+000	-1.4623480367e+000
 1.3426820146e+000	 1.1609608123e+000	-1.4594079801e+000
 1.3306018879e+000	 1.1747866258e+000	-1.4643810399e+000
 1.3183754497e+000	 1.1884911332e+000	-1.4775428223e+000
 1.3060045366e+000	 1.2020720239e+000	-1.4991692187e+000
 1.2934910332e+000	 1.2155270244e+000	-1.5295356523e+000
 1.2808368720e+000	 1.2288539000e+000	-1.5689163109e+000
 1.2680440317e+000	 1.2420504554e+000	-1.6175833701e+000
 1.2551145366e+000	 1.2551145366e+000	-1.7994808929e+000
 1.3974357376e+000	 1.1345366275e+000	-1.6353270259e+000
 1.3856412534e+000	 1.1489117969e+000	-1.5751808123e+000
 1.3736931140e+000	 1.1631711949e+000	-1.5204249991e+000
 1.3615930289e+000	 1.1773123730e+000	-1.4714166929e+000
 1.3493427595e+000	 1.1913329163e+000	-1.4285169757e+000
 1.3369441180e+000	 1.2052304449e+000	-1.3920900797e+000
 1.3243989666e+000	 1.2190026158e+000	-1.3625025419e+000
 1.3117092168e+000	 1.2326471234e+000	-1.3401223413e+000
 1.2988768279e+000	 1.2461617014e+000	-1.3253180201e+000
 1.2859038068e+000	 1.2595441238e+000	-1.5558299094e+000
 1.2727922062e+000	 1.2727922062e+000	-1.8828972479e+000
 1.4168445673e+000	 1.1502940807e+000	-1.7258178708e+000
 1.4048862708e+000	 1.1648689052e+000	-1.6249467573e+000
 1.3927721850e+000	 1.1793263504e+000	-1.5275231848e+000
 1.3805040432e+000	 1.1936639338e+000	-1.4339886135e+000
 1.3680836312e+000	 1.2078792068e+000	-1.3447906988e+000
 1.3555127863e+000	 1.2219697567e+000	-1.2603823627e+000
 1.3427933967e+000	 1.2359332077e+000	-1.1812208431e+000
 1.3299274003e+000	 1.2497672223e+000	-1.1077667209e+000
 1.3169167839e+000	 1.2634695028e+000	-1.3832938596e+000
 1.3037635819e+000	 1.2770377922e+000	-1.6652140856e+000
 1.2904698757e+000	 1.2904698757e+000	-1.9463942812e+000
 1.4362533970e+000	 1.1660515338e+000	-1.7647770463e+000
 1.4241312882e+000	 1.1808260135e+000	-1.6245603947e+000
 1.4118512560e+000	 1.1954815059e+000	-1.4858786479e+000
 1.3994150575e+000	 1.2100154945e+000	-1.3492577542e+000
 1.3868245028e+000	 1.2244254973e+000	-1.2152320706e+000
 1.3740814546e+000	 1.2387090684e+000	-1.0843433318e+000
 1.3611878268e+000	 1.2528637995e+000	-1.0313349024e+000
 1.3481455839e+000	 1.2668873212e+000	-1.2718271226e+000
 1.3349567398e+000	 1.2807773042e+000	-1.5126533162e+000
 1.3216233570e+000	 1.2945314606e+000	-1.7526336594e+000
 1.3081475452e+000	 1.3081475452e+000	-1.9905842959e+000
 1.4556622267e+000	 1.1818089870e+000	-1.7545391738e+000
 1.4433763056e+000	 1.1967831217e+000	-1.5762634094e+000
 1.4309303270e+000	 1.2116366614e+000	-1.3976380127e+000
 1.4183260718e+000	 1.2263670552e+000	-1.2192736070e+000
 1.4055653745e+000	 1.2409717878e+000	-1.0417914350e+000
 1.3926501229e+000	 1.2554483801e+000	-1.0084706043e+000
 1.3795822569e+000	 1.2697943914e+000	-1.2118458631e+000
 1.3663637675e+000	 1.2840074202e+000	-1.4154599055e+000
 1.3529966958e+000	 1.2980851056e+000	-1.6181449454e+000
 1.3394831321e+000	 1.3120251289e+000	-1.8187277334e+000
 1.3258252148e+000	 1.3258252148e+000	-2.0160319087e+000
 1.4750710564e+000	 1.1975664402e+000	-1.6973464226e+000
 1.4626213230e+000	 1.2127402300e+000	-1.4822094416e+000
 1.4500093981e+000	 1.2277918169e+000	-1.2648643564e+000
 1.4372370861e+000	 1.2427186160e+000	-1.0460067041e+000
 1.4243062462e+000	 1.2575180783e+000	-1.0242970753e+000
 1.4112187912e+000	 1.2721876919e+000	-1.1942248478e+000
 1.3979766870e+000	 1.2867249833e+000	-1.3643287402e+000
 1.3845819510e+000	 1.3011275191e+000	-1.5334508731e+000
 1.3710366517e+000	 1.3153929070e+000	-1.7004263659e+000
 1.3573429072e+000	 1.3295187973e+000	-1.8640857141e+000
 1.3435028843e+000	 1.3435028843e+000	-2.0232571868e+000
 1.4944798861e+000	 1.2133238933e+000	-1.5953545135e+000
 1.4818663404e+000	 1.2286973383e+000	-1.3444698040e+000
 1.4690884691e+000	 1.2439469724e+000	-1.0895426348e+000
 1.4561481004e+000	 1.2590701767e+000	-1.0703419920e+000
 1.4430471178e+000	 1.2740643688e+000	-1.2102960676e+000
 1.4297874596e+000	 1.2889270036e+000	-1.3504032432e+000
 1.4163711171e+000	 1.3036555752e+000	-1.4895136665e+000
 1.4028001346e+000	 1.3182476180e+000	-1.6264688320e+000
 1.3890766077e+000	 1.3327007084e+000	-1.7601039833e+000
 1.3752026823e+000	 1.3470124657e+000	-1.8892505392e+000
 1.3611805538e+000	 1.3611805538e+000	-2.0127385407e+000
 1.5138887158e+000	 1.2290813465e+000	-1.4506382603e+000
 1.5011113578e+000	 1.2446544466e+000	-1.1650387593e+000
 1.4881675401e+000	 1.2601021278e+000	-1.1385986762e+000
 1.4750591147e+000	 1.2754217375e+000	-1.2518489267e+000
 1.4617879895e+000	 1.2906106593e+000	-1.3652756217e+000
 1.4483561279e+000	 1.3056663153e+000	-1.4777353222e+000
 1.4347655472e+000	 1.3205861671e+000	-1.5880741645e+000
 1.4210183182e+000	 1.3353677170e+000	-1.6951302847e+000
 1.4071165636e+000	 1.3500085098e+000	-1.7977362733e+000
 1.3930624574e+000	 1.3645061341e+000	-1.8947216565e+000
 1.3788582233e+000	 1.3788582233e+000	-1.9849153948e+000
 1.5332975455e+000	 1.2448387997e+000	-1.2651966905e+000
 1.5203563752e+000	 1.2606115549e+000	-1.2215274854e+000
 1.5072466111e+000	 1.2762572833e+000	-1.3111317792e+000
 1.4939701289e+000	 1.2917732982e+000	-1.4009885263e+000
 1.4805288611e+000	 1.3071569498e+000	-1.4899593673e+000
 1.4669247962e+000	 1.3224056271e+000	-1.5768936213e+000
 1.4531599773e+000	 1.3375167590e+000	-1.6606307299e+000
 1.4392365017e+000	 1.3524878159e+000	-1.7400027399e+000
 1.4251565195e+000	 1.3673163112e+000	-1.8138368154e+000
 1.4109222325e+000	 1.3819998025e+000	-1.8809577763e+000
 1.3965358929e+000	 1.3965358929e+000	-1.9401906543e+000
 1.5527063751e+000	 1.2605962528e+000	-1.3120582836e+000
 1.5396013926e+000	 1.2765686632e+000	-1.3808546066e+000
 1.5263256822e+000	 1.2924124388e+000	-1.4500379133e+000
 1.5128811432e+000	 1.3081248589e+000	-1.5184738826e+000
 1.4992697328e+000	 1.3237032403e+000	-1.5850138449e+000
 1.4854934645e+000	 1.3391449388e+000	-1.6484972445e+000
 1.4715544074e+000	 1.3544473509e+000	-1.7077541455e+000
 1.4574546853e+000	 1.3696079148e+000	-1.7616077751e+000
 1.4431964755e+000	 1.3846241126e+000	-1.8088770984e+000
 1.4287820076e+000	 1.3994934709e+000	-1.8483794173e+000
 1.4142135624e+000	 1.4142135624e+000	-1.8789329885e+000
 1.2374368671e+000	 1.2374368671e+000	-1.7910868016e+000
 1.2245567870e+000	 1.2501842566e+000	-1.5861571592e+000
 1.2115460986e+000	 1.2627969161e+000	-1.6744041045e+000
 1.1984069255e+000	 1.2752728496e+000	-1.7581937991e+000
 1.1851414320e+000	 1.2876101065e+000	-1.8370191608e+000
 1.1717518215e+000	 1.2998067814e+000	-1.9103754026e+000
 1.1582403353e+000	 1.3118610162e+000	-1.9777605024e+000
 1.1446092516e+000	 1.3237710003e+000	-2.0386756727e+000
 1.1308608840e+000	 1.3355349719e+000	-2.0926258292e+000
 1.1169975803e+000	 1.3471512186e+000	-2.1391200589e+000
 1.1030217212e+000	 1.3586180783e+000	-2.1776720853e+000
 1.2551145366e+000	 1.2551145366e+000	-1.7994808929e+000
 1.2420504554e+000	 1.2680440317e+000	-1.9132487955e+000
 1.2288539000e+000	 1.2808368720e+000	-1.9408162887e+000
 1.2155270244e+000	 1.2934910332e+000	-1.9648853720e+000
 1.2020720239e+000	 1.3060045366e+000	-1.9850973907e+000
 1.1884911332e+000	 1.3183754497e+000	-2.0010945785e+000
 1.1747866258e+000	 1.3306018879e+000	-2.0125203730e+000
 1.1609608123e+000	 1.3426820146e+000	-2.0190197344e+000
 1.1470160395e+000	 1.3546140429e+000	-2.0202394672e+000
 1.1329546886e+000	 1.3663962360e+000	-2.0158285421e+000
 1.1187791744e+000	 1.3780269080e+000	-2.0054384205e+000
 1.2727922062e+000	 1.2727922062e+000	-1.8828972479e+000
 1.2595441238e+000	 1.2859038068e+000	-2.0739549783e+000
 1.2461617014e+000	 1.2988768279e+000	-2.2049433265e+000
 1.2326471234e+000	 1.3117092168e+000	-2.1748630894e+000
 1.2190026158e+000	 1.3243989666e+000	-2.1419995789e+000
 1.2052304449e+000	 1.3369441180e+000	-2.1061395130e+000
 1.1913329163e+000	 1.3493427595e+000	-2.0670692739e+000
 1.1773123730e+000	 1.3615930289e+000	-2.0245750777e+000
 1.1631711949e+000	 1.3736931140e+000	-1.9784431498e+000
 1.1489117969e+000	 1.3856412534e+000	-1.9284599045e+000
 1.1345366275e+000	 1.3974357376e+000	-1.8744121296e+000
 1.2904698757e+000	 1.2904698757e+000	-1.9463942812e+000
 1.2770377922e+000	 1.3037635819e+000	-2.0901821593e+000
 1.2634695028e+000	 1.3169167839e+000	-2.2391152457e+000
 1.2497672223e+000	 1.3299274003e+000	-2.3880592616e+000
 1.2359332077e+000	 1.3427933967e+000	-2.3074125639e+000
 1.2219697567e+000	 1.3555127863e+000	-2.2249533183e+000
 1.2078792068e+000	 1.3680836312e+000	-2.1406084542e+000
 1.1936639338e+000	 1.3805040432e+000	-2.0543030676e+000
 1.1793263504e+000	 1.3927721850e+000	-1.9659604524e+000
 1.1648689052e+000	 1.4048862708e+000	-1.8755021391e+000
 1.1502940807e+000	 1.4168445673e+000	-1.7828479420e+000
 1.3081475452e+000	 1.3081475452e+000	-1.9905842959e+000
 1.2945314606e+000	 1.3216233570e+000	-2.0928760316e+000
 1.2807773042e+000	 1.3349567398e+000	-2.2012243528e+000
 1.2668873212e+000	 1.3481455839e+000	-2.3145376821e+000
 1.2528637995e+000	 1.3611878268e+000	-2.4317202723e+000
 1.2387090684e+000	 1.3740814546e+000	-2.3569943436e+000
 1.2244254973e+000	 1.3868245028e+000	-2.2323674141e+000
 1.2100154945e+000	 1.3994150575e+000	-2.1072062361e+000
 1.1954815059e+000	 1.4118512560e+000	-1.9815689280e+000
 1.1808260135e+000	 1.4241312882e+000	-1.8555099168e+000
 1.1660515338e+000	 1.4362533970e+000	-1.7290798488e+000
 1.3258252148e+000	 1.3258252148e+000	-2.0160319087e+000
 1.3120251289e+000	 1.3394831321e+000	-2.0824024558e+000
 1.2980851056e+000	 1.3529966958e+000	-2.1557183029e+000
 1.2840074202e+000	 1.3663637675e+000	-2.2349660041e+000
 1.2697943914e+000	 1.3795822569e+000	-2.3191268054e+000
 1.2554483801e+000	 1.3926501229e+000	-2.4071788737e+000
 1.2409717878e+000	 1.4055653745e+000	-2.3416020211e+000
 1.2263670552e+000	 1.4183260718e+000	-2.1823255370e+000
 1.2116366614e+000	 1.4309303270e+000	-2.0240965088e+000
 1.1967831217e+000	 1.4433763056e+000	-1.8671001415e+000
 1.1818089870e+000	 1.4556622267e+000	-1.7115158188e+000
 1.3435028843e+000	 1.3435028843e+000	-2.0232571868e+000
 1.3295187973e+000	 1.3573429072e+000	-2.0590944381e+000
 1.3153929070e+000	 1.3710366517e+000	-2.1027442089e+000
 1.3011275191e+000	 1.3845819510e+000	-2.1532669042e+000
 1.2867249833e+000	 1.3979766870e+000	-2.2097164989e+000
 1.2721876919e+000	 1.4112187912e+000	-2.2711427385e+000
 1.2575180783e+000	 1.4243062462e+000	-2.3365933421e+000
 1.2427186160e+000	 1.4372370861e+000	-2.2787378186e+000
 1.2277918169e+000	 1.4500093981e+000	-2.0924181918e+000
 1.2127402300e+000	 1.4626213230e+000	-1.9089478554e+000
 1.1975664402e+000	 1.4750710564e+000	-1.7286329315e+000
 1.3611805538e+000	 1.3611805538e+000	-2.0127385407e+000
 1.3470124657e+000	 1.3752026823e+000	-2.0232542635e+000
 1.3327007084e+000	 1.3890766077e+000	-2.0424293437e+000
 1.3182476180e+000	 1.4028001346e+000	-2.0693938179e+000
 1.3036555752e+000	 1.4163711171e+000	-2.1032701866e+000
 1.2889270036e+000	 1.4297874596e+000	-2.1431755913e+000
 1.2740643688e+000	 1.4430471178e+000	-2.1882239972e+000
 1.2590701767e+000	 1.4561481004e+000	-2.2375283727e+000
 1.2439469724e+000	 1.4690884691e+000	-2.1854529823e+000
 1.2286973383e+000	 1.4818663404e+000	-1.9797824644e+000
 1.2133238933e+000	 1.4944798861e+000	-1.7789728896e+000
 1.3788582233e+000	 1.3788582233e+000	-1.9849153948e+000
 1.3645061341e+000	 1.3930624574e+000	-1.9751554651e+000
 1.3500085098e+000	 1.4071165636e+000	-1.9748824115e+000
 1.3353677170e+000	 1.4210183182e+000	-1.9832917397e+000
 1.3205861671e+000	 1.4347655472e+000	-1.9995703278e+000
 1.3056663153e+000	 1.4483561279e+000	-2.0228985864e+000
 1.2906106593e+000	 1.4617879895e+000	-2.0524526246e+000
 1.2754217375e+000	 1.4750591147e+000	-2.0874064153e+000
 1.2601021278e+000	 1.4881675401e+000	-2.1269339547e+000
 1.2446544466e+000	 1.5011113578e+000	-2.0783842527e+000
 1.2290813465e+000	 1.5138887158e+000	-1.8611378762e+000
 1.3965358929e+000	 1.3965358929e+000	-1.9401906543e+000
 1.3819998025e+000	 1.4109222325e+000	-1.9150446438e+000
 1.3673163112e+000	 1.4251565195e+000	-1.9001947235e+000
 1.3524878159e+000	 1.4392365017e+000	-1.8948977572e+000
 1.3375167590e+000	 1.4531599773e+000	-1.8984009045e+000
 1.3224056271e+000	 1.4669247962e+000	-1.9099437683e+000
 1.3071569498e+000	 1.4805288611e+000	-1.9287605496e+000
 1.2917732982e+000	 1.4939701289e+000	-1.9540822036e+000
 1.2762572833e+000	 1.5072466111e+000	-1.9851385909e+000
 1.2606115549e+000	 1.5203563752e+000	-2.0211606186e+000
 1.2448387997e+000	 1.5332975455e+000	-1.9737867270e+000
 1.4142135624e+000	 1.4142135624e+000	-1.8789329885e+000
 1.3994934709e+000	 1.4287820076e+000	-1.8431431519e+000
 1.3846241126e+000	 1.4431964755e+000	-1.8184412845e+000
 1.3696079148e+000	 1.4574546853e+000	-1.8041415453e+000
 1.3544473509e+000	 1.4715544074e+000	-1.7995473261e+000
 1.3391449388e+000	 1.4854934645e+000	-1.8039533915e+000
 1.3237032403e+000	 1.4992697328e+000	-1.8166480280e+000
 1.3081248589e+000	 1.5128811432e+000	-1.8369151956e+000
 1.2924124388e+000	 1.5263256822e+000	-1.8640366763e+000
 1.2765686632e+000	 1.5396013926e+000	-1.8972942130e+000
 1.2605962528e+000	 1.5527063751e+000	-1.9359716338e+000
 1.1030217212e+000	 1.3586180783e+000	-2.1776720853e+000
 1.0889357189e+000	 1.3699339401e+000	-2.2064261905e+000
 1.0747420157e+000	 1.3810972449e+000	-2.2282117257e+000
 1.0604430826e+000	 1.3921064861e+000	-2.2437356825e+000
 1.0460414182e+000	 1.4029602102e+000	-2.2537048857e+000
 1.0315395467e+000	 1.4136570177e+000	-2.2588252194e+000
 1.0169400169e+000	 1.4241955631e+000	-2.2598008623e+000
 1.0022454009e+000	 1.4345745559e+000	-2.2573335353e+000
 9.8745829198e-001	 1.4447927608e+000	-2.2521217610e+000
 9.7258130376e-001	 1.4548489982e+000	-2.2448601374e+000
 9.5761706841e-001	 1.4647421446e+000	-2.2362386264e+000
 1.1187791744e+000	 1.3780269080e+000	-2.0054384205e+000
 1.1044919435e+000	 1.3895044249e+000	-2.0360557492e+000
 1.0900954730e+000	 1.4008272055e+000	-2.0608131925e+000
 1.0755922695e+000	 1.4119937216e+000	-2.0803941755e+000
 1.0609848670e+000	 1.4230024989e+000	-2.0954810008e+000
 1.0462758259e+000	 1.4338521179e+000	-2.1067541036e+000
 1.0314677315e+000	 1.4445412140e+000	-2.1148913167e+000
 1.0165631923e+000	 1.4550684781e+000	-2.1205671500e+000
 1.0015648390e+000	 1.4654326574e+000	-2.1244520818e+000
 9.8647532238e-001	 1.4756325553e+000	-2.1272118663e+000
 9.7129731225e-001	 1.4856670324e+000	-2.1295068567e+000
 1.1345366275e+000	 1.3974357376e+000	-1.8744121296e+000
 1.1200481680e+000	 1.4090749098e+000	-1.9049468448e+000
 1.1054489304e+000	 1.4205571661e+000	-1.9307106695e+000
 1.0907414564e+000	 1.4318809571e+000	-1.9523645129e+000
 1.0759283158e+000	 1.4430447877e+000	-1.9705672097e+000
 1.0610121051e+000	 1.4540472182e+000	-1.9859748026e+000
 1.0459954460e+000	 1.4648868649e+000	-1.9992398365e+000
 1.0308809838e+000	 1.4755624003e+000	-2.0110106681e+000
 1.0156713860e+000	 1.4860725539e+000	-2.0219307893e+000
 1.0003693410e+000	 1.4964161124e+000	-2.0326381666e+000
 9.8497755608e-001	 1.5065919202e+000	-2.0437645980e+000
 1.1502940807e+000	 1.4168445673e+000	-1.7828479420e+000
 1.1356043926e+000	 1.4286453946e+000	-1.8114184239e+000
 1.1208023878e+000	 1.4402871268e+000	-1.8362884849e+000
 1.1058906433e+000	 1.4517681926e+000	-1.8580975368e+000
 1.0908717647e+000	 1.4630870764e+000	-1.8774819675e+000
 1.0757483844e+000	 1.4742423185e+000	-1.8950744493e+000
 1.0605231605e+000	 1.4852325158e+000	-1.9115032630e+000
 1.0451987752e+000	 1.4960563226e+000	-1.9273916351e+000
 1.0297779331e+000	 1.5067124505e+000	-1.9433570929e+000
 1.0142633596e+000	 1.5171996695e+000	-1.9600108353e+000
 9.9865779992e-001	 1.5275168080e+000	-1.9779571220e+000
 1.1660515338e+000	 1.4362533970e+000	-1.7290798488e+000
 1.1511606171e+000	 1.4482158795e+000	-1.7538652075e+000
 1.1361558451e+000	 1.4600170874e+000	-1.7760032000e+000
 1.1210398302e+000	 1.4716554281e+000	-1.7961127287e+000
 1.1058152135e+000	 1.4831293651e+000	-1.8148087238e+000
 1.0904846636e+000	 1.4944374187e+000	-1.8327014786e+000
 1.0750508751e+000	 1.5055781667e+000	-1.8503959997e+000
 1.0595165667e+000	 1.5165502448e+000	-1.8684913739e+000
 1.0438844801e+000	 1.5273523471e+000	-1.8875801520e+000
 1.0281573783e+000	 1.5379832267e+000	-1.9082477507e+000
 1.0123380438e+000	 1.5484416958e+000	-1.9310718741e+000
 1.1818089870e+000	 1.4556622267e+000	-1.7115158188e+000
 1.1667168417e+000	 1.4677863643e+000	-1.7307526392e+000
 1.1515093025e+000	 1.4797470481e+000	-1.7483787934e+000
 1.1361890171e+000	 1.4915426636e+000	-1.7649936327e+000
 1.1207586623e+000	 1.5031716538e+000	-1.7811915901e+000
 1.1052209428e+000	 1.5146325190e+000	-1.7975615398e+000
 1.0895785896e+000	 1.5259238176e+000	-1.8146861746e+000
 1.0738343581e+000	 1.5370441670e+000	-1.8331413997e+000
 1.0579910271e+000	 1.5479922437e+000	-1.8534957457e+000
 1.0420513969e+000	 1.5587667838e+000	-1.8763098007e+000
 1.0260182876e+000	 1.5693665835e+000	-1.9021356621e+000
 1.1975664402e+000	 1.4750710564e+000	-1.7286329315e+000
 1.1822730662e+000	 1.4873568492e+000	-1.7406122327e+000
 1.1668627599e+000	 1.4994770087e+000	-1.7520022254e+000
 1.1513382040e+000	 1.5114298991e+000	-1.7633836415e+000
 1.1357021112e+000	 1.5232139425e+000	-1.7753313484e+000
 1.1199572221e+000	 1.5348276192e+000	-1.7884137333e+000
 1.1041063041e+000	 1.5462694685e+000	-1.8031921055e+000
 1.0881521496e+000	 1.5575380892e+000	-1.8202201176e+000
 1.0720975742e+000	 1.5686321403e+000	-1.8400432062e+000
 1.0559454155e+000	 1.5795503409e+000	-1.8631980528e+000
 1.0396985314e+000	 1.5902914713e+000	-1.8902120666e+000
 1.2133238933e+000	 1.4944798861e+000	-1.7789728896e+000
 1.1978292908e+000	 1.5069273341e+000	-1.7820372813e+000
 1.1822162172e+000	 1.5192069693e+000	-1.7855193488e+000
 1.1664873909e+000	 1.5313171347e+000	-1.7899821099e+000
 1.1506455600e+000	 1.5432562312e+000	-1.7959817718e+000
 1.1346935013e+000	 1.5550227194e+000	-1.8040671393e+000
 1.1186340186e+000	 1.5666151194e+000	-1.8147790414e+000
 1.1024699410e+000	 1.5780320114e+000	-1.8286497784e+000
 1.0862041212e+000	 1.5892720368e+000	-1.8462025902e+000
 1.0698394341e+000	 1.6003338980e+000	-1.8679511452e+000
 1.0533787753e+000	 1.6112163591e+000	-1.8943990529e+000
 1.2290813465e+000	 1.5138887158e+000	-1.8611378762e+000
 1.2133855153e+000	 1.5264978189e+000	-1.8536788977e+000
 1.1975696746e+000	 1.5389369300e+000	-1.8476311333e+000
 1.1816365778e+000	 1.5512043702e+000	-1.8435407673e+000
 1.1655890088e+000	 1.5632985200e+000	-1.8419462272e+000
 1.1494297806e+000	 1.5752178197e+000	-1.8433776141e+000
 1.1331617332e+000	 1.5869607703e+000	-1.8483561534e+000
 1.1167877324e+000	 1.5985259337e+000	-1.8573936673e+000
 1.1003106682e+000	 1.6099119334e+000	-1.8709920686e+000
 1.0837334528e+000	 1.6211174551e+000	-1.8896428786e+000
 1.0670590191e+000	 1.6321412469e+000	-1.9138267673e+000
 1.2448387997e+000	 1.5332975455e+000	-1.9737867270e+000
 1.2289417399e+000	 1.5460683038e+000	-1.9542423547e+000
 1.2129231320e+000	 1.5586668906e+000	-1.9370901773e+000
 1.1967857647e+000	 1.5710916057e+000	-1.9228604032e+000
 1.1805324577e+000	 1.5833408087e+000	-1.9120745366e+000
 1.1641660598e+000	 1.5954129199e+000	-1.9052448296e+000
 1.1476894477e+000	 1.6073064212e+000	-1.9028737557e+000
 1.1311055239e+000	 1.6190198559e+000	-1.9054535071e+000
 1.1144172153e+000	 1.6305518300e+000	-1.9134655143e+000
 1.0976274714e+000	 1.6419010122e+000	-1.9273799905e+000
 1.0807392629e+000	 1.6530661346e+000	-1.9476554998e+000
 1.2605962528e+000	 1.5527063751e+000	-1.9359716338e+000
 1.2444979645e+000	 1.5656387886e+000	-2.0824837000e+000
 1.2282765894e+000	 1.5783968513e+000	-2.0526974809e+000
 1.2119349516e+000	 1.5909788412e+000	-2.0267878007e+000
 1.1954759065e+000	 1.6033830974e+000	-2.0052600739e+000
 1.1789023391e+000	 1.6156080202e+000	-1.9886095347e+000
 1.1622171622e+000	 1.6276520721e+000	-1.9773207333e+000
 1.1454233153e+000	 1.6395137781e+000	-1.9718670560e+000
 1.1285237623e+000	 1.6511917266e+000	-1.9727102706e+000
 1.1115214900e+000	 1.6626845693e+000	-1.9803000965e+000
 1.0944195068e+000	 1.6739910224e+000	-1.9950738004e+000
 9.5761706841e-001	 1.4647421446e+000	-2.2362386264e+000
 9.4256823526e-001	 1.4744711329e+000	-2.1816606720e+000
 9.2743746930e-001	 1.4840349526e+000	-2.1281457064e+000
 9.1222744964e-001	 1.4934326500e+000	-2.0760054318e+000
 8.9694086807e-001	 1.5026633286e+000	-2.0255460850e+000
 8.8158042754e-001	 1.5117261490e+000	-1.9770681811e+000
 8.6614884069e-001	 1.5206203292e+000	-1.9308662702e+000
 8.5064882832e-001	 1.5293451444e+000	-1.8872287098e+000
 8.3508311794e-001	 1.5378999272e+000	-1.8464374498e+000
 8.1945444228e-001	 1.5462840674e+000	-1.8087678327e+000
 8.0376553783e-001	 1.5544970119e+000	-1.7744884081e+000
 9.7129731225e-001	 1.4856670324e+000	-2.1295068567e+000
 9.5603349577e-001	 1.4955350063e+000	-2.0716296636e+000
 9.4068657601e-001	 1.5052354519e+000	-2.0147173709e+000
 9.2525927035e-001	 1.5147674021e+000	-1.9591387687e+000
 9.0975430904e-001	 1.5241299476e+000	-1.9052567947e+000
 8.9417443366e-001	 1.5333222369e+000	-1.8534282212e+000
 8.7852239556e-001	 1.5423434768e+000	-1.8040033583e+000
 8.6280095444e-001	 1.5511929322e+000	-1.7573257718e+000
 8.4701287677e-001	 1.5598699262e+000	-1.7137320174e+000
 8.3116093432e-001	 1.5683738397e+000	-1.6735513902e+000
 8.1524790266e-001	 1.5767041121e+000	-1.6371056900e+000
 9.8497755608e-001	 1.5065919202e+000	-2.0437645980e+000
 9.6949875628e-001	 1.5165988796e+000	-1.9843547141e+000
 9.5393568271e-001	 1.5264359512e+000	-1.9258252737e+000
 9.3829109106e-001	 1.5361021543e+000	-1.8686012855e+000
 9.2256775002e-001	 1.5455965666e+000	-1.8131015091e+000
 9.0676843977e-001	 1.5549183247e+000	-1.7597380880e+000
 8.9089595043e-001	 1.5640666244e+000	-1.7089161984e+000
 8.7495308057e-001	 1.5730407200e+000	-1.6610337153e+000
 8.5894263560e-001	 1.5818399251e+000	-1.6164808953e+000
 8.4286742635e-001	 1.5904636121e+000	-1.5756400766e+000
 8.2673026749e-001	 1.5989112123e+000	-1.5388853964e+000
 9.9865779992e-001	 1.5275168080e+000	-1.9779571220e+000
 9.8296401678e-001	 1.5376627529e+000	-1.9186967151e+000
 9.6718478942e-001	 1.5476364506e+000	-1.8602458028e+000
 9.5132291177e-001	 1.5574369064e+000	-1.8030847829e+000
 9.3538119099e-001	 1.5670631856e+000	-1.7476873988e+000
 9.1936244588e-001	 1.5765144126e+000	-1.6945203187e+000
 9.0326950530e-001	 1.5857897719e+000	-1.6440427314e+000
 8.8710520669e-001	 1.5948885078e+000	-1.5967059605e+000
 8.7087239443e-001	 1.6038099241e+000	-1.5529530978e+000
 8.5457391839e-001	 1.6125533845e+000	-1.5132186539e+000
 8.3821263232e-001	 1.6211183125e+000	-1.4779282295e+000
 1.0123380438e+000	 1.5484416958e+000	-1.9310718741e+000
 9.9642927729e-001	 1.5587266262e+000	-1.8735633665e+000
 9.8043389613e-001	 1.5688369499e+000	-1.8168068039e+000
 9.6435473249e-001	 1.5787716586e+000	-1.7613371822e+000
 9.4819463197e-001	 1.5885298045e+000	-1.7076824288e+000
 9.3195645199e-001	 1.5981105004e+000	-1.6563629278e+000
 9.1564306017e-001	 1.6075129195e+000	-1.6078910640e+000
 8.9925733281e-001	 1.6167362956e+000	-1.5627707871e+000
 8.8280215326e-001	 1.6257799230e+000	-1.5214971946e+000
 8.6628041042e-001	 1.6346431569e+000	-1.4845561357e+000
 8.4969499715e-001	 1.6433254126e+000	-1.4524238355e+000
 1.0260182876e+000	 1.5693665835e+000	-1.9021356621e+000
 1.0098945378e+000	 1.5797904996e+000	-1.8479060553e+000
 9.9368300283e-001	 1.5900374492e+000	-1.7943841495e+000
 9.7738655320e-001	 1.6001064107e+000	-1.7421587839e+000
 9.6100807294e-001	 1.6099964235e+000	-1.6918113054e+000
 9.4455045810e-001	 1.6197065883e+000	-1.6439150412e+000
 9.2801661504e-001	 1.6292360671e+000	-1.5990347917e+000
 9.1140945893e-001	 1.6385840833e+000	-1.5577263440e+000
 8.9473191209e-001	 1.6477499220e+000	-1.5205360073e+000
 8.7798690246e-001	 1.6567329293e+000	-1.4880001696e+000
 8.6117736198e-001	 1.6655325128e+000	-1.4606448759e+000
 1.0396985314e+000	 1.5902914713e+000	-1.8902120666e+000
 1.0233597983e+000	 1.6008543729e+000	-1.8407169820e+000
 1.0069321095e+000	 1.6112379485e+000	-1.7918985794e+000
 9.9041837391e-001	 1.6214411629e+000	-1.7443988210e+000
 9.7382151392e-001	 1.6314630425e+000	-1.6988517430e+000
 9.5714446421e-001	 1.6413026761e+000	-1.6558828764e+000
 9.4039016991e-001	 1.6509592146e+000	-1.6161086894e+000
 9.2356158505e-001	 1.6604318711e+000	-1.5801360523e+000
 9.0666167092e-001	 1.6697199210e+000	-1.5485617244e+000
 8.8969339449e-001	 1.6788227017e+000	-1.5219718645e+000
 8.7265972680e-001	 1.6877396130e+000	-1.5009415654e+000
 1.0533787753e+000	 1.6112163591e+000	-1.8943990529e+000
 1.0368250588e+000	 1.6219182462e+000	-1.8510265101e+000
 1.0201812162e+000	 1.6324384478e+000	-1.8083127875e+000
 1.0034501946e+000	 1.6427759150e+000	-1.7669522824e+000
 9.8663495489e-001	 1.6529296615e+000	-1.7276310223e+000
 9.6973847032e-001	 1.6628987640e+000	-1.6910260346e+000
 9.5276372478e-001	 1.6726823622e+000	-1.6578047398e+000
 9.3571371117e-001	 1.6822796589e+000	-1.6286243674e+000
 9.1859142975e-001	 1.6916899199e+000	-1.6041313964e+000
 9.0139988653e-001	 1.7009124741e+000	-1.5849610201e+000
 8.8414209163e-001	 1.7099467131e+000	-1.5717366364e+000
 1.0670590191e+000	 1.6321412469e+000	-1.9138267673e+000
 1.0502903193e+000	 1.6429821195e+000	-1.8779007196e+000
 1.0334303230e+000	 1.6536389472e+000	-1.8426287322e+000
 1.0164820153e+000	 1.6641106671e+000	-1.8087569796e+000
 9.9944839587e-001	 1.6743962805e+000	-1.7770228129e+000
 9.8233247643e-001	 1.6844948518e+000	-1.7481540792e+000
 9.6513727965e-001	 1.6944055097e+000	-1.7228684653e+000
 9.4786583729e-001	 1.7041274467e+000	-1.7018728660e+000
 9.3052118858e-001	 1.7136599189e+000	-1.6858627788e+000
 9.1310637856e-001	 1.7230022465e+000	-1.6755217236e+000
 8.9562445646e-001	 1.7321538133e+000	-1.6715206900e+000
 1.0807392629e+000	 1.6530661346e+000	-1.9476554998e+000
 1.0637555798e+000	 1.6640459929e+000	-1.9204391470e+000
 1.0466794297e+000	 1.6748394465e+000	-1.8938851511e+000
 1.0295138360e+000	 1.6854454193e+000	-1.8687908359e+000
 1.0122618368e+000	 1.6958628994e+000	-1.8459442373e+000
 9.9492648253e-001	 1.7060909396e+000	-1.8261233734e+000
 9.7751083451e-001	 1.7161286573e+000	-1.8100955398e+000
 9.6001796341e-001	 1.7259752344e+000	-1.7986166312e+000
 9.4245094741e-001	 1.7356299178e+000	-1.7924304896e+000
 9.2481287059e-001	 1.7450920189e+000	-1.7922682812e+000
 9.0710682128e-001	 1.7543609135e+000	-1.7988479008e+000
 1.0944195068e+000	 1.6739910224e+000	-1.9950738004e+000
 1.0772208403e+000	 1.6851098662e+000	-1.9777726936e+000
 1.0599285364e+000	 1.6960399458e+000	-1.9611552629e+000
 1.0425456567e+000	 1.7067801714e+000	-1.9460693801e+000
 1.0250752778e+000	 1.7173295184e+000	-1.9333531550e+000
 1.0075204886e+000	 1.7276870275e+000	-1.9238341552e+000
 9.8988438938e-001	 1.7378518049e+000	-1.9183286546e+000
 9.7217008953e-001	 1.7478230222e+000	-1.9176409079e+000
 9.5438070623e-001	 1.7575999168e+000	-1.9225624551e+000
 9.3651936262e-001	 1.7671817913e+000	-1.9338714541e+000
 9.1858918611e-001	 1.7765680137e+000	-1.9523320435e+000
 8.0376553783e-001	 1.5544970119e+000	-1.7744884081e+000
 7.8801914338e-001	 1.5625382650e+000	-1.7959071392e+000
 7.7221799855e-001	 1.5704073875e+000	-1.8077292885e+000
 7.5636484241e-001	 1.5781039969e+000	-1.8103150673e+000
 7.4046241198e-001	 1.5856277673e+000	-1.8040290222e+000
 7.2451344093e-001	 1.5929784285e+000	-1.7892396559e+000
 7.0852065808e-001	 1.6001557665e+000	-1.7663190500e+000
 6.9248678611e-001	 1.6071596221e+000	-1.7356424913e+000
 6.7641454021e-001	 1.6139898915e+000	-1.6975881012e+000
 6.6030662669e-001	 1.6206465249e+000	-1.6525364687e+000
 6.4416574173e-001	 1.6271295268e+000	-1.6008702874e+000
 8.1524790266e-001	 1.5767041121e+000	-1.6371056900e+000
 7.9927655972e-001	 1.5848602402e+000	-1.6570677301e+000
 7.8324968425e-001	 1.5928417787e+000	-1.6696193475e+000
 7.6717005444e-001	 1.6006483397e+000	-1.6750563741e+000
 7.5104044644e-001	 1.6082795925e+000	-1.6736777953e+000
 7.3486363294e-001	 1.6157352632e+000	-1.6657854526e+000
 7.1864238176e-001	 1.6230151346e+000	-1.6516837486e+000
 7.0237945449e-001	 1.6301190453e+000	-1.6316793570e+000
 6.8607760507e-001	 1.6370468899e+000	-1.6060809338e+000
 6.6973957850e-001	 1.6437986181e+000	-1.5751988344e+000
 6.5336810947e-001	 1.6503742344e+000	-1.5393448327e+000
 8.2673026749e-001	 1.5989112123e+000	-1.5388853964e+000
 8.1053397605e-001	 1.6071822154e+000	-1.5544429315e+000
 7.9428136994e-001	 1.6152761700e+000	-1.5647393819e+000
 7.7797526648e-001	 1.6231926825e+000	-1.5700077226e+000
 7.6161848090e-001	 1.6309314178e+000	-1.5704829054e+000
 7.4521382496e-001	 1.6384920979e+000	-1.5664016418e+000
 7.2876410545e-001	 1.6458745027e+000	-1.5580021908e+000
 7.1227212286e-001	 1.6530784685e+000	-1.5455241485e+000
 6.9574066993e-001	 1.6601038884e+000	-1.5292082427e+000
 6.7917253031e-001	 1.6669507113e+000	-1.5092961307e+000
 6.6257047722e-001	 1.6736189419e+000	-1.4860302011e+000
 8.3821263232e-001	 1.6211183125e+000	-1.4779282295e+000
 8.2179139239e-001	 1.6295041906e+000	-1.4862473132e+000
 8.0531305564e-001	 1.6377105612e+000	-1.4914198003e+000
 7.8878047852e-001	 1.6457370254e+000	-1.4936172674e+000
 7.7219651536e-001	 1.6535832430e+000	-1.4930120956e+000
 7.5556401697e-001	 1.6612489326e+000	-1.4897773338e+000
 7.3888582914e-001	 1.6687338708e+000	-1.4840865655e+000
 7.2216479124e-001	 1.6760378917e+000	-1.4761137798e+000
 7.0540373479e-001	 1.6831608868e+000	-1.4660332461e+000
 6.8860548212e-001	 1.6901028046e+000	-1.4540193925e+000
 6.7177284496e-001	 1.6968636494e+000	-1.4402466884e+000
 8.4969499715e-001	 1.6433254126e+000	-1.4524238355e+000
 8.3304880872e-001	 1.6518261659e+000	-1.4507783922e+000
 8.1634474134e-001	 1.6601449525e+000	-1.4480678625e+000
 7.9958569055e-001	 1.6682813682e+000	-1.4444038227e+000
 7.8277454982e-001	 1.6762350683e+000	-1.4398974857e+000
 7.6591420899e-001	 1.6840057673e+000	-1.4346596426e+000
 7.4900755283e-001	 1.6915932389e+000	-1.4288006083e+000
 7.3205745961e-001	 1.6989973148e+000	-1.4224301722e+000
 7.1506679966e-001	 1.7062178853e+000	-1.4156575519e+000
 6.9803843393e-001	 1.7132548978e+000	-1.4085913515e+000
 6.8097521270e-001	 1.7201083570e+000	-1.4013395235e+000
 8.6117736198e-001	 1.6655325128e+000	-1.4606448759e+000
 8.4430622506e-001	 1.6741481411e+000	-1.4464111029e+000
 8.2737642703e-001	 1.6825793437e+000	-1.4331625558e+000
 8.1039090259e-001	 1.6908257110e+000	-1.4209521517e+000
 7.9335258428e-001	 1.6988868935e+000	-1.4098312797e+000
 7.7626440100e-001	 1.7067626020e+000	-1.3998498195e+000
 7.5912927652e-001	 1.7144526070e+000	-1.3910561652e+000
 7.4195012799e-001	 1.7219567380e+000	-1.3834972540e+000
 7.2472986452e-001	 1.7292748837e+000	-1.3772185983e+000
 7.0747138575e-001	 1.7364069910e+000	-1.3722643229e+000
 6.9017758044e-001	 1.7433530645e+000	-1.3686772051e+000
 8.7265972680e-001	 1.6877396130e+000	-1.5009415654e+000
 8.5556364139e-001	 1.6964701163e+000	-1.4715927039e+000
 8.3840811273e-001	 1.7050137350e+000	-1.4452498765e+000
 8.2119611462e-001	 1.7133700538e+000	-1.4219086281e+000
 8.0393061874e-001	 1.7215387188e+000	-1.4015618132e+000
 7.8661459301e-001	 1.7295194367e+000	-1.3841996913e+000
 7.6925100021e-001	 1.7373119751e+000	-1.3698100271e+000
 7.5184279636e-001	 1.7449161612e+000	-1.3583781965e+000
 7.3439292938e-001	 1.7523318822e+000	-1.3498872966e+000
 7.1690433756e-001	 1.7595590842e+000	-1.3443182597e+000
 6.9937994818e-001	 1.7665977720e+000	-1.3416499716e+000
 8.8414209163e-001	 1.7099467131e+000	-1.5717366364e+000
 8.6682105773e-001	 1.7187920915e+000	-1.5248380812e+000
 8.4943979842e-001	 1.7274481262e+000	-1.4829384782e+000
 8.3200132666e-001	 1.7359143966e+000	-1.4459772350e+000
 8.1450865319e-001	 1.7441905440e+000	-1.4138899086e+000
 7.9696478503e-001	 1.7522762714e+000	-1.3866083762e+000
 7.7937272389e-001	 1.7601713431e+000	-1.3640610115e+000
 7.6173546473e-001	 1.7678755844e+000	-1.3461728663e+000
 7.4405599424e-001	 1.7753888806e+000	-1.3328658574e+000
 7.2633728937e-001	 1.7827111774e+000	-1.3240589574e+000
 7.0858231592e-001	 1.7898424795e+000	-1.3196683893e+000
 8.9562445646e-001	 1.7321538133e+000	-1.6715206900e+000
 8.7807847406e-001	 1.7411140667e+000	-1.6047254139e+000
 8.6047148411e-001	 1.7498825175e+000	-1.5448956558e+000
 8.4280653869e-001	 1.7584587394e+000	-1.4919158722e+000
 8.2508668765e-001	 1.7668423693e+000	-1.4456655101e+000
 8.0731497704e-001	 1.7750331061e+000	-1.4060192524e+000
 7.8949444758e-001	 1.7830307112e+000	-1.3728472687e+000
 7.7162813311e-001	 1.7908350075e+000	-1.3460154727e+000
 7.5371905910e-001	 1.7984458791e+000	-1.3253857846e+000
 7.3577024118e-001	 1.8058632706e+000	-1.3108163978e+000
 7.1778468366e-001	 1.8130871871e+000	-1.3021620491e+000
 9.0710682128e-001	 1.7543609135e+000	-1.7988479008e+000
 8.8933589040e-001	 1.7634360419e+000	-1.7098921674e+000
 8.7150316981e-001	 1.7723169087e+000	-1.6298436336e+000
 8.5361175073e-001	 1.7810030823e+000	-1.5585329439e+000
 8.3566472211e-001	 1.7894941945e+000	-1.4957845755e+000
 8.1766516906e-001	 1.7977899408e+000	-1.4414171565e+000
 7.9961617127e-001	 1.8058900793e+000	-1.3952437917e+000
 7.8152080148e-001	 1.8137944307e+000	-1.3570723939e+000
 7.6338212396e-001	 1.8215028775e+000	-1.3267060211e+000
 7.4520319299e-001	 1.8290153638e+000	-1.3039432181e+000
 7.2698705140e-001	 1.8363318946e+000	-1.2885783623e+000
 9.1858918611e-001	 1.7765680137e+000	-1.9523320435e+000
 9.0059330673e-001	 1.7857580172e+000	-1.8390313888e+000
 8.8253485550e-001	 1.7947513000e+000	-1.7365561325e+000
 8.6441696276e-001	 1.8035474251e+000	-1.6446842020e+000
 8.4624275656e-001	 1.8121460198e+000	-1.5631861994e+000
 8.2801536107e-001	 1.8205467755e+000	-1.4918257927e+000
 8.0973789495e-001	 1.8287494474e+000	-1.4303601145e+000
 7.9141346985e-001	 1.8367538539e+000	-1.3785401672e+000
 7.7304518882e-001	 1.8445598760e+000	-1.3361112340e+000
 7.5463614479e-001	 1.8521674571e+000	-1.3028132951e+000
 7.3618941913e-001	 1.8595766021e+000	-1.2783814473e+000
 6.4416574173e-001	 1.6271295268e+000	-1.6008702874e+000
 6.2799457010e-001	 1.6334389551e+000	-1.4099260109e+000
 6.1179578385e-001	 1.6395749202e+000	-1.3887838043e+000
 5.9557204113e-001	 1.6455375851e+000	-1.3946471958e+000
 5.7932598494e-001	 1.6513271642e+000	-1.3859109308e+000
 5.6306024200e-001	 1.6569439230e+000	-1.3638159116e+000
 5.4677742155e-001	 1.6623881771e+000	-1.3295503327e+000
 5.3048011422e-001	 1.6676602917e+000	-1.2842485819e+000
 5.1417089100e-001	 1.6727606807e+000	-1.2289902901e+000
 4.9785230211e-001	 1.6776898060e+000	-1.1647995277e+000
 4.8152687598e-001	 1.6824481768e+000	-1.0926441480e+000
 6.5336810947e-001	 1.6503742344e+000	-1.5393448327e+000
 6.3696592110e-001	 1.6567737973e+000	-1.3561247796e+000
 6.2053572362e-001	 1.6629974190e+000	-1.2172371529e+000
 6.0408021315e-001	 1.6690452648e+000	-1.2363750752e+000
 5.8760207045e-001	 1.6749175522e+000	-1.2423585225e+000
 5.7110395975e-001	 1.6806145504e+000	-1.2364588945e+000
 5.5458852757e-001	 1.6861365796e+000	-1.2198916280e+000
 5.3805840157e-001	 1.6914840101e+000	-1.1938150832e+000
 5.2151618944e-001	 1.6966572618e+000	-1.1593295856e+000
 5.0496447785e-001	 1.7016568033e+000	-1.1174766232e+000
 4.8840583136e-001	 1.7064831508e+000	-1.0692381945e+000
 6.6257047722e-001	 1.6736189419e+000	-1.4860302011e+000
 6.4593727211e-001	 1.6801086395e+000	-1.3091770806e+000
 6.2927566340e-001	 1.6864199179e+000	-1.1117251776e+000
 6.1258838517e-001	 1.6925529446e+000	-1.0790312868e+000
 5.9587815595e-001	 1.6985079403e+000	-1.0975208126e+000
 5.7914767750e-001	 1.7042851779e+000	-1.1056908088e+000
 5.6239963360e-001	 1.7098849821e+000	-1.1047862993e+000
 5.4563668892e-001	 1.7153077286e+000	-1.0959918144e+000
 5.2886148789e-001	 1.7205538430e+000	-1.0804304241e+000
 5.1207665360e-001	 1.7256238005e+000	-1.0591629342e+000
 4.9528478673e-001	 1.7305181247e+000	-1.0331872401e+000
 6.7177284496e-001	 1.6968636494e+000	-1.4402466884e+000
 6.5490862311e-001	 1.7034434817e+000	-1.2684561828e+000
 6.3801560317e-001	 1.7098424168e+000	-1.0762039525e+000
 6.2109655719e-001	 1.7160606244e+000	-9.2251429532e-001
 6.0415424145e-001	 1.7220983284e+000	-9.5130740440e-001
 5.8719139524e-001	 1.7279558054e+000	-9.7143362172e-001
 5.7021073962e-001	 1.7336333847e+000	-9.8416991821e-001
 5.5321497627e-001	 1.7391314470e+000	-9.9072920425e-001
 5.3620678633e-001	 1.7444504242e+000	-9.9225935468e-001
 5.1918882934e-001	 1.7495907977e+000	-9.8984240242e-001
 5.0216374210e-001	 1.7545530987e+000	-9.8449389860e-001
 6.8097521270e-001	 1.7201083570e+000	-1.4013395235e+000
 6.6387997412e-001	 1.7267783239e+000	-1.2333576537e+000
 6.4675554294e-001	 1.7332649156e+000	-1.0450648521e+000
 6.2960472920e-001	 1.7395683042e+000	-8.3668057482e-001
 6.1243032695e-001	 1.7456887164e+000	-8.0364238693e-001
 5.9523511299e-001	 1.7516264329e+000	-8.3362121609e-001
 5.7802184564e-001	 1.7573817872e+000	-8.5798741973e-001
 5.6079326361e-001	 1.7629551655e+000	-8.7798451236e-001
 5.4355208478e-001	 1.7683470053e+000	-8.9478724529e-001
 5.2630100509e-001	 1.7735577950e+000	-9.0950079809e-001
 5.0904269747e-001	 1.7785880727e+000	-9.2316014405e-001
 6.9017758044e-001	 1.7433530645e+000	-1.3686772051e+000
 6.7285132512e-001	 1.7501131661e+000	-1.2032978724e+000
 6.5549548271e-001	 1.7566874145e+000	-1.0177720125e+000
 6.3811290122e-001	 1.7630759840e+000	-8.1229688688e-001
 6.2070641246e-001	 1.7692791045e+000	-6.5446336933e-001
 6.0327883073e-001	 1.7752970603e+000	-6.9219859552e-001
 5.8583295167e-001	 1.7811301897e+000	-7.2619247796e-001
 5.6837155096e-001	 1.7867788839e+000	-7.5772137368e-001
 5.5089738322e-001	 1.7922435865e+000	-7.8798899489e-001
 5.3341318083e-001	 1.7975247922e+000	-8.1812559781e-001
 5.1592165284e-001	 1.8026230466e+000	-8.4918735327e-001
 6.9937994818e-001	 1.7665977720e+000	-1.3416499716e+000
 6.8182267612e-001	 1.7734480084e+000	-1.1777126608e+000
 6.6423542248e-001	 1.7801099133e+000	-9.9380672747e-001
 6.4662107324e-001	 1.7865836638e+000	-7.9010758672e-001
 6.2898249796e-001	 1.7928694926e+000	-5.6680609141e-001
 6.1132254848e-001	 1.7989676878e+000	-5.4712115295e-001
 5.9364405769e-001	 1.8048785923e+000	-5.8874693116e-001
 5.7594983831e-001	 1.8106026024e+000	-6.2990937921e-001
 5.5824268167e-001	 1.8161401676e+000	-6.7184326814e-001
 5.4052535658e-001	 1.8214917894e+000	-7.1570587236e-001
 5.2280060822e-001	 1.8266580206e+000	-7.6257634521e-001
 7.0858231592e-001	 1.7898424795e+000	-1.3196683893e+000
 6.9079402712e-001	 1.7967828506e+000	-1.1560560205e+000
 6.7297536225e-001	 1.8035324122e+000	-9.7266633510e-001
 6.5512924526e-001	 1.8100913436e+000	-7.6965322951e-001
 6.3725858345e-001	 1.8164598806e+000	-5.4718632473e-001
 6.1936626622e-001	 1.8226383153e+000	-3.9835399602e-001
 6.0145516371e-001	 1.8286269948e+000	-4.4562025157e-001
 5.8352812565e-001	 1.8344263209e+000	-4.9452368923e-001
 5.6558798011e-001	 1.8400367488e+000	-5.4633225093e-001
 5.4763753232e-001	 1.8454587867e+000	-6.0223218318e-001
 5.2967956359e-001	 1.8506929945e+000	-6.6332741714e-001
 7.1778468366e-001	 1.8130871871e+000	-1.3021620491e+000
 6.9976537812e-001	 1.8201176928e+000	-1.1377989679e+000
 6.8171530202e-001	 1.8269549111e+000	-9.5386318890e-001
 6.6363741727e-001	 1.8335990234e+000	-7.5048739859e-001
 6.4553466895e-001	 1.8400502687e+000	-5.2782027993e-001
 6.2740998396e-001	 1.8463089428e+000	-2.8602623932e-001
 6.0926626974e-001	 1.8523753973e+000	-2.9678905611e-001
 5.9110641300e-001	 1.8582500393e+000	-3.5154467623e-001
 5.7293327855e-001	 1.8639333299e+000	-4.1144142466e-001
 5.5474970807e-001	 1.8694257839e+000	-4.7769648680e-001
 5.3655851896e-001	 1.8747279685e+000	-5.5144037808e-001
 7.2698705140e-001	 1.8363318946e+000	-1.2885783623e+000
 7.0873672912e-001	 1.8434525350e+000	-1.1224284571e+000
 6.9045524179e-001	 1.8503774099e+000	-9.3692370754e-001
 6.7214558929e-001	 1.8571067031e+000	-7.3217588090e-001
 6.5381075445e-001	 1.8636406567e+000	-5.0831299793e-001
 6.3545370170e-001	 1.8699795702e+000	-2.6547907955e-001
 6.1707737576e-001	 1.8761237999e+000	-1.6538621790e-001
 5.9868470035e-001	 1.8820737578e+000	-3.4401583644e-001
 5.8027857699e-001	 1.8878299111e+000	-5.1982908775e-001
 5.6186188381e-001	 1.8933927811e+000	-6.9173831749e-001
 5.4343747433e-001	 1.8987629424e+000	-8.5875827763e-001
 7.3618941913e-001	 1.8595766021e+000	-1.2783814473e+000
 7.1770808012e-001	 1.8667873772e+000	-1.1094463840e+000
 6.9919518155e-001	 1.8737999088e+000	-9.2138749580e-001
 6.8065376130e-001	 1.8806143829e+000	-8.3481433820e-001
 6.6208683995e-001	 1.8872310448e+000	-7.4901254710e-001
 6.4349741945e-001	 1.8936501977e+000	-6.3756545631e-001
 6.2488848178e-001	 1.8998722024e+000	-5.0197930658e-001
 6.0626298769e-001	 1.9058974762e+000	-6.7789596941e-001
 5.8762387544e-001	 1.9117264922e+000	-8.4971885457e-001
 5.6897405956e-001	 1.9173597783e+000	-1.0162984135e+000
 5.5031642970e-001	 1.9227979164e+000	-1.1765924527e+000
 4.8152687598e-001	 1.6824481768e+000	-1.0926441480e+000
 4.6519711830e-001	 1.6870363485e+000	-1.0138868390e+000
 4.4886551095e-001	 1.6914549220e+000	-9.3477306952e-001
 4.3253451115e-001	 1.6957045429e+000	-8.5552218329e-001
 4.1620655053e-001	 1.6997859004e+000	-7.7629997667e-001
 3.9988403422e-001	 1.7036997268e+000	-6.9721923173e-001
 3.8356934007e-001	 1.7074467960e+000	-6.1834036160e-001
 3.6726481779e-001	 1.7110279231e+000	-5.3967216391e-001
 3.5097278822e-001	 1.7144439629e+000	-4.6117267761e-001
 3.3469554257e-001	 1.7176958094e+000	-3.8275013858e-001
 3.1843534172e-001	 1.7207843947e+000	-3.0426402903e-001
 4.8840583136e-001	 1.7064831508e+000	-1.0692381945e+000
 4.7184279141e-001	 1.7111368678e+000	-9.8972205441e-001
 4.5527787539e-001	 1.7156185637e+000	-9.1220908349e-001
 4.3871357559e-001	 1.7199288935e+000	-8.3692718278e-001
 4.2215235839e-001	 1.7240685561e+000	-7.6404678083e-001
 4.0559666328e-001	 1.7280382943e+000	-6.9368141521e-001
 3.8904890206e-001	 1.7318388931e+000	-6.2588843258e-001
 3.7251145804e-001	 1.7354711791e+000	-5.6066980285e-001
 3.5598668519e-001	 1.7389360195e+000	-4.9797304246e-001
 3.3947690746e-001	 1.7422343210e+000	-4.3769224188e-001
 3.2298441803e-001	 1.7453670289e+000	-3.7966919217e-001
 4.9528478673e-001	 1.7305181247e+000	-1.0331872401e+000
 4.7848846453e-001	 1.7352373870e+000	-9.5205880096e-001
 4.6169023983e-001	 1.7397822055e+000	-8.7537322651e-001
 4.4489264004e-001	 1.7441532441e+000	-8.0336815152e-001
 4.2809816625e-001	 1.7483512119e+000	-7.3621967965e-001
 4.1130929234e-001	 1.7523768619e+000	-6.7404301433e-001
 3.9452846406e-001	 1.7562309902e+000	-6.1689321454e-001
 3.7775809829e-001	 1.7599144352e+000	-5.6476607104e-001
 3.6100058217e-001	 1.7634280761e+000	-5.1759909755e-001
 3.4425827236e-001	 1.7667728326e+000	-4.7527263191e-001
 3.2753349434e-001	 1.7699496631e+000	-4.3761104152e-001
 5.0216374210e-001	 1.7545530987e+000	-9.8449389860e-001
 4.8513413765e-001	 1.7593379063e+000	-9.0089083935e-001
 4.6810260427e-001	 1.7639458472e+000	-8.2425256121e-001
 4.5107170448e-001	 1.7683775947e+000	-7.5482761592e-001
 4.3404397412e-001	 1.7726338676e+000	-6.9279882974e-001
 4.1702192139e-001	 1.7767154294e+000	-6.3828398439e-001
 4.0000802606e-001	 1.7806230873e+000	-5.9133662988e-001
 3.8300473855e-001	 1.7843576912e+000	-5.5194702396e-001
 3.6601447914e-001	 1.7879201327e+000	-5.2004319281e-001
 3.4903963725e-001	 1.7913113441e+000	-4.9549210750e-001
 3.3208257065e-001	 1.7945322974e+000	-4.7810097034e-001
 5.0904269747e-001	 1.7785880727e+000	-9.2316014405e-001
 4.9177981077e-001	 1.7834384256e+000	-8.3621040286e-001
 4.7451496871e-001	 1.7881094890e+000	-7.5883171238e-001
 4.5725076893e-001	 1.7926019453e+000	-6.9128473206e-001
 4.3998978198e-001	 1.7969165233e+000	-6.3376006321e-001
 4.2273455045e-001	 1.8010539969e+000	-5.8637898111e-001
 4.0548758806e-001	 1.8050151844e+000	-5.4919430587e-001
 3.8825137880e-001	 1.8088009473e+000	-5.2219140656e-001
 3.7102837612e-001	 1.8124121893e+000	-5.0528933293e-001
 3.5382100214e-001	 1.8158498557e+000	-4.9834206895e-001
 3.3663164696e-001	 1.8191149316e+000	-5.0113990196e-001
 5.1592165284e-001	 1.8026230466e+000	-8.4918735327e-001
 4.9842548389e-001	 1.8075389448e+000	-7.5800829911e-001
 4.8092733315e-001	 1.8122731307e+000	-6.7909302955e-001
 4.6342983337e-001	 1.8168262959e+000	-6.1271551036e-001
 4.4593558984e-001	 1.8211991790e+000	-5.5907517603e-001
 4.2844717952e-001	 1.8253925645e+000	-5.1829771391e-001
 4.1096715007e-001	 1.8294072815e+000	-4.9043599428e-001
 3.9349801906e-001	 1.8332442033e+000	-4.7547114056e-001
 3.7604227309e-001	 1.8369042460e+000	-4.7331373370e-001
 3.5860236704e-001	 1.8403883673e+000	-4.8380514453e-001
 3.4118072327e-001	 1.8436975658e+000	-5.0671898774e-001
 5.2280060822e-001	 1.8266580206e+000	-7.6257634521e-001
 5.0507115701e-001	 1.8316394641e+000	-6.6627400389e-001
 4.8733969760e-001	 1.8364367724e+000	-5.8501673659e-001
 4.6960889782e-001	 1.8410506465e+000	-5.1909302252e-001
 4.5188139771e-001	 1.8454818348e+000	-4.6871219354e-001
 4.3415980858e-001	 1.8497311320e+000	-4.3400527133e-001
 4.1644671207e-001	 1.8537993786e+000	-4.1502595793e-001
 3.9874465931e-001	 1.8576874594e+000	-4.1175177340e-001
 3.8105617007e-001	 1.8613963026e+000	-4.2408533449e-001
 3.6338373194e-001	 1.8649268788e+000	-4.5185576766e-001
 3.4572979958e-001	 1.8682802000e+000	-4.9482024999e-001
 5.2967956359e-001	 1.8506929945e+000	-6.6332741714e-001
 5.1171683013e-001	 1.8557399833e+000	-5.6099574762e-001
 4.9375206204e-001	 1.8606004142e+000	-4.7658106982e-001
 4.7578796226e-001	 1.8652749971e+000	-4.1038759239e-001
 4.5782720558e-001	 1.8697644905e+000	-3.6263561530e-001
 4.3987243764e-001	 1.8740696995e+000	-3.3346242112e-001
 4.2192627407e-001	 1.8781914757e+000	-3.5248858573e-001
 4.0399129957e-001	 1.8821307154e+000	-3.8384473074e-001
 3.8607006704e-001	 1.8858883592e+000	-4.1660914039e-001
 3.6816509683e-001	 1.8894653904e+000	-4.5015711199e-001
 3.5027887589e-001	 1.8928628342e+000	-4.8394753058e-001
 5.3655851896e-001	 1.8747279685e+000	-5.5144037808e-001
 5.1836250325e-001	 1.8798405026e+000	-5.2348159822e-001
 5.0016442648e-001	 1.8847640559e+000	-5.0662326120e-001
 4.8196702671e-001	 1.8894993478e+000	-4.9483694954e-001
 4.6377301344e-001	 1.8940471462e+000	-4.8702878700e-001
 4.4558506670e-001	 1.8984082670e+000	-4.8219750192e-001
 4.2740583607e-001	 1.9025835728e+000	-4.7943368961e-001
 4.0923793982e-001	 1.9065739715e+000	-4.7791890148e-001
 3.9108396402e-001	 1.9103804158e+000	-4.7692456763e-001
 3.7294646173e-001	 1.9140039020e+000	-4.7581076051e-001
 3.5482795221e-001	 1.9174454684e+000	-4.7402480683e-001
 5.4343747433e-001	 1.8987629424e+000	-8.5875827763e-001
 5.2500817637e-001	 1.9039410219e+000	-8.0706594967e-001
 5.0657679093e-001	 1.9089276977e+000	-7.6082742629e-001
 4.8814609116e-001	 1.9137236984e+000	-7.1881698173e-001
 4.6971882131e-001	 1.9183298019e+000	-6.7990613831e-001
 4.5129769576e-001	 1.9227468346e+000	-6.4306307678e-001
 4.3288539808e-001	 1.9269756698e+000	-6.0735185905e-001
 4.1448458008e-001	 1.9310172275e+000	-5.7193147067e-001
 3.9609786100e-001	 1.9348724724e+000	-5.3605469002e-001
 3.7772782663e-001	 1.9385424135e+000	-4.9906679204e-001
 3.5937702852e-001	 1.9420281026e+000	-4.6040409414e-001
 5.5031642970e-001	 1.9227979164e+000	-1.1765924527e+000
 5.3165384949e-001	 1.9280415411e+000	-1.0958509972e+000
 5.1298915537e-001	 1.9330913394e+000	-1.0196676832e+000
 4.9432515561e-001	 1.9379480490e+000	-9.4677772748e-001
 4.7566462918e-001	 1.9426124576e+000	-8.7601781860e-001
 4.5701032483e-001	 1.9470854021e+000	-8.0632549345e-001
 4.3836496008e-001	 1.9513677669e+000	-7.3673831814e-001
 4.1973122034e-001	 1.9554604835e+000	-6.6639288153e-001
 4.0111175798e-001	 1.9593645290e+000	-5.9452360849e-001
 3.8250919152e-001	 1.9630809251e+000	-5.2046140113e-001
 3.6392610484e-001	 1.9666107368e+000	-4.4363211584e-001
 3.1843534172e-001	 1.7207843947e+000	-3.0426402903e-001
 3.0219441554e-001	 1.7237106878e+000	-2.4817264730e-001
 2.8597496228e-001	 1.7264756937e+000	-1.8342553019e-001
 2.6977914796e-001	 1.7290804525e+000	-1.0957076656e-001
 2.5360910577e-001	 1.7315260383e+000	-2.6122884107e-002
 2.3746693559e-001	 1.7338135582e+000	 6.7435754906e-002
 2.2135470344e-001	 1.7359441509e+000	 1.7165350617e-001
 2.0527444106e-001	 1.7379189865e+000	 2.8710794916e-001
 1.8922814542e-001	 1.7397392646e+000	 4.1440435125e-001
 1.7321777839e-001	 1.7414062137e+000	 5.5417409491e-001
 1.5724526631e-001	 1.7429210901e+000	 7.0707307304e-001
 3.2298441803e-001	 1.7453670289e+000	-3.7966919217e-001
 3.0651147862e-001	 1.7483351262e+000	-3.3451442468e-001
 2.9006031889e-001	 1.7511396322e+000	-2.8336095635e-001
 2.7363313579e-001	 1.7537816018e+000	-2.2578142737e-001
 2.5723209300e-001	 1.7562621246e+000	-1.6131051527e-001
 2.4085932039e-001	 1.7585823233e+000	-8.9446404040e-002
 2.2451691349e-001	 1.7607433531e+000	-9.6523104012e-003
 2.0820693307e-001	 1.7627464006e+000	 7.8641938111e-002
 1.9193140464e-001	 1.7645926827e+000	 1.7603827851e-001
 1.7569231808e-001	 1.7662834454e+000	 2.8316874643e-001
 1.5949162725e-001	 1.7678199628e+000	 4.0069377401e-001
 3.2753349434e-001	 1.7699496631e+000	-4.3761104152e-001
 3.1082854170e-001	 1.7729595646e+000	-4.0640384247e-001
 2.9414567549e-001	 1.7758035707e+000	-3.7192281829e-001
 2.7748712362e-001	 1.7784827512e+000	-3.3376399580e-001
 2.6085508023e-001	 1.7809982109e+000	-2.9148094734e-001
 2.4425170518e-001	 1.7833510884e+000	-2.4458633631e-001
 2.2767912354e-001	 1.7855425553e+000	-1.9255352540e-001
 2.1113942509e-001	 1.7875738147e+000	-1.3481824175e-001
 1.9463466387e-001	 1.7894461008e+000	-7.0780293590e-002
 1.7816685777e-001	 1.7911606770e+000	 1.9466722870e-004
 1.6173798820e-001	 1.7927188355e+000	 7.8773342447e-002
 3.3208257065e-001	 1.7945322974e+000	-4.7810097034e-001
 3.1514560478e-001	 1.7975840030e+000	-4.6374064164e-001
 2.9823103210e-001	 1.8004675091e+000	-4.4890207103e-001
 2.8134111145e-001	 1.8031839005e+000	-4.3320353601e-001
 2.6447806745e-001	 1.8057342971e+000	-4.1621627449e-001
 2.4764408998e-001	 1.8081198535e+000	-3.9746610983e-001
 2.3084133360e-001	 1.8103417574e+000	-3.7643514407e-001
 2.1407191711e-001	 1.8124012288e+000	-3.5256351353e-001
 1.9733792309e-001	 1.8142995188e+000	-3.2525120075e-001
 1.8064139747e-001	 1.8160379086e+000	-2.9385989700e-001
 1.6398434915e-001	 1.8176177082e+000	-2.5771490925e-001
 3.3663164696e-001	 1.8191149316e+000	-5.0113990196e-001
 3.1946266786e-001	 1.8222084414e+000	-5.0641972769e-001
 3.0231638870e-001	 1.8251314476e+000	-5.1409041140e-001
 2.8519509928e-001	 1.8278850498e+000	-5.2379137238e-001
 2.6810105468e-001	 1.8304703834e+000	-5.3511030896e-001
 2.5103647477e-001	 1.8328886186e+000	-5.4758490609e-001
 2.3400354365e-001	 1.8351409596e+000	-5.6070461686e-001
 2.1700440913e-001	 1.8372286429e+000	-5.7391251177e-001
 2.0004118231e-001	 1.8391529369e+000	-5.8660718943e-001
 1.8311593716e-001	 1.8409151402e+000	-5.9814474238e-001
 1.6623071010e-001	 1.8425165809e+000	-6.0784077186e-001
 3.4118072327e-001	 1.8436975658e+000	-5.0671898774e-001
 3.2377973094e-001	 1.8468328798e+000	-5.3433149297e-001
 3.0640174531e-001	 1.8497953861e+000	-5.6728022860e-001
 2.8904908711e-001	 1.8525861991e+000	-6.0522467219e-001
 2.7172404191e-001	 1.8552064696e+000	-6.4776779980e-001
 2.5442885957e-001	 1.8576573837e+000	-6.9445787921e-001
 2.3716575370e-001	 1.8599401617e+000	-7.4479034304e-001
 2.1993690114e-001	 1.8620560570e+000	-7.9820973503e-001
 2.0274444153e-001	 1.8640063550e+000	-8.5411172282e-001
 1.8559047685e-001	 1.8657923719e+000	-9.1184517073e-001
 1.6847707105e-001	 1.8674154536e+000	-9.7071426583e-001
 3.4572979958e-001	 1.8682802000e+000	-4.9482024999e-001
 3.2809679402e-001	 1.8714573182e+000	-5.4736211362e-001
 3.1048710192e-001	 1.8744593246e+000	-6.0826455865e-001
 2.9290307494e-001	 1.8772873485e+000	-6.6188743787e-001
 2.7534702914e-001	 1.8799425559e+000	-7.0714770297e-001
 2.5782124437e-001	 1.8824261489e+000	-7.4623199097e-001
 2.4032796375e-001	 1.8847393639e+000	-7.7919400350e-001
 2.2286939316e-001	 1.8868834711e+000	-8.0615801077e-001
 2.0544770075e-001	 1.8888597730e+000	-8.2731654036e-001
 1.8806501655e-001	 1.8906696035e+000	-8.4292799358e-001
 1.7072343199e-001	 1.8923143264e+000	-8.5331419720e-001
 3.5027887589e-001	 1.8928628342e+000	-4.8394753058e-001
 3.3241385710e-001	 1.8960817566e+000	-5.1681311577e-001
 3.1457245852e-001	 1.8991232631e+000	-5.4322799577e-001
 2.9675706277e-001	 1.9019884978e+000	-5.6306581959e-001
 2.7897001637e-001	 1.9046786422e+000	-5.7627941005e-001
 2.6121362916e-001	 1.9071949140e+000	-5.8289860752e-001
 2.4349017380e-001	 1.9095385661e+000	-5.8302801611e-001
 2.2580188518e-001	 1.9117108852e+000	-5.7684466026e-001
 2.0815095998e-001	 1.9137131911e+000	-5.6459555986e-001
 1.9053955624e-001	 1.9155468351e+000	-5.4659523166e-001
 1.7296979294e-001	 1.9172131991e+000	-5.2322312513e-001
 3.5482795221e-001	 1.9174454684e+000	-4.7402480683e-001
 3.3673092018e-001	 1.9207061950e+000	-4.7735945011e-001
 3.1865781513e-001	 1.9237872016e+000	-4.7358521590e-001
 3.0061105060e-001	 1.9266896471e+000	-4.6262048827e-001
 2.8259300359e-001	 1.9294147284e+000	-4.4446513515e-001
 2.6460601396e-001	 1.9319636791e+000	-4.1919824074e-001
 2.4665238385e-001	 1.9343377682e+000	-3.8697573818e-001
 2.2873437719e-001	 1.9365382993e+000	-3.4802795063e-001
 2.1085421920e-001	 1.9385666092e+000	-3.0265704912e-001
 1.9301409593e-001	 1.9404240667e+000	-2.5123443559e-001
 1.7521615389e-001	 1.9421120718e+000	-1.9419805914e-001
 3.5937702852e-001	 1.9420281026e+000	-4.6040409414e-001
 3.4104798327e-001	 1.9453306334e+000	-4.3510264594e-001
 3.2274317174e-001	 1.9484511400e+000	-4.0193386648e-001
 3.0446503843e-001	 1.9513907964e+000	-3.6086096428e-001
 2.8621599082e-001	 1.9541508147e+000	-3.1193107031e-001
 2.6799839876e-001	 1.9567324442e+000	-2.5527285604e-001
 2.4981459391e-001	 1.9591369704e+000	-1.9109404915e-001
 2.3166686921e-001	 1.9613657134e+000	-1.1967885570e-001
 2.1355747842e-001	 1.9634200273e+000	-4.1385297322e-002
 1.9548863562e-001	 1.9653012984e+000	 4.3357527903e-002
 1.7746251484e-001	 1.9670109445e+000	 1.3405225244e-001
 3.6392610484e-001	 1.9666107368e+000	-4.4363211584e-001
 3.4536504635e-001	 1.9699550718e+000	-3.9051279361e-001
 3.2682852835e-001	 1.9731150785e+000	-3.2866635683e-001
 3.0831902626e-001	 1.9760919458e+000	-2.5810096282e-001
 2.8983897805e-001	 1.9788869010e+000	-1.7891125962e-001
 2.7139078356e-001	 1.9815012093e+000	-9.1275886313e-002
 2.5297680396e-001	 1.9839361725e+000	 4.5451314604e-003
 2.3459936123e-001	 1.9861931275e+000	 1.0821308177e-001
 2.1626073764e-001	 1.9882734453e+000	 2.1931335343e-001
 1.9796317532e-001	 1.9901785300e+000	 3.3735830099e-001
 1.7970887579e-001	 1.9919098172e+000	 4.6179017869e-001
 1.5724526631e-001	 1.7429210901e+000	 7.0707307304e-001
 1.4131249968e-001	 1.7442851766e+000	 7.6020088210e-001
 1.2542133286e-001	 1.7454997821e+000	 8.2261766009e-001
 1.0957358381e-001	 1.7465662397e+000	 8.9535049503e-001
 9.3771033799e-002	 1.7474859064e+000	 9.7944321938e-001
 7.8015427255e-002	 1.7482601617e+000	 1.0759544538e+000
 6.2308471545e-002	 1.7488904066e+000	 1.1859556543e+000
 4.6651836836e-002	 1.7493780627e+000	 1.3105291678e+000
 3.1047155971e-002	 1.7497245709e+000	 1.4507662996e+000
 1.5496024379e-002	 1.7499313910e+000	 1.6077653971e+000
 0.0000000000e+000	 1.7500000000e+000	 1.7826299539e+000
 1.5949162725e-001	 1.7678199628e+000	 4.0069377401e-001
 1.4333124967e-001	 1.7692035363e+000	 4.2917693954e-001
 1.2721306619e-001	 1.7704354933e+000	 4.6624648877e-001
 1.1113892072e-001	 1.7715171860e+000	 5.1288644409e-001
 9.5110619996e-002	 1.7724499908e+000	 5.7010056170e-001
 7.9129933358e-002	 1.7732353069e+000	 6.3891032646e-001
 6.3198592567e-002	 1.7738745553e+000	 7.2035294705e-001
 4.7318291647e-002	 1.7743691778e+000	 8.1547935597e-001
 3.1490686771e-002	 1.7747206362e+000	 9.2535221881e-001
 1.5717396155e-002	 1.7749304109e+000	 1.0510439571e+000
 0.0000000000e+000	 1.7750000000e+000	 1.1936347887e+000
 1.6173798820e-001	 1.7927188355e+000	 7.8773342447e-002
 1.4534999967e-001	 1.7941218960e+000	 7.6827797401e-002
 1.2900479952e-001	 1.7953712044e+000	 8.2663324889e-002
 1.1270425763e-001	 1.7964681323e+000	 9.7224166322e-002
 9.6450206192e-002	 1.7974140752e+000	 1.2147734856e-001
 8.0244439462e-002	 1.7982104521e+000	 1.5641062532e-001
 6.4088713588e-002	 1.7988587040e+000	 2.0303041542e-001
 4.7984746459e-002	 1.7993602930e+000	 2.6235974271e-001
 3.1934217570e-002	 1.7997167015e+000	 3.3543618240e-001
 1.5938767932e-002	 1.7999294307e+000	 4.2330981821e-001
 0.0000000000e+000	 1.8000000000e+000	 5.2704121477e-001
 1.6398434915e-001	 1.8176177082e+000	-2.5771490925e-001
 1.4736874966e-001	 1.8190402556e+000	-2.9570252997e-001
 1.3079653284e-001	 1.8203069156e+000	-3.2681807551e-001
 1.1426959454e-001	 1.8214190786e+000	-3.5015385760e-001
 9.7789792389e-002	 1.8223781596e+000	-3.6477628619e-001
 8.1358945565e-002	 1.8231855972e+000	-3.6972798632e-001
 6.4978834610e-002	 1.8238428526e+000	-3.6402992145e-001
 4.8651201270e-002	 1.8243514082e+000	-3.4668351840e-001
 3.2377748369e-002	 1.8247127668e+000	-3.1667278863e-001
 1.6160139709e-002	 1.8249284506e+000	-2.7296644143e-001
 0.0000000000e+000	 1.8250000000e+000	-2.1451998420e-001
 1.6623071010e-001	 1.8425165809e+000	-6.0784077186e-001
 1.4938749966e-001	 1.8439586153e+000	-6.8732291402e-001
 1.3258826617e-001	 1.8452426268e+000	-7.6094666414e-001
 1.1583493145e-001	 1.8463700248e+000	-8.2783771180e-001
 9.9129378586e-002	 1.8473422440e+000	-8.8709266155e-001
 8.2473451668e-002	 1.8481607424e+000	-9.3778121285e-001
 6.5868955631e-002	 1.8488270013e+000	-9.7894834982e-001
 4.9317656081e-002	 1.8493425234e+000	-1.0096165356e+000
 3.2821279168e-002	 1.8497088321e+000	-1.0287879064e+000
 1.6381511485e-002	 1.8499274705e+000	-1.0354464589e+000
 0.0000000000e+000	 1.8500000000e+000	-1.0285602291e+000
 1.6847707105e-001	 1.8674154536e+000	-9.7071426583e-001
 1.5140624966e-001	 1.8688769750e+000	-1.0969915862e+000
 1.3437999950e-001	 1.8701783379e+000	-1.2185299199e+000
 1.1740026836e-001	 1.8713209711e+000	-1.3344852075e+000
 1.0046896478e-001	 1.8723063283e+000	-1.4439810525e+000
 8.3587957771e-002	 1.8731358876e+000	-1.5461109686e+000
 6.6759076653e-002	 1.8738111500e+000	-1.6399406410e+000
 4.9984110893e-002	 1.8743336386e+000	-1.7245101950e+000
 3.3264809967e-002	 1.8747048974e+000	-1.7988364671e+000
 1.6602883262e-002	 1.8749264904e+000	-1.8619152724e+000
 0.0000000000e+000	 1.8750000000e+000	-1.9127236649e+000
 1.7072343199e-001	 1.8923143264e+000	-8.5331419720e-001
 1.5342499965e-001	 1.8937953346e+000	-9.2235938968e-001
 1.3617173282e-001	 1.8951140491e+000	-9.8086523812e-001
 1.1896560528e-001	 1.8962719174e+000	-1.0293535732e+000
 1.0180855098e-001	 1.8972704127e+000	-1.0684032365e+000
 8.4702463874e-002	 1.8981110327e+000	-1.0986473098e+000
 6.7649197674e-002	 1.8987952986e+000	-1.1207703217e+000
 5.0650565704e-002	 1.8993247537e+000	-1.1355054377e+000
 3.3708340767e-002	 1.8997009627e+000	-1.1436316406e+000
 1.6824255038e-002	 1.8999255102e+000	-1.1459709075e+000
 0.0000000000e+000	 1.9000000000e+000	-1.1433853903e+000
 1.7296979294e-001	 1.9172131991e+000	-5.2322312513e-001
 1.5544374965e-001	 1.9187136943e+000	-5.5667195294e-001
 1.3796346615e-001	 1.9200497603e+000	-5.7781490567e-001
 1.2053094219e-001	 1.9212228637e+000	-5.8728650776e-001
 1.0314813718e-001	 1.9222344971e+000	-5.8577977648e-001
 8.5816969978e-002	 1.9230861779e+000	-5.7404327661e-001
 6.8539318696e-002	 1.9237794473e+000	-5.5287815358e-001
 5.1317020516e-002	 1.9243158689e+000	-5.2313515228e-001
 3.4151871566e-002	 1.9246970280e+000	-4.8571162855e-001
 1.7045626815e-002	 1.9249245301e+000	-4.4154855973e-001
 0.0000000000e+000	 1.9250000000e+000	-3.9162756099e-001
 1.7521615389e-001	 1.9421120718e+000	-1.9419805914e-001
 1.5746249964e-001	 1.9436320540e+000	-1.9374130283e-001
 1.3975519948e-001	 1.9449854715e+000	-1.7915811115e-001
 1.2209627910e-001	 1.9461738100e+000	-1.5119581003e-001
 1.0448772337e-001	 1.9471985815e+000	-1.1066178783e-001
 8.6931476081e-002	 1.9480613231e+000	-5.8420372023e-002
 6.9429439717e-002	 1.9487635960e+000	 4.6103139684e-003
 5.1983475327e-002	 1.9493069841e+000	 7.7461506307e-002
 3.4595402365e-002	 1.9496930933e+000	 1.5911696159e-001
 1.7266998592e-002	 1.9499235500e+000	 2.4851611600e-001
 0.0000000000e+000	 1.9500000000e+000	 3.4455723604e-001
 1.7746251484e-001	 1.9670109445e+000	 1.3405225244e-001
 1.5948124964e-001	 1.9685504136e+000	 1.6687680765e-001
 1.4154693280e-001	 1.9699211826e+000	 2.1570449321e-001
 1.2366161601e-001	 1.9711247563e+000	 2.7967498990e-001
 1.0582730957e-001	 1.9721626658e+000	 3.5786625845e-001
 8.8045982184e-002	 1.9730364682e+000	 4.4929784382e-001
 7.0319560739e-002	 1.9737477446e+000	 5.5293419795e-001
 5.2649930139e-002	 1.9742980993e+000	 6.6768801289e-001
 3.5038933164e-002	 1.9746891586e+000	 7.9242355717e-001
 1.7488370368e-002	 1.9749225698e+000	 9.2596000801e-001
 0.0000000000e+000	 1.9750000000e+000	 1.0670747724e+000
 1.7970887579e-001	 1.9919098172e+000	 4.6179017869e-001
 1.6149999964e-001	 1.9934687733e+000	 5.2559118773e-001
 1.4333866613e-001	 1.9948568938e+000	 6.0733023586e-001
 1.2522695292e-001	 1.9960757025e+000	 7.0603373765e-001
 1.0716689577e-001	 1.9971267502e+000	 8.2066464123e-001
 8.9160488287e-002	 1.9980116134e+000	 9.5012591687e-001
 7.1209681760e-002	 1.9987318933e+000	 1.0932640625e+000
 5.3316384950e-002	 1.9992892145e+000	 1.2488726177e+000
 3.5482463963e-002	 1.9996852239e+000	 1.4156956794e+000
 1.7709742145e-002	 1.9999215897e+000	 1.5924314096e+000
 0.0000000000e+000	 2.0000000000e+000	 1.7777355313e+000
 2.0000000000e+000	 0.0000000000e+000	 2.3675617465e+000
 1.9999215897e+000	 1.7709742145e-002	 2.4235936121e+000
 1.9996852239e+000	 3.5482463963e-002	 2.4720217293e+000
 1.9992892145e+000	 5.3316384950e-002	 2.5125208592e+000
 1.9987318933e+000	 7.1209681760e-002	 2.5447464074e+000
 1.9980116134e+000	 8.9160488287e-002	 2.5683340705e+000
 1.9971267502e+000	 1.0716689577e-001	 2.5828995097e+000
 1.9960757025e+000	 1.2522695292e-001	 2.5880380524e+000
 1.9948568938e+000	 1.4333866613e-001	 2.5833244230e+000
 1.9934687733e+000	 1.6149999964e-001	 2.5683125065e+000
 1.9919098172e+000	 1.7970887579e-001	 2.5425351448e+000
 2.0250000000e+000	 0.0000000000e+000	 2.3570574085e+000
 2.0249206096e+000	 1.7931113921e-002	 2.4075945220e+000
 2.0246812892e+000	 3.5925994762e-002	 2.4500997910e+000
 2.0242803297e+000	 5.3982839761e-002	 2.4842493694e+000
 2.0237160419e+000	 7.2099802782e-002	 2.5096999547e+000
 2.0229867586e+000	 9.0274994390e-002	 2.5260884270e+000
 2.0220908346e+000	 1.0850648196e-001	 2.5330315142e+000
 2.0210266488e+000	 1.2679228983e-001	 2.5301254863e+000
 2.0197926050e+000	 1.4513039946e-001	 2.5169458795e+000
 2.0183871330e+000	 1.6351874963e-001	 2.4930472531e+000
 2.0168086899e+000	 1.8195523674e-001	 2.4579629800e+000
 2.0500000000e+000	 0.0000000000e+000	 2.3490711477e+000
 2.0499196295e+000	 1.8152485698e-002	 2.3949252735e+000
 2.0496773545e+000	 3.6369525562e-002	 2.4323760020e+000
 2.0492714448e+000	 5.4649294573e-002	 2.4611011480e+000
 2.0487001906e+000	 7.2989923804e-002	 2.4807589258e+000
 2.0479619037e+000	 9.1389500493e-002	 2.4909875782e+000
 2.0470549190e+000	 1.0984606816e-001	 2.4914050329e+000
 2.0459775951e+000	 1.2835762674e-001	 2.4816085879e+000
 2.0447283162e+000	 1.4692213278e-001	 2.4611746279e+000
 2.0433054926e+000	 1.6553749963e-001	 2.4296583725e+000
 2.0417075627e+000	 1.8420159768e-001	 2.3865936609e+000
 2.0750000000e+000	 0.0000000000e+000	 2.3433095606e+000
 2.0749186493e+000	 1.8373857475e-002	 2.3852724663e+000
 2.0746734198e+000	 3.6813056361e-002	 2.4185163802e+000
 2.0742625600e+000	 5.5315749384e-002	 2.4427210478e+000
 2.0736843393e+000	 7.3880044825e-002	 2.4575464255e+000
 2.0729370489e+000	 9.2504006597e-002	 2.4626322999e+000
 2.0720190034e+000	 1.1118565436e-001	 2.4575979332e+000
 2.0709285414e+000	 1.2992296366e-001	 2.4420417385e+000
 2.0696640273e+000	 1.4871386611e-001	 2.4155409867e+000
 2.0682238523e+000	 1.6755624962e-001	 2.3776515464e+000
 2.0666064354e+000	 1.8644795863e-001	 2.3279076600e+000
 2.1000000000e+000	 0.0000000000e+000	 2.3394932153e+000
 2.0999176692e+000	 1.8595229251e-002	 2.3783376213e+000
 2.0996694851e+000	 3.7256587160e-002	 2.4082028634e+000
 2.0992536752e+000	 5.5982204196e-002	 2.4287708883e+000
 2.0986684879e+000	 7.4770165847e-002	 2.4397036225e+000
 2.0979121941e+000	 9.3618512700e-002	 2.4406425783e+000
 2.0969830877e+000	 1.1252524055e-001	 2.4312084884e+000
 2.0958794877e+000	 1.3148830057e-001	 2.4110009698e+000
 2.0945997385e+000	 1.5050559944e-001	 2.3795982197e+000
 2.0931422120e+000	 1.6957499962e-001	 2.3365567457e+000
 2.0915053081e+000	 1.8869431958e-001	 2.2814111322e+000
 2.1250000000e+000	 0.0000000000e+000	 2.3373558297e+000
 2.1249166891e+000	 1.8816601028e-002	 2.3738363026e+000
 2.1246655504e+000	 3.7700117959e-002	 2.4011323723e+000
 2.1242447904e+000	 5.6648659007e-002	 2.4189284588e+000
 2.1236526366e+000	 7.5660286868e-002	 2.4268886870e+000
 2.1228873393e+000	 9.4733018803e-002	 2.4246564793e+000
 2.1219471721e+000	 1.1386482675e-001	 2.4118541768e+000
 2.1208304339e+000	 1.3305363748e-001	 2.3880826904e+000
 2.1195354497e+000	 1.5229733276e-001	 2.3529211856e+000
 2.1180605716e+000	 1.7159374962e-001	 2.3059268008e+000
 2.1164041808e+000	 1.9094068053e-001	 2.2466344034e+000
 2.1500000000e+000	 0.0000000000e+000	 2.3366435069e+000
 2.1499157090e+000	 1.9037972804e-002	 2.3714973016e+000
 2.1496616157e+000	 3.8143648758e-002	 2.3970159398e+000
 2.1492359056e+000	 5.7315113819e-002	 2.4128865887e+000
 2.1486367853e+000	 7.6550407890e-002	 2.4187758022e+000
 2.1478624844e+000	 9.5847524906e-002	 2.4143290981e+000
 2.1469112565e+000	 1.1520441295e-001	 2.3991705653e+000
 2.1457813802e+000	 1.3461897439e-001	 2.3729025012e+000
 2.1444711609e+000	 1.5408906609e-001	 2.3351050829e+000
 2.1429789313e+000	 1.7361249961e-001	 2.2853360734e+000
 2.1413030535e+000	 1.9318704148e-001	 2.2231305660e+000
 2.1750000000e+000	 0.0000000000e+000	 2.3371140232e+000
 2.1749147288e+000	 1.9259344581e-002	 2.3710618763e+000
 2.1746576810e+000	 3.8587179558e-002	 2.3955778999e+000
 2.1742270207e+000	 5.7981568630e-002	 2.4103522842e+000
 2.1736209339e+000	 7.7440528911e-002	 2.4150542438e+000
 2.1728376296e+000	 9.6962031009e-002	 2.4093315797e+000
 2.1718753409e+000	 1.1654399914e-001	 2.3928102700e+000
 2.1707323265e+000	 1.3618431130e-001	 2.3650940922e+000
 2.1694068720e+000	 1.5588079942e-001	 2.3257642807e+000
 2.1678972910e+000	 1.7563124961e-001	 2.2743792187e+000
 2.1662019262e+000	 1.9543340243e-001	 2.2104741700e+000
 2.2000000000e+000	 0.0000000000e+000	 2.3385361654e+000
 2.1999137487e+000	 1.9480716358e-002	 2.3722830432e+000
 2.1996537463e+000	 3.9030710357e-002	 2.3965551320e+000
 2.1992181359e+000	 5.8648023441e-002	 2.4110459219e+000
 2.1986050826e+000	 7.8330649933e-002	 2.4154275229e+000
 2.1978127748e+000	 9.8076537113e-002	 2.4093502078e+000
 2.1968394252e+000	 1.1788358534e-001	 2.3924419872e+000
 2.1956832728e+000	 1.3774964821e-001	 2.3643082150e+000
 2.1943425832e+000	 1.5767253274e-001	 2.3245312298e+000
 2.1928156506e+000	 1.7764999960e-001	 2.2726700324e+000
 2.1911007990e+000	 1.9767976337e-001	 2.2082600037e+000
 2.2250000000e+000	 0.0000000000e+000	 2.3406891117e+000
 2.2249127686e+000	 1.9702088134e-002	 2.3749249167e+000
 2.2246498116e+000	 3.9474241156e-002	 2.3996963557e+000
 2.2242092511e+000	 5.9314478253e-002	 2.4147004985e+000
 2.2235892313e+000	 7.9220770954e-002	 2.4196125856e+000
 2.2227879199e+000	 9.9191043216e-002	 2.4140855537e+000
 2.2218035096e+000	 1.1922317154e-001	 2.3977495905e+000
 2.2206342191e+000	 1.3931498512e-001	 2.3702117239e+000
 2.2192782944e+000	 1.5946426607e-001	 2.3310554462e+000
 2.2177340103e+000	 1.7966874960e-001	 2.2798403754e+000
 2.2159996717e+000	 1.9992612432e-001	 2.2161019573e+000
 2.2500000000e+000	 0.0000000000e+000	 2.3433618546e+000
 2.2499117884e+000	 1.9923459911e-002	 2.3787620925e+000
 2.2496458769e+000	 3.9917771955e-002	 2.4047614736e+000
 2.2492003663e+000	 5.9980933064e-002	 2.4210609288e+000
 2.2485733799e+000	 8.0110891976e-002	 2.4273390675e+000
 2.2477630651e+000	 1.0030554932e-001	 2.4232516827e+000
 2.2467675940e+000	 1.2056275773e-001	 2.4084312869e+000
 2.2455851654e+000	 1.4088032204e-001	 2.3824866817e+000
 2.2442140055e+000	 1.6125599940e-001	 2.3450025640e+000
 2.2426523700e+000	 1.8168749959e-001	 2.2955391700e+000
 2.2408985444e+000	 2.0217248527e-001	 2.2336319611e+000
 1.9919098172e+000	 1.7970887579e-001	 2.5425351448e+000
 1.9901785300e+000	 1.9796317532e-001	 2.5747273590e+000
 1.9882734453e+000	 2.1626073764e-001	 2.6001415516e+000
 1.9861931275e+000	 2.3459936123e-001	 2.6182517642e+000
 1.9839361725e+000	 2.5297680396e-001	 2.6285069439e+000
 1.9815012093e+000	 2.7139078356e-001	 2.6303308576e+000
 1.9788869010e+000	 2.8983897805e-001	 2.6231220528e+000
 1.9760919458e+000	 3.0831902626e-001	 2.6062538678e+000
 1.9731150785e+000	 3.2682852835e-001	 2.5790744915e+000
 1.9699550718e+000	 3.4536504635e-001	 2.5409070767e+000
 1.9666107368e+000	 3.6392610484e-001	 2.4910499064e+000
 2.0168086899e+000	 1.8195523674e-001	 2.4579629800e+000
 2.0150557616e+000	 2.0043771501e-001	 2.4794773443e+000
 2.0131268634e+000	 2.1896399687e-001	 2.4952023810e+000
 2.0110205416e+000	 2.3753185325e-001	 2.5046169743e+000
 2.0087353747e+000	 2.5613901401e-001	 2.5071735927e+000
 2.0062699745e+000	 2.7478316835e-001	 2.5022981712e+000
 2.0036229872e+000	 2.9346196528e-001	 2.4893900422e+000
 2.0007930951e+000	 3.1217301410e-001	 2.4678219175e+000
 1.9977790170e+000	 3.3091388495e-001	 2.4369399213e+000
 1.9945795102e+000	 3.4968210943e-001	 2.3960636791e+000
 1.9911933711e+000	 3.6847518115e-001	 2.3444864613e+000
 2.0417075627e+000	 1.8420159768e-001	 2.3865936609e+000
 2.0399329932e+000	 2.0291225470e-001	 2.3984411081e+000
 2.0379802815e+000	 2.2166725609e-001	 2.4055093030e+000
 2.0358479557e+000	 2.4046434526e-001	 2.4072815594e+000
 2.0335345769e+000	 2.5930122406e-001	 2.4032134151e+000
 2.0310387396e+000	 2.7817555315e-001	 2.3927324831e+000
 2.0283590735e+000	 2.9708495251e-001	 2.3752383519e+000
 2.0254942444e+000	 3.1602700193e-001	 2.3501025383e+000
 2.0224429555e+000	 3.3499924156e-001	 2.3166684946e+000
 2.0192039486e+000	 3.5399917252e-001	 2.2742516716e+000
 2.0157760053e+000	 3.7302425746e-001	 2.2221396402e+000
 2.0666064354e+000	 1.8644795863e-001	 2.3279076600e+000
 2.0648102249e+000	 2.0538679439e-001	 2.3310868184e+000
 2.0628336995e+000	 2.2437051531e-001	 2.3305189047e+000
 2.0606753698e+000	 2.4339683728e-001	 2.3256912572e+000
 2.0583337790e+000	 2.6246343411e-001	 2.3160620403e+000
 2.0558075047e+000	 2.8156793795e-001	 2.3010600628e+000
 2.0530951598e+000	 3.0070793974e-001	 2.2800846476e+000
 2.0501953937e+000	 3.1988098976e-001	 2.2525055557e+000
 2.0471068940e+000	 3.3908459817e-001	 2.2176629660e+000
 2.0438283870e+000	 3.5831623560e-001	 2.1748675132e+000
 2.0403586395e+000	 3.7757333378e-001	 2.1234003866e+000
 2.0915053081e+000	 1.8869431958e-001	 2.2814111322e+000
 2.0896874565e+000	 2.0786133409e-001	 2.2769091267e+000
 2.0876871176e+000	 2.2707377453e-001	 2.2697150449e+000
 2.0855027839e+000	 2.4632932930e-001	 2.2593198537e+000
 2.0831329812e+000	 2.6562564417e-001	 2.2451839091e+000
 2.0805762698e+000	 2.8496032274e-001	 2.2267367411e+000
 2.0778312460e+000	 3.0433092696e-001	 2.2033768928e+000
 2.0748965430e+000	 3.2373497759e-001	 2.1744718145e+000
 2.0717708325e+000	 3.4316995478e-001	 2.1393578162e+000
 2.0684528254e+000	 3.6263329868e-001	 2.0973400806e+000
 2.0649412737e+000	 3.8212241009e-001	 2.0476927378e+000
 2.1164041808e+000	 1.9094068053e-001	 2.2466344034e+000
 2.1145646881e+000	 2.1033587378e-001	 2.2354276098e+000
 2.1125405357e+000	 2.2977703375e-001	 2.2226072506e+000
 2.1103301980e+000	 2.4926182132e-001	 2.2076675338e+000
 2.1079321833e+000	 2.6878785422e-001	 2.1900705795e+000
 2.1053450349e+000	 2.8835270754e-001	 2.1692461720e+000
 2.1025673323e+000	 3.0795391419e-001	 2.1445915665e+000
 2.0995976924e+000	 3.2758896542e-001	 2.1154713541e+000
 2.0964347709e+000	 3.4725531138e-001	 2.0812173862e+000
 2.0930772638e+000	 3.6695036176e-001	 2.0411287618e+000
 2.0895239079e+000	 3.8667148640e-001	 1.9944718791e+000
 2.1413030535e+000	 1.9318704148e-001	 2.2231305660e+000
 2.1394419197e+000	 2.1281041347e-001	 2.2061853208e+000
 2.1373939537e+000	 2.3248029298e-001	 2.1887292244e+000
 2.1351576121e+000	 2.5219431333e-001	 2.1702593459e+000
 2.1327313855e+000	 2.7195006427e-001	 2.1502391499e+000
 2.1301138000e+000	 2.9174509234e-001	 2.1280982144e+000
 2.1273034185e+000	 3.1157690142e-001	 2.1032320052e+000
 2.1242988417e+000	 3.3144295325e-001	 2.0750017113e+000
 2.1210987094e+000	 3.5134066799e-001	 2.0427341406e+000
 2.1177017022e+000	 3.7126742484e-001	 2.0057216818e+000
 2.1141065421e+000	 3.9122056271e-001	 1.9632223319e+000
 2.1662019262e+000	 1.9543340243e-001	 2.2104741700e+000
 2.1643191514e+000	 2.1528495317e-001	 2.1887474398e+000
 2.1622473718e+000	 2.3518355220e-001	 2.1676374549e+000
 2.1599850262e+000	 2.5512680535e-001	 2.1466437734e+000
 2.1575305876e+000	 2.7511227432e-001	 2.1252307913e+000
 2.1548825652e+000	 2.9513747713e-001	 2.1028274263e+000
 2.1520395048e+000	 3.1519988865e-001	 2.0788268595e+000
 2.1489999910e+000	 3.3529694108e-001	 2.0525863398e+000
 2.1457626479e+000	 3.5542602459e-001	 2.0234270518e+000
 2.1423261406e+000	 3.7558448792e-001	 1.9906340513e+000
 2.1386891763e+000	 3.9576963903e-001	 1.9534562686e+000
 2.1911007990e+000	 1.9767976337e-001	 2.2082600037e+000
 2.1891963830e+000	 2.1775949286e-001	 2.1827000167e+000
 2.1871007899e+000	 2.3788681142e-001	 2.1589099225e+000
 2.1848124402e+000	 2.5805929737e-001	 2.1363914030e+000
 2.1823297898e+000	 2.7827448437e-001	 2.1146093797e+000
 2.1796513303e+000	 2.9852986193e-001	 2.0929916618e+000
 2.1767755911e+000	 3.1882287587e-001	 2.0709286558e+000
 2.1737011403e+000	 3.3915092891e-001	 2.0477731379e+000
 2.1704265864e+000	 3.5951138120e-001	 2.0228400940e+000
 2.1669505789e+000	 3.7990155100e-001	 1.9954066277e+000
 2.1632718105e+000	 4.0031871534e-001	 1.9647119407e+000
 2.2159996717e+000	 1.9992612432e-001	 2.2161019573e+000
 2.2140736146e+000	 2.2023403255e-001	 2.1876487988e+000
 2.2119542079e+000	 2.4059007064e-001	 2.1621448915e+000
 2.2096398543e+000	 2.6099178938e-001	 2.1390936829e+000
 2.2071289919e+000	 2.8143669442e-001	 2.1179602201e+000
 2.2044200954e+000	 3.0192224673e-001	 2.0981707618e+000
 2.2015116773e+000	 3.2244586310e-001	 2.0791124548e+000
 2.1984022896e+000	 3.4300491674e-001	 2.0601330750e+000
 2.1950905249e+000	 3.6359673781e-001	 2.0405408379e+000
 2.1915750173e+000	 3.8421861408e-001	 2.0196042799e+000
 2.1878544447e+000	 4.0486779165e-001	 1.9965522144e+000
 2.2408985444e+000	 2.0217248527e-001	 2.2336319611e+000
 2.2389508462e+000	 2.2270857224e-001	 2.2032181365e+000
 2.2368076260e+000	 2.4329332986e-001	 2.1769597836e+000
 2.2344672684e+000	 2.6392428140e-001	 2.1543617641e+000
 2.2319281941e+000	 2.8459890447e-001	 2.1348888565e+000
 2.2291888605e+000	 3.0531463152e-001	 2.1179653326e+000
 2.2262477636e+000	 3.2606885033e-001	 2.1029745998e+000
 2.2231034390e+000	 3.4685890457e-001	 2.0892589099e+000
 2.2197544633e+000	 3.6768209441e-001	 2.0761191405e+000
 2.2161994557e+000	 3.8853567716e-001	 2.0628146487e+000
 2.2124370789e+000	 4.0941686796e-001	 2.0485632025e+000
 1.9666107368e+000	 3.6392610484e-001	 2.4910499064e+000
 1.9630809251e+000	 3.8250919152e-001	 2.4680027865e+000
 1.9593645290e+000	 4.0111175798e-001	 2.4412271125e+000
 1.9554604835e+000	 4.1973122034e-001	 2.4099631452e+000
 1.9513677669e+000	 4.3836496008e-001	 2.3734192374e+000
 1.9470854021e+000	 4.5701032483e-001	 2.3307721228e+000
 1.9426124576e+000	 4.7566462918e-001	 2.2811672729e+000
 1.9379480490e+000	 4.9432515561e-001	 2.2237193249e+000
 1.9330913394e+000	 5.1298915537e-001	 2.1575125801e+000
 1.9280415411e+000	 5.3165384949e-001	 2.0816015746e+000
 1.9227979164e+000	 5.5031642970e-001	 1.9950117239e+000
 1.9911933711e+000	 3.6847518115e-001	 2.3444864613e+000
 1.9876194366e+000	 3.8729055642e-001	 2.3173794092e+000
 1.9838565856e+000	 4.0612565496e-001	 2.2850922382e+000
 1.9799037396e+000	 4.2497786060e-001	 2.2468479178e+000
 1.9757598640e+000	 4.4384452209e-001	 2.2018379242e+000
 1.9714239696e+000	 4.6272295389e-001	 2.1492225609e+000
 1.9668951134e+000	 4.8161043705e-001	 2.0881313486e+000
 1.9621723996e+000	 5.0050422005e-001	 2.0176634867e+000
 1.9572549812e+000	 5.1940151982e-001	 1.9368883863e+000
 1.9521420604e+000	 5.3829952261e-001	 1.8448462768e+000
 1.9468328903e+000	 5.5719538508e-001	 1.7405488867e+000
 2.0157760053e+000	 3.7302425746e-001	 2.2221396402e+000
 2.0121579482e+000	 3.9207192132e-001	 2.1927029320e+000
 2.0083486423e+000	 4.1113955194e-001	 2.1567105851e+000
 2.0043469956e+000	 4.3022450086e-001	 2.1133677482e+000
 2.0001519611e+000	 4.4932408409e-001	 2.0618484194e+000
 1.9957625371e+000	 4.6843558295e-001	 2.0012957983e+000
 1.9911777691e+000	 4.8755624491e-001	 1.9308227086e+000
 1.9863967502e+000	 5.0668328450e-001	 1.8495120923e+000
 1.9814186229e+000	 5.2581388426e-001	 1.7564175778e+000
 1.9762425797e+000	 5.4494519573e-001	 1.6505641213e+000
 1.9708678643e+000	 5.6407434045e-001	 1.5309487245e+000
 2.0403586395e+000	 3.7757333378e-001	 2.1234003866e+000
 2.0366964598e+000	 3.9685328622e-001	 2.0933404550e+000
 2.0328406989e+000	 4.1615344891e-001	 2.0554240101e+000
 2.0287902517e+000	 4.3547114111e-001	 2.0088378431e+000
 2.0245440582e+000	 4.5480364609e-001	 1.9527378661e+000
 2.0201011047e+000	 4.7414821202e-001	 1.8862494957e+000
 2.0154604248e+000	 4.9350205278e-001	 1.8084681063e+000
 2.0106211008e+000	 5.1286234895e-001	 1.7184595587e+000
 2.0055822646e+000	 5.3222624870e-001	 1.6152608011e+000
 2.0003430989e+000	 5.5159086884e-001	 1.4978805469e+000
 1.9949028382e+000	 5.7095329582e-001	 1.3653000276e+000
 2.0649412737e+000	 3.8212241009e-001	 2.0476927378e+000
 2.0612349713e+000	 4.0163465111e-001	 2.0186937428e+000
 2.0573327555e+000	 4.2116734589e-001	 1.9806106927e+000
 2.0532335077e+000	 4.4071778137e-001	 1.9326114776e+000
 2.0489361553e+000	 4.6028320810e-001	 1.8738333100e+000
 2.0444396722e+000	 4.7986084108e-001	 1.8033831374e+000
 2.0397430805e+000	 4.9944786064e-001	 1.7203381285e+000
 2.0348454514e+000	 5.1904141339e-001	 1.6237462329e+000
 2.0297459064e+000	 5.3863861314e-001	 1.5126268175e+000
 2.0244436182e+000	 5.5823654196e-001	 1.3859713784e+000
 2.0189378122e+000	 5.7783225119e-001	 1.2427443310e+000
 2.0895239079e+000	 3.8667148640e-001	 1.9944718791e+000
 2.0857734829e+000	 4.0641601601e-001	 1.9681971854e+000
 2.0818248121e+000	 4.2618124287e-001	 1.9316829980e+000
 2.0776767638e+000	 4.4596442162e-001	 1.8840777560e+000
 2.0733282524e+000	 4.6576277010e-001	 1.8244993514e+000
 2.0687782397e+000	 4.8557347014e-001	 1.7520355717e+000
 2.0640257362e+000	 5.0539366851e-001	 1.6657446165e+000
 2.0590698020e+000	 5.2522047784e-001	 1.5646556904e+000
 2.0539095481e+000	 5.4505097759e-001	 1.4477696724e+000
 2.0485441375e+000	 5.6488221508e-001	 1.3140598632e+000
 2.0429727862e+000	 5.8471120656e-001	 1.1624728115e+000
 2.1141065421e+000	 3.9122056271e-001	 1.9632223319e+000
 2.1103119945e+000	 4.1119738090e-001	 1.9413159014e+000
 2.1063168687e+000	 4.3119513984e-001	 1.9080854898e+000
 2.1021200198e+000	 4.5121106188e-001	 1.8626595285e+000
 2.0977203495e+000	 4.7124233210e-001	 1.8041359625e+000
 2.0931168073e+000	 4.9128609920e-001	 1.7315827216e+000
 2.0883083920e+000	 5.1133947637e-001	 1.6440382682e+000
 2.0832941527e+000	 5.3139954228e-001	 1.5405122219e+000
 2.0780731899e+000	 5.5146334203e-001	 1.4199860629e+000
 2.0726446567e+000	 5.7152788820e-001	 1.2814139137e+000
 2.0670077601e+000	 5.9159016193e-001	 1.1237234019e+000
 2.1386891763e+000	 3.9576963903e-001	 1.9534562686e+000
 2.1348505060e+000	 4.1597874580e-001	 1.9375439718e+000
 2.1308089253e+000	 4.3620903682e-001	 1.9092930795e+000
 2.1265632759e+000	 4.5645770213e-001	 1.8678114521e+000
 2.1221124465e+000	 4.7672189410e-001	 1.8121764542e+000
 2.1174553748e+000	 4.9699872826e-001	 1.7414354546e+000
 2.1125910477e+000	 5.1728528424e-001	 1.6546064044e+000
 2.1075185033e+000	 5.3757860672e-001	 1.5506784934e+000
 2.1022368316e+000	 5.5787570647e-001	 1.4286128864e+000
 2.0967451760e+000	 5.7817356131e-001	 1.2873435405e+000
 2.0910427341e+000	 5.9846911730e-001	 1.1257781036e+000
 2.1632718105e+000	 4.0031871534e-001	 1.9647119407e+000
 2.1593890176e+000	 4.2076011069e-001	 1.9564027946e+000
 2.1553009819e+000	 4.4122293379e-001	 1.9348093022e+000
 2.1510065319e+000	 4.6170434238e-001	 1.8990181831e+000
 2.1465045436e+000	 4.8220145610e-001	 1.8480855818e+000
 2.1417939423e+000	 5.0271135732e-001	 1.7810375970e+000
 2.1368737034e+000	 5.2323109210e-001	 1.6968708885e+000
 2.1317428539e+000	 5.4375767117e-001	 1.5945533655e+000
 2.1264004734e+000	 5.6428807091e-001	 1.4730249564e+000
 2.1208456953e+000	 5.8481923443e-001	 1.3311984604e+000
 2.1150777080e+000	 6.0534807266e-001	 1.1679604827e+000
 2.1878544447e+000	 4.0486779165e-001	 1.9965522144e+000
 2.1839275292e+000	 4.2554147558e-001	 1.9974395501e+000
 2.1797930386e+000	 4.4623683076e-001	 1.9841647086e+000
 2.1754497879e+000	 4.6695098264e-001	 1.9557926918e+000
 2.1708966407e+000	 4.8768101810e-001	 1.9113577789e+000
 2.1661325098e+000	 5.0842398637e-001	 1.8498640824e+000
 2.1611563591e+000	 5.2917689996e-001	 1.7702861853e+000
 2.1559672045e+000	 5.4993673561e-001	 1.6715698603e+000
 2.1505641151e+000	 5.7070043534e-001	 1.5526328725e+000
 2.1449462145e+000	 5.9146490754e-001	 1.4123658660e+000
 2.1391126820e+000	 6.1222702803e-001	 1.2496333350e+000
 2.2124370789e+000	 4.0941686796e-001	 2.0485632025e+000
 2.2084660407e+000	 4.3032284048e-001	 2.0602257686e+000
 2.2042850952e+000	 4.5125072774e-001	 2.0569153637e+000
 2.1998930440e+000	 4.7219762289e-001	 2.0376746896e+000
 2.1952887378e+000	 4.9316058010e-001	 2.0015155079e+000
 2.1904710774e+000	 5.1413661543e-001	 1.9474192234e+000
 2.1854390149e+000	 5.3512270782e-001	 1.8743375505e+000
 2.1801915551e+000	 5.5611580005e-001	 1.7811932636e+000
 2.1747277568e+000	 5.7711279978e-001	 1.6668810324e+000
 2.1690467338e+000	 5.9811058066e-001	 1.5302683432e+000
 2.1631476559e+000	 6.1910598340e-001	 1.3701965067e+000
 1.9227979164e+000	 5.5031642970e-001	 1.9950117239e+000
 1.9173597783e+000	 5.6897405956e-001	 2.0586061202e+000
 1.9117264922e+000	 5.8762387544e-001	 2.0758008156e+000
 1.9058974762e+000	 6.0626298769e-001	 2.0457684480e+000
 1.8998722024e+000	 6.2488848178e-001	 1.9676933823e+000
 1.8936501977e+000	 6.4349741945e-001	 1.8442890088e+000
 1.8872310448e+000	 6.6208683995e-001	 1.6889899438e+000
 1.8806143829e+000	 6.8065376130e-001	 1.5029084967e+000
 1.8737999088e+000	 6.9919518155e-001	 1.3170321774e+000
 1.8667873772e+000	 7.1770808012e-001	 1.2531347717e+000
 1.8595766021e+000	 7.3618941913e-001	 1.1765215817e+000
 1.9468328903e+000	 5.5719538508e-001	 1.7405488867e+000
 1.9413267756e+000	 5.7608623530e-001	 1.8070983339e+000
 1.9356230734e+000	 5.9496917388e-001	 1.8319735329e+000
 1.9297211947e+000	 6.1384127504e-001	 1.8143269545e+000
 1.9236206049e+000	 6.3269958780e-001	 1.7476417972e+000
 1.9173208252e+000	 6.5154113719e-001	 1.6391863787e+000
 1.9108214328e+000	 6.7036292545e-001	 1.5023285978e+000
 1.9041220627e+000	 6.8916193331e-001	 1.3381967419e+000
 1.8972224076e+000	 7.0793512132e-001	 1.1480210470e+000
 1.8901222194e+000	 7.2667943112e-001	 9.3313309127e-001
 1.8828213097e+000	 7.4539178687e-001	 6.9496497268e-001
 1.9708678643e+000	 5.6407434045e-001	 1.5309487245e+000
 1.9652937728e+000	 5.8319841105e-001	 1.6006505079e+000
 1.9595196545e+000	 6.0231447232e-001	 1.6333120547e+000
 1.9535449131e+000	 6.2141956238e-001	 1.6280642969e+000
 1.9473690074e+000	 6.4051069382e-001	 1.5648824642e+000
 1.9409914526e+000	 6.5958485493e-001	 1.4699423030e+000
 1.9344118209e+000	 6.7863901094e-001	 1.3498923719e+000
 1.9276297425e+000	 6.9767010533e-001	 1.2059067026e+000
 1.9206449065e+000	 7.1667506109e-001	 1.0392610238e+000
 1.9134570617e+000	 7.3565078212e-001	 8.5133206799e-001
 1.9060660172e+000	 7.5459415461e-001	 6.4359666036e-001
 1.9949028382e+000	 5.7095329582e-001	 1.3653000276e+000
 1.9892607700e+000	 5.9031058679e-001	 1.4383950605e+000
 1.9834162357e+000	 6.0965977076e-001	 1.4789967258e+000
 1.9773686316e+000	 6.2899784972e-001	 1.4781224657e+000
 1.9711174100e+000	 6.4832179984e-001	 1.4183599133e+000
 1.9646620801e+000	 6.6762857267e-001	 1.3354927757e+000
 1.9580022090e+000	 6.8691509644e-001	 1.2306399907e+000
 1.9511374223e+000	 7.0617827734e-001	 1.1050226736e+000
 1.9440674054e+000	 7.2541500086e-001	 9.5996355815e-001
 1.9367919039e+000	 7.4462213312e-001	 7.9688621894e-001
 1.9293107247e+000	 7.6379652235e-001	 6.1731406982e-001
 2.0189378122e+000	 5.7783225119e-001	 1.2427443310e+000
 2.0132277673e+000	 5.9742276253e-001	 1.3195157081e+000
 2.0073128168e+000	 6.1700506920e-001	 1.3682575554e+000
 2.0011923500e+000	 6.3657613707e-001	 1.3590600830e+000
 1.9948658125e+000	 6.5613290586e-001	 1.3070360467e+000
 1.9883327076e+000	 6.7567229041e-001	 1.2348174218e+000
 1.9815925970e+000	 6.9519118194e-001	 1.1435714213e+000
 1.9746451021e+000	 7.1468644936e-001	 1.0345676124e+000
 1.9674899042e+000	 7.3415494062e-001	 9.0917727764e-001
 1.9601267461e+000	 7.5359348412e-001	 7.6887254988e-001
 1.9525554322e+000	 7.7299889008e-001	 6.1522532184e-001
 2.0429727862e+000	 5.8471120656e-001	 1.1624728115e+000
 2.0371947645e+000	 6.0453493827e-001	 1.2432444477e+000
 2.0312093980e+000	 6.2435036764e-001	 1.3003712954e+000
 2.0250160685e+000	 6.4415442441e-001	 1.2754456442e+000
 2.0186142150e+000	 6.6394401188e-001	 1.2299159020e+000
 2.0120033350e+000	 6.8371600815e-001	 1.1669369315e+000
 2.0051829851e+000	 7.0346726743e-001	 1.0877254463e+000
 1.9981527819e+000	 7.2319462137e-001	 9.9360086565e-001
 1.9909124031e+000	 7.4289488039e-001	 8.8598459261e-001
 1.9834615883e+000	 7.6256483512e-001	 7.6639906472e-001
 1.9758001398e+000	 7.8220125782e-001	 6.3646657215e-001
 2.0670077601e+000	 5.9159016193e-001	 1.1237234019e+000
 2.0611617617e+000	 6.1164711402e-001	 1.2088587497e+000
 2.0551059791e+000	 6.3169566608e-001	 1.2505516302e+000
 2.0488397869e+000	 6.5173271175e-001	 1.2263133543e+000
 2.0423626176e+000	 6.7175511790e-001	 1.1860451444e+000
 2.0356739625e+000	 6.9175972589e-001	 1.1309106720e+000
 2.0287733731e+000	 7.1174335293e-001	 1.0621774082e+000
 2.0216604616e+000	 7.3170279338e-001	 9.8121605270e-001
 2.0143349019e+000	 7.5163482016e-001	 8.8949973204e-001
 2.0067964305e+000	 7.7153618612e-001	 7.8860296325e-001
 1.9990448473e+000	 7.9140362556e-001	 6.8020038149e-001
 2.0910427341e+000	 5.9846911730e-001	 1.1257781036e+000
 2.0851287589e+000	 6.1875928976e-001	 1.2156789447e+000
 2.0790025603e+000	 6.3904096452e-001	 1.2333084995e+000
 2.0726635054e+000	 6.5931099910e-001	 1.2107373907e+000
 2.0661110201e+000	 6.7956622392e-001	 1.1745077315e+000
 2.0593445900e+000	 6.9980344363e-001	 1.1258344654e+000
 2.0523637612e+000	 7.2001943843e-001	 1.0660371071e+000
 2.0451681414e+000	 7.4021096540e-001	 9.9653909647e-001
 2.0377574008e+000	 7.6037475992e-001	 9.1886691488e-001
 2.0301312727e+000	 7.8050753712e-001	 8.3464896324e-001
 2.0222895548e+000	 8.0060599330e-001	 7.4561419807e-001
 2.1150777080e+000	 6.0534807266e-001	 1.1679604827e+000
 2.1090957562e+000	 6.2587146550e-001	 1.2591400040e+000
 2.1028991414e+000	 6.4638626296e-001	 1.2497888410e+000
 2.0964872238e+000	 6.6688928644e-001	 1.2278296324e+000
 2.0898594226e+000	 6.8737732993e-001	 1.1944237378e+000
 2.0830152175e+000	 7.0784716137e-001	 1.1508385167e+000
 2.0759541493e+000	 7.2829552392e-001	 1.0984468439e+000
 2.0686758212e+000	 7.4871913741e-001	 1.0387263878e+000
 2.0611798997e+000	 7.6911469969e-001	 9.7325864606e-001
 2.0534661149e+000	 7.8947888812e-001	 9.0372773691e-001
 2.0455342623e+000	 8.0980836103e-001	 8.3191894351e-001
 2.1391126820e+000	 6.1222702803e-001	 1.2496333350e+000
 2.1330627534e+000	 6.3298364124e-001	 1.3109264822e+000
 2.1267957226e+000	 6.5373156140e-001	 1.2991351818e+000
 2.1203109423e+000	 6.7446757378e-001	 1.2767375416e+000
 2.1136078252e+000	 6.9518843595e-001	 1.2449473255e+000
 2.1066858449e+000	 7.1589087911e-001	 1.2050854827e+000
 2.0995445373e+000	 7.3657160942e-001	 1.1585795938e+000
 2.0921835010e+000	 7.5722730942e-001	 1.1069630739e+000
 2.0846023985e+000	 7.7785463946e-001	 1.0518741274e+000
 2.0768009572e+000	 7.9845023912e-001	 9.9505445282e-001
 2.0687789699e+000	 8.1901072877e-001	 9.3834769412e-001
 2.1631476559e+000	 6.1910598340e-001	 1.3701965067e+000
 2.1570297506e+000	 6.4009581698e-001	 1.3956458966e+000
 2.1506923038e+000	 6.6107685984e-001	 1.3805249353e+000
 2.1441346607e+000	 6.8204586113e-001	 1.3566421868e+000
 2.1373562277e+000	 7.0299954197e-001	 1.3252648509e+000
 2.1303564724e+000	 7.2393459685e-001	 1.2877686689e+000
 2.1231349254e+000	 7.4484769492e-001	 1.2456373024e+000
 2.1156911808e+000	 7.6573548144e-001	 1.2004614606e+000
 2.1080248974e+000	 7.8659457923e-001	 1.1539377746e+000
 2.1001357994e+000	 8.0742159012e-001	 1.1078674150e+000
 2.0920236774e+000	 8.2821309651e-001	 1.0641544501e+000
 1.8595766021e+000	 7.3618941913e-001	 1.1765215817e+000
 1.8521674571e+000	 7.5463614479e-001	 1.1040453442e+000
 1.8445598760e+000	 7.7304518882e-001	 1.0428559187e+000
 1.8367538539e+000	 7.9141346985e-001	 9.9314188470e-001
 1.8287494474e+000	 8.0973789495e-001	 9.5507148611e-001
 1.8205467755e+000	 8.2801536107e-001	 9.2879214894e-001
 1.8121460198e+000	 8.4624275656e-001	 9.1443004145e-001
 1.8035474251e+000	 8.6441696276e-001	 9.1208967911e-001
 1.7947513000e+000	 8.8253485550e-001	 9.2185357603e-001
 1.7857580172e+000	 9.0059330673e-001	 9.4378194442e-001
 1.7765680137e+000	 9.1858918611e-001	 9.7791244382e-001
 1.8828213097e+000	 7.4539178687e-001	 6.9496497268e-001
 1.8753195503e+000	 7.6406909660e-001	 4.4372581740e-001
 1.8676168744e+000	 7.8270825368e-001	 3.9860410579e-001
 1.8597132771e+000	 8.0130613823e-001	 3.7790412453e-001
 1.8516088155e+000	 8.1985961864e-001	 3.7306354471e-001
 1.8433036102e+000	 8.3836555308e-001	 3.8416689377e-001
 1.8347978450e+000	 8.5682079102e-001	 4.1127246261e-001
 1.8260917679e+000	 8.7522217479e-001	 4.5441191716e-001
 1.8171856912e+000	 8.9356654119e-001	 5.1358996388e-001
 1.8080799924e+000	 9.1185072306e-001	 5.8878407078e-001
 1.7987751138e+000	 9.3007155093e-001	 6.7994424587e-001
 1.9060660172e+000	 7.5459415461e-001	 6.4359666036e-001
 1.8984716435e+000	 7.7350204841e-001	 4.1753156916e-001
 1.8906738729e+000	 7.9237131854e-001	 1.9592539035e-001
 1.8826727002e+000	 8.1119880660e-001	-1.9557684612e-002
 1.8744681836e+000	 8.2998134233e-001	-2.1191660718e-001
 1.8660604449e+000	 8.4871574509e-001	-1.6646348930e-001
 1.8574496703e+000	 8.6739882548e-001	-1.0096665742e-001
 1.8486361107e+000	 8.8602738683e-001	-1.5466380974e-002
 1.8396200825e+000	 9.0459822689e-001	 8.9965162857e-002
 1.8304019676e+000	 9.2310813940e-001	 2.1522363111e-001
 1.8209822140e+000	 9.4155391576e-001	 3.6017232198e-001
 1.9293107247e+000	 7.6379652235e-001	 6.1731406982e-001
 1.9216237367e+000	 7.8293500022e-001	 4.1318680750e-001
 1.9137308713e+000	 8.0203438340e-001	 2.1570720481e-001
 1.9056321234e+000	 8.2109147497e-001	 2.6557401624e-002
 1.8973275517e+000	 8.4010306601e-001	-1.5250569071e-001
 1.8888172796e+000	 8.5906593711e-001	-3.1965260527e-001
 1.8801014955e+000	 8.7797685993e-001	-4.7298373863e-001
 1.8711804535e+000	 8.9683259886e-001	-4.9806211054e-001
 1.8620544737e+000	 9.1562991258e-001	-3.4942022467e-001
 1.8527239428e+000	 9.3436555573e-001	-1.7717801795e-001
 1.8431893142e+000	 9.5303628058e-001	 1.8441995647e-002
 1.9525554322e+000	 7.7299889008e-001	 6.1522532184e-001
 1.9447758299e+000	 7.9236795203e-001	 4.2986234531e-001
 1.9367878698e+000	 8.1169744825e-001	 2.5320744796e-001
 1.9285915466e+000	 8.3098414334e-001	 8.6963623630e-002
 1.9201869198e+000	 8.5022478970e-001	-6.7091181606e-002
 1.9115741143e+000	 8.6941612912e-001	-2.0710635974e-001
 1.9027533208e+000	 8.8855489439e-001	-3.3116113826e-001
 1.8937247963e+000	 9.0763781090e-001	-4.3726728242e-001
 1.8844888650e+000	 9.2666159827e-001	-5.2337199959e-001
 1.8750459180e+000	 9.4562297206e-001	-5.8736104220e-001
 1.8653964143e+000	 9.6451864541e-001	-3.4542550387e-001
 1.9758001398e+000	 7.8220125782e-001	 6.3646657215e-001
 1.9679279231e+000	 8.0180090384e-001	 4.6675253305e-001
 1.9598448682e+000	 8.2136051311e-001	 3.0768033610e-001
 1.9515509698e+000	 8.4087681172e-001	 1.6097674366e-001
 1.9430462879e+000	 8.6034651339e-001	 2.8443807599e-002
 1.9343309490e+000	 8.7976632113e-001	-8.8043497824e-002
 1.9254051460e+000	 8.9913292885e-001	-1.8653985448e-001
 1.9162691391e+000	 9.1844302293e-001	-2.6503238784e-001
 1.9069232562e+000	 9.3769328397e-001	-3.2144366049e-001
 1.8973678932e+000	 9.5688038840e-001	-3.5363486817e-001
 1.8876035145e+000	 9.7600101023e-001	-3.5940923383e-001
 1.9990448473e+000	 7.9140362556e-001	 6.8020038149e-001
 1.9910800163e+000	 8.1123385565e-001	 5.2307389027e-001
 1.9829018667e+000	 8.3102357797e-001	 3.7839789490e-001
 1.9745103929e+000	 8.5076948009e-001	 2.4792585107e-001
 1.9659056560e+000	 8.7046823707e-001	 1.3348699753e-001
 1.9570877837e+000	 8.9011651315e-001	 3.6983909726e-002
 1.9480569713e+000	 9.0971096330e-001	-3.9610162598e-002
 1.9388134820e+000	 9.2924823496e-001	-9.4254171043e-002
 1.9293576475e+000	 9.4872496966e-001	-1.2484235463e-001
 1.9196898685e+000	 9.6813780473e-001	-1.2920753238e-001
 1.9098106147e+000	 9.8748337506e-001	-1.0512459807e-001
 2.0222895548e+000	 8.0060599330e-001	 7.4561419807e-001
 2.0142321096e+000	 8.2066680746e-001	 5.9806383155e-001
 2.0059588651e+000	 8.4068664283e-001	 4.6464893591e-001
 1.9974698161e+000	 8.6066214846e-001	 3.4715259640e-001
 1.9887650241e+000	 8.8058996076e-001	 2.4743433106e-001
 1.9798446184e+000	 9.0046670516e-001	 1.6742756249e-001
 1.9707087965e+000	 9.2028899776e-001	 1.0913686897e-001
 1.9613578248e+000	 9.4005344700e-001	 7.4635017475e-002
 1.9517920388e+000	 9.5975665535e-001	 6.6059781740e-002
 1.9420118437e+000	 9.7939522106e-001	 8.5610549425e-002
 1.9320177149e+000	 9.9896573988e-001	 1.3554472289e-001
 2.0455342623e+000	 8.0980836103e-001	 8.3191894351e-001
 2.0373842028e+000	 8.3009975926e-001	 6.9097947925e-001
 2.0290158636e+000	 8.5034970769e-001	 5.6573810276e-001
 2.0204292393e+000	 8.7055481683e-001	 4.5801047767e-001
 2.0116243922e+000	 8.9071168444e-001	 3.6968950608e-001
 2.0026014531e+000	 9.1081689717e-001	 3.0274271615e-001
 1.9933606218e+000	 9.3086703222e-001	 2.5920942378e-001
 1.9839021676e+000	 9.5085865903e-001	 2.4119767128e-001
 1.9742264300e+000	 9.7078834105e-001	 2.5088094616e-001
 1.9643338189e+000	 9.9065263740e-001	 2.9049468437e-001
 1.9542248150e+000	 1.0104481047e+000	 3.6233256266e-001
 2.0687789699e+000	 8.1901072877e-001	 9.3834769412e-001
 2.0605362960e+000	 8.3953271107e-001	 8.0109655635e-001
 2.0520728620e+000	 8.6001277255e-001	 6.8098498180e-001
 2.0433886625e+000	 8.8044748521e-001	 5.7986417478e-001
 2.0344837603e+000	 9.0083340813e-001	 4.9966353989e-001
 2.0253582878e+000	 9.2116708919e-001	 4.4238798272e-001
 2.0160124470e+000	 9.4144506667e-001	 4.1011497938e-001
 2.0064465104e+000	 9.6166387107e-001	 4.0499141763e-001
 1.9966608213e+000	 9.8182002674e-001	 4.2923021302e-001
 1.9866557941e+000	 1.0019100537e+000	 4.8510670451e-001
 1.9764319152e+000	 1.0219304695e+000	 5.7495483433e-001
 2.0920236774e+000	 8.2821309651e-001	 1.0641544501e+000
 2.0836883892e+000	 8.4896566288e-001	 9.2770835308e-001
 2.0751298605e+000	 8.6967583741e-001	 8.0972327187e-001
 2.0663480856e+000	 8.9034015358e-001	 7.1208892833e-001
 2.0573431284e+000	 9.1095513182e-001	 6.3677436254e-001
 2.0481151225e+000	 9.3151728120e-001	 5.8582514409e-001
 2.0386642723e+000	 9.5202310113e-001	 5.6136034654e-001
 2.0289908532e+000	 9.7246908310e-001	 5.6556928784e-001
 2.0190952125e+000	 9.9285171243e-001	 6.0070804044e-001
 2.0089777693e+000	 1.0131674701e+000	 6.6909571545e-001
 1.9986390154e+000	 1.0334128344e+000	 7.7311052606e-001
 1.7765680137e+000	 9.1858918611e-001	 9.7791244382e-001
 1.7671817913e+000	 9.3651936262e-001	 7.5528449538e-001
 1.7575999168e+000	 9.5438070623e-001	 5.5009533710e-001
 1.7478230222e+000	 9.7217008953e-001	 3.6127598312e-001
 1.7378518049e+000	 9.8988438938e-001	 1.8771895946e-001
 1.7276870275e+000	 1.0075204886e+000	 2.8279292994e-002
 1.7173295184e+000	 1.0250752778e+000	-1.1822441322e-001
 1.7067801714e+000	 1.0425456567e+000	-2.5300881901e-001
 1.6960399458e+000	 1.0599285364e+000	-3.7732460158e-001
 1.6851098662e+000	 1.0772208403e+000	-4.9245512660e-001
 1.6739910224e+000	 1.0944195068e+000	-5.9971503756e-001
 1.7987751138e+000	 9.3007155093e-001	 6.7994424587e-001
 1.7892715637e+000	 9.4822585465e-001	 4.7582381444e-001
 1.7795699158e+000	 9.6631046506e-001	 2.8854214485e-001
 1.7696708100e+000	 9.8432221564e-001	 1.1711541918e-001
 1.7595749524e+000	 1.0022579442e+000	-3.9477970809e-002
 1.7492831153e+000	 1.0201144947e+000	-1.8229651356e-001
 1.7387961374e+000	 1.0378887188e+000	-3.1243458179e-001
 1.7281149236e+000	 1.0555774775e+000	-4.3102135153e-001
 1.7172404451e+000	 1.0731776431e+000	-5.3921963707e-001
 1.7061737395e+000	 1.0906861008e+000	-6.3822464272e-001
 1.6949159102e+000	 1.1080997506e+000	-7.2926263307e-001
 1.8209822140e+000	 9.4155391576e-001	 3.6017232198e-001
 1.8113613361e+000	 9.5993234668e-001	 1.7950634091e-001
 1.8015399147e+000	 9.7824022389e-001	 1.5155472786e-002
 1.7915185978e+000	 9.9647434176e-001	-1.3378134742e-001
 1.7812981000e+000	 1.0146314991e+000	-2.6824236468e-001
 1.7708792032e+000	 1.0327085009e+000	-3.8920217093e-001
 1.7602627564e+000	 1.0507021598e+000	-4.9767078677e-001
 1.7494496757e+000	 1.0686092982e+000	-5.9469265868e-001
 1.7384409444e+000	 1.0864267498e+000	-6.8134557215e-001
 1.7272376128e+000	 1.1041513613e+000	-7.5873948211e-001
 1.7158407980e+000	 1.1217799944e+000	-8.2801526162e-001
 1.8431893142e+000	 9.5303628058e-001	 1.8441995647e-002
 1.8334511084e+000	 9.7163883872e-001	-1.3399282758e-001
 1.8235099137e+000	 9.9016998271e-001	-2.7056082031e-001
 1.8133663856e+000	 1.0086264679e+000	-3.9208263955e-001
 1.8030212475e+000	 1.0270050540e+000	-4.9941559847e-001
 1.7924752910e+000	 1.0453025070e+000	-5.9345290892e-001
 1.7817293753e+000	 1.0635156007e+000	-6.7512283917e-001
 1.7707844278e+000	 1.0816411189e+000	-7.4538778726e-001
 1.7596414438e+000	 1.0996758565e+000	-8.0524327056e-001
 1.7483014862e+000	 1.1176166218e+000	-8.5571683248e-001
 1.7367656858e+000	 1.1354602383e+000	-8.9786686740e-001
 1.8653964143e+000	 9.6451864541e-001	-3.4542550387e-001
 1.8555408808e+000	 9.8334533075e-001	-4.6501462823e-001
 1.8454799126e+000	 1.0020997415e+000	-5.6911077578e-001
 1.8352141733e+000	 1.0207785940e+000	-6.5845647360e-001
 1.8247443951e+000	 1.0393786088e+000	-7.3383046701e-001
 1.8140713789e+000	 1.0578965131e+000	-7.9604703612e-001
 1.8031959943e+000	 1.0763290417e+000	-8.4595522788e-001
 1.7921191800e+000	 1.0946729396e+000	-8.8443800381e-001
 1.7808419431e+000	 1.1129249632e+000	-9.1241130395e-001
 1.7693653595e+000	 1.1310818823e+000	-9.3082302783e-001
 1.7576905735e+000	 1.1491404821e+000	-9.4065193341e-001
 1.8876035145e+000	 9.7600101023e-001	-3.5940923383e-001
 1.8776306532e+000	 9.9505182278e-001	-7.3709330565e-001
 1.8674499116e+000	 1.0140295004e+000	-8.8100587035e-001
 1.8570619611e+000	 1.0329307201e+000	-9.3357057744e-001
 1.8464675427e+000	 1.0517521637e+000	-9.7231168844e-001
 1.8356674667e+000	 1.0704905192e+000	-9.9796693529e-001
 1.8246626133e+000	 1.0891424827e+000	-1.0113086093e+000
 1.8134539321e+000	 1.1077047603e+000	-1.0131427817e+000
 1.8020424424e+000	 1.1261740699e+000	-1.0043084396e+000
 1.7904292328e+000	 1.1445471428e+000	-9.8567653981e-001
 1.7786154613e+000	 1.1628207260e+000	-9.5814897909e-001
 1.9098106147e+000	 9.8748337506e-001	-1.0512459807e-001
 1.8997204256e+000	 1.0067583148e+000	-4.5478695826e-001
 1.8894199106e+000	 1.0259592592e+000	-7.8957287710e-001
 1.8789097489e+000	 1.0450828462e+000	-1.1070689618e+000
 1.8681906902e+000	 1.0641257186e+000	-1.2156763738e+000
 1.8572635545e+000	 1.0830845253e+000	-1.2001799892e+000
 1.8461292323e+000	 1.1019559236e+000	-1.1723011930e+000
 1.8347886843e+000	 1.1207365810e+000	-1.1327716494e+000
 1.8232429417e+000	 1.1394231766e+000	-1.0823559547e+000
 1.8114931061e+000	 1.1580124033e+000	-1.0218507605e+000
 1.7995403491e+000	 1.1765009698e+000	-9.5208381413e-001
 1.9320177149e+000	 9.9896573988e-001	 1.3554472289e-001
 1.9218101980e+000	 1.0184648068e+000	-1.8332017458e-001
 1.9113899095e+000	 1.0378890180e+000	-4.8885565445e-001
 1.9007575367e+000	 1.0572349723e+000	-7.7844768480e-001
 1.8899138378e+000	 1.0764992734e+000	-1.0494199868e+000
 1.8788596424e+000	 1.0956785314e+000	-1.2990385834e+000
 1.8675958513e+000	 1.1147693646e+000	-1.3300300315e+000
 1.8561234364e+000	 1.1337684017e+000	-1.2445659118e+000
 1.8444434411e+000	 1.1526722833e+000	-1.1479397908e+000
 1.8325569795e+000	 1.1714776638e+000	-1.0408765930e+000
 1.8204652369e+000	 1.1901812136e+000	-9.2413256765e-001
 1.9542248150e+000	 1.0104481047e+000	 3.6233256266e-001
 1.9438999704e+000	 1.0301712989e+000	 7.6866503148e-002
 1.9333599085e+000	 1.0498187768e+000	-1.9681116471e-001
 1.9226053244e+000	 1.0693870985e+000	-4.5588413434e-001
 1.9116369853e+000	 1.0888728283e+000	-6.9746927661e-001
 1.9004557302e+000	 1.1082725375e+000	-9.1862144893e-001
 1.8890624702e+000	 1.1275828056e+000	-1.1163385059e+000
 1.8774581886e+000	 1.1468002224e+000	-1.2875665020e+000
 1.8656439404e+000	 1.1659213900e+000	-1.2024125619e+000
 1.8536208528e+000	 1.1849429244e+000	-1.0442448658e+000
 1.8413901247e+000	 1.2038614575e+000	-8.7592451105e-001
 1.9764319152e+000	 1.0219304695e+000	 5.7495483433e-001
 1.9659897428e+000	 1.0418777909e+000	 3.2532060649e-001
 1.9553299075e+000	 1.0617485357e+000	 8.5937982401e-002
 1.9444531122e+000	 1.0815392246e+000	-1.4017271720e-001
 1.9333601329e+000	 1.1012463832e+000	-3.4991972830e-001
 1.9220518181e+000	 1.1208665436e+000	-5.4014491661e-001
 1.9105290892e+000	 1.1403962465e+000	-7.0762906310e-001
 1.8987929407e+000	 1.1598320431e+000	-8.4909735204e-001
 1.8868444397e+000	 1.1791704967e+000	-9.6122505099e-001
 1.8746847261e+000	 1.1984081849e+000	-1.0334085842e+000
 1.8623150124e+000	 1.2175417013e+000	-8.0904469042e-001
 1.9986390154e+000	 1.0334128344e+000	 7.7311052606e-001
 1.9880795152e+000	 1.0535842829e+000	 5.6157840338e-001
 1.9772999064e+000	 1.0736782945e+000	 3.5876362779e-001
 1.9663009000e+000	 1.0936913507e+000	 1.6789237515e-001
 1.9550832805e+000	 1.1136199380e+000	-7.7330673547e-003
 1.9436479059e+000	 1.1334605497e+000	-1.6473964196e-001
 1.9319957082e+000	 1.1532096875e+000	-2.9968908443e-001
 1.9201276929e+000	 1.1728638638e+000	-4.0908370141e-001
 1.9080449390e+000	 1.1924196034e+000	-4.8937234962e-001
 1.8957485995e+000	 1.2118734454e+000	-5.3695660516e-001
 1.8832399002e+000	 1.2312219451e+000	-5.4819711022e-001
 1.6739910224e+000	 1.0944195068e+000	-5.9971503756e-001
 1.6626845693e+000	 1.1115214900e+000	-7.1941694656e-001
 1.6511917266e+000	 1.1285237623e+000	-8.2032995953e-001
 1.6395137781e+000	 1.1454233153e+000	-9.0314302070e-001
 1.6276520721e+000	 1.1622171622e+000	-9.6857989834e-001
 1.6156080202e+000	 1.1789023391e+000	-1.0173982065e+000
 1.6033830974e+000	 1.1954759065e+000	-1.0503883502e+000
 1.5909788412e+000	 1.2119349516e+000	-1.0683723959e+000
 1.5783968513e+000	 1.2282765894e+000	-1.0722028686e+000
 1.5656387886e+000	 1.2444979645e+000	-1.0627614791e+000
 1.5527063751e+000	 1.2605962528e+000	-1.3120582836e+000
 1.6949159102e+000	 1.1080997506e+000	-7.2926263307e-001
 1.6834681265e+000	 1.1254155087e+000	-8.0874950009e-001
 1.6718316232e+000	 1.1426303093e+000	-8.6886293498e-001
 1.6600077003e+000	 1.1597411068e+000	-9.1036856253e-001
 1.6479977230e+000	 1.1767448768e+000	-9.3406818941e-001
 1.6358031204e+000	 1.1936386183e+000	-9.4079873865e-001
 1.6234253861e+000	 1.2104193553e+000	-9.3143110433e-001
 1.6108660767e+000	 1.2270841385e+000	-9.0686892833e-001
 1.5981268119e+000	 1.2436300467e+000	-8.6804730137e-001
 1.5852092735e+000	 1.2600541890e+000	-1.0677181916e+000
 1.5721152048e+000	 1.2763537060e+000	-1.4259247929e+000
 1.7158407980e+000	 1.1217799944e+000	-8.2801526162e-001
 1.7042516836e+000	 1.1393095273e+000	-8.6821914232e-001
 1.6924715197e+000	 1.1567368563e+000	-8.8843137243e-001
 1.6805016226e+000	 1.1740588982e+000	-8.8949438729e-001
 1.6683433739e+000	 1.1912725913e+000	-8.7228820540e-001
 1.6559982207e+000	 1.2083748975e+000	-8.3772927519e-001
 1.6434676748e+000	 1.2253628042e+000	-7.8676923874e-001
 1.6307533122e+000	 1.2422333254e+000	-7.2039361445e-001
 1.6178567725e+000	 1.2589835041e+000	-8.5838197402e-001
 1.6047797583e+000	 1.2756104136e+000	-1.1853004267e+000
 1.5915240345e+000	 1.2921111591e+000	-1.5160566322e+000
 1.7367656858e+000	 1.1354602383e+000	-8.9786686740e-001
 1.7250352407e+000	 1.1532035459e+000	-8.9966112436e-001
 1.7131114163e+000	 1.1708434034e+000	-8.8081157590e-001
 1.7009955448e+000	 1.1883766897e+000	-8.4223763336e-001
 1.6886890248e+000	 1.2058003058e+000	-7.8489773643e-001
 1.6761933210e+000	 1.2231111768e+000	-7.0978811190e-001
 1.6635099635e+000	 1.2403062530e+000	-6.1794144583e-001
 1.6506405477e+000	 1.2573825123e+000	-6.8396121586e-001
 1.6375867332e+000	 1.2743369615e+000	-9.7780766683e-001
 1.6243502432e+000	 1.2911666381e+000	-1.2777669743e+000
 1.6109328642e+000	 1.3078686123e+000	-1.5826732057e+000
 1.7576905735e+000	 1.1491404821e+000	-9.4065193341e-001
 1.7458187978e+000	 1.1670975645e+000	-9.0485381554e-001
 1.7337513129e+000	 1.1849499504e+000	-8.4772553468e-001
 1.7214894670e+000	 1.2026944811e+000	-7.7026367768e-001
 1.7090346757e+000	 1.2203280204e+000	-6.7350534957e-001
 1.6963884212e+000	 1.2378474560e+000	-5.5852684366e-001
 1.6835522522e+000	 1.2552497018e+000	-5.4458100851e-001
 1.6705277832e+000	 1.2725316992e+000	-8.0347531075e-001
 1.6573166938e+000	 1.2896904188e+000	-1.0707758574e+000
 1.6439207281e+000	 1.3067228627e+000	-1.3453313335e+000
 1.6303416939e+000	 1.3236260655e+000	-1.6259595408e+000
 1.7786154613e+000	 1.1628207260e+000	-9.5814897909e-001
 1.7666023549e+000	 1.1809915832e+000	-8.8552204942e-001
 1.7543912095e+000	 1.1990564974e+000	-7.9084411825e-001
 1.7419833892e+000	 1.2170122725e+000	-6.7518918052e-001
 1.7293803266e+000	 1.2348557349e+000	-5.3967328423e-001
 1.7165835215e+000	 1.2525837353e+000	-4.4059182364e-001
 1.7035945410e+000	 1.2701931507e+000	-6.6255183644e-001
 1.6904150188e+000	 1.2876808861e+000	-8.9522966820e-001
 1.6770466545e+000	 1.3050438762e+000	-1.1374925306e+000
 1.6634912129e+000	 1.3222790873e+000	-1.3881723689e+000
 1.6497505236e+000	 1.3393835186e+000	-1.6460683105e+000
 1.7995403491e+000	 1.1765009698e+000	-9.5208381413e-001
 1.7873859120e+000	 1.1948856018e+000	-8.4334023630e-001
 1.7750311061e+000	 1.2131630445e+000	-7.1179004842e-001
 1.7624773115e+000	 1.2313300640e+000	-5.5858491787e-001
 1.7497259775e+000	 1.2493834494e+000	-3.8492014570e-001
 1.7367786217e+000	 1.2673200145e+000	-5.5551737719e-001
 1.7236368297e+000	 1.2851365995e+000	-7.5150089929e-001
 1.7103022543e+000	 1.3028300730e+000	-9.5942135295e-001
 1.6967766151e+000	 1.3203973336e+000	-1.1781288828e+000
 1.6830616978e+000	 1.3378353118e+000	-1.4064363243e+000
 1.6691593533e+000	 1.3551409718e+000	-1.6431217145e+000
 1.8204652369e+000	 1.1901812136e+000	-9.2413256765e-001
 1.8081694692e+000	 1.2087796204e+000	-7.7993526115e-001
 1.7956710026e+000	 1.2272695915e+000	-6.1214066638e-001
 1.7829712337e+000	 1.2456478554e+000	-4.2197841841e-001
 1.7700716284e+000	 1.2639111639e+000	-4.8309519839e-001
 1.7569737220e+000	 1.2820562937e+000	-6.4020020471e-001
 1.7436791184e+000	 1.3000800483e+000	-8.1161512474e-001
 1.7301894898e+000	 1.3179792599e+000	-9.9621258036e-001
 1.7165065757e+000	 1.3357507909e+000	-1.1928233218e+000
 1.7026321826e+000	 1.3533915364e+000	-1.4002386974e+000
 1.6885681830e+000	 1.3708984249e+000	-1.6172132305e+000
 1.8413901247e+000	 1.2038614575e+000	-8.7592451105e-001
 1.8289530263e+000	 1.2226736390e+000	-6.9688918385e-001
 1.8163108992e+000	 1.2413761385e+000	-4.9343051119e-001
 1.8034651559e+000	 1.2599656469e+000	-4.4626262009e-001
 1.7904172793e+000	 1.2784388785e+000	-5.6218792312e-001
 1.7771688222e+000	 1.2967925730e+000	-6.9481605461e-001
 1.7637214071e+000	 1.3150234972e+000	-8.4304661216e-001
 1.7500767253e+000	 1.3331284468e+000	-1.0057326965e+000
 1.7362365364e+000	 1.3511042483e+000	-1.1816833292e+000
 1.7222026675e+000	 1.3689477609e+000	-1.3696659867e+000
 1.7079770127e+000	 1.3866558781e+000	-1.5684092462e+000
 1.8623150124e+000	 1.2175417013e+000	-8.0904469042e-001
 1.8497365834e+000	 1.2365676577e+000	-5.9574175754e-001
 1.8369507958e+000	 1.2554826855e+000	-4.4626133166e-001
 1.8239590782e+000	 1.2742834383e+000	-5.1858501375e-001
 1.8107629302e+000	 1.2929665930e+000	-6.1002278697e-001
 1.7973639225e+000	 1.3115288522e+000	-7.1950594065e-001
 1.7837636958e+000	 1.3299669460e+000	-8.4591458919e-001
 1.7699639608e+000	 1.3482776336e+000	-9.8808002492e-001
 1.7559664970e+000	 1.3664577057e+000	-1.1447871984e+000
 1.7417731524e+000	 1.3845039855e+000	-1.3147773205e+000
 1.7273858424e+000	 1.4024133313e+000	-1.4967505808e+000
 1.8832399002e+000	 1.2312219451e+000	-5.4819711022e-001
 1.8705201405e+000	 1.2504616763e+000	-4.8460704842e-001
 1.8575906924e+000	 1.2695892326e+000	-5.1078335301e-001
 1.8444530004e+000	 1.2886012298e+000	-5.5850133407e-001
 1.8311085811e+000	 1.3074943075e+000	-6.2672890201e-001
 1.8175590227e+000	 1.3262651314e+000	-7.1437807167e-001
 1.8038059846e+000	 1.3449103948e+000	-8.2030723798e-001
 1.7898511964e+000	 1.3634268205e+000	-9.4332358969e-001
 1.7756964577e+000	 1.3818111630e+000	-1.0821856556e+000
 1.7613436372e+000	 1.4000602100e+000	-1.2356059779e+000
 1.7467946721e+000	 1.4181707844e+000	-1.4022539063e+000
 1.5527063751e+000	 1.2605962528e+000	-1.3120582836e+000
 1.5396013926e+000	 1.2765686632e+000	-1.3808546066e+000
 1.5263256822e+000	 1.2924124388e+000	-1.4500379133e+000
 1.5128811432e+000	 1.3081248589e+000	-1.5184738826e+000
 1.4992697328e+000	 1.3237032403e+000	-1.5850138449e+000
 1.4854934645e+000	 1.3391449388e+000	-1.6484972445e+000
 1.4715544074e+000	 1.3544473509e+000	-1.7077541455e+000
 1.4574546853e+000	 1.3696079148e+000	-1.7616077751e+000
 1.4431964755e+000	 1.3846241126e+000	-1.8088770984e+000
 1.4287820076e+000	 1.3994934709e+000	-1.8483794173e+000
 1.4142135624e+000	 1.4142135624e+000	-1.8789329885e+000
 1.5721152048e+000	 1.2763537060e+000	-1.4259247929e+000
 1.5588464100e+000	 1.2925257715e+000	-1.4680628061e+000
 1.5454047532e+000	 1.3085675943e+000	-1.5122687036e+000
 1.5317921575e+000	 1.3244764197e+000	-1.5574458000e+000
 1.5180106045e+000	 1.3402495308e+000	-1.6024810207e+000
 1.5040621328e+000	 1.3558842505e+000	-1.6462473701e+000
 1.4899488375e+000	 1.3713779427e+000	-1.6876064485e+000
 1.4756728689e+000	 1.3867280138e+000	-1.7254110085e+000
 1.4612364314e+000	 1.4019319140e+000	-1.7585075476e+000
 1.4466417827e+000	 1.4169871393e+000	-1.7857389274e+000
 1.4318912319e+000	 1.4318912319e+000	-1.8059470145e+000
 1.5915240345e+000	 1.2921111591e+000	-1.5160566322e+000
 1.5780914275e+000	 1.3084828798e+000	-1.5351260903e+000
 1.5644838242e+000	 1.3247227498e+000	-1.5579402654e+000
 1.5507031718e+000	 1.3408279804e+000	-1.5834366590e+000
 1.5367514761e+000	 1.3567958213e+000	-1.6105343216e+000
 1.5226308011e+000	 1.3726235623e+000	-1.6381363328e+000
 1.5083432676e+000	 1.3883085346e+000	-1.6651323325e+000
 1.4938910524e+000	 1.4038481127e+000	-1.6904010966e+000
 1.4792763874e+000	 1.4192397154e+000	-1.7128131508e+000
 1.4645015578e+000	 1.4344808076e+000	-1.7312334150e+000
 1.4495689015e+000	 1.4495689015e+000	-1.7445238728e+000
 1.6109328642e+000	 1.3078686123e+000	-1.5826732057e+000
 1.5973364449e+000	 1.3244399881e+000	-1.5821635934e+000
 1.5835628953e+000	 1.3408779053e+000	-1.5870729279e+000
 1.5696141861e+000	 1.3571795411e+000	-1.5963694761e+000
 1.5554923478e+000	 1.3733421118e+000	-1.6090009712e+000
 1.5411994694e+000	 1.3893628740e+000	-1.6238971090e+000
 1.5267376977e+000	 1.4052391265e+000	-1.6399720979e+000
 1.5121092360e+000	 1.4209682117e+000	-1.6561272585e+000
 1.4973163433e+000	 1.4365475169e+000	-1.6712536628e+000
 1.4823613329e+000	 1.4519744760e+000	-1.6842348097e+000
 1.4672465710e+000	 1.4672465710e+000	-1.6939493267e+000
 1.6303416939e+000	 1.3236260655e+000	-1.6259595408e+000
 1.6165814623e+000	 1.3403970964e+000	-1.6092658222e+000
 1.6026419663e+000	 1.3570330608e+000	-1.5996640923e+000
 1.5885252004e+000	 1.3735311019e+000	-1.5961499882e+000
 1.5742332195e+000	 1.3898884023e+000	-1.5976965082e+000
 1.5597681377e+000	 1.4061021858e+000	-1.6032565280e+000
 1.5451321278e+000	 1.4221697184e+000	-1.6117653758e+000
 1.5303274196e+000	 1.4380883106e+000	-1.6221434589e+000
 1.5153562993e+000	 1.4538553183e+000	-1.6332989346e+000
 1.5002211079e+000	 1.4694681444e+000	-1.6441304199e+000
 1.4849242405e+000	 1.4849242405e+000	-1.6535297311e+000
 1.6497505236e+000	 1.3393835186e+000	-1.6460683105e+000
 1.6358264797e+000	 1.3563542047e+000	-1.6164963392e+000
 1.6217210373e+000	 1.3731882162e+000	-1.5956895808e+000
 1.6074362147e+000	 1.3898826626e+000	-1.5826676700e+000
 1.5929740911e+000	 1.4064346928e+000	-1.5764254738e+000
 1.5783368060e+000	 1.4228414975e+000	-1.5759356332e+000
 1.5635265579e+000	 1.4391003103e+000	-1.5801511667e+000
 1.5485456031e+000	 1.4552084095e+000	-1.5880081293e+000
 1.5333962552e+000	 1.4711631197e+000	-1.5984283195e+000
 1.5180808830e+000	 1.4869618128e+000	-1.6103220281e+000
 1.5026019100e+000	 1.5026019100e+000	-1.6225908203e+000
 1.6691593533e+000	 1.3551409718e+000	-1.6431217145e+000
 1.6550714971e+000	 1.3723113129e+000	-1.6038933297e+000
 1.6408001083e+000	 1.3893433717e+000	-1.5751048912e+000
 1.6263472290e+000	 1.4062342233e+000	-1.5557966787e+000
 1.6117149628e+000	 1.4229809833e+000	-1.5449820514e+000
 1.5969054743e+000	 1.4395808092e+000	-1.5416500188e+000
 1.5819209879e+000	 1.4560309022e+000	-1.5447678777e+000
 1.5667637867e+000	 1.4723285085e+000	-1.5532839078e+000
 1.5514362112e+000	 1.4884709211e+000	-1.5661301202e+000
 1.5359406581e+000	 1.5044554812e+000	-1.5822250492e+000
 1.5202795796e+000	 1.5202795796e+000	-1.6004765822e+000
 1.6885681830e+000	 1.3708984249e+000	-1.6172132305e+000
 1.6743165145e+000	 1.3882684212e+000	-1.5714710602e+000
 1.6598791794e+000	 1.4054985272e+000	-1.5378463646e+000
 1.6452582433e+000	 1.4225857841e+000	-1.5153967345e+000
 1.6304558344e+000	 1.4395272738e+000	-1.5031506615e+000
 1.6154741426e+000	 1.4563201210e+000	-1.5001101428e+000
 1.6003154180e+000	 1.4729614941e+000	-1.5052533563e+000
 1.5849819703e+000	 1.4894486074e+000	-1.5175373979e+000
 1.5694761671e+000	 1.5057787225e+000	-1.5359010749e+000
 1.5538004332e+000	 1.5219491496e+000	-1.5592677471e+000
 1.5379572491e+000	 1.5379572491e+000	-1.5865482087e+000
 1.7079770127e+000	 1.3866558781e+000	-1.5684092462e+000
 1.6935615319e+000	 1.4042255295e+000	-1.5192212372e+000
 1.6789582504e+000	 1.4216536827e+000	-1.4838322743e+000
 1.6641692576e+000	 1.4389373448e+000	-1.4613139410e+000
 1.6491967061e+000	 1.4560735643e+000	-1.4507065165e+000
 1.6340428109e+000	 1.4730594327e+000	-1.4510216188e+000
 1.6187098481e+000	 1.4898920859e+000	-1.4612449225e+000
 1.6032001538e+000	 1.5065687063e+000	-1.4803389426e+000
 1.5875161230e+000	 1.5230865239e+000	-1.5072458778e+000
 1.5716602083e+000	 1.5394428180e+000	-1.5408905050e+000
 1.5556349186e+000	 1.5556349186e+000	-1.5801831180e+000
 1.7273858424e+000	 1.4024133313e+000	-1.4967505808e+000
 1.7128065493e+000	 1.4201826378e+000	-1.4471142747e+000
 1.6980373214e+000	 1.4378088382e+000	-1.4129638406e+000
 1.6830802719e+000	 1.4552889056e+000	-1.3933815503e+000
 1.6679375778e+000	 1.4726198548e+000	-1.3874161383e+000
 1.6526114792e+000	 1.4897987444e+000	-1.3940854882e+000
 1.6371042782e+000	 1.5068226778e+000	-1.4123793981e+000
 1.6214183374e+000	 1.5236888053e+000	-1.4412624148e+000
 1.6055560790e+000	 1.5403943253e+000	-1.4796767322e+000
 1.5895199834e+000	 1.5569364863e+000	-1.5265451440e+000
 1.5733125882e+000	 1.5733125882e+000	-1.5807740438e+000
 1.7467946721e+000	 1.4181707844e+000	-1.4022539063e+000
 1.7320515667e+000	 1.4361397461e+000	-1.3551004773e+000
 1.7171163925e+000	 1.4539639937e+000	-1.3251261784e+000
 1.7019912862e+000	 1.4716404663e+000	-1.3114206767e+000
 1.6866784494e+000	 1.4891661453e+000	-1.3130378405e+000
 1.6711801475e+000	 1.5065380562e+000	-1.3289984743e+000
 1.6554987083e+000	 1.5237532697e+000	-1.3582931345e+000
 1.6396365210e+000	 1.5408089042e+000	-1.3998850209e+000
 1.6235960349e+000	 1.5577021267e+000	-1.4527129333e+000
 1.6073797585e+000	 1.5744301547e+000	-1.5156942880e+000
 1.5909902577e+000	 1.5909902577e+000	-1.5877281836e+000
 1.4142135624e+000	 1.4142135624e+000	-1.8789329885e+000
 1.3994934709e+000	 1.4287820076e+000	-1.8431431519e+000
 1.3846241126e+000	 1.4431964755e+000	-1.8184412845e+000
 1.3696079148e+000	 1.4574546853e+000	-1.8041415453e+000
 1.3544473509e+000	 1.4715544074e+000	-1.7995473261e+000
 1.3391449388e+000	 1.4854934645e+000	-1.8039533915e+000
 1.3237032403e+000	 1.4992697328e+000	-1.8166480280e+000
 1.3081248589e+000	 1.5128811432e+000	-1.8369151956e+000
 1.2924124388e+000	 1.5263256822e+000	-1.8640366763e+000
 1.2765686632e+000	 1.5396013926e+000	-1.8972942130e+000
 1.2605962528e+000	 1.5527063751e+000	-1.9359716338e+000
 1.4318912319e+000	 1.4318912319e+000	-1.8059470145e+000
 1.4169871393e+000	 1.4466417827e+000	-1.7774005601e+000
 1.4019319140e+000	 1.4612364314e+000	-1.7575876538e+000
 1.3867280138e+000	 1.4756728689e+000	-1.7457664091e+000
 1.3713779427e+000	 1.4899488375e+000	-1.7411864379e+000
 1.3558842505e+000	 1.5040621328e+000	-1.7430910988e+000
 1.3402495308e+000	 1.5180106045e+000	-1.7507197505e+000
 1.3244764197e+000	 1.5317921575e+000	-1.7633100048e+000
 1.3085675943e+000	 1.5454047532e+000	-1.7800999722e+000
 1.2925257715e+000	 1.5588464100e+000	-1.8003304937e+000
 1.2763537060e+000	 1.5721152048e+000	-1.8232473546e+000
 1.4495689015e+000	 1.4495689015e+000	-1.7445238728e+000
 1.4344808076e+000	 1.4645015578e+000	-1.7235247888e+000
 1.4192397154e+000	 1.4792763874e+000	-1.7089708999e+000
 1.4038481127e+000	 1.4938910524e+000	-1.7000622463e+000
 1.3883085346e+000	 1.5083432676e+000	-1.6959925903e+000
 1.3726235623e+000	 1.5226308011e+000	-1.6959517753e+000
 1.3567958213e+000	 1.5367514761e+000	-1.6991280885e+000
 1.3408279804e+000	 1.5507031718e+000	-1.7047106175e+000
 1.3247227498e+000	 1.5644838242e+000	-1.7118915972e+000
 1.3084828798e+000	 1.5780914275e+000	-1.7198687388e+000
 1.2921111591e+000	 1.5915240345e+000	-1.7278475351e+000
 1.4672465710e+000	 1.4672465710e+000	-1.6939493267e+000
 1.4519744760e+000	 1.4823613329e+000	-1.6808287433e+000
 1.4365475169e+000	 1.4973163433e+000	-1.6719289716e+000
 1.4209682117e+000	 1.5121092360e+000	-1.6663899170e+000
 1.4052391265e+000	 1.5267376977e+000	-1.6633473892e+000
 1.3893628740e+000	 1.5411994694e+000	-1.6619355766e+000
 1.3733421118e+000	 1.5554923478e+000	-1.6612895203e+000
 1.3571795411e+000	 1.5696141861e+000	-1.6605475797e+000
 1.3408779053e+000	 1.5835628953e+000	-1.6588538834e+000
 1.3244399881e+000	 1.5973364449e+000	-1.6553607586e+000
 1.3078686123e+000	 1.6109328642e+000	-1.6492311332e+000
 1.4849242405e+000	 1.4849242405e+000	-1.6535297311e+000
 1.4694681444e+000	 1.5002211079e+000	-1.6486457439e+000
 1.4538553183e+000	 1.5153562993e+000	-1.6458201623e+000
 1.4380883106e+000	 1.5303274196e+000	-1.6441306609e+000
 1.4221697184e+000	 1.5451321278e+000	-1.6426529609e+000
 1.4061021858e+000	 1.5597681377e+000	-1.6404634241e+000
 1.3898884023e+000	 1.5742332195e+000	-1.6366416413e+000
 1.3735311019e+000	 1.5885252004e+000	-1.6302730104e+000
 1.3570330608e+000	 1.6026419663e+000	-1.6204512956e+000
 1.3403970964e+000	 1.6165814623e+000	-1.6062811609e+000
 1.3236260655e+000	 1.6303416939e+000	-1.5868806720e+000
 1.5026019100e+000	 1.5026019100e+000	-1.6225908203e+000
 1.4869618128e+000	 1.5180808830e+000	-1.6263283253e+000
 1.4711631197e+000	 1.5333962552e+000	-1.6300219136e+000
 1.4552084095e+000	 1.5485456031e+000	-1.6326848986e+000
 1.4391003103e+000	 1.5635265579e+000	-1.6333307449e+000
 1.4228414975e+000	 1.5783368060e+000	-1.6309757838e+000
 1.4064346928e+000	 1.5929740911e+000	-1.6246419214e+000
 1.3898826626e+000	 1.6074362147e+000	-1.6133593321e+000
 1.3731882162e+000	 1.6217210373e+000	-1.5961691299e+000
 1.3563542047e+000	 1.6358264797e+000	-1.5721260099e+000
 1.3393835186e+000	 1.6497505236e+000	-1.5403008543e+000
 1.5202795796e+000	 1.5202795796e+000	-1.6004765822e+000
 1.5044554812e+000	 1.5359406581e+000	-1.6132471195e+000
 1.4884709211e+000	 1.5514362112e+000	-1.6239297015e+000
 1.4723285085e+000	 1.5667637867e+000	-1.6314711166e+000
 1.4560309022e+000	 1.5819209879e+000	-1.6348203709e+000
 1.4395808092e+000	 1.5969054743e+000	-1.6329315299e+000
 1.4229809833e+000	 1.6117149628e+000	-1.6247665499e+000
 1.4062342233e+000	 1.6263472290e+000	-1.6092980905e+000
 1.3893433717e+000	 1.6408001083e+000	-1.5855123020e+000
 1.3723113129e+000	 1.6550714971e+000	-1.5524115787e+000
 1.3551409718e+000	 1.6691593533e+000	-1.5090172721e+000
 1.5379572491e+000	 1.5379572491e+000	-1.5865482087e+000
 1.5219491496e+000	 1.5538004332e+000	-1.6087898152e+000
 1.5057787225e+000	 1.5694761671e+000	-1.6269560004e+000
 1.4894486074e+000	 1.5849819703e+000	-1.6399248288e+000
 1.4729614941e+000	 1.6003154180e+000	-1.6465786134e+000
 1.4563201210e+000	 1.6154741426e+000	-1.6458068868e+000
 1.4395272738e+000	 1.6304558344e+000	-1.6365093594e+000
 1.4225857841e+000	 1.6452582433e+000	-1.6175988556e+000
 1.4054985272e+000	 1.6598791794e+000	-1.5880042202e+000
 1.3882684212e+000	 1.6743165145e+000	-1.5466731877e+000
 1.3708984249e+000	 1.6885681830e+000	-1.4925752071e+000
 1.5556349186e+000	 1.5556349186e+000	-1.5801831180e+000
 1.5394428180e+000	 1.5716602083e+000	-1.6123601895e+000
 1.5230865239e+000	 1.5875161230e+000	-1.6385293172e+000
 1.5065687063e+000	 1.6032001538e+000	-1.6574976093e+000
 1.4898920859e+000	 1.6187098481e+000	-1.6680784177e+000
 1.4730594327e+000	 1.6340428109e+000	-1.6690944432e+000
 1.4560735643e+000	 1.6491967061e+000	-1.6593808236e+000
 1.4389373448e+000	 1.6641692576e+000	-1.6377881974e+000
 1.4216536827e+000	 1.6789582504e+000	-1.6031857341e+000
 1.4042255295e+000	 1.6935615319e+000	-1.5544641226e+000
 1.3866558781e+000	 1.7079770127e+000	-1.4905385112e+000
 1.5733125882e+000	 1.5733125882e+000	-1.5807740438e+000
 1.5569364863e+000	 1.5895199834e+000	-1.6233772034e+000
 1.5403943253e+000	 1.6055560790e+000	-1.6580932903e+000
 1.5236888053e+000	 1.6214183374e+000	-1.6836561897e+000
 1.5068226778e+000	 1.6371042782e+000	-1.6988079914e+000
 1.4897987444e+000	 1.6526114792e+000	-1.7023022329e+000
 1.4726198548e+000	 1.6679375778e+000	-1.6929071219e+000
 1.4552889056e+000	 1.6830802719e+000	-1.6694087311e+000
 1.4378088382e+000	 1.6980373214e+000	-1.6306141555e+000
 1.4201826378e+000	 1.7128065493e+000	-1.5753546251e+000
 1.4024133313e+000	 1.7273858424e+000	-1.5024885636e+000
 1.5909902577e+000	 1.5909902577e+000	-1.5877281836e+000
 1.5744301547e+000	 1.6073797585e+000	-1.6412741586e+000
 1.5577021267e+000	 1.6235960349e+000	-1.6851058495e+000
 1.5408089042e+000	 1.6396365210e+000	-1.7178816175e+000
 1.5237532697e+000	 1.6554987083e+000	-1.7382699565e+000
 1.5065380562e+000	 1.6711801475e+000	-1.7449528769e+000
 1.4891661453e+000	 1.6866784494e+000	-1.7366292677e+000
 1.4716404663e+000	 1.7019912862e+000	-1.7120182253e+000
 1.4539639937e+000	 1.7171163925e+000	-1.6698623429e+000
 1.4361397461e+000	 1.7320515667e+000	-1.6089309506e+000
 1.4181707844e+000	 1.7467946721e+000	-1.5280232969e+000
 1.2605962528e+000	 1.5527063751e+000	-1.9359716338e+000
 1.2444979645e+000	 1.5656387886e+000	-2.0824837000e+000
 1.2282765894e+000	 1.5783968513e+000	-2.0526974809e+000
 1.2119349516e+000	 1.5909788412e+000	-2.0267878007e+000
 1.1954759065e+000	 1.6033830974e+000	-2.0052600739e+000
 1.1789023391e+000	 1.6156080202e+000	-1.9886095347e+000
 1.1622171622e+000	 1.6276520721e+000	-1.9773207333e+000
 1.1454233153e+000	 1.6395137781e+000	-1.9718670560e+000
 1.1285237623e+000	 1.6511917266e+000	-1.9727102706e+000
 1.1115214900e+000	 1.6626845693e+000	-1.9803000965e+000
 1.0944195068e+000	 1.6739910224e+000	-1.9950738004e+000
 1.2763537060e+000	 1.5721152048e+000	-1.8232473546e+000
 1.2600541890e+000	 1.5852092735e+000	-2.0359809768e+000
 1.2436300467e+000	 1.5981268119e+000	-2.1416810887e+000
 1.2270841385e+000	 1.6108660767e+000	-2.0853647161e+000
 1.2104193553e+000	 1.6234253861e+000	-2.0348092458e+000
 1.1936386183e+000	 1.6358031204e+000	-1.9905244735e+000
 1.1767448768e+000	 1.6479977230e+000	-1.9530079855e+000
 1.1597411068e+000	 1.6600077003e+000	-1.9227446750e+000
 1.1426303093e+000	 1.6718316232e+000	-1.9002062850e+000
 1.1254155087e+000	 1.6834681265e+000	-1.8858509785e+000
 1.1080997506e+000	 1.6949159102e+000	-1.8801229367e+000
 1.2921111591e+000	 1.5915240345e+000	-1.7278475351e+000
 1.2756104136e+000	 1.6047797583e+000	-1.9154583756e+000
 1.2589835041e+000	 1.6178567725e+000	-2.1006922739e+000
 1.2422333254e+000	 1.6307533122e+000	-2.1594271529e+000
 1.2253628042e+000	 1.6434676748e+000	-2.0794866028e+000
 1.2083748975e+000	 1.6559982207e+000	-2.0071892449e+000
 1.1912725913e+000	 1.6683433739e+000	-1.9430459951e+000
 1.1740588982e+000	 1.6805016226e+000	-1.8875535524e+000
 1.1567368563e+000	 1.6924715197e+000	-1.8411939391e+000
 1.1393095273e+000	 1.7042516836e+000	-1.8044340715e+000
 1.1217799944e+000	 1.7158407980e+000	-1.7777253598e+000
 1.3078686123e+000	 1.6109328642e+000	-1.6492311332e+000
 1.2911666381e+000	 1.6243502432e+000	-1.8121883788e+000
 1.2743369615e+000	 1.6375867332e+000	-1.9734877158e+000
 1.2573825123e+000	 1.6506405477e+000	-2.1320450698e+000
 1.2403062530e+000	 1.6635099635e+000	-2.1385117492e+000
 1.2231111768e+000	 1.6761933210e+000	-2.0378247551e+000
 1.2058003058e+000	 1.6886890248e+000	-1.9466581461e+000
 1.1883766897e+000	 1.7009955448e+000	-1.8655207225e+000
 1.1708434034e+000	 1.7131114163e+000	-1.7949050865e+000
 1.1532035459e+000	 1.7250352407e+000	-1.7352872119e+000
 1.1354602383e+000	 1.7367656858e+000	-1.6871260465e+000
 1.3236260655e+000	 1.6303416939e+000	-1.5868806720e+000
 1.3067228627e+000	 1.6439207281e+000	-1.7256736286e+000
 1.2896904188e+000	 1.6573166938e+000	-1.8634858308e+000
 1.2725316992e+000	 1.6705277832e+000	-1.9991763613e+000
 1.2552497018e+000	 1.6835522522e+000	-2.1316235784e+000
 1.2378474560e+000	 1.6963884212e+000	-2.0816757343e+000
 1.2203280204e+000	 1.7090346757e+000	-1.9630915535e+000
 1.2026944811e+000	 1.7214894670e+000	-1.8558968101e+000
 1.1849499504e+000	 1.7337513129e+000	-1.7605949821e+000
 1.1670975645e+000	 1.7458187978e+000	-1.6776714009e+000
 1.1491404821e+000	 1.7576905735e+000	-1.6075928550e+000
 1.3393835186e+000	 1.6497505236e+000	-1.5403008543e+000
 1.3222790873e+000	 1.6634912129e+000	-1.6554390862e+000
 1.3050438762e+000	 1.6770466545e+000	-1.7702325429e+000
 1.2876808861e+000	 1.6904150188e+000	-1.8834814790e+000
 1.2701931507e+000	 1.7035945410e+000	-1.9940054820e+000
 1.2525837353e+000	 1.7165835215e+000	-2.1006461717e+000
 1.2348557349e+000	 1.7293803266e+000	-1.9916156675e+000
 1.2170122725e+000	 1.7419833892e+000	-1.8579546421e+000
 1.1990564974e+000	 1.7543912095e+000	-1.7375409057e+000
 1.1809915832e+000	 1.7666023549e+000	-1.6308694425e+000
 1.1628207260e+000	 1.7786154613e+000	-1.5384151793e+000
 1.3551409718e+000	 1.6691593533e+000	-1.5090172721e+000
 1.3378353118e+000	 1.6830616978e+000	-1.6010307345e+000
 1.3203973336e+000	 1.6967766151e+000	-1.6932948860e+000
 1.3028300730e+000	 1.7103022543e+000	-1.7845491359e+000
 1.2851365995e+000	 1.7236368297e+000	-1.8735523305e+000
 1.2673200145e+000	 1.7367786217e+000	-1.9590855739e+000
 1.2493834494e+000	 1.7497259775e+000	-2.0315209750e+000
 1.2313300640e+000	 1.7624773115e+000	-1.8709879573e+000
 1.2131630445e+000	 1.7750311061e+000	-1.7250408815e+000
 1.1948856018e+000	 1.7873859120e+000	-1.5941846752e+000
 1.1765009698e+000	 1.7995403491e+000	-1.4789026967e+000
 1.3708984249e+000	 1.6885681830e+000	-1.4925752071e+000
 1.3533915364e+000	 1.7026321826e+000	-1.5620143695e+000
 1.3357507909e+000	 1.7165065757e+000	-1.6322597910e+000
 1.3179792599e+000	 1.7301894898e+000	-1.7019879848e+000
 1.3000800483e+000	 1.7436791184e+000	-1.7698950527e+000
 1.2820562937e+000	 1.7569737220e+000	-1.8346996308e+000
 1.2639111639e+000	 1.7700716284e+000	-1.8951457620e+000
 1.2456478554e+000	 1.7829712337e+000	-1.8943102042e+000
 1.2272695915e+000	 1.7956710026e+000	-1.7224124857e+000
 1.2087796204e+000	 1.8081694692e+000	-1.5669397926e+000
 1.1901812136e+000	 1.8204652369e+000	-1.4283842023e+000
 1.3866558781e+000	 1.7079770127e+000	-1.4905385112e+000
 1.3689477609e+000	 1.7222026675e+000	-1.5379744748e+000
 1.3511042483e+000	 1.7362365364e+000	-1.5867329553e+000
 1.3331284468e+000	 1.7500767253e+000	-1.6354254859e+000
 1.3150234972e+000	 1.7637214071e+000	-1.6826833875e+000
 1.2967925730e+000	 1.7771688222e+000	-1.7271608424e+000
 1.2784388785e+000	 1.7904172793e+000	-1.7675378923e+000
 1.2599656469e+000	 1.8034651559e+000	-1.8025233546e+000
 1.2413761385e+000	 1.8163108992e+000	-1.7289917357e+000
 1.2226736390e+000	 1.8289530263e+000	-1.5484757431e+000
 1.2038614575e+000	 1.8413901247e+000	-1.3862065230e+000
 1.4024133313e+000	 1.7273858424e+000	-1.5024885636e+000
 1.3845039855e+000	 1.7417731524e+000	-1.5285131716e+000
 1.3664577057e+000	 1.7559664970e+000	-1.5563377884e+000
 1.3482776336e+000	 1.7699639608e+000	-1.5845068499e+000
 1.3299669460e+000	 1.7837636958e+000	-1.6115848265e+000
 1.3115288522e+000	 1.7973639225e+000	-1.6361594281e+000
 1.2929665930e+000	 1.8107629302e+000	-1.6568447304e+000
 1.2742834383e+000	 1.8239590782e+000	-1.6722842176e+000
 1.2554826855e+000	 1.8369507958e+000	-1.6811537341e+000
 1.2365676577e+000	 1.8497365834e+000	-1.5381507045e+000
 1.2175417013e+000	 1.8623150124e+000	-1.3517335038e+000
 1.4181707844e+000	 1.7467946721e+000	-1.5280232969e+000
 1.4000602100e+000	 1.7613436372e+000	-1.5332492392e+000
 1.3818111630e+000	 1.7756964577e+000	-1.5407144280e+000
 1.3634268205e+000	 1.7898511964e+000	-1.5488940519e+000
 1.3449103948e+000	 1.8038059846e+000	-1.5562836285e+000
 1.3262651314e+000	 1.8175590227e+000	-1.5614023430e+000
 1.3074943075e+000	 1.8311085811e+000	-1.5627963072e+000
 1.2886012298e+000	 1.8444530004e+000	-1.5590417316e+000
 1.2695892326e+000	 1.8575906924e+000	-1.5487480036e+000
 1.2504616763e+000	 1.8705201405e+000	-1.5305606632e+000
 1.2312219451e+000	 1.8832399002e+000	-1.4266493253e+000
 1.0944195068e+000	 1.6739910224e+000	-1.9950738004e+000
 1.0772208403e+000	 1.6851098662e+000	-1.9777726936e+000
 1.0599285364e+000	 1.6960399458e+000	-1.9611552629e+000
 1.0425456567e+000	 1.7067801714e+000	-1.9460693801e+000
 1.0250752778e+000	 1.7173295184e+000	-1.9333531550e+000
 1.0075204886e+000	 1.7276870275e+000	-1.9238341552e+000
 9.8988438938e-001	 1.7378518049e+000	-1.9183286546e+000
 9.7217008953e-001	 1.7478230222e+000	-1.9176409079e+000
 9.5438070623e-001	 1.7575999168e+000	-1.9225624551e+000
 9.3651936262e-001	 1.7671817913e+000	-1.9338714541e+000
 9.1858918611e-001	 1.7765680137e+000	-1.9523320435e+000
 1.1080997506e+000	 1.6949159102e+000	-1.8801229367e+000
 1.0906861008e+000	 1.7061737395e+000	-1.8578037135e+000
 1.0731776431e+000	 1.7172404451e+000	-1.8364312354e+000
 1.0555774775e+000	 1.7281149236e+000	-1.8167744390e+000
 1.0378887188e+000	 1.7387961374e+000	-1.7995927934e+000
 1.0201144947e+000	 1.7492831153e+000	-1.7856356028e+000
 1.0022579442e+000	 1.7595749524e+000	-1.7756413348e+000
 9.8432221564e-001	 1.7696708100e+000	-1.7703369754e+000
 9.6631046506e-001	 1.7795699158e+000	-1.7704374117e+000
 9.4822585465e-001	 1.7892715637e+000	-1.7766448415e+000
 9.3007155093e-001	 1.7987751138e+000	-1.7896482118e+000
 1.1217799944e+000	 1.7158407980e+000	-1.7777253598e+000
 1.1041513613e+000	 1.7272376128e+000	-1.7464332111e+000
 1.0864267498e+000	 1.7384409444e+000	-1.7163638556e+000
 1.0686092982e+000	 1.7494496757e+000	-1.6882091295e+000
 1.0507021598e+000	 1.7602627564e+000	-1.6626516710e+000
 1.0327085009e+000	 1.7708792032e+000	-1.6403643033e+000
 1.0146314991e+000	 1.7812981000e+000	-1.6220094425e+000
 9.9647434176e-001	 1.7915185978e+000	-1.6082385312e+000
 9.7824022389e-001	 1.8015399147e+000	-1.5996914980e+000
 9.5993234668e-001	 1.8113613361e+000	-1.5969962432e+000
 9.4155391576e-001	 1.8209822140e+000	-1.6007681521e+000
 1.1354602383e+000	 1.7367656858e+000	-1.6871260465e+000
 1.1176166218e+000	 1.7483014862e+000	-1.6430393963e+000
 1.0996758565e+000	 1.7596414438e+000	-1.6004645595e+000
 1.0816411189e+000	 1.7707844278e+000	-1.5600180445e+000
 1.0635156007e+000	 1.7817293753e+000	-1.5223074058e+000
 1.0453025070e+000	 1.7924752910e+000	-1.4879307066e+000
 1.0270050540e+000	 1.8030212475e+000	-1.4574760045e+000
 1.0086264679e+000	 1.8133663856e+000	-1.4315208626e+000
 9.9016998271e-001	 1.8235099137e+000	-1.4106318850e+000
 9.7163883872e-001	 1.8334511084e+000	-1.3953642774e+000
 9.5303628058e-001	 1.8431893142e+000	-1.3862614335e+000
 1.1491404821e+000	 1.7576905735e+000	-1.6075928550e+000
 1.1310818823e+000	 1.7693653595e+000	-1.5470170802e+000
 1.1129249632e+000	 1.7808419431e+000	-1.4882551125e+000
 1.0946729396e+000	 1.7921191800e+000	-1.4318498453e+000
 1.0763290417e+000	 1.8031959943e+000	-1.3783354375e+000
 1.0578965131e+000	 1.8140713789e+000	-1.3282368538e+000
 1.0393786088e+000	 1.8247443951e+000	-1.2820694279e+000
 1.0207785940e+000	 1.8352141733e+000	-1.2403384491e+000
 1.0020997415e+000	 1.8454799126e+000	-1.2035387732e+000
 9.8334533075e-001	 1.8555408808e+000	-1.1721544569e+000
 9.6451864541e-001	 1.8653964143e+000	-1.1466584162e+000
 1.1628207260e+000	 1.7786154613e+000	-1.5384151793e+000
 1.1445471428e+000	 1.7904292328e+000	-1.4577766986e+000
 1.1261740699e+000	 1.8020424424e+000	-1.3792670015e+000
 1.1077047603e+000	 1.8134539321e+000	-1.3033570220e+000
 1.0891424827e+000	 1.8246626133e+000	-1.2305091548e+000
 1.0704905192e+000	 1.8356674667e+000	-1.1611768715e+000
 1.0517521637e+000	 1.8464675427e+000	-1.0958043600e+000
 1.0329307201e+000	 1.8570619611e+000	-1.0348261864e+000
 1.0140295004e+000	 1.8674499116e+000	-9.7866697931e-001
 9.9505182278e-001	 1.8776306532e+000	-9.7984248827e-001
 9.7600101023e-001	 1.8876035145e+000	-1.1380924715e+000
 1.1765009698e+000	 1.7995403491e+000	-1.4789026967e+000
 1.1580124033e+000	 1.8114931061e+000	-1.3747434040e+000
 1.1394231766e+000	 1.8232429417e+000	-1.2730408700e+000
 1.1207365810e+000	 1.8347886843e+000	-1.1741956714e+000
 1.1019559236e+000	 1.8461292323e+000	-1.0786000152e+000
 1.0830845253e+000	 1.8572635545e+000	-9.8663743190e-001
 1.0641257186e+000	 1.8681906902e+000	-8.9868248862e-001
 1.0450828462e+000	 1.8789097489e+000	-8.8815606629e-001
 1.0259592592e+000	 1.8894199106e+000	-1.0140776286e+000
 1.0067583148e+000	 1.8997204256e+000	-1.1521567629e+000
 9.8748337506e-001	 1.9098106147e+000	-1.3011328329e+000
 1.1901812136e+000	 1.8204652369e+000	-1.4283842023e+000
 1.1714776638e+000	 1.8325569795e+000	-1.2973562194e+000
 1.1526722833e+000	 1.8444434411e+000	-1.1691259920e+000
 1.1337684017e+000	 1.8561234364e+000	-1.0440252891e+000
 1.1147693646e+000	 1.8675958513e+000	-9.2237765586e-001
 1.0956785314e+000	 1.8788596424e+000	-8.7124580812e-001
 1.0764992734e+000	 1.8899138378e+000	-9.5886578951e-001
 1.0572349723e+000	 1.9007575367e+000	-1.0611097281e+000
 1.0378890180e+000	 1.9113899095e+000	-1.1765321075e+000
 1.0184648068e+000	 1.9218101980e+000	-1.3037095795e+000
 9.9896573988e-001	 1.9320177149e+000	-1.4412437370e+000
 1.2038614575e+000	 1.8413901247e+000	-1.3862065230e+000
 1.1849429244e+000	 1.8536208528e+000	-1.2250672502e+000
 1.1659213900e+000	 1.8656439404e+000	-1.0670797812e+000
 1.1468002224e+000	 1.8774581886e+000	-9.5090817352e-001
 1.1275828056e+000	 1.8890624702e+000	-9.9247023126e-001
 1.1082725375e+000	 1.9004557302e+000	-1.0517811018e+000
 1.0888728283e+000	 1.9116369853e+000	-1.1272137257e+000
 1.0693870985e+000	 1.9226053244e+000	-1.2171589497e+000
 1.0498187768e+000	 1.9333599085e+000	-1.3200286618e+000
 1.0301712989e+000	 1.9438999704e+000	-1.4342588410e+000
 1.0104481047e+000	 1.9542248150e+000	-1.5583125132e+000
 1.2175417013e+000	 1.8623150124e+000	-1.3517335038e+000
 1.1984081849e+000	 1.8746847261e+000	-1.1573409498e+000
 1.1791704967e+000	 1.8868444397e+000	-1.1389724504e+000
 1.1598320431e+000	 1.8987929407e+000	-1.1464411808e+000
 1.1403962465e+000	 1.9105290892e+000	-1.1736383685e+000
 1.1208665436e+000	 1.9220518181e+000	-1.2187741347e+000
 1.1012463832e+000	 1.9333601329e+000	-1.2800746370e+000
 1.0815392246e+000	 1.9444531122e+000	-1.3557854858e+000
 1.0617485357e+000	 1.9553299075e+000	-1.4441750759e+000
 1.0418777909e+000	 1.9659897428e+000	-1.5435378274e+000
 1.0219304695e+000	 1.9764319152e+000	-1.6521973284e+000
 1.2312219451e+000	 1.8832399002e+000	-1.4266493253e+000
 1.2118734454e+000	 1.8957485995e+000	-1.3715367603e+000
 1.1924196034e+000	 1.9080449390e+000	-1.3404175558e+000
 1.1728638638e+000	 1.9201276929e+000	-1.3313291078e+000
 1.1532096875e+000	 1.9319957082e+000	-1.3423187249e+000
 1.1334605497e+000	 1.9436479059e+000	-1.3714474022e+000
 1.1136199380e+000	 1.9550832805e+000	-1.4167935222e+000
 1.0936913507e+000	 1.9663009000e+000	-1.4764564749e+000
 1.0736782945e+000	 1.9772999064e+000	-1.5485601886e+000
 1.0535842829e+000	 1.9880795152e+000	-1.6312565644e+000
 1.0334128344e+000	 1.9986390154e+000	-1.7227288072e+000
 9.1858918611e-001	 1.7765680137e+000	-1.9523320435e+000
 9.0059330673e-001	 1.7857580172e+000	-1.8390313888e+000
 8.8253485550e-001	 1.7947513000e+000	-1.7365561325e+000
 8.6441696276e-001	 1.8035474251e+000	-1.6446842020e+000
 8.4624275656e-001	 1.8121460198e+000	-1.5631861994e+000
 8.2801536107e-001	 1.8205467755e+000	-1.4918257927e+000
 8.0973789495e-001	 1.8287494474e+000	-1.4303601145e+000
 7.9141346985e-001	 1.8367538539e+000	-1.3785401672e+000
 7.7304518882e-001	 1.8445598760e+000	-1.3361112340e+000
 7.5463614479e-001	 1.8521674571e+000	-1.3028132951e+000
 7.3618941913e-001	 1.8595766021e+000	-1.2783814473e+000
 9.3007155093e-001	 1.7987751138e+000	-1.7896482118e+000
 9.1185072306e-001	 1.8080799924e+000	-1.6352460792e+000
 8.9356654119e-001	 1.8171856912e+000	-1.4923923856e+000
 8.7522217479e-001	 1.8260917679e+000	-1.3609423159e+000
 8.5682079102e-001	 1.8347978450e+000	-1.2407421069e+000
 8.3836555308e-001	 1.8433036102e+000	-1.1316293837e+000
 8.1985961864e-001	 1.8516088155e+000	-1.0334335079e+000
 8.0130613823e-001	 1.8597132771e+000	-9.4597593476e-001
 7.8270825368e-001	 1.8676168744e+000	-8.6907057941e-001
 7.6406909660e-001	 1.8753195503e+000	-8.0952602905e-001
 7.4539178687e-001	 1.8828213097e+000	-9.1761928243e-001
 9.4155391576e-001	 1.8209822140e+000	-1.6007681521e+000
 9.2310813940e-001	 1.8304019676e+000	-1.4080181640e+000
 9.0459822689e-001	 1.8396200825e+000	-1.2275317823e+000
 8.8602738683e-001	 1.8486361107e+000	-1.0592401843e+000
 8.6739882548e-001	 1.8574496703e+000	-9.0306398579e-001
 8.4871574509e-001	 1.8660604449e+000	-7.5891352499e-001
 8.2998134233e-001	 1.8744681836e+000	-6.2668916065e-001
 8.1119880660e-001	 1.8826727002e+000	-6.7477683511e-001
 7.9237131854e-001	 1.8906738729e+000	-7.4341727077e-001
 7.7350204841e-001	 1.8984716435e+000	-8.1988309420e-001
 7.5459415461e-001	 1.9060660172e+000	-9.0308604887e-001
 9.5303628058e-001	 1.8431893142e+000	-1.3862614335e+000
 9.3436555573e-001	 1.8527239428e+000	-1.1578126907e+000
 9.1562991258e-001	 1.8620544737e+000	-9.4233560576e-001
 8.9683259886e-001	 1.8711804535e+000	-7.3983612648e-001
 8.7797685993e-001	 1.8801014955e+000	-6.6023177596e-001
 8.5906593711e-001	 1.8888172796e+000	-6.7475589466e-001
 8.4010306601e-001	 1.8973275517e+000	-7.0096017823e-001
 8.2109147497e-001	 1.9056321234e+000	-7.3766846426e-001
 8.0203438340e-001	 1.9137308713e+000	-7.8373789657e-001
 7.8293500022e-001	 1.9216237367e+000	-8.3806069911e-001
 7.6379652235e-001	 1.9293107247e+000	-8.9956584046e-001
 9.6451864541e-001	 1.8653964143e+000	-1.1466584162e+000
 9.4562297206e-001	 1.8750459180e+000	-8.8600943927e-001
 9.2666159827e-001	 1.8844888650e+000	-8.3677980538e-001
 9.0763781090e-001	 1.8937247963e+000	-8.0323892062e-001
 8.8855489439e-001	 1.9027533208e+000	-7.8413551680e-001
 8.6941612912e-001	 1.9115741143e+000	-7.7824587453e-001
 8.5022478970e-001	 1.9201869198e+000	-7.8437593816e-001
 8.3098414334e-001	 1.9285915466e+000	-8.0136332772e-001
 8.1169744825e-001	 1.9367878698e+000	-8.2807924466e-001
 7.9236795203e-001	 1.9447758299e+000	-8.6343026868e-001
 7.7299889008e-001	 1.9525554322e+000	-9.0636004323e-001
 9.7600101023e-001	 1.8876035145e+000	-1.1380924715e+000
 9.5688038840e-001	 1.8973678932e+000	-1.0536532540e+000
 9.3769328397e-001	 1.9069232562e+000	-9.8643998930e-001
 9.1844302293e-001	 1.9162691391e+000	-9.3518600900e-001
 8.9913292885e-001	 1.9254051460e+000	-8.9865020178e-001
 8.7976632113e-001	 1.9343309490e+000	-8.7561926164e-001
 8.6034651339e-001	 1.9430462879e+000	-8.6490983499e-001
 8.4087681172e-001	 1.9515509698e+000	-8.6537056254e-001
 8.2136051311e-001	 1.9598448682e+000	-8.7588401290e-001
 8.0180090384e-001	 1.9679279231e+000	-8.9536850509e-001
 7.8220125782e-001	 1.9758001398e+000	-9.2277981743e-001
 9.8748337506e-001	 1.9098106147e+000	-1.3011328329e+000
 9.6813780473e-001	 1.9196898685e+000	-1.2017791255e+000
 9.4872496966e-001	 1.9293576475e+000	-1.1198862832e+000
 9.2924823496e-001	 1.9388134820e+000	-1.0541945635e+000
 9.0971096330e-001	 1.9480569713e+000	-1.0034700627e+000
 8.9011651315e-001	 1.9570877837e+000	-9.6650700128e-001
 8.7046823707e-001	 1.9659056560e+000	-9.4212990611e-001
 8.5076948009e-001	 1.9745103929e+000	-9.2919568558e-001
 8.3102357797e-001	 1.9829018667e+000	-9.2659559369e-001
 8.1123385565e-001	 1.9910800163e+000	-9.3325708097e-001
 7.9140362556e-001	 1.9990448473e+000	-9.4814552928e-001
 9.9896573988e-001	 1.9320177149e+000	-1.4412437370e+000
 9.7939522106e-001	 1.9420118437e+000	-1.3302448436e+000
 9.5975665535e-001	 1.9517920388e+000	-1.2369163576e+000
 9.4005344700e-001	 1.9613578248e+000	-1.1600024615e+000
 9.2028899776e-001	 1.9707087965e+000	-1.0982735167e+000
 9.0046670516e-001	 1.9798446184e+000	-1.0505283902e+000
 8.8058996076e-001	 1.9887650241e+000	-1.0155966752e+000
 8.6066214846e-001	 1.9974698161e+000	-9.9234080159e-001
 8.4068664283e-001	 2.0059588651e+000	-9.7965803402e-001
 8.2066680746e-001	 2.0142321096e+000	-9.7648235376e-001
 8.0060599330e-001	 2.0222895548e+000	-9.8178622185e-001
 1.0104481047e+000	 1.9542248150e+000	-1.5583125132e+000
 9.9065263740e-001	 1.9643338189e+000	-1.4388813315e+000
 9.7078834105e-001	 1.9742264300e+000	-1.3373050254e+000
 9.5085865903e-001	 1.9839021676e+000	-1.2523287064e+000
 9.3086703222e-001	 1.9933606218e+000	-1.1827240644e+000
 9.1081689717e-001	 2.0026014531e+000	-1.1272917386e+000
 8.9071168444e-001	 2.0116243922e+000	-1.0848635792e+000
 8.7055481683e-001	 2.0204292393e+000	-1.0543047971e+000
 8.5034970769e-001	 2.0290158636e+000	-1.0345159983e+000
 8.3009975926e-001	 2.0373842028e+000	-1.0244350995e+000
 8.0980836103e-001	 2.0455342623e+000	-1.0230391221e+000
 1.0219304695e+000	 1.9764319152e+000	-1.6521973284e+000
 1.0019100537e+000	 1.9866557941e+000	-1.5274941550e+000
 9.8182002674e-001	 1.9966608213e+000	-1.4208055254e+000
 9.6166387107e-001	 2.0064465104e+000	-1.3308744879e+000
 9.4144506667e-001	 2.0160124470e+000	-1.2564711283e+000
 9.2116708919e-001	 2.0253582878e+000	-1.1963949871e+000
 9.0083340813e-001	 2.0344837603e+000	-1.1494773662e+000
 8.8044748521e-001	 2.0433886625e+000	-1.1145835210e+000
 8.6001277255e-001	 2.0520728620e+000	-1.0906147336e+000
 8.3953271107e-001	 2.0605362960e+000	-1.0765102645e+000
 8.1901072877e-001	 2.0687789699e+000	-1.0712491810e+000
 1.0334128344e+000	 1.9986390154e+000	-1.7227288072e+000
 1.0131674701e+000	 2.0089777693e+000	-1.5958649314e+000
 9.9285171243e-001	 2.0190952125e+000	-1.4871507212e+000
 9.7246908310e-001	 2.0289908532e+000	-1.3953241721e+000
 9.5202310113e-001	 2.0386642723e+000	-1.3191508348e+000
 9.3151728120e-001	 2.0481151225e+000	-1.2574262829e+000
 9.1095513182e-001	 2.0573431284e+000	-1.2089784674e+000
 8.9034015358e-001	 2.0663480856e+000	-1.1726699539e+000
 8.6967583741e-001	 2.0751298605e+000	-1.1474000374e+000
 8.4896566288e-001	 2.0836883892e+000	-1.1321067340e+000
 8.2821309651e-001	 2.0920236774e+000	-1.1257686447e+000
 7.3618941913e-001	 1.8595766021e+000	-1.2783814473e+000
 7.1770808012e-001	 1.8667873772e+000	-1.1094463840e+000
 6.9919518155e-001	 1.8737999088e+000	-9.2138749580e-001
 6.8065376130e-001	 1.8806143829e+000	-8.3481433820e-001
 6.6208683995e-001	 1.8872310448e+000	-7.4901254710e-001
 6.4349741945e-001	 1.8936501977e+000	-6.3756545631e-001
 6.2488848178e-001	 1.8998722024e+000	-5.0197930658e-001
 6.0626298769e-001	 1.9058974762e+000	-6.7789596941e-001
 5.8762387544e-001	 1.9117264922e+000	-8.4971885457e-001
 5.6897405956e-001	 1.9173597783e+000	-1.0162984135e+000
 5.5031642970e-001	 1.9227979164e+000	-1.1765924527e+000
 7.4539178687e-001	 1.8828213097e+000	-9.1761928243e-001
 7.2667943112e-001	 1.8901222194e+000	-8.8525624264e-001
 7.0793512132e-001	 1.8972224076e+000	-8.3264290140e-001
 6.8916193331e-001	 1.9041220627e+000	-7.5912721158e-001
 6.7036292545e-001	 1.9108214328e+000	-6.6411634227e-001
 6.5154113719e-001	 1.9173208252e+000	-5.4707716355e-001
 6.3269958780e-001	 1.9236206049e+000	-4.0753660744e-001
 6.1384127504e-001	 1.9297211947e+000	-4.4996443628e-001
 5.9496917388e-001	 1.9356230734e+000	-6.2818259783e-001
 5.7608623530e-001	 1.9413267756e+000	-8.0422374632e-001
 5.5719538508e-001	 1.9468328903e+000	-9.7700673558e-001
 7.5459415461e-001	 1.9060660172e+000	-9.0308604887e-001
 7.3565078212e-001	 1.9134570617e+000	-8.5344268632e-001
 7.1667506109e-001	 1.9206449065e+000	-7.8706480395e-001
 6.9767010533e-001	 1.9276297425e+000	-7.0329154542e-001
 6.7863901094e-001	 1.9344118209e+000	-6.0151928647e-001
 6.5958485493e-001	 1.9409914526e+000	-4.8120218786e-001
 6.4051069382e-001	 1.9473690074e+000	-3.4185262435e-001
 6.2141956238e-001	 1.9535449131e+000	-2.4907930634e-001
 6.0231447232e-001	 1.9595196545e+000	-4.3543745649e-001
 5.8319841105e-001	 1.9652937728e+000	-6.2249694861e-001
 5.6407434045e-001	 1.9708678643e+000	-8.0913677449e-001
 7.6379652235e-001	 1.9293107247e+000	-8.9956584046e-001
 7.4462213312e-001	 1.9367919039e+000	-8.3542074901e-001
 7.2541500086e-001	 1.9440674054e+000	-7.5793126016e-001
 7.0617827734e-001	 1.9511374223e+000	-6.6642603744e-001
 6.8691509644e-001	 1.9580022090e+000	-5.6028911383e-001
 6.6762857267e-001	 1.9646620801e+000	-4.3896051359e-001
 6.4832179984e-001	 1.9711174100e+000	-3.0193674957e-001
 6.2899784972e-001	 1.9773686316e+000	-1.4877119730e-001
 6.0965977076e-001	 1.9834162357e+000	-2.7101566594e-001
 5.9031058679e-001	 1.9892607700e+000	-4.7061112794e-001
 5.7095329582e-001	 1.9949028382e+000	-6.7243853272e-001
 7.7299889008e-001	 1.9525554322e+000	-9.0636004323e-001
 7.5359348412e-001	 1.9601267461e+000	-8.3043521930e-001
 7.3415494062e-001	 1.9674899042e+000	-7.4443353471e-001
 7.1468644936e-001	 1.9746451021e+000	-6.4767149057e-001
 6.9519118194e-001	 1.9815925970e+000	-5.3951921498e-001
 6.7567229041e-001	 1.9883327076e+000	-4.1940115433e-001
 6.5613290586e-001	 1.9948658125e+000	-2.8679663953e-001
 6.3657613707e-001	 2.0011923500e+000	-1.4124032829e-001
 6.1700506920e-001	 2.0073128168e+000	-1.3448753604e-001
 5.9742276253e-001	 2.0132277673e+000	-3.4810012348e-001
 5.7783225119e-001	 2.0189378122e+000	-5.6641118355e-001
 7.8220125782e-001	 1.9758001398e+000	-9.2277981743e-001
 7.6256483512e-001	 1.9834615883e+000	-8.3774450365e-001
 7.4289488039e-001	 1.9909124031e+000	-7.4578018724e-001
 7.2319462137e-001	 1.9981527819e+000	-6.4618951267e-001
 7.0346726743e-001	 2.0051829851e+000	-5.3832712781e-001
 6.8371600815e-001	 2.0120033350e+000	-4.2160044533e-001
 6.6394401188e-001	 2.0186142150e+000	-2.9547027842e-001
 6.4415442441e-001	 2.0250160685e+000	-1.5945135158e-001
 6.2435036764e-001	 2.0312093980e+000	-2.5459211444e-002
 6.0453493827e-001	 2.0371947645e+000	-2.5453611009e-001
 5.8471120656e-001	 2.0429727862e+000	-4.9059456852e-001
 7.9140362556e-001	 1.9990448473e+000	-9.4814552928e-001
 7.7153618612e-001	 2.0067964305e+000	-8.5661983466e-001
 7.5163482016e-001	 2.0143349019e+000	-7.6119606683e-001
 7.3170279338e-001	 2.0216604616e+000	-6.6116130694e-001
 7.1174335293e-001	 2.0287733731e+000	-5.5585313357e-001
 6.9175972589e-001	 2.0356739625e+000	-4.4466045500e-001
 6.7175511790e-001	 2.0423626176e+000	-3.2702421496e-001
 6.5173271175e-001	 2.0488397869e+000	-2.0243797231e-001
 6.3169566608e-001	 2.0551059791e+000	-7.0448355813e-002
 6.1164711402e-001	 2.0611617617e+000	-1.8952736947e-001
 5.9159016193e-001	 2.0670077601e+000	-4.4456683299e-001
 8.0060599330e-001	 2.0222895548e+000	-9.8178622185e-001
 7.8050753712e-001	 2.0301312727e+000	-8.8634453391e-001
 7.6037475992e-001	 2.0377574008e+000	-7.8992137581e-001
 7.4021096540e-001	 2.0451681414e+000	-6.9178654573e-001
 7.2001943843e-001	 2.0523637612e+000	-5.9125894978e-001
 6.9980344363e-001	 2.0593445900e+000	-4.8770750602e-001
 6.7956622392e-001	 2.0661110201e+000	-3.8055192078e-001
 6.5931099910e-001	 2.0726635054e+000	-2.6926333767e-001
 6.3904096452e-001	 2.0790025603e+000	-1.5336486028e-001
 6.1875928976e-001	 2.0851287589e+000	-1.5271621505e-001
 5.9846911730e-001	 2.0910427341e+000	-4.2794222479e-001
 8.0980836103e-001	 2.0455342623e+000	-1.0230391221e+000
 7.8947888812e-001	 2.0534661149e+000	-9.2621332511e-001
 7.6911469969e-001	 2.0611798997e+000	-8.3121079745e-001
 7.4871913741e-001	 2.0686758212e+000	-7.3728232118e-001
 7.2829552392e-001	 2.0759541493e+000	-6.4372651227e-001
 7.0784716137e-001	 2.0830152175e+000	-5.4989079725e-001
 6.8737732993e-001	 2.0898594226e+000	-4.5517226069e-001
 6.6688928644e-001	 2.0964872238e+000	-3.5901836402e-001
 6.4638626296e-001	 2.1028991414e+000	-2.6092753636e-001
 6.2587146550e-001	 2.1090957562e+000	-1.6044963866e-001
 6.0534807266e-001	 2.1150777080e+000	-4.4036904293e-001
 8.1901072877e-001	 2.0687789699e+000	-1.0712491810e+000
 7.9845023912e-001	 2.0768009572e+000	-9.7553169350e-001
 7.7785463946e-001	 2.0846023985e+000	-8.8433268240e-001
 7.5722730942e-001	 2.0921835010e+000	-7.9688216655e-001
 7.3657160942e-001	 2.0995445373e+000	-7.1245683929e-001
 7.1589087911e-001	 2.1066858449e+000	-6.3038111853e-001
 6.9518843595e-001	 2.1136078252e+000	-5.5002806612e-001
 6.7446757378e-001	 2.1203109423e+000	-4.7082017686e-001
 6.5373156140e-001	 2.1267957226e+000	-3.9223003792e-001
 6.3298364124e-001	 2.1330627534e+000	-3.1378085955e-001
 6.1222702803e-001	 2.1391126820e+000	-4.8152772461e-001
 8.2821309651e-001	 2.0920236774e+000	-1.1257686447e+000
 8.0742159012e-001	 2.1001357994e+000	-1.0336152880e+000
 7.8659457923e-001	 2.1080248974e+000	-9.4856828939e-001
 7.6573548144e-001	 2.1156911808e+000	-8.6983514286e-001
 7.4484769492e-001	 2.1231349254e+000	-7.9666897141e-001
 7.2393459685e-001	 2.1303564724e+000	-7.2836965121e-001
 7.0299954197e-001	 2.1373562277e+000	-6.6428480359e-001
 6.8204586113e-001	 2.1441346607e+000	-6.0381065478e-001
 6.6107685984e-001	 2.1506923038e+000	-5.4639276412e-001
 6.4009581698e-001	 2.1570297506e+000	-4.9152662167e-001
 6.1910598340e-001	 2.1631476559e+000	-5.5112905977e-001
 5.5031642970e-001	 1.9227979164e+000	-1.1765924527e+000
 5.3165384949e-001	 1.9280415411e+000	-1.0958509972e+000
 5.1298915537e-001	 1.9330913394e+000	-1.0196676832e+000
 4.9432515561e-001	 1.9379480490e+000	-9.4677772748e-001
 4.7566462918e-001	 1.9426124576e+000	-8.7601781860e-001
 4.5701032483e-001	 1.9470854021e+000	-8.0632549345e-001
 4.3836496008e-001	 1.9513677669e+000	-7.3673831814e-001
 4.1973122034e-001	 1.9554604835e+000	-6.6639288153e-001
 4.0111175798e-001	 1.9593645290e+000	-5.9452360849e-001
 3.8250919152e-001	 1.9630809251e+000	-5.2046140113e-001
 3.6392610484e-001	 1.9666107368e+000	-4.4363211584e-001
 5.5719538508e-001	 1.9468328903e+000	-9.7700673558e-001
 5.3829952261e-001	 1.9521420604e+000	-8.9008038837e-001
 5.1940151982e-001	 1.9572549812e+000	-8.0814677141e-001
 5.0050422005e-001	 1.9621723996e+000	-7.2994775219e-001
 4.8161043705e-001	 1.9668951134e+000	-6.5432910611e-001
 4.6272295389e-001	 1.9714239696e+000	-5.8023984338e-001
 4.4384452209e-001	 1.9757598640e+000	-5.0673133590e-001
 4.2497786060e-001	 1.9799037396e+000	-4.3295625149e-001
 4.0612565496e-001	 1.9838565856e+000	-3.5816730362e-001
 3.8729055642e-001	 1.9876194366e+000	-2.8171582461e-001
 3.6847518115e-001	 1.9911933711e+000	-2.0305017071e-001
 5.6407434045e-001	 1.9708678643e+000	-8.0913677449e-001
 5.4494519573e-001	 1.9762425797e+000	-7.1827100606e-001
 5.2581388426e-001	 1.9814186229e+000	-6.3270261679e-001
 5.0668328450e-001	 1.9863967502e+000	-5.5117887693e-001
 4.8755624491e-001	 1.9911777691e+000	-4.7255357473e-001
 4.6843558295e-001	 1.9957625371e+000	-3.9578629239e-001
 4.4932408409e-001	 2.0001519611e+000	-3.1994147659e-001
 4.3022450086e-001	 2.0043469956e+000	-2.4418731148e-001
 4.1113955194e-001	 2.0083486423e+000	-1.6779440219e-001
 3.9207192132e-001	 2.0121579482e+000	-9.0134277399e-002
 3.7302425746e-001	 2.0157760053e+000	-1.0677719587e-002
 5.7095329582e-001	 1.9949028382e+000	-6.7243853272e-001
 5.5159086884e-001	 2.0003430989e+000	-5.7980506339e-001
 5.3222624870e-001	 2.0055822646e+000	-4.9264345757e-001
 5.1286234895e-001	 2.0106211008e+000	-4.0970515706e-001
 4.9350205278e-001	 2.0154604248e+000	-3.2985090687e-001
 4.7414821202e-001	 2.0201011047e+000	-2.5204997849e-001
 4.5480364609e-001	 2.0245440582e+000	-1.7537918212e-001
 4.3547114111e-001	 2.0287902517e+000	-9.9021675966e-002
 4.1615344891e-001	 2.0328406989e+000	-2.2265581130e-002
 3.9685328622e-001	 2.0366964598e+000	 5.5497589164e-002
 3.7757333378e-001	 2.0403586395e+000	 1.3477467712e-001
 5.7783225119e-001	 2.0189378122e+000	-5.6641118355e-001
 5.5823654196e-001	 2.0244436182e+000	-4.7411212015e-001
 5.3863861314e-001	 2.0297459064e+000	-3.8732894059e-001
 5.1904141339e-001	 2.0348454514e+000	-3.0481604266e-001
 4.9944786064e-001	 2.0397430805e+000	-2.2544008883e-001
 4.7986084108e-001	 2.0444396722e+000	-1.4817917491e-001
 4.6028320810e-001	 2.0489361553e+000	-7.2121781837e-002
 4.4071778137e-001	 2.0532335077e+000	 3.5344808518e-003
 4.2116734589e-001	 2.0573327555e+000	 7.9484331366e-002
 4.0163465111e-001	 2.0612349713e+000	 1.5631646256e-001
 3.8212241009e-001	 2.0649412737e+000	 2.3451537024e-001
 5.8471120656e-001	 2.0429727862e+000	-4.9059456852e-001
 5.6488221508e-001	 2.0485441375e+000	-4.0066629770e-001
 5.4505097759e-001	 2.0539095481e+000	-3.1616709722e-001
 5.2522047784e-001	 2.0590698020e+000	-2.3585312006e-001
 5.0539366851e-001	 2.0640257362e+000	-1.5859592244e-001
 4.8557347014e-001	 2.0687782397e+000	-8.3381576144e-002
 4.6576277010e-001	 2.0733282524e+000	-9.3095578742e-003
 4.4596442162e-001	 2.0776767638e+000	 6.4408575647e-002
 4.2618124287e-001	 2.0818248121e+000	 1.3845071770e-001
 4.0641601601e-001	 2.0857734829e+000	 2.1338593739e-001
 3.8667148640e-001	 2.0895239079e+000	 2.8967639173e-001
 5.9159016193e-001	 2.0670077601e+000	-4.4456683299e-001
 5.7152788820e-001	 2.0726446567e+000	-3.5898368814e-001
 5.5146334203e-001	 2.0780731899e+000	-2.7861153040e-001
 5.3139954228e-001	 2.0832941527e+000	-2.0220708064e-001
 5.1133947637e-001	 2.0883083920e+000	-1.2864577987e-001
 4.9128609920e-001	 2.0931168073e+000	-5.6920843321e-002
 4.7124233210e-001	 2.0977203495e+000	 1.3857914825e-002
 4.5121106188e-001	 2.1021200198e+000	 8.4465476947e-002
 4.3119513984e-001	 2.1063168687e+000	 1.5556322837e-001
 4.1119738090e-001	 2.1103119945e+000	 2.2770076494e-001
 3.9122056271e-001	 2.1141065421e+000	 3.0131789187e-001
 5.9846911730e-001	 2.0910427341e+000	-4.2794222479e-001
 5.7817356131e-001	 2.0967451760e+000	-3.4861994223e-001
 5.5787570647e-001	 2.1022368316e+000	-2.7415879550e-001
 5.3757860672e-001	 2.1075185033e+000	-2.0331489870e-001
 5.1728528424e-001	 2.1125910477e+000	-1.3496658242e-001
 4.9699872826e-001	 2.1174553748e+000	-6.8113387670e-002
 4.7672189410e-001	 2.1221124465e+000	-1.8748238315e-003
 4.5645770213e-001	 2.1265632759e+000	 6.4511099858e-002
 4.3620903682e-001	 2.1308089253e+000	 1.3168955970e-001
 4.1597874580e-001	 2.1348505060e+000	 2.0019080971e-001
 3.9576963903e-001	 2.1386891763e+000	 2.7043227034e-001
 6.0534807266e-001	 2.1150777080e+000	-4.4036904293e-001
 5.8481923443e-001	 2.1208456953e+000	-3.6916802174e-001
 5.6428807091e-001	 2.1264004734e+000	-3.0234595990e-001
 5.4375767117e-001	 2.1317428539e+000	-2.3865720177e-001
 5.2323109210e-001	 2.1368737034e+000	-1.7698198521e-001
 5.0271135732e-001	 2.1417939423e+000	-1.1632537338e-001
 4.8220145610e-001	 2.1465045436e+000	-5.5815943797e-002
 4.6170434238e-001	 2.1510065319e+000	 5.2957556884e-003
 4.4122293379e-001	 2.1553009819e+000	 6.7638973930e-002
 4.2076011069e-001	 2.1593890176e+000	 1.3172473617e-001
 4.0031871534e-001	 2.1632718105e+000	 1.9794802572e-001
 6.1222702803e-001	 2.1391126820e+000	-4.8152772461e-001
 5.9146490754e-001	 2.1449462145e+000	-4.2025610332e-001
 5.7070043534e-001	 2.1505641151e+000	-3.6274832698e-001
 5.4993673561e-001	 2.1559672045e+000	-3.0775581814e-001
 5.2917689996e-001	 2.1611563591e+000	-2.5415975165e-001
 5.0842398637e-001	 2.1661325098e+000	-2.0096992249e-001
 4.8768101810e-001	 2.1708966407e+000	-1.4732336366e-001
 4.6695098264e-001	 2.1754497879e+000	-9.2482724238e-002
 4.4623683076e-001	 2.1797930386e+000	-3.5834417950e-002
 4.2554147558e-001	 2.1839275292e+000	 2.3113446932e-002
 4.0486779165e-001	 2.1878544447e+000	 8.4733345419e-002
 6.1910598340e-001	 2.1631476559e+000	-5.5112905977e-001
 5.9811058066e-001	 2.1690467338e+000	-5.0154562209e-001
 5.7711279978e-001	 2.1747277568e+000	-4.5497731196e-001
 5.5611580005e-001	 2.1801915551e+000	-4.1017148798e-001
 5.3512270782e-001	 2.1854390149e+000	-3.6600930303e-001
 5.1413661543e-001	 2.1904710774e+000	-3.2150450610e-001
 4.9316058010e-001	 2.1952887378e+000	-2.7580198683e-001
 4.7219762289e-001	 2.1998930440e+000	-2.2817607303e-001
 4.5125072774e-001	 2.2042850952e+000	-1.7802859225e-001
 4.3032284048e-001	 2.2084660407e+000	-1.2488670821e-001
 4.0941686796e-001	 2.2124370789e+000	-6.8400543674e-002
 3.6392610484e-001	 1.9666107368e+000	-4.4363211584e-001
 3.4536504635e-001	 1.9699550718e+000	-3.9051279361e-001
 3.2682852835e-001	 1.9731150785e+000	-3.2866635683e-001
 3.0831902626e-001	 1.9760919458e+000	-2.5810096282e-001
 2.8983897805e-001	 1.9788869010e+000	-1.7891125962e-001
 2.7139078356e-001	 1.9815012093e+000	-9.1275886313e-002
 2.5297680396e-001	 1.9839361725e+000	 4.5451314604e-003
 2.3459936123e-001	 1.9861931275e+000	 1.0821308177e-001
 2.1626073764e-001	 1.9882734453e+000	 2.1931335343e-001
 1.9796317532e-001	 1.9901785300e+000	 3.3735830099e-001
 1.7970887579e-001	 1.9919098172e+000	 4.6179017869e-001
 3.6847518115e-001	 1.9911933711e+000	-2.0305017071e-001
 3.4968210943e-001	 1.9945795102e+000	-1.6047255252e-001
 3.3091388495e-001	 1.9977790170e+000	-1.1082488049e-001
 3.1217301410e-001	 2.0007930951e+000	-5.4085579107e-002
 2.9346196528e-001	 2.0036229872e+000	 9.6785270060e-003
 2.7478316835e-001	 2.0062699745e+000	 8.0314749037e-002
 2.5613901401e-001	 2.0087353747e+000	 1.5758717830e-001
 2.3753185325e-001	 2.0110205416e+000	 2.4117942979e-001
 2.1896399687e-001	 2.0131268634e+000	 3.3069747578e-001
 2.0043771501e-001	 2.0150557616e+000	 4.2567256020e-001
 1.8195523674e-001	 2.0168086899e+000	 5.2556418483e-001
 3.7302425746e-001	 2.0157760053e+000	-1.0677719587e-002
 3.5399917252e-001	 2.0192039486e+000	 2.2723651368e-002
 3.3499924156e-001	 2.0224429555e+000	 6.1692997101e-002
 3.1602700193e-001	 2.0254942444e+000	 1.0628011830e-001
 2.9708495251e-001	 2.0283590735e+000	 1.5644436420e-001
 2.7817555315e-001	 2.0310387396e+000	 2.1205720921e-001
 2.5930122406e-001	 2.0335345769e+000	 2.7290494176e-001
 2.4046434526e-001	 2.0358479557e+000	 3.3869145601e-001
 2.2166725609e-001	 2.0379802815e+000	 4.0904113675e-001
 2.0291225470e-001	 2.0399329932e+000	 4.8350182830e-001
 1.8420159768e-001	 2.0417075627e+000	 5.6154787786e-001
 3.7757333378e-001	 2.0403586395e+000	 1.3477467712e-001
 3.5831623560e-001	 2.0438283870e+000	 1.6035813104e-001
 3.3908459817e-001	 2.0471068940e+000	 1.9016175200e-001
 3.1988098976e-001	 2.0501953937e+000	 2.2426207407e-001
 3.0070793974e-001	 2.0530951598e+000	 2.6264298570e-001
 2.8156793795e-001	 2.0558075047e+000	 3.0519835169e-001
 2.6246343411e-001	 2.0583337790e+000	 3.5173475130e-001
 2.4339683728e-001	 2.0606753698e+000	 4.0197432280e-001
 2.2437051531e-001	 2.0628336995e+000	 4.5555770472e-001
 2.0538679439e-001	 2.0648102249e+000	 5.1204706413e-001
 1.8644795863e-001	 2.0666064354e+000	 5.7092920223e-001
 3.8212241009e-001	 2.0649412737e+000	 2.3451537024e-001
 3.6263329868e-001	 2.0684528254e+000	 2.5363268326e-001
 3.4316995478e-001	 2.0717708325e+000	 2.7577603506e-001
 3.2373497759e-001	 2.0748965430e+000	 3.0104721562e-001
 3.0433092696e-001	 2.0778312460e+000	 3.2945303159e-001
 2.8496032274e-001	 2.0805762698e+000	 3.6090797814e-001
 2.6562564417e-001	 2.0831329812e+000	 3.9523703106e-001
 2.4632932930e-001	 2.0855027839e+000	 4.3217854899e-001
 2.2707377453e-001	 2.0876871176e+000	 4.7138727591e-001
 2.0786133409e-001	 2.0896874565e+000	 5.1243743376e-001
 1.8869431958e-001	 2.0915053081e+000	 5.5482589546e-001
 3.8667148640e-001	 2.0895239079e+000	 2.8967639173e-001
 3.6695036176e-001	 2.0930772638e+000	 3.0367332486e-001
 3.4725531138e-001	 2.0964347709e+000	 3.1965536749e-001
 3.2758896542e-001	 2.0995976924e+000	 3.3774810118e-001
 3.0795391419e-001	 2.1025673323e+000	 3.5797964206e-001
 2.8835270754e-001	 2.1053450349e+000	 3.8028336710e-001
 2.6878785422e-001	 2.1079321833e+000	 4.0450076494e-001
 2.4926182132e-001	 2.1103301980e+000	 4.3038440068e-001
 2.2977703375e-001	 2.1125405357e+000	 4.5760098449e-001
 2.1033587378e-001	 2.1145646881e+000	 4.8573453363e-001
 1.9094068053e-001	 2.1164041808e+000	 5.1428961794e-001
 3.9122056271e-001	 2.1141065421e+000	 3.0131789187e-001
 3.7126742484e-001	 2.1177017022e+000	 3.1153469854e-001
 3.5134066799e-001	 2.1210987094e+000	 3.2284850886e-001
 3.3144295325e-001	 2.1242988417e+000	 3.3540724361e-001
 3.1157690142e-001	 2.1273034185e+000	 3.4925873066e-001
 2.9174509234e-001	 2.1301138000e+000	 3.6435349043e-001
 2.7195006427e-001	 2.1327313855e+000	 3.8054765006e-001
 2.5219431333e-001	 2.1351576121e+000	 3.9760597567e-001
 2.3248029298e-001	 2.1373939537e+000	 4.1520501201e-001
 2.1281041347e-001	 2.1394419197e+000	 4.3293631901e-001
 1.9318704148e-001	 2.1413030535e+000	 4.5030979469e-001
 3.9576963903e-001	 2.1386891763e+000	 2.7043227034e-001
 3.7558448792e-001	 2.1423261406e+000	 2.7820417484e-001
 3.5542602459e-001	 2.1457626479e+000	 2.8633752387e-001
 3.3529694108e-001	 2.1489999910e+000	 2.9500113593e-001
 3.1519988865e-001	 2.1520395048e+000	 3.0426096283e-001
 2.9513747713e-001	 2.1548825652e+000	 3.1408293901e-001
 2.7511227432e-001	 2.1575305876e+000	 3.2433596385e-001
 2.5512680535e-001	 2.1599850262e+000	 3.3479500626e-001
 2.3518355220e-001	 2.1622473718e+000	 3.4514432035e-001
 2.1528495317e-001	 2.1643191514e+000	 3.5498076151e-001
 1.9543340243e-001	 2.1662019262e+000	 3.6381719202e-001
 4.0031871534e-001	 2.1632718105e+000	 1.9794802572e-001
 3.7990155100e-001	 2.1669505789e+000	 2.0460567437e-001
 3.5951138120e-001	 2.1704265864e+000	 2.1104157185e-001
 3.3915092891e-001	 2.1737011403e+000	 2.1744400253e-001
 3.1882287587e-001	 2.1767755911e+000	 2.2389546319e-001
 2.9852986193e-001	 2.1796513303e+000	 2.3037558072e-001
 2.7827448437e-001	 2.1823297898e+000	 2.3676416742e-001
 2.5805929737e-001	 2.1848124402e+000	 2.4284440272e-001
 2.3788681142e-001	 2.1871007899e+000	 2.4830613003e-001
 2.1775949286e-001	 2.1891963830e+000	 2.5274925729e-001
 1.9767976337e-001	 2.1911007990e+000	 2.5568725048e-001
 4.0486779165e-001	 2.1878544447e+000	 8.4733345419e-002
 3.8421861408e-001	 2.1915750173e+000	 9.1603232504e-002
 3.6359673781e-001	 2.1950905249e+000	 9.7820440721e-002
 3.4300491674e-001	 2.1984022896e+000	 1.0359129735e-001
 3.2244586310e-001	 2.2015116773e+000	 1.0901327289e-001
 3.0192224673e-001	 2.2044200954e+000	 1.1407797188e-001
 2.8143669442e-001	 2.2071289919e+000	 1.1867426601e-001
 2.6099178938e-001	 2.2096398543e+000	 1.2259155794e-001
 2.4059007064e-001	 2.2119542079e+000	 1.2552316416e-001
 2.2023403255e-001	 2.2140736146e+000	 1.2706980540e-001
 1.9992612432e-001	 2.2159996717e+000	 1.2674319301e-001
 4.0941686796e-001	 2.2124370789e+000	-6.8400543674e-002
 3.8853567716e-001	 2.2161994557e+000	-5.9995673751e-002
 3.6768209441e-001	 2.2197544633e+000	-5.2522154549e-002
 3.4685890457e-001	 2.2231034390e+000	-4.5757031074e-002
 3.2606885033e-001	 2.2262477636e+000	-3.9589423555e-002
 3.0531463152e-001	 2.2291888605e+000	-3.4017458812e-002
 2.8459890447e-001	 2.2319281941e+000	-2.9145054519e-002
 2.6392428140e-001	 2.2344672684e+000	-2.5178568333e-002
 2.4329332986e-001	 2.2368076260e+000	-2.2423323905e-002
 2.2270857224e-001	 2.2389508462e+000	-2.1280025644e-002
 2.0217248527e-001	 2.2408985444e+000	-2.2241074065e-002
 1.7970887579e-001	 1.9919098172e+000	 4.6179017869e-001
 1.6149999964e-001	 1.9934687733e+000	 5.2559118773e-001
 1.4333866613e-001	 1.9948568938e+000	 6.0733023586e-001
 1.2522695292e-001	 1.9960757025e+000	 7.0603373765e-001
 1.0716689577e-001	 1.9971267502e+000	 8.2066464123e-001
 8.9160488287e-002	 1.9980116134e+000	 9.5012591687e-001
 7.1209681760e-002	 1.9987318933e+000	 1.0932640625e+000
 5.3316384950e-002	 1.9992892145e+000	 1.2488726177e+000
 3.5482463963e-002	 1.9996852239e+000	 1.4156956794e+000
 1.7709742145e-002	 1.9999215897e+000	 1.5924314096e+000
 0.0000000000e+000	 2.0000000000e+000	 1.7777355313e+000
 1.8195523674e-001	 2.0168086899e+000	 5.2556418483e-001
 1.6351874963e-001	 2.0183871330e+000	 5.5936236842e-001
 1.4513039946e-001	 2.0197926050e+000	 6.0955746917e-001
 1.2679228983e-001	 2.0210266488e+000	 6.7521949443e-001
 1.0850648196e-001	 2.0220908346e+000	 7.5535295820e-001
 9.0274994390e-002	 2.0229867586e+000	 8.4890041830e-001
 7.2099802782e-002	 2.0237160419e+000	 9.5474603289e-001
 5.3982839761e-002	 2.0242803297e+000	 1.0717191277e+000
 3.5925994762e-002	 2.0246812892e+000	 1.1985977664e+000
 1.7931113921e-002	 2.0249206096e+000	 1.3341123155e+000
 0.0000000000e+000	 2.0250000000e+000	 1.4769489980e+000
 1.8420159768e-001	 2.0417075627e+000	 5.6154787786e-001
 1.6553749963e-001	 2.0433054926e+000	 5.6967553857e-001
 1.4692213278e-001	 2.0447283162e+000	 5.9279106545e-001
 1.2835762674e-001	 2.0459775951e+000	 6.3000478622e-001
 1.0984606816e-001	 2.0470549190e+000	 6.8035942591e-001
 9.1389500493e-002	 2.0479619037e+000	 7.4283369826e-001
 7.2989923804e-002	 2.0487001906e+000	 8.1634591851e-001
 5.4649294573e-002	 2.0492714448e+000	 8.9975762925e-001
 3.6369525562e-002	 2.0496773545e+000	 9.9187723100e-001
 1.8152485698e-002	 2.0499196295e+000	 1.0914636096e+000
 0.0000000000e+000	 2.0500000000e+000	 1.1972297526e+000
 1.8644795863e-001	 2.0666064354e+000	 5.7092920223e-001
 1.6755624962e-001	 2.0682238523e+000	 5.5765078309e-001
 1.4871386611e-001	 2.0696640273e+000	 5.5808273754e-001
 1.2992296366e-001	 2.0709285414e+000	 5.7137247027e-001
 1.1118565436e-001	 2.0720190034e+000	 5.9659759080e-001
 9.2504006597e-002	 2.0729370489e+000	 6.3276956423e-001
 7.3880044825e-002	 2.0736843393e+000	 6.7883738602e-001
 5.5315749384e-002	 2.0742625600e+000	 7.3369127170e-001
 3.6813056361e-002	 2.0746734198e+000	 7.9616635327e-001
 1.8373857475e-002	 2.0749186493e+000	 8.6504637395e-001
 0.0000000000e+000	 2.0750000000e+000	 9.3906737343e-001
 1.8869431958e-001	 2.0915053081e+000	 5.5482589546e-001
 1.6957499962e-001	 2.0931422120e+000	 5.2434225387e-001
 1.5050559944e-001	 2.0945997385e+000	 5.0642263868e-001
 1.3148830057e-001	 2.0958794877e+000	 5.0024831466e-001
 1.1252524055e-001	 2.0969830877e+000	 5.0492847455e-001
 9.3618512700e-002	 2.0979121941e+000	 5.1950395486e-001
 7.4770165847e-002	 2.0986684879e+000	 5.4295097790e-001
 5.5982204196e-002	 2.0992536752e+000	 5.7418491087e-001
 3.7256587160e-002	 2.0996694851e+000	 6.1206403348e-001
 1.8595229251e-002	 2.0999176692e+000	 6.5539330540e-001
 0.0000000000e+000	 2.1000000000e+000	 7.0292812565e-001
 1.9094068053e-001	 2.1164041808e+000	 5.1428961794e-001
 1.7159374962e-001	 2.1180605716e+000	 4.7074204819e-001
 1.5229733276e-001	 2.1195354497e+000	 4.3874298375e-001
 1.3305363748e-001	 2.1208304339e+000	 4.1750435640e-001
 1.1386482675e-001	 2.1219471721e+000	 4.0616366381e-001
 9.4733018803e-002	 2.1228873393e+000	 4.0378775581e-001
 7.5660286868e-002	 2.1236526366e+000	 4.0937664917e-001
 5.6648659007e-002	 2.1242447904e+000	 4.2186736153e-001
 3.7700117959e-002	 2.1246655504e+000	 4.4013775564e-001
 1.8816601028e-002	 2.1249166891e+000	 4.6301038497e-001
 0.0000000000e+000	 2.1250000000e+000	 4.8925633245e-001
 1.9318704148e-001	 2.1413030535e+000	 4.5030979469e-001
 1.7361249961e-001	 2.1429789313e+000	 3.9778381656e-001
 1.5408906609e-001	 2.1444711609e+000	 3.5592141771e-001
 1.3461897439e-001	 2.1457813802e+000	 3.2396202536e-001
 1.1520441295e-001	 2.1469112565e+000	 3.0106818430e-001
 9.5847524906e-002	 2.1478624844e+000	 2.8632941908e-001
 7.6550407890e-002	 2.1486367853e+000	 2.7876612710e-001
 5.7315113819e-002	 2.1492359056e+000	 2.7733349283e-001
 3.8143648758e-002	 2.1496616157e+000	 2.8092541409e-001
 1.9037972804e-002	 2.1499157090e+000	 2.8837843128e-001
 0.0000000000e+000	 2.1500000000e+000	 2.9847565084e-001
 1.9543340243e-001	 2.1662019262e+000	 3.6381719202e-001
 1.7563124961e-001	 2.1678972910e+000	 3.0634612169e-001
 1.5588079942e-001	 2.1694068720e+000	 2.5878415184e-001
 1.3618431130e-001	 2.1707323265e+000	 2.2039505276e-001
 1.1654399914e-001	 2.1718753409e+000	 1.9036317675e-001
 9.6962031009e-002	 2.1728376296e+000	 1.6779740175e-001
 7.7440528911e-002	 2.1736209339e+000	 1.5173510821e-001
 5.7981568630e-002	 2.1742270207e+000	 1.4114617917e-001
 3.8587179558e-002	 2.1746576810e+000	 1.3493701401e-001
 1.9259344581e-002	 2.1749147288e+000	 1.3195454668e-001
 0.0000000000e+000	 2.1750000000e+000	 1.3099025936e-001
 1.9767976337e-001	 2.1911007990e+000	 2.5568725048e-001
 1.7764999960e-001	 2.1928156506e+000	 1.9725556854e-001
 1.5767253274e-001	 2.1943425832e+000	 1.4810888609e-001
 1.3774964821e-001	 2.1956832728e+000	 1.0753218127e-001
 1.1788358534e-001	 2.1968394252e+000	 7.4728390343e-002
 9.8076537113e-002	 2.1978127748e+000	 4.8822438393e-002
 7.8330649933e-002	 2.1986050826e+000	 2.8865305503e-002
 5.8648023441e-002	 2.1992181359e+000	 1.3838118155e-002
 3.9030710357e-002	 2.1996537463e+000	 2.6562560363e-003
 1.9480716358e-002	 2.1999137487e+000	-5.8265353099e-003
 0.0000000000e+000	 2.2000000000e+000	-1.2814035208e-002
 1.9992612432e-001	 2.2159996717e+000	 1.2674319301e-001
 1.7966874960e-001	 2.2177340103e+000	 7.1289723233e-002
 1.5946426607e-001	 2.2192782944e+000	 2.4627534462e-002
 1.3931498512e-001	 2.2206342191e+000	-1.3940307506e-002
 1.1922317154e-001	 2.2218035096e+000	-4.5195491898e-002
 9.9191043216e-002	 2.2227879199e+000	-7.0000339657e-002
 7.9220770954e-002	 2.2235892313e+000	-8.9293642408e-002
 5.9314478253e-002	 2.2242092511e+000	-1.0408647416e-001
 3.9474241156e-002	 2.2246498116e+000	-1.1545798596e-001
 1.9702088134e-002	 2.2249127686e+000	-1.2455119328e-001
 0.0000000000e+000	 2.2250000000e+000	-1.3256876571e-001
 2.0217248527e-001	 2.2408985444e+000	-2.2241074065e-002
 1.8168749959e-001	 2.2426523700e+000	-7.0820162525e-002
 1.6125599940e-001	 2.2442140055e+000	-1.1097123137e-001
 1.4088032204e-001	 2.2455851654e+000	-1.4337623412e-001
 1.2056275773e-001	 2.2467675940e+000	-1.6880468278e-001
 1.0030554932e-001	 2.2477630651e+000	-1.8810942636e-001
 8.0110891976e-002	 2.2485733799e+000	-2.0222238934e-001
 5.9980933064e-002	 2.2492003663e+000	-2.1215028092e-001
 3.9917771955e-002	 2.2496458769e+000	-2.1897028560e-001
 1.9923459911e-002	 2.2499117884e+000	-2.2382574504e-001
 0.0000000000e+000	 2.2500000000e+000	-2.2792184132e-001
 2.2500000000e+000	 0.0000000000e+000	 2.3433618546e+000
 2.2499117884e+000	 1.9923459911e-002	 2.3787620925e+000
 2.2496458769e+000	 3.9917771955e-002	 2.4047614736e+000
 2.2492003663e+000	 5.9980933064e-002	 2.4210609288e+000
 2.2485733799e+000	 8.0110891976e-002	 2.4273390675e+000
 2.2477630651e+000	 1.0030554932e-001	 2.4232516827e+000
 2.2467675940e+000	 1.2056275773e-001	 2.4084312869e+000
 2.2455851654e+000	 1.4088032204e-001	 2.3824866817e+000
 2.2442140055e+000	 1.6125599940e-001	 2.3450025640e+000
 2.2426523700e+000	 1.8168749959e-001	 2.2955391700e+000
 2.2408985444e+000	 2.0217248527e-001	 2.2336319611e+000
 2.2750000000e+000	 0.0000000000e+000	 2.2992581447e+000
 2.2749108083e+000	 2.0144831687e-002	 2.3311761626e+000
 2.2746419422e+000	 4.0361302754e-002	 2.3542927303e+000
 2.2741914815e+000	 6.0647387876e-002	 2.3683146064e+000
 2.2735575286e+000	 8.1001012998e-002	 2.3729253213e+000
 2.2727382103e+000	 1.0142005542e-001	 2.3677846505e+000
 2.2717316784e+000	 1.2190234393e-001	 2.3525281203e+000
 2.2705361116e+000	 1.4244565895e-001	 2.3267665473e+000
 2.2691497167e+000	 1.6304773272e-001	 2.2900856157e+000
 2.2675707296e+000	 1.8370624959e-001	 2.2420454941e+000
 2.2657974171e+000	 2.0441884622e-001	 2.1821804945e+000
 2.3000000000e+000	 0.0000000000e+000	 2.2585268314e+000
 2.2999098282e+000	 2.0366203464e-002	 2.2874293862e+000
 2.2996380075e+000	 4.0804833554e-002	 2.3081714858e+000
 2.2991825966e+000	 6.1313842688e-002	 2.3204659549e+000
 2.2985416773e+000	 8.1891134020e-002	 2.3240014452e+000
 2.2977133554e+000	 1.0253456153e-001	 2.3184418758e+000
 2.2966957628e+000	 1.2324193013e-001	 2.3034259069e+000
 2.2954870579e+000	 1.4401099586e-001	 2.2785664481e+000
 2.2940854279e+000	 1.6483946605e-001	 2.2434502063e+000
 2.2924890893e+000	 1.8572499959e-001	 2.1976372735e+000
 2.2906962898e+000	 2.0666520717e-001	 2.1406607586e+000
 2.3250000000e+000	 0.0000000000e+000	 2.2208785014e+000
 2.3249088481e+000	 2.0587575241e-002	 2.2472256086e+000
 2.3246340728e+000	 4.1248364354e-002	 2.2660949947e+000
 2.3241737118e+000	 6.1980297500e-002	 2.2772057929e+000
 2.3235258259e+000	 8.2781255043e-002	 2.2802519802e+000
 2.3226885006e+000	 1.0364906763e-001	 2.2749017836e+000
 2.3216598471e+000	 1.2458151633e-001	 2.2607971202e+000
 2.3204380042e+000	 1.4557633277e-001	 2.2375530741e+000
 2.3190211390e+000	 1.6663119938e-001	 2.2047574127e+000
 2.3174074490e+000	 1.8774374958e-001	 2.1619701449e+000
 2.3155951625e+000	 2.0891156812e-001	 2.1087231241e+000
 2.3500000000e+000	 0.0000000000e+000	 2.1860360566e+000
 2.3499078679e+000	 2.0808947019e-002	 2.2102812750e+000
 2.3496301381e+000	 4.1691895154e-002	 2.2277734084e+000
 2.3491648270e+000	 6.2646752313e-002	 2.2382381451e+000
 2.3485099746e+000	 8.3671376066e-002	 2.2413749953e+000
 2.3476636458e+000	 1.0476357374e-001	 2.2368566610e+000
 2.3466239315e+000	 1.2592110253e-001	 2.2243284431e+000
 2.3453889505e+000	 1.4714166968e-001	 2.2034076839e+000
 2.3439568502e+000	 1.6842293271e-001	 2.1736832520e+000
 2.3423258086e+000	 1.8976249958e-001	 2.1347150685e+000
 2.3404940352e+000	 2.1115792906e-001	 2.0860336819e+000
 2.3750000000e+000	 0.0000000000e+000	 2.1537340664e+000
 2.3749068878e+000	 2.1030318796e-002	 2.1763247673e+000
 2.3746262034e+000	 4.2135425955e-002	 2.1929290964e+000
 2.3741559422e+000	 6.3313207127e-002	 2.2032795476e+000
 2.3734941233e+000	 8.4561497090e-002	 2.2070813751e+000
 2.3726387909e+000	 1.0587807984e-001	 2.2040119277e+000
 2.3715880159e+000	 1.2726068872e-001	 2.1937200192e+000
 2.3703398968e+000	 1.4870700660e-001	 2.1758253372e+000
 2.3688925614e+000	 1.7021466604e-001	 2.1499178942e+000
 2.3672441683e+000	 1.9178124958e-001	 2.1155575222e+000
 2.3653929079e+000	 2.1340429001e-001	 2.0722734160e+000
 2.4000000000e+000	 0.0000000000e+000	 2.1237181597e+000
 2.3999059077e+000	 2.1251690574e-002	 2.1450957826e+000
 2.3996222687e+000	 4.2578956756e-002	 2.1612960100e+000
 2.3991470574e+000	 6.3979661940e-002	 2.1720583958e+000
 2.3984782719e+000	 8.5451618114e-002	 2.1770941533e+000
 2.3976139361e+000	 1.0699258595e-001	 2.1760854523e+000
 2.3965521003e+000	 1.2860027492e-001	 2.1686847524e+000
 2.3952908430e+000	 1.5027234351e-001	 2.1545141764e+000
 2.3938282726e+000	 1.7200639936e-001	 2.1331649261e+000
 2.3921625279e+000	 1.9379999957e-001	 2.1041967446e+000
 2.3902917807e+000	 2.1565065096e-001	 2.0671374274e+000
 2.4250000000e+000	 0.0000000000e+000	 2.0957444551e+000
 2.4249049275e+000	 2.1473062351e-002	 2.1163447498e+000
 2.4246183340e+000	 4.3022487557e-002	 2.1326190852e+000
 2.4241381725e+000	 6.4646116755e-002	 2.1443143332e+000
 2.4234624206e+000	 8.6341739139e-002	 2.1511478853e+000
 2.4225890813e+000	 1.0810709205e-001	 2.1528069100e+000
 2.4215161846e+000	 1.2993986112e-001	 2.1489476487e+000
 2.4202417893e+000	 1.5183768043e-001	 2.1391947519e+000
 2.4187639837e+000	 1.7379813269e-001	 2.1231406590e+000
 2.4170808876e+000	 1.9581874957e-001	 2.1003450267e+000
 2.4151906534e+000	 2.1789701191e-001	 2.0703342067e+000
 2.4500000000e+000	 0.0000000000e+000	 2.0695790253e+000
 2.4499039474e+000	 2.1694434129e-002	 2.0898322820e+000
 2.4496143993e+000	 4.3466018359e-002	 2.1066536822e+000
 2.4491292877e+000	 6.5312571569e-002	 2.1197976780e+000
 2.4484465693e+000	 8.7231860164e-002	 2.1289880612e+000
 2.4475642264e+000	 1.0922159816e-001	 2.1339171809e+000
 2.4464802690e+000	 1.3127944732e-001	 2.1342451991e+000
 2.4451927356e+000	 1.5340301734e-001	 2.1295993893e+000
 2.4436996949e+000	 1.7558986602e-001	 2.1195734797e+000
 2.4419992473e+000	 1.9783749957e-001	 2.1037270450e+000
 2.4400895261e+000	 2.2014337286e-001	 2.0815849511e+000
 2.4750000000e+000	 0.0000000000e+000	 2.0449973949e+000
 2.4749029673e+000	 2.1915805907e-002	 2.0653286625e+000
 2.4746104646e+000	 4.3909549161e-002	 2.0831650590e+000
 2.4741204029e+000	 6.5979026384e-002	 2.0982688832e+000
 2.4734307179e+000	 8.8121981189e-002	 2.1103705534e+000
 2.4725393716e+000	 1.1033610427e-001	 2.1191677837e+000
 2.4714443534e+000	 1.3261903353e-001	 2.1243247993e+000
 2.4701436819e+000	 1.5496835426e-001	 2.1254715950e+000
 2.4686354061e+000	 1.7738159935e-001	 2.1222032407e+000
 2.4669176069e+000	 1.9985624957e-001	 2.1140792365e+000
 2.4649883988e+000	 2.2238973381e-001	 2.1006229222e+000
 2.5000000000e+000	 0.0000000000e+000	 2.0217840672e+000
 2.4999019872e+000	 2.2137177686e-002	 2.0426133607e+000
 2.4996065299e+000	 4.4353079963e-002	 2.0619278766e+000
 2.4991115181e+000	 6.6645481200e-002	 2.0794980304e+000
 2.4984148666e+000	 8.9012102215e-002	 2.0950610970e+000
 2.4975145168e+000	 1.1145061038e-001	 2.1083203438e+000
 2.4964084378e+000	 1.3395861973e-001	 2.1189442043e+000
 2.4950946282e+000	 1.5653369117e-001	 2.1265654962e+000
 2.4935711173e+000	 1.7917333268e-001	 2.1307806868e+000
 2.4918359666e+000	 2.0187499956e-001	 2.1311492108e+000
 2.4898872715e+000	 2.2463609475e-001	 2.1271928432e+000
 2.2408985444e+000	 2.0217248527e-001	 2.2336319611e+000
 2.2389508462e+000	 2.2270857224e-001	 2.2032181365e+000
 2.2368076260e+000	 2.4329332986e-001	 2.1769597836e+000
 2.2344672684e+000	 2.6392428140e-001	 2.1543617641e+000
 2.2319281941e+000	 2.8459890447e-001	 2.1348888565e+000
 2.2291888605e+000	 3.0531463152e-001	 2.1179653326e+000
 2.2262477636e+000	 3.2606885033e-001	 2.1029745998e+000
 2.2231034390e+000	 3.4685890457e-001	 2.0892589099e+000
 2.2197544633e+000	 3.6768209441e-001	 2.0761191405e+000
 2.2161994557e+000	 3.8853567716e-001	 2.0628146487e+000
 2.2124370789e+000	 4.0941686796e-001	 2.0485632025e+000
 2.2657974171e+000	 2.0441884622e-001	 2.1821804945e+000
 2.2638280779e+000	 2.2518311194e-001	 2.1492259075e+000
 2.2616610440e+000	 2.4599658909e-001	 2.1194592791e+000
 2.2592946825e+000	 2.6685677342e-001	 2.0923733173e+000
 2.2567273962e+000	 2.8776111452e-001	 2.0674205858e+000
 2.2539576256e+000	 3.0870701632e-001	 2.0440130916e+000
 2.2509838498e+000	 3.2969183756e-001	 2.0215219388e+000
 2.2478045883e+000	 3.5071289240e-001	 1.9992770521e+000
 2.2444184018e+000	 3.7176745101e-001	 1.9765669715e+000
 2.2408238941e+000	 3.9285274024e-001	 1.9526387234e+000
 2.2370197131e+000	 4.1396594427e-001	 1.9266977684e+000
 2.2906962898e+000	 2.0666520717e-001	 2.1406607586e+000
 2.2887053095e+000	 2.2765765163e-001	 2.1063697733e+000
 2.2865144621e+000	 2.4869984831e-001	 2.0743764144e+000
 2.2841220966e+000	 2.6978926543e-001	 2.0441612459e+000
 2.2815265984e+000	 2.9092332457e-001	 2.0151645603e+000
 2.2787263907e+000	 3.1209940111e-001	 1.9867859761e+000
 2.2757199361e+000	 3.3331482478e-001	 1.9583841028e+000
 2.2725057376e+000	 3.5456688023e-001	 1.9292762760e+000
 2.2690823403e+000	 3.7585280762e-001	 1.8987383670e+000
 2.2654483325e+000	 3.9716980332e-001	 1.8660046674e+000
 2.2616023474e+000	 4.1851502058e-001	 1.8302678549e+000
 2.3155951625e+000	 2.0891156812e-001	 2.1087231241e+000
 2.3135825411e+000	 2.3013219132e-001	 2.0742848270e+000
 2.3113678802e+000	 2.5140310753e-001	 2.0413300516e+000
 2.3089495107e+000	 2.7272175745e-001	 2.0093272219e+000
 2.3063258005e+000	 2.9408553462e-001	 1.9777042973e+000
 2.3034951558e+000	 3.1549178591e-001	 1.9458483796e+000
 2.3004560224e+000	 3.3693781201e-001	 1.9131053866e+000
 2.2972068869e+000	 3.5842086805e-001	 1.8787797995e+000
 2.2937462788e+000	 3.7993816422e-001	 1.8421344839e+000
 2.2900727709e+000	 4.0148686640e-001	 1.8023905898e+000
 2.2861849816e+000	 4.2306409689e-001	 1.7587275314e+000
 2.3404940352e+000	 2.1115792906e-001	 2.0860336819e+000
 2.3384597727e+000	 2.3260673101e-001	 2.0526227243e+000
 2.3362212982e+000	 2.5410636675e-001	 2.0199565182e+000
 2.3337769248e+000	 2.7565424947e-001	 1.9874913460e+000
 2.3311250027e+000	 2.9724774467e-001	 1.9546427677e+000
 2.3282639210e+000	 3.1888417070e-001	 1.9207852345e+000
 2.3251921086e+000	 3.4056079923e-001	 1.8852517714e+000
 2.3219080362e+000	 3.6227485588e-001	 1.8473337344e+000
 2.3184102172e+000	 3.8402352083e-001	 1.8062806433e+000
 2.3146972093e+000	 4.0580392948e-001	 1.7613000942e+000
 2.3107676158e+000	 4.2761317319e-001	 1.7115577548e+000
 2.3653929079e+000	 2.1340429001e-001	 2.0722734160e+000
 2.3633370043e+000	 2.3508127071e-001	 2.0410508119e+000
 2.3610747163e+000	 2.5680962597e-001	 2.0099086879e+000
 2.3586043389e+000	 2.7858674148e-001	 1.9782911784e+000
 2.3559242049e+000	 3.0040995472e-001	 1.9456013722e+000
 2.3530326861e+000	 3.2227655550e-001	 1.9112009316e+000
 2.3499281949e+000	 3.4418378646e-001	 1.8744097828e+000
 2.3466091856e+000	 3.6612884371e-001	 1.8345058819e+000
 2.3430741557e+000	 3.8810887743e-001	 1.7907250580e+000
 2.3393216477e+000	 4.1012099256e-001	 1.7422609376e+000
 2.3353502500e+000	 4.3216224950e-001	 1.6882649542e+000
 2.3902917807e+000	 2.1565065096e-001	 2.0671374274e+000
 2.3882142360e+000	 2.3755581040e-001	 2.0392513103e+000
 2.3859281344e+000	 2.5951288519e-001	 2.0108551192e+000
 2.3834317530e+000	 2.8151923350e-001	 1.9813808291e+000
 2.3807234070e+000	 3.0357216477e-001	 1.9502189813e+000
 2.3778014512e+000	 3.2566894029e-001	 1.9167183064e+000
 2.3746642811e+000	 3.4780677368e-001	 1.8801854214e+000
 2.3713103349e+000	 3.6998283154e-001	 1.8398846030e+000
 2.3677380942e+000	 3.9219423403e-001	 1.7950376407e+000
 2.3639460861e+000	 4.1443805563e-001	 1.7448237719e+000
 2.3599328842e+000	 4.3671132581e-001	 1.6883797039e+000
 2.4151906534e+000	 2.1789701191e-001	 2.0703342067e+000
 2.4130914676e+000	 2.4003035009e-001	 2.0469205469e+000
 2.4107815524e+000	 2.6221614441e-001	 2.0224792463e+000
 2.4082591671e+000	 2.8445172551e-001	 1.9964301049e+000
 2.4055226092e+000	 3.0673437482e-001	 1.9681510350e+000
 2.4025702163e+000	 3.2906132508e-001	 1.9369776885e+000
 2.3994003674e+000	 3.5142976091e-001	 1.9022031582e+000
 2.3960114842e+000	 3.7383681936e-001	 1.8630777583e+000
 2.3924020327e+000	 3.9627959064e-001	 1.8188088853e+000
 2.3885705245e+000	 4.1875511871e-001	 1.7685609636e+000
 2.3845155184e+000	 4.4126040212e-001	 1.7114554796e+000
 2.4400895261e+000	 2.2014337286e-001	 2.0815849511e+000
 2.4379686992e+000	 2.4250488978e-001	 2.0637682366e+000
 2.4356349705e+000	 2.6491940363e-001	 2.0444786208e+000
 2.4330865812e+000	 2.8738421752e-001	 2.0231237083e+000
 2.4303218113e+000	 3.0989658487e-001	 1.9990686972e+000
 2.4273389814e+000	 3.3245370987e-001	 1.9716360088e+000
 2.4241364537e+000	 3.5505274813e-001	 1.9401049929e+000
 2.4207126335e+000	 3.7769080719e-001	 1.9037117134e+000
 2.4170659712e+000	 4.0036494724e-001	 1.8616488166e+000
 2.4131949629e+000	 4.2307218179e-001	 1.8130654865e+000
 2.4090981526e+000	 4.4580947843e-001	 1.7570674890e+000
 2.4649883988e+000	 2.2238973381e-001	 2.1006229222e+000
 2.4628459308e+000	 2.4497942947e-001	 2.0895168052e+000
 2.4604883886e+000	 2.6762266285e-001	 2.0765641983e+000
 2.4579139953e+000	 2.9031670954e-001	 2.0611604856e+000
 2.4551210135e+000	 3.1305879491e-001	 2.0426580617e+000
 2.4521077465e+000	 3.3584609467e-001	 2.0203659614e+000
 2.4488725399e+000	 3.5867573535e-001	 1.9935495683e+000
 2.4454137828e+000	 3.8154479501e-001	 1.9614304043e+000
 2.4417299097e+000	 4.0445030384e-001	 1.9231860045e+000
 2.4378194013e+000	 4.2738924487e-001	 1.8779498805e+000
 2.4336807868e+000	 4.5035855474e-001	 1.8248115749e+000
 2.4898872715e+000	 2.2463609475e-001	 2.1271928432e+000
 2.4877231625e+000	 2.4745396916e-001	 2.1239007543e+000
 2.4853418066e+000	 2.7032592207e-001	 2.1184596680e+000
 2.4827414094e+000	 2.9324920155e-001	 2.1102527195e+000
 2.4799202156e+000	 3.1622100496e-001	 2.0986194056e+000
 2.4768765117e+000	 3.3923847946e-001	 2.0828552151e+000
 2.4736086262e+000	 3.6229872257e-001	 2.0622113380e+000
 2.4701149322e+000	 3.8539878284e-001	 2.0358944587e+000
 2.4663938481e+000	 4.0853566044e-001	 2.0030666359e+000
 2.4624438397e+000	 4.3170630795e-001	 1.9628452733e+000
 2.4582634210e+000	 4.5490763105e-001	 1.9143031834e+000
 2.2124370789e+000	 4.0941686796e-001	 2.0485632025e+000
 2.2084660407e+000	 4.3032284048e-001	 2.0602257686e+000
 2.2042850952e+000	 4.5125072774e-001	 2.0569153637e+000
 2.1998930440e+000	 4.7219762289e-001	 2.0376746896e+000
 2.1952887378e+000	 4.9316058010e-001	 2.0015155079e+000
 2.1904710774e+000	 5.1413661543e-001	 1.9474192234e+000
 2.1854390149e+000	 5.3512270782e-001	 1.8743375505e+000
 2.1801915551e+000	 5.5611580005e-001	 1.7811932636e+000
 2.1747277568e+000	 5.7711279978e-001	 1.6668810324e+000
 2.1690467338e+000	 5.9811058066e-001	 1.5302683432e+000
 2.1631476559e+000	 6.1910598340e-001	 1.3701965067e+000
 2.2370197131e+000	 4.1396594427e-001	 1.9266977684e+000
 2.2330045523e+000	 4.3510420537e-001	 1.9288827701e+000
 2.2287771518e+000	 4.5626462471e-001	 1.9180735185e+000
 2.2243363000e+000	 4.7744426314e-001	 1.8933137282e+000
 2.2196808349e+000	 4.9864014209e-001	 1.8536138350e+000
 2.2148096449e+000	 5.1984924449e-001	 1.7979515466e+000
 2.2097216706e+000	 5.4106851568e-001	 1.7252724794e+000
 2.2044159057e+000	 5.6229486449e-001	 1.6344908825e+000
 2.1988913986e+000	 5.8352516422e-001	 1.5244904508e+000
 2.1931472531e+000	 6.0475625377e-001	 1.3941252275e+000
 2.1871826299e+000	 6.2598493877e-001	 1.2366984841e+000
 2.2616023474e+000	 4.1851502058e-001	 1.8302678549e+000
 2.2575430638e+000	 4.3988557026e-001	 1.8244877079e+000
 2.2532692084e+000	 4.6127852168e-001	 1.8076982901e+000
 2.2487795561e+000	 4.8269090339e-001	 1.7789432625e+000
 2.2440729320e+000	 5.0411970409e-001	 1.7372306286e+000
 2.2391482124e+000	 5.2556187355e-001	 1.6815332526e+000
 2.2340043263e+000	 5.4701432354e-001	 1.6107894670e+000
 2.2286402563e+000	 5.6847392893e-001	 1.5239037714e+000
 2.2230550403e+000	 5.8993752866e-001	 1.4197476232e+000
 2.2172477723e+000	 6.1140192689e-001	 1.2971603222e+000
 2.2112176038e+000	 6.3286389413e-001	 1.1075796830e+000
 2.2861849816e+000	 4.2306409689e-001	 1.7587275314e+000
 2.2820815754e+000	 4.4466693515e-001	 1.7464843278e+000
 2.2777612650e+000	 4.6629241865e-001	 1.7252242927e+000
 2.2732228121e+000	 4.8793754364e-001	 1.6939899764e+000
 2.2684650291e+000	 5.0959926609e-001	 1.6517858513e+000
 2.2634867799e+000	 5.3127450260e-001	 1.5975787990e+000
 2.2582869820e+000	 5.5296013141e-001	 1.5302986886e+000
 2.2528646070e+000	 5.7465299337e-001	 1.4488390508e+000
 2.2472186821e+000	 5.9634989310e-001	 1.3520578475e+000
 2.2413482916e+000	 6.1804760000e-001	 1.2387783387e+000
 2.2352525778e+000	 6.3974284950e-001	 1.0126707867e+000
 2.3107676158e+000	 4.2761317319e-001	 1.7115577548e+000
 2.3066200870e+000	 4.4944830005e-001	 1.6943440907e+000
 2.3022533216e+000	 4.7130631563e-001	 1.6701146521e+000
 2.2976660682e+000	 4.9318418390e-001	 1.6379098287e+000
 2.2928571261e+000	 5.1507882809e-001	 1.5967294713e+000
 2.2878253475e+000	 5.3698713166e-001	 1.5455333457e+000
 2.2825696377e+000	 5.5890593927e-001	 1.4832416840e+000
 2.2770889576e+000	 5.8083205782e-001	 1.4087358337e+000
 2.2713823238e+000	 6.0276225754e-001	 1.3208590069e+000
 2.2654488109e+000	 6.2469327312e-001	 1.2184171303e+000
 2.2592875518e+000	 6.4662180487e-001	 9.5118585795e-001
 2.3353502500e+000	 4.3216224950e-001	 1.6882649542e+000
 2.3311585985e+000	 4.5422966494e-001	 1.6675647142e+000
 2.3267453782e+000	 4.7632021260e-001	 1.6418595043e+000
 2.3221093242e+000	 4.9843082415e-001	 1.6101865125e+000
 2.3172492232e+000	 5.2055839009e-001	 1.5715398828e+000
 2.3121639150e+000	 5.4269976072e-001	 1.5248711390e+000
 2.3068522935e+000	 5.6485174713e-001	 1.4690897074e+000
 2.3013133082e+000	 5.8701112226e-001	 1.4030635423e+000
 2.2955459656e+000	 6.0917462198e-001	 1.3256198550e+000
 2.2895493301e+000	 6.3133894624e-001	 1.1924811898e+000
 2.2833225257e+000	 6.5350076025e-001	 9.2237085010e-001
 2.3599328842e+000	 4.3671132581e-001	 1.6883797039e+000
 2.3556971101e+000	 4.5901102983e-001	 1.6656688049e+000
 2.3512374348e+000	 4.8133410958e-001	 1.6399745898e+000
 2.3465525803e+000	 5.0367746441e-001	 1.6103300102e+000
 2.3416413203e+000	 5.2603795209e-001	 1.5757224258e+000
 2.3365024825e+000	 5.4841238978e-001	 1.5350939967e+000
 2.3311349492e+000	 5.7079755500e-001	 1.4873421796e+000
 2.3255376588e+000	 5.9319018671e-001	 1.4313203291e+000
 2.3197096073e+000	 6.1558698643e-001	 1.3658384080e+000
 2.3136498494e+000	 6.3798461936e-001	 1.1963339330e+000
 2.3073574997e+000	 6.6037971562e-001	 9.2550194606e-001
 2.3845155184e+000	 4.4126040212e-001	 1.7114554796e+000
 2.3802356217e+000	 4.6379239473e-001	 1.6882025753e+000
 2.3757294915e+000	 4.8634800655e-001	 1.6639999327e+000
 2.3709958363e+000	 5.0892410466e-001	 1.6378752389e+000
 2.3660334174e+000	 5.3151751410e-001	 1.6088079969e+000
 2.3608410500e+000	 5.5412501884e-001	 1.5757298869e+000
 2.3554176049e+000	 5.7674336287e-001	 1.5375252360e+000
 2.3497620094e+000	 5.9936925116e-001	 1.4930315962e+000
 2.3438732491e+000	 6.2199935087e-001	 1.4410404360e+000
 2.3377503686e+000	 6.4463029248e-001	 1.2312765034e+000
 2.3313924736e+000	 6.6725867099e-001	 9.5988400017e-001
 2.4090981526e+000	 4.4580947843e-001	 1.7570674890e+000
 2.4047741332e+000	 4.6857375962e-001	 1.7347346397e+000
 2.4002215481e+000	 4.9136190353e-001	 1.7134986025e+000
 2.3954390923e+000	 5.1417074492e-001	 1.6923807780e+000
 2.3904255145e+000	 5.3699707610e-001	 1.6703517456e+000
 2.3851796176e+000	 5.5983764791e-001	 1.6463315938e+000
 2.3797002606e+000	 5.8268917073e-001	 1.6191903637e+000
 2.3739863600e+000	 6.0554831560e-001	 1.5877486047e+000
 2.3680368908e+000	 6.2841171532e-001	 1.5261515290e+000
 2.3618508879e+000	 6.5127596560e-001	 1.2966709401e+000
 2.3554274476e+000	 6.7413762637e-001	 1.0248490753e+000
 2.4336807868e+000	 4.5035855474e-001	 1.8248115749e+000
 2.4293126448e+000	 4.7335512452e-001	 1.8048548827e+000
 2.4247136047e+000	 4.9637580050e-001	 1.7880555498e+000
 2.4198823484e+000	 5.1941738517e-001	 1.7734276743e+000
 2.4148176116e+000	 5.4247663810e-001	 1.7599318493e+000
 2.4095181851e+000	 5.6555027697e-001	 1.7464754642e+000
 2.4039829163e+000	 5.8863497860e-001	 1.7319131211e+000
 2.3982107106e+000	 6.1172738005e-001	 1.7150471689e+000
 2.3922005325e+000	 6.3482407976e-001	 1.6202606689e+000
 2.3859514072e+000	 6.5792163873e-001	 1.3919047173e+000
 2.3794624215e+000	 6.8101658174e-001	 1.1197550686e+000
 2.4582634210e+000	 4.5490763105e-001	 1.9143031834e+000
 2.4538511564e+000	 4.7813648941e-001	 1.8981733957e+000
 2.4492056613e+000	 5.0138969748e-001	 1.8872765125e+000
 2.4443256044e+000	 5.2466402543e-001	 1.8806183181e+000
 2.4392097087e+000	 5.4795620010e-001	 1.8771483618e+000
 2.4338567526e+000	 5.7126290603e-001	 1.8757602296e+000
 2.4282655721e+000	 5.9458078647e-001	 1.8752919343e+000
 2.4224350612e+000	 6.1790644450e-001	 1.8745264287e+000
 2.4163641743e+000	 6.4123644421e-001	 1.7434370738e+000
 2.4100519264e+000	 6.6456731185e-001	 1.5163894725e+000
 2.4034973955e+000	 6.8789553712e-001	 1.2439844201e+000
 2.1631476559e+000	 6.1910598340e-001	 1.3701965067e+000
 2.1570297506e+000	 6.4009581698e-001	 1.3956458966e+000
 2.1506923038e+000	 6.6107685984e-001	 1.3805249353e+000
 2.1441346607e+000	 6.8204586113e-001	 1.3566421868e+000
 2.1373562277e+000	 7.0299954197e-001	 1.3252648509e+000
 2.1303564724e+000	 7.2393459685e-001	 1.2877686689e+000
 2.1231349254e+000	 7.4484769492e-001	 1.2456373024e+000
 2.1156911808e+000	 7.6573548144e-001	 1.2004614606e+000
 2.1080248974e+000	 7.8659457923e-001	 1.1539377746e+000
 2.1001357994e+000	 8.0742159012e-001	 1.1078674150e+000
 2.0920236774e+000	 8.2821309651e-001	 1.0641544501e+000
 2.1871826299e+000	 6.2598493877e-001	 1.2366984841e+000
 2.1809967479e+000	 6.4720799272e-001	 1.2304393153e+000
 2.1745888849e+000	 6.6842215828e-001	 1.2157671091e+000
 2.1679583792e+000	 6.8962414847e-001	 1.1938779440e+000
 2.1611046302e+000	 7.1081064799e-001	 1.1660783537e+000
 2.1540270999e+000	 7.3197831459e-001	 1.1337849027e+000
 2.1467253135e+000	 7.5312378041e-001	 1.0985235114e+000
 2.1391988606e+000	 7.7424365345e-001	 1.0619285241e+000
 2.1314473962e+000	 7.9533451899e-001	 1.0257415176e+000
 2.1234706416e+000	 8.1639294112e-001	 9.9180984675e-001
 2.1152683849e+000	 8.3741546425e-001	 9.6208492470e-001
 2.2112176038e+000	 6.3286389413e-001	 1.1075796830e+000
 2.2049637451e+000	 6.5432016846e-001	 1.0990171422e+000
 2.1984854661e+000	 6.7576745672e-001	 1.0833962030e+000
 2.1917820976e+000	 6.9720243581e-001	 1.0619519021e+000
 2.1848530328e+000	 7.1862175401e-001	 1.0360314399e+000
 2.1776977274e+000	 7.4002203233e-001	 1.0070937097e+000
 2.1703157015e+000	 7.6139986591e-001	 9.7670856953e-001
 2.1627065404e+000	 7.8275182547e-001	 9.4655585034e-001
 2.1548698951e+000	 8.0407445876e-001	 9.1842409879e-001
 2.1468054838e+000	 8.2536429212e-001	 8.9420905025e-001
 2.1385130925e+000	 8.4661783199e-001	 8.7591183047e-001
 2.2352525778e+000	 6.3974284950e-001	 1.0126707867e+000
 2.2289307423e+000	 6.6143234421e-001	 1.0005740349e+000
 2.2223820472e+000	 6.8311275516e-001	 9.8262226102e-001
 2.2156058161e+000	 7.0478072316e-001	 9.6009064040e-001
 2.2086014353e+000	 7.2643286003e-001	 9.3436839334e-001
 2.2013683548e+000	 7.4806575007e-001	 9.0695826815e-001
 2.1939060896e+000	 7.6967595141e-001	 8.7947575960e-001
 2.1862142202e+000	 7.9125999748e-001	 8.5364805800e-001
 2.1782923940e+000	 8.1281439853e-001	 8.3131272526e-001
 2.1701403260e+000	 8.3433564312e-001	 8.1441609496e-001
 2.1617578000e+000	 8.5582019972e-001	 8.0501139420e-001
 2.2592875518e+000	 6.4662180487e-001	 9.5118585795e-001
 2.2528977396e+000	 6.6854451995e-001	 9.3433679757e-001
 2.2462786284e+000	 6.9045805361e-001	 9.1268585597e-001
 2.2394295346e+000	 7.1235901050e-001	 8.8754954792e-001
 2.2323498378e+000	 7.3424396605e-001	 8.6036048695e-001
 2.2250389823e+000	 7.5610946781e-001	 8.3266682298e-001
 2.2174964776e+000	 7.7795203691e-001	 8.0613140789e-001
 2.2097219000e+000	 7.9976816950e-001	 7.8253068492e-001
 2.2017148928e+000	 8.2155433830e-001	 7.6375329803e-001
 2.1934751683e+000	 8.4330699412e-001	 7.5179841825e-001
 2.1850025075e+000	 8.6502256746e-001	 7.4877378473e-001
 2.2833225257e+000	 6.5350076025e-001	 9.2237085010e-001
 2.2768647368e+000	 6.7565669569e-001	 8.9956268847e-001
 2.2701752095e+000	 6.9780335205e-001	 8.7285648267e-001
 2.2632532530e+000	 7.1993729785e-001	 8.4361130708e-001
 2.2560982403e+000	 7.4205507208e-001	 8.1330456225e-001
 2.2487096098e+000	 7.6415318556e-001	 7.8353136699e-001
 2.2410868657e+000	 7.8622812241e-001	 7.5600367152e-001
 2.2332295797e+000	 8.0827634151e-001	 7.3254908704e-001
 2.2251373917e+000	 8.3029427807e-001	 7.1510942799e-001
 2.2168100105e+000	 8.5227834513e-001	 7.0573896398e-001
 2.2082472150e+000	 8.7422493520e-001	 7.0660237908e-001
 2.3073574997e+000	 6.6037971562e-001	 9.2550194606e-001
 2.3008317340e+000	 6.8276887144e-001	 8.9553783430e-001
 2.2940717907e+000	 7.0514865049e-001	 8.6243105157e-001
 2.2870769715e+000	 7.2751558520e-001	 8.2758447223e-001
 2.2798466429e+000	 7.4986617810e-001	 7.9252169770e-001
 2.2723802372e+000	 7.7219690330e-001	 7.5888640378e-001
 2.2646772538e+000	 7.9450420791e-001	 7.2844140139e-001
 2.2567372595e+000	 8.1678451353e-001	 7.0306740623e-001
 2.2485598905e+000	 8.3903421784e-001	 6.8476151352e-001
 2.2401448527e+000	 8.6124969613e-001	 6.7563537481e-001
 2.2314919226e+000	 8.8342730294e-001	 6.7791307451e-001
 2.3313924736e+000	 6.6725867099e-001	 9.5988400017e-001
 2.3247987313e+000	 6.8988104719e-001	 9.2157574182e-001
 2.3179683718e+000	 7.1249394894e-001	 8.8073247563e-001
 2.3109006899e+000	 7.3509387254e-001	 8.3880213596e-001
 2.3035950454e+000	 7.5767728412e-001	 7.9735595936e-001
 2.2960508647e+000	 7.8024062105e-001	 7.5808778747e-001
 2.2882676418e+000	 8.0278029341e-001	 7.2281307552e-001
 2.2802449393e+000	 8.2529268555e-001	 6.9346760193e-001
 2.2719823894e+000	 8.4777415761e-001	 6.7210587517e-001
 2.2634796949e+000	 8.7022104713e-001	 6.6089923459e-001
 2.2547366301e+000	 8.9262967068e-001	 6.6213364320e-001
 2.3554274476e+000	 6.7413762637e-001	 1.0248490753e+000
 2.3487657285e+000	 6.9699322293e-001	 9.7701590104e-001
 2.3418649530e+000	 7.1983924738e-001	 9.2710834363e-001
 2.3347244084e+000	 7.4267215989e-001	 8.7662067721e-001
 2.3273434479e+000	 7.6548839015e-001	 8.2717322806e-001
 2.3197214922e+000	 7.8828433879e-001	 7.8051163335e-001
 2.3118580299e+000	 8.1105637891e-001	 7.3850579761e-001
 2.3037526191e+000	 8.3380085757e-001	 7.0314854211e-001
 2.2954048883e+000	 8.5651409738e-001	 6.7655394330e-001
 2.2868145371e+000	 8.7919239814e-001	 6.6095535701e-001
 2.2779813376e+000	 9.0183203843e-001	 6.5870312634e-001
 2.3794624215e+000	 6.8101658174e-001	 1.1197550686e+000
 2.3727327257e+000	 7.0410539868e-001	 1.0612224729e+000
 2.3657615341e+000	 7.2718454583e-001	 1.0009296739e+000
 2.3585481268e+000	 7.5025044724e-001	 9.4041858519e-001
 2.3510918505e+000	 7.7329949618e-001	 8.8136009764e-001
 2.3433921197e+000	 7.9632805654e-001	 8.2555329461e-001
 2.3354484179e+000	 8.1933246442e-001	 7.7492435641e-001
 2.3272602989e+000	 8.4230902959e-001	 7.3152514929e-001
 2.3188273871e+000	 8.6525403716e-001	 6.9753149497e-001
 2.3101493793e+000	 8.8816374914e-001	 6.7524111749e-001
 2.3012260451e+000	 9.1103440617e-001	 6.6707126501e-001
 2.4034973955e+000	 6.8789553712e-001	 1.2439844201e+000
 2.3966997229e+000	 7.1121757443e-001	 1.1735830558e+000
 2.3896581153e+000	 7.3452984428e-001	 1.1015897429e+000
 2.3823718453e+000	 7.5782873460e-001	 1.0295953538e+000
 2.3748402530e+000	 7.8111060220e-001	 9.5932283929e-001
 2.3670627471e+000	 8.0437177429e-001	 8.9262640044e-001
 2.3590388060e+000	 8.2760854992e-001	 8.3149034143e-001
 2.3507679787e+000	 8.5081720161e-001	 7.7802759779e-001
 2.3422498860e+000	 8.7399397693e-001	 7.3447793660e-001
 2.3334842215e+000	 8.9713510015e-001	 7.0320582505e-001
 2.3244707527e+000	 9.2023677391e-001	 6.8669796515e-001
 2.0920236774e+000	 8.2821309651e-001	 1.0641544501e+000
 2.0836883892e+000	 8.4896566288e-001	 9.2770835308e-001
 2.0751298605e+000	 8.6967583741e-001	 8.0972327187e-001
 2.0663480856e+000	 8.9034015358e-001	 7.1208892833e-001
 2.0573431284e+000	 9.1095513182e-001	 6.3677436254e-001
 2.0481151225e+000	 9.3151728120e-001	 5.8582514409e-001
 2.0386642723e+000	 9.5202310113e-001	 5.6136034654e-001
 2.0289908532e+000	 9.7246908310e-001	 5.6556928784e-001
 2.0190952125e+000	 9.9285171243e-001	 6.0070804044e-001
 2.0089777693e+000	 1.0131674701e+000	 6.6909571545e-001
 1.9986390154e+000	 1.0334128344e+000	 7.7311052606e-001
 2.1152683849e+000	 8.3741546425e-001	 9.6208492470e-001
 2.1068404824e+000	 8.5839861469e-001	 8.2701506469e-001
 2.0981868589e+000	 8.7933890227e-001	 7.0855692436e-001
 2.0893075088e+000	 9.0023282195e-001	 6.0872208484e-001
 2.0802024965e+000	 9.2107685550e-001	 5.2960649805e-001
 2.0708719572e+000	 9.4186747321e-001	 4.7338756827e-001
 2.0613160975e+000	 9.6260113559e-001	 4.4232098542e-001
 2.0515351960e+000	 9.8327429514e-001	 4.3873731300e-001
 2.0415296038e+000	 1.0038833981e+000	 4.6503833446e-001
 2.0312997445e+000	 1.0244248864e+000	 5.2369316271e-001
 2.0208461156e+000	 1.0448951992e+000	 6.1723411799e-001
 2.1385130925e+000	 8.4661783199e-001	 8.7591183047e-001
 2.1299925756e+000	 8.6783156650e-001	 7.4290235077e-001
 2.1212438574e+000	 8.8900196713e-001	 6.2461158101e-001
 2.1122669320e+000	 9.1012549032e-001	 5.2317479387e-001
 2.1030618646e+000	 9.3119857919e-001	 4.4081678582e-001
 2.0936287919e+000	 9.5221766522e-001	 3.7984882677e-001
 2.0839679228e+000	 9.7317917004e-001	 3.4266534973e-001
 2.0740795389e+000	 9.9407950717e-001	 3.3174038359e-001
 2.0639639950e+000	 1.0149150838e+000	 3.4962373291e-001
 2.0536217198e+000	 1.0356823027e+000	 3.9893690961e-001
 2.0430532157e+000	 1.0563775640e+000	 4.8236882208e-001
 2.1617578000e+000	 8.5582019972e-001	 8.0501139420e-001
 2.1531446689e+000	 8.7726451831e-001	 6.7466387282e-001
 2.1443008558e+000	 8.9866503199e-001	 5.5709679492e-001
 2.1352263552e+000	 9.2001815870e-001	 4.5457101221e-001
 2.1259212327e+000	 9.4132030288e-001	 3.6944215565e-001
 2.1163856266e+000	 9.6256785724e-001	 3.0415745090e-001
 2.1066197480e+000	 9.8375720450e-001	 2.6125226197e-001
 2.0966238817e+000	 1.0048847192e+000	 2.4334636607e-001
 2.0863983863e+000	 1.0259467695e+000	 2.5313996390e-001
 2.0759436950e+000	 1.0469397191e+000	 2.9340943041e-001
 2.0652603159e+000	 1.0678599288e+000	 3.6700281164e-001
 2.1850025075e+000	 8.6502256746e-001	 7.4877378473e-001
 2.1762967621e+000	 8.8669747012e-001	 6.2160934867e-001
 2.1673578543e+000	 9.0832809685e-001	 5.0524031343e-001
 2.1581857783e+000	 9.2991082707e-001	 4.0205505150e-001
 2.1487806008e+000	 9.5144202657e-001	 3.1454207455e-001
 2.1391424613e+000	 9.7291804925e-001	 2.4528671253e-001
 2.1292715733e+000	 9.9433523896e-001	 1.9696750858e-001
 2.1191682245e+000	 1.0156899312e+000	 1.7235233334e-001
 2.1088327775e+000	 1.0369784552e+000	 1.7429422275e-001
 2.0982656702e+000	 1.0581971354e+000	 2.0572694455e-001
 2.0874674161e+000	 1.0793422937e+000	 2.6966029950e-001
 2.2082472150e+000	 8.7422493520e-001	 7.0660237908e-001
 2.1994488553e+000	 8.9613042193e-001	 5.8306370747e-001
 2.1904148527e+000	 9.1799116171e-001	 4.6828712056e-001
 2.1811452015e+000	 9.3980349544e-001	 3.6479050686e-001
 2.1716399689e+000	 9.6156375025e-001	 2.7519736058e-001
 2.1618992960e+000	 9.8326824127e-001	 2.0223332191e-001
 2.1519233985e+000	 1.0049132734e+000	 1.4872242076e-001
 2.1417125673e+000	 1.0264951433e+000	 1.1758302763e-001
 2.1312671688e+000	 1.0480101409e+000	 1.1182351585e-001
 2.1205876454e+000	 1.0694545517e+000	 1.3453764065e-001
 2.1096745162e+000	 1.0908246585e+000	 1.8889964120e-001
 2.2314919226e+000	 8.8342730294e-001	 6.7791307451e-001
 2.2226009485e+000	 9.0556337374e-001	 5.5836629741e-001
 2.2134718512e+000	 9.2765422657e-001	 4.4549853924e-001
 2.2041046247e+000	 9.4969616382e-001	 3.4195925260e-001
 2.1944993369e+000	 9.7168547394e-001	 2.5050907080e-001
 2.1846561306e+000	 9.9361843328e-001	 1.7401620697e-001
 2.1745752237e+000	 1.0154913079e+000	 1.1545254405e-001
 2.1642569101e+000	 1.0373003553e+000	 7.7889419304e-002
 2.1537015600e+000	 1.0590418266e+000	 6.4493107958e-002
 2.1429096206e+000	 1.0807119681e+000	 7.8520011441e-002
 2.1318816164e+000	 1.1023070233e+000	 1.2331155671e-001
 2.2547366301e+000	 8.9262967068e-001	 6.6213364320e-001
 2.2457530417e+000	 9.1499632555e-001	 5.4687014245e-001
 2.2365288496e+000	 9.3731729143e-001	 4.3615138911e-001
 2.2270640479e+000	 9.5958883219e-001	 3.3276049996e-001
 2.2173587050e+000	 9.8180719763e-001	 2.3959745801e-001
 2.2074129653e+000	 1.0039686253e+000	 1.5967536805e-001
 2.1972270490e+000	 1.0260693423e+000	 9.6116390134e-002
 2.1868012529e+000	 1.0481055673e+000	 5.2147354948e-002
 2.1761359513e+000	 1.0700735123e+000	 3.1095065594e-002
 2.1652315958e+000	 1.0919693844e+000	 3.6381291657e-002
 2.1540887166e+000	 1.1137893881e+000	 7.1517462166e-002
 2.2779813376e+000	 9.0183203843e-001	 6.5870312634e-001
 2.2689051349e+000	 9.2442927736e-001	 5.4794124461e-001
 2.2595858481e+000	 9.4698035630e-001	 4.3953719588e-001
 2.2500234710e+000	 9.6948150057e-001	 3.3640991257e-001
 2.2402180731e+000	 9.9192892132e-001	 2.4160099140e-001
 2.2301698000e+000	 1.0143188173e+000	 1.5827080276e-001
 2.2198788742e+000	 1.0366473768e+000	 8.9694265118e-002
 2.2093455957e+000	 1.0589107794e+000	 3.9256288163e-002
 2.1985703425e+000	 1.0811051980e+000	 1.0446889619e-002
 2.1875535710e+000	 1.1032268007e+000	 6.8559916455e-003
 2.1762958168e+000	 1.1252717530e+000	 3.2167903748e-002
 2.3012260451e+000	 9.1103440617e-001	 6.6707126501e-001
 2.2920572281e+000	 9.3386222918e-001	 5.6095792851e-001
 2.2826428465e+000	 9.5664342116e-001	 4.5496144856e-001
 2.2729828942e+000	 9.7937416894e-001	 3.5213877555e-001
 2.2630774412e+000	 1.0020506450e+000	 2.5567543651e-001
 2.2529266347e+000	 1.0246690093e+000	 1.6888149606e-001
 2.2425306995e+000	 1.0472254113e+000	 9.5187168792e-002
 2.2318899385e+000	 1.0697159914e+000	 3.8138087287e-002
 2.2210047338e+000	 1.0921368837e+000	 1.3902306608e-003
 2.2098755463e+000	 1.1144842171e+000	-1.1295480204e-002
 2.1985029169e+000	 1.1367541178e+000	 3.9410864541e-003
 2.3244707527e+000	 9.2023677391e-001	 6.8669796515e-001
 2.3152093213e+000	 9.4329518099e-001	 5.8531022519e-001
 2.3056998450e+000	 9.6630648602e-001	 4.8174290136e-001
 2.2959423174e+000	 9.8926683732e-001	 3.7919321440e-001
 2.2859368093e+000	 1.0121723687e+000	 2.8099299045e-001
 2.2756834694e+000	 1.0350192013e+000	 1.9060447087e-001
 2.2651825247e+000	 1.0578034457e+000	 1.1161575995e-001
 2.2544342814e+000	 1.0805212035e+000	 4.7735914661e-002
 2.2434391250e+000	 1.1031685694e+000	 2.7896816248e-003
 2.2321975215e+000	 1.1257416334e+000	-1.9288112361e-002
 2.2207100171e+000	 1.1482364826e+000	-1.4458508835e-002
 1.9986390154e+000	 1.0334128344e+000	 7.7311052606e-001
 1.9880795152e+000	 1.0535842829e+000	 5.6157840338e-001
 1.9772999064e+000	 1.0736782945e+000	 3.5876362779e-001
 1.9663009000e+000	 1.0936913507e+000	 1.6789237515e-001
 1.9550832805e+000	 1.1136199380e+000	-7.7330673547e-003
 1.9436479059e+000	 1.1334605497e+000	-1.6473964196e-001
 1.9319957082e+000	 1.1532096875e+000	-2.9968908443e-001
 1.9201276929e+000	 1.1728638638e+000	-4.0908370141e-001
 1.9080449390e+000	 1.1924196034e+000	-4.8937234962e-001
 1.8957485995e+000	 1.2118734454e+000	-5.3695660516e-001
 1.8832399002e+000	 1.2312219451e+000	-5.4819711022e-001
 2.0208461156e+000	 1.0448951992e+000	 6.1723411799e-001
 2.0101692876e+000	 1.0652907750e+000	 4.2150492176e-001
 1.9992699054e+000	 1.0856080533e+000	 2.3870814159e-001
 1.9881486878e+000	 1.1058434768e+000	 7.2119016008e-002
 1.9768064280e+000	 1.1259934929e+000	-7.4912978469e-002
 1.9652439938e+000	 1.1460545558e+000	-1.9896962700e-001
 1.9534623272e+000	 1.1660231285e+000	-2.9656970110e-001
 1.9414624450e+000	 1.1858956845e+000	-3.6417489741e-001
 1.9292454384e+000	 1.2056687101e+000	-3.9819597918e-001
 1.9168124728e+000	 1.2253387059e+000	-3.9499910790e-001
 1.9041647880e+000	 1.2449021889e+000	-3.5091235232e-001
 2.0430532157e+000	 1.0563775640e+000	 4.8236882208e-001
 2.0322590600e+000	 1.0769972670e+000	 2.9796742094e-001
 2.0212399043e+000	 1.0975378121e+000	 1.3058420614e-001
 2.0099964756e+000	 1.1179956029e+000	-1.6451999301e-002
 1.9985295756e+000	 1.1383670478e+000	-1.3973985974e-001
 1.9868400816e+000	 1.1586485619e+000	-2.3581119095e-001
 1.9749289462e+000	 1.1788365695e+000	-3.0113685086e-001
 1.9627971972e+000	 1.1989275052e+000	-3.3213284577e-001
 1.9504459377e+000	 1.2189178168e+000	-3.2516664010e-001
 1.9378763461e+000	 1.2388039664e+000	-2.7656365688e-001
 1.9250896758e+000	 1.2585824328e+000	-2.8211462690e-001
 2.0652603159e+000	 1.0678599288e+000	 3.6700281164e-001
 2.0543488324e+000	 1.0887037590e+000	 1.8951415520e-001
 2.0432099033e+000	 1.1094675710e+000	 3.3002739106e-002
 2.0318442634e+000	 1.1301477291e+000	-9.9144492406e-002
 2.0202527232e+000	 1.1507406026e+000	-2.0346966108e-001
 2.0084361695e+000	 1.1712425680e+000	-2.7644978840e-001
 1.9963955652e+000	 1.1916500104e+000	-3.1450285808e-001
 1.9841319493e+000	 1.2119593259e+000	-3.1399409557e-001
 1.9716464370e+000	 1.2321669235e+000	-2.7124245234e-001
 1.9589402195e+000	 1.2522692269e+000	-2.0448681349e-001
 1.9460145636e+000	 1.2722626766e+000	-2.8539986082e-001
 2.0874674161e+000	 1.0793422937e+000	 2.6966029950e-001
 2.0764386048e+000	 1.1004102511e+000	 9.4725116921e-002
 2.0651799023e+000	 1.1213973298e+000	-5.5398039238e-002
 2.0536920511e+000	 1.1422998552e+000	-1.7725955050e-001
 2.0419758707e+000	 1.1631141575e+000	-2.6734029722e-001
 2.0300322573e+000	 1.1838365741e+000	-3.2205766746e-001
 2.0178621842e+000	 1.2044634514e+000	-3.3777179696e-001
 2.0054667014e+000	 1.2249911467e+000	-3.1079202790e-001
 1.9928469363e+000	 1.2454160302e+000	-2.3738357397e-001
 1.9800040928e+000	 1.2657344874e+000	-2.5419933720e-001
 1.9669394514e+000	 1.2859429204e+000	-2.9770544965e-001
 2.1096745162e+000	 1.0908246585e+000	 1.8889964120e-001
 2.0985283772e+000	 1.1121167431e+000	 1.2210366173e-002
 2.0871499012e+000	 1.1333270886e+000	-1.3595404301e-001
 2.0755398389e+000	 1.1544519813e+000	-2.5207672290e-001
 2.0636990183e+000	 1.1754877124e+000	-3.3257259689e-001
 2.0516283452e+000	 1.1964305802e+000	-3.7379456476e-001
 2.0393288031e+000	 1.2172768924e+000	-3.7203992571e-001
 2.0268014536e+000	 1.2380229674e+000	-3.2355702258e-001
 2.0140474357e+000	 1.2586651369e+000	-2.8617458648e-001
 2.0010679661e+000	 1.2791997479e+000	-3.0910031735e-001
 1.9878643392e+000	 1.2996231643e+000	-3.1879853223e-001
 2.1318816164e+000	 1.1023070233e+000	 1.2331155671e-001
 2.1206181496e+000	 1.1238232351e+000	-5.9391535316e-002
 2.1091199002e+000	 1.1452568475e+000	-2.0997666786e-001
 2.0973876267e+000	 1.1666041074e+000	-3.2485514277e-001
 2.0854221659e+000	 1.1878612672e+000	-4.0037119276e-001
 2.0732244330e+000	 1.2090245863e+000	-4.3280835711e-001
 2.0607954221e+000	 1.2300903333e+000	-4.1839609366e-001
 2.0481362057e+000	 1.2510547881e+000	-3.5901836604e-001
 2.0352479350e+000	 1.2719142436e+000	-3.7266157688e-001
 2.0221318395e+000	 1.2926650084e+000	-3.6908773887e-001
 2.0087892269e+000	 1.3133034081e+000	-3.4845775463e-001
 2.1540887166e+000	 1.1137893881e+000	 7.1517462166e-002
 2.1427079219e+000	 1.1355297272e+000	-1.2141499332e-001
 2.1310898991e+000	 1.1571866063e+000	-2.7875405485e-001
 2.1192354145e+000	 1.1787562335e+000	-3.9683457956e-001
 2.1071453134e+000	 1.2002348221e+000	-4.7192535626e-001
 2.0948205209e+000	 1.2216185925e+000	-5.0023567284e-001
 2.0822620411e+000	 1.2429037743e+000	-4.7792212319e-001
 2.0694709579e+000	 1.2640866088e+000	-4.6651698678e-001
 2.0564484343e+000	 1.2851633503e+000	-4.6083739787e-001
 2.0431957128e+000	 1.3061302689e+000	-4.3406586073e-001
 2.0297141147e+000	 1.3269836519e+000	-3.8647267703e-001
 2.1762958168e+000	 1.1252717530e+000	 3.2167903748e-002
 2.1647976943e+000	 1.1472362192e+000	-1.7516876031e-001
 2.1530598981e+000	 1.1691163651e+000	-3.4355227689e-001
 2.1410832022e+000	 1.1909083597e+000	-4.6923642691e-001
 2.1288684610e+000	 1.2126083770e+000	-5.4840978130e-001
 2.1164166087e+000	 1.2342125986e+000	-5.7720246572e-001
 2.1037286601e+000	 1.2557172153e+000	-5.6921188842e-001
 2.0908057100e+000	 1.2771184295e+000	-5.7258982792e-001
 2.0776489336e+000	 1.2984124570e+000	-5.5072011209e-001
 2.0642595861e+000	 1.3195955294e+000	-5.0394489576e-001
 2.0506390025e+000	 1.3406638958e+000	-4.3264321684e-001
 2.1985029169e+000	 1.1367541178e+000	 3.9410864541e-003
 2.1868874667e+000	 1.1589427112e+000	-2.2193723109e-001
 2.1750298971e+000	 1.1810461240e+000	-4.0561645326e-001
 2.1629309900e+000	 1.2030604858e+000	-5.4326463071e-001
 2.1505916085e+000	 1.2249819318e+000	-6.3098532056e-001
 2.1380126965e+000	 1.2468066047e+000	-6.6482455402e-001
 2.1251952790e+000	 1.2685306563e+000	-6.8328074421e-001
 2.1121404622e+000	 1.2901502502e+000	-6.7735787584e-001
 2.0988494330e+000	 1.3116615637e+000	-6.4232934636e-001
 2.0853234594e+000	 1.3330607899e+000	-5.7864071002e-001
 2.0715638903e+000	 1.3543441396e+000	-4.8677912565e-001
 2.2207100171e+000	 1.1482364826e+000	-1.4458508835e-002
 2.2089772391e+000	 1.1706492033e+000	-2.6298166069e-001
 2.1969998960e+000	 1.1929758828e+000	-4.6617179736e-001
 2.1847787778e+000	 1.2152126119e+000	-6.2010656155e-001
 2.1723147561e+000	 1.2373554867e+000	-7.2079967750e-001
 2.1596087844e+000	 1.2594006108e+000	-7.7222630189e-001
 2.1466618980e+000	 1.2813440973e+000	-7.9328690910e-001
 2.1334752143e+000	 1.3031820709e+000	-7.8093980716e-001
 2.1200499323e+000	 1.3249106704e+000	-7.3568621344e-001
 2.1063873328e+000	 1.3465260504e+000	-6.5807454007e-001
 2.0924887780e+000	 1.3680243835e+000	-5.4869949749e-001
 1.8832399002e+000	 1.2312219451e+000	-5.4819711022e-001
 1.8705201405e+000	 1.2504616763e+000	-4.8460704842e-001
 1.8575906924e+000	 1.2695892326e+000	-5.1078335301e-001
 1.8444530004e+000	 1.2886012298e+000	-5.5850133407e-001
 1.8311085811e+000	 1.3074943075e+000	-6.2672890201e-001
 1.8175590227e+000	 1.3262651314e+000	-7.1437807167e-001
 1.8038059846e+000	 1.3449103948e+000	-8.2030723798e-001
 1.7898511964e+000	 1.3634268205e+000	-9.4332358969e-001
 1.7756964577e+000	 1.3818111630e+000	-1.0821856556e+000
 1.7613436372e+000	 1.4000602100e+000	-1.2356059779e+000
 1.7467946721e+000	 1.4181707844e+000	-1.4022539063e+000
 1.9041647880e+000	 1.2449021889e+000	-3.5091235232e-001
 1.8913036977e+000	 1.2643556949e+000	-5.3631818571e-001
 1.8782305890e+000	 1.2836957796e+000	-7.7531363747e-001
 1.8649469226e+000	 1.3029190212e+000	-8.3463529363e-001
 1.8514542320e+000	 1.3220220220e+000	-8.5780378168e-001
 1.8377541230e+000	 1.3410014107e+000	-9.0298949008e-001
 1.8238482733e+000	 1.3598538436e+000	-9.6900964068e-001
 1.8097384319e+000	 1.3785760074e+000	-1.0546267538e+000
 1.7954264183e+000	 1.3971646204e+000	-1.1585512802e+000
 1.7809141221e+000	 1.4156164346e+000	-1.2794443660e+000
 1.7662035017e+000	 1.4339282376e+000	-1.4159207457e+000
 1.9250896758e+000	 1.2585824328e+000	-2.8211462690e-001
 1.9120872548e+000	 1.2782497135e+000	-5.0810081384e-001
 1.8988704856e+000	 1.2978023266e+000	-7.2580812664e-001
 1.8854408449e+000	 1.3172368126e+000	-9.3560527022e-001
 1.8717998829e+000	 1.3365497366e+000	-1.0886039962e+000
 1.8579492232e+000	 1.3557376899e+000	-1.0917961409e+000
 1.8438905620e+000	 1.3747972925e+000	-1.1183898432e+000
 1.8296256674e+000	 1.3937251943e+000	-1.1671009891e+000
 1.8151563790e+000	 1.4125180778e+000	-1.2365899416e+000
 1.8004846069e+000	 1.4311726591e+000	-1.3254644014e+000
 1.7856123314e+000	 1.4496856907e+000	-1.4322824011e+000
 1.9460145636e+000	 1.2722626766e+000	-2.8539986082e-001
 1.9328708119e+000	 1.2921437321e+000	-4.8947767219e-001
 1.9195103822e+000	 1.3119088736e+000	-6.8619041804e-001
 1.9059347671e+000	 1.3315546041e+000	-8.7594302608e-001
 1.8921455338e+000	 1.3510774511e+000	-1.0591584443e+000
 1.8781443235e+000	 1.3704739692e+000	-1.2362766516e+000
 1.8639328507e+000	 1.3897407413e+000	-1.2675151671e+000
 1.8495129029e+000	 1.4088743812e+000	-1.2798263996e+000
 1.8348863396e+000	 1.4278715351e+000	-1.3153959871e+000
 1.8200550918e+000	 1.4467288837e+000	-1.3727761110e+000
 1.8050211611e+000	 1.4654431439e+000	-1.4504659899e+000
 1.9669394514e+000	 1.2859429204e+000	-2.9770544965e-001
 1.9536543690e+000	 1.3060377508e+000	-4.8018635098e-001
 1.9401502787e+000	 1.3260154207e+000	-6.5618137006e-001
 1.9264286893e+000	 1.3458723955e+000	-8.2613206838e-001
 1.9124911847e+000	 1.3656051656e+000	-9.9049763885e-001
 1.8983394238e+000	 1.3852102484e+000	-1.1497538563e+000
 1.8839751394e+000	 1.4046841901e+000	-1.3043919830e+000
 1.8694001384e+000	 1.4240235681e+000	-1.3918983659e+000
 1.8546163002e+000	 1.4432249925e+000	-1.3940792403e+000
 1.8396255767e+000	 1.4622851082e+000	-1.4205051595e+000
 1.8244299908e+000	 1.4812005971e+000	-1.4696143903e+000
 1.9878643392e+000	 1.2996231643e+000	-3.1879853223e-001
 1.9744379261e+000	 1.3199317694e+000	-4.7997701917e-001
 1.9607901753e+000	 1.3401219677e+000	-6.3551482417e-001
 1.9469226115e+000	 1.3601901869e+000	-7.8589057003e-001
 1.9328368356e+000	 1.3801328802e+000	-9.3160015408e-001
 1.9185345240e+000	 1.3999465276e+000	-1.0731556377e+000
 1.9040174282e+000	 1.4196276390e+000	-1.2110840907e+000
 1.8892873739e+000	 1.4391727550e+000	-1.3459263936e+000
 1.8743462609e+000	 1.4585784499e+000	-1.4717641864e+000
 1.8591960615e+000	 1.4778413328e+000	-1.4677920261e+000
 1.8438388205e+000	 1.4969580502e+000	-1.4888854117e+000
 2.0087892269e+000	 1.3133034081e+000	-3.4845775463e-001
 1.9952214832e+000	 1.3338257880e+000	-4.8861176935e-001
 1.9814300719e+000	 1.3542285147e+000	-6.2393692870e-001
 1.9674165338e+000	 1.3745079784e+000	-7.5494936077e-001
 1.9531824865e+000	 1.3946605947e+000	-8.8218214285e-001
 1.9387296243e+000	 1.4146828069e+000	-1.0061841293e+000
 1.9240597169e+000	 1.4345710878e+000	-1.1275187340e+000
 1.9091746095e+000	 1.4543219419e+000	-1.2467626697e+000
 1.8940762215e+000	 1.4739319072e+000	-1.3645046484e+000
 1.8787665464e+000	 1.4933975573e+000	-1.4813440447e+000
 1.8632476502e+000	 1.5127155034e+000	-1.5074510172e+000
 2.0297141147e+000	 1.3269836519e+000	-3.8647267703e-001
 2.0160050404e+000	 1.3477198066e+000	-5.0586400307e-001
 2.0020699685e+000	 1.3683350618e+000	-6.2120550455e-001
 1.9879104560e+000	 1.3888257698e+000	-7.3305127476e-001
 1.9735281374e+000	 1.4091883092e+000	-8.4197206244e-001
 1.9589247245e+000	 1.4294190861e+000	-9.4855403699e-001
 1.9441020056e+000	 1.4495145366e+000	-1.0533975079e+000
 1.9290618450e+000	 1.4694711288e+000	-1.1571156011e+000
 1.9138061822e+000	 1.4892853646e+000	-1.2603328956e+000
 1.8983370312e+000	 1.5089537819e+000	-1.3636840230e+000
 1.8826564799e+000	 1.5284729565e+000	-1.4678122347e+000
 2.0506390025e+000	 1.3406638958e+000	-4.3264321684e-001
 2.0367885975e+000	 1.3616138253e+000	-5.3151785388e-001
 2.0227098651e+000	 1.3824416088e+000	-6.2708944953e-001
 2.0084043782e+000	 1.4031435613e+000	-7.1995053813e-001
 1.9938737883e+000	 1.4237160237e+000	-8.1071004682e-001
 1.9791198248e+000	 1.4441553653e+000	-8.9999199750e-001
 1.9641442943e+000	 1.4644579854e+000	-9.8843416227e-001
 1.9489490805e+000	 1.4846203157e+000	-1.0766866756e+000
 1.9335361428e+000	 1.5046388219e+000	-1.1654106064e+000
 1.9179075161e+000	 1.5245100065e+000	-1.2552764933e+000
 1.9020653096e+000	 1.5442304097e+000	-1.3469628465e+000
 2.0715638903e+000	 1.3543441396e+000	-4.8677912565e-001
 2.0575721546e+000	 1.3755078439e+000	-5.6536764531e-001
 2.0433497617e+000	 1.3965481558e+000	-6.4136817905e-001
 2.0288983004e+000	 1.4174613527e+000	-7.1541219357e-001
 2.0142194392e+000	 1.4382437383e+000	-7.8814731689e-001
 1.9993149250e+000	 1.4588916446e+000	-8.6023597598e-001
 1.9841865830e+000	 1.4794014343e+000	-9.3235398746e-001
 1.9688363160e+000	 1.4997695026e+000	-1.0051891046e+000
 1.9532661034e+000	 1.5199922793e+000	-1.0794395236e+000
 1.9374780009e+000	 1.5400662310e+000	-1.1558123535e+000
 1.9214741392e+000	 1.5599878628e+000	-1.2350220527e+000
 2.0924887780e+000	 1.3680243835e+000	-5.4869949749e-001
 2.0783557117e+000	 1.3894018625e+000	-6.0721738134e-001
 2.0639896582e+000	 1.4106547028e+000	-6.6383110012e-001
 2.0493922227e+000	 1.4317791441e+000	-7.1921155958e-001
 2.0345650901e+000	 1.4527714528e+000	-7.7404562617e-001
 2.0195100253e+000	 1.4736279238e+000	-8.2903469954e-001
 2.0042288717e+000	 1.4943448831e+000	-8.8489323754e-001
 1.9887235515e+000	 1.5149186895e+000	-9.4234723684e-001
 1.9729960641e+000	 1.5353457367e+000	-1.0021326729e+000
 1.9570484858e+000	 1.5556224556e+000	-1.0649939031e+000
 1.9408829689e+000	 1.5757453160e+000	-1.1316820359e+000
 1.7467946721e+000	 1.4181707844e+000	-1.4022539063e+000
 1.7320515667e+000	 1.4361397461e+000	-1.3551004773e+000
 1.7171163925e+000	 1.4539639937e+000	-1.3251261784e+000
 1.7019912862e+000	 1.4716404663e+000	-1.3114206767e+000
 1.6866784494e+000	 1.4891661453e+000	-1.3130378405e+000
 1.6711801475e+000	 1.5065380562e+000	-1.3289984743e+000
 1.6554987083e+000	 1.5237532697e+000	-1.3582931345e+000
 1.6396365210e+000	 1.5408089042e+000	-1.3998850209e+000
 1.6235960349e+000	 1.5577021267e+000	-1.4527129333e+000
 1.6073797585e+000	 1.5744301547e+000	-1.5156942880e+000
 1.5909902577e+000	 1.5909902577e+000	-1.5877281836e+000
 1.7662035017e+000	 1.4339282376e+000	-1.4159207457e+000
 1.7512965841e+000	 1.4520968544e+000	-1.3574616692e+000
 1.7361954635e+000	 1.4701191492e+000	-1.3185556807e+000
 1.7209023004e+000	 1.4879920270e+000	-1.2981977166e+000
 1.7054193211e+000	 1.5057124358e+000	-1.2953439209e+000
 1.6897488158e+000	 1.5232773679e+000	-1.3089145382e+000
 1.6738931384e+000	 1.5406838616e+000	-1.3377968941e+000
 1.6578547045e+000	 1.5579290031e+000	-1.3808484546e+000
 1.6416359909e+000	 1.5750099281e+000	-1.4368999564e+000
 1.6252395336e+000	 1.5919238231e+000	-1.5047586002e+000
 1.6086679272e+000	 1.6086679272e+000	-1.5832112981e+000
 1.7856123314e+000	 1.4496856907e+000	-1.4322824011e+000
 1.7705416015e+000	 1.4680539627e+000	-1.3618895187e+000
 1.7552745345e+000	 1.4862743046e+000	-1.3134204504e+000
 1.7398133147e+000	 1.5043435878e+000	-1.2857737708e+000
 1.7241601927e+000	 1.5222587263e+000	-1.2778062483e+000
 1.7083174841e+000	 1.5400166796e+000	-1.2883358993e+000
 1.6922875685e+000	 1.5576144535e+000	-1.3161451357e+000
 1.6760728881e+000	 1.5750491021e+000	-1.3599839960e+000
 1.6596759468e+000	 1.5923177295e+000	-1.4185734523e+000
 1.6430993087e+000	 1.6094174915e+000	-1.4906087841e+000
 1.6263455968e+000	 1.6263455968e+000	-1.5747630097e+000
 1.8050211611e+000	 1.4654431439e+000	-1.4504659899e+000
 1.7897866190e+000	 1.4840110710e+000	-1.3675665143e+000
 1.7743536055e+000	 1.5024294601e+000	-1.3089598170e+000
 1.7587243290e+000	 1.5206951485e+000	-1.2734464339e+000
 1.7429010644e+000	 1.5388050168e+000	-1.2597820585e+000
 1.7268861525e+000	 1.5567559914e+000	-1.2666807616e+000
 1.7106819986e+000	 1.5745450454e+000	-1.2928183084e+000
 1.6942910717e+000	 1.5921692010e+000	-1.3368355653e+000
 1.6777159028e+000	 1.6096255309e+000	-1.3973419861e+000
 1.6609590838e+000	 1.6269111599e+000	-1.4729191702e+000
 1.6440232663e+000	 1.6440232663e+000	-1.5621244816e+000
 1.8244299908e+000	 1.4812005971e+000	-1.4696143903e+000
 1.8090316364e+000	 1.4999681792e+000	-1.3736894189e+000
 1.7934326766e+000	 1.5185846156e+000	-1.3044258553e+000
 1.7776353433e+000	 1.5370467092e+000	-1.2605244730e+000
 1.7616419361e+000	 1.5553513073e+000	-1.2406381450e+000
 1.7454548208e+000	 1.5734953031e+000	-1.2433752303e+000
 1.7290764287e+000	 1.5914756372e+000	-1.2673030654e+000
 1.7125092552e+000	 1.6092892999e+000	-1.3109515492e+000
 1.6957558587e+000	 1.6269333323e+000	-1.3728168127e+000
 1.6788188589e+000	 1.6444048283e+000	-1.4513649639e+000
 1.6617009358e+000	 1.6617009358e+000	-1.5450358989e+000
 1.8438388205e+000	 1.4969580502e+000	-1.4888854117e+000
 1.8282766538e+000	 1.5159252875e+000	-1.3794685195e+000
 1.8125117476e+000	 1.5347397711e+000	-1.2990827147e+000
 1.7965463576e+000	 1.5533982700e+000	-1.2463272404e+000
 1.7803828077e+000	 1.5718975978e+000	-1.2197503561e+000
 1.7640234891e+000	 1.5902346148e+000	-1.2178528959e+000
 1.7474708588e+000	 1.6084062291e+000	-1.2390919369e+000
 1.7307274388e+000	 1.6264093989e+000	-1.2818845657e+000
 1.7137958146e+000	 1.6442411337e+000	-1.3446117349e+000
 1.6966786340e+000	 1.6618984966e+000	-1.4256221991e+000
 1.6793786053e+000	 1.6793786053e+000	-1.5232365200e+000
 1.8632476502e+000	 1.5127155034e+000	-1.5074510172e+000
 1.8475216712e+000	 1.5318823958e+000	-1.3841269222e+000
 1.8315908186e+000	 1.5508949266e+000	-1.2922059904e+000
 1.8154573719e+000	 1.5697498307e+000	-1.2301841215e+000
 1.7991236794e+000	 1.5884438884e+000	-1.1965031231e+000
 1.7825921574e+000	 1.6069739266e+000	-1.1895544444e+000
 1.7658652889e+000	 1.6253368210e+000	-1.2076830243e+000
 1.7489456224e+000	 1.6435294978e+000	-1.2491912435e+000
 1.7318357706e+000	 1.6615489351e+000	-1.3123429710e+000
 1.7145384091e+000	 1.6793921650e+000	-1.3953676948e+000
 1.6970562749e+000	 1.6970562749e+000	-1.4964647250e+000
 1.8826564799e+000	 1.5284729565e+000	-1.4678122347e+000
 1.8667666886e+000	 1.5478395041e+000	-1.3868998914e+000
 1.8506698896e+000	 1.5670500821e+000	-1.2830821331e+000
 1.8343683862e+000	 1.5861013914e+000	-1.2114340178e+000
 1.8178645510e+000	 1.6049901789e+000	-1.1702890181e+000
 1.8011608257e+000	 1.6237132383e+000	-1.1579272917e+000
 1.7842597190e+000	 1.6422674129e+000	-1.1725797132e+000
 1.7671638059e+000	 1.6606495967e+000	-1.2124320155e+000
 1.7498757265e+000	 1.6788567365e+000	-1.2756290300e+000
 1.7323981842e+000	 1.6968858334e+000	-1.3602790149e+000
 1.7147339444e+000	 1.7147339444e+000	-1.4644580607e+000
 1.9020653096e+000	 1.5442304097e+000	-1.3469628465e+000
 1.8860117060e+000	 1.5637966124e+000	-1.3179754731e+000
 1.8697489607e+000	 1.5832052375e+000	-1.2710078954e+000
 1.8532794005e+000	 1.6024529522e+000	-1.1894248619e+000
 1.8366054227e+000	 1.6215364694e+000	-1.1405083387e+000
 1.8197294940e+000	 1.6404525500e+000	-1.1224252399e+000
 1.8026541490e+000	 1.6591980048e+000	-1.1332904033e+000
 1.7853819895e+000	 1.6777696957e+000	-1.1711709247e+000
 1.7679156825e+000	 1.6961645380e+000	-1.2340905950e+000
 1.7502579593e+000	 1.7143795018e+000	-1.3200344304e+000
 1.7324116139e+000	 1.7324116139e+000	-1.4269532836e+000
 1.9214741392e+000	 1.5599878628e+000	-1.2350220527e+000
 1.9052567234e+000	 1.5797537207e+000	-1.2029781774e+000
 1.8888280317e+000	 1.5993603930e+000	-1.1830592944e+000
 1.8721904147e+000	 1.6188045129e+000	-1.1635131608e+000
 1.8553462943e+000	 1.6380827599e+000	-1.1065687175e+000
 1.8382981623e+000	 1.6571918618e+000	-1.0825081549e+000
 1.8210485791e+000	 1.6761285967e+000	-1.0893282557e+000
 1.8036001731e+000	 1.6948897946e+000	-1.1249754418e+000
 1.7859556384e+000	 1.7134723394e+000	-1.1873504132e+000
 1.7681177343e+000	 1.7318731702e+000	-1.2743128832e+000
 1.7500892834e+000	 1.7500892834e+000	-1.3836863994e+000
 1.9408829689e+000	 1.5757453160e+000	-1.1316820359e+000
 1.9245017408e+000	 1.5957108290e+000	-1.0956228292e+000
 1.9079071027e+000	 1.6155155485e+000	-1.0728586678e+000
 1.8911014290e+000	 1.6351560736e+000	-1.0643944437e+000
 1.8740871660e+000	 1.6546290504e+000	-1.0678847555e+000
 1.8568668306e+000	 1.6739311735e+000	-1.0376416636e+000
 1.8394430092e+000	 1.6930591885e+000	-1.0402109546e+000
 1.8218183566e+000	 1.7120098935e+000	-1.0734162939e+000
 1.8039955943e+000	 1.7307801408e+000	-1.1350331927e+000
 1.7859775094e+000	 1.7493668386e+000	-1.2227939529e+000
 1.7677669530e+000	 1.7677669530e+000	-1.3343927006e+000
 1.5909902577e+000	 1.5909902577e+000	-1.5877281836e+000
 1.5744301547e+000	 1.6073797585e+000	-1.6412741586e+000
 1.5577021267e+000	 1.6235960349e+000	-1.6851058495e+000
 1.5408089042e+000	 1.6396365210e+000	-1.7178816175e+000
 1.5237532697e+000	 1.6554987083e+000	-1.7382699565e+000
 1.5065380562e+000	 1.6711801475e+000	-1.7449528769e+000
 1.4891661453e+000	 1.6866784494e+000	-1.7366292677e+000
 1.4716404663e+000	 1.7019912862e+000	-1.7120182253e+000
 1.4539639937e+000	 1.7171163925e+000	-1.6698623429e+000
 1.4361397461e+000	 1.7320515667e+000	-1.6089309506e+000
 1.4181707844e+000	 1.7467946721e+000	-1.5280232969e+000
 1.6086679272e+000	 1.6086679272e+000	-1.5832112981e+000
 1.5919238231e+000	 1.6252395336e+000	-1.6364641428e+000
 1.5750099281e+000	 1.6416359909e+000	-1.6810467091e+000
 1.5579290031e+000	 1.6578547045e+000	-1.7154978077e+000
 1.5406838616e+000	 1.6738931384e+000	-1.7383655401e+000
 1.5232773679e+000	 1.6897488158e+000	-1.7482108790e+000
 1.5057124358e+000	 1.7054193211e+000	-1.7436112255e+000
 1.4879920270e+000	 1.7209023004e+000	-1.7231639360e+000
 1.4701191492e+000	 1.7361954635e+000	-1.6854898075e+000
 1.4520968544e+000	 1.7512965841e+000	-1.6292365133e+000
 1.4339282376e+000	 1.7662035017e+000	-1.5530819794e+000
 1.6263455968e+000	 1.6263455968e+000	-1.5747630097e+000
 1.6094174915e+000	 1.6430993087e+000	-1.6269278567e+000
 1.5923177295e+000	 1.6596759468e+000	-1.6714521438e+000
 1.5750491021e+000	 1.6760728881e+000	-1.7067534658e+000
 1.5576144535e+000	 1.6922875685e+000	-1.7312578752e+000
 1.5400166796e+000	 1.7083174841e+000	-1.7434036610e+000
 1.5222587263e+000	 1.7241601927e+000	-1.7416451073e+000
 1.5043435878e+000	 1.7398133147e+000	-1.7244562187e+000
 1.4862743046e+000	 1.7552745345e+000	-1.6903344063e+000
 1.4680539627e+000	 1.7705416015e+000	-1.6378041217e+000
 1.4496856907e+000	 1.7856123314e+000	-1.5654204317e+000
 1.6440232663e+000	 1.6440232663e+000	-1.5621244816e+000
 1.6269111599e+000	 1.6609590838e+000	-1.6124762181e+000
 1.6096255309e+000	 1.6777159028e+000	-1.6562035962e+000
 1.5921692010e+000	 1.6942910717e+000	-1.6916012725e+000
 1.5745450454e+000	 1.7106819986e+000	-1.7169715357e+000
 1.5567559914e+000	 1.7268861525e+000	-1.7306282891e+000
 1.5388050168e+000	 1.7429010644e+000	-1.7309010112e+000
 1.5206951485e+000	 1.7587243290e+000	-1.7161386855e+000
 1.5024294601e+000	 1.7743536055e+000	-1.6847136887e+000
 1.4840110710e+000	 1.7897866190e+000	-1.6350256277e+000
 1.4654431439e+000	 1.8050211611e+000	-1.5655051146e+000
 1.6617009358e+000	 1.6617009358e+000	-1.5450358989e+000
 1.6444048283e+000	 1.6788188589e+000	-1.5929171962e+000
 1.6269333323e+000	 1.6957558587e+000	-1.6351775619e+000
 1.6092892999e+000	 1.7125092552e+000	-1.6699869359e+000
 1.5914756372e+000	 1.7290764287e+000	-1.6955220728e+000
 1.5734953031e+000	 1.7454548208e+000	-1.7099707303e+000
 1.5553513073e+000	 1.7616419361e+000	-1.7115358367e+000
 1.5370467092e+000	 1.7776353433e+000	-1.6984396273e+000
 1.5185846156e+000	 1.7934326766e+000	-1.6689277392e+000
 1.4999681792e+000	 1.8090316364e+000	-1.6212732536e+000
 1.4812005971e+000	 1.8244299908e+000	-1.5537806752e+000
 1.6793786053e+000	 1.6793786053e+000	-1.5232365200e+000
 1.6618984966e+000	 1.6966786340e+000	-1.5680559668e+000
 1.6442411337e+000	 1.7137958146e+000	-1.6082458499e+000
 1.6264093989e+000	 1.7307274388e+000	-1.6418495591e+000
 1.6084062291e+000	 1.7474708588e+000	-1.6669164892e+000
 1.5902346148e+000	 1.7640234891e+000	-1.6815064369e+000
 1.5718975978e+000	 1.7803828077e+000	-1.6836939793e+000
 1.5533982700e+000	 1.7965463576e+000	-1.6715728207e+000
 1.5347397711e+000	 1.8125117476e+000	-1.6432600965e+000
 1.5159252875e+000	 1.8282766538e+000	-1.5969006250e+000
 1.4969580502e+000	 1.8438388205e+000	-1.5306710944e+000
 1.6970562749e+000	 1.6970562749e+000	-1.4964647250e+000
 1.6793921650e+000	 1.7145384091e+000	-1.5376950577e+000
 1.6615489351e+000	 1.7318357706e+000	-1.5752758265e+000
 1.6435294978e+000	 1.7489456224e+000	-1.6071219842e+000
 1.6253368210e+000	 1.7658652889e+000	-1.6311536846e+000
 1.6069739266e+000	 1.7825921574e+000	-1.6453008940e+000
 1.5884438884e+000	 1.7991236794e+000	-1.6475079822e+000
 1.5697498307e+000	 1.8154573719e+000	-1.6357382839e+000
 1.5508949266e+000	 1.8315908186e+000	-1.6079786155e+000
 1.5318823958e+000	 1.8475216712e+000	-1.5622437399e+000
 1.5127155034e+000	 1.8632476502e+000	-1.4965807637e+000
 1.7147339444e+000	 1.7147339444e+000	-1.4644580607e+000
 1.6968858334e+000	 1.7323981842e+000	-1.5016344851e+000
 1.6788567365e+000	 1.7498757265e+000	-1.5361306447e+000
 1.6606495967e+000	 1.7671638059e+000	-1.5657311144e+000
 1.6422674129e+000	 1.7842597190e+000	-1.5882248735e+000
 1.6237132383e+000	 1.8011608257e+000	-1.6014101335e+000
 1.6049901789e+000	 1.8178645510e+000	-1.6030991468e+000
 1.5861013914e+000	 1.8343683862e+000	-1.5911229855e+000
 1.5670500821e+000	 1.8506698896e+000	-1.5633362755e+000
 1.5478395041e+000	 1.8667666886e+000	-1.5176218766e+000
 1.5284729565e+000	 1.8826564799e+000	-1.4653357541e+000
 1.7324116139e+000	 1.7324116139e+000	-1.4269532836e+000
 1.7143795018e+000	 1.7502579593e+000	-1.4596718819e+000
 1.6961645380e+000	 1.7679156825e+000	-1.4906694586e+000
 1.6777696957e+000	 1.7853819895e+000	-1.5175982178e+000
 1.6591980048e+000	 1.8026541490e+000	-1.5381139772e+000
 1.6404525500e+000	 1.8197294940e+000	-1.5498812162e+000
 1.6215364694e+000	 1.8366054227e+000	-1.5505781064e+000
 1.6024529522e+000	 1.8532794005e+000	-1.5379015109e+000
 1.5832052375e+000	 1.8697489607e+000	-1.5095719393e+000
 1.5637966124e+000	 1.8860117060e+000	-1.4733874050e+000
 1.5442304097e+000	 1.9020653096e+000	-1.4371895025e+000
 1.7500892834e+000	 1.7500892834e+000	-1.3836863994e+000
 1.7318731702e+000	 1.7681177343e+000	-1.4116026180e+000
 1.7134723394e+000	 1.7859556384e+000	-1.4387476259e+000
 1.6948897946e+000	 1.8036001731e+000	-1.4626392116e+000
 1.6761285967e+000	 1.8210485791e+000	-1.4807979919e+000
 1.6571918618e+000	 1.8382981623e+000	-1.4907526850e+000
 1.6380827599e+000	 1.8553462943e+000	-1.4900453650e+000
 1.6188045129e+000	 1.8721904147e+000	-1.4762366870e+000
 1.5993603930e+000	 1.8888280317e+000	-1.4488835069e+000
 1.5797537207e+000	 1.9052567234e+000	-1.4195882093e+000
 1.5599878628e+000	 1.9214741392e+000	-1.3888025800e+000
 1.7677669530e+000	 1.7677669530e+000	-1.3343927006e+000
 1.7493668386e+000	 1.7859775094e+000	-1.3572199136e+000
 1.7307801408e+000	 1.8039955943e+000	-1.3802168975e+000
 1.7120098935e+000	 1.8218183566e+000	-1.4007649295e+000
 1.6930591885e+000	 1.8394430092e+000	-1.4162473355e+000
 1.6739311735e+000	 1.8568668306e+000	-1.4240549906e+000
 1.6546290504e+000	 1.8740871660e+000	-1.4215918039e+000
 1.6351560736e+000	 1.8911014290e+000	-1.3974062408e+000
 1.6155155485e+000	 1.9079071027e+000	-1.3724350927e+000
 1.5957108290e+000	 1.9245017408e+000	-1.3470253116e+000
 1.5757453160e+000	 1.9408829689e+000	-1.3206498048e+000
 1.4181707844e+000	 1.7467946721e+000	-1.5280232969e+000
 1.4000602100e+000	 1.7613436372e+000	-1.5332492392e+000
 1.3818111630e+000	 1.7756964577e+000	-1.5407144280e+000
 1.3634268205e+000	 1.7898511964e+000	-1.5488940519e+000
 1.3449103948e+000	 1.8038059846e+000	-1.5562836285e+000
 1.3262651314e+000	 1.8175590227e+000	-1.5614023430e+000
 1.3074943075e+000	 1.8311085811e+000	-1.5627963072e+000
 1.2886012298e+000	 1.8444530004e+000	-1.5590417316e+000
 1.2695892326e+000	 1.8575906924e+000	-1.5487480036e+000
 1.2504616763e+000	 1.8705201405e+000	-1.5305606632e+000
 1.2312219451e+000	 1.8832399002e+000	-1.4266493253e+000
 1.4339282376e+000	 1.7662035017e+000	-1.5530819794e+000
 1.4156164346e+000	 1.7809141221e+000	-1.5504427201e+000
 1.3971646204e+000	 1.7954264183e+000	-1.5463373507e+000
 1.3785760074e+000	 1.8097384319e+000	-1.5391970730e+000
 1.3598538436e+000	 1.8238482733e+000	-1.5274774242e+000
 1.3410014107e+000	 1.8377541230e+000	-1.5096617027e+000
 1.3220220220e+000	 1.8514542320e+000	-1.4842643096e+000
 1.3029190212e+000	 1.8649469226e+000	-1.4498339945e+000
 1.2836957796e+000	 1.8782305890e+000	-1.4374370204e+000
 1.2643556949e+000	 1.8913036977e+000	-1.5286149386e+000
 1.2449021889e+000	 1.9041647880e+000	-1.5850057739e+000
 1.4496856907e+000	 1.7856123314e+000	-1.5654204317e+000
 1.4311726591e+000	 1.8004846069e+000	-1.5562052219e+000
 1.4125180778e+000	 1.8151563790e+000	-1.5418645794e+000
 1.3937251943e+000	 1.8296256674e+000	-1.5207830059e+000
 1.3747972925e+000	 1.8438905620e+000	-1.4913733402e+000
 1.3557376899e+000	 1.8579492232e+000	-1.4520802767e+000
 1.3365497366e+000	 1.8717998829e+000	-1.4013837917e+000
 1.3172368126e+000	 1.8854408449e+000	-1.4291968935e+000
 1.2978023266e+000	 1.8988704856e+000	-1.4918718679e+000
 1.2782497135e+000	 1.9120872548e+000	-1.5639888727e+000
 1.2585824328e+000	 1.9250896758e+000	-1.6451814809e+000
 1.4654431439e+000	 1.8050211611e+000	-1.5655051146e+000
 1.4467288837e+000	 1.8200550918e+000	-1.5510038617e+000
 1.4278715351e+000	 1.8348863396e+000	-1.5277616193e+000
 1.4088743812e+000	 1.8495129029e+000	-1.4941134586e+000
 1.3897407413e+000	 1.8639328507e+000	-1.4484267869e+000
 1.3704739692e+000	 1.8781443235e+000	-1.4099370631e+000
 1.3510774511e+000	 1.8921455338e+000	-1.4432223915e+000
 1.3315546041e+000	 1.9059347671e+000	-1.4838765375e+000
 1.3119088736e+000	 1.9195103822e+000	-1.5315680525e+000
 1.2921437321e+000	 1.9328708119e+000	-1.5859636635e+000
 1.2722626766e+000	 1.9460145636e+000	-1.6467288342e+000
 1.4812005971e+000	 1.8244299908e+000	-1.5537806752e+000
 1.4622851082e+000	 1.8396255767e+000	-1.5352848976e+000
 1.4432249925e+000	 1.8546163002e+000	-1.5044741583e+000
 1.4240235681e+000	 1.8694001384e+000	-1.4596313498e+000
 1.4046841901e+000	 1.8839751394e+000	-1.4482141552e+000
 1.3852102484e+000	 1.8983394238e+000	-1.4682909571e+000
 1.3656051656e+000	 1.9124911847e+000	-1.4933016810e+000
 1.3458723955e+000	 1.9264286893e+000	-1.5229405023e+000
 1.3260154207e+000	 1.9401502787e+000	-1.5569017958e+000
 1.3060377508e+000	 1.9536543690e+000	-1.5948806722e+000
 1.2859429204e+000	 1.9669394514e+000	-1.6365735007e+000
 1.4969580502e+000	 1.8438388205e+000	-1.5306710944e+000
 1.4778413328e+000	 1.8591960615e+000	-1.5094748259e+000
 1.4585784499e+000	 1.8743462609e+000	-1.4724291094e+000
 1.4391727550e+000	 1.8892873739e+000	-1.4803752633e+000
 1.4196276390e+000	 1.9040174282e+000	-1.4935008919e+000
 1.3999465276e+000	 1.9185345240e+000	-1.5091345638e+000
 1.3801328802e+000	 1.9328368356e+000	-1.5269905332e+000
 1.3601901869e+000	 1.9469226115e+000	-1.5467853069e+000
 1.3401219677e+000	 1.9607901753e+000	-1.5682381619e+000
 1.3199317694e+000	 1.9744379261e+000	-1.5910716477e+000
 1.2996231643e+000	 1.9878643392e+000	-1.6150120726e+000
 1.5127155034e+000	 1.8632476502e+000	-1.4965807637e+000
 1.4933975573e+000	 1.8787665464e+000	-1.4840300903e+000
 1.4739319072e+000	 1.8940762215e+000	-1.4959620535e+000
 1.4543219419e+000	 1.9091746095e+000	-1.5082682459e+000
 1.4345710878e+000	 1.9240597169e+000	-1.5206736716e+000
 1.4146828069e+000	 1.9387296243e+000	-1.5329071341e+000
 1.3946605947e+000	 1.9531824865e+000	-1.5447017596e+000
 1.3745079784e+000	 1.9674165338e+000	-1.5557955035e+000
 1.3542285147e+000	 1.9814300719e+000	-1.5659316391e+000
 1.3338257880e+000	 1.9952214832e+000	-1.5748592274e+000
 1.3133034081e+000	 2.0087892269e+000	-1.5823335668e+000
 1.5284729565e+000	 1.8826564799e+000	-1.4653357541e+000
 1.5089537819e+000	 1.8983370312e+000	-1.4848384513e+000
 1.4892853646e+000	 1.9138061822e+000	-1.5023246725e+000
 1.4694711288e+000	 1.9290618450e+000	-1.5175263932e+000
 1.4495145366e+000	 1.9441020056e+000	-1.5301814657e+000
 1.4294190861e+000	 1.9589247245e+000	-1.5400341413e+000
 1.4091883092e+000	 1.9735281374e+000	-1.5468355723e+000
 1.3888257698e+000	 1.9879104560e+000	-1.5503442939e+000
 1.3683350618e+000	 2.0020699685e+000	-1.5503266850e+000
 1.3477198066e+000	 2.0160050404e+000	-1.5465574065e+000
 1.3269836519e+000	 2.0297141147e+000	-1.5388198157e+000
 1.5442304097e+000	 1.9020653096e+000	-1.4371895025e+000
 1.5245100065e+000	 1.9179075161e+000	-1.4657161631e+000
 1.5046388219e+000	 1.9335361428e+000	-1.4896076114e+000
 1.4846203157e+000	 1.9489490805e+000	-1.5086052926e+000
 1.4644579854e+000	 1.9641442943e+000	-1.5224591206e+000
 1.4441553653e+000	 1.9791198248e+000	-1.5309279838e+000
 1.4237160237e+000	 1.9938737883e+000	-1.5337802266e+000
 1.4031435613e+000	 2.0084043782e+000	-1.5307941087e+000
 1.3824416088e+000	 2.0227098651e+000	-1.5217582382e+000
 1.3616138253e+000	 2.0367885975e+000	-1.5064719793e+000
 1.3406638958e+000	 2.0506390025e+000	-1.4847458337e+000
 1.5599878628e+000	 1.9214741392e+000	-1.3888025800e+000
 1.5400662310e+000	 1.9374780009e+000	-1.4271391225e+000
 1.5199922793e+000	 1.9532661034e+000	-1.4582702714e+000
 1.4997695026e+000	 1.9688363160e+000	-1.4819461883e+000
 1.4794014343e+000	 1.9841865830e+000	-1.4979280714e+000
 1.4588916446e+000	 1.9993149250e+000	-1.5059886454e+000
 1.4382437383e+000	 2.0142194392e+000	-1.5059126252e+000
 1.4174613527e+000	 2.0288983004e+000	-1.4974971516e+000
 1.3965481558e+000	 2.0433497617e+000	-1.4805521988e+000
 1.3755078439e+000	 2.0575721546e+000	-1.4549009532e+000
 1.3543441396e+000	 2.0715638903e+000	-1.4203801612e+000
 1.5757453160e+000	 1.9408829689e+000	-1.3206498048e+000
 1.5556224556e+000	 1.9570484858e+000	-1.3695680179e+000
 1.5353457367e+000	 1.9729960641e+000	-1.4087576052e+000
 1.5149186895e+000	 1.9887235515e+000	-1.4379766988e+000
 1.4943448831e+000	 2.0042288717e+000	-1.4569970123e+000
 1.4736279238e+000	 2.0195100253e+000	-1.4656043167e+000
 1.4527714528e+000	 2.0345650901e+000	-1.4635988856e+000
 1.4317791441e+000	 2.0493922227e+000	-1.4507959101e+000
 1.4106547028e+000	 2.0639896582e+000	-1.4270258807e+000
 1.3894018625e+000	 2.0783557117e+000	-1.3921349380e+000
 1.3680243835e+000	 2.0924887780e+000	-1.3459851889e+000
 1.2312219451e+000	 1.8832399002e+000	-1.4266493253e+000
 1.2118734454e+000	 1.8957485995e+000	-1.3715367603e+000
 1.1924196034e+000	 1.9080449390e+000	-1.3404175558e+000
 1.1728638638e+000	 1.9201276929e+000	-1.3313291078e+000
 1.1532096875e+000	 1.9319957082e+000	-1.3423187249e+000
 1.1334605497e+000	 1.9436479059e+000	-1.3714474022e+000
 1.1136199380e+000	 1.9550832805e+000	-1.4167935222e+000
 1.0936913507e+000	 1.9663009000e+000	-1.4764564749e+000
 1.0736782945e+000	 1.9772999064e+000	-1.5485601886e+000
 1.0535842829e+000	 1.9880795152e+000	-1.6312565644e+000
 1.0334128344e+000	 1.9986390154e+000	-1.7227288072e+000
 1.2449021889e+000	 1.9041647880e+000	-1.5850057739e+000
 1.2253387059e+000	 1.9168124728e+000	-1.4886466609e+000
 1.2056687101e+000	 1.9292454384e+000	-1.4192671684e+000
 1.1858956845e+000	 1.9414624450e+000	-1.3749199574e+000
 1.1660231285e+000	 1.9534623272e+000	-1.3536650009e+000
 1.1460545558e+000	 1.9652439938e+000	-1.3535734288e+000
 1.1259934929e+000	 1.9768064280e+000	-1.3727313029e+000
 1.1058434768e+000	 1.9881486878e+000	-1.4092433121e+000
 1.0856080533e+000	 1.9992699054e+000	-1.4612363799e+000
 1.0652907750e+000	 2.0101692876e+000	-1.5268631771e+000
 1.0448951992e+000	 2.0208461156e+000	-1.6043055317e+000
 1.2585824328e+000	 1.9250896758e+000	-1.6451814809e+000
 1.2388039664e+000	 1.9378763461e+000	-1.5868115636e+000
 1.2189178168e+000	 1.9504459377e+000	-1.4834859014e+000
 1.1989275052e+000	 1.9627971972e+000	-1.4081456337e+000
 1.1788365695e+000	 1.9749289462e+000	-1.3588596907e+000
 1.1586485619e+000	 1.9868400816e+000	-1.3337056895e+000
 1.1383670478e+000	 1.9985295756e+000	-1.3307737868e+000
 1.1179956029e+000	 2.0099964756e+000	-1.3481704536e+000
 1.0975378121e+000	 2.0212399043e+000	-1.3840221638e+000
 1.0769972670e+000	 2.0322590600e+000	-1.4364789892e+000
 1.0563775640e+000	 2.0430532157e+000	-1.5037180924e+000
 1.2722626766e+000	 1.9460145636e+000	-1.6467288342e+000
 1.2522692269e+000	 1.9589402195e+000	-1.6481019687e+000
 1.2321669235e+000	 1.9716464370e+000	-1.5320618851e+000
 1.2119593259e+000	 1.9841319493e+000	-1.4299157200e+000
 1.1916500104e+000	 1.9963955652e+000	-1.3567357763e+000
 1.1712425680e+000	 2.0084361695e+000	-1.3106025185e+000
 1.1507406026e+000	 2.0202527232e+000	-1.2896066208e+000
 1.1301477291e+000	 2.0318442634e+000	-1.2918528256e+000
 1.1094675710e+000	 2.0432099033e+000	-1.3154637174e+000
 1.0887037590e+000	 2.0543488324e+000	-1.3585834038e+000
 1.0678599288e+000	 2.0652603159e+000	-1.4193810957e+000
 1.2859429204e+000	 1.9669394514e+000	-1.6365735007e+000
 1.2657344874e+000	 1.9800040928e+000	-1.6122059273e+000
 1.2454160302e+000	 1.9928469363e+000	-1.5639841621e+000
 1.2249911467e+000	 2.0054667014e+000	-1.4391452707e+000
 1.2044634514e+000	 2.0178621842e+000	-1.3461361895e+000
 1.1838365741e+000	 2.0300322573e+000	-1.2830365974e+000
 1.1631141575e+000	 2.0419758707e+000	-1.2479341139e+000
 1.1422998552e+000	 2.0536920511e+000	-1.2389282465e+000
 1.1213973298e+000	 2.0651799023e+000	-1.2541342533e+000
 1.1004102511e+000	 2.0764386048e+000	-1.2916869151e+000
 1.0793422937e+000	 2.0874674161e+000	-1.3497442057e+000
 1.2996231643e+000	 1.9878643392e+000	-1.6150120726e+000
 1.2791997479e+000	 2.0010679661e+000	-1.5682021179e+000
 1.2586651369e+000	 2.0140474357e+000	-1.5283456900e+000
 1.2380229674e+000	 2.0268014536e+000	-1.4347545228e+000
 1.2172768924e+000	 2.0393288031e+000	-1.3259132879e+000
 1.1964305802e+000	 2.0516283452e+000	-1.2497941996e+000
 1.1754877124e+000	 2.0636990183e+000	-1.2044782547e+000
 1.1544519813e+000	 2.0755398389e+000	-1.1880562216e+000
 1.1333270886e+000	 2.0871499012e+000	-1.1986325972e+000
 1.1121167431e+000	 2.0985283772e+000	-1.2343294726e+000
 1.0908246585e+000	 2.1096745162e+000	-1.2932902990e+000
 1.3133034081e+000	 2.0087892269e+000	-1.5823335668e+000
 1.2926650084e+000	 2.0221318395e+000	-1.5162838501e+000
 1.2719142436e+000	 2.0352479350e+000	-1.4592453699e+000
 1.2510547881e+000	 2.0481362057e+000	-1.4109122184e+000
 1.2300903333e+000	 2.0607954221e+000	-1.2949283644e+000
 1.2090245863e+000	 2.0732244330e+000	-1.2096744834e+000
 1.1878612672e+000	 2.0854221659e+000	-1.1579777910e+000
 1.1666041074e+000	 2.0973876267e+000	-1.1379168140e+000
 1.1452568475e+000	 2.1091199002e+000	-1.1475818529e+000
 1.1238232351e+000	 2.1206181496e+000	-1.1850789463e+000
 1.1023070233e+000	 2.1318816164e+000	-1.2485337352e+000
 1.3269836519e+000	 2.0297141147e+000	-1.5388198157e+000
 1.3061302689e+000	 2.0431957128e+000	-1.4566412621e+000
 1.2851633503e+000	 2.0564484343e+000	-1.3854793433e+000
 1.2640866088e+000	 2.0694709579e+000	-1.3250979961e+000
 1.2429037743e+000	 2.0822620411e+000	-1.2520511862e+000
 1.2216185925e+000	 2.0948205209e+000	-1.1614888267e+000
 1.2002348221e+000	 2.1071453134e+000	-1.1071873655e+000
 1.1787562335e+000	 2.1192354145e+000	-1.0872095847e+000
 1.1571866063e+000	 2.1310898991e+000	-1.0996281520e+000
 1.1355297272e+000	 2.1427079219e+000	-1.1425296881e+000
 1.1137893881e+000	 2.1540887166e+000	-1.2140187337e+000
 1.3406638958e+000	 2.0506390025e+000	-1.4847458337e+000
 1.3195955294e+000	 2.0642595861e+000	-1.3894614823e+000
 1.2984124570e+000	 2.0776489336e+000	-1.3071481769e+000
 1.2771184295e+000	 2.0908057100e+000	-1.2376382644e+000
 1.2557172153e+000	 2.1037286601e+000	-1.1807594158e+000
 1.2342125986e+000	 2.1164166087e+000	-1.1040602045e+000
 1.2126083770e+000	 2.1288684610e+000	-1.0508767053e+000
 1.1909083597e+000	 2.1410832022e+000	-1.0346525976e+000
 1.1691163651e+000	 2.1530598981e+000	-1.0534394780e+000
 1.1472362192e+000	 2.1647976943e+000	-1.1053011803e+000
 1.1252717530e+000	 2.1762958168e+000	-1.1883178504e+000
 1.3543441396e+000	 2.0715638903e+000	-1.4203801612e+000
 1.3330607899e+000	 2.0853234594e+000	-1.3149287814e+000
 1.3116615637e+000	 2.0988494330e+000	-1.2243531375e+000
 1.2901502502e+000	 2.1121404622e+000	-1.1485525851e+000
 1.2685306563e+000	 2.1251952790e+000	-1.0874196236e+000
 1.2468066047e+000	 2.1380126965e+000	-1.0362226025e+000
 1.2249819318e+000	 2.1505916085e+000	-9.8782985945e-001
 1.2030604858e+000	 2.1629309900e+000	-9.7898148561e-001
 1.1810461240e+000	 2.1750298971e+000	-1.0077045634e+000
 1.1589427112e+000	 2.1868874667e+000	-1.0720367667e+000
 1.1367541178e+000	 2.1985029169e+000	-1.1700305468e+000
 1.3680243835e+000	 2.0924887780e+000	-1.3459851889e+000
 1.3465260504e+000	 2.1063873328e+000	-1.2332247153e+000
 1.3249106704e+000	 2.1200499323e+000	-1.1371961572e+000
 1.3031820709e+000	 2.1334752143e+000	-1.0578645087e+000
 1.2813440973e+000	 2.1466618980e+000	-9.9518577231e-001
 1.2594006108e+000	 2.1596087844e+000	-9.4910727241e-001
 1.2373554867e+000	 2.1723147561e+000	-9.1684448357e-001
 1.2152126119e+000	 2.1847787778e+000	-9.1894857148e-001
 1.1929758828e+000	 2.1969998960e+000	-9.6113185166e-001
 1.1706492033e+000	 2.2089772391e+000	-1.0414024593e+000
 1.1482364826e+000	 2.2207100171e+000	-1.1577818441e+000
 1.0334128344e+000	 1.9986390154e+000	-1.7227288072e+000
 1.0131674701e+000	 2.0089777693e+000	-1.5958649314e+000
 9.9285171243e-001	 2.0190952125e+000	-1.4871507212e+000
 9.7246908310e-001	 2.0289908532e+000	-1.3953241721e+000
 9.5202310113e-001	 2.0386642723e+000	-1.3191508348e+000
 9.3151728120e-001	 2.0481151225e+000	-1.2574262829e+000
 9.1095513182e-001	 2.0573431284e+000	-1.2089784674e+000
 8.9034015358e-001	 2.0663480856e+000	-1.1726699539e+000
 8.6967583741e-001	 2.0751298605e+000	-1.1474000374e+000
 8.4896566288e-001	 2.0836883892e+000	-1.1321067340e+000
 8.2821309651e-001	 2.0920236774e+000	-1.1257686447e+000
 1.0448951992e+000	 2.0208461156e+000	-1.6043055317e+000
 1.0244248864e+000	 2.0312997445e+000	-1.4803752530e+000
 1.0038833981e+000	 2.0415296038e+000	-1.3748093008e+000
 9.8327429514e-001	 2.0515351960e+000	-1.2862280362e+000
 9.6260113559e-001	 2.0613160975e+000	-1.2132812530e+000
 9.4186747321e-001	 2.0708719572e+000	-1.1546507955e+000
 9.2107685550e-001	 2.0802024965e+000	-1.1090530579e+000
 9.0023282195e-001	 2.0893075088e+000	-1.0752413587e+000
 8.7933890227e-001	 2.0981868589e+000	-1.0520081885e+000
 8.5839861469e-001	 2.1068404824e+000	-1.0381873261e+000
 8.3741546425e-001	 2.1152683849e+000	-1.0326558211e+000
 1.0563775640e+000	 2.0430532157e+000	-1.5037180924e+000
 1.0356823027e+000	 2.0536217198e+000	-1.3818716169e+000
 1.0149150838e+000	 2.0639639950e+000	-1.2785921488e+000
 9.9407950717e-001	 2.0740795389e+000	-1.1923811449e+000
 9.7317917004e-001	 2.0839679228e+000	-1.1217714088e+000
 9.5221766522e-001	 2.0936287919e+000	-1.0653298623e+000
 9.3119857919e-001	 2.1030618646e+000	-1.0216601901e+000
 9.1012549032e-001	 2.1122669320e+000	-9.8940535477e-001
 8.8900196713e-001	 2.1212438574e+000	-9.6724997831e-001
 8.6783156650e-001	 2.1299925756e+000	-9.5392258492e-001
 8.4661783199e-001	 2.1385130925e+000	-9.4819770394e-001
 1.0678599288e+000	 2.0652603159e+000	-1.4193810957e+000
 1.0469397191e+000	 2.0759436950e+000	-1.2988542070e+000
 1.0259467695e+000	 2.0863983863e+000	-1.1970848348e+000
 1.0048847192e+000	 2.0966238817e+000	-1.1124542038e+000
 9.8375720450e-001	 2.1066197480e+000	-1.0433768381e+000
 9.6256785724e-001	 2.1163856266e+000	-9.8830348729e-001
 9.4132030288e-001	 2.1259212327e+000	-9.4572391970e-001
 9.2001815870e-001	 2.1352263552e+000	-9.1416957939e-001
 8.9866503199e-001	 2.1443008558e+000	-8.9221610270e-001
 8.7726451831e-001	 2.1531446689e+000	-8.7848569025e-001
 8.5582019972e-001	 2.1617578000e+000	-8.7164933138e-001
 1.0793422937e+000	 2.0874674161e+000	-1.3497442057e+000
 1.0581971354e+000	 2.0982656702e+000	-1.2298558258e+000
 1.0369784552e+000	 2.1088327775e+000	-1.1289031081e+000
 1.0156899312e+000	 2.1191682245e+000	-1.0451456607e+000
 9.9433523896e-001	 2.1292715733e+000	-9.7687838366e-001
 9.7291804925e-001	 2.1391424613e+000	-9.2243455035e-001
 9.5144202657e-001	 2.1487806008e+000	-8.8018875195e-001
 9.2991082707e-001	 2.1581857783e+000	-8.4855969834e-001
 9.0832809685e-001	 2.1673578543e+000	-8.2601287187e-001
 8.8669747012e-001	 2.1762967621e+000	-8.1106302985e-001
 8.6502256746e-001	 2.1850025075e+000	-8.0227655231e-001
 1.0908246585e+000	 2.1096745162e+000	-1.2932902990e+000
 1.0694545517e+000	 2.1205876454e+000	-1.1734401781e+000
 1.0480101409e+000	 2.1312671688e+000	-1.0726913093e+000
 1.0264951433e+000	 2.1417125673e+000	-9.8918024596e-001
 1.0049132734e+000	 2.1519233985e+000	-9.2108086402e-001
 9.8326824127e-001	 2.1618992960e+000	-8.6660760346e-001
 9.6156375025e-001	 2.1716399689e+000	-8.2401856493e-001
 9.3980349544e-001	 2.1811452015e+000	-7.9161845685e-001
 9.1799116171e-001	 2.1904148527e+000	-7.6776138841e-001
 8.9613042193e-001	 2.1994488553e+000	-7.5085350423e-001
 8.7422493520e-001	 2.2082472150e+000	-7.3935545726e-001
 1.1023070233e+000	 2.1318816164e+000	-1.2485337352e+000
 1.0807119681e+000	 2.1429096206e+000	-1.1282002606e+000
 1.0590418266e+000	 2.1537015600e+000	-1.0271208816e+000
 1.0373003553e+000	 2.1642569101e+000	-9.4330760302e-001
 1.0154913079e+000	 2.1745752237e+000	-8.7481182427e-001
 9.9361843328e-001	 2.1846561306e+000	-8.1972774182e-001
 9.7168547394e-001	 2.1944993369e+000	-7.7619560075e-001
 9.4969616382e-001	 2.2041046247e+000	-7.4240479008e-001
 9.2765422657e-001	 2.2134718512e+000	-7.1659677688e-001
 9.0556337374e-001	 2.2226009485e+000	-6.9706787505e-001
 8.8342730294e-001	 2.2314919226e+000	-6.8217184499e-001
 1.1137893881e+000	 2.1540887166e+000	-1.2140187337e+000
 1.0919693844e+000	 2.1652315958e+000	-1.0927568529e+000
 1.0700735123e+000	 2.1761359513e+000	-9.9088897317e-001
 1.0481055673e+000	 2.1868012529e+000	-9.0630100460e-001
 1.0260693423e+000	 2.1972270490e+000	-8.3692036475e-001
 1.0039686253e+000	 2.2074129653e+000	-7.8071954492e-001
 9.8180719763e-001	 2.2173587050e+000	-7.3571951891e-001
 9.5958883219e-001	 2.2270640479e+000	-6.9999298854e-001
 9.3731729143e-001	 2.2365288496e+000	-6.7166746101e-001
 9.1499632555e-001	 2.2457530417e+000	-6.4892815364e-001
 8.9262967068e-001	 2.2547366301e+000	-6.3002072206e-001
 1.1252717530e+000	 2.1762958168e+000	-1.1883178504e+000
 1.1032268007e+000	 2.1875535710e+000	-1.0657570994e+000
 1.0811051980e+000	 2.1985703425e+000	-9.6271712610e-001
 1.0589107794e+000	 2.2093455957e+000	-8.7695614704e-001
 1.0366473768e+000	 2.2198788742e+000	-8.0627604124e-001
 1.0143188173e+000	 2.2301698000e+000	-7.4852608249e-001
 9.9192892132e-001	 2.2402180731e+000	-7.0160650768e-001
 9.6948150057e-001	 2.2500234710e+000	-6.6347191471e-001
 9.4698035630e-001	 2.2595858481e+000	-6.3213448520e-001
 9.2442927736e-001	 2.2689051349e+000	-6.0566702707e-001
 9.0183203843e-001	 2.2779813376e+000	-5.8220583306e-001
 1.1367541178e+000	 2.1985029169e+000	-1.1700305468e+000
 1.1144842171e+000	 2.2098755463e+000	-1.0458731781e+000
 1.0921368837e+000	 2.2210047338e+000	-9.4135004416e-001
 1.0697159914e+000	 2.2318899385e+000	-8.5409001777e-001
 1.0472254113e+000	 2.2425306995e+000	-7.8176783188e-001
 1.0246690093e+000	 2.2529266347e+000	-7.2210798062e-001
 1.0020506450e+000	 2.2630774412e+000	-6.7288844927e-001
 9.7937416894e-001	 2.2729828942e+000	-6.3194426706e-001
 9.5664342116e-001	 2.2826428465e+000	-5.9717087711e-001
 9.3386222918e-001	 2.2920572281e+000	-5.6652731897e-001
 9.1103440617e-001	 2.3012260451e+000	-5.3803921930e-001
 1.1482364826e+000	 2.2207100171e+000	-1.1577818441e+000
 1.1257416334e+000	 2.2321975215e+000	-1.0318010488e+000
 1.1031685694e+000	 2.2434391250e+000	-9.2555443483e-001
 1.0805212035e+000	 2.2544342814e+000	-8.3653983075e-001
 1.0578034457e+000	 2.2651825247e+000	-7.6230316608e-001
 1.0350192013e+000	 2.2756834694e+000	-7.0044254393e-001
 1.0121723687e+000	 2.2859368093e+000	-6.4861213519e-001
 9.8926683732e-001	 2.2959423174e+000	-6.0452588823e-001
 9.6630648602e-001	 2.3056998450e+000	-5.6596104847e-001
 9.4329518099e-001	 2.3152093213e+000	-5.3076148272e-001
 9.2023677391e-001	 2.3244707527e+000	-4.9684080395e-001
 8.2821309651e-001	 2.0920236774e+000	-1.1257686447e+000
 8.0742159012e-001	 2.1001357994e+000	-1.0336152880e+000
 7.8659457923e-001	 2.1080248974e+000	-9.4856828939e-001
 7.6573548144e-001	 2.1156911808e+000	-8.6983514286e-001
 7.4484769492e-001	 2.1231349254e+000	-7.9666897141e-001
 7.2393459685e-001	 2.1303564724e+000	-7.2836965121e-001
 7.0299954197e-001	 2.1373562277e+000	-6.6428480359e-001
 6.8204586113e-001	 2.1441346607e+000	-6.0381065478e-001
 6.6107685984e-001	 2.1506923038e+000	-5.4639276412e-001
 6.4009581698e-001	 2.1570297506e+000	-4.9152662167e-001
 6.1910598340e-001	 2.1631476559e+000	-5.5112905977e-001
 8.3741546425e-001	 2.1152683849e+000	-1.0326558211e+000
 8.1639294112e-001	 2.1234706416e+000	-9.4536690311e-001
 7.9533451899e-001	 2.1314473962e+000	-8.6671378788e-001
 7.7424365345e-001	 2.1391988606e+000	-7.9581854284e-001
 7.5312378041e-001	 2.1467253135e+000	-7.3184965346e-001
 7.3197831459e-001	 2.1540270999e+000	-6.7402325843e-001
 7.1081064799e-001	 2.1611046302e+000	-6.2160424793e-001
 6.8962414847e-001	 2.1679583792e+000	-5.7390722480e-001
 6.6842215828e-001	 2.1745888849e+000	-5.3029732920e-001
 6.4720799272e-001	 2.1809967479e+000	-4.9019092773e-001
 6.2598493877e-001	 2.1871826299e+000	-4.5305616810e-001
 8.4661783199e-001	 2.1385130925e+000	-9.4819770394e-001
 8.2536429212e-001	 2.1468054838e+000	-8.6564650288e-001
 8.0407445876e-001	 2.1548698951e+000	-7.9318390418e-001
 7.8275182547e-001	 2.1627065404e+000	-7.2984569932e-001
 7.6139986591e-001	 2.1703157015e+000	-6.7471497310e-001
 7.4002203233e-001	 2.1776977274e+000	-6.2692345033e-001
 7.1862175401e-001	 2.1848530328e+000	-5.8565270064e-001
 6.9720243581e-001	 2.1917820976e+000	-5.5013520126e-001
 6.7576745672e-001	 2.1984854661e+000	-5.1965525830e-001
 6.5432016846e-001	 2.2049637451e+000	-4.9354978721e-001
 6.3286389413e-001	 2.2112176038e+000	-4.7120895364e-001
 8.5582019972e-001	 2.1617578000e+000	-8.7164933138e-001
 8.3433564312e-001	 2.1701403260e+000	-7.9376143359e-001
 8.1281439853e-001	 2.1782923940e+000	-7.2733930726e-001
 7.9125999748e-001	 2.1862142202e+000	-6.7133157274e-001
 7.6967595141e-001	 2.1939060896e+000	-6.2473510533e-001
 7.4806575007e-001	 2.2013683548e+000	-5.8659649404e-001
 7.2643286003e-001	 2.2086014353e+000	-5.5601335335e-001
 7.0478072316e-001	 2.2156058161e+000	-5.3213548791e-001
 6.8311275516e-001	 2.2223820472e+000	-5.1416591039e-001
 6.6143234421e-001	 2.2289307423e+000	-5.0136171336e-001
 6.3974284950e-001	 2.2352525778e+000	-4.9303479613e-001
 8.6502256746e-001	 2.1850025075e+000	-8.0227655231e-001
 8.4330699412e-001	 2.1934751683e+000	-7.2902869348e-001
 8.2155433830e-001	 2.2017148928e+000	-6.6854909645e-001
 7.9976816950e-001	 2.2097219000e+000	-6.1969827025e-001
 7.7795203691e-001	 2.2174964776e+000	-5.8138602707e-001
 7.5610946781e-001	 2.2250389823e+000	-5.5257305375e-001
 7.3424396605e-001	 2.2323498378e+000	-5.3227233090e-001
 7.1235901050e-001	 2.2394295346e+000	-5.1955039977e-001
 6.9045805361e-001	 2.2462786284e+000	-5.1352847692e-001
 6.6854451995e-001	 2.2528977396e+000	-5.1338341734e-001
 6.4662180487e-001	 2.2592875518e+000	-5.1834852724e-001
 8.7422493520e-001	 2.2082472150e+000	-7.3935545726e-001
 8.5227834513e-001	 2.2168100105e+000	-6.7077442479e-001
 8.3029427807e-001	 2.2251373917e+000	-6.1619035775e-001
 8.0827634151e-001	 2.2332295797e+000	-5.7437466951e-001
 7.8622812241e-001	 2.2410868657e+000	-5.4414921179e-001
 7.6415318556e-001	 2.2487096098e+000	-5.2438795931e-001
 7.4205507208e-001	 2.2560982403e+000	-5.1401853692e-001
 7.1993729785e-001	 2.2632532530e+000	-5.1202358892e-001
 6.9780335205e-001	 2.2701752095e+000	-5.1744199064e-001
 6.7565669569e-001	 2.2768647368e+000	-5.2936990301e-001
 6.5350076025e-001	 2.2833225257e+000	-5.4696167092e-001
 8.8342730294e-001	 2.2314919226e+000	-6.8217184499e-001
 8.6124969613e-001	 2.2401448527e+000	-6.1833343752e-001
 8.3903421784e-001	 2.2485598905e+000	-5.6964774782e-001
 8.1678451353e-001	 2.2567372595e+000	-5.3479606611e-001
 7.9450420791e-001	 2.2646772538e+000	-5.1251134323e-001
 7.7219690330e-001	 2.2723802372e+000	-5.0157998927e-001
 7.4986617810e-001	 2.2798466429e+000	-5.0084350916e-001
 7.2751558520e-001	 2.2870769715e+000	-5.0919997482e-001
 7.0514865049e-001	 2.2940717907e+000	-5.2560533393e-001
 6.8276887144e-001	 2.3008317340e+000	-5.4907455585e-001
 6.6037971562e-001	 2.3073574997e+000	-5.7868261568e-001
 8.9262967068e-001	 2.2547366301e+000	-6.3002072206e-001
 8.7022104713e-001	 2.2634796949e+000	-5.7104876261e-001
 8.4777415761e-001	 2.2719823894e+000	-5.2831310380e-001
 8.2529268555e-001	 2.2802449393e+000	-5.0040384273e-001
 8.0278029341e-001	 2.2882676418e+000	-4.8596404686e-001
 7.8024062105e-001	 2.2960508647e+000	-4.8369166734e-001
 7.5767728412e-001	 2.3035950454e+000	-4.9234128365e-001
 7.3509387254e-001	 2.3109006899e+000	-5.1072567899e-001
 7.1249394894e-001	 2.3179683718e+000	-5.3771724645e-001
 6.8988104719e-001	 2.3247987313e+000	-5.7224922642e-001
 6.6725867099e-001	 2.3313924736e+000	-6.1331677621e-001
 9.0183203843e-001	 2.2779813376e+000	-5.8220583306e-001
 8.7919239814e-001	 2.2868145371e+000	-5.2827123253e-001
 8.5651409738e-001	 2.2954048883e+000	-4.9158507693e-001
 8.3380085757e-001	 2.3037526191e+000	-4.7064515857e-001
 8.1105637891e-001	 2.3118580299e+000	-4.6400363770e-001
 7.8828433879e-001	 2.3197214922e+000	-4.7026907129e-001
 7.6548839015e-001	 2.3273434479e+000	-4.8810826729e-001
 7.4267215989e-001	 2.3347244084e+000	-5.1624796371e-001
 7.1983924738e-001	 2.3418649530e+000	-5.5347633251e-001
 6.9699322293e-001	 2.3487657285e+000	-5.9864430863e-001
 6.7413762637e-001	 2.3554274476e+000	-6.5066674512e-001
 9.1103440617e-001	 2.3012260451e+000	-5.3803921930e-001
 8.8816374914e-001	 2.3101493793e+000	-4.8935908727e-001
 8.6525403716e-001	 2.3188273871e+000	-4.5886878838e-001
 8.4230902959e-001	 2.3272602989e+000	-4.4497265760e-001
 8.1933246442e-001	 2.3354484179e+000	-4.4613088352e-001
 7.9632805654e-001	 2.3433921197e+000	-4.6086165349e-001
 7.7329949618e-001	 2.3510918505e+000	-4.8774311806e-001
 7.5025044724e-001	 2.3585481268e+000	-5.2541517434e-001
 7.2718454583e-001	 2.3657615341e+000	-5.7258106785e-001
 7.0410539868e-001	 2.3727327257e+000	-6.2800881334e-001
 6.8101658174e-001	 2.3794624215e+000	-6.9053243543e-001
 9.2023677391e-001	 2.3244707527e+000	-4.9684080395e-001
 8.9713510015e-001	 2.3334842215e+000	-4.5367760392e-001
 8.7399397693e-001	 2.3422498860e+000	-4.2957550580e-001
 8.5081720161e-001	 2.3507679787e+000	-4.2284419434e-001
 8.2760854992e-001	 2.3590388060e+000	-4.3185078219e-001
 8.0437177429e-001	 2.3670627471e+000	-4.5502207213e-001
 7.8111060220e-001	 2.3748402530e+000	-4.9084663251e-001
 7.5782873460e-001	 2.3823718453e+000	-5.3787668524e-001
 7.3452984428e-001	 2.3896581153e+000	-5.9472980610e-001
 7.1121757443e-001	 2.3966997229e+000	-6.6009043748e-001
 6.8789553712e-001	 2.4034973955e+000	-7.3271121458e-001
 6.1910598340e-001	 2.1631476559e+000	-5.5112905977e-001
 5.9811058066e-001	 2.1690467338e+000	-5.0154562209e-001
 5.7711279978e-001	 2.1747277568e+000	-4.5497731196e-001
 5.5611580005e-001	 2.1801915551e+000	-4.1017148798e-001
 5.3512270782e-001	 2.1854390149e+000	-3.6600930303e-001
 5.1413661543e-001	 2.1904710774e+000	-3.2150450610e-001
 4.9316058010e-001	 2.1952887378e+000	-2.7580198683e-001
 4.7219762289e-001	 2.1998930440e+000	-2.2817607303e-001
 4.5125072774e-001	 2.2042850952e+000	-1.7802859225e-001
 4.3032284048e-001	 2.2084660407e+000	-1.2488670821e-001
 4.0941686796e-001	 2.2124370789e+000	-6.8400543674e-002
 6.2598493877e-001	 2.1871826299e+000	-4.5305616810e-001
 6.0475625377e-001	 2.1931472531e+000	-3.8823542228e-001
 5.8352516422e-001	 2.1988913986e+000	-3.4505949611e-001
 5.6229486449e-001	 2.2044159057e+000	-3.0377974801e-001
 5.4106851568e-001	 2.2097216706e+000	-2.6330400506e-001
 5.1984924449e-001	 2.2148096449e+000	-2.2267542813e-001
 4.9864014209e-001	 2.2196808349e+000	-1.8107098084e-001
 4.7744426314e-001	 2.2243363000e+000	-1.3779964599e-001
 4.5626462471e-001	 2.2287771518e+000	-9.2300400708e-002
 4.3510420537e-001	 2.2330045523e+000	-4.4139961721e-002
 4.1396594427e-001	 2.2370197131e+000	 6.9896875505e-003
 6.3286389413e-001	 2.2112176038e+000	-4.7120895364e-001
 6.1140192689e-001	 2.2172477723e+000	-2.8569001104e-001
 5.8993752866e-001	 2.2230550403e+000	-2.4880753451e-001
 5.6847392893e-001	 2.2286402563e+000	-2.1379063415e-001
 5.4701432354e-001	 2.2340043263e+000	-1.7957252047e-001
 5.2556187355e-001	 2.2391482124e+000	-1.4522468031e-001
 5.0411970409e-001	 2.2440729320e+000	-1.0995526778e-001
 4.8269090339e-001	 2.2487795561e+000	-7.3107236921e-002
 4.6127852168e-001	 2.2532692084e+000	-3.4156227633e-002
 4.3988557026e-001	 2.2575430638e+000	 7.2917834726e-003
 4.1851502058e-001	 2.2616023474e+000	 5.1503055093e-002
 6.3974284950e-001	 2.2352525778e+000	-4.9303479613e-001
 6.1804760000e-001	 2.2413482916e+000	-1.9426823481e-001
 5.9634989310e-001	 2.2472186821e+000	-1.6649378466e-001
 5.7465299337e-001	 2.2528646070e+000	-1.4039012293e-001
 5.5296013141e-001	 2.2582869820e+000	-1.1491457346e-001
 5.3127450260e-001	 2.2634867799e+000	-8.9165884343e-002
 5.0959926609e-001	 2.2684650291e+000	-6.2382538550e-002
 4.8793754364e-001	 2.2732228121e+000	-3.3940800192e-002
 4.6629241865e-001	 2.2777612650e+000	-3.3525081958e-003
 4.4466693515e-001	 2.2820815754e+000	 2.9737370375e-002
 4.2306409689e-001	 2.2861849816e+000	 6.5553414929e-002
 6.4662180487e-001	 2.2592875518e+000	-5.1834852724e-001
 6.2469327312e-001	 2.2654488109e+000	-1.1432969093e-001
 6.0276225754e-001	 2.2713823238e+000	-9.8395517273e-002
 5.8083205782e-001	 2.2770889576e+000	-8.3773185310e-002
 5.5890593927e-001	 2.2825696377e+000	-6.9442881467e-002
 5.3698713166e-001	 2.2878253475e+000	-5.4529570608e-002
 5.1507882809e-001	 2.2928571261e+000	-3.8301223889e-002
 4.9318418390e-001	 2.2976660682e+000	-2.0166775862e-002
 4.7130631563e-001	 2.3022533216e+000	 3.2617698925e-004
 4.4944830005e-001	 2.3066200870e+000	 2.3493923726e-002
 4.2761317319e-001	 2.3107676158e+000	 4.9519419602e-002
 6.5350076025e-001	 2.2833225257e+000	-5.4696167092e-001
 6.3133894624e-001	 2.2895493301e+000	-1.5769103628e-001
 6.0917462198e-001	 2.2955459656e+000	-4.4794657764e-002
 5.8701112226e-001	 2.3013133082e+000	-4.4143313232e-002
 5.6485174713e-001	 2.3068522935e+000	-4.3282471288e-002
 5.4269976072e-001	 2.3121639150e+000	-4.1362288273e-002
 5.2055839009e-001	 2.3172492232e+000	-3.7679402799e-002
 4.9843082415e-001	 2.3221093242e+000	-3.1674800977e-002
 4.7632021260e-001	 2.3267453782e+000	-2.2931416801e-002
 4.5422966494e-001	 2.3311585985e+000	-1.1171480624e-002
 4.3216224950e-001	 2.3353502500e+000	 3.7463710367e-003
 6.6037971562e-001	 2.3073574997e+000	-5.7868261568e-001
 6.3798461936e-001	 2.3136498494e+000	-2.1282431843e-001
 6.1558698643e-001	 2.3197096073e+000	-5.9775437682e-003
 5.9319018671e-001	 2.3255376588e+000	-2.1712075870e-002
 5.7079755500e-001	 2.3311349492e+000	-3.6570038003e-002
 5.4841238978e-001	 2.3365024825e+000	-4.9725770966e-002
 5.2603795209e-001	 2.3416413203e+000	-6.0503779201e-002
 5.0367746441e-001	 2.3465525803e+000	-6.8376501386e-002
 4.8133410958e-001	 2.3512374348e+000	-7.2961809643e-002
 4.5901102983e-001	 2.3556971101e+000	-7.4020250667e-002
 4.3671132581e-001	 2.3599328842e+000	-7.1452042454e-002
 6.6725867099e-001	 2.3313924736e+000	-6.1331677621e-001
 6.4463029248e-001	 2.3377503686e+000	-2.7394922442e-001
 6.2199935087e-001	 2.3438732491e+000	 1.7765302273e-002
 5.9936925116e-001	 2.3497620094e+000	-1.6698703251e-002
 5.7674336287e-001	 2.3554176049e+000	-4.9453343494e-002
 5.5412501884e-001	 2.3608410500e+000	-7.9696154071e-002
 5.3151751410e-001	 2.3660334174e+000	-1.0677872188e-001
 5.0892410466e-001	 2.3709958363e+000	-1.3020435830e-001
 4.8634800655e-001	 2.3757294915e+000	-1.4962549411e-001
 4.6379239473e-001	 2.3802356217e+000	-1.6484080999e-001
 4.4126040212e-001	 2.3845155184e+000	-1.7579211660e-001
 6.7413762637e-001	 2.3554274476e+000	-6.5066674512e-001
 6.5127596560e-001	 2.3618508879e+000	-3.4080722830e-001
 6.2841171532e-001	 2.3680368908e+000	-2.8986098761e-002
 6.0554831560e-001	 2.3739863600e+000	-2.9329695403e-002
 5.8268917073e-001	 2.3797002606e+000	-8.2090651821e-002
 5.5983764791e-001	 2.3851796176e+000	-1.3136323995e-001
 5.3699707610e-001	 2.3904255145e+000	-1.7652536324e-001
 5.1417074492e-001	 2.3954390923e+000	-2.1711064425e-001
 4.9136190353e-001	 2.4002215481e+000	-2.5280571219e-001
 4.6857375962e-001	 2.4047741332e+000	-2.8344721946e-001
 4.4580947843e-001	 2.4090981526e+000	-3.0901860136e-001
 6.8101658174e-001	 2.3794624215e+000	-6.9053243543e-001
 6.5792163873e-001	 2.3859514072e+000	-4.1314038044e-001
 6.3482407976e-001	 2.3922005325e+000	-1.3420231383e-001
 6.1172738005e-001	 2.3982107106e+000	-5.9838455179e-002
 5.8863497860e-001	 2.4039829163e+000	-1.3465019880e-001
 5.6555027697e-001	 2.4095181851e+000	-2.0482980768e-001
 5.4247663810e-001	 2.4148176116e+000	-2.6978075262e-001
 5.1941738517e-001	 2.4198823484e+000	-3.2906642350e-001
 4.9637580050e-001	 2.4247136047e+000	-3.8240730633e-001
 4.7335512452e-001	 2.4293126448e+000	-4.2967788234e-001
 4.5035855474e-001	 2.4336807868e+000	-4.7090326388e-001
 6.8789553712e-001	 2.4034973955e+000	-7.3271121458e-001
 6.6456731185e-001	 2.4100519264e+000	-4.9069127866e-001
 6.4123644421e-001	 2.4163641743e+000	-2.4744730695e-001
 6.1790644450e-001	 2.4224350612e+000	-1.0846494312e-001
 5.9458078647e-001	 2.4282655721e+000	-2.0730969344e-001
 5.7126290603e-001	 2.4338567526e+000	-3.0021096423e-001
 5.4795620010e-001	 2.4392097087e+000	-3.8659706048e-001
 5.2466402543e-001	 2.4443256044e+000	-4.6606061251e-001
 5.0138969748e-001	 2.4492056613e+000	-5.3835563940e-001
 4.7813648941e-001	 2.4538511564e+000	-6.0339432727e-001
 4.5490763105e-001	 2.4582634210e+000	-6.6124353758e-001
 4.0941686796e-001	 2.2124370789e+000	-6.8400543674e-002
 3.8853567716e-001	 2.2161994557e+000	-5.9995673751e-002
 3.6768209441e-001	 2.2197544633e+000	-5.2522154549e-002
 3.4685890457e-001	 2.2231034390e+000	-4.5757031074e-002
 3.2606885033e-001	 2.2262477636e+000	-3.9589423555e-002
 3.0531463152e-001	 2.2291888605e+000	-3.4017458812e-002
 2.8459890447e-001	 2.2319281941e+000	-2.9145054519e-002
 2.6392428140e-001	 2.2344672684e+000	-2.5178568333e-002
 2.4329332986e-001	 2.2368076260e+000	-2.2423323905e-002
 2.2270857224e-001	 2.2389508462e+000	-2.1280025644e-002
 2.0217248527e-001	 2.2408985444e+000	-2.2241074065e-002
 4.1396594427e-001	 2.2370197131e+000	 6.9896875505e-003
 3.9285274024e-001	 2.2408238941e+000	 1.7834953390e-002
 3.7176745101e-001	 2.2444184018e+000	 2.7712426892e-002
 3.5071289240e-001	 2.2478045883e+000	 3.6826238951e-002
 3.2969183756e-001	 2.2509838498e+000	 4.5265647243e-002
 3.0870701632e-001	 2.2539576256e+000	 5.3008208088e-002
 2.8776111452e-001	 2.2567273962e+000	 5.9923099179e-002
 2.6685677342e-001	 2.2592946825e+000	 6.5774580803e-002
 2.4599658909e-001	 2.2616610440e+000	 7.0225583207e-002
 2.2518311194e-001	 2.2638280779e+000	 7.2841407848e-002
 2.0441884622e-001	 2.2657974171e+000	 7.3093530343e-002
 4.1851502058e-001	 2.2616023474e+000	 5.1503055093e-002
 3.9716980332e-001	 2.2654483325e+000	 6.4739336786e-002
 3.7585280762e-001	 2.2690823403e+000	 7.7126579365e-002
 3.5456688023e-001	 2.2725057376e+000	 8.8849221021e-002
 3.3331482478e-001	 2.2757199361e+000	 9.9973868013e-002
 3.1209940111e-001	 2.2787263907e+000	 1.1045257426e-001
 2.9092332457e-001	 2.2815265984e+000	 1.2012627571e-001
 2.6978926543e-001	 2.2841220966e+000	 1.2872836668e-001
 2.4869984831e-001	 2.2865144621e+000	 1.3588840550e-001
 2.2765765163e-001	 2.2887053095e+000	 1.4113593677e-001
 2.0666520717e-001	 2.2906962898e+000	 1.4390441774e-001
 4.2306409689e-001	 2.2861849816e+000	 6.5553414929e-002
 4.0148686640e-001	 2.2900727709e+000	 8.1172718528e-002
 3.7993816422e-001	 2.2937462788e+000	 9.6217053949e-002
 3.5842086805e-001	 2.2972068869e+000	 1.1085028616e-001
 3.3693781201e-001	 2.3004560224e+000	 1.2511532794e-001
 3.1549178591e-001	 2.3034951558e+000	 1.3893753173e-001
 2.9408553462e-001	 2.3063258005e+000	 1.5212824031e-001
 2.7272175745e-001	 2.3089495107e+000	 1.6438848309e-001
 2.5140310753e-001	 2.3113678802e+000	 1.7531280495e-001
 2.3013219132e-001	 2.3135825411e+000	 1.8439321457e-001
 2.0891156812e-001	 2.3155951625e+000	 1.9102323932e-001
 4.2761317319e-001	 2.3107676158e+000	 4.9519419602e-002
 4.0580392948e-001	 2.3146972093e+000	 6.7553584578e-002
 3.8402352083e-001	 2.3184102172e+000	 8.5442363214e-002
 3.6227485588e-001	 2.3219080362e+000	 1.0332815481e-001
 3.4056079923e-001	 2.3251921086e+000	 1.2122912378e-001
 3.1888417070e-001	 2.3282639210e+000	 1.3904270838e-001
 2.9724774467e-001	 2.3311250027e+000	 1.5654929237e-001
 2.7565424947e-001	 2.3337769248e+000	 1.7341602611e-001
 2.5410636675e-001	 2.3362212982e+000	 1.8920078358e-001
 2.3260673101e-001	 2.3384597727e+000	 2.0335624183e-001
 2.1115792906e-001	 2.3404940352e+000	 2.1523406959e-001
 4.3216224950e-001	 2.3353502500e+000	 3.7463710367e-003
 4.1012099256e-001	 2.3393216477e+000	 2.4265599298e-002
 3.8810887743e-001	 2.3430741557e+000	 4.5224793778e-002
 3.6612884371e-001	 2.3466091856e+000	 6.6743983690e-002
 3.4418378646e-001	 2.3499281949e+000	 8.8815517372e-002
 3.2227655550e-001	 2.3530326861e+000	 1.1130769243e-001
 3.0040995472e-001	 2.3559242049e+000	 1.3396855317e-001
 2.7858674148e-001	 2.3586043389e+000	 1.5642984140e-001
 2.5680962597e-001	 2.3610747163e+000	 1.7821108660e-001
 2.3508127071e-001	 2.3633370043e+000	 1.9872382166e-001
 2.1340429001e-001	 2.3653929079e+000	 2.1727591039e-001
 4.3671132581e-001	 2.3599328842e+000	-7.1452042454e-002
 4.1443805563e-001	 2.3639460861e+000	-4.8340580921e-002
 3.9219423403e-001	 2.3677380942e+000	-2.4047706928e-002
 3.6998283154e-001	 2.3713103349e+000	 1.5233222725e-003
 3.4780677368e-001	 2.3746642811e+000	 2.8337958285e-002
 3.2566894029e-001	 2.3778014512e+000	 5.6234117783e-002
 3.0357216477e-001	 2.3807234070e+000	 8.4926110512e-002
 2.8151923350e-001	 2.3834317530e+000	 1.1400872468e-001
 2.5951288519e-001	 2.3859281344e+000	 1.4296145538e-001
 2.3755581040e-001	 2.3882142360e+000	 1.7115286170e-001
 2.1565065096e-001	 2.3902917807e+000	 1.9784503846e-001
 4.4126040212e-001	 2.3845155184e+000	-1.7579211660e-001
 4.1875511871e-001	 2.3885705245e+000	-1.4994560622e-001
 3.9627959064e-001	 2.3924020327e+000	-1.2201976060e-001
 3.7383681936e-001	 2.3960114842e+000	-9.1942051824e-002
 3.5142976091e-001	 2.3994003674e+000	-5.9775018649e-002
 3.2906132508e-001	 2.4025702163e+000	-2.5712379519e-002
 3.0673437482e-001	 2.4055226092e+000	 9.9250308096e-003
 2.8445172551e-001	 2.4082591671e+000	 4.6693486239e-002
 2.6221614441e-001	 2.4107815524e+000	 8.4030741045e-002
 2.4003035009e-001	 2.4130914676e+000	 1.2126053363e-001
 2.1789701191e-001	 2.4151906534e+000	 1.5759720772e-001
 4.4580947843e-001	 2.4090981526e+000	-3.0901860136e-001
 4.2307218179e-001	 2.4131949629e+000	-2.8025983600e-001
 4.0036494724e-001	 2.4170659712e+000	-2.4836689636e-001
 3.7769080719e-001	 2.4207126335e+000	-2.1329240977e-001
 3.5505274813e-001	 2.4241364537e+000	-1.7512801196e-001
 3.3245370987e-001	 2.4273389814e+000	-1.3410032471e-001
 3.0989658487e-001	 2.4303218113e+000	-9.0566752108e-002
 2.8738421752e-001	 2.4330865812e+000	-4.5011111114e-002
 2.6491940363e-001	 2.4356349705e+000	 1.9608886609e-003
 2.4250488978e-001	 2.4379686992e+000	 4.9626300542e-002
 2.2014337286e-001	 2.4400895261e+000	 9.7149716814e-002
 4.5035855474e-001	 2.4336807868e+000	-4.7090326388e-001
 4.2738924487e-001	 2.4378194013e+000	-4.3902183845e-001
 4.0445030384e-001	 2.4417299097e+000	-4.0279398980e-001
 3.8154479501e-001	 2.4454137828e+000	-3.6219845288e-001
 3.5867573535e-001	 2.4488725399e+000	-3.1735708016e-001
 3.3584609467e-001	 2.4521077465e+000	-2.6853067895e-001
 3.1305879491e-001	 2.4551210135e+000	-2.1611466260e-001
 2.9031670954e-001	 2.4579139953e+000	-1.6063453141e-001
 2.6762266285e-001	 2.4604883886e+000	-1.0274119880e-001
 2.4497942947e-001	 2.4628459308e+000	-4.3206178584e-002
 2.2238973381e-001	 2.4649883988e+000	 1.7083351245e-002
 4.5490763105e-001	 2.4582634210e+000	-6.6124353758e-001
 4.3170630795e-001	 2.4624438397e+000	-6.2599698012e-001
 4.0853566044e-001	 2.4663938481e+000	-5.8503379562e-001
 3.8539878284e-001	 2.4701149322e+000	-5.3835979116e-001
 3.6229872257e-001	 2.4736086262e+000	-4.8612816871e-001
 3.3923847946e-001	 2.4768765117e+000	-4.2863521755e-001
 3.1622100496e-001	 2.4799202156e+000	-3.6631581532e-001
 2.9324920155e-001	 2.4827414094e+000	-2.9973875422e-001
 2.7032592207e-001	 2.4853418066e+000	-2.2960190838e-001
 2.4745396916e-001	 2.4877231625e+000	-1.5672725869e-001
 2.2463609475e-001	 2.4898872715e+000	-8.2055790936e-002
 2.0217248527e-001	 2.2408985444e+000	-2.2241074065e-002
 1.8168749959e-001	 2.2426523700e+000	-7.0820162525e-002
 1.6125599940e-001	 2.2442140055e+000	-1.1097123137e-001
 1.4088032204e-001	 2.2455851654e+000	-1.4337623412e-001
 1.2056275773e-001	 2.2467675940e+000	-1.6880468278e-001
 1.0030554932e-001	 2.2477630651e+000	-1.8810942636e-001
 8.0110891976e-002	 2.2485733799e+000	-2.0222238934e-001
 5.9980933064e-002	 2.2492003663e+000	-2.1215028092e-001
 3.9917771955e-002	 2.2496458769e+000	-2.1897028560e-001
 1.9923459911e-002	 2.2499117884e+000	-2.2382574504e-001
 0.0000000000e+000	 2.2500000000e+000	-2.2792184132e-001
 2.0441884622e-001	 2.2657974171e+000	 7.3093530343e-002
 1.8370624959e-001	 2.2675707296e+000	 3.2917978371e-002
 1.6304773272e-001	 2.2691497167e+000	-1.0204057198e-004
 1.4244565895e-001	 2.2705361116e+000	-2.6697624724e-002
 1.2190234393e-001	 2.2717316784e+000	-4.7688217737e-002
 1.0142005542e-001	 2.2727382103e+000	-6.3977275134e-002
 8.1001012998e-002	 2.2735575286e+000	-7.6547891111e-002
 6.0647387876e-002	 2.2741914815e+000	-8.6458396738e-002
 4.0361302754e-002	 2.2746419422e+000	-9.4837940321e-002
 2.0144831687e-002	 2.2749108083e+000	-1.0288206033e-001
 0.0000000000e+000	 2.2750000000e+000	-1.1184826090e-001
 2.0666520717e-001	 2.2906962898e+000	 1.4390441774e-001
 1.8572499959e-001	 2.2924890893e+000	 1.1277773005e-001
 1.6483946605e-001	 2.2940854279e+000	 8.7696287168e-002
 1.4401099586e-001	 2.2954870579e+000	 6.7877664540e-002
 1.2324193013e-001	 2.2966957628e+000	 5.2450181052e-002
 1.0253456153e-001	 2.2977133554e+000	 4.0457350249e-002
 8.1891134020e-002	 2.2985416773e+000	 3.0862370857e-002
 6.1313842688e-002	 2.2991825966e+000	 2.2552645291e-002
 4.0804833554e-002	 2.2996380075e+000	 1.4344315117e-002
 2.0366203464e-002	 2.2999098282e+000	 4.9868028323e-003
 0.0000000000e+000	 2.3000000000e+000	-6.8326503489e-003
 2.0891156812e-001	 2.3155951625e+000	 1.9102323932e-001
 1.8774374958e-001	 2.3174074490e+000	 1.6965853166e-001
 1.6663119938e-001	 2.3190211390e+000	 1.5339022851e-001
 1.4557633277e-001	 2.3204380042e+000	 1.4138237629e-001
 1.2458151633e-001	 2.3216598471e+000	 1.3270872951e-001
 1.0364906763e-001	 2.3226885006e+000	 1.2635732531e-001
 8.2781255043e-002	 2.3235258259e+000	 1.2123509691e-001
 6.1980297500e-002	 2.3241737118e+000	 1.1617251458e-001
 4.1248364354e-002	 2.3246340728e+000	 1.0992824260e-001
 2.0587575241e-002	 2.3249088481e+000	 1.0119380142e-001
 0.0000000000e+000	 2.3250000000e+000	 8.8598224486e-002
 2.1115792906e-001	 2.3404940352e+000	 2.1523406959e-001
 1.8976249958e-001	 2.3423258086e+000	 2.0441029270e-001
 1.6842293271e-001	 2.3439568502e+000	 1.9789487653e-001
 1.4714166968e-001	 2.3453889505e+000	 1.9479611446e-001
 1.2592110253e-001	 2.3466239315e+000	 1.9413084830e-001
 1.0476357374e-001	 2.3476636458e+000	 1.9482917180e-001
 8.3671376066e-002	 2.3485099746e+000	 1.9573917284e-001
 6.2646752313e-002	 2.3491648270e+000	 1.9563170243e-001
 4.1691895154e-002	 2.3496301381e+000	 1.9320515903e-001
 2.0808947019e-002	 2.3499078679e+000	 1.8709027676e-001
 0.0000000000e+000	 2.3500000000e+000	 1.7585490695e-001
 2.1340429001e-001	 2.3653929079e+000	 2.1727591039e-001
 1.9178124958e-001	 2.3672441683e+000	 2.1783599975e-001
 1.7021466604e-001	 2.3688925614e+000	 2.2207664509e-001
 1.4870700660e-001	 2.3703398968e+000	 2.2904814107e-001
 1.2726068872e-001	 2.3715880159e+000	 2.3770804675e-001
 1.0587807984e-001	 2.3726387909e+000	 2.4692602373e-001
 8.4561497090e-002	 2.3734941233e+000	 2.5548871277e-001
 6.3313207127e-002	 2.3741559422e+000	 2.6210463669e-001
 4.2135425955e-002	 2.3746262034e+000	 2.6540911769e-001
 2.1030318796e-002	 2.3749068878e+000	 2.6396919743e-001
 0.0000000000e+000	 2.3750000000e+000	 2.5628854908e-001
 2.1565065096e-001	 2.3902917807e+000	 1.9784503846e-001
 1.9379999957e-001	 2.3921625279e+000	 2.1069416047e-001
 1.7200639936e-001	 2.3938282726e+000	 2.2675580424e-001
 1.5027234351e-001	 2.3952908430e+000	 2.4501999820e-001
 1.2860027492e-001	 2.3965521003e+000	 2.6438262660e-001
 1.0699258595e-001	 2.3976139361e+000	 2.8365040792e-001
 8.5451618114e-002	 2.3984782719e+000	 3.0154591184e-001
 6.3979661940e-002	 2.3991470574e+000	 3.1671260171e-001
 4.2578956756e-002	 2.3996222687e+000	 3.2771989067e-001
 2.1251690574e-002	 2.3999059077e+000	 3.3306819954e-001
 0.0000000000e+000	 2.4000000000e+000	 3.3119400493e-001
 2.1789701191e-001	 2.4151906534e+000	 1.5759720772e-001
 1.9581874957e-001	 2.4170808876e+000	 1.8370109626e-001
 1.7379813269e-001	 2.4187639837e+000	 2.1270885875e-001
 1.5183768043e-001	 2.4202417893e+000	 2.4354796781e-001
 1.2993986112e-001	 2.4215161846e+000	 2.7505021845e-001
 1.0810709205e-001	 2.4225890813e+000	 3.0595685268e-001
 8.6341739139e-002	 2.4234624206e+000	 3.3492372246e-001
 6.4646116755e-002	 2.4241381725e+000	 3.6052647767e-001
 4.3022487557e-002	 2.4246183340e+000	 3.8126576693e-001
 2.1473062351e-002	 2.4249049275e+000	 3.9557243889e-001
 0.0000000000e+000	 2.4250000000e+000	 4.0181273250e-001
 2.2014337286e-001	 2.4400895261e+000	 9.7149716814e-002
 1.9783749957e-001	 2.4419992473e+000	 1.3753309466e-001
 1.7558986602e-001	 2.4436996949e+000	 1.8067078104e-001
 1.5340301734e-001	 2.4451927356e+000	 2.2542538088e-001
 1.3127944732e-001	 2.4464802690e+000	 2.7056216297e-001
 1.0922159816e-001	 2.4475642264e+000	 3.1475433668e-001
 8.7231860164e-002	 2.4484465693e+000	 3.5658836666e-001
 6.5312571569e-002	 2.4491292877e+000	 3.9456931229e-001
 4.3466018359e-002	 2.4496143993e+000	 4.2712617891e-001
 2.1694434129e-002	 2.4499039474e+000	 4.5261726854e-001
 0.0000000000e+000	 2.4500000000e+000	 4.6933551805e-001
 2.2238973381e-001	 2.4649883988e+000	 1.7083351245e-002
 1.9985624957e-001	 2.4669176069e+000	 7.2828431210e-002
 1.7738159935e-001	 2.4686354061e+000	 1.3133710878e-001
 1.5496835426e-001	 2.4701436819e+000	 1.9140478668e-001
 1.3261903353e-001	 2.4714443534e+000	 2.5172774774e-001
 1.1033610427e-001	 2.4725393716e+000	 3.1090858941e-001
 8.8121981189e-002	 2.4734307179e+000	 3.6746169625e-001
 6.5979026384e-002	 2.4741204029e+000	 4.1981873655e-001
 4.3909549161e-002	 2.4746104646e+000	 4.6633417011e-001
 2.1915805907e-002	 2.4749029673e+000	 5.0529075413e-001
 0.0000000000e+000	 2.4750000000e+000	 5.3490503525e-001
 2.2463609475e-001	 2.4898872715e+000	-8.2055790936e-002
 2.0187499956e-001	 2.4918359666e+000	-9.8107298737e-003
 1.7917333268e-001	 2.4935711173e+000	 6.5365916607e-002
 1.5653369117e-001	 2.4950946282e+000	 1.4219999187e-001
 1.3395861973e-001	 2.4964084378e+000	 2.1931630992e-001
 1.1145061038e-001	 2.4975145168e+000	 2.9524425372e-001
 8.9012102215e-002	 2.4984148666e+000	 3.6842341128e-001
 6.6645481200e-002	 2.4991115181e+000	 4.3720923554e-001
 4.4353079963e-002	 2.4996065299e+000	 4.9987871447e-001
 2.2137177686e-002	 2.4999019872e+000	 5.5463603822e-001
 0.0000000000e+000	 2.5000000000e+000	 5.9961825082e-001
 2.5000000000e+000	 0.0000000000e+000	 2.0217840672e+000
 2.4999019872e+000	 2.2137177686e-002	 2.0426133607e+000
 2.4996065299e+000	 4.4353079963e-002	 2.0619278766e+000
 2.4991115181e+000	 6.6645481200e-002	 2.0794980304e+000
 2.4984148666e+000	 8.9012102215e-002	 2.0950610970e+000
 2.4975145168e+000	 1.1145061038e-001	 2.1083203438e+000
 2.4964084378e+000	 1.3395861973e-001	 2.1189442043e+000
 2.4950946282e+000	 1.5653369117e-001	 2.1265654962e+000
 2.4935711173e+000	 1.7917333268e-001	 2.1307806868e+000
 2.4918359666e+000	 2.0187499956e-001	 2.1311492108e+000
 2.4898872715e+000	 2.2463609475e-001	 2.1271928432e+000
 2.5250000000e+000	 0.0000000000e+000	 1.9233799465e+000
 2.5249010070e+000	 2.2358549464e-002	 1.9390428515e+000
 2.5246025952e+000	 4.4796610765e-002	 1.9485384998e+000
 2.5241026333e+000	 6.7311936015e-002	 1.9514331012e+000
 2.5233990153e+000	 8.9902223242e-002	 1.9473705020e+000
 2.5224896619e+000	 1.1256511648e-001	 1.9360738914e+000
 2.5213725222e+000	 1.3529820593e-001	 1.9173473747e+000
 2.5200455744e+000	 1.5809902809e-001	 1.8910774038e+000
 2.5185068284e+000	 1.8096506601e-001	 1.8572340579e+000
 2.5167543263e+000	 2.0389374956e-001	 1.8158721682e+000
 2.5147861442e+000	 2.2688245570e-001	 1.7671322769e+000
 2.5500000000e+000	 0.0000000000e+000	 1.8217326218e+000
 2.5499000269e+000	 2.2579921242e-002	 1.8367701568e+000
 2.5495986605e+000	 4.5240141567e-002	 1.8463867462e+000
 2.5490937484e+000	 6.7978390830e-002	 1.8502481799e+000
 2.5483831639e+000	 9.0792344267e-002	 1.8481013547e+000
 2.5474648071e+000	 1.1367962259e-001	 1.8397759479e+000
 2.5463366065e+000	 1.3663779213e-001	 1.8251859496e+000
 2.5449965207e+000	 1.5966436500e-001	 1.8043310458e+000
 2.5434425396e+000	 1.8275679934e-001	 1.7772978434e+000
 2.5416726859e+000	 2.0591249956e-001	 1.7442609300e+000
 2.5396850170e+000	 2.2912881665e-001	 1.7054837614e+000
 2.5750000000e+000	 0.0000000000e+000	 1.7174400910e+000
 2.5748990468e+000	 2.2801293020e-002	 1.7336524564e+000
 2.5745947258e+000	 4.5683672368e-002	 1.7450953102e+000
 2.5740848636e+000	 6.8644845644e-002	 1.7515334110e+000
 2.5733673126e+000	 9.1682465292e-002	 1.7528161848e+000
 2.5724399523e+000	 1.1479412870e-001	 1.7488793683e+000
 2.5713006909e+000	 1.3797737833e-001	 1.7397465029e+000
 2.5699474670e+000	 1.6122970192e-001	 1.7255302711e+000
 2.5683782508e+000	 1.8454853267e-001	 1.7064336674e+000
 2.5665910456e+000	 2.0793124956e-001	 1.6827509958e+000
 2.5645838897e+000	 2.3137517760e-001	 1.6548686860e+000
 2.6000000000e+000	 0.0000000000e+000	 1.6110773521e+000
 2.5998980666e+000	 2.3022664798e-002	 1.6301460259e+000
 2.5995907911e+000	 4.6127203170e-002	 1.6450016166e+000
 2.5990759788e+000	 6.9311300459e-002	 1.6555072935e+000
 2.5983514613e+000	 9.2572586317e-002	 1.6616145462e+000
 2.5974150974e+000	 1.1590863480e-001	 1.6633647993e+000
 2.5962647753e+000	 1.3931696453e-001	 1.6608908693e+000
 2.5948984133e+000	 1.6279503883e-001	 1.6544182570e+000
 2.5933139620e+000	 1.8634026600e-001	 1.6442662658e+000
 2.5915094053e+000	 2.0994999955e-001	 1.6308489377e+000
 2.5894827624e+000	 2.3362153855e-001	 1.6146758003e+000
 2.6250000000e+000	 0.0000000000e+000	 1.5031974984e+000
 2.6248970865e+000	 2.3244036575e-002	 1.5266881816e+000
 2.6245868564e+000	 4.6570733970e-002	 1.5464270411e+000
 2.6240670940e+000	 6.9977755272e-002	 1.5623751514e+000
 2.6233356099e+000	 9.3462707341e-002	 1.5745856538e+000
 2.6223902426e+000	 1.1702314091e-001	 1.5832053440e+000
 2.6212288597e+000	 1.4065655073e-001	 1.5884760945e+000
 2.6198493596e+000	 1.6436037574e-001	 1.5907361044e+000
 2.6182496731e+000	 1.8813199933e-001	 1.5904209661e+000
 2.6164277650e+000	 2.1196874955e-001	 1.5880645420e+000
 2.6143816351e+000	 2.3586789950e-001	 1.5842996432e+000
 2.6500000000e+000	 0.0000000000e+000	 1.3943327519e+000
 2.6498961064e+000	 2.3465408353e-002	 1.4236981751e+000
 2.6495829217e+000	 4.7014264771e-002	 1.4496776679e+000
 2.6490582092e+000	 7.0644210086e-002	 1.4723297553e+000
 2.6483197586e+000	 9.4352828365e-002	 1.4918088706e+000
 2.6473653878e+000	 1.1813764702e-001	 1.5083669180e+000
 2.6461929440e+000	 1.4199613693e-001	 1.5223546619e+000
 2.6448003059e+000	 1.6592571266e-001	 1.5342229358e+000
 2.6431853843e+000	 1.8992373266e-001	 1.5445236593e+000
 2.6413461246e+000	 2.1398749955e-001	 1.5539106571e+000
 2.6392805078e+000	 2.3811426044e-001	 1.5631402701e+000
 2.6750000000e+000	 0.0000000000e+000	 1.2849954383e+000
 2.6748951263e+000	 2.3686780130e-002	 1.3215780376e+000
 2.6745789870e+000	 4.7457795571e-002	 1.3550450042e+000
 2.6740493244e+000	 7.1310664899e-002	 1.3855519090e+000
 2.6733039073e+000	 9.5242949388e-002	 1.4133541686e+000
 2.6723405329e+000	 1.1925215312e-001	 1.4388085852e+000
 2.6711570284e+000	 1.4333572313e-001	 1.4623747051e+000
 2.6697512521e+000	 1.6749104957e-001	 1.4846159874e+000
 2.6681210955e+000	 1.9171546598e-001	 1.5062007740e+000
 2.6662644843e+000	 2.1600624954e-001	 1.5279030509e+000
 2.6641793805e+000	 2.4036062139e-001	 1.5506029946e+000
 2.7000000000e+000	 0.0000000000e+000	 1.1756789084e+000
 2.6998941461e+000	 2.3908151907e-002	 1.2207133766e+000
 2.6995750523e+000	 4.7901326371e-002	 1.2628066549e+000
 2.6990404395e+000	 7.1977119711e-002	 1.3022110033e+000
 2.6982880559e+000	 9.6133070411e-002	 1.3392825630e+000
 2.6973156781e+000	 1.2036665923e-001	 1.3744828750e+000
 2.6961211128e+000	 1.4467530933e-001	 1.4083802096e+000
 2.6947021984e+000	 1.6905638648e-001	 1.4416506970e+000
 2.6930568066e+000	 1.9350719931e-001	 1.4750792511e+000
 2.6911828440e+000	 2.1802499954e-001	 1.5095602755e+000
 2.6890782533e+000	 2.4260698234e-001	 1.5460981452e+000
 2.7250000000e+000	 0.0000000000e+000	 1.0668584082e+000
 2.7248931660e+000	 2.4129523684e-002	 1.1214741296e+000
 2.7245711176e+000	 4.8344857171e-002	 1.1732269604e+000
 2.7240315547e+000	 7.2643574523e-002	 1.2224655399e+000
 2.7232722046e+000	 9.7023191433e-002	 1.2696465236e+000
 2.7222908233e+000	 1.2148116533e-001	 1.3153360821e+000
 2.7210851972e+000	 1.4601489552e-001	 1.3602112030e+000
 2.7196531447e+000	 1.7062172340e-001	 1.4050607859e+000
 2.7179925178e+000	 1.9529893264e-001	 1.4507865205e+000
 2.7161012036e+000	 2.2004374954e-001	 1.4984035393e+000
 2.7139771260e+000	 2.4485334329e-001	 1.5490408355e+000
 2.7500000000e+000	 0.0000000000e+000	 9.5899190215e-001
 2.7498921859e+000	 2.4350895461e-002	 1.0242152767e+000
 2.7495671829e+000	 4.8788387970e-002	 1.0865575994e+000
 2.7490226699e+000	 7.3310029335e-002	 1.1464636260e+000
 2.7482563533e+000	 9.7913312455e-002	 1.2044903629e+000
 2.7472659684e+000	 1.2259567143e-001	 1.2613085497e+000
 2.7460492816e+000	 1.4735448172e-001	 1.3177039352e+000
 2.7446040910e+000	 1.7218706031e-001	 1.3745783374e+000
 2.7429282290e+000	 1.9709066597e-001	 1.4329504788e+000
 2.7410195633e+000	 2.2206249953e-001	 1.4939565863e+000
 2.7388759987e+000	 2.4709970424e-001	 1.5588507467e+000
 2.4898872715e+000	 2.2463609475e-001	 2.1271928432e+000
 2.4877231625e+000	 2.4745396916e-001	 2.1239007543e+000
 2.4853418066e+000	 2.7032592207e-001	 2.1184596680e+000
 2.4827414094e+000	 2.9324920155e-001	 2.1102527195e+000
 2.4799202156e+000	 3.1622100496e-001	 2.0986194056e+000
 2.4768765117e+000	 3.3923847946e-001	 2.0828552151e+000
 2.4736086262e+000	 3.6229872257e-001	 2.0622113380e+000
 2.4701149322e+000	 3.8539878284e-001	 2.0358944587e+000
 2.4663938481e+000	 4.0853566044e-001	 2.0030666359e+000
 2.4624438397e+000	 4.3170630795e-001	 1.9628452733e+000
 2.4582634210e+000	 4.5490763105e-001	 1.9143031834e+000
 2.5147861442e+000	 2.2688245570e-001	 1.7671322769e+000
 2.5126003941e+000	 2.4992850885e-001	 1.7134015307e+000
 2.5101952247e+000	 2.7302918129e-001	 1.6538900815e+000
 2.5075688234e+000	 2.9618169356e-001	 1.5889402549e+000
 2.5047194178e+000	 3.1938321501e-001	 1.5189792104e+000
 2.5016452768e+000	 3.4263086425e-001	 1.4445189628e+000
 2.4983447125e+000	 3.6592170980e-001	 1.4077502042e+000
 2.4948160815e+000	 3.8925277066e-001	 1.4101886947e+000
 2.4910577866e+000	 4.1262101704e-001	 1.4083674701e+000
 2.4870682781e+000	 4.3602337102e-001	 1.4014343558e+000
 2.4828460553e+000	 4.5945670736e-001	 1.3884905609e+000
 2.5396850170e+000	 2.2912881665e-001	 1.7054837614e+000
 2.5374776257e+000	 2.5240304855e-001	 1.6594980974e+000
 2.5350486428e+000	 2.7573244051e-001	 1.6074735679e+000
 2.5323962375e+000	 2.9911418558e-001	 1.5498481478e+000
 2.5295186200e+000	 3.2254542506e-001	 1.4871485802e+000
 2.5264140419e+000	 3.4602324904e-001	 1.4199903392e+000
 2.5230807987e+000	 3.6954469702e-001	 1.3490773850e+000
 2.5195172308e+000	 3.9310675849e-001	 1.2752017039e+000
 2.5157217251e+000	 4.1670637365e-001	 1.1992426284e+000
 2.5116927165e+000	 4.4034043410e-001	 1.1221659344e+000
 2.5074286895e+000	 4.6400578367e-001	 1.0450227102e+000
 2.5645838897e+000	 2.3137517760e-001	 1.6548686860e+000
 2.5623548573e+000	 2.5487758824e-001	 1.6168459355e+000
 2.5599020608e+000	 2.7843569973e-001	 1.5724688257e+000
 2.5572236516e+000	 3.0204667759e-001	 1.5222719687e+000
 2.5543178221e+000	 3.2570763510e-001	 1.4668827694e+000
 2.5511828070e+000	 3.4941563383e-001	 1.4070213317e+000
 2.5478168850e+000	 3.7316768424e-001	 1.3435001478e+000
 2.5442183801e+000	 3.9696074632e-001	 1.2772235627e+000
 2.5403856636e+000	 4.2079173025e-001	 1.2091870095e+000
 2.5363171549e+000	 4.4465749718e-001	 1.1404760127e+000
 2.5320113237e+000	 4.6855485998e-001	 1.0722649523e+000
 2.5894827624e+000	 2.3362153855e-001	 1.6146758003e+000
 2.5872320890e+000	 2.5735212793e-001	 1.5847341857e+000
 2.5847554789e+000	 2.8113895895e-001	 1.5480647232e+000
 2.5820510657e+000	 3.0497916961e-001	 1.5052996986e+000
 2.5791170243e+000	 3.2886984515e-001	 1.4571683077e+000
 2.5759515721e+000	 3.5280801863e-001	 1.4044965074e+000
 2.5725529713e+000	 3.7679067147e-001	 1.3482066368e+000
 2.5689195295e+000	 4.0081473414e-001	 1.2893168069e+000
 2.5650496021e+000	 4.2487708685e-001	 1.2289400506e+000
 2.5609415933e+000	 4.4897456026e-001	 1.1682832299e+000
 2.5565939579e+000	 4.7310393629e-001	 1.1086456965e+000
 2.6143816351e+000	 2.3586789950e-001	 1.5842996432e+000
 2.6121093206e+000	 2.5982666762e-001	 1.5624596265e+000
 2.6096088970e+000	 2.8384221817e-001	 1.5334596078e+000
 2.6068784798e+000	 3.0791166162e-001	 1.4980306310e+000
 2.6039162264e+000	 3.3203205520e-001	 1.4570048633e+000
 2.6007203373e+000	 3.5620040342e-001	 1.4113153878e+000
 2.5972890575e+000	 3.8041365869e-001	 1.3619957592e+000
 2.5936206788e+000	 4.0466872197e-001	 1.3101793163e+000
 2.5897135406e+000	 4.2896244345e-001	 1.2570982461e+000
 2.5855660317e+000	 4.5329162333e-001	 1.2040823955e+000
 2.5811765921e+000	 4.7765301260e-001	 1.1525578252e+000
 2.6392805078e+000	 2.3811426044e-001	 1.5631402701e+000
 2.6369865522e+000	 2.6230120731e-001	 1.5493263138e+000
 2.6344623150e+000	 2.8654547739e-001	 1.5278608585e+000
 2.6317058939e+000	 3.1084415364e-001	 1.4995748392e+000
 2.6287154286e+000	 3.3519426525e-001	 1.4654046228e+000
 2.6254891024e+000	 3.5959278821e-001	 1.4263917437e+000
 2.6220251438e+000	 3.8403664592e-001	 1.3836823924e+000
 2.6183218281e+000	 4.0852270980e-001	 1.3385266508e+000
 2.6143774790e+000	 4.3304780006e-001	 1.2922774705e+000
 2.6101904701e+000	 4.5760868641e-001	 1.2463893860e+000
 2.6057592263e+000	 4.8220208891e-001	 1.2024169625e+000
 2.6641793805e+000	 2.4036062139e-001	 1.5506029946e+000
 2.6618637839e+000	 2.6477574700e-001	 1.5446452407e+000
 2.6593157331e+000	 2.8924873661e-001	 1.5304844646e+000
 2.6565333080e+000	 3.1377664565e-001	 1.5090526718e+000
 2.6535146308e+000	 3.3835647530e-001	 1.4813917064e+000
 2.6502578675e+000	 3.6298517301e-001	 1.4486529288e+000
 2.6467612300e+000	 3.8765963314e-001	 1.4120966371e+000
 2.6430229774e+000	 4.1237669763e-001	 1.3730912251e+000
 2.6390414175e+000	 4.3713315666e-001	 1.3331120723e+000
 2.6348149085e+000	 4.6192574949e-001	 1.2937401604e+000
 2.6303418605e+000	 4.8675116522e-001	 1.2566604116e+000
 2.6890782533e+000	 2.4260698234e-001	 1.5460981452e+000
 2.6867410155e+000	 2.6725028670e-001	 1.5477340163e+000
 2.6841691512e+000	 2.9195199583e-001	 1.5405546263e+000
 2.6813607221e+000	 3.1670913767e-001	 1.5255942772e+000
 2.6783138329e+000	 3.4151868535e-001	 1.5040016154e+000
 2.6750266326e+000	 3.6637755780e-001	 1.4770392513e+000
 2.6714973163e+000	 3.9128262037e-001	 1.4460831132e+000
 2.6677241268e+000	 4.1623068545e-001	 1.4126215272e+000
 2.6637053560e+000	 4.4121851326e-001	 1.3782540189e+000
 2.6594393469e+000	 4.6624281257e-001	 1.3446898306e+000
 2.6549244947e+000	 4.9130024153e-001	 1.3137461506e+000
 2.7139771260e+000	 2.4485334329e-001	 1.5490408355e+000
 2.7116182471e+000	 2.6972482639e-001	 1.5579165624e+000
 2.7090225692e+000	 2.9465525505e-001	 1.5573033785e+000
 2.7061881362e+000	 3.1964162968e-001	 1.5483391542e+000
 2.7031130351e+000	 3.4468089540e-001	 1.5322807101e+000
 2.6997953977e+000	 3.6976994260e-001	 1.5105033795e+000
 2.6962334026e+000	 3.9490560759e-001	 1.4845002934e+000
 2.6924252761e+000	 4.2008467328e-001	 1.4558813823e+000
 2.6883692945e+000	 4.4530386987e-001	 1.4263720883e+000
 2.6840637853e+000	 4.7055987565e-001	 1.3978117827e+000
 2.6795071290e+000	 4.9584931784e-001	 1.3721518847e+000
 2.7388759987e+000	 2.4709970424e-001	 1.5588507467e+000
 2.7364954787e+000	 2.7219936608e-001	 1.5745228264e+000
 2.7338759873e+000	 2.9735851428e-001	 1.5799702348e+000
 2.7310155503e+000	 3.2257412170e-001	 1.5764357270e+000
 2.7279122372e+000	 3.4784310545e-001	 1.5652857165e+000
 2.7245641628e+000	 3.7316232739e-001	 1.5480097800e+000
 2.7209694888e+000	 3.9852859482e-001	 1.5262198736e+000
 2.7171264254e+000	 4.2393866111e-001	 1.5016492547e+000
 2.7130332330e+000	 4.4938922647e-001	 1.4761511051e+000
 2.7086882237e+000	 4.7487693873e-001	 1.4516968468e+000
 2.7040897632e+000	 5.0039839415e-001	 1.4303741491e+000
 2.4582634210e+000	 4.5490763105e-001	 1.9143031834e+000
 2.4538511564e+000	 4.7813648941e-001	 1.8981733957e+000
 2.4492056613e+000	 5.0138969748e-001	 1.8872765125e+000
 2.4443256044e+000	 5.2466402543e-001	 1.8806183181e+000
 2.4392097087e+000	 5.4795620010e-001	 1.8771483618e+000
 2.4338567526e+000	 5.7126290603e-001	 1.8757602296e+000
 2.4282655721e+000	 5.9458078647e-001	 1.8752919343e+000
 2.4224350612e+000	 6.1790644450e-001	 1.8745264287e+000
 2.4163641743e+000	 6.4123644421e-001	 1.7434370738e+000
 2.4100519264e+000	 6.6456731185e-001	 1.5163894725e+000
 2.4034973955e+000	 6.8789553712e-001	 1.2439844201e+000
 2.4828460553e+000	 4.5945670736e-001	 1.3884905609e+000
 2.4783896679e+000	 4.8291785430e-001	 1.4079629548e+000
 2.4736977179e+000	 5.0640359445e-001	 1.4359465220e+000
 2.4687688605e+000	 5.2991066568e-001	 1.4714181557e+000
 2.4636018058e+000	 5.5343576211e-001	 1.5132944918e+000
 2.4581953202e+000	 5.7697553510e-001	 1.5604321468e+000
 2.4525482278e+000	 6.0052659434e-001	 1.6116280794e+000
 2.4466594119e+000	 6.2408550895e-001	 1.6656200817e+000
 2.4405278160e+000	 6.4764880865e-001	 1.5331377514e+000
 2.4341524457e+000	 6.7121298497e-001	 1.3467594213e+000
 2.4275323694e+000	 6.9477449249e-001	 1.1143430618e+000
 2.5074286895e+000	 4.6400578367e-001	 1.0450227102e+000
 2.5029281795e+000	 4.8769921920e-001	 1.0039105046e+000
 2.4981897745e+000	 5.1141749143e-001	 1.0148044897e+000
 2.4932121165e+000	 5.3515730594e-001	 1.0929527929e+000
 2.4879939028e+000	 5.5891532411e-001	 1.1807158081e+000
 2.4825338877e+000	 5.8268816416e-001	 1.2769123056e+000
 2.4768308835e+000	 6.0647240220e-001	 1.3802972821e+000
 2.4708837625e+000	 6.3026457340e-001	 1.4497583296e+000
 2.4646914578e+000	 6.5406117310e-001	 1.3512249161e+000
 2.4582529650e+000	 6.7785865809e-001	 1.2045914730e+000
 2.4515673434e+000	 7.0165344787e-001	 1.0111069335e+000
 2.5320113237e+000	 4.6855485998e-001	 1.0722649523e+000
 2.5274666911e+000	 4.9248058409e-001	 1.0343517354e+000
 2.5226818311e+000	 5.1643138840e-001	 1.0177690419e+000
 2.5176553726e+000	 5.4040394619e-001	 1.0238628022e+000
 2.5123859999e+000	 5.6439488611e-001	 1.0540423081e+000
 2.5068724552e+000	 5.8840079322e-001	 1.1097774998e+000
 2.5011135392e+000	 6.1241821007e-001	 1.1925960224e+000
 2.4951081131e+000	 6.3644363785e-001	 1.2559256050e+000
 2.4888550995e+000	 6.6047353755e-001	 1.1971923966e+000
 2.4823534842e+000	 6.8450433122e-001	 1.0893826582e+000
 2.4756023173e+000	 7.0853240324e-001	 9.3377611913e-001
 2.5565939579e+000	 4.7310393629e-001	 1.1086456965e+000
 2.5520052026e+000	 4.9726194898e-001	 1.0715689597e+000
 2.5471738878e+000	 5.2144528538e-001	 1.0574487395e+000
 2.5420986286e+000	 5.4565058645e-001	 1.0677172050e+000
 2.5367780970e+000	 5.6987444812e-001	 1.1038713028e+000
 2.5312110227e+000	 5.9411342228e-001	 1.1674699065e+000
 2.5253961950e+000	 6.1836401794e-001	 1.2601307280e+000
 2.5193324637e+000	 6.4262270229e-001	 1.2408497986e+000
 2.5130187412e+000	 6.6688590199e-001	 1.1481387309e+000
 2.5064540035e+000	 6.9115000434e-001	 1.0280111227e+000
 2.4996372913e+000	 7.1541135862e-001	 8.8186883220e-001
 2.5811765921e+000	 4.7765301260e-001	 1.1525578252e+000
 2.5765437142e+000	 5.0204331388e-001	 1.1139089095e+000
 2.5716659444e+000	 5.2645918235e-001	 1.0997764192e+000
 2.5665418847e+000	 5.5089722670e-001	 1.1116813766e+000
 2.5611701941e+000	 5.7535401012e-001	 1.1512111031e+000
 2.5555495903e+000	 5.9982605134e-001	 1.2200162293e+000
 2.5496788507e+000	 6.2430982580e-001	 1.3198074586e+000
 2.5435568143e+000	 6.4880176674e-001	 1.2574271459e+000
 2.5371823830e+000	 6.7329826643e-001	 1.1640269030e+000
 2.5305545228e+000	 6.9779567746e-001	 1.0448079534e+000
 2.5236722653e+000	 7.2229031399e-001	 9.0018496110e-001
 2.6057592263e+000	 4.8220208891e-001	 1.2024169625e+000
 2.6010822257e+000	 5.0682467877e-001	 1.1597406074e+000
 2.5961580010e+000	 5.3147307933e-001	 1.1430750033e+000
 2.5909851407e+000	 5.5614386696e-001	 1.1540326844e+000
 2.5855622912e+000	 5.8083357212e-001	 1.1942941122e+000
 2.5798881578e+000	 6.0553868040e-001	 1.2656045427e+000
 2.5739615064e+000	 6.3025563367e-001	 1.3332779877e+000
 2.5677811649e+000	 6.5498083118e-001	 1.2640797364e+000
 2.5613460247e+000	 6.7971063087e-001	 1.1702550540e+000
 2.5546550420e+000	 7.0444135058e-001	 1.0521615509e+000
 2.5477072392e+000	 7.2916926936e-001	 9.1017879779e-001
 2.6303418605e+000	 4.8675116522e-001	 1.2566604116e+000
 2.6256207373e+000	 5.1160604366e-001	 1.2074543254e+000
 2.6206500576e+000	 5.3648697630e-001	 1.1856881965e+000
 2.6154283968e+000	 5.6139050721e-001	 1.1930687737e+000
 2.6099543883e+000	 5.8631313412e-001	 1.2313724679e+000
 2.6042267253e+000	 6.1125130946e-001	 1.3024420756e+000
 2.5982441621e+000	 6.3620144153e-001	 1.3320899094e+000
 2.5920055155e+000	 6.6115989563e-001	 1.2612447217e+000
 2.5855096665e+000	 6.8612299532e-001	 1.1673109422e+000
 2.5787555613e+000	 7.1108702369e-001	 1.0506109864e+000
 2.5717422132e+000	 7.3604822473e-001	 9.1148781396e-001
 2.6549244947e+000	 4.9130024153e-001	 1.3137461506e+000
 2.6501592489e+000	 5.1638740856e-001	 1.2554606012e+000
 2.6451421142e+000	 5.4150087327e-001	 1.2259795234e+000
 2.6398716528e+000	 5.6663714746e-001	 1.2271066278e+000
 2.6343464854e+000	 5.9179269612e-001	 1.2607171294e+000
 2.6285652928e+000	 6.1696393852e-001	 1.3287543244e+000
 2.6225268178e+000	 6.4214724939e-001	 1.3214581325e+000
 2.6162298662e+000	 6.6733896007e-001	 1.2493763056e+000
 2.6096733082e+000	 6.9253535976e-001	 1.1556987164e+000
 2.6028560806e+000	 7.1773269681e-001	 1.0407110227e+000
 2.5957771871e+000	 7.4292718010e-001	 9.0471802990e-001
 2.6795071290e+000	 4.9584931784e-001	 1.3721518847e+000
 2.6746977604e+000	 5.2116877345e-001	 1.3021893080e+000
 2.6696341708e+000	 5.4651477025e-001	 1.2623314193e+000
 2.6643149089e+000	 5.7188378771e-001	 1.2544816818e+000
 2.6587385825e+000	 5.9727225811e-001	 1.2806170135e+000
 2.6529038604e+000	 6.2267656758e-001	 1.3427842153e+000
 2.6468094736e+000	 6.4809305726e-001	 1.3018044784e+000
 2.6404542168e+000	 6.7351802451e-001	 1.2289449618e+000
 2.6338369500e+000	 6.9894772419e-001	 1.1359381632e+000
 2.6269565998e+000	 7.2437836993e-001	 1.0230313948e+000
 2.6198121611e+000	 7.4980613547e-001	 8.9048973712e-001
 2.7040897632e+000	 5.0039839415e-001	 1.4303741491e+000
 2.6992362720e+000	 5.2595013834e-001	 1.3460887764e+000
 2.6941262274e+000	 5.5152866722e-001	 1.2931443710e+000
 2.6887581649e+000	 5.7713042797e-001	 1.2735469835e+000
 2.6831306796e+000	 6.0275182011e-001	 1.2893781787e+000
 2.6772424279e+000	 6.2838919664e-001	 1.3277615974e+000
 2.6710921293e+000	 6.5403886512e-001	 1.2735668689e+000
 2.6646785674e+000	 6.7969708895e-001	 1.2004366944e+000
 2.6580005917e+000	 7.0536008863e-001	 1.1085639970e+000
 2.6510571191e+000	 7.3102404304e-001	 9.9815612893e-001
 2.6438471350e+000	 7.5668509084e-001	 8.6943684962e-001
 2.4034973955e+000	 6.8789553712e-001	 1.2439844201e+000
 2.3966997229e+000	 7.1121757443e-001	 1.1735830558e+000
 2.3896581153e+000	 7.3452984428e-001	 1.1015897429e+000
 2.3823718453e+000	 7.5782873460e-001	 1.0295953538e+000
 2.3748402530e+000	 7.8111060220e-001	 9.5932283929e-001
 2.3670627471e+000	 8.0437177429e-001	 8.9262640044e-001
 2.3590388060e+000	 8.2760854992e-001	 8.3149034143e-001
 2.3507679787e+000	 8.5081720161e-001	 7.7802759779e-001
 2.3422498860e+000	 8.7399397693e-001	 7.3447793660e-001
 2.3334842215e+000	 8.9713510015e-001	 7.0320582505e-001
 2.3244707527e+000	 9.2023677391e-001	 6.8669796515e-001
 2.4275323694e+000	 6.9477449249e-001	 1.1143430618e+000
 2.4206667202e+000	 7.1832975018e-001	 1.0701203968e+000
 2.4135546964e+000	 7.4187514273e-001	 1.0206239121e+000
 2.4061955637e+000	 7.6540702195e-001	 9.6745447363e-001
 2.3985886555e+000	 7.8892170823e-001	 9.1235122276e-001
 2.3907333746e+000	 8.1241549204e-001	 8.5719078829e-001
 2.3826291940e+000	 8.3588463542e-001	 8.0398616837e-001
 2.3742756584e+000	 8.5932537363e-001	 7.5488527651e-001
 2.3656723848e+000	 8.8273391670e-001	 7.1216914750e-001
 2.3568190637e+000	 9.0610645115e-001	 6.7824979969e-001
 2.3477154602e+000	 9.2943914165e-001	 6.5566775122e-001
 2.4515673434e+000	 7.0165344787e-001	 1.0111069335e+000
 2.4446337174e+000	 7.2544192593e-001	 9.9156655254e-001
 2.4374512776e+000	 7.4922044118e-001	 9.6299915397e-001
 2.4300192822e+000	 7.7298530930e-001	 9.2701761363e-001
 2.4223370580e+000	 7.9673281426e-001	 8.8537941912e-001
 2.4144040021e+000	 8.2045920978e-001	 8.3998592203e-001
 2.4062195821e+000	 8.4416072093e-001	 7.9288124789e-001
 2.3977833382e+000	 8.6783354565e-001	 7.4625085859e-001
 2.3890948837e+000	 8.9147385648e-001	 7.0241976256e-001
 2.3801539060e+000	 9.1507780216e-001	 6.6385036900e-001
 2.3709601677e+000	 9.3864150939e-001	 6.3313998353e-001
 2.4756023173e+000	 7.0853240324e-001	 9.3377611913e-001
 2.4686007146e+000	 7.3255410168e-001	 9.3743350132e-001
 2.4613478587e+000	 7.5656573962e-001	 9.2823751189e-001
 2.4538430006e+000	 7.8056359665e-001	 9.0781505271e-001
 2.4460854606e+000	 8.0454392028e-001	 8.7794411591e-001
 2.4380746295e+000	 8.2850292753e-001	 8.4055307510e-001
 2.4298099702e+000	 8.5243680643e-001	 7.9771962269e-001
 2.4212910180e+000	 8.7634171767e-001	 7.5166934733e-001
 2.4125173825e+000	 9.0021379625e-001	 7.0477394691e-001
 2.4034887482e+000	 9.2404915316e-001	 6.5954907298e-001
 2.3942048752e+000	 9.4784387714e-001	 6.1865180367e-001
 2.4996372913e+000	 7.1541135862e-001	 8.8186883220e-001
 2.4925677118e+000	 7.3966627743e-001	 9.0725007218e-001
 2.4852444399e+000	 7.6391103807e-001	 9.1587662245e-001
 2.4776667191e+000	 7.8814188400e-001	 9.0939142855e-001
 2.4698338631e+000	 8.1235502631e-001	 8.8959514835e-001
 2.4617452570e+000	 8.3654664528e-001	 8.5844548172e-001
 2.4534003582e+000	 8.6071289193e-001	 8.1805613414e-001
 2.4447986978e+000	 8.8484988969e-001	 7.7069540814e-001
 2.4359398814e+000	 9.0895373602e-001	 7.1878441747e-001
 2.4268235904e+000	 9.3302050416e-001	 6.6489491994e-001
 2.4174495828e+000	 9.5704624488e-001	 6.1174676560e-001
 2.5236722653e+000	 7.2229031399e-001	 9.0018496110e-001
 2.5165347091e+000	 7.4677845317e-001	 9.0779588583e-001
 2.5091410210e+000	 7.7125633651e-001	 9.1700632406e-001
 2.5014904375e+000	 7.9572017134e-001	 9.2805871000e-001
 2.4935822656e+000	 8.2016613233e-001	 9.1989487331e-001
 2.4854158845e+000	 8.4459036302e-001	 8.9322776727e-001
 2.4769907463e+000	 8.6898897743e-001	 8.5345590807e-001
 2.4683063776e+000	 8.9335806171e-001	 8.0289290845e-001
 2.4593623803e+000	 9.1769367579e-001	 7.4401203568e-001
 2.4501584326e+000	 9.4199185517e-001	 6.7944403084e-001
 2.4406942903e+000	 9.6624861262e-001	 6.1197453029e-001
 2.5477072392e+000	 7.2916926936e-001	 9.1017879779e-001
 2.5405017063e+000	 7.5389062892e-001	 9.0729140174e-001
 2.5330376022e+000	 7.7860163495e-001	 9.0465003186e-001
 2.5253141560e+000	 8.0329845869e-001	 9.0242962070e-001
 2.5173306682e+000	 8.2797723835e-001	 9.0081049206e-001
 2.5090865119e+000	 8.5263408076e-001	 8.9998004149e-001
 2.5005811343e+000	 8.7726506293e-001	 9.0013443765e-001
 2.4918140574e+000	 9.0186623372e-001	 8.4783448364e-001
 2.4827848791e+000	 9.2643361556e-001	 7.8002542334e-001
 2.4734932748e+000	 9.5096320617e-001	 7.0275930382e-001
 2.4639389978e+000	 9.7545098036e-001	 6.1889057769e-001
 2.5717422132e+000	 7.3604822473e-001	 9.1148781396e-001
 2.5644687035e+000	 7.6100280466e-001	 8.9800458299e-001
 2.5569341833e+000	 7.8594693340e-001	 8.8341296247e-001
 2.5491378744e+000	 8.1087674604e-001	 8.6781940957e-001
 2.5410790707e+000	 8.3578834438e-001	 8.5133662131e-001
 2.5327571394e+000	 8.6067779851e-001	 8.3408535313e-001
 2.5241715224e+000	 8.8554114843e-001	 8.1619625943e-001
 2.5153217372e+000	 9.1037440574e-001	 7.9781175044e-001
 2.5062073780e+000	 9.3517355533e-001	 7.7908785937e-001
 2.4968281170e+000	 9.5993455717e-001	 7.3441009746e-001
 2.4871837053e+000	 9.8465334810e-001	 6.3205593477e-001
 2.5957771871e+000	 7.4292718010e-001	 9.0471802990e-001
 2.5884357008e+000	 7.6811498040e-001	 8.8060072887e-001
 2.5808307645e+000	 7.9329223184e-001	 8.5401887164e-001
 2.5729615929e+000	 8.1845503338e-001	 8.2500942505e-001
 2.5648274732e+000	 8.4359945040e-001	 7.9361644977e-001
 2.5564277669e+000	 8.6872151625e-001	 7.5989305899e-001
 2.5477619105e+000	 8.9381723393e-001	 7.2390340049e-001
 2.5388294169e+000	 9.1888257776e-001	 6.8572465572e-001
 2.5296298768e+000	 9.4391349510e-001	 6.4544904992e-001
 2.5201629592e+000	 9.6890590817e-001	 6.0318586651e-001
 2.5104284129e+000	 9.9385571584e-001	 5.5906345921e-001
 2.6198121611e+000	 7.4980613547e-001	 8.9048973712e-001
 2.6124026980e+000	 7.7522715614e-001	 8.5575840287e-001
 2.6047273457e+000	 8.0063753028e-001	 8.1720378958e-001
 2.5967853113e+000	 8.2603332072e-001	 7.7479231829e-001
 2.5885758757e+000	 8.5141055642e-001	 7.2849836325e-001
 2.5800983944e+000	 8.7676523399e-001	 6.7830635317e-001
 2.5713522985e+000	 9.0209331943e-001	 6.2421289690e-001
 2.5623370967e+000	 9.2739074977e-001	 5.6622892723e-001
 2.5530523757e+000	 9.5265343487e-001	 5.0438185610e-001
 2.5434978015e+000	 9.7787725917e-001	 4.3871773453e-001
 2.5336731204e+000	 1.0030580836e+000	 3.6930341008e-001
 2.6438471350e+000	 7.5668509084e-001	 8.6943684962e-001
 2.6363696952e+000	 7.8233933189e-001	 8.2416882968e-001
 2.6286239268e+000	 8.0798282872e-001	 7.7371546304e-001
 2.6206090298e+000	 8.3361160807e-001	 7.1797152934e-001
 2.6123242783e+000	 8.5922166244e-001	 6.5684062651e-001
 2.6037690218e+000	 8.8480895173e-001	 5.9023741682e-001
 2.5949426866e+000	 9.1036940492e-001	 5.1808989863e-001
 2.5858447765e+000	 9.3589892178e-001	 4.4034169708e-001
 2.5764748746e+000	 9.6139337463e-001	 3.5695436692e-001
 2.5668326437e+000	 9.8684861017e-001	 2.6790970021e-001
 2.5569178279e+000	 1.0122604513e+000	 1.7321203164e-001
 2.3244707527e+000	 9.2023677391e-001	 6.8669796515e-001
 2.3152093213e+000	 9.4329518099e-001	 5.8531022519e-001
 2.3056998450e+000	 9.6630648602e-001	 4.8174290136e-001
 2.2959423174e+000	 9.8926683732e-001	 3.7919321440e-001
 2.2859368093e+000	 1.0121723687e+000	 2.8099299045e-001
 2.2756834694e+000	 1.0350192013e+000	 1.9060447087e-001
 2.2651825247e+000	 1.0578034457e+000	 1.1161575995e-001
 2.2544342814e+000	 1.0805212035e+000	 4.7735914661e-002
 2.2434391250e+000	 1.1031685694e+000	 2.7896816248e-003
 2.2321975215e+000	 1.1257416334e+000	-1.9288112361e-002
 2.2207100171e+000	 1.1482364826e+000	-1.4458508835e-002
 2.3477154602e+000	 9.2943914165e-001	 6.5566775122e-001
 2.3383614145e+000	 9.5272813280e-001	 5.6176639208e-001
 2.3287568434e+000	 9.7596955088e-001	 4.6698452284e-001
 2.3189017405e+000	 9.9915950569e-001	 3.7458312917e-001
 2.3087961774e+000	 1.0222940924e+000	 2.8795963348e-001
 2.2984403041e+000	 1.0453693934e+000	 2.1064358019e-001
 2.2878343500e+000	 1.0683814802e+000	 1.4629195115e-001
 2.2769786242e+000	 1.0913264155e+000	 9.8684115266e-002
 2.2658735162e+000	 1.1142002551e+000	 7.1716417905e-002
 2.2545194967e+000	 1.1369990498e+000	 6.9396416440e-002
 2.2429171172e+000	 1.1597188475e+000	 9.5836769797e-002
 2.3709601677e+000	 9.3864150939e-001	 6.3313998353e-001
 2.3615135077e+000	 9.6216108461e-001	 5.4348880577e-001
 2.3518138419e+000	 9.8563261575e-001	 4.5411920398e-001
 2.3418611637e+000	 1.0090521741e+000	 3.6835928649e-001
 2.3316555455e+000	 1.0324158161e+000	 2.8967560711e-001
 2.3211971388e+000	 1.0557195854e+000	 2.2166872308e-001
 2.3104861752e+000	 1.0789595146e+000	 1.6806837489e-001
 2.2995229670e+000	 1.1021316275e+000	 1.3272829231e-001
 2.2883079075e+000	 1.1252319408e+000	 1.1962063216e-001
 2.2768414719e+000	 1.1482564661e+000	 1.3283005484e-001
 2.2651242174e+000	 1.1712012123e+000	 1.7654744729e-001
 2.3942048752e+000	 9.4784387714e-001	 6.1865180367e-001
 2.3846656010e+000	 9.7159403643e-001	 5.3004147542e-001
 2.3748708403e+000	 9.9529568061e-001	 4.4273876028e-001
 2.3648205869e+000	 1.0189448424e+000	 3.6014226611e-001
 2.3545149136e+000	 1.0425375398e+000	 2.8579123271e-001
 2.3439539735e+000	 1.0660697774e+000	 2.2336095948e-001
 2.3331380004e+000	 1.0895375491e+000	 1.7665784641e-001
 2.3220673098e+000	 1.1129368396e+000	 1.4961405281e-001
 2.3107422987e+000	 1.1362636265e+000	 1.4628177972e-001
 2.2991634471e+000	 1.1595138824e+000	 1.7082718297e-001
 2.2873313176e+000	 1.1826835771e+000	 2.2752392501e-001
 2.4174495828e+000	 9.5704624488e-001	 6.1174676560e-001
 2.4078176942e+000	 9.8102698824e-001	 5.2099252469e-001
 2.3979278388e+000	 1.0049587455e+000	 4.3243674963e-001
 2.3877800100e+000	 1.0288375108e+000	 3.4955194453e-001
 2.3773742817e+000	 1.0526592634e+000	 2.7595360985e-001
 2.3667108082e+000	 1.0764199694e+000	 2.1539553682e-001
 2.3557898257e+000	 1.1001155835e+000	 1.7176470629e-001
 2.3446116526e+000	 1.1237420516e+000	 1.4907579656e-001
 2.3331766900e+000	 1.1472953122e+000	 1.5146530643e-001
 2.3214854223e+000	 1.1707712988e+000	 1.8318530046e-001
 2.3095384178e+000	 1.1941659420e+000	 2.4859678514e-001
 2.4406942903e+000	 9.6624861262e-001	 6.1197453029e-001
 2.4309697874e+000	 9.9045994005e-001	 5.1591399580e-001
 2.4209848372e+000	 1.0146218103e+000	 4.2280838935e-001
 2.4107394332e+000	 1.0387301792e+000	 3.3620752848e-001
 2.4002336497e+000	 1.0627809871e+000	 2.5980676969e-001
 2.3894676429e+000	 1.0867701614e+000	 1.9744216675e-001
 2.3784416509e+000	 1.1106936180e+000	 1.5308522402e-001
 2.3671559954e+000	 1.1345472636e+000	 1.3083724975e-001
 2.3556110812e+000	 1.1583269979e+000	 1.3492331568e-001
 2.3438073975e+000	 1.1820287151e+000	 1.6968583026e-001
 2.3317455179e+000	 1.2056483068e+000	 2.3957773439e-001
 2.4639389978e+000	 9.7545098036e-001	 6.1889057769e-001
 2.4541218806e+000	 9.9989289186e-001	 5.1438166470e-001
 2.4440418357e+000	 1.0242848752e+000	 4.1345047795e-001
 2.4336988564e+000	 1.0486228476e+000	 3.1972758651e-001
 2.4230930178e+000	 1.0729027108e+000	 2.3699181973e-001
 2.4122244775e+000	 1.0971203534e+000	 1.6916528631e-001
 2.4010934762e+000	 1.1212716525e+000	 1.2030797877e-001
 2.3897003382e+000	 1.1453524757e+000	 9.4611968485e-002
 2.3780454725e+000	 1.1693586836e+000	 9.6395197837e-002
 2.3661293727e+000	 1.1932861314e+000	 1.3009487699e-001
 2.3539526181e+000	 1.2171306716e+000	 2.0026049444e-001
 2.4871837053e+000	 9.8465334810e-001	 6.3205593477e-001
 2.4772739738e+000	 1.0093258437e+000	 5.1597486661e-001
 2.4670988341e+000	 1.0339479401e+000	 4.0396132120e-001
 2.4566582796e+000	 1.0585155159e+000	 2.9973007882e-001
 2.4459523859e+000	 1.0830244345e+000	 2.0714708043e-001
 2.4349813122e+000	 1.1074705454e+000	 1.3022430438e-001
 2.4237453014e+000	 1.1318496869e+000	 7.3114218668e-002
 2.4122446810e+000	 1.1561576877e+000	 4.0103813988e-002
 2.4004798637e+000	 1.1803903692e+000	 3.5608224290e-002
 2.3884513479e+000	 1.2045435478e+000	 6.4163942719e-002
 2.3761597183e+000	 1.2286130364e+000	 1.3042164227e-001
 2.5104284129e+000	 9.9385571584e-001	 5.5906345921e-001
 2.5004260670e+000	 1.0187587955e+000	 5.1641771185e-001
 2.4901558326e+000	 1.0436110049e+000	 3.9394066235e-001
 2.4796177027e+000	 1.0684081843e+000	 2.7583238542e-001
 2.4688117540e+000	 1.0931461582e+000	 1.6990821424e-001
 2.4577381469e+000	 1.1178207375e+000	 8.0273834479e-002
 2.4463971267e+000	 1.1424277214e+000	 1.1178200268e-002
 2.4347890238e+000	 1.1669628997e+000	-3.2992598540e-002
 2.4229142550e+000	 1.1914220549e+000	-4.7721891498e-002
 2.4107733232e+000	 1.2158009641e+000	-2.8369396946e-002
 2.3983668184e+000	 1.2400954013e+000	 2.9821403957e-002
 2.5336731204e+000	 1.0030580836e+000	 3.6930341008e-001
 2.5235781602e+000	 1.0281917473e+000	 3.0812968453e-001
 2.5132128310e+000	 1.0532740698e+000	 2.5943710836e-001
 2.5025771259e+000	 1.0783008527e+000	 2.2365242415e-001
 2.4916711221e+000	 1.1032678819e+000	 1.2490834751e-001
 2.4804949816e+000	 1.1281709295e+000	 1.8963914721e-002
 2.4690489519e+000	 1.1530057558e+000	-6.5832490778e-002
 2.4573333667e+000	 1.1777681118e+000	-1.2499147580e-001
 2.4453486462e+000	 1.2024537406e+000	-1.5389046380e-001
 2.4330952984e+000	 1.2270583804e+000	-1.4778085407e-001
 2.4205739186e+000	 1.2515777661e+000	-9.0902597828e-002
 2.5569178279e+000	 1.0122604513e+000	 1.7321203164e-001
 2.5467302535e+000	 1.0376246991e+000	 9.2604068610e-002
 2.5362698295e+000	 1.0629371346e+000	 2.6315573128e-002
 2.5255365491e+000	 1.0881935211e+000	-2.5291662972e-002
 2.5145304902e+000	 1.1133896056e+000	-6.1838643168e-002
 2.5032518163e+000	 1.1385211215e+000	-8.2927445396e-002
 2.4917007772e+000	 1.1635837903e+000	-1.5825663648e-001
 2.4798777095e+000	 1.1885733238e+000	-2.3621544540e-001
 2.4677830375e+000	 1.2134854263e+000	-2.8320333335e-001
 2.4554172736e+000	 1.2383157968e+000	-2.9435882437e-001
 2.4427810188e+000	 1.2630601309e+000	-1.6540388573e-001
 2.2207100171e+000	 1.1482364826e+000	-1.4458508835e-002
 2.2089772391e+000	 1.1706492033e+000	-2.6298166069e-001
 2.1969998960e+000	 1.1929758828e+000	-4.6617179736e-001
 2.1847787778e+000	 1.2152126119e+000	-6.2010656155e-001
 2.1723147561e+000	 1.2373554867e+000	-7.2079967750e-001
 2.1596087844e+000	 1.2594006108e+000	-7.7222630189e-001
 2.1466618980e+000	 1.2813440973e+000	-7.9328690910e-001
 2.1334752143e+000	 1.3031820709e+000	-7.8093980716e-001
 2.1200499323e+000	 1.3249106704e+000	-7.3568621344e-001
 2.1063873328e+000	 1.3465260504e+000	-6.5807454007e-001
 2.0924887780e+000	 1.3680243835e+000	-5.4869949749e-001
 2.2429171172e+000	 1.1597188475e+000	 9.5836769797e-002
 2.2310670115e+000	 1.1823556953e+000	-1.4613319436e-001
 2.2189698950e+000	 1.2049056416e+000	-3.4709865662e-001
 2.2066265656e+000	 1.2273647380e+000	-5.0300207295e-001
 2.1940379036e+000	 1.2497290416e+000	-6.0971529019e-001
 2.1812048722e+000	 1.2719946169e+000	-6.6477045738e-001
 2.1681285170e+000	 1.2941575382e+000	-6.8905368772e-001
 2.1548099664e+000	 1.3162138916e+000	-6.8316601967e-001
 2.1412504316e+000	 1.3381597771e+000	-6.4763049585e-001
 2.1274512061e+000	 1.3599913109e+000	-5.8301499679e-001
 2.1134136658e+000	 1.3817046273e+000	-4.8993128413e-001
 2.2651242174e+000	 1.1712012123e+000	 1.7654744729e-001
 2.2531567839e+000	 1.1940621873e+000	-6.0614466096e-002
 2.2409398939e+000	 1.2168354005e+000	-2.6106800223e-001
 2.2284743533e+000	 1.2395168641e+000	-4.2061620592e-001
 2.2157610512e+000	 1.2621025965e+000	-5.2034469653e-001
 2.2028009601e+000	 1.2845886230e+000	-5.7501647712e-001
 2.1895951360e+000	 1.3069709792e+000	-6.0216770042e-001
 2.1761447186e+000	 1.3292457123e+000	-6.0230028964e-001
 2.1624509309e+000	 1.3514088839e+000	-5.7595964472e-001
 2.1485150794e+000	 1.3734565714e+000	-5.2373371490e-001
 2.1343385536e+000	 1.3953848711e+000	-4.4625198100e-001
 2.2873313176e+000	 1.1826835771e+000	 2.2752392501e-001
 2.2752465563e+000	 1.2057686794e+000	-6.6162642408e-003
 2.2629098929e+000	 1.2287651593e+000	-2.0831441086e-001
 2.2503221411e+000	 1.2516689903e+000	-3.6929528497e-001
 2.2374841988e+000	 1.2744761513e+000	-4.4840102923e-001
 2.2243970479e+000	 1.2971826291e+000	-5.0254597378e-001
 2.2110617550e+000	 1.3197844202e+000	-5.3221488152e-001
 2.1974794707e+000	 1.3422775331e+000	-5.3793473382e-001
 2.1836514302e+000	 1.3646579906e+000	-5.2027383042e-001
 2.1695789527e+000	 1.3869218319e+000	-4.7984079893e-001
 2.1552634414e+000	 1.4090651150e+000	-4.1728351560e-001
 2.3095384178e+000	 1.1941659420e+000	 2.4859678514e-001
 2.2973363287e+000	 1.2174751714e+000	 1.5650810882e-002
 2.2848798918e+000	 1.2406949181e+000	-1.8909218590e-001
 2.2721699289e+000	 1.2638211164e+000	-3.1822809652e-001
 2.2592073463e+000	 1.2868497062e+000	-3.9360644820e-001
 2.2459931357e+000	 1.3097766352e+000	-4.4695955972e-001
 2.2325283739e+000	 1.3325978612e+000	-4.7879976487e-001
 2.2188142229e+000	 1.3553093538e+000	-4.8967958922e-001
 2.2048519296e+000	 1.3779070973e+000	-4.8019078508e-001
 2.1906428261e+000	 1.4003870924e+000	-4.5096327744e-001
 2.1761883292e+000	 1.4227453588e+000	-4.0266402258e-001
 2.3317455179e+000	 1.2056483068e+000	 2.3957773439e-001
 2.3194261010e+000	 1.2291816635e+000	 5.9572903852e-003
 2.3068498908e+000	 1.2526246769e+000	-1.9297097931e-001
 2.2940177167e+000	 1.2759732425e+000	-2.8410988236e-001
 2.2809304939e+000	 1.2992232611e+000	-3.5557781549e-001
 2.2675892236e+000	 1.3223706413e+000	-4.0787594221e-001
 2.2539949929e+000	 1.3454113021e+000	-4.4154459815e-001
 2.2401489750e+000	 1.3683411745e+000	-4.5716235021e-001
 2.2260524289e+000	 1.3911562040e+000	-4.5534496630e-001
 2.2117066994e+000	 1.4138523529e+000	-4.3674429710e-001
 2.1971132169e+000	 1.4364256026e+000	-4.0204707195e-001
 2.3539526181e+000	 1.2171306716e+000	 2.0026049444e-001
 2.3415158734e+000	 1.2408881555e+000	-3.5944273156e-002
 2.3288198898e+000	 1.2645544358e+000	-1.8227634117e-001
 2.3158655044e+000	 1.2881253686e+000	-2.6657509514e-001
 2.3026536414e+000	 1.3115968159e+000	-3.3394952594e-001
 2.2891853114e+000	 1.3349646475e+000	-3.8493106992e-001
 2.2754616119e+000	 1.3582247431e+000	-4.2008850728e-001
 2.2614837271e+000	 1.3813729952e+000	-4.4002695449e-001
 2.2472529282e+000	 1.4044053107e+000	-4.4538676821e-001
 2.2327705727e+000	 1.4273176134e+000	-4.3684236245e-001
 2.2180381047e+000	 1.4501058465e+000	-4.1510094097e-001
 2.3761597183e+000	 1.2286130364e+000	 1.3042164227e-001
 2.3636056458e+000	 1.2525946475e+000	-9.5789313298e-002
 2.3507898887e+000	 1.2764841946e+000	-1.8792249667e-001
 2.3377132922e+000	 1.3002774948e+000	-2.6527511060e-001
 2.3243767890e+000	 1.3239703708e+000	-3.2837268791e-001
 2.3107813993e+000	 1.3475586536e+000	-3.7777732723e-001
 2.2969282309e+000	 1.3710381841e+000	-4.1408670780e-001
 2.2828184793e+000	 1.3944048159e+000	-4.3793301475e-001
 2.2684534275e+000	 1.4176544174e+000	-4.4998177681e-001
 2.2538344460e+000	 1.4407828739e+000	-4.5093061818e-001
 2.2389629925e+000	 1.4637860903e+000	-4.4150792695e-001
 2.3983668184e+000	 1.2400954013e+000	 2.9821403957e-002
 2.3856954182e+000	 1.2643011396e+000	-1.2706047294e-001
 2.3727598877e+000	 1.2884139534e+000	-2.0957889451e-001
 2.3595610800e+000	 1.3124296209e+000	-2.7987744412e-001
 2.3460999366e+000	 1.3363439257e+000	-3.3851434948e-001
 2.3323774871e+000	 1.3601526597e+000	-3.8608277330e-001
 2.3183948499e+000	 1.3838516251e+000	-4.2320975987e-001
 2.3041532314e+000	 1.4074366366e+000	-4.5055509294e-001
 2.2896539269e+000	 1.4309035241e+000	-4.6881006658e-001
 2.2748983194e+000	 1.4542481344e+000	-4.7869617140e-001
 2.2598878803e+000	 1.4774663341e+000	-4.8096369812e-001
 2.4205739186e+000	 1.2515777661e+000	-9.0902597828e-002
 2.4077851906e+000	 1.2760076316e+000	-1.7406199819e-001
 2.3947298867e+000	 1.3003437123e+000	-2.4693051148e-001
 2.3814088678e+000	 1.3245817470e+000	-3.1006501031e-001
 2.3678230841e+000	 1.3487174805e+000	-3.6405676731e-001
 2.3539735750e+000	 1.3727466658e+000	-4.0953042310e-001
 2.3398614688e+000	 1.3966650660e+000	-4.4714286451e-001
 2.3254879836e+000	 1.4204684573e+000	-4.7758201451e-001
 2.3108544262e+000	 1.4441526308e+000	-5.0156553592e-001
 2.2959621927e+000	 1.4677133949e+000	-5.1983945113e-001
 2.2808127681e+000	 1.4911465780e+000	-5.3317668032e-001
 2.4427810188e+000	 1.2630601309e+000	-1.6540388573e-001
 2.4298749630e+000	 1.2877141236e+000	-2.3649720573e-001
 2.4166998856e+000	 1.3122734711e+000	-2.9967714660e-001
 2.4032566556e+000	 1.3367338731e+000	-3.5553542310e-001
 2.3895462317e+000	 1.3610910354e+000	-4.0469671529e-001
 2.3755696628e+000	 1.3853406719e+000	-4.4781756754e-001
 2.3613280878e+000	 1.4094785070e+000	-4.8558519799e-001
 2.3468227357e+000	 1.4335002780e+000	-5.1871622012e-001
 2.3320549255e+000	 1.4574017375e+000	-5.4795527877e-001
 2.3170260660e+000	 1.4811786555e+000	-5.7407360277e-001
 2.3017376559e+000	 1.5048268218e+000	-5.9786747711e-001
 2.0924887780e+000	 1.3680243835e+000	-5.4869949749e-001
 2.0783557117e+000	 1.3894018625e+000	-6.0721738134e-001
 2.0639896582e+000	 1.4106547028e+000	-6.6383110012e-001
 2.0493922227e+000	 1.4317791441e+000	-7.1921155958e-001
 2.0345650901e+000	 1.4527714528e+000	-7.7404562617e-001
 2.0195100253e+000	 1.4736279238e+000	-8.2903469954e-001
 2.0042288717e+000	 1.4943448831e+000	-8.8489323754e-001
 1.9887235515e+000	 1.5149186895e+000	-9.4234723684e-001
 1.9729960641e+000	 1.5353457367e+000	-1.0021326729e+000
 1.9570484858e+000	 1.5556224556e+000	-1.0649939031e+000
 1.9408829689e+000	 1.5757453160e+000	-1.1316820359e+000
 2.1134136658e+000	 1.3817046273e+000	-4.8993128413e-001
 2.0991392688e+000	 1.4032958811e+000	-5.6240564811e-001
 2.0846295548e+000	 1.4247612499e+000	-6.3172968234e-001
 2.0698861449e+000	 1.4460969356e+000	-6.9852029052e-001
 2.0549107410e+000	 1.4672991673e+000	-7.6341159456e-001
 2.0397051255e+000	 1.4883642030e+000	-8.2705354621e-001
 2.0242711605e+000	 1.5092883319e+000	-8.9011048917e-001
 2.0086107870e+000	 1.5300678764e+000	-9.5325967483e-001
 1.9927260247e+000	 1.5506991940e+000	-1.0171897352e+000
 1.9766189706e+000	 1.5711786801e+000	-1.0825991165e+000
 1.9602917986e+000	 1.5915027692e+000	-1.1501944779e+000
 2.1343385536e+000	 1.3953848711e+000	-4.4625198100e-001
 2.1199228259e+000	 1.4171898998e+000	-5.3026475643e-001
 2.1052694514e+000	 1.4388677969e+000	-6.0988726543e-001
 2.0903800671e+000	 1.4604147270e+000	-6.8568427634e-001
 2.0752563919e+000	 1.4818268818e+000	-7.5823904561e-001
 2.0599002258e+000	 1.5031004823e+000	-8.2815196641e-001
 2.0443134492e+000	 1.5242317808e+000	-8.9603916555e-001
 2.0284980225e+000	 1.5452170632e+000	-9.6253105207e-001
 2.0124559853e+000	 1.5660526514e+000	-1.0282708208e+000
 1.9961894555e+000	 1.5867349047e+000	-1.0939129146e+000
 1.9797006283e+000	 1.6072602223e+000	-1.1601214490e+000
 2.1552634414e+000	 1.4090651150e+000	-4.1728351560e-001
 2.1407063830e+000	 1.4310839184e+000	-5.1047831526e-001
 2.1259093480e+000	 1.4529743439e+000	-5.9804849537e-001
 2.1108739893e+000	 1.4747325185e+000	-6.8050853163e-001
 2.0956020428e+000	 1.4963545964e+000	-7.5839267051e-001
 2.0800953260e+000	 1.5178367615e+000	-8.3225361269e-001
 2.0643557379e+000	 1.5391752296e+000	-9.0266114264e-001
 2.0483852580e+000	 1.5603662501e+000	-9.7020070772e-001
 2.0321859460e+000	 1.5814061088e+000	-1.0354719501e+000
 2.0157599404e+000	 1.6022911292e+000	-1.0990871955e+000
 1.9991094580e+000	 1.6230176755e+000	-1.1616699012e+000
 2.1761883292e+000	 1.4227453588e+000	-4.0266402258e-001
 2.1614899402e+000	 1.4449779370e+000	-5.0274349995e-001
 2.1465492446e+000	 1.4670808910e+000	-5.9596896280e-001
 2.1313679116e+000	 1.4890503099e+000	-6.8280641414e-001
 2.1159476937e+000	 1.5108823109e+000	-7.6374292367e-001
 2.1002904263e+000	 1.5325730408e+000	-8.3928534379e-001
 2.0843980266e+000	 1.5541186784e+000	-9.0995896970e-001
 2.0682724935e+000	 1.5755154370e+000	-9.7630614676e-001
 2.0519159066e+000	 1.5967595661e+000	-1.0388848286e+000
 2.0353304252e+000	 1.6178473538e+000	-1.0982670895e+000
 2.0185182877e+000	 1.6387751286e+000	-1.1550375948e+000
 2.1971132169e+000	 1.4364256026e+000	-4.0204707195e-001
 2.1822734973e+000	 1.4588719557e+000	-5.0677040624e-001
 2.1671891411e+000	 1.4811874380e+000	-6.0341468182e-001
 2.1518618338e+000	 1.5033681014e+000	-6.9239922752e-001
 2.1362933446e+000	 1.5254100254e+000	-7.7416574835e-001
 2.1204855265e+000	 1.5473093200e+000	-8.4917707200e-001
 2.1044403153e+000	 1.5690621273e+000	-9.1791583723e-001
 2.0881597291e+000	 1.5906646239e+000	-9.8088312729e-001
 2.0716458673e+000	 1.6121130235e+000	-1.0385970519e+000
 2.0549009101e+000	 1.6334035783e+000	-1.0915912813e+000
 2.0379271174e+000	 1.6545325818e+000	-1.1404135359e+000
 2.2180381047e+000	 1.4501058465e+000	-4.1510094097e-001
 2.2030570544e+000	 1.4727659743e+000	-5.2228144080e-001
 2.1878290377e+000	 1.4952939850e+000	-6.2016159834e-001
 2.1723557560e+000	 1.5176858928e+000	-7.0911584645e-001
 2.1566389955e+000	 1.5399377400e+000	-7.8954231768e-001
 2.1406806268e+000	 1.5620455992e+000	-8.6186161909e-001
 2.1244826040e+000	 1.5840055761e+000	-9.2651554671e-001
 2.1080469646e+000	 1.6058138108e+000	-9.8396574296e-001
 2.0913758279e+000	 1.6274664809e+000	-1.0346923001e+000
 2.0744713949e+000	 1.6489598029e+000	-1.0791923138e+000
 2.0573359470e+000	 1.6702900350e+000	-1.1179783895e+000
 2.2389629925e+000	 1.4637860903e+000	-4.4150792695e-001
 2.2238406115e+000	 1.4866599929e+000	-5.4901074595e-001
 2.2084689343e+000	 1.5094005321e+000	-6.4599512596e-001
 2.1928496783e+000	 1.5320036842e+000	-7.3279236293e-001
 2.1769846464e+000	 1.5544654545e+000	-8.0975879037e-001
 2.1608757270e+000	 1.5767818785e+000	-8.7727458037e-001
 2.1445248928e+000	 1.5989490249e+000	-9.3574248209e-001
 2.1279342001e+000	 1.6209629977e+000	-9.8558650073e-001
 2.1111057885e+000	 1.6428199382e+000	-1.0272505205e+000
 2.0940418798e+000	 1.6645160274e+000	-1.0611968751e+000
 2.0767447767e+000	 1.6860474881e+000	-1.0879048694e+000
 2.2598878803e+000	 1.4774663341e+000	-4.8096369812e-001
 2.2446241686e+000	 1.5005540115e+000	-5.8670365634e-001
 2.2291088309e+000	 1.5235070791e+000	-6.8070970765e-001
 2.2133436005e+000	 1.5463214757e+000	-7.6327175206e-001
 2.1973302973e+000	 1.5689931690e+000	-8.3470607978e-001
 2.1810708273e+000	 1.5915181577e+000	-8.9535419630e-001
 2.1645671815e+000	 1.6138924738e+000	-9.4558158275e-001
 2.1478214356e+000	 1.6361121846e+000	-9.8577639433e-001
 2.1308357492e+000	 1.6581733956e+000	-1.0163481005e+000
 2.1136123646e+000	 1.6800722520e+000	-1.0377260701e+000
 2.0961536064e+000	 1.7018049413e+000	-1.0503581059e+000
 2.2808127681e+000	 1.4911465780e+000	-5.3317668032e-001
 2.2654077258e+000	 1.5144480302e+000	-6.3511618556e-001
 2.2497487275e+000	 1.5376136261e+000	-7.2410840158e-001
 2.2338375227e+000	 1.5606392671e+000	-8.0040355639e-001
 2.2176759482e+000	 1.5835208835e+000	-8.6427963591e-001
 2.2012659275e+000	 1.6062544370e+000	-9.1604123113e-001
 2.1846094702e+000	 1.6288359226e+000	-9.5601831809e-001
 2.1677086711e+000	 1.6512613715e+000	-9.8456497369e-001
 2.1505657098e+000	 1.6735268530e+000	-1.0020580308e+000
 2.1331828495e+000	 1.6956284766e+000	-1.0088956759e+000
 2.1155624361e+000	 1.7175623944e+000	-1.0054959940e+000
 2.3017376559e+000	 1.5048268218e+000	-5.9786747711e-001
 2.2861912829e+000	 1.5283420488e+000	-6.9401454070e-001
 2.2703886241e+000	 1.5517201731e+000	-7.7600248950e-001
 2.2543314449e+000	 1.5749570586e+000	-8.4404358733e-001
 2.2380215991e+000	 1.5980485981e+000	-8.9837923915e-001
 2.2214610278e+000	 1.6209907162e+000	-9.3927885818e-001
 2.2046517589e+000	 1.6437793714e+000	-9.6703866340e-001
 2.1875959066e+000	 1.6664105584e+000	-9.8198041054e-001
 2.1702956705e+000	 1.6888803104e+000	-9.8445005982e-001
 2.1527533344e+000	 1.7111847011e+000	-9.7481638427e-001
 2.1349712658e+000	 1.7333198476e+000	-9.5346952213e-001
 1.9408829689e+000	 1.5757453160e+000	-1.1316820359e+000
 1.9245017408e+000	 1.5957108290e+000	-1.0956228292e+000
 1.9079071027e+000	 1.6155155485e+000	-1.0728586678e+000
 1.8911014290e+000	 1.6351560736e+000	-1.0643944437e+000
 1.8740871660e+000	 1.6546290504e+000	-1.0678847555e+000
 1.8568668306e+000	 1.6739311735e+000	-1.0376416636e+000
 1.8394430092e+000	 1.6930591885e+000	-1.0402109546e+000
 1.8218183566e+000	 1.7120098935e+000	-1.0734162939e+000
 1.8039955943e+000	 1.7307801408e+000	-1.1350331927e+000
 1.7859775094e+000	 1.7493668386e+000	-1.2227939529e+000
 1.7677669530e+000	 1.7677669530e+000	-1.3343927006e+000
 1.9602917986e+000	 1.5915027692e+000	-1.1501944779e+000
 1.9437467582e+000	 1.6116679373e+000	-1.1215052591e+000
 1.9269861737e+000	 1.6316707040e+000	-1.1047471383e+000
 1.9100124433e+000	 1.6515076344e+000	-1.1009509238e+000
 1.8928280376e+000	 1.6711753409e+000	-1.1111416834e+000
 1.8754354989e+000	 1.6906704852e+000	-1.1363366918e+000
 1.8578374393e+000	 1.7099897804e+000	-1.1357417584e+000
 1.8400365402e+000	 1.7291299925e+000	-1.1639352757e+000
 1.8220355503e+000	 1.7480879422e+000	-1.2198499810e+000
 1.8038372845e+000	 1.7668605069e+000	-1.3011193721e+000
 1.7854446225e+000	 1.7854446225e+000	-1.4053389537e+000
 1.9797006283e+000	 1.6072602223e+000	-1.1601214490e+000
 1.9629917756e+000	 1.6276250456e+000	-1.1385005275e+000
 1.9460652448e+000	 1.6478258595e+000	-1.1274663313e+000
 1.9289234576e+000	 1.6678591951e+000	-1.1280765202e+000
 1.9115689093e+000	 1.6877216314e+000	-1.1413842994e+000
 1.8940041672e+000	 1.7074097970e+000	-1.1684363101e+000
 1.8762318694e+000	 1.7269203723e+000	-1.2102705186e+000
 1.8582547237e+000	 1.7462500914e+000	-1.2369605598e+000
 1.8400755062e+000	 1.7653957436e+000	-1.2880026942e+000
 1.8216970596e+000	 1.7843541753e+000	-1.3636484811e+000
 1.8031222920e+000	 1.8031222920e+000	-1.4613921288e+000
 1.9991094580e+000	 1.6230176755e+000	-1.1616699012e+000
 1.9822367930e+000	 1.6435821538e+000	-1.1468124440e+000
 1.9651443158e+000	 1.6639810150e+000	-1.1412162130e+000
 1.9478344719e+000	 1.6842107558e+000	-1.1459666639e+000
 1.9303097810e+000	 1.7042679219e+000	-1.1621460748e+000
 1.9125728355e+000	 1.7241491087e+000	-1.1908313802e+000
 1.8946262995e+000	 1.7438509642e+000	-1.2330920008e+000
 1.8764729073e+000	 1.7633701903e+000	-1.2899876733e+000
 1.8581154622e+000	 1.7827035450e+000	-1.3394225853e+000
 1.8395568347e+000	 1.8018478437e+000	-1.4103352080e+000
 1.8207999616e+000	 1.8207999616e+000	-1.5025283455e+000
 2.0185182877e+000	 1.6387751286e+000	-1.1550375948e+000
 2.0014818104e+000	 1.6595392621e+000	-1.1466354388e+000
 1.9842233868e+000	 1.6801361704e+000	-1.1461872082e+000
 1.9667454862e+000	 1.7005623166e+000	-1.1548071070e+000
 1.9490506526e+000	 1.7208142124e+000	-1.1736074315e+000
 1.9311415038e+000	 1.7408884204e+000	-1.2036963456e+000
 1.9130207296e+000	 1.7607815561e+000	-1.2461756498e+000
 1.8946910909e+000	 1.7804902893e+000	-1.3021385488e+000
 1.8761554181e+000	 1.8000113464e+000	-1.3726674233e+000
 1.8574166098e+000	 1.8193415121e+000	-1.4411235174e+000
 1.8384776311e+000	 1.8384776311e+000	-1.5287138022e+000
 2.0379271174e+000	 1.6545325818e+000	-1.1404135359e+000
 2.0207268278e+000	 1.6754963704e+000	-1.1381550093e+000
 2.0033024578e+000	 1.6962913259e+000	-1.1425606539e+000
 1.9856565005e+000	 1.7169138773e+000	-1.1547743837e+000
 1.9677915243e+000	 1.7373605029e+000	-1.1759394674e+000
 1.9497101721e+000	 1.7576277322e+000	-1.2071962439e+000
 1.9314151596e+000	 1.7777121480e+000	-1.2496798290e+000
 1.9129092744e+000	 1.7976103882e+000	-1.3045178195e+000
 1.8941953740e+000	 1.8173191478e+000	-1.3728279985e+000
 1.8752763849e+000	 1.8368351805e+000	-1.4557160510e+000
 1.8561553006e+000	 1.8561553006e+000	-1.5399052491e+000
 2.0573359470e+000	 1.6702900350e+000	-1.1179783895e+000
 2.0399718452e+000	 1.6914534787e+000	-1.1215481416e+000
 2.0223815288e+000	 1.7124464814e+000	-1.1305092288e+000
 2.0045675147e+000	 1.7332654380e+000	-1.1460362454e+000
 1.9865323959e+000	 1.7539067934e+000	-1.1693043962e+000
 1.9682788404e+000	 1.7743670439e+000	-1.2014871505e+000
 1.9498095897e+000	 1.7946427398e+000	-1.2437538855e+000
 1.9311274580e+000	 1.8147304871e+000	-1.2972675235e+000
 1.9122353300e+000	 1.8346269492e+000	-1.3631821720e+000
 1.8931361600e+000	 1.8543288489e+000	-1.4426407694e+000
 1.8738329701e+000	 1.8738329701e+000	-1.5360504336e+000
 2.0767447767e+000	 1.6860474881e+000	-1.0879048694e+000
 2.0592168626e+000	 1.7074105870e+000	-1.0969837080e+000
 2.0414605999e+000	 1.7286016369e+000	-1.1101973573e+000
 2.0234785290e+000	 1.7496169988e+000	-1.1287520707e+000
 2.0052732676e+000	 1.7704530839e+000	-1.1538559625e+000
 1.9868475087e+000	 1.7911063556e+000	-1.1867165977e+000
 1.9682040198e+000	 1.8115733317e+000	-1.2285385702e+000
 1.9493456416e+000	 1.8318505861e+000	-1.2805210734e+000
 1.9302752859e+000	 1.8519347506e+000	-1.3438554710e+000
 1.9109959351e+000	 1.8718225172e+000	-1.4197228729e+000
 1.8915106397e+000	 1.8915106397e+000	-1.4596100483e+000
 2.0961536064e+000	 1.7018049413e+000	-1.0503581059e+000
 2.0784618800e+000	 1.7233676953e+000	-1.0646228430e+000
 2.0605396709e+000	 1.7447567924e+000	-1.0817815918e+000
 2.0423895433e+000	 1.7659685595e+000	-1.1030732535e+000
 2.0240141392e+000	 1.7869993744e+000	-1.1297398341e+000
 2.0054161770e+000	 1.8078456674e+000	-1.1630239696e+000
 1.9865984499e+000	 1.8285039236e+000	-1.2041664368e+000
 1.9675638251e+000	 1.8489706850e+000	-1.2544036556e+000
 1.9483152419e+000	 1.8692425520e+000	-1.3149651891e+000
 1.9288557102e+000	 1.8893161856e+000	-1.3433202129e+000
 1.9091883092e+000	 1.9091883092e+000	-1.3676586759e+000
 2.1155624361e+000	 1.7175623944e+000	-1.0054959940e+000
 2.0977068974e+000	 1.7393248036e+000	-1.0246192977e+000
 2.0796187419e+000	 1.7609119479e+000	-1.0454109738e+000
 2.0613005576e+000	 1.7823201203e+000	-1.0691435687e+000
 2.0427550109e+000	 1.8035456649e+000	-1.0970939722e+000
 2.0239848453e+000	 1.8245849791e+000	-1.1305408764e+000
 2.0049928800e+000	 1.8454345155e+000	-1.1707622174e+000
 1.9857820087e+000	 1.8660907839e+000	-1.2190326077e+000
 1.9663551978e+000	 1.8865503534e+000	-1.2407139839e+000
 1.9467154853e+000	 1.9068098540e+000	-1.2465111254e+000
 1.9268659787e+000	 1.9268659787e+000	-1.2649099846e+000
 2.1349712658e+000	 1.7333198476e+000	-9.5346952213e-001
 2.1169519149e+000	 1.7552819119e+000	-9.7711977602e-001
 2.0986978130e+000	 1.7770671034e+000	-1.0012273755e+000
 2.0802115719e+000	 1.7986716810e+000	-1.0270995190e+000
 2.0614958826e+000	 1.8200919554e+000	-1.0560489820e+000
 2.0425535136e+000	 1.8413242908e+000	-1.0893915075e+000
 2.0233873101e+000	 1.8623651074e+000	-1.1284431779e+000
 2.0040001923e+000	 1.8832108829e+000	-1.1485053694e+000
 1.9843951538e+000	 1.9038581548e+000	-1.1384516621e+000
 1.9645752604e+000	 1.9243035224e+000	-1.1394063877e+000
 1.9445436483e+000	 1.9445436482e+000	-1.1518936655e+000
 1.7677669530e+000	 1.7677669530e+000	-1.3343927006e+000
 1.7493668386e+000	 1.7859775094e+000	-1.3572199136e+000
 1.7307801408e+000	 1.8039955943e+000	-1.3802168975e+000
 1.7120098935e+000	 1.8218183566e+000	-1.4007649295e+000
 1.6930591885e+000	 1.8394430092e+000	-1.4162473355e+000
 1.6739311735e+000	 1.8568668306e+000	-1.4240549906e+000
 1.6546290504e+000	 1.8740871660e+000	-1.4215918039e+000
 1.6351560736e+000	 1.8911014290e+000	-1.3974062408e+000
 1.6155155485e+000	 1.9079071027e+000	-1.3724350927e+000
 1.5957108290e+000	 1.9245017408e+000	-1.3470253116e+000
 1.5757453160e+000	 1.9408829689e+000	-1.3206498048e+000
 1.7854446225e+000	 1.7854446225e+000	-1.4053389537e+000
 1.7668605069e+000	 1.8038372845e+000	-1.4136025952e+000
 1.7480879422e+000	 1.8220355503e+000	-1.4235291265e+000
 1.7291299925e+000	 1.8400365402e+000	-1.4324662324e+000
 1.7099897804e+000	 1.8578374393e+000	-1.4377621389e+000
 1.6906704852e+000	 1.8754354989e+000	-1.4361112013e+000
 1.6711753409e+000	 1.8928280376e+000	-1.4060808591e+000
 1.6515076344e+000	 1.9100124433e+000	-1.3784362124e+000
 1.6316707040e+000	 1.9269861737e+000	-1.3526867256e+000
 1.6116679373e+000	 1.9437467582e+000	-1.3283437957e+000
 1.5915027692e+000	 1.9602917986e+000	-1.3049216132e+000
 1.8031222920e+000	 1.8031222920e+000	-1.4613921288e+000
 1.7843541753e+000	 1.8216970596e+000	-1.4580787430e+000
 1.7653957436e+000	 1.8400755062e+000	-1.4579011655e+000
 1.7462500914e+000	 1.8582547237e+000	-1.4581697774e+000
 1.7269203723e+000	 1.8762318694e+000	-1.4537490809e+000
 1.7074097970e+000	 1.8940041672e+000	-1.4170315573e+000
 1.6877216314e+000	 1.9115689093e+000	-1.3848715082e+000
 1.6678591951e+000	 1.9289234576e+000	-1.3568221725e+000
 1.6478258595e+000	 1.9460652448e+000	-1.3324362808e+000
 1.6276250456e+000	 1.9629917756e+000	-1.3112668949e+000
 1.6072602223e+000	 1.9797006283e+000	-1.2928682381e+000
 1.8207999616e+000	 1.8207999616e+000	-1.5025283455e+000
 1.8018478437e+000	 1.8395568347e+000	-1.4905864260e+000
 1.7827035450e+000	 1.8581154622e+000	-1.4832339464e+000
 1.7633701903e+000	 1.8764729073e+000	-1.4742542804e+000
 1.7438509642e+000	 1.8946262995e+000	-1.4293040236e+000
 1.7241491087e+000	 1.9125728355e+000	-1.3909613216e+000
 1.7042679219e+000	 1.9303097810e+000	-1.3588258054e+000
 1.6842107558e+000	 1.9478344719e+000	-1.3324942393e+000
 1.6639810150e+000	 1.9651443158e+000	-1.3115613354e+000
 1.6435821538e+000	 1.9822367930e+000	-1.2956205629e+000
 1.6230176755e+000	 1.9991094580e+000	-1.2842649487e+000
 1.8384776311e+000	 1.8384776311e+000	-1.5287138022e+000
 1.8193415121e+000	 1.8574166098e+000	-1.5110561577e+000
 1.8000113464e+000	 1.8761554181e+000	-1.4963514152e+000
 1.7804902893e+000	 1.8946910909e+000	-1.4417960339e+000
 1.7607815561e+000	 1.9130207296e+000	-1.3957760481e+000
 1.7408884204e+000	 1.9311415038e+000	-1.3579399507e+000
 1.7208142124e+000	 1.9490506526e+000	-1.3279310963e+000
 1.7005623166e+000	 1.9667454862e+000	-1.3053884859e+000
 1.6801361704e+000	 1.9842233868e+000	-1.2899475499e+000
 1.6595392621e+000	 2.0014818104e+000	-1.2812409272e+000
 1.6387751286e+000	 2.0185182877e+000	-1.2788992390e+000
 1.8561553006e+000	 1.8561553006e+000	-1.5399052491e+000
 1.8368351805e+000	 1.8752763849e+000	-1.5186215552e+000
 1.8173191478e+000	 1.8941953740e+000	-1.4532595107e+000
 1.7976103882e+000	 1.9129092744e+000	-1.3982380737e+000
 1.7777121480e+000	 1.9314151596e+000	-1.3532569224e+000
 1.7576277322e+000	 1.9497101721e+000	-1.3180084141e+000
 1.7373605029e+000	 1.9677915243e+000	-1.2921783357e+000
 1.7169138773e+000	 1.9856565005e+000	-1.2754466568e+000
 1.6962913259e+000	 2.0033024578e+000	-1.2674882825e+000
 1.6754963704e+000	 2.0207268278e+000	-1.2679738039e+000
 1.6545325818e+000	 2.0379271174e+000	-1.2765702458e+000
 1.8738329701e+000	 1.8738329701e+000	-1.5360504336e+000
 1.8543288489e+000	 1.8931361600e+000	-1.4623028279e+000
 1.8346269492e+000	 1.9122353300e+000	-1.3971239581e+000
 1.8147304871e+000	 1.9311274580e+000	-1.3437210816e+000
 1.7946427398e+000	 1.9498095897e+000	-1.3018378266e+000
 1.7743670439e+000	 1.9682788404e+000	-1.2712091223e+000
 1.7539067934e+000	 1.9865323959e+000	-1.2515619169e+000
 1.7332654380e+000	 2.0045675147e+000	-1.2426159001e+000
 1.7124464814e+000	 2.0223815288e+000	-1.2440842269e+000
 1.6914534787e+000	 2.0399718452e+000	-1.2556742415e+000
 1.6702900350e+000	 2.0573359470e+000	-1.2770881994e+000
 1.8915106397e+000	 1.8915106397e+000	-1.4596100483e+000
 1.8718225172e+000	 1.9109959351e+000	-1.3910668574e+000
 1.8519347506e+000	 1.9302752859e+000	-1.3281311357e+000
 1.8318505861e+000	 1.9493456416e+000	-1.2783832147e+000
 1.8115733317e+000	 1.9682040198e+000	-1.2416093802e+000
 1.7911063556e+000	 1.9868475087e+000	-1.2175858601e+000
 1.7704530839e+000	 2.0052732676e+000	-1.2060795119e+000
 1.7496169988e+000	 2.0234785290e+000	-1.2068485154e+000
 1.7286016369e+000	 2.0414605999e+000	-1.2196430690e+000
 1.7074105870e+000	 2.0592168626e+000	-1.2442060887e+000
 1.6860474881e+000	 2.0767447767e+000	-1.2802739053e+000
 1.9091883092e+000	 1.9091883092e+000	-1.3676586759e+000
 1.8893161856e+000	 1.9288557102e+000	-1.3005412440e+000
 1.8692425520e+000	 1.9483152419e+000	-1.2464631148e+000
 1.8489706850e+000	 1.9675638251e+000	-1.2023602231e+000
 1.8285039236e+000	 1.9865984499e+000	-1.1726616682e+000
 1.8078456674e+000	 2.0054161770e+000	-1.1571837226e+000
 1.7869993744e+000	 2.0240141392e+000	-1.1557319188e+000
 1.7659685595e+000	 2.0423895433e+000	-1.1681017147e+000
 1.7447567924e+000	 2.0605396709e+000	-1.1940791635e+000
 1.7233676953e+000	 2.0784618800e+000	-1.2334415877e+000
 1.7018049413e+000	 2.0961536064e+000	-1.2859582546e+000
 1.9268659787e+000	 1.9268659787e+000	-1.2649099846e+000
 1.9068098540e+000	 1.9467154853e+000	-1.1994425138e+000
 1.8865503534e+000	 1.9663551978e+000	-1.1501284082e+000
 1.8660907839e+000	 1.9857820087e+000	-1.1157855600e+000
 1.8454345155e+000	 2.0049928800e+000	-1.0950842658e+000
 1.8245849791e+000	 2.0239848453e+000	-1.0900490550e+000
 1.8035456649e+000	 2.0427550109e+000	-1.1005229188e+000
 1.7823201203e+000	 2.0613005576e+000	-1.1263373979e+000
 1.7609119479e+000	 2.0796187419e+000	-1.1673132276e+000
 1.7393248036e+000	 2.0977068974e+000	-1.2232609887e+000
 1.7175623944e+000	 2.1155624361e+000	-1.2939817613e+000
 1.9445436483e+000	 1.9445436482e+000	-1.1518936655e+000
 1.9243035224e+000	 1.9645752604e+000	-1.0897467764e+000
 1.9038581548e+000	 1.9843951538e+000	-1.0448882836e+000
 1.8832108829e+000	 2.0040001923e+000	-1.0182021556e+000
 1.8623651074e+000	 2.0233873101e+000	-1.0089662612e+000
 1.8413242908e+000	 2.0425535136e+000	-1.0162293961e+000
 1.8200919554e+000	 2.0614958826e+000	-1.0404591404e+000
 1.7986716810e+000	 2.0802115719e+000	-1.0815219389e+000
 1.7770671034e+000	 2.0986978130e+000	-1.1392720521e+000
 1.7552819119e+000	 2.1169519149e+000	-1.2135521860e+000
 1.7333198476e+000	 2.1349712658e+000	-1.3041941248e+000
 1.5757453160e+000	 1.9408829689e+000	-1.3206498048e+000
 1.5556224556e+000	 1.9570484858e+000	-1.3695680179e+000
 1.5353457367e+000	 1.9729960641e+000	-1.4087576052e+000
 1.5149186895e+000	 1.9887235515e+000	-1.4379766988e+000
 1.4943448831e+000	 2.0042288717e+000	-1.4569970123e+000
 1.4736279238e+000	 2.0195100253e+000	-1.4656043167e+000
 1.4527714528e+000	 2.0345650901e+000	-1.4635988856e+000
 1.4317791441e+000	 2.0493922227e+000	-1.4507959101e+000
 1.4106547028e+000	 2.0639896582e+000	-1.4270258807e+000
 1.3894018625e+000	 2.0783557117e+000	-1.3921349380e+000
 1.3680243835e+000	 2.0924887780e+000	-1.3459851889e+000
 1.5915027692e+000	 1.9602917986e+000	-1.3049216132e+000
 1.5711786801e+000	 1.9766189706e+000	-1.3631012373e+000
 1.5506991940e+000	 1.9927260247e+000	-1.4116228732e+000
 1.5300678764e+000	 2.0086107870e+000	-1.4501100057e+000
 1.5092883319e+000	 2.0242711605e+000	-1.4782005471e+000
 1.4883642030e+000	 2.0397051255e+000	-1.4955474588e+000
 1.4672991673e+000	 2.0549107410e+000	-1.5018193412e+000
 1.4460969356e+000	 2.0698861449e+000	-1.4967009895e+000
 1.4247612499e+000	 2.0846295548e+000	-1.4798939154e+000
 1.4032958811e+000	 2.0991392688e+000	-1.4511168326e+000
 1.3817046273e+000	 2.1134136658e+000	-1.4101061054e+000
 1.6072602223e+000	 1.9797006283e+000	-1.2928682381e+000
 1.5867349047e+000	 1.9961894555e+000	-1.3569068513e+000
 1.5660526514e+000	 2.0124559853e+000	-1.4113583490e+000
 1.5452170632e+000	 2.0284980225e+000	-1.4557129267e+000
 1.5242317808e+000	 2.0443134492e+000	-1.4894760522e+000
 1.5031004823e+000	 2.0599002258e+000	-1.5121692331e+000
 1.4818268818e+000	 2.0752563919e+000	-1.5233307494e+000
 1.4604147270e+000	 2.0903800671e+000	-1.5225163509e+000
 1.4388677969e+000	 2.1052694514e+000	-1.5092999153e+000
 1.4171898998e+000	 2.1199228259e+000	-1.4832740694e+000
 1.3953848711e+000	 2.1343385536e+000	-1.4440507685e+000
 1.6230176755e+000	 1.9991094580e+000	-1.2842649487e+000
 1.6022911292e+000	 2.0157599404e+000	-1.3508687015e+000
 1.5814061088e+000	 2.0321859460e+000	-1.4079562851e+000
 1.5603662501e+000	 2.0483852580e+000	-1.4548859091e+000
 1.5391752296e+000	 2.0643557379e+000	-1.4910318998e+000
 1.5178367615e+000	 2.0800953260e+000	-1.5157856130e+000
 1.4963545964e+000	 2.0956020428e+000	-1.5285563086e+000
 1.4747325185e+000	 2.1108739893e+000	-1.5287719876e+000
 1.4529743439e+000	 2.1259093480e+000	-1.5158801873e+000
 1.4310839184e+000	 2.1407063830e+000	-1.4893487357e+000
 1.4090651150e+000	 2.1552634414e+000	-1.4486664618e+000
 1.6387751286e+000	 2.0185182877e+000	-1.2788992390e+000
 1.6178473538e+000	 2.0353304252e+000	-1.3448787776e+000
 1.5967595661e+000	 2.0519159066e+000	-1.4014130085e+000
 1.5755154370e+000	 2.0682724935e+000	-1.4477294060e+000
 1.5541186784e+000	 2.0843980266e+000	-1.4830724062e+000
 1.5325730408e+000	 2.1002904263e+000	-1.5067044634e+000
 1.5108823109e+000	 2.1159476937e+000	-1.5179070662e+000
 1.4890503099e+000	 2.1313679116e+000	-1.5159817130e+000
 1.4670808910e+000	 2.1465492446e+000	-1.5002508436e+000
 1.4449779370e+000	 2.1614899402e+000	-1.4700587258e+000
 1.4227453588e+000	 2.1761883292e+000	-1.4247722961e+000
 1.6545325818e+000	 2.0379271174e+000	-1.2765702458e+000
 1.6334035783e+000	 2.0549009101e+000	-1.3388368293e+000
 1.6121130235e+000	 2.0716458673e+000	-1.3917287262e+000
 1.5906646239e+000	 2.0881597291e+000	-1.4343438757e+000
 1.5690621273e+000	 2.1044403153e+000	-1.4657980246e+000
 1.5473093200e+000	 2.1204855265e+000	-1.4852259262e+000
 1.5254100254e+000	 2.1362933446e+000	-1.4917824970e+000
 1.5033681014e+000	 2.1518618338e+000	-1.4846439305e+000
 1.4811874380e+000	 2.1671891411e+000	-1.4630087630e+000
 1.4588719557e+000	 2.1822734973e+000	-1.4260988933e+000
 1.4364256026e+000	 2.1971132169e+000	-1.3731605510e+000
 1.6702900350e+000	 2.0573359470e+000	-1.2770881994e+000
 1.6489598029e+000	 2.0744713949e+000	-1.3326500003e+000
 1.6274664809e+000	 2.0913758279e+000	-1.3789073424e+000
 1.6058138108e+000	 2.1080469646e+000	-1.4148297816e+000
 1.5840055761e+000	 2.1244826040e+000	-1.4394055276e+000
 1.5620455992e+000	 2.1406806268e+000	-1.4516427848e+000
 1.5399377400e+000	 2.1566389955e+000	-1.4505710499e+000
 1.5176858928e+000	 2.1723557560e+000	-1.4352423608e+000
 1.4952939850e+000	 2.1878290377e+000	-1.4047324986e+000
 1.4727659743e+000	 2.2030570544e+000	-1.3581421372e+000
 1.4501058465e+000	 2.2180381047e+000	-1.2945979402e+000
 1.6860474881e+000	 2.0767447767e+000	-1.2802739053e+000
 1.6645160274e+000	 2.0940418798e+000	-1.3262324829e+000
 1.6428199382e+000	 2.1111057885e+000	-1.3629562862e+000
 1.6209629977e+000	 2.1279342001e+000	-1.3892875921e+000
 1.5989490249e+000	 2.1445248928e+000	-1.4040881787e+000
 1.5767818785e+000	 2.1608757270e+000	-1.4062408082e+000
 1.5544654545e+000	 2.1769846464e+000	-1.3946506621e+000
 1.5320036842e+000	 2.1928496783e+000	-1.3682467280e+000
 1.5094005321e+000	 2.2084689343e+000	-1.3259831339e+000
 1.4866599929e+000	 2.2238406115e+000	-1.2668404288e+000
 1.4637860903e+000	 2.2389629925e+000	-1.1898268066e+000
 1.7018049413e+000	 2.0961536064e+000	-1.2859582546e+000
 1.6800722520e+000	 2.1136123646e+000	-1.3195051913e+000
 1.6581733956e+000	 2.1308357492e+000	-1.3438863475e+000
 1.6361121846e+000	 2.1478214356e+000	-1.3578177799e+000
 1.6138924738e+000	 2.1645671815e+000	-1.3600358956e+000
 1.5915181577e+000	 2.1810708273e+000	-1.3492990752e+000
 1.5689931690e+000	 2.1973302973e+000	-1.3243892466e+000
 1.5463214757e+000	 2.2133436005e+000	-1.2841134073e+000
 1.5235070791e+000	 2.2291088309e+000	-1.2273050913e+000
 1.5005540115e+000	 2.2446241686e+000	-1.1528257796e+000
 1.4774663341e+000	 2.2598878803e+000	-1.0595662504e+000
 1.7175623944e+000	 2.1155624361e+000	-1.2939817613e+000
 1.6956284766e+000	 2.1331828495e+000	-1.3123954538e+000
 1.6735268530e+000	 2.1505657098e+000	-1.3217115236e+000
 1.6512613715e+000	 2.1677086711e+000	-1.3205208223e+000
 1.6288359226e+000	 2.1846094702e+000	-1.3074354027e+000
 1.6062544370e+000	 2.2012659275e+000	-1.2810902816e+000
 1.5835208835e+000	 2.2176759482e+000	-1.2401451516e+000
 1.5606392671e+000	 2.2338375227e+000	-1.1832860377e+000
 1.5376136261e+000	 2.2497487275e+000	-1.1092268970e+000
 1.5144480302e+000	 2.2654077258e+000	-1.0167111578e+000
 1.4911465780e+000	 2.2808127681e+000	-9.0451319523e-001
 1.7333198476e+000	 2.1349712658e+000	-1.3041941248e+000
 1.7111847011e+000	 2.1527533344e+000	-1.3048367208e+000
 1.6888803104e+000	 2.1702956705e+000	-1.2964488731e+000
 1.6664105584e+000	 2.1875959066e+000	-1.2774972009e+000
 1.6437793714e+000	 2.2046517589e+000	-1.2464703771e+000
 1.6209907162e+000	 2.2214610278e+000	-1.2018810306e+000
 1.5980485981e+000	 2.2380215991e+000	-1.1422675952e+000
 1.5749570586e+000	 2.2543314449e+000	-1.0661961006e+000
 1.5517201731e+000	 2.2703886241e+000	-9.7226190308e-001
 1.5283420488e+000	 2.2861912829e+000	-8.5909135306e-001
 1.5048268218e+000	 2.3017376559e+000	-7.2534339613e-001
 1.3680243835e+000	 2.0924887780e+000	-1.3459851889e+000
 1.3465260504e+000	 2.1063873328e+000	-1.2332247153e+000
 1.3249106704e+000	 2.1200499323e+000	-1.1371961572e+000
 1.3031820709e+000	 2.1334752143e+000	-1.0578645087e+000
 1.2813440973e+000	 2.1466618980e+000	-9.9518577231e-001
 1.2594006108e+000	 2.1596087844e+000	-9.4910727241e-001
 1.2373554867e+000	 2.1723147561e+000	-9.1684448357e-001
 1.2152126119e+000	 2.1847787778e+000	-9.1894857148e-001
 1.1929758828e+000	 2.1969998960e+000	-9.6113185166e-001
 1.1706492033e+000	 2.2089772391e+000	-1.0414024593e+000
 1.1482364826e+000	 2.2207100171e+000	-1.1577818441e+000
 1.3817046273e+000	 2.1134136658e+000	-1.4101061054e+000
 1.3599913109e+000	 2.1274512061e+000	-1.3082910418e+000
 1.3381597771e+000	 2.1412504316e+000	-1.2206437006e+000
 1.3162138916e+000	 2.1548099664e+000	-1.1471535676e+000
 1.2941575382e+000	 2.1681285170e+000	-1.0878033419e+000
 1.2719946169e+000	 2.1812048722e+000	-1.0425692094e+000
 1.2497290416e+000	 2.1940379036e+000	-1.0115376490e+000
 1.2273647380e+000	 2.2066265656e+000	-1.0168533725e+000
 1.2049056416e+000	 2.2189698950e+000	-1.0601572599e+000
 1.1823556953e+000	 2.2310670115e+000	-1.1394104297e+000
 1.1597188475e+000	 2.2429171172e+000	-1.2525901590e+000
 1.3953848711e+000	 2.1343385536e+000	-1.4440507685e+000
 1.3734565714e+000	 2.1485150794e+000	-1.3541559238e+000
 1.3514088839e+000	 2.1624509309e+000	-1.2759006076e+000
 1.3292457123e+000	 2.1761447186e+000	-1.2092979836e+000
 1.3069709792e+000	 2.1895951360e+000	-1.1543566220e+000
 1.2845886230e+000	 2.2028009601e+000	-1.1110807343e+000
 1.2621025965e+000	 2.2157610512e+000	-1.0794704001e+000
 1.2395168641e+000	 2.2284743533e+000	-1.0769182913e+000
 1.2168354005e+000	 2.2409398939e+000	-1.1236406394e+000
 1.1940621873e+000	 2.2531567839e+000	-1.2042054121e+000
 1.1712012123e+000	 2.2651242174e+000	-1.3165425059e+000
 1.4090651150e+000	 2.1552634414e+000	-1.4486664618e+000
 1.3869218319e+000	 2.1695789527e+000	-1.3716455548e+000
 1.3646579906e+000	 2.1836514302e+000	-1.3037706474e+000
 1.3422775331e+000	 2.1974794707e+000	-1.2450777805e+000
 1.3197844202e+000	 2.2110617550e+000	-1.1956005835e+000
 1.2971826291e+000	 2.2243970479e+000	-1.1553704727e+000
 1.2744761513e+000	 2.2374841988e+000	-1.1244168363e+000
 1.2516689903e+000	 2.2503221411e+000	-1.1027672089e+000
 1.2287651593e+000	 2.2629098929e+000	-1.1512811154e+000
 1.2057686794e+000	 2.2752465563e+000	-1.2354830669e+000
 1.1826835771e+000	 2.2873313176e+000	-1.3493298786e+000
 1.4227453588e+000	 2.1761883292e+000	-1.4247722961e+000
 1.4003870924e+000	 2.1906428261e+000	-1.3615588288e+000
 1.3779070973e+000	 2.2048519296e+000	-1.3050312099e+000
 1.3553093538e+000	 2.2188142229e+000	-1.2552475688e+000
 1.3325978612e+000	 2.2325283739e+000	-1.2122657965e+000
 1.3097766352e+000	 2.2459931357e+000	-1.1761437060e+000
 1.2868497062e+000	 2.2592073463e+000	-1.1469391794e+000
 1.2638211164e+000	 2.2721699289e+000	-1.1247102994e+000
 1.2406949181e+000	 2.2848798918e+000	-1.1427579050e+000
 1.2174751714e+000	 2.2973363287e+000	-1.2329203777e+000
 1.1941659420e+000	 2.3095384178e+000	-1.3506258658e+000
 1.4364256026e+000	 2.1971132169e+000	-1.3731605510e+000
 1.4138523529e+000	 2.2117066994e+000	-1.3246686397e+000
 1.3911562040e+000	 2.2260524289e+000	-1.2804345609e+000
 1.3683411745e+000	 2.2401489750e+000	-1.2405377562e+000
 1.3454113021e+000	 2.2539949929e+000	-1.2050595916e+000
 1.3223706413e+000	 2.2675892236e+000	-1.1740834836e+000
 1.2992232611e+000	 2.2809304939e+000	-1.1476950068e+000
 1.2759732425e+000	 2.2940177167e+000	-1.1259819843e+000
 1.2526246769e+000	 2.3068498908e+000	-1.1090345601e+000
 1.2291816635e+000	 2.3194261010e+000	-1.1961765396e+000
 1.2056483068e+000	 2.3317455179e+000	-1.3200874801e+000
 1.4501058465e+000	 2.2180381047e+000	-1.2945979402e+000
 1.4273176134e+000	 2.2327705727e+000	-1.2617231082e+000
 1.4044053107e+000	 2.2472529282e+000	-1.2307090283e+000
 1.3813729952e+000	 2.2614837271e+000	-1.2016556884e+000
 1.3582247431e+000	 2.2754616119e+000	-1.1746671565e+000
 1.3349646475e+000	 2.2891853114e+000	-1.1498516713e+000
 1.3115968159e+000	 2.3026536414e+000	-1.1273217121e+000
 1.2881253686e+000	 2.3158655044e+000	-1.1071940492e+000
 1.2645544358e+000	 2.3288198898e+000	-1.0895897728e+000
 1.2408881555e+000	 2.3415158734e+000	-1.1248937993e+000
 1.2171306716e+000	 2.3539526181e+000	-1.2573559395e+000
 1.4637860903e+000	 2.2389629925e+000	-1.1898268066e+000
 1.4407828739e+000	 2.2538344460e+000	-1.1734467394e+000
 1.4176544174e+000	 2.2684534275e+000	-1.1565601197e+000
 1.3944048159e+000	 2.2828184793e+000	-1.1392867275e+000
 1.3710381841e+000	 2.2969282309e+000	-1.1217525707e+000
 1.3475586536e+000	 2.3107813993e+000	-1.1040899412e+000
 1.3239703708e+000	 2.3243767890e+000	-1.0864374484e+000
 1.3002774948e+000	 2.3377132922e+000	-1.0689400299e+000
 1.2764841946e+000	 2.3507898887e+000	-1.0517489382e+000
 1.2525946475e+000	 2.3636056458e+000	-1.0350217054e+000
 1.2286130364e+000	 2.3761597183e+000	-1.1620574062e+000
 1.4774663341e+000	 2.2598878803e+000	-1.0595662504e+000
 1.4542481344e+000	 2.2748983194e+000	-1.0605415157e+000
 1.4309035241e+000	 2.2896539269e+000	-1.0586715794e+000
 1.4074366366e+000	 2.3041532314e+000	-1.0540952696e+000
 1.3838516251e+000	 2.3183948499e+000	-1.0469597827e+000
 1.3601526597e+000	 2.3323774871e+000	-1.0374207067e+000
 1.3363439257e+000	 2.3460999366e+000	-1.0256420189e+000
 1.3124296209e+000	 2.3595610800e+000	-1.0117960574e+000
 1.2884139534e+000	 2.3727598877e+000	-9.9606346688e-001
 1.2643011396e+000	 2.3856954182e+000	-9.7863311880e-001
 1.2400954013e+000	 2.3983668184e+000	-1.0338036829e+000
 1.4911465780e+000	 2.2808127681e+000	-9.0451319523e-001
 1.4677133949e+000	 2.2959621927e+000	-9.2368793036e-001
 1.4441526308e+000	 2.3108544262e+000	-9.3770638685e-001
 1.4204684573e+000	 2.3254879836e+000	-9.4672570632e-001
 1.3966650660e+000	 2.3398614688e+000	-9.5091353318e-001
 1.3727466658e+000	 2.3539735750e+000	-9.5044800578e-001
 1.3487174805e+000	 2.3678230841e+000	-9.4551771868e-001
 1.3245817470e+000	 2.3814088678e+000	-9.3632165636e-001
 1.3003437123e+000	 2.3947298867e+000	-9.2306909841e-001
 1.2760076316e+000	 2.4077851906e+000	-9.0597949664e-001
 1.2515777661e+000	 2.4205739186e+000	-8.8528232449e-001
 1.5048268218e+000	 2.3017376559e+000	-7.2534339613e-001
 1.4811786555e+000	 2.3170260660e+000	-7.6354596409e-001
 1.4574017375e+000	 2.3320549255e+000	-7.9430770006e-001
 1.4335002780e+000	 2.3468227357e+000	-8.1780333424e-001
 1.4094785070e+000	 2.3613280878e+000	-8.3422022859e-001
 1.3853406719e+000	 2.3755696628e+000	-8.4375833645e-001
 1.3610910354e+000	 2.3895462317e+000	-8.4663013060e-001
 1.3367338731e+000	 2.4032566556e+000	-8.4306049973e-001
 1.3122734711e+000	 2.4166998856e+000	-8.3328661387e-001
 1.2877141236e+000	 2.4298749630e+000	-8.1755775908e-001
 1.2630601309e+000	 2.4427810188e+000	-7.9613514192e-001
 1.1482364826e+000	 2.2207100171e+000	-1.1577818441e+000
 1.1257416334e+000	 2.2321975215e+000	-1.0318010488e+000
 1.1031685694e+000	 2.2434391250e+000	-9.2555443483e-001
 1.0805212035e+000	 2.2544342814e+000	-8.3653983075e-001
 1.0578034457e+000	 2.2651825247e+000	-7.6230316608e-001
 1.0350192013e+000	 2.2756834694e+000	-7.0044254393e-001
 1.0121723687e+000	 2.2859368093e+000	-6.4861213519e-001
 9.8926683732e-001	 2.2959423174e+000	-6.0452588823e-001
 9.6630648602e-001	 2.3056998450e+000	-5.6596104847e-001
 9.4329518099e-001	 2.3152093213e+000	-5.3076148272e-001
 9.2023677391e-001	 2.3244707527e+000	-4.9684080395e-001
 1.1597188475e+000	 2.2429171172e+000	-1.2525901590e+000
 1.1369990498e+000	 2.2545194967e+000	-1.1019941567e+000
 1.1142002551e+000	 2.2658735162e+000	-9.7333540021e-001
 1.0913264155e+000	 2.2769786242e+000	-8.6416096657e-001
 1.0683814802e+000	 2.2878343500e+000	-7.7206423453e-001
 1.0453693934e+000	 2.2984403041e+000	-6.9468899404e-001
 1.0222940924e+000	 2.3087961774e+000	-6.2973337784e-001
 9.9915950569e-001	 2.3189017405e+000	-5.7495360853e-001
 9.7596955088e-001	 2.3287568434e+000	-5.2816755518e-001
 9.5272813280e-001	 2.3383614145e+000	-4.8725809457e-001
 9.2943914165e-001	 2.3477154602e+000	-4.5017627232e-001
 1.1712012123e+000	 2.2651242174e+000	-1.3165425059e+000
 1.1482564661e+000	 2.2768414719e+000	-1.1473619676e+000
 1.1252319408e+000	 2.2883079075e+000	-1.0022511826e+000
 1.1021316275e+000	 2.2995229670e+000	-8.7880216176e-001
 1.0789595146e+000	 2.3104861752e+000	-7.7465151957e-001
 1.0557195854e+000	 2.3211971388e+000	-6.8748462466e-001
 1.0324158161e+000	 2.3316555455e+000	-6.1503957294e-001
 1.0090521741e+000	 2.3418611637e+000	-5.5511097566e-001
 9.8563261575e-001	 2.3518138419e+000	-5.0555355680e-001
 9.6216108461e-001	 2.3615135077e+000	-4.6428555437e-001
 9.3864150939e-001	 2.3709601677e+000	-4.2929192107e-001
 1.1826835771e+000	 2.2873313176e+000	-1.3493298786e+000
 1.1595138824e+000	 2.2991634471e+000	-1.1674833168e+000
 1.1362636265e+000	 2.3107422987e+000	-1.0117699191e+000
 1.1129368396e+000	 2.3220673098e+000	-8.7982234076e-001
 1.0895375491e+000	 2.3331380004e+000	-7.6931624199e-001
 1.0660697774e+000	 2.3439539735e+000	-6.7797448513e-001
 1.0425375398e+000	 2.3545149136e+000	-6.0357115267e-001
 1.0189448424e+000	 2.3648205869e+000	-5.4393538030e-001
 9.9529568061e-001	 2.3748708403e+000	-4.9695499845e-001
 9.7159403643e-001	 2.3846656010e+000	-4.6057997715e-001
 9.4784387714e-001	 2.3942048752e+000	-4.3282566919e-001
 1.1941659420e+000	 2.3095384178e+000	-1.3506258658e+000
 1.1707712988e+000	 2.3214854223e+000	-1.1619250352e+000
 1.1472953122e+000	 2.3331766900e+000	-1.0013530802e+000
 1.1237420516e+000	 2.3446116526e+000	-8.6657903288e-001
 1.1001155835e+000	 2.3557898257e+000	-7.5531343172e-001
 1.0764199694e+000	 2.3667108082e+000	-6.6531256862e-001
 1.0526592634e+000	 2.3773742817e+000	-5.9438255625e-001
 1.0288375108e+000	 2.3877800100e+000	-5.4038320979e-001
 1.0049587455e+000	 2.3979278388e+000	-5.0123173625e-001
 9.8102698824e-001	 2.4078176942e+000	-4.7490622610e-001
 9.5704624488e-001	 2.4174495828e+000	-4.5944894222e-001
 1.2056483068e+000	 2.3317455179e+000	-1.3200874801e+000
 1.1820287151e+000	 2.3438073975e+000	-1.1302425211e+000
 1.1583269979e+000	 2.3556110812e+000	-9.7045578659e-001
 1.1345472636e+000	 2.3671559954e+000	-8.3842843874e-001
 1.1106936180e+000	 2.3784416509e+000	-7.3190174651e-001
 1.0867701614e+000	 2.3894676429e+000	-6.4866138628e-001
 1.0627809871e+000	 2.4002336497e+000	-5.8654156286e-001
 1.0387301792e+000	 2.4107394332e+000	-5.4342894348e-001
 1.0146218103e+000	 2.4209848372e+000	-5.1726639860e-001
 9.9045994005e-001	 2.4309697874e+000	-5.0605654362e-001
 9.6624861262e-001	 2.4406942903e+000	-5.0786507662e-001
 1.2171306716e+000	 2.3539526181e+000	-1.2573559395e+000
 1.1932861314e+000	 2.3661293727e+000	-1.0719802793e+000
 1.1693586836e+000	 2.3780454725e+000	-9.1852710892e-001
 1.1453524757e+000	 2.3897003382e+000	-7.9472549293e-001
 1.1212716525e+000	 2.4010934762e+000	-6.9834330071e-001
 1.0971203534e+000	 2.4122244775e+000	-6.2719156544e-001
 1.0729027108e+000	 2.4230930178e+000	-5.7912866243e-001
 1.0486228476e+000	 2.4336988564e+000	-5.5206429938e-001
 1.0242848752e+000	 2.4440418357e+000	-5.4396331211e-001
 9.9989289186e-001	 2.4541218806e+000	-5.5284925979e-001
 9.7545098036e-001	 2.4639389978e+000	-5.7680781461e-001
 1.2286130364e+000	 2.3761597183e+000	-1.1620574062e+000
 1.2045435478e+000	 2.3884513479e+000	-9.8667243038e-001
 1.1803903692e+000	 2.4004798637e+000	-8.4501035069e-001
 1.1561576877e+000	 2.4122446810e+000	-7.3482392318e-001
 1.1318496869e+000	 2.4237453014e+000	-6.5390350385e-001
 1.1074705454e+000	 2.4349813122e+000	-6.0008147034e-001
 1.0830244345e+000	 2.4459523859e+000	-5.7123646168e-001
 1.0585155159e+000	 2.4566582796e+000	-5.6529742856e-001
 1.0339479401e+000	 2.4670988341e+000	-5.8024748759e-001
 1.0093258437e+000	 2.4772739738e+000	-6.1412757338e-001
 9.8465334810e-001	 2.4871837053e+000	-6.6503988328e-001
 1.2400954013e+000	 2.3983668184e+000	-1.0338036829e+000
 1.2158009641e+000	 2.4107733232e+000	-8.7384319106e-001
 1.1914220549e+000	 2.4229142550e+000	-7.4934331503e-001
 1.1669628997e+000	 2.4347890238e+000	-6.5807630624e-001
 1.1424277214e+000	 2.4463971267e+000	-5.9785090800e-001
 1.1178207375e+000	 2.4577381469e+000	-5.6651684393e-001
 1.0931461582e+000	 2.4688117540e+000	-5.6196912316e-001
 1.0684081843e+000	 2.4796177027e+000	-5.8215215443e-001
 1.0436110049e+000	 2.4901558326e+000	-6.2506366251e-001
 1.0187587955e+000	 2.5004260670e+000	-6.8438544036e-001
 9.9385571584e-001	 2.5104284129e+000	-6.7186232363e-001
 1.2515777661e+000	 2.4205739186e+000	-8.8528232449e-001
 1.2270583804e+000	 2.4330952984e+000	-7.3300732893e-001
 1.2024537406e+000	 2.4453486462e+000	-6.3095855710e-001
 1.1777681118e+000	 2.4573333667e+000	-5.6383412067e-001
 1.1530057558e+000	 2.4690489519e+000	-5.2945706368e-001
 1.1281709295e+000	 2.4804949816e+000	-5.2569046943e-001
 1.1032678819e+000	 2.4916711221e+000	-5.5044183514e-001
 1.0783008527e+000	 2.5025771259e+000	-5.7135020693e-001
 1.0532740698e+000	 2.5132128310e+000	-5.2980171371e-001
 1.0281917473e+000	 2.5235781602e+000	-5.2724367600e-001
 1.0030580836e+000	 2.5336731204e+000	-5.6255998485e-001
 1.2630601309e+000	 2.4427810188e+000	-7.9613514192e-001
 1.2383157968e+000	 2.4554172736e+000	-5.6367059169e-001
 1.2134854263e+000	 2.4677830375e+000	-4.8928362261e-001
 1.1885733238e+000	 2.4798777095e+000	-4.5144779674e-001
 1.1635837903e+000	 2.4917007772e+000	-4.4799638351e-001
 1.1385211215e+000	 2.5032518163e+000	-4.3493167095e-001
 1.1133896056e+000	 2.5145304902e+000	-3.5551307732e-001
 1.0881935211e+000	 2.5255365491e+000	-3.1902166631e-001
 1.0629371346e+000	 2.5362698295e+000	-3.2433059779e-001
 1.0376246991e+000	 2.5467302535e+000	-3.7037057207e-001
 1.0122604513e+000	 2.5569178279e+000	-4.5612794269e-001
 9.2023677391e-001	 2.3244707527e+000	-4.9684080395e-001
 8.9713510015e-001	 2.3334842215e+000	-4.5367760392e-001
 8.7399397693e-001	 2.3422498860e+000	-4.2957550580e-001
 8.5081720161e-001	 2.3507679787e+000	-4.2284419434e-001
 8.2760854992e-001	 2.3590388060e+000	-4.3185078219e-001
 8.0437177429e-001	 2.3670627471e+000	-4.5502207213e-001
 7.8111060220e-001	 2.3748402530e+000	-4.9084663251e-001
 7.5782873460e-001	 2.3823718453e+000	-5.3787668524e-001
 7.3452984428e-001	 2.3896581153e+000	-5.9472980610e-001
 7.1121757443e-001	 2.3966997229e+000	-6.6009043748e-001
 6.8789553712e-001	 2.4034973955e+000	-7.3271121458e-001
 9.2943914165e-001	 2.3477154602e+000	-4.5017627232e-001
 9.0610645115e-001	 2.3568190637e+000	-4.1239036461e-001
 8.8273391670e-001	 2.3656723848e+000	-3.9032970824e-001
 8.5932537363e-001	 2.3742756584e+000	-3.8224160597e-001
 8.3588463542e-001	 2.3826291940e+000	-3.8643595014e-001
 8.1241549204e-001	 2.3907333746e+000	-4.0128751435e-001
 7.8892170823e-001	 2.3985886555e+000	-4.2523804929e-001
 7.6540702195e-001	 2.4061955637e+000	-4.5679818190e-001
 7.4187514273e-001	 2.4135546964e+000	-4.9454911771e-001
 7.1832975018e-001	 2.4206667202e+000	-5.3714414698e-001
 6.9477449249e-001	 2.4275323694e+000	-5.8330995544e-001
 9.3864150939e-001	 2.3709601677e+000	-4.2929192107e-001
 9.1507780216e-001	 2.3801539060e+000	-3.9736434248e-001
 8.9147385648e-001	 2.3890948837e+000	-3.7784291570e-001
 8.6783354565e-001	 2.3977833382e+000	-3.6891064852e-001
 8.4416072093e-001	 2.4062195821e+000	-3.6881834408e-001
 8.2045920978e-001	 2.4144040021e+000	-3.7588692422e-001
 7.9673281426e-001	 2.4223370580e+000	-3.8850954749e-001
 7.7298530930e-001	 2.4300192822e+000	-4.0515352130e-001
 7.4922044118e-001	 2.4374512776e+000	-4.2436200806e-001
 7.2544192593e-001	 2.4446337174e+000	-4.4475552613e-001
 7.0165344787e-001	 2.4515673434e+000	-4.6503324649e-001
 9.4784387714e-001	 2.3942048752e+000	-4.3282566919e-001
 9.2404915316e-001	 2.4034887482e+000	-4.0727672424e-001
 9.0021379625e-001	 2.4125173825e+000	-3.9082959763e-001
 8.7634171767e-001	 2.4212910180e+000	-3.8160106952e-001
 8.5243680643e-001	 2.4298099702e+000	-3.7778096706e-001
 8.2850292753e-001	 2.4380746295e+000	-3.7763452149e-001
 8.0454392028e-001	 2.4460854606e+000	-3.7950451032e-001
 7.8056359665e-001	 2.4538430006e+000	-3.8181318420e-001
 7.5656573962e-001	 2.4613478587e+000	-3.8306397857e-001
 7.3255410168e-001	 2.4686007146e+000	-3.8184301092e-001
 7.0853240324e-001	 2.4756023173e+000	-3.7682036479e-001
 9.5704624488e-001	 2.4174495828e+000	-4.5944894222e-001
 9.3302050416e-001	 2.4268235904e+000	-4.4083765743e-001
 9.0895373602e-001	 2.4359398814e+000	-4.2803669708e-001
 8.8484988969e-001	 2.4447986978e+000	-4.1909466115e-001
 8.6071289193e-001	 2.4534003582e+000	-4.1213849587e-001
 8.3654664528e-001	 2.4617452570e+000	-4.0537588665e-001
 8.1235502631e-001	 2.4698338631e+000	-3.9709742631e-001
 7.8814188400e-001	 2.4776667191e+000	-3.8567855859e-001
 7.6391103807e-001	 2.4852444399e+000	-3.6958129686e-001
 7.3966627743e-001	 2.4925677118e+000	-3.4735571919e-001
 7.1541135862e-001	 2.4996372913e+000	-3.1764124113e-001
 9.6624861262e-001	 2.4406942903e+000	-5.0786507662e-001
 9.4199185517e-001	 2.4501584326e+000	-4.9678868085e-001
 9.1769367579e-001	 2.4593623803e+000	-4.8824208430e-001
 8.9335806171e-001	 2.4683063776e+000	-4.8020373424e-001
 8.6898897743e-001	 2.4769907463e+000	-4.7073577275e-001
 8.4459036302e-001	 2.4854158845e+000	-4.5798646751e-001
 8.2016613233e-001	 2.4935822656e+000	-4.4019240813e-001
 7.9572017134e-001	 2.5014904375e+000	-4.1397161745e-001
 7.7125633651e-001	 2.5091410210e+000	-3.8351324090e-001
 7.4677845317e-001	 2.5165347091e+000	-3.6237346384e-001
 7.2229031399e-001	 2.5236722653e+000	-3.4930184056e-001
 9.7545098036e-001	 2.4639389978e+000	-5.7680781461e-001
 9.5096320617e-001	 2.4734932748e+000	-5.7390124385e-001
 9.2643361556e-001	 2.4827848791e+000	-5.7025309794e-001
 9.0186623372e-001	 2.4918140574e+000	-5.6376967876e-001
 8.7726506293e-001	 2.5005811343e+000	-5.4947639271e-001
 8.5263408076e-001	 2.5090865119e+000	-4.9731763402e-001
 8.2797723835e-001	 2.5173306682e+000	-4.5576436244e-001
 8.0329845869e-001	 2.5253141560e+000	-4.2343200071e-001
 7.7860163495e-001	 2.5330376022e+000	-3.9899574919e-001
 7.5389062892e-001	 2.5405017063e+000	-3.8118853970e-001
 7.2916926936e-001	 2.5477072392e+000	-3.6879891630e-001
 9.8465334810e-001	 2.4871837053e+000	-6.6503988328e-001
 9.5993455717e-001	 2.4968281170e+000	-6.7097530862e-001
 9.3517355533e-001	 2.5062073780e+000	-6.2622469998e-001
 9.1037440574e-001	 2.5153217372e+000	-5.6720132143e-001
 8.8554114843e-001	 2.5241715224e+000	-5.1890817155e-001
 8.6067779851e-001	 2.5327571394e+000	-4.7985535341e-001
 8.3578834438e-001	 2.5410790707e+000	-4.4862103790e-001
 8.1087674604e-001	 2.5491378744e+000	-4.2384942780e-001
 7.8594693340e-001	 2.5569341833e+000	-4.0424862527e-001
 7.6100280466e-001	 2.5644687035e+000	-3.8858841282e-001
 7.3604822473e-001	 2.5717422132e+000	-3.7569795826e-001
 9.9385571584e-001	 2.5104284129e+000	-6.7186232363e-001
 9.6890590817e-001	 2.5201629592e+000	-6.0990538309e-001
 9.4391349510e-001	 2.5296298768e+000	-5.5900081251e-001
 9.1888257776e-001	 2.5388294169e+000	-5.1752900426e-001
 8.9381723393e-001	 2.5477619105e+000	-4.8394697427e-001
 8.6872151625e-001	 2.5564277669e+000	-4.5678639142e-001
 8.4359945040e-001	 2.5648274732e+000	-4.3465148455e-001
 8.1845503338e-001	 2.5729615929e+000	-4.1621683785e-001
 7.9329223184e-001	 2.5808307645e+000	-4.0022508554e-001
 7.6811498040e-001	 2.5884357008e+000	-3.8548451663e-001
 7.4292718010e-001	 2.5957771871e+000	-3.7086660053e-001
 1.0030580836e+000	 2.5336731204e+000	-5.6255998485e-001
 9.7787725917e-001	 2.5434978015e+000	-5.2268179790e-001
 9.5265343487e-001	 2.5530523757e+000	-4.9097235279e-001
 9.2739074977e-001	 2.5623370967e+000	-4.6582562118e-001
 9.0209331943e-001	 2.5713522985e+000	-4.4571705797e-001
 8.7676523399e-001	 2.5800983944e+000	-4.2920146818e-001
 8.5141055642e-001	 2.5885758757e+000	-4.1491074618e-001
 8.2603332072e-001	 2.5967853113e+000	-4.0155149892e-001
 8.0063753028e-001	 2.6047273457e+000	-3.8790256429e-001
 7.7522715614e-001	 2.6124026980e+000	-3.7281243605e-001
 7.4980613547e-001	 2.6198121611e+000	-3.5519660657e-001
 1.0122604513e+000	 2.5569178279e+000	-4.5612794269e-001
 9.8684861017e-001	 2.5668326437e+000	-4.3710386260e-001
 9.6139337463e-001	 2.5764748746e+000	-4.2334848018e-001
 9.3589892178e-001	 2.5858447765e+000	-4.1327086585e-001
 9.1036940492e-001	 2.5949426866e+000	-4.0536647881e-001
 8.8480895173e-001	 2.6037690218e+000	-3.9821486766e-001
 8.5922166244e-001	 2.6123242783e+000	-3.9047723848e-001
 8.3361160807e-001	 2.6206090298e+000	-3.8089390218e-001
 8.0798282872e-001	 2.6286239268e+000	-3.6828161293e-001
 7.8233933189e-001	 2.6363696952e+000	-3.5153080969e-001
 7.5668509084e-001	 2.6438471350e+000	-3.2960277242e-001
 6.8789553712e-001	 2.4034973955e+000	-7.3271121458e-001
 6.6456731185e-001	 2.4100519264e+000	-4.9069127866e-001
 6.4123644421e-001	 2.4163641743e+000	-2.4744730695e-001
 6.1790644450e-001	 2.4224350612e+000	-1.0846494312e-001
 5.9458078647e-001	 2.4282655721e+000	-2.0730969344e-001
 5.7126290603e-001	 2.4338567526e+000	-3.0021096423e-001
 5.4795620010e-001	 2.4392097087e+000	-3.8659706048e-001
 5.2466402543e-001	 2.4443256044e+000	-4.6606061251e-001
 5.0138969748e-001	 2.4492056613e+000	-5.3835563940e-001
 4.7813648941e-001	 2.4538511564e+000	-6.0339432727e-001
 4.5490763105e-001	 2.4582634210e+000	-6.6124353758e-001
 6.9477449249e-001	 2.4275323694e+000	-5.8330995544e-001
 6.7121298497e-001	 2.4341524457e+000	-3.3770451122e-001
 6.4764880865e-001	 2.4405278160e+000	-8.8577821960e-002
 6.2408550895e-001	 2.4466594119e+000	 1.5132866264e-001
 6.0052659434e-001	 2.4525482278e+000	 7.6170991445e-002
 5.7697553510e-001	 2.4581953202e+000	 1.1208202638e-002
 5.5343576211e-001	 2.4636018058e+000	-4.2938014370e-002
 5.2991066568e-001	 2.4687688605e+000	-8.5818837330e-002
 5.0640359445e-001	 2.4736977179e+000	-1.1715525757e-001
 4.8291785430e-001	 2.4783896679e+000	-1.3683472876e-001
 4.5945670736e-001	 2.4828460553e+000	-1.4490753411e-001
 7.0165344787e-001	 2.4515673434e+000	-4.6503324649e-001
 6.7785865809e-001	 2.4582529650e+000	-2.1466942088e-001
 6.5406117310e-001	 2.4646914578e+000	 4.1538160769e-002
 6.3026457340e-001	 2.4708837625e+000	 3.0391858029e-001
 6.0647240220e-001	 2.4768308835e+000	 3.2544589350e-001
 5.8268816416e-001	 2.4825338877e+000	 2.9042602329e-001
 5.5891532411e-001	 2.4879939028e+000	 2.7062194799e-001
 5.3515730594e-001	 2.4932121165e+000	 2.6652349331e-001
 5.1141749143e-001	 2.4981897745e+000	 2.7844209551e-001
 4.8769921920e-001	 2.5029281795e+000	 2.4156925506e-001
 4.6400578367e-001	 2.5074286895e+000	 1.6582834465e-001
 7.0853240324e-001	 2.4756023173e+000	-3.7682036479e-001
 6.8450433122e-001	 2.4823534842e+000	-1.2059473621e-001
 6.6047353755e-001	 2.4888550995e+000	 1.4382383257e-001
 6.3644363785e-001	 2.4951081131e+000	 4.1683413004e-001
 6.1241821007e-001	 2.5011135392e+000	 5.2902234080e-001
 5.8840079322e-001	 2.5068724552e+000	 4.5312315994e-001
 5.6439488611e-001	 2.5123859999e+000	 3.7725497105e-001
 5.4040394619e-001	 2.5176553726e+000	 3.0011942600e-001
 5.1643138840e-001	 2.5226818311e+000	 2.2057111424e-001
 4.9248058409e-001	 2.5274666911e+000	 1.3761334314e-001
 4.6855485998e-001	 2.5320113237e+000	 5.0393744083e-002
 7.1541135862e-001	 2.4996372913e+000	-3.1764124113e-001
 6.9115000434e-001	 2.5064540035e+000	-8.6303926678e-002
 6.6688590199e-001	 2.5130187412e+000	 1.3610378867e-001
 6.4262270229e-001	 2.5193324637e+000	 3.5139530313e-001
 6.1836401794e-001	 2.5253961950e+000	 4.8128815166e-001
 5.9411342228e-001	 2.5312110227e+000	 3.9949970468e-001
 5.6987444812e-001	 2.5367780970e+000	 3.1639253279e-001
 5.4565058645e-001	 2.5420986286e+000	 2.3072803716e-001
 5.2144528538e-001	 2.5471738878e+000	 1.4142398048e-001
 4.9726194898e-001	 2.5520052026e+000	 4.7550073727e-002
 4.7310393629e-001	 2.5565939579e+000	-5.1676613392e-002
 7.2229031399e-001	 2.5236722653e+000	-3.4930184056e-001
 6.9779567746e-001	 2.5305545228e+000	-1.3836003850e-001
 6.7329826643e-001	 2.5371823830e+000	 6.6166765643e-002
 6.4880176674e-001	 2.5435568143e+000	 2.6482218523e-001
 6.2430982580e-001	 2.5496788507e+000	 4.5029303832e-001
 5.9982605134e-001	 2.5555495903e+000	 3.6258471813e-001
 5.7535401012e-001	 2.5611701941e+000	 2.7208816094e-001
 5.5089722670e-001	 2.5665418847e+000	 1.7762600645e-001
 5.2645918235e-001	 2.5716659444e+000	 7.8180804766e-002
 5.0204331388e-001	 2.5765437142e+000	-2.7109595254e-002
 4.7765301260e-001	 2.5811765921e+000	-1.3895683648e-001
 7.2916926936e-001	 2.5477072392e+000	-3.6879891630e-001
 7.0444135058e-001	 2.5546550420e+000	-1.7429359461e-001
 6.7971063087e-001	 2.5613460247e+000	 1.5048812892e-002
 6.5498083118e-001	 2.5677811649e+000	 1.9977651384e-001
 6.3025563367e-001	 2.5739615064e+000	 3.8040116243e-001
 6.0553868040e-001	 2.5798881578e+000	 3.4420395534e-001
 5.8083357212e-001	 2.5855622912e+000	 2.4608670107e-001
 5.5614386696e-001	 2.5909851407e+000	 1.4247653816e-001
 5.3147307933e-001	 2.5961580010e+000	 3.2422463707e-002
 5.0682467877e-001	 2.6010822257e+000	-8.4867755543e-002
 4.8220208891e-001	 2.6057592263e+000	-2.1003257965e-001
 7.3604822473e-001	 2.5717422132e+000	-3.7569795826e-001
 7.1108702369e-001	 2.5787555613e+000	-1.9494459075e-001
 6.8612299532e-001	 2.5855096665e+000	-1.8086372115e-002
 6.6115989563e-001	 2.5920055155e+000	 1.5542700045e-001
 6.3620144153e-001	 2.5982441621e+000	 3.2610658279e-001
 6.1125130946e-001	 2.6042267253e+000	 3.4616472887e-001
 5.8631313412e-001	 2.6099543883e+000	 2.4011609629e-001
 5.6139050721e-001	 2.6154283968e+000	 1.2692744825e-001
 5.3648697630e-001	 2.6206500576e+000	 5.7159332029e-003
 5.1160604366e-001	 2.6256207373e+000	-1.2423893876e-001
 4.8675116522e-001	 2.6303418605e+000	-2.6350050365e-001
 7.4292718010e-001	 2.5957771871e+000	-3.7086660053e-001
 7.1773269681e-001	 2.6028560806e+000	-2.0117672593e-001
 6.9253535976e-001	 2.6096733082e+000	-3.4097231552e-002
 6.6733896007e-001	 2.6162298662e+000	 1.3092175753e-001
 6.4214724939e-001	 2.6225268178e+000	 2.9438816509e-001
 6.1696393852e-001	 2.6285652928e+000	 3.7025676253e-001
 5.9179269612e-001	 2.6343464854e+000	 2.5588816981e-001
 5.6663714746e-001	 2.6398716528e+000	 1.3261187674e-001
 5.4150087327e-001	 2.6451421142e+000	-3.8506799650e-004
 5.1638740856e-001	 2.6501592489e+000	-1.4374954049e-001
 4.9130024153e-001	 2.6549244947e+000	-2.9796776591e-001
 7.4980613547e-001	 2.6198121611e+000	-3.5519660657e-001
 7.2437836993e-001	 2.6269565998e+000	-1.9387631514e-001
 6.9894772419e-001	 2.6338369500e+000	-3.3863331654e-002
 6.7351802451e-001	 2.6404542168e+000	 1.2538924345e-001
 6.4809305726e-001	 2.6468094736e+000	 2.8438364294e-001
 6.2267656758e-001	 2.6529038604e+000	 4.1825299826e-001
 5.9727225811e-001	 2.6587385825e+000	 2.9509936437e-001
 5.7188378771e-001	 2.6643149089e+000	 1.6114896093e-001
 5.4651477025e-001	 2.6696341708e+000	 1.5660529830e-002
 5.2116877345e-001	 2.6746977604e+000	-1.4193727605e-001
 4.9584931784e-001	 2.6795071290e+000	-3.1205153909e-001
 7.5668509084e-001	 2.6438471350e+000	-3.2960277242e-001
 7.3102404304e-001	 2.6510571191e+000	-1.7395126133e-001
 7.0536008863e-001	 2.6580005917e+000	-1.8284402532e-002
 6.7969708895e-001	 2.6646785674e+000	 1.3793915583e-001
 6.5403886512e-001	 2.6710921293e+000	 2.9521337098e-001
 6.2838919664e-001	 2.6772424279e+000	 4.5398798486e-001
 6.0275182011e-001	 2.6831306796e+000	 3.5943144134e-001
 5.7713042797e-001	 2.6887581649e+000	 2.1414447188e-001
 5.5152866722e-001	 2.6941262274e+000	 5.5381722331e-002
 5.2595013834e-001	 2.6992362720e+000	-1.1735066597e-001
 5.0039839415e-001	 2.7040897632e+000	-3.0437855581e-001
 4.5490763105e-001	 2.4582634210e+000	-6.6124353758e-001
 4.3170630795e-001	 2.4624438397e+000	-6.2599698012e-001
 4.0853566044e-001	 2.4663938481e+000	-5.8503379562e-001
 3.8539878284e-001	 2.4701149322e+000	-5.3835979116e-001
 3.6229872257e-001	 2.4736086262e+000	-4.8612816871e-001
 3.3923847946e-001	 2.4768765117e+000	-4.2863521755e-001
 3.1622100496e-001	 2.4799202156e+000	-3.6631581532e-001
 2.9324920155e-001	 2.4827414094e+000	-2.9973875422e-001
 2.7032592207e-001	 2.4853418066e+000	-2.2960190838e-001
 2.4745396916e-001	 2.4877231625e+000	-1.5672725869e-001
 2.2463609475e-001	 2.4898872715e+000	-8.2055790936e-002
 4.5945670736e-001	 2.4828460553e+000	-1.4490753411e-001
 4.3602337102e-001	 2.4870682781e+000	-3.5970683380e-002
 4.1262101704e-001	 2.4910577866e+000	 8.3284018279e-002
 3.8925277066e-001	 2.4948160815e+000	 2.1285228339e-001
 3.6592170980e-001	 2.4983447125e+000	 3.5257459102e-001
 3.4263086425e-001	 2.5016452768e+000	 4.3403185136e-001
 3.1938321501e-001	 2.5047194178e+000	 4.4838137436e-001
 2.9618169356e-001	 2.5075688234e+000	 4.5866519948e-001
 2.7302918129e-001	 2.5101952247e+000	 4.6530644171e-001
 2.4992850885e-001	 2.5126003941e+000	 4.6881477726e-001
 2.2688245570e-001	 2.5147861442e+000	 4.6978133787e-001
 4.6400578367e-001	 2.5074286895e+000	 1.6582834465e-001
 4.4034043410e-001	 2.5116927165e+000	 2.1141523252e-001
 4.1670637365e-001	 2.5157217251e+000	 2.5173913258e-001
 3.9310675849e-001	 2.5195172308e+000	 2.8679604432e-001
 3.6954469702e-001	 2.5230807987e+000	 3.1669538145e-001
 3.4602324904e-001	 2.5264140419e+000	 3.4165484663e-001
 3.2254542506e-001	 2.5295186200e+000	 3.6199524594e-001
 2.9911418558e-001	 2.5323962375e+000	 3.7813525738e-001
 2.7573244051e-001	 2.5350486428e+000	 3.9058616764e-001
 2.5240304855e-001	 2.5374776257e+000	 3.9994659066e-001
 2.2912881665e-001	 2.5396850170e+000	 4.0689718126e-001
 4.6855485998e-001	 2.5320113237e+000	 5.0393744083e-002
 4.4465749718e-001	 2.5363171549e+000	 1.0366115871e-001
 4.2079173025e-001	 2.5403856636e+000	 1.5099468588e-001
 3.9696074632e-001	 2.5442183801e+000	 1.9247387324e-001
 3.7316768424e-001	 2.5478168850e+000	 2.2829348250e-001
 3.4941563383e-001	 2.5511828070e+000	 2.5875816856e-001
 3.2570763510e-001	 2.5543178221e+000	 2.8427709932e-001
 3.0204667759e-001	 2.5572236516e+000	 3.0535853131e-001
 2.7843569973e-001	 2.5599020608e+000	 3.2260435546e-001
 2.5487758824e-001	 2.5623548573e+000	 3.3670462708e-001
 2.3137517760e-001	 2.5645838897e+000	 3.4843209354e-001
 4.7310393629e-001	 2.5565939579e+000	-5.1676613392e-002
 4.4897456026e-001	 2.5609415933e+000	 8.9093578252e-003
 4.2487708685e-001	 2.5650496021e+000	 6.2776916326e-002
 4.0081473414e-001	 2.5689195295e+000	 1.1009120612e-001
 3.7679067147e-001	 2.5725529713e+000	 1.5113448260e-001
 3.5280801863e-001	 2.5759515721e+000	 1.8630059060e-001
 3.2886984515e-001	 2.5791170243e+000	 2.1608938440e-001
 3.0497916961e-001	 2.5820510657e+000	 2.4110110509e-001
 2.8113895895e-001	 2.5847554789e+000	 2.6203072997e-001
 2.5735212793e-001	 2.5872320890e+000	 2.7966230864e-001
 2.3362153855e-001	 2.5894827624e+000	 2.9486329954e-001
 4.7765301260e-001	 2.5811765921e+000	-1.3895683648e-001
 4.5329162333e-001	 2.5855660317e+000	-7.1507780303e-002
 4.2896244345e-001	 2.5897135406e+000	-1.1675616039e-002
 4.0466872197e-001	 2.5936206788e+000	 4.0792494372e-002
 3.8041365869e-001	 2.5972890575e+000	 8.6268495183e-002
 3.5620040342e-001	 2.6007203373e+000	 1.2523770851e-001
 3.3203205520e-001	 2.6039162264e+000	 1.5829304910e-001
 3.0791166162e-001	 2.6068784798e+000	 1.8612919800e-001
 2.8384221817e-001	 2.6096088970e+000	 2.0953675030e-001
 2.5982666762e-001	 2.6121093206e+000	 2.2939635193e-001
 2.3586789950e-001	 2.6143816351e+000	 2.4667283970e-001
 4.8220208891e-001	 2.6057592263e+000	-2.1003257965e-001
 4.5760868641e-001	 2.6101904701e+000	-1.3626763790e-001
 4.3304780006e-001	 2.6143774790e+000	-7.1132384200e-002
 4.0852270980e-001	 2.6183218281e+000	-1.4284139666e-002
 3.8403664592e-001	 2.6220251438e+000	 3.4740973179e-002
 3.5959278821e-001	 2.6254891024e+000	 7.6522090283e-002
 3.3519426525e-001	 2.6287154286e+000	 1.1174761014e-001
 3.1084415364e-001	 2.6317058939e+000	 1.4120915832e-001
 2.8654547739e-001	 2.6344623150e+000	 1.6579552812e-001
 2.6230120731e-001	 2.6369865522e+000	 1.8648661265e-001
 2.3811426044e-001	 2.6392805078e+000	 2.0434734295e-001
 4.8675116522e-001	 2.6303418605e+000	-2.6350050365e-001
 4.6192574949e-001	 2.6348149085e+000	-1.8405691265e-001
 4.3713315666e-001	 2.6390414175e+000	-1.1437051880e-001
 4.1237669763e-001	 2.6430229774e+000	-5.4006606963e-002
 3.8765963314e-001	 2.6467612300e+000	-2.4070732332e-003
 3.6298517301e-001	 2.6502578675e+000	 4.1103417605e-002
 3.3835647530e-001	 2.6535146308e+000	 7.7311219963e-002
 3.1377664565e-001	 2.6565333080e+000	 1.0710745735e-001
 2.8924873661e-001	 2.6593157331e+000	 1.3148175042e-001
 2.6477574700e-001	 2.6618637839e+000	 1.5151593888e-001
 2.4036062139e-001	 2.6641793805e+000	 1.6837781226e-001
 4.9130024153e-001	 2.6549244947e+000	-2.9796776591e-001
 4.6624281257e-001	 2.6594393469e+000	-2.1357118637e-001
 4.4121851326e-001	 2.6637053560e+000	-1.4017445362e-001
 4.1623068545e-001	 2.6677241268e+000	-7.7248572475e-002
 3.9128262037e-001	 2.6714973163e+000	-2.4138870938e-002
 3.6637755780e-001	 2.6750266326e+000	 1.9928619477e-002
 3.4151868535e-001	 2.6783138329e+000	 5.5840729872e-002
 3.1670913767e-001	 2.6813607221e+000	 8.4590683680e-002
 2.9195199583e-001	 2.6841691512e+000	 1.0727160656e-001
 2.6725028670e-001	 2.6867410155e+000	 1.2507003258e-001
 2.4260698234e-001	 2.6890782533e+000	 1.3925942216e-001
 4.9584931784e-001	 2.6795071290e+000	-3.1205153909e-001
 4.7055987565e-001	 2.6840637853e+000	-2.2351451752e-001
 4.4530386987e-001	 2.6883692945e+000	-1.4733559057e-001
 4.2008467328e-001	 2.6924252761e+000	-8.2889191200e-002
 3.9490560759e-001	 2.6962334026e+000	-2.9421689518e-002
 3.6976994260e-001	 2.6997953977e+000	 1.3941998499e-002
 3.4468089540e-001	 2.7031130351e+000	 4.8191749735e-002
 3.1964162968e-001	 2.7061881362e+000	 7.4425537841e-002
 2.9465525505e-001	 2.7090225692e+000	 9.3842719367e-002
 2.6972482639e-001	 2.7116182471e+000	 1.0773731865e-001
 2.4485334329e-001	 2.7139771260e+000	 1.1749132737e-001
 5.0039839415e-001	 2.7040897632e+000	-3.0437855581e-001
 4.7487693873e-001	 2.7086882237e+000	-2.1259905593e-001
 4.4938922647e-001	 2.7130332330e+000	-1.3465198295e-001
 4.2393866111e-001	 2.7171264254e+000	-6.9812858634e-002
 3.9852859482e-001	 2.7209694888e+000	-1.7226657501e-002
 3.7316232739e-001	 2.7245641628e+000	 2.4085350244e-002
 3.4784310545e-001	 2.7279122372e+000	 5.5218704399e-002
 3.2257412170e-001	 2.7310155503e+000	 7.7378827192e-002
 2.9735851428e-001	 2.7338759873e+000	 9.1874079977e-002
 2.7219936608e-001	 2.7364954787e+000	 1.0010882118e-001
 2.4709970424e-001	 2.7388759987e+000	 1.0357648189e-001
 2.2463609475e-001	 2.4898872715e+000	-8.2055790936e-002
 2.0187499956e-001	 2.4918359666e+000	-9.8107298737e-003
 1.7917333268e-001	 2.4935711173e+000	 6.5365916607e-002
 1.5653369117e-001	 2.4950946282e+000	 1.4219999187e-001
 1.3395861973e-001	 2.4964084378e+000	 2.1931630992e-001
 1.1145061038e-001	 2.4975145168e+000	 2.9524425372e-001
 8.9012102215e-002	 2.4984148666e+000	 3.6842341128e-001
 6.6645481200e-002	 2.4991115181e+000	 4.3720923554e-001
 4.4353079963e-002	 2.4996065299e+000	 4.9987871447e-001
 2.2137177686e-002	 2.4999019872e+000	 5.5463603822e-001
 0.0000000000e+000	 2.5000000000e+000	 5.9961825082e-001
 2.2688245570e-001	 2.5147861442e+000	 4.6978133787e-001
 2.0389374956e-001	 2.5167543263e+000	 4.6612643958e-001
 1.8096506601e-001	 2.5185068284e+000	 4.6301588719e-001
 1.5809902809e-001	 2.5200455744e+000	 4.6126856052e-001
 1.3529820593e-001	 2.5213725222e+000	 4.6176208517e-001
 1.1256511648e-001	 2.5224896619e+000	 4.6542791764e-001
 8.9902223242e-002	 2.5233990153e+000	 4.7324649119e-001
 6.7311936015e-002	 2.5241026333e+000	 4.8624243168e-001
 4.4796610765e-002	 2.5246025952e+000	 5.0547985210e-001
 2.2358549464e-002	 2.5249010070e+000	 5.3205773372e-001
 0.0000000000e+000	 2.5250000000e+000	 5.6710540162e-001
 2.2912881665e-001	 2.5396850170e+000	 4.0689718126e-001
 2.0591249956e-001	 2.5416726859e+000	 4.1001202702e-001
 1.8275679934e-001	 2.5434425396e+000	 4.1234265378e-001
 1.5966436500e-001	 2.5449965207e+000	 4.1481948259e-001
 1.3663779213e-001	 2.5463366065e+000	 4.1843250017e-001
 1.1367962259e-001	 2.5474648071e+000	 4.2422614017e-001
 9.0792344267e-002	 2.5483831639e+000	 4.3329422976e-001
 6.7978390830e-002	 2.5490937484e+000	 4.4677501073e-001
 4.5240141567e-002	 2.5495986605e+000	 4.6584624430e-001
 2.2579921242e-002	 2.5499000269e+000	 4.9172040780e-001
 0.0000000000e+000	 2.5500000000e+000	 5.2563999110e-001
 2.3137517760e-001	 2.5645838897e+000	 3.4843209354e-001
 2.0793124956e-001	 2.5665910456e+000	 3.5715565587e-001
 1.8454853267e-001	 2.5683782508e+000	 3.6370822032e-001
 1.6122970192e-001	 2.5699474670e+000	 3.6913410340e-001
 1.3797737833e-001	 2.5713006909e+000	 3.7453804148e-001
 1.1479412870e-001	 2.5724399523e+000	 3.8107986387e-001
 9.1682465292e-002	 2.5733673126e+000	 3.8996923557e-001
 6.8644845644e-002	 2.5740848636e+000	 4.0246047953e-001
 4.5683672368e-002	 2.5745947258e+000	 4.1984748747e-001
 2.2801293020e-002	 2.5748990468e+000	 4.4345872798e-001
 0.0000000000e+000	 2.5750000000e+000	 4.7465235984e-001
 2.3362153855e-001	 2.5894827624e+000	 2.9486329954e-001
 2.0994999955e-001	 2.5915094053e+000	 3.0793451513e-001
 1.8634026600e-001	 2.5933139620e+000	 3.1738903706e-001
 1.6279503883e-001	 2.5948984133e+000	 3.2438749038e-001
 1.3931696453e-001	 2.5962647753e+000	 3.3015180843e-001
 1.1590863480e-001	 2.5974150974e+000	 3.3595969308e-001
 9.2572586317e-002	 2.5983514613e+000	 3.4313914936e-001
 6.9311300459e-002	 2.5990759788e+000	 3.5306310443e-001
 4.6127203170e-002	 2.5995907911e+000	 3.6714412020e-001
 2.3022664798e-002	 2.5998980666e+000	 3.8682920876e-001
 0.0000000000e+000	 2.6000000000e+000	 4.1359475840e-001
 2.3586789950e-001	 2.6143816351e+000	 2.4667283970e-001
 2.1196874955e-001	 2.6164277650e+000	 2.6273224344e-001
 1.8813199933e-001	 2.6182496731e+000	 2.7366963295e-001
 1.6436037574e-001	 2.6198493596e+000	 2.8076441327e-001
 1.4065655073e-001	 2.6212288597e+000	 2.8535822011e-001
 1.1702314091e-001	 2.6223902426e+000	 2.8884916277e-001
 9.3462707341e-002	 2.6233356099e+000	 2.9268614615e-001
 6.9977755272e-002	 2.6240670940e+000	 2.9836328198e-001
 4.6570733970e-002	 2.6245868564e+000	 3.0741439905e-001
 2.3244036575e-002	 2.6248970865e+000	 3.2140766155e-001
 0.0000000000e+000	 2.6250000000e+000	 3.4194030398e-001
 2.3811426044e-001	 2.6392805078e+000	 2.0434734295e-001
 2.1398749955e-001	 2.6413461246e+000	 2.2193862483e-001
 1.8992373266e-001	 2.6431853843e+000	 2.3284223458e-001
 1.6592571266e-001	 2.6448003059e+000	 2.3845888642e-001
 1.4199613693e-001	 2.6461929440e+000	 2.4025248142e-001
 1.1813764702e-001	 2.6473653878e+000	 2.3974412860e-001
 9.4352828365e-002	 2.6483197586e+000	 2.3850624968e-001
 7.0644210086e-002	 2.6490582092e+000	 2.3815677816e-001
 4.7014264771e-002	 2.6495829217e+000	 2.4035346274e-001
 2.3465408353e-002	 2.6498961064e+000	 2.4678828447e-001
 0.0000000000e+000	 2.6500000000e+000	 2.5918199616e-001
 2.4036062139e-001	 2.6641793805e+000	 1.6837781226e-001
 2.1600624954e-001	 2.6662644843e+000	 1.8594930156e-001
 1.9171546598e-001	 2.6681210955e+000	 1.9520640649e-001
 1.6749104957e-001	 2.6697512521e+000	 1.9767373680e-001
 1.4333572313e-001	 2.6711570284e+000	 1.9494007908e-001
 1.1925215312e-001	 2.6723405329e+000	 1.8865219119e-001
 9.5242949388e-002	 2.6733039073e+000	 1.8050868526e-001
 7.1310664899e-002	 2.6740493244e+000	 1.7225401009e-001
 4.7457795571e-002	 2.6745789870e+000	 1.6567254335e-001
 2.3686780130e-002	 2.6748951263e+000	 1.6258280313e-001
 0.0000000000e+000	 2.6750000000e+000	 1.6483178780e-001
 2.4260698234e-001	 2.6890782533e+000	 1.3925942216e-001
 2.1802499954e-001	 2.6911828440e+000	 1.5516550292e-001
 1.9350719931e-001	 2.6930568066e+000	 1.6106871141e-001
 1.6905638648e-001	 2.6947021984e+000	 1.5862019605e-001
 1.4467530933e-001	 2.6961211128e+000	 1.4953630560e-001
 1.2036665923e-001	 2.6973156781e+000	 1.3559215236e-001
 9.6133070411e-002	 2.6982880559e+000	 1.1861526861e-001
 7.1977119711e-002	 2.6990404395e+000	 1.0047936782e-001
 4.7901326371e-002	 2.6995750523e+000	 8.3098221180e-002
 2.3908151907e-002	 2.6998941461e+000	 6.8419659169e-002
 0.0000000000e+000	 2.7000000000e+000	 5.8419707586e-002
 2.4485334329e-001	 2.7139771260e+000	 1.1749132737e-001
 2.2004374954e-001	 2.7161012036e+000	 1.2999378890e-001
 1.9529893264e-001	 2.7179925178e+000	 1.3074238929e-001
 1.7062172340e-001	 2.7196531447e+000	 1.2151751489e-001
 1.4601489552e-001	 2.7210851972e+000	 1.0416580950e-001
 1.2148116533e-001	 2.7222908233e+000	 8.0593501328e-002
 9.7023191433e-002	 2.7232722046e+000	 5.2759828274e-002
 7.2643574523e-002	 2.7240315547e+000	 2.2670573318e-002
 4.8344857171e-002	 2.7245711176e+000	-7.6282792466e-003
 2.4129523684e-002	 2.7248931660e+000	-3.6056756506e-002
 0.0000000000e+000	 2.7250000000e+000	-6.0506969140e-002
 2.4709970424e-001	 2.7388759987e+000	 1.0357648189e-001
 2.2206249953e-001	 2.7410195633e+000	 1.1084580796e-001
 1.9709066597e-001	 2.7429282290e+000	 1.0454705375e-001
 1.7218706031e-001	 2.7446040910e+000	 8.6592598660e-002
 1.4735448172e-001	 2.7460492816e+000	 5.8962170008e-002
 1.2259567143e-001	 2.7472659684e+000	 2.3695928903e-002
 9.7913312455e-002	 2.7482563533e+000	-1.7112340368e-002
 7.3310029335e-002	 2.7490226699e+000	-6.1321925523e-002
 4.8788387970e-002	 2.7495671829e+000	-1.0675175485e-001
 2.4350895461e-002	 2.7498921859e+000	-1.5118682872e-001
 0.0000000000e+000	 2.7500000000e+000	-1.9238450433e-001
 2.7500000000e+000	 0.0000000000e+000	 9.5899190215e-001
 2.7498921859e+000	 2.4350895461e-002	 1.0242152767e+000
 2.7495671829e+000	 4.8788387970e-002	 1.0865575994e+000
 2.7490226699e+000	 7.3310029335e-002	 1.1464636260e+000
 2.7482563533e+000	 9.7913312455e-002	 1.2044903629e+000
 2.7472659684e+000	 1.2259567143e-001	 1.2613085497e+000
 2.7460492816e+000	 1.4735448172e-001	 1.3177039352e+000
 2.7446040910e+000	 1.7218706031e-001	 1.3745783374e+000
 2.7429282290e+000	 1.9709066597e-001	 1.4329504788e+000
 2.7410195633e+000	 2.2206249953e-001	 1.4939565863e+000
 2.7388759987e+000	 2.4709970424e-001	 1.5588507467e+000
 2.7750000000e+000	 0.0000000000e+000	 1.1936751060e+000
 2.7748912057e+000	 2.4572267237e-002	 1.2378015824e+000
 2.7745632482e+000	 4.9231918770e-002	 1.2786789866e+000
 2.7740137851e+000	 7.3976484146e-002	 1.3168660559e+000
 2.7732405019e+000	 9.8803433477e-002	 1.3530385825e+000
 2.7722411136e+000	 1.2371017754e-001	 1.3879908745e+000
 2.7710133659e+000	 1.4869406792e-001	 1.4226370021e+000
 2.7695550373e+000	 1.7375239722e-001	 1.4580118180e+000
 2.7678639402e+000	 1.9888239929e-001	 1.4952717433e+000
 2.7659379230e+000	 2.2408124953e-001	 1.5356953082e+000
 2.7637748714e+000	 2.4934606519e-001	 1.5806834378e+000
 2.8000000000e+000	 0.0000000000e+000	 1.4233893276e+000
 2.7998902256e+000	 2.4793639014e-002	 1.4478500604e+000
 2.7995593135e+000	 4.9675449569e-002	 1.4685997031e+000
 2.7990049003e+000	 7.4642938958e-002	 1.4863106057e+000
 2.7982246506e+000	 9.9693554498e-002	 1.5017770748e+000
 2.7972162588e+000	 1.2482468364e-001	 1.5159168168e+000
 2.7959774503e+000	 1.5003365411e-001	 1.5297721546e+000
 2.7945059836e+000	 1.7531773413e-001	 1.5445110111e+000
 2.7927996513e+000	 2.0067413262e-001	 1.5614276470e+000
 2.7908562826e+000	 2.2609999953e-001	 1.5819431432e+000
 2.7886737441e+000	 2.5159242613e-001	 1.6076056188e+000
 2.8250000000e+000	 0.0000000000e+000	 1.6487254618e+000
 2.8248892455e+000	 2.5015010790e-002	 1.6548389470e+000
 2.8245553788e+000	 5.0118980368e-002	 1.6566848501e+000
 2.8239960154e+000	 7.5309393769e-002	 1.6550488121e+000
 2.8232087993e+000	 1.0058367552e-001	 1.6508434330e+000
 2.8221914039e+000	 1.2593918974e-001	 1.6451096973e+000
 2.8209415347e+000	 1.5137324031e-001	 1.6390181650e+000
 2.8194569298e+000	 1.7688307104e-001	 1.6338699186e+000
 2.8177353625e+000	 2.0246586595e-001	 1.6310972543e+000
 2.8157746423e+000	 2.2811874952e-001	 1.6322641083e+000
 2.8135726168e+000	 2.5383878708e-001	 1.6390662073e+000
 2.8500000000e+000	 0.0000000000e+000	 1.8702536703e+000
 2.8498882654e+000	 2.5236382567e-002	 1.8592282456e+000
 2.8495514441e+000	 5.0562511167e-002	 1.8432837757e+000
 2.8489871306e+000	 7.5975848581e-002	 1.8233189180e+000
 2.8481929479e+000	 1.0147379654e-001	 1.8003643923e+000
 2.8471665491e+000	 1.2705369585e-001	 1.7755843916e+000
 2.8459056191e+000	 1.5271282651e-001	 1.7502777483e+000
 2.8444078761e+000	 1.7844840795e-001	 1.7258788464e+000
 2.8426710737e+000	 2.0425759927e-001	 1.7039582680e+000
 2.8406930020e+000	 2.3013749952e-001	 1.6862231648e+000
 2.8384714896e+000	 2.5608514803e-001	 1.6745173418e+000
 2.8750000000e+000	 0.0000000000e+000	 2.0885242833e+000
 2.8748872852e+000	 2.5457754343e-002	 2.0614605196e+000
 2.8745475094e+000	 5.1006041966e-002	 2.0287307604e+000
 2.8739782458e+000	 7.6642303392e-002	 1.9913464500e+000
 2.8731770966e+000	 1.0236391756e-001	 1.9504563022e+000
 2.8721416943e+000	 1.2816820195e-001	 1.9073476973e+000
 2.8708697034e+000	 1.5405241270e-001	 1.8634478252e+000
 2.8693588224e+000	 1.8001374486e-001	 1.8203245652e+000
 2.8676067849e+000	 2.0604933260e-001	 1.7796870891e+000
 2.8656113616e+000	 2.3215624951e-001	 1.7433861778e+000
 2.8633703623e+000	 2.5833150898e-001	 1.7134142422e+000
 2.9000000000e+000	 0.0000000000e+000	 2.3040686537e+000
 2.8998863051e+000	 2.5679126120e-002	 2.2619616439e+000
 2.8995435747e+000	 5.1449572765e-002	 2.2133456660e+000
 2.8989693610e+000	 7.7308758203e-002	 2.1593447669e+000
 2.8981612453e+000	 1.0325403858e-001	 2.1012255743e+000
 2.8971168394e+000	 1.2928270805e-001	 2.0403986820e+000
 2.8958337878e+000	 1.5539199890e-001	 1.9784197721e+000
 2.8943097687e+000	 1.8157908178e-001	 1.9169904633e+000
 2.8925424960e+000	 2.0784106593e-001	 1.8579588720e+000
 2.8905297213e+000	 2.3417499951e-001	 1.8033198772e+000
 2.8882692350e+000	 2.6057786993e-001	 1.7552150764e+000
 2.9250000000e+000	 0.0000000000e+000	 2.5173999690e+000
 2.9248853250e+000	 2.5900497897e-002	 2.4611415183e+000
 2.9245396400e+000	 5.1893103565e-002	 2.3974345523e+000
 2.9239604762e+000	 7.7975213015e-002	 2.3275155796e+000
 2.9231453939e+000	 1.0414415961e-001	 2.2527691068e+000
 2.9220919846e+000	 1.3039721416e-001	 2.1747290140e+000
 2.9207978722e+000	 1.5673158510e-001	 2.0950796579e+000
 2.9192607150e+000	 1.8314441869e-001	 2.0156566903e+000
 2.9174782072e+000	 2.0963279925e-001	 1.9384475789e+000
 2.9154480810e+000	 2.3619374951e-001	 1.8655918204e+000
 2.9131681077e+000	 2.6282423087e-001	 1.7993808346e+000
 2.9500000000e+000	 0.0000000000e+000	 2.7290140201e+000
 2.9498843448e+000	 2.6121869673e-002	 2.6593947442e+000
 2.9495357053e+000	 5.2336634364e-002	 2.5812902617e+000
 2.9489515913e+000	 7.8641667826e-002	 2.4960494448e+000
 2.9481295426e+000	 1.0503428063e-001	 2.4051746877e+000
 2.9470671298e+000	 1.3151172026e-001	 2.3103232755e+000
 2.9457619566e+000	 1.5807117129e-001	 2.2133084691e+000
 2.9442116612e+000	 1.8470975560e-001	 2.1161002953e+000
 2.9424139184e+000	 2.1142453258e-001	 2.0208260292e+000
 2.9403664406e+000	 2.3821249950e-001	 1.9297703572e+000
 2.9380669804e+000	 2.6507059182e-001	 1.8453752095e+000
 2.9750000000e+000	 0.0000000000e+000	 2.9393899327e+000
 2.9748833647e+000	 2.6343241450e-002	 2.8571012674e+000
 2.9745317706e+000	 5.2780165163e-002	 2.7651929746e+000
 2.9739427065e+000	 7.9308122638e-002	 2.6651262331e+000
 2.9731136913e+000	 1.0592440165e-001	 2.5585213775e+000
 2.9720422749e+000	 1.3262622636e-001	 2.4471592605e+000
 2.9707260410e+000	 1.5941075749e-001	 2.3329823229e+000
 2.9691626075e+000	 1.8627509251e-001	 2.2180953563e+000
 2.9673496295e+000	 2.1321626591e-001	 2.1047659484e+000
 2.9652848003e+000	 2.4023124950e-001	 1.9954245972e+000
 2.9629658531e+000	 2.6731695277e-001	 1.8926644832e+000
 3.0000000000e+000	 0.0000000000e+000	 3.1489908619e+000
 2.9998823846e+000	 2.6564613226e-002	 3.0546269890e+000
 2.9995278359e+000	 5.3223695962e-002	 2.9494107369e+000
 2.9989338217e+000	 7.9974577449e-002	 2.8349155751e+000
 2.9980978399e+000	 1.0681452267e-001	 2.7128798728e+000
 2.9970174201e+000	 1.3374073246e-001	 2.5852082577e+000
 2.9956901253e+000	 1.6075034369e-001	 2.4539726707e+000
 2.9941135538e+000	 1.8784042942e-001	 2.3214131046e+000
 2.9922853407e+000	 2.1500799923e-001	 2.1899380132e+000
 2.9902031599e+000	 2.4224999949e-001	 2.0621243774e+000
 2.9878647258e+000	 2.6956331372e-001	 1.9407174188e+000
 2.7388759987e+000	 2.4709970424e-001	 1.5588507467e+000
 2.7364954787e+000	 2.7219936608e-001	 1.5745228264e+000
 2.7338759873e+000	 2.9735851428e-001	 1.5799702348e+000
 2.7310155503e+000	 3.2257412170e-001	 1.5764357270e+000
 2.7279122372e+000	 3.4784310545e-001	 1.5652857165e+000
 2.7245641628e+000	 3.7316232739e-001	 1.5480097800e+000
 2.7209694888e+000	 3.9852859482e-001	 1.5262198736e+000
 2.7171264254e+000	 4.2393866111e-001	 1.5016492547e+000
 2.7130332330e+000	 4.4938922647e-001	 1.4761511051e+000
 2.7086882237e+000	 4.7487693873e-001	 1.4516968468e+000
 2.7040897632e+000	 5.0039839415e-001	 1.4303741491e+000
 2.7637748714e+000	 2.4934606519e-001	 1.5806834378e+000
 2.7613727104e+000	 2.7467390578e-001	 1.5713333015e+000
 2.7587294054e+000	 3.0006177350e-001	 1.5554351805e+000
 2.7558429644e+000	 3.2550661372e-001	 1.5344441224e+000
 2.7527114394e+000	 3.5100531550e-001	 1.5099417032e+000
 2.7493329280e+000	 3.7655471219e-001	 1.4836353305e+000
 2.7457055751e+000	 4.0215158205e-001	 1.4573572487e+000
 2.7418275747e+000	 4.2779264894e-001	 1.4330632378e+000
 2.7376971715e+000	 4.5347458308e-001	 1.4128310012e+000
 2.7333126621e+000	 4.7919400181e-001	 1.3988582359e+000
 2.7286723974e+000	 5.0494747046e-001	 1.3934603818e+000
 2.7886737441e+000	 2.5159242613e-001	 1.6076056188e+000
 2.7862499420e+000	 2.7714844547e-001	 1.5747167681e+000
 2.7835828235e+000	 3.0276503272e-001	 1.5388185388e+000
 2.7806703785e+000	 3.2843910574e-001	 1.5015781348e+000
 2.7775106416e+000	 3.5416752555e-001	 1.4647922820e+000
 2.7741016931e+000	 3.7994709699e-001	 1.4303863332e+000
 2.7704416614e+000	 4.0577456927e-001	 1.4004130625e+000
 2.7665287241e+000	 4.3164663677e-001	 1.3770511416e+000
 2.7623611099e+000	 4.5755993968e-001	 1.3626032936e+000
 2.7579371005e+000	 4.8351106489e-001	 1.3594941181e+000
 2.7532550316e+000	 5.0949654677e-001	 1.3702675829e+000
 2.8135726168e+000	 2.5383878708e-001	 1.6390662073e+000
 2.8111271736e+000	 2.7962298516e-001	 1.5839805897e+000
 2.8084362415e+000	 3.0546829194e-001	 1.5292873836e+000
 2.8054977926e+000	 3.3137159775e-001	 1.4768658963e+000
 2.8023098437e+000	 3.5732973560e-001	 1.4287280771e+000
 2.7988704582e+000	 3.8333948178e-001	 1.3870174241e+000
 2.7951777476e+000	 4.0939755650e-001	 1.3540075688e+000
 2.7912298734e+000	 4.3550062460e-001	 1.3321005317e+000
 2.7870250484e+000	 4.6164529629e-001	 1.3238246424e+000
 2.7825615389e+000	 4.8782812797e-001	 1.3318321192e+000
 2.7778376658e+000	 5.1404562308e-001	 1.3588963043e+000
 2.8384714896e+000	 2.5608514803e-001	 1.6745173418e+000
 2.8360044052e+000	 2.8209752485e-001	 1.5984385252e+000
 2.8332896596e+000	 3.0817155116e-001	 1.5260182840e+000
 2.8303252067e+000	 3.3430408977e-001	 1.4593480591e+000
 2.8271090459e+000	 3.6049194565e-001	 1.4006551791e+000
 2.8236392233e+000	 3.8673186658e-001	 1.3523015716e+000
 2.8199138339e+000	 4.1302054373e-001	 1.3167821390e+000
 2.8159310227e+000	 4.3935461243e-001	 1.2967227930e+000
 2.8116889869e+000	 4.6573065289e-001	 1.2948781425e+000
 2.8071859773e+000	 4.9214519105e-001	 1.3141288281e+000
 2.8024203000e+000	 5.1859469938e-001	 1.3574785010e+000
 2.8633703623e+000	 2.5833150898e-001	 1.7134142422e+000
 2.8608816369e+000	 2.8457206455e-001	 1.6174104505e+000
 2.8581430777e+000	 3.1087481039e-001	 1.5281968919e+000
 2.8551526208e+000	 3.3723658179e-001	 1.4480772504e+000
 2.8519082480e+000	 3.6365415570e-001	 1.3794944721e+000
 2.8484079884e+000	 3.9012425137e-001	 1.3250292803e+000
 2.8446499202e+000	 4.1664353095e-001	 1.2873983443e+000
 2.8406321720e+000	 4.4320860026e-001	 1.2694520939e+000
 2.8363529254e+000	 4.6981600950e-001	 1.2741721745e+000
 2.8318104157e+000	 4.9646225412e-001	 1.3046685383e+000
 2.8270029342e+000	 5.2314377569e-001	 1.3641761653e+000
 2.8882692350e+000	 2.6057786993e-001	 1.7552150764e+000
 2.8857588685e+000	 2.8704660424e-001	 1.6402220951e+000
 2.8829964957e+000	 3.1357806961e-001	 1.5350175500e+000
 2.8799800349e+000	 3.4016907380e-001	 1.4421175570e+000
 2.8767074502e+000	 3.6681636576e-001	 1.3641809963e+000
 2.8731767535e+000	 3.9351663617e-001	 1.3040078344e+000
 2.8693860064e+000	 4.2026651818e-001	 1.2645370848e+000
 2.8653333213e+000	 4.4706258809e-001	 1.2488444040e+000
 2.8610168639e+000	 4.7390136610e-001	 1.2601393150e+000
 2.8564348541e+000	 5.0077931720e-001	 1.3017620532e+000
 2.8515855684e+000	 5.2769285200e-001	 1.3771800326e+000
 2.9131681077e+000	 2.6282423087e-001	 1.7993808346e+000
 2.9106361001e+000	 2.8952114393e-001	 1.6662047918e+000
 2.9078499138e+000	 3.1628132883e-001	 1.5456829209e+000
 2.9048074490e+000	 3.4310156582e-001	 1.4405440347e+000
 2.9015066523e+000	 3.6997857581e-001	 1.3536633432e+000
 2.8979455187e+000	 3.9690902097e-001	 1.2880605810e+000
 2.8941220927e+000	 4.2388950541e-001	 1.2468977634e+000
 2.8900344707e+000	 4.5091657592e-001	 1.2334765631e+000
 2.8856808023e+000	 4.7798672271e-001	 1.2512353019e+000
 2.8810592925e+000	 5.0509638028e-001	 1.3037455536e+000
 2.8761682026e+000	 5.3224192831e-001	 1.3947083527e+000
 2.9380669804e+000	 2.6507059182e-001	 1.8453752095e+000
 2.9355133317e+000	 2.9199568362e-001	 1.6946952394e+000
 2.9327033318e+000	 3.1898458805e-001	 1.5594036343e+000
 2.9296348631e+000	 3.4603405784e-001	 1.4424422445e+000
 2.9263058545e+000	 3.7314078586e-001	 1.3469030808e+000
 2.9227142838e+000	 4.0030140576e-001	 1.2760262494e+000
 2.9188581789e+000	 4.2751249264e-001	 1.2331975023e+000
 2.9147356200e+000	 4.5477056375e-001	 1.2219453963e+000
 2.9103447408e+000	 4.8207207931e-001	 1.2459380539e+000
 2.9056837309e+000	 5.0941344336e-001	 1.3089795220e+000
 2.9007508368e+000	 5.3679100462e-001	 1.4150057239e+000
 2.9629658531e+000	 2.6731695277e-001	 1.8926644832e+000
 2.9603905634e+000	 2.9447022332e-001	 1.7250352772e+000
 2.9575567499e+000	 3.2168784727e-001	 1.5753979522e+000
 2.9544622771e+000	 3.4896654985e-001	 1.4469078105e+000
 2.9511050566e+000	 3.7630299591e-001	 1.3428742093e+000
 2.9474830489e+000	 4.0369379056e-001	 1.2667583048e+000
 2.9435942652e+000	 4.3113547986e-001	 1.2221703975e+000
 2.9394367693e+000	 4.5862455157e-001	 1.2128668743e+000
 2.9350086793e+000	 4.8615743592e-001	 1.2427467378e+000
 2.9303081693e+000	 5.1373050644e-001	 1.3158477218e+000
 2.9253334710e+000	 5.4134008093e-001	 1.4363419864e+000
 2.9878647258e+000	 2.6956331372e-001	 1.9407174188e+000
 2.9852677950e+000	 2.9694476301e-001	 1.7565716706e+000
 2.9824101680e+000	 3.2439110650e-001	 1.5928914511e+000
 2.9792896912e+000	 3.5189904187e-001	 1.4530460007e+000
 2.9759042588e+000	 3.7946520596e-001	 1.3405626422e+000
 2.9722518140e+000	 4.0708617535e-001	 1.2591243342e+000
 2.9683303514e+000	 4.3475846709e-001	 1.2125668128e+000
 2.9641379186e+000	 4.6247853940e-001	 1.2048753161e+000
 2.9596726178e+000	 4.9024279252e-001	 1.2401808835e+000
 2.9549326076e+000	 5.1804756952e-001	 1.3227562271e+000
 2.9499161052e+000	 5.4588915724e-001	 1.4570111698e+000
 2.7040897632e+000	 5.0039839415e-001	 1.4303741491e+000
 2.6992362720e+000	 5.2595013834e-001	 1.3460887764e+000
 2.6941262274e+000	 5.5152866722e-001	 1.2931443710e+000
 2.6887581649e+000	 5.7713042797e-001	 1.2735469835e+000
 2.6831306796e+000	 6.0275182011e-001	 1.2893781787e+000
 2.6772424279e+000	 6.2838919664e-001	 1.3277615974e+000
 2.6710921293e+000	 6.5403886512e-001	 1.2735668689e+000
 2.6646785674e+000	 6.7969708895e-001	 1.2004366944e+000
 2.6580005917e+000	 7.0536008863e-001	 1.1085639970e+000
 2.6510571191e+000	 7.3102404304e-001	 9.9815612893e-001
 2.6438471350e+000	 7.5668509084e-001	 8.6943684962e-001
 2.7286723974e+000	 5.0494747046e-001	 1.3934603818e+000
 2.7237747836e+000	 5.3073150323e-001	 1.3057287994e+000
 2.7186182841e+000	 5.5654256419e-001	 1.2510698676e+000
 2.7132014209e+000	 5.8237706822e-001	 1.2315168049e+000
 2.7075227766e+000	 6.0823138211e-001	 1.2491788340e+000
 2.7015809954e+000	 6.3410182569e-001	 1.2716975167e+000
 2.6953747850e+000	 6.5998467298e-001	 1.2319513276e+000
 2.6889029180e+000	 6.8587615339e-001	 1.1748227267e+000
 2.6821642335e+000	 7.1177245307e-001	 1.1003782674e+000
 2.6751576384e+000	 7.3766971615e-001	 1.0086961008e+000
 2.6678821090e+000	 7.6356404620e-001	 8.9986809072e-001
 2.7532550316e+000	 5.0949654677e-001	 1.3702675829e+000
 2.7483132951e+000	 5.3551286813e-001	 1.2737031318e+000
 2.7431103407e+000	 5.6155646116e-001	 1.2118654848e+000
 2.7376446770e+000	 5.8762370847e-001	 1.1868189408e+000
 2.7319148737e+000	 6.1371094411e-001	 1.2007044240e+000
 2.7259195630e+000	 6.3981445475e-001	 1.2108371615e+000
 2.7196574407e+000	 6.6593048084e-001	 1.1834775480e+000
 2.7131272686e+000	 6.9205521784e-001	 1.1402386112e+000
 2.7063278752e+000	 7.1818481751e-001	 1.0810599458e+000
 2.6992581576e+000	 7.4431538927e-001	 1.0058899441e+000
 2.6919170830e+000	 7.7044300157e-001	 9.1468805098e-001
 2.7778376658e+000	 5.1404562308e-001	 1.3588963043e+000
 2.7728518067e+000	 5.4029423302e-001	 1.2481332779e+000
 2.7676023973e+000	 5.6657035814e-001	 1.1736743288e+000
 2.7620879330e+000	 5.9287034872e-001	 1.1376187658e+000
 2.7563069708e+000	 6.1919050611e-001	 1.1421432761e+000
 2.7502581305e+000	 6.4552708381e-001	 1.1455234422e+000
 2.7439400964e+000	 6.7187628870e-001	 1.1286061980e+000
 2.7373516192e+000	 6.9823428228e-001	 1.0972635767e+000
 2.7304915169e+000	 7.2459718195e-001	 1.0513075708e+000
 2.7233586769e+000	 7.5096106238e-001	 9.9055620123e-001
 2.7159520569e+000	 7.7732195694e-001	 9.1483591437e-001
 2.8024203000e+000	 5.1859469938e-001	 1.3574785010e+000
 2.7973903183e+000	 5.4507559791e-001	 1.2271693717e+000
 2.7920944539e+000	 5.7158425511e-001	 1.1346653212e+000
 2.7865311891e+000	 5.9811698897e-001	 1.0821046167e+000
 2.7806990679e+000	 6.2467006810e-001	 1.0717037874e+000
 2.7745966980e+000	 6.5123971286e-001	 1.0761164089e+000
 2.7682227522e+000	 6.7782209656e-001	 1.0678121178e+000
 2.7615759698e+000	 7.0441334672e-001	 1.0464880212e+000
 2.7546551587e+000	 7.3100954638e-001	 1.0118278125e+000
 2.7474591962e+000	 7.5760673550e-001	 9.6351847445e-001
 2.7399870309e+000	 7.8420091230e-001	 9.0125282017e-001
 2.8270029342e+000	 5.2314377569e-001	 1.3641761653e+000
 2.8219288298e+000	 5.4985696280e-001	 1.2089889313e+000
 2.8165865105e+000	 5.7659815208e-001	 1.0930320766e+000
 2.8109744451e+000	 6.0336362922e-001	 1.0184867935e+000
 2.8050911650e+000	 6.3014963010e-001	 9.9318274892e-001
 2.7989352655e+000	 6.5695234192e-001	 1.0029925056e+000
 2.7925054079e+000	 6.8376790442e-001	 1.0015837041e+000
 2.7858003204e+000	 7.1059241116e-001	 9.8851302673e-001
 2.7788188004e+000	 7.3742191082e-001	 9.6333511917e-001
 2.7715597154e+000	 7.6425240861e-001	 9.2560520597e-001
 2.7640220048e+000	 7.9107986767e-001	 8.7488177799e-001
 2.8515855684e+000	 5.2769285200e-001	 1.3771800326e+000
 2.8464673414e+000	 5.5463832770e-001	 1.1917956793e+000
 2.8410785671e+000	 5.8161204905e-001	 1.0469918384e+000
 2.8354177012e+000	 6.0861026947e-001	 9.4499661307e-001
 2.8294832621e+000	 6.3562919210e-001	 9.1288485628e-001
 2.8232738331e+000	 6.6266497097e-001	 9.2654386411e-001
 2.8167880636e+000	 6.8971371228e-001	 9.3042232512e-001
 2.8100246711e+000	 7.1677147560e-001	 9.2394989851e-001
 2.8029824422e+000	 7.4383427526e-001	 9.0655138193e-001
 2.7956602347e+000	 7.7089808172e-001	 8.7764946929e-001
 2.7880569788e+000	 7.9795882304e-001	 8.3666758711e-001
 2.8761682026e+000	 5.3224192831e-001	 1.3947083527e+000
 2.8710058529e+000	 5.5941969259e-001	 1.1738184228e+000
 2.8655706237e+000	 5.8662594603e-001	 9.9478446848e-001
 2.8598609572e+000	 6.1385690972e-001	 8.5988551099e-001
 2.8538753591e+000	 6.4110875410e-001	 8.3112556691e-001
 2.8476124006e+000	 6.6837760003e-001	 8.4717763342e-001
 2.8410707193e+000	 6.9565952014e-001	 8.5484176697e-001
 2.8342490217e+000	 7.2295054004e-001	 8.5341972840e-001
 2.8271460839e+000	 7.5024663970e-001	 8.4220561667e-001
 2.8197607539e+000	 7.7754375484e-001	 8.2048877129e-001
 2.8120919527e+000	 8.0483777841e-001	 7.8755676006e-001
 2.9007508368e+000	 5.3679100462e-001	 1.4150057239e+000
 2.8955443645e+000	 5.6420105748e-001	 1.1533099900e+000
 2.8900626803e+000	 5.9163984300e-001	 9.3467148939e-001
 2.8843042132e+000	 6.1910354998e-001	 7.6142418886e-001
 2.8782674562e+000	 6.4658831609e-001	 7.4822295031e-001
 2.8719509681e+000	 6.7409022909e-001	 7.6531534331e-001
 2.8653533750e+000	 7.0160532800e-001	 7.7536770702e-001
 2.8584733723e+000	 7.2912960448e-001	 7.7755298001e-001
 2.8513097256e+000	 7.5665900413e-001	 7.7103366218e-001
 2.8438612732e+000	 7.8418942795e-001	 7.5496486438e-001
 2.8361269267e+000	 8.1171673377e-001	 7.2849744995e-001
 2.9253334710e+000	 5.4134008093e-001	 1.4363419864e+000
 2.9200828761e+000	 5.6898242237e-001	 1.1285462217e+000
 2.9145547369e+000	 5.9665373997e-001	 8.6493517390e-001
 2.9087474693e+000	 6.2435019023e-001	 6.4790180494e-001
 2.9026595533e+000	 6.5206787809e-001	 6.6451120785e-001
 2.8962895356e+000	 6.7980285814e-001	 6.8139230020e-001
 2.8896360307e+000	 7.0755113586e-001	 6.9253721443e-001
 2.8826977229e+000	 7.3530866892e-001	 6.9698909494e-001
 2.8754733674e+000	 7.6307136857e-001	 6.9377789342e-001
 2.8679617925e+000	 7.9083510107e-001	 6.8192356808e-001
 2.8601619006e+000	 8.1859568914e-001	 6.6043938160e-001
 2.9499161052e+000	 5.4588915724e-001	 1.4570111698e+000
 2.9446213876e+000	 5.7376378727e-001	 1.0978250117e+000
 2.9390467935e+000	 6.0166763694e-001	 7.8387768055e-001
 2.9331907253e+000	 6.2959683048e-001	 5.6141574254e-001
 2.9270516504e+000	 6.5754744009e-001	 5.8034000056e-001
 2.9206281031e+000	 6.8551548720e-001	 5.9585701311e-001
 2.9139186865e+000	 7.1349694372e-001	 6.0689827547e-001
 2.9069220735e+000	 7.4148773336e-001	 6.1237611876e-001
 2.8996370091e+000	 7.6948373301e-001	 6.1118694923e-001
 2.8920623117e+000	 7.9748077418e-001	 6.0221459963e-001
 2.8841968746e+000	 8.2547464451e-001	 5.8433378602e-001
 2.6438471350e+000	 7.5668509084e-001	 8.6943684962e-001
 2.6363696952e+000	 7.8233933189e-001	 8.2416882968e-001
 2.6286239268e+000	 8.0798282872e-001	 7.7371546304e-001
 2.6206090298e+000	 8.3361160807e-001	 7.1797152934e-001
 2.6123242783e+000	 8.5922166244e-001	 6.5684062651e-001
 2.6037690218e+000	 8.8480895173e-001	 5.9023741682e-001
 2.5949426866e+000	 9.1036940492e-001	 5.1808989863e-001
 2.5858447765e+000	 9.3589892178e-001	 4.4034169708e-001
 2.5764748746e+000	 9.6139337463e-001	 3.5695436692e-001
 2.5668326437e+000	 9.8684861017e-001	 2.6790970021e-001
 2.5569178279e+000	 1.0122604513e+000	 1.7321203164e-001
 2.6678821090e+000	 7.6356404620e-001	 8.9986809072e-001
 2.6603366925e+000	 7.8945150763e-001	 8.6175578796e-001
 2.6525205080e+000	 8.1532812716e-001	 8.1846175816e-001
 2.6444327482e+000	 8.4118989541e-001	 7.6980879742e-001
 2.6360726808e+000	 8.6703276845e-001	 7.1562811589e-001
 2.6274396493e+000	 8.9285266947e-001	 6.5576170905e-001
 2.6185330746e+000	 9.1864549042e-001	 5.9006475718e-001
 2.6093524563e+000	 9.4440709380e-001	 5.1840804608e-001
 2.5998973734e+000	 9.7013331440e-001	 4.4068040187e-001
 2.5901674859e+000	 9.9581996117e-001	 3.5679113243e-001
 2.5801625355e+000	 1.0214628190e+000	 2.6667246781e-001
 2.6919170830e+000	 7.7044300157e-001	 9.1468805098e-001
 2.6843036897e+000	 7.9656368337e-001	 8.8374719209e-001
 2.6764170891e+000	 8.2267342560e-001	 8.4759713520e-001
 2.6682564667e+000	 8.4876818275e-001	 8.0598741299e-001
 2.6598210833e+000	 8.7484387447e-001	 7.5867558864e-001
 2.6511102768e+000	 9.0089638721e-001	 7.0542975510e-001
 2.6421234627e+000	 9.2692157592e-001	 6.4603106491e-001
 2.6328601361e+000	 9.5291526581e-001	 5.8027628366e-001
 2.6233198723e+000	 9.7887325417e-001	 5.0798035950e-001
 2.6135023281e+000	 1.0047913122e+000	 4.2897900098e-001
 2.6034072430e+000	 1.0306651868e+000	 3.4313125530e-001
 2.7159520569e+000	 7.7732195694e-001	 9.1483591437e-001
 2.7082706869e+000	 8.0367585911e-001	 8.9114151057e-001
 2.7003136703e+000	 8.3001872403e-001	 8.6217929985e-001
 2.6920801852e+000	 8.5634647009e-001	 8.2762423577e-001
 2.6835694859e+000	 8.8265498049e-001	 7.8715893944e-001
 2.6747809043e+000	 9.0894010495e-001	 7.4047632927e-001
 2.6657138508e+000	 9.3519766141e-001	 6.8728228410e-001
 2.6563678159e+000	 9.6142343782e-001	 6.2729833202e-001
 2.6467423712e+000	 9.8761319394e-001	 5.6026435739e-001
 2.6368371703e+000	 1.0137626632e+000	 4.8594131783e-001
 2.6266519505e+000	 1.0398675545e+000	 4.0411396304e-001
 2.7399870309e+000	 7.8420091230e-001	 9.0125282017e-001
 2.7322376842e+000	 8.1078803485e-001	 8.8493820414e-001
 2.7242102514e+000	 8.3736402247e-001	 8.6326597635e-001
 2.7159039036e+000	 8.6392475744e-001	 8.3583516016e-001
 2.7073178884e+000	 8.9046608651e-001	 8.0225210372e-001
 2.6984515317e+000	 9.1698382269e-001	 7.6213324320e-001
 2.6893042388e+000	 9.4347374691e-001	 7.1510790177e-001
 2.6798754957e+000	 9.6993160984e-001	 6.6082111675e-001
 2.6701648700e+000	 9.9635313370e-001	 5.9893648681e-001
 2.6601720126e+000	 1.0227340142e+000	 5.2913903095e-001
 2.6498966580e+000	 1.0490699223e+000	 4.5113805070e-001
 2.7640220048e+000	 7.9107986767e-001	 8.7488177799e-001
 2.7562046814e+000	 8.1790021059e-001	 8.6613768265e-001
 2.7481068326e+000	 8.4470932091e-001	 8.5191490672e-001
 2.7397276221e+000	 8.7150304478e-001	 8.3173515709e-001
 2.7310662909e+000	 8.9827719253e-001	 8.0512714285e-001
 2.7221221592e+000	 9.2502754043e-001	 7.7162947468e-001
 2.7128946269e+000	 9.5174983241e-001	 7.3079360258e-001
 2.7033831755e+000	 9.7843978185e-001	 6.8218678413e-001
 2.6935873689e+000	 1.0050930735e+000	 6.2539507473e-001
 2.6835068548e+000	 1.0317053652e+000	 5.6002633142e-001
 2.6731413656e+000	 1.0582722900e+000	 4.8571322126e-001
 2.7880569788e+000	 7.9795882304e-001	 8.3666758711e-001
 2.7801716786e+000	 8.2501238633e-001	 8.3574126417e-001
 2.7720034137e+000	 8.5205461935e-001	 8.2918384998e-001
 2.7635513405e+000	 8.7908133212e-001	 8.1643831392e-001
 2.7548146935e+000	 9.0608829855e-001	 7.9695432492e-001
 2.7457927867e+000	 9.3307125817e-001	 7.7019128980e-001
 2.7364850150e+000	 9.6002591790e-001	 7.3562143267e-001
 2.7268908553e+000	 9.8694795386e-001	 6.9273290710e-001
 2.7170098677e+000	 1.0138330132e+000	 6.4103293231e-001
 2.7068416970e+000	 1.0406767162e+000	 5.8005094472e-001
 2.6963860731e+000	 1.0674746577e+000	 5.0934175535e-001
 2.8120919527e+000	 8.0483777841e-001	 7.8755676006e-001
 2.8041386758e+000	 8.3212456207e-001	 7.9475113616e-001
 2.7958999949e+000	 8.5939991779e-001	 7.9613058139e-001
 2.7873750590e+000	 8.8665961946e-001	 7.9105787214e-001
 2.7785630960e+000	 9.1389940457e-001	 7.7890220135e-001
 2.7694634141e+000	 9.4111497591e-001	 7.5904235885e-001
 2.7600754030e+000	 9.6830200340e-001	 7.3086995520e-001
 2.7503985350e+000	 9.9545612588e-001	 6.9379268072e-001
 2.7404323666e+000	 1.0225729530e+000	 6.4723759060e-001
 2.7301765392e+000	 1.0496480672e+000	 5.9065440700e-001
 2.7196307806e+000	 1.0766770255e+000	 5.2351882845e-001
 2.8361269267e+000	 8.1171673377e-001	 7.2849744995e-001
 2.8281056731e+000	 8.3923673781e-001	 7.4417031862e-001
 2.8197965760e+000	 8.6674521623e-001	 7.5381289184e-001
 2.8111987774e+000	 8.9423790680e-001	 7.5670626324e-001
 2.8023114985e+000	 9.2171051058e-001	 7.5213767968e-001
 2.7931340416e+000	 9.4915869365e-001	 7.3940386630e-001
 2.7836657911e+000	 9.7657808889e-001	 7.1781439789e-001
 2.7739062148e+000	 1.0039642979e+000	 6.8669510767e-001
 2.7638548655e+000	 1.0313128928e+000	 6.4539152427e-001
 2.7535113814e+000	 1.0586194182e+000	 5.9327232733e-001
 2.7428754882e+000	 1.0858793932e+000	 5.2973281195e-001
 2.8601619006e+000	 8.1859568914e-001	 6.6043938160e-001
 2.8520726703e+000	 8.4634891355e-001	 6.8500262913e-001
 2.8436931572e+000	 8.7409051467e-001	 7.0328858710e-001
 2.8350224959e+000	 9.0181619415e-001	 7.1449514274e-001
 2.8260599011e+000	 9.2952161660e-001	 7.1782609258e-001
 2.8168046691e+000	 9.5720241139e-001	 7.1249461524e-001
 2.8072561791e+000	 9.8485417439e-001	 6.9772679320e-001
 2.7974138946e+000	 1.0124724699e+000	 6.7276517441e-001
 2.7872773643e+000	 1.0400528325e+000	 6.3687236406e-001
 2.7768462236e+000	 1.0675907692e+000	 5.8933463679e-001
 2.7661201957e+000	 1.0950817609e+000	 5.2946555905e-001
 2.8841968746e+000	 8.2547464451e-001	 5.8433378602e-001
 2.8760396675e+000	 8.5346108929e-001	 6.1825264962e-001
 2.8675897383e+000	 8.8143581311e-001	 6.4561548727e-001
 2.8588462143e+000	 9.0939448149e-001	 6.6553542251e-001
 2.8498083036e+000	 9.3733272262e-001	 6.7713126352e-001
 2.8404752965e+000	 9.6524612913e-001	 6.7953112660e-001
 2.8308465672e+000	 9.9313025989e-001	 6.7187611145e-001
 2.8209215744e+000	 1.0209806419e+000	 6.5332401849e-001
 2.8106998632e+000	 1.0487927723e+000	 6.2305309863e-001
 2.8001810658e+000	 1.0765621202e+000	 5.8026582500e-001
 2.7893649032e+000	 1.1042841287e+000	 5.2419267633e-001
 2.5569178279e+000	 1.0122604513e+000	 1.7321203164e-001
 2.5467302535e+000	 1.0376246991e+000	 9.2604068610e-002
 2.5362698295e+000	 1.0629371346e+000	 2.6315573128e-002
 2.5255365491e+000	 1.0881935211e+000	-2.5291662972e-002
 2.5145304902e+000	 1.1133896056e+000	-6.1838643168e-002
 2.5032518163e+000	 1.1385211215e+000	-8.2927445396e-002
 2.4917007772e+000	 1.1635837903e+000	-1.5825663648e-001
 2.4798777095e+000	 1.1885733238e+000	-2.3621544540e-001
 2.4677830375e+000	 1.2134854263e+000	-2.8320333335e-001
 2.4554172736e+000	 1.2383157968e+000	-2.9435882437e-001
 2.4427810188e+000	 1.2630601309e+000	-1.6540388573e-001
 2.5801625355e+000	 1.0214628190e+000	 2.6667246781e-001
 2.5698823467e+000	 1.0470576509e+000	 1.9287176145e-001
 2.5593268279e+000	 1.0726001995e+000	 1.2763625503e-001
 2.5484959723e+000	 1.0980861894e+000	 7.1229093719e-002
 2.5373898583e+000	 1.1235113293e+000	 2.3935857464e-002
 2.5260086510e+000	 1.1488713135e+000	-1.3933499526e-002
 2.5143526024e+000	 1.1741618247e+000	-4.2042751598e-002
 2.5024220523e+000	 1.1993785358e+000	-6.0027554579e-002
 2.4902174287e+000	 1.2245171120e+000	-1.3619889721e-001
 2.4777392488e+000	 1.2495732131e+000	-2.0214095882e-001
 2.4649881190e+000	 1.2745424957e+000	-2.9855577362e-002
 2.6034072430e+000	 1.0306651868e+000	 3.4313125530e-001
 2.5930344399e+000	 1.0564906027e+000	 2.7569090122e-001
 2.5823838264e+000	 1.0822632644e+000	 2.1110867634e-001
 2.5714553954e+000	 1.1079788578e+000	 1.4954866771e-001
 2.5602492264e+000	 1.1336330529e+000	 9.1202623851e-002
 2.5487654857e+000	 1.1592215055e+000	 3.6292114443e-002
 2.5370044277e+000	 1.1847398592e+000	-1.4929357270e-002
 2.5249663951e+000	 1.2101837479e+000	-6.2174297755e-002
 2.5126518200e+000	 1.2355487977e+000	-1.0511923041e-001
 2.5000612240e+000	 1.2608306294e+000	-4.9775462629e-002
 2.4871952191e+000	 1.2860248606e+000	 8.7020055100e-002
 2.6266519505e+000	 1.0398675545e+000	 4.0411396304e-001
 2.6161865331e+000	 1.0659235545e+000	 3.4264682005e-001
 2.6054408248e+000	 1.0919263292e+000	 2.7837513749e-001
 2.5944148186e+000	 1.1178715262e+000	 2.1136348239e-001
 2.5831085945e+000	 1.1437547766e+000	 1.4170930811e-001
 2.5715223204e+000	 1.1695716975e+000	 6.9545335956e-002
 2.5596562529e+000	 1.1953178937e+000	-4.9581156930e-003
 2.5475107379e+000	 1.2209889599e+000	-8.1590863286e-002
 2.5350862112e+000	 1.2465804834e+000	-1.6010066015e-001
 2.5223831993e+000	 1.2720880458e+000	-3.5503514790e-002
 2.5094023193e+000	 1.2975072254e+000	 1.4125184997e-001
 2.6498966580e+000	 1.0490699223e+000	 4.5113805070e-001
 2.6393386263e+000	 1.0753565063e+000	 3.9531559791e-001
 2.6284978233e+000	 1.1015893941e+000	 3.3106762078e-001
 2.6173742418e+000	 1.1277641945e+000	 2.5835865495e-001
 2.6059679626e+000	 1.1538765003e+000	 1.7719134701e-001
 2.5942791551e+000	 1.1799218895e+000	 8.7609059572e-002
 2.5823080782e+000	 1.2058959281e+000	-1.0301580937e-002
 2.5700550807e+000	 1.2317941719e+000	-1.1640820328e-001
 2.5575206025e+000	 1.2576121691e+000	-1.5934117523e-001
 2.5447051745e+000	 1.2833454621e+000	-2.4474736497e-002
 2.5316094195e+000	 1.3089895902e+000	 1.2704399657e-001
 2.6731413656e+000	 1.0582722900e+000	 4.8571322126e-001
 2.6624907195e+000	 1.0847894581e+000	 4.3526446484e-001
 2.6515548217e+000	 1.1112524589e+000	 3.7080823899e-001
 2.6403336650e+000	 1.1376568629e+000	 2.9220848803e-001
 2.6288273307e+000	 1.1639982240e+000	 1.9937249302e-001
 2.6170359898e+000	 1.1902720815e+000	 9.2253702135e-002
 2.6049599034e+000	 1.2164739626e+000	-2.9145501230e-002
 2.5925994236e+000	 1.2425993840e+000	-1.6477110269e-001
 2.5799549938e+000	 1.2686438548e+000	-1.3078538933e-001
 2.5670271497e+000	 1.2946028784e+000	-1.6578495980e-002
 2.5538165197e+000	 1.3204719550e+000	 1.0892472571e-001
 2.6963860731e+000	 1.0674746577e+000	 5.0934175535e-001
 2.6856428127e+000	 1.0942224100e+000	 4.6405218242e-001
 2.6746118202e+000	 1.1209155238e+000	 3.9920966077e-001
 2.6632930881e+000	 1.1475495313e+000	 3.1457693580e-001
 2.6516866988e+000	 1.1741199477e+000	 2.0996531801e-001
 2.6397928245e+000	 1.2006222736e+000	 8.5237740605e-002
 2.6276117287e+000	 1.2270519970e+000	-5.9688250247e-002
 2.6151437664e+000	 1.2534045960e+000	-1.9146749577e-001
 2.6023893850e+000	 1.2796755405e+000	-1.0441544277e-001
 2.5893491249e+000	 1.3058602948e+000	-1.1718394555e-002
 2.5760236198e+000	 1.3319543199e+000	 8.6990858273e-002
 2.7196307806e+000	 1.0766770255e+000	 5.2351882845e-001
 2.7087949060e+000	 1.1036553618e+000	 4.8322940566e-001
 2.6976688186e+000	 1.1305785886e+000	 4.1787551428e-001
 2.6862525113e+000	 1.1574421997e+000	 3.2711804623e-001
 2.6745460669e+000	 1.1842416714e+000	 2.1067169099e-001
 2.6625496592e+000	 1.2109724656e+000	 6.8308222311e-002
 2.6502635539e+000	 1.2376300315e+000	-1.0014028756e-001
 2.6376881092e+000	 1.2642098080e+000	-1.5005324747e-001
 2.6248237763e+000	 1.2907072262e+000	-8.0150715377e-002
 2.6116711001e+000	 1.3171177111e+000	-9.8116583707e-003
 2.5982307200e+000	 1.3434366847e+000	 6.1325222605e-002
 2.7428754882e+000	 1.0858793932e+000	 5.2973281195e-001
 2.7319469992e+000	 1.1130883136e+000	 4.9433902655e-001
 2.7207258171e+000	 1.1402416535e+000	 4.2840077022e-001
 2.7092119345e+000	 1.1673348680e+000	 3.3147638084e-001
 2.6974054350e+000	 1.1943633951e+000	 2.0318323169e-001
 2.6853064939e+000	 1.2213226576e+000	 4.3201249255e-002
 2.6729153792e+000	 1.2482080659e+000	-1.4872364652e-001
 2.6602324520e+000	 1.2750150201e+000	-1.0976359676e-001
 2.6472581675e+000	 1.3017389119e+000	-5.7923212452e-002
 2.6339930753e+000	 1.3283751274e+000	-1.0788561084e-002
 2.6204378202e+000	 1.3549190495e+000	 3.1997247440e-002
 2.7661201957e+000	 1.0950817609e+000	 5.2946555905e-001
 2.7550990924e+000	 1.1225212654e+000	 4.9891650015e-001
 2.7437828155e+000	 1.1499047184e+000	 4.3237210561e-001
 2.7321713577e+000	 1.1772275364e+000	 3.2928741329e-001
 2.7202648031e+000	 1.2044851188e+000	 1.8918174114e-001
 2.7080633286e+000	 1.2316728496e+000	 1.1642438003e-002
 2.6955672044e+000	 1.2587861004e+000	-1.1351781801e-001
 2.6827767948e+000	 1.2858202321e+000	-7.0545929876e-002
 2.6696925588e+000	 1.3127705976e+000	-3.7677034281e-002
 2.6563150506e+000	 1.3396325438e+000	-1.4591875649e-002
 2.6426449203e+000	 1.3664014143e+000	-9.3647508666e-004
 2.7893649032e+000	 1.1042841287e+000	 5.2419267633e-001
 2.7782511856e+000	 1.1319542172e+000	 4.9849015455e-001
 2.7668398140e+000	 1.1595677832e+000	 4.3136824935e-001
 2.7551307808e+000	 1.1871202048e+000	 3.2217790806e-001
 2.7431241712e+000	 1.2146068424e+000	 1.7033961080e-001
 2.7308201633e+000	 1.2420230416e+000	-2.4652643424e-002
 2.7182190297e+000	 1.2693641349e+000	-6.0462063741e-002
 2.7053211376e+000	 1.2966254442e+000	-3.2358772934e-002
 2.6921269500e+000	 1.3238022833e+000	-1.9367872180e-002
 2.6786370258e+000	 1.3508899601e+000	-2.1176353508e-002
 2.6648520205e+000	 1.3778837792e+000	-3.7431654589e-002
 2.4427810188e+000	 1.2630601309e+000	-1.6540388573e-001
 2.4298749630e+000	 1.2877141236e+000	-2.3649720573e-001
 2.4166998856e+000	 1.3122734711e+000	-2.9967714660e-001
 2.4032566556e+000	 1.3367338731e+000	-3.5553542310e-001
 2.3895462317e+000	 1.3610910354e+000	-4.0469671529e-001
 2.3755696628e+000	 1.3853406719e+000	-4.4781756754e-001
 2.3613280878e+000	 1.4094785070e+000	-4.8558519799e-001
 2.3468227357e+000	 1.4335002780e+000	-5.1871622012e-001
 2.3320549255e+000	 1.4574017375e+000	-5.4795527877e-001
 2.3170260660e+000	 1.4811786555e+000	-5.7407360277e-001
 2.3017376559e+000	 1.5048268218e+000	-5.9786747711e-001
 2.4649881190e+000	 1.2745424957e+000	-2.9855577362e-002
 2.4519647354e+000	 1.2994206156e+000	-1.3071555933e-001
 2.4386698846e+000	 1.3242032299e+000	-2.2086661768e-001
 2.4251044434e+000	 1.3488859992e+000	-3.0081781984e-001
 2.4112693793e+000	 1.3734645903e+000	-3.7111379770e-001
 2.3971657507e+000	 1.3979346780e+000	-4.3233373355e-001
 2.3827947068e+000	 1.4222919480e+000	-4.8509025285e-001
 2.3681574879e+000	 1.4465320987e+000	-5.3002822539e-001
 2.3532554248e+000	 1.4706508442e+000	-5.6782347694e-001
 2.3380899394e+000	 1.4946439160e+000	-5.9918141352e-001
 2.3226625436e+000	 1.5185070657e+000	-6.2483556090e-001
 2.4871952191e+000	 1.2860248606e+000	 8.7020055100e-002
 2.4740545078e+000	 1.3111271077e+000	-4.0979256465e-002
 2.4606398835e+000	 1.3361329887e+000	-1.5549152624e-001
 2.4469522311e+000	 1.3610381253e+000	-2.5694509450e-001
 2.4329925268e+000	 1.3858381451e+000	-3.4580648154e-001
 2.4187618385e+000	 1.4105286841e+000	-4.2257945850e-001
 2.4042613258e+000	 1.4351053889e+000	-4.8780402146e-001
 2.3894922400e+000	 1.4595639195e+000	-5.4205527004e-001
 2.3744559242e+000	 1.4838999509e+000	-5.8594219247e-001
 2.3591538127e+000	 1.5081091765e+000	-6.2010635923e-001
 2.3435874314e+000	 1.5321873095e+000	-6.4522052773e-001
 2.5094023193e+000	 1.2975072254e+000	 1.4125184997e-001
 2.4961442802e+000	 1.3228335997e+000	 3.2998485587e-002
 2.4826098825e+000	 1.3480627476e+000	-1.0332946792e-001
 2.4688000189e+000	 1.3731902515e+000	-2.2375799347e-001
 2.4547156744e+000	 1.3982117000e+000	-3.2867740721e-001
 2.4403579264e+000	 1.4231226902e+000	-4.1851799179e-001
 2.4257279448e+000	 1.4479188299e+000	-4.9374904959e-001
 2.4108269922e+000	 1.4725957402e+000	-5.5487785672e-001
 2.3956564235e+000	 1.4971490576e+000	-6.0244851941e-001
 2.3802176860e+000	 1.5215744370e+000	-6.3704073478e-001
 2.3645123192e+000	 1.5458675533e+000	-6.5926845839e-001
 2.5316094195e+000	 1.3089895902e+000	 1.2704399657e-001
 2.5182340526e+000	 1.3345400917e+000	 2.5608260441e-002
 2.5045798815e+000	 1.3599925064e+000	-7.7333626336e-002
 2.4906478067e+000	 1.3853423776e+000	-2.0110590870e-001
 2.4764388219e+000	 1.4105852549e+000	-3.1963549027e-001
 2.4619540142e+000	 1.4357166963e+000	-4.2011652510e-001
 2.4471945638e+000	 1.4607322709e+000	-5.0294953127e-001
 2.4321617443e+000	 1.4856275609e+000	-5.6857588248e-001
 2.4168569228e+000	 1.5103981643e+000	-6.1747673367e-001
 2.4012815594e+000	 1.5350396975e+000	-6.5017184679e-001
 2.3854372070e+000	 1.5595477972e+000	-6.6721831896e-001
 2.5538165197e+000	 1.3204719550e+000	 1.0892472571e-001
 2.5403238250e+000	 1.3462465838e+000	 1.2767520418e-003
 2.5265498804e+000	 1.3719222652e+000	-1.0629998629e-001
 2.5124955945e+000	 1.3974945037e+000	-2.1256976677e-001
 2.4981619695e+000	 1.4229588097e+000	-3.1859564853e-001
 2.4835501020e+000	 1.4483107024e+000	-4.2734602100e-001
 2.4686611827e+000	 1.4735457119e+000	-5.1543123717e-001
 2.4534964965e+000	 1.4986593816e+000	-5.8322866507e-001
 2.4380574221e+000	 1.5236472710e+000	-6.3115841547e-001
 2.4223454327e+000	 1.5485049580e+000	-6.5968223050e-001
 2.4063620948e+000	 1.5732280410e+000	-6.6930227023e-001
 2.5760236198e+000	 1.3319543199e+000	 8.6990858273e-002
 2.5624135974e+000	 1.3579530758e+000	-2.4860585774e-002
 2.5485198794e+000	 1.3838520240e+000	-1.3510280408e-001
 2.5343433823e+000	 1.4096466298e+000	-2.4236818276e-001
 2.5198851171e+000	 1.4353323646e+000	-3.4526024215e-001
 2.5051461899e+000	 1.4609047085e+000	-4.4235609368e-001
 2.4901278017e+000	 1.4863591528e+000	-5.3122144662e-001
 2.4748312486e+000	 1.5116912023e+000	-5.9891496796e-001
 2.4592579215e+000	 1.5368963777e+000	-6.4362256558e-001
 2.4434093060e+000	 1.5619702185e+000	-6.6574985542e-001
 2.4272869826e+000	 1.5869082848e+000	-6.6574596097e-001
 2.5982307200e+000	 1.3434366847e+000	 6.1325222605e-002
 2.5845033698e+000	 1.3696595678e+000	-5.2792559845e-002
 2.5704898784e+000	 1.3957817829e+000	-1.6380169873e-001
 2.5561911700e+000	 1.4217987559e+000	-2.7020294976e-001
 2.5416082646e+000	 1.4477059195e+000	-3.7046851066e-001
 2.5267422777e+000	 1.4734987146e+000	-4.6304465491e-001
 2.5115944207e+000	 1.4991725938e+000	-5.4635444860e-001
 2.4961660007e+000	 1.5247230230e+000	-6.1571302399e-001
 2.4804584208e+000	 1.5501454844e+000	-6.5499571555e-001
 2.4644731793e+000	 1.5754354790e+000	-6.6854832047e-001
 2.4482118703e+000	 1.6005885287e+000	-6.5676880624e-001
 2.6204378202e+000	 1.3549190495e+000	 3.1997247440e-002
 2.6065931422e+000	 1.3813660599e+000	-8.2519299408e-002
 2.5924598773e+000	 1.4077115417e+000	-1.9246556275e-001
 2.5780389578e+000	 1.4339508820e+000	-2.9621088637e-001
 2.5633314122e+000	 1.4600794743e+000	-3.9209633707e-001
 2.5483383656e+000	 1.4860927207e+000	-4.7843751566e-001
 2.5330610397e+000	 1.5119860348e+000	-5.5352745282e-001
 2.5175007529e+000	 1.5377548437e+000	-6.1563958367e-001
 2.5016589201e+000	 1.5633945911e+000	-6.6303079498e-001
 2.4855370527e+000	 1.5889007395e+000	-6.6824703917e-001
 2.4691367581e+000	 1.6142687725e+000	-6.4258425154e-001
 2.6426449203e+000	 1.3664014143e+000	-9.3647508666e-004
 2.6286829145e+000	 1.3930725519e+000	-1.1405178036e-001
 2.6144298763e+000	 1.4196413005e+000	-2.2117217255e-001
 2.5998867456e+000	 1.4461030082e+000	-3.2053576048e-001
 2.5850545598e+000	 1.4724530292e+000	-4.1035263042e-001
 2.5699344534e+000	 1.4986867268e+000	-4.8880783473e-001
 2.5545276587e+000	 1.5247994757e+000	-5.5406446710e-001
 2.5388355050e+000	 1.5507866644e+000	-6.0426681800e-001
 2.5228594194e+000	 1.5766436978e+000	-6.3754360384e-001
 2.5066009260e+000	 1.6023660000e+000	-6.5201126283e-001
 2.4900616459e+000	 1.6279490163e+000	-6.2340002363e-001
 2.6648520205e+000	 1.3778837792e+000	-3.7431654589e-002
 2.6507726869e+000	 1.4047790439e+000	-1.4741137333e-001
 2.6363998752e+000	 1.4315710593e+000	-2.5000781826e-001
 2.6217345334e+000	 1.4582551343e+000	-3.4332799973e-001
 2.6067777073e+000	 1.4848265841e+000	-4.2545113352e-001
 2.5915305413e+000	 1.5112807329e+000	-4.9443180765e-001
 2.5759942776e+000	 1.5376129167e+000	-5.4830323741e-001
 2.5601702572e+000	 1.5638184851e+000	-5.8508060226e-001
 2.5440599187e+000	 1.5898928045e+000	-6.0276445744e-001
 2.5276647993e+000	 1.6158312605e+000	-5.9934421311e-001
 2.5109865337e+000	 1.6416292602e+000	-5.7280167359e-001
 2.3017376559e+000	 1.5048268218e+000	-5.9786747711e-001
 2.2861912829e+000	 1.5283420488e+000	-6.9401454070e-001
 2.2703886241e+000	 1.5517201731e+000	-7.7600248950e-001
 2.2543314449e+000	 1.5749570586e+000	-8.4404358733e-001
 2.2380215991e+000	 1.5980485981e+000	-8.9837923915e-001
 2.2214610278e+000	 1.6209907162e+000	-9.3927885818e-001
 2.2046517589e+000	 1.6437793714e+000	-9.6703866340e-001
 2.1875959066e+000	 1.6664105584e+000	-9.8198041054e-001
 2.1702956705e+000	 1.6888803104e+000	-9.8445005982e-001
 2.1527533344e+000	 1.7111847011e+000	-9.7481638427e-001
 2.1349712658e+000	 1.7333198476e+000	-9.5346952213e-001
 2.3226625436e+000	 1.5185070657e+000	-6.2483556090e-001
 2.3069748400e+000	 1.5422360674e+000	-7.0625464547e-001
 2.2910285207e+000	 1.5658267202e+000	-7.7431467896e-001
 2.2748253672e+000	 1.5892748500e+000	-8.2934670457e-001
 2.2583672500e+000	 1.6125763126e+000	-8.7171103713e-001
 2.2416561281e+000	 1.6357269954e+000	-9.0179597625e-001
 2.2246940476e+000	 1.6587228203e+000	-9.2001644812e-001
 2.2074831422e+000	 1.6815597453e+000	-9.2681257937e-001
 2.1900256311e+000	 1.7042337677e+000	-9.2264820674e-001
 2.1723238192e+000	 1.7267409257e+000	-9.0800932633e-001
 2.1543800955e+000	 1.7490773008e+000	-8.8340248671e-001
 2.3435874314e+000	 1.5321873095e+000	-6.4522052773e-001
 2.3277583971e+000	 1.5561300860e+000	-7.1420771889e-001
 2.3116684172e+000	 1.5799332672e+000	-7.7060171816e-001
 2.2953192894e+000	 1.6035926415e+000	-8.1485194044e-001
 2.2787129009e+000	 1.6271040271e+000	-8.4743723317e-001
 2.2618512283e+000	 1.6504632747e+000	-8.6886443534e-001
 2.2447363364e+000	 1.6736662691e+000	-8.7966686335e-001
 2.2273703777e+000	 1.6967089322e+000	-8.8040272754e-001
 2.2097555918e+000	 1.7195872251e+000	-8.7165348340e-001
 2.1918943041e+000	 1.7422971502e+000	-8.5402212158e-001
 2.1737889252e+000	 1.7648347539e+000	-8.2813140106e-001
 2.3645123192e+000	 1.5458675533e+000	-6.5926845839e-001
 2.3485419542e+000	 1.5700241047e+000	-7.1804844021e-001
 2.3323083138e+000	 1.5940398142e+000	-7.6496731736e-001
 2.3158132116e+000	 1.6179104329e+000	-8.0059251075e-001
 2.2990585519e+000	 1.6416317417e+000	-8.2552106514e-001
 2.2820463286e+000	 1.6651995539e+000	-8.4037805375e-001
 2.2647786251e+000	 1.6886097179e+000	-8.4581490798e-001
 2.2472576132e+000	 1.7118581191e+000	-8.4250767634e-001
 2.2294855524e+000	 1.7349406825e+000	-8.3115521678e-001
 2.2114647889e+000	 1.7578533748e+000	-8.1247732706e-001
 2.1931977549e+000	 1.7805922071e+000	-7.8721281768e-001
 2.3854372070e+000	 1.5595477972e+000	-6.6721831896e-001
 2.3693255114e+000	 1.5839181233e+000	-7.1794663453e-001
 2.3529482104e+000	 1.6081463613e+000	-7.5751257269e-001
 2.3363071339e+000	 1.6322282244e+000	-7.8660123558e-001
 2.3194042028e+000	 1.6561594562e+000	-8.0592757083e-001
 2.3022414288e+000	 1.6799358332e+000	-8.1623462155e-001
 2.2848209138e+000	 1.7035531668e+000	-8.1829169963e-001
 2.2671448487e+000	 1.7270073060e+000	-8.1289248669e-001
 2.2492155131e+000	 1.7502941398e+000	-8.0085306726e-001
 2.2310352738e+000	 1.7734095994e+000	-7.8300989892e-001
 2.2126065846e+000	 1.7963496603e+000	-7.6021772460e-001
 2.4063620948e+000	 1.5732280410e+000	-6.6930227023e-001
 2.3901090685e+000	 1.5978121419e+000	-7.1406748380e-001
 2.3735881070e+000	 1.6222529083e+000	-7.4833607976e-001
 2.3568010561e+000	 1.6465460158e+000	-7.7291055646e-001
 2.3397498537e+000	 1.6706871707e+000	-7.8862350971e-001
 2.3224365291e+000	 1.6946721124e+000	-7.9633572790e-001
 2.3048632025e+000	 1.7184966156e+000	-7.9693420854e-001
 2.2870320842e+000	 1.7421564929e+000	-7.9133010087e-001
 2.2689454737e+000	 1.7656475972e+000	-7.8045657936e-001
 2.2506057587e+000	 1.7889658239e+000	-7.6526665329e-001
 2.2320154143e+000	 1.8121071134e+000	-7.4673091777e-001
 2.4272869826e+000	 1.5869082848e+000	-6.6574596097e-001
 2.4108926256e+000	 1.6117061606e+000	-7.0657172700e-001
 2.3942280036e+000	 1.6363594553e+000	-7.3753404148e-001
 2.3772949783e+000	 1.6608638072e+000	-7.5955255269e-001
 2.3600955046e+000	 1.6852148853e+000	-7.7357728871e-001
 2.3426316293e+000	 1.7094083916e+000	-7.8058659732e-001
 2.3249054912e+000	 1.7334400644e+000	-7.8158500539e-001
 2.3069193198e+000	 1.7573056798e+000	-7.7760100278e-001
 2.2886754343e+000	 1.7810010546e+000	-7.6968475567e-001
 2.2701762435e+000	 1.8045220485e+000	-7.5890575506e-001
 2.2514242440e+000	 1.8278645666e+000	-7.4635040590e-001
 2.4482118703e+000	 1.6005885287e+000	-6.5676880624e-001
 2.4316761827e+000	 1.6256001792e+000	-6.9561584998e-001
 2.4148679002e+000	 1.6504660024e+000	-7.2520037026e-001
 2.3977889005e+000	 1.6751815987e+000	-7.4655895682e-001
 2.3804411555e+000	 1.6997425998e+000	-7.6075889182e-001
 2.3628267296e+000	 1.7241446709e+000	-7.6889593427e-001
 2.3449477800e+000	 1.7483835133e+000	-7.7209202189e-001
 2.3268065553e+000	 1.7724548667e+000	-7.7149289568e-001
 2.3084053950e+000	 1.7963545119e+000	-7.6826565272e-001
 2.2897467284e+000	 1.8200782730e+000	-7.6359623294e-001
 2.2708330737e+000	 1.8436220197e+000	-7.5868684580e-001
 2.4691367581e+000	 1.6142687725e+000	-6.4258425154e-001
 2.4524597398e+000	 1.6394941978e+000	-6.8135226571e-001
 2.4355077967e+000	 1.6645725494e+000	-7.1142678515e-001
 2.4182828228e+000	 1.6894993901e+000	-7.3396116933e-001
 2.4007868064e+000	 1.7142703143e+000	-7.5013981325e-001
 2.3830218298e+000	 1.7388809501e+000	-7.6117577579e-001
 2.3649900687e+000	 1.7633269621e+000	-7.6830832366e-001
 2.3466937908e+000	 1.7876040536e+000	-7.7280039626e-001
 2.3281353556e+000	 1.8117079693e+000	-7.7593599726e-001
 2.3093172132e+000	 1.8356344976e+000	-7.7901751907e-001
 2.2902419033e+000	 1.8593794729e+000	-7.8336300647e-001
 2.4900616459e+000	 1.6279490163e+000	-6.2340002363e-001
 2.4732432969e+000	 1.6533882164e+000	-6.6392948539e-001
 2.4561476933e+000	 1.6786790964e+000	-6.9630290390e-001
 2.4387767450e+000	 1.7038171816e+000	-7.2179027264e-001
 2.4211324573e+000	 1.7287980288e+000	-7.4169299400e-001
 2.4032169301e+000	 1.7536172294e+000	-7.5734135137e-001
 2.3850323574e+000	 1.7782704109e+000	-7.7009189451e-001
 2.3665810263e+000	 1.8027532405e+000	-7.8132474420e-001
 2.3478653163e+000	 1.8270614267e+000	-7.9244082204e-001
 2.3288876981e+000	 1.8511907221e+000	-8.0485901196e-001
 2.3096507330e+000	 1.8751369261e+000	-8.1949112030e-001
 2.5109865337e+000	 1.6416292602e+000	-5.7280167359e-001
 2.4940268541e+000	 1.6672822350e+000	-6.4349228102e-001
 2.4767875899e+000	 1.6927856434e+000	-6.7991633059e-001
 2.4592706672e+000	 1.7181349730e+000	-7.1007704427e-001
 2.4414781082e+000	 1.7433257434e+000	-7.3539276157e-001
 2.4234120303e+000	 1.7683535086e+000	-7.5731095001e-001
 2.4050746461e+000	 1.7932138597e+000	-7.7730543151e-001
 2.3864682618e+000	 1.8179024274e+000	-7.9687352616e-001
 2.3675952769e+000	 1.8424148840e+000	-8.1753311965e-001
 2.3484581830e+000	 1.8667469467e+000	-8.4081966119e-001
 2.3290595627e+000	 1.8908943792e+000	-8.0818372565e-001
 2.1349712658e+000	 1.7333198476e+000	-9.5346952213e-001
 2.1169519149e+000	 1.7552819119e+000	-9.7711977602e-001
 2.0986978130e+000	 1.7770671034e+000	-1.0012273755e+000
 2.0802115719e+000	 1.7986716810e+000	-1.0270995190e+000
 2.0614958826e+000	 1.8200919554e+000	-1.0560489820e+000
 2.0425535136e+000	 1.8413242908e+000	-1.0893915075e+000
 2.0233873101e+000	 1.8623651074e+000	-1.1284431779e+000
 2.0040001923e+000	 1.8832108829e+000	-1.1485053694e+000
 1.9843951538e+000	 1.9038581548e+000	-1.1384516621e+000
 1.9645752604e+000	 1.9243035224e+000	-1.1394063877e+000
 1.9445436483e+000	 1.9445436482e+000	-1.1518936655e+000
 2.1543800955e+000	 1.7490773008e+000	-8.8340248671e-001
 2.1361969323e+000	 1.7712390202e+000	-9.2689548601e-001
 2.1177768840e+000	 1.7932222588e+000	-9.6954579291e-001
 2.0991225862e+000	 1.8150232417e+000	-1.0126516976e+000
 2.0802367542e+000	 1.8366382459e+000	-1.0575184813e+000
 2.0611221819e+000	 1.8580636026e+000	-1.1054557831e+000
 2.0417817402e+000	 1.8792956993e+000	-1.1438783129e+000
 2.0222183758e+000	 1.9003309818e+000	-1.1350387336e+000
 2.0024351097e+000	 1.9211659562e+000	-1.1352318384e+000
 1.9824350355e+000	 1.9417971908e+000	-1.1449511044e+000
 1.9622213178e+000	 1.9622213178e+000	-1.1646921415e+000
 2.1737889252e+000	 1.7648347539e+000	-8.2813140106e-001
 2.1554419497e+000	 1.7871961285e+000	-8.8995820813e-001
 2.1368559550e+000	 1.8093774143e+000	-9.4966170139e-001
 2.1180336005e+000	 1.8313748025e+000	-1.0085328558e+000
 2.0989776259e+000	 1.8531845364e+000	-1.0678710439e+000
 2.0796908502e+000	 1.8748029143e+000	-1.1289813773e+000
 2.0601761703e+000	 1.8962262912e+000	-1.1242214486e+000
 2.0404365594e+000	 1.9174510807e+000	-1.1259490233e+000
 2.0204750656e+000	 1.9384737576e+000	-1.1352756847e+000
 2.0002948105e+000	 1.9592908592e+000	-1.1526653648e+000
 1.9798989873e+000	 1.9798989873e+000	-1.1785859602e+000
 2.1931977549e+000	 1.7805922071e+000	-7.8721281768e-001
 2.1746869671e+000	 1.8031532367e+000	-8.6589084224e-001
 2.1559350260e+000	 1.8255325698e+000	-9.4118369814e-001
 2.1369446148e+000	 1.8477263632e+000	-1.0143766324e+000
 2.1177184976e+000	 1.8697308269e+000	-1.0867646891e+000
 2.0982595185e+000	 1.8915422260e+000	-1.1047621749e+000
 2.0785706004e+000	 1.9131568830e+000	-1.1101994736e+000
 2.0586547430e+000	 1.9345711797e+000	-1.1213911610e+000
 2.0385150216e+000	 1.9557815590e+000	-1.1387657777e+000
 2.0181545856e+000	 1.9767845275e+000	-1.1627584977e+000
 1.9975766568e+000	 1.9975766568e+000	-1.1938102884e+000
 2.2126065846e+000	 1.7963496603e+000	-7.6021772460e-001
 2.1939319845e+000	 1.8191103450e+000	-8.5428951793e-001
 2.1750140971e+000	 1.8416877253e+000	-9.4373242535e-001
 2.1558556291e+000	 1.8640779239e+000	-1.0298275482e+000
 2.1364593692e+000	 1.8862771174e+000	-1.0755500829e+000
 2.1168281868e+000	 1.9082815378e+000	-1.0867506563e+000
 2.0969650305e+000	 1.9300874749e+000	-1.1019462961e+000
 2.0768729265e+000	 1.9516912786e+000	-1.1215265307e+000
 2.0565549775e+000	 1.9730893604e+000	-1.1458901114e+000
 2.0360143607e+000	 1.9942781959e+000	-1.1754442289e+000
 2.0152543264e+000	 2.0152543264e+000	-1.2106036962e+000
 2.2320154143e+000	 1.8121071134e+000	-7.4673091777e-001
 2.2131770019e+000	 1.8350674533e+000	-8.5476301920e-001
 2.1940931681e+000	 1.8578428808e+000	-9.5694004662e-001
 2.1747666434e+000	 1.8804294847e+000	-1.0355994686e+000
 2.1552002409e+000	 1.9028234079e+000	-1.0544942694e+000
 2.1353968551e+000	 1.9250208495e+000	-1.0757131246e+000
 2.1153594606e+000	 1.9470180668e+000	-1.0996030274e+000
 2.0950911101e+000	 1.9688113775e+000	-1.1265226973e+000
 2.0745949335e+000	 1.9903971619e+000	-1.1568418603e+000
 2.0538741358e+000	 2.0117718643e+000	-1.1909404900e+000
 2.0329319959e+000	 2.0329319959e+000	-1.2292080088e+000
 2.2514242440e+000	 1.8278645666e+000	-7.4635040590e-001
 2.2324220193e+000	 1.8510245616e+000	-8.6693223912e-001
 2.2131722391e+000	 1.8739980363e+000	-9.8044975024e-001
 2.1936776577e+000	 1.8967810454e+000	-1.0124446777e+000
 2.1739411125e+000	 1.9193696984e+000	-1.0415853610e+000
 2.1539655234e+000	 1.9417601612e+000	-1.0717713006e+000
 2.1337538907e+000	 1.9639486587e+000	-1.1033176725e+000
 2.1133092937e+000	 1.9859314765e+000	-1.1365531396e+000
 2.0926348894e+000	 2.0077049633e+000	-1.1718191574e+000
 2.0717339109e+000	 2.0292655327e+000	-1.2094692369e+000
 2.0506096654e+000	 2.0506096654e+000	-1.2498681659e+000
 2.2708330737e+000	 1.8436220197e+000	-7.5868684580e-001
 2.2516670367e+000	 1.8669816699e+000	-8.9042966225e-001
 2.2322513102e+000	 1.8901531918e+000	-9.5973747970e-001
 2.2125886720e+000	 1.9131326061e+000	-9.9857694559e-001
 2.1926819842e+000	 1.9359159889e+000	-1.0369265311e+000
 2.1725341917e+000	 1.9584994730e+000	-1.0750544617e+000
 2.1521483208e+000	 1.9808792506e+000	-1.1132448347e+000
 2.1315274772e+000	 2.0030515754e+000	-1.1517969982e+000
 2.1106748454e+000	 2.0250127647e+000	-1.1910248813e+000
 2.0895936860e+000	 2.0467592011e+000	-1.2312562785e+000
 2.0682873350e+000	 2.0682873350e+000	-1.2728320888e+000
 2.2902419033e+000	 1.8593794729e+000	-7.8336300647e-001
 2.2709120541e+000	 1.8829387782e+000	-8.9562820298e-001
 2.2513303812e+000	 1.9063083472e+000	-9.4582072385e-001
 2.2314996862e+000	 1.9294841669e+000	-9.9408170602e-001
 2.2114228559e+000	 1.9524622794e+000	-1.0406291276e+000
 2.1911028601e+000	 1.9752387847e+000	-1.0856991222e+000
 2.1705427509e+000	 1.9978098425e+000	-1.1295454363e+000
 2.1497456608e+000	 2.0201716744e+000	-1.1724388349e+000
 2.1287148013e+000	 2.0423205661e+000	-1.2146664555e+000
 2.1074534611e+000	 2.0642528695e+000	-1.2565311125e+000
 2.0859650045e+000	 2.0859650045e+000	-1.2983505543e+000
 2.3096507330e+000	 1.8751369261e+000	-8.1949112030e-001
 2.2901570715e+000	 1.8988958865e+000	-8.8256725222e-001
 2.2704094522e+000	 1.9224635027e+000	-9.4236640815e-001
 2.2504107005e+000	 1.9458357276e+000	-9.9905313988e-001
 2.2301637275e+000	 1.9690085699e+000	-1.0528123287e+000
 2.2096715284e+000	 1.9919780964e+000	-1.1038487286e+000
 2.1889371809e+000	 2.0147404344e+000	-1.1523864530e+000
 2.1679638444e+000	 2.0372917733e+000	-1.1986684056e+000
 2.1467547572e+000	 2.0596283675e+000	-1.2429556575e+000
 2.1253132362e+000	 2.0817465379e+000	-1.2855267712e+000
 2.1036426740e+000	 2.1036426740e+000	-1.3266770742e+000
 2.3290595627e+000	 1.8908943792e+000	-8.0818372565e-001
 2.3094020889e+000	 1.9148529948e+000	-8.8102573385e-001
 2.2894885232e+000	 1.9386186582e+000	-9.4945227636e-001
 2.2693217148e+000	 1.9621872884e+000	-1.0135938108e+000
 2.2489045992e+000	 1.9855548604e+000	-1.0736028170e+000
 2.2282401967e+000	 2.0087174082e+000	-1.1296533715e+000
 2.2073316110e+000	 2.0316710262e+000	-1.1819406620e+000
 2.1861820279e+000	 2.0544118722e+000	-1.2306804435e+000
 2.1647947132e+000	 2.0769361689e+000	-1.2761084374e+000
 2.1431730113e+000	 2.0992402062e+000	-1.3184796740e+000
 2.1213203436e+000	 2.1213203435e+000	-1.3580677819e+000
 1.9445436483e+000	 1.9445436482e+000	-1.1518936655e+000
 1.9243035224e+000	 1.9645752604e+000	-1.0897467764e+000
 1.9038581548e+000	 1.9843951538e+000	-1.0448882836e+000
 1.8832108829e+000	 2.0040001923e+000	-1.0182021556e+000
 1.8623651074e+000	 2.0233873101e+000	-1.0089662612e+000
 1.8413242908e+000	 2.0425535136e+000	-1.0162293961e+000
 1.8200919554e+000	 2.0614958826e+000	-1.0404591404e+000
 1.7986716810e+000	 2.0802115719e+000	-1.0815219389e+000
 1.7770671034e+000	 2.0986978130e+000	-1.1392720521e+000
 1.7552819119e+000	 2.1169519149e+000	-1.2135521860e+000
 1.7333198476e+000	 2.1349712658e+000	-1.3041941248e+000
 1.9622213178e+000	 1.9622213178e+000	-1.1646921415e+000
 1.9417971908e+000	 1.9824350355e+000	-1.1174085629e+000
 1.9211659562e+000	 2.0024351097e+000	-1.0867946699e+000
 1.9003309818e+000	 2.0222183758e+000	-1.0736133779e+000
 1.8792956993e+000	 2.0417817402e+000	-1.0786216421e+000
 1.8580636026e+000	 2.0611221819e+000	-1.1017494867e+000
 1.8366382459e+000	 2.0802367542e+000	-1.1409006136e+000
 1.8150232417e+000	 2.0991225862e+000	-1.1956783945e+000
 1.7932222588e+000	 2.1177768840e+000	-1.2657875320e+000
 1.7712390202e+000	 2.1361969323e+000	-1.3509227455e+000
 1.7490773008e+000	 2.1543800955e+000	-1.4507695700e+000
 1.9798989873e+000	 1.9798989873e+000	-1.1785859602e+000
 1.9592908592e+000	 2.0002948105e+000	-1.1423791034e+000
 1.9384737576e+000	 2.0204750656e+000	-1.1222274609e+000
 1.9174510807e+000	 2.0404365594e+000	-1.1187750076e+000
 1.8962262912e+000	 2.0601761703e+000	-1.1326608484e+000
 1.8748029143e+000	 2.0796908502e+000	-1.1645386562e+000
 1.8531845364e+000	 2.0989776259e+000	-1.2151864000e+000
 1.8313748025e+000	 2.1180336005e+000	-1.2802735130e+000
 1.8093774143e+000	 2.1368559550e+000	-1.3593564373e+000
 1.7871961285e+000	 2.1554419497e+000	-1.4519831914e+000
 1.7648347539e+000	 2.1737889252e+000	-1.5576943337e+000
 1.9975766568e+000	 1.9975766568e+000	-1.1938102884e+000
 1.9767845275e+000	 2.0181545856e+000	-1.1649910402e+000
 1.9557815590e+000	 2.0385150216e+000	-1.1516162993e+000
 1.9345711797e+000	 2.0586547430e+000	-1.1542131690e+000
 1.9131568830e+000	 2.0785706004e+000	-1.1733049770e+000
 1.8915422260e+000	 2.0982595185e+000	-1.2094102415e+000
 1.8697308269e+000	 2.1177184976e+000	-1.2638970042e+000
 1.8477263632e+000	 2.1369446148e+000	-1.3359882851e+000
 1.8255325698e+000	 2.1559350260e+000	-1.4207595953e+000
 1.8031532367e+000	 2.1746869671e+000	-1.5176134880e+000
 1.7805922071e+000	 2.1931977549e+000	-1.6259467688e+000
 2.0152543264e+000	 2.0152543264e+000	-1.2106036962e+000
 1.9942781959e+000	 2.0360143607e+000	-1.1855769046e+000
 1.9730893604e+000	 2.0565549775e+000	-1.1753872135e+000
 1.9516912786e+000	 2.0768729265e+000	-1.1804468816e+000
 1.9300874749e+000	 2.0969650305e+000	-1.2011654896e+000
 1.9082815378e+000	 2.1168281868e+000	-1.2379490148e+000
 1.8862771174e+000	 2.1364593692e+000	-1.2911988930e+000
 1.8640779239e+000	 2.1558556291e+000	-1.3634827875e+000
 1.8416877253e+000	 2.1750140971e+000	-1.4507535145e+000
 1.8191103450e+000	 2.1939319845e+000	-1.5486658981e+000
 1.7963496603e+000	 2.2126065846e+000	-1.6564741670e+000
 2.0329319959e+000	 2.0329319959e+000	-1.2292080088e+000
 2.0117718643e+000	 2.0538741358e+000	-1.2044691217e+000
 1.9903971619e+000	 2.0745949335e+000	-1.1939627751e+000
 1.9688113775e+000	 2.0950911101e+000	-1.1979883683e+000
 1.9470180668e+000	 2.1153594606e+000	-1.2168437256e+000
 1.9250208495e+000	 2.1353968551e+000	-1.2508242762e+000
 1.9028234079e+000	 2.1552002409e+000	-1.3002222197e+000
 1.8804294847e+000	 2.1747666434e+000	-1.3653256775e+000
 1.8578428808e+000	 2.1940931681e+000	-1.4500714418e+000
 1.8350674533e+000	 2.2131770019e+000	-1.5459661871e+000
 1.8121071134e+000	 2.2320154143e+000	-1.6501941094e+000
 2.0506096654e+000	 2.0506096654e+000	-1.2498681659e+000
 2.0292655327e+000	 2.0717339109e+000	-1.2220000155e+000
 2.0077049633e+000	 2.0926348894e+000	-1.2077622475e+000
 1.9859314765e+000	 2.1133092937e+000	-1.2073433488e+000
 1.9639486587e+000	 2.1337538907e+000	-1.2209313384e+000
 1.9417601612e+000	 2.1539655234e+000	-1.2487130519e+000
 1.9193696984e+000	 2.1739411125e+000	-1.2908734081e+000
 1.8967810454e+000	 2.1936776577e+000	-1.3475946594e+000
 1.8739980363e+000	 2.2131722391e+000	-1.4194243651e+000
 1.8510245616e+000	 2.2324220193e+000	-1.5103147653e+000
 1.8278645666e+000	 2.2514242440e+000	-1.6079957477e+000
 2.0682873350e+000	 2.0682873350e+000	-1.2728320888e+000
 2.0467592011e+000	 2.0895936860e+000	-1.2385018124e+000
 2.0250127647e+000	 2.1106748454e+000	-1.2172017274e+000
 2.0030515754e+000	 2.1315274772e+000	-1.2090113171e+000
 1.9808792506e+000	 2.1521483208e+000	-1.2140107093e+000
 1.9584994730e+000	 2.1725341917e+000	-1.2322800635e+000
 1.9359159889e+000	 2.1926819842e+000	-1.2638989361e+000
 1.9131326061e+000	 2.2125886720e+000	-1.3089456290e+000
 1.8901531918e+000	 2.2322513102e+000	-1.3674965210e+000
 1.8669816699e+000	 2.2516670367e+000	-1.4424877712e+000
 1.8436220197e+000	 2.2708330737e+000	-1.5307410182e+000
 2.0859650045e+000	 2.0859650045e+000	-1.2983505543e+000
 2.0642528695e+000	 2.1074534611e+000	-1.2543066462e+000
 2.0423205661e+000	 2.1287148013e+000	-1.2226942793e+000
 2.0201716744e+000	 2.1497456608e+000	-1.2034858057e+000
 1.9978098425e+000	 2.1705427509e+000	-1.1966553405e+000
 1.9752387847e+000	 2.1911028601e+000	-1.2021782486e+000
 1.9524622794e+000	 2.2114228559e+000	-1.2200306082e+000
 1.9294841669e+000	 2.2314996862e+000	-1.2501886535e+000
 1.9063083472e+000	 2.2513303812e+000	-1.2926281998e+000
 1.8829387782e+000	 2.2709120541e+000	-1.3473240508e+000
 1.8593794729e+000	 2.2902419033e+000	-1.4192657958e+000
 2.1036426740e+000	 2.1036426740e+000	-1.3266770742e+000
 2.0817465379e+000	 2.1253132362e+000	-1.2697465612e+000
 2.0596283675e+000	 2.1467547572e+000	-1.2246500624e+000
 2.0372917733e+000	 2.1679638444e+000	-1.1912546359e+000
 2.0147404344e+000	 2.1889371809e+000	-1.1694302279e+000
 1.9919780964e+000	 2.2096715284e+000	-1.1590492565e+000
 1.9690085699e+000	 2.2301637275e+000	-1.1599861713e+000
 1.9458357276e+000	 2.2504107005e+000	-1.1721169894e+000
 1.9224635027e+000	 2.2704094522e+000	-1.1953188107e+000
 1.8988958865e+000	 2.2901570715e+000	-1.2294693134e+000
 1.8751369261e+000	 2.3096507330e+000	-1.2744462328e+000
 2.1213203436e+000	 2.1213203435e+000	-1.3580677819e+000
 2.0992402062e+000	 2.1431730113e+000	-1.2851535166e+000
 2.0769361689e+000	 2.1647947132e+000	-1.2234764518e+000
 2.0544118722e+000	 2.1861820279e+000	-1.1728001558e+000
 2.0316710262e+000	 2.2073316110e+000	-1.1328922158e+000
 2.0087174082e+000	 2.2282401967e+000	-1.1035239181e+000
 1.9855548604e+000	 2.2489045992e+000	-1.0844699012e+000
 1.9621872884e+000	 2.2693217148e+000	-1.0755077832e+000
 1.9386186582e+000	 2.2894885232e+000	-1.0764177654e+000
 1.9148529948e+000	 2.3094020889e+000	-1.0869822142e+000
 1.8908943792e+000	 2.3290595627e+000	-1.1069852230e+000
 1.7333198476e+000	 2.1349712658e+000	-1.3041941248e+000
 1.7111847011e+000	 2.1527533344e+000	-1.3048367208e+000
 1.6888803104e+000	 2.1702956705e+000	-1.2964488731e+000
 1.6664105584e+000	 2.1875959066e+000	-1.2774972009e+000
 1.6437793714e+000	 2.2046517589e+000	-1.2464703771e+000
 1.6209907162e+000	 2.2214610278e+000	-1.2018810306e+000
 1.5980485981e+000	 2.2380215991e+000	-1.1422675952e+000
 1.5749570586e+000	 2.2543314449e+000	-1.0661961006e+000
 1.5517201731e+000	 2.2703886241e+000	-9.7226190308e-001
 1.5283420488e+000	 2.2861912829e+000	-8.5909135306e-001
 1.5048268218e+000	 2.3017376559e+000	-7.2534339613e-001
 1.7490773008e+000	 2.1543800955e+000	-1.4507695700e+000
 1.7267409257e+000	 2.1723238192e+000	-1.4242677365e+000
 1.7042337677e+000	 2.1900256311e+000	-1.3893396982e+000
 1.6815597453e+000	 2.2074831422e+000	-1.3446489815e+000
 1.6587228203e+000	 2.2246940476e+000	-1.2888797791e+000
 1.6357269954e+000	 2.2416561281e+000	-1.2207386629e+000
 1.6125763126e+000	 2.2583672500e+000	-1.1389562460e+000
 1.5892748500e+000	 2.2748253672e+000	-1.0422887904e+000
 1.5658267202e+000	 2.2910285207e+000	-9.2951975788e-001
 1.5422360674e+000	 2.3069748400e+000	-7.9946130040e-001
 1.5185070657e+000	 2.3226625436e+000	-6.5095568860e-001
 1.7648347539e+000	 2.1737889252e+000	-1.5576943337e+000
 1.7422971502e+000	 2.1918943041e+000	-1.5105097501e+000
 1.7195872251e+000	 2.2097555918e+000	-1.4554798621e+000
 1.6967089322e+000	 2.2273703777e+000	-1.3914617620e+000
 1.6736662691e+000	 2.2447363364e+000	-1.3173318524e+000
 1.6504632747e+000	 2.2618512283e+000	-1.2319873735e+000
 1.6271040271e+000	 2.2787129009e+000	-1.1343478813e+000
 1.6035926415e+000	 2.2953192894e+000	-1.0233566748e+000
 1.5799332672e+000	 2.3116684172e+000	-8.9798216958e-001
 1.5561300860e+000	 2.3277583971e+000	-7.5721921431e-001
 1.5321873095e+000	 2.3435874314e+000	-6.0009034908e-001
 1.7805922071e+000	 2.1931977549e+000	-1.6259467688e+000
 1.7578533748e+000	 2.2114647889e+000	-1.5643791112e+000
 1.7349406825e+000	 2.2294855524e+000	-1.4955241613e+000
 1.7118581191e+000	 2.2472576132e+000	-1.4184293092e+000
 1.6886097179e+000	 2.2647786251e+000	-1.3321599313e+000
 1.6651995539e+000	 2.2820463286e+000	-1.2358007342e+000
 1.6416317417e+000	 2.2990585519e+000	-1.1284570524e+000
 1.6179104329e+000	 2.3158132116e+000	-1.0092560983e+000
 1.5940398142e+000	 2.3323083138e+000	-8.7734816030e-001
 1.5700241047e+000	 2.3485419542e+000	-7.3190774874e-001
 1.5458675533e+000	 2.3645123192e+000	-5.7213468673e-001
 1.7963496603e+000	 2.2126065846e+000	-1.6564741670e+000
 1.7734095994e+000	 2.2310352738e+000	-1.5866668831e+000
 1.7502941398e+000	 2.2492155131e+000	-1.5101078617e+000
 1.7270073060e+000	 2.2671448487e+000	-1.4260315942e+000
 1.7035531668e+000	 2.2848209138e+000	-1.3336892650e+000
 1.6799358332e+000	 2.3022414288e+000	-1.2323499155e+000
 1.6561594562e+000	 2.3194042028e+000	-1.1213015643e+000
 1.6322282244e+000	 2.3363071339e+000	-9.9985228155e-001
 1.6081463613e+000	 2.3529482104e+000	-8.6733121601e-001
 1.5839181233e+000	 2.3693255114e+000	-7.2308957225e-001
 1.5595477972e+000	 2.3854372070e+000	-5.6650153635e-001
 1.8121071134e+000	 2.2320154143e+000	-1.6501941094e+000
 1.7889658239e+000	 2.2506057587e+000	-1.5781399420e+000
 1.7656475972e+000	 2.2689454737e+000	-1.4998475482e+000
 1.7421564929e+000	 2.2870320842e+000	-1.4147353923e+000
 1.7184966156e+000	 2.3048632025e+000	-1.3222373695e+000
 1.6946721124e+000	 2.3224365291e+000	-1.2218037917e+000
 1.6706871707e+000	 2.3397498537e+000	-1.1129023337e+000
 1.6465460158e+000	 2.3568010561e+000	-9.9501893501e-001
 1.6222529083e+000	 2.3735881070e+000	-8.6765865767e-001
 1.5978121419e+000	 2.3901090685e+000	-7.3034649775e-001
 1.5732280410e+000	 2.4063620948e+000	-5.8262814856e-001
 1.8278645666e+000	 2.2514242440e+000	-1.6079957477e+000
 1.8045220485e+000	 2.2701762435e+000	-1.5395420202e+000
 1.7810010546e+000	 2.2886754343e+000	-1.4653419300e+000
 1.7573056798e+000	 2.3069193198e+000	-1.3849948522e+000
 1.7334400644e+000	 2.3249054912e+000	-1.2981143605e+000
 1.7094083916e+000	 2.3426316293e+000	-1.2043290391e+000
 1.6852148853e+000	 2.3600955046e+000	-1.1032832553e+000
 1.6608638072e+000	 2.3772949783e+000	-9.9463789334e-001
 1.6363594553e+000	 2.3942280036e+000	-8.7807104486e-001
 1.6117061606e+000	 2.4108926256e+000	-7.5327865736e-001
 1.5869082848e+000	 2.4272869826e+000	-6.1997513738e-001
 1.8436220197e+000	 2.2708330737e+000	-1.5307410182e+000
 1.8200782730e+000	 2.2897467284e+000	-1.4715946944e+000
 1.7963545119e+000	 2.3084053950e+000	-1.4071726039e+000
 1.7724548667e+000	 2.3268065553e+000	-1.3372520346e+000
 1.7483835133e+000	 2.3449477800e+000	-1.2616232701e+000
 1.7241446709e+000	 2.3628267296e+000	-1.1800902302e+000
 1.6997425998e+000	 2.3804411555e+000	-1.0924710744e+000
 1.6751815987e+000	 2.3977889005e+000	-9.9859876808e-001
 1.6504660024e+000	 2.4148679002e+000	-8.9832161007e-001
 1.6256001792e+000	 2.4316761827e+000	-7.9150371951e-001
 1.6005885287e+000	 2.4482118703e+000	-6.7802548181e-001
 1.8593794729e+000	 2.2902419033e+000	-1.4192657958e+000
 1.8356344976e+000	 2.3093172132e+000	-1.3749983249e+000
 1.8117079693e+000	 2.3281353556e+000	-1.3259047804e+000
 1.7876040536e+000	 2.3466937908e+000	-1.2719374256e+000
 1.7633269621e+000	 2.3649900687e+000	-1.2130603466e+000
 1.7388809501e+000	 2.3830218298e+000	-1.1492499232e+000
 1.7142703143e+000	 2.4007868064e+000	-1.0804952660e+000
 1.6894993901e+000	 2.4182828228e+000	-1.0067986181e+000
 1.6645725494e+000	 2.4355077967e+000	-9.2817572166e-001
 1.6394941978e+000	 2.4524597398e+000	-8.4465614586e-001
 1.6142687725e+000	 2.4691367581e+000	-7.5628357819e-001
 1.8751369261e+000	 2.3096507330e+000	-1.2744462328e+000
 1.8511907221e+000	 2.3288876981e+000	-1.2504329470e+000
 1.8270614267e+000	 2.3478653163e+000	-1.2220879711e+000
 1.8027532405e+000	 2.3665810263e+000	-1.1894704220e+000
 1.7782704109e+000	 2.3850323574e+000	-1.1527153395e+000
 1.7536172294e+000	 2.4032169301e+000	-1.1119687461e+000
 1.7287980288e+000	 2.4211324573e+000	-1.0673879203e+000
 1.7038171816e+000	 2.4387767450e+000	-1.0191416369e+000
 1.6786790964e+000	 2.4561476933e+000	-9.6741037401e-001
 1.6533882164e+000	 2.4732432969e+000	-9.1238648577e-001
 1.6279490163e+000	 2.4900616459e+000	-8.5427434023e-001
 1.8908943792e+000	 2.3290595627e+000	-1.1069852230e+000
 1.8667469467e+000	 2.3484581830e+000	-1.0985591179e+000
 1.8424148840e+000	 2.3675952769e+000	-1.0962566436e+000
 1.8179024274e+000	 2.3864682618e+000	-1.0902597942e+000
 1.7932138597e+000	 2.4050746461e+000	-1.0808717706e+000
 1.7683535086e+000	 2.4234120303e+000	-1.0684054773e+000
 1.7433257434e+000	 2.4414781082e+000	-1.0531836336e+000
 1.7181349730e+000	 2.4592706672e+000	-1.0355388548e+000
 1.6927856434e+000	 2.4767875899e+000	-1.0158137030e+000
 1.6672822350e+000	 2.4940268541e+000	-9.9436070589e-001
 1.6416292602e+000	 2.5109865337e+000	-8.4154766065e-001
 1.5048268218e+000	 2.3017376559e+000	-7.2534339613e-001
 1.4811786555e+000	 2.3170260660e+000	-7.6354596409e-001
 1.4574017375e+000	 2.3320549255e+000	-7.9430770006e-001
 1.4335002780e+000	 2.3468227357e+000	-8.1780333424e-001
 1.4094785070e+000	 2.3613280878e+000	-8.3422022859e-001
 1.3853406719e+000	 2.3755696628e+000	-8.4375833645e-001
 1.3610910354e+000	 2.3895462317e+000	-8.4663013060e-001
 1.3367338731e+000	 2.4032566556e+000	-8.4306049973e-001
 1.3122734711e+000	 2.4166998856e+000	-8.3328661387e-001
 1.2877141236e+000	 2.4298749630e+000	-8.1755775908e-001
 1.2630601309e+000	 2.4427810188e+000	-7.9613514192e-001
 1.5185070657e+000	 2.3226625436e+000	-6.5095568860e-001
 1.4946439160e+000	 2.3380899394e+000	-7.1568434380e-001
 1.4706508442e+000	 2.3532554248e+000	-7.7337378289e-001
 1.4465320987e+000	 2.3681574879e+000	-8.2411647299e-001
 1.4222919480e+000	 2.3827947068e+000	-8.6801817504e-001
 1.3979346780e+000	 2.3971657507e+000	-9.0519798834e-001
 1.3734645903e+000	 2.4112693793e+000	-9.3578836114e-001
 1.3488859992e+000	 2.4251044434e+000	-9.5993506745e-001
 1.3242032299e+000	 2.4386698846e+000	-9.7779715031e-001
 1.2994206156e+000	 2.4519647354e+000	-9.8954683182e-001
 1.2745424957e+000	 2.4649881190e+000	-9.9536939025e-001
 1.5321873095e+000	 2.3435874314e+000	-6.0009034908e-001
 1.5081091765e+000	 2.3591538127e+000	-6.8966660398e-001
 1.4838999509e+000	 2.3744559242e+000	-7.7259395284e-001
 1.4595639195e+000	 2.3894922400e+000	-8.4888320029e-001
 1.4351053889e+000	 2.4042613258e+000	-9.1855911740e-001
 1.4105286841e+000	 2.4187618385e+000	-9.8166057050e-001
 1.3858381451e+000	 2.4329925268e+000	-1.0382406140e+000
 1.3610381253e+000	 2.4469522311e+000	-1.0883665470e+000
 1.3361329887e+000	 2.4606398835e+000	-1.1321199337e+000
 1.3111271077e+000	 2.4740545078e+000	-1.1695965886e+000
 1.2860248606e+000	 2.4871952191e+000	-1.2009065254e+000
 1.5458675533e+000	 2.3645123192e+000	-5.7213468673e-001
 1.5215744370e+000	 2.3802176860e+000	-6.8493184152e-001
 1.4971490576e+000	 2.3956564235e+000	-7.9145909424e-001
 1.4725957402e+000	 2.4108269922e+000	-8.9164616111e-001
 1.4479188299e+000	 2.4257279448e+000	-9.8543740806e-001
 1.4231226902e+000	 2.4403579264e+000	-1.0727920635e+000
 1.3982117000e+000	 2.4547156744e+000	-1.1536843929e+000
 1.3731902515e+000	 2.4688000189e+000	-1.2281038346e+000
 1.3480627476e+000	 2.4826098825e+000	-1.2960550971e+000
 1.3228335997e+000	 2.4961442802e+000	-1.3575582186e+000
 1.2975072254e+000	 2.5094023193e+000	-1.2819280402e+000
 1.5595477972e+000	 2.3854372070e+000	-5.6650153635e-001
 1.5350396975e+000	 2.4012815594e+000	-7.0094291829e-001
 1.5103981643e+000	 2.4168569228e+000	-8.2948209182e-001
 1.4856275609e+000	 2.4321617443e+000	-9.5196823310e-001
 1.4607322709e+000	 2.4471945638e+000	-1.0682658622e+000
 1.4357166963e+000	 2.4619540142e+000	-1.1782551395e+000
 1.4105852549e+000	 2.4764388219e+000	-1.2818321212e+000
 1.3853423776e+000	 2.4906478067e+000	-1.3789089743e+000
 1.3599925064e+000	 2.5045798815e+000	-1.4055323173e+000
 1.3345400917e+000	 2.5182340526e+000	-1.3013122097e+000
 1.3089895902e+000	 2.5316094195e+000	-1.1989378906e+000
 1.5732280410e+000	 2.4063620948e+000	-5.8262814856e-001
 1.5485049580e+000	 2.4223454327e+000	-7.3718542792e-001
 1.5236472710e+000	 2.4380574221e+000	-8.8619687422e-001
 1.4986593816e+000	 2.4534964965e+000	-1.0294316470e+000
 1.4735457119e+000	 2.4686611827e+000	-1.1666749551e+000
 1.4483107024e+000	 2.4835501020e+000	-1.2977284360e+000
 1.4229588097e+000	 2.4981619695e+000	-1.4224104926e+000
 1.3974945037e+000	 2.5124955945e+000	-1.3683331062e+000
 1.3719222652e+000	 2.5265498804e+000	-1.2884117077e+000
 1.3462465838e+000	 2.5403238250e+000	-1.2094702078e+000
 1.3204719550e+000	 2.5538165197e+000	-1.1328601569e+000
 1.5869082848e+000	 2.4272869826e+000	-6.1997513738e-001
 1.5619702185e+000	 2.4434093060e+000	-7.9316671595e-001
 1.5368963777e+000	 2.4592579215e+000	-9.6115750686e-001
 1.5116912023e+000	 2.4748312486e+000	-1.1236371523e+000
 1.4863591528e+000	 2.4901278017e+000	-1.2803120607e+000
 1.4609047085e+000	 2.5051461899e+000	-1.3610266374e+000
 1.4353323646e+000	 2.5198851171e+000	-1.3052603590e+000
 1.4096466298e+000	 2.5343433823e+000	-1.2482120321e+000
 1.3838520240e+000	 2.5485198794e+000	-1.1913027478e+000
 1.3579530758e+000	 2.5624135974e+000	-1.1359067993e+000
 1.3319543199e+000	 2.5760236198e+000	-1.0833495832e+000
 1.6005885287e+000	 2.4482118703e+000	-6.7802548181e-001
 1.5754354790e+000	 2.4644731793e+000	-8.6841495028e-001
 1.5501454844e+000	 2.4804584208e+000	-1.0539373315e+000
 1.5247230230e+000	 2.4961660007e+000	-1.2342032262e+000
 1.4991725938e+000	 2.5115944207e+000	-1.2549021631e+000
 1.4734987146e+000	 2.5267422777e+000	-1.2213825964e+000
 1.4477059195e+000	 2.5416082646e+000	-1.1857356465e+000
 1.4217987559e+000	 2.5561911700e+000	-1.1494060008e+000
 1.3957817829e+000	 2.5704898784e+000	-1.1137925663e+000
 1.3696595678e+000	 2.5845033698e+000	-1.0802462339e+000
 1.3434366847e+000	 2.5982307200e+000	-1.0500677849e+000
 1.6142687725e+000	 2.4691367581e+000	-7.5628357819e-001
 1.5889007395e+000	 2.4855370527e+000	-9.6247823887e-001
 1.5633945911e+000	 2.5016589201e+000	-1.1428965540e+000
 1.5377548437e+000	 2.5175007529e+000	-1.1345778970e+000
 1.5119860348e+000	 2.5330610397e+000	-1.1217856782e+000
 1.4860927207e+000	 2.5483383656e+000	-1.1060320877e+000
 1.4600794743e+000	 2.5633314122e+000	-1.0887871703e+000
 1.4339508820e+000	 2.5780389578e+000	-1.0714763073e+000
 1.4077115417e+000	 2.5924598773e+000	-1.0554778379e+000
 1.3813660599e+000	 2.6065931422e+000	-1.0421208233e+000
 1.3549190495e+000	 2.6204378202e+000	-1.0326829572e+000
 1.6279490163e+000	 2.4900616459e+000	-8.5427434023e-001
 1.6023660000e+000	 2.5066009260e+000	-9.9344312619e-001
 1.5766436978e+000	 2.5228594194e+000	-1.0051665380e+000
 1.5507866644e+000	 2.5388355050e+000	-1.0115619973e+000
 1.5247994757e+000	 2.5545276587e+000	-1.0141674019e+000
 1.4986867268e+000	 2.5699344534e+000	-1.0144798755e+000
 1.4724530292e+000	 2.5850545598e+000	-1.0139531051e+000
 1.4461030082e+000	 2.5998867456e+000	-1.0139948145e+000
 1.4196413005e+000	 2.6144298763e+000	-1.0159643818e+000
 1.3930725519e+000	 2.6286829145e+000	-1.0211706020e+000
 1.3664014143e+000	 2.6426449203e+000	-1.0308695993e+000
 1.6416292602e+000	 2.5109865337e+000	-8.4154766065e-001
 1.6158312605e+000	 2.5276647993e+000	-8.7176569204e-001
 1.5898928045e+000	 2.5440599187e+000	-8.9579907410e-001
 1.5638184851e+000	 2.5601702572e+000	-9.1521295301e-001
 1.5376129167e+000	 2.5759942776e+000	-9.3153319667e-001
 1.5112807329e+000	 2.5915305413e+000	-9.4624358196e-001
 1.4848265841e+000	 2.6067777073e+000	-9.6078311846e-001
 1.4582551343e+000	 2.6217345334e+000	-9.7654351326e-001
 1.4315710593e+000	 2.6363998752e+000	-9.9486678145e-001
 1.4047790439e+000	 2.6507726869e+000	-1.0170430060e+000
 1.3778837792e+000	 2.6648520205e+000	-1.0443082507e+000
 1.2630601309e+000	 2.4427810188e+000	-7.9613514192e-001
 1.2383157968e+000	 2.4554172736e+000	-5.6367059169e-001
 1.2134854263e+000	 2.4677830375e+000	-4.8928362261e-001
 1.1885733238e+000	 2.4798777095e+000	-4.5144779674e-001
 1.1635837903e+000	 2.4917007772e+000	-4.4799638351e-001
 1.1385211215e+000	 2.5032518163e+000	-4.3493167095e-001
 1.1133896056e+000	 2.5145304902e+000	-3.5551307732e-001
 1.0881935211e+000	 2.5255365491e+000	-3.1902166631e-001
 1.0629371346e+000	 2.5362698295e+000	-3.2433059779e-001
 1.0376246991e+000	 2.5467302535e+000	-3.7037057207e-001
 1.0122604513e+000	 2.5569178279e+000	-4.5612794269e-001
 1.2745424957e+000	 2.4649881190e+000	-9.9536939025e-001
 1.2495732131e+000	 2.4777392488e+000	-6.9105739624e-001
 1.2245171120e+000	 2.4902174287e+000	-6.6717157663e-001
 1.1993785358e+000	 2.5024220523e+000	-6.4287157898e-001
 1.1741618247e+000	 2.5143526024e+000	-5.2441046676e-001
 1.1488713135e+000	 2.5260086510e+000	-4.4654136342e-001
 1.1235113293e+000	 2.5373898583e+000	-4.0793250825e-001
 1.0980861894e+000	 2.5484959723e+000	-4.0732101850e-001
 1.0726001995e+000	 2.5593268279e+000	-4.4351122447e-001
 1.0470576509e+000	 2.5698823467e+000	-5.1537283650e-001
 1.0214628190e+000	 2.5801625355e+000	-6.2183895456e-001
 1.2860248606e+000	 2.4871952191e+000	-1.2009065254e+000
 1.2608306294e+000	 2.5000612240e+000	-9.2248592800e-001
 1.2355487977e+000	 2.5126518200e+000	-6.5351784757e-001
 1.2101837479e+000	 2.5249663951e+000	-5.4464159417e-001
 1.1847398592e+000	 2.5370044277e+000	-4.7308179367e-001
 1.1592215055e+000	 2.5487654857e+000	-4.3734551072e-001
 1.1336330529e+000	 2.5602492264e+000	-4.3601830127e-001
 1.1079788578e+000	 2.5714553954e+000	-4.6776265578e-001
 1.0822632644e+000	 2.5823838264e+000	-5.3131625102e-001
 1.0564906027e+000	 2.5930344399e+000	-6.2549002149e-001
 1.0306651868e+000	 2.6034072430e+000	-7.4916606223e-001
 1.2975072254e+000	 2.5094023193e+000	-1.2819280402e+000
 1.2720880458e+000	 2.5223831993e+000	-8.5656654218e-001
 1.2465804834e+000	 2.5350862112e+000	-4.9561305853e-001
 1.2209889599e+000	 2.5475107379e+000	-4.3484566888e-001
 1.1953178937e+000	 2.5596562529e+000	-4.0671169846e-001
 1.1695716975e+000	 2.5715223204e+000	-4.0962943512e-001
 1.1437547766e+000	 2.5831085945e+000	-4.4210383741e-001
 1.1178715262e+000	 2.5944148186e+000	-5.0272490319e-001
 1.0919263292e+000	 2.6054408248e+000	-5.9016583419e-001
 1.0659235545e+000	 2.6161865331e+000	-7.0318100835e-001
 1.0398675545e+000	 2.6266519505e+000	-8.4060377180e-001
 1.3089895902e+000	 2.5316094195e+000	-1.1989378906e+000
 1.2833454621e+000	 2.5447051745e+000	-8.0482496117e-001
 1.2576121691e+000	 2.5575206025e+000	-4.3049676642e-001
 1.2317941719e+000	 2.5700550807e+000	-3.1566251706e-001
 1.2058959281e+000	 2.5823080782e+000	-3.2753031048e-001
 1.1799218895e+000	 2.5942791551e+000	-3.6567163345e-001
 1.1538765003e+000	 2.6059679626e+000	-4.2851293163e-001
 1.1277641945e+000	 2.6173742418e+000	-5.1457384536e-001
 1.1015893941e+000	 2.6284978233e+000	-6.2246528339e-001
 1.0753565063e+000	 2.6393386263e+000	-7.5088729210e-001
 1.0490699223e+000	 2.6498966580e+000	-8.9862673304e-001
 1.3204719550e+000	 2.5538165197e+000	-1.1328601569e+000
 1.2946028784e+000	 2.5670271497e+000	-7.6698391205e-001
 1.2686438548e+000	 2.5799549938e+000	-4.1821535915e-001
 1.2425993840e+000	 2.5925994236e+000	-1.8926975436e-001
 1.2164739626e+000	 2.6049599034e+000	-2.3776391473e-001
 1.1902720815e+000	 2.6170359898e+000	-3.0774407393e-001
 1.1639982240e+000	 2.6288273307e+000	-3.9756024865e-001
 1.1376568629e+000	 2.6403336650e+000	-5.0566385875e-001
 1.1112524589e+000	 2.6515548217e+000	-6.3060570618e-001
 1.0847894581e+000	 2.6624907195e+000	-7.7103373748e-001
 1.0582722900e+000	 2.6731413656e+000	-9.2569060267e-001
 1.3319543199e+000	 2.5760236198e+000	-1.0833495832e+000
 1.3058602948e+000	 2.5893491249e+000	-7.4277050020e-001
 1.2796755405e+000	 2.6023893850e+000	-4.1670189649e-001
 1.2534045960e+000	 2.6151437664e+000	-1.0635988370e-001
 1.2270519970e+000	 2.6276117287e+000	-1.3963511753e-001
 1.2006222736e+000	 2.6397928245e+000	-2.3811247751e-001
 1.1741199477e+000	 2.6516866988e+000	-3.5155169744e-001
 1.1475495313e+000	 2.6632930881e+000	-4.7833811627e-001
 1.1209155238e+000	 2.6746118202e+000	-6.1696462047e-001
 1.0942224100e+000	 2.6856428127e+000	-7.6602929566e-001
 1.0674746577e+000	 2.6963860731e+000	-9.2423286309e-001
 1.3434366847e+000	 2.5982307200e+000	-1.0500677849e+000
 1.3171177111e+000	 2.6116711001e+000	-7.3191602222e-001
 1.2907072262e+000	 2.6248237763e+000	-4.2575616124e-001
 1.2642098080e+000	 2.6376881092e+000	-1.3275085145e-001
 1.2376300315e+000	 2.6502635539e+000	-3.5363003717e-002
 1.2109724656e+000	 2.6625496592e+000	-1.5903658491e-001
 1.1842416714e+000	 2.6745460669e+000	-2.9278480530e-001
 1.1574421997e+000	 2.6862525113e+000	-4.3492906609e-001
 1.1305785886e+000	 2.6976688186e+000	-5.8390653524e-001
 1.1036553618e+000	 2.7087949060e+000	-7.3826768441e-001
 1.0766770255e+000	 2.7196307806e+000	-8.9667359899e-001
 1.3549190495e+000	 2.6204378202e+000	-1.0326829572e+000
 1.3283751274e+000	 2.6339930753e+000	-7.3415578833e-001
 1.3017389119e+000	 2.6472581675e+000	-4.4517943506e-001
 1.2750150201e+000	 2.6602324520e+000	-1.6686473439e-001
 1.2482080659e+000	 2.6729153792e+000	 7.2836714080e-002
 1.2213226576e+000	 2.6853064939e+000	-7.2770409972e-002
 1.1943633951e+000	 2.6974054350e+000	-2.2354907312e-001
 1.1673348680e+000	 2.7092119345e+000	-3.7775888608e-001
 1.1402416535e+000	 2.7207258171e+000	-5.3378350175e-001
 1.1130883136e+000	 2.7319469992e+000	-6.9012803351e-001
 1.0858793932e+000	 2.7428754882e+000	-8.4541623461e-001
 1.3664014143e+000	 2.6426449203e+000	-1.0308695993e+000
 1.3396325438e+000	 2.6563150506e+000	-7.4922895372e-001
 1.3127705976e+000	 2.6696925588e+000	-4.7477443548e-001
 1.2858202321e+000	 2.6827767948e+000	-2.0856670113e-001
 1.2587861004e+000	 2.6955672044e+000	 4.8393236476e-002
 1.2316728496e+000	 2.7080633286e+000	 1.8437519700e-002
 1.2044851188e+000	 2.7202648031e+000	-1.4612631253e-001
 1.1772275364e+000	 2.7321713577e+000	-3.0913991530e-001
 1.1499047184e+000	 2.7437828155e+000	-4.6893563704e-001
 1.1225212654e+000	 2.7550990924e+000	-6.2397549773e-001
 1.0950817609e+000	 2.7661201957e+000	-7.7284823370e-001
 1.3778837792e+000	 2.6648520205e+000	-1.0443082507e+000
 1.3508899601e+000	 2.6786370258e+000	-7.7687835836e-001
 1.3238022833e+000	 2.6921269500e+000	-5.1434525604e-001
 1.2966254442e+000	 2.7053211376e+000	-2.5772103581e-001
 1.2693641349e+000	 2.7182190297e+000	-7.9597533638e-003
 1.2420230416e+000	 2.7308201633e+000	 1.1234393414e-001
 1.2146068424e+000	 2.7431241712e+000	-6.2790966355e-002
 1.1871202048e+000	 2.7551307808e+000	-2.3137506401e-001
 1.1595677832e+000	 2.7668398140e+000	-3.9169162111e-001
 1.1319542172e+000	 2.7782511856e+000	-5.4216183910e-001
 1.1042841287e+000	 2.7893649032e+000	-6.8134176458e-001
 1.0122604513e+000	 2.5569178279e+000	-4.5612794269e-001
 9.8684861017e-001	 2.5668326437e+000	-4.3710386260e-001
 9.6139337463e-001	 2.5764748746e+000	-4.2334848018e-001
 9.3589892178e-001	 2.5858447765e+000	-4.1327086585e-001
 9.1036940492e-001	 2.5949426866e+000	-4.0536647881e-001
 8.8480895173e-001	 2.6037690218e+000	-3.9821486766e-001
 8.5922166244e-001	 2.6123242783e+000	-3.9047723848e-001
 8.3361160807e-001	 2.6206090298e+000	-3.8089390218e-001
 8.0798282872e-001	 2.6286239268e+000	-3.6828161293e-001
 7.8233933189e-001	 2.6363696952e+000	-3.5153080969e-001
 7.5668509084e-001	 2.6438471350e+000	-3.2960277242e-001
 1.0214628190e+000	 2.5801625355e+000	-6.2183895456e-001
 9.9581996117e-001	 2.5901674859e+000	-5.9264984813e-001
 9.7013331440e-001	 2.5998973734e+000	-5.6824744956e-001
 9.4440709380e-001	 2.6093524563e+000	-5.4715845751e-001
 9.1864549042e-001	 2.6185330746e+000	-5.2799708560e-001
 8.9285266947e-001	 2.6274396493e+000	-5.0946255306e-001
 8.6703276845e-001	 2.6360726808e+000	-4.9033644329e-001
 8.4118989541e-001	 2.6444327482e+000	-4.6947994252e-001
 8.1532812716e-001	 2.6525205080e+000	-4.4583097103e-001
 7.8945150763e-001	 2.6603366925e+000	-4.1840121923e-001
 7.6356404620e-001	 2.6678821090e+000	-3.8627310076e-001
 1.0306651868e+000	 2.6034072430e+000	-7.4916606223e-001
 1.0047913122e+000	 2.6135023281e+000	-7.1200068922e-001
 9.7887325417e-001	 2.6233198723e+000	-6.7906113472e-001
 9.5291526581e-001	 2.6328601361e+000	-6.4899216302e-001
 9.2692157592e-001	 2.6421234627e+000	-6.2052727567e-001
 9.0089638721e-001	 2.6511102768e+000	-5.9248598874e-001
 8.7484387447e-001	 2.6598210833e+000	-5.6377097842e-001
 8.4876818275e-001	 2.6682564667e+000	-5.3336510750e-001
 8.2267342560e-001	 2.6764170891e+000	-5.0032834582e-001
 7.9656368337e-001	 2.6843036897e+000	-4.6379459719e-001
 7.7044300157e-001	 2.6919170830e+000	-4.2296844574e-001
 1.0398675545e+000	 2.6266519505e+000	-8.4060377180e-001
 1.0137626632e+000	 2.6368371703e+000	-7.9753277237e-001
 9.8761319394e-001	 2.6467423712e+000	-7.5804722392e-001
 9.6142343782e-001	 2.6563678159e+000	-7.2091045839e-001
 9.3519766141e-001	 2.6657138508e+000	-6.8497586340e-001
 9.0894010495e-001	 2.6747809043e+000	-6.4918394285e-001
 8.8265498049e-001	 2.6835694859e+000	-6.1255924596e-001
 8.5634647009e-001	 2.6920801852e+000	-5.7420717805e-001
 8.3001872403e-001	 2.7003136703e+000	-5.3331070648e-001
 8.0367585911e-001	 2.7082706869e+000	-4.8912697480e-001
 7.7732195694e-001	 2.7159520569e+000	-4.4098383847e-001
 1.0490699223e+000	 2.6498966580e+000	-8.9862673304e-001
 1.0227340142e+000	 2.6601720126e+000	-8.5160551328e-001
 9.9635313370e-001	 2.6701648700e+000	-8.0744930267e-001
 9.6993160984e-001	 2.6798754957e+000	-7.6504056616e-001
 9.4347374691e-001	 2.6893042388e+000	-7.2335323916e-001
 9.1698382269e-001	 2.6984515317e+000	-6.8144956801e-001
 8.9046608651e-001	 2.7073178884e+000	-6.3847681887e-001
 8.6392475744e-001	 2.7159039036e+000	-5.9366386919e-001
 8.3736402247e-001	 2.7242102514e+000	-5.4631769535e-001
 8.1078803485e-001	 2.7322376842e+000	-4.9581977029e-001
 7.8420091230e-001	 2.7399870309e+000	-4.4162238476e-001
 1.0582722900e+000	 2.6731413656e+000	-9.2569060267e-001
 1.0317053652e+000	 2.6835068548e+000	-8.7656209472e-001
 1.0050930735e+000	 2.6935873689e+000	-8.2949746686e-001
 9.7843978185e-001	 2.7033831755e+000	-7.8349894466e-001
 9.5174983241e-001	 2.7128946269e+000	-7.3766173555e-001
 9.2502754043e-001	 2.7221221592e+000	-6.9117064543e-001
 8.9827719253e-001	 2.7310662909e+000	-6.4329656398e-001
 8.7150304478e-001	 2.7397276221e+000	-5.9339283295e-001
 8.4470932091e-001	 2.7481068326e+000	-5.4089151174e-001
 8.1790021059e-001	 2.7562046814e+000	-4.8529955471e-001
 7.9107986767e-001	 2.7640220048e+000	-4.2619491400e-001
 1.0674746577e+000	 2.6963860731e+000	-9.2423286309e-001
 1.0406767162e+000	 2.7068416970e+000	-8.7473016622e-001
 1.0138330132e+000	 2.7170098677e+000	-8.2640890421e-001
 9.8694795386e-001	 2.7268908553e+000	-7.7839175204e-001
 9.6002591790e-001	 2.7364850150e+000	-7.2989597471e-001
 9.3307125817e-001	 2.7457927867e+000	-6.8022981646e-001
 9.0608829855e-001	 2.7548146935e+000	-6.2878875862e-001
 8.7908133212e-001	 2.7635513405e+000	-5.7505166101e-001
 8.5205461935e-001	 2.7720034137e+000	-5.1857680168e-001
 8.2501238633e-001	 2.7801716786e+000	-4.5899782981e-001
 7.9795882304e-001	 2.7880569788e+000	-3.9601964628e-001
 1.0766770255e+000	 2.7196307806e+000	-8.9667359899e-001
 1.0496480672e+000	 2.7301765392e+000	-8.4842250792e-001
 1.0225729530e+000	 2.7404323666e+000	-8.0038844592e-001
 9.9545612588e-001	 2.7503985350e+000	-7.5181528638e-001
 9.6830200340e-001	 2.7600754030e+000	-7.0204319787e-001
 9.4111497591e-001	 2.7694634141e+000	-6.5050480223e-001
 9.1389940457e-001	 2.7785630960e+000	-5.9672120126e-001
 8.8665961946e-001	 2.7873750590e+000	-5.4029788735e-001
 8.5939991779e-001	 2.7958999949e+000	-4.8092055338e-001
 8.3212456207e-001	 2.8041386758e+000	-4.1835081734e-001
 8.0483777841e-001	 2.8120919527e+000	-3.5242187651e-001
 1.0858793932e+000	 2.7428754882e+000	-8.4541623461e-001
 1.0586194182e+000	 2.7535113814e+000	-7.9993766057e-001
 1.0313128928e+000	 2.7638548655e+000	-7.5362909023e-001
 1.0039642979e+000	 2.7739062148e+000	-7.0585640355e-001
 9.7657808889e-001	 2.7836657911e+000	-6.5608357807e-001
 9.4915869365e-001	 2.7931340416e+000	-6.0386861215e-001
 9.2171051058e-001	 2.8023114985e+000	-5.4885931661e-001
 8.9423790680e-001	 2.8111987774e+000	-4.9078899065e-001
 8.6674521623e-001	 2.8197965760e+000	-4.2947199798e-001
 8.3923673781e-001	 2.8281056731e+000	-3.6479925902e-001
 8.1171673377e-001	 2.8361269267e+000	-2.9673367469e-001
 1.0950817609e+000	 2.7661201957e+000	-7.7284823370e-001
 1.0675907692e+000	 2.7768462236e+000	-7.3156052388e-001
 1.0400528325e+000	 2.7872773643e+000	-6.8831249961e-001
 1.0124724699e+000	 2.7974138946e+000	-6.4259291389e-001
 9.8485417439e-001	 2.8072561791e+000	-5.9399051713e-001
 9.5720241139e-001	 2.8168046691e+000	-5.4218974186e-001
 9.2952161660e-001	 2.8260599011e+000	-4.8696625530e-001
 9.0181619415e-001	 2.8350224959e+000	-4.2818239664e-001
 8.7409051467e-001	 2.8436931572e+000	-3.6578251531e-001
 8.4634891355e-001	 2.8520726703e+000	-2.9978822668e-001
 8.1859568914e-001	 2.8601619006e+000	-2.3029360121e-001
 1.1042841287e+000	 2.7893649032e+000	-6.8134176458e-001
 1.0765621202e+000	 2.8001810658e+000	-6.4556292485e-001
 1.0487927723e+000	 2.8106998632e+000	-6.0660947312e-001
 1.0209806419e+000	 2.8209215744e+000	-5.6409395914e-001
 9.9313025989e-001	 2.8308465672e+000	-5.1773092782e-001
 9.6524612913e-001	 2.8404752965e+000	-4.6733236131e-001
 9.3733272262e-001	 2.8498083036e+000	-4.1280298865e-001
 9.0939448149e-001	 2.8588462143e+000	-3.5413548029e-001
 8.8143581311e-001	 2.8675897383e+000	-2.9140554437e-001
 8.5346108929e-001	 2.8760396675e+000	-2.2476694178e-001
 8.2547464451e-001	 2.8841968746e+000	-1.5444643640e-001
 7.5668509084e-001	 2.6438471350e+000	-3.2960277242e-001
 7.3102404304e-001	 2.6510571191e+000	-1.7395126133e-001
 7.0536008863e-001	 2.6580005917e+000	-1.8284402532e-002
 6.7969708895e-001	 2.6646785674e+000	 1.3793915583e-001
 6.5403886512e-001	 2.6710921293e+000	 2.9521337098e-001
 6.2838919664e-001	 2.6772424279e+000	 4.5398798486e-001
 6.0275182011e-001	 2.6831306796e+000	 3.5943144134e-001
 5.7713042797e-001	 2.6887581649e+000	 2.1414447188e-001
 5.5152866722e-001	 2.6941262274e+000	 5.5381722331e-002
 5.2595013834e-001	 2.6992362720e+000	-1.1735066597e-001
 5.0039839415e-001	 2.7040897632e+000	-3.0437855581e-001
 7.6356404620e-001	 2.6678821090e+000	-3.8627310076e-001
 7.3766971615e-001	 2.6751576384e+000	-2.3094021650e-001
 7.1177245307e-001	 2.6821642335e+000	-7.3235881119e-002
 6.8587615339e-001	 2.6889029180e+000	 8.7221544877e-002
 6.5998467298e-001	 2.6953747850e+000	 2.5076515231e-001
 6.3410182569e-001	 2.7015809954e+000	 4.1768292562e-001
 6.0823138211e-001	 2.7075227766e+000	 3.8732964204e-001
 5.8237706822e-001	 2.7132014209e+000	 2.3644563172e-001
 5.5654256419e-001	 2.7186182841e+000	 7.0156253724e-002
 5.3073150323e-001	 2.7237747836e+000	-1.1209318621e-001
 5.0494747046e-001	 2.7286723974e+000	-3.1068329526e-001
 7.7044300157e-001	 2.6919170830e+000	-4.2296844574e-001
 7.4431538927e-001	 2.6992581576e+000	-2.6978819273e-001
 7.1818481751e-001	 2.7063278752e+000	-1.1186332919e-001
 6.9205521784e-001	 2.7131272686e+000	 5.1027442147e-002
 6.6593048084e-001	 2.7196574407e+000	 2.1905567998e-001
 6.3981445475e-001	 2.7259195630e+000	 3.9234691267e-001
 6.1371094411e-001	 2.7319148737e+000	 4.2826462376e-001
 5.8762370847e-001	 2.7376446770e+000	 2.6641944315e-001
 5.6155646116e-001	 2.7431103407e+000	 8.7123870248e-002
 5.3551286813e-001	 2.7483132951e+000	-1.1023373545e-001
 5.0949654677e-001	 2.7532550316e+000	-3.2608474685e-001
 7.7732195694e-001	 2.7159520569e+000	-4.4098383847e-001
 7.5096106238e-001	 2.7233586769e+000	-2.9165850362e-001
 7.2459718195e-001	 2.7304915169e+000	-1.3519698567e-001
 6.9823428228e-001	 2.7373516192e+000	 2.8460961411e-002
 6.7187628870e-001	 2.7439400964e+000	 1.9932461937e-001
 6.4552708381e-001	 2.7502581305e+000	 3.7735628277e-001
 6.1919050611e-001	 2.7563069708e+000	 4.8428694612e-001
 5.9287034872e-001	 2.7620879330e+000	 3.0616496474e-001
 5.6657035814e-001	 2.7676023973e+000	 1.0843110692e-001
 5.4029423302e-001	 2.7728518067e+000	-1.0957933028e-001
 5.1404562308e-001	 2.7778376658e+000	-3.4834451097e-001
 7.8420091230e-001	 2.7399870309e+000	-4.4162238476e-001
 7.5760673550e-001	 2.7474591962e+000	-2.9772557399e-001
 7.3100954638e-001	 2.7546551587e+000	-1.4428125912e-001
 7.0441334672e-001	 2.7615759698e+000	 1.8608968167e-002
 6.7782209656e-001	 2.7682227522e+000	 1.9079129012e-001
 6.5123971286e-001	 2.7745966980e+000	 3.7206391208e-001
 6.2467006810e-001	 2.7806990679e+000	 5.5742057735e-001
 5.9811698897e-001	 2.7865311891e+000	 3.5775151848e-001
 5.7158425511e-001	 2.7920944539e+000	 1.3619160394e-001
 5.4507559791e-001	 2.7973903183e+000	-1.0797305191e-001
 5.1859469938e-001	 2.8024203000e+000	-3.7526343265e-001
 7.9107986767e-001	 2.7640220048e+000	-4.2619491400e-001
 7.6425240861e-001	 2.7715597154e+000	-2.8917445682e-001
 7.3742191082e-001	 2.7788188004e+000	-1.4017411161e-001
 7.1059241116e-001	 2.7858003204e+000	 2.0541829568e-002
 6.8376790442e-001	 2.7925054079e+000	 1.9265555069e-001
 6.5695234192e-001	 2.7989352655e+000	 3.7580023616e-001
 6.3014963010e-001	 2.8050911650e+000	 5.6956457962e-001
 6.0336362922e-001	 2.8109744451e+000	 4.2321998266e-001
 5.7659815208e-001	 2.8165865105e+000	 1.7248753690e-001
 5.4985696280e-001	 2.8219288298e+000	-1.0329247816e-001
 5.2314377569e-001	 2.8270029342e+000	-4.0467989524e-001
 7.9795882304e-001	 2.7880569788e+000	-3.9601964628e-001
 7.7089808172e-001	 2.7956602347e+000	-2.6720037514e-001
 7.4383427526e-001	 2.8029824422e+000	-1.2394647457e-001
 7.1677147560e-001	 2.8100246711e+000	 3.3314125551e-002
 6.8971371228e-001	 2.8167880636e+000	 2.0409863723e-001
 6.6266497097e-001	 2.8232738331e+000	 3.8787421722e-001
 6.3562919210e-001	 2.8294832621e+000	 5.8406275066e-001
 6.0861026947e-001	 2.8354177012e+000	 5.0458401787e-001
 5.8161204905e-001	 2.8410785671e+000	 2.1937097303e-001
 5.5463832770e-001	 2.8464673414e+000	-9.3448196526e-002
 5.2769285200e-001	 2.8515855684e+000	-4.3446820238e-001
 8.0483777841e-001	 2.8120919527e+000	-3.5242187651e-001
 7.7754375484e-001	 2.8197607539e+000	-2.3300828740e-001
 7.5024663970e-001	 2.8271460839e+000	-9.6681694515e-002
 7.2295054004e-001	 2.8342490217e+000	 5.5965323510e-002
 6.9565952014e-001	 2.8410707193e+000	 2.2428395937e-001
 6.6837760003e-001	 2.8476124006e+000	 4.0757426185e-001
 6.4110875410e-001	 2.8538753591e+000	 6.0509019747e-001
 6.1385690972e-001	 2.8598609572e+000	 6.0383123023e-001
 5.8662594603e-001	 2.8655706237e+000	 2.7886515784e-001
 5.5941969259e-001	 2.8710058529e+000	-7.6382393503e-002
 5.3224192831e-001	 2.8761682026e+000	-4.6253704294e-001
 8.1171673377e-001	 2.8361269267e+000	-2.9673367469e-001
 7.8418942795e-001	 2.8438612732e+000	-1.8781247496e-001
 7.5665900413e-001	 2.8513097256e+000	-5.9475006980e-002
 7.2912960448e-001	 2.8584733723e+000	 8.7520418655e-002
 7.0160532800e-001	 2.8653533750e+000	 2.5235785563e-001
 6.7409022909e-001	 2.8719509681e+000	 4.3416909195e-001
 6.4658831609e-001	 2.8782674562e+000	 6.3203899304e-001
 6.1910354998e-001	 2.8843042132e+000	 7.2292427529e-001
 5.9163984300e-001	 2.8900626803e+000	 3.5296573644e-001
 5.6420105748e-001	 2.8955443645e+000	-5.0067515664e-002
 5.3679100462e-001	 2.9007508368e+000	-4.8682803403e-001
 8.1859568914e-001	 2.8601619006e+000	-2.3029360121e-001
 7.9083510107e-001	 2.8679617925e+000	-1.3283615036e-001
 7.6307136857e-001	 2.8754733674e+000	-1.3433036995e-002
 7.3530866892e-001	 2.8826977229e+000	 1.2699054209e-001
 7.0755113586e-001	 2.8896360307e+000	 2.8745031066e-001
 6.7980285814e-001	 2.8962895356e+000	 4.6690857185e-001
 6.5206787809e-001	 2.9026595533e+000	 6.6427983631e-001
 6.2435019023e-001	 2.9087474693e+000	 8.6380190645e-001
 5.9665373997e-001	 2.9145547369e+000	 4.4364191317e-001
 5.6898242237e-001	 2.9200828761e+000	-1.2504998218e-002
 5.4134008093e-001	 2.9253334710e+000	-5.0531433746e-001
 8.2547464451e-001	 2.8841968746e+000	-1.5444643640e-001
 7.9748077418e-001	 2.8920623117e+000	-6.9311085207e-002
 7.6948373301e-001	 2.8996370091e+000	 4.0326675484e-002
 7.4148773336e-001	 2.9069220735e+000	 1.7337353848e-001
 7.1349694372e-001	 2.9139186865e+000	 3.2867563663e-001
 6.8551548720e-001	 2.9206281031e+000	 5.0502449405e-001
 6.5754744009e-001	 2.9270516504e+000	 7.0116294273e-001
 6.2959683048e-001	 2.9331907253e+000	 9.1579098985e-001
 6.0166763694e-001	 2.9390467935e+000	 5.5283755333e-001
 5.7376378727e-001	 2.9446213876e+000	 3.8275942852e-002
 5.4588915724e-001	 2.9499161052e+000	-5.1599934538e-001
 5.0039839415e-001	 2.7040897632e+000	-3.0437855581e-001
 4.7487693873e-001	 2.7086882237e+000	-2.1259905593e-001
 4.4938922647e-001	 2.7130332330e+000	-1.3465198295e-001
 4.2393866111e-001	 2.7171264254e+000	-6.9812858634e-002
 3.9852859482e-001	 2.7209694888e+000	-1.7226657501e-002
 3.7316232739e-001	 2.7245641628e+000	 2.4085350244e-002
 3.4784310545e-001	 2.7279122372e+000	 5.5218704399e-002
 3.2257412170e-001	 2.7310155503e+000	 7.7378827192e-002
 2.9735851428e-001	 2.7338759873e+000	 9.1874079977e-002
 2.7219936608e-001	 2.7364954787e+000	 1.0010882118e-001
 2.4709970424e-001	 2.7388759987e+000	 1.0357648189e-001
 5.0494747046e-001	 2.7286723974e+000	-3.1068329526e-001
 4.7919400181e-001	 2.7333126621e+000	-2.0677393247e-001
 4.5347458308e-001	 2.7376971715e+000	-1.1953244711e-001
 4.2779264894e-001	 2.7418275747e+000	-4.8011861625e-002
 4.0215158205e-001	 2.7457055751e+000	 8.8665802058e-003
 3.7655471219e-001	 2.7493329280e+000	 5.2306243248e-002
 3.5100531550e-001	 2.7527114394e+000	 8.3627884460e-002
 3.2550661372e-001	 2.7558429644e+000	 1.0426240836e-001
 3.0006177350e-001	 2.7587294054e+000	 1.1574361263e-001
 2.7467390578e-001	 2.7613727104e+000	 1.1970094123e-001
 2.4934606519e-001	 2.7637748714e+000	 1.1785226196e-001
 5.0949654677e-001	 2.7532550316e+000	-3.2608474685e-001
 4.8351106489e-001	 2.7579371005e+000	-2.0736709281e-001
 4.5755993968e-001	 2.7623611099e+000	-1.0826463054e-001
 4.3164663677e-001	 2.7665287241e+000	-2.7607031005e-002
 4.0577456927e-001	 2.7704416614e+000	 3.5909163476e-002
 3.7994709699e-001	 2.7741016931e+000	 8.3713037264e-002
 3.5416752555e-001	 2.7775106416e+000	 1.1735175762e-001
 3.2843910574e-001	 2.7806703785e+000	 1.3848300827e-001
 3.0276503272e-001	 2.7835828235e+000	 1.4886741885e-001
 2.7714844547e-001	 2.7862499420e+000	 1.5036100822e-001
 2.5159242613e-001	 2.7886737441e+000	 1.4490765896e-001
 5.1404562308e-001	 2.7778376658e+000	-3.4834451097e-001
 4.8782812797e-001	 2.7825615389e+000	-2.1232090542e-001
 4.6164529629e-001	 2.7870250484e+000	-9.8972374785e-002
 4.3550062460e-001	 2.7912298734e+000	-6.9042976486e-003
 4.0939755650e-001	 2.7951777476e+000	 6.5412544314e-002
 3.8333948178e-001	 2.7988704582e+000	 1.1963412746e-001
 3.5732973560e-001	 2.8023098437e+000	 1.5753531014e-001
 3.3137159775e-001	 2.8054977926e+000	 1.8100193931e-001
 3.0546829194e-001	 2.8084362415e+000	 1.9202295871e-001
 2.7962298516e-001	 2.8111271736e+000	 1.9268253733e-001
 2.5383878708e-001	 2.8135726168e+000	 1.8515223569e-001
 5.1859469938e-001	 2.8024203000e+000	-3.7526343265e-001
 4.9214519105e-001	 2.8071859773e+000	-2.1961227220e-001
 4.6573065289e-001	 2.8116889869e+000	-8.9809362593e-002
 4.3935461243e-001	 2.8159310227e+000	 1.5765237823e-002
 4.1302054373e-001	 2.8199138339e+000	 9.8867653937e-002
 3.8673186658e-001	 2.8236392233e+000	 1.6138201300e-001
 3.6049194565e-001	 2.8271090459e+000	 2.0531223128e-001
 3.3430408977e-001	 2.8303252067e+000	 2.3277378845e-001
 3.0817155116e-001	 2.8332896596e+000	 2.4598550953e-001
 2.8209752485e-001	 2.8360044052e+000	 2.4726137313e-001
 2.5608514803e-001	 2.8384714896e+000	 2.3900236447e-001
 5.2314377569e-001	 2.8270029342e+000	-4.0467989524e-001
 4.9646225412e-001	 2.8318104157e+000	-2.2725112698e-001
 4.6981600950e-001	 2.8363529254e+000	-7.8957820452e-002
 4.4320860026e-001	 2.8406321720e+000	 4.2046399379e-002
 4.1664353095e-001	 2.8446499202e+000	 1.3774579498e-001
 3.9012425137e-001	 2.8484079884e+000	 2.1025398822e-001
 3.6365415570e-001	 2.8519082480e+000	 2.6180540447e-001
 3.3723658179e-001	 2.8551526208e+000	 2.9474670971e-001
 3.1087481039e-001	 2.8581430777e+000	 3.1152826075e-001
 2.8457206455e-001	 2.8608816369e+000	 3.1469558827e-001
 2.5833150898e-001	 2.8633703623e+000	 3.0688093111e-001
 5.2769285200e-001	 2.8515855684e+000	-4.3446820238e-001
 5.0077931720e-001	 2.8564348541e+000	-2.3327901172e-001
 4.7390136610e-001	 2.8610168639e+000	-6.4627288258e-002
 4.4706258809e-001	 2.8653333213e+000	 7.3560973311e-002
 4.2026651818e-001	 2.8693860064e+000	 1.8349948755e-001
 3.9351663617e-001	 2.8731767535e+000	 2.6753279793e-001
 3.6681636576e-001	 2.8767074502e+000	 3.2812737310e-001
 3.4016907380e-001	 2.8799800349e+000	 3.6786270136e-001
 3.1357806961e-001	 2.8829964957e+000	 3.8942240398e-001
 2.8704660424e-001	 2.8857588685e+000	 3.9558538748e-001
 2.6057786993e-001	 2.8882692350e+000	 3.8921705415e-001
 5.3224192831e-001	 2.8761682026e+000	-4.6253704294e-001
 5.0509638028e-001	 2.8810592925e+000	-2.3576772578e-001
 4.7798672271e-001	 2.8856808023e+000	-4.5053452073e-002
 4.5091657592e-001	 2.8900344707e+000	 1.1190869275e-001
 4.2388950541e-001	 2.8941220927e+000	 2.3756327192e-001
 3.9690902097e-001	 2.8979455187e+000	 3.3448725926e-001
 3.6997857581e-001	 2.9015066523e+000	 4.0538078239e-001
 3.4310156582e-001	 2.9048074490e+000	 4.5305786908e-001
 3.1628132883e-001	 2.9078499138e+000	 4.8043721830e-001
 2.8952114393e-001	 2.9106361001e+000	 4.9053301644e-001
 2.6282423087e-001	 2.9131681077e+000	 4.8644581850e-001
 5.3679100462e-001	 2.9007508368e+000	-4.8682803403e-001
 5.0941344336e-001	 2.9056837309e+000	-2.3281804378e-001
 4.8207207931e-001	 2.9103447408e+000	-1.8497036244e-002
 4.5477056375e-001	 2.9147356200e+000	 1.5866817213e-001
 4.2751249264e-001	 2.9188581789e+000	 3.0135447034e-001
 4.0030140576e-001	 2.9227142838e+000	 4.1237285180e-001
 3.7314078586e-001	 2.9263058545e+000	 4.9465879881e-001
 3.4603405784e-001	 2.9296348631e+000	 5.5126267556e-001
 3.1898458805e-001	 2.9327033318e+000	 5.8534015135e-001
 2.9199568362e-001	 2.9355133317e+000	 6.0014267527e-001
 2.6507059182e-001	 2.9380669804e+000	 5.9900802264e-001
 5.4134008093e-001	 2.9253334710e+000	-5.0531433746e-001
 5.1373050644e-001	 2.9303081693e+000	-2.2255849818e-001
 4.8615743592e-001	 2.9350086793e+000	 1.6757248634e-002
 4.5862455157e-001	 2.9394367693e+000	 2.1539779450e-001
 4.3113547986e-001	 2.9435942652e+000	 3.7627391056e-001
 4.0369379056e-001	 2.9474830489e+000	 5.0243227795e-001
 3.7630299591e-001	 2.9511050566e+000	 5.9704550831e-001
 3.4896654985e-001	 2.9544622771e+000	 6.6340217764e-001
 3.2168784727e-001	 2.9575567499e+000	 7.0489689627e-001
 2.9447022332e-001	 2.9603905634e+000	 7.2502043647e-001
 2.6731695277e-001	 2.9629658531e+000	 7.2734993852e-001
 5.4588915724e-001	 2.9499161052e+000	-5.1599934538e-001
 5.1804756952e-001	 2.9549326076e+000	-2.0314422269e-001
 4.9024279252e-001	 2.9596726178e+000	 6.2401705140e-002
 4.6247853940e-001	 2.9641379186e+000	 2.8363655454e-001
 4.3475846709e-001	 2.9683303514e+000	 4.6370661300e-001
 4.0708617535e-001	 2.9722518140e+000	 6.0589599539e-001
 3.7946520596e-001	 2.9759042588e+000	 7.1361629474e-001
 3.5189904187e-001	 2.9792896912e+000	 7.9039625156e-001
 3.2439110650e-001	 2.9824101680e+000	 8.3987146482e-001
 2.9694476301e-001	 2.9852677950e+000	 8.6577416685e-001
 2.6956331372e-001	 2.9878647258e+000	 8.7192308354e-001
 2.4709970424e-001	 2.7388759987e+000	 1.0357648189e-001
 2.2206249953e-001	 2.7410195633e+000	 1.1084580796e-001
 1.9709066597e-001	 2.7429282290e+000	 1.0454705375e-001
 1.7218706031e-001	 2.7446040910e+000	 8.6592598660e-002
 1.4735448172e-001	 2.7460492816e+000	 5.8962170008e-002
 1.2259567143e-001	 2.7472659684e+000	 2.3695928903e-002
 9.7913312455e-002	 2.7482563533e+000	-1.7112340368e-002
 7.3310029335e-002	 2.7490226699e+000	-6.1321925523e-002
 4.8788387970e-002	 2.7495671829e+000	-1.0675175485e-001
 2.4350895461e-002	 2.7498921859e+000	-1.5118682872e-001
 0.0000000000e+000	 2.7500000000e+000	-1.9238450433e-001
 2.4934606519e-001	 2.7637748714e+000	 1.1785226196e-001
 2.2408124953e-001	 2.7659379230e+000	 1.2262308163e-001
 1.9888239929e-001	 2.7678639402e+000	 1.1456518758e-001
 1.7375239722e-001	 2.7695550373e+000	 9.5832398978e-002
 1.4869406792e-001	 2.7710133659e+000	 6.8642608338e-002
 1.2371017754e-001	 2.7722411136e+000	 3.5270624106e-002
 9.8803433477e-002	 2.7732405019e+000	-1.9588730284e-003
 7.3976484146e-002	 2.7740137851e+000	-4.0678248018e-002
 4.9231918770e-002	 2.7745632482e+000	-7.8483692176e-002
 2.4572267237e-002	 2.7748912057e+000	-1.1294185618e-001
 0.0000000000e+000	 2.7750000000e+000	-1.4159632554e-001
 2.5159242613e-001	 2.7886737441e+000	 1.4490765896e-001
 2.2609999953e-001	 2.7908562826e+000	 1.5004451476e-001
 2.0067413262e-001	 2.7927996513e+000	 1.4296543006e-001
 1.7531773413e-001	 2.7945059836e+000	 1.2606728385e-001
 1.5003365411e-001	 2.7959774503e+000	 1.0180784106e-001
 1.2482468364e-001	 2.7972162588e+000	 7.2698346846e-002
 9.9693554498e-002	 2.7982246506e+000	 4.1296244643e-002
 7.4642938958e-002	 2.7990049003e+000	 1.0198030588e-002
 4.9675449569e-002	 2.7995593135e+000	-1.7967744363e-002
 2.4793639014e-002	 2.7998902256e+000	-4.0547313843e-002
 0.0000000000e+000	 2.8000000000e+000	-5.4868367129e-002
 2.5383878708e-001	 2.8135726168e+000	 1.8515223569e-001
 2.2811874952e-001	 2.8157746423e+000	 1.9330252333e-001
 2.0246586595e-001	 2.8177353625e+000	 1.8972395368e-001
 1.7688307104e-001	 2.8194569298e+000	 1.7705817310e-001
 1.5137324031e-001	 2.8209415347e+000	 1.5800461230e-001
 1.2593918974e-001	 2.8221914039e+000	 1.3531282694e-001
 1.0058367552e-001	 2.8232087993e+000	 1.1177497247e-001
 7.5309393769e-002	 2.8239960154e+000	 9.0218425626e-002
 5.0118980368e-002	 2.8245553788e+000	 7.3498564407e-002
 2.5015010790e-002	 2.8248892455e+000	 6.4491717308e-002
 0.0000000000e+000	 2.8250000000e+000	 6.6088291770e-002
 2.5608514803e-001	 2.8384714896e+000	 2.3900236447e-001
 2.3013749952e-001	 2.8406930020e+000	 2.5260194703e-001
 2.0425759927e-001	 2.8426710737e+000	 2.5483490786e-001
 1.7844840795e-001	 2.8444078761e+000	 2.4858945435e-001
 1.5271282651e-001	 2.8459056191e+000	 2.3680856085e-001
 1.2705369585e-001	 2.8471665491e+000	 2.2248205048e-001
 1.0147379654e-001	 2.8481929479e+000	 2.0863882138e-001
 7.5975848581e-002	 2.8489871306e+000	 1.9833923032e-001
 5.0562511167e-002	 2.8495514441e+000	 1.9466764536e-001
 2.5236382567e-002	 2.8498882654e+000	 2.0072517874e-001
 0.0000000000e+000	 2.8500000000e+000	 2.1962260989e-001
 2.5833150898e-001	 2.8633703623e+000	 3.0688093111e-001
 2.3215624951e-001	 2.8656113616e+000	 3.2815950910e-001
 2.0604933260e-001	 2.8676067849e+000	 3.3830963743e-001
 1.8001374486e-001	 2.8693588224e+000	 3.4046796270e-001
 1.5405241270e-001	 2.8708697034e+000	 3.3782296397e-001
 1.2816820195e-001	 2.8721416943e+000	 3.3360677040e-001
 1.0236391756e-001	 2.8731770966e+000	 3.3108713377e-001
 7.6642303392e-002	 2.8739782458e+000	 3.3355956891e-001
 5.1006041966e-002	 2.8745475094e+000	 3.4433967403e-001
 2.5457754343e-002	 2.8748872852e+000	 3.6675564209e-001
 0.0000000000e+000	 2.8750000000e+000	 4.0414097348e-001
 2.6057786993e-001	 2.8882692350e+000	 3.8921705415e-001
 2.3417499951e-001	 2.8905297213e+000	 4.2020330409e-001
 2.0784106593e-001	 2.8925424960e+000	 4.4017594138e-001
 1.8157908178e-001	 2.8943097687e+000	 4.5252201315e-001
 1.5539199890e-001	 2.8958337878e+000	 4.6067754600e-001
 1.2928270805e-001	 2.8971168394e+000	 4.6811909413e-001
 1.0325403858e-001	 2.8981612453e+000	 4.7835545284e-001
 7.7308758203e-002	 2.8989693610e+000	 4.9491955052e-001
 5.1449572765e-002	 2.8995435747e+000	 5.2136053145e-001
 2.5679126120e-002	 2.8998863051e+000	 5.6123604061e-001
 0.0000000000e+000	 2.9000000000e+000	 6.1810472099e-001
 2.6282423087e-001	 2.9131681077e+000	 4.8644581850e-001
 2.3619374951e-001	 2.9154480810e+000	 5.2897231195e-001
 2.0963279925e-001	 2.9174782072e+000	 5.6047736974e-001
 1.8314441869e-001	 2.9192607150e+000	 5.8460048265e-001
 1.5673158510e-001	 2.9207978722e+000	 6.0502734816e-001
 1.3039721416e-001	 2.9220919846e+000	 6.2548114366e-001
 1.0414415961e-001	 2.9231453939e+000	 6.4971397556e-001
 7.7975213015e-002	 2.9239604762e+000	 6.8149851761e-001
 5.1893103565e-002	 2.9245396400e+000	 7.2461985089e-001
 2.5900497897e-002	 2.9248853250e+000	 7.8286751695e-001
 0.0000000000e+000	 2.9250000000e+000	 8.6002779468e-001
 2.6507059182e-001	 2.9380669804e+000	 5.9900802264e-001
 2.3821249950e-001	 2.9403664406e+000	 6.5471593675e-001
 2.1142453258e-001	 2.9424139184e+000	 6.9927255614e-001
 1.8470975560e-001	 2.9442116612e+000	 7.3657193886e-001
 1.5807117129e-001	 2.9457619566e+000	 7.7055165584e-001
 1.3151172026e-001	 2.9470671298e+000	 8.0518378374e-001
 1.0503428063e-001	 2.9481295426e+000	 8.4446608431e-001
 7.8641667826e-002	 2.9489515913e+000	 8.9241338362e-001
 5.2336634364e-002	 2.9495357053e+000	 9.5304916402e-001
 2.6121869673e-002	 2.9498843448e+000	 1.0303973804e+000
 0.0000000000e+000	 2.9500000000e+000	 1.1284745117e+000
 2.6731695277e-001	 2.9629658531e+000	 7.2734993852e-001
 2.4023124950e-001	 2.9652848003e+000	 7.9769356868e-001
 2.1321626591e-001	 2.9673496295e+000	 8.5663458404e-001
 1.8627509251e-001	 2.9691626075e+000	 9.0832381277e-001
 1.5941075749e-001	 2.9707260410e+000	 9.5695297986e-001
 1.3262622636e-001	 2.9720422749e+000	 1.0067454142e+000
 1.0592440165e-001	 2.9731136913e+000	 1.0619469525e+000
 7.9308122638e-002	 2.9739427065e+000	 1.1268170543e+000
 5.2780165163e-002	 2.9745317706e+000	 1.2056201404e+000
 2.6343241450e-002	 2.9748833647e+000	 1.3026171673e+000
 0.0000000000e+000	 2.9750000000e+000	 1.4220574473e+000
 2.6956331372e-001	 2.9878647258e+000	 8.7192308354e-001
 2.4224999949e-001	 2.9902031599e+000	 9.5817416802e-001
 2.1500799923e-001	 2.9922853407e+000	 1.0326503847e+000
 1.8784042942e-001	 2.9941135538e+000	 1.0997616128e+000
 1.6075034369e-001	 2.9956901253e+000	 1.1639560888e+000
 1.3374073246e-001	 2.9970174201e+000	 1.2297108226e+000
 1.0681452267e-001	 2.9980978399e+000	 1.3015222199e+000
 7.9974577449e-002	 2.9989338217e+000	 1.3838969280e+000
 5.3223695962e-002	 2.9995278359e+000	 1.4813429152e+000
 2.6564613226e-002	 2.9998823846e+000	 1.5983607977e+000
 0.0000000000e+000	 3.0000000000e+000	 1.7394354244e+000
 3.0000000000e+000	 0.0000000000e+000	 3.1489908619e+000
 2.9998823846e+000	 2.6564613226e-002	 3.0546269890e+000
 2.9995278359e+000	 5.3223695962e-002	 2.9494107369e+000
 2.9989338217e+000	 7.9974577449e-002	 2.8349155751e+000
 2.9980978399e+000	 1.0681452267e-001	 2.7128798728e+000
 2.9970174201e+000	 1.3374073246e-001	 2.5852082577e+000
 2.9956901253e+000	 1.6075034369e-001	 2.4539726707e+000
 2.9941135538e+000	 1.8784042942e-001	 2.3214131046e+000
 2.9922853407e+000	 2.1500799923e-001	 2.1899380132e+000
 2.9902031599e+000	 2.4224999949e-001	 2.0621243774e+000
 2.9878647258e+000	 2.6956331372e-001	 1.9407174188e+000
 3.0250000000e+000	 0.0000000000e+000	 2.0853683339e+000
 3.0248814045e+000	 2.6785985003e-002	 2.0706236540e+000
 3.0245239012e+000	 5.3667226761e-002	 2.0428875715e+000
 3.0239249369e+000	 8.0641032261e-002	 2.0037365908e+000
 3.0230819886e+000	 1.0770464369e-001	 1.9549167939e+000
 3.0219925653e+000	 1.3485523857e-001	 1.8983452709e+000
 3.0206542097e+000	 1.6208992988e-001	 1.8361112403e+000
 3.0190645001e+000	 1.8940576633e-001	 1.7704768442e+000
 3.0172210519e+000	 2.1679973256e-001	 1.7038776059e+000
 3.0151215196e+000	 2.4426874949e-001	 1.6389225376e+000
 3.0127635985e+000	 2.7180967467e-001	 1.5783938847e+000
 3.0500000000e+000	 0.0000000000e+000	 1.0588480394e+000
 3.0498804243e+000	 2.7007356780e-002	 1.1210997301e+000
 3.0495199665e+000	 5.4110757560e-002	 1.1681360296e+000
 3.0489160521e+000	 8.1307487072e-002	 1.2015378359e+000
 3.0480661373e+000	 1.0859476471e-001	 1.2230604283e+000
 3.0469677104e+000	 1.3596974467e-001	 1.2346349721e+000
 3.0456182941e+000	 1.6342951608e-001	 1.2383697040e+000
 3.0440154464e+000	 1.9097110324e-001	 1.2365507854e+000
 3.0421567631e+000	 2.1859146589e-001	 1.2316428094e+000
 3.0400398793e+000	 2.4628749948e-001	 1.2262889495e+000
 3.0376624713e+000	 2.7405603562e-001	 1.2233107356e+000
 3.0750000000e+000	 0.0000000000e+000	 6.8946705880e-002
 3.0748794442e+000	 2.7228728556e-002	 2.0555385924e-001
 3.0745160318e+000	 5.4554288360e-002	 3.2463566748e-001
 3.0739071672e+000	 8.1973941883e-002	 4.2777878689e-001
 3.0730502859e+000	 1.0948488573e-001	 5.1674918713e-001
 3.0719428556e+000	 1.3708425077e-001	 5.9349372987e-001
 3.0705823785e+000	 1.6476910228e-001	 6.6014142113e-001
 3.0689663926e+000	 1.9253644015e-001	 7.1900432304e-001
 3.0670924742e+000	 2.2038319921e-001	 7.7257811120e-001
 3.0649582389e+000	 2.4830624948e-001	 8.2354226408e-001
 3.0625613440e+000	 2.7630239656e-001	 8.7475987169e-001
 3.1000000000e+000	 0.0000000000e+000	-8.8480334969e-001
 3.0998784641e+000	 2.7450100333e-002	-6.7650047902e-001
 3.0995120971e+000	 5.4997819159e-002	-4.8811987516e-001
 3.0988982824e+000	 8.2640396694e-002	-3.1806775125e-001
 3.0980344346e+000	 1.1037500676e-001	-1.6456594660e-001
 3.0969180008e+000	 1.3819875688e-001	-2.5650272403e-002
 3.0955464628e+000	 1.6610868847e-001	 1.0083080818e-001
 3.0939173389e+000	 1.9410177707e-001	 2.1721715120e-001
 3.0920281854e+000	 2.2217493254e-001	 3.2603753992e-001
 3.0898765986e+000	 2.5032499947e-001	 4.3000991590e-001
 3.0874602167e+000	 2.7854875751e-001	 5.3204121986e-001
 3.1250000000e+000	 0.0000000000e+000	-1.8028548446e+000
 3.1248774839e+000	 2.7671472109e-002	-1.5255355614e+000
 3.1245081624e+000	 5.5441349958e-002	-1.2706234382e+000
 3.1238893976e+000	 8.3306851506e-002	-1.0365161783e+000
 3.1230185833e+000	 1.1126512778e-001	-8.2142192051e-001
 3.1218931460e+000	 1.3931326298e-001	-6.2335750881e-001
 3.1205105472e+000	 1.6744827467e-001	-4.4014710326e-001
 3.1188682852e+000	 1.9566711398e-001	-2.6942114884e-001
 3.1169638966e+000	 2.2396666586e-001	-1.0861571619e-001
 3.1147949583e+000	 2.5234374947e-001	 4.5027771603e-002
 3.1123590894e+000	 2.8079511845e-001	 1.9446241217e-001
 3.1500000000e+000	 0.0000000000e+000	-8.3480475258e-001
 3.1498765038e+000	 2.7892843886e-002	-6.3280054007e-001
 3.1495042277e+000	 5.5884880757e-002	-4.6601512624e-001
 3.1488805128e+000	 8.3973306317e-002	-3.2936683088e-001
 3.1480027319e+000	 1.1215524880e-001	-2.1778177237e-001
 3.1468682911e+000	 1.4042776908e-001	-1.2619340371e-001
 3.1454746316e+000	 1.6878786087e-001	-4.9541770127e-002
 3.1438192315e+000	 1.9723245089e-001	 1.7227517514e-002
 3.1418996077e+000	 2.2575839919e-001	 7.9164598729e-002
 3.1397133179e+000	 2.5436249946e-001	 1.4131697288e-001
 3.1372579621e+000	 2.8304147940e-001	 2.0873140532e-001
 3.1750000000e+000	 0.0000000000e+000	 8.7288361480e-002
 3.1748755237e+000	 2.8114215663e-002	 2.2406103127e-001
 3.1745002930e+000	 5.6328411556e-002	 3.2763712906e-001
 3.1738716280e+000	 8.4639761128e-002	 4.0303944711e-001
 3.1729868806e+000	 1.1304536982e-001	 4.5527764534e-001
 3.1718434363e+000	 1.4154227518e-001	 4.8934879270e-001
 3.1704387160e+000	 1.7012744706e-001	 5.1023820130e-001
 3.1687701778e+000	 1.9879778780e-001	 5.2292055960e-001
 3.1668353189e+000	 2.2755013251e-001	 5.3236136988e-001
 3.1646316776e+000	 2.5638124945e-001	 5.4351869429e-001
 3.1621568348e+000	 2.8528784035e-001	 5.6134521290e-001
 3.2000000000e+000	 0.0000000000e+000	 9.6301322532e-001
 3.1998745436e+000	 2.8335587439e-002	 1.0361596077e+000
 3.1994963583e+000	 5.6771942355e-002	 1.0782073293e+000
 3.1988627432e+000	 8.5306215939e-002	 1.0941171628e+000
 3.1979710292e+000	 1.1393549084e-001	 1.0888312653e+000
 3.1968185815e+000	 1.4265678129e-001	 1.0672737988e+000
 3.1954028003e+000	 1.7146703326e-001	 1.0343518585e+000
 3.1937211241e+000	 2.0036312471e-001	 9.9495671456e-001
 3.1917710301e+000	 2.2934186584e-001	 9.5396537405e-001
 3.1895500373e+000	 2.5839999945e-001	 9.1624246674e-001
 3.1870557075e+000	 2.8753420129e-001	 8.8664245844e-001
 3.2250000000e+000	 0.0000000000e+000	 1.7919713193e+000
 3.2248735634e+000	 2.8556959216e-002	 1.8032235199e+000
 3.2244924236e+000	 5.7215473154e-002	 1.7855517926e+000
 3.2238538583e+000	 8.5972670750e-002	 1.7438516970e+000
 3.2229551779e+000	 1.1482561186e-001	 1.6829945423e+000
 3.2217937266e+000	 1.4377128739e-001	 1.6078280886e+000
 3.2203668847e+000	 1.7280661945e-001	 1.5231775713e+000
 3.2186720703e+000	 2.0192846161e-001	 1.4338470547e+000
 3.2167067413e+000	 2.3113359916e-001	 1.3446211206e+000
 3.2144683969e+000	 2.6041874944e-001	 1.2602668971e+000
 3.2119545803e+000	 2.8978056223e-001	 1.1855364308e+000
 3.2500000000e+000	 0.0000000000e+000	 2.5737763859e+000
 3.2498725833e+000	 2.8778330992e-002	 2.5249927689e+000
 3.2494884889e+000	 5.7659003953e-002	 2.4495379148e+000
 3.2488449735e+000	 8.6639125561e-002	 2.3522389146e+000
 3.2479393266e+000	 1.1571573288e-001	 2.2378928203e+000
 3.2467688718e+000	 1.4488579349e-001	 2.1112674293e+000
 3.2453309691e+000	 1.7414620565e-001	 1.9771024068e+000
 3.2436230166e+000	 2.0349379852e-001	 1.8401107533e+000
 3.2416424524e+000	 2.3292533249e-001	 1.7049806235e+000
 3.2393867566e+000	 2.6243749943e-001	 1.5763775009e+000
 3.2368534530e+000	 2.9202692318e-001	 1.4589467322e+000
 2.9878647258e+000	 2.6956331372e-001	 1.9407174188e+000
 2.9852677950e+000	 2.9694476301e-001	 1.7565716706e+000
 2.9824101680e+000	 3.2439110650e-001	 1.5928914511e+000
 2.9792896912e+000	 3.5189904187e-001	 1.4530460007e+000
 2.9759042588e+000	 3.7946520596e-001	 1.3405626422e+000
 2.9722518140e+000	 4.0708617535e-001	 1.2591243342e+000
 2.9683303514e+000	 4.3475846709e-001	 1.2125668128e+000
 2.9641379186e+000	 4.6247853940e-001	 1.2048753161e+000
 2.9596726178e+000	 4.9024279252e-001	 1.2401808835e+000
 2.9549326076e+000	 5.1804756952e-001	 1.3227562271e+000
 2.9499161052e+000	 5.4588915724e-001	 1.4570111698e+000
 3.0127635985e+000	 2.7180967467e-001	 1.5783938847e+000
 3.0101450266e+000	 2.9941930270e-001	 1.4543493184e+000
 3.0072635860e+000	 3.2709436572e-001	 1.3480043732e+000
 3.0041171053e+000	 3.5483153389e-001	 1.2627847200e+000
 3.0007034609e+000	 3.8262741601e-001	 1.2022799427e+000
 2.9970205791e+000	 4.1047856015e-001	 1.1702410874e+000
 2.9930664377e+000	 4.3838145432e-001	 1.1705777877e+000
 2.9888390679e+000	 4.6633252723e-001	 1.2073549609e+000
 2.9843365562e+000	 4.9432814913e-001	 1.2847890684e+000
 2.9795570460e+000	 5.2236463260e-001	 1.4072439349e+000
 2.9744987394e+000	 5.5043823355e-001	 1.5792261226e+000
 3.0376624713e+000	 2.7405603562e-001	 1.2233107356e+000
 3.0350222582e+000	 3.0189384239e-001	 1.1563611788e+000
 3.0321170041e+000	 3.2979762494e-001	 1.1042954946e+000
 3.0289445194e+000	 3.5776402590e-001	 1.0705984278e+000
 3.0255026631e+000	 3.8578962606e-001	 1.0589245875e+000
 3.0217893442e+000	 4.1387094494e-001	 1.0730959896e+000
 3.0178025240e+000	 4.4200444154e-001	 1.1170991649e+000
 3.0135402172e+000	 4.7018651506e-001	 1.1950818259e+000
 3.0090004947e+000	 4.9841350573e-001	 1.3113490856e+000
 3.0041814844e+000	 5.2668169568e-001	 1.4703592230e+000
 2.9990813737e+000	 5.5498730986e-001	 1.6767189907e+000
 3.0625613440e+000	 2.7630239656e-001	 8.7475987169e-001
 3.0598994898e+000	 3.0436838209e-001	 8.6186199596e-001
 3.0569704222e+000	 3.3250088416e-001	 8.6098113809e-001
 3.0537719335e+000	 3.6069651792e-001	 8.7566377956e-001
 3.0503018652e+000	 3.8895183611e-001	 9.0963233833e-001
 3.0465581093e+000	 4.1726332974e-001	 9.6678270421e-001
 3.0425386102e+000	 4.4562742877e-001	 1.0511813282e+000
 3.0382413666e+000	 4.7404050289e-001	 1.1670618580e+000
 3.0336644332e+000	 5.0249886233e-001	 1.3188213139e+000
 3.0288059228e+000	 5.3099875876e-001	 1.5110157978e+000
 3.0236640079e+000	 5.5953638617e-001	 1.7483557328e+000
 3.0874602167e+000	 2.7854875751e-001	 5.3204121986e-001
 3.0847767215e+000	 3.0684292178e-001	 5.7011409081e-001
 3.0818238402e+000	 3.3520414338e-001	 6.1728476748e-001
 3.0785993476e+000	 3.6362900993e-001	 6.7716414954e-001
 3.0751010674e+000	 3.9211404616e-001	 7.5354526810e-001
 3.0713268744e+000	 4.2065571453e-001	 8.5040081282e-001
 3.0672746965e+000	 4.4925041599e-001	 9.7188020094e-001
 3.0629425159e+000	 4.7789449072e-001	 1.1223061804e+000
 3.0583283717e+000	 5.0658421894e-001	 1.3061709602e+000
 3.0534303612e+000	 5.3531582184e-001	 1.5281318618e+000
 3.0482466421e+000	 5.6408546248e-001	 1.7930064876e+000
 3.1123590894e+000	 2.8079511845e-001	 1.9446241217e-001
 3.1096539531e+000	 3.0931746147e-001	 2.8038705817e-001
 3.1066772583e+000	 3.3790740260e-001	 3.7243670200e-001
 3.1034267617e+000	 3.6656150195e-001	 4.7428936238e-001
 3.0999002695e+000	 3.9527625621e-001	 5.8981150862e-001
 3.0960956396e+000	 4.2404809933e-001	 7.2305557828e-001
 3.0920107827e+000	 4.5287340322e-001	 8.7825702461e-001
 3.0876436652e+000	 4.8174847854e-001	 1.0598308855e+000
 3.0829923102e+000	 5.1066957554e-001	 1.2723678669e+000
 3.0780547996e+000	 5.3963288491e-001	 1.5206299339e+000
 3.0728292763e+000	 5.6863453879e-001	 1.8095454061e+000
 3.1372579621e+000	 2.8304147940e-001	 2.0873140532e-001
 3.1345311847e+000	 3.1179200116e-001	 2.2702599187e-001
 3.1315306764e+000	 3.4061066182e-001	 2.6373005728e-001
 3.1282541758e+000	 3.6949399396e-001	 3.2405320517e-001
 3.1246994717e+000	 3.9843846626e-001	 4.1758501003e-001
 3.1208644047e+000	 4.2744048412e-001	 5.8385771927e-001
 3.1167468690e+000	 4.5649639044e-001	 7.6937814754e-001
 3.1123448145e+000	 4.8560246637e-001	 9.7865683779e-001
 3.1076562486e+000	 5.1475493214e-001	 1.2163863275e+000
 3.1026792380e+000	 5.4394994799e-001	 1.4874366778e+000
 3.0974119105e+000	 5.7318361510e-001	 1.7968504931e+000
 3.1621568348e+000	 2.8528784035e-001	 5.6134521290e-001
 3.1594084163e+000	 3.1426654084e-001	 5.3472376131e-001
 3.1563840944e+000	 3.4331392104e-001	 5.2693174636e-001
 3.1530815899e+000	 3.7242648597e-001	 5.4307610075e-001
 3.1494986739e+000	 4.0160067630e-001	 5.8826996322e-001
 3.1456331698e+000	 4.3083286891e-001	 6.6763615818e-001
 3.1414829553e+000	 4.6011937766e-001	 7.8631097970e-001
 3.1370459638e+000	 4.8945645420e-001	 9.4944827495e-001
 3.1323201871e+000	 5.1884028875e-001	 1.1622238207e+000
 3.1273036764e+000	 5.4826701107e-001	 1.4298399849e+000
 3.1219945447e+000	 5.7773269141e-001	 1.7538034550e+000
 3.1870557075e+000	 2.8753420129e-001	 8.8664245844e-001
 3.1842856480e+000	 3.1674108053e-001	 8.1764579486e-001
 3.1812375125e+000	 3.4601718025e-001	 7.6795007611e-001
 3.1779090040e+000	 3.7535897799e-001	 7.4255505175e-001
 3.1742978760e+000	 4.0476288635e-001	 7.4646342251e-001
 3.1704019349e+000	 4.3422525370e-001	 7.8468456566e-001
 3.1662190415e+000	 4.6374236489e-001	 8.6223857984e-001
 3.1617471132e+000	 4.9331044202e-001	 9.8416064425e-001
 3.1569841256e+000	 5.2292564535e-001	 1.1555056856e+000
 3.1519281148e+000	 5.5258407415e-001	 1.3813533449e+000
 3.1465771789e+000	 5.8228176772e-001	 1.6668132340e+000
 3.2119545803e+000	 2.8978056223e-001	 1.1855364308e+000
 3.2091628796e+000	 3.1921562022e-001	 1.0768327301e+000
 3.2060909306e+000	 3.4872043947e-001	 9.8795314316e-001
 3.2027364181e+000	 3.7829147000e-001	 9.2378564319e-001
 3.1990970782e+000	 4.0792509639e-001	 8.8921777372e-001
 3.1951707000e+000	 4.3761763849e-001	 8.8914062485e-001
 3.1909551278e+000	 4.6736535211e-001	 9.2845314444e-001
 3.1864482625e+000	 4.9716442985e-001	 1.0120667788e+000
 3.1816480641e+000	 5.2701100195e-001	 1.1449104361e+000
 3.1765525532e+000	 5.5690113723e-001	 1.3319357649e+000
 3.1711598131e+000	 5.8683084403e-001	 1.5781227362e+000
 3.2368534530e+000	 2.9202692318e-001	 1.4589467322e+000
 3.2340401112e+000	 3.2169015991e-001	 1.3133311642e+000
 3.2309443486e+000	 3.5142369869e-001	 1.1881146610e+000
 3.2275638322e+000	 3.8122396201e-001	 1.0880687451e+000
 3.2238962803e+000	 4.1108730644e-001	 1.0179610012e+000
 3.2199394651e+000	 4.4101002328e-001	 9.8255930865e-001
 3.2156912140e+000	 4.7098833933e-001	 9.8663642398e-001
 3.2111494118e+000	 5.0101841767e-001	 1.0349749092e+000
 3.2063120026e+000	 5.3109635855e-001	 1.1323723983e+000
 3.2011769916e+000	 5.6121820030e-001	 1.2836471929e+000
 3.1957424473e+000	 5.9137992034e-001	 1.4936441781e+000
 2.9499161052e+000	 5.4588915724e-001	 1.4570111698e+000
 2.9446213876e+000	 5.7376378727e-001	 1.0978250117e+000
 2.9390467935e+000	 6.0166763694e-001	 7.8387768055e-001
 2.9331907253e+000	 6.2959683048e-001	 5.6141574254e-001
 2.9270516504e+000	 6.5754744009e-001	 5.8034000056e-001
 2.9206281031e+000	 6.8551548720e-001	 5.9585701311e-001
 2.9139186865e+000	 7.1349694372e-001	 6.0689827547e-001
 2.9069220735e+000	 7.4148773336e-001	 6.1237611876e-001
 2.8996370091e+000	 7.6948373301e-001	 6.1118694923e-001
 2.8920623117e+000	 7.9748077418e-001	 6.0221459963e-001
 2.8841968746e+000	 8.2547464451e-001	 5.8433378602e-001
 2.9744987394e+000	 5.5043823355e-001	 1.5792261226e+000
 2.9691598992e+000	 5.7854515216e-001	 1.1846243955e+000
 2.9635388501e+000	 6.0668153392e-001	 8.3195187279e-001
 2.9576339813e+000	 6.3484347073e-001	 6.3573450526e-001
 2.9514437475e+000	 6.6302700209e-001	 6.5930077410e-001
 2.9449666706e+000	 6.9122811626e-001	 6.7654105480e-001
 2.9382013422e+000	 7.1944275158e-001	 6.8627410814e-001
 2.9311464241e+000	 7.4766679780e-001	 6.8730068397e-001
 2.9238006509e+000	 7.7589609745e-001	 6.7840696025e-001
 2.9161628310e+000	 8.0412644730e-001	 6.5836809698e-001
 2.9082318485e+000	 8.3235359987e-001	 6.2595189838e-001
 2.9990813737e+000	 5.5498730986e-001	 1.6767189907e+000
 2.9936984107e+000	 5.8332651705e-001	 1.2426742191e+000
 2.9880309068e+000	 6.1169543089e-001	 8.4724765145e-001
 2.9820772374e+000	 6.4009011098e-001	 6.9454323098e-001
 2.9758358445e+000	 6.6850656409e-001	 7.2330634532e-001
 2.9693052382e+000	 6.9694074532e-001	 7.4285494799e-001
 2.9624839979e+000	 7.2538855945e-001	 7.5189386996e-001
 2.9553707747e+000	 7.5384586224e-001	 7.4911105920e-001
 2.9479642926e+000	 7.8230846189e-001	 7.3318122131e-001
 2.9402633502e+000	 8.1077212041e-001	 7.0276957824e-001
 2.9322668225e+000	 8.3923255524e-001	 6.5653573777e-001
 3.0236640079e+000	 5.5953638617e-001	 1.7483557328e+000
 3.0182369223e+000	 5.8810788194e-001	 1.2708076469e+000
 3.0125229634e+000	 6.1670932786e-001	 8.2856396274e-001
 3.0065204934e+000	 6.4533675123e-001	 7.3854988890e-001
 3.0002279416e+000	 6.7398612608e-001	 7.7312072598e-001
 2.9936438057e+000	 7.0265337437e-001	 7.9561760226e-001
 2.9867666536e+000	 7.3133436731e-001	 8.0463018089e-001
 2.9795951253e+000	 7.6002492669e-001	 7.9873234480e-001
 2.9721279343e+000	 7.8872082633e-001	 7.7648604102e-001
 2.9643638695e+000	 8.1741779353e-001	 7.3644524619e-001
 2.9563017964e+000	 8.4611151061e-001	 6.7716004563e-001
 3.0482466421e+000	 5.6408546248e-001	 1.7930064876e+000
 3.0427754338e+000	 5.9288924684e-001	 1.2678612073e+000
 3.0370150200e+000	 6.2172322484e-001	 7.7470233023e-001
 3.0309637495e+000	 6.5058339149e-001	 7.6846426951e-001
 3.0246200387e+000	 6.7946568808e-001	 8.0950902399e-001
 3.0179823732e+000	 7.0836600343e-001	 8.3564832962e-001
 3.0110493093e+000	 7.3728017517e-001	 8.4535540158e-001
 3.0038194759e+000	 7.6620399113e-001	 8.3708875269e-001
 2.9962915761e+000	 7.9513319077e-001	 8.0929624351e-001
 2.9884643887e+000	 8.2406346665e-001	 7.6041925676e-001
 2.9803367704e+000	 8.5299046598e-001	 6.8889698819e-001
 3.0728292763e+000	 5.6863453879e-001	 1.8095454061e+000
 3.0673139454e+000	 5.9767061173e-001	 1.2326746576e+000
 3.0615070766e+000	 6.2673712181e-001	 7.2067514769e-001
 3.0554070055e+000	 6.5583003174e-001	 7.8499791173e-001
 3.0490121358e+000	 6.8494525008e-001	 8.3323739953e-001
 3.0423209407e+000	 7.1407863249e-001	 8.6376682840e-001
 3.0353319650e+000	 7.4322598304e-001	 8.7494164379e-001
 3.0280438265e+000	 7.7238305558e-001	 8.6510364196e-001
 3.0204552178e+000	 8.0154555521e-001	 8.3258522788e-001
 3.0125649080e+000	 8.3070913976e-001	 7.7571380089e-001
 3.0043717443e+000	 8.5986942135e-001	 6.9281625953e-001
 3.0974119105e+000	 5.7318361510e-001	 1.7968504931e+000
 3.0918524570e+000	 6.0245197662e-001	 1.1640908563e+000
 3.0859991332e+000	 6.3175101878e-001	 7.1391293613e-001
 3.0798502615e+000	 6.6107667200e-001	 7.8886403354e-001
 3.0734042329e+000	 6.9042481209e-001	 8.4507302330e-001
 3.0666595083e+000	 7.1979126155e-001	 8.8079316789e-001
 3.0596146208e+000	 7.4917179090e-001	 8.9426078024e-001
 3.0522681771e+000	 7.7856212002e-001	 8.8369955261e-001
 3.0446188595e+000	 8.0795791965e-001	 8.4732502469e-001
 3.0366654273e+000	 8.3735481288e-001	 7.8334918247e-001
 3.0284067183e+000	 8.6674837673e-001	 6.8998517963e-001
 3.1219945447e+000	 5.7773269141e-001	 1.7538034550e+000
 3.1163909685e+000	 6.0723334152e-001	 1.0609556410e+000
 3.1104911898e+000	 6.3676491576e-001	 6.9439613054e-001
 3.1042935176e+000	 6.6632331225e-001	 7.8077746589e-001
 3.0977963300e+000	 6.9590437409e-001	 8.4578403672e-001
 3.0909980758e+000	 7.2550389062e-001	 8.8754777379e-001
 3.0838972765e+000	 7.5511759877e-001	 9.0418445402e-001
 3.0764925277e+000	 7.8474118447e-001	 8.9379823793e-001
 3.0687825013e+000	 8.1437028410e-001	 8.5448634986e-001
 3.0607659465e+000	 8.4400048600e-001	 7.8434389269e-001
 3.0524416922e+000	 8.7362733210e-001	 6.8146878789e-001
 3.1465771789e+000	 5.8228176772e-001	 1.6668132340e+000
 3.1409294801e+000	 6.1201470641e-001	 8.8111940617e-001
 3.1349832464e+000	 6.4177881273e-001	 6.1776501844e-001
 3.1287367736e+000	 6.7156995251e-001	 7.3751314160e-001
 3.1221884270e+000	 7.0138393609e-001	 8.3613951405e-001
 3.1153366433e+000	 7.3121651968e-001	 8.8485141424e-001
 3.1081799322e+000	 7.6106340663e-001	 9.0558408760e-001
 3.1007168783e+000	 7.9092024892e-001	 8.9632069509e-001
 3.0929461430e+000	 8.2078264854e-001	 8.5503865603e-001
 3.0848664658e+000	 8.5064615913e-001	 7.7971468083e-001
 3.0764766662e+000	 8.8050628747e-001	 6.6832993218e-001
 3.1711598131e+000	 5.8683084403e-001	 1.5781227362e+000
 3.1654679917e+000	 6.1679607131e-001	 6.7665444061e-001
 3.1594753030e+000	 6.4679270971e-001	 4.9274498450e-001
 3.1531800297e+000	 6.7681659276e-001	 5.7255697038e-001
 3.1465805241e+000	 7.0686349809e-001	 6.5461919000e-001
 3.1396752108e+000	 7.3692914874e-001	 7.3691210370e-001
 3.1324625879e+000	 7.6700921450e-001	 8.1718039095e-001
 3.1249412290e+000	 7.9709931337e-001	 8.9218719457e-001
 3.1171097848e+000	 8.2719501299e-001	 8.4995018155e-001
 3.1089669851e+000	 8.5729183225e-001	 7.7047662174e-001
 3.1005116401e+000	 8.8738524285e-001	 6.5162935380e-001
 3.1957424473e+000	 5.9137992034e-001	 1.4936441781e+000
 3.1900065032e+000	 6.2157743620e-001	 4.7894862753e-001
 3.1839673596e+000	 6.5180660668e-001	 3.9629688511e-001
 3.1776232857e+000	 6.8206323302e-001	 4.3404874035e-001
 3.1709726212e+000	 7.1234306010e-001	 4.7443036772e-001
 3.1640137784e+000	 7.4264177780e-001	 5.1538971888e-001
 3.1567452436e+000	 7.7295502237e-001	 5.5463361400e-001
 3.1491655796e+000	 8.0327837781e-001	 5.8962328747e-001
 3.1412734265e+000	 8.3360737744e-001	 6.1757034012e-001
 3.1330675043e+000	 8.6393750537e-001	 6.3543312109e-001
 3.1245466141e+000	 8.9426419823e-001	 6.3242576849e-001
 2.8841968746e+000	 8.2547464451e-001	 5.8433378602e-001
 2.8760396675e+000	 8.5346108929e-001	 6.1825264962e-001
 2.8675897383e+000	 8.8143581311e-001	 6.4561548727e-001
 2.8588462143e+000	 9.0939448149e-001	 6.6553542251e-001
 2.8498083036e+000	 9.3733272262e-001	 6.7713126352e-001
 2.8404752965e+000	 9.6524612913e-001	 6.7953112660e-001
 2.8308465672e+000	 9.9313025989e-001	 6.7187611145e-001
 2.8209215744e+000	 1.0209806419e+000	 6.5332401849e-001
 2.8106998632e+000	 1.0487927723e+000	 6.2305309863e-001
 2.8001810658e+000	 1.0765621202e+000	 5.8026582500e-001
 2.7893649032e+000	 1.1042841287e+000	 5.2419267633e-001
 2.9082318485e+000	 8.3235359987e-001	 6.2595189838e-001
 2.9000066647e+000	 8.6057326503e-001	 6.4992000193e-001
 2.8914863195e+000	 8.8878111155e-001	 6.6793454901e-001
 2.8826699328e+000	 9.1697276883e-001	 6.7900445911e-001
 2.8735567061e+000	 9.4514382864e-001	 6.8214295971e-001
 2.8641459240e+000	 9.7328984687e-001	 6.7637136475e-001
 2.8544369552e+000	 1.0014063454e+000	 6.6072290899e-001
 2.8444292542e+000	 1.0294888139e+000	 6.3424662857e-001
 2.8341223620e+000	 1.0575327121e+000	 5.9601127754e-001
 2.8235159081e+000	 1.0855334712e+000	 5.4510926979e-001
 2.8126096107e+000	 1.1134864964e+000	 4.8066063557e-001
 2.9322668225e+000	 8.3923255524e-001	 6.5653573777e-001
 2.9239736620e+000	 8.6768544077e-001	 6.7035764702e-001
 2.9153829006e+000	 8.9612640999e-001	 6.7877756600e-001
 2.9064936512e+000	 9.2455105618e-001	 6.8069879013e-001
 2.8973051086e+000	 9.5295493466e-001	 6.7502757878e-001
 2.8878165515e+000	 9.8133356461e-001	 6.6067709173e-001
 2.8780273433e+000	 1.0096824309e+000	 6.3657138577e-001
 2.8679369340e+000	 1.0379969859e+000	 6.0164946155e-001
 2.8575448609e+000	 1.0662726518e+000	 5.5486934992e-001
 2.8468507503e+000	 1.0945048222e+000	 4.9521222720e-001
 2.8358543183e+000	 1.1226888642e+000	 4.2168654781e-001
 2.9563017964e+000	 8.4611151061e-001	 6.7716004563e-001
 2.9479406592e+000	 8.7479761651e-001	 6.8071029472e-001
 2.9392794818e+000	 9.0347170843e-001	 6.7935954245e-001
 2.9303173697e+000	 9.3212934352e-001	 6.7190400226e-001
 2.9210535112e+000	 9.6076604068e-001	 6.5714153963e-001
 2.9114871789e+000	 9.8937728235e-001	 6.3387576961e-001
 2.9016177314e+000	 1.0179585164e+000	 6.0092021887e-001
 2.8914446137e+000	 1.0465051580e+000	 5.5710254179e-001
 2.8809673597e+000	 1.0750125916e+000	 5.0126877995e-001
 2.8701855925e+000	 1.1034761732e+000	 4.3228765363e-001
 2.8590990258e+000	 1.1318912319e+000	 3.4905487389e-001
 2.9803367704e+000	 8.5299046598e-001	 6.8889698819e-001
 2.9719076564e+000	 8.8190979226e-001	 6.8211884965e-001
 2.9631760629e+000	 9.1081700687e-001	 6.7089042552e-001
 2.9541410881e+000	 9.3970763087e-001	 6.5389935186e-001
 2.9448019137e+000	 9.6857714670e-001	 6.2983363654e-001
 2.9351578064e+000	 9.9742100009e-001	 5.9738592102e-001
 2.9252081194e+000	 1.0262346019e+000	 5.5525781087e-001
 2.9149522935e+000	 1.0550133300e+000	 5.0216426448e-001
 2.9043898586e+000	 1.0837525314e+000	 4.3683802869e-001
 2.8935204347e+000	 1.1124475242e+000	 3.5803410977e-001
 2.8823437333e+000	 1.1410935996e+000	 2.6453426798e-001
 3.0043717443e+000	 8.5986942135e-001	 6.9281625953e-001
 2.9958746536e+000	 8.8902196800e-001	 6.7572056340e-001
 2.9870726441e+000	 9.1816230531e-001	 6.5457530755e-001
 2.9779648066e+000	 9.4728591821e-001	 6.2795801816e-001
 2.9685503162e+000	 9.7638825273e-001	 5.9444534420e-001
 2.9588284339e+000	 1.0054647178e+000	 5.5261748666e-001
 2.9487985075e+000	 1.0345106874e+000	 5.0106270086e-001
 2.9384599733e+000	 1.0635215020e+000	 4.3838186081e-001
 2.9278123575e+000	 1.0924924711e+000	 3.6319307424e-001
 2.9168552769e+000	 1.1214188752e+000	 2.7413633635e-001
 2.9055884408e+000	 1.1502959674e+000	 1.6987820990e-001
 3.0284067183e+000	 8.6674837673e-001	 6.8998517963e-001
 3.0198416509e+000	 8.9613414375e-001	 6.6264917951e-001
 3.0109692252e+000	 9.2550760376e-001	 6.3161461878e-001
 3.0017885250e+000	 9.5486420556e-001	 5.9534734443e-001
 2.9922987187e+000	 9.8419935875e-001	 5.5231110810e-001
 2.9824990614e+000	 1.0135084356e+000	 5.0097216593e-001
 2.9723888955e+000	 1.0427867729e+000	 4.3980395585e-001
 2.9619676531e+000	 1.0720296740e+000	 3.6729184094e-001
 2.9512348563e+000	 1.1012324109e+000	 2.8193790708e-001
 2.9401901191e+000	 1.1303902262e+000	 1.8226580259e-001
 2.9288331484e+000	 1.1594983351e+000	 6.6825607243e-002
 3.0524416922e+000	 8.7362733210e-001	 6.8146878789e-001
 3.0438086481e+000	 9.0324631949e-001	 6.4403507157e-001
 3.0348658064e+000	 9.3285290220e-001	 6.0320431082e-001
 3.0256122435e+000	 9.6244249291e-001	 5.5732906774e-001
 3.0160471213e+000	 9.9201046477e-001	 5.0475862134e-001
 3.0061696888e+000	 1.0215521533e+000	 4.4384374134e-001
 2.9959792836e+000	 1.0510628584e+000	 3.7294154368e-001
 2.9854753329e+000	 1.0805378460e+000	 2.9042041617e-001
 2.9746573552e+000	 1.1099723507e+000	 1.9466500201e-001
 2.9635249613e+000	 1.1393615772e+000	 8.4081228694e-002
 2.9520778559e+000	 1.1687007029e+000	-4.2898630907e-002
 3.0764766662e+000	 8.8050628747e-001	 6.6832993218e-001
 3.0677756453e+000	 9.1035849524e-001	 6.2100537487e-001
 3.0587623875e+000	 9.4019820065e-001	 5.7053603166e-001
 3.0494359619e+000	 9.7002078026e-001	 5.1515953794e-001
 3.0397955238e+000	 9.9982157080e-001	 4.5310908835e-001
 3.0298403163e+000	 1.0295958711e+000	 3.8261838778e-001
 3.0195696717e+000	 1.0593389439e+000	 3.0192668845e-001
 3.0089830127e+000	 1.0890460181e+000	 2.0928390114e-001
 2.9980798540e+000	 1.1187122905e+000	 1.0295576799e-001
 2.9868598036e+000	 1.1483329282e+000	-1.8770916149e-002
 2.9753225634e+000	 1.1779030706e+000	-1.5758304716e-001
 3.1005116401e+000	 8.8738524285e-001	 6.5162935380e-001
 3.0917426426e+000	 9.1747067099e-001	 5.9468411191e-001
 3.0826589687e+000	 9.4754349910e-001	 5.3479729243e-001
 3.0732596804e+000	 9.7759906761e-001	 4.7008992648e-001
 3.0635439263e+000	 1.0076326768e+000	 3.9867747641e-001
 3.0535109438e+000	 1.0376395888e+000	 3.1867496738e-001
 3.0431600597e+000	 1.0676150294e+000	 2.2820220942e-001
 3.0324906925e+000	 1.0975541901e+000	 1.2538909752e-001
 3.0215023529e+000	 1.1274522302e+000	 8.3809770650e-003
 3.0101946458e+000	 1.1573042792e+000	-1.2465593891e-001
 2.9985672709e+000	 1.1871054383e+000	-2.7552911444e-001
 3.1245466141e+000	 8.9426419823e-001	 6.3242576849e-001
 3.1157096398e+000	 9.2458284674e-001	 5.6619231211e-001
 3.1065555498e+000	 9.5488879754e-001	 4.9717162656e-001
 3.0970833988e+000	 9.8517735496e-001	 4.2336642558e-001
 3.0872923289e+000	 1.0154437829e+000	 3.4277275551e-001
 3.0771815712e+000	 1.0456833066e+000	 2.5338531079e-001
 3.0667504478e+000	 1.0758911149e+000	 1.5320284429e-001
 3.0559983723e+000	 1.1060623621e+000	 4.0233659809e-002
 3.0449248518e+000	 1.1361921700e+000	-8.7498826550e-002
 3.0335294880e+000	 1.1662756302e+000	-2.3195046980e-001
 3.0218119785e+000	 1.1963078061e+000	-3.9505073865e-001
 2.7893649032e+000	 1.1042841287e+000	 5.2419267633e-001
 2.7782511856e+000	 1.1319542172e+000	 4.9849015455e-001
 2.7668398140e+000	 1.1595677832e+000	 4.3136824935e-001
 2.7551307808e+000	 1.1871202048e+000	 3.2217790806e-001
 2.7431241712e+000	 1.2146068424e+000	 1.7033961080e-001
 2.7308201633e+000	 1.2420230416e+000	-2.4652643424e-002
 2.7182190297e+000	 1.2693641349e+000	-6.0462063741e-002
 2.7053211376e+000	 1.2966254442e+000	-3.2358772934e-002
 2.6921269500e+000	 1.3238022833e+000	-1.9367872180e-002
 2.6786370258e+000	 1.3508899601e+000	-2.1176353508e-002
 2.6648520205e+000	 1.3778837792e+000	-3.7431654589e-002
 2.8126096107e+000	 1.1134864964e+000	 4.8066063557e-001
 2.8014032788e+000	 1.1413871690e+000	 4.5091944989e-001
 2.7898968124e+000	 1.1692308481e+000	 3.7673043003e-001
 2.7780902040e+000	 1.1970128732e+000	 2.5745543076e-001
 2.7659835393e+000	 1.2247285661e+000	 9.2530078283e-002
 2.7535769980e+000	 1.2523732336e+000	-9.4594103745e-002
 2.7408708549e+000	 1.2799421693e+000	-5.7933229987e-002
 2.7278654804e+000	 1.3074306562e+000	-3.8659256932e-002
 2.7145613413e+000	 1.3348339690e+000	-3.6400030475e-002
 2.7009590010e+000	 1.3621473764e+000	-5.0739583816e-002
 2.6870591207e+000	 1.3893661440e+000	-8.1219405189e-002
 2.8358543183e+000	 1.1226888642e+000	 4.2168654781e-001
 2.8245553720e+000	 1.1508201208e+000	 3.9080001971e-001
 2.8129538109e+000	 1.1788939129e+000	 3.1242394133e-001
 2.8010496272e+000	 1.2069055415e+000	 1.8592873576e-001
 2.7888429074e+000	 1.2348502898e+000	 1.0762856320e-002
 2.7763338327e+000	 1.2627234256e+000	-8.4040637382e-002
 2.7635226802e+000	 1.2905202038e+000	-5.2625933946e-002
 2.7504098233e+000	 1.3182358682e+000	-4.0587437834e-002
 2.7369957325e+000	 1.3458656546e+000	-4.7453010329e-002
 2.7232809762e+000	 1.3734047928e+000	-7.2703602239e-002
 2.7092662209e+000	 1.4008485088e+000	-1.1577462875e-001
 2.8590990258e+000	 1.1318912319e+000	 3.4905487389e-001
 2.8477074652e+000	 1.1602530726e+000	 3.1989860256e-001
 2.8360108093e+000	 1.1885569778e+000	 2.4019651103e-001
 2.8240090504e+000	 1.2167982099e+000	 1.0932524464e-001
 2.8117022754e+000	 1.2449720135e+000	-7.3256241092e-002
 2.7990906674e+000	 1.2730736177e+000	-7.2292167546e-002
 2.7861745054e+000	 1.3010982382e+000	-4.4601004752e-002
 2.7729541661e+000	 1.3290410803e+000	-3.8263112217e-002
 2.7594301238e+000	 1.3568973403e+000	-5.2706213716e-002
 2.7456029514e+000	 1.3846622091e+000	-8.7308023230e-002
 2.7314733210e+000	 1.4123308736e+000	-1.4139772772e-001
 2.8823437333e+000	 1.1410935996e+000	 2.6453426798e-001
 2.8708595585e+000	 1.1696860244e+000	 2.3996757914e-001
 2.8590678078e+000	 1.1982200427e+000	 1.6178298001e-001
 2.8469684735e+000	 1.2266908783e+000	 2.9360984679e-002
 2.8345616435e+000	 1.2550937372e+000	-1.0872983304e-001
 2.8218475021e+000	 1.2834238097e+000	-5.9359570500e-002
 2.8088263307e+000	 1.3116762727e+000	-3.3926063869e-002
 2.7954985089e+000	 1.3398462923e+000	-3.1811295547e-002
 2.7818645150e+000	 1.3679290260e+000	-5.2342669365e-002
 2.7679249266e+000	 1.3959196254e+000	-9.4794477796e-002
 2.7536804212e+000	 1.4238132385e+000	-1.5838949350e-001
 2.9055884408e+000	 1.1502959674e+000	 1.6987820990e-001
 2.8940116517e+000	 1.1791189762e+000	 1.5274554659e-001
 2.8821248062e+000	 1.2078831075e+000	 7.8905817732e-002
 2.8699278967e+000	 1.2365835466e+000	-5.2258955409e-002
 2.8574210116e+000	 1.2652154609e+000	-9.5836799597e-002
 2.8446043368e+000	 1.2937740017e+000	-4.5261735100e-002
 2.8314781559e+000	 1.3222543071e+000	-2.0675253393e-002
 2.8180428517e+000	 1.3506515043e+000	-2.1362013421e-002
 2.8042989063e+000	 1.3789607117e+000	-4.6548887680e-002
 2.7902469018e+000	 1.4071770418e+000	-9.5406532841e-002
 2.7758875214e+000	 1.4352956033e+000	-1.6705109090e-001
 2.9288331484e+000	 1.1594983351e+000	 6.6825607243e-002
 2.9171637449e+000	 1.1885519280e+000	 5.9957865462e-002
 2.9051818047e+000	 1.2175461724e+000	-6.7243868759e-003
 2.8928873199e+000	 1.2464762150e+000	-1.3383999138e-001
 2.8802803797e+000	 1.2753371846e+000	-8.3151805186e-002
 2.8673611715e+000	 1.3041241937e+000	-3.0025244829e-002
 2.8541299812e+000	 1.3328323416e+000	-4.9289772990e-003
 2.8405871945e+000	 1.3614567164e+000	-7.0501027513e-003
 2.8267332975e+000	 1.3899923974e+000	-3.5514722588e-002
 2.8125688771e+000	 1.4184344581e+000	-8.9389614337e-002
 2.7980946215e+000	 1.4467779681e+000	-1.6768404332e-001
 2.9520778559e+000	 1.1687007029e+000	-4.2898630907e-002
 2.9403158381e+000	 1.1979848799e+000	-3.6682819138e-002
 2.9282388031e+000	 1.2272092372e+000	-9.3408457637e-002
 2.9158467430e+000	 1.2563688834e+000	-1.5853731115e-001
 2.9031397478e+000	 1.2854589082e+000	-7.0657003334e-002
 2.8901180061e+000	 1.3144743857e+000	-1.3684074863e-002
 2.8767818064e+000	 1.3434103761e+000	 1.3226345090e-002
 2.8631315373e+000	 1.3722619284e+000	 1.0984977653e-002
 2.8491676888e+000	 1.4010240831e+000	-1.9433239895e-002
 2.8348908523e+000	 1.4296918744e+000	-7.6990934139e-002
 2.8203017217e+000	 1.4582603330e+000	-1.6059021862e-001
 2.9753225634e+000	 1.1779030706e+000	-1.5758304716e-001
 2.9634679313e+000	 1.2074178317e+000	-1.3547608087e-001
 2.9512958016e+000	 1.2368723021e+000	-1.7945818534e-001
 2.9388061662e+000	 1.2662615518e+000	-1.5343210283e-001
 2.9259991159e+000	 1.2955806319e+000	-5.8342956133e-002
 2.9128748408e+000	 1.3248245777e+000	 3.7206966706e-003
 2.8994336316e+000	 1.3539884105e+000	 3.3698514079e-002
 2.8856758801e+000	 1.3830671404e+000	 3.2599327632e-002
 2.8716020800e+000	 1.4120557688e+000	 1.4994081714e-003
 2.8572128275e+000	 1.4409492908e+000	-5.8459420222e-002
 2.8425088219e+000	 1.4697426978e+000	-1.4607181567e-001
 2.9985672709e+000	 1.1871054383e+000	-2.7552911444e-001
 2.9866200245e+000	 1.2168507835e+000	-2.3473323856e-001
 2.9743528000e+000	 1.2465353670e+000	-2.6319590264e-001
 2.9617655894e+000	 1.2761542201e+000	-1.4969339756e-001
 2.9488584840e+000	 1.3057023556e+000	-4.6208308340e-002
 2.9356316755e+000	 1.3351747697e+000	 2.2141163999e-002
 2.9220854569e+000	 1.3645664450e+000	 5.6389773641e-002
 2.9082202229e+000	 1.3938723525e+000	 5.7644777819e-002
 2.8940364712e+000	 1.4230874545e+000	 2.7084102594e-002
 2.8795348027e+000	 1.4522067071e+000	-3.4045650162e-002
 2.8647159220e+000	 1.4812250626e+000	-1.2443135152e-001
 3.0218119785e+000	 1.1963078061e+000	-3.9505073865e-001
 3.0097721177e+000	 1.2262837353e+000	-3.3277690446e-001
 2.9974097985e+000	 1.2561984318e+000	-2.9859175702e-001
 2.9847250126e+000	 1.2860468885e+000	-1.4728015618e-001
 2.9717178521e+000	 1.3158240793e+000	-3.4259476502e-002
 2.9583885102e+000	 1.3455249618e+000	 4.1522856307e-002
 2.9447372821e+000	 1.3751444794e+000	 8.1197025132e-002
 2.9307645658e+000	 1.4046775645e+000	 8.5969053842e-002
 2.9164708625e+000	 1.4341191402e+000	 5.7118871672e-002
 2.9018567779e+000	 1.4634641235e+000	-4.0017876959e-003
 2.8869230222e+000	 1.4927074274e+000	-9.5971649176e-002
 2.6648520205e+000	 1.3778837792e+000	-3.7431654589e-002
 2.6507726869e+000	 1.4047790439e+000	-1.4741137333e-001
 2.6363998752e+000	 1.4315710593e+000	-2.5000781826e-001
 2.6217345334e+000	 1.4582551343e+000	-3.4332799973e-001
 2.6067777073e+000	 1.4848265841e+000	-4.2545113352e-001
 2.5915305413e+000	 1.5112807329e+000	-4.9443180765e-001
 2.5759942776e+000	 1.5376129167e+000	-5.4830323741e-001
 2.5601702572e+000	 1.5638184851e+000	-5.8508060226e-001
 2.5440599187e+000	 1.5898928045e+000	-6.0276445744e-001
 2.5276647993e+000	 1.6158312605e+000	-5.9934421311e-001
 2.5109865337e+000	 1.6416292602e+000	-5.7280167359e-001
 2.6870591207e+000	 1.3893661440e+000	-8.1219405189e-002
 2.6728624593e+000	 1.4164855360e+000	-1.7256191729e-001
 2.6583698742e+000	 1.4435008182e+000	-2.5742195742e-001
 2.6435823211e+000	 1.4704072604e+000	-3.3393542656e-001
 2.6285008549e+000	 1.4972001389e+000	-4.0020970072e-001
 2.6131266291e+000	 1.5238747391e+000	-4.5432679996e-001
 2.5974608966e+000	 1.5504263577e+000	-4.9434664713e-001
 2.5815050093e+000	 1.5768503058e+000	-5.1831040979e-001
 2.5652604181e+000	 1.6031419112e+000	-5.2424391833e-001
 2.5487286726e+000	 1.6292965210e+000	-5.1016115283e-001
 2.5319114214e+000	 1.6553095040e+000	-4.7406779123e-001
 2.7092662209e+000	 1.4008485088e+000	-1.1577462875e-001
 2.6949522317e+000	 1.4281920280e+000	-1.9081509793e-001
 2.6803398731e+000	 1.4554305770e+000	-2.6027565639e-001
 2.6654301089e+000	 1.4825593865e+000	-3.2231918074e-001
 2.6502240024e+000	 1.5095736938e+000	-3.7507927464e-001
 2.6347227169e+000	 1.5364687452e+000	-4.1666344238e-001
 2.6189275156e+000	 1.5632397986e+000	-4.4515635366e-001
 2.6028397614e+000	 1.5898821265e+000	-4.5862319301e-001
 2.5864609174e+000	 1.6163910179e+000	-4.5511308679e-001
 2.5697925460e+000	 1.6427617815e+000	-4.3266260026e-001
 2.5528363092e+000	 1.6689897478e+000	-3.8929929723e-001
 2.7314733210e+000	 1.4123308736e+000	-1.4139772772e-001
 2.7170420041e+000	 1.4398985200e+000	-2.0243552986e-001
 2.7023098721e+000	 1.4673603358e+000	-2.5879787964e-001
 2.6872778967e+000	 1.4947115126e+000	-3.0867272459e-001
 2.6719471500e+000	 1.5219472487e+000	-3.5021797379e-001
 2.6563188048e+000	 1.5490627513e+000	-3.8156467818e-001
 2.6403941346e+000	 1.5760532396e+000	-4.0082030382e-001
 2.6241745136e+000	 1.6029139472e+000	-4.0607209117e-001
 2.6076614167e+000	 1.6296401246e+000	-3.9539049341e-001
 2.5908564193e+000	 1.6562270420e+000	-3.6683268622e-001
 2.5737611970e+000	 1.6826699917e+000	-3.1844614146e-001
 2.7536804212e+000	 1.4238132385e+000	-1.5838949350e-001
 2.7391317765e+000	 1.4516050121e+000	-2.0768970524e-001
 2.7242798711e+000	 1.4792900947e+000	-2.5322095368e-001
 2.7091256845e+000	 1.5068636388e+000	-2.9319436230e-001
 2.6936702975e+000	 1.5343208035e+000	-3.2579023291e-001
 2.6779148926e+000	 1.5616567574e+000	-3.4916123510e-001
 2.6618607536e+000	 1.5888666806e+000	-3.6143569024e-001
 2.6455092657e+000	 1.6159457679e+000	-3.6072094309e-001
 2.6288619160e+000	 1.6428892313e+000	-3.4510681382e-001
 2.6119202926e+000	 1.6696923025e+000	-3.1266912307e-001
 2.5946860848e+000	 1.6963502355e+000	-2.6147328204e-001
 2.7758875214e+000	 1.4352956033e+000	-1.6705109090e-001
 2.7612215489e+000	 1.4633115041e+000	-2.0684591862e-001
 2.7462498700e+000	 1.4912198535e+000	-2.4378043259e-001
 2.7309734722e+000	 1.5190157649e+000	-2.7608704623e-001
 2.7153934451e+000	 1.5466943584e+000	-3.0196655033e-001
 2.6995109805e+000	 1.5742507635e+000	-3.1959131395e-001
 2.6833273725e+000	 1.6016801216e+000	-3.2710858153e-001
 2.6668440179e+000	 1.6289775887e+000	-3.2264385917e-001
 2.6500624153e+000	 1.6561383380e+000	-3.0430438292e-001
 2.6329841659e+000	 1.6831575630e+000	-2.7018266142e-001
 2.6156109726e+000	 1.7100304793e+000	-2.1836008508e-001
 2.7980946215e+000	 1.4467779681e+000	-1.6768404332e-001
 2.7833113213e+000	 1.4750179961e+000	-2.0017419544e-001
 2.7682198690e+000	 1.5031496123e+000	-2.3071496994e-001
 2.7528212600e+000	 1.5311678910e+000	-2.5755819249e-001
 2.7371165927e+000	 1.5590679133e+000	-2.7892324734e-001
 2.7211070683e+000	 1.5868447696e+000	-2.9300029205e-001
 2.7047939915e+000	 1.6144935625e+000	-2.9795357002e-001
 2.6881787700e+000	 1.6420094094e+000	-2.9192481382e-001
 2.6712629147e+000	 1.6693874448e+000	-2.7303673218e-001
 2.6540480393e+000	 1.6966228235e+000	-2.3939657277e-001
 2.6365358603e+000	 1.7237107232e+000	-1.8909975284e-001
 2.8203017217e+000	 1.4582603330e+000	-1.6059021862e-001
 2.8054010937e+000	 1.4867244882e+000	-1.8794622388e-001
 2.7901898679e+000	 1.5150793711e+000	-2.1426619677e-001
 2.7746690478e+000	 1.5433200171e+000	-2.3781950516e-001
 2.7588397402e+000	 1.5714414681e+000	-2.5684223893e-001
 2.7427031562e+000	 1.5994387757e+000	-2.6954044073e-001
 2.7262606105e+000	 1.6273070035e+000	-2.7409343623e-001
 2.7095135222e+000	 1.6550412301e+000	-2.6865725709e-001
 2.6924634140e+000	 1.6826365515e+000	-2.5136814887e-001
 2.6751119126e+000	 1.7100880840e+000	-2.2034615652e-001
 2.6574607481e+000	 1.7373909670e+000	-1.7369877908e-001
 2.8425088219e+000	 1.4697426978e+000	-1.4607181567e-001
 2.8274908661e+000	 1.4984309802e+000	-1.7043528992e-001
 2.8121598669e+000	 1.5270091300e+000	-1.9467860525e-001
 2.7965168356e+000	 1.5554721432e+000	-2.1708680883e-001
 2.7805628878e+000	 1.5838150230e+000	-2.3591081533e-001
 2.7642992440e+000	 1.6120327818e+000	-2.4937065597e-001
 2.7477272295e+000	 1.6401204445e+000	-2.5565882903e-001
 2.7308482743e+000	 1.6680730508e+000	-2.5294374453e-001
 2.7136639133e+000	 1.6958856582e+000	-2.3937325585e-001
 2.6961757859e+000	 1.7235533445e+000	-2.1307827018e-001
 2.6783856359e+000	 1.7510712108e+000	-1.7217642981e-001
 2.8647159220e+000	 1.4812250626e+000	-1.2443135152e-001
 2.8495806385e+000	 1.5101374722e+000	-1.4791621539e-001
 2.8341298659e+000	 1.5389388888e+000	-1.7219943784e-001
 2.8183646234e+000	 1.5676242694e+000	-1.9557988889e-001
 2.8022860354e+000	 1.5961885779e+000	-2.1632143361e-001
 2.7858953319e+000	 1.6246267879e+000	-2.3265620171e-001
 2.7691938485e+000	 1.6529338855e+000	-2.4278796058e-001
 2.7521830265e+000	 1.6811048715e+000	-2.4489558427e-001
 2.7348644126e+000	 1.7091347649e+000	-2.3713661103e-001
 2.7172396593e+000	 1.7370186050e+000	-2.1765088133e-001
 2.6993105237e+000	 1.7647514547e+000	-1.8456424828e-001
 2.8869230222e+000	 1.4927074274e+000	-9.5971649176e-002
 2.8716704108e+000	 1.5218439643e+000	-1.2066529894e-001
 2.8560998648e+000	 1.5508686476e+000	-1.4707858144e-001
 2.8402124111e+000	 1.5797763955e+000	-1.7352233916e-001
 2.8240091829e+000	 1.6085621327e+000	-1.9827151898e-001
 2.8074914197e+000	 1.6372207940e+000	-2.1956846484e-001
 2.7906604674e+000	 1.6657473264e+000	-2.3562631553e-001
 2.7735177786e+000	 1.6941366922e+000	-2.4463250039e-001
 2.7560649120e+000	 1.7223838716e+000	-2.4475232520e-001
 2.7383035326e+000	 1.7504838655e+000	-2.3413264035e-001
 2.7202354115e+000	 1.7784316985e+000	-2.1090558272e-001
 2.5109865337e+000	 1.6416292602e+000	-5.7280167359e-001
 2.4940268541e+000	 1.6672822350e+000	-6.4349228102e-001
 2.4767875899e+000	 1.6927856434e+000	-6.7991633059e-001
 2.4592706672e+000	 1.7181349730e+000	-7.1007704427e-001
 2.4414781082e+000	 1.7433257434e+000	-7.3539276157e-001
 2.4234120303e+000	 1.7683535086e+000	-7.5731095001e-001
 2.4050746461e+000	 1.7932138597e+000	-7.7730543151e-001
 2.3864682618e+000	 1.8179024274e+000	-7.9687352616e-001
 2.3675952769e+000	 1.8424148840e+000	-8.1753311965e-001
 2.3484581830e+000	 1.8667469467e+000	-8.4081966119e-001
 2.3290595627e+000	 1.8908943792e+000	-8.0818372565e-001
 2.5319114214e+000	 1.6553095040e+000	-4.7406779123e-001
 2.5148104112e+000	 1.6811762537e+000	-5.7421269823e-001
 2.4974274865e+000	 1.7068921905e+000	-6.6480522641e-001
 2.4797645894e+000	 1.7324527644e+000	-7.0601132863e-001
 2.4618237591e+000	 1.7578534579e+000	-7.4051478785e-001
 2.4436071306e+000	 1.7830897878e+000	-7.6976474931e-001
 2.4251169348e+000	 1.8081573086e+000	-7.9523893533e-001
 2.4063554973e+000	 1.8330516143e+000	-8.1844076060e-001
 2.3873252375e+000	 1.8577683414e+000	-8.4089636750e-001
 2.3680286678e+000	 1.8823031712e+000	-8.3552538033e-001
 2.3484683924e+000	 1.9066518324e+000	-7.7135949646e-001
 2.5528363092e+000	 1.6689897478e+000	-3.8929929723e-001
 2.5355939683e+000	 1.6950702723e+000	-5.0256625100e-001
 2.5180673831e+000	 1.7209987375e+000	-6.1254637562e-001
 2.5002585117e+000	 1.7467705559e+000	-7.1801094673e-001
 2.4821694100e+000	 1.7723811724e+000	-7.6130650998e-001
 2.4638022308e+000	 1.7978260671e+000	-7.9669571772e-001
 2.4451592235e+000	 1.8231007574e+000	-8.2647235795e-001
 2.4262427328e+000	 1.8482008012e+000	-8.5214742264e-001
 2.4070551982e+000	 1.8731217988e+000	-8.7525679604e-001
 2.3875991527e+000	 1.8978593958e+000	-8.0874848787e-001
 2.3678772221e+000	 1.9224092855e+000	-7.4495644536e-001
 2.5737611970e+000	 1.6826699917e+000	-3.1844614146e-001
 2.5563775254e+000	 1.7089642909e+000	-4.4429665558e-001
 2.5387072796e+000	 1.7351052845e+000	-5.6559711597e-001
 2.5207524339e+000	 1.7610883473e+000	-6.8102824353e-001
 2.5025150609e+000	 1.7869088869e+000	-7.8926168014e-001
 2.4839973311e+000	 1.8125623463e+000	-8.3776649378e-001
 2.4652015122e+000	 1.8380442062e+000	-8.7068308376e-001
 2.4461299684e+000	 1.8633499881e+000	-8.9768491435e-001
 2.4267851588e+000	 1.8884752561e+000	-8.6602614120e-001
 2.4071696375e+000	 1.9134156203e+000	-7.9322105010e-001
 2.3872860518e+000	 1.9381667387e+000	-7.2908420610e-001
 2.5946860848e+000	 1.6963502355e+000	-2.6147328204e-001
 2.5771610825e+000	 1.7228583095e+000	-3.9940333826e-001
 2.5593471762e+000	 1.7492118315e+000	-5.3153819061e-001
 2.5412463561e+000	 1.7754061388e+000	-6.5646741651e-001
 2.5228607118e+000	 1.8014366015e+000	-7.7277250983e-001
 2.5041924313e+000	 1.8272986255e+000	-8.7903001998e-001
 2.4852438010e+000	 1.8529876551e+000	-9.2755888415e-001
 2.4660172039e+000	 1.8784991749e+000	-9.4005638359e-001
 2.4465151195e+000	 1.9038287135e+000	-8.6120340215e-001
 2.4267401224e+000	 1.9289718449e+000	-7.8904179548e-001
 2.4066948815e+000	 1.9539241918e+000	-7.2386011848e-001
 2.6156109726e+000	 1.7100304793e+000	-2.1836008508e-001
 2.5979446396e+000	 1.7367523282e+000	-3.6789934883e-001
 2.5799870728e+000	 1.7633183786e+000	-5.1041569747e-001
 2.5617402783e+000	 1.7897239302e+000	-6.4440695150e-001
 2.5432063627e+000	 1.8159643160e+000	-7.6836383341e-001
 2.5243875316e+000	 1.8420349048e+000	-8.8077325139e-001
 2.5052860897e+000	 1.8679311039e+000	-9.8012160832e-001
 2.4859044394e+000	 1.8936483618e+000	-9.4578603996e-001
 2.4662450801e+000	 1.9191821709e+000	-8.6853063873e-001
 2.4463106072e+000	 1.9445280695e+000	-7.9631746320e-001
 2.4261037112e+000	 1.9696816450e+000	-7.2940892001e-001
 2.6365358603e+000	 1.7237107232e+000	-1.8909975284e-001
 2.6187281968e+000	 1.7506463468e+000	-3.4981081994e-001
 2.6006269694e+000	 1.7774249256e+000	-5.0228808081e-001
 2.5822342006e+000	 1.8040417216e+000	-6.4493696129e-001
 2.5635520136e+000	 1.8304920305e+000	-7.7615676518e-001
 2.5445826318e+000	 1.8567711840e+000	-8.9434410383e-001
 2.5253283784e+000	 1.8828745527e+000	-9.6377804420e-001
 2.5057916749e+000	 1.9087975487e+000	-9.4710740167e-001
 2.4859750407e+000	 1.9345356282e+000	-8.8810406590e-001
 2.4658810921e+000	 1.9600842940e+000	-8.1516248534e-001
 2.4455125409e+000	 1.9854390982e+000	-7.4586245241e-001
 2.6574607481e+000	 1.7373909670e+000	-1.7369877908e-001
 2.6395117539e+000	 1.7645403654e+000	-3.4517645202e-001
 2.6212668660e+000	 1.7915314726e+000	-5.0722564511e-001
 2.6027281228e+000	 1.8183595131e+000	-6.5815872788e-001
 2.5838976645e+000	 1.8450197450e+000	-7.9628291445e-001
 2.5647777321e+000	 1.8715074632e+000	-9.1990384055e-001
 2.5453706671e+000	 1.8978180015e+000	-9.2967468338e-001
 2.5256789104e+000	 1.9239467356e+000	-9.1892274098e-001
 2.5057050014e+000	 1.9498890856e+000	-9.0380153917e-001
 2.4854515770e+000	 1.9756405186e+000	-8.4569868398e-001
 2.4649213705e+000	 2.0011965513e+000	-7.7335938192e-001
 2.6783856359e+000	 1.7510712108e+000	-1.7217642981e-001
 2.6602953110e+000	 1.7784343840e+000	-3.5404702237e-001
 2.6419067626e+000	 1.8056380196e+000	-5.2531009181e-001
 2.6232220450e+000	 1.8326773045e+000	-6.8418426612e-001
 2.6042433154e+000	 1.8595474596e+000	-8.2888397561e-001
 2.5849728324e+000	 1.8862437425e+000	-9.0785759141e-001
 2.5654129558e+000	 1.9127614504e+000	-9.0886643663e-001
 2.5455661459e+000	 1.9390959225e+000	-9.0332004294e-001
 2.5254349620e+000	 1.9652425429e+000	-8.9168549030e-001
 2.5050220618e+000	 1.9911967431e+000	-8.7446257165e-001
 2.4843302002e+000	 2.0169540045e+000	-8.1204493267e-001
 2.6993105237e+000	 1.7647514547e+000	-1.8456424828e-001
 2.6810788681e+000	 1.7923284027e+000	-3.7648491706e-001
 2.6625466591e+000	 1.8197445667e+000	-5.5663407754e-001
 2.6437159673e+000	 1.8469950960e+000	-7.2313590781e-001
 2.6245889663e+000	 1.8740751741e+000	-8.7411133723e-001
 2.6051679326e+000	 1.9009800217e+000	-8.9417433533e-001
 2.5854552446e+000	 1.9277048992e+000	-9.0138689300e-001
 2.5654533815e+000	 1.9542451094e+000	-9.0034838668e-001
 2.5451649227e+000	 1.9805960003e+000	-8.9151048668e-001
 2.5245925467e+000	 2.0067529677e+000	-8.7535989530e-001
 2.5037390299e+000	 2.0327114576e+000	-8.5241719833e-001
 2.7202354115e+000	 1.7784316985e+000	-2.1090558272e-001
 2.7018624252e+000	 1.8062224213e+000	-4.1256368440e-001
 2.6831865557e+000	 1.8338511137e+000	-6.0130079280e-001
 2.6642098895e+000	 1.8613128874e+000	-7.7514590480e-001
 2.6449346172e+000	 1.8886028886e+000	-8.7148366336e-001
 2.6253630329e+000	 1.9157163009e+000	-8.9455042326e-001
 2.6054975333e+000	 1.9426483480e+000	-9.0727781164e-001
 2.5853406170e+000	 1.9693942963e+000	-9.1006446954e-001
 2.5648948833e+000	 1.9959494577e+000	-9.0334744463e-001
 2.5441630315e+000	 2.0223091922e+000	-8.8760114711e-001
 2.5231478596e+000	 2.0484689108e+000	-8.6333620653e-001
 2.3290595627e+000	 1.8908943792e+000	-8.0818372565e-001
 2.3094020889e+000	 1.9148529948e+000	-8.8102573385e-001
 2.2894885232e+000	 1.9386186582e+000	-9.4945227636e-001
 2.2693217148e+000	 1.9621872884e+000	-1.0135938108e+000
 2.2489045992e+000	 1.9855548604e+000	-1.0736028170e+000
 2.2282401967e+000	 2.0087174082e+000	-1.1296533715e+000
 2.2073316110e+000	 2.0316710262e+000	-1.1819406620e+000
 2.1861820279e+000	 2.0544118722e+000	-1.2306804435e+000
 2.1647947132e+000	 2.0769361689e+000	-1.2761084374e+000
 2.1431730113e+000	 2.0992402062e+000	-1.3184796740e+000
 2.1213203436e+000	 2.1213203435e+000	-1.3580677819e+000
 2.3484683924e+000	 1.9066518324e+000	-7.7135949646e-001
 2.3286471064e+000	 1.9308101031e+000	-8.3834059036e-001
 2.3085675943e+000	 1.9547738137e+000	-9.0291464084e-001
 2.2882327291e+000	 1.9785388491e+000	-9.6516267583e-001
 2.2676454708e+000	 2.0021011509e+000	-1.0251863560e+000
 2.2468088650e+000	 2.0254567199e+000	-1.0831075924e+000
 2.2257260411e+000	 2.0486016181e+000	-1.1390681053e+000
 2.2044002115e+000	 2.0715319712e+000	-1.1932289258e+000
 2.1828346691e+000	 2.0942439703e+000	-1.2457698409e+000
 2.1610327864e+000	 2.1167338746e+000	-1.2968887841e+000
 2.1389980131e+000	 2.1389980131e+000	-1.3468011726e+000
 2.3678772221e+000	 1.9224092855e+000	-7.4495644536e-001
 2.3478921238e+000	 1.9467672113e+000	-8.0462792228e-001
 2.3276466653e+000	 1.9709289692e+000	-8.6385475550e-001
 2.3071437434e+000	 1.9948904098e+000	-9.2266940975e-001
 2.2863863425e+000	 2.0186474414e+000	-9.8112363521e-001
 2.2653775333e+000	 2.0421960316e+000	-1.0392881274e+000
 2.2441204712e+000	 2.0655322100e+000	-1.0972521294e+000
 2.2226183951e+000	 2.0886520701e+000	-1.1551229779e+000
 2.2008746251e+000	 2.1115517717e+000	-1.2130255937e+000
 2.1788925615e+000	 2.1342275430e+000	-1.2711019183e+000
 2.1566756826e+000	 2.1566756826e+000	-1.3295102983e+000
 2.3872860518e+000	 1.9381667387e+000	-7.2908420610e-001
 2.3671371412e+000	 1.9627243196e+000	-7.8003346530e-001
 2.3467257363e+000	 1.9870841247e+000	-8.3245510096e-001
 2.3260547577e+000	 2.0112419706e+000	-8.8633386611e-001
 2.3051272142e+000	 2.0351937319e+000	-9.4167249369e-001
 2.2839462016e+000	 2.0589353434e+000	-9.9849139786e-001
 2.2625149013e+000	 2.0824628019e+000	-1.0568283188e+000
 2.2408365786e+000	 2.1057721690e+000	-1.1167379121e+000
 2.2189145810e+000	 2.1288595731e+000	-1.1782912834e+000
 2.1967523366e+000	 2.1517212114e+000	-1.2415754703e+000
 2.1743533521e+000	 2.1743533521e+000	-1.3066928728e+000
 2.4066948815e+000	 1.9539241918e+000	-7.2386011848e-001
 2.3863821586e+000	 1.9786814279e+000	-7.6470947229e-001
 2.3658048074e+000	 2.0032392801e+000	-8.0890345900e-001
 2.3449657720e+000	 2.0275935313e+000	-8.5637995684e-001
 2.3238680858e+000	 2.0517400224e+000	-9.0709355989e-001
 2.3025148699e+000	 2.0756746551e+000	-9.6101532004e-001
 2.2809093314e+000	 2.0993933938e+000	-1.0181324333e+000
 2.2590547622e+000	 2.1228922680e+000	-1.0784478717e+000
 2.2369545370e+000	 2.1461673745e+000	-1.1419799609e+000
 2.2146121117e+000	 2.1692148798e+000	-1.2087619065e+000
 2.1920310217e+000	 2.1920310217e+000	-1.2788412689e+000
 2.4261037112e+000	 1.9696816450e+000	-7.2940892001e-001
 2.4056271760e+000	 1.9946385362e+000	-7.5881445269e-001
 2.3848838784e+000	 2.0193944356e+000	-7.9339270053e-001
 2.3638767863e+000	 2.0439450920e+000	-8.3303548984e-001
 2.3426089575e+000	 2.0682863129e+000	-8.7765013998e-001
 2.3210835382e+000	 2.0924139668e+000	-9.2715924503e-001
 2.2993037615e+000	 2.1163239857e+000	-9.8150040079e-001
 2.2772729458e+000	 2.1400123669e+000	-1.0406258779e+000
 2.2549944929e+000	 2.1634751759e+000	-1.1045022420e+000
 2.2324718868e+000	 2.1867085482e+000	-1.1731099228e+000
 2.2097086912e+000	 2.2097086912e+000	-1.2464427323e+000
 2.4455125409e+000	 1.9854390982e+000	-7.4586245241e-001
 2.4248721934e+000	 2.0105956445e+000	-7.6251292421e-001
 2.4039629494e+000	 2.0355495911e+000	-7.8612058360e-001
 2.3827878006e+000	 2.0602966528e+000	-8.1653201443e-001
 2.3613498291e+000	 2.0848326034e+000	-8.5360811165e-001
 2.3396522065e+000	 2.1091532786e+000	-8.9722390195e-001
 2.3176981916e+000	 2.1332545775e+000	-9.4726831044e-001
 2.2954911293e+000	 2.1571324658e+000	-1.0036438742e+000
 2.2730344489e+000	 2.1807829773e+000	-1.0662664040e+000
 2.2503316619e+000	 2.2042022166e+000	-1.1350645945e+000
 2.2273863607e+000	 2.2273863607e+000	-1.2099795853e+000
 2.4649213705e+000	 2.0011965513e+000	-7.7335938192e-001
 2.4441172108e+000	 2.0265527528e+000	-7.7597517626e-001
 2.4230420204e+000	 2.0517047466e+000	-7.8728956103e-001
 2.4016988149e+000	 2.0766482135e+000	-8.0710467402e-001
 2.3800907008e+000	 2.1013788939e+000	-8.3523582285e-001
 2.3582208748e+000	 2.1258925903e+000	-8.7151134366e-001
 2.3360926217e+000	 2.1501851694e+000	-9.1577240665e-001
 2.3137093129e+000	 2.1742525648e+000	-9.6787276926e-001
 2.2910744048e+000	 2.1980907787e+000	-1.0276784778e+000
 2.2681914370e+000	 2.2216958849e+000	-1.0950675186e+000
 2.2450640303e+000	 2.2450640303e+000	-1.1699294204e+000
 2.4843302002e+000	 2.0169540045e+000	-8.1204493267e-001
 2.4633622282e+000	 2.0425098611e+000	-7.9937704452e-001
 2.4421210915e+000	 2.0678599021e+000	-7.9710659699e-001
 2.4206098292e+000	 2.0929997742e+000	-8.0499206574e-001
 2.3988315725e+000	 2.1179251844e+000	-8.2280399527e-001
 2.3767895431e+000	 2.1426319020e+000	-8.5032489502e-001
 2.3544870518e+000	 2.1671157613e+000	-8.8734908282e-001
 2.3319274965e+000	 2.1913726637e+000	-9.3368247663e-001
 2.3091143607e+000	 2.2153985802e+000	-9.8914233534e-001
 2.2860512121e+000	 2.2391895533e+000	-1.0535569497e+000
 2.2627416998e+000	 2.2627416998e+000	-1.1267652849e+000
 2.5037390299e+000	 2.0327114576e+000	-8.5241719833e-001
 2.4826072456e+000	 2.0584669694e+000	-8.3289969594e-001
 2.4612001625e+000	 2.0840150576e+000	-8.1578299218e-001
 2.4395208435e+000	 2.1093513350e+000	-8.1043610654e-001
 2.4175724441e+000	 2.1344714749e+000	-8.1658563239e-001
 2.3953582114e+000	 2.1593712138e+000	-8.3396910367e-001
 2.3728814819e+000	 2.1840463532e+000	-8.6233487559e-001
 2.3501456800e+000	 2.2084927626e+000	-9.0144195390e-001
 2.3271543167e+000	 2.2327063816e+000	-9.5105977390e-001
 2.3039109872e+000	 2.2566832217e+000	-1.0109679300e+000
 2.2804193693e+000	 2.2804193693e+000	-1.0809558573e+000
 2.5231478596e+000	 2.0484689108e+000	-8.6333620653e-001
 2.5018522630e+000	 2.0744240777e+000	-8.7215358329e-001
 2.4802792335e+000	 2.1001702130e+000	-8.4353421700e-001
 2.4584318577e+000	 2.1257028957e+000	-8.2368190556e-001
 2.4363133158e+000	 2.1510177654e+000	-8.1685593165e-001
 2.4139268797e+000	 2.1761105255e+000	-8.2274969292e-001
 2.3912759120e+000	 2.2009769451e+000	-8.4106645934e-001
 2.3683638636e+000	 2.2256128616e+000	-8.7151923920e-001
 2.3451942726e+000	 2.2500141830e+000	-9.1383059533e-001
 2.3217707623e+000	 2.2741768901e+000	-9.6773241221e-001
 2.2980970388e+000	 2.2980970388e+000	-1.0329656154e+000
 2.1213203436e+000	 2.1213203435e+000	-1.3580677819e+000
 2.0992402062e+000	 2.1431730113e+000	-1.2851535166e+000
 2.0769361689e+000	 2.1647947132e+000	-1.2234764518e+000
 2.0544118722e+000	 2.1861820279e+000	-1.1728001558e+000
 2.0316710262e+000	 2.2073316110e+000	-1.1328922158e+000
 2.0087174082e+000	 2.2282401967e+000	-1.1035239181e+000
 1.9855548604e+000	 2.2489045992e+000	-1.0844699012e+000
 1.9621872884e+000	 2.2693217148e+000	-1.0755077832e+000
 1.9386186582e+000	 2.2894885232e+000	-1.0764177654e+000
 1.9148529948e+000	 2.3094020889e+000	-1.0869822142e+000
 1.8908943792e+000	 2.3290595627e+000	-1.1069852230e+000
 2.1389980131e+000	 2.1389980131e+000	-1.3468011726e+000
 2.1167338746e+000	 2.1610327864e+000	-1.2717447227e+000
 2.0942439703e+000	 2.1828346691e+000	-1.2054888677e+000
 2.0715319712e+000	 2.2044002115e+000	-1.1479392934e+000
 2.0486016181e+000	 2.2257260411e+000	-1.0990082530e+000
 2.0254567199e+000	 2.2468088650e+000	-1.0586140770e+000
 2.0021011509e+000	 2.2676454708e+000	-1.0266806505e+000
 1.9785388491e+000	 2.2882327291e+000	-1.0031368639e+000
 1.9547738137e+000	 2.3085675943e+000	-9.8791603504e-001
 1.9308101031e+000	 2.3286471064e+000	-9.8095530776e-001
 1.9066518324e+000	 2.3484683924e+000	-9.8219502824e-001
 2.1566756826e+000	 2.1566756826e+000	-1.3295102983e+000
 2.1342275430e+000	 2.1788925615e+000	-1.2555686064e+000
 2.1115517717e+000	 2.2008746251e+000	-1.1880199531e+000
 2.0886520701e+000	 2.2226183951e+000	-1.1269108647e+000
 2.0655322100e+000	 2.2441204712e+000	-1.0722969762e+000
 2.0421960316e+000	 2.2653775333e+000	-1.0242423696e+000
 2.0186474414e+000	 2.2863863425e+000	-9.8281887893e-001
 1.9948904098e+000	 2.3071437434e+000	-9.4810536268e-001
 1.9709289692e+000	 2.3276466653e+000	-9.2018694660e-001
 1.9467672113e+000	 2.3478921238e+000	-8.9915423962e-001
 1.9224092855e+000	 2.3678772221e+000	-8.8510252526e-001
 2.1743533521e+000	 2.1743533521e+000	-1.3066928728e+000
 2.1517212114e+000	 2.1967523366e+000	-1.2370397702e+000
 2.1288595731e+000	 2.2189145810e+000	-1.1714001013e+000
 2.1057721690e+000	 2.2408365786e+000	-1.1099599999e+000
 2.0824628019e+000	 2.2625149013e+000	-1.0529172419e+000
 2.0589353434e+000	 2.2839462016e+000	-1.0004804141e+000
 2.0351937319e+000	 2.3051272142e+000	-9.5286804650e-001
 2.0112419706e+000	 2.3260547577e+000	-9.1030770799e-001
 1.9870841247e+000	 2.3467257363e+000	-8.7303507040e-001
 1.9627243196e+000	 2.3671371412e+000	-8.4129294247e-001
 1.9381667387e+000	 2.3872860518e+000	-8.1533027728e-001
 2.1920310217e+000	 2.1920310217e+000	-1.2788412689e+000
 2.1692148798e+000	 2.2146121117e+000	-1.2165700706e+000
 2.1461673745e+000	 2.2369545370e+000	-1.1559595845e+000
 2.1228922680e+000	 2.2590547622e+000	-1.0973343610e+000
 2.0993933938e+000	 2.2809093314e+000	-1.0410331192e+000
 2.0756746551e+000	 2.3025148699e+000	-9.8740774755e-001
 2.0517400224e+000	 2.3238680858e+000	-9.3682226310e-001
 2.0275935313e+000	 2.3449657720e+000	-8.8965173243e-001
 2.0032392801e+000	 2.3658048074e+000	-8.4628115693e-001
 1.9786814279e+000	 2.3863821586e+000	-8.0710432579e-001
 1.9539241918e+000	 2.4066948815e+000	-7.7252264020e-001
 2.2097086912e+000	 2.2097086912e+000	-1.2464427323e+000
 2.1867085482e+000	 2.2324718868e+000	-1.1945687282e+000
 2.1634751759e+000	 2.2549944929e+000	-1.1420285587e+000
 2.1400123669e+000	 2.2772729458e+000	-1.0892840409e+000
 2.1163239857e+000	 2.2993037615e+000	-1.0368136815e+000
 2.0924139668e+000	 2.3210835382e+000	-9.8511150908e-001
 2.0682863129e+000	 2.3426089575e+000	-9.3468586246e-001
 2.0439450920e+000	 2.3638767863e+000	-8.8605813649e-001
 2.0193944356e+000	 2.3848838784e+000	-8.3976148965e-001
 1.9946385362e+000	 2.4056271760e+000	-7.9633951684e-001
 1.9696816450e+000	 2.4261037112e+000	-7.5634489086e-001
 2.2273863607e+000	 2.2273863607e+000	-1.2099795853e+000
 2.2042022166e+000	 2.2503316619e+000	-1.1714424322e+000
 2.1807829773e+000	 2.2730344489e+000	-1.1299370681e+000
 2.1571324658e+000	 2.2954911293e+000	-1.0860614670e+000
 2.1332545775e+000	 2.3176981916e+000	-1.0404328073e+000
 2.1091532786e+000	 2.3396522065e+000	-9.9368613828e-001
 2.0848326034e+000	 2.3613498291e+000	-9.4647299644e-001
 2.0602966528e+000	 2.3827878006e+000	-8.9945997787e-001
 2.0355495911e+000	 2.4039629494e+000	-8.5332726859e-001
 2.0105956445e+000	 2.4248721934e+000	-8.0876713769e-001
 1.9854390982e+000	 2.4455125409e+000	-7.6648239690e-001
 2.2450640303e+000	 2.2450640303e+000	-1.1699294204e+000
 2.2216958849e+000	 2.2681914370e+000	-1.1475954400e+000
 2.1980907787e+000	 2.2910744048e+000	-1.1200150498e+000
 2.1742525648e+000	 2.3137093129e+000	-1.0879213088e+000
 2.1501851694e+000	 2.3360926217e+000	-1.0520689917e+000
 2.1258925903e+000	 2.3582208748e+000	-1.0132330878e+000
 2.1013788939e+000	 2.3800907008e+000	-9.7220724849e-001
 2.0766482135e+000	 2.4016988149e+000	-9.2980218506e-001
 2.0517047466e+000	 2.4230420204e+000	-8.8684402309e-001
 2.0265527528e+000	 2.4441172108e+000	-8.4417261650e-001
 2.0011965513e+000	 2.4649213705e+000	-8.0263982574e-001
 2.2627416998e+000	 2.2627416998e+000	-1.1267652849e+000
 2.2391895533e+000	 2.2860512121e+000	-1.1234296724e+000
 2.2153985802e+000	 2.3091143607e+000	-1.1125923378e+000
 2.1913726637e+000	 2.3319274965e+000	-1.0951203911e+000
 2.1671157613e+000	 2.3544870518e+000	-1.0719051653e+000
 2.1426319020e+000	 2.3767895431e+000	-1.0438605494e+000
 2.1179251844e+000	 2.3988315725e+000	-1.0119212652e+000
 2.0929997742e+000	 2.4206098292e+000	-9.7704109357e-001
 2.0678599021e+000	 2.4421210915e+000	-9.4019105207e-001
 2.0425098611e+000	 2.4633622282e+000	-9.0235753100e-001
 2.0169540045e+000	 2.4843302002e+000	-8.6454039075e-001
 2.2804193693e+000	 2.2804193693e+000	-1.0809558573e+000
 2.2566832217e+000	 2.3039109872e+000	-1.0993448041e+000
 2.2327063816e+000	 2.3271543167e+000	-1.1079986668e+000
 2.2084927626e+000	 2.3501456800e+000	-1.1079176096e+000
 2.1840463532e+000	 2.3728814819e+000	-1.1001285232e+000
 2.1593712138e+000	 2.3953582114e+000	-1.0856831926e+000
 2.1344714749e+000	 2.4175724441e+000	-1.0656564052e+000
 2.1093513350e+000	 2.4395208435e+000	-1.0411440038e+000
 2.0840150576e+000	 2.4612001625e+000	-1.0132608903e+000
 2.0584669694e+000	 2.4826072456e+000	-9.8313898256e-001
 2.0327114576e+000	 2.5037390299e+000	-9.3591308666e-001
 2.2980970388e+000	 2.2980970388e+000	-1.0329656154e+000
 2.2741768901e+000	 2.3217707623e+000	-1.0757383499e+000
 2.2500141830e+000	 2.3451942726e+000	-1.1065636765e+000
 2.2256128616e+000	 2.3683638636e+000	-1.1265738519e+000
 2.2009769451e+000	 2.3912759120e+000	-1.1369303602e+000
 2.1761105255e+000	 2.4139268797e+000	-1.1388219159e+000
 2.1510177654e+000	 2.4363133158e+000	-1.1334624037e+000
 2.1257028957e+000	 2.4584318577e+000	-1.1220887595e+000
 2.1001702130e+000	 2.4802792335e+000	-1.1059587993e+000
 2.0744240777e+000	 2.5018522630e+000	-1.0798826352e+000
 2.0484689108e+000	 2.5231478596e+000	-9.7213520466e-001
 1.8908943792e+000	 2.3290595627e+000	-1.1069852230e+000
 1.8667469467e+000	 2.3484581830e+000	-1.0985591179e+000
 1.8424148840e+000	 2.3675952769e+000	-1.0962566436e+000
 1.8179024274e+000	 2.3864682618e+000	-1.0902597942e+000
 1.7932138597e+000	 2.4050746461e+000	-1.0808717706e+000
 1.7683535086e+000	 2.4234120303e+000	-1.0684054773e+000
 1.7433257434e+000	 2.4414781082e+000	-1.0531836336e+000
 1.7181349730e+000	 2.4592706672e+000	-1.0355388548e+000
 1.6927856434e+000	 2.4767875899e+000	-1.0158137030e+000
 1.6672822350e+000	 2.4940268541e+000	-9.9436070589e-001
 1.6416292602e+000	 2.5109865337e+000	-8.4154766065e-001
 1.9066518324e+000	 2.3484683924e+000	-9.8219502824e-001
 1.8823031712e+000	 2.3680286678e+000	-9.9597458132e-001
 1.8577683414e+000	 2.3873252375e+000	-1.0234577666e+000
 1.8330516143e+000	 2.4063554973e+000	-1.0519401368e+000
 1.8081573086e+000	 2.4251169348e+000	-1.0774387446e+000
 1.7830897878e+000	 2.4436071306e+000	-1.1001349517e+000
 1.7578534579e+000	 2.4618237591e+000	-1.1202206190e+000
 1.7324527644e+000	 2.4797645894e+000	-1.1378983321e+000
 1.7068921905e+000	 2.4974274865e+000	-1.1533815936e+000
 1.6811762537e+000	 2.5148104112e+000	-1.0001138241e+000
 1.6553095040e+000	 2.5319114214e+000	-8.1046900612e-001
 1.9224092855e+000	 2.3678772221e+000	-8.8510252526e-001
 1.8978593958e+000	 2.3875991527e+000	-9.2152850985e-001
 1.8731217988e+000	 2.4070551982e+000	-9.6785338202e-001
 1.8482008012e+000	 2.4262427328e+000	-1.0282366761e+000
 1.8231007574e+000	 2.4451592235e+000	-1.0860354641e+000
 1.7978260671e+000	 2.4638022308e+000	-1.1413005049e+000
 1.7723811724e+000	 2.4821694100e+000	-1.1940937481e+000
 1.7467705559e+000	 2.5002585117e+000	-1.2418373595e+000
 1.7209987375e+000	 2.5180673831e+000	-1.1005495553e+000
 1.6950702723e+000	 2.5355939683e+000	-9.4837832385e-001
 1.6689897478e+000	 2.5528363092e+000	-7.8792614787e-001
 1.9381667387e+000	 2.3872860518e+000	-8.1533027728e-001
 1.9134156203e+000	 2.4071696375e+000	-8.7150804361e-001
 1.8884752561e+000	 2.4267851588e+000	-9.3751096577e-001
 1.8633499881e+000	 2.4461299684e+000	-1.0187831825e+000
 1.8380442062e+000	 2.4652015122e+000	-1.1063677997e+000
 1.8125623463e+000	 2.4839973311e+000	-1.1916800579e+000
 1.7869088869e+000	 2.5025150609e+000	-1.2507502210e+000
 1.7610883473e+000	 2.5207524339e+000	-1.1491453474e+000
 1.7351052845e+000	 2.5387072796e+000	-1.0340770604e+000
 1.7089642909e+000	 2.5563775254e+000	-9.0813448380e-001
 1.6826699917e+000	 2.5737611970e+000	-7.7387249630e-001
 1.9539241918e+000	 2.4066948815e+000	-7.7252264020e-001
 1.9289718449e+000	 2.4267401224e+000	-8.4562053970e-001
 1.9038287135e+000	 2.4465151195e+000	-9.2934897527e-001
 1.8784991749e+000	 2.4660172039e+000	-1.0249903259e+000
 1.8529876551e+000	 2.4852438010e+000	-1.1381544299e+000
 1.8272986255e+000	 2.5041924313e+000	-1.2146574988e+000
 1.8014366015e+000	 2.5228607118e+000	-1.1522011383e+000
 1.7754061388e+000	 2.5412463561e+000	-1.0737740529e+000
 1.7492118315e+000	 2.5593471762e+000	-9.8195108405e-001
 1.7228583095e+000	 2.5771610825e+000	-8.7927674218e-001
 1.6963502355e+000	 2.5946860848e+000	-7.6826077285e-001
 1.9696816450e+000	 2.4261037112e+000	-7.5634489086e-001
 1.9445280695e+000	 2.4463106072e+000	-8.4359212546e-001
 1.9191821709e+000	 2.4662450801e+000	-9.4226462194e-001
 1.8936483618e+000	 2.4859044394e+000	-1.0535627839e+000
 1.8679311039e+000	 2.5052860897e+000	-1.1399340135e+000
 1.8420349048e+000	 2.5243875316e+000	-1.1160151119e+000
 1.8159643160e+000	 2.5432063627e+000	-1.0736863832e+000
 1.7897239302e+000	 2.5617402783e+000	-1.0155074273e+000
 1.7633183786e+000	 2.5799870728e+000	-9.4401151422e-001
 1.7367523282e+000	 2.5979446396e+000	-8.6170102921e-001
 1.7100304793e+000	 2.6156109726e+000	-7.7104303763e-001
 1.9854390982e+000	 2.4455125409e+000	-7.6648239690e-001
 1.9600842940e+000	 2.4658810921e+000	-8.6516695357e-001
 1.9345356282e+000	 2.4859750407e+000	-9.7606084650e-001
 1.9087975487e+000	 2.5057916749e+000	-1.0605271513e+000
 1.8828745527e+000	 2.5253283784e+000	-1.0507893721e+000
 1.8567711840e+000	 2.5445826318e+000	-1.0400277842e+000
 1.8304920305e+000	 2.5635520136e+000	-1.0149417478e+000
 1.8040417216e+000	 2.5822342006e+000	-9.7413500003e-001
 1.7774249256e+000	 2.6006269694e+000	-9.2010174306e-001
 1.7506463468e+000	 2.6187281968e+000	-8.5530470783e-001
 1.7237107232e+000	 2.6365358603e+000	-7.8217071560e-001
 2.0011965513e+000	 2.4649213705e+000	-8.0263982574e-001
 1.9756405186e+000	 2.4854515770e+000	-9.1010649241e-001
 1.9498890856e+000	 2.5057050014e+000	-9.9650199754e-001
 1.9239467356e+000	 2.5256789104e+000	-9.9767022767e-001
 1.8978180015e+000	 2.5453706671e+000	-9.9357563721e-001
 1.8715074632e+000	 2.5647777321e+000	-9.8638705984e-001
 1.8450197450e+000	 2.5838976645e+000	-9.7571037701e-001
 1.8183595131e+000	 2.6027281228e+000	-9.4945165964e-001
 1.7915314726e+000	 2.6212668660e+000	-9.1006852911e-001
 1.7645403654e+000	 2.6395117539e+000	-8.5998651736e-001
 1.7373909670e+000	 2.6574607481e+000	-8.0159462164e-001
 2.0169540045e+000	 2.4843302002e+000	-8.6454039075e-001
 1.9911967431e+000	 2.5050220618e+000	-9.5253403565e-001
 1.9652425429e+000	 2.5254349620e+000	-9.6211027324e-001
 1.9390959225e+000	 2.5455661459e+000	-9.6600280318e-001
 1.9127614504e+000	 2.5654129558e+000	-9.6509361043e-001
 1.8862437425e+000	 2.5849728324e+000	-9.6025015580e-001
 1.8595474596e+000	 2.6042433154e+000	-9.5574248204e-001
 1.8326773045e+000	 2.6232220450e+000	-9.4125744422e-001
 1.8056380196e+000	 2.6419067626e+000	-9.1376186569e-001
 1.7784343840e+000	 2.6602953110e+000	-8.7564651966e-001
 1.7510712108e+000	 2.6783856359e+000	-8.2926498433e-001
 2.0327114576e+000	 2.5037390299e+000	-9.3591308666e-001
 2.0067529677e+000	 2.5245925467e+000	-9.5118559135e-001
 1.9805960003e+000	 2.5451649227e+000	-9.6052231432e-001
 1.9542451094e+000	 2.5654533815e+000	-9.6473192888e-001
 1.9277048992e+000	 2.5854552446e+000	-9.6460877659e-001
 1.9009800217e+000	 2.6051679326e+000	-9.6093200973e-001
 1.8740751741e+000	 2.6245889663e+000	-9.5479506591e-001
 1.8469950960e+000	 2.6437159673e+000	-9.4935734180e-001
 1.8197445667e+000	 2.6625466591e+000	-9.3103485561e-001
 1.7923284027e+000	 2.6810788681e+000	-9.0218604793e-001
 1.7647514547e+000	 2.6993105237e+000	-8.6513146868e-001
 2.0484689108e+000	 2.5231478596e+000	-9.7213520466e-001
 2.0223091922e+000	 2.5441630315e+000	-9.8416122431e-001
 1.9959494577e+000	 2.5648948833e+000	-9.9090064763e-001
 1.9693942963e+000	 2.5853406170e+000	-9.9307650059e-001
 1.9426483480e+000	 2.6054975333e+000	-9.9139669474e-001
 1.9157163009e+000	 2.6253630329e+000	-9.8655326413e-001
 1.8886028886e+000	 2.6449346172e+000	-9.7922166752e-001
 1.8613128874e+000	 2.6642098895e+000	-9.7356110002e-001
 1.8338511137e+000	 2.6831865557e+000	-9.6174359149e-001
 1.8062224213e+000	 2.7018624252e+000	-9.3950765778e-001
 1.7784316985e+000	 2.7202354115e+000	-9.0914319785e-001
 1.6416292602e+000	 2.5109865337e+000	-8.4154766065e-001
 1.6158312605e+000	 2.5276647993e+000	-8.7176569204e-001
 1.5898928045e+000	 2.5440599187e+000	-8.9579907410e-001
 1.5638184851e+000	 2.5601702572e+000	-9.1521295301e-001
 1.5376129167e+000	 2.5759942776e+000	-9.3153319667e-001
 1.5112807329e+000	 2.5915305413e+000	-9.4624358196e-001
 1.4848265841e+000	 2.6067777073e+000	-9.6078311846e-001
 1.4582551343e+000	 2.6217345334e+000	-9.7654351326e-001
 1.4315710593e+000	 2.6363998752e+000	-9.9486678145e-001
 1.4047790439e+000	 2.6507726869e+000	-1.0170430060e+000
 1.3778837792e+000	 2.6648520205e+000	-1.0443082507e+000
 1.6553095040e+000	 2.5319114214e+000	-8.1046900612e-001
 1.6292965210e+000	 2.5487286726e+000	-8.4723852169e-001
 1.6031419112e+000	 2.5652604181e+000	-8.7879317184e-001
 1.5768503058e+000	 2.5815050093e+000	-9.0664942007e-001
 1.5504263577e+000	 2.5974608966e+000	-9.3228300482e-001
 1.5238747391e+000	 2.6131266291e+000	-9.5712615256e-001
 1.4972001389e+000	 2.6285008549e+000	-9.8256493027e-001
 1.4704072604e+000	 2.6435823211e+000	-1.0099367421e+000
 1.4435008182e+000	 2.6583698742e+000	-1.0405279747e+000
 1.4164855360e+000	 2.6728624593e+000	-1.0755717949e+000
 1.3893661440e+000	 2.6870591207e+000	-1.1162461032e+000
 1.6689897478e+000	 2.5528363092e+000	-7.8792614787e-001
 1.6427617815e+000	 2.5697925460e+000	-8.2856913819e-001
 1.6163910179e+000	 2.5864609174e+000	-8.6496928035e-001
 1.5898821265e+000	 2.6028397614e+000	-8.9859664396e-001
 1.5632397986e+000	 2.6189275156e+000	-9.3087909358e-001
 1.5364687452e+000	 2.6347227169e+000	-9.6319952507e-001
 1.5095736938e+000	 2.6502240024e+000	-9.9689324440e-001
 1.4825593865e+000	 2.6654301089e+000	-1.0332454939e+000
 1.4554305770e+000	 2.6803398731e+000	-1.0734891300e+000
 1.4281920280e+000	 2.6949522317e+000	-1.1188024569e+000
 1.4008485088e+000	 2.7092662209e+000	-1.1703072181e+000
 1.6826699917e+000	 2.5737611970e+000	-7.7387249630e-001
 1.6562270420e+000	 2.5908564193e+000	-8.1576260099e-001
 1.6296401246e+000	 2.6076614167e+000	-8.5438460522e-001
 1.6029139472e+000	 2.6241745136e+000	-8.9116445570e-001
 1.5760532396e+000	 2.6403941346e+000	-9.2748438057e-001
 1.5490627513e+000	 2.6563188048e+000	-9.6468014643e-001
 1.5219472487e+000	 2.6719471500e+000	-1.0040384611e+000
 1.4947115126e+000	 2.6872778967e+000	-1.0467945269e+000
 1.4673603358e+000	 2.7023098721e+000	-1.0941297492e+000
 1.4398985200e+000	 2.7170420041e+000	-1.1471696030e+000
 1.4123308736e+000	 2.7314733210e+000	-1.2069816615e+000
 1.6963502355e+000	 2.5946860848e+000	-7.6826077285e-001
 1.6696923025e+000	 2.6119202926e+000	-8.0882133090e-001
 1.6428892313e+000	 2.6288619160e+000	-8.4709175498e-001
 1.6159457679e+000	 2.6455092657e+000	-8.8445612313e-001
 1.5888666806e+000	 2.6618607536e+000	-9.2225324735e-001
 1.5616567574e+000	 2.6779148926e+000	-9.6177394879e-001
 1.5343208035e+000	 2.6936702975e+000	-1.0042584821e+000
 1.5068636388e+000	 2.7091256845e+000	-1.0508941136e+000
 1.4792900947e+000	 2.7242798711e+000	-1.1028128578e+000
 1.4516050121e+000	 2.7391317765e+000	-1.1610893754e+000
 1.4238132385e+000	 2.7536804212e+000	-1.2267390367e+000
 1.7100304793e+000	 2.6156109726e+000	-7.7104303763e-001
 1.6831575630e+000	 2.6329841659e+000	-8.0774521565e-001
 1.6561383380e+000	 2.6500624153e+000	-8.4313892503e-001
 1.6289775887e+000	 2.6668440179e+000	-8.7856861345e-001
 1.6016801216e+000	 2.6833273725e+000	-9.1533188083e-001
 1.5742507635e+000	 2.6995109805e+000	-9.5467677014e-001
 1.5466943584e+000	 2.7153934451e+000	-9.9779921089e-001
 1.5190157649e+000	 2.7309734722e+000	-1.0458406199e+000
 1.4912198535e+000	 2.7462498700e+000	-1.0998856638e+000
 1.4633115041e+000	 2.7612215489e+000	-1.1609601859e+000
 1.4352956033e+000	 2.7758875214e+000	-1.2300293031e+000
 1.7237107232e+000	 2.6365358603e+000	-7.8217071560e-001
 1.6966228235e+000	 2.6540480393e+000	-8.1253171039e-001
 1.6693874448e+000	 2.6712629147e+000	-8.4257007272e-001
 1.6420094094e+000	 2.6881787700e+000	-8.7359284328e-001
 1.6144935625e+000	 2.7047939915e+000	-9.0685859852e-001
 1.5868447696e+000	 2.7211070683e+000	-9.4357475480e-001
 1.5590679133e+000	 2.7371165927e+000	-9.8489502852e-001
 1.5311678910e+000	 2.7528212600e+000	-1.0319170572e+000
 1.5031496123e+000	 2.7682198690e+000	-1.0856801855e+000
 1.4750179961e+000	 2.7833113213e+000	-1.1471634200e+000
 1.4467779681e+000	 2.7980946215e+000	-1.2172835554e+000
 1.7373909670e+000	 2.6574607481e+000	-8.0159462164e-001
 1.7100880840e+000	 2.6751119126e+000	-8.2317593347e-001
 1.6826365515e+000	 2.6924634140e+000	-8.4542508424e-001
 1.6550412301e+000	 2.7095135222e+000	-8.6961391680e-001
 1.6273070035e+000	 2.7262606105e+000	-8.9696415830e-001
 1.5994387757e+000	 2.7427031562e+000	-9.2864473511e-001
 1.5714414681e+000	 2.7588397402e+000	-9.6576924736e-001
 1.5433200171e+000	 2.7746690478e+000	-1.0093936079e+000
 1.5150793711e+000	 2.7901898679e+000	-1.0605138499e+000
 1.4867244882e+000	 2.8054010937e+000	-1.1200641066e+000
 1.4582603330e+000	 2.8203017217e+000	-1.1889147666e+000
 1.7510712108e+000	 2.6783856359e+000	-8.2926498433e-001
 1.7235533445e+000	 2.6961757859e+000	-8.3967075770e-001
 1.6958856582e+000	 2.7136639133e+000	-8.5173993363e-001
 1.6680730508e+000	 2.7308482743e+000	-8.6671135286e-001
 1.6401204445e+000	 2.7477272295e+000	-8.8577205371e-001
 1.6120327818e+000	 2.7642992440e+000	-9.1005459519e-001
 1.5838150230e+000	 2.7805628878e+000	-9.4063454350e-001
 1.5554721432e+000	 2.7965168356e+000	-9.7852812675e-001
 1.5270091300e+000	 2.8121598669e+000	-1.0246900619e+000
 1.4984309802e+000	 2.8274908661e+000	-1.0800115576e+000
 1.4697426978e+000	 2.8425088219e+000	-1.1453184958e+000
 1.7647514547e+000	 2.6993105237e+000	-8.6513146868e-001
 1.7370186050e+000	 2.7172396593e+000	-8.6200689745e-001
 1.7091347649e+000	 2.7348644126e+000	-8.6154683440e-001
 1.6811048715e+000	 2.7521830265e+000	-8.6495930145e-001
 1.6529338855e+000	 2.7691938485e+000	-8.7339879557e-001
 1.6246267879e+000	 2.7858953319e+000	-8.8796361772e-001
 1.5961885779e+000	 2.8022860354e+000	-9.0969336899e-001
 1.5676242694e+000	 2.8183646234e+000	-9.3956661869e-001
 1.5389388888e+000	 2.8341298659e+000	-9.7849874852e-001
 1.5101374722e+000	 2.8495806385e+000	-1.0273399764e+000
 1.4812250626e+000	 2.8647159220e+000	-1.0868735629e+000
 1.7784316985e+000	 2.7202354115e+000	-9.0914319785e-001
 1.7504838655e+000	 2.7383035326e+000	-8.9017299157e-001
 1.7223838716e+000	 2.7560649120e+000	-8.7487438420e-001
 1.6941366922e+000	 2.7735177786e+000	-8.6442675019e-001
 1.6657473264e+000	 2.7906604674e+000	-8.5995418048e-001
 1.6372207940e+000	 2.8074914197e+000	-8.6252281480e-001
 1.6085621327e+000	 2.8240091829e+000	-8.7313834503e-001
 1.5797763955e+000	 2.8402124111e+000	-8.9274369442e-001
 1.5508686476e+000	 2.8560998648e+000	-9.2221687688e-001
 1.5218439643e+000	 2.8716704108e+000	-9.6236903970e-001
 1.4927074274e+000	 2.8869230222e+000	-1.0139426927e+000
 1.3778837792e+000	 2.6648520205e+000	-1.0443082507e+000
 1.3508899601e+000	 2.6786370258e+000	-7.7687835836e-001
 1.3238022833e+000	 2.6921269500e+000	-5.1434525604e-001
 1.2966254442e+000	 2.7053211376e+000	-2.5772103581e-001
 1.2693641349e+000	 2.7182190297e+000	-7.9597533638e-003
 1.2420230416e+000	 2.7308201633e+000	 1.1234393414e-001
 1.2146068424e+000	 2.7431241712e+000	-6.2790966355e-002
 1.1871202048e+000	 2.7551307808e+000	-2.3137506401e-001
 1.1595677832e+000	 2.7668398140e+000	-3.9169162111e-001
 1.1319542172e+000	 2.7782511856e+000	-5.4216183910e-001
 1.1042841287e+000	 2.7893649032e+000	-6.8134176458e-001
 1.3893661440e+000	 2.6870591207e+000	-1.1162461032e+000
 1.3621473764e+000	 2.7009590010e+000	-8.6051508173e-001
 1.3348339690e+000	 2.7145613413e+000	-6.0929229613e-001
 1.3074306562e+000	 2.7278654804e+000	-3.6363008227e-001
 1.2799421693e+000	 2.7408708549e+000	-1.2452138557e-001
 1.2523732336e+000	 2.7535769980e+000	 1.0710153207e-001
 1.2247285661e+000	 2.7659835393e+000	-4.9091520588e-002
 1.1970128732e+000	 2.7780902040e+000	-2.3235152985e-001
 1.1692308481e+000	 2.7898968124e+000	-4.0458020891e-001
 1.1413871690e+000	 2.8014032788e+000	-5.6422944275e-001
 1.1134864964e+000	 2.8126096107e+000	-7.0989100940e-001
 1.4008485088e+000	 2.7092662209e+000	-1.1703072181e+000
 1.3734047928e+000	 2.7232809762e+000	-9.2634485428e-001
 1.3458656546e+000	 2.7369957325e+000	-6.8653513072e-001
 1.3182358682e+000	 2.7504098233e+000	-4.5197121943e-001
 1.2905202038e+000	 2.7635226802e+000	-2.2368549839e-001
 1.2627234256e+000	 2.7763338327e+000	-2.6482098152e-003
 1.2348502898e+000	 2.7888429074e+000	-1.6640486994e-002
 1.2069055415e+000	 2.8010496272e+000	-2.1376502190e-001
 1.1788939129e+000	 2.8129538109e+000	-3.9702633161e-001
 1.1508201208e+000	 2.8245553720e+000	-5.6490849512e-001
 1.1226888642e+000	 2.8358543183e+000	-7.1604062452e-001
 1.4123308736e+000	 2.7314733210e+000	-1.2069816615e+000
 1.3846622091e+000	 2.7456029514e+000	-9.7484945019e-001
 1.3568973403e+000	 2.7594301238e+000	-7.4654731268e-001
 1.3290410803e+000	 2.7729541661e+000	-5.2320985940e-001
 1.3010982382e+000	 2.7861745054e+000	-3.0590945344e-001
 1.2730736177e+000	 2.7990906674e+000	-9.5654819745e-002
 1.2449720135e+000	 2.8117022754e+000	 3.1884445187e-002
 1.2167982099e+000	 2.8240090504e+000	-1.7825818623e-001
 1.1885569778e+000	 2.8360108093e+000	-3.7163615658e-001
 1.1602530726e+000	 2.8477074652e+000	-5.4676728009e-001
 1.1318912319e+000	 2.8590990258e+000	-7.0231963746e-001
 1.4238132385e+000	 2.7536804212e+000	-1.2267390367e+000
 1.3959196254e+000	 2.7679249266e+000	-1.0064902541e+000
 1.3679290260e+000	 2.7818645150e+000	-7.8978208670e-001
 1.3398462923e+000	 2.7954985089e+000	-5.7779119565e-001
 1.3116762727e+000	 2.8088263307e+000	-3.7163049143e-001
 1.2834238097e+000	 2.8218475021e+000	-1.7234769341e-001
 1.2550937372e+000	 2.8345616435e+000	 1.9075935023e-002
 1.2266908783e+000	 2.8469684735e+000	-1.2845388917e-001
 1.1982200427e+000	 2.8590678078e+000	-3.3099620085e-001
 1.1696860244e+000	 2.8708595585e+000	-5.1235456831e-001
 1.1410935996e+000	 2.8823437333e+000	-6.7123770710e-001
 1.4352956033e+000	 2.7758875214e+000	-1.2300293031e+000
 1.4071770418e+000	 2.7902469018e+000	-1.0217090767e+000
 1.3789607117e+000	 2.8042989063e+000	-8.1667320158e-001
 1.3506515043e+000	 2.8180428517e+000	-6.1614101177e-001
 1.3222543071e+000	 2.8314781559e+000	-4.2126653700e-001
 1.2937740017e+000	 2.8446043368e+000	-2.3313701199e-001
 1.2652154609e+000	 2.8574210116e+000	-5.2771566155e-002
 1.2365835466e+000	 2.8699278967e+000	-6.6956008513e-002
 1.2078831075e+000	 2.8821248062e+000	-2.7767411716e-001
 1.1791189762e+000	 2.8940116517e+000	-4.6420039768e-001
 1.1502959674e+000	 2.9055884408e+000	-6.2528589847e-001
 1.4467779681e+000	 2.7980946215e+000	-1.2172835554e+000
 1.4184344581e+000	 2.8125688771e+000	-1.0209289315e+000
 1.3899923974e+000	 2.8267332975e+000	-8.2763568388e-001
 1.3614567164e+000	 2.8405871945e+000	-6.3866645170e-001
 1.3328323416e+000	 2.8541299812e+000	-4.5521696521e-001
 1.3041241937e+000	 2.8673611715e+000	-2.7841450460e-001
 1.2753371846e+000	 2.8802803797e+000	-1.0931654382e-001
 1.2464762150e+000	 2.8928873199e+000	 3.6498130108e-003
 1.2175461724e+000	 2.9051818047e+000	-2.1421944247e-001
 1.1885519280e+000	 2.9171637449e+000	-4.0481681676e-001
 1.1594983351e+000	 2.9288331484e+000	-5.6693742057e-001
 1.4582603330e+000	 2.8203017217e+000	-1.1889147666e+000
 1.4296918744e+000	 2.8348908523e+000	-1.0045547748e+000
 1.4010240831e+000	 2.8491676888e+000	-8.2306657503e-001
 1.3722619284e+000	 2.8631315373e+000	-6.4575675356e-001
 1.3434103761e+000	 2.8767818064e+000	-4.7386333186e-001
 1.3144743857e+000	 2.8901180061e+000	-3.0855417479e-001
 1.2854589082e+000	 2.9031397478e+000	-1.5092558803e-001
 1.2563688834e+000	 2.9158467430e+000	-2.0011051274e-003
 1.2272092372e+000	 2.9282388031e+000	-1.4316431124e-001
 1.1979848799e+000	 2.9403158381e+000	-3.3669859296e-001
 1.1687007029e+000	 2.9520778559e+000	-4.9864832938e-001
 1.4697426978e+000	 2.8425088219e+000	-1.1453184958e+000
 1.4409492908e+000	 2.8572128275e+000	-9.7297421099e-001
 1.4120557688e+000	 2.8716020800e+000	-8.0334563388e-001
 1.3830671404e+000	 2.8856758801e+000	-6.3778394910e-001
 1.3539884105e+000	 2.8994336316e+000	-4.7757006956e-001
 1.3248245777e+000	 2.9128748408e+000	-3.2391299293e-001
 1.2955806319e+000	 2.9259991159e+000	-1.7794835251e-001
 1.2662615518e+000	 2.9388061662e+000	-4.0737162387e-002
 1.2368723021e+000	 2.9512958016e+000	-6.7024135205e-002
 1.2074178317e+000	 2.9634679313e+000	-2.6232388763e-001
 1.1779030706e+000	 2.9753225634e+000	-4.2285819791e-001
 1.4812250626e+000	 2.8647159220e+000	-1.0868735629e+000
 1.4522067071e+000	 2.8795348027e+000	-9.2655816539e-001
 1.4230874545e+000	 2.8940364712e+000	-7.6883600654e-001
 1.3938723525e+000	 2.9082202229e+000	-6.1510353065e-001
 1.3645664450e+000	 2.9220854569e+000	-4.6668515140e-001
 1.3351747697e+000	 2.9356316755e+000	-3.2483155641e-001
 1.3057023556e+000	 2.9488584840e+000	-1.9071821101e-001
 1.2761542201e+000	 2.9617655894e+000	-6.5444061296e-002
 1.2465353670e+000	 2.9743528000e+000	 1.1701748489e-002
 1.2168507835e+000	 2.9866200245e+000	-1.8415489967e-001
 1.1871054383e+000	 2.9985672709e+000	-3.4199075502e-001
 1.4927074274e+000	 2.8869230222e+000	-1.0139426927e+000
 1.4634641235e+000	 2.9018567779e+000	-8.6566152545e-001
 1.4341191402e+000	 2.9164708625e+000	-7.1988486537e-001
 1.4046775645e+000	 2.9307645658e+000	-5.7805508718e-001
 1.3751444794e+000	 2.9447372821e+000	-4.4154072400e-001
 1.3455249618e+000	 2.9583885102e+000	-3.1163471938e-001
 1.3158240793e+000	 2.9717178521e+000	-1.8955288356e-001
 1.2860468885e+000	 2.9847250126e+000	-7.6432554199e-002
 1.2561984318e+000	 2.9974097985e+000	 2.6668539015e-002
 1.2262837353e+000	 3.0097721177e+000	-1.0463847950e-001
 1.1963078061e+000	 3.0218119785e+000	-2.5845449487e-001
 1.1042841287e+000	 2.7893649032e+000	-6.8134176458e-001
 1.0765621202e+000	 2.8001810658e+000	-6.4556292485e-001
 1.0487927723e+000	 2.8106998632e+000	-6.0660947312e-001
 1.0209806419e+000	 2.8209215744e+000	-5.6409395914e-001
 9.9313025989e-001	 2.8308465672e+000	-5.1773092782e-001
 9.6524612913e-001	 2.8404752965e+000	-4.6733236131e-001
 9.3733272262e-001	 2.8498083036e+000	-4.1280298865e-001
 9.0939448149e-001	 2.8588462143e+000	-3.5413548029e-001
 8.8143581311e-001	 2.8675897383e+000	-2.9140554437e-001
 8.5346108929e-001	 2.8760396675e+000	-2.2476694178e-001
 8.2547464451e-001	 2.8841968746e+000	-1.5444643640e-001
 1.1134864964e+000	 2.8126096107e+000	-7.0989100940e-001
 1.0855334712e+000	 2.8235159081e+000	-6.9815587669e-001
 1.0575327121e+000	 2.8341223620e+000	-6.7887982888e-001
 1.0294888139e+000	 2.8444292542e+000	-6.5176972845e-001
 1.0014063454e+000	 2.8544369552e+000	-6.1663965203e-001
 9.7328984687e-001	 2.8641459240e+000	-5.7340606865e-001
 9.4514382864e-001	 2.8735567061e+000	-5.2208288154e-001
 9.1697276883e-001	 2.8826699328e+000	-4.6277635130e-001
 8.8878111155e-001	 2.8914863195e+000	-3.9567991824e-001
 8.6057326503e-001	 2.9000066647e+000	-3.2106894125e-001
 8.3235359987e-001	 2.9082318485e+000	-2.3929537072e-001
 1.1226888642e+000	 2.8358543183e+000	-7.1604062452e-001
 1.0945048222e+000	 2.8468507503e+000	-7.2809092275e-001
 1.0662726518e+000	 2.8575448609e+000	-7.2819906132e-001
 1.0379969859e+000	 2.8679369340e+000	-7.1616752464e-001
 1.0096824309e+000	 2.8780273433e+000	-6.9191129517e-001
 9.8133356461e-001	 2.8878165515e+000	-6.5545276412e-001
 9.5295493466e-001	 2.8973051086e+000	-6.0691650143e-001
 9.2455105618e-001	 2.9064936512e+000	-5.4652390377e-001
 8.9612640999e-001	 2.9153829006e+000	-4.7458773893e-001
 8.6768544077e-001	 2.9239736620e+000	-3.9150660465e-001
 8.3923255524e-001	 2.9322668225e+000	-2.9775932006e-001
 1.1318912319e+000	 2.8590990258e+000	-7.0231963746e-001
 1.1034761732e+000	 2.8701855925e+000	-7.3783658922e-001
 1.0750125916e+000	 2.8809673597e+000	-7.5697324086e-001
 1.0465051580e+000	 2.8914446137e+000	-7.5962905610e-001
 1.0179585164e+000	 2.9016177314e+000	-7.4582134676e-001
 9.8937728235e-001	 2.9114871789e+000	-7.1567991188e-001
 9.6076604068e-001	 2.9210535112e+000	-6.6944153212e-001
 9.3212934352e-001	 2.9303173697e+000	-6.0744433850e-001
 9.0347170843e-001	 2.9392794818e+000	-5.3012207487e-001
 8.7479761651e-001	 2.9479406592e+000	-4.3799827263e-001
 8.4611151061e-001	 2.9563017964e+000	-3.3168035674e-001
 1.1410935996e+000	 2.8823437333e+000	-6.7123770710e-001
 1.1124475242e+000	 2.8935204347e+000	-7.2984282785e-001
 1.0837525314e+000	 2.9043898586e+000	-7.6759068592e-001
 1.0550133300e+000	 2.9149522935e+000	-7.8447912942e-001
 1.0262346019e+000	 2.9252081194e+000	-7.8062927178e-001
 9.9742100009e-001	 2.9351578064e+000	-7.5627985547e-001
 9.6857714670e-001	 2.9448019137e+000	-7.1178146667e-001
 9.3970763087e-001	 2.9541410881e+000	-6.4759062087e-001
 9.1081700687e-001	 2.9631760629e+000	-5.6426373915e-001
 8.8190979226e-001	 2.9719076564e+000	-4.6245103489e-001
 8.5299046598e-001	 2.9803367704e+000	-3.4289033005e-001
 1.1502959674e+000	 2.9055884408e+000	-6.2528589847e-001
 1.1214188752e+000	 2.9168552769e+000	-7.0654175895e-001
 1.0924924711e+000	 2.9278123575e+000	-7.6242267307e-001
 1.0635215020e+000	 2.9384599733e+000	-7.9302632546e-001
 1.0345106874e+000	 2.9487985075e+000	-7.9857915172e-001
 1.0054647178e+000	 2.9588284339e+000	-7.7943042263e-001
 9.7638825273e-001	 2.9685503162e+000	-7.3604617508e-001
 9.4728591821e-001	 2.9779648066e+000	-6.6900301026e-001
 9.1816230531e-001	 2.9870726441e+000	-5.7898177985e-001
 8.8902196800e-001	 2.9958746536e+000	-4.6676118025e-001
 8.5986942135e-001	 3.0043717443e+000	-3.3321127521e-001
 1.1594983351e+000	 2.9288331484e+000	-5.6693742057e-001
 1.1303902262e+000	 2.9401901191e+000	-6.7034837900e-001
 1.1012324109e+000	 2.9512348563e+000	-7.4382411321e-001
 1.0720296740e+000	 2.9619676531e+000	-7.8756364318e-001
 1.0427867729e+000	 2.9723888955e+000	-8.0190029497e-001
 1.0135084356e+000	 2.9824990614e+000	-7.8729550135e-001
 9.8419935875e-001	 2.9922987187e+000	-7.4433244482e-001
 9.5486420556e-001	 3.0017885250e+000	-6.7370956428e-001
 9.2550760376e-001	 3.0109692252e+000	-5.7623394679e-001
 8.9613414375e-001	 3.0198416509e+000	-4.5281462522e-001
 8.6674837673e-001	 3.0284067183e+000	-3.0445580281e-001
 1.1687007029e+000	 2.9520778559e+000	-4.9864832938e-001
 1.1393615772e+000	 2.9635249613e+000	-6.2366123477e-001
 1.1099723507e+000	 2.9746573552e+000	-7.1413419594e-001
 1.0805378460e+000	 2.9854753329e+000	-7.7036911317e-001
 1.0510628584e+000	 2.9959792836e+000	-7.9280781850e-001
 1.0215521533e+000	 3.0061696888e+000	-7.8202558866e-001
 9.9201046477e-001	 3.0160471213e+000	-7.3872449595e-001
 9.6244249291e-001	 3.0256122435e+000	-6.6372661913e-001
 9.3285290220e-001	 3.0348658064e+000	-5.5796713644e-001
 9.0324631949e-001	 3.0438086481e+000	-4.2248732238e-001
 8.7362733210e-001	 3.0524416922e+000	-2.5842746985e-001
 1.1779030706e+000	 2.9753225634e+000	-4.2285819791e-001
 1.1483329282e+000	 2.9868598036e+000	-5.6886306592e-001
 1.1187122905e+000	 2.9980798540e+000	-6.7567700366e-001
 1.0890460181e+000	 3.0089830127e+000	-7.4370638229e-001
 1.0593389439e+000	 3.0195696717e+000	-7.7350320215e-001
 1.0295958711e+000	 3.0298403163e+000	-7.6575831370e-001
 9.9982157080e-001	 3.0397955238e+000	-7.2129447200e-001
 9.7002078026e-001	 3.0494359619e+000	-6.4105924748e-001
 9.4019820065e-001	 3.0587623875e+000	-5.2611781583e-001
 9.1035849524e-001	 3.0677756453e+000	-3.7764564959e-001
 8.8050628747e-001	 3.0764766662e+000	-1.9692113340e-001
 1.1871054383e+000	 2.9985672709e+000	-3.4199075502e-001
 1.1573042792e+000	 3.0101946458e+000	-5.0832141770e-001
 1.1274522302e+000	 3.0215023529e+000	-6.3076209712e-001
 1.0975541901e+000	 3.0324906925e+000	-7.0982527122e-001
 1.0676150294e+000	 3.0431600597e+000	-7.4617481724e-001
 1.0376395888e+000	 3.0535109438e+000	-7.4061893651e-001
 1.0076326768e+000	 3.0635439263e+000	-6.9410290808e-001
 9.7759906761e-001	 3.0732596804e+000	-6.0770169503e-001
 9.4754349910e-001	 3.0826589687e+000	-4.8261242680e-001
 9.1747067099e-001	 3.0917426426e+000	-3.2014678108e-001
 8.8738524285e-001	 3.1005116401e+000	-1.2172328782e-001
 1.1963078061e+000	 3.0218119785e+000	-2.5845449487e-001
 1.1662756302e+000	 3.0335294880e+000	-4.4438922529e-001
 1.1361921700e+000	 3.0449248518e+000	-5.8168507395e-001
 1.1060623621e+000	 3.0559983723e+000	-6.7096230621e-001
 1.0758911149e+000	 3.0667504478e+000	-7.1299843075e-001
 1.0456833066e+000	 3.0771815712e+000	-7.0872082374e-001
 1.0154437829e+000	 3.0872923289e+000	-6.5919917734e-001
 9.8517735496e-001	 3.0970833988e+000	-5.6563779693e-001
 9.5488879754e-001	 3.1065555498e+000	-4.2936777159e-001
 9.2458284674e-001	 3.1157096398e+000	-2.5183904150e-001
 8.9426419823e-001	 3.1245466141e+000	-3.4612386390e-002
 8.2547464451e-001	 2.8841968746e+000	-1.5444643640e-001
 7.9748077418e-001	 2.8920623117e+000	-6.9311085207e-002
 7.6948373301e-001	 2.8996370091e+000	 4.0326675484e-002
 7.4148773336e-001	 2.9069220735e+000	 1.7337353848e-001
 7.1349694372e-001	 2.9139186865e+000	 3.2867563663e-001
 6.8551548720e-001	 2.9206281031e+000	 5.0502449405e-001
 6.5754744009e-001	 2.9270516504e+000	 7.0116294273e-001
 6.2959683048e-001	 2.9331907253e+000	 9.1579098985e-001
 6.0166763694e-001	 2.9390467935e+000	 5.5283755333e-001
 5.7376378727e-001	 2.9446213876e+000	 3.8275942852e-002
 5.4588915724e-001	 2.9499161052e+000	-5.1599934538e-001
 8.3235359987e-001	 2.9082318485e+000	-2.3929537072e-001
 8.0412644730e-001	 2.9161628310e+000	-1.5664787780e-001
 7.7589609745e-001	 2.9238006509e+000	-5.1072711396e-002
 7.4766679780e-001	 2.9311464241e+000	 7.6228605154e-002
 7.1944275158e-001	 2.9382013422e+000	 2.2399532842e-001
 6.9122811626e-001	 2.9449666706e+000	 3.9091362770e-001
 6.6302700209e-001	 2.9514437475e+000	 5.7562267832e-001
 6.3484347073e-001	 2.9576339813e+000	 7.7672070026e-001
 6.0668153392e-001	 2.9635388501e+000	 4.8551326165e-001
 5.7854515216e-001	 2.9691598992e+000	-1.1357283717e-001
 5.5043823355e-001	 2.9744987394e+000	-7.5913806900e-001
 8.3923255524e-001	 2.9322668225e+000	-2.9775932006e-001
 8.1077212041e-001	 2.9402633502e+000	-2.1742867496e-001
 7.8230846189e-001	 2.9479642926e+000	-1.1564552638e-001
 7.5384586224e-001	 2.9553707747e+000	 6.2781102886e-003
 7.2538855945e-001	 2.9624839979e+000	 1.4697227269e-001
 6.9694074532e-001	 2.9693052382e+000	 3.0501537096e-001
 6.6850656409e-001	 2.9758358445e+000	 4.7894046260e-001
 6.4009011098e-001	 2.9820772374e+000	 6.6724146731e-001
 6.1169543089e-001	 2.9880309068e+000	 4.6859078810e-001
 5.8332651705e-001	 2.9936984107e+000	-2.1893262301e-001
 5.5498730986e-001	 2.9990813737e+000	-9.5975718831e-001
 8.4611151061e-001	 2.9563017964e+000	-3.3168035674e-001
 8.1741779353e-001	 2.9643638695e+000	-2.5340875193e-001
 7.8872082633e-001	 2.9721279343e+000	-1.5506077383e-001
 7.6002492669e-001	 2.9795951253e+000	-3.8061250298e-002
 7.3133436731e-001	 2.9867666536e+000	 9.6108250883e-002
 7.0265337437e-001	 2.9936438057e+000	 2.4591593303e-001
 6.7398612608e-001	 3.0002279416e+000	 4.0978623204e-001
 6.4533675123e-001	 3.0065204934e+000	 5.8610621237e-001
 6.1670932786e-001	 3.0125229634e+000	 5.0325951129e-001
 5.8810788194e-001	 3.0182369223e+000	-2.7662657143e-001
 5.5953638617e-001	 3.0236640079e+000	-1.1166950177e+000
 8.5299046598e-001	 2.9803367704e+000	-3.4289033005e-001
 8.2406346665e-001	 2.9884643887e+000	-2.6633450356e-001
 7.9513319077e-001	 2.9962915761e+000	-1.7097987967e-001
 7.6620399113e-001	 3.0038194759e+000	-5.8366463294e-002
 7.3728017517e-001	 3.0110493093e+000	 6.9910142151e-002
 7.0836600343e-001	 3.0179823732e+000	 2.1220544245e-001
 6.7946568808e-001	 3.0246200387e+000	 3.6683270564e-001
 6.5058339149e-001	 3.0309637495e+000	 5.3206954417e-001
 6.2172322484e-001	 3.0370150200e+000	 5.9070944387e-001
 5.9288924684e-001	 3.0427754338e+000	-2.8547821667e-001
 5.6408546248e-001	 3.0482466421e+000	-1.2287912184e+000
 8.5986942135e-001	 3.0043717443e+000	-3.3321127521e-001
 8.3070913976e-001	 3.0125649080e+000	-2.5794379958e-001
 8.0154555521e-001	 3.0204552178e+000	-1.6505699453e-001
 7.7238305558e-001	 3.0280438265e+000	-5.6208450603e-002
 7.4322598304e-001	 3.0353319650e+000	 6.6889719484e-002
 7.1407863249e-001	 3.0423209407e+000	 2.0247779034e-001
 6.8494525008e-001	 3.0490121358e+000	 3.4875527360e-001
 6.5583003174e-001	 3.0554070055e+000	 5.0388769128e-001
 6.2673712181e-001	 3.0615070766e+000	 6.6601325697e-001
 5.9767061173e-001	 3.0673139454e+000	-2.4431145532e-001
 5.6863453879e-001	 3.0728292763e+000	-1.2948867451e+000
 8.6674837673e-001	 3.0284067183e+000	-3.0445580281e-001
 8.3735481288e-001	 3.0366654273e+000	-2.2996632287e-001
 8.0795791965e-001	 3.0446188595e+000	-1.3893928242e-001
 7.7856212002e-001	 3.0522681771e+000	-3.3152310002e-002
 7.4917179090e-001	 3.0596146208e+000	 8.5563455487e-002
 7.1979126155e-001	 3.0666595083e+000	 2.1533048110e-001
 6.9042481209e-001	 3.0734042329e+000	 3.5423189137e-001
 6.6107667200e-001	 3.0798502615e+000	 5.0031843790e-001
 6.3175101878e-001	 3.0859991332e+000	 6.5161537107e-001
 6.0245197662e-001	 3.0918524570e+000	-1.5195053199e-001
 5.7318361510e-001	 3.0974119105e+000	-1.3138237941e+000
 8.7362733210e-001	 3.0524416922e+000	-2.5842746985e-001
 8.4400048600e-001	 3.0607659465e+000	-1.8412389179e-001
 8.1437028410e-001	 3.0687825013e+000	-9.4267195860e-002
 7.8474118447e-001	 3.0764925277e+000	 9.2424555581e-003
 7.5511759877e-001	 3.0838972765e+000	 1.2445233736e-001
 7.2550389062e-001	 3.0909980758e+000	 2.4936449014e-001
 6.9590437409e-001	 3.0977963300e+000	 3.8194297858e-001
 6.6632331225e-001	 3.1042935176e+000	 5.2012106254e-001
 6.3676491576e-001	 3.1104911898e+000	 6.6180826423e-001
 6.0723334152e-001	 3.1163909685e+000	-7.2200255692e-003
 5.7773269141e-001	 3.1219945447e+000	-1.2844457545e+000
 8.8050628747e-001	 3.0764766662e+000	-1.9692113340e-001
 8.5064615913e-001	 3.0848664658e+000	-1.2213076738e-001
 8.2078264854e-001	 3.0929461430e+000	-3.2674737968e-002
 7.9092024892e-001	 3.1007168783e+000	 6.9421719403e-002
 7.6106340663e-001	 3.1081799322e+000	 1.8208169056e-001
 7.3121651968e-001	 3.1153366433e+000	 3.0318412828e-001
 7.0138393609e-001	 3.1221884270e+000	 4.3057132285e-001
 6.7156995251e-001	 3.1287367736e+000	 5.9890261538e-001
 6.4177881273e-001	 3.1349832464e+000	 7.9028024151e-001
 6.1201470641e-001	 3.1409294801e+000	 3.3723874410e-001
 5.8228176772e-001	 3.1465771789e+000	-1.0078625497e+000
 8.8738524285e-001	 3.1005116401e+000	-1.2172328782e-001
 8.5729183225e-001	 3.1089669851e+000	-4.5693946287e-002
 8.2719501299e-001	 3.1171097848e+000	 4.4210287508e-002
 7.9709931337e-001	 3.1249412290e+000	 1.4583652276e-001
 7.6700921450e-001	 3.1324625879e+000	 3.2667890528e-001
 7.3692914874e-001	 3.1396752108e+000	 5.0898003296e-001
 7.0686349809e-001	 3.1465805241e+000	 6.8850950127e-001
 6.7681659276e-001	 3.1531800297e+000	 8.6180959144e-001
 6.4679270971e-001	 3.1594753030e+000	 1.0256319572e+000
 6.1679607131e-001	 3.1654679917e+000	 7.5060221510e-001
 5.8683084403e-001	 3.1711598131e+000	-7.2044674696e-001
 8.9426419823e-001	 3.1245466141e+000	-3.4612386390e-002
 8.6393750537e-001	 3.1330675043e+000	 1.1342290928e-001
 8.3360737744e-001	 3.1412734265e+000	 2.7464512312e-001
 8.0327837781e-001	 3.1491655796e+000	 4.4076614463e-001
 7.7295502237e-001	 3.1567452436e+000	 6.0765643360e-001
 7.4264177780e-001	 3.1640137784e+000	 7.7141844310e-001
 7.1234306010e-001	 3.1709726212e+000	 9.2838183319e-001
 6.8206323302e-001	 3.1776232857e+000	 1.0750983825e+000
 6.5180660668e-001	 3.1839673596e+000	 1.2083366220e+000
 6.2157743620e-001	 3.1900065032e+000	 1.1378643499e+000
 5.9137992034e-001	 3.1957424473e+000	-4.5649992874e-001
 5.4588915724e-001	 2.9499161052e+000	-5.1599934538e-001
 5.1804756952e-001	 2.9549326076e+000	-2.0314422269e-001
 4.9024279252e-001	 2.9596726178e+000	 6.2401705140e-002
 4.6247853940e-001	 2.9641379186e+000	 2.8363655454e-001
 4.3475846709e-001	 2.9683303514e+000	 4.6370661300e-001
 4.0708617535e-001	 2.9722518140e+000	 6.0589599539e-001
 3.7946520596e-001	 2.9759042588e+000	 7.1361629474e-001
 3.5189904187e-001	 2.9792896912e+000	 7.9039625156e-001
 3.2439110650e-001	 2.9824101680e+000	 8.3987146482e-001
 2.9694476301e-001	 2.9852677950e+000	 8.6577416685e-001
 2.6956331372e-001	 2.9878647258e+000	 8.7192308354e-001
 5.5043823355e-001	 2.9744987394e+000	-7.5913806900e-001
 5.2236463260e-001	 2.9795570460e+000	-4.4329777765e-001
 4.9432814913e-001	 2.9843365562e+000	-1.7714950112e-001
 4.6633252723e-001	 2.9888390679e+000	 4.2386208242e-002
 4.3838145432e-001	 2.9930664377e+000	 2.1854106978e-001
 4.1047856015e-001	 2.9970205791e+000	 3.5468846300e-001
 3.8262741601e-001	 3.0007034609e+000	 4.5433281018e-001
 3.5483153389e-001	 3.0041171053e+000	 5.2109897776e-001
 3.2709436572e-001	 3.0072635860e+000	 5.5872172015e-001
 2.9941930270e-001	 3.0101450266e+000	 5.7103518907e-001
 2.7180967467e-001	 3.0127635985e+000	 5.6196253004e-001
 5.5498730986e-001	 2.9990813737e+000	-9.5975718831e-001
 5.2668169568e-001	 3.0041814844e+000	-6.4428714789e-001
 4.9841350573e-001	 3.0090004947e+000	-3.8101831834e-001
 4.7018651506e-001	 3.0135402172e+000	-1.6678638157e-001
 4.4200444154e-001	 3.0178025240e+000	 1.7294468427e-003
 4.1387094494e-001	 3.0217893442e+000	 1.2799553156e-001
 3.8578962606e-001	 3.0255026631e+000	 2.1561292507e-001
 3.5776402590e-001	 3.0289445194e+000	 2.6830649446e-001
 3.2979762494e-001	 3.0321170041e+000	 2.8991409144e-001
 3.0189384239e-001	 3.0350222582e+000	 2.8437578938e-001
 2.7405603562e-001	 3.0376624713e+000	 2.5572320958e-001
 5.5953638617e-001	 3.0236640079e+000	-1.1166950177e+000
 5.3099875876e-001	 3.0288059228e+000	-8.0498467364e-001
 5.0249886233e-001	 3.0336644332e+000	-5.4811181183e-001
 4.7404050289e-001	 3.0382413666e+000	-3.4282367590e-001
 4.4562742877e-001	 3.0425386102e+000	-1.8570675391e-001
 4.1726332974e-001	 3.0465581093e+000	-7.3197945844e-002
 3.8895183611e-001	 3.0503018652e+000	-1.5957378000e-003
 3.6069651792e-001	 3.0537719335e+000	 3.2928643328e-002
 3.3250088416e-001	 3.0569704222e+000	 3.4320119424e-002
 3.0436838209e-001	 3.0598994898e+000	 6.6287191508e-003
 2.7630239656e-001	 3.0625613440e+000	-4.6001372600e-002
 5.6408546248e-001	 3.0482466421e+000	-1.2287912184e+000
 5.3531582184e-001	 3.0534303612e+000	-9.2426444448e-001
 5.0658421894e-001	 3.0583283717e+000	-6.7733921626e-001
 4.7789449072e-001	 3.0629425159e+000	-4.8467074245e-001
 4.4925041599e-001	 3.0672746965e+000	-3.4274909162e-001
 4.2065571453e-001	 3.0713268744e+000	-2.4791064817e-001
 3.9211404616e-001	 3.0751010674e+000	-1.9634957502e-001
 3.6362900993e-001	 3.0785993476e+000	-1.8412925664e-001
 3.3520414338e-001	 3.0818238402e+000	-2.0719369675e-001
 3.0684292178e-001	 3.0847767215e+000	-2.6137884602e-001
 2.7854875751e-001	 3.0874602167e+000	-3.4242383615e-001
 5.6863453879e-001	 3.0728292763e+000	-1.2948867451e+000
 5.3963288491e-001	 3.0780547996e+000	-1.0010022294e+000
 5.1066957554e-001	 3.0829923102e+000	-7.6761184887e-001
 4.8174847854e-001	 3.0876436652e+000	-5.9127515133e-001
 4.5287340322e-001	 3.0920107827e+000	-4.6838206407e-001
 4.2404809933e-001	 3.0960956396e+000	-3.9516464518e-001
 3.9527625621e-001	 3.0999002695e+000	-3.6770884179e-001
 3.6656150195e-001	 3.1034267617e+000	-3.8196622823e-001
 3.3790740260e-001	 3.1066772583e+000	-4.3376569786e-001
 3.0931746147e-001	 3.1096539531e+000	-5.1882508327e-001
 2.8079511845e-001	 3.1123590894e+000	-6.3276268056e-001
 5.7318361510e-001	 3.0974119105e+000	-1.3138237941e+000
 5.4394994799e-001	 3.1026792380e+000	-1.0340754100e+000
 5.1475493214e-001	 3.1076562486e+000	-8.1784302684e-001
 4.8560246637e-001	 3.1123448145e+000	-6.6158687581e-001
 4.5649639044e-001	 3.1167468690e+000	-5.6159299100e-001
 4.2744048412e-001	 3.1208644047e+000	-5.1398526282e-001
 3.9843846626e-001	 3.1246994717e+000	-5.1473749878e-001
 3.6949399396e-001	 3.1282541758e+000	-5.0455785963e-001
 3.4061066182e-001	 3.1315306764e+000	-5.2321546710e-001
 3.1179200116e-001	 3.1345311847e+000	-5.7023848048e-001
 2.8304147940e-001	 3.1372579621e+000	-6.4080882414e-001
 5.7773269141e-001	 3.1219945447e+000	-1.2844457545e+000
 5.4826701107e-001	 3.1273036764e+000	-9.9773719181e-001
 5.1884028875e-001	 3.1323201871e+000	-7.4591454876e-001
 4.8945645420e-001	 3.1370459638e+000	-5.5354862056e-001
 4.6011937766e-001	 3.1414829553e+000	-4.1383928199e-001
 4.3083286891e-001	 3.1456331698e+000	-3.2037875118e-001
 4.0160067630e-001	 3.1494986739e+000	-2.6713819810e-001
 3.7242648597e-001	 3.1530815899e+000	-2.4845414783e-001
 3.4331392104e-001	 3.1563840944e+000	-2.5901472269e-001
 3.1426654084e-001	 3.1594084163e+000	-2.9384576598e-001
 2.8528784035e-001	 3.1621568348e+000	-3.4829688842e-001
 5.8228176772e-001	 3.1465771789e+000	-1.0078625497e+000
 5.5258407415e-001	 3.1519281148e+000	-7.1092075387e-001
 5.2292564535e-001	 3.1569841256e+000	-4.7542997222e-001
 4.9331044202e-001	 3.1617471132e+000	-2.9430451773e-001
 4.6374236489e-001	 3.1662190415e+000	-1.6087364675e-001
 4.3422525370e-001	 3.1704019349e+000	-6.8867834105e-002
 4.0476288635e-001	 3.1742978760e+000	-1.2404798292e-002
 3.7535897799e-001	 3.1779090040e+000	 1.4024676361e-002
 3.4601718025e-001	 3.1812375125e+000	 1.5571075368e-002
 3.1674108053e-001	 3.1842856480e+000	-2.9593964012e-003
 2.8753420129e-001	 3.1870557075e+000	-3.7090293631e-002
 5.8683084403e-001	 3.1711598131e+000	-7.2044674696e-001
 5.5690113723e-001	 3.1765525532e+000	-4.4177444481e-001
 5.2701100195e-001	 3.1816480641e+000	-2.1919891377e-001
 4.9716442985e-001	 3.1864482625e+000	-4.5760156215e-002
 4.6736535211e-001	 3.1909551278e+000	 8.5077302986e-002
 4.3761763849e-001	 3.1951707000e+000	 1.7943873744e-001
 4.0792509639e-001	 3.1990970782e+000	 2.4305378908e-001
 3.7829147000e-001	 3.2027364181e+000	 2.8127123896e-001
 3.4872043947e-001	 3.2060909306e+000	 2.9907393221e-001
 3.1921562022e-001	 3.2091628796e+000	 3.0109381227e-001
 2.8978056223e-001	 3.2119545803e+000	 2.9162702067e-001
 5.9137992034e-001	 3.1957424473e+000	-4.5649992874e-001
 5.6121820030e-001	 3.2011769916e+000	-1.9269980914e-001
 5.3109635855e-001	 3.2063120026e+000	 2.0503204714e-002
 5.0101841767e-001	 3.2111494118e+000	 1.8993755596e-001
 4.7098833933e-001	 3.2156912140e+000	 3.2199746531e-001
 4.4101002328e-001	 3.2199394651e+000	 4.2265786009e-001
 4.1108730644e-001	 3.2238962803e+000	 4.9748955119e-001
 3.8122396201e-001	 3.2275638322e+000	 5.5167460860e-001
 3.5142369869e-001	 3.2309443486e+000	 5.9002188743e-001
 3.2169015991e-001	 3.2340401112e+000	 6.1698265833e-001
 2.9202692318e-001	 3.2368534530e+000	 6.3666629733e-001
 2.6956331372e-001	 2.9878647258e+000	 8.7192308354e-001
 2.4224999949e-001	 2.9902031599e+000	 9.5817416802e-001
 2.1500799923e-001	 2.9922853407e+000	 1.0326503847e+000
 1.8784042942e-001	 2.9941135538e+000	 1.0997616128e+000
 1.6075034369e-001	 2.9956901253e+000	 1.1639560888e+000
 1.3374073246e-001	 2.9970174201e+000	 1.2297108226e+000
 1.0681452267e-001	 2.9980978399e+000	 1.3015222199e+000
 7.9974577449e-002	 2.9989338217e+000	 1.3838969280e+000
 5.3223695962e-002	 2.9995278359e+000	 1.4813429152e+000
 2.6564613226e-002	 2.9998823846e+000	 1.5983607977e+000
 0.0000000000e+000	 3.0000000000e+000	 1.7394354244e+000
 2.7180967467e-001	 3.0127635985e+000	 5.6196253004e-001
 2.4426874949e-001	 3.0151215196e+000	 6.4280874908e-001
 2.1679973256e-001	 3.0172210519e+000	 7.0915144288e-001
 1.8940576633e-001	 3.0190645001e+000	 7.6542015865e-001
 1.6208992988e-001	 3.0206542097e+000	 8.1608721824e-001
 1.3485523857e-001	 3.0219925653e+000	 8.6565790314e-001
 1.0770464369e-001	 3.0230819886e+000	 9.1866084800e-001
 8.0641032261e-002	 3.0239249369e+000	 9.7963865733e-001
 5.3667226761e-002	 3.0245239012e+000	 1.0531387590e+000
 2.6785985003e-002	 3.0248814045e+000	 1.1437045069e+000
 0.0000000000e+000	 3.0250000000e+000	 1.2558665443e+000
 2.7405603562e-001	 3.0376624713e+000	 2.5572320958e-001
 2.4628749948e-001	 3.0400398793e+000	 3.2319150110e-001
 2.1859146589e-001	 3.0421567631e+000	 3.7337217401e-001
 1.9097110324e-001	 3.0440154464e+000	 4.1071965497e-001
 1.6342951608e-001	 3.0456182941e+000	 4.3973555679e-001
 1.3596974467e-001	 3.0469677104e+000	 4.6495862655e-001
 1.0859476471e-001	 3.0480661373e+000	 4.9095490339e-001
 8.1307487072e-002	 3.0489160521e+000	 5.2230810113e-001
 5.4110757560e-002	 3.0495199665e+000	 5.6361022962e-001
 2.7007356780e-002	 3.0498804243e+000	 6.1945246784e-001
 0.0000000000e+000	 3.0500000000e+000	 6.9441630046e-001
 2.7630239656e-001	 3.0625613440e+000	-4.6001372600e-002
 2.4830624948e-001	 3.0649582389e+000	 1.6218539838e-004
 2.2038319921e-001	 3.0670924742e+000	 2.6197419121e-002
 1.9253644015e-001	 3.0689663926e+000	 3.6588853206e-002
 1.6476910228e-001	 3.0705823785e+000	 3.5872605078e-002
 1.3708425077e-001	 3.0719428556e+000	 2.8626089996e-002
 1.0948488573e-001	 3.0730502859e+000	 1.9457937060e-002
 8.1973941883e-002	 3.0739071672e+000	 1.2998131787e-002
 5.4554288360e-002	 3.0745160318e+000	 1.3888399692e-002
 2.7228728556e-002	 3.0748794442e+000	 2.6772844212e-002
 0.0000000000e+000	 3.0750000000e+000	 5.6288851184e-002
 2.7854875751e-001	 3.0874602167e+000	-3.4242383615e-001
 2.5032499947e-001	 3.0898765986e+000	-3.2544889705e-001
 2.2217493254e-001	 3.0920281854e+000	-3.3150076541e-001
 1.9410177707e-001	 3.0939173389e+000	-3.5605959190e-001
 1.6610868847e-001	 3.0955464628e+000	-3.9454953171e-001
 1.3819875688e-001	 3.0969180008e+000	-4.4234928882e-001
 1.1037500676e-001	 3.0980344346e+000	-4.9480244796e-001
 8.2640396694e-002	 3.0988982824e+000	-5.4722757792e-001
 5.4997819159e-002	 3.0995120971e+000	-5.9492809158e-001
 2.7450100333e-002	 3.0998784641e+000	-6.3320184868e-001
 0.0000000000e+000	 3.1000000000e+000	-6.5735048887e-001
 2.8079511845e-001	 3.1123590894e+000	-6.3276268056e-001
 2.5234374947e-001	 3.1147949583e+000	-6.5282052714e-001
 2.2396666586e-001	 3.1169638966e+000	-6.9886259648e-001
 1.9566711398e-001	 3.1188682852e+000	-7.6632847848e-001
 1.6744827467e-001	 3.1205105472e+000	-8.5059736794e-001
 1.3931326298e-001	 3.1218931460e+000	-9.4699886451e-001
 1.1126512778e-001	 3.1230185833e+000	-1.0508235586e+000
 8.3306851506e-002	 3.1238893976e+000	-1.1573333868e+000
 5.5441349958e-002	 3.1245081624e+000	-1.2617717411e+000
 2.7671472109e-002	 3.1248774839e+000	-1.3593733182e+000
 0.0000000000e+000	 3.1250000000e+000	-1.4453736952e+000
 2.8304147940e-001	 3.1372579621e+000	-6.4080882414e-001
 2.5436249946e-001	 3.1397133179e+000	-6.1756524990e-001
 2.2575839919e-001	 3.1418996077e+000	-6.1641369142e-001
 1.9723245089e-001	 3.1438192315e+000	-6.3354674554e-001
 1.6878786087e-001	 3.1454746316e+000	-6.6541283713e-001
 1.4042776908e-001	 3.1468682911e+000	-7.0870301962e-001
 1.1215524880e-001	 3.1480027319e+000	-7.6033790727e-001
 8.3973306317e-002	 3.1488805128e+000	-8.1745476752e-001
 5.5884880757e-002	 3.1495042277e+000	-8.7739479965e-001
 2.7892843886e-002	 3.1498765038e+000	-9.3769062463e-001
 0.0000000000e+000	 3.1500000000e+000	-9.9605400894e-001
 2.8528784035e-001	 3.1621568348e+000	-3.4829688842e-001
 2.5638124945e-001	 3.1646316776e+000	-3.1374050470e-001
 2.2755013251e-001	 3.1668353189e+000	-2.9883002899e-001
 1.9879778780e-001	 3.1687701778e+000	-3.0002516911e-001
 1.7012744706e-001	 3.1704387160e+000	-3.1404250466e-001
 1.4154227518e-001	 3.1718434363e+000	-3.3784175841e-001
 1.1304536982e-001	 3.1729868806e+000	-3.6861221417e-001
 8.4639761128e-002	 3.1738716280e+000	-4.0375930997e-001
 5.6328411556e-002	 3.1745002930e+000	-4.4089143348e-001
 2.8114215663e-002	 3.1748755237e+000	-4.7780694506e-001
 0.0000000000e+000	 3.1750000000e+000	-5.1248145159e-001
 2.8753420129e-001	 3.1870557075e+000	-3.7090293631e-002
 2.5839999945e-001	 3.1895500373e+000	 1.0019121161e-002
 2.2934186584e-001	 3.1917710301e+000	 4.0036297920e-002
 2.0036312471e-001	 3.1937211241e+000	 5.6228967203e-002
 1.7146703326e-001	 3.1954028003e+000	 6.1606906472e-002
 1.4265678129e-001	 3.1968185815e+000	 5.8936207628e-002
 1.1393549084e-001	 3.1979710292e+000	 5.0753383161e-002
 8.5306215939e-002	 3.1988627432e+000	 3.9379281435e-002
 5.6771942355e-002	 3.1994963583e+000	 2.6932783487e-002
 2.8335587439e-002	 3.1998745436e+000	 1.5344255628e-002
 0.0000000000e+000	 3.2000000000e+000	 6.3687339983e-003
 2.8978056223e-001	 3.2119545803e+000	 2.9162702067e-001
 2.6041874944e-001	 3.2144683969e+000	 3.5274501775e-001
 2.3113359916e-001	 3.2167067413e+000	 3.9943285605e-001
 2.0192846161e-001	 3.2186720703e+000	 4.3468013114e-001
 1.7280661945e-001	 3.2203668847e+000	 4.6121736758e-001
 1.4377128739e-001	 3.2217937266e+000	 4.8153083533e-001
 1.1482561186e-001	 3.2229551779e+000	 4.9787718961e-001
 8.5972670750e-002	 3.2238538583e+000	 5.1229790401e-001
 5.7215473154e-002	 3.2244924236e+000	 5.2663346870e-001
 2.8556959216e-002	 3.2248735634e+000	 5.4253732754e-001
 0.0000000000e+000	 3.2250000000e+000	 5.6148952954e-001
 2.9202692318e-001	 3.2368534530e+000	 6.3666629733e-001
 2.6243749943e-001	 3.2393867566e+000	 7.1346113395e-001
 2.3292533249e-001	 3.2416424524e+000	 7.7859715614e-001
 2.0349379852e-001	 3.2436230166e+000	 8.3478012927e-001
 1.7414620565e-001	 3.2453309691e+000	 8.8445559420e-001
 1.4488579349e-001	 3.2467688718e+000	 9.2982424261e-001
 1.1571573288e-001	 3.2479393266e+000	 9.7285710028e-001
 8.6639125561e-002	 3.2488449735e+000	 1.0153104876e+000
 5.7659003953e-002	 3.2494884889e+000	 1.0587407285e+000
 2.8778330992e-002	 3.2498725833e+000	 1.1045185808e+000
 0.0000000000e+000	 3.2500000000e+000	 1.1538433634e+000
 3.2500000000e+000	 0.0000000000e+000	 2.5737763859e+000
 3.2498725833e+000	 2.8778330992e-002	 2.5249927689e+000
 3.2494884889e+000	 5.7659003953e-002	 2.4495379148e+000
 3.2488449735e+000	 8.6639125561e-002	 2.3522389146e+000
 3.2479393266e+000	 1.1571573288e-001	 2.2378928203e+000
 3.2467688718e+000	 1.4488579349e-001	 2.1112674293e+000
 3.2453309691e+000	 1.7414620565e-001	 1.9771024068e+000
 3.2436230166e+000	 2.0349379852e-001	 1.8401107533e+000
 3.2416424524e+000	 2.3292533249e-001	 1.7049806235e+000
 3.2393867566e+000	 2.6243749943e-001	 1.5763775009e+000
 3.2368534530e+000	 2.9202692318e-001	 1.4589467322e+000
 3.2750000000e+000	 0.0000000000e+000	 2.3256293424e+000
 3.2748716032e+000	 2.8999702769e-002	 2.2986536903e+000
 3.2744845542e+000	 5.8102534752e-002	 2.2465362739e+000
 3.2738360887e+000	 8.7305580372e-002	 2.1738252721e+000
 3.2729234752e+000	 1.1660585390e-001	 2.0850297287e+000
 3.2717440170e+000	 1.4600029959e-001	 1.9846205426e+000
 3.2702950535e+000	 1.7548579184e-001	 1.8770318193e+000
 3.2685739629e+000	 2.0505913543e-001	 1.7666625891e+000
 3.2665781636e+000	 2.3471706581e-001	 1.6578789011e+000
 3.2643051163e+000	 2.6445624942e-001	 1.5550162948e+000
 3.2617523257e+000	 2.9427328412e-001	 1.4623826559e+000
 3.3000000000e+000	 0.0000000000e+000	 2.0942469725e+000
 3.2998706230e+000	 2.9221074545e-002	 2.0852458050e+000
 3.2994806195e+000	 5.8546065551e-002	 2.0527179661e+000
 3.2988272039e+000	 8.7972035183e-002	 2.0009316413e+000
 3.2979076239e+000	 1.1749597492e-001	 1.9341066614e+000
 3.2967191621e+000	 1.4711480569e-001	 1.8564156997e+000
 3.2952591379e+000	 1.7682537804e-001	 1.7719858528e+000
 3.2935249092e+000	 2.0662447234e-001	 1.6849006125e+000
 3.2915138748e+000	 2.3650879913e-001	 1.5992022345e+000
 3.2892234759e+000	 2.6647499942e-001	 1.5188945108e+000
 3.2866511984e+000	 2.9651964507e-001	 1.4479459481e+000
 3.3250000000e+000	 0.0000000000e+000	 1.8778186911e+000
 3.3248696429e+000	 2.9442446322e-002	 1.8832171888e+000
 3.3244766848e+000	 5.8989596350e-002	 1.8667907385e+000
 3.3238183191e+000	 8.8638489994e-002	 1.8325263383e+000
 3.3228917726e+000	 1.1838609594e-001	 1.7843532852e+000
 3.3216943073e+000	 1.4822931180e-001	 1.7261445810e+000
 3.3202232222e+000	 1.7816496423e-001	 1.6617187434e+000
 3.3184758555e+000	 2.0818980925e-001	 1.5948420323e+000
 3.3164495860e+000	 2.3830053246e-001	 1.5292310965e+000
 3.3141418356e+000	 2.6849374941e-001	 1.4685560472e+000
 3.3115500711e+000	 2.9876600601e-001	 1.4164439623e+000
 3.3500000000e+000	 0.0000000000e+000	 1.6745879606e+000
 3.3498686628e+000	 2.9663818098e-002	 1.6910654561e+000
 3.3494727501e+000	 5.9433127149e-002	 1.6875073710e+000
 3.3488094342e+000	 8.9304944806e-002	 1.6676182101e+000
 3.3478759212e+000	 1.1927621697e-001	 1.6350353021e+000
 3.3466694525e+000	 1.4934381790e-001	 1.5933304141e+000
 3.3451873066e+000	 1.7950455043e-001	 1.5460117955e+000
 3.3434268017e+000	 2.0975514616e-001	 1.4965266589e+000
 3.3413852971e+000	 2.4009226578e-001	 1.4482641074e+000
 3.3390601953e+000	 2.7051249940e-001	 1.4045585110e+000
 3.3364489438e+000	 3.0101236695e-001	 1.3686933390e+000
 3.3750000000e+000	 0.0000000000e+000	 1.4828502889e+000
 3.3748676827e+000	 2.9885189875e-002	 1.5073359253e+000
 3.3744688154e+000	 5.9876657948e-002	 1.5136640081e+000
 3.3738005494e+000	 8.9971399617e-002	 1.5052551332e+000
 3.3728600699e+000	 1.2016633799e-001	 1.4854531141e+000
 3.3716445976e+000	 1.5045832400e-001	 1.4575268053e+000
 3.3701513910e+000	 1.8084413662e-001	 1.4246723796e+000
 3.3683777480e+000	 2.1132048307e-001	 1.3900160671e+000
 3.3663210083e+000	 2.4188399911e-001	 1.3566173630e+000
 3.3639785549e+000	 2.7253124940e-001	 1.3274727101e+000
 3.3613478166e+000	 3.0325872790e-001	 1.3055196620e+000
 3.4000000000e+000	 0.0000000000e+000	 1.3009513158e+000
 3.3998667025e+000	 3.0106561652e-002	 1.3306198650e+000
 3.3994648807e+000	 6.0320188747e-002	 1.3440985649e+000
 3.3987916646e+000	 9.0637854428e-002	 1.3445225794e+000
 3.3978442186e+000	 1.2105645901e-001	 1.3349405484e+000
 3.3966197428e+000	 1.5157283010e-001	 1.3183166223e+000
 3.3951154754e+000	 1.8218372282e-001	 1.2975329737e+000
 3.3933286943e+000	 2.1288581998e-001	 1.2753927956e+000
 3.3912567195e+000	 2.4367573243e-001	 1.2546237918e+000
 3.3888969146e+000	 2.7454999939e-001	 1.2378821684e+000
 3.3862466893e+000	 3.0550508885e-001	 1.2277571293e+000
 3.4250000000e+000	 0.0000000000e+000	 1.1272849840e+000
 3.4248657224e+000	 3.0327933428e-002	 1.1595528171e+000
 3.4244609460e+000	 6.0763719546e-002	 1.1776892027e+000
 3.4237827798e+000	 9.1304309239e-002	 1.1845422429e+000
 3.4228283672e+000	 1.2194658003e-001	 1.1828636367e+000
 3.4215948880e+000	 1.5268733621e-001	 1.1753109268e+000
 3.4200795598e+000	 1.8352330902e-001	 1.1644502474e+000
 3.4182796406e+000	 2.1445115689e-001	 1.1527595823e+000
 3.4161924307e+000	 2.4546746576e-001	 1.1426325412e+000
 3.4138152743e+000	 2.7656874939e-001	 1.1363826615e+000
 3.4111455620e+000	 3.0775144979e-001	 1.1362482388e+000
 3.4500000000e+000	 0.0000000000e+000	 9.6029178829e-001
 3.4498647423e+000	 3.0549305205e-002	 9.9281299231e-001
 3.4494570113e+000	 6.1207250346e-002	 1.0133528706e+000
 3.4487738950e+000	 9.1970764051e-002	 1.0244707282e+000
 3.4478125159e+000	 1.2283670105e-001	 1.0286194486e+000
 3.4465700331e+000	 1.5380184231e-001	 1.0281479528e+000
 3.4450436441e+000	 1.8486289521e-001	 1.0253041848e+000
 3.4432305869e+000	 2.1601649380e-001	 1.0222386321e+000
 3.4411281418e+000	 2.4725919909e-001	 1.0210083894e+000
 3.4387336339e+000	 2.7858749938e-001	 1.0235817725e+000
 3.4360444347e+000	 3.0999781074e-001	 1.0318434877e+000
 3.4750000000e+000	 0.0000000000e+000	 7.9845710134e-001
 3.4748637621e+000	 3.0770676981e-002	 8.2911973569e-001
 3.4744530766e+000	 6.1650781145e-002	 8.5004391024e-001
 3.4737650101e+000	 9.2637218862e-002	 8.6349829472e-001
 3.4727966646e+000	 1.2372682207e-001	 8.7163497549e-001
 3.4715451783e+000	 1.5491634841e-001	 8.7649212910e-001
 3.4700077285e+000	 1.8620248141e-001	 8.7999724643e-001
 3.4681815332e+000	 2.1758183071e-001	 8.8397091723e-001
 3.4660638530e+000	 2.4905093241e-001	 8.9013118335e-001
 3.4636519936e+000	 2.8060624938e-001	 9.0009846779e-001
 3.4609433074e+000	 3.1224417169e-001	 9.1540108476e-001
 3.5000000000e+000	 0.0000000000e+000	 6.4030957095e-001
 3.4998627820e+000	 3.0992048758e-002	 6.6723205736e-001
 3.4994491419e+000	 6.2094311944e-002	 6.8675272055e-001
 3.4987561253e+000	 9.3303673673e-002	 7.0084765416e-001
 3.4977808132e+000	 1.2461694309e-001	 7.1136606136e-001
 3.4965203235e+000	 1.5603085452e-001	 7.2003314376e-001
 3.4949718129e+000	 1.8754206761e-001	 7.2845356603e-001
 3.4931324794e+000	 2.1914716763e-001	 7.3811550617e-001
 3.4909995642e+000	 2.5084266574e-001	 7.5039530047e-001
 3.4885703533e+000	 2.8262499937e-001	 7.6656269005e-001
 3.4858421801e+000	 3.1449053264e-001	 7.8778667466e-001
 3.2368534530e+000	 2.9202692318e-001	 1.4589467322e+000
 3.2340401112e+000	 3.2169015991e-001	 1.3133311642e+000
 3.2309443486e+000	 3.5142369869e-001	 1.1881146610e+000
 3.2275638322e+000	 3.8122396201e-001	 1.0880687451e+000
 3.2238962803e+000	 4.1108730644e-001	 1.0179610012e+000
 3.2199394651e+000	 4.4101002328e-001	 9.8255930865e-001
 3.2156912140e+000	 4.7098833933e-001	 9.8663642398e-001
 3.2111494118e+000	 5.0101841767e-001	 1.0349749092e+000
 3.2063120026e+000	 5.3109635855e-001	 1.1323723983e+000
 3.2011769916e+000	 5.6121820030e-001	 1.2836471929e+000
 3.1957424473e+000	 5.9137992034e-001	 1.4936441781e+000
 3.2617523257e+000	 2.9427328412e-001	 1.4623826559e+000
 3.2589173428e+000	 3.2416469960e-001	 1.3440493066e+000
 3.2557977667e+000	 3.5412695790e-001	 1.2430926271e+000
 3.2523912463e+000	 3.8415645402e-001	 1.1638859025e+000
 3.2486954825e+000	 4.1424951648e-001	 1.1107929144e+000
 3.2447082303e+000	 4.4440240807e-001	 1.0881726593e+000
 3.2404273003e+000	 4.7461132655e-001	 1.1003844405e+000
 3.2358505611e+000	 5.0487240550e-001	 1.1517933296e+000
 3.2309759410e+000	 5.3518171515e-001	 1.2467759884e+000
 3.2258014300e+000	 5.6553526338e-001	 1.3897268428e+000
 3.2203250815e+000	 5.9592899665e-001	 1.5850645990e+000
 3.2866511984e+000	 2.9651964507e-001	 1.4479459481e+000
 3.2837945745e+000	 3.2663923928e-001	 1.3530168592e+000
 3.2806511848e+000	 3.5683021712e-001	 1.2725297175e+000
 3.2772186604e+000	 3.8708894603e-001	 1.2104578324e+000
 3.2734946847e+000	 4.1741172653e-001	 1.1707593388e+000
 3.2694769954e+000	 4.4779479286e-001	 1.1573824048e+000
 3.2651633866e+000	 4.7823431377e-001	 1.1742708367e+000
 3.2605517105e+000	 5.0872639332e-001	 1.2253700772e+000
 3.2556398795e+000	 5.3926707176e-001	 1.3146335868e+000
 3.2504258684e+000	 5.6985232646e-001	 1.4460296011e+000
 3.2449077157e+000	 6.0047807296e-001	 1.6235482509e+000
 3.3115500711e+000	 2.9876600601e-001	 1.4164439623e+000
 3.3086718061e+000	 3.2911377897e-001	 1.3413234167e+000
 3.3055046028e+000	 3.5953347634e-001	 1.2777971153e+000
 3.3020460744e+000	 3.9002143804e-001	 1.2294365036e+000
 3.2982938868e+000	 4.2057393658e-001	 1.1997920743e+000
 3.2942457605e+000	 4.5118717765e-001	 1.1923990675e+000
 3.2898994728e+000	 4.8185730100e-001	 1.2107835928e+000
 3.2852528598e+000	 5.1258038115e-001	 1.2584691677e+000
 3.2803038180e+000	 5.4335242836e-001	 1.3389836636e+000
 3.2750503068e+000	 5.7416938954e-001	 1.4558666502e+000
 3.2694903500e+000	 6.0502714927e-001	 1.6126771248e+000
 3.3364489438e+000	 3.0101236695e-001	 1.3686933390e+000
 3.3335490377e+000	 3.3158831866e-001	 1.3100628939e+000
 3.3303580209e+000	 3.6223673555e-001	 1.2602653903e+000
 3.3268734885e+000	 3.9295393006e-001	 1.2224683737e+000
 3.3230930890e+000	 4.2373614662e-001	 1.1998125493e+000
 3.3190145256e+000	 4.5457956245e-001	 1.1954179780e+000
 3.3146355591e+000	 4.8548028822e-001	 1.2123907194e+000
 3.3099540091e+000	 5.1643436897e-001	 1.2538299144e+000
 3.3049677565e+000	 5.4743778496e-001	 1.3228353006e+000
 3.2996747452e+000	 5.7848645261e-001	 1.4225151477e+000
 3.2940729842e+000	 6.0957622558e-001	 1.5559946021e+000
 3.3613478166e+000	 3.0325872790e-001	 1.3055196620e+000
 3.3584262693e+000	 3.3406285835e-001	 1.2603333661e+000
 3.3552114390e+000	 3.6493999477e-001	 1.2213045220e+000
 3.3517009026e+000	 3.9588642207e-001	 1.1911945934e+000
 3.3478922911e+000	 4.2689835667e-001	 1.1727322052e+000
 3.3437832907e+000	 4.5797194724e-001	 1.1686198383e+000
 3.3393716454e+000	 4.8910327544e-001	 1.1815409974e+000
 3.3346551584e+000	 5.2028835680e-001	 1.2141678431e+000
 3.3296316950e+000	 5.5152314156e-001	 1.2691692793e+000
 3.3242991836e+000	 5.8280351569e-001	 1.3492194864e+000
 3.3186556184e+000	 6.1412530188e-001	 1.4570068848e+000
 3.3862466893e+000	 3.0550508885e-001	 1.2277571293e+000
 3.3833035010e+000	 3.3653739804e-001	 1.1932369161e+000
 3.3800648570e+000	 3.6764325399e-001	 1.1622839211e+000
 3.3765283167e+000	 3.9881891408e-001	 1.1372512014e+000
 3.3726914933e+000	 4.3006056672e-001	 1.1204528630e+000
 3.3685520559e+000	 4.6136433203e-001	 1.1141712587e+000
 3.3641077316e+000	 4.9272626267e-001	 1.1206646849e+000
 3.3593563078e+000	 5.2414234463e-001	 1.1421755664e+000
 3.3542956335e+000	 5.5560849817e-001	 1.1809391220e+000
 3.3489236220e+000	 5.8712057877e-001	 1.2391924990e+000
 3.3432382526e+000	 6.1867437819e-001	 1.3191843619e+000
 3.4111455620e+000	 3.0775144979e-001	 1.1362482388e+000
 3.4081807326e+000	 3.3901193773e-001	 1.1098794878e+000
 3.4049182751e+000	 3.7034651321e-001	 1.0845724505e+000
 3.4013557308e+000	 4.0175140610e-001	 1.0622693111e+000
 3.3974906954e+000	 4.3322277677e-001	 1.0448670747e+000
 3.3933208210e+000	 4.6475671683e-001	 1.0342252731e+000
 3.3888438179e+000	 4.9634924989e-001	 1.0321741931e+000
 3.3840574571e+000	 5.2799633246e-001	 1.0405236203e+000
 3.3789595719e+000	 5.5969385477e-001	 1.0610720862e+000
 3.3735480604e+000	 5.9143764185e-001	 1.0956166098e+000
 3.3678208868e+000	 6.2322345450e-001	 1.1459629171e+000
 3.4360444347e+000	 3.0999781074e-001	 1.0318434877e+000
 3.4330579642e+000	 3.4148647742e-001	 1.0113707466e+000
 3.4297716932e+000	 3.7304977243e-001	 9.8953844516e-001
 3.4261831449e+000	 4.0468389811e-001	 9.6787528902e-001
 3.4222898976e+000	 4.3638498682e-001	 9.4785845934e-001
 3.4180895861e+000	 4.6814910162e-001	 9.3092183005e-001
 3.4135799042e+000	 4.9997223712e-001	 9.1846473305e-001
 3.4087586064e+000	 5.3185032028e-001	 9.1186126372e-001
 3.4036235104e+000	 5.6377921137e-001	 9.1247011631e-001
 3.3981724988e+000	 5.9575470493e-001	 9.2164493677e-001
 3.3924035210e+000	 6.2777253081e-001	 1.0633335677e+000
 3.4609433074e+000	 3.1224417169e-001	 9.1540108476e-001
 3.4579351959e+000	 3.4396101711e-001	 8.9882394501e-001
 3.4546251112e+000	 3.7575303165e-001	 8.7854973076e-001
 3.4510105590e+000	 4.0761639013e-001	 8.5569092546e-001
 3.4470890998e+000	 4.3954719687e-001	 8.3130202388e-001
 3.4428583512e+000	 4.7154148642e-001	 8.0638826414e-001
 3.4383159904e+000	 5.0359522435e-001	 7.8191493414e-001
 3.4334597557e+000	 5.3570430811e-001	 7.5881724410e-001
 3.4282874489e+000	 5.6786456798e-001	 7.3801075431e-001
 3.4227969372e+000	 6.0007176801e-001	 7.2040234524e-001
 3.4169861552e+000	 6.3232160712e-001	 1.0325433250e+000
 3.4858421801e+000	 3.1449053264e-001	 7.8778667466e-001
 3.4828124275e+000	 3.4643555681e-001	 7.7335579521e-001
 3.4794785293e+000	 3.7845629087e-001	 7.5297364219e-001
 3.4758379731e+000	 4.1054888215e-001	 7.2733359812e-001
 3.4718883019e+000	 4.4270940692e-001	 6.9706447111e-001
 3.4676271163e+000	 4.7493387121e-001	 6.6273974600e-001
 3.4630520767e+000	 5.0721821157e-001	 6.2488743660e-001
 3.4581609051e+000	 5.3955829594e-001	 5.8400052986e-001
 3.4529513874e+000	 5.7194992458e-001	 5.4054801120e-001
 3.4474213756e+000	 6.0438883109e-001	 4.9498645732e-001
 3.4415687894e+000	 6.3687068343e-001	 9.7631266892e-001
 3.1957424473e+000	 5.9137992034e-001	 1.4936441781e+000
 3.1900065032e+000	 6.2157743620e-001	 4.7894862753e-001
 3.1839673596e+000	 6.5180660668e-001	 3.9629688511e-001
 3.1776232857e+000	 6.8206323302e-001	 4.3404874035e-001
 3.1709726212e+000	 7.1234306010e-001	 4.7443036772e-001
 3.1640137784e+000	 7.4264177780e-001	 5.1538971888e-001
 3.1567452436e+000	 7.7295502237e-001	 5.5463361400e-001
 3.1491655796e+000	 8.0327837781e-001	 5.8962328747e-001
 3.1412734265e+000	 8.3360737744e-001	 6.1757034012e-001
 3.1330675043e+000	 8.6393750537e-001	 6.3543312109e-001
 3.1245466141e+000	 8.9426419823e-001	 6.3242576849e-001
 3.2203250815e+000	 5.9592899665e-001	 1.5850645990e+000
 3.2145450148e+000	 6.2635880109e-001	 5.2942403271e-001
 3.2084594163e+000	 6.5682050366e-001	 5.3948898004e-001
 3.2020665418e+000	 6.8730987327e-001	 5.5531662871e-001
 3.1953647183e+000	 7.1782262210e-001	 5.7521027453e-001
 3.1883523459e+000	 7.4835440687e-001	 5.9723288412e-001
 3.1810278994e+000	 7.7890083024e-001	 6.1920201176e-001
 3.1733899302e+000	 8.0945744226e-001	 6.3868510343e-001
 3.1654370683e+000	 8.4001974188e-001	 6.5299521264e-001
 3.1571680236e+000	 8.7058317850e-001	 6.5918715160e-001
 3.1485815881e+000	 9.0114315360e-001	 6.5405410141e-001
 3.2449077157e+000	 6.0047807296e-001	 1.6235482509e+000
 3.2390835264e+000	 6.3114016599e-001	 6.6762210120e-001
 3.2329514729e+000	 6.6183440064e-001	 6.5611505251e-001
 3.2265097978e+000	 6.9255651353e-001	 6.5179939234e-001
 3.2197568154e+000	 7.2330218410e-001	 6.5309755523e-001
 3.2126909134e+000	 7.5406703593e-001	 6.5818746397e-001
 3.2053105551e+000	 7.8484663811e-001	 6.6499719681e-001
 3.1976142808e+000	 8.1563650671e-001	 6.7120004667e-001
 3.1896007100e+000	 8.4643210633e-001	 6.7420999729e-001
 3.1812685429e+000	 8.7722885162e-001	 6.7117764080e-001
 3.1726165620e+000	 9.0802210898e-001	 6.5898656104e-001
 3.2694903500e+000	 6.0502714927e-001	 1.6126771248e+000
 3.2636220379e+000	 6.3592153088e-001	 7.7816371706e-001
 3.2574435295e+000	 6.6684829761e-001	 7.4666389764e-001
 3.2509530539e+000	 6.9780315378e-001	 7.2389638468e-001
 3.2441489125e+000	 7.2878174611e-001	 7.0840288330e-001
 3.2370294809e+000	 7.5977966499e-001	 6.9847625604e-001
 3.2295932108e+000	 7.9079244597e-001	 6.9215493687e-001
 3.2218386314e+000	 8.2181557116e-001	 6.8721774214e-001
 3.2137643518e+000	 8.5284447077e-001	 6.8117910391e-001
 3.2053690621e+000	 8.8387452474e-001	 6.7128475096e-001
 3.1966515360e+000	 9.1490106435e-001	 6.5450786230e-001
 3.2940729842e+000	 6.0957622558e-001	 1.5559946021e+000
 3.2881605495e+000	 6.4070289577e-001	 8.6159131811e-001
 3.2819355861e+000	 6.7186219458e-001	 8.1158989916e-001
 3.2753963099e+000	 7.0304979404e-001	 7.7197466789e-001
 3.2685410096e+000	 7.3426130811e-001	 7.4140677403e-001
 3.2613680485e+000	 7.6549229405e-001	 7.1829404501e-001
 3.2538758665e+000	 7.9673825384e-001	 7.0078514331e-001
 3.2460629820e+000	 8.2799463561e-001	 6.8676412560e-001
 3.2379279935e+000	 8.5925683522e-001	 6.7384543006e-001
 3.2294695814e+000	 8.9052019786e-001	 6.5936931773e-001
 3.2206865099e+000	 9.2178001972e-001	 6.4039779340e-001
 3.3186556184e+000	 6.1412530188e-001	 1.4570068848e+000
 3.3126990611e+000	 6.4548426067e-001	 9.1841217697e-001
 3.3064276427e+000	 6.7687609156e-001	 8.5131430391e-001
 3.2998395660e+000	 7.0829643429e-001	 7.9637020883e-001
 3.2929331067e+000	 7.3974087011e-001	 7.5236070145e-001
 3.2857066160e+000	 7.7120492311e-001	 7.1780864012e-001
 3.2781585222e+000	 8.0268406170e-001	 6.9097282881e-001
 3.2702873326e+000	 8.3417370005e-001	 6.6984232104e-001
 3.2620916352e+000	 8.6566919966e-001	 6.5213115774e-001
 3.2535701007e+000	 8.9716587098e-001	 6.3527356593e-001
 3.2447214839e+000	 9.2865897510e-001	 6.1641964417e-001
 3.3432382526e+000	 6.1867437819e-001	 1.3191843619e+000
 3.3372375726e+000	 6.5026562556e-001	 9.4909969387e-001
 3.3309196993e+000	 6.8188998853e-001	 8.6622644014e-001
 3.3242828220e+000	 7.1354307455e-001	 7.9738902227e-001
 3.3173252037e+000	 7.4522043211e-001	 7.4148816604e-001
 3.3100451835e+000	 7.7691755217e-001	 6.9716186689e-001
 3.3024411780e+000	 8.0862986957e-001	 6.6277902277e-001
 3.2945116833e+000	 8.4035276450e-001	 6.3643347931e-001
 3.2862552770e+000	 8.7208156410e-001	 6.1593851497e-001
 3.2776706199e+000	 9.0381154410e-001	 5.9882179384e-001
 3.2687564578e+000	 9.3553793047e-001	 5.8232081262e-001
 3.3678208868e+000	 6.2322345450e-001	 1.1459629171e+000
 3.3617760842e+000	 6.5504699045e-001	 9.5409463290e-001
 3.3554117559e+000	 6.8690388551e-001	 8.5668488238e-001
 3.3487260780e+000	 7.1878971480e-001	 7.7530826402e-001
 3.3417173008e+000	 7.5069999411e-001	 7.0898571569e-001
 3.3343837511e+000	 7.8263018123e-001	 6.5647051548e-001
 3.3267238337e+000	 8.1457567743e-001	 6.1624164657e-001
 3.3187360339e+000	 8.4653182894e-001	 5.8649758007e-001
 3.3104189187e+000	 8.7849392854e-001	 5.6515050410e-001
 3.3017711392e+000	 9.1045721722e-001	 5.4982102735e-001
 3.2927914318e+000	 9.4241688584e-001	 5.3783338489e-001
 3.3924035210e+000	 6.2777253081e-001	 1.0633335677e+000
 3.3863145957e+000	 6.5982835535e-001	 9.3380630445e-001
 3.3799038126e+000	 6.9191778248e-001	 8.2301856575e-001
 3.3731693341e+000	 7.2403635505e-001	 7.3037727655e-001
 3.3661093979e+000	 7.5617955611e-001	 6.5502392222e-001
 3.3587223186e+000	 7.8834281029e-001	 5.9582724773e-001
 3.3510064894e+000	 8.2052148530e-001	 5.5137635085e-001
 3.3429603845e+000	 8.5271089338e-001	 5.1997419889e-001
 3.3345825605e+000	 8.8490629298e-001	 4.9963159830e-001
 3.3258716585e+000	 9.1710289033e-001	 4.8806164588e-001
 3.3168264057e+000	 9.4929584121e-001	 4.8267469008e-001
 3.4169861552e+000	 6.3232160712e-001	 1.0325433250e+000
 3.4108531073e+000	 6.6460972024e-001	 8.8861369664e-001
 3.4043958692e+000	 6.9693167945e-001	 7.6552785208e-001
 3.3976125901e+000	 7.2928299530e-001	 6.6281858947e-001
 3.3905014950e+000	 7.6165911811e-001	 5.7974831575e-001
 3.3830608861e+000	 7.9405543935e-001	 5.1530146512e-001
 3.3752891451e+000	 8.2646729316e-001	 4.6817731660e-001
 3.3671847351e+000	 8.5888995783e-001	 4.3678324116e-001
 3.3587462022e+000	 8.9131865742e-001	 4.1922840819e-001
 3.3499721777e+000	 9.2374856345e-001	 4.1331798108e-001
 3.3408613797e+000	 9.5617479658e-001	 4.1654783106e-001
 3.4415687894e+000	 6.3687068343e-001	 9.7631266892e-001
 3.4353916189e+000	 6.6939108513e-001	 8.1886655828e-001
 3.4288879258e+000	 7.0194557643e-001	 6.8448555041e-001
 3.4220558462e+000	 7.3452963556e-001	 5.7282887713e-001
 3.4148935921e+000	 7.6713868010e-001	 4.8328027909e-001
 3.4073994536e+000	 7.9976806841e-001	 4.1494013944e-001
 3.3995718009e+000	 8.3241310102e-001	 3.6661802194e-001
 3.3914090857e+000	 8.6506902227e-001	 3.3682564463e-001
 3.3829098440e+000	 8.9773102186e-001	 3.2377031970e-001
 3.3740726970e+000	 9.3039423656e-001	 3.2534889004e-001
 3.3648963537e+000	 9.6305375194e-001	 3.3914219251e-001
 3.1245466141e+000	 8.9426419823e-001	 6.3242576849e-001
 3.1157096398e+000	 9.2458284674e-001	 5.6619231211e-001
 3.1065555498e+000	 9.5488879754e-001	 4.9717162656e-001
 3.0970833988e+000	 9.8517735496e-001	 4.2336642558e-001
 3.0872923289e+000	 1.0154437829e+000	 3.4277275551e-001
 3.0771815712e+000	 1.0456833066e+000	 2.5338531079e-001
 3.0667504478e+000	 1.0758911149e+000	 1.5320284429e-001
 3.0559983723e+000	 1.1060623621e+000	 4.0233659809e-002
 3.0449248518e+000	 1.1361921700e+000	-8.7498826550e-002
 3.0335294880e+000	 1.1662756302e+000	-2.3195046980e-001
 3.0218119785e+000	 1.1963078061e+000	-3.9505073865e-001
 3.1485815881e+000	 9.0114315360e-001	 6.5405410141e-001
 3.1396766370e+000	 9.3169502249e-001	 7.3234332712e-001
 3.1304521310e+000	 9.6223409599e-001	 8.2779454809e-001
 3.1209071173e+000	 9.9275564231e-001	 8.5549053703e-001
 3.1110407314e+000	 1.0232548889e+000	 7.6432116973e-001
 3.1008521987e+000	 1.0537270243e+000	 6.5435634491e-001
 3.0903408358e+000	 1.0841672004e+000	 5.2363246196e-001
 3.0795060520e+000	 1.1145705341e+000	 3.7020602540e-001
 3.0683473506e+000	 1.1449321098e+000	 1.9215939978e-001
 3.0568643302e+000	 1.1752469812e+000	-1.2393391220e-002
 3.0450566860e+000	 1.2055101738e+000	-2.4530083656e-001
 3.1726165620e+000	 9.0802210898e-001	 6.5898656104e-001
 3.1636436342e+000	 9.3880719824e-001	 7.2753557662e-001
 3.1543487122e+000	 9.6957939444e-001	 8.0705276433e-001
 3.1447308357e+000	 1.0003339297e+000	 8.9374853004e-001
 3.1347891339e+000	 1.0310659949e+000	 9.8353358370e-001
 3.1245228262e+000	 1.0617707421e+000	 1.0617099315e+000
 3.1139312239e+000	 1.0924432859e+000	 9.0669456836e-001
 3.1030137318e+000	 1.1230787061e+000	 7.1916070906e-001
 3.0917698495e+000	 1.1536720496e+000	 4.9724634002e-001
 3.0801991724e+000	 1.1842183322e+000	 2.3913197038e-001
 3.0683013935e+000	 1.2147125416e+000	-5.6953365157e-002
 3.1966515360e+000	 9.1490106435e-001	 6.5450786230e-001
 3.1876106315e+000	 9.4591937399e-001	 7.1662931505e-001
 3.1782452933e+000	 9.7692469289e-001	 7.8376286875e-001
 3.1685545542e+000	 1.0079122170e+000	 8.5216277614e-001
 3.1585375365e+000	 1.0388771009e+000	 9.1778439015e-001
 3.1481934537e+000	 1.0698144598e+000	 9.7628265130e-001
 3.1375216120e+000	 1.1007193714e+000	 1.0230111956e+000
 3.1265214116e+000	 1.1315868782e+000	 1.0530221026e+000
 3.1151923483e+000	 1.1624119893e+000	 8.2876085392e-001
 3.1035340146e+000	 1.1931896832e+000	 5.2353715518e-001
 3.0915461010e+000	 1.2239149093e+000	 1.7081233743e-001
 3.2206865099e+000	 9.2178001972e-001	 6.4039779340e-001
 3.2115776287e+000	 9.5303154973e-001	 6.9930795861e-001
 3.2021418745e+000	 9.8426999133e-001	 7.5751008442e-001
 3.1923782726e+000	 1.0154905044e+000	 8.1130155850e-001
 3.1822859390e+000	 1.0466882070e+000	 8.5668142025e-001
 3.1718640811e+000	 1.0778581776e+000	 8.8934879750e-001
 3.1611120000e+000	 1.1089954569e+000	 9.0470196800e-001
 3.1500290914e+000	 1.1400950502e+000	 8.9783806593e-001
 3.1386148472e+000	 1.1711519291e+000	 8.6355345190e-001
 3.1268688568e+000	 1.2021610342e+000	 7.9634476395e-001
 3.1147908086e+000	 1.2331172771e+000	 4.3883107613e-001
 3.2447214839e+000	 9.2865897510e-001	 6.1641964417e-001
 3.2355446259e+000	 9.6014372548e-001	 6.7524102953e-001
 3.2260384556e+000	 9.9161528978e-001	 7.2786843706e-001
 3.2162019911e+000	 1.0230687917e+000	 7.7064169936e-001
 3.2060343415e+000	 1.0544993130e+000	 7.9960260838e-001
 3.1955347086e+000	 1.0859018953e+000	 8.1049329832e-001
 3.1847023881e+000	 1.1172715424e+000	 7.9875525808e-001
 3.1735367712e+000	 1.1486032222e+000	 7.5952899375e-001
 3.1620373461e+000	 1.1798918689e+000	 6.8765436005e-001
 3.1502036991e+000	 1.2111323852e+000	 5.7767157837e-001
 3.1380355161e+000	 1.2423196448e+000	 4.2382295751e-001
 3.2687564578e+000	 9.3553793047e-001	 5.8232081262e-001
 3.2595116232e+000	 9.6725590122e-001	 6.4408466693e-001
 3.2499350368e+000	 9.9896058822e-001	 6.9440116670e-001
 3.2400257095e+000	 1.0306470791e+000	 7.2965192099e-001
 3.2297827441e+000	 1.0623104190e+000	 7.4592056239e-001
 3.2192053361e+000	 1.0939456130e+000	 7.3899107303e-001
 3.2082927761e+000	 1.1255476279e+000	 7.0434674535e-001
 3.1970444510e+000	 1.1571113942e+000	 6.3716979817e-001
 3.1854598449e+000	 1.1886318086e+000	 5.3234166759e-001
 3.1735385413e+000	 1.2201037362e+000	 3.8444399036e-001
 3.1612802236e+000	 1.2515220125e+000	 1.9187839237e-001
 3.2927914318e+000	 9.4241688584e-001	 5.3783338489e-001
 3.2834786204e+000	 9.7436807697e-001	 6.0548211522e-001
 3.2738316179e+000	 1.0063058867e+000	 6.5666112132e-001
 3.2638494280e+000	 1.0382253664e+000	 6.8779314131e-001
 3.2535311466e+000	 1.0701215250e+000	 6.9500275799e-001
 3.2428759635e+000	 1.1019893308e+000	 6.7411466495e-001
 3.2318831642e+000	 1.1338237134e+000	 6.2065257286e-001
 3.2205521308e+000	 1.1656195662e+000	 5.2983877689e-001
 3.2088823438e+000	 1.1973717484e+000	 3.9659440491e-001
 3.1968733835e+000	 1.2290750872e+000	 2.1554036467e-001
 3.1845249311e+000	 1.2607243803e+000	 3.6147565579e-003
 3.3168264057e+000	 9.4929584121e-001	 4.8267469008e-001
 3.3074456176e+000	 9.8148025271e-001	 5.5906419129e-001
 3.2977281991e+000	 1.0136511851e+000	 6.1419113338e-001
 3.2876731465e+000	 1.0458036537e+000	 6.4451875666e-001
 3.2772795491e+000	 1.0779326310e+000	 6.4621172472e-001
 3.2665465910e+000	 1.1100330485e+000	 6.1513432750e-001
 3.2554735523e+000	 1.1420997989e+000	 5.4684933038e-001
 3.2440598105e+000	 1.1741277382e+000	 4.3661749055e-001
 3.2323048426e+000	 1.2061116882e+000	 2.7939776048e-001
 3.2202082257e+000	 1.2380464382e+000	 6.9848197314e-002
 3.2077696387e+000	 1.2699267480e+000	-1.6703812782e-001
 3.3408613797e+000	 9.5617479658e-001	 4.1654783106e-001
 3.3314126149e+000	 9.8859242845e-001	 5.0444973160e-001
 3.3216247802e+000	 1.0209964835e+000	 5.6652438008e-001
 3.3114968649e+000	 1.0533819411e+000	 5.9927491236e-001
 3.3010279516e+000	 1.0857437371e+000	 5.9890522386e-001
 3.2902172185e+000	 1.1180767663e+000	 5.6131810660e-001
 3.2790639403e+000	 1.1503758844e+000	 4.8211403833e-001
 3.2675674903e+000	 1.1826359103e+000	 3.5659064533e-001
 3.2557273415e+000	 1.2148516279e+000	 1.7974285931e-001
 3.2435430679e+000	 1.2470177892e+000	-5.3736212844e-002
 3.2310143462e+000	 1.2791291158e+000	-3.2057871271e-001
 3.3648963537e+000	 9.6305375194e-001	 3.3914219251e-001
 3.3553796121e+000	 9.9570460419e-001	 4.4124601999e-001
 3.3455213614e+000	 1.0283417820e+000	 5.1318472822e-001
 3.3353205834e+000	 1.0609602284e+000	 5.5150076167e-001
 3.3247763542e+000	 1.0935548431e+000	 5.5243641872e-001
 3.3138878460e+000	 1.1261204840e+000	 5.1193191952e-001
 3.3026543284e+000	 1.1586519699e+000	 4.2562413238e-001
 3.2910751701e+000	 1.1911440823e+000	 2.8884598066e-001
 3.2791498404e+000	 1.2235915677e+000	 9.6626550936e-002
 3.2668779101e+000	 1.2559891402e+000	-1.5500829674e-001
 3.2542590537e+000	 1.2883314835e+000	-4.5749412587e-001
 3.0218119785e+000	 1.1963078061e+000	-3.9505073865e-001
 3.0097721177e+000	 1.2262837353e+000	-3.3277690446e-001
 2.9974097985e+000	 1.2561984318e+000	-2.9859175702e-001
 2.9847250126e+000	 1.2860468885e+000	-1.4728015618e-001
 2.9717178521e+000	 1.3158240793e+000	-3.4259476502e-002
 2.9583885102e+000	 1.3455249618e+000	 4.1522856307e-002
 2.9447372821e+000	 1.3751444794e+000	 8.1197025132e-002
 2.9307645658e+000	 1.4046775645e+000	 8.5969053842e-002
 2.9164708625e+000	 1.4341191402e+000	 5.7118871672e-002
 2.9018567779e+000	 1.4634641235e+000	-4.0017876959e-003
 2.8869230222e+000	 1.4927074274e+000	-9.5971649176e-002
 3.0450566860e+000	 1.2055101738e+000	-2.4530083656e-001
 3.0329242109e+000	 1.2357166871e+000	-2.2207002394e-001
 3.0204667969e+000	 1.2658614967e+000	-1.6090148611e-001
 3.0076844357e+000	 1.2959395569e+000	-4.6509408874e-002
 2.9945772202e+000	 1.3259458030e+000	 3.4070382702e-002
 2.9811453449e+000	 1.3558751538e+000	 8.1896118273e-002
 2.9673891074e+000	 1.3857225139e+000	 9.8100041666e-002
 2.9533089086e+000	 1.4154827765e+000	 8.3886562133e-002
 2.9389052537e+000	 1.4451508259e+000	 4.0530240312e-002
 2.9241787531e+000	 1.4747215398e+000	-3.0626388214e-002
 2.9091301224e+000	 1.5041897923e+000	-1.2817514832e-001
 3.0683013935e+000	 1.2147125416e+000	-5.6953365157e-002
 3.0560763041e+000	 1.2451496389e+000	-7.2973579629e-002
 3.0435237954e+000	 1.2755245616e+000	 5.2434164964e-003
 3.0306438589e+000	 1.3058322253e+000	 8.0566567944e-002
 3.0174365883e+000	 1.3360675267e+000	 1.2645878657e-001
 3.0039021796e+000	 1.3662253458e+000	 1.4398524667e-001
 2.9900409326e+000	 1.3963005484e+000	 1.3428162384e-001
 2.9758532514e+000	 1.4262879886e+000	 9.8552164099e-002
 2.9613396450e+000	 1.4561825116e+000	 3.8067590333e-002
 2.9465007283e+000	 1.4859789561e+000	-4.5837150934e-002
 2.9313372226e+000	 1.5156721571e+000	-1.5176529866e-001
 3.0915461010e+000	 1.2239149093e+000	 1.7081233743e-001
 3.0792283974e+000	 1.2545825907e+000	 1.3892585188e-001
 3.0665807938e+000	 1.2851876264e+000	 1.9920869967e-001
 3.0536032821e+000	 1.3157248936e+000	 2.3334194400e-001
 3.0402959564e+000	 1.3461892504e+000	 2.4233007557e-001
 3.0266590143e+000	 1.3765755378e+000	 2.2724650500e-001
 3.0126927579e+000	 1.4068785828e+000	 1.8923171191e-001
 2.9983975942e+000	 1.4370932006e+000	 1.2949123092e-001
 2.9837740362e+000	 1.4672141973e+000	 4.9293477376e-002
 2.9688227035e+000	 1.4972363725e+000	-5.0032583837e-002
 2.9535443227e+000	 1.5271545219e+000	-1.6709992258e-001
 3.1147908086e+000	 1.2331172771e+000	 4.3883107613e-001
 3.1023804906e+000	 1.2640155425e+000	 4.0755208409e-001
 3.0896377923e+000	 1.2948506913e+000	 4.2037213692e-001
 3.0765627052e+000	 1.3256175620e+000	 4.1122177121e-001
 3.0631553244e+000	 1.3563109741e+000	 3.8111827469e-001
 3.0494158490e+000	 1.3869257298e+000	 3.3114458862e-001
 3.0353445831e+000	 1.4174566173e+000	 2.6244737060e-001
 3.0209419370e+000	 1.4478984127e+000	 1.7623489636e-001
 3.0062084275e+000	 1.4782458830e+000	 7.3774803742e-002
 2.9911446788e+000	 1.5084937888e+000	-4.3608317879e-002
 2.9757514229e+000	 1.5386368868e+000	-1.7453548833e-001
 3.1380355161e+000	 1.2423196448e+000	 4.2382295751e-001
 3.1255325838e+000	 1.2734484944e+000	 6.9136307071e-001
 3.1126947907e+000	 1.3045137561e+000	 6.6812308106e-001
 3.0995221284e+000	 1.3355102304e+000	 6.1362158066e-001
 3.0860146925e+000	 1.3664326978e+000	 5.4226673476e-001
 3.0721726837e+000	 1.3972759218e+000	 4.5515231243e-001
 3.0579964084e+000	 1.4280346517e+000	 3.5343252515e-001
 3.0434862798e+000	 1.4587036247e+000	 2.3831984336e-001
 3.0286428187e+000	 1.4892775687e+000	 1.1108265740e-001
 3.0134666540e+000	 1.5197512051e+000	-2.6957213551e-002
 2.9979585231e+000	 1.5501192516e+000	-1.7442716024e-001
 3.1612802236e+000	 1.2515220125e+000	 1.9187839237e-001
 3.1486846770e+000	 1.2828814462e+000	 4.2950384878e-001
 3.1357517892e+000	 1.3141768210e+000	 6.6736001776e-001
 3.1224815516e+000	 1.3454028988e+000	 8.3996699733e-001
 3.1088740606e+000	 1.3765544214e+000	 7.2522778958e-001
 3.0949295184e+000	 1.4076261138e+000	 5.9875031238e-001
 3.0806482336e+000	 1.4386126862e+000	 4.6169770918e-001
 3.0660306226e+000	 1.4695088367e+000	 3.1528809999e-001
 3.0510772100e+000	 1.5003092544e+000	 1.6079215813e-001
 3.0357886292e+000	 1.5310086215e+000	-4.6946272777e-004
 3.0201656232e+000	 1.5616016164e+000	-1.6712884664e-001
 3.1845249311e+000	 1.2607243803e+000	 3.6147565579e-003
 3.1718367702e+000	 1.2923143980e+000	 1.8434613615e-001
 3.1588087876e+000	 1.3238398859e+000	 3.7038706822e-001
 3.1454409748e+000	 1.3552955671e+000	 5.6084988442e-001
 3.1317334287e+000	 1.3866761451e+000	 7.5479937033e-001
 3.1176863531e+000	 1.4179763059e+000	 7.6142676002e-001
 3.1033000588e+000	 1.4491907206e+000	 5.8675982344e-001
 3.0885749654e+000	 1.4803140488e+000	 4.0668684439e-001
 3.0735116012e+000	 1.5113409401e+000	 2.2248231032e-001
 3.0581106044e+000	 1.5422660378e+000	 3.5467313929e-002
 3.0423727234e+000	 1.5730839812e+000	-1.5299324568e-001
 3.2077696387e+000	 1.2699267480e+000	-1.6703812782e-001
 3.1949888634e+000	 1.3017473498e+000	-4.4590210177e-002
 3.1818657860e+000	 1.3335029507e+000	 8.8184415611e-002
 3.1684003979e+000	 1.3651882355e+000	 2.3036337593e-001
 3.1545927968e+000	 1.3967978688e+000	 3.8097096845e-001
 3.1404431878e+000	 1.4283264979e+000	 5.3897866488e-001
 3.1259518841e+000	 1.4597687551e+000	 7.0330572971e-001
 3.1111193082e+000	 1.4911192608e+000	 5.1206821819e-001
 3.0959459925e+000	 1.5223726258e+000	 2.9573586227e-001
 3.0804325796e+000	 1.5535234541e+000	 8.0467973818e-002
 3.0645798236e+000	 1.5845663461e+000	-1.3237188921e-001
 3.2310143462e+000	 1.2791291158e+000	-3.2057871271e-001
 3.2181409566e+000	 1.3111803016e+000	-2.5777444603e-001
 3.2049227845e+000	 1.3431660156e+000	-1.7968629130e-001
 3.1913598211e+000	 1.3750809039e+000	-8.7271263362e-002
 3.1774521649e+000	 1.4069195925e+000	 1.8454537593e-002
 3.1632000224e+000	 1.4386766899e+000	 1.3641640415e-001
 3.1486037093e+000	 1.4703467896e+000	 2.6548162387e-001
 3.1336636511e+000	 1.5019244728e+000	 4.0446020674e-001
 3.1183803837e+000	 1.5334043115e+000	 3.8013917152e-001
 3.1027545548e+000	 1.5647808705e+000	 1.3414976326e-001
 3.0867869237e+000	 1.5960487109e+000	-1.0561518471e-001
 3.2542590537e+000	 1.2883314835e+000	-4.5749412587e-001
 3.2412930498e+000	 1.3206132534e+000	-4.5566532888e-001
 3.2279797829e+000	 1.3528290804e+000	-4.3365377575e-001
 3.2143192443e+000	 1.3849735723e+000	-3.9245106380e-001
 3.2003115330e+000	 1.4170413162e+000	-3.3311360749e-001
 3.1859568571e+000	 1.4490268819e+000	-2.5676218465e-001
 3.1712555346e+000	 1.4809248240e+000	-1.6458135058e-001
 3.1562079939e+000	 1.5127296849e+000	-5.7818718587e-002
 3.1408147750e+000	 1.5444359972e+000	 6.2215894026e-002
 3.1250765300e+000	 1.5760382868e+000	 1.9415145529e-001
 3.1089940239e+000	 1.6075310757e+000	-7.3072455449e-002
 2.8869230222e+000	 1.4927074274e+000	-9.5971649176e-002
 2.8716704108e+000	 1.5218439643e+000	-1.2066529894e-001
 2.8560998648e+000	 1.5508686476e+000	-1.4707858144e-001
 2.8402124111e+000	 1.5797763955e+000	-1.7352233916e-001
 2.8240091829e+000	 1.6085621327e+000	-1.9827151898e-001
 2.8074914197e+000	 1.6372207940e+000	-2.1956846484e-001
 2.7906604674e+000	 1.6657473264e+000	-2.3562631553e-001
 2.7735177786e+000	 1.6941366922e+000	-2.4463250039e-001
 2.7560649120e+000	 1.7223838716e+000	-2.4475232520e-001
 2.7383035326e+000	 1.7504838655e+000	-2.3413264035e-001
 2.7202354115e+000	 1.7784316985e+000	-2.1090558272e-001
 2.9091301224e+000	 1.5041897923e+000	-1.2817514832e-001
 2.8937601832e+000	 1.5335504563e+000	-1.5520299172e-001
 2.8780698638e+000	 1.5627984065e+000	-1.8285555812e-001
 2.8620601989e+000	 1.5919285216e+000	-2.0943994889e-001
 2.8457323305e+000	 1.6209356876e+000	-2.3322824044e-001
 2.8290875075e+000	 1.6498148002e+000	-2.5246083230e-001
 2.8121270864e+000	 1.6785607674e+000	-2.6534990028e-001
 2.7948525307e+000	 1.7071685129e+000	-2.7008294739e-001
 2.7772654113e+000	 1.7356329783e+000	-2.6482644441e-001
 2.7593674059e+000	 1.7639491260e+000	-2.4772955219e-001
 2.7411602993e+000	 1.7921119423e+000	-2.1692791701e-001
 2.9313372226e+000	 1.5156721571e+000	-1.5176529866e-001
 2.9158499556e+000	 1.5452569483e+000	-1.8300683807e-001
 2.9000398628e+000	 1.5747281653e+000	-2.1381085956e-001
 2.8839079867e+000	 1.6040806477e+000	-2.4247907675e-001
 2.8674554780e+000	 1.6333092425e+000	-2.6727901314e-001
 2.8506835954e+000	 1.6624088063e+000	-2.8644740771e-001
 2.8335937054e+000	 1.6913742084e+000	-2.9819372557e-001
 2.8161872829e+000	 1.7202003336e+000	-3.0070376609e-001
 2.7984659106e+000	 1.7488820850e+000	-2.9214336046e-001
 2.7804312793e+000	 1.7774143865e+000	-2.7066215037e-001
 2.7620851870e+000	 1.8057921862e+000	-2.3439743906e-001
 2.9535443227e+000	 1.5271545219e+000	-1.6709992258e-001
 2.9379397280e+000	 1.5569634404e+000	-2.0441495638e-001
 2.9220098617e+000	 1.5866579241e+000	-2.4026233428e-001
 2.9057557745e+000	 1.6162327739e+000	-2.7293673544e-001
 2.8891786256e+000	 1.6456827974e+000	-3.0069944841e-001
 2.8722796832e+000	 1.6750028124e+000	-3.2178183619e-001
 2.8550603244e+000	 1.7041876494e+000	-3.3438890642e-001
 2.8375220350e+000	 1.7332321543e+000	-3.3670297892e-001
 2.8196664100e+000	 1.7621311917e+000	-3.2688744242e-001
 2.8014951526e+000	 1.7908796470e+000	-3.0309059186e-001
 2.7830100748e+000	 1.8194724300e+000	-2.6344953751e-001
 2.9757514229e+000	 1.5386368868e+000	-1.7453548833e-001
 2.9600295004e+000	 1.5686699324e+000	-2.1976500831e-001
 2.9439798607e+000	 1.5985876830e+000	-2.6252828868e-001
 2.9276035623e+000	 1.6283849000e+000	-3.0111132714e-001
 2.9109017732e+000	 1.6580563522e+000	-3.3376749524e-001
 2.8938757711e+000	 1.6875968185e+000	-3.5872106484e-001
 2.8765269434e+000	 1.7170010903e+000	-3.7417084001e-001
 2.8588567872e+000	 1.7462639751e+000	-3.7829388606e-001
 2.8408669093e+000	 1.7753802984e+000	-3.6924934766e-001
 2.8225590259e+000	 1.8043449075e+000	-3.4518234712e-001
 2.8039349626e+000	 1.8331526738e+000	-3.0422795377e-001
 2.9979585231e+000	 1.5501192516e+000	-1.7442716024e-001
 2.9821192728e+000	 1.5803764244e+000	-2.2939421571e-001
 2.9659498596e+000	 1.6105174418e+000	-2.8092747010e-001
 2.9494513500e+000	 1.6405370261e+000	-3.2730259205e-001
 2.9326249207e+000	 1.6704299071e+000	-3.6676335364e-001
 2.9154718589e+000	 1.7001908246e+000	-3.9752522044e-001
 2.8979935624e+000	 1.7298145313e+000	-4.1777904704e-001
 2.8801915393e+000	 1.7592957958e+000	-4.2569486990e-001
 2.8620674086e+000	 1.7886294051e+000	-4.1942578896e-001
 2.8436228993e+000	 1.8178101680e+000	-3.9711192919e-001
 2.8248598504e+000	 1.8468329177e+000	-3.5688447265e-001
 3.0201656232e+000	 1.5616016164e+000	-1.6712884664e-001
 3.0042090452e+000	 1.5920829165e+000	-2.3363937675e-001
 2.9879198586e+000	 1.6224472006e+000	-2.9577905061e-001
 2.9712991378e+000	 1.6526891522e+000	-3.5181155916e-001
 2.9543480683e+000	 1.6828034620e+000	-3.9996939191e-001
 2.9370679468e+000	 1.7127848307e+000	-4.3845749253e-001
 2.9194601813e+000	 1.7426279723e+000	-4.6545702018e-001
 2.9015262915e+000	 1.7723276165e+000	-4.7912920826e-001
 2.8832679079e+000	 1.8018785118e+000	-4.7761931187e-001
 2.8646867726e+000	 1.8312754286e+000	-4.5906063479e-001
 2.8457847382e+000	 1.8605131615e+000	-4.2157862666e-001
 3.0423727234e+000	 1.5730839812e+000	-1.5299324568e-001
 3.0262988176e+000	 1.6037894085e+000	-2.3283688141e-001
 3.0098898576e+000	 1.6343769594e+000	-3.0740261149e-001
 2.9931469256e+000	 1.6648412783e+000	-3.7494049926e-001
 2.9760712159e+000	 1.6951770168e+000	-4.3367006752e-001
 2.9586640346e+000	 1.7253788368e+000	-4.8178402168e-001
 2.9409268003e+000	 1.7554414133e+000	-5.1745207906e-001
 2.9228610436e+000	 1.7853594372e+000	-5.3882489571e-001
 2.9044684072e+000	 1.8151276185e+000	-5.4403808185e-001
 2.8857506459e+000	 1.8447406891e+000	-5.3121629675e-001
 2.8667096260e+000	 1.8741934053e+000	-4.9847741322e-001
 3.0645798236e+000	 1.5845663461e+000	-1.3237188921e-001
 3.0483885900e+000	 1.6154959005e+000	-2.2732272627e-001
 3.0318598565e+000	 1.6463067183e+000	-3.1611812842e-001
 3.0149947134e+000	 1.6769934045e+000	-3.9699287991e-001
 2.9977943634e+000	 1.7075505717e+000	-4.6815185135e-001
 2.9802601225e+000	 1.7379728429e+000	-5.2777379251e-001
 2.9623934193e+000	 1.7682548542e+000	-5.7401523165e-001
 2.9441957958e+000	 1.7983912579e+000	-6.0501447263e-001
 2.9256689066e+000	 1.8283767252e+000	-6.1889568064e-001
 2.9068145192e+000	 1.8582059496e+000	-6.1377304716e-001
 2.8876345137e+000	 1.8878736492e+000	-5.3786284450e-001
 3.0867869237e+000	 1.5960487109e+000	-1.0561518471e-001
 3.0704783624e+000	 1.6272023926e+000	-2.1743252866e-001
 3.0538298555e+000	 1.6582364771e+000	-3.2224595731e-001
 3.0368425011e+000	 1.6891455306e+000	-4.1827332244e-001
 3.0195175110e+000	 1.7199241266e+000	-5.0370315536e-001
 3.0018562103e+000	 1.7505668490e+000	-5.7669853142e-001
 2.9838600383e+000	 1.7810682952e+000	-6.3540104155e-001
 2.9655305479e+000	 1.8114230786e+000	-6.7793486175e-001
 2.9468694059e+000	 1.8416258319e+000	-7.0241091143e-001
 2.9278783926e+000	 1.8716712101e+000	-7.0693109082e-001
 2.9085594015e+000	 1.9015538930e+000	-5.8926382901e-001
 3.1089940239e+000	 1.6075310757e+000	-7.3072455449e-002
 3.0925681348e+000	 1.6389088846e+000	-2.0350154018e-001
 3.0757998544e+000	 1.6701662359e+000	-3.2610682066e-001
 3.0586902889e+000	 1.7012976567e+000	-4.3908756067e-001
 3.0412406585e+000	 1.7322976814e+000	-5.4061426318e-001
 3.0234522981e+000	 1.7631608551e+000	-6.2883260869e-001
 3.0053266573e+000	 1.7938817362e+000	-7.0186750104e-001
 2.9868653000e+000	 1.8244548993e+000	-7.5782721160e-001
 2.9680699052e+000	 1.8548749386e+000	-7.9480761241e-001
 2.9489422659e+000	 1.8851364706e+000	-7.7513088251e-001
 2.9294842893e+000	 1.9152341368e+000	-6.5596867142e-001
 2.7202354115e+000	 1.7784316985e+000	-2.1090558272e-001
 2.7018624252e+000	 1.8062224213e+000	-4.1256368440e-001
 2.6831865557e+000	 1.8338511137e+000	-6.0130079280e-001
 2.6642098895e+000	 1.8613128874e+000	-7.7514590480e-001
 2.6449346172e+000	 1.8886028886e+000	-8.7148366336e-001
 2.6253630329e+000	 1.9157163009e+000	-8.9455042326e-001
 2.6054975333e+000	 1.9426483480e+000	-9.0727781164e-001
 2.5853406170e+000	 1.9693942963e+000	-9.1006446954e-001
 2.5648948833e+000	 1.9959494577e+000	-9.0334744463e-001
 2.5441630315e+000	 2.0223091922e+000	-8.8760114711e-001
 2.5231478596e+000	 2.0484689108e+000	-8.6333620653e-001
 2.7411602993e+000	 1.7921119423e+000	-2.1692791701e-001
 2.7226459824e+000	 1.8201164399e+000	-4.0923961341e-001
 2.7038264523e+000	 1.8479576607e+000	-5.9120923095e-001
 2.6847038117e+000	 1.8756306788e+000	-7.5793600895e-001
 2.6652802681e+000	 1.9031306032e+000	-7.9220426564e-001
 2.6455581331e+000	 1.9304525802e+000	-8.1783320670e-001
 2.6255398220e+000	 1.9575917969e+000	-8.3515452645e-001
 2.6052278525e+000	 1.9845434832e+000	-8.4453794588e-001
 2.5846248440e+000	 2.0113029150e+000	-8.4639027708e-001
 2.5637335164e+000	 2.0378654168e+000	-8.4115438726e-001
 2.5425566893e+000	 2.0642263640e+000	-8.2930806422e-001
 2.7620851870e+000	 1.8057921862e+000	-2.3439743906e-001
 2.7434295395e+000	 1.8340104585e+000	-4.1688867696e-001
 2.7244663489e+000	 1.8620642078e+000	-5.9157286364e-001
 2.7051977340e+000	 1.8899484703e+000	-6.9016134061e-001
 2.6856259190e+000	 1.9176583177e+000	-7.2387397051e-001
 2.6657532334e+000	 1.9451888594e+000	-7.5095258129e-001
 2.6455821107e+000	 1.9725352457e+000	-7.7170209173e-001
 2.6251150880e+000	 1.9996926701e+000	-7.8646417600e-001
 2.6043548046e+000	 2.0266563724e+000	-7.9561633450e-001
 2.5833040013e+000	 2.0534216413e+000	-7.9957086487e-001
 2.5619655190e+000	 2.0799838171e+000	-7.9877373530e-001
 2.7830100748e+000	 1.8194724300e+000	-2.6344953751e-001
 2.7642130966e+000	 1.8479044772e+000	-4.3567964027e-001
 2.7451062455e+000	 1.8761707548e+000	-5.9744496443e-001
 2.7256916562e+000	 1.9042662617e+000	-6.3449248868e-001
 2.7059715699e+000	 1.9321860322e+000	-6.6661527232e-001
 2.6859483336e+000	 1.9599251387e+000	-6.9405591578e-001
 2.6656243995e+000	 1.9874786945e+000	-7.1709337702e-001
 2.6450023235e+000	 2.0148418570e+000	-7.3604214924e-001
 2.6240847652e+000	 2.0420098298e+000	-7.5125133726e-001
 2.6028744861e+000	 2.0689778659e+000	-7.6310363467e-001
 2.5813743487e+000	 2.0957412703e+000	-7.7201420371e-001
 2.8039349626e+000	 1.8331526738e+000	-3.0422795377e-001
 2.7849966537e+000	 1.8617984958e+000	-4.6578892210e-001
 2.7657461421e+000	 1.8902773018e+000	-5.5851000962e-001
 2.7461855784e+000	 1.9185840532e+000	-5.9103388313e-001
 2.7263172208e+000	 1.9467137467e+000	-6.2055606467e-001
 2.7061434339e+000	 1.9746614179e+000	-6.4729517538e-001
 2.6856666882e+000	 2.0024221433e+000	-6.7150502041e-001
 2.6648895590e+000	 2.0299910439e+000	-6.9347377079e-001
 2.6438147259e+000	 2.0573632871e+000	-7.1352304452e-001
 2.6224449710e+000	 2.0845340904e+000	-7.3200688890e-001
 2.6007831784e+000	 2.1114987234e+000	-7.4931066610e-001
 2.8248598504e+000	 1.8468329177e+000	-3.5688447265e-001
 2.8057802108e+000	 1.8756925144e+000	-5.0447334790e-001
 2.7863860387e+000	 1.9043838488e+000	-5.3283074342e-001
 2.7666795006e+000	 1.9329018446e+000	-5.5989590170e-001
 2.7466628717e+000	 1.9612414613e+000	-5.8582944037e-001
 2.7263385341e+000	 1.9893976971e+000	-6.1082675153e-001
 2.7057089769e+000	 2.0173655922e+000	-6.3511728902e-001
 2.6847767946e+000	 2.0451402308e+000	-6.5896375374e-001
 2.6635446865e+000	 2.0727167445e+000	-6.8266117866e-001
 2.6420154558e+000	 2.1000903150e+000	-7.0653591527e-001
 2.6201920081e+000	 2.1272561766e+000	-7.3094452388e-001
 2.8457847382e+000	 1.8605131615e+000	-4.2157862666e-001
 2.8265637680e+000	 1.8895865330e+000	-5.0035587317e-001
 2.8070259352e+000	 1.9184903959e+000	-5.2050184434e-001
 2.7871734229e+000	 1.9472196360e+000	-5.4119465122e-001
 2.7670085226e+000	 1.9757691758e+000	-5.6257350037e-001
 2.7465336344e+000	 2.0041339764e+000	-5.8481129917e-001
 2.7257512656e+000	 2.0323090410e+000	-6.0811394552e-001
 2.7046640301e+000	 2.0602894177e+000	-6.3271951586e-001
 2.6832746472e+000	 2.0880702019e+000	-6.5889735314e-001
 2.6615859407e+000	 2.1156465395e+000	-6.8694705662e-001
 2.6396008378e+000	 2.1430136297e+000	-7.1719737577e-001
 2.8667096260e+000	 1.8741934053e+000	-4.9847741322e-001
 2.8473473251e+000	 1.9034805517e+000	-5.1052996029e-001
 2.8276658318e+000	 1.9325969429e+000	-5.2162418257e-001
 2.8076673451e+000	 1.9615374275e+000	-5.3505175853e-001
 2.7873541735e+000	 1.9902968903e+000	-5.5093117092e-001
 2.7667287347e+000	 2.0188702556e+000	-5.6941358113e-001
 2.7457935543e+000	 2.0472524898e+000	-5.9068212061e-001
 2.7245512656e+000	 2.0754386045e+000	-6.1495108086e-001
 2.7030046078e+000	 2.1034236592e+000	-6.4246500349e-001
 2.6811564256e+000	 2.1312027641e+000	-6.7349767246e-001
 2.6590096675e+000	 2.1587710829e+000	-7.0835101057e-001
 2.8876345137e+000	 1.8878736492e+000	-5.3786284450e-001
 2.8681308822e+000	 1.9173745703e+000	-5.3508286314e-001
 2.8483057284e+000	 1.9467034899e+000	-5.3630459562e-001
 2.8281612673e+000	 1.9758552189e+000	-5.4159417047e-001
 2.8076998244e+000	 2.0048246048e+000	-5.5105002878e-001
 2.7869238349e+000	 2.0336065348e+000	-5.6480231931e-001
 2.7658358430e+000	 2.0621959387e+000	-5.8301219096e-001
 2.7444385011e+000	 2.0905877914e+000	-6.0587098396e-001
 2.7227345685e+000	 2.1187771166e+000	-6.3359932125e-001
 2.7007269104e+000	 2.1467589886e+000	-6.6644610211e-001
 2.6784184972e+000	 2.1745285361e+000	-7.0468740026e-001
 2.9085594015e+000	 1.9015538930e+000	-5.8926382901e-001
 2.8889144393e+000	 1.9312685889e+000	-5.7410819069e-001
 2.8689456250e+000	 1.9608100369e+000	-5.6465567369e-001
 2.8486551895e+000	 1.9901730104e+000	-5.6095396253e-001
 2.8280454753e+000	 2.0193523194e+000	-5.6308213392e-001
 2.8071189352e+000	 2.0483428141e+000	-5.7115005223e-001
 2.7858781318e+000	 2.0771393875e+000	-5.8529766242e-001
 2.7643257366e+000	 2.1057369783e+000	-6.0569418159e-001
 2.7424645291e+000	 2.1341305740e+000	-6.3253719085e-001
 2.7202973953e+000	 2.1623152132e+000	-6.6605162944e-001
 2.6978273268e+000	 2.1902859892e+000	-7.0648869342e-001
 2.9294842893e+000	 1.9152341368e+000	-6.5596867142e-001
 2.9096979964e+000	 1.9451626075e+000	-6.2770568003e-001
 2.8895855216e+000	 1.9749165840e+000	-6.0679555419e-001
 2.8691491118e+000	 2.0044908018e+000	-5.9326815568e-001
 2.8483911262e+000	 2.0338800339e+000	-5.8718386940e-001
 2.8273140354e+000	 2.0630790933e+000	-5.8863299878e-001
 2.8059204205e+000	 2.0920828363e+000	-5.9773505833e-001
 2.7842129721e+000	 2.1208861652e+000	-6.1463796490e-001
 2.7621944897e+000	 2.1494840313e+000	-6.3951712914e-001
 2.7398678801e+000	 2.1778714378e+000	-6.7257444917e-001
 2.7172361565e+000	 2.2060434424e+000	-7.1403720893e-001
 2.5231478596e+000	 2.0484689108e+000	-8.6333620653e-001
 2.5018522630e+000	 2.0744240777e+000	-8.7215358329e-001
 2.4802792335e+000	 2.1001702130e+000	-8.4353421700e-001
 2.4584318577e+000	 2.1257028957e+000	-8.2368190556e-001
 2.4363133158e+000	 2.1510177654e+000	-8.1685593165e-001
 2.4139268797e+000	 2.1761105255e+000	-8.2274969292e-001
 2.3912759120e+000	 2.2009769451e+000	-8.4106645934e-001
 2.3683638636e+000	 2.2256128616e+000	-8.7151923920e-001
 2.3451942726e+000	 2.2500141830e+000	-9.1383059533e-001
 2.3217707623e+000	 2.2741768901e+000	-9.6773241221e-001
 2.2980970388e+000	 2.2980970388e+000	-1.0329656154e+000
 2.5425566893e+000	 2.0642263640e+000	-8.2930806422e-001
 2.5210972804e+000	 2.0903811859e+000	-8.3856301460e-001
 2.4993583046e+000	 2.1163253685e+000	-8.5249892964e-001
 2.4773428720e+000	 2.1420544564e+000	-8.2467103987e-001
 2.4550541875e+000	 2.1675640559e+000	-8.0747980614e-001
 2.4324955480e+000	 2.1928498373e+000	-8.0069671112e-001
 2.4096703421e+000	 2.2179075370e+000	-8.0410610879e-001
 2.3865820472e+000	 2.2427329605e+000	-8.1750499969e-001
 2.3632342286e+000	 2.2673219844e+000	-8.4070275130e-001
 2.3396305373e+000	 2.2916705585e+000	-8.7352076464e-001
 2.3157747084e+000	 2.3157747084e+000	-9.1579208846e-001
 2.5619655190e+000	 2.0799838171e+000	-7.9877373530e-001
 2.5403422979e+000	 2.1063382942e+000	-8.1004449453e-001
 2.5184373756e+000	 2.1324805240e+000	-8.2492750930e-001
 2.4962538863e+000	 2.1584060172e+000	-8.3508161325e-001
 2.4737950591e+000	 2.1841103464e+000	-8.0923237863e-001
 2.4510642163e+000	 2.2095891490e+000	-7.9150015110e-001
 2.4280647722e+000	 2.2348381289e+000	-7.8174981808e-001
 2.4048002307e+000	 2.2598530594e+000	-7.7986182007e-001
 2.3812741845e+000	 2.2846297858e+000	-7.8573177544e-001
 2.3574903124e+000	 2.3091642269e+000	-7.9927004682e-001
 2.3334523779e+000	 2.3334523779e+000	-8.2040125025e-001
 2.5813743487e+000	 2.0957412703e+000	-7.7201420371e-001
 2.5595873153e+000	 2.1222954025e+000	-7.8683994299e-001
 2.5375164466e+000	 2.1486356795e+000	-8.0270782392e-001
 2.5151649006e+000	 2.1747575779e+000	-8.1993778129e-001
 2.4925359308e+000	 2.2006566370e+000	-8.2230283462e-001
 2.4696328847e+000	 2.2263284607e+000	-7.9530873341e-001
 2.4464592022e+000	 2.2517687207e+000	-7.7410491804e-001
 2.4230184143e+000	 2.2769731584e+000	-7.5865473804e-001
 2.3993141405e+000	 2.3019375872e+000	-7.4893953106e-001
 2.3753500875e+000	 2.3266578953e+000	-7.4495808909e-001
 2.3511300474e+000	 2.3511300474e+000	-7.4672606301e-001
 2.6007831784e+000	 2.1114987234e+000	-7.4931066610e-001
 2.5788323327e+000	 2.1382525108e+000	-7.6919256174e-001
 2.5565955176e+000	 2.1647908350e+000	-7.8756668680e-001
 2.5340759149e+000	 2.1911091386e+000	-8.0483848513e-001
 2.5112768024e+000	 2.2172029275e+000	-8.2144008759e-001
 2.4882015530e+000	 2.2430677725e+000	-8.1227697076e-001
 2.4648536323e+000	 2.2686993126e+000	-7.8128571508e-001
 2.4412365979e+000	 2.2940932573e+000	-7.5395697160e-001
 2.4173540964e+000	 2.3192453886e+000	-7.3035728709e-001
 2.3932098626e+000	 2.3441515636e+000	-7.1057337294e-001
 2.3688077170e+000	 2.3688077170e+000	-6.9471140512e-001
 2.6201920081e+000	 2.1272561766e+000	-7.3094452388e-001
 2.5980773501e+000	 2.1542096191e+000	-7.5734678689e-001
 2.5756745887e+000	 2.1809459905e+000	-7.7971062741e-001
 2.5529869292e+000	 2.2074606994e+000	-7.9852684296e-001
 2.5300176741e+000	 2.2337492180e+000	-8.1431612179e-001
 2.5067702213e+000	 2.2598070842e+000	-8.2762745040e-001
 2.4832480624e+000	 2.2856299045e+000	-8.0341323283e-001
 2.4594547814e+000	 2.3112133562e+000	-7.6584961602e-001
 2.4353940524e+000	 2.3365531900e+000	-7.3002536978e-001
 2.4110696377e+000	 2.3616452320e+000	-6.9611463647e-001
 2.3864853865e+000	 2.3864853865e+000	-6.6431362971e-001
 2.6396008378e+000	 2.1430136297e+000	-7.1719737577e-001
 2.6173223675e+000	 2.1701667274e+000	-7.5154824352e-001
 2.5947536597e+000	 2.1971011459e+000	-7.7934837801e-001
 2.5718979435e+000	 2.2238122601e+000	-8.0117379552e-001
 2.5487585458e+000	 2.2502955085e+000	-8.1763360694e-001
 2.5253388896e+000	 2.2765463959e+000	-8.2936831400e-001
 2.5016424925e+000	 2.3025604964e+000	-8.3704801708e-001
 2.4776729650e+000	 2.3283334552e+000	-7.9442135432e-001
 2.4534340083e+000	 2.3538609914e+000	-7.4799282968e-001
 2.4289294128e+000	 2.3791389004e+000	-7.0159049735e-001
 2.4041630560e+000	 2.4041630560e+000	-6.5550014283e-001
 2.6590096675e+000	 2.1587710829e+000	-7.0835101057e-001
 2.6365673849e+000	 2.1861238357e+000	-7.5204370230e-001
 2.6138327307e+000	 2.2132563014e+000	-7.8669079329e-001
 2.5908089578e+000	 2.2401638209e+000	-8.1295340373e-001
 2.5674994174e+000	 2.2668417990e+000	-8.3152895310e-001
 2.5439075579e+000	 2.2932857077e+000	-8.4314934482e-001
 2.5200369226e+000	 2.3194910883e+000	-8.4857905704e-001
 2.4958911486e+000	 2.3454535541e+000	-8.3976818025e-001
 2.4714739642e+000	 2.3711687928e+000	-7.8431712325e-001
 2.4467891879e+000	 2.3966325688e+000	-7.2701909224e-001
 2.4218407256e+000	 2.4218407256e+000	-6.6824900003e-001
 2.6784184972e+000	 2.1745285361e+000	-7.0468740026e-001
 2.6558124023e+000	 2.2020809440e+000	-7.5908103796e-001
 2.6329118018e+000	 2.2294114569e+000	-8.0195077348e-001
 2.6097199721e+000	 2.2565153816e+000	-8.3404273562e-001
 2.5862402891e+000	 2.2833880895e+000	-8.5614255872e-001
 2.5624762262e+000	 2.3100250194e+000	-8.6907345530e-001
 2.5384313527e+000	 2.3364216802e+000	-8.7369418944e-001
 2.5141093321e+000	 2.3625736530e+000	-8.7089695606e-001
 2.4895139202e+000	 2.3884765942e+000	-8.3906380826e-001
 2.4646489630e+000	 2.4141262372e+000	-7.7242773191e-001
 2.4395183951e+000	 2.4395183951e+000	-7.0254852052e-001
 2.6978273268e+000	 2.1902859892e+000	-7.0648869342e-001
 2.6750574197e+000	 2.2180380522e+000	-7.7290918961e-001
 2.6519908728e+000	 2.2455666124e+000	-8.2534319074e-001
 2.6286309864e+000	 2.2728669423e+000	-8.6462175816e-001
 2.6049811607e+000	 2.2999343800e+000	-8.9161866720e-001
 2.5810448945e+000	 2.3267643311e+000	-9.0724836738e-001
 2.5568257828e+000	 2.3533522720e+000	-9.1246383803e-001
 2.5323275157e+000	 2.3796937520e+000	-9.0825434447e-001
 2.5075538761e+000	 2.4057843956e+000	-8.9564310045e-001
 2.4825087381e+000	 2.4316199056e+000	-8.3785257122e-001
 2.4571960646e+000	 2.4571960646e+000	-7.5839691798e-001
 2.7172361565e+000	 2.2060434424e+000	-7.1403720893e-001
 2.6943024371e+000	 2.2339951605e+000	-7.9377812268e-001
 2.6710699438e+000	 2.2617217679e+000	-8.5708481873e-001
 2.6475420007e+000	 2.2892185031e+000	-9.0487323372e-001
 2.6237220324e+000	 2.3164806705e+000	-9.3810522952e-001
 2.5996135628e+000	 2.3435036429e+000	-9.5778644069e-001
 2.5752202129e+000	 2.3702828639e+000	-9.6496401180e-001
 2.5505456993e+000	 2.3968138509e+000	-9.6072423012e-001
 2.5255938321e+000	 2.4230921970e+000	-9.4619005960e-001
 2.5003685132e+000	 2.4491135740e+000	-9.2251858217e-001
 2.4748737342e+000	 2.4748737342e+000	-8.3580194717e-001
 2.2980970388e+000	 2.2980970388e+000	-1.0329656154e+000
 2.2741768901e+000	 2.3217707623e+000	-1.0757383499e+000
 2.2500141830e+000	 2.3451942726e+000	-1.1065636765e+000
 2.2256128616e+000	 2.3683638636e+000	-1.1265738519e+000
 2.2009769451e+000	 2.3912759120e+000	-1.1369303602e+000
 2.1761105255e+000	 2.4139268797e+000	-1.1388219159e+000
 2.1510177654e+000	 2.4363133158e+000	-1.1334624037e+000
 2.1257028957e+000	 2.4584318577e+000	-1.1220887595e+000
 2.1001702130e+000	 2.4802792335e+000	-1.1059587993e+000
 2.0744240777e+000	 2.5018522630e+000	-1.0798826352e+000
 2.0484689108e+000	 2.5231478596e+000	-9.7213520466e-001
 2.3157747084e+000	 2.3157747084e+000	-9.1579208846e-001
 2.2916705585e+000	 2.3396305373e+000	-9.6533004919e-001
 2.2673219844e+000	 2.3632342286e+000	-1.0039243827e+000
 2.2427329605e+000	 2.3865820472e+000	-1.0326718184e+000
 2.2179075370e+000	 2.4096703421e+000	-1.0526981385e+000
 2.1928498373e+000	 2.4324955480e+000	-1.0651562022e+000
 2.1675640559e+000	 2.4550541875e+000	-1.0712239053e+000
 2.1420544564e+000	 2.4773428720e+000	-1.0721020812e+000
 2.1163253685e+000	 2.4993583046e+000	-1.0690123483e+000
 2.0903811859e+000	 2.5210972804e+000	-9.9524553373e-001
 2.0642263640e+000	 2.5425566893e+000	-8.9782209641e-001
 2.3334523779e+000	 2.3334523779e+000	-8.2040125025e-001
 2.3091642269e+000	 2.3574903124e+000	-8.7532152417e-001
 2.2846297858e+000	 2.3812741845e+000	-9.2027732600e-001
 2.2598530594e+000	 2.4048002307e+000	-9.5633088400e-001
 2.2348381289e+000	 2.4280647722e+000	-9.8457332987e-001
 2.2095891490e+000	 2.4510642163e+000	-1.0061227417e+000
 2.1841103464e+000	 2.4737950591e+000	-1.0221221229e+000
 2.1584060172e+000	 2.4962538863e+000	-1.0337373210e+000
 2.1324805240e+000	 2.5184373756e+000	-9.9635769164e-001
 2.1063382942e+000	 2.5403422979e+000	-9.2905414883e-001
 2.0799838171e+000	 2.5619655190e+000	-8.4051279809e-001
 2.3511300474e+000	 2.3511300474e+000	-7.4672606301e-001
 2.3266578953e+000	 2.3753500875e+000	-8.0567273044e-001
 2.3019375872e+000	 2.3993141405e+000	-8.5560959824e-001
 2.2769731584e+000	 2.4230184143e+000	-8.9756540964e-001
 2.2517687207e+000	 2.4464592022e+000	-9.3259768619e-001
 2.2263284607e+000	 2.4696328847e+000	-9.6179078886e-001
 2.2006566370e+000	 2.4925359308e+000	-9.8625391424e-001
 2.1747575779e+000	 2.5151649006e+000	-9.8009756958e-001
 2.1486356795e+000	 2.5375164466e+000	-9.4127531026e-001
 2.1222954025e+000	 2.5595873153e+000	-8.8077721094e-001
 2.0957412703e+000	 2.5813743487e+000	-7.9970797873e-001
 2.3688077170e+000	 2.3688077170e+000	-6.9471140512e-001
 2.3441515636e+000	 2.3932098626e+000	-7.5635465421e-001
 2.3192453886e+000	 2.4173540964e+000	-8.0991842709e-001
 2.2940932573e+000	 2.4412365979e+000	-8.5639898788e-001
 2.2686993126e+000	 2.4648536323e+000	-8.9682127841e-001
 2.2430677725e+000	 2.4882015530e+000	-9.3223699625e-001
 2.2172029275e+000	 2.5112768024e+000	-9.5115662417e-001
 2.1911091386e+000	 2.5340759149e+000	-9.3907300140e-001
 2.1647908350e+000	 2.5565955176e+000	-9.0496161675e-001
 2.1382525108e+000	 2.5788323327e+000	-8.4988709368e-001
 2.1114987234e+000	 2.6007831784e+000	-7.7491099581e-001
 2.3864853865e+000	 2.3864853865e+000	-6.6431362971e-001
 2.3616452320e+000	 2.4110696377e+000	-7.2734890382e-001
 2.3365531900e+000	 2.4353940524e+000	-7.8321080055e-001
 2.3112133562e+000	 2.4594547814e+000	-8.3286410115e-001
 2.2856299045e+000	 2.4832480624e+000	-8.7730218859e-001
 2.2598070842e+000	 2.5067702213e+000	-9.1428761841e-001
 2.2337492180e+000	 2.5300176741e+000	-9.2710180506e-001
 2.2074606994e+000	 2.5529869292e+000	-9.1761806469e-001
 2.1809459905e+000	 2.5756745887e+000	-8.8686284556e-001
 2.1542096191e+000	 2.5980773501e+000	-8.3585967890e-001
 2.1272561766e+000	 2.6201920081e+000	-7.6562779577e-001
 2.4041630560e+000	 2.4041630560e+000	-6.5550014283e-001
 2.3791389004e+000	 2.4289294128e+000	-7.1864731918e-001
 2.3538609914e+000	 2.4534340083e+000	-7.7550310807e-001
 2.3283334552e+000	 2.4776729650e+000	-8.2700179493e-001
 2.3025604964e+000	 2.5016424925e+000	-8.7429989480e-001
 2.2765463959e+000	 2.5253388896e+000	-9.1007899059e-001
 2.2502955085e+000	 2.5487585458e+000	-9.2336723408e-001
 2.2238122601e+000	 2.5718979435e+000	-9.1515491073e-001
 2.1971011459e+000	 2.5947536597e+000	-8.8642949039e-001
 2.1701667274e+000	 2.6173223675e+000	-8.3817422769e-001
 2.1430136297e+000	 2.6396008378e+000	-7.7136681875e-001
 2.4218407256e+000	 2.4218407256e+000	-6.6824900003e-001
 2.3966325688e+000	 2.4467891879e+000	-7.3025159836e-001
 2.3711687928e+000	 2.4714739642e+000	-7.8682079752e-001
 2.3454535541e+000	 2.4958911486e+000	-8.3886136516e-001
 2.3194910883e+000	 2.5200369226e+000	-8.9277957586e-001
 2.2932857077e+000	 2.5439075579e+000	-9.2689374630e-001
 2.2668417990e+000	 2.5674994174e+000	-9.3935294009e-001
 2.2401638209e+000	 2.5908089578e+000	-9.3111063691e-001
 2.2132563014e+000	 2.6138327307e+000	-9.0311614883e-001
 2.1861238357e+000	 2.6365673849e+000	-8.5631325702e-001
 2.1587710829e+000	 2.6590096675e+000	-7.9163890763e-001
 2.4395183951e+000	 2.4395183951e+000	-7.0254852052e-001
 2.4141262372e+000	 2.4646489630e+000	-7.6217294045e-001
 2.3884765942e+000	 2.4895139202e+000	-8.1719804690e-001
 2.3625736530e+000	 2.5141093321e+000	-8.8003094787e-001
 2.3364216802e+000	 2.5384313527e+000	-9.3294101961e-001
 2.3100250194e+000	 2.5624762262e+000	-9.6411166213e-001
 2.2833880895e+000	 2.5862402891e+000	-9.7446452483e-001
 2.2565153816e+000	 2.6097199721e+000	-9.6491710758e-001
 2.2294114569e+000	 2.6329118018e+000	-9.3638137362e-001
 2.2020809440e+000	 2.6558124023e+000	-8.8976242183e-001
 2.1745285361e+000	 2.6784184972e+000	-8.2595722096e-001
 2.4571960646e+000	 2.4571960646e+000	-7.5839691798e-001
 2.4316199056e+000	 2.4825087381e+000	-8.1443170377e-001
 2.4057843956e+000	 2.5075538761e+000	-8.7670706352e-001
 2.3796937520e+000	 2.5323275157e+000	-9.4630568781e-001
 2.3533522720e+000	 2.5568257828e+000	-9.9414553402e-001
 2.3267643311e+000	 2.5810448945e+000	-1.0211186579e+000
 2.2999343800e+000	 2.6049811607e+000	-1.0281129624e+000
 2.2728669423e+000	 2.6286309864e+000	-1.0160107825e+000
 2.2455666124e+000	 2.6519908728e+000	-9.8568753036e-001
 2.2180380522e+000	 2.6750574197e+000	-9.3801040211e-001
 2.1902859892e+000	 2.6978273268e+000	-8.7383714966e-001
 2.4748737342e+000	 2.4748737342e+000	-8.3580194717e-001
 2.4491135740e+000	 2.5003685132e+000	-8.8772225383e-001
 2.4230921970e+000	 2.5255938321e+000	-9.7183160480e-001
 2.3968138509e+000	 2.5505456993e+000	-1.0342229618e+000
 2.3702828639e+000	 2.5752202129e+000	-1.0757610882e+000
 2.3435036429e+000	 2.5996135628e+000	-1.0973065775e+000
 2.3164806705e+000	 2.6237220324e+000	-1.0997144074e+000
 2.2892185031e+000	 2.6475420007e+000	-1.0838325528e+000
 2.2617217679e+000	 2.6710699438e+000	-1.0505006614e+000
 2.2339951605e+000	 2.6943024371e+000	-1.0005487949e+000
 2.2060434424e+000	 2.7172361565e+000	-9.3479623727e-001
 2.0484689108e+000	 2.5231478596e+000	-9.7213520466e-001
 2.0223091922e+000	 2.5441630315e+000	-9.8416122431e-001
 1.9959494577e+000	 2.5648948833e+000	-9.9090064763e-001
 1.9693942963e+000	 2.5853406170e+000	-9.9307650059e-001
 1.9426483480e+000	 2.6054975333e+000	-9.9139669474e-001
 1.9157163009e+000	 2.6253630329e+000	-9.8655326413e-001
 1.8886028886e+000	 2.6449346172e+000	-9.7922166752e-001
 1.8613128874e+000	 2.6642098895e+000	-9.7356110002e-001
 1.8338511137e+000	 2.6831865557e+000	-9.6174359149e-001
 1.8062224213e+000	 2.7018624252e+000	-9.3950765778e-001
 1.7784316985e+000	 2.7202354115e+000	-9.0914319785e-001
 2.0642263640e+000	 2.5425566893e+000	-8.9782209641e-001
 2.0378654168e+000	 2.5637335164e+000	-9.1049055937e-001
 2.0113029150e+000	 2.5846248440e+000	-9.1906903949e-001
 1.9845434832e+000	 2.6052278525e+000	-9.2424307646e-001
 1.9575917969e+000	 2.6255398220e+000	-9.2668140838e-001
 1.9304525802e+000	 2.6455581331e+000	-9.2703525659e-001
 1.9031306032e+000	 2.6652802681e+000	-9.2593767883e-001
 1.8756306788e+000	 2.6847038117e+000	-9.2400299098e-001
 1.8479576607e+000	 2.7038264523e+000	-9.2676794895e-001
 1.8201164399e+000	 2.7226459824e+000	-9.2032758036e-001
 1.7921119423e+000	 2.7411602993e+000	-9.0674271736e-001
 2.0799838171e+000	 2.5619655190e+000	-8.4051279809e-001
 2.0534216413e+000	 2.5833040013e+000	-8.5273839767e-001
 2.0266563724e+000	 2.6043548046e+000	-8.6206470509e-001
 1.9996926701e+000	 2.6251150880e+000	-8.6914042554e-001
 1.9725352457e+000	 2.6455821107e+000	-8.7459576264e-001
 1.9451888594e+000	 2.6657532334e+000	-8.7904175071e-001
 1.9176583177e+000	 2.6856259190e+000	-8.8306965834e-001
 1.8899484703e+000	 2.7051977340e+000	-8.8725046338e-001
 1.8620642078e+000	 2.7244663489e+000	-8.9611517172e-001
 1.8340104585e+000	 2.7434295395e+000	-9.0396356151e-001
 1.8057921862e+000	 2.7620851870e+000	-9.0565225670e-001
 2.0957412703e+000	 2.5813743487e+000	-7.9970797873e-001
 2.0689778659e+000	 2.6028744861e+000	-8.1042978163e-001
 2.0420098298e+000	 2.6240847652e+000	-8.1943767560e-001
 2.0148418570e+000	 2.6450023235e+000	-8.2734417081e-001
 1.9874786945e+000	 2.6656243995e+000	-8.3474156275e-001
 1.9599251387e+000	 2.6859483336e+000	-8.4220131131e-001
 1.9321860322e+000	 2.7059715699e+000	-8.5027349424e-001
 1.9042662617e+000	 2.7256916562e+000	-8.5948633505e-001
 1.8761707548e+000	 2.7451062455e+000	-8.7034580543e-001
 1.8479044772e+000	 2.7642130966e+000	-8.9049691981e-001
 1.8194724300e+000	 2.7830100748e+000	-9.0597128174e-001
 2.1114987234e+000	 2.6007831784e+000	-7.7491099581e-001
 2.0845340904e+000	 2.6224449710e+000	-7.8309172030e-001
 2.0573632871e+000	 2.6438147259e+000	-7.9073921546e-001
 2.0299910439e+000	 2.6648895590e+000	-7.9843042425e-001
 2.0024221433e+000	 2.6856666882e+000	-8.0672034802e-001
 1.9746614179e+000	 2.7061434339e+000	-8.1614147208e-001
 1.9467137467e+000	 2.7263172208e+000	-8.2720326854e-001
 1.9185840532e+000	 2.7461855784e+000	-8.4039177663e-001
 1.8902773018e+000	 2.7657461421e+000	-8.5616926037e-001
 1.8617984958e+000	 2.7849966537e+000	-8.8000478709e-001
 1.8331526738e+000	 2.8039349626e+000	-9.0779426096e-001
 2.1272561766e+000	 2.6201920081e+000	-7.6562779577e-001
 2.1000903150e+000	 2.6420154558e+000	-7.7025311646e-001
 2.0727167445e+000	 2.6635446865e+000	-7.7552177682e-001
 2.0451402308e+000	 2.6847767946e+000	-7.8197576878e-001
 2.0173655922e+000	 2.7057089769e+000	-7.9013340171e-001
 1.9893976971e+000	 2.7263385341e+000	-8.0048877379e-001
 1.9612414613e+000	 2.7466628717e+000	-8.1351132391e-001
 1.9329018446e+000	 2.7666795006e+000	-8.2964546392e-001
 1.9043838488e+000	 2.7863860387e+000	-8.4931029121e-001
 1.8756925144e+000	 2.8057802108e+000	-8.7289938083e-001
 1.8468329177e+000	 2.8248598504e+000	-9.1121085057e-001
 2.1430136297e+000	 2.6396008378e+000	-7.7136681875e-001
 2.1156465395e+000	 2.6615859407e+000	-7.7144469707e-001
 2.0880702019e+000	 2.6832746472e+000	-7.7333895579e-001
 2.0602894177e+000	 2.7046640301e+000	-7.7755724093e-001
 2.0323090410e+000	 2.7257512656e+000	-7.8458176038e-001
 2.0041339764e+000	 2.7465336344e+000	-7.9486880074e-001
 1.9757691758e+000	 2.7670085226e+000	-8.0884832763e-001
 1.9472196360e+000	 2.7871734229e+000	-8.2692366963e-001
 1.9184903959e+000	 2.8070259352e+000	-8.4947128525e-001
 1.8895865330e+000	 2.8265637680e+000	-8.7684061247e-001
 1.8605131615e+000	 2.8457847382e+000	-9.1630607140e-001
 2.1587710829e+000	 2.6590096675e+000	-7.9163890763e-001
 2.1312027641e+000	 2.6811564256e+000	-7.8619894666e-001
 2.1034236592e+000	 2.7030046078e+000	-7.8374545073e-001
 2.0754386045e+000	 2.7245512656e+000	-7.8475231425e-001
 2.0472524898e+000	 2.7457935543e+000	-7.8966622298e-001
 2.0188702556e+000	 2.7667287347e+000	-7.9890621572e-001
 1.9902968903e+000	 2.7873541735e+000	-8.1286333278e-001
 1.9615374275e+000	 2.8076673451e+000	-8.3190035104e-001
 1.9325969429e+000	 2.8276658318e+000	-8.5635160512e-001
 1.9034805517e+000	 2.8473473251e+000	-8.8652289386e-001
 1.8741934053e+000	 2.8667096260e+000	-9.2316047811e-001
 2.1745285361e+000	 2.6784184972e+000	-8.2595722096e-001
 2.1467589886e+000	 2.7007269104e+000	-8.1405004365e-001
 2.1187771166e+000	 2.7227345685e+000	-8.0629702230e-001
 2.0905877914e+000	 2.7444385011e+000	-8.0313888354e-001
 2.0621959387e+000	 2.7658358430e+000	-8.0498735939e-001
 2.0336065348e+000	 2.7869238349e+000	-8.1222479337e-001
 2.0048246048e+000	 2.8076998244e+000	-8.2520383665e-001
 1.9758552189e+000	 2.8281612673e+000	-8.4424723391e-001
 1.9467034899e+000	 2.8483057284e+000	-8.6964769831e-001
 1.9173745703e+000	 2.8681308822e+000	-9.0166787466e-001
 1.8878736492e+000	 2.8876345137e+000	-9.4054038960e-001
 2.1902859892e+000	 2.6978273268e+000	-8.7383714966e-001
 2.1623152132e+000	 2.7202973953e+000	-8.5453379942e-001
 2.1341305740e+000	 2.7424645291e+000	-8.4055045524e-001
 2.1057369783e+000	 2.7643257366e+000	-8.3229524965e-001
 2.0771393875e+000	 2.7858781318e+000	-8.3014551870e-001
 2.0483428141e+000	 2.8071189352e+000	-8.3444745214e-001
 2.0193523194e+000	 2.8280454753e+000	-8.4551583677e-001
 1.9901730104e+000	 2.8486551895e+000	-8.6363389277e-001
 1.9608100369e+000	 2.8689456250e+000	-8.8905320209e-001
 1.9312685889e+000	 2.8889144393e+000	-9.2199372804e-001
 1.9015538930e+000	 2.9085594015e+000	-9.6264392469e-001
 2.2060434424e+000	 2.7172361565e+000	-9.3479623727e-001
 2.1778714378e+000	 2.7398678801e+000	-9.0718759999e-001
 2.1494840313e+000	 2.7621944897e+000	-8.8606352183e-001
 2.1208861652e+000	 2.7842129721e+000	-8.7180010498e-001
 2.0920828363e+000	 2.8059204205e+000	-8.6474083707e-001
 2.0630790933e+000	 2.8273140354e+000	-8.6519628485e-001
 2.0338800339e+000	 2.8483911262e+000	-8.7344388446e-001
 2.0044908018e+000	 2.8691491118e+000	-8.8972782773e-001
 1.9749165840e+000	 2.8895855216e+000	-9.1425904383e-001
 1.9451626075e+000	 2.9096979964e+000	-9.4721527489e-001
 1.9152341368e+000	 2.9294842893e+000	-9.8874124444e-001
 1.7784316985e+000	 2.7202354115e+000	-9.0914319785e-001
 1.7504838655e+000	 2.7383035326e+000	-8.9017299157e-001
 1.7223838716e+000	 2.7560649120e+000	-8.7487438420e-001
 1.6941366922e+000	 2.7735177786e+000	-8.6442675019e-001
 1.6657473264e+000	 2.7906604674e+000	-8.5995418048e-001
 1.6372207940e+000	 2.8074914197e+000	-8.6252281480e-001
 1.6085621327e+000	 2.8240091829e+000	-8.7313834503e-001
 1.5797763955e+000	 2.8402124111e+000	-8.9274369442e-001
 1.5508686476e+000	 2.8560998648e+000	-9.2221687688e-001
 1.5218439643e+000	 2.8716704108e+000	-9.6236903970e-001
 1.4927074274e+000	 2.8869230222e+000	-1.0139426927e+000
 1.7921119423e+000	 2.7411602993e+000	-9.0674271736e-001
 1.7639491260e+000	 2.7593674059e+000	-8.8285285721e-001
 1.7356329783e+000	 2.7772654113e+000	-8.6157649450e-001
 1.7071685129e+000	 2.7948525307e+000	-8.4421027255e-001
 1.6785607674e+000	 2.8121270864e+000	-8.3199458017e-001
 1.6498148002e+000	 2.8290875075e+000	-8.2611072518e-001
 1.6209356876e+000	 2.8457323305e+000	-8.2767828364e-001
 1.5919285216e+000	 2.8620601989e+000	-8.3775262969e-001
 1.5627984065e+000	 2.8780698638e+000	-8.5732265061e-001
 1.5335504563e+000	 2.8937601832e+000	-8.8730865059e-001
 1.5041897923e+000	 2.9091301224e+000	-9.2856044648e-001
 1.8057921862e+000	 2.7620851870e+000	-9.0565225670e-001
 1.7774143865e+000	 2.7804312793e+000	-8.7791040930e-001
 1.7488820850e+000	 2.7984659106e+000	-8.5175763684e-001
 1.7202003336e+000	 2.8161872829e+000	-8.2860833606e-001
 1.6913742084e+000	 2.8335937054e+000	-8.0981963451e-001
 1.6624088063e+000	 2.8506835954e+000	-7.9668840441e-001
 1.6333092425e+000	 2.8674554780e+000	-7.9044845681e-001
 1.6040806477e+000	 2.8839079867e+000	-7.9226792141e-001
 1.5747281653e+000	 2.9000398628e+000	-8.0324681668e-001
 1.5452569483e+000	 2.9158499556e+000	-8.2441481413e-001
 1.5156721571e+000	 2.9313372226e+000	-8.5672920017e-001
 1.8194724300e+000	 2.7830100748e+000	-9.0597128174e-001
 1.7908796470e+000	 2.8014951526e+000	-8.7540574621e-001
 1.7621311917e+000	 2.8196664100e+000	-8.4543836101e-001
 1.7332321543e+000	 2.8375220350e+000	-8.1760178868e-001
 1.7041876494e+000	 2.8550603244e+000	-7.9337036404e-001
 1.6750028124e+000	 2.8722796832e+000	-7.7415694735e-001
 1.6456827974e+000	 2.8891786256e+000	-7.6130996265e-001
 1.6162327739e+000	 2.9057557745e+000	-7.5611062667e-001
 1.5866579241e+000	 2.9220098617e+000	-7.5977037342e-001
 1.5569634404e+000	 2.9379397280e+000	-7.7342847832e-001
 1.5271545219e+000	 2.9535443227e+000	-7.9814988575e-001
 1.8331526738e+000	 2.8039349626e+000	-9.0779426096e-001
 1.8043449075e+000	 2.8225590259e+000	-8.7539488160e-001
 1.7753802984e+000	 2.8408669093e+000	-8.4263605702e-001
 1.7462639751e+000	 2.8588567872e+000	-8.1116925526e-001
 1.7170010903e+000	 2.8765269434e+000	-7.8258651405e-001
 1.6875968185e+000	 2.8938757711e+000	-7.5841713228e-001
 1.6580563522e+000	 2.9109017732e+000	-7.4012455156e-001
 1.6283849000e+000	 2.9276035623e+000	-7.2910343355e-001
 1.5985876830e+000	 2.9439798607e+000	-7.2667693811e-001
 1.5686699324e+000	 2.9600295004e+000	-7.3409420690e-001
 1.5386368868e+000	 2.9757514229e+000	-7.5252805594e-001
 1.8468329177e+000	 2.8248598504e+000	-9.1121085057e-001
 1.8178101680e+000	 2.8436228993e+000	-8.7792989577e-001
 1.7886294051e+000	 2.8620674086e+000	-8.4336507213e-001
 1.7592957958e+000	 2.8801915393e+000	-8.0928721983e-001
 1.7298145313e+000	 2.8979935624e+000	-7.7740660180e-001
 1.7001908246e+000	 2.9154718589e+000	-7.4936943257e-001
 1.6704299071e+000	 2.9326249207e+000	-7.2675460213e-001
 1.6405370261e+000	 2.9494513500e+000	-7.1107060070e-001
 1.6105174418e+000	 2.9659498596e+000	-7.0375265000e-001
 1.5803764244e+000	 2.9821192728e+000	-7.0616004538e-001
 1.5501192516e+000	 2.9979585231e+000	-7.1957371302e-001
 1.8605131615e+000	 2.8457847382e+000	-9.1630607140e-001
 1.8312754286e+000	 2.8646867726e+000	-8.8305908021e-001
 1.8018785118e+000	 2.8832679079e+000	-8.4763682273e-001
 1.7723276165e+000	 2.9015262915e+000	-8.1193010434e-001
 1.7426279723e+000	 2.9194601813e+000	-7.7776796169e-001
 1.7127848307e+000	 2.9370679468e+000	-7.4691402796e-001
 1.6828034620e+000	 2.9543480683e+000	-7.2106309796e-001
 1.6526891522e+000	 2.9712991378e+000	-7.0183789966e-001
 1.6224472006e+000	 2.9879198586e+000	-6.9078607760e-001
 1.5920829165e+000	 3.0042090452e+000	-6.8937739306e-001
 1.5616016164e+000	 3.0201656232e+000	-6.9900114530e-001
 1.8741934053e+000	 2.8667096260e+000	-9.2316047811e-001
 1.8447406891e+000	 2.8857506459e+000	-8.9082707593e-001
 1.8151276185e+000	 2.9044684072e+000	-8.5545990132e-001
 1.7853594372e+000	 2.9228610436e+000	-8.1907034390e-001
 1.7554414133e+000	 2.9409268003e+000	-7.8360678842e-001
 1.7253788368e+000	 2.9586640346e+000	-7.5095081519e-001
 1.6951770168e+000	 2.9760712159e+000	-7.2291360565e-001
 1.6648412783e+000	 2.9931469256e+000	-7.0123255958e-001
 1.6343769594e+000	 3.0098898576e+000	-6.8756813000e-001
 1.6037894085e+000	 3.0262988176e+000	-6.8350088064e-001
 1.5730839812e+000	 3.0423727234e+000	-6.9052877064e-001
 1.8878736492e+000	 2.8876345137e+000	-9.4054038960e-001
 1.8582059496e+000	 2.9068145192e+000	-9.0127500567e-001
 1.8283767252e+000	 2.9256689066e+000	-8.6684017877e-001
 1.7983912579e+000	 2.9441957958e+000	-8.3067845879e-001
 1.7682548542e+000	 2.9623934193e+000	-7.9485817827e-001
 1.7379728429e+000	 2.9802601225e+000	-7.6137941835e-001
 1.7075505717e+000	 2.9977943634e+000	-7.3217025366e-001
 1.6769934045e+000	 3.0149947134e+000	-7.0908321444e-001
 1.6463067183e+000	 3.0318598565e+000	-6.9389197205e-001
 1.6154959005e+000	 3.0483885900e+000	-6.8828825309e-001
 1.5845663461e+000	 3.0645798236e+000	-6.9387898686e-001
 1.9015538930e+000	 2.9085594015e+000	-9.6264392469e-001
 1.8716712101e+000	 2.9278783926e+000	-9.1444060051e-001
 1.8416258319e+000	 2.9468694059e+000	-8.8178090228e-001
 1.8114230786e+000	 2.9655305479e+000	-8.4672312331e-001
 1.7810682952e+000	 2.9838600383e+000	-8.1145616864e-001
 1.7505668490e+000	 3.0018562103e+000	-7.7809919860e-001
 1.7199241266e+000	 3.0195175110e+000	-7.4869771206e-001
 1.6891455306e+000	 3.0368425011e+000	-7.2521985250e-001
 1.6582364771e+000	 3.0538298555e+000	-7.0955294329e-001
 1.6272023926e+000	 3.0704783624e+000	-7.0350025769e-001
 1.5960487109e+000	 3.0867869237e+000	-7.0877802857e-001
 1.9152341368e+000	 2.9294842893e+000	-9.8874124444e-001
 1.8851364706e+000	 2.9489422659e+000	-9.3838222030e-001
 1.8548749386e+000	 2.9680699052e+000	-9.0028278904e-001
 1.8244548993e+000	 2.9868653000e+000	-8.6717123173e-001
 1.7938817362e+000	 3.0053266573e+000	-8.3333377585e-001
 1.7631608551e+000	 3.0234522981e+000	-8.0100926362e-001
 1.7322976814e+000	 3.0412406585e+000	-7.7236117325e-001
 1.7012976567e+000	 3.0586902889e+000	-7.4947376796e-001
 1.6701662359e+000	 3.0757998544e+000	-7.3434848018e-001
 1.6389088846e+000	 3.0925681348e+000	-7.2890053677e-001
 1.6075310757e+000	 3.1089940239e+000	-7.3495583016e-001
 1.4927074274e+000	 2.8869230222e+000	-1.0139426927e+000
 1.4634641235e+000	 2.9018567779e+000	-8.6566152545e-001
 1.4341191402e+000	 2.9164708625e+000	-7.1988486537e-001
 1.4046775645e+000	 2.9307645658e+000	-5.7805508718e-001
 1.3751444794e+000	 2.9447372821e+000	-4.4154072400e-001
 1.3455249618e+000	 2.9583885102e+000	-3.1163471938e-001
 1.3158240793e+000	 2.9717178521e+000	-1.8955288356e-001
 1.2860468885e+000	 2.9847250126e+000	-7.6432554199e-002
 1.2561984318e+000	 2.9974097985e+000	 2.6668539015e-002
 1.2262837353e+000	 3.0097721177e+000	-1.0463847950e-001
 1.1963078061e+000	 3.0218119785e+000	-2.5845449487e-001
 1.5041897923e+000	 2.9091301224e+000	-9.2856044648e-001
 1.4747215398e+000	 2.9241787531e+000	-7.9004788125e-001
 1.4451508259e+000	 2.9389052537e+000	-6.5462786549e-001
 1.4154827765e+000	 2.9533089086e+000	-5.2377082422e-001
 1.3857225139e+000	 2.9673891074e+000	-3.9887129912e-001
 1.3558751538e+000	 2.9811453449e+000	-2.8124616772e-001
 1.3259458030e+000	 2.9945772202e+000	-1.7213307204e-001
 1.2959395569e+000	 3.0076844357e+000	-7.2689056619e-002
 1.2658614967e+000	 3.0204667969e+000	 1.6010584546e-002
 1.2357166871e+000	 3.0329242109e+000	-2.9091017699e-002
 1.2055101738e+000	 3.0450566860e+000	-1.8036993195e-001
 1.5156721571e+000	 2.9313372226e+000	-8.5672920017e-001
 1.4859789561e+000	 2.9465007283e+000	-7.2759068757e-001
 1.4561825116e+000	 2.9613396450e+000	-6.0216326161e-001
 1.4262879886e+000	 2.9758532514e+000	-4.8194628335e-001
 1.3963005484e+000	 2.9900409326e+000	-3.6836113639e-001
 1.3662253458e+000	 3.0039021796e+000	-2.6274941265e-001
 1.3360675267e+000	 3.0174365883e+000	-1.6637131270e-001
 1.3058322253e+000	 3.0306438589e+000	-8.0404260577e-002
 1.2755245616e+000	 3.0435237954e+000	-5.9417327467e-003
 1.2451496389e+000	 3.0560763041e+000	 1.9165690359e-002
 1.2147125416e+000	 3.0683013935e+000	-1.2776949499e-001
 1.5271545219e+000	 2.9535443227e+000	-7.9814988575e-001
 1.4972363725e+000	 2.9688227035e+000	-6.7799186891e-001
 1.4672141973e+000	 2.9837740362e+000	-5.6219419014e-001
 1.4370932006e+000	 2.9983975942e+000	-4.5228603729e-001
 1.4068785828e+000	 3.0126927579e+000	-3.4971647392e-001
 1.3765755378e+000	 3.0266590143e+000	-2.5585259094e-001
 1.3461892504e+000	 3.0402959564e+000	-1.7197787803e-001
 1.3157248936e+000	 3.0536032821e+000	-9.9290814879e-002
 1.2851876264e+000	 3.0665807938e+000	-3.8903681630e-002
 1.2545825907e+000	 3.0792283974e+000	 8.1584125553e-003
 1.2239149093e+000	 3.0915461010e+000	-1.0249200455e-001
 1.5386368868e+000	 2.9757514229e+000	-7.5252805594e-001
 1.5084937888e+000	 2.9911446788e+000	-6.4095776088e-001
 1.4782458830e+000	 3.0062084275e+000	-5.3442799232e-001
 1.4478984127e+000	 3.0209419370e+000	-4.3449866064e-001
 1.4174566173e+000	 3.0353445831e+000	-3.4264735207e-001
 1.3869257298e+000	 3.0494158490e+000	-2.6026744543e-001
 1.3563109741e+000	 3.0631553244e+000	-1.8866645407e-001
 1.3256175620e+000	 3.0765627052e+000	-1.2906459291e-001
 1.2948506913e+000	 3.0896377923e+000	-8.2593570159e-002
 1.2640155425e+000	 3.1023804906e+000	-5.0295602268e-002
 1.2331172771e+000	 3.1147908086e+000	-1.0637896116e-001
 1.5501192516e+000	 2.9979585231e+000	-7.1957371302e-001
 1.5197512051e+000	 3.0134666540e+000	-6.1619894693e-001
 1.4892775687e+000	 3.0286428187e+000	-5.1857605849e-001
 1.4587036247e+000	 3.0434862798e+000	-4.2829658161e-001
 1.4280346517e+000	 3.0579964084e+000	-3.4686747263e-001
 1.3972759218e+000	 3.0721726837e+000	-2.7570919158e-001
 1.3664326978e+000	 3.0860146925e+000	-2.1615401396e-001
 1.3355102304e+000	 3.0995221284e+000	-1.6944457320e-001
 1.3045137561e+000	 3.1126947907e+000	-1.3673263311e-001
 1.2734484944e+000	 3.1255325838e+000	-1.1803640903e-001
 1.2423196448e+000	 3.1380355161e+000	-1.0353680440e-001
 1.5616016164e+000	 3.0201656232e+000	-6.9900114530e-001
 1.5310086215e+000	 3.0357886292e+000	-6.0343010207e-001
 1.5003092544e+000	 3.0510772100e+000	-5.1435367924e-001
 1.4695088367e+000	 3.0660306226e+000	-4.3339594035e-001
 1.4386126862e+000	 3.0806482336e+000	-3.6209406419e-001
 1.4076261138e+000	 3.0949295184e+000	-3.0189638970e-001
 1.3765544214e+000	 3.1088740606e+000	-2.5416069712e-001
 1.3454028988e+000	 3.1224815516e+000	-2.2015272527e-001
 1.3141768210e+000	 3.1357517892e+000	-1.8777162573e-001
 1.2828814462e+000	 3.1486846770e+000	-1.4721297685e-001
 1.2515220125e+000	 3.1612802236e+000	-9.9209828101e-002
 1.5730839812e+000	 3.0423727234e+000	-6.9052877064e-001
 1.5422660378e+000	 3.0581106044e+000	-6.0236984364e-001
 1.5113409401e+000	 3.0735116012e+000	-5.2147990305e-001
 1.4803140488e+000	 3.0885749654e+000	-4.4951645351e-001
 1.4491907206e+000	 3.1033000588e+000	-3.8804775343e-001
 1.4179763059e+000	 3.1176863531e+000	-3.3855082294e-001
 1.3866761451e+000	 3.1317334287e+000	-3.0401417498e-001
 1.3552955671e+000	 3.1454409748e+000	-2.6949339024e-001
 1.3238398859e+000	 3.1588087876e+000	-2.2751199103e-001
 1.2923143980e+000	 3.1718367702e+000	-1.7778519728e-001
 1.2607243803e+000	 3.1845249311e+000	-1.2006372111e-001
 1.5845663461e+000	 3.0645798236e+000	-6.9387898686e-001
 1.5535234541e+000	 3.0804325796e+000	-6.1274058840e-001
 1.5223726258e+000	 3.0959459925e+000	-5.3967740014e-001
 1.4911192608e+000	 3.1111193082e+000	-4.7638128460e-001
 1.4597687551e+000	 3.1259518841e+000	-4.2587289768e-001
 1.4283264979e+000	 3.1404431878e+000	-3.9789524973e-001
 1.3967978688e+000	 3.1545927968e+000	-3.6265008167e-001
 1.3651882355e+000	 3.1684003979e+000	-3.1976189777e-001
 1.3335029507e+000	 3.1818657860e+000	-2.6889164185e-001
 1.3017473498e+000	 3.1949888634e+000	-2.0973691808e-001
 1.2699267480e+000	 3.2077696387e+000	-1.4203212696e-001
 1.5960487109e+000	 3.0867869237e+000	-7.0877802857e-001
 1.5647808705e+000	 3.1027545548e+000	-6.3426841589e-001
 1.5334043115e+000	 3.1183803837e+000	-5.6867233219e-001
 1.5019244728e+000	 3.1336636511e+000	-5.3060931612e-001
 1.4703467896e+000	 3.1486037093e+000	-5.0233786316e-001
 1.4386766899e+000	 3.1632000224e+000	-4.6674477355e-001
 1.4069195925e+000	 3.1774521649e+000	-4.2339680713e-001
 1.3750809039e+000	 3.1913598211e+000	-3.7189814256e-001
 1.3431660156e+000	 3.2049227845e+000	-3.1189069745e-001
 1.3111803016e+000	 3.2181409566e+000	-2.4305435993e-001
 1.2791291158e+000	 3.2310143462e+000	-1.6510713284e-001
 1.6075310757e+000	 3.1089940239e+000	-7.3495583016e-001
 1.5760382868e+000	 3.1250765300e+000	-6.6690103186e-001
 1.5444359972e+000	 3.1408147750e+000	-6.4532614680e-001
 1.5127296849e+000	 3.1562079939e+000	-6.1698315981e-001
 1.4809248240e+000	 3.1712555346e+000	-5.8134100352e-001
 1.4490268819e+000	 3.1859568571e+000	-5.3790638597e-001
 1.4170413162e+000	 3.2003115330e+000	-4.8622430874e-001
 1.3849735723e+000	 3.2143192443e+000	-4.2587849249e-001
 1.3528290804e+000	 3.2279797829e+000	-3.5649171061e-001
 1.3206132534e+000	 3.2412930498e+000	-2.7772603167e-001
 1.2883314835e+000	 3.2542590537e+000	-1.8928297177e-001
 1.1963078061e+000	 3.0218119785e+000	-2.5845449487e-001
 1.1662756302e+000	 3.0335294880e+000	-4.4438922529e-001
 1.1361921700e+000	 3.0449248518e+000	-5.8168507395e-001
 1.1060623621e+000	 3.0559983723e+000	-6.7096230621e-001
 1.0758911149e+000	 3.0667504478e+000	-7.1299843075e-001
 1.0456833066e+000	 3.0771815712e+000	-7.0872082374e-001
 1.0154437829e+000	 3.0872923289e+000	-6.5919917734e-001
 9.8517735496e-001	 3.0970833988e+000	-5.6563779693e-001
 9.5488879754e-001	 3.1065555498e+000	-4.2936777159e-001
 9.2458284674e-001	 3.1157096398e+000	-2.5183904150e-001
 8.9426419823e-001	 3.1245466141e+000	-3.4612386390e-002
 1.2055101738e+000	 3.0450566860e+000	-1.8036993195e-001
 1.1752469812e+000	 3.0568643302e+000	-3.8896061008e-001
 1.1449321098e+000	 3.0683473506e+000	-5.4842523566e-001
 1.1145705341e+000	 3.0795060520e+000	-6.5933400947e-001
 1.0841672004e+000	 3.0903408358e+000	-7.2241863480e-001
 1.0537270243e+000	 3.1008521987e+000	-7.3856482255e-001
 1.0232548889e+000	 3.1110407314e+000	-7.0880461494e-001
 9.9275564231e-001	 3.1209071173e+000	-6.3430855264e-001
 9.6223409599e-001	 3.1304521310e+000	-4.7431761708e-001
 9.3169502249e-001	 3.1396766370e+000	-2.4125860173e-001
 9.0114315360e-001	 3.1485815881e+000	 2.9802296929e-002
 1.2147125416e+000	 3.0683013935e+000	-1.2776949499e-001
 1.1842183322e+000	 3.0801991724e+000	-3.5486768563e-001
 1.1536720496e+000	 3.0917698495e+000	-5.3224477421e-001
 1.1230787061e+000	 3.1030137318e+000	-6.6042451745e-001
 1.0924432859e+000	 3.1139312239e+000	-7.4009652323e-001
 1.0617707421e+000	 3.1245228262e+000	-7.7210863044e-001
 1.0310659949e+000	 3.1347891339e+000	-6.9168091937e-001
 1.0003339297e+000	 3.1447308357e+000	-5.5938132285e-001
 9.6957939444e-001	 3.1543487122e+000	-3.8306070106e-001
 9.3880719824e-001	 3.1636436342e+000	-1.6730905004e-001
 9.0802210898e-001	 3.1726165620e+000	 8.3518242119e-002
 1.2239149093e+000	 3.0915461010e+000	-1.0249200455e-001
 1.1931896832e+000	 3.1035340146e+000	-3.4397027668e-001
 1.1624119893e+000	 3.1151923483e+000	-5.3502403192e-001
 1.1315868782e+000	 3.1265214116e+000	-6.6842774965e-001
 1.1007193714e+000	 3.1375216120e+000	-6.9760322940e-001
 1.0698144598e+000	 3.1481934537e+000	-6.7103626583e-001
 1.0388771009e+000	 3.1585375365e+000	-5.9395471699e-001
 1.0079122170e+000	 3.1685545542e+000	-4.7133644071e-001
 9.7692469289e-001	 3.1782452933e+000	-3.0791182787e-001
 9.4591937399e-001	 3.1876106315e+000	-1.0816681517e-001
 9.1490106435e-001	 3.1966515360e+000	 1.2365364704e-001
 1.2331172771e+000	 3.1147908086e+000	-1.0637896116e-001
 1.2021610342e+000	 3.1268688568e+000	-3.5137153918e-001
 1.1711519291e+000	 3.1386148472e+000	-4.9927352433e-001
 1.1400950502e+000	 3.1500290914e+000	-5.8392514738e-001
 1.1089954569e+000	 3.1611120000e+000	-6.1099236152e-001
 1.0778581776e+000	 3.1718640811e+000	-5.8587962751e-001
 1.0466882070e+000	 3.1822859390e+000	-5.1373168796e-001
 1.0154905044e+000	 3.1923782726e+000	-3.9943587843e-001
 9.8426999133e-001	 3.2021418745e+000	-2.4762495177e-001
 9.5303154973e-001	 3.2115776287e+000	-6.2680390571e-002
 9.2178001972e-001	 3.2206865099e+000	 1.5126381738e-001
 1.2423196448e+000	 3.1380355161e+000	-1.0353680440e-001
 1.2111323852e+000	 3.1502036991e+000	-3.0566066445e-001
 1.1798918689e+000	 3.1620373461e+000	-4.4244817366e-001
 1.1486032222e+000	 3.1735367712e+000	-5.1976915588e-001
 1.1172715424e+000	 3.1847023881e+000	-5.4322235786e-001
 1.0859018953e+000	 3.1955347086e+000	-5.1813692568e-001
 1.0544993130e+000	 3.2060343415e+000	-4.4957445298e-001
 1.0230687917e+000	 3.2162019911e+000	-3.4233157698e-001
 9.9161528978e-001	 3.2260384556e+000	-2.0094309736e-001
 9.6014372548e-001	 3.2355446259e+000	-2.9685592380e-002
 9.2865897510e-001	 3.2447214839e+000	 1.6741849397e-001
 1.2515220125e+000	 3.1612802236e+000	-9.9209828101e-002
 1.2201037362e+000	 3.1735385413e+000	-2.8168898607e-001
 1.1886318086e+000	 3.1854598449e+000	-4.0577724605e-001
 1.1571113942e+000	 3.1970444510e+000	-4.7426326431e-001
 1.1255476279e+000	 3.2082927761e+000	-4.9267879520e-001
 1.0939456130e+000	 3.2192053361e+000	-4.6627773323e-001
 1.0623104190e+000	 3.2297827441e+000	-4.0003843869e-001
 1.0306470791e+000	 3.2400257095e+000	-2.9866662207e-001
 9.9896058822e-001	 3.2499350368e+000	-1.6659876131e-001
 9.6725590122e-001	 3.2595116232e+000	-8.0060255301e-003
 9.3553793047e-001	 3.2687564578e+000	 1.7320132205e-001
 1.2607243803e+000	 3.1845249311e+000	-1.2006372111e-001
 1.2290750872e+000	 3.1968733835e+000	-2.7760261817e-001
 1.1973717484e+000	 3.2088823438e+000	-3.8748344539e-001
 1.1656195662e+000	 3.2205521308e+000	-4.4570875762e-001
 1.1338237134e+000	 3.2318831642e+000	-4.5774348349e-001
 1.1019893308e+000	 3.2428759635e+000	-4.2876628023e-001
 1.0701215250e+000	 3.2535311466e+000	-3.6367214025e-001
 1.0382253664e+000	 3.2638494280e+000	-2.6707556741e-001
 1.0063058867e+000	 3.2738316179e+000	-1.4331429669e-001
 9.7436807697e-001	 3.2834786204e+000	 3.5464705936e-003
 9.4241688584e-001	 3.2927914318e+000	 1.6970934384e-001
 1.2699267480e+000	 3.2077696387e+000	-1.4203212696e-001
 1.2380464382e+000	 3.2202082257e+000	-2.9154852063e-001
 1.2061116882e+000	 3.2323048426e+000	-3.8578884350e-001
 1.1741277382e+000	 3.2440598105e+000	-4.3240479643e-001
 1.1420997989e+000	 3.2554735523e+000	-4.3679460235e-001
 1.1100330485e+000	 3.2665465910e+000	-4.0406164753e-001
 1.0779326310e+000	 3.2772795491e+000	-3.3901737242e-001
 1.0458036537e+000	 3.2876731465e+000	-2.4618474380e-001
 1.0136511851e+000	 3.2977281991e+000	-1.2980228043e-001
 9.8148025271e-001	 3.3074456176e+000	 6.1713958681e-003
 9.4929584121e-001	 3.3168264057e+000	 1.5805251311e-001
 1.2791291158e+000	 3.2310143462e+000	-1.6510713284e-001
 1.2470177892e+000	 3.2435430679e+000	-3.2167446866e-001
 1.2148516279e+000	 3.2557273415e+000	-3.9891490290e-001
 1.1826359103e+000	 3.2675674903e+000	-4.3264849345e-001
 1.1503758844e+000	 3.2790639403e+000	-4.2820683171e-001
 1.1180767663e+000	 3.2902172185e+000	-3.9061795192e-001
 1.0857437371e+000	 3.3010279516e+000	-3.2460950995e-001
 1.0533819411e+000	 3.3114968649e+000	-2.3461255490e-001
 1.0209964835e+000	 3.3216247802e+000	-1.2476586500e-001
 9.8859242845e-001	 3.3314126149e+000	 1.0791815430e-003
 9.5617479658e-001	 3.3408613797e+000	 1.3935323077e-001
 1.2883314835e+000	 3.2542590537e+000	-1.8928297177e-001
 1.2559891402e+000	 3.2668779101e+000	-3.4986800677e-001
 1.2235915677e+000	 3.2791498404e+000	-4.2508249850e-001
 1.1911440823e+000	 3.2910751701e+000	-4.4473498657e-001
 1.1586519699e+000	 3.3026543284e+000	-4.3035147671e-001
 1.1261204840e+000	 3.3138878460e+000	-3.8688452348e-001
 1.0935548431e+000	 3.3247763542e+000	-3.1897771749e-001
 1.0609602284e+000	 3.3353205834e+000	-2.3096976039e-001
 1.0283417820e+000	 3.3455213614e+000	-1.2689911499e-001
 9.9570460419e-001	 3.3553796121e+000	-1.0509200165e-002
 9.6305375194e-001	 3.3648963537e+000	 1.1474590030e-001
 8.9426419823e-001	 3.1245466141e+000	-3.4612386390e-002
 8.6393750537e-001	 3.1330675043e+000	 1.1342290928e-001
 8.3360737744e-001	 3.1412734265e+000	 2.7464512312e-001
 8.0327837781e-001	 3.1491655796e+000	 4.4076614463e-001
 7.7295502237e-001	 3.1567452436e+000	 6.0765643360e-001
 7.4264177780e-001	 3.1640137784e+000	 7.7141844310e-001
 7.1234306010e-001	 3.1709726212e+000	 9.2838183319e-001
 6.8206323302e-001	 3.1776232857e+000	 1.0750983825e+000
 6.5180660668e-001	 3.1839673596e+000	 1.2083366220e+000
 6.2157743620e-001	 3.1900065032e+000	 1.1378643499e+000
 5.9137992034e-001	 3.1957424473e+000	-4.5649992874e-001
 9.0114315360e-001	 3.1485815881e+000	 2.9802296929e-002
 8.7058317850e-001	 3.1571680236e+000	 1.4189911418e-001
 8.4001974188e-001	 3.1654370683e+000	 2.6417163752e-001
 8.0945744226e-001	 3.1733899302e+000	 3.9242712298e-001
 7.7890083024e-001	 3.1810278994e+000	 5.2271038180e-001
 7.4835440687e-001	 3.1883523459e+000	 6.5129902228e-001
 7.1782262210e-001	 3.1953647183e+000	 7.7469836671e-001
 6.8730987327e-001	 3.2020665418e+000	 8.8963606848e-001
 6.5682050366e-001	 3.2084594163e+000	 9.9305645475e-001
 6.2635880109e-001	 3.2145450148e+000	 1.0821146195e+000
 5.9592899665e-001	 3.2203250815e+000	-5.3889001304e-001
 9.0802210898e-001	 3.1726165620e+000	 8.3518242119e-002
 8.7722885162e-001	 3.1812685429e+000	 1.5915990611e-001
 8.4643210633e-001	 3.1896007100e+000	 2.4575908486e-001
 8.1563650671e-001	 3.1976142808e+000	 3.3929660053e-001
 7.8484663811e-001	 3.2053105551e+000	 4.3599208391e-001
 7.5406703593e-001	 3.2126909134e+000	 5.3229891302e-001
 7.2330218410e-001	 3.2197568154e+000	 6.2489882835e-001
 6.9255651353e-001	 3.2265097978e+000	 7.1069625063e-001
 6.6183440064e-001	 3.2329514729e+000	 7.8681232698e-001
 6.3114016599e-001	 3.2390835264e+000	 8.5057873112e-001
 6.0047807296e-001	 3.2449077157e+000	-5.7962196312e-001
 9.1490106435e-001	 3.1966515360e+000	 1.2365364704e-001
 8.8387452474e-001	 3.2053690621e+000	 1.6609741092e-001
 8.5284447077e-001	 3.2137643518e+000	 2.2015115681e-001
 8.2181557116e-001	 3.2218386314e+000	 2.8196966118e-001
 7.9079244597e-001	 3.2295932108e+000	 3.4794791344e-001
 7.5977966499e-001	 3.2370294809e+000	 4.1471574656e-001
 7.2878174611e-001	 3.2441489125e+000	 4.7913214563e-001
 6.9780315378e-001	 3.2509530539e+000	 5.3827926130e-001
 6.6684829761e-001	 3.2574435295e+000	 5.8945615430e-001
 6.3592153088e-001	 3.2636220379e+000	 6.3017229758e-001
 6.0502714927e-001	 3.2694903500e+000	-5.8280691868e-001
 9.2178001972e-001	 3.2206865099e+000	 1.5126381738e-001
 8.9052019786e-001	 3.2294695814e+000	 1.6362202928e-001
 8.5925683522e-001	 3.2379279935e+000	 1.8811307421e-001
 8.2799463561e-001	 3.2460629820e+000	 2.2106614102e-001
 7.9673825384e-001	 3.2538758665e+000	 2.5905218670e-001
 7.6549229405e-001	 3.2613680485e+000	 2.9887825397e-001
 7.3426130811e-001	 3.2685410096e+000	 3.3758146834e-001
 7.0304979404e-001	 3.2753963099e+000	 3.7242274199e-001
 6.7186219458e-001	 3.2819355861e+000	 4.0088021155e-001
 6.4070289577e-001	 3.2881605495e+000	 4.2064243686e-001
 6.0957622558e-001	 3.2940729842e+000	-5.5250967354e-001
 9.2865897510e-001	 3.2447214839e+000	 1.6741849397e-001
 8.9716587098e-001	 3.2535701007e+000	 1.5266175983e-001
 8.6566919966e-001	 3.2620916352e+000	 1.5043078963e-001
 8.3417370005e-001	 3.2702873326e+000	 1.5722971157e-001
 8.0268406170e-001	 3.2781585222e+000	 1.6980612781e-001
 7.7120492311e-001	 3.2857066160e+000	 1.8514511426e-001
 7.3974087011e-001	 3.2929331067e+000	 2.0046290099e-001
 7.0829643429e-001	 3.2998395660e+000	 2.1320026140e-001
 6.7687609156e-001	 3.3064276427e+000	 2.2101563801e-001
 6.4548426067e-001	 3.3126990611e+000	 2.2177803244e-001
 6.1412530188e-001	 3.3186556184e+000	-4.9275039213e-001
 9.3553793047e-001	 3.2687564578e+000	 1.7320132205e-001
 9.0381154410e-001	 3.2776706199e+000	 1.3416155217e-001
 8.7208156410e-001	 3.2862552770e+000	 1.0791022524e-001
 8.4035276450e-001	 3.2945116833e+000	 9.1127003443e-002
 8.0862986957e-001	 3.3024411780e+000	 8.0736879466e-002
 7.7691755217e-001	 3.3100451835e+000	 7.3903853373e-002
 7.4522043211e-001	 3.3173252037e+000	 6.8024291288e-002
 7.1354307455e-001	 3.3242828220e+000	 6.0719994641e-002
 6.8188998853e-001	 3.3309196993e+000	 4.9831008566e-002
 6.5026562556e-001	 3.3372375726e+000	 3.3408197764e-002
 6.1867437819e-001	 3.3432382526e+000	-4.0750625031e-001
 9.4241688584e-001	 3.2927914318e+000	 1.6970934384e-001
 9.1045721722e-001	 3.3017711392e+000	 1.0908268823e-001
 8.7849392854e-001	 3.3104189187e+000	 6.1376543929e-002
 8.4653182894e-001	 3.3187360339e+000	 2.3446768458e-002
 8.1457567743e-001	 3.3267238337e+000	-7.6034429889e-003
 7.8263018123e-001	 3.3343837511e+000	-3.4430208630e-002
 7.5069999411e-001	 3.3417173008e+000	-5.9455928377e-002
 7.1878971480e-001	 3.3487260780e+000	-8.4876539809e-002
 6.8690388551e-001	 3.3554117559e+000	-1.1266903255e-001
 6.5504699045e-001	 3.3617760842e+000	-1.4459919201e-001
 6.2322345450e-001	 3.3678208868e+000	-3.0071300430e-001
 9.4929584121e-001	 3.3168264057e+000	 1.5805251311e-001
 9.1710289033e-001	 3.3258716585e+000	 7.8402190537e-002
 8.8490629298e-001	 3.3345825605e+000	 1.1673452231e-002
 8.5271089338e-001	 3.3429603845e+000	-4.5100921872e-002
 8.2052148530e-001	 3.3510064894e+000	-9.4638656374e-002
 7.8834281029e-001	 3.3587223186e+000	-1.3941496460e-001
 7.5617955611e-001	 3.3661093979e+000	-1.8166984909e-001
 7.2403635505e-001	 3.3731693341e+000	-2.2341568818e-001
 6.9191778248e-001	 3.3799038126e+000	-2.6644507860e-001
 6.5982835535e-001	 3.3863145957e+000	-3.1233890441e-001
 6.2777253081e-001	 3.3924035210e+000	-3.6247460290e-001
 9.5617479658e-001	 3.3408613797e+000	 1.3935323077e-001
 9.2374856345e-001	 3.3499721777e+000	 4.3112255966e-002
 8.9131865742e-001	 3.3587462022e+000	-4.0337466746e-002
 8.5888995783e-001	 3.3671847351e+000	-1.1378544323e-001
 8.2646729316e-001	 3.3752891451e+000	-1.7976937542e-001
 7.9405543935e-001	 3.3830608861e+000	-2.4058248387e-001
 7.6165911811e-001	 3.3905014950e+000	-2.9828114572e-001
 7.2928299530e-001	 3.3976125901e+000	-3.5469281737e-001
 6.9693167945e-001	 3.4043958692e+000	-4.1142421084e-001
 6.6460972024e-001	 3.4108531073e+000	-4.6986969345e-001
 6.3232160712e-001	 3.4169861552e+000	-5.3121988086e-001
 9.6305375194e-001	 3.3648963537e+000	 1.1474590030e-001
 9.3039423656e-001	 3.3740726970e+000	 4.2197138283e-003
 8.9773102186e-001	 3.3829098440e+000	-9.3777391755e-002
 8.6506902227e-001	 3.3914090857e+000	-1.8185635251e-001
 8.3241310102e-001	 3.3995718009e+000	-2.6237384143e-001
 7.9976806841e-001	 3.4073994536e+000	-3.3743993451e-001
 7.6713868010e-001	 3.4148935921e+000	-4.0892609176e-001
 7.3452963556e-001	 3.4220558462e+000	-4.7847342134e-001
 7.0194557643e-001	 3.4288879258e+000	-5.4750119532e-001
 6.6939108513e-001	 3.4353916189e+000	-6.1721558583e-001
 6.3687068343e-001	 3.4415687894e+000	-6.8861859089e-001
 5.9137992034e-001	 3.1957424473e+000	-4.5649992874e-001
 5.6121820030e-001	 3.2011769916e+000	-1.9269980914e-001
 5.3109635855e-001	 3.2063120026e+000	 2.0503204714e-002
 5.0101841767e-001	 3.2111494118e+000	 1.8993755596e-001
 4.7098833933e-001	 3.2156912140e+000	 3.2199746531e-001
 4.4101002328e-001	 3.2199394651e+000	 4.2265786009e-001
 4.1108730644e-001	 3.2238962803e+000	 4.9748955119e-001
 3.8122396201e-001	 3.2275638322e+000	 5.5167460860e-001
 3.5142369869e-001	 3.2309443486e+000	 5.9002188743e-001
 3.2169015991e-001	 3.2340401112e+000	 6.1698265833e-001
 2.9202692318e-001	 3.2368534530e+000	 6.3666629733e-001
 5.9592899665e-001	 3.2203250815e+000	-5.3889001304e-001
 5.6553526338e-001	 3.2258014300e+000	-2.7598468433e-001
 5.3518171515e-001	 3.2309759410e+000	-6.1136992324e-002
 5.0487240550e-001	 3.2358505611e+000	 1.1204465802e-001
 4.7461132655e-001	 3.2404273003e+000	 2.4951646045e-001
 4.4440240807e-001	 3.2447082303e+000	 3.5681485984e-001
 4.1424951648e-001	 3.2486954825e+000	 4.3907243848e-001
 3.8415645402e-001	 3.2523912463e+000	 5.0103398587e-001
 3.5412695790e-001	 3.2557977667e+000	 5.4707270275e-001
 3.2416469960e-001	 3.2589173428e+000	 5.8120649219e-001
 2.9427328412e-001	 3.2617523257e+000	 6.0711429195e-001
 6.0047807296e-001	 3.2449077157e+000	-5.7962196312e-001
 5.6985232646e-001	 3.2504258684e+000	-3.2337460119e-001
 5.3926707176e-001	 3.2556398795e+000	-1.1240918714e-001
 5.0872639332e-001	 3.2605517105e+000	 5.9226013666e-002
 4.7823431377e-001	 3.2651633866e+000	 1.9704593996e-001
 4.4779479286e-001	 3.2694769954e+000	 3.0614512195e-001
 4.1741172653e-001	 3.2734946847e+000	 3.9121428867e-001
 3.8708894603e-001	 3.2772186604e+000	 4.5655714361e-001
 3.5683021712e-001	 3.2806511848e+000	 5.0610725833e-001
 3.2663923928e-001	 3.2837945745e+000	 5.4344503576e-001
 2.9651964507e-001	 3.2866511984e+000	 5.7181469646e-001
 6.0502714927e-001	 3.2694903500e+000	-5.8280691868e-001
 5.7416938954e-001	 3.2750503068e+000	-3.3864576050e-001
 5.4335242836e-001	 3.2803038180e+000	-1.3675412761e-001
 5.1258038115e-001	 3.2852528598e+000	 2.8376675869e-002
 4.8185730100e-001	 3.2898994728e+000	 1.6181694068e-001
 4.5118717765e-001	 3.2942457605e+000	 2.6821568658e-001
 4.2057393658e-001	 3.2982938868e+000	 3.5181800252e-001
 3.9002143804e-001	 3.3020460744e+000	 4.1648253992e-001
 3.5953347634e-001	 3.3055046028e+000	 4.6569910755e-001
 3.2911377897e-001	 3.3086718061e+000	 5.0260631870e-001
 2.9876600601e-001	 3.3115500711e+000	 5.3000924287e-001
 6.0957622558e-001	 3.2940729842e+000	-5.5250967354e-001
 5.7848645261e-001	 3.2996747452e+000	-3.2553462236e-001
 5.4743778496e-001	 3.3049677565e+000	-1.3757938023e-001
 5.1643436897e-001	 3.3099540091e+000	 1.6418367847e-002
 4.8548028822e-001	 3.3146355591e+000	 1.4108070895e-001
 4.5457956245e-001	 3.3190145256e+000	 2.4060739516e-001
 4.2373614662e-001	 3.3230930890e+000	 3.1879392848e-001
 3.9295393006e-001	 3.3268734885e+000	 3.7904978370e-001
 3.6223673555e-001	 3.3303580209e+000	 4.2441671635e-001
 3.3158831866e-001	 3.3335490377e+000	 4.5758710554e-001
 3.0101236695e-001	 3.3364489438e+000	 4.8092228280e-001
 6.1412530188e-001	 3.3186556184e+000	-4.9275039213e-001
 5.8280351569e-001	 3.3242991836e+000	-2.8773937805e-001
 5.5152314156e-001	 3.3296316950e+000	-1.1826055905e-001
 5.2028835680e-001	 3.3346551584e+000	 2.0298495274e-002
 4.8910327544e-001	 3.3393716454e+000	 1.3210795211e-001
 4.5797194724e-001	 3.3437832907e+000	 2.2091437925e-001
 4.2689835667e-001	 3.3478922911e+000	 2.9005958691e-001
 3.9588642207e-001	 3.3517009026e+000	 3.4249959207e-001
 3.6493999477e-001	 3.3552114390e+000	 3.8082365167e-001
 3.3406285835e-001	 3.3584262693e+000	 4.0727331294e-001
 3.0325872790e-001	 3.3613478166e+000	 4.2376143114e-001
 6.1867437819e-001	 3.3432382526e+000	-4.0750625031e-001
 5.8712057877e-001	 3.3489236220e+000	-2.2892135702e-001
 5.5560849817e-001	 3.3542956335e+000	-8.2142500400e-002
 5.2414234463e-001	 3.3593563078e+000	 3.6989202072e-002
 4.9272626267e-001	 3.3641077316e+000	 1.3218812301e-001
 4.6136433203e-001	 3.3685520559e+000	 2.0674357197e-001
 4.3006056672e-001	 3.3726914933e+000	 2.6353940636e-001
 3.9881891408e-001	 3.3765283167e+000	 3.0507374960e-001
 3.6764325399e-001	 3.3800648570e+000	 3.3347876156e-001
 3.3653739804e-001	 3.3833035010e+000	 3.5054040847e-001
 3.0550508885e-001	 3.3862466893e+000	 3.5771818144e-001
 6.2322345450e-001	 3.3678208868e+000	-3.0071300430e-001
 5.9143764185e-001	 3.3735480604e+000	-1.5270637213e-001
 5.5969385477e-001	 3.3789595719e+000	-3.2540386186e-002
 5.2799633246e-001	 3.3840574571e+000	 6.3486467560e-002
 4.9634924989e-001	 3.3888438179e+000	 1.3862873589e-001
 4.6475671683e-001	 3.3933208210e+000	 1.9571424071e-001
 4.3322277677e-001	 3.3974906954e+000	 2.3716447146e-001
 4.0175140610e-001	 3.4013557308e+000	 2.6501506936e-001
 3.7034651321e-001	 3.4049182751e+000	 2.8093634741e-001
 3.3901193773e-001	 3.4081807326e+000	 2.8625379197e-001
 3.0775144979e-001	 3.4111455620e+000	 2.8196849423e-001
 6.2777253081e-001	 3.3924035210e+000	-3.6247460290e-001
 5.9575470493e-001	 3.3981724988e+000	-6.2686006574e-002
 5.6377921137e-001	 3.4036235104e+000	 2.7259181708e-002
 5.3185032028e-001	 3.4087586064e+000	 9.6809242847e-002
 4.9997223712e-001	 3.4135799042e+000	 1.4875471195e-001
 4.6814910162e-001	 3.4180895861e+000	 1.8545754029e-001
 4.3638498682e-001	 3.4222898976e+000	 2.0887228177e-001
 4.0468389811e-001	 3.4261831449e+000	 2.2056735568e-001
 3.7304977243e-001	 3.4297716932e+000	 2.2174632866e-001
 3.4148647742e-001	 3.4330579642e+000	 2.1326916034e-001
 3.0999781074e-001	 3.4360444347e+000	 1.9567335985e-001
 6.3232160712e-001	 3.4169861552e+000	-5.3121988086e-001
 6.0007176801e-001	 3.4227969372e+000	 3.7581154905e-002
 5.6786456798e-001	 3.4282874489e+000	 9.3997153340e-002
 5.3570430811e-001	 3.4334597557e+000	 1.3399862451e-001
 5.0359522435e-001	 3.4383159904e+000	 1.5990775322e-001
 4.7154148642e-001	 3.4428583512e+000	 1.7361608537e-001
 4.3954719687e-001	 3.4470890998e+000	 1.7660652101e-001
 4.0761639013e-001	 3.4510105590e+000	 1.6997536842e-001
 3.7575303165e-001	 3.4546251112e+000	 1.5445440043e-001
 3.4396101711e-001	 3.4579351959e+000	 1.3043285655e-001
 3.1224417169e-001	 3.4609433074e+000	 9.7979336891e-002
 6.3687068343e-001	 3.4415687894e+000	-6.8861859089e-001
 6.0438883109e-001	 3.4474213756e+000	 1.4456834747e-001
 5.7194992458e-001	 3.4529513874e+000	 1.6444104672e-001
 5.3955829594e-001	 3.4581609051e+000	 1.7211706369e-001
 5.0721821157e-001	 3.4630520767e+000	 1.6944574326e-001
 4.7493387121e-001	 3.4676271163e+000	 1.5784354111e-001
 4.4270940692e-001	 3.4718883019e+000	 1.3831683622e-001
 4.1054888215e-001	 3.4758379731e+000	 1.1148478895e-001
 3.7845629087e-001	 3.4794785293e+000	 7.7602184418e-002
 3.4643555681e-001	 3.4828124275e+000	 3.6582203743e-002
 3.1449053264e-001	 3.4858421801e+000	-1.1980932321e-002
 2.9202692318e-001	 3.2368534530e+000	 6.3666629733e-001
 2.6243749943e-001	 3.2393867566e+000	 7.1346113395e-001
 2.3292533249e-001	 3.2416424524e+000	 7.7859715614e-001
 2.0349379852e-001	 3.2436230166e+000	 8.3478012927e-001
 1.7414620565e-001	 3.2453309691e+000	 8.8445559420e-001
 1.4488579349e-001	 3.2467688718e+000	 9.2982424261e-001
 1.1571573288e-001	 3.2479393266e+000	 9.7285710028e-001
 8.6639125561e-002	 3.2488449735e+000	 1.0153104876e+000
 5.7659003953e-002	 3.2494884889e+000	 1.0587407285e+000
 2.8778330992e-002	 3.2498725833e+000	 1.1045185808e+000
 0.0000000000e+000	 3.2500000000e+000	 1.1538433634e+000
 2.9427328412e-001	 3.2617523257e+000	 6.0711429195e-001
 2.6445624942e-001	 3.2643051163e+000	 6.7329790156e-001
 2.3471706581e-001	 3.2665781636e+000	 7.2833883778e-001
 2.0505913543e-001	 3.2685739629e+000	 7.7461602433e-001
 1.7548579184e-001	 3.2702950535e+000	 8.1424971294e-001
 1.4600029959e-001	 3.2717440170e+000	 8.4911740059e-001
 1.1660585390e-001	 3.2729234752e+000	 8.8086953655e-001
 8.7305580372e-002	 3.2738360887e+000	 9.1094498795e-001
 5.8102534752e-002	 3.2744845542e+000	 9.4058623441e-001
 2.8999702769e-002	 3.2748716032e+000	 9.7085426458e-001
 0.0000000000e+000	 3.2750000000e+000	 1.0026431493e+000
 2.9651964507e-001	 3.2866511984e+000	 5.7181469646e-001
 2.6647499942e-001	 3.2892234759e+000	 6.2744182321e-001
 2.3650879913e-001	 3.2915138748e+000	 6.7259436560e-001
 2.0662447234e-001	 3.2935249092e+000	 7.0931883040e-001
 1.7682537804e-001	 3.2952591379e+000	 7.3940454293e-001
 1.4711480569e-001	 3.2967191621e+000	 7.6440011674e-001
 1.1749597492e-001	 3.2979076239e+000	 7.8562969480e-001
 8.7972035183e-002	 3.2988272039e+000	 8.0420893014e-001
 5.8546065551e-002	 3.2994806195e+000	 8.2106067602e-001
 2.9221074545e-002	 3.2998706230e+000	 8.3693035810e-001
 0.0000000000e+000	 3.3000000000e+000	 8.5240100291e-001
 2.9876600601e-001	 3.3115500711e+000	 5.3000924287e-001
 2.6849374941e-001	 3.3141418356e+000	 5.7538587132e-001
 2.3830053246e-001	 3.3164495860e+000	 6.1110790886e-001
 2.0818980925e-001	 3.3184758555e+000	 6.3888374266e-001
 1.7816496423e-001	 3.3202232222e+000	 6.6016600848e-001
 1.4822931180e-001	 3.3216943073e+000	 6.7616862363e-001
 1.1838609594e-001	 3.3228917726e+000	 6.8788357257e-001
 8.8638489994e-002	 3.3238183191e+000	 6.9609741280e-001
 5.8989596350e-002	 3.3244766848e+000	 7.0140747057e-001
 2.9442446322e-002	 3.3248696429e+000	 7.0423769821e-001
 0.0000000000e+000	 3.3250000000e+000	 7.0485416716e-001
 3.0101236695e-001	 3.3364489438e+000	 4.8092228280e-001
 2.7051249940e-001	 3.3390601953e+000	 5.1660202067e-001
 2.4009226578e-001	 3.3413852971e+000	 5.4359905704e-001
 2.0975514616e-001	 3.3434268017e+000	 5.6327783041e-001
 1.7950455043e-001	 3.3451873066e+000	 5.7674839913e-001
 1.4934381790e-001	 3.3466694525e+000	 5.8488404814e-001
 1.1927621697e-001	 3.3478759212e+000	 5.8833862974e-001
 8.9304944806e-002	 3.3488094342e+000	 5.8756360489e-001
 5.9433127149e-002	 3.3494727501e+000	 5.8282475439e-001
 2.9663818098e-002	 3.3498686628e+000	 5.7421853113e-001
 0.0000000000e+000	 3.3500000000e+000	 5.6168802711e-001
 3.0325872790e-001	 3.3613478166e+000	 4.2376143114e-001
 2.7253124940e-001	 3.3639785549e+000	 4.5054202611e-001
 2.4188399911e-001	 3.3663210083e+000	 4.6976373018e-001
 2.1132048307e-001	 3.3683777480e+000	 4.8244107885e-001
 1.8084413662e-001	 3.3701513910e+000	 4.8933554123e-001
 1.5045832400e-001	 3.3716445976e+000	 4.9097371164e-001
 1.2016633799e-001	 3.3728600699e+000	 4.8766521592e-001
 8.9971399617e-002	 3.3738005494e+000	 4.7952029868e-001
 5.9876657948e-002	 3.3744688154e+000	 4.6646705995e-001
 2.9885189875e-002	 3.3748676827e+000	 4.4826831212e-001
 0.0000000000e+000	 3.3750000000e+000	 4.2453803044e-001
 3.0550508885e-001	 3.3862466893e+000	 3.5771818144e-001
 2.7454999939e-001	 3.3888969146e+000	 3.7663816596e-001
 2.4367573243e-001	 3.3912567195e+000	 3.8927504914e-001
 2.1288581998e-001	 3.3933286943e+000	 3.9628738475e-001
 1.8218372282e-001	 3.3951154754e+000	 3.9808191799e-001
 1.5157283010e-001	 3.3966197428e+000	 3.9483237284e-001
 1.2105645901e-001	 3.3978442186e+000	 3.8649793476e-001
 9.0637854428e-002	 3.3987916646e+000	 3.7284139419e-001
 6.0320188747e-002	 3.3994648807e+000	 3.5344691894e-001
 3.0106561652e-002	 3.3998667025e+000	 3.2773742568e-001
 0.0000000000e+000	 3.4000000000e+000	 2.9499152342e-001
 3.0775144979e-001	 3.4111455620e+000	 2.8196849423e-001
 2.7656874939e-001	 3.4138152743e+000	 2.9430395278e-001
 2.4546746576e-001	 3.4161924307e+000	 3.0178416762e-001
 2.1445115689e-001	 3.4182796406e+000	 3.0470550861e-001
 1.8352330902e-001	 3.4200795598e+000	 3.0311374033e-001
 1.5268733621e-001	 3.4215948880e+000	 2.9682341623e-001
 1.2194658003e-001	 3.4228283672e+000	 2.8543694854e-001
 9.1304309239e-002	 3.4237827798e+000	 2.6836331859e-001
 6.0763719546e-002	 3.4244609460e+000	 2.4483639518e-001
 3.0327933428e-002	 3.4248657224e+000	 2.1393283052e-001
 0.0000000000e+000	 3.4250000000e+000	 1.7458950646e-001
 3.0999781074e-001	 3.4360444347e+000	 1.9567335985e-001
 2.7858749938e-001	 3.4387336339e+000	 2.0293481333e-001
 2.4725919909e-001	 3.4411281418e+000	 2.0692106810e-001
 2.1601649380e-001	 3.4432305869e+000	 2.0755998541e-001
 1.8486289521e-001	 3.4450436441e+000	 2.0452997129e-001
 1.5380184231e-001	 3.4465700331e+000	 1.9727998882e-001
 1.2283670105e-001	 3.4478125159e+000	 1.8504922606e-001
 9.1970764051e-002	 3.4487738950e+000	 1.6688638394e-001
 6.1207250346e-002	 3.4494570113e+000	 1.4166855078e-001
 3.0549305205e-002	 3.4498647423e+000	 1.0811963292e-001
 0.0000000000e+000	 3.4500000000e+000	 6.4828313275e-002
 3.1224417169e-001	 3.4609433074e+000	 9.7979336891e-002
 2.8060624938e-001	 3.4636519936e+000	 1.0190873912e-001
 2.4905093241e-001	 3.4660638530e+000	 1.0429532342e-001
 2.1758183071e-001	 3.4681815332e+000	 1.0469199599e-001
 1.8620248141e-001	 3.4700077285e+000	 1.0240330612e-001
 1.5491634841e-001	 3.4715451783e+000	 9.6506087789e-002
 1.2372682207e-001	 3.4727966646e+000	 8.5869736677e-002
 9.2637218862e-002	 3.4737650101e+000	 6.9176086272e-002
 6.1650781145e-002	 3.4744530766e+000	 4.4938849146e-002
 3.0770676981e-002	 3.4748637621e+000	 1.1522592246e-002
 0.0000000000e+000	 3.4750000000e+000	-3.2838782363e-002
 3.1449053264e-001	 3.4858421801e+000	-1.1980932321e-002
 2.8262499937e-001	 3.4885703533e+000	-9.4130908826e-003
 2.5084266574e-001	 3.4909995642e+000	-6.5031743445e-003
 2.1914716763e-001	 3.4931324794e+000	-4.0797988325e-003
 1.8754206761e-001	 3.4949718129e+000	-3.2188895269e-003
 1.5603085452e-001	 3.4965203235e+000	-5.2223983973e-003
 1.2461694309e-001	 3.4977808132e+000	-1.1597406923e-002
 9.3303673673e-002	 3.4987561253e+000	-2.4035650964e-002
 6.2094311944e-002	 3.4994491419e+000	-4.4393502240e-002
 3.0992048758e-002	 3.4998627820e+000	-7.4672438124e-002
 0.0000000000e+000	 3.5000000000e+000	-1.1700002881e-001
 3.5000000000e+000	 0.0000000000e+000	 6.4030957095e-001
 3.4998627820e+000	 3.0992048758e-002	 6.6723205736e-001
 3.4994491419e+000	 6.2094311944e-002	 6.8675272055e-001
 3.4987561253e+000	 9.3303673673e-002	 7.0084765416e-001
 3.4977808132e+000	 1.2461694309e-001	 7.1136606136e-001
 3.4965203235e+000	 1.5603085452e-001	 7.2003314376e-001
 3.4949718129e+000	 1.8754206761e-001	 7.2845356603e-001
 3.4931324794e+000	 2.1914716763e-001	 7.3811550617e-001
 3.4909995642e+000	 2.5084266574e-001	 7.5039530047e-001
 3.4885703533e+000	 2.8262499937e-001	 7.6656269005e-001
 3.4858421801e+000	 3.1449053264e-001	 7.8778667466e-001
 3.5250000000e+000	 0.0000000000e+000	 6.8584586106e-001
 3.5248618019e+000	 3.1213420535e-002	 7.0697322168e-001
 3.5244452072e+000	 6.2537842743e-002	 7.2325862083e-001
 3.5237472405e+000	 9.3970128485e-002	 7.3633664339e-001
 3.5227649619e+000	 1.2550706412e-001	 7.4770343233e-001
 3.5214954686e+000	 1.5714536062e-001	 7.5871981252e-001
 3.5199358973e+000	 1.8888165380e-001	 7.7061501736e-001
 3.5180834257e+000	 2.2071250454e-001	 7.8449102865e-001
 3.5159352753e+000	 2.5263439907e-001	 8.0132753894e-001
 3.5134887129e+000	 2.8464374937e-001	 8.2198754364e-001
 3.5107410529e+000	 3.1673689358e-001	 8.4722356871e-001
 3.5500000000e+000	 0.0000000000e+000	 7.3565673600e-001
 3.5498608218e+000	 3.1434792311e-002	 7.4814108396e-001
 3.5494412725e+000	 6.2981373542e-002	 7.5843227569e-001
 3.5487383557e+000	 9.4636583296e-002	 7.6782170778e-001
 3.5477491106e+000	 1.2639718514e-001	 7.7745064400e-001
 3.5464706138e+000	 1.5825986672e-001	 7.8831357520e-001
 3.5448999816e+000	 1.9022124000e-001	 8.0126220935e-001
 3.5430343720e+000	 2.2227784145e-001	 8.1701010282e-001
 3.5408709865e+000	 2.5442613239e-001	 8.3613794224e-001
 3.5384070726e+000	 2.8666249936e-001	 8.5909948453e-001
 3.5356399256e+000	 3.1898325453e-001	 8.8622816131e-001
 3.5750000000e+000	 0.0000000000e+000	 7.8832025495e-001
 3.5748598416e+000	 3.1656164088e-002	 7.8956370378e-001
 3.5744373378e+000	 6.3424904341e-002	 7.9135292156e-001
 3.5737294709e+000	 9.5303038108e-002	 7.9463432903e-001
 3.5727332592e+000	 1.2728730616e-001	 8.0019238092e-001
 3.5714457590e+000	 1.5937437283e-001	 8.0865316302e-001
 3.5698640660e+000	 1.9156082620e-001	 8.2048864730e-001
 3.5679853183e+000	 2.2384317836e-001	 8.3602161633e-001
 3.5658066977e+000	 2.5621786572e-001	 8.5543126683e-001
 3.5633254323e+000	 2.8868124936e-001	 8.7875950015e-001
 3.5605387983e+000	 3.2122961548e-001	 9.0591790610e-001
 3.6000000000e+000	 0.0000000000e+000	 8.4245397543e-001
 3.5998588615e+000	 3.1877535864e-002	 8.3010468415e-001
 3.5994334031e+000	 6.3868435141e-002	 8.2113138115e-001
 3.5987205860e+000	 9.5969492919e-002	 8.1613361719e-001
 3.5977174079e+000	 1.2817742718e-001	 8.1553699866e-001
 3.5964209041e+000	 1.6048887893e-001	 8.1959702314e-001
 3.5948281504e+000	 1.9290041239e-001	 8.2840360110e-001
 3.5929362646e+000	 2.2540851527e-001	 8.4188627537e-001
 3.5907424089e+000	 2.5800959905e-001	 8.5982014859e-001
 3.5882437919e+000	 2.9069999936e-001	 8.8183252668e-001
 3.5854376710e+000	 3.2347597643e-001	 9.0741028496e-001
 3.6250000000e+000	 0.0000000000e+000	 8.9671359130e-001
 3.6248578814e+000	 3.2098907641e-002	 8.6866194594e-001
 3.6244294683e+000	 6.4311965940e-002	 8.4690897429e-001
 3.6237117012e+000	 9.6635947731e-002	 8.3170535790e-001
 3.6227015566e+000	 1.2906754820e-001	 8.2311570757e-001
 3.6213960493e+000	 1.6160338503e-001	 8.2102263880e-001
 3.6197922348e+000	 1.9423999859e-001	 8.2513156164e-001
 3.6178872109e+000	 2.2697385218e-001	 8.3497619719e-001
 3.6156781200e+000	 2.5980133237e-001	 8.4992483114e-001
 3.6131621516e+000	 2.9271874935e-001	 8.6918731293e-001
 3.6103365437e+000	 3.2572233738e-001	 8.9182280706e-001
 3.6500000000e+000	 0.0000000000e+000	 9.4979162673e-001
 3.6498569012e+000	 3.2320279418e-002	 9.0416655253e-001
 3.6494255336e+000	 6.4755496739e-002	 8.6785647350e-001
 3.6487028164e+000	 9.7302402542e-002	 8.4076109887e-001
 3.6476857052e+000	 1.2995766922e-001	 8.2258179009e-001
 3.6463711945e+000	 1.6271789114e-001	 8.1282587740e-001
 3.6447563192e+000	 1.9557958479e-001	 8.1081171954e-001
 3.6428381571e+000	 2.2853918909e-001	 8.1567451923e-001
 3.6406138312e+000	 2.6159306570e-001	 8.2637290524e-001
 3.6380805113e+000	 2.9473749935e-001	 8.4169628975e-001
 3.6352354164e+000	 3.2796869832e-001	 8.6027300795e-001
 3.6750000000e+000	 0.0000000000e+000	 1.0004161835e+000
 3.6748559211e+000	 3.2541651194e-002	 9.3558158258e-001
 3.6744215989e+000	 6.5199027538e-002	 8.8317310218e-001
 3.6736939316e+000	 9.7968857353e-002	 8.4273727361e-001
 3.6726698539e+000	 1.3084779024e-001	 8.1360984999e-001
 3.6713463396e+000	 1.6383239724e-001	 7.9492036518e-001
 3.6697204035e+000	 1.9691917098e-001	 7.8559746513e-001
 3.6677891034e+000	 2.3010452601e-001	 7.8437502438e-001
 3.6655495424e+000	 2.6338479903e-001	 7.8979905896e-001
 3.6629988709e+000	 2.9675624934e-001	 8.0023544478e-001
 3.6601342892e+000	 3.3021505927e-001	 8.1387844860e-001
 3.7000000000e+000	 0.0000000000e+000	 1.0473497389e+000
 3.6998549410e+000	 3.2763022971e-002	 9.6190104843e-001
 3.6994176642e+000	 6.5642558337e-002	 8.9208557344e-001
 3.6986850468e+000	 9.8635312165e-002	 8.3709436071e-001
 3.6976540026e+000	 1.3173791127e-001	 7.9589509205e-001
 3.6963214848e+000	 1.6494690334e-001	 7.6723688727e-001
 3.6946844879e+000	 1.9825875718e-001	 7.4965590877e-001
 3.6927400497e+000	 2.3166986292e-001	 7.4148178124e-001
 3.6904852536e+000	 2.6517653235e-001	 7.4084483782e-001
 3.6879172306e+000	 2.9877499934e-001	 7.4568420232e-001
 3.6850331619e+000	 3.3246142022e-001	 7.5375671462e-001
 3.7250000000e+000	 0.0000000000e+000	 1.0893879925e+000
 3.7248539609e+000	 3.2984394747e-002	 9.8214885801e-001
 3.7244137295e+000	 6.6086089136e-002	 8.9384716765e-001
 3.7236761619e+000	 9.9301766976e-002	 8.2331607693e-001
 3.7226381512e+000	 1.3262803229e-001	 7.6915263077e-001
 3.7212966300e+000	 1.6606140945e-001	 7.2972281187e-001
 3.7196485723e+000	 1.9959834338e-001	 7.0316742042e-001
 3.7176909960e+000	 2.3323519983e-001	 6.8740879903e-001
 3.7154209647e+000	 2.6696826568e-001	 6.8015841478e-001
 3.7128355903e+000	 3.0079374934e-001	 6.7892530797e-001
 3.7099320346e+000	 3.3470778117e-001	 6.8102541537e-001
 3.7500000000e+000	 0.0000000000e+000	 1.1253587583e+000
 3.7498529807e+000	 3.3205766524e-002	 9.9537781834e-001
 3.7494097948e+000	 6.6529619936e-002	 8.8773684684e-001
 3.7486672771e+000	 9.9968221788e-002	 8.0090860262e-001
 3.7476222999e+000	 1.3351815331e-001	 7.3311682670e-001
 3.7462717751e+000	 1.6717591555e-001	 6.8234153752e-001
 3.7446126567e+000	 2.0093792957e-001	 6.4632518765e-001
 3.7426419423e+000	 2.3480053674e-001	 6.2257969621e-001
 3.7403566759e+000	 2.6875999901e-001	 6.0839436922e-001
 3.7377539499e+000	 3.0281249933e-001	 6.0084471797e-001
 3.7348309073e+000	 3.3695414212e-001	 5.9680218317e-001
 3.4858421801e+000	 3.1449053264e-001	 7.8778667466e-001
 3.4828124275e+000	 3.4643555681e-001	 7.7335579521e-001
 3.4794785293e+000	 3.7845629087e-001	 7.5297364219e-001
 3.4758379731e+000	 4.1054888215e-001	 7.2733359812e-001
 3.4718883019e+000	 4.4270940692e-001	 6.9706447111e-001
 3.4676271163e+000	 4.7493387121e-001	 6.6273974600e-001
 3.4630520767e+000	 5.0721821157e-001	 6.2488743660e-001
 3.4581609051e+000	 5.3955829594e-001	 5.8400052986e-001
 3.4529513874e+000	 5.7194992458e-001	 5.4054801120e-001
 3.4474213756e+000	 6.0438883109e-001	 4.9498645732e-001
 3.4415687894e+000	 6.3687068343e-001	 9.7631266892e-001
 3.5107410529e+000	 3.1673689358e-001	 8.4722356871e-001
 3.5076896591e+000	 3.4891009650e-001	 8.3366008918e-001
 3.5043319474e+000	 3.8115955010e-001	 8.1289588095e-001
 3.5006653872e+000	 4.1348137416e-001	 7.8522520035e-001
 3.4966875041e+000	 4.4587161697e-001	 7.5087058238e-001
 3.4923958815e+000	 4.7832625601e-001	 7.0999258313e-001
 3.4877881630e+000	 5.1084119880e-001	 6.6270014980e-001
 3.4828620544e+000	 5.4341228377e-001	 6.0906160905e-001
 3.4776153259e+000	 5.7603528119e-001	 5.4911626234e-001
 3.4720458140e+000	 6.0870589417e-001	 4.8288657428e-001
 3.4661514237e+000	 6.4141975974e-001	 1.1387637613e+000
 3.5356399256e+000	 3.1898325453e-001	 8.8622816131e-001
 3.5325668907e+000	 3.5138463619e-001	 8.7267477215e-001
 3.5291853654e+000	 3.8386280932e-001	 8.5073999946e-001
 3.5254928013e+000	 4.1641386618e-001	 8.2031553911e-001
 3.5214867062e+000	 4.4903382702e-001	 7.8121409712e-001
 3.5171646466e+000	 4.8171864080e-001	 7.3317962785e-001
 3.5125242492e+000	 5.1446418603e-001	 6.7589822686e-001
 3.5075632037e+000	 5.4726627160e-001	 6.0900966865e-001
 3.5022792644e+000	 5.8012063779e-001	 5.3211957776e-001
 3.4966702524e+000	 6.1302295724e-001	 4.4481221856e-001
 3.4907340579e+000	 6.4596883605e-001	 1.2688903040e+000
 3.5605387983e+000	 3.2122961548e-001	 9.0591790610e-001
 3.5574441224e+000	 3.5385917588e-001	 8.9174883911e-001
 3.5540387835e+000	 3.8656606854e-001	 8.6808645124e-001
 3.5503202154e+000	 4.1934635820e-001	 8.3441631923e-001
 3.5462859084e+000	 4.5219603707e-001	 7.9013763771e-001
 3.5419334117e+000	 4.8511102560e-001	 7.3457395802e-001
 3.5372603355e+000	 5.1808717325e-001	 6.6698460880e-001
 3.5322643530e+000	 5.5112025943e-001	 5.8657678867e-001
 3.5269432028e+000	 5.8420599440e-001	 4.9251831873e-001
 3.5212946908e+000	 6.1734002033e-001	 3.8395104001e-001
 3.5153166921e+000	 6.5051791236e-001	 1.3671939068e+000
 3.5854376710e+000	 3.2347597643e-001	 9.0741028496e-001
 3.5823213540e+000	 3.5633371558e-001	 8.9222809988e-001
 3.5788922016e+000	 3.8926932776e-001	 8.6650930628e-001
 3.5751476295e+000	 4.2227885021e-001	 8.2932968002e-001
 3.5710851106e+000	 4.5535824712e-001	 7.7967109698e-001
 3.5667021768e+000	 4.8850341040e-001	 7.1643277717e-001
 3.5619964217e+000	 5.2171016048e-001	 6.3844323837e-001
 3.5569655023e+000	 5.5497424726e-001	 5.4447294915e-001
 3.5516071413e+000	 5.8829135100e-001	 4.3324766866e-001
 3.5459191292e+000	 6.2165708341e-001	 3.0346245791e-001
 3.5398993263e+000	 6.5506698867e-001	 1.4341449229e+000
 3.6103365437e+000	 3.2572233738e-001	 8.9182280706e-001
 3.6071985856e+000	 3.5880825527e-001	 8.7545528893e-001
 3.6037456196e+000	 3.9197258699e-001	 8.4757647108e-001
 3.5999750436e+000	 4.2521134223e-001	 8.0684852510e-001
 3.5958843127e+000	 4.5852045717e-001	 7.5183207707e-001
 3.5914709419e+000	 4.9189579519e-001	 6.8099796190e-001
 3.5867325080e+000	 5.2533314771e-001	 5.9273971521e-001
 3.5816666517e+000	 5.5882823509e-001	 4.8538679230e-001
 3.5762710798e+000	 5.9237670761e-001	 3.5721850125e-001
 3.5705435676e+000	 6.2597414649e-001	 2.4676892366e-001
 3.5644819605e+000	 6.5961606499e-001	 1.4701835265e+000
 3.6352354164e+000	 3.2796869832e-001	 8.6027300795e-001
 3.6320758172e+000	 3.6128279496e-001	 8.4277017072e-001
 3.6285990377e+000	 3.9467584621e-001	 8.1284989978e-001
 3.6248024577e+000	 4.2814383425e-001	 7.6875683872e-001
 3.6206835149e+000	 4.6168266723e-001	 7.0862631044e-001
 3.6162397070e+000	 4.9528817999e-001	 6.3049658679e-001
 3.6114685943e+000	 5.2895613494e-001	 5.3232192398e-001
 3.6063678010e+000	 5.6268222292e-001	 4.1198635320e-001
 3.6009350183e+000	 5.9646206422e-001	 2.6731821310e-001
 3.5951680060e+000	 6.3029120957e-001	 3.0813937716e-001
 3.5890645947e+000	 6.6416514130e-001	 1.4757207467e+000
 3.6601342892e+000	 3.3021505927e-001	 8.1387844860e-001
 3.6569530489e+000	 3.6375733466e-001	 7.9550964070e-001
 3.6534524558e+000	 3.9737910543e-001	 7.6388579661e-001
 3.6496298718e+000	 4.3107632627e-001	 7.1682998908e-001
 3.6454827170e+000	 4.6484487728e-001	 6.5204806352e-001
 3.6410084722e+000	 4.9868056479e-001	 5.6714142786e-001
 3.6362046805e+000	 5.3257912217e-001	 4.5962063695e-001
 3.6310689503e+000	 5.6653621075e-001	 3.2691976073e-001
 3.6255989568e+000	 6.0054742082e-001	 1.6641152216e-001
 3.6197924444e+000	 6.3460827265e-001	 3.4603395116e-001
 3.6136472289e+000	 6.6871421761e-001	 1.4511394585e+000
 3.6850331619e+000	 3.3246142022e-001	 7.5375671462e-001
 3.6818302805e+000	 3.6623187435e-001	 7.3500782228e-001
 3.6783058738e+000	 4.0008236465e-001	 7.0223481012e-001
 3.6744572859e+000	 4.3400881828e-001	 6.5283501948e-001
 3.6702819192e+000	 4.6800708733e-001	 5.8408052415e-001
 3.6657772373e+000	 5.0207294958e-001	 4.9313144561e-001
 3.6609407668e+000	 5.3620210939e-001	 3.7705009211e-001
 3.6557700996e+000	 5.7039019858e-001	 2.3281591009e-001
 3.6502628952e+000	 6.0463277743e-001	 5.7341233967e-002
 3.6444168828e+000	 6.3892533573e-001	 3.6073541087e-001
 3.6382298631e+000	 6.7326329392e-001	 1.3967953341e+000
 3.7099320346e+000	 3.3470778117e-001	 6.8102541537e-001
 3.7067075121e+000	 3.6870641404e-001	 6.6259615977e-001
 3.7031592919e+000	 4.0278562387e-001	 6.2944221966e-001
 3.6992847000e+000	 4.3694131030e-001	 5.7853092766e-001
 3.6950811213e+000	 4.7116929738e-001	 5.0669617325e-001
 3.6905460024e+000	 5.0546533438e-001	 4.1065224866e-001
 3.6856768530e+000	 5.3982509662e-001	 2.8700854802e-001
 3.6804712489e+000	 5.7424418641e-001	 1.3228510823e-001
 3.6749268337e+000	 6.0871813404e-001	-5.7071023075e-002
 3.6690413212e+000	 6.4324239882e-001	 3.5250277674e-001
 3.6628124973e+000	 6.7781237024e-001	 1.3130177559e+000
 3.7348309073e+000	 3.3695414212e-001	 5.9680218317e-001
 3.7315847437e+000	 3.7118095373e-001	 5.7960350779e-001
 3.7280127100e+000	 4.0548888310e-001	 5.4704811429e-001
 3.7241121140e+000	 4.3987380232e-001	 4.9566893395e-001
 3.7198803235e+000	 4.7433150743e-001	 4.2185714184e-001
 3.7153147675e+000	 5.0885771918e-001	 3.2187653880e-001
 3.7104129393e+000	 5.4344808385e-001	 1.9187881643e-001
 3.7051723983e+000	 5.7809817425e-001	 2.7919693436e-002
 3.6995907722e+000	 6.1280349065e-001	-1.7402409177e-001
 3.6936657595e+000	 6.4755946190e-001	 3.2157211596e-001
 3.6873951316e+000	 6.8236144655e-001	 1.2001106924e+000
 3.4415687894e+000	 6.3687068343e-001	 9.7631266892e-001
 3.4353916189e+000	 6.6939108513e-001	 8.1886655828e-001
 3.4288879258e+000	 7.0194557643e-001	 6.8448555041e-001
 3.4220558462e+000	 7.3452963556e-001	 5.7282887713e-001
 3.4148935921e+000	 7.6713868010e-001	 4.8328027909e-001
 3.4073994536e+000	 7.9976806841e-001	 4.1494013944e-001
 3.3995718009e+000	 8.3241310102e-001	 3.6661802194e-001
 3.3914090857e+000	 8.6506902227e-001	 3.3682564463e-001
 3.3829098440e+000	 8.9773102186e-001	 3.2377031970e-001
 3.3740726970e+000	 9.3039423656e-001	 3.2534889004e-001
 3.3648963537e+000	 9.6305375194e-001	 3.3914219251e-001
 3.4661514237e+000	 6.4141975974e-001	 1.1387637613e+000
 3.4599301304e+000	 6.7417245002e-001	 9.7663978429e-001
 3.4533799824e+000	 7.0695947340e-001	 8.3515963232e-001
 3.4464991022e+000	 7.3977627581e-001	 7.1412417958e-001
 3.4392856892e+000	 7.7261824210e-001	 6.1305801413e-001
 3.4317380212e+000	 8.0548069746e-001	 5.3120134830e-001
 3.4238544566e+000	 8.3835890888e-001	 4.6750233484e-001
 3.4156334363e+000	 8.7124808671e-001	 4.2060982035e-001
 3.4070734857e+000	 9.0414338630e-001	 3.8886656739e-001
 3.3981732162e+000	 9.3703990968e-001	 3.7030297634e-001
 3.3889313276e+000	 9.6993270731e-001	 3.6263133739e-001
 3.4907340579e+000	 6.4596883605e-001	 1.2688903040e+000
 3.4844686420e+000	 6.7895381492e-001	 1.1042112262e+000
 3.4778720390e+000	 7.1197337037e-001	 9.5794326365e-001
 3.4709423583e+000	 7.4502291606e-001	 8.3002956367e-001
 3.4636777863e+000	 7.7809780410e-001	 7.2013600185e-001
 3.4560765887e+000	 8.1119332652e-001	 6.2764286453e-001
 3.4481371123e+000	 8.4430471674e-001	 5.5163693829e-001
 3.4398577869e+000	 8.7742715115e-001	 4.9090403880e-001
 3.4312371274e+000	 9.1055575074e-001	 4.4392201096e-001
 3.4222737355e+000	 9.4368558279e-001	 4.0885423204e-001
 3.4129663016e+000	 9.7681166268e-001	 3.8354364890e-001
 3.5153166921e+000	 6.5051791236e-001	 1.3671939068e+000
 3.5090071536e+000	 6.8373517981e-001	 1.2019803573e+000
 3.5023640956e+000	 7.1698726735e-001	 1.0531331129e+000
 3.4953856143e+000	 7.5026955631e-001	 9.2073826166e-001
 3.4880698834e+000	 7.8357736610e-001	 8.0460344419e-001
 3.4804151562e+000	 8.1690595558e-001	 7.0424930315e-001
 3.4724197680e+000	 8.5025052460e-001	 6.1890134149e-001
 3.4640821375e+000	 8.8360621559e-001	 5.4748222222e-001
 3.4554007692e+000	 9.1696811518e-001	 4.8860454243e-001
 3.4463742548e+000	 9.5033125591e-001	 4.4056411368e-001
 3.4370012755e+000	 9.8369061805e-001	 4.0133378074e-001
 3.5398993263e+000	 6.5506698867e-001	 1.4341449229e+000
 3.5335456651e+000	 6.8851654471e-001	 1.2703176548e+000
 3.5268561522e+000	 7.2200116432e-001	 1.1209991637e+000
 3.5198288704e+000	 7.5551619657e-001	 9.8641918256e-001
 3.5124619805e+000	 7.8905692810e-001	 8.6652763118e-001
 3.5047537237e+000	 8.2261858464e-001	 7.6098582776e-001
 3.4967024237e+000	 8.5619633247e-001	 6.6915811115e-001
 3.4883064882e+000	 8.8978528004e-001	 5.9010390715e-001
 3.4795644109e+000	 9.2338047962e-001	 5.2257027202e-001
 3.4704747740e+000	 9.5697692902e-001	 4.6498494622e-001
 3.4610362495e+000	 9.9056957342e-001	 4.1544995084e-001
 3.5644819605e+000	 6.5961606499e-001	 1.4701835265e+000
 3.5580841767e+000	 6.9329790960e-001	 1.3095655996e+000
 3.5513482089e+000	 7.2701506130e-001	 1.1617856350e+000
 3.5442721264e+000	 7.6076283682e-001	 1.0272177509e+000
 3.5368540775e+000	 7.9453649010e-001	 9.0595469654e-001
 3.5290922913e+000	 8.2833121370e-001	 7.9779882125e-001
 3.5209850795e+000	 8.6214214033e-001	 7.0225345577e-001
 3.5125308388e+000	 8.9596434448e-001	 6.1851474052e-001
 3.5037280527e+000	 9.2979284406e-001	 5.4546393444e-001
 3.4945752933e+000	 9.6362260214e-001	 4.8166023798e-001
 3.4850712234e+000	 9.9744852879e-001	 4.2533416334e-001
 3.5890645947e+000	 6.6416514130e-001	 1.4757207467e+000
 3.5826226883e+000	 6.9807927450e-001	 1.3200396351e+000
 3.5758402655e+000	 7.3202895827e-001	 1.1757118635e+000
 3.5687153825e+000	 7.6600947708e-001	 1.0432567109e+000
 3.5612461746e+000	 8.0001605210e-001	 9.2291034219e-001
 3.5534308588e+000	 8.3404384276e-001	 8.1461652903e-001
 3.5452677352e+000	 8.6808794820e-001	 7.1801778581e-001
 3.5367551894e+000	 9.0214340892e-001	 6.3244695530e-001
 3.5278916944e+000	 9.3620520850e-001	 5.5691927846e-001
 3.5186758126e+000	 9.7026827526e-001	 4.9012498252e-001
 3.5091061974e+000	 1.0043274842e+000	 4.3042242138e-001
 3.6136472289e+000	 6.6871421761e-001	 1.4511394585e+000
 3.6071611998e+000	 7.0286063939e-001	 1.3020290869e+000
 3.6003323221e+000	 7.3704285525e-001	 1.1629731497e+000
 3.5931586385e+000	 7.7125611733e-001	 1.0346368980e+000
 3.5856382717e+000	 8.0549561411e-001	 9.1740053325e-001
 3.5777694263e+000	 8.3975647182e-001	 8.1134967589e-001
 3.5695503909e+000	 8.7403375606e-001	 7.1626625104e-001
 3.5609795400e+000	 9.0832247337e-001	 6.3161982678e-001
 3.5520553362e+000	 9.4261757294e-001	 5.5655944055e-001
 3.5427763318e+000	 9.7691394838e-001	 4.8990594833e-001
 3.5331411713e+000	 1.0112064395e+000	 4.3014493120e-001
 3.6382298631e+000	 6.7326329392e-001	 1.3967953341e+000
 3.6316997114e+000	 7.0764200429e-001	 1.2557980449e+000
 3.6248243787e+000	 7.4205675223e-001	 1.1237415705e+000
 3.6176018945e+000	 7.7650275759e-001	 1.0014379791e+000
 3.6100303688e+000	 8.1097517611e-001	 8.8941216478e-001
 3.6021079939e+000	 8.4546910088e-001	 7.8789205795e-001
 3.5938330466e+000	 8.7997956393e-001	 6.9679925613e-001
 3.5852038906e+000	 9.1450153782e-001	 6.1574011028e-001
 3.5762189779e+000	 9.4902993738e-001	 5.4399730343e-001
 3.5668768511e+000	 9.8355962149e-001	 4.8052195665e-001
 3.5571761453e+000	 1.0180853949e+000	 4.2392629800e-001
 3.6628124973e+000	 6.7781237024e-001	 1.3130177559e+000
 3.6562382230e+000	 7.1242336919e-001	 1.1815862106e+000
 3.6493164353e+000	 7.4707064920e-001	 1.0581667579e+000
 3.6420451506e+000	 7.8174939785e-001	 9.4371916274e-001
 3.6344224659e+000	 8.1645473811e-001	 8.3891370173e-001
 3.6264465614e+000	 8.5118172995e-001	 7.4412111073e-001
 3.6181157023e+000	 8.8592537179e-001	 6.5940295542e-001
 3.6094282412e+000	 9.2068060226e-001	 5.8450246136e-001
 3.6003826196e+000	 9.5544230183e-001	 5.1883584014e-001
 3.5909773704e+000	 9.9020529461e-001	 4.6148414817e-001
 3.5812111192e+000	 1.0249643503e+000	 4.1118571389e-001
 3.6873951316e+000	 6.8236144655e-001	 1.2001106924e+000
 3.6807767345e+000	 7.1720473409e-001	 1.0796097095e+000
 3.6738084919e+000	 7.5208454618e-001	 9.6637664735e-001
 3.6664884066e+000	 7.8699603810e-001	 8.6151988103e-001
 3.6588145630e+000	 8.2193430012e-001	 7.6585579329e-001
 3.6507851289e+000	 8.5689435901e-001	 6.7989845447e-001
 3.6423983581e+000	 8.9187117966e-001	 6.0384972798e-001
 3.6336525918e+000	 9.2685966671e-001	 5.3758983909e-001
 3.6245462614e+000	 9.6185466627e-001	 4.8066844440e-001
 3.6150778896e+000	 9.9685096773e-001	 4.3229623905e-001
 3.6052460932e+000	 1.0318433056e+000	 3.9133713830e-001
 3.3648963537e+000	 9.6305375194e-001	 3.3914219251e-001
 3.3553796121e+000	 9.9570460419e-001	 4.4124601999e-001
 3.3455213614e+000	 1.0283417820e+000	 5.1318472822e-001
 3.3353205834e+000	 1.0609602284e+000	 5.5150076167e-001
 3.3247763542e+000	 1.0935548431e+000	 5.5243641872e-001
 3.3138878460e+000	 1.1261204840e+000	 5.1193191952e-001
 3.3026543284e+000	 1.1586519699e+000	 4.2562413238e-001
 3.2910751701e+000	 1.1911440823e+000	 2.8884598066e-001
 3.2791498404e+000	 1.2235915677e+000	 9.6626550936e-002
 3.2668779101e+000	 1.2559891402e+000	-1.5500829674e-001
 3.2542590537e+000	 1.2883314835e+000	-4.5749412587e-001
 3.3889313276e+000	 9.6993270731e-001	 3.6263133739e-001
 3.3793466093e+000	 1.0028167799e+000	 4.4813008153e-001
 3.3694179425e+000	 1.0356870804e+000	 5.0929030205e-001
 3.3591443018e+000	 1.0685385158e+000	 5.4266414996e-001
 3.3485247567e+000	 1.1013659491e+000	 5.4449295623e-001
 3.3375584734e+000	 1.1341642017e+000	 5.1070511371e-001
 3.3262447164e+000	 1.1669280554e+000	 4.3691463470e-001
 3.3145828499e+000	 1.1996522543e+000	 3.1842040680e-001
 3.3025723392e+000	 1.2323315075e+000	 1.5020616851e-001
 3.2902127523e+000	 1.2649604912e+000	-7.6438549056e-002
 3.2775037612e+000	 1.2975338512e+000	-3.5818999907e-001
 3.4129663016e+000	 9.7681166268e-001	 3.8354364890e-001
 3.4033136065e+000	 1.0099289557e+000	 4.5251627279e-001
 3.3933145237e+000	 1.0430323789e+000	 5.0305538708e-001
 3.3829680203e+000	 1.0761168031e+000	 5.3172236251e-001
 3.3722731592e+000	 1.1091770551e+000	 5.3475692296e-001
 3.3612291009e+000	 1.1422079195e+000	 5.0807483955e-001
 3.3498351045e+000	 1.1752041409e+000	 4.4726631754e-001
 3.3380905297e+000	 1.2081604263e+000	 3.4759509963e-001
 3.3259948381e+000	 1.2410714472e+000	 2.0399830793e-001
 3.3135475946e+000	 1.2739318422e+000	-4.2934456817e-003
 3.3007484688e+000	 1.3067362190e+000	-2.6490914294e-001
 3.4370012755e+000	 9.8369061805e-001	 4.0133378074e-001
 3.4272806038e+000	 1.0170411314e+000	 4.5383464752e-001
 3.4172111048e+000	 1.0503776773e+000	 4.9388739778e-001
 3.4067917387e+000	 1.0836950905e+000	 5.1806215233e-001
 3.3960215617e+000	 1.1169881611e+000	 5.2259640396e-001
 3.3848997284e+000	 1.1502516372e+000	 5.0339252139e-001
 3.3734254925e+000	 1.1834802264e+000	 4.5601596385e-001
 3.3615982095e+000	 1.2166685983e+000	 3.7569423030e-001
 3.3494173369e+000	 1.2498113870e+000	 2.5731656639e-001
 3.3368824368e+000	 1.2829031932e+000	 6.1436441512e-002
 3.3239931763e+000	 1.3159385867e+000	-1.7765167240e-001
 3.4610362495e+000	 9.9056957342e-001	 4.1544995084e-001
 3.4512476010e+000	 1.0241533072e+000	 4.5150927179e-001
 3.4411076860e+000	 1.0577229757e+000	 4.8118819021e-001
 3.4306154572e+000	 1.0912733778e+000	 5.0106512443e-001
 3.4197699643e+000	 1.1247992672e+000	 5.0737472726e-001
 3.4085703558e+000	 1.1582953550e+000	 4.9600519796e-001
 3.3970158806e+000	 1.1917563119e+000	 4.6249632248e-001
 3.3851058893e+000	 1.2251767703e+000	 4.0203826708e-001
 3.3728398358e+000	 1.2585513268e+000	 2.9767328676e-001
 3.3602172790e+000	 1.2918745442e+000	 1.2075743861e-001
 3.3472378838e+000	 1.3251409544e+000	-9.6420535432e-002
 3.4850712234e+000	 9.9744852879e-001	 4.2533416334e-001
 3.4752145982e+000	 1.0312654829e+000	 4.4495843040e-001
 3.4650042671e+000	 1.0650682742e+000	 4.6435425373e-001
 3.4544391756e+000	 1.0988516651e+000	 4.8010791324e-001
 3.4435183668e+000	 1.1326103732e+000	 4.8845062791e-001
 3.4322409833e+000	 1.1663390727e+000	 4.8525567363e-001
 3.4206062687e+000	 1.2000323974e+000	 4.6603624728e-001
 3.4086135690e+000	 1.2336849423e+000	 4.2594410311e-001
 3.3962623346e+000	 1.2672912665e+000	 3.3102696632e-001
 3.3835521212e+000	 1.3008458952e+000	 1.7367287664e-001
 3.3704825914e+000	 1.3343433222e+000	-2.1221415381e-002
 3.5091061974e+000	 1.0043274842e+000	 4.3042242138e-001
 3.4991815955e+000	 1.0383776586e+000	 4.3359482486e-001
 3.4889008483e+000	 1.0724135726e+000	 4.4277689478e-001
 3.4782628941e+000	 1.1064299525e+000	 4.5456235293e-001
 3.4672667693e+000	 1.1404214792e+000	 4.6517840529e-001
 3.4559116108e+000	 1.1743827904e+000	 4.7048266341e-001
 3.4441966567e+000	 1.2083084829e+000	 4.6596083047e-001
 3.4321212488e+000	 1.2421931143e+000	 4.4672517880e-001
 3.4196848335e+000	 1.2760312063e+000	 3.5758949765e-001
 3.4068869634e+000	 1.3098172462e+000	 2.2018319410e-001
 3.3937272989e+000	 1.3435456899e+000	 4.7937362713e-002
 3.5331411713e+000	 1.0112064395e+000	 4.3014493120e-001
 3.5231485927e+000	 1.0454898344e+000	 4.1682576337e-001
 3.5127974294e+000	 1.0797588711e+000	 4.1584241313e-001
 3.5020866125e+000	 1.1140082398e+000	 4.2379564060e-001
 3.4910151719e+000	 1.1482325852e+000	 4.3690807393e-001
 3.4795822382e+000	 1.1824265082e+000	 4.5102093201e-001
 3.4677870448e+000	 1.2165845684e+000	 4.6159153061e-001
 3.4556289286e+000	 1.2507012864e+000	 4.6235672708e-001
 3.4431073324e+000	 1.2847711461e+000	 3.7736787544e-001
 3.4302218056e+000	 1.3187885972e+000	 2.6028603539e-001
 3.4169720064e+000	 1.3527480577e+000	 1.1104492198e-001
 3.5571761453e+000	 1.0180853949e+000	 4.2392629800e-001
 3.5471155899e+000	 1.0526020101e+000	 3.9405334295e-001
 3.5366940106e+000	 1.0871041695e+000	 3.8293227106e-001
 3.5259103310e+000	 1.1215865272e+000	 3.8717049301e-001
 3.5147635744e+000	 1.1560436912e+000	 4.0298550833e-001
 3.5032528657e+000	 1.1904702259e+000	 4.2620142735e-001
 3.4913774329e+000	 1.2248606539e+000	 4.5224629533e-001
 3.4791366084e+000	 1.2592094584e+000	 4.5729832504e-001
 3.4665298312e+000	 1.2935110859e+000	 3.9036614229e-001
 3.4535566479e+000	 1.3277599482e+000	 2.9397634520e-001
 3.4402167139e+000	 1.3619504254e+000	 1.6808791992e-001
 3.5812111192e+000	 1.0249643503e+000	 4.1118571389e-001
 3.5710825871e+000	 1.0597141859e+000	 3.6467462434e-001
 3.5605905918e+000	 1.0944494679e+000	 3.4342325571e-001
 3.5497340494e+000	 1.1291648145e+000	 3.4404529687e-001
 3.5385119769e+000	 1.1638547973e+000	 3.6275258185e-001
 3.5269234932e+000	 1.1985139437e+000	 3.9535140861e-001
 3.5149678209e+000	 1.2331367394e+000	 4.3723967920e-001
 3.5026442882e+000	 1.2677176304e+000	 4.4508393662e-001
 3.4899523301e+000	 1.3022510256e+000	 3.9658548774e-001
 3.4768914901e+000	 1.3367312992e+000	 3.2124645906e-001
 3.4634614215e+000	 1.3711527931e+000	 2.1905063116e-001
 3.6052460932e+000	 1.0318433056e+000	 3.9133713830e-001
 3.5950495844e+000	 1.0668263616e+000	 3.2808179989e-001
 3.5844871729e+000	 1.1017947664e+000	 2.9668763487e-001
 3.5735577679e+000	 1.1367431019e+000	 2.9377425321e-001
 3.5622603795e+000	 1.1716659033e+000	 3.1554730009e-001
 3.5505941207e+000	 1.2065576614e+000	 3.5779456918e-001
 3.5385582090e+000	 1.2414128249e+000	 4.1588295677e-001
 3.5261519680e+000	 1.2762258024e+000	 4.2572138009e-001
 3.5133748290e+000	 1.3109909654e+000	 3.9602434336e-001
 3.5002263323e+000	 1.3457026502e+000	 3.4208619037e-001
 3.4867061290e+000	 1.3803551609e+000	 2.6391502686e-001
 3.2542590537e+000	 1.2883314835e+000	-4.5749412587e-001
 3.2412930498e+000	 1.3206132534e+000	-4.5566532888e-001
 3.2279797829e+000	 1.3528290804e+000	-4.3365377575e-001
 3.2143192443e+000	 1.3849735723e+000	-3.9245106380e-001
 3.2003115330e+000	 1.4170413162e+000	-3.3311360749e-001
 3.1859568571e+000	 1.4490268819e+000	-2.5676218465e-001
 3.1712555346e+000	 1.4809248240e+000	-1.6458135058e-001
 3.1562079939e+000	 1.5127296849e+000	-5.7818718587e-002
 3.1408147750e+000	 1.5444359972e+000	 6.2215894026e-002
 3.1250765300e+000	 1.5760382868e+000	 1.9415145529e-001
 3.1089940239e+000	 1.6075310757e+000	-7.3072455449e-002
 3.2775037612e+000	 1.2975338512e+000	-3.5818999907e-001
 3.2644451431e+000	 1.3300462052e+000	-3.6096817257e-001
 3.2510367814e+000	 1.3624921453e+000	-3.4762833069e-001
 3.2372786675e+000	 1.3948662406e+000	-3.1913630701e-001
 3.2231709011e+000	 1.4271630399e+000	-2.7651953921e-001
 3.2087136918e+000	 1.4593770739e+000	-2.2086659901e-001
 3.1939073598e+000	 1.4915028585e+000	-1.5332659300e-001
 3.1787523367e+000	 1.5235348969e+000	-7.5108432995e-002
 3.1632491662e+000	 1.5554676828e+000	 1.2520025058e-002
 3.1473985053e+000	 1.5872957031e+000	 1.0823297416e-001
 3.1312011241e+000	 1.6190134405e+000	 2.1064778179e-001
 3.3007484688e+000	 1.3067362190e+000	-2.6490914294e-001
 3.2875972363e+000	 1.3394791570e+000	-2.7085362707e-001
 3.2740937798e+000	 1.3721552102e+000	-2.6467158607e-001
 3.2602380906e+000	 1.4047589090e+000	-2.4730356558e-001
 3.2460302692e+000	 1.4372847636e+000	-2.1974856363e-001
 3.2314705265e+000	 1.4697272659e+000	-1.8306354438e-001
 3.2165591851e+000	 1.5020808929e+000	-1.3836282569e-001
 3.2012966795e+000	 1.5343401089e+000	-8.6817339278e-002
 3.1856835575e+000	 1.5664993685e+000	-2.9653762542e-002
 3.1697204805e+000	 1.5985531195e+000	 3.1846478576e-002
 3.1534082243e+000	 1.6304958054e+000	 9.6348335899e-002
 3.3239931763e+000	 1.3159385867e+000	-1.7765167240e-001
 3.3107493295e+000	 1.3489121088e+000	-1.8535276683e-001
 3.2971507783e+000	 1.3818182750e+000	-1.8484672908e-001
 3.2831975138e+000	 1.4146515774e+000	-1.7704928670e-001
 3.2688896373e+000	 1.4474064873e+000	-1.6293152842e-001
 3.2542273612e+000	 1.4800774579e+000	-1.4351940191e-001
 3.2392110103e+000	 1.5126589274e+000	-1.1989308817e-001
 3.2238410223e+000	 1.5451453210e+000	-9.3186251465e-002
 3.2081179487e+000	 1.5775310542e+000	-6.4585163916e-002
 3.1920424557e+000	 1.6098105358e+000	-3.5327704157e-002
 3.1756153244e+000	 1.6419781702e+000	-6.7022299439e-003
 3.3472378838e+000	 1.3251409544e+000	-9.6420535432e-002
 3.3339014227e+000	 1.3583450606e+000	-1.0449863125e-001
 3.3202077768e+000	 1.3914813399e+000	-1.0821800761e-001
 3.3061569370e+000	 1.4245442458e+000	-1.0847003792e-001
 3.2917490054e+000	 1.4575282109e+000	-1.0619842545e-001
 3.2769841959e+000	 1.4904276499e+000	-1.0239868526e-001
 3.2618628356e+000	 1.5232369618e+000	-9.8117505504e-002
 3.2463853651e+000	 1.5559505330e+000	-9.4451987120e-002
 3.2305523400e+000	 1.5885627399e+000	-9.2548761049e-002
 3.2143644309e+000	 1.6210679521e+000	-9.3602982534e-002
 3.1978224246e+000	 1.6534605350e+000	-9.8857202336e-002
 3.3704825914e+000	 1.3343433222e+000	-2.1221415381e-002
 3.3570535159e+000	 1.3677780124e+000	-2.8326156921e-002
 3.3432647752e+000	 1.4011444047e+000	-3.4850693634e-002
 3.3291163602e+000	 1.4344369141e+000	-4.1662502979e-002
 3.3146083735e+000	 1.4676499346e+000	-4.9678420308e-002
 3.2997410306e+000	 1.5007778420e+000	-5.9864105003e-002
 3.2845146608e+000	 1.5338149963e+000	-7.3233388790e-002
 3.2689297079e+000	 1.5667557450e+000	-9.0847505151e-002
 3.2529867312e+000	 1.5995944256e+000	-1.1381419909e-001
 3.2366864061e+000	 1.6323253685e+000	-1.4328671687e-001
 3.2200295248e+000	 1.6649428998e+000	-1.8046267552e-001
 3.3937272989e+000	 1.3435456899e+000	 4.7937362713e-002
 3.3802056091e+000	 1.3772109643e+000	 4.3127887283e-002
 3.3663217737e+000	 1.4108074696e+000	 3.5188951850e-002
 3.3520757833e+000	 1.4443295825e+000	 2.3276522152e-002
 3.3374677416e+000	 1.4777716583e+000	 6.5001193781e-003
 3.3224978653e+000	 1.5111280340e+000	-1.6076630390e-002
 3.3071664861e+000	 1.5443930308e+000	-4.5435331521e-002
 3.2914740508e+000	 1.5775609571e+000	-8.2602037958e-002
 3.2754211225e+000	 1.6106261113e+000	-1.2864635543e-001
 3.2590083813e+000	 1.6435827848e+000	-1.8468042641e-001
 3.2422366249e+000	 1.6764252647e+000	-2.5185779768e-001
 3.4169720064e+000	 1.3527480577e+000	 1.1104492198e-001
 3.4033577023e+000	 1.3866439161e+000	 1.0982496259e-001
 3.3893787721e+000	 1.4204705345e+000	 1.0183371246e-001
 3.3750352065e+000	 1.4542222509e+000	 8.6250133118e-002
 3.3603271097e+000	 1.4878933820e+000	 6.2209596824e-002
 3.3452547000e+000	 1.5214782260e+000	 2.8804451435e-002
 3.3298183113e+000	 1.5549710652e+000	-1.4915302026e-002
 3.3140183936e+000	 1.5883661691e+000	-6.9941218185e-002
 3.2978555137e+000	 1.6216577970e+000	-1.3730550186e-001
 3.2813303565e+000	 1.6548402011e+000	-2.1807998803e-001
 3.2644437251e+000	 1.6879076295e+000	-3.1337500726e-001
 3.4402167139e+000	 1.3619504254e+000	 1.6808791992e-001
 3.4265097956e+000	 1.3960768679e+000	 1.7172482010e-001
 3.4124357706e+000	 1.4301335993e+000	 1.6501544870e-001
 3.3979946297e+000	 1.4641149192e+000	 1.4716132082e-001
 3.3831864778e+000	 1.4980151057e+000	 1.1732316004e-001
 3.3680115347e+000	 1.5318284180e+000	 7.4621478605e-002
 3.3524701366e+000	 1.5655490997e+000	 1.8137267840e-002
 3.3365627364e+000	 1.5991713811e+000	-5.3087200328e-002
 3.3202899050e+000	 1.6326894827e+000	-1.4004746015e-001
 3.3036523318e+000	 1.6660976175e+000	-2.4377582685e-001
 3.2866508253e+000	 1.6993899943e+000	-3.6534025956e-001
 3.4634614215e+000	 1.3711527931e+000	 2.1905063116e-001
 3.4496618888e+000	 1.4055098197e+000	 2.2878555818e-001
 3.4354927690e+000	 1.4397966642e+000	 2.2466512896e-001
 3.4209540529e+000	 1.4740075876e+000	 2.0591297494e-001
 3.4060458459e+000	 1.5081368294e+000	 1.7171467683e-001
 3.3907683694e+000	 1.5421786100e+000	 1.2121835999e-001
 3.3751219618e+000	 1.5761271341e+000	 5.3535397586e-002
 3.3591070792e+000	 1.6099765932e+000	-3.2258777461e-002
 3.3427242962e+000	 1.6437211684e+000	-1.3712375141e-001
 3.3259743070e+000	 1.6773550338e+000	-2.6205309917e-001
 3.3088579254e+000	 1.7108723591e+000	-4.0807324437e-001
 3.4867061290e+000	 1.3803551609e+000	 2.6391502686e-001
 3.4728139820e+000	 1.4149427715e+000	 2.8096367753e-001
 3.4585497675e+000	 1.4494597290e+000	 2.8071285923e-001
 3.4439134760e+000	 1.4839002560e+000	 2.6240788732e-001
 3.4289052139e+000	 1.5182585531e+000	 2.2525871083e-001
 3.4135252041e+000	 1.5525288020e+000	 1.6844052283e-001
 3.3977737871e+000	 1.5867051686e+000	 9.1094476364e-002
 3.3816514220e+000	 1.6207818052e+000	-7.6714932742e-003
 3.3651586875e+000	 1.6547528541e+000	-1.2878173945e-001
 3.3482962822e+000	 1.6886124501e+000	-2.7319186808e-001
 3.3310650256e+000	 1.7223547240e+000	-4.4188759476e-001
 3.1089940239e+000	 1.6075310757e+000	-7.3072455449e-002
 3.0925681348e+000	 1.6389088846e+000	-2.0350154018e-001
 3.0757998544e+000	 1.6701662359e+000	-3.2610682066e-001
 3.0586902889e+000	 1.7012976567e+000	-4.3908756067e-001
 3.0412406585e+000	 1.7322976814e+000	-5.4061426318e-001
 3.0234522981e+000	 1.7631608551e+000	-6.2883260869e-001
 3.0053266573e+000	 1.7938817362e+000	-7.0186750104e-001
 2.9868653000e+000	 1.8244548993e+000	-7.5782721160e-001
 2.9680699052e+000	 1.8548749386e+000	-7.9480761241e-001
 2.9489422659e+000	 1.8851364706e+000	-7.7513088251e-001
 2.9294842893e+000	 1.9152341368e+000	-6.5596867142e-001
 3.1312011241e+000	 1.6190134405e+000	 2.1064778179e-001
 3.1146579071e+000	 1.6506153766e+000	 1.9373011060e-001
 3.0977698534e+000	 1.6820959948e+000	 2.5391574709e-002
 3.0805380767e+000	 1.7134497828e+000	-1.3314410642e-001
 3.0629638061e+000	 1.7446712363e+000	-2.7998728165e-001
 3.0450483860e+000	 1.7757548612e+000	-4.1322309851e-001
 3.0267932762e+000	 1.8066951771e+000	-5.3091565741e-001
 3.0082000522e+000	 1.8374867200e+000	-6.3111226632e-001
 2.9892704045e+000	 1.8681240453e+000	-7.1184778612e-001
 2.9700061392e+000	 1.8986017311e+000	-6.9045331964e-001
 2.9504091771e+000	 1.9289143807e+000	-6.1339975623e-001
 3.1534082243e+000	 1.6304958054e+000	 9.6348335899e-002
 3.1367476795e+000	 1.6623218687e+000	 3.0766264497e-001
 3.1197398523e+000	 1.6940257536e+000	 3.9141387510e-001
 3.1023858645e+000	 1.7256019089e+000	 1.8643294124e-001
 3.0846869536e+000	 1.7570447912e+000	-6.6299057166e-003
 3.0666444738e+000	 1.7883488673e+000	-1.8579792665e-001
 3.0482598952e+000	 1.8195086181e+000	-3.4907304549e-001
 3.0295348043e+000	 1.8505185407e+000	-4.9444021631e-001
 3.0104709038e+000	 1.8813731520e+000	-6.0017089289e-001
 2.9910700125e+000	 1.9120669916e+000	-6.0056423442e-001
 2.9713340648e+000	 1.9425946245e+000	-5.6605733214e-001
 3.1756153244e+000	 1.6419781702e+000	-6.7022299439e-003
 3.1588374519e+000	 1.6740283607e+000	 1.7063033393e-001
 3.1417098513e+000	 1.7059555124e+000	 3.5259595808e-001
 3.1242336522e+000	 1.7377540350e+000	 5.1904560733e-001
 3.1064101012e+000	 1.7694183460e+000	 2.7885446243e-001
 3.0882405617e+000	 1.8009428734e+000	 5.2834271491e-002
 3.0697265142e+000	 1.8323220591e+000	-1.5695332960e-001
 3.0508695565e+000	 1.8635503614e+000	-3.4842954031e-001
 3.0316714032e+000	 1.8946222587e+000	-4.6125646800e-001
 3.0121338859e+000	 1.9255322521e+000	-5.0599599814e-001
 2.9922589526e+000	 1.9562748683e+000	-5.1446694201e-001
 3.1978224246e+000	 1.6534605350e+000	-9.8857202336e-002
 3.1809272243e+000	 1.6857348527e+000	 4.4348794718e-002
 3.1636798503e+000	 1.7178852712e+000	 1.9290357809e-001
 3.1460814400e+000	 1.7499061612e+000	 3.4545227658e-001
 3.1281332488e+000	 1.7817919009e+000	 5.0058769408e-001
 3.1098366495e+000	 1.8135368796e+000	 3.0207164870e-001
 3.0911931332e+000	 1.8451355001e+000	 4.4836467550e-002
 3.0722043086e+000	 1.8765821821e+000	-1.8964278806e-001
 3.0528719025e+000	 1.9078713654e+000	-3.1775160240e-001
 3.0331977592e+000	 1.9389975126e+000	-4.0727480803e-001
 3.0131838404e+000	 1.9699551122e+000	-4.5914811960e-001
 3.2200295248e+000	 1.6649428998e+000	-1.8046267552e-001
 3.2030169967e+000	 1.6974413448e+000	-7.1522164189e-002
 3.1856498492e+000	 1.7298150301e+000	 4.3484148850e-002
 3.1679292278e+000	 1.7620582873e+000	 1.6317458505e-001
 3.1498563963e+000	 1.7941654558e+000	 2.8611350280e-001
 3.1314327373e+000	 1.8261308857e+000	 4.1081293535e-001
 3.1126597521e+000	 1.8579489410e+000	 2.5569573583e-001
 3.0935390607e+000	 1.8896140028e+000	 4.5559278098e-003
 3.0740724018e+000	 1.9211204721e+000	-1.7018264962e-001
 3.0542616325e+000	 1.9524627731e+000	-3.0492090021e-001
 3.0341087282e+000	 1.9836353560e+000	-4.0061459677e-001
 3.2422366249e+000	 1.6764252647e+000	-2.5185779768e-001
 3.2251067691e+000	 1.7091478368e+000	-1.7731590249e-001
 3.2076198482e+000	 1.7417447889e+000	-9.5989605644e-002
 3.1897770156e+000	 1.7742104134e+000	-9.2876836303e-003
 3.1715795439e+000	 1.8065390106e+000	 8.1325472105e-002
 3.1530288252e+000	 1.8387248918e+000	 1.7433152396e-001
 3.1341263711e+000	 1.8707623820e+000	 2.6815999289e-001
 3.1148738129e+000	 1.9026458236e+000	 2.0273753645e-001
 3.0952729011e+000	 1.9343695788e+000	-1.9070056582e-002
 3.0753255058e+000	 1.9659280336e+000	-1.9944875378e-001
 3.0550336159e+000	 1.9973155998e+000	-3.3937450220e-001
 3.2644437251e+000	 1.6879076295e+000	-3.1337500726e-001
 3.2471965415e+000	 1.7208543288e+000	-2.7335918046e-001
 3.2295898471e+000	 1.7536745477e+000	-2.2583847672e-001
 3.2116248033e+000	 1.7863625395e+000	-1.7224906502e-001
 3.1933026914e+000	 1.8189125655e+000	-1.1408439522e-001
 3.1746249130e+000	 1.8513188979e+000	-5.2893497956e-002
 3.1555929901e+000	 1.8835758230e+000	 2.5042494119e-002
 3.1362085650e+000	 1.9156776443e+000	 1.5932364479e-001
 3.1164734004e+000	 1.9476186855e+000	 1.3507143549e-001
 3.0963893791e+000	 1.9793932941e+000	-9.1367286670e-002
 3.0759585037e+000	 2.0109958437e+000	-2.7593055195e-001
 3.2866508253e+000	 1.6993899943e+000	-3.6534025956e-001
 3.2692863139e+000	 1.7325608209e+000	-3.5997238185e-001
 3.2515598461e+000	 1.7656043065e+000	-3.4637699007e-001
 3.2334725911e+000	 1.7985146656e+000	-3.2601794417e-001
 3.2150258390e+000	 1.8312861203e+000	-3.0041806514e-001
 3.1962210009e+000	 1.8639129040e+000	-2.7115740340e-001
 3.1770596091e+000	 1.8963892639e+000	-2.0458200705e-001
 3.1575433171e+000	 1.9287094650e+000	-1.0073990855e-001
 3.1376738998e+000	 1.9608677923e+000	 2.5048719368e-002
 3.1174532525e+000	 1.9928585546e+000	 1.8819956491e-002
 3.0968833915e+000	 2.0246760875e+000	-2.1078023232e-001
 3.3088579254e+000	 1.7108723591e+000	-4.0807324437e-001
 3.2913760863e+000	 1.7442673129e+000	-4.3746972792e-001
 3.2735298451e+000	 1.7775340654e+000	-4.5791361605e-001
 3.2553203789e+000	 1.8106667917e+000	-4.7089676197e-001
 3.2367489865e+000	 1.8436596752e+000	-4.7797167481e-001
 3.2178170887e+000	 1.8765069101e+000	-4.7896297021e-001
 3.1985262280e+000	 1.9092027049e+000	-4.2889376015e-001
 3.1788780693e+000	 1.9417412857e+000	-3.5557350614e-001
 3.1588743991e+000	 1.9741168990e+000	-2.5982707302e-001
 3.1385171258e+000	 2.0063238151e+000	-1.4250072948e-001
 3.1178082793e+000	 2.0383563313e+000	-1.4441597537e-001
 3.3310650256e+000	 1.7223547240e+000	-4.4188759476e-001
 3.3134658586e+000	 1.7559738049e+000	-5.0615948284e-001
 3.2954998440e+000	 1.7894638242e+000	-5.6075097146e-001
 3.2771681667e+000	 1.8228189179e+000	-6.0718221336e-001
 3.2584721341e+000	 1.8560332301e+000	-6.4703572683e-001
 3.2394131765e+000	 1.8891009162e+000	-6.6687019664e-001
 3.2199928470e+000	 1.9220161459e+000	-6.4788583881e-001
 3.2002128214e+000	 1.9547731064e+000	-6.0516272126e-001
 3.1800748984e+000	 1.9873660057e+000	-5.3954600864e-001
 3.1595809991e+000	 2.0197890756e+000	-4.5190263368e-001
 3.1387331671e+000	 2.0520365752e+000	-3.4311984371e-001
 2.9294842893e+000	 1.9152341368e+000	-6.5596867142e-001
 2.9096979964e+000	 1.9451626075e+000	-6.2770568003e-001
 2.8895855216e+000	 1.9749165840e+000	-6.0679555419e-001
 2.8691491118e+000	 2.0044908018e+000	-5.9326815568e-001
 2.8483911262e+000	 2.0338800339e+000	-5.8718386940e-001
 2.8273140354e+000	 2.0630790933e+000	-5.8863299878e-001
 2.8059204205e+000	 2.0920828363e+000	-5.9773505833e-001
 2.7842129721e+000	 2.1208861652e+000	-6.1463796490e-001
 2.7621944897e+000	 2.1494840313e+000	-6.3951712914e-001
 2.7398678801e+000	 2.1778714378e+000	-6.7257444917e-001
 2.7172361565e+000	 2.2060434424e+000	-7.1403720893e-001
 2.9504091771e+000	 1.9289143807e+000	-6.1339975623e-001
 2.9304815535e+000	 1.9590566262e+000	-6.0053653440e-001
 2.9102254181e+000	 1.9890231310e+000	-5.9123113460e-001
 2.8896430340e+000	 2.0188085932e+000	-5.8559236219e-001
 2.8687367771e+000	 2.0484077484e+000	-5.8376425363e-001
 2.8475091357e+000	 2.0778153725e+000	-5.8592539508e-001
 2.8259627092e+000	 2.1070262851e+000	-5.9228813038e-001
 2.8041002076e+000	 2.1360353521e+000	-6.0309765970e-001
 2.7819244504e+000	 2.1648374887e+000	-6.1863103077e-001
 2.7594383650e+000	 2.1934276623e+000	-6.3919602482e-001
 2.7366449862e+000	 2.2218008955e+000	-6.6512993960e-001
 2.9713340648e+000	 1.9425946245e+000	-5.6605733214e-001
 2.9512651106e+000	 1.9729506448e+000	-5.7039183567e-001
 2.9308653147e+000	 2.0031296780e+000	-5.7451363449e-001
 2.9101369562e+000	 2.0331263847e+000	-5.7861008934e-001
 2.8890824280e+000	 2.0629354629e+000	-5.8290849911e-001
 2.8677042359e+000	 2.0925516518e+000	-5.8767534281e-001
 2.8460049979e+000	 2.1219697340e+000	-5.9321540283e-001
 2.8239874432e+000	 2.1511845390e+000	-5.9987077121e-001
 2.8016544110e+000	 2.1801909460e+000	-6.0801974058e-001
 2.7790088499e+000	 2.2089838869e+000	-6.1807558225e-001
 2.7560538159e+000	 2.2375583487e+000	-6.3048521404e-001
 2.9922589526e+000	 1.9562748683e+000	-5.1446694201e-001
 2.9720486678e+000	 1.9868446634e+000	-5.3776112404e-001
 2.9515052113e+000	 2.0172362251e+000	-5.5709544124e-001
 2.9306308784e+000	 2.0474441761e+000	-5.7273543866e-001
 2.9094280789e+000	 2.0774631775e+000	-5.8499130661e-001
 2.8878993362e+000	 2.1072879310e+000	-5.9421704598e-001
 2.8660472866e+000	 2.1369131828e+000	-6.0080950693e-001
 2.8438746787e+000	 2.1663337259e+000	-6.0520730261e-001
 2.8213843716e+000	 2.1955444034e+000	-6.0788959993e-001
 2.7985793347e+000	 2.2245401114e+000	-6.0937478976e-001
 2.7754626456e+000	 2.2533158019e+000	-6.1021903944e-001
 3.0131838404e+000	 1.9699551122e+000	-4.5914811960e-001
 2.9928322249e+000	 2.0007386820e+000	-5.0312889954e-001
 2.9721451079e+000	 2.0313427721e+000	-5.3942489653e-001
 2.9511248007e+000	 2.0617619676e+000	-5.6837948570e-001
 2.9297737298e+000	 2.0919908920e+000	-5.9038539541e-001
 2.9080944364e+000	 2.1220242103e+000	-6.0588379604e-001
 2.8860895753e+000	 2.1518566316e+000	-6.1536325408e-001
 2.8637619142e+000	 2.1814829128e+000	-6.1935855339e-001
 2.8411143323e+000	 2.2108978608e+000	-6.1844938566e-001
 2.8181498196e+000	 2.2400963360e+000	-6.1325891270e-001
 2.7948714753e+000	 2.2690732550e+000	-6.0445220361e-001
 3.0341087282e+000	 1.9836353560e+000	-4.0061459677e-001
 3.0136157820e+000	 2.0146327007e+000	-4.6697479579e-001
 2.9927850045e+000	 2.0454493191e+000	-5.2194643591e-001
 2.9716187229e+000	 2.0760797590e+000	-5.6595038441e-001
 2.9501193807e+000	 2.1065186065e+000	-5.9946157167e-001
 2.9282895367e+000	 2.1367604895e+000	-6.2300800327e-001
 2.9061318640e+000	 2.1668000805e+000	-6.3716962965e-001
 2.8836491497e+000	 2.1966320997e+000	-6.4257707472e-001
 2.8608442929e+000	 2.2262513181e+000	-6.3991022612e-001
 2.8377203044e+000	 2.2556525605e+000	-6.2989668947e-001
 2.8142803050e+000	 2.2848307082e+000	-6.1331011009e-001
 3.0550336159e+000	 1.9973155998e+000	-3.3937450220e-001
 3.0343993391e+000	 2.0285267193e+000	-4.2977374670e-001
 3.0134249010e+000	 2.0595558661e+000	-5.0510072250e-001
 2.9921126451e+000	 2.0903975504e+000	-5.6585346719e-001
 2.9704650316e+000	 2.1210463210e+000	-6.1258879393e-001
 2.9484846369e+000	 2.1514967687e+000	-6.4592122702e-001
 2.9261741528e+000	 2.1817435293e+000	-6.6652178696e-001
 2.9035363852e+000	 2.2117812866e+000	-6.7511662652e-001
 2.8805742536e+000	 2.2416047755e+000	-6.7248552063e-001
 2.8572907893e+000	 2.2712087851e+000	-6.5946021258e-001
 2.8336891347e+000	 2.3005881613e+000	-6.3692262011e-001
 3.0759585037e+000	 2.0109958437e+000	-2.7593055195e-001
 3.0551828962e+000	 2.0424207379e+000	-3.9199614630e-001
 3.0340647976e+000	 2.0736624132e+000	-4.8932477536e-001
 3.0126065673e+000	 2.1047153419e+000	-5.6849134084e-001
 2.9908106825e+000	 2.1355740356e+000	-6.3013423597e-001
 2.9686797371e+000	 2.1662330480e+000	-6.7495420462e-001
 2.9462164415e+000	 2.1966869781e+000	-7.0371304162e-001
 2.9234236207e+000	 2.2269304735e+000	-7.1723213639e-001
 2.9003042142e+000	 2.2569582329e+000	-7.1639086226e-001
 2.8768612741e+000	 2.2867650096e+000	-7.0212481455e-001
 2.8530979643e+000	 2.3163456145e+000	-6.7542390098e-001
 3.0968833915e+000	 2.0246760875e+000	-2.1078023232e-001
 3.0759664533e+000	 2.0563147565e+000	-3.5410800212e-001
 3.0547046942e+000	 2.0877689602e+000	-4.7505209257e-001
 3.0331004896e+000	 2.1190331333e+000	-5.7426397865e-001
 3.0111563334e+000	 2.1501017501e+000	-6.5246334711e-001
 2.9888748374e+000	 2.1809693272e+000	-7.1043687914e-001
 2.9662587302e+000	 2.2116304270e+000	-7.4903686603e-001
 2.9433108562e+000	 2.2420796604e+000	-7.6917966013e-001
 2.9200341748e+000	 2.2723116903e+000	-7.7184396365e-001
 2.8964317590e+000	 2.3023212342e+000	-7.5806895844e-001
 2.8725067940e+000	 2.3321030677e+000	-7.2895228055e-001
 3.1178082793e+000	 2.0383563313e+000	-1.4441597537e-001
 3.0967500104e+000	 2.0702087752e+000	-3.1657108237e-001
 3.0753445908e+000	 2.1018755072e+000	-4.6271276941e-001
 3.0535944118e+000	 2.1333509248e+000	-5.8356880879e-001
 3.0315019843e+000	 2.1646294646e+000	-6.7993991005e-001
 3.0090699376e+000	 2.1957056065e+000	-7.5269842608e-001
 2.9863010189e+000	 2.2265738758e+000	-8.0278688411e-001
 2.9631980917e+000	 2.2572288473e+000	-8.3121634392e-001
 2.9397641355e+000	 2.2876651476e+000	-8.3906458597e-001
 2.9160022438e+000	 2.3178774588e+000	-8.2747413283e-001
 2.8919156237e+000	 2.3478605208e+000	-7.9765010767e-001
 3.1387331671e+000	 2.0520365752e+000	-3.4311984371e-001
 3.1175335675e+000	 2.0841027938e+000	-2.7984305729e-001
 3.0959844873e+000	 2.1159820543e+000	-4.5273361176e-001
 3.0740883340e+000	 2.1476687162e+000	-5.9680079912e-001
 3.0518476352e+000	 2.1791571792e+000	-7.1292609643e-001
 3.0292650379e+000	 2.2104418857e+000	-8.0206727892e-001
 3.0063433076e+000	 2.2415173246e+000	-8.6525686625e-001
 2.9830853273e+000	 2.2723780342e+000	-9.0360038791e-001
 2.9594940961e+000	 2.3030186050e+000	-9.1827447057e-001
 2.9355727287e+000	 2.3334336833e+000	-9.1052475095e-001
 2.9113244534e+000	 2.3636179740e+000	-8.8166361812e-001
 2.7172361565e+000	 2.2060434424e+000	-7.1403720893e-001
 2.6943024371e+000	 2.2339951605e+000	-7.9377812268e-001
 2.6710699438e+000	 2.2617217679e+000	-8.5708481873e-001
 2.6475420007e+000	 2.2892185031e+000	-9.0487323372e-001
 2.6237220324e+000	 2.3164806705e+000	-9.3810522952e-001
 2.5996135628e+000	 2.3435036429e+000	-9.5778644069e-001
 2.5752202129e+000	 2.3702828639e+000	-9.6496401180e-001
 2.5505456993e+000	 2.3968138509e+000	-9.6072423012e-001
 2.5255938321e+000	 2.4230921970e+000	-9.4619005960e-001
 2.5003685132e+000	 2.4491135740e+000	-9.2251858217e-001
 2.4748737342e+000	 2.4748737342e+000	-8.3580194717e-001
 2.7366449862e+000	 2.2218008955e+000	-6.6512993960e-001
 2.7135474545e+000	 2.2499522688e+000	-7.4046641598e-001
 2.6901490148e+000	 2.2778769234e+000	-7.9890625000e-001
 2.6664530150e+000	 2.3055700638e+000	-8.4138241348e-001
 2.6424629041e+000	 2.3330269610e+000	-8.6887505081e-001
 2.6181822311e+000	 2.3602429546e+000	-8.8240928400e-001
 2.5936146430e+000	 2.3872134558e+000	-8.8305290493e-001
 2.5687638828e+000	 2.4139339499e+000	-8.7191396029e-001
 2.5436337880e+000	 2.4403999984e+000	-8.5013823522e-001
 2.5182282883e+000	 2.4666072423e+000	-8.1890664200e-001
 2.4925514037e+000	 2.4925514037e+000	-7.6260146247e-001
 2.7560538159e+000	 2.2375583487e+000	-6.3048521404e-001
 2.7327924719e+000	 2.2659093771e+000	-7.0107316567e-001
 2.7092280859e+000	 2.2940320788e+000	-7.5428814487e-001
 2.6853640292e+000	 2.3219216245e+000	-7.9108087207e-001
 2.6612037757e+000	 2.3495732515e+000	-8.1245051010e-001
 2.6367508994e+000	 2.3769822663e+000	-8.1944242590e-001
 2.6120090731e+000	 2.4041440477e+000	-8.1314583649e-001
 2.5869820664e+000	 2.4310540488e+000	-7.9469134493e-001
 2.5616737440e+000	 2.4577077999e+000	-7.6524837257e-001
 2.5360880634e+000	 2.4841009107e+000	-7.2602249373e-001
 2.5102290732e+000	 2.5102290732e+000	-7.0184464650e-001
 2.7754626456e+000	 2.2533158019e+000	-6.1021903944e-001
 2.7520374893e+000	 2.2818664854e+000	-6.7571746668e-001
 2.7283071569e+000	 2.3101872343e+000	-7.2335247075e-001
 2.7042750435e+000	 2.3382731853e+000	-7.5409323635e-001
 2.6799446474e+000	 2.3661195420e+000	-7.6895868329e-001
 2.6553195677e+000	 2.3937215781e+000	-7.6901518363e-001
 2.6304035032e+000	 2.4210746396e+000	-7.5537416028e-001
 2.6052002500e+000	 2.4481741477e+000	-7.2918957291e-001
 2.5797136999e+000	 2.4750156013e+000	-6.9165529742e-001
 2.5539478385e+000	 2.5015945791e+000	-6.4831021234e-001
 2.5279067427e+000	 2.5279067427e+000	-6.5321756791e-001
 2.7948714753e+000	 2.2690732550e+000	-6.0445220361e-001
 2.7712825068e+000	 2.2978235937e+000	-6.6452301858e-001
 2.7473862279e+000	 2.3263423898e+000	-7.0622562442e-001
 2.7231860578e+000	 2.3546247460e+000	-7.3054838820e-001
 2.6986855190e+000	 2.3826658325e+000	-7.3853072780e-001
 2.6738882360e+000	 2.4104608898e+000	-7.3126078343e-001
 2.6487979333e+000	 2.4380052315e+000	-7.0987296775e-001
 2.6234184335e+000	 2.4652942467e+000	-6.7554540050e-001
 2.5977536559e+000	 2.4923234027e+000	-6.2949723399e-001
 2.5718076136e+000	 2.5190882475e+000	-6.2520890273e-001
 2.5455844123e+000	 2.5455844123e+000	-6.1652823372e-001
 2.8142803050e+000	 2.2848307082e+000	-6.1331011009e-001
 2.7905275242e+000	 2.3137807020e+000	-6.6761796675e-001
 2.7664652989e+000	 2.3424975453e+000	-7.0303827931e-001
 2.7420970721e+000	 2.3709763067e+000	-7.2057931773e-001
 2.7174263907e+000	 2.3992121230e+000	-7.2130174177e-001
 2.6924569043e+000	 2.4272002015e+000	-7.0631622576e-001
 2.6671923634e+000	 2.4549358234e+000	-6.7678095910e-001
 2.6416366171e+000	 2.4824143456e+000	-6.3389902838e-001
 2.6157936118e+000	 2.5096312041e+000	-6.0862603223e-001
 2.5896673887e+000	 2.5365819159e+000	-6.1417219775e-001
 2.5632620818e+000	 2.5632620818e+000	-5.9151654050e-001
 2.8336891347e+000	 2.3005881613e+000	-6.3692262011e-001
 2.8097725416e+000	 2.3297378103e+000	-6.8513475018e-001
 2.7855443700e+000	 2.3586527008e+000	-7.1392523903e-001
 2.7610080864e+000	 2.3873278675e+000	-7.2432298264e-001
 2.7361672624e+000	 2.4157584135e+000	-7.1741062918e-001
 2.7110255726e+000	 2.4439395133e+000	-6.9432215608e-001
 2.6855867935e+000	 2.4718664152e+000	-6.5624031967e-001
 2.6598548007e+000	 2.4995344445e+000	-6.0439398366e-001
 2.6338335677e+000	 2.5269390055e+000	-6.2347668265e-001
 2.6075271638e+000	 2.5540755843e+000	-6.1493962327e-001
 2.5809397513e+000	 2.5809397513e+000	-5.7792524241e-001
 2.8530979643e+000	 2.3163456145e+000	-6.7542390098e-001
 2.8290175590e+000	 2.3456949186e+000	-7.1720995539e-001
 2.8046234410e+000	 2.3748078563e+000	-7.3902529691e-001
 2.7799191007e+000	 2.4036794282e+000	-7.4192017321e-001
 2.7549081340e+000	 2.4323047040e+000	-7.2699997033e-001
 2.7295942409e+000	 2.4606788250e+000	-6.9542274083e-001
 2.7039812235e+000	 2.4887970071e+000	-6.4839660144e-001
 2.6780729842e+000	 2.5166545435e+000	-6.4377957094e-001
 2.6518735237e+000	 2.5442468069e+000	-6.5025933240e-001
 2.6253869389e+000	 2.5715692527e+000	-6.2725361525e-001
 2.5986174209e+000	 2.5986174209e+000	-5.7549985400e-001
 2.8725067940e+000	 2.3321030677e+000	-7.2895228055e-001
 2.8482625764e+000	 2.3616520268e+000	-7.6398417632e-001
 2.8237025120e+000	 2.3909630117e+000	-7.7848110119e-001
 2.7988301150e+000	 2.4200309889e+000	-7.7351538289e-001
 2.7736490057e+000	 2.4488509945e+000	-7.5021589771e-001
 2.7481629093e+000	 2.4774181367e+000	-7.0976554849e-001
 2.7223756536e+000	 2.5057275990e+000	-6.7440919683e-001
 2.6962911678e+000	 2.5337746424e+000	-6.9681004580e-001
 2.6699134796e+000	 2.5615546083e+000	-6.8871633115e-001
 2.6432467140e+000	 2.5890629210e+000	-6.5085942143e-001
 2.6162950904e+000	 2.6162950904e+000	-5.8398855693e-001
 2.8919156237e+000	 2.3478605208e+000	-7.9765010767e-001
 2.8675075938e+000	 2.3776091351e+000	-8.2560187988e-001
 2.8427815831e+000	 2.4071181672e+000	-8.3243902564e-001
 2.8177411293e+000	 2.4363825497e+000	-8.1925668399e-001
 2.7923898773e+000	 2.4653972850e+000	-7.8720797672e-001
 2.7667315776e+000	 2.4941574485e+000	-7.3750143542e-001
 2.7407700837e+000	 2.5226581909e+000	-7.5391526719e-001
 2.7145093514e+000	 2.5508947413e+000	-7.6164419338e-001
 2.6879534356e+000	 2.5788624097e+000	-7.3859288703e-001
 2.6611064891e+000	 2.6065565894e+000	-6.8550500701e-001
 2.6339727599e+000	 2.6339727599e+000	-6.0314211053e-001
 2.9113244534e+000	 2.3636179740e+000	-8.8166361812e-001
 2.8867526112e+000	 2.3935662434e+000	-9.0221127680e-001
 2.8618606541e+000	 2.4232733227e+000	-9.0104904546e-001
 2.8366521436e+000	 2.4527341104e+000	-8.7929560837e-001
 2.8111307490e+000	 2.4819435755e+000	-8.3812909132e-001
 2.7853002459e+000	 2.5108967602e+000	-8.2088527914e-001
 2.7591645138e+000	 2.5395887828e+000	-8.4535578553e-001
 2.7327275349e+000	 2.5680148403e+000	-8.3802740142e-001
 2.7059933915e+000	 2.5961702111e+000	-7.9963697129e-001
 2.6789662642e+000	 2.6240502578e+000	-7.3094096400e-001
 2.6516504295e+000	 2.6516504295e+000	-6.3271376579e-001
 2.4748737342e+000	 2.4748737342e+000	-8.3580194717e-001
 2.4491135740e+000	 2.5003685132e+000	-8.8772225383e-001
 2.4230921970e+000	 2.5255938321e+000	-9.7183160480e-001
 2.3968138509e+000	 2.5505456993e+000	-1.0342229618e+000
 2.3702828639e+000	 2.5752202129e+000	-1.0757610882e+000
 2.3435036429e+000	 2.5996135628e+000	-1.0973065775e+000
 2.3164806705e+000	 2.6237220324e+000	-1.0997144074e+000
 2.2892185031e+000	 2.6475420007e+000	-1.0838325528e+000
 2.2617217679e+000	 2.6710699438e+000	-1.0505006614e+000
 2.2339951605e+000	 2.6943024371e+000	-1.0005487949e+000
 2.2060434424e+000	 2.7172361565e+000	-9.3479623727e-001
 2.4925514037e+000	 2.4925514037e+000	-7.6260146247e-001
 2.4666072423e+000	 2.5182282883e+000	-8.4098478513e-001
 2.4403999984e+000	 2.5436337880e+000	-9.1591330271e-001
 2.4139339499e+000	 2.5687638828e+000	-9.7149901523e-001
 2.3872134558e+000	 2.5936146430e+000	-1.0086041680e+000
 2.3602429546e+000	 2.6181822311e+000	-1.0280838319e+000
 2.3330269610e+000	 2.6424629041e+000	-1.0307844555e+000
 2.3055700638e+000	 2.6664530150e+000	-1.0175424827e+000
 2.2778769234e+000	 2.6901490148e+000	-9.8918303704e-001
 2.2499522688e+000	 2.7135474545e+000	-9.4651867748e-001
 2.2218008955e+000	 2.7366449862e+000	-8.9034822596e-001
 2.5102290732e+000	 2.5102290732e+000	-7.0184464650e-001
 2.4841009107e+000	 2.5360880634e+000	-8.0868556127e-001
 2.4577077999e+000	 2.5616737440e+000	-8.7386538693e-001
 2.4310540488e+000	 2.5869820664e+000	-9.2205645245e-001
 2.4041440477e+000	 2.6120090731e+000	-9.5411903961e-001
 2.3769822663e+000	 2.6367508994e+000	-9.7090324929e-001
 2.3495732515e+000	 2.6612037757e+000	-9.7324755203e-001
 2.3219216245e+000	 2.6853640292e+000	-9.6197740846e-001
 2.2940320788e+000	 2.7092280859e+000	-9.3790396274e-001
 2.2659093771e+000	 2.7327924719e+000	-9.0182281138e-001
 2.2375583487e+000	 2.7560538159e+000	-8.5451285009e-001
 2.5279067427e+000	 2.5279067427e+000	-6.5321756791e-001
 2.5015945791e+000	 2.5539478385e+000	-7.8655531498e-001
 2.4750156013e+000	 2.5797136999e+000	-8.4519301421e-001
 2.4481741477e+000	 2.6052002500e+000	-8.8540881098e-001
 2.4210746396e+000	 2.6304035032e+000	-9.1182852012e-001
 2.3937215781e+000	 2.6553195677e+000	-9.2529782232e-001
 2.3661195420e+000	 2.6799446474e+000	-9.2664775682e-001
 2.3382731853e+000	 2.7042750435e+000	-9.1669334454e-001
 2.3101872343e+000	 2.7283071569e+000	-8.9623228939e-001
 2.2818664854e+000	 2.7520374893e+000	-8.6604376013e-001
 2.2533158019e+000	 2.7754626456e+000	-8.2688725537e-001
 2.5455844123e+000	 2.5455844123e+000	-6.1652823372e-001
 2.5190882475e+000	 2.5718076136e+000	-7.3924690849e-001
 2.4923234027e+000	 2.5977536559e+000	-8.2940390631e-001
 2.4652942467e+000	 2.6234184335e+000	-8.6107191507e-001
 2.4380052315e+000	 2.6487979333e+000	-8.8125741646e-001
 2.4104608898e+000	 2.6738882360e+000	-8.9080221758e-001
 2.3826658325e+000	 2.6986855190e+000	-8.9053046952e-001
 2.3546247460e+000	 2.7231860578e+000	-8.8124729257e-001
 2.3263423898e+000	 2.7473862279e+000	-8.6373748457e-001
 2.2978235937e+000	 2.7712825068e+000	-8.3876431538e-001
 2.2690732550e+000	 2.7948714753e+000	-8.0706840941e-001
 2.5632620818e+000	 2.5632620818e+000	-5.9151654050e-001
 2.5365819159e+000	 2.5896673887e+000	-7.0311271257e-001
 2.5096312041e+000	 2.6157936118e+000	-8.0257781894e-001
 2.4824143456e+000	 2.6416366171e+000	-8.4856379689e-001
 2.4549358234e+000	 2.6671923634e+000	-8.6193245659e-001
 2.4272002015e+000	 2.6924569043e+000	-8.6695271790e-001
 2.3992121230e+000	 2.7174263907e+000	-8.6444238339e-001
 2.3709763067e+000	 2.7420970721e+000	-8.5519720742e-001
 2.3424975453e+000	 2.7664652989e+000	-8.3998961121e-001
 2.3137807020e+000	 2.7905275242e+000	-8.1956748903e-001
 2.2848307082e+000	 2.8142803050e+000	-7.9465310784e-001
 2.5809397513e+000	 2.5809397513e+000	-5.7792524241e-001
 2.5540755843e+000	 2.6075271638e+000	-6.7790124382e-001
 2.5269390055e+000	 2.6338335677e+000	-7.6783687591e-001
 2.4995344445e+000	 2.6598548007e+000	-8.4740462091e-001
 2.4718664152e+000	 2.6855867935e+000	-8.5338222378e-001
 2.4439395133e+000	 2.7110255726e+000	-8.5328716707e-001
 2.4157584135e+000	 2.7361672624e+000	-8.4793144093e-001
 2.3873278675e+000	 2.7610080864e+000	-8.3810196459e-001
 2.3586527008e+000	 2.7855443700e+000	-8.2455930729e-001
 2.3297378103e+000	 2.8097725416e+000	-8.0803650572e-001
 2.3005881613e+000	 2.8336891347e+000	-7.8923798021e-001
 2.5986174209e+000	 2.5986174209e+000	-5.7549985400e-001
 2.5715692527e+000	 2.6253869389e+000	-6.6336356282e-001
 2.5442468069e+000	 2.6518735237e+000	-7.4325145073e-001
 2.5166545435e+000	 2.6780729842e+000	-8.1597348604e-001
 2.4887970071e+000	 2.7039812235e+000	-8.5513709349e-001
 2.4606788250e+000	 2.7295942409e+000	-8.4934491663e-001
 2.4323047040e+000	 2.7549081340e+000	-8.4054679145e-001
 2.4036794282e+000	 2.7799191007e+000	-8.2952132882e-001
 2.3748078563e+000	 2.8046234410e+000	-8.1701776618e-001
 2.3456949186e+000	 2.8290175590e+000	-8.0375479555e-001
 2.3163456145e+000	 2.8530979643e+000	-7.9041949560e-001
 2.6162950904e+000	 2.6162950904e+000	-5.8398855693e-001
 2.5890629210e+000	 2.6432467140e+000	-6.5925318821e-001
 2.5615546083e+000	 2.6699134796e+000	-7.2858108329e-001
 2.5337746424e+000	 2.6962911678e+000	-7.9278615522e-001
 2.5057275990e+000	 2.7223756536e+000	-8.5267447719e-001
 2.4774181367e+000	 2.7481629093e+000	-8.5466677504e-001
 2.4488509945e+000	 2.7736490057e+000	-8.4183875025e-001
 2.4200309889e+000	 2.7988301150e+000	-8.2901592410e-001
 2.3909630117e+000	 2.8237025120e+000	-8.1693671798e-001
 2.3616520268e+000	 2.8482625764e+000	-8.0630598715e-001
 2.3321030677e+000	 2.8725067940e+000	-7.9779396811e-001
 2.6339727599e+000	 2.6339727599e+000	-6.0314211053e-001
 2.6065565894e+000	 2.6611064891e+000	-6.6532601416e-001
 2.5788624097e+000	 2.6879534356e+000	-7.2358747091e-001
 2.5508947413e+000	 2.7145093514e+000	-7.7874489892e-001
 2.5226581909e+000	 2.7407700837e+000	-8.3160653924e-001
 2.4941574485e+000	 2.7667315776e+000	-8.6879495870e-001
 2.4653972850e+000	 2.7923898773e+000	-8.5135875956e-001
 2.4363825497e+000	 2.8177411293e+000	-8.3614720481e-001
 2.4071181672e+000	 2.8427815831e+000	-8.2388841144e-001
 2.3776091351e+000	 2.8675075938e+000	-8.1527390103e-001
 2.3478605208e+000	 2.8919156237e+000	-8.1095756199e-001
 2.6516504295e+000	 2.6516504295e+000	-6.3271376579e-001
 2.6240502578e+000	 2.6789662642e+000	-6.8134023124e-001
 2.5961702111e+000	 2.7059933915e+000	-7.2803439645e-001
 2.5680148403e+000	 2.7327275349e+000	-7.7361974429e-001
 2.5395887828e+000	 2.7591645138e+000	-8.1890725199e-001
 2.5108967602e+000	 2.7853002459e+000	-8.6469372177e-001
 2.4819435755e+000	 2.8111307490e+000	-8.6865935089e-001
 2.4527341104e+000	 2.8366521436e+000	-8.5047742805e-001
 2.4232733227e+000	 2.8618606541e+000	-8.3744559667e-001
 2.3935662434e+000	 2.8867526112e+000	-8.3024254318e-001
 2.3636179740e+000	 2.9113244534e+000	-8.2950629669e-001
 2.2060434424e+000	 2.7172361565e+000	-9.3479623727e-001
 2.1778714378e+000	 2.7398678801e+000	-9.0718759999e-001
 2.1494840313e+000	 2.7621944897e+000	-8.8606352183e-001
 2.1208861652e+000	 2.7842129721e+000	-8.7180010498e-001
 2.0920828363e+000	 2.8059204205e+000	-8.6474083707e-001
 2.0630790933e+000	 2.8273140354e+000	-8.6519628485e-001
 2.0338800339e+000	 2.8483911262e+000	-8.7344388446e-001
 2.0044908018e+000	 2.8691491118e+000	-8.8972782773e-001
 1.9749165840e+000	 2.8895855216e+000	-9.1425904383e-001
 1.9451626075e+000	 2.9096979964e+000	-9.4721527489e-001
 1.9152341368e+000	 2.9294842893e+000	-9.8874124444e-001
 2.2218008955e+000	 2.7366449862e+000	-8.9034822596e-001
 2.1934276623e+000	 2.7594383650e+000	-8.6576802251e-001
 2.1648374887e+000	 2.7819244504e+000	-8.4676493002e-001
 2.1360353521e+000	 2.8041002076e+000	-8.3371798135e-001
 2.1070262851e+000	 2.8259627092e+000	-8.2697356695e-001
 2.0778153725e+000	 2.8475091357e+000	-8.2684512437e-001
 2.0484077484e+000	 2.8687367771e+000	-8.3361292567e-001
 2.0188085932e+000	 2.8896430340e+000	-8.4752396205e-001
 1.9890231310e+000	 2.9102254181e+000	-8.6879192512e-001
 1.9590566262e+000	 2.9304815535e+000	-8.9759728336e-001
 1.9289143807e+000	 2.9504091771e+000	-9.3408745248e-001
 2.2375583487e+000	 2.7560538159e+000	-8.5451285009e-001
 2.2089838869e+000	 2.7790088499e+000	-8.3277028130e-001
 2.1801909460e+000	 2.8016544110e+000	-8.1572536181e-001
 2.1511845390e+000	 2.8239874432e+000	-8.0376020855e-001
 2.1219697340e+000	 2.8460049979e+000	-7.9722423444e-001
 2.0925516518e+000	 2.8677042359e+000	-7.9643383379e-001
 2.0629354629e+000	 2.8890824280e+000	-8.0167216683e-001
 2.0331263847e+000	 2.9101369562e+000	-8.1318904293e-001
 2.0031296780e+000	 2.9308653147e+000	-8.3120090150e-001
 1.9729506448e+000	 2.9512651106e+000	-8.5589088962e-001
 1.9425946245e+000	 2.9713340648e+000	-8.8740903468e-001
 2.2533158019e+000	 2.7754626456e+000	-8.2688725537e-001
 2.2245401114e+000	 2.7985793347e+000	-8.0779547845e-001
 2.1955444034e+000	 2.8213843716e+000	-7.9254980186e-001
 2.1663337259e+000	 2.8438746787e+000	-7.8153557918e-001
 2.1369131828e+000	 2.8660472866e+000	-7.7510536458e-001
 2.1072879310e+000	 2.8878993362e+000	-7.7357859416e-001
 2.0774631775e+000	 2.9094280789e+000	-7.7724136761e-001
 2.0474441761e+000	 2.9306308784e+000	-7.8634633010e-001
 2.0172362251e+000	 2.9515052113e+000	-8.0111265320e-001
 1.9868446634e+000	 2.9720486678e+000	-8.2172611368e-001
 1.9562748683e+000	 2.9922589526e+000	-8.4833926886e-001
 2.2690732550e+000	 2.7948714753e+000	-8.0706840941e-001
 2.2400963360e+000	 2.8181498196e+000	-7.9044443330e-001
 2.2108978608e+000	 2.8411143323e+000	-7.7684285601e-001
 2.1814829128e+000	 2.8637619142e+000	-7.6665241951e-001
 2.1518566316e+000	 2.8860895753e+000	-7.6022893721e-001
 2.1220242103e+000	 2.9080944364e+000	-7.5789497101e-001
 2.0919908920e+000	 2.9297737298e+000	-7.5993961041e-001
 2.0617619676e+000	 2.9511248007e+000	-7.6661835305e-001
 2.0313427721e+000	 2.9721451079e+000	-7.7815308577e-001
 2.0007386820e+000	 2.9928322249e+000	-7.9473216506e-001
 1.9699551122e+000	 3.0131838404e+000	-8.1651059518e-001
 2.2848307082e+000	 2.8142803050e+000	-7.9465310784e-001
 2.2556525605e+000	 2.8377203044e+000	-7.8031769224e-001
 2.2262513181e+000	 2.8608442929e+000	-7.6820876436e-001
 2.1966320997e+000	 2.8836491497e+000	-7.5871860562e-001
 2.1668000805e+000	 2.9061318640e+000	-7.5220640571e-001
 2.1367604895e+000	 2.9282895367e+000	-7.4899793557e-001
 2.1065186065e+000	 2.9501193807e+000	-7.4938532381e-001
 2.0760797590e+000	 2.9716187229e+000	-7.5362693614e-001
 2.0454493191e+000	 2.9927850045e+000	-7.6194735681e-001
 2.0146327007e+000	 3.0136157820e+000	-7.7453747076e-001
 1.9836353560e+000	 3.0341087282e+000	-7.9155464504e-001
 2.3005881613e+000	 2.8336891347e+000	-7.8923798021e-001
 2.2712087851e+000	 2.8572907893e+000	-7.7701553800e-001
 2.2416047755e+000	 2.8805742536e+000	-7.6625141380e-001
 2.2117812866e+000	 2.9035363852e+000	-7.5734157874e-001
 2.1817435293e+000	 2.9261741528e+000	-7.5064871510e-001
 2.1514967687e+000	 2.9484846369e+000	-7.4650188511e-001
 2.1210463210e+000	 2.9704650316e+000	-7.4519630488e-001
 2.0903975504e+000	 2.9921126451e+000	-7.4699322282e-001
 2.0595558661e+000	 3.0134249010e+000	-7.5211990152e-001
 2.0285267193e+000	 3.0343993391e+000	-7.6076970203e-001
 1.9973155998e+000	 3.0550336159e+000	-7.7310226878e-001
 2.3163456145e+000	 2.8530979643e+000	-7.9041949560e-001
 2.2867650096e+000	 2.8768612741e+000	-7.8013799866e-001
 2.2569582329e+000	 2.9003042142e+000	-7.7057435003e-001
 2.2269304735e+000	 2.9234236207e+000	-7.6212836011e-001
 2.1966869781e+000	 2.9462164415e+000	-7.5516631926e-001
 2.1662330480e+000	 2.9686797371e+000	-7.5002066245e-001
 2.1355740356e+000	 2.9908106825e+000	-7.4698974073e-001
 2.1047153419e+000	 3.0126065673e+000	-7.4633769873e-001
 2.0736624132e+000	 3.0340647976e+000	-7.4829445732e-001
 2.0424207379e+000	 3.0551828962e+000	-7.5305580011e-001
 2.0109958437e+000	 3.0759585037e+000	-7.6078356222e-001
 2.3321030677e+000	 2.8725067940e+000	-7.9779396811e-001
 2.3023212342e+000	 2.8964317590e+000	-7.8928485625e-001
 2.2723116903e+000	 2.9200341748e+000	-7.8078078906e-001
 2.2420796604e+000	 2.9433108562e+000	-7.7268556512e-001
 2.2116304270e+000	 2.9662587302e+000	-7.6536919758e-001
 2.1809693272e+000	 2.9888748374e+000	-7.5916757474e-001
 2.1501017501e+000	 3.0111563334e+000	-7.5438222907e-001
 2.1190331333e+000	 3.0331004896e+000	-7.5128021399e-001
 2.0877689602e+000	 3.0547046942e+000	-7.5009408742e-001
 2.0563147565e+000	 3.0759664533e+000	-7.5102200086e-001
 2.0246760875e+000	 3.0968833915e+000	-7.5422789221e-001
 2.3478605208e+000	 2.8919156237e+000	-8.1095756199e-001
 2.3178774588e+000	 2.9160022438e+000	-8.0405565498e-001
 2.2876651476e+000	 2.9397641355e+000	-7.9647362831e-001
 2.2572288473e+000	 2.9631980917e+000	-7.8861941696e-001
 2.2265738758e+000	 2.9863010189e+000	-7.8086687086e-001
 2.1957056065e+000	 3.0090699376e+000	-7.7355541137e-001
 2.1646294646e+000	 3.0315019843e+000	-7.6698979798e-001
 2.1333509248e+000	 3.0535944118e+000	-7.6144000444e-001
 2.1018755072e+000	 3.0753445908e+000	-7.5714120344e-001
 2.0702087752e+000	 3.0967500104e+000	-7.5429385844e-001
 2.0383563313e+000	 3.1178082793e+000	-7.5306392102e-001
 2.3636179740e+000	 2.9113244534e+000	-8.2950629669e-001
 2.3334336833e+000	 2.9355727287e+000	-8.2404970920e-001
 2.3030186050e+000	 2.9594940961e+000	-8.1725545720e-001
 2.2723780342e+000	 2.9830853273e+000	-8.0953575967e-001
 2.2415173246e+000	 3.0063433076e+000	-8.0126841658e-001
 2.2104418857e+000	 3.0292650379e+000	-7.9279646129e-001
 2.1791571792e+000	 3.0518476352e+000	-7.8442792496e-001
 2.1476687162e+000	 3.0740883340e+000	-7.7643571220e-001
 2.1159820543e+000	 3.0959844873e+000	-7.6905758711e-001
 2.0841027938e+000	 3.1175335675e+000	-7.6249626806e-001
 2.0520365752e+000	 3.1387331671e+000	-7.9317953371e-001
 1.9152341368e+000	 2.9294842893e+000	-9.8874124444e-001
 1.8851364706e+000	 2.9489422659e+000	-9.3838222030e-001
 1.8548749386e+000	 2.9680699052e+000	-9.0028278904e-001
 1.8244548993e+000	 2.9868653000e+000	-8.6717123173e-001
 1.7938817362e+000	 3.0053266573e+000	-8.3333377585e-001
 1.7631608551e+000	 3.0234522981e+000	-8.0100926362e-001
 1.7322976814e+000	 3.0412406585e+000	-7.7236117325e-001
 1.7012976567e+000	 3.0586902889e+000	-7.4947376796e-001
 1.6701662359e+000	 3.0757998544e+000	-7.3434848018e-001
 1.6389088846e+000	 3.0925681348e+000	-7.2890053677e-001
 1.6075310757e+000	 3.1089940239e+000	-7.3495583016e-001
 1.9289143807e+000	 2.9504091771e+000	-9.3408745248e-001
 1.8986017311e+000	 2.9700061392e+000	-8.7881864055e-001
 1.8681240453e+000	 2.9892704045e+000	-8.2586942077e-001
 1.8374867200e+000	 3.0082000522e+000	-7.9048195748e-001
 1.8066951771e+000	 3.0267932762e+000	-7.5449089607e-001
 1.7757548612e+000	 3.0450483860e+000	-7.2022588620e-001
 1.7446712363e+000	 3.0629638061e+000	-6.8993917102e-001
 1.7134497828e+000	 3.0805380767e+000	-6.6580161216e-001
 1.6820959948e+000	 3.0977698534e+000	-6.4989895607e-001
 1.6506153766e+000	 3.1146579071e+000	-6.4422834742e-001
 1.6190134405e+000	 3.1312011241e+000	-6.7004692269e-001
 1.9425946245e+000	 2.9713340648e+000	-8.8740903468e-001
 1.9120669916e+000	 2.9910700125e+000	-8.2783401721e-001
 1.8813731520e+000	 3.0104709038e+000	-7.6431979624e-001
 1.8505185407e+000	 3.0295348043e+000	-7.2079522826e-001
 1.8195086181e+000	 3.0482598952e+000	-6.8283201951e-001
 1.7883488673e+000	 3.0666444738e+000	-6.4683577979e-001
 1.7570447912e+000	 3.0846869536e+000	-6.1514844307e-001
 1.7256019089e+000	 3.1023858645e+000	-5.9002834815e-001
 1.6940257536e+000	 3.1197398523e+000	-5.7364638575e-001
 1.6623218687e+000	 3.1367476795e+000	-6.0712852252e-001
 1.6304958054e+000	 3.1534082243e+000	-6.5921399586e-001
 1.9562748683e+000	 2.9922589526e+000	-8.4833926886e-001
 1.9255322521e+000	 3.0121338859e+000	-7.8505406885e-001
 1.8946222587e+000	 3.0316714032e+000	-7.1751079189e-001
 1.8635503614e+000	 3.0508695565e+000	-6.5801694397e-001
 1.8323220591e+000	 3.0697265142e+000	-6.1824448655e-001
 1.8009428734e+000	 3.0882405617e+000	-5.8070785805e-001
 1.7694183460e+000	 3.1064101012e+000	-5.4783962539e-001
 1.7377540350e+000	 3.1242336522e+000	-5.2198649904e-001
 1.7059555124e+000	 3.1417098513e+000	-5.6314960327e-001
 1.6740283607e+000	 3.1588374519e+000	-6.0697330981e-001
 1.6419781702e+000	 3.1756153244e+000	-6.4975362671e-001
 1.9699551122e+000	 3.0131838404e+000	-8.1651059518e-001
 1.9389975126e+000	 3.0331977592e+000	-7.5010395602e-001
 1.9078713654e+000	 3.0528719025e+000	-6.7914074131e-001
 1.8765821821e+000	 3.0722043086e+000	-6.0385066036e-001
 1.8451355001e+000	 3.0911931332e+000	-5.6061594198e-001
 1.8135368796e+000	 3.1098366495e+000	-5.2171163397e-001
 1.7817919009e+000	 3.1281332488e+000	-4.9939662630e-001
 1.7499061612e+000	 3.1460814400e+000	-5.3557784776e-001
 1.7178852712e+000	 3.1636798503e+000	-5.7194272614e-001
 1.6857348527e+000	 3.1809272243e+000	-6.0758791623e-001
 1.6534605350e+000	 3.1978224246e+000	-6.4164429774e-001
 1.9836353560e+000	 3.0341087282e+000	-7.9155464504e-001
 1.9524627731e+000	 3.0542616325e+000	-7.2260830048e-001
 1.9211204721e+000	 3.0740724018e+000	-6.4882734372e-001
 1.8896140028e+000	 3.0935390607e+000	-5.7046327469e-001
 1.8579489410e+000	 3.1126597521e+000	-5.0983432451e-001
 1.8261308857e+000	 3.1314327373e+000	-4.9279470056e-001
 1.7941654558e+000	 3.1498563963e+000	-5.2191631436e-001
 1.7620582873e+000	 3.1679292278e+000	-5.5160251950e-001
 1.7298150301e+000	 3.1856498492e+000	-5.8091798868e-001
 1.6974413448e+000	 3.2030169967e+000	-6.0896135514e-001
 1.6649428998e+000	 3.2200295248e+000	-6.3486654051e-001
 1.9973155998e+000	 3.0550336159e+000	-7.7310226878e-001
 1.9659280336e+000	 3.0753255058e+000	-7.0219120362e-001
 1.9343695788e+000	 3.0952729011e+000	-6.2618804250e-001
 1.9026458236e+000	 3.1148738129e+000	-5.4536569963e-001
 1.8707623820e+000	 3.1341263711e+000	-4.9692620553e-001
 1.8387248918e+000	 3.1530288252e+000	-5.1970998758e-001
 1.8065390106e+000	 3.1715795439e+000	-5.4346939141e-001
 1.7742104134e+000	 3.1897770156e+000	-5.6723577091e-001
 1.7417447889e+000	 3.2076198482e+000	-5.9007408518e-001
 1.7091478368e+000	 3.2251067691e+000	-6.1108432925e-001
 1.6764252647e+000	 3.2422366249e+000	-6.2940286546e-001
 2.0109958437e+000	 3.0759585037e+000	-7.6078356222e-001
 1.9793932941e+000	 3.0963893791e+000	-6.8847626418e-001
 1.9476186855e+000	 3.1164734004e+000	-6.1084003384e-001
 1.9156776443e+000	 3.1362085650e+000	-5.6393952419e-001
 1.8835758230e+000	 3.1555929901e+000	-5.3891664574e-001
 1.8513188979e+000	 3.1746249130e+000	-5.4510315202e-001
 1.8189125655e+000	 3.1933026914e+000	-5.6407073297e-001
 1.7863625395e+000	 3.2116248033e+000	-5.8248516526e-001
 1.7536745477e+000	 3.2295898471e+000	-5.9941106465e-001
 1.7208543288e+000	 3.2471965415e+000	-6.1394917314e-001
 1.6879076295e+000	 3.2644437251e+000	-6.2523769461e-001
 2.0246760875e+000	 3.0968833915e+000	-7.5422789221e-001
 1.9928585546e+000	 3.1174532525e+000	-6.8108659524e-001
 1.9608677923e+000	 3.1376738998e+000	-6.4028516689e-001
 1.9287094650e+000	 3.1575433171e+000	-6.1618445905e-001
 1.8963892639e+000	 3.1770596091e+000	-5.8647419817e-001
 1.8639129040e+000	 3.1962210009e+000	-5.6899669952e-001
 1.8312861203e+000	 3.2150258390e+000	-5.8373599575e-001
 1.7985146656e+000	 3.2334725911e+000	-5.9735930952e-001
 1.7656043065e+000	 3.2515598461e+000	-6.0893028498e-001
 1.7325608209e+000	 3.2692863139e+000	-6.1754979807e-001
 1.6993899943e+000	 3.2866508253e+000	-6.2235729700e-001
 2.0383563313e+000	 3.1178082793e+000	-7.5306392102e-001
 2.0063238151e+000	 3.1385171258e+000	-7.1756976452e-001
 1.9741168990e+000	 3.1588743991e+000	-6.9581263284e-001
 1.9417412857e+000	 3.1788780693e+000	-6.6784673624e-001
 1.9092027049e+000	 3.1985262280e+000	-6.3382805643e-001
 1.8765069101e+000	 3.2178170887e+000	-5.9391931660e-001
 1.8436596752e+000	 3.2367489865e+000	-6.0248159149e-001
 1.8106667917e+000	 3.2553203789e+000	-6.1186781934e-001
 1.7775340654e+000	 3.2735298451e+000	-6.1863436910e-001
 1.7442673129e+000	 3.2913760863e+000	-6.2188163919e-001
 1.7108723591e+000	 3.3088579254e+000	-6.2074972667e-001
 2.0520365752e+000	 3.1387331671e+000	-7.9317953371e-001
 2.0197890756e+000	 3.1595809991e+000	-7.7523261687e-001
 1.9873660057e+000	 3.1800748984e+000	-7.5043958315e-001
 1.9547731064e+000	 3.2002128214e+000	-7.1897389288e-001
 1.9220161459e+000	 3.2199928470e+000	-6.8101648594e-001
 1.8891009162e+000	 3.2394131765e+000	-6.3675539420e-001
 1.8560332301e+000	 3.2584721341e+000	-6.2032466171e-001
 1.8228189179e+000	 3.2771681667e+000	-6.2602128540e-001
 1.7894638242e+000	 3.2954998440e+000	-6.2852716273e-001
 1.7559738049e+000	 3.3134658586e+000	-6.2694160461e-001
 1.7223547240e+000	 3.3310650256e+000	-6.2040476316e-001
 1.6075310757e+000	 3.1089940239e+000	-7.3495583016e-001
 1.5760382868e+000	 3.1250765300e+000	-6.6690103186e-001
 1.5444359972e+000	 3.1408147750e+000	-6.4532614680e-001
 1.5127296849e+000	 3.1562079939e+000	-6.1698315981e-001
 1.4809248240e+000	 3.1712555346e+000	-5.8134100352e-001
 1.4490268819e+000	 3.1859568571e+000	-5.3790638597e-001
 1.4170413162e+000	 3.2003115330e+000	-4.8622430874e-001
 1.3849735723e+000	 3.2143192443e+000	-4.2587849249e-001
 1.3528290804e+000	 3.2279797829e+000	-3.5649171061e-001
 1.3206132534e+000	 3.2412930498e+000	-2.7772603167e-001
 1.2883314835e+000	 3.2542590537e+000	-1.8928297177e-001
 1.6190134405e+000	 3.1312011241e+000	-6.7004692269e-001
 1.5872957031e+000	 3.1473985053e+000	-6.4867323278e-001
 1.5554676828e+000	 3.1632491662e+000	-6.2212731281e-001
 1.5235348969e+000	 3.1787523367e+000	-5.8984768910e-001
 1.4915028585e+000	 3.1939073598e+000	-5.5130961960e-001
 1.4593770739e+000	 3.2087136918e+000	-5.0602571324e-001
 1.4271630399e+000	 3.2231709011e+000	-4.5354645631e-001
 1.3948662406e+000	 3.2372786675e+000	-3.9346064576e-001
 1.3624921453e+000	 3.2510367814e+000	-3.2539573036e-001
 1.3300462052e+000	 3.2644451431e+000	-2.4901806018e-001
 1.2975338512e+000	 3.2775037612e+000	-1.6403304565e-001
 1.6304958054e+000	 3.1534082243e+000	-6.5921399586e-001
 1.5985531195e+000	 3.1697204805e+000	-6.3258905001e-001
 1.5664993685e+000	 3.1856835575e+000	-6.0179287455e-001
 1.5343401089e+000	 3.2012966795e+000	-5.6627024019e-001
 1.5020808929e+000	 3.2165591851e+000	-5.2550224667e-001
 1.4697272659e+000	 3.2314705265e+000	-4.7900695103e-001
 1.4372847636e+000	 3.2460302692e+000	-4.2633990236e-001
 1.4047589090e+000	 3.2602380906e+000	-3.6709458316e-001
 1.3721552102e+000	 3.2740937798e+000	-3.0090275806e-001
 1.3394791570e+000	 3.2875972363e+000	-2.2743473049e-001
 1.3067362190e+000	 3.3007484688e+000	-1.4639950846e-001
 1.6419781702e+000	 3.1756153244e+000	-6.4975362671e-001
 1.6098105358e+000	 3.1920424557e+000	-6.1861235140e-001
 1.5775310542e+000	 3.2081179487e+000	-5.8427446872e-001
 1.5451453210e+000	 3.2238410223e+000	-5.4619048196e-001
 1.5126589274e+000	 3.2392110103e+000	-5.0384685119e-001
 1.4800774579e+000	 3.2542273612e+000	-4.5676663063e-001
 1.4474064873e+000	 3.2688896373e+000	-4.0451001207e-001
 1.4146515774e+000	 3.2831975138e+000	-3.4667477449e-001
 1.3818182750e+000	 3.2971507783e+000	-2.8289664048e-001
 1.3489121088e+000	 3.3107493295e+000	-2.1284954016e-001
 1.3159385867e+000	 3.3239931763e+000	-1.3624578367e-001
 1.6534605350e+000	 3.1978224246e+000	-6.4164429774e-001
 1.6210679521e+000	 3.2143644309e+000	-6.0670952902e-001
 1.5885627399e+000	 3.2305523400e+000	-5.6952664777e-001
 1.5559505330e+000	 3.2463853651e+000	-5.2955138010e-001
 1.5232369618e+000	 3.2618628356e+000	-4.8627506678e-001
 1.4904276499e+000	 3.2769841959e+000	-4.3922531011e-001
 1.4575282109e+000	 3.2917490054e+000	-3.8796652619e-001
 1.4245442458e+000	 3.3061569370e+000	-3.3210040299e-001
 1.3914813399e+000	 3.3202077768e+000	-2.7126626461e-001
 1.3583450606e+000	 3.3339014227e+000	-2.0514134254e-001
 1.3251409544e+000	 3.3472378838e+000	-1.3344095498e-001
 1.6649428998e+000	 3.2200295248e+000	-6.3486654051e-001
 1.6323253685e+000	 3.2366864061e+000	-5.9684941207e-001
 1.5995944256e+000	 3.2529867312e+000	-5.5750677933e-001
 1.5667557450e+000	 3.2689297079e+000	-5.1629908332e-001
 1.5338149963e+000	 3.2845146608e+000	-4.7272206774e-001
 1.5007778420e+000	 3.2997410306e+000	-4.2630743548e-001
 1.4676499346e+000	 3.3146083735e+000	-3.7662341015e-001
 1.4344369141e+000	 3.3291163602e+000	-3.2327520271e-001
 1.4011444047e+000	 3.3432647752e+000	-2.6590538374e-001
 1.3677780124e+000	 3.3570535159e+000	-2.0419416211e-001
 1.3343433222e+000	 3.3704825914e+000	-1.3785957115e-001
 1.6764252647e+000	 3.2422366249e+000	-6.2940286546e-001
 1.6435827848e+000	 3.2590083813e+000	-5.8900318340e-001
 1.6106261113e+000	 3.2754211225e+000	-5.4817494979e-001
 1.5775609571e+000	 3.2914740508e+000	-5.0638281446e-001
 1.5443930308e+000	 3.3071664861e+000	-4.6312644782e-001
 1.5111280340e+000	 3.3224978653e+000	-4.1794120754e-001
 1.4777716583e+000	 3.3374677416e+000	-3.7039870940e-001
 1.4443295825e+000	 3.3520757833e+000	-3.2010730275e-001
 1.4108074696e+000	 3.3663217737e+000	-2.6671245091e-001
 1.3772109643e+000	 3.3802056091e+000	-2.0989701737e-001
 1.3435456899e+000	 3.3937272989e+000	-1.4938145881e-001
 1.6879076295e+000	 3.2644437251e+000	-6.2523769461e-001
 1.6548402011e+000	 3.2813303565e+000	-5.8314429950e-001
 1.6216577970e+000	 3.2978555137e+000	-5.4149387187e-001
 1.5883661691e+000	 3.3140183936e+000	-4.9975476580e-001
 1.5549710652e+000	 3.3298183113e+000	-4.5743010389e-001
 1.5214782260e+000	 3.3452547000e+000	-4.1405845415e-001
 1.4878933820e+000	 3.3603271097e+000	-3.6921441060e-001
 1.4542222509e+000	 3.3750352065e+000	-3.2250907770e-001
 1.4204705345e+000	 3.3893787721e+000	-2.7359045899e-001
 1.3866439161e+000	 3.4033577023e+000	-2.2214375097e-001
 1.3527480577e+000	 3.4169720064e+000	-1.6789154297e-001
 1.6993899943e+000	 3.2866508253e+000	-6.2235729700e-001
 1.6660976175e+000	 3.3036523318e+000	-5.7924841366e-001
 1.6326894827e+000	 3.3202899050e+000	-5.3742879582e-001
 1.5991713811e+000	 3.3365627364e+000	-4.9636999887e-001
 1.5655490997e+000	 3.3524701366e+000	-4.5557812437e-001
 1.5318284180e+000	 3.3680115347e+000	-4.1459450771e-001
 1.4980151057e+000	 3.3831864778e+000	-3.7299630851e-001
 1.4641149192e+000	 3.3979946297e+000	-3.3039700424e-001
 1.4301335993e+000	 3.4124357706e+000	-2.8644678735e-001
 1.3960768679e+000	 3.4265097956e+000	-2.4083286676e-001
 1.3619504254e+000	 3.4402167139e+000	-1.9327967475e-001
 1.7108723591e+000	 3.3088579254e+000	-6.2074972667e-001
 1.6773550338e+000	 3.3259743070e+000	-5.7729330226e-001
 1.6437211684e+000	 3.3427242962e+000	-5.3594742435e-001
 1.6099765932e+000	 3.3591070792e+000	-4.9618634804e-001
 1.5761271341e+000	 3.3751219618e+000	-4.5751868213e-001
 1.5421786100e+000	 3.3907683694e+000	-4.1948808757e-001
 1.5081368294e+000	 3.4060458459e+000	-3.8167387818e-001
 1.4740075876e+000	 3.4209540529e+000	-3.4369152351e-001
 1.4397966642e+000	 3.4354927690e+000	-3.0519305462e-001
 1.4055098197e+000	 3.4496618888e+000	-2.6586737334e-001
 1.3711527931e+000	 3.4634614215e+000	-2.2544046612e-001
 1.7223547240e+000	 3.3310650256e+000	-6.2040476316e-001
 1.6886124501e+000	 3.3482962822e+000	-5.7725879399e-001
 1.6547528541e+000	 3.3651586875e+000	-5.3701983082e-001
 1.6207818052e+000	 3.3816514220e+000	-4.9916432822e-001
 1.5867051686e+000	 3.3977737871e+000	-4.6320293164e-001
 1.5525288020e+000	 3.4135252041e+000	-4.2868118710e-001
 1.5182585531e+000	 3.4289052139e+000	-3.9518015227e-001
 1.4839002560e+000	 3.4439134760e+000	-3.6231690892e-001
 1.4494597290e+000	 3.4585497675e+000	-3.2974497743e-001
 1.4149427715e+000	 3.4728139820e+000	-2.9715463392e-001
 1.3803551609e+000	 3.4867061290e+000	-2.6427313114e-001
 1.2883314835e+000	 3.2542590537e+000	-1.8928297177e-001
 1.2559891402e+000	 3.2668779101e+000	-3.4986800677e-001
 1.2235915677e+000	 3.2791498404e+000	-4.2508249850e-001
 1.1911440823e+000	 3.2910751701e+000	-4.4473498657e-001
 1.1586519699e+000	 3.3026543284e+000	-4.3035147671e-001
 1.1261204840e+000	 3.3138878460e+000	-3.8688452348e-001
 1.0935548431e+000	 3.3247763542e+000	-3.1897771749e-001
 1.0609602284e+000	 3.3353205834e+000	-2.3096976039e-001
 1.0283417820e+000	 3.3455213614e+000	-1.2689911499e-001
 9.9570460419e-001	 3.3553796121e+000	-1.0509200165e-002
 9.6305375194e-001	 3.3648963537e+000	 1.1474590030e-001
 1.2975338512e+000	 3.2775037612e+000	-1.6403304565e-001
 1.2649604912e+000	 3.2902127523e+000	-3.3377801794e-001
 1.2323315075e+000	 3.3025723392e+000	-4.3509524504e-001
 1.1996522543e+000	 3.3145828499e+000	-4.4695016172e-001
 1.1669280554e+000	 3.3262447164e+000	-4.2622407600e-001
 1.1341642017e+000	 3.3375584734e+000	-3.7778823732e-001
 1.1013659491e+000	 3.3485247567e+000	-3.0619883265e-001
 1.0685385158e+000	 3.3591443018e+000	-2.1570133186e-001
 1.0356870804e+000	 3.3694179425e+000	-1.1023541656e-001
 1.0028167799e+000	 3.3793466093e+000	 6.5595387324e-003
 9.6993270731e-001	 3.3889313276e+000	 1.3133846479e-001
 1.3067362190e+000	 3.3007484688e+000	-1.4639950846e-001
 1.2739318422e+000	 3.3135475946e+000	-3.2255279766e-001
 1.2410714472e+000	 3.3259948381e+000	-4.5977625733e-001
 1.2081604263e+000	 3.3380905297e+000	-4.6217391714e-001
 1.1752041409e+000	 3.3498351045e+000	-4.3357880796e-001
 1.1422079195e+000	 3.3612291009e+000	-3.7878063244e-001
 1.1091770551e+000	 3.3722731592e+000	-3.0224775200e-001
 1.0761168031e+000	 3.3829680203e+000	-2.0813180688e-001
 1.0430323789e+000	 3.3933145237e+000	-1.0027292829e-001
 1.0099289557e+000	 3.4033136065e+000	 1.7794489304e-002
 9.7681166268e-001	 3.4129663016e+000	 1.4283548855e-001
 1.3159385867e+000	 3.3239931763e+000	-1.3624578367e-001
 1.2829031932e+000	 3.3368824368e+000	-3.1611338182e-001
 1.2498113870e+000	 3.3494173369e+000	-4.9723595812e-001
 1.2166685983e+000	 3.3615982095e+000	-4.8859976670e-001
 1.1834802264e+000	 3.3734254925e+000	-4.5069328392e-001
 1.1502516372e+000	 3.3848997284e+000	-3.8822437982e-001
 1.1169881611e+000	 3.3960215617e+000	-3.0557312330e-001
 1.0836950905e+000	 3.4067917387e+000	-2.0679668132e-001
 1.0503776773e+000	 3.4172111048e+000	-9.5634818986e-002
 1.0170411314e+000	 3.4272806038e+000	 2.4484032229e-002
 9.8369061805e-001	 3.4370012755e+000	 1.5043617193e-001
 1.3251409544e+000	 3.3472378838e+000	-1.3344095498e-001
 1.2918745442e+000	 3.3602172790e+000	-3.1438488720e-001
 1.2585513268e+000	 3.3728398358e+000	-4.9630707847e-001
 1.2251767703e+000	 3.3851058893e+000	-5.2442218209e-001
 1.1917563119e+000	 3.3970158806e+000	-4.7584453060e-001
 1.1582953550e+000	 3.4085703558e+000	-4.0448003685e-001
 1.1247992672e+000	 3.4197699643e+000	-3.1461996585e-001
 1.0912733778e+000	 3.4306154572e+000	-2.1022632238e-001
 1.0577229757e+000	 3.4411076860e+000	-9.4937643782e-002
 1.0241533072e+000	 3.4512476010e+000	 2.7924631087e-002
 9.9056957342e-001	 3.4610362495e+000	 1.5534925115e-001
 1.3343433222e+000	 3.3704825914e+000	-1.3785957115e-001
 1.3008458952e+000	 3.3835521212e+000	-3.1729637075e-001
 1.2672912665e+000	 3.3962623346e+000	-4.9644345355e-001
 1.2336849423e+000	 3.4086135690e+000	-5.6783655979e-001
 1.2000323974e+000	 3.4206062687e+000	-5.0730901019e-001
 1.1663390727e+000	 3.4322409833e+000	-4.2590612018e-001
 1.1326103732e+000	 3.4435183668e+000	-3.2782979559e-001
 1.0988516651e+000	 3.4544391756e+000	-2.1694614546e-001
 1.0650682742e+000	 3.4650042671e+000	-9.6791572198e-002
 1.0312654829e+000	 3.4752145982e+000	 2.9420553639e-002
 9.9744852879e-001	 3.4850712234e+000	 1.5879266947e-001
 1.3435456899e+000	 3.3937272989e+000	-1.4938145881e-001
 1.3098172462e+000	 3.4068869634e+000	-3.2478069461e-001
 1.2760312063e+000	 3.4196848335e+000	-4.9862920938e-001
 1.2421931143e+000	 3.4321212488e+000	-6.1703918941e-001
 1.2083084829e+000	 3.4441966567e+000	-5.4336263976e-001
 1.1743827904e+000	 3.4559116108e+000	-4.5085917561e-001
 1.1404214792e+000	 3.4672667693e+000	-3.4364074507e-001
 1.1064299525e+000	 3.4782628941e+000	-2.2547678367e-001
 1.0724135726e+000	 3.4889008483e+000	-9.9800606837e-002
 1.0383776586e+000	 3.4991815955e+000	 3.0283604559e-002
 1.0043274842e+000	 3.5091061974e+000	 1.6199326186e-001
 1.3527480577e+000	 3.4169720064e+000	-1.6789154297e-001
 1.3187885972e+000	 3.4302218056e+000	-3.3677439672e-001
 1.2847711461e+000	 3.4431073324e+000	-5.0285199020e-001
 1.2507012864e+000	 3.4556289286e+000	-6.6531608455e-001
 1.2165845684e+000	 3.4677870448e+000	-5.8228080972e-001
 1.1824265082e+000	 3.4795822382e+000	-4.7769384516e-001
 1.1482325852e+000	 3.4910151719e+000	-3.6048767855e-001
 1.1140082398e+000	 3.5020866125e+000	-2.3433425057e-001
 1.0797588711e+000	 3.5127974294e+000	-1.0256279313e-001
 1.0454898344e+000	 3.5231485927e+000	 3.1832869079e-002
 1.0112064395e+000	 3.5331411713e+000	 1.6618645259e-001
 1.3619504254e+000	 3.4402167139e+000	-1.9327967475e-001
 1.3277599482e+000	 3.4535566479e+000	-3.5321756662e-001
 1.2935110859e+000	 3.4665298312e+000	-5.0910162750e-001
 1.2592094584e+000	 3.4791366084e+000	-6.6001698676e-001
 1.2248606539e+000	 3.4913774329e+000	-6.2233840170e-001
 1.1904702259e+000	 3.5032528657e+000	-5.0476293136e-001
 1.1560436912e+000	 3.5147635744e+000	-3.7680230244e-001
 1.1215865272e+000	 3.5259103310e+000	-2.4203009619e-001
 1.0871041695e+000	 3.5366940106e+000	-1.0367042062e-001
 1.0526020101e+000	 3.5471155899e+000	 3.5394467024e-002
 1.0180853949e+000	 3.5571761453e+000	 1.7261596504e-001
 1.3711527931e+000	 3.4634614215e+000	-2.2544046612e-001
 1.3367312992e+000	 3.4768914901e+000	-3.7405372630e-001
 1.3022510256e+000	 3.4899523301e+000	-5.1737006661e-001
 1.2677176304e+000	 3.5026442882e+000	-6.5436879540e-001
 1.2331367394e+000	 3.5149678209e+000	-6.6180980555e-001
 1.1985139437e+000	 3.5269234932e+000	-5.3041745898e-001
 1.1638547973e+000	 3.5385119769e+000	-3.9101327120e-001
 1.1291648145e+000	 3.5497340494e+000	-2.4707155685e-001
 1.0944494679e+000	 3.5605905918e+000	-1.0171021606e-001
 1.0597141859e+000	 3.5710825871e+000	 4.2301316749e-002
 1.0249643503e+000	 3.5812111192e+000	 1.8253354321e-001
 1.3803551609e+000	 3.4867061290e+000	-2.6427313114e-001
 1.3457026502e+000	 3.5002263323e+000	-3.9922971572e-001
 1.3109909654e+000	 3.5133748290e+000	-5.2765129625e-001
 1.2762258024e+000	 3.5261519680e+000	-6.4841215134e-001
 1.2414128249e+000	 3.5385582090e+000	-6.9896893576e-001
 1.2065576614e+000	 3.5505941207e+000	-5.5300673429e-001
 1.1716659033e+000	 3.5622603795e+000	-4.0154628913e-001
 1.1367431019e+000	 3.5735577679e+000	-2.4796169889e-001
 1.1017947664e+000	 3.5844871729e+000	-9.5263528894e-002
 1.0668263616e+000	 3.5950495844e+000	 5.3892908523e-002
 1.0318433056e+000	 3.6052460932e+000	 1.9719868436e-001
 9.6305375194e-001	 3.3648963537e+000	 1.1474590030e-001
 9.3039423656e-001	 3.3740726970e+000	 4.2197138283e-003
 8.9773102186e-001	 3.3829098440e+000	-9.3777391755e-002
 8.6506902227e-001	 3.3914090857e+000	-1.8185635251e-001
 8.3241310102e-001	 3.3995718009e+000	-2.6237384143e-001
 7.9976806841e-001	 3.4073994536e+000	-3.3743993451e-001
 7.6713868010e-001	 3.4148935921e+000	-4.0892609176e-001
 7.3452963556e-001	 3.4220558462e+000	-4.7847342134e-001
 7.0194557643e-001	 3.4288879258e+000	-5.4750119532e-001
 6.6939108513e-001	 3.4353916189e+000	-6.1721558583e-001
 6.3687068343e-001	 3.4415687894e+000	-6.8861859089e-001
 9.6993270731e-001	 3.3889313276e+000	 1.3133846479e-001
 9.3703990968e-001	 3.3981732162e+000	 2.1243642913e-002
 9.0414338630e-001	 3.4070734857e+000	-7.9440662581e-002
 8.7124808671e-001	 3.4156334363e+000	-1.7307313561e-001
 8.3835890888e-001	 3.4238544566e+000	-2.6175435462e-001
 8.0548069746e-001	 3.4317380212e+000	-3.4733490268e-001
 7.7261824210e-001	 3.4392856892e+000	-4.3142379154e-001
 7.3977627581e-001	 3.4464991022e+000	-5.1539716699e-001
 7.0695947340e-001	 3.4533799824e+000	-6.0040726285e-001
 6.7417245002e-001	 3.4599301304e+000	-6.8739157183e-001
 6.4141975974e-001	 3.4661514237e+000	-7.7708220134e-001
 9.7681166268e-001	 3.4129663016e+000	 1.4283548855e-001
 9.4368558279e-001	 3.4222737355e+000	 3.6533180692e-002
 9.1055575074e-001	 3.4312371274e+000	-6.3575473433e-002
 8.7742715115e-001	 3.4398577869e+000	-1.5959676444e-001
 8.4430471674e-001	 3.4481371123e+000	-2.5337489389e-001
 8.1119332652e-001	 3.4560765887e+000	-3.4650053301e-001
 7.7809780410e-001	 3.4636777863e+000	-4.4031969450e-001
 7.4502291606e-001	 3.4709423583e+000	-5.3594288383e-001
 7.1197337037e-001	 3.4778720390e+000	-6.3425449652e-001
 6.7895381492e-001	 3.4844686420e+000	-7.3592242855e-001
 6.4596883605e-001	 3.4907340579e+000	-8.4140786733e-001
 9.8369061805e-001	 3.4370012755e+000	 1.5043617193e-001
 9.5033125591e-001	 3.4463742548e+000	 5.1139956177e-002
 9.1696811518e-001	 3.4554007692e+000	-4.5278991257e-002
 8.8360621559e-001	 3.4640821375e+000	-1.4067434771e-001
 8.5025052460e-001	 3.4724197680e+000	-2.3663357639e-001
 8.1690595558e-001	 3.4804151562e+000	-3.3448693837e-001
 7.8357736610e-001	 3.4880698834e+000	-4.3531681695e-001
 7.5026955631e-001	 3.4953856143e+000	-5.3996731978e-001
 7.1698726735e-001	 3.5023640956e+000	-6.4905412436e-001
 6.8373517981e-001	 3.5090071536e+000	-7.6297453312e-001
 6.5051791236e-001	 3.5153166921e+000	-8.8191770470e-001
 9.9056957342e-001	 3.4610362495e+000	 1.5534925115e-001
 9.5697692902e-001	 3.4704747740e+000	 6.6128173457e-002
 9.2338047962e-001	 3.4795644109e+000	-2.3632769531e-002
 8.8978528004e-001	 3.4883064882e+000	-1.1553434439e-001
 8.5619633247e-001	 3.4967024237e+000	-2.1090683667e-001
 8.2261858464e-001	 3.5047537237e+000	-3.1081952086e-001
 7.8905692810e-001	 3.5124619805e+000	-4.1609044220e-001
 7.5551619657e-001	 3.5198288704e+000	-5.2729647460e-001
 7.2200116432e-001	 3.5268561522e+000	-6.4478361944e-001
 6.8851654471e-001	 3.5335456651e+000	-7.6867751045e-001
 6.5506698867e-001	 3.5398993263e+000	-8.9889409050e-001
 9.9744852879e-001	 3.4850712234e+000	 1.5879266947e-001
 9.6362260214e-001	 3.4945752933e+000	 8.2574178077e-002
 9.2979284406e-001	 3.5037280527e+000	 2.2967133396e-003
 8.9596434448e-001	 3.5125308388e+000	-8.3387206841e-002
 8.6214214033e-001	 3.5209850795e+000	-1.7555017439e-001
 8.2833121370e-001	 3.5290922913e+000	-2.7499982392e-001
 7.9453649010e-001	 3.5368540775e+000	-3.8228907684e-001
 7.6076283682e-001	 3.5442721264e+000	-4.9772666018e-001
 7.2701506130e-001	 3.5513482089e+000	-6.2138786386e-001
 6.9329790960e-001	 3.5580841767e+000	-7.5312550056e-001
 6.5961606499e-001	 3.5644819605e+000	-8.9258103332e-001
 1.0043274842e+000	 3.5091061974e+000	 1.6199326186e-001
 9.7026827526e-001	 3.5186758126e+000	 1.0156604124e-001
 9.3620520850e-001	 3.5278916944e+000	 3.3457537751e-002
 9.0214340892e-001	 3.5367551894e+000	-4.3425997432e-002
 8.6808794820e-001	 3.5452677352e+000	-1.2989887126e-001
 8.3404384276e-001	 3.5534308588e+000	-2.2650634939e-001
 8.0001605210e-001	 3.5612461746e+000	-3.3353536773e-001
 7.6600947708e-001	 3.5687153825e+000	-4.5102551724e-001
 7.3202895827e-001	 3.5758402655e+000	-5.7878026487e-001
 6.9807927450e-001	 3.5826226883e+000	-7.1637837383e-001
 6.6416514130e-001	 3.5890645947e+000	-8.6318548728e-001
 1.0112064395e+000	 3.5331411713e+000	 1.6618645259e-001
 9.7691394838e-001	 3.5427763318e+000	 1.2420316096e-001
 9.4261757294e-001	 3.5520553362e+000	 7.0811847706e-002
 9.0832247337e-001	 3.5609795400e+000	 5.1730199270e-003
 8.7403375606e-001	 3.5695503909e+000	-7.3268678702e-002
 8.3975647182e-001	 3.5777694263e+000	-1.6479534126e-001
 8.0549561411e-001	 3.5856382717e+000	-2.6942698162e-001
 7.7125611733e-001	 3.5931586385e+000	-3.8693299053e-001
 7.3704285525e-001	 3.6003323221e+000	-5.1684382544e-001
 7.0286063939e-001	 3.6071611998e+000	-6.5846289661e-001
 6.6871421761e-001	 3.6136472289e+000	-8.1087861236e-001
 1.0180853949e+000	 3.5571761453e+000	 1.7261596504e-001
 9.8355962149e-001	 3.5668768511e+000	 1.5159587942e-001
 9.4902993738e-001	 3.5762189779e+000	 1.1533537569e-001
 9.1450153782e-001	 3.5852038906e+000	 6.3249812287e-002
 8.7997956393e-001	 3.5938330466e+000	-4.9564776830e-003
 8.4546910088e-001	 3.6021079939e+000	-8.9301537599e-002
 8.1097517611e-001	 3.6100303688e+000	-1.8953744907e-001
 7.7650275759e-001	 3.6176018945e+000	-3.0516226451e-001
 7.4205675223e-001	 3.6248243787e+000	-4.3543217143e-001
 7.0764200429e-001	 3.6316997114e+000	-5.7937384965e-001
 6.7326329392e-001	 3.6382298631e+000	-7.3579698370e-001
 1.0249643503e+000	 3.5812111192e+000	 1.8253354321e-001
 9.9020529461e-001	 3.5909773704e+000	 1.8486511571e-001
 9.5544230183e-001	 3.6003826196e+000	 1.6801698669e-001
 9.2068060226e-001	 3.6094282412e+000	 1.3166003299e-001
 8.8592537179e-001	 3.6181157023e+000	 7.5759088054e-002
 8.5118172995e-001	 3.6264465614e+000	 5.6110774306e-004
 8.1645473811e-001	 3.6344224659e+000	-9.3416974340e-002
 7.8174939785e-001	 3.6420451506e+000	-2.0540066138e-001
 7.4707064920e-001	 3.6493164353e+000	-3.3437053741e-001
 7.1242336919e-001	 3.6562382230e+000	-4.7907510136e-001
 6.7781237024e-001	 3.6628124973e+000	-6.3804375213e-001
 1.0318433056e+000	 3.6052460932e+000	 1.9719868436e-001
 9.9685096773e-001	 3.6150778896e+000	 2.2514201325e-001
 9.6185466627e-001	 3.6245462614e+000	 2.2985824042e-001
 9.2685966671e-001	 3.6336525918e+000	 2.1127449880e-001
 8.9187117966e-001	 3.6423983581e+000	 1.6961700409e-001
 8.5689435901e-001	 3.6507851289e+000	 1.0539873234e-001
 8.2193430012e-001	 3.6588145630e+000	 1.9406786991e-002
 7.8699603810e-001	 3.6664884066e+000	-8.7310503092e-002
 7.5208454618e-001	 3.6738084919e+000	-2.1345671302e-001
 7.1720473409e-001	 3.6807767345e+000	-3.5750063830e-001
 6.8236144655e-001	 3.6873951316e+000	-5.1768975833e-001
 6.3687068343e-001	 3.4415687894e+000	-6.8861859089e-001
 6.0438883109e-001	 3.4474213756e+000	 1.4456834747e-001
 5.7194992458e-001	 3.4529513874e+000	 1.6444104672e-001
 5.3955829594e-001	 3.4581609051e+000	 1.7211706369e-001
 5.0721821157e-001	 3.4630520767e+000	 1.6944574326e-001
 4.7493387121e-001	 3.4676271163e+000	 1.5784354111e-001
 4.4270940692e-001	 3.4718883019e+000	 1.3831683622e-001
 4.1054888215e-001	 3.4758379731e+000	 1.1148478895e-001
 3.7845629087e-001	 3.4794785293e+000	 7.7602184418e-002
 3.4643555681e-001	 3.4828124275e+000	 3.6582203743e-002
 3.1449053264e-001	 3.4858421801e+000	-1.1980932321e-002
 6.4141975974e-001	 3.4661514237e+000	-7.7708220134e-001
 6.0870589417e-001	 3.4720458140e+000	 3.0335206814e-001
 5.7603528119e-001	 3.4776153259e+000	 2.7773447925e-001
 5.4341228377e-001	 3.4828620544e+000	 2.4729871649e-001
 5.1084119880e-001	 3.4877881630e+000	 2.1342545667e-001
 4.7832625601e-001	 3.4923958815e+000	 1.7705745108e-001
 4.4587161697e-001	 3.4966875041e+000	 1.3872321607e-001
 4.1348137416e-001	 3.5006653872e+000	 9.8560755425e-002
 3.8115955010e-001	 3.5043319474e+000	 5.6341253233e-002
 3.4891009650e-001	 3.5076896591e+000	 1.1492677913e-002
 3.1673689358e-001	 3.5107410529e+000	-3.6876758940e-002
 6.4596883605e-001	 3.4907340579e+000	-8.4140786733e-001
 6.1302295724e-001	 3.4966702524e+000	 4.7589821714e-001
 5.8012063779e-001	 3.5022792644e+000	 4.0332183954e-001
 5.4726627160e-001	 3.5075632037e+000	 3.3350323655e-001
 5.1446418603e-001	 3.5125242492e+000	 2.6734962453e-001
 4.8171864080e-001	 3.5171646466e+000	 2.0532508803e-001
 4.4903382702e-001	 3.5214867062e+000	 1.4747516102e-001
 4.1641386618e-001	 3.5254928013e+000	 9.3451426275e-002
 3.8386280932e-001	 3.5291853654e+000	 4.2536070044e-002
 3.5138463619e-001	 3.5325668907e+000	-6.3336686457e-003
 3.1898325453e-001	 3.5356399256e+000	-5.4541211824e-002
 6.5051791236e-001	 3.5153166921e+000	-8.8191770470e-001
 6.1734002033e-001	 3.5212946908e+000	 6.5847509776e-001
 5.8420599440e-001	 3.5269432028e+000	 5.3773065130e-001
 5.5112025943e-001	 3.5322643530e+000	 4.2751899065e-001
 5.1808717325e-001	 3.5372603355e+000	 3.2826893348e-001
 4.8511102560e-001	 3.5419334117e+000	 2.3996078959e-001
 4.5219603707e-001	 3.5462859084e+000	 1.6215184569e-001
 4.1934635820e-001	 3.5503202154e+000	 9.4001854523e-002
 3.8656606854e-001	 3.5540387835e+000	 3.4298463932e-002
 3.5385917588e-001	 3.5574441224e+000	-1.8517476080e-002
 3.2122961548e-001	 3.5605387983e+000	-6.6326787515e-002
 6.5506698867e-001	 3.5398993263e+000	-8.9889409050e-001
 6.2165708341e-001	 3.5459191292e+000	 8.4738675799e-001
 5.8829135100e-001	 3.5516071413e+000	 6.7752019670e-001
 5.5497424726e-001	 3.5569655023e+000	 5.2616212726e-001
 5.2171016048e-001	 3.5619964217e+000	 3.9325788594e-001
 4.8850341040e-001	 3.5667021768e+000	 2.7829875575e-001
 4.5535824712e-001	 3.5710851106e+000	 1.8034836759e-001
 4.2227885021e-001	 3.5751476295e+000	 9.8069092019e-002
 3.8926932776e-001	 3.5788922016e+000	 2.9748355518e-002
 3.5633371558e-001	 3.5823213540e+000	-2.6675182085e-002
 3.2347597643e-001	 3.5854376710e+000	-7.3585649643e-002
 6.5961606499e-001	 3.5644819605e+000	-8.9258103332e-001
 6.2597414649e-001	 3.5705435676e+000	 9.7844752893e-001
 5.9237670761e-001	 3.5762710798e+000	 8.1928042125e-001
 5.5882823509e-001	 3.5816666517e+000	 6.2627561846e-001
 5.2533314771e-001	 3.5867325080e+000	 4.5941397890e-001
 4.9189579519e-001	 3.5914709419e+000	 3.1769236401e-001
 4.5852045717e-001	 3.5958843127e+000	 1.9967519809e-001
 4.2521134223e-001	 3.5999750436e+000	 1.0352177569e-001
 3.9197258699e-001	 3.6037456196e+000	 2.7013477945e-002
 3.5880825527e-001	 3.6071985856e+000	-3.2419166814e-002
 3.2572233738e-001	 3.6103365437e+000	-7.7669640408e-002
 6.6416514130e-001	 3.5890645947e+000	-8.6318548728e-001
 6.3029120957e-001	 3.5951680060e+000	 9.1050153101e-001
 5.9646206422e-001	 3.6009350183e+000	 9.5963088367e-001
 5.6268222292e-001	 3.6063678010e+000	 7.2472834140e-001
 5.2895613494e-001	 3.6114685943e+000	 5.2385691639e-001
 4.9528817999e-001	 3.6162397070e+000	 3.5551351255e-001
 4.6168266723e-001	 3.6206835149e+000	 2.1775765591e-001
 4.2814383425e-001	 3.6248024577e+000	 1.0823973077e-001
 3.9467584621e-001	 3.6285990377e+000	 2.4229109332e-002
 3.6128279496e-001	 3.6320758172e+000	-3.7357891842e-002
 3.2796869832e-001	 3.6352354164e+000	-7.9930291587e-002
 6.6871421761e-001	 3.6136472289e+000	-8.1087861236e-001
 6.3460827265e-001	 3.6197924444e+000	 8.5634339593e-001
 6.0054742082e-001	 3.6255989568e+000	 1.0952197487e+000
 5.6653621075e-001	 3.6310689503e+000	 8.1841419715e-001
 5.3257912217e-001	 3.6362046805e+000	 5.8372785420e-001
 4.9868056479e-001	 3.6410084722e+000	 3.8915199033e-001
 4.6484487728e-001	 3.6454827170e+000	 2.3223540207e-001
 4.3107632627e-001	 3.6496298718e+000	 1.1011359030e-001
 3.9737910543e-001	 3.6534524558e+000	 1.9537816135e-002
 3.6375733466e-001	 3.6569530489e+000	-4.3096033443e-002
 3.3021505927e-001	 3.6601342892e+000	-8.1718835094e-002
 6.7326329392e-001	 3.6382298631e+000	-7.3579698370e-001
 6.3892533573e-001	 3.6444168828e+000	 8.1591252829e-001
 6.0463277743e-001	 3.6502628952e+000	 1.2227228206e+000
 5.7039019858e-001	 3.6557700996e+000	 9.0425126528e-001
 5.3620210939e-001	 3.6609407668e+000	 6.3618867510e-001
 5.0207294958e-001	 3.6657772373e+000	 4.1601487262e-001
 4.6800708733e-001	 3.6702819192e+000	 2.4076195541e-001
 4.3400881828e-001	 3.6744572859e+000	 1.0704442991e-001
 4.0008236465e-001	 3.6783058738e+000	 1.1089206922e-002
 3.6623187435e-001	 3.6818302805e+000	-5.1234610477e-002
 3.3246142022e-001	 3.6850331619e+000	-8.4386213105e-002
 6.7781237024e-001	 3.6628124973e+000	-6.3804375213e-001
 6.4324239882e-001	 3.6690413212e+000	 7.8917839753e-001
 6.0871813404e-001	 3.6749268337e+000	 1.3388426156e+000
 5.7424418641e-001	 3.6804712489e+000	 9.7918099253e-001
 5.3982509662e-001	 3.6856768530e+000	 6.7842129333e-001
 5.0546533438e-001	 3.6905460024e+000	 4.3352594095e-001
 4.7116929738e-001	 3.6950811213e+000	 2.4100422755e-001
 4.3694131030e-001	 3.6992847000e+000	 9.6943417487e-002
 4.0278562387e-001	 3.7031592919e+000	-2.9603039390e-003
 3.6870641404e-001	 3.7067075121e+000	-6.3371107119e-002
 3.3470778117e-001	 3.7099320346e+000	-8.9283087787e-002
 6.8236144655e-001	 3.6873951316e+000	-5.1768975833e-001
 6.4755946190e-001	 3.6936657595e+000	 7.7613953581e-001
 6.1280349065e-001	 3.6995907722e+000	 1.4403074717e+000
 5.7809817425e-001	 3.7051723983e+000	 1.0401674139e+000
 5.4344808385e-001	 3.7104129393e+000	 7.0762698690e-001
 5.0885771918e-001	 3.7153147675e+000	 4.3912512626e-001
 4.7433150743e-001	 3.7198803235e+000	 2.3064207642e-001
 4.3987380232e-001	 3.7241121140e+000	 7.7731476714e-002
 4.0548888310e-001	 3.7280127100e+000	-2.4447723140e-002
 3.7118095373e-001	 3.7315847437e+000	-8.1099590684e-002
 3.3695414212e-001	 3.7348309073e+000	-9.7759850631e-002
 3.1449053264e-001	 3.4858421801e+000	-1.1980932321e-002
 2.8262499937e-001	 3.4885703533e+000	-9.4130908826e-003
 2.5084266574e-001	 3.4909995642e+000	-6.5031743445e-003
 2.1914716763e-001	 3.4931324794e+000	-4.0797988325e-003
 1.8754206761e-001	 3.4949718129e+000	-3.2188895269e-003
 1.5603085452e-001	 3.4965203235e+000	-5.2223983973e-003
 1.2461694309e-001	 3.4977808132e+000	-1.1597406923e-002
 9.3303673673e-002	 3.4987561253e+000	-2.4035650964e-002
 6.2094311944e-002	 3.4994491419e+000	-4.4393502240e-002
 3.0992048758e-002	 3.4998627820e+000	-7.4672438124e-002
 0.0000000000e+000	 3.5000000000e+000	-1.1700002881e-001
 3.1673689358e-001	 3.5107410529e+000	-3.6876758940e-002
 2.8464374937e-001	 3.5134887129e+000	-1.8688356363e-002
 2.5263439907e-001	 3.5159352753e+000	 3.0753744687e-005
 2.2071250454e-001	 3.5180834257e+000	 1.7890929526e-002
 1.8888165380e-001	 3.5199358973e+000	 3.3261421434e-002
 1.5714536062e-001	 3.5214954686e+000	 4.4292344725e-002
 1.2550706412e-001	 3.5227649619e+000	 4.8936239184e-002
 9.3970128485e-002	 3.5237472405e+000	 4.4969178353e-002
 6.2537842743e-002	 3.5244452072e+000	 3.0011393356e-002
 3.1213420535e-002	 3.5248618019e+000	 1.5473792085e-003
 0.0000000000e+000	 3.5250000000e+000	-4.3054545737e-002
 3.1898325453e-001	 3.5356399256e+000	-5.4541211824e-002
 2.8666249936e-001	 3.5384070726e+000	-2.3733491616e-002
 2.5442613239e-001	 3.5408709865e+000	 7.9925376639e-003
 2.2227784145e-001	 3.5430343720e+000	 3.8681025568e-002
 1.9022124000e-001	 3.5448999816e+000	 6.6141115997e-002
 1.5825986672e-001	 3.5464706138e+000	 8.7969621328e-002
 1.2639718514e-001	 3.5477491106e+000	 1.0157325575e-001
 9.4636583296e-002	 3.5487383557e+000	 1.0419038955e-001
 6.2981373542e-002	 3.5494412725e+000	 9.2912288873e-002
 3.1434792311e-002	 3.5498608218e+000	 6.4703808610e-002
 0.0000000000e+000	 3.5500000000e+000	 1.6423508549e-002
 3.2122961548e-001	 3.5605387983e+000	-6.6326787515e-002
 2.8868124936e-001	 3.5633254323e+000	-2.5566828933e-002
 2.5621786572e-001	 3.5658066977e+000	 1.6697298718e-002
 2.2384317836e-001	 3.5679853183e+000	 5.7938200936e-002
 1.9156082620e-001	 3.5698640660e+000	 9.5399482616e-002
 1.5937437283e-001	 3.5714457590e+000	 1.2611913531e-001
 1.2728730616e-001	 3.5727332592e+000	 1.4695245546e-001
 9.5303038108e-002	 3.5737294709e+000	 1.5459445474e-001
 6.3424904341e-002	 3.5744373378e+000	 1.4560172662e-001
 3.1656164088e-002	 3.5748598416e+000	 1.1641373619e-001
 0.0000000000e+000	 3.5750000000e+000	 6.3373503354e-002
 3.2347597643e-001	 3.5854376710e+000	-7.3585649643e-002
 2.9069999936e-001	 3.5882437919e+000	-2.5212037152e-002
 2.5800959905e-001	 3.5907424089e+000	 2.5449203359e-002
 2.2540851527e-001	 3.5929362646e+000	 7.5293646936e-002
 1.9290041239e-001	 3.5948281504e+000	 1.2099377835e-001
 1.6048887893e-001	 3.5964209041e+000	 1.5902310410e-001
 1.2817742718e-001	 3.5977174079e+000	 1.8567976692e-001
 9.5969492919e-002	 3.5987205860e+000	 1.9710962336e-001
 6.3868435141e-002	 3.5994334031e+000	 1.8932874789e-001
 3.1877535864e-002	 3.5998588615e+000	 1.5824533040e-001
 0.0000000000e+000	 3.6000000000e+000	 9.9680936614e-002
 3.2572233738e-001	 3.6103365437e+000	-7.7669640408e-002
 2.9271874935e-001	 3.6131621516e+000	-2.3697937637e-002
 2.5980133237e-001	 3.6156781200e+000	 3.3541840941e-002
 2.2697385218e-001	 3.6178872109e+000	 9.0362604203e-002
 1.9423999859e-001	 3.6197922348e+000	 1.4285998856e-001
 1.6160338503e-001	 3.6213960493e+000	 1.8693720647e-001
 1.2906754820e-001	 3.6227015566e+000	 2.1832936867e-001
 9.6635947731e-002	 3.6237117012e+000	 2.3262724018e-001
 6.4311965940e-002	 3.6244294683e+000	 2.2530039302e-001
 3.2098907641e-002	 3.6248578814e+000	 1.9171972195e-001
 0.0000000000e+000	 3.6250000000e+000	 1.2717929252e-001
 3.2796869832e-001	 3.6352354164e+000	-7.9930291587e-002
 2.9473749935e-001	 3.6380805113e+000	-2.2058327825e-002
 2.6159306570e-001	 3.6406138312e+000	 4.0258585951e-002
 2.2853918909e-001	 3.6428381571e+000	 1.0274490895e-001
 1.9557958479e-001	 3.6447563192e+000	 1.6091355542e-001
 1.6271789114e-001	 3.6463711945e+000	 2.1009149142e-001
 1.2995766922e-001	 3.6476857052e+000	 2.4544477645e-001
 9.7302402542e-002	 3.6487028164e+000	 2.6200300918e-001
 6.4755496739e-002	 3.6494255336e+000	 2.5468313978e-001
 3.2320279418e-002	 3.6498569012e+000	 2.1831261470e-001
 0.0000000000e+000	 3.6500000000e+000	 1.4765182284e-001
 3.3021505927e-001	 3.6601342892e+000	-8.1718835094e-002
 2.9675624934e-001	 3.6629988709e+000	-2.1331811970e-002
 2.6338479903e-001	 3.6655495424e+000	 4.4872945450e-002
 2.3010452601e-001	 3.6677891034e+000	 1.1202551695e-001
 1.9691917098e-001	 3.6697204035e+000	 1.7505007662e-001
 1.6383239724e-001	 3.6713463396e+000	 2.2869124988e-001
 1.3084779024e-001	 3.6726698539e+000	 2.6753988617e-001
 9.7968857353e-002	 3.6736939316e+000	 2.8605820578e-001
 6.5199027538e-002	 3.6744215989e+000	 2.7860428301e-001
 3.2541651194e-002	 3.6748559211e+000	 2.3945583077e-001
 0.0000000000e+000	 3.6750000000e+000	 1.6283325545e-001
 3.3246142022e-001	 3.6850331619e+000	-8.4386213105e-002
 2.9877499934e-001	 3.6879172306e+000	-2.2561638750e-002
 2.6517653235e-001	 3.6904852536e+000	 4.6648892434e-002
 2.3166986292e-001	 3.6927400497e+000	 1.1777500622e-001
 1.9825875718e-001	 3.6946844879e+000	 1.8514597582e-001
 1.6494690334e-001	 3.6963214848e+000	 2.4291785120e-001
 1.3173791127e-001	 3.6976540026e+000	 2.8509997460e-001
 9.8635312165e-002	 3.6986850468e+000	 3.0558084003e-001
 6.5642558337e-002	 3.6994176642e+000	 2.9815325841e-001
 3.2763022971e-002	 3.6998549410e+000	 2.5653879306e-001
 0.0000000000e+000	 3.7000000000e+000	 1.7441143373e-001
 3.3470778117e-001	 3.7099320346e+000	-8.9283087787e-002
 3.0079374934e-001	 3.7128355903e+000	-2.6795545413e-002
 2.6696826568e-001	 3.7154209647e+000	 4.4841185769e-002
 2.3323519983e-001	 3.7176909960e+000	 1.1955005952e-001
 1.9959834338e-001	 3.7196485723e+000	 1.9105914607e-001
 1.6606140945e-001	 3.7212966300e+000	 2.5292954585e-001
 1.3262803229e-001	 3.7226381512e+000	 2.9858265972e-001
 9.9301766976e-002	 3.7236761619e+000	 3.2132677282e-001
 6.6086089136e-002	 3.7244137295e+000	 3.1438291299e-001
 3.2984394747e-002	 3.7248539609e+000	 2.7090994803e-001
 0.0000000000e+000	 3.7250000000e+000	 1.8402888979e-001
 3.3695414212e-001	 3.7348309073e+000	-9.7759850631e-002
 3.0281249933e-001	 3.7377539499e+000	-3.5085608162e-002
 2.6875999901e-001	 3.7403566759e+000	 3.8695677329e-002
 2.3480053674e-001	 3.7426419423e+000	 1.1689392754e-001
 2.0093792957e-001	 3.7446126567e+000	 1.9262956749e-001
 1.6717591555e-001	 3.7462717751e+000	 2.5886223603e-001
 1.3351815331e-001	 3.7476222999e+000	 3.0841882269e-001
 9.9968221788e-002	 3.7486672771e+000	 3.3402078762e-001
 6.6529619936e-002	 3.7494097948e+000	 3.2831072463e-001
 3.3205766524e-002	 3.7498529807e+000	 2.8387813155e-001
 0.0000000000e+000	 3.7500000000e+000	 1.9328435492e-001
 3.7500000000e+000	 0.0000000000e+000	 1.1253587583e+000
 3.7498529807e+000	 3.3205766524e-002	 9.9537781834e-001
 3.7494097948e+000	 6.6529619936e-002	 8.8773684684e-001
 3.7486672771e+000	 9.9968221788e-002	 8.0090860262e-001
 3.7476222999e+000	 1.3351815331e-001	 7.3311682670e-001
 3.7462717751e+000	 1.6717591555e-001	 6.8234153752e-001
 3.7446126567e+000	 2.0093792957e-001	 6.4632518765e-001
 3.7426419423e+000	 2.3480053674e-001	 6.2257969621e-001
 3.7403566759e+000	 2.6875999901e-001	 6.0839436922e-001
 3.7377539499e+000	 3.0281249933e-001	 6.0084471797e-001
 3.7348309073e+000	 3.3695414212e-001	 5.9680218317e-001
 3.7750000000e+000	 0.0000000000e+000	 1.0462589726e+000
 3.7748520006e+000	 3.3427138301e-002	 9.3572480823e-001
 3.7744058601e+000	 6.6973150735e-002	 8.7623523768e-001
 3.7736583923e+000	 1.0063467660e-001	 8.5994462159e-001
 3.7726064486e+000	 1.3440827433e-001	 8.7910992474e-001
 3.7712469203e+000	 1.6829042165e-001	 9.2609707194e-001
 3.7695767410e+000	 2.0227751577e-001	 9.9338698891e-001
 3.7675928885e+000	 2.3636587365e-001	 1.0735813057e+000
 3.7652923871e+000	 2.7055173233e-001	 1.1594077004e+000
 3.7626723096e+000	 3.0483124933e-001	 1.2437248619e+000
 3.7597297800e+000	 3.3920050307e-001	 1.3195270504e+000
 3.8000000000e+000	 0.0000000000e+000	 9.6394176470e-001
 3.7998510205e+000	 3.3648510077e-002	 8.5778716537e-001
 3.7994019254e+000	 6.7416681534e-002	 7.9987576026e-001
 3.7986495075e+000	 1.0130113141e-001	 7.8248252321e-001
 3.7975905972e+000	 1.3529839535e-001	 7.9799442071e-001
 3.7962220655e+000	 1.6940492775e-001	 8.3891678586e-001
 3.7945408254e+000	 2.0361710197e-001	 8.9787935964e-001
 3.7925438348e+000	 2.3793121056e-001	 9.6764197638e-001
 3.7902280982e+000	 2.7234346566e-001	 1.0410998708e+000
 3.7875906693e+000	 3.0684999932e-001	 1.1112885847e+000
 3.7846286527e+000	 3.4144686401e-001	 1.1713884513e+000
 3.8250000000e+000	 0.0000000000e+000	 8.7918553703e-001
 3.8248500403e+000	 3.3869881854e-002	 7.8014285168e-001
 3.8243979907e+000	 6.7860212333e-002	 7.2643503991e-001
 3.8236406227e+000	 1.0196758622e-001	 7.1045781269e-001
 3.8225747459e+000	 1.3618851637e-001	 7.2472840352e-001
 3.8211972106e+000	 1.7051943386e-001	 7.6189196217e-001
 3.8195049098e+000	 2.0495668816e-001	 8.1472759780e-001
 3.8174947811e+000	 2.3949654747e-001	 8.7615404786e-001
 3.8151638094e+000	 2.7413519899e-001	 9.3923494940e-001
 3.8125090289e+000	 3.0886874932e-001	 9.9718369038e-001
 3.8095275254e+000	 3.4369322496e-001	 1.0433678187e+000
 3.8500000000e+000	 0.0000000000e+000	 7.9274847374e-001
 3.8498490602e+000	 3.4091253630e-002	 7.0341983767e-001
 3.8493940560e+000	 6.8303743132e-002	 6.5640967874e-001
 3.8486317379e+000	 1.0263404103e-001	 6.4423462089e-001
 3.8475588946e+000	 1.3707863739e-001	 6.5954248387e-001
 3.8461723558e+000	 1.7163393996e-001	 6.9511869843e-001
 3.8444689942e+000	 2.0629627436e-001	 7.4389235283e-001
 3.8424457274e+000	 2.4106188438e-001	 7.9894184629e-001
 3.8400995206e+000	 2.7592693231e-001	 8.5350012577e-001
 3.8374273886e+000	 3.1088749931e-001	 9.0095948262e-001
 3.8344263981e+000	 3.4593958591e-001	 9.3487588675e-001
 3.8750000000e+000	 0.0000000000e+000	 7.0536919295e-001
 3.8748480801e+000	 3.4312625407e-002	 6.2822833328e-001
 3.8743901213e+000	 6.8747273931e-002	 5.9028032278e-001
 3.8736228530e+000	 1.0330049584e-001	 5.8416292544e-001
 3.8725430432e+000	 1.3796875842e-001	 6.0265491976e-001
 3.8711475010e+000	 1.7274844606e-001	 6.3868253703e-001
 3.8694330785e+000	 2.0763586056e-001	 6.8532551266e-001
 3.8673966737e+000	 2.4262722129e-001	 7.3582272558e-001
 3.8650352318e+000	 2.7771866564e-001	 7.8357740132e-001
 3.8623457483e+000	 3.1290624931e-001	 8.2216185488e-001
 3.8593252709e+000	 3.4818594685e-001	 8.4532175041e-001
 3.9000000000e+000	 0.0000000000e+000	 6.1776737383e-001
 3.8998471000e+000	 3.4533997183e-002	 5.5516135709e-001
 3.8993861866e+000	 6.9190804730e-002	 5.2851217334e-001
 3.8986139682e+000	 1.0396695066e-001	 5.3057900437e-001
 3.8975271919e+000	 1.3885887944e-001	 5.5427201244e-001
 3.8961226461e+000	 1.7386295217e-001	 5.9265880345e-001
 3.8943971629e+000	 2.0897544675e-001	 6.3897048460e-001
 3.8923476199e+000	 2.4419255820e-001	 6.8660729089e-001
 3.8899709429e+000	 2.7951039896e-001	 7.2914375552e-001
 3.8872641079e+000	 3.1492499930e-001	 7.6033339971e-001
 3.8842241436e+000	 3.5043230780e-001	 7.7411291839e-001
 3.9250000000e+000	 0.0000000000e+000	 5.3064435979e-001
 3.9248461198e+000	 3.4755368960e-002	 4.8479528382e-001
 3.9243822519e+000	 6.9634335529e-002	 4.7155547896e-001
 3.9236050834e+000	 1.0463340547e-001	 4.8380587242e-001
 3.9225113406e+000	 1.3974900046e-001	 5.1458848716e-001
 3.9210977913e+000	 1.7497745827e-001	 5.5711293169e-001
 3.9193612473e+000	 2.1031503295e-001	 6.0476246542e-001
 3.9172985662e+000	 2.4575789511e-001	 6.5109961356e-001
 3.9149066541e+000	 2.8130213229e-001	 6.8987130582e-001
 3.9121824676e+000	 3.1694374929e-001	 7.1501351386e-001
 3.9091230163e+000	 3.5267866874e-001	 7.2065536348e-001
 3.9500000000e+000	 0.0000000000e+000	 4.4468373873e-001
 3.9498451397e+000	 3.4976740737e-002	 4.1769037103e-001
 3.9493783172e+000	 7.0077866328e-002	 4.1984600852e-001
 3.9485961986e+000	 1.0529986028e-001	 4.4415370072e-001
 3.9474954892e+000	 1.4063912148e-001	 4.8378785954e-001
 3.9460729365e+000	 1.7609196437e-001	 5.3210077726e-001
 3.9443253317e+000	 2.1165461914e-001	 5.8262870113e-001
 3.9422495125e+000	 2.4732323202e-001	 6.2909743787e-001
 3.9398423653e+000	 2.8309386561e-001	 6.6542746153e-001
 3.9371008273e+000	 3.1896249929e-001	 6.8573849945e-001
 3.9340218890e+000	 3.5492502969e-001	 6.8435357116e-001
 3.9750000000e+000	 0.0000000000e+000	 3.6055190134e-001
 3.9748441596e+000	 3.5198112513e-002	 3.5439126598e-001
 3.9743743825e+000	 7.0521397127e-002	 3.7380550662e-001
 3.9735873138e+000	 1.0596631509e-001	 4.1192022074e-001
 3.9724796379e+000	 1.4152924250e-001	 4.6204278805e-001
 3.9710480817e+000	 1.7720647047e-001	 5.1766891840e-001
 3.9692894161e+000	 2.1299420534e-001	 5.7248873707e-001
 3.9672004588e+000	 2.4888856893e-001	 6.2039237999e-001
 3.9647780764e+000	 2.8488559894e-001	 6.5547507190e-001
 3.9620191869e+000	 3.2098124928e-001	 6.7204166123e-001
 3.9589207617e+000	 3.5717139063e-001	 6.6461058641e-001
 4.0000000000e+000	 0.0000000000e+000	 2.7889857856e-001
 3.9998431794e+000	 3.5419484290e-002	 2.9542749341e-001
 3.9993704478e+000	 7.0964927926e-002	 3.3384213184e-001
 3.9985784289e+000	 1.0663276990e-001	 3.8739111298e-001
 3.9974637866e+000	 1.4241936352e-001	 4.4951541330e-001
 3.9960232268e+000	 1.7832097657e-001	 5.1385494599e-001
 3.9942535004e+000	 2.1433379153e-001	 5.7425465848e-001
 3.9921514051e+000	 2.5045390584e-001	 6.2477011952e-001
 3.9897137876e+000	 2.8667733226e-001	 6.5967256857e-001
 3.9869375466e+000	 3.2299999927e-001	 6.7345340032e-001
 3.9838196344e+000	 3.5941775158e-001	 6.6082805869e-001
 3.7348309073e+000	 3.3695414212e-001	 5.9680218317e-001
 3.7315847437e+000	 3.7118095373e-001	 5.7960350779e-001
 3.7280127100e+000	 4.0548888310e-001	 5.4704811429e-001
 3.7241121140e+000	 4.3987380232e-001	 4.9566893395e-001
 3.7198803235e+000	 4.7433150743e-001	 4.2185714184e-001
 3.7153147675e+000	 5.0885771918e-001	 3.2187653880e-001
 3.7104129393e+000	 5.4344808385e-001	 1.9187881643e-001
 3.7051723983e+000	 5.7809817425e-001	 2.7919693436e-002
 3.6995907722e+000	 6.1280349065e-001	-1.7402409177e-001
 3.6936657595e+000	 6.4755946190e-001	 3.2157211596e-001
 3.6873951316e+000	 6.8236144655e-001	 1.2001106924e+000
 3.7597297800e+000	 3.3920050307e-001	 1.3195270504e+000
 3.7564619753e+000	 3.7365549343e-001	 1.3762491069e+000
 3.7528661280e+000	 4.0819214232e-001	 1.4026088549e+000
 3.7489395281e+000	 4.4280629434e-001	 1.3480372160e+000
 3.7446795256e+000	 4.7749371748e-001	 1.1439206969e+000
 3.7400835326e+000	 5.1225010397e-001	 9.2096078819e-001
 3.7351490256e+000	 5.4707107108e-001	 6.7522775839e-001
 3.7298735476e+000	 5.8195216208e-001	 4.0268786487e-001
 3.7242547107e+000	 6.1688884725e-001	 9.9220586867e-002
 3.7182901979e+000	 6.5187652498e-001	 5.7842427549e-001
 3.7119777658e+000	 6.8691052287e-001	 1.3000497221e+000
 3.7846286527e+000	 3.4144686401e-001	 1.1713884513e+000
 3.7813392070e+000	 3.7613003312e-001	 1.2199491289e+000
 3.7777195461e+000	 4.1089540154e-001	 1.2407005099e+000
 3.7737669422e+000	 4.4573878635e-001	 1.2275002364e+000
 3.7694787278e+000	 4.8065592754e-001	 1.1743722267e+000
 3.7648522977e+000	 5.1564248877e-001	 1.0755087147e+000
 3.7598851118e+000	 5.5069405831e-001	 9.2527174808e-001
 3.7545746969e+000	 5.8580614991e-001	 7.1819412779e-001
 3.7489186492e+000	 6.2097420386e-001	 4.2814831489e-001
 3.7429146363e+000	 6.5619358806e-001	 8.7218812111e-001
 3.7365604000e+000	 6.9145959918e-001	 1.4370011275e+000
 3.8095275254e+000	 3.4369322496e-001	 1.0433678187e+000
 3.8062164386e+000	 3.7860457281e-001	 1.0847447534e+000
 3.8025729642e+000	 4.1359866076e-001	 1.1007154639e+000
 3.7985943563e+000	 4.4867127837e-001	 1.0853591127e+000
 3.7942779299e+000	 4.8381813759e-001	 1.0329269712e+000
 3.7896210628e+000	 5.1903487357e-001	 9.3784420648e-001
 3.7846211981e+000	 5.5431704553e-001	 7.9471110526e-001
 3.7792758462e+000	 5.8966013774e-001	 5.9830371988e-001
 3.7735825876e+000	 6.2505956047e-001	 3.4503853866e-001
 3.7675390747e+000	 6.6051065114e-001	 9.1958791665e-001
 3.7611430342e+000	 6.9600867549e-001	 1.4710716393e+000
 3.8344263981e+000	 3.4593958591e-001	 9.3487588675e-001
 3.8310936702e+000	 3.8107911250e-001	 9.6992132766e-001
 3.8274263822e+000	 4.1630191998e-001	 9.8181411994e-001
 3.8234217704e+000	 4.5160377038e-001	 9.6485641169e-001
 3.8190771321e+000	 4.8698034763e-001	 9.1352846730e-001
 3.8143898280e+000	 5.2242725836e-001	 8.2249020124e-001
 3.8093572843e+000	 5.5794003276e-001	 6.8658212770e-001
 3.8039769955e+000	 5.9351412557e-001	 5.0082571162e-001
 3.7982465261e+000	 6.2914491707e-001	 3.5171880133e-001
 3.7921635131e+000	 6.6482771422e-001	 8.6124203624e-001
 3.7857256684e+000	 7.0055775180e-001	 1.3520842355e+000
 3.8593252709e+000	 3.4818594685e-001	 8.4532175041e-001
 3.8559709018e+000	 3.8355365219e-001	 8.7476396771e-001
 3.8522798003e+000	 4.1900517920e-001	 8.8315802391e-001
 3.8482491845e+000	 4.5453626240e-001	 8.6503059205e-001
 3.8438763342e+000	 4.9014255768e-001	 8.1509264512e-001
 3.8391585931e+000	 5.2581964315e-001	 7.2824073619e-001
 3.8340933706e+000	 5.6156301998e-001	 5.9955767328e-001
 3.8286781449e+000	 5.9736811339e-001	 4.2431257437e-001
 3.8229104646e+000	 6.3323027367e-001	 3.5916417477e-001
 3.8167879515e+000	 6.6914477730e-001	 8.0655728519e-001
 3.8103083026e+000	 7.0510682811e-001	 1.2395072304e+000
 3.8842241436e+000	 3.5043230780e-001	 7.7411291839e-001
 3.8808481335e+000	 3.8602819188e-001	 7.9855756569e-001
 3.8771332183e+000	 4.2170843842e-001	 8.0390982744e-001
 3.8730765986e+000	 4.5746875441e-001	 7.8492251450e-001
 3.8686755364e+000	 4.9330476773e-001	 7.3653909872e-001
 3.8639273582e+000	 5.2921202794e-001	 6.5389473902e-001
 3.8588294569e+000	 5.6518600721e-001	 5.3231668081e-001
 3.8533792942e+000	 6.0122210122e-001	 3.6732401390e-001
 3.8475744031e+000	 6.3731563028e-001	 3.6735051862e-001
 3.8414123899e+000	 6.7346184038e-001	 7.5547845872e-001
 3.8348909368e+000	 7.0965590442e-001	 1.1332550892e+000
 3.9091230163e+000	 3.5267866874e-001	 7.2065536348e-001
 3.9057253651e+000	 3.8850273157e-001	 7.4058679699e-001
 3.9019866364e+000	 4.2441169764e-001	 7.4323325292e-001
 3.8979040127e+000	 4.6040124642e-001	 7.2357536544e-001
 3.8934747386e+000	 4.9646697778e-001	 6.7679096943e-001
 3.8886961233e+000	 5.3260441274e-001	 5.9825587214e-001
 3.8835655431e+000	 5.6880899443e-001	 4.8354397633e-001
 3.8780804435e+000	 6.0507608904e-001	 3.2842674004e-001
 3.8722383416e+000	 6.4140098688e-001	 3.7626177677e-001
 3.8660368283e+000	 6.7777890346e-001	 7.0795947922e-001
 3.8594735710e+000	 7.1420498073e-001	 1.0332524089e+000
 3.9340218890e+000	 3.5492502969e-001	 6.8435357116e-001
 3.9306025967e+000	 3.9097727126e-001	 7.0013612711e-001
 3.9268400545e+000	 4.2711495685e-001	 7.0029305955e-001
 3.9227314268e+000	 4.6333373843e-001	 6.8003458329e-001
 3.9182739407e+000	 4.9962918782e-001	 6.3477483358e-001
 3.9134648884e+000	 5.3599679753e-001	 5.6013238287e-001
 3.9083016294e+000	 5.7243198165e-001	 4.5193008686e-001
 3.9027815928e+000	 6.0893007687e-001	 3.0619424502e-001
 3.8969022800e+000	 6.4548634348e-001	 3.8588972157e-001
 3.8906612667e+000	 6.8209596653e-001	 6.6396310751e-001
 3.8840562052e+000	 7.1875405704e-001	 9.3943359819e-001
 3.9589207617e+000	 3.5717139063e-001	 6.6461058641e-001
 3.9554798283e+000	 3.9345181095e-001	 6.7648981824e-001
 3.9516934725e+000	 4.2981821607e-001	 6.7425501075e-001
 3.9475588409e+000	 4.6626623045e-001	 6.5334778773e-001
 3.9430731429e+000	 5.0279139787e-001	 6.0942059451e-001
 3.9382336535e+000	 5.3938918232e-001	 5.3833695925e-001
 3.9330377156e+000	 5.7605496887e-001	 4.3617106109e-001
 3.9274827422e+000	 6.1278406469e-001	 2.9920659015e-001
 3.9215662185e+000	 6.4957170008e-001	 3.9623370767e-001
 3.9152857051e+000	 6.8641302961e-001	 6.2346066485e-001
 3.9086388394e+000	 7.2330313334e-001	 8.5174256855e-001
 3.9838196344e+000	 3.5941775158e-001	 6.6082805869e-001
 3.9803570600e+000	 3.9592635063e-001	 6.6893193566e-001
 3.9765468906e+000	 4.3252147529e-001	 6.6428584278e-001
 3.9723862550e+000	 4.6919872246e-001	 6.4256471150e-001
 3.9678723450e+000	 5.0595360791e-001	 5.9966137857e-001
 3.9630024187e+000	 5.4278156711e-001	 5.3168659127e-001
 3.9577738019e+000	 5.7967795609e-001	 4.3496829683e-001
 3.9521838915e+000	 6.1663805252e-001	 3.0605020059e-001
 3.9462301570e+000	 6.5365705668e-001	 4.0730043503e-001
 3.9399101435e+000	 6.9073009268e-001	 5.8643176542e-001
 3.9332214737e+000	 7.2785220965e-001	 7.7013243745e-001
 3.6873951316e+000	 6.8236144655e-001	 1.2001106924e+000
 3.6807767345e+000	 7.1720473409e-001	 1.0796097095e+000
 3.6738084919e+000	 7.5208454618e-001	 9.6637664735e-001
 3.6664884066e+000	 7.8699603810e-001	 8.6151988103e-001
 3.6588145630e+000	 8.2193430012e-001	 7.6585579329e-001
 3.6507851289e+000	 8.5689435901e-001	 6.7989845447e-001
 3.6423983581e+000	 8.9187117966e-001	 6.0384972798e-001
 3.6336525918e+000	 9.2685966671e-001	 5.3758983909e-001
 3.6245462614e+000	 9.6185466627e-001	 4.8066844440e-001
 3.6150778896e+000	 9.9685096773e-001	 4.3229623905e-001
 3.6052460932e+000	 1.0318433056e+000	 3.9133713830e-001
 3.7119777658e+000	 6.8691052287e-001	 1.3000497221e+000
 3.7053152461e+000	 7.2198609898e-001	 1.1275063193e+000
 3.6983005485e+000	 7.5709844316e-001	 9.7078789469e-001
 3.6909316627e+000	 7.9224267836e-001	 8.3100670098e-001
 3.6832066601e+000	 8.2741386212e-001	 7.0897005016e-001
 3.6751236964e+000	 8.6260698807e-001	 6.0516968573e-001
 3.6666810138e+000	 8.9781698753e-001	 5.1977159585e-001
 3.6578769425e+000	 9.3303873116e-001	 4.5260630611e-001
 3.6487099031e+000	 9.6826703071e-001	 4.0315969039e-001
 3.6391784089e+000	 1.0034966409e+000	 3.7056433794e-001
 3.6292810672e+000	 1.0387222610e+000	 3.5359151432e-001
 3.7365604000e+000	 6.9145959918e-001	 1.4370011275e+000
 3.7298537576e+000	 7.2676746388e-001	 1.2081068705e+000
 3.7227926051e+000	 7.6211234014e-001	 1.0036509633e+000
 3.7153749187e+000	 7.9748931862e-001	 8.2475177007e-001
 3.7075987571e+000	 8.3289342413e-001	 6.7220966685e-001
 3.6994622640e+000	 8.6831961714e-001	 5.4649610152e-001
 3.6909636695e+000	 9.0376279540e-001	 4.4774310977e-001
 3.6821012931e+000	 9.3921779561e-001	 3.7573332738e-001
 3.6728735449e+000	 9.7467939516e-001	 3.2989053802e-001
 3.6632789282e+000	 1.0101423140e+000	 3.0927079592e-001
 3.6533160411e+000	 1.0456012164e+000	 3.1255416185e-001
 3.7611430342e+000	 6.9600867549e-001	 1.4710716393e+000
 3.7543922692e+000	 7.3154882878e-001	 1.2805593952e+000
 3.7472846618e+000	 7.6712623712e-001	 1.0639647901e+000
 3.7398181748e+000	 8.0273595887e-001	 8.4178379116e-001
 3.7319908542e+000	 8.3837298613e-001	 6.5463539827e-001
 3.7238008315e+000	 8.7403224620e-001	 5.0297279897e-001
 3.7152463252e+000	 9.0970860326e-001	 3.8689600155e-001
 3.7063256437e+000	 9.4539686005e-001	 3.0614156207e-001
 3.6970371866e+000	 9.8109175960e-001	 2.6007286472e-001
 3.6873794474e+000	 1.0167879871e+000	 2.4767099562e-001
 3.6773510151e+000	 1.0524801718e+000	 2.6752624992e-001
 3.7857256684e+000	 7.0055775180e-001	 1.3520842355e+000
 3.7789307808e+000	 7.3633019367e-001	 1.1859646788e+000
 3.7717767184e+000	 7.7214013409e-001	 1.0116150679e+000
 3.7642614308e+000	 8.0798259913e-001	 8.3202822656e-001
 3.7563829513e+000	 8.4385254813e-001	 6.5049113490e-001
 3.7481393990e+000	 8.7974487526e-001	 4.7369979124e-001
 3.7395289810e+000	 9.1565441113e-001	 3.3636558349e-001
 3.7305499943e+000	 9.5157592450e-001	 2.4300388697e-001
 3.7212008284e+000	 9.8750412404e-001	 1.9291937566e-001
 3.7114799667e+000	 1.0234336602e+000	 1.8501973111e-001
 3.7013859890e+000	 1.0593591271e+000	 2.1780691632e-001
 3.8103083026e+000	 7.0510682811e-001	 1.2395072304e+000
 3.8034692923e+000	 7.4111155856e-001	 1.0961986798e+000
 3.7962687750e+000	 7.7715403107e-001	 9.4631506643e-001
 3.7887046868e+000	 8.1322923938e-001	 7.9279674575e-001
 3.7807750484e+000	 8.4933211013e-001	 6.3888039577e-001
 3.7724779665e+000	 8.8545750432e-001	 4.8810363335e-001
 3.7638116367e+000	 9.2160021899e-001	 3.4430913665e-001
 3.7547743449e+000	 9.5775498894e-001	 2.1164824738e-001
 3.7453644701e+000	 9.9391648849e-001	 1.2764357714e-001
 3.7355804860e+000	 1.0300793333e+000	 1.2057122680e-001
 3.7254209630e+000	 1.0662380825e+000	 1.6269333318e-001
 3.8348909368e+000	 7.0965590442e-001	 1.1332550892e+000
 3.8280078039e+000	 7.4589292346e-001	 1.0112267090e+000
 3.8207608316e+000	 7.8216792804e-001	 8.8415467221e-001
 3.8131479429e+000	 8.1847587964e-001	 7.5492677867e-001
 3.8051671455e+000	 8.5481167213e-001	 6.2672945416e-001
 3.7968165341e+000	 8.9117013338e-001	 5.0305249915e-001
 3.7880942924e+000	 9.2754602686e-001	 3.8769333935e-001
 3.7789986955e+000	 9.6393405339e-001	 2.8476075122e-001
 3.7695281119e+000	 1.0003288529e+000	 1.9867803665e-001
 3.7596810052e+000	 1.0367250065e+000	 1.3418562163e-001
 3.7494559369e+000	 1.0731170379e+000	 1.0148076993e-001
 3.8594735710e+000	 7.1420498073e-001	 1.0332524089e+000
 3.8525463155e+000	 7.5067428835e-001	 9.3102312638e-001
 3.8452528882e+000	 7.8718182501e-001	 8.2515823014e-001
 3.8375911989e+000	 8.2372251989e-001	 7.1849286036e-001
 3.8295592426e+000	 8.6029123413e-001	 6.1416322320e-001
 3.8211551016e+000	 8.9688276244e-001	 5.1561147532e-001
 3.8123769481e+000	 9.3349183472e-001	 4.2659010526e-001
 3.8032230461e+000	 9.7011311783e-001	 3.5116578477e-001
 3.7936917536e+000	 1.0067412174e+000	 2.9372266381e-001
 3.7837815245e+000	 1.0433706796e+000	 2.5896508347e-001
 3.7734909109e+000	 1.0799959932e+000	 2.5191968192e-001
 3.8840562052e+000	 7.1875405704e-001	 9.3943359819e-001
 3.8770848270e+000	 7.5545565324e-001	 8.5557105455e-001
 3.8697449448e+000	 7.9219572198e-001	 7.6935777397e-001
 3.8620344550e+000	 8.2896916014e-001	 6.8357611556e-001
 3.8539513397e+000	 8.6577079613e-001	 6.0131208178e-001
 3.8454936691e+000	 9.0259539150e-001	 5.2596034132e-001
 3.8366596038e+000	 9.3943764258e-001	 4.6122874422e-001
 3.8274473967e+000	 9.7629218228e-001	 4.1114230168e-001
 3.8178553953e+000	 1.0131535818e+000	 3.8004660374e-001
 3.8078820438e+000	 1.0500163527e+000	 3.7261064877e-001
 3.7975258849e+000	 1.0868749486e+000	 3.9382905937e-001
 3.9086388394e+000	 7.2330313334e-001	 8.5174256855e-001
 3.9016233386e+000	 7.6023701813e-001	 7.8486210353e-001
 3.8942370014e+000	 7.9720961895e-001	 7.1679278445e-001
 3.8864777110e+000	 8.3421580039e-001	 6.5026405149e-001
 3.8783434368e+000	 8.7125035813e-001	 5.8831170264e-001
 3.8698322366e+000	 9.0830802055e-001	 5.3428305802e-001
 3.8609422596e+000	 9.4538345045e-001	 4.9184161155e-001
 3.8516717474e+000	 9.8247124672e-001	 4.6497114184e-001
 3.8420190371e+000	 1.0195659463e+000	 4.5797925510e-001
 3.8319825630e+000	 1.0566620258e+000	 4.7550033345e-001
 3.8215608588e+000	 1.0937539040e+000	 5.2249786276e-001
 3.9332214737e+000	 7.2785220965e-001	 7.7013243745e-001
 3.9261618501e+000	 7.6501838302e-001	 7.1889610527e-001
 3.9187290581e+000	 8.0222351592e-001	 6.6750995664e-001
 3.9109209671e+000	 8.3946244064e-001	 6.1865035841e-001
 3.9027355338e+000	 8.7672992013e-001	 5.7530288697e-001
 3.8941708042e+000	 9.1402064961e-001	 5.4076763708e-001
 3.8852249153e+000	 9.5132925831e-001	 5.1866401287e-001
 3.8758960980e+000	 9.8865031116e-001	 5.1293497247e-001
 3.8661826788e+000	 1.0259783107e+000	 5.2785069869e-001
 3.8560830823e+000	 1.0633076989e+000	 5.6801166840e-001
 3.8455958328e+000	 1.1006328594e+000	 6.3835109449e-001
 3.6052460932e+000	 1.0318433056e+000	 3.9133713830e-001
 3.5950495844e+000	 1.0668263616e+000	 3.2808179989e-001
 3.5844871729e+000	 1.1017947664e+000	 2.9668763487e-001
 3.5735577679e+000	 1.1367431019e+000	 2.9377425321e-001
 3.5622603795e+000	 1.1716659033e+000	 3.1554730009e-001
 3.5505941207e+000	 1.2065576614e+000	 3.5779456918e-001
 3.5385582090e+000	 1.2414128249e+000	 4.1588295677e-001
 3.5261519680e+000	 1.2762258024e+000	 4.2572138009e-001
 3.5133748290e+000	 1.3109909654e+000	 3.9602434336e-001
 3.5002263323e+000	 1.3457026502e+000	 3.4208619037e-001
 3.4867061290e+000	 1.3803551609e+000	 2.6391502686e-001
 3.6292810672e+000	 1.0387222610e+000	 3.5359151432e-001
 3.6190165816e+000	 1.0739385374e+000	 2.9006207817e-001
 3.6083837541e+000	 1.1091400648e+000	 2.6149631357e-001
 3.5973814863e+000	 1.1443213892e+000	 2.6445543921e-001
 3.5860087820e+000	 1.1794770093e+000	 2.9507690105e-001
 3.5742647481e+000	 1.2146013792e+000	 3.4907038003e-001
 3.5621485970e+000	 1.2496889104e+000	 4.2171465881e-001
 3.5496596478e+000	 1.2847339744e+000	 4.2756865871e-001
 3.5367973278e+000	 1.3197309052e+000	 4.0721509057e-001
 3.5235611745e+000	 1.3546740012e+000	 3.6121625377e-001
 3.5099508365e+000	 1.3895575286e+000	 2.8955952542e-001
 3.6533160411e+000	 1.0456012164e+000	 3.1255416185e-001
 3.6429835788e+000	 1.0810507131e+000	 2.4774015468e-001
 3.6322803352e+000	 1.1164853633e+000	 2.2113606381e-001
 3.6212052048e+000	 1.1518996766e+000	 2.2924508837e-001
 3.6097571845e+000	 1.1872881153e+000	 2.6813665679e-001
 3.5979353756e+000	 1.2226450969e+000	 3.3344232560e-001
 3.5857389851e+000	 1.2579649959e+000	 4.0642493311e-001
 3.5731673276e+000	 1.2932421464e+000	 4.2224506637e-001
 3.5602198267e+000	 1.3284708449e+000	 4.1106209252e-001
 3.5468960167e+000	 1.3636453522e+000	 3.7286453850e-001
 3.5331955441e+000	 1.3987598963e+000	 3.0761913551e-001
 3.6773510151e+000	 1.0524801718e+000	 2.6752624992e-001
 3.6669505761e+000	 1.0881628888e+000	 2.0041335303e-001
 3.6561769164e+000	 1.1238306617e+000	 1.7490125214e-001
 3.6450289232e+000	 1.1594779639e+000	 1.8743549938e-001
 3.6335055871e+000	 1.1950992213e+000	 2.3401768682e-001
 3.6216060031e+000	 1.2306888146e+000	 3.1020123317e-001
 3.6093293732e+000	 1.2662410814e+000	 3.8361714693e-001
 3.5966750074e+000	 1.3017503184e+000	 4.0975055438e-001
 3.5836423255e+000	 1.3372107847e+000	 4.0756686818e-001
 3.5702308590e+000	 1.3726167032e+000	 3.7703385381e-001
 3.5564402516e+000	 1.4079622641e+000	 3.1809767555e-001
 3.7013859890e+000	 1.0593591271e+000	 2.1780691632e-001
 3.6909175733e+000	 1.0952750646e+000	 1.4737684543e-001
 3.6800734975e+000	 1.1311759602e+000	 1.2208398399e-001
 3.6688526417e+000	 1.1670562512e+000	 1.3831661052e-001
 3.6572539896e+000	 1.2029103274e+000	 1.9200866162e-001
 3.6452766306e+000	 1.2387325324e+000	 2.7863540315e-001
 3.6329197612e+000	 1.2745171669e+000	 3.5383971545e-001
 3.6201826871e+000	 1.3102584905e+000	 3.9008242415e-001
 3.6070648244e+000	 1.3459507245e+000	 3.9672824165e-001
 3.5935657012e+000	 1.3815880542e+000	 3.7372428024e-001
 3.5796849591e+000	 1.4171646318e+000	 3.2099621272e-001
 3.7254209630e+000	 1.0662380825e+000	 1.6269333318e-001
 3.7148845705e+000	 1.1023872403e+000	 8.7923722135e-002
 3.7039700787e+000	 1.1385212586e+000	 6.1974176553e-002
 3.6926763602e+000	 1.1746345386e+000	 8.1176075810e-002
 3.6810023921e+000	 1.2107214334e+000	 1.4139588165e-001
 3.6689472580e+000	 1.2467762501e+000	 2.3803069057e-001
 3.6565101493e+000	 1.2827932524e+000	 3.1708564459e-001
 3.6436903669e+000	 1.3187666625e+000	 3.6323541265e-001
 3.6304873233e+000	 1.3546906642e+000	 3.7854242907e-001
 3.6169005434e+000	 1.3905594052e+000	 3.6293325768e-001
 3.6029296666e+000	 1.4263669996e+000	 3.1631315168e-001
 3.7494559369e+000	 1.0731170379e+000	 1.0148076993e-001
 3.7388515678e+000	 1.1094994161e+000	 2.1345058142e-002
 3.7278666598e+000	 1.1458665570e+000	-6.1403710342e-003
 3.7165000786e+000	 1.1822128259e+000	 1.5299338224e-002
 3.7047507947e+000	 1.2185325394e+000	 8.1463353324e-002
 3.6926178855e+000	 1.2548199679e+000	 1.8550719880e-001
 3.6801005373e+000	 1.2910693379e+000	 2.7334551057e-001
 3.6671980467e+000	 1.3272748345e+000	 3.2920177464e-001
 3.6539098221e+000	 1.3634306040e+000	 3.5300312224e-001
 3.6402353856e+000	 1.3995307562e+000	 3.4465566998e-001
 3.6261743742e+000	 1.4355693673e+000	 3.0404431994e-001
 3.7734909109e+000	 1.0799959932e+000	 2.5191968192e-001
 3.7628185650e+000	 1.1166115918e+000	 7.7000405005e-002
 3.7517632410e+000	 1.1532118555e+000	-6.4107913292e-002
 3.7403237971e+000	 1.1897911133e+000	-6.0030299887e-002
 3.7284991972e+000	 1.2263436454e+000	 1.1492862067e-002
 3.7162885130e+000	 1.2628636856e+000	 1.2410335445e-001
 3.7036909254e+000	 1.2993454234e+000	 2.2260753719e-001
 3.6907057265e+000	 1.3357830065e+000	 2.8797136168e-001
 3.6773323210e+000	 1.3721705438e+000	 3.2010156897e-001
 3.6635702278e+000	 1.4085021072e+000	 3.1888392638e-001
 3.6494190817e+000	 1.4447717350e+000	 2.8418304990e-001
 3.7975258849e+000	 1.0868749486e+000	 3.9382905937e-001
 3.7867855622e+000	 1.1237237676e+000	 2.3321049685e-001
 3.7756598221e+000	 1.1605571539e+000	 1.0287722851e-001
 3.7641475155e+000	 1.1973694006e+000	 8.2581306425e-003
 3.7522475997e+000	 1.2341547515e+000	-4.4890504017e-002
 3.7399591404e+000	 1.2709074034e+000	 5.5918089259e-002
 3.7272813135e+000	 1.3076215089e+000	 1.6485767038e-001
 3.7142134063e+000	 1.3442911785e+000	 2.3953169820e-001
 3.7007548198e+000	 1.3809104835e+000	 2.7982665048e-001
 3.6869050700e+000	 1.4174734582e+000	 2.8560803978e-001
 3.6726637892e+000	 1.4539741028e+000	 2.5672025783e-001
 3.8215608588e+000	 1.0937539040e+000	 5.2249786276e-001
 3.8107525595e+000	 1.1308359433e+000	 3.7588691021e-001
 3.7995564033e+000	 1.1679024524e+000	 2.5597889319e-001
 3.7879712340e+000	 1.2049476880e+000	 1.6825656053e-001
 3.7759960022e+000	 1.2419658575e+000	 1.1853896158e-001
 3.7636297679e+000	 1.2789511211e+000	 1.2377995013e-001
 3.7508717015e+000	 1.3158975944e+000	 1.0895409299e-001
 3.7377210861e+000	 1.3527993506e+000	 1.8386805467e-001
 3.7241773187e+000	 1.3896504233e+000	 2.3216495576e-001
 3.7102399122e+000	 1.4264448092e+000	 2.4481570213e-001
 3.6959084967e+000	 1.4631764705e+000	 2.2164451982e-001
 3.8455958328e+000	 1.1006328594e+000	 6.3835109449e-001
 3.8347195567e+000	 1.1379481191e+000	 5.0545880054e-001
 3.8234529844e+000	 1.1752477508e+000	 3.9562923387e-001
 3.8117949524e+000	 1.2125259753e+000	 3.1439977191e-001
 3.7997444048e+000	 1.2497769635e+000	 2.6765309323e-001
 3.7873003954e+000	 1.2869948389e+000	 2.8786604230e-001
 3.7744620896e+000	 1.3241736799e+000	 2.7600657264e-001
 3.7612287659e+000	 1.3613075226e+000	 2.3150128525e-001
 3.7475998176e+000	 1.3983903631e+000	 1.7710085325e-001
 3.7335747544e+000	 1.4354161602e+000	 1.9649235696e-001
 3.7191532043e+000	 1.4723788383e+000	 1.7894214497e-001
 3.4867061290e+000	 1.3803551609e+000	 2.6391502686e-001
 3.4728139820e+000	 1.4149427715e+000	 2.8096367753e-001
 3.4585497675e+000	 1.4494597290e+000	 2.8071285923e-001
 3.4439134760e+000	 1.4839002560e+000	 2.6240788732e-001
 3.4289052139e+000	 1.5182585531e+000	 2.2525871083e-001
 3.4135252041e+000	 1.5525288020e+000	 1.6844052283e-001
 3.3977737871e+000	 1.5867051686e+000	 9.1094476364e-002
 3.3816514220e+000	 1.6207818052e+000	-7.6714932742e-003
 3.3651586875e+000	 1.6547528541e+000	-1.2878173945e-001
 3.3482962822e+000	 1.6886124501e+000	-2.7319186808e-001
 3.3310650256e+000	 1.7223547240e+000	-4.4188759476e-001
 3.5099508365e+000	 1.3895575286e+000	 2.8955952542e-001
 3.4959660752e+000	 1.4243757233e+000	 2.9806823435e-001
 3.4816067659e+000	 1.4591227939e+000	 2.9219972651e-001
 3.4668728992e+000	 1.4937929244e+000	 2.7120600704e-001
 3.4517645820e+000	 1.5283802767e+000	 2.3430023696e-001
 3.4362820388e+000	 1.5628789940e+000	 1.8065730062e-001
 3.4204256123e+000	 1.5972832030e+000	 1.0941448355e-001
 3.4041957648e+000	 1.6315870172e+000	 1.9672261905e-002
 3.3875930787e+000	 1.6657845398e+000	-8.9504796036e-002
 3.3706182574e+000	 1.6998698665e+000	-2.1908701602e-001
 3.3532721258e+000	 1.7338370888e+000	-3.7007849156e-001
 3.5331955441e+000	 1.3987598963e+000	 3.0761913551e-001
 3.5191181684e+000	 1.4338086751e+000	 3.0765701249e-001
 3.5046637644e+000	 1.4687858588e+000	 2.9621707766e-001
 3.4898323224e+000	 1.5036855927e+000	 2.7255762568e-001
 3.4746239501e+000	 1.5385020004e+000	 2.3589462730e-001
 3.4590388735e+000	 1.5732291861e+000	 1.8540225421e-001
 3.4430774376e+000	 1.6078612375e+000	 1.2021351936e-001
 3.4267401076e+000	 1.6423922293e+000	 3.9421033942e-002
 3.4100274700e+000	 1.6768162255e+000	-5.7922118232e-002
 3.3929402326e+000	 1.7111272828e+000	-1.7280138857e-001
 3.3754792260e+000	 1.7453194536e+000	-3.0623965362e-001
 3.5564402516e+000	 1.4079622641e+000	 3.1809767555e-001
 3.5422702616e+000	 1.4432416269e+000	 3.0973186373e-001
 3.5277207628e+000	 1.4784489236e+000	 2.9276564355e-001
 3.5127917456e+000	 1.5135782611e+000	 2.6646320286e-001
 3.4974833182e+000	 1.5486237241e+000	 2.3004292326e-001
 3.4817957082e+000	 1.5835793781e+000	 1.8267786268e-001
 3.4657292628e+000	 1.6184392720e+000	 1.2349635859e-001
 3.4492844505e+000	 1.6531974413e+000	 5.1582753004e-002
 3.4324618612e+000	 1.6878479112e+000	-3.4021759829e-002
 3.4152622078e+000	 1.7223846991e+000	-1.3431816243e-001
 3.3976863261e+000	 1.7568018184e+000	-2.5034851970e-001
 3.5796849591e+000	 1.4171646318e+000	 3.2099621272e-001
 3.5654223549e+000	 1.4526745787e+000	 3.0429194727e-001
 3.5507777613e+000	 1.4881119885e+000	 2.8184350303e-001
 3.5357511687e+000	 1.5234709295e+000	 2.5292056861e-001
 3.5203426863e+000	 1.5587454478e+000	 2.1674354079e-001
 3.5045525429e+000	 1.5939295701e+000	 1.7248396534e-001
 3.4883810881e+000	 1.6290173064e+000	 1.1926510348e-001
 3.4718287933e+000	 1.6640026533e+000	 5.6162625321e-002
 3.4548962525e+000	 1.6988795969e+000	-1.7794568588e-002
 3.4375841830e+000	 1.7336421155e+000	-1.0362339702e-001
 3.4198934263e+000	 1.7682841833e+000	-2.0238551881e-001
 3.6029296666e+000	 1.4263669996e+000	 3.1631315168e-001
 3.5885744481e+000	 1.4621075305e+000	 2.9133381654e-001
 3.5738347597e+000	 1.4977750533e+000	 2.6344616852e-001
 3.5587105919e+000	 1.5333635979e+000	 2.3192500819e-001
 3.5432020544e+000	 1.5688671715e+000	 1.9599235506e-001
 3.5273093776e+000	 1.6042797621e+000	 1.5481784690e-001
 3.5110329133e+000	 1.6395953409e+000	 1.0751926991e-001
 3.4943731361e+000	 1.6748078654e+000	 5.3163221060e-002
 3.4773306437e+000	 1.7099112826e+000	-9.2340961147e-003
 3.4599061583e+000	 1.7448995318e+000	-8.0705941496e-002
 3.4421005265e+000	 1.7797665481e+000	-1.6233397375e-001
 3.6261743742e+000	 1.4355693673e+000	 3.0404431994e-001
 3.6117265413e+000	 1.4715404823e+000	 2.7085150277e-001
 3.5968917582e+000	 1.5074381182e+000	 2.3756666822e-001
 3.5816700151e+000	 1.5432562662e+000	 2.0346934368e-001
 3.5660614225e+000	 1.5789888952e+000	 1.6778278189e-001
 3.5500662123e+000	 1.6146299541e+000	 1.2967431933e-001
 3.5336847386e+000	 1.6501733753e+000	 8.8255870323e-002
 3.5169174789e+000	 1.6856130774e+000	 4.2584558808e-002
 3.4997650350e+000	 1.7209429682e+000	-8.3365111961e-003
 3.4822281335e+000	 1.7561569481e+000	-6.5557345331e-002
 3.4643076266e+000	 1.7912489129e+000	-1.3018000839e-001
 3.6494190817e+000	 1.4447717350e+000	 2.8418304990e-001
 3.6348786345e+000	 1.4809734342e+000	 2.4283659526e-001
 3.6199487566e+000	 1.5171011831e+000	 2.0419562526e-001
 3.6046294383e+000	 1.5531489346e+000	 1.6754401236e-001
 3.5889207906e+000	 1.5891106189e+000	 1.3210585608e-001
 3.5728230470e+000	 1.6249801461e+000	 9.7045800599e-002
 3.5563365638e+000	 1.6607514098e+000	 6.1469493426e-002
 3.5394618217e+000	 1.6964182894e+000	 2.4424186838e-002
 3.5221994262e+000	 1.7319746539e+000	-1.5100516450e-002
 3.5045501087e+000	 1.7674143645e+000	-5.8171772330e-002
 3.4865147268e+000	 1.8027312778e+000	-1.0591245843e-001
 3.6726637892e+000	 1.4539741028e+000	 2.5672025783e-001
 3.6580307277e+000	 1.4904063860e+000	 2.0727831871e-001
 3.6430057551e+000	 1.5267642479e+000	 1.6332133378e-001
 3.6275888614e+000	 1.5630416030e+000	 1.2413714226e-001
 3.6117801587e+000	 1.5992323426e+000	 8.8950306739e-002
 3.5955798816e+000	 1.6353303381e+000	 5.6922390472e-002
 3.5789883890e+000	 1.6713294442e+000	 2.7152380911e-002
 3.5620061645e+000	 1.7072235015e+000	-1.3227387191e-003
 3.5446338175e+000	 1.7430063396e+000	-2.9527268140e-002
 3.5268720839e+000	 1.7786717808e+000	-5.8545917891e-002
 3.5087218270e+000	 1.8142136426e+000	-8.9522785596e-002
 3.6959084967e+000	 1.4631764705e+000	 2.2164451982e-001
 3.6811828209e+000	 1.4998393378e+000	 1.6416360753e-001
 3.6660627535e+000	 1.5364273128e+000	 1.1492983221e-001
 3.6505482846e+000	 1.5729342714e+000	 7.3234624733e-002
 3.6346395268e+000	 1.6093540662e+000	 3.8302629818e-002
 3.6183367163e+000	 1.6456805302e+000	 9.2919433789e-003
 3.6016402143e+000	 1.6819074787e+000	-1.4705498748e-002
 3.5845505073e+000	 1.7180287135e+000	-3.4663378650e-002
 3.5670682087e+000	 1.7540380253e+000	-5.1620299018e-002
 3.5491940591e+000	 1.7899291972e+000	-6.6678929392e-002
 3.5309289271e+000	 1.8256960074e+000	-8.1004995071e-002
 3.7191532043e+000	 1.4723788383e+000	 1.7894214497e-001
 3.7043349141e+000	 1.5092722896e+000	 1.1347717745e-001
 3.6891197520e+000	 1.5460903777e+000	 5.9004973706e-002
 3.6735077078e+000	 1.5828269397e+000	 1.4820184336e-002
 3.6574988949e+000	 1.6194757899e+000	-1.9852842121e-002
 3.6410935510e+000	 1.6560307222e+000	-4.5859861410e-002
 3.6242920395e+000	 1.6924855132e+000	-6.4116379259e-002
 3.6070948501e+000	 1.7288339256e+000	-7.5607138254e-002
 3.5895026000e+000	 1.7650697110e+000	-8.1385444062e-002
 3.5715160343e+000	 1.8011866135e+000	-8.2572329575e-002
 3.5531360273e+000	 1.8371783722e+000	-8.0355555996e-002
 3.3310650256e+000	 1.7223547240e+000	-4.4188759476e-001
 3.3134658586e+000	 1.7559738049e+000	-5.0615948284e-001
 3.2954998440e+000	 1.7894638242e+000	-5.6075097146e-001
 3.2771681667e+000	 1.8228189179e+000	-6.0718221336e-001
 3.2584721341e+000	 1.8560332301e+000	-6.4703572683e-001
 3.2394131765e+000	 1.8891009162e+000	-6.6687019664e-001
 3.2199928470e+000	 1.9220161459e+000	-6.4788583881e-001
 3.2002128214e+000	 1.9547731064e+000	-6.0516272126e-001
 3.1800748984e+000	 1.9873660057e+000	-5.3954600864e-001
 3.1595809991e+000	 2.0197890756e+000	-4.5190263368e-001
 3.1387331671e+000	 2.0520365752e+000	-3.4311984371e-001
 3.3532721258e+000	 1.7338370888e+000	-3.7007849156e-001
 3.3355556310e+000	 1.7676802970e+000	-4.2868645665e-001
 3.3174698430e+000	 1.8013935830e+000	-4.8221004372e-001
 3.2990159544e+000	 1.8349710440e+000	-5.3215405711e-001
 3.2801952817e+000	 1.8684067849e+000	-5.8008207211e-001
 3.2610092644e+000	 1.9016949223e+000	-6.0195361583e-001
 3.2414594660e+000	 1.9348295869e+000	-5.9960632850e-001
 3.2215475736e+000	 1.9678049271e+000	-5.7809843248e-001
 3.2012753977e+000	 2.0006151124e+000	-5.3822517195e-001
 3.1806448724e+000	 2.0332543361e+000	-4.8079868076e-001
 3.1596580548e+000	 2.0657168190e+000	-4.0664653148e-001
 3.3754792260e+000	 1.7453194536e+000	-3.0623965362e-001
 3.3576454034e+000	 1.7793867890e+000	-3.5779392610e-001
 3.3394398419e+000	 1.8133233418e+000	-4.0878665232e-001
 3.3208637422e+000	 1.8471231701e+000	-4.6070801569e-001
 3.3019184292e+000	 1.8807803398e+000	-5.1189783449e-001
 3.2826053522e+000	 1.9142889284e+000	-5.3977164171e-001
 3.2629260850e+000	 1.9476430278e+000	-5.5227479136e-001
 3.2428823257e+000	 1.9808367478e+000	-5.5014000679e-001
 3.2224758970e+000	 2.0138642191e+000	-5.3411349205e-001
 3.2017087458e+000	 2.0467195966e+000	-5.0495349685e-001
 3.1805829426e+000	 2.0793970629e+000	-4.6342886737e-001
 3.3976863261e+000	 1.7568018184e+000	-2.5034851970e-001
 3.3797351758e+000	 1.7910932810e+000	-2.9348346327e-001
 3.3614098409e+000	 1.8252531007e+000	-3.4050760649e-001
 3.3427115300e+000	 1.8592752962e+000	-3.9289723489e-001
 3.3236415768e+000	 1.8931538947e+000	-4.4369519809e-001
 3.3042014401e+000	 1.9268829345e+000	-4.8014984623e-001
 3.2843927040e+000	 1.9604564688e+000	-5.0574567541e-001
 3.2642170778e+000	 1.9938685685e+000	-5.2117204588e-001
 3.2436763964e+000	 2.0271133258e+000	-5.2712699388e-001
 3.2227726191e+000	 2.0601848571e+000	-5.2431579082e-001
 3.2015078304e+000	 2.0930773067e+000	-5.1344949511e-001
 3.4198934263e+000	 1.7682841833e+000	-2.0238551881e-001
 3.4018249482e+000	 1.8027997731e+000	-2.3575895867e-001
 3.3833798398e+000	 1.8371828595e+000	-2.7740132984e-001
 3.3645593178e+000	 1.8714274223e+000	-3.2877573894e-001
 3.3453647243e+000	 1.9055274495e+000	-3.7955355220e-001
 3.3257975279e+000	 1.9394769406e+000	-4.2291311295e-001
 3.3058593229e+000	 1.9732699098e+000	-4.5987190983e-001
 3.2855518300e+000	 2.0069003892e+000	-4.9107677116e-001
 3.2648768957e+000	 2.0403624325e+000	-5.1717842993e-001
 3.2438364924e+000	 2.0736501176e+000	-5.3883007657e-001
 3.2224327182e+000	 2.1067575505e+000	-5.5668591084e-001
 3.4421005265e+000	 1.7797665481e+000	-1.6233397375e-001
 3.4239147206e+000	 1.8145062651e+000	-1.8462654640e-001
 3.4053498388e+000	 1.8491126183e+000	-2.1949780831e-001
 3.3864071056e+000	 1.8835795485e+000	-2.6805676410e-001
 3.3670878719e+000	 1.9179010044e+000	-3.1927109544e-001
 3.3473936158e+000	 1.9520709467e+000	-3.6788565920e-001
 3.3273259419e+000	 1.9860833507e+000	-4.1450495393e-001
 3.3068865821e+000	 2.0199322099e+000	-4.5973410049e-001
 3.2860773950e+000	 2.0536115392e+000	-5.0417738583e-001
 3.2649003657e+000	 2.0871153781e+000	-5.4843680836e-001
 3.2433576059e+000	 2.1204377944e+000	-5.9311062922e-001
 3.4643076266e+000	 1.7912489129e+000	-1.3018000839e-001
 3.4460044930e+000	 1.8262127571e+000	-1.4009453223e-001
 3.4273198378e+000	 1.8610423772e+000	-1.6682854008e-001
 3.4082548933e+000	 1.8957316746e+000	-2.1219176056e-001
 3.3888110195e+000	 1.9302745593e+000	-2.6264613015e-001
 3.3689897036e+000	 1.9646649528e+000	-3.1489105748e-001
 3.3487925609e+000	 1.9988967917e+000	-3.6949484425e-001
 3.3282213343e+000	 2.0329640306e+000	-4.2702172209e-001
 3.3072778943e+000	 2.0668606459e+000	-4.8803038183e-001
 3.2859642391e+000	 2.1005806386e+000	-5.5307251092e-001
 3.2642824937e+000	 2.1341180382e+000	-6.2269134306e-001
 3.4865147268e+000	 1.8027312778e+000	-1.0591245843e-001
 3.4680942654e+000	 1.8379192492e+000	-1.0217332449e-001
 3.4492898367e+000	 1.8729721360e+000	-1.1942648740e-001
 3.4301026811e+000	 1.9078838007e+000	-1.6133176424e-001
 3.4105341670e+000	 1.9426481142e+000	-2.0947705915e-001
 3.3905857914e+000	 1.9772589590e+000	-2.6375225598e-001
 3.3702591799e+000	 2.0117102327e+000	-3.2469023993e-001
 3.3495560864e+000	 2.0459958514e+000	-3.9281516547e-001
 3.3284783936e+000	 2.0801097526e+000	-4.6864097044e-001
 3.3070281124e+000	 2.1140458991e+000	-5.5266990458e-001
 3.2852073815e+000	 2.1477982820e+000	-6.4539107687e-001
 3.5087218270e+000	 1.8142136426e+000	-8.9522785596e-002
 3.4901840378e+000	 1.8496257412e+000	-7.0875367503e-002
 3.4712598357e+000	 1.8849018948e+000	-8.0852089484e-002
 3.4519504689e+000	 1.9200359268e+000	-1.1525257493e-001
 3.4322573146e+000	 1.9550216690e+000	-1.5956238256e-001
 3.4121818793e+000	 1.9898529651e+000	-2.1429159834e-001
 3.3917257989e+000	 2.0245236737e+000	-2.7993846623e-001
 3.3708908386e+000	 2.0590276721e+000	-3.5698786980e-001
 3.3496788930e+000	 2.0933588593e+000	-4.4590983032e-001
 3.3280919857e+000	 2.1275111596e+000	-5.4715802569e-001
 3.3061322693e+000	 2.1614785259e+000	-6.6116833462e-001
 3.5309289271e+000	 1.8256960074e+000	-8.1004995071e-002
 3.5122738102e+000	 1.8613322332e+000	-4.6215077543e-002
 3.4932298346e+000	 1.8968316537e+000	-4.8940185539e-002
 3.4737982567e+000	 1.9321880529e+000	-7.3730739602e-002
 3.4539804622e+000	 1.9673952239e+000	-1.1270069471e-001
 3.4337779671e+000	 2.0024469712e+000	-1.6633084263e-001
 3.4131924178e+000	 2.0373371146e+000	-2.3508555652e-001
 3.3922255907e+000	 2.0720594928e+000	-3.1941124962e-001
 3.3708793923e+000	 2.1066079660e+000	-4.1973485667e-001
 3.3491558591e+000	 2.1409764201e+000	-5.3646234243e-001
 3.3270571571e+000	 2.1751587697e+000	-6.6997724188e-001
 3.5531360273e+000	 1.8371783722e+000	-8.0355555996e-002
 3.5343635826e+000	 1.8730387253e+000	-2.8208781245e-002
 3.5151998336e+000	 1.9087614125e+000	-2.2797490118e-002
 3.4956460444e+000	 1.9443401791e+000	-3.6543529071e-002
 3.4757036097e+000	 1.9797687788e+000	-6.8690681203e-002
 3.4553740550e+000	 2.0150409773e+000	-1.1969117970e-001
 3.4346590368e+000	 2.0501505556e+000	-1.8997629263e-001
 3.4135603429e+000	 2.0850913135e+000	-2.7995475812e-001
 3.3920798916e+000	 2.1198570727e+000	-3.9001124822e-001
 3.3702197324e+000	 2.1544416806e+000	-5.2050486636e-001
 3.3479820449e+000	 2.1888390135e+000	-6.7176768263e-001
 3.1387331671e+000	 2.0520365752e+000	-3.4311984371e-001
 3.1175335675e+000	 2.0841027938e+000	-2.7984305729e-001
 3.0959844873e+000	 2.1159820543e+000	-4.5273361176e-001
 3.0740883340e+000	 2.1476687162e+000	-5.9680079912e-001
 3.0518476352e+000	 2.1791571792e+000	-7.1292609643e-001
 3.0292650379e+000	 2.2104418857e+000	-8.0206727892e-001
 3.0063433076e+000	 2.2415173246e+000	-8.6525686625e-001
 2.9830853273e+000	 2.2723780342e+000	-9.0360038791e-001
 2.9594940961e+000	 2.3030186050e+000	-9.1827447057e-001
 2.9355727287e+000	 2.3334336833e+000	-9.1052475095e-001
 2.9113244534e+000	 2.3636179740e+000	-8.8166361812e-001
 3.1596580548e+000	 2.0657168190e+000	-4.0664653148e-001
 3.1383171247e+000	 2.0979968124e+000	-2.2884974808e-001
 3.1166243839e+000	 2.1300886013e+000	-1.9237495590e-001
 3.0945822562e+000	 2.1619865077e+000	-3.6997224351e-001
 3.0721932861e+000	 2.1936848937e+000	-5.1631629983e-001
 3.0494601381e+000	 2.2251781649e+000	-6.3240211601e-001
 3.0263855963e+000	 2.2564607735e+000	-7.1930364400e-001
 3.0029725628e+000	 2.2875272211e+000	-7.7817201778e-001
 2.9792240568e+000	 2.3183720624e+000	-8.1023358934e-001
 2.9551432136e+000	 2.3489899079e+000	-8.1678778286e-001
 2.9307332831e+000	 2.3793754271e+000	-7.9920477135e-001
 3.1805829426e+000	 2.0793970629e+000	-4.6342886737e-001
 3.1591006818e+000	 2.1118908310e+000	-3.1037892253e-001
 3.1372642805e+000	 2.1441951483e+000	-1.4762705290e-001
 3.1150761784e+000	 2.1763042991e+000	-1.4325674469e-001
 3.0925389370e+000	 2.2082126082e+000	-3.2037022399e-001
 3.0696552384e+000	 2.2399144442e+000	-4.6396204880e-001
 3.0464278850e+000	 2.2714042223e+000	-5.7514785049e-001
 3.0228597983e+000	 2.3026764080e+000	-6.5512462506e-001
 2.9989540174e+000	 2.3337255197e+000	-7.0516871714e-001
 2.9747136984e+000	 2.3645461324e+000	-7.2663361507e-001
 2.9501421128e+000	 2.3951328803e+000	-7.2094756109e-001
 3.2015078304e+000	 2.0930773067e+000	-5.1344949511e-001
 3.1798842389e+000	 2.1257848497e+000	-3.8540566499e-001
 3.1579041771e+000	 2.1583016954e+000	-2.4542693835e-001
 3.1355701007e+000	 2.1906220906e+000	-9.3968158055e-002
 3.1128845879e+000	 2.2227403228e+000	-1.2555464906e-001
 3.0898503386e+000	 2.2546507234e+000	-2.9720160383e-001
 3.0664701738e+000	 2.2863476711e+000	-4.3323093185e-001
 3.0427470338e+000	 2.3178255949e+000	-5.3488575635e-001
 3.0186839780e+000	 2.3490789771e+000	-6.0349269036e-001
 2.9942841833e+000	 2.3801023570e+000	-6.4045957197e-001
 2.9695509425e+000	 2.4108903335e+000	-6.4727300764e-001
 3.2224327182e+000	 2.1067575505e+000	-5.5668591084e-001
 3.2006677960e+000	 2.1396788683e+000	-4.5389726882e-001
 3.1785440737e+000	 2.1724082424e+000	-3.3697831220e-001
 3.1560640229e+000	 2.2049398820e+000	-2.0640649421e-001
 3.1332302388e+000	 2.2372680373e+000	-6.2662817200e-002
 3.1100454389e+000	 2.2693870027e+000	-1.3257132901e-001
 3.0865124625e+000	 2.3012911200e+000	-2.9399063733e-001
 3.0626342693e+000	 2.3329747818e+000	-4.1787955893e-001
 3.0384139387e+000	 2.3644324345e+000	-5.0561525920e-001
 3.0138546681e+000	 2.3956585816e+000	-5.5866022053e-001
 2.9889597722e+000	 2.4266477866e+000	-5.7855971801e-001
 3.2433576059e+000	 2.1204377944e+000	-5.9311062922e-001
 3.2214513531e+000	 2.1535728869e+000	-5.1581624096e-001
 3.1991839703e+000	 2.1865147894e+000	-4.2223318273e-001
 3.1765579451e+000	 2.2192576734e+000	-3.1286169164e-001
 3.1535758897e+000	 2.2517957518e+000	-1.8820738713e-001
 3.1302405392e+000	 2.2841232819e+000	-4.8780078084e-002
 3.1065547512e+000	 2.3162345688e+000	-1.5786113857e-001
 3.0825215048e+000	 2.3481239687e+000	-3.0452689038e-001
 3.0581438993e+000	 2.3797858918e+000	-4.1194318726e-001
 3.0334251530e+000	 2.4112148061e+000	-4.8162745919e-001
 3.0083686019e+000	 2.4424052398e+000	-5.1518396378e-001
 3.2642824937e+000	 2.1341180382e+000	-6.2269134306e-001
 3.2422349102e+000	 2.1674669055e+000	-5.7112045531e-001
 3.2198238668e+000	 2.2006213364e+000	-5.0113912921e-001
 3.1970518674e+000	 2.2335754649e+000	-4.1327056392e-001
 3.1739215406e+000	 2.2663234664e+000	-3.0804514495e-001
 3.1504356394e+000	 2.2988595611e+000	-1.8599922038e-001
 3.1265970399e+000	 2.3311780176e+000	-4.7673886316e-002
 3.1024087403e+000	 2.3632731556e+000	-1.9524542399e-001
 3.0778738600e+000	 2.3951393492e+000	-3.2288034722e-001
 3.0529956378e+000	 2.4267710307e+000	-4.0975060347e-001
 3.0277774315e+000	 2.4581626929e+000	-4.5751975595e-001
 3.2852073815e+000	 2.1477982820e+000	-6.4539107687e-001
 3.2630184674e+000	 2.1813609242e+000	-6.1976330033e-001
 3.2404637634e+000	 2.2147278835e+000	-5.7363944289e-001
 3.2175457896e+000	 2.2478932563e+000	-5.0756584871e-001
 3.1942671915e+000	 2.2808511809e+000	-4.2209782332e-001
 3.1706307397e+000	 2.3135958404e+000	-3.1779837837e-001
 3.1466393286e+000	 2.3461214665e+000	-1.9523698372e-001
 3.1222959759e+000	 2.3784223425e+000	-9.0449750254e-002
 3.0976038206e+000	 2.4104928066e+000	-2.3882781297e-001
 3.0725661227e+000	 2.4423272552e+000	-3.4341646816e-001
 3.0471862612e+000	 2.4739201461e+000	-4.0593891693e-001
 3.3061322693e+000	 2.1614785259e+000	-6.6116833462e-001
 3.2838020245e+000	 2.1952549428e+000	-6.6169382095e-001
 3.2611036600e+000	 2.2288344305e+000	-6.3967326275e-001
 3.2380397118e+000	 2.2622110478e+000	-5.9567633678e-001
 3.2146128424e+000	 2.2953788954e+000	-5.3028342742e-001
 3.1908258399e+000	 2.3283321196e+000	-4.4408433951e-001
 3.1666816174e+000	 2.3610649153e+000	-3.3767701650e-001
 3.1421832114e+000	 2.3935715294e+000	-2.1166626758e-001
 3.1173337812e+000	 2.4258462639e+000	-1.6018394813e-001
 3.0921366076e+000	 2.4578834798e+000	-2.8300944652e-001
 3.0665950909e+000	 2.4896775993e+000	-3.6081114980e-001
 3.3270571571e+000	 2.1751587697e+000	-6.6997724188e-001
 3.3045855816e+000	 2.2091489614e+000	-6.9685685517e-001
 3.2817435566e+000	 2.2429409775e+000	-6.9917570604e-001
 3.2585336340e+000	 2.2765288392e+000	-6.7752699607e-001
 3.2349584933e+000	 2.3099066099e+000	-6.3251635220e-001
 3.2110209402e+000	 2.3430683989e+000	-5.6476050717e-001
 3.1867239061e+000	 2.3760083641e+000	-4.7488598321e-001
 3.1620704469e+000	 2.4087207162e+000	-3.6352778289e-001
 3.1370637419e+000	 2.4411997213e+000	-2.3132809072e-001
 3.1117070924e+000	 2.4734397043e+000	-2.2891158636e-001
 3.0860039206e+000	 2.5054350524e+000	-3.4372877977e-001
 3.3479820449e+000	 2.1888390135e+000	-6.7176768263e-001
 3.3253691387e+000	 2.2230429801e+000	-7.2519316554e-001
 3.3023834532e+000	 2.2570475246e+000	-7.5207799399e-001
 3.2790275563e+000	 2.2908466307e+000	-7.5303909118e-001
 3.2553041442e+000	 2.3244343245e+000	-7.2870749518e-001
 3.2312160404e+000	 2.3578046781e+000	-6.7972700636e-001
 3.2067661948e+000	 2.3909518130e+000	-6.0675283619e-001
 3.1819576824e+000	 2.4238699031e+000	-5.1045026140e-001
 3.1567937025e+000	 2.4565531787e+000	-3.9149328700e-001
 3.1312775773e+000	 2.4889959289e+000	-2.5056332209e-001
 3.1054127503e+000	 2.5211925056e+000	-3.7058671848e-001
 2.9113244534e+000	 2.3636179740e+000	-8.8166361812e-001
 2.8867526112e+000	 2.3935662434e+000	-9.0221127680e-001
 2.8618606541e+000	 2.4232733227e+000	-9.0104904546e-001
 2.8366521436e+000	 2.4527341104e+000	-8.7929560837e-001
 2.8111307490e+000	 2.4819435755e+000	-8.3812909132e-001
 2.7853002459e+000	 2.5108967602e+000	-8.2088527914e-001
 2.7591645138e+000	 2.5395887828e+000	-8.4535578553e-001
 2.7327275349e+000	 2.5680148403e+000	-8.3802740142e-001
 2.7059933915e+000	 2.5961702111e+000	-7.9963697129e-001
 2.6789662642e+000	 2.6240502578e+000	-7.3094096400e-001
 2.6516504295e+000	 2.6516504295e+000	-6.3271376579e-001
 2.9307332831e+000	 2.3793754271e+000	-7.9920477135e-001
 2.9059976286e+000	 2.4095233517e+000	-8.2168910019e-001
 2.8809397251e+000	 2.4394284782e+000	-8.2211099153e-001
 2.8555631579e+000	 2.4690856712e+000	-8.0165694798e-001
 2.8298716207e+000	 2.4984898660e+000	-7.6157413105e-001
 2.8038689142e+000	 2.5276360719e+000	-8.0855107551e-001
 2.7775589439e+000	 2.5565193747e+000	-8.2926057613e-001
 2.7509457185e+000	 2.5851349392e+000	-8.1835305391e-001
 2.7240333475e+000	 2.6134780125e+000	-7.7662037042e-001
 2.6968260392e+000	 2.6415439262e+000	-7.0487355191e-001
 2.6693280990e+000	 2.6693280990e+000	-6.0394100520e-001
 2.9501421128e+000	 2.3951328803e+000	-7.2094756109e-001
 2.9252426460e+000	 2.4254804600e+000	-7.4596871565e-001
 2.9000187961e+000	 2.4555836337e+000	-7.4855393821e-001
 2.8744741721e+000	 2.4854372319e+000	-7.2995784216e-001
 2.8486124923e+000	 2.5150361565e+000	-7.5144025014e-001
 2.8224375825e+000	 2.5443753837e+000	-8.0116151489e-001
 2.7959533740e+000	 2.5734499666e+000	-8.1861747900e-001
 2.7691639021e+000	 2.6022550381e+000	-8.0463456286e-001
 2.7420733034e+000	 2.6307858139e+000	-7.6005974326e-001
 2.7146858143e+000	 2.6590375946e+000	-6.8575869963e-001
 2.6870057685e+000	 2.6870057685e+000	-5.8261395238e-001
 2.9695509425e+000	 2.4108903335e+000	-6.4727300764e-001
 2.9444876634e+000	 2.4414375683e+000	-6.7541466577e-001
 2.9190978672e+000	 2.4717387892e+000	-6.8072583800e-001
 2.8933851864e+000	 2.5017887926e+000	-6.7191256458e-001
 2.8673533640e+000	 2.5315824470e+000	-7.5175966734e-001
 2.8410062508e+000	 2.5611146954e+000	-7.9860051798e-001
 2.8143478041e+000	 2.5903805584e+000	-8.1329505425e-001
 2.7873820856e+000	 2.6193751371e+000	-7.9672530537e-001
 2.7601132593e+000	 2.6480936153e+000	-7.4979347122e-001
 2.7325455894e+000	 2.6765312630e+000	-6.7341998971e-001
 2.7046834380e+000	 2.7046834380e+000	-5.6854159727e-001
 2.9889597722e+000	 2.4266477866e+000	-5.7855971801e-001
 2.9637326808e+000	 2.4573946766e+000	-6.1038942350e-001
 2.9381769382e+000	 2.4878939447e+000	-6.1897291546e-001
 2.9122962007e+000	 2.5181403534e+000	-6.7892247646e-001
 2.8860942356e+000	 2.5481287375e+000	-7.5631027997e-001
 2.8595749191e+000	 2.5778540071e+000	-8.0075128897e-001
 2.8327422342e+000	 2.6073111503e+000	-8.1316147760e-001
 2.8056002692e+000	 2.6364952360e+000	-7.9447860348e-001
 2.7781532153e+000	 2.6654014167e+000	-7.4566020698e-001
 2.7504053645e+000	 2.6940249314e+000	-6.6768159924e-001
 2.7223611076e+000	 2.7223611076e+000	-5.6153384432e-001
 3.0083686019e+000	 2.4424052398e+000	-5.1518396378e-001
 2.9829776982e+000	 2.4733517849e+000	-5.5125345892e-001
 2.9572560092e+000	 2.5040491002e+000	-5.8035473314e-001
 2.9312072150e+000	 2.5344919141e+000	-6.8959180070e-001
 2.9048351073e+000	 2.5646750280e+000	-7.6498946851e-001
 2.8781435874e+000	 2.5945933189e+000	-8.0749633869e-001
 2.8511366643e+000	 2.6242417422e+000	-8.1808455277e-001
 2.8238184528e+000	 2.6536153349e+000	-7.9774772594e-001
 2.7961931712e+000	 2.6827092181e+000	-7.4749886580e-001
 2.7682651396e+000	 2.7115185997e+000	-6.6836828065e-001
 2.7400387771e+000	 2.7400387771e+000	-5.6140148298e-001
 3.0277774315e+000	 2.4581626929e+000	-4.5751975595e-001
 3.0022227156e+000	 2.4893088932e+000	-4.9836530341e-001
 2.9763350802e+000	 2.5202042556e+000	-5.9612639960e-001
 2.9501182293e+000	 2.5508434748e+000	-7.0383163979e-001
 2.9235759790e+000	 2.5812213185e+000	-7.7769362873e-001
 2.8967122557e+000	 2.6113326306e+000	-8.1871750679e-001
 2.8695310944e+000	 2.6411723341e+000	-8.2793172344e-001
 2.8420366363e+000	 2.6707354339e+000	-8.0638588991e-001
 2.8142331272e+000	 2.7000170196e+000	-7.5514861701e-001
 2.7861249147e+000	 2.7290122681e+000	-6.7530534331e-001
 2.7577164466e+000	 2.7577164466e+000	-5.6795615935e-001
 3.0471862612e+000	 2.4739201461e+000	-4.0593891693e-001
 3.0214677330e+000	 2.5052660015e+000	-4.7343131337e-001
 2.9954141513e+000	 2.5363594111e+000	-6.1493505511e-001
 2.9690292436e+000	 2.5671950356e+000	-7.2155183707e-001
 2.9423168506e+000	 2.5977676090e+000	-7.9431820303e-001
 2.9152809240e+000	 2.6280719423e+000	-8.3429598316e-001
 2.8879255245e+000	 2.6581029260e+000	-8.4257008470e-001
 2.8602548199e+000	 2.6878555328e+000	-8.2024626262e-001
 2.8322730831e+000	 2.7173248210e+000	-7.6844887603e-001
 2.8039846898e+000	 2.7465059365e+000	-6.8831863576e-001
 2.7753941161e+000	 2.7753941161e+000	-5.8101034889e-001
 3.0665950909e+000	 2.4896775993e+000	-3.6081114980e-001
 3.0407127505e+000	 2.5212231098e+000	-4.9579181187e-001
 3.0144932223e+000	 2.5525145666e+000	-6.3670356535e-001
 2.9879402579e+000	 2.5835465963e+000	-7.4266101652e-001
 2.9610577223e+000	 2.6143138995e+000	-8.1475771063e-001
 2.9338495923e+000	 2.6448112541e+000	-8.5411232847e-001
 2.9063199545e+000	 2.6750335179e+000	-8.6186639407e-001
 2.8784730034e+000	 2.7049756317e+000	-8.3918196294e-001
 2.8503130390e+000	 2.7346326224e+000	-7.8723929650e-001
 2.8218444649e+000	 2.7639996049e+000	-7.0723452864e-001
 2.7930717857e+000	 2.7930717857e+000	-6.0037733016e-001
 3.0860039206e+000	 2.5054350524e+000	-3.4372877977e-001
 3.0599577679e+000	 2.5371802180e+000	-5.2061517380e-001
 3.0335722933e+000	 2.5686697221e+000	-6.6135332625e-001
 3.0068512722e+000	 2.5998981570e+000	-7.6706662115e-001
 2.9797985939e+000	 2.6308601900e+000	-8.3890577659e-001
 2.9524182606e+000	 2.6615505658e+000	-8.7804649393e-001
 2.9247143846e+000	 2.6919641097e+000	-8.8568708212e-001
 2.8966911870e+000	 2.7220957307e+000	-8.6304606290e-001
 2.8683529950e+000	 2.7519404238e+000	-8.1135976282e-001
 2.8397042400e+000	 2.7814932733e+000	-7.3187989832e-001
 2.8107494552e+000	 2.8107494552e+000	-6.2587115959e-001
 3.1054127503e+000	 2.5211925056e+000	-3.7058671848e-001
 3.0792027853e+000	 2.5531373263e+000	-5.4783516835e-001
 3.0526513643e+000	 2.5848248776e+000	-6.8880430988e-001
 3.0257622864e+000	 2.6162497178e+000	-7.9467494988e-001
 2.9985394656e+000	 2.6474064805e+000	-8.6665515973e-001
 2.9709869289e+000	 2.6782898775e+000	-9.0597784039e-001
 2.9431088147e+000	 2.7088947016e+000	-9.1389826272e-001
 2.9149093706e+000	 2.7392158296e+000	-8.9169158915e-001
 2.8863929509e+000	 2.7692482252e+000	-8.4065038293e-001
 2.8575640151e+000	 2.7989869417e+000	-7.6208211105e-001
 2.8284271247e+000	 2.8284271247e+000	-6.5730664714e-001
 2.6516504295e+000	 2.6516504295e+000	-6.3271376579e-001
 2.6240502578e+000	 2.6789662642e+000	-6.8134023124e-001
 2.5961702111e+000	 2.7059933915e+000	-7.2803439645e-001
 2.5680148403e+000	 2.7327275349e+000	-7.7361974429e-001
 2.5395887828e+000	 2.7591645138e+000	-8.1890725199e-001
 2.5108967602e+000	 2.7853002459e+000	-8.6469372177e-001
 2.4819435755e+000	 2.8111307490e+000	-8.6865935089e-001
 2.4527341104e+000	 2.8366521436e+000	-8.5047742805e-001
 2.4232733227e+000	 2.8618606541e+000	-8.3744559667e-001
 2.3935662434e+000	 2.8867526112e+000	-8.3024254318e-001
 2.3636179740e+000	 2.9113244534e+000	-8.2950629669e-001
 2.6693280990e+000	 2.6693280990e+000	-6.0394100520e-001
 2.6415439262e+000	 2.6968260392e+000	-6.5087843666e-001
 2.6134780125e+000	 2.7240333475e+000	-6.9578584184e-001
 2.5851349392e+000	 2.7509457185e+000	-7.3948969877e-001
 2.5565193747e+000	 2.7775589439e+000	-7.8280363440e-001
 2.5276360719e+000	 2.8038689142e+000	-8.2652673655e-001
 2.4984898660e+000	 2.8298716207e+000	-8.6782963695e-001
 2.4690856712e+000	 2.8555631579e+000	-8.4605933749e-001
 2.4394284782e+000	 2.8809397251e+000	-8.2957480925e-001
 2.4095233517e+000	 2.9059976286e+000	-8.1905153850e-001
 2.3793754271e+000	 2.9307332831e+000	-8.1512324494e-001
 2.6870057685e+000	 2.6870057685e+000	-5.8261395238e-001
 2.6590375946e+000	 2.7146858143e+000	-6.2733821925e-001
 2.6307858139e+000	 2.7420733034e+000	-6.6993853845e-001
 2.6022550381e+000	 2.7691639021e+000	-7.1124494967e-001
 2.5734499666e+000	 2.7959533740e+000	-7.5207428665e-001
 2.5443753837e+000	 2.8224375825e+000	-7.9322846987e-001
 2.5150361565e+000	 2.8486124923e+000	-8.3549284891e-001
 2.4854372319e+000	 2.8744741721e+000	-8.4564388529e-001
 2.4555836337e+000	 2.9000187961e+000	-8.2526296595e-001
 2.4254804600e+000	 2.9252426460e+000	-8.1099233842e-001
 2.3951328803e+000	 2.9501421128e+000	-8.0346178092e-001
 2.7046834380e+000	 2.7046834380e+000	-5.6854159727e-001
 2.6765312630e+000	 2.7325455894e+000	-6.1053407280e-001
 2.6480936153e+000	 2.7601132593e+000	-6.5031256991e-001
 2.6193751371e+000	 2.7873820856e+000	-6.8871125578e-001
 2.5903805584e+000	 2.8143478041e+000	-7.2655072735e-001
 2.5611146954e+000	 2.8410062508e+000	-7.6463628397e-001
 2.5315824470e+000	 2.8673533640e+000	-8.0375625077e-001
 2.5017887926e+000	 2.8933851864e+000	-8.4468035692e-001
 2.4717387892e+000	 2.9190978672e+000	-8.2412723355e-001
 2.4414375683e+000	 2.9444876634e+000	-8.0568941981e-001
 2.4108903335e+000	 2.9695509425e+000	-7.9415389361e-001
 2.7223611076e+000	 2.7223611076e+000	-5.6153384432e-001
 2.6940249314e+000	 2.7504053645e+000	-6.0028120577e-001
 2.6654014167e+000	 2.7781532153e+000	-6.3672853469e-001
 2.6364952360e+000	 2.8056002692e+000	-6.7171469103e-001
 2.6073111503e+000	 2.8327422342e+000	-7.0606459073e-001
 2.5778540071e+000	 2.8595749191e+000	-7.4058745749e-001
 2.5481287375e+000	 2.8860942356e+000	-7.7607512646e-001
 2.5181403534e+000	 2.9122962007e+000	-8.1330040405e-001
 2.4878939447e+000	 2.9381769382e+000	-8.2578410051e-001
 2.4573946766e+000	 2.9637326808e+000	-8.0276638418e-001
 2.4266477866e+000	 2.9889597722e+000	-7.8683050047e-001
 2.7400387771e+000	 2.7400387771e+000	-5.6140148298e-001
 2.7115185997e+000	 2.7682651396e+000	-5.9639551822e-001
 2.6827092181e+000	 2.7961931712e+000	-6.2900752946e-001
 2.6536153349e+000	 2.8238184528e+000	-6.6008163430e-001
 2.6242417422e+000	 2.8511366643e+000	-6.9044762291e-001
 2.5945933189e+000	 2.8781435874e+000	-7.2091918821e-001
 2.5646750280e+000	 2.9048351073e+000	-7.5229220912e-001
 2.5344919141e+000	 2.9312072150e+000	-7.8534309115e-001
 2.5040491002e+000	 2.9572560092e+000	-8.2082716831e-001
 2.4733517849e+000	 2.9829776982e+000	-8.0184598596e-001
 2.4424052398e+000	 3.0083686019e+000	-7.8112148192e-001
 2.7577164466e+000	 2.7577164466e+000	-5.6795615935e-001
 2.7290122681e+000	 2.7861249147e+000	-5.9869357968e-001
 2.7000170196e+000	 2.8142331272e+000	-6.2697113317e-001
 2.6707354339e+000	 2.8420366363e+000	-6.5363875964e-001
 2.6411723341e+000	 2.8695310944e+000	-6.7953167831e-001
 2.6113326306e+000	 2.8967122557e+000	-7.0546859564e-001
 2.5812213185e+000	 2.9235759790e+000	-7.3224996740e-001
 2.5508434748e+000	 2.9501182293e+000	-7.6065631937e-001
 2.5202042556e+000	 2.9763350802e+000	-7.9144663066e-001
 2.4893088932e+000	 3.0022227156e+000	-8.0255015958e-001
 2.4581626929e+000	 3.0277774315e+000	-7.7665571460e-001
 2.7753941161e+000	 2.7753941161e+000	-5.8101034889e-001
 2.7465059365e+000	 2.8039846898e+000	-6.0699260774e-001
 2.7173248210e+000	 2.8322730831e+000	-6.3044139165e-001
 2.6878555328e+000	 2.8602548199e+000	-6.5221302689e-001
 2.6581029260e+000	 2.8879255245e+000	-6.7314871620e-001
 2.6280719423e+000	 2.9152809240e+000	-6.9407272346e-001
 2.5977676090e+000	 2.9423168506e+000	-7.1579061385e-001
 2.5671950356e+000	 2.9690292436e+000	-7.3908755393e-001
 2.5363594111e+000	 2.9954141513e+000	-7.6472667564e-001
 2.5052660015e+000	 3.0214677330e+000	-7.9344750824e-001
 2.4739201461e+000	 3.0471862612e+000	-7.7306110337e-001
 2.7930717857e+000	 2.7930717857e+000	-6.0037733016e-001
 2.7639996049e+000	 2.8218444649e+000	-6.2111044766e-001
 2.7346326224e+000	 2.8503130390e+000	-6.3924080285e-001
 2.7049756317e+000	 2.8784730034e+000	-6.5563167262e-001
 2.6750335179e+000	 2.9063199545e+000	-6.7113079740e-001
 2.6448112541e+000	 2.9338495923e+000	-6.8656854200e-001
 2.6143138995e+000	 2.9610577223e+000	-7.0275611309e-001
 2.5835465963e+000	 2.9879402579e+000	-7.2048383796e-001
 2.5525145666e+000	 3.0144932223e+000	-7.4051950848e-001
 2.5212231098e+000	 3.0407127505e+000	-7.6360679455e-001
 2.4896775993e+000	 3.0665950909e+000	-7.6996461204e-001
 2.8107494552e+000	 2.8107494552e+000	-6.2587115959e-001
 2.7814932733e+000	 2.8397042400e+000	-6.4086555253e-001
 2.7519404238e+000	 2.8683529950e+000	-6.5319230265e-001
 2.7220957307e+000	 2.8966911870e+000	-6.6372220144e-001
 2.6919641097e+000	 2.9247143846e+000	-6.7331008106e-001
 2.6615505658e+000	 2.9524182606e+000	-6.8279295046e-001
 2.6308601900e+000	 2.9797985939e+000	-6.9298818955e-001
 2.5998981570e+000	 3.0068512722e+000	-7.0469180575e-001
 2.5686697221e+000	 3.0335722933e+000	-7.1867675741e-001
 2.5371802180e+000	 3.0599577679e+000	-7.3569134794e-001
 2.5054350524e+000	 3.0860039206e+000	-7.5645769451e-001
 2.8284271247e+000	 2.8284271247e+000	-6.5730664714e-001
 2.7989869417e+000	 2.8575640151e+000	-6.6607696432e-001
 2.7692482252e+000	 2.8863929509e+000	-6.7211925111e-001
 2.7392158296e+000	 2.9149093706e+000	-6.7631237761e-001
 2.7088947016e+000	 2.9431088147e+000	-6.7951882160e-001
 2.6782898775e+000	 2.9709869289e+000	-6.8258277923e-001
 2.6474064805e+000	 2.9985394656e+000	-6.8632833500e-001
 2.6162497178e+000	 3.0257622864e+000	-6.9155769556e-001
 2.5848248776e+000	 3.0526513643e+000	-6.9904949172e-001
 2.5531373263e+000	 3.0792027853e+000	-7.0955715270e-001
 2.5211925056e+000	 3.1054127503e+000	-7.2380735647e-001
 2.3636179740e+000	 2.9113244534e+000	-8.2950629669e-001
 2.3334336833e+000	 2.9355727287e+000	-8.2404970920e-001
 2.3030186050e+000	 2.9594940961e+000	-8.1725545720e-001
 2.2723780342e+000	 2.9830853273e+000	-8.0953575967e-001
 2.2415173246e+000	 3.0063433076e+000	-8.0126841658e-001
 2.2104418857e+000	 3.0292650379e+000	-7.9279646129e-001
 2.1791571792e+000	 3.0518476352e+000	-7.8442792496e-001
 2.1476687162e+000	 3.0740883340e+000	-7.7643571220e-001
 2.1159820543e+000	 3.0959844873e+000	-7.6905758711e-001
 2.0841027938e+000	 3.1175335675e+000	-7.6249626806e-001
 2.0520365752e+000	 3.1387331671e+000	-7.9317953371e-001
 2.3793754271e+000	 2.9307332831e+000	-8.1512324494e-001
 2.3489899079e+000	 2.9551432136e+000	-8.0420766955e-001
 2.3183720624e+000	 2.9792240568e+000	-7.9208804863e-001
 2.2875272211e+000	 3.0029725628e+000	-7.7919477241e-001
 2.2564607735e+000	 3.0263855963e+000	-7.6592263730e-001
 2.2251781649e+000	 3.0494601381e+000	-7.5263048446e-001
 2.1936848937e+000	 3.0721932861e+000	-7.3964095342e-001
 2.1619865077e+000	 3.0945822562e+000	-7.2724034997e-001
 2.1300886013e+000	 3.1166243839e+000	-7.1567862726e-001
 2.0979968124e+000	 3.1383171247e+000	-7.3836266127e-001
 2.0657168190e+000	 3.1596580548e+000	-7.8231407786e-001
 2.3951328803e+000	 2.9501421128e+000	-8.0346178092e-001
 2.3645461324e+000	 2.9747136984e+000	-7.8723367083e-001
 2.3337255197e+000	 2.9989540174e+000	-7.6995228996e-001
 2.3026764080e+000	 3.0228597983e+000	-7.5206622572e-001
 2.2714042223e+000	 3.0464278850e+000	-7.3398726941e-001
 2.2399144442e+000	 3.0696552384e+000	-7.1609004117e-001
 2.2082126082e+000	 3.0925389370e+000	-6.9871173286e-001
 2.1763042991e+000	 3.1150761784e+000	-6.8215196833e-001
 2.1441951483e+000	 3.1372642805e+000	-6.9563757140e-001
 2.1118908310e+000	 3.1591006818e+000	-7.3297712271e-001
 2.0793970629e+000	 3.1805829426e+000	-7.7065974123e-001
 2.4108903335e+000	 2.9695509425e+000	-7.9415389361e-001
 2.3801023570e+000	 2.9942841833e+000	-7.7275683681e-001
 2.3490789771e+000	 3.0186839780e+000	-7.5047464419e-001
 2.3178255949e+000	 3.0427470338e+000	-7.2777412802e-001
 2.2863476711e+000	 3.0664701738e+000	-7.0508407459e-001
 2.2546507234e+000	 3.0898503386e+000	-6.8279485544e-001
 2.2227403228e+000	 3.1128845879e+000	-6.6125815977e-001
 2.1906220906e+000	 3.1355701007e+000	-6.6454111075e-001
 2.1583016954e+000	 3.1579041771e+000	-6.9547371646e-001
 2.1257848497e+000	 3.1798842389e+000	-7.2674940526e-001
 2.0930773067e+000	 3.2015078304e+000	-7.5827577748e-001
 2.4266477866e+000	 2.9889597722e+000	-7.8683050047e-001
 2.3956585816e+000	 3.0138546681e+000	-7.6040529907e-001
 2.3644324345e+000	 3.0384139387e+000	-7.3328066221e-001
 2.3329747818e+000	 3.0626342693e+000	-7.0594165652e-001
 2.3012911200e+000	 3.0865124625e+000	-6.7883406480e-001
 2.2693870027e+000	 3.1100454389e+000	-6.5236398372e-001
 2.2372680373e+000	 3.1332302388e+000	-6.4458137586e-001
 2.2049398820e+000	 3.1560640229e+000	-6.6933884296e-001
 2.1724082424e+000	 3.1785440737e+000	-6.9442086371e-001
 2.1396788683e+000	 3.2006677960e+000	-7.1974222634e-001
 2.1067575505e+000	 3.2224327182e+000	-7.4522119150e-001
 2.4424052398e+000	 3.0083686019e+000	-7.8112148192e-001
 2.4112148061e+000	 3.0334251530e+000	-7.4980622898e-001
 2.3797858918e+000	 3.0581438993e+000	-7.1799501228e-001
 2.3481239687e+000	 3.0825215048e+000	-6.8619118398e-001
 2.3162345688e+000	 3.1065547512e+000	-6.5485752642e-001
 2.2841232819e+000	 3.1302405392e+000	-6.3523782684e-001
 2.2517957518e+000	 3.1535758897e+000	-6.5407837258e-001
 2.2192576734e+000	 3.1765579451e+000	-6.7320689411e-001
 2.1865147894e+000	 3.1991839703e+000	-6.9254499855e-001
 2.1535728869e+000	 3.2214513531e+000	-7.1201798064e-001
 2.1204377944e+000	 3.2433576059e+000	-7.3155474739e-001
 2.4581626929e+000	 3.0277774315e+000	-7.7665571460e-001
 2.4267710307e+000	 3.0529956378e+000	-7.4058586849e-001
 2.3951393492e+000	 3.0778738600e+000	-7.0424150827e-001
 2.3632731556e+000	 3.1024087403e+000	-6.6814430451e-001
 2.3311780176e+000	 3.1265970399e+000	-6.3596148948e-001
 2.2988595611e+000	 3.1504356394e+000	-6.4916919781e-001
 2.2663234664e+000	 3.1739215406e+000	-6.6261080387e-001
 2.2335754649e+000	 3.1970518674e+000	-6.7621432854e-001
 2.2006213364e+000	 3.2198238668e+000	-6.8991171505e-001
 2.1674669055e+000	 3.2422349102e+000	-7.0363875046e-001
 2.1341180382e+000	 3.2642824937e+000	-7.1733497624e-001
 2.4739201461e+000	 3.0471862612e+000	-7.7306110337e-001
 2.4423272552e+000	 3.0725661227e+000	-7.3236955972e-001
 2.4104928066e+000	 3.0976038206e+000	-6.9164313690e-001
 2.3784223425e+000	 3.1222959759e+000	-6.5142185838e-001
 2.3461214665e+000	 3.1466393286e+000	-6.5405945776e-001
 2.3135958404e+000	 3.1706307397e+000	-6.6210658781e-001
 2.2808511809e+000	 3.1942671915e+000	-6.7025063051e-001
 2.2478932563e+000	 3.2175457896e+000	-6.7842975577e-001
 2.2147278835e+000	 3.2404637634e+000	-6.8658622841e-001
 2.1813609242e+000	 3.2630184674e+000	-6.9466631568e-001
 2.1477982820e+000	 3.2852073815e+000	-7.0262018350e-001
 2.4896775993e+000	 3.0665950909e+000	-7.6996461204e-001
 2.4578834798e+000	 3.0921366076e+000	-7.2478177347e-001
 2.4258462639e+000	 3.1173337812e+000	-6.7982208389e-001
 2.3935715294e+000	 3.1421832114e+000	-6.6816885160e-001
 2.3610649153e+000	 3.1666816174e+000	-6.7113917492e-001
 2.3283321196e+000	 3.1908258399e+000	-6.7412467773e-001
 2.2953788954e+000	 3.2146128424e+000	-6.7706929970e-001
 2.2622110478e+000	 3.2380397118e+000	-6.7992134482e-001
 2.2288344305e+000	 3.2611036600e+000	-6.8263338697e-001
 2.1952549428e+000	 3.2838020245e+000	-6.8516216330e-001
 2.1614785259e+000	 3.3061322693e+000	-6.8746845614e-001
 2.5054350524e+000	 3.0860039206e+000	-7.5645769451e-001
 2.4734397043e+000	 3.1117070924e+000	-7.1744613655e-001
 2.4411997213e+000	 3.1370637419e+000	-6.9088904059e-001
 2.4087207162e+000	 3.1620704469e+000	-6.8912476452e-001
 2.3760083641e+000	 3.1867239061e+000	-6.8727787162e-001
 2.3430683989e+000	 3.2110209402e+000	-6.8529758066e-001
 2.3099066099e+000	 3.2349584933e+000	-6.8313776116e-001
 2.2765288392e+000	 3.2585336340e+000	-6.8075683813e-001
 2.2429409775e+000	 3.2817435566e+000	-6.7811768375e-001
 2.2091489614e+000	 3.3045855816e+000	-6.7518749668e-001
 2.1751587697e+000	 3.3270571571e+000	-6.7193766952e-001
 2.5211925056e+000	 3.1054127503e+000	-7.2380735647e-001
 2.4889959289e+000	 3.1312775773e+000	-7.2158413824e-001
 2.4565531787e+000	 3.1567937025e+000	-7.1545125130e-001
 2.4238699031e+000	 3.1819576824e+000	-7.0912260056e-001
 2.3909518130e+000	 3.2067661948e+000	-7.0255216075e-001
 2.3578046781e+000	 3.2312160404e+000	-6.9569885958e-001
 2.3244343245e+000	 3.2553041442e+000	-6.8852648271e-001
 2.2908466307e+000	 3.2790275563e+000	-6.8100356482e-001
 2.2570475246e+000	 3.3023834532e+000	-6.7310326750e-001
 2.2230429801e+000	 3.3253691387e+000	-6.6480324436e-001
 2.1888390135e+000	 3.3479820449e+000	-6.5608549400e-001
 2.0520365752e+000	 3.1387331671e+000	-7.9317953371e-001
 2.0197890756e+000	 3.1595809991e+000	-7.7523261687e-001
 1.9873660057e+000	 3.1800748984e+000	-7.5043958315e-001
 1.9547731064e+000	 3.2002128214e+000	-7.1897389288e-001
 1.9220161459e+000	 3.2199928470e+000	-6.8101648594e-001
 1.8891009162e+000	 3.2394131765e+000	-6.3675539420e-001
 1.8560332301e+000	 3.2584721341e+000	-6.2032466171e-001
 1.8228189179e+000	 3.2771681667e+000	-6.2602128540e-001
 1.7894638242e+000	 3.2954998440e+000	-6.2852716273e-001
 1.7559738049e+000	 3.3134658586e+000	-6.2694160461e-001
 1.7223547240e+000	 3.3310650256e+000	-6.2040476316e-001
 2.0657168190e+000	 3.1596580548e+000	-7.8231407786e-001
 2.0332543361e+000	 3.1806448724e+000	-7.6338151909e-001
 2.0006151124e+000	 3.2012753977e+000	-7.3800117822e-001
 1.9678049271e+000	 3.2215475736e+000	-7.0635633493e-001
 1.9348295869e+000	 3.2414594660e+000	-6.6863741047e-001
 1.9016949223e+000	 3.2610092644e+000	-6.2504156959e-001
 1.8684067849e+000	 3.2801952817e+000	-5.8796800034e-001
 1.8349710440e+000	 3.2990159544e+000	-5.9679108781e-001
 1.8013935830e+000	 3.3174698430e+000	-6.0263275485e-001
 1.7676802970e+000	 3.3355556310e+000	-6.0457202135e-001
 1.7338370888e+000	 3.3532721258e+000	-6.0172932679e-001
 2.0793970629e+000	 3.1805829426e+000	-7.7065974123e-001
 2.0467195966e+000	 3.2017087458e+000	-7.5085611734e-001
 2.0138642191e+000	 3.2224758970e+000	-7.2499617697e-001
 1.9808367478e+000	 3.2428823257e+000	-6.9327302962e-001
 1.9476430278e+000	 3.2629260850e+000	-6.5588659399e-001
 1.9142889284e+000	 3.2826053522e+000	-6.1304318947e-001
 1.8807803398e+000	 3.3019184292e+000	-5.6495511849e-001
 1.8471231701e+000	 3.3208637422e+000	-5.6610915987e-001
 1.8133233418e+000	 3.3394398419e+000	-5.7551791417e-001
 1.7793867890e+000	 3.3576454034e+000	-5.8119856812e-001
 1.7453194536e+000	 3.3754792260e+000	-5.8225144643e-001
 2.0930773067e+000	 3.2015078304e+000	-7.5827577748e-001
 2.0601848571e+000	 3.2227726191e+000	-7.3771185180e-001
 2.0271133258e+000	 3.2436763964e+000	-7.1147629168e-001
 1.9938685685e+000	 3.2642170778e+000	-6.7977204857e-001
 1.9604564688e+000	 3.2843927040e+000	-6.4280855644e-001
 1.9268829345e+000	 3.3042014401e+000	-6.0080131262e-001
 1.8931538947e+000	 3.3236415768e+000	-5.5397144996e-001
 1.8592752962e+000	 3.3427115300e+000	-5.3401080260e-001
 1.8252531007e+000	 3.3614098409e+000	-5.4721776811e-001
 1.7910932810e+000	 3.3797351758e+000	-5.5685620940e-001
 1.7568018184e+000	 3.3976863261e+000	-5.6200593176e-001
 2.1067575505e+000	 3.2224327182e+000	-7.4522119150e-001
 2.0736501176e+000	 3.2438364924e+000	-7.2400399838e-001
 2.0403624325e+000	 3.2648768957e+000	-6.9749315200e-001
 2.0069003892e+000	 3.2855518300e+000	-6.6590145965e-001
 1.9732699098e+000	 3.3058593229e+000	-6.2944788996e-001
 1.9394769406e+000	 3.3257975279e+000	-5.8835714309e-001
 1.9055274495e+000	 3.3453647243e+000	-5.4285921260e-001
 1.8714274223e+000	 3.3645593178e+000	-5.0053159956e-001
 1.8371828595e+000	 3.3833798398e+000	-5.1776779092e-001
 1.8027997731e+000	 3.4018249482e+000	-5.3158031768e-001
 1.7682841833e+000	 3.4198934263e+000	-5.4102805871e-001
 2.1204377944e+000	 3.2433576059e+000	-7.3155474739e-001
 2.0871153781e+000	 3.2649003657e+000	-7.0978767400e-001
 2.0536115392e+000	 3.2860773950e+000	-6.8309830770e-001
 2.0199322099e+000	 3.3068865821e+000	-6.5170932709e-001
 1.9860833507e+000	 3.3273259419e+000	-6.1584925655e-001
 1.9520709467e+000	 3.3473936158e+000	-5.7575202551e-001
 1.9179010044e+000	 3.3670878719e+000	-5.3165651997e-001
 1.8835795485e+000	 3.3864071056e+000	-4.8380612733e-001
 1.8491126183e+000	 3.4053498388e+000	-4.8720379243e-001
 1.8145062651e+000	 3.4239147206e+000	-5.0540666031e-001
 1.7797665481e+000	 3.4421005265e+000	-5.1935355445e-001
 2.1341180382e+000	 3.2642824937e+000	-7.1733497624e-001
 2.1005806386e+000	 3.2859642391e+000	-6.9511784171e-001
 2.0668606459e+000	 3.3072778943e+000	-6.6834323114e-001
 2.0329640306e+000	 3.3282213343e+000	-6.3724371162e-001
 1.9988967917e+000	 3.3487925609e+000	-6.0205738586e-001
 1.9646649528e+000	 3.3689897036e+000	-5.6302744056e-001
 1.9302745593e+000	 3.3888110195e+000	-5.2040168742e-001
 1.8957316746e+000	 3.4082548933e+000	-4.7443209783e-001
 1.8610423772e+000	 3.4273198378e+000	-4.5556190733e-001
 1.8262127571e+000	 3.4460044930e+000	-4.7837138688e-001
 1.7912489129e+000	 3.4643076266e+000	-4.9701858292e-001
 2.1477982820e+000	 3.2852073815e+000	-7.0262018350e-001
 2.1140458991e+000	 3.3070281124e+000	-6.8004931557e-001
 2.0801097526e+000	 3.3284783936e+000	-6.5327931982e-001
 2.0459958514e+000	 3.3495560864e+000	-6.2255267055e-001
 2.0117102327e+000	 3.3702591799e+000	-5.8811707301e-001
 1.9772589590e+000	 3.3905857914e+000	-5.5022500068e-001
 1.9426481142e+000	 3.4105341670e+000	-5.0913322561e-001
 1.9078838007e+000	 3.4301026811e+000	-4.6510234304e-001
 1.8729721360e+000	 3.4492898367e+000	-4.2287858482e-001
 1.8379192492e+000	 3.4680942654e+000	-4.5051101698e-001
 1.8027312778e+000	 3.4865147268e+000	-4.7405973091e-001
 2.1614785259e+000	 3.3061322693e+000	-6.8746845614e-001
 2.1275111596e+000	 3.3280919857e+000	-6.6463676537e-001
 2.0933588593e+000	 3.3496788930e+000	-6.3795789868e-001
 2.0590276721e+000	 3.3708908386e+000	-6.0768425791e-001
 2.0245236737e+000	 3.3917257989e+000	-5.7407317654e-001
 1.9898529651e+000	 3.4121818793e+000	-5.3738644584e-001
 1.9550216690e+000	 3.4322573146e+000	-4.9788983439e-001
 1.9200359268e+000	 3.4519504689e+000	-4.5585260238e-001
 1.8849018948e+000	 3.4712598357e+000	-4.1154701169e-001
 1.8496257412e+000	 3.4901840378e+000	-4.2186242856e-001
 1.8142136426e+000	 3.5087218270e+000	-4.5051399468e-001
 2.1751587697e+000	 3.3270571571e+000	-6.7193766952e-001
 2.1409764201e+000	 3.3491558591e+000	-6.4893472119e-001
 2.1066079660e+000	 3.3708793923e+000	-6.2243022242e-001
 2.0720594928e+000	 3.3922255907e+000	-5.9268652451e-001
 2.0373371146e+000	 3.4131924178e+000	-5.5997061641e-001
 2.0024469712e+000	 3.4337779671e+000	-5.2455363960e-001
 1.9673952239e+000	 3.4539804622e+000	-4.8671039677e-001
 1.9321880529e+000	 3.4737982567e+000	-4.4671885563e-001
 1.8968316537e+000	 3.4932298346e+000	-4.0485964897e-001
 1.8613322332e+000	 3.5122738102e+000	-3.9246284663e-001
 1.8256960074e+000	 3.5309289271e+000	-4.2641876708e-001
 2.1888390135e+000	 3.3479820449e+000	-6.5608549400e-001
 2.1544416806e+000	 3.3702197324e+000	-6.3299757772e-001
 2.1198570727e+000	 3.3920798916e+000	-6.0674747769e-001
 2.0850913135e+000	 3.4135603429e+000	-5.7760751808e-001
 2.0501505556e+000	 3.4346590368e+000	-5.4585437205e-001
 2.0150409773e+000	 3.4553740550e+000	-5.1176856519e-001
 1.9797687788e+000	 3.4757036097e+000	-4.7563397328e-001
 1.9443401791e+000	 3.4956460444e+000	-4.3773731542e-001
 1.9087614125e+000	 3.5151998336e+000	-3.9836764405e-001
 1.8730387253e+000	 3.5343635826e+000	-3.6234983238e-001
 1.8371783722e+000	 3.5531360273e+000	-4.0181182517e-001
 1.7223547240e+000	 3.3310650256e+000	-6.2040476316e-001
 1.6886124501e+000	 3.3482962822e+000	-5.7725879399e-001
 1.6547528541e+000	 3.3651586875e+000	-5.3701983082e-001
 1.6207818052e+000	 3.3816514220e+000	-4.9916432822e-001
 1.5867051686e+000	 3.3977737871e+000	-4.6320293164e-001
 1.5525288020e+000	 3.4135252041e+000	-4.2868118710e-001
 1.5182585531e+000	 3.4289052139e+000	-3.9518015227e-001
 1.4839002560e+000	 3.4439134760e+000	-3.6231690892e-001
 1.4494597290e+000	 3.4585497675e+000	-3.2974497743e-001
 1.4149427715e+000	 3.4728139820e+000	-2.9715463392e-001
 1.3803551609e+000	 3.4867061290e+000	-2.6427313114e-001
 1.7338370888e+000	 3.3532721258e+000	-6.0172932679e-001
 1.6998698665e+000	 3.3706182574e+000	-5.6707367931e-001
 1.6657845398e+000	 3.3875930787e+000	-5.3426842563e-001
 1.6315870172e+000	 3.4041957648e+000	-5.0273975564e-001
 1.5972832030e+000	 3.4204256123e+000	-4.7195014476e-001
 1.5628789940e+000	 3.4362820388e+000	-4.4139910174e-001
 1.5283802767e+000	 3.4517645820e+000	-4.1062381364e-001
 1.4937929244e+000	 3.4668728992e+000	-3.7919968809e-001
 1.4591227939e+000	 3.4816067659e+000	-3.4674079353e-001
 1.4243757233e+000	 3.4959660752e+000	-3.1290019790e-001
 1.3895575286e+000	 3.5099508365e+000	-2.7737020709e-001
 1.7453194536e+000	 3.3754792260e+000	-5.8225144643e-001
 1.7111272828e+000	 3.3929402326e+000	-5.5540599229e-001
 1.6768162255e+000	 3.4100274700e+000	-5.2935522277e-001
 1.6423922293e+000	 3.4267401076e+000	-5.0347503642e-001
 1.6078612375e+000	 3.4430774376e+000	-4.7717972191e-001
 1.5732291861e+000	 3.4590388735e+000	-4.4992274398e-001
 1.5385020004e+000	 3.4746239501e+000	-4.2119742238e-001
 1.5036855927e+000	 3.4898323224e+000	-3.9053750412e-001
 1.4687858588e+000	 3.5046637644e+000	-3.5751762929e-001
 1.4338086751e+000	 3.5191181684e+000	-3.2175369146e-001
 1.3987598963e+000	 3.5331955441e+000	-2.8290309357e-001
 1.7568018184e+000	 3.3976863261e+000	-5.6200593176e-001
 1.7223846991e+000	 3.4152622078e+000	-5.4230737479e-001
 1.6878479112e+000	 3.4324618612e+000	-5.2234837090e-001
 1.6531974413e+000	 3.4492844505e+000	-5.0145449244e-001
 1.6184392720e+000	 3.4657292628e+000	-4.7899181669e-001
 1.5835793781e+000	 3.4817957082e+000	-4.5436775008e-001
 1.5486237241e+000	 3.4974833182e+000	-4.2703174125e-001
 1.5135782611e+000	 3.5127917456e+000	-3.9647588317e-001
 1.4784489236e+000	 3.5277207628e+000	-3.6223540473e-001
 1.4432416269e+000	 3.5422702616e+000	-3.2388905278e-001
 1.4079622641e+000	 3.5564402516e+000	-2.8105936546e-001
 1.7682841833e+000	 3.4198934263e+000	-5.4102805871e-001
 1.7336421155e+000	 3.4375841830e+000	-5.2782954910e-001
 1.6988795969e+000	 3.4548962525e+000	-5.1331571881e-001
 1.6640026533e+000	 3.4718287933e+000	-4.9676177104e-001
 1.6290173064e+000	 3.4883810881e+000	-4.7748553932e-001
 1.5939295701e+000	 3.5045525429e+000	-4.5484835010e-001
 1.5587454478e+000	 3.5203426863e+000	-4.2825576997e-001
 1.5234709295e+000	 3.5357511687e+000	-3.9715823777e-001
 1.4881119885e+000	 3.5507777613e+000	-3.6105158201e-001
 1.4526745787e+000	 3.5654223549e+000	-3.1947742441e-001
 1.4171646318e+000	 3.5796849591e+000	-2.7202347083e-001
 1.7797665481e+000	 3.4421005265e+000	-5.1935355445e-001
 1.7448995318e+000	 3.4599061583e+000	-5.1202431534e-001
 1.7099112826e+000	 3.4773306437e+000	-5.0232482504e-001
 1.6748078654e+000	 3.4943731361e+000	-4.8947986676e-001
 1.6395953409e+000	 3.5110329133e+000	-4.7275899030e-001
 1.6042797621e+000	 3.5273093776e+000	-4.5147741316e-001
 1.5688671715e+000	 3.5432020544e+000	-4.2499680206e-001
 1.5333635979e+000	 3.5587105919e+000	-3.9272593504e-001
 1.4977750533e+000	 3.5738347597e+000	-3.5412124471e-001
 1.4621075305e+000	 3.5885744481e+000	-3.0868724346e-001
 1.4263669996e+000	 3.6029296666e+000	-2.5597683176e-001
 1.7912489129e+000	 3.4643076266e+000	-4.9701858292e-001
 1.7561569481e+000	 3.4822281335e+000	-4.9494354896e-001
 1.7209429682e+000	 3.4997650350e+000	-4.8944296724e-001
 1.6856130774e+000	 3.5169174789e+000	-4.7969114231e-001
 1.6501733753e+000	 3.5336847386e+000	-4.6490929280e-001
 1.6146299541e+000	 3.5500662123e+000	-4.4436649117e-001
 1.5789888952e+000	 3.5660614225e+000	-4.1738047960e-001
 1.5432562662e+000	 3.5816700151e+000	-3.8331836219e-001
 1.5074381182e+000	 3.5968917582e+000	-3.4159717409e-001
 1.4715404823e+000	 3.6117265413e+000	-2.9168432829e-001
 1.4355693673e+000	 3.6261743742e+000	-2.3309794136e-001
 1.8027312778e+000	 3.4865147268e+000	-4.7405973091e-001
 1.7674143645e+000	 3.5045501087e+000	-4.7663919837e-001
 1.7319746539e+000	 3.5221994262e+000	-4.7473715110e-001
 1.6964182894e+000	 3.5394618217e+000	-4.6747734866e-001
 1.6607514098e+000	 3.5563365638e+000	-4.5403262375e-001
 1.6249801461e+000	 3.5728230470e+000	-4.3362586068e-001
 1.5891106189e+000	 3.5889207906e+000	-4.0553084575e-001
 1.5531489346e+000	 3.6046294383e+000	-3.6907298964e-001
 1.5171011831e+000	 3.6199487566e+000	-3.2362992241e-001
 1.4809734342e+000	 3.6348786345e+000	-2.6863196192e-001
 1.4447717350e+000	 3.6494190817e+000	-2.0356245703e-001
 1.8142136426e+000	 3.5087218270e+000	-4.5051399468e-001
 1.7786717808e+000	 3.5268720839e+000	-4.5716328258e-001
 1.7430063396e+000	 3.5446338175e+000	-4.5827411892e-001
 1.7072235015e+000	 3.5620061645e+000	-4.5291964441e-001
 1.6713294442e+000	 3.5789883890e+000	-4.4022424381e-001
 1.6353303381e+000	 3.5955798816e+000	-4.1936456329e-001
 1.5992323426e+000	 3.6117801587e+000	-3.8957039539e-001
 1.5630416030e+000	 3.6275888614e+000	-3.5012543162e-001
 1.5267642479e+000	 3.6430057551e+000	-3.0036788343e-001
 1.4904063860e+000	 3.6580307277e+000	-2.3969097227e-001
 1.4539741028e+000	 3.6726637892e+000	-1.6754329018e-001
 1.8256960074e+000	 3.5309289271e+000	-4.2641876708e-001
 1.7899291972e+000	 3.5491940591e+000	-4.3656788904e-001
 1.7540380253e+000	 3.5670682087e+000	-4.4012035794e-001
 1.7180287135e+000	 3.5845505073e+000	-4.3609861440e-001
 1.6819074787e+000	 3.6016402143e+000	-4.2357852616e-001
 1.6456805302e+000	 3.6183367163e+000	-4.0169044450e-001
 1.6093540662e+000	 3.6346395268e+000	-3.6962012380e-001
 1.5729342714e+000	 3.6505482846e+000	-3.2660950458e-001
 1.5364273128e+000	 3.6660627535e+000	-2.7195736033e-001
 1.4998393378e+000	 3.6811828209e+000	-2.0501980936e-001
 1.4631764705e+000	 3.6959084967e+000	-1.2521069264e-001
 1.8371783722e+000	 3.5531360273e+000	-4.0181182517e-001
 1.8011866135e+000	 3.5715160343e+000	-4.1490517145e-001
 1.7650697110e+000	 3.5895026000e+000	-4.2034210828e-001
 1.7288339256e+000	 3.6070948501e+000	-4.1709428767e-001
 1.6924855132e+000	 3.6242920395e+000	-4.0418898427e-001
 1.6560307222e+000	 3.6410935510e+000	-3.8071019103e-001
 1.6194757899e+000	 3.6574988949e+000	-3.4579957352e-001
 1.5828269397e+000	 3.6735077078e+000	-2.9865728334e-001
 1.5460903777e+000	 3.6891197520e+000	-2.3854263105e-001
 1.5092722896e+000	 3.7043349141e+000	-1.6477461962e-001
 1.4723788383e+000	 3.7191532043e+000	-7.6732339716e-002
 1.3803551609e+000	 3.4867061290e+000	-2.6427313114e-001
 1.3457026502e+000	 3.5002263323e+000	-3.9922971572e-001
 1.3109909654e+000	 3.5133748290e+000	-5.2765129625e-001
 1.2762258024e+000	 3.5261519680e+000	-6.4841215134e-001
 1.2414128249e+000	 3.5385582090e+000	-6.9896893576e-001
 1.2065576614e+000	 3.5505941207e+000	-5.5300673429e-001
 1.1716659033e+000	 3.5622603795e+000	-4.0154628913e-001
 1.1367431019e+000	 3.5735577679e+000	-2.4796169889e-001
 1.1017947664e+000	 3.5844871729e+000	-9.5263528894e-002
 1.0668263616e+000	 3.5950495844e+000	 5.3892908523e-002
 1.0318433056e+000	 3.6052460932e+000	 1.9719868436e-001
 1.3895575286e+000	 3.5099508365e+000	-2.7737020709e-001
 1.3546740012e+000	 3.5235611745e+000	-3.8847958595e-001
 1.3197309052e+000	 3.5367973278e+000	-4.9487877457e-001
 1.2847339744e+000	 3.5496596478e+000	-5.9547286591e-001
 1.2496889104e+000	 3.5621485970e+000	-6.8704437884e-001
 1.2146013792e+000	 3.5742647481e+000	-5.3095361652e-001
 1.1794770093e+000	 3.5860087820e+000	-3.7558961733e-001
 1.1443213892e+000	 3.5973814863e+000	-2.2434113017e-001
 1.1091400648e+000	 3.6083837541e+000	-8.0221145052e-002
 1.0739385374e+000	 3.6190165816e+000	 5.4124525533e-002
 1.0387222610e+000	 3.6292810672e+000	 1.7640806064e-001
 1.3987598963e+000	 3.5331955441e+000	-2.8290309357e-001
 1.3636453522e+000	 3.5468960167e+000	-3.7141600010e-001
 1.3284708449e+000	 3.5602198267e+000	-4.5699820784e-001
 1.2932421464e+000	 3.5731673276e+000	-5.3858515630e-001
 1.2579649959e+000	 3.5857389851e+000	-6.1516389183e-001
 1.2226450969e+000	 3.5979353756e+000	-5.0543128059e-001
 1.1872881153e+000	 3.6097571845e+000	-3.4893271548e-001
 1.1518996766e+000	 3.6212052048e+000	-2.0287553731e-001
 1.1164853633e+000	 3.6322803352e+000	-7.0272945804e-002
 1.0810507131e+000	 3.6429835788e+000	 4.6241090704e-002
 1.0456012164e+000	 3.6533160411e+000	 1.4440232705e-001
 1.4079622641e+000	 3.5564402516e+000	-2.8105936546e-001
 1.3726167032e+000	 3.5702308590e+000	-3.4820210003e-001
 1.3372107847e+000	 3.5836423255e+000	-4.1414882297e-001
 1.3017503184e+000	 3.5966750074e+000	-4.7786485850e-001
 1.2662410814e+000	 3.6093293732e+000	-5.3836576887e-001
 1.2306888146e+000	 3.6216060031e+000	-4.7472730098e-001
 1.1950992213e+000	 3.6335055871e+000	-3.1987271850e-001
 1.1594779639e+000	 3.6450289232e+000	-1.8187369310e-001
 1.1238306617e+000	 3.6561769164e+000	-6.3741397083e-002
 1.0881628888e+000	 3.6669505761e+000	 3.1904413401e-002
 1.0524801718e+000	 3.6773510151e+000	 1.0282556210e-001
 1.4171646318e+000	 3.5796849591e+000	-2.7202347083e-001
 1.3815880542e+000	 3.5935657012e+000	-3.1899855500e-001
 1.3459507245e+000	 3.6070648244e+000	-3.6646801169e-001
 1.3102584905e+000	 3.6201826871e+000	-4.1342659371e-001
 1.2745171669e+000	 3.6329197612e+000	-4.5891796617e-001
 1.2387325324e+000	 3.6452766306e+000	-4.3712922632e-001
 1.2029103274e+000	 3.6572539896e+000	-2.8670730382e-001
 1.1670562512e+000	 3.6688526417e+000	-1.5964546357e-001
 1.1311759602e+000	 3.6800734975e+000	-5.8950591080e-002
 1.0952750646e+000	 3.6909175733e+000	 1.2774161578e-002
 1.0593591271e+000	 3.7013859890e+000	 5.3319205664e-002
 1.4263669996e+000	 3.6029296666e+000	-2.5597683176e-001
 1.3905594052e+000	 3.6169005434e+000	-2.8396364145e-001
 1.3546906642e+000	 3.6304873233e+000	-3.1409138975e-001
 1.3187666625e+000	 3.6436903669e+000	-3.4538380752e-001
 1.2827932524e+000	 3.6565101493e+000	-3.7691225496e-001
 1.2467762501e+000	 3.6689472580e+000	-3.9092458031e-001
 1.2107214334e+000	 3.6810023921e+000	-2.4773467395e-001
 1.1746345386e+000	 3.6926763602e+000	-1.3450177275e-001
 1.1385212586e+000	 3.7039700787e+000	-5.4226193783e-002
 1.1023872403e+000	 3.7148845705e+000	-9.4920691401e-003
 1.0662380825e+000	 3.7254209630e+000	-2.4778558874e-003
 1.4355693673e+000	 3.6261743742e+000	-2.3309794136e-001
 1.3995307562e+000	 3.6402353856e+000	-2.4325331970e-001
 1.3634306040e+000	 3.6539098221e+000	-2.5715285383e-001
 1.3272748345e+000	 3.6671980467e+000	-2.7384880756e-001
 1.2910693379e+000	 3.6801005373e+000	-2.9243983355e-001
 1.2548199679e+000	 3.6926178855e+000	-3.1207141758e-001
 1.2185325394e+000	 3.7047507947e+000	-2.0125353959e-001
 1.1822128259e+000	 3.7165000786e+000	-1.0475456877e-001
 1.1458665570e+000	 3.7278666598e+000	-4.7895394536e-002
 1.1094994161e+000	 3.7388515678e+000	-3.3238689039e-002
 1.0731170379e+000	 3.7494559369e+000	-6.2929207857e-002
 1.4447717350e+000	 3.6494190817e+000	-2.0356245703e-001
 1.4085021072e+000	 3.6635702278e+000	-1.9702130768e-001
 1.3721705438e+000	 3.6773323210e+000	-1.9578463630e-001
 1.3357830065e+000	 3.6907057265e+000	-1.9893279974e-001
 1.2993454234e+000	 3.7036909254e+000	-2.0559134557e-001
 1.2628636856e+000	 3.7162885130e+000	-2.1493145168e-001
 1.2263436454e+000	 3.7284991972e+000	-1.4556310348e-001
 1.1897911133e+000	 3.7403237971e+000	-6.8716791234e-002
 1.1532118555e+000	 3.7517632410e+000	-3.3714132174e-002
 1.1166115918e+000	 3.7628185650e+000	-2.2576124159e-002
 1.0799959932e+000	 3.7734909109e+000	-5.8125743005e-002
 1.4539741028e+000	 3.6726637892e+000	-1.6754329018e-001
 1.4174734582e+000	 3.6869050700e+000	-1.4541915194e-001
 1.3809104835e+000	 3.7007548198e+000	-1.3011735788e-001
 1.3442911785e+000	 3.7142134063e+000	-1.2074592318e-001
 1.3076215089e+000	 3.7272813135e+000	-1.1645689751e-001
 1.2709074034e+000	 3.7399591404e+000	-1.1644680001e-001
 1.2341547515e+000	 3.7522475997e+000	-7.2485629185e-002
 1.1973694006e+000	 3.7641475155e+000	 1.3471321244e-002
 1.1605571539e+000	 3.7756598221e+000	 4.5142829737e-002
 1.1237237676e+000	 3.7867855622e+000	 2.5727016896e-002
 1.0868749486e+000	 3.7975258849e+000	-4.1721304697e-002
 1.4631764705e+000	 3.6959084967e+000	-1.2521069264e-001
 1.4264448092e+000	 3.7102399122e+000	-8.8596295891e-002
 1.3896504233e+000	 3.7241773187e+000	-6.0280078325e-002
 1.3527993506e+000	 3.7377210861e+000	-3.9397283656e-002
 1.3158975944e+000	 3.7508717015e+000	-2.2164900878e-002
 1.2789511211e+000	 3.7636297679e+000	 2.5563243767e-002
 1.2419658575e+000	 3.7759960022e+000	 7.2928520605e-002
 1.2049476880e+000	 3.7879712340e+000	 1.3079826254e-001
 1.1679024524e+000	 3.7995564033e+000	 1.3319562192e-001
 1.1308359433e+000	 3.8107525595e+000	 8.3278269581e-002
 1.0937539040e+000	 3.8215608588e+000	-1.5940646943e-002
 1.4723788383e+000	 3.7191532043e+000	-7.6732339716e-002
 1.4354161602e+000	 3.7335747544e+000	-2.6700145537e-002
 1.3983903631e+000	 3.7475998176e+000	 1.3599654785e-002
 1.3613075226e+000	 3.7612287659e+000	 8.5008066501e-002
 1.3241736799e+000	 3.7744620896e+000	 1.4902913939e-001
 1.2869948389e+000	 3.7873003954e+000	 1.9627057655e-001
 1.2497769635e+000	 3.7997444048e+000	 2.2671251435e-001
 1.2125259753e+000	 3.8117949524e+000	 2.5643164790e-001
 1.1752477508e+000	 3.8234529844e+000	 2.2956989590e-001
 1.1379481191e+000	 3.8347195567e+000	 1.4924320823e-001
 1.1006328594e+000	 3.8455958328e+000	 1.8421720477e-002
 1.0318433056e+000	 3.6052460932e+000	 1.9719868436e-001
 9.9685096773e-001	 3.6150778896e+000	 2.2514201325e-001
 9.6185466627e-001	 3.6245462614e+000	 2.2985824042e-001
 9.2685966671e-001	 3.6336525918e+000	 2.1127449880e-001
 8.9187117966e-001	 3.6423983581e+000	 1.6961700409e-001
 8.5689435901e-001	 3.6507851289e+000	 1.0539873234e-001
 8.2193430012e-001	 3.6588145630e+000	 1.9406786991e-002
 7.8699603810e-001	 3.6664884066e+000	-8.7310503092e-002
 7.5208454618e-001	 3.6738084919e+000	-2.1345671302e-001
 7.1720473409e-001	 3.6807767345e+000	-3.5750063830e-001
 6.8236144655e-001	 3.6873951316e+000	-5.1768975833e-001
 1.0387222610e+000	 3.6292810672e+000	 1.7640806064e-001
 1.0034966409e+000	 3.6391784089e+000	 2.0634224324e-001
 9.6826703071e-001	 3.6487099031e+000	 2.1203461854e-001
 9.3303873116e-001	 3.6578769425e+000	 1.9341058920e-001
 8.9781698753e-001	 3.6666810138e+000	 1.5070115236e-001
 8.6260698807e-001	 3.6751236964e+000	 8.4430320474e-002
 8.2741386212e-001	 3.6832066601e+000	-4.5977752654e-003
 7.9224267836e-001	 3.6909316627e+000	-1.1531205606e-001
 7.5709844316e-001	 3.6983005485e+000	-2.4638789927e-001
 7.2198609898e-001	 3.7053152461e+000	-3.9626073312e-001
 6.8691052287e-001	 3.7119777658e+000	-5.6313978193e-001
 1.0456012164e+000	 3.6533160411e+000	 1.4440232705e-001
 1.0101423140e+000	 3.6632789282e+000	 1.7278173649e-001
 9.7467939516e-001	 3.6728735449e+000	 1.7576329536e-001
 9.3921779561e-001	 3.6821012931e+000	 1.5327418500e-001
 9.0376279540e-001	 3.6909636695e+000	 1.0555382303e-001
 8.6831961714e-001	 3.6994622640e+000	 3.3141020090e-002
 8.3289342413e-001	 3.7075987571e+000	-6.3139187618e-002
 7.9748931862e-001	 3.7153749187e+000	-1.8218898621e-001
 7.6211234014e-001	 3.7227926051e+000	-3.2265146957e-001
 7.2676746388e-001	 3.7298537576e+000	-4.8292451994e-001
 6.9145959918e-001	 3.7365604000e+000	-6.6117484226e-001
 1.0524801718e+000	 3.6773510151e+000	 1.0282556210e-001
 1.0167879871e+000	 3.6873794474e+000	 1.2609209600e-001
 9.8109175960e-001	 3.6970371866e+000	 1.2266276974e-001
 9.4539686005e-001	 3.7063256437e+000	 9.2470068282e-002
 9.0970860326e-001	 3.7152463252e+000	 3.5765485575e-002
 8.7403224620e-001	 3.7238008315e+000	-4.6893590239e-002
 8.3837298613e-001	 3.7319908542e+000	-1.5465732252e-001
 8.0273595887e-001	 3.7398181748e+000	-2.8639715827e-001
 7.6712623712e-001	 3.7472846618e+000	-4.4071980273e-001
 7.3154882878e-001	 3.7543922692e+000	-5.8489991224e-001
 6.9600867549e-001	 3.7611430342e+000	-7.1816129926e-001
 1.0593591271e+000	 3.7013859890e+000	 5.3319205664e-002
 1.0234336602e+000	 3.7114799667e+000	 6.7901619024e-002
 9.8750412404e-001	 3.7212008284e+000	 5.4347551423e-002
 9.5157592450e-001	 3.7305499943e+000	 1.2598332823e-002
 9.1565441113e-001	 3.7395289810e+000	-5.7078793472e-002
 8.7974487526e-001	 3.7481393990e+000	-1.5410406452e-001
 8.4385254813e-001	 3.7563829513e+000	-2.4568857229e-001
 8.0798259913e-001	 3.7642614308e+000	-3.4155707333e-001
 7.7214013409e-001	 3.7717767184e+000	-4.4631454506e-001
 7.3633019367e-001	 3.7789307808e+000	-5.5693524292e-001
 7.0055775180e-001	 3.7857256684e+000	-6.7051714240e-001
 1.0662380825e+000	 3.7254209630e+000	-2.4778558874e-003
 1.0300793333e+000	 3.7355804860e+000	-1.6459627517e-004
 9.9391648849e-001	 3.7453644701e+000	-2.7571710283e-002
 9.5775498894e-001	 3.7547743449e+000	-6.8210923197e-002
 9.2160021899e-001	 3.7638116367e+000	-1.1449472232e-001
 8.8545750432e-001	 3.7724779665e+000	-1.7660082700e-001
 8.4933211013e-001	 3.7807750484e+000	-2.5121086939e-001
 8.1322923938e-001	 3.7887046868e+000	-3.3514515365e-001
 7.7715403107e-001	 3.7962687750e+000	-4.2535858190e-001
 7.4111155856e-001	 3.8034692923e+000	-5.1893646702e-001
 7.0510682811e-001	 3.8103083026e+000	-6.1309024935e-001
 1.0731170379e+000	 3.7494559369e+000	-6.2929207857e-002
 1.0367250065e+000	 3.7596810052e+000	-4.7974219617e-002
 1.0003288529e+000	 3.7695281119e+000	-5.5012643626e-002
 9.6393405339e-001	 3.7789986955e+000	-8.1811560239e-002
 9.2754602686e-001	 3.7880942924e+000	-1.2485963394e-001
 8.9117013338e-001	 3.7968165341e+000	-1.8079564738e-001
 8.5481167213e-001	 3.8051671455e+000	-2.4640444928e-001
 8.1847587964e-001	 3.8131479429e+000	-3.1861275346e-001
 7.8216792804e-001	 3.8207608316e+000	-3.9448480751e-001
 7.4589292346e-001	 3.8280078039e+000	-4.7121794911e-001
 7.0965590442e-001	 3.8348909368e+000	-5.4613806789e-001
 1.0799959932e+000	 3.7734909109e+000	-5.8125743005e-002
 1.0433706796e+000	 3.7837815245e+000	-4.8102253841e-002
 1.0067412174e+000	 3.7936917536e+000	-5.8270354669e-002
 9.7011311783e-001	 3.8032230461e+000	-8.5057643449e-002
 9.3349183472e-001	 3.8123769481e+000	-1.2504971961e-001
 8.9688276244e-001	 3.8211551016e+000	-1.7498603997e-001
 8.6029123413e-001	 3.8295592426e+000	-2.3175560628e-001
 8.2372251989e-001	 3.8375911989e+000	-2.9239250371e-001
 7.8718182501e-001	 3.8452528882e+000	-3.5407130949e-001
 7.5067428835e-001	 3.8525463155e+000	-4.1410239017e-001
 7.1420498073e-001	 3.8594735710e+000	-4.6992710598e-001
 1.0868749486e+000	 3.7975258849e+000	-4.1721304697e-002
 1.0500163527e+000	 3.8078820438e+000	-3.8227734051e-002
 1.0131535818e+000	 3.8178553953e+000	-5.1678471915e-002
 9.7629218228e-001	 3.8274473967e+000	-7.8594931417e-002
 9.3943764258e-001	 3.8366596038e+000	-1.1566055974e-001
 9.0259539150e-001	 3.8454936691e+000	-1.5971643163e-001
 8.6577079613e-001	 3.8539513397e+000	-2.0775667384e-001
 8.2896916014e-001	 3.8620344550e+000	-2.5692374041e-001
 7.9219572198e-001	 3.8697449448e+000	-3.0450355846e-001
 7.5545565324e-001	 3.8770848270e+000	-3.4792056380e-001
 7.1875405704e-001	 3.8840562052e+000	-3.8473264504e-001
 1.0937539040e+000	 3.8215608588e+000	-1.5940646943e-002
 1.0566620258e+000	 3.8319825630e+000	-1.9096520574e-002
 1.0195659463e+000	 3.8420190371e+000	-3.5935314636e-002
 9.8247124672e-001	 3.8516717474e+000	-6.3073170521e-002
 9.4538345045e-001	 3.8609422596e+000	-9.7292330377e-002
 9.0830802055e-001	 3.8698322366e+000	-1.3553646545e-001
 8.7125035813e-001	 3.8783434368e+000	-1.7490583464e-001
 8.3421580039e-001	 3.8864777110e+000	-2.1265229377e-001
 7.9720961895e-001	 3.8942370014e+000	-2.4617417588e-001
 7.6023701813e-001	 3.9016233386e+000	-2.7301106234e-001
 7.2330313334e-001	 3.9086388394e+000	-2.9083846404e-001
 1.1006328594e+000	 3.8455958328e+000	 1.8421720477e-002
 1.0633076989e+000	 3.8560830823e+000	 8.5428023419e-003
 1.0259783107e+000	 3.8661826788e+000	-1.1742489126e-002
 9.8865031116e-001	 3.8758960980e+000	-3.9145970304e-002
 9.5132925831e-001	 3.8852249153e+000	-7.0549659585e-002
 9.1402064961e-001	 3.8941708042e+000	-1.0300083774e-001
 8.7672992013e-001	 3.9027355338e+000	-1.3370693774e-001
 8.3946244064e-001	 3.9109209671e+000	-1.6003028526e-001
 8.0222351592e-001	 3.9187290581e+000	-1.7948271060e-001
 7.6501838302e-001	 3.9261618501e+000	-1.8972005256e-001
 7.2785220965e-001	 3.9332214737e+000	-1.8853657399e-001
 6.8236144655e-001	 3.6873951316e+000	-5.1768975833e-001
 6.4755946190e-001	 3.6936657595e+000	 7.7613953581e-001
 6.1280349065e-001	 3.6995907722e+000	 1.4403074717e+000
 5.7809817425e-001	 3.7051723983e+000	 1.0401674139e+000
 5.4344808385e-001	 3.7104129393e+000	 7.0762698690e-001
 5.0885771918e-001	 3.7153147675e+000	 4.3912512626e-001
 4.7433150743e-001	 3.7198803235e+000	 2.3064207642e-001
 4.3987380232e-001	 3.7241121140e+000	 7.7731476714e-002
 4.0548888310e-001	 3.7280127100e+000	-2.4447723140e-002
 3.7118095373e-001	 3.7315847437e+000	-8.1099590684e-002
 3.3695414212e-001	 3.7348309073e+000	-9.7759850631e-002
 6.8691052287e-001	 3.7119777658e+000	-5.6313978193e-001
 6.5187652498e-001	 3.7182901979e+000	 5.8936852429e-001
 6.1688884725e-001	 3.7242547107e+000	 1.3366580927e+000
 5.8195216208e-001	 3.7298735476e+000	 8.9692871545e-001
 5.4707107108e-001	 3.7351490256e+000	 5.3377275502e-001
 5.1225010397e-001	 3.7400835326e+000	 2.4345871529e-001
 4.7749371748e-001	 3.7446795256e+000	 2.1783460382e-002
 4.4280629434e-001	 3.7489395281e+000	-1.3589488790e-001
 4.0819214232e-001	 3.7528661280e+000	-2.0353352283e-001
 3.7365549343e-001	 3.7564619753e+000	-2.1417023421e-001
 3.3920050307e-001	 3.7597297800e+000	-1.8796187339e-001
 6.9145959918e-001	 3.7365604000e+000	-6.6117484226e-001
 6.5619358806e-001	 3.7429146363e+000	 3.5038688724e-001
 6.2097420386e-001	 3.7489186492e+000	 1.1550186889e+000
 5.8580614991e-001	 3.7545746969e+000	 7.3473481484e-001
 5.5069405831e-001	 3.7598851118e+000	 4.1553351164e-001
 5.1564248877e-001	 3.7648522977e+000	 1.7678277102e-001
 4.8065592754e-001	 3.7694787278e+000	 8.6395415164e-003
 4.4573878635e-001	 3.7737669422e+000	-9.8274180236e-002
 4.1089540154e-001	 3.7777195461e+000	-1.5288370997e-001
 3.7613003312e-001	 3.7813392070e+000	-1.6367435356e-001
 3.4144686401e-001	 3.7846286527e+000	-1.3870435641e-001
 6.9600867549e-001	 3.7611430342e+000	-7.1816129926e-001
 6.6051065114e-001	 3.7675390747e+000	 2.2827847918e-001
 6.2505956047e-001	 3.7735825876e+000	 1.1493057423e+000
 5.8966013774e-001	 3.7792758462e+000	 7.5332236162e-001
 5.5431704553e-001	 3.7846211981e+000	 4.4352657470e-001
 5.1903487357e-001	 3.7896210628e+000	 2.1204694240e-001
 4.8381813759e-001	 3.7942779299e+000	 4.9218570797e-002
 4.4867127837e-001	 3.7985943563e+000	-5.4153764839e-002
 4.1359866076e-001	 3.8025729642e+000	-1.0680847658e-001
 3.7860457281e-001	 3.8062164386e+000	-1.1704033227e-001
 3.4369322496e-001	 3.8095275254e+000	-9.2713889124e-002
 7.0055775180e-001	 3.7857256684e+000	-6.7051714240e-001
 6.6482771422e-001	 3.7921635131e+000	 1.7924043707e-001
 6.2914491707e-001	 3.7982465261e+000	 1.0046927208e+000
 5.9351412557e-001	 3.8039769955e+000	 7.6332316332e-001
 5.5794003276e-001	 3.8093572843e+000	 4.6414904970e-001
 5.2242725836e-001	 3.8143898280e+000	 2.4102247602e-001
 4.8698034763e-001	 3.8190771321e+000	 8.4459668461e-002
 4.5160377038e-001	 3.8234217704e+000	-1.4548738939e-002
 4.1630191998e-001	 3.8274263822e+000	-6.4551064965e-002
 3.8107911250e-001	 3.8310936702e+000	-7.3648248453e-002
 3.4593958591e-001	 3.8344263981e+000	-4.9507774272e-002
 7.0510682811e-001	 3.8103083026e+000	-6.1309024935e-001
 6.6914477730e-001	 3.8167879515e+000	 1.4460123368e-001
 6.3323027367e-001	 3.8229104646e+000	 8.7909966525e-001
 5.9736811339e-001	 3.8286781449e+000	 7.6616529219e-001
 5.6156301998e-001	 3.8340933706e+000	 4.7869696866e-001
 5.2581964315e-001	 3.8391585931e+000	 2.6487258882e-001
 4.9014255768e-001	 3.8438763342e+000	 1.1539253626e-001
 4.5453626240e-001	 3.8482491845e+000	 2.1436458700e-002
 4.1900517920e-001	 3.8522798003e+000	-2.5350605268e-002
 3.8355365219e-001	 3.8559709018e+000	-3.2872400318e-002
 3.4818594685e-001	 3.8593252709e+000	-8.5958808963e-003
 7.0965590442e-001	 3.8348909368e+000	-5.4613806789e-001
 6.7346184038e-001	 3.8414123899e+000	 1.2406754866e-001
 6.3731563028e-001	 3.8475744031e+000	 7.7219804598e-001
 6.0122210122e-001	 3.8533792942e+000	 7.6327254414e-001
 5.6518600721e-001	 3.8588294569e+000	 4.8846376144e-001
 5.2921202794e-001	 3.8639273582e+000	 2.8475955885e-001
 4.9330476773e-001	 3.8686755364e+000	 1.4304758901e-001
 4.5746875441e-001	 3.8730765986e+000	 5.4699742268e-002
 4.2170843842e-001	 3.8771332183e+000	 1.1557752690e-002
 3.8602819188e-001	 3.8808481335e+000	 5.9185086030e-003
 3.5043230780e-001	 3.8842241436e+000	 3.0519117386e-002
 7.1420498073e-001	 3.8594735710e+000	-4.6992710598e-001
 6.7777890346e-001	 3.8660368283e+000	 1.1733865049e-001
 6.4140098688e-001	 3.8722383416e+000	 6.8365356213e-001
 6.0507608904e-001	 3.8780804435e+000	 7.5606457490e-001
 5.6880899443e-001	 3.8835655431e+000	 4.9474033856e-001
 5.3260441274e-001	 3.8886961233e+000	 3.0184475523e-001
 4.9646697778e-001	 3.8934747386e+000	 1.6845593184e-001
 4.6040124642e-001	 3.8979040127e+000	 8.6141303976e-002
 4.2441169764e-001	 3.9019866364e+000	 4.6942712665e-002
 3.8850273157e-001	 3.9057253651e+000	 4.3361191263e-002
 3.5267866874e-001	 3.9091230163e+000	 6.8341513236e-002
 7.1875405704e-001	 3.8840562052e+000	-3.8473264504e-001
 6.8209596653e-001	 3.8906612667e+000	 1.2410663098e-001
 6.4548634348e-001	 3.8969022800e+000	 6.1312632453e-001
 6.0893007687e-001	 3.9027815928e+000	 7.4595703101e-001
 5.7243198165e-001	 3.9083016294e+000	 4.9881517099e-001
 5.3599679753e-001	 3.9134648884e+000	 3.1728866689e-001
 4.9962918782e-001	 3.9182739407e+000	 1.9264933838e-001
 4.6333373843e-001	 3.9227314268e+000	 1.1666354196e-001
 4.2711495685e-001	 3.9268400545e+000	 8.1576710034e-002
 3.9097727126e-001	 3.9306025967e+000	 8.0097605697e-002
 3.5492502969e-001	 3.9340218890e+000	 1.0538234514e-001
 7.2330313334e-001	 3.9086388394e+000	-2.9083846404e-001
 6.8641302961e-001	 3.9152857051e+000	 1.4405663095e-001
 6.4957170008e-001	 3.9215662185e+000	 5.6027103133e-001
 6.1278406469e-001	 3.9274827422e+000	 7.3436167594e-001
 5.7605496887e-001	 3.9330377156e+000	 5.0197436682e-001
 5.3938918232e-001	 3.9382336535e+000	 3.3225093026e-001
 5.0279139787e-001	 3.9430731429e+000	 2.1666022974e-001
 4.6626623045e-001	 3.9475588409e+000	 1.4717099093e-001
 4.2981821607e-001	 3.9516934725e+000	 1.1623579446e-001
 3.9345181095e-001	 3.9554798283e+000	 1.1677479009e-001
 3.5717139063e-001	 3.9589207617e+000	 1.4215918527e-001
 7.2785220965e-001	 3.9332214737e+000	-1.8853657399e-001
 6.9073009268e-001	 3.9399101435e+000	 1.7686705745e-001
 6.5365705668e-001	 3.9462301570e+000	 5.2473713723e-001
 6.1663805252e-001	 3.9521838915e+000	 7.2268651144e-001
 5.7967795609e-001	 3.9577738019e+000	 5.0550174512e-001
 5.4278156711e-001	 3.9630024187e+000	 3.4789035589e-001
 5.0595360791e-001	 3.9678723450e+000	 2.4152165425e-001
 4.6919872246e-001	 3.9723862550e+000	 1.7857025538e-001
 4.3252147529e-001	 3.9765468906e+000	 1.5169951693e-001
 3.9592635063e-001	 3.9803570600e+000	 1.5404470399e-001
 3.5941775158e-001	 3.9838196344e+000	 1.7919593531e-001
 3.3695414212e-001	 3.7348309073e+000	-9.7759850631e-002
 3.0281249933e-001	 3.7377539499e+000	-3.5085608162e-002
 2.6875999901e-001	 3.7403566759e+000	 3.8695677329e-002
 2.3480053674e-001	 3.7426419423e+000	 1.1689392754e-001
 2.0093792957e-001	 3.7446126567e+000	 1.9262956749e-001
 1.6717591555e-001	 3.7462717751e+000	 2.5886223603e-001
 1.3351815331e-001	 3.7476222999e+000	 3.0841882269e-001
 9.9968221788e-002	 3.7486672771e+000	 3.3402078762e-001
 6.6529619936e-002	 3.7494097948e+000	 3.2831072463e-001
 3.3205766524e-002	 3.7498529807e+000	 2.8387813155e-001
 0.0000000000e+000	 3.7500000000e+000	 1.9328435492e-001
 3.3920050307e-001	 3.7597297800e+000	-1.8796187339e-001
 3.0483124933e-001	 3.7626723096e+000	-1.0054237715e-001
 2.7055173233e-001	 3.7652923871e+000	-6.8038262053e-003
 2.3636587365e-001	 3.7675928885e+000	 8.5859750991e-002
 2.0227751577e-001	 3.7695767410e+000	 1.7044622069e-001
 1.6829042165e-001	 3.7712469203e+000	 2.4033196637e-001
 1.3440827433e-001	 3.7726064486e+000	 2.8925845476e-001
 1.0063467660e-001	 3.7736583923e+000	 3.1131878085e-001
 6.6973150735e-002	 3.7744058601e+000	 3.0094422578e-001
 3.3427138301e-002	 3.7748520006e+000	 2.5289085961e-001
 0.0000000000e+000	 3.7750000000e+000	 1.6222621960e-001
 3.4144686401e-001	 3.7846286527e+000	-1.3870435641e-001
 3.0684999932e-001	 3.7875906693e+000	-6.5788399724e-002
 2.7234346566e-001	 3.7902280982e+000	 1.4418470687e-002
 2.3793121056e-001	 3.7925438348e+000	 9.4722012197e-002
 2.0361710197e-001	 3.7945408254e+000	 1.6831972314e-001
 1.6940492775e-001	 3.7962220655e+000	 2.2878706214e-001
 1.3529839535e-001	 3.7975905972e+000	 2.7006362268e-001
 1.0130113141e-001	 3.7986495075e+000	 2.8643929889e-001
 6.7416681534e-002	 3.7994019254e+000	 2.7254047687e-001
 3.3648510077e-002	 3.7998510205e+000	 2.2331628404e-001
 0.0000000000e+000	 3.8000000000e+000	 1.3402492750e-001
 3.4369322496e-001	 3.8095275254e+000	-9.2713889124e-002
 3.0886874932e-001	 3.8125090289e+000	-3.3230790572e-002
 2.7413519899e-001	 3.8151638094e+000	 3.4380865597e-002
 2.3949654747e-001	 3.8174947811e+000	 1.0313017910e-001
 2.0495668816e-001	 3.8195049098e+000	 1.6641791187e-001
 1.7051943386e-001	 3.8211972106e+000	 2.1802229653e-001
 1.3618851637e-001	 3.8225747459e+000	 2.5208481182e-001
 1.0196758622e-001	 3.8236406227e+000	 2.6309596171e-001
 6.7860212333e-002	 3.8243979907e+000	 2.4588109284e-001
 3.3869881854e-002	 3.8248500403e+000	 1.9558628333e-001
 0.0000000000e+000	 3.8250000000e+000	 1.0766433417e-001
 3.4593958591e-001	 3.8344263981e+000	-4.9507774272e-002
 3.1088749931e-001	 3.8374273886e+000	-2.5358929325e-003
 2.7592693231e-001	 3.8400995206e+000	 5.3268184799e-002
 2.4106188438e-001	 3.8424457274e+000	 1.1112053006e-001
 2.0629627436e-001	 3.8444689942e+000	 1.6462887164e-001
 1.7163393996e-001	 3.8461723558e+000	 2.0777798566e-001
 1.3707863739e-001	 3.8475588946e+000	 2.3491506436e-001
 1.0263404103e-001	 3.8486317379e+000	 2.4073510087e-001
 6.8303743132e-002	 3.8493940560e+000	 2.2026632550e-001
 3.4091253630e-002	 3.8498490602e+000	 1.6885572669e-001
 0.0000000000e+000	 3.8500000000e+000	 8.2154688529e-002
 3.4818594685e-001	 3.8593252709e+000	-8.5958808963e-003
 3.1290624931e-001	 3.8623457483e+000	 2.6639319696e-002
 2.7771866564e-001	 3.8650352318e+000	 7.1276533681e-002
 2.4262722129e-001	 3.8673966737e+000	 1.1874250482e-001
 2.0763586056e-001	 3.8694330785e+000	 1.6285570317e-001
 1.7274844606e-001	 3.8711475010e+000	 1.9781128826e-001
 1.3796875842e-001	 3.8725430432e+000	 2.1816606328e-001
 1.0330049584e-001	 3.8736228530e+000	 2.1882345816e-001
 6.8747273931e-002	 3.8743901213e+000	 1.9501857707e-001
 3.4312625407e-002	 3.8748480801e+000	 1.4230334446e-001
 0.0000000000e+000	 3.8750000000e+000	 5.6531781458e-002
 3.5043230780e-001	 3.8842241436e+000	 3.0519117386e-002
 3.1492499930e-001	 3.8872641079e+000	 5.4646943241e-002
 2.7951039896e-001	 3.8899709429e+000	 8.8612935242e-002
 2.4419255820e-001	 3.8923476199e+000	 1.2605828261e-001
 2.0897544675e-001	 3.8943971629e+000	 1.6101604194e-001
 1.7386295217e-001	 3.8961226461e+000	 1.8789566586e-001
 1.3885887944e-001	 3.8975271919e+000	 2.0146753495e-001
 1.0396695066e-001	 3.8986139682e+000	 1.9684753137e-001
 6.9190804730e-002	 3.8993861866e+000	 1.6948169024e-001
 3.4533997183e-002	 3.8998471000e+000	 1.1513096329e-001
 0.0000000000e+000	 3.9000000000e+000	 2.9856127145e-002
 3.5267866874e-001	 3.9091230163e+000	 6.8341513236e-002
 3.1694374929e-001	 3.9121824676e+000	 8.1847854222e-002
 2.8130213229e-001	 3.9149066541e+000	 1.0549498239e-001
 2.4575789511e-001	 3.9172985662e+000	 1.3314237648e-001
 2.1031503295e-001	 3.9193612473e+000	 1.5904159524e-001
 1.7497745827e-001	 3.9210977913e+000	 1.7782036359e-001
 1.3974900046e-001	 3.9225113406e+000	 1.8446667445e-001
 1.0463340547e-001	 3.9236050834e+000	 1.7431294518e-001
 6.9634335529e-002	 3.9243822519e+000	 1.4302026535e-001
 3.4755368960e-002	 3.9248461198e+000	 8.6562770608e-002
 0.0000000000e+000	 3.9250000000e+000	 1.2121757246e-003
 3.5492502969e-001	 3.9340218890e+000	 1.0538234514e-001
 3.1896249929e-001	 3.9371008273e+000	 1.0861143188e-001
 2.8309386561e-001	 3.9398423653e+000	 1.2215050346e-001
 2.4732323202e-001	 3.9422495125e+000	 1.4008124296e-001
 2.1165461914e-001	 3.9443253317e+000	 1.5687769687e-001
 1.7609196437e-001	 3.9460729365e+000	 1.6738991069e-001
 1.4063912148e-001	 3.9474954892e+000	 1.6682759278e-001
 1.0529986028e-001	 3.9485961986e+000	 1.5074384585e-001
 7.0077866328e-002	 3.9493783172e+000	 1.1501900350e-001
 3.4976740737e-002	 3.9498451397e+000	 5.5844607017e-002
 0.0000000000e+000	 3.9500000000e+000	-3.0292444191e-002
 3.5717139063e-001	 3.9589207617e+000	 1.4215918527e-001
 3.2098124928e-001	 3.9620191869e+000	 1.3531529080e-001
 2.8488559894e-001	 3.9647780764e+000	 1.3881724034e-001
 2.4888856893e-001	 3.9672004588e+000	 1.4697290650e-001
 2.1299420534e-001	 3.9692894161e+000	 1.5448287865e-001
 1.7720647047e-001	 3.9710480817e+000	 1.5642363991e-001
 1.4152924250e-001	 3.9724796379e+000	 1.4823078492e-001
 1.0596631509e-001	 3.9735873138e+000	 1.2568231875e-001
 7.0521397127e-002	 3.9743743825e+000	 8.4882074450e-002
 3.5198112513e-002	 3.9748441596e+000	 2.2243285343e-002
 0.0000000000e+000	 3.9750000000e+000	-6.5527654396e-002
 3.5941775158e-001	 3.9838196344e+000	 1.7919593531e-001
 3.2299999927e-001	 3.9869375466e+000	 1.6234502355e-001
 2.8667733226e-001	 3.9897137876e+000	 1.5574253867e-001
 2.5045390584e-001	 3.9921514051e+000	 1.5392659794e-001
 2.1433379153e-001	 3.9942535004e+000	 1.5182845799e-001
 1.7832097657e-001	 3.9960232268e+000	 1.4475522485e-001
 1.4241936352e-001	 3.9974637866e+000	 1.2837261785e-001
 1.0663276990e-001	 3.9985784289e+000	 9.8687827826e-002
 7.0964927926e-002	 3.9993704478e+000	 5.2032508236e-002
 3.5419484290e-002	 3.9998431794e+000	-1.4954064723e-002
 0.0000000000e+000	 4.0000000000e+000	-1.0534162864e-001
 4.0000000000e+000	 0.0000000000e+000	 2.7889857856e-001
 3.9998431794e+000	 3.5419484290e-002	 2.9542749341e-001
 3.9993704478e+000	 7.0964927926e-002	 3.3384213184e-001
 3.9985784289e+000	 1.0663276990e-001	 3.8739111298e-001
 3.9974637866e+000	 1.4241936352e-001	 4.4951541330e-001
 3.9960232268e+000	 1.7832097657e-001	 5.1385494599e-001
 3.9942535004e+000	 2.1433379153e-001	 5.7425465848e-001
 3.9921514051e+000	 2.5045390584e-001	 6.2477011952e-001
 3.9897137876e+000	 2.8667733226e-001	 6.5967256857e-001
 3.9869375466e+000	 3.2299999927e-001	 6.7345340032e-001
 3.9838196344e+000	 3.5941775158e-001	 6.6082805869e-001
 4.0250000000e+000	 0.0000000000e+000	 4.9601612090e-001
 4.0248421993e+000	 3.5640856066e-002	 4.8260957747e-001
 4.0243665131e+000	 7.1408458726e-002	 4.9218566093e-001
 4.0235695441e+000	 1.0729922471e-001	 5.1819921749e-001
 4.0224479352e+000	 1.4330948454e-001	 5.5430563378e-001
 4.0209983720e+000	 1.7943548268e-001	 5.9436731412e-001
 4.0192175848e+000	 2.1567337773e-001	 6.3245965555e-001
 4.0171023514e+000	 2.5201924275e-001	 6.6287649184e-001
 4.0146494988e+000	 2.8846906558e-001	 6.8013497858e-001
 4.0118559063e+000	 3.2501874926e-001	 6.7897989184e-001
 4.0087185072e+000	 3.6166411252e-001	 6.5438731432e-001
 4.0500000000e+000	 0.0000000000e+000	 7.1119479369e-001
 4.0498412192e+000	 3.5862227843e-002	 6.7011428749e-001
 4.0493625784e+000	 7.1851989525e-002	 6.5293429748e-001
 4.0485606593e+000	 1.0796567952e-001	 6.5331557501e-001
 4.0474320839e+000	 1.4419960556e-001	 6.6512777315e-001
 4.0459735172e+000	 1.8054998878e-001	 6.8245582440e-001
 4.0441816692e+000	 2.1701296393e-001	 6.9960579581e-001
 4.0420532976e+000	 2.5358457966e-001	 7.1111019220e-001
 4.0395852100e+000	 2.9026079891e-001	 7.1173267886e-001
 4.0367742659e+000	 3.2703749926e-001	 6.9647219618e-001
 4.0336173799e+000	 3.6391047346e-001	 6.6056643928e-001
 4.0750000000e+000	 0.0000000000e+000	 9.2514171292e-001
 4.0748402391e+000	 3.6083599620e-002	 8.5852107424e-001
 4.0743586437e+000	 7.2295520325e-002	 8.1653979972e-001
 4.0735517745e+000	 1.0863213434e-001	 7.9306428689e-001
 4.0724162326e+000	 1.4508972659e-001	 7.8217837584e-001
 4.0709486623e+000	 1.8166449488e-001	 7.7818963027e-001
 4.0691457536e+000	 2.1835255012e-001	 7.7563507516e-001
 4.0670042439e+000	 2.5514991657e-001	 7.6928636131e-001
 4.0645209211e+000	 2.9205253223e-001	 7.5415432777e-001
 4.0616926256e+000	 3.2905624925e-001	 7.2549293399e-001
 4.0585162526e+000	 3.6615683441e-001	 6.7880253437e-001
 4.1000000000e+000	 0.0000000000e+000	 1.1385467479e+000
 4.0998392589e+000	 3.6304971397e-002	 1.0483937859e+000
 4.0993547090e+000	 7.2739051125e-002	 9.8343993921e-001
 4.0985428897e+000	 1.0929858915e-001	 9.3775705427e-001
 4.0974003812e+000	 1.4597984761e-001	 9.0564314235e-001
 4.0959238075e+000	 1.8277900099e-001	 8.8162856642e-001
 4.0941098380e+000	 2.1969213632e-001	 8.6048166381e-001
 4.0919551902e+000	 2.5671525349e-001	 8.3721377433e-001
 4.0894566323e+000	 2.9384426556e-001	 8.0708364434e-001
 4.0866109853e+000	 3.3107499925e-001	 7.6560117802e-001
 4.0834151253e+000	 3.6840319536e-001	 7.0853050830e-001
 4.1250000000e+000	 0.0000000000e+000	 1.3520830437e+000
 4.1248382788e+000	 3.6526343175e-002	 1.2402811410e+000
 4.1243507743e+000	 7.3182581926e-002	 1.1540589246e+000
 4.1235340048e+000	 1.0996504396e-001	 1.0876935539e+000
 4.1223845299e+000	 1.4686996863e-001	 1.0356972579e+000
 4.1208989527e+000	 1.8389350709e-001	 9.9282343115e-001
 4.1190739223e+000	 2.2103172252e-001	 9.5407214342e-001
 4.1169061365e+000	 2.5828059040e-001	 9.1469503374e-001
 4.1143923435e+000	 2.9563599889e-001	 8.7019955794e-001
 4.1115293449e+000	 3.3309374924e-001	 8.1635256069e-001
 4.1083139980e+000	 3.7064955631e-001	 7.4918314410e-001
 4.1500000000e+000	 0.0000000000e+000	 1.5664075252e+000
 4.1498372987e+000	 3.6747714952e-002	 1.4347171841e+000
 4.1493468396e+000	 7.3626112727e-002	 1.3288078103e+000
 4.1485251200e+000	 1.1063149878e-001	 1.2431618001e+000
 4.1473686786e+000	 1.4776008966e-001	 1.1725057091e+000
 4.1458740978e+000	 1.8500801320e-001	 1.1118162585e+000
 4.1440380067e+000	 2.2237130872e-001	 1.0563257357e+000
 4.1418570828e+000	 2.5984592731e-001	 1.0015267553e+000
 4.1393280547e+000	 2.9742773222e-001	 9.4317635256e-001
 4.1364477046e+000	 3.3511249924e-001	 8.7729937766e-001
 4.1332128707e+000	 3.7289591725e-001	 8.0019116317e-001
 4.1750000000e+000	 0.0000000000e+000	 1.7821613825e+000
 4.1748363185e+000	 3.6969086730e-002	 1.6322217250e+000
 4.1743429049e+000	 7.4069643528e-002	 1.5080848900e+000
 4.1735162352e+000	 1.1129795359e-001	 1.4044384944e+000
 4.1723528272e+000	 1.4865021068e-001	 1.3162235893e+000
 4.1708492430e+000	 1.8612251931e-001	 1.2386405809e+000
 4.1690020911e+000	 2.2371089492e-001	 1.1671545227e+000
 4.1668080290e+000	 2.6141126423e-001	 1.0974997472e+000
 4.1642637658e+000	 2.9921946555e-001	 1.0256838059e+000
 4.1613660643e+000	 3.3713124924e-001	 9.4799068778e-001
 4.1581117435e+000	 3.7514227820e-001	 8.6098328698e-001
 4.2000000000e+000	 0.0000000000e+000	 1.9999705392e+000
 4.1998353384e+000	 3.7190458508e-002	 1.8333007624e+000
 4.1993389702e+000	 7.4513174330e-002	 1.6922760770e+000
 4.1985073504e+000	 1.1196440840e-001	 1.5717893618e+000
 4.1973369759e+000	 1.4954033171e-001	 1.4669963932e+000
 4.1958243882e+000	 1.8723702541e-001	 1.3733216818e+000
 4.1939661755e+000	 2.2505048112e-001	 1.2864636595e+000
 4.1917589753e+000	 2.6297660114e-001	 1.2023991831e+000
 4.1891994770e+000	 3.0101119888e-001	 1.1173873235e+000
 4.1862844239e+000	 3.3914999924e-001	 1.0279724094e+000
 4.1830106162e+000	 3.7738863915e-001	 9.3098629662e-001
 4.2250000000e+000	 0.0000000000e+000	 2.2204461042e+000
 4.2248343583e+000	 3.7411830286e-002	 2.0384468929e+000
 4.2243350355e+000	 7.4956705132e-002	 1.8817552697e+000
 4.2234984656e+000	 1.1263086322e-001	 1.7454694756e+000
 4.2223211246e+000	 1.5043045273e-001	 1.6249603005e+000
 4.2207995333e+000	 1.8835153152e-001	 1.5158768400e+000
 4.2189302598e+000	 2.2639006732e-001	 1.4141515788e+000
 4.2167099216e+000	 2.6454193806e-001	 1.3160047685e+000
 4.2141351882e+000	 3.0280293221e-001	 1.2179480679e+000
 4.2112027836e+000	 3.4116874924e-001	 1.1167874132e+000
 4.2079094889e+000	 3.7963500011e-001	 1.0096250902e+000
 4.2500000000e+000	 0.0000000000e+000	 2.4441848073e+000
 4.2498333782e+000	 3.7633202065e-002	 2.2481397046e+000
 4.2493311008e+000	 7.5400235934e-002	 2.0768847060e+000
 4.2484895807e+000	 1.1329731804e-001	 1.9257235708e+000
 4.2473052732e+000	 1.5132057376e-001	 1.7902424502e+000
 4.2457746785e+000	 1.8946603763e-001	 1.6663155651e+000
 4.2438943442e+000	 2.2772965353e-001	 1.5501101889e+000
 4.2416608679e+000	 2.6610727498e-001	 1.4380909021e+000
 4.2390708994e+000	 3.0459466554e-001	 1.3270230839e+000
 4.2361211433e+000	 3.4318749924e-001	 1.2139756121e+000
 4.2328083616e+000	 3.8188136106e-001	 1.0963227381e+000
 3.9838196344e+000	 3.5941775158e-001	 6.6082805869e-001
 3.9803570600e+000	 3.9592635063e-001	 6.6893193566e-001
 3.9765468906e+000	 4.3252147529e-001	 6.6428584278e-001
 3.9723862550e+000	 4.6919872246e-001	 6.4256471150e-001
 3.9678723450e+000	 5.0595360791e-001	 5.9966137857e-001
 3.9630024187e+000	 5.4278156711e-001	 5.3168659127e-001
 3.9577738019e+000	 5.7967795609e-001	 4.3496829683e-001
 3.9521838915e+000	 6.1663805252e-001	 3.0605020059e-001
 3.9462301570e+000	 6.5365705668e-001	 4.0730043503e-001
 3.9399101435e+000	 6.9073009268e-001	 5.8643176542e-001
 3.9332214737e+000	 7.2785220965e-001	 7.7013243745e-001
 4.0087185072e+000	 3.6166411252e-001	 6.5438731432e-001
 4.0052342916e+000	 3.9840089032e-001	 6.5480823655e-001
 4.0014003087e+000	 4.3522473450e-001	 6.4453073298e-001
 3.9972136691e+000	 4.7213121447e-001	 6.1950786996e-001
 3.9926715472e+000	 5.0911581796e-001	 5.7591795758e-001
 3.9877711838e+000	 5.4617395190e-001	 5.1016425850e-001
 3.9825098882e+000	 5.8330094331e-001	 4.1887395670e-001
 3.9768850408e+000	 6.2049204034e-001	 2.9889637077e-001
 3.9708940955e+000	 6.5774241328e-001	 3.9550771020e-001
 3.9645345819e+000	 6.9504715575e-001	 5.3322816557e-001
 3.9578041079e+000	 7.3240128595e-001	 6.8006678102e-001
 4.0336173799e+000	 3.6391047346e-001	 6.6056643928e-001
 4.0301115232e+000	 4.0087543001e-001	 6.5403389939e-001
 4.0262537268e+000	 4.3792799372e-001	 6.3869946409e-001
 4.0220410832e+000	 4.7506370648e-001	 6.1079596474e-001
 4.0174707494e+000	 5.1227802800e-001	 5.6678899886e-001
 4.0125399489e+000	 5.4956633669e-001	 5.0337634206e-001
 4.0072459744e+000	 5.8692393053e-001	 4.1748659544e-001
 4.0015861901e+000	 6.2434602816e-001	 3.0627705305e-001
 3.9955580340e+000	 6.6182776988e-001	 3.8875351831e-001
 3.9891590203e+000	 6.9936421883e-001	 4.8852083174e-001
 3.9823867421e+000	 7.3695036226e-001	 6.0180154980e-001
 4.0585162526e+000	 3.6615683441e-001	 6.7880253437e-001
 4.0549887548e+000	 4.0334996970e-001	 6.6591648283e-001
 4.0511071448e+000	 4.4063125294e-001	 6.4597037253e-001
 4.0468684973e+000	 4.7799619849e-001	 6.1547850569e-001
 4.0422699515e+000	 5.1544023805e-001	 5.7119565834e-001
 4.0373087140e+000	 5.5295872148e-001	 5.1011619496e-001
 4.0319820607e+000	 5.9054691776e-001	 4.2947239386e-001
 4.0262873394e+000	 6.2820001599e-001	 3.3957176241e-001
 4.0202219725e+000	 6.6591312648e-001	 3.8698646388e-001
 4.0137834587e+000	 7.0368128190e-001	 4.5221999537e-001
 4.0069693763e+000	 7.4149943857e-001	 5.3520929996e-001
 4.0834151253e+000	 3.6840319536e-001	 7.0853050830e-001
 4.0798659865e+000	 4.0582450939e-001	 6.8976278516e-001
 4.0759605629e+000	 4.4333451216e-001	 6.6552243716e-001
 4.0716959114e+000	 4.8092869050e-001	 6.3260701805e-001
 4.0670691537e+000	 5.1860244810e-001	 5.8806244966e-001
 4.0620774791e+000	 5.5635110627e-001	 5.2918183884e-001
 4.0567181470e+000	 5.9416990498e-001	 4.5350347992e-001
 4.0509884888e+000	 6.3205400381e-001	 3.7784398714e-001
 4.0448859109e+000	 6.6999848308e-001	 3.9016355539e-001
 4.0384078971e+000	 7.0799834498e-001	 4.2424546860e-001
 4.0315520105e+000	 7.4604851487e-001	 4.8017330946e-001
 4.1083139980e+000	 3.7064955631e-001	 7.4918314410e-001
 4.1047432181e+000	 4.0829904908e-001	 7.2487886738e-001
 4.1008139810e+000	 4.4603777138e-001	 6.9653525986e-001
 4.0965233255e+000	 4.8386118252e-001	 6.6123498146e-001
 4.0918683558e+000	 5.2176465814e-001	 6.1631714251e-001
 4.0868462442e+000	 5.5974349106e-001	 5.5937582244e-001
 4.0814542332e+000	 5.9779289220e-001	 4.8825774851e-001
 4.0756896381e+000	 6.3590799164e-001	 4.1753044549e-001
 4.0695498494e+000	 6.7408383968e-001	 3.9824995068e-001
 4.0630323355e+000	 7.1231540806e-001	 4.0452635389e-001
 4.0561346447e+000	 7.5059759118e-001	 4.3658725315e-001
 4.1332128707e+000	 3.7289591725e-001	 8.0019116317e-001
 4.1296204497e+000	 4.1077358877e-001	 7.7057007539e-001
 4.1256673990e+000	 4.4874103060e-001	 7.3818904667e-001
 4.1213507395e+000	 4.8679367453e-001	 7.0041777100e-001
 4.1166675580e+000	 5.2492686819e-001	 6.5489066450e-001
 4.1116150094e+000	 5.6313587586e-001	 5.9950508533e-001
 4.1061903195e+000	 6.0141587943e-001	 5.3241868773e-001
 4.1003907874e+000	 6.3976197947e-001	 4.5863972188e-001
 4.0942137879e+000	 6.7816919628e-001	 4.1121871140e-001
 4.0876567739e+000	 7.1663247114e-001	 3.9300076422e-001
 4.0807172789e+000	 7.5514666749e-001	 4.0435488958e-001
 4.1581117435e+000	 3.7514227820e-001	 8.6098328698e-001
 4.1544976813e+000	 4.1324812847e-001	 8.2614106141e-001
 4.1505208171e+000	 4.5144428982e-001	 7.8966458979e-001
 4.1461781536e+000	 4.8972616655e-001	 7.4921260052e-001
 4.1414667601e+000	 5.2808907824e-001	 7.0271700663e-001
 4.1363837745e+000	 5.6652826065e-001	 6.4838082634e-001
 4.1309264058e+000	 6.0503886665e-001	 5.8467521145e-001
 4.1250919367e+000	 6.4361596729e-001	 5.0118696271e-001
 4.1188777264e+000	 6.8225455289e-001	 4.2905056646e-001
 4.1122812123e+000	 7.2094953422e-001	 3.8961555331e-001
 4.1052999131e+000	 7.5969574380e-001	 3.8338975916e-001
 4.1830106162e+000	 3.7738863915e-001	 9.3098629662e-001
 4.1793749130e+000	 4.1572266816e-001	 8.9089580462e-001
 4.1753742352e+000	 4.5414754904e-001	 8.5014325011e-001
 4.1710055677e+000	 4.9265865857e-001	 8.0667846787e-001
 4.1662659623e+000	 5.3125128829e-001	 7.5873313213e-001
 4.1611525396e+000	 5.6992064545e-001	 7.0481837689e-001
 4.1556624920e+000	 6.0866185388e-001	 6.4372149782e-001
 4.1497930861e+000	 6.4746995512e-001	 5.4519368105e-001
 4.1435416649e+000	 6.8633990949e-001	 4.5173368375e-001
 4.1369056507e+000	 7.2526659730e-001	 3.9432605546e-001
 4.1298825474e+000	 7.6424482012e-001	 3.7361489295e-001
 4.2079094889e+000	 3.7963500011e-001	 1.0096250902e+000
 4.2042521446e+000	 4.1819720786e-001	 9.6413763109e-001
 4.2002276532e+000	 4.5685080827e-001	 9.1880694034e-001
 4.1958329818e+000	 4.9559115059e-001	 8.7187610215e-001
 4.1910651645e+000	 5.3441349835e-001	 8.2187888849e-001
 4.1859213047e+000	 5.7331303024e-001	 7.6763707867e-001
 4.1803985783e+000	 6.1228484111e-001	 7.0825683352e-001
 4.1744942354e+000	 6.5132394295e-001	 5.9068756829e-001
 4.1682056034e+000	 6.9042526610e-001	 4.7926345013e-001
 4.1615300891e+000	 7.2958366038e-001	 4.0709583470e-001
 4.1544651816e+000	 7.6879389643e-001	 3.7496253194e-001
 4.2328083616e+000	 3.8188136106e-001	 1.0963227381e+000
 4.2291293762e+000	 4.2067174755e-001	 1.0451692329e+000
 4.2250810713e+000	 4.5955406749e-001	 9.9483810884e-001
 4.2206603959e+000	 4.9852364261e-001	 9.4386791275e-001
 4.2158643666e+000	 5.3757570840e-001	 8.9109692266e-001
 4.2106900698e+000	 5.7670541504e-001	 8.3566016570e-001
 4.2051346646e+000	 6.1590782834e-001	 7.7698546353e-001
 4.1991953847e+000	 6.5517793079e-001	 6.3770231243e-001
 4.1928695419e+000	 6.9451062271e-001	 5.1164225906e-001
 4.1861545275e+000	 7.3390072346e-001	 4.2789644266e-001
 4.1790478158e+000	 7.7334297274e-001	 3.8737385613e-001
 3.9332214737e+000	 7.2785220965e-001	 7.7013243745e-001
 3.9261618501e+000	 7.6501838302e-001	 7.1889610527e-001
 3.9187290581e+000	 8.0222351592e-001	 6.6750995664e-001
 3.9109209671e+000	 8.3946244064e-001	 6.1865035841e-001
 3.9027355338e+000	 8.7672992013e-001	 5.7530288697e-001
 3.8941708042e+000	 9.1402064961e-001	 5.4076763708e-001
 3.8852249153e+000	 9.5132925831e-001	 5.1866401287e-001
 3.8758960980e+000	 9.8865031116e-001	 5.1293497247e-001
 3.8661826788e+000	 1.0259783107e+000	 5.2785069869e-001
 3.8560830823e+000	 1.0633076989e+000	 5.6801166840e-001
 3.8455958328e+000	 1.1006328594e+000	 6.3835109449e-001
 3.9578041079e+000	 7.3240128595e-001	 6.8006678102e-001
 3.9507003617e+000	 7.6979974791e-001	 6.4717352548e-001
 3.9432211147e+000	 8.0723741289e-001	 6.1226117622e-001
 3.9353642231e+000	 8.4470908089e-001	 5.7793193072e-001
 3.9271276309e+000	 8.8220948212e-001	 5.4710238207e-001
 3.9185093717e+000	 9.1973327867e-001	 5.2300903634e-001
 3.9095075710e+000	 9.5727506617e-001	 5.0921330531e-001
 3.9001204486e+000	 9.9482937561e-001	 5.0960594559e-001
 3.8903463206e+000	 1.0323906751e+000	 5.2841091554e-001
 3.8801836015e+000	 1.0699533720e+000	 5.7018862238e-001
 3.8696308067e+000	 1.1075118147e+000	 6.3983853252e-001
 3.9823867421e+000	 7.3695036226e-001	 6.0180154980e-001
 3.9752388733e+000	 7.7458111280e-001	 5.8604463724e-001
 3.9677131713e+000	 8.1225130986e-001	 5.6631245701e-001
 3.9598074792e+000	 8.4995572114e-001	 5.4513312768e-001
 3.9515197280e+000	 8.8768904412e-001	 5.2535446969e-001
 3.9428479392e+000	 9.2544590773e-001	 5.1014973382e-001
 3.9337902267e+000	 9.6322087403e-001	 5.0302279812e-001
 3.9243447992e+000	 1.0010084400e+000	 5.0781280359e-001
 3.9145099623e+000	 1.0388030396e+000	 5.2869819952e-001
 3.9042841208e+000	 1.0765990452e+000	 5.7020017018e-001
 3.8936657807e+000	 1.1143907701e+000	 6.3718541524e-001
 4.0069693763e+000	 7.4149943857e-001	 5.3520929996e-001
 3.9997773848e+000	 7.7936247769e-001	 5.3542519079e-001
 3.9922052279e+000	 8.1726520684e-001	 5.2962216748e-001
 3.9842507352e+000	 8.5520236139e-001	 5.2025433917e-001
 3.9759118251e+000	 8.9316860612e-001	 5.1010094383e-001
 3.9671865068e+000	 9.3115853678e-001	 5.0227229043e-001
 3.9580728824e+000	 9.6916668190e-001	 5.0021516243e-001
 3.9485691498e+000	 1.0071875045e+000	 5.0771765234e-001
 3.9386736040e+000	 1.0452154040e+000	 5.2891339756e-001
 3.9283846401e+000	 1.0832447183e+000	 5.6828518852e-001
 3.9177007546e+000	 1.1212697255e+000	 6.3066792090e-001
 4.0315520105e+000	 7.4604851487e-001	 4.8017330946e-001
 4.0243158964e+000	 7.8414384258e-001	 4.9524080806e-001
 4.0166972845e+000	 8.2227910381e-001	 5.0215769278e-001
 4.0086939913e+000	 8.6044900165e-001	 5.0330411211e-001
 4.0003039222e+000	 8.9864816812e-001	 5.0139089160e-001
 3.9915250743e+000	 9.3687116584e-001	 4.9946569223e-001
 3.9823555382e+000	 9.7511248976e-001	 5.0091862295e-001
 3.9727935004e+000	 1.0133665689e+000	 5.0948727643e-001
 3.9628372458e+000	 1.0516277685e+000	 5.2926115746e-001
 3.9524851593e+000	 1.0898903914e+000	 5.6468547452e-001
 3.9417357286e+000	 1.1281486808e+000	 6.2056426554e-001
 4.0561346447e+000	 7.5059759118e-001	 4.3658725315e-001
 4.0488544080e+000	 7.8892520747e-001	 4.6542668358e-001
 4.0411893411e+000	 8.2729300078e-001	 4.8389516152e-001
 4.0331372473e+000	 8.6569564190e-001	 4.9429890330e-001
 4.0246960193e+000	 9.0412773012e-001	 4.9928047219e-001
 4.0158636418e+000	 9.4258379490e-001	 5.0182515571e-001
 4.0066381939e+000	 9.8105829763e-001	 5.0526678968e-001
 3.9970178510e+000	 1.0195456334e+000	 5.1329299737e-001
 3.9870008875e+000	 1.0580401329e+000	 5.2994981273e-001
 3.9765856786e+000	 1.0965360645e+000	 5.5964565728e-001
 3.9657707025e+000	 1.1350276362e+000	 6.0715464125e-001
 4.0807172789e+000	 7.5514666749e-001	 4.0435488958e-001
 4.0733929195e+000	 7.9370657237e-001	 4.4592729609e-001
 4.0656813977e+000	 8.3230689776e-001	 4.7481918240e-001
 4.0575805033e+000	 8.7094228215e-001	 4.9326284110e-001
 4.0490881164e+000	 9.0960729212e-001	 5.0383270384e-001
 4.0402022093e+000	 9.4829642396e-001	 5.0945194017e-001
 4.0309208496e+000	 9.8700410549e-001	 5.1339849568e-001
 4.0212422016e+000	 1.0257246978e+000	 5.1931053691e-001
 4.0111645293e+000	 1.0644524973e+000	 5.3119127153e-001
 4.0006861979e+000	 1.1031817376e+000	 5.5341311256e-001
 3.9898056765e+000	 1.1419065916e+000	 5.9072115664e-001
 4.1052999131e+000	 7.5969574380e-001	 3.8338975916e-001
 4.0979314311e+000	 7.9848793726e-001	 4.3669613060e-001
 4.0901734544e+000	 8.3732079473e-001	 4.7492259035e-001
 4.0820237594e+000	 8.7618892241e-001	 5.0022749585e-001
 4.0734802135e+000	 9.1508685412e-001	 5.1511725850e-001
 4.0645407769e+000	 9.5400905303e-001	 5.2245316675e-001
 4.0552035053e+000	 9.9294991336e-001	 5.2545764072e-001
 4.0454665523e+000	 1.0319037623e+000	 5.2771988536e-001
 4.0353281710e+000	 1.0708648618e+000	 5.3320090971e-001
 4.0247867171e+000	 1.1098274108e+000	 5.4623788051e-001
 4.0138406504e+000	 1.1487855470e+000	 5.7154777944e-001
 4.1298825474e+000	 7.6424482012e-001	 3.7361489295e-001
 4.1224699427e+000	 8.0326930216e-001	 4.3769541036e-001
 4.1146655110e+000	 8.4233469171e-001	 4.8420620165e-001
 4.1064670154e+000	 8.8143556267e-001	 5.1523165827e-001
 4.0978723105e+000	 9.2056641613e-001	 5.3321026381e-001
 4.0888793444e+000	 9.5972168209e-001	 5.4094164399e-001
 4.0794861610e+000	 9.9889572122e-001	 5.4159304046e-001
 4.0696909029e+000	 1.0380828267e+000	 5.3870517448e-001
 4.0594918128e+000	 1.0772772262e+000	 5.3619746753e-001
 4.0488872364e+000	 1.1164730839e+000	 5.3837258642e-001
 4.0378756244e+000	 1.1556645023e+000	 5.4992028120e-001
 4.1544651816e+000	 7.6879389643e-001	 3.7496253194e-001
 4.1470084542e+000	 8.0805066705e-001	 4.4889583829e-001
 4.1391575676e+000	 8.4734858869e-001	 5.0267857782e-001
 4.1309102715e+000	 8.8668220292e-001	 5.3832112592e-001
 4.1222644076e+000	 9.2604597813e-001	 5.5819411207e-001
 4.1132179119e+000	 9.6543431115e-001	 5.6503569959e-001
 4.1037688168e+000	 1.0048415291e+000	 5.6195828104e-001
 4.0939152535e+000	 1.0442618912e+000	 5.5245455498e-001
 4.0836554545e+000	 1.0836895907e+000	 5.4040295020e-001
 4.0729877557e+000	 1.1231187570e+000	 5.3007236420e-001
 4.0619105984e+000	 1.1625434577e+000	 5.2612618393e-001
 4.1790478158e+000	 7.7334297274e-001	 3.8737385613e-001
 4.1715469658e+000	 8.1283203195e-001	 4.7027634763e-001
 4.1636496242e+000	 8.5236248567e-001	 5.3035579785e-001
 4.1553535275e+000	 8.9192884318e-001	 5.6954849708e-001
 4.1466565047e+000	 9.3152554013e-001	 5.9015727604e-001
 4.1375564794e+000	 9.7114694021e-001	 5.9485901804e-001
 4.1280514725e+000	 1.0107873370e+000	 5.8671157873e-001
 4.1181396041e+000	 1.0504409556e+000	 5.6916007836e-001
 4.1078190963e+000	 1.0901019551e+000	 5.4604253178e-001
 4.0970882749e+000	 1.1297644301e+000	 5.2159478263e-001
 4.0859455723e+000	 1.1694224131e+000	 5.0045470858e-001
 3.8455958328e+000	 1.1006328594e+000	 6.3835109449e-001
 3.8347195567e+000	 1.1379481191e+000	 5.0545880054e-001
 3.8234529844e+000	 1.1752477508e+000	 3.9562923387e-001
 3.8117949524e+000	 1.2125259753e+000	 3.1439977191e-001
 3.7997444048e+000	 1.2497769635e+000	 2.6765309323e-001
 3.7873003954e+000	 1.2869948389e+000	 2.8786604230e-001
 3.7744620896e+000	 1.3241736799e+000	 2.7600657264e-001
 3.7612287659e+000	 1.3613075226e+000	 2.3150128525e-001
 3.7475998176e+000	 1.3983903631e+000	 1.7710085325e-001
 3.7335747544e+000	 1.4354161602e+000	 1.9649235696e-001
 3.7191532043e+000	 1.4723788383e+000	 1.7894214497e-001
 3.8696308067e+000	 1.1075118147e+000	 6.3983853252e-001
 3.8586865539e+000	 1.1450602948e+000	 4.9934137659e-001
 3.8473495656e+000	 1.1825930493e+000	 3.8376018999e-001
 3.8356186709e+000	 1.2201042627e+000	 2.9867703784e-001
 3.8234928073e+000	 1.2575880695e+000	 2.6518071707e-001
 3.8109710228e+000	 1.2950385566e+000	 2.9073732270e-001
 3.7980524776e+000	 1.3324497654e+000	 2.8844551237e-001
 3.7847364456e+000	 1.3698156946e+000	 2.5804589064e-001
 3.7710223164e+000	 1.4071303029e+000	 1.9924403679e-001
 3.7569095967e+000	 1.4443875112e+000	 1.1171166808e-001
 3.7423979118e+000	 1.4815812060e+000	 6.3704571819e-002
 3.8936657807e+000	 1.1143907701e+000	 6.3718541524e-001
 3.8826535511e+000	 1.1521724706e+000	 4.8771116488e-001
 3.8712461467e+000	 1.1899383477e+000	 3.6487553380e-001
 3.8594423893e+000	 1.2276825500e+000	 2.7430601396e-001
 3.8472412098e+000	 1.2653991756e+000	 2.5686722779e-001
 3.8346416503e+000	 1.3030822743e+000	 2.8602444997e-001
 3.8216428657e+000	 1.3407258509e+000	 2.9190196781e-001
 3.8082441254e+000	 1.3783238666e+000	 2.7417078420e-001
 3.7944448153e+000	 1.4158702426e+000	 2.3246111045e-001
 3.7802444389e+000	 1.4533588622e+000	 1.6636354889e-001
 3.7656426193e+000	 1.4907835738e+000	 7.5430418316e-002
 3.9177007546e+000	 1.1212697255e+000	 6.3066792090e-001
 3.9066205484e+000	 1.1592846463e+000	 4.7086830300e-001
 3.8951427279e+000	 1.1972836462e+000	 3.3929952773e-001
 3.8832661078e+000	 1.2352608374e+000	 2.4163525010e-001
 3.8709896123e+000	 1.2732102816e+000	 2.4244975964e-001
 3.8583122778e+000	 1.3111259921e+000	 2.7388129736e-001
 3.8452332537e+000	 1.3490019364e+000	 2.8656423198e-001
 3.8317518052e+000	 1.3868320386e+000	 2.8009975075e-001
 3.8178673141e+000	 1.4246101824e+000	 2.5404249145e-001
 3.8035792811e+000	 1.4623302133e+000	 2.0790174511e-001
 3.7888873268e+000	 1.4999859415e+000	 1.4114281048e-001
 3.9417357286e+000	 1.1281486808e+000	 6.2056426554e-001
 3.9305875456e+000	 1.1663968220e+000	 4.4911438911e-001
 3.9190393090e+000	 1.2046289446e+000	 3.0735729338e-001
 3.9070898262e+000	 1.2428391247e+000	 2.0101352998e-001
 3.8947380149e+000	 1.2810213876e+000	 2.2204843416e-001
 3.8819829053e+000	 1.3191697098e+000	 2.5446064982e-001
 3.8688236418e+000	 1.3572780219e+000	 2.7261881298e-001
 3.8552594850e+000	 1.3953402107e+000	 2.7605407009e-001
 3.8412898130e+000	 1.4333501222e+000	 2.6424526781e-001
 3.8269141233e+000	 1.4713015643e+000	 2.3662017649e-001
 3.8121320343e+000	 1.5091883092e+000	 1.9255687455e-001
 3.9657707025e+000	 1.1350276362e+000	 6.0715464125e-001
 3.9545545428e+000	 1.1735089978e+000	 4.2275243760e-001
 3.9429358902e+000	 1.2119742430e+000	 2.6937478554e-001
 3.9309135447e+000	 1.2504174121e+000	 1.5433670005e-001
 3.9184864174e+000	 1.2888324936e+000	 1.9578297017e-001
 3.9056535327e+000	 1.3272134276e+000	 2.2791423697e-001
 3.8924140299e+000	 1.3655541074e+000	 2.5025048814e-001
 3.8787671648e+000	 1.4038483827e+000	 2.6225259299e-001
 3.8647123118e+000	 1.4420900620e+000	 2.6332337755e-001
 3.8502489655e+000	 1.4802729153e+000	 2.5280886949e-001
 3.8353767419e+000	 1.5183906770e+000	 2.2999971302e-001
 3.9898056765e+000	 1.1419065916e+000	 5.9072115664e-001
 3.9785215400e+000	 1.1806211735e+000	 3.9208683649e-001
 3.9668324714e+000	 1.2193195415e+000	 2.2567876703e-001
 3.9547372631e+000	 1.2579956994e+000	 1.2832693472e-001
 3.9422348199e+000	 1.2966435997e+000	 1.6377269586e-001
 3.9293241602e+000	 1.3352571453e+000	 1.9439276492e-001
 3.9160044179e+000	 1.3738301929e+000	 2.1964235607e-001
 3.9022748446e+000	 1.4123565547e+000	 2.3891181427e-001
 3.8881348107e+000	 1.4508300017e+000	 2.5152770364e-001
 3.8735838077e+000	 1.4892442663e+000	 2.5675407458e-001
 3.8586214494e+000	 1.5275930447e+000	 2.5379390985e-001
 4.0138406504e+000	 1.1487855470e+000	 5.7154777944e-001
 4.0024885373e+000	 1.1877333493e+000	 3.5742330627e-001
 3.9907290525e+000	 1.2266648399e+000	 1.7659678455e-001
 3.9785609816e+000	 1.2655739868e+000	 9.7857549777e-002
 3.9659832225e+000	 1.3044547057e+000	 1.2613656049e-001
 3.9529947877e+000	 1.3433008631e+000	 1.5404594687e-001
 3.9395948060e+000	 1.3821062784e+000	 1.8097588698e-001
 3.9257825243e+000	 1.4208647267e+000	 2.0624594340e-001
 3.9115573096e+000	 1.4595699415e+000	 2.2910616545e-001
 3.8969186499e+000	 1.4982156173e+000	 2.4873837926e-001
 3.8818661569e+000	 1.5367954125e+000	 2.6425766581e-001
 4.0378756244e+000	 1.1556645023e+000	 5.4992028120e-001
 4.0264555345e+000	 1.1948455250e+000	 3.1906886027e-001
 4.0146256337e+000	 1.2340101384e+000	 1.2245714533e-001
 4.0023847000e+000	 1.2731522741e+000	 6.3017940664e-002
 3.9897316250e+000	 1.3122658117e+000	 8.2993145703e-002
 3.9766654151e+000	 1.3513445808e+000	 1.0702253269e-001
 3.9631851940e+000	 1.3903823639e+000	 1.3443097113e-001
 3.9492902041e+000	 1.4293728987e+000	 1.6446697247e-001
 3.9349798084e+000	 1.4683098813e+000	 1.9630380692e-001
 3.9202534922e+000	 1.5071869683e+000	 2.2904081712e-001
 3.9051108645e+000	 1.5459977802e+000	 2.6170492886e-001
 4.0619105984e+000	 1.1625434577e+000	 5.2612618393e-001
 4.0504225317e+000	 1.2019577008e+000	 2.7733176638e-001
 4.0385222148e+000	 1.2413554368e+000	 6.3588894639e-002
 4.0262084185e+000	 1.2807305615e+000	 2.3897703721e-002
 4.0134800275e+000	 1.3200769177e+000	 3.4460676355e-002
 4.0003360426e+000	 1.3593882986e+000	 5.3470337404e-002
 3.9867755821e+000	 1.3986584494e+000	 8.0185965557e-002
 3.9727978839e+000	 1.4378810707e+000	 1.1378474183e-001
 3.9584023073e+000	 1.4770498210e+000	 1.5336288168e-001
 3.9435883344e+000	 1.5161583193e+000	 1.9793697294e-001
 3.9283555720e+000	 1.5552001479e+000	 2.4644552003e-001
 4.0859455723e+000	 1.1694224131e+000	 5.0045470858e-001
 4.0743895290e+000	 1.2090698765e+000	 2.3252151017e-001
 4.0624187960e+000	 1.2487007353e+000	 3.2179406646e-004
 4.0500321369e+000	 1.2883088488e+000	-1.9413369733e-002
 4.0372284301e+000	 1.3278880237e+000	-1.9342968963e-002
 4.0240066701e+000	 1.3674320163e+000	-6.4637312971e-003
 4.0103659702e+000	 1.4069345349e+000	 1.8417739192e-002
 3.9963055637e+000	 1.4463892427e+000	 5.4407003362e-002
 3.9818248061e+000	 1.4857897608e+000	 1.0052293508e-001
 3.9669231766e+000	 1.5251296703e+000	 1.5569908418e-001
 3.9516002795e+000	 1.5644025157e+000	 2.1878525478e-001
 3.7191532043e+000	 1.4723788383e+000	 1.7894214497e-001
 3.7043349141e+000	 1.5092722896e+000	 1.1347717745e-001
 3.6891197520e+000	 1.5460903777e+000	 5.9004973706e-002
 3.6735077078e+000	 1.5828269397e+000	 1.4820184336e-002
 3.6574988949e+000	 1.6194757899e+000	-1.9852842121e-002
 3.6410935510e+000	 1.6560307222e+000	-4.5859861410e-002
 3.6242920395e+000	 1.6924855132e+000	-6.4116379259e-002
 3.6070948501e+000	 1.7288339256e+000	-7.5607138254e-002
 3.5895026000e+000	 1.7650697110e+000	-8.1385444062e-002
 3.5715160343e+000	 1.8011866135e+000	-8.2572329575e-002
 3.5531360273e+000	 1.8371783722e+000	-8.0355555996e-002
 3.7423979118e+000	 1.4815812060e+000	 6.3704571819e-002
 3.7274870073e+000	 1.5187052414e+000	 1.9703840360e-002
 3.7121767504e+000	 1.5557534425e+000	-1.5735297821e-002
 3.6964671309e+000	 1.5927196081e+000	-4.3312511611e-002
 3.6803582629e+000	 1.6295975136e+000	-6.3796438412e-002
 3.6638503857e+000	 1.6663809142e+000	-7.8024472084e-002
 3.6469438648e+000	 1.7030635476e+000	-8.6902394707e-002
 3.6296391930e+000	 1.7396391376e+000	-9.1403849926e-002
 3.6119369912e+000	 1.7761013967e+000	-9.2569656065e-002
 3.5938380095e+000	 1.8124440298e+000	-9.1506957622e-002
 3.5753431275e+000	 1.8486607371e+000	-8.9388214174e-002
 3.7656426193e+000	 1.4907835738e+000	 7.5430418316e-002
 3.7506391005e+000	 1.5281381932e+000	-8.1611093812e-002
 3.7352337488e+000	 1.5654165074e+000	-1.0281530356e-001
 3.7194265541e+000	 1.6026122765e+000	-1.1292738683e-001
 3.7032176310e+000	 1.6397192373e+000	-1.1831569733e-001
 3.6866072204e+000	 1.6767311062e+000	-1.1980969016e-001
 3.6695956900e+000	 1.7136415821e+000	-1.1830589413e-001
 3.6521835358e+000	 1.7504443496e+000	-1.1476737156e-001
 3.6343713825e+000	 1.7871330824e+000	-1.1022301817e-001
 3.6161599847e+000	 1.8237014462e+000	-1.0576670183e-001
 3.5975502277e+000	 1.8601431019e+000	-1.0255623894e-001
 3.7888873268e+000	 1.4999859415e+000	 1.4114281048e-001
 3.7737911937e+000	 1.5375711450e+000	 1.2525353845e-003
 3.7582907473e+000	 1.5750795722e+000	-1.3133047235e-001
 3.7423859773e+000	 1.6125049449e+000	-1.9397446480e-001
 3.7260769991e+000	 1.6498409610e+000	-1.8337661064e-001
 3.7093640551e+000	 1.6870812982e+000	-1.7119797227e-001
 3.6922475153e+000	 1.7242196165e+000	-1.5832629268e-001
 3.6747278786e+000	 1.7612495617e+000	-1.4571456730e-001
 3.6568057737e+000	 1.7981647681e+000	-1.3438033066e-001
 3.6384819600e+000	 1.8349588625e+000	-1.2540478201e-001
 3.6197573278e+000	 1.8716254667e+000	-1.1993174917e-001
 3.8121320343e+000	 1.5091883092e+000	 1.9255687455e-001
 3.7969432870e+000	 1.5470040968e+000	 7.0817792963e-002
 3.7813477457e+000	 1.5847426371e+000	-4.5881246038e-002
 3.7653454004e+000	 1.6223976132e+000	-1.5838813024e-001
 3.7489363672e+000	 1.6599626847e+000	-2.5894843957e-001
 3.7321208898e+000	 1.6974314902e+000	-2.3217462125e-001
 3.7148993405e+000	 1.7347976510e+000	-2.0696541287e-001
 3.6972722214e+000	 1.7720547737e+000	-1.8426425442e-001
 3.6792401650e+000	 1.8091964538e+000	-1.6507787725e-001
 3.6608039352e+000	 1.8462162788e+000	-1.5047541656e-001
 3.6419644280e+000	 1.8831078316e+000	-1.4793081145e-001
 3.8353767419e+000	 1.5183906770e+000	 2.2999971302e-001
 3.8200953802e+000	 1.5564370487e+000	 1.2740408316e-001
 3.8044047442e+000	 1.5944057020e+000	 2.7625523214e-002
 3.7883048236e+000	 1.6322902816e+000	-7.0199959392e-002
 3.7717957353e+000	 1.6700844084e+000	-1.6699998625e-001
 3.7548777245e+000	 1.7077816822e+000	-2.6376374774e-001
 3.7375511658e+000	 1.7453756855e+000	-2.6422741172e-001
 3.7198165642e+000	 1.7828599857e+000	-2.3043714410e-001
 3.7016745562e+000	 1.8202281395e+000	-2.0235338014e-001
 3.6831259104e+000	 1.8574736952e+000	-1.8103379221e-001
 3.6641715282e+000	 1.8945901964e+000	-1.8224993891e-001
 3.8586214494e+000	 1.5275930447e+000	 2.5379390985e-001
 3.8432474734e+000	 1.5658700005e+000	 1.7132663017e-001
 3.8274617426e+000	 1.6040687668e+000	 8.9497171665e-002
 3.8112642468e+000	 1.6421829500e+000	 7.4245755820e-003
 3.7946551034e+000	 1.6802061321e+000	-7.5834587282e-002
 3.7776345592e+000	 1.7181318743e+000	-1.6128408945e-001
 3.7602029910e+000	 1.7559537199e+000	-2.4998574275e-001
 3.7423609070e+000	 1.7936651978e+000	-2.8425578438e-001
 3.7241089475e+000	 1.8312598252e+000	-2.4624595674e-001
 3.7054478856e+000	 1.8687311115e+000	-2.1713603482e-001
 3.6863786283e+000	 1.9060725612e+000	-2.1995678952e-001
 3.8818661569e+000	 1.5367954125e+000	 2.6425766581e-001
 3.8663995666e+000	 1.5753029523e+000	 2.0289660328e-001
 3.8505187411e+000	 1.6137318317e+000	 1.4003732357e-001
 3.8342236700e+000	 1.6520756183e+000	 7.4781036687e-002
 3.8175144715e+000	 1.6903278558e+000	 6.1675966273e-003
 3.8003913939e+000	 1.7284820663e+000	-6.6822303822e-002
 3.7828548162e+000	 1.7665317544e+000	-1.4526476077e-001
 3.7649052498e+000	 1.8044704098e+000	-2.3029011301e-001
 3.7465433387e+000	 1.8422915109e+000	-2.9679607780e-001
 3.7277698608e+000	 1.8799885278e+000	-2.6287261489e-001
 3.7085857285e+000	 1.9175549260e+000	-2.6084852365e-001
 3.9051108645e+000	 1.5459977802e+000	 2.6170492886e-001
 3.8895516598e+000	 1.5847359041e+000	 2.2242123757e-001
 3.8735757395e+000	 1.6233948965e+000	 1.7954600165e-001
 3.8571830931e+000	 1.6619682867e+000	 1.3216173115e-001
 3.8403738396e+000	 1.7004495794e+000	 7.9290650581e-002
 3.8231482286e+000	 1.7388322583e+000	 1.9896962264e-002
 3.8055066415e+000	 1.7771097888e+000	-4.7110712194e-002
 3.7874495926e+000	 1.8152756218e+000	-1.2287671592e-001
 3.7689777300e+000	 1.8533231966e+000	-2.0859557062e-001
 3.7500918360e+000	 1.8912459442e+000	-3.1756855023e-001
 3.7307928287e+000	 1.9290372909e+000	-3.0472274308e-001
 3.9283555720e+000	 1.5552001479e+000	 2.4644552003e-001
 3.9127037530e+000	 1.5941688559e+000	 2.3020395031e-001
 3.8966327380e+000	 1.6330579614e+000	 2.0831973366e-001
 3.8801425163e+000	 1.6718609551e+000	 1.7985580770e-001
 3.8632332077e+000	 1.7105713031e+000	 1.4381585126e-001
 3.8459050633e+000	 1.7491824503e+000	 9.9146617058e-002
 3.8281584667e+000	 1.7876878233e+000	 4.4740443329e-002
 3.8099939354e+000	 1.8260808339e+000	-2.0562059478e-002
 3.7914121212e+000	 1.8643548823e+000	-9.7969151382e-002
 3.7724138112e+000	 1.9025033605e+000	-2.0737636007e-001
 3.7529999288e+000	 1.9405196557e+000	-3.2900076099e-001
 3.9516002795e+000	 1.5644025157e+000	 2.1878525478e-001
 3.9358558462e+000	 1.6036018077e+000	 2.2654445324e-001
 3.9196897364e+000	 1.6427210263e+000	 2.2665165517e-001
 3.9031019395e+000	 1.6817536235e+000	 2.1814934950e-001
 3.8860925758e+000	 1.7206930268e+000	 2.0002174952e-001
 3.8686618980e+000	 1.7595326423e+000	 1.7119719584e-001
 3.8508102920e+000	 1.7982658577e+000	 1.3055073902e-001
 3.8325382783e+000	 1.8368860459e+000	 7.6906898035e-002
 3.8138465125e+000	 1.8753865680e+000	 8.7535164957e-003
 3.7947357865e+000	 1.9137607768e+000	-9.8300906316e-002
 3.7752070290e+000	 1.9520020205e+000	-2.1121750415e-001
 3.5531360273e+000	 1.8371783722e+000	-8.0355555996e-002
 3.5343635826e+000	 1.8730387253e+000	-2.8208781245e-002
 3.5151998336e+000	 1.9087614125e+000	-2.2797490118e-002
 3.4956460444e+000	 1.9443401791e+000	-3.6543529071e-002
 3.4757036097e+000	 1.9797687788e+000	-6.8690681203e-002
 3.4553740550e+000	 2.0150409773e+000	-1.1969117970e-001
 3.4346590368e+000	 2.0501505556e+000	-1.8997629263e-001
 3.4135603429e+000	 2.0850913135e+000	-2.7995475812e-001
 3.3920798916e+000	 2.1198570727e+000	-3.9001124822e-001
 3.3702197324e+000	 2.1544416806e+000	-5.2050486636e-001
 3.3479820449e+000	 2.1888390135e+000	-6.7176768263e-001
 3.5753431275e+000	 1.8486607371e+000	-8.9388214174e-002
 3.5564533549e+000	 1.8847452173e+000	-4.2535170533e-002
 3.5371698326e+000	 1.9206911713e+000	-3.4369455733e-002
 3.5174938322e+000	 1.9564923052e+000	-4.3340776128e-002
 3.4974267573e+000	 1.9921423336e+000	-6.9934790395e-002
 3.4769701428e+000	 2.0276349834e+000	-1.1461833246e-001
 3.4561256558e+000	 2.0629639966e+000	-1.7783779425e-001
 3.4348950950e+000	 2.0981231342e+000	-2.6001753190e-001
 3.4132803910e+000	 2.1331061794e+000	-3.6155830016e-001
 3.3912836057e+000	 2.1679069412e+000	-4.8283571965e-001
 3.3689069327e+000	 2.2025192574e+000	-6.2419878168e-001
 3.5975502277e+000	 1.8601431019e+000	-1.0255623894e-001
 3.5785431273e+000	 1.8964517093e+000	-6.2063349561e-002
 3.5591398315e+000	 1.9326209301e+000	-4.9701348790e-002
 3.5393416200e+000	 1.9686444313e+000	-5.3700113395e-002
 3.5191499048e+000	 2.0045158885e+000	-7.4559764505e-002
 3.4985662307e+000	 2.0402289895e+000	-1.1276213767e-001
 3.4775922748e+000	 2.0757774376e+000	-1.6876913665e-001
 3.4562298472e+000	 2.1111549549e+000	-2.4302110995e-001
 3.4344808903e+000	 2.1463552861e+000	-3.3593525502e-001
 3.4123474791e+000	 2.1813722017e+000	-4.4790405469e-001
 3.3898318204e+000	 2.2161995012e+000	-5.7929375078e-001
 3.6197573278e+000	 1.8716254667e+000	-1.1993174917e-001
 3.6006328997e+000	 1.9081582014e+000	-8.5357591875e-002
 3.5811098305e+000	 1.9445506890e+000	-6.8581973066e-002
 3.5611894078e+000	 1.9807965574e+000	-6.7406909774e-002
 3.5408730524e+000	 2.0168894434e+000	-8.2347401185e-002
 3.5201623185e+000	 2.0528229956e+000	-1.1390068799e-001
 3.4990588938e+000	 2.0885908786e+000	-1.6254457644e-001
 3.4775645993e+000	 2.1241867756e+000	-2.2873578458e-001
 3.4556813896e+000	 2.1596043928e+000	-3.1290831537e-001
 3.4334113524e+000	 2.1948374622e+000	-4.1547186177e-001
 3.4107567082e+000	 2.2298797451e+000	-5.3681024837e-001
 3.6419644280e+000	 1.8831078316e+000	-1.4793081145e-001
 3.6227226721e+000	 1.9198646934e+000	-1.1221048820e-001
 3.6030798295e+000	 1.9564804478e+000	-9.0800620794e-002
 3.5830371956e+000	 1.9929486836e+000	-8.4247025191e-002
 3.5625962000e+000	 2.0292629983e+000	-9.3079996818e-002
 3.5417584064e+000	 2.0654170017e+000	-1.1781258766e-001
 3.5205255128e+000	 2.1014043195e+000	-1.5893889989e-001
 3.4988993514e+000	 2.1372185963e+000	-2.1693240096e-001
 3.4768818889e+000	 2.1728534996e+000	-2.9224426510e-001
 3.4544752257e+000	 2.2083027227e+000	-3.8530174614e-001
 3.4316815960e+000	 2.2435599889e+000	-4.9650658668e-001
 3.6641715282e+000	 1.8945901964e+000	-1.8224993891e-001
 3.6448124445e+000	 1.9315711854e+000	-1.4241510539e-001
 3.6250498284e+000	 1.9684102066e+000	-1.1614705786e-001
 3.6048849833e+000	 2.0051008097e+000	-1.0400679571e-001
 3.5843193475e+000	 2.0416365531e+000	-1.0654033140e-001
 3.5633544942e+000	 2.0780110078e+000	-1.2427693705e-001
 3.5419921317e+000	 2.1142177605e+000	-1.5772740686e-001
 3.5202341036e+000	 2.1502504171e+000	-2.0738234042e-001
 3.4980823883e+000	 2.1861026063e+000	-2.7371045176e-001
 3.4755390991e+000	 2.2217679832e+000	-3.5715690933e-001
 3.4526064838e+000	 2.2572402327e+000	-4.5814171187e-001
 3.6863786283e+000	 1.9060725612e+000	-2.1995678952e-001
 3.6669022169e+000	 1.9432776775e+000	-1.7576497209e-001
 3.6470198274e+000	 1.9803399655e+000	-1.4441150952e-001
 3.6267327711e+000	 2.0172529358e+000	-1.2647301919e-001
 3.6060424951e+000	 2.0540101080e+000	-1.2251165398e-001
 3.5849505821e+000	 2.0906050139e+000	-1.3307331765e-001
 3.5634587507e+000	 2.1270312015e+000	-1.5868589533e-001
 3.5415688557e+000	 2.1632822378e+000	-1.9985750424e-001
 3.5192828876e+000	 2.1993517130e+000	-2.5707476963e-001
 3.4966029724e+000	 2.2352332437e+000	-3.3080113121e-001
 3.4735313716e+000	 2.2709204766e+000	-4.2147518498e-001
 3.7085857285e+000	 1.9175549260e+000	-2.6084852365e-001
 3.6889919893e+000	 1.9549841695e+000	-2.1205406488e-001
 3.6689898263e+000	 1.9922697243e+000	-1.7538464667e-001
 3.6485805589e+000	 2.0294050619e+000	-1.5143294148e-001
 3.6277656426e+000	 2.0663836629e+000	-1.4077766862e-001
 3.6065466699e+000	 2.1031990201e+000	-1.4398177773e-001
 3.5849253697e+000	 2.1398446424e+000	-1.6159064650e-001
 3.5629036079e+000	 2.1763140585e+000	-1.9413029811e-001
 3.5404833869e+000	 2.2126008197e+000	-2.4210564333e-001
 3.5176668457e+000	 2.2486985042e+000	-3.0599875265e-001
 3.4944562593e+000	 2.2846007204e+000	-3.8626716345e-001
 3.7307928287e+000	 1.9290372909e+000	-3.0472274308e-001
 3.7110817617e+000	 1.9666906615e+000	-2.5107679501e-001
 3.6909598253e+000	 2.0041994831e+000	-2.0885757259e-001
 3.6704283467e+000	 2.0415571880e+000	-1.7867424304e-001
 3.6494887902e+000	 2.0787572177e+000	-1.6112252084e-001
 3.6281427577e+000	 2.1157930262e+000	-1.5678281839e-001
 3.6063919887e+000	 2.1526580834e+000	-1.6621841038e-001
 3.5842383600e+000	 2.1893458792e+000	-1.8997361711e-001
 3.5616838862e+000	 2.2258499264e+000	-2.2857201204e-001
 3.5387307190e+000	 2.2621637647e+000	-2.8251465889e-001
 3.5153811471e+000	 2.2982809642e+000	-3.5227838347e-001
 3.7529999288e+000	 1.9405196557e+000	-3.2900076099e-001
 3.7331715341e+000	 1.9783971536e+000	-2.9262799545e-001
 3.7129298243e+000	 2.0161292419e+000	-2.4462181010e-001
 3.6922761344e+000	 2.0537093142e+000	-2.0798502614e-001
 3.6712119378e+000	 2.0911307726e+000	-1.8333078456e-001
 3.6497388456e+000	 2.1283870323e+000	-1.7125738021e-001
 3.6278586077e+000	 2.1654715244e+000	-1.7234639198e-001
 3.6055731122e+000	 2.2023776999e+000	-1.8716083127e-001
 3.5828843855e+000	 2.2390990331e+000	-2.1624331428e-001
 3.5597945924e+000	 2.2756290252e+000	-2.6011426334e-001
 3.5363060349e+000	 2.3119612081e+000	-3.1927014277e-001
 3.7752070290e+000	 1.9520020205e+000	-2.1121750415e-001
 3.7552613065e+000	 1.9901036456e+000	-2.9773579515e-001
 3.7348998232e+000	 2.0280590008e+000	-2.8246928929e-001
 3.7141239222e+000	 2.0658614403e+000	-2.3915380241e-001
 3.6929350853e+000	 2.1035043275e+000	-2.0718744951e-001
 3.6713349334e+000	 2.1409810384e+000	-1.8718683030e-001
 3.6493252266e+000	 2.1782849654e+000	-1.7975223785e-001
 3.6269078643e+000	 2.2154095206e+000	-1.8546577152e-001
 3.6040848849e+000	 2.2523481398e+000	-2.0488947318e-001
 3.5808584657e+000	 2.2890942857e+000	-2.3856349213e-001
 3.5572309227e+000	 2.3256414519e+000	-2.8700428413e-001
 3.3479820449e+000	 2.1888390135e+000	-6.7176768263e-001
 3.3253691387e+000	 2.2230429801e+000	-7.2519316554e-001
 3.3023834532e+000	 2.2570475246e+000	-7.5207799399e-001
 3.2790275563e+000	 2.2908466307e+000	-7.5303909118e-001
 3.2553041442e+000	 2.3244343245e+000	-7.2870749518e-001
 3.2312160404e+000	 2.3578046781e+000	-6.7972700636e-001
 3.2067661948e+000	 2.3909518130e+000	-6.0675283619e-001
 3.1819576824e+000	 2.4238699031e+000	-5.1045026140e-001
 3.1567937025e+000	 2.4565531787e+000	-3.9149328700e-001
 3.1312775773e+000	 2.4889959289e+000	-2.5056332209e-001
 3.1054127503e+000	 2.5211925056e+000	-3.7058671848e-001
 3.3689069327e+000	 2.2025192574e+000	-6.2419878168e-001
 3.3461526958e+000	 2.2369369987e+000	-6.7692117064e-001
 3.3230233498e+000	 2.2711540716e+000	-7.0523836401e-001
 3.2995214785e+000	 2.3051644221e+000	-7.0975887728e-001
 3.2756497951e+000	 2.3389620390e+000	-6.9110299806e-001
 3.2514111407e+000	 2.3725409573e+000	-6.4990141566e-001
 3.2268084835e+000	 2.4058952618e+000	-5.8679385560e-001
 3.2018449179e+000	 2.4390190900e+000	-5.0242772305e-001
 3.1765236632e+000	 2.4719066360e+000	-3.9745675895e-001
 3.1508480621e+000	 2.5045521534e+000	-2.8933219624e-001
 3.1248215800e+000	 2.5369499587e+000	-2.6170153879e-001
 3.3898318204e+000	 2.2161995012e+000	-5.7929375078e-001
 3.3669362530e+000	 2.2508310173e+000	-6.3060076973e-001
 3.3436632464e+000	 2.2852606186e+000	-6.5962243992e-001
 3.3200154007e+000	 2.3194822135e+000	-6.6695937375e-001
 3.2959954460e+000	 2.3534897535e+000	-6.5322161806e-001
 3.2716062409e+000	 2.3872772366e+000	-6.1902726517e-001
 3.2468507722e+000	 2.4208387106e+000	-5.6500107240e-001
 3.2217321534e+000	 2.4541682769e+000	-4.9177309426e-001
 3.1962536238e+000	 2.4872600934e+000	-3.9997733084e-001
 3.1704185470e+000	 2.5201083780e+000	-3.6099087386e-001
 3.1442304097e+000	 2.5527074119e+000	-3.4183067370e-001
 3.4107567082e+000	 2.2298797451e+000	-5.3681024837e-001
 3.3877198101e+000	 2.2647250359e+000	-5.8599727938e-001
 3.3643031429e+000	 2.2993671657e+000	-6.1500372759e-001
 3.3405093230e+000	 2.3338000050e+000	-6.2442280594e-001
 3.3163410969e+000	 2.3680174680e+000	-6.1485482874e-001
 3.2918013412e+000	 2.4020135158e+000	-5.8690580352e-001
 3.2668930610e+000	 2.4357821594e+000	-5.4118603501e-001
 3.2416193890e+000	 2.4693174638e+000	-4.7830874523e-001
 3.2159835844e+000	 2.5026135508e+000	-4.0797542859e-001
 3.1899890318e+000	 2.5356646025e+000	-4.2310288056e-001
 3.1636392394e+000	 2.5684648651e+000	-4.1346173547e-001
 3.4316815960e+000	 2.2435599889e+000	-4.9650658668e-001
 3.4085033672e+000	 2.2786190546e+000	-5.4287641863e-001
 3.3849430395e+000	 2.3134737127e+000	-5.7115587361e-001
 3.3610032452e+000	 2.3481177964e+000	-5.8193126772e-001
 3.3366867478e+000	 2.3825451826e+000	-5.7579368961e-001
 3.3119964414e+000	 2.4167497950e+000	-5.5333757254e-001
 3.2869353497e+000	 2.4507256083e+000	-5.1515928209e-001
 3.2615066245e+000	 2.4844666507e+000	-4.6185572356e-001
 3.2357135451e+000	 2.5179670081e+000	-4.5362927075e-001
 3.2095595167e+000	 2.5512208271e+000	-4.7576320939e-001
 3.1830480690e+000	 2.5842223182e+000	-4.7490641155e-001
 3.4526064838e+000	 2.2572402327e+000	-4.5814171187e-001
 3.4292869243e+000	 2.2925130732e+000	-5.0100429686e-001
 3.4055829361e+000	 2.3275802597e+000	-5.2785266106e-001
 3.3814971674e+000	 2.3624355879e+000	-5.3926672545e-001
 3.3570323987e+000	 2.3970728971e+000	-5.3582885869e-001
 3.3321915417e+000	 2.4314860743e+000	-5.1812242867e-001
 3.3069776384e+000	 2.4656690571e+000	-4.8673037323e-001
 3.2813938600e+000	 2.4996158376e+000	-4.4223379434e-001
 3.2554435057e+000	 2.5333204655e+000	-4.9062661970e-001
 3.2291300016e+000	 2.5667770517e+000	-5.1906493552e-001
 3.2024568987e+000	 2.5999797714e+000	-5.2627253140e-001
 3.4735313716e+000	 2.2709204766e+000	-4.2147518498e-001
 3.4500704814e+000	 2.3064070918e+000	-4.6014740200e-001
 3.4262228327e+000	 2.3416868067e+000	-4.8486800534e-001
 3.4019910896e+000	 2.3767533793e+000	-4.9621102183e-001
 3.3773780496e+000	 2.4116006116e+000	-4.9475060462e-001
 3.3523866420e+000	 2.4462223535e+000	-4.8105956357e-001
 3.3270199271e+000	 2.4806125059e+000	-4.5570791839e-001
 3.3012810955e+000	 2.5147650245e+000	-4.6556008842e-001
 3.2751734664e+000	 2.5486739229e+000	-5.1904462807e-001
 3.2487004864e+000	 2.5823332762e+000	-5.5309927400e-001
 3.2218657284e+000	 2.6157372245e+000	-5.6766574267e-001
 3.4944562593e+000	 2.2846007204e+000	-3.8626716345e-001
 3.4708540386e+000	 2.3203011104e+000	-4.2007258920e-001
 3.4468627293e+000	 2.3557933538e+000	-4.4197595027e-001
 3.4224850119e+000	 2.3910711707e+000	-4.5254587961e-001
 3.3977237005e+000	 2.4261283262e+000	-4.5234881828e-001
 3.3725817422e+000	 2.4609586328e+000	-4.4194752407e-001
 3.3470622158e+000	 2.4955559548e+000	-4.2189960632e-001
 3.3211683310e+000	 2.5299142114e+000	-4.8230114432e-001
 3.2949034270e+000	 2.5640273802e+000	-5.3895894741e-001
 3.2682709713e+000	 2.5978895008e+000	-5.7795563545e-001
 3.2412745581e+000	 2.6314946777e+000	-5.9918957650e-001
 3.5153811471e+000	 2.2982809642e+000	-3.5227838347e-001
 3.4916375957e+000	 2.3341951291e+000	-3.8054706990e-001
 3.4675026259e+000	 2.3698999008e+000	-3.9895066423e-001
 3.4429789341e+000	 2.4053889622e+000	-4.0805290514e-001
 3.4180693514e+000	 2.4406560407e+000	-4.0841302407e-001
 3.3927768425e+000	 2.4756949120e+000	-4.0058423134e-001
 3.3671045045e+000	 2.5104994036e+000	-4.1630886719e-001
 3.3410555665e+000	 2.5450633983e+000	-4.9125669974e-001
 3.3146333876e+000	 2.5793808376e+000	-5.5044377287e-001
 3.2878414561e+000	 2.6134457253e+000	-5.9372167979e-001
 3.2606833878e+000	 2.6472521309e+000	-6.2094551056e-001
 3.5363060349e+000	 2.3119612081e+000	-3.1927014277e-001
 3.5124211528e+000	 2.3480891477e+000	-3.4133840131e-001
 3.4881425224e+000	 2.3840064478e+000	-3.5556643649e-001
 3.4634728563e+000	 2.4197067536e+000	-3.6251359182e-001
 3.4384150023e+000	 2.4551837552e+000	-3.6273239072e-001
 3.4129719427e+000	 2.4904311912e+000	-3.5676699939e-001
 3.3871467933e+000	 2.5254428524e+000	-4.1741761943e-001
 3.3609428020e+000	 2.5602125852e+000	-4.9248670899e-001
 3.3343633483e+000	 2.5947342950e+000	-5.5357188623e-001
 3.3074119410e+000	 2.6290019499e+000	-6.0048336801e-001
 3.2800922175e+000	 2.6630095840e+000	-6.3303302974e-001
 3.5572309227e+000	 2.3256414519e+000	-2.8700428413e-001
 3.5332047099e+000	 2.3619831663e+000	-3.0221447619e-001
 3.5087824190e+000	 2.3981129948e+000	-3.1159767363e-001
 3.4839667785e+000	 2.4340245451e+000	-3.1570932345e-001
 3.4587606532e+000	 2.4697114697e+000	-3.1509574177e-001
 3.4331670430e+000	 2.5051674705e+000	-3.2488091283e-001
 3.4071890820e+000	 2.5403863013e+000	-4.1146210296e-001
 3.3808300376e+000	 2.5753617721e+000	-4.8605002369e-001
 3.3540933089e+000	 2.6100877523e+000	-5.4841469754e-001
 3.3269824258e+000	 2.6445581744e+000	-5.9832501216e-001
 3.2995010472e+000	 2.6787670372e+000	-6.3554968481e-001
 3.1054127503e+000	 2.5211925056e+000	-3.7058671848e-001
 3.0792027853e+000	 2.5531373263e+000	-5.4783516835e-001
 3.0526513643e+000	 2.5848248776e+000	-6.8880430988e-001
 3.0257622864e+000	 2.6162497178e+000	-7.9467494988e-001
 2.9985394656e+000	 2.6474064805e+000	-8.6665515973e-001
 2.9709869289e+000	 2.6782898775e+000	-9.0597784039e-001
 2.9431088147e+000	 2.7088947016e+000	-9.1389826272e-001
 2.9149093706e+000	 2.7392158296e+000	-8.9169158915e-001
 2.8863929509e+000	 2.7692482252e+000	-8.4065038293e-001
 2.8575640151e+000	 2.7989869417e+000	-7.6208211105e-001
 2.8284271247e+000	 2.8284271247e+000	-6.5730664714e-001
 3.1248215800e+000	 2.5369499587e+000	-2.6170153879e-001
 3.0984478027e+000	 2.5690944346e+000	-4.4981150927e-001
 3.0717304354e+000	 2.6009800331e+000	-6.0141673506e-001
 3.0446733007e+000	 2.6326012785e+000	-7.1773657236e-001
 3.0172803372e+000	 2.6639527710e+000	-8.0001761951e-001
 2.9895555972e+000	 2.6950291893e+000	-8.4953121688e-001
 2.9615032448e+000	 2.7258252935e+000	-8.6757092235e-001
 2.9331275541e+000	 2.7563359285e+000	-8.5544996842e-001
 2.9044329069e+000	 2.7865560266e+000	-8.1449870763e-001
 2.8754237902e+000	 2.8164806100e+000	-7.4606205223e-001
 2.8461047943e+000	 2.8461047943e+000	-6.5149691464e-001
 3.1442304097e+000	 2.5527074119e+000	-3.4183067370e-001
 3.1176928201e+000	 2.5850515429e+000	-3.5245496971e-001
 3.0908095064e+000	 2.6171351885e+000	-5.1474148163e-001
 3.0635843150e+000	 2.6489528392e+000	-6.4155388396e-001
 3.0360212089e+000	 2.6804990615e+000	-7.3417766123e-001
 3.0081242655e+000	 2.7117685010e+000	-7.9392295030e-001
 2.9798976749e+000	 2.7427558854e+000	-8.2212195029e-001
 2.9513457377e+000	 2.7734560275e+000	-8.2012631459e-001
 2.9224728628e+000	 2.8038638280e+000	-7.8930453165e-001
 2.8932835653e+000	 2.8339742784e+000	-7.3103930080e-001
 2.8637824638e+000	 2.8637824638e+000	-6.4672490972e-001
 3.1636392394e+000	 2.5684648651e+000	-4.1346173547e-001
 3.1369378375e+000	 2.6010086512e+000	-3.6217086392e-001
 3.1098885774e+000	 2.6332903440e+000	-4.2872993376e-001
 3.0824953293e+000	 2.6653044000e+000	-5.6607148709e-001
 3.0547620806e+000	 2.6970453520e+000	-6.6907321164e-001
 3.0266929338e+000	 2.7285078127e+000	-7.3908440355e-001
 2.9982921050e+000	 2.7596864773e+000	-7.7747626302e-001
 2.9695639212e+000	 2.7905761264e+000	-7.8563922060e-001
 2.9405128187e+000	 2.8211716294e+000	-7.6498025269e-001
 2.9111433403e+000	 2.8514679468e+000	-7.1692019282e-001
 2.8814601333e+000	 2.8814601333e+000	-6.4289104550e-001
 3.1830480690e+000	 2.5842223182e+000	-4.7490641155e-001
 3.1561828549e+000	 2.6169657595e+000	-4.2909228128e-001
 3.1289676484e+000	 2.6494454995e+000	-3.7536392691e-001
 3.1014063436e+000	 2.6816559607e+000	-4.9123196162e-001
 3.0735029522e+000	 2.7135916425e+000	-6.0464027187e-001
 3.0452616021e+000	 2.7452471245e+000	-6.8494510959e-001
 3.0166865351e+000	 2.7766170692e+000	-7.3355704152e-001
 2.9877821048e+000	 2.8076962253e+000	-7.5190563705e-001
 2.9585527747e+000	 2.8384794308e+000	-7.4143671791e-001
 2.9290031154e+000	 2.8689616152e+000	-7.0360960422e-001
 2.8991378028e+000	 2.8991378028e+000	-6.3989436401e-001
 3.2024568987e+000	 2.5999797714e+000	-5.2627253140e-001
 3.1754278723e+000	 2.6329228678e+000	-4.8614945176e-001
 3.1480467195e+000	 2.6656006550e+000	-4.3841721789e-001
 3.1203173579e+000	 2.6980075215e+000	-4.1697592623e-001
 3.0922438239e+000	 2.7301379330e+000	-5.4081297575e-001
 3.0638302704e+000	 2.7619864362e+000	-6.3143282693e-001
 3.0350809652e+000	 2.7935476611e+000	-6.9028578387e-001
 3.0060002884e+000	 2.8248163243e+000	-7.1884092198e-001
 2.9765927306e+000	 2.8557872322e+000	-7.1858327096e-001
 2.9468628905e+000	 2.8864552836e+000	-6.9101099510e-001
 2.9168154724e+000	 2.9168154724e+000	-6.3763257774e-001
 3.2218657284e+000	 2.6157372245e+000	-5.6766574267e-001
 3.1946728897e+000	 2.6488799761e+000	-5.3344561331e-001
 3.1671257905e+000	 2.6817558105e+000	-4.9192116092e-001
 3.1392283722e+000	 2.7143590822e+000	-4.4296114285e-001
 3.1109846955e+000	 2.7466842236e+000	-4.7752364614e-001
 3.0823989387e+000	 2.7787257480e+000	-5.7847359303e-001
 3.0534753953e+000	 2.8104782529e+000	-6.4758235595e-001
 3.0242184719e+000	 2.8419364232e+000	-6.8635888880e-001
 2.9946326866e+000	 2.8730950336e+000	-6.9632779722e-001
 2.9647226656e+000	 2.9039489520e+000	-6.7902645234e-001
 2.9344931419e+000	 2.9344931419e+000	-6.3600210967e-001
 3.2412745581e+000	 2.6314946777e+000	-5.9918957650e-001
 3.2139179071e+000	 2.6648370844e+000	-5.7108197876e-001
 3.1862048615e+000	 2.6979109660e+000	-5.3597469076e-001
 3.1581393865e+000	 2.7307106429e+000	-4.9373551134e-001
 3.1297255672e+000	 2.7632305141e+000	-4.4423024124e-001
 3.1009676070e+000	 2.7954650597e+000	-5.2599177585e-001
 3.0718698253e+000	 2.8274088448e+000	-6.0536504031e-001
 3.0424366555e+000	 2.8590565222e+000	-6.5437185261e-001
 3.0126726425e+000	 2.8904028350e+000	-6.7457676749e-001
 2.9825824407e+000	 2.9214426203e+000	-6.6755673076e-001
 2.9521708114e+000	 2.9521708114e+000	-6.3489813190e-001
 3.2606833878e+000	 2.6472521309e+000	-6.2094551056e-001
 3.2331629245e+000	 2.6807941927e+000	-5.9915779614e-001
 3.2052839325e+000	 2.7140661215e+000	-5.7067486512e-001
 3.1770504007e+000	 2.7470622037e+000	-5.3536323941e-001
 3.1484664388e+000	 2.7797768046e+000	-4.9308713796e-001
 3.1195362753e+000	 2.8122043714e+000	-4.7391012353e-001
 3.0902642554e+000	 2.8443394367e+000	-5.6355058325e-001
 3.0606548391e+000	 2.8761766211e+000	-6.2279067470e-001
 3.0307125985e+000	 2.9077106364e+000	-6.5323528006e-001
 3.0004422158e+000	 2.9389362887e+000	-6.5650129271e-001
 2.9698484810e+000	 2.9698484810e+000	-6.3421460287e-001
 3.2800922175e+000	 2.6630095840e+000	-6.3303302974e-001
 3.2524079419e+000	 2.6967513009e+000	-6.1777040680e-001
 3.2243630036e+000	 2.7302212769e+000	-5.9611692018e-001
 3.1959614150e+000	 2.7634137644e+000	-5.6793749624e-001
 3.1672073105e+000	 2.7963230951e+000	-5.3309445278e-001
 3.1381049436e+000	 2.8289436832e+000	-4.9144838934e-001
 3.1086586855e+000	 2.8612700286e+000	-5.2205424033e-001
 3.0788730226e+000	 2.8932967200e+000	-5.9152480565e-001
 3.0487525544e+000	 2.9250184379e+000	-6.3220710135e-001
 3.0183019909e+000	 2.9564299571e+000	-6.4575834634e-001
 2.9875261505e+000	 2.9875261505e+000	-6.3384430327e-001
 3.2995010472e+000	 2.6787670372e+000	-6.3554968481e-001
 3.2716529593e+000	 2.7127084092e+000	-6.2701530145e-001
 3.2434420746e+000	 2.7463764324e+000	-6.1239432419e-001
 3.2148724293e+000	 2.7797653252e+000	-5.9154976481e-001
 3.1859481822e+000	 2.8128693856e+000	-5.6434172034e-001
 3.1566736119e+000	 2.8456829949e+000	-5.3062827782e-001
 3.1270531156e+000	 2.8782006205e+000	-4.9026642796e-001
 3.0970912062e+000	 2.9104168190e+000	-5.6048232675e-001
 3.0667925103e+000	 2.9423262393e+000	-6.1139470507e-001
 3.0361617660e+000	 2.9739236255e+000	-6.3522488248e-001
 3.0052038200e+000	 3.0052038200e+000	-6.3367887067e-001
 2.8284271247e+000	 2.8284271247e+000	-6.5730664714e-001
 2.7989869417e+000	 2.8575640151e+000	-6.6607696432e-001
 2.7692482252e+000	 2.8863929509e+000	-6.7211925111e-001
 2.7392158296e+000	 2.9149093706e+000	-6.7631237761e-001
 2.7088947016e+000	 2.9431088147e+000	-6.7951882160e-001
 2.6782898775e+000	 2.9709869289e+000	-6.8258277923e-001
 2.6474064805e+000	 2.9985394656e+000	-6.8632833500e-001
 2.6162497178e+000	 3.0257622864e+000	-6.9155769556e-001
 2.5848248776e+000	 3.0526513643e+000	-6.9904949172e-001
 2.5531373263e+000	 3.0792027853e+000	-7.0955715270e-001
 2.5211925056e+000	 3.1054127503e+000	-7.2380735647e-001
 2.8461047943e+000	 2.8461047943e+000	-6.5149691464e-001
 2.8164806100e+000	 2.8754237902e+000	-6.6179066011e-001
 2.7865560266e+000	 2.9044329069e+000	-6.6810781173e-001
 2.7563359285e+000	 2.9331275541e+000	-6.7135597742e-001
 2.7258252935e+000	 2.9615032448e+000	-6.7242700899e-001
 2.6950291893e+000	 2.9895555972e+000	-6.7219506243e-001
 2.6639527710e+000	 3.0172803372e+000	-6.7151471752e-001
 2.6326012785e+000	 3.0446733007e+000	-6.7121916124e-001
 2.6009800331e+000	 3.0717304354e+000	-6.7211843960e-001
 2.5690944346e+000	 3.0984478027e+000	-6.7499778197e-001
 2.5369499587e+000	 3.1248215800e+000	-6.8061600188e-001
 2.8637824638e+000	 2.8637824638e+000	-6.4672490972e-001
 2.8339742784e+000	 2.8932835653e+000	-6.5845154374e-001
 2.8038638280e+000	 2.9224728628e+000	-6.6497153315e-001
 2.7734560275e+000	 2.9513457377e+000	-6.6722159131e-001
 2.7427558854e+000	 2.9798976749e+000	-6.6612329265e-001
 2.7117685010e+000	 3.0081242655e+000	-6.6258108210e-001
 2.6804990615e+000	 3.0360212089e+000	-6.5748034363e-001
 2.6489528392e+000	 3.0635843150e+000	-6.5168553286e-001
 2.6171351885e+000	 3.0908095064e+000	-6.4603837820e-001
 2.5850515429e+000	 3.1176928201e+000	-6.4135615481e-001
 2.5527074119e+000	 3.1442304097e+000	-6.7343682003e-001
 2.8814601333e+000	 2.8814601333e+000	-6.4289104550e-001
 2.8514679468e+000	 2.9111433403e+000	-6.5595667683e-001
 2.8211716294e+000	 2.9405128187e+000	-6.6260395679e-001
 2.7905761264e+000	 2.9695639212e+000	-6.6379907558e-001
 2.7596864773e+000	 2.9982921050e+000	-6.6049368281e-001
 2.7285078127e+000	 3.0266929338e+000	-6.5362284532e-001
 2.6970453520e+000	 3.0547620806e+000	-6.4410306423e-001
 2.6653044000e+000	 3.0824953293e+000	-6.3283035617e-001
 2.6332903440e+000	 3.1098885774e+000	-6.2067840324e-001
 2.6010086512e+000	 3.1369378375e+000	-6.2995285080e-001
 2.5684648651e+000	 3.1636392394e+000	-6.6687388061e-001
 2.8991378028e+000	 2.8991378028e+000	-6.3989436401e-001
 2.8689616152e+000	 2.9290031154e+000	-6.5420177827e-001
 2.8384794308e+000	 2.9585527747e+000	-6.6089731586e-001
 2.8076962253e+000	 2.9877821048e+000	-6.6097701912e-001
 2.7766170692e+000	 3.0166865351e+000	-6.5542296920e-001
 2.7452471245e+000	 3.0452616021e+000	-6.4520119179e-001
 2.7135916425e+000	 3.0735029522e+000	-6.3125962211e-001
 2.6816559607e+000	 3.1014063436e+000	-6.1452613417e-001
 2.6494454995e+000	 3.1289676484e+000	-6.0291130974e-001
 2.6169657595e+000	 3.1561828549e+000	-6.3180563121e-001
 2.5842223182e+000	 3.1830480690e+000	-6.6044359668e-001
 2.9168154724e+000	 2.9168154724e+000	-6.3763257774e-001
 2.8864552836e+000	 2.9468628905e+000	-6.5308126482e-001
 2.8557872322e+000	 2.9765927306e+000	-6.5974257500e-001
 2.8248163243e+000	 3.0060002884e+000	-6.5864278175e-001
 2.7935476611e+000	 3.0350809652e+000	-6.5079475804e-001
 2.7619864362e+000	 3.0638302704e+000	-6.3719582924e-001
 2.7301379330e+000	 3.0922438239e+000	-6.1882568554e-001
 2.6980075215e+000	 3.1203173579e+000	-5.9664435868e-001
 2.6656006550e+000	 3.1480467195e+000	-6.1184467660e-001
 2.6329228678e+000	 3.1754278723e+000	-6.3350722441e-001
 2.5999797714e+000	 3.2024568987e+000	-6.5398899150e-001
 2.9344931419e+000	 2.9344931419e+000	-6.3600210967e-001
 2.9039489520e+000	 2.9647226656e+000	-6.5248829043e-001
 2.8730950336e+000	 2.9946326866e+000	-6.5902946847e-001
 2.8419364232e+000	 3.0242184719e+000	-6.5668253128e-001
 2.8104782529e+000	 3.0534753953e+000	-6.4649150767e-001
 2.7787257480e+000	 3.0823989387e+000	-6.2948536747e-001
 2.7466842236e+000	 3.1109846955e+000	-6.0667588057e-001
 2.7143590822e+000	 3.1392283722e+000	-6.0329620581e-001
 2.6817558105e+000	 3.1671257905e+000	-6.2036958897e-001
 2.6488799761e+000	 3.1946728897e+000	-6.3490336605e-001
 2.6157372245e+000	 3.2218657284e+000	-6.4735232608e-001
 2.9521708114e+000	 2.9521708114e+000	-6.3489813190e-001
 2.9214426203e+000	 2.9825824407e+000	-6.5231478396e-001
 2.8904028350e+000	 3.0126726425e+000	-6.5864653703e-001
 2.8590565222e+000	 3.0424366555e+000	-6.5498127917e-001
 2.8274088448e+000	 3.0718698253e+000	-6.4239456298e-001
 2.7954650597e+000	 3.1009676070e+000	-6.2194735125e-001
 2.7632305141e+000	 3.1297255672e+000	-6.0248815431e-001
 2.7307106429e+000	 3.1581393865e+000	-6.1738405863e-001
 2.6979109660e+000	 3.1862048615e+000	-6.2833425254e-001
 2.6648370844e+000	 3.2139179071e+000	-6.3583897625e-001
 2.6314946777e+000	 3.2412745581e+000	-6.4037512197e-001
 2.9698484810e+000	 2.9698484810e+000	-6.3421460287e-001
 2.9389362887e+000	 3.0004422158e+000	-6.5245148572e-001
 2.9077106364e+000	 3.0307125985e+000	-6.5848116343e-001
 2.8761766211e+000	 3.0606548391e+000	-6.5342291500e-001
 2.8443394367e+000	 3.0902642554e+000	-6.3838418846e-001
 2.8122043714e+000	 3.1195362753e+000	-6.1445829202e-001
 2.7797768046e+000	 3.1484664388e+000	-6.2092577779e-001
 2.7470622037e+000	 3.1770504007e+000	-6.3068261050e-001
 2.7140661215e+000	 3.2052839325e+000	-6.3558601316e-001
 2.6807941927e+000	 3.2331629245e+000	-6.3615818382e-001
 2.6472521309e+000	 3.2606833878e+000	-6.3289818325e-001
 2.9875261505e+000	 2.9875261505e+000	-6.3384430327e-001
 2.9564299571e+000	 3.0183019909e+000	-6.5278798257e-001
 2.9250184379e+000	 3.0487525544e+000	-6.5841960666e-001
 2.8932967200e+000	 3.0788730226e+000	-6.5189023957e-001
 2.8612700286e+000	 3.1086586855e+000	-6.3433960023e-001
 2.8289436832e+000	 3.1381049436e+000	-6.2739151037e-001
 2.7963230951e+000	 3.1672073105e+000	-6.3837021263e-001
 2.7634137644e+000	 3.1959614150e+000	-6.4304141836e-001
 2.7302212769e+000	 3.2243630036e+000	-6.4197138232e-001
 2.6967513009e+000	 3.2524079419e+000	-6.3570434972e-001
 2.6630095840e+000	 3.2800922175e+000	-6.2476161782e-001
 3.0052038200e+000	 3.0052038200e+000	-6.3367887067e-001
 2.9739236255e+000	 3.0361617660e+000	-6.5321274187e-001
 2.9423262393e+000	 3.0667925103e+000	-6.5834703505e-001
 2.9104168190e+000	 3.0970912062e+000	-6.5026499703e-001
 2.8782006205e+000	 3.1270531156e+000	-6.3319946156e-001
 2.8456829949e+000	 3.1566736119e+000	-6.4783944682e-001
 2.8128693856e+000	 3.1859481822e+000	-6.5467302982e-001
 2.7797653252e+000	 3.2148724293e+000	-6.5430916976e-001
 2.7463764324e+000	 3.2434420746e+000	-6.4733606163e-001
 2.7127084092e+000	 3.2716529593e+000	-6.3432008963e-001
 2.6787670372e+000	 3.2995010472e+000	-6.1580485780e-001
 2.5211925056e+000	 3.1054127503e+000	-7.2380735647e-001
 2.4889959289e+000	 3.1312775773e+000	-7.2158413824e-001
 2.4565531787e+000	 3.1567937025e+000	-7.1545125130e-001
 2.4238699031e+000	 3.1819576824e+000	-7.0912260056e-001
 2.3909518130e+000	 3.2067661948e+000	-7.0255216075e-001
 2.3578046781e+000	 3.2312160404e+000	-6.9569885958e-001
 2.3244343245e+000	 3.2553041442e+000	-6.8852648271e-001
 2.2908466307e+000	 3.2790275563e+000	-6.8100356482e-001
 2.2570475246e+000	 3.3023834532e+000	-6.7310326750e-001
 2.2230429801e+000	 3.3253691387e+000	-6.6480324436e-001
 2.1888390135e+000	 3.3479820449e+000	-6.5608549400e-001
 2.5369499587e+000	 3.1248215800e+000	-6.8061600188e-001
 2.5045521534e+000	 3.1508480621e+000	-7.2768365892e-001
 2.4719066360e+000	 3.1765236632e+000	-7.2374000375e-001
 2.4390190900e+000	 3.2018449179e+000	-7.1202491575e-001
 2.4058952618e+000	 3.2268084835e+000	-7.0049336096e-001
 2.3725409573e+000	 3.2514111407e+000	-6.8912267589e-001
 2.3389620390e+000	 3.2756497951e+000	-6.7789466482e-001
 2.3051644221e+000	 3.2995214785e+000	-6.6679547171e-001
 2.2711540716e+000	 3.3230233498e+000	-6.5581543938e-001
 2.2369369987e+000	 3.3461526958e+000	-6.4494895644e-001
 2.2025192574e+000	 3.3689069327e+000	-6.3419429277e-001
 2.5527074119e+000	 3.1442304097e+000	-6.7343682003e-001
 2.5201083780e+000	 3.1704185470e+000	-7.1463700810e-001
 2.4872600934e+000	 3.1962536238e+000	-7.3148903655e-001
 2.4541682769e+000	 3.2217321534e+000	-7.1467549621e-001
 2.4208387106e+000	 3.2468507722e+000	-6.9846262715e-001
 2.3872772366e+000	 3.2716062409e+000	-6.8284608563e-001
 2.3534897535e+000	 3.2959954460e+000	-6.6782561292e-001
 2.3194822135e+000	 3.3200154007e+000	-6.5340488812e-001
 2.2852606186e+000	 3.3436632464e+000	-6.3959136854e-001
 2.2508310173e+000	 3.3669362530e+000	-6.2639611859e-001
 2.2161995012e+000	 3.3898318204e+000	-6.1383362753e-001
 2.5684648651e+000	 3.1636392394e+000	-6.6687388061e-001
 2.5356646025e+000	 3.1899890318e+000	-7.0217432865e-001
 2.5026135508e+000	 3.2159835844e+000	-7.3458813935e-001
 2.4693174638e+000	 3.2416193890e+000	-7.1714192160e-001
 2.4357821594e+000	 3.2668930610e+000	-6.9652119269e-001
 2.4020135158e+000	 3.2918013412e+000	-6.7692406457e-001
 2.3680174680e+000	 3.3163410969e+000	-6.5836813688e-001
 2.3338000050e+000	 3.3405093230e+000	-6.4087455257e-001
 2.2993671657e+000	 3.3643031429e+000	-6.2446781962e-001
 2.2647250359e+000	 3.3877198101e+000	-6.0917562171e-001
 2.2298797451e+000	 3.4107567082e+000	-5.9502861839e-001
 2.5842223182e+000	 3.1830480690e+000	-6.6044359668e-001
 2.5512208271e+000	 3.2095595167e+000	-6.9013310257e-001
 2.5179670081e+000	 3.2357135451e+000	-7.1750611107e-001
 2.4844666507e+000	 3.2615066245e+000	-7.1949141360e-001
 2.4507256083e+000	 3.2869353497e+000	-6.9473007840e-001
 2.4167497950e+000	 3.3119964414e+000	-6.7141151859e-001
 2.3825451826e+000	 3.3366867478e+000	-6.4957111640e-001
 2.3481177964e+000	 3.3610032452e+000	-6.2924741023e-001
 2.3134737127e+000	 3.3849430395e+000	-6.1048189769e-001
 2.2786190546e+000	 3.4085033672e+000	-5.9331882796e-001
 2.2435599889e+000	 3.4316815960e+000	-5.7780498437e-001
 2.5999797714e+000	 3.2024568987e+000	-6.5398899150e-001
 2.5667770517e+000	 3.2291300016e+000	-6.7835017476e-001
 2.5333204655e+000	 3.2554435057e+000	-7.0096766393e-001
 2.4996158376e+000	 3.2813938600e+000	-7.2179084678e-001
 2.4656690571e+000	 3.3069776384e+000	-6.9315009901e-001
 2.4314860743e+000	 3.3321915417e+000	-6.6636328573e-001
 2.3970728971e+000	 3.3570323987e+000	-6.4148349887e-001
 2.3624355879e+000	 3.3814971674e+000	-6.1856660667e-001
 2.3275802597e+000	 3.4055829361e+000	-5.9767103798e-001
 2.2925130732e+000	 3.4292869243e+000	-5.7885755643e-001
 2.2572402327e+000	 3.4526064838e+000	-5.6218902526e-001
 2.6157372245e+000	 3.2218657284e+000	-6.4735232608e-001
 2.5823332762e+000	 3.2487004864e+000	-6.6666177219e-001
 2.5486739229e+000	 3.2751734664e+000	-6.8480320111e-001
 2.5147650245e+000	 3.3012810955e+000	-7.0232594298e-001
 2.4806125059e+000	 3.3270199271e+000	-6.9184186937e-001
 2.4462223535e+000	 3.3523866420e+000	-6.6183413833e-001
 2.4116006116e+000	 3.3773780496e+000	-6.3415429741e-001
 2.3767533793e+000	 3.4019910896e+000	-6.0887548179e-001
 2.3416868067e+000	 3.4262228327e+000	-5.8607299592e-001
 2.3064070918e+000	 3.4500704814e+000	-5.6582406943e-001
 2.2709204766e+000	 3.4735313716e+000	-5.4820760410e-001
 2.6314946777e+000	 3.2412745581e+000	-6.4037512197e-001
 2.5978895008e+000	 3.2682709713e+000	-6.5490352242e-001
 2.5640273802e+000	 3.2949034270e+000	-6.6884266399e-001
 2.5299142114e+000	 3.3211683310e+000	-6.8276802791e-001
 2.4955559548e+000	 3.3470622158e+000	-6.9086581043e-001
 2.4609586328e+000	 3.3725817422e+000	-6.5787878492e-001
 2.4261283262e+000	 3.3977237005e+000	-6.2763258881e-001
 2.3910711707e+000	 3.4224850119e+000	-6.0021756403e-001
 2.3557933538e+000	 3.4468627293e+000	-5.7572583759e-001
 2.3203011104e+000	 3.4708540386e+000	-5.5425105917e-001
 2.2846007204e+000	 3.4944562593e+000	-5.3588813035e-001
 2.6472521309e+000	 3.2606833878e+000	-6.3289818325e-001
 2.6134457253e+000	 3.2878414561e+000	-6.4291047140e-001
 2.5793808376e+000	 3.3146333876e+000	-6.5291554593e-001
 2.5450633983e+000	 3.3410555665e+000	-6.6351501760e-001
 2.5104994036e+000	 3.3671045045e+000	-6.7528152945e-001
 2.4756949120e+000	 3.3927768425e+000	-6.5455187215e-001
 2.4406560407e+000	 3.4180693514e+000	-6.2196751171e-001
 2.4053889622e+000	 3.4429789341e+000	-5.9263656476e-001
 2.3698999008e+000	 3.4675026259e+000	-5.6666793040e-001
 2.3341951291e+000	 3.4916375957e+000	-5.4417163501e-001
 2.2982809642e+000	 3.5153811471e+000	-5.2525854361e-001
 2.6630095840e+000	 3.2800922175e+000	-6.2476161782e-001
 2.6290019499e+000	 3.3074119410e+000	-6.3051710072e-001
 2.5947342950e+000	 3.3343633483e+000	-6.3685090550e-001
 2.5602125852e+000	 3.3609428020e+000	-6.4439075381e-001
 2.5254428524e+000	 3.3871467933e+000	-6.5373411719e-001
 2.4904311912e+000	 3.4129719427e+000	-6.5190798662e-001
 2.4551837552e+000	 3.4384150023e+000	-6.1720826471e-001
 2.4197067536e+000	 3.4634728563e+000	-5.8617637284e-001
 2.3840064478e+000	 3.4881425224e+000	-5.5893793425e-001
 2.3480891477e+000	 3.5124211528e+000	-5.3561931110e-001
 2.3119612081e+000	 3.5363060349e+000	-5.1634729793e-001
 2.6787670372e+000	 3.2995010472e+000	-6.1580485780e-001
 2.6445581744e+000	 3.3269824258e+000	-6.1755734420e-001
 2.6100877523e+000	 3.3540933089e+000	-6.2047737928e-001
 2.5753617721e+000	 3.3808300376e+000	-6.2521877981e-001
 2.5403863013e+000	 3.4071890820e+000	-6.3240381893e-001
 2.5051674705e+000	 3.4331670430e+000	-6.4262249703e-001
 2.4697114697e+000	 3.4587606532e+000	-6.1340410466e-001
 2.4340245451e+000	 3.4839667785e+000	-5.8088104943e-001
 2.3981129948e+000	 3.5087824190e+000	-5.5257479288e-001
 2.3619831663e+000	 3.5332047099e+000	-5.2862799447e-001
 2.3256414519e+000	 3.5572309227e+000	-5.0918334670e-001
 2.1888390135e+000	 3.3479820449e+000	-6.5608549400e-001
 2.1544416806e+000	 3.3702197324e+000	-6.3299757772e-001
 2.1198570727e+000	 3.3920798916e+000	-6.0674747769e-001
 2.0850913135e+000	 3.4135603429e+000	-5.7760751808e-001
 2.0501505556e+000	 3.4346590368e+000	-5.4585437205e-001
 2.0150409773e+000	 3.4553740550e+000	-5.1176856519e-001
 1.9797687788e+000	 3.4757036097e+000	-4.7563397328e-001
 1.9443401791e+000	 3.4956460444e+000	-4.3773731542e-001
 1.9087614125e+000	 3.5151998336e+000	-3.9836764405e-001
 1.8730387253e+000	 3.5343635826e+000	-3.6234983238e-001
 1.8371783722e+000	 3.5531360273e+000	-4.0181182517e-001
 2.2025192574e+000	 3.3689069327e+000	-6.3419429277e-001
 2.1679069412e+000	 3.3912836057e+000	-6.1443046649e-001
 2.1331061794e+000	 3.4132803910e+000	-5.9161026600e-001
 2.0981231342e+000	 3.4348950950e+000	-5.6600097800e-001
 2.0629639966e+000	 3.4561256558e+000	-5.3787429875e-001
 2.0276349834e+000	 3.4769701428e+000	-5.0750583861e-001
 1.9921423336e+000	 3.4974267573e+000	-4.7517462050e-001
 1.9564923052e+000	 3.5174938322e+000	-4.4116257371e-001
 1.9206911713e+000	 3.5371698326e+000	-4.0575402429e-001
 1.8847452173e+000	 3.5564533549e+000	-3.6923518316e-001
 1.8486607371e+000	 3.5753431275e+000	-3.9225564664e-001
 2.2161995012e+000	 3.3898318204e+000	-6.1383362753e-001
 2.1813722017e+000	 3.4123474791e+000	-5.9716954183e-001
 2.1463552861e+000	 3.4344808903e+000	-5.7755216700e-001
 2.1111549549e+000	 3.4562298472e+000	-5.5524390901e-001
 2.0757774376e+000	 3.4775922748e+000	-5.3051164634e-001
 2.0402289895e+000	 3.4985662307e+000	-5.0362623523e-001
 2.0045158885e+000	 3.5191499048e+000	-4.7486200878e-001
 1.9686444313e+000	 3.5393416200e+000	-4.4449627110e-001
 1.9326209301e+000	 3.5591398315e+000	-4.1280878791e-001
 1.8964517093e+000	 3.5785431273e+000	-3.8008127470e-001
 1.8601431019e+000	 3.5975502277e+000	-3.8112697235e-001
 2.2298797451e+000	 3.4107567082e+000	-5.9502861839e-001
 2.1948374622e+000	 3.4334113524e+000	-5.8124244483e-001
 2.1596043928e+000	 3.4556813896e+000	-5.6460334110e-001
 2.1241867756e+000	 3.4775645993e+000	-5.4536898832e-001
 2.0885908786e+000	 3.4990588938e+000	-5.2380160533e-001
 2.0528229956e+000	 3.5201623185e+000	-5.0016745452e-001
 2.0168894434e+000	 3.5408730524e+000	-4.7473634125e-001
 1.9807965574e+000	 3.5611894078e+000	-4.4778110823e-001
 1.9445506890e+000	 3.5811098305e+000	-4.1957712609e-001
 1.9081582014e+000	 3.6006328997e+000	-3.9040178137e-001
 1.8716254667e+000	 3.6197573278e+000	-3.6848559662e-001
 2.2435599889e+000	 3.4316815960e+000	-5.7780498437e-001
 2.2083027227e+000	 3.4544752257e+000	-5.6667734035e-001
 2.1728534996e+000	 3.4768818889e+000	-5.5279439684e-001
 2.1372185963e+000	 3.4988993514e+000	-5.3640926509e-001
 2.1014043195e+000	 3.5205255128e+000	-5.1777966160e-001
 2.0654170017e+000	 3.5417584064e+000	-4.9716741425e-001
 2.0292629983e+000	 3.5625962000e+000	-4.7483796196e-001
 1.9929486836e+000	 3.5830371956e+000	-4.5105984898e-001
 1.9564804478e+000	 3.6030798295e+000	-4.2610421527e-001
 1.9198646934e+000	 3.6227226721e+000	-4.0024428408e-001
 1.8831078316e+000	 3.6419644280e+000	-3.7375484813e-001
 2.2572402327e+000	 3.4526064838e+000	-5.6218902526e-001
 2.2217679832e+000	 3.4755390991e+000	-5.5350290114e-001
 2.1861026063e+000	 3.4980823883e+000	-5.4215637727e-001
 2.1502504171e+000	 3.5202341036e+000	-5.2839814918e-001
 2.1142177605e+000	 3.5419921317e+000	-5.1248158741e-001
 2.0780110078e+000	 3.5633544942e+000	-4.9466424393e-001
 2.0416365531e+000	 3.5843193475e+000	-4.7520735166e-001
 2.0051008097e+000	 3.6048849833e+000	-4.5437531855e-001
 1.9684102066e+000	 3.6250498284e+000	-4.3243521753e-001
 1.9315711854e+000	 3.6448124445e+000	-4.0965627347e-001
 1.8945901964e+000	 3.6641715282e+000	-3.8630934859e-001
 2.2709204766e+000	 3.4735313716e+000	-5.4820760410e-001
 2.2352332437e+000	 3.4966029724e+000	-5.4174829253e-001
 2.1993517130e+000	 3.5192828876e+000	-5.3272074689e-001
 2.1632822378e+000	 3.5415688557e+000	-5.2136940022e-001
 2.1270312015e+000	 3.5634587507e+000	-5.0794343281e-001
 2.0906050139e+000	 3.5849505821e+000	-4.9269627842e-001
 2.0540101080e+000	 3.6060424951e+000	-4.7588512367e-001
 2.0172529358e+000	 3.6267327711e+000	-4.5777040163e-001
 1.9803399655e+000	 3.6470198274e+000	-4.3861528108e-001
 1.9432776775e+000	 3.6669022169e+000	-4.1868515270e-001
 1.9060725612e+000	 3.6863786283e+000	-3.9824711348e-001
 2.2846007204e+000	 3.4944562593e+000	-5.3588813035e-001
 2.2486985042e+000	 3.5176668457e+000	-5.3144315772e-001
 2.2126008197e+000	 3.5404833869e+000	-5.2451937898e-001
 2.1763140585e+000	 3.5629036079e+000	-5.1535711722e-001
 2.1398446424e+000	 3.5849253697e+000	-5.0420151727e-001
 2.1031990201e+000	 3.6065466699e+000	-4.9130205175e-001
 2.0663836629e+000	 3.6277656426e+000	-4.7691201990e-001
 2.0294050619e+000	 3.6485805589e+000	-4.6128804058e-001
 1.9922697243e+000	 3.6689898263e+000	-4.4468954063e-001
 1.9549841695e+000	 3.6889919893e+000	-4.2737824004e-001
 1.9175549260e+000	 3.7085857285e+000	-4.0961763515e-001
 2.2982809642e+000	 3.5153811471e+000	-5.2525854361e-001
 2.2621637647e+000	 3.5387307190e+000	-5.2261760353e-001
 2.2258499264e+000	 3.5616838862e+000	-5.1758454350e-001
 2.1893458792e+000	 3.5842383600e+000	-5.1039572840e-001
 2.1526580834e+000	 3.6063919887e+000	-5.0129242174e-001
 2.1157930262e+000	 3.6281427577e+000	-4.9052029125e-001
 2.0787572177e+000	 3.6494887902e+000	-4.7832890705e-001
 2.0415571880e+000	 3.6704283467e+000	-4.6497123376e-001
 2.0041994831e+000	 3.6909598253e+000	-4.5070311782e-001
 1.9666906615e+000	 3.7110817617e+000	-4.3578277137e-001
 1.9290372909e+000	 3.7307928287e+000	-4.2047025407e-001
 2.3119612081e+000	 3.5363060349e+000	-5.1634729793e-001
 2.2756290252e+000	 3.5597945924e+000	-5.1530218669e-001
 2.2390990331e+000	 3.5828843855e+000	-5.1194889532e-001
 2.2023776999e+000	 3.6055731122e+000	-5.0651998151e-001
 2.1654715244e+000	 3.6278586077e+000	-4.9925298085e-001
 2.1283870323e+000	 3.6497388456e+000	-4.9038991177e-001
 2.0911307726e+000	 3.6712119378e+000	-4.8017677286e-001
 2.0537093142e+000	 3.6922761344e+000	-4.6886303383e-001
 2.0161292419e+000	 3.7129298243e+000	-4.5670112159e-001
 1.9783971536e+000	 3.7331715341e+000	-4.4394590266e-001
 1.9405196557e+000	 3.7529999288e+000	-4.2308568874e-001
 2.3256414519e+000	 3.5572309227e+000	-5.0918334670e-001
 2.2890942857e+000	 3.5808584657e+000	-5.0952790061e-001
 2.2523481398e+000	 3.6040848849e+000	-5.0764546289e-001
 2.2154095206e+000	 3.6269078643e+000	-5.0376493436e-001
 2.1782849654e+000	 3.6493252266e+000	-4.9812027545e-001
 2.1409810384e+000	 3.6713349334e+000	-4.9095001023e-001
 2.1035043275e+000	 3.6929350853e+000	-4.8249672264e-001
 2.0658614403e+000	 3.7141239222e+000	-4.7300654620e-001
 2.0280590008e+000	 3.7348998232e+000	-4.6272864857e-001
 1.9901036456e+000	 3.7552613065e+000	-4.3983102313e-001
 1.9520020205e+000	 3.7752070290e+000	-3.7843652594e-001
 1.8371783722e+000	 3.5531360273e+000	-4.0181182517e-001
 1.8011866135e+000	 3.5715160343e+000	-4.1490517145e-001
 1.7650697110e+000	 3.5895026000e+000	-4.2034210828e-001
 1.7288339256e+000	 3.6070948501e+000	-4.1709428767e-001
 1.6924855132e+000	 3.6242920395e+000	-4.0418898427e-001
 1.6560307222e+000	 3.6410935510e+000	-3.8071019103e-001
 1.6194757899e+000	 3.6574988949e+000	-3.4579957352e-001
 1.5828269397e+000	 3.6735077078e+000	-2.9865728334e-001
 1.5460903777e+000	 3.6891197520e+000	-2.3854263105e-001
 1.5092722896e+000	 3.7043349141e+000	-1.6477461962e-001
 1.4723788383e+000	 3.7191532043e+000	-7.6732339716e-002
 1.8486607371e+000	 3.5753431275e+000	-3.9225564664e-001
 1.8124440298e+000	 3.5938380095e+000	-4.0999754104e-001
 1.7761013967e+000	 3.6119369912e+000	-4.2155302684e-001
 1.7396391376e+000	 3.6296391930e+000	-4.2585194142e-001
 1.7030635476e+000	 3.6469438648e+000	-4.2187947096e-001
 1.6663809142e+000	 3.6638503857e+000	-4.0867730591e-001
 1.6295975136e+000	 3.6803582629e+000	-3.8534465376e-001
 1.5927196081e+000	 3.6964671309e+000	-3.5103910923e-001
 1.5557534425e+000	 3.7121767504e+000	-3.0497738240e-001
 1.5187052414e+000	 3.7274870073e+000	-2.4643588565e-001
 1.4815812060e+000	 3.7423979118e+000	-1.7475118065e-001
 1.8601431019e+000	 3.5975502277e+000	-3.8112697235e-001
 1.8237014462e+000	 3.6161599847e+000	-4.0347215726e-001
 1.7871330824e+000	 3.6343713825e+000	-4.2106657396e-001
 1.7504443496e+000	 3.6521835358e+000	-4.3279809369e-001
 1.7136415821e+000	 3.6695956900e+000	-4.3760969615e-001
 1.6767311062e+000	 3.6866072204e+000	-4.3450068480e-001
 1.6397192373e+000	 3.7032176310e+000	-4.2252775793e-001
 1.6026122765e+000	 3.7194265541e+000	-4.0080593556e-001
 1.5654165074e+000	 3.7352337488e+000	-3.6850934255e-001
 1.5281381932e+000	 3.7506391005e+000	-3.2227543154e-001
 1.4907835738e+000	 3.7656426193e+000	-2.0750929163e-001
 1.8716254667e+000	 3.6197573278e+000	-3.6848559662e-001
 1.8349588625e+000	 3.6384819600e+000	-3.9539341448e-001
 1.7981647681e+000	 3.6568057737e+000	-4.1895205997e-001
 1.7612495617e+000	 3.6747278786e+000	-4.3800728067e-001
 1.7242196165e+000	 3.6922475153e+000	-4.5145972568e-001
 1.6870812982e+000	 3.7093640551e+000	-4.5826622077e-001
 1.6498409610e+000	 3.7260769991e+000	-4.5744089767e-001
 1.6125049449e+000	 3.7423859773e+000	-4.4805617757e-001
 1.5750795722e+000	 3.7582907473e+000	-3.9573292247e-001
 1.5375711450e+000	 3.7737911937e+000	-3.0595773790e-001
 1.4999859415e+000	 3.7888873268e+000	-2.1068886181e-001
 1.8831078316e+000	 3.6419644280e+000	-3.7375484813e-001
 1.8462162788e+000	 3.6608039352e+000	-3.8582547152e-001
 1.8091964538e+000	 3.6792401650e+000	-4.1527848525e-001
 1.7720547737e+000	 3.6972722214e+000	-4.4155364380e-001
 1.7347976510e+000	 3.7148993405e+000	-4.6350913557e-001
 1.6974314902e+000	 3.7321208898e+000	-4.8005921181e-001
 1.6599626847e+000	 3.7489363672e+000	-4.9017537424e-001
 1.6223976132e+000	 3.7653454004e+000	-4.3182199376e-001
 1.5847426371e+000	 3.7813477457e+000	-3.6382998785e-001
 1.5470040968e+000	 3.7969432870e+000	-2.9130617465e-001
 1.5091883092e+000	 3.8121320343e+000	-2.1508606877e-001
 1.8945901964e+000	 3.6641715282e+000	-3.8630934859e-001
 1.8574736952e+000	 3.6831259104e+000	-3.7483225884e-001
 1.8202281395e+000	 3.7016745562e+000	-4.1011454962e-001
 1.7828599857e+000	 3.7198165642e+000	-4.4351094178e-001
 1.7453756855e+000	 3.7375511658e+000	-4.7383702687e-001
 1.7077816822e+000	 3.7548777245e+000	-4.8125189405e-001
 1.6700844084e+000	 3.7717957353e+000	-4.3639875583e-001
 1.6322902816e+000	 3.7883048236e+000	-3.8704138872e-001
 1.5944057020e+000	 3.8044047442e+000	-3.3407913555e-001
 1.5564370487e+000	 3.8200953802e+000	-2.7837617248e-001
 1.5183906770e+000	 3.8353767419e+000	-2.2076038180e-001
 1.9060725612e+000	 3.6863786283e+000	-3.9824711348e-001
 1.8687311115e+000	 3.7054478856e+000	-3.6247748540e-001
 1.8312598252e+000	 3.7241089475e+000	-4.0352866143e-001
 1.7936651978e+000	 3.7423609070e+000	-4.4395256203e-001
 1.7559537199e+000	 3.7602029910e+000	-4.4535368982e-001
 1.7181318743e+000	 3.7776345592e+000	-4.1520260727e-001
 1.6802061321e+000	 3.7946551034e+000	-3.8139942807e-001
 1.6421829500e+000	 3.8112642468e+000	-3.4487680619e-001
 1.6040687668e+000	 3.8274617426e+000	-3.0653129089e-001
 1.5658700005e+000	 3.8432474734e+000	-2.6722211277e-001
 1.5275930447e+000	 3.8586214494e+000	-2.2777007548e-001
 1.9175549260e+000	 3.7085857285e+000	-4.0961763515e-001
 1.8799885278e+000	 3.7277698608e+000	-3.6061860814e-001
 1.8422915109e+000	 3.7465433387e+000	-3.9558894626e-001
 1.8044704098e+000	 3.7649052498e+000	-3.9224702031e-001
 1.7665317544e+000	 3.7828548162e+000	-3.7384610371e-001
 1.7284820663e+000	 3.8003913939e+000	-3.5259364986e-001
 1.6903278558e+000	 3.8175144715e+000	-3.2945921633e-001
 1.6520756183e+000	 3.8342236700e+000	-3.0537539271e-001
 1.6137318317e+000	 3.8505187411e+000	-2.8123649345e-001
 1.5753029523e+000	 3.8663995666e+000	-2.5789735893e-001
 1.5367954125e+000	 3.8818661569e+000	-2.3617226553e-001
 1.9290372909e+000	 3.7307928287e+000	-4.2047025407e-001
 1.8912459442e+000	 3.7500918360e+000	-3.7244908319e-001
 1.8533231966e+000	 3.7689777300e+000	-3.2731500903e-001
 1.8152756218e+000	 3.7874495926e+000	-3.1780468210e-001
 1.7771097888e+000	 3.8055066415e+000	-3.0618540316e-001
 1.7388322583e+000	 3.8231482286e+000	-2.9346715594e-001
 1.7004495794e+000	 3.8403738396e+000	-2.8062217815e-001
 1.6619682867e+000	 3.8571830931e+000	-2.6858355508e-001
 1.6233948965e+000	 3.8735757395e+000	-2.5824392344e-001
 1.5847359041e+000	 3.8895516598e+000	-2.5045428676e-001
 1.5459977802e+000	 3.9051108645e+000	-2.4602294321e-001
 1.9405196557e+000	 3.7529999288e+000	-4.2308568874e-001
 1.9025033605e+000	 3.7724138112e+000	-3.2176961780e-001
 1.8643548823e+000	 3.7914121212e+000	-2.5240626972e-001
 1.8260808339e+000	 3.8099939354e+000	-2.4759745225e-001
 1.7876878233e+000	 3.8281584667e+000	-2.4241180542e-001
 1.7491824503e+000	 3.8459050633e+000	-2.3786474851e-001
 1.7105713031e+000	 3.8632332077e+000	-2.3493176086e-001
 1.6718609551e+000	 3.8801425163e+000	-2.3454698225e-001
 1.6330579614e+000	 3.8966327380e+000	-2.3760192710e-001
 1.5941688559e+000	 3.9127037530e+000	-2.4494431363e-001
 1.5552001479e+000	 3.9283555720e+000	-2.5737700869e-001
 1.9520020205e+000	 3.7752070290e+000	-3.7843652594e-001
 1.9137607768e+000	 3.7947357865e+000	-2.7594036454e-001
 1.8753865680e+000	 3.8138465125e+000	-1.8298285573e-001
 1.8368860459e+000	 3.8325382783e+000	-1.8166423275e-001
 1.7982658577e+000	 3.8508102920e+000	-1.8256511936e-001
 1.7595326423e+000	 3.8686618980e+000	-1.8582755445e-001
 1.7206930268e+000	 3.8860925758e+000	-1.9243081951e-001
 1.6817536235e+000	 3.9031019395e+000	-2.0331066642e-001
 1.6427210263e+000	 3.9196897364e+000	-2.1935804128e-001
 1.6036018077e+000	 3.9358558462e+000	-2.4141792669e-001
 1.5644025157e+000	 3.9516002795e+000	-2.7028830304e-001
 1.4723788383e+000	 3.7191532043e+000	-7.6732339716e-002
 1.4354161602e+000	 3.7335747544e+000	-2.6700145537e-002
 1.3983903631e+000	 3.7475998176e+000	 1.3599654785e-002
 1.3613075226e+000	 3.7612287659e+000	 8.5008066501e-002
 1.3241736799e+000	 3.7744620896e+000	 1.4902913939e-001
 1.2869948389e+000	 3.7873003954e+000	 1.9627057655e-001
 1.2497769635e+000	 3.7997444048e+000	 2.2671251435e-001
 1.2125259753e+000	 3.8117949524e+000	 2.5643164790e-001
 1.1752477508e+000	 3.8234529844e+000	 2.2956989590e-001
 1.1379481191e+000	 3.8347195567e+000	 1.4924320823e-001
 1.1006328594e+000	 3.8455958328e+000	 1.8421720477e-002
 1.4815812060e+000	 3.7423979118e+000	-1.7475118065e-001
 1.4443875112e+000	 3.7569095967e+000	-1.0847817781e-001
 1.4071303029e+000	 3.7710223164e+000	-2.3947209592e-002
 1.3698156946e+000	 3.7847364456e+000	 4.7687709780e-002
 1.3324497654e+000	 3.7980524776e+000	 1.0605425192e-001
 1.2950385566e+000	 3.8109710228e+000	 1.5082646676e-001
 1.2575880695e+000	 3.8234928073e+000	 1.8172485173e-001
 1.2201042627e+000	 3.8356186709e+000	 1.9105012956e-001
 1.1825930493e+000	 3.8473495656e+000	 1.5040420247e-001
 1.1450602948e+000	 3.8586865539e+000	 6.0717049458e-002
 1.1075118147e+000	 3.8696308067e+000	-7.5097483590e-002
 1.4907835738e+000	 3.7656426193e+000	-2.0750929163e-001
 1.4533588622e+000	 3.7802444389e+000	-1.2561802772e-001
 1.4158702426e+000	 3.7944448153e+000	-5.2975237202e-002
 1.3783238666e+000	 3.8082441254e+000	 9.9717247953e-003
 1.3407258509e+000	 3.8216428657e+000	 6.2819756788e-002
 1.3030822743e+000	 3.8346416503e+000	 1.0521024822e-001
 1.2653991756e+000	 3.8472412098e+000	 1.3682921751e-001
 1.2276825500e+000	 3.8594423893e+000	 1.3710030067e-001
 1.1899383477e+000	 3.8712461467e+000	 8.3514562416e-002
 1.1521724706e+000	 3.8826535511e+000	-1.4680284797e-002
 1.1143907701e+000	 3.8936657807e+000	-1.5462786869e-001
 1.4999859415e+000	 3.7888873268e+000	-2.1068886181e-001
 1.4623302133e+000	 3.8035792811e+000	-1.4363448407e-001
 1.4246101824e+000	 3.8178673141e+000	-8.2647355702e-002
 1.3868320386e+000	 3.8317518052e+000	-2.8203696589e-002
 1.3490019364e+000	 3.8452332537e+000	 1.9262608588e-002
 1.3111259921e+000	 3.8583122778e+000	 5.9360315547e-002
 1.2732102816e+000	 3.8709896123e+000	 9.1741026904e-002
 1.2352608374e+000	 3.8832661078e+000	 9.3574145213e-002
 1.1972836462e+000	 3.8951427279e+000	 2.7917811694e-002
 1.1592846463e+000	 3.9066205484e+000	-7.7905783160e-002
 1.1212697255e+000	 3.9177007546e+000	-2.2109895026e-001
 1.5091883092e+000	 3.8121320343e+000	-2.1508606877e-001
 1.4713015643e+000	 3.8269141233e+000	-1.6258947485e-001
 1.4333501222e+000	 3.8412898130e+000	-1.1302604362e-001
 1.3953402107e+000	 3.8552594850e+000	-6.6900912552e-002
 1.3572780219e+000	 3.8688236418e+000	-2.4678765535e-002
 1.3191697098e+000	 3.8819829053e+000	 1.3216539996e-002
 1.2810213876e+000	 3.8947380149e+000	 4.6402247617e-002
 1.2428391247e+000	 3.9070898262e+000	 5.9465077112e-002
 1.2046289446e+000	 3.9190393090e+000	-1.7367834375e-002
 1.1663968220e+000	 3.9305875456e+000	-1.2991512336e-001
 1.1281486808e+000	 3.9417357286e+000	-2.7543901906e-001
 1.5183906770e+000	 3.8353767419e+000	-2.2076038180e-001
 1.4802729153e+000	 3.8502489655e+000	-1.8254362006e-001
 1.4420900620e+000	 3.8647123118e+000	-1.4417241339e-001
 1.4038483827e+000	 3.8787671648e+000	-1.0618087526e-001
 1.3655541074e+000	 3.8924140299e+000	-6.9064510521e-002
 1.3272134276e+000	 3.9056535327e+000	-3.3279775278e-002
 1.2888324936e+000	 3.9184864174e+000	 7.5626542678e-004
 1.2504174121e+000	 3.9309135447e+000	 3.2666183223e-002
 1.2119742430e+000	 3.9429358902e+000	-5.3322822893e-002
 1.1735089978e+000	 3.9545545428e+000	-1.7166271193e-001
 1.1350276362e+000	 3.9657707025e+000	-3.1857517833e-001
 1.5275930447e+000	 3.8586214494e+000	-2.2777007548e-001
 1.4892442663e+000	 3.8735838077e+000	-2.0355627099e-001
 1.4508300017e+000	 3.8881348107e+000	-1.7614625249e-001
 1.4123565547e+000	 3.9022748446e+000	-1.4610317319e-001
 1.3738301929e+000	 3.9160044179e+000	-1.1395338641e-001
 1.3352571453e+000	 3.9293241602e+000	-8.0185938351e-002
 1.2966435997e+000	 3.9422348199e+000	-4.5252158523e-002
 1.2579956994e+000	 3.9547372631e+000	-9.5653464487e-003
 1.2193195415e+000	 3.9668324714e+000	-8.0926303676e-002
 1.1806211735e+000	 3.9785215400e+000	-2.0410172255e-001
 1.1419065916e+000	 3.9898056765e+000	-3.5143337950e-001
 1.5367954125e+000	 3.8818661569e+000	-2.3617226553e-001
 1.4982156173e+000	 3.8969186499e+000	-2.2568554833e-001
 1.4595699415e+000	 3.9115573096e+000	-2.0900606314e-001
 1.4208647267e+000	 3.9257825243e+000	-1.8672607202e-001
 1.3821062784e+000	 3.9395948060e+000	-1.5940280978e-001
 1.3433008631e+000	 3.9529947877e+000	-1.2755791012e-001
 1.3044547057e+000	 3.9659832225e+000	-9.1676928901e-002
 1.2655739868e+000	 3.9785609816e+000	-5.2208963749e-002
 1.2266648399e+000	 3.9907290525e+000	-1.0115616809e-001
 1.1877333493e+000	 4.0024885373e+000	-2.2818413290e-001
 1.1487855470e+000	 4.0138406504e+000	-3.7493845674e-001
 1.5459977802e+000	 3.9051108645e+000	-2.4602294321e-001
 1.5071869683e+000	 3.9202534922e+000	-2.4898837871e-001
 1.4683098813e+000	 3.9349798084e+000	-2.4280910052e-001
 1.4293728987e+000	 3.9492902041e+000	-2.2810655391e-001
 1.3903823639e+000	 3.9631851940e+000	-2.0546889378e-001
 1.3513445808e+000	 3.9766654151e+000	-1.7545034437e-001
 1.3122658117e+000	 3.9897316250e+000	-1.3857065589e-001
 1.2731522741e+000	 4.0023847000e+000	-9.5314657231e-002
 1.2340101384e+000	 4.0146256337e+000	-1.1498908651e-001
 1.1948455250e+000	 4.0264555345e+000	-2.4486076028e-001
 1.1556645023e+000	 4.0378756244e+000	-3.9001416014e-001
 1.5552001479e+000	 3.9283555720e+000	-2.5737700869e-001
 1.5161583193e+000	 3.9435883344e+000	-2.7352053005e-001
 1.4770498210e+000	 3.9584023073e+000	-2.7761140969e-001
 1.4378810707e+000	 3.9727978839e+000	-2.7030035555e-001
 1.3986584494e+000	 3.9867755821e+000	-2.5220648663e-001
 1.3593882986e+000	 4.0003360426e+000	-2.2391662649e-001
 1.3200769177e+000	 4.0134800275e+000	-1.8598469351e-001
 1.2807305615e+000	 4.0262084185e+000	-1.3893118716e-001
 1.2413554368e+000	 4.0385222148e+000	-1.2340054444e-001
 1.2019577008e+000	 4.0504225317e+000	-2.5508129595e-001
 1.1625434577e+000	 4.0619105984e+000	-3.9758318786e-001
 1.5644025157e+000	 3.9516002795e+000	-2.7028830304e-001
 1.5251296703e+000	 3.9669231766e+000	-2.9933664565e-001
 1.4857897608e+000	 3.9818248061e+000	-3.1346786115e-001
 1.4463892427e+000	 3.9963055637e+000	-3.1336200477e-001
 1.4069345349e+000	 4.0103659702e+000	-2.9966920890e-001
 1.3674320163e+000	 4.0240066701e+000	-2.7300891074e-001
 1.3278880237e+000	 4.0372284301e+000	-2.3396917653e-001
 1.2883088488e+000	 4.0500321369e+000	-1.8310612163e-001
 1.2487007353e+000	 4.0624187960e+000	-1.2736487738e-001
 1.2090698765e+000	 4.0743895290e+000	-2.5979433825e-001
 1.1694224131e+000	 4.0859455723e+000	-3.9856721699e-001
 1.1006328594e+000	 3.8455958328e+000	 1.8421720477e-002
 1.0633076989e+000	 3.8560830823e+000	 8.5428023419e-003
 1.0259783107e+000	 3.8661826788e+000	-1.1742489126e-002
 9.8865031116e-001	 3.8758960980e+000	-3.9145970304e-002
 9.5132925831e-001	 3.8852249153e+000	-7.0549659585e-002
 9.1402064961e-001	 3.8941708042e+000	-1.0300083774e-001
 8.7672992013e-001	 3.9027355338e+000	-1.3370693774e-001
 8.3946244064e-001	 3.9109209671e+000	-1.6003028526e-001
 8.0222351592e-001	 3.9187290581e+000	-1.7948271060e-001
 7.6501838302e-001	 3.9261618501e+000	-1.8972005256e-001
 7.2785220965e-001	 3.9332214737e+000	-1.8853657399e-001
 1.1075118147e+000	 3.8696308067e+000	-7.5097483590e-002
 1.0699533720e+000	 3.8801836015e+000	-6.5810939657e-002
 1.0323906751e+000	 3.8903463206e+000	-6.6984628426e-002
 9.9482937561e-001	 3.9001204486e+000	-7.5516761754e-002
 9.5727506617e-001	 3.9095075710e+000	-8.8475451876e-002
 9.1973327867e-001	 3.9185093717e+000	-1.0309349455e-001
 8.8220948212e-001	 3.9271276309e+000	-1.1676298656e-001
 8.4470908089e-001	 3.9353642231e+000	-1.2702979917e-001
 8.0723741289e-001	 3.9432211147e+000	-1.3158792899e-001
 7.6979974791e-001	 3.9507003617e+000	-1.2827374692e-001
 7.3240128595e-001	 3.9578041079e+000	-1.1506016559e-001
 1.1143907701e+000	 3.8936657807e+000	-1.5462786869e-001
 1.0765990452e+000	 3.9042841208e+000	-1.2867785608e-001
 1.0388030396e+000	 3.9145099623e+000	-1.1317680570e-001
 1.0010084400e+000	 3.9243447992e+000	-1.0520964724e-001
 9.6322087403e-001	 3.9337902267e+000	-1.0203098148e-001
 9.2544590773e-001	 3.9428479392e+000	-1.0105958327e-001
 8.8768904412e-001	 3.9515197280e+000	-9.9872743727e-002
 8.4995572114e-001	 3.9598074792e+000	-9.6200473750e-002
 8.1225130986e-001	 3.9677131713e+000	-8.7919590650e-002
 7.7458111280e-001	 3.9752388733e+000	-7.3047709231e-002
 7.3695036226e-001	 3.9823867421e+000	-4.9737158044e-002
 1.1212697255e+000	 3.9177007546e+000	-2.2109895026e-001
 1.0832447183e+000	 3.9283846401e+000	-1.8089673024e-001
 1.0452154040e+000	 3.9386736040e+000	-1.5106693916e-001
 1.0071875045e+000	 3.9485691498e+000	-1.2888159225e-001
 9.6916668190e-001	 3.9580728824e+000	-1.1178221864e-001
 9.3115853678e-001	 3.9671865068e+000	-9.7374081191e-002
 8.9316860612e-001	 3.9759118251e+000	-8.3420240405e-002
 8.5520236139e-001	 3.9842507352e+000	-6.7835484873e-002
 8.1726520684e-001	 3.9922052279e+000	-4.8680150715e-002
 7.7936247769e-001	 3.9997773848e+000	-2.4153851657e-002
 7.4149943857e-001	 4.0069693763e+000	 7.4108590019e-003
 1.1281486808e+000	 3.9417357286e+000	-2.7543901906e-001
 1.0898903914e+000	 3.9524851593e+000	-2.2330673653e-001
 1.0516277685e+000	 3.9628372458e+000	-1.8140494414e-001
 1.0133665689e+000	 3.9727935004e+000	-1.4719315514e-001
 9.7511248976e-001	 3.9823555382e+000	-1.1830031132e-001
 9.3687116584e-001	 3.9915250743e+000	-9.2518716725e-002
 8.9864816812e-001	 4.0003039222e+000	-6.7797820147e-002
 8.6044900165e-001	 4.0086939913e+000	-4.2237869509e-002
 8.2227910381e-001	 4.0166972845e+000	-1.4083460950e-002
 7.8414384258e-001	 4.0243158964e+000	 1.8282995185e-002
 7.4604851487e-001	 4.0315520105e+000	 5.6347869808e-002
 1.1350276362e+000	 3.9657707025e+000	-3.1857517833e-001
 1.0965360645e+000	 3.9765856786e+000	-2.5674742858e-001
 1.0580401329e+000	 3.9870008875e+000	-2.0494267258e-001
 1.0195456334e+000	 3.9970178510e+000	-1.6080837826e-001
 9.8105829763e-001	 4.0066381939e+000	-1.2216142831e-001
 9.4258379490e-001	 4.0158636418e+000	-8.6981764778e-002
 9.0412773012e-001	 4.0246960193e+000	-5.3405887016e-002
 8.6569564190e-001	 4.0331372473e+000	-1.9720226894e-002
 8.2729300078e-001	 4.0411893411e+000	 1.5645575613e-002
 7.8892520747e-001	 4.0488544080e+000	 5.4125473684e-002
 7.5059759118e-001	 4.0561346447e+000	 9.7023869692e-002
 1.1419065916e+000	 3.9898056765e+000	-3.5143337950e-001
 1.1031817376e+000	 4.0006861979e+000	-2.8205872778e-001
 1.0644524973e+000	 4.0111645293e+000	-2.2243385467e-001
 1.0257246978e+000	 4.0212422016e+000	-1.7039468299e-001
 9.8700410549e-001	 4.0309208496e+000	-1.2394660799e-001
 9.4829642396e-001	 4.0402022093e+000	-8.1257849584e-002
 9.0960729212e-001	 4.0490881164e+000	-4.0652662795e-002
 8.7094228215e-001	 4.0575805033e+000	-6.0443051267e-004
 8.3230689776e-001	 4.0656813977e+000	 4.0271337547e-002
 7.9370657237e-001	 4.0733929195e+000	 8.3224076552e-002
 7.5514666749e-001	 4.0807172789e+000	 1.2937528638e-001
 1.1487855470e+000	 4.0138406504e+000	-3.7493845674e-001
 1.1098274108e+000	 4.0247867171e+000	-3.0008091235e-001
 1.0708648618e+000	 4.0353281710e+000	-2.3463404265e-001
 1.0319037623e+000	 4.0454665523e+000	-1.7662276864e-001
 9.9294991336e-001	 4.0552035053e+000	-1.2424161252e-001
 9.5400905303e-001	 4.0645407769e+000	-7.5847754603e-002
 9.1508685412e-001	 4.0734802135e+000	-2.9953952921e-002
 8.7618892241e-001	 4.0820237594e+000	 1.4778649574e-002
 8.3732079473e-001	 4.0901734544e+000	 5.9547805931e-002
 7.9848793726e-001	 4.0979314311e+000	 1.0541751059e-001
 7.5969574380e-001	 4.1052999131e+000	 1.5332538623e-001
 1.1556645023e+000	 4.0378756244e+000	-3.9001416014e-001
 1.1164730839e+000	 4.0488872364e+000	-3.1165460663e-001
 1.0772772262e+000	 4.0594918128e+000	-2.4230055657e-001
 1.0380828267e+000	 4.0696909029e+000	-1.8016651481e-001
 9.9889572122e-001	 4.0794861610e+000	-1.2363678728e-001
 9.5972168209e-001	 4.0888793444e+000	-7.1258239209e-002
 9.2056641613e-001	 4.0978723105e+000	-2.1732920783e-002
 8.8143556267e-001	 4.1064670154e+000	 2.6089414484e-002
 8.4233469171e-001	 4.1146655110e+000	 7.3218873808e-002
 8.0326930216e-001	 4.1224699427e+000	 1.2053304747e-001
 7.6424482012e-001	 4.1298825474e+000	 1.6878466593e-001
 1.1625434577e+000	 4.0619105984e+000	-3.9758318786e-001
 1.1231187570e+000	 4.0729877557e+000	-3.1762077093e-001
 1.0836895907e+000	 4.0836554545e+000	-2.4619243195e-001
 1.0442618912e+000	 4.0939152535e+000	-1.8170288735e-001
 1.0048415291e+000	 4.1037688168e+000	-1.2272692525e-001
 9.6543431115e-001	 4.1132179119e+000	-6.8001861890e-002
 9.2604597813e-001	 4.1222644076e+000	-1.6419870032e-002
 8.8668220292e-001	 4.1309102715e+000	 3.2979794766e-002
 8.4734858869e-001	 4.1391575676e+000	 8.1018644644e-002
 8.0805066705e-001	 4.1470084542e+000	 1.2838686202e-001
 7.6879389643e-001	 4.1544651816e+000	 1.7565123030e-001
 1.1694224131e+000	 4.0859455723e+000	-3.9856721699e-001
 1.1297644301e+000	 4.0970882749e+000	-3.1882069158e-001
 1.0901019551e+000	 4.1078190963e+000	-2.4707036940e-001
 1.0504409556e+000	 4.1181396041e+000	-1.8191184758e-001
 1.0107873370e+000	 4.1280514725e+000	-1.2211113620e-001
 9.7114694021e-001	 4.1375564794e+000	-6.6596809682e-002
 9.3152554013e-001	 4.1466565047e+000	-1.4452034573e-002
 8.9192884318e-001	 4.1553535275e+000	 3.5093499529e-002
 8.5236248567e-001	 4.1636496242e+000	 8.2671720254e-002
 8.1283203195e-001	 4.1715469658e+000	 1.2878435864e-001
 7.7334297274e-001	 4.1790478158e+000	 1.7381115677e-001
 7.2785220965e-001	 3.9332214737e+000	-1.8853657399e-001
 6.9073009268e-001	 3.9399101435e+000	 1.7686705745e-001
 6.5365705668e-001	 3.9462301570e+000	 5.2473713723e-001
 6.1663805252e-001	 3.9521838915e+000	 7.2268651144e-001
 5.7967795609e-001	 3.9577738019e+000	 5.0550174512e-001
 5.4278156711e-001	 3.9630024187e+000	 3.4789035589e-001
 5.0595360791e-001	 3.9678723450e+000	 2.4152165425e-001
 4.6919872246e-001	 3.9723862550e+000	 1.7857025538e-001
 4.3252147529e-001	 3.9765468906e+000	 1.5169951693e-001
 3.9592635063e-001	 3.9803570600e+000	 1.5404470399e-001
 3.5941775158e-001	 3.9838196344e+000	 1.7919593531e-001
 7.3240128595e-001	 3.9578041079e+000	-1.1506016559e-001
 6.9504715575e-001	 3.9645345819e+000	 1.7865467148e-001
 6.5774241328e-001	 3.9708940955e+000	 4.5731349280e-001
 6.2049204034e-001	 3.9768850408e+000	 6.5955265775e-001
 5.8330094331e-001	 3.9825098882e+000	 4.5538962473e-001
 5.4617395190e-001	 3.9877711838e+000	 3.0903807569e-001
 5.0911581796e-001	 3.9926715472e+000	 2.1241582949e-001
 4.7213121447e-001	 3.9972136691e+000	 1.5794937679e-001
 4.3522473450e-001	 4.0014003087e+000	 1.3855676000e-001
 3.9840089032e-001	 4.0052342916e+000	 1.4763018860e-001
 3.6166411252e-001	 4.0087185072e+000	 1.7901844501e-001
 7.3695036226e-001	 3.9823867421e+000	-4.9737158044e-002
 6.9936421883e-001	 3.9891590203e+000	 1.7816003532e-001
 6.6182776988e-001	 3.9955580340e+000	 3.9346525205e-001
 6.2434602816e-001	 4.0015861901e+000	 5.8754127866e-001
 5.8692393053e-001	 4.0072459744e+000	 3.9800701910e-001
 5.4956633669e-001	 4.0125399489e+000	 2.6435756260e-001
 5.1227802800e-001	 4.0174707494e+000	 1.7876245023e-001
 4.7506370648e-001	 4.0220410832e+000	 1.3390339768e-001
 4.3792799372e-001	 4.0262537268e+000	 1.2295660827e-001
 4.0087543001e-001	 4.0301115232e+000	 1.3957482990e-001
 3.6391047346e-001	 4.0336173799e+000	 1.7786921178e-001
 7.4149943857e-001	 4.0069693763e+000	 7.4108590019e-003
 7.0368128190e-001	 4.0137834587e+000	 1.7530908405e-001
 6.6591312648e-001	 4.0202219725e+000	 3.3306690500e-001
 6.2820001599e-001	 4.0262873394e+000	 4.7938945256e-001
 5.9054691776e-001	 4.0319820607e+000	 3.3481902122e-001
 5.5295872148e-001	 4.0373087140e+000	 2.1516764275e-001
 5.1544023805e-001	 4.0422699515e+000	 1.4173374334e-001
 4.7799619849e-001	 4.0468684973e+000	 1.0745768964e-001
 4.4063125294e-001	 4.0511071448e+000	 1.0577739816e-001
 4.0334996970e-001	 4.0549887548e+000	 1.3060982480e-001
 3.6615683441e-001	 4.0585162526e+000	 1.7633226358e-001
 7.4604851487e-001	 4.0315520105e+000	 5.6347869808e-002
 7.0799834498e-001	 4.0384078971e+000	 1.7001531020e-001
 6.6999848308e-001	 4.0448859109e+000	 2.7598246525e-001
 6.3205400381e-001	 4.0509884888e+000	 3.7305121546e-001
 5.9416990498e-001	 4.0567181470e+000	 2.6728412542e-001
 5.5635110627e-001	 4.0620774791e+000	 1.6278245389e-001
 5.1860244810e-001	 4.0670691537e+000	 1.0249913771e-001
 4.8092869050e-001	 4.0716959114e+000	 7.9636696351e-002
 4.4333451216e-001	 4.0759605629e+000	 8.7898387254e-002
 4.0582450939e-001	 4.0798659865e+000	 1.2146911891e-001
 3.6840319536e-001	 4.0834151253e+000	 1.7499618262e-001
 7.5059759118e-001	 4.0561346447e+000	 9.7023869692e-002
 7.1231540806e-001	 4.0630323355e+000	 1.6218014077e-001
 6.7408383968e-001	 4.0695498494e+000	 2.2206578750e-001
 6.3590799164e-001	 4.0756896381e+000	 2.7557604963e-001
 5.9779289220e-001	 4.0814542332e+000	 1.9685442729e-001
 5.5974349106e-001	 4.0868462442e+000	 1.0851158746e-001
 5.2176465814e-001	 4.0918683558e+000	 6.2225349059e-002
 4.8386118252e-001	 4.0965233255e+000	 5.1463961661e-002
 4.4603777138e-001	 4.1008139810e+000	 7.0199726336e-002
 4.0829904908e-001	 4.1047432181e+000	 1.1288932323e-001
 3.7064955631e-001	 4.1083139980e+000	 1.7445396737e-001
 7.5514666749e-001	 4.0807172789e+000	 1.2937528638e-001
 7.1663247114e-001	 4.0876567739e+000	 1.5169330068e-001
 6.7816919628e-001	 4.0942137879e+000	 1.7116087353e-001
 6.3976197947e-001	 4.1003907874e+000	 1.8676321636e-001
 6.0141587943e-001	 4.1061903195e+000	 1.2497581646e-001
 5.6313587586e-001	 4.1116150094e+000	 5.3660225480e-002
 5.2492686819e-001	 4.1166675580e+000	 2.2076461663e-002
 4.8679367453e-001	 4.1213507395e+000	 2.3962156726e-002
 4.4874103060e-001	 4.1256673990e+000	 5.3562432516e-002
 4.1077358877e-001	 4.1296204497e+000	 1.0560963391e-001
 3.7289591725e-001	 4.1332128707e+000	 1.7530289955e-001
 7.5969574380e-001	 4.1052999131e+000	 1.5332538623e-001
 7.2094953422e-001	 4.1122812123e+000	 1.3843316310e-001
 6.8225455289e-001	 4.1188777264e+000	 1.2310216718e-001
 6.4361596729e-001	 4.1250919367e+000	 1.0640419636e-001
 6.0503886665e-001	 4.1309264058e+000	 5.3088162336e-002
 5.6652826065e-001	 4.1363837745e+000	-4.7072738531e-004
 5.2808907824e-001	 4.1414667601e+000	-1.6785992865e-002
 4.8972616655e-001	 4.1461781536e+000	-1.8468938793e-003
 4.5144428982e-001	 4.1505208171e+000	 3.8868363285e-002
 4.1324812847e-001	 4.1544976813e+000	 1.0037175481e-001
 3.7514227820e-001	 4.1581117435e+000	 1.7814441585e-001
 7.6424482012e-001	 4.1298825474e+000	 1.6878466593e-001
 7.2526659730e-001	 4.1369056507e+000	 1.2226708734e-001
 6.8633990949e-001	 4.1435416649e+000	 7.7714838823e-002
 6.4746995512e-001	 4.1497930861e+000	 3.4282921361e-002
 6.0866185388e-001	 4.1556624920e+000	-1.7374506645e-002
 5.6992064545e-001	 4.1611525396e+000	-5.2584516541e-002
 5.3125128829e-001	 4.1662659623e+000	-5.3202959608e-002
 4.9265865857e-001	 4.1710055677e+000	-2.4942186966e-002
 4.5414754904e-001	 4.1753742352e+000	 2.7000191500e-002
 4.1572266816e-001	 4.1793749130e+000	 9.7919822884e-002
 3.7738863915e-001	 4.1830106162e+000	 1.8358398431e-001
 7.6879389643e-001	 4.1544651816e+000	 1.7565123030e-001
 7.2958366038e-001	 4.1615300891e+000	 1.0305174466e-001
 6.9042526610e-001	 4.1682056034e+000	 3.4815059747e-002
 6.5132394295e-001	 4.1744942354e+000	-2.9824002540e-002
 6.1228484111e-001	 4.1803985783e+000	-8.4983830263e-002
 5.7331303024e-001	 4.1859213047e+000	-1.0138841468e-001
 5.3441349835e-001	 4.1910651645e+000	-8.6017787062e-002
 4.9559115059e-001	 4.1958329818e+000	-4.4303516425e-002
 4.5685080827e-001	 4.2002276532e+000	 1.8841381265e-002
 4.1819720786e-001	 4.2042521446e+000	 9.9000336207e-002
 3.7963500011e-001	 4.2079094889e+000	 1.9223098504e-001
 7.7334297274e-001	 4.1790478158e+000	 1.7381115677e-001
 7.3390072346e-001	 4.1861545275e+000	 8.0633432654e-002
 6.9451062271e-001	 4.1928695419e+000	-5.7897331986e-003
 6.5517793079e-001	 4.1991953847e+000	-8.6147079447e-002
 6.1590782834e-001	 4.2051346646e+000	-1.4831694978e-001
 5.7670541504e-001	 4.2106900698e+000	-1.4559360333e-001
 5.3757570840e-001	 4.2158643666e+000	-1.1407615645e-001
 4.9852364261e-001	 4.2206603959e+000	-5.8911449786e-002
 4.5955406749e-001	 4.2250810713e+000	 1.5276164655e-002
 4.2067174755e-001	 4.2291293762e+000	 1.0436208450e-001
 3.8188136106e-001	 4.2328083616e+000	 2.0469859514e-001
 3.5941775158e-001	 3.9838196344e+000	 1.7919593531e-001
 3.2299999927e-001	 3.9869375466e+000	 1.6234502355e-001
 2.8667733226e-001	 3.9897137876e+000	 1.5574253867e-001
 2.5045390584e-001	 3.9921514051e+000	 1.5392659794e-001
 2.1433379153e-001	 3.9942535004e+000	 1.5182845799e-001
 1.7832097657e-001	 3.9960232268e+000	 1.4475522485e-001
 1.4241936352e-001	 3.9974637866e+000	 1.2837261785e-001
 1.0663276990e-001	 3.9985784289e+000	 9.8687827826e-002
 7.0964927926e-002	 3.9993704478e+000	 5.2032508236e-002
 3.5419484290e-002	 3.9998431794e+000	-1.4954064723e-002
 0.0000000000e+000	 4.0000000000e+000	-1.0534162864e-001
 3.6166411252e-001	 4.0087185072e+000	 1.7901844501e-001
 3.2501874926e-001	 4.0118559063e+000	 1.6040128492e-001
 2.8846906558e-001	 4.0146494988e+000	 1.5184903142e-001
 2.5201924275e-001	 4.0171023514e+000	 1.4822507630e-001
 2.1567337773e-001	 4.0192175848e+000	 1.4478449004e-001
 1.7943548268e-001	 4.0209983720e+000	 1.3715621746e-001
 1.4330948454e-001	 4.0224479352e+000	 1.2132534343e-001
 1.0729922471e-001	 4.0235695441e+000	 9.3615469838e-002
 7.1408458726e-002	 4.0243665131e+000	 5.0671242678e-002
 3.5640856066e-002	 4.0248421993e+000	-1.0558933763e-002
 0.0000000000e+000	 4.0250000000e+000	-9.2839961301e-002
 3.6391047346e-001	 4.0336173799e+000	 1.7786921178e-001
 3.2703749926e-001	 4.0367742659e+000	 1.5958926742e-001
 2.9026079891e-001	 4.0395852100e+000	 1.5104886709e-001
 2.5358457966e-001	 4.0420532976e+000	 1.4744006441e-001
 2.1701296393e-001	 4.0441816692e+000	 1.4434521649e-001
 1.8054998878e-001	 4.0459735172e+000	 1.3771865712e-001
 1.4419960556e-001	 4.0474320839e+000	 1.2386845638e-001
 1.0796567952e-001	 4.0485606593e+000	 9.9438308553e-002
 7.1851989525e-002	 4.0493625784e+000	 6.1389587726e-002
 3.5862227843e-002	 4.0498412192e+000	 6.9836084314e-003
 0.0000000000e+000	 4.0500000000e+000	-6.6235873806e-002
 3.6615683441e-001	 4.0585162526e+000	 1.7633226358e-001
 3.2905624925e-001	 4.0616926256e+000	 1.6031683180e-001
 2.9205253223e-001	 4.0645209211e+000	 1.5357389615e-001
 2.5514991657e-001	 4.0670042439e+000	 1.5162764307e-001
 2.1835255012e-001	 4.0691457536e+000	 1.5039127169e-001
 1.8166449488e-001	 4.0709486623e+000	 1.4614813646e-001
 1.4508972659e-001	 4.0724162326e+000	 1.3553299265e-001
 1.0863213434e-001	 4.0735517745e+000	 1.1551338742e-001
 7.2295520325e-002	 4.0743586437e+000	 8.3371236247e-002
 3.6083599620e-002	 4.0748402391e+000	 3.6684622535e-002
 0.0000000000e+000	 4.0750000000e+000	-2.6690144245e-002
 3.6840319536e-001	 4.0834151253e+000	 1.7499618262e-001
 3.3107499925e-001	 4.0866109853e+000	 1.6299888450e-001
 2.9384426556e-001	 4.0894566323e+000	 1.5966548228e-001
 2.5671525349e-001	 4.0919551902e+000	 1.6085584917e-001
 2.1969213632e-001	 4.0941098380e+000	 1.6281766368e-001
 1.8277900099e-001	 4.0959238075e+000	 1.6216701337e-001
 1.4597984761e-001	 4.0974003812e+000	 1.5586911841e-001
 1.0929858915e-001	 4.0985428897e+000	 1.4121921778e-001
 7.2739051125e-002	 4.0993547090e+000	 1.1582365885e-001
 3.6304971397e-002	 4.0998392589e+000	 7.7581228401e-002
 0.0000000000e+000	 4.1000000000e+000	 2.4664760948e-002
 3.7064955631e-001	 4.1083139980e+000	 1.7445396737e-001
 3.3309374924e-001	 4.1115293449e+000	 1.6805716415e-001
 2.9563599889e-001	 4.1143923435e+000	 1.6957421409e-001
 2.5828059040e-001	 4.1169061365e+000	 1.7520431342e-001
 2.2103172252e-001	 4.1190739223e+000	 1.8153333857e-001
 1.8389350709e-001	 4.1208989527e+000	 1.8551390294e-001
 1.4686996863e-001	 4.1223845299e+000	 1.8444555031e-001
 1.0996504396e-001	 4.1235340048e+000	 1.7595512833e-001
 7.3182581926e-002	 4.1243507743e+000	 1.5797738337e-001
 3.6526343175e-002	 4.1248382788e+000	 1.2873581539e-001
 0.0000000000e+000	 4.1250000000e+000	 8.6723829068e-002
 3.7289591725e-001	 4.1332128707e+000	 1.7530289955e-001
 3.3511249924e-001	 4.1364477046e+000	 1.7592003576e-001
 2.9742773222e-001	 4.1393280547e+000	 1.8355962727e-001
 2.5984592731e-001	 4.1418570828e+000	 1.9476391110e-001
 2.2237130872e-001	 4.1440380067e+000	 2.0646076076e-001
 1.8500801320e-001	 4.1458740978e+000	 2.1594318779e-001
 1.4776008966e-001	 4.1473686786e+000	 2.2084899675e-001
 1.1063149878e-001	 4.1485251200e+000	 2.1914063807e-001
 7.3626112727e-002	 4.1493468396e+000	 2.0908530032e-001
 3.6747714952e-002	 4.1498372987e+000	 1.8923528126e-001
 0.0000000000e+000	 4.1500000000e+000	 1.5840867422e-001
 3.7514227820e-001	 4.1581117435e+000	 1.7814441585e-001
 3.3713124924e-001	 4.1613660643e+000	 1.8702229236e-001
 2.9921946555e-001	 4.1642637658e+000	 2.0188993669e-001
 2.6141126423e-001	 4.1668080290e+000	 2.1963642539e-001
 2.2371089492e-001	 4.1690020911e+000	 2.3753550821e-001
 1.8612251931e-001	 4.1708492430e+000	 2.5322454601e-001
 1.4865021068e-001	 4.1723528272e+000	 2.6468361921e-001
 1.1129795359e-001	 4.1735162352e+000	 2.7021485184e-001
 7.4069643528e-002	 4.1743429049e+000	 2.6842199340e-001
 3.6969086730e-002	 4.1748363185e+000	 2.5819029832e-001
 0.0000000000e+000	 4.1750000000e+000	 2.3866674011e-001
 3.7738863915e-001	 4.1830106162e+000	 1.8358398431e-001
 3.3914999924e-001	 4.1862844239e+000	 2.0180496367e-001
 3.0101119888e-001	 4.1891994770e+000	 2.2484177813e-001
 2.6297660114e-001	 4.1917589753e+000	 2.4993422277e-001
 2.2505048112e-001	 4.1939661755e+000	 2.7470588212e-001
 1.8723702541e-001	 4.1958243882e+000	 2.9714249591e-001
 1.4954033171e-001	 4.1973369759e+000	 3.1557051279e-001
 1.1196440840e-001	 4.1985073504e+000	 3.2863587739e-001
 7.4513174330e-002	 4.1993389702e+000	 3.3528309386e-001
 3.7190458508e-002	 4.1998353384e+000	 3.3473460595e-001
 0.0000000000e+000	 4.2000000000e+000	 3.2647053131e-001
 3.7963500011e-001	 4.2079094889e+000	 1.9223098504e-001
 3.4116874924e-001	 4.2112027836e+000	 2.2071513157e-001
 3.0280293221e-001	 4.2141351882e+000	 2.5269995908e-001
 2.6454193806e-001	 4.2167099216e+000	 2.8577993988e-001
 2.2639006732e-001	 4.2189302598e+000	 3.1793253052e-001
 1.8835153152e-001	 4.2207995333e+000	 3.4749595698e-001
 1.5043045273e-001	 4.2223211246e+000	 3.7314720521e-001
 1.1263086322e-001	 4.2234984656e+000	 3.9388026314e-001
 7.4956705132e-002	 4.2243350355e+000	 4.0898465777e-001
 3.7411830286e-002	 4.2248343583e+000	 4.1802432806e-001
 0.0000000000e+000	 4.2250000000e+000	 4.2081687180e-001
 3.8188136106e-001	 4.2328083616e+000	 2.0469859514e-001
 3.4318749924e-001	 4.2361211433e+000	 2.4420575213e-001
 3.0459466554e-001	 4.2390708994e+000	 2.8575721848e-001
 2.6610727498e-001	 4.2416608679e+000	 3.2730618147e-001
 2.2772965353e-001	 4.2438943442e+000	 3.6718808514e-001
 1.8946603763e-001	 4.2457746785e+000	 4.0409782631e-001
 1.5132057376e-001	 4.2473052732e+000	 4.3706717355e-001
 1.1329731804e-001	 4.2484895807e+000	 4.6544245587e-001
 7.5400235934e-002	 4.2493311008e+000	 4.8886256530e-001
 3.7633202065e-002	 4.2498333782e+000	 5.0723731475e-001
 0.0000000000e+000	 4.2500000000e+000	 5.2072618971e-001
 4.2500000000e+000	 0.0000000000e+000	 2.4441848073e+000
 4.2498333782e+000	 3.7633202065e-002	 2.2481397046e+000
 4.2493311008e+000	 7.5400235934e-002	 2.0768847060e+000
 4.2484895807e+000	 1.1329731804e-001	 1.9257235708e+000
 4.2473052732e+000	 1.5132057376e-001	 1.7902424502e+000
 4.2457746785e+000	 1.8946603763e-001	 1.6663155651e+000
 4.2438943442e+000	 2.2772965353e-001	 1.5501101889e+000
 4.2416608679e+000	 2.6610727498e-001	 1.4380909021e+000
 4.2390708994e+000	 3.0459466554e-001	 1.3270230839e+000
 4.2361211433e+000	 3.4318749924e-001	 1.2139756121e+000
 4.2328083616e+000	 3.8188136106e-001	 1.0963227381e+000
 4.2750000000e+000	 0.0000000000e+000	 1.4761802005e+000
 4.2748323980e+000	 3.7854573843e-002	 1.3646278524e+000
 4.2743271661e+000	 7.5843766737e-002	 1.2738543613e+000
 4.2734806959e+000	 1.1396377285e-001	 1.1993092768e+000
 4.2722894219e+000	 1.5221069479e-001	 1.1367364223e+000
 4.2707498237e+000	 1.9058054374e-001	 1.0821795940e+000
 4.2688584286e+000	 2.2906923973e-001	 1.0319875424e+000
 4.2666118142e+000	 2.6767261190e-001	 9.8281820176e-001
 4.2640066105e+000	 3.0638639888e-001	 9.3164213382e-001
 4.2610395029e+000	 3.4520624924e-001	 8.7574515362e-001
 4.2577072343e+000	 3.8412772201e-001	 8.1273010638e-001
 4.3000000000e+000	 0.0000000000e+000	 5.1750662747e-001
 4.2998314179e+000	 3.8075945621e-002	 4.9119442636e-001
 4.2993232314e+000	 7.6287297539e-002	 4.8151264281e-001
 4.2984718111e+000	 1.1463022767e-001	 4.8405745520e-001
 4.2972735706e+000	 1.5310081581e-001	 4.9473137750e-001
 4.2957249688e+000	 1.9169504985e-001	 5.0974898100e-001
 4.2938225130e+000	 2.3040882593e-001	 5.2564187583e-001
 4.2915627605e+000	 2.6923794881e-001	 5.3926291699e-001
 4.2889423217e+000	 3.0817813221e-001	 5.4778960047e-001
 4.2859578626e+000	 3.4722499924e-001	 5.4872661648e-001
 4.2826061070e+000	 3.8637408296e-001	 5.3990752807e-001
 4.3250000000e+000	 0.0000000000e+000	-4.3136510128e-001
 4.3248304378e+000	 3.8297317399e-002	-3.7179772391e-001
 4.3243192967e+000	 7.6730828340e-002	-2.9988658729e-001
 4.3234629263e+000	 1.1529668248e-001	-2.1988800049e-001
 4.3222577192e+000	 1.5399093684e-001	-1.3573969398e-001
 4.3207001140e+000	 1.9280955596e-001	-5.1055073186e-002
 4.3187865974e+000	 2.3174841213e-001	 3.0881764589e-002
 4.3165137067e+000	 2.7080328573e-001	 1.0712021406e-001
 4.3138780329e+000	 3.0996986554e-001	 1.7504651140e-001
 4.3108762223e+000	 3.4924374924e-001	 2.3238621546e-001
 4.3075049798e+000	 3.8862044392e-001	 2.7720578853e-001
 4.3500000000e+000	 0.0000000000e+000	-1.3699749986e+000
 4.3498294576e+000	 3.8518689177e-002	-1.2239954755e+000
 4.3493153620e+000	 7.7174359142e-002	-1.0700981002e+000
 4.3484540415e+000	 1.1596313730e-001	-9.1239074147e-001
 4.3472418679e+000	 1.5488105786e-001	-7.5465026272e-001
 4.3456752592e+000	 1.9392406206e-001	-6.0031674986e-001
 4.3437506817e+000	 2.3308799833e-001	-4.5248852478e-001
 4.3414646530e+000	 2.7236862265e-001	-3.1391798240e-001
 4.3388137440e+000	 3.1176159887e-001	-1.8700828704e-001
 4.3357945819e+000	 3.5126249924e-001	-7.3810962439e-002
 4.3324038525e+000	 3.9086680487e-001	 2.3975591296e-002
 4.3750000000e+000	 0.0000000000e+000	-2.2978735913e+000
 4.3748284775e+000	 3.8740060954e-002	-2.0650551538e+000
 4.3743114273e+000	 7.7617889943e-002	-1.8288850542e+000
 4.3734451567e+000	 1.1662959211e-001	-1.5933217482e+000
 4.3722260166e+000	 1.5577117889e-001	-1.3619800756e+000
 4.3706504043e+000	 1.9503856817e-001	-1.1381254586e+000
 4.3687147661e+000	 2.3442758453e-001	-9.2466891141e-001
 4.3664155993e+000	 2.7393395956e-001	-7.2416289686e-001
 4.3637494552e+000	 3.1355333220e-001	-5.3879806732e-001
 4.3607129416e+000	 3.5328124924e-001	-3.7040092572e-001
 4.3573027252e+000	 3.9311316582e-001	-2.2043243963e-001
 4.4000000000e+000	 0.0000000000e+000	-1.3720525161e+000
 4.3998274974e+000	 3.8961432732e-002	-1.2274071835e+000
 4.3993074926e+000	 7.8061420743e-002	-1.0954417564e+000
 4.3984362718e+000	 1.1729604692e-001	-9.7411523970e-001
 4.3972101652e+000	 1.5666129991e-001	-8.6159473250e-001
 4.3956255495e+000	 1.9615307428e-001	-7.5626466568e-001
 4.3936788505e+000	 2.3576717073e-001	-6.5673585569e-001
 4.3913665456e+000	 2.7549929647e-001	-5.6185434658e-001
 4.3886851664e+000	 3.1534506553e-001	-4.7071001318e-001
 4.3856313013e+000	 3.5529999924e-001	-3.8264489763e-001
 4.3822015979e+000	 3.9535952677e-001	-2.9726125122e-001
 4.4250000000e+000	 0.0000000000e+000	-4.6969874148e-001
 4.4248265173e+000	 3.9182804509e-002	-3.9957120196e-001
 4.4243035579e+000	 7.8504951544e-002	-3.3899602820e-001
 4.4234273870e+000	 1.1796250174e-001	-2.8576647813e-001
 4.4221943139e+000	 1.5755142094e-001	-2.3788723699e-001
 4.4206006947e+000	 1.9726758038e-001	-1.9358392228e-001
 4.4186429349e+000	 2.3710675693e-001	-1.5131240405e-001
 4.4163174919e+000	 2.7706463339e-001	-1.0976791294e-001
 4.4136208776e+000	 3.1713679886e-001	-6.7893908281e-002
 4.4105496609e+000	 3.5731874924e-001	-2.4890677577e-002
 4.4071004706e+000	 3.9760588772e-001	 1.9776360909e-002
 4.4500000000e+000	 0.0000000000e+000	 4.0960741593e-001
 4.4498255371e+000	 3.9404176286e-002	 4.0719940669e-001
 4.4492996232e+000	 7.8948482344e-002	 3.9841851349e-001
 4.4484185022e+000	 1.1862895655e-001	 3.8563688672e-001
 4.4471784626e+000	 1.5844154196e-001	 3.7101183358e-001
 4.4455758398e+000	 1.9838208649e-001	 3.5647604420e-001
 4.4436070192e+000	 2.3844634313e-001	 3.4372800281e-001
 4.4412684381e+000	 2.7862997030e-001	 3.3422261177e-001
 4.4385565887e+000	 3.1892853219e-001	 3.2916205698e-001
 4.4354680206e+000	 3.5933749924e-001	 3.2948694364e-001
 4.4319993433e+000	 3.9985224867e-001	 3.3586773148e-001
 4.4750000000e+000	 0.0000000000e+000	 1.2662762610e+000
 4.4748245570e+000	 3.9625548063e-002	 1.1932752220e+000
 4.4742956885e+000	 7.9392013143e-002	 1.1171334363e+000
 4.4734096174e+000	 1.1929541136e-001	 1.0403881457e+000
 4.4721626112e+000	 1.5933166298e-001	 9.6535824969e-001
 4.4705509850e+000	 1.9949659259e-001	 8.9413426144e-001
 4.4685711036e+000	 2.3978592933e-001	 8.2856844796e-001
 4.4662193844e+000	 2.8019530721e-001	 7.7026518458e-001
 4.4634922999e+000	 3.2072026552e-001	 7.2057155195e-001
 4.4603863803e+000	 3.6135624923e-001	 6.8056820555e-001
 4.4568982160e+000	 4.0209860962e-001	 6.5106054705e-001
 4.5000000000e+000	 0.0000000000e+000	 2.1007089806e+000
 4.4998235769e+000	 3.9846919840e-002	 1.9590186295e+000
 4.4992917538e+000	 7.9835543943e-002	 1.8174730348e+000
 4.4984007326e+000	 1.1996186617e-001	 1.6787742336e+000
 4.4971467599e+000	 1.6022178400e-001	 1.5454023390e+000
 4.4955261302e+000	 2.0061109869e-001	 1.4196052231e+000
 4.4935351880e+000	 2.4112551553e-001	 1.3033883846e+000
 4.4911703307e+000	 2.8176064413e-001	 1.1985050315e+000
 4.4884280111e+000	 3.2251199884e-001	 1.1064464085e+000
 4.4853047399e+000	 3.6337499923e-001	 1.0284323977e+000
 4.4817970888e+000	 4.0434497057e-001	 9.6540242525e-001
 4.2328083616e+000	 3.8188136106e-001	 1.0963227381e+000
 4.2291293762e+000	 4.2067174755e-001	 1.0451692329e+000
 4.2250810713e+000	 4.5955406749e-001	 9.9483810884e-001
 4.2206603959e+000	 4.9852364261e-001	 9.4386791275e-001
 4.2158643666e+000	 5.3757570840e-001	 8.9109692266e-001
 4.2106900698e+000	 5.7670541504e-001	 8.3566016570e-001
 4.2051346646e+000	 6.1590782834e-001	 7.7698546353e-001
 4.1991953847e+000	 6.5517793079e-001	 6.3770231243e-001
 4.1928695419e+000	 6.9451062271e-001	 5.1164225906e-001
 4.1861545275e+000	 7.3390072346e-001	 4.2789644266e-001
 4.1790478158e+000	 7.7334297274e-001	 3.8737385613e-001
 4.2577072343e+000	 3.8412772201e-001	 8.1273010638e-001
 4.2540066078e+000	 4.2314628725e-001	 8.1540652353e-001
 4.2499344894e+000	 4.6225732672e-001	 8.1322921810e-001
 4.2454878100e+000	 5.0145613463e-001	 8.0491185173e-001
 4.2406635688e+000	 5.4073791845e-001	 7.8948028179e-001
 4.2354588350e+000	 5.8009779984e-001	 7.6626946093e-001
 4.2298707508e+000	 6.1953081557e-001	 7.3491933645e-001
 4.2238965340e+000	 6.5903191862e-001	 5.9356071751e-001
 4.2175334803e+000	 6.9859597932e-001	 4.7027066229e-001
 4.2107789659e+000	 7.3821778655e-001	 3.8523373725e-001
 4.2036304500e+000	 7.7789204906e-001	 3.3939140745e-001
 4.2826061070e+000	 3.8637408296e-001	 5.3990752807e-001
 4.2788838395e+000	 4.2562082694e-001	 5.9460795433e-001
 4.2747879074e+000	 4.6496058594e-001	 6.3869626580e-001
 4.2703152241e+000	 5.0438862665e-001	 6.7106477599e-001
 4.2654627709e+000	 5.4390012851e-001	 6.9093063399e-001
 4.2602276001e+000	 5.8349018464e-001	 6.9783260317e-001
 4.2546068371e+000	 6.2315380280e-001	 6.9162681214e-001
 4.2485976834e+000	 6.6288590645e-001	 5.4732433591e-001
 4.2421974188e+000	 7.0268133592e-001	 4.2929243082e-001
 4.2354034043e+000	 7.4253484963e-001	 3.4538547559e-001
 4.2282130842e+000	 7.8244112537e-001	 2.9657590831e-001
 4.3075049798e+000	 3.8862044392e-001	 2.7720578853e-001
 4.3037610711e+000	 4.2809536664e-001	 3.8202984388e-001
 4.2996413255e+000	 4.6766384517e-001	 4.7039994335e-001
 4.2951426382e+000	 5.0732111866e-001	 5.4139063728e-001
 4.2902619731e+000	 5.4706233856e-001	 5.9441412828e-001
 4.2849963652e+000	 5.8688256944e-001	 6.2921692706e-001
 4.2793429233e+000	 6.2677679003e-001	 6.3863494537e-001
 4.2732988327e+000	 6.6673989428e-001	 4.9910798490e-001
 4.2668613573e+000	 7.0676669253e-001	 3.8880747650e-001
 4.2600278427e+000	 7.4685191271e-001	 3.0843567356e-001
 4.2527957184e+000	 7.8699020168e-001	 2.5899448622e-001
 4.3324038525e+000	 3.9086680487e-001	 2.3975591296e-002
 4.3286383027e+000	 4.3056990634e-001	 1.7692897199e-001
 4.3244947436e+000	 4.7036710439e-001	 3.0750195334e-001
 4.3199700523e+000	 5.1025361068e-001	 4.1495495493e-001
 4.3150611753e+000	 5.5022454861e-001	 4.9889904417e-001
 4.3097651303e+000	 5.9027495423e-001	 5.5929246676e-001
 4.3040790096e+000	 6.3039977725e-001	 5.7408262087e-001
 4.2979999820e+000	 6.7059388211e-001	 4.4903033761e-001
 4.2915252958e+000	 7.1085204914e-001	 3.4892015388e-001
 4.2846522811e+000	 7.5116897579e-001	 2.7447338203e-001
 4.2773783526e+000	 7.9153927800e-001	 2.2671990140e-001
 4.3573027252e+000	 3.9311316582e-001	-2.2043243963e-001
 4.3535155343e+000	 4.3304444603e-001	-2.1437433394e-002
 4.3493481616e+000	 4.7307036361e-001	 1.4916498058e-001
 4.3447974664e+000	 5.1318610270e-001	 2.9082477109e-001
 4.3398603774e+000	 5.5338675867e-001	 4.0335573074e-001
 4.3345338954e+000	 5.9366733903e-001	 4.8693187892e-001
 4.3288150959e+000	 6.3402276448e-001	 5.0527780266e-001
 4.3227011313e+000	 6.7444786994e-001	 3.9721381285e-001
 4.3161892343e+000	 7.1493740575e-001	 3.0973913323e-001
 4.3092767195e+000	 7.5548603887e-001	 2.4359254302e-001
 4.3019609868e+000	 7.9608835431e-001	 1.9983038581e-001
 4.3822015979e+000	 3.9535952677e-001	-2.9726125122e-001
 4.3783927660e+000	 4.3551898573e-001	-1.5040900295e-001
 4.3742015797e+000	 4.7577362284e-001	-5.4473357042e-003
 4.3696248805e+000	 5.1611859472e-001	 1.6806860749e-001
 4.3646595796e+000	 5.5654896872e-001	 3.0675654788e-001
 4.3593026605e+000	 5.9705972383e-001	 4.1101036810e-001
 4.3535511821e+000	 6.3764575171e-001	 4.3235877227e-001
 4.3474022807e+000	 6.7830185777e-001	 3.4378446871e-001
 4.3408531727e+000	 7.1902276235e-001	 2.7137727794e-001
 4.3339011579e+000	 7.5980310196e-001	 2.1589185077e-001
 4.3265436210e+000	 8.0063743062e-001	 1.7840948772e-001
 4.4071004706e+000	 3.9760588772e-001	 1.9776360909e-002
 4.4032699976e+000	 4.3799352542e-001	 1.2472078342e-001
 4.3990549978e+000	 4.7847688206e-001	 2.1652680737e-001
 4.3944522946e+000	 5.1905108674e-001	 2.9453709385e-001
 4.3894587817e+000	 5.5971117877e-001	 3.5780524229e-001
 4.3840714257e+000	 6.0045210862e-001	 4.0508985437e-001
 4.3782872684e+000	 6.4126873894e-001	 3.7649964643e-001
 4.3721034300e+000	 6.8215584560e-001	 2.8887189976e-001
 4.3655171112e+000	 7.2310811896e-001	 2.3395152609e-001
 4.3585255963e+000	 7.6412016504e-001	 1.9147461747e-001
 4.3511262553e+000	 8.0518650693e-001	 1.6254592152e-001
 4.4319993433e+000	 3.9985224867e-001	 3.3586773148e-001
 4.4281472292e+000	 4.4046806511e-001	 4.0026144409e-001
 4.4239084158e+000	 4.8118014128e-001	 4.5276398316e-001
 4.4192797087e+000	 5.2198357876e-001	 4.9275539966e-001
 4.4142579839e+000	 5.6287338882e-001	 5.1932206233e-001
 4.4088401908e+000	 6.0384449342e-001	 5.3125058983e-001
 4.4030233546e+000	 6.4489172617e-001	 4.6211589599e-001
 4.3968045793e+000	 6.8600983343e-001	 3.4157809119e-001
 4.3901810497e+000	 7.2719347556e-001	 2.5033282549e-001
 4.3831500347e+000	 7.6843722812e-001	 1.8772967949e-001
 4.3757088895e+000	 8.0973558324e-001	 1.5299759060e-001
 4.4568982160e+000	 4.0209860962e-001	 6.5106054705e-001
 4.4530244608e+000	 4.4294260481e-001	 6.7624776230e-001
 4.4487618339e+000	 4.8388340051e-001	 6.9087050077e-001
 4.4441071228e+000	 5.2491607077e-001	 6.9434573707e-001
 4.4390571860e+000	 5.6603559887e-001	 6.8579203615e-001
 4.4336089559e+000	 6.0723687822e-001	 6.6402335212e-001
 4.4277594409e+000	 6.4851471339e-001	 5.5804960058e-001
 4.4215057286e+000	 6.8986382126e-001	 4.1942607474e-001
 4.4148449882e+000	 7.3127883217e-001	 3.0999332366e-001
 4.4077744731e+000	 7.7275429120e-001	 2.2915991758e-001
 4.4002915237e+000	 8.1428465955e-001	 1.7621352008e-001
 4.4817970888e+000	 4.0434497057e-001	 9.6540242525e-001
 4.4779016925e+000	 4.4541714450e-001	 9.5271490991e-001
 4.4736152520e+000	 4.8658665973e-001	 9.3086942677e-001
 4.4689345369e+000	 5.2784856279e-001	 8.9931941213e-001
 4.4638563882e+000	 5.6919780892e-001	 8.5721505805e-001
 4.4583777210e+000	 6.1062926301e-001	 8.0339697599e-001
 4.4524955272e+000	 6.5213770062e-001	 6.6410541568e-001
 4.4462068779e+000	 6.9371780909e-001	 5.0847394067e-001
 4.4395089267e+000	 7.3536418877e-001	 3.8196221619e-001
 4.4323989115e+000	 7.7707135428e-001	 2.8403765296e-001
 4.4248741579e+000	 8.1883373586e-001	 2.1404645516e-001
 4.1790478158e+000	 7.7334297274e-001	 3.8737385613e-001
 4.1715469658e+000	 8.1283203195e-001	 4.7027634763e-001
 4.1636496242e+000	 8.5236248567e-001	 5.3035579785e-001
 4.1553535275e+000	 8.9192884318e-001	 5.6954849708e-001
 4.1466565047e+000	 9.3152554013e-001	 5.9015727604e-001
 4.1375564794e+000	 9.7114694021e-001	 5.9485901804e-001
 4.1280514725e+000	 1.0107873370e+000	 5.8671157873e-001
 4.1181396041e+000	 1.0504409556e+000	 5.6916007836e-001
 4.1078190963e+000	 1.0901019551e+000	 5.4604253178e-001
 4.0970882749e+000	 1.1297644301e+000	 5.2159478263e-001
 4.0859455723e+000	 1.1694224131e+000	 5.0045470858e-001
 4.2036304500e+000	 7.7789204906e-001	 3.3939140745e-001
 4.1960854774e+000	 8.1761339685e-001	 4.2871969565e-001
 4.1881416808e+000	 8.5737638264e-001	 4.9524528464e-001
 4.1797967836e+000	 8.9717548344e-001	 5.4086368815e-001
 4.1710486018e+000	 9.3700510214e-001	 5.6784139074e-001
 4.1618950470e+000	 9.7685956928e-001	 5.7882352566e-001
 4.1523341282e+000	 1.0167331448e+000	 5.7684095301e-001
 4.1423639547e+000	 1.0566200201e+000	 5.6531670255e-001
 4.1319827380e+000	 1.0965143196e+000	 5.4807174597e-001
 4.1211887942e+000	 1.1364101032e+000	 5.2933006419e-001
 4.1099805463e+000	 1.1763013684e+000	 5.1372297620e-001
 4.2282130842e+000	 7.8244112537e-001	 2.9657590831e-001
 4.2206239889e+000	 8.2239476175e-001	 3.9175471083e-001
 4.2126337374e+000	 8.6239027962e-001	 4.6402560056e-001
 4.2042400396e+000	 9.0242212370e-001	 5.1524284075e-001
 4.1954406989e+000	 9.4248466414e-001	 5.4763623585e-001
 4.1862336145e+000	 9.8257219834e-001	 5.6381897826e-001
 4.1766167839e+000	 1.0226789527e+000	 5.6679488822e-001
 4.1665883053e+000	 1.0627990845e+000	 5.5996501017e-001
 4.1561463797e+000	 1.1029266840e+000	 5.4713353010e-001
 4.1452893135e+000	 1.1430557764e+000	 5.3251297861e-001
 4.1340155202e+000	 1.1831803238e+000	 5.2072868587e-001
 4.2527957184e+000	 7.8699020168e-001	 2.5899448622e-001
 4.2451625005e+000	 8.2717612664e-001	 3.5948019650e-001
 4.2371257940e+000	 8.6740417660e-001	 4.3682717256e-001
 4.2286832957e+000	 9.0766876395e-001	 4.9284794149e-001
 4.2198327960e+000	 9.4796422615e-001	 5.2973528204e-001
 4.2105721820e+000	 9.8828482740e-001	 5.5007024385e-001
 4.2008994397e+000	 1.0286247606e+000	 5.5682955209e-001
 4.1908126559e+000	 1.0689781490e+000	 5.5339236055e-001
 4.1803100215e+000	 1.1093390485e+000	 5.4354631681e-001
 4.1693898327e+000	 1.1497014495e+000	 5.3149290387e-001
 4.1580504942e+000	 1.1900592792e+000	 5.2185202354e-001
 4.2773783526e+000	 7.9153927800e-001	 2.2671990140e-001
 4.2697010121e+000	 8.3195749154e-001	 3.3200005226e-001
 4.2616178507e+000	 8.7241807358e-001	 4.1378497075e-001
 4.2531265517e+000	 9.1291540421e-001	 4.7384495033e-001
 4.2442248931e+000	 9.5344378815e-001	 5.1433538712e-001
 4.2349107496e+000	 9.9399745647e-001	 5.3780497492e-001
 4.2251820954e+000	 1.0345705684e+000	 5.4720327790e-001
 4.2150370066e+000	 1.0751572134e+000	 5.4588764344e-001
 4.2044736632e+000	 1.1157514129e+000	 5.3762941809e-001
 4.1934903520e+000	 1.1563471226e+000	 5.2661943031e-001
 4.1820854681e+000	 1.1969382346e+000	 5.1747270486e-001
 4.3019609868e+000	 7.9608835431e-001	 1.9983038581e-001
 4.2942395236e+000	 8.3673885643e-001	 3.0942312831e-001
 4.2861099073e+000	 8.7743197055e-001	 3.9503837851e-001
 4.2775698078e+000	 9.1816204446e-001	 4.5840368709e-001
 4.2686169902e+000	 9.5892335015e-001	 5.0163669924e-001
 4.2592493171e+000	 9.9971008553e-001	 5.2725352885e-001
 4.2494647511e+000	 1.0405163763e+000	 5.3817650253e-001
 4.2392613572e+000	 1.0813362778e+000	 5.3774123529e-001
 4.2286373050e+000	 1.1221637773e+000	 5.2970300009e-001
 4.2175908713e+000	 1.1629927957e+000	 5.1824235451e-001
 4.2061204421e+000	 1.2038171899e+000	 5.0796998863e-001
 4.3265436210e+000	 8.0063743062e-001	 1.7840948772e-001
 4.3187780352e+000	 8.4152022133e-001	 2.9186308491e-001
 4.3106019639e+000	 8.8244586753e-001	 3.8073106720e-001
 4.3020130638e+000	 9.2340868472e-001	 4.4669772180e-001
 4.2930090873e+000	 9.6440291215e-001	 4.9184256342e-001
 4.2835878846e+000	 1.0054227146e+000	 5.1864889108e-001
 4.2737474068e+000	 1.0464621842e+000	 5.3001170677e-001
 4.2634857078e+000	 1.0875153423e+000	 5.2924495698e-001
 4.2528009467e+000	 1.1285761418e+000	 5.2008805887e-001
 4.2416913905e+000	 1.1696384688e+000	 5.0671167352e-001
 4.2301554161e+000	 1.2106961453e+000	 4.9372268974e-001
 4.3511262553e+000	 8.0518650693e-001	 1.6254592152e-001
 4.3433165468e+000	 8.4630158622e-001	 2.7943825640e-001
 4.3350940205e+000	 8.8745976450e-001	 3.7101087496e-001
 4.3264563199e+000	 9.2865532497e-001	 4.3890426873e-001
 4.3174011843e+000	 9.6988247415e-001	 4.8515943123e-001
 4.3079264521e+000	 1.0111353436e+000	 5.1222660088e-001
 4.2980300625e+000	 1.0524079920e+000	 5.2297335754e-001
 4.2877100584e+000	 1.0936944067e+000	 5.2069203307e-001
 4.2769645885e+000	 1.1349885062e+000	 5.0910639700e-001
 4.2657919098e+000	 1.1762841420e+000	 4.9237757911e-001
 4.2541903900e+000	 1.2175751007e+000	 4.7510919175e-001
 4.3757088895e+000	 8.0973558324e-001	 1.5299759060e-001
 4.3678550583e+000	 8.5108295112e-001	 2.7227151998e-001
 4.3595860771e+000	 8.9247366148e-001	 3.6602968972e-001
 4.3508995759e+000	 9.3390196523e-001	 4.3520408405e-001
 4.3417932814e+000	 9.7536203615e-001	 4.8179677356e-001
 4.3322650197e+000	 1.0168479727e+000	 5.0822467960e-001
 4.3223127183e+000	 1.0583537999e+000	 5.1732785211e-001
 4.3119344090e+000	 1.0998734712e+000	 5.1237705233e-001
 4.3011282302e+000	 1.1414008707e+000	 4.9708060086e-001
 4.2898924291e+000	 1.1829298151e+000	 4.7559045237e-001
 4.2782253640e+000	 1.2244540561e+000	 4.5250745897e-001
 4.4002915237e+000	 8.1428465955e-001	 1.7621352008e-001
 4.3923935699e+000	 8.5586431601e-001	 2.7206692693e-001
 4.3840781337e+000	 8.9748755845e-001	 3.5902941402e-001
 4.3753428319e+000	 9.3914860548e-001	 4.3528981107e-001
 4.3661853785e+000	 9.8084159815e-001	 4.8196699625e-001
 4.3566035872e+000	 1.0225606018e+000	 5.0688356134e-001
 4.3465953740e+000	 1.0642996077e+000	 5.1334346421e-001
 4.3361587596e+000	 1.1060525356e+000	 5.0459592965e-001
 4.3252918719e+000	 1.1478132351e+000	 4.8433401875e-001
 4.3139929483e+000	 1.1895754882e+000	 4.5670085837e-001
 4.3022603379e+000	 1.2313330114e+000	 4.2629504820e-001
 4.4248741579e+000	 8.1883373586e-001	 2.1404645516e-001
 4.4169320814e+000	 8.6064568090e-001	 2.8466451500e-001
 4.4085701903e+000	 9.0250145542e-001	 3.5005499130e-001
 4.3997860880e+000	 9.4439524573e-001	 4.0836978790e-001
 4.3905774756e+000	 9.8632116015e-001	 4.5764273000e-001
 4.3809421547e+000	 1.0282732308e+000	 4.9578826133e-001
 4.3708780297e+000	 1.0702454156e+000	 5.1129029184e-001
 4.3603831102e+000	 1.1122316001e+000	 4.9764586920e-001
 4.3494555137e+000	 1.1542255995e+000	 4.7119073973e-001
 4.3380934676e+000	 1.1962211613e+000	 4.3605954108e-001
 4.3262953119e+000	 1.2382119668e+000	 3.9684912002e-001
 4.0859455723e+000	 1.1694224131e+000	 5.0045470858e-001
 4.0743895290e+000	 1.2090698765e+000	 2.3252151017e-001
 4.0624187960e+000	 1.2487007353e+000	 3.2179406646e-004
 4.0500321369e+000	 1.2883088488e+000	-1.9413369733e-002
 4.0372284301e+000	 1.3278880237e+000	-1.9342968963e-002
 4.0240066701e+000	 1.3674320163e+000	-6.4637312971e-003
 4.0103659702e+000	 1.4069345349e+000	 1.8417739192e-002
 3.9963055637e+000	 1.4463892427e+000	 5.4407003362e-002
 3.9818248061e+000	 1.4857897608e+000	 1.0052293508e-001
 3.9669231766e+000	 1.5251296703e+000	 1.5569908418e-001
 3.9516002795e+000	 1.5644025157e+000	 2.1878525478e-001
 4.1099805463e+000	 1.1763013684e+000	 5.1372297620e-001
 4.0983565262e+000	 1.2161820523e+000	 2.4922524284e-001
 4.0863153771e+000	 1.2560460337e+000	 4.4914478861e-002
 4.0738558554e+000	 1.2958871362e+000	 2.7930849926e-002
 4.0609768326e+000	 1.3356991298e+000	 2.3239560372e-002
 4.0476772976e+000	 1.3754757340e+000	 3.0097834307e-002
 4.0339563582e+000	 1.4152106204e+000	 4.7674045345e-002
 4.0198132435e+000	 1.4548974148e+000	 7.5048704446e-002
 4.0052473050e+000	 1.4945297006e+000	 1.1121566397e-001
 3.9902580188e+000	 1.5341010213e+000	 1.5508353892e-001
 3.9748449870e+000	 1.5736048834e+000	 2.0547734594e-001
 4.1340155202e+000	 1.1831803238e+000	 5.2072868587e-001
 4.1223235234e+000	 1.2232942280e+000	 2.5983903458e-001
 4.1102119583e+000	 1.2633913321e+000	 9.0532138130e-002
 4.0976795738e+000	 1.3034654235e+000	 7.0491341899e-002
 4.0847252351e+000	 1.3435102358e+000	 6.1549355075e-002
 4.0713479250e+000	 1.3835194518e+000	 6.2937961480e-002
 4.0575467463e+000	 1.4234867059e+000	 7.3799969625e-002
 4.0433209233e+000	 1.4634055868e+000	 9.3190254348e-002
 4.0286698039e+000	 1.5032696403e+000	 1.2007701716e-001
 4.0135928610e+000	 1.5430723723e+000	 1.5334326625e-001
 3.9980896946e+000	 1.5828072511e+000	 1.9178851650e-001
 4.1580504942e+000	 1.1900592792e+000	 5.2185202354e-001
 4.1462905207e+000	 1.2304064038e+000	 2.6473892385e-001
 4.1341085394e+000	 1.2707366306e+000	 1.3099941656e-001
 4.1215032923e+000	 1.3110437108e+000	 1.0837185429e-001
 4.1084736377e+000	 1.3513213418e+000	 9.5690071213e-002
 4.0950185525e+000	 1.3915631695e+000	 9.2159906375e-002
 4.0811371344e+000	 1.4317627914e+000	 9.6898055036e-002
 4.0668286031e+000	 1.4719137588e+000	 1.0893316439e-001
 4.0520923027e+000	 1.5120095801e+000	 1.2720715054e-001
 4.0369277032e+000	 1.5520437233e+000	 1.5057673766e-001
 4.0213344021e+000	 1.5920096189e+000	 1.7781521954e-001
 4.1820854681e+000	 1.1969382346e+000	 5.1747270486e-001
 4.1702575179e+000	 1.2375185795e+000	 2.6430058088e-001
 4.1580051206e+000	 1.2780819290e+000	 1.6641959535e-001
 4.1453270108e+000	 1.3186219982e+000	 1.4167600036e-001
 4.1322220402e+000	 1.3591324478e+000	 1.2576536146e-001
 4.1186891800e+000	 1.3996068873e+000	 1.1786706300e-001
 4.1047275224e+000	 1.4400388769e+000	 1.1707113353e-001
 4.0903362829e+000	 1.4804219308e+000	 1.2237939576e-001
 4.0755148016e+000	 1.5207495199e+000	 1.3270684060e-001
 4.0602625455e+000	 1.5610150743e+000	 1.4688322580e-001
 4.0445791096e+000	 1.6012119866e+000	 1.6365489968e-001
 4.2061204421e+000	 1.2038171899e+000	 5.0796998863e-001
 4.1942245151e+000	 1.2446307552e+000	 2.5889931815e-001
 4.1819017017e+000	 1.2854272275e+000	 1.9689570660e-001
 4.1691507292e+000	 1.3262002855e+000	 1.7050726243e-001
 4.1559704427e+000	 1.3669435539e+000	 1.5187887518e-001
 4.1423598075e+000	 1.4076506050e+000	 1.4016295930e-001
 4.1283179105e+000	 1.4483149624e+000	 1.3442231774e-001
 4.1138439627e+000	 1.4889301028e+000	 1.3363134666e-001
 4.0989373005e+000	 1.5294894596e+000	 1.3667746669e-001
 4.0835973877e+000	 1.5699864253e+000	 1.4236278163e-001
 4.0678238172e+000	 1.6104143544e+000	 1.4940596473e-001
 4.2301554161e+000	 1.2106961453e+000	 4.9372268974e-001
 4.2181915124e+000	 1.2517429310e+000	 2.5760302710e-001
 4.2057982829e+000	 1.2927725259e+000	 2.2253054037e-001
 4.1929744477e+000	 1.3337785729e+000	 1.9496899554e-001
 4.1797188453e+000	 1.3747546599e+000	 1.7413425855e-001
 4.1660304349e+000	 1.4156943227e+000	 1.5915125330e-001
 4.1519082985e+000	 1.4565910479e+000	 1.4905499303e-001
 4.1373516424e+000	 1.4974382748e+000	 1.4279183989e-001
 4.1223597993e+000	 1.5382293994e+000	 1.3922099393e-001
 4.1069322299e+000	 1.5789577763e+000	 1.3711621224e-001
 4.0910685247e+000	 1.6196167221e+000	 1.3516775833e-001
 4.2541903900e+000	 1.2175751007e+000	 4.7510919175e-001
 4.2421585096e+000	 1.2588551067e+000	 2.7823357159e-001
 4.2296948641e+000	 1.3001178244e+000	 2.4342665151e-001
 4.2167981661e+000	 1.3413568602e+000	 2.1516443106e-001
 4.2034672478e+000	 1.3825657659e+000	 1.9263515461e-001
 4.1897010624e+000	 1.4237380405e+000	 1.7493572950e-001
 4.1754986866e+000	 1.4648671334e+000	 1.6107280976e-001
 4.1608593222e+000	 1.5059464469e+000	 1.4996411083e-001
 4.1457822982e+000	 1.5469693392e+000	 1.4043995663e-001
 4.1302670721e+000	 1.5879291273e+000	 1.3124505956e-001
 4.1143132322e+000	 1.6288190898e+000	 1.2104053350e-001
 4.2782253640e+000	 1.2244540561e+000	 4.5250745897e-001
 4.2661255068e+000	 1.2659672825e+000	 2.9379412643e-001
 4.2535914452e+000	 1.3074631228e+000	 2.5968636629e-001
 4.2406218846e+000	 1.3489351476e+000	 2.3119668022e-001
 4.2272156503e+000	 1.3903768719e+000	 2.0748520339e-001
 4.2133716899e+000	 1.4317817582e+000	 1.8762029528e-001
 4.1990890747e+000	 1.4731432189e+000	 1.7057967588e-001
 4.1843670020e+000	 1.5144546189e+000	 1.5525179591e-001
 4.1692047970e+000	 1.5557092789e+000	 1.4043744232e-001
 4.1536019143e+000	 1.5969004783e+000	 1.2485157966e-001
 4.1375579397e+000	 1.6380214576e+000	 1.0712542713e-001
 4.3022603379e+000	 1.2313330114e+000	 4.2629504820e-001
 4.2900925040e+000	 1.2730794582e+000	 3.0438566306e-001
 4.2774880264e+000	 1.3148084213e+000	 2.7141178874e-001
 4.2644456030e+000	 1.3565134349e+000	 2.4316873737e-001
 4.2509640528e+000	 1.3981879779e+000	 2.1878804195e-001
 4.2370423173e+000	 1.4398254760e+000	 1.9730897745e-001
 4.2226794627e+000	 1.4814193044e+000	 1.7767974968e-001
 4.2078746818e+000	 1.5229627909e+000	 1.5875892134e-001
 4.1926272959e+000	 1.5644492187e+000	 1.3931707631e-001
 4.1769367565e+000	 1.6058718293e+000	 1.1803872284e-001
 4.1608026473e+000	 1.6472238253e+000	 9.3524435253e-002
 4.3262953119e+000	 1.2382119668e+000	 3.9684912002e-001
 4.3140595013e+000	 1.2801916340e+000	 3.1010884270e-001
 4.3013846075e+000	 1.3221537197e+000	 2.7870480689e-001
 4.2882693215e+000	 1.3640917223e+000	 2.5118348330e-001
 4.2747124554e+000	 1.4059990840e+000	 2.2664730451e-001
 4.2607129448e+000	 1.4478691937e+000	 2.0410591898e-001
 4.2462698508e+000	 1.4896953899e+000	 1.8247743290e-001
 4.2313823616e+000	 1.5314709629e+000	 1.6058989232e-001
 4.2160497947e+000	 1.5731891585e+000	 1.3718300672e-001
 4.2002715988e+000	 1.6148431803e+000	 1.1091011433e-001
 4.1840473548e+000	 1.6564261930e+000	 8.0340389207e-002
 3.9516002795e+000	 1.5644025157e+000	 2.1878525478e-001
 3.9358558462e+000	 1.6036018077e+000	 2.2654445324e-001
 3.9196897364e+000	 1.6427210263e+000	 2.2665165517e-001
 3.9031019395e+000	 1.6817536235e+000	 2.1814934950e-001
 3.8860925758e+000	 1.7206930268e+000	 2.0002174952e-001
 3.8686618980e+000	 1.7595326423e+000	 1.7119719584e-001
 3.8508102920e+000	 1.7982658577e+000	 1.3055073902e-001
 3.8325382783e+000	 1.8368860459e+000	 7.6906898035e-002
 3.8138465125e+000	 1.8753865680e+000	 8.7535164957e-003
 3.7947357865e+000	 1.9137607768e+000	-9.8300906316e-002
 3.7752070290e+000	 1.9520020205e+000	-2.1121750415e-001
 3.9748449870e+000	 1.5736048834e+000	 2.0547734594e-001
 3.9590079395e+000	 1.6130347595e+000	 2.0976920065e-001
 3.9427467349e+000	 1.6523840911e+000	 2.0839234445e-001
 3.9260613627e+000	 1.6916462918e+000	 2.0031696869e-001
 3.9089519439e+000	 1.7308147505e+000	 1.8445172252e-001
 3.8914187326e+000	 1.7698828343e+000	 1.5964619144e-001
 3.8734621172e+000	 1.8088438922e+000	 1.2469356210e-001
 3.8550826211e+000	 1.8476912579e+000	 7.8333469269e-002
 3.8362809037e+000	 1.8864182537e+000	 1.1376893811e-002
 3.8170577617e+000	 1.9250181932e+000	-8.2200822047e-002
 3.7974141292e+000	 1.9634843853e+000	-1.8046470563e-001
 3.9980896946e+000	 1.5828072511e+000	 1.9178851650e-001
 3.9821600327e+000	 1.6224677113e+000	 1.9208572546e-001
 3.9658037333e+000	 1.6620471560e+000	 1.8869076865e-001
 3.9490207858e+000	 1.7015389602e+000	 1.8050106195e-001
 3.9318113120e+000	 1.7409364742e+000	 1.6634920221e-001
 3.9141755673e+000	 1.7802330263e+000	 1.4500552225e-001
 3.8961139425e+000	 1.8194219267e+000	 1.1518083873e-001
 3.8776269639e+000	 1.8584964700e+000	 7.5529388518e-002
 3.8587152950e+000	 1.8974499394e+000	 1.0334508513e-002
 3.8393797369e+000	 1.9362756095e+000	-7.0663484537e-002
 3.8196212294e+000	 1.9749667502e+000	-1.5518509451e-001
 4.0213344021e+000	 1.5920096189e+000	 1.7781521954e-001
 4.0053121259e+000	 1.6319006631e+000	 1.7361079694e-001
 3.9888607318e+000	 1.6717102208e+000	 1.6768440362e-001
 3.9719802090e+000	 1.7114316286e+000	 1.5886019109e-001
 3.9546706801e+000	 1.7510581979e+000	 1.4589420427e-001
 3.9369324020e+000	 1.7905832183e+000	 1.2747701394e-001
 3.9187657677e+000	 1.8299999611e+000	 1.0223654847e-001
 3.9001713067e+000	 1.8693016820e+000	 6.8741120590e-002
 3.8811496862e+000	 1.9084816251e+000	 5.7094368306e-003
 3.8617017121e+000	 1.9475330258e+000	-6.3588671264e-002
 3.8418283295e+000	 1.9864491150e+000	-1.3526101463e-001
 4.0445791096e+000	 1.6012119866e+000	 1.6365489968e-001
 4.0284642191e+000	 1.6413336149e+000	 1.5446185478e-001
 4.0119177302e+000	 1.6813732857e+000	 1.4551106739e-001
 3.9949396322e+000	 1.7213242970e+000	 1.3555292480e-001
 3.9775300482e+000	 1.7611799216e+000	 1.2326640908e-001
 3.9596892367e+000	 1.8009334104e+000	 1.0726180786e-001
 3.9414175930e+000	 1.8405779956e+000	 8.6083630861e-002
 3.9227156495e+000	 1.8801068940e+000	 5.4912083042e-002
 3.9035840775e+000	 1.9195133107e+000	-2.4170159763e-003
 3.8840236873e+000	 1.9587904422e+000	-6.0878305635e-002
 3.8640354297e+000	 1.9979314798e+000	-1.2057733690e-001
 4.0678238172e+000	 1.6104143544e+000	 1.4940596473e-001
 4.0516163123e+000	 1.6507665667e+000	 1.3475698995e-001
 4.0349747287e+000	 1.6910363506e+000	 1.2230891040e-001
 4.0178990554e+000	 1.7312169653e+000	 1.1073783845e-001
 4.0003894163e+000	 1.7713016452e+000	 9.8645171252e-002
 3.9824460714e+000	 1.8112836024e+000	 8.4560380557e-002
 3.9640694182e+000	 1.8511560300e+000	 6.6944015110e-002
 3.9452599923e+000	 1.8909121061e+000	 3.4548470775e-002
 3.9260184687e+000	 1.9305449964e+000	-1.3965265016e-002
 3.9063456625e+000	 1.9700478585e+000	-6.2436395683e-002
 3.8862425299e+000	 2.0094138446e+000	-1.1102138706e-001
 4.0910685247e+000	 1.6196167221e+000	 1.3516775833e-001
 4.0747684055e+000	 1.6601995186e+000	 1.1461492614e-001
 4.0580317271e+000	 1.7006994154e+000	 9.8216405993e-002
 4.0408584785e+000	 1.7411096337e+000	 8.4573513933e-002
 4.0232487843e+000	 1.7814233689e+000	 7.2209528910e-002
 4.0052029061e+000	 1.8216337944e+000	 5.9572562671e-002
 3.9867212435e+000	 1.8617340645e+000	 4.5038648817e-002
 3.9678043352e+000	 1.9017173181e+000	 1.1659039686e-002
 3.9484528600e+000	 1.9415766821e+000	-2.8857396894e-002
 3.9286676378e+000	 1.9813052748e+000	-6.8168974838e-002
 3.9084496300e+000	 2.0208962095e+000	-1.0648287594e-001
 4.1143132322e+000	 1.6288190898e+000	 1.2104053350e-001
 4.0979204987e+000	 1.6696324704e+000	 9.4155001964e-002
 4.0810887256e+000	 1.7103624803e+000	 7.3372341371e-002
 4.0638179017e+000	 1.7510023021e+000	 5.7218539422e-002
 4.0461081524e+000	 1.7915450926e+000	 4.4138212637e-002
 4.0279597408e+000	 1.8319839864e+000	 3.2497557205e-002
 4.0093730687e+000	 1.8723120989e+000	 2.0587525688e-002
 3.9903486780e+000	 1.9125225301e+000	-1.3695359952e-002
 3.9708872512e+000	 1.9526083678e+000	-4.7017122490e-002
 3.9509896130e+000	 1.9925626912e+000	-7.7984044716e-002
 3.9306567302e+000	 2.0323785743e+000	-1.0685383213e-001
 4.1375579397e+000	 1.6380214576e+000	 1.0712542713e-001
 4.1210725920e+000	 1.6790654222e+000	 7.3497153615e-002
 4.1041457241e+000	 1.7200255451e+000	 4.7915808729e-002
 4.0867773249e+000	 1.7608949704e+000	 2.8831509241e-002
 4.0689675205e+000	 1.8016668163e+000	 1.4609654100e-002
 4.0507165755e+000	 1.8423341784e+000	 3.5339571321e-003
 4.0320248940e+000	 1.8828901334e+000	-1.0757671188e-002
 4.0128930208e+000	 1.9233277422e+000	-4.1455127876e-002
 3.9933216425e+000	 1.9636400535e+000	-6.8369731338e-002
 3.9733115882e+000	 2.0038201075e+000	-9.1791519830e-002
 3.9528638304e+000	 2.0438609391e+000	-1.1202853682e-001
 4.1608026473e+000	 1.6472238253e+000	 9.3524435253e-002
 4.1442246852e+000	 1.6884983740e+000	 5.2761898221e-002
 4.1272027225e+000	 1.7296886100e+000	 2.1986196752e-002
 4.1097367481e+000	 1.7707876388e+000	-4.2897632732e-004
 4.0918268886e+000	 1.8117885400e+000	-1.6198005591e-002
 4.0734734102e+000	 1.8526843704e+000	-2.7120237557e-002
 4.0546767192e+000	 1.8934681678e+000	-4.5324253112e-002
 4.0354373636e+000	 1.9341329542e+000	-7.1561878916e-002
 4.0157560337e+000	 1.9746717392e+000	-9.2842047527e-002
 3.9956335634e+000	 2.0150775238e+000	-1.0950317416e-001
 3.9750709306e+000	 2.0553433039e+000	-1.2190346090e-001
 4.1840473548e+000	 1.6564261930e+000	 8.0340389207e-002
 4.1673767784e+000	 1.6979313258e+000	 3.2070317688e-002
 4.1502597210e+000	 1.7393516748e+000	-4.2768176198e-003
 4.1326961712e+000	 1.7806803072e+000	-3.0404311200e-002
 4.1146862567e+000	 1.8219102636e+000	-4.8106907821e-002
 4.0962302449e+000	 1.8630345624e+000	-5.9267603382e-002
 4.0773285445e+000	 1.9040462023e+000	-8.1434030941e-002
 4.0579817064e+000	 1.9449381662e+000	-1.0395840924e-001
 4.0381904250e+000	 1.9857034249e+000	-1.2036238707e-001
 4.0179555386e+000	 2.0263349401e+000	-1.3103258950e-001
 3.9972780307e+000	 2.0668256687e+000	-1.3637720413e-001
 3.7752070290e+000	 1.9520020205e+000	-2.1121750415e-001
 3.7552613065e+000	 1.9901036456e+000	-2.9773579515e-001
 3.7348998232e+000	 2.0280590008e+000	-2.8246928929e-001
 3.7141239222e+000	 2.0658614403e+000	-2.3915380241e-001
 3.6929350853e+000	 2.1035043275e+000	-2.0718744951e-001
 3.6713349334e+000	 2.1409810384e+000	-1.8718683030e-001
 3.6493252266e+000	 2.1782849654e+000	-1.7975223785e-001
 3.6269078643e+000	 2.2154095206e+000	-1.8546577152e-001
 3.6040848849e+000	 2.2523481398e+000	-2.0488947318e-001
 3.5808584657e+000	 2.2890942857e+000	-2.3856349213e-001
 3.5572309227e+000	 2.3256414519e+000	-2.8700428413e-001
 3.7974141292e+000	 1.9634843853e+000	-1.8046470563e-001
 3.7773510788e+000	 2.0018101376e+000	-2.5918089520e-001
 3.7568698222e+000	 2.0399887596e+000	-3.4501921624e-001
 3.7359717100e+000	 2.0780135664e+000	-3.3859639471e-001
 3.7146582329e+000	 2.1158778823e+000	-2.9366983424e-001
 3.6929310213e+000	 2.1535750445e+000	-2.6074611211e-001
 3.6707918456e+000	 2.1910984063e+000	-2.4042394782e-001
 3.6482426164e+000	 2.2284413413e+000	-2.3328350320e-001
 3.6252853842e+000	 2.2655972465e+000	-2.3988449881e-001
 3.6019223390e+000	 2.3025595462e+000	-2.6076435956e-001
 3.5781558105e+000	 2.3393216957e+000	-2.9643639542e-001
 3.8196212294e+000	 1.9749667502e+000	-1.5518509451e-001
 3.7994408512e+000	 2.0135166297e+000	-2.2562075136e-001
 3.7788398211e+000	 2.0519185184e+000	-3.0304152195e-001
 3.7578194978e+000	 2.0901656925e+000	-3.8777145570e-001
 3.7363813804e+000	 2.1282514372e+000	-3.8506980794e-001
 3.7145271091e+000	 2.1661690506e+000	-3.3857486549e-001
 3.6922584646e+000	 2.2039118473e+000	-3.0472610894e-001
 3.6695773686e+000	 2.2414731620e+000	-2.8410235118e-001
 3.6464858835e+000	 2.2788463532e+000	-2.7726157169e-001
 3.6229862123e+000	 2.3160248067e+000	-2.8473904223e-001
 3.5990806982e+000	 2.3530019396e+000	-3.0704548817e-001
 3.8418283295e+000	 1.9864491150e+000	-1.3526101463e-001
 3.8215306236e+000	 2.0252231217e+000	-1.9694430774e-001
 3.8008098201e+000	 2.0638482773e+000	-2.6547555138e-001
 3.7796672856e+000	 2.1023178186e+000	-3.4116645576e-001
 3.7581045280e+000	 2.1406249920e+000	-4.2433347700e-001
 3.7361231969e+000	 2.1787630567e+000	-4.2039929494e-001
 3.7137250836e+000	 2.2167252883e+000	-3.7238913094e-001
 3.6909121207e+000	 2.2545049827e+000	-3.3765696932e-001
 3.6676863828e+000	 2.2920954599e+000	-3.1675962843e-001
 3.6440500857e+000	 2.3294900672e+000	-3.1023079750e-001
 3.6200055860e+000	 2.3666821834e+000	-3.1857917801e-001
 3.8640354297e+000	 1.9979314798e+000	-1.2057733690e-001
 3.8436203960e+000	 2.0369296137e+000	-1.7304286367e-001
 3.8227798190e+000	 2.0757780361e+000	-2.3221898750e-001
 3.8015150733e+000	 2.1144699447e+000	-2.9840542578e-001
 3.7798276756e+000	 2.1529985469e+000	-3.7190685260e-001
 3.7577192848e+000	 2.1913570628e+000	-4.5303218737e-001
 3.7351917025e+000	 2.2295387292e+000	-4.4314493070e-001
 3.7122468729e+000	 2.2675368034e+000	-3.9368335190e-001
 3.6888868821e+000	 2.3053445666e+000	-3.5811878028e-001
 3.6651139590e+000	 2.3429553277e+000	-3.3698389293e-001
 3.6409304738e+000	 2.3803624272e+000	-3.3078592759e-001
 3.8862425299e+000	 2.0094138446e+000	-1.1102138706e-001
 3.8657101684e+000	 2.0486361058e+000	-1.5381000638e-001
 3.8447498180e+000	 2.0877077949e+000	-2.0317163492e-001
 3.8233628611e+000	 2.1266220709e+000	-2.5939434122e-001
 3.8015508231e+000	 2.1653721018e+000	-3.2277136577e-001
 3.7793153726e+000	 2.2039510689e+000	-3.9360041711e-001
 3.7566583215e+000	 2.2423521702e+000	-4.7218294065e-001
 3.7335816250e+000	 2.2805686241e+000	-4.5191879525e-001
 3.7100873815e+000	 2.3185936733e+000	-4.0108027969e-001
 3.6861778323e+000	 2.3564205882e+000	-3.6474357746e-001
 3.6618553616e+000	 2.3940426711e+000	-3.4341502243e-001
 3.9084496300e+000	 2.0208962095e+000	-1.0648287594e-001
 3.8877999408e+000	 2.0603425978e+000	-1.3914154605e-001
 3.8667198170e+000	 2.0996375537e+000	-1.7823535956e-001
 3.8452106489e+000	 2.1387741970e+000	-2.2404107795e-001
 3.8232739707e+000	 2.1777456566e+000	-2.7684085424e-001
 3.8009114605e+000	 2.2165450750e+000	-3.3692153634e-001
 3.7781249405e+000	 2.2551656112e+000	-4.0457394259e-001
 3.7549163771e+000	 2.2936004448e+000	-4.8009211094e-001
 3.7312878808e+000	 2.3318427800e+000	-4.4538648778e-001
 3.7072417056e+000	 2.3698858487e+000	-3.9325605351e-001
 3.6827802494e+000	 2.4077229149e+000	-3.5621654755e-001
 3.9306567302e+000	 2.0323785743e+000	-1.0685383213e-001
 3.9098897132e+000	 2.0720490898e+000	-1.2893545298e-001
 3.8886898159e+000	 2.1115673126e+000	-1.5731403048e-001
 3.8670584367e+000	 2.1509263231e+000	-1.9225535860e-001
 3.8449971182e+000	 2.1901192115e+000	-2.3403084688e-001
 3.8225075483e+000	 2.2291390811e+000	-2.8291683067e-001
 3.7995915595e+000	 2.2679790521e+000	-3.3919385298e-001
 3.7762511293e+000	 2.3066322655e+000	-4.0314591961e-001
 3.7524883801e+000	 2.3450918867e+000	-4.7505972898e-001
 3.7283055790e+000	 2.3833511092e+000	-4.2226845006e-001
 3.7037051371e+000	 2.4214031587e+000	-3.6894136485e-001
 3.9528638304e+000	 2.0438609391e+000	-1.1202853682e-001
 3.9319794856e+000	 2.0837555818e+000	-1.2309179692e-001
 3.9106598149e+000	 2.1234970714e+000	-1.4031346357e-001
 3.8889062245e+000	 2.1630784492e+000	-1.6394870065e-001
 3.8667202658e+000	 2.2024927664e+000	-1.9425851616e-001
 3.8441036362e+000	 2.2417330872e+000	-2.3150907884e-001
 3.8210581785e+000	 2.2807924931e+000	-2.7597100611e-001
 3.7975858814e+000	 2.3196640863e+000	-3.2791862464e-001
 3.7736888794e+000	 2.3583409934e+000	-3.8762920519e-001
 3.7493694523e+000	 2.3968163697e+000	-4.5152879664e-001
 3.7246300249e+000	 2.4350834026e+000	-3.8134109129e-001
 3.9750709306e+000	 2.0553433039e+000	-1.2190346090e-001
 3.9540692580e+000	 2.0954620739e+000	-1.2151268843e-001
 3.9326298139e+000	 2.1354268302e+000	-1.2714136719e-001
 3.9107540122e+000	 2.1752305753e+000	-1.3903436636e-001
 3.8884434134e+000	 2.2148663212e+000	-1.5744263224e-001
 3.8656997240e+000	 2.2543270933e+000	-1.8262251101e-001
 3.8425247975e+000	 2.2936059341e+000	-2.1483504222e-001
 3.8189206336e+000	 2.3326959070e+000	-2.5434522452e-001
 3.7948893788e+000	 2.3715901001e+000	-3.0142125505e-001
 3.7704333256e+000	 2.4102816302e+000	-3.5633374447e-001
 3.7455549127e+000	 2.4487636464e+000	-3.9316807782e-001
 3.9972780307e+000	 2.0668256687e+000	-1.3637720413e-001
 3.9761590304e+000	 2.1071685659e+000	-1.2410222219e-001
 3.9545998128e+000	 2.1473565890e+000	-1.1770728958e-001
 3.9326018000e+000	 2.1873827014e+000	-1.1742731421e-001
 3.9101665609e+000	 2.2272398761e+000	-1.2350351861e-001
 3.8872958119e+000	 2.2669210994e+000	-1.3618276845e-001
 3.8639914164e+000	 2.3064193751e+000	-1.5571687129e-001
 3.8402553857e+000	 2.3457277277e+000	-1.8236184694e-001
 3.8160898781e+000	 2.3848392068e+000	-2.1637717117e-001
 3.7914971990e+000	 2.4237468907e+000	-2.5802499434e-001
 3.7664798005e+000	 2.4624438902e+000	-3.0756933683e-001
 3.5572309227e+000	 2.3256414519e+000	-2.8700428413e-001
 3.5332047099e+000	 2.3619831663e+000	-3.0221447619e-001
 3.5087824190e+000	 2.3981129948e+000	-3.1159767363e-001
 3.4839667785e+000	 2.4340245451e+000	-3.1570932345e-001
 3.4587606532e+000	 2.4697114697e+000	-3.1509574177e-001
 3.4331670430e+000	 2.5051674705e+000	-3.2488091283e-001
 3.4071890820e+000	 2.5403863013e+000	-4.1146210296e-001
 3.3808300376e+000	 2.5753617721e+000	-4.8605002369e-001
 3.3540933089e+000	 2.6100877523e+000	-5.4841469754e-001
 3.3269824258e+000	 2.6445581744e+000	-5.9832501216e-001
 3.2995010472e+000	 2.6787670372e+000	-6.3554968481e-001
 3.5781558105e+000	 2.3393216957e+000	-2.9643639542e-001
 3.5539882670e+000	 2.3758771849e+000	-3.0264567287e-001
 3.5294223156e+000	 2.4122195419e+000	-3.0466188349e-001
 3.5044607008e+000	 2.4483423365e+000	-3.0305179413e-001
 3.4791063041e+000	 2.4842391843e+000	-2.9837116906e-001
 3.4533621432e+000	 2.5199037497e+000	-3.4496896582e-001
 3.4272313707e+000	 2.5553297501e+000	-4.2551411963e-001
 3.4007172731e+000	 2.5905109590e+000	-4.9555996066e-001
 3.3738232696e+000	 2.6254412097e+000	-5.5485385709e-001
 3.3465529107e+000	 2.6601143990e+000	-6.0314053809e-001
 3.3189098769e+000	 2.6945244904e+000	-6.4016309116e-001
 3.5990806982e+000	 2.3530019396e+000	-3.0704548817e-001
 3.5747718241e+000	 2.3897712035e+000	-3.0388717514e-001
 3.5500622122e+000	 2.4263260889e+000	-2.9816373440e-001
 3.5249546230e+000	 2.4626601279e+000	-2.9045362939e-001
 3.4994519550e+000	 2.4987668988e+000	-2.8132244718e-001
 3.4735572435e+000	 2.5346400289e+000	-3.6099977667e-001
 3.4472736594e+000	 2.5702731989e+000	-4.3524762795e-001
 3.4206045086e+000	 2.6056601459e+000	-5.0047870128e-001
 3.3935532302e+000	 2.6407946671e+000	-5.5641759831e-001
 3.3661233956e+000	 2.6756706236e+000	-6.0278478325e-001
 3.3383187065e+000	 2.7102819435e+000	-6.3929761331e-001
 3.6200055860e+000	 2.3666821834e+000	-3.1857917801e-001
 3.5955553812e+000	 2.4036652222e+000	-3.0568720982e-001
 3.5707021087e+000	 2.4404326359e+000	-2.9185242106e-001
 3.5454485452e+000	 2.4769779194e+000	-2.7766535030e-001
 3.5197976059e+000	 2.5132946133e+000	-2.9801669211e-001
 3.4937523437e+000	 2.5493763082e+000	-3.7296566788e-001
 3.4673159481e+000	 2.5852166478e+000	-4.4066085138e-001
 3.4404917441e+000	 2.6208093328e+000	-5.0081063176e-001
 3.4132831908e+000	 2.6561481244e+000	-5.5311672822e-001
 3.3856938804e+000	 2.6912268481e+000	-5.9727522963e-001
 3.3577275362e+000	 2.7260393967e+000	-6.3297765844e-001
 3.6409304738e+000	 2.3803624272e+000	-3.3078592759e-001
 3.6163389384e+000	 2.4175592408e+000	-3.0779477599e-001
 3.5913420053e+000	 2.4545391829e+000	-2.8547782969e-001
 3.5659424674e+000	 2.4912957108e+000	-2.6443808285e-001
 3.5401432568e+000	 2.5278223278e+000	-3.1419459018e-001
 3.5139474440e+000	 2.5641125874e+000	-3.8085937603e-001
 3.4873582368e+000	 2.6001600966e+000	-4.4175232340e-001
 3.4603789796e+000	 2.6359585197e+000	-4.9656033842e-001
 3.4330131515e+000	 2.6715015818e+000	-5.4496213829e-001
 3.4052643653e+000	 2.7067830727e+000	-5.8662932242e-001
 3.3771363659e+000	 2.7417968498e+000	-6.2122747002e-001
 3.6618553616e+000	 2.3940426711e+000	-3.4341502243e-001
 3.6371224955e+000	 2.4314532594e+000	-3.0995962290e-001
 3.6119819019e+000	 2.4686457300e+000	-2.7879051827e-001
 3.5864363897e+000	 2.5056135023e+000	-2.6440306231e-001
 3.5604889077e+000	 2.5423500424e+000	-3.2652679097e-001
 3.5341425442e+000	 2.5788488667e+000	-3.8467403999e-001
 3.5074005255e+000	 2.6151035454e+000	-4.3852087860e-001
 3.4802662151e+000	 2.6511077066e+000	-4.8773260192e-001
 3.4527431121e+000	 2.6868550392e+000	-5.3196480207e-001
 3.4248348501e+000	 2.7223392972e+000	-5.7086447104e-001
 3.3965451956e+000	 2.7575543030e+000	-6.0407113242e-001
 3.6827802494e+000	 2.4077229149e+000	-3.5621654755e-001
 3.6579060526e+000	 2.4453472780e+000	-3.1193222867e-001
 3.6326217985e+000	 2.4827522770e+000	-2.7154169746e-001
 3.6069303119e+000	 2.5199312937e+000	-2.8310463466e-001
 3.5808345586e+000	 2.5568777569e+000	-3.3500147500e-001
 3.5543376445e+000	 2.5935851459e+000	-3.8440318948e-001
 3.5274428143e+000	 2.6300469942e+000	-4.3096564416e-001
 3.5001534506e+000	 2.6662568934e+000	-4.7433239182e-001
 3.4724730728e+000	 2.7022084965e+000	-5.1413577284e-001
 3.4444053350e+000	 2.7378955218e+000	-5.4999805018e-001
 3.4159540253e+000	 2.7733117562e+000	-5.8153257547e-001
 3.7037051371e+000	 2.4214031587e+000	-3.6894136485e-001
 3.6786896097e+000	 2.4592412967e+000	-3.1346377970e-001
 3.6532616951e+000	 2.4968588240e+000	-2.6348321215e-001
 3.6274242341e+000	 2.5342490851e+000	-2.9815018384e-001
 3.6011802095e+000	 2.5714054714e+000	-3.3960729279e-001
 3.5745327447e+000	 2.6083214251e+000	-3.8004073403e-001
 3.5474851030e+000	 2.6449904431e+000	-4.1908603156e-001
 3.5200406862e+000	 2.6814060803e+000	-4.5636486118e-001
 3.4922030334e+000	 2.7175619539e+000	-4.9148618137e-001
 3.4639758198e+000	 2.7534517463e+000	-5.2404740072e-001
 3.4353628550e+000	 2.7890692093e+000	-5.5363557880e-001
 3.7246300249e+000	 2.4350834026e+000	-3.8134109129e-001
 3.6994731668e+000	 2.4731353153e+000	-3.1430615077e-001
 3.6739015917e+000	 2.5109653711e+000	-2.7952101885e-001
 3.6479181564e+000	 2.5485668766e+000	-3.0952388671e-001
 3.6215258604e+000	 2.5859331860e+000	-3.4033335165e-001
 3.5947278450e+000	 2.6230577044e+000	-3.7158095229e-001
 3.5675273917e+000	 2.6599338919e+000	-4.0288172861e-001
 3.5399279217e+000	 2.6965552672e+000	-4.3383534144e-001
 3.5119329941e+000	 2.7329154113e+000	-4.6402723374e-001
 3.4835463047e+000	 2.7690079709e+000	-4.9302983078e-001
 3.4547716847e+000	 2.8048266625e+000	-5.2040377607e-001
 3.7455549127e+000	 2.4487636464e+000	-3.9316807782e-001
 3.7202567240e+000	 2.4870293339e+000	-3.1421188582e-001
 3.6945414883e+000	 2.5250719181e+000	-2.9952974086e-001
 3.6684120786e+000	 2.5628846680e+000	-3.1721044427e-001
 3.6418715113e+000	 2.6004609005e+000	-3.3716920290e-001
 3.6149229452e+000	 2.6377939836e+000	-3.5901848175e-001
 3.5875696804e+000	 2.6748773408e+000	-3.8235269172e-001
 3.5598151572e+000	 2.7117044541e+000	-4.0674933743e-001
 3.5316629547e+000	 2.7482688687e+000	-4.3177020922e-001
 3.5031167896e+000	 2.7845641955e+000	-4.5696261652e-001
 3.4741805144e+000	 2.8205841157e+000	-4.8186065907e-001
 3.7664798005e+000	 2.4624438902e+000	-3.0756933683e-001
 3.7410402811e+000	 2.5009233526e+000	-3.1498300004e-001
 3.7151813848e+000	 2.5391784651e+000	-3.1602578161e-001
 3.6889060008e+000	 2.5772024595e+000	-3.2119506712e-001
 3.6622171622e+000	 2.6149886150e+000	-3.3010482953e-001
 3.6351180455e+000	 2.6525302629e+000	-3.4234830876e-001
 3.6076119692e+000	 2.6898207896e+000	-3.5749913845e-001
 3.5797023927e+000	 2.7268536410e+000	-3.7511252253e-001
 3.5513929153e+000	 2.7636223260e+000	-3.9472645828e-001
 3.5226872744e+000	 2.8001204200e+000	-4.1586300311e-001
 3.4935893441e+000	 2.8363415688e+000	-4.3802958161e-001
 3.2995010472e+000	 2.6787670372e+000	-6.3554968481e-001
 3.2716529593e+000	 2.7127084092e+000	-6.2701530145e-001
 3.2434420746e+000	 2.7463764324e+000	-6.1239432419e-001
 3.2148724293e+000	 2.7797653252e+000	-5.9154976481e-001
 3.1859481822e+000	 2.8128693856e+000	-5.6434172034e-001
 3.1566736119e+000	 2.8456829949e+000	-5.3062827782e-001
 3.1270531156e+000	 2.8782006205e+000	-4.9026642796e-001
 3.0970912062e+000	 2.9104168190e+000	-5.6048232675e-001
 3.0667925103e+000	 2.9423262393e+000	-6.1139470507e-001
 3.0361617660e+000	 2.9739236255e+000	-6.3522488248e-001
 3.0052038200e+000	 3.0052038200e+000	-6.3367887067e-001
 3.3189098769e+000	 2.6945244904e+000	-6.4016309116e-001
 3.2908979767e+000	 2.7286655175e+000	-6.3403750278e-001
 3.2625211456e+000	 2.7625315879e+000	-6.2266959904e-001
 3.2337834436e+000	 2.7961168859e+000	-6.0588974330e-001
 3.2046890538e+000	 2.8294156761e+000	-5.8352453766e-001
 3.1752422802e+000	 2.8624223067e+000	-5.5539777473e-001
 3.1454475457e+000	 2.8951312124e+000	-5.2133139952e-001
 3.1153093898e+000	 2.9275369179e+000	-5.1975607975e-001
 3.0848324663e+000	 2.9596340407e+000	-5.7948871933e-001
 3.0540215411e+000	 2.9914172939e+000	-6.1250640924e-001
 3.0228814896e+000	 3.0228814896e+000	-6.2052229826e-001
 3.3383187065e+000	 2.7102819435e+000	-6.3929761331e-001
 3.3101429941e+000	 2.7446226258e+000	-6.3521119928e-001
 3.2816002166e+000	 2.7786867434e+000	-6.2672086811e-001
 3.2526944579e+000	 2.8124684466e+000	-6.1362428369e-001
 3.2234299255e+000	 2.8459619666e+000	-5.9571450557e-001
 3.1938109485e+000	 2.8791616184e+000	-5.7278098790e-001
 3.1638419758e+000	 2.9120618043e+000	-5.4461058991e-001
 3.1335275733e+000	 2.9446570169e+000	-5.1098859483e-001
 3.1028724222e+000	 2.9769418421e+000	-5.4680204266e-001
 3.0718813162e+000	 3.0089109623e+000	-5.8838208592e-001
 3.0405591591e+000	 3.0405591591e+000	-6.0533303841e-001
 3.3577275362e+000	 2.7260393967e+000	-6.3297765844e-001
 3.3293880115e+000	 2.7605797341e+000	-6.3056883953e-001
 3.3006792877e+000	 2.7948418989e+000	-6.2458875820e-001
 3.2716054722e+000	 2.8288200074e+000	-6.1480232279e-001
 3.2421707971e+000	 2.8625082571e+000	-6.0096899748e-001
 3.2123796169e+000	 2.8959009301e+000	-5.8284384874e-001
 3.1822364059e+000	 2.9289923962e+000	-5.6017860456e-001
 3.1517457569e+000	 2.9617771158e+000	-5.3272272324e-001
 3.1209123782e+000	 2.9942496435e+000	-5.1324732503e-001
 3.0897410913e+000	 3.0264046307e+000	-5.6276983817e-001
 3.0582368286e+000	 3.0582368286e+000	-5.8803448140e-001
 3.3771363659e+000	 2.7417968498e+000	-6.2122747002e-001
 3.3486330290e+000	 2.7765368424e+000	-6.2014255587e-001
 3.3197583587e+000	 2.8109970544e+000	-6.1631342422e-001
 3.2905164865e+000	 2.8451715681e+000	-6.0947216680e-001
 3.2609116688e+000	 2.8790545476e+000	-5.9934459452e-001
 3.2309482852e+000	 2.9126402419e+000	-5.8565133177e-001
 3.2006308360e+000	 2.9459229881e+000	-5.6810892462e-001
 3.1699639405e+000	 2.9788972147e+000	-5.4643095971e-001
 3.1389523341e+000	 3.0115574449e+000	-5.2032919059e-001
 3.1076008664e+000	 3.0438982991e+000	-5.3558594900e-001
 3.0759144982e+000	 3.0759144982e+000	-5.6854819700e-001
 3.3965451956e+000	 2.7575543030e+000	-6.0407113242e-001
 3.3678780464e+000	 2.7924939507e+000	-6.0396417337e-001
 3.3388374297e+000	 2.8271522099e+000	-6.0193456263e-001
 3.3094275008e+000	 2.8615231289e+000	-5.9768150931e-001
 3.2796525405e+000	 2.8956008381e+000	-5.9089710818e-001
 3.2495169535e+000	 2.9293795536e+000	-5.8126748203e-001
 3.2190252661e+000	 2.9628535800e+000	-5.6847393913e-001
 3.1881821241e+000	 2.9960173137e+000	-5.5219414249e-001
 3.1569922901e+000	 3.0288652463e+000	-5.3210328762e-001
 3.1254606415e+000	 3.0613919675e+000	-5.0787528528e-001
 3.0935921677e+000	 3.0935921677e+000	-5.4679398652e-001
 3.4159540253e+000	 2.7733117562e+000	-5.8153257547e-001
 3.3871230638e+000	 2.8084510590e+000	-5.8206521860e-001
 3.3579165007e+000	 2.8433073654e+000	-5.8149142448e-001
 3.3283385151e+000	 2.8778746896e+000	-5.7947744873e-001
 3.2983934121e+000	 2.9121471286e+000	-5.7568160216e-001
 3.2680856218e+000	 2.9461188654e+000	-5.6975544142e-001
 3.2374196962e+000	 2.9797841718e+000	-5.6134497598e-001
 3.2064003076e+000	 3.0131374126e+000	-5.5009188812e-001
 3.1750322460e+000	 3.0461730477e+000	-5.3563476221e-001
 3.1433204166e+000	 3.0788856359e+000	-5.1761032010e-001
 3.1112698372e+000	 3.1112698372e+000	-5.2268993298e-001
 3.4353628550e+000	 2.7890692093e+000	-5.5363557880e-001
 3.4063680812e+000	 2.8244081673e+000	-5.5447692806e-001
 3.3769955718e+000	 2.8594625209e+000	-5.5502282798e-001
 3.3472495294e+000	 2.8942262503e+000	-5.5490650508e-001
 3.3171342838e+000	 2.9286934191e+000	-5.5375241351e-001
 3.2866542901e+000	 2.9628581771e+000	-5.5117747424e-001
 3.2558141263e+000	 2.9967147637e+000	-5.4679233199e-001
 3.2246184912e+000	 3.0302575116e+000	-5.4020262597e-001
 3.1930722020e+000	 3.0634808491e+000	-5.3101027124e-001
 3.1611801917e+000	 3.0963793042e+000	-5.1881474678e-001
 3.1289475068e+000	 3.1289475068e+000	-5.0707552189e-001
 3.4547716847e+000	 2.8048266625e+000	-5.2040377607e-001
 3.4256130986e+000	 2.8403652756e+000	-5.2123025630e-001
 3.3960746428e+000	 2.8756176763e+000	-5.2256717067e-001
 3.3661605437e+000	 2.9105778111e+000	-5.2401463627e-001
 3.3358751555e+000	 2.9452397096e+000	-5.2516317301e-001
 3.3052229584e+000	 2.9795974888e+000	-5.2559499186e-001
 3.2742085564e+000	 3.0136453556e+000	-5.2488530174e-001
 3.2428366748e+000	 3.0473776105e+000	-5.2260363157e-001
 3.2111121579e+000	 3.0807886506e+000	-5.1831516370e-001
 3.1790399668e+000	 3.1138729726e+000	-5.1158207515e-001
 3.1466251763e+000	 3.1466251763e+000	-5.2226051228e-001
 3.4741805144e+000	 2.8205841157e+000	-4.8186065907e-001
 3.4448581160e+000	 2.8563223839e+000	-4.8235588383e-001
 3.4151537138e+000	 2.8917728318e+000	-4.8416244119e-001
 3.3850715580e+000	 2.9269293718e+000	-4.8684725374e-001
 3.3546160271e+000	 2.9617860002e+000	-4.8996682493e-001
 3.3237916267e+000	 2.9963368006e+000	-4.9306857650e-001
 3.2926029865e+000	 3.0305759475e+000	-4.9569220569e-001
 3.2610548583e+000	 3.0644977094e+000	-4.9737105883e-001
 3.2291521139e+000	 3.0980964520e+000	-4.9763351723e-001
 3.1968997419e+000	 3.1313666410e+000	-5.0120535738e-001
 3.1643028458e+000	 3.1643028458e+000	-5.2739234497e-001
 3.4935893441e+000	 2.8363415688e+000	-4.3802958161e-001
 3.4641031334e+000	 2.8722794922e+000	-4.3788422471e-001
 3.4342327849e+000	 2.9079279873e+000	-4.3984623059e-001
 3.4039825722e+000	 2.9432809326e+000	-4.4344923770e-001
 3.3733568988e+000	 2.9783322907e+000	-4.4821564611e-001
 3.3423602950e+000	 3.0130761123e+000	-4.5365800430e-001
 3.3109974166e+000	 3.0475065394e+000	-4.5928041716e-001
 3.2792730419e+000	 3.0816178084e+000	-4.6457997123e-001
 3.2471920698e+000	 3.1154042534e+000	-4.6904817344e-001
 3.2147595170e+000	 3.1488603094e+000	-4.9080799476e-001
 3.1819805154e+000	 3.1819805154e+000	-5.2264525061e-001
 3.0052038200e+000	 3.0052038200e+000	-6.3367887067e-001
 2.9739236255e+000	 3.0361617660e+000	-6.5321274187e-001
 2.9423262393e+000	 3.0667925103e+000	-6.5834703505e-001
 2.9104168190e+000	 3.0970912062e+000	-6.5026499703e-001
 2.8782006205e+000	 3.1270531156e+000	-6.3319946156e-001
 2.8456829949e+000	 3.1566736119e+000	-6.4783944682e-001
 2.8128693856e+000	 3.1859481822e+000	-6.5467302982e-001
 2.7797653252e+000	 3.2148724293e+000	-6.5430916976e-001
 2.7463764324e+000	 3.2434420746e+000	-6.4733606163e-001
 2.7127084092e+000	 3.2716529593e+000	-6.3432008963e-001
 2.6787670372e+000	 3.2995010472e+000	-6.1580485780e-001
 3.0228814896e+000	 3.0228814896e+000	-6.2052229826e-001
 2.9914172939e+000	 3.0540215411e+000	-6.4046080565e-001
 2.9596340407e+000	 3.0848324663e+000	-6.4505411378e-001
 2.9275369179e+000	 3.1153093898e+000	-6.3554373300e-001
 2.8951312124e+000	 3.1454475457e+000	-6.4305407799e-001
 2.8624223067e+000	 3.1752422802e+000	-6.5505562375e-001
 2.8294156761e+000	 3.2046890538e+000	-6.5858482901e-001
 2.7961168859e+000	 3.2337834436e+000	-6.5429732081e-001
 2.7625315879e+000	 3.2625211456e+000	-6.4282789045e-001
 2.7286655175e+000	 3.2908979767e+000	-6.2478938942e-001
 2.6945244904e+000	 3.3189098769e+000	-6.0077170374e-001
 3.0405591591e+000	 3.0405591591e+000	-6.0533303841e-001
 3.0089109623e+000	 3.0718813162e+000	-6.2601870359e-001
 2.9769418421e+000	 3.1028724222e+000	-6.3042883849e-001
 2.9446570169e+000	 3.1335275733e+000	-6.3159881377e-001
 2.9120618043e+000	 3.1638419758e+000	-6.5126840756e-001
 2.8791616184e+000	 3.1938109485e+000	-6.6109449773e-001
 2.8459619666e+000	 3.2234299255e+000	-6.6179898938e-001
 2.8124684466e+000	 3.2526944579e+000	-6.5408410001e-001
 2.7786867434e+000	 3.2816002166e+000	-6.3863112089e-001
 2.7446226258e+000	 3.3101429941e+000	-6.1609925556e-001
 2.7102819435e+000	 3.3383187065e+000	-5.8712453785e-001
 3.0582368286e+000	 3.0582368286e+000	-5.8803448140e-001
 3.0264046307e+000	 3.0897410913e+000	-6.0979865207e-001
 2.9942496435e+000	 3.1209123782e+000	-6.1437216861e-001
 2.9617771158e+000	 3.1517457569e+000	-6.3907365154e-001
 2.9289923962e+000	 3.1822364059e+000	-6.5769949905e-001
 2.8959009301e+000	 3.2123796169e+000	-6.6580264869e-001
 2.8625082571e+000	 3.2421707971e+000	-6.6415157558e-001
 2.8288200074e+000	 3.2716054722e+000	-6.5349501639e-001
 2.7948418989e+000	 3.3006792877e+000	-6.3456067211e-001
 2.7605797341e+000	 3.3293880115e+000	-6.0805398907e-001
 2.7260393967e+000	 3.3577275362e+000	-5.7465702071e-001
 3.0759144982e+000	 3.0759144982e+000	-5.6854819700e-001
 3.0438982991e+000	 3.1076008664e+000	-5.9171125350e-001
 3.0115574449e+000	 3.1389523341e+000	-6.1416933663e-001
 2.9788972147e+000	 3.1699639405e+000	-6.4419569802e-001
 2.9459229881e+000	 3.2006308360e+000	-6.6220342979e-001
 2.9126402419e+000	 3.2309482852e+000	-6.6902590664e-001
 2.8790545476e+000	 3.2609116688e+000	-6.6547812735e-001
 2.8451715681e+000	 3.2905164865e+000	-6.5235528243e-001
 2.8109970544e+000	 3.3197583587e+000	-6.3043139830e-001
 2.7765368424e+000	 3.3486330290e+000	-6.0045806074e-001
 2.7417968498e+000	 3.3771363659e+000	-5.6316322046e-001
 3.0935921677e+000	 3.0935921677e+000	-5.4679398652e-001
 3.0613919675e+000	 3.1254606415e+000	-5.7218950660e-001
 3.0288652463e+000	 3.1569922901e+000	-6.1631370646e-001
 2.9960173137e+000	 3.1881821241e+000	-6.4683007360e-001
 2.9628535800e+000	 3.2190252661e+000	-6.6463533350e-001
 2.9293795536e+000	 3.2495169535e+000	-6.7060937311e-001
 2.8956008381e+000	 3.2796525405e+000	-6.6561367447e-001
 2.8615231289e+000	 3.3094275008e+000	-6.5048982251e-001
 2.8271522099e+000	 3.3388374297e+000	-6.2605809054e-001
 2.7924939507e+000	 3.3678780464e+000	-5.9311610628e-001
 2.7575543030e+000	 3.3965451956e+000	-5.5243760113e-001
 3.1112698372e+000	 3.1112698372e+000	-5.2268993298e-001
 3.0788856359e+000	 3.1433204166e+000	-5.6971920659e-001
 3.0461730477e+000	 3.1750322460e+000	-6.1544510572e-001
 3.0131374126e+000	 3.2064003076e+000	-6.4684077613e-001
 2.9797841718e+000	 3.2374196962e+000	-6.6484942699e-001
 2.9461188654e+000	 3.2680856218e+000	-6.7039744184e-001
 2.9121471286e+000	 3.2983934121e+000	-6.6439275130e-001
 2.8778746896e+000	 3.3283385151e+000	-6.4772328106e-001
 2.8433073654e+000	 3.3579165007e+000	-6.2125547860e-001
 2.8084510590e+000	 3.3871230638e+000	-5.8583292166e-001
 2.7733117562e+000	 3.4159540253e+000	-5.4227501140e-001
 3.1289475068e+000	 3.1289475068e+000	-5.0707552189e-001
 3.0963793042e+000	 3.1611801917e+000	-5.6374513069e-001
 3.0634808491e+000	 3.1930722020e+000	-6.1143597807e-001
 3.0302575116e+000	 3.2246184912e+000	-6.4409071264e-001
 2.9967147637e+000	 3.2558141263e+000	-6.6269903615e-001
 2.9628581771e+000	 3.2866542901e+000	-6.6823381877e-001
 2.9286934191e+000	 3.3171342838e+000	-6.6164941076e-001
 2.8942262503e+000	 3.3472495294e+000	-6.4388003056e-001
 2.8594625209e+000	 3.3769955718e+000	-6.1583823265e-001
 2.8244081673e+000	 3.4063680812e+000	-5.7841345856e-001
 2.7890692093e+000	 3.4353628550e+000	-5.3247067373e-001
 3.1466251763e+000	 3.1466251763e+000	-5.2226051228e-001
 3.1138729726e+000	 3.1790399668e+000	-5.5414777023e-001
 3.0807886506e+000	 3.2111121579e+000	-6.0415751601e-001
 3.0473776105e+000	 3.2428366748e+000	-6.3844172997e-001
 3.0136453556e+000	 3.2742085564e+000	-6.5803662094e-001
 2.9795974888e+000	 3.3052229584e+000	-6.6396154137e-001
 2.9452397096e+000	 3.3358751555e+000	-6.5721723783e-001
 2.9105778111e+000	 3.3661605437e+000	-6.3878417906e-001
 2.8756176763e+000	 3.3960746428e+000	-6.0962096496e-001
 2.8403652756e+000	 3.4256130986e+000	-5.7066281998e-001
 2.8048266625e+000	 3.4547716847e+000	-5.2282017389e-001
 3.1643028458e+000	 3.1643028458e+000	-5.2739234497e-001
 3.1313666410e+000	 3.1968997419e+000	-5.4842254339e-001
 3.0980964520e+000	 3.2291521139e+000	-5.9347969589e-001
 3.0644977094e+000	 3.2610548583e+000	-6.2975464441e-001
 3.0305759475e+000	 3.2926029865e+000	-6.5071379958e-001
 2.9963368006e+000	 3.3237916267e+000	-6.5742299732e-001
 2.9617860002e+000	 3.3546160271e+000	-6.5092936267e-001
 2.9269293718e+000	 3.3850715580e+000	-6.3225957769e-001
 2.8917728318e+000	 3.4151537138e+000	-6.0241823149e-001
 2.8563223839e+000	 3.4448581160e+000	-5.6238625605e-001
 2.8205841157e+000	 3.4741805144e+000	-5.1311945077e-001
 3.1819805154e+000	 3.1819805154e+000	-5.2264525061e-001
 3.1488603094e+000	 3.2147595170e+000	-5.4841394765e-001
 3.1154042534e+000	 3.2471920698e+000	-5.7927131161e-001
 3.0816178084e+000	 3.2792730419e+000	-6.1788927030e-001
 3.0475065394e+000	 3.3109974166e+000	-6.4058137193e-001
 3.0130761123e+000	 3.3423602950e+000	-6.4845994252e-001
 2.9783322907e+000	 3.3733568988e+000	-6.4261847318e-001
 2.9432809326e+000	 3.4039825722e+000	-6.2412982768e-001
 2.9079279873e+000	 3.4342327849e+000	-5.9404453349e-001
 2.8722794922e+000	 3.4641031334e+000	-5.5338915994e-001
 2.8363415688e+000	 3.4935893441e+000	-5.0316478659e-001
 2.6787670372e+000	 3.2995010472e+000	-6.1580485780e-001
 2.6445581744e+000	 3.3269824258e+000	-6.1755734420e-001
 2.6100877523e+000	 3.3540933089e+000	-6.2047737928e-001
 2.5753617721e+000	 3.3808300376e+000	-6.2521877981e-001
 2.5403863013e+000	 3.4071890820e+000	-6.3240381893e-001
 2.5051674705e+000	 3.4331670430e+000	-6.4262249703e-001
 2.4697114697e+000	 3.4587606532e+000	-6.1340410466e-001
 2.4340245451e+000	 3.4839667785e+000	-5.8088104943e-001
 2.3981129948e+000	 3.5087824190e+000	-5.5257479288e-001
 2.3619831663e+000	 3.5332047099e+000	-5.2862799447e-001
 2.3256414519e+000	 3.5572309227e+000	-5.0918334670e-001
 2.6945244904e+000	 3.3189098769e+000	-6.0077170374e-001
 2.6601143990e+000	 3.3465529107e+000	-6.0042930920e-001
 2.6254412097e+000	 3.3738232696e+000	-6.0169579645e-001
 2.5905109590e+000	 3.4007172731e+000	-6.0523156909e-001
 2.5553297501e+000	 3.4272313707e+000	-6.1166444245e-001
 2.5199037497e+000	 3.4533621432e+000	-6.2158890989e-001
 2.4842391843e+000	 3.4791063041e+000	-6.1280480639e-001
 2.4483423365e+000	 3.5044607008e+000	-5.7945732017e-001
 2.4122195419e+000	 3.5294223156e+000	-5.5047778158e-001
 2.3758771849e+000	 3.5539882670e+000	-5.2600745470e-001
 2.3393216957e+000	 3.5781558105e+000	-5.0618761183e-001
 2.7102819435e+000	 3.3383187065e+000	-5.8712453785e-001
 2.6756706236e+000	 3.3661233956e+000	-5.8457316117e-001
 2.6407946671e+000	 3.3935532302e+000	-5.8407852122e-001
 2.6056601459e+000	 3.4206045086e+000	-5.8630776376e-001
 2.5702731989e+000	 3.4472736594e+000	-5.9189438796e-001
 2.5346400289e+000	 3.4735572435e+000	-6.0143750804e-001
 2.4987668988e+000	 3.4994519550e+000	-6.1368464757e-001
 2.4626601279e+000	 3.5249546230e+000	-5.7937221333e-001
 2.4263260889e+000	 3.5500622122e+000	-5.4957462273e-001
 2.3897712035e+000	 3.5747718241e+000	-5.2443186137e-001
 2.3530019396e+000	 3.5990806982e+000	-5.0408390211e-001
 2.7260393967e+000	 3.3577275362e+000	-5.7465702071e-001
 2.6912268481e+000	 3.3856938804e+000	-5.6978361999e-001
 2.6561481244e+000	 3.4132831908e+000	-5.6742148547e-001
 2.6208093328e+000	 3.4404917441e+000	-5.6824466019e-001
 2.5852166478e+000	 3.4673159481e+000	-5.7289246853e-001
 2.5493763082e+000	 3.4937523437e+000	-5.8196877296e-001
 2.5132946133e+000	 3.5197976059e+000	-5.9604133068e-001
 2.4769779194e+000	 3.5454485452e+000	-5.8066880109e-001
 2.4404326359e+000	 3.5707021087e+000	-5.4990942788e-001
 2.4036652222e+000	 3.5955553812e+000	-5.2394637746e-001
 2.3666821834e+000	 3.6200055860e+000	-5.0291844373e-001
 2.7417968498e+000	 3.3771363659e+000	-5.6316322046e-001
 2.7067830727e+000	 3.4052643653e+000	-5.5585578441e-001
 2.6715015818e+000	 3.4330131515e+000	-5.5152097030e-001
 2.6359585197e+000	 3.4603789796e+000	-5.5083987342e-001
 2.6001600966e+000	 3.4873582368e+000	-5.5445778435e-001
 2.5641125874e+000	 3.5139474440e+000	-5.6298344079e-001
 2.5278223278e+000	 3.5401432568e+000	-5.7698838158e-001
 2.4912957108e+000	 3.5659424674e+000	-5.8339034269e-001
 2.4545391829e+000	 3.5913420053e+000	-5.5152646059e-001
 2.4175592408e+000	 3.6163389384e+000	-5.2459628203e-001
 2.3803624272e+000	 3.6409304738e+000	-5.0273754215e-001
 2.7575543030e+000	 3.3965451956e+000	-5.5243760113e-001
 2.7223392972e+000	 3.4248348501e+000	-5.4258512125e-001
 2.6868550392e+000	 3.4527431121e+000	-5.3617359611e-001
 2.6511077066e+000	 3.4802662151e+000	-5.3389132803e-001
 2.6151035454e+000	 3.5074005255e+000	-5.3638971454e-001
 2.5788488667e+000	 3.5341425442e+000	-5.4428249506e-001
 2.5423500424e+000	 3.5604889077e+000	-5.5814510230e-001
 2.5056135023e+000	 3.5864363897e+000	-5.7851411867e-001
 2.4686457300e+000	 3.6119819019e+000	-5.5447013207e-001
 2.4314532594e+000	 3.6371224955e+000	-5.2642696686e-001
 2.3940426711e+000	 3.6618553616e+000	-5.0358757986e-001
 2.7733117562e+000	 3.4159540253e+000	-5.4227501140e-001
 2.7378955218e+000	 3.4444053350e+000	-5.2976745490e-001
 2.7022084965e+000	 3.4724730728e+000	-5.2117631288e-001
 2.6662568934e+000	 3.5001534506e+000	-5.1719724937e-001
 2.6300469942e+000	 3.5274428143e+000	-5.1848790923e-001
 2.5935851459e+000	 3.5543376445e+000	-5.2566715971e-001
 2.5568777569e+000	 3.5808345586e+000	-5.3931443899e-001
 2.5199312937e+000	 3.6069303119e+000	-5.5996921226e-001
 2.4827522770e+000	 3.6326217985e+000	-5.5878499700e-001
 2.4453472780e+000	 3.6579060526e+000	-5.2948393329e-001
 2.4077229149e+000	 3.6827802494e+000	-5.0551501421e-001
 2.7890692093e+000	 3.4353628550e+000	-5.3247067373e-001
 2.7534517463e+000	 3.4639758198e+000	-5.1719895728e-001
 2.7175619539e+000	 3.4922030334e+000	-5.0632639094e-001
 2.6814060803e+000	 3.5200406862e+000	-5.0055615501e-001
 2.6449904431e+000	 3.5474851030e+000	-5.0055228187e-001
 2.6083214251e+000	 3.5745327447e+000	-5.0693889223e-001
 2.5714054714e+000	 3.6011802095e+000	-5.2029954081e-001
 2.5342490851e+000	 3.6274242341e+000	-5.4117667200e-001
 2.4968588240e+000	 3.6532616951e+000	-5.6451574947e-001
 2.4592412967e+000	 3.6786896097e+000	-5.3381278913e-001
 2.4214031587e+000	 3.7037051371e+000	-5.0856637524e-001
 2.8048266625e+000	 3.4547716847e+000	-5.2282017389e-001
 2.7690079709e+000	 3.4835463047e+000	-5.0467613800e-001
 2.7329154113e+000	 3.5119329941e+000	-4.9142141191e-001
 2.6965552672e+000	 3.5399279217e+000	-4.8376684660e-001
 2.6599338919e+000	 3.5675273917e+000	-4.8238300188e-001
 2.6230577044e+000	 3.5947278450e+000	-4.8789937716e-001
 2.5859331860e+000	 3.6215258604e+000	-5.0090375423e-001
 2.5485668766e+000	 3.6479181564e+000	-5.2194165237e-001
 2.5109653711e+000	 3.6739015917e+000	-5.5151589598e-001
 2.4731353153e+000	 3.6994731668e+000	-5.3945924562e-001
 2.4350834026e+000	 3.7246300249e+000	-5.1278826371e-001
 2.8205841157e+000	 3.4741805144e+000	-5.1311945077e-001
 2.7845641955e+000	 3.5031167896e+000	-4.9199583501e-001
 2.7482688687e+000	 3.5316629547e+000	-4.7625926004e-001
 2.7117044541e+000	 3.5598151572e+000	-4.6662840190e-001
 2.6748773408e+000	 3.5875696804e+000	-4.6378048745e-001
 2.6377939836e+000	 3.6149229452e+000	-4.6835051971e-001
 2.6004609005e+000	 3.6418715113e+000	-4.8093061748e-001
 2.5628846680e+000	 3.6684120786e+000	-5.0206947002e-001
 2.5250719181e+000	 3.6945414883e+000	-5.3227190649e-001
 2.4870293339e+000	 3.7202567240e+000	-5.4646911457e-001
 2.4487636464e+000	 3.7455549127e+000	-5.1822734907e-001
 2.8363415688e+000	 3.4935893441e+000	-5.0316478659e-001
 2.8001204200e+000	 3.5226872744e+000	-4.7895520541e-001
 2.7636223260e+000	 3.5513929153e+000	-4.6063811380e-001
 2.7268536410e+000	 3.5797023927e+000	-4.4894016709e-001
 2.6898207896e+000	 3.6076119692e+000	-4.4454539868e-001
 2.6525302629e+000	 3.6351180455e+000	-4.4809443964e-001
 2.6149886150e+000	 3.6622171622e+000	-4.6018385528e-001
 2.5772024595e+000	 3.6889060008e+000	-4.8136559919e-001
 2.5391784651e+000	 3.7151813848e+000	-5.1214658459e-001
 2.5009233526e+000	 3.7410402811e+000	-5.5298837276e-001
 2.4624438902e+000	 3.7664798005e+000	-5.0998951949e-001
 2.3256414519e+000	 3.5572309227e+000	-5.0918334670e-001
 2.2890942857e+000	 3.5808584657e+000	-5.0952790061e-001
 2.2523481398e+000	 3.6040848849e+000	-5.0764546289e-001
 2.2154095206e+000	 3.6269078643e+000	-5.0376493436e-001
 2.1782849654e+000	 3.6493252266e+000	-4.9812027545e-001
 2.1409810384e+000	 3.6713349334e+000	-4.9095001023e-001
 2.1035043275e+000	 3.6929350853e+000	-4.8249672264e-001
 2.0658614403e+000	 3.7141239222e+000	-4.7300654620e-001
 2.0280590008e+000	 3.7348998232e+000	-4.6272864857e-001
 1.9901036456e+000	 3.7552613065e+000	-4.3983102313e-001
 1.9520020205e+000	 3.7752070290e+000	-3.7843652594e-001
 2.3393216957e+000	 3.5781558105e+000	-5.0618761183e-001
 2.3025595462e+000	 3.6019223390e+000	-5.0773924617e-001
 2.2655972465e+000	 3.6252853842e+000	-5.0820746821e-001
 2.2284413413e+000	 3.6482426164e+000	-5.0779749334e-001
 2.1910984063e+000	 3.6707918456e+000	-5.0671880815e-001
 2.1535750445e+000	 3.6929310213e+000	-5.0518470234e-001
 2.1158778823e+000	 3.7146582329e+000	-5.0341179347e-001
 2.0780135664e+000	 3.7359717100e+000	-5.0161954588e-001
 2.0399887596e+000	 3.7568698222e+000	-4.8607367900e-001
 2.0018101376e+000	 3.7773510788e+000	-4.3884251108e-001
 1.9634843853e+000	 3.7974141292e+000	-3.8622897212e-001
 2.3530019396e+000	 3.5990806982e+000	-5.0408390211e-001
 2.3160248067e+000	 3.6229862123e+000	-5.0634970979e-001
 2.2788463532e+000	 3.6464858835e+000	-5.0866060166e-001
 2.2414731620e+000	 3.6695773686e+000	-5.1119844174e-001
 2.2039118473e+000	 3.6922584646e+000	-5.1414858587e-001
 2.1661690506e+000	 3.7145271091e+000	-5.1769944118e-001
 2.1282514372e+000	 3.7363813804e+000	-5.2204201895e-001
 2.0901656925e+000	 3.7578194978e+000	-5.1334241782e-001
 2.0519185184e+000	 3.7788398211e+000	-4.7786394273e-001
 2.0135166297e+000	 3.7994408512e+000	-4.3806678721e-001
 1.9749667502e+000	 3.8196212294e+000	-3.9389880778e-001
 2.3666821834e+000	 3.6200055860e+000	-5.0291844373e-001
 2.3294900672e+000	 3.6440500857e+000	-5.0541242050e-001
 2.2920954599e+000	 3.6676863828e+000	-5.0906510258e-001
 2.2545049827e+000	 3.6909121207e+000	-5.1403533281e-001
 2.2167252883e+000	 3.7137250836e+000	-5.2048467550e-001
 2.1787630567e+000	 3.7361231969e+000	-5.2857700300e-001
 2.1406249920e+000	 3.7581045280e+000	-5.2564354091e-001
 2.1023178186e+000	 3.7796672856e+000	-4.9939889842e-001
 2.0638482773e+000	 3.8008098201e+000	-4.6997727421e-001
 2.0252231217e+000	 3.8215306236e+000	-4.3729503414e-001
 1.9864491150e+000	 3.8418283295e+000	-4.0125104052e-001
 2.3803624272e+000	 3.6409304738e+000	-5.0273754215e-001
 2.3429553277e+000	 3.6651139590e+000	-5.0498041506e-001
 2.3053445666e+000	 3.6888868821e+000	-5.0948094118e-001
 2.2675368034e+000	 3.7122468729e+000	-5.1637526863e-001
 2.2295387292e+000	 3.7351917025e+000	-5.2580150562e-001
 2.1913570628e+000	 3.7577192848e+000	-5.2708731172e-001
 2.1529985469e+000	 3.7798276756e+000	-5.0745391755e-001
 2.1144699447e+000	 3.8015150733e+000	-4.8585844938e-001
 2.0757780361e+000	 3.8227798190e+000	-4.6218990978e-001
 2.0369296137e+000	 3.8436203960e+000	-4.3631678786e-001
 1.9979314798e+000	 3.8640354297e+000	-4.0808881591e-001
 2.3940426711e+000	 3.6618553616e+000	-5.0358757986e-001
 2.3564205882e+000	 3.6861778323e+000	-5.0510664062e-001
 2.3185936733e+000	 3.7100873815e+000	-5.0996782624e-001
 2.2805686241e+000	 3.7335816250e+000	-5.1828491302e-001
 2.2423521702e+000	 3.7566583215e+000	-5.2188501197e-001
 2.2039510689e+000	 3.7793153726e+000	-5.0614146038e-001
 2.1653721018e+000	 3.8015508231e+000	-4.8971883443e-001
 2.1266220709e+000	 3.8233628611e+000	-4.7248313242e-001
 2.0877077949e+000	 3.8447498180e+000	-4.5427669110e-001
 2.0486361058e+000	 3.8657101684e+000	-4.3491998476e-001
 2.0094138446e+000	 3.8862425299e+000	-4.1421347074e-001
 2.4077229149e+000	 3.6827802494e+000	-5.0551501421e-001
 2.3698858487e+000	 3.7072417056e+000	-5.0584395724e-001
 2.3318427800e+000	 3.7312878808e+000	-5.1058521255e-001
 2.2936004448e+000	 3.7549163771e+000	-5.1434548697e-001
 2.2551656112e+000	 3.7781249405e+000	-4.9967685300e-001
 2.2165450750e+000	 3.8009114605e+000	-4.8567480786e-001
 2.1777456566e+000	 3.8232739707e+000	-4.7218692732e-001
 2.1387741970e+000	 3.8452106489e+000	-4.5903384907e-001
 2.0996375537e+000	 3.8667198170e+000	-4.4601110480e-001
 2.0603425978e+000	 3.8877999408e+000	-4.3289100711e-001
 2.0208962095e+000	 3.9084496300e+000	-4.1942458435e-001
 2.4214031587e+000	 3.7037051371e+000	-5.0856637524e-001
 2.3833511092e+000	 3.7283055790e+000	-5.0724514037e-001
 2.3450918867e+000	 3.7524883801e+000	-5.0887118125e-001
 2.3066322655e+000	 3.7762511293e+000	-4.9237471801e-001
 2.2679790521e+000	 3.7995915595e+000	-4.7794743841e-001
 2.2291390811e+000	 3.8225075483e+000	-4.6542329054e-001
 2.1901192115e+000	 3.8449971182e+000	-4.5460588963e-001
 2.1509263231e+000	 3.8670584367e+000	-4.4527037341e-001
 2.1115673126e+000	 3.8886898159e+000	-4.3716532076e-001
 2.0720490898e+000	 3.9098897132e+000	-4.3001472692e-001
 2.0323785743e+000	 3.9306567302e+000	-4.2352002831e-001
 2.4350834026e+000	 3.7246300249e+000	-5.1278826371e-001
 2.3968163697e+000	 3.7493694523e+000	-5.0936288319e-001
 2.3583409934e+000	 3.7736888794e+000	-4.8864489200e-001
 2.3196640863e+000	 3.7975858814e+000	-4.7085880066e-001
 2.2807924931e+000	 3.8210581785e+000	-4.5642071054e-001
 2.2417330872e+000	 3.8441036362e+000	-4.4512210451e-001
 2.2024927664e+000	 3.8667202658e+000	-4.3672249888e-001
 2.1630784492e+000	 3.8889062245e+000	-4.3095138380e-001
 2.1234970714e+000	 3.9106598149e+000	-4.2751022909e-001
 2.0837555818e+000	 3.9319794856e+000	-4.2607454837e-001
 2.0438609391e+000	 3.9528638304e+000	-4.2629601437e-001
 2.4487636464e+000	 3.7455549127e+000	-5.1822734907e-001
 2.4102816302e+000	 3.7704333256e+000	-4.9298783260e-001
 2.3715901001e+000	 3.7948893788e+000	-4.6882777385e-001
 2.3326959070e+000	 3.8189206336e+000	-4.4951036819e-001
 2.2936059341e+000	 3.8425247975e+000	-4.3482005859e-001
 2.2543270933e+000	 3.8656997240e+000	-4.2450572628e-001
 2.2148663212e+000	 3.8884434134e+000	-4.1828264227e-001
 2.1752305753e+000	 3.9107540122e+000	-4.1583449341e-001
 2.1354268302e+000	 3.9326298139e+000	-4.1681547588e-001
 2.0954620739e+000	 3.9540692580e+000	-4.2085244884e-001
 2.0553433039e+000	 3.9750709306e+000	-4.2754714084e-001
 2.4624438902e+000	 3.7664798005e+000	-5.0998951949e-001
 2.4237468907e+000	 3.7914971990e+000	-4.7636532707e-001
 2.3848392068e+000	 3.8160898781e+000	-4.4912181653e-001
 2.3457277277e+000	 3.8402553857e+000	-4.2804167382e-001
 2.3064193751e+000	 3.8639914164e+000	-4.1286833403e-001
 2.2669210994e+000	 3.8872958119e+000	-4.0330793274e-001
 2.2272398761e+000	 3.9101665609e+000	-3.9903134145e-001
 2.1873827014e+000	 3.9326018000e+000	-3.9967627988e-001
 2.1473565890e+000	 3.9545998128e+000	-4.0484949776e-001
 2.1071685659e+000	 3.9761590304e+000	-4.1412901852e-001
 2.0668256687e+000	 3.9972780307e+000	-4.2706643741e-001
 1.9520020205e+000	 3.7752070290e+000	-3.7843652594e-001
 1.9137607768e+000	 3.7947357865e+000	-2.7594036454e-001
 1.8753865680e+000	 3.8138465125e+000	-1.8298285573e-001
 1.8368860459e+000	 3.8325382783e+000	-1.8166423275e-001
 1.7982658577e+000	 3.8508102920e+000	-1.8256511936e-001
 1.7595326423e+000	 3.8686618980e+000	-1.8582755445e-001
 1.7206930268e+000	 3.8860925758e+000	-1.9243081951e-001
 1.6817536235e+000	 3.9031019395e+000	-2.0331066642e-001
 1.6427210263e+000	 3.9196897364e+000	-2.1935804128e-001
 1.6036018077e+000	 3.9358558462e+000	-2.4141792669e-001
 1.5644025157e+000	 3.9516002795e+000	-2.7028830304e-001
 1.9634843853e+000	 3.7974141292e+000	-3.8622897212e-001
 1.9250181932e+000	 3.8170577617e+000	-2.9062887189e-001
 1.8864182537e+000	 3.8362809037e+000	-2.0308929503e-001
 1.8476912579e+000	 3.8550826211e+000	-1.8235667034e-001
 1.8088438922e+000	 3.8734621172e+000	-1.8746220405e-001
 1.7698828343e+000	 3.8914187326e+000	-1.9353875736e-001
 1.7308147505e+000	 3.9089519439e+000	-2.0161190366e-001
 1.6916462918e+000	 3.9260613627e+000	-2.1266386746e-001
 1.6523840911e+000	 3.9427467349e+000	-2.2763218331e-001
 1.6130347595e+000	 3.9590079395e+000	-2.4740847465e-001
 1.5736048834e+000	 3.9748449870e+000	-2.7283735320e-001
 1.9749667502e+000	 3.8196212294e+000	-3.9389880778e-001
 1.9362756095e+000	 3.8393797369e+000	-3.0562087943e-001
 1.8974499394e+000	 3.8587152950e+000	-2.2394908182e-001
 1.8584964700e+000	 3.8776269639e+000	-1.8415186606e-001
 1.8194219267e+000	 3.8961139425e+000	-1.9355502330e-001
 1.7802330263e+000	 3.9141755673e+000	-2.0255952280e-001
 1.7409364742e+000	 3.9318113120e+000	-2.1223738682e-001
 1.7015389602e+000	 3.9490207858e+000	-2.2361744826e-001
 1.6620471560e+000	 3.9658037333e+000	-2.3768394452e-001
 1.6224677113e+000	 3.9821600327e+000	-2.5537523279e-001
 1.5828072511e+000	 3.9980896946e+000	-2.7758262765e-001
 1.9864491150e+000	 3.8418283295e+000	-4.0125104052e-001
 1.9475330258e+000	 3.8617017121e+000	-3.2072226860e-001
 1.9084816251e+000	 3.8811496862e+000	-2.4536880209e-001
 1.8693016820e+000	 3.9001713067e+000	-1.8714411661e-001
 1.8299999611e+000	 3.9187657677e+000	-2.0093095259e-001
 1.7905832183e+000	 3.9369324020e+000	-2.1297009121e-001
 1.7510581979e+000	 3.9546706801e+000	-2.2438016687e-001
 1.7114316286e+000	 3.9719802090e+000	-2.3623676294e-001
 1.6717102208e+000	 3.9888607318e+000	-2.4957094036e-001
 1.6319006631e+000	 4.0053121259e+000	-2.6536788940e-001
 1.5920096189e+000	 4.0213344021e+000	-2.8456570536e-001
 1.9979314798e+000	 3.8640354297e+000	-4.0808881591e-001
 1.9587904422e+000	 3.8840236873e+000	-3.3573714393e-001
 1.9195133107e+000	 3.9035840775e+000	-2.6715335646e-001
 1.8801068940e+000	 3.9227156495e+000	-2.0215820047e-001
 1.8405779956e+000	 3.9414175930e+000	-2.0967588433e-001
 1.8009334104e+000	 3.9596892367e+000	-2.2484933059e-001
 1.7611799216e+000	 3.9775300482e+000	-2.3811188606e-001
 1.7213242970e+000	 3.9949396322e+000	-2.5058603283e-001
 1.6813732857e+000	 4.0119177302e+000	-2.6334978239e-001
 1.6413336149e+000	 4.0284642191e+000	-2.7743526366e-001
 1.6012119866e+000	 4.0445791096e+000	-2.9382743682e-001
 2.0094138446e+000	 3.8862425299e+000	-4.1421347074e-001
 1.9700478585e+000	 3.9063456625e+000	-3.5046788372e-001
 1.9305449964e+000	 3.9260184687e+000	-2.8910600828e-001
 1.8909121061e+000	 3.9452599923e+000	-2.2994759186e-001
 1.8511560300e+000	 3.9640694182e+000	-2.1987427022e-001
 1.8112836024e+000	 3.9824460714e+000	-2.3827477566e-001
 1.7713016452e+000	 4.0003894163e+000	-2.5350296678e-001
 1.7312169653e+000	 4.0178990554e+000	-2.6672837882e-001
 1.6910363506e+000	 4.0349747287e+000	-2.7907610695e-001
 1.6507665667e+000	 4.0516163123e+000	-2.9162533051e-001
 1.6104143544e+000	 4.0678238172e+000	-3.0540796488e-001
 2.0208962095e+000	 3.9084496300e+000	-4.1942458435e-001
 1.9813052748e+000	 3.9286676378e+000	-3.6471518916e-001
 1.9415766821e+000	 3.9484528600e+000	-3.1102843021e-001
 1.9017173181e+000	 3.9678043352e+000	-2.5818242039e-001
 1.8617340645e+000	 3.9867212435e+000	-2.3160916221e-001
 1.8216337944e+000	 4.0052029061e+000	-2.5332266579e-001
 1.7814233689e+000	 4.0232487843e+000	-2.7062264631e-001
 1.7411096337e+000	 4.0408584785e+000	-2.8472585264e-001
 1.7006994154e+000	 4.0580317271e+000	-2.9680460285e-001
 1.6601995186e+000	 4.0747684055e+000	-3.0798524458e-001
 1.6196167221e+000	 4.0910685247e+000	-3.1934674482e-001
 2.0323785743e+000	 3.9306567302e+000	-4.2352002831e-001
 1.9925626912e+000	 3.9509896130e+000	-3.7827813166e-001
 1.9526083678e+000	 3.9708872512e+000	-3.3272074908e-001
 1.9125225301e+000	 3.9903486780e+000	-2.8666372238e-001
 1.8723120989e+000	 4.0093730687e+000	-2.4496225201e-001
 1.8319839864e+000	 4.0279597408e+000	-2.7006798156e-001
 1.7915450926e+000	 4.0461081524e+000	-2.8953901024e-001
 1.7510023021e+000	 4.0638179017e+000	-3.0463946706e-001
 1.7103624803e+000	 4.0810887256e+000	-3.1658903819e-001
 1.6696324704e+000	 4.0979204987e+000	-3.2656136341e-001
 1.6288190898e+000	 4.1143132322e+000	-3.3568256380e-001
 2.0438609391e+000	 3.9528638304e+000	-4.2629601437e-001
 2.0038201075e+000	 3.9733115882e+000	-3.9095419864e-001
 1.9636400535e+000	 3.9933216425e+000	-3.5398158938e-001
 1.9233277422e+000	 4.0128930208e+000	-3.1519111913e-001
 1.8828901334e+000	 4.0320248940e+000	-2.7438019970e-001
 1.8423341784e+000	 4.0507165755e+000	-2.8858448010e-001
 1.8016668163e+000	 4.0689675205e+000	-3.1031902485e-001
 1.7608949704e+000	 4.0867773249e+000	-3.2652922507e-001
 1.7200255451e+000	 4.1041457241e+000	-3.3848228616e-001
 1.6790654222e+000	 4.1210725920e+000	-3.4739926983e-001
 1.6380214576e+000	 4.1375579397e+000	-3.5445355961e-001
 2.0553433039e+000	 3.9750709306e+000	-4.2754714084e-001
 2.0150775238e+000	 3.9956335634e+000	-4.0253933778e-001
 1.9746717392e+000	 4.0157560337e+000	-3.7460811518e-001
 1.9341329542e+000	 4.0354373636e+000	-3.4356285642e-001
 1.8934681678e+000	 4.0546767192e+000	-3.0919804035e-001
 1.8526843704e+000	 4.0734734102e+000	-3.0894472931e-001
 1.8117885400e+000	 4.0918268886e+000	-3.3302856837e-001
 1.7707876388e+000	 4.1097367481e+000	-3.5045414808e-001
 1.7296886100e+000	 4.1272027225e+000	-3.6253635005e-001
 1.6884983740e+000	 4.1442246852e+000	-3.7054379358e-001
 1.6472238253e+000	 4.1608026473e+000	-3.7569723881e-001
 2.0668256687e+000	 3.9972780307e+000	-4.2706643741e-001
 2.0263349401e+000	 4.0179555386e+000	-4.1282799979e-001
 1.9857034249e+000	 4.0381904250e+000	-3.9439607071e-001
 1.9449381662e+000	 4.0579817064e+000	-3.7157584276e-001
 1.9040462023e+000	 4.0773285445e+000	-3.4415820401e-001
 1.8630345624e+000	 4.0962302449e+000	-3.3122014088e-001
 1.8219102636e+000	 4.1146862567e+000	-3.5773246119e-001
 1.7806803072e+000	 4.1326961712e+000	-3.7647230319e-001
 1.7393516748e+000	 4.1502597210e+000	-3.8880238746e-001
 1.6979313258e+000	 4.1673767784e+000	-3.9603903223e-001
 1.6564261930e+000	 4.1840473548e+000	-3.9945049428e-001
 1.5644025157e+000	 3.9516002795e+000	-2.7028830304e-001
 1.5251296703e+000	 3.9669231766e+000	-2.9933664565e-001
 1.4857897608e+000	 3.9818248061e+000	-3.1346786115e-001
 1.4463892427e+000	 3.9963055637e+000	-3.1336200477e-001
 1.4069345349e+000	 4.0103659702e+000	-2.9966920890e-001
 1.3674320163e+000	 4.0240066701e+000	-2.7300891074e-001
 1.3278880237e+000	 4.0372284301e+000	-2.3396917653e-001
 1.2883088488e+000	 4.0500321369e+000	-1.8310612163e-001
 1.2487007353e+000	 4.0624187960e+000	-1.2736487738e-001
 1.2090698765e+000	 4.0743895290e+000	-2.5979433825e-001
 1.1694224131e+000	 4.0859455723e+000	-3.9856721699e-001
 1.5736048834e+000	 3.9748449870e+000	-2.7283735320e-001
 1.5341010213e+000	 3.9902580188e+000	-2.9546478968e-001
 1.4945297006e+000	 4.0052473050e+000	-3.0390041639e-001
 1.4548974148e+000	 4.0198132435e+000	-2.9886861606e-001
 1.4152106204e+000	 4.0339563582e+000	-2.8106207039e-001
 1.3754757340e+000	 4.0476772976e+000	-2.5114096005e-001
 1.3356991298e+000	 4.0609768326e+000	-2.0973226471e-001
 1.2958871362e+000	 4.0738558554e+000	-1.5742916264e-001
 1.2560460337e+000	 4.0863153771e+000	-9.4790528557e-002
 1.2161820523e+000	 4.0983565262e+000	-2.0501176853e-001
 1.1763013684e+000	 4.1099805463e+000	-3.5207526871e-001
 1.5828072511e+000	 3.9980896946e+000	-2.7758262765e-001
 1.5430723723e+000	 4.0135928610e+000	-2.9425328277e-001
 1.5032696403e+000	 4.0286698039e+000	-2.9745774474e-001
 1.4634055868e+000	 4.0433209233e+000	-2.8796477607e-001
 1.4234867059e+000	 4.0575467463e+000	-2.6650965115e-001
 1.3835194518e+000	 4.0713479250e+000	-2.3379332855e-001
 1.3435102358e+000	 4.0847252351e+000	-1.9048172696e-001
 1.3034654235e+000	 4.0976795738e+000	-1.3720510405e-001
 1.2633913321e+000	 4.1102119583e+000	-7.4557537280e-002
 1.2232942280e+000	 4.1223235234e+000	-1.5226017170e-001
 1.1831803238e+000	 4.1340155202e+000	-3.0684139442e-001
 1.5920096189e+000	 4.0213344021e+000	-2.8456570536e-001
 1.5520437233e+000	 4.0369277032e+000	-2.9573155804e-001
 1.5120095801e+000	 4.0520923027e+000	-2.9415733181e-001
 1.4719137588e+000	 4.0668286031e+000	-2.8065622679e-001
 1.4317627914e+000	 4.0811371344e+000	-2.5600615880e-001
 1.3915631695e+000	 4.0950185525e+000	-2.2094890393e-001
 1.3513213418e+000	 4.1084736377e+000	-1.7618935032e-001
 1.3110437108e+000	 4.1215032923e+000	-1.2239485631e-001
 1.2707366306e+000	 4.1341085394e+000	-6.0194714105e-002
 1.2304064038e+000	 4.1462905207e+000	-1.0238717447e-001
 1.1900592792e+000	 4.1580504942e+000	-2.6368029073e-001
 1.6012119866e+000	 4.0445791096e+000	-2.9382743682e-001
 1.5610150743e+000	 4.0602625455e+000	-2.9992855525e-001
 1.5207495199e+000	 4.0755148016e+000	-2.9401640210e-001
 1.4804219308e+000	 4.0903362829e+000	-2.7694867841e-001
 1.4400388769e+000	 4.1047275224e+000	-2.4954599550e-001
 1.3996068873e+000	 4.1186891800e+000	-2.1259099168e-001
 1.3591324478e+000	 4.1322220402e+000	-1.6682755976e-001
 1.3186219982e+000	 4.1453270108e+000	-1.1296018463e-001
 1.2780819290e+000	 4.1580051206e+000	-5.1653389628e-002
 1.2375185795e+000	 4.1702575179e+000	-5.6241682065e-002
 1.1969382346e+000	 4.1820854681e+000	-2.2340813949e-001
 1.6104143544e+000	 4.0678238172e+000	-3.0540796488e-001
 1.5699864253e+000	 4.0835973877e+000	-3.0687273489e-001
 1.5294894596e+000	 4.0989373005e+000	-2.9705192644e-001
 1.4889301028e+000	 4.1138439627e+000	-2.7684781028e-001
 1.4483149624e+000	 4.1283179105e+000	-2.4712375246e-001
 1.4076506050e+000	 4.1423598075e+000	-2.0870330316e-001
 1.3669435539e+000	 4.1559704427e+000	-1.6236939995e-001
 1.3262002855e+000	 4.1691507292e+000	-1.0886368457e-001
 1.2854272275e+000	 4.1819017017e+000	-4.8885932250e-002
 1.2446307552e+000	 4.1942245151e+000	-1.4673841688e-002
 1.2038171899e+000	 4.2061204421e+000	-1.8684256534e-001
 1.6196167221e+000	 4.0910685247e+000	-3.1934674482e-001
 1.5789577763e+000	 4.1069322299e+000	-3.1659209178e-001
 1.5382293994e+000	 4.1223597993e+000	-3.0328062922e-001
 1.4974382748e+000	 4.1373516424e+000	-2.8035927174e-001
 1.4565910479e+000	 4.1519082985e+000	-2.4873420450e-001
 1.4156943227e+000	 4.1660304349e+000	-2.0926994413e-001
 1.3747546599e+000	 4.1797188453e+000	-1.6278851763e-001
 1.3337785729e+000	 4.1929744477e+000	-1.1006875847e-001
 1.2927725259e+000	 4.2057982829e+000	-5.1845718695e-002
 1.2517429310e+000	 4.2181915124e+000	 1.1189804236e-002
 1.2106961453e+000	 4.2301554161e+000	-1.5480259473e-001
 1.6288190898e+000	 4.1143132322e+000	-3.3568256380e-001
 1.5879291273e+000	 4.1302670721e+000	-3.2911416822e-001
 1.5469693392e+000	 4.1457822982e+000	-3.1271899535e-001
 1.5059464469e+000	 4.1608593222e+000	-2.8748868300e-001
 1.4648671334e+000	 4.1754986866e+000	-2.5437230490e-001
 1.4237380405e+000	 4.1897010624e+000	-2.1427540352e-001
 1.3825657659e+000	 4.2034672478e+000	-1.6805914464e-001
 1.3413568602e+000	 4.2167981661e+000	-1.1653959264e-001
 1.3001178244e+000	 4.2296948641e+000	-6.0487105529e-002
 1.2588551067e+000	 4.2421585096e+000	-6.2584808041e-004
 1.2175751007e+000	 4.2541903900e+000	-1.2810861634e-001
 1.6380214576e+000	 4.1375579397e+000	-3.5445355961e-001
 1.5969004783e+000	 4.1536019143e+000	-3.4446606674e-001
 1.5557092789e+000	 4.1692047970e+000	-3.2538327698e-001
 1.5144546189e+000	 4.1843670020e+000	-2.9824163596e-001
 1.4731432189e+000	 4.1990890747e+000	-2.6403318038e-001
 1.4317817582e+000	 4.2133716899e+000	-2.2370454275e-001
 1.3903768719e+000	 4.2272156503e+000	-1.7815608145e-001
 1.3489351476e+000	 4.2406218846e+000	-1.2824113536e-001
 1.3074631228e+000	 4.2535914452e+000	-7.4765401635e-002
 1.2659672825e+000	 4.2661255068e+000	-1.8486435288e-002
 1.2244540561e+000	 4.2782253640e+000	-1.0758234278e-001
 1.6472238253e+000	 4.1608026473e+000	-3.7569723881e-001
 1.6058718293e+000	 4.1769367565e+000	-3.6267446232e-001
 1.5644492187e+000	 4.1926272959e+000	-3.4128949999e-001
 1.5229627909e+000	 4.2078746818e+000	-3.1262369497e-001
 1.4814193044e+000	 4.2226794627e+000	-2.7771212626e-001
 1.4398254760e+000	 4.2370423173e+000	-2.3754258524e-001
 1.3981879779e+000	 4.2509640528e+000	-1.9305468130e-001
 1.3565134349e+000	 4.2644456030e+000	-1.4513907556e-001
 1.3148084213e+000	 4.2774880264e+000	-9.4636841610e-002
 1.2730794582e+000	 4.2900925040e+000	-4.2338951416e-002
 1.2313330114e+000	 4.3022603379e+000	-9.4046773634e-002
 1.6564261930e+000	 4.1840473548e+000	-3.9945049428e-001
 1.6148431803e+000	 4.2002715988e+000	-3.8376561433e-001
 1.5731891585e+000	 4.2160497947e+000	-3.6045347030e-001
 1.5314709629e+000	 4.2313823616e+000	-3.3064039763e-001
 1.4896953899e+000	 4.2462698508e+000	-2.9540460177e-001
 1.4478691937e+000	 4.2607129448e+000	-2.5577510646e-001
 1.4059990840e+000	 4.2747124554e+000	-2.1273083482e-001
 1.3640917223e+000	 4.2882693215e+000	-1.6719982229e-001
 1.3221537197e+000	 4.3013846075e+000	-1.2005856005e-001
 1.2801916340e+000	 4.3140595013e+000	-7.2131467554e-002
 1.2382119668e+000	 4.3262953119e+000	-8.8326159708e-002
 1.1694224131e+000	 4.0859455723e+000	-3.9856721699e-001
 1.1297644301e+000	 4.0970882749e+000	-3.1882069158e-001
 1.0901019551e+000	 4.1078190963e+000	-2.4707036940e-001
 1.0504409556e+000	 4.1181396041e+000	-1.8191184758e-001
 1.0107873370e+000	 4.1280514725e+000	-1.2211113620e-001
 9.7114694021e-001	 4.1375564794e+000	-6.6596809682e-002
 9.3152554013e-001	 4.1466565047e+000	-1.4452034573e-002
 8.9192884318e-001	 4.1553535275e+000	 3.5093499529e-002
 8.5236248567e-001	 4.1636496242e+000	 8.2671720254e-002
 8.1283203195e-001	 4.1715469658e+000	 1.2878435864e-001
 7.7334297274e-001	 4.1790478158e+000	 1.7381115677e-001
 1.1763013684e+000	 4.1099805463e+000	-3.5207526871e-001
 1.1364101032e+000	 4.1211887942e+000	-2.8697399144e-001
 1.0965143196e+000	 4.1319827380e+000	-2.2735724875e-001
 1.0566200201e+000	 4.1423639547e+000	-1.7192023199e-001
 1.0167331448e+000	 4.1523341282e+000	-1.1953216262e-001
 9.7685956928e-001	 4.1618950470e+000	-6.9228167060e-002
 9.3700510214e-001	 4.1710486018e+000	-2.0201027797e-002
 8.9717548344e-001	 4.1797967836e+000	 2.8207161845e-002
 8.5737638264e-001	 4.1881416808e+000	 7.6513412947e-002
 8.1761339685e-001	 4.1960854774e+000	 1.2510230039e-001
 7.7789204906e-001	 4.2036304500e+000	 1.7423444141e-001
 1.1831803238e+000	 4.1340155202e+000	-3.0684139442e-001
 1.1430557764e+000	 4.1452893135e+000	-2.5583821207e-001
 1.1029266840e+000	 4.1561463797e+000	-2.0776922091e-001
 1.0627990845e+000	 4.1665883053e+000	-1.6143067520e-001
 1.0226789527e+000	 4.1766167839e+000	-1.1579652120e-001
 9.8257219834e-001	 4.1862336145e+000	-7.0009991831e-002
 9.4248466414e-001	 4.1954406989e+000	-2.3375077689e-002
 9.0242212370e-001	 4.2042400396e+000	 2.4652097910e-002
 8.6239027962e-001	 4.2126337374e+000	 7.4471972610e-002
 8.2239476175e-001	 4.2206239889e+000	 1.2635028111e-001
 7.8244112537e-001	 4.2282130842e+000	 1.8042680803e-001
 1.1900592792e+000	 4.1580504942e+000	-2.6368029073e-001
 1.1497014495e+000	 4.1693898327e+000	-2.2618977621e-001
 1.1093390485e+000	 4.1803100215e+000	-1.8904372813e-001
 1.0689781490e+000	 4.1908126559e+000	-1.5114095990e-001
 1.0286247606e+000	 4.2008994397e+000	-1.1156168382e-001
 9.8828482740e-001	 4.2105721820e+000	-6.9558821981e-002
 9.4796422615e-001	 4.2198327960e+000	-2.4549193561e-002
 9.0766876395e-001	 4.2286832957e+000	 2.3895393313e-002
 8.6740417660e-001	 4.2371257940e+000	 7.6057117263e-002
 8.2717612664e-001	 4.2451625005e+000	 1.3208115994e-001
 7.8699020168e-001	 4.2527957184e+000	 1.9198473671e-001
 1.1969382346e+000	 4.1820854681e+000	-2.2340813949e-001
 1.1563471226e+000	 4.1934903520e+000	-1.9880690876e-001
 1.1157514129e+000	 4.2044736632e+000	-1.7192033579e-001
 1.0751572134e+000	 4.2150370066e+000	-1.4175131682e-001
 1.0345705684e+000	 4.2251820954e+000	-1.0748789904e-001
 9.9399745647e-001	 4.2349107496e+000	-6.8494304317e-002
 9.5344378815e-001	 4.2442248931e+000	-2.4301829095e-002
 9.1291540421e-001	 4.2531265517e+000	 2.5400350517e-002
 8.7241807358e-001	 4.2616178507e+000	 8.0774439996e-002
 8.3195749154e-001	 4.2697010121e+000	 1.4184332643e-001
 7.9153927800e-001	 4.2773783526e+000	 2.0849989054e-001
 1.2038171899e+000	 4.2061204421e+000	-1.8684256534e-001
 1.1629927957e+000	 4.2175908713e+000	-1.7446958529e-001
 1.1221637773e+000	 4.2286373050e+000	-1.5714067181e-001
 1.0813362778e+000	 4.2392613572e+000	-1.3396435479e-001
 1.0405163763e+000	 4.2494647511e+000	-1.0423811273e-001
 9.9971008553e-001	 4.2592493171e+000	-6.7439105652e-002
 9.5892335015e-001	 4.2686169902e+000	-2.3214783931e-002
 9.1816204446e-001	 4.2775698078e+000	 2.8626596942e-002
 8.7743197055e-001	 4.2861099073e+000	 8.8125526818e-002
 8.3673885643e-001	 4.2942395236e+000	 1.5518082822e-001
 7.9608835431e-001	 4.3019609868e+000	 2.2955925321e-001
 1.2106961453e+000	 4.2301554161e+000	-1.5480259473e-001
 1.1696384688e+000	 4.2416913905e+000	-1.5395948232e-001
 1.1285761418e+000	 4.2528009467e+000	-1.4544836802e-001
 1.0875153423e+000	 4.2634857078e+000	-1.2848499320e-001
 1.0464621842e+000	 4.2737474068e+000	-1.0247789149e-001
 1.0054227146e+000	 4.2835878846e+000	-6.7018827000e-002
 9.6440291215e-001	 4.2930090873e+000	-2.1873108614e-002
 9.2340868472e-001	 4.3020130638e+000	 3.3030189376e-002
 8.8244586753e-001	 4.3106019639e+000	 9.7608070498e-002
 8.4152022133e-001	 4.3187780352e+000	 1.7163349437e-001
 8.0063743062e-001	 4.3265436210e+000	 2.5474526199e-001
 1.2175751007e+000	 4.2541903900e+000	-1.2810861634e-001
 1.1762841420e+000	 4.2657919098e+000	-1.3805992929e-001
 1.1349885062e+000	 4.2769645885e+000	-1.3758900353e-001
 1.0936944067e+000	 4.2877100584e+000	-1.2602039673e-001
 1.0524079920e+000	 4.2980300625e+000	-1.0287534855e-001
 1.0111353436e+000	 4.3079264521e+000	-6.7861920697e-002
 9.6988247415e-001	 4.3174011843e+000	-2.0865012757e-002
 9.2865532497e-001	 4.3264563199e+000	 3.8063714837e-002
 8.8745976450e-001	 4.3350940205e+000	 1.0871598055e-001
 8.4630158622e-001	 4.3433165468e+000	 1.9073705456e-001
 8.0518650693e-001	 4.3511262553e+000	 2.8363593614e-001
 1.2244540561e+000	 4.2782253640e+000	-1.0758234278e-001
 1.1829298151e+000	 4.2898924291e+000	-1.2755586209e-001
 1.1414008707e+000	 4.3011282302e+000	-1.3431005009e-001
 1.0998734712e+000	 4.3119344090e+000	-1.2727991225e-001
 1.0583537999e+000	 4.3223127183e+000	-1.0610107232e-001
 1.0168479727e+000	 4.3322650197e+000	-7.0599610303e-002
 9.7536203615e-001	 4.3417932814e+000	-2.0781776306e-002
 9.3390196523e-001	 4.3508995759e+000	 4.3176388040e-002
 8.9247366148e-001	 4.3595860771e+000	 1.2093948948e-001
 8.5108295112e-001	 4.3678550583e+000	 2.1202325422e-001
 8.0973558324e-001	 4.3757088895e+000	 3.1270040489e-001
 1.2313330114e+000	 4.3022603379e+000	-9.4046773634e-002
 1.1895754882e+000	 4.3139929483e+000	-1.2323377818e-001
 1.1478132351e+000	 4.3252918719e+000	-1.3636081915e-001
 1.1060525356e+000	 4.3361587596e+000	-1.3297500791e-001
 1.0642996077e+000	 4.3465953740e+000	-1.1282805717e-001
 1.0225606018e+000	 4.3566035872e+000	-7.5865813195e-002
 9.8084159815e-001	 4.3661853785e+000	-2.2217663777e-002
 9.3914860548e-001	 4.3753428319e+000	 4.6253672602e-002
 8.9748755845e-001	 4.3840781337e+000	 9.2054319120e-002
 8.5586431601e-001	 4.3923935699e+000	 1.5383095456e-001
 8.1428465955e-001	 4.4002915237e+000	 2.3021884818e-001
 1.2382119668e+000	 4.3262953119e+000	-8.8326159708e-002
 1.1962211613e+000	 4.3380934676e+000	-1.2588169328e-001
 1.1542255995e+000	 4.3494555137e+000	-1.4449241082e-001
 1.1122316001e+000	 4.3603831102e+000	-1.4381921416e-001
 1.0702454156e+000	 4.3708780297e+000	-1.2373163664e-001
 1.0282732308e+000	 4.3809421547e+000	-1.1229927454e-001
 9.8632116015e-001	 4.3905774756e+000	-9.9499763372e-002
 9.4439524573e-001	 4.3997860880e+000	-6.7291488659e-002
 9.0250145542e-001	 4.4085701903e+000	-1.7108058936e-002
 8.6064568090e-001	 4.4169320814e+000	 4.9637771800e-002
 8.1883373586e-001	 4.4248741579e+000	 1.3155301879e-001
 7.7334297274e-001	 4.1790478158e+000	 1.7381115677e-001
 7.3390072346e-001	 4.1861545275e+000	 8.0633432654e-002
 6.9451062271e-001	 4.1928695419e+000	-5.7897331986e-003
 6.5517793079e-001	 4.1991953847e+000	-8.6147079447e-002
 6.1590782834e-001	 4.2051346646e+000	-1.4831694978e-001
 5.7670541504e-001	 4.2106900698e+000	-1.4559360333e-001
 5.3757570840e-001	 4.2158643666e+000	-1.1407615645e-001
 4.9852364261e-001	 4.2206603959e+000	-5.8911449786e-002
 4.5955406749e-001	 4.2250810713e+000	 1.5276164655e-002
 4.2067174755e-001	 4.2291293762e+000	 1.0436208450e-001
 3.8188136106e-001	 4.2328083616e+000	 2.0469859514e-001
 7.7789204906e-001	 4.2036304500e+000	 1.7423444141e-001
 7.3821778655e-001	 4.2107789659e+000	 7.1896358214e-002
 6.9859597932e-001	 4.2175334803e+000	-2.3433641392e-002
 6.5903191862e-001	 4.2238965340e+000	-1.1242646266e-001
 6.1953081557e-001	 4.2298707508e+000	-1.8406968046e-001
 5.8009779984e-001	 4.2354588350e+000	-1.6492916244e-001
 5.4073791845e-001	 4.2406635688e+000	-1.2247740631e-001
 5.0145613463e-001	 4.2454878100e+000	-6.1615905970e-002
 4.6225732672e-001	 4.2499344894e+000	 1.3283306477e-002
 4.2314628725e-001	 4.2540066078e+000	 9.8354257160e-002
 3.8412772201e-001	 4.2577072343e+000	 1.9021351107e-001
 7.8244112537e-001	 4.2282130842e+000	 1.8042680803e-001
 7.4253484963e-001	 4.2354034043e+000	 7.2706090901e-002
 7.0268133592e-001	 4.2421974188e+000	-2.7725108231e-002
 6.6288590645e-001	 4.2485976834e+000	-1.2152286449e-001
 6.2315380280e-001	 4.2546068371e+000	-2.0439027183e-001
 5.8349018464e-001	 4.2602276001e+000	-1.7029523838e-001
 5.4390012851e-001	 4.2654627709e+000	-1.1850435438e-001
 5.0438862665e-001	 4.2703152241e+000	-5.3669391630e-002
 4.6496058594e-001	 4.2747879074e+000	 2.0094413310e-002
 4.2562082694e-001	 4.2788838395e+000	 9.9184281531e-002
 3.8637408296e-001	 4.2826061070e+000	 1.8048570565e-001
 7.8699020168e-001	 4.2527957184e+000	 1.9198473671e-001
 7.4685191271e-001	 4.2600278427e+000	 8.2652641405e-002
 7.0676669253e-001	 4.2668613573e+000	-1.9080266158e-002
 6.6673989428e-001	 4.2732988327e+000	-1.1385824163e-001
 6.2677679003e-001	 4.2793429233e+000	-2.0241471874e-001
 5.8688256944e-001	 4.2849963652e+000	-1.6053206476e-001
 5.4706233856e-001	 4.2902619731e+000	-1.0110146408e-001
 5.0732111866e-001	 4.2951426382e+000	-3.4121615339e-002
 4.6766384517e-001	 4.2996413255e+000	 3.6553582717e-002
 4.2809536664e-001	 4.3037610711e+000	 1.0758917935e-001
 3.8862044392e-001	 4.3075049798e+000	 1.7614430952e-001
 7.9153927800e-001	 4.2773783526e+000	 2.0849989054e-001
 7.5116897579e-001	 4.2846522811e+000	 1.0132201534e-001
 7.1085204914e-001	 4.2915252958e+000	 2.0815590716e-003
 6.7059388211e-001	 4.2979999820e+000	-8.9856932866e-002
 6.3039977725e-001	 4.3040790096e+000	-1.7522060616e-001
 5.9027495423e-001	 4.3097651303e+000	-1.3448063761e-001
 5.5022454861e-001	 4.3150611753e+000	-6.9213153426e-002
 5.1025361068e-001	 4.3199700523e+000	-2.0214342861e-003
 4.7036710439e-001	 4.3244947436e+000	 6.3506567555e-002
 4.3056990634e-001	 4.3286383027e+000	 1.2430842916e-001
 3.9086680487e-001	 4.3324038525e+000	 1.7782170902e-001
 7.9608835431e-001	 4.3019609868e+000	 2.2955925321e-001
 7.5548603887e-001	 4.3092767195e+000	 1.2829632770e-001
 7.1493740575e-001	 4.3161892343e+000	 3.5337939623e-002
 6.7444786994e-001	 4.3227011313e+000	-4.9945590976e-002
 6.3402276448e-001	 4.3288150959e+000	-1.2827814435e-001
 5.9366733903e-001	 4.3345338954e+000	-9.0982693559e-002
 5.5338675867e-001	 4.3398603774e+000	-2.1783796366e-002
 5.1318610270e-001	 4.3447974664e+000	 4.3583121391e-002
 4.7307036361e-001	 4.3493481616e+000	 1.0180072869e-001
 4.3304444603e-001	 4.3535155343e+000	 1.5008389616e-001
 3.9311316582e-001	 4.3573027252e+000	 1.8615345312e-001
 8.0063743062e-001	 4.3265436210e+000	 2.5474526199e-001
 7.5980310196e-001	 4.3339011579e+000	 1.6315391333e-001
 7.1902276235e-001	 4.3408531727e+000	 8.0263433709e-002
 6.7830185777e-001	 4.3474022807e+000	 5.4468829825e-003
 6.3764575171e-001	 4.3535511821e+000	-6.2019384813e-002
 5.9705972383e-001	 4.3593026605e+000	-2.8880688839e-002
 5.5654896872e-001	 4.3646595796e+000	 4.2242275983e-002
 5.1611859472e-001	 4.3696248805e+000	 1.0364482511e-001
 4.7577362284e-001	 4.3742015797e+000	 1.5228498929e-001
 4.3551898573e-001	 4.3783927660e+000	 1.7849111391e-001
 3.9535952677e-001	 4.3822015979e+000	 1.9306488286e-001
 8.0518650693e-001	 4.3511262553e+000	 2.8363593614e-001
 7.6412016504e-001	 4.3585255963e+000	 2.0546943378e-001
 7.2310811896e-001	 4.3655171112e+000	 1.3642967073e-001
 6.8215584560e-001	 4.3721034300e+000	 7.5889403189e-002
 6.4126873894e-001	 4.3782872684e+000	 9.2108241197e-003
 6.0045210862e-001	 4.3840714257e+000	 1.4195319929e-002
 5.5971117877e-001	 4.3894587817e+000	 6.4567743608e-002
 5.1905108674e-001	 4.3944522946e+000	 1.0676161311e-001
 4.7847688206e-001	 4.3990549978e+000	 1.4062457330e-001
 4.3799352542e-001	 4.4032699976e+000	 1.6595356125e-001
 3.9760588772e-001	 4.4071004706e+000	 1.8249625701e-001
 8.0973558324e-001	 4.3757088895e+000	 3.1270040489e-001
 7.6843722812e-001	 4.3831500347e+000	 2.1847839525e-001
 7.2719347556e-001	 4.3901810497e+000	 1.3418655359e-001
 6.8600983343e-001	 4.3968045793e+000	 5.8886214121e-002
 6.4489172617e-001	 4.4030233546e+000	-8.3505935308e-003
 6.0384449342e-001	 4.4088401908e+000	-8.3078813209e-003
 5.6287338882e-001	 4.4142579839e+000	 4.3931611580e-002
 5.2198357876e-001	 4.4192797087e+000	 8.8348082715e-002
 4.8118014128e-001	 4.4239084158e+000	 1.2487373985e-001
 4.4046806511e-001	 4.4281472292e+000	 1.5338730834e-001
 3.9985224867e-001	 4.4319993433e+000	 1.7371546388e-001
 8.1428465955e-001	 4.4002915237e+000	 2.3021884818e-001
 7.7275429120e-001	 4.4077744731e+000	 1.5034168485e-001
 7.3127883217e-001	 4.4148449882e+000	 7.9813265363e-002
 6.8986382126e-001	 4.4215057286e+000	 1.7798125696e-002
 6.4851471339e-001	 4.4277594409e+000	-3.6529845426e-002
 6.0723687822e-001	 4.4336089559e+000	-3.7982361165e-002
 5.6603559887e-001	 4.4390571860e+000	 1.7875524475e-002
 5.2491607077e-001	 4.4441071228e+000	 6.6275266079e-002
 4.8388340051e-001	 4.4487618339e+000	 1.0723299263e-001
 4.4294260481e-001	 4.4530244608e+000	 1.4070857015e-001
 4.0209860962e-001	 4.4568982160e+000	 1.6660701704e-001
 8.1883373586e-001	 4.4248741579e+000	 1.3155301879e-001
 7.7707135428e-001	 4.4323989115e+000	 6.7464240422e-002
 7.3536418877e-001	 4.4395089267e+000	 1.2140221653e-002
 6.9371780909e-001	 4.4462068779e+000	-3.5151459141e-002
 6.5213770062e-001	 4.4524955272e+000	-7.5135208314e-002
 6.1062926301e-001	 4.4583777210e+000	-7.4783699879e-002
 5.6919780892e-001	 4.4638563882e+000	-1.3587912109e-002
 5.2784856279e-001	 4.4689345369e+000	 4.0524133808e-002
 4.8658665973e-001	 4.4736152520e+000	 8.7651858147e-002
 4.4541714450e-001	 4.4779016925e+000	 1.2783563140e-001
 4.0434497057e-001	 4.4817970888e+000	 1.6105817277e-001
 3.8188136106e-001	 4.2328083616e+000	 2.0469859514e-001
 3.4318749924e-001	 4.2361211433e+000	 2.4420575213e-001
 3.0459466554e-001	 4.2390708994e+000	 2.8575721848e-001
 2.6610727498e-001	 4.2416608679e+000	 3.2730618147e-001
 2.2772965353e-001	 4.2438943442e+000	 3.6718808514e-001
 1.8946603763e-001	 4.2457746785e+000	 4.0409782631e-001
 1.5132057376e-001	 4.2473052732e+000	 4.3706717355e-001
 1.1329731804e-001	 4.2484895807e+000	 4.6544245587e-001
 7.5400235934e-002	 4.2493311008e+000	 4.8886256530e-001
 3.7633202065e-002	 4.2498333782e+000	 5.0723731475e-001
 0.0000000000e+000	 4.2500000000e+000	 5.2072618971e-001
 3.8412772201e-001	 4.2577072343e+000	 1.9021351107e-001
 3.4520624924e-001	 4.2610395029e+000	 2.2389450639e-001
 3.0638639888e-001	 4.2640066105e+000	 2.5724430660e-001
 2.6767261190e-001	 4.2666118142e+000	 2.8846121454e-001
 2.2906923973e-001	 4.2688584286e+000	 3.1612826798e-001
 1.9058054374e-001	 4.2707498237e+000	 3.3918987540e-001
 1.5221069479e-001	 4.2722894219e+000	 3.5692868772e-001
 1.1396377285e-001	 4.2734806959e+000	 3.6894275358e-001
 7.5843766737e-002	 4.2743271661e+000	 3.7512300321e-001
 3.7854573843e-002	 4.2748323980e+000	 3.7563110269e-001
 0.0000000000e+000	 4.2750000000e+000	 3.7087771792e-001
 3.8637408296e-001	 4.2826061070e+000	 1.8048570565e-001
 3.4722499924e-001	 4.2859578626e+000	 2.0576667814e-001
 3.0817813221e-001	 4.2889423217e+000	 2.2821900815e-001
 2.6923794881e-001	 4.2915627605e+000	 2.4629127865e-001
 2.3040882593e-001	 4.2938225130e+000	 2.5881933547e-001
 1.9169504985e-001	 4.2957249688e+000	 2.6500235385e-001
 1.5310081581e-001	 4.2972735706e+000	 2.6437915425e-001
 1.1463022767e-001	 4.2984718111e+000	 2.5680481581e-001
 7.6287297539e-002	 4.2993232314e+000	 2.4242763302e-001
 3.8075945621e-002	 4.2998314179e+000	 2.2166645845e-001
 0.0000000000e+000	 4.3000000000e+000	 1.9518847110e-001
 3.8862044392e-001	 4.3075049798e+000	 1.7614430952e-001
 3.4924374924e-001	 4.3108762223e+000	 1.9034940945e-001
 3.0996986554e-001	 4.3138780329e+000	 1.9910608902e-001
 2.7080328573e-001	 4.3165137067e+000	 2.0111843649e-001
 2.3174841213e-001	 4.3187865974e+000	 1.9548038020e-001
 1.9280955596e-001	 4.3207001140e+000	 1.8165117704e-001
 1.5399093684e-001	 4.3222577192e+000	 1.5943116348e-001
 1.1529668248e-001	 4.3234629263e+000	 1.2893781860e-001
 7.6730828340e-002	 4.3243192967e+000	 9.0582185395e-002
 3.8297317399e-002	 4.3248304378e+000	 4.5045693612e-002
 0.0000000000e+000	 4.3250000000e+000	-6.7425753003e-003
 3.9086680487e-001	 4.3324038525e+000	 1.7782170902e-001
 3.5126249924e-001	 4.3357945819e+000	 1.7817374105e-001
 3.1176159887e-001	 4.3388137440e+000	 1.7033484675e-001
 2.7236862265e-001	 4.3414646530e+000	 1.5326990517e-001
 2.3308799833e-001	 4.3437506817e+000	 1.2633626173e-001
 1.9392406206e-001	 4.3456752592e+000	 8.9258629406e-002
 1.5488105786e-001	 4.3472418679e+000	 4.2104266273e-002
 1.1596313730e-001	 4.3484540415e+000	-1.4741520552e-002
 7.7174359142e-002	 4.3493153620e+000	-8.0599497488e-002
 3.8518689177e-002	 4.3498294576e+000	-1.5452020955e-001
 0.0000000000e+000	 4.3500000000e+000	-2.3530722687e-001
 3.9311316582e-001	 4.3573027252e+000	 1.8615345312e-001
 3.5328124924e-001	 4.3607129416e+000	 1.6977450096e-001
 3.1355333220e-001	 4.3637494552e+000	 1.4233898101e-001
 2.7393395956e-001	 4.3664155993e+000	 1.0307790898e-001
 2.3442758453e-001	 4.3687147661e+000	 5.1617441772e-002
 1.9503856817e-001	 4.3706504043e+000	-1.2046817580e-002
 1.5577117889e-001	 4.3722260166e+000	-8.7575224816e-002
 1.1662959211e-001	 4.3734451567e+000	-1.7430915826e-001
 7.7617889943e-002	 4.3743114273e+000	-2.7129569373e-001
 3.8740060954e-002	 4.3748284775e+000	-3.7731184578e-001
 0.0000000000e+000	 4.3750000000e+000	-4.9088833365e-001
 3.9535952677e-001	 4.3822015979e+000	 1.9306488286e-001
 3.5529999924e-001	 4.3856313013e+000	 1.6443769078e-001
 3.1534506553e-001	 4.3886851664e+000	 1.3139765731e-001
 2.7549929647e-001	 4.3913665456e+000	 9.3601787053e-002
 2.3576717073e-001	 4.3936788505e+000	 5.0660175609e-002
 1.9615307428e-001	 4.3956255495e+000	 2.1378075651e-003
 1.5666129991e-001	 4.3972101652e+000	-5.2443598902e-002
 1.1729604692e-001	 4.3984362718e+000	-1.1360370635e-001
 7.8061420743e-002	 4.3993074926e+000	-1.8190163674e-001
 3.8961432732e-002	 4.3998274974e+000	-2.5793401984e-001
 0.0000000000e+000	 4.4000000000e+000	-3.4233301651e-001
 3.9760588772e-001	 4.4071004706e+000	 1.8249625701e-001
 3.5731874924e-001	 4.4105496609e+000	 1.6114812394e-001
 3.1713679886e-001	 4.4136208776e+000	 1.3757796577e-001
 2.7706463339e-001	 4.4163174919e+000	 1.1148363087e-001
 2.3710675693e-001	 4.4186429349e+000	 8.2512625527e-002
 1.9726758038e-001	 4.4206006947e+000	 5.0263957149e-002
 1.5755142094e-001	 4.4221943139e+000	 1.4290027556e-002
 1.1796250174e-001	 4.4234273870e+000	-2.5901429407e-002
 7.8504951544e-002	 4.4243035579e+000	-7.0845371538e-002
 3.9182804509e-002	 4.4248265173e+000	-1.2111743875e-001
 0.0000000000e+000	 4.4250000000e+000	-1.7733191580e-001
 3.9985224867e-001	 4.4319993433e+000	 1.7371546388e-001
 3.5933749924e-001	 4.4354680206e+000	 1.6112359141e-001
 3.1892853219e-001	 4.4385565887e+000	 1.4849103920e-001
 2.7862997030e-001	 4.4412684381e+000	 1.3555611854e-001
 2.3844634313e-001	 4.4436070192e+000	 1.2200336679e-001
 1.9838208649e-001	 4.4455758398e+000	 1.0746543625e-001
 1.5844154196e-001	 4.4471784626e+000	 9.1525036374e-002
 1.1862895655e-001	 4.4484185022e+000	 7.3716923695e-002
 7.8948482344e-002	 4.4492996232e+000	 5.3529933527e-002
 3.9404176286e-002	 4.4498255371e+000	 3.0409047695e-002
 0.0000000000e+000	 4.4500000000e+000	 3.7574927324e-003
 4.0209860962e-001	 4.4568982160e+000	 1.6660701704e-001
 3.6135624923e-001	 4.4603863803e+000	 1.6422292836e-001
 3.2072026552e-001	 4.4634922999e+000	 1.6397052833e-001
 2.8019530721e-001	 4.4662193844e+000	 1.6562821562e-001
 2.3978592933e-001	 4.4685711036e+000	 1.6891718405e-001
 1.9949659259e-001	 4.4705509850e+000	 1.7350335732e-001
 1.5933166298e-001	 4.4721626112e+000	 1.7899938064e-001
 1.1929541136e-001	 4.4734096174e+000	 1.8496666325e-001
 7.9392013143e-002	 4.4742956885e+000	 1.9091746584e-001
 3.9625548063e-002	 4.4748245570e+000	 1.9631702678e-001
 0.0000000000e+000	 4.4750000000e+000	 2.0058572167e-001
 4.0434497057e-001	 4.4817970888e+000	 1.6105817277e-001
 3.6337499923e-001	 4.4853047399e+000	 1.7030825435e-001
 3.2251199884e-001	 4.4884280111e+000	 1.8385390150e-001
 2.8176064413e-001	 4.4911703307e+000	 2.0151322997e-001
 2.4112551553e-001	 4.4935351880e+000	 2.2304372020e-001
 2.0061109869e-001	 4.4955261302e+000	 2.4814419827e-001
 1.6022178400e-001	 4.4971467599e+000	 2.7645687724e-001
 1.1996186617e-001	 4.4984007326e+000	 3.0756945271e-001
 7.9835543943e-002	 4.4992917538e+000	 3.4101724619e-001
 3.9846919840e-002	 4.4998235769e+000	 3.7628539032e-001
 0.0000000000e+000	 4.5000000000e+000	 4.1281104995e-001
 4.5000000000e+000	 0.0000000000e+000	 2.1007089806e+000
 4.4998235769e+000	 3.9846919840e-002	 1.9590186295e+000
 4.4992917538e+000	 7.9835543943e-002	 1.8174730348e+000
 4.4984007326e+000	 1.1996186617e-001	 1.6787742336e+000
 4.4971467599e+000	 1.6022178400e-001	 1.5454023390e+000
 4.4955261302e+000	 2.0061109869e-001	 1.4196052231e+000
 4.4935351880e+000	 2.4112551553e-001	 1.3033883846e+000
 4.4911703307e+000	 2.8176064413e-001	 1.1985050315e+000
 4.4884280111e+000	 3.2251199884e-001	 1.1064464085e+000
 4.4853047399e+000	 3.6337499923e-001	 1.0284323977e+000
 4.4817970888e+000	 4.0434497057e-001	 9.6540242525e-001
 4.5250000000e+000	 0.0000000000e+000	 1.8642975125e+000
 4.5248225967e+000	 4.0068291616e-002	 1.7476347413e+000
 4.5242878191e+000	 8.0279074742e-002	 1.6302091352e+000
 4.5233918477e+000	 1.2062832098e-001	 1.5146659546e+000
 4.5221309085e+000	 1.6111190503e-001	 1.4034242198e+000
 4.5205012753e+000	 2.0172560480e-001	 1.2986663095e+000
 4.5184992724e+000	 2.4246510172e-001	 1.2023277514e+000
 4.5161212770e+000	 2.8332598104e-001	 1.1160872337e+000
 4.5133637222e+000	 3.2430373217e-001	 1.0413568675e+000
 4.5102230996e+000	 3.6539374923e-001	 9.7927273164e-001
 4.5066959615e+000	 4.0659133152e-001	 9.3068572926e-001
 4.5500000000e+000	 0.0000000000e+000	 1.6359184030e+000
 4.5498216166e+000	 4.0289663393e-002	 1.5423243040e+000
 4.5492838844e+000	 8.0722605541e-002	 1.4471560445e+000
 4.5483829629e+000	 1.2129477580e-001	 1.3530037183e+000
 4.5471150572e+000	 1.6200202605e-001	 1.2622267867e+000
 4.5454764205e+000	 2.0284011090e-001	 1.1769435901e+000
 4.5434633567e+000	 2.4380468792e-001	 1.0990210572e+000
 4.5410722233e+000	 2.8489131795e-001	 1.0300646421e+000
 4.5382994334e+000	 3.2609546550e-001	 9.7140851952e-001
 4.5351414592e+000	 3.6741249922e-001	 9.2410606906e-001
 4.5315948342e+000	 4.0883769246e-001	 8.8892067996e-001
 4.5750000000e+000	 0.0000000000e+000	 1.4154634806e+000
 4.5748206365e+000	 4.0511035169e-002	 1.3430050601e+000
 4.5742799497e+000	 8.1166136340e-002	 1.2682574402e+000
 4.5733740781e+000	 1.2196123061e-001	 1.1937571478e+000
 4.5720992059e+000	 1.6289214707e-001	 1.1218056085e+000
 4.5704515657e+000	 2.0395461700e-001	 1.0544585677e+000
 4.5684274411e+000	 2.4514427412e-001	 9.9351571571e-001
 4.5660231695e+000	 2.8645665486e-001	 9.4051054635e-001
 4.5632351446e+000	 3.2788719882e-001	 8.9670048201e-001
 4.5600598189e+000	 3.6943124922e-001	 8.6305729443e-001
 4.5564937069e+000	 4.1108405341e-001	 8.4025785425e-001
 4.6000000000e+000	 0.0000000000e+000	 1.2028269257e+000
 4.5998196564e+000	 4.0732406946e-002	 1.1495965807e+000
 4.5992760150e+000	 8.1609667139e-002	 1.0934583171e+000
 4.5983651933e+000	 1.2262768542e-001	 1.0368966845e+000
 4.5970833545e+000	 1.6378226809e-001	 9.8215658574e-001
 4.5954267108e+000	 2.0506912311e-001	 9.3123260384e-001
 4.5933915255e+000	 2.4648386031e-001	 8.8585853924e-001
 4.5909741158e+000	 2.8802199177e-001	 8.4749718780e-001
 4.5881708558e+000	 3.2967893215e-001	 8.1733039137e-001
 4.5849781786e+000	 3.7144999921e-001	 7.9624939234e-001
 4.5813925796e+000	 4.1333041436e-001	 7.8484552480e-001
 4.6250000000e+000	 0.0000000000e+000	 9.9790520628e-001
 4.6248186762e+000	 4.0953778723e-002	 9.6202021607e-001
 4.6242720803e+000	 8.2053197938e-002	 9.2270495188e-001
 4.6233563085e+000	 1.2329414023e-001	 8.8239356638e-001
 4.6220675032e+000	 1.6467238911e-001	 8.4327594228e-001
 4.6204018560e+000	 2.0618362921e-001	 8.0728692216e-001
 4.6183556099e+000	 2.4782344651e-001	 7.7609575456e-001
 4.6159250621e+000	 2.8958732868e-001	 7.5109578771e-001
 4.6131065669e+000	 3.3147066547e-001	 7.3339444275e-001
 4.6098965382e+000	 3.7346874920e-001	 7.2380349879e-001
 4.6062914523e+000	 4.1557677530e-001	 7.2282972239e-001
 4.6500000000e+000	 0.0000000000e+000	 8.0059701715e-001
 4.6498176961e+000	 4.1175150499e-002	 7.8019904737e-001
 4.6492681456e+000	 8.2496728737e-002	 7.5594486825e-001
 4.6483474236e+000	 1.2396059504e-001	 7.3021980607e-001
 4.6470516519e+000	 1.6556251013e-001	 7.0516021627e-001
 4.6453770012e+000	 2.0729813531e-001	 6.8264261260e-001
 4.6433196943e+000	 2.4916303270e-001	 6.6427301884e-001
 4.6408760084e+000	 2.9115266559e-001	 6.5137657475e-001
 4.6380422781e+000	 3.3326239880e-001	 6.4498742890e-001
 4.6348148979e+000	 3.7548749920e-001	 6.4583895085e-001
 4.6311903250e+000	 4.1782313625e-001	 6.5435429611e-001
 4.6750000000e+000	 0.0000000000e+000	 6.1080321992e-001
 4.6748167160e+000	 4.1396522276e-002	 6.0405784093e-001
 4.6742642109e+000	 8.2940259537e-002	 5.9312680392e-001
 4.6733385388e+000	 1.2462704985e-001	 5.8034817039e-001
 4.6720358005e+000	 1.6645263115e-001	 5.6780625182e-001
 4.6703521463e+000	 2.0841264141e-001	 5.5732063478e-001
 4.6682837786e+000	 2.5050261890e-001	 5.5043543483e-001
 4.6658269547e+000	 2.9271800250e-001	 5.4840881155e-001
 4.6629779893e+000	 3.3505413212e-001	 5.5220277757e-001
 4.6597332576e+000	 3.7750624919e-001	 5.6247333483e-001
 4.6560891977e+000	 4.2006949719e-001	 5.7956097174e-001
 4.7000000000e+000	 0.0000000000e+000	 4.2842678557e-001
 4.6998157358e+000	 4.1617894052e-002	 4.3352300310e-001
 4.6992602762e+000	 8.3383790336e-002	 4.3420067817e-001
 4.6983296540e+000	 1.2529350466e-001	 4.3275216025e-001
 4.6970199492e+000	 1.6734275217e-001	 4.3121119092e-001
 4.6953272915e+000	 2.0952714752e-001	 4.3134182146e-001
 4.6932478630e+000	 2.5184220510e-001	 4.3462756562e-001
 4.6907779010e+000	 2.9428333941e-001	 4.4226082036e-001
 4.6879137004e+000	 3.3684586545e-001	 4.5513258789e-001
 4.6846516172e+000	 3.7952499918e-001	 4.7382253277e-001
 4.6809880705e+000	 4.2231585814e-001	 4.9858940821e-001
 4.7250000000e+000	 0.0000000000e+000	 2.5337273859e-001
 4.7248147557e+000	 4.1839265829e-002	 2.6852253700e-001
 4.7242563415e+000	 8.3827321135e-002	 2.7911756063e-001
 4.7233207692e+000	 1.2595995947e-001	 2.8740599122e-001
 4.7220040979e+000	 1.6823287319e-001	 2.9537246550e-001
 4.7203024367e+000	 2.1064165362e-001	 3.0472688192e-001
 4.7182119474e+000	 2.5318179129e-001	 3.1689344889e-001
 4.7157288472e+000	 2.9584867632e-001	 3.3300000794e-001
 4.7128494116e+000	 3.3863759877e-001	 3.5386766548e-001
 4.7095699769e+000	 3.8154374918e-001	 3.8000076758e-001
 4.7058869432e+000	 4.2456221908e-001	 4.1157725225e-001
 4.7500000000e+000	 0.0000000000e+000	 8.5548102965e-002
 4.7498137756e+000	 4.2060637605e-002	 1.0898600044e-001
 4.7492524068e+000	 8.4270851934e-002	 1.2782964101e-001
 4.7483118844e+000	 1.2662641428e-001	 1.4428457472e-001
 4.7469882465e+000	 1.6912299422e-001	 1.6028778983e-001
 4.7452775818e+000	 2.1175615972e-001	 1.7749640520e-001
 4.7431760318e+000	 2.5452137749e-001	 1.9727661077e-001
 4.7406797935e+000	 2.9741401323e-001	 2.2069288967e-001
 4.7377851228e+000	 3.4042933210e-001	 2.4849755652e-001
 4.7344883366e+000	 3.8356249917e-001	 2.8112064668e-001
 4.7307858159e+000	 4.2680858003e-001	 3.1866019141e-001
 4.4817970888e+000	 4.0434497057e-001	 9.6540242525e-001
 4.4779016925e+000	 4.4541714450e-001	 9.5271490991e-001
 4.4736152520e+000	 4.8658665973e-001	 9.3086942677e-001
 4.4689345369e+000	 5.2784856279e-001	 8.9931941213e-001
 4.4638563882e+000	 5.6919780892e-001	 8.5721505805e-001
 4.4583777210e+000	 6.1062926301e-001	 8.0339697599e-001
 4.4524955272e+000	 6.5213770062e-001	 6.6410541568e-001
 4.4462068779e+000	 6.9371780909e-001	 5.0847394067e-001
 4.4395089267e+000	 7.3536418877e-001	 3.8196221619e-001
 4.4323989115e+000	 7.7707135428e-001	 2.8403765296e-001
 4.4248741579e+000	 8.1883373586e-001	 2.1404645516e-001
 4.5066959615e+000	 4.0659133152e-001	 9.3068572926e-001
 4.5027789241e+000	 4.4789168419e-001	 9.2399184175e-001
 4.4984686700e+000	 4.8928991895e-001	 9.0751847412e-001
 4.4937619509e+000	 5.3078105481e-001	 8.8067032135e-001
 4.4886555903e+000	 5.7236001898e-001	 8.4254417441e-001
 4.4831464861e+000	 6.1402164781e-001	 7.9192253246e-001
 4.4772316134e+000	 6.5576068785e-001	 6.5381419973e-001
 4.4709080272e+000	 6.9757179692e-001	 5.1086342212e-001
 4.4641728651e+000	 7.3944954538e-001	 3.9438139461e-001
 4.4570233499e+000	 7.8138841736e-001	 3.0381249097e-001
 4.4494567921e+000	 8.2338281217e-001	 2.3848035964e-001
 4.5315948342e+000	 4.0883769246e-001	 8.8892067996e-001
 4.5276561557e+000	 4.5036622388e-001	 8.8825861219e-001
 4.5233220881e+000	 4.9199317817e-001	 8.7729558713e-001
 4.5185893650e+000	 5.3371354682e-001	 8.5538779539e-001
 4.5134547925e+000	 5.7552222903e-001	 8.2157875462e-001
 4.5079152512e+000	 6.1741403260e-001	 7.7459286819e-001
 4.5019676997e+000	 6.5938367507e-001	 6.3965656880e-001
 4.4956091766e+000	 7.0142578475e-001	 5.0927339714e-001
 4.4888368036e+000	 7.4353490198e-001	 4.0276229333e-001
 4.4816477883e+000	 7.8570548043e-001	 3.1954514062e-001
 4.4740394263e+000	 8.2793188848e-001	 2.5892353738e-001
 4.5564937069e+000	 4.1108405341e-001	 8.4025785425e-001
 4.5525333873e+000	 4.5284076358e-001	 8.4567547060e-001
 4.5481755061e+000	 4.9469643739e-001	 8.4037072415e-001
 4.5434167791e+000	 5.3664603884e-001	 8.2365153065e-001
 4.5382539946e+000	 5.7868443908e-001	 7.9450825454e-001
 4.5326840163e+000	 6.2080641740e-001	 7.5160721159e-001
 4.5267037859e+000	 6.6300666230e-001	 6.2166805348e-001
 4.5203103259e+000	 7.0527977258e-001	 5.0373463748e-001
 4.5135007421e+000	 7.4762025859e-001	 4.0713051209e-001
 4.5062722267e+000	 7.9002254351e-001	 3.3125561493e-001
 4.4986220605e+000	 8.3248096479e-001	 2.7538999860e-001
 4.5813925796e+000	 4.1333041436e-001	 7.8484552480e-001
 4.5774106189e+000	 4.5531530327e-001	 7.9640031900e-001
 4.5730289242e+000	 4.9739969661e-001	 7.9691146501e-001
 4.5682441932e+000	 5.3957853085e-001	 7.8563882609e-001
 4.5630531968e+000	 5.8184664912e-001	 7.6151972585e-001
 4.5574527815e+000	 6.2419880219e-001	 7.2316239266e-001
 4.5514398722e+000	 6.6662964952e-001	 5.9988180416e-001
 4.5450114752e+000	 7.0913376041e-001	 4.9427556560e-001
 4.5381646806e+000	 7.5170561519e-001	 4.0750934493e-001
 4.5308966650e+000	 7.9433960659e-001	 3.3896167766e-001
 4.5232046947e+000	 8.3703004110e-001	 2.8789157364e-001
 4.6062914523e+000	 4.1557677530e-001	 7.2282972239e-001
 4.6022878506e+000	 4.5778984296e-001	 7.4058877549e-001
 4.5978823423e+000	 5.0010295583e-001	 7.4708307534e-001
 4.5930716073e+000	 5.4251102287e-001	 7.4152464797e-001
 4.5878523989e+000	 5.8500885917e-001	 7.2279788107e-001
 4.5822215466e+000	 6.2759118699e-001	 6.8466510309e-001
 4.5761759585e+000	 6.7025263675e-001	 5.7432865537e-001
 4.5697126245e+000	 7.1298774823e-001	 4.8092231810e-001
 4.5628286191e+000	 7.5579097179e-001	 4.0391984251e-001
 4.5555211034e+000	 7.9865666967e-001	 3.4267890413e-001
 4.5477873289e+000	 8.4157911741e-001	 2.9643797189e-001
 4.6311903250e+000	 4.1782313625e-001	 6.5435429611e-001
 4.6271650822e+000	 4.6026438265e-001	 6.7839423563e-001
 4.6227357603e+000	 5.0280621505e-001	 6.9104856875e-001
 4.6178990214e+000	 5.4544351488e-001	 6.9148169260e-001
 4.6126516011e+000	 5.8817106922e-001	 6.7852515641e-001
 4.6069903117e+000	 6.3098357178e-001	 6.4094285865e-001
 4.6009120447e+000	 6.7387562397e-001	 5.4503718805e-001
 4.5944137738e+000	 7.1684173606e-001	 4.6369880725e-001
 4.5874925575e+000	 7.5987632840e-001	 3.9638087240e-001
 4.5801455418e+000	 8.0297373275e-001	 3.4242074002e-001
 4.5723699631e+000	 8.4612819372e-001	 3.0103683880e-001
 4.6560891977e+000	 4.2006949719e-001	 5.7956097174e-001
 4.6520423138e+000	 4.6273892234e-001	 6.0996793190e-001
 4.6475891784e+000	 5.0550947427e-001	 6.2896876707e-001
 4.6427264355e+000	 5.4837600689e-001	 6.3568044699e-001
 4.6374508033e+000	 5.9133327927e-001	 6.2888177265e-001
 4.6317590768e+000	 6.3437595657e-001	 5.9369706596e-001
 4.6256481310e+000	 6.7749861120e-001	 5.1203378976e-001
 4.6191149232e+000	 7.2069572389e-001	 4.4262678041e-001
 4.6121564960e+000	 7.6396168500e-001	 3.8490917749e-001
 4.6047699802e+000	 8.0729079583e-001	 3.3819855833e-001
 4.5969525973e+000	 8.5067727003e-001	 3.0169381107e-001
 4.6809880705e+000	 4.2231585814e-001	 4.9858940821e-001
 4.6769195454e+000	 4.6521346202e-001	 5.3545899119e-001
 4.6724425965e+000	 5.0821273349e-001	 5.6100235863e-001
 4.6675538496e+000	 5.5130849891e-001	 5.7428924767e-001
 4.6622500054e+000	 5.9449548931e-001	 5.7404579406e-001
 4.6565278419e+000	 6.3776834136e-001	 5.4295623838e-001
 4.6503842172e+000	 6.8112159842e-001	 4.7534271307e-001
 4.6438160725e+000	 7.2454971171e-001	 4.1772587762e-001
 4.6368204345e+000	 7.6804704160e-001	 3.6951943245e-001
 4.6293944186e+000	 8.1160785890e-001	 3.3002171450e-001
 4.6215352316e+000	 8.5522634634e-001	 2.9841257007e-001
 4.7058869432e+000	 4.2456221908e-001	 4.1157725225e-001
 4.7017967771e+000	 4.6768800171e-001	 4.5501449051e-001
 4.6972960145e+000	 5.1091599270e-001	 4.8730595470e-001
 4.6923812637e+000	 5.5424099092e-001	 5.0747433751e-001
 4.6870492076e+000	 5.9765769936e-001	 5.1419318542e-001
 4.6812966070e+000	 6.4116072615e-001	 4.8874679483e-001
 4.6751203035e+000	 6.8474458564e-001	 4.3498613200e-001
 4.6685172218e+000	 7.2840369954e-001	 3.8901368735e-001
 4.6614843730e+000	 7.7213239820e-001	 3.5022429849e-001
 4.6540188570e+000	 8.1592492198e-001	 3.1789759979e-001
 4.6461178658e+000	 8.5977542265e-001	 2.9119489358e-001
 4.7307858159e+000	 4.2680858003e-001	 3.1866019141e-001
 4.7266740087e+000	 4.7016254140e-001	 3.6877951098e-001
 4.7221494326e+000	 5.1361925192e-001	 4.0803414415e-001
 4.7172086778e+000	 5.5717348293e-001	 4.3539992086e-001
 4.7118484097e+000	 6.0081990940e-001	 4.4949786733e-001
 4.7060653722e+000	 6.4455311094e-001	 4.3109311488e-001
 4.6998563898e+000	 6.8836757286e-001	 3.9098419675e-001
 4.6932183711e+000	 7.3225768736e-001	 3.5650580048e-001
 4.6861483115e+000	 7.7621775480e-001	 3.2703447630e-001
 4.6786432954e+000	 8.2024198506e-001	 3.0183169295e-001
 4.6707005000e+000	 8.6432449896e-001	 2.8004070588e-001
 4.4248741579e+000	 8.1883373586e-001	 2.1404645516e-001
 4.4169320814e+000	 8.6064568090e-001	 2.8466451500e-001
 4.4085701903e+000	 9.0250145542e-001	 3.5005499130e-001
 4.3997860880e+000	 9.4439524573e-001	 4.0836978790e-001
 4.3905774756e+000	 9.8632116015e-001	 4.5764273000e-001
 4.3809421547e+000	 1.0282732308e+000	 4.9578826133e-001
 4.3708780297e+000	 1.0702454156e+000	 5.1129029184e-001
 4.3603831102e+000	 1.1122316001e+000	 4.9764586920e-001
 4.3494555137e+000	 1.1542255995e+000	 4.7119073973e-001
 4.3380934676e+000	 1.1962211613e+000	 4.3605954108e-001
 4.3262953119e+000	 1.2382119668e+000	 3.9684912002e-001
 4.4494567921e+000	 8.2338281217e-001	 2.3848035964e-001
 4.4414705930e+000	 8.6542704580e-001	 3.0143930967e-001
 4.4330622469e+000	 9.0751535240e-001	 3.5911166117e-001
 4.4242293440e+000	 9.4964188598e-001	 4.0968420180e-001
 4.4149695727e+000	 9.9180072215e-001	 4.5122477787e-001
 4.4052807222e+000	 1.0339858599e+000	 4.8168092557e-001
 4.3951606854e+000	 1.0761912235e+000	 4.9887870220e-001
 4.3846074608e+000	 1.1184106645e+000	 5.0052172688e-001
 4.3736191554e+000	 1.1606379640e+000	 4.8160741587e-001
 4.3621939868e+000	 1.2028668344e+000	 4.2910112795e-001
 4.3503302858e+000	 1.2450909222e+000	 3.6807081829e-001
 4.4740394263e+000	 8.2793188848e-001	 2.5892353738e-001
 4.4660091046e+000	 8.7020841069e-001	 3.1505842264e-001
 4.4575543036e+000	 9.1252924937e-001	 3.6587639534e-001
 4.4486726001e+000	 9.5488852624e-001	 4.0959897032e-001
 4.4393616698e+000	 9.9728028415e-001	 4.4432782148e-001
 4.4296192898e+000	 1.0396984889e+000	 4.6804334655e-001
 4.4194433411e+000	 1.0821370313e+000	 4.7860343283e-001
 4.4088318115e+000	 1.1245897290e+000	 4.7374243382e-001
 4.3977827972e+000	 1.1670503284e+000	 4.5107036630e-001
 4.3862945061e+000	 1.2095125075e+000	 4.0807233754e-001
 4.3743652598e+000	 1.2519698775e+000	 3.4935642805e-001
 4.4986220605e+000	 8.3248096479e-001	 2.7538999860e-001
 4.4905476161e+000	 8.7498977558e-001	 3.2551751366e-001
 4.4820463602e+000	 9.1754314634e-001	 3.7032653631e-001
 4.4731158561e+000	 9.6013516649e-001	 4.0807315964e-001
 4.4637537669e+000	 1.0027598461e+000	 4.3689269938e-001
 4.4539578573e+000	 1.0454111180e+000	 4.5479819148e-001
 4.4437259969e+000	 1.0880828392e+000	 4.5967909180e-001
 4.4330561621e+000	 1.1307687934e+000	 4.4930018797e-001
 4.4219464389e+000	 1.1734626929e+000	 4.2130073330e-001
 4.4103950254e+000	 1.2161581807e+000	 3.7319381242e-001
 4.3984002337e+000	 1.2588488329e+000	 3.3514154370e-001
 4.5232046947e+000	 8.3703004110e-001	 2.8789157364e-001
 4.5150861277e+000	 8.7977114048e-001	 3.3281040434e-001
 4.5065384168e+000	 9.2255704332e-001	 3.7243793348e-001
 4.4975591122e+000	 9.6538180674e-001	 4.0506469106e-001
 4.4881458639e+000	 1.0082394081e+000	 4.2885945643e-001
 4.4782964248e+000	 1.0511237471e+000	 4.4186768804e-001
 4.4680086526e+000	 1.0940286471e+000	 4.4201015635e-001
 4.4572805127e+000	 1.1369478578e+000	 4.2708179036e-001
 4.4461100807e+000	 1.1798750573e+000	 3.9475074780e-001
 4.4344955446e+000	 1.2228038538e+000	 3.4255771869e-001
 4.4224352077e+000	 1.2657277883e+000	 3.2300105909e-001
 4.5477873289e+000	 8.4157911741e-001	 2.9643797189e-001
 4.5396246393e+000	 8.8455250537e-001	 3.3692912787e-001
 4.5310304734e+000	 9.2757094029e-001	 3.7218498353e-001
 4.5220023682e+000	 9.7062844700e-001	 4.0053037190e-001
 4.5125379610e+000	 1.0137189701e+000	 4.2016736527e-001
 4.5026349923e+000	 1.0568363761e+000	 4.2917363624e-001
 4.4922913083e+000	 1.0999744549e+000	 4.2550102333e-001
 4.4815048633e+000	 1.1431269223e+000	 4.0697431151e-001
 4.4702737224e+000	 1.1862874218e+000	 3.7129023807e-001
 4.4585960639e+000	 1.2294495269e+000	 3.1601673364e-001
 4.4464701816e+000	 1.2726067437e+000	 3.1334321078e-001
 4.5723699631e+000	 8.4612819372e-001	 3.0103683880e-001
 4.5641631508e+000	 8.8933387026e-001	 3.3786397707e-001
 4.5555225300e+000	 9.3258483726e-001	 3.6954066941e-001
 4.5464456242e+000	 9.7587508725e-001	 3.9442592545e-001
 4.5369300581e+000	 1.0191985321e+000	 4.1075494702e-001
 4.5269735599e+000	 1.0625490052e+000	 4.1663741991e-001
 4.5165739640e+000	 1.1059202628e+000	 4.1005601137e-001
 4.5057292139e+000	 1.1493059867e+000	 3.8886508416e-001
 4.4944373641e+000	 1.1926997862e+000	 3.5078963744e-001
 4.4826965832e+000	 1.2360952000e+000	 2.9342448481e-001
 4.4705051556e+000	 1.2794856990e+000	 3.0612136745e-001
 4.5969525973e+000	 8.5067727003e-001	 3.0169381107e-001
 4.5887016624e+000	 8.9411523516e-001	 3.3560355094e-001
 4.5800145866e+000	 9.3759873424e-001	 3.6447659822e-001
 4.5708888803e+000	 9.8112172750e-001	 3.8670601998e-001
 4.5613221552e+000	 1.0246780942e+000	 4.0055999146e-001
 4.5513121274e+000	 1.0682616342e+000	 4.0418001783e-001
 4.5408566198e+000	 1.1118660707e+000	 3.9557936297e-001
 4.5299535645e+000	 1.1554850512e+000	 3.7264169629e-001
 4.5186010059e+000	 1.1991121506e+000	 3.3311996821e-001
 4.5067971024e+000	 1.2427408731e+000	 2.7463552454e-001
 4.4945401296e+000	 1.2863646544e+000	 3.0129016055e-001
 4.6215352316e+000	 8.5522634634e-001	 2.9841257007e-001
 4.6132401739e+000	 8.9889660005e-001	 3.3013479969e-001
 4.6045066432e+000	 9.4261263121e-001	 3.5696303776e-001
 4.5953321363e+000	 9.8636836776e-001	 3.7732429677e-001
 4.5857142523e+000	 1.0301576562e+000	 3.8951957642e-001
 4.5756506949e+000	 1.0739742633e+000	 3.9172201452e-001
 4.5651392755e+000	 1.1178118785e+000	 3.8197524650e-001
 4.5541779151e+000	 1.1616641156e+000	 3.5819198433e-001
 4.5427646476e+000	 1.2055245151e+000	 3.1815282591e-001
 4.5308976217e+000	 1.2493865463e+000	 2.5950530539e-001
 4.5185751035e+000	 1.2932436098e+000	 2.9880545077e-001
 4.6461178658e+000	 8.5977542265e-001	 2.9119489358e-001
 4.6377786855e+000	 9.0367796494e-001	 3.2144306836e-001
 4.6289986998e+000	 9.4762652819e-001	 3.4696895194e-001
 4.6197753924e+000	 9.9161500801e-001	 3.6623339730e-001
 4.6101063494e+000	 1.0356372182e+000	 3.7757008661e-001
 4.5999892625e+000	 1.0796868924e+000	 3.7918361065e-001
 4.5894219312e+000	 1.1237576864e+000	 3.6914775822e-001
 4.5784022658e+000	 1.1678431801e+000	 3.4540402656e-001
 4.5669282894e+000	 1.2119368795e+000	 3.0576036416e-001
 4.5549981410e+000	 1.2560322194e+000	 2.6116899357e-001
 4.5426100775e+000	 1.3001225651e+000	 2.9862429546e-001
 4.6707005000e+000	 8.6432449896e-001	 2.8004070588e-001
 4.6623171971e+000	 9.0845932984e-001	 3.0951213909e-001
 4.6534907565e+000	 9.5264042516e-001	 3.3446203514e-001
 4.6442186484e+000	 9.9686164827e-001	 3.5338498954e-001
 4.6344984465e+000	 1.0411167802e+000	 3.6464723190e-001
 4.6243278300e+000	 1.0853995214e+000	 3.6648463315e-001
 4.6137045869e+000	 1.1297034943e+000	 3.5700092409e-001
 4.6026266164e+000	 1.1740222445e+000	 3.3416613678e-001
 4.5910919311e+000	 1.2183492440e+000	 2.9581527998e-001
 4.5790986602e+000	 1.2626778925e+000	 2.6561060102e-001
 4.5666450514e+000	 1.3070015205e+000	 3.0070491718e-001
 4.3262953119e+000	 1.2382119668e+000	 3.9684912002e-001
 4.3140595013e+000	 1.2801916340e+000	 3.1010884270e-001
 4.3013846075e+000	 1.3221537197e+000	 2.7870480689e-001
 4.2882693215e+000	 1.3640917223e+000	 2.5118348330e-001
 4.2747124554e+000	 1.4059990840e+000	 2.2664730451e-001
 4.2607129448e+000	 1.4478691937e+000	 2.0410591898e-001
 4.2462698508e+000	 1.4896953899e+000	 1.8247743290e-001
 4.2313823616e+000	 1.5314709629e+000	 1.6058989232e-001
 4.2160497947e+000	 1.5731891585e+000	 1.3718300672e-001
 4.2002715988e+000	 1.6148431803e+000	 1.1091011433e-001
 4.1840473548e+000	 1.6564261930e+000	 8.0340389207e-002
 4.3503302858e+000	 1.2450909222e+000	 3.6807081829e-001
 4.3380264985e+000	 1.2873038097e+000	 3.0152103685e-001
 4.3252811887e+000	 1.3294990181e+000	 2.6206066903e-001
 4.3120930399e+000	 1.3716700096e+000	 2.2866971506e-001
 4.2984608579e+000	 1.4138101900e+000	 2.0041014121e-001
 4.2843835723e+000	 1.4559129115e+000	 1.7624768035e-001
 4.2698602388e+000	 1.4979714754e+000	 1.5505309594e-001
 4.2548900414e+000	 1.5399791349e+000	 1.3560369258e-001
 4.2394722936e+000	 1.5819290983e+000	 1.1658507457e-001
 4.2236064410e+000	 1.6238145313e+000	 9.6593152689e-002
 4.2072920623e+000	 1.6656285608e+000	 7.4136399235e-002
 4.3743652598e+000	 1.2519698775e+000	 3.4935642805e-001
 4.3619934957e+000	 1.2944159855e+000	 2.9253195030e-001
 4.3491777698e+000	 1.3368443166e+000	 2.4484657425e-001
 4.3359167584e+000	 1.3792482970e+000	 2.0542206808e-001
 4.3222092604e+000	 1.4216212960e+000	 1.7327945916e-001
 4.3080541997e+000	 1.4639566292e+000	 1.4734006941e-001
 4.2934506269e+000	 1.5062475609e+000	 1.2642680185e-001
 4.2783977212e+000	 1.5484873069e+000	 1.0926568017e-001
 4.2628947925e+000	 1.5906690380e+000	 9.4487642858e-002
 4.2469412832e+000	 1.6327858823e+000	 8.0630592115e-002
 4.2305367698e+000	 1.6748309285e+000	 6.6141697562e-002
 4.3984002337e+000	 1.2588488329e+000	 3.3514154370e-001
 4.3859604930e+000	 1.3015281612e+000	 2.8363313279e-001
 4.3730743510e+000	 1.3441896150e+000	 2.2710380903e-001
 4.3597404768e+000	 1.3868265843e+000	 1.8149362541e-001
 4.3459576629e+000	 1.4294324020e+000	 1.4532047795e-001
 4.3317248272e+000	 1.4720003470e+000	 1.1746077599e-001
 4.3170410149e+000	 1.5145236464e+000	 9.6689037790e-002
 4.3019054009e+000	 1.5569954790e+000	 8.1679459783e-002
 4.2863172913e+000	 1.5994089778e+000	 7.1007746734e-002
 4.2702761254e+000	 1.6417572333e+000	 6.3153203509e-002
 4.2537814774e+000	 1.6840332963e+000	 5.6501088182e-002
 4.4224352077e+000	 1.2657277883e+000	 3.2300105909e-001
 4.4099274902e+000	 1.3086403370e+000	 2.7678955674e-001
 4.3969709321e+000	 1.3515349135e+000	 2.2515878381e-001
 4.3835641953e+000	 1.3944048717e+000	 1.6836074355e-001
 4.3697060655e+000	 1.4372435081e+000	 1.1659924953e-001
 4.3553954547e+000	 1.4800440647e+000	 8.6688176034e-002
 4.3406314030e+000	 1.5227997319e+000	 6.5930826263e-002
 4.3254130807e+000	 1.5655036510e+000	 5.2949016043e-002
 4.3097397902e+000	 1.6081489176e+000	 4.6262641301e-002
 4.2936109676e+000	 1.6507285843e+000	 4.4291813243e-002
 4.2770261849e+000	 1.6932356640e+000	 4.5359261614e-002
 4.4464701816e+000	 1.2726067437e+000	 3.1334321078e-001
 4.4338944874e+000	 1.3157525127e+000	 2.7211220881e-001
 4.4208675133e+000	 1.3588802119e+000	 2.2637855411e-001
 4.4073879137e+000	 1.4019831590e+000	 1.7638880164e-001
 4.3934544680e+000	 1.4450546141e+000	 1.2242709464e-001
 4.3790660822e+000	 1.4880877825e+000	 6.4815324865e-002
 4.3642217911e+000	 1.5310758174e+000	 3.4243710609e-002
 4.3489207605e+000	 1.5740118230e+000	 2.3178703201e-002
 4.3331622890e+000	 1.6168888573e+000	 2.0369795652e-002
 4.3169458098e+000	 1.6596999353e+000	 2.4177301652e-002
 4.3002708924e+000	 1.7024380317e+000	 3.2860797974e-002
 4.4705051556e+000	 1.2794856990e+000	 3.0612136745e-001
 4.4578614846e+000	 1.3228646884e+000	 2.6955952357e-001
 4.4447640944e+000	 1.3662255104e+000	 2.2939326264e-001
 4.4312116322e+000	 1.4095614464e+000	 1.8586381253e-001
 4.4172028705e+000	 1.4528657201e+000	 1.3924959003e-001
 4.4027367096e+000	 1.4961315002e+000	 8.9866357478e-002
 4.3878121791e+000	 1.5393519029e+000	 3.8067298638e-002
 4.3724284403e+000	 1.5825199950e+000	-7.5267647861e-003
 4.3565847879e+000	 1.6256287971e+000	-6.5531128745e-003
 4.3402806520e+000	 1.6686712863e+000	 2.9406015914e-003
 4.3235155999e+000	 1.7116403995e+000	 1.9150169942e-002
 4.4945401296e+000	 1.2863646544e+000	 3.0129016055e-001
 4.4818284819e+000	 1.3299768642e+000	 2.6909108093e-001
 4.4686606756e+000	 1.3735708088e+000	 2.3416758219e-001
 4.4550353506e+000	 1.4171397337e+000	 1.9675568569e-001
 4.4409512731e+000	 1.4606768261e+000	 1.5712822065e-001
 4.4264073371e+000	 1.5041752179e+000	 1.1559497712e-001
 4.4114025672e+000	 1.5476279884e+000	 7.2502778202e-002
 4.3959361201e+000	 1.5910281670e+000	 2.8235469457e-002
 4.3800072868e+000	 1.6343687369e+000	-1.6786176300e-002
 4.3636154943e+000	 1.6776426373e+000	-1.9287302976e-002
 4.3467603075e+000	 1.7208427672e+000	 4.3717456320e-003
 4.5185751035e+000	 1.2932436098e+000	 2.9880545077e-001
 4.5057954791e+000	 1.3370890399e+000	 2.7066757574e-001
 4.4925572567e+000	 1.3809161073e+000	 2.4066718190e-001
 4.4788590691e+000	 1.4247180211e+000	 2.0903520419e-001
 4.4646996756e+000	 1.4684879322e+000	 1.7603902251e-001
 4.4500779646e+000	 1.5122189357e+000	 1.4198261113e-001
 4.4349929552e+000	 1.5559040739e+000	 1.0720660730e-001
 4.4194437999e+000	 1.5995363390e+000	 7.2088296839e-002
 4.4034297856e+000	 1.6431086766e+000	 3.7041514834e-002
 4.3869503365e+000	 1.6866139883e+000	 2.5164598283e-003
 4.3700050150e+000	 1.7300451349e+000	-1.1330208624e-002
 4.5426100775e+000	 1.3001225651e+000	 2.9862429546e-001
 4.5297624763e+000	 1.3442012157e+000	 2.7425078824e-001
 4.5164538379e+000	 1.3882614057e+000	 2.4885870091e-001
 4.5026827875e+000	 1.4322963084e+000	 2.2267400159e-001
 4.4884480781e+000	 1.4762990382e+000	 1.9595875849e-001
 4.4737485920e+000	 1.5202626534e+000	 1.6901128600e-001
 4.4585833433e+000	 1.5641801594e+000	 1.4216620969e-001
 4.4429514797e+000	 1.6080445111e+000	 1.1579444811e-001
 4.4268522845e+000	 1.6518486164e+000	 9.0303109481e-002
 4.4102851787e+000	 1.6955853393e+000	 6.6135301677e-002
 4.3932497225e+000	 1.7392475027e+000	 4.3769853861e-002
 4.5666450514e+000	 1.3070015205e+000	 3.0070491718e-001
 4.5537294736e+000	 1.3513133914e+000	 2.7980355552e-001
 4.5403504190e+000	 1.3956067041e+000	 2.5870972286e-001
 4.5265065060e+000	 1.4398745957e+000	 2.3764453954e-001
 4.5121964807e+000	 1.4841101442e+000	 2.1686489923e-001
 4.4974192195e+000	 1.5283063712e+000	 1.9666361168e-001
 4.4821737314e+000	 1.5724562449e+000	 1.7736946430e-001
 4.4664591594e+000	 1.6165526831e+000	 1.5934720015e-001
 4.4502747833e+000	 1.6605885562e+000	 1.4299741070e-001
 4.4336200209e+000	 1.7045566903e+000	 1.2875634152e-001
 4.4164944300e+000	 1.7484498704e+000	 1.1709560950e-001
 4.1840473548e+000	 1.6564261930e+000	 8.0340389207e-002
 4.1673767784e+000	 1.6979313258e+000	 3.2070317688e-002
 4.1502597210e+000	 1.7393516748e+000	-4.2768176198e-003
 4.1326961712e+000	 1.7806803072e+000	-3.0404311200e-002
 4.1146862567e+000	 1.8219102636e+000	-4.8106907821e-002
 4.0962302449e+000	 1.8630345624e+000	-5.9267603382e-002
 4.0773285445e+000	 1.9040462023e+000	-8.1434030941e-002
 4.0579817064e+000	 1.9449381662e+000	-1.0395840924e-001
 4.0381904250e+000	 1.9857034249e+000	-1.2036238707e-001
 4.0179555386e+000	 2.0263349401e+000	-1.3103258950e-001
 3.9972780307e+000	 2.0668256687e+000	-1.3637720413e-001
 4.2072920623e+000	 1.6656285608e+000	 7.4136399235e-002
 4.1905288716e+000	 1.7073642776e+000	 3.2110067601e-002
 4.1733167194e+000	 1.7490147397e+000	 5.2381493484e-004
 4.1556555944e+000	 1.7905729755e+000	-2.2366126224e-002
 4.1375456248e+000	 1.8320319873e+000	-3.8394747277e-002
 4.1189870796e+000	 1.8733847544e+000	-4.9484975620e-002
 4.0999803697e+000	 1.9146242367e+000	-7.8382439559e-002
 4.0805260492e+000	 1.9557433782e+000	-1.0368400217e-001
 4.0606248162e+000	 1.9967351106e+000	-1.2485238281e-001
 4.0402775138e+000	 2.0375923565e+000	-1.4226352152e-001
 4.0194851309e+000	 2.0783080336e+000	-1.5631312409e-001
 4.2305367698e+000	 1.6748309285e+000	 6.6141697562e-002
 4.2136809648e+000	 1.7167972294e+000	 3.1067830293e-002
 4.1963737179e+000	 1.7586778046e+000	 4.9877037925e-003
 4.1786150176e+000	 1.8004656439e+000	-1.3883761902e-002
 4.1604049929e+000	 1.8421537110e+000	-2.7422685068e-002
 4.1417439143e+000	 1.8837349464e+000	-4.2301981100e-002
 4.1226321950e+000	 1.9252022712e+000	-7.2339394464e-002
 4.1030703921e+000	 1.9665485903e+000	-9.9857338252e-002
 4.0830592075e+000	 2.0077667963e+000	-1.2520275642e-001
 4.0625994891e+000	 2.0488497728e+000	-1.4874116482e-001
 4.0416922311e+000	 2.0897903984e+000	-1.7085606931e-001
 4.2537814774e+000	 1.6840332963e+000	 5.6501088182e-002
 4.2368330580e+000	 1.7262301812e+000	 2.9088740579e-002
 4.2194307163e+000	 1.7683408694e+000	 9.2599919199e-003
 4.2015744408e+000	 1.8103583123e+000	-4.8123956955e-003
 4.1832643610e+000	 1.8522754347e+000	-1.5046553481e-002
 4.1645007490e+000	 1.8940851384e+000	-3.3579644425e-002
 4.1452840202e+000	 1.9357803056e+000	-6.3337369017e-002
 4.1256147349e+000	 1.9773538023e+000	-9.2518517675e-002
 4.1054935987e+000	 2.0187984819e+000	-1.2146160846e-001
 4.0849214643e+000	 2.0601071891e+000	-1.5052199278e-001
 4.0638993313e+000	 2.1012727632e+000	-1.8007125720e-001
 4.2770261849e+000	 1.6932356640e+000	 4.5359261614e-002
 4.2599851512e+000	 1.7356631330e+000	 2.6317950613e-002
 4.2424877148e+000	 1.7780039343e+000	 1.3485979177e-002
 4.2245338639e+000	 1.8202509806e+000	 4.9931001213e-003
 4.2061237291e+000	 1.8623971584e+000	-1.1217225990e-003
 4.1872575837e+000	 1.9044353304e+000	-2.2449669360e-002
 4.1679358455e+000	 1.9463583401e+000	-5.1408034274e-002
 4.1481590777e+000	 1.9881590143e+000	-8.1706655284e-002
 4.1279279900e+000	 2.0298301676e+000	-1.1367586253e-001
 4.1072434395e+000	 2.0713646055e+000	-1.4766110171e-001
 4.0861064314e+000	 2.1127551280e+000	-1.8402231935e-001
 4.3002708924e+000	 1.7024380317e+000	 3.2860797974e-002
 4.2831372445e+000	 1.7450960848e+000	 2.2900629414e-002
 4.2655447132e+000	 1.7876669991e+000	 1.7811118077e-002
 4.2474932871e+000	 1.8301436490e+000	 1.5678150214e-002
 4.2289830972e+000	 1.8725188821e+000	 1.4496887204e-002
 4.2100144184e+000	 1.9147855224e+000	-8.9360380306e-003
 4.1905876707e+000	 1.9569363745e+000	-3.6582280673e-002
 4.1707034205e+000	 1.9989642264e+000	-6.7459907230e-002
 4.1503623812e+000	 2.0408618533e+000	-1.0189129711e-001
 4.1295654147e+000	 2.0826220218e+000	-1.4021224798e-001
 4.1083135316e+000	 2.1242374928e+000	-1.8277134441e-001
 4.3235155999e+000	 1.7116403995e+000	 1.9150169942e-002
 4.3062893377e+000	 1.7545290366e+000	 1.8981962417e-002
 4.2886017116e+000	 1.7973300640e+000	 2.2381009683e-002
 4.2704527103e+000	 1.8400363174e+000	 2.7388468207e-002
 4.2518424653e+000	 1.8826406057e+000	 2.7971125186e-002
 4.2327712531e+000	 1.9251357145e+000	 6.9378619657e-003
 4.2132394960e+000	 1.9675144090e+000	-1.8890239018e-002
 4.1932477633e+000	 2.0097694384e+000	-4.9815496742e-002
 4.1727967725e+000	 2.0518935390e+000	-8.6152576308e-002
 4.1518873899e+000	 2.0938794381e+000	-1.2822788407e-001
 4.1305206318e+000	 2.1357198577e+000	-1.7637891954e-001
 4.3467603075e+000	 1.7208427672e+000	 4.3717456320e-003
 4.3294414309e+000	 1.7639619884e+000	 1.4707151033e-002
 4.3116587101e+000	 1.8069931288e+000	 2.7341399635e-002
 4.2934121334e+000	 1.8499289858e+000	 4.0270048953e-002
 4.2747018334e+000	 1.8927623294e+000	 4.2018307087e-002
 4.2555280878e+000	 1.9354859065e+000	 2.5149221656e-002
 4.2358913212e+000	 1.9780924434e+000	 1.6386992140e-003
 4.2157921061e+000	 2.0205746504e+000	-2.8809739066e-002
 4.1952311637e+000	 2.0629252247e+000	-6.6503279678e-002
 4.1742093651e+000	 2.1051368545e+000	-1.1175919345e-001
 4.1527277319e+000	 2.1472022225e+000	-1.6490417061e-001
 4.3700050150e+000	 1.7300451349e+000	-1.1330208624e-002
 4.3525935241e+000	 1.7733949402e+000	 1.0221412223e-002
 4.3347157085e+000	 1.8166561937e+000	 3.2838174305e-002
 4.3163715566e+000	 1.8598216541e+000	 5.4469161058e-002
 4.2975612015e+000	 1.9028840531e+000	 5.7912587397e-002
 4.2782849225e+000	 1.9458360985e+000	 4.5675795308e-002
 4.2585431465e+000	 1.9886704779e+000	 2.4975862204e-002
 4.2383364489e+000	 2.0313798625e+000	-4.4780656170e-003
 4.2176655550e+000	 2.0739569104e+000	-4.2985931054e-002
 4.1965313403e+000	 2.1163942708e+000	-9.0856124311e-002
 4.1749348321e+000	 2.1586845873e+000	-1.4840480101e-001
 4.3932497225e+000	 1.7392475027e+000	 4.3769853861e-002
 4.3757456173e+000	 1.7828278921e+000	 8.6811548883e-003
 4.3577727070e+000	 1.8263192586e+000	 3.9017357075e-002
 4.3393309798e+000	 1.8697143225e+000	 7.0132339637e-002
 4.3204205696e+000	 1.9130057768e+000	 7.5638216086e-002
 4.3010417572e+000	 1.9561862905e+000	 6.8495885523e-002
 4.2811949717e+000	 1.9992485124e+000	 5.1093278758e-002
 4.2608807917e+000	 2.0421850745e+000	 2.3144952640e-002
 4.2400999462e+000	 2.0849885961e+000	-1.5642026486e-002
 4.2188533156e+000	 2.1276516871e+000	-6.5567422251e-002
 4.1971419323e+000	 2.1701669521e+000	-1.2693712930e-001
 4.4164944300e+000	 1.7484498704e+000	 1.1709560950e-001
 4.3988977105e+000	 1.7922608439e+000	 9.7046818925e-002
 4.3808297054e+000	 1.8359823234e+000	 6.9697314891e-002
 4.3622904030e+000	 1.8796069909e+000	 8.5011875729e-002
 4.3432799376e+000	 1.9231275005e+000	 9.5179836126e-002
 4.3237985918e+000	 1.9665364825e+000	 9.3588328814e-002
 4.3038467969e+000	 2.0098265468e+000	 7.9963659863e-002
 4.2834251345e+000	 2.0529902865e+000	 5.4025582548e-002
 4.2625343375e+000	 2.0960202818e+000	 1.5487938720e-002
 4.2411752908e+000	 2.1389091034e+000	-3.5940661918e-002
 4.2193490324e+000	 2.1816493170e+000	-1.0055612565e-001
 3.9972780307e+000	 2.0668256687e+000	-1.3637720413e-001
 3.9761590304e+000	 2.1071685659e+000	-1.2410222219e-001
 3.9545998128e+000	 2.1473565890e+000	-1.1770728958e-001
 3.9326018000e+000	 2.1873827014e+000	-1.1742731421e-001
 3.9101665609e+000	 2.2272398761e+000	-1.2350351861e-001
 3.8872958119e+000	 2.2669210994e+000	-1.3618276845e-001
 3.8639914164e+000	 2.3064193751e+000	-1.5571687129e-001
 3.8402553857e+000	 2.3457277277e+000	-1.8236184694e-001
 3.8160898781e+000	 2.3848392068e+000	-2.1637717117e-001
 3.7914971990e+000	 2.4237468907e+000	-2.5802499434e-001
 3.7664798005e+000	 2.4624438902e+000	-3.0756933683e-001
 4.0194851309e+000	 2.0783080336e+000	-1.5631312409e-001
 3.9982488028e+000	 2.1188750579e+000	-1.4837867886e-001
 3.9765698118e+000	 2.1592863478e+000	-1.4405268671e-001
 3.9544495878e+000	 2.1995348275e+000	-1.4361043013e-001
 3.9318897085e+000	 2.2396134310e+000	-1.4733609813e-001
 3.9088918997e+000	 2.2795151055e+000	-1.5552208627e-001
 3.8854580354e+000	 2.3192328160e+000	-1.6846826296e-001
 3.8615901379e+000	 2.3587595484e+000	-1.8648120345e-001
 3.8372903774e+000	 2.3980883135e+000	-2.0987339331e-001
 3.8125610723e+000	 2.4372121512e+000	-2.3896240291e-001
 3.7874046883e+000	 2.4761241341e+000	-2.7407003500e-001
 4.0416922311e+000	 2.0897903984e+000	-1.7085606931e-001
 4.0203385752e+000	 2.1305815500e+000	-1.6791702333e-001
 3.9985398108e+000	 2.1712161067e+000	-1.6633782113e-001
 3.9762973756e+000	 2.2116869537e+000	-1.6643404289e-001
 3.9536128561e+000	 2.2519869858e+000	-1.6853275441e-001
 3.9304879876e+000	 2.2921091116e+000	-1.7297177854e-001
 3.9069246544e+000	 2.3320462570e+000	-1.8009892887e-001
 3.8829248900e+000	 2.3717913691e+000	-1.9027120725e-001
 3.8584908768e+000	 2.4113374202e+000	-2.0385396693e-001
 3.8336249456e+000	 2.4506774117e+000	-2.2122004283e-001
 3.8083295761e+000	 2.4898043779e+000	-2.4274885113e-001
 4.0638993313e+000	 2.1012727632e+000	-1.8007125720e-001
 4.0424283476e+000	 2.1422880420e+000	-1.8276994287e-001
 4.0205098097e+000	 2.1831458655e+000	-1.8460242469e-001
 3.9981451634e+000	 2.2238390798e+000	-1.8592450847e-001
 3.9753360036e+000	 2.2643605407e+000	-1.8710605233e-001
 3.9520840754e+000	 2.3047031177e+000	-1.8853020929e-001
 3.9283912734e+000	 2.3448596980e+000	-1.9059262826e-001
 3.9042596422e+000	 2.3848231898e+000	-1.9370061499e-001
 3.8796913761e+000	 2.4245865269e+000	-1.9827225468e-001
 3.8546888190e+000	 2.4641426722e+000	-2.0473549802e-001
 3.8292544638e+000	 2.5034846217e+000	-2.2076158030e-001
 4.0861064314e+000	 2.1127551280e+000	-1.8402231935e-001
 4.0645181200e+000	 2.1539945340e+000	-1.9298879237e-001
 4.0424798087e+000	 2.1950756243e+000	-1.9888515907e-001
 4.0199929511e+000	 2.2359912059e+000	-2.0210738369e-001
 3.9970591512e+000	 2.2767340956e+000	-2.0306803730e-001
 3.9736801633e+000	 2.3172971239e+000	-2.0219551138e-001
 3.9498578924e+000	 2.3576731389e+000	-1.9993318600e-001
 3.9255943943e+000	 2.3978550105e+000	-1.9673855408e-001
 3.9008918754e+000	 2.4378356336e+000	-1.9308230338e-001
 3.8757526923e+000	 2.4776079327e+000	-1.8944735816e-001
 3.8501793516e+000	 2.5171648656e+000	-2.2081608229e-001
 4.1083135316e+000	 2.1242374928e+000	-1.8277134441e-001
 4.0866078923e+000	 2.1657010260e+000	-1.9862363027e-001
 4.0644498076e+000	 2.2070053831e+000	-2.0922364467e-001
 4.0418407389e+000	 2.2481433320e+000	-2.1500744782e-001
 4.0187822988e+000	 2.2891076504e+000	-2.1643024931e-001
 3.9952762511e+000	 2.3298911300e+000	-2.1396559273e-001
 3.9713245114e+000	 2.3704865799e+000	-2.0810449077e-001
 3.9469291465e+000	 2.4108868312e+000	-1.9935451269e-001
 3.9220923747e+000	 2.4510847403e+000	-1.8823882558e-001
 3.8968165656e+000	 2.4910731932e+000	-1.7529519154e-001
 3.8711042394e+000	 2.5308451094e+000	-2.2102448796e-001
 4.1305206318e+000	 2.1357198577e+000	-1.7637891954e-001
 4.1086976647e+000	 2.1774075181e+000	-1.9972325346e-001
 4.0864198066e+000	 2.2189351420e+000	-2.1565448865e-001
 4.0636885267e+000	 2.2602954581e+000	-2.2464872343e-001
 4.0405054463e+000	 2.3014812053e+000	-2.2720373651e-001
 4.0168723389e+000	 2.3424851361e+000	-2.2383814239e-001
 3.9927911303e+000	 2.3833000209e+000	-2.1509049337e-001
 3.9682638986e+000	 2.4239186519e+000	-2.0151833002e-001
 3.9432928740e+000	 2.4643338470e+000	-1.8369718161e-001
 3.9178804389e+000	 2.5045384537e+000	-1.7091740094e-001
 3.8920291272e+000	 2.5445253532e+000	-2.2136086673e-001
 4.1527277319e+000	 2.1472022225e+000	-1.6490417061e-001
 4.1307874371e+000	 2.1891140101e+000	-1.9633523101e-001
 4.1083898056e+000	 2.2308649008e+000	-2.1821331201e-001
 4.0855363145e+000	 2.2724475842e+000	-2.3105449669e-001
 4.0622285939e+000	 2.3138547601e+000	-2.3539906835e-001
 4.0384684268e+000	 2.3550791422e+000	-2.3181063637e-001
 4.0142577493e+000	 2.3961134619e+000	-2.2087520506e-001
 3.9895986507e+000	 2.4369504726e+000	-2.0320018694e-001
 3.9644933734e+000	 2.4775829537e+000	-1.7941336231e-001
 3.9389443123e+000	 2.5180037142e+000	-1.8346633789e-001
 3.9129540150e+000	 2.5582055971e+000	-2.2180051859e-001
 4.1749348321e+000	 2.1586845873e+000	-1.4840480101e-001
 4.1528772095e+000	 2.2008205021e+000	-1.8850593682e-001
 4.1303598045e+000	 2.2427946596e+000	-2.1693477576e-001
 4.1073841022e+000	 2.2845997104e+000	-2.3424733693e-001
 4.0839517414e+000	 2.3262283150e+000	-2.4102634835e-001
 4.0600645146e+000	 2.3676731483e+000	-2.3788034333e-001
 4.0357243683e+000	 2.4089269028e+000	-2.2544269592e-001
 4.0109334029e+000	 2.4499822933e+000	-2.0437059688e-001
 3.9856938727e+000	 2.4908320604e+000	-1.7534397220e-001
 3.9600081856e+000	 2.5314689747e+000	-1.9521778451e-001
 3.9338789027e+000	 2.5718858409e+000	-2.2231994134e-001
 4.1971419323e+000	 2.1701669521e+000	-1.2693712930e-001
 4.1749669819e+000	 2.2125269942e+000	-1.7628058123e-001
 4.1523298035e+000	 2.2547244184e+000	-2.1185260640e-001
 4.1292318900e+000	 2.2967518365e+000	-2.3424911556e-001
 4.1056748890e+000	 2.3386018699e+000	-2.4409522636e-001
 4.0816606025e+000	 2.3802671544e+000	-2.4204433006e-001
 4.0571909873e+000	 2.4217403438e+000	-2.2877709335e-001
 4.0322681550e+000	 2.4630141140e+000	-2.0500039704e-001
 4.0068943720e+000	 2.5040811671e+000	-1.7853913993e-001
 3.9810720589e+000	 2.5449342352e+000	-2.0616142185e-001
 3.9548037905e+000	 2.5855660847e+000	-2.2289679894e-001
 4.2193490324e+000	 2.1816493170e+000	-1.0055612565e-001
 4.1970567543e+000	 2.2242334862e+000	-1.5970324164e-001
 4.1742998024e+000	 2.2666541773e+000	-2.0299962047e-001
 4.1510796778e+000	 2.3089039626e+000	-2.3108102452e-001
 4.1273980366e+000	 2.3509754247e+000	-2.4461491059e-001
 4.1032566903e+000	 2.3928611605e+000	-2.4429946675e-001
 4.0786576062e+000	 2.4345537848e+000	-2.3086258051e-001
 4.0536029072e+000	 2.4760459347e+000	-2.0506073990e-001
 4.0280948713e+000	 2.5173302738e+000	-1.9664084541e-001
 4.0021359322e+000	 2.5583994957e+000	-2.1628778615e-001
 3.9757286783e+000	 2.5992463286e+000	-2.2350989079e-001
 3.7664798005e+000	 2.4624438902e+000	-3.0756933683e-001
 3.7410402811e+000	 2.5009233526e+000	-3.1498300004e-001
 3.7151813848e+000	 2.5391784651e+000	-3.1602578161e-001
 3.6889060008e+000	 2.5772024595e+000	-3.2119506712e-001
 3.6622171622e+000	 2.6149886150e+000	-3.3010482953e-001
 3.6351180455e+000	 2.6525302629e+000	-3.4234830876e-001
 3.6076119692e+000	 2.6898207896e+000	-3.5749913845e-001
 3.5797023927e+000	 2.7268536410e+000	-3.7511252253e-001
 3.5513929153e+000	 2.7636223260e+000	-3.9472645828e-001
 3.5226872744e+000	 2.8001204200e+000	-4.1586300311e-001
 3.4935893441e+000	 2.8363415688e+000	-4.3802958161e-001
 3.7874046883e+000	 2.4761241341e+000	-2.7407003500e-001
 3.7618238382e+000	 2.5148173712e+000	-3.5170147323e-001
 3.7358212814e+000	 2.5532850122e+000	-4.0336761240e-001
 3.7093999231e+000	 2.5915202509e+000	-3.9443556719e-001
 3.6825628131e+000	 2.6295163296e+000	-3.9095864615e-001
 3.6553131458e+000	 2.6672665421e+000	-3.9249889859e-001
 3.6276542579e+000	 2.7047642384e+000	-3.9859692613e-001
 3.5995896282e+000	 2.7420028279e+000	-4.0877309952e-001
 3.5711228760e+000	 2.7789757834e+000	-4.2252882513e-001
 3.5422577593e+000	 2.8156766446e+000	-4.3934785773e-001
 3.5129981738e+000	 2.8520990220e+000	-4.5869765633e-001
 3.8083295761e+000	 2.4898043779e+000	-2.4274885113e-001
 3.7826073953e+000	 2.5287113898e+000	-3.3762798917e-001
 3.7564611780e+000	 2.5673915592e+000	-4.5393936625e-001
 3.7298938453e+000	 2.6058380424e+000	-4.6526228097e-001
 3.7029084640e+000	 2.6440440441e+000	-4.4899079275e-001
 3.6755082460e+000	 2.6820028213e+000	-4.3940840900e-001
 3.6476965466e+000	 2.7197076873e+000	-4.3602264407e-001
 3.6194768638e+000	 2.7571520148e+000	-4.3831898587e-001
 3.5908528366e+000	 2.7943292408e+000	-4.4576220579e-001
 3.5618282442e+000	 2.8312328691e+000	-4.5779771793e-001
 3.5324070035e+000	 2.8678564751e+000	-4.7385298384e-001
 3.8292544638e+000	 2.5034846217e+000	-2.2076158030e-001
 3.8033909524e+000	 2.5426054084e+000	-3.2343579087e-001
 3.7771010746e+000	 2.5814981062e+000	-4.2724218612e-001
 3.7503877675e+000	 2.6201558338e+000	-5.3164906541e-001
 3.7232541150e+000	 2.6585717586e+000	-5.0417448822e-001
 3.6957033463e+000	 2.6967391006e+000	-4.8305846154e-001
 3.6677388353e+000	 2.7346511361e+000	-4.6976657459e-001
 3.6393640993e+000	 2.7723012017e+000	-4.6374937783e-001
 3.6105827973e+000	 2.8096826981e+000	-4.6443495870e-001
 3.5813987290e+000	 2.8467890937e+000	-4.7123034733e-001
 3.5518158332e+000	 2.8836139283e+000	-4.8352297067e-001
 3.8501793516e+000	 2.5171648656e+000	-2.2081608229e-001
 3.8241745096e+000	 2.5564994271e+000	-3.0910358775e-001
 3.7977409712e+000	 2.5956046532e+000	-4.0007041412e-001
 3.7708816897e+000	 2.6344736253e+000	-4.9315652263e-001
 3.7435997659e+000	 2.6730994731e+000	-5.5648372877e-001
 3.7158984465e+000	 2.7114753798e+000	-5.2343130203e-001
 3.6877811240e+000	 2.7495945849e+000	-4.9981946575e-001
 3.6592513348e+000	 2.7874503886e+000	-4.8506377372e-001
 3.6303127579e+000	 2.8250361555e+000	-4.7855557541e-001
 3.6009692139e+000	 2.8623453183e+000	-4.7966346865e-001
 3.5712246628e+000	 2.8993713815e+000	-4.8773480329e-001
 3.8711042394e+000	 2.5308451094e+000	-2.2102448796e-001
 3.8449580667e+000	 2.5703934457e+000	-2.9461126082e-001
 3.8183808678e+000	 2.6097112003e+000	-3.7241125287e-001
 3.7913756120e+000	 2.6487914167e+000	-4.5383600915e-001
 3.7639454168e+000	 2.6876271877e+000	-5.3828030406e-001
 3.7360935468e+000	 2.7262116591e+000	-5.6050978363e-001
 3.7078234128e+000	 2.7645380338e+000	-5.2617251884e-001
 3.6791385703e+000	 2.8025995755e+000	-5.0226196572e-001
 3.6500427186e+000	 2.8403896129e+000	-4.8813267699e-001
 3.6205396987e+000	 2.8779015428e+000	-4.8311476476e-001
 3.5906334925e+000	 2.9151288346e+000	-4.8651545406e-001
 3.8920291272e+000	 2.5445253532e+000	-2.2136086673e-001
 3.8657416238e+000	 2.5842874643e+000	-2.7993983120e-001
 3.8390207644e+000	 2.6238177473e+000	-3.4425291559e-001
 3.8118695342e+000	 2.6631092081e+000	-4.1368316695e-001
 3.7842910677e+000	 2.7021549022e+000	-4.8759524698e-001
 3.7562886470e+000	 2.7409479383e+000	-5.6533679528e-001
 3.7278657015e+000	 2.7794814826e+000	-5.4881737611e-001
 3.6990258058e+000	 2.8177487624e+000	-5.1534403201e-001
 3.6697726792e+000	 2.8557430702e+000	-4.9317501055e-001
 3.6401101836e+000	 2.8934577674e+000	-4.8160187975e-001
 3.6100423222e+000	 2.9308862878e+000	-4.7989168700e-001
 3.9129540150e+000	 2.5582055971e+000	-2.2180051859e-001
 3.8865251809e+000	 2.5981814829e+000	-2.6507142966e-001
 3.8596606609e+000	 2.6379242943e+000	-3.1558459909e-001
 3.8323634564e+000	 2.6774269996e+000	-3.7269449045e-001
 3.8046367186e+000	 2.7166826167e+000	-4.3573557430e-001
 3.7764837473e+000	 2.7556842175e+000	-5.0402372828e-001
 3.7479079902e+000	 2.7944249314e+000	-5.6774610904e-001
 3.7189130413e+000	 2.8328979493e+000	-5.2431032911e-001
 3.6895026398e+000	 2.8710965276e+000	-4.9369144589e-001
 3.6596806685e+000	 2.9090139919e+000	-4.7514242002e-001
 3.6294511519e+000	 2.9466437410e+000	-4.6789006334e-001
 3.9338789027e+000	 2.5718858409e+000	-2.2231994134e-001
 3.9073087380e+000	 2.6120755016e+000	-2.4998926704e-001
 3.8803005575e+000	 2.6520308414e+000	-2.8639645761e-001
 3.8528573787e+000	 2.6917447910e+000	-3.3086730387e-001
 3.8249823695e+000	 2.7312103313e+000	-3.8270600302e-001
 3.7966788475e+000	 2.7704204968e+000	-4.4119659570e-001
 3.7679502789e+000	 2.8093683802e+000	-5.0560444819e-001
 3.7388002768e+000	 2.8480471362e+000	-5.2916148446e-001
 3.7092326005e+000	 2.8864499850e+000	-4.8969097218e-001
 3.6792511533e+000	 2.9245702165e+000	-4.6375395522e-001
 3.6488599816e+000	 2.9624011941e+000	-4.5053694692e-001
 3.9548037905e+000	 2.5855660847e+000	-2.2289679894e-001
 3.9280922951e+000	 2.6259695202e+000	-2.3467760576e-001
 3.9009404541e+000	 2.6661373884e+000	-2.5667957746e-001
 3.8733513009e+000	 2.7060625825e+000	-2.8819973929e-001
 3.8453280204e+000	 2.7457380458e+000	-3.2851192898e-001
 3.8168739478e+000	 2.7851567760e+000	-3.7686827119e-001
 3.7879925676e+000	 2.8243118291e+000	-4.3250069947e-001
 3.7586875124e+000	 2.8631963231e+000	-4.9462252226e-001
 3.7289625611e+000	 2.9018034423e+000	-4.8118269488e-001
 3.6988216382e+000	 2.9401264410e+000	-4.4745401927e-001
 3.6682688113e+000	 2.9781586473e+000	-4.2785850942e-001
 3.9757286783e+000	 2.5992463286e+000	-2.2350989079e-001
 3.9488758523e+000	 2.6398635388e+000	-2.1912173208e-001
 3.9215803507e+000	 2.6802439354e+000	-2.2642595254e-001
 3.8938452231e+000	 2.7203803739e+000	-2.4469071534e-001
 3.8656736713e+000	 2.7602657603e+000	-2.7315940897e-001
 3.8370690480e+000	 2.7998930552e+000	-3.1105215919e-001
 3.8080348563e+000	 2.8392552779e+000	-3.5756739113e-001
 3.7785747479e+000	 2.8783455100e+000	-4.1188343768e-001
 3.7486925218e+000	 2.9171568997e+000	-4.6817583263e-001
 3.7183921230e+000	 2.9556826656e+000	-4.2626011126e-001
 3.6876776410e+000	 2.9939161004e+000	-3.9988073541e-001
 3.4935893441e+000	 2.8363415688e+000	-4.3802958161e-001
 3.4641031334e+000	 2.8722794922e+000	-4.3788422471e-001
 3.4342327849e+000	 2.9079279873e+000	-4.3984623059e-001
 3.4039825722e+000	 2.9432809326e+000	-4.4344923770e-001
 3.3733568988e+000	 2.9783322907e+000	-4.4821564611e-001
 3.3423602950e+000	 3.0130761123e+000	-4.5365800430e-001
 3.3109974166e+000	 3.0475065394e+000	-4.5928041716e-001
 3.2792730419e+000	 3.0816178084e+000	-4.6457997123e-001
 3.2471920698e+000	 3.1154042534e+000	-4.6904817344e-001
 3.2147595170e+000	 3.1488603094e+000	-4.9080799476e-001
 3.1819805154e+000	 3.1819805154e+000	-5.2264525061e-001
 3.5129981738e+000	 2.8520990220e+000	-4.5869765633e-001
 3.4833481508e+000	 2.8882366005e+000	-4.5771526592e-001
 3.4533118559e+000	 2.9240831428e+000	-4.5869918802e-001
 3.4228935865e+000	 2.9596324933e+000	-4.6117354764e-001
 3.3920977704e+000	 2.9948785812e+000	-4.6465135586e-001
 3.3609289633e+000	 3.0298154240e+000	-4.6863592256e-001
 3.3293918467e+000	 3.0644371313e+000	-4.7262229017e-001
 3.2974912255e+000	 3.0987379073e+000	-4.7609868450e-001
 3.2652320257e+000	 3.1327120548e+000	-4.8368114810e-001
 3.2326192921e+000	 3.1663539778e+000	-5.1032361039e-001
 3.1996581849e+000	 3.1996581849e+000	-5.4011570473e-001
 3.5324070035e+000	 2.8678564751e+000	-4.7385298384e-001
 3.5025931682e+000	 2.9041937088e+000	-4.7215488420e-001
 3.4723909269e+000	 2.9402382983e+000	-4.7228780084e-001
 3.4418046008e+000	 2.9759840540e+000	-4.7376605516e-001
 3.4108386421e+000	 3.0114248717e+000	-4.7609297475e-001
 3.3794976316e+000	 3.0465547358e+000	-4.7876233237e-001
 3.3477862768e+000	 3.0813677232e+000	-4.8125980600e-001
 3.3157094090e+000	 3.1158580062e+000	-4.8306445570e-001
 3.2832719817e+000	 3.1500198562e+000	-4.9949980000e-001
 3.2504790672e+000	 3.1838476462e+000	-5.2448047321e-001
 3.2173358544e+000	 3.2173358544e+000	-5.5239262580e-001
 3.5518158332e+000	 2.8836139283e+000	-4.8352297067e-001
 3.5218381856e+000	 2.9201508170e+000	-4.8123034723e-001
 3.4914699980e+000	 2.9563934538e+000	-4.8063913673e-001
 3.4607156151e+000	 2.9923356148e+000	-4.8125356554e-001
 3.4295795138e+000	 3.0279711622e+000	-4.8256698193e-001
 3.3980662999e+000	 3.0632940475e+000	-4.8406332186e-001
 3.3661807068e+000	 3.0982983150e+000	-4.8521859565e-001
 3.3339275926e+000	 3.1329781052e+000	-4.8968427277e-001
 3.3013119376e+000	 3.1673276576e+000	-5.0989501307e-001
 3.2683388423e+000	 3.2013413146e+000	-5.3337801694e-001
 3.2350135239e+000	 3.2350135239e+000	-5.5957472224e-001
 3.5712246628e+000	 2.8993713815e+000	-4.8773480329e-001
 3.5410832031e+000	 2.9361079253e+000	-4.8496873624e-001
 3.5105490690e+000	 2.9725486093e+000	-4.8378011186e-001
 3.4796266294e+000	 3.0086871755e+000	-4.8366276880e-001
 3.4483203854e+000	 3.0445174527e+000	-4.8409977895e-001
 3.4166349682e+000	 3.0800333592e+000	-4.8456494046e-001
 3.3845751369e+000	 3.1152289069e+000	-4.8452429165e-001
 3.3521457762e+000	 3.1500982041e+000	-4.9588223302e-001
 3.3193518936e+000	 3.1846354590e+000	-5.1496692115e-001
 3.2861986174e+000	 3.2188349829e+000	-5.3711580495e-001
 3.2526911935e+000	 3.2526911935e+000	-5.6176087724e-001
 3.5906334925e+000	 2.9151288346e+000	-4.8651545406e-001
 3.5603282205e+000	 2.9520650336e+000	-4.8339695102e-001
 3.5296281400e+000	 2.9887037647e+000	-4.8173749501e-001
 3.4985376437e+000	 3.0250387362e+000	-4.8102024291e-001
 3.4670612571e+000	 3.0610637432e+000	-4.8071769184e-001
 3.4352036365e+000	 3.0967726710e+000	-4.8029319996e-001
 3.4029695670e+000	 3.1321594988e+000	-4.8201306682e-001
 3.3703639597e+000	 3.1672183030e+000	-4.9669456088e-001
 3.3373918495e+000	 3.2019432604e+000	-5.1481574144e-001
 3.3040583925e+000	 3.2363286513e+000	-5.3579352674e-001
 3.2703688630e+000	 3.2703688630e+000	-5.5905014413e-001
 3.6100423222e+000	 2.9308862878e+000	-4.7989168700e-001
 3.5795732379e+000	 2.9680221419e+000	-4.7654171483e-001
 3.5487072110e+000	 3.0048589202e+000	-4.7453791148e-001
 3.5174486580e+000	 3.0413902970e+000	-4.7335245669e-001
 3.4858021287e+000	 3.0776100337e+000	-4.7244697314e-001
 3.4537723048e+000	 3.1135119827e+000	-4.7127407549e-001
 3.4213639971e+000	 3.1490900907e+000	-4.7814519595e-001
 3.3885821433e+000	 3.1843384020e+000	-4.9222193451e-001
 3.3554318055e+000	 3.2192510618e+000	-5.0954177227e-001
 3.3219181675e+000	 3.2538223197e+000	-5.2951099457e-001
 3.2880465325e+000	 3.2880465325e+000	-5.5154174172e-001
 3.6294511519e+000	 2.9466437410e+000	-4.6789006334e-001
 3.5988182553e+000	 2.9839792502e+000	-4.6442957910e-001
 3.5677862821e+000	 3.0210140757e+000	-4.6220784698e-001
 3.5363596723e+000	 3.0577418577e+000	-4.6068577282e-001
 3.5045430004e+000	 3.0941563242e+000	-4.5931380389e-001
 3.4723409732e+000	 3.1302512944e+000	-4.5895511394e-001
 3.4397584272e+000	 3.1660206826e+000	-4.6893185660e-001
 3.4068003269e+000	 3.2014585009e+000	-4.8256507169e-001
 3.3734717614e+000	 3.2365588632e+000	-4.9924539097e-001
 3.3397779426e+000	 3.2713159881e+000	-5.1836814017e-001
 3.3057242021e+000	 3.3057242021e+000	-5.3933504991e-001
 3.6488599816e+000	 2.9624011941e+000	-4.5053694692e-001
 3.6180632727e+000	 2.9999363585e+000	-4.4708692801e-001
 3.5868653531e+000	 3.0371692312e+000	-4.4477365129e-001
 3.5552706866e+000	 3.0740934184e+000	-4.4304645062e-001
 3.5232838721e+000	 3.1107026147e+000	-4.4134429548e-001
 3.4909096415e+000	 3.1469906062e+000	-4.4459605884e-001
 3.4581528573e+000	 3.1829512745e+000	-4.5447400445e-001
 3.4250185104e+000	 3.2185785998e+000	-4.6782472873e-001
 3.3915117174e+000	 3.2538666646e+000	-4.8402705171e-001
 3.3576377177e+000	 3.2888096565e+000	-5.0246501158e-001
 3.3234018716e+000	 3.3234018716e+000	-5.2252960541e-001
 3.6682688113e+000	 2.9781586473e+000	-4.2785850942e-001
 3.6373082901e+000	 3.0158934668e+000	-4.2453998292e-001
 3.6059444241e+000	 3.0533243867e+000	-4.2226154191e-001
 3.5741817009e+000	 3.0904449792e+000	-4.2046064877e-001
 3.5420247437e+000	 3.1272489052e+000	-4.1892107666e-001
 3.5094783098e+000	 3.1637299179e+000	-4.2493329904e-001
 3.4765472874e+000	 3.1998818664e+000	-4.3487259647e-001
 3.4432366940e+000	 3.2356986988e+000	-4.4810169949e-001
 3.4095516733e+000	 3.2711744660e+000	-4.6398728353e-001
 3.3754974928e+000	 3.3063033249e+000	-4.8190177004e-001
 3.3410795411e+000	 3.3410795411e+000	-5.0122509758e-001
 3.6876776410e+000	 2.9939161004e+000	-3.9988073541e-001
 3.6565533075e+000	 3.0318505751e+000	-3.9681480664e-001
 3.6250234951e+000	 3.0694795422e+000	-3.9469760750e-001
 3.5930927152e+000	 3.1067965399e+000	-3.9295442801e-001
 3.5607656154e+000	 3.1437951957e+000	-3.9366475375e-001
 3.5280469781e+000	 3.1804692296e+000	-4.0006782141e-001
 3.4949417175e+000	 3.2168124582e+000	-4.1022859093e-001
 3.4614548776e+000	 3.2528187977e+000	-4.2349681437e-001
 3.4275916292e+000	 3.2884822674e+000	-4.3922668831e-001
 3.3933572679e+000	 3.3237969933e+000	-4.5677868703e-001
 3.3587572107e+000	 3.3587572106e+000	-4.7552136442e-001
 3.1819805154e+000	 3.1819805154e+000	-5.2264525061e-001
 3.1488603094e+000	 3.2147595170e+000	-5.4841394765e-001
 3.1154042534e+000	 3.2471920698e+000	-5.7927131161e-001
 3.0816178084e+000	 3.2792730419e+000	-6.1788927030e-001
 3.0475065394e+000	 3.3109974166e+000	-6.4058137193e-001
 3.0130761123e+000	 3.3423602950e+000	-6.4845994252e-001
 2.9783322907e+000	 3.3733568988e+000	-6.4261847318e-001
 2.9432809326e+000	 3.4039825722e+000	-6.2412982768e-001
 2.9079279873e+000	 3.4342327849e+000	-5.9404453349e-001
 2.8722794922e+000	 3.4641031334e+000	-5.5338915994e-001
 2.8363415688e+000	 3.4935893441e+000	-5.0316478659e-001
 3.1996581849e+000	 3.1996581849e+000	-5.4011570473e-001
 3.1663539778e+000	 3.2326192921e+000	-5.6361866827e-001
 3.1327120548e+000	 3.2652320257e+000	-5.8508290286e-001
 3.0987379073e+000	 3.2974912255e+000	-6.1665409678e-001
 3.0644371313e+000	 3.3293918467e+000	-6.3835944379e-001
 3.0298154240e+000	 3.3609289633e+000	-6.4609912999e-001
 2.9948785812e+000	 3.3920977704e+000	-6.4097455719e-001
 2.9596324933e+000	 3.4228935865e+000	-6.2406506429e-001
 2.9240831428e+000	 3.4533118559e+000	-5.9642620407e-001
 2.8882366005e+000	 3.4833481508e+000	-5.5908811001e-001
 2.8520990220e+000	 3.5129981738e+000	-5.1305395629e-001
 3.2173358544e+000	 3.2173358544e+000	-5.5239262580e-001
 3.1838476462e+000	 3.2504790672e+000	-5.7351973070e-001
 3.1500198562e+000	 3.2832719817e+000	-5.9333339874e-001
 3.1158580062e+000	 3.3157094090e+000	-6.1450500689e-001
 3.0813677232e+000	 3.3477862768e+000	-6.3494627827e-001
 3.0465547358e+000	 3.3794976316e+000	-6.4227133524e-001
 3.0114248717e+000	 3.4108386421e+000	-6.3758980920e-001
 2.9759840540e+000	 3.4418046008e+000	-6.2198782260e-001
 2.9402382983e+000	 3.4723909269e+000	-5.9652625119e-001
 2.9041937088e+000	 3.5025931682e+000	-5.6223907920e-001
 2.8678564751e+000	 3.5324070035e+000	-5.2013185048e-001
 3.2350135239e+000	 3.2350135239e+000	-5.5957472224e-001
 3.2013413146e+000	 3.2683388423e+000	-5.7821952290e-001
 3.1673276576e+000	 3.3013119376e+000	-5.9626539904e-001
 3.1329781052e+000	 3.3339275926e+000	-6.1311262041e-001
 3.0982983150e+000	 3.3661807068e+000	-6.3015889161e-001
 3.0632940475e+000	 3.3980662999e+000	-6.3679560592e-001
 3.0279711622e+000	 3.4295795138e+000	-6.3228552965e-001
 2.9923356148e+000	 3.4607156151e+000	-6.1772187695e-001
 2.9563934538e+000	 3.4914699980e+000	-5.9417114380e-001
 2.9201508170e+000	 3.5218381856e+000	-5.6267145097e-001
 2.8836139283e+000	 3.5518158332e+000	-5.2423098622e-001
 3.2526911935e+000	 3.2526911935e+000	-5.6176087724e-001
 3.2188349829e+000	 3.2861986174e+000	-5.7782055577e-001
 3.1846354590e+000	 3.3193518936e+000	-5.9398510252e-001
 3.1500982041e+000	 3.3521457762e+000	-6.0963025183e-001
 3.1152289069e+000	 3.3845751369e+000	-6.2381425172e-001
 3.0800333592e+000	 3.4166349682e+000	-6.2949087904e-001
 3.0445174527e+000	 3.4483203854e+000	-6.2488284353e-001
 3.0086871755e+000	 3.4796266294e+000	-6.1109075898e-001
 2.9725486093e+000	 3.5105490690e+000	-5.8918703828e-001
 2.9361079253e+000	 3.5410832031e+000	-5.6021422404e-001
 2.8993713815e+000	 3.5712246628e+000	-5.2518342126e-001
 3.2703688630e+000	 3.2703688630e+000	-5.5905014413e-001
 3.2363286513e+000	 3.3040583925e+000	-5.7242545987e-001
 3.2019432604e+000	 3.3373918495e+000	-5.8659877459e-001
 3.1672183030e+000	 3.3703639597e+000	-6.0092111518e-001
 3.1321594988e+000	 3.4029695670e+000	-6.1475559791e-001
 3.0967726710e+000	 3.4352036365e+000	-6.2017598398e-001
 3.0610637432e+000	 3.4670612571e+000	-6.1520270517e-001
 3.0250387362e+000	 3.4985376437e+000	-6.0191776412e-001
 2.9887037647e+000	 3.5296281400e+000	-5.8139978699e-001
 2.9520650336e+000	 3.5603282205e+000	-5.5469602282e-001
 2.9151288346e+000	 3.5906334925e+000	-5.2282076644e-001
 3.2880465325e+000	 3.2880465325e+000	-5.5154174172e-001
 3.2538223197e+000	 3.3219181675e+000	-5.6213698217e-001
 3.2192510618e+000	 3.3554318055e+000	-5.7421274547e-001
 3.1843384020e+000	 3.3885821433e+000	-5.8709517602e-001
 3.1490900907e+000	 3.4213639971e+000	-6.0012228986e-001
 3.1135119827e+000	 3.4537723048e+000	-6.0866964535e-001
 3.0776100337e+000	 3.4858021287e+000	-6.0306590276e-001
 3.0413902970e+000	 3.5174486580e+000	-5.9002595797e-001
 3.0048589202e+000	 3.5487072110e+000	-5.7063494636e-001
 2.9680221419e+000	 3.5795732379e+000	-5.4594510746e-001
 2.9308862878e+000	 3.6100423222e+000	-5.1697419774e-001
 3.3057242021e+000	 3.3057242021e+000	-5.3933504991e-001
 3.2713159881e+000	 3.3397779426e+000	-5.4705798298e-001
 3.2365588632e+000	 3.3734717614e+000	-5.5693340850e-001
 3.2014585009e+000	 3.4068003269e+000	-5.6826241040e-001
 3.1660206826e+000	 3.4397584272e+000	-5.8035773875e-001
 3.1302512944e+000	 3.4723409732e+000	-5.9254545511e-001
 3.0941563242e+000	 3.5045430004e+000	-5.8829306284e-001
 3.0577418577e+000	 3.5363596723e+000	-5.7523818245e-001
 3.0210140757e+000	 3.5677862821e+000	-5.5671778485e-001
 2.9839792502e+000	 3.5988182553e+000	-5.3378938359e-001
 2.9466437410e+000	 3.6294511519e+000	-5.0747446787e-001
 3.3234018716e+000	 3.3234018716e+000	-5.2252960541e-001
 3.2888096565e+000	 3.3576377177e+000	-5.2729143290e-001
 3.2538666646e+000	 3.3915117174e+000	-5.3486721844e-001
 3.2185785998e+000	 3.4250185104e+000	-5.4453280458e-001
 3.1829512745e+000	 3.4581528573e+000	-5.5557550668e-001
 3.1469906062e+000	 3.4909096415e+000	-5.6729580061e-001
 3.1107026147e+000	 3.5232838721e+000	-5.7070465460e-001
 3.0740934184e+000	 3.5552706866e+000	-5.5737706172e-001
 3.0371692312e+000	 3.5868653531e+000	-5.3947329058e-001
 2.9999363585e+000	 3.6180632727e+000	-5.1805641174e-001
 2.9624011941e+000	 3.6488599816e+000	-4.9415191754e-001
 3.3410795411e+000	 3.3410795411e+000	-5.0122509758e-001
 3.3063033249e+000	 3.3754974928e+000	-5.0294040991e-001
 3.2711744660e+000	 3.4095516733e+000	-5.0812068982e-001
 3.2356986988e+000	 3.4432366940e+000	-5.1601635470e-001
 3.1998818664e+000	 3.4765472874e+000	-5.2588911357e-001
 3.1637299179e+000	 3.5094783098e+000	-5.3701369750e-001
 3.1272489052e+000	 3.5420247437e+000	-5.4867953595e-001
 3.0904449792e+000	 3.5741817009e+000	-5.3626500799e-001
 3.0533243867e+000	 3.6059444241e+000	-5.1872617878e-001
 3.0158934668e+000	 3.6373082901e+000	-4.9857341648e-001
 2.9781586473e+000	 3.6682688113e+000	-4.7683648636e-001
 3.3587572107e+000	 3.3587572106e+000	-4.7552136442e-001
 3.3237969933e+000	 3.3933572679e+000	-4.7410809655e-001
 3.2884822674e+000	 3.4275916292e+000	-4.7680039544e-001
 3.2528187977e+000	 3.4614548776e+000	-4.8282306659e-001
 3.2168124582e+000	 3.4949417175e+000	-4.9141203821e-001
 3.1804692296e+000	 3.5280469781e+000	-5.0181613459e-001
 3.1437951957e+000	 3.5607656154e+000	-5.1329879502e-001
 3.1067965399e+000	 3.5930927152e+000	-5.1172422704e-001
 3.0694795422e+000	 3.6250234951e+000	-4.9430089892e-001
 3.0318505751e+000	 3.6565533075e+000	-4.7516729528e-001
 2.9939161004e+000	 3.6876776410e+000	-4.5535772340e-001
 2.8363415688e+000	 3.4935893441e+000	-5.0316478659e-001
 2.8001204200e+000	 3.5226872744e+000	-4.7895520541e-001
 2.7636223260e+000	 3.5513929153e+000	-4.6063811380e-001
 2.7268536410e+000	 3.5797023927e+000	-4.4894016709e-001
 2.6898207896e+000	 3.6076119692e+000	-4.4454539868e-001
 2.6525302629e+000	 3.6351180455e+000	-4.4809443964e-001
 2.6149886150e+000	 3.6622171622e+000	-4.6018385528e-001
 2.5772024595e+000	 3.6889060008e+000	-4.8136559919e-001
 2.5391784651e+000	 3.7151813848e+000	-5.1214658459e-001
 2.5009233526e+000	 3.7410402811e+000	-5.5298837276e-001
 2.4624438902e+000	 3.7664798005e+000	-5.0998951949e-001
 2.8520990220e+000	 3.5129981738e+000	-5.1305395629e-001
 2.8156766446e+000	 3.5422577593e+000	-4.9092653458e-001
 2.7789757834e+000	 3.5711228760e+000	-4.7439645162e-001
 2.7420028279e+000	 3.5995896282e+000	-4.6420525992e-001
 2.7047642384e+000	 3.6276542579e+000	-4.6105141807e-001
 2.6672665421e+000	 3.6553131458e+000	-4.6558949307e-001
 2.6295163296e+000	 3.6825628131e+000	-4.7842948151e-001
 2.5915202509e+000	 3.7093999231e+000	-5.0013624973e-001
 2.5532850122e+000	 3.7358212814e+000	-5.3122909318e-001
 2.5148173712e+000	 3.7618238382e+000	-5.6162652253e-001
 2.4761241341e+000	 3.7874046883e+000	-5.3568509947e-001
 2.8678564751e+000	 3.5324070035e+000	-5.2013185048e-001
 2.8312328691e+000	 3.5618282442e+000	-5.0007641582e-001
 2.7943292408e+000	 3.5908528366e+000	-4.8533950064e-001
 2.7571520148e+000	 3.6194768638e+000	-4.7667764416e-001
 2.7197076873e+000	 3.6476965466e+000	-4.7480379945e-001
 2.6820028213e+000	 3.6755082460e+000	-4.8038651857e-001
 2.6440440441e+000	 3.7029084640e+000	-4.9404925817e-001
 2.6058380424e+000	 3.7298938453e+000	-5.1636980602e-001
 2.5673915592e+000	 3.7564611780e+000	-5.4220245029e-001
 2.5287113898e+000	 3.7826073953e+000	-5.5908921603e-001
 2.4898043779e+000	 3.8083295761e+000	-5.6048241337e-001
 2.8836139283e+000	 3.5518158332e+000	-5.2423098622e-001
 2.8467890937e+000	 3.5813987290e+000	-5.0623662282e-001
 2.8096826981e+000	 3.6105827973e+000	-4.9329829887e-001
 2.7723012017e+000	 3.6393640993e+000	-4.8618763086e-001
 2.7346511361e+000	 3.6677388353e+000	-4.8563213662e-001
 2.6967391006e+000	 3.6957033463e+000	-4.9231440320e-001
 2.6585717586e+000	 3.7232541150e+000	-5.0687137703e-001
 2.6201558338e+000	 3.7503877675e+000	-5.2955828985e-001
 2.5814981062e+000	 3.7771010746e+000	-5.3759723080e-001
 2.5426054084e+000	 3.8033909524e+000	-5.5317494641e-001
 2.5034846217e+000	 3.8292544638e+000	-5.7589683209e-001
 2.8993713815e+000	 3.5712246628e+000	-5.2518342126e-001
 2.8623453183e+000	 3.6009692139e+000	-5.0923848202e-001
 2.8250361555e+000	 3.6303127579e+000	-4.9810345142e-001
 2.7874503886e+000	 3.6592513348e+000	-4.9256511474e-001
 2.7495945849e+000	 3.6877811240e+000	-4.9336562575e-001
 2.7114753798e+000	 3.7158984465e+000	-5.0120165737e-001
 2.6730994731e+000	 3.7435997659e+000	-5.1672367629e-001
 2.6344736253e+000	 3.7708816897e+000	-5.2222824533e-001
 2.5956046532e+000	 3.7977409712e+000	-5.2962106218e-001
 2.5564994271e+000	 3.8241745096e+000	-5.4395777846e-001
 2.5171648656e+000	 3.8501793516e+000	-5.6484401043e-001
 2.9151288346e+000	 3.5906334925e+000	-5.2282076644e-001
 2.8779015428e+000	 3.6205396987e+000	-5.0891288475e-001
 2.8403896129e+000	 3.6500427186e+000	-4.9958514218e-001
 2.8025995755e+000	 3.6791385703e+000	-4.9563958534e-001
 2.7645380338e+000	 3.7078234128e+000	-4.9783307612e-001
 2.7262116591e+000	 3.7360935468e+000	-5.0687642499e-001
 2.6876271877e+000	 3.7639454168e+000	-5.1148153305e-001
 2.6487914167e+000	 3.7913756120e+000	-5.1153772896e-001
 2.6097112003e+000	 3.8183808678e+000	-5.1834892759e-001
 2.5703934457e+000	 3.8449580667e+000	-5.3151151310e-001
 2.5308451094e+000	 3.8711042394e+000	-5.5063120387e-001
 2.9308862878e+000	 3.6100423222e+000	-5.1697419774e-001
 2.8934577674e+000	 3.6401101836e+000	-5.0509029886e-001
 2.8557430702e+000	 3.6697726792e+000	-4.9757314515e-001
 2.8177487624e+000	 3.6990258058e+000	-4.9524013802e-001
 2.7794814826e+000	 3.7278657015e+000	-4.9886292054e-001
 2.7409479383e+000	 3.7562886470e+000	-5.0388705970e-001
 2.7021549022e+000	 3.7842910677e+000	-4.9743496243e-001
 2.6631092081e+000	 3.8118695342e+000	-4.9756245871e-001
 2.6238177473e+000	 3.8390207644e+000	-5.0385552537e-001
 2.5842874643e+000	 3.8657416238e+000	-5.1590969443e-001
 2.5445253532e+000	 3.8920291272e+000	-5.3333066817e-001
 2.9466437410e+000	 3.6294511519e+000	-5.0747446787e-001
 2.9090139919e+000	 3.6596806685e+000	-4.9760078011e-001
 2.8710965276e+000	 3.6895026398e+000	-4.9189683538e-001
 2.8328979493e+000	 3.7189130413e+000	-4.9119548442e-001
 2.7944249314e+000	 3.7479079902e+000	-4.9628322541e-001
 2.7556842175e+000	 3.7764837473e+000	-4.8585389570e-001
 2.7166826167e+000	 3.8046367186e+000	-4.8011877785e-001
 2.6774269996e+000	 3.8323634564e+000	-4.8037785010e-001
 2.6379242943e+000	 3.8596606609e+000	-4.8621527672e-001
 2.5981814829e+000	 3.8865251809e+000	-4.9722561667e-001
 2.5582055971e+000	 3.9129540150e+000	-5.1301443840e-001
 2.9624011941e+000	 3.6488599816e+000	-4.9415191754e-001
 2.9245702165e+000	 3.6792511533e+000	-4.8627398306e-001
 2.8864499850e+000	 3.7092326005e+000	-4.8238519962e-001
 2.8480471362e+000	 3.7388002768e+000	-4.8333396268e-001
 2.8093683802e+000	 3.7679502789e+000	-4.7537010513e-001
 2.7704204968e+000	 3.7966788475e+000	-4.6456984930e-001
 2.7312103313e+000	 3.8249823695e+000	-4.5960893899e-001
 2.6917447910e+000	 3.8528573787e+000	-4.6005902422e-001
 2.6520308414e+000	 3.8803005575e+000	-4.6550233301e-001
 2.6120755016e+000	 3.9073087380e+000	-4.7553233074e-001
 2.5718858409e+000	 3.9338789027e+000	-4.8975433477e-001
 2.9781586473e+000	 3.6682688113e+000	-4.7683648636e-001
 2.9401264410e+000	 3.6988216382e+000	-4.7093917175e-001
 2.9018034423e+000	 3.7289625611e+000	-4.6886684654e-001
 2.8631963231e+000	 3.7586875124e+000	-4.6459695553e-001
 2.8243118291e+000	 3.7879925676e+000	-4.4950255461e-001
 2.7851567760e+000	 3.8168739478e+000	-4.4011125848e-001
 2.7457380458e+000	 3.8453280204e+000	-4.3598109680e-001
 2.7060625825e+000	 3.8733513009e+000	-4.3668081551e-001
 2.6661373884e+000	 3.9009404541e+000	-4.4179058296e-001
 2.6259695202e+000	 3.9280922951e+000	-4.5090265074e-001
 2.5855660847e+000	 3.9548037905e+000	-4.6362196834e-001
 2.9939161004e+000	 3.6876776410e+000	-4.5535772340e-001
 2.9556826656e+000	 3.7183921230e+000	-4.5142522993e-001
 2.9171568997e+000	 3.7486925218e+000	-4.5117001674e-001
 2.8783455100e+000	 3.7785747479e+000	-4.3354206930e-001
 2.8392552779e+000	 3.8080348563e+000	-4.2048268178e-001
 2.7998930552e+000	 3.8370690480e+000	-4.1255414093e-001
 2.7602657603e+000	 3.8656736713e+000	-4.0931060161e-001
 2.7203803739e+000	 3.8938452231e+000	-4.1031777931e-001
 2.6802439354e+000	 3.9215803507e+000	-4.1515365950e-001
 2.6398635388e+000	 3.9488758523e+000	-4.2340916015e-001
 2.5992463286e+000	 3.9757286783e+000	-4.3468874651e-001
 2.4624438902e+000	 3.7664798005e+000	-5.0998951949e-001
 2.4237468907e+000	 3.7914971990e+000	-4.7636532707e-001
 2.3848392068e+000	 3.8160898781e+000	-4.4912181653e-001
 2.3457277277e+000	 3.8402553857e+000	-4.2804167382e-001
 2.3064193751e+000	 3.8639914164e+000	-4.1286833403e-001
 2.2669210994e+000	 3.8872958119e+000	-4.0330793274e-001
 2.2272398761e+000	 3.9101665609e+000	-3.9903134145e-001
 2.1873827014e+000	 3.9326018000e+000	-3.9967627988e-001
 2.1473565890e+000	 3.9545998128e+000	-4.0484949776e-001
 2.1071685659e+000	 3.9761590304e+000	-4.1412901852e-001
 2.0668256687e+000	 3.9972780307e+000	-4.2706643741e-001
 2.4761241341e+000	 3.7874046883e+000	-5.3568509947e-001
 2.4372121512e+000	 3.8125610723e+000	-4.9509088216e-001
 2.3980883135e+000	 3.8372903774e+000	-4.6118105762e-001
 2.3587595484e+000	 3.8615901379e+000	-4.3374840654e-001
 2.3192328160e+000	 3.8854580354e+000	-4.1254525367e-001
 2.2795151055e+000	 3.9088918997e+000	-3.9728544374e-001
 2.2396134310e+000	 3.9318897085e+000	-3.8764640380e-001
 2.1995348275e+000	 3.9544495878e+000	-3.8327128458e-001
 2.1592863478e+000	 3.9765698118e+000	-3.8377117332e-001
 2.1188750579e+000	 3.9982488028e+000	-3.8872737045e-001
 2.0783080336e+000	 4.0194851309e+000	-3.9769372246e-001
 2.4898043779e+000	 3.8083295761e+000	-5.6048241337e-001
 2.4506774117e+000	 3.8336249456e+000	-5.1348492537e-001
 2.4113374202e+000	 3.8584908768e+000	-4.7348782075e-001
 2.3717913691e+000	 3.8829248900e+000	-4.4029342862e-001
 2.3320462570e+000	 3.9069246544e+000	-4.1366240096e-001
 2.2921091116e+000	 3.9304879876e+000	-3.9331571421e-001
 2.2519869858e+000	 3.9536128561e+000	-3.7893675943e-001
 2.2116869537e+000	 3.9762973756e+000	-3.7017351364e-001
 2.1712161067e+000	 3.9985398108e+000	-3.6664078475e-001
 2.1305815500e+000	 4.0203385752e+000	-3.6792252225e-001
 2.0897903984e+000	 4.0416922311e+000	-3.7357418577e-001
 2.5034846217e+000	 3.8292544638e+000	-5.7589683209e-001
 2.4641426722e+000	 3.8546888190e+000	-5.3124026765e-001
 2.4245865269e+000	 3.8796913761e+000	-4.8573143524e-001
 2.3848231898e+000	 3.9042596422e+000	-4.4736274833e-001
 2.3448596980e+000	 3.9283912734e+000	-4.1590262342e-001
 2.3047031177e+000	 3.9520840754e+000	-3.9107859070e-001
 2.2643605407e+000	 3.9753360036e+000	-3.7257941298e-001
 2.2238390798e+000	 3.9981451634e+000	-3.6005728810e-001
 2.1831458655e+000	 4.0205098097e+000	-3.5313012684e-001
 2.1422880420e+000	 4.0424283476e+000	-3.5138389862e-001
 2.1012727632e+000	 4.0638993313e+000	-3.5437503690e-001
 2.5171648656e+000	 3.8501793516e+000	-5.6484401043e-001
 2.4776079327e+000	 3.8757526923e+000	-5.4804962950e-001
 2.4378356336e+000	 3.9008918754e+000	-4.9760128877e-001
 2.3978550105e+000	 3.9255943943e+000	-4.5464258092e-001
 2.3576731389e+000	 3.9498578924e+000	-4.1894912384e-001
 2.3172971239e+000	 3.9736801633e+000	-3.9025442291e-001
 2.2767340956e+000	 3.9970591512e+000	-3.6825201978e-001
 2.2359912059e+000	 4.0199929511e+000	-3.5259772666e-001
 2.1950756243e+000	 4.0424798087e+000	-3.4291193838e-001
 2.1539945340e+000	 4.0645181200e+000	-3.3878201403e-001
 2.1127551280e+000	 4.0861064314e+000	-3.3976472021e-001
 2.5308451094e+000	 3.8711042394e+000	-5.5063120387e-001
 2.4910731932e+000	 3.8968165656e+000	-5.6360564336e-001
 2.4510847403e+000	 3.9220923747e+000	-5.0878682579e-001
 2.4108868312e+000	 3.9469291465e+000	-4.6181934302e-001
 2.3704865799e+000	 3.9713245114e+000	-4.2248545069e-001
 2.3298911300e+000	 3.9952762511e+000	-3.9052405021e-001
 2.2891076504e+000	 4.0187822988e+000	-3.6563286827e-001
 2.2481433320e+000	 4.0418407389e+000	-3.4747072413e-001
 2.2070053831e+000	 4.0644498076e+000	-3.3565987669e-001
 2.1657010260e+000	 4.0866078923e+000	-3.2978844325e-001
 2.1242374928e+000	 4.1083135316e+000	-3.2941288148e-001
 2.5445253532e+000	 3.8920291272e+000	-5.3333066817e-001
 2.5045384537e+000	 3.9178804389e+000	-5.6617784992e-001
 2.4643338470e+000	 3.9432928740e+000	-5.1897754604e-001
 2.4239186519e+000	 3.9682638986e+000	-4.6857964726e-001
 2.3833000209e+000	 3.9927911303e+000	-4.2619548885e-001
 2.3424851361e+000	 4.0168723389e+000	-3.9156878838e-001
 2.3014812053e+000	 4.0405054463e+000	-3.6440086295e-001
 2.2602954581e+000	 4.0636885267e+000	-3.4435293050e-001
 2.2189351420e+000	 4.0864198066e+000	-3.3104849293e-001
 2.1774075181e+000	 4.1086976647e+000	-3.2407579287e-001
 2.1357198577e+000	 4.1305206318e+000	-3.2299033559e-001
 2.5582055971e+000	 3.9129540150e+000	-5.1301443840e-001
 2.5180037142e+000	 3.9389443123e+000	-5.4394658586e-001
 2.4775829537e+000	 3.9644933734e+000	-5.2786300301e-001
 2.4369504726e+000	 3.9895986507e+000	-4.7461029696e-001
 2.3961134619e+000	 4.0142577493e+000	-4.2976345058e-001
 2.3550791422e+000	 4.0384684268e+000	-3.9307041691e-001
 2.3138547601e+000	 4.0622285939e+000	-3.6423550795e-001
 2.2724475842e+000	 4.0855363145e+000	-3.4292173085e-001
 2.2308649008e+000	 4.1083898056e+000	-3.2875320817e-001
 2.1891140101e+000	 4.1307874371e+000	-3.2131767370e-001
 2.1472022225e+000	 4.1527277319e+000	-3.2016903532e-001
 2.5718858409e+000	 3.9338789027e+000	-4.8975433477e-001
 2.5314689747e+000	 3.9600081856e+000	-5.1913176439e-001
 2.4908320604e+000	 3.9856938727e+000	-5.3513280256e-001
 2.4499822933e+000	 4.0109334029e+000	-4.7959828113e-001
 2.4089269028e+000	 4.0357243683e+000	-4.3287386682e-001
 2.3676731483e+000	 4.0600645146e+000	-3.9471116668e-001
 2.3262283150e+000	 4.0839517414e+000	-3.6481689105e-001
 2.2845997104e+000	 4.1073841022e+000	-3.4285522570e-001
 2.2427946596e+000	 4.1303598045e+000	-3.2845029026e-001
 2.2008205021e+000	 4.1528772095e+000	-3.2118867407e-001
 2.1586845873e+000	 4.1749348321e+000	-3.2062204102e-001
 2.5855660847e+000	 3.9548037905e+000	-4.6362196834e-001
 2.5449342352e+000	 3.9810720589e+000	-4.9179901091e-001
 2.5040811671e+000	 4.0068943720e+000	-5.3001185637e-001
 2.4630141140e+000	 4.0322681550e+000	-4.8323076951e-001
 2.4217403438e+000	 4.0571909873e+000	-4.3521157878e-001
 2.3802671544e+000	 4.0816606025e+000	-3.9617370799e-001
 2.3386018699e+000	 4.1056748890e+000	-3.6582566824e-001
 2.2967518365e+000	 4.1292318900e+000	-3.4383221217e-001
 2.2547244184e+000	 4.1523298035e+000	-3.2981683147e-001
 2.2125269942e+000	 4.1749669819e+000	-3.2336433396e-001
 2.1701669521e+000	 4.1971419323e+000	-3.2402349136e-001
 2.5992463286e+000	 3.9757286783e+000	-4.3468874651e-001
 2.5583994957e+000	 4.0021359322e+000	-4.6201387390e-001
 2.5173302738e+000	 4.0280948713e+000	-4.9928627548e-001
 2.4760459347e+000	 4.0536029072e+000	-4.8519510784e-001
 2.4345537848e+000	 4.0786576062e+000	-4.3646172975e-001
 2.3928611605e+000	 4.1032566903e+000	-3.9714113901e-001
 2.3509754247e+000	 4.1273980366e+000	-3.6694304879e-001
 2.3089039626e+000	 4.1510796778e+000	-3.4553216556e-001
 2.2666541773e+000	 4.1742998024e+000	-3.3253072675e-001
 2.2242334862e+000	 4.1970567543e+000	-3.2752111996e-001
 2.1816493170e+000	 4.2193490324e+000	-3.3004857493e-001
 2.0668256687e+000	 3.9972780307e+000	-4.2706643741e-001
 2.0263349401e+000	 4.0179555386e+000	-4.1282799979e-001
 1.9857034249e+000	 4.0381904250e+000	-3.9439607071e-001
 1.9449381662e+000	 4.0579817064e+000	-3.7157584276e-001
 1.9040462023e+000	 4.0773285445e+000	-3.4415820401e-001
 1.8630345624e+000	 4.0962302449e+000	-3.3122014088e-001
 1.8219102636e+000	 4.1146862567e+000	-3.5773246119e-001
 1.7806803072e+000	 4.1326961712e+000	-3.7647230319e-001
 1.7393516748e+000	 4.1502597210e+000	-3.8880238746e-001
 1.6979313258e+000	 4.1673767784e+000	-3.9603903223e-001
 1.6564261930e+000	 4.1840473548e+000	-3.9945049428e-001
 2.0783080336e+000	 4.0194851309e+000	-3.9769372246e-001
 2.0375923565e+000	 4.0402775138e+000	-3.8433929997e-001
 1.9967351106e+000	 4.0606248162e+000	-3.6689616759e-001
 1.9557433782e+000	 4.0805260492e+000	-3.4512866313e-001
 1.9146242367e+000	 4.0999803697e+000	-3.1878661743e-001
 1.8733847544e+000	 4.1189870796e+000	-2.9007847337e-001
 1.8320319873e+000	 4.1375456248e+000	-3.1516404853e-001
 1.7905729755e+000	 4.1556555944e+000	-3.3254739493e-001
 1.7490147397e+000	 4.1733167194e+000	-3.4359976331e-001
 1.7073642776e+000	 4.1905288716e+000	-3.4964529279e-001
 1.6656285608e+000	 4.2072920623e+000	-3.5195933727e-001
 2.0897903984e+000	 4.0416922311e+000	-3.7357418577e-001
 2.0488497728e+000	 4.0625994891e+000	-3.6100086439e-001
 2.0077667963e+000	 4.0830592075e+000	-3.4445357851e-001
 1.9665485903e+000	 4.1030703921e+000	-3.2365548170e-001
 1.9252022712e+000	 4.1226321950e+000	-2.9831500713e-001
 1.8837349464e+000	 4.1417439143e+000	-2.6812811728e-001
 1.8421537110e+000	 4.1604049929e+000	-2.7869328016e-001
 1.8004656439e+000	 4.1786150176e+000	-2.9419521789e-001
 1.7586778046e+000	 4.1963737179e+000	-3.0345413118e-001
 1.7167972294e+000	 4.2136809648e+000	-3.0780247383e-001
 1.6748309285e+000	 4.2305367698e+000	-3.0852317233e-001
 2.1012727632e+000	 4.0638993313e+000	-3.5437503690e-001
 2.0601071891e+000	 4.0849214643e+000	-3.4249040103e-001
 2.0187984819e+000	 4.1054935987e+000	-3.2675660037e-001
 1.9773538023e+000	 4.1256147349e+000	-3.0685526771e-001
 1.9357803056e+000	 4.1452840202e+000	-2.8245309093e-001
 1.8940851384e+000	 4.1645007490e+000	-2.5320413904e-001
 1.8522754347e+000	 4.1832643610e+000	-2.4831678251e-001
 1.8103583123e+000	 4.2015744408e+000	-2.6141594866e-001
 1.7683408694e+000	 4.2194307163e+000	-2.6836924619e-001
 1.7262301812e+000	 4.2368330580e+000	-2.7051793737e-001
 1.6840332963e+000	 4.2537814774e+000	-2.6915299659e-001
 2.1127551280e+000	 4.0861064314e+000	-3.3976472021e-001
 2.0713646055e+000	 4.1072434395e+000	-3.2848672386e-001
 2.0298301676e+000	 4.1279279900e+000	-3.1349450775e-001
 1.9881590143e+000	 4.1481590777e+000	-2.9442784036e-001
 1.9463583401e+000	 4.1679358455e+000	-2.7091130951e-001
 1.9044353304e+000	 4.1872575837e+000	-2.4255672568e-001
 1.8623971584e+000	 4.2061237291e+000	-2.2403165264e-001
 1.8202509806e+000	 4.2245338639e+000	-2.3421010946e-001
 1.7780039343e+000	 4.2424877148e+000	-2.3834908498e-001
 1.7356631330e+000	 4.2599851512e+000	-2.3779914369e-001
 1.6932356640e+000	 4.2770261849e+000	-2.3385978313e-001
 2.1242374928e+000	 4.1083135316e+000	-3.2941288148e-001
 2.0826220218e+000	 4.1295654147e+000	-3.1866972295e-001
 2.0408618533e+000	 4.1503623812e+000	-3.0435752656e-001
 1.9989642264e+000	 4.1707034205e+000	-2.8607384586e-001
 1.9569363745e+000	 4.1905876707e+000	-2.6340080685e-001
 1.9147855224e+000	 4.2100144184e+000	-2.3590758935e-001
 1.8725188821e+000	 4.2289830972e+000	-2.0583544553e-001
 1.8301436490e+000	 4.2474932871e+000	-2.1257855889e-001
 1.7876669991e+000	 4.2655447132e+000	-2.1339783976e-001
 1.7450960848e+000	 4.2831372445e+000	-2.0965364870e-001
 1.7024380317e+000	 4.3002708924e+000	-2.0265448164e-001
 2.1357198577e+000	 4.1305206318e+000	-3.2299033559e-001
 2.0938794381e+000	 4.1518873899e+000	-3.1272033556e-001
 2.0518935390e+000	 4.1727967725e+000	-2.9903680839e-001
 2.0097694384e+000	 4.1932477633e+000	-2.8149473517e-001
 1.9675144090e+000	 4.2132394960e+000	-2.5963341133e-001
 1.9251357145e+000	 4.2327712531e+000	-2.3297900688e-001
 1.8826406057e+000	 4.2518424653e+000	-2.0104713498e-001
 1.8400363174e+000	 4.2704527103e+000	-1.9652248280e-001
 1.7973300640e+000	 4.2886017116e+000	-1.9351991248e-001
 1.7545290366e+000	 4.3062893377e+000	-1.8608910134e-001
 1.7116403995e+000	 4.3235155999e+000	-1.7554801900e-001
 2.1472022225e+000	 4.1527277319e+000	-3.2016903532e-001
 2.1051368545e+000	 4.1742093651e+000	-3.1032051814e-001
 2.0629252247e+000	 4.1952311637e+000	-2.9722440579e-001
 2.0205746504e+000	 4.2157921061e+000	-2.8039274250e-001
 1.9780924434e+000	 4.2358913212e+000	-2.5932161741e-001
 1.9354859065e+000	 4.2555280878e+000	-2.3349380464e-001
 1.8927623294e+000	 4.2747018334e+000	-2.0238141122e-001
 1.8499289858e+000	 4.2934121334e+000	-1.8604338561e-001
 1.8069931288e+000	 4.3116587101e+000	-1.7871990924e-001
 1.7639619884e+000	 4.3294414309e+000	-1.6711324114e-001
 1.7208427672e+000	 4.3467603075e+000	-1.5255129995e-001
 2.1586845873e+000	 4.1749348321e+000	-3.2062204102e-001
 2.1163942708e+000	 4.1965313403e+000	-3.1115321920e-001
 2.0739569104e+000	 4.2176655550e+000	-2.9861324830e-001
 2.0313798625e+000	 4.2383364489e+000	-2.8247086446e-001
 1.9886704779e+000	 4.2585431465e+000	-2.6217856796e-001
 1.9458360985e+000	 4.2782849225e+000	-2.3717534396e-001
 1.9028840531e+000	 4.2975612015e+000	-2.0688939077e-001
 1.8598216541e+000	 4.3163715566e+000	-1.8114308179e-001
 1.8166561937e+000	 4.3347157085e+000	-1.6900263486e-001
 1.7733949402e+000	 4.3525935241e+000	-1.5273389575e-001
 1.7300451349e+000	 4.3700050150e+000	-1.3367520763e-001
 2.1701669521e+000	 4.1971419323e+000	-3.2402349136e-001
 2.1276516871e+000	 4.2188533156e+000	-3.1490235308e-001
 2.0849885961e+000	 4.2400999462e+000	-3.0289711928e-001
 2.0421850745e+000	 4.2608807917e+000	-2.8743283994e-001
 1.9992485124e+000	 4.2811949717e+000	-2.6791803706e-001
 1.9561862905e+000	 4.3010417572e+000	-2.4374750696e-001
 1.9130057768e+000	 4.3204205696e+000	-2.1430512972e-001
 1.8697143225e+000	 4.3393309798e+000	-1.8182368768e-001
 1.8263192586e+000	 4.3577727070e+000	-1.6437308762e-001
 1.7828278921e+000	 4.3757456173e+000	-1.4561012217e-001
 1.7392475027e+000	 4.3932497225e+000	-1.8771346256e-001
 2.1816493170e+000	 4.2193490324e+000	-3.3004857493e-001
 2.1389091034e+000	 4.2411752908e+000	-3.2125277455e-001
 2.0960202818e+000	 4.2625343375e+000	-3.0977063339e-001
 2.0529902865e+000	 4.2834251345e+000	-2.9498313050e-001
 2.0098265468e+000	 4.3038467969e+000	-2.7625441341e-001
 1.9665364825e+000	 4.3237985918e+000	-2.5293468286e-001
 1.9231275005e+000	 4.3432799376e+000	-2.2436308433e-001
 1.8796069909e+000	 4.3622904030e+000	-1.8987059780e-001
 1.8359823234e+000	 4.3808297054e+000	-1.8304320268e-001
 1.7922608439e+000	 4.3988977105e+000	-2.1842084666e-001
 1.7484498704e+000	 4.4164944300e+000	-2.5749053969e-001
 1.6564261930e+000	 4.1840473548e+000	-3.9945049428e-001
 1.6148431803e+000	 4.2002715988e+000	-3.8376561433e-001
 1.5731891585e+000	 4.2160497947e+000	-3.6045347030e-001
 1.5314709629e+000	 4.2313823616e+000	-3.3064039763e-001
 1.4896953899e+000	 4.2462698508e+000	-2.9540460177e-001
 1.4478691937e+000	 4.2607129448e+000	-2.5577510646e-001
 1.4059990840e+000	 4.2747124554e+000	-2.1273083482e-001
 1.3640917223e+000	 4.2882693215e+000	-1.6719982229e-001
 1.3221537197e+000	 4.3013846075e+000	-1.2005856005e-001
 1.2801916340e+000	 4.3140595013e+000	-7.2131467554e-002
 1.2382119668e+000	 4.3262953119e+000	-8.8326159708e-002
 1.6656285608e+000	 4.2072920623e+000	-3.5195933727e-001
 1.6238145313e+000	 4.2236064410e+000	-3.3447809860e-001
 1.5819290983e+000	 4.2394722936e+000	-3.0900105880e-001
 1.5399791349e+000	 4.2548900414e+000	-2.7667827412e-001
 1.4979714754e+000	 4.2698602388e+000	-2.3861111212e-001
 1.4559129115e+000	 4.2843835723e+000	-1.9585117304e-001
 1.4138101900e+000	 4.2984608579e+000	-1.4939934603e-001
 1.3716700096e+000	 4.3120930399e+000	-1.0020499934e-001
 1.3294990181e+000	 4.3252811887e+000	-4.9165303089e-002
 1.2873038097e+000	 4.3380264985e+000	 2.8753170156e-003
 1.2450909222e+000	 4.3503302858e+000	 2.9547156955e-002
 1.6748309285e+000	 4.2305367698e+000	-3.0852317233e-001
 1.6327858823e+000	 4.2469412832e+000	-2.8905160836e-001
 1.5906690380e+000	 4.2628947925e+000	-2.6123141726e-001
 1.5484873069e+000	 4.2783977212e+000	-2.2623663238e-001
 1.5062475609e+000	 4.2934506269e+000	-1.8519201884e-001
 1.4639566292e+000	 4.3080541997e+000	-1.3917196790e-001
 1.4216212960e+000	 4.3222092604e+000	-8.9199528374e-002
 1.3792482970e+000	 4.3359167584e+000	-3.6245573969e-002
 1.3368443166e+000	 4.3491777698e+000	 1.8771894599e-002
 1.2944159855e+000	 4.3619934957e+000	 7.4988314479e-002
 1.2519698775e+000	 4.3743652598e+000	 1.3159299443e-001
 1.6840332963e+000	 4.2537814774e+000	-2.6915299659e-001
 1.6417572333e+000	 4.2702761254e+000	-2.4749602751e-001
 1.5994089778e+000	 4.2863172913e+000	-2.1715326757e-001
 1.5569954790e+000	 4.3019054009e+000	-1.7932298585e-001
 1.5145236464e+000	 4.3170410149e+000	-1.3515358279e-001
 1.4720003470e+000	 4.3317248272e+000	-8.5742457509e-002
 1.4294324020e+000	 4.3459576629e+000	-3.2135014271e-002
 1.3868265843e+000	 4.3597404768e+000	 2.4676192924e-002
 1.3441896150e+000	 4.3730743510e+000	 8.3752178927e-002
 1.3015281612e+000	 4.3859604930e+000	 8.8917532637e-002
 1.2588488329e+000	 4.3984002337e+000	 8.9827168337e-002
 1.6932356640e+000	 4.2770261849e+000	-2.3385978313e-001
 1.6507285843e+000	 4.2936109676e+000	-2.0982119839e-001
 1.6081489176e+000	 4.3097397902e+000	-1.7677527521e-001
 1.5655036510e+000	 4.3254130807e+000	-1.3594477940e-001
 1.5227997319e+000	 4.3406314030e+000	-8.8501986800e-002
 1.4800440647e+000	 4.3553954547e+000	-3.5567523441e-002
 1.4372435081e+000	 4.3697060655e+000	 2.1790652919e-002
 1.3944048717e+000	 4.3835641953e+000	 3.9211119639e-002
 1.3515349135e+000	 4.3969709321e+000	 3.5705425109e-002
 1.3086403370e+000	 4.4099274902e+000	 3.8369286582e-002
 1.2657277883e+000	 4.4224352077e+000	 4.7361596208e-002
 1.7024380317e+000	 4.3002708924e+000	-2.0265448164e-001
 1.6596999353e+000	 4.3169458098e+000	-1.7603692287e-001
 1.6168888573e+000	 4.3331622890e+000	-1.4010605078e-001
 1.5740118230e+000	 4.3489207605e+000	-9.6109391223e-002
 1.5310758174e+000	 4.3642217911e+000	-4.5243337777e-002
 1.4880877825e+000	 4.3790660822e+000	-8.7483749818e-003
 1.4450546141e+000	 4.3934544680e+000	-1.8846296520e-002
 1.4019831590e+000	 4.4073879137e+000	-2.2472767971e-002
 1.3588802119e+000	 4.4208675133e+000	-1.9419862528e-002
 1.3157525127e+000	 4.4338944874e+000	-9.5011230209e-003
 1.2726067437e+000	 4.4464701816e+000	 7.4478187906e-003
 1.7116403995e+000	 4.3235155999e+000	-1.7554801900e-001
 1.6686712863e+000	 4.3402806520e+000	-1.4615296347e-001
 1.6256287971e+000	 4.3565847879e+000	-1.0715415147e-001
 1.5825199950e+000	 4.3724284403e+000	-5.9824134577e-002
 1.5393519029e+000	 4.3878121791e+000	-6.6362443518e-002
 1.4961315002e+000	 4.4027367096e+000	-7.8293012473e-002
 1.4528657201e+000	 4.4172028705e+000	-8.3312374441e-002
 1.4095614464e+000	 4.4312116322e+000	-8.1183291636e-002
 1.3662255104e+000	 4.4447640944e+000	-7.1690228525e-002
 1.3228646884e+000	 4.4578614846e+000	-5.4640040868e-002
 1.2794856990e+000	 4.4705051556e+000	-2.9862600242e-002
 1.7208427672e+000	 4.3467603075e+000	-1.5255129995e-001
 1.6776426373e+000	 4.3636154943e+000	-1.2017904437e-001
 1.6343687369e+000	 4.3800072868e+000	-1.0007615504e-001
 1.5910281670e+000	 4.3959361201e+000	-1.2202422153e-001
 1.5476279884e+000	 4.4114025672e+000	-1.3695519815e-001
 1.5041752179e+000	 4.4264073371e+000	-1.4458014244e-001
 1.4606768261e+000	 4.4409512731e+000	-1.4463114291e-001
 1.4171397337e+000	 4.4550353506e+000	-1.3686214544e-001
 1.3735708088e+000	 4.4686606756e+000	-1.2104971511e-001
 1.3299768642e+000	 4.4818284819e+000	-9.6993732480e-002
 1.2863646544e+000	 4.4945401296e+000	-6.4518023757e-002
 1.7300451349e+000	 4.3700050150e+000	-1.3367520763e-001
 1.6866139883e+000	 4.3869503365e+000	-1.4734202410e-001
 1.6431086766e+000	 4.4034297856e+000	-1.7370730308e-001
 1.5995363390e+000	 4.4194437999e+000	-1.9274019954e-001
 1.5559040739e+000	 4.4349929552e+000	-2.0411982471e-001
 1.5122189357e+000	 4.4500779646e+000	-2.0754631695e-001
 1.4684879322e+000	 4.4646996756e+000	-2.0274174435e-001
 1.4247180211e+000	 4.4788590691e+000	-1.8945094221e-001
 1.3809161073e+000	 4.4925572567e+000	-1.6744228418e-001
 1.3370890399e+000	 4.5057954791e+000	-1.3650838631e-001
 1.2932436098e+000	 4.5185751035e+000	-9.6466743115e-002
 1.7392475027e+000	 4.3932497225e+000	-1.8771346256e-001
 1.6955853393e+000	 4.4102851787e+000	-2.1947596753e-001
 1.6518486164e+000	 4.4268522845e+000	-2.4364203778e-001
 1.6080445111e+000	 4.4429514797e+000	-2.5985774609e-001
 1.5641801594e+000	 4.4585833433e+000	-2.6779009816e-001
 1.5202626534e+000	 4.4737485920e+000	-2.6712801395e-001
 1.4762990382e+000	 4.4884480781e+000	-2.5758324345e-001
 1.4322963084e+000	 4.5026827875e+000	-2.3889121564e-001
 1.3882614057e+000	 4.5164538379e+000	-2.1081181943e-001
 1.3442012157e+000	 4.5297624763e+000	-1.7313011578e-001
 1.3001225651e+000	 4.5426100775e+000	-1.2565698006e-001
 1.7484498704e+000	 4.4164944300e+000	-2.5749053969e-001
 1.7045566903e+000	 4.4336200209e+000	-2.8774686158e-001
 1.6605885562e+000	 4.4502747833e+000	-3.0980833768e-001
 1.6165526831e+000	 4.4664591594e+000	-3.2330776017e-001
 1.5724562449e+000	 4.4821737314e+000	-3.2789972715e-001
 1.5283063712e+000	 4.4974192195e+000	-3.2326163927e-001
 1.4841101442e+000	 4.5121964807e+000	-3.0909462918e-001
 1.4398745957e+000	 4.5265065060e+000	-2.8512442240e-001
 1.3956067041e+000	 4.5403504190e+000	-2.5110212842e-001
 1.3513133914e+000	 4.5537294736e+000	-2.0680496126e-001
 1.3070015205e+000	 4.5666450514e+000	-1.5203688856e-001
 1.2382119668e+000	 4.3262953119e+000	-8.8326159708e-002
 1.1962211613e+000	 4.3380934676e+000	-1.2588169328e-001
 1.1542255995e+000	 4.3494555137e+000	-1.4449241082e-001
 1.1122316001e+000	 4.3603831102e+000	-1.4381921416e-001
 1.0702454156e+000	 4.3708780297e+000	-1.2373163664e-001
 1.0282732308e+000	 4.3809421547e+000	-1.1229927454e-001
 9.8632116015e-001	 4.3905774756e+000	-9.9499763372e-002
 9.4439524573e-001	 4.3997860880e+000	-6.7291488659e-002
 9.0250145542e-001	 4.4085701903e+000	-1.7108058936e-002
 8.6064568090e-001	 4.4169320814e+000	 4.9637771800e-002
 8.1883373586e-001	 4.4248741579e+000	 1.3155301879e-001
 1.2450909222e+000	 4.3503302858e+000	 2.9547156955e-002
 1.2028668344e+000	 4.3621939868e+000	-5.7341312761e-003
 1.1606379640e+000	 4.3736191554e+000	-2.1493761528e-002
 1.1184106645e+000	 4.3846074608e+000	-6.3858547851e-002
 1.0761912235e+000	 4.3951606854e+000	-9.0637418365e-002
 1.0339858599e+000	 4.4052807222e+000	-9.6546057767e-002
 9.9180072215e-001	 4.4149695727e+000	-8.3024988749e-002
 9.4964188598e-001	 4.4242293440e+000	-5.1490601894e-002
 9.0751535240e-001	 4.4330622469e+000	-3.3363601590e-003
 8.6542704580e-001	 4.4414705930e+000	 6.0066007698e-002
 8.2338281217e-001	 4.4494567921e+000	 1.3736532939e-001
 1.2519698775e+000	 4.3743652598e+000	 1.3159299443e-001
 1.2095125075e+000	 4.3862945061e+000	 5.4407099008e-002
 1.1670503284e+000	 4.3977827972e+000	-1.1928346057e-002
 1.1245897290e+000	 4.4088318115e+000	-5.5972951176e-002
 1.0821370313e+000	 4.4194433411e+000	-7.9183090395e-002
 1.0396984889e+000	 4.4296192898e+000	-8.2987327544e-002
 9.9728028415e-001	 4.4393616698e+000	-6.8787724570e-002
 9.5488852624e-001	 4.4486726001e+000	-3.7961148245e-002
 9.1252924937e-001	 4.4575543036e+000	 8.1394300886e-003
 8.7020841069e-001	 4.4660091046e+000	 6.8183646832e-002
 8.2793188848e-001	 4.4740394263e+000	 1.4086247530e-001
 1.2588488329e+000	 4.3984002337e+000	 8.9827168337e-002
 1.2161581807e+000	 4.4103950254e+000	 4.8908472025e-002
 1.1734626929e+000	 4.4219464389e+000	-1.0906295613e-002
 1.1307687934e+000	 4.4330561621e+000	-4.9960568476e-002
 1.0880828392e+000	 4.4437259969e+000	-6.9674301406e-002
 1.0454111180e+000	 4.4539578573e+000	-7.1438386370e-002
 1.0027598461e+000	 4.4637537669e+000	-5.6616058252e-002
 9.6013516649e-001	 4.4731158561e+000	-2.6544298364e-002
 9.1754314634e-001	 4.4820463602e+000	 1.7464769840e-002
 8.7498977558e-001	 4.4905476161e+000	 7.4122498113e-002
 8.3248096479e-001	 4.4986220605e+000	 1.4216234883e-001
 1.2657277883e+000	 4.4224352077e+000	 4.7361596208e-002
 1.2228038538e+000	 4.4344955446e+000	 4.1936828796e-002
 1.1798750573e+000	 4.4461100807e+000	-1.1456032602e-002
 1.1369478578e+000	 4.4572805127e+000	-4.5611746153e-002
 1.0940286471e+000	 4.4680086526e+000	-6.1913464252e-002
 1.0511237471e+000	 4.4782964248e+000	-6.1714026849e-002
 1.0082394081e+000	 4.4881458639e+000	-4.6337465446e-002
 9.6538180674e-001	 4.4975591122e+000	-1.7080504168e-002
 9.2255704332e-001	 4.5065384168e+000	 2.4785947821e-002
 8.7977114048e-001	 4.5150861277e+000	 7.8015318018e-002
 8.3703004110e-001	 4.5232046947e+000	 1.4138391155e-001
 1.2726067437e+000	 4.4464701816e+000	 7.4478187906e-003
 1.2294495269e+000	 4.4585960639e+000	 3.3725127179e-002
 1.1862874218e+000	 4.4702737224e+000	-1.3355930911e-002
 1.1431269223e+000	 4.4815048633e+000	-4.2716517564e-002
 1.0999744549e+000	 4.4922913083e+000	-5.5702589772e-002
 1.0568363761e+000	 4.5026349923e+000	-5.3628545476e-002
 1.0137189701e+000	 4.5125379610e+000	-3.7778826568e-002
 9.7062844700e-001	 4.5220023682e+000	-9.4095182732e-003
 9.2757094029e-001	 4.5310304734e+000	 3.0250060998e-002
 8.8455250537e-001	 4.5396246393e+000	 7.9995784976e-002
 8.4157911741e-001	 4.5477873289e+000	 1.3864716537e-001
 1.2794856990e+000	 4.4705051556e+000	-2.9862600242e-002
 1.2360952000e+000	 4.4826965832e+000	 2.4506471717e-002
 1.1926997862e+000	 4.4944373641e+000	-1.6384141333e-002
 1.1493059867e+000	 4.5057292139e+000	-4.1064611443e-002
 1.1059202628e+000	 4.5165739640e+000	-5.0843297589e-002
 1.0625490052e+000	 4.5269735599e+000	-4.6995755969e-002
 1.0191985321e+000	 4.5369300581e+000	-3.0766442800e-002
 9.7587508725e-001	 4.5464456242e+000	-3.3704127847e-003
 9.3258483726e-001	 4.5555225300e+000	 3.4004992851e-002
 8.8933387026e-001	 4.5641631508e+000	 8.0198474588e-002
 8.4612819372e-001	 4.5723699631e+000	 1.3407312462e-001
 1.2863646544e+000	 4.4945401296e+000	-6.4518023757e-002
 1.2427408731e+000	 4.5067971024e+000	 1.4514109714e-002
 1.1991121506e+000	 4.5186010059e+000	-2.0318597535e-002
 1.1554850512e+000	 4.5299535645e+000	-4.0445460043e-002
 1.1118660707e+000	 4.5408566198e+000	-4.7136826576e-002
 1.0682616342e+000	 4.5513121274e+000	-4.1629002182e-002
 1.0246780942e+000	 4.5613221552e+000	-2.5126051580e-002
 9.8112172750e-001	 4.5708888803e+000	 1.1984025020e-003
 9.3759873424e-001	 4.5800145866e+000	 3.6199392345e-002
 8.9411523516e-001	 4.5887016624e+000	 7.8758835633e-002
 8.5067727003e-001	 4.5969525973e+000	 1.2778378892e-001
 1.2932436098e+000	 4.5185751035e+000	-9.6466743115e-002
 1.2493865463e+000	 4.5308976217e+000	 3.9814274425e-003
 1.2055245151e+000	 4.5427646476e+000	-2.4937021833e-002
 1.1616641156e+000	 4.5541779151e+000	-4.0648207020e-002
 1.1178118785e+000	 4.5651392755e+000	-4.4384044979e-002
 1.0739742633e+000	 4.5756506949e+000	-3.7341170599e-002
 1.0301576562e+000	 4.5857142523e+000	-2.0682841593e-002
 9.8636836776e-001	 4.5953321363e+000	 4.4591624890e-003
 9.4261263121e-001	 4.6045066432e+000	 3.6982653571e-002
 8.9889660005e-001	 4.6132401739e+000	 7.5813166853e-002
 8.5522634634e-001	 4.6215352316e+000	 1.1990211702e-001
 1.3001225651e+000	 4.5426100775e+000	-1.2565698006e-001
 1.2560322194e+000	 4.5549981410e+000	-2.4791028607e-002
 1.2119368795e+000	 4.5669282894e+000	-3.0016930783e-002
 1.1678431801e+000	 4.5784022658e+000	-4.1461715071e-002
 1.1237576864e+000	 4.5894219312e+000	-4.2385460225e-002
 1.0796868924e+000	 4.5999892625e+000	-3.3944702432e-002
 1.0356372182e+000	 4.6101063494e+000	-1.7261467291e-002
 9.9161500801e-001	 4.6197753924e+000	 6.5747297199e-003
 9.4762652819e-001	 4.6289986998e+000	 3.6504896032e-002
 9.0367796494e-001	 4.6377786855e+000	 7.1498594458e-002
 8.5977542265e-001	 4.6461178658e+000	 1.1055200139e-001
 1.3070015205e+000	 4.5666450514e+000	-1.5203688856e-001
 1.2626778925e+000	 4.5790986602e+000	-5.2652095606e-002
 1.2183492440e+000	 4.5910919311e+000	-3.5335640592e-002
 1.1740222445e+000	 4.6026266164e+000	-4.2674573325e-002
 1.1297034943e+000	 4.6137045869e+000	-4.0941228412e-002
 1.0853995214e+000	 4.6243278300e+000	-3.1251605345e-002
 1.0411167802e+000	 4.6344984465e+000	-1.4686062946e-002
 9.9686164827e-001	 4.6442186484e+000	 7.7085778628e-003
 9.5264042516e-001	 4.6534907565e+000	 3.4916945557e-002
 9.0845932984e-001	 4.6623171971e+000	 6.5953050360e-002
 8.6432449896e-001	 4.6707005000e+000	 9.9858243703e-002
 8.1883373586e-001	 4.4248741579e+000	 1.3155301879e-001
 7.7707135428e-001	 4.4323989115e+000	 6.7464240422e-002
 7.3536418877e-001	 4.4395089267e+000	 1.2140221653e-002
 6.9371780909e-001	 4.4462068779e+000	-3.5151459141e-002
 6.5213770062e-001	 4.4524955272e+000	-7.5135208314e-002
 6.1062926301e-001	 4.4583777210e+000	-7.4783699879e-002
 5.6919780892e-001	 4.4638563882e+000	-1.3587912109e-002
 5.2784856279e-001	 4.4689345369e+000	 4.0524133808e-002
 4.8658665973e-001	 4.4736152520e+000	 8.7651858147e-002
 4.4541714450e-001	 4.4779016925e+000	 1.2783563140e-001
 4.0434497057e-001	 4.4817970888e+000	 1.6105817277e-001
 8.2338281217e-001	 4.4494567921e+000	 1.3736532939e-001
 7.8138841736e-001	 4.4570233499e+000	 7.9262595472e-002
 7.3944954538e-001	 4.4641728651e+000	 2.9526002678e-002
 6.9757179692e-001	 4.4709080272e+000	-1.2553161021e-002
 6.5576068785e-001	 4.4772316134e+000	-4.7675493887e-002
 6.1402164781e-001	 4.4831464861e+000	-5.3293006075e-002
 5.7236001898e-001	 4.4886555903e+000	 3.8833382434e-003
 5.3078105481e-001	 4.4937619509e+000	 5.4166794949e-002
 4.8928991895e-001	 4.4984686700e+000	 9.7667850759e-002
 4.4789168419e-001	 4.5027789241e+000	 1.3443678110e-001
 4.0659133152e-001	 4.5066959615e+000	 1.6446506432e-001
 8.2793188848e-001	 4.4740394263e+000	 1.4086247530e-001
 7.8570548043e-001	 4.4816477883e+000	 8.8467171427e-002
 7.4353490198e-001	 4.4888368036e+000	 4.4041922221e-002
 7.0142578475e-001	 4.4956091766e+000	 6.9022277918e-003
 6.5938367507e-001	 4.5019676997e+000	-2.3628206733e-002
 6.1741403260e-001	 4.5079152512e+000	-3.3831049658e-002
 5.7552222903e-001	 4.5134547925e+000	 1.9368351864e-002
 5.3371354682e-001	 4.5185893650e+000	 6.5883753307e-002
 4.9199317817e-001	 4.5233220881e+000	 1.0583666432e-001
 4.5036622388e-001	 4.5276561557e+000	 1.3928720160e-001
 4.0883769246e-001	 4.5315948342e+000	 1.6623551928e-001
 8.3248096479e-001	 4.4986220605e+000	 1.4216234883e-001
 7.9002254351e-001	 4.5062722267e+000	 9.5186350688e-002
 7.4762025859e-001	 4.5135007421e+000	 5.5786740974e-002
 7.0527977258e-001	 4.5203103259e+000	 2.3303741696e-002
 6.6300666230e-001	 4.5267037859e+000	-2.9141361454e-003
 6.2080641740e-001	 4.5326840163e+000	-1.6437383415e-002
 5.7868443908e-001	 4.5382539946e+000	 3.2824174131e-002
 5.3664603884e-001	 4.5434167791e+000	 7.5628693607e-002
 4.9469643739e-001	 4.5481755061e+000	 1.1210866587e-001
 4.5284076358e-001	 4.5525333873e+000	 1.4233398693e-001
 4.1108405341e-001	 4.5564937069e+000	 1.6631340487e-001
 8.3703004110e-001	 4.5232046947e+000	 1.4138391155e-001
 7.9433960659e-001	 4.5308966650e+000	 9.9529609944e-002
 7.5170561519e-001	 4.5381646806e+000	 6.4860340643e-002
 7.0913376041e-001	 4.5450114752e+000	 3.6741564508e-002
 6.6662964952e-001	 4.5514398722e+000	 1.4547108045e-002
 6.2419880219e-001	 4.5574527815e+000	-1.1503489926e-003
 5.8184664912e-001	 4.5630531968e+000	 4.4209094819e-002
 5.3957853085e-001	 4.5682441932e+000	 8.3356579796e-002
 4.9739969661e-001	 4.5730289242e+000	 1.1643553804e-001
 4.5531530327e-001	 4.5774106189e+000	 1.4352558454e-001
 4.1333041436e-001	 4.5813925796e+000	 1.6464398111e-001
 8.4157911741e-001	 4.5477873289e+000	 1.3864716537e-001
 7.9865666967e-001	 4.5555211034e+000	 1.0160749059e-001
 7.5579097179e-001	 4.5628286191e+000	 7.1363693650e-002
 7.1298774823e-001	 4.5697126245e+000	 4.7306998394e-002
 6.7025263675e-001	 4.5761759585e+000	 2.8837063599e-002
 6.2759118699e-001	 4.5822215466e+000	 1.5360308277e-002
 5.8500885917e-001	 4.5878523989e+000	 5.3482614467e-002
 5.4251102287e-001	 4.5930716073e+000	 8.9023620468e-002
 5.0010295583e-001	 4.5978823423e+000	 1.1877024349e-001
 4.5778984296e-001	 4.6022878506e+000	 1.4281175878e-001
 4.1557677530e-001	 4.6062914523e+000	 1.6117386315e-001
 8.4612819372e-001	 4.5723699631e+000	 1.3407312462e-001
 8.0297373275e-001	 4.5801455418e+000	 1.0153157010e-001
 7.5987632840e-001	 4.5874925575e+000	 7.5398833812e-002
 7.1684173606e-001	 4.5944137738e+000	 5.5092433808e-002
 6.7387562397e-001	 4.6009120447e+000	 4.0038385016e-002
 6.3098357178e-001	 4.6069903117e+000	 2.9669461940e-002
 5.8817106922e-001	 4.6126516011e+000	 6.0605411834e-002
 5.4544351488e-001	 4.6178990214e+000	 9.2587235407e-002
 5.0280621505e-001	 4.6227357603e+000	 1.1906699048e-001
 4.6026438265e-001	 4.6271650822e+000	 1.4014355545e-001
 4.1782313625e-001	 4.6311903250e+000	 1.5585098487e-001
 8.5067727003e-001	 4.5969525973e+000	 1.2778378892e-001
 8.0729079583e-001	 4.6047699802e+000	 9.9414434353e-002
 7.6396168500e-001	 4.6121564960e+000	 7.7068827963e-002
 7.2069572389e-001	 4.6191149232e+000	 6.0191320396e-002
 6.7749861120e-001	 4.6256481310e+000	 4.8234813678e-002
 6.3437595657e-001	 4.6317590768e+000	 4.0658960590e-002
 5.9133327927e-001	 4.6374508033e+000	 6.5539312389e-002
 5.4837600689e-001	 4.6427264355e+000	 9.4006023201e-002
 5.0550947427e-001	 4.6475891784e+000	 1.1728119959e-001
 4.6273892234e-001	 4.6520423138e+000	 1.3547326755e-001
 4.2006949719e-001	 4.6560891977e+000	 1.4862456359e-001
 8.5522634634e-001	 4.6215352316e+000	 1.1990211702e-001
 8.1160785890e-001	 4.6293944186e+000	 9.5369650777e-002
 7.6804704160e-001	 4.6368204345e+000	 7.6477748479e-002
 7.2454971171e-001	 4.6438160725e+000	 6.2698138823e-002
 6.8112159842e-001	 4.6503842172e+000	 5.3511148938e-002
 6.3776834136e-001	 4.6565278419e+000	 4.8403839690e-002
 5.9449548931e-001	 4.6622500054e+000	 6.8247257820e-002
 5.5130849891e-001	 4.6675538496e+000	 9.3239729893e-002
 5.0821273349e-001	 4.6724425965e+000	 1.1336947146e-001
 4.6521346202e-001	 4.6769195454e+000	 1.2875440210e-001
 4.2231585814e-001	 4.6809880705e+000	 1.3944506594e-001
 8.5977542265e-001	 4.6461178658e+000	 1.1055200139e-001
 8.1592492198e-001	 4.6540188570e+000	 8.9511742402e-002
 7.7213239820e-001	 4.6614843730e+000	 7.3730646677e-002
 7.2840369954e-001	 4.6685172218e+000	 6.2708373497e-002
 6.8474458564e-001	 4.6751203035e+000	 5.5953220139e-002
 6.4116072615e-001	 4.6812966070e+000	 5.2980192342e-002
 5.9765769936e-001	 4.6870492076e+000	 6.8693276500e-002
 5.5424099092e-001	 4.6923812637e+000	 9.0249218623e-002
 5.1091599270e-001	 4.6972960145e+000	 1.0728955557e-001
 4.6768800171e-001	 4.7017967771e+000	 1.1994164806e-001
 4.2456221908e-001	 4.7058869432e+000	 1.2826417483e-001
 8.6432449896e-001	 4.6707005000e+000	 9.9858243703e-002
 8.2024198506e-001	 4.6786432954e+000	 8.1956162714e-002
 7.7621775480e-001	 4.6861483115e+000	 6.8933527053e-002
 7.3225768736e-001	 4.6932183711e+000	 6.0318486157e-002
 6.8836757286e-001	 4.6998563898e+000	 5.5647859501e-002
 6.4455311094e-001	 4.7060653722e+000	 5.4465141455e-002
 6.0081990940e-001	 4.7118484097e+000	 6.6842454893e-002
 5.5717348293e-001	 4.7172086778e+000	 8.4996440229e-002
 5.1361925192e-001	 4.7221494326e+000	 9.9000320050e-002
 4.7016254140e-001	 4.7266740087e+000	 1.0899084519e-001
 4.2680858003e-001	 4.7307858159e+000	 1.1503475744e-001
 4.0434497057e-001	 4.4817970888e+000	 1.6105817277e-001
 3.6337499923e-001	 4.4853047399e+000	 1.7030825435e-001
 3.2251199884e-001	 4.4884280111e+000	 1.8385390150e-001
 2.8176064413e-001	 4.4911703307e+000	 2.0151322997e-001
 2.4112551553e-001	 4.4935351880e+000	 2.2304372020e-001
 2.0061109869e-001	 4.4955261302e+000	 2.4814419827e-001
 1.6022178400e-001	 4.4971467599e+000	 2.7645687724e-001
 1.1996186617e-001	 4.4984007326e+000	 3.0756945271e-001
 7.9835543943e-002	 4.4992917538e+000	 3.4101724619e-001
 3.9846919840e-002	 4.4998235769e+000	 3.7628539032e-001
 0.0000000000e+000	 4.5000000000e+000	 4.1281104995e-001
 4.0659133152e-001	 4.5066959615e+000	 1.6446506432e-001
 3.6539374923e-001	 4.5102230996e+000	 1.7291340633e-001
 3.2430373217e-001	 4.5133637222e+000	 1.8478039677e-001
 2.8332598104e-001	 4.5161212770e+000	 1.9989993666e-001
 2.4246510172e-001	 4.5184992724e+000	 2.1804491105e-001
 2.0172560480e-001	 4.5205012753e+000	 2.3892916831e-001
 1.6111190503e-001	 4.5221309085e+000	 2.6220956105e-001
 1.2062832098e-001	 4.5233918477e+000	 2.8748804227e-001
 8.0279074742e-002	 4.5242878191e+000	 3.1431381051e-001
 4.0068291616e-002	 4.5248225967e+000	 3.4218549787e-001
 0.0000000000e+000	 4.5250000000e+000	 3.7055339464e-001
 4.0883769246e-001	 4.5315948342e+000	 1.6623551928e-001
 3.6741249922e-001	 4.5351414592e+000	 1.7397272781e-001
 3.2609546550e-001	 4.5382994334e+000	 1.8428156019e-001
 2.8489131795e-001	 4.5410722233e+000	 1.9701145099e-001
 2.4380468792e-001	 4.5434633567e+000	 2.1195041555e-001
 2.0284011090e-001	 4.5454764205e+000	 2.2882702832e-001
 1.6200202605e-001	 4.5471150572e+000	 2.4731246409e-001
 1.2129477580e-001	 4.5483829629e+000	 2.6702259559e-001
 8.0722605541e-002	 4.5492838844e+000	 2.8752014111e-001
 4.0289663393e-002	 4.5498216166e+000	 3.0831685602e-001
 0.0000000000e+000	 4.5500000000e+000	 3.2887576193e-001
 4.1108405341e-001	 4.5564937069e+000	 1.6631340487e-001
 3.6943124922e-001	 4.5600598189e+000	 1.7342758605e-001
 3.2788719882e-001	 4.5632351446e+000	 1.8229610688e-001
 2.8645665486e-001	 4.5660231695e+000	 1.9278368688e-001
 2.4514427412e-001	 4.5684274411e+000	 2.0469320038e-001
 2.0395461700e-001	 4.5704515657e+000	 2.1776765479e-001
 1.6289214707e-001	 4.5720992059e+000	 2.3169223276e-001
 1.2196123061e-001	 4.5733740781e+000	 2.4609639201e-001
 8.1166136340e-002	 4.5742799497e+000	 2.6055601625e-001
 4.0511035169e-002	 4.5748206365e+000	 2.7459561091e-001
 0.0000000000e+000	 4.5750000000e+000	 2.8769053763e-001
 4.1333041436e-001	 4.5813925796e+000	 1.6464398111e-001
 3.7144999921e-001	 4.5849781786e+000	 1.7122076709e-001
 3.2967893215e-001	 4.5881708558e+000	 1.7876420257e-001
 2.8802199177e-001	 4.5909741158e+000	 1.8715404637e-001
 2.4648386031e-001	 4.5933915255e+000	 1.9620776357e-001
 2.0506912311e-001	 4.5954267108e+000	 2.0568250431e-001
 1.6378226809e-001	 4.5970833545e+000	 2.1527714776e-001
 1.2262768542e-001	 4.5983651933e+000	 2.2463440483e-001
 8.1609667139e-002	 4.5992760150e+000	 2.3334297314e-001
 4.0732406946e-002	 4.5998196564e+000	 2.4093973787e-001
 0.0000000000e+000	 4.6000000000e+000	 2.4691201223e-001
 4.1557677530e-001	 4.6062914523e+000	 1.6117386315e-001
 3.7346874920e-001	 4.6098965382e+000	 1.6729643747e-001
 3.3147066547e-001	 4.6131065669e+000	 1.7362742441e-001
 2.8958732868e-001	 4.6159250621e+000	 1.8006137944e-001
 2.4782344651e-001	 4.6183556099e+000	 1.8643009307e-001
 2.0618362921e-001	 4.6204018560e+000	 1.9250457086e-001
 1.6467238911e-001	 4.6220675032e+000	 1.9799707997e-001
 1.2329414023e-001	 4.6233563085e+000	 2.0256325555e-001
 8.2053197938e-002	 4.6242720803e+000	 2.0580426047e-001
 4.0953778723e-002	 4.6248186762e+000	 2.0726899205e-001
 0.0000000000e+000	 4.6250000000e+000	 2.0645632939e-001
 4.1782313625e-001	 4.6311903250e+000	 1.5585098487e-001
 3.7548749920e-001	 4.6348148979e+000	 1.6160010704e-001
 3.3326239880e-001	 4.6380422781e+000	 1.6682872299e-001
 2.9115266559e-001	 4.6408760084e+000	 1.7144594507e-001
 2.4916303270e-001	 4.6433196943e+000	 1.7529762670e-001
 2.0729813531e-001	 4.6453770012e+000	 1.7816834442e-001
 1.6556251013e-001	 4.6470516519e+000	 1.7978344764e-001
 1.2396059504e-001	 4.6483474236e+000	 1.7981116953e-001
 8.2496728737e-002	 4.6492681456e+000	 1.7786479230e-001
 4.1175150499e-002	 4.6498176961e+000	 1.7350486054e-001
 0.0000000000e+000	 4.6500000000e+000	 1.6624143610e-001
 4.2006949719e-001	 4.6560891977e+000	 1.4862456359e-001
 3.7750624919e-001	 4.6597332576e+000	 1.5407859311e-001
 3.3505413212e-001	 4.6629779893e+000	 1.5831238569e-001
 2.9271800250e-001	 4.6658269547e+000	 1.6124937359e-001
 2.5050261890e-001	 4.6682837786e+000	 1.6274921343e-001
 2.0841264141e-001	 4.6703521463e+000	 1.6260977102e-001
 1.6645263115e-001	 4.6720358005e+000	 1.6056917506e-001
 1.2462704985e-001	 4.6733385388e+000	 1.5630793318e-001
 8.2940259537e-002	 4.6742642109e+000	 1.4945110365e-001
 4.1396522276e-002	 4.6748167160e+000	 1.3957051604e-001
 0.0000000000e+000	 4.6750000000e+000	 1.2618703455e-001
 4.2231585814e-001	 4.6809880705e+000	 1.3944506594e-001
 3.7952499918e-001	 4.6846516172e+000	 1.4467998564e-001
 3.3684586545e-001	 4.6879137004e+000	 1.4802400106e-001
 2.9428333941e-001	 4.6907779010e+000	 1.4941463015e-001
 2.5184220510e-001	 4.6932478630e+000	 1.4872507580e-001
 2.0952714752e-001	 4.6953272915e+000	 1.4576621403e-001
 1.6734275217e-001	 4.6970199492e+000	 1.4028865247e-001
 1.2529350466e-001	 4.6983296540e+000	 1.3198485236e-001
 8.3383790336e-002	 4.6992602762e+000	 1.2049130729e-001
 4.1617894052e-002	 4.6998157358e+000	 1.0539077211e-001
 0.0000000000e+000	 4.7000000000e+000	 8.6214535356e-002
 4.2456221908e-001	 4.7058869432e+000	 1.2826417483e-001
 3.8154374918e-001	 4.7095699769e+000	 1.3335361359e-001
 3.3863759877e-001	 4.7128494116e+000	 1.3591042442e-001
 2.9584867632e-001	 4.7157288472e+000	 1.3588597949e-001
 2.5318179129e-001	 4.7182119474e+000	 1.3316677361e-001
 2.1064165362e-001	 4.7203024367e+000	 1.2757641662e-001
 1.6823287319e-001	 4.7220040979e+000	 1.1887769734e-001
 1.2595995947e-001	 4.7233207692e+000	 1.0677471223e-001
 8.3827321135e-002	 4.7242563415e+000	 9.0915052054e-002
 4.1839265829e-002	 4.7248147557e+000	 7.0892039658e-002
 0.0000000000e+000	 4.7250000000e+000	 4.6247012407e-002
 4.2680858003e-001	 4.7307858159e+000	 1.1503475744e-001
 3.8356249917e-001	 4.7344883366e+000	 1.2005001230e-001
 3.4042933210e-001	 4.7377851228e+000	 1.2191974454e-001
 2.9741401323e-001	 4.7406797935e+000	 1.2060895166e-001
 2.5452137749e-001	 4.7431760318e+000	 1.1601716871e-001
 2.1175615972e-001	 4.7452775818e+000	 1.0798046547e-001
 1.6912299422e-001	 4.7469882465e+000	 9.6273516726e-002
 1.2662641428e-001	 4.7483118844e+000	 8.0611738313e-002
 8.4270851934e-002	 4.7492524068e+000	 6.0653482397e-002
 4.2060637605e-002	 4.7498137756e+000	 3.6002284986e-002
 0.0000000000e+000	 4.7500000000e+000	 6.2091590962e-003
 4.7500000000e+000	 0.0000000000e+000	 8.5548102965e-002
 4.7498137756e+000	 4.2060637605e-002	 1.0898600044e-001
 4.7492524068e+000	 8.4270851934e-002	 1.2782964101e-001
 4.7483118844e+000	 1.2662641428e-001	 1.4428457472e-001
 4.7469882465e+000	 1.6912299422e-001	 1.6028778983e-001
 4.7452775818e+000	 2.1175615972e-001	 1.7749640520e-001
 4.7431760318e+000	 2.5452137749e-001	 1.9727661077e-001
 4.7406797935e+000	 2.9741401323e-001	 2.2069288967e-001
 4.7377851228e+000	 3.4042933210e-001	 2.4849755652e-001
 4.7344883366e+000	 3.8356249917e-001	 2.8112064668e-001
 4.7307858159e+000	 4.2680858003e-001	 3.1866019141e-001
 4.7750000000e+000	 0.0000000000e+000	 1.3535976615e-001
 4.7748127955e+000	 4.2282009382e-002	 1.6285012037e-001
 4.7742484721e+000	 8.4714382733e-002	 1.8433549649e-001
 4.7733029995e+000	 1.2729286910e-001	 2.0203185598e-001
 4.7719723952e+000	 1.7001311524e-001	 2.1788372834e-001
 4.7702527270e+000	 2.1287066582e-001	 2.3355278872e-001
 4.7681401161e+000	 2.5586096368e-001	 2.5040668748e-001
 4.7656307398e+000	 2.9897935014e-001	 2.6950816586e-001
 4.7627208340e+000	 3.4222106542e-001	 2.9160449260e-001
 4.7594066962e+000	 3.8558124916e-001	 3.1711725680e-001
 4.7556846886e+000	 4.2905494097e-001	 3.4613255242e-001
 4.8000000000e+000	 0.0000000000e+000	 1.8040556952e-001
 4.7998118153e+000	 4.2503381158e-002	 2.1166819401e-001
 4.7992445374e+000	 8.5157913532e-002	 2.3563071448e-001
 4.7982941147e+000	 1.2795932391e-001	 2.5452067654e-001
 4.7969565439e+000	 1.7090323626e-001	 2.7029122728e-001
 4.7952278722e+000	 2.1398517192e-001	 2.8460957466e-001
 4.7931042005e+000	 2.5720054988e-001	 2.9884570269e-001
 4.7905816861e+000	 3.0054468705e-001	 3.1406137734e-001
 4.7876565451e+000	 3.4401279874e-001	 3.3099947822e-001
 4.7843250559e+000	 3.8759999915e-001	 3.5007369184e-001
 4.7805835613e+000	 4.3130130191e-001	 3.7135860233e-001
 4.8250000000e+000	 0.0000000000e+000	 2.2078188247e-001
 4.8248108352e+000	 4.2724752935e-002	 2.5553545170e-001
 4.8242406027e+000	 8.5601444331e-002	 2.8180922377e-001
 4.8232852299e+000	 1.2862577872e-001	 3.0184349909e-001
 4.8219406925e+000	 1.7179335728e-001	 3.1760111643e-001
 4.8202030174e+000	 2.1509967803e-001	 3.3075579052e-001
 4.8180682849e+000	 2.5854013607e-001	 3.4268070956e-001
 4.8155326324e+000	 3.0211002396e-001	 3.5443742791e-001
 4.8125922563e+000	 3.4580453207e-001	 3.6676508956e-001
 4.8092434156e+000	 3.8961874915e-001	 3.8007001860e-001
 4.8054824340e+000	 4.3354766286e-001	 3.9441571308e-001
 4.8500000000e+000	 0.0000000000e+000	 2.5658308744e-001
 4.8498098551e+000	 4.2946124712e-002	 2.9454519846e-001
 4.8492366680e+000	 8.6044975130e-002	 3.2296310459e-001
 4.8482763451e+000	 1.2929223353e-001	 3.4409102976e-001
 4.8469248412e+000	 1.7268347830e-001	 3.5990257634e-001
 4.8451781625e+000	 2.1621418413e-001	 3.7207893745e-001
 4.8430323693e+000	 2.5987972227e-001	 3.8199737336e-001
 4.8404835786e+000	 3.0367536087e-001	 3.9071998761e-001
 4.8375279675e+000	 3.4759626540e-001	 3.9898283896e-001
 4.8341617752e+000	 3.9163749914e-001	 4.0718542592e-001
 4.8303813068e+000	 4.3579402381e-001	 4.1538058060e-001
 4.8750000000e+000	 0.0000000000e+000	 2.8790163079e-001
 4.8748088749e+000	 4.3167496488e-002	 3.2878886336e-001
 4.8742327333e+000	 8.6488505929e-002	 3.5918263601e-001
 4.8732674603e+000	 1.2995868834e-001	 3.8135226315e-001
 4.8719089899e+000	 1.7357359932e-001	 3.9728318063e-001
 4.8701533077e+000	 2.1732869023e-001	 4.0866502934e-001
 4.8679964537e+000	 2.6121930847e-001	 4.1688000698e-001
 4.8654345249e+000	 3.0524069778e-001	 4.2299152430e-001
 4.8624636787e+000	 3.4938799872e-001	 4.2773320224e-001
 4.8590801349e+000	 3.9365624914e-001	 4.3149824725e-001
 4.8552801795e+000	 4.3804038475e-001	 4.3432924206e-001
 4.9000000000e+000	 0.0000000000e+000	 3.1482807224e-001
 4.8998078948e+000	 4.3388868265e-002	 3.5835604734e-001
 4.8992287986e+000	 8.6932036728e-002	 3.9055634188e-001
 4.8982585754e+000	 1.3062514315e-001	 4.1371452597e-001
 4.8968931385e+000	 1.7446372034e-001	 4.2982893699e-001
 4.8951284529e+000	 2.1844319634e-001	 4.4059863077e-001
 4.8929605380e+000	 2.6255889466e-001	 4.4741160547e-001
 4.8903854712e+000	 3.0680603469e-001	 4.5133333440e-001
 4.8873993898e+000	 3.5117973205e-001	 4.5309564514e-001
 4.8839984946e+000	 3.9567499914e-001	 4.5308598244e-001
 4.8801790522e+000	 4.4028674570e-001	 4.5133709278e-001
 4.9250000000e+000	 0.0000000000e+000	 3.3745113272e-001
 4.9248069147e+000	 4.3610240041e-002	 3.8333456965e-001
 4.9242248639e+000	 8.7375567527e-002	 4.1717103534e-001
 4.9232496906e+000	 1.3129159796e-001	 4.4126351940e-001
 4.9218772872e+000	 1.7535384136e-001	 4.5762432690e-001
 4.9201035980e+000	 2.1955770244e-001	 4.6796289384e-001
 4.9179246224e+000	 2.6389848086e-001	 4.7367387949e-001
 4.9153364175e+000	 3.0837137160e-001	 4.7582557256e-001
 4.9123351010e+000	 3.5297146538e-001	 4.7514864892e-001
 4.9089168542e+000	 3.9769374913e-001	 4.7202531888e-001
 4.9050779249e+000	 4.4253310665e-001	 4.6647890240e-001
 4.9500000000e+000	 0.0000000000e+000	 3.5585774081e-001
 4.9498059346e+000	 4.3831611818e-002	 4.0381051280e-001
 4.9492209292e+000	 8.7819098327e-002	 4.3911186209e-001
 4.9482408058e+000	 1.3195805278e-001	 4.6408336012e-001
 4.9468614359e+000	 1.7624396239e-001	 4.8075234420e-001
 4.9450787432e+000	 2.2067220854e-001	 4.9083959377e-001
 4.9428887068e+000	 2.6523806706e-001	 4.9574728771e-001
 4.9402873638e+000	 3.0993670852e-001	 4.9654728052e-001
 4.9372708122e+000	 3.5476319871e-001	 4.9396973526e-001
 4.9338352139e+000	 3.9971249913e-001	 4.8839215205e-001
 4.9299767976e+000	 4.4477946760e-001	 4.7982883079e-001
 4.9750000000e+000	 0.0000000000e+000	 3.7013307781e-001
 4.9748049544e+000	 4.4052983595e-002	 4.1986826624e-001
 4.9742169945e+000	 8.8262629126e-002	 4.5646234225e-001
 4.9732319210e+000	 1.3262450759e-001	 4.8225662012e-001
 4.9718455845e+000	 1.7713408341e-001	 4.9929453246e-001
 4.9700538884e+000	 2.2178671465e-001	 5.0930916353e-001
 4.9678527912e+000	 2.6657765326e-001	 5.1371106831e-001
 4.9652383101e+000	 3.1150204543e-001	 5.1357641506e-001
 4.9622065233e+000	 3.5655493203e-001	 5.0963549036e-001
 4.9587535736e+000	 4.0173124913e-001	 5.0226160542e-001
 4.9548756703e+000	 4.4702582855e-001	 4.9146044329e-001
 5.0000000000e+000	 0.0000000000e+000	 3.8036062137e-001
 4.9998039743e+000	 4.4274355371e-002	 4.3159056865e-001
 4.9992130598e+000	 8.8706159925e-002	 4.6930441099e-001
 4.9982230362e+000	 1.3329096240e-001	 4.9586436536e-001
 4.9968297332e+000	 1.7802420443e-001	 5.1333102120e-001
 4.9950290335e+000	 2.2290122075e-001	 5.2345072741e-001
 4.9928168755e+000	 2.6791723945e-001	 5.2764326946e-001
 4.9901892563e+000	 3.1306738234e-001	 5.2698987516e-001
 4.9871422345e+000	 3.5834666536e-001	 5.2222158831e-001
 4.9836719332e+000	 4.0374999913e-001	 5.1370804970e-001
 4.9797745430e+000	 4.4927218951e-001	 5.0144672563e-001
 4.7307858159e+000	 4.2680858003e-001	 3.1866019141e-001
 4.7266740087e+000	 4.7016254140e-001	 3.6877951098e-001
 4.7221494326e+000	 5.1361925192e-001	 4.0803414415e-001
 4.7172086778e+000	 5.5717348293e-001	 4.3539992086e-001
 4.7118484097e+000	 6.0081990940e-001	 4.4949786733e-001
 4.7060653722e+000	 6.4455311094e-001	 4.3109311488e-001
 4.6998563898e+000	 6.8836757286e-001	 3.9098419675e-001
 4.6932183711e+000	 7.3225768736e-001	 3.5650580048e-001
 4.6861483115e+000	 7.7621775480e-001	 3.2703447630e-001
 4.6786432954e+000	 8.2024198506e-001	 3.0183169295e-001
 4.6707005000e+000	 8.6432449896e-001	 2.8004070588e-001
 4.7556846886e+000	 4.2905494097e-001	 3.4613255242e-001
 4.7515512403e+000	 4.7263708109e-001	 3.8862920592e-001
 4.7470028507e+000	 5.1632251113e-001	 4.2150249232e-001
 4.7420360919e+000	 5.6010597494e-001	 4.4370061741e-001
 4.7366476119e+000	 6.0398211945e-001	 4.5381081759e-001
 4.7308341373e+000	 6.4794549573e-001	 4.3281872784e-001
 4.7245924760e+000	 6.9199056008e-001	 3.9621155140e-001
 4.7179195205e+000	 7.3611167519e-001	 3.6407822583e-001
 4.7108122499e+000	 7.8030311141e-001	 3.3579441804e-001
 4.7032677338e+000	 8.2455904814e-001	 3.1062027221e-001
 4.6952831342e+000	 8.6887357527e-001	 2.8769724759e-001
 4.7805835613e+000	 4.3130130191e-001	 3.7135860233e-001
 4.7764284720e+000	 4.7511162077e-001	 4.0655047280e-001
 4.7718562687e+000	 5.1902577035e-001	 4.3345287099e-001
 4.7668635060e+000	 5.6303846695e-001	 4.5098639534e-001
 4.7614468140e+000	 6.0714432950e-001	 4.5770439807e-001
 4.7556029024e+000	 6.5133788053e-001	 4.3537493413e-001
 4.7493285623e+000	 6.9561354731e-001	 4.0220160370e-001
 4.7426206698e+000	 7.3996566301e-001	 3.7238653638e-001
 4.7354761884e+000	 7.8438846801e-001	 3.4530495138e-001
 4.7278921722e+000	 8.2887611122e-001	 3.2021606894e-001
 4.7198657684e+000	 8.7342265158e-001	 2.9625991652e-001
 4.8054824340e+000	 4.3354766286e-001	 3.9441571308e-001
 4.8013057036e+000	 4.7758616046e-001	 4.2262710051e-001
 4.7967096868e+000	 5.2172902957e-001	 4.4397575879e-001
 4.7916909201e+000	 5.6597095897e-001	 4.5735469197e-001
 4.7862460162e+000	 6.1030653954e-001	 4.6128326941e-001
 4.7803716675e+000	 6.5473026532e-001	 4.3871452693e-001
 4.7740646486e+000	 6.9923653453e-001	 4.0890076002e-001
 4.7673218191e+000	 7.4381965084e-001	 3.8137059323e-001
 4.7601401269e+000	 7.8847382461e-001	 3.5549923510e-001
 4.7525166106e+000	 8.3319317430e-001	 3.3054538404e-001
 4.7444484026e+000	 8.7797172789e-001	 3.0564800160e-001
 4.8303813068e+000	 4.3579402381e-001	 4.1538058060e-001
 4.8261829352e+000	 4.8006070016e-001	 4.3694222811e-001
 4.8215631049e+000	 5.2443228879e-001	 4.5316101720e-001
 4.8165183342e+000	 5.6890345098e-001	 4.6290236679e-001
 4.8110452184e+000	 6.1346874959e-001	 4.6465156040e-001
 4.8051404326e+000	 6.5812265011e-001	 4.4278982020e-001
 4.7988007348e+000	 7.0285952176e-001	 4.1625500685e-001
 4.7920229684e+000	 7.4767363867e-001	 3.9096990370e-001
 4.7848040654e+000	 7.9255918122e-001	 3.6631014713e-001
 4.7771410490e+000	 8.3751023738e-001	 3.4153431730e-001
 4.7690310368e+000	 8.8252080420e-001	 3.1578067724e-001
 4.8552801795e+000	 4.3804038475e-001	 4.3432924206e-001
 4.8510601668e+000	 4.8253523985e-001	 4.4957836145e-001
 4.8464165229e+000	 5.2713554801e-001	 4.6109790642e-001
 4.8413457483e+000	 5.7183594300e-001	 4.6772571629e-001
 4.8358444205e+000	 6.1663095964e-001	 4.6791288155e-001
 4.8299091977e+000	 6.6151503491e-001	 4.4755266092e-001
 4.8235368211e+000	 7.0648250899e-001	 4.2420992156e-001
 4.8167241177e+000	 7.5152762650e-001	 4.0112363043e-001
 4.8094680039e+000	 7.9664453783e-001	 3.7767029175e-001
 4.8017654874e+000	 8.4182730046e-001	 3.5310877256e-001
 4.7936136710e+000	 8.8706988052e-001	 3.2657700631e-001
 4.8801790522e+000	 4.4028674570e-001	 4.5133709278e-001
 4.8759373984e+000	 4.8500977954e-001	 4.6061738932e-001
 4.8712699410e+000	 5.2983880724e-001	 4.6787510063e-001
 4.8661731623e+000	 5.7476843502e-001	 4.7192048829e-001
 4.8606436227e+000	 6.1979316970e-001	 4.7117033838e-001
 4.8546779629e+000	 6.6490741971e-001	 4.5295444105e-001
 4.8482729073e+000	 7.1010549622e-001	 4.3271068284e-001
 4.8414252671e+000	 7.5538161434e-001	 4.1177060012e-001
 4.8341319423e+000	 8.0072989444e-001	 3.8951200657e-001
 4.8263899258e+000	 8.4614436354e-001	 3.6519446273e-001
 4.8181963052e+000	 8.9161895683e-001	 3.3795594298e-001
 4.9050779249e+000	 4.4253310665e-001	 4.6647890240e-001
 4.9008146301e+000	 4.8748431924e-001	 4.7014059913e-001
 4.8961233591e+000	 5.3254206646e-001	 4.7358070293e-001
 4.8910005764e+000	 5.7770092704e-001	 4.7558189590e-001
 4.8854428248e+000	 6.2295537975e-001	 4.7452654421e-001
 4.8794467280e+000	 6.6829980451e-001	 4.5894610903e-001
 4.8730089936e+000	 7.1372848345e-001	 4.4170208080e-001
 4.8661264164e+000	 7.5923560217e-001	 4.2284931214e-001
 4.8587958808e+000	 8.0481525105e-001	 4.0176736930e-001
 4.8510143642e+000	 8.5046142663e-001	 3.7771691462e-001
 4.8427789394e+000	 8.9616803315e-001	 3.4983633547e-001
 4.9299767976e+000	 4.4477946760e-001	 4.7982883079e-001
 4.9256918617e+000	 4.8995885893e-001	 4.7822869211e-001
 4.9209767771e+000	 5.3524532569e-001	 4.7830225975e-001
 4.9158279905e+000	 5.8063341906e-001	 4.7880463102e-001
 4.9102420270e+000	 6.2611758981e-001	 4.7784910790e-001
 4.9042154931e+000	 6.7169218931e-001	 4.6547818103e-001
 4.8977450799e+000	 7.1735147068e-001	 4.5112852682e-001
 4.8908275657e+000	 7.6308959000e-001	 4.3429794672e-001
 4.8834598193e+000	 8.0890060766e-001	 4.1436820433e-001
 4.8756388026e+000	 8.5477848971e-001	 3.9060147365e-001
 4.8673615736e+000	 9.0071710947e-001	 3.6213692873e-001
 4.9548756703e+000	 4.4702582855e-001	 4.9146044329e-001
 4.9505690933e+000	 4.9243339863e-001	 4.8496179799e-001
 4.9458301952e+000	 5.3794858491e-001	 4.8212677480e-001
 4.9406554046e+000	 5.8356591108e-001	 4.8168287741e-001
 4.9350412291e+000	 6.2927979986e-001	 4.8125331503e-001
 4.9289842582e+000	 6.7508457411e-001	 4.7250075176e-001
 4.9224811661e+000	 7.2097445791e-001	 4.6093406302e-001
 4.9155287150e+000	 7.6694357784e-001	 4.4605437300e-001
 4.9081237578e+000	 8.1298596427e-001	 4.2724608907e-001
 4.9002632410e+000	 8.5909555280e-001	 4.0377330838e-001
 4.8919442078e+000	 9.0526618578e-001	 3.7477636704e-001
 4.9797745430e+000	 4.4927218951e-001	 5.0144672563e-001
 4.9754463249e+000	 4.9490793833e-001	 4.9041948935e-001
 4.9706836133e+000	 5.4065184414e-001	 4.8514072267e-001
 4.9654828187e+000	 5.8649840310e-001	 4.8431032341e-001
 4.9598404313e+000	 6.3244200992e-001	 4.8525462881e-001
 4.9537530233e+000	 6.7847695892e-001	 4.7996350505e-001
 4.9472172524e+000	 7.2459744515e-001	 4.7106237152e-001
 4.9402298643e+000	 7.7079756568e-001	 4.5805615682e-001
 4.9327876962e+000	 8.1707132088e-001	 4.4033236014e-001
 4.9248876794e+000	 8.6341261589e-001	 4.1715741497e-001
 4.9165268420e+000	 9.0981526210e-001	 3.8767319650e-001
 4.6707005000e+000	 8.6432449896e-001	 2.8004070588e-001
 4.6623171971e+000	 9.0845932984e-001	 3.0951213909e-001
 4.6534907565e+000	 9.5264042516e-001	 3.3446203514e-001
 4.6442186484e+000	 9.9686164827e-001	 3.5338498954e-001
 4.6344984465e+000	 1.0411167802e+000	 3.6464723190e-001
 4.6243278300e+000	 1.0853995214e+000	 3.6648463315e-001
 4.6137045869e+000	 1.1297034943e+000	 3.5700092409e-001
 4.6026266164e+000	 1.1740222445e+000	 3.3416613678e-001
 4.5910919311e+000	 1.2183492440e+000	 2.9581527998e-001
 4.5790986602e+000	 1.2626778925e+000	 2.6561060102e-001
 4.5666450514e+000	 1.3070015205e+000	 3.0070491718e-001
 4.6952831342e+000	 8.6887357527e-001	 2.8769724759e-001
 4.6868557086e+000	 9.1324069473e-001	 3.1136517234e-001
 4.6779828131e+000	 9.5765432214e-001	 3.3119116420e-001
 4.6686619045e+000	 1.0021082885e+000	 3.4567104045e-001
 4.6588905436e+000	 1.0465963422e+000	 3.5317010742e-001
 4.6486663975e+000	 1.0911121505e+000	 3.5192111099e-001
 4.6379872426e+000	 1.1356493021e+000	 3.4002240134e-001
 4.6268509670e+000	 1.1802013090e+000	 3.1543632383e-001
 4.6152555729e+000	 1.2247616084e+000	 2.7598784722e-001
 4.6031991795e+000	 1.2693235656e+000	 2.5608478712e-001
 4.5906800254e+000	 1.3138804759e+000	 2.8683300505e-001
 4.7198657684e+000	 8.7342265158e-001	 2.9625991652e-001
 4.7113942202e+000	 9.1802205963e-001	 3.1408533489e-001
 4.7024748697e+000	 9.6266821912e-001	 3.2877142987e-001
 4.6931051605e+000	 1.0073549288e+000	 3.3881540080e-001
 4.6832826406e+000	 1.0520759042e+000	 3.4258176056e-001
 4.6730049650e+000	 1.0968247796e+000	 3.3830022849e-001
 4.6622698984e+000	 1.1415951100e+000	 3.2406384067e-001
 4.6510753176e+000	 1.1863803734e+000	 2.9782728930e-001
 4.6394192146e+000	 1.2311739729e+000	 2.5740550310e-001
 4.6272996988e+000	 1.2759692387e+000	 2.4614124198e-001
 4.6147149993e+000	 1.3207594313e+000	 2.7269546001e-001
 4.7444484026e+000	 8.7797172789e-001	 3.0564800160e-001
 4.7359327318e+000	 9.2280342452e-001	 3.1758755707e-001
 4.7269669263e+000	 9.6768211609e-001	 3.2711356205e-001
 4.7175484166e+000	 1.0126015690e+000	 3.3272476107e-001
 4.7076747377e+000	 1.0575554662e+000	 3.3278500614e-001
 4.6973435326e+000	 1.1025374086e+000	 3.2552109122e-001
 4.6865525541e+000	 1.1475409179e+000	 3.0902080710e-001
 4.6752996682e+000	 1.1925594379e+000	 2.8123122864e-001
 4.6635828564e+000	 1.2375863373e+000	 2.3995724654e-001
 4.6514002180e+000	 1.2826149119e+000	 2.3578185227e-001
 4.6387499733e+000	 1.3276383866e+000	 2.5829186076e-001
 4.7690310368e+000	 8.8252080420e-001	 3.1578067724e-001
 4.7604712433e+000	 9.2758478942e-001	 3.2178669035e-001
 4.7514589829e+000	 9.7269601307e-001	 3.2612824794e-001
 4.7419916726e+000	 1.0178482093e+000	 3.2730580576e-001
 4.7320668348e+000	 1.0630350282e+000	 3.2368269023e-001
 4.7216821001e+000	 1.1082500377e+000	 3.1348287364e-001
 4.7108352098e+000	 1.1534867257e+000	 2.9478897273e-001
 4.6995240188e+000	 1.1987385023e+000	 2.6554048307e-001
 4.6877464981e+000	 1.2439987017e+000	 2.2353226137e-001
 4.6755007373e+000	 1.2892605850e+000	 2.2500872909e-001
 4.6627849472e+000	 1.3345173420e+000	 2.4362205050e-001
 4.7936136710e+000	 8.8706988052e-001	 3.2657700631e-001
 4.7850097549e+000	 9.3236615432e-001	 3.2659750940e-001
 4.7759510395e+000	 9.7770991005e-001	 3.2572613317e-001
 4.7664349286e+000	 1.0230948496e+000	 3.2246521352e-001
 4.7564589319e+000	 1.0685145902e+000	 3.1517768931e-001
 4.7460206676e+000	 1.1139626667e+000	 3.0208481737e-001
 4.7351178655e+000	 1.1594325336e+000	 2.8126411403e-001
 4.7237483694e+000	 1.2049175668e+000	 2.5064753582e-001
 4.7119101398e+000	 1.2504110662e+000	 2.0847074346e-001
 4.6996012565e+000	 1.2959062581e+000	 2.1382420224e-001
 4.6868199212e+000	 1.3413962974e+000	 2.2868613005e-001
 4.8181963052e+000	 8.9161895683e-001	 3.3795594298e-001
 4.8095482664e+000	 9.3714751922e-001	 3.3193471399e-001
 4.8004430961e+000	 9.8272380703e-001	 3.2581782284e-001
 4.7908781847e+000	 1.0283414898e+000	 3.1810965734e-001
 4.7808510290e+000	 1.0739941522e+000	 3.0717290950e-001
 4.7703592351e+000	 1.1196752958e+000	 2.9122622946e-001
 4.7594005212e+000	 1.1653783415e+000	 2.6834210916e-001
 4.7479727200e+000	 1.2110966312e+000	 2.3644500852e-001
 4.7360737816e+000	 1.2568234306e+000	 2.0008905690e-001
 4.7237017758e+000	 1.3025519312e+000	 2.0223081462e-001
 4.7108548951e+000	 1.3482752527e+000	 2.1348445133e-001
 4.8427789394e+000	 8.9616803315e-001	 3.4983633547e-001
 4.8340867780e+000	 9.4192888412e-001	 3.3771293095e-001
 4.8249351527e+000	 9.8773770401e-001	 3.2631388258e-001
 4.8153214407e+000	 1.0335881301e+000	 3.1414580468e-001
 4.8052431260e+000	 1.0794737142e+000	 2.9957128580e-001
 4.7946978026e+000	 1.1253879249e+000	 2.8080648073e-001
 4.7836831769e+000	 1.1713241493e+000	 2.5591893539e-001
 4.7721970706e+000	 1.2172756957e+000	 2.2282565769e-001
 4.7602374233e+000	 1.2632357951e+000	 1.9115491679e-001
 4.7478022951e+000	 1.3091976043e+000	 1.9023131683e-001
 4.7348898691e+000	 1.3551542081e+000	 1.9801761097e-001
 4.8673615736e+000	 9.0071710947e-001	 3.6213692873e-001
 4.8586252895e+000	 9.4671024902e-001	 3.4384671599e-001
 4.8494272093e+000	 9.9275160099e-001	 3.2712483950e-001
 4.8397646967e+000	 1.0388347703e+000	 3.1048031757e-001
 4.8296352231e+000	 1.0849532762e+000	 2.9227578138e-001
 4.8190363702e+000	 1.1311005539e+000	 2.7072500417e-001
 4.8079658326e+000	 1.1772699572e+000	 2.4389066659e-001
 4.7964214212e+000	 1.2234547601e+000	 2.0968237131e-001
 4.7844010650e+000	 1.2696481595e+000	 1.8167331929e-001
 4.7719028143e+000	 1.3158432775e+000	 1.7782866191e-001
 4.7589248430e+000	 1.3620331635e+000	 1.8228644413e-001
 4.8919442078e+000	 9.0526618578e-001	 3.7477636704e-001
 4.8831638011e+000	 9.5149161392e-001	 3.5025055547e-001
 4.8739192659e+000	 9.9776549797e-001	 3.2816118320e-001
 4.8642079528e+000	 1.0440814106e+000	 3.0701985281e-001
 4.8540273202e+000	 1.0904328382e+000	 2.8518938685e-001
 4.8433749377e+000	 1.1368131830e+000	 2.6088129339e-001
 4.8322484884e+000	 1.1832157651e+000	 2.3215347081e-001
 4.8206457718e+000	 1.2296338246e+000	 1.9690816556e-001
 4.8085647068e+000	 1.2760605240e+000	 1.7164942315e-001
 4.7960033336e+000	 1.3224889506e+000	 1.6502600029e-001
 4.7829598170e+000	 1.3689121189e+000	 1.6629201852e-001
 4.9165268420e+000	 9.0981526210e-001	 3.8767319650e-001
 4.9077023127e+000	 9.5627297882e-001	 3.5683886816e-001
 4.8984113225e+000	 1.0027793950e+000	 3.2933336670e-001
 4.8886512088e+000	 1.0493280509e+000	 3.0367106206e-001
 4.8784194173e+000	 1.0959124002e+000	 2.7821511961e-001
 4.8677135052e+000	 1.1425258121e+000	 2.5117490106e-001
 4.8565311441e+000	 1.1891615729e+000	 2.2060360794e-001
 4.8448701224e+000	 1.2358128890e+000	 1.8439618157e-001
 4.8327283485e+000	 1.2824728884e+000	 1.6108854561e-001
 4.8201038528e+000	 1.3291346237e+000	 1.5182667481e-001
 4.8069947909e+000	 1.3757910742e+000	 1.5003562856e-001
 4.5666450514e+000	 1.3070015205e+000	 3.0070491718e-001
 4.5537294736e+000	 1.3513133914e+000	 2.7980355552e-001
 4.5403504190e+000	 1.3956067041e+000	 2.5870972286e-001
 4.5265065060e+000	 1.4398745957e+000	 2.3764453954e-001
 4.5121964807e+000	 1.4841101442e+000	 2.1686489923e-001
 4.4974192195e+000	 1.5283063712e+000	 1.9666361168e-001
 4.4821737314e+000	 1.5724562449e+000	 1.7736946430e-001
 4.4664591594e+000	 1.6165526831e+000	 1.5934720015e-001
 4.4502747833e+000	 1.6605885562e+000	 1.4299741070e-001
 4.4336200209e+000	 1.7045566903e+000	 1.2875634152e-001
 4.4164944300e+000	 1.7484498704e+000	 1.1709560950e-001
 4.5906800254e+000	 1.3138804759e+000	 2.8683300505e-001
 4.5776964708e+000	 1.3584255672e+000	 2.6646983515e-001
 4.5642470002e+000	 1.4029520026e+000	 2.4569816780e-001
 4.5503302244e+000	 1.4474528831e+000	 2.2476406337e-001
 4.5359448832e+000	 1.4919212502e+000	 2.0395037400e-001
 4.5210898470e+000	 1.5363500889e+000	 1.8357687331e-001
 4.5057641194e+000	 1.5807323304e+000	 1.6400030275e-001
 4.4899668392e+000	 1.6250608551e+000	 1.4561433224e-001
 4.4736972822e+000	 1.6693284959e+000	 1.2884943344e-001
 4.4569548631e+000	 1.7135280413e+000	 1.1417266374e-001
 4.4397391376e+000	 1.7576522382e+000	 1.0208735964e-001
 4.6147149993e+000	 1.3207594313e+000	 2.7269546001e-001
 4.6016634680e+000	 1.3655377429e+000	 2.5324179646e-001
 4.5881435813e+000	 1.4102973010e+000	 2.3315793105e-001
 4.5741539429e+000	 1.4550311704e+000	 2.1271477831e-001
 4.5596932857e+000	 1.4997323562e+000	 1.9222107155e-001
 4.5447604745e+000	 1.5443938066e+000	 1.7202347974e-001
 4.5293545075e+000	 1.5890084159e+000	 1.5250663865e-001
 4.5134745190e+000	 1.6335690271e+000	 1.3409309442e-001
 4.4971197811e+000	 1.6780684357e+000	 1.1724315730e-001
 4.4802897053e+000	 1.7224993923e+000	 1.0245466411e-001
 4.4629838451e+000	 1.7668546059e+000	 9.0262647811e-002
 4.6387499733e+000	 1.3276383866e+000	 2.5829186076e-001
 4.6256304653e+000	 1.3726499187e+000	 2.4011314888e-001
 4.6120401625e+000	 1.4176425995e+000	 2.2107678833e-001
 4.5979776614e+000	 1.4626094578e+000	 2.0147846465e-001
 4.5834416883e+000	 1.5075434623e+000	 1.8165271791e-001
 4.5684311019e+000	 1.5524375244e+000	 1.6197304675e-001
 4.5529448956e+000	 1.5972845014e+000	 1.4285192468e-001
 4.5369821988e+000	 1.6420771991e+000	 1.2474072642e-001
 4.5205422799e+000	 1.6868083755e+000	 1.0812956248e-001
 4.5036245475e+000	 1.7314707433e+000	 9.3547020015e-002
 4.4862285526e+000	 1.7760569736e+000	 8.1559808728e-002
 4.6627849472e+000	 1.3345173420e+000	 2.4362205050e-001
 4.6495974625e+000	 1.3797620944e+000	 2.2707797858e-001
 4.6359367437e+000	 1.4249878979e+000	 2.0944300457e-001
 4.6218013798e+000	 1.4701877451e+000	 1.9103750454e-001
 4.6071900908e+000	 1.5153545683e+000	 1.7222175364e-001
 4.5921017294e+000	 1.5604812421e+000	 1.5339601745e-001
 4.5765352836e+000	 1.6055605868e+000	 1.3500055352e-001
 4.5604898786e+000	 1.6505853711e+000	 1.1751552069e-001
 4.5439647788e+000	 1.6955483152e+000	 1.0146079450e-001
 4.5269593898e+000	 1.7404420943e+000	 8.7395686633e-002
 4.5094732602e+000	 1.7852593414e+000	 7.5918567134e-002
 4.6868199212e+000	 1.3413962974e+000	 2.2868613005e-001
 4.6735644597e+000	 1.3868742701e+000	 2.1413073880e-001
 4.6598333248e+000	 1.4323331963e+000	 1.9824532134e-001
 4.6456250983e+000	 1.4777660325e+000	 1.8137486648e-001
 4.6309384933e+000	 1.5231656743e+000	 1.6390531549e-001
 4.6157723569e+000	 1.5685249599e+000	 1.4626364100e-001
 4.6001256717e+000	 1.6138366723e+000	 1.2891783381e-001
 4.5839975584e+000	 1.6590935431e+000	 1.1237679544e-001
 4.5673872776e+000	 1.7042882550e+000	 9.7190134360e-002
 4.5502942320e+000	 1.7494134453e+000	 8.3947864154e-002
 4.5327179677e+000	 1.7944617091e+000	 7.3280002137e-002
 4.7108548951e+000	 1.3482752527e+000	 2.1348445133e-001
 4.6975314569e+000	 1.3939864459e+000	 2.0126624047e-001
 4.6837299060e+000	 1.4396784948e+000	 1.8747294473e-001
 4.6694488167e+000	 1.4853443198e+000	 1.7247409042e-001
 4.6546868958e+000	 1.5309767803e+000	 1.5668121869e-001
 4.6394429843e+000	 1.5765686776e+000	 1.4054795206e-001
 4.6237160597e+000	 1.6221127578e+000	 1.2456996675e-001
 4.6075052382e+000	 1.6676017152e+000	 1.0928486845e-001
 4.5908097765e+000	 1.7130281948e+000	 9.5271969532e-002
 4.5736290742e+000	 1.7583847963e+000	 8.3151966021e-002
 4.5559626752e+000	 1.8036640769e+000	 7.3586512660e-002
 4.7348898691e+000	 1.3551542081e+000	 1.9801761097e-001
 4.7214984542e+000	 1.4010986216e+000	 1.8847964313e-001
 4.7076264871e+000	 1.4470237932e+000	 1.7711553351e-001
 4.6932725352e+000	 1.4929226072e+000	 1.6431927322e-001
 4.6784352984e+000	 1.5387878863e+000	 1.5052793967e-001
 4.6631136118e+000	 1.5846123954e+000	 1.3622175090e-001
 4.6473064478e+000	 1.6303888433e+000	 1.2192402349e-001
 4.6310129180e+000	 1.6761098872e+000	 1.0820103172e-001
 4.6142322754e+000	 1.7217681346e+000	 9.5661765905e-002
 4.5969639164e+000	 1.7673561473e+000	 8.4957588136e-002
 4.5792073827e+000	 1.8128664446e+000	 7.6781783949e-002
 4.7589248430e+000	 1.3620331635e+000	 1.8228644413e-001
 4.7454654514e+000	 1.4082107974e+000	 1.7576644617e-001
 4.7315230682e+000	 1.4543690917e+000	 1.6716318775e-001
 4.7170962536e+000	 1.5005008945e+000	 1.5689505461e-001
 4.7021837009e+000	 1.5465989924e+000	 1.4542459941e-001
 4.6867842393e+000	 1.5926561131e+000	 1.3325858399e-001
 4.6708968359e+000	 1.6386649288e+000	 1.2094792309e-001
 4.6545205977e+000	 1.6846180592e+000	 1.0908752687e-001
 4.6376547742e+000	 1.7305080743e+000	 9.8316040541e-002
 4.6202987586e+000	 1.7763274983e+000	 8.9315479000e-002
 4.6024520903e+000	 1.8220688123e+000	 8.2810755084e-002
 4.7829598170e+000	 1.3689121189e+000	 1.6629201852e-001
 4.7694324486e+000	 1.4153229731e+000	 1.6312248023e-001
 4.7554196494e+000	 1.4617143901e+000	 1.5760643768e-001
 4.7409199721e+000	 1.5080791818e+000	 1.5018660353e-001
 4.7259321034e+000	 1.5544100984e+000	 1.4135094721e-001
 4.7104548668e+000	 1.6006998308e+000	 1.3163272535e-001
 4.6944872239e+000	 1.6469410143e+000	 1.2161041128e-001
 4.6780282775e+000	 1.6931262312e+000	 1.1190752125e-001
 4.6610772731e+000	 1.7392480141e+000	 1.0319233527e-001
 4.6436336008e+000	 1.7852988493e+000	 9.6177510757e-002
 4.6256967978e+000	 1.8312711801e+000	 9.1619587482e-002
 4.8069947909e+000	 1.3757910742e+000	 1.5003562856e-001
 4.7933994458e+000	 1.4224351489e+000	 1.5054389896e-001
 4.7793162305e+000	 1.4690596886e+000	 1.4843623300e-001
 4.7647436905e+000	 1.5156574692e+000	 1.4417960493e-001
 4.7496805060e+000	 1.5622212044e+000	 1.3828734502e-001
 4.7341254942e+000	 1.6087435486e+000	 1.3131915825e-001
 4.7180776120e+000	 1.6552170998e+000	 1.2388103977e-001
 4.7015359573e+000	 1.7016344032e+000	 1.1662508484e-001
 4.6844997719e+000	 1.7479879539e+000	 1.1024919106e-001
 4.6669684431e+000	 1.7942702003e+000	 1.0549665110e-001
 4.6489415053e+000	 1.8404735478e+000	 1.0315563433e-001
 4.4164944300e+000	 1.7484498704e+000	 1.1709560950e-001
 4.3988977105e+000	 1.7922608439e+000	 9.7046818925e-002
 4.3808297054e+000	 1.8359823234e+000	 6.9697314891e-002
 4.3622904030e+000	 1.8796069909e+000	 8.5011875729e-002
 4.3432799376e+000	 1.9231275005e+000	 9.5179836126e-002
 4.3237985918e+000	 1.9665364825e+000	 9.3588328814e-002
 4.3038467969e+000	 2.0098265468e+000	 7.9963659863e-002
 4.2834251345e+000	 2.0529902865e+000	 5.4025582548e-002
 4.2625343375e+000	 2.0960202818e+000	 1.5487938720e-002
 4.2411752908e+000	 2.1389091034e+000	-3.5940661918e-002
 4.2193490324e+000	 2.1816493170e+000	-1.0055612565e-001
 4.4397391376e+000	 1.7576522382e+000	 1.0208735964e-001
 4.4220498037e+000	 1.8016937957e+000	 8.7118032681e-002
 4.4038867039e+000	 1.8456453883e+000	 6.6067975419e-002
 4.3852498261e+000	 1.8894996592e+000	 3.1940273965e-002
 4.3661393057e+000	 1.9332492242e+000	 8.3984699643e-003
 4.3465554265e+000	 1.9768866745e+000	 1.5594390485e-002
 4.3264986222e+000	 2.0204045813e+000	 1.2156627251e-002
 4.3059694774e+000	 2.0637954986e+000	-2.2403542348e-003
 4.2849687287e+000	 2.1070519675e+000	-2.7929898243e-002
 4.2634972660e+000	 2.1501665198e+000	-6.5252445701e-002
 4.2415561326e+000	 2.1931316818e+000	-1.1455478099e-001
 4.4629838451e+000	 1.7668546059e+000	 9.0262647811e-002
 4.4452018969e+000	 1.8111267475e+000	 7.9686776668e-002
 4.4269437023e+000	 1.8553084531e+000	 6.4230038175e-002
 4.4082092493e+000	 1.8993923276e+000	 3.1152597192e-002
 4.3889986738e+000	 1.9433709479e+000	-2.1161879766e-002
 4.3693122612e+000	 1.9872368665e+000	-6.0719553267e-002
 4.3491504474e+000	 2.0309826157e+000	-5.4638963277e-002
 4.3285138202e+000	 2.0746007106e+000	-5.8174397758e-002
 4.3074031200e+000	 2.1180836532e+000	-7.1706260581e-002
 4.2858192412e+000	 2.1614239361e+000	-9.5623911768e-002
 4.2637632328e+000	 2.2046140466e+000	-1.3032487722e-001
 4.4862285526e+000	 1.7760569736e+000	 8.1559808728e-002
 4.4683539901e+000	 1.8205596993e+000	 7.4700515420e-002
 4.4500007008e+000	 1.8649715180e+000	 6.4140282064e-002
 4.4311686725e+000	 1.9092849960e+000	 3.1142832570e-002
 4.4118580419e+000	 1.9534926715e+000	-1.5412030602e-002
 4.3920690959e+000	 1.9975870585e+000	-7.0095927638e-002
 4.3718022727e+000	 2.0415606502e+000	-1.2042220647e-001
 4.3510581630e+000	 2.0854059226e+000	-1.1376343013e-001
 4.3298375112e+000	 2.1291153389e+000	-1.1581558558e-001
 4.3081412164e+000	 2.1726813525e+000	-1.2701682564e-001
 4.2859703329e+000	 2.2160964114e+000	-1.4781528659e-001
 4.5094732602e+000	 1.7852593414e+000	 7.5918567134e-002
 4.4915060834e+000	 1.8299926511e+000	 7.2107895685e-002
 4.4730576992e+000	 1.8746345829e+000	 6.5756455610e-002
 4.4541280956e+000	 1.9191776644e+000	 3.1938388017e-002
 4.4347174100e+000	 1.9636143952e+000	-9.4799118986e-003
 4.4148259306e+000	 2.0079372506e+000	-5.7913729989e-002
 4.3944540979e+000	 2.0521386846e+000	-1.1293358529e-001
 4.3736025058e+000	 2.0962111347e+000	-1.6899449621e-001
 4.3522719025e+000	 2.1401470246e+000	-1.6023271306e-001
 4.3304631916e+000	 2.1839387688e+000	-1.5939359943e-001
 4.3081774331e+000	 2.2275787763e+000	-1.6697577620e-001
 4.5327179677e+000	 1.7944617091e+000	 7.3280002137e-002
 4.5146581766e+000	 1.8394256029e+000	 7.1858716107e-002
 4.4961146977e+000	 1.8842976477e+000	 6.4173065362e-002
 4.4770875188e+000	 1.9290703327e+000	 3.3567404468e-002
 4.4575767781e+000	 1.9737361189e+000	-3.3263433902e-003
 4.4375827653e+000	 2.0182874426e+000	-4.6140332231e-002
 4.4171059232e+000	 2.0627167191e+000	-9.4475831431e-002
 4.3961468486e+000	 2.1070163467e+000	-1.4790305686e-001
 4.3747062937e+000	 2.1511787103e+000	-2.0493287509e-001
 4.3527851668e+000	 2.1951961851e+000	-1.9271727528e-001
 4.3303845333e+000	 2.2390611411e+000	-1.8775698497e-001
 4.5559626752e+000	 1.8036640769e+000	 7.3586512660e-002
 4.5378102698e+000	 1.8488585547e+000	 7.3903897842e-002
 4.5191716961e+000	 1.8939607126e+000	 6.3847849195e-002
 4.5000469420e+000	 1.9389630011e+000	 3.6058737171e-002
 4.4804361462e+000	 1.9838578426e+000	 3.0883587404e-003
 4.4603396000e+000	 2.0286376346e+000	-3.4725061106e-002
 4.4397577484e+000	 2.0732947536e+000	-7.7013341260e-002
 4.4186911914e+000	 2.1178215587e+000	-1.2337815202e-001
 4.3971406850e+000	 2.1622103960e+000	-1.7339088786e-001
 4.3751071420e+000	 2.2064536015e+000	-2.2659260728e-001
 4.3525916335e+000	 2.2505435059e+000	-2.1011040147e-001
 4.5792073827e+000	 1.8128664446e+000	 7.6781783949e-002
 4.5609623630e+000	 1.8582915065e+000	 7.8195456072e-002
 4.5422286946e+000	 1.9036237774e+000	 6.4986959751e-002
 4.5230063652e+000	 1.9488556695e+000	 3.9441937557e-002
 4.5032955143e+000	 1.9939795663e+000	 9.8043690816e-003
 4.4830964347e+000	 2.0389878266e+000	-2.3616962233e-002
 4.4624095737e+000	 2.0838727880e+000	-6.0484227948e-002
 4.4412355342e+000	 2.1286267708e+000	-1.0043033847e-001
 4.4195750762e+000	 2.1732420817e+000	-1.4305879112e-001
 4.3974291173e+000	 2.2177110178e+000	-1.8794358430e-001
 4.3747987336e+000	 2.2620258708e+000	-2.3398834230e-001
 4.6024520903e+000	 1.8220688123e+000	 8.2810755084e-002
 4.5841144562e+000	 1.8677244584e+000	 8.4686472374e-002
 4.5652856930e+000	 1.9132868423e+000	 6.7610360444e-002
 4.5459657884e+000	 1.9587483379e+000	 4.3747235663e-002
 4.5261548824e+000	 2.0041012900e+000	 1.6862340599e-002
 4.5058532694e+000	 2.0493380186e+000	-1.2764807214e-002
 4.4850613989e+000	 2.0944508225e+000	-4.4826539066e-002
 4.4637798771e+000	 2.1394319828e+000	-7.8986795173e-002
 4.4420094675e+000	 2.1842737674e+000	-1.1488094798e-001
 4.4197510925e+000	 2.2289684341e+000	-1.5211569066e-001
 4.3970058338e+000	 2.2735082356e+000	-1.9026899275e-001
 4.6256967978e+000	 1.8312711801e+000	 9.1619587482e-002
 4.6072665494e+000	 1.8771574102e+000	 9.2279952725e-002
 4.5883426915e+000	 1.9229499072e+000	 7.1738867340e-002
 4.5689252115e+000	 1.9686410063e+000	 4.9005523077e-002
 4.5490142505e+000	 2.0142230137e+000	 2.4303392619e-002
 4.5286101041e+000	 2.0596882107e+000	-2.1171005126e-003
 4.5077132242e+000	 2.1050288570e+000	-2.9978258231e-002
 4.4863242199e+000	 2.1502371949e+000	-5.8974844185e-002
 4.4644438587e+000	 2.1953054531e+000	-8.8773882275e-002
 4.4420730677e+000	 2.2402258505e+000	-1.1901451944e-001
 4.4192129340e+000	 2.2849906004e+000	-1.4930795465e-001
 4.6489415053e+000	 1.8404735478e+000	 1.0315563433e-001
 4.6304186427e+000	 1.8865903620e+000	 9.8411044200e-002
 4.6113996900e+000	 1.9326129720e+000	 7.7394127849e-002
 4.5918846347e+000	 1.9785336746e+000	 5.5248336404e-002
 4.5718736186e+000	 2.0243447374e+000	 3.2169099163e-002
 4.5513669388e+000	 2.0700384027e+000	 8.3779138650e-003
 4.5303650494e+000	 2.1156068914e+000	-1.5877306699e-002
 4.5088685627e+000	 2.1610424069e+000	-4.0321947111e-002
 4.4868782500e+000	 2.2063371388e+000	-6.4654463008e-002
 4.4643950429e+000	 2.2514832668e+000	-8.8546218134e-002
 4.4414200342e+000	 2.2964729653e+000	-1.1164138670e-001
 4.2193490324e+000	 2.1816493170e+000	-1.0055612565e-001
 4.1970567543e+000	 2.2242334862e+000	-1.5970324164e-001
 4.1742998024e+000	 2.2666541773e+000	-2.0299962047e-001
 4.1510796778e+000	 2.3089039626e+000	-2.3108102452e-001
 4.1273980366e+000	 2.3509754247e+000	-2.4461491059e-001
 4.1032566903e+000	 2.3928611605e+000	-2.4429946675e-001
 4.0786576062e+000	 2.4345537848e+000	-2.3086258051e-001
 4.0536029072e+000	 2.4760459347e+000	-2.0506073990e-001
 4.0280948713e+000	 2.5173302738e+000	-1.9664084541e-001
 4.0021359322e+000	 2.5583994957e+000	-2.1628778615e-001
 3.9757286783e+000	 2.5992463286e+000	-2.2350989079e-001
 4.2415561326e+000	 2.1931316818e+000	-1.1455478099e-001
 4.2191465267e+000	 2.2359399782e+000	-1.6536794819e-001
 4.1962698014e+000	 2.2785839361e+000	-2.0228407563e-001
 4.1729274656e+000	 2.3210560887e+000	-2.2592130626e-001
 4.1491211841e+000	 2.3633489796e+000	-2.3692771523e-001
 4.1248527781e+000	 2.4054551666e+000	-2.3598034183e-001
 4.1001242252e+000	 2.4473672257e+000	-2.2378415471e-001
 4.0749376593e+000	 2.4890777554e+000	-2.0107095200e-001
 4.0492953706e+000	 2.5305793805e+000	-2.1769700280e-001
 4.0231998056e+000	 2.5718647562e+000	-2.4176574846e-001
 3.9966535661e+000	 2.6129265724e+000	-2.5533039132e-001
 4.2637632328e+000	 2.2046140466e+000	-1.3032487722e-001
 4.2412362991e+000	 2.2476464703e+000	-1.7207854641e-001
 4.2182398003e+000	 2.2905136949e+000	-2.0186501781e-001
 4.1947752533e+000	 2.3332082148e+000	-2.2028520086e-001
 4.1708443317e+000	 2.3757225345e+000	-2.2796819470e-001
 4.1464488660e+000	 2.4180491727e+000	-2.2557031494e-001
 4.1215908442e+000	 2.4601806667e+000	-2.1377405550e-001
 4.0962724114e+000	 2.5021095762e+000	-1.9653282799e-001
 4.0704958700e+000	 2.5438284872e+000	-2.3238518559e-001
 4.0442636789e+000	 2.5853300167e+000	-2.6008930746e-001
 4.0175784539e+000	 2.6266068162e+000	-2.7919245115e-001
 4.2859703329e+000	 2.2160964114e+000	-1.4781528659e-001
 4.2633260715e+000	 2.2593529623e+000	-1.7979330363e-001
 4.2402097993e+000	 2.3024434537e+000	-2.0171043056e-001
 4.2166230411e+000	 2.3453603409e+000	-2.1415072684e-001
 4.1925674792e+000	 2.3880960893e+000	-2.1772471875e-001
 4.1680449538e+000	 2.4306431788e+000	-2.1306842050e-001
 4.1430574632e+000	 2.4729941077e+000	-2.0084229254e-001
 4.1176071636e+000	 2.5151413969e+000	-2.0400953072e-001
 4.0916963693e+000	 2.5570775939e+000	-2.4078244926e-001
 4.0653275522e+000	 2.5987952773e+000	-2.7134968234e-001
 4.0385033416e+000	 2.6402870601e+000	-2.9520176296e-001
 4.3081774331e+000	 2.2275787763e+000	-1.6697577620e-001
 4.2854158438e+000	 2.2710594543e+000	-1.8847117028e-001
 4.2621797983e+000	 2.3143732126e+000	-2.0178876176e-001
 4.2384708289e+000	 2.3575124671e+000	-2.0749614142e-001
 4.2142906268e+000	 2.4004696442e+000	-2.0618566329e-001
 4.1896410417e+000	 2.4432371849e+000	-1.9847345986e-001
 4.1645240822e+000	 2.4858075487e+000	-1.8499839647e-001
 4.1389419157e+000	 2.5281732176e+000	-2.0601264993e-001
 4.1128968686e+000	 2.5703267006e+000	-2.4296485870e-001
 4.0863914255e+000	 2.6122605378e+000	-2.7563683625e-001
 4.0594282294e+000	 2.6539673039e+000	-3.0346249171e-001
 4.3303845333e+000	 2.2390611411e+000	-1.8775698497e-001
 4.3075056162e+000	 2.2827659464e+000	-1.9807176233e-001
 4.2841497972e+000	 2.3263029714e+000	-2.0206891170e-001
 4.2603186167e+000	 2.3696645932e+000	-2.0029993435e-001
 4.2360137743e+000	 2.4128431991e+000	-1.9333941025e-001
 4.2112371295e+000	 2.4558311910e+000	-1.8178400728e-001
 4.1859907011e+000	 2.4986209896e+000	-1.6625143120e-001
 4.1602766679e+000	 2.5412050383e+000	-2.0260394950e-001
 4.1340973679e+000	 2.5835758073e+000	-2.3900751362e-001
 4.1074552989e+000	 2.6257257983e+000	-2.7303950857e-001
 4.0803531172e+000	 2.6676475477e+000	-3.0407731379e-001
 4.3525916335e+000	 2.2505435059e+000	-2.1011040147e-001
 4.3295953886e+000	 2.2944724384e+000	-2.0855534430e-001
 4.3061197962e+000	 2.3382327302e+000	-2.0252022159e-001
 4.2821664045e+000	 2.3818167193e+000	-1.9254082201e-001
 4.2577369219e+000	 2.4252167539e+000	-1.7917434744e-001
 4.2328332174e+000	 2.4684251971e+000	-1.6299841567e-001
 4.2074573201e+000	 2.5114344306e+000	-1.5888624404e-001
 4.1816114200e+000	 2.5542368590e+000	-1.9384449871e-001
 4.1552978673e+000	 2.5968249141e+000	-2.2898457316e-001
 4.1285191722e+000	 2.6391910588e+000	-2.6364524606e-001
 4.1012780050e+000	 2.6813277916e+000	-2.9714745504e-001
 4.3747987336e+000	 2.2620258708e+000	-2.3398834230e-001
 4.3516851610e+000	 2.3061789304e+000	-2.1988281284e-001
 4.3280897951e+000	 2.3501624891e+000	-2.0311246230e-001
 4.3040141922e+000	 2.3939688454e+000	-1.8419774167e-001
 4.2794600695e+000	 2.4375903088e+000	-1.6367886839e-001
 4.2544293052e+000	 2.4810192032e+000	-1.4211482228e-001
 4.2289239391e+000	 2.5242478716e+000	-1.4873196823e-001
 4.2029461722e+000	 2.5672686797e+000	-1.7979468987e-001
 4.1764983666e+000	 2.6100740208e+000	-2.1296927978e-001
 4.1495830455e+000	 2.6526563193e+000	-2.4754043318e-001
 4.1222028927e+000	 2.6950080354e+000	-2.8277272749e-001
 4.3970058338e+000	 2.2735082356e+000	-1.9026899275e-001
 4.3737749334e+000	 2.3178854225e+000	-2.3201568075e-001
 4.3500597941e+000	 2.3620922479e+000	-2.0381582357e-001
 4.3258619800e+000	 2.4061209716e+000	-1.7524984589e-001
 4.3011832170e+000	 2.4499638637e+000	-1.4684137220e-001
 4.2760253930e+000	 2.4936132094e+000	-1.1913115411e-001
 4.2503905581e+000	 2.5370613125e+000	-1.3402046219e-001
 4.2242809243e+000	 2.5803005004e+000	-1.6051425536e-001
 4.1976988659e+000	 2.6233231275e+000	-1.9103398238e-001
 4.1706469189e+000	 2.6661215798e+000	-2.2481032144e-001
 4.1431277805e+000	 2.7086882792e+000	-2.6105156514e-001
 4.4192129340e+000	 2.2849906004e+000	-1.4930795465e-001
 4.3958647058e+000	 2.3295919145e+000	-1.8319857227e-001
 4.3720297931e+000	 2.3740220067e+000	-2.0460090344e-001
 4.3477097678e+000	 2.4182730977e+000	-1.6567649710e-001
 4.3229063646e+000	 2.4623374186e+000	-1.2865026340e-001
 4.2976214809e+000	 2.5062072155e+000	-1.0025648978e-001
 4.2718571771e+000	 2.5498747535e+000	-1.1479871262e-001
 4.2456156764e+000	 2.5933323211e+000	-1.3606228429e-001
 4.2188993652e+000	 2.6365722342e+000	-1.6325015878e-001
 4.1917107922e+000	 2.6795868403e+000	-1.9553905782e-001
 4.1640526683e+000	 2.7223685231e+000	-2.3208105855e-001
 4.4414200342e+000	 2.2964729653e+000	-1.1164138670e-001
 4.4179544782e+000	 2.3412984066e+000	-1.3339436611e-001
 4.3939997920e+000	 2.3859517656e+000	-1.5297845943e-001
 4.3695575556e+000	 2.4304252238e+000	-1.5545726241e-001
 4.3446295122e+000	 2.4747109734e+000	-1.0909395183e-001
 4.3192175687e+000	 2.5188012216e+000	-8.4385252057e-002
 4.2933237960e+000	 2.5626881945e+000	-9.1113295469e-002
 4.2669504286e+000	 2.6063641418e+000	-1.0649723851e-001
 4.2400998645e+000	 2.6498213409e+000	-1.2968843749e-001
 4.2127746655e+000	 2.6930521008e+000	-1.5980971243e-001
 4.1849775561e+000	 2.7360487669e+000	-1.9595698841e-001
 3.9757286783e+000	 2.5992463286e+000	-2.2350989079e-001
 3.9488758523e+000	 2.6398635388e+000	-2.1912173208e-001
 3.9215803507e+000	 2.6802439354e+000	-2.2642595254e-001
 3.8938452231e+000	 2.7203803739e+000	-2.4469071534e-001
 3.8656736713e+000	 2.7602657603e+000	-2.7315940897e-001
 3.8370690480e+000	 2.7998930552e+000	-3.1105215919e-001
 3.8080348563e+000	 2.8392552779e+000	-3.5756739113e-001
 3.7785747479e+000	 2.8783455100e+000	-4.1188343768e-001
 3.7486925218e+000	 2.9171568997e+000	-4.6817583263e-001
 3.7183921230e+000	 2.9556826656e+000	-4.2626011126e-001
 3.6876776410e+000	 2.9939161004e+000	-3.9988073541e-001
 3.9966535661e+000	 2.6129265724e+000	-2.5533039132e-001
 3.9696594094e+000	 2.6537575574e+000	-2.5115158002e-001
 3.9422202473e+000	 2.6943504824e+000	-2.5720311631e-001
 3.9143391453e+000	 2.7346981653e+000	-2.7278789547e-001
 3.8860193222e+000	 2.7747934748e+000	-2.9718550573e-001
 3.8572641483e+000	 2.8146293345e+000	-3.2965372489e-001
 3.8280771451e+000	 2.8541987267e+000	-3.6943006501e-001
 3.7984619834e+000	 2.8934946969e+000	-4.1573336163e-001
 3.7684224824e+000	 2.9325103571e+000	-4.6776540350e-001
 3.7379626079e+000	 2.9712388901e+000	-4.8181018030e-001
 3.7070864707e+000	 3.0096735536e+000	-4.4115170170e-001
 4.0175784539e+000	 2.6266068162e+000	-2.7919245115e-001
 3.9904429665e+000	 2.6676515760e+000	-2.7614854610e-001
 3.9628601438e+000	 2.7084570295e+000	-2.8189162378e-001
 3.9348330675e+000	 2.7490159568e+000	-2.9575871517e-001
 3.9063649731e+000	 2.7893211894e+000	-3.1706499697e-001
 3.8774592485e+000	 2.8293656137e+000	-3.4510527343e-001
 3.8481194338e+000	 2.8691421756e+000	-3.7915550439e-001
 3.8183492189e+000	 2.9086438838e+000	-4.1847437593e-001
 3.7881524430e+000	 2.9478638144e+000	-4.6230490967e-001
 3.7575330927e+000	 2.9867951147e+000	-5.0987610672e-001
 3.7264953004e+000	 3.0254310067e+000	-4.8245384305e-001
 4.0385033416e+000	 2.6402870601e+000	-2.9520176296e-001
 4.0112265236e+000	 2.6815455947e+000	-2.9420594275e-001
 3.9835000404e+000	 2.7225635765e+000	-3.0057214302e-001
 3.9553269898e+000	 2.7633337482e+000	-3.1367093831e-001
 3.9267106240e+000	 2.8038489039e+000	-3.3285248685e-001
 3.8976543488e+000	 2.8441018930e+000	-3.5744799829e-001
 3.8681617225e+000	 2.8840856244e+000	-3.8677124580e-001
 3.8382364544e+000	 2.9237930707e+000	-4.2012011880e-001
 3.8078824037e+000	 2.9632172718e+000	-4.5677821252e-001
 3.7771035776e+000	 3.0023513392e+000	-4.9601645029e-001
 3.7459041300e+000	 3.0411884599e+000	-5.2373055316e-001
 4.0594282294e+000	 2.6539673039e+000	-3.0346249171e-001
 4.0320100807e+000	 2.6954396133e+000	-3.0541583667e-001
 4.0041399370e+000	 2.7366701235e+000	-3.1332438393e-001
 3.9758209120e+000	 2.7776515397e+000	-3.2659166344e-001
 3.9470562748e+000	 2.8183766184e+000	-3.4460221227e-001
 3.9178494490e+000	 2.8588381722e+000	-3.6672302887e-001
 3.8882040112e+000	 2.8990290732e+000	-3.9230506984e-001
 3.8581236899e+000	 2.9389422576e+000	-4.2068478551e-001
 3.8276123643e+000	 2.9785707292e+000	-4.5118569037e-001
 3.7966740624e+000	 3.0179075638e+000	-4.8311996450e-001
 3.7653129597e+000	 3.0569459131e+000	-5.1579008182e-001
 4.0803531172e+000	 2.6676475477e+000	-3.0407731379e-001
 4.0527936378e+000	 2.7093336319e+000	-3.0986908081e-001
 4.0247798336e+000	 2.7507766705e+000	-3.2022712276e-001
 3.9963148342e+000	 2.7919693311e+000	-3.3458734081e-001
 3.9674019257e+000	 2.8329043329e+000	-3.5236805229e-001
 3.9380445493e+000	 2.8735744514e+000	-3.7297143211e-001
 3.9082462999e+000	 2.9139725220e+000	-3.9578499491e-001
 3.8780109254e+000	 2.9540914445e+000	-4.2018311405e-001
 3.8473423250e+000	 2.9939241865e+000	-4.4552857379e-001
 3.8162445473e+000	 3.0334637884e+000	-4.7117415042e-001
 3.7847217894e+000	 3.0727033662e+000	-4.9646421844e-001
 4.1012780050e+000	 2.6813277916e+000	-2.9714745504e-001
 4.0735771949e+000	 2.7232276505e+000	-3.0765534534e-001
 4.0454197301e+000	 2.7648832176e+000	-3.2135822596e-001
 4.0168087564e+000	 2.8062871225e+000	-3.3772378893e-001
 3.9877475766e+000	 2.8474320475e+000	-3.5620353724e-001
 3.9582396495e+000	 2.8883107307e+000	-3.7623421413e-001
 3.9282885886e+000	 2.9289159709e+000	-3.9723927113e-001
 3.8978981609e+000	 2.9692406314e+000	-4.1863037135e-001
 3.8670722856e+000	 3.0092776439e+000	-4.3980892388e-001
 3.8358150322e+000	 3.0490200129e+000	-4.6016764554e-001
 3.8041306191e+000	 3.0884608194e+000	-4.7909214561e-001
 4.1222028927e+000	 2.6950080354e+000	-2.8277272749e-001
 4.0943607521e+000	 2.7371216692e+000	-2.9886314764e-001
 4.0660596267e+000	 2.7789897646e+000	-3.1679467327e-001
 4.0373026787e+000	 2.8206049140e+000	-3.3606621060e-001
 4.0080932275e+000	 2.8619597620e+000	-3.5616185761e-001
 3.9784347498e+000	 2.9030470099e+000	-3.7655232171e-001
 3.9483308773e+000	 2.9438594197e+000	-3.9669637448e-001
 3.9177853965e+000	 2.9843898182e+000	-4.1604233977e-001
 3.8868022462e+000	 3.0246311013e+000	-4.3402961119e-001
 3.8553855170e+000	 3.0645762375e+000	-4.5009019500e-001
 3.8235394488e+000	 3.1042182725e+000	-4.6365027431e-001
 4.1431277805e+000	 2.7086882792e+000	-2.6105156514e-001
 4.1151443092e+000	 2.7510156878e+000	-2.8357988144e-001
 4.0866995233e+000	 2.7930963116e+000	-3.0661258008e-001
 4.0577966009e+000	 2.8349227054e+000	-3.2967920845e-001
 4.0284388784e+000	 2.8764874765e+000	-3.5229587258e-001
 3.9986298500e+000	 2.9177832891e+000	-3.7396664385e-001
 3.9683731661e+000	 2.9588028685e+000	-3.9418500109e-001
 3.9376726320e+000	 2.9995390051e+000	-4.1243530417e-001
 3.9065322069e+000	 3.0399845586e+000	-4.2819429525e-001
 3.8749560019e+000	 3.0801324620e+000	-4.4093262356e-001
 3.8429482785e+000	 3.1199757257e+000	-4.5011638979e-001
 4.1640526683e+000	 2.7223685231e+000	-2.3208105855e-001
 4.1359278663e+000	 2.7649097064e+000	-2.6189184504e-001
 4.1073394199e+000	 2.8072028587e+000	-2.9088721920e-001
 4.0782905231e+000	 2.8492404969e+000	-3.1862680005e-001
 4.0487845293e+000	 2.8910151910e+000	-3.4465811838e-001
 4.0188249503e+000	 2.9325195684e+000	-3.6851801318e-001
 3.9884154548e+000	 2.9737463174e+000	-3.8973406170e-001
 3.9575598675e+000	 3.0146881920e+000	-4.0782603923e-001
 3.9262621675e+000	 3.0553380160e+000	-4.2230740478e-001
 3.8945264867e+000	 3.0956886866e+000	-4.3268680853e-001
 3.8623571082e+000	 3.1357331788e+000	-4.3640793528e-001
 4.1849775561e+000	 2.7360487669e+000	-1.9595698841e-001
 4.1567114234e+000	 2.7788037250e+000	-2.3388426869e-001
 4.1279793165e+000	 2.8213094057e+000	-2.6969304188e-001
 4.0987844453e+000	 2.8635582883e+000	-3.0297243249e-001
 4.0691301802e+000	 2.9055429056e+000	-3.3330081635e-001
 4.0390200505e+000	 2.9472558476e+000	-3.6024720739e-001
 4.0084577435e+000	 2.9886897662e+000	-3.8337267630e-001
 3.9774471030e+000	 3.0298373789e+000	-4.0223179721e-001
 3.9459921281e+000	 3.0706914733e+000	-4.1637411845e-001
 3.9140969716e+000	 3.1112449111e+000	-4.2534565340e-001
 3.8817659379e+000	 3.1514906320e+000	-4.2363310450e-001
 3.6876776410e+000	 2.9939161004e+000	-3.9988073541e-001
 3.6565533075e+000	 3.0318505751e+000	-3.9681480664e-001
 3.6250234951e+000	 3.0694795422e+000	-3.9469760750e-001
 3.5930927152e+000	 3.1067965399e+000	-3.9295442801e-001
 3.5607656154e+000	 3.1437951957e+000	-3.9366475375e-001
 3.5280469781e+000	 3.1804692296e+000	-4.0006782141e-001
 3.4949417175e+000	 3.2168124582e+000	-4.1022859093e-001
 3.4614548776e+000	 3.2528187977e+000	-4.2349681437e-001
 3.4275916292e+000	 3.2884822674e+000	-4.3922668831e-001
 3.3933572679e+000	 3.3237969933e+000	-4.5677868703e-001
 3.3587572107e+000	 3.3587572106e+000	-4.7552136442e-001
 3.7070864707e+000	 3.0096735536e+000	-4.4115170170e-001
 3.6757983249e+000	 3.0478076834e+000	-4.2982052084e-001
 3.6441025662e+000	 3.0856346977e+000	-4.2074287427e-001
 3.6120037295e+000	 3.1231481007e+000	-4.1328728309e-001
 3.5795064871e+000	 3.1603414862e+000	-4.1128035132e-001
 3.5466156464e+000	 3.1972085414e+000	-4.1488690270e-001
 3.5133361476e+000	 3.2337430501e+000	-4.2328833302e-001
 3.4796730611e+000	 3.2699388967e+000	-4.3577157796e-001
 3.4456315852e+000	 3.3057900689e+000	-4.5162734330e-001
 3.4112170430e+000	 3.3412906616e+000	-4.7015202352e-001
 3.3764348802e+000	 3.3764348802e+000	-4.9064958974e-001
 3.7264953004e+000	 3.0254310067e+000	-4.8245384305e-001
 3.6950433423e+000	 3.0637647916e+000	-4.6222551442e-001
 3.6631816372e+000	 3.1017898531e+000	-4.4554672995e-001
 3.6309147437e+000	 3.1394996614e+000	-4.3235412693e-001
 3.5982473587e+000	 3.1768877767e+000	-4.2591928218e-001
 3.5651843147e+000	 3.2139478531e+000	-4.2608163462e-001
 3.5317305777e+000	 3.2506736420e+000	-4.3206427143e-001
 3.4978912447e+000	 3.2870589956e+000	-4.4309135773e-001
 3.4636715411e+000	 3.3230978703e+000	-4.5839016589e-001
 3.4290768181e+000	 3.3587843300e+000	-4.7719307985e-001
 3.3941125497e+000	 3.3941125497e+000	-4.9873956910e-001
 3.7459041300e+000	 3.0411884599e+000	-5.2373055316e-001
 3.7142883597e+000	 3.0797218999e+000	-4.9398504904e-001
 3.6822607082e+000	 3.1179450086e+000	-4.6907647256e-001
 3.6498257580e+000	 3.1558512221e+000	-4.4923808183e-001
 3.6169882304e+000	 3.1934340672e+000	-4.3764833461e-001
 3.5837529830e+000	 3.2306871648e+000	-4.3373151416e-001
 3.5501250078e+000	 3.2676042339e+000	-4.3664871200e-001
 3.5161094283e+000	 3.3041790945e+000	-4.4556136105e-001
 3.4817114971e+000	 3.3404056717e+000	-4.5963335015e-001
 3.4469365932e+000	 3.3762779984e+000	-4.7803311434e-001
 3.4117902192e+000	 3.4117902192e+000	-4.9993569505e-001
 3.7653129597e+000	 3.0569459131e+000	-5.1579008182e-001
 3.7335333771e+000	 3.0956790082e+000	-5.2505569418e-001
 3.7013397793e+000	 3.1341001641e+000	-4.9088138161e-001
 3.6687367723e+000	 3.1722027829e+000	-4.6389048716e-001
 3.6357291020e+000	 3.2099803577e+000	-4.4653493737e-001
 3.6023216513e+000	 3.2474264766e+000	-4.3791644984e-001
 3.5685194379e+000	 3.2845348258e+000	-4.3713414019e-001
 3.5343276118e+000	 3.3212991935e+000	-4.4328674006e-001
 3.4997514530e+000	 3.3577134731e+000	-4.5547479726e-001
 3.4647963683e+000	 3.3937716668e+000	-4.7280285208e-001
 3.4294678888e+000	 3.4294678888e+000	-4.9438158400e-001
 3.7847217894e+000	 3.0727033662e+000	-4.9646421844e-001
 3.7527783945e+000	 3.1116361165e+000	-5.4717531578e-001
 3.7204188503e+000	 3.1502553196e+000	-5.1083648909e-001
 3.6876477866e+000	 3.1885543436e+000	-4.7636724024e-001
 3.6544699737e+000	 3.2265266482e+000	-4.5264714317e-001
 3.6208903196e+000	 3.2641657883e+000	-4.3871675120e-001
 3.5869138680e+000	 3.3014654177e+000	-4.3361321649e-001
 3.5525457954e+000	 3.3384192924e+000	-4.3637259315e-001
 3.5177914090e+000	 3.3750212745e+000	-4.4603212307e-001
 3.4826561434e+000	 3.4112653352e+000	-4.6163249864e-001
 3.4471455583e+000	 3.4471455583e+000	-4.8222009613e-001
 3.8041306191e+000	 3.0884608194e+000	-4.7909214561e-001
 3.7720234120e+000	 3.1275932248e+000	-5.2071440096e-001
 3.7394979213e+000	 3.1664104751e+000	-5.2924807906e-001
 3.7065588009e+000	 3.2049059043e+000	-4.8672506087e-001
 3.6732108454e+000	 3.2430729387e+000	-4.5605361284e-001
 3.6394589879e+000	 3.2809051000e+000	-4.3621311850e-001
 3.6053082981e+000	 3.3183960095e+000	-4.2617877196e-001
 3.5707639790e+000	 3.3555393913e+000	-4.2492396625e-001
 3.5358313649e+000	 3.3923290759e+000	-4.3142266534e-001
 3.5005159185e+000	 3.4287590036e+000	-4.4465175332e-001
 3.4648232278e+000	 3.4648232278e+000	-4.6359335467e-001
 3.8235394488e+000	 3.1042182725e+000	-4.6365027431e-001
 3.7912684294e+000	 3.1435503331e+000	-4.9386694135e-001
 3.7585769923e+000	 3.1825656306e+000	-5.2338808209e-001
 3.7254698152e+000	 3.2212574651e+000	-4.9502147035e-001
 3.6919517170e+000	 3.2596192292e+000	-4.5682359984e-001
 3.6580276562e+000	 3.2976444118e+000	-4.3048663289e-001
 3.6237027281e+000	 3.3353266014e+000	-4.1492380385e-001
 3.5889821625e+000	 3.3726594903e+000	-4.0904585421e-001
 3.5538713209e+000	 3.4096368773e+000	-4.1176349083e-001
 3.5183756936e+000	 3.4462526720e+000	-4.2198982195e-001
 3.4825008974e+000	 3.4825008974e+000	-4.3864276460e-001
 3.8429482785e+000	 3.1199757257e+000	-4.5011638979e-001
 3.8105134468e+000	 3.1595074414e+000	-4.6828731260e-001
 3.7776560634e+000	 3.1987207860e+000	-4.8974399413e-001
 3.7443808295e+000	 3.2376090258e+000	-5.0131477133e-001
 3.7106925887e+000	 3.2761655197e+000	-4.5502693535e-001
 3.6765963245e+000	 3.3143837235e+000	-4.2161874672e-001
 3.6420971582e+000	 3.3522571933e+000	-3.9994147148e-001
 3.6072003461e+000	 3.3897795892e+000	-3.8884320207e-001
 3.5719112768e+000	 3.4269446787e+000	-3.8717140210e-001
 3.5362354687e+000	 3.4637463403e+000	-3.9377542940e-001
 3.5001785669e+000	 3.5001785669e+000	-4.0750903079e-001
 3.8623571082e+000	 3.1357331788e+000	-4.3640793528e-001
 3.8297584642e+000	 3.1754645497e+000	-4.4401835614e-001
 3.7967351344e+000	 3.2148759415e+000	-4.5684292756e-001
 3.7632918438e+000	 3.2539605865e+000	-4.7427908143e-001
 3.7294334603e+000	 3.2927118102e+000	-4.5073401368e-001
 3.6951649928e+000	 3.3311230352e+000	-4.0969127423e-001
 3.6604915883e+000	 3.3691877852e+000	-3.8132509211e-001
 3.6254185297e+000	 3.4068996881e+000	-3.6442090633e-001
 3.5899512327e+000	 3.4442524801e+000	-3.5776294420e-001
 3.5540952438e+000	 3.4812400087e+000	-3.6013683166e-001
 3.5178562364e+000	 3.5178562364e+000	-3.7033217560e-001
 3.8817659379e+000	 3.1514906320e+000	-4.2363310450e-001
 3.8490034816e+000	 3.1914216579e+000	-4.2110403465e-001
 3.8158142054e+000	 3.2310310970e+000	-4.2473895175e-001
 3.7822028581e+000	 3.2703121473e+000	-4.3388852599e-001
 3.7481743320e+000	 3.3092581007e+000	-4.4401577827e-001
 3.7137336611e+000	 3.3478623470e+000	-3.9478638253e-001
 3.6788860184e+000	 3.3861183771e+000	-3.5916813701e-001
 3.6436367132e+000	 3.4240197871e+000	-3.3588381615e-001
 3.6079911887e+000	 3.4615602815e+000	-3.2365441109e-001
 3.5719550189e+000	 3.4987336771e+000	-3.2120182753e-001
 3.5355339060e+000	 3.5355339059e+000	-3.2725155592e-001
 3.3587572107e+000	 3.3587572106e+000	-4.7552136442e-001
 3.3237969933e+000	 3.3933572679e+000	-4.7410809655e-001
 3.2884822674e+000	 3.4275916292e+000	-4.7680039544e-001
 3.2528187977e+000	 3.4614548776e+000	-4.8282306659e-001
 3.2168124582e+000	 3.4949417175e+000	-4.9141203821e-001
 3.1804692296e+000	 3.5280469781e+000	-5.0181613459e-001
 3.1437951957e+000	 3.5607656154e+000	-5.1329879502e-001
 3.1067965399e+000	 3.5930927152e+000	-5.1172422704e-001
 3.0694795422e+000	 3.6250234951e+000	-4.9430089892e-001
 3.0318505751e+000	 3.6565533075e+000	-4.7516729528e-001
 2.9939161004e+000	 3.6876776410e+000	-4.5535772340e-001
 3.3764348802e+000	 3.3764348802e+000	-4.9064958974e-001
 3.3412906616e+000	 3.4112170430e+000	-4.8902705847e-001
 3.3057900689e+000	 3.4456315852e+000	-4.9152403337e-001
 3.2699388967e+000	 3.4796730611e+000	-4.9736642092e-001
 3.2337430501e+000	 3.5133361476e+000	-5.0579161568e-001
 3.1972085414e+000	 3.5466156464e+000	-5.1605028706e-001
 3.1603414862e+000	 3.5795064871e+000	-5.2740811052e-001
 3.1231481007e+000	 3.6120037295e+000	-5.3771156068e-001
 3.0856346977e+000	 3.6441025662e+000	-5.1942267215e-001
 3.0478076834e+000	 3.6757983249e+000	-4.9991376981e-001
 3.0096735536e+000	 3.7070864707e+000	-4.8025387948e-001
 3.3941125497e+000	 3.3941125497e+000	-4.9873956910e-001
 3.3587843300e+000	 3.4290768181e+000	-4.9726479532e-001
 3.3230978703e+000	 3.4636715411e+000	-4.9991896273e-001
 3.2870589956e+000	 3.4978912447e+000	-5.0592867351e-001
 3.2506736420e+000	 3.5317305777e+000	-5.1453239202e-001
 3.2139478531e+000	 3.5651843147e+000	-5.2498224551e-001
 3.1768877767e+000	 3.5982473587e+000	-5.3654576804e-001
 3.1394996614e+000	 3.6309147437e+000	-5.4850758345e-001
 3.1017898531e+000	 3.6631816372e+000	-5.4128631241e-001
 3.0637647916e+000	 3.6950433423e+000	-5.2163482275e-001
 3.0254310067e+000	 3.7264953004e+000	-5.0236651025e-001
 3.4117902192e+000	 3.4117902192e+000	-4.9993569505e-001
 3.3762779984e+000	 3.4469365932e+000	-4.9896219556e-001
 3.3404056717e+000	 3.4817114971e+000	-5.0212251669e-001
 3.3041790945e+000	 3.5161094283e+000	-5.0864355150e-001
 3.2676042339e+000	 3.5501250078e+000	-5.1776443819e-001
 3.2306871648e+000	 3.5837529830e+000	-5.2873837514e-001
 3.1934340672e+000	 3.6169882304e+000	-5.4083437818e-001
 3.1558512221e+000	 3.6498257580e+000	-5.5333897563e-001
 3.1179450086e+000	 3.6822607082e+000	-5.5970351437e-001
 3.0797218999e+000	 3.7142883597e+000	-5.4013707041e-001
 3.0411884599e+000	 3.7459041300e+000	-5.2149728887e-001
 3.4294678888e+000	 3.4294678888e+000	-4.9438158400e-001
 3.3937716668e+000	 3.4647963683e+000	-4.9425947048e-001
 3.3577134731e+000	 3.4997514530e+000	-4.9827144998e-001
 3.3212991935e+000	 3.5343276118e+000	-5.0564430221e-001
 3.2845348258e+000	 3.5685194379e+000	-5.1561744364e-001
 3.2474264766e+000	 3.6023216513e+000	-5.2744475768e-001
 3.2099803577e+000	 3.6357291020e+000	-5.4039636568e-001
 3.1722027829e+000	 3.6687367723e+000	-5.5376033467e-001
 3.1341001641e+000	 3.7013397793e+000	-5.6684431720e-001
 3.0956790082e+000	 3.7335333771e+000	-5.5522723362e-001
 3.0569459131e+000	 3.7653129597e+000	-5.2710791917e-001
 3.4471455583e+000	 3.4471455583e+000	-4.8222009613e-001
 3.4112653352e+000	 3.4826561434e+000	-4.8329617149e-001
 3.3750212745e+000	 3.5177914090e+000	-4.8850195379e-001
 3.3384192924e+000	 3.5525457954e+000	-4.9706370539e-001
 3.3014654177e+000	 3.5869138680e+000	-5.0822072606e-001
 3.2641657883e+000	 3.6208903196e+000	-5.2122719858e-001
 3.2265266482e+000	 3.6544699737e+000	-5.3535397421e-001
 3.1885543436e+000	 3.6876477866e+000	-5.4989029348e-001
 3.1502553196e+000	 3.7204188503e+000	-5.6414543789e-001
 3.1116361165e+000	 3.7527783945e+000	-5.6485625572e-001
 3.0727033662e+000	 3.7847217894e+000	-5.2843193975e-001
 3.4648232278e+000	 3.4648232278e+000	-4.6359335467e-001
 3.4287590036e+000	 3.5005159185e+000	-4.6621120705e-001
 3.3923290759e+000	 3.5358313649e+000	-4.7294967008e-001
 3.3555393913e+000	 3.5707639790e+000	-4.8303408523e-001
 3.3183960095e+000	 3.6053082981e+000	-4.9570324090e-001
 3.2809051000e+000	 3.6394589879e+000	-5.1021123413e-001
 3.2430729387e+000	 3.6732108454e+000	-5.2582927097e-001
 3.2049059043e+000	 3.7065588009e+000	-5.4184740088e-001
 3.1664104751e+000	 3.7394979213e+000	-5.5757618073e-001
 3.1275932248e+000	 3.7720234120e+000	-5.5894219437e-001
 3.0884608194e+000	 3.8041306191e+000	-5.2848688656e-001
 3.4825008974e+000	 3.4825008974e+000	-4.3864276460e-001
 3.4462526720e+000	 3.5183756936e+000	-4.4314285891e-001
 3.4096368773e+000	 3.5538713209e+000	-4.5174970555e-001
 3.3726594903e+000	 3.5889821625e+000	-4.6368732184e-001
 3.3353266014e+000	 3.6237027281e+000	-4.7819359053e-001
 3.2976444118e+000	 3.6580276562e+000	-4.9452213823e-001
 3.2596192292e+000	 3.6919517170e+000	-5.1194415115e-001
 3.2212574651e+000	 3.7254698152e+000	-5.2975012365e-001
 3.1825656306e+000	 3.7585769923e+000	-5.4203869079e-001
 3.1435503331e+000	 3.7912684294e+000	-5.4105774273e-001
 3.1042182725e+000	 3.8235394488e+000	-5.2732309353e-001
 3.5001785669e+000	 3.5001785669e+000	-4.0750903079e-001
 3.4637463403e+000	 3.5362354687e+000	-4.1422879798e-001
 3.4269446787e+000	 3.5719112768e+000	-4.2503664516e-001
 3.3897795892e+000	 3.6072003461e+000	-4.3915486250e-001
 3.3522571933e+000	 3.6420971582e+000	-4.5582003318e-001
 3.3143837235e+000	 3.6765963245e+000	-4.7428492905e-001
 3.2761655197e+000	 3.7106925887e+000	-4.9382034230e-001
 3.2376090258e+000	 3.7443808295e+000	-5.1371684870e-001
 3.1987207860e+000	 3.7776560634e+000	-5.1805067560e-001
 3.1595074414e+000	 3.8105134468e+000	-5.2200097194e-001
 3.1199757257e+000	 3.8429482785e+000	-5.2499107529e-001
 3.5178562364e+000	 3.5178562364e+000	-3.7033217560e-001
 3.4812400087e+000	 3.5540952438e+000	-3.7960609965e-001
 3.4442524801e+000	 3.5899512327e+000	-3.9294456523e-001
 3.4068996881e+000	 3.6254185297e+000	-4.0956773256e-001
 3.3691877852e+000	 3.6604915883e+000	-4.2871049160e-001
 3.3311230352e+000	 3.6951649928e+000	-4.4962437544e-001
 3.2927118102e+000	 3.7294334603e+000	-4.7157940855e-001
 3.2539605865e+000	 3.7632918438e+000	-4.8657724675e-001
 3.2148759415e+000	 3.7967351344e+000	-4.9266477590e-001
 3.1754645497e+000	 3.8297584642e+000	-5.0183109909e-001
 3.1357331788e+000	 3.8623571082e+000	-5.1378869156e-001
 3.5355339060e+000	 3.5355339059e+000	-3.2725155592e-001
 3.4987336771e+000	 3.5719550189e+000	-3.3941125871e-001
 3.4615602815e+000	 3.6079911887e+000	-3.5560704616e-001
 3.4240197871e+000	 3.6436367132e+000	-3.7505654594e-001
 3.3861183771e+000	 3.6788860184e+000	-3.9699256139e-001
 3.3478623470e+000	 3.7137336611e+000	-4.2066500320e-001
 3.3092581007e+000	 3.7481743320e+000	-4.4534275464e-001
 3.2703121473e+000	 3.7822028581e+000	-4.5442263514e-001
 3.2310310970e+000	 3.8158142054e+000	-4.6594402347e-001
 3.1914216579e+000	 3.8490034816e+000	-4.8060743094e-001
 3.1514906320e+000	 3.8817659379e+000	-4.9813392973e-001
 2.9939161004e+000	 3.6876776410e+000	-4.5535772340e-001
 2.9556826656e+000	 3.7183921230e+000	-4.5142522993e-001
 2.9171568997e+000	 3.7486925218e+000	-4.5117001674e-001
 2.8783455100e+000	 3.7785747479e+000	-4.3354206930e-001
 2.8392552779e+000	 3.8080348563e+000	-4.2048268178e-001
 2.7998930552e+000	 3.8370690480e+000	-4.1255414093e-001
 2.7602657603e+000	 3.8656736713e+000	-4.0931060161e-001
 2.7203803739e+000	 3.8938452231e+000	-4.1031777931e-001
 2.6802439354e+000	 3.9215803507e+000	-4.1515365950e-001
 2.6398635388e+000	 3.9488758523e+000	-4.2340916015e-001
 2.5992463286e+000	 3.9757286783e+000	-4.3468874651e-001
 3.0096735536e+000	 3.7070864707e+000	-4.8025387948e-001
 2.9712388901e+000	 3.7379626079e+000	-4.7624971268e-001
 2.9325103571e+000	 3.7684224824e+000	-4.6189473731e-001
 2.8934946969e+000	 3.7984619834e+000	-4.4362245617e-001
 2.8541987267e+000	 3.8280771451e+000	-4.3024723042e-001
 2.8146293345e+000	 3.8572641483e+000	-4.2130996260e-001
 2.7747934748e+000	 3.8860193222e+000	-4.1636333326e-001
 2.7346981653e+000	 3.9143391453e+000	-4.1497255769e-001
 2.6943504824e+000	 3.9422202473e+000	-4.1671609527e-001
 2.6537575574e+000	 3.9696594094e+000	-4.2118631036e-001
 2.6129265724e+000	 3.9966535661e+000	-4.2799008362e-001
 3.0254310067e+000	 3.7264953004e+000	-5.0236651025e-001
 2.9867951147e+000	 3.7575330927e+000	-4.9277747011e-001
 2.9478638144e+000	 3.7881524430e+000	-4.7027140073e-001
 2.9086438838e+000	 3.8183492189e+000	-4.5244931129e-001
 2.8691421756e+000	 3.8481194338e+000	-4.3883756203e-001
 2.8293656137e+000	 3.8774592485e+000	-4.2897445921e-001
 2.7893211894e+000	 3.9063649731e+000	-4.2241106156e-001
 2.7490159568e+000	 3.9348330675e+000	-4.1871193888e-001
 2.7084570295e+000	 3.9628601438e+000	-4.1745588171e-001
 2.6676515760e+000	 3.9904429665e+000	-4.1823656062e-001
 2.6266068162e+000	 4.0175784539e+000	-4.2066313434e-001
 3.0411884599e+000	 3.7459041300e+000	-5.2149728887e-001
 3.0023513392e+000	 3.7771035776e+000	-4.9866916150e-001
 2.9632172718e+000	 3.8078824037e+000	-4.7736762772e-001
 2.9237930707e+000	 3.8382364544e+000	-4.6007065618e-001
 2.8840856244e+000	 3.8681617225e+000	-4.4630088865e-001
 2.8441018930e+000	 3.8976543488e+000	-4.3559388568e-001
 2.8038489039e+000	 3.9267106240e+000	-4.2749893690e-001
 2.7633337482e+000	 3.9553269898e+000	-4.2157982178e-001
 2.7225635765e+000	 3.9835000404e+000	-4.1741551971e-001
 2.6815455947e+000	 4.0112265236e+000	-4.1460086796e-001
 2.6402870601e+000	 4.0385033416e+000	-4.1274716668e-001
 3.0569459131e+000	 3.7653129597e+000	-5.2710791917e-001
 3.0179075638e+000	 3.7966740624e+000	-5.0325863485e-001
 2.9785707292e+000	 3.8276123643e+000	-4.8323233759e-001
 2.9389422576e+000	 3.8581236899e+000	-4.6653476976e-001
 2.8990290732e+000	 3.8882040112e+000	-4.5268470324e-001
 2.8588381722e+000	 3.9178494490e+000	-4.4121480353e-001
 2.8183766184e+000	 3.9470562748e+000	-4.3167244415e-001
 2.7776515397e+000	 3.9758209120e+000	-4.2362046979e-001
 2.7366701235e+000	 4.0041399370e+000	-4.1663790686e-001
 2.6954396133e+000	 4.0320100807e+000	-4.1032062038e-001
 2.6539673039e+000	 4.0594282294e+000	-4.0428191602e-001
 3.0727033662e+000	 3.7847217894e+000	-5.2843193975e-001
 3.0334637884e+000	 3.8162445473e+000	-5.0659551571e-001
 2.9939241865e+000	 3.8473423250e+000	-4.8791467970e-001
 2.9540914445e+000	 3.8780109254e+000	-4.7189018176e-001
 2.9139725220e+000	 3.9082462999e+000	-4.5803677243e-001
 2.8735744514e+000	 3.9380445493e+000	-4.4588407299e-001
 2.8329043329e+000	 3.9674019257e+000	-4.3497739409e-001
 2.7919693311e+000	 3.9963148342e+000	-4.2487850146e-001
 2.7507766705e+000	 4.0247798336e+000	-4.1516632726e-001
 2.7093336319e+000	 4.0527936378e+000	-4.0543762586e-001
 2.6676475477e+000	 4.0803531172e+000	-3.9530757320e-001
 3.0884608194e+000	 3.8041306191e+000	-5.2848688656e-001
 3.0490200129e+000	 3.8358150322e+000	-5.0872963579e-001
 3.0092776439e+000	 3.8670722856e+000	-4.9146402767e-001
 2.9692406314e+000	 3.8978981609e+000	-4.7618566634e-001
 2.9289159709e+000	 3.9282885886e+000	-4.6240512961e-001
 2.8883107307e+000	 3.9582396495e+000	-4.4964884543e-001
 2.8474320475e+000	 3.9877475766e+000	-4.3745991505e-001
 2.8062871225e+000	 4.0168087564e+000	-4.2539888148e-001
 2.7648832176e+000	 4.0454197301e+000	-4.1304444167e-001
 2.7232276505e+000	 4.0735771949e+000	-3.9999410158e-001
 2.6813277916e+000	 4.1012780050e+000	-3.8586477284e-001
 3.1042182725e+000	 3.8235394488e+000	-5.2732309353e-001
 3.0645762375e+000	 3.8553855170e+000	-5.0971102770e-001
 3.0246311013e+000	 3.8868022462e+000	-4.9392997364e-001
 2.9843898182e+000	 3.9177853965e+000	-4.7947023589e-001
 2.9438594197e+000	 3.9483308773e+000	-4.6583806809e-001
 2.9030470099e+000	 3.9784347498e+000	-4.5255655591e-001
 2.8619597620e+000	 4.0080932275e+000	-4.3916644489e-001
 2.8206049140e+000	 4.0373026787e+000	-4.2522691179e-001
 2.7789897646e+000	 4.0660596267e+000	-4.1031627796e-001
 2.7371216692e+000	 4.0943607521e+000	-3.9403266360e-001
 2.6950080354e+000	 4.1222028927e+000	-3.7599458210e-001
 3.1199757257e+000	 3.8429482785e+000	-5.2499107529e-001
 3.0801324620e+000	 3.8749560019e+000	-5.0958991990e-001
 3.0399845586e+000	 3.9065322069e+000	-4.9536232274e-001
 2.9995390051e+000	 3.9376726320e+000	-4.8179313496e-001
 2.9588028685e+000	 3.9683731661e+000	-4.6838413458e-001
 2.9177832891e+000	 3.9986298500e+000	-4.5465491607e-001
 2.8764874765e+000	 4.0284388784e+000	-4.4014372315e-001
 2.8349227054e+000	 4.0577966009e+000	-4.2440822318e-001
 2.7930963116e+000	 4.0866995233e+000	-4.0702622180e-001
 2.7510156878e+000	 4.1151443092e+000	-3.8759631674e-001
 2.7086882792e+000	 4.1431277805e+000	-3.6573848979e-001
 3.1357331788e+000	 3.8623571082e+000	-5.1378869156e-001
 3.0956886866e+000	 3.8945264867e+000	-5.0841673178e-001
 3.0553380160e+000	 3.9262621675e+000	-4.9581108781e-001
 3.0146881920e+000	 3.9575598675e+000	-4.8320383451e-001
 2.9737463174e+000	 3.9884154548e+000	-4.7009212280e-001
 2.9325195684e+000	 4.0188249503e+000	-4.5599190715e-001
 2.8910151910e+000	 4.0487845293e+000	-4.4043878352e-001
 2.8492404969e+000	 4.0782905231e+000	-4.2298876694e-001
 2.8072028587e+000	 4.1073394199e+000	-4.0321900771e-001
 2.7649097064e+000	 4.1359278663e+000	-3.8072844480e-001
 2.7223685231e+000	 4.1640526683e+000	-3.5513839570e-001
 3.1514906320e+000	 3.8817659379e+000	-4.9813392973e-001
 3.1112449111e+000	 3.9140969716e+000	-5.0624206885e-001
 3.0706914733e+000	 3.9459921281e+000	-4.9532648411e-001
 3.0298373789e+000	 3.9774471030e+000	-4.8375202618e-001
 2.9886897662e+000	 4.0084577435e+000	-4.7101106731e-001
 2.9472558476e+000	 4.0390200505e+000	-4.5661577327e-001
 2.9055429056e+000	 4.0691301802e+000	-4.4009894643e-001
 2.8635582883e+000	 4.0987844453e+000	-4.2101480691e-001
 2.8213094057e+000	 4.1279793165e+000	-3.9893971035e-001
 2.7788037250e+000	 4.1567114234e+000	-3.7347280116e-001
 2.7360487669e+000	 4.1849775561e+000	-3.4423660040e-001
 2.5992463286e+000	 3.9757286783e+000	-4.3468874651e-001
 2.5583994957e+000	 4.0021359322e+000	-4.6201387390e-001
 2.5173302738e+000	 4.0280948713e+000	-4.9928627548e-001
 2.4760459347e+000	 4.0536029072e+000	-4.8519510784e-001
 2.4345537848e+000	 4.0786576062e+000	-4.3646172975e-001
 2.3928611605e+000	 4.1032566903e+000	-3.9714113901e-001
 2.3509754247e+000	 4.1273980366e+000	-3.6694304879e-001
 2.3089039626e+000	 4.1510796778e+000	-3.4553216556e-001
 2.2666541773e+000	 4.1742998024e+000	-3.3253072675e-001
 2.2242334862e+000	 4.1970567543e+000	-3.2752111996e-001
 2.1816493170e+000	 4.2193490324e+000	-3.3004857493e-001
 2.6129265724e+000	 3.9966535661e+000	-4.2799008362e-001
 2.5718647562e+000	 4.0231998056e+000	-4.5137871734e-001
 2.5305793805e+000	 4.0492953706e+000	-4.8474890515e-001
 2.4890777554e+000	 4.0749376593e+000	-5.0020231729e-001
 2.4473672257e+000	 4.1001242252e+000	-4.4816794537e-001
 2.4054551666e+000	 4.1248527781e+000	-4.0599831740e-001
 2.3633489796e+000	 4.1491211841e+000	-3.7336475907e-001
 2.3210560887e+000	 4.1729274656e+000	-3.4989265020e-001
 2.2785839361e+000	 4.1962698014e+000	-3.3516404161e-001
 2.2359399782e+000	 4.2191465267e+000	-3.2872035472e-001
 2.1931316818e+000	 4.2415561326e+000	-3.3006515488e-001
 2.6266068162e+000	 4.0175784539e+000	-4.2066313434e-001
 2.5853300167e+000	 4.0442636789e+000	-4.3979253471e-001
 2.5438284872e+000	 4.0704958700e+000	-4.6893326762e-001
 2.5021095762e+000	 4.0962724114e+000	-5.0771486699e-001
 2.4601806667e+000	 4.1215908442e+000	-4.5754821014e-001
 2.4180491727e+000	 4.1464488660e+000	-4.1245914284e-001
 2.3757225345e+000	 4.1708443317e+000	-3.7733224374e-001
 2.3332082148e+000	 4.1947752533e+000	-3.5175325441e-001
 2.2905136949e+000	 4.2182398003e+000	-3.3526371111e-001
 2.2476464703e+000	 4.2412362991e+000	-3.2736372563e-001
 2.2046140466e+000	 4.2637632328e+000	-3.2751484075e-001
 2.6402870601e+000	 4.0385033416e+000	-4.1274716668e-001
 2.5987952773e+000	 4.0653275522e+000	-4.2729935265e-001
 2.5570775939e+000	 4.0916963693e+000	-4.5188811514e-001
 2.5151413969e+000	 4.1176071636e+000	-4.8612001089e-001
 2.4729941077e+000	 4.1430574632e+000	-4.6429800204e-001
 2.4306431788e+000	 4.1680449538e+000	-4.1622765167e-001
 2.3880960893e+000	 4.1925674792e+000	-3.7855823778e-001
 2.3453603409e+000	 4.2166230411e+000	-3.5083554596e-001
 2.3024434537e+000	 4.2402097993e+000	-3.3256026374e-001
 2.2593529623e+000	 4.2633260715e+000	-3.2319084342e-001
 2.2160964114e+000	 4.2859703329e+000	-3.2214644067e-001
 2.6539673039e+000	 4.0594282294e+000	-4.0428191602e-001
 2.6122605378e+000	 4.0863914255e+000	-4.1394356774e-001
 2.5703267006e+000	 4.1128968686e+000	-4.3366247227e-001
 2.5281732176e+000	 4.1389419157e+000	-4.6302230382e-001
 2.4858075487e+000	 4.1645240822e+000	-4.6811287563e-001
 2.4432371849e+000	 4.1896410417e+000	-4.1700785876e-001
 2.4004696442e+000	 4.2142906268e+000	-3.7675535665e-001
 2.3575124671e+000	 4.2384708289e+000	-3.4686087503e-001
 2.3143732126e+000	 4.2621797983e+000	-3.2678391232e-001
 2.2710594543e+000	 4.2854158438e+000	-3.1594090528e-001
 2.2275787763e+000	 4.3081774331e+000	-3.1370825146e-001
 2.6676475477e+000	 4.0803531172e+000	-3.9530757320e-001
 2.6257257983e+000	 4.1074552989e+000	-3.9976993707e-001
 2.5835758073e+000	 4.1340973679e+000	-4.1430562891e-001
 2.5412050383e+000	 4.1602766679e+000	-4.3847553268e-001
 2.4986209896e+000	 4.1859907011e+000	-4.6868846001e-001
 2.4558311910e+000	 4.2112371295e+000	-4.1450375802e-001
 2.4128431991e+000	 4.2360137743e+000	-3.7163609926e-001
 2.3696645932e+000	 4.2603186167e+000	-3.3955037973e-001
 2.3263029714e+000	 4.2841497972e+000	-3.1766456218e-001
 2.2827659464e+000	 4.3075056162e+000	-3.0535270546e-001
 2.2390611411e+000	 4.3303845333e+000	-3.0194807175e-001
 2.6813277916e+000	 4.1012780050e+000	-3.8586477284e-001
 2.6391910588e+000	 4.1285191722e+000	-3.8482356904e-001
 2.5968249141e+000	 4.1552978673e+000	-3.9386713356e-001
 2.5542368590e+000	 4.1816114200e+000	-4.1253365003e-001
 2.5114344306e+000	 4.2074573201e+000	-4.4037242918e-001
 2.4684251971e+000	 4.2328332174e+000	-4.0841932297e-001
 2.4252167539e+000	 4.2577369219e+000	-3.6291285103e-001
 2.3818167193e+000	 4.2821664045e+000	-3.2862499153e-001
 2.3382327302e+000	 4.3061197962e+000	-3.0493181891e-001
 2.2944724384e+000	 4.3295953886e+000	-2.9116464556e-001
 2.2505435059e+000	 4.3525916335e+000	-2.8661321471e-001
 2.6950080354e+000	 4.1222028927e+000	-3.7599458210e-001
 2.6526563193e+000	 4.1495830455e+000	-3.6914991439e-001
 2.6100740208e+000	 4.1764983666e+000	-3.7239678671e-001
 2.5672686797e+000	 4.2029461722e+000	-3.8525076996e-001
 2.5242478716e+000	 4.2289239391e+000	-4.0723904701e-001
 2.4810192032e+000	 4.2544293052e+000	-3.9845850723e-001
 2.4375903088e+000	 4.2794600695e+000	-3.5029788672e-001
 2.3939688454e+000	 4.3040141922e+000	-3.1380544052e-001
 2.3501624891e+000	 4.3280897951e+000	-2.8831499602e-001
 2.3061789304e+000	 4.3516851610e+000	-2.7311474449e-001
 2.2620258708e+000	 4.3747987336e+000	-2.6745052032e-001
 2.7086882792e+000	 4.1431277805e+000	-3.6573848979e-001
 2.6661215798e+000	 4.1706469189e+000	-3.5279475764e-001
 2.6233231275e+000	 4.1976988659e+000	-3.4994463453e-001
 2.5803005004e+000	 4.2242809243e+000	-3.5668116395e-001
 2.5370613125e+000	 4.2503905581e+000	-3.7250949307e-001
 2.4936132094e+000	 4.2760253930e+000	-3.8432524506e-001
 2.4499638637e+000	 4.3011832170e+000	-3.3350337326e-001
 2.4061209716e+000	 4.3258619800e+000	-2.9481226047e-001
 2.3620922479e+000	 4.3500597941e+000	-2.6754312234e-001
 2.3178854225e+000	 4.3737749334e+000	-2.5094064812e-001
 2.2735082356e+000	 4.3970058338e+000	-2.5378942332e-001
 2.7223685231e+000	 4.1640526683e+000	-3.5513839570e-001
 2.6795868403e+000	 4.1917107922e+000	-3.3580420864e-001
 2.6365722342e+000	 4.2188993652e+000	-3.2656096263e-001
 2.5933323211e+000	 4.2456156764e+000	-3.2687925693e-001
 2.5498747535e+000	 4.2718571771e+000	-3.3624229295e-001
 2.5062072155e+000	 4.2976214809e+000	-3.5414647188e-001
 2.4623374186e+000	 4.3229063646e+000	-3.1224137240e-001
 2.4182730977e+000	 4.3477097678e+000	-2.7136579379e-001
 2.3740220067e+000	 4.3720297931e+000	-2.4234494909e-001
 2.3295919145e+000	 4.3958647058e+000	-2.3050279588e-001
 2.2849906004e+000	 4.4192129340e+000	-2.3422358010e-001
 2.7360487669e+000	 4.1849775561e+000	-3.4423660040e-001
 2.6930521008e+000	 4.2127746655e+000	-3.1822469444e-001
 2.6498213409e+000	 4.2400998645e+000	-3.0229629014e-001
 2.6063641418e+000	 4.2669504286e+000	-2.9589962344e-001
 2.5626881945e+000	 4.2933237960e+000	-2.9849603787e-001
 2.5188012216e+000	 4.3192175687e+000	-3.0956060387e-001
 2.4747109734e+000	 4.3446295122e+000	-2.8622384342e-001
 2.4304252238e+000	 4.3695575556e+000	-2.4318619629e-001
 2.3859517656e+000	 4.3939997920e+000	-2.1611923874e-001
 2.3412984066e+000	 4.4179544782e+000	-2.0513306888e-001
 2.2964729653e+000	 4.4414200342e+000	-2.0890921852e-001
 2.1816493170e+000	 4.2193490324e+000	-3.3004857493e-001
 2.1389091034e+000	 4.2411752908e+000	-3.2125277455e-001
 2.0960202818e+000	 4.2625343375e+000	-3.0977063339e-001
 2.0529902865e+000	 4.2834251345e+000	-2.9498313050e-001
 2.0098265468e+000	 4.3038467969e+000	-2.7625441341e-001
 1.9665364825e+000	 4.3237985918e+000	-2.5293468286e-001
 1.9231275005e+000	 4.3432799376e+000	-2.2436308433e-001
 1.8796069909e+000	 4.3622904030e+000	-1.8987059780e-001
 1.8359823234e+000	 4.3808297054e+000	-1.8304320268e-001
 1.7922608439e+000	 4.3988977105e+000	-2.1842084666e-001
 1.7484498704e+000	 4.4164944300e+000	-2.5749053969e-001
 2.1931316818e+000	 4.2415561326e+000	-3.3006515488e-001
 2.1501665198e+000	 4.2634972660e+000	-3.1819960268e-001
 2.1070519675e+000	 4.2849687287e+000	-3.0330523420e-001
 2.0637954986e+000	 4.3059694774e+000	-2.8476592143e-001
 2.0204045813e+000	 4.3264986222e+000	-2.6194836037e-001
 1.9768866745e+000	 4.3465554265e+000	-2.3420499073e-001
 1.9332492242e+000	 4.3661393057e+000	-2.0087692294e-001
 1.8894996592e+000	 4.3852498261e+000	-1.8844129021e-001
 1.8456453883e+000	 4.4038867039e+000	-2.0693923369e-001
 1.8016937957e+000	 4.4220498037e+000	-2.3274775467e-001
 1.7576522382e+000	 4.4397391376e+000	-2.6197524257e-001
 2.2046140466e+000	 4.2637632328e+000	-3.2751484075e-001
 2.1614239361e+000	 4.2858192412e+000	-3.1332358703e-001
 2.1180836532e+000	 4.3074031200e+000	-2.9577575141e-001
 2.0746007106e+000	 4.3285138202e+000	-2.7425733583e-001
 2.0309826157e+000	 4.3491504474e+000	-2.4813681084e-001
 1.9872368665e+000	 4.3693122612e+000	-2.1676807164e-001
 1.9433709479e+000	 4.3889986738e+000	-2.1026470371e-001
 1.8993923276e+000	 4.4082092493e+000	-2.1735042820e-001
 1.8553084531e+000	 4.4269437023e+000	-2.2856474101e-001
 1.8111267475e+000	 4.4452018969e+000	-2.4541290058e-001
 1.7668546059e+000	 4.4629838451e+000	-2.6541062924e-001
 2.2160964114e+000	 4.2859703329e+000	-3.2214644067e-001
 2.1726813525e+000	 4.3081412164e+000	-3.0637127287e-001
 2.1291153389e+000	 4.3298375112e+000	-2.8692650306e-001
 2.0854059226e+000	 4.3510581630e+000	-2.6319949909e-001
 2.0415606502e+000	 4.3718022727e+000	-2.3455973124e-001
 1.9975870585e+000	 4.3920690959e+000	-2.3097310243e-001
 1.9534926715e+000	 4.4118580419e+000	-2.3479882965e-001
 1.9092849960e+000	 4.4311686725e+000	-2.4064929520e-001
 1.8649715180e+000	 4.4500007008e+000	-2.4780382768e-001
 1.8205596993e+000	 4.4683539901e+000	-2.5629546719e-001
 1.7760569736e+000	 4.4862285526e+000	-2.6767091696e-001
 2.2275787763e+000	 4.3081774331e+000	-3.1370825146e-001
 2.1839387688e+000	 4.3304631916e+000	-2.9708883517e-001
 2.1401470246e+000	 4.3522719025e+000	-2.7650157942e-001
 2.0962111347e+000	 4.3736025058e+000	-2.5133445298e-001
 2.0521386846e+000	 4.3944540979e+000	-2.4884641002e-001
 2.0079372506e+000	 4.4148259306e+000	-2.5031504331e-001
 1.9636143952e+000	 4.4347174100e+000	-2.5365342717e-001
 1.9191776644e+000	 4.4541280956e+000	-2.5852045801e-001
 1.8746345829e+000	 4.4730576992e+000	-2.6454125399e-001
 1.8299926511e+000	 4.4915060834e+000	-2.6527544628e-001
 1.7852593414e+000	 4.5094732602e+000	-2.6863128471e-001
 2.2390611411e+000	 4.3303845333e+000	-3.0194807175e-001
 2.1951961851e+000	 4.3527851668e+000	-2.8522208804e-001
 2.1511787103e+000	 4.3747062937e+000	-2.6424484881e-001
 2.1070163467e+000	 4.3961468486e+000	-2.6205480435e-001
 2.0627167191e+000	 4.4171059232e+000	-2.6216050824e-001
 2.0182874426e+000	 4.4375827653e+000	-2.6392642105e-001
 1.9737361189e+000	 4.4575767781e+000	-2.6702237315e-001
 1.9290703327e+000	 4.4770875188e+000	-2.7114697706e-001
 1.8842976477e+000	 4.4961146977e+000	-2.7602604321e-001
 1.8394256029e+000	 4.5146581766e+000	-2.7223361786e-001
 1.7944617091e+000	 4.5327179677e+000	-2.6816784854e-001
 2.2505435059e+000	 4.3525916335e+000	-2.8661321471e-001
 2.2064536015e+000	 4.3751071420e+000	-2.7059011538e-001
 2.1622103960e+000	 4.3971406850e+000	-2.6866062939e-001
 2.1178215587e+000	 4.4186911914e+000	-2.6848565478e-001
 2.0732947536e+000	 4.4397577484e+000	-2.6971019394e-001
 2.0286376346e+000	 4.4603396000e+000	-2.7201197106e-001
 1.9838578426e+000	 4.4804361462e+000	-2.7509988349e-001
 1.9389630011e+000	 4.5000469420e+000	-2.7871239376e-001
 1.8939607126e+000	 4.5191716961e+000	-2.8261586899e-001
 1.8488585547e+000	 4.5378102698e+000	-2.7705153005e-001
 1.8036640769e+000	 4.5559626752e+000	-2.6615763766e-001
 2.2620258708e+000	 4.3747987336e+000	-2.6745052032e-001
 2.2177110178e+000	 4.3974291173e+000	-2.6662076013e-001
 2.1732420817e+000	 4.4195750762e+000	-2.6733190554e-001
 2.1286267708e+000	 4.4412355342e+000	-2.6913439607e-001
 2.0838727880e+000	 4.4624095737e+000	-2.7171061744e-001
 2.0389878266e+000	 4.4830964347e+000	-2.7477662201e-001
 1.9939795663e+000	 4.5032955143e+000	-2.7808050460e-001
 1.9488556695e+000	 4.5230063652e+000	-2.8140071833e-001
 1.9036237774e+000	 4.5422286946e+000	-2.8454433718e-001
 1.8582915065e+000	 4.5609623630e+000	-2.7961147963e-001
 1.8128664446e+000	 4.5792073827e+000	-2.6247857125e-001
 2.2735082356e+000	 4.3970058338e+000	-2.5378942332e-001
 2.2289684341e+000	 4.4197510925e+000	-2.5663413356e-001
 2.1842737674e+000	 4.4420094675e+000	-2.6021850179e-001
 2.1394319828e+000	 4.4637798771e+000	-2.6422615752e-001
 2.0944508225e+000	 4.4850613989e+000	-2.6837698495e-001
 2.0493380186e+000	 4.5058532694e+000	-2.7242549096e-001
 2.0041012900e+000	 4.5261548824e+000	-2.7615910497e-001
 1.9587483379e+000	 4.5459657884e+000	-2.7939641796e-001
 1.9132868423e+000	 4.5652856930e+000	-2.8198536760e-001
 1.8677244584e+000	 4.5841144562e+000	-2.7979649310e-001
 1.8220688123e+000	 4.6024520903e+000	-2.5700943603e-001
 2.2849906004e+000	 4.4192129340e+000	-2.3422358010e-001
 2.2402258505e+000	 4.4420730677e+000	-2.4087436173e-001
 2.1953054531e+000	 4.4644438587e+000	-2.4755509780e-001
 2.1502371949e+000	 4.4863242199e+000	-2.5398599486e-001
 2.1050288570e+000	 4.5077132242e+000	-2.5992455706e-001
 2.0596882107e+000	 4.5286101041e+000	-2.6516387861e-001
 2.0142230137e+000	 4.5490142505e+000	-2.6953086714e-001
 1.9686410063e+000	 4.5689252115e+000	-2.7288440532e-001
 1.9229499072e+000	 4.5883426915e+000	-2.7511345806e-001
 1.8771574102e+000	 4.6072665494e+000	-2.7613513256e-001
 1.8312711801e+000	 4.6256967978e+000	-2.4962986440e-001
 2.2964729653e+000	 4.4414200342e+000	-2.0890921852e-001
 2.2514832668e+000	 4.4643950429e+000	-2.1958525319e-001
 2.2063371388e+000	 4.4868782500e+000	-2.2957617794e-001
 2.1610424069e+000	 4.5088685627e+000	-2.3863889209e-001
 2.1156068914e+000	 4.5303650494e+000	-2.4656864745e-001
 2.0700384027e+000	 4.5513669388e+000	-2.5319726473e-001
 2.0243447374e+000	 4.5718736186e+000	-2.5839127980e-001
 1.9785336746e+000	 4.5918846347e+000	-2.6205002741e-001
 1.9326129720e+000	 4.6113996900e+000	-2.6410366985e-001
 1.8865903620e+000	 4.6304186427e+000	-2.6451117796e-001
 1.8404735478e+000	 4.6489415053e+000	-2.4022031336e-001
 1.7484498704e+000	 4.4164944300e+000	-2.5749053969e-001
 1.7045566903e+000	 4.4336200209e+000	-2.8774686158e-001
 1.6605885562e+000	 4.4502747833e+000	-3.0980833768e-001
 1.6165526831e+000	 4.4664591594e+000	-3.2330776017e-001
 1.5724562449e+000	 4.4821737314e+000	-3.2789972715e-001
 1.5283063712e+000	 4.4974192195e+000	-3.2326163927e-001
 1.4841101442e+000	 4.5121964807e+000	-3.0909462918e-001
 1.4398745957e+000	 4.5265065060e+000	-2.8512442240e-001
 1.3956067041e+000	 4.5403504190e+000	-2.5110212842e-001
 1.3513133914e+000	 4.5537294736e+000	-2.0680496126e-001
 1.3070015205e+000	 4.5666450514e+000	-1.5203688856e-001
 1.7576522382e+000	 4.4397391376e+000	-2.6197524257e-001
 1.7135280413e+000	 4.4569548631e+000	-2.8470665902e-001
 1.6693284959e+000	 4.4736972822e+000	-3.0040204573e-001
 1.6250608551e+000	 4.4899668392e+000	-3.0868225182e-001
 1.5807323304e+000	 4.5057641194e+000	-3.0918922771e-001
 1.5363500889e+000	 4.5210898470e+000	-3.0158705999e-001
 1.4919212502e+000	 4.5359448832e+000	-2.8556293909e-001
 1.4474528831e+000	 4.5503302244e+000	-2.6082805806e-001
 1.4029520026e+000	 4.5642470002e+000	-2.2711844138e-001
 1.3584255672e+000	 4.5776964708e+000	-1.8419570275e-001
 1.3138804759e+000	 4.5906800254e+000	-1.3184773106e-001
 1.7668546059e+000	 4.4629838451e+000	-2.6541062924e-001
 1.7224993923e+000	 4.4802897053e+000	-2.8094395544e-001
 1.6780684357e+000	 4.4971197811e+000	-2.9058857787e-001
 1.6335690271e+000	 4.5134745190e+000	-2.9395311390e-001
 1.5890084159e+000	 4.5293545075e+000	-2.9066658912e-001
 1.5443938066e+000	 4.5447604745e+000	-2.8037951091e-001
 1.4997323562e+000	 4.5596932857e+000	-2.6276487444e-001
 1.4550311704e+000	 4.5741539429e+000	-2.3751909971e-001
 1.4102973010e+000	 4.5881435813e+000	-2.0436289817e-001
 1.3655377429e+000	 4.6016634680e+000	-1.6304206803e-001
 1.3207594313e+000	 4.6147149993e+000	-1.1332821726e-001
 1.7760569736e+000	 4.4862285526e+000	-2.6767091696e-001
 1.7314707433e+000	 4.5036245475e+000	-2.7633244759e-001
 1.6868083755e+000	 4.5205422799e+000	-2.8024128742e-001
 1.6420771991e+000	 4.5369821988e+000	-2.7899353120e-001
 1.5972845014e+000	 4.5529448956e+000	-2.7220500041e-001
 1.5524375244e+000	 4.5684311019e+000	-2.5951235572e-001
 1.5075434623e+000	 4.5834416883e+000	-2.4057414169e-001
 1.4626094578e+000	 4.5979776614e+000	-2.1507176224e-001
 1.4176425995e+000	 4.6120401625e+000	-1.8271038533e-001
 1.3726499187e+000	 4.6256304653e+000	-1.4321977599e-001
 1.3276383866e+000	 4.6387499733e+000	-9.6355056485e-002
 1.7852593414e+000	 4.5094732602e+000	-2.6863128471e-001
 1.7404420943e+000	 4.5269593898e+000	-2.7074685507e-001
 1.6955483152e+000	 4.5439647788e+000	-2.6923460800e-001
 1.6505853711e+000	 4.5604898786e+000	-2.6367782261e-001
 1.6055605868e+000	 4.5765352836e+000	-2.5367883479e-001
 1.5604812421e+000	 4.5921017294e+000	-2.3886018874e-001
 1.5153545683e+000	 4.6071900908e+000	-2.1886572072e-001
 1.4701877451e+000	 4.6218013798e+000	-1.9336157311e-001
 1.4249878979e+000	 4.6359367437e+000	-1.6203713747e-001
 1.3797620944e+000	 4.6495974625e+000	-1.2460592539e-001
 1.3345173420e+000	 4.6627849472e+000	-8.0806366146e-002
 1.7944617091e+000	 4.5327179677e+000	-2.6816784854e-001
 1.7494134453e+000	 4.5502942320e+000	-2.6406289411e-001
 1.7042882550e+000	 4.5673872776e+000	-2.5744402582e-001
 1.6590935431e+000	 4.5839975584e+000	-2.4788141204e-001
 1.6138366723e+000	 4.6001256717e+000	-2.3496361933e-001
 1.5685249599e+000	 4.6157723569e+000	-2.1829880343e-001
 1.5231656743e+000	 4.6309384933e+000	-1.9751583220e-001
 1.4777660325e+000	 4.6456250983e+000	-1.7226533868e-001
 1.4323331963e+000	 4.6598333248e+000	-1.4222070264e-001
 1.3868742701e+000	 4.6735644597e+000	-1.0707895953e-001
 1.3413962974e+000	 4.6868199212e+000	-6.6561635661e-002
 1.8036640769e+000	 4.5559626752e+000	-2.6615763766e-001
 1.7583847963e+000	 4.5736290742e+000	-2.5615725213e-001
 1.7130281948e+000	 4.5908097765e+000	-2.4474605286e-001
 1.6676017152e+000	 4.6075052382e+000	-2.3148080024e-001
 1.6221127578e+000	 4.6237160597e+000	-2.1593600554e-001
 1.5765686776e+000	 4.6394429843e+000	-1.9770516174e-001
 1.5309767803e+000	 4.6546868958e+000	-1.7640190595e-001
 1.4853443198e+000	 4.6694488167e+000	-1.5166111162e-001
 1.4396784948e+000	 4.6837299060e+000	-1.2313990891e-001
 1.3939864459e+000	 4.6975314569e+000	-9.0518631874e-002
 1.3482752527e+000	 4.7108548951e+000	-5.3501691438e-002
 1.8128664446e+000	 4.5792073827e+000	-2.6247857125e-001
 1.7673561473e+000	 4.5969639164e+000	-2.4690756311e-001
 1.7217681346e+000	 4.6142322754e+000	-2.3101820083e-001
 1.6761098872e+000	 4.6310129180e+000	-2.1435353742e-001
 1.6303888433e+000	 4.6473064478e+000	-1.9647374075e-001
 1.5846123954e+000	 4.6631136118e+000	-1.7695736448e-001
 1.5387878863e+000	 4.6784352984e+000	-1.5540255022e-001
 1.4929226072e+000	 4.6932725352e+000	-1.3142815925e-001
 1.4470237932e+000	 4.7076264871e+000	-1.0467483181e-001
 1.4010986216e+000	 4.7214984542e+000	-7.4805972858e-002
 1.3551542081e+000	 4.7348898691e+000	-4.1508662942e-002
 1.8220688123e+000	 4.6024520903e+000	-2.5700943603e-001
 1.7763274983e+000	 4.6202987586e+000	-2.3619238366e-001
 1.7305080743e+000	 4.6376547742e+000	-2.1613895591e-001
 1.6846180592e+000	 4.6545205977e+000	-1.9637819683e-001
 1.6386649288e+000	 4.6708968359e+000	-1.7645564055e-001
 1.5926561131e+000	 4.6867842393e+000	-1.5593462256e-001
 1.5465989924e+000	 4.7021837009e+000	-1.3439752198e-001
 1.5005008945e+000	 4.7170962536e+000	-1.1144693287e-001
 1.4543690917e+000	 4.7315230682e+000	-8.6706762865e-002
 1.4082107974e+000	 4.7454654514e+000	-5.9823257618e-002
 1.3620331635e+000	 4.7589248430e+000	-3.0465949790e-002
 1.8312711801e+000	 4.6256967978e+000	-2.4962986440e-001
 1.7852988493e+000	 4.6436336008e+000	-2.2389116989e-001
 1.7392480141e+000	 4.6610772731e+000	-1.9998775427e-001
 1.6931262312e+000	 4.6780282775e+000	-1.7743434898e-001
 1.6469410143e+000	 4.6944872239e+000	-1.5576156185e-001
 1.6006998308e+000	 4.7104548668e+000	-1.3451722912e-001
 1.5544100984e+000	 4.7259321034e+000	-1.1326769800e-001
 1.5080791818e+000	 4.7409199721e+000	-9.1599038004e-002
 1.4617143901e+000	 4.7554196494e+000	-6.9118179025e-002
 1.4153229731e+000	 4.7694324486e+000	-4.5453974720e-002
 1.3689121189e+000	 4.7829598170e+000	-2.0258189843e-002
 1.8404735478e+000	 4.6489415053e+000	-2.4022031336e-001
 1.7942702003e+000	 4.6669684431e+000	-2.0988425486e-001
 1.7479879539e+000	 4.6844997719e+000	-1.8244495833e-001
 1.7016344032e+000	 4.7015359573e+000	-1.5740253674e-001
 1.6552170998e+000	 4.7180776120e+000	-1.3427237691e-001
 1.6087435486e+000	 4.7341254942e+000	-1.1258653242e-001
 1.5622212044e+000	 4.7496805060e+000	-9.1895046908e-002
 1.5156574692e+000	 4.7647436905e+000	-7.1767205580e-002
 1.4690596886e+000	 4.7793162305e+000	-5.1792713044e-002
 1.4224351489e+000	 4.7933994458e+000	-3.1582795826e-002
 1.3757910742e+000	 4.8069947909e+000	-1.0771228243e-002
 1.3070015205e+000	 4.5666450514e+000	-1.5203688856e-001
 1.2626778925e+000	 4.5790986602e+000	-5.2652095606e-002
 1.2183492440e+000	 4.5910919311e+000	-3.5335640592e-002
 1.1740222445e+000	 4.6026266164e+000	-4.2674573325e-002
 1.1297034943e+000	 4.6137045869e+000	-4.0941228412e-002
 1.0853995214e+000	 4.6243278300e+000	-3.1251605345e-002
 1.0411167802e+000	 4.6344984465e+000	-1.4686062946e-002
 9.9686164827e-001	 4.6442186484e+000	 7.7085778628e-003
 9.5264042516e-001	 4.6534907565e+000	 3.4916945557e-002
 9.0845932984e-001	 4.6623171971e+000	 6.5953050360e-002
 8.6432449896e-001	 4.6707005000e+000	 9.9858243703e-002
 1.3138804759e+000	 4.5906800254e+000	-1.3184773106e-001
 1.2693235656e+000	 4.6031991795e+000	-4.3386877279e-002
 1.2247616084e+000	 4.6152555729e+000	-1.4857626068e-002
 1.1802013090e+000	 4.6268509670e+000	-2.5510150101e-002
 1.1356493021e+000	 4.6379872426e+000	-2.7364025287e-002
 1.0911121505e+000	 4.6486663975e+000	-2.1468414843e-002
 1.0465963422e+000	 4.6588905436e+000	-8.8371980852e-003
 1.0021082885e+000	 4.6686619045e+000	 9.5488266382e-003
 9.5765432214e-001	 4.6779828131e+000	 3.2739756059e-002
 9.1324069473e-001	 4.6868557086e+000	 5.9814419859e-002
 8.6887357527e-001	 4.6952831342e+000	 8.9878248705e-002
 1.3207594313e+000	 4.6147149993e+000	-1.1332821726e-001
 1.2759692387e+000	 4.6272996988e+000	-3.5049204521e-002
 1.2311739729e+000	 4.6394192146e+000	 2.6020456524e-003
 1.1863803734e+000	 4.6510753176e+000	-1.0888752627e-002
 1.1415951100e+000	 4.6622698984e+000	-1.5863780868e-002
 1.0968247796e+000	 4.6730049650e+000	-1.3305069871e-002
 1.0520759042e+000	 4.6832826406e+000	-4.1597160898e-003
 1.0073549288e+000	 4.6931051605e+000	 1.0657814404e-002
 9.6266821912e-001	 4.7024748697e+000	 3.0263401763e-002
 9.1802205963e-001	 4.7113942202e+000	 5.3801014909e-002
 8.7342265158e-001	 4.7198657684e+000	 8.0440487294e-002
 1.3276383866e+000	 4.6387499733e+000	-9.6355056485e-002
 1.2826149119e+000	 4.6514002180e+000	-2.7531582328e-002
 1.2375863373e+000	 4.6635828564e+000	 1.7316765725e-002
 1.1925594379e+000	 4.6752996682e+000	 1.4417146437e-003
 1.1475409179e+000	 4.6865525541e+000	-6.2097552927e-003
 1.1025374086e+000	 4.6973435326e+000	-6.5522345707e-003
 1.0575554662e+000	 4.7076747377e+000	-4.6572174428e-004
 1.0126015690e+000	 4.7175484166e+000	 1.1201970660e-002
 9.6768211609e-001	 4.7269669263e+000	 2.7632832846e-002
 9.2280342452e-001	 4.7359327318e+000	 4.8036304096e-002
 8.7797172789e-001	 4.7444484026e+000	 7.1646955418e-002
 1.3345173420e+000	 4.6627849472e+000	-8.0806366146e-002
 1.2892605850e+000	 4.6755007373e+000	-2.0727646338e-002
 1.2439987017e+000	 4.6877464981e+000	 2.9559071878e-002
 1.1987385023e+000	 4.6995240188e+000	 1.1732770683e-002
 1.1534867257e+000	 4.7108352098e+000	 1.8284911060e-003
 1.1082500377e+000	 4.7216821001e+000	-1.0005974799e-003
 1.0630350282e+000	 4.7320668348e+000	 2.4329308615e-003
 1.0178482093e+000	 4.7419916726e+000	 1.1348249883e-002
 9.7269601307e-001	 4.7514589829e+000	 2.4993797826e-002
 9.2758478942e-001	 4.7604712433e+000	 4.2644826692e-002
 8.8252080420e-001	 4.7690310368e+000	 6.3600990921e-002
 1.3413962974e+000	 4.6868199212e+000	-6.6561635661e-002
 1.2959062581e+000	 4.6996012565e+000	-1.4532133841e-002
 1.2504110662e+000	 4.7119101398e+000	 3.8899945256e-002
 1.2049175668e+000	 4.7237483694e+000	 2.0235372676e-002
 1.1594325336e+000	 4.7351178655e+000	 8.4811055025e-003
 1.1139626667e+000	 4.7460206676e+000	 3.5591290892e-003
 1.0685145902e+000	 4.7564589319e+000	 4.7246319046e-003
 1.0230948496e+000	 4.7664349286e+000	 1.1264118070e-002
 9.7770991005e-001	 4.7759510395e+000	 2.2492823098e-002
 9.3236615432e-001	 4.7850097549e+000	 3.7752165204e-002
 8.8706988052e-001	 4.7936136710e+000	 5.6407239142e-002
 1.3482752527e+000	 4.7108548951e+000	-5.3501691438e-002
 1.3025519312e+000	 4.7237017758e+000	-8.8408556740e-003
 1.2568234306e+000	 4.7360737816e+000	 3.7172356064e-002
 1.2110966312e+000	 4.7479727200e+000	 2.7199930347e-002
 1.1653783415e+000	 4.7594005212e+000	 1.3977950037e-002
 1.1196752958e+000	 4.7703592351e+000	 7.3362096578e-003
 1.0739941522e+000	 4.7808510290e+000	 6.5980095973e-003
 1.0283414898e+000	 4.7908781847e+000	 1.1117539685e-002
 9.8272380703e-001	 4.8004430961e+000	 2.0277193085e-002
 9.3714751922e-001	 4.8095482664e+000	 3.3484918753e-002
 8.9161895683e-001	 4.8181963052e+000	 5.0171619551e-002
 1.3551542081e+000	 4.7348898691e+000	-4.1508662942e-002
 1.3091976043e+000	 4.7478022951e+000	-3.5506689749e-003
 1.2632357951e+000	 4.7602374233e+000	 3.5711520585e-002
 1.2172756957e+000	 4.7721970706e+000	 3.2876319859e-002
 1.1713241493e+000	 4.7836831769e+000	 1.8548609050e-002
 1.1253879249e+000	 4.7946978026e+000	 1.0539886168e-002
 1.0794737142e+000	 4.8052431260e+000	 8.2419241460e-003
 1.0335881301e+000	 4.8153214407e+000	 1.1076965010e-002
 9.8773770401e-001	 4.8249351527e+000	 1.8494931002e-002
 9.4192888412e-001	 4.8340867780e+000	 2.9970677281e-002
 8.9616803315e-001	 4.8427789394e+000	 4.5001293418e-002
 1.3620331635e+000	 4.7589248430e+000	-3.0465949790e-002
 1.3158432775e+000	 4.7719028143e+000	 1.4405492390e-003
 1.2696481595e+000	 4.7844010650e+000	 3.4605116504e-002
 1.2234547601e+000	 4.7964214212e+000	 3.7513897284e-002
 1.1772699572e+000	 4.8079658326e+000	 2.2422396100e-002
 1.1311005539e+000	 4.8190363702e+000	 1.3379378555e-002
 1.0849532762e+000	 4.8296352231e+000	 9.8454618929e-003
 1.0388347703e+000	 4.8397646967e+000	 1.1311317875e-002
 9.9275160099e-001	 4.8494272093e+000	 1.7294780200e-002
 9.4671024902e-001	 4.8586252895e+000	 2.7337996524e-002
 9.0071710947e-001	 4.8673615736e+000	 4.1004632453e-002
 1.3689121189e+000	 4.7829598170e+000	-2.0258189843e-002
 1.3224889506e+000	 4.7960033336e+000	 6.2339276969e-003
 1.2760605240e+000	 4.8085647068e+000	 3.3940071029e-002
 1.2296338246e+000	 4.8206457718e+000	 4.1361511673e-002
 1.1832157651e+000	 4.8322484884e+000	 2.5828360764e-002
 1.1368131830e+000	 4.8433749377e+000	 1.6063885295e-002
 1.0904328382e+000	 4.8540273202e+000	 1.1597929633e-002
 1.0440814106e+000	 4.8642079528e+000	 1.1989983763e-002
 9.9776549797e-001	 4.8739192659e+000	 1.6826186067e-002
 9.5149161392e-001	 4.8831638011e+000	 2.5716373746e-002
 9.0526618578e-001	 4.8919442078e+000	 3.8291188389e-002
 1.3757910742e+000	 4.8069947909e+000	-1.0771228243e-002
 1.3291346237e+000	 4.8201038528e+000	 1.0929625731e-002
 1.2824728884e+000	 4.8327283485e+000	 3.3802579647e-002
 1.2358128890e+000	 4.8448701224e+000	 4.4667517732e-002
 1.1891615729e+000	 4.8565311441e+000	 2.8995295238e-002
 1.1425258121e+000	 4.8677135052e+000	 1.8802583949e-002
 1.0959124002e+000	 4.8784194173e+000	 1.3688849106e-002
 1.0493280509e+000	 4.8886512088e+000	 1.3282798265e-002
 1.0027793950e+000	 4.8984113225e+000	 1.7239278485e-002
 9.5627297882e-001	 4.9077023127e+000	 2.5236224205e-002
 9.0981526210e-001	 4.9165268420e+000	 3.6971663487e-002
 8.6432449896e-001	 4.6707005000e+000	 9.9858243703e-002
 8.2024198506e-001	 4.6786432954e+000	 8.1956162714e-002
 7.7621775480e-001	 4.6861483115e+000	 6.8933527053e-002
 7.3225768736e-001	 4.6932183711e+000	 6.0318486157e-002
 6.8836757286e-001	 4.6998563898e+000	 5.5647859501e-002
 6.4455311094e-001	 4.7060653722e+000	 5.4465141455e-002
 6.0081990940e-001	 4.7118484097e+000	 6.6842454893e-002
 5.5717348293e-001	 4.7172086778e+000	 8.4996440229e-002
 5.1361925192e-001	 4.7221494326e+000	 9.9000320050e-002
 4.7016254140e-001	 4.7266740087e+000	 1.0899084519e-001
 4.2680858003e-001	 4.7307858159e+000	 1.1503475744e-001
 8.6887357527e-001	 4.6952831342e+000	 8.9878248705e-002
 8.2455904814e-001	 4.7032677338e+000	 7.6536403846e-002
 7.8030311141e-001	 4.7108122499e+000	 6.7559868700e-002
 7.3611167519e-001	 4.7179195205e+000	 6.2511194802e-002
 6.9199056008e-001	 4.7245924760e+000	 6.0961657911e-002
 6.4794549573e-001	 4.7308341373e+000	 6.2489190497e-002
 6.0398211945e-001	 4.7366476119e+000	 7.3372417966e-002
 5.6010597494e-001	 4.7420360919e+000	 8.9206006686e-002
 5.1632251113e-001	 4.7470028507e+000	 1.0116981648e-001
 4.7263708109e-001	 4.7515512403e+000	 1.0941537471e-001
 4.2905494097e-001	 4.7556846886e+000	 1.1402284744e-001
 8.7342265158e-001	 4.7198657684e+000	 8.0440487294e-002
 8.2887611122e-001	 4.7278921722e+000	 7.1370779333e-002
 7.8438846801e-001	 4.7354761884e+000	 6.6155144316e-002
 7.3996566301e-001	 4.7426206698e+000	 6.4391061647e-002
 6.9561354731e-001	 4.7493285623e+000	 6.5684781430e-002
 6.5133788053e-001	 4.7556029024e+000	 6.9649183832e-002
 6.0714432950e-001	 4.7614468140e+000	 7.9700050815e-002
 5.6303846695e-001	 4.7668635060e+000	 9.3333957458e-002
 5.1902577035e-001	 4.7718562687e+000	 1.0339802129e-001
 4.7511162077e-001	 4.7764284720e+000	 1.1005845018e-001
 4.3130130191e-001	 4.7805835613e+000	 1.1340871778e-001
 8.7797172789e-001	 4.7444484026e+000	 7.1646955418e-002
 8.3319317430e-001	 4.7525166106e+000	 6.6550683049e-002
 7.8847382461e-001	 4.7601401269e+000	 6.4800027026e-002
 7.4381965084e-001	 4.7673218191e+000	 6.6027928119e-002
 6.9923653453e-001	 4.7740646486e+000	 6.9876136525e-002
 6.5473026532e-001	 4.7803716675e+000	 7.5992997361e-002
 6.1030653954e-001	 4.7862460162e+000	 8.5759856497e-002
 5.6597095897e-001	 4.7916909201e+000	 9.7310309125e-002
 5.2172902957e-001	 4.7967096868e+000	 1.0561050368e-001
 4.7758616046e-001	 4.8013057036e+000	 1.1084123472e-001
 4.3354766286e-001	 4.8054824340e+000	 1.1310916880e-001
 8.8252080420e-001	 4.7690310368e+000	 6.3600990921e-002
 8.3751023738e-001	 4.7771410490e+000	 6.2168897024e-002
 7.9255918122e-001	 4.7848040654e+000	 6.3576626123e-002
 7.4767363867e-001	 4.7920229684e+000	 6.7493121542e-002
 7.0285952176e-001	 4.7988007348e+000	 7.3596166979e-002
 6.5812265011e-001	 4.8051404326e+000	 8.1570097358e-002
 6.1346874959e-001	 4.8110452184e+000	 9.1487983114e-002
 5.6890345098e-001	 4.8165183342e+000	 1.0106677955e-001
 5.2443228879e-001	 4.8215631049e+000	 1.0773459192e-001
 4.8006070016e-001	 4.8261829352e+000	 1.1168670977e-001
 4.3579402381e-001	 4.8303813068e+000	 1.1304287991e-001
 8.8706988052e-001	 4.7936136710e+000	 5.6407239142e-002
 8.4182730046e-001	 4.8017654874e+000	 5.8319555852e-002
 7.9664453783e-001	 4.8094680039e+000	 6.2568450244e-002
 7.5152762650e-001	 4.8167241177e+000	 6.8859417044e-002
 7.0648250899e-001	 4.8235368211e+000	 7.6906814469e-002
 6.6151503491e-001	 4.8299091977e+000	 8.6431499690e-002
 6.1663095964e-001	 4.8358444205e+000	 9.6822181629e-002
 5.7183594300e-001	 4.8413457483e+000	 1.0453674425e-001
 5.2713554801e-001	 4.8464165229e+000	 1.0969932825e-001
 4.8253523985e-001	 4.8510601668e+000	 1.1251962848e-001
 4.3804038475e-001	 4.8552801795e+000	 1.1313036140e-001
 8.9161895683e-001	 4.8181963052e+000	 5.0171619551e-002
 8.4614436354e-001	 4.8263899258e+000	 5.5098112186e-002
 8.0072989444e-001	 4.8341319423e+000	 6.1860371676e-002
 7.5538161434e-001	 4.8414252671e+000	 7.0201000617e-002
 7.1010549622e-001	 4.8482729073e+000	 7.9871480358e-002
 6.6490741971e-001	 4.8546779629e+000	 9.0629730290e-002
 6.1979316970e-001	 4.8606436227e+000	 1.0170176498e-001
 5.7476843502e-001	 4.8661731623e+000	 1.0765519414e-001
 5.2983880724e-001	 4.8712699410e+000	 1.1143542511e-001
 4.8500977954e-001	 4.8759373984e+000	 1.1326647052e-001
 4.4028674570e-001	 4.8801790522e+000	 1.1329390774e-001
 8.9616803315e-001	 4.8427789394e+000	 4.5001293418e-002
 8.5046142663e-001	 4.8510143642e+000	 5.2601303284e-002
 8.0481525105e-001	 4.8587958808e+000	 6.1538591738e-002
 7.5923560217e-001	 4.8661264164e+000	 7.1593433310e-002
 7.1372848345e-001	 4.8730089936e+000	 8.2554988642e-002
 6.6829980451e-001	 4.8794467280e+000	 9.4218786829e-002
 6.2295537975e-001	 4.8854428248e+000	 1.0606756843e-001
 5.7770092704e-001	 4.8910005764e+000	 1.1035869449e-001
 5.3254206646e-001	 4.8961233591e+000	 1.1287522282e-001
 4.8748431924e-001	 4.9008146301e+000	 1.1385539827e-001
 4.4253310665e-001	 4.9050779249e+000	 1.1345755232e-001
 9.0071710947e-001	 4.8673615736e+000	 4.1004632453e-002
 8.5477848971e-001	 4.8756388026e+000	 5.0927118569e-002
 8.0890060766e-001	 4.8834598193e+000	 6.1690607228e-002
 7.6308959000e-001	 4.8908275657e+000	 7.3113616508e-002
 7.1735147068e-001	 4.8977450799e+000	 8.5023550029e-002
 6.7169218931e-001	 4.9042154931e+000	 9.7254101550e-002
 6.2611758981e-001	 4.9102420270e+000	 1.0964275262e-001
 5.8063341906e-001	 4.9158279905e+000	 1.1258534519e-001
 5.3524532569e-001	 4.9209767771e+000	 1.1395264840e-001
 4.8995885893e-001	 4.9256918617e+000	 1.1421621430e-001
 4.4477946760e-001	 4.9299767976e+000	 1.1354702350e-001
 9.0526618578e-001	 4.8919442078e+000	 3.8291188389e-002
 8.5909555280e-001	 4.9002632410e+000	 5.0174768171e-002
 8.1298596427e-001	 4.9081237578e+000	 6.2405177866e-002
 7.6694357784e-001	 4.9155287150e+000	 7.4839758251e-002
 7.2097445791e-001	 4.9224811661e+000	 8.7344727097e-002
 6.7508457411e-001	 4.9289842582e+000	 9.9792505223e-002
 6.2927979986e-001	 4.9350412291e+000	 1.1205913811e-001
 5.8356591108e-001	 4.9406554046e+000	 1.1427474219e-001
 5.3794858491e-001	 4.9458301952e+000	 1.1460317578e-001
 4.9243339863e-001	 4.9505690933e+000	 1.1428032017e-001
 4.4702582855e-001	 4.9548756703e+000	 1.1348970204e-001
 9.0981526210e-001	 4.9165268420e+000	 3.6971663487e-002
 8.6341261589e-001	 4.9248876794e+000	 5.0444652405e-002
 8.1707132088e-001	 4.9327876962e+000	 6.3772294726e-002
 7.7079756568e-001	 4.9402298643e+000	 7.6851340572e-002
 7.2459744515e-001	 4.9472172524e+000	 8.9587400494e-002
 6.7847695892e-001	 4.9537530233e+000	 1.0189219219e-001
 6.3244200992e-001	 4.9598404313e+000	 1.1368088528e-001
 5.8649840310e-001	 4.9654828187e+000	 1.1536794012e-001
 5.4065184414e-001	 4.9706836133e+000	 1.1476378705e-001
 4.9490793833e-001	 4.9754463249e+000	 1.1398067646e-001
 4.4927218951e-001	 4.9797745430e+000	 1.1321457981e-001
 4.2680858003e-001	 4.7307858159e+000	 1.1503475744e-001
 3.8356249917e-001	 4.7344883366e+000	 1.2005001230e-001
 3.4042933210e-001	 4.7377851228e+000	 1.2191974454e-001
 2.9741401323e-001	 4.7406797935e+000	 1.2060895166e-001
 2.5452137749e-001	 4.7431760318e+000	 1.1601716871e-001
 2.1175615972e-001	 4.7452775818e+000	 1.0798046547e-001
 1.6912299422e-001	 4.7469882465e+000	 9.6273516726e-002
 1.2662641428e-001	 4.7483118844e+000	 8.0611738313e-002
 8.4270851934e-002	 4.7492524068e+000	 6.0653482397e-002
 4.2060637605e-002	 4.7498137756e+000	 3.6002284986e-002
 0.0000000000e+000	 4.7500000000e+000	 6.2091590962e-003
 4.2905494097e-001	 4.7556846886e+000	 1.1402284744e-001
 3.8558124916e-001	 4.7594066962e+000	 1.2000447030e-001
 3.4222106542e-001	 4.7627208340e+000	 1.2325150886e-001
 2.9897935014e-001	 4.7656307398e+000	 1.2371273856e-001
 2.5586096368e-001	 4.7681401161e+000	 1.2127065619e-001
 2.1287066582e-001	 4.7702527270e+000	 1.1574351486e-001
 1.7001311524e-001	 4.7719723952e+000	 1.0688743274e-001
 1.2729286910e-001	 4.7733029995e+000	 9.4398568241e-002
 8.4714382733e-002	 4.7742484721e+000	 7.7915354975e-002
 4.2282009382e-002	 4.7748127955e+000	 5.7020789282e-002
 0.0000000000e+000	 4.7750000000e+000	 3.1244763799e-002
 4.3130130191e-001	 4.7805835613e+000	 1.1340871778e-001
 3.8759999915e-001	 4.7843250559e+000	 1.2002648226e-001
 3.4401279874e-001	 4.7876565451e+000	 1.2434048873e-001
 3.0054468705e-001	 4.7905816861e+000	 1.2628331213e-001
 2.5720054988e-001	 4.7931042005e+000	 1.2572041043e-001
 2.1398517192e-001	 4.7952278722e+000	 1.2245219791e-001
 1.7090323626e-001	 4.7969565439e+000	 1.1621619291e-001
 1.2795932391e-001	 4.7982941147e+000	 1.0668923274e-001
 8.5157913532e-002	 4.7992445374e+000	 9.3489748793e-002
 4.2503381158e-002	 4.7998118153e+000	 7.6180094773e-002
 0.0000000000e+000	 4.8000000000e+000	 5.4268921204e-002
 4.3354766286e-001	 4.8054824340e+000	 1.1310916880e-001
 3.8961874915e-001	 4.8092434156e+000	 1.2003674946e-001
 3.4580453207e-001	 4.8125922563e+000	 1.2511132127e-001
 3.0211002396e-001	 4.8155326324e+000	 1.2824927888e-001
 2.5854013607e-001	 4.8180682849e+000	 1.2929903946e-001
 2.1509967803e-001	 4.8202030174e+000	 1.2804315486e-001
 1.7179335728e-001	 4.8219406925e+000	 1.2420049887e-001
 1.2862577872e-001	 4.8232852299e+000	 1.1742852245e-001
 8.5601444331e-002	 4.8242406027e+000	 1.0732556955e-001
 4.2724752935e-002	 4.8248108352e+000	 9.3433246614e-002
 0.0000000000e+000	 4.8250000000e+000	 7.5238838639e-002
 4.3579402381e-001	 4.8303813068e+000	 1.1304287991e-001
 3.9163749914e-001	 4.8341617752e+000	 1.1995774494e-001
 3.4759626540e-001	 4.8375279675e+000	 1.2549030971e-001
 3.0367536087e-001	 4.8404835786e+000	 1.2954080741e-001
 2.5987972227e-001	 4.8430323693e+000	 1.3194061109e-001
 2.1621418413e-001	 4.8451781625e+000	 1.3245438510e-001
 1.7268347830e-001	 4.8469248412e+000	 1.3078231252e-001
 1.2929223353e-001	 4.8482763451e+000	 1.2656239115e-001
 8.6044975130e-002	 4.8492366680e+000	 1.1937279069e-001
 4.2946124712e-002	 4.8498098551e+000	 1.0873426409e-001
 0.0000000000e+000	 4.8500000000e+000	 9.4112605759e-002
 4.3804038475e-001	 4.8552801795e+000	 1.1313036140e-001
 3.9365624914e-001	 4.8590801349e+000	 1.1971366811e-001
 3.4938799872e-001	 4.8624636787e+000	 1.2540538067e-001
 3.0524069778e-001	 4.8654345249e+000	 1.3008958841e-001
 2.6121930847e-001	 4.8679964537e+000	 1.3358061550e-001
 2.1732869023e-001	 4.8701533077e+000	 1.3562521237e-001
 1.7357359932e-001	 4.8719089899e+000	 1.3590482373e-001
 1.2995868834e-001	 4.8732674603e+000	 1.3403792591e-001
 8.6488505929e-002	 4.8742327333e+000	 1.2958242601e-001
 4.3167496488e-002	 4.8748088749e+000	 1.2203811564e-001
 0.0000000000e+000	 4.8750000000e+000	 1.1084917192e-001
 4.4028674570e-001	 4.8801790522e+000	 1.1329390774e-001
 3.9567499914e-001	 4.8839984946e+000	 1.1923040066e-001
 3.5117973205e-001	 4.8873993898e+000	 1.2478604276e-001
 3.0680603469e-001	 4.8903854712e+000	 1.2982879574e-001
 2.6255889466e-001	 4.8929605380e+000	 1.3415592892e-001
 2.1844319634e-001	 4.8951284529e+000	 1.3749625093e-001
 1.7446372034e-001	 4.8968931385e+000	 1.3951241899e-001
 1.3062514315e-001	 4.8982585754e+000	 1.3980331820e-001
 8.6932036728e-002	 4.8992287986e+000	 1.3790650314e-001
 4.3388868265e-002	 4.8998078948e+000	 1.3330069466e-001
 0.0000000000e+000	 4.9000000000e+000	 1.2540832423e-001
 4.4253310665e-001	 4.9050779249e+000	 1.1345755232e-001
 3.9769374913e-001	 4.9089168542e+000	 1.1843546390e-001
 3.5297146538e-001	 4.9123351010e+000	 1.2356334639e-001
 3.0837137160e-001	 4.9153364175e+000	 1.2869304889e-001
 2.6389848086e-001	 4.9179246224e+000	 1.3360477848e-001
 2.1955770244e-001	 4.9201035980e+000	 1.3800937280e-001
 1.7535384136e-001	 4.9218772872e+000	 1.4155065106e-001
 1.3129159796e-001	 4.9232496906e+000	 1.4380783584e-001
 8.7375567527e-002	 4.9242248639e+000	 1.4429803780e-001
 4.3610240041e-002	 4.9248069147e+000	 1.4247879599e-001
 0.0000000000e+000	 4.9250000000e+000	 1.3775066633e-001
 4.4477946760e-001	 4.9299767976e+000	 1.1354702350e-001
 3.9971249913e-001	 4.9338352139e+000	 1.1725797735e-001
 3.5476319871e-001	 4.9372708122e+000	 1.2166984487e-001
 3.0993670852e-001	 4.9402873638e+000	 1.2661837640e-001
 2.6523806706e-001	 4.9428887068e+000	 1.3186670810e-001
 2.2067220854e-001	 4.9450787432e+000	 1.3710767603e-001
 1.7624396239e-001	 4.9468614359e+000	 1.4196620952e-001
 1.3195805278e-001	 4.9482408058e+000	 1.4600179586e-001
 8.7819098327e-002	 4.9492209292e+000	 1.4871100884e-001
 4.3831611818e-002	 4.9498059346e+000	 1.4953009320e-001
 0.0000000000e+000	 4.9500000000e+000	 1.4783759773e-001
 4.4702582855e-001	 4.9548756703e+000	 1.1348970204e-001
 4.0173124913e-001	 4.9587535736e+000	 1.1562861857e-001
 3.5655493203e-001	 4.9622065233e+000	 1.1903955667e-001
 3.1150204543e-001	 4.9652383101e+000	 1.2354218048e-001
 2.6657765326e-001	 4.9678527912e+000	 1.2888254536e-001
 2.2178671465e-001	 4.9700538884e+000	 1.3473545390e-001
 1.7713408341e-001	 4.9718455845e+000	 1.4070689217e-001
 1.3262450759e-001	 4.9732319210e+000	 1.4633653807e-001
 8.8262629126e-002	 4.9742169945e+000	 1.5110033405e-001
 4.4052983595e-002	 4.9748049544e+000	 1.5441311646e-001
 0.0000000000e+000	 4.9750000000e+000	 1.5563129383e-001
 4.4927218951e-001	 4.9797745430e+000	 1.1321457981e-001
 4.0374999913e-001	 4.9836719332e+000	 1.1347958420e-001
 3.5834666536e-001	 4.9871422345e+000	 1.1560792871e-001
 3.1306738234e-001	 4.9901892563e+000	 1.1940320268e-001
 2.6791723945e-001	 4.9928168755e+000	 1.2459436947e-001
 2.2290122075e-001	 4.9950290335e+000	 1.3083816500e-001
 1.7802420443e-001	 4.9968297332e+000	 1.3772157740e-001
 1.3329096240e-001	 4.9982230362e+000	 1.4476439956e-001
 8.8706159925e-002	 4.9992130598e+000	 1.5142184671e-001
 4.4274355371e-002	 4.9998039743e+000	 1.5708723118e-001
 0.0000000000e+000	 5.0000000000e+000	 1.6109468652e-001
