label=Stress xy
num_items=1017

0:-1.9991256162259322e-01
1:-9.1902368755408914e-01
2:-5.7804595131378522e-01
3:5.8706298410828195e-01
4:5.5431044423941944e-01
5:1.0357390716149486e+00
6:8.8006503030110461e-01
7:1.0696034233880467e+00
8:1.2274152887919723e+00
9:-7.6019331150984609e-02
10:3.2456798706109874e-01
11:2.6138750581998088e-01
12:1.2086090039329529e+00
13:8.1072485712154585e-01
14:1.3612521200089506e-01
15:1.1441235617944008e+00
16:6.6268241078496426e-01
17:9.1578062610241498e-02
18:1.3559362552166535e-01
19:8.9647677020938801e-02
20:8.0576194023570913e-02
21:-7.6878832172521339e-02
22:5.7621639202694620e-02
23:2.1267737215741758e-01
24:-4.6282681255853386e-02
25:1.1167607693228949e-01
26:2.7387089277608512e-01
27:6.2896791313910821e-02
28:9.2060063931136537e-03
29:-1.0719772903000168e-02
30:2.2316882725388335e-01
31:1.1087907951141267e-01
32:2.9543068943869443e-02
33:2.8326882895945593e-01
34:1.6880146454413866e-01
35:8.2476568853990254e-02
36:-4.0155064987789242e-04
37:2.1118313016339537e-02
38:2.3940678665723875e-02
39:1.9393992704733350e-02
40:3.9804114535937019e-02
41:5.0813543240120190e-02
42:6.3824464827890476e-02
43:6.7818615328764986e-02
44:7.1708877592432274e-02
45:1.5665461247786002e-02
46:2.8408147542589991e-03
47:-1.2127680811519088e-04
48:4.6127205219093900e-02
49:2.9660895995194735e-02
50:2.0289210223405421e-02
51:6.7456671228220119e-02
52:5.1813664429683742e-02
53:4.0497349604212397e-02
54:2.6025228597849020e-03
55:6.1015081350819650e-03
56:5.7938630500242311e-03
57:1.8966320218464793e-02
58:1.8232804558823149e-02
59:1.5981790199297890e-02
60:3.6290004273737506e-02
61:3.0853031180148482e-02
62:2.6187691047144166e-02
63:3.8687228749696395e-03
64:1.1829714005375451e-03
65:3.0228158377498235e-04
66:1.3191059172673042e-02
67:7.4354052115704417e-03
68:2.6156412786226221e-03
69:2.2474509408132289e-02
70:1.3924511364804612e-02
71:5.4412317201044877e-03
72:7.4537415318524858e-01
73:6.7689837045329626e-01
74:4.6966133017430955e-01
75:3.4168726259665672e-01
76:-2.7092989741854223e-01
77:-8.4422457796396366e-01
78:-1.0379405417902597e-02
79:-7.5620086908714435e-01
80:-1.2846161162697907e+00
81:3.5296695819289847e-01
82:2.1923557339529207e-01
83:3.9773249801280143e-02
84:-8.6785755721959035e-01
85:-4.5396835049354084e-01
86:-1.2188954364253674e-01
87:-1.2170378531795834e+00
88:-6.7282315493378053e-01
89:-2.4649831764166519e-01
90:1.1359283381158299e-02
91:1.2356565081375699e-01
92:2.3711859069865901e-01
93:-2.3129096451420875e-02
94:4.1983558240613922e-02
95:1.1483229746792119e-01
96:-1.2745239814164971e-01
97:-5.9461312918643386e-02
98:2.2655368922603902e-02
99:2.4277453694096882e-01
100:1.6220113195282967e-01
101:1.0395490509629143e-01
102:1.3231859719270947e-01
103:1.1789481361370661e-01
104:1.0862527891458418e-01
105:5.9262646659152360e-02
106:8.6070511704340588e-02
107:1.0085969637768825e-01
108:8.8251577059491437e-02
109:8.0358238351102854e-02
110:7.5930324281304917e-02
111:1.0081593838664833e-01
112:8.4075159703116950e-02
113:7.3768914744735931e-02
114:9.6266428775363441e-02
115:7.9520568388779883e-02
116:7.2178350813908415e-02
117:7.1016218299749412e-02
118:5.8309215961503062e-02
119:4.8684008228536073e-02
120:6.9437490926452503e-02
121:6.1719853888656619e-02
122:5.5573863496944029e-02
123:7.0373917184271578e-02
124:6.5484885513991856e-02
125:6.0657352530597536e-02
126:4.4007931309114984e-02
127:3.6541729216828654e-02
128:3.0573875062234027e-02
129:5.1221752779204328e-02
130:4.2498841155445409e-02
131:3.5482495776465561e-02
132:5.6320178217470040e-02
133:4.7439338670804909e-02
134:4.0473283676005709e-02
135:2.6227084009247437e-02
136:1.6165496166612846e-02
137:5.9109542735454306e-03
138:3.0260547680420802e-02
139:1.8090607377134010e-02
140:5.7045224440190091e-03
141:3.4907680438038186e-02
142:2.1357107923027537e-02
143:7.5672001987856048e-03
144:-1.4891891668918172e-01
145:-7.2904431027276950e-01
146:-1.0759113310924795e+00
147:-2.2419160865966001e-01
148:-4.7795630559425312e-01
149:-6.2207056373415881e-01
150:-1.7232010203545597e-01
151:-2.7168151361985887e-01
152:-3.8500042037876975e-01
153:-9.9713002608292400e-01
154:-5.9774755467162777e-01
155:-3.0316524867791117e-01
156:-6.0359582524313571e-01
157:-4.8209519729143274e-01
158:-3.8433264396535494e-01
159:-4.4044772349296085e-01
160:-4.7166099446276655e-01
161:-4.4555024926624753e-01
162:-2.1198544234371297e-01
163:-1.1952488170764115e-01
164:-1.7682397667172882e-02
165:-3.2071148064760868e-01
166:-1.9310861487082678e-01
167:-7.8814931271929373e-02
168:-3.7929088305077252e-01
169:-2.3794244713329846e-01
170:-1.3259429897598729e-01
171:2.6357814574190709e-02
172:6.0236196923981737e-02
173:7.9293522914459638e-02
174:-3.6430280643900602e-02
175:-1.1766565802967691e-03
176:2.6798498629847897e-02
177:-9.7088661138561794e-02
178:-5.7013406836662534e-02
179:-1.6674033882370397e-02
180:7.7800786225287272e-02
181:6.8606321406636750e-02
182:6.7817295724434914e-02
183:3.5477033708135784e-02
184:4.3318698283074768e-02
185:5.3166374289775664e-02
186:1.7308681045110615e-03
187:2.1633361705742562e-02
188:3.7142439034055549e-02
189:6.7924899970045000e-02
190:6.3562248758667228e-02
191:5.9051230750621582e-02
192:5.5429733679561971e-02
193:5.2478691283323622e-02
194:5.0168229062905030e-02
195:4.0581051334166028e-02
196:4.0647430358283096e-02
197:4.2143336530715579e-02
198:5.5096746506020734e-02
199:4.7219508723691898e-02
200:4.1054944505930197e-02
201:4.7918836097041353e-02
202:4.2608575232042513e-02
203:3.8108216899640585e-02
204:4.1917298912687799e-02
205:3.8661914183124854e-02
206:3.5313660954189932e-02
207:3.5578569824764553e-02
208:2.1669658230351069e-02
209:7.5307939982615793e-03
210:3.3038070234868731e-02
211:1.9479470451113801e-02
212:5.7463517380809941e-03
213:3.0803147588180171e-02
214:1.8634136372433600e-02
215:6.3460399358131123e-03
216:-1.0566817576032697e-01
217:-2.0718339903745139e-01
218:-3.4926992721021133e-01
219:-3.9573299282652429e-02
220:-1.7047534473623216e-01
221:-3.0979889661247756e-01
222:-1.8422348443061450e-02
223:-1.4552751425421648e-01
224:-2.4890438801506432e-01
225:-4.2199527469570802e-01
226:-4.5882460915654666e-01
227:-4.2622603280236404e-01
228:-3.5718661955631875e-01
229:-3.5593494093547778e-01
230:-3.2472250911919553e-01
231:-2.6785193679591368e-01
232:-2.5104106097314377e-01
233:-2.4373658957451791e-01
234:-3.6182104616718058e-01
235:-2.4099143762328482e-01
236:-1.5592262058075182e-01
237:-2.8988897116365814e-01
238:-2.2864100728377806e-01
239:-1.7963970242386179e-01
240:-2.4013013185342930e-01
241:-2.2163156080963764e-01
242:-1.9186551630441029e-01
243:-1.2499031200468709e-01
244:-7.9970670526189058e-02
245:-3.3856762507857602e-02
246:-1.5225499651141181e-01
247:-1.0156470431799858e-01
248:-5.4469936787970283e-02
249:-1.6505726281376551e-01
250:-1.1531823866784333e-01
251:-7.3864530388529456e-02
252:-1.2914222678405718e-02
253:8.6662463928905212e-03
254:2.4718975763623526e-02
255:-3.5104494636604394e-02
256:-1.5282716310627676e-02
257:1.5126570057787622e-03
258:-5.7406148158193934e-02
259:-3.7291545988555448e-02
260:-1.7702014137495801e-02
261:2.9046135269915851e-02
262:3.2201574170946434e-02
263:3.6549551161062011e-02
264:8.3901343833723985e-03
265:1.6917507792125246e-02
266:2.5034061388828452e-02
267:-8.2135304231470922e-03
268:3.8428183105237556e-03
269:1.3884989331016100e-02
270:3.7365829812800816e-02
271:3.4837369197297373e-02
272:3.1974533188044170e-02
273:2.6979612874376276e-02
274:2.5645289949612553e-02
275:2.4049426231570664e-02
276:1.6613035355326957e-02
277:1.7124108580774473e-02
278:1.7446475613415124e-02
279:2.7974973548270901e-02
280:1.7200344065873150e-02
281:6.2570841418321714e-03
282:2.1224980262454451e-02
283:1.3028946515969718e-02
284:4.4385868808047924e-03
285:1.5917796704171584e-02
286:1.0063724601483177e-02
287:3.5896311630873980e-03
288:-2.1181521666084453e-02
289:-1.2916673462873246e-01
290:-2.0842861230133367e-01
291:-2.1082035154987890e-02
292:-9.6160273761137144e-02
293:-1.5749955105006819e-01
294:-1.8316179464098293e-02
295:-7.2232989706144737e-02
296:-1.2739521260380413e-01
297:-2.2053651930959581e-01
298:-2.1231280435421340e-01
299:-2.2095764822334527e-01
300:-1.7673274844869505e-01
301:-1.9210039081312097e-01
302:-2.1016941667546410e-01
303:-1.5404309134568944e-01
304:-1.8225103463741488e-01
305:-1.9899318610046052e-01
306:-2.2599191257625673e-01
307:-2.1388385955041989e-01
308:-1.8647781853547926e-01
309:-2.1137908426267285e-01
310:-1.9208616183576180e-01
311:-1.6715855428849249e-01
312:-1.9448424348736115e-01
313:-1.7224874665512008e-01
314:-1.5404186757126617e-01
315:-1.6152079028211774e-01
316:-1.1836608904434030e-01
317:-8.3467145598879938e-02
318:-1.4975486009788844e-01
319:-1.2074824554349901e-01
320:-9.5206021502041688e-02
321:-1.4395943384648976e-01
322:-1.2406109199636238e-01
323:-1.0283577337978586e-01
324:-6.8533404573503875e-02
325:-4.6930849877700520e-02
326:-2.5556409688288251e-02
327:-8.1192895741546436e-02
328:-5.7446006219617402e-02
329:-3.5408079719199778e-02
330:-8.8886164414687899e-02
331:-6.5089342292350902e-02
332:-4.4482331706648788e-02
333:-1.5349742219722755e-02
334:-2.9688820145201424e-03
335:7.1391959128447322e-03
336:-2.5624994802911857e-02
337:-1.3946060640264870e-02
338:-3.8252432874001817e-03
339:-3.5496858016218706e-02
340:-2.3710794092687226e-02
341:-1.2768181510873968e-02
342:1.0269135957667383e-02
343:1.2182782954083983e-02
344:1.3784480306263338e-02
345:1.5694938811401874e-04
346:4.2049026463750533e-03
347:7.4445465653608682e-03
348:-7.8875744452440756e-03
349:-2.3557362267132781e-03
350:1.8714329574979658e-03
351:1.2941461380725714e-02
352:8.2344394819316748e-03
353:2.8927755696174415e-03
354:7.4770745773765175e-03
355:4.5745682044493483e-03
356:1.2128714274314263e-03
357:2.6136367069101532e-03
358:1.5960521632844456e-03
359:2.9472882500467646e-04
360:-1.6859451209275018e-02
361:-6.4493513104309175e-02
362:-1.1668558274383371e-01
363:-1.5441167802091919e-02
364:-5.5911335052975318e-02
365:-9.7338841514815130e-02
366:-1.2629790124118882e-02
367:-4.7248239879342423e-02
368:-7.9223360311995852e-02
369:-1.4328405950805709e-01
370:-1.7078085983291300e-01
371:-1.8468442958425407e-01
372:-1.1680850469839510e-01
373:-1.3732167144839344e-01
374:-1.5109785741981702e-01
375:-9.2559471056384207e-02
376:-1.0819703370822768e-01
377:-1.2395386537643061e-01
378:-1.7978399081086513e-01
379:-1.6142671160666547e-01
380:-1.4866545178829696e-01
381:-1.5151756705475097e-01
382:-1.4438387409959463e-01
383:-1.3856926033698039e-01
384:-1.2926665897753040e-01
385:-1.2978091939537467e-01
386:-1.2733731881247096e-01
387:-1.4105654849116406e-01
388:-1.2267565647416427e-01
389:-1.0215377301662595e-01
390:-1.3187402099499071e-01
391:-1.1373416413773257e-01
392:-9.5447328470020770e-02
393:-1.2091260331008880e-01
394:-1.0437926883693394e-01
395:-8.9692968183419389e-02
396:-8.8812049723247508e-02
397:-6.6948353272745634e-02
398:-4.8308740495556945e-02
399:-8.4672630716482497e-02
400:-6.7228459168687263e-02
401:-5.1645298691403989e-02
402:-8.1467160497675009e-02
403:-6.7014704229505243e-02
404:-5.3060186429049673e-02
405:-3.9788397152822522e-02
406:-2.7561672763682304e-02
407:-1.6101626876846509e-02
408:-4.3534245769692448e-02
409:-3.0828465330718275e-02
410:-1.9340199638745642e-02
411:-4.5125920296178644e-02
412:-3.2569896634439495e-02
413:-2.1682223964397573e-02
414:-1.0974837016147366e-02
415:-5.2011278492294175e-03
416:-7.8963129043484572e-04
417:-1.4378903678202369e-02
418:-8.7183661692705593e-03
419:-4.1214295856197907e-03
420:-1.7015450108407677e-02
421:-1.1282675780324368e-02
422:-6.3148906946871863e-03
423:3.0975059798682962e-04
424:3.8150551633140496e-04
425:1.8359283742213598e-04
426:-2.4877207653031461e-03
427:-1.0399889839498438e-03
428:1.0979143402841255e-05
429:-4.2870669017526742e-03
430:-2.1306039650280510e-03
431:-4.9800073904593780e-04
432:-1.0155890557110367e-02
433:-4.1742886520104987e-02
434:-7.0140662310639687e-02
435:-6.6806151111385341e-03
436:-3.2847714753173225e-02
437:-5.7550313396225454e-02
438:-5.2435260482930537e-03
439:-2.5979820887198298e-02
440:-4.6976333900568552e-02
441:0.0000000000000000e+00
442:0.0000000000000000e+00
443:0.0000000000000000e+00
444:0.0000000000000000e+00
445:0.0000000000000000e+00
446:0.0000000000000000e+00
447:0.0000000000000000e+00
448:0.0000000000000000e+00
449:0.0000000000000000e+00
450:0.0000000000000000e+00
451:0.0000000000000000e+00
452:0.0000000000000000e+00
453:0.0000000000000000e+00
454:0.0000000000000000e+00
455:0.0000000000000000e+00
456:0.0000000000000000e+00
457:0.0000000000000000e+00
458:0.0000000000000000e+00
459:0.0000000000000000e+00
460:0.0000000000000000e+00
461:0.0000000000000000e+00
462:0.0000000000000000e+00
463:0.0000000000000000e+00
464:0.0000000000000000e+00
465:0.0000000000000000e+00
466:0.0000000000000000e+00
467:0.0000000000000000e+00
468:0.0000000000000000e+00
469:0.0000000000000000e+00
470:0.0000000000000000e+00
471:0.0000000000000000e+00
472:0.0000000000000000e+00
473:0.0000000000000000e+00
474:0.0000000000000000e+00
475:0.0000000000000000e+00
476:0.0000000000000000e+00
477:0.0000000000000000e+00
478:0.0000000000000000e+00
479:0.0000000000000000e+00
480:0.0000000000000000e+00
481:0.0000000000000000e+00
482:0.0000000000000000e+00
483:0.0000000000000000e+00
484:0.0000000000000000e+00
485:0.0000000000000000e+00
486:0.0000000000000000e+00
487:0.0000000000000000e+00
488:0.0000000000000000e+00
489:0.0000000000000000e+00
490:0.0000000000000000e+00
491:0.0000000000000000e+00
492:0.0000000000000000e+00
493:0.0000000000000000e+00
494:0.0000000000000000e+00
495:0.0000000000000000e+00
496:0.0000000000000000e+00
497:0.0000000000000000e+00
498:0.0000000000000000e+00
499:0.0000000000000000e+00
500:0.0000000000000000e+00
501:0.0000000000000000e+00
502:0.0000000000000000e+00
503:0.0000000000000000e+00
504:0.0000000000000000e+00
505:0.0000000000000000e+00
506:0.0000000000000000e+00
507:0.0000000000000000e+00
508:0.0000000000000000e+00
509:0.0000000000000000e+00
510:0.0000000000000000e+00
511:0.0000000000000000e+00
512:0.0000000000000000e+00
513:0.0000000000000000e+00
514:0.0000000000000000e+00
515:0.0000000000000000e+00
516:0.0000000000000000e+00
517:0.0000000000000000e+00
518:0.0000000000000000e+00
519:0.0000000000000000e+00
520:0.0000000000000000e+00
521:0.0000000000000000e+00
522:0.0000000000000000e+00
523:0.0000000000000000e+00
524:0.0000000000000000e+00
525:0.0000000000000000e+00
526:0.0000000000000000e+00
527:0.0000000000000000e+00
528:0.0000000000000000e+00
529:0.0000000000000000e+00
530:0.0000000000000000e+00
531:0.0000000000000000e+00
532:0.0000000000000000e+00
533:0.0000000000000000e+00
534:0.0000000000000000e+00
535:0.0000000000000000e+00
536:0.0000000000000000e+00
537:0.0000000000000000e+00
538:0.0000000000000000e+00
539:0.0000000000000000e+00
540:0.0000000000000000e+00
541:0.0000000000000000e+00
542:0.0000000000000000e+00
543:0.0000000000000000e+00
544:0.0000000000000000e+00
545:0.0000000000000000e+00
546:0.0000000000000000e+00
547:0.0000000000000000e+00
548:0.0000000000000000e+00
549:0.0000000000000000e+00
550:0.0000000000000000e+00
551:0.0000000000000000e+00
552:0.0000000000000000e+00
553:0.0000000000000000e+00
554:0.0000000000000000e+00
555:0.0000000000000000e+00
556:0.0000000000000000e+00
557:0.0000000000000000e+00
558:0.0000000000000000e+00
559:0.0000000000000000e+00
560:0.0000000000000000e+00
561:0.0000000000000000e+00
562:0.0000000000000000e+00
563:0.0000000000000000e+00
564:0.0000000000000000e+00
565:0.0000000000000000e+00
566:0.0000000000000000e+00
567:0.0000000000000000e+00
568:0.0000000000000000e+00
569:0.0000000000000000e+00
570:0.0000000000000000e+00
571:0.0000000000000000e+00
572:0.0000000000000000e+00
573:0.0000000000000000e+00
574:0.0000000000000000e+00
575:0.0000000000000000e+00
576:0.0000000000000000e+00
577:0.0000000000000000e+00
578:0.0000000000000000e+00
579:0.0000000000000000e+00
580:0.0000000000000000e+00
581:0.0000000000000000e+00
582:0.0000000000000000e+00
583:0.0000000000000000e+00
584:0.0000000000000000e+00
585:0.0000000000000000e+00
586:0.0000000000000000e+00
587:0.0000000000000000e+00
588:0.0000000000000000e+00
589:0.0000000000000000e+00
590:0.0000000000000000e+00
591:0.0000000000000000e+00
592:0.0000000000000000e+00
593:0.0000000000000000e+00
594:0.0000000000000000e+00
595:0.0000000000000000e+00
596:0.0000000000000000e+00
597:0.0000000000000000e+00
598:0.0000000000000000e+00
599:0.0000000000000000e+00
600:0.0000000000000000e+00
601:0.0000000000000000e+00
602:0.0000000000000000e+00
603:0.0000000000000000e+00
604:0.0000000000000000e+00
605:0.0000000000000000e+00
606:0.0000000000000000e+00
607:0.0000000000000000e+00
608:0.0000000000000000e+00
609:0.0000000000000000e+00
610:0.0000000000000000e+00
611:0.0000000000000000e+00
612:0.0000000000000000e+00
613:0.0000000000000000e+00
614:0.0000000000000000e+00
615:0.0000000000000000e+00
616:0.0000000000000000e+00
617:0.0000000000000000e+00
618:0.0000000000000000e+00
619:0.0000000000000000e+00
620:0.0000000000000000e+00
621:0.0000000000000000e+00
622:0.0000000000000000e+00
623:0.0000000000000000e+00
624:0.0000000000000000e+00
625:0.0000000000000000e+00
626:0.0000000000000000e+00
627:0.0000000000000000e+00
628:0.0000000000000000e+00
629:0.0000000000000000e+00
630:0.0000000000000000e+00
631:0.0000000000000000e+00
632:0.0000000000000000e+00
633:0.0000000000000000e+00
634:0.0000000000000000e+00
635:0.0000000000000000e+00
636:0.0000000000000000e+00
637:0.0000000000000000e+00
638:0.0000000000000000e+00
639:0.0000000000000000e+00
640:0.0000000000000000e+00
641:0.0000000000000000e+00
642:0.0000000000000000e+00
643:0.0000000000000000e+00
644:0.0000000000000000e+00
645:0.0000000000000000e+00
646:0.0000000000000000e+00
647:0.0000000000000000e+00
648:0.0000000000000000e+00
649:0.0000000000000000e+00
650:0.0000000000000000e+00
651:0.0000000000000000e+00
652:0.0000000000000000e+00
653:0.0000000000000000e+00
654:0.0000000000000000e+00
655:0.0000000000000000e+00
656:0.0000000000000000e+00
657:0.0000000000000000e+00
658:0.0000000000000000e+00
659:0.0000000000000000e+00
660:0.0000000000000000e+00
661:0.0000000000000000e+00
662:0.0000000000000000e+00
663:0.0000000000000000e+00
664:0.0000000000000000e+00
665:0.0000000000000000e+00
666:0.0000000000000000e+00
667:0.0000000000000000e+00
668:0.0000000000000000e+00
669:0.0000000000000000e+00
670:0.0000000000000000e+00
671:0.0000000000000000e+00
672:0.0000000000000000e+00
673:0.0000000000000000e+00
674:0.0000000000000000e+00
675:0.0000000000000000e+00
676:0.0000000000000000e+00
677:0.0000000000000000e+00
678:0.0000000000000000e+00
679:0.0000000000000000e+00
680:0.0000000000000000e+00
681:0.0000000000000000e+00
682:0.0000000000000000e+00
683:0.0000000000000000e+00
684:0.0000000000000000e+00
685:0.0000000000000000e+00
686:0.0000000000000000e+00
687:0.0000000000000000e+00
688:0.0000000000000000e+00
689:0.0000000000000000e+00
690:0.0000000000000000e+00
691:0.0000000000000000e+00
692:0.0000000000000000e+00
693:0.0000000000000000e+00
694:0.0000000000000000e+00
695:0.0000000000000000e+00
696:0.0000000000000000e+00
697:0.0000000000000000e+00
698:0.0000000000000000e+00
699:0.0000000000000000e+00
700:0.0000000000000000e+00
701:0.0000000000000000e+00
702:0.0000000000000000e+00
703:0.0000000000000000e+00
704:0.0000000000000000e+00
705:0.0000000000000000e+00
706:0.0000000000000000e+00
707:0.0000000000000000e+00
708:0.0000000000000000e+00
709:0.0000000000000000e+00
710:0.0000000000000000e+00
711:0.0000000000000000e+00
712:0.0000000000000000e+00
713:0.0000000000000000e+00
714:0.0000000000000000e+00
715:0.0000000000000000e+00
716:0.0000000000000000e+00
717:0.0000000000000000e+00
718:0.0000000000000000e+00
719:0.0000000000000000e+00
720:0.0000000000000000e+00
721:0.0000000000000000e+00
722:0.0000000000000000e+00
723:0.0000000000000000e+00
724:0.0000000000000000e+00
725:0.0000000000000000e+00
726:0.0000000000000000e+00
727:0.0000000000000000e+00
728:0.0000000000000000e+00
729:0.0000000000000000e+00
730:0.0000000000000000e+00
731:0.0000000000000000e+00
732:0.0000000000000000e+00
733:0.0000000000000000e+00
734:0.0000000000000000e+00
735:0.0000000000000000e+00
736:0.0000000000000000e+00
737:0.0000000000000000e+00
738:0.0000000000000000e+00
739:0.0000000000000000e+00
740:0.0000000000000000e+00
741:0.0000000000000000e+00
742:0.0000000000000000e+00
743:0.0000000000000000e+00
744:0.0000000000000000e+00
745:0.0000000000000000e+00
746:0.0000000000000000e+00
747:0.0000000000000000e+00
748:0.0000000000000000e+00
749:0.0000000000000000e+00
750:0.0000000000000000e+00
751:0.0000000000000000e+00
752:0.0000000000000000e+00
753:0.0000000000000000e+00
754:0.0000000000000000e+00
755:0.0000000000000000e+00
756:0.0000000000000000e+00
757:0.0000000000000000e+00
758:0.0000000000000000e+00
759:0.0000000000000000e+00
760:0.0000000000000000e+00
761:0.0000000000000000e+00
762:0.0000000000000000e+00
763:0.0000000000000000e+00
764:0.0000000000000000e+00
765:0.0000000000000000e+00
766:0.0000000000000000e+00
767:0.0000000000000000e+00
768:0.0000000000000000e+00
769:0.0000000000000000e+00
770:0.0000000000000000e+00
771:0.0000000000000000e+00
772:0.0000000000000000e+00
773:0.0000000000000000e+00
774:0.0000000000000000e+00
775:0.0000000000000000e+00
776:0.0000000000000000e+00
777:0.0000000000000000e+00
778:0.0000000000000000e+00
779:0.0000000000000000e+00
780:0.0000000000000000e+00
781:0.0000000000000000e+00
782:0.0000000000000000e+00
783:0.0000000000000000e+00
784:0.0000000000000000e+00
785:0.0000000000000000e+00
786:0.0000000000000000e+00
787:0.0000000000000000e+00
788:0.0000000000000000e+00
789:0.0000000000000000e+00
790:0.0000000000000000e+00
791:0.0000000000000000e+00
792:0.0000000000000000e+00
793:0.0000000000000000e+00
794:0.0000000000000000e+00
795:0.0000000000000000e+00
796:0.0000000000000000e+00
797:0.0000000000000000e+00
798:0.0000000000000000e+00
799:0.0000000000000000e+00
800:0.0000000000000000e+00
801:0.0000000000000000e+00
802:0.0000000000000000e+00
803:0.0000000000000000e+00
804:0.0000000000000000e+00
805:0.0000000000000000e+00
806:0.0000000000000000e+00
807:0.0000000000000000e+00
808:0.0000000000000000e+00
809:0.0000000000000000e+00
810:0.0000000000000000e+00
811:0.0000000000000000e+00
812:0.0000000000000000e+00
813:0.0000000000000000e+00
814:0.0000000000000000e+00
815:0.0000000000000000e+00
816:0.0000000000000000e+00
817:0.0000000000000000e+00
818:0.0000000000000000e+00
819:0.0000000000000000e+00
820:0.0000000000000000e+00
821:0.0000000000000000e+00
822:0.0000000000000000e+00
823:0.0000000000000000e+00
824:0.0000000000000000e+00
825:0.0000000000000000e+00
826:0.0000000000000000e+00
827:0.0000000000000000e+00
828:0.0000000000000000e+00
829:0.0000000000000000e+00
830:0.0000000000000000e+00
831:0.0000000000000000e+00
832:0.0000000000000000e+00
833:0.0000000000000000e+00
834:0.0000000000000000e+00
835:0.0000000000000000e+00
836:0.0000000000000000e+00
837:0.0000000000000000e+00
838:0.0000000000000000e+00
839:0.0000000000000000e+00
840:0.0000000000000000e+00
841:0.0000000000000000e+00
842:0.0000000000000000e+00
843:0.0000000000000000e+00
844:0.0000000000000000e+00
845:0.0000000000000000e+00
846:0.0000000000000000e+00
847:0.0000000000000000e+00
848:0.0000000000000000e+00
849:0.0000000000000000e+00
850:0.0000000000000000e+00
851:0.0000000000000000e+00
852:0.0000000000000000e+00
853:0.0000000000000000e+00
854:0.0000000000000000e+00
855:0.0000000000000000e+00
856:0.0000000000000000e+00
857:0.0000000000000000e+00
858:0.0000000000000000e+00
859:0.0000000000000000e+00
860:0.0000000000000000e+00
861:0.0000000000000000e+00
862:0.0000000000000000e+00
863:0.0000000000000000e+00
864:0.0000000000000000e+00
865:0.0000000000000000e+00
866:0.0000000000000000e+00
867:0.0000000000000000e+00
868:0.0000000000000000e+00
869:0.0000000000000000e+00
870:0.0000000000000000e+00
871:0.0000000000000000e+00
872:0.0000000000000000e+00
873:0.0000000000000000e+00
874:0.0000000000000000e+00
875:0.0000000000000000e+00
876:0.0000000000000000e+00
877:0.0000000000000000e+00
878:0.0000000000000000e+00
879:0.0000000000000000e+00
880:0.0000000000000000e+00
881:0.0000000000000000e+00
882:0.0000000000000000e+00
883:0.0000000000000000e+00
884:0.0000000000000000e+00
885:0.0000000000000000e+00
886:0.0000000000000000e+00
887:0.0000000000000000e+00
888:0.0000000000000000e+00
889:0.0000000000000000e+00
890:0.0000000000000000e+00
891:0.0000000000000000e+00
892:0.0000000000000000e+00
893:0.0000000000000000e+00
894:0.0000000000000000e+00
895:0.0000000000000000e+00
896:0.0000000000000000e+00
897:0.0000000000000000e+00
898:0.0000000000000000e+00
899:0.0000000000000000e+00
900:0.0000000000000000e+00
901:0.0000000000000000e+00
902:0.0000000000000000e+00
903:0.0000000000000000e+00
904:0.0000000000000000e+00
905:0.0000000000000000e+00
906:0.0000000000000000e+00
907:0.0000000000000000e+00
908:0.0000000000000000e+00
909:0.0000000000000000e+00
910:0.0000000000000000e+00
911:0.0000000000000000e+00
912:0.0000000000000000e+00
913:0.0000000000000000e+00
914:0.0000000000000000e+00
915:0.0000000000000000e+00
916:0.0000000000000000e+00
917:0.0000000000000000e+00
918:0.0000000000000000e+00
919:0.0000000000000000e+00
920:0.0000000000000000e+00
921:0.0000000000000000e+00
922:0.0000000000000000e+00
923:0.0000000000000000e+00
924:0.0000000000000000e+00
925:0.0000000000000000e+00
926:0.0000000000000000e+00
927:0.0000000000000000e+00
928:0.0000000000000000e+00
929:0.0000000000000000e+00
930:0.0000000000000000e+00
931:0.0000000000000000e+00
932:0.0000000000000000e+00
933:0.0000000000000000e+00
934:0.0000000000000000e+00
935:0.0000000000000000e+00
936:0.0000000000000000e+00
937:0.0000000000000000e+00
938:0.0000000000000000e+00
939:0.0000000000000000e+00
940:0.0000000000000000e+00
941:0.0000000000000000e+00
942:0.0000000000000000e+00
943:0.0000000000000000e+00
944:0.0000000000000000e+00
945:0.0000000000000000e+00
946:0.0000000000000000e+00
947:0.0000000000000000e+00
948:0.0000000000000000e+00
949:0.0000000000000000e+00
950:0.0000000000000000e+00
951:0.0000000000000000e+00
952:0.0000000000000000e+00
953:0.0000000000000000e+00
954:0.0000000000000000e+00
955:0.0000000000000000e+00
956:0.0000000000000000e+00
957:0.0000000000000000e+00
958:0.0000000000000000e+00
959:0.0000000000000000e+00
960:0.0000000000000000e+00
961:0.0000000000000000e+00
962:0.0000000000000000e+00
963:0.0000000000000000e+00
964:0.0000000000000000e+00
965:0.0000000000000000e+00
966:0.0000000000000000e+00
967:0.0000000000000000e+00
968:0.0000000000000000e+00
969:0.0000000000000000e+00
970:0.0000000000000000e+00
971:0.0000000000000000e+00
972:0.0000000000000000e+00
973:0.0000000000000000e+00
974:0.0000000000000000e+00
975:0.0000000000000000e+00
976:0.0000000000000000e+00
977:0.0000000000000000e+00
978:0.0000000000000000e+00
979:0.0000000000000000e+00
980:0.0000000000000000e+00
981:0.0000000000000000e+00
982:0.0000000000000000e+00
983:0.0000000000000000e+00
984:0.0000000000000000e+00
985:0.0000000000000000e+00
986:0.0000000000000000e+00
987:0.0000000000000000e+00
988:0.0000000000000000e+00
989:0.0000000000000000e+00
990:0.0000000000000000e+00
991:0.0000000000000000e+00
992:0.0000000000000000e+00
993:0.0000000000000000e+00
994:0.0000000000000000e+00
995:0.0000000000000000e+00
996:0.0000000000000000e+00
997:0.0000000000000000e+00
998:0.0000000000000000e+00
999:0.0000000000000000e+00
1000:0.0000000000000000e+00
1001:0.0000000000000000e+00
1002:0.0000000000000000e+00
1003:0.0000000000000000e+00
1004:0.0000000000000000e+00
1005:0.0000000000000000e+00
1006:0.0000000000000000e+00
1007:0.0000000000000000e+00
1008:0.0000000000000000e+00
1009:0.0000000000000000e+00
1010:0.0000000000000000e+00
1011:0.0000000000000000e+00
1012:0.0000000000000000e+00
1013:0.0000000000000000e+00
1014:0.0000000000000000e+00
1015:0.0000000000000000e+00
1016:0.0000000000000000e+00
