label=Stress xy
num_items=882

0:7.5886809646552823e-03
1:1.0966019314216734e-01
2:1.3543922309019032e-01
3:7.8548748449966899e-02
4:2.9162376571683853e-02
5:-9.1078066130670376e-02
6:-1.8136021060073951e-02
7:2.4224568924621864e-02
8:2.0450021397189724e-02
9:8.8683918308961884e-03
10:-1.3421759862757254e-01
11:-1.0489444523446076e-01
12:-6.4109531229621874e-02
13:-2.8775047673560584e-02
14:-9.4375675595710917e-03
15:-1.0247324660830184e-01
16:-1.0652649816433878e-01
17:-8.4121640658210456e-02
18:-4.4978724999787716e-02
19:-1.8366365535460047e-02
20:-6.3946057981042623e-02
21:-7.8363630111787361e-02
22:-7.0164332062817428e-02
23:-4.2579325843715071e-02
24:-2.1480556670669681e-02
25:9.3370423268349829e-03
26:-1.3564322266332324e-02
27:-1.8692113966600216e-02
28:-5.8494317050389781e-03
29:4.1727100817561614e-03
30:4.2340534880905634e-03
31:4.3942571571284701e-05
32:1.7075097447464397e-03
33:6.3974405688009264e-03
34:7.7518969897627287e-03
35:-1.5040124459958330e-03
36:9.3201080460843886e-03
37:1.5469573930648012e-02
38:1.2973231495811949e-02
39:7.9574622905955184e-03
40:-7.1854940007211321e-03
41:7.2744942877025444e-03
42:1.4138524873138669e-02
43:1.0233171359298604e-02
44:4.9626902759217955e-03
45:-1.2184815224526481e-02
46:1.4025274550292645e-04
47:6.8862229191885014e-03
48:5.4125760429171287e-03
49:2.6785746216871926e-03
50:7.5853257581864923e-03
51:1.0332313744255136e-02
52:7.7620897735257112e-03
53:1.6721989968163482e-03
54:-2.0291556032944269e-03
55:7.1464376707273602e-03
56:5.2342861674151966e-03
57:2.0285897790918938e-03
58:-4.2680379977203686e-04
59:-9.6433383307284535e-04
60:4.8894818057448157e-03
61:7.0759973057181154e-04
62:-1.3886417765154732e-03
63:-2.9598671226277018e-04
64:1.3644733140900176e-03
65:2.3796690801305758e-03
66:-4.9308236035456286e-04
67:-5.9740167490582362e-04
68:1.7487129099963718e-03
69:3.3653742859861518e-03
70:1.4775247378869441e-03
71:5.0242580009564341e-04
72:1.3793926584833394e-03
73:3.1561131151949555e-03
74:3.8294427830014642e-03
75:-3.2073743265904208e-03
76:-4.0828488460456580e-03
77:-2.9867484367398409e-03
78:-6.4903557689244425e-04
79:7.5023432740510044e-04
80:-7.6023691283455942e-04
81:-1.7339621394668123e-04
82:6.9783214687906393e-04
83:1.2123570630870112e-03
84:1.1456853304437108e-03
85:2.2454723848094990e-03
86:3.2228198277041830e-03
87:3.1387600825692171e-03
88:1.9749974369211959e-03
89:9.7423315004191012e-04
90:3.8676093288479143e-03
91:4.0453059161452160e-03
92:2.9952520921391417e-03
93:1.3862255643184668e-03
94:5.3983444980079036e-04
95:3.7799191521843160e-03
96:3.2394563967907985e-03
97:1.9449162298722580e-03
98:7.7171079017312040e-04
99:4.5354404512301736e-04
100:1.1953084962288718e-03
101:1.5450748650109574e-03
102:1.1913114618713975e-03
103:3.7893066442270450e-04
104:-1.1153081718174218e-04
105:9.4954722772172572e-04
106:5.7258173464649767e-04
107:1.6590078288831754e-04
108:-1.4719715952082687e-06
109:5.9996434001696322e-05
110:5.0872294364773024e-04
111:-3.3300291269709072e-05
112:-1.1609004143420281e-04
113:2.7303344737719887e-04
114:5.9559723264946318e-04
115:3.1463142991204038e-04
116:2.1187748905295188e-04
117:5.5444539836477073e-04
118:1.0250011349661661e-03
119:1.1567322754252249e-03
120:5.2090653815461182e-04
121:7.9860160693852409e-04
122:1.2741475416844371e-03
123:1.5193518349081460e-03
124:1.3750405325568529e-03
125:-2.6778272693812785e-04
126:-4.0344137906402229e-04
127:-3.2303304866348033e-04
128:-9.6300268521893898e-05
129:3.6120483659315316e-05
130:1.4698078046793876e-04
131:2.7482684157466937e-04
132:3.3325750224727843e-04
133:2.5742328402108335e-04
134:1.3928414701272761e-04
135:7.2421443847134391e-04
136:8.1615376599928691e-04
137:6.6833599737036061e-04
138:3.7223835900233686e-04
139:1.9251577891636238e-04
140:1.1105695725899479e-03
141:9.1497372240098758e-04
142:5.3789797019489249e-04
143:2.5425270404824343e-04
144:2.2982981293150762e-04
145:1.1756266497522402e-03
146:7.8252982625138243e-04
147:3.4132085472421810e-04
148:1.8146461679088239e-04
149:3.0383102141760820e-04
150:7.3650054679096078e-05
151:1.0804133069100554e-04
152:8.7203866160708775e-05
153:3.8259753719070258e-06
154:-7.6362371127068691e-05
155:6.5880624364976929e-05
156:-1.0898865926009421e-05
157:9.9726055527698393e-06
158:1.0821488623803133e-04
159:1.7318559886173474e-04
160:1.3369277203880431e-04
161:1.0005168936341643e-04
162:1.5228112158611652e-04
163:1.7065428113067447e-04
164:7.4985496129175206e-05
165:2.8937298959105367e-04
166:4.0089294760448573e-04
167:4.2966977347409487e-04
168:1.6289921235009117e-04
169:-2.6704992508834490e-04
170:4.4258567725986094e-04
171:6.2984940544925114e-04
172:5.9991733417523755e-04
173:1.3868562350428666e-04
174:-4.6422994237660224e-04
175:-4.5349902160140600e-02
176:-6.0074944494329846e-02
177:-5.7772805304179102e-02
178:-3.8685400280267263e-02
179:-2.2658342923552895e-02
180:-1.8836319283337288e-02
181:-3.1904505959189963e-02
182:-3.7451475941302853e-02
183:-3.1622452272995968e-02
184:-2.3848806934656862e-02
185:2.0610928696187045e-04
186:-8.6683130234719644e-03
187:-1.8728034932788646e-02
188:-2.3664742140316351e-02
189:-2.3153345936606208e-02
190:3.6861873697825844e-03
191:-1.4562769248508823e-03
192:-1.0735841420076277e-02
193:-1.8273448384275224e-02
194:-2.0224491572923758e-02
195:1.6881602217153685e-03
196:-2.6435187146702142e-03
197:-1.0075111780014176e-02
198:-1.5912403405789956e-02
199:-1.7323180326538117e-02
200:-1.5205495771612039e-02
201:-4.8586276055208556e-03
202:1.9704234404964017e-03
203:2.6725689828965842e-03
204:1.7944014116907669e-03
205:-1.9444414616231826e-02
206:-1.2375115071269992e-02
207:-5.4691936880883092e-03
208:-1.3951975177673315e-03
209:4.8576319922774075e-04
210:-2.1555908875780013e-02
211:-1.7620189678224756e-02
212:-1.1055282677011752e-02
213:-4.6038661774621958e-03
214:-8.7607167145976157e-04
215:-1.9786091301760702e-02
216:-1.7430143074070439e-02
217:-1.1906350880050520e-02
218:-5.7309857487258349e-03
219:-2.1812979566879888e-03
220:-1.6914101709216377e-02
221:-1.4989005145527977e-02
222:-1.0670988852024612e-02
223:-5.9851692109732868e-03
224:-3.3862242064867385e-03
225:1.4417889127681580e-03
226:1.4719712917179275e-03
227:2.5441801259830322e-03
228:3.6162008139384700e-03
229:3.6460384921186977e-03
230:1.3251557723372221e-03
231:2.6791565022787145e-03
232:3.8152029727119680e-03
233:3.7639198360181160e-03
234:2.9426271386187638e-03
235:6.5715610313102661e-04
236:2.6359072064227281e-03
237:3.4843808632497243e-03
238:2.6433809827575610e-03
239:1.5268663238414233e-03
240:-8.2418577963213821e-04
241:8.1796272746770076e-04
242:1.3847913261474214e-03
243:7.3021035147379280e-04
244:1.3462790243829679e-04
245:-2.4309341843536431e-03
246:-1.2262514578565860e-03
247:-5.8472504785907794e-04
248:-5.7424253109785535e-04
249:-5.2568833460089816e-04
250:3.3085140030810691e-03
251:2.4753595296267803e-03
252:1.2699072000994791e-03
253:5.2963567155925111e-04
254:5.4873379320526377e-04
255:2.2895784918645057e-03
256:1.2325827864428922e-03
257:3.8528194652152241e-04
258:3.6842900505237717e-04
259:8.3288769983715539e-04
260:9.1361869740326377e-04
261:1.6294414713030107e-04
262:2.2525959244333727e-05
263:6.3777882790289379e-04
264:1.2715608536877784e-03
265:-8.0203613536274063e-05
266:-1.5295135527936346e-04
267:3.2892418379722459e-04
268:1.0737753591815271e-03
269:1.4828223691034964e-03
270:-3.9902927214382128e-04
271:-1.4803642636641842e-05
272:6.7024895297489845e-04
273:1.2178802821122929e-03
274:1.3503379308161237e-03
275:7.6138820443369479e-04
276:1.1918077901838082e-03
277:1.6412759237306315e-03
278:1.6938558130736869e-03
279:1.3971408408831351e-03
280:1.1966106838793558e-03
281:1.7390457619468722e-03
282:2.0436320759573655e-03
283:1.7974109378587877e-03
284:1.3307177813418106e-03
285:1.5974423073192860e-03
286:1.9760970165900041e-03
287:1.9786567066684721e-03
288:1.5315444818977530e-03
289:1.0863602546454761e-03
290:1.6023756676411436e-03
291:1.6505727497266457e-03
292:1.4157620279261426e-03
293:1.0363051224341617e-03
294:8.1949753287414529e-04
295:1.3122773225371306e-03
296:1.1671223372622947e-03
297:9.0588572616412660e-04
298:7.1962869028490220e-04
299:7.1184295460657789e-04
300:1.1325093079965650e-03
301:6.7346401455035813e-04
302:2.5037816904423970e-04
303:1.8018489608637804e-04
304:3.6767017765037017e-04
305:1.0181066544895428e-03
306:5.4191818319423762e-04
307:2.1007619599757026e-04
308:2.6572613927772638e-04
309:4.9945734357598822e-04
310:8.5129165901961016e-04
311:5.4051817828876475e-04
312:4.0280791949165570e-04
313:5.1632373030740587e-04
314:6.6581875019437156e-04
315:7.5076090008273952e-04
316:6.9582501071988729e-04
317:7.2864522819620183e-04
318:7.7742841962211997e-04
319:7.5173811808791049e-04
320:7.5779686245297311e-04
321:8.5138004101446829e-04
322:9.3220452409229729e-04
323:8.8221960124579616e-04
324:7.3614831550921972e-04
325:5.3123384636922252e-04
326:7.3065917714752987e-04
327:6.5693787738490292e-04
328:1.2644435153933418e-04
329:-5.1097765581772068e-04
330:6.6139779042656175e-04
331:8.2650684899236119e-04
332:6.7987276121695350e-04
333:1.2379677363387771e-04
334:-4.6122813918003804e-04
335:7.4165815298551365e-04
336:7.7032711163238271e-04
337:5.6222765695173368e-04
338:1.6035644095754935e-04
339:-1.6598169889501963e-04
340:7.0588372635788414e-04
341:5.8001045665947288e-04
342:3.7144078199712185e-04
343:2.2045134076490141e-04
344:2.0007017921168171e-04
345:6.2346161787345158e-04
346:4.3010736688657965e-04
347:2.6037343755390689e-04
348:2.6092240171050342e-04
349:3.7954155453755661e-04
350:4.1396975407160527e-04
351:-4.3007959346736558e-03
352:-1.0792745965251063e-02
353:-1.5056174862694550e-02
354:-1.5688091657171731e-02
355:-1.0264393794996724e-03
356:-6.5187451648658721e-03
357:-1.1641232751756539e-02
358:-1.3476791275843353e-02
359:-1.2947150717471835e-02
360:-1.0899717553443941e-03
361:-7.1250116313717714e-03
362:-1.1125987699459642e-02
363:-1.1189304291807794e-02
364:-1.0010201839321142e-02
365:1.6049696035882742e-04
366:-5.3305853578691524e-03
367:-8.7837529573062574e-03
368:-8.8093022011306067e-03
369:-8.0206828799464207e-03
370:1.1274546782657486e-03
371:-3.1502519990743603e-03
372:-6.2850321610949562e-03
373:-7.0604227117090522e-03
374:-7.0155178046871734e-03
375:-1.5121184875053185e-02
376:-1.3286031824022600e-02
377:-9.7345086608570473e-03
378:-6.1135097642980004e-03
379:-4.1510709913369515e-03
380:-1.2186987166746419e-02
381:-1.0603358387375158e-02
382:-8.3806467462355129e-03
383:-6.4619577763527060e-03
384:-5.4353255669125902e-03
385:-9.2935989951455095e-03
386:-8.2624671867939162e-03
387:-7.4555005212708905e-03
388:-7.0000585113570366e-03
389:-6.6129511325341136e-03
390:-7.6468218726643339e-03
391:-7.2778144039140590e-03
392:-7.2590717235298131e-03
393:-7.2389215875105382e-03
394:-6.8673355348766989e-03
395:-6.9965264652199297e-03
396:-7.0798903563386280e-03
397:-7.2402849391045576e-03
398:-7.0391395978789207e-03
399:-6.4601301971483425e-03
400:-3.4283314883764853e-03
401:-2.4257158699301767e-03
402:-1.6148892157879405e-03
403:-1.1271847296869088e-03
404:-7.1655765776227937e-04
405:-5.0158658936872384e-03
406:-4.2248224765378982e-03
407:-3.0634479161028008e-03
408:-1.8481932810786223e-03
409:-9.5843677582422844e-04
410:-6.3245650538927096e-03
411:-5.5228900837398492e-03
412:-3.9640585699070490e-03
413:-2.2511350609401241e-03
414:-1.1671498525728746e-03
415:-6.4911543078329265e-03
416:-5.5314571019803322e-03
417:-3.8656649077262609e-03
418:-2.2578721732338723e-03
419:-1.4044351354574394e-03
420:-5.9862417990884211e-03
421:-4.9680839566446453e-03
422:-3.4839588614949285e-03
423:-2.2529985398784622e-03
424:-1.6986610760353416e-03
425:-4.3052649296770255e-04
426:1.3100023645816640e-04
427:8.1659374961045932e-04
428:1.1868262396113000e-03
429:1.1705835301414613e-03
430:-4.9062837943640949e-04
431:2.3762207316062136e-04
432:8.3569637313769634e-04
433:9.3583037436281583e-04
434:7.5180991871170056e-04
435:-6.8841155338649331e-04
436:-3.6504880730690372e-05
437:3.4634131399741255e-04
438:2.8003675177414993e-04
439:1.0905929553122608e-04
440:-1.0927562611376675e-03
441:-6.9983963559245590e-04
442:-4.8668723920367593e-04
443:-4.6607766518516977e-04
444:-4.2591661270636999e-04
445:-1.5312972466803559e-03
446:-1.3062811018247273e-03
447:-1.0972250190627343e-03
448:-8.8254925778730479e-04
449:-6.4723736215102916e-04
450:1.0676350444732490e-03
451:8.6464429213474849e-04
452:6.5122493284635425e-04
453:6.0121843392019572e-04
454:6.9761457377558330e-04
455:5.9761586858716109e-04
456:3.8615673774273698e-04
457:3.1421072717366789e-04
458:4.7779907390193329e-04
459:6.9785983127022356e-04
460:1.9603979344361817e-05
461:-3.1108130402163230e-05
462:1.3829357031508988e-04
463:4.6488500321945373e-04
464:7.0215846143032324e-04
465:-3.6627974982658457e-04
466:-1.8003921091170453e-04
467:1.7466494285798954e-04
468:5.0020919380387556e-04
469:6.3302619760536325e-04
470:-4.8430305084696520e-04
471:-1.6691540391108132e-04
472:2.2658220148889783e-04
473:4.6516661817889884e-04
474:4.9873952723968409e-04
475:7.8966048264568554e-04
476:9.3211563976545455e-04
477:1.0052850587164870e-03
478:8.9474149666926713e-04
479:7.0061813533494753e-04
480:8.3099072352956090e-04
481:1.0021288693084574e-03
482:1.0333174846684178e-03
483:8.4617959184243678e-04
484:6.1732415924687452e-04
485:8.0657839882918589e-04
486:9.0977403056772849e-04
487:8.5953243514989169e-04
488:6.6038945718640944e-04
489:4.9078451455277286e-04
490:6.5739526839947058e-04
491:6.4585997658653130e-04
492:5.4598648919728656e-04
493:4.2938654035369638e-04
494:3.8720688369548264e-04
495:4.7013429754350414e-04
496:4.0156146736224210e-04
497:3.1796452419261228e-04
498:2.9799079789687063e-04
499:3.4598135892979651e-04
500:5.6781945515496971e-04
501:3.6289648315456657e-04
502:2.2445324945183977e-04
503:2.7721333330595023e-04
504:4.2259184244844813e-04
505:4.8087782138509422e-04
506:2.9411482029632305e-04
507:2.0668578952938977e-04
508:2.8326828737747098e-04
509:3.9698899194082410e-04
510:4.0860406622770899e-04
511:3.0889973405076181e-04
512:2.6293891719144106e-04
513:2.4119852659934139e-04
514:1.8586816923538165e-04
515:3.8646202427081898e-04
516:3.8913391058866464e-04
517:3.4433644255287265e-04
518:1.6260193197117743e-04
519:-8.5607021209547690e-05
520:3.9136614720588060e-04
521:4.4026111742252782e-04
522:3.7263575526523632e-04
523:1.0173647815176675e-04
524:-2.2178444061684300e-04
525:1.4899221028518248e-03
526:-1.8921491890788922e-03
527:-4.8182695447412443e-03
528:-6.1342978088362102e-03
529:-6.5665372064256751e-03
530:1.5921885399421520e-03
531:-1.9673751334611748e-04
532:-2.6065490537315323e-03
533:-4.6416617915583103e-03
534:-5.7441063172703026e-03
535:6.9012289546836335e-04
536:5.7465459476359912e-04
537:-9.6842435744846553e-04
538:-3.2371417181632283e-03
539:-4.6820441129652099e-03
540:-7.0009405944404773e-04
541:-7.9461288919019748e-05
542:-8.5442633183045735e-04
543:-2.6193075566418125e-03
544:-3.8122892628170953e-03
545:-1.4921642334970798e-03
546:-9.9570702200369051e-04
547:-1.4350414393211669e-03
548:-2.5679500884758671e-03
549:-3.3421825480207646e-03
550:-6.7465202282429955e-03
551:-7.0405636265547080e-03
552:-7.1888878140811902e-03
553:-6.7885205661888520e-03
554:-6.0773124606669946e-03
555:-6.1947835616508080e-03
556:-6.7555622462863781e-03
557:-6.8473077001421348e-03
558:-6.1764191288670375e-03
559:-5.3399844597981725e-03
560:-5.2591341112989730e-03
561:-5.9106904471653791e-03
562:-5.9206733721060079e-03
563:-5.1734295157124504e-03
564:-4.4376790493550165e-03
565:-4.2781339380980063e-03
566:-4.7843541915290099e-03
567:-4.7775992237442206e-03
568:-4.2643142852738019e-03
569:-3.8425265876057143e-03
570:-3.6433107142883189e-03
571:-3.9836848968009533e-03
572:-4.0394821113677289e-03
573:-3.8241990651748485e-03
574:-3.6679301032981216e-03
575:-5.5646226666826743e-03
576:-4.5628349505509617e-03
577:-3.2625092406069053e-03
578:-2.2972568018842432e-03
579:-1.9093531160917923e-03
580:-4.8243048031741224e-03
581:-3.9440248514157217e-03
582:-3.0141193621771741e-03
583:-2.4719158099959565e-03
584:-2.3019402845518527e-03
585:-4.0505960364635918e-03
586:-3.4783787806471626e-03
587:-3.0182082047846138e-03
588:-2.8252829333811984e-03
589:-2.7426828409761132e-03
590:-3.6585079459148092e-03
591:-3.4201355086051150e-03
592:-3.2560087872832225e-03
593:-3.1244594051587915e-03
594:-2.9457715502935584e-03
595:-3.6173530979710061e-03
596:-3.5477235663253512e-03
597:-3.4357995999039054e-03
598:-3.1998363204427480e-03
599:-2.9029557367226590e-03
600:-1.8063543924958646e-03
601:-1.6370432881263098e-03
602:-1.3794517505104091e-03
603:-1.0327385116652827e-03
604:-7.0014852521468256e-04
605:-2.2642271515549463e-03
606:-2.1249626397852254e-03
607:-1.7490233139382989e-03
608:-1.2058329396881218e-03
609:-7.6014963390429343e-04
610:-2.6872195245830743e-03
611:-2.4642371250113444e-03
612:-1.9250253474633093e-03
613:-1.2614793364125860e-03
614:-8.1070556424715117e-04
615:-2.8032097167094445e-03
616:-2.4468069686066616e-03
617:-1.8284902475106087e-03
618:-1.2239303603843986e-03
619:-8.9273135548325016e-04
620:-2.6986271791983713e-03
621:-2.2812116956853318e-03
622:-1.6987495461679542e-03
623:-1.2262825778222844e-03
624:-1.0103880478887163e-03
625:-4.9601572496056655e-04
626:-1.3884727885567056e-04
627:2.3669586587726977e-04
628:4.0965964177828925e-04
629:3.9568466917341800e-04
630:-5.2056544277591594e-04
631:-1.4717414543323777e-04
632:1.6641323401208290e-04
633:2.4373439041356940e-04
634:1.8426495640330606e-04
635:-6.0212354045409010e-04
636:-3.0608796818160853e-04
637:-1.0039732956422565e-04
638:-7.3316940491659907e-05
639:-1.0451122886775528e-04
640:-7.6585677207420251e-04
641:-5.9210323104408715e-04
642:-4.5995311300122581e-04
643:-3.8747112362055749e-04
644:-3.2303490048146043e-04
645:-9.4095864294923811e-04
646:-8.3329123881366069e-04
647:-7.0015323531023258e-04
648:-5.4808854262928381e-04
649:-4.0574576079956441e-04
650:3.4839219361973618e-04
651:2.6859492064197122e-04
652:2.1470582293019256e-04
653:2.5105881825426179e-04
654:3.3659308478397085e-04
655:1.2904075169096357e-04
656:6.4800797169789086e-05
657:7.9858576397474814e-05
658:1.9560372562229384e-04
659:3.1583198688516493e-04
660:-1.2115932891725709e-04
661:-1.0500715350934794e-04
662:8.2257834044806146e-06
663:1.6665905626764746e-04
664:2.6562226673426594e-04
665:-2.7471041761625191e-04
666:-1.6064171456904540e-04
667:1.5084172230983766e-05
668:1.4659155308348749e-04
669:1.7964802095507990e-04
670:-3.1699231154796889e-04
671:-1.5526003502801117e-04
672:2.4039750881850019e-05
673:1.0740021830046357e-04
674:9.3363131635601095e-05
675:3.9651613319172151e-04
676:4.5437027969468560e-04
677:3.6894372047352269e-04
678:7.2663487481953206e-05
679:-2.5578504720791761e-04
680:3.8167107230253065e-04
681:4.3337615373722696e-04
682:3.2636606298061077e-04
683:3.9005825853701943e-05
684:-2.3970659906102215e-04
685:3.0302370456180763e-04
686:3.1280451770178104e-04
687:2.0913158734456091e-04
688:3.3915654411685225e-05
689:-8.7376675360604136e-05
690:1.7268664539430627e-04
691:1.3651254887727827e-04
692:7.2723789954576255e-05
693:5.5431138918784047e-05
694:1.0444204686943818e-04
695:6.3141473126128984e-05
696:1.3433818140839124e-05
697:-4.9810980401875425e-06
698:7.0517404986889824e-05
699:1.9286748555519693e-04
700:-1.7369838200601861e-03
701:-1.5019019238108500e-03
702:-1.8591858570039545e-03
703:-2.6268825657460937e-03
704:-3.1437133715848382e-03
705:-1.7362254010998735e-03
706:-2.0399395272878537e-03
707:-2.3979825920394039e-03
708:-2.6728808929514813e-03
709:-2.8242664178638774e-03
710:-9.3698071699725455e-04
711:-1.8927364552427423e-03
712:-2.4931234264030091e-03
713:-2.5398061515581544e-03
714:-2.4811264711870561e-03
715:1.9342367795161390e-04
716:-1.0711037695714861e-03
717:-1.9752395098981534e-03
718:-2.2012232026142461e-03
719:-2.2233157920955298e-03
720:8.0089613661967764e-04
721:-3.7352634507892274e-04
722:-1.3909203861512593e-03
723:-1.8707122181282558e-03
724:-2.0601996447691989e-03
725:-3.3481139387056655e-03
726:-3.6021002118987277e-03
727:-3.7179645704457968e-03
728:-3.6813629593497078e-03
729:-3.6560180176330413e-03
730:-2.8939735973453951e-03
731:-3.0382809703221078e-03
732:-3.2629139257473465e-03
733:-3.4866611947368632e-03
734:-3.6293459114062109e-03
735:-2.4779132719348054e-03
736:-2.5837188340463862e-03
737:-2.9168826873406236e-03
738:-3.3046220264374205e-03
739:-3.5104147318387557e-03
740:-2.2548946849004136e-03
741:-2.4129283319732249e-03
742:-2.7738788512772349e-03
743:-3.1173522366209172e-03
744:-3.2433662200622550e-03
745:-2.1544239750978427e-03
746:-2.3690039595530774e-03
747:-2.6907924625304111e-03
748:-2.9130675082339975e-03
749:-2.9453299894167942e-03
750:-3.6598046467482773e-03
751:-3.6411707299598916e-03
752:-3.5020935010094440e-03
753:-3.1776123671037153e-03
754:-2.8193020088041866e-03
755:-3.6923050197847471e-03
756:-3.7130647148259782e-03
757:-3.5047084183213650e-03
758:-3.0560676277078501e-03
759:-2.6366047614676453e-03
760:-3.5731722551972400e-03
761:-3.5571813096658368e-03
762:-3.2635689852068489e-03
763:-2.7677393746303254e-03
764:-2.3812683781125380e-03
765:-3.2512626650504899e-03
766:-3.1611218250499210e-03
767:-2.8525743913280356e-03
768:-2.4510894136999064e-03
769:-2.1906787285045789e-03
770:-2.9122578610791387e-03
771:-2.7929918739208696e-03
772:-2.5439995492040814e-03
773:-2.2776567869222338e-03
774:-2.1266032552068803e-03
775:-2.5922329605007790e-03
776:-2.1665068006343053e-03
777:-1.6370324986112034e-03
778:-1.2539736788121489e-03
779:-1.0964937028336691e-03
780:-2.3988561291989363e-03
781:-2.0003224946346697e-03
782:-1.5857951407224485e-03
783:-1.3415386590877043e-03
784:-1.2549564044124588e-03
785:-2.1887431657643692e-03
786:-1.8959627444825669e-03
787:-1.6360902660927589e-03
788:-1.4965367892421585e-03
789:-1.4241914785302215e-03
790:-2.0782481777313518e-03
791:-1.9111856228504851e-03
792:-1.7488007597746781e-03
793:-1.6088940996473278e-03
794:-1.4830136115106746e-03
795:-2.0673803362064916e-03
796:-1.9640873265664520e-03
797:-1.8119139071262754e-03
798:-1.6183373061807013e-03
799:-1.4391899861078644e-03
800:-1.0499367250279851e-03
801:-9.6051750211781774e-04
802:-8.0538785174753672e-04
803:-6.0153802719829362e-04
804:-4.2285911259640392e-04
805:-1.2282633015422810e-03
806:-1.1424651121623094e-03
807:-9.3586025793772809e-04
808:-6.5752151965976877e-04
809:-4.4030047554029710e-04
810:-1.3818996080796381e-03
811:-1.2521086830192894e-03
812:-9.7769734604522180e-04
813:-6.6048557739812447e-04
814:-4.5228045535762113e-04
815:-1.3998745840400311e-03
816:-1.2108538766501284e-03
817:-9.0764387778008080e-04
818:-6.2522765885883165e-04
819:-4.7430300548626360e-04
820:-1.3296575388233908e-03
821:-1.1163422404956141e-03
822:-8.3312283447815167e-04
823:-6.1118509177447093e-04
824:-5.1014325030945991e-04
825:-3.1947416429801355e-04
826:-1.4613167874192573e-04
827:1.9712277321307801e-05
828:7.3178942008804535e-05
829:4.0636236253885564e-05
830:-3.2707926040333169e-04
831:-1.5528595758342229e-04
832:-2.2123519162892792e-05
833:-6.5542009598669404e-06
834:-5.0201951723361330e-05
835:-3.5785113099018535e-04
836:-2.2571473477540446e-04
837:-1.3730688676340274e-04
838:-1.2873805742873314e-04
839:-1.4287384337107237e-04
840:-4.1700241222383789e-04
841:-3.3694236070844777e-04
842:-2.7024394707980177e-04
843:-2.2439598485158652e-04
844:-1.8253581451267348e-04
845:-4.7660111235928252e-04
846:-4.2084375862587117e-04
847:-3.4460608742027329e-04
848:-2.5553126690479165e-04
849:-1.7625511405308916e-04
850:4.6047764411290064e-06
851:-4.2076868719116413e-05
852:-3.3400838593873303e-05
853:7.4475195419383076e-05
854:2.0953677906572401e-04
855:-8.3277212042539501e-05
856:-1.1029332579949431e-04
857:-6.1386345347733996e-05
858:6.6800507810513309e-05
859:1.8503217105439367e-04
860:-1.4884464021746755e-04
861:-1.3043505533026265e-04
862:-5.5172040933521790e-05
863:2.9011834980513714e-05
864:6.3765231492302863e-05
865:-1.5325942002371721e-04
866:-9.2805687483416281e-05
867:-2.4839730368608038e-05
868:-2.0996648091032250e-05
869:-7.8021724587230024e-05
870:-1.2910431850079806e-04
871:-5.5180356686152270e-05
872:-8.6389050638995946e-06
873:-5.1059114755517291e-05
874:-1.4012082766736591e-04
875:9.7283301452727466e-04
876:-4.5941114260840304e-05
877:-1.0614924335360394e-03
878:-1.6802897646726906e-03
879:-1.9721753045665105e-03
880:9.5379913275854924e-04
881:2.9005278482860386e-04
882:-6.0174688767668618e-04
883:-1.3603264121624615e-03
884:-1.7800016018889885e-03
885:3.6831153159835102e-04
886:2.0318949459097754e-04
887:-3.3745515078722056e-04
888:-1.0299071996805968e-03
889:-1.4731538998689400e-03
890:-3.8462780173180970e-04
891:-2.3607265483103259e-04
892:-4.1002851827401143e-04
893:-8.4460280413313341e-04
894:-1.1735237834298972e-03
895:-7.1044814799856558e-04
896:-5.4570480397054676e-04
897:-5.6744980044527021e-04
898:-7.9050270106226976e-04
899:-9.9457333937163529e-04
900:-2.1034079915043906e-03
901:-2.3450436604381970e-03
902:-2.6282968773627159e-03
903:-2.7709973262873590e-03
904:-2.7551278251320322e-03
905:-1.9578950183486944e-03
906:-2.2262200932829292e-03
907:-2.4419364395894204e-03
908:-2.4734865667719722e-03
909:-2.4044027507142945e-03
910:-1.6613192187715071e-03
911:-1.9161832585906672e-03
912:-2.0668487731696429e-03
913:-2.0430697295010579e-03
914:-1.9783358255810518e-03
915:-1.3219876051319688e-03
916:-1.5251936531964175e-03
917:-1.6569059992049085e-03
918:-1.6761258642241782e-03
919:-1.6732356833576310e-03
920:-1.0981421784213546e-03
921:-1.2580574111332704e-03
922:-1.4066879048087759e-03
923:-1.4949032339347849e-03
924:-1.5441325125831263e-03
925:-2.7069479751799480e-03
926:-2.5889502046318410e-03
927:-2.3959800631712233e-03
928:-2.2146197630987922e-03
929:-2.1178922544104273e-03
930:-2.3474991644784810e-03
931:-2.2547924191387565e-03
932:-2.1659108550124988e-03
933:-2.1123685924283155e-03
934:-2.0844065901712326e-03
935:-1.9441750616437513e-03
936:-1.9155956808744007e-03
937:-1.9361652242134730e-03
938:-1.9696810030527924e-03
939:-1.9648202769987758e-03
940:-1.6782681364473446e-03
941:-1.7070735706785840e-03
942:-1.7618579728829083e-03
943:-1.7783357236981878e-03
944:-1.7369599660525265e-03
945:-1.5705798154368451e-03
946:-1.6123233244615528e-03
947:-1.6333568059457061e-03
948:-1.5869393379678563e-03
949:-1.5051067092805687e-03
950:-2.0799581455504638e-03
951:-1.9947825211299795e-03
952:-1.8267805446602423e-03
953:-1.5933103258880059e-03
954:-1.3881910595931008e-03
955:-2.0680870476838167e-03
956:-1.9939496826882970e-03
957:-1.7920485496751362e-03
958:-1.5059877468741227e-03
959:-1.2776623826670258e-03
960:-1.9445287229007862e-03
961:-1.8514349143416910e-03
962:-1.6175009718411041e-03
963:-1.3219380783383978e-03
964:-1.1159345509934562e-03
965:-1.6929255607752317e-03
966:-1.5739873140452627e-03
967:-1.3524927469679166e-03
968:-1.1185360999141532e-03
969:-9.7676621443943605e-04
970:-1.4464649341051302e-03
971:-1.3259455281481329e-03
972:-1.1520288021057820e-03
973:-9.9575836821712087e-04
974:-9.0756853874045446e-04
975:-1.2696791633503817e-03
976:-1.0546415863914352e-03
977:-7.9661923209366800e-04
978:-6.1392221460245824e-04
979:-5.3688735322346155e-04
980:-1.1567753656863400e-03
981:-9.5714034561144071e-04
982:-7.5141902734094821e-04
983:-6.2725979599963862e-04
984:-5.7705377235563507e-04
985:-1.0181333104643127e-03
986:-8.6785462652105318e-04
987:-7.2755710851171577e-04
988:-6.4168276737851823e-04
989:-5.9111218322730039e-04
990:-9.1588073585077364e-04
991:-8.1944012619616143e-04
992:-7.1305102336620527e-04
993:-6.1678671942852416e-04
994:-5.3889564173220520e-04
995:-8.6964570270253250e-04
996:-7.9681859280556833e-04
997:-6.8499153791322387e-04
998:-5.5808836084335106e-04
999:-4.5764045441330298e-04
1000:-5.1195282583734196e-04
1001:-4.6094552035437329e-04
1002:-3.7064805747622653e-04
1003:-2.5694666018300909e-04
1004:-1.6306126559118686e-04
1005:-5.5786800697017486e-04
1006:-5.0329859574449779e-04
1007:-3.8645774683472952e-04
1008:-2.4278443730076674e-04
1009:-1.3905557204525165e-04
1010:-5.6182951917005972e-04
1011:-4.8539011222334860e-04
1012:-3.4432423351838781e-04
1013:-1.9914360365678861e-04
1014:-1.1516560667175640e-04
1015:-4.9172501870418039e-04
1016:-3.9487004579425415e-04
1017:-2.5883879425445708e-04
1018:-1.5148962385506772e-04
1019:-1.0718277423391707e-04
1020:-4.0194467807490509e-04
1021:-3.0419224406062013e-04
1022:-1.9522390006523888e-04
1023:-1.2997496033497708e-04
1024:-1.1232036281500984e-04
1025:-1.1130450424198828e-04
1026:-3.8059803299746711e-05
1027:-6.0705240873739739e-06
1028:-6.2122940814419804e-05
1029:-1.5017845621748680e-04
1030:-8.8377076513027289e-05
1031:-2.5790536436202447e-05
1032:-1.3113224309539987e-05
1033:-6.7452284121332626e-05
1034:-1.2764569708268822e-04
1035:-8.1740704470201778e-05
1036:-4.5244011676255275e-05
1037:-3.8225550457650098e-05
1038:-4.5495193392588142e-05
1039:-3.5175578025462924e-05
1040:-9.5850246788182838e-05
1041:-8.1459815338385993e-05
1042:-5.8534339162674581e-05
1043:-6.0284963587059364e-06
1044:6.2555797282180177e-05
1045:-1.1093117908244603e-04
1046:-9.9900624795540313e-05
1047:-5.6776531621950671e-05
1048:2.0721316179173233e-05
1049:9.4727645757094420e-05
1050:-7.4936914861546374e-04
1051:-6.5463417507106991e-04
1052:-6.5433613563338922e-04
1053:-7.8006747732182850e-04
1054:-9.1622953756810674e-04
1055:-5.4789513965422109e-04
1056:-6.3984310762604324e-04
1057:-6.9787440678228127e-04
1058:-7.3325082889367003e-04
1059:-7.8369304746929588e-04
1060:3.5194592056736586e-05
1061:-2.8268009451052554e-04
1062:-5.1089934109766063e-04
1063:-5.7616112110566050e-04
1064:-5.9548323738996788e-04
1065:3.4720497490038518e-04
1066:8.5928861750817495e-05
1067:-1.6242979128658090e-04
1068:-2.9504382778862827e-04
1069:-3.4426551047552417e-04
1070:5.2037510074153796e-05
1071:1.2168991489802280e-04
1072:8.9904193909904476e-05
1073:-2.0997613105983306e-05
1074:-9.6292913552412408e-05
1075:-9.9472911872488601e-04
1076:-1.1334906259860690e-03
1077:-1.2988710762948000e-03
1078:-1.4280121997343738e-03
1079:-1.5003800374887258e-03
1080:-8.2608041662265833e-04
1081:-9.3034452704607968e-04
1082:-1.1069029715445420e-03
1083:-1.2747349608439370e-03
1084:-1.3630114293112828e-03
1085:-6.1376736664285408e-04
1086:-6.7930396420259041e-04
1087:-8.1533480035589313e-04
1088:-9.4704782023421997e-04
1089:-1.0046737943994104e-03
1090:-3.6260696228080329e-04
1091:-3.9429683697418205e-04
1092:-4.2892392294878830e-04
1093:-4.4490256472008369e-04
1094:-4.4242683126366440e-04
1095:-1.2278645233401771e-04
1096:-1.2892097149420402e-04
1097:-6.3195546222371635e-05
1098:2.7997454917141541e-05
1099:6.8521799501536972e-05
1100:-1.5325361814221140e-03
1101:-1.5682970039043618e-03
1102:-1.5537409690764517e-03
1103:-1.4641860475997680e-03
1104:-1.3625422402111656e-03
1105:-1.3939207927382382e-03
1106:-1.4089005237429497e-03
1107:-1.3408295363277816e-03
1108:-1.2028643477307050e-03
1109:-1.0897916866101623e-03
1110:-1.0168779945910276e-03
1111:-1.0035484056811188e-03
1112:-9.2039607893400406e-04
1113:-8.0300475985206339e-04
1114:-7.2694629217803905e-04
1115:-4.3698846638412687e-04
1116:-4.2941646649658931e-04
1117:-4.2502757916188313e-04
1118:-4.2279247443421876e-04
1119:-4.1916639581434631e-04
1120:7.3260170547955166e-05
1121:3.9199655242584124e-05
1122:-7.4828484934294200e-05
1123:-1.9746637987008155e-04
1124:-2.4730073153602782e-04
1125:-1.3002140360883179e-03
1126:-1.1881748829623022e-03
1127:-1.0519942204189519e-03
1128:-9.4303818729886391e-04
1129:-8.8087697630800932e-04
1130:-1.0325309887820597e-03
1131:-9.4789947201105317e-04
1132:-8.7551865148022409e-04
1133:-8.3136181308463952e-04
1134:-7.9843914149409266e-04
1135:-6.9538299412010560e-04
1136:-6.5628218964410175e-04
1137:-6.3292801578621136e-04
1138:-6.1417750753823609e-04
1139:-5.8351102783979676e-04
1140:-4.1556583516111573e-04
1141:-3.9900386307585031e-04
1142:-3.5415574406011667e-04
1143:-2.9055479982627552e-04
1144:-2.3963598428742764e-04
1145:-2.5291797718857904e-04
1146:-2.2164047285325622e-04
1147:-1.1139220033530627e-04
1148:1.6126192524009899e-05
1149:7.9044093094342074e-05
1150:-8.5141531113063504e-04
1151:-7.8319835671229244e-04
1152:-6.5874080119917374e-04
1153:-5.1165604275699031e-04
1154:-4.0198404037324607e-04
1155:-7.7578833356883132e-04
1156:-7.0860286274669149e-04
1157:-5.6953579364651041e-04
1158:-4.0822085359962614e-04
1159:-3.0027530474612712e-04
1160:-5.5775366126475294e-04
1161:-4.9147987812534248e-04
1162:-3.7318917610484068e-04
1163:-2.5398684348124811e-04
1164:-1.8604287201849447e-04
1165:-2.1288397443501906e-04
1166:-1.7375367395601414e-04
1167:-1.4348943899730594e-04
1168:-1.3181788485236640e-04
1169:-1.2675102903781223e-04
1170:9.5116028948328911e-05
1171:8.5155864698314952e-05
1172:6.8214496357471468e-06
1173:-8.7128721522404157e-05
1174:-1.2569833959078742e-04
1175:-3.4514610155738750e-04
1176:-2.5362458854123228e-04
1177:-1.6633013176079058e-04
1178:-1.2495186130231733e-04
1179:-1.1755288485824076e-04
1180:-2.5026906777255288e-04
1181:-1.7937583238979003e-04
1182:-1.2856531044411546e-04
1183:-1.1541929405601417e-04
1184:-1.1353078227384502e-04
1185:-1.5896942429970154e-04
1186:-1.2341614938691229e-04
1187:-9.9593178579274815e-05
1188:-8.6759500737198898e-05
1189:-7.1339587815420053e-05
1190:-1.2294279083503216e-04
1191:-1.0675143375974101e-04
1192:-6.7488280577173083e-05
1193:-2.0539171595303604e-05
1194:9.7335400156657121e-06
1195:-1.2933082671218488e-04
1196:-1.0449455227003304e-04
1197:-2.3983953133028595e-05
1198:5.7807637473546413e-05
1199:8.4990802212168057e-05
1200:-1.1779044011840603e-04
1201:-1.0303983600726811e-04
1202:-4.8376163975541166e-05
1203:3.1233530374098193e-05
1204:9.1687465796566267e-05
1205:-1.1059512852551722e-04
1206:-8.6501625537535145e-05
1207:-2.5003382358952030e-05
1208:3.3694824223290719e-05
1209:5.2658411182312526e-05
1210:-5.8600447960637539e-05
1211:-2.9040888899823516e-05
1212:7.4979029803061440e-06
1213:9.5561061519592807e-06
1214:-2.4055839570229347e-05
1215:2.2484884281845729e-05
1216:3.0132381005855025e-05
1217:1.1777321915772953e-05
1218:-1.7634061183562236e-05
1219:-3.0242733231962457e-05
1220:8.2976856749596709e-05
1221:4.9808104707438400e-05
1222:-1.6554865457000164e-05
1223:-2.0763293749538936e-05
1224:5.9940602196015884e-05
1225:0.0000000000000000e+00
1226:0.0000000000000000e+00
1227:0.0000000000000000e+00
1228:0.0000000000000000e+00
1229:0.0000000000000000e+00
1230:0.0000000000000000e+00
1231:0.0000000000000000e+00
1232:0.0000000000000000e+00
1233:0.0000000000000000e+00
1234:0.0000000000000000e+00
1235:0.0000000000000000e+00
1236:0.0000000000000000e+00
1237:0.0000000000000000e+00
1238:0.0000000000000000e+00
1239:0.0000000000000000e+00
1240:0.0000000000000000e+00
1241:0.0000000000000000e+00
1242:0.0000000000000000e+00
1243:0.0000000000000000e+00
1244:0.0000000000000000e+00
1245:0.0000000000000000e+00
1246:0.0000000000000000e+00
1247:0.0000000000000000e+00
1248:0.0000000000000000e+00
1249:0.0000000000000000e+00
1250:0.0000000000000000e+00
1251:0.0000000000000000e+00
1252:0.0000000000000000e+00
1253:0.0000000000000000e+00
1254:0.0000000000000000e+00
1255:0.0000000000000000e+00
1256:0.0000000000000000e+00
1257:0.0000000000000000e+00
1258:0.0000000000000000e+00
1259:0.0000000000000000e+00
1260:0.0000000000000000e+00
1261:0.0000000000000000e+00
1262:0.0000000000000000e+00
1263:0.0000000000000000e+00
1264:0.0000000000000000e+00
1265:0.0000000000000000e+00
1266:0.0000000000000000e+00
1267:0.0000000000000000e+00
1268:0.0000000000000000e+00
1269:0.0000000000000000e+00
1270:0.0000000000000000e+00
1271:0.0000000000000000e+00
1272:0.0000000000000000e+00
1273:0.0000000000000000e+00
1274:0.0000000000000000e+00
1275:0.0000000000000000e+00
1276:0.0000000000000000e+00
1277:0.0000000000000000e+00
1278:0.0000000000000000e+00
1279:0.0000000000000000e+00
1280:0.0000000000000000e+00
1281:0.0000000000000000e+00
1282:0.0000000000000000e+00
1283:0.0000000000000000e+00
1284:0.0000000000000000e+00
1285:0.0000000000000000e+00
1286:0.0000000000000000e+00
1287:0.0000000000000000e+00
1288:0.0000000000000000e+00
1289:0.0000000000000000e+00
1290:0.0000000000000000e+00
1291:0.0000000000000000e+00
1292:0.0000000000000000e+00
1293:0.0000000000000000e+00
1294:0.0000000000000000e+00
1295:0.0000000000000000e+00
1296:0.0000000000000000e+00
1297:0.0000000000000000e+00
1298:0.0000000000000000e+00
1299:0.0000000000000000e+00
1300:0.0000000000000000e+00
1301:0.0000000000000000e+00
1302:0.0000000000000000e+00
1303:0.0000000000000000e+00
1304:0.0000000000000000e+00
1305:0.0000000000000000e+00
1306:0.0000000000000000e+00
1307:0.0000000000000000e+00
1308:0.0000000000000000e+00
1309:0.0000000000000000e+00
1310:0.0000000000000000e+00
1311:0.0000000000000000e+00
1312:0.0000000000000000e+00
1313:0.0000000000000000e+00
1314:0.0000000000000000e+00
1315:0.0000000000000000e+00
1316:0.0000000000000000e+00
1317:0.0000000000000000e+00
1318:0.0000000000000000e+00
1319:0.0000000000000000e+00
1320:0.0000000000000000e+00
1321:0.0000000000000000e+00
1322:0.0000000000000000e+00
1323:0.0000000000000000e+00
1324:0.0000000000000000e+00
1325:0.0000000000000000e+00
1326:0.0000000000000000e+00
1327:0.0000000000000000e+00
1328:0.0000000000000000e+00
1329:0.0000000000000000e+00
1330:0.0000000000000000e+00
1331:0.0000000000000000e+00
1332:0.0000000000000000e+00
1333:0.0000000000000000e+00
1334:0.0000000000000000e+00
1335:0.0000000000000000e+00
1336:0.0000000000000000e+00
1337:0.0000000000000000e+00
1338:0.0000000000000000e+00
1339:0.0000000000000000e+00
1340:0.0000000000000000e+00
1341:0.0000000000000000e+00
1342:0.0000000000000000e+00
1343:0.0000000000000000e+00
1344:0.0000000000000000e+00
1345:0.0000000000000000e+00
1346:0.0000000000000000e+00
1347:0.0000000000000000e+00
1348:0.0000000000000000e+00
1349:0.0000000000000000e+00
1350:0.0000000000000000e+00
1351:0.0000000000000000e+00
1352:0.0000000000000000e+00
1353:0.0000000000000000e+00
1354:0.0000000000000000e+00
1355:0.0000000000000000e+00
1356:0.0000000000000000e+00
1357:0.0000000000000000e+00
1358:0.0000000000000000e+00
1359:0.0000000000000000e+00
1360:0.0000000000000000e+00
1361:0.0000000000000000e+00
1362:0.0000000000000000e+00
1363:0.0000000000000000e+00
1364:0.0000000000000000e+00
1365:0.0000000000000000e+00
1366:0.0000000000000000e+00
1367:0.0000000000000000e+00
1368:0.0000000000000000e+00
1369:0.0000000000000000e+00
1370:0.0000000000000000e+00
1371:0.0000000000000000e+00
1372:0.0000000000000000e+00
1373:0.0000000000000000e+00
1374:0.0000000000000000e+00
1375:0.0000000000000000e+00
1376:0.0000000000000000e+00
1377:0.0000000000000000e+00
1378:0.0000000000000000e+00
1379:0.0000000000000000e+00
1380:0.0000000000000000e+00
1381:0.0000000000000000e+00
1382:0.0000000000000000e+00
1383:0.0000000000000000e+00
1384:0.0000000000000000e+00
1385:0.0000000000000000e+00
1386:0.0000000000000000e+00
1387:0.0000000000000000e+00
1388:0.0000000000000000e+00
1389:0.0000000000000000e+00
1390:0.0000000000000000e+00
1391:0.0000000000000000e+00
1392:0.0000000000000000e+00
1393:0.0000000000000000e+00
1394:0.0000000000000000e+00
1395:0.0000000000000000e+00
1396:0.0000000000000000e+00
1397:0.0000000000000000e+00
1398:0.0000000000000000e+00
1399:0.0000000000000000e+00
1400:0.0000000000000000e+00
1401:0.0000000000000000e+00
1402:0.0000000000000000e+00
1403:0.0000000000000000e+00
1404:0.0000000000000000e+00
1405:0.0000000000000000e+00
1406:0.0000000000000000e+00
1407:0.0000000000000000e+00
1408:0.0000000000000000e+00
1409:0.0000000000000000e+00
1410:0.0000000000000000e+00
1411:0.0000000000000000e+00
1412:0.0000000000000000e+00
1413:0.0000000000000000e+00
1414:0.0000000000000000e+00
1415:0.0000000000000000e+00
1416:0.0000000000000000e+00
1417:0.0000000000000000e+00
1418:0.0000000000000000e+00
1419:0.0000000000000000e+00
1420:0.0000000000000000e+00
1421:0.0000000000000000e+00
1422:0.0000000000000000e+00
1423:0.0000000000000000e+00
1424:0.0000000000000000e+00
1425:0.0000000000000000e+00
1426:0.0000000000000000e+00
1427:0.0000000000000000e+00
1428:0.0000000000000000e+00
1429:0.0000000000000000e+00
1430:0.0000000000000000e+00
1431:0.0000000000000000e+00
1432:0.0000000000000000e+00
1433:0.0000000000000000e+00
1434:0.0000000000000000e+00
1435:0.0000000000000000e+00
1436:0.0000000000000000e+00
1437:0.0000000000000000e+00
1438:0.0000000000000000e+00
1439:0.0000000000000000e+00
1440:0.0000000000000000e+00
1441:0.0000000000000000e+00
1442:0.0000000000000000e+00
1443:0.0000000000000000e+00
1444:0.0000000000000000e+00
1445:0.0000000000000000e+00
1446:0.0000000000000000e+00
1447:0.0000000000000000e+00
1448:0.0000000000000000e+00
1449:0.0000000000000000e+00
1450:0.0000000000000000e+00
1451:0.0000000000000000e+00
1452:0.0000000000000000e+00
1453:0.0000000000000000e+00
1454:0.0000000000000000e+00
1455:0.0000000000000000e+00
1456:0.0000000000000000e+00
1457:0.0000000000000000e+00
1458:0.0000000000000000e+00
1459:0.0000000000000000e+00
1460:0.0000000000000000e+00
1461:0.0000000000000000e+00
1462:0.0000000000000000e+00
1463:0.0000000000000000e+00
1464:0.0000000000000000e+00
1465:0.0000000000000000e+00
1466:0.0000000000000000e+00
1467:0.0000000000000000e+00
1468:0.0000000000000000e+00
1469:0.0000000000000000e+00
1470:0.0000000000000000e+00
1471:0.0000000000000000e+00
1472:0.0000000000000000e+00
1473:0.0000000000000000e+00
1474:0.0000000000000000e+00
1475:0.0000000000000000e+00
1476:0.0000000000000000e+00
1477:0.0000000000000000e+00
1478:0.0000000000000000e+00
1479:0.0000000000000000e+00
1480:0.0000000000000000e+00
1481:0.0000000000000000e+00
1482:0.0000000000000000e+00
1483:0.0000000000000000e+00
1484:0.0000000000000000e+00
1485:0.0000000000000000e+00
1486:0.0000000000000000e+00
1487:0.0000000000000000e+00
1488:0.0000000000000000e+00
1489:0.0000000000000000e+00
1490:0.0000000000000000e+00
1491:0.0000000000000000e+00
1492:0.0000000000000000e+00
1493:0.0000000000000000e+00
1494:0.0000000000000000e+00
1495:0.0000000000000000e+00
1496:0.0000000000000000e+00
1497:0.0000000000000000e+00
1498:0.0000000000000000e+00
1499:0.0000000000000000e+00
1500:0.0000000000000000e+00
1501:0.0000000000000000e+00
1502:0.0000000000000000e+00
1503:0.0000000000000000e+00
1504:0.0000000000000000e+00
1505:0.0000000000000000e+00
1506:0.0000000000000000e+00
1507:0.0000000000000000e+00
1508:0.0000000000000000e+00
1509:0.0000000000000000e+00
1510:0.0000000000000000e+00
1511:0.0000000000000000e+00
1512:0.0000000000000000e+00
1513:0.0000000000000000e+00
1514:0.0000000000000000e+00
1515:0.0000000000000000e+00
1516:0.0000000000000000e+00
1517:0.0000000000000000e+00
1518:0.0000000000000000e+00
1519:0.0000000000000000e+00
1520:0.0000000000000000e+00
1521:0.0000000000000000e+00
1522:0.0000000000000000e+00
1523:0.0000000000000000e+00
1524:0.0000000000000000e+00
1525:0.0000000000000000e+00
1526:0.0000000000000000e+00
1527:0.0000000000000000e+00
1528:0.0000000000000000e+00
1529:0.0000000000000000e+00
1530:0.0000000000000000e+00
1531:0.0000000000000000e+00
1532:0.0000000000000000e+00
1533:0.0000000000000000e+00
1534:0.0000000000000000e+00
1535:0.0000000000000000e+00
1536:0.0000000000000000e+00
1537:0.0000000000000000e+00
1538:0.0000000000000000e+00
1539:0.0000000000000000e+00
1540:0.0000000000000000e+00
1541:0.0000000000000000e+00
1542:0.0000000000000000e+00
1543:0.0000000000000000e+00
1544:0.0000000000000000e+00
1545:0.0000000000000000e+00
1546:0.0000000000000000e+00
1547:0.0000000000000000e+00
1548:0.0000000000000000e+00
1549:0.0000000000000000e+00
1550:0.0000000000000000e+00
1551:0.0000000000000000e+00
1552:0.0000000000000000e+00
1553:0.0000000000000000e+00
1554:0.0000000000000000e+00
1555:0.0000000000000000e+00
1556:0.0000000000000000e+00
1557:0.0000000000000000e+00
1558:0.0000000000000000e+00
1559:0.0000000000000000e+00
1560:0.0000000000000000e+00
1561:0.0000000000000000e+00
1562:0.0000000000000000e+00
1563:0.0000000000000000e+00
1564:0.0000000000000000e+00
1565:0.0000000000000000e+00
1566:0.0000000000000000e+00
1567:0.0000000000000000e+00
1568:0.0000000000000000e+00
1569:0.0000000000000000e+00
1570:0.0000000000000000e+00
1571:0.0000000000000000e+00
1572:0.0000000000000000e+00
1573:0.0000000000000000e+00
1574:0.0000000000000000e+00
1575:0.0000000000000000e+00
1576:0.0000000000000000e+00
1577:0.0000000000000000e+00
1578:0.0000000000000000e+00
1579:0.0000000000000000e+00
1580:0.0000000000000000e+00
1581:0.0000000000000000e+00
1582:0.0000000000000000e+00
1583:0.0000000000000000e+00
1584:0.0000000000000000e+00
1585:0.0000000000000000e+00
1586:0.0000000000000000e+00
1587:0.0000000000000000e+00
1588:0.0000000000000000e+00
1589:0.0000000000000000e+00
1590:0.0000000000000000e+00
1591:0.0000000000000000e+00
1592:0.0000000000000000e+00
1593:0.0000000000000000e+00
1594:0.0000000000000000e+00
1595:0.0000000000000000e+00
1596:0.0000000000000000e+00
1597:0.0000000000000000e+00
1598:0.0000000000000000e+00
1599:0.0000000000000000e+00
1600:0.0000000000000000e+00
1601:0.0000000000000000e+00
1602:0.0000000000000000e+00
1603:0.0000000000000000e+00
1604:0.0000000000000000e+00
1605:0.0000000000000000e+00
1606:0.0000000000000000e+00
1607:0.0000000000000000e+00
1608:0.0000000000000000e+00
1609:0.0000000000000000e+00
1610:0.0000000000000000e+00
1611:0.0000000000000000e+00
1612:0.0000000000000000e+00
1613:0.0000000000000000e+00
1614:0.0000000000000000e+00
1615:0.0000000000000000e+00
1616:0.0000000000000000e+00
1617:0.0000000000000000e+00
1618:0.0000000000000000e+00
1619:0.0000000000000000e+00
1620:0.0000000000000000e+00
1621:0.0000000000000000e+00
1622:0.0000000000000000e+00
1623:0.0000000000000000e+00
1624:0.0000000000000000e+00
1625:0.0000000000000000e+00
1626:0.0000000000000000e+00
1627:0.0000000000000000e+00
1628:0.0000000000000000e+00
1629:0.0000000000000000e+00
1630:0.0000000000000000e+00
1631:0.0000000000000000e+00
1632:0.0000000000000000e+00
1633:0.0000000000000000e+00
1634:0.0000000000000000e+00
1635:0.0000000000000000e+00
1636:0.0000000000000000e+00
1637:0.0000000000000000e+00
1638:0.0000000000000000e+00
1639:0.0000000000000000e+00
1640:0.0000000000000000e+00
1641:0.0000000000000000e+00
1642:0.0000000000000000e+00
1643:0.0000000000000000e+00
1644:0.0000000000000000e+00
1645:0.0000000000000000e+00
1646:0.0000000000000000e+00
1647:0.0000000000000000e+00
1648:0.0000000000000000e+00
1649:0.0000000000000000e+00
1650:0.0000000000000000e+00
1651:0.0000000000000000e+00
1652:0.0000000000000000e+00
1653:0.0000000000000000e+00
1654:0.0000000000000000e+00
1655:0.0000000000000000e+00
1656:0.0000000000000000e+00
1657:0.0000000000000000e+00
1658:0.0000000000000000e+00
1659:0.0000000000000000e+00
1660:0.0000000000000000e+00
1661:0.0000000000000000e+00
1662:0.0000000000000000e+00
1663:0.0000000000000000e+00
1664:0.0000000000000000e+00
1665:0.0000000000000000e+00
1666:0.0000000000000000e+00
1667:0.0000000000000000e+00
1668:0.0000000000000000e+00
1669:0.0000000000000000e+00
1670:0.0000000000000000e+00
1671:0.0000000000000000e+00
1672:0.0000000000000000e+00
1673:0.0000000000000000e+00
1674:0.0000000000000000e+00
1675:0.0000000000000000e+00
1676:0.0000000000000000e+00
1677:0.0000000000000000e+00
1678:0.0000000000000000e+00
1679:0.0000000000000000e+00
1680:0.0000000000000000e+00
1681:0.0000000000000000e+00
1682:0.0000000000000000e+00
1683:0.0000000000000000e+00
1684:0.0000000000000000e+00
1685:0.0000000000000000e+00
1686:0.0000000000000000e+00
1687:0.0000000000000000e+00
1688:0.0000000000000000e+00
1689:0.0000000000000000e+00
1690:0.0000000000000000e+00
1691:0.0000000000000000e+00
1692:0.0000000000000000e+00
1693:0.0000000000000000e+00
1694:0.0000000000000000e+00
1695:0.0000000000000000e+00
1696:0.0000000000000000e+00
1697:0.0000000000000000e+00
1698:0.0000000000000000e+00
1699:0.0000000000000000e+00
1700:0.0000000000000000e+00
1701:0.0000000000000000e+00
1702:0.0000000000000000e+00
1703:0.0000000000000000e+00
1704:0.0000000000000000e+00
1705:0.0000000000000000e+00
1706:0.0000000000000000e+00
1707:0.0000000000000000e+00
1708:0.0000000000000000e+00
1709:0.0000000000000000e+00
1710:0.0000000000000000e+00
1711:0.0000000000000000e+00
1712:0.0000000000000000e+00
1713:0.0000000000000000e+00
1714:0.0000000000000000e+00
1715:0.0000000000000000e+00
1716:0.0000000000000000e+00
1717:0.0000000000000000e+00
1718:0.0000000000000000e+00
1719:0.0000000000000000e+00
1720:0.0000000000000000e+00
1721:0.0000000000000000e+00
1722:0.0000000000000000e+00
1723:0.0000000000000000e+00
1724:0.0000000000000000e+00
1725:0.0000000000000000e+00
1726:0.0000000000000000e+00
1727:0.0000000000000000e+00
1728:0.0000000000000000e+00
1729:0.0000000000000000e+00
1730:0.0000000000000000e+00
1731:0.0000000000000000e+00
1732:0.0000000000000000e+00
1733:0.0000000000000000e+00
1734:0.0000000000000000e+00
1735:0.0000000000000000e+00
1736:0.0000000000000000e+00
1737:0.0000000000000000e+00
1738:0.0000000000000000e+00
1739:0.0000000000000000e+00
1740:0.0000000000000000e+00
1741:0.0000000000000000e+00
1742:0.0000000000000000e+00
1743:0.0000000000000000e+00
1744:0.0000000000000000e+00
1745:0.0000000000000000e+00
1746:0.0000000000000000e+00
1747:0.0000000000000000e+00
1748:0.0000000000000000e+00
1749:0.0000000000000000e+00
1750:0.0000000000000000e+00
1751:0.0000000000000000e+00
1752:0.0000000000000000e+00
1753:0.0000000000000000e+00
1754:0.0000000000000000e+00
1755:0.0000000000000000e+00
1756:0.0000000000000000e+00
1757:0.0000000000000000e+00
1758:0.0000000000000000e+00
1759:0.0000000000000000e+00
1760:0.0000000000000000e+00
1761:0.0000000000000000e+00
1762:0.0000000000000000e+00
1763:0.0000000000000000e+00
1764:0.0000000000000000e+00
1765:0.0000000000000000e+00
1766:0.0000000000000000e+00
1767:0.0000000000000000e+00
1768:0.0000000000000000e+00
1769:0.0000000000000000e+00
1770:0.0000000000000000e+00
1771:0.0000000000000000e+00
1772:0.0000000000000000e+00
1773:0.0000000000000000e+00
1774:0.0000000000000000e+00
1775:0.0000000000000000e+00
1776:0.0000000000000000e+00
1777:0.0000000000000000e+00
1778:0.0000000000000000e+00
1779:0.0000000000000000e+00
1780:0.0000000000000000e+00
1781:0.0000000000000000e+00
1782:0.0000000000000000e+00
1783:0.0000000000000000e+00
1784:0.0000000000000000e+00
1785:0.0000000000000000e+00
1786:0.0000000000000000e+00
1787:0.0000000000000000e+00
1788:0.0000000000000000e+00
1789:0.0000000000000000e+00
1790:0.0000000000000000e+00
1791:0.0000000000000000e+00
1792:0.0000000000000000e+00
1793:0.0000000000000000e+00
1794:0.0000000000000000e+00
1795:0.0000000000000000e+00
1796:0.0000000000000000e+00
1797:0.0000000000000000e+00
1798:0.0000000000000000e+00
1799:0.0000000000000000e+00
1800:0.0000000000000000e+00
1801:0.0000000000000000e+00
1802:0.0000000000000000e+00
1803:0.0000000000000000e+00
1804:0.0000000000000000e+00
1805:0.0000000000000000e+00
1806:0.0000000000000000e+00
1807:0.0000000000000000e+00
1808:0.0000000000000000e+00
1809:0.0000000000000000e+00
1810:0.0000000000000000e+00
1811:0.0000000000000000e+00
1812:0.0000000000000000e+00
1813:0.0000000000000000e+00
1814:0.0000000000000000e+00
1815:0.0000000000000000e+00
1816:0.0000000000000000e+00
1817:0.0000000000000000e+00
1818:0.0000000000000000e+00
1819:0.0000000000000000e+00
1820:0.0000000000000000e+00
1821:0.0000000000000000e+00
1822:0.0000000000000000e+00
1823:0.0000000000000000e+00
1824:0.0000000000000000e+00
1825:0.0000000000000000e+00
1826:0.0000000000000000e+00
1827:0.0000000000000000e+00
1828:0.0000000000000000e+00
1829:0.0000000000000000e+00
1830:0.0000000000000000e+00
1831:0.0000000000000000e+00
1832:0.0000000000000000e+00
1833:0.0000000000000000e+00
1834:0.0000000000000000e+00
1835:0.0000000000000000e+00
1836:0.0000000000000000e+00
1837:0.0000000000000000e+00
1838:0.0000000000000000e+00
1839:0.0000000000000000e+00
1840:0.0000000000000000e+00
1841:0.0000000000000000e+00
1842:0.0000000000000000e+00
1843:0.0000000000000000e+00
1844:0.0000000000000000e+00
1845:0.0000000000000000e+00
1846:0.0000000000000000e+00
1847:0.0000000000000000e+00
1848:0.0000000000000000e+00
1849:0.0000000000000000e+00
1850:0.0000000000000000e+00
1851:0.0000000000000000e+00
1852:0.0000000000000000e+00
1853:0.0000000000000000e+00
1854:0.0000000000000000e+00
1855:0.0000000000000000e+00
1856:0.0000000000000000e+00
1857:0.0000000000000000e+00
1858:0.0000000000000000e+00
1859:0.0000000000000000e+00
1860:0.0000000000000000e+00
1861:0.0000000000000000e+00
1862:0.0000000000000000e+00
1863:0.0000000000000000e+00
1864:0.0000000000000000e+00
1865:0.0000000000000000e+00
1866:0.0000000000000000e+00
1867:0.0000000000000000e+00
1868:0.0000000000000000e+00
1869:0.0000000000000000e+00
1870:0.0000000000000000e+00
1871:0.0000000000000000e+00
1872:0.0000000000000000e+00
1873:0.0000000000000000e+00
1874:0.0000000000000000e+00
1875:0.0000000000000000e+00
1876:0.0000000000000000e+00
1877:0.0000000000000000e+00
1878:0.0000000000000000e+00
1879:0.0000000000000000e+00
1880:0.0000000000000000e+00
1881:0.0000000000000000e+00
1882:0.0000000000000000e+00
1883:0.0000000000000000e+00
1884:0.0000000000000000e+00
1885:0.0000000000000000e+00
1886:0.0000000000000000e+00
1887:0.0000000000000000e+00
1888:0.0000000000000000e+00
1889:0.0000000000000000e+00
1890:0.0000000000000000e+00
1891:0.0000000000000000e+00
1892:0.0000000000000000e+00
1893:0.0000000000000000e+00
1894:0.0000000000000000e+00
1895:0.0000000000000000e+00
1896:0.0000000000000000e+00
1897:0.0000000000000000e+00
1898:0.0000000000000000e+00
1899:0.0000000000000000e+00
1900:0.0000000000000000e+00
1901:0.0000000000000000e+00
1902:0.0000000000000000e+00
1903:0.0000000000000000e+00
1904:0.0000000000000000e+00
1905:0.0000000000000000e+00
1906:0.0000000000000000e+00
1907:0.0000000000000000e+00
1908:0.0000000000000000e+00
1909:0.0000000000000000e+00
1910:0.0000000000000000e+00
1911:0.0000000000000000e+00
1912:0.0000000000000000e+00
1913:0.0000000000000000e+00
1914:0.0000000000000000e+00
1915:0.0000000000000000e+00
1916:0.0000000000000000e+00
1917:0.0000000000000000e+00
1918:0.0000000000000000e+00
1919:0.0000000000000000e+00
1920:0.0000000000000000e+00
1921:0.0000000000000000e+00
1922:0.0000000000000000e+00
1923:0.0000000000000000e+00
1924:0.0000000000000000e+00
1925:0.0000000000000000e+00
1926:0.0000000000000000e+00
1927:0.0000000000000000e+00
1928:0.0000000000000000e+00
1929:0.0000000000000000e+00
1930:0.0000000000000000e+00
1931:0.0000000000000000e+00
1932:0.0000000000000000e+00
1933:0.0000000000000000e+00
1934:0.0000000000000000e+00
1935:0.0000000000000000e+00
1936:0.0000000000000000e+00
1937:0.0000000000000000e+00
1938:0.0000000000000000e+00
1939:0.0000000000000000e+00
1940:0.0000000000000000e+00
1941:0.0000000000000000e+00
1942:0.0000000000000000e+00
1943:0.0000000000000000e+00
1944:0.0000000000000000e+00
1945:0.0000000000000000e+00
1946:0.0000000000000000e+00
1947:0.0000000000000000e+00
1948:0.0000000000000000e+00
1949:0.0000000000000000e+00
1950:0.0000000000000000e+00
1951:0.0000000000000000e+00
1952:0.0000000000000000e+00
1953:0.0000000000000000e+00
1954:0.0000000000000000e+00
1955:0.0000000000000000e+00
1956:0.0000000000000000e+00
1957:0.0000000000000000e+00
1958:0.0000000000000000e+00
1959:0.0000000000000000e+00
1960:0.0000000000000000e+00
1961:0.0000000000000000e+00
1962:0.0000000000000000e+00
1963:0.0000000000000000e+00
1964:0.0000000000000000e+00
1965:0.0000000000000000e+00
1966:0.0000000000000000e+00
1967:0.0000000000000000e+00
1968:0.0000000000000000e+00
1969:0.0000000000000000e+00
1970:0.0000000000000000e+00
1971:0.0000000000000000e+00
1972:0.0000000000000000e+00
1973:0.0000000000000000e+00
1974:0.0000000000000000e+00
1975:0.0000000000000000e+00
1976:0.0000000000000000e+00
1977:0.0000000000000000e+00
1978:0.0000000000000000e+00
1979:0.0000000000000000e+00
1980:0.0000000000000000e+00
1981:0.0000000000000000e+00
1982:0.0000000000000000e+00
1983:0.0000000000000000e+00
1984:0.0000000000000000e+00
1985:0.0000000000000000e+00
1986:0.0000000000000000e+00
1987:0.0000000000000000e+00
1988:0.0000000000000000e+00
1989:0.0000000000000000e+00
1990:0.0000000000000000e+00
1991:0.0000000000000000e+00
1992:0.0000000000000000e+00
1993:0.0000000000000000e+00
1994:0.0000000000000000e+00
1995:0.0000000000000000e+00
1996:0.0000000000000000e+00
1997:0.0000000000000000e+00
1998:0.0000000000000000e+00
1999:0.0000000000000000e+00
2000:0.0000000000000000e+00
2001:0.0000000000000000e+00
2002:0.0000000000000000e+00
2003:0.0000000000000000e+00
2004:0.0000000000000000e+00
2005:0.0000000000000000e+00
2006:0.0000000000000000e+00
2007:0.0000000000000000e+00
2008:0.0000000000000000e+00
2009:0.0000000000000000e+00
2010:0.0000000000000000e+00
2011:0.0000000000000000e+00
2012:0.0000000000000000e+00
2013:0.0000000000000000e+00
2014:0.0000000000000000e+00
2015:0.0000000000000000e+00
2016:0.0000000000000000e+00
2017:0.0000000000000000e+00
2018:0.0000000000000000e+00
2019:0.0000000000000000e+00
2020:0.0000000000000000e+00
2021:0.0000000000000000e+00
2022:0.0000000000000000e+00
2023:0.0000000000000000e+00
2024:0.0000000000000000e+00
2025:0.0000000000000000e+00
2026:0.0000000000000000e+00
2027:0.0000000000000000e+00
2028:0.0000000000000000e+00
2029:0.0000000000000000e+00
2030:0.0000000000000000e+00
2031:0.0000000000000000e+00
2032:0.0000000000000000e+00
2033:0.0000000000000000e+00
2034:0.0000000000000000e+00
2035:0.0000000000000000e+00
2036:0.0000000000000000e+00
2037:0.0000000000000000e+00
2038:0.0000000000000000e+00
2039:0.0000000000000000e+00
2040:0.0000000000000000e+00
2041:0.0000000000000000e+00
2042:0.0000000000000000e+00
2043:0.0000000000000000e+00
2044:0.0000000000000000e+00
2045:0.0000000000000000e+00
2046:0.0000000000000000e+00
2047:0.0000000000000000e+00
2048:0.0000000000000000e+00
2049:0.0000000000000000e+00
2050:0.0000000000000000e+00
2051:0.0000000000000000e+00
2052:0.0000000000000000e+00
2053:0.0000000000000000e+00
2054:0.0000000000000000e+00
2055:0.0000000000000000e+00
2056:0.0000000000000000e+00
2057:0.0000000000000000e+00
2058:0.0000000000000000e+00
2059:0.0000000000000000e+00
2060:0.0000000000000000e+00
2061:0.0000000000000000e+00
2062:0.0000000000000000e+00
2063:0.0000000000000000e+00
2064:0.0000000000000000e+00
2065:0.0000000000000000e+00
2066:0.0000000000000000e+00
2067:0.0000000000000000e+00
2068:0.0000000000000000e+00
2069:0.0000000000000000e+00
2070:0.0000000000000000e+00
2071:0.0000000000000000e+00
2072:0.0000000000000000e+00
2073:0.0000000000000000e+00
2074:0.0000000000000000e+00
2075:0.0000000000000000e+00
2076:0.0000000000000000e+00
2077:0.0000000000000000e+00
2078:0.0000000000000000e+00
2079:0.0000000000000000e+00
2080:0.0000000000000000e+00
2081:0.0000000000000000e+00
2082:0.0000000000000000e+00
2083:0.0000000000000000e+00
2084:0.0000000000000000e+00
2085:0.0000000000000000e+00
2086:0.0000000000000000e+00
2087:0.0000000000000000e+00
2088:0.0000000000000000e+00
2089:0.0000000000000000e+00
2090:0.0000000000000000e+00
2091:0.0000000000000000e+00
2092:0.0000000000000000e+00
2093:0.0000000000000000e+00
2094:0.0000000000000000e+00
2095:0.0000000000000000e+00
2096:0.0000000000000000e+00
2097:0.0000000000000000e+00
2098:0.0000000000000000e+00
2099:0.0000000000000000e+00
2100:0.0000000000000000e+00
2101:0.0000000000000000e+00
2102:0.0000000000000000e+00
2103:0.0000000000000000e+00
2104:0.0000000000000000e+00
2105:0.0000000000000000e+00
2106:0.0000000000000000e+00
2107:0.0000000000000000e+00
2108:0.0000000000000000e+00
2109:0.0000000000000000e+00
2110:0.0000000000000000e+00
2111:0.0000000000000000e+00
2112:0.0000000000000000e+00
2113:0.0000000000000000e+00
2114:0.0000000000000000e+00
2115:0.0000000000000000e+00
2116:0.0000000000000000e+00
2117:0.0000000000000000e+00
2118:0.0000000000000000e+00
2119:0.0000000000000000e+00
2120:0.0000000000000000e+00
2121:0.0000000000000000e+00
2122:0.0000000000000000e+00
2123:0.0000000000000000e+00
2124:0.0000000000000000e+00
2125:0.0000000000000000e+00
2126:0.0000000000000000e+00
2127:0.0000000000000000e+00
2128:0.0000000000000000e+00
2129:0.0000000000000000e+00
2130:0.0000000000000000e+00
2131:0.0000000000000000e+00
2132:0.0000000000000000e+00
2133:0.0000000000000000e+00
2134:0.0000000000000000e+00
2135:0.0000000000000000e+00
2136:0.0000000000000000e+00
2137:0.0000000000000000e+00
2138:0.0000000000000000e+00
2139:0.0000000000000000e+00
2140:0.0000000000000000e+00
2141:0.0000000000000000e+00
2142:0.0000000000000000e+00
2143:0.0000000000000000e+00
2144:0.0000000000000000e+00
2145:0.0000000000000000e+00
2146:0.0000000000000000e+00
2147:0.0000000000000000e+00
2148:0.0000000000000000e+00
2149:0.0000000000000000e+00
2150:0.0000000000000000e+00
2151:0.0000000000000000e+00
2152:0.0000000000000000e+00
2153:0.0000000000000000e+00
2154:0.0000000000000000e+00
2155:0.0000000000000000e+00
2156:0.0000000000000000e+00
2157:0.0000000000000000e+00
2158:0.0000000000000000e+00
2159:0.0000000000000000e+00
2160:0.0000000000000000e+00
2161:0.0000000000000000e+00
2162:0.0000000000000000e+00
2163:0.0000000000000000e+00
2164:0.0000000000000000e+00
2165:0.0000000000000000e+00
2166:0.0000000000000000e+00
2167:0.0000000000000000e+00
2168:0.0000000000000000e+00
2169:0.0000000000000000e+00
2170:0.0000000000000000e+00
2171:0.0000000000000000e+00
2172:0.0000000000000000e+00
2173:0.0000000000000000e+00
2174:0.0000000000000000e+00
2175:0.0000000000000000e+00
2176:0.0000000000000000e+00
2177:0.0000000000000000e+00
2178:0.0000000000000000e+00
2179:0.0000000000000000e+00
2180:0.0000000000000000e+00
2181:0.0000000000000000e+00
2182:0.0000000000000000e+00
2183:0.0000000000000000e+00
2184:0.0000000000000000e+00
2185:0.0000000000000000e+00
2186:0.0000000000000000e+00
2187:0.0000000000000000e+00
2188:0.0000000000000000e+00
2189:0.0000000000000000e+00
2190:0.0000000000000000e+00
2191:0.0000000000000000e+00
2192:0.0000000000000000e+00
2193:0.0000000000000000e+00
2194:0.0000000000000000e+00
2195:0.0000000000000000e+00
2196:0.0000000000000000e+00
2197:0.0000000000000000e+00
2198:0.0000000000000000e+00
2199:0.0000000000000000e+00
2200:0.0000000000000000e+00
2201:0.0000000000000000e+00
2202:0.0000000000000000e+00
2203:0.0000000000000000e+00
2204:0.0000000000000000e+00
2205:0.0000000000000000e+00
2206:0.0000000000000000e+00
2207:0.0000000000000000e+00
2208:0.0000000000000000e+00
2209:0.0000000000000000e+00
2210:0.0000000000000000e+00
2211:0.0000000000000000e+00
2212:0.0000000000000000e+00
2213:0.0000000000000000e+00
2214:0.0000000000000000e+00
2215:0.0000000000000000e+00
2216:0.0000000000000000e+00
2217:0.0000000000000000e+00
2218:0.0000000000000000e+00
2219:0.0000000000000000e+00
2220:0.0000000000000000e+00
2221:0.0000000000000000e+00
2222:0.0000000000000000e+00
2223:0.0000000000000000e+00
2224:0.0000000000000000e+00
2225:0.0000000000000000e+00
2226:0.0000000000000000e+00
2227:0.0000000000000000e+00
2228:0.0000000000000000e+00
2229:0.0000000000000000e+00
2230:0.0000000000000000e+00
2231:0.0000000000000000e+00
2232:0.0000000000000000e+00
2233:0.0000000000000000e+00
2234:0.0000000000000000e+00
2235:0.0000000000000000e+00
2236:0.0000000000000000e+00
2237:0.0000000000000000e+00
2238:0.0000000000000000e+00
2239:0.0000000000000000e+00
2240:0.0000000000000000e+00
2241:0.0000000000000000e+00
2242:0.0000000000000000e+00
2243:0.0000000000000000e+00
2244:0.0000000000000000e+00
2245:0.0000000000000000e+00
2246:0.0000000000000000e+00
2247:0.0000000000000000e+00
2248:0.0000000000000000e+00
2249:0.0000000000000000e+00
2250:0.0000000000000000e+00
2251:0.0000000000000000e+00
2252:0.0000000000000000e+00
2253:0.0000000000000000e+00
2254:0.0000000000000000e+00
2255:0.0000000000000000e+00
2256:0.0000000000000000e+00
2257:0.0000000000000000e+00
2258:0.0000000000000000e+00
2259:0.0000000000000000e+00
2260:0.0000000000000000e+00
2261:0.0000000000000000e+00
2262:0.0000000000000000e+00
2263:0.0000000000000000e+00
2264:0.0000000000000000e+00
2265:0.0000000000000000e+00
2266:0.0000000000000000e+00
2267:0.0000000000000000e+00
2268:0.0000000000000000e+00
2269:0.0000000000000000e+00
2270:0.0000000000000000e+00
2271:0.0000000000000000e+00
2272:0.0000000000000000e+00
2273:0.0000000000000000e+00
2274:0.0000000000000000e+00
2275:0.0000000000000000e+00
2276:0.0000000000000000e+00
2277:0.0000000000000000e+00
2278:0.0000000000000000e+00
2279:0.0000000000000000e+00
2280:0.0000000000000000e+00
2281:0.0000000000000000e+00
2282:0.0000000000000000e+00
2283:0.0000000000000000e+00
2284:0.0000000000000000e+00
2285:0.0000000000000000e+00
2286:0.0000000000000000e+00
2287:0.0000000000000000e+00
2288:0.0000000000000000e+00
2289:0.0000000000000000e+00
2290:0.0000000000000000e+00
2291:0.0000000000000000e+00
2292:0.0000000000000000e+00
2293:0.0000000000000000e+00
2294:0.0000000000000000e+00
2295:0.0000000000000000e+00
2296:0.0000000000000000e+00
2297:0.0000000000000000e+00
2298:0.0000000000000000e+00
2299:0.0000000000000000e+00
2300:0.0000000000000000e+00
2301:0.0000000000000000e+00
2302:0.0000000000000000e+00
2303:0.0000000000000000e+00
2304:0.0000000000000000e+00
2305:0.0000000000000000e+00
2306:0.0000000000000000e+00
2307:0.0000000000000000e+00
2308:0.0000000000000000e+00
2309:0.0000000000000000e+00
2310:0.0000000000000000e+00
2311:0.0000000000000000e+00
2312:0.0000000000000000e+00
2313:0.0000000000000000e+00
2314:0.0000000000000000e+00
2315:0.0000000000000000e+00
2316:0.0000000000000000e+00
2317:0.0000000000000000e+00
2318:0.0000000000000000e+00
2319:0.0000000000000000e+00
2320:0.0000000000000000e+00
2321:0.0000000000000000e+00
2322:0.0000000000000000e+00
2323:0.0000000000000000e+00
2324:0.0000000000000000e+00
2325:0.0000000000000000e+00
2326:0.0000000000000000e+00
2327:0.0000000000000000e+00
2328:0.0000000000000000e+00
2329:0.0000000000000000e+00
2330:0.0000000000000000e+00
2331:0.0000000000000000e+00
2332:0.0000000000000000e+00
2333:0.0000000000000000e+00
2334:0.0000000000000000e+00
2335:0.0000000000000000e+00
2336:0.0000000000000000e+00
2337:0.0000000000000000e+00
2338:0.0000000000000000e+00
2339:0.0000000000000000e+00
2340:0.0000000000000000e+00
2341:0.0000000000000000e+00
2342:0.0000000000000000e+00
2343:0.0000000000000000e+00
2344:0.0000000000000000e+00
2345:0.0000000000000000e+00
2346:0.0000000000000000e+00
2347:0.0000000000000000e+00
2348:0.0000000000000000e+00
2349:0.0000000000000000e+00
2350:0.0000000000000000e+00
2351:0.0000000000000000e+00
2352:0.0000000000000000e+00
2353:0.0000000000000000e+00
2354:0.0000000000000000e+00
2355:0.0000000000000000e+00
2356:0.0000000000000000e+00
2357:0.0000000000000000e+00
2358:0.0000000000000000e+00
2359:0.0000000000000000e+00
2360:0.0000000000000000e+00
2361:0.0000000000000000e+00
2362:0.0000000000000000e+00
2363:0.0000000000000000e+00
2364:0.0000000000000000e+00
2365:0.0000000000000000e+00
2366:0.0000000000000000e+00
2367:0.0000000000000000e+00
2368:0.0000000000000000e+00
2369:0.0000000000000000e+00
2370:0.0000000000000000e+00
2371:0.0000000000000000e+00
2372:0.0000000000000000e+00
2373:0.0000000000000000e+00
2374:0.0000000000000000e+00
2375:0.0000000000000000e+00
2376:0.0000000000000000e+00
2377:0.0000000000000000e+00
2378:0.0000000000000000e+00
2379:0.0000000000000000e+00
2380:0.0000000000000000e+00
2381:0.0000000000000000e+00
2382:0.0000000000000000e+00
2383:0.0000000000000000e+00
2384:0.0000000000000000e+00
2385:0.0000000000000000e+00
2386:0.0000000000000000e+00
2387:0.0000000000000000e+00
2388:0.0000000000000000e+00
2389:0.0000000000000000e+00
2390:0.0000000000000000e+00
2391:0.0000000000000000e+00
2392:0.0000000000000000e+00
2393:0.0000000000000000e+00
2394:0.0000000000000000e+00
2395:0.0000000000000000e+00
2396:0.0000000000000000e+00
2397:0.0000000000000000e+00
2398:0.0000000000000000e+00
2399:0.0000000000000000e+00
2400:0.0000000000000000e+00
2401:0.0000000000000000e+00
2402:0.0000000000000000e+00
2403:0.0000000000000000e+00
2404:0.0000000000000000e+00
2405:0.0000000000000000e+00
2406:0.0000000000000000e+00
2407:0.0000000000000000e+00
2408:0.0000000000000000e+00
2409:0.0000000000000000e+00
2410:0.0000000000000000e+00
2411:0.0000000000000000e+00
2412:0.0000000000000000e+00
2413:0.0000000000000000e+00
2414:0.0000000000000000e+00
2415:0.0000000000000000e+00
2416:0.0000000000000000e+00
2417:0.0000000000000000e+00
2418:0.0000000000000000e+00
2419:0.0000000000000000e+00
2420:0.0000000000000000e+00
2421:0.0000000000000000e+00
2422:0.0000000000000000e+00
2423:0.0000000000000000e+00
2424:0.0000000000000000e+00
2425:0.0000000000000000e+00
2426:0.0000000000000000e+00
2427:0.0000000000000000e+00
2428:0.0000000000000000e+00
2429:0.0000000000000000e+00
2430:0.0000000000000000e+00
2431:0.0000000000000000e+00
2432:0.0000000000000000e+00
2433:0.0000000000000000e+00
2434:0.0000000000000000e+00
2435:0.0000000000000000e+00
2436:0.0000000000000000e+00
2437:0.0000000000000000e+00
2438:0.0000000000000000e+00
2439:0.0000000000000000e+00
2440:0.0000000000000000e+00
2441:0.0000000000000000e+00
2442:0.0000000000000000e+00
2443:0.0000000000000000e+00
2444:0.0000000000000000e+00
2445:0.0000000000000000e+00
2446:0.0000000000000000e+00
2447:0.0000000000000000e+00
2448:0.0000000000000000e+00
2449:0.0000000000000000e+00
