x	y	stress_xx
 1.0000000000e+00	 0.0000000000e+00	-2.0282654288e-02
 9.9983382185e-01	 2.3018797407e-02	-6.5011770368e-03
 9.9932755992e-01	 4.6082152713e-02	 1.2686992174e-02
 9.9846971248e-01	 6.9177695236e-02	 3.8723326496e-02
 9.9724892368e-01	 9.2292602777e-02	 7.3022474271e-02
 9.9565401780e-01	 1.1541361525e-01	 1.1695731847e-01
 9.9367403434e-01	 1.3852705063e-01	 1.7184285031e-01
 9.9129826399e-01	 1.6161882325e-01	 2.3891893298e-01
 9.8851628533e-01	 1.8467446446e-01	 3.1933205937e-01
 9.8531800201e-01	 2.0767914567e-01	 4.1411623707e-01
 9.8169368030e-01	 2.3061770384e-01	 5.2417316512e-01
 1.0142857623e+00	 0.0000000000e+00	 1.5551070553e-01
 1.0141172102e+00	 2.3347638476e-02	 1.6760965422e-01
 1.0136037159e+00	 4.6740471396e-02	 1.8595869507e-01
 1.0127336135e+00	 7.0165951353e-02	 2.1162672223e-01
 1.0114953848e+00	 9.3611072970e-02	 2.4564568451e-01
 1.0098776945e+00	 1.1706238673e-01	 2.8899758619e-01
 1.0078694254e+00	 1.4050601516e-01	 3.4260058457e-01
 1.0054597154e+00	 1.6392767136e-01	 4.0729426300e-01
 1.0026379941e+00	 1.8731267998e-01	 4.8382418130e-01
 9.9939402083e-01	 2.1064600060e-01	 5.7282583055e-01
 9.9571792291e-01	 2.3391225356e-01	 6.7480814497e-01
 1.0285716130e+00	 0.0000000000e+00	 3.2154051834e-01
 1.0284006869e+00	 2.3676481579e-02	 3.3242372321e-01
 1.0278799602e+00	 4.7398794148e-02	 3.5027702735e-01
 1.0269976027e+00	 7.1154213578e-02	 3.7582635945e-01
 1.0257419340e+00	 9.4929551314e-02	 4.0975182386e-01
 1.0241014591e+00	 1.1871116841e-01	 4.5267655121e-01
 1.0220649043e+00	 1.4248499193e-01	 5.0515490794e-01
 1.0196212544e+00	 1.6623653374e-01	 5.6766014509e-01
 1.0167597901e+00	 1.8995091181e-01	 6.4057158608e-01
 1.0134701267e+00	 2.1361287387e-01	 7.2416147367e-01
 1.0097422522e+00	 2.3720682365e-01	 8.1858161682e-01
 1.0428575404e+00	 0.0000000000e+00	 4.7814777564e-01
 1.0426842402e+00	 2.4005326445e-02	 4.8814107977e-01
 1.0421562812e+00	 4.8057120433e-02	 5.0570597656e-01
 1.0412616685e+00	 7.2142481105e-02	 5.3125378117e-01
 1.0399885597e+00	 9.6248036731e-02	 5.6514229385e-01
 1.0383253001e+00	 1.2035995893e-01	 6.0766641140e-01
 1.0362604594e+00	 1.4446397931e-01	 6.5904833974e-01
 1.0337828694e+00	 1.6854540851e-01	 7.1942748905e-01
 1.0308816619e+00	 1.9258915780e-01	 7.8885014809e-01
 1.0275463081e+00	 2.1657976306e-01	 8.6725905105e-01
 1.0237666568e+00	 2.4050141141e-01	 9.5448296579e-01
 1.0571435327e+00	 0.0000000000e+00	 6.2565501480e-01
 1.0569678585e+00	 2.4334172807e-02	 6.3495093571e-01
 1.0564326670e+00	 4.8715449711e-02	 6.5230604430e-01
 1.0555257991e+00	 7.3130753127e-02	 6.7784420067e-01
 1.0542352502e+00	 9.7566528146e-02	 7.1162919774e-01
 1.0525492057e+00	 1.2200875696e-01	 7.5365704683e-01
 1.0504560790e+00	 1.4644297570e-01	 8.0384808746e-01
 1.0479445488e+00	 1.7085429379e-01	 8.6203900293e-01
 1.0450035980e+00	 1.9522741578e-01	 9.2797483494e-01
 1.0416225535e+00	 2.1954666575e-01	 1.0013011032e+00
 1.0377911252e+00	 2.4379601417e-01	 1.0815561473e+00
 1.0714295784e+00	 0.0000000000e+00	 7.6436754488e-01
 1.0712515302e+00	 2.4663020396e-02	 7.7303238289e-01
 1.0707091062e+00	 4.9373781447e-02	 7.9013447404e-01
 1.0697899831e+00	 7.4119028838e-02	 8.1553625214e-01
 1.0684819939e+00	 9.8885024482e-02	 8.4903462226e-01
 1.0667731645e+00	 1.2365756113e-01	 8.9035483603e-01
 1.0646517517e+00	 1.4842197947e-01	 9.3914439570e-01
 1.0621062811e+00	 1.7316318768e-01	 9.9496706779e-01
 1.0591255868e+00	 1.9786568362e-01	 1.0572970959e+00
 1.0556988515e+00	 2.2251357951e-01	 1.1255137107e+00
 1.0518156460e+00	 2.4709062922e-01	 1.1988960432e+00
 1.0857156657e+00	 0.0000000000e+00	 8.9457457571e-01
 1.0855352435e+00	 2.4991868945e-02	 9.0255505455e-01
 1.0849855870e+00	 5.0032115103e-02	 9.1924546097e-01
 1.0840542086e+00	 7.5107307430e-02	 9.4427176096e-01
 1.0827287791e+00	 1.0020352466e-01	 9.7718997595e-01
 1.0809971648e+00	 1.2530637012e-01	 1.0174815655e+00
 1.0788474657e+00	 1.5040098901e-01	 1.0645490254e+00
 1.0762680546e+00	 1.7547208830e-01	 1.1177117802e+00
 1.0732476168e+00	 2.0050395915e-01	 1.1762024559e+00
 1.0697751905e+00	 2.2548050193e-01	 1.2391636234e+00
 1.0658402077e+00	 2.5038525388e-01	 1.3056451056e+00
 1.1000017831e+00	 0.0000000000e+00	 1.0165502591e+00
 1.0998189868e+00	 2.5320718183e-02	 1.0236797353e+00
 1.0992620978e+00	 5.0690450140e-02	 1.0396903455e+00
 1.0983184641e+00	 7.6095588098e-02	 1.0639955319e+00
 1.0969755942e+00	 1.0152202761e-01	 1.0959353791e+00
 1.0952211949e+00	 1.2695518256e-01	 1.1347734244e+00
 1.0930432096e+00	 1.5238000271e-01	 1.1796938515e+00
 1.0904298580e+00	 1.7778099377e-01	 1.2297991469e+00
 1.0873696765e+00	 2.0314224021e-01	 1.2841082976e+00
 1.0838515591e+00	 2.2844743057e-01	 1.3415556145e+00
 1.0798647988e+00	 2.5367988546e-01	 1.4009902616e+00
 1.1142879188e+00	 0.0000000000e+00	 1.1305546502e+00
 1.1141027485e+00	 2.5649567844e-02	 1.1365589239e+00
 1.1135386269e+00	 5.1348786023e-02	 1.1515177919e+00
 1.1125827379e+00	 7.7083870033e-02	 1.1746551536e+00
 1.1112224277e+00	 1.0284053225e-01	 1.2051191006e+00
 1.1094452433e+00	 1.2860399713e-01	 1.2419800759e+00
 1.1072389717e+00	 1.5435901894e-01	 1.2842295683e+00
 1.1045916795e+00	 1.8008990221e-01	 1.3307794187e+00
 1.1014917543e+00	 2.0578052467e-01	 1.3804618132e+00
 1.0979279458e+00	 2.3141436302e-01	 1.4320300364e+00
 1.0938894079e+00	 2.5697452127e-01	 1.4841600563e+00
 1.1285740611e+00	 0.0000000000e+00	 1.2368345953e+00
 1.1283865168e+00	 2.5978417659e-02	 1.2413373540e+00
 1.1278151627e+00	 5.2007122212e-02	 1.2547739534e+00
 1.1268470183e+00	 7.8072152430e-02	 1.2762008177e+00
 1.1254692677e+00	 1.0415903751e-01	 1.3045970373e+00
 1.1236692983e+00	 1.3025281246e-01	 1.3388637999e+00
 1.1214347404e+00	 1.5633803610e-01	 1.3778244930e+00
 1.1187535076e+00	 1.8239881172e-01	 1.4202255503e+00
 1.1156138386e+00	 2.0841881035e-01	 1.4647381120e+00
 1.1120043390e+00	 2.3438129685e-01	 1.5099605633e+00
 1.1079140236e+00	 2.6026915861e-01	 1.5544220122e+00
 1.1428601985e+00	 0.0000000000e+00	 1.3356245540e+00
 1.1426702801e+00	 2.6307267358e-02	 1.3381524750e+00
 1.1420916935e+00	 5.2665458172e-02	 1.3495026250e+00
 1.1411112938e+00	 7.9060434482e-02	 1.3685851521e+00
 1.1397161028e+00	 1.0547754230e-01	 1.3942322327e+00
 1.1378933484e+00	 1.3190162721e-01	 1.4251986991e+00
 1.1356305041e+00	 1.5831705257e-01	 1.4601634592e+00
 1.1329153307e+00	 1.8470772042e-01	 1.4977317759e+00
 1.1297359180e+00	 2.1105709511e-01	 1.5364384697e+00
 1.1260807273e+00	 2.3734822965e-01	 1.5747521023e+00
 1.1219386343e+00	 2.6356379480e-01	 1.6110801872e+00
 9.8169368030e-01	 2.3061770384e-01	 5.2417316512e-01
 9.7763428640e-01	 2.5347307689e-01	 6.4898939701e-01
 9.7313068804e-01	 2.7623115241e-01	 7.8706388740e-01
 9.6817446680e-01	 2.9887597146e-01	 9.3767086328e-01
 9.6275771633e-01	 3.2139136714e-01	 1.1000760234e+00
 9.5687307865e-01	 3.4376100127e-01	 1.2735426929e+00
 9.5051377945e-01	 3.6596840296e-01	 1.4573382951e+00
 9.4367366227e-01	 3.8799700919e-01	 1.6507410758e+00
 9.3634722131e-01	 4.0983020693e-01	 1.8530470059e+00
 9.2852963255e-01	 4.3145137682e-01	 2.0635767780e+00
 9.2021678307e-01	 4.5284393814e-01	 2.2816828071e+00
 9.9571792291e-01	 2.3391225356e-01	 6.7480814497e-01
 9.9160053748e-01	 2.5709413304e-01	 7.8958946366e-01
 9.8703260179e-01	 2.8017732501e-01	 9.1603577940e-01
 9.8200557714e-01	 3.0314564256e-01	 1.0530888941e+00
 9.7651144426e-01	 3.2598268784e-01	 1.1996828681e+00
 9.7054274004e-01	 3.4867188923e-01	 1.3547528992e+00
 9.6409259340e-01	 3.7119654059e-01	 1.5172447069e+00
 9.5715475994e-01	 3.9353984225e-01	 1.6861243305e+00
 9.4972365518e-01	 4.1568494387e-01	 1.8603882356e+00
 9.4179438621e-01	 4.3761498865e-01	 2.0390736105e+00
 9.3336278133e-01	 4.5931315901e-01	 2.2212687183e+00
 1.0097422522e+00	 2.3720682365e-01	 8.1858161682e-01
 1.0055668749e+00	 2.6071521158e-01	 9.2395117715e-01
 1.0009346015e+00	 2.8412352201e-01	 1.0394856018e+00
 9.9583677301e-01	 3.0741534007e-01	 1.1638503689e+00
 9.9026525724e-01	 3.3057403692e-01	 1.2957041737e+00
 9.8421248596e-01	 3.5358280757e-01	 1.4337101041e+00
 9.7767149133e-01	 3.7642471054e-01	 1.5765474773e+00
 9.7063594097e-01	 3.9908270958e-01	 1.7229242260e+00
 9.6310017177e-01	 4.2153971700e-01	 1.8715897021e+00
 9.5505922188e-01	 4.4377863858e-01	 2.0213477476e+00
 9.4650886088e-01	 4.6578241988e-01	 2.1710698659e+00
 1.0237666568e+00	 2.4050141141e-01	 9.5448296579e-01
 1.0195332873e+00	 2.6433630954e-01	 1.0509117912e+00
 1.0148366758e+00	 2.8806974019e-01	 1.1560931257e+00
 1.0096680431e+00	 3.1168506048e-01	 1.2684697518e+00
 1.0040191440e+00	 3.3516541064e-01	 1.3864787602e+00
 9.9788230525e-01	 3.5849375226e-01	 1.5085646052e+00
 9.9125046212e-01	 3.8165290856e-01	 1.6331929484e+00
 9.8411719435e-01	 4.0462560667e-01	 1.7588651625e+00
 9.7647676014e-01	 4.2739452156e-01	 1.8841333401e+00
 9.6832412875e-01	 4.4994232160e-01	 2.0076156330e+00
 9.5965501098e-01	 4.7225171547e-01	 2.1280117260e+00
 1.0377911252e+00	 2.4379601417e-01	 1.0815561473e+00
 1.0334997632e+00	 2.6795742398e-01	 1.1693713485e+00
 1.0287388134e+00	 2.9201597632e-01	 1.2646094192e+00
 1.0234993761e+00	 3.1595480033e-01	 1.3655417354e+00
 1.0177730934e+00	 3.3975680526e-01	 1.4704351664e+00
 1.0115521867e+00	 3.6340471929e-01	 1.5775666056e+00
 1.0048294947e+00	 3.8688113036e-01	 1.6852383894e+00
 9.9759850906e-01	 4.1016852897e-01	 1.7917944616e+00
 9.8985340938e-01	 4.3324935275e-01	 1.8956371107e+00
 9.8158909597e-01	 4.5610603267e-01	 1.9952440869e+00
 9.7280122090e-01	 4.7872104050e-01	 2.0891858792e+00
 1.0518156460e+00	 2.4709062922e-01	 1.1988960432e+00
 1.0474662913e+00	 2.7157855194e-01	 1.2782884889e+00
 1.0426410028e+00	 2.9596222719e-01	 1.3638520884e+00
 1.0373307608e+00	 3.2022455611e-01	 1.4537358859e+00
 1.0315270941e+00	 3.4434821701e-01	 1.5460856622e+00
 1.0252221192e+00	 3.6831570466e-01	 1.6390595474e+00
 1.0184085780e+00	 3.9210937168e-01	 1.7308445957e+00
 1.0110798741e+00	 4.1571147196e-01	 1.8196741662e+00
 1.0032301086e+00	 4.3910420581e-01	 1.9038459276e+00
 9.9485411272e-01	 4.6226976674e-01	 1.9817402763e+00
 9.8594747989e-01	 4.8519038969e-01	 2.0518389334e+00
 1.0658402077e+00	 2.5038525388e-01	 1.3056451056e+00
 1.0614328601e+00	 2.7519969046e-01	 1.3766765885e+00
 1.0565432328e+00	 2.9990848956e-01	 1.4527008937e+00
 1.0511621858e+00	 3.2449432434e-01	 1.5317917111e+00
 1.0452811349e+00	 3.4893964216e-01	 1.6120207338e+00
 1.0388920916e+00	 3.7322670435e-01	 1.6914739715e+00
 1.0319877008e+00	 3.9733762825e-01	 1.7682690717e+00
 1.0245612785e+00	 4.2125443113e-01	 1.8405734874e+00
 1.0166068467e+00	 4.4495907594e-01	 1.9066232998e+00
 1.0081191681e+00	 4.6843351880e-01	 1.9647424767e+00
 9.9909377723e-01	 4.9165975774e-01	 2.0133623200e+00
 1.0798647988e+00	 2.5367988546e-01	 1.4009902616e+00
 1.0753994583e+00	 2.7882083658e-01	 1.4636001984e+00
 1.0704454920e+00	 3.0385476022e-01	 1.5300937073e+00
 1.0649936398e+00	 3.2876410154e-01	 1.5985141121e+00
 1.0590352046e+00	 3.5353107694e-01	 1.6669039985e+00
 1.0525620927e+00	 3.7813771435e-01	 1.7333218552e+00
 1.0455668522e+00	 4.0256589580e-01	 1.7958597446e+00
 1.0380427111e+00	 4.2679740193e-01	 1.8526618388e+00
 1.0299836130e+00	 4.5081395837e-01	 1.9019436243e+00
 1.0213842514e+00	 4.7459728379e-01	 1.9420115529e+00
 1.0122401022e+00	 4.9812913938e-01	 1.9712828852e+00
 1.0938894079e+00	 2.5697452127e-01	 1.4841600563e+00
 1.0893660743e+00	 2.8244198734e-01	 1.5381717589e+00
 1.0843477691e+00	 3.0780103594e-01	 1.5950227815e+00
 1.0788251116e+00	 3.3303388422e-01	 1.6527691847e+00
 1.0727892920e+00	 3.5812251762e-01	 1.7094675096e+00
 1.0662321113e+00	 3.8304873066e-01	 1.7631913851e+00
 1.0591460211e+00	 4.0779417006e-01	 1.8120491616e+00
 1.0515241611e+00	 4.3234037985e-01	 1.8542024073e+00
 1.0433603965e+00	 4.5666884831e-01	 1.8878850719e+00
 1.0346493517e+00	 4.8076105670e-01	 1.9114230948e+00
 1.0253864440e+00	 5.0459852932e-01	 1.9232542037e+00
 1.1079140236e+00	 2.6026915861e-01	 1.5544220122e+00
 1.1033326969e+00	 2.8606313980e-01	 1.5995485612e+00
 1.0982500526e+00	 3.1174731350e-01	 1.6465313006e+00
 1.0926565899e+00	 3.3730366890e-01	 1.6934803395e+00
 1.0865433858e+00	 3.6271396044e-01	 1.7385074180e+00
 1.0799021363e+00	 3.8795974926e-01	 1.7797421268e+00
 1.0727251962e+00	 4.1302244676e-01	 1.8153491268e+00
 1.0650056174e+00	 4.3788336035e-01	 1.8435462105e+00
 1.0567371862e+00	 4.6252374099e-01	 1.8626230122e+00
 1.0479144583e+00	 4.8692483249e-01	 1.8709601500e+00
 1.0385327919e+00	 5.1106792229e-01	 1.8670485522e+00
 1.1219386343e+00	 2.6356379480e-01	 1.6110801872e+00
 1.1172993146e+00	 2.8968429099e-01	 1.6469299376e+00
 1.1121523313e+00	 3.1569358968e-01	 1.6837101900e+00
 1.1064880633e+00	 3.4157345207e-01	 1.7196247126e+00
 1.1002974747e+00	 3.6730540165e-01	 1.7528799593e+00
 1.0935721566e+00	 3.9287076614e-01	 1.7817005561e+00
 1.0863043666e+00	 4.1825072163e-01	 1.8043457404e+00
 1.0784870689e+00	 4.4342633892e-01	 1.8191266005e+00
 1.0701139712e+00	 4.6837863162e-01	 1.8244239317e+00
 1.0611795601e+00	 4.9308860612e-01	 1.8187065008e+00
 1.0516791353e+00	 5.1753731298e-01	 1.8005494838e+00
 9.2021678307e-01	 4.5284393814e-01	 2.2816828071e+00
 9.1140466485e-01	 4.7399286534e-01	 2.5059964190e+00
 9.0209123535e-01	 4.9488028000e-01	 2.7311251555e+00
 8.9227467429e-01	 5.1548998767e-01	 2.9507344324e+00
 8.8195396682e-01	 5.3580602098e-01	 3.1589150535e+00
 8.7112892028e-01	 5.5581268770e-01	 3.3502564277e+00
 8.5980017780e-01	 5.7549461858e-01	 3.5199168588e+00
 8.4796922867e-01	 5.9483681473e-01	 3.6636896870e+00
 8.3563841542e-01	 6.1382469423e-01	 3.7780640733e+00
 8.2281093734e-01	 6.3244413771e-01	 3.8602792648e+00
 8.0949085058e-01	 6.5068153262e-01	 3.9083712544e+00
 9.3336278133e-01	 4.5931315901e-01	 2.2212687183e+00
 9.2442477528e-01	 4.8076421475e-01	 2.4065390415e+00
 9.1497829635e-01	 5.0195002206e-01	 2.5912709555e+00
 9.0502149822e-01	 5.2285415512e-01	 2.7701085481e+00
 8.9455335158e-01	 5.4346041845e-01	 2.9380691268e+00
 8.8357366100e-01	 5.6375289565e-01	 3.0906059418e+00
 8.7208307879e-01	 5.8371599792e-01	 3.2236683081e+00
 8.6008311553e-01	 6.0333451209e-01	 3.3337580733e+00
 8.4757614721e-01	 6.2259364793e-01	 3.4179813945e+00
 8.3456541884e-01	 6.4147908436e-01	 3.4740948260e+00
 8.2105504448e-01	 6.5997701436e-01	 3.5005447883e+00
 9.4650886088e-01	 4.6578241988e-01	 2.1710698659e+00
 9.3744496623e-01	 4.8753560604e-01	 2.3210436506e+00
 9.2786543703e-01	 5.0901980784e-01	 2.4691304821e+00
 9.1776840098e-01	 5.3021836810e-01	 2.6108643304e+00
 9.0715281425e-01	 5.5111486325e-01	 2.7421051251e+00
 8.9601847867e-01	 5.7169315271e-01	 2.8590919176e+00
 8.8436605574e-01	 5.9193742811e-01	 2.9584937379e+00
 8.7219707731e-01	 6.1183226200e-01	 3.0374572467e+00
 8.5951395283e-01	 6.3136265585e-01	 3.0936503001e+00
 8.4631997302e-01	 6.5051408687e-01	 3.1253005805e+00
 8.3261930989e-01	 6.6927255357e-01	 3.1312285052e+00
 9.5965501098e-01	 4.7225171547e-01	 2.1280117260e+00
 9.5046522705e-01	 4.9430703367e-01	 2.2461486574e+00
 9.4075264687e-01	 5.1608963156e-01	 2.3610925814e+00
 9.3051537214e-01	 5.3758262060e-01	 2.4691822998e+00
 9.1975234453e-01	 5.5876934913e-01	 2.5670400263e+00
 9.0846336313e-01	 5.7963345238e-01	 2.6516158917e+00
 8.9664909860e-01	 6.0015890241e-01	 2.7202304056e+00
 8.8431110409e-01	 6.2033005752e-01	 2.7706141187e+00
 8.7145182251e-01	 6.4013171083e-01	 2.8009437436e+00
 8.5807459028e-01	 6.5954913787e-01	 2.8098740228e+00
 8.4418363736e-01	 6.7856814267e-01	 2.7965646841e+00
 9.7280122090e-01	 4.7872104050e-01	 2.0891858792e+00
 9.6348554711e-01	 5.0107849211e-01	 2.1786740956e+00
 9.5363991535e-01	 5.2315948744e-01	 2.2637412154e+00
 9.4326240130e-01	 5.4494690662e-01	 2.3414493564e+00
 9.3235193215e-01	 5.6642386984e-01	 2.4091060325e+00
 9.2090830421e-01	 5.8757378818e-01	 2.4643008707e+00
 9.0893219736e-01	 6.0838041412e-01	 2.5049405189e+00
 8.9642518600e-01	 6.2882789170e-01	 2.5292811173e+00
 8.8338974652e-01	 6.4890080571e-01	 2.5359577141e+00
 8.6982926103e-01	 6.6858422998e-01	 2.5240100403e+00
 8.5574801746e-01	 6.8786377406e-01	 2.4929040980e+00
 9.8594747989e-01	 4.8519038969e-01	 2.0518389334e+00
 9.7650591578e-01	 5.0784997584e-01	 2.1156095108e+00
 9.6652723194e-01	 5.3022936973e-01	 2.1738424515e+00
 9.5600947806e-01	 5.5231122013e-01	 2.2242450206e+00
 9.4495156680e-01	 5.7407841913e-01	 2.2647362220e+00
 9.3335329176e-01	 5.9551415362e-01	 2.2934765669e+00
 9.2121534197e-01	 6.1660195653e-01	 2.3088962414e+00
 9.0853931314e-01	 6.3732575760e-01	 2.3097211556e+00
 8.9532771509e-01	 6.5766993333e-01	 2.2949963704e+00
 8.8158397567e-01	 6.7761935581e-01	 2.2641064242e+00
 8.6731244073e-01	 6.9715944016e-01	 2.2167921198e+00
 9.9909377723e-01	 4.9165975774e-01	 2.0133623200e+00
 9.8952632243e-01	 5.1462147931e-01	 2.0541028050e+00
 9.7941458612e-01	 5.3729927263e-01	 2.0883324796e+00
 9.6875659199e-01	 5.5967555511e-01	 2.1143287587e+00
 9.5755123821e-01	 5.8173299074e-01	 2.1305513325e+00
 9.4579831560e-01	 6.0345454222e-01	 2.1356657998e+00
 9.3349852241e-01	 6.2482352292e-01	 2.1285658801e+00
 9.2065347560e-01	 6.4582364829e-01	 2.1083937854e+00
 9.0726571848e-01	 6.6643908653e-01	 2.0745583483e+00
 8.9333872459e-01	 6.8665450801e-01	 2.0267505245e+00
 8.7887689772e-01	 7.0645513337e-01	 1.9649559231e+00
 1.0122401022e+00	 4.9812913938e-01	 1.9712828852e+00
 1.0025467564e+00	 5.2139299701e-01	 1.9914499490e+00
 9.9230196737e-01	 5.4436919038e-01	 2.0043065613e+00
 9.8150373269e-01	 5.6703990557e-01	 2.0086282951e+00
 9.7015093607e-01	 5.8938757843e-01	 2.0033475735e+00
 9.5824336558e-01	 6.1139494750e-01	 1.9875719550e+00
 9.4578172865e-01	 6.3304510657e-01	 1.9606011487e+00
 9.3276766351e-01	 6.5432155683e-01	 1.9219424293e+00
 9.1920374695e-01	 6.7520825814e-01	 1.8713241338e+00
 9.0509349820e-01	 6.9568967917e-01	 1.8087069430e+00
 8.9044137901e-01	 7.1575084610e-01	 1.7342926807e+00
 1.0253864440e+00	 5.0459852932e-01	 1.9232542037e+00
 1.0155672071e+00	 5.2816452339e-01	 1.9250854861e+00
 1.0051893652e+00	 5.5143911721e-01	 1.9190088291e+00
 9.9425088975e-01	 5.7440426547e-01	 1.9042288233e+00
 9.8275065011e-01	 5.9704217595e-01	 1.8800853759e+00
 9.7068843153e-01	 6.1933536297e-01	 1.8460674081e+00
 9.5806495065e-01	 6.4126670077e-01	 1.8018254099e+00
 9.4488186697e-01	 6.6281947627e-01	 1.7471825938e+00
 9.3114179073e-01	 6.8397744100e-01	 1.6821444067e+00
 9.1684828689e-01	 7.0472486193e-01	 1.6069061723e+00
 9.0200587513e-01	 7.2504657075e-01	 1.5218586691e+00
 1.0385327919e+00	 5.1106792229e-01	 1.8670485522e+00
 1.0285876639e+00	 5.3493605294e-01	 1.8525737563e+00
 1.0180767689e+00	 5.5850904733e-01	 1.8298228591e+00
 1.0069980528e+00	 5.8176862881e-01	 1.7983630354e+00
 9.9535037002e-01	 6.0469677703e-01	 1.7578789942e+00
 9.8313350329e-01	 6.2727578214e-01	 1.7081828264e+00
 9.7034817838e-01	 6.4948829881e-01	 1.6492228098e+00
 9.5699607607e-01	 6.7131739968e-01	 1.5810909775e+00
 9.4307984008e-01	 6.9274662796e-01	 1.5040292688e+00
 9.2860308106e-01	 7.1376004891e-01	 1.4184340978e+00
 9.1357037665e-01	 7.3434229975e-01	 1.3248592004e+00
 1.0516791353e+00	 5.1753731298e-01	 1.8005494838e+00
 1.0416081161e+00	 5.4170758012e-01	 1.7716007782e+00
 1.0309641682e+00	 5.6557897498e-01	 1.7342629508e+00
 1.0197452113e+00	 5.8913298958e-01	 1.6884018988e+00
 1.0079500855e+00	 6.1235137544e-01	 1.6339868894e+00
 9.9557857069e-01	 6.3521619854e-01	 1.5710972726e+00
 9.8263140181e-01	 6.5770989397e-01	 1.4999282267e+00
 9.6911028094e-01	 6.7981532011e-01	 1.4207953947e+00
 9.5501788526e-01	 7.0151581184e-01	 1.3341382798e+00
 9.4035787113e-01	 7.2279523272e-01	 1.2405222856e+00
 9.2513487412e-01	 7.4363802549e-01	 1.1406393088e+00
 8.0949085058e-01	 6.5068153262e-01	 3.9083712544e+00
 7.9568306243e-01	 6.6852381742e-01	 3.9220797855e+00
 7.8139331794e-01	 6.8595852703e-01	 3.9002067701e+00
 7.6662819543e-01	 7.0297382675e-01	 3.8403862375e+00
 7.5139509416e-01	 7.1955854692e-01	 3.7407859350e+00
 7.3570221656e-01	 7.3570221656e-01	 3.6001302386e+00
 7.1955854692e-01	 7.5139509416e-01	 3.4177165277e+00
 7.0297382675e-01	 7.6662819543e-01	 3.1934246984e+00
 6.8595852703e-01	 7.8139331794e-01	 2.9277196230e+00
 6.6852381742e-01	 7.9568306243e-01	 2.6216464971e+00
 6.5068153262e-01	 8.0949085058e-01	 2.2768191570e+00
 8.2105504448e-01	 6.5997701436e-01	 3.5005447883e+00
 8.0705000155e-01	 6.7807418980e-01	 3.4964702198e+00
 7.9255611717e-01	 6.9575796752e-01	 3.4604261806e+00
 7.7758006362e-01	 7.1301634377e-01	 3.3908556808e+00
 7.6212934589e-01	 7.2983798931e-01	 3.2866647958e+00
 7.4621228358e-01	 7.4621228358e-01	 3.1472386780e+00
 7.2983798931e-01	 7.6212934589e-01	 2.9724519176e+00
 7.1301634377e-01	 7.7758006362e-01	 2.7626730267e+00
 6.9575796752e-01	 7.9255611717e-01	 2.5187629350e+00
 6.7807418980e-01	 8.0705000155e-01	 2.2420675002e+00
 6.5997701436e-01	 8.2105504448e-01	 1.9344041521e+00
 8.3261930989e-01	 6.6927255357e-01	 3.1312285052e+00
 8.1841701096e-01	 6.8762462123e-01	 3.1100873654e+00
 8.0371898543e-01	 7.0555746861e-01	 3.0602513693e+00
 7.8853199954e-01	 7.2305892288e-01	 2.9808743029e+00
 7.7286366400e-01	 7.4011749526e-01	 2.8715088184e+00
 7.5672241559e-01	 7.5672241559e-01	 2.7321163517e+00
 7.4011749526e-01	 7.7286366400e-01	 2.5630721944e+00
 7.2305892288e-01	 7.8853199954e-01	 2.3651655804e+00
 7.0555746861e-01	 8.0371898543e-01	 2.1395947474e+00
 6.8762462123e-01	 8.1841701096e-01	 1.8879570299e+00
 6.6927255357e-01	 8.3261930989e-01	 1.6122341338e+00
 8.4418363736e-01	 6.7856814267e-01	 2.7965646841e+00
 8.2978408138e-01	 6.9717510391e-01	 2.7592841417e+00
 8.1488191359e-01	 7.1535702229e-01	 2.6962793409e+00
 7.9948399424e-01	 7.3310155590e-01	 2.6073209073e+00
 7.8359803972e-01	 7.5039705638e-01	 2.4925203580e+00
 7.6723260400e-01	 7.6723260400e-01	 2.3523347020e+00
 7.5039705638e-01	 7.8359803972e-01	 2.1875669210e+00
 7.3310155590e-01	 7.9948399424e-01	 1.9993622665e+00
 7.1535702229e-01	 8.1488191359e-01	 1.7892003979e+00
 6.9717510391e-01	 8.2978408138e-01	 1.5588834595e+00
 6.7856814267e-01	 8.4418363736e-01	 1.3105202767e+00
 8.5574801746e-01	 6.8786377406e-01	 2.4929040980e+00
 8.4115120351e-01	 7.0672563005e-01	 2.4406105855e+00
 8.2604489255e-01	 7.2515662055e-01	 2.3652910335e+00
 8.1043603877e-01	 7.4314423460e-01	 2.2672430081e+00
 7.9433246429e-01	 7.6067666427e-01	 2.1470530007e+00
 7.7774284023e-01	 7.7774284023e-01	 2.0055964607e+00
 7.6067666427e-01	 7.9433246429e-01	 1.8440343572e+00
 7.4314423460e-01	 8.1043603877e-01	 1.6638062738e+00
 7.2515662055e-01	 8.2604489255e-01	 1.4666201126e+00
 7.0672563005e-01	 8.4115120351e-01	 1.2544385427e+00
 6.8786377406e-01	 8.5574801746e-01	 1.0294623963e+00
 8.6731244073e-01	 6.9715944016e-01	 2.2167921198e+00
 8.5251836809e-01	 7.1627619184e-01	 2.1508007157e+00
 8.3720791319e-01	 7.3495625541e-01	 2.0642390624e+00
 8.2138812419e-01	 7.5318695080e-01	 1.9578455891e+00
 8.0506692893e-01	 7.7095631054e-01	 1.8326014884e+00
 7.8825311570e-01	 7.8825311570e-01	 1.6897269039e+00
 7.7095631054e-01	 8.0506692893e-01	 1.5306742216e+00
 7.5318695080e-01	 8.2138812419e-01	 1.3571185285e+00
 7.3495625541e-01	 8.3720791319e-01	 1.1709453539e+00
 7.1627619184e-01	 8.5251836809e-01	 9.7423586159e-01
 6.9715944016e-01	 8.6731244073e-01	 7.6924971233e-01
 8.7887689772e-01	 7.0645513337e-01	 1.9649559231e+00
 8.6388556582e-01	 7.2582678149e-01	 1.8867604339e+00
 8.4837096638e-01	 7.4475591884e-01	 1.7902364311e+00
 8.3234024156e-01	 7.6322969630e-01	 1.6764807502e+00
 8.1580142487e-01	 7.8123598680e-01	 1.5467924389e+00
 7.9876342183e-01	 7.9876342183e-01	 1.4026657965e+00
 7.8123598680e-01	 8.1580142487e-01	 1.2457810232e+00
 7.6322969630e-01	 8.3234024156e-01	 1.0779925869e+00
 7.4475591884e-01	 8.4837096638e-01	 9.0131545661e-01
 7.2582678149e-01	 8.6388556582e-01	 7.1790939703e-01
 7.0645513337e-01	 8.7887689772e-01	 5.3006155207e-01
 8.9044137901e-01	 7.1575084610e-01	 1.7342926807e+00
 8.7525278742e-01	 7.3537739119e-01	 1.6455563670e+00
 8.5953404301e-01	 7.5455560285e-01	 1.5405461206e+00
 8.4329238192e-01	 7.7327246288e-01	 1.4206381595e+00
 8.2653594336e-01	 7.9151568464e-01	 1.2873757880e+00
 8.0927375003e-01	 8.0927375003e-01	 1.1424599643e+00
 7.9151568464e-01	 8.2653594336e-01	 9.8773791295e-01
 7.7327246288e-01	 8.4329238192e-01	 8.2518992570e-01
 7.5455560285e-01	 8.5953404301e-01	 6.5691452635e-01
 7.3537739119e-01	 8.7525278742e-01	 4.8511221107e-01
 7.1575084610e-01	 8.9044137901e-01	 3.1206799924e-01
 9.0200587513e-01	 7.2504657075e-01	 1.5218586691e+00
 8.8662002361e-01	 7.4492801315e-01	 1.4244055672e+00
 8.7069713397e-01	 7.6435529944e-01	 1.3125714801e+00
 8.5424453633e-01	 7.8331524234e-01	 1.1879362394e+00
 8.3727047563e-01	 8.0179539567e-01	 1.0522168898e+00
 8.1978409171e-01	 8.1978409171e-01	 9.0725643663e-01
 8.0179539567e-01	 8.3727047563e-01	 7.5501100755e-01
 7.8331524234e-01	 8.5424453633e-01	 5.9753559488e-01
 7.6435529944e-01	 8.7069713397e-01	 4.3696857583e-01
 7.4492801315e-01	 8.8662002361e-01	 2.7551522997e-01
 7.2504657075e-01	 9.0200587513e-01	 1.1543049262e-01
 9.1357037665e-01	 7.3434229975e-01	 1.3248592004e+00
 8.9798726510e-01	 7.5447863957e-01	 1.2206659943e+00
 8.8186023014e-01	 7.7415500060e-01	 1.1038473453e+00
 8.6519669586e-01	 7.9335802650e-01	 9.7611402131e-01
 8.4800501290e-01	 8.1207511149e-01	 8.3928921613e-01
 8.3029443830e-01	 8.3029443830e-01	 6.9529610968e-01
 8.1207511149e-01	 8.4800501290e-01	 5.4614414401e-01
 7.9335802650e-01	 8.6519669586e-01	 3.9391419964e-01
 7.7415500060e-01	 8.8186023014e-01	 2.4074287881e-01
 7.5447863957e-01	 8.9798726510e-01	 8.8806119926e-02
 7.3434229975e-01	 9.1357037665e-01	-5.9697620575e-02
 9.2513487412e-01	 7.4363802549e-01	 1.1406393088e+00
 9.0935450262e-01	 7.6402926264e-01	 1.0318277105e+00
 8.9302332240e-01	 7.8395469832e-01	 9.1203182372e-01
 8.7614885155e-01	 8.0340080713e-01	 7.8302361121e-01
 8.5873954642e-01	 8.2235482372e-01	 6.4666760365e-01
 8.4080478121e-01	 8.4080478121e-01	 5.0490788424e-01
 8.2235482372e-01	 8.5873954642e-01	 3.5975402744e-01
 8.0340080713e-01	 8.7614885155e-01	 2.1326618403e-01
 7.8395469832e-01	 8.9302332240e-01	 6.7539522192e-02
 7.6402926264e-01	 9.0935450262e-01	-7.5311753128e-02
 7.4363802549e-01	 9.2513487412e-01	-2.1317057284e-01
 6.5068153262e-01	 8.0949085058e-01	 2.2768191570e+00
 6.3244413771e-01	 8.2281093734e-01	 1.8976469651e+00
 6.1382469423e-01	 8.3563841542e-01	 1.4917626948e+00
 5.9483681473e-01	 8.4796922867e-01	 1.0656493871e+00
 5.7549461858e-01	 8.5980017780e-01	 6.2525056920e-01
 5.5581268770e-01	 8.7112892028e-01	 1.7593889312e-01
 5.3580602098e-01	 8.8195396682e-01	-2.7750736347e-01
 5.1548998767e-01	 8.9227467429e-01	-7.3091991375e-01
 4.9488028000e-01	 9.0209123535e-01	-1.1807483229e+00
 4.7399286534e-01	 9.1140466485e-01	-1.6240603766e+00
 4.5284393814e-01	 9.2021678307e-01	-2.0585353424e+00
 6.5997701436e-01	 8.2105504448e-01	 1.9344041521e+00
 6.4147908436e-01	 8.3456541884e-01	 1.5975999836e+00
 6.2259364793e-01	 8.4757614721e-01	 1.2359967709e+00
 6.0333451209e-01	 8.6008311553e-01	 8.5522111835e-01
 5.8371599792e-01	 8.7208307879e-01	 4.6046517817e-01
 5.6375289565e-01	 8.8357366100e-01	 5.6458317081e-02
 5.4346041845e-01	 8.9455335158e-01	-3.5255475027e-01
 5.2285415512e-01	 9.0502149822e-01	-7.6282931153e-01
 5.0195002206e-01	 9.1497829635e-01	-1.1711295623e+00
 4.8076421475e-01	 9.2442477528e-01	-1.5747312538e+00
 4.5931315901e-01	 9.3336278133e-01	-1.9714183725e+00
 6.6927255357e-01	 8.3261930989e-01	 1.6122341338e+00
 6.5051408687e-01	 8.4631997302e-01	 1.3121512287e+00
 6.3136265585e-01	 8.5951395283e-01	 9.8932206153e-01
 6.1183226200e-01	 8.7219707731e-01	 6.4860029504e-01
 5.9193742811e-01	 8.8436605574e-01	 2.9449838134e-01
 5.7169315271e-01	 8.9601847867e-01	-6.8837982077e-02
 5.5111486325e-01	 9.0715281425e-01	-4.3765017746e-01
 5.3021836810e-01	 9.1776840098e-01	-8.0858169584e-01
 5.0901980784e-01	 9.2786543703e-01	-1.1786878942e+00
 4.8753560604e-01	 9.3744496623e-01	-1.5454405998e+00
 4.6578241988e-01	 9.4650886088e-01	-1.9067277683e+00
 6.7856814267e-01	 8.4418363736e-01	 1.3105202767e+00
 6.5954913787e-01	 8.5807459028e-01	 1.0421559905e+00
 6.4013171083e-01	 8.7145182251e-01	 7.5317776447e-01
 6.2033005752e-01	 8.8431110409e-01	 4.4774743294e-01
 6.0015890241e-01	 8.9664909860e-01	 1.2976749987e-01
 5.7963345238e-01	 9.0846336313e-01	-1.9714185416e-01
 5.5876934913e-01	 9.1975234453e-01	-5.2966164809e-01
 5.3758262060e-01	 9.3051537214e-01	-8.6478876074e-01
 5.1608963156e-01	 9.4075264687e-01	-1.1998463578e+00
 4.9430703367e-01	 9.5046522705e-01	-1.5324901464e+00
 4.7225171547e-01	 9.5965501098e-01	-1.8607105896e+00
 6.8786377406e-01	 8.5574801746e-01	 1.0294623963e+00
 6.6858422998e-01	 8.6982926103e-01	 7.8842338870e-01
 6.4890080571e-01	 8.8338974652e-01	 5.2892534865e-01
 6.2882789170e-01	 8.9642518600e-01	 2.5451714345e-01
 6.0838041412e-01	 9.0893219736e-01	-3.1440738833e-02
 5.8757378818e-01	 9.2090830421e-01	-3.2579686638e-01
 5.6642386984e-01	 9.3235193215e-01	-6.2562638622e-01
 5.4494690662e-01	 9.4326240130e-01	-9.2824527476e-01
 5.2315948744e-01	 9.5363991535e-01	-1.2312212640e+00
 5.0107849211e-01	 9.6348554711e-01	-1.5323814537e+00
 4.7872104050e-01	 9.7280122090e-01	-1.8298166795e+00
 6.9715944016e-01	 8.6731244073e-01	 7.6924971233e-01
 6.7761935581e-01	 8.8158397567e-01	 5.5171945566e-01
 6.5766993333e-01	 8.9532771509e-01	 3.1785374101e-01
 6.3732575760e-01	 9.0853931314e-01	 7.0665197800e-02
 6.1660195653e-01	 9.2121534197e-01	-1.8696149160e-01
 5.9551415362e-01	 9.3335329176e-01	-4.5228818640e-01
 5.7407841913e-01	 9.4495156680e-01	-7.2273955369e-01
 5.5231122013e-01	 9.5600947806e-01	-9.9591687467e-01
 5.3022936973e-01	 9.6652723194e-01	-1.2696093093e+00
 5.0784997584e-01	 9.7650591578e-01	-1.5418025880e+00
 4.8519038969e-01	 9.8594747989e-01	-1.8106851463e+00
 7.0645513337e-01	 8.7887689772e-01	 5.3006155207e-01
 6.8665450801e-01	 8.9333872459e-01	 3.3276997713e-01
 6.6643908653e-01	 9.0726571848e-01	 1.2118410407e-01
 6.4582364829e-01	 9.2065347560e-01	-1.0214496578e-01
 6.2482352292e-01	 9.3349852241e-01	-3.3474377702e-01
 6.0345454222e-01	 9.4579831560e-01	-5.7423326332e-01
 5.8173299074e-01	 9.5755123821e-01	-8.1834385701e-01
 5.5967555511e-01	 9.6875659199e-01	-1.0649288223e+00
 5.3729927263e-01	 9.7941458612e-01	-1.3119757075e+00
 5.1462147931e-01	 9.8952632243e-01	-1.5576158509e+00
 4.9165975774e-01	 9.9909377723e-01	-1.8001319113e+00
 7.1575084610e-01	 8.9044137901e-01	 3.1206799924e-01
 6.9568967917e-01	 9.0509349820e-01	 1.3226311136e-01
 6.7520825814e-01	 9.1920374695e-01	-5.9925758425e-02
 6.5432155683e-01	 9.3276766351e-01	-2.6233624165e-01
 6.3304510657e-01	 9.4578172865e-01	-4.7284307756e-01
 6.1139494750e-01	 9.5824336558e-01	-6.8937323430e-01
 5.8938757843e-01	 9.7015093607e-01	-9.0991996329e-01
 5.6703990557e-01	 9.8150373269e-01	-1.1325556365e+00
 5.4436919038e-01	 9.9230196737e-01	-1.3554432445e+00
 5.2139299701e-01	 1.0025467564e+00	-1.5768464631e+00
 4.9812913938e-01	 1.0122401022e+00	-1.7951382256e+00
 7.2504657075e-01	 9.0200587513e-01	 1.1543049262e-01
 7.0472486193e-01	 9.1684828689e-01	-4.9148192879e-02
 6.8397744100e-01	 9.3114179073e-01	-2.2437733455e-01
 6.6281947627e-01	 9.4488186697e-01	-4.0841231750e-01
 6.4126670077e-01	 9.5806495065e-01	-5.9941451028e-01
 6.1933536297e-01	 9.7068843153e-01	-7.9556499162e-01
 5.9704217595e-01	 9.8275065011e-01	-9.9507765295e-01
 5.7440426547e-01	 9.9425088975e-01	-1.1962115222e+00
 5.5143911721e-01	 1.0051893652e+00	-1.3972821746e+00
 5.2816452339e-01	 1.0155672071e+00	-1.5966721190e+00
 5.0459852932e-01	 1.0253864440e+00	-1.7928400709e+00
 7.3434229975e-01	 9.1357037665e-01	-5.9697620575e-02
 7.1376004891e-01	 9.2860308106e-01	-2.1084396190e-01
 6.9274662796e-01	 9.4307984008e-01	-3.7112764577e-01
 6.7131739968e-01	 9.5699607607e-01	-5.3895255544e-01
 6.4948829881e-01	 9.7034817838e-01	-7.1270651584e-01
 6.2727578214e-01	 9.8313350329e-01	-8.9077385176e-01
 6.0469677703e-01	 9.9535037002e-01	-1.0715476437e+00
 5.8176862881e-01	 1.0069980528e+00	-1.2534415256e+00
 5.5850904733e-01	 1.0180767689e+00	-1.4349008840e+00
 5.3493605294e-01	 1.0285876639e+00	-1.6144133333e+00
 5.1106792229e-01	 1.0385327919e+00	-1.7905183631e+00
 7.4363802549e-01	 9.2513487412e-01	-2.1317057284e-01
 7.2279523272e-01	 9.4035787113e-01	-3.5223513008e-01
 7.0151581184e-01	 9.5501788526e-01	-4.9918577025e-01
 6.7981532011e-01	 9.6911028094e-01	-6.5260725671e-01
 6.5770989397e-01	 9.8263140181e-01	-8.1105502041e-01
 6.3521619854e-01	 9.9557857069e-01	-9.7306677393e-01
 6.1235137544e-01	 1.0079500855e+00	-1.1371740273e+00
 5.8913298958e-01	 1.0197452113e+00	-1.3019133526e+00
 5.6557897498e-01	 1.0309641682e+00	-1.4658372534e+00
 5.4170758012e-01	 1.0416081161e+00	-1.6275245110e+00
 5.1753731298e-01	 1.0516791353e+00	-1.7855898908e+00
 4.5284393814e-01	 9.2021678307e-01	-2.0585353424e+00
 4.3145137682e-01	 9.2852963255e-01	-2.4813487283e+00
 4.0983020693e-01	 9.3634722131e-01	-2.8884721669e+00
 3.8799700919e-01	 9.4367366227e-01	-3.2765962115e+00
 3.6596840296e-01	 9.5051377945e-01	-3.6430109798e+00
 3.4376100127e-01	 9.5687307865e-01	-3.9855906625e+00
 3.2139136714e-01	 9.6275771633e-01	-4.3027727512e+00
 2.9887597146e-01	 9.6817446680e-01	-4.5935326473e+00
 2.7623115241e-01	 9.7313068804e-01	-4.8573543375e+00
 2.5347307689e-01	 9.7763428640e-01	-5.0941978273e+00
 2.3061770384e-01	 9.8169368030e-01	-5.3044640169e+00
 4.5931315901e-01	 9.3336278133e-01	-1.9714183725e+00
 4.3761498865e-01	 9.4179438621e-01	-2.3584704031e+00
 4.1568494387e-01	 9.4972365518e-01	-2.7322097913e+00
 3.9353984225e-01	 9.5715475994e-01	-3.0896874772e+00
 3.7119654059e-01	 9.6409259340e-01	-3.4284914548e+00
 3.4867188923e-01	 9.7054274004e-01	-3.7467327506e+00
 3.2598268784e-01	 9.7651144426e-01	-4.0430266828e+00
 3.0314564256e-01	 9.8200557714e-01	-4.3164699963e+00
 2.8017732501e-01	 9.8703260179e-01	-4.5666144899e+00
 2.5709413304e-01	 9.9160053748e-01	-4.7934377544e+00
 2.3391225356e-01	 9.9571792291e-01	-4.9973116373e+00
 4.6578241988e-01	 9.4650886088e-01	-1.9067277683e+00
 4.4377863858e-01	 9.5505922188e-01	-2.2600490263e+00
 4.2153971700e-01	 9.6310017177e-01	-2.6021666730e+00
 3.9908270958e-01	 9.7063594097e-01	-2.9304614552e+00
 3.7642471054e-01	 9.7767149133e-01	-3.2427930058e+00
 3.5358280757e-01	 9.8421248596e-01	-3.5374872315e+00
 3.3057403692e-01	 9.9026525724e-01	-3.8133195019e+00
 3.0741534007e-01	 9.9583677301e-01	-4.0694941728e+00
 2.8412352201e-01	 1.0009346015e+00	-4.3056209924e+00
 2.6071521158e-01	 1.0055668749e+00	-4.5216889467e+00
 2.3720682365e-01	 1.0097422522e+00	-4.7180380898e+00
 4.7225171547e-01	 9.5965501098e-01	-1.8607105896e+00
 4.4994232160e-01	 9.6832412875e-01	-2.1823215398e+00
 4.2739452156e-01	 9.7647676014e-01	-2.4945936274e+00
 4.0462560667e-01	 9.8411719435e-01	-2.7952079752e+00
 3.8165290856e-01	 9.9125046212e-01	-3.0822705979e+00
 3.5849375226e-01	 9.9788230525e-01	-3.3543011419e+00
 3.3516541064e-01	 1.0040191440e+00	-3.6102179075e+00
 3.1168506048e-01	 1.0096680431e+00	-3.8493196271e+00
 2.8806974019e-01	 1.0148366758e+00	-4.0712644877e+00
 2.6433630954e-01	 1.0195332873e+00	-4.2760468907e+00
 2.4050141141e-01	 1.0237666568e+00	-4.4639724356e+00
 4.7872104050e-01	 9.7280122090e-01	-1.8298166795e+00
 4.5610603267e-01	 9.8158909597e-01	-2.1217282169e+00
 4.3324935275e-01	 9.8985340938e-01	-2.4059440523e+00
 4.1016852897e-01	 9.9759850906e-01	-2.6804173414e+00
 3.8688113036e-01	 1.0048294947e+00	-2.9434761511e+00
 3.6340471929e-01	 1.0115521867e+00	-3.1938134981e+00
 3.3975680526e-01	 1.0177730934e+00	-3.4304741115e+00
 3.1595480033e-01	 1.0234993761e+00	-3.6528383384e+00
 2.9201597632e-01	 1.0287388134e+00	-3.8606036253e+00
 2.6795742398e-01	 1.0334997632e+00	-4.0537640092e+00
 2.4379601417e-01	 1.0377911252e+00	-4.2325880484e+00
 4.8519038969e-01	 9.8594747989e-01	-1.8106851463e+00
 4.6226976674e-01	 9.9485411272e-01	-2.0748991069e+00
 4.3910420581e-01	 1.0032301086e+00	-2.3328604229e+00
 4.1571147196e-01	 1.0110798741e+00	-2.5827669684e+00
 3.9210937168e-01	 1.0184085780e+00	-2.8231454114e+00
 3.6831570466e-01	 1.0252221192e+00	-3.0528424994e+00
 3.4434821701e-01	 1.0315270941e+00	-3.2710134735e+00
 3.2022455611e-01	 1.0373307608e+00	-3.4771079810e+00
 2.9596222719e-01	 1.0426410028e+00	-3.6708538630e+00
 2.7157855194e-01	 1.0474662913e+00	-3.8522392007e+00
 2.4709062922e-01	 1.0518156460e+00	-4.0214929959e+00
 4.9165975774e-01	 9.9909377723e-01	-1.8001319113e+00
 4.6843351880e-01	 1.0081191681e+00	-2.0386415505e+00
 4.4495907594e-01	 1.0166068467e+00	-2.2721618529e+00
 4.2125443113e-01	 1.0245612785e+00	-2.4991090723e+00
 3.9733762825e-01	 1.0319877008e+00	-2.7181858583e+00
 3.7322670435e-01	 1.0388920916e+00	-2.9283737406e+00
 3.4893964216e-01	 1.0452811349e+00	-3.1289231110e+00
 3.2449432434e-01	 1.0511621858e+00	-3.3193410252e+00
 2.9990848956e-01	 1.0565432328e+00	-3.4993771521e+00
 2.7519969046e-01	 1.0614328601e+00	-3.6690082047e+00
 2.5038525388e-01	 1.0658402077e+00	-3.8284211797e+00
 4.9812913938e-01	 1.0122401022e+00	-1.7951382256e+00
 4.7459728379e-01	 1.0213842514e+00	-2.0099286657e+00
 4.5081395837e-01	 1.0299836130e+00	-2.2208326241e+00
 4.2679740193e-01	 1.0380427111e+00	-2.4264593198e+00
 4.0256589580e-01	 1.0455668522e+00	-2.6256655530e+00
 3.7813771435e-01	 1.0525620927e+00	-2.8175493426e+00
 3.5353107694e-01	 1.0590352046e+00	-3.0014413957e+00
 3.2876410154e-01	 1.0649936398e+00	-3.1768946862e+00
 3.0385476022e-01	 1.0704454920e+00	-3.3436724259e+00
 2.7882083658e-01	 1.0753994583e+00	-3.5017347166e+00
 2.5367988546e-01	 1.0798647988e+00	-3.6512241651e+00
 5.0459852932e-01	 1.0253864440e+00	-1.7928400709e+00
 4.8076105670e-01	 1.0346493517e+00	-1.9858887199e+00
 4.5666884831e-01	 1.0433603965e+00	-2.1760115972e+00
 4.3234037985e-01	 1.0515241611e+00	-2.3619863493e+00
 4.0779417006e-01	 1.0591460211e+00	-2.5428028442e+00
 3.8304873066e-01	 1.0662321113e+00	-2.7176579185e+00
 3.5812251762e-01	 1.0727892920e+00	-2.8859482582e+00
 3.3303388422e-01	 1.0788251116e+00	-3.0472616458e+00
 3.0780103594e-01	 1.0843477691e+00	-3.2013668189e+00
 2.8244198734e-01	 1.0893660743e+00	-3.3482021859e+00
 2.5697452127e-01	 1.0938894079e+00	-3.4878636391e+00
 5.1106792229e-01	 1.0385327919e+00	-1.7905183631e+00
 4.8692483249e-01	 1.0479144583e+00	-1.9637953077e+00
 4.6252374099e-01	 1.0567371862e+00	-2.1349824265e+00
 4.3788336035e-01	 1.0650056174e+00	-2.3030020880e+00
 4.1302244676e-01	 1.0727251962e+00	-2.4669568548e+00
 3.8795974926e-01	 1.0799021363e+00	-2.6261253008e+00
 3.6271396044e-01	 1.0865433858e+00	-2.7799562275e+00
 3.3730366890e-01	 1.0926565899e+00	-2.9280614778e+00
 3.1174731350e-01	 1.0982500526e+00	-3.0702075524e+00
 2.8606313980e-01	 1.1033326969e+00	-3.2063062365e+00
 2.6026915861e-01	 1.1079140236e+00	-3.3364044406e+00
 5.1753731298e-01	 1.0516791353e+00	-1.7855898908e+00
 4.9308860612e-01	 1.0611795601e+00	-1.9410582656e+00
 4.6837863162e-01	 1.0701139712e+00	-2.0951645079e+00
 4.4342633892e-01	 1.0784870689e+00	-2.2469527937e+00
 4.1825072163e-01	 1.0863043666e+00	-2.3956186822e+00
 3.9287076614e-01	 1.0935721566e+00	-2.5405059638e+00
 3.6730540165e-01	 1.1002974747e+00	-2.6811021424e+00
 3.4157345207e-01	 1.1064880633e+00	-2.8170327165e+00
 3.1569358968e-01	 1.1121523313e+00	-2.9480544284e+00
 2.8968429099e-01	 1.1172993146e+00	-3.0740476553e+00
 2.6356379480e-01	 1.1219386343e+00	-3.1950081127e+00
 2.3061770384e-01	 9.8169368030e-01	-5.3044640169e+00
 2.0767914567e-01	 9.8531800201e-01	-5.4893470860e+00
 1.8467446446e-01	 9.8851628533e-01	-5.6500298082e+00
 1.6161882325e-01	 9.9129826399e-01	-5.7872839187e+00
 1.3852705063e-01	 9.9367403434e-01	-5.9019254974e+00
 1.1541361525e-01	 9.9565401780e-01	-5.9948074038e+00
 9.2292602777e-02	 9.9724892368e-01	-6.0668120102e+00
 6.9177695236e-02	 9.9846971248e-01	-6.1188442810e+00
 4.6082152713e-02	 9.9932755992e-01	-6.1518252369e+00
 2.3018797407e-02	 9.9983382185e-01	-6.1666858318e+00
 0.0000000000e+00	 1.0000000000e+00	-6.1643612636e+00
 2.3391225356e-01	 9.9571792291e-01	-4.9973116373e+00
 2.1064600060e-01	 9.9939402083e-01	-5.1782045604e+00
 1.8731267998e-01	 1.0026379941e+00	-5.3360443702e+00
 1.6392767136e-01	 1.0054597154e+00	-5.4715099646e+00
 1.4050601516e-01	 1.0078694254e+00	-5.5853419528e+00
 1.1706238673e-01	 1.0098776945e+00	-5.6783339851e+00
 9.3611072970e-02	 1.0114953848e+00	-5.7513243243e+00
 7.0165951353e-02	 1.0127336135e+00	-5.8051877264e+00
 4.6740471396e-02	 1.0136037159e+00	-5.8408276866e+00
 2.3347638476e-02	 1.0141172102e+00	-5.8591690977e+00
 0.0000000000e+00	 1.0142857623e+00	-5.8611513547e+00
 2.3720682365e-01	 1.0097422522e+00	-4.7180380898e+00
 2.1361287387e-01	 1.0134701267e+00	-4.8936258695e+00
 1.8995091181e-01	 1.0167597901e+00	-5.0473460576e+00
 1.6623653374e-01	 1.0196212544e+00	-5.1797915115e+00
 1.4248499193e-01	 1.0220649043e+00	-5.2916319740e+00
 1.1871116841e-01	 1.0241014591e+00	-5.3836044526e+00
 9.4929551314e-02	 1.0257419340e+00	-5.4565037879e+00
 7.1154213578e-02	 1.0269976027e+00	-5.5111734968e+00
 4.7398794148e-02	 1.0278799602e+00	-5.5484969654e+00
 2.3676481578e-02	 1.0284006869e+00	-5.5693890494e+00
 0.0000000000e+00	 1.0285716130e+00	-5.5747881336e+00
 2.4050141141e-01	 1.0237666568e+00	-4.4639724356e+00
 2.1657976306e-01	 1.0275463081e+00	-4.6331806043e+00
 1.9258915780e-01	 1.0308816619e+00	-4.7817302876e+00
 1.6854540851e-01	 1.0337828694e+00	-4.9101353608e+00
 1.4446397931e-01	 1.0362604594e+00	-5.0189996291e+00
 1.2035995893e-01	 1.0383253001e+00	-5.1090064024e+00
 9.6248036731e-02	 1.0399885597e+00	-5.1809082139e+00
 7.2142481105e-02	 1.0412616685e+00	-5.2355167831e+00
 4.8057120433e-02	 1.0421562812e+00	-5.2736933112e+00
 2.4005326445e-02	 1.0426842402e+00	-5.2963391823e+00
 0.0000000000e+00	 1.0428575404e+00	-5.3043871295e+00
 2.4379601417e-01	 1.0377911252e+00	-4.2325880484e+00
 2.1954666575e-01	 1.0416225535e+00	-4.3945696688e+00
 1.9522741578e-01	 1.0450035980e+00	-4.5371115854e+00
 1.7085429379e-01	 1.0479445488e+00	-4.6606559981e+00
 1.4644297570e-01	 1.0504560790e+00	-4.7657460090e+00
 1.2200875696e-01	 1.0525492057e+00	-4.8530145344e+00
 9.7566528146e-02	 1.0542352502e+00	-4.9231733202e+00
 7.3130753127e-02	 1.0555257991e+00	-4.9770021754e+00
 4.8715449711e-02	 1.0564326670e+00	-5.0153385226e+00
 2.4334172807e-02	 1.0569678585e+00	-5.0390673503e+00
 0.0000000000e+00	 1.0571435327e+00	-5.0491116355e+00
 2.4709062922e-01	 1.0518156460e+00	-4.0214929959e+00
 2.2251357951e-01	 1.0556988515e+00	-4.1756165279e+00
 1.9786568362e-01	 1.0591255868e+00	-4.3115156459e+00
 1.7316318768e-01	 1.0621062811e+00	-4.4295684157e+00
 1.4842197947e-01	 1.0646517517e+00	-4.5302627608e+00
 1.2365756113e-01	 1.0667731645e+00	-4.6141848470e+00
 9.8885024482e-02	 1.0684819939e+00	-4.6820075367e+00
 7.4119028838e-02	 1.0697899831e+00	-4.7344790377e+00
 4.9373781447e-02	 1.0707091062e+00	-4.7724118555e+00
 2.4663020396e-02	 1.0712515302e+00	-4.7966721430e+00
 0.0000000000e+00	 1.0714295784e+00	-4.8081695248e+00
 2.5038525388e-01	 1.0658402077e+00	-3.8284211797e+00
 2.2548050193e-01	 1.0697751905e+00	-3.9742591459e+00
 2.0050395915e-01	 1.0732476168e+00	-4.1030720210e+00
 1.7547208830e-01	 1.0762680546e+00	-4.2151815014e+00
 1.5040098901e-01	 1.0788474657e+00	-4.3110261308e+00
 1.2530637012e-01	 1.0809971648e+00	-4.3911492895e+00
 1.0020352466e-01	 1.0827287791e+00	-4.4561872230e+00
 7.5107307430e-02	 1.0840542086e+00	-4.5068572472e+00
 5.0032115103e-02	 1.0849855870e+00	-4.5439462437e+00
 2.4991868945e-02	 1.0855352435e+00	-4.5682995488e+00
 0.0000000000e+00	 1.0857156657e+00	-4.5808103184e+00
 2.5367988546e-01	 1.0798647988e+00	-3.6512241651e+00
 2.2844743057e-01	 1.0838515591e+00	-3.7885425515e+00
 2.0314224021e-01	 1.0873696765e+00	-3.9100073767e+00
 1.7778099377e-01	 1.0904298580e+00	-4.0158919424e+00
 1.5238000271e-01	 1.0930432096e+00	-4.1065914724e+00
 1.2695518256e-01	 1.0952211949e+00	-4.1826108308e+00
 1.0152202761e-01	 1.0969755942e+00	-4.2445522578e+00
 7.6095588098e-02	 1.0983184641e+00	-4.2931032654e+00
 5.0690450140e-02	 1.0992620978e+00	-4.3290248140e+00
 2.5320718183e-02	 1.0998189868e+00	-4.3531398770e+00
 0.0000000000e+00	 1.1000017831e+00	-4.3663224815e+00
 2.5697452127e-01	 1.0938894079e+00	-3.4878636391e+00
 2.3141436302e-01	 1.0979279458e+00	-3.6166119761e+00
 2.0578052467e-01	 1.1014917543e+00	-3.7306392681e+00
 1.8008990221e-01	 1.1045916795e+00	-3.8301785976e+00
 1.5435901894e-01	 1.1072389717e+00	-3.9155881751e+00
 1.2860399713e-01	 1.1094452433e+00	-3.9873389073e+00
 1.0284053225e-01	 1.1112224277e+00	-4.0460019672e+00
 7.7083870033e-02	 1.1125827379e+00	-4.0922365113e+00
 5.1348786023e-02	 1.1135386269e+00	-4.1267776690e+00
 2.5649567844e-02	 1.1141027485e+00	-4.1504249170e+00
 0.0000000000e+00	 1.1142879188e+00	-4.1640309263e+00
 2.6026915861e-01	 1.1079140236e+00	-3.3364044406e+00
 2.3438129685e-01	 1.1120043390e+00	-3.4567065111e+00
 2.0841881035e-01	 1.1156138386e+00	-3.5633703868e+00
 1.8239881172e-01	 1.1187535076e+00	-3.6565972965e+00
 1.5633803610e-01	 1.1214347404e+00	-3.7367149787e+00
 1.3025281246e-01	 1.1236692983e+00	-3.8041652161e+00
 1.0415903751e-01	 1.1254692677e+00	-3.8594913629e+00
 7.8072152430e-02	 1.1268470183e+00	-3.9033260094e+00
 5.2007122212e-02	 1.1278151627e+00	-3.9363789138e+00
 2.5978417659e-02	 1.1283865168e+00	-3.9594253131e+00
 0.0000000000e+00	 1.1285740611e+00	-3.9732947061e+00
 2.6356379480e-01	 1.1219386343e+00	-3.1950081127e+00
 2.3734822965e-01	 1.1260807273e+00	-3.3071532416e+00
 2.1105709511e-01	 1.1297359180e+00	-3.4066832398e+00
 1.8470772042e-01	 1.1329153307e+00	-3.4937760288e+00
 1.5831705257e-01	 1.1356305041e+00	-3.5687356388e+00
 1.3190162721e-01	 1.1378933484e+00	-3.6319798235e+00
 1.0547754230e-01	 1.1397161028e+00	-3.6840276611e+00
 7.9060434482e-02	 1.1411112938e+00	-3.7254872897e+00
 5.2665458172e-02	 1.1420916935e+00	-3.7570439056e+00
 2.6307267358e-02	 1.1426702801e+00	-3.7794481362e+00
 0.0000000000e+00	 1.1428601985e+00	-3.7935048809e+00
 1.1428601985e+00	 0.0000000000e+00	 1.3356245540e+00
 1.1426702801e+00	 2.6307267358e-02	 1.3381524750e+00
 1.1420916935e+00	 5.2665458172e-02	 1.3495026250e+00
 1.1411112938e+00	 7.9060434482e-02	 1.3685851521e+00
 1.1397161028e+00	 1.0547754230e-01	 1.3942322327e+00
 1.1378933484e+00	 1.3190162721e-01	 1.4251986991e+00
 1.1356305041e+00	 1.5831705257e-01	 1.4601634592e+00
 1.1329153307e+00	 1.8470772042e-01	 1.4977317759e+00
 1.1297359180e+00	 2.1105709511e-01	 1.5364384697e+00
 1.1260807273e+00	 2.3734822965e-01	 1.5747521023e+00
 1.1219386343e+00	 2.6356379480e-01	 1.6110801872e+00
 1.1571453214e+00	 0.0000000000e+00	 1.4283896145e+00
 1.1569530291e+00	 2.6636093707e-02	 1.4288063536e+00
 1.1563672105e+00	 5.3323747384e-02	 1.4378619075e+00
 1.1553745563e+00	 8.0048646356e-02	 1.4543411460e+00
 1.1539619263e+00	 1.0679595347e-01	 1.4769510208e+00
 1.1521163884e+00	 1.3355032488e-01	 1.5043222930e+00
 1.1498252598e+00	 1.6029592851e-01	 1.5350121554e+00
 1.1470761482e+00	 1.8701646517e-01	 1.5675078141e+00
 1.1438569947e+00	 2.1369519253e-01	 1.6002310878e+00
 1.1401561161e+00	 2.4031495177e-01	 1.6315440724e+00
 1.1359622492e+00	 2.6685819703e-01	 1.6597559078e+00
 1.1714304292e+00	 0.0000000000e+00	 1.5162458334e+00
 1.1712357631e+00	 2.6964919710e-02	 1.5148072715e+00
 1.1706427125e+00	 5.3982035906e-02	 1.5217682515e+00
 1.1696378039e+00	 8.1036857194e-02	 1.5358091257e+00
 1.1682077347e+00	 1.0811436326e-01	 1.5555328865e+00
 1.1663394135e+00	 1.3519902083e-01	 1.5794678728e+00
 1.1640200006e+00	 1.6227480237e-01	 1.6060714589e+00
 1.1612369509e+00	 1.8932520749e-01	 1.6337347868e+00
 1.1579780564e+00	 2.1633328717e-01	 1.6607885934e+00
 1.1542314900e+00	 2.4328167077e-01	 1.6855101737e+00
 1.1499858493e+00	 2.7015259581e-01	 1.7061315059e+00
 1.1857155238e+00	 0.0000000000e+00	 1.5988868127e+00
 1.1855184838e+00	 2.7293745407e-02	 1.5958391592e+00
 1.1849182012e+00	 5.4640323814e-02	 1.6008945615e+00
 1.1839010381e+00	 8.2025067110e-02	 1.6126487867e+00
 1.1824535299e+00	 1.0943277181e-01	 1.6296212822e+00
 1.1805624252e+00	 1.3684771523e-01	 1.6502587418e+00
 1.1782147281e+00	 1.6425367438e-01	 1.6729397289e+00
 1.1753977403e+00	 1.9163394766e-01	 1.6959804109e+00
 1.1720991051e+00	 2.1897137936e-01	 1.7176414506e+00
 1.1683068509e+00	 2.4624838700e-01	 1.7361360897e+00
 1.1640094364e+00	 2.7344699152e-01	 1.7496394397e+00
 1.2000006067e+00	 0.0000000000e+00	 1.6760207477e+00
 1.1998011928e+00	 2.7622570835e-02	 1.6716010022e+00
 1.1991936782e+00	 5.5298611184e-02	 1.6749293217e+00
 1.1981642607e+00	 8.3013276220e-02	 1.6845360338e+00
 1.1966993134e+00	 1.1075117929e-01	 1.6988766434e+00
 1.1947854254e+00	 1.3849640829e-01	 1.7163361464e+00
 1.1924094441e+00	 1.6623254478e-01	 1.7352344560e+00
 1.1895585182e+00	 1.9394268595e-01	 1.7538329943e+00
 1.1862201421e+00	 2.2160946939e-01	 1.7703424889e+00
 1.1823822002e+00	 2.4921510081e-01	 1.7829320020e+00
 1.1780330119e+00	 2.7674138453e-01	 1.7897392006e+00
 1.2142856796e+00	 0.0000000000e+00	 1.7473695699e+00
 1.2140838918e+00	 2.7951396034e-02	 1.7418059550e+00
 1.2134691452e+00	 5.5956898094e-02	 1.7435756806e+00
 1.2124274734e+00	 8.4001484638e-02	 1.7511620278e+00
 1.2109450870e+00	 1.1206958585e-01	 1.7629753901e+00
 1.2090084156e+00	 1.4014510020e-01	 1.7773582209e+00
 1.2066041501e+00	 1.6821141380e-01	 1.7925911368e+00
 1.2037192862e+00	 1.9625142262e-01	 1.8069002248e+00
 1.2003411693e+00	 2.2424755758e-01	 1.8184655877e+00
 1.1964575397e+00	 2.5218181254e-01	 1.8254311499e+00
 1.1920565777e+00	 2.8003577524e-01	 1.8259157234e+00
 1.2285707441e+00	 0.0000000000e+00	 1.8126681482e+00
 1.2283665825e+00	 2.8280221041e-02	 1.8061805184e+00
 1.2277446039e+00	 5.6615184621e-02	 1.8065505979e+00
 1.2266906777e+00	 8.4989692481e-02	 1.8122322991e+00
 1.2251908523e+00	 1.1338799164e-01	 1.8216089979e+00
 1.2232313976e+00	 1.4179379114e-01	 1.8329990061e+00
 1.2207988478e+00	 1.7019028166e-01	 1.8446622280e+00
 1.2178800459e+00	 1.9856015794e-01	 1.8548080439e+00
 1.2144621883e+00	 2.2688564422e-01	 1.8616044531e+00
 1.2105328710e+00	 2.5514852255e-01	 1.8631884897e+00
 1.2060801353e+00	 2.8333016403e-01	 1.8576779071e+00
 1.2428558020e+00	 0.0000000000e+00	 1.8716635460e+00
 1.2426492666e+00	 2.8609045895e-02	 1.8644637724e+00
 1.2420200560e+00	 5.7273470840e-02	 1.8635840522e+00
 1.2409538753e+00	 8.5977899862e-02	 1.8674659224e+00
 1.2394366109e+00	 1.1470639681e-01	 1.8744831329e+00
 1.2374543728e+00	 1.4344248132e-01	 1.8829475356e+00
 1.2349935389e+00	 1.7216914860e-01	 1.8911161717e+00
 1.2320407989e+00	 2.0086889219e-01	 1.8971995983e+00
 1.2285832006e+00	 2.2952372964e-01	 1.8993714788e+00
 1.2246081957e+00	 2.5811523116e-01	 1.8957794476e+00
 1.2201036864e+00	 2.8662455128e-01	 1.8845572385e+00
 1.2571408549e+00	 0.0000000000e+00	 1.9241143288e+00
 1.2569319456e+00	 2.8937870634e-02	 1.9164066624e+00
 1.2562955030e+00	 5.7931756830e-02	 1.9144183006e+00
 1.2552170680e+00	 8.6966106898e-02	 1.9165947473e+00
 1.2536823645e+00	 1.1602480153e-01	 1.9213168464e+00
 1.2516773431e+00	 1.4509117092e-01	 1.9269069840e+00
 1.2491882250e+00	 1.7414801484e-01	 1.9316364877e+00
 1.2462015471e+00	 2.0317762563e-01	 1.9337342625e+00
 1.2427042081e+00	 2.3216181413e-01	 1.9313966846e+00
 1.2386835154e+00	 2.6108193874e-01	 1.9227987564e+00
 1.2341272325e+00	 2.8991893738e-01	 1.9061065090e+00
 1.2714259045e+00	 0.0000000000e+00	 1.9697899182e+00
 1.2712146213e+00	 2.9266695296e-02	 1.9617713323e+00
 1.2705709467e+00	 5.8590042665e-02	 1.9588071903e+00
 1.2694802573e+00	 8.7954313704e-02	 1.9593626810e+00
 1.2679281148e+00	 1.1734320593e-01	 1.9618418228e+00
 1.2659003101e+00	 1.4673986013e-01	 1.9645938735e+00
 1.2633829079e+00	 1.7612688063e-01	 1.9659209267e+00
 1.2603622919e+00	 2.0548635853e-01	 1.9640867275e+00
 1.2568252122e+00	 2.3479989801e-01	 1.9573267267e+00
 1.2527588319e+00	 2.6404864563e-01	 1.9438593720e+00
 1.2481507754e+00	 2.9321332271e-01	 1.9218986179e+00
 1.2857109524e+00	 0.0000000000e+00	 2.0084699897e+00
 1.2854972953e+00	 2.9595519919e-02	 2.0003305037e+00
 1.2848463888e+00	 5.9248328424e-02	 1.9965155145e+00
 1.2837434449e+00	 8.8942520394e-02	 1.9955250193e+00
 1.2821738634e+00	 1.1866161018e-01	 1.9958016783e+00
 1.2801232755e+00	 1.4838854915e-01	 1.9957373322e+00
 1.2775775890e+00	 1.7810574618e-01	 1.9936806804e+00
 1.2745230351e+00	 2.0779509116e-01	 1.9879461507e+00
 1.2709462147e+00	 2.3743798158e-01	 1.9768239740e+00
 1.2668341468e+00	 2.6701535218e-01	 1.9585914608e+00
 1.2621743166e+00	 2.9650770765e-01	 1.9315254561e+00
 1.1219386343e+00	 2.6356379480e-01	 1.6110801872e+00
 1.1172993146e+00	 2.8968429099e-01	 1.6469299376e+00
 1.1121523313e+00	 3.1569358968e-01	 1.6837101900e+00
 1.1064880633e+00	 3.4157345207e-01	 1.7196247126e+00
 1.1002974747e+00	 3.6730540165e-01	 1.7528799593e+00
 1.0935721566e+00	 3.9287076614e-01	 1.7817005561e+00
 1.0863043666e+00	 4.1825072163e-01	 1.8043457404e+00
 1.0784870689e+00	 4.4342633892e-01	 1.8191266005e+00
 1.0701139712e+00	 4.6837863162e-01	 1.8244239317e+00
 1.0611795601e+00	 4.9308860612e-01	 1.8187065008e+00
 1.0516791353e+00	 5.1753731298e-01	 1.8005494838e+00
 1.1359622492e+00	 2.6685819703e-01	 1.6597559078e+00
 1.1312649405e+00	 2.9330518504e-01	 1.6864267384e+00
 1.1260536227e+00	 3.1963958564e-01	 1.7131519582e+00
 1.1203185545e+00	 3.4584293205e-01	 1.7382475535e+00
 1.1140505870e+00	 3.7189651683e-01	 1.7600332482e+00
 1.1072412061e+00	 3.9778143428e-01	 1.7768470992e+00
 1.0998825728e+00	 4.2347862524e-01	 1.7870609861e+00
 1.0919675632e+00	 4.4896892388e-01	 1.7890968499e+00
 1.0834898063e+00	 4.7423310649e-01	 1.7814435092e+00
 1.0744437200e+00	 4.9925194206e-01	 1.7626738547e+00
 1.0648245451e+00	 5.2400624429e-01	 1.7314622032e+00
 1.1499858493e+00	 2.7015259581e-01	 1.7061315059e+00
 1.1452305518e+00	 2.9692607529e-01	 1.7242373756e+00
 1.1399548996e+00	 3.2358557746e-01	 1.7415667508e+00
 1.1341490312e+00	 3.5011240755e-01	 1.7565464823e+00
 1.1278036849e+00	 3.7648762718e-01	 1.7676083129e+00
 1.1209102412e+00	 4.0269209728e-01	 1.7732026039e+00
 1.1134607646e+00	 4.2870652337e-01	 1.7718128979e+00
 1.1054480432e+00	 4.5451150302e-01	 1.7619711775e+00
 1.0968656274e+00	 4.8008757521e-01	 1.7422736615e+00
 1.0877078660e+00	 5.0541527153e-01	 1.7113969498e+00
 1.0779699412e+00	 5.3047516881e-01	 1.6681143088e+00
 1.1640094364e+00	 2.7344699152e-01	 1.7496394397e+00
 1.1591961500e+00	 3.0054696216e-01	 1.7597374688e+00
 1.1538561635e+00	 3.2753156559e-01	 1.7682752022e+00
 1.1479794950e+00	 3.5438187907e-01	 1.7737890483e+00
 1.1415567699e+00	 3.8107873325e-01	 1.7748215552e+00
 1.1345792636e+00	 4.0760275569e-01	 1.7699342907e+00
 1.1270389439e+00	 4.3393441661e-01	 1.7577214974e+00
 1.1189285107e+00	 4.6005407698e-01	 1.7368243940e+00
 1.1102414360e+00	 4.8594203847e-01	 1.7059459693e+00
 1.1009719996e+00	 5.1157859525e-01	 1.6638660950e+00
 1.0911153249e+00	 5.3694408729e-01	 1.6094567606e+00
 1.1780330119e+00	 2.7674138453e-01	 1.7897392006e+00
 1.1731617368e+00	 3.0416784607e-01	 1.7923323776e+00
 1.1677574160e+00	 3.3147755050e-01	 1.7926303056e+00
 1.1618099475e+00	 3.5865134709e-01	 1.7892776878e+00
 1.1553098437e+00	 3.8566983557e-01	 1.7809267002e+00
 1.1482482749e+00	 4.1251341009e-01	 1.7662490452e+00
 1.1406171120e+00	 4.3916230558e-01	 1.7439487197e+00
 1.1324089672e+00	 4.6559664642e-01	 1.7127753771e+00
 1.1236172336e+00	 4.9179649695e-01	 1.6715381383e+00
 1.1142361224e+00	 5.1774191393e-01	 1.6191196899e+00
 1.1042606979e+00	 5.4341300048e-01	 1.5544904834e+00
 1.1920565777e+00	 2.8003577524e-01	 1.8259157234e+00
 1.1871273138e+00	 3.0778872745e-01	 1.8214554529e+00
 1.1816586589e+00	 3.3542353264e-01	 1.8140155102e+00
 1.1756403904e+00	 3.6292081213e-01	 1.8023476725e+00
 1.1690629078e+00	 3.9026093468e-01	 1.7852126008e+00
 1.1619172766e+00	 4.1742406105e-01	 1.7613910857e+00
 1.1541952706e+00	 4.4439019090e-01	 1.7296959479e+00
 1.1458894143e+00	 4.7113921198e-01	 1.6889844786e+00
 1.1369930219e+00	 4.9765095133e-01	 1.6381712866e+00
 1.1275002359e+00	 5.2390522830e-01	 1.5762413966e+00
 1.1174060618e+00	 5.4988190915e-01	 1.5022634277e+00
 1.2060801353e+00	 2.8333016403e-01	 1.8576779071e+00
 1.2010928827e+00	 3.1140960672e-01	 1.8465664095e+00
 1.1955598936e+00	 3.3936951249e-01	 1.8318429504e+00
 1.1894708251e+00	 3.6719027468e-01	 1.8123652007e+00
 1.1828159640e+00	 3.9485203111e-01	 1.7870011959e+00
 1.1755862703e+00	 4.2233470914e-01	 1.7546397928e+00
 1.1677734213e+00	 4.4961807316e-01	 1.7142017197e+00
 1.1593698535e+00	 4.7668177431e-01	 1.6646511142e+00
 1.1503688024e+00	 5.0350540230e-01	 1.6050074210e+00
 1.1407643416e+00	 5.3006853907e-01	 1.5343575077e+00
 1.1305514179e+00	 5.5635081404e-01	 1.4518678362e+00
 1.2201036864e+00	 2.8662455128e-01	 1.8845572385e+00
 1.2150584451e+00	 3.1503048430e-01	 1.8671498116e+00
 1.2094611218e+00	 3.4331549049e-01	 1.8455517979e+00
 1.2033012534e+00	 3.7145973523e-01	 1.8187256202e+00
 1.1965690137e+00	 3.9944312540e-01	 1.7856456093e+00
 1.1892552576e+00	 4.2724535495e-01	 1.7453076888e+00
 1.1813515657e+00	 4.5484595299e-01	 1.6967395931e+00
 1.1728502864e+00	 4.8222433405e-01	 1.6390115182e+00
 1.1637445767e+00	 5.0935985053e-01	 1.5712470870e+00
 1.1540284412e+00	 5.3623184697e-01	 1.4926344970e+00
 1.1436967679e+00	 5.6281971592e-01	 1.4024376979e+00
 1.2341272325e+00	 2.8991893738e-01	 1.9061065090e+00
 1.2290240026e+00	 3.1865136061e-01	 1.8827136611e+00
 1.2233623451e+00	 3.4726146712e-01	 1.8546067259e+00
 1.2171316769e+00	 3.7572919429e-01	 1.8208517728e+00
 1.2103220586e+00	 4.0403421808e-01	 1.7805283781e+00
 1.2029242401e+00	 4.3215599904e-01	 1.7327385553e+00
 1.1949297053e+00	 4.6007383098e-01	 1.6766161564e+00
 1.1863307146e+00	 4.8776689185e-01	 1.6113366521e+00
 1.1771203463e+00	 5.1521429672e-01	 1.5361271799e+00
 1.1672925361e+00	 5.4239515271e-01	 1.4502767367e+00
 1.1568421134e+00	 5.6928861553e-01	 1.3531463769e+00
 1.2481507754e+00	 2.9321332271e-01	 1.9218986179e+00
 1.2429895568e+00	 3.2227223607e-01	 1.8927880816e+00
 1.2372635652e+00	 3.5120744282e-01	 1.8584964769e+00
 1.2309620972e+00	 3.7999865236e-01	 1.8181924496e+00
 1.2240751003e+00	 4.0862530968e-01	 1.7710598006e+00
 1.2165932195e+00	 4.3706664197e-01	 1.7163056769e+00
 1.2085078418e+00	 4.6530170775e-01	 1.6531691729e+00
 1.1998111396e+00	 4.9330944835e-01	 1.5809302539e+00
 1.1904961128e+00	 5.2106874154e-01	 1.4989189022e+00
 1.1805566279e+00	 5.4855845701e-01	 1.4065243683e+00
 1.1699874557e+00	 5.7575751363e-01	 1.3032044004e+00
 1.2621743166e+00	 2.9650770765e-01	 1.9315254561e+00
 1.2569551095e+00	 3.2589311112e-01	 1.8969240894e+00
 1.2511647837e+00	 3.5515341806e-01	 1.8567325257e+00
 1.2447925158e+00	 3.8426810993e-01	 1.8102209501e+00
 1.2378281404e+00	 4.1321640076e-01	 1.7566763944e+00
 1.2302621973e+00	 4.4197728434e-01	 1.6954102033e+00
 1.2220859766e+00	 4.7052958392e-01	 1.6257658496e+00
 1.2132915631e+00	 4.9885200421e-01	 1.5471270176e+00
 1.2038718777e+00	 5.2692318567e-01	 1.4589258589e+00
 1.1938207182e+00	 5.5472176059e-01	 1.3606513159e+00
 1.1831327965e+00	 5.8222641097e-01	 1.2518573941e+00
 1.0516791353e+00	 5.1753731298e-01	 1.8005494838e+00
 1.0416081161e+00	 5.4170758012e-01	 1.7716007782e+00
 1.0309641682e+00	 5.6557897498e-01	 1.7342629508e+00
 1.0197452113e+00	 5.8913298958e-01	 1.6884018988e+00
 1.0079500855e+00	 6.1235137544e-01	 1.6339868894e+00
 9.9557857069e-01	 6.3521619854e-01	 1.5710972726e+00
 9.8263140181e-01	 6.5770989397e-01	 1.4999282267e+00
 9.6911028094e-01	 6.7981532011e-01	 1.4207953947e+00
 9.5501788526e-01	 7.0151581184e-01	 1.3341382798e+00
 9.4035787113e-01	 7.2279523272e-01	 1.2405222856e+00
 9.2513487412e-01	 7.4363802549e-01	 1.1406393088e+00
 1.0648245451e+00	 5.2400624429e-01	 1.7314622032e+00
 1.0546276438e+00	 5.4847862645e-01	 1.6894110865e+00
 1.0438506524e+00	 5.7264840060e-01	 1.6389911305e+00
 1.0324914647e+00	 5.9649682740e-01	 1.5803230519e+00
 1.0205489063e+00	 6.2000543029e-01	 1.5136190141e+00
 1.0080227544e+00	 6.4315605109e-01	 1.4391866783e+00
 9.9491375301e-01	 6.6593090532e-01	 1.3574323509e+00
 9.8122362558e-01	 6.8831263711e-01	 1.2688631255e+00
 9.6695508272e-01	 7.1028437303e-01	 1.1740879329e+00
 9.5211182648e-01	 7.3182977495e-01	 1.0738174250e+00
 9.3669855040e-01	 7.5293309115e-01	 9.6886264125e-01
 1.0779699412e+00	 5.3047516881e-01	 1.6681143088e+00
 1.0676471577e+00	 5.5524966567e-01	 1.6139719136e+00
 1.0567371230e+00	 5.7971781880e-01	 1.5514803397e+00
 1.0452377047e+00	 6.0386065750e-01	 1.4809901919e+00
 1.0331477139e+00	 6.2765947711e-01	 1.4029325238e+00
 1.0204669250e+00	 6.5109589530e-01	 1.3178204704e+00
 1.0071960913e+00	 6.7415190804e-01	 1.2262500363e+00
 9.9333695750e-01	 6.9680994518e-01	 1.1288999758e+00
 9.7889226764e-01	 7.1905292502e-01	 1.0265307173e+00
 9.6386576950e-01	 7.4086430769e-01	 9.1998229656e-01
 9.4826221454e-01	 7.6222814704e-01	 8.1017128387e-01
 1.0911153249e+00	 5.3694408729e-01	 1.6094567606e+00
 1.0806666595e+00	 5.6202069857e-01	 1.5441987426e+00
 1.0696235816e+00	 5.8678723039e-01	 1.4706170569e+00
 1.0579839328e+00	 6.1122448071e-01	 1.3892681675e+00
 1.0457465097e+00	 6.3531351679e-01	 1.3007788851e+00
 1.0329110840e+00	 6.5903573210e-01	 1.2058458174e+00
 1.0194784182e+00	 6.8237290309e-01	 1.1052340294e+00
 1.0054502781e+00	 7.0530724533e-01	 9.9977488710e-01
 9.9082944142e-01	 7.2782146881e-01	 8.9036306983e-01
 9.7561970154e-01	 7.4989883200e-01	 7.7795275235e-01
 9.5982586788e-01	 7.7152319426e-01	 6.6355297302e-01
 1.1042606979e+00	 5.4341300048e-01	 1.5544904834e+00
 1.0936861507e+00	 5.6879172595e-01	 1.4790587109e+00
 1.0825100297e+00	 5.9385663622e-01	 1.3953407960e+00
 1.0707301505e+00	 6.1858829792e-01	 1.3040758928e+00
 1.0583452952e+00	 6.4296755021e-01	 1.2060642676e+00
 1.0453552328e+00	 6.6697556242e-01	 1.1021647955e+00
 1.0317607350e+00	 6.9059389142e-01	 9.9329171879e-01
 1.0175635888e+00	 7.1380453853e-01	 8.8041067185e-01
 1.0027666055e+00	 7.3659000545e-01	 7.6453398915e-01
 9.8737362398e-01	 7.5893334893e-01	 6.4671532908e-01
 9.7138951178e-01	 7.8081823389e-01	 5.2804365893e-01
 1.1174060618e+00	 5.4988190915e-01	 1.5022634277e+00
 1.1067056328e+00	 5.7556274858e-01	 1.4175675720e+00
 1.0953964687e+00	 6.0092603709e-01	 1.3246409869e+00
 1.0834763592e+00	 6.2595210997e-01	 1.2243831673e+00
 1.0709440719e+00	 6.5062157828e-01	 1.1177463257e+00
 1.0577993729e+00	 6.7491538718e-01	 1.0057311583e+00
 1.0440430432e+00	 6.9881487399e-01	 8.8938192058e-01
 1.0296768911e+00	 7.2230182579e-01	 7.6978084420e-01
 1.0147037611e+00	 7.4535853595e-01	 6.4804194319e-01
 9.9912753820e-01	 7.6796785954e-01	 5.2530426639e-01
 9.8295314759e-01	 7.9011326701e-01	 4.0272466939e-01
 1.1305514179e+00	 5.5635081404e-01	 1.4518678362e+00
 1.1197251073e+00	 5.8233376727e-01	 1.3587868686e+00
 1.1082829003e+00	 6.0799543384e-01	 1.2575540735e+00
 1.0962225605e+00	 6.3331591773e-01	 1.1492077174e+00
 1.0835428413e+00	 6.5827560189e-01	 1.0348312056e+00
 1.0702435058e+00	 6.8285520730e-01	 9.1554733293e-01
 1.0563253442e+00	 7.0703585178e-01	 7.9251188850e-01
 1.0417901863e+00	 7.3079910809e-01	 6.6690667221e-01
 1.0266409098e+00	 7.5412706134e-01	 5.3993199311e-01
 1.0108814456e+00	 7.7700236488e-01	 4.1279873323e-01
 9.9451677665e-01	 7.9940829472e-01	 2.8672007128e-01
 1.1436967679e+00	 5.6281971592e-01	 1.4024376979e+00
 1.1327445757e+00	 5.8910478279e-01	 1.3018213017e+00
 1.1211693258e+00	 6.1506482729e-01	 1.1931608116e+00
 1.1089687559e+00	 6.4067972205e-01	 1.0776124422e+00
 1.0961416048e+00	 6.6592962192e-01	 9.5637075865e-01
 1.0826876329e+00	 6.9079502373e-01	 8.3066162199e-01
 1.0686076395e+00	 7.1525682572e-01	 7.0173453014e-01
 1.0539034758e+00	 7.3929638643e-01	 5.7085443330e-01
 1.0385780530e+00	 7.6289558263e-01	 4.3929311541e-01
 1.0226353474e+00	 7.8603686600e-01	 3.0832024559e-01
 1.0060804003e+00	 8.0870331808e-01	 1.7919421417e-01
 1.1568421134e+00	 5.6928861553e-01	 1.3531463769e+00
 1.1457640395e+00	 5.9587579594e-01	 1.2458162785e+00
 1.1340557468e+00	 6.2213421827e-01	 1.1305837515e+00
 1.1217149468e+00	 6.4804352379e-01	 1.0087028467e+00
 1.1087403638e+00	 6.7358363927e-01	 8.8145994415e-01
 1.0951317556e+00	 6.9873483737e-01	 7.5016559758e-01
 1.0808899306e+00	 7.2347779679e-01	 6.1614581288e-01
 1.0660167611e+00	 7.4779366179e-01	 4.8073285687e-01
 1.0505151919e+00	 7.7166410086e-01	 3.4525570659e-01
 1.0343892452e+00	 7.9507136396e-01	 2.1103026032e-01
 1.0176440199e+00	 8.1799833819e-01	 7.9349441375e-02
 1.1699874557e+00	 5.7575751363e-01	 1.3032044004e+00
 1.1587835003e+00	 6.0264680752e-01	 1.1899556256e+00
 1.1469421648e+00	 6.2920360760e-01	 1.0689848903e+00
 1.1344611348e+00	 6.5540732381e-01	 9.4162464869e-01
 1.1213391200e+00	 6.8123765483e-01	 8.0923440788e-01
 1.1075758754e+00	 7.0667464916e-01	 6.7319167024e-01
 1.0931722187e+00	 7.3169876594e-01	 5.3488234488e-01
 1.0781300435e+00	 7.5629093517e-01	 3.9569073932e-01
 1.0624523281e+00	 7.8043261704e-01	 2.5698925622e-01
 1.0461431402e+00	 8.0410585981e-01	 1.2012793110e-01
 1.0292076368e+00	 8.2729335613e-01	-1.3576044691e-02
 1.1831327965e+00	 5.8222641097e-01	 1.2518573941e+00
 1.1718029596e+00	 6.0941781830e-01	 1.1334594551e+00
 1.1598285813e+00	 6.3627299610e-01	 1.0075634804e+00
 1.1472073212e+00	 6.6277112297e-01	 8.7556154458e-01
 1.1339378746e+00	 6.8889166950e-01	 7.3886822179e-01
 1.1200199937e+00	 7.1461446003e-01	 5.9891082025e-01
 1.1054545054e+00	 7.3991973413e-01	 4.5711911728e-01
 1.0902433246e+00	 7.6478820756e-01	 3.1491471808e-01
 1.0743894629e+00	 7.8920113219e-01	 1.7370017496e-01
 1.0578970339e+00	 8.1314035461e-01	 3.4848014182e-02
 1.0407712524e+00	 8.3658837299e-01	-1.0031017478e-01
 9.2513487412e-01	 7.4363802549e-01	 1.1406393088e+00
 9.0935450262e-01	 7.6402926264e-01	 1.0318277105e+00
 8.9302332240e-01	 7.8395469832e-01	 9.1203182372e-01
 8.7614885155e-01	 8.0340080713e-01	 7.8302361121e-01
 8.5873954642e-01	 8.2235482372e-01	 6.4666760365e-01
 8.4080478121e-01	 8.4080478121e-01	 5.0490788424e-01
 8.2235482372e-01	 8.5873954642e-01	 3.5975402744e-01
 8.0340080713e-01	 8.7614885155e-01	 2.1326618403e-01
 7.8395469832e-01	 8.9302332240e-01	 6.7539522192e-02
 7.6402926264e-01	 9.0935450262e-01	-7.5311753128e-02
 7.4363802549e-01	 9.2513487412e-01	-2.1317057284e-01
 9.3669855040e-01	 7.5293309115e-01	 9.6886264125e-01
 9.2072093295e-01	 7.7357920753e-01	 8.5655696562e-01
 9.0418562198e-01	 7.9375370018e-01	 7.3479759275e-01
 8.8710022954e-01	 8.1344287464e-01	 6.0537945404e-01
 8.6947331767e-01	 8.3263380599e-01	 4.7017328940e-01
 8.5131437779e-01	 8.5131437779e-01	 3.3111239081e-01
 8.3263380599e-01	 8.6947331767e-01	 1.9017849878e-01
 8.1344287464e-01	 8.8710022954e-01	 4.9387046714e-02
 7.9375370018e-01	 9.0418562198e-01	-8.9228038185e-02
 7.7357920753e-01	 9.2072093295e-01	-2.2362976014e-01
 7.5293309115e-01	 9.3669855040e-01	-3.5179348508e-01
 9.4826221454e-01	 7.6222814704e-01	 8.1017128387e-01
 9.3208735134e-01	 7.8312914239e-01	 6.9444723279e-01
 9.1534790983e-01	 8.0355269175e-01	 5.7068302952e-01
 8.9805159602e-01	 8.2348493160e-01	 4.4068823401e-01
 8.8020707766e-01	 8.4291277747e-01	 3.0633279506e-01
 8.6182396333e-01	 8.6182396333e-01	 1.6953362104e-01
 8.4291277747e-01	 8.8020707766e-01	 3.2240486399e-02
 8.2348493160e-01	 8.9805159602e-01	-1.0357852924e-01
 8.0355269175e-01	 9.1534790983e-01	-2.3595186256e-01
 7.8312914239e-01	 9.3208735134e-01	-3.6291933632e-01
 7.6222814704e-01	 9.4826221454e-01	-4.8254686512e-01
 9.5982586788e-01	 7.7152319426e-01	 6.6355297302e-01
 9.4345375912e-01	 7.9267906833e-01	 5.4454746589e-01
 9.2651018726e-01	 8.1335167417e-01	 4.1880443387e-01
 9.0900295228e-01	 8.3352697918e-01	 2.8814008820e-01
 8.9094082763e-01	 8.5319173935e-01	 1.5441691025e-01
 8.7233353906e-01	 8.7233353906e-01	 1.9530115406e-02
 8.5319173935e-01	 8.9094082763e-01	-1.1460637995e-01
 8.3352697918e-01	 9.0900295228e-01	-2.4607429084e-01
 8.1335167417e-01	 9.2651018726e-01	-3.7296539066e-01
 7.9267906833e-01	 9.4345375912e-01	-4.9339582607e-01
 7.7152319426e-01	 9.5982586788e-01	-6.0552011595e-01
 9.7138951178e-01	 7.8081823389e-01	 5.2804365893e-01
 9.5482015763e-01	 8.0222898648e-01	 4.0595191755e-01
 9.3767245558e-01	 8.2315064859e-01	 2.7832019748e-01
 9.1995429960e-01	 8.4356901857e-01	 1.4696372945e-01
 9.0167456884e-01	 8.6347069283e-01	 1.3731159732e-02
 8.8284310620e-01	 8.8284310620e-01	-1.1950902902e-01
 8.6347069283e-01	 9.0167456884e-01	-2.5088244196e-01
 8.4356901857e-01	 9.1995429960e-01	-3.7852284334e-01
 8.2315064859e-01	 9.3767245558e-01	-5.0058617316e-01
 8.0222898648e-01	 9.5482015763e-01	-6.1526430822e-01
 7.8081823389e-01	 9.7138951178e-01	-7.2079837215e-01
 9.8295314759e-01	 7.9011326701e-01	 4.0272466939e-01
 9.6618654817e-01	 8.1177889794e-01	 2.7779747429e-01
 9.4883471608e-01	 8.3294961614e-01	 1.4842832757e-01
 9.3090563925e-01	 8.5361105092e-01	 1.6424176889e-02
 9.1240830252e-01	 8.7374963913e-01	-1.1638624008e-01
 8.9335266599e-01	 8.9335266599e-01	-2.4816595637e-01
 8.7374963913e-01	 9.1240830252e-01	-3.7708354424e-01
 8.5361105092e-01	 9.3090563925e-01	-5.0132689424e-01
 8.3294961614e-01	 9.4883471608e-01	-6.1911680667e-01
 8.1177889794e-01	 9.6618654817e-01	-7.2872020031e-01
 7.9011326701e-01	 9.8295314759e-01	-8.2846275136e-01
 9.9451677665e-01	 7.9940829472e-01	 2.8672007128e-01
 9.7755293208e-01	 8.2132880383e-01	 1.5926117757e-01
 9.5999697007e-01	 8.4274857799e-01	 2.8364143446e-02
 9.4185697251e-01	 8.6365307742e-01	-1.0417935513e-01
 9.2314202995e-01	 8.8402857942e-01	-2.3656628215e-01
 9.0386221965e-01	 9.0386221965e-01	-3.6699572433e-01
 8.8402857942e-01	 9.2314202995e-01	-4.9368245885e-01
 8.6365307742e-01	 9.4185697251e-01	-6.1487041044e-01
 8.4274857799e-01	 9.5999697007e-01	-7.2884580352e-01
 8.2132880383e-01	 9.7755293208e-01	-8.3394982063e-01
 7.9940829472e-01	 9.9451677665e-01	-9.2859058820e-01
 1.0060804003e+00	 8.0870331808e-01	 1.7919421417e-01
 9.8891931069e-01	 8.3087870527e-01	 4.9557915824e-02
 9.7115921886e-01	 8.5254753526e-01	-8.2601868149e-02
 9.5280830067e-01	 8.7369509923e-01	-2.1551542259e-01
 9.3387575237e-01	 8.9430751492e-01	-3.4741093867e-01
 9.1437176840e-01	 9.1437176840e-01	-4.7652786112e-01
 8.9430751492e-01	 9.3387575237e-01	-6.0113021170e-01
 8.7369509923e-01	 9.5280830067e-01	-7.1951969568e-01
 8.5254753526e-01	 9.7115921886e-01	-8.3004840155e-01
 8.3087870527e-01	 9.8891931069e-01	-9.3113091149e-01
 8.0870331808e-01	 1.0060804003e+00	-1.0212556520e+00
 1.0176440199e+00	 8.1799833819e-01	 7.9349441375e-02
 1.0002856853e+00	 8.4042860336e-01	-5.2061726120e-02
 9.8232146373e-01	 8.6234648910e-01	-1.8516605137e-01
 9.6375962499e-01	 8.8373711753e-01	-3.1822218326e-01
 9.4460947103e-01	 9.0458644682e-01	-4.4949481024e-01
 9.2488131348e-01	 9.2488131348e-01	-5.7726781634e-01
 9.0458644682e-01	 9.4460947103e-01	-6.9985731836e-01
 8.8373711753e-01	 9.6375962499e-01	-8.1562439440e-01
 8.6234648910e-01	 9.8232146373e-01	-9.2298731868e-01
 8.4042860336e-01	 1.0002856853e+00	-1.0204331269e+00
 8.1799833819e-01	 1.0176440199e+00	-1.1065283496e+00
 1.0292076368e+00	 8.2729335613e-01	-1.3576044691e-02
 1.0116520573e+00	 8.4997849922e-01	-1.4631347262e-01
 9.9348370600e-01	 8.7214544065e-01	-2.7999344490e-01
 9.7471094675e-01	 8.9377913348e-01	-4.1290910467e-01
 9.5534318719e-01	 9.1486537633e-01	-5.4336666384e-01
 9.3539085610e-01	 9.3539085610e-01	-6.6969831395e-01
 9.1486537633e-01	 9.5534318719e-01	-7.9027493667e-01
 8.9377913348e-01	 9.7471094675e-01	-9.0351842800e-01
 8.7214544065e-01	 9.9348370600e-01	-1.0079134565e+00
 8.4997849922e-01	 1.0116520573e+00	-1.1020184871e+00
 8.2729335613e-01	 1.0292076368e+00	-1.1844759150e+00
 1.0407712524e+00	 8.3658837299e-01	-1.0031017478e-01
 1.0230184280e+00	 8.5952839397e-01	-2.3388122908e-01
 1.0046459470e+00	 8.8194439106e-01	-3.6771952137e-01
 9.8566226724e-01	 9.0382114827e-01	-5.0015855827e-01
 9.6607690210e-01	 9.2514430463e-01	-6.2955086826e-01
 9.4590039750e-01	 9.4590039750e-01	-7.5428061509e-01
 9.2514430463e-01	 9.6607690210e-01	-8.7277594245e-01
 9.0382114827e-01	 9.8566226724e-01	-9.8352086861e-01
 8.8194439106e-01	 1.0046459470e+00	-1.0850665574e+00
 8.5952839397e-01	 1.0230184280e+00	-1.1760418034e+00
 8.3658837299e-01	 1.0407712524e+00	-1.2551625855e+00
 7.4363802549e-01	 9.2513487412e-01	-2.1317057284e-01
 7.2279523272e-01	 9.4035787113e-01	-3.5223513008e-01
 7.0151581184e-01	 9.5501788526e-01	-4.9918577025e-01
 6.7981532011e-01	 9.6911028094e-01	-6.5260725671e-01
 6.5770989397e-01	 9.8263140181e-01	-8.1105502041e-01
 6.3521619854e-01	 9.9557857069e-01	-9.7306677393e-01
 6.1235137544e-01	 1.0079500855e+00	-1.1371740273e+00
 5.8913298958e-01	 1.0197452113e+00	-1.3019133526e+00
 5.6557897498e-01	 1.0309641682e+00	-1.4658372534e+00
 5.4170758012e-01	 1.0416081161e+00	-1.6275245110e+00
 5.1753731298e-01	 1.0516791353e+00	-1.7855898908e+00
 7.5293309115e-01	 9.3669855040e-01	-3.5179348508e-01
 7.3182977495e-01	 9.5211182648e-01	-4.7997956283e-01
 7.1028437303e-01	 9.6695508272e-01	-6.1496023932e-01
 6.8831263711e-01	 9.8122362558e-01	-7.5546249881e-01
 6.6593090532e-01	 9.9491375301e-01	-9.0017563388e-01
 6.4315605109e-01	 1.0080227544e+00	-1.0477620470e+00
 6.2000543029e-01	 1.0205489063e+00	-1.1968680920e+00
 5.9649682740e-01	 1.0324914647e+00	-1.3461348070e+00
 5.7264840060e-01	 1.0438506524e+00	-1.4942083942e+00
 5.4847862645e-01	 1.0546276438e+00	-1.6397503177e+00
 5.2400624429e-01	 1.0648245451e+00	-1.7814468988e+00
 7.6222814704e-01	 9.4826221454e-01	-4.8254686512e-01
 7.4086430769e-01	 9.6386576950e-01	-6.0110520624e-01
 7.1905292502e-01	 9.7889226764e-01	-7.2540109020e-01
 6.9680994518e-01	 9.9333695750e-01	-8.5429312640e-01
 6.7415190804e-01	 1.0071960913e+00	-9.8659510713e-01
 6.5109589530e-01	 1.0204669250e+00	-1.1210860367e+00
 6.2765947711e-01	 1.0331477139e+00	-1.2565203227e+00
 6.0386065750e-01	 1.0452377047e+00	-1.3916379835e+00
 5.7971781880e-01	 1.0567371230e+00	-1.5251747315e+00
 5.5524966567e-01	 1.0676471577e+00	-1.6558717995e+00
 5.3047516881e-01	 1.0779699412e+00	-1.7824853883e+00
 7.7152319426e-01	 9.5982586788e-01	-6.0552011595e-01
 7.4989883200e-01	 9.7561970154e-01	-7.1557403111e-01
 7.2782146881e-01	 9.9082944142e-01	-8.3034789157e-01
 7.0530724533e-01	 1.0054502781e+00	-9.4882153022e-01
 6.8237290309e-01	 1.0194784182e+00	-1.0699240301e+00
 6.5903573210e-01	 1.0329110840e+00	-1.1925430208e+00
 6.3531351679e-01	 1.0457465097e+00	-1.3155342434e+00
 6.1122448071e-01	 1.0579839328e+00	-1.4377312407e+00
 5.8678723039e-01	 1.0696235816e+00	-1.5579550367e+00
 5.6202069857e-01	 1.0806666595e+00	-1.6750236702e+00
 5.3694408729e-01	 1.0911153249e+00	-1.7877614601e+00
 7.8081823389e-01	 9.7138951178e-01	-7.2079837215e-01
 7.5893334893e-01	 9.8737362398e-01	-8.2334980797e-01
 7.3659000545e-01	 1.0027666055e+00	-9.2964784045e-01
 7.1380453853e-01	 1.0175635888e+00	-1.0387833093e+00
 6.9059389142e-01	 1.0317607350e+00	-1.1497915248e+00
 6.6697556242e-01	 1.0453552328e+00	-1.2616608716e+00
 6.4296755021e-01	 1.0583452952e+00	-1.3733417706e+00
 6.1858829792e-01	 1.0707301505e+00	-1.4837558616e+00
 5.9385663622e-01	 1.0825100297e+00	-1.5918052717e+00
 5.6879172595e-01	 1.0936861507e+00	-1.6963818370e+00
 5.4341300048e-01	 1.1042606979e+00	-1.7963761519e+00
 7.9011326701e-01	 9.8295314759e-01	-8.2846275136e-01
 7.6796785954e-01	 9.9912753820e-01	-9.2439800160e-01
 7.4535853595e-01	 1.0147037611e+00	-1.0231553139e+00
 7.2230182579e-01	 1.0296768911e+00	-1.1239264941e+00
 6.9881487399e-01	 1.0440430432e+00	-1.2258441555e+00
 6.7491538718e-01	 1.0577993729e+00	-1.3279896683e+00
 6.5062157828e-01	 1.0709440719e+00	-1.4294015436e+00
 6.2595210997e-01	 1.0834763592e+00	-1.5290841169e+00
 6.0092603709e-01	 1.0953964687e+00	-1.6260164012e+00
 5.7556274858e-01	 1.1067056328e+00	-1.7191609770e+00
 5.4988190915e-01	 1.1174060618e+00	-1.8074727948e+00
 7.9940829472e-01	 9.9451677665e-01	-9.2859058820e-01
 7.7700236488e-01	 1.0108814456e+00	-1.0186856729e+00
 7.5412706134e-01	 1.0266409098e+00	-1.1107314518e+00
 7.3079910809e-01	 1.0417901863e+00	-1.2040108246e+00
 7.0703585178e-01	 1.0563253442e+00	-1.2977449150e+00
 6.8285520730e-01	 1.0702435058e+00	-1.3911004062e+00
 6.5827560189e-01	 1.0835428413e+00	-1.4831973704e+00
 6.3331591773e-01	 1.0962225605e+00	-1.5731174636e+00
 6.0799543384e-01	 1.1082829003e+00	-1.6599123580e+00
 5.8233376727e-01	 1.1197251073e+00	-1.7426122839e+00
 5.5635081404e-01	 1.1305514179e+00	-1.8202345550e+00
 8.0870331808e-01	 1.0060804003e+00	-1.0212556520e+00
 7.8603686600e-01	 1.0226353474e+00	-1.1061813873e+00
 7.6289558263e-01	 1.0385780530e+00	-1.1922437686e+00
 7.3929638643e-01	 1.0539034758e+00	-1.2788070770e+00
 7.1525682572e-01	 1.0686076395e+00	-1.3651722807e+00
 6.9079502373e-01	 1.0826876329e+00	-1.4505837952e+00
 6.6592962192e-01	 1.0961416048e+00	-1.5342367825e+00
 6.4067972205e-01	 1.1089687559e+00	-1.6152848678e+00
 6.1506482729e-01	 1.1211693258e+00	-1.6928481484e+00
 5.8910478279e-01	 1.1327445757e+00	-1.7660213694e+00
 5.6281971592e-01	 1.1436967679e+00	-1.8338821445e+00
 8.1799833819e-01	 1.0176440199e+00	-1.1065283496e+00
 7.9507136396e-01	 1.0343892452e+00	-1.1868551301e+00
 7.7166410086e-01	 1.0505151919e+00	-1.2675657916e+00
 7.4779366179e-01	 1.0660167611e+00	-1.3480964376e+00
 7.2347779679e-01	 1.0808899306e+00	-1.4278193354e+00
 6.9873483737e-01	 1.0951317556e+00	-1.5060491397e+00
 6.7358363927e-01	 1.1087403638e+00	-1.5820496865e+00
 6.4804352379e-01	 1.1217149468e+00	-1.6550412426e+00
 6.2213421827e-01	 1.1340557468e+00	-1.7242080872e+00
 5.9587579594e-01	 1.1457640395e+00	-1.7887063080e+00
 5.6928861553e-01	 1.1568421134e+00	-1.8476716878e+00
 8.2729335613e-01	 1.0292076368e+00	-1.1844759150e+00
 8.0410585981e-01	 1.0461431402e+00	-1.2606782265e+00
 7.8043261704e-01	 1.0624523281e+00	-1.3365767231e+00
 7.5629093517e-01	 1.0781300435e+00	-1.4116699179e+00
 7.3169876594e-01	 1.0931722187e+00	-1.4853929467e+00
 7.0667464916e-01	 1.1075758754e+00	-1.5571232942e+00
 6.8123765483e-01	 1.1213391200e+00	-1.6261871078e+00
 6.5540732381e-01	 1.1344611348e+00	-1.6918659898e+00
 6.2920360760e-01	 1.1469421648e+00	-1.7534041514e+00
 6.0264680752e-01	 1.1587835003e+00	-1.8100158133e+00
 5.7575751363e-01	 1.1699874557e+00	-1.8608927334e+00
 8.3658837299e-01	 1.0407712524e+00	-1.2551625855e+00
 8.1314035461e-01	 1.0578970339e+00	-1.3276232678e+00
 7.8920113219e-01	 1.0743894629e+00	-1.3991611260e+00
 7.6478820756e-01	 1.0902433246e+00	-1.4693278094e+00
 7.3991973413e-01	 1.1054545054e+00	-1.5376130018e+00
 7.1461446003e-01	 1.1200199937e+00	-1.6034496892e+00
 6.8889166950e-01	 1.1339378746e+00	-1.6662200175e+00
 6.6277112297e-01	 1.1472073212e+00	-1.7252616404e+00
 6.3627299610e-01	 1.1598285813e+00	-1.7798744436e+00
 6.0941781830e-01	 1.1718029596e+00	-1.8293275363e+00
 5.8222641097e-01	 1.1831327965e+00	-1.8728663964e+00
 5.1753731298e-01	 1.0516791353e+00	-1.7855898908e+00
 4.9308860612e-01	 1.0611795601e+00	-1.9410582656e+00
 4.6837863162e-01	 1.0701139712e+00	-2.0951645079e+00
 4.4342633892e-01	 1.0784870689e+00	-2.2469527937e+00
 4.1825072163e-01	 1.0863043666e+00	-2.3956186822e+00
 3.9287076614e-01	 1.0935721566e+00	-2.5405059638e+00
 3.6730540165e-01	 1.1002974747e+00	-2.6811021424e+00
 3.4157345207e-01	 1.1064880633e+00	-2.8170327165e+00
 3.1569358968e-01	 1.1121523313e+00	-2.9480544284e+00
 2.8968429099e-01	 1.1172993146e+00	-3.0740476553e+00
 2.6356379480e-01	 1.1219386343e+00	-3.1950081127e+00
 5.2400624429e-01	 1.0648245451e+00	-1.7814468988e+00
 4.9925194206e-01	 1.0744437200e+00	-1.9207265133e+00
 4.7423310649e-01	 1.0834898063e+00	-2.0592672717e+00
 4.4896892388e-01	 1.0919675632e+00	-2.1962195935e+00
 4.2347862524e-01	 1.0998825728e+00	-2.3308591970e+00
 3.9778143428e-01	 1.1072412061e+00	-2.4625849162e+00
 3.7189651683e-01	 1.1140505870e+00	-2.5909153602e+00
 3.4584293205e-01	 1.1203185545e+00	-2.7154845516e+00
 3.1963958564e-01	 1.1260536227e+00	-2.8360366798e+00
 2.9330518504e-01	 1.1312649405e+00	-2.9524201122e+00
 2.6685819703e-01	 1.1359622492e+00	-3.0645808033e+00
 5.3047516881e-01	 1.0779699412e+00	-1.7824853883e+00
 5.0541527153e-01	 1.0877078660e+00	-1.9068062891e+00
 4.8008757521e-01	 1.0968656274e+00	-2.0309085620e+00
 4.5451150302e-01	 1.1054480432e+00	-2.1540402610e+00
 4.2870652337e-01	 1.1134607646e+00	-2.2755509162e+00
 4.0269209728e-01	 1.1209102412e+00	-2.3948902296e+00
 3.7648762718e-01	 1.1278036849e+00	-2.5116058084e+00
 3.5011240755e-01	 1.1341490312e+00	-2.6253400395e+00
 3.2358557746e-01	 1.1399548996e+00	-2.7358262151e+00
 2.9692607529e-01	 1.1452305518e+00	-2.8428840213e+00
 2.7015259581e-01	 1.1499858493e+00	-2.9464145035e+00
 5.3694408729e-01	 1.0911153249e+00	-1.7877614601e+00
 5.1157859525e-01	 1.1009719996e+00	-1.8982835134e+00
 4.8594203847e-01	 1.1102414360e+00	-2.0090157328e+00
 4.6005407698e-01	 1.1189285107e+00	-2.1192953396e+00
 4.3393441661e-01	 1.1270389439e+00	-2.2285393973e+00
 4.0760275569e-01	 1.1345792636e+00	-2.3362443044e+00
 3.8107873325e-01	 1.1415567699e+00	-2.4419844988e+00
 3.5438187907e-01	 1.1479794950e+00	-2.5454104530e+00
 3.2753156559e-01	 1.1538561635e+00	-2.6462460433e+00
 3.0054696216e-01	 1.1591961500e+00	-2.7442853788e+00
 2.7344699152e-01	 1.1640094364e+00	-2.8393891782e+00
 5.4341300048e-01	 1.1042606979e+00	-1.7963761519e+00
 5.1774191393e-01	 1.1142361224e+00	-1.8941923854e+00
 4.9179649695e-01	 1.1236172336e+00	-1.9925672063e+00
 4.6559664642e-01	 1.1324089672e+00	-2.0909186694e+00
 4.3916230558e-01	 1.1406171120e+00	-2.1887251612e+00
 4.1251341009e-01	 1.1482482749e+00	-2.2855256075e+00
 3.8566983557e-01	 1.1553098437e+00	-2.3809190525e+00
 3.5865134709e-01	 1.1618099475e+00	-2.4745636619e+00
 3.3147755050e-01	 1.1677574160e+00	-2.5661752119e+00
 3.0416784607e-01	 1.1731617368e+00	-2.6555251252e+00
 2.7674138453e-01	 1.1780330119e+00	-2.7424381194e+00
 5.4988190915e-01	 1.1174060618e+00	-1.8074727948e+00
 5.2390522830e-01	 1.1275002359e+00	-1.8936125434e+00
 4.9765095133e-01	 1.1369930219e+00	-1.9805894687e+00
 4.7113921198e-01	 1.1458894143e+00	-2.0678942532e+00
 4.4439019090e-01	 1.1541952706e+00	-2.1550604591e+00
 4.1742406105e-01	 1.1619172766e+00	-2.2416653742e+00
 3.9026093468e-01	 1.1690629078e+00	-2.3273303697e+00
 3.6292081213e-01	 1.1756403904e+00	-2.4117208040e+00
 3.3542353264e-01	 1.1816586589e+00	-2.4945455107e+00
 3.0778872745e-01	 1.1871273138e+00	-2.5755559135e+00
 2.8003577524e-01	 1.1920565777e+00	-2.6545448098e+00
 5.5635081404e-01	 1.1305514179e+00	-1.8202345550e+00
 5.3006853907e-01	 1.1407643416e+00	-1.8956664233e+00
 5.0350540230e-01	 1.1503688024e+00	-1.9721542760e+00
 4.7668177431e-01	 1.1593698535e+00	-2.0492533394e+00
 4.4961807316e-01	 1.1677734213e+00	-2.1265462654e+00
 4.2233470914e-01	 1.1755862703e+00	-2.2036445408e+00
 3.9485203111e-01	 1.1828159640e+00	-2.2801895325e+00
 3.6719027468e-01	 1.1894708251e+00	-2.3558531879e+00
 3.3936951249e-01	 1.1955598936e+00	-2.4303384055e+00
 3.1140960672e-01	 1.2010928827e+00	-2.5033791028e+00
 2.8333016403e-01	 1.2060801353e+00	-2.5747400044e+00
 5.6281971592e-01	 1.1436967679e+00	-1.8338821445e+00
 5.3623184697e-01	 1.1540284412e+00	-1.8995167990e+00
 5.0935985053e-01	 1.1637445767e+00	-1.9663760526e+00
 4.8222433405e-01	 1.1728502864e+00	-2.0340717075e+00
 4.5484595299e-01	 1.1813515657e+00	-2.1022294775e+00
 4.2724535495e-01	 1.1892552576e+00	-2.1704908878e+00
 3.9944312540e-01	 1.1965690137e+00	-2.2385149208e+00
 3.7145973523e-01	 1.2033012534e+00	-2.3059794103e+00
 3.4331549049e-01	 1.2094611218e+00	-2.3725821832e+00
 3.1503048430e-01	 1.2150584451e+00	-2.4380419589e+00
 2.8662455128e-01	 1.2201036864e+00	-2.5020990140e+00
 5.6928861553e-01	 1.1568421134e+00	-1.8476716878e+00
 5.4239515271e-01	 1.1672925361e+00	-1.9043644906e+00
 5.1521429672e-01	 1.1771203463e+00	-1.9624094670e+00
 4.8776689185e-01	 1.1863307146e+00	-2.0214671379e+00
 4.6007383098e-01	 1.1949297053e+00	-2.0812003067e+00
 4.3215599904e-01	 1.2029242401e+00	-2.1412763791e+00
 4.0403421808e-01	 1.2103220586e+00	-2.2013695252e+00
 3.7572919429e-01	 1.2171316769e+00	-2.2611626688e+00
 3.4726146712e-01	 1.2233623451e+00	-2.3203492916e+00
 3.1865136061e-01	 1.2290240026e+00	-2.3786350463e+00
 2.8991893738e-01	 1.2341272325e+00	-2.4357391738e+00
 5.7575751363e-01	 1.1699874557e+00	-1.8608927334e+00
 5.4855845701e-01	 1.1805566279e+00	-1.9094462279e+00
 5.2106874154e-01	 1.1904961128e+00	-1.9594471712e+00
 4.9330944835e-01	 1.1998111396e+00	-2.0105970526e+00
 4.6530170775e-01	 1.2085078418e+00	-2.0625898450e+00
 4.3706664197e-01	 1.2165932195e+00	-2.1151146795e+00
 4.0862530968e-01	 1.2240751003e+00	-2.1678584408e+00
 3.7999865236e-01	 1.2309620972e+00	-2.2205082567e+00
 3.5120744282e-01	 1.2372635652e+00	-2.2727538589e+00
 3.2227223607e-01	 1.2429895568e+00	-2.3242897960e+00
 2.9321332271e-01	 1.2481507754e+00	-2.3748174825e+00
 5.8222641097e-01	 1.1831327965e+00	-1.8728663964e+00
 5.5472176059e-01	 1.1938207182e+00	-1.9140326546e+00
 5.2692318567e-01	 1.2038718777e+00	-1.9567176910e+00
 4.9885200421e-01	 1.2132915631e+00	-2.0006563130e+00
 4.7052958392e-01	 1.2220859766e+00	-2.0455677944e+00
 4.4197728434e-01	 1.2302621973e+00	-2.0911588386e+00
 4.1321640076e-01	 1.2378281404e+00	-2.1371265286e+00
 3.8426810993e-01	 1.2447925158e+00	-2.1831612243e+00
 3.5515341806e-01	 1.2511647837e+00	-2.2289493778e+00
 3.2589311112e-01	 1.2569551095e+00	-2.2741762347e+00
 2.9650770765e-01	 1.2621743166e+00	-2.3185283988e+00
 2.6356379480e-01	 1.1219386343e+00	-3.1950081127e+00
 2.3734822965e-01	 1.1260807273e+00	-3.3071532416e+00
 2.1105709511e-01	 1.1297359180e+00	-3.4066832398e+00
 1.8470772042e-01	 1.1329153307e+00	-3.4937760288e+00
 1.5831705257e-01	 1.1356305041e+00	-3.5687356388e+00
 1.3190162721e-01	 1.1378933484e+00	-3.6319798235e+00
 1.0547754230e-01	 1.1397161028e+00	-3.6840276611e+00
 7.9060434482e-02	 1.1411112938e+00	-3.7254872897e+00
 5.2665458172e-02	 1.1420916935e+00	-3.7570439056e+00
 2.6307267358e-02	 1.1426702801e+00	-3.7794481362e+00
 0.0000000000e+00	 1.1428601985e+00	-3.7935048809e+00
 2.6685819703e-01	 1.1359622492e+00	-3.0645808033e+00
 2.4031495177e-01	 1.1401561161e+00	-3.1688072803e+00
 2.1369519253e-01	 1.1438569947e+00	-3.2614011991e+00
 1.8701646517e-01	 1.1470761482e+00	-3.3425209866e+00
 1.6029592851e-01	 1.1498252598e+00	-3.4124496271e+00
 1.3355032488e-01	 1.1521163884e+00	-3.4715824429e+00
 1.0679595347e-01	 1.1539619263e+00	-3.5204148599e+00
 8.0048646356e-02	 1.1553745563e+00	-3.5595303045e+00
 5.3323747384e-02	 1.1563672105e+00	-3.5895883585e+00
 2.6636093707e-02	 1.1569530291e+00	-3.6113132845e+00
 0.0000000000e+00	 1.1571453214e+00	-3.6254830122e+00
 2.7015259581e-01	 1.1499858493e+00	-2.9464145035e+00
 2.4328167077e-01	 1.1542314900e+00	-3.0428280744e+00
 2.1633328717e-01	 1.1579780564e+00	-3.1285743919e+00
 1.8932520749e-01	 1.1612369509e+00	-3.2037914886e+00
 1.6227480237e-01	 1.1640200006e+00	-3.2687398627e+00
 1.3519902083e-01	 1.1663394135e+00	-3.3237904874e+00
 1.0811436326e-01	 1.1682077347e+00	-3.3694128040e+00
 8.1036857194e-02	 1.1696378039e+00	-3.4061628401e+00
 5.3982035906e-02	 1.1706427125e+00	-3.4346715813e+00
 2.6964919710e-02	 1.1712357631e+00	-3.4556337036e+00
 0.0000000000e+00	 1.1714304292e+00	-3.4697967601e+00
 2.7344699152e-01	 1.1640094364e+00	-2.8393891782e+00
 2.4624838700e-01	 1.1683068509e+00	-2.9281329325e+00
 2.1897137936e-01	 1.1720991051e+00	-3.0071535627e+00
 1.9163394766e-01	 1.1753977403e+00	-3.0765680093e+00
 1.6425367438e-01	 1.1782147281e+00	-3.1366130546e+00
 1.3684771523e-01	 1.1805624252e+00	-3.1876336241e+00
 1.0943277181e-01	 1.1824535299e+00	-3.2300710662e+00
 8.2025067110e-02	 1.1839010381e+00	-3.2644515520e+00
 5.4640323814e-02	 1.1849182012e+00	-3.2913747201e+00
 2.7293745407e-02	 1.1855184838e+00	-3.3115026720e+00
 0.0000000000e+00	 1.1857155238e+00	-3.3255494089e+00
 2.7674138453e-01	 1.1780330119e+00	-2.7424381194e+00
 2.4921510081e-01	 1.1823822002e+00	-2.8236907124e+00
 2.2160946939e-01	 1.1862201421e+00	-2.8961394141e+00
 1.9394268595e-01	 1.1895585182e+00	-2.9598795657e+00
 1.6623254478e-01	 1.1924094441e+00	-3.0151232057e+00
 1.3849640829e-01	 1.1947854254e+00	-3.0621877210e+00
 1.1075117929e-01	 1.1966993134e+00	-3.1014844729e+00
 8.3013276220e-02	 1.1981642607e+00	-3.1335075363e+00
 5.5298611184e-02	 1.1991936782e+00	-3.1588226727e+00
 2.7622570835e-02	 1.1998011928e+00	-3.1780566421e+00
 0.0000000000e+00	 1.2000006067e+00	-3.1918869413e+00
 2.8003577524e-01	 1.1920565777e+00	-2.6545448098e+00
 2.5218181254e-01	 1.1964575397e+00	-2.7285187896e+00
 2.2424755758e-01	 1.2003411693e+00	-2.7945796676e+00
 1.9625142262e-01	 1.2037192862e+00	-2.8528008621e+00
 1.6821141380e-01	 1.2066041501e+00	-2.9033688308e+00
 1.4014510020e-01	 1.2090084156e+00	-2.9465721296e+00
 1.1206958585e-01	 1.2109450870e+00	-2.9827904425e+00
 8.4001484638e-02	 1.2124274734e+00	-3.0124837159e+00
 5.5956898094e-02	 1.2134691452e+00	-3.0361815145e+00
 2.7951396034e-02	 1.2140838918e+00	-3.0544727011e+00
 0.0000000000e+00	 1.2142856796e+00	-3.0679955261e+00
 2.8333016403e-01	 1.2060801353e+00	-2.5747400044e+00
 2.5514852255e-01	 1.2105328710e+00	-2.6416802359e+00
 2.2688564422e-01	 1.2144621883e+00	-2.7015663304e+00
 1.9856015794e-01	 1.2178800459e+00	-2.7544496340e+00
 1.7019028166e-01	 1.2207988478e+00	-2.8004903687e+00
 1.4179379114e-01	 1.2232313976e+00	-2.8399471567e+00
 1.1338799164e-01	 1.2251908523e+00	-2.8731665087e+00
 8.4989692481e-02	 1.2266906777e+00	-2.9005724084e+00
 5.6615184621e-02	 1.2277446039e+00	-2.9226561042e+00
 2.8280221041e-02	 1.2283665825e+00	-2.9399662077e+00
 0.0000000000e+00	 1.2285707441e+00	-2.9530991824e+00
 2.8662455128e-01	 1.2201036864e+00	-2.5020990140e+00
 2.5811523116e-01	 1.2246081957e+00	-2.5622811934e+00
 2.2952372964e-01	 1.2285832006e+00	-2.6162331502e+00
 2.0086889219e-01	 1.2320407989e+00	-2.6639841745e+00
 1.7216914860e-01	 1.2349935389e+00	-2.7056677729e+00
 1.4344248132e-01	 1.2374543728e+00	-2.7415117107e+00
 1.1470639681e-01	 1.2394366109e+00	-2.7718280154e+00
 8.5977899862e-02	 1.2409538753e+00	-2.7970030624e+00
 5.7273470840e-02	 1.2420200560e+00	-2.8174878555e+00
 2.8609045895e-02	 1.2426492666e+00	-2.8337885934e+00
 0.0000000000e+00	 1.2428558020e+00	-2.8464576039e+00
 2.8991893738e-01	 1.2341272325e+00	-2.4357391738e+00
 2.6108193874e-01	 1.2386835154e+00	-2.4894684276e+00
 2.3216181413e-01	 1.2427042081e+00	-2.5377532435e+00
 2.0317762563e-01	 1.2462015471e+00	-2.5806010308e+00
 1.7414801484e-01	 1.2491882250e+00	-2.6181182663e+00
 1.4509117092e-01	 1.2516773431e+00	-2.6505011087e+00
 1.1602480153e-01	 1.2536823645e+00	-2.6780259682e+00
 8.6966106898e-02	 1.2552170680e+00	-2.7010401476e+00
 5.7931756830e-02	 1.2562955030e+00	-2.7199526599e+00
 2.8937870634e-02	 1.2569319456e+00	-2.7352253124e+00
 0.0000000000e+00	 1.2571408549e+00	-2.7473641324e+00
 2.9321332271e-01	 1.2481507754e+00	-2.3748174825e+00
 2.6404864563e-01	 1.2527588319e+00	-2.4224270454e+00
 2.3479989801e-01	 1.2568252122e+00	-2.4653368842e+00
 2.0548635853e-01	 1.2603622919e+00	-2.5035328544e+00
 1.7612688063e-01	 1.2633829079e+00	-2.5370942477e+00
 1.4673986013e-01	 1.2659003101e+00	-2.5661850305e+00
 1.1734320593e-01	 1.2679281148e+00	-2.5910450312e+00
 8.7954313704e-02	 1.2694802573e+00	-2.6119811872e+00
 5.8590042665e-02	 1.2705709467e+00	-2.6293589495e+00
 2.9266695296e-02	 1.2712146213e+00	-2.6435939305e+00
 0.0000000000e+00	 1.2714259045e+00	-2.6551438671e+00
 2.9650770765e-01	 1.2621743166e+00	-2.3185283988e+00
 2.6701535218e-01	 1.2668341468e+00	-2.3603783646e+00
 2.3743798158e-01	 1.2709462147e+00	-2.3982294393e+00
 2.0779509116e-01	 1.2745230351e+00	-2.4320463961e+00
 1.7810574618e-01	 1.2775775890e+00	-2.4618813378e+00
 1.4838854915e-01	 1.2801232755e+00	-2.4878656101e+00
 1.1866161018e-01	 1.2821738634e+00	-2.5102016570e+00
 8.8942520394e-02	 1.2837434449e+00	-2.5291549222e+00
 5.9248328424e-02	 1.2848463888e+00	-2.5450458897e+00
 2.9595519919e-02	 1.2854972953e+00	-2.5582423412e+00
 0.0000000000e+00	 1.2857109524e+00	-2.5691519003e+00
 1.2857109524e+00	 0.0000000000e+00	 2.0084699897e+00
 1.2854972953e+00	 2.9595519919e-02	 2.0003305037e+00
 1.2848463888e+00	 5.9248328424e-02	 1.9965155145e+00
 1.2837434449e+00	 8.8942520394e-02	 1.9955250193e+00
 1.2821738634e+00	 1.1866161018e-01	 1.9958016783e+00
 1.2801232755e+00	 1.4838854915e-01	 1.9957373322e+00
 1.2775775890e+00	 1.7810574618e-01	 1.9936806804e+00
 1.2745230351e+00	 2.0779509116e-01	 1.9879461507e+00
 1.2709462147e+00	 2.3743798158e-01	 1.9768239740e+00
 1.2668341468e+00	 2.6701535218e-01	 1.9585914608e+00
 1.2621743166e+00	 2.9650770765e-01	 1.9315254561e+00
 1.2999969994e+00	 0.0000000000e+00	 2.0426587546e+00
 1.2997809683e+00	 2.9924367543e-02	 2.0344912088e+00
 1.2991228294e+00	 5.9906660228e-02	 2.0299041537e+00
 1.2980076302e+00	 8.9930796205e-02	 2.0274394680e+00
 1.2964206085e+00	 1.1998010665e-01	 2.0255856062e+00
 1.2943472356e+00	 1.5003735349e-01	 2.0227841678e+00
 1.2917732631e+00	 1.8008475015e-01	 2.0174375969e+00
 1.2886847687e+00	 2.1010398527e-01	 2.0079180380e+00
 1.2850682048e+00	 2.4007624967e-01	 1.9925773589e+00
 1.2809104461e+00	 2.6998226622e-01	 1.9697583339e+00
 1.2761988388e+00	 2.9980232302e-01	 1.9378069616e+00
 1.3142830432e+00	 0.0000000000e+00	 2.0748484457e+00
 1.3140646380e+00	 3.0253215090e-02	 2.0666502961e+00
 1.3133992666e+00	 6.0564991877e-02	 2.0613256135e+00
 1.3122718122e+00	 9.0919071785e-02	 2.0574575683e+00
 1.3106673502e+00	 1.2129860281e-01	 2.0535796462e+00
 1.3085711925e+00	 1.5168615745e-01	 2.0481822586e+00
 1.3059689338e+00	 1.8206375365e-01	 2.0397204535e+00
 1.3028464991e+00	 2.1241287885e-01	 2.0266227480e+00
 1.2991901917e+00	 2.4271451714e-01	 2.0073010919e+00
 1.2949867422e+00	 2.7294917958e-01	 1.9801619502e+00
 1.2902233576e+00	 3.0309693762e-01	 1.9436184785e+00
 1.3285690802e+00	 0.0000000000e+00	 2.1048226995e+00
 1.3283483011e+00	 3.0582062483e-02	 2.0965874963e+00
 1.3276756971e+00	 6.1223323219e-02	 2.0905546734e+00
 1.3265359875e+00	 9.1907346903e-02	 2.0853481167e+00
 1.3249140853e+00	 1.2261709835e-01	 2.0795455967e+00
 1.3227951427e+00	 1.5333496063e-01	 2.0716854109e+00
 1.3201645979e+00	 1.8404275623e-01	 2.0602740948e+00
 1.3170082228e+00	 2.1472177135e-01	 2.0437952240e+00
 1.3133121720e+00	 2.4535278339e-01	 2.0207193083e+00
 1.3090630317e+00	 2.7591609155e-01	 1.9895147688e+00
 1.3042478699e+00	 3.0639155069e-01	 1.9486599636e+00
 1.3428551073e+00	 0.0000000000e+00	 2.1323743521e+00
 1.3426319541e+00	 3.0910909646e-02	 2.1240919059e+00
 1.3419521177e+00	 6.1881654101e-02	 2.1173756900e+00
 1.3408001529e+00	 9.2895621330e-02	 2.1108897414e+00
 1.3391608104e+00	 1.2393559298e-01	 2.1032553861e+00
 1.3370190829e+00	 1.5498376267e-01	 2.0930579010e+00
 1.3343602520e+00	 1.8602175742e-01	 2.0788542179e+00
 1.3311699367e+00	 2.1703066223e-01	 2.0591816832e+00
 1.3274341424e+00	 2.4799104779e-01	 2.0325678780e+00
 1.3231393113e+00	 2.7888300145e-01	 1.9975414803e+00
 1.3182723724e+00	 3.0968616145e-01	 1.9526441379e+00
 1.3571411210e+00	 0.0000000000e+00	 2.1573049548e+00
 1.3569155938e+00	 3.1239756502e-02	 2.1489614947e+00
 1.3562285250e+00	 6.2539984367e-02	 2.1415820924e+00
 1.3550643049e+00	 9.3883894835e-02	 2.1338703850e+00
 1.3534075222e+00	 1.2525408637e-01	 2.1244905392e+00
 1.3512430099e+00	 1.5663256316e-01	 2.1120739248e+00
 1.3485558929e+00	 1.8800075677e-01	 2.0952268002e+00
 1.3453316373e+00	 2.1933955096e-01	 2.0725390232e+00
 1.3415560997e+00	 2.5062930972e-01	 2.0425937869e+00
 1.3372155778e+00	 2.8184990857e-01	 2.0039783628e+00
 1.3322968618e+00	 3.1298076913e-01	 1.9552958142e+00
 1.3714271181e+00	 0.0000000000e+00	 2.1794243194e+00
 1.3711992169e+00	 3.1568602975e-02	 2.1710026421e+00
 1.3705049155e+00	 6.3198313866e-02	 2.1629759093e+00
 1.3693284403e+00	 9.4872167187e-02	 2.1540868182e+00
 1.3676542174e+00	 1.2657257822e-01	 2.1430416771e+00
 1.3654669203e+00	 1.5828136173e-01	 2.1285170799e+00
 1.3627515173e+00	 1.8997975381e-01	 2.1091675643e+00
 1.3594933214e+00	 2.2164843700e-01	 2.0836342649e+00
 1.3556780404e+00	 2.5326756858e-01	 2.0505545580e+00
 1.3512918279e+00	 2.8481681224e-01	 2.0085726781e+00
 1.3463213348e+00	 3.1627537297e-01	 1.9563512673e+00
 1.3857130952e+00	 0.0000000000e+00	 2.1985500923e+00
 1.3854828199e+00	 3.1897448987e-02	 2.1900297042e+00
 1.3847812861e+00	 6.3856642444e-02	 2.1813673256e+00
 1.3835925557e+00	 9.5860438155e-02	 2.1713441852e+00
 1.3819008927e+00	 1.2789106823e-01	 2.1587080479e+00
 1.3796908107e+00	 1.5993015799e-01	 2.1421798808e+00
 1.3769471217e+00	 1.9195874808e-01	 2.1204614746e+00
 1.3736549856e+00	 2.2395731980e-01	 2.0922440308e+00
 1.3697999614e+00	 2.5590582374e-01	 2.0562177080e+00
 1.3653680583e+00	 2.8778371175e-01	 2.0110821051e+00
 1.3603457882e+00	 3.1956997219e-01	 1.9555576427e+00
 1.3999990489e+00	 0.0000000000e+00	 2.2145073541e+00
 1.3997663996e+00	 3.2226294462e-02	 2.2058646056e+00
 1.3990576334e+00	 6.4514969946e-02	 2.1965742652e+00
 1.3978566478e+00	 9.6848707509e-02	 2.1854555752e+00
 1.3961475447e+00	 1.2920955608e-01	 2.1712970861e+00
 1.3939146780e+00	 1.6157895156e-01	 2.1528633037e+00
 1.3911427030e+00	 1.9393773912e-01	 2.1289022658e+00
 1.3878166268e+00	 2.2626619883e-01	 2.0981540543e+00
 1.3839218593e+00	 2.5854407459e-01	 2.0593602363e+00
 1.3794442657e+00	 2.9075060642e-01	 2.0112742079e+00
 1.3743702187e+00	 3.2286456604e-01	 1.9526724014e+00
 1.4142849760e+00	 0.0000000000e+00	 2.2271282439e+00
 1.4140499527e+00	 3.2555139323e-02	 2.2183364572e+00
 1.4133339541e+00	 6.5173296219e-02	 2.2084220002e+00
 1.4121207133e+00	 9.7836975018e-02	 2.1962416214e+00
 1.4103941701e+00	 1.3052804147e-01	 2.1806239987e+00
 1.4081385186e+00	 1.6322774205e-01	 2.1603763586e+00
 1.4053382578e+00	 1.9591672646e-01	 2.1342919992e+00
 1.4019782415e+00	 2.2857507355e-01	 2.1011587194e+00
 1.3980437309e+00	 2.6118232052e-01	 2.0597681466e+00
 1.3935204468e+00	 2.9371749554e-01	 2.0089259361e+00
 1.3883946231e+00	 3.2615915374e-01	 1.9474627988e+00
 1.4285708730e+00	 0.0000000000e+00	 2.2362516059e+00
 1.4283334758e+00	 3.2883983494e-02	 2.2272811964e+00
 1.4276102447e+00	 6.5831621110e-02	 2.2167427830e+00
 1.4263847488e+00	 9.8825240452e-02	 2.2035301229e+00
 1.4246407655e+00	 1.3184652410e-01	 2.1865113759e+00
 1.4223623295e+00	 1.6487652907e-01	 2.1645356871e+00
 1.4195337827e+00	 1.9789570964e-01	 2.1364406463e+00
 1.4161398264e+00	 2.3088394342e-01	 2.1010606274e+00
 1.4121655728e+00	 2.6382056091e-01	 2.0572359956e+00
 1.4075965984e+00	 2.9668437844e-01	 2.0038231551e+00
 1.4024189979e+00	 3.2945373451e-01	 1.9397053943e+00
 1.2621743166e+00	 2.9650770765e-01	 1.9315254561e+00
 1.2569551095e+00	 3.2589311112e-01	 1.8969240894e+00
 1.2511647837e+00	 3.5515341806e-01	 1.8567325257e+00
 1.2447925158e+00	 3.8426810993e-01	 1.8102209501e+00
 1.2378281404e+00	 4.1321640076e-01	 1.7566763944e+00
 1.2302621973e+00	 4.4197728434e-01	 1.6954102033e+00
 1.2220859766e+00	 4.7052958392e-01	 1.6257658496e+00
 1.2132915631e+00	 4.9885200421e-01	 1.5471270176e+00
 1.2038718777e+00	 5.2692318567e-01	 1.4589258589e+00
 1.1938207182e+00	 5.5472176059e-01	 1.3606513159e+00
 1.1831327965e+00	 5.8222641097e-01	 1.2518573941e+00
 1.2761988388e+00	 2.9980232302e-01	 1.9378069616e+00
 1.2709216389e+00	 3.2951423942e-01	 1.8979764745e+00
 1.2650669745e+00	 3.5909966930e-01	 1.8521835885e+00
 1.2586239018e+00	 3.8853786612e-01	 1.7997976839e+00
 1.2515821424e+00	 4.1780781295e-01	 1.7402066761e+00
 1.2439321311e+00	 4.4688827018e-01	 1.6728237775e+00
 1.2356650612e+00	 4.7575782574e-01	 1.5970945481e+00
 1.2267729294e+00	 5.0439494774e-01	 1.5125041582e+00
 1.2172485781e+00	 5.3277803929e-01	 1.4185847771e+00
 1.2070857362e+00	 5.6088549527e-01	 1.3149229894e+00
 1.1962790568e+00	 5.8869576078e-01	 1.2011671328e+00
 1.2902233576e+00	 3.0309693762e-01	 1.9436184785e+00
 1.2848881651e+00	 3.3313536688e-01	 1.8988737753e+00
 1.2789691621e+00	 3.6304591962e-01	 1.8478099815e+00
 1.2724552846e+00	 3.9280762132e-01	 1.7898920610e+00
 1.2653361413e+00	 4.2239922408e-01	 1.7246051579e+00
 1.2576020617e+00	 4.5179925488e-01	 1.6514606777e+00
 1.2492441426e+00	 4.8098606635e-01	 1.5700026000e+00
 1.2402542926e+00	 5.0993788998e-01	 1.4798139490e+00
 1.2306252755e+00	 5.3863289155e-01	 1.3805233444e+00
 1.2203507511e+00	 5.6704922850e-01	 1.2718115414e+00
 1.2094253140e+00	 5.9516510908e-01	 1.1534178647e+00
 1.3042478699e+00	 3.0639155069e-01	 1.9486599636e+00
 1.2988546847e+00	 3.3675649265e-01	 1.8993032417e+00
 1.2928713432e+00	 3.6699216811e-01	 1.8432867046e+00
 1.2862866609e+00	 3.9707737452e-01	 1.7801674002e+00
 1.2790901337e+00	 4.2699063306e-01	 1.7095241563e+00
 1.2712719860e+00	 4.5671023728e-01	 1.6309630079e+00
 1.2628232177e+00	 4.8621430452e-01	 1.5441227958e+00
 1.2537356495e+00	 5.1548082964e-01	 1.4486808734e+00
 1.2440019666e+00	 5.4448774107e-01	 1.3443588477e+00
 1.2336157599e+00	 5.7321295886e-01	 1.2309282736e+00
 1.2225715651e+00	 6.0163445437e-01	 1.1082162129e+00
 1.3182723724e+00	 3.0968616145e-01	 1.9526441379e+00
 1.3128211946e+00	 3.4037761589e-01	 1.8989654287e+00
 1.3067735145e+00	 3.7093841382e-01	 1.8383025854e+00
 1.3001180275e+00	 4.0134712474e-01	 1.7703013448e+00
 1.2928441165e+00	 4.3158203882e-01	 1.6946307812e+00
 1.2849419007e+00	 4.6162121625e-01	 1.6109881005e+00
 1.2764022833e+00	 4.9144253903e-01	 1.5191035514e+00
 1.2672169970e+00	 5.2102376541e-01	 1.4187453943e+00
 1.2573786483e+00	 5.5034258650e-01	 1.3097248607e+00
 1.2468807593e+00	 5.7937668491e-01	 1.1919010295e+00
 1.2357178070e+00	 6.0810379512e-01	 1.0651855421e+00
 1.3322968618e+00	 3.1298076913e-01	 1.9552958142e+00
 1.3267876914e+00	 3.4399873574e-01	 1.8975734965e+00
 1.3206756729e+00	 3.7488465586e-01	 1.8325595503e+00
 1.3139493812e+00	 4.0561687097e-01	 1.7599851091e+00
 1.3065980864e+00	 4.3617344031e-01	 1.6796061573e+00
 1.2986118027e+00	 4.6653219063e-01	 1.5912077151e+00
 1.2899813362e+00	 4.9667076865e-01	 1.4946080859e+00
 1.2806983319e+00	 5.2656669601e-01	 1.3896631135e+00
 1.2707553176e+00	 5.5619742646e-01	 1.2762703860e+00
 1.2601457464e+00	 5.8554040520e-01	 1.1543733237e+00
 1.2488640366e+00	 6.1457312984e-01	 1.0239650775e+00
 1.3463213348e+00	 3.1627537297e-01	 1.9563512673e+00
 1.3407541720e+00	 3.4761985137e-01	 1.8948525528e+00
 1.3345778151e+00	 3.7883089329e-01	 1.8257719423e+00
 1.3277807188e+00	 4.0988661222e-01	 1.7489227704e+00
 1.3203520403e+00	 4.4076483643e-01	 1.6641446935e+00
 1.3122816886e+00	 4.7144315928e-01	 1.5713072863e+00
 1.3035603733e+00	 5.0189899218e-01	 1.4703136501e+00
 1.2941796511e+00	 5.3210962014e-01	 1.3611039820e+00
 1.2841319713e+00	 5.6205225959e-01	 1.2436590517e+00
 1.2734107180e+00	 5.9170411830e-01	 1.1180035255e+00
 1.2620102508e+00	 6.2104245701e-01	 9.8420907817e-01
 1.3603457882e+00	 3.1956997219e-01	 1.9555576427e+00
 1.3547206330e+00	 3.5124096194e-01	 1.8905390372e+00
 1.3484799377e+00	 3.8277712519e-01	 1.8176658805e+00
 1.3416120371e+00	 4.1415634749e-01	 1.7368306063e+00
 1.3341059750e+00	 4.4535622613e-01	 1.6479533981e+00
 1.3259515555e+00	 4.7635412106e-01	 1.5509852189e+00
 1.3171393913e+00	 5.0712720839e-01	 1.4459108027e+00
 1.3076609514e+00	 5.3765253651e-01	 1.3327515611e+00
 1.2975086062e+00	 5.6790708453e-01	 1.2115683570e+00
 1.2866756711e+00	 5.9786782277e-01	 1.0824640931e+00
 1.2751564467e+00	 6.2751177512e-01	 9.4558606247e-01
 1.3743702187e+00	 3.2286456604e-01	 1.9526724014e+00
 1.3686870711e+00	 3.5486206658e-01	 1.8843801425e+00
 1.3623820377e+00	 3.8672335066e-01	 1.8079786590e+00
 1.3554433327e+00	 4.1842607579e-01	 1.7234364717e+00
 1.3478598872e+00	 4.4994760833e-01	 1.6307512358e+00
 1.3396214000e+00	 4.8126507482e-01	 1.5299522257e+00
 1.3307183872e+00	 5.1235541606e-01	 1.4211027316e+00
 1.3211422296e+00	 5.4319544383e-01	 1.3043023270e+00
 1.3108852193e+00	 5.7376189990e-01	 1.1796889646e+00
 1.2999406024e+00	 6.0403151717e-01	 1.0474408544e+00
 1.2883026211e+00	 6.3398108266e-01	 9.0777807987e-01
 1.3883946231e+00	 3.2615915374e-01	 1.9474627988e+00
 1.3826534833e+00	 3.5848316447e-01	 1.8761332710e+00
 1.3762841118e+00	 3.9066956875e-01	 1.7964581822e+00
 1.3692746025e+00	 4.2269579611e-01	 1.7084792134e+00
 1.3616137737e+00	 4.5453898196e-01	 1.6122685230e+00
 1.3532912190e+00	 4.8617601941e-01	 1.5079307054e+00
 1.3442973577e+00	 5.1758361397e-01	 1.3956046151e+00
 1.3346234828e+00	 5.4873834080e-01	 1.2754650185e+00
 1.3242618074e+00	 5.7961670434e-01	 1.1477240352e+00
 1.3132055090e+00	 6.1019520007e-01	 1.0126323315e+00
 1.3014487709e+00	 6.4045037813e-01	 8.7048002751e-01
 1.4024189979e+00	 3.2945373451e-01	 1.9397053943e+00
 1.3966198660e+00	 3.6210425476e-01	 1.8655655241e+00
 1.3901861566e+00	 3.9461577856e-01	 1.7828624337e+00
 1.3831058433e+00	 4.2696550748e-01	 1.6917081207e+00
 1.3753676313e+00	 4.5913034595e-01	 1.5922463603e+00
 1.3669610093e+00	 4.9108695369e-01	 1.4846541582e+00
 1.3578762997e+00	 5.2281180090e-01	 1.3691430228e+00
 1.3481047076e+00	 5.5428122614e-01	 1.2459600237e+00
 1.3376383674e+00	 5.8547149649e-01	 1.1153886025e+00
 1.3264703878e+00	 6.1635887003e-01	 9.7774910574e-01
 1.3145948931e+00	 6.4691966002e-01	 8.3339900758e-01
 1.1831327965e+00	 5.8222641097e-01	 1.2518573941e+00
 1.1718029596e+00	 6.0941781830e-01	 1.1334594551e+00
 1.1598285813e+00	 6.3627299610e-01	 1.0075634804e+00
 1.1472073212e+00	 6.6277112297e-01	 8.7556154458e-01
 1.1339378746e+00	 6.8889166950e-01	 7.3886822179e-01
 1.1200199937e+00	 7.1461446003e-01	 5.9891082025e-01
 1.1054545054e+00	 7.3991973413e-01	 4.5711911728e-01
 1.0902433246e+00	 7.6478820756e-01	 3.1491471808e-01
 1.0743894629e+00	 7.8920113219e-01	 1.7370017496e-01
 1.0578970339e+00	 8.1314035461e-01	 3.4848014182e-02
 1.0407712524e+00	 8.3658837299e-01	-1.0031017478e-01
 1.1962790568e+00	 5.8869576078e-01	 1.2011671328e+00
 1.1848233296e+00	 6.1618930268e-01	 1.0781544990e+00
 1.1727158992e+00	 6.4334287907e-01	 9.4788614621e-01
 1.1599543992e+00	 6.7013543720e-01	 8.1180147223e-01
 1.1465375105e+00	 6.9654621954e-01	 6.7135831627e-01
 1.1324649825e+00	 7.2255482624e-01	 5.2802261193e-01
 1.1177376512e+00	 7.4814127733e-01	 3.8325756956e-01
 1.1023574529e+00	 7.7328607429e-01	 2.3851252188e-01
 1.0863274326e+00	 7.9797026066e-01	 9.5211579041e-02
 1.0696517496e+00	 8.2217548132e-01	-4.5257750308e-02
 1.0523356768e+00	 8.4588403999e-01	-1.8155580864e-01
 1.2094253140e+00	 5.9516510908e-01	 1.1534178647e+00
 1.1978436965e+00	 6.2296078548e-01	 1.0261048292e+00
 1.1856032140e+00	 6.5041276039e-01	 8.9176979044e-01
 1.1727014743e+00	 6.7749974970e-01	 7.5189336616e-01
 1.1591371434e+00	 7.0420076778e-01	 6.0797083378e-01
 1.1449099683e+00	 7.3049519060e-01	 4.6150126259e-01
 1.1300207942e+00	 7.5636281862e-01	 3.1397620332e-01
 1.1144715783e+00	 7.8178393904e-01	 1.6686807781e-01
 1.0982653996e+00	 8.0673938709e-01	 2.1618423939e-02
 1.0814064627e+00	 8.3121060593e-01	-1.2037383938e-01
 1.0639000985e+00	 8.5517970482e-01	-2.5776395627e-01
 1.2225715651e+00	 6.0163445437e-01	 1.1082162129e+00
 1.2108640573e+00	 6.2973226512e-01	 9.7691381105e-01
 1.1984905228e+00	 6.5748263841e-01	 8.3881612695e-01
 1.1854485433e+00	 6.8486405877e-01	 6.9543908812e-01
 1.1717367705e+00	 7.1185531246e-01	 5.4830976909e-01
 1.1573549484e+00	 7.3843555126e-01	 3.9895506221e-01
 1.1423039314e+00	 7.6458435607e-01	 2.4888993254e-01
 1.1265856982e+00	 7.9028179982e-01	 9.9605407497e-02
 1.1102033610e+00	 8.1550850942e-01	-4.7443535817e-02
 1.0931611702e+00	 8.4024572632e-01	-1.9085001342e-01
 1.0754645148e+00	 8.6447536531e-01	-3.2926702954e-01
 1.2357178070e+00	 6.0810379512e-01	 1.0651855421e+00
 1.2238844090e+00	 6.3650374002e-01	 9.3020169096e-01
 1.2113778226e+00	 6.6455251148e-01	 7.8864382162e-01
 1.1981956035e+00	 6.9222836268e-01	 6.4205744626e-01
 1.1843363887e+00	 7.1950985177e-01	 4.9199597328e-01
 1.1697999197e+00	 7.4637590636e-01	 3.4000897494e-01
 1.1545870600e+00	 7.7280588776e-01	 1.8763006419e-01
 1.1386998095e+00	 7.9877965465e-01	 3.6364538699e-02
 1.1221413140e+00	 8.2427762561e-01	-1.1232303824e-01
 1.1049158695e+00	 8.4928084039e-01	-2.5702114113e-01
 1.0870289230e+00	 8.7377101929e-01	-3.9638328633e-01
 1.2488640366e+00	 6.1457312984e-01	 1.0239650775e+00
 1.2369047486e+00	 6.4327520860e-01	 8.8560470766e-01
 1.2242651104e+00	 6.7162237796e-01	 7.4088759997e-01
 1.2109426517e+00	 6.9959265972e-01	 5.9138330307e-01
 1.1969359952e+00	 7.2716438394e-01	 4.3866626648e-01
 1.1822448794e+00	 7.5431625404e-01	 2.8430376152e-01
 1.1668701771e+00	 7.8102741179e-01	 1.2984343544e-01
 1.1508139096e+00	 8.0727750155e-01	-2.3199337194e-02
 1.1340792559e+00	 8.3304673362e-01	-1.7335413008e-01
 1.1166705579e+00	 8.5831594603e-01	-3.1920798332e-01
 1.0985933204e+00	 8.8306666460e-01	-4.5941757545e-01
 1.2620102508e+00	 6.2104245701e-01	 9.8420907817e-01
 1.2499250729e+00	 6.5004666928e-01	 8.4277425916e-01
 1.2371523831e+00	 6.7869223618e-01	 6.9519741056e-01
 1.2236896851e+00	 7.0695694817e-01	 5.4306673912e-01
 1.2095355870e+00	 7.3481890718e-01	 3.8797260604e-01
 1.1946898246e+00	 7.6225659247e-01	 2.3149515643e-01
 1.1791532800e+00	 7.8924892622e-01	 7.5191604717e-02
 1.1629279955e+00	 8.1577533854e-01	-7.9416654944e-02
 1.1460171838e+00	 8.4181583140e-01	-2.3085693199e-01
 1.1284252325e+00	 8.6735104112e-01	-3.7771792765e-01
 1.1101577043e+00	 8.9236229907e-01	-5.1866203498e-01
 1.2751564467e+00	 6.2751177512e-01	 9.4558606247e-01
 1.2629453791e+00	 6.5681812048e-01	 8.0137612120e-01
 1.2500396378e+00	 6.8576208451e-01	 6.5123764015e-01
 1.2364367006e+00	 7.1432122631e-01	 4.9677226849e-01
 1.2221351611e+00	 7.4247341971e-01	 3.3958130615e-01
 1.2071347524e+00	 7.7019691977e-01	 1.8125309597e-01
 1.1914363656e+00	 7.9747042914e-01	 2.3350092798e-02
 1.1750420644e+00	 8.2427316363e-01	-1.3260421644e-01
 1.1579550950e+00	 8.5058491690e-01	-2.8513835642e-01
 1.1401798907e+00	 8.7638612357e-01	-4.3284567804e-01
 1.1217220720e+00	 9.0165792052e-01	-5.7439674748e-01
 1.2883026211e+00	 6.3398108266e-01	 9.0777807987e-01
 1.2759656639e+00	 6.6358956063e-01	 7.6108971344e-01
 1.2629268715e+00	 6.9283192129e-01	 6.0868637693e-01
 1.2491836953e+00	 7.2168549242e-01	 4.5217810218e-01
 1.2347347147e+00	 7.5012791973e-01	 2.9317230524e-01
 1.2195796598e+00	 7.7813723411e-01	 1.3326099356e-01
 1.2037194311e+00	 8.0569191863e-01	-2.5992329618e-02
 1.1871561136e+00	 8.3277097484e-01	-1.8306588631e-01
 1.1698929868e+00	 8.5935398808e-01	-3.3649278154e-01
 1.1519345297e+00	 8.8542119125e-01	-4.8487390175e-01
 1.1332864209e+00	 9.1095352679e-01	-6.2689035504e-01
 1.3014487709e+00	 6.4045037813e-01	 8.7048002751e-01
 1.2889859245e+00	 6.7036098813e-01	 7.2160741021e-01
 1.2758140811e+00	 6.9990174487e-01	 5.6723471827e-01
 1.2619306663e+00	 7.2904974479e-01	 4.0897545627e-01
 1.2473342447e+00	 7.5778240547e-01	 2.4843847773e-01
 1.2320245441e+00	 7.8607753363e-01	 8.7215058969e-02
 1.2160024738e+00	 8.1391339278e-01	-7.3134311192e-02
 1.1992701402e+00	 8.4126877019e-01	-2.3109324540e-01
 1.1818308562e+00	 8.6812304290e-01	-3.8520268430e-01
 1.1636891467e+00	 8.9445624208e-01	-5.3407383737e-01
 1.1448507481e+00	 9.2024911570e-01	-6.7640063714e-01
 1.3145948931e+00	 6.4691966002e-01	 8.3339900758e-01
 1.3020061577e+00	 6.7713240141e-01	 6.8263389257e-01
 1.2887012636e+00	 7.0697155361e-01	 5.2658612013e-01
 1.2746776104e+00	 7.3641398169e-01	 3.6686790140e-01
 1.2599337483e+00	 7.6543687513e-01	 2.0508498711e-01
 1.2444694021e+00	 7.9401781647e-01	 4.2823658390e-02
 1.2282854906e+00	 8.2213484966e-01	-1.1836254908e-01
 1.2113841413e+00	 8.4976654770e-01	-2.7696620500e-01
 1.1937687006e+00	 8.7689207929e-01	-4.3153923560e-01
 1.1754437391e+00	 9.0349127393e-01	-5.8070586627e-01
 1.1564150511e+00	 9.2954468510e-01	-7.2317505376e-01
 1.0407712524e+00	 8.3658837299e-01	-1.0031017478e-01
 1.0230184280e+00	 8.5952839397e-01	-2.3388122908e-01
 1.0046459470e+00	 8.8194439106e-01	-3.6771952137e-01
 9.8566226724e-01	 9.0382114827e-01	-5.0015855827e-01
 9.6607690210e-01	 9.2514430463e-01	-6.2955086826e-01
 9.4590039750e-01	 9.4590039750e-01	-7.5428061509e-01
 9.2514430463e-01	 9.6607690210e-01	-8.7277594245e-01
 9.0382114827e-01	 9.8566226724e-01	-9.8352086861e-01
 8.8194439106e-01	 1.0046459470e+00	-1.0850665574e+00
 8.5952839397e-01	 1.0230184280e+00	-1.1760418034e+00
 8.3658837299e-01	 1.0407712524e+00	-1.2551625855e+00
 1.0523356768e+00	 8.4588403999e-01	-1.8155580864e-01
 1.0343855936e+00	 8.6907895669e-01	-3.1570485872e-01
 1.0158089687e+00	 8.9174402687e-01	-4.4950279215e-01
 9.9661435372e-01	 9.1386386544e-01	-5.8132662033e-01
 9.7681136778e-01	 9.3542395190e-01	-7.0957759865e-01
 9.5641067399e-01	 9.5641067399e-01	-8.3269351405e-01
 9.3542395190e-01	 9.7681136778e-01	-9.4916064437e-01
 9.1386386544e-01	 9.9661435372e-01	-1.0575252131e+00
 8.9174402687e-01	 1.0158089687e+00	-1.1564041721e+00
 8.6907895669e-01	 1.0343855936e+00	-1.2444951572e+00
 8.4588403999e-01	 1.0523356768e+00	-1.3205854785e+00
 1.0639000985e+00	 8.5517970482e-01	-2.5776395627e-01
 1.0457527567e+00	 8.7862951718e-01	-3.9248716206e-01
 1.0269719878e+00	 9.0154366038e-01	-5.2628131334e-01
 1.0075664376e+00	 9.2390658027e-01	-6.5756747615e-01
 9.8754583095e-01	 9.4570359677e-01	-7.8479578484e-01
 9.6692094803e-01	 9.6692094803e-01	-9.0645739847e-01
 9.4570359677e-01	 9.8754583095e-01	-1.0210960740e+00
 9.2390658027e-01	 1.0075664376e+00	-1.1273191853e+00
 9.0154366038e-01	 1.0269719878e+00	-1.2238080260e+00
 8.7862951718e-01	 1.0457527567e+00	-1.3093272488e+00
 8.5517970482e-01	 1.0639000985e+00	-1.3827333102e+00
 1.0754645148e+00	 8.6447536531e-01	-3.2926702954e-01
 1.0571199144e+00	 8.8818007321e-01	-4.6454094734e-01
 1.0381350017e+00	 9.1134328932e-01	-5.9834667896e-01
 1.0185185165e+00	 9.3394929041e-01	-7.2914985785e-01
 9.9828028912e-01	 9.5598323684e-01	-8.5544962201e-01
 9.7743121717e-01	 9.7743121717e-01	-9.7579023405e-01
 9.5598323684e-01	 9.9828028912e-01	-1.0887722676e+00
 9.3394929041e-01	 1.0185185165e+00	-1.1930631944e+00
 9.1134328932e-01	 1.0381350017e+00	-1.2874072159e+00
 8.8818007321e-01	 1.0571199144e+00	-1.3706341997e+00
 8.6447536531e-01	 1.0754645148e+00	-1.4416675952e+00
 1.0870289230e+00	 8.7377101929e-01	-3.9638328633e-01
 1.0684870641e+00	 8.9773062256e-01	-5.3216570244e-01
 1.0492980078e+00	 9.2114291140e-01	-6.6597806493e-01
 1.0294705876e+00	 9.4399199353e-01	-7.9633105184e-01
 1.0090147398e+00	 9.6626286971e-01	-9.2177290333e-01
 9.8794147894e-01	 9.8794147894e-01	-1.0409007002e+00
 9.6626286971e-01	 1.0090147398e+00	-1.1523711631e+00
 9.4399199353e-01	 1.0294705876e+00	-1.2549108116e+00
 9.2114291140e-01	 1.0492980078e+00	-1.3473253331e+00
 8.9773062256e-01	 1.0684870641e+00	-1.4285080288e+00
 8.7377101929e-01	 1.0870289230e+00	-1.4974472180e+00
 1.0985933204e+00	 8.8306666460e-01	-4.5941757545e-01
 1.0798542033e+00	 9.0728116300e-01	-5.9564829596e-01
 1.0604610035e+00	 9.3094252434e-01	-7.2944288254e-01
 1.0404226485e+00	 9.5403468727e-01	-8.5935750114e-01
 1.0197491804e+00	 9.7654249299e-01	-9.8398956733e-01
 9.9845173091e-01	 9.9845173091e-01	-1.1019886788e+00
 9.7654249299e-01	 1.0197491804e+00	-1.2120670266e+00
 9.5403468727e-01	 1.0404226485e+00	-1.3130091303e+00
 9.3094252434e-01	 1.0604610035e+00	-1.4036807530e+00
 9.0728116300e-01	 1.0798542033e+00	-1.4830368684e+00
 8.8306666460e-01	 1.0985933204e+00	-1.5501285714e+00
 1.1101577043e+00	 8.9236229907e-01	-5.1866203498e-01
 1.0912213292e+00	 9.1683169229e-01	-6.5526363436e-01
 1.0716239861e+00	 9.4074212584e-01	-7.8899739124e-01
 1.0513746967e+00	 9.6407736930e-01	-9.1846537004e-01
 1.0304836085e+00	 9.8682210428e-01	-1.0423142111e+00
 1.0089619706e+00	 1.0089619706e+00	-1.1592457120e+00
 9.8682210428e-01	 1.0304836085e+00	-1.2680268514e+00
 9.6407736930e-01	 1.0513746967e+00	-1.3674991033e+00
 9.4074212584e-01	 1.0716239861e+00	-1.4565869066e+00
 9.1683169229e-01	 1.0912213292e+00	-1.5343051663e+00
 8.9236229907e-01	 1.1101577043e+00	-1.5997656859e+00
 1.1217220720e+00	 9.0165792052e-01	-5.7439674748e-01
 1.1025884392e+00	 9.2638220821e-01	-7.1127527863e-01
 1.0827869531e+00	 9.5054171363e-01	-8.4488727335e-01
 1.0623267295e+00	 9.7412003726e-01	-9.7388107396e-01
 1.0412180216e+00	 9.9710170118e-01	-1.0969525716e+00
 1.0194721956e+00	 1.0194721956e+00	-1.2128554327e+00
 9.9710170118e-01	 1.0412180216e+00	-1.3204107335e+00
 9.7412003726e-01	 1.0623267295e+00	-1.4185158593e+00
 9.5054171363e-01	 1.0827869531e+00	-1.5061525354e+00
 9.2638220821e-01	 1.1025884392e+00	-1.5823938757e+00
 9.0165792052e-01	 1.1217220720e+00	-1.6464103521e+00
 1.1332864209e+00	 9.1095352679e-01	-6.2689035504e-01
 1.1139555306e+00	 9.3593270854e-01	-7.6393602305e-01
 1.0939499019e+00	 9.6034128541e-01	-8.9734817373e-01
 1.0732787444e+00	 9.8416268883e-01	-1.0258217767e+00
 1.0519524171e+00	 1.0073812813e+00	-1.1481019781e+00
 1.0299824034e+00	 1.0299824034e+00	-1.2629939671e+00
 1.0073812813e+00	 1.0519524171e+00	-1.3693722227e+00
 9.8416268883e-01	 1.0732787444e+00	-1.4661889997e+00
 9.6034128541e-01	 1.0939499019e+00	-1.5524819309e+00
 9.3593270854e-01	 1.1139555306e+00	-1.6273806337e+00
 9.1095352679e-01	 1.1332864209e+00	-1.6901122338e+00
 1.1448507481e+00	 9.2024911570e-01	-6.7640063714e-01
 1.1253226008e+00	 9.4548319104e-01	-8.1348843902e-01
 1.1051128299e+00	 9.7014083889e-01	-9.4660620668e-01
 1.0842307389e+00	 9.9420532164e-01	-1.0744958578e+00
 1.0626867927e+00	 1.0176608422e+00	-1.1959517761e+00
 1.0404925916e+00	 1.0404925916e+00	-1.3098303147e+00
 1.0176608422e+00	 1.0626867927e+00	-1.4150586535e+00
 9.9420532164e-01	 1.0842307389e+00	-1.5106428779e+00
 9.7014083889e-01	 1.1051128299e+00	-1.5956751583e+00
 9.4548319104e-01	 1.1253226008e+00	-1.6693399282e+00
 9.2024911570e-01	 1.1448507481e+00	-1.7309189765e+00
 1.1564150511e+00	 9.2954468510e-01	-7.2317505376e-01
 1.1366896471e+00	 9.5503365348e-01	-8.6016538615e-01
 1.1162757344e+00	 9.7994037180e-01	-9.9287843249e-01
 1.0951827104e+00	 1.0042479334e+00	-1.1201033515e+00
 1.0734211456e+00	 1.0279403815e+00	-1.2406837271e+00
 1.0510027578e+00	 1.0510027578e+00	-1.3535267039e+00
 1.0279403815e+00	 1.0734211456e+00	-1.4576114560e+00
 1.0042479334e+00	 1.0951827104e+00	-1.5519968617e+00
 9.7994037180e-01	 1.1162757344e+00	-1.6358282690e+00
 9.5503365348e-01	 1.1366896471e+00	-1.7083432556e+00
 9.2954468510e-01	 1.1564150511e+00	-1.7688763072e+00
 8.3658837299e-01	 1.0407712524e+00	-1.2551625855e+00
 8.1314035461e-01	 1.0578970339e+00	-1.3276232678e+00
 7.8920113219e-01	 1.0743894629e+00	-1.3991611260e+00
 7.6478820756e-01	 1.0902433246e+00	-1.4693278094e+00
 7.3991973413e-01	 1.1054545054e+00	-1.5376130018e+00
 7.1461446003e-01	 1.1200199937e+00	-1.6034496892e+00
 6.8889166950e-01	 1.1339378746e+00	-1.6662200175e+00
 6.6277112297e-01	 1.1472073212e+00	-1.7252616404e+00
 6.3627299610e-01	 1.1598285813e+00	-1.7798744436e+00
 6.0941781830e-01	 1.1718029596e+00	-1.8293275363e+00
 5.8222641097e-01	 1.1831327965e+00	-1.8728663964e+00
 8.4588403999e-01	 1.0523356768e+00	-1.3205854785e+00
 8.2217548132e-01	 1.0696517496e+00	-1.3896676271e+00
 7.9797026066e-01	 1.0863274326e+00	-1.4572586566e+00
 7.7328607429e-01	 1.1023574529e+00	-1.5229572490e+00
 7.4814127733e-01	 1.1177376512e+00	-1.5863020619e+00
 7.2255482624e-01	 1.1324649825e+00	-1.6467765642e+00
 6.9654621954e-01	 1.1465375105e+00	-1.7038144611e+00
 6.7013543720e-01	 1.1599543992e+00	-1.7568056091e+00
 6.4334287907e-01	 1.1727158992e+00	-1.8051023172e+00
 6.1618930268e-01	 1.1848233296e+00	-1.8480259281e+00
 5.8869576078e-01	 1.1962790568e+00	-1.8848735702e+00
 8.5517970482e-01	 1.0639000985e+00	-1.3827333102e+00
 8.3121060593e-01	 1.0814064627e+00	-1.4488154933e+00
 8.0673938709e-01	 1.0982653996e+00	-1.5128688724e+00
 7.8178393904e-01	 1.1144715783e+00	-1.5745361640e+00
 7.5636281862e-01	 1.1300207942e+00	-1.6334021196e+00
 7.3049519060e-01	 1.1449099683e+00	-1.6889979513e+00
 7.0420076778e-01	 1.1591371434e+00	-1.7408063395e+00
 6.7749974970e-01	 1.1727014743e+00	-1.7882669310e+00
 6.5041276039e-01	 1.1856032140e+00	-1.8307822281e+00
 6.2296078548e-01	 1.1978436965e+00	-1.8677237687e+00
 5.9516510908e-01	 1.2094253140e+00	-1.8984384938e+00
 8.6447536531e-01	 1.0754645148e+00	-1.4416675952e+00
 8.4024572632e-01	 1.0931611702e+00	-1.5050930415e+00
 8.1550850942e-01	 1.1102033610e+00	-1.5659827812e+00
 7.9028179982e-01	 1.1265856982e+00	-1.6240206106e+00
 7.6458435607e-01	 1.1423039314e+00	-1.6788345370e+00
 7.3843555126e-01	 1.1573549484e+00	-1.7300008128e+00
 7.1185531246e-01	 1.1717367705e+00	-1.7770485433e+00
 6.8486405877e-01	 1.1854485433e+00	-1.8194647817e+00
 6.5748263841e-01	 1.1984905228e+00	-1.8567000191e+00
 6.2973226512e-01	 1.2108640573e+00	-1.8881739721e+00
 6.0163445437e-01	 1.2225715651e+00	-1.9132815716e+00
 8.7377101929e-01	 1.0870289230e+00	-1.4974472180e+00
 8.4928084039e-01	 1.1049158695e+00	-1.5585253203e+00
 8.2427762561e-01	 1.1221413140e+00	-1.6165917606e+00
 7.9877965465e-01	 1.1386998095e+00	-1.6713685024e+00
 7.7280588776e-01	 1.1545870600e+00	-1.7225240099e+00
 7.4637590636e-01	 1.1697999197e+00	-1.7696769085e+00
 7.1950985177e-01	 1.1843363887e+00	-1.8124002101e+00
 6.9222836268e-01	 1.1981956035e+00	-1.8502260190e+00
 6.6455251148e-01	 1.2113778226e+00	-1.8826506341e+00
 6.3650374002e-01	 1.2238844090e+00	-1.9091399540e+00
 6.0810379512e-01	 1.2357178070e+00	-1.9291350935e+00
 8.8306666460e-01	 1.0985933204e+00	-1.5501285714e+00
 8.5831594603e-01	 1.1166705579e+00	-1.6091363114e+00
 8.3304673362e-01	 1.1340792559e+00	-1.6646875385e+00
 8.0727750155e-01	 1.1508139096e+00	-1.7165395124e+00
 7.8102741179e-01	 1.1668701771e+00	-1.7643983921e+00
 7.5431625404e-01	 1.1822448794e+00	-1.8079225433e+00
 7.2716438394e-01	 1.1969359952e+00	-1.8467263962e+00
 6.9959265972e-01	 1.2109426517e+00	-1.8803847781e+00
 6.7162237796e-01	 1.2242651104e+00	-1.9084376380e+00
 6.4327520860e-01	 1.2369047486e+00	-1.9303950791e+00
 6.1457312984e-01	 1.2488640366e+00	-1.9457426093e+00
 8.9236229907e-01	 1.1101577043e+00	-1.5997656859e+00
 8.6735104112e-01	 1.1284252325e+00	-1.6569489844e+00
 8.4181583140e-01	 1.1460171838e+00	-1.7102621753e+00
 8.1577533854e-01	 1.1629279955e+00	-1.7594949813e+00
 7.8924892622e-01	 1.1791532800e+00	-1.8043885309e+00
 7.6225659247e-01	 1.1946898246e+00	-1.8446383297e+00
 7.3481890718e-01	 1.2095355870e+00	-1.8798977680e+00
 7.0695694817e-01	 1.2236896851e+00	-1.9097820929e+00
 6.7869223618e-01	 1.2371523831e+00	-1.9338727685e+00
 6.5004666928e-01	 1.2499250729e+00	-1.9517221433e+00
 6.2104245701e-01	 1.2620102508e+00	-1.9628583422e+00
 9.0165792052e-01	 1.1217220720e+00	-1.6464103521e+00
 8.7638612357e-01	 1.1401798907e+00	-1.7019853496e+00
 8.5058491690e-01	 1.1579550950e+00	-1.7533080458e+00
 8.2427316363e-01	 1.1750420644e+00	-1.8001978314e+00
 7.9747042914e-01	 1.1914363656e+00	-1.8424281128e+00
 7.7019691977e-01	 1.2071347524e+00	-1.8797289664e+00
 7.4247341971e-01	 1.2221351611e+00	-1.9117903126e+00
 7.1432122631e-01	 1.2364367006e+00	-1.9382655404e+00
 6.8576208451e-01	 1.2500396378e+00	-1.9587755144e+00
 6.5681812048e-01	 1.2629453791e+00	-1.9729128871e+00
 6.2751177512e-01	 1.2751564467e+00	-1.9802466383e+00
 9.1095352679e-01	 1.1332864209e+00	-1.6901122338e+00
 8.8542119125e-01	 1.1519345297e+00	-1.7442665063e+00
 8.5935398808e-01	 1.1698929868e+00	-1.7938178239e+00
 8.3277097484e-01	 1.1871561136e+00	-1.8386124859e+00
 8.0569191863e-01	 1.2037194311e+00	-1.8784535181e+00
 7.7813723411e-01	 1.2195796598e+00	-1.9131030295e+00
 7.5012791973e-01	 1.2347347147e+00	-1.9422850666e+00
 7.2168549242e-01	 1.2491836953e+00	-1.9656889062e+00
 6.9283192129e-01	 1.2629268715e+00	-1.9829727198e+00
 6.6358956063e-01	 1.2759656639e+00	-1.9937675393e+00
 6.3398108266e-01	 1.2883026211e+00	-1.9976814507e+00
 9.2024911570e-01	 1.1448507481e+00	-1.7309189765e+00
 8.9445624208e-01	 1.1636891467e+00	-1.7838126889e+00
 8.6812304290e-01	 1.1818308562e+00	-1.8317844670e+00
 8.4126877019e-01	 1.1992701402e+00	-1.8747047929e+00
 8.1391339278e-01	 1.2160024738e+00	-1.9124036856e+00
 7.8607753363e-01	 1.2320245441e+00	-1.9446727764e+00
 7.5778240547e-01	 1.2473342447e+00	-1.9712678607e+00
 7.2904974479e-01	 1.2619306663e+00	-1.9919118716e+00
 6.9990174487e-01	 1.2758140811e+00	-2.0062982131e+00
 6.7036098813e-01	 1.2889859245e+00	-2.0140943882e+00
 6.4045037813e-01	 1.3014487709e+00	-2.0149458536e+00
 9.2954468510e-01	 1.1564150511e+00	-1.7688763072e+00
 9.0349127393e-01	 1.1754437391e+00	-1.8206433103e+00
 8.7689207929e-01	 1.1937687006e+00	-1.8672012017e+00
 8.4976654770e-01	 1.2113841413e+00	-1.9084419542e+00
 8.2213484966e-01	 1.2282854906e+00	-1.9442199837e+00
 7.9401781647e-01	 1.2444694021e+00	-1.9743539617e+00
 7.6543687513e-01	 1.2599337483e+00	-1.9986290800e+00
 7.3641398169e-01	 1.2746776104e+00	-2.0167997181e+00
 7.0697155361e-01	 1.2887012636e+00	-2.0285924572e+00
 6.7713240141e-01	 1.3020061577e+00	-2.0337093786e+00
 6.4691966002e-01	 1.3145948931e+00	-2.0318315862e+00
 5.8222641097e-01	 1.1831327965e+00	-1.8728663964e+00
 5.5472176059e-01	 1.1938207182e+00	-1.9140326546e+00
 5.2692318567e-01	 1.2038718777e+00	-1.9567176910e+00
 4.9885200421e-01	 1.2132915631e+00	-2.0006563130e+00
 4.7052958392e-01	 1.2220859766e+00	-2.0455677944e+00
 4.4197728434e-01	 1.2302621973e+00	-2.0911588386e+00
 4.1321640076e-01	 1.2378281404e+00	-2.1371265286e+00
 3.8426810993e-01	 1.2447925158e+00	-2.1831612243e+00
 3.5515341806e-01	 1.2511647837e+00	-2.2289493778e+00
 3.2589311112e-01	 1.2569551095e+00	-2.2741762347e+00
 2.9650770765e-01	 1.2621743166e+00	-2.3185283988e+00
 5.8869576078e-01	 1.1962790568e+00	-1.8848735702e+00
 5.6088549527e-01	 1.2070857362e+00	-1.9192988861e+00
 5.3277803929e-01	 1.2172485781e+00	-1.9552928398e+00
 5.0439494774e-01	 1.2267729294e+00	-1.9926187546e+00
 4.7575782574e-01	 1.2356650612e+00	-2.0310175739e+00
 4.4688827018e-01	 1.2439321311e+00	-2.0702110713e+00
 4.1780781295e-01	 1.2515821424e+00	-2.1099051002e+00
 3.8853786612e-01	 1.2586239018e+00	-2.1497928401e+00
 3.5909966930e-01	 1.2650669745e+00	-2.1895579961e+00
 3.2951423942e-01	 1.2709216389e+00	-2.2288779171e+00
 2.9980232302e-01	 1.2761988388e+00	-2.2674265980e+00
 5.9516510908e-01	 1.2094253140e+00	-1.8984384938e+00
 5.6704922850e-01	 1.2203507511e+00	-1.9266755092e+00
 5.3863289155e-01	 1.2306252755e+00	-1.9565083739e+00
 5.0993788998e-01	 1.2402542926e+00	-1.9877269110e+00
 4.8098606635e-01	 1.2492441426e+00	-2.0200923036e+00
 4.5179925488e-01	 1.2576020617e+00	-2.0533405274e+00
 4.2239922408e-01	 1.2653361413e+00	-2.0871858741e+00
 3.9280762132e-01	 1.2724552846e+00	-2.1213245128e+00
 3.6304591962e-01	 1.2789691621e+00	-2.1554380413e+00
 3.3313536688e-01	 1.2848881651e+00	-2.1891969827e+00
 3.0309693762e-01	 1.2902233576e+00	-2.2222641864e+00
 6.0163445437e-01	 1.2225715651e+00	-1.9132815716e+00
 5.7321295886e-01	 1.2336157599e+00	-1.9358518878e+00
 5.4448774107e-01	 1.2440019666e+00	-1.9600251375e+00
 5.1548082964e-01	 1.2537356495e+00	-1.9856156406e+00
 4.8621430452e-01	 1.2628232177e+00	-2.0124033871e+00
 4.5671023728e-01	 1.2712719860e+00	-2.0401376706e+00
 4.2699063306e-01	 1.2790901337e+00	-2.0685408574e+00
 3.9707737452e-01	 1.2862866609e+00	-2.0973122339e+00
 3.6699216811e-01	 1.2928713432e+00	-2.1261318750e+00
 3.3675649265e-01	 1.2988546847e+00	-2.1546644834e+00
 3.0639155069e-01	 1.3042478699e+00	-2.1825631517e+00
 6.0810379512e-01	 1.2357178070e+00	-1.9291350935e+00
 5.7937668491e-01	 1.2468807593e+00	-1.9465305924e+00
 5.5034258650e-01	 1.2573786483e+00	-1.9655183953e+00
 5.2102376541e-01	 1.2672169970e+00	-1.9859353280e+00
 4.9144253903e-01	 1.2764022833e+00	-2.0075787528e+00
 4.6162121625e-01	 1.2849419007e+00	-2.0302103800e+00
 4.3158203882e-01	 1.2928441165e+00	-2.0535602586e+00
 4.0134712474e-01	 1.3001180275e+00	-2.0773308780e+00
 3.7093841382e-01	 1.3067735145e+00	-2.1012013223e+00
 3.4037761589e-01	 1.3128211946e+00	-2.1248314164e+00
 3.0968616145e-01	 1.3182723724e+00	-2.1478658130e+00
 6.1457312984e-01	 1.2488640366e+00	-1.9457426093e+00
 5.8554040520e-01	 1.2601457464e+00	-1.9584267049e+00
 5.5619742646e-01	 1.2707553176e+00	-1.9726770731e+00
 5.2656669601e-01	 1.2806983319e+00	-1.9883510669e+00
 4.9667076865e-01	 1.2899813362e+00	-2.0052619836e+00
 4.6653219063e-01	 1.2986118027e+00	-2.0231830345e+00
 4.3617344031e-01	 1.3065980864e+00	-2.0418515299e+00
 4.0561687097e-01	 1.3139493812e+00	-2.0609732094e+00
 3.7488465586e-01	 1.3206756729e+00	-2.0802266474e+00
 3.4399873574e-01	 1.3267876914e+00	-2.0992676740e+00
 3.1298076913e-01	 1.3322968618e+00	-2.1177337500e+00
 6.2104245701e-01	 1.2620102508e+00	-1.9628583422e+00
 5.9170411830e-01	 1.2734107180e+00	-1.9712671669e+00
 5.6205225959e-01	 1.2841319713e+00	-1.9812030465e+00
 5.3210962014e-01	 1.2941796511e+00	-1.9925418940e+00
 5.0189899218e-01	 1.3035603733e+00	-2.0051115023e+00
 4.7144315928e-01	 1.3122816886e+00	-2.0186956522e+00
 4.4076483643e-01	 1.3203520403e+00	-2.0330384689e+00
 4.0988661222e-01	 1.3277807188e+00	-2.0478489497e+00
 3.7883089329e-01	 1.3345778151e+00	-2.0628055933e+00
 3.4761985137e-01	 1.3407541720e+00	-2.0775610598e+00
 3.1627537297e-01	 1.3463213348e+00	-2.0917468004e+00
 6.2751177512e-01	 1.2751564467e+00	-1.9802466383e+00
 5.9786782277e-01	 1.2866756711e+00	-1.9847901682e+00
 5.6790708453e-01	 1.2975086062e+00	-1.9908104734e+00
 5.3765253651e-01	 1.3076609514e+00	-1.9982000702e+00
 5.0712720839e-01	 1.3171393913e+00	-2.0067998058e+00
 4.7635412106e-01	 1.3259515555e+00	-2.0164030855e+00
 4.4535622613e-01	 1.3341059750e+00	-2.0267603758e+00
 4.1415634749e-01	 1.3416120371e+00	-2.0375839042e+00
 3.8277712519e-01	 1.3484799377e+00	-2.0485524806e+00
 3.5124096194e-01	 1.3547206330e+00	-2.0593163653e+00
 3.1956997219e-01	 1.3603457882e+00	-2.0695021186e+00
 6.3398108266e-01	 1.2883026211e+00	-1.9976814507e+00
 6.0403151717e-01	 1.2999406024e+00	-1.9987445731e+00
 5.7376189990e-01	 1.3108852193e+00	-2.0012251672e+00
 5.4319544383e-01	 1.3211422296e+00	-2.0050304057e+00
 5.1235541606e-01	 1.3307183872e+00	-2.0100127476e+00
 4.8126507482e-01	 1.3396214000e+00	-2.0159742633e+00
 4.4994760833e-01	 1.3478598872e+00	-2.0226712628e+00
 4.1842607579e-01	 1.3554433327e+00	-2.0298191411e+00
 3.8672335066e-01	 1.3623820377e+00	-2.0370973620e+00
 3.5486206658e-01	 1.3686870711e+00	-2.0441545030e+00
 3.2286456604e-01	 1.3743702187e+00	-2.0506132919e+00
 6.4045037813e-01	 1.3014487709e+00	-2.0149458536e+00
 6.1019520007e-01	 1.3132055090e+00	-2.0128893813e+00
 5.7961670434e-01	 1.3242618074e+00	-2.0121840077e+00
 5.4873834080e-01	 1.3346234828e+00	-2.0127496266e+00
 5.1758361397e-01	 1.3442973577e+00	-2.0144488629e+00
 4.8617601941e-01	 1.3532912190e+00	-2.0170914803e+00
 4.5453898196e-01	 1.3616137737e+00	-2.0204391109e+00
 4.2269579611e-01	 1.3692746025e+00	-2.0242102206e+00
 3.9066956875e-01	 1.3762841118e+00	-2.0280852273e+00
 3.5848316447e-01	 1.3826534833e+00	-2.0317116925e+00
 3.2615915374e-01	 1.3883946231e+00	-2.0347095111e+00
 6.4691966002e-01	 1.3145948931e+00	-2.0318315862e+00
 6.1635887003e-01	 1.3264703878e+00	-2.0269932204e+00
 5.8547149649e-01	 1.3376383674e+00	-2.0234343885e+00
 5.5428122614e-01	 1.3481047076e+00	-2.0210857784e+00
 5.2281180090e-01	 1.3578762997e+00	-2.0198187345e+00
 4.9108695369e-01	 1.3669610093e+00	-2.0194497288e+00
 4.5913034595e-01	 1.3753676313e+00	-2.0197451712e+00
 4.2696550748e-01	 1.3831058433e+00	-2.0204264701e+00
 3.9461577856e-01	 1.3901861566e+00	-2.0211752571e+00
 3.6210425476e-01	 1.3966198660e+00	-2.0216386946e+00
 3.2945373451e-01	 1.4024189979e+00	-2.0214347895e+00
 2.9650770765e-01	 1.2621743166e+00	-2.3185283988e+00
 2.6701535218e-01	 1.2668341468e+00	-2.3603783646e+00
 2.3743798158e-01	 1.2709462147e+00	-2.3982294393e+00
 2.0779509116e-01	 1.2745230351e+00	-2.4320463961e+00
 1.7810574618e-01	 1.2775775890e+00	-2.4618813378e+00
 1.4838854915e-01	 1.2801232755e+00	-2.4878656101e+00
 1.1866161018e-01	 1.2821738634e+00	-2.5102016570e+00
 8.8942520394e-02	 1.2837434449e+00	-2.5291549222e+00
 5.9248328424e-02	 1.2848463888e+00	-2.5450458897e+00
 2.9595519919e-02	 1.2854972953e+00	-2.5582423412e+00
 0.0000000000e+00	 1.2857109524e+00	-2.5691519003e+00
 2.9980232302e-01	 1.2761988388e+00	-2.2674265980e+00
 2.6998226622e-01	 1.2809104461e+00	-2.3038527045e+00
 2.4007624967e-01	 1.2850682048e+00	-2.3369372147e+00
 2.1010398527e-01	 1.2886847687e+00	-2.3666249759e+00
 1.8008475015e-01	 1.2917732631e+00	-2.3929419195e+00
 1.5003735349e-01	 1.2943472356e+00	-2.4159876598e+00
 1.1998010665e-01	 1.2964206085e+00	-2.4359280284e+00
 8.9930796205e-02	 1.2980076302e+00	-2.4529876424e+00
 5.9906660228e-02	 1.2991228294e+00	-2.4674425909e+00
 2.9924367543e-02	 1.2997809683e+00	-2.4796133139e+00
 0.0000000000e+00	 1.2999969994e+00	-2.4898577384e+00
 3.0309693762e-01	 1.2902233576e+00	-2.2222641864e+00
 2.7294917958e-01	 1.2949867422e+00	-2.2535563938e+00
 2.4271451714e-01	 1.2991901917e+00	-2.2821239954e+00
 2.1241287885e-01	 1.3028464991e+00	-2.3078936265e+00
 1.8206375365e-01	 1.3059689338e+00	-2.3308669511e+00
 1.5168615745e-01	 1.3085711925e+00	-2.3511139184e+00
 1.2129860281e-01	 1.3106673502e+00	-2.3687659505e+00
 9.0919071785e-02	 1.3122718122e+00	-2.3840091503e+00
 6.0564991877e-02	 1.3133992666e+00	-2.3970776107e+00
 3.0253215090e-02	 1.3140646380e+00	-2.4082468911e+00
 0.0000000000e+00	 1.3142830432e+00	-2.4178277241e+00
 3.0639155069e-01	 1.3042478699e+00	-2.1825631517e+00
 2.7591609155e-01	 1.3090630317e+00	-2.2090043199e+00
 2.4535278339e-01	 1.3133121720e+00	-2.2332992737e+00
 2.1472177135e-01	 1.3170082228e+00	-2.2553580968e+00
 1.8404275623e-01	 1.3201645979e+00	-2.2751600311e+00
 1.5333496063e-01	 1.3227951427e+00	-2.2927473644e+00
 1.2261709835e-01	 1.3249140853e+00	-2.3082192443e+00
 9.1907346903e-02	 1.3265359875e+00	-2.3217255022e+00
 6.1223323219e-02	 1.3276756971e+00	-2.3334605595e+00
 3.0582062483e-02	 1.3283483011e+00	-2.3436574819e+00
 0.0000000000e+00	 1.3285690802e+00	-2.3525822334e+00
 3.0968616145e-01	 1.3182723724e+00	-2.1478658130e+00
 2.7888300145e-01	 1.3231393113e+00	-2.1697320039e+00
 2.4799104779e-01	 1.3274341424e+00	-2.1899934050e+00
 2.1703066223e-01	 1.3311699367e+00	-2.2085451582e+00
 1.8602175742e-01	 1.3343602520e+00	-2.2253458729e+00
 1.5498376267e-01	 1.3370190829e+00	-2.2404121178e+00
 1.2393559298e-01	 1.3391608104e+00	-2.2538128371e+00
 9.2895621330e-02	 1.3408001529e+00	-2.2656637652e+00
 6.1881654101e-02	 1.3419521177e+00	-2.2761219083e+00
 3.0910909646e-02	 1.3426319541e+00	-2.2853801521e+00
 0.0000000000e+00	 1.3428551073e+00	-2.2936620452e+00
 3.1298076913e-01	 1.3322968618e+00	-2.1177337500e+00
 2.8184990857e-01	 1.3372155778e+00	-2.1352945141e+00
 2.5062930972e-01	 1.3415560997e+00	-2.1517565101e+00
 2.1933955096e-01	 1.3453316373e+00	-2.1670014991e+00
 1.8800075677e-01	 1.3485558929e+00	-2.1809691932e+00
 1.5663256316e-01	 1.3512430099e+00	-2.1936523272e+00
 1.2525408637e-01	 1.3534075222e+00	-2.2050916510e+00
 9.3883894835e-02	 1.3550643049e+00	-2.2153709122e+00
 6.2539984367e-02	 1.3562285250e+00	-2.2246118902e+00
 3.1239756502e-02	 1.3569155938e+00	-2.2329695367e+00
 0.0000000000e+00	 1.3571411210e+00	-2.2406272678e+00
 3.1627537297e-01	 1.3463213348e+00	-2.0917468004e+00
 2.8481681224e-01	 1.3512918279e+00	-2.1052654483e+00
 2.5326756858e-01	 1.3556780404e+00	-2.1181574454e+00
 2.2164843700e-01	 1.3594933214e+00	-2.1302926865e+00
 1.8997975381e-01	 1.3627515173e+00	-2.1415936705e+00
 1.5828136173e-01	 1.3654669203e+00	-2.1520311270e+00
 1.2657257822e-01	 1.3676542174e+00	-2.1616195620e+00
 9.4872167187e-02	 1.3693284403e+00	-2.1704127845e+00
 6.3198313866e-02	 1.3705049155e+00	-2.1784994717e+00
 3.1568602975e-02	 1.3711992169e+00	-2.1859988209e+00
 0.0000000000e+00	 1.3714271181e+00	-2.1930563319e+00
 3.1956997219e-01	 1.3603457882e+00	-2.0695021186e+00
 2.8778371175e-01	 1.3653680583e+00	-2.0792359783e+00
 2.5590582374e-01	 1.3697999614e+00	-2.0887828376e+00
 2.2395731980e-01	 1.3736549856e+00	-2.0980021939e+00
 1.9195874808e-01	 1.3769471217e+00	-2.1068009673e+00
 1.5993015799e-01	 1.3796908107e+00	-2.1151296585e+00
 1.2789106823e-01	 1.3819008927e+00	-2.1229784228e+00
 9.5860438155e-02	 1.3835925557e+00	-2.1303731197e+00
 6.3856642444e-02	 1.3847812861e+00	-2.1373713868e+00
 3.1897448987e-02	 1.3854828199e+00	-2.1440587841e+00
 0.0000000000e+00	 1.3857130952e+00	-2.1505450462e+00
 3.2286456604e-01	 1.3743702187e+00	-2.0506132919e+00
 2.9075060642e-01	 1.3794442657e+00	-2.0568139540e+00
 2.5854407459e-01	 1.3839218593e+00	-2.0632361768e+00
 2.2626619883e-01	 1.3878166268e+00	-2.0697304869e+00
 1.9393773912e-01	 1.3911427030e+00	-2.0761898131e+00
 1.6157895156e-01	 1.3939146780e+00	-2.0825461513e+00
 1.2920955608e-01	 1.3961475447e+00	-2.0887671457e+00
 9.6848707509e-02	 1.3978566478e+00	-2.0948526381e+00
 6.4514969946e-02	 1.3990576334e+00	-2.1008312305e+00
 3.2226294462e-02	 1.3997663996e+00	-2.1067569016e+00
 0.0000000000e+00	 1.3999990489e+00	-2.1127057110e+00
 3.2615915374e-01	 1.3883946231e+00	-2.0347095111e+00
 2.9371749554e-01	 1.3935204468e+00	-2.0376230601e+00
 2.6118232052e-01	 1.3980437309e+00	-2.0411369646e+00
 2.2857507355e-01	 1.4019782415e+00	-2.0450941654e+00
 1.9591672646e-01	 1.4053382578e+00	-2.0493751416e+00
 1.6322774205e-01	 1.4081385186e+00	-2.0538950600e+00
 1.3052804147e-01	 1.4103941701e+00	-2.0586008408e+00
 9.7836975018e-02	 1.4121207133e+00	-2.0634681853e+00
 6.5173296219e-02	 1.4133339541e+00	-2.0684986073e+00
 3.2555139323e-02	 1.4140499527e+00	-2.0737165019e+00
 0.0000000000e+00	 1.4142849760e+00	-2.0791662848e+00
 3.2945373451e-01	 1.4024189979e+00	-2.0214347895e+00
 2.9668437844e-01	 1.4075965984e+00	-2.0213020249e+00
 2.6382056091e-01	 1.4121655728e+00	-2.0221199139e+00
 2.3088394342e-01	 1.4161398264e+00	-2.0237251568e+00
 1.9789570964e-01	 1.4195337827e+00	-2.0259872813e+00
 1.6487652907e-01	 1.4223623295e+00	-2.0288062534e+00
 1.3184652410e-01	 1.4246407655e+00	-2.0321100062e+00
 9.8825240452e-02	 1.4263847488e+00	-2.0358519259e+00
 6.5831621110e-02	 1.4276102447e+00	-2.0400083305e+00
 3.2883983494e-02	 1.4283334758e+00	-2.0445759739e+00
 0.0000000000e+00	 1.4285708730e+00	-2.0495696017e+00
 1.4285708730e+00	 0.0000000000e+00	 2.2362516059e+00
 1.4283334758e+00	 3.2883983494e-02	 2.2272811964e+00
 1.4276102447e+00	 6.5831621110e-02	 2.2167427830e+00
 1.4263847488e+00	 9.8825240452e-02	 2.2035301229e+00
 1.4246407655e+00	 1.3184652410e-01	 2.1865113759e+00
 1.4223623295e+00	 1.6487652907e-01	 2.1645356871e+00
 1.4195337827e+00	 1.9789570964e-01	 2.1364406463e+00
 1.4161398264e+00	 2.3088394342e-01	 2.1010606274e+00
 1.4121655728e+00	 2.6382056091e-01	 2.0572359956e+00
 1.4075965984e+00	 2.9668437844e-01	 2.0038231551e+00
 1.4024189979e+00	 3.2945373451e-01	 1.9397053943e+00
 1.4428567384e+00	 0.0000000000e+00	 2.2430500616e+00
 1.4426169672e+00	 3.3212826935e-02	 2.2339195282e+00
 1.4418865037e+00	 6.6489944541e-02	 2.2227966439e+00
 1.4406487528e+00	 9.9813503695e-02	 2.2086116217e+00
 1.4388873294e+00	 1.3316500380e-01	 2.1902714603e+00
 1.4365861087e+00	 1.6652531245e-01	 2.1666664861e+00
 1.4337292763e+00	 1.9987468844e-01	 2.1366777470e+00
 1.4303013800e+00	 2.3319280818e-01	 2.0991852585e+00
 1.4262873834e+00	 2.6645879545e-01	 2.0530770881e+00
 1.4216727187e+00	 2.9965125476e-01	 1.9972592515e+00
 1.4164433417e+00	 3.3274830799e-01	 1.9306663728e+00
 1.4571425772e+00	 0.0000000000e+00	 2.2487116616e+00
 1.4569004319e+00	 3.3541669763e-02	 2.2394874722e+00
 1.4561627361e+00	 6.7148266744e-02	 2.2278592978e+00
 1.4549127300e+00	 1.0080176509e-01	 2.2127932049e+00
 1.4531338667e+00	 1.3448348104e-01	 2.1932343958e+00
 1.4508098615e+00	 1.6817409274e-01	 2.1681137111e+00
 1.4479247433e+00	 2.0185366355e-01	 2.1363549598e+00
 1.4444629071e+00	 2.3550166862e-01	 2.0968830742e+00
 1.4404091676e+00	 2.6909702507e-01	 2.0486330760e+00
 1.4357488128e+00	 3.0261812554e-01	 1.9905598222e+00
 1.4304676593e+00	 3.3604287531e-01	 1.9216484860e+00
 1.4714283959e+00	 0.0000000000e+00	 2.2531071071e+00
 1.4711838766e+00	 3.3870512131e-02	 2.2438528258e+00
 1.4704389485e+00	 6.7806588024e-02	 2.2317956100e+00
 1.4691766874e+00	 1.0179002511e-01	 2.2159367975e+00
 1.4673803841e+00	 1.3580195643e-01	 2.1952591785e+00
 1.4650335943e+00	 1.6982287073e-01	 2.1687334610e+00
 1.4621201904e+00	 2.0383263588e-01	 2.1353255387e+00
 1.4586244144e+00	 2.3781052584e-01	 2.0940045580e+00
 1.4545309320e+00	 2.7173525100e-01	 2.0437517673e+00
 1.4498248872e+00	 3.0558499217e-01	 1.9835701174e+00
 1.4444919573e+00	 3.3933743803e-01	 1.9124945651e+00
 1.4857142013e+00	 0.0000000000e+00	 2.2561120816e+00
 1.4854673080e+00	 3.4199354191e-02	 2.2468884801e+00
 1.4847151475e+00	 6.8464908691e-02	 2.2344756527e+00
 1.4834406314e+00	 1.0277828420e-01	 2.2179096446e+00
 1.4816268881e+00	 1.3712043060e-01	 2.1962102372e+00
 1.4792573138e+00	 1.7147164718e-01	 2.1683873787e+00
 1.4763156243e+00	 2.0581160637e-01	 2.1334483914e+00
 1.4727859085e+00	 2.4011938089e-01	 2.0904059535e+00
 1.4686526833e+00	 2.7437347446e-01	 2.0382868336e+00
 1.4639009484e+00	 3.0855185603e-01	 1.9761413492e+00
 1.4585162421e+00	 3.4263199766e-01	 1.9030534966e+00
 1.5000000000e+00	 0.0000000000e+00	 2.2576070142e+00
 1.4997507328e+00	 3.4528196098e-02	 2.2484721784e+00
 1.4989913399e+00	 6.9123229050e-02	 2.2357744578e+00
 1.4977045687e+00	 1.0376654283e-01	 2.2185840584e+00
 1.4958733855e+00	 1.3843890414e-01	 2.1959571751e+00
 1.4934810267e+00	 1.7312042286e-01	 2.1669423877e+00
 1.4905110515e+00	 2.0779057594e-01	 2.1305878109e+00
 1.4869473960e+00	 2.4242823487e-01	 2.0859489911e+00
 1.4827744280e+00	 2.7701169669e-01	 2.0320975312e+00
 1.4779770030e+00	 3.1151871851e-01	 1.9681304082e+00
 1.4725405205e+00	 3.4592655576e-01	 1.8931799337e+00
 1.5142857987e+00	 0.0000000000e+00	 2.2574768562e+00
 1.5140341575e+00	 3.4857038006e-02	 2.2484862874e+00
 1.5132675323e+00	 6.9781549409e-02	 2.2355717828e+00
 1.5119685061e+00	 1.0475480146e-01	 2.2178371797e+00
 1.5101198829e+00	 1.3975737769e-01	 2.1943745263e+00
 1.5077047396e+00	 1.7476919854e-01	 2.1642704439e+00
 1.5047064788e+00	 2.0976954550e-01	 2.1266132211e+00
 1.5011088835e+00	 2.4473708885e-01	 2.0805006291e+00
 1.4968961727e+00	 2.7964991892e-01	 2.0250484376e+00
 1.4920530577e+00	 3.1448558098e-01	 1.9593995956e+00
 1.4865647988e+00	 3.4922111386e-01	 1.8827340251e+00
 1.5285716041e+00	 0.0000000000e+00	 2.2556108701e+00
 1.5283175889e+00	 3.5185880066e-02	 2.2468175819e+00
 1.5275437313e+00	 7.0439870076e-02	 2.2337518906e+00
 1.5262324501e+00	 1.0574306056e-01	 2.2155507526e+00
 1.5243663870e+00	 1.4107585186e-01	 2.1913415256e+00
 1.5219284592e+00	 1.7641797498e-01	 2.1602483000e+00
 1.5189019127e+00	 2.1174851599e-01	 2.1213989380e+00
 1.5152703776e+00	 2.4704594391e-01	 2.0739328100e+00
 1.5110179240e+00	 2.8228814238e-01	 2.0170092037e+00
 1.5061291189e+00	 3.1745244484e-01	 1.9498163709e+00
 1.5005890837e+00	 3.5251567350e-01	 1.8715811580e+00
 1.5428574228e+00	 0.0000000000e+00	 2.2519024304e+00
 1.5426010337e+00	 3.5514722434e-02	 2.2433570407e+00
 1.5418199437e+00	 7.1098191357e-02	 2.2302033416e+00
 1.5404964074e+00	 1.0673132057e-01	 2.2116109118e+00
 1.5386129043e+00	 1.4239432725e-01	 2.1867418915e+00
 1.5361521920e+00	 1.7806675297e-01	 2.1547572842e+00
 1.5330973598e+00	 2.1372748832e-01	 2.1148239433e+00
 1.5294318849e+00	 2.4935480113e-01	 2.0661222298e+00
 1.5251396885e+00	 2.8492636830e-01	 2.0078543187e+00
 1.5202051933e+00	 3.2041931147e-01	 1.9392531135e+00
 1.5146133816e+00	 3.5581023622e-01	 1.8595917163e+00
 1.5571432616e+00	 0.0000000000e+00	 2.2462488358e+00
 1.5568844984e+00	 3.5843565261e-02	 2.2379996544e+00
 1.5560961760e+00	 7.1756513559e-02	 2.2248187967e+00
 1.5547603847e+00	 1.0771958197e-01	 2.2059079814e+00
 1.5528594416e+00	 1.4371280449e-01	 2.1804636205e+00
 1.5503759447e+00	 1.7971553327e-01	 2.1476830910e+00
 1.5472928268e+00	 2.1570646343e-01	 2.1067716708e+00
 1.5435934120e+00	 2.5166366157e-01	 2.0569501208e+00
 1.5392614727e+00	 2.8756459792e-01	 1.9974628890e+00
 1.5342812874e+00	 3.2338618225e-01	 1.9275868969e+00
 1.5286376992e+00	 3.5910480354e-01	 1.8466408513e+00
 1.5714291270e+00	 0.0000000000e+00	 2.2385511307e+00
 1.5711679898e+00	 3.6172408703e-02	 2.2306442438e+00
 1.5703724351e+00	 7.2414836991e-02	 2.2174948312e+00
 1.5690243886e+00	 1.0870784521e-01	 2.1983362854e+00
 1.5671060055e+00	 1.4503128419e-01	 2.1723987935e+00
 1.5645997240e+00	 1.8136431664e-01	 2.1389155825e+00
 1.5614883203e+00	 2.1768544223e-01	 2.0971298045e+00
 1.5577549656e+00	 2.5397252632e-01	 2.0463020450e+00
 1.5533832833e+00	 2.9020283246e-01	 1.9857184283e+00
 1.5483574077e+00	 3.2635305857e-01	 1.9146992761e+00
 1.5426620430e+00	 3.6239937702e-01	 1.8326082657e+00
 1.4024189979e+00	 3.2945373451e-01	 1.9397053943e+00
 1.3966198660e+00	 3.6210425476e-01	 1.8655655241e+00
 1.3901861566e+00	 3.9461577856e-01	 1.7828624337e+00
 1.3831058433e+00	 4.2696550748e-01	 1.6917081207e+00
 1.3753676313e+00	 4.5913034595e-01	 1.5922463603e+00
 1.3669610093e+00	 4.9108695369e-01	 1.4846541582e+00
 1.3578762997e+00	 5.2281180090e-01	 1.3691430228e+00
 1.3481047076e+00	 5.5428122614e-01	 1.2459600237e+00
 1.3376383674e+00	 5.8547149649e-01	 1.1153886025e+00
 1.3264703878e+00	 6.1635887003e-01	 9.7774910574e-01
 1.3145948931e+00	 6.4691966002e-01	 8.3339900758e-01
 1.4164433417e+00	 3.3274830799e-01	 1.9306663728e+00
 1.4105862179e+00	 3.6572533701e-01	 1.8539093926e+00
 1.4040881706e+00	 3.9856197962e-01	 1.7683842265e+00
 1.3969370534e+00	 4.3123520937e-01	 1.6742704479e+00
 1.3891214585e+00	 4.6372169976e-01	 1.5717806546e+00
 1.3806307694e+00	 4.9599787708e-01	 1.4611614327e+00
 1.3714552116e+00	 5.2803997625e-01	 1.3426940962e+00
 1.3615859025e+00	 5.5982409918e-01	 1.2166951717e+00
 1.3510148978e+00	 5.9132627566e-01	 1.0835166004e+00
 1.3397352371e+00	 6.2252252632e-01	 9.4354563242e-01
 1.3277409862e+00	 6.5338892756e-01	 7.9720438891e-01
 1.4304676593e+00	 3.3604287531e-01	 1.9216484860e+00
 1.4245525436e+00	 3.6934641251e-01	 1.8424384404e+00
 1.4179901587e+00	 4.0250817332e-01	 1.7542617608e+00
 1.4107682377e+00	 4.3550490330e-01	 1.6573629552e+00
 1.4028752600e+00	 4.6831304500e-01	 1.5520207381e+00
 1.3943005038e+00	 5.0090879130e-01	 1.4385485213e+00
 1.3850340982e+00	 5.3326814183e-01	 1.3172946365e+00
 1.3750670722e+00	 5.6536696188e-01	 1.1886422644e+00
 1.3643914032e+00	 5.9718104391e-01	 1.0530090472e+00
 1.3530000617e+00	 6.2868617111e-01	 9.1084636440e-01
 1.3408870548e+00	 6.5985818304e-01	 7.6263825600e-01
 1.4444919573e+00	 3.3933743803e-01	 1.9124945651e+00
 1.4385188498e+00	 3.7296748294e-01	 1.8309931542e+00
 1.4318921273e+00	 4.0645436149e-01	 1.7403332204e+00
 1.4245994026e+00	 4.3977459125e-01	 1.6408216367e+00
 1.4166290422e+00	 4.7290438381e-01	 1.5328006020e+00
 1.4079702192e+00	 5.0581969865e-01	 1.4166476731e+00
 1.3986129658e+00	 5.3849630010e-01	 1.2927754864e+00
 1.3885482231e+00	 5.7090981683e-01	 1.1616311489e+00
 1.3777678898e+00	 6.0303580395e-01	 1.0236952799e+00
 1.3662648677e+00	 6.3484980727e-01	 8.7948068852e-01
 1.3540331050e+00	 6.6632742945e-01	 7.2953067801e-01
 1.4585162421e+00	 3.4263199766e-01	 1.9030534966e+00
 1.4524851430e+00	 3.7658854999e-01	 1.8194201659e+00
 1.4457940829e+00	 4.1040054597e-01	 1.7264430230e+00
 1.4384305547e+00	 4.4404427522e-01	 1.6244888049e+00
 1.4303828116e+00	 4.7749571833e-01	 1.5139606331e+00
 1.4216399218e+00	 5.1073060142e-01	 1.3952975998e+00
 1.4121918206e+00	 5.4372445348e-01	 1.2689740052e+00
 1.4020293614e+00	 5.7645266659e-01	 1.1354982271e+00
 1.3911443640e+00	 6.0889055853e-01	 9.9541121011e-01
 1.3795296614e+00	 6.4101343768e-01	 8.4928456408e-01
 1.3671791429e+00	 6.7279666983e-01	 6.9771827022e-01
 1.4725405205e+00	 3.4592655576e-01	 1.8931799337e+00
 1.4664514296e+00	 3.8020961535e-01	 1.8075719603e+00
 1.4596960321e+00	 4.1434672862e-01	 1.7124415235e+00
 1.4522617002e+00	 4.4831395719e-01	 1.6082127898e+00
 1.4441365745e+00	 4.8208705072e-01	 1.4953473089e+00
 1.4353096180e+00	 5.1564150190e-01	 1.3743431676e+00
 1.4257706692e+00	 5.4895260443e-01	 1.2457337583e+00
 1.4155104934e+00	 5.8199551378e-01	 1.1100861436e+00
 1.4045208320e+00	 6.1474531039e-01	 9.6799901068e-01
 1.3927944488e+00	 6.4717706521e-01	 8.2010020987e-01
 1.3803251746e+00	 6.7926590718e-01	 6.6704388233e-01
 1.4865647988e+00	 3.4922111386e-01	 1.8827340251e+00
 1.4804177163e+00	 3.8383068071e-01	 1.7953065995e+00
 1.4735979812e+00	 4.1829291127e-01	 1.6981847344e+00
 1.4660928458e+00	 4.5258363917e-01	 1.5918476555e+00
 1.4578903375e+00	 4.8667838310e-01	 1.4768129108e+00
 1.4489793142e+00	 5.2055240237e-01	 1.3536351076e+00
 1.4393495177e+00	 5.5418075538e-01	 1.2229042250e+00
 1.4289916254e+00	 5.8753836096e-01	 1.0852434915e+00
 1.4178972999e+00	 6.2060006224e-01	 9.4130682055e-01
 1.4060592363e+00	 6.5334069275e-01	 7.9177580895e-01
 1.3934712064e+00	 6.8573514454e-01	 6.3735630440e-01
 1.5005890837e+00	 3.5251567350e-01	 1.8715811580e+00
 1.4943840094e+00	 3.8745174776e-01	 1.7824874621e+00
 1.4874999369e+00	 4.2223909575e-01	 1.6835340616e+00
 1.4799239978e+00	 4.5685332313e-01	 1.5752529320e+00
 1.4716441069e+00	 4.9126971763e-01	 1.4582152531e+00
 1.4626490168e+00	 5.2546330514e-01	 1.3330297413e+00
 1.4529283726e+00	 5.5940890876e-01	 1.2003405220e+00
 1.4424727637e+00	 5.9308121073e-01	 1.0608245341e+00
 1.4312737741e+00	 6.2645481682e-01	 9.1518846608e-01
 1.4193240299e+00	 6.5950432315e-01	 7.6416522999e-01
 1.4066172442e+00	 6.9220438492e-01	 6.0850998929e-01
 1.5146133816e+00	 3.5581023622e-01	 1.8595917163e+00
 1.5083503156e+00	 3.9107281819e-01	 1.7689829978e+00
 1.5014019055e+00	 4.2618528392e-01	 1.6683560549e+00
 1.4937551627e+00	 4.6112301108e-01	 1.5582933628e+00
 1.4853978891e+00	 4.9586105644e-01	 1.4394174268e+00
 1.4763187321e+00	 5.3037421249e-01	 1.3123887225e+00
 1.4665072402e+00	 5.6463706703e-01	 1.1779031423e+00
 1.4559539146e+00	 5.9862406567e-01	 1.0366889431e+00
 1.4446502608e+00	 6.3230957687e-01	 8.8950319779e-01
 1.4325888359e+00	 6.6566795931e-01	 7.3712776415e-01
 1.4197632944e+00	 6.9867363133e-01	 5.8036479053e-01
 1.5286376992e+00	 3.5910480354e-01	 1.8466408513e+00
 1.5223166414e+00	 3.9469389369e-01	 1.7546664947e+00
 1.5153038936e+00	 4.3013147762e-01	 1.6525221722e+00
 1.5075863470e+00	 4.6539270501e-01	 1.5408386658e+00
 1.4991516905e+00	 5.0045240168e-01	 1.4202875579e+00
 1.4899884666e+00	 5.3528512672e-01	 1.2915787925e+00
 1.4800861267e+00	 5.6986523261e-01	 1.1554577095e+00
 1.4694350844e+00	 6.0416692837e-01	 1.0127015502e+00
 1.4580267662e+00	 6.3816434511e-01	 8.6411544166e-01
 1.4458536605e+00	 6.7183160410e-01	 7.1052787638e-01
 1.4329093630e+00	 7.0514288680e-01	 5.5278571463e-01
 1.5426620430e+00	 3.6239937702e-01	 1.8326082657e+00
 1.5362829932e+00	 3.9831497595e-01	 1.7394158597e+00
 1.5292059076e+00	 4.3407767868e-01	 1.6359085568e+00
 1.5214175572e+00	 4.6966240691e-01	 1.5227633075e+00
 1.5129055177e+00	 5.0504375549e-01	 1.4006985789e+00
 1.5036582266e+00	 5.4019605011e-01	 1.2704715493e+00
 1.4936650386e+00	 5.7509340796e-01	 1.1328747440e+00
 1.4829162793e+00	 6.0970980142e-01	 9.8873211295e-01
 1.4714032966e+00	 6.4401912428e-01	 8.3889456398e-01
 1.4591185099e+00	 6.7799526040e-01	 6.8423497036e-01
 1.4460554561e+00	 7.1161215435e-01	 5.2564268693e-01
 1.3145948931e+00	 6.4691966002e-01	 8.3339900758e-01
 1.3020061577e+00	 6.7713240141e-01	 6.8263389257e-01
 1.2887012636e+00	 7.0697155361e-01	 5.2658612013e-01
 1.2746776104e+00	 7.3641398169e-01	 3.6686790140e-01
 1.2599337483e+00	 7.6543687513e-01	 2.0508498711e-01
 1.2444694021e+00	 7.9401781647e-01	 4.2823658390e-02
 1.2282854906e+00	 8.2213484966e-01	-1.1836254908e-01
 1.2113841413e+00	 8.4976654770e-01	-2.7696620500e-01
 1.1937687006e+00	 8.7689207929e-01	-4.3153923560e-01
 1.1754437391e+00	 9.0349127393e-01	-5.8070586627e-01
 1.1564150511e+00	 9.2954468510e-01	-7.2317505376e-01
 1.3277409862e+00	 6.5338892756e-01	 7.9720438891e-01
 1.3150263621e+00	 6.8390379968e-01	 6.4474801291e-01
 1.3015884176e+00	 7.1404134668e-01	 4.8722466003e-01
 1.2874245263e+00	 7.4377820227e-01	 3.2624187369e-01
 1.2725332240e+00	 7.7309132782e-01	 1.6339909397e-01
 1.2569142326e+00	 8.0195808171e-01	 2.7460079668e-04
 1.2405684802e+00	 8.3035628831e-01	-1.6158779263e-01
 1.2234981155e+00	 8.5826430637e-01	-3.2069211261e-01
 1.2057065185e+00	 8.8566109625e-01	-4.7560346952e-01
 1.1871983054e+00	 9.1252628575e-01	-6.2496097381e-01
 1.1679793284e+00	 9.3884023389e-01	-7.6749012071e-01
 1.3408870548e+00	 6.5985818304e-01	 7.6263825600e-01
 1.3280465422e+00	 6.9067518532e-01	 6.0860377387e-01
 1.3144755475e+00	 7.2111112655e-01	 4.4971158771e-01
 1.3001714184e+00	 7.5114240910e-01	 2.8756253705e-01
 1.2851326761e+00	 7.8074576623e-01	 1.2374782372e-01
 1.2693590399e+00	 8.0989833214e-01	-4.0164070993e-02
 1.2528514469e+00	 8.3857771163e-01	-2.0264070307e-01
 1.2356120672e+00	 8.6676204917e-01	-3.6219903146e-01
 1.2176443142e+00	 8.9443009684e-01	-5.1741863764e-01
 1.1989528497e+00	 9.2156128071e-01	-6.6695459804e-01
 1.1795435842e+00	 9.4813576533e-01	-8.0954980645e-01
 1.3540331050e+00	 6.6632742945e-01	 7.2953067801e-01
 1.3410667040e+00	 6.9744656147e-01	 5.7403251049e-01
 1.3273626594e+00	 7.2818089653e-01	 4.1388002975e-01
 1.3129182927e+00	 7.5850660562e-01	 2.5066539191e-01
 1.2977321106e+00	 7.8840019392e-01	 8.5969687612e-02
 1.2818038298e+00	 8.1783857144e-01	-7.8650146091e-02
 1.2651343964e+00	 8.4679912343e-01	-2.4167463220e-01
 1.2477260019e+00	 8.7525978008e-01	-4.0163509303e-01
 1.2295820931e+00	 9.0319908516e-01	-5.5712682669e-01
 1.2107073776e+00	 9.3059626302e-01	-7.0682191946e-01
 1.1911078237e+00	 9.5743128376e-01	-8.4948149125e-01
 1.3671791429e+00	 6.7279666983e-01	 6.9771827022e-01
 1.3540868537e+00	 7.0421793131e-01	 5.4087205519e-01
 1.3402497592e+00	 7.3525065990e-01	 3.7956954107e-01
 1.3256651550e+00	 7.6587079527e-01	 2.1539227568e-01
 1.3103315334e+00	 7.9605461447e-01	 4.9909417922e-02
 1.2942486080e+00	 8.2577880334e-01	-1.1533533501e-01
 1.2774173344e+00	 8.5502052756e-01	-2.7883702400e-01
 1.2598399253e+00	 8.8375750306e-01	-4.3914272190e-01
 1.2415198609e+00	 9.1196806529e-01	-5.9486464916e-01
 1.2224618946e+00	 9.3963123689e-01	-7.4469291002e-01
 1.2026720525e+00	 9.6672679351e-01	-8.8740764695e-01
 1.3803251746e+00	 6.7926590718e-01	 6.6704388233e-01
 1.3671069973e+00	 7.1098929798e-01	 5.0896642833e-01
 1.3531368530e+00	 7.4232041998e-01	 3.4662579881e-01
 1.3384120114e+00	 7.7323498148e-01	 1.8159106086e-01
 1.3229309502e+00	 8.0370903144e-01	 1.5417671605e-02
 1.3066933804e+00	 8.3371903152e-01	-1.5036555923e-01
 1.2897002667e+00	 8.6324192785e-01	-3.1426969612e-01
 1.2719538430e+00	 8.9225522208e-01	-4.7485890767e-01
 1.2534576231e+00	 9.2073704133e-01	-6.3076350407e-01
 1.2342164060e+00	 9.4866620655e-01	-7.8069258138e-01
 1.2142362759e+00	 9.7602229893e-01	-9.2344607091e-01
 1.3934712064e+00	 6.8573514454e-01	 6.3735630440e-01
 1.3801271409e+00	 7.1776066465e-01	 4.7816554632e-01
 1.3660239469e+00	 7.4939018006e-01	 3.1490031348e-01
 1.3511588678e+00	 7.8059916769e-01	 1.4911537033e-01
 1.3355303671e+00	 8.1136344842e-01	-1.7649249239e-02
 1.3191381528e+00	 8.4165925971e-01	-1.8388122438e-01
 1.3019831990e+00	 8.7146332814e-01	-3.4810910539e-01
 1.2840677607e+00	 9.0075294109e-01	-5.0891546146e-01
 1.2653953853e+00	 9.2950601737e-01	-6.6494982311e-01
 1.2459709175e+00	 9.5770117621e-01	-8.1494121899e-01
 1.2258004992e+00	 9.8531780434e-01	-9.5771010667e-01
 1.4066172442e+00	 6.9220438492e-01	 6.0850998929e-01
 1.3931472906e+00	 7.2453203449e-01	 4.4832494612e-01
 1.3789110467e+00	 7.5645994343e-01	 2.8425015636e-01
 1.3639057302e+00	 7.8796335734e-01	 1.1782430861e-01
 1.3481297898e+00	 8.1901786897e-01	-4.9429661227e-02
 1.3315829311e+00	 8.4959949161e-01	-2.1601747807e-01
 1.3142661370e+00	 8.7968473227e-01	-3.8048659839e-01
 1.2961816841e+00	 9.0925066407e-01	-5.4143925804e-01
 1.2773331531e+00	 9.3827499750e-01	-6.9754530288e-01
 1.2577254344e+00	 9.6673615009e-01	-8.4755460314e-01
 1.2373647280e+00	 9.9461331409e-01	-9.9030885228e-01
 1.4197632944e+00	 6.9867363133e-01	 5.8036479053e-01
 1.4061674524e+00	 7.3130341064e-01	 4.1930552501e-01
 1.3917981586e+00	 7.6352971341e-01	 2.5453770207e-01
 1.3766526045e+00	 7.9532755386e-01	 8.7582208026e-02
 1.3607292243e+00	 8.2667229666e-01	-8.0056748880e-02
 1.3440277209e+00	 8.5753973091e-01	-2.4690445338e-01
 1.3265490865e+00	 8.8790614407e-01	-4.1152864820e-01
 1.3082956188e+00	 9.1774839498e-01	-5.7255246445e-01
 1.2892709321e+00	 9.4704398581e-01	-7.2866712421e-01
 1.2694799623e+00	 9.7577113240e-01	-8.7864421768e-01
 1.2489289676e+00	 1.0039088325e+00	-1.0213473570e+00
 1.4329093630e+00	 7.0514288680e-01	 5.5278571463e-01
 1.4191876325e+00	 7.3807479628e-01	 3.9097329476e-01
 1.4046852885e+00	 7.7059949328e-01	 2.2563038528e-01
 1.3893994966e+00	 8.0269176069e-01	 5.8258388896e-02
 1.3733286765e+00	 8.3432673506e-01	-1.0965880008e-01
 1.3564725282e+00	 8.6547998133e-01	-2.7666749897e-01
 1.3388320532e+00	 8.9612756738e-01	-4.4135707799e-01
 1.3204095705e+00	 9.2624613779e-01	-6.0237275606e-01
 1.3012087277e+00	 9.5581298640e-01	-7.5842815948e-01
 1.2812345066e+00	 9.8480612736e-01	-9.0831744722e-01
 1.2604932233e+00	 1.0132043640e+00	-1.0509268070e+00
 1.4460554561e+00	 7.1161215435e-01	 5.2564268693e-01
 1.4322078368e+00	 7.4484619455e-01	 3.6319914920e-01
 1.4175724424e+00	 7.7766928634e-01	 1.9740047071e-01
 1.4021464125e+00	 8.1005598127e-01	 2.9726932800e-02
 1.3859281521e+00	 8.4198118776e-01	-1.3835942868e-01
 1.3689173587e+00	 8.7342024658e-01	-3.0542739660e-01
 1.3511150428e+00	 9.0434900604e-01	-4.7008927246e-01
 1.3325235447e+00	 9.3474389645e-01	-6.3101352087e-01
 1.3131465456e+00	 9.6458200336e-01	-7.8693716852e-01
 1.2929890729e+00	 9.9384113918e-01	-9.3667776359e-01
 1.2720575006e+00	 1.0224999127e+00	-1.0791447016e+00
 1.1564150511e+00	 9.2954468510e-01	-7.2317505376e-01
 1.1366896471e+00	 9.5503365348e-01	-8.6016538615e-01
 1.1162757344e+00	 9.7994037180e-01	-9.9287843249e-01
 1.0951827104e+00	 1.0042479334e+00	-1.1201033515e+00
 1.0734211456e+00	 1.0279403815e+00	-1.2406837271e+00
 1.0510027578e+00	 1.0510027578e+00	-1.3535267039e+00
 1.0279403815e+00	 1.0734211456e+00	-1.4576114560e+00
 1.0042479334e+00	 1.0951827104e+00	-1.5519968617e+00
 9.7994037180e-01	 1.1162757344e+00	-1.6358282690e+00
 9.5503365348e-01	 1.1366896471e+00	-1.7083432556e+00
 9.2954468510e-01	 1.1564150511e+00	-1.7688763072e+00
 1.1679793284e+00	 9.3884023389e-01	-7.6749012071e-01
 1.1480566683e+00	 9.6458409475e-01	-9.0432429720e-01
 1.1274386141e+00	 9.8973988299e-01	-1.0365980863e+00
 1.1061346576e+00	 1.0142905228e+00	-1.1631472140e+00
 1.0841554748e+00	 1.0382198981e+00	-1.2828635633e+00
 1.0615129006e+00	 1.0615129006e+00	-1.3947039458e+00
 1.0382198981e+00	 1.0841554748e+00	-1.4976981901e+00
 1.0142905228e+00	 1.1061346576e+00	-1.5909564210e+00
 9.8973988299e-01	 1.1274386141e+00	-1.6736754242e+00
 9.6458409475e-01	 1.1480566683e+00	-1.7451440029e+00
 9.3884023389e-01	 1.1679793284e+00	-1.8047472571e+00
 1.1795435842e+00	 9.4813576533e-01	-8.0954980645e-01
 1.1594236682e+00	 9.7413451819e-01	-9.4625366345e-01
 1.1386014731e+00	 9.9953937588e-01	-1.0781335265e+00
 1.1170865844e+00	 1.0243330936e+00	-1.2040700920e+00
 1.0948897839e+00	 1.0484993955e+00	-1.3230018168e+00
 1.0720230238e+00	 1.0720230238e+00	-1.4339333407e+00
 1.0484993955e+00	 1.0948897839e+00	-1.5359432065e+00
 1.0243330936e+00	 1.1170865844e+00	-1.6281907609e+00
 9.9953937588e-01	 1.1386014731e+00	-1.7099221333e+00
 9.7413451819e-01	 1.1594236682e+00	-1.7804752070e+00
 9.4813576533e-01	 1.1795435842e+00	-1.8392835170e+00
 1.1911078237e+00	 9.5743128376e-01	-8.4948149125e-01
 1.1707906522e+00	 9.8368492827e-01	-9.8607236627e-01
 1.1497643164e+00	 1.0093388551e+00	-1.1175946750e+00
 1.1280384958e+00	 1.0343756502e+00	-1.2429725238e+00
 1.1056240781e+00	 1.0587788784e+00	-1.3611892585e+00
 1.0825331324e+00	 1.0825331324e+00	-1.4712955490e+00
 1.0587788784e+00	 1.1056240781e+00	-1.5724167559e+00
 1.0343756502e+00	 1.1280384958e+00	-1.6637594679e+00
 1.0093388551e+00	 1.1497643164e+00	-1.7446171105e+00
 9.8368492827e-01	 1.1707906522e+00	-1.8143745485e+00
 9.5743128376e-01	 1.1911078237e+00	-1.8725116199e+00
 1.2026720525e+00	 9.6672679351e-01	-8.8740764695e-01
 1.1821576256e+00	 9.9323532943e-01	-1.0238947056e+00
 1.1609271492e+00	 1.0191383251e+00	-1.1550872167e+00
 1.1389903970e+00	 1.0444181975e+00	-1.2799511720e+00
 1.1163583621e+00	 1.0690583518e+00	-1.3975131589e+00
 1.0930432310e+00	 1.0930432310e+00	-1.5068681197e+00
 1.0690583518e+00	 1.1163583621e+00	-1.6071863782e+00
 1.0444181975e+00	 1.1389903970e+00	-1.6977198280e+00
 1.0191383251e+00	 1.1609271492e+00	-1.7778071878e+00
 9.9323532943e-01	 1.1821576256e+00	-1.8468782504e+00
 9.6672679351e-01	 1.2026720525e+00	-1.9044570702e+00
 1.2142362759e+00	 9.7602229893e-01	-9.2344607091e-01
 1.1935245936e+00	 1.0027857261e+00	-1.0598306183e+00
 1.1720899769e+00	 1.0289377905e+00	-1.1907128017e+00
 1.1499422931e+00	 1.0544607401e+00	-1.3150990081e+00
 1.1270926412e+00	 1.0793378204e+00	-1.4320574556e+00
 1.1035533248e+00	 1.1035533248e+00	-1.5407256394e+00
 1.0793378204e+00	 1.1270926412e+00	-1.6403170321e+00
 1.0544607401e+00	 1.1499422931e+00	-1.7301269369e+00
 1.0289377905e+00	 1.1720899769e+00	-1.8095374049e+00
 1.0027857261e+00	 1.1935245936e+00	-1.8780211474e+00
 9.7602229893e-01	 1.2142362759e+00	-1.9351443924e+00
 1.2258004992e+00	 9.8531780434e-01	-9.5771010667e-01
 1.2048915617e+00	 1.0123361228e+00	-1.0939858841e+00
 1.1832528046e+00	 1.0387372560e+00	-1.2245692361e+00
 1.1608941892e+00	 1.0645032827e+00	-1.3485054872e+00
 1.1378269203e+00	 1.0896172890e+00	-1.4649029106e+00
 1.1140634186e+00	 1.1140634186e+00	-1.5729398720e+00
 1.0896172890e+00	 1.1378269203e+00	-1.6718712169e+00
 1.0645032827e+00	 1.1608941892e+00	-1.7610338030e+00
 1.0387372560e+00	 1.1832528046e+00	-1.8398510942e+00
 1.0123361228e+00	 1.2048915617e+00	-1.9078367521e+00
 9.8531780434e-01	 1.2258004992e+00	-1.9645971780e+00
 1.2373647280e+00	 9.9461331409e-01	-9.9030885228e-01
 1.2162585351e+00	 1.0218865240e+00	-1.1264623203e+00
 1.1944156375e+00	 1.0485367260e+00	-1.2567506613e+00
 1.1718460905e+00	 1.0745458300e+00	-1.3802567120e+00
 1.1485612044e+00	 1.0998967623e+00	-1.4961272585e+00
 1.1245735173e+00	 1.1245735173e+00	-1.6035798906e+00
 1.0998967623e+00	 1.1485612044e+00	-1.7019090878e+00
 1.0745458300e+00	 1.1718460905e+00	-1.7904914454e+00
 1.0485367260e+00	 1.1944156375e+00	-1.8687899603e+00
 1.0218865240e+00	 1.2162585351e+00	-1.9363573164e+00
 9.9461331409e-01	 1.2373647280e+00	-1.9928381287e+00
 1.2489289676e+00	 1.0039088325e+00	-1.0213473570e+00
 1.2276255191e+00	 1.0314369341e+00	-1.1573579650e+00
 1.2055784808e+00	 1.0583362052e+00	-1.2873477243e+00
 1.1827980019e+00	 1.0845883867e+00	-1.4104355885e+00
 1.1592954985e+00	 1.1101762453e+00	-1.5258053477e+00
 1.1350836258e+00	 1.1350836258e+00	-1.6327122026e+00
 1.1101762453e+00	 1.1592954985e+00	-1.7304885644e+00
 1.0845883867e+00	 1.1827980019e+00	-1.8185489862e+00
 1.0583362052e+00	 1.2055784808e+00	-1.8963941559e+00
 1.0314369341e+00	 1.2276255191e+00	-1.9636138907e+00
 1.0039088325e+00	 1.2489289676e+00	-2.0198890984e+00
 1.2604932233e+00	 1.0132043640e+00	-1.0509268070e+00
 1.2389925190e+00	 1.0409873575e+00	-1.1867672508e+00
 1.2167413397e+00	 1.0681356981e+00	-1.3164477378e+00
 1.1937499287e+00	 1.0946309574e+00	-1.4391219730e+00
 1.1700298077e+00	 1.1204557426e+00	-1.5540092719e+00
 1.1455937491e+00	 1.1455937491e+00	-1.6604008674e+00
 1.1204557426e+00	 1.1700298077e+00	-1.7576654336e+00
 1.0946309574e+00	 1.1937499287e+00	-1.8452537377e+00
 1.0681356981e+00	 1.2167413397e+00	-1.9227023531e+00
 1.0409873575e+00	 1.2389925190e+00	-1.9896363786e+00
 1.0132043640e+00	 1.2604932233e+00	-2.0457711320e+00
 1.2720575006e+00	 1.0224999127e+00	-1.0791447016e+00
 1.2503595401e+00	 1.0505377988e+00	-1.2147811690e+00
 1.2279042194e+00	 1.0779352093e+00	-1.3441348323e+00
 1.2047018759e+00	 1.1046735469e+00	-1.4663928103e+00
 1.1807641368e+00	 1.1307352592e+00	-1.5808084963e+00
 1.1561038919e+00	 1.1561038919e+00	-1.6867076079e+00
 1.1307352592e+00	 1.1807641368e+00	-1.7834934467e+00
 1.1046735469e+00	 1.2047018759e+00	-1.8706512847e+00
 1.0779352093e+00	 1.2279042194e+00	-1.9477518108e+00
 1.0505377988e+00	 1.2503595401e+00	-2.0144535896e+00
 1.0224999127e+00	 1.2720575006e+00	-2.0705045022e+00
 9.2954468510e-01	 1.1564150511e+00	-1.7688763072e+00
 9.0349127393e-01	 1.1754437391e+00	-1.8206433103e+00
 8.7689207929e-01	 1.1937687006e+00	-1.8672012017e+00
 8.4976654770e-01	 1.2113841413e+00	-1.9084419542e+00
 8.2213484966e-01	 1.2282854906e+00	-1.9442199837e+00
 7.9401781647e-01	 1.2444694021e+00	-1.9743539617e+00
 7.6543687513e-01	 1.2599337483e+00	-1.9986290800e+00
 7.3641398169e-01	 1.2746776104e+00	-2.0167997181e+00
 7.0697155361e-01	 1.2887012636e+00	-2.0285924572e+00
 6.7713240141e-01	 1.3020061577e+00	-2.0337093786e+00
 6.4691966002e-01	 1.3145948931e+00	-2.0318315862e+00
 9.3884023389e-01	 1.1679793284e+00	-1.8047472571e+00
 9.1252628575e-01	 1.1871983054e+00	-1.8555221280e+00
 8.8566109625e-01	 1.2057065185e+00	-1.9008249291e+00
 8.5826430637e-01	 1.2234981155e+00	-1.9405673760e+00
 8.3035628831e-01	 1.2405684802e+00	-1.9746265624e+00
 8.0195808171e-01	 1.2569142326e+00	-2.0028465221e+00
 7.7309132782e-01	 1.2725332240e+00	-2.0250402185e+00
 7.4377820227e-01	 1.2874245263e+00	-2.0409919163e+00
 7.1404134668e-01	 1.3015884176e+00	-2.0504598851e+00
 6.8390379968e-01	 1.3150263621e+00	-2.0531793771e+00
 6.5338892756e-01	 1.3277409862e+00	-2.0488658230e+00
 9.4813576533e-01	 1.1795435842e+00	-1.8392835170e+00
 9.2156128071e-01	 1.1989528497e+00	-1.8892107961e+00
 8.9443009684e-01	 1.2176443142e+00	-1.9334194094e+00
 8.6676204917e-01	 1.2356120672e+00	-1.9718399944e+00
 8.3857771163e-01	 1.2528514469e+00	-2.0043714661e+00
 8.0989833214e-01	 1.2693590399e+00	-2.0308823352e+00
 7.8074576623e-01	 1.2851326761e+00	-2.0512124304e+00
 7.5114240910e-01	 1.3001714184e+00	-2.0651749820e+00
 7.2111112655e-01	 1.3144755475e+00	-2.0725590225e+00
 6.9067518532e-01	 1.3280465422e+00	-2.0731320506e+00
 6.5985818304e-01	 1.3408870548e+00	-2.0666429077e+00
 9.5743128376e-01	 1.1911078237e+00	-1.8725116199e+00
 9.3059626302e-01	 1.2107073776e+00	-1.9217245181e+00
 9.0319908516e-01	 1.2295820931e+00	-1.9649882370e+00
 8.7525978008e-01	 1.2477260019e+00	-2.0022515223e+00
 8.4679912343e-01	 1.2651343964e+00	-2.0334342608e+00
 8.1783857144e-01	 1.2818038298e+00	-2.0584285637e+00
 7.8840019392e-01	 1.2977321106e+00	-2.0771002284e+00
 7.5850660562e-01	 1.3129182927e+00	-2.0892905424e+00
 7.2818089653e-01	 1.3273626594e+00	-2.0948183871e+00
 6.9744656147e-01	 1.3410667040e+00	-2.0934825957e+00
 6.6632742945e-01	 1.3540331050e+00	-2.0850645169e+00
 9.6672679351e-01	 1.2026720525e+00	-1.9044570702e+00
 9.3963123689e-01	 1.2224618946e+00	-1.9530779042e+00
 9.1196806529e-01	 1.2415198609e+00	-1.9955348601e+00
 8.8375750306e-01	 1.2598399253e+00	-2.0317939833e+00
 8.5502052756e-01	 1.2774173344e+00	-2.0617952906e+00
 8.2577880334e-01	 1.2942486080e+00	-2.0854536255e+00
 7.9605461447e-01	 1.3103315334e+00	-2.1026598674e+00
 7.6587079527e-01	 1.3256651550e+00	-2.1132824625e+00
 7.3525065990e-01	 1.3402497592e+00	-2.1171692385e+00
 7.0421793131e-01	 1.3540868537e+00	-2.1141494633e+00
 6.7279666983e-01	 1.3671791429e+00	-2.1040361020e+00
 9.7602229893e-01	 1.2142362759e+00	-1.9351443924e+00
 9.4866620655e-01	 1.2342164060e+00	-1.9832850002e+00
 9.2073704133e-01	 1.2534576231e+00	-2.0250625875e+00
 8.9225522208e-01	 1.2719538430e+00	-2.0604596970e+00
 8.6324192785e-01	 1.2897002667e+00	-2.0894356406e+00
 8.3371903152e-01	 1.3066933804e+00	-2.1119271341e+00
 8.0370903144e-01	 1.3229309502e+00	-2.1278492611e+00
 7.7323498148e-01	 1.3384120114e+00	-2.1370967383e+00
 7.4232041998e-01	 1.3531368530e+00	-2.1395454480e+00
 7.1098929798e-01	 1.3671069973e+00	-2.1350542043e+00
 6.7926590718e-01	 1.3803251746e+00	-2.1234667094e+00
 9.8531780434e-01	 1.2258004992e+00	-1.9645971780e+00
 9.5770117621e-01	 1.2459709175e+00	-2.0123593142e+00
 9.2950601737e-01	 1.2653953853e+00	-2.0535745956e+00
 9.0075294109e-01	 1.2840677607e+00	-2.0882412654e+00
 8.7146332814e-01	 1.3019831990e+00	-2.1163371022e+00
 8.4165925971e-01	 1.3191381528e+00	-2.1378198422e+00
 8.1136344842e-01	 1.3355303671e+00	-2.1526279043e+00
 7.8059916769e-01	 1.3511588678e+00	-2.1606813967e+00
 7.4939018006e-01	 1.3660239469e+00	-2.1618833755e+00
 7.1776066465e-01	 1.3801271409e+00	-2.1561213229e+00
 6.8573514454e-01	 1.3934712064e+00	-2.1432688115e+00
 9.9461331409e-01	 1.2373647280e+00	-1.9928381287e+00
 9.6673615009e-01	 1.2577254344e+00	-2.0403138416e+00
 9.3827499750e-01	 1.2773331531e+00	-2.0810739346e+00
 9.0925066407e-01	 1.2961816841e+00	-2.1151315595e+00
 8.7968473227e-01	 1.3142661370e+00	-2.1424821405e+00
 8.4959949161e-01	 1.3315829311e+00	-2.1631035890e+00
 8.1901786897e-01	 1.3481297898e+00	-2.1769567989e+00
 7.8796335734e-01	 1.3639057302e+00	-2.1839864009e+00
 7.5645994343e-01	 1.3789110467e+00	-2.1841217530e+00
 7.2453203449e-01	 1.3931472906e+00	-2.1772781393e+00
 6.9220438492e-01	 1.4066172442e+00	-2.1633581459e+00
 1.0039088325e+00	 1.2489289676e+00	-2.0198890984e+00
 9.7577113240e-01	 1.2694799623e+00	-2.0671610895e+00
 9.4704398581e-01	 1.2892709321e+00	-2.1075635345e+00
 9.1774839498e-01	 1.3082956188e+00	-2.1411237076e+00
 8.8790614407e-01	 1.3265490865e+00	-2.1678538627e+00
 8.5753973091e-01	 1.3440277209e+00	-2.1877512494e+00
 8.2667229666e-01	 1.3607292243e+00	-2.2007983843e+00
 7.9532755386e-01	 1.3766526045e+00	-2.2069635601e+00
 7.6352971341e-01	 1.3917981586e+00	-2.2062015754e+00
 7.3130341064e-01	 1.4061674524e+00	-2.1984546589e+00
 6.9867363133e-01	 1.4197632944e+00	-2.1836535652e+00
 1.0132043640e+00	 1.2604932233e+00	-2.0457711320e+00
 9.8480612736e-01	 1.2812345066e+00	-2.0929130990e+00
 9.5581298640e-01	 1.3012087277e+00	-2.1330462110e+00
 9.2624613779e-01	 1.3204095705e+00	-2.1662110831e+00
 8.9612756738e-01	 1.3388320532e+00	-2.1924359894e+00
 8.6547998133e-01	 1.3564725282e+00	-2.2117366875e+00
 8.3432673506e-01	 1.3733286765e+00	-2.2241164719e+00
 8.0269176069e-01	 1.3893994966e+00	-2.2295664461e+00
 7.7059949328e-01	 1.4046852885e+00	-2.2280659963e+00
 7.3807479628e-01	 1.4191876325e+00	-2.2195834497e+00
 7.0514288680e-01	 1.4329093630e+00	-2.2040768934e+00
 1.0224999127e+00	 1.2720575006e+00	-2.0705045022e+00
 9.9384113918e-01	 1.2929890729e+00	-2.1175814665e+00
 9.6458200336e-01	 1.3131465456e+00	-2.1575246706e+00
 9.3474389645e-01	 1.3325235447e+00	-2.1903872936e+00
 9.0434900604e-01	 1.3511150428e+00	-2.2162128265e+00
 8.7342024658e-01	 1.3689173587e+00	-2.2350347109e+00
 8.4198118776e-01	 1.3859281521e+00	-2.2468761826e+00
 8.1005598127e-01	 1.4021464125e+00	-2.2517503121e+00
 7.7766928634e-01	 1.4175724424e+00	-2.2496602304e+00
 7.4484619455e-01	 1.4322078368e+00	-2.2405995254e+00
 7.1161215435e-01	 1.4460554561e+00	-2.2245527917e+00
 6.4691966002e-01	 1.3145948931e+00	-2.0318315862e+00
 6.1635887003e-01	 1.3264703878e+00	-2.0269932204e+00
 5.8547149649e-01	 1.3376383674e+00	-2.0234343885e+00
 5.5428122614e-01	 1.3481047076e+00	-2.0210857784e+00
 5.2281180090e-01	 1.3578762997e+00	-2.0198187345e+00
 4.9108695369e-01	 1.3669610093e+00	-2.0194497288e+00
 4.5913034595e-01	 1.3753676313e+00	-2.0197451712e+00
 4.2696550748e-01	 1.3831058433e+00	-2.0204264701e+00
 3.9461577856e-01	 1.3901861566e+00	-2.0211752571e+00
 3.6210425476e-01	 1.3966198660e+00	-2.0216386946e+00
 3.2945373451e-01	 1.4024189979e+00	-2.0214347895e+00
 6.5338892756e-01	 1.3277409862e+00	-2.0488658230e+00
 6.2252252632e-01	 1.3397352371e+00	-2.0415425876e+00
 5.9132627566e-01	 1.3510148978e+00	-2.0354227276e+00
 5.5982409918e-01	 1.3615859025e+00	-2.0304466785e+00
 5.2803997625e-01	 1.3714552116e+00	-2.0264937614e+00
 4.9599787708e-01	 1.3806307694e+00	-2.0233867061e+00
 4.6372169976e-01	 1.3891214585e+00	-2.0208965270e+00
 4.3123520937e-01	 1.3969370534e+00	-2.0187476620e+00
 3.9856197962e-01	 1.4040881706e+00	-2.0166232867e+00
 3.6572533701e-01	 1.4105862179e+00	-2.0141707179e+00
 3.3274830799e-01	 1.4164433417e+00	-2.0110068307e+00
 6.5985818304e-01	 1.3408870548e+00	-2.0666429077e+00
 6.2868617111e-01	 1.3530000617e+00	-2.0570969070e+00
 5.9718104391e-01	 1.3643914032e+00	-2.0486732317e+00
 5.6536696188e-01	 1.3750670722e+00	-2.0413218853e+00
 5.3326814183e-01	 1.3850340982e+00	-2.0349301200e+00
 5.0090879130e-01	 1.3943005038e+00	-2.0293270040e+00
 4.6831304500e-01	 1.4028752600e+00	-2.0242883563e+00
 4.3550490330e-01	 1.4107682377e+00	-2.0195419555e+00
 4.0250817332e-01	 1.4179901587e+00	-2.0147729333e+00
 3.6934641251e-01	 1.4245525436e+00	-2.0096292661e+00
 3.3604287531e-01	 1.4304676593e+00	-2.0037272847e+00
 6.6632742945e-01	 1.3540331050e+00	-2.0850645169e+00
 6.3484980727e-01	 1.3662648677e+00	-2.0735444756e+00
 6.0303580395e-01	 1.3777678898e+00	-2.0630612807e+00
 5.7090981683e-01	 1.3885482231e+00	-2.0535743147e+00
 5.3849630010e-01	 1.3986129658e+00	-2.0449787021e+00
 5.0581969865e-01	 1.4079702192e+00	-2.0371099154e+00
 4.7290438381e-01	 1.4166290422e+00	-2.0297487606e+00
 4.3977459125e-01	 1.4245994026e+00	-2.0226266483e+00
 4.0645436149e-01	 1.4318921273e+00	-2.0154310578e+00
 3.7296748294e-01	 1.4385188498e+00	-2.0078111067e+00
 3.3933743803e-01	 1.4444919573e+00	-1.9993831447e+00
 6.7279666983e-01	 1.3671791429e+00	-2.1040361020e+00
 6.4101343768e-01	 1.3795296614e+00	-2.0907778797e+00
 6.0889055853e-01	 1.3911443640e+00	-2.0784670413e+00
 5.7645266659e-01	 1.4020293614e+00	-2.0670721490e+00
 5.4372445348e-01	 1.4121918206e+00	-2.0564961287e+00
 5.1073060142e-01	 1.4216399218e+00	-2.0465809085e+00
 4.7749571833e-01	 1.4303828116e+00	-2.0371124474e+00
 4.4404427522e-01	 1.4384305547e+00	-2.0278260604e+00
 4.1040054597e-01	 1.4457940829e+00	-2.0184119448e+00
 3.7658854999e-01	 1.4524851430e+00	-2.0085208194e+00
 3.4263199766e-01	 1.4585162421e+00	-1.9977695927e+00
 6.7926590718e-01	 1.3803251746e+00	-2.1234667094e+00
 6.4717706521e-01	 1.3927944488e+00	-2.1086937913e+00
 6.1474531039e-01	 1.4045208320e+00	-2.0947752389e+00
 5.8199551378e-01	 1.4155104934e+00	-2.0816885857e+00
 5.4895260443e-01	 1.4257706692e+00	-2.0693444770e+00
 5.1564150190e-01	 1.4353096180e+00	-2.0575913332e+00
 4.8208705072e-01	 1.4441365745e+00	-2.0462204161e+00
 4.4831395719e-01	 1.4522617002e+00	-2.0349711993e+00
 4.1434672862e-01	 1.4596960321e+00	-2.0235369493e+00
 3.8020961535e-01	 1.4664514296e+00	-2.0115704245e+00
 3.4592655576e-01	 1.4725405205e+00	-1.9986896093e+00
 6.8573514454e-01	 1.3934712064e+00	-2.1432688115e+00
 6.5334069275e-01	 1.4060592363e+00	-2.1271927750e+00
 6.2060006224e-01	 1.4178972999e+00	-2.1118749426e+00
 5.8753836096e-01	 1.4289916254e+00	-2.0973016018e+00
 5.5418075538e-01	 1.4393495177e+00	-2.0833910231e+00
 5.2055240237e-01	 1.4489793142e+00	-2.0699981432e+00
 4.8667838310e-01	 1.4578903375e+00	-2.0569196606e+00
 4.5258363917e-01	 1.4660928458e+00	-2.0438994448e+00
 4.1829291127e-01	 1.4735979812e+00	-2.0306341630e+00
 3.8383068071e-01	 1.4804177163e+00	-2.0167790314e+00
 3.4922111386e-01	 1.4865647988e+00	-2.0019536060e+00
 6.9220438492e-01	 1.4066172442e+00	-2.1633581459e+00
 6.5950432315e-01	 1.4193240299e+00	-2.1461791067e+00
 6.2645481682e-01	 1.4312737741e+00	-2.1296593627e+00
 5.9308121073e-01	 1.4424727637e+00	-2.1137937298e+00
 5.5940890876e-01	 1.4529283726e+00	-2.0985079993e+00
 5.2546330514e-01	 1.4626490168e+00	-2.0836636345e+00
 4.9126971763e-01	 1.4716441069e+00	-2.0690628899e+00
 4.5685332313e-01	 1.4799239978e+00	-2.0544542511e+00
 4.2223909575e-01	 1.4874999369e+00	-2.0395380996e+00
 3.8745174776e-01	 1.4943840094e+00	-2.0239725078e+00
 3.5251567350e-01	 1.5005890837e+00	-2.0073790777e+00
 6.9867363133e-01	 1.4197632944e+00	-2.1836535652e+00
 6.6566795931e-01	 1.4325888359e+00	-2.1655606011e+00
 6.3230957687e-01	 1.4446502608e+00	-2.1480256584e+00
 5.9862406567e-01	 1.4559539146e+00	-2.1310518473e+00
 5.6463706703e-01	 1.4665072402e+00	-2.1145723643e+00
 5.3037421249e-01	 1.4763187321e+00	-2.0984551979e+00
 4.9586105644e-01	 1.4853978891e+00	-2.0825082629e+00
 4.6112301108e-01	 1.4937551627e+00	-2.0664848656e+00
 4.2618528392e-01	 1.5014019055e+00	-2.0500893974e+00
 3.9107281819e-01	 1.5083503156e+00	-2.0329831664e+00
 3.5581023622e-01	 1.5146133816e+00	-2.0147902750e+00
 7.0514288680e-01	 1.4329093630e+00	-2.2040768934e+00
 6.7183160410e-01	 1.4458536605e+00	-2.1852484504e+00
 6.3816434511e-01	 1.4580267662e+00	-2.1668747575e+00
 6.0416692837e-01	 1.4694350844e+00	-2.1489669774e+00
 5.6986523261e-01	 1.4800861267e+00	-2.1314655870e+00
 5.3528512672e-01	 1.4899884666e+00	-2.1142450854e+00
 5.0045240168e-01	 1.4991516905e+00	-2.0971191391e+00
 4.6539270501e-01	 1.5075863470e+00	-2.0798460632e+00
 4.3013147762e-01	 1.5153038936e+00	-2.0621345385e+00
 3.9469389369e-01	 1.5223166414e+00	-2.0436494693e+00
 3.5910480354e-01	 1.5286376992e+00	-2.0240178940e+00
 7.1161215435e-01	 1.4460554561e+00	-2.2245527917e+00
 6.7799526040e-01	 1.4591185099e+00	-2.2051570699e+00
 6.4401912428e-01	 1.4714032966e+00	-2.1861111845e+00
 6.0970980142e-01	 1.4829162793e+00	-2.1674341007e+00
 5.7509340796e-01	 1.4936650386e+00	-2.1490734409e+00
 5.4019605011e-01	 1.5036582266e+00	-2.1309101893e+00
 5.0504375549e-01	 1.5129055177e+00	-2.1127638416e+00
 4.6966240691e-01	 1.5214175572e+00	-2.0943978953e+00
 4.3407767868e-01	 1.5292059076e+00	-2.0755255829e+00
 3.9831497595e-01	 1.5362829932e+00	-2.0558157489e+00
 3.6239937702e-01	 1.5426620430e+00	-2.0348987837e+00
 3.2945373451e-01	 1.4024189979e+00	-2.0214347895e+00
 2.9668437844e-01	 1.4075965984e+00	-2.0213020249e+00
 2.6382056091e-01	 1.4121655728e+00	-2.0221199139e+00
 2.3088394342e-01	 1.4161398264e+00	-2.0237251568e+00
 1.9789570964e-01	 1.4195337827e+00	-2.0259872813e+00
 1.6487652907e-01	 1.4223623295e+00	-2.0288062534e+00
 1.3184652410e-01	 1.4246407655e+00	-2.0321100062e+00
 9.8825240452e-02	 1.4263847488e+00	-2.0358519259e+00
 6.5831621110e-02	 1.4276102447e+00	-2.0400083305e+00
 3.2883983494e-02	 1.4283334758e+00	-2.0445759739e+00
 0.0000000000e+00	 1.4285708730e+00	-2.0495696017e+00
 3.3274830799e-01	 1.4164433417e+00	-2.0110068307e+00
 2.9965125476e-01	 1.4216727187e+00	-2.0080538144e+00
 2.6645879545e-01	 1.4262873834e+00	-2.0063754773e+00
 2.3319280818e-01	 1.4303013800e+00	-2.0058030962e+00
 1.9987468844e-01	 1.4337292763e+00	-2.0061962585e+00
 1.6652531245e-01	 1.4365861087e+00	-2.0074409128e+00
 1.3316500380e-01	 1.4388873294e+00	-2.0094473385e+00
 9.9813503695e-02	 1.4406487528e+00	-2.0121480672e+00
 6.6489944541e-02	 1.4418865037e+00	-2.0154957897e+00
 3.3212826935e-02	 1.4426169672e+00	-2.0194612733e+00
 0.0000000000e+00	 1.4428567384e+00	-2.0240313158e+00
 3.3604287531e-01	 1.4304676593e+00	-2.0037272847e+00
 3.0261812554e-01	 1.4357488128e+00	-1.9981626547e+00
 2.6909702507e-01	 1.4404091676e+00	-1.9941728608e+00
 2.3550166862e-01	 1.4444629071e+00	-1.9915840519e+00
 2.0185366355e-01	 1.4479247433e+00	-1.9902464070e+00
 1.6817409274e-01	 1.4508098615e+00	-1.9900326021e+00
 1.3448348104e-01	 1.4531338667e+00	-1.9908361971e+00
 1.0080176509e-01	 1.4549127300e+00	-1.9925699710e+00
 6.7148266744e-02	 1.4561627361e+00	-1.9951642336e+00
 3.3541669763e-02	 1.4569004319e+00	-1.9985651353e+00
 0.0000000000e+00	 1.4571425772e+00	-2.0027329985e+00
 3.3933743803e-01	 1.4444919573e+00	-1.9993831447e+00
 3.0558499217e-01	 1.4498248872e+00	-1.9914066505e+00
 2.7173525100e-01	 1.4545309320e+00	-1.9852827361e+00
 2.3781052584e-01	 1.4586244144e+00	-1.9808326939e+00
 2.0383263588e-01	 1.4621201904e+00	-1.9778977959e+00
 1.6982287073e-01	 1.4650335943e+00	-1.9763381548e+00
 1.3580195643e-01	 1.4673803841e+00	-1.9760315057e+00
 1.0179002511e-01	 1.4691766874e+00	-1.9768719333e+00
 6.7806588024e-02	 1.4704389485e+00	-1.9787685666e+00
 3.3870512131e-02	 1.4711838766e+00	-1.9816442600e+00
 0.0000000000e+00	 1.4714283959e+00	-1.9854342812e+00
 3.4263199766e-01	 1.4585162421e+00	-1.9977695927e+00
 3.0855185603e-01	 1.4639009484e+00	-1.9875724372e+00
 2.7437347446e-01	 1.4686526833e+00	-1.9794845922e+00
 2.4011938089e-01	 1.4727859085e+00	-1.9733227410e+00
 2.0581160637e-01	 1.4763156243e+00	-1.9689197205e+00
 1.7147164718e-01	 1.4792573138e+00	-1.9661237550e+00
 1.3712043060e-01	 1.4816268881e+00	-1.9647976122e+00
 1.0277828420e-01	 1.4834406314e+00	-1.9648176992e+00
 6.8464908691e-02	 1.4847151475e+00	-1.9660731194e+00
 3.4199354191e-02	 1.4854673080e+00	-1.9684647048e+00
 0.0000000000e+00	 1.4857142013e+00	-1.9719040403e+00
 3.4592655576e-01	 1.4725405205e+00	-1.9986896093e+00
 3.1151871851e-01	 1.4779770030e+00	-1.9864547747e+00
 2.7701169669e-01	 1.4827744280e+00	-1.9765663155e+00
 2.4242823487e-01	 1.4869473960e+00	-1.9688365294e+00
 2.0779057594e-01	 1.4905110515e+00	-1.9630902619e+00
 1.7312042286e-01	 1.4934810267e+00	-1.9591644922e+00
 1.3843890414e-01	 1.4958733855e+00	-1.9569078403e+00
 1.0376654283e-01	 1.4977045687e+00	-1.9561800126e+00
 6.9123229050e-02	 1.4989913399e+00	-1.9568511995e+00
 3.4528196098e-02	 1.4997507328e+00	-1.9588014388e+00
 0.0000000000e+00	 1.5000000000e+00	-1.9619199571e+00
 3.4922111386e-01	 1.4865647988e+00	-2.0019536060e+00
 3.1448558098e-01	 1.4920530577e+00	-1.9878561646e+00
 2.7964991892e-01	 1.4968961727e+00	-1.9763237933e+00
 2.4473708885e-01	 1.5011088835e+00	-1.9671646059e+00
 2.0976954550e-01	 1.5047064788e+00	-1.9601958735e+00
 1.7476919854e-01	 1.5077047396e+00	-1.9552439409e+00
 1.3975737769e-01	 1.5101198829e+00	-1.9521440657e+00
 1.0475480146e-01	 1.5119685061e+00	-1.9507401919e+00
 6.9781549409e-02	 1.5132675323e+00	-1.9508846682e+00
 3.4857038006e-02	 1.5140341575e+00	-1.9524379223e+00
 0.0000000000e+00	 1.5142857987e+00	-1.9552681020e+00
 3.5251567350e-01	 1.5005890837e+00	-2.0073790777e+00
 3.1745244484e-01	 1.5061291189e+00	-1.9915864877e+00
 2.8228814238e-01	 1.5110179240e+00	-1.9785605401e+00
 2.4704594391e-01	 1.5152703776e+00	-1.9681053448e+00
 2.1174851599e-01	 1.5189019127e+00	-1.9600309889e+00
 1.7641797498e-01	 1.5219284592e+00	-1.9541537640e+00
 1.4107585186e-01	 1.5243663870e+00	-1.9502963167e+00
 1.0574306056e-01	 1.5262324501e+00	-1.9482877292e+00
 7.0439870076e-02	 1.5275437313e+00	-1.9479635401e+00
 3.5185880066e-02	 1.5283175889e+00	-1.9491657101e+00
 0.0000000000e+00	 1.5285716041e+00	-1.9517425426e+00
 3.5581023622e-01	 1.5146133816e+00	-2.0147902750e+00
 3.2041931147e-01	 1.5202051933e+00	-1.9974626630e+00
 2.8492636830e-01	 1.5251396885e+00	-1.9830873446e+00
 2.4935480113e-01	 1.5294318849e+00	-1.9714645850e+00
 2.1372748832e-01	 1.5330973598e+00	-1.9623976529e+00
 1.7806675297e-01	 1.5361521920e+00	-1.9556933387e+00
 1.4239432725e-01	 1.5386129043e+00	-1.9511623962e+00
 1.0673132057e-01	 1.5404964074e+00	-1.9486199116e+00
 7.1098191357e-02	 1.5418199437e+00	-1.9478856065e+00
 3.5514722434e-02	 1.5426010337e+00	-1.9487840764e+00
 0.0000000000e+00	 1.5428574228e+00	-1.9511449735e+00
 3.5910480354e-01	 1.5286376992e+00	-2.0240178940e+00
 3.2338618225e-01	 1.5342812874e+00	-2.0053083243e+00
 2.8756459792e-01	 1.5392614727e+00	-1.9897219354e+00
 2.5166366157e-01	 1.5435934120e+00	-1.9770552876e+00
 2.1570646343e-01	 1.5472928268e+00	-1.9671051722e+00
 1.7971553327e-01	 1.5503759447e+00	-1.9596694022e+00
 1.4371280449e-01	 1.5528594416e+00	-1.9545475255e+00
 1.0771958197e-01	 1.5547603847e+00	-1.9515414639e+00
 7.1756513559e-02	 1.5560961760e+00	-1.9504560777e+00
 3.5843565261e-02	 1.5568844984e+00	-1.9510996607e+00
 0.0000000000e+00	 1.5571432616e+00	-1.9532843660e+00
 3.6239937702e-01	 1.5426620430e+00	-2.0348987837e+00
 3.2635305857e-01	 1.5483574077e+00	-2.0149535154e+00
 2.9020283246e-01	 1.5533832833e+00	-1.9982886664e+00
 2.5397252632e-01	 1.5577549656e+00	-1.9846972123e+00
 2.1768544223e-01	 1.5614883203e+00	-1.9739697851e+00
 1.8136431664e-01	 1.5645997240e+00	-1.9658957170e+00
 1.4503128419e-01	 1.5671060055e+00	-1.9602640071e+00
 1.0870784521e-01	 1.5690243886e+00	-1.9568642101e+00
 7.2414836991e-02	 1.5703724351e+00	-1.9554872464e+00
 3.6172408703e-02	 1.5711679898e+00	-1.9559261332e+00
 0.0000000000e+00	 1.5714291270e+00	-1.9579766377e+00
 1.5714291270e+00	 0.0000000000e+00	 2.2385511307e+00
 1.5711679898e+00	 3.6172408703e-02	 2.2306442438e+00
 1.5703724351e+00	 7.2414836991e-02	 2.2174948312e+00
 1.5690243886e+00	 1.0870784521e-01	 2.1983362854e+00
 1.5671060055e+00	 1.4503128419e-01	 2.1723987935e+00
 1.5645997240e+00	 1.8136431664e-01	 2.1389155825e+00
 1.5614883203e+00	 2.1768544223e-01	 2.0971298045e+00
 1.5577549656e+00	 2.5397252632e-01	 2.0463020450e+00
 1.5533832833e+00	 2.9020283246e-01	 1.9857184283e+00
 1.5483574077e+00	 3.2635305857e-01	 1.9146992761e+00
 1.5426620430e+00	 3.6239937702e-01	 1.8326082657e+00
 1.5857150240e+00	 0.0000000000e+00	 2.2294503672e+00
 1.5854515129e+00	 3.6501252874e-02	 2.2219862208e+00
 1.5846487257e+00	 7.3073161881e-02	 2.2089657152e+00
 1.5832884241e+00	 1.0969611065e-01	 2.1896545600e+00
 1.5813526010e+00	 1.4634976681e-01	 2.1633174381e+00
 1.5788235348e+00	 1.8301310367e-01	 2.1292242249e+00
 1.5756838453e+00	 2.1966442542e-01	 2.0866568233e+00
 1.5719165505e+00	 2.5628139620e-01	 2.0349165987e+00
 1.5675051252e+00	 2.9284107285e-01	 1.9733323825e+00
 1.5624335593e+00	 3.2931994147e-01	 1.9012690023e+00
 1.5566864179e+00	 3.6569395779e-01	 1.8181362817e+00
 1.6000009511e+00	 0.0000000000e+00	 2.2196023441e+00
 1.5997350659e+00	 3.6830097735e-02	 2.2127344560e+00
 1.5989250463e+00	 7.3731488155e-02	 2.1999784362e+00
 1.5975524896e+00	 1.1068437816e-01	 2.1806340269e+00
 1.5955992264e+00	 1.4766825221e-01	 2.1540023027e+00
 1.5930473755e+00	 1.8466189416e-01	 2.1193918631e+00
 1.5898794000e+00	 2.2164341276e-01	 2.0761256189e+00
 1.5860781652e+00	 2.5859027092e-01	 2.0235481489e+00
 1.5816269967e+00	 2.9547931878e-01	 1.9610335981e+00
 1.5765097404e+00	 3.3228683060e-01	 1.8879940719e+00
 1.5707108222e+00	 3.6898854549e-01	 1.8038884673e+00
 1.6142869048e+00	 0.0000000000e+00	 2.2089348991e+00
 1.6140186456e+00	 3.7158943210e-02	 2.2028128009e+00
 1.6132013936e+00	 7.4389815656e-02	 2.1904536379e+00
 1.6118165817e+00	 1.1167264751e-01	 2.1711928591e+00
 1.6098458784e+00	 1.4898674006e-01	 2.1443697797e+00
 1.6072712427e+00	 1.8631068772e-01	 2.1093337502e+00
 1.6040749813e+00	 2.2362240379e-01	 2.0654508911e+00
 1.6002398064e+00	 2.6089914995e-01	 2.0121113703e+00
 1.5957488947e+00	 2.9811756963e-01	 1.9487371905e+00
 1.5905859478e+00	 3.3525372526e-01	 1.8747904394e+00
 1.5847352527e+00	 3.7228313933e-01	 1.7897819438e+00
 1.6285728819e+00	 0.0000000000e+00	 2.1973783983e+00
 1.6283022487e+00	 3.7487789222e-02	 2.1921477754e+00
 1.6274777642e+00	 7.5048144234e-02	 2.1803147456e+00
 1.6260806971e+00	 1.1266091848e-01	 2.1612520979e+00
 1.6240925536e+00	 1.5030523007e-01	 2.1343391933e+00
 1.6214951332e+00	 1.8795948398e-01	 2.0989681112e+00
 1.6182705858e+00	 2.2560139806e-01	 2.0545503317e+00
 1.6144014706e+00	 2.6320803275e-01	 2.0005239310e+00
 1.6098708156e+00	 3.0075582480e-01	 1.9363612528e+00
 1.6046621782e+00	 3.3822062478e-01	 1.8615770078e+00
 1.5987597061e+00	 3.7557773856e-01	 1.7757367401e+00
 1.6428588790e+00	 0.0000000000e+00	 2.1848656261e+00
 1.6425858717e+00	 3.7816635694e-02	 2.1806684519e+00
 1.6417541548e+00	 7.5706473732e-02	 2.1694878454e+00
 1.6403448325e+00	 1.1364919083e-01	 2.1507355290e+00
 1.6383392488e+00	 1.5162372192e-01	 2.1238326720e+00
 1.6357190435e+00	 1.8960828255e-01	 2.0882160139e+00
 1.6324662101e+00	 2.2758039510e-01	 2.0433444940e+00
 1.6285631547e+00	 2.6551691879e-01	 1.9887063616e+00
 1.6239927564e+00	 3.0339408365e-01	 1.9238267265e+00
 1.6187384282e+00	 3.4118752844e-01	 1.8482755007e+00
 1.6127841791e+00	 3.7887234240e-01	 1.7616756673e+00
 1.6571448927e+00	 0.0000000000e+00	 2.1713316807e+00
 1.6568695114e+00	 3.8145482550e-02	 2.1683063456e+00
 1.6560305621e+00	 7.6364803998e-02	 2.1579015691e+00
 1.6546089846e+00	 1.1463746433e-01	 2.1395695635e+00
 1.6525859606e+00	 1.5294221531e-01	 2.1127750273e+00
 1.6499429705e+00	 1.9125708305e-01	 2.0770012462e+00
 1.6466618510e+00	 2.2955939445e-01	 2.0317566696e+00
 1.6427248553e+00	 2.6782580751e-01	 1.9765819321e+00
 1.6381147136e+00	 3.0603234559e-01	 1.9110572785e+00
 1.6328146948e+00	 3.4415443557e-01	 1.8348103403e+00
 1.6268086685e+00	 3.8216695008e-01	 1.7475241978e+00
 1.6714309198e+00	 0.0000000000e+00	 2.1567138755e+00
 1.6711531645e+00	 3.8474329713e-02	 2.1549953094e+00
 1.6703069826e+00	 7.7023134879e-02	 2.1454869856e+00
 1.6688731499e+00	 1.1562573876e-01	 2.1276831261e+00
 1.6668326858e+00	 1.5426070993e-01	 2.1010936392e+00
 1.6641669108e+00	 1.9290588508e-01	 2.0652501998e+00
 1.6608575052e+00	 2.3153839564e-01	 2.0197127711e+00
 1.6568865692e+00	 2.7013469840e-01	 1.9640765347e+00
 1.6522366840e+00	 3.0867060998e-01	 1.8979791849e+00
 1.6468909744e+00	 3.4712134546e-01	 1.8211085326e+00
 1.6408331710e+00	 3.8546156084e-01	 1.7332103520e+00
 1.6857169568e+00	 0.0000000000e+00	 2.1409516445e+00
 1.6854368275e+00	 3.8803177105e-02	 2.1406714349e+00
 1.6845834132e+00	 7.7681466220e-02	 2.1321774973e+00
 1.6831373252e+00	 1.1661401388e-01	 2.1150075479e+00
 1.6810794208e+00	 1.5557920547e-01	 2.0887183471e+00
 1.6783908610e+00	 1.9455468826e-01	 2.0528917598e+00
 1.6750531693e+00	 2.3351739822e-01	 2.0071412214e+00
 1.6710482929e+00	 2.7244359090e-01	 1.9511185728e+00
 1.6663586643e+00	 3.1130887623e-01	 1.8845212197e+00
 1.6609672639e+00	 3.5008825743e-01	 1.8070995572e+00
 1.6548576833e+00	 3.8875617391e-01	 1.7186645900e+00
 1.7000030006e+00	 0.0000000000e+00	 2.1239864537e+00
 1.6997204972e+00	 3.9132024651e-02	 2.1252729584e+00
 1.6988598504e+00	 7.8339797868e-02	 2.1179087423e+00
 1.6974015072e+00	 1.1760228946e-01	 2.1014764658e+00
 1.6953261626e+00	 1.5689770163e-01	 2.0755813465e+00
 1.6926148178e+00	 1.9620349222e-01	 2.0398571999e+00
 1.6892488400e+00	 2.3549640172e-01	 1.9939728474e+00
 1.6852100233e+00	 2.7475248447e-01	 1.9376388548e+00
 1.6804806512e+00	 3.1394714370e-01	 1.8706145507e+00
 1.6750435600e+00	 3.5305517079e-01	 1.7927152638e+00
 1.6688822022e+00	 3.9205078851e-01	 1.7038197092e+00
 1.7142890476e+00	 0.0000000000e+00	 2.1057617159e+00
 1.7140041702e+00	 3.9460872273e-02	 2.1087401713e+00
 1.7131362910e+00	 7.8998129670e-02	 2.1026185006e+00
 1.7116656925e+00	 1.1859056526e-01	 2.0870257258e+00
 1.7095729076e+00	 1.5821619810e-01	 2.0616170909e+00
 1.7068387780e+00	 1.9785229655e-01	 2.0260800826e+00
 1.7034445140e+00	 2.3747540569e-01	 1.9801407805e+00
 1.6993717569e+00	 2.7706137859e-01	 1.9235704947e+00
 1.6946026414e+00	 3.1658541179e-01	 1.8561926387e+00
 1.6891198593e+00	 3.5602208484e-01	 1.7778897731e+00
 1.6829067243e+00	 3.9534540388e-01	 1.6886107469e+00
 1.5426620430e+00	 3.6239937702e-01	 1.8326082657e+00
 1.5362829932e+00	 3.9831497595e-01	 1.7394158597e+00
 1.5292059076e+00	 4.3407767868e-01	 1.6359085568e+00
 1.5214175572e+00	 4.6966240691e-01	 1.5227633075e+00
 1.5129055177e+00	 5.0504375549e-01	 1.4006985789e+00
 1.5036582266e+00	 5.4019605011e-01	 1.2704715493e+00
 1.4936650386e+00	 5.7509340796e-01	 1.1328747440e+00
 1.4829162793e+00	 6.0970980142e-01	 9.8873211295e-01
 1.4714032966e+00	 6.4401912428e-01	 8.3889456398e-01
 1.4591185099e+00	 6.7799526040e-01	 6.8423497036e-01
 1.4460554561e+00	 7.1161215435e-01	 5.2564268693e-01
 1.5566864179e+00	 3.6569395779e-01	 1.8181362817e+00
 1.5502493760e+00	 4.0193606623e-01	 1.7238347717e+00
 1.5431079524e+00	 4.3802388849e-01	 1.6190785222e+00
 1.5352487979e+00	 4.7393211827e-01	 1.5045888392e+00
 1.5266593753e+00	 5.0963511948e-01	 1.3811291864e+00
 1.5173280169e+00	 5.4510698439e-01	 1.2495020203e+00
 1.5072439807e+00	 5.8032159489e-01	 1.1105450358e+00
 1.4963975041e+00	 6.1525268675e-01	 9.6512682728e-01
 1.4847798566e+00	 6.4987391643e-01	 8.1414198106e-01
 1.4723833886e+00	 6.8415893035e-01	 6.5850562376e-01
 1.4592015783e+00	 7.1808143623e-01	 4.9914746578e-01
 1.5707108222e+00	 3.6898854549e-01	 1.8038884673e+00
 1.5642157881e+00	 4.0555716412e-01	 1.7085501125e+00
 1.5570100265e+00	 4.4197010658e-01	 1.6026203315e+00
 1.5490800678e+00	 4.7820183860e-01	 1.4868632861e+00
 1.5404132618e+00	 5.1422649311e-01	 1.3620858400e+00
 1.5309978360e+00	 5.5001792898e-01	 1.2291340376e+00
 1.5208229512e+00	 5.8554979280e-01	 1.0888889642e+00
 1.5098787572e+00	 6.2079558372e-01	 9.4226199588e-01
 1.4981564447e+00	 6.5572872087e-01	 7.9018945784e-01
 1.4856482952e+00	 6.9032261325e-01	 6.3362672233e-01
 1.4723477282e+00	 7.2455073170e-01	 4.7354178881e-01
 1.5847352527e+00	 3.7228313933e-01	 1.7897819438e+00
 1.5781822263e+00	 4.0917826877e-01	 1.6934801602e+00
 1.5709121264e+00	 4.4591633204e-01	 1.5864531441e+00
 1.5629113634e+00	 4.8247156690e-01	 1.4695064454e+00
 1.5541671740e+00	 5.1881787531e-01	 1.3434887664e+00
 1.5446676805e+00	 5.5492888273e-01	 1.2092880861e+00
 1.5344019471e+00	 5.9077800047e-01	 1.0678271396e+00
 1.5233600355e+00	 6.2633849104e-01	 9.2005826231e-01
 1.5115330578e+00	 6.6158353624e-01	 7.6695762096e-01
 1.4989132266e+00	 6.9648630766e-01	 6.0951886896e-01
 1.4854939025e+00	 7.3102003925e-01	 4.4874627284e-01
 1.5987597061e+00	 3.7557773856e-01	 1.7757367401e+00
 1.5921486873e+00	 4.1279937933e-01	 1.6785460614e+00
 1.5848142491e+00	 4.4986256395e-01	 1.5704989567e+00
 1.5767426816e+00	 4.8674130217e-01	 1.4524409297e+00
 1.5679211087e+00	 5.2340926501e-01	 1.3252609928e+00
 1.5583375473e+00	 5.5983984451e-01	 1.1898874422e+00
 1.5479809651e+00	 5.9600621668e-01	 1.0472829599e+00
 1.5368413358e+00	 6.3188140741e-01	 8.9843905685e-01
 1.5249096927e+00	 6.6743836118e-01	 7.4436988466e-01
 1.5121781796e+00	 7.0265001213e-01	 5.8610545529e-01
 1.4986400984e+00	 7.3748935736e-01	 4.2468432328e-01
 1.6127841791e+00	 3.7887234240e-01	 1.7616756673e+00
 1.6061151678e+00	 4.1642049496e-01	 1.6636717051e+00
 1.5987163913e+00	 4.5380880138e-01	 1.5546824798e+00
 1.5905740192e+00	 4.9101104342e-01	 1.4355920439e+00
 1.5816750626e+00	 5.2800066113e-01	 1.3073282249e+00
 1.5720074333e+00	 5.6475081316e-01	 1.1708580527e+00
 1.5615600022e+00	 6.0123444021e-01	 1.0271824892e+00
 1.5503226549e+00	 6.3742433155e-01	 8.7733047530e-01
 1.5382863464e+00	 6.7329319431e-01	 7.2235232959e-01
 1.5254431512e+00	 7.0881372523e-01	 5.6331254045e-01
 1.5117863127e+00	 7.4395868453e-01	 4.0128201289e-01
 1.6268086685e+00	 3.8216695008e-01	 1.7475241978e+00
 1.6200816647e+00	 4.2004161482e-01	 1.6487836056e+00
 1.6126185497e+00	 4.5775504342e-01	 1.5389310208e+00
 1.6044053729e+00	 4.9528078965e-01	 1.4188876699e+00
 1.5954290326e+00	 5.3259206262e-01	 1.2896187315e+00
 1.5856773353e+00	 5.6966178755e-01	 1.1521284195e+00
 1.5751390551e+00	 6.0646266984e-01	 1.0074543430e+00
 1.5638039898e+00	 6.4296726214e-01	 8.5666116403e-01
 1.5516630156e+00	 6.7914803427e-01	 7.0083358782e-01
 1.5387081383e+00	 7.1497744552e-01	 5.4106873605e-01
 1.5249325422e+00	 7.5042801924e-01	 3.7846796672e-01
 1.6408331710e+00	 3.8546156084e-01	 1.7332103520e+00
 1.6340481746e+00	 4.2366273805e-01	 1.6338107894e+00
 1.6265207210e+00	 4.6170128914e-01	 1.5231743728e+00
 1.6182367396e+00	 4.9955053987e-01	 1.4022581559e+00
 1.6091830154e+00	 5.3718346838e-01	 1.2720632351e+00
 1.5993472500e+00	 5.7457276651e-01	 1.1336294902e+00
 1.5887181207e+00	 6.1169090434e-01	 9.8802957933e-01
 1.5772853373e+00	 6.4851019792e-01	 8.3636221096e-01
 1.5650396974e+00	 6.8500287970e-01	 6.7974473374e-01
 1.5519731378e+00	 7.2114117157e-01	 5.1930509707e-01
 1.5380787841e+00	 7.5689736000e-01	 3.5617325307e-01
 1.6548576833e+00	 3.8875617391e-01	 1.7186645900e+00
 1.6480146942e+00	 4.2728386382e-01	 1.6186846894e+00
 1.6404229021e+00	 4.6564753762e-01	 1.5073447090e+00
 1.6320681159e+00	 5.0382029307e-01	 1.3856362117e+00
 1.6229370078e+00	 5.4177487737e-01	 1.2545948073e+00
 1.6130171742e+00	 5.7948374892e-01	 1.1152945547e+00
 1.6022971957e+00	 6.1691914251e-01	 9.6884159462e-01
 1.5907666942e+00	 6.5405313757e-01	 8.1636704204e-01
 1.5784163885e+00	 6.9085772922e-01	 6.5901918058e-01
 1.5652381465e+00	 7.2730490193e-01	 4.9795501826e-01
 1.5512250352e+00	 7.6336670528e-01	 3.3433127985e-01
 1.6688822022e+00	 3.9205078851e-01	 1.7038197092e+00
 1.6619812204e+00	 4.3090499129e-01	 1.6033390429e+00
 1.6543250897e+00	 4.6959378794e-01	 1.4913764832e+00
 1.6458994987e+00	 5.0809004827e-01	 1.3689568100e+00
 1.6366910066e+00	 5.4636628849e-01	 1.2371487709e+00
 1.6266871049e+00	 5.8439473362e-01	 1.0970591465e+00
 1.6158762772e+00	 6.2214738312e-01	 9.4982602590e-01
 1.6042480574e+00	 6.5959607981e-01	 7.9661132298e-01
 1.5917930858e+00	 6.9671258148e-01	 6.3859258207e-01
 1.5785031615e+00	 7.3346863516e-01	 4.7695413583e-01
 1.5643712924e+00	 7.6983605359e-01	 3.1287769633e-01
 1.6829067243e+00	 3.9534540388e-01	 1.6886107469e+00
 1.6759477498e+00	 4.3452611959e-01	 1.5877097964e+00
 1.6682272805e+00	 4.7354003919e-01	 1.4752063344e+00
 1.6597308847e+00	 5.1235980447e-01	 1.3521570916e+00
 1.6504450087e+00	 5.5095770069e-01	 1.2196626051e+00
 1.6403570387e+00	 5.8930571946e-01	 1.0788609493e+00
 1.6294553618e+00	 6.2737562495e-01	 9.3092065722e-01
 1.6177294238e+00	 6.6513902335e-01	 7.7703286588e-01
 1.6051697863e+00	 7.0256743511e-01	 6.1840273903e-01
 1.5917681795e+00	 7.3963236984e-01	 4.5624023398e-01
 1.5775175527e+00	 7.7630540340e-01	 2.9175029962e-01
 1.4460554561e+00	 7.1161215435e-01	 5.2564268693e-01
 1.4322078368e+00	 7.4484619455e-01	 3.6319914920e-01
 1.4175724424e+00	 7.7766928634e-01	 1.9740047071e-01
 1.4021464125e+00	 8.1005598127e-01	 2.9726932800e-02
 1.3859281521e+00	 8.4198118776e-01	-1.3835942868e-01
 1.3689173587e+00	 8.7342024658e-01	-3.0542739660e-01
 1.3511150428e+00	 9.0434900604e-01	-4.7008927246e-01
 1.3325235447e+00	 9.3474389645e-01	-6.3101352087e-01
 1.3131465456e+00	 9.6458200336e-01	-7.8693716852e-01
 1.2929890729e+00	 9.9384113918e-01	-9.3667776359e-01
 1.2720575006e+00	 1.0224999127e+00	-1.0791447016e+00
 1.4592015783e+00	 7.1808143623e-01	 4.9914746578e-01
 1.4452280701e+00	 7.5161760783e-01	 3.3615008624e-01
 1.4304596250e+00	 7.8473909508e-01	 1.6997053097e-01
 1.4148933566e+00	 8.1742021817e-01	 2.0667088086e-03
 1.3985276557e+00	 8.4963565742e-01	-1.6612236104e-01
 1.3813622168e+00	 8.8136052942e-01	-3.3318897722e-01
 1.3633980596e+00	 9.1257046292e-01	-4.9776930041e-01
 1.3446375458e+00	 9.4324167396e-01	-6.5855583298e-01
 1.3250843900e+00	 9.7335103976e-01	-8.1430964613e-01
 1.3047436653e+00	 1.0028761710e+00	-9.6387216232e-01
 1.2836218036e+00	 1.0317954821e+00	-1.1061763017e+00
 1.4723477282e+00	 7.2455073170e-01	 4.7354178881e-01
 1.4582483306e+00	 7.5838903533e-01	 3.1002261174e-01
 1.4433468346e+00	 7.9180891867e-01	 1.4349217334e-01
 1.4276403275e+00	 8.2478447054e-01	-2.4614867052e-02
 1.4111271858e+00	 8.5729014315e-01	-1.9288329128e-01
 1.3938071010e+00	 8.8930082894e-01	-3.5992959385e-01
 1.3756811022e+00	 9.2079193707e-01	-5.2441435909e-01
 1.3567515724e+00	 9.5173946931e-01	-6.8505456597e-01
 1.3370222595e+00	 9.8212009457e-01	-8.4063563421e-01
 1.3164982823e+00	 1.0119112219e+00	-9.9002302230e-01
 1.2951861308e+00	 1.0410910711e+00	-1.1321731883e+00
 1.4854939025e+00	 7.3102003925e-01	 4.4874627284e-01
 1.4712686155e+00	 7.6516047548e-01	 2.8473757145e-01
 1.4562340682e+00	 7.9887875545e-01	 1.1788685059e-01
 1.4403873222e+00	 8.3214873665e-01	-5.0395333751e-02
 1.4237267393e+00	 8.6494464318e-01	-2.1871832773e-01
 1.4062520084e+00	 8.9724114327e-01	-3.8572348242e-01
 1.3879641678e+00	 9.2901342656e-01	-5.5009635324e-01
 1.3688656215e+00	 9.6023728052e-01	-7.1057881974e-01
 1.3489601512e+00	 9.9088916575e-01	-8.6598094198e-01
 1.3282529213e+00	 1.0209462895e+00	-1.0151923666e+00
 1.3067504797e+00	 1.0503866773e+00	-1.1571930960e+00
 1.4986400984e+00	 7.3748935736e-01	 4.2468432328e-01
 1.4842889216e+00	 7.7193192668e-01	 2.6021859196e-01
 1.4691213229e+00	 8.0594860378e-01	 9.3078775427e-02
 1.4531343378e+00	 8.3951301479e-01	-7.5349505444e-02
 1.4363263135e+00	 8.7259915570e-01	-2.4370090377e-01
 1.4186969362e+00	 9.0518147058e-01	-4.1064226938e-01
 1.4002472534e+00	 9.3723492948e-01	-5.7488465962e-01
 1.3809796905e+00	 9.6873510561e-01	-7.3519526437e-01
 1.3608980624e+00	 9.9965825125e-01	-8.9040906402e-01
 1.3400075795e+00	 1.0299813720e+00	-1.0394400362e+00
 1.3183148474e+00	 1.0596822988e+00	-1.1812917276e+00
 1.5117863127e+00	 7.4395868453e-01	 4.0128201289e-01
 1.4973092460e+00	 7.7870338736e-01	 2.3639195983e-01
 1.4820085956e+00	 8.1301846200e-01	 6.8994800398e-02
 1.4658813711e+00	 8.4687730324e-01	-9.9549589957e-02
 1.4489259052e+00	 8.8025367894e-01	-2.6790189422e-01
 1.4311418814e+00	 9.1312180900e-01	-4.3475508514e-01
 1.4125303562e+00	 9.4545644391e-01	-5.9884623693e-01
 1.3930937764e+00	 9.7723294260e-01	-7.5896824577e-01
 1.3728359904e+00	 1.0084273490e+00	-9.1398128098e-01
 1.3517622541e+00	 1.0390164671e+00	-1.0628237851e+00
 1.3298792313e+00	 1.0689779332e+00	-1.2045228428e+00
 1.5249325422e+00	 7.5042801924e-01	 3.7846796672e-01
 1.5103295855e+00	 7.8547485594e-01	 2.1318650688e-01
 1.4948958834e+00	 8.2008832847e-01	 4.5564304116e-02
 1.4786284194e+00	 8.5424160028e-01	-1.2306530116e-01
 1.4615255117e+00	 8.8790821111e-01	-2.9138972559e-01
 1.4435868411e+00	 9.2106215669e-01	-4.5812867171e-01
 1.4248134734e+00	 9.5367796793e-01	-6.2204573006e-01
 1.4052078764e+00	 9.8573078950e-01	-7.8195988591e-01
 1.3847739322e+00	 1.0171964570e+00	-9.3675675501e-01
 1.3635169425e+00	 1.0480515727e+00	-1.0853993702e+00
 1.3414436287e+00	 1.0782735785e+00	-1.2269383413e+00
 1.5380787841e+00	 7.5689736000e-01	 3.5617325307e-01
 1.5233499373e+00	 7.9224633084e-01	 1.9053350138e-01
 1.5077831832e+00	 8.2715820155e-01	 2.2719083267e-02
 1.4913754795e+00	 8.6160590419e-01	-1.4596396557e-01
 1.4741251299e+00	 8.9556275043e-01	-3.1423048077e-01
 1.4560318125e+00	 9.2900251179e-01	-4.8082748474e-01
 1.4370966020e+00	 9.6189949963e-01	-6.4454556903e-01
 1.4173219878e+00	 9.9422864433e-01	-8.0423017783e-01
 1.3967118853e+00	 1.0259655732e+00	-9.5879262027e-01
 1.3752716418e+00	 1.0570866868e+00	-1.1072206364e+00
 1.3530080369e+00	 1.0875692325e+00	-1.2485883431e+00
 1.5512250352e+00	 7.6336670528e-01	 3.3433127985e-01
 1.5363702981e+00	 7.9901781048e-01	 1.6836654480e-01
 1.5206704920e+00	 8.3422807957e-01	 3.9325012445e-04
 1.5041225486e+00	 8.6897021326e-01	-1.6831062355e-01
 1.4867247570e+00	 9.0321729510e-01	-3.3648799835e-01
 1.4684767925e+00	 9.3694287244e-01	-5.0291379049e-01
 1.4493797392e+00	 9.7012103708e-01	-6.6640606280e-01
 1.4294361076e+00	 1.0027265051e+00	-8.2583707591e-01
 1.4086498466e+00	 1.0347346956e+00	-9.8014406897e-01
 1.3870263493e+00	 1.0661218072e+00	-1.1283395982e+00
 1.3645724532e+00	 1.0968648930e+00	-1.2695212632e+00
 1.5643712924e+00	 7.6983605359e-01	 3.1287769633e-01
 1.5493906650e+00	 8.0578929328e-01	 1.4662147373e-01
 1.5335578069e+00	 8.4129796089e-01	-2.1476864786e-02
 1.5168696236e+00	 8.7633452576e-01	-1.9016812537e-01
 1.4993243899e+00	 9.1087184335e-01	-3.5822396695e-01
 1.4809217783e+00	 9.4488323681e-01	-5.2444775781e-01
 1.4616628821e+00	 9.7834257837e-01	-6.8768548848e-01
 1.4415502331e+00	 1.0112243699e+00	-8.4683658157e-01
 1.4205878136e+00	 1.0435038220e+00	-1.0008644329e+00
 1.3987810624e+00	 1.0751569318e+00	-1.1488065162e+00
 1.3761368749e+00	 1.1061605579e+00	-1.2897838840e+00
 1.5775175527e+00	 7.7630540340e-01	 2.9175029962e-01
 1.5624110349e+00	 8.1256077766e-01	 1.2523626669e-01
 1.5464451247e+00	 8.4836784386e-01	-4.2952805146e-02
 1.5296167016e+00	 8.8369883999e-01	-2.1159722253e-01
 1.5119240258e+00	 9.1852639338e-01	-3.7949801482e-01
 1.4933667671e+00	 9.5282360302e-01	-5.4548754556e-01
 1.4739460279e+00	 9.8656412157e-01	-7.0844017599e-01
 1.4536643614e+00	 1.0197222366e+00	-8.6728282462e-01
 1.4325257833e+00	 1.0522729505e+00	-1.0210052611e+00
 1.4105357781e+00	 1.0841920585e+00	-1.1686699702e+00
 1.3877012993e+00	 1.1154562249e+00	-1.3094214227e+00
 1.2720575006e+00	 1.0224999127e+00	-1.0791447016e+00
 1.2503595401e+00	 1.0505377988e+00	-1.2147811690e+00
 1.2279042194e+00	 1.0779352093e+00	-1.3441348323e+00
 1.2047018759e+00	 1.1046735469e+00	-1.4663928103e+00
 1.1807641368e+00	 1.1307352592e+00	-1.5808084963e+00
 1.1561038919e+00	 1.1561038919e+00	-1.6867076079e+00
 1.1307352592e+00	 1.1807641368e+00	-1.7834934467e+00
 1.1046735469e+00	 1.2047018759e+00	-1.8706512847e+00
 1.0779352093e+00	 1.2279042194e+00	-1.9477518108e+00
 1.0505377988e+00	 1.2503595401e+00	-2.0144535896e+00
 1.0224999127e+00	 1.2720575006e+00	-2.0705045022e+00
 1.2836218036e+00	 1.0317954821e+00	-1.1061763017e+00
 1.2617265865e+00	 1.0600882612e+00	-1.2415999319e+00
 1.2390671240e+00	 1.0877347422e+00	-1.3706310205e+00
 1.2156538473e+00	 1.1147161586e+00	-1.4924888501e+00
 1.1914984898e+00	 1.1410147985e+00	-1.6064595575e+00
 1.1666140580e+00	 1.1666140580e+00	-1.7119019371e+00
 1.1410147985e+00	 1.1914984898e+00	-1.8082524483e+00
 1.1147161586e+00	 1.2156538473e+00	-1.8950293466e+00
 1.0877347422e+00	 1.2390671240e+00	-1.9718358769e+00
 1.0600882612e+00	 1.2617265865e+00	-2.0383624843e+00
 1.0317954821e+00	 1.2836218036e+00	-2.0943880154e+00
 1.2951861308e+00	 1.0410910711e+00	-1.1321731883e+00
 1.2730936567e+00	 1.0696387437e+00	-1.2674011151e+00
 1.2502300519e+00	 1.0975342957e+00	-1.3961368283e+00
 1.2266058418e+00	 1.1247587914e+00	-1.5176306090e+00
 1.2022328653e+00	 1.1512943594e+00	-1.6312001147e+00
 1.1771242462e+00	 1.1771242462e+00	-1.7362359462e+00
 1.1512943594e+00	 1.2022328653e+00	-1.8322064115e+00
 1.1247587914e+00	 1.2266058418e+00	-1.9186614130e+00
 1.0975342957e+00	 1.2502300519e+00	-1.9952353982e+00
 1.0696387437e+00	 1.2730936567e+00	-2.0616493329e+00
 1.0410910711e+00	 1.2951861308e+00	-2.1177116739e+00
 1.3067504797e+00	 1.0503866773e+00	-1.1571930960e+00
 1.2844607481e+00	 1.0791892440e+00	-1.2922378146e+00
 1.2613930007e+00	 1.1073338674e+00	-1.4207005340e+00
 1.2375578568e+00	 1.1348014430e+00	-1.5418613924e+00
 1.2129672609e+00	 1.1615739396e+00	-1.6550683709e+00
 1.1876344541e+00	 1.1876344541e+00	-1.7597426314e+00
 1.1615739396e+00	 1.2129672609e+00	-1.8553830481e+00
 1.1348014430e+00	 1.2375578568e+00	-1.9415698605e+00
 1.1073338674e+00	 1.2613930007e+00	-2.0179673914e+00
 1.0791892440e+00	 1.2844607481e+00	-2.0843257944e+00
 1.0503866773e+00	 1.3067504797e+00	-2.1404818079e+00
 1.3183148474e+00	 1.0596822988e+00	-1.1812917276e+00
 1.2958278581e+00	 1.0887397600e+00	-1.3161612573e+00
 1.2725559677e+00	 1.1171334552e+00	-1.4443687153e+00
 1.2485098896e+00	 1.1448441109e+00	-1.5652229797e+00
 1.2237016739e+00	 1.1718535364e+00	-1.6781011817e+00
 1.1981446790e+00	 1.1981446790e+00	-1.7824538244e+00
 1.1718535364e+00	 1.2237016739e+00	-1.8778090910e+00
 1.1448441109e+00	 1.2485098896e+00	-1.9637762734e+00
 1.1171334552e+00	 1.2725559677e+00	-2.0400482692e+00
 1.0887397600e+00	 1.2958278581e+00	-2.1064031119e+00
 1.0596822988e+00	 1.3183148474e+00	-2.1627045183e+00
 1.3298792313e+00	 1.0689779332e+00	-1.2045228428e+00
 1.3071949839e+00	 1.0982902892e+00	-1.3392208822e+00
 1.2837189503e+00	 1.1269330567e+00	-1.4671863240e+00
 1.2594619377e+00	 1.1548867929e+00	-1.5877556909e+00
 1.2344361020e+00	 1.1821331477e+00	-1.7003341144e+00
 1.2086549187e+00	 1.2086549187e+00	-1.8044002430e+00
 1.1821331477e+00	 1.2344361020e+00	-1.8995103360e+00
 1.1548867929e+00	 1.2594619377e+00	-1.9853014785e+00
 1.1269330567e+00	 1.2837189503e+00	-2.0614938662e+00
 1.0982902892e+00	 1.3071949839e+00	-2.1278921301e+00
 1.0689779332e+00	 1.3298792313e+00	-2.1843856868e+00
 1.3414436287e+00	 1.0782735785e+00	-1.2269383413e+00
 1.3185621231e+00	 1.1078408297e+00	-1.3614644175e+00
 1.2948819460e+00	 1.1367326697e+00	-1.4891967553e+00
 1.2704139986e+00	 1.1649294867e+00	-1.6094984491e+00
 1.2451705427e+00	 1.1924127710e+00	-1.7218015034e+00
 1.2191651707e+00	 1.2191651707e+00	-1.8256115391e+00
 1.1924127710e+00	 1.2451705427e+00	-1.9205116830e+00
 1.1649294867e+00	 1.2704139986e+00	-2.0061655775e+00
 1.1367326697e+00	 1.2948819460e+00	-2.0823194643e+00
 1.1078408297e+00	 1.3185621231e+00	-2.1488033131e+00
 1.0782735785e+00	 1.3414436287e+00	-2.2055309850e+00
 1.3530080369e+00	 1.0875692325e+00	-1.2485883431e+00
 1.3299292729e+00	 1.1173913790e+00	-1.3829379538e+00
 1.3060449521e+00	 1.1465322917e+00	-1.5104419148e+00
 1.2813660698e+00	 1.1749721898e+00	-1.6304888405e+00
 1.2559049933e+00	 1.2026924039e+00	-1.7425365027e+00
 1.2296754325e+00	 1.2296754325e+00	-1.8461163446e+00
 1.2026924039e+00	 1.2559049933e+00	-1.9408371740e+00
 1.1749721898e+00	 1.2813660698e+00	-2.0263879782e+00
 1.1465322917e+00	 1.3060449521e+00	-2.1025398159e+00
 1.1173913790e+00	 1.3299292729e+00	-2.1691467601e+00
 1.0875692325e+00	 1.3530080369e+00	-2.2261458841e+00
 1.3645724532e+00	 1.0968648930e+00	-1.2695212632e+00
 1.3412964306e+00	 1.1269419351e+00	-1.4036860134e+00
 1.3172079660e+00	 1.1563319207e+00	-1.5309622818e+00
 1.2923181486e+00	 1.1850148999e+00	-1.6507631710e+00
 1.2666394515e+00	 1.2129720440e+00	-1.7625711363e+00
 1.2401857016e+00	 1.2401857016e+00	-1.8659423141e+00
 1.2129720440e+00	 1.2666394515e+00	-1.9605100292e+00
 1.1850148999e+00	 1.2923181486e+00	-2.0459874238e+00
 1.1563319207e+00	 1.3172079660e+00	-2.1221691669e+00
 1.1269419351e+00	 1.3412964306e+00	-2.1889322213e+00
 1.0968648930e+00	 1.3645724532e+00	-2.2462356626e+00
 1.3761368749e+00	 1.1061605579e+00	-1.2897838840e+00
 1.3526635936e+00	 1.1364924956e+00	-1.4237516162e+00
 1.3283709851e+00	 1.1661315542e+00	-1.5507969687e+00
 1.3032702325e+00	 1.1950576148e+00	-1.6703565202e+00
 1.2773739147e+00	 1.2232516888e+00	-1.7819363454e+00
 1.2506959757e+00	 1.2506959757e+00	-1.8851161663e+00
 1.2232516888e+00	 1.2773739147e+00	-1.9795526821e+00
 1.1950576148e+00	 1.3032702325e+00	-2.0649820210e+00
 1.1661315542e+00	 1.3283709851e+00	-2.1412212775e+00
 1.1364924956e+00	 1.3526635936e+00	-2.2081691125e+00
 1.1061605579e+00	 1.3761368749e+00	-2.2658054152e+00
 1.3877012993e+00	 1.1154562249e+00	-1.3094214227e+00
 1.3640307593e+00	 1.1460430583e+00	-1.4431763425e+00
 1.3395340068e+00	 1.1759311900e+00	-1.5699837783e+00
 1.3142223190e+00	 1.2051003319e+00	-1.6893027921e+00
 1.2881083803e+00	 1.2335313361e+00	-1.8006620337e+00
 1.2612062521e+00	 1.2612062521e+00	-1.9036637232e+00
 1.2335313361e+00	 1.2881083803e+00	-1.9979868119e+00
 1.2051003319e+00	 1.3142223190e+00	-2.0833892666e+00
 1.1759311900e+00	 1.3395340068e+00	-2.1597094429e+00
 1.1460430583e+00	 1.3640307593e+00	-2.2268665291e+00
 1.1154562249e+00	 1.3877012993e+00	-2.2848600598e+00
 1.0224999127e+00	 1.2720575006e+00	-2.0705045022e+00
 9.9384113918e-01	 1.2929890729e+00	-2.1175814665e+00
 9.6458200336e-01	 1.3131465456e+00	-2.1575246706e+00
 9.3474389645e-01	 1.3325235447e+00	-2.1903872936e+00
 9.0434900604e-01	 1.3511150428e+00	-2.2162128265e+00
 8.7342024658e-01	 1.3689173587e+00	-2.2350347109e+00
 8.4198118776e-01	 1.3859281521e+00	-2.2468761826e+00
 8.1005598127e-01	 1.4021464125e+00	-2.2517503121e+00
 7.7766928634e-01	 1.4175724424e+00	-2.2496602304e+00
 7.4484619455e-01	 1.4322078368e+00	-2.2405995254e+00
 7.1161215435e-01	 1.4460554561e+00	-2.2245527917e+00
 1.0317954821e+00	 1.2836218036e+00	-2.0943880154e+00
 1.0028761710e+00	 1.3047436653e+00	-2.1414652081e+00
 9.7335103976e-01	 1.3250843900e+00	-2.1812963844e+00
 9.4324167396e-01	 1.3446375458e+00	-2.2139464289e+00
 9.1257046292e-01	 1.3633980596e+00	-2.2394732039e+00
 8.8136052942e-01	 1.3813622168e+00	-2.2579270101e+00
 8.4963565742e-01	 1.3985276557e+00	-2.2693502248e+00
 8.1742021817e-01	 1.4148933566e+00	-2.2737771164e+00
 7.8473909508e-01	 1.4304596250e+00	-2.2712338265e+00
 7.5161760783e-01	 1.4452280701e+00	-2.2617385084e+00
 7.1808143623e-01	 1.4592015783e+00	-2.2453016110e+00
 1.0410910711e+00	 1.2951861308e+00	-2.1177116739e+00
 1.0119112219e+00	 1.3164982823e+00	-2.1648565564e+00
 9.8212009457e-01	 1.3370222595e+00	-2.2046542632e+00
 9.5173946931e-01	 1.3567515724e+00	-2.2371804488e+00
 9.2079193707e-01	 1.3756811022e+00	-2.2625064655e+00
 8.8930082894e-01	 1.3938071010e+00	-2.2806986493e+00
 8.5729014315e-01	 1.4111271858e+00	-2.2918177590e+00
 8.2478447054e-01	 1.4276403275e+00	-2.2959185671e+00
 7.9180891867e-01	 1.4433468346e+00	-2.2930496007e+00
 7.5838903533e-01	 1.4582483306e+00	-2.2832530242e+00
 7.2455073170e-01	 1.4723477282e+00	-2.2665646572e+00
 1.0503866773e+00	 1.3067504797e+00	-2.1404818079e+00
 1.0209462895e+00	 1.3282529213e+00	-2.1877565774e+00
 9.9088916575e-01	 1.3489601512e+00	-2.2275942005e+00
 9.6023728052e-01	 1.3688656215e+00	-2.2600801807e+00
 9.2901342656e-01	 1.3879641678e+00	-2.2852984906e+00
 8.9724114327e-01	 1.4062520084e+00	-2.3033306900e+00
 8.6494464318e-01	 1.4237267393e+00	-2.3142551690e+00
 8.3214873665e-01	 1.4403873222e+00	-2.3181465202e+00
 7.9887875545e-01	 1.4562340682e+00	-2.3150750394e+00
 7.6516047548e-01	 1.4712686155e+00	-2.3051063552e+00
 7.3102003925e-01	 1.4854939025e+00	-2.2883011798e+00
 1.0596822988e+00	 1.3183148474e+00	-2.1627045183e+00
 1.0299813720e+00	 1.3400075795e+00	-2.2101662920e+00
 9.9965825125e-01	 1.3608980624e+00	-2.2501122269e+00
 9.6873510561e-01	 1.3809796905e+00	-2.2826367667e+00
 9.3723492948e-01	 1.4002472534e+00	-2.3078356469e+00
 9.0518147058e-01	 1.4186969362e+00	-2.3258048507e+00
 8.7259915570e-01	 1.4363263135e+00	-2.3366396600e+00
 8.3951301479e-01	 1.4531343378e+00	-2.3404338118e+00
 8.0594860378e-01	 1.4691213229e+00	-2.3372787627e+00
 7.7193192668e-01	 1.4842889216e+00	-2.3272630644e+00
 7.3748935736e-01	 1.4986400984e+00	-2.3104718506e+00
 1.0689779332e+00	 1.3298792313e+00	-2.1843856868e+00
 1.0390164671e+00	 1.3517622541e+00	-2.2320866787e+00
 1.0084273490e+00	 1.3728359904e+00	-2.2722045038e+00
 9.7723294260e-01	 1.3930937764e+00	-2.3048416494e+00
 9.4545644391e-01	 1.4125303562e+00	-2.3301047689e+00
 9.1312180900e-01	 1.4311418814e+00	-2.3481034786e+00
 8.8025367894e-01	 1.4489259052e+00	-2.3589492226e+00
 8.4687730324e-01	 1.4658813711e+00	-2.3627542159e+00
 8.1301846200e-01	 1.4820085956e+00	-2.3596304747e+00
 7.7870338736e-01	 1.4973092460e+00	-2.3496889406e+00
 7.4395868453e-01	 1.5117863127e+00	-2.3330387023e+00
 1.0782735785e+00	 1.3414436287e+00	-2.2055309850e+00
 1.0480515727e+00	 1.3635169425e+00	-2.2535186752e+00
 1.0171964570e+00	 1.3847739322e+00	-2.2938673177e+00
 9.8573078950e-01	 1.4052078764e+00	-2.3266865598e+00
 9.5367796793e-01	 1.4248134734e+00	-2.3520931381e+00
 9.2106215669e-01	 1.4435868411e+00	-2.3702095226e+00
 8.8790821111e-01	 1.4615255117e+00	-2.3811625993e+00
 8.5424160028e-01	 1.4786284194e+00	-2.3850824033e+00
 8.2008832847e-01	 1.4948958834e+00	-2.3821009171e+00
 7.8547485594e-01	 1.5103295855e+00	-2.3723509449e+00
 7.5042801924e-01	 1.5249325422e+00	-2.3559650697e+00
 1.0875692325e+00	 1.3530080369e+00	-2.2261458841e+00
 1.0570866868e+00	 1.3752716418e+00	-2.2744631802e+00
 1.0259655732e+00	 1.3967118853e+00	-2.3150970753e+00
 9.9422864433e-01	 1.4173219878e+00	-2.3481635043e+00
 9.6189949963e-01	 1.4370966020e+00	-2.3737884635e+00
 9.2900251179e-01	 1.4560318125e+00	-2.3921065075e+00
 8.9556275043e-01	 1.4741251299e+00	-2.4032592525e+00
 8.6160590419e-01	 1.4913754795e+00	-2.4073939040e+00
 8.2715820155e-01	 1.5077831832e+00	-2.4046618251e+00
 7.9224633084e-01	 1.5233499373e+00	-2.3952171612e+00
 7.5689736000e-01	 1.5380787841e+00	-2.3792155344e+00
 1.0968648930e+00	 1.3645724532e+00	-2.2462356626e+00
 1.0661218072e+00	 1.3870263493e+00	-2.2949210549e+00
 1.0347346956e+00	 1.4086498466e+00	-2.3358902981e+00
 1.0027265051e+00	 1.4294361076e+00	-2.3692647536e+00
 9.7012103708e-01	 1.4493797392e+00	-2.3951788642e+00
 9.3694287244e-01	 1.4684767925e+00	-2.4137785094e+00
 9.0321729510e-01	 1.4867247570e+00	-2.4252193336e+00
 8.6897021326e-01	 1.5041225486e+00	-2.4296650707e+00
 8.3422807957e-01	 1.5206704920e+00	-2.4272858849e+00
 7.9901781048e-01	 1.5363702981e+00	-2.4182567483e+00
 7.6336670528e-01	 1.5512250352e+00	-2.4027558716e+00
 1.1061605579e+00	 1.3761368749e+00	-2.2658054152e+00
 1.0751569318e+00	 1.3987810624e+00	-2.3148931250e+00
 1.0435038220e+00	 1.4205878136e+00	-2.3562436178e+00
 1.0112243699e+00	 1.4415502331e+00	-2.3899828310e+00
 9.7834257837e-01	 1.4616628821e+00	-2.4162528516e+00
 9.4488323681e-01	 1.4809217783e+00	-2.4352101333e+00
 9.1087184335e-01	 1.4993243899e+00	-2.4470236547e+00
 8.7633452576e-01	 1.5168696236e+00	-2.4518730439e+00
 8.4129796089e-01	 1.5335578069e+00	-2.4499466942e+00
 8.0578929328e-01	 1.5493906650e+00	-2.4414398950e+00
 7.6983605359e-01	 1.5643712924e+00	-2.4265530003e+00
 1.1154562249e+00	 1.3877012993e+00	-2.2848600598e+00
 1.0841920585e+00	 1.4105357781e+00	-2.3343801821e+00
 1.0522729505e+00	 1.4325257833e+00	-2.3761537718e+00
 1.0197222366e+00	 1.4536643614e+00	-2.4103105029e+00
 9.8656412157e-01	 1.4739460279e+00	-2.4369993135e+00
 9.5282360302e-01	 1.4933667671e+00	-2.4563864903e+00
 9.1852639338e-01	 1.5119240258e+00	-2.4686536605e+00
 8.8369883999e-01	 1.5296167016e+00	-2.4739957196e+00
 8.4836784386e-01	 1.5464451247e+00	-2.4726187241e+00
 8.1256077766e-01	 1.5624110349e+00	-2.4647377773e+00
 7.7630540340e-01	 1.5775175527e+00	-2.4505749355e+00
 7.1161215435e-01	 1.4460554561e+00	-2.2245527917e+00
 6.7799526040e-01	 1.4591185099e+00	-2.2051570699e+00
 6.4401912428e-01	 1.4714032966e+00	-2.1861111845e+00
 6.0970980142e-01	 1.4829162793e+00	-2.1674341007e+00
 5.7509340796e-01	 1.4936650386e+00	-2.1490734409e+00
 5.4019605011e-01	 1.5036582266e+00	-2.1309101893e+00
 5.0504375549e-01	 1.5129055177e+00	-2.1127638416e+00
 4.6966240691e-01	 1.5214175572e+00	-2.0943978953e+00
 4.3407767868e-01	 1.5292059076e+00	-2.0755255829e+00
 3.9831497595e-01	 1.5362829932e+00	-2.0558157489e+00
 3.6239937702e-01	 1.5426620430e+00	-2.0348987837e+00
 7.1808143623e-01	 1.4592015783e+00	-2.2453016110e+00
 6.8415893035e-01	 1.4723833886e+00	-2.2254906272e+00
 6.4987391643e-01	 1.4847798566e+00	-2.2059227069e+00
 6.1525268675e-01	 1.4963975041e+00	-2.1866248843e+00
 5.8032159489e-01	 1.5072439807e+00	-2.1675522103e+00
 5.4510698439e-01	 1.5173280169e+00	-2.1485924517e+00
 5.0963511948e-01	 1.5266593753e+00	-2.1295712426e+00
 4.7393211827e-01	 1.5352487979e+00	-2.1102575823e+00
 4.3802388849e-01	 1.5431079524e+00	-2.0903695808e+00
 4.0193606623e-01	 1.5502493760e+00	-2.0695803539e+00
 3.6569395779e-01	 1.5566864179e+00	-2.0475239782e+00
 7.2455073170e-01	 1.4723477282e+00	-2.2665646572e+00
 6.9032261325e-01	 1.4856482952e+00	-2.2464780846e+00
 6.5572872087e-01	 1.4981564447e+00	-2.2265252850e+00
 6.2079558372e-01	 1.5098787572e+00	-2.2067421384e+00
 5.8554979280e-01	 1.5208229512e+00	-2.1870918227e+00
 5.5001792898e-01	 1.5309978360e+00	-2.1674695080e+00
 5.1422649311e-01	 1.5404132618e+00	-2.1477075101e+00
 4.7820183860e-01	 1.5490800678e+00	-2.1275807987e+00
 4.4197010658e-01	 1.5570100265e+00	-2.1068127579e+00
 4.0555716412e-01	 1.5642157881e+00	-2.0850811024e+00
 3.6898854549e-01	 1.5707108222e+00	-2.0620238572e+00
 7.3102003925e-01	 1.4854939025e+00	-2.2883011798e+00
 6.9648630766e-01	 1.4989132266e+00	-2.2680745971e+00
 6.6158353624e-01	 1.5115330578e+00	-2.2478696698e+00
 6.2633849104e-01	 1.5233600355e+00	-2.2277318853e+00
 5.9077800047e-01	 1.5344019471e+00	-2.2076332337e+00
 5.5492888273e-01	 1.5446676805e+00	-2.1874768974e+00
 5.1881787531e-01	 1.5541671740e+00	-2.1671024085e+00
 4.8247156690e-01	 1.5629113634e+00	-2.1462911681e+00
 4.4591633204e-01	 1.5709121264e+00	-2.1247722252e+00
 4.0917826877e-01	 1.5781822263e+00	-2.1022282165e+00
 3.7228313933e-01	 1.5847352527e+00	-2.0783013757e+00
 7.3748935736e-01	 1.4986400984e+00	-2.3104718506e+00
 7.0265001213e-01	 1.5121781796e+00	-2.2902368859e+00
 6.6743836118e-01	 1.5249096927e+00	-2.2699083331e+00
 6.3188140741e-01	 1.5368413358e+00	-2.2495420339e+00
 5.9600621668e-01	 1.5479809651e+00	-2.2291194631e+00
 5.5983984451e-01	 1.5583375473e+00	-2.2085524138e+00
 5.2340926501e-01	 1.5679211087e+00	-2.1876881597e+00
 4.8674130217e-01	 1.5767426816e+00	-2.1663149873e+00
 4.4986256395e-01	 1.5848142491e+00	-2.1441679953e+00
 4.1279937933e-01	 1.5921486873e+00	-2.1209350623e+00
 3.7557773856e-01	 1.5987597061e+00	-2.0962628877e+00
 7.4395868453e-01	 1.5117863127e+00	-2.3330387023e+00
 7.0881372523e-01	 1.5254431512e+00	-2.3129231706e+00
 6.7329319431e-01	 1.5382863464e+00	-2.2925953928e+00
 6.3742433155e-01	 1.5503226549e+00	-2.2721222980e+00
 6.0123444021e-01	 1.5615600022e+00	-2.2514955059e+00
 5.6475081316e-01	 1.5720074333e+00	-2.2306360083e+00
 5.2800066113e-01	 1.5816750626e+00	-2.2093993366e+00
 4.9101104342e-01	 1.5905740192e+00	-2.1875811098e+00
 4.5380880138e-01	 1.5987163913e+00	-2.1649228566e+00
 4.1642049496e-01	 1.6061151678e+00	-2.1411180125e+00
 3.7887234240e-01	 1.6127841791e+00	-2.1158179982e+00
 7.5042801924e-01	 1.5249325422e+00	-2.3559650697e+00
 7.1497744552e-01	 1.5387081383e+00	-2.3360931042e+00
 6.7914803427e-01	 1.5516630156e+00	-2.3158865421e+00
 6.4296726214e-01	 1.5638039898e+00	-2.2954241187e+00
 6.0646266984e-01	 1.5751390551e+00	-2.2747082471e+00
 5.6966178755e-01	 1.5856773353e+00	-2.2536696954e+00
 5.3259206262e-01	 1.5954290326e+00	-2.2321727613e+00
 4.9528078965e-01	 1.6044053729e+00	-2.2100208363e+00
 4.5775504342e-01	 1.6126185497e+00	-2.1869622533e+00
 4.2004161482e-01	 1.6200816647e+00	-2.1626963175e+00
 3.8216695008e-01	 1.6268086685e+00	-2.1368794229e+00
 7.5689736000e-01	 1.5380787841e+00	-2.3792155344e+00
 7.2114117157e-01	 1.5519731378e+00	-2.3597077124e+00
 6.8500287970e-01	 1.5650396974e+00	-2.3397389819e+00
 6.4851019792e-01	 1.5772853373e+00	-2.3194005902e+00
 6.1169090434e-01	 1.5887181207e+00	-2.2987063806e+00
 5.7457276651e-01	 1.5993472500e+00	-2.2775974657e+00
 5.3718346838e-01	 1.6091830154e+00	-2.2559474094e+00
 4.9955053987e-01	 1.6182367396e+00	-2.2335678093e+00
 4.6170128914e-01	 1.6265207210e+00	-2.2102141726e+00
 4.2366273805e-01	 1.6340481746e+00	-2.1855919820e+00
 3.8546156084e-01	 1.6408331710e+00	-2.1593628561e+00
 7.6336670528e-01	 1.5512250352e+00	-2.4027558716e+00
 7.2730490193e-01	 1.5652381465e+00	-2.3837293354e+00
 6.9085772922e-01	 1.5784163885e+00	-2.3641113575e+00
 6.5405313757e-01	 1.5907666942e+00	-2.3440063902e+00
 6.1691914251e-01	 1.6022971957e+00	-2.3234403332e+00
 5.7948374892e-01	 1.6130171742e+00	-2.3023652020e+00
 5.4177487737e-01	 1.6229370078e+00	-2.2806643188e+00
 5.0382029307e-01	 1.6320681159e+00	-2.2581579150e+00
 4.6564753762e-01	 1.6404229021e+00	-2.2346090364e+00
 4.2728386382e-01	 1.6480146942e+00	-2.2097296489e+00
 3.8875617391e-01	 1.6548576833e+00	-2.1831868436e+00
 7.6983605359e-01	 1.5643712924e+00	-2.4265530003e+00
 7.3346863516e-01	 1.5785031615e+00	-2.4081215724e+00
 6.9671258148e-01	 1.5917930858e+00	-2.3889636973e+00
 6.5959607981e-01	 1.6042480574e+00	-2.3691977135e+00
 6.2214738312e-01	 1.6158762772e+00	-2.3488621916e+00
 5.8439473362e-01	 1.6266871049e+00	-2.3279205997e+00
 5.4636628849e-01	 1.6366910066e+00	-2.3062665030e+00
 5.0809004827e-01	 1.6458994987e+00	-2.2837291879e+00
 4.6959378794e-01	 1.6543250897e+00	-2.2600795995e+00
 4.3090499129e-01	 1.6619812204e+00	-2.2350364878e+00
 3.9205078851e-01	 1.6688822022e+00	-2.2082726636e+00
 7.7630540340e-01	 1.5775175527e+00	-2.4505749355e+00
 7.3963236984e-01	 1.5917681795e+00	-2.4328492295e+00
 7.0256743511e-01	 1.6051697863e+00	-2.4142573560e+00
 6.6513902335e-01	 1.6177294238e+00	-2.3949322082e+00
 6.2737562495e-01	 1.6294553618e+00	-2.3749256329e+00
 5.8930571946e-01	 1.6403570387e+00	-2.3542130912e+00
 5.5095770069e-01	 1.6504450087e+00	-2.3326988689e+00
 5.1235980447e-01	 1.6597308847e+00	-2.3102217225e+00
 4.7354003919e-01	 1.6682272805e+00	-2.2865608520e+00
 4.3452611959e-01	 1.6759477498e+00	-2.2614420906e+00
 3.9534540388e-01	 1.6829067243e+00	-2.2345442127e+00
 3.6239937702e-01	 1.5426620430e+00	-2.0348987837e+00
 3.2635305857e-01	 1.5483574077e+00	-2.0149535154e+00
 2.9020283246e-01	 1.5533832833e+00	-1.9982886664e+00
 2.5397252632e-01	 1.5577549656e+00	-1.9846972123e+00
 2.1768544223e-01	 1.5614883203e+00	-1.9739697851e+00
 1.8136431664e-01	 1.5645997240e+00	-1.9658957170e+00
 1.4503128419e-01	 1.5671060055e+00	-1.9602640071e+00
 1.0870784521e-01	 1.5690243886e+00	-1.9568642101e+00
 7.2414836991e-02	 1.5703724351e+00	-1.9554872464e+00
 3.6172408703e-02	 1.5711679898e+00	-1.9559261332e+00
 0.0000000000e+00	 1.5714291270e+00	-1.9579766377e+00
 3.6569395779e-01	 1.5566864179e+00	-2.0475239782e+00
 3.2931994147e-01	 1.5624335593e+00	-2.0264835907e+00
 2.9284107285e-01	 1.5675051252e+00	-2.0088686291e+00
 2.5628139620e-01	 1.5719165505e+00	-1.9944678024e+00
 2.1966442542e-01	 1.5756838453e+00	-1.9830651411e+00
 1.8301310367e-01	 1.5788235348e+00	-1.9744412761e+00
 1.4634976681e-01	 1.5813526010e+00	-1.9683746421e+00
 1.0969611065e-01	 1.5832884241e+00	-1.9646425986e+00
 7.3073161881e-02	 1.5846487257e+00	-1.9630224665e+00
 3.6501252874e-02	 1.5854515129e+00	-1.9632924779e+00
 0.0000000000e+00	 1.5857150240e+00	-1.9652326388e+00
 3.6898854549e-01	 1.5707108222e+00	-2.0620238572e+00
 3.3228683060e-01	 1.5765097404e+00	-2.0400229721e+00
 2.9547931878e-01	 1.5816269967e+00	-2.0215818222e+00
 2.5859027092e-01	 1.5860781652e+00	-2.0064833898e+00
 2.2164341276e-01	 1.5898794000e+00	-1.9945039220e+00
 1.8466189416e-01	 1.5930473755e+00	-1.9854144313e+00
 1.4766825221e-01	 1.5955992264e+00	-1.9789821190e+00
 1.1068437816e-01	 1.5975524896e+00	-1.9749717120e+00
 7.3731488155e-02	 1.5989250463e+00	-1.9731467080e+00
 3.6830097735e-02	 1.5997350659e+00	-1.9732705266e+00
 0.0000000000e+00	 1.6000009511e+00	-1.9751075627e+00
 3.7228313933e-01	 1.5847352527e+00	-2.0783013757e+00
 3.3525372526e-01	 1.5905859478e+00	-2.0554677651e+00
 2.9811756963e-01	 1.5957488947e+00	-2.0363187304e+00
 2.6089914995e-01	 1.6002398064e+00	-2.0206300822e+00
 2.2362240379e-01	 1.6040749813e+00	-2.0081691115e+00
 1.8631068772e-01	 1.6072712427e+00	-1.9986962991e+00
 1.4898674006e-01	 1.6098458784e+00	-1.9919669429e+00
 1.1167264751e-01	 1.6118165817e+00	-1.9877326936e+00
 7.4389815656e-02	 1.6132013936e+00	-1.9857429925e+00
 3.7158943210e-02	 1.6140186456e+00	-1.9857464047e+00
 0.0000000000e+00	 1.6142869048e+00	-1.9874918467e+00
 3.7557773856e-01	 1.5987597061e+00	-2.0962628877e+00
 3.3822062478e-01	 1.6046621782e+00	-2.0727177147e+00
 3.0075582480e-01	 1.6098708156e+00	-2.0529736753e+00
 2.6320803275e-01	 1.6144014706e+00	-2.0367979777e+00
 2.2560139806e-01	 1.6182705858e+00	-2.0239477937e+00
 1.8795948398e-01	 1.6214951332e+00	-2.0141721623e+00
 1.5030523007e-01	 1.6240925536e+00	-2.0072138067e+00
 1.1266091848e-01	 1.6260806971e+00	-2.0028108525e+00
 7.5048144234e-02	 1.6274777642e+00	-2.0006984411e+00
 3.7487789222e-02	 1.6283022487e+00	-2.0006102285e+00
 0.0000000000e+00	 1.6285728819e+00	-2.0022797682e+00
 3.7887234240e-01	 1.6127841791e+00	-2.1158179982e+00
 3.4118752844e-01	 1.6187384282e+00	-2.0916760467e+00
 3.0339408365e-01	 1.6239927564e+00	-2.0714446482e+00
 2.6551691879e-01	 1.6285631547e+00	-2.0548809915e+00
 2.2758039510e-01	 1.6324662101e+00	-2.0417309745e+00
 1.8960828255e-01	 1.6357190435e+00	-2.0317312883e+00
 1.5162372192e-01	 1.6383392488e+00	-2.0246114087e+00
 1.1364919083e-01	 1.6403448325e+00	-2.0200954821e+00
 7.5706473732e-02	 1.6417541548e+00	-2.0179040967e+00
 3.7816635694e-02	 1.6425858717e+00	-2.0177559316e+00
 0.0000000000e+00	 1.6428588790e+00	-2.0193692774e+00
 3.8216695008e-01	 1.6268086685e+00	-2.1368794229e+00
 3.4415443557e-01	 1.6328146948e+00	-2.1122493182e+00
 3.0603234559e-01	 1.6381147136e+00	-2.0916331522e+00
 2.6782580751e-01	 1.6427248553e+00	-2.0747766912e+00
 2.2955939445e-01	 1.6466618510e+00	-2.0614134129e+00
 1.9125708305e-01	 1.6499429705e+00	-2.0512667578e+00
 1.5294221531e-01	 1.6525859606e+00	-2.0440522804e+00
 1.1463746433e-01	 1.6546089846e+00	-2.0394796882e+00
 7.6364803998e-02	 1.6560305621e+00	-2.0372547546e+00
 3.8145482550e-02	 1.6568695114e+00	-2.0370811010e+00
 0.0000000000e+00	 1.6571448927e+00	-2.0386618393e+00
 3.8546156084e-01	 1.6408331710e+00	-2.1593628561e+00
 3.4712134546e-01	 1.6468909744e+00	-2.1343472752e+00
 3.0867060998e-01	 1.6522366840e+00	-2.1134440521e+00
 2.7013469840e-01	 1.6568865692e+00	-2.0963861409e+00
 2.3153839564e-01	 1.6608575052e+00	-2.0828934607e+00
 1.9290588508e-01	 1.6641669108e+00	-2.0726753016e+00
 1.5426070993e-01	 1.6668326858e+00	-2.0654326225e+00
 1.1562573876e-01	 1.6688731499e+00	-2.0608602266e+00
 7.7023134879e-02	 1.6703069826e+00	-2.0586488022e+00
 3.8474329713e-02	 1.6711531645e+00	-2.0584868203e+00
 0.0000000000e+00	 1.6714309198e+00	-2.0600622834e+00
 3.8875617391e-01	 1.6548576833e+00	-2.1831868436e+00
 3.5008825743e-01	 1.6609672639e+00	-2.1578827172e+00
 3.1130887623e-01	 1.6663586643e+00	-2.1367854322e+00
 2.7244359090e-01	 1.6710482929e+00	-2.1196137533e+00
 2.3351739822e-01	 1.6750531693e+00	-2.1060729102e+00
 1.9455468826e-01	 1.6783908610e+00	-2.0958571464e+00
 1.5557920547e-01	 1.6810794208e+00	-2.0886521493e+00
 1.1661401388e-01	 1.6831373252e+00	-2.0841373483e+00
 7.7681466220e-02	 1.6845834132e+00	-2.0819880671e+00
 3.8803177105e-02	 1.6854368275e+00	-2.0818775222e+00
 0.0000000000e+00	 1.6857169568e+00	-2.0834786612e+00
 3.9205078851e-01	 1.6688822022e+00	-2.2082726636e+00
 3.5305517079e-01	 1.6750435600e+00	-2.1827713694e+00
 3.1394714370e-01	 1.6804806512e+00	-2.1615684610e+00
 2.7475248447e-01	 1.6852100233e+00	-2.1443671486e+00
 2.3549640172e-01	 1.6892488400e+00	-2.1308568497e+00
 1.9620349222e-01	 1.6926148178e+00	-2.1207158676e+00
 1.5689770163e-01	 1.6953261626e+00	-2.1136139416e+00
 1.1760228946e-01	 1.6974015072e+00	-2.1092146526e+00
 7.8339797868e-02	 1.6988598504e+00	-2.1071776725e+00
 3.9132024651e-02	 1.6997204972e+00	-2.1071608475e+00
 0.0000000000e+00	 1.7000030006e+00	-2.1088221109e+00
 3.9534540388e-01	 1.6829067243e+00	-2.2345442127e+00
 3.5602208484e-01	 1.6891198593e+00	-2.2089317606e+00
 3.1658541179e-01	 1.6946026414e+00	-2.1877072626e+00
 2.7706137859e-01	 1.6993717569e+00	-2.1705570213e+00
 2.3747540569e-01	 1.7034445140e+00	-2.1571535260e+00
 1.9785229655e-01	 1.7068387780e+00	-2.1471582499e+00
 1.5821619810e-01	 1.7095729076e+00	-2.1402243060e+00
 1.1859056526e-01	 1.7116656925e+00	-2.1359989477e+00
 7.8998129670e-02	 1.7131362910e+00	-2.1341258996e+00
 3.9460872273e-02	 1.7140041702e+00	-2.1342475114e+00
 0.0000000000e+00	 1.7142890476e+00	-2.1360067289e+00
 1.7142890476e+00	 0.0000000000e+00	 2.1057617159e+00
 1.7140041702e+00	 3.9460872273e-02	 2.1087401713e+00
 1.7131362910e+00	 7.8998129670e-02	 2.1026185006e+00
 1.7116656925e+00	 1.1859056526e-01	 2.0870257258e+00
 1.7095729076e+00	 1.5821619810e-01	 2.0616170909e+00
 1.7068387780e+00	 1.9785229655e-01	 2.0260800826e+00
 1.7034445140e+00	 2.3747540569e-01	 1.9801407805e+00
 1.6993717569e+00	 2.7706137859e-01	 1.9235704947e+00
 1.6946026414e+00	 3.1658541179e-01	 1.8561926387e+00
 1.6891198593e+00	 3.5602208484e-01	 1.7778897731e+00
 1.6829067243e+00	 3.9534540388e-01	 1.6886107469e+00
 1.7285740955e+00	 0.0000000000e+00	 2.0862958507e+00
 1.7282868443e+00	 3.9789696896e-02	 2.0913056675e+00
 1.7274117330e+00	 7.9656415427e-02	 2.0866896742e+00
 1.7259288802e+00	 1.1957877195e-01	 2.0721324542e+00
 1.7238186563e+00	 1.5953460235e-01	 2.0473489413e+00
 1.7210617433e+00	 1.9950098557e-01	 2.0120903782e+00
 1.7176391952e+00	 2.3945427124e-01	 1.9661505585e+00
 1.7135325001e+00	 2.7937011122e-01	 1.9093723037e+00
 1.7087236439e+00	 3.1922349536e-01	 1.8416541224e+00
 1.7031951742e+00	 3.5898879138e-01	 1.7629569822e+00
 1.6969302655e+00	 3.9863978883e-01	 1.6733111204e+00
 1.7428591451e+00	 0.0000000000e+00	 2.0655864334e+00
 1.7425695200e+00	 4.0118521557e-02	 2.0731881116e+00
 1.7416871767e+00	 8.0314701260e-02	 2.0704983381e+00
 1.7401920695e+00	 1.2056697876e-01	 2.0572739612e+00
 1.7380644066e+00	 1.6085300675e-01	 2.0333070730e+00
 1.7352847103e+00	 2.0114967479e-01	 1.9984308226e+00
 1.7318338780e+00	 2.4143313702e-01	 1.9525254499e+00
 1.7276932449e+00	 2.8167884412e-01	 1.8955244894e+00
 1.7228446480e+00	 3.2186157924e-01	 1.8274210825e+00
 1.7172704907e+00	 3.6195549827e-01	 1.7482743325e+00
 1.7109538084e+00	 4.0193417416e-01	 1.6582156211e+00
 1.7571441980e+00	 0.0000000000e+00	 2.0435529983e+00
 1.7568521990e+00	 4.0447346294e-02	 2.0543138292e+00
 1.7559626238e+00	 8.0972987247e-02	 2.0539785571e+00
 1.7544552621e+00	 1.2155518579e-01	 2.0423925499e+00
 1.7523101602e+00	 1.6217141146e-01	 2.0194420583e+00
 1.7495076806e+00	 2.0279836438e-01	 1.9850598030e+00
 1.7460285641e+00	 2.4341200327e-01	 1.9392307023e+00
 1.7418539931e+00	 2.8398757756e-01	 1.8819976881e+00
 1.7369656554e+00	 3.2449966374e-01	 1.8134675450e+00
 1.7313458104e+00	 3.6492220586e-01	 1.7338167013e+00
 1.7249773546e+00	 4.0522856026e-01	 1.6432968931e+00
 1.7714292559e+00	 0.0000000000e+00	 2.0201176770e+00
 1.7711348830e+00	 4.0776171146e-02	 2.0346115237e+00
 1.7702380758e+00	 8.1631273464e-02	 2.0370665245e+00
 1.7687184598e+00	 1.2254339317e-01	 2.0274323856e+00
 1.7665559188e+00	 1.6348981663e-01	 2.0057060653e+00
 1.7637306559e+00	 2.0444705456e-01	 1.9719370508e+00
 1.7602232552e+00	 2.4539087020e-01	 1.9262326856e+00
 1.7560147461e+00	 2.8629631180e-01	 1.8687634853e+00
 1.7510866678e+00	 3.2713774915e-01	 1.7997683756e+00
 1.7454211351e+00	 3.6788891448e-01	 1.7195597788e+00
 1.7390009056e+00	 4.0852294751e-01	 1.6285284662e+00
 1.7857143204e+00	 0.0000000000e+00	 1.9952050949e+00
 1.7854175737e+00	 4.1104996152e-02	 2.0140121819e+00
 1.7845135346e+00	 8.2289559989e-02	 2.0197004764e+00
 1.7829816641e+00	 1.2353160101e-01	 2.0123394220e+00
 1.7808016841e+00	 1.6480822242e-01	 1.9920527940e+00
 1.7779536378e+00	 2.0609574550e-01	 1.9590235874e+00
 1.7744179530e+00	 2.4736973806e-01	 1.9134988479e+00
 1.7701755058e+00	 2.8860504713e-01	 1.8557943774e+00
 1.7652076867e+00	 3.2977583580e-01	 1.7862992468e+00
 1.7594964664e+00	 3.7085562448e-01	 1.7054800358e+00
 1.7530244632e+00	 4.1181733630e-01	 1.6138847196e+00
 1.7999993933e+00	 0.0000000000e+00	 1.9687422721e+00
 1.7997002727e+00	 4.1433821349e-02	 1.9924489829e+00
 1.7987890016e+00	 8.2947846897e-02	 2.0018206113e+00
 1.7972448767e+00	 1.2451980942e-01	 1.9970613297e+00
 1.7950474576e+00	 1.6612662897e-01	 1.9784374158e+00
 1.7921766280e+00	 2.0774443740e-01	 1.9462816734e+00
 1.7886126590e+00	 2.4934860708e-01	 1.9009976723e+00
 1.7843362738e+00	 2.9091378380e-01	 1.8430637364e+00
 1.7793287139e+00	 3.3241392399e-01	 1.7730366056e+00
 1.7735718059e+00	 3.7382233622e-01	 1.6915546924e+00
 1.7670480290e+00	 4.1511172701e-01	 1.5993408491e+00
 1.8142844762e+00	 0.0000000000e+00	 1.9406585291e+00
 1.8139829818e+00	 4.1762646777e-02	 1.9698572120e+00
 1.8130644786e+00	 8.3606134266e-02	 1.9833690129e+00
 1.8115080993e+00	 1.2550801853e-01	 1.9815474290e+00
 1.8092932412e+00	 1.6744503645e-01	 1.9648165154e+00
 1.8063996282e+00	 2.0939313046e-01	 1.9336747593e+00
 1.8028073749e+00	 2.5132747748e-01	 1.8886986365e+00
 1.7984970517e+00	 2.9322252208e-01	 1.8305457745e+00
 1.7934497510e+00	 3.3505201402e-01	 1.7599576430e+00
 1.7876471552e+00	 3.7678905003e-01	 1.6777616888e+00
 1.7810716046e+00	 4.1840612003e-01	 1.5848728341e+00
 1.8285695708e+00	 0.0000000000e+00	 1.9108853973e+00
 1.8282657025e+00	 4.2091472473e-02	 1.9461741786e+00
 1.8273399673e+00	 8.4264422173e-02	 1.9642895759e+00
 1.8257713336e+00	 1.2649622845e-01	 1.9657486253e+00
 1.8235390363e+00	 1.6876344501e-01	 1.9511480358e+00
 1.8206226400e+00	 2.1104182487e-01	 1.9211674394e+00
 1.8170021025e+00	 2.5330634949e-01	 1.8765721735e+00
 1.8126578411e+00	 2.9553126226e-01	 1.8182155122e+00
 1.8075707996e+00	 3.3769010621e-01	 1.7470402652e+00
 1.8017225160e+00	 3.7975576626e-01	 1.6640796572e+00
 1.7950951916e+00	 4.2170051574e-01	 1.5704574076e+00
 1.8428546786e+00	 0.0000000000e+00	 1.8793565332e+00
 1.8425484365e+00	 4.2420298476e-02	 1.9213391378e+00
 1.8416154693e+00	 8.4922710694e-02	 1.9445279364e+00
 1.8400345811e+00	 1.2748443928e-01	 1.9496173478e+00
 1.8377848448e+00	 1.7008185479e-01	 1.9373912254e+00
 1.8348456650e+00	 2.1269052081e-01	 1.9087254077e+00
 1.8311968433e+00	 2.5528522336e-01	 1.8645896350e+00
 1.8268186438e+00	 2.9784000458e-01	 1.8060487461e+00
 1.8216918614e+00	 3.4032820086e-01	 1.7342630654e+00
 1.8157978900e+00	 3.8272248527e-01	 1.6504878947e+00
 1.8091187918e+00	 4.2499491452e-01	 1.5560720269e+00
 1.8571398015e+00	 0.0000000000e+00	 1.8460076366e+00
 1.8568311855e+00	 4.2749124825e-02	 1.8952932153e+00
 1.8558909863e+00	 8.5580999907e-02	 1.9240314049e+00
 1.8542978437e+00	 1.2847265116e-01	 1.9331074908e+00
 1.8520306682e+00	 1.7140026596e-01	 1.9235065881e+00
 1.8490687050e+00	 2.1433921849e-01	 1.8963154150e+00
 1.8453915989e+00	 2.5726409930e-01	 1.8527232561e+00
 1.8409794613e+00	 3.0014874933e-01	 1.7940220199e+00
 1.8358129380e+00	 3.4296629828e-01	 1.7216052982e+00
 1.8298732788e+00	 3.8568920739e-01	 1.6369663378e+00
 1.8231424066e+00	 4.2828931676e-01	 1.5416948457e+00
 1.6829067243e+00	 3.9534540388e-01	 1.6886107469e+00
 1.6759477498e+00	 4.3452611959e-01	 1.5877097964e+00
 1.6682272805e+00	 4.7354003919e-01	 1.4752063344e+00
 1.6597308847e+00	 5.1235980447e-01	 1.3521570916e+00
 1.6504450087e+00	 5.5095770069e-01	 1.2196626051e+00
 1.6403570387e+00	 5.8930571946e-01	 1.0788609493e+00
 1.6294553618e+00	 6.2737562495e-01	 9.3092065722e-01
 1.6177294238e+00	 6.6513902335e-01	 7.7703286588e-01
 1.6051697863e+00	 7.0256743511e-01	 6.1840273903e-01
 1.5917681795e+00	 7.3963236984e-01	 4.5624023398e-01
 1.5775175527e+00	 7.7630540340e-01	 2.9175029962e-01
 1.6969302655e+00	 3.9863978883e-01	 1.6733111204e+00
 1.6899133024e+00	 4.3814699464e-01	 1.5720212873e+00
 1.6821284990e+00	 4.7748601443e-01	 1.4590210901e+00
 1.6735613033e+00	 5.1662926203e-01	 1.3353962279e+00
 1.6641980487e+00	 5.5554879177e-01	 1.2022759470e+00
 1.6540260165e+00	 5.9421636183e-01	 1.0608264555e+00
 1.6430334966e+00	 6.3260350112e-01	 9.1224351072e-01
 1.6312098473e+00	 6.7068157921e-01	 7.5774421655e-01
 1.6185455512e+00	 7.0842187924e-01	 5.9855808691e-01
 1.6050322698e+00	 7.4579567342e-01	 4.3591744794e-01
 1.5906628935e+00	 7.8277430074e-01	 2.7104727031e-01
 1.7109538084e+00	 4.0193417416e-01	 1.6582156211e+00
 1.7038788566e+00	 4.4176787011e-01	 1.5565158721e+00
 1.6960297191e+00	 4.8143199014e-01	 1.4430224075e+00
 1.6873917235e+00	 5.2089872010e-01	 1.3188452634e+00
 1.6779510904e+00	 5.6013988338e-01	 1.1851376506e+00
 1.6676949958e+00	 5.9912700477e-01	 1.0430890876e+00
 1.6566116331e+00	 6.3783137789e-01	 8.9391768947e-01
 1.6446902723e+00	 6.7622413571e-01	 7.3886165729e-01
 1.6319213177e+00	 7.1427632406e-01	 5.7917002432e-01
 1.6182963616e+00	 7.5195897772e-01	 4.1609273821e-01
 1.6038082358e+00	 7.8924319884e-01	 2.5087017410e-01
 1.7249773546e+00	 4.0522856026e-01	 1.6432968931e+00
 1.7178444141e+00	 4.4538874642e-01	 1.5411622284e+00
 1.7099309424e+00	 4.8537796676e-01	 1.4271750583e+00
 1.7012221470e+00	 5.2516817917e-01	 1.3024652409e+00
 1.6917041353e+00	 5.6473097606e-01	 1.1682053272e+00
 1.6813639784e+00	 6.0403764886e-01	 1.0256034432e+00
 1.6701897727e+00	 6.4305925589e-01	 8.7589531818e-01
 1.6581707005e+00	 6.8176669352e-01	 7.2033550344e-01
 1.6452970872e+00	 7.2013077025e-01	 5.6018784357e-01
 1.6315604565e+00	 7.5812228347e-01	 3.9671528212e-01
 1.6169535813e+00	 7.9571209846e-01	 2.3116910099e-01
 1.7390009056e+00	 4.0852294751e-01	 1.6285284662e+00
 1.7318099765e+00	 4.4900962400e-01	 1.5259300475e+00
 1.7238321706e+00	 4.8932394477e-01	 1.4114449539e+00
 1.7150525753e+00	 5.2943763972e-01	 1.2862184639e+00
 1.7054571851e+00	 5.6932207035e-01	 1.1514379592e+00
 1.6950329657e+00	 6.0894829467e-01	 1.0083255885e+00
 1.6837679171e+00	 6.4828713572e-01	 8.5813006992e-01
 1.6716511334e+00	 6.8730925326e-01	 7.0211767720e-01
 1.6586728615e+00	 7.2598521848e-01	 5.4156247701e-01
 1.6448245561e+00	 7.6428559136e-01	 3.7773590085e-01
 1.6300989313e+00	 8.0218100033e-01	 2.1189575552e-01
 1.7530244632e+00	 4.1181733630e-01	 1.6138847196e+00
 1.7457755454e+00	 4.5263050327e-01	 1.5107899934e+00
 1.7377334053e+00	 4.9326992462e-01	 1.3957990997e+00
 1.7288830101e+00	 5.3370710228e-01	 1.2700684454e+00
 1.7192102412e+00	 5.7391316678e-01	 1.1347958451e+00
 1.7087019594e+00	 6.1385894277e-01	 9.9121299941e-01
 1.6973460678e+00	 6.5351501798e-01	 8.4057710419e-01
 1.6851315726e+00	 6.9285181559e-01	 6.8416164338e-01
 1.6720486420e+00	 7.3183966945e-01	 5.2324643139e-01
 1.6580886618e+00	 7.7044890214e-01	 3.5910699371e-01
 1.6432442874e+00	 8.0864990522e-01	 1.9300339221e-01
 1.7670480290e+00	 4.1511172701e-01	 1.5993408491e+00
 1.7597411225e+00	 4.5625138465e-01	 1.4957136646e+00
 1.7516346481e+00	 4.9721590677e-01	 1.3802055520e+00
 1.7427134529e+00	 5.3797656732e-01	 1.2539798601e+00
 1.7329633053e+00	 5.7850426589e-01	 1.1182405477e+00
 1.7223709611e+00	 6.1876959373e-01	 9.7422450550e-01
 1.7109242264e+00	 6.5874290330e-01	 8.2319300795e-01
 1.6986120196e+00	 6.9839438115e-01	 6.6642234819e-01
 1.6854244303e+00	 7.3769412383e-01	 5.0519372542e-01
 1.6713527753e+00	 7.7661221651e-01	 3.4078247546e-01
 1.6563896513e+00	 8.1511881389e-01	 1.7444675400e-01
 1.7810716046e+00	 4.1840612003e-01	 1.5848728341e+00
 1.7737067093e+00	 4.5987226857e-01	 1.4806735571e+00
 1.7655359007e+00	 5.0116189168e-01	 1.3646333761e+00
 1.7565439054e+00	 5.4224603535e-01	 1.2379184988e+00
 1.7467163791e+00	 5.8309536821e-01	 1.1017348437e+00
 1.7360399723e+00	 6.2368024813e-01	 9.5732023686e-01
 1.7245023945e+00	 6.6397079227e-01	 8.0593573939e-01
 1.7120924761e+00	 7.0393695059e-01	 6.4885616088e-01
 1.6988002280e+00	 7.4354858231e-01	 4.8735983017e-01
 1.6846168981e+00	 7.8277553519e-01	 3.2271771666e-01
 1.6695350243e+00	 8.2158772709e-01	 1.5618201368e-01
 1.7950951916e+00	 4.2170051574e-01	 1.5704574076e+00
 1.7876723075e+00	 4.6349315544e-01	 1.4656430294e+00
 1.7794371646e+00	 5.0510787982e-01	 1.3490526076e+00
 1.7703743692e+00	 5.4651550686e-01	 1.2218512249e+00
 1.7604694641e+00	 5.8768647429e-01	 1.0852426768e+00
 1.7497089947e+00	 6.2859090654e-01	 9.4046157321e-01
 1.7380805737e+00	 6.6919868552e-01	 7.8876457437e-01
 1.7255729436e+00	 7.0947952455e-01	 6.3142081816e-01
 1.7121760366e+00	 7.4940304557e-01	 4.6970161240e-01
 1.6978810317e+00	 7.8893885891e-01	 3.0486948676e-01
 1.6826804081e+00	 8.2805664557e-01	 1.3816671796e-01
 1.8091187918e+00	 4.2499491452e-01	 1.5560720269e+00
 1.8016379188e+00	 4.6711404570e-01	 1.4505962690e+00
 1.7933384415e+00	 5.0905387163e-01	 1.3334342141e+00
 1.7842048459e+00	 5.5078498236e-01	 1.2057459324e+00
 1.7742225620e+00	 5.9227758464e-01	 1.0687291122e+00
 1.7633780299e+00	 6.3350156954e-01	 9.2361109555e-01
 1.7516587656e+00	 6.7442658364e-01	 7.7164005538e-01
 1.7390534237e+00	 7.1502210369e-01	 6.1407537121e-01
 1.7255518577e+00	 7.5525751430e-01	 4.5217728039e-01
 1.7111451776e+00	 7.9510218838e-01	 2.8719589991e-01
 1.6958258041e+00	 8.3452557008e-01	 1.2035973426e-01
 1.8231424066e+00	 4.2828931676e-01	 1.5416948457e+00
 1.8156035447e+00	 4.7073493975e-01	 1.4355082607e+00
 1.8072397329e+00	 5.1299986759e-01	 1.3177500600e+00
 1.7980353372e+00	 5.5505446234e-01	 1.1895715068e+00
 1.7879756743e+00	 5.9686869982e-01	 1.0521602935e+00
 1.7770470794e+00	 6.3841223768e-01	 9.0673253989e-01
 1.7652369718e+00	 6.7965448725e-01	 7.5452394279e-01
 1.7525339179e+00	 7.2056468865e-01	 5.9678013511e-01
 1.7389276928e+00	 7.6111198917e-01	 4.3474633237e-01
 1.7244093376e+00	 8.0126552432e-01	 2.6965636319e-01
 1.7089712139e+00	 8.4099450139e-01	 1.0272119985e-01
 1.5775175527e+00	 7.7630540340e-01	 2.9175029962e-01
 1.5624110349e+00	 8.1256077766e-01	 1.2523626669e-01
 1.5464451247e+00	 8.4836784386e-01	-4.2952805146e-02
 1.5296167016e+00	 8.8369883999e-01	-2.1159722253e-01
 1.5119240258e+00	 9.1852639338e-01	-3.7949801482e-01
 1.4933667671e+00	 9.5282360302e-01	-5.4548754556e-01
 1.4739460279e+00	 9.8656412157e-01	-7.0844017599e-01
 1.4536643614e+00	 1.0197222366e+00	-8.6728282462e-01
 1.4325257833e+00	 1.0522729505e+00	-1.0210052611e+00
 1.4105357781e+00	 1.0841920585e+00	-1.1686699702e+00
 1.3877012993e+00	 1.1154562249e+00	-1.3094214227e+00
 1.5906628935e+00	 7.8277430074e-01	 2.7104727031e-01
 1.5754304942e+00	 8.1933178845e-01	 1.0430043099e-01
 1.5593315412e+00	 8.5543723236e-01	-6.3956271021e-02
 1.5423628881e+00	 8.9106263915e-01	-2.3253287317e-01
 1.5245227805e+00	 9.2618040805e-01	-4.0025993438e-01
 1.5058108854e+00	 9.6076341389e-01	-5.6599889581e-01
 1.4862283146e+00	 9.9478508976e-01	-7.2865249000e-01
 1.4657776425e+00	 1.0282195090e+00	-8.8717504626e-01
 1.4444629181e+00	 1.0610414656e+00	-1.0405825340e+00
 1.4222896718e+00	 1.0932265533e+00	-1.1879621840e+00
 1.3992649148e+00	 1.1247512417e+00	-1.3284815277e+00
 1.6038082358e+00	 7.8924319884e-01	 2.5087017410e-01
 1.5884499550e+00	 8.2610280002e-01	 8.3907769194e-02
 1.5722179592e+00	 8.6250662169e-01	-8.4403807969e-02
 1.5551090760e+00	 8.9842643918e-01	-2.5290409246e-01
 1.5371215366e+00	 9.3383442362e-01	-4.2045287694e-01
 1.5182550052e+00	 9.6870322568e-01	-5.8594032075e-01
 1.4985106028e+00	 1.0030060589e+00	-7.4829710453e-01
 1.4778909249e+00	 1.0367167824e+00	-9.0650448183e-01
 1.4564000543e+00	 1.0698099818e+00	-1.0596040734e+00
 1.4340435668e+00	 1.1022610491e+00	-1.2067072475e+00
 1.4108285318e+00	 1.1340462597e+00	-1.3470039315e+00
 1.6169535813e+00	 7.9571209846e-01	 2.3116910099e-01
 1.6014694189e+00	 8.3287381318e-01	 6.4009925405e-02
 1.5851043802e+00	 8.6957601267e-01	-1.0434204459e-01
 1.5678552669e+00	 9.0579024092e-01	-2.7275561440e-01
 1.5497202957e+00	 9.4148844097e-01	-4.4011952135e-01
 1.5306991280e+00	 9.7664303932e-01	-6.0535229112e-01
 1.5107928938e+00	 1.0112270300e+00	-7.6741213760e-01
 1.4900042102e+00	 1.0452140577e+00	-9.2530676126e-01
 1.4683371932e+00	 1.0785785000e+00	-1.0781028955e+00
 1.4457974646e+00	 1.1112955471e+00	-1.2249354487e+00
 1.4223921514e+00	 1.1433412798e+00	-1.3650160899e+00
 1.6300989313e+00	 8.0218100033e-01	 2.1189575552e-01
 1.6144888873e+00	 8.3964482870e-01	 4.4560108300e-02
 1.5979908058e+00	 8.7664540612e-01	-1.2381610051e-01
 1.5806014623e+00	 9.1315404524e-01	-2.9213072503e-01
 1.5623190591e+00	 9.4914246100e-01	-4.5930116466e-01
 1.5431432550e+00	 9.8458285574e-01	-6.2427396695e-01
 1.5230751891e+00	 1.0194480039e+00	-7.8603447231e-01
 1.5021174997e+00	 1.0537113361e+00	-9.4361635969e-01
 1.4802743364e+00	 1.0873470213e+00	-1.0961109463e+00
 1.4575513664e+00	 1.1203300482e+00	-1.2426760930e+00
 1.4339557751e+00	 1.1526363031e+00	-1.3825445676e+00
 1.6432442874e+00	 8.0864990522e-01	 1.9300339221e-01
 1.6275083617e+00	 8.4641584738e-01	 2.5513028509e-02
 1.6108772373e+00	 8.8371480287e-01	-1.4286964677e-01
 1.5933476636e+00	 9.2051785299e-01	-3.1107132035e-01
 1.5749178285e+00	 9.5679648460e-01	-4.7803777745e-01
 1.5555873879e+00	 9.9252267587e-01	-6.4274325005e-01
 1.5353574902e+00	 1.0276689817e+00	-8.0419980631e-01
 1.5142307949e+00	 1.0622086184e+00	-9.6146664375e-01
 1.4922114851e+00	 1.0961155467e+00	-1.1136591437e+00
 1.4693052738e+00	 1.1293645536e+00	-1.2599575422e+00
 1.4455194041e+00	 1.1619313308e+00	-1.3996150733e+00
 1.6563896513e+00	 8.1511881389e-01	 1.7444675400e-01
 1.6405278438e+00	 8.5318687002e-01	 6.8248389958e-03
 1.6237636764e+00	 8.9078420374e-01	-1.6154496335e-01
 1.6060938724e+00	 9.2788166504e-01	-3.2961796152e-01
 1.5875166052e+00	 9.6445051267e-01	-4.9636805643e-01
 1.5680315280e+00	 1.0004625006e+00	-6.6079683398e-01
 1.5476397984e+00	 1.0358899643e+00	-8.2194269880e-01
 1.5263440971e+00	 1.0707059056e+00	-9.7888991557e-01
 1.5041486408e+00	 1.1048840772e+00	-1.1307774191e+00
 1.4810591880e+00	 1.1383990642e+00	-1.2768072526e+00
 1.4570830399e+00	 1.1712263640e+00	-1.4162524943e+00
 1.6695350243e+00	 8.2158772709e-01	 1.5618201368e-01
 1.6535473350e+00	 8.5995789739e-01	-1.1546921749e-02
 1.6366501244e+00	 8.9785360957e-01	-1.7988299393e-01
 1.6188400901e+00	 9.3524548225e-01	-3.4780992746e-01
 1.6001153907e+00	 9.7210454610e-01	-5.1432947471e-01
 1.5804756768e+00	 1.0084023309e+00	-6.7847025162e-01
 1.5599221152e+00	 1.0441109526e+00	-8.3929661550e-01
 1.5384574079e+00	 1.0792031988e+00	-9.9591745469e-01
 1.5160858048e+00	 1.1136526138e+00	-1.1474947556e+00
 1.4928131105e+00	 1.1474335811e+00	-1.2932518103e+00
 1.4686466838e+00	 1.1805214036e+00	-1.4324809283e+00
 1.6826804081e+00	 8.2805664557e-01	 1.3816671796e-01
 1.6665668368e+00	 8.6672893029e-01	-2.9643383853e-02
 1.6495365830e+00	 9.0492302116e-01	-1.9792339813e-01
 1.6315863182e+00	 9.4260930547e-01	-3.6568526494e-01
 1.6127141865e+00	 9.7975858577e-01	-5.3195832955e-01
 1.5929198358e+00	 1.0163421678e+00	-6.9579792058e-01
 1.5722044421e+00	 1.0523319477e+00	-8.5629397130e-01
 1.5505707285e+00	 1.0877004990e+00	-1.0125795581e+00
 1.5280229786e+00	 1.1224211576e+00	-1.1638392256e+00
 1.5045670425e+00	 1.1564681054e+00	-1.3093169651e+00
 1.4802103372e+00	 1.1898164508e+00	-1.4483237149e+00
 1.6958258041e+00	 8.3452557008e-01	 1.2035973426e-01
 1.6795863508e+00	 8.7349996951e-01	-4.7504397683e-02
 1.6624230537e+00	 9.1199243936e-01	-2.1570460132e-01
 1.6443325582e+00	 9.4997313556e-01	-3.8328083636e-01
 1.6253129941e+00	 9.8741263259e-01	-5.4928978803e-01
 1.6053640065e+00	 1.0242820120e+00	-7.1281318644e-01
 1.5844867804e+00	 1.0605529504e+00	-8.7296617109e-01
 1.5626840604e+00	 1.0961978071e+00	-1.0289055784e+00
 1.5399601635e+00	 1.1311897096e+00	-1.1798380259e+00
 1.5163209855e+00	 1.1655026382e+00	-1.3250276634e+00
 1.4917740013e+00	 1.1991115067e+00	-1.4638034644e+00
 1.7089712139e+00	 8.4099450139e-01	 1.0272119985e-01
 1.6926058784e+00	 8.8027101584e-01	-6.5168583091e-02
 1.6753095378e+00	 9.1906186497e-01	-2.3326384209e-01
 1.6570788115e+00	 9.5733697338e-01	-4.0063236537e-01
 1.6379118149e+00	 9.9506668745e-01	-5.6635793052e-01
 1.6178081901e+00	 1.0322218645e+00	-7.2954836404e-01
 1.5967691316e+00	 1.0687739617e+00	-8.8934364864e-01
 1.5747974050e+00	 1.1046951241e+00	-1.0449239601e+00
 1.5518973610e+00	 1.1399582708e+00	-1.1955175114e+00
 1.5280749409e+00	 1.1745371804e+00	-1.3404080788e+00
 1.5033376776e+00	 1.2084065724e+00	-1.4789420864e+00
 1.3877012993e+00	 1.1154562249e+00	-1.3094214227e+00
 1.3640307593e+00	 1.1460430583e+00	-1.4431763425e+00
 1.3395340068e+00	 1.1759311900e+00	-1.5699837783e+00
 1.3142223190e+00	 1.2051003319e+00	-1.6893027921e+00
 1.2881083803e+00	 1.2335313361e+00	-1.8006620337e+00
 1.2612062521e+00	 1.2612062521e+00	-1.9036637232e+00
 1.2335313361e+00	 1.2881083803e+00	-1.9979868119e+00
 1.2051003319e+00	 1.3142223190e+00	-2.0833892666e+00
 1.1759311900e+00	 1.3395340068e+00	-2.1597094429e+00
 1.1460430583e+00	 1.3640307593e+00	-2.2268665291e+00
 1.1154562249e+00	 1.3877012993e+00	-2.2848600598e+00
 1.3992649148e+00	 1.1247512417e+00	-1.3284815277e+00
 1.3753971299e+00	 1.1555929530e+00	-1.4620222896e+00
 1.3506962478e+00	 1.1857301404e+00	-1.5885982499e+00
 1.3251736395e+00	 1.2151423467e+00	-1.7076898686e+00
 1.2988420952e+00	 1.2438102644e+00	-1.8188472465e+00
 1.2717157935e+00	 1.2717157935e+00	-1.9216939487e+00
 1.2438102644e+00	 1.2988420952e+00	-2.0159300052e+00
 1.2151423467e+00	 1.3251736395e+00	-2.1013340369e+00
 1.1857301404e+00	 1.3506962478e+00	-2.1777644761e+00
 1.1555929530e+00	 1.3753971299e+00	-2.2451598621e+00
 1.1247512417e+00	 1.3992649148e+00	-2.3035382167e+00
 1.4108285318e+00	 1.1340462597e+00	-1.3470039315e+00
 1.3867635019e+00	 1.1651428489e+00	-1.4803439761e+00
 1.3618584901e+00	 1.1955290920e+00	-1.6067087255e+00
 1.3361249613e+00	 1.2251843627e+00	-1.7255988654e+00
 1.3095758114e+00	 1.2540891939e+00	-1.8365847504e+00
 1.2822253362e+00	 1.2822253362e+00	-1.9393100772e+00
 1.2540891939e+00	 1.3095758114e+00	-2.0334947349e+00
 1.2251843627e+00	 1.3361249613e+00	-2.1189367837e+00
 1.1955290920e+00	 1.3618584901e+00	-2.1955135309e+00
 1.1651428489e+00	 1.3867635019e+00	-2.2631816893e+00
 1.1340462597e+00	 1.4108285318e+00	-2.3219766230e+00
 1.4223921514e+00	 1.1433412798e+00	-1.3650160899e+00
 1.3981298765e+00	 1.1746927470e+00	-1.4981659379e+00
 1.3730207349e+00	 1.2053280458e+00	-1.6243367552e+00
 1.3470762856e+00	 1.2352263810e+00	-1.7430483045e+00
 1.3203095301e+00	 1.2643681258e+00	-1.8538900198e+00
 1.2927348813e+00	 1.2927348813e+00	-1.9565245390e+00
 1.2643681258e+00	 1.3203095301e+00	-2.0506904146e+00
 1.2352263810e+00	 1.3470762856e+00	-2.1362039532e+00
 1.2053280458e+00	 1.3730207349e+00	-2.2129601580e+00
 1.1746927470e+00	 1.3981298765e+00	-2.2809327596e+00
 1.1433412798e+00	 1.4223921514e+00	-2.3401733409e+00
 1.4339557751e+00	 1.1526363031e+00	-1.3825445676e+00
 1.4094962552e+00	 1.1842426484e+00	-1.5155119134e+00
 1.3841829837e+00	 1.2151270031e+00	-1.6415031880e+00
 1.3580276137e+00	 1.2452684028e+00	-1.7600561044e+00
 1.3310432525e+00	 1.2746470613e+00	-1.8707780237e+00
 1.3032444300e+00	 1.3032444300e+00	-1.9733493578e+00
 1.2746470613e+00	 1.3310432525e+00	-2.0675261480e+00
 1.2452684028e+00	 1.3580276137e+00	-2.1531417772e+00
 1.2151270031e+00	 1.3841829837e+00	-2.2301077873e+00
 1.1842426484e+00	 1.4094962552e+00	-2.2984137914e+00
 1.1526363031e+00	 1.4339557751e+00	-2.3581264880e+00
 1.4455194041e+00	 1.1619313308e+00	-1.3996150733e+00
 1.4208626391e+00	 1.1937925543e+00	-1.5324048758e+00
 1.3953452377e+00	 1.2249259649e+00	-1.6582282001e+00
 1.3689789470e+00	 1.2553104293e+00	-1.7766396041e+00
 1.3417769799e+00	 1.2849260016e+00	-1.8872632463e+00
 1.3137539837e+00	 1.3137539837e+00	-1.9897961659e+00
 1.2849260016e+00	 1.3417769799e+00	-2.0840107413e+00
 1.2553104293e+00	 1.3689789470e+00	-2.1697562821e+00
 1.2249259649e+00	 1.3953452377e+00	-2.2469597326e+00
 1.1937925543e+00	 1.4208626391e+00	-2.3156254738e+00
 1.1619313308e+00	 1.4455194041e+00	-2.3758342363e+00
 1.4570830399e+00	 1.1712263640e+00	-1.4162524943e+00
 1.4322290296e+00	 1.2033424658e+00	-1.5488670631e+00
 1.4065074982e+00	 1.2347249325e+00	-1.6745313212e+00
 1.3799302867e+00	 1.2653524617e+00	-1.7928155867e+00
 1.3525107136e+00	 1.2952049479e+00	-1.9033597059e+00
 1.3242635435e+00	 1.3242635435e+00	-2.0058762207e+00
 1.2952049479e+00	 1.3525107136e+00	-2.1001527149e+00
 1.2653524617e+00	 1.3799302867e+00	-2.1860532966e+00
 1.2347249325e+00	 1.4065074982e+00	-2.2635191960e+00
 1.2033424658e+00	 1.4322290296e+00	-2.3325684676e+00
 1.1712263640e+00	 1.4570830399e+00	-2.3932948091e+00
 1.4686466838e+00	 1.1805214036e+00	-1.4324809283e+00
 1.4435954281e+00	 1.2128923839e+00	-1.5649200077e+00
 1.4176697665e+00	 1.2445239069e+00	-1.6904314604e+00
 1.3908816340e+00	 1.2753945010e+00	-1.8086003006e+00
 1.3632444548e+00	 1.3054839014e+00	-1.9190809735e+00
 1.3347731106e+00	 1.3347731106e+00	-2.0216004190e+00
 1.3054839014e+00	 1.3632444548e+00	-2.1159603151e+00
 1.2753945010e+00	 1.3908816340e+00	-2.2020384600e+00
 1.2445239069e+00	 1.4176697665e+00	-2.2797892732e+00
 1.2128923839e+00	 1.4435954281e+00	-2.3492434068e+00
 1.1805214036e+00	 1.4686466838e+00	-2.4105064797e+00
 1.4802103372e+00	 1.1898164508e+00	-1.4483237149e+00
 1.4549618359e+00	 1.2224423099e+00	-1.5805845633e+00
 1.4288320440e+00	 1.2543228893e+00	-1.7059469303e+00
 1.4018329902e+00	 1.2854365486e+00	-1.8240094811e+00
 1.3739782048e+00	 1.3157628633e+00	-1.9344401903e+00
 1.3452826863e+00	 1.3452826863e+00	-2.0369793113e+00
 1.3157628633e+00	 1.3739782048e+00	-2.1314415244e+00
 1.2854365486e+00	 1.4018329902e+00	-2.2177172291e+00
 1.2543228893e+00	 1.4288320440e+00	-2.2957729566e+00
 1.2224423099e+00	 1.4549618359e+00	-2.3656508994e+00
 1.1898164508e+00	 1.4802103372e+00	-2.4274675691e+00
 1.4917740013e+00	 1.1991115067e+00	-1.4638034644e+00
 1.4663282543e+00	 1.2319922447e+00	-1.5958809319e+00
 1.4399943318e+00	 1.2641218809e+00	-1.7210954702e+00
 1.4127843567e+00	 1.2954786056e+00	-1.8390583697e+00
 1.3847119648e+00	 1.3260418348e+00	-1.9494500845e+00
 1.3557922719e+00	 1.3557922719e+00	-2.0520231152e+00
 1.3260418348e+00	 1.3847119648e+00	-2.1466040723e+00
 1.2954786056e+00	 1.4127843567e+00	-2.2330948860e+00
 1.2641218809e+00	 1.4399943318e+00	-2.3114731402e+00
 1.2319922447e+00	 1.4663282543e+00	-2.3817915286e+00
 1.1991115067e+00	 1.4917740013e+00	-2.4441764445e+00
 1.5033376776e+00	 1.2084065724e+00	-1.4789420864e+00
 1.4776946846e+00	 1.2415421896e+00	-1.6108286883e+00
 1.4511566314e+00	 1.2739208828e+00	-1.7358942682e+00
 1.4237357347e+00	 1.3055206731e+00	-1.8537617337e+00
 1.3954457360e+00	 1.3363208170e+00	-1.9641229870e+00
 1.3663018685e+00	 1.3663018685e+00	-2.0667417283e+00
 1.3363208170e+00	 1.3954457360e+00	-2.1614554445e+00
 1.3055206731e+00	 1.4237357347e+00	-2.2481765444e+00
 1.2739208828e+00	 1.4511566314e+00	-2.3268926233e+00
 1.2415421896e+00	 1.4776946846e+00	-2.3976658540e+00
 1.2084065724e+00	 1.5033376776e+00	-2.4606315173e+00
 1.1154562249e+00	 1.3877012993e+00	-2.2848600598e+00
 1.0841920585e+00	 1.4105357781e+00	-2.3343801821e+00
 1.0522729505e+00	 1.4325257833e+00	-2.3761537718e+00
 1.0197222366e+00	 1.4536643614e+00	-2.4103105029e+00
 9.8656412157e-01	 1.4739460279e+00	-2.4369993135e+00
 9.5282360302e-01	 1.4933667671e+00	-2.4563864903e+00
 9.1852639338e-01	 1.5119240258e+00	-2.4686536605e+00
 8.8369883999e-01	 1.5296167016e+00	-2.4739957196e+00
 8.4836784386e-01	 1.5464451247e+00	-2.4726187241e+00
 8.1256077766e-01	 1.5624110349e+00	-2.4647377773e+00
 7.7630540340e-01	 1.5775175527e+00	-2.4505749355e+00
 1.1247512417e+00	 1.3992649148e+00	-2.3035382167e+00
 1.0932265533e+00	 1.4222896718e+00	-2.3535227609e+00
 1.0610414656e+00	 1.4444629181e+00	-2.3957620059e+00
 1.0282195090e+00	 1.4657776425e+00	-2.4303886367e+00
 9.9478508976e-01	 1.4862283146e+00	-2.4575577352e+00
 9.6076341389e-01	 1.5058108854e+00	-2.4774447383e+00
 9.2618040805e-01	 1.5245227805e+00	-2.4902432674e+00
 8.9106263915e-01	 1.5423628881e+00	-2.4961628633e+00
 8.5543723236e-01	 1.5593315412e+00	-2.4954266594e+00
 8.1933178845e-01	 1.5754304942e+00	-2.4882690255e+00
 7.8277430074e-01	 1.5906628935e+00	-2.4749332130e+00
 1.1340462597e+00	 1.4108285318e+00	-2.3219766230e+00
 1.1022610491e+00	 1.4340435668e+00	-2.3724604261e+00
 1.0698099818e+00	 1.4564000543e+00	-2.4152093844e+00
 1.0367167824e+00	 1.4778909249e+00	-2.4503585814e+00
 1.0030060589e+00	 1.4985106028e+00	-2.4780686229e+00
 9.6870322568e-01	 1.5182550052e+00	-2.4985234730e+00
 9.3383442362e-01	 1.5371215366e+00	-2.5119281270e+00
 8.9842643918e-01	 1.5551090760e+00	-2.5185061580e+00
 8.6250662169e-01	 1.5722179592e+00	-2.5184971750e+00
 8.2610280002e-01	 1.5884499550e+00	-2.5121542284e+00
 7.8924319884e-01	 1.6038082358e+00	-2.4997411989e+00
 1.1433412798e+00	 1.4223921514e+00	-2.3401733409e+00
 1.1112955471e+00	 1.4457974646e+00	-2.3911885581e+00
 1.0785785000e+00	 1.4683371932e+00	-2.4344884942e+00
 1.0452140577e+00	 1.4900042102e+00	-2.4702100268e+00
 1.0112270300e+00	 1.5107928938e+00	-2.4985186744e+00
 9.7664303932e-01	 1.5306991280e+00	-2.5196063148e+00
 9.4148844097e-01	 1.5497202957e+00	-2.5336887066e+00
 9.0579024092e-01	 1.5678552669e+00	-2.5410028522e+00
 8.6957601267e-01	 1.5851043802e+00	-2.5418042451e+00
 8.3287381318e-01	 1.6014694189e+00	-2.5363640413e+00
 7.9571209846e-01	 1.6169535813e+00	-2.5249661952e+00
 1.1526363031e+00	 1.4339557751e+00	-2.3581264880e+00
 1.1203300482e+00	 1.4575513664e+00	-2.4097026798e+00
 1.0873470213e+00	 1.4802743364e+00	-2.4535921547e+00
 1.0537113361e+00	 1.5021174997e+00	-2.4899329887e+00
 1.0194480039e+00	 1.5230751891e+00	-2.5188950100e+00
 9.8458285574e-01	 1.5431432550e+00	-2.5406774059e+00
 9.4914246100e-01	 1.5623190591e+00	-2.5555060968e+00
 9.1315404524e-01	 1.5806014623e+00	-2.5636309215e+00
 8.7664540612e-01	 1.5979908058e+00	-2.5653226768e+00
 8.3964482870e-01	 1.6144888873e+00	-2.5608700596e+00
 8.0218100033e-01	 1.6300989313e+00	-2.5505765524e+00
 1.1619313308e+00	 1.4455194041e+00	-2.3758342363e+00
 1.1293645536e+00	 1.4693052738e+00	-2.4279984508e+00
 1.0961155467e+00	 1.4922114851e+00	-2.4725134088e+00
 1.0622086184e+00	 1.5142307949e+00	-2.5095177960e+00
 1.0276689817e+00	 1.5353574902e+00	-2.5391851559e+00
 9.9252267587e-01	 1.5555873879e+00	-2.5617213895e+00
 9.5679648460e-01	 1.5749178285e+00	-2.5773619872e+00
 9.2051785299e-01	 1.5933476636e+00	-2.5863690400e+00
 8.8371480287e-01	 1.6108772373e+00	-2.5890280773e+00
 8.4641584738e-01	 1.6275083617e+00	-2.5856447813e+00
 8.0864990522e-01	 1.6432442874e+00	-2.5765416274e+00
 1.1712263640e+00	 1.4570830399e+00	-2.3932948091e+00
 1.1383990642e+00	 1.4810591880e+00	-2.4460716622e+00
 1.1048840772e+00	 1.5041486408e+00	-2.4912455136e+00
 1.0707059056e+00	 1.5263440971e+00	-2.5289550781e+00
 1.0358899643e+00	 1.5476397984e+00	-2.5593770277e+00
 1.0004625006e+00	 1.5680315280e+00	-2.5827233897e+00
 9.6445051267e-01	 1.5875166052e+00	-2.5992386418e+00
 9.2788166504e-01	 1.6060938724e+00	-2.6091965526e+00
 8.9078420374e-01	 1.6237636764e+00	-2.6128968216e+00
 8.5318687002e-01	 1.6405278438e+00	-2.6106615711e+00
 8.1511881389e-01	 1.6563896513e+00	-2.6028317437e+00
 1.1805214036e+00	 1.4686466838e+00	-2.4105064797e+00
 1.1474335811e+00	 1.4928131105e+00	-2.4639182315e+00
 1.1136526138e+00	 1.5160858048e+00	-2.5097819326e+00
 1.0792031988e+00	 1.5384574079e+00	-2.5482357533e+00
 1.0441109526e+00	 1.5599221152e+00	-2.5794589152e+00
 1.0084023309e+00	 1.5804756768e+00	-2.6036689933e+00
 9.7210454610e-01	 1.6001153907e+00	-2.6211188774e+00
 9.3524548225e-01	 1.6188400901e+00	-2.6320934483e+00
 8.9785360957e-01	 1.6366501244e+00	-2.6369060228e+00
 8.5995789739e-01	 1.6535473350e+00	-2.6358946268e+00
 8.2158772709e-01	 1.6695350243e+00	-2.6294181533e+00
 1.1898164508e+00	 1.4802103372e+00	-2.4274675691e+00
 1.1564681054e+00	 1.5045670425e+00	-2.4815341975e+00
 1.1224211576e+00	 1.5280229786e+00	-2.5281163273e+00
 1.0877004990e+00	 1.5505707285e+00	-2.5673510174e+00
 1.0523319477e+00	 1.5722044421e+00	-2.5994194682e+00
 1.0163421678e+00	 1.5929198358e+00	-2.6245442308e+00
 9.7975858577e-01	 1.6127141865e+00	-2.6429860414e+00
 9.4260930547e-01	 1.6315863182e+00	-2.6550403353e+00
 9.0492302116e-01	 1.6495365830e+00	-2.6610335028e+00
 8.6672893029e-01	 1.6665668368e+00	-2.6613189460e+00
 8.2805664557e-01	 1.6826804081e+00	-2.6562730009e+00
 1.1991115067e+00	 1.4917740013e+00	-2.4441764445e+00
 1.1655026382e+00	 1.5163209855e+00	-2.4989157159e+00
 1.1311897096e+00	 1.5399601635e+00	-2.5462425496e+00
 1.0961978071e+00	 1.5626840604e+00	-2.5862923334e+00
 1.0605529504e+00	 1.5844867804e+00	-2.6192476821e+00
 1.0242820120e+00	 1.6053640065e+00	-2.6453355601e+00
 9.8741263259e-01	 1.6253129941e+00	-2.6648239914e+00
 9.4997313556e-01	 1.6443325582e+00	-2.6780184172e+00
 9.1199243936e-01	 1.6624230537e+00	-2.6852577655e+00
 8.7349996951e-01	 1.6795863508e+00	-2.6869102959e+00
 8.3452557008e-01	 1.6958258041e+00	-2.6833692886e+00
 1.2084065724e+00	 1.5033376776e+00	-2.4606315173e+00
 1.1745371804e+00	 1.5280749409e+00	-2.5160590547e+00
 1.1399582708e+00	 1.5518973610e+00	-2.5641546347e+00
 1.1046951241e+00	 1.5747974050e+00	-2.6050514206e+00
 1.0687739617e+00	 1.5967691316e+00	-2.6389328852e+00
 1.0322218645e+00	 1.6178081901e+00	-2.6660298498e+00
 9.9506668745e-01	 1.6379118149e+00	-2.6866170758e+00
 9.5733697338e-01	 1.6570788115e+00	-2.7010094698e+00
 9.1906186497e-01	 1.6753095378e+00	-2.7095579700e+00
 8.8027101584e-01	 1.6926058784e+00	-2.7126451832e+00
 8.4099450139e-01	 1.7089712139e+00	-2.7106808436e+00
 7.7630540340e-01	 1.5775175527e+00	-2.4505749355e+00
 7.3963236984e-01	 1.5917681795e+00	-2.4328492295e+00
 7.0256743511e-01	 1.6051697863e+00	-2.4142573560e+00
 6.6513902335e-01	 1.6177294238e+00	-2.3949322082e+00
 6.2737562495e-01	 1.6294553618e+00	-2.3749256329e+00
 5.8930571946e-01	 1.6403570387e+00	-2.3542130912e+00
 5.5095770069e-01	 1.6504450087e+00	-2.3326988689e+00
 5.1235980447e-01	 1.6597308847e+00	-2.3102217225e+00
 4.7354003919e-01	 1.6682272805e+00	-2.2865608520e+00
 4.3452611959e-01	 1.6759477498e+00	-2.2614420906e+00
 3.9534540388e-01	 1.6829067243e+00	-2.2345442127e+00
 7.8277430074e-01	 1.5906628935e+00	-2.4749332130e+00
 7.4579567342e-01	 1.6050322698e+00	-2.4580155826e+00
 7.0842187924e-01	 1.6185455512e+00	-2.4400861149e+00
 6.7068157921e-01	 1.6312098473e+00	-2.4212930559e+00
 6.3260350112e-01	 1.6430334966e+00	-2.4017024203e+00
 5.9421636183e-01	 1.6540260165e+00	-2.3813026352e+00
 5.5554879177e-01	 1.6641980487e+00	-2.3600097476e+00
 5.1662926203e-01	 1.6735613033e+00	-2.3376730805e+00
 4.7748601443e-01	 1.6821284990e+00	-2.3140812267e+00
 4.3814699464e-01	 1.6899133024e+00	-2.2889682710e+00
 3.9863978883e-01	 1.6969302655e+00	-2.2620201380e+00
 7.8924319884e-01	 1.6038082358e+00	-2.4997411989e+00
 7.5195897772e-01	 1.6182963616e+00	-2.4837259981e+00
 7.1427632406e-01	 1.6319213177e+00	-2.4665469664e+00
 6.7622413571e-01	 1.6446902723e+00	-2.4483686147e+00
 6.3783137789e-01	 1.6566116331e+00	-2.4292722851e+00
 5.9912700477e-01	 1.6676949958e+00	-2.4092607529e+00
 5.6013988338e-01	 1.6779510904e+00	-2.3882634037e+00
 5.2089872010e-01	 1.6873917235e+00	-2.3661418732e+00
 4.8143199014e-01	 1.6960297191e+00	-2.3426960352e+00
 4.4176787011e-01	 1.7038788566e+00	-2.3176702284e+00
 4.0193417416e-01	 1.7109538084e+00	-2.2907596192e+00
 7.9571209846e-01	 1.6169535813e+00	-2.5249661952e+00
 7.5812228347e-01	 1.6315604565e+00	-2.5099449510e+00
 7.2013077025e-01	 1.6452970872e+00	-2.4936026154e+00
 6.8176669352e-01	 1.6581707005e+00	-2.4761208401e+00
 6.4305925589e-01	 1.6701897727e+00	-2.4575974140e+00
 6.0403764886e-01	 1.6813639784e+00	-2.4380507971e+00
 5.6473097606e-01	 1.6917041353e+00	-2.4174252431e+00
 5.2516817917e-01	 1.7012221470e+00	-2.3955963949e+00
 4.8537796676e-01	 1.7099309424e+00	-2.3723772408e+00
 4.4538874642e-01	 1.7178444141e+00	-2.3475243201e+00
 4.0522856026e-01	 1.7249773546e+00	-2.3207440743e+00
 8.0218100033e-01	 1.6300989313e+00	-2.5505765524e+00
 7.6428559136e-01	 1.6448245561e+00	-2.5366380556e+00
 7.2598521848e-01	 1.6586728615e+00	-2.5212169632e+00
 6.8730925326e-01	 1.6716511334e+00	-2.5045129088e+00
 6.4828713572e-01	 1.6837679171e+00	-2.4866412074e+00
 6.0894829467e-01	 1.6950329657e+00	-2.4676372972e+00
 5.6932207035e-01	 1.7054571851e+00	-2.4474617820e+00
 5.2943763972e-01	 1.7150525753e+00	-2.4260059568e+00
 4.8932394477e-01	 1.7238321706e+00	-2.4030977058e+00
 4.4900962400e-01	 1.7318099765e+00	-2.3785076607e+00
 4.0852294751e-01	 1.7390009056e+00	-2.3519555156e+00
 8.0864990522e-01	 1.6432442874e+00	-2.5765416274e+00
 7.7044890214e-01	 1.6580886618e+00	-2.5637720205e+00
 7.3183966945e-01	 1.6720486420e+00	-2.5493550606e+00
 6.9285181559e-01	 1.6851315726e+00	-2.5335091699e+00
 6.5351501798e-01	 1.6973460678e+00	-2.5163682308e+00
 6.1385894277e-01	 1.7087019594e+00	-2.4979859115e+00
 5.7391316678e-01	 1.7192102412e+00	-2.4783406024e+00
 5.3370710228e-01	 1.7288830101e+00	-2.4573408470e+00
 4.9326992462e-01	 1.7377334053e+00	-2.4348311558e+00
 4.5263050327e-01	 1.7457755454e+00	-2.4105980921e+00
 4.1181733630e-01	 1.7530244632e+00	-2.3843765261e+00
 8.1511881389e-01	 1.6563896513e+00	-2.6028317437e+00
 7.7661221651e-01	 1.6713527753e+00	-2.5913146052e+00
 7.3769412383e-01	 1.6854244303e+00	-2.5779830616e+00
 6.9839438115e-01	 1.6986120196e+00	-2.5630750982e+00
 6.5874290330e-01	 1.7109242264e+00	-2.5467441691e+00
 6.1876959373e-01	 1.7223709611e+00	-2.5290633832e+00
 5.7850426589e-01	 1.7329633053e+00	-2.5100303100e+00
 5.3797656732e-01	 1.7427134529e+00	-2.4895722913e+00
 4.9721590677e-01	 1.7516346481e+00	-2.4675521450e+00
 4.5625138465e-01	 1.7597411225e+00	-2.4437741547e+00
 4.1511172701e-01	 1.7670480290e+00	-2.4179902369e+00
 8.2158772709e-01	 1.6695350243e+00	-2.6294181533e+00
 7.8277553519e-01	 1.6846168981e+00	-2.6192345784e+00
 7.4354858231e-01	 1.6988002280e+00	-2.6070681803e+00
 7.0393695059e-01	 1.7120924761e+00	-2.5931772502e+00
 6.6397079227e-01	 1.7245023945e+00	-2.5777357821e+00
 6.2368024813e-01	 1.7360399723e+00	-2.5608374970e+00
 5.8309536821e-01	 1.7467163791e+00	-2.5425004938e+00
 5.4224603535e-01	 1.7565439054e+00	-2.5226724163e+00
 5.0116189168e-01	 1.7655359007e+00	-2.5012360241e+00
 4.5987226857e-01	 1.7737067093e+00	-2.4780150594e+00
 4.1840612003e-01	 1.7810716046e+00	-2.4527803053e+00
 8.2805664557e-01	 1.6826804081e+00	-2.6562730009e+00
 7.8893885891e-01	 1.6978810317e+00	-2.6475016789e+00
 7.4940304557e-01	 1.7121760366e+00	-2.6365786497e+00
 7.0947952455e-01	 1.7255729436e+00	-2.6237832216e+00
 6.6919868552e-01	 1.7380805737e+00	-2.6093108628e+00
 6.2859090654e-01	 1.7497089947e+00	-2.5932770392e+00
 5.8768647429e-01	 1.7604694641e+00	-2.5757216877e+00
 5.4651550686e-01	 1.7703743692e+00	-2.5566142147e+00
 5.0510787982e-01	 1.7794371646e+00	-2.5358589089e+00
 4.6349315544e-01	 1.7876723075e+00	-2.5133006622e+00
 4.2170051574e-01	 1.7950951916e+00	-2.4887308948e+00
 8.3452557008e-01	 1.6958258041e+00	-2.6833692886e+00
 7.9510218838e-01	 1.7111451776e+00	-2.6760865780e+00
 7.5525751430e-01	 1.7255518577e+00	-2.6664836817e+00
 7.1502210369e-01	 1.7390534237e+00	-2.6548616073e+00
 6.7442658364e-01	 1.7516587656e+00	-2.6414381972e+00
 6.3350156954e-01	 1.7633780299e+00	-2.6263517581e+00
 5.9227758464e-01	 1.7742225620e+00	-2.6096653339e+00
 5.5078498236e-01	 1.7842048459e+00	-2.5913715112e+00
 5.0905387163e-01	 1.7933384415e+00	-2.5713976507e+00
 4.6711404570e-01	 1.8016379188e+00	-2.5496114384e+00
 4.2499491452e-01	 1.8091187918e+00	-2.5258266549e+00
 8.4099450139e-01	 1.7089712139e+00	-2.7106808436e+00
 8.0126552432e-01	 1.7244093376e+00	-2.7049608436e+00
 7.6111198917e-01	 1.7389276928e+00	-2.6967534301e+00
 7.2056468865e-01	 1.7525339179e+00	-2.6863819630e+00
 6.7965448725e-01	 1.7652369718e+00	-2.6740875262e+00
 6.3841223768e-01	 1.7770470794e+00	-2.6600323277e+00
 5.9686869982e-01	 1.7879756743e+00	-2.6443037482e+00
 5.5505446234e-01	 1.7980353372e+00	-2.6269189309e+00
 5.1299986759e-01	 1.8072397329e+00	-2.6078298081e+00
 4.7073493975e-01	 1.8156035447e+00	-2.5869284597e+00
 4.2828931676e-01	 1.8231424066e+00	-2.5640527029e+00
 3.9534540388e-01	 1.6829067243e+00	-2.2345442127e+00
 3.5602208484e-01	 1.6891198593e+00	-2.2089317606e+00
 3.1658541179e-01	 1.6946026414e+00	-2.1877072626e+00
 2.7706137859e-01	 1.6993717569e+00	-2.1705570213e+00
 2.3747540569e-01	 1.7034445140e+00	-2.1571535260e+00
 1.9785229655e-01	 1.7068387780e+00	-2.1471582499e+00
 1.5821619810e-01	 1.7095729076e+00	-2.1402243060e+00
 1.1859056526e-01	 1.7116656925e+00	-2.1359989477e+00
 7.8998129670e-02	 1.7131362910e+00	-2.1341258996e+00
 3.9460872273e-02	 1.7140041702e+00	-2.1342475114e+00
 0.0000000000e+00	 1.7142890476e+00	-2.1360067289e+00
 3.9863978883e-01	 1.6969302655e+00	-2.2620201380e+00
 3.5898879138e-01	 1.7031951742e+00	-2.2363835364e+00
 3.1922349536e-01	 1.7087236439e+00	-2.2152256450e+00
 2.7937011122e-01	 1.7135325001e+00	-2.1982125813e+00
 2.3945427124e-01	 1.7176391952e+00	-2.1849964603e+00
 1.9950098557e-01	 1.7210617433e+00	-2.1752183549e+00
 1.5953460235e-01	 1.7238186563e+00	-2.1685111021e+00
 1.1957877195e-01	 1.7259288802e+00	-2.1645019370e+00
 7.9656415427e-02	 1.7274117330e+00	-2.1628149430e+00
 3.9789696896e-02	 1.7282868443e+00	-2.1630733092e+00
 0.0000000000e+00	 1.7285740955e+00	-2.1649013908e+00
 4.0193417416e-01	 1.7109538084e+00	-2.2907596192e+00
 3.6195549827e-01	 1.7172704907e+00	-2.2651927257e+00
 3.2186157924e-01	 1.7228446480e+00	-2.2441965266e+00
 2.8167884412e-01	 1.7276932449e+00	-2.2274118874e+00
 2.4143313702e-01	 1.7318338780e+00	-2.2144649143e+00
 2.0114967479e-01	 1.7352847103e+00	-2.2049701796e+00
 1.6085300675e-01	 1.7380644066e+00	-2.1985337751e+00
 1.2056697876e-01	 1.7401920695e+00	-2.1947561733e+00
 8.0314701260e-02	 1.7416871767e+00	-2.1932348835e+00
 4.0118521557e-02	 1.7425695200e+00	-2.1935668949e+00
 0.0000000000e+00	 1.7428591451e+00	-2.1953509005e+00
 4.0522856026e-01	 1.7249773546e+00	-2.3207440743e+00
 3.6492220586e-01	 1.7313458104e+00	-2.2953442168e+00
 3.2449966374e-01	 1.7369656554e+00	-2.2746045934e+00
 2.8398757756e-01	 1.7418539931e+00	-2.2581359627e+00
 2.4341200327e-01	 1.7460285641e+00	-2.2455330056e+00
 2.0279836438e-01	 1.7495076806e+00	-2.2363779176e+00
 1.6217141146e-01	 1.7523101602e+00	-2.2302438039e+00
 1.2155518579e-01	 1.7544552621e+00	-2.2266978593e+00
 8.0972987247e-02	 1.7559626238e+00	-2.2253043168e+00
 4.0447346294e-02	 1.7568521990e+00	-2.2256271550e+00
 0.0000000000e+00	 1.7571441980e+00	-2.2272325602e+00
 4.0852294751e-01	 1.7390009056e+00	-2.3519555156e+00
 3.6788891448e-01	 1.7454211351e+00	-2.3268233806e+00
 3.2713774915e-01	 1.7510866678e+00	-2.3064350211e+00
 2.8629631180e-01	 1.7560147461e+00	-2.2903664377e+00
 2.4539087020e-01	 1.7602232552e+00	-2.2781756824e+00
 2.0444705456e-01	 1.7637306559e+00	-2.2694069135e+00
 1.6348981663e-01	 1.7665559188e+00	-2.2635942287e+00
 1.2254339317e-01	 1.7687184598e+00	-2.2602652524e+00
 8.1631273464e-02	 1.7702380758e+00	-2.2589444611e+00
 4.0776171146e-02	 1.7711348830e+00	-2.2591562346e+00
 0.0000000000e+00	 1.7714292559e+00	-2.2604276274e+00
 4.1181733630e-01	 1.7530244632e+00	-2.3843765261e+00
 3.7085562448e-01	 1.7594964664e+00	-2.3596160513e+00
 3.2977583580e-01	 1.7652076867e+00	-2.3396734546e+00
 2.8860504713e-01	 1.7701755058e+00	-2.3240855265e+00
 2.4736973806e-01	 1.7744179530e+00	-2.3123686901e+00
 2.0609574550e-01	 1.7779536378e+00	-2.3040236167e+00
 1.6480822242e-01	 1.7808016841e+00	-2.2985395886e+00
 1.2353160101e-01	 1.7829816641e+00	-2.2953985820e+00
 8.2289559989e-02	 1.7845135346e+00	-2.2940790524e+00
 4.1104996152e-02	 1.7854175737e+00	-2.2940594069e+00
 0.0000000000e+00	 1.7857143204e+00	-2.2948211568e+00
 4.1511172701e-01	 1.7670480290e+00	-2.4179902369e+00
 3.7382233622e-01	 1.7735718059e+00	-2.3937085081e+00
 3.3241392399e-01	 1.7793287139e+00	-2.3743059905e+00
 2.9091378380e-01	 1.7843362738e+00	-2.3592760034e+00
 2.4934860708e-01	 1.7886126590e+00	-2.3480885400e+00
 2.0774443740e-01	 1.7921766280e+00	-2.3401955379e+00
 1.6612662897e-01	 1.7950474576e+00	-2.3350358620e+00
 1.2451980942e-01	 1.7972448767e+00	-2.3320399713e+00
 8.2947846897e-02	 1.7987890016e+00	-2.3306342444e+00
 4.1433821349e-02	 1.7997002727e+00	-2.3302449495e+00
 0.0000000000e+00	 1.7999993933e+00	-2.3303018492e+00
 4.1840612003e-01	 1.7810716046e+00	-2.4527803053e+00
 3.7678905003e-01	 1.7876471552e+00	-2.4290874578e+00
 3.3505201402e-01	 1.7934497510e+00	-2.4103191584e+00
 2.9322252208e-01	 1.7984970517e+00	-2.3959211805e+00
 2.5132747748e-01	 1.8028073749e+00	-2.3853124789e+00
 2.0939313046e-01	 1.8063996282e+00	-2.3778912067e+00
 1.6744503645e-01	 1.8092932412e+00	-2.3730404102e+00
 1.2550801853e-01	 1.8115080993e+00	-2.3701333629e+00
 8.3606134266e-02	 1.8130644786e+00	-2.3685385132e+00
 4.1762646777e-02	 1.8139829818e+00	-2.3676240260e+00
 0.0000000000e+00	 1.8142844762e+00	-2.3667619087e+00
 4.2170051574e-01	 1.7950951916e+00	-2.4887308948e+00
 3.7975576626e-01	 1.8017225160e+00	-2.4657400177e+00
 3.3769010621e-01	 1.8075707996e+00	-2.4476999043e+00
 2.9553126226e-01	 1.8126578411e+00	-2.4340048876e+00
 2.5330634949e-01	 1.8170021025e+00	-2.4240184604e+00
 2.1104182487e-01	 1.8206226400e+00	-2.4170801324e+00
 1.6876344501e-01	 1.8235390363e+00	-2.4125119230e+00
 1.2649622845e-01	 1.8257713336e+00	-2.4096244478e+00
 8.4264422173e-02	 1.8273399673e+00	-2.4077225670e+00
 4.2091472473e-02	 1.8282657025e+00	-2.4061105730e+00
 0.0000000000e+00	 1.8285695708e+00	-2.4040969050e+00
 4.2499491452e-01	 1.8091187918e+00	-2.5258266549e+00
 3.8272248527e-01	 1.8157978900e+00	-2.5036537001e+00
 3.4032820086e-01	 1.8216918614e+00	-2.4864355748e+00
 2.9784000458e-01	 1.8268186438e+00	-2.4735114512e+00
 2.5528522336e-01	 1.8311968433e+00	-2.4641851178e+00
 2.1269052081e-01	 1.8348456650e+00	-2.4577327657e+00
 1.7008185479e-01	 1.8377848448e+00	-2.4534103673e+00
 1.2748443928e-01	 1.8400345811e+00	-2.4504605973e+00
 8.4922710694e-02	 1.8416154693e+00	-2.4481192593e+00
 4.2420298476e-02	 1.8425484365e+00	-2.4456211929e+00
 0.0000000000e+00	 1.8428546786e+00	-2.4422056437e+00
 4.2828931676e-01	 1.8231424066e+00	-2.5640527029e+00
 3.8568920739e-01	 1.8298732788e+00	-2.5428163969e+00
 3.4296629828e-01	 1.8358129380e+00	-2.5265139011e+00
 3.0014874933e-01	 1.8409794613e+00	-2.5144256759e+00
 2.5726409930e-01	 1.8453915989e+00	-2.5057917374e+00
 2.1433921849e-01	 1.8490687050e+00	-2.4998204626e+00
 1.7140026596e-01	 1.8520306682e+00	-2.4956969383e+00
 1.2847265116e-01	 1.8542978437e+00	-2.4925907985e+00
 8.5580999907e-02	 1.8558909863e+00	-2.4896635063e+00
 4.2749124825e-02	 1.8568311855e+00	-2.4860750513e+00
 0.0000000000e+00	 1.8571398015e+00	-2.4809900414e+00
 1.8571398015e+00	 0.0000000000e+00	 1.8460076366e+00
 1.8568311855e+00	 4.2749124825e-02	 1.8952932153e+00
 1.8558909863e+00	 8.5580999907e-02	 1.9240314049e+00
 1.8542978437e+00	 1.2847265116e-01	 1.9331074908e+00
 1.8520306682e+00	 1.7140026596e-01	 1.9235065881e+00
 1.8490687050e+00	 2.1433921849e-01	 1.8963154150e+00
 1.8453915989e+00	 2.5726409930e-01	 1.8527232561e+00
 1.8409794613e+00	 3.0014874933e-01	 1.7940220199e+00
 1.8358129380e+00	 3.4296629828e-01	 1.7216052982e+00
 1.8298732788e+00	 3.8568920739e-01	 1.6369663378e+00
 1.8231424066e+00	 4.2828931676e-01	 1.5416948457e+00
 1.8714259389e+00	 0.0000000000e+00	 1.8112438128e+00
 1.8711149488e+00	 4.3077974526e-02	 1.8685029720e+00
 1.8701675171e+00	 8.6239335869e-02	 1.9032710454e+00
 1.8685621191e+00	 1.2946093321e-01	 1.9166502582e+00
 1.8662775033e+00	 1.7271877076e-01	 1.9098533731e+00
 1.8632927551e+00	 2.1598803324e-01	 1.8842044556e+00
 1.8595873627e+00	 2.5924311577e-01	 1.8411386271e+00
 1.8551412844e+00	 3.0245765804e-01	 1.7822007033e+00
 1.8499350174e+00	 3.4560458304e-01	 1.7090426232e+00
 1.8439496671e+00	 3.8865614018e-01	 1.6234195789e+00
 1.8371670174e+00	 4.3158395295e-01	 1.5271847683e+00
 1.8857120812e+00	 0.0000000000e+00	 1.7753236517e+00
 1.8853987171e+00	 4.3406824341e-02	 1.8413407195e+00
 1.8844440529e+00	 8.6897672061e-02	 1.8826702212e+00
 1.8828263996e+00	 1.3044921561e-01	 1.9006694416e+00
 1.8805243434e+00	 1.7403727602e-01	 1.8968169046e+00
 1.8775168101e+00	 2.1763684858e-01	 1.8727117452e+00
 1.8737831314e+00	 2.6122213293e-01	 1.8300718324e+00
 1.8693031125e+00	 3.0476656755e-01	 1.7707305360e+00
 1.8640571018e+00	 3.4824286873e-01	 1.6966320421e+00
 1.8580260603e+00	 3.9162307402e-01	 1.6098251296e+00
 1.8511916330e+00	 4.3487859030e-01	 1.5124553385e+00
 1.8999982169e+00	 0.0000000000e+00	 1.7379638958e+00
 1.8996824787e+00	 4.3735674004e-02	 1.8136065764e+00
 1.8987205820e+00	 8.7556007947e-02	 1.8621043938e+00
 1.8970906734e+00	 1.3143749755e-01	 1.8851067158e+00
 1.8947711768e+00	 1.7535578067e-01	 1.8843948321e+00
 1.8917408585e+00	 2.1928566315e-01	 1.8618795532e+00
 1.8879788935e+00	 2.6320114917e-01	 1.8195972889e+00
 1.8834649340e+00	 3.0707547599e-01	 1.7597044986e+00
 1.8781791796e+00	 3.5088115318e-01	 1.6844704163e+00
 1.8721024470e+00	 3.9459000647e-01	 1.5962679725e+00
 1.8652162422e+00	 4.3817322610e-01	 1.4975628515e+00
 1.9142843343e+00	 0.0000000000e+00	 1.6988897319e+00
 1.9139662220e+00	 4.4064523245e-02	 1.7851066215e+00
 1.9129970928e+00	 8.8214342988e-02	 1.8414527384e+00
 1.9113549288e+00	 1.3242577823e-01	 1.8699054944e+00
 1.9090179920e+00	 1.7667428362e-01	 1.8725848738e+00
 1.9059648886e+00	 2.2093447560e-01	 1.8517488853e+00
 1.9021746373e+00	 2.6518016287e-01	 1.8097871897e+00
 1.8976267374e+00	 3.0938438146e-01	 1.7492127925e+00
 1.8923012392e+00	 3.5351943425e-01	 1.6726517116e+00
 1.8861788156e+00	 3.9755693512e-01	 1.5828305478e+00
 1.8792408333e+00	 4.4146785768e-01	 1.4825619162e+00
 1.9285704216e+00	 0.0000000000e+00	 1.6578344780e+00
 1.9282499354e+00	 4.4393371795e-02	 1.7556526723e+00
 1.9272735736e+00	 8.8872676646e-02	 1.8205980065e+00
 1.9256191544e+00	 1.3341405682e-01	 1.8550108656e+00
 1.9232647772e+00	 1.7799278380e-01	 1.8613848137e+00
 1.9201888889e+00	 2.2258328458e-01	 1.8423595308e+00
 1.9163703514e+00	 2.6715917242e-01	 1.8007115864e+00
 1.9117885109e+00	 3.1169328209e-01	 1.7393429435e+00
 1.9064232692e+00	 3.5615770978e-01	 1.6612671051e+00
 1.9002551546e+00	 4.0052385753e-01	 1.5695928481e+00
 1.8932653949e+00	 4.4476248234e-01	 1.4675055175e+00
 1.9428564673e+00	 0.0000000000e+00	 1.6145392847e+00
 1.9425336070e+00	 4.4722219386e-02	 1.7250620743e+00
 1.9415500127e+00	 8.9531008385e-02	 1.7994263940e+00
 1.9398833383e+00	 1.3440233254e-01	 1.8403695302e+00
 1.9375115209e+00	 1.7931128014e-01	 1.8507924997e+00
 1.9344128477e+00	 2.2423208876e-01	 1.8337501067e+00
 1.9305660240e+00	 2.6913817619e-01	 1.7924384680e+00
 1.9259502432e+00	 3.1400217598e-01	 1.7301798992e+00
 1.9205452580e+00	 3.5879597761e-01	 1.6504050877e+00
 1.9143314526e+00	 4.0349077129e-01	 1.5566325074e+00
 1.9072899157e+00	 4.4805709739e-01	 1.4524450760e+00
 1.9571424596e+00	 0.0000000000e+00	 1.5687528480e+00
 1.9568172253e+00	 4.5051065750e-02	 1.6931574989e+00
 1.9558263986e+00	 9.0189337666e-02	 1.7778274157e+00
 1.9541474690e+00	 1.3539060456e-01	 1.8259297432e+00
 1.9517582114e+00	 1.8062977156e-01	 1.8408058408e+00
 1.9486367534e+00	 2.2588088679e-01	 1.8259581011e+00
 1.9447616437e+00	 2.7111717258e-01	 1.7850338357e+00
 1.9401119226e+00	 3.1631106125e-01	 1.7218061240e+00
 1.9346671941e+00	 3.6143423560e-01	 1.6401515624e+00
 1.9284076980e+00	 4.0645767398e-01	 1.5440248881e+00
 1.9213143841e+00	 4.5135170014e-01	 1.4374305051e+00
 1.9714283870e+00	 0.0000000000e+00	 1.5202311364e+00
 1.9711007787e+00	 4.5379910618e-02	 1.6597667503e+00
 1.9701027195e+00	 9.0847663952e-02	 1.7556937848e+00
 1.9684115347e+00	 1.3637887209e-01	 1.8116412571e+00
 1.9660048370e+00	 1.8194825698e-01	 1.8314228051e+00
 1.9628605943e+00	 2.2752967731e-01	 1.8190199137e+00
 1.9589571987e+00	 2.7309615996e-01	 1.7785617757e+00
 1.9542735376e+00	 3.1861993602e-01	 1.7143016884e+00
 1.9487890659e+00	 3.6407248158e-01	 1.6305899373e+00
 1.9424838794e+00	 4.0942456316e-01	 1.5318431621e+00
 1.9353387887e+00	 4.5464628790e-01	 1.4225102650e+00
 1.9857142377e+00	 0.0000000000e+00	 1.4687371284e+00
 1.9853842553e+00	 4.5708753720e-02	 1.6247225805e+00
 1.9843789638e+00	 9.1505986705e-02	 1.7329212977e+00
 1.9826755239e+00	 1.3736713431e-01	 1.7974552682e+00
 1.9802513862e+00	 1.8326673532e-01	 1.8226414178e+00
 1.9770843589e+00	 2.2917845898e-01	 1.8129708952e+00
 1.9731526776e+00	 2.7507513672e-01	 1.7730845274e+00
 1.9684350766e+00	 3.2092879839e-01	 1.7077443554e+00
 1.9629108619e+00	 3.6671071340e-01	 1.6218012160e+00
 1.9565599852e+00	 4.1239143643e-01	 1.5201583906e+00
 1.9493631180e+00	 4.5794085798e-01	 1.4077314154e+00
 2.0000000000e+00	 0.0000000000e+00	 1.4140405616e+00
 1.9996676437e+00	 4.6037594790e-02	 1.5878625122e+00
 1.9986551198e+00	 9.2164305388e-02	 1.7094087238e+00
 1.9969394250e+00	 1.3835539043e-01	 1.7833243649e+00
 1.9944978474e+00	 1.8458520551e-01	 1.8144597591e+00
 1.9913080356e+00	 2.3082723046e-01	 1.8078453847e+00
 1.9873480687e+00	 2.7705410124e-01	 1.7686625497e+00
 1.9825965280e+00	 3.2323764649e-01	 1.7022096630e+00
 1.9770325707e+00	 3.6934892891e-01	 1.6138640832e+00
 1.9706360040e+00	 4.1535829135e-01	 1.5090395984e+00
 1.9633873606e+00	 4.6123540769e-01	 1.3931396649e+00
 1.8231424066e+00	 4.2828931676e-01	 1.5416948457e+00
 1.8156035447e+00	 4.7073493975e-01	 1.4355082607e+00
 1.8072397329e+00	 5.1299986759e-01	 1.3177500600e+00
 1.7980353372e+00	 5.5505446234e-01	 1.1895715068e+00
 1.7879756743e+00	 5.9686869982e-01	 1.0521602935e+00
 1.7770470794e+00	 6.3841223768e-01	 9.0673253989e-01
 1.7652369718e+00	 6.7965448725e-01	 7.5452394279e-01
 1.7525339179e+00	 7.2056468865e-01	 5.9678013511e-01
 1.7389276928e+00	 7.6111198917e-01	 4.3474633237e-01
 1.7244093376e+00	 8.0126552432e-01	 2.6965636319e-01
 1.7089712139e+00	 8.4099450139e-01	 1.0272119985e-01
 1.8371670174e+00	 4.3158395295e-01	 1.5271847683e+00
 1.8295701624e+00	 4.7435609094e-01	 1.4202238320e+00
 1.8211420116e+00	 5.1694614377e-01	 1.3018599781e+00
 1.8118668106e+00	 5.5932424552e-01	 1.1732244709e+00
 1.8017297632e+00	 6.0146014103e-01	 1.0354840033e+00
 1.7907170996e+00	 6.4332325456e-01	 8.8983277926e-01
 1.7788161422e+00	 6.8488276212e-01	 7.3748376235e-01
 1.7660153695e+00	 7.2610766721e-01	 5.7965914881e-01
 1.7523044778e+00	 7.6696687979e-01	 4.1758014227e-01
 1.7376744394e+00	 8.0742929794e-01	 2.5245612625e-01
 1.7221175573e+00	 8.4746389208e-01	 8.5473349556e-02
 1.8511916330e+00	 4.3487859030e-01	 1.5124553385e+00
 1.8435367849e+00	 4.7797724340e-01	 1.4046203099e+00
 1.8350442951e+00	 5.2089242134e-01	 1.2856367766e+00
 1.8256982888e+00	 5.6359403019e-01	 1.1565976828e+00
 1.8154838570e+00	 6.0605158385e-01	 1.0186308678e+00
 1.8043871247e+00	 6.4823427316e-01	 8.7289144413e-01
 1.7923953173e+00	 6.9011103881e-01	 7.2055336387e-01
 1.7794968257e+00	 7.3165064771e-01	 5.6280023062e-01
 1.7656812675e+00	 7.7282177246e-01	 4.0081542907e-01
 1.7509395459e+00	 8.1359307372e-01	 2.3577166543e-01
 1.7352639052e+00	 8.5393328504e-01	 6.8820029391e-02
 1.8652162422e+00	 4.3817322610e-01	 1.4975628515e+00
 1.8575034010e+00	 4.8159839416e-01	 1.3887183525e+00
 1.8489465721e+00	 5.2483869706e-01	 1.2690693830e+00
 1.8395297606e+00	 5.6786381287e-01	 1.1396527280e+00
 1.8292379444e+00	 6.1064302452e-01	 1.0015399949e+00
 1.8180571433e+00	 6.5314528946e-01	 8.5583049519e-01
 1.8059744861e+00	 6.9533931307e-01	 7.0364334496e-01
 1.7929782757e+00	 7.3719362563e-01	 5.4610883544e-01
 1.7790580509e+00	 7.7867666240e-01	 3.8435914065e-01
 1.7642046462e+00	 8.1975684663e-01	 2.1951844770e-01
 1.7484102470e+00	 8.6040267498e-01	 5.2692612837e-02
 1.8792408333e+00	 4.4146785768e-01	 1.4825619162e+00
 1.8714699991e+00	 4.8521954028e-01	 1.3725379953e+00
 1.8628488314e+00	 5.2878496771e-01	 1.2521470501e+00
 1.8533612147e+00	 5.7213359007e-01	 1.1223523342e+00
 1.8429920141e+00	 6.1523445931e-01	 9.8415230628e-01
 1.8317271444e+00	 6.5805629946e-01	 8.3857422011e-01
 1.8195536375e+00	 7.0056758062e-01	 6.8666697061e-01
 1.8064597084e+00	 7.4273659643e-01	 5.2949324024e-01
 1.7924348172e+00	 7.8453154482e-01	 3.6812100349e-01
 1.7774697295e+00	 8.2592061162e-01	 2.0361446522e-01
 1.7615565720e+00	 8.6687205661e-01	 3.7024524458e-02
 1.8932653949e+00	 4.4476248234e-01	 1.4675055175e+00
 1.8854365679e+00	 4.8884067880e-01	 1.3560986745e+00
 1.8767510614e+00	 5.3273123008e-01	 1.2348593437e+00
 1.8671926397e+00	 5.7640335830e-01	 1.1046603286e+00
 1.8567460549e+00	 6.1982588445e-01	 9.6641047044e-01
 1.8453971167e+00	 6.6296729915e-01	 8.2104914725e-01
 1.8331327604e+00	 7.0579583718e-01	 6.6954007433e-01
 1.8199411127e+00	 7.4827955559e-01	 5.1286443946e-01
 1.8058115554e+00	 7.9038641495e-01	 3.5201341970e-01
 1.7907347849e+00	 8.3208436367e-01	 1.8798014182e-01
 1.7747028693e+00	 8.7334142466e-01	 2.1751163969e-02
 1.9072899157e+00	 4.4805709739e-01	 1.4524450760e+00
 1.8994030960e+00	 4.9246180675e-01	 1.3394192482e+00
 1.8906532508e+00	 5.3667748094e-01	 1.2171961307e+00
 1.8810240243e+00	 5.8067311408e-01	 1.0865415975e+00
 1.8705000556e+00	 6.2441729620e-01	 9.4825883821e-01
 1.8590670493e+00	 6.6787828451e-01	 8.0318396321e-01
 1.8467118437e+00	 7.1102407850e-01	 6.5218096359e-01
 1.8334224778e+00	 7.5382249858e-01	 4.9613604509e-01
 1.8191882546e+00	 7.9624126801e-01	 3.3595136864e-01
 1.8039998017e+00	 8.3824809775e-01	 1.7253824363e-01
 1.7878491283e+00	 8.7981077385e-01	 6.8098336344e-03
 1.9213143841e+00	 4.5135170014e-01	 1.4374305051e+00
 1.9133695719e+00	 4.9608292119e-01	 1.3225180183e+00
 1.9045553884e+00	 5.4062371707e-01	 1.1991475680e+00
 1.8948553573e+00	 5.8494285392e-01	 1.0679620473e+00
 1.8842540050e+00	 6.2900869081e-01	 9.2964338120e-01
 1.8727369307e+00	 6.7278925154e-01	 7.8490943386e-01
 1.8602908762e+00	 7.1625230030e-01	 6.3451032948e-01
 1.8469037925e+00	 7.5936542088e-01	 4.7922419102e-01
 1.8325649038e+00	 8.0209609920e-01	 3.1985231279e-01
 1.8172647689e+00	 8.4441180881e-01	 1.5721379353e-01
 1.8009953382e+00	 8.8628009888e-01	-7.8603311532e-03
 1.9353387887e+00	 4.5464628790e-01	 1.4225102650e+00
 1.9273359843e+00	 4.9970401915e-01	 1.3054127495e+00
 1.9184574627e+00	 5.4456993524e-01	 1.1807040922e+00
 1.9086866274e+00	 5.8921257433e-01	 1.0488885677e+00
 1.8980078918e+00	 6.3360006453e-01	 9.1051163293e-01
 1.8864067500e+00	 6.7770019623e-01	 7.6615832893e-01
 1.8738698470e+00	 7.2148049832e-01	 6.1645116019e-01
 1.8603850459e+00	 7.6490831796e-01	 4.6204744163e-01
 1.8459414922e+00	 8.0795090376e-01	 3.0363610779e-01
 1.8305296758e+00	 8.5057549183e-01	 1.4193398939e-01
 1.8141414883e+00	 8.9274939447e-01	-2.2318428287e-02
 1.9493631180e+00	 4.5794085798e-01	 1.4077314154e+00
 1.9413023217e+00	 5.0332509767e-01	 1.2881206891e+00
 1.9323594624e+00	 5.4851613224e-01	 1.1618564090e+00
 1.9225178233e+00	 5.9348227183e-01	 1.0292889955e+00
 1.9117617047e+00	 6.3819141361e-01	 8.9081263246e-01
 1.9000764959e+00	 6.8261111456e-01	 7.4686534976e-01
 1.8874487449e+00	 7.2670866827e-01	 5.9792865831e-01
 1.8738662269e+00	 7.7045118530e-01	 4.4452670424e-01
 1.8593180088e+00	 8.1380567690e-01	 2.8722491626e-01
 1.8437945114e+00	 8.5673914177e-01	 1.2662812584e-01
 1.8272875679e+00	 8.9921865535e-01	-3.6621852499e-02
 1.9633873606e+00	 4.6123540769e-01	 1.3931396649e+00
 1.9552685728e+00	 5.0694615381e-01	 1.2706585852e+00
 1.9462613761e+00	 5.5246230483e-01	 1.1425954833e+00
 1.9363489336e+00	 5.9775194293e-01	 1.0091320815e+00
 1.9255154327e+00	 6.4278273430e-01	 8.7049687050e-01
 1.9137461573e+00	 6.8752200253e-01	 7.2696706016e-01
 1.9010275589e+00	 7.3193680590e-01	 5.7887016159e-01
 1.8873473245e+00	 7.7599401836e-01	 4.2658514537e-01
 1.8726944426e+00	 8.1966041384e-01	 2.7054312534e-01
 1.8570592651e+00	 8.6290275360e-01	 1.1122751927e-01
 1.8404335661e+00	 9.0568787623e-01	-5.0826356191e-02
 1.7089712139e+00	 8.4099450139e-01	 1.0272119985e-01
 1.6926058784e+00	 8.8027101584e-01	-6.5168583091e-02
 1.6753095378e+00	 9.1906186497e-01	-2.3326384209e-01
 1.6570788115e+00	 9.5733697338e-01	-4.0063236537e-01
 1.6379118149e+00	 9.9506668745e-01	-5.6635793052e-01
 1.6178081901e+00	 1.0322218645e+00	-7.2954836404e-01
 1.5967691316e+00	 1.0687739617e+00	-8.8934364864e-01
 1.5747974050e+00	 1.1046951241e+00	-1.0449239601e+00
 1.5518973610e+00	 1.1399582708e+00	-1.1955175114e+00
 1.5280749409e+00	 1.1745371804e+00	-1.3404080788e+00
 1.5033376776e+00	 1.2084065724e+00	-1.4789420864e+00
 1.7221175573e+00	 8.4746389208e-01	 8.5473349556e-02
 1.7056263306e+00	 8.8704254302e-01	-8.2416162054e-02
 1.6881969371e+00	 9.2613179262e-01	-2.5040094036e-01
 1.6698259701e+00	 9.6470133414e-01	-4.1757202063e-01
 1.6505115304e+00	 1.0027212859e+00	-5.8303587408e-01
 1.6302532575e+00	 1.0401622809e+00	-7.4592225726e-01
 1.6090523550e+00	 1.0769955569e+00	-9.0539211086e-01
 1.5869116099e+00	 1.1131930445e+00	-1.0606453930e+00
 1.5638354061e+00	 1.1487274547e+00	-1.2109287277e+00
 1.5398297309e+00	 1.1835723642e+00	-1.3555427474e+00
 1.5149021751e+00	 1.2177022981e+00	-1.4938490076e+00
 1.7352639052e+00	 8.5393328504e-01	 6.8820029391e-02
 1.7186467874e+00	 8.9381407256e-01	-9.9033691860e-02
 1.7010843409e+00	 9.3320172274e-01	-2.6691137175e-01
 1.6825731331e+00	 9.7206569748e-01	-4.3391845592e-01
 1.6631112503e+00	 1.0103758869e+00	-5.9917568828e-01
 1.6426983293e+00	 1.0481027001e+00	-7.6182684936e-01
 1.6213355827e+00	 1.0852171549e+00	-9.2104654330e-01
 1.5990258190e+00	 1.1216909679e+00	-1.0760479204e+00
 1.5757734555e+00	 1.1574966417e+00	-1.2260902172e+00
 1.5515845251e+00	 1.1926075512e+00	-1.3704859947e+00
 1.5264666766e+00	 1.2269980271e+00	-1.5086079547e+00
 1.7484102470e+00	 8.6040267498e-01	 5.2692612837e-02
 1.7316672381e+00	 9.0058559894e-01	-1.1507094166e-01
 1.7139717387e+00	 9.4027164956e-01	-2.8282790387e-01
 1.6953202902e+00	 9.7943005739e-01	-4.4968950151e-01
 1.6757109644e+00	 1.0180304844e+00	-6.1478252990e-01
 1.6551433952e+00	 1.0560431155e+00	-7.7725707662e-01
 1.6336188047e+00	 1.0934387491e+00	-9.3629429190e-01
 1.6111400225e+00	 1.1301888873e+00	-1.0911140912e+00
 1.5877114993e+00	 1.1662658245e+00	-1.2409826727e+00
 1.5633393138e+00	 1.2016427340e+00	-1.3852197291e+00
 1.5380311727e+00	 1.2362937518e+00	-1.5232052362e+00
 1.7615565720e+00	 8.6687205661e-01	 3.7024524458e-02
 1.7446876721e+00	 9.0735711663e-01	-1.3057619197e-01
 1.7268591199e+00	 9.4734156731e-01	-2.9818232292e-01
 1.7080674309e+00	 9.8679440784e-01	-4.6490245203e-01
 1.6883106622e+00	 1.0256850721e+00	-6.2986139835e-01
 1.6675884452e+00	 1.0639835208e+00	-7.9220802322e-01
 1.6459020110e+00	 1.1016603328e+00	-9.5112307715e-01
 1.6232542104e+00	 1.1386867959e+00	-1.1058269722e+00
 1.5996495277e+00	 1.1750349961e+00	-1.2555873602e+00
 1.5750940874e+00	 1.2106779051e+00	-1.3997263963e+00
 1.5495956540e+00	 1.2455894645e+00	-1.5376275665e+00
 1.7747028693e+00	 8.7334142466e-01	 2.1751163969e-02
 1.7577080788e+00	 9.1412862011e-01	-1.4559628970e-01
 1.7397464741e+00	 9.5441147022e-01	-3.1300546998e-01
 1.7208145448e+00	 9.9415874283e-01	-4.7957408624e-01
 1.7009103336e+00	 1.0333396438e+00	-6.4441714155e-01
 1.6800334691e+00	 1.0719239094e+00	-8.0667491565e-01
 1.6581851914e+00	 1.1098818992e+00	-9.6552098023e-01
 1.6353683728e+00	 1.1471846866e+00	-1.1201701287e+00
 1.6115875311e+00	 1.1838041493e+00	-1.2698860982e+00
 1.5868488363e+00	 1.2197130573e+00	-1.4139889594e+00
 1.5611601110e+00	 1.2548851577e+00	-1.5518620513e+00
 1.7878491283e+00	 8.7981077385e-01	 6.8098336344e-03
 1.7707284474e+00	 9.2090010383e-01	-1.6017670091e-01
 1.7526337907e+00	 9.6148135250e-01	-3.2732727573e-01
 1.7335616215e+00	 1.0015230563e+00	-4.9372068599e-01
 1.7135099683e+00	 1.0409941930e+00	-6.5845446137e-01
 1.6924784566e+00	 1.0798642749e+00	-8.2065311750e-01
 1.6704683360e+00	 1.1181034416e+00	-9.7947642974e-01
 1.6474825000e+00	 1.1556825525e+00	-1.1341276068e+00
 1.6235254997e+00	 1.1925732770e+00	-1.2838612373e+00
 1.5986035510e+00	 1.2287481832e+00	-1.4279908801e+00
 1.5727245343e+00	 1.2641808238e+00	-1.5658961727e+00
 1.8009953382e+00	 8.8628009888e-01	-7.8603311532e-03
 1.7837487675e+00	 9.2767156227e-01	-1.7436156112e-01
 1.7655210592e+00	 9.6855120839e-01	-3.4117679359e-01
 1.7463086507e+00	 1.0088873423e+00	-5.0735805430e-01
 1.7261095559e+00	 1.0486487138e+00	-6.7197791902e-01
 1.7049233977e+00	 1.0878046107e+00	-8.3413812442e-01
 1.6827514348e+00	 1.1263249533e+00	-9.9297818897e-01
 1.6595965819e+00	 1.1641803866e+00	-1.1476839152e+00
 1.6354634237e+00	 1.2013423718e+00	-1.2974956402e+00
 1.6103582217e+00	 1.2377832753e+00	-1.4417161002e+00
 1.5842889143e+00	 1.2734764552e+00	-1.5797177760e+00
 1.8141414883e+00	 8.9274939447e-01	-2.2318428287e-02
 1.7967690283e+00	 9.3444298990e-01	-1.8819372351e-01
 1.7784082690e+00	 9.7562103211e-01	-3.5458223155e-01
 1.7590556219e+00	 1.0162515949e+00	-5.2050153267e-01
 1.7387090862e+00	 1.0563031996e+00	-6.8499194004e-01
 1.7173682822e+00	 1.0957449103e+00	-8.4712555932e-01
 1.6950344776e+00	 1.1345464276e+00	-1.0060153438e+00
 1.6717106087e+00	 1.1726781822e+00	-1.1608240086e+00
 1.6474012934e+00	 1.2101114268e+00	-1.3107726639e+00
 1.6221128390e+00	 1.2468183263e+00	-1.4551490244e+00
 1.5958532418e+00	 1.2827720443e+00	-1.5933150563e+00
 1.8272875679e+00	 8.9921865535e-01	-3.6621852499e-02
 1.8097892193e+00	 9.4121438120e-01	-2.0171480505e-01
 1.7912954097e+00	 9.8269081789e-01	-3.6757098250e-01
 1.7718025246e+00	 1.0236158078e+00	-5.3316601766e-01
 1.7513085489e+00	 1.0639576444e+00	-6.9750081918e-01
 1.7298130998e+00	 1.1036851674e+00	-8.5961116773e-01
 1.7073174546e+00	 1.1427678578e+00	-1.0185772910e+00
 1.6838245705e+00	 1.1811759321e+00	-1.1735332720e+00
 1.6593390990e+00	 1.2188804347e+00	-1.3236761416e+00
 1.6338673932e+00	 1.2558533288e+00	-1.4682745037e+00
 1.6074175072e+00	 1.2920675835e+00	-1.6066765459e+00
 1.8404335661e+00	 9.0568787623e-01	-5.0826356191e-02
 1.8228093297e+00	 9.4798573062e-01	-2.1496523061e-01
 1.8041824707e+00	 9.8976055995e-01	-3.8016965331e-01
 1.7845493486e+00	 1.0309799753e+00	-5.4536597673e-01
 1.7639079336e+00	 1.0716120419e+00	-7.0950872505e-01
 1.7422578406e+00	 1.1116253754e+00	-8.7159081344e-01
 1.7196003556e+00	 1.1509892371e+00	-1.0306537272e+00
 1.6959384573e+00	 1.1896736294e+00	-1.1857975050e+00
 1.6712768308e+00	 1.2276493884e+00	-1.3361903658e+00
 1.6456218747e+00	 1.2648882754e+00	-1.4810778194e+00
 1.6189817012e+00	 1.3013630652e+00	-1.6197911024e+00
 1.5033376776e+00	 1.2084065724e+00	-1.4789420864e+00
 1.4776946846e+00	 1.2415421896e+00	-1.6108286883e+00
 1.4511566314e+00	 1.2739208828e+00	-1.7358942682e+00
 1.4237357347e+00	 1.3055206731e+00	-1.8537617337e+00
 1.3954457360e+00	 1.3363208170e+00	-1.9641229870e+00
 1.3663018685e+00	 1.3663018685e+00	-2.0667417283e+00
 1.3363208170e+00	 1.3954457360e+00	-2.1614554445e+00
 1.3055206731e+00	 1.4237357347e+00	-2.2481765444e+00
 1.2739208828e+00	 1.4511566314e+00	-2.3268926233e+00
 1.2415421896e+00	 1.4776946846e+00	-2.3976658540e+00
 1.2084065724e+00	 1.5033376776e+00	-2.4606315173e+00
 1.5149021751e+00	 1.2177022981e+00	-1.4938490076e+00
 1.4890619222e+00	 1.2510928127e+00	-1.6255524248e+00
 1.4623197237e+00	 1.2837205805e+00	-1.7504741188e+00
 1.4346878904e+00	 1.3155634537e+00	-1.8682490836e+00
 1.4061802696e+00	 1.3466005293e+00	-1.9785810802e+00
 1.3768122114e+00	 1.3768122114e+00	-2.0812453587e+00
 1.3466005293e+00	 1.4061802696e+00	-2.1760905660e+00
 1.3155634537e+00	 1.4346878904e+00	-2.2630398052e+00
 1.2837205805e+00	 1.4623197237e+00	-2.3420908280e+00
 1.2510928127e+00	 1.4890619222e+00	-2.4133153593e+00
 1.2177022981e+00	 1.5149021751e+00	-2.4768575691e+00
 1.5264666766e+00	 1.2269980271e+00	-1.5086079547e+00
 1.5004291636e+00	 1.2606434391e+00	-1.6401566014e+00
 1.4734828198e+00	 1.2935202817e+00	-1.7649510857e+00
 1.4456400499e+00	 1.3256062379e+00	-1.8826403947e+00
 1.4169148068e+00	 1.3568802451e+00	-1.9929419670e+00
 1.3873225580e+00	 1.3873225580e+00	-2.0956443145e+00
 1.3568802451e+00	 1.4169148068e+00	-2.1906088336e+00
 1.3256062379e+00	 1.4456400499e+00	-2.2777707742e+00
 1.2935202817e+00	 1.4734828198e+00	-2.3571393471e+00
 1.2606434391e+00	 1.5004291636e+00	-2.4287969727e+00
 1.2269980271e+00	 1.5264666766e+00	-2.4928976835e+00
 1.5380311727e+00	 1.2362937518e+00	-1.5232052362e+00
 1.5117963998e+00	 1.2701940611e+00	-1.6546334210e+00
 1.4846459108e+00	 1.3033199782e+00	-1.7793229801e+00
 1.4565922043e+00	 1.3356490174e+00	-1.8969387659e+00
 1.4276493391e+00	 1.3671599561e+00	-2.0072136795e+00
 1.3978328997e+00	 1.3978328997e+00	-2.1099511757e+00
 1.3671599561e+00	 1.4276493391e+00	-2.2050269621e+00
 1.3356490174e+00	 1.4565922043e+00	-2.2923898623e+00
 1.3033199782e+00	 1.4846459108e+00	-2.3720618273e+00
 1.2701940611e+00	 1.5117963998e+00	-2.4441370961e+00
 1.2362937518e+00	 1.5380311727e+00	-2.5087805223e+00
 1.5495956540e+00	 1.2455894645e+00	-1.5376275665e+00
 1.5231636214e+00	 1.2797446708e+00	-1.6689753167e+00
 1.4958089874e+00	 1.3131196623e+00	-1.7935876762e+00
 1.4675443447e+00	 1.3456917839e+00	-1.9111472008e+00
 1.4383838576e+00	 1.3774396540e+00	-2.0214040072e+00
 1.4083432279e+00	 1.4083432279e+00	-2.1241781441e+00
 1.3774396540e+00	 1.4383838576e+00	-2.2193611643e+00
 1.3456917839e+00	 1.4675443447e+00	-2.3069168682e+00
 1.3131196623e+00	 1.4958089874e+00	-2.3868812058e+00
 1.2797446708e+00	 1.5231636214e+00	-2.4593613399e+00
 1.2455894645e+00	 1.5495956540e+00	-2.5245338879e+00
 1.5611601110e+00	 1.2548851577e+00	-1.5518620513e+00
 1.5345308192e+00	 1.2892952604e+00	-1.6831749428e+00
 1.5069720406e+00	 1.3229193257e+00	-1.8077431085e+00
 1.4784964621e+00	 1.3557345294e+00	-1.9252686114e+00
 1.4491183535e+00	 1.3877193302e+00	-2.0355205057e+00
 1.4188535340e+00	 1.4188535340e+00	-2.1383370567e+00
 1.3877193302e+00	 1.4491183535e+00	-2.2336271697e+00
 1.3557345294e+00	 1.4784964621e+00	-2.3213710006e+00
 1.3229193257e+00	 1.5069720406e+00	-2.4016197369e+00
 1.2892952604e+00	 1.5345308192e+00	-2.4744945520e+00
 1.2548851577e+00	 1.5611601110e+00	-2.5401847553e+00
 1.5727245343e+00	 1.2641808238e+00	-1.5658961727e+00
 1.5458979837e+00	 1.2988458222e+00	-1.6972251675e+00
 1.5181350613e+00	 1.3327189605e+00	-1.8217872695e+00
 1.4894485475e+00	 1.3657772456e+00	-1.9393058213e+00
 1.4598528182e+00	 1.3979989765e+00	-2.0495705060e+00
 1.4293638095e+00	 1.4293638095e+00	-2.1524393995e+00
 1.3979989765e+00	 1.4598528182e+00	-2.2478402417e+00
 1.3657772456e+00	 1.4894485475e+00	-2.3357709001e+00
 1.3327189605e+00	 1.5181350613e+00	-2.4162990169e+00
 1.2988458222e+00	 1.5458979837e+00	-2.4895608463e+00
 1.2641808238e+00	 1.5727245343e+00	-2.5557593029e+00
 1.5842889143e+00	 1.2734764552e+00	-1.5797177760e+00
 1.5572651059e+00	 1.3083963484e+00	-1.7111190647e+00
 1.5292980402e+00	 1.3425185588e+00	-1.8357182080e+00
 1.5004005920e+00	 1.3758199243e+00	-1.9532615692e+00
 1.4705872427e+00	 1.4082785844e+00	-2.0635611221e+00
 1.4398740457e+00	 1.4398740457e+00	-2.1664963205e+00
 1.4082785844e+00	 1.4705872427e+00	-2.2620151957e+00
 1.3758199243e+00	 1.5004005920e+00	-2.3501346600e+00
 1.3425185588e+00	 1.5292980402e+00	-2.4309400086e+00
 1.3083963484e+00	 1.5572651059e+00	-2.5045836292e+00
 1.2734764552e+00	 1.5842889143e+00	-2.5712829409e+00
 1.5958532418e+00	 1.2827720443e+00	-1.5933150563e+00
 1.5686321763e+00	 1.3179468310e+00	-1.7248499065e+00
 1.5404609684e+00	 1.3523181125e+00	-1.8495340268e+00
 1.5113525867e+00	 1.3858625574e+00	-1.9671385117e+00
 1.4813216185e+00	 1.4185581455e+00	-2.0774992595e+00
 1.4503842341e+00	 1.4503842341e+00	-2.1805186419e+00
 1.4185581455e+00	 1.4813216185e+00	-2.2761664145e+00
 1.3858625574e+00	 1.5113525867e+00	-2.3644798461e+00
 1.3523181125e+00	 1.5404609684e+00	-2.4455630639e+00
 1.3179468310e+00	 1.5686321763e+00	-2.5195856253e+00
 1.2827720443e+00	 1.5958532418e+00	-2.5867803400e+00
 1.6074175072e+00	 1.2920675835e+00	-1.6066765459e+00
 1.5799991857e+00	 1.3274972625e+00	-1.7384111562e+00
 1.5516238367e+00	 1.3621176136e+00	-1.8632328810e+00
 1.5223045226e+00	 1.3959051365e+00	-1.9809392269e+00
 1.4920559366e+00	 1.4288376514e+00	-2.0913916221e+00
 1.4608943661e+00	 1.4608943661e+00	-2.1945168716e+00
 1.4288376514e+00	 1.4920559366e+00	-2.2903078642e+00
 1.3959051365e+00	 1.5223045226e+00	-2.3788235159e+00
 1.3621176136e+00	 1.5516238367e+00	-2.4601879462e+00
 1.3274972625e+00	 1.5799991857e+00	-2.5345889024e+00
 1.2920675835e+00	 1.6074175072e+00	-2.6022754576e+00
 1.6189817012e+00	 1.3013630652e+00	-1.6197911024e+00
 1.5913661249e+00	 1.3370476348e+00	-1.7517964618e+00
 1.5627866359e+00	 1.3719170541e+00	-1.8768129760e+00
 1.5332563909e+00	 1.4059476535e+00	-1.9946662164e+00
 1.5027901883e+00	 1.4391170938e+00	-2.1052447201e+00
 1.4714044331e+00	 1.4714044331e+00	-2.2085012149e+00
 1.4391170938e+00	 1.5027901883e+00	-2.3044531095e+00
 1.4059476535e+00	 1.5332563909e+00	-2.3931822368e+00
 1.3719170541e+00	 1.5627866359e+00	-2.4748338510e+00
 1.3370476348e+00	 1.5913661249e+00	-2.5496148944e+00
 1.3013630652e+00	 1.6189817012e+00	-2.6177915634e+00
 1.2084065724e+00	 1.5033376776e+00	-2.4606315173e+00
 1.1745371804e+00	 1.5280749409e+00	-2.5160590547e+00
 1.1399582708e+00	 1.5518973610e+00	-2.5641546347e+00
 1.1046951241e+00	 1.5747974050e+00	-2.6050514206e+00
 1.0687739617e+00	 1.5967691316e+00	-2.6389328852e+00
 1.0322218645e+00	 1.6178081901e+00	-2.6660298498e+00
 9.9506668745e-01	 1.6379118149e+00	-2.6866170758e+00
 9.5733697338e-01	 1.6570788115e+00	-2.7010094698e+00
 9.1906186497e-01	 1.6753095378e+00	-2.7095579700e+00
 8.8027101584e-01	 1.6926058784e+00	-2.7126451832e+00
 8.4099450139e-01	 1.7089712139e+00	-2.7106808436e+00
 1.2177022981e+00	 1.5149021751e+00	-2.4768575691e+00
 1.1835723642e+00	 1.5398297309e+00	-2.5329742932e+00
 1.1487274547e+00	 1.5638354061e+00	-2.5818510763e+00
 1.1131930445e+00	 1.5869116099e+00	-2.6236194221e+00
 1.0769955569e+00	 1.6090523550e+00	-2.6584637881e+00
 1.0401622809e+00	 1.6302532575e+00	-2.6866185540e+00
 1.0027212859e+00	 1.6505115304e+00	-2.7083645108e+00
 9.6470133414e-01	 1.6698259701e+00	-2.7240249343e+00
 9.2613179262e-01	 1.6881969371e+00	-2.7339613139e+00
 8.8704254302e-01	 1.7056263306e+00	-2.7385688101e+00
 8.4746389208e-01	 1.7221175573e+00	-2.7382715134e+00
 1.2269980271e+00	 1.5264666766e+00	-2.4928976835e+00
 1.1926075512e+00	 1.5515845251e+00	-2.5496915776e+00
 1.1574966417e+00	 1.5757734555e+00	-2.5993504234e+00
 1.1216909679e+00	 1.5990258190e+00	-2.6420057273e+00
 1.0852171549e+00	 1.6213355827e+00	-2.6778437330e+00
 1.0481027001e+00	 1.6426983293e+00	-2.7071023384e+00
 1.0103758869e+00	 1.6631112503e+00	-2.7300675103e+00
 9.7206569748e-01	 1.6825731331e+00	-2.7470692646e+00
 9.3320172274e-01	 1.7010843409e+00	-2.7584772828e+00
 8.9381407256e-01	 1.7186467874e+00	-2.7646962419e+00
 8.5393328504e-01	 1.7352639052e+00	-2.7661609341e+00
 1.2362937518e+00	 1.5380311727e+00	-2.5087805223e+00
 1.2016427340e+00	 1.5633393138e+00	-2.5662402531e+00
 1.1662658245e+00	 1.5877114993e+00	-2.6166800321e+00
 1.1301888873e+00	 1.6111400225e+00	-2.6602330061e+00
 1.0934387491e+00	 1.6336188047e+00	-2.6970879997e+00
 1.0560431155e+00	 1.6551433952e+00	-2.7274863986e+00
 1.0180304844e+00	 1.6757109644e+00	-2.7517185182e+00
 9.7943005739e-01	 1.6953202902e+00	-2.7701195267e+00
 9.4027164956e-01	 1.7139717387e+00	-2.7830649947e+00
 9.0058559894e-01	 1.7316672381e+00	-2.7909661495e+00
 8.6040267498e-01	 1.7484102470e+00	-2.7942649123e+00
 1.2455894645e+00	 1.5495956540e+00	-2.5245338879e+00
 1.2106779051e+00	 1.5750940874e+00	-2.5826487851e+00
 1.1750349961e+00	 1.5996495277e+00	-2.6338664378e+00
 1.1386867959e+00	 1.6232542104e+00	-2.6783232477e+00
 1.1016603328e+00	 1.6459020110e+00	-2.7162114082e+00
 1.0639835208e+00	 1.6675884452e+00	-2.7477757717e+00
 1.0256850721e+00	 1.6883106622e+00	-2.7733102004e+00
 9.8679440784e-01	 1.7080674309e+00	-2.7931534676e+00
 9.4734156731e-01	 1.7268591199e+00	-2.8076847849e+00
 9.0735711663e-01	 1.7446876721e+00	-2.8173190314e+00
 8.6687205661e-01	 1.7615565720e+00	-2.8225017650e+00
 1.2548851577e+00	 1.5611601110e+00	-2.5401847553e+00
 1.2197130573e+00	 1.5868488363e+00	-2.5989447919e+00
 1.1838041493e+00	 1.6115875311e+00	-2.6509353861e+00
 1.1471846866e+00	 1.6353683728e+00	-2.6962977861e+00
 1.1098818992e+00	 1.6581851914e+00	-2.7352283354e+00
 1.0719239094e+00	 1.6800334691e+00	-2.7679753419e+00
 1.0333396438e+00	 1.7009103336e+00	-2.7948354368e+00
 9.9415874283e-01	 1.7208145448e+00	-2.8161494907e+00
 9.5441147022e-01	 1.7397464741e+00	-2.8322981610e+00
 9.1412862011e-01	 1.7577080788e+00	-2.8436971462e+00
 8.7334142466e-01	 1.7747028693e+00	-2.8507922270e+00
 1.2641808238e+00	 1.5727245343e+00	-2.5557593029e+00
 1.2287481832e+00	 1.5986035510e+00	-2.6151550761e+00
 1.1925732770e+00	 1.6235254997e+00	-2.6679118617e+00
 1.1556825525e+00	 1.6474825000e+00	-2.7141773243e+00
 1.1181034416e+00	 1.6704683360e+00	-2.7541527323e+00
 1.0798642749e+00	 1.6924784566e+00	-2.7880898464e+00
 1.0409941930e+00	 1.7135099683e+00	-2.8162873133e+00
 1.0015230563e+00	 1.7335616215e+00	-2.8390866312e+00
 9.6148135250e-01	 1.7526337907e+00	-2.8568677596e+00
 9.2090010383e-01	 1.7707284474e+00	-2.8700444481e+00
 8.7981077385e-01	 1.7878491283e+00	-2.8790593618e+00
 1.2734764552e+00	 1.5842889143e+00	-2.5712829409e+00
 1.2377832753e+00	 1.6103582217e+00	-2.6313056539e+00
 1.2013423718e+00	 1.6354634237e+00	-2.6848201162e+00
 1.1641803866e+00	 1.6595965819e+00	-2.7319819571e+00
 1.1263249533e+00	 1.6827514348e+00	-2.7729981385e+00
 1.0878046107e+00	 1.7049233977e+00	-2.8081238803e+00
 1.0486487138e+00	 1.7261095559e+00	-2.8376591143e+00
 1.0088873423e+00	 1.7463086507e+00	-2.8619445333e+00
 9.6855120839e-01	 1.7655210592e+00	-2.8813573054e+00
 9.2767156227e-01	 1.7837487675e+00	-2.8963065250e+00
 8.8628009888e-01	 1.8009953382e+00	-2.9072284768e+00
 1.2827720443e+00	 1.5958532418e+00	-2.5867803400e+00
 1.2468183263e+00	 1.6221128390e+00	-2.6474217841e+00
 1.2101114268e+00	 1.6474012934e+00	-2.7016836950e+00
 1.1726781822e+00	 1.6717106087e+00	-2.7497311934e+00
 1.1345464276e+00	 1.6950344776e+00	-2.7917776981e+00
 1.0957449103e+00	 1.7173682822e+00	-2.8280819026e+00
 1.0563031996e+00	 1.7387090862e+00	-2.8589443159e+00
 1.0162515949e+00	 1.7590556219e+00	-2.8847034284e+00
 9.7562103211e-01	 1.7784082690e+00	-2.9057315717e+00
 9.3444298990e-01	 1.7967690283e+00	-2.9224305395e+00
 8.9274939447e-01	 1.8141414883e+00	-2.9352270420e+00
 1.2920675835e+00	 1.6074175072e+00	-2.6022754576e+00
 1.2558533288e+00	 1.6338673932e+00	-2.6635279956e+00
 1.2188804347e+00	 1.6593390990e+00	-2.7185254623e+00
 1.1811759321e+00	 1.6838245705e+00	-2.7674439775e+00
 1.1427678578e+00	 1.7073174546e+00	-2.8105041734e+00
 1.1036851674e+00	 1.7298130998e+00	-2.8479682405e+00
 1.0639576444e+00	 1.7513085489e+00	-2.8801365786e+00
 1.0236158078e+00	 1.7718025246e+00	-2.9073441139e+00
 9.8269081789e-01	 1.7912954097e+00	-2.9299563431e+00
 9.4121438120e-01	 1.8097892193e+00	-2.9483651721e+00
 8.9921865535e-01	 1.8272875679e+00	-2.9629846125e+00
 1.3013630652e+00	 1.6189817012e+00	-2.6177915634e+00
 1.2648882754e+00	 1.6456218747e+00	-2.6796481128e+00
 1.2276493884e+00	 1.6712768308e+00	-2.7353676259e+00
 1.1896736294e+00	 1.6959384573e+00	-2.7851387090e+00
 1.1509892371e+00	 1.7196003556e+00	-2.8291899592e+00
 1.1116253754e+00	 1.7422578406e+00	-2.8677870947e+00
 1.0716120419e+00	 1.7639079336e+00	-2.9012297414e+00
 1.0309799753e+00	 1.7845493486e+00	-2.9298479327e+00
 9.8976055995e-01	 1.8041824707e+00	-2.9539983789e+00
 9.4798573062e-01	 1.8228093297e+00	-2.9740605673e+00
 9.0568787623e-01	 1.8404335661e+00	-2.9904327536e+00
 8.4099450139e-01	 1.7089712139e+00	-2.7106808436e+00
 8.0126552432e-01	 1.7244093376e+00	-2.7049608436e+00
 7.6111198917e-01	 1.7389276928e+00	-2.6967534301e+00
 7.2056468865e-01	 1.7525339179e+00	-2.6863819630e+00
 6.7965448725e-01	 1.7652369718e+00	-2.6740875262e+00
 6.3841223768e-01	 1.7770470794e+00	-2.6600323277e+00
 5.9686869982e-01	 1.7879756743e+00	-2.6443037482e+00
 5.5505446234e-01	 1.7980353372e+00	-2.6269189309e+00
 5.1299986759e-01	 1.8072397329e+00	-2.6078298081e+00
 4.7073493975e-01	 1.8156035447e+00	-2.5869284597e+00
 4.2828931676e-01	 1.8231424066e+00	-2.5640527029e+00
 8.4746389208e-01	 1.7221175573e+00	-2.7382715134e+00
 8.0742929794e-01	 1.7376744394e+00	-2.7342066137e+00
 7.6696687979e-01	 1.7523044778e+00	-2.7274854704e+00
 7.2610766721e-01	 1.7660153695e+00	-2.7184513358e+00
 6.8488276212e-01	 1.7788161422e+00	-2.7073675411e+00
 6.4332325456e-01	 1.7907170996e+00	-2.6944205777e+00
 6.0146014103e-01	 1.8017297632e+00	-2.6797238226e+00
 5.5932424552e-01	 1.8118668106e+00	-2.6633218053e+00
 5.1694614377e-01	 1.8211420116e+00	-2.6451949164e+00
 4.7435609094e-01	 1.8295701624e+00	-2.6252644553e+00
 4.3158395295e-01	 1.8371670174e+00	-2.6033979229e+00
 8.5393328504e-01	 1.7352639052e+00	-2.7661609341e+00
 8.1359307372e-01	 1.7509395459e+00	-2.7638498048e+00
 7.7282177246e-01	 1.7656812675e+00	-2.7587148950e+00
 7.3165064771e-01	 1.7794968257e+00	-2.7511137592e+00
 6.9011103881e-01	 1.7923953173e+00	-2.7413290723e+00
 6.4823427316e-01	 1.8043871247e+00	-2.7295712375e+00
 6.0605158385e-01	 1.8154838570e+00	-2.7159816146e+00
 5.6359403019e-01	 1.8256982888e+00	-2.7006362752e+00
 5.2089242134e-01	 1.8350442951e+00	-2.6835501918e+00
 4.7797724340e-01	 1.8435367849e+00	-2.6646817677e+00
 4.3487859030e-01	 1.8511916330e+00	-2.6439376183e+00
 8.6040267498e-01	 1.7484102470e+00	-2.7942649123e+00
 8.1975684663e-01	 1.7642046462e+00	-2.7937867865e+00
 7.7867666240e-01	 1.7790580509e+00	-2.7903278364e+00
 7.3719362563e-01	 1.7929782757e+00	-2.7842542812e+00
 6.9533931307e-01	 1.8059744861e+00	-2.7758651400e+00
 6.5314528946e-01	 1.8180571433e+00	-2.7653942155e+00
 6.1064302452e-01	 1.8292379444e+00	-2.7530126542e+00
 5.6786381287e-01	 1.8395297606e+00	-2.7388320046e+00
 5.2483869706e-01	 1.8489465721e+00	-2.7229076907e+00
 4.8159839416e-01	 1.8575034010e+00	-2.7052428186e+00
 4.3817322610e-01	 1.8652162422e+00	-2.6857922371e+00
 8.6687205661e-01	 1.7615565720e+00	-2.8225017650e+00
 8.2592061162e-01	 1.7774697295e+00	-2.8239170192e+00
 7.8453154482e-01	 1.7924348172e+00	-2.8222138236e+00
 7.4273659643e-01	 1.8064597084e+00	-2.8177613785e+00
 7.0056758062e-01	 1.8195536375e+00	-2.8108719553e+00
 6.5805629946e-01	 1.8317271444e+00	-2.8018021064e+00
 6.1523445931e-01	 1.8429920141e+00	-2.7907543922e+00
 5.7213359007e-01	 1.8533612147e+00	-2.7778795594e+00
 5.2878496771e-01	 1.8628488314e+00	-2.7632791056e+00
 4.8521954028e-01	 1.8714699991e+00	-2.7470081618e+00
 4.4146785768e-01	 1.8792408333e+00	-2.7290786272e+00
 8.7334142466e-01	 1.7747028693e+00	-2.8507922270e+00
 8.3208436367e-01	 1.7907347849e+00	-2.8541429397e+00
 7.9038641495e-01	 1.8058115554e+00	-2.8542656563e+00
 7.4827955559e-01	 1.8199411127e+00	-2.8515268300e+00
 7.0579583718e-01	 1.8331327604e+00	-2.8462488018e+00
 6.6296729915e-01	 1.8453971167e+00	-2.8387100922e+00
 6.1982588445e-01	 1.8567460549e+00	-2.8291461302e+00
 5.7640335830e-01	 1.8671926397e+00	-2.8177503745e+00
 5.3273123008e-01	 1.8767510614e+00	-2.8046757786e+00
 4.8884067880e-01	 1.8854365679e+00	-2.7900365528e+00
 4.4476248234e-01	 1.8932653949e+00	-2.7739101698e+00
 8.7981077385e-01	 1.7878491283e+00	-2.8790593618e+00
 8.3824809775e-01	 1.8039998017e+00	-2.8843698522e+00
 7.9624126801e-01	 1.8191882546e+00	-2.8863792853e+00
 7.5382249858e-01	 1.8334224778e+00	-2.8854455955e+00
 7.1102407850e-01	 1.8467118437e+00	-2.8818979233e+00
 6.6787828451e-01	 1.8590670493e+00	-2.8760358468e+00
 6.2441729620e-01	 1.8705000556e+00	-2.8681289520e+00
 5.8067311408e-01	 1.8810240243e+00	-2.8584167213e+00
 5.3667748094e-01	 1.8906532508e+00	-2.8471087147e+00
 4.9246180675e-01	 1.8994030960e+00	-2.8343850147e+00
 4.4805709739e-01	 1.9072899157e+00	-2.8203969070e+00
 8.8628009888e-01	 1.8009953382e+00	-2.9072284768e+00
 8.4441180881e-01	 1.8172647689e+00	-2.9145058232e+00
 8.0209609920e-01	 1.8325649038e+00	-2.9184536967e+00
 7.5936542088e-01	 1.8469037925e+00	-2.9194156991e+00
 7.1625230030e-01	 1.8602908762e+00	-2.9177244154e+00
 6.7278925154e-01	 1.8727369307e+00	-2.9136994454e+00
 6.2900869081e-01	 1.8842540050e+00	-2.9076456585e+00
 5.8494285392e-01	 1.8948553573e+00	-2.8998516781e+00
 5.4062371707e-01	 1.9045553884e+00	-2.8905885940e+00
 4.9608292119e-01	 1.9133695719e+00	-2.8801089022e+00
 4.5135170014e-01	 1.9213143841e+00	-2.8686456637e+00
 8.9274939447e-01	 1.8141414883e+00	-2.9352270420e+00
 8.5057549183e-01	 1.8305296758e+00	-2.9444615820e+00
 8.0795090376e-01	 1.8459414922e+00	-2.9503908030e+00
 7.6490831796e-01	 1.8603850459e+00	-2.9533381191e+00
 7.2148049832e-01	 1.8738698470e+00	-2.9536361225e+00
 6.7770019623e-01	 1.8864067500e+00	-2.9516232775e+00
 6.3360006453e-01	 1.8980078918e+00	-2.9476407065e+00
 5.8921257433e-01	 1.9086866274e+00	-2.9420291003e+00
 5.4456993524e-01	 1.9184574627e+00	-2.9351257836e+00
 4.9970401915e-01	 1.9273359843e+00	-2.9272619613e+00
 4.5464628790e-01	 1.9353387887e+00	-2.9187601645e+00
 8.9921865535e-01	 1.8272875679e+00	-2.9629846125e+00
 8.5673914177e-01	 1.8437945114e+00	-2.9741504246e+00
 8.1380567690e-01	 1.8593180088e+00	-2.9820953368e+00
 7.7045118530e-01	 1.8738662269e+00	-2.9871166812e+00
 7.2670866827e-01	 1.8874487449e+00	-2.9895435388e+00
 6.8261111456e-01	 1.9000764959e+00	-2.9897319638e+00
 6.3819141361e-01	 1.9117617047e+00	-2.9880601482e+00
 5.9348227183e-01	 1.9225178233e+00	-2.9849235927e+00
 5.4851613224e-01	 1.9323594624e+00	-2.9807303491e+00
 5.0332509767e-01	 1.9413023217e+00	-2.9758963882e+00
 4.5794085798e-01	 1.9493631180e+00	-2.9708411451e+00
 9.0568787623e-01	 1.8404335661e+00	-2.9904327536e+00
 8.6290275360e-01	 1.8570592651e+00	-3.0034881223e+00
 8.1966041384e-01	 1.8726944426e+00	-3.0134747513e+00
 7.7599401836e-01	 1.8873473245e+00	-3.0206579570e+00
 7.3193680590e-01	 1.9010275589e+00	-3.0253597138e+00
 6.8752200253e-01	 1.9137461573e+00	-3.0279522765e+00
 6.4278273430e-01	 1.9255154327e+00	-3.0288515748e+00
 5.9775194293e-01	 1.9363489336e+00	-3.0285104832e+00
 5.5246230483e-01	 1.9462613761e+00	-3.0274120653e+00
 5.0694615381e-01	 1.9552685728e+00	-3.0260628840e+00
 4.6123540769e-01	 1.9633873606e+00	-3.0249864595e+00
 4.2828931676e-01	 1.8231424066e+00	-2.5640527029e+00
 3.8568920739e-01	 1.8298732788e+00	-2.5428163969e+00
 3.4296629828e-01	 1.8358129380e+00	-2.5265139011e+00
 3.0014874933e-01	 1.8409794613e+00	-2.5144256759e+00
 2.5726409930e-01	 1.8453915989e+00	-2.5057917374e+00
 2.1433921849e-01	 1.8490687050e+00	-2.4998204626e+00
 1.7140026596e-01	 1.8520306682e+00	-2.4956969383e+00
 1.2847265116e-01	 1.8542978437e+00	-2.4925907985e+00
 8.5580999907e-02	 1.8558909863e+00	-2.4896635063e+00
 4.2749124825e-02	 1.8568311855e+00	-2.4860750513e+00
 0.0000000000e+00	 1.8571398015e+00	-2.4809900414e+00
 4.3158395295e-01	 1.8371670174e+00	-2.6033979229e+00
 3.8865614018e-01	 1.8439496671e+00	-2.5831967282e+00
 3.4560458304e-01	 1.8499350174e+00	-2.5678884628e+00
 3.0245765804e-01	 1.8551412844e+00	-2.5566951365e+00
 2.5924311577e-01	 1.8595873627e+00	-2.5487900191e+00
 2.1598803324e-01	 1.8632927551e+00	-2.5433078014e+00
 1.7271877076e-01	 1.8662775033e+00	-2.5393542522e+00
 1.2946093321e-01	 1.8685621191e+00	-2.5360153050e+00
 8.6239335869e-02	 1.8701675171e+00	-2.5323655201e+00
 4.3077974526e-02	 1.8711149488e+00	-2.5274758867e+00
 0.0000000000e+00	 1.8714259389e+00	-2.5204209380e+00
 4.3487859030e-01	 1.8511916330e+00	-2.6439376183e+00
 3.9162307402e-01	 1.8580260603e+00	-2.6248808310e+00
 3.4824286873e-01	 1.8640571018e+00	-2.6106454496e+00
 3.0476656755e-01	 1.8693031125e+00	-2.6003993922e+00
 2.6122213293e-01	 1.8737831314e+00	-2.5932476447e+00
 2.1763684858e-01	 1.8775168101e+00	-2.5882443562e+00
 1.7403727602e-01	 1.8805243434e+00	-2.5844043873e+00
 1.3044921561e-01	 1.8828263996e+00	-2.5807142243e+00
 8.6897672061e-02	 1.8844440529e+00	-2.5761421904e+00
 4.3406824341e-02	 1.8853987171e+00	-2.5696479029e+00
 0.0000000000e+00	 1.8857120812e+00	-2.5601909419e+00
 4.3817322610e-01	 1.8652162422e+00	-2.6857922371e+00
 3.9459000647e-01	 1.8721024470e+00	-2.6680376021e+00
 3.5088115318e-01	 1.8781791796e+00	-2.6549759315e+00
 3.0707547599e-01	 1.8834649340e+00	-2.6457259794e+00
 2.6320114917e-01	 1.8879788935e+00	-2.6393235651e+00
 2.1928566315e-01	 1.8917408585e+00	-2.6347361724e+00
 1.7535578067e-01	 1.8947711768e+00	-2.6308769615e+00
 1.3143749755e-01	 1.8970906734e+00	-2.6266180800e+00
 8.7556007947e-02	 1.8987205820e+00	-2.6208031802e+00
 4.3735674004e-02	 1.8996824787e+00	-2.6122590750e+00
 0.0000000000e+00	 1.8999982169e+00	-2.5998064802e+00
 4.4146785768e-01	 1.8792408333e+00	-2.7290786272e+00
 3.9755693512e-01	 1.8861788156e+00	-2.7128308915e+00
 3.5351943425e-01	 1.8923012392e+00	-2.7010652701e+00
 3.0938438146e-01	 1.8976267374e+00	-2.6928568316e+00
 2.6518016287e-01	 1.9021746373e+00	-2.6871719818e+00
 2.2093447560e-01	 1.9059648886e+00	-2.6828861256e+00
 1.7667428362e-01	 1.9090179920e+00	-2.6788007053e+00
 1.3242577823e-01	 1.9113549288e+00	-2.6736594662e+00
 8.8214342988e-02	 1.9129970928e+00	-2.6661638309e+00
 4.4064523245e-02	 1.9139662220e+00	-2.6549872855e+00
 0.0000000000e+00	 1.9142843343e+00	-2.6387887093e+00
 4.4476248234e-01	 1.8932653949e+00	-2.7739101698e+00
 4.0052385753e-01	 1.9002551546e+00	-2.7594196899e+00
 3.5615770978e-01	 1.9064232692e+00	-2.7490933299e+00
 3.1169328209e-01	 1.9117885109e+00	-2.7419684869e+00
 2.6715917242e-01	 1.9163703514e+00	-2.7369425230e+00
 2.2258328458e-01	 1.9201888889e+00	-2.7327940394e+00
 1.7799278380e-01	 1.9232647772e+00	-2.7282034937e+00
 1.3341405682e-01	 1.9256191544e+00	-2.7217729708e+00
 8.8872676646e-02	 1.9272735736e+00	-2.7120449520e+00
 4.4393371795e-02	 1.9282499354e+00	-2.6975199577e+00
 0.0000000000e+00	 1.9285704216e+00	-2.6766729688e+00
 4.4805709739e-01	 1.9072899157e+00	-2.8203969070e+00
 4.0349077129e-01	 1.9143314526e+00	-2.8079583068e+00
 3.5879597761e-01	 1.9205452580e+00	-2.7992346808e+00
 3.1400217598e-01	 1.9259502432e+00	-2.7932322867e+00
 2.6913817619e-01	 1.9305660240e+00	-2.7887804117e+00
 2.2423208876e-01	 1.9344128477e+00	-2.7845567974e+00
 1.7931128014e-01	 1.9375115209e+00	-2.7791123789e+00
 1.3440233254e-01	 1.9398833383e+00	-2.7708951023e+00
 8.9531008385e-02	 1.9415500127e+00	-2.7582726198e+00
 4.4722219386e-02	 1.9425336070e+00	-2.7395537045e+00
 0.0000000000e+00	 1.9428564673e+00	-2.7130082606e+00
 4.5135170014e-01	 1.9213143841e+00	-2.8686456637e+00
 4.0645767398e-01	 1.9284076980e+00	-2.8585965422e+00
 3.6143423560e-01	 1.9346671941e+00	-2.8516587910e+00
 3.1631106125e-01	 1.9401119226e+00	-2.8468145653e+00
 2.7111717258e-01	 1.9447616437e+00	-2.8428266271e+00
 2.2588088679e-01	 1.9486367534e+00	-2.8382684506e+00
 1.8062977156e-01	 1.9517582114e+00	-2.8315536195e+00
 1.3539060456e-01	 1.9541474690e+00	-2.8209642199e+00
 9.0189337666e-02	 1.9558263986e+00	-2.8046779857e+00
 4.5051065750e-02	 1.9568172253e+00	-2.7807939933e+00
 0.0000000000e+00	 1.9571424596e+00	-2.7473567494e+00
 4.5464628790e-01	 1.9353387887e+00	-2.9187601645e+00
 4.0942456316e-01	 1.9424838794e+00	-2.9114798500e+00
 3.6407248158e-01	 1.9487890659e+00	-2.9065302128e+00
 3.1861993602e-01	 1.9542735376e+00	-2.9028768319e+00
 2.7309615996e-01	 1.9589571987e+00	-2.8992180578e+00
 2.2752967731e-01	 1.9628605943e+00	-2.8940203208e+00
 1.8194825698e-01	 1.9660048370e+00	-2.8855527099e+00
 1.3637887209e-01	 1.9684115347e+00	-2.8719204662e+00
 9.0847663952e-02	 1.9701027195e+00	-2.8510970917e+00
 4.5379910618e-02	 1.9711007787e+00	-2.8209548246e+00
 0.0000000000e+00	 1.9714283870e+00	-2.7792932860e+00
 4.5794085798e-01	 1.9493631180e+00	-2.9708411451e+00
 4.1239143643e-01	 1.9565599852e+00	-2.9667494939e+00
 3.6671071340e-01	 1.9629108619e+00	-2.9640087589e+00
 3.2092879839e-01	 1.9684350766e+00	-2.9615759439e+00
 2.7507513672e-01	 1.9731526776e+00	-2.9580876499e+00
 2.2917845898e-01	 1.9770843589e+00	-2.9519010982e+00
 1.8326673532e-01	 1.9802513862e+00	-2.9411344077e+00
 1.3736713431e-01	 1.9826755239e+00	-2.9237057035e+00
 9.1505986705e-02	 1.9843789638e+00	-2.8973706952e+00
 4.5708753720e-02	 1.9853842553e+00	-2.8597584253e+00
 0.0000000000e+00	 1.9857142377e+00	-2.8084049503e+00
 4.6123540769e-01	 1.9633873606e+00	-3.0249864595e+00
 4.1535829135e-01	 1.9706360040e+00	-3.0245426984e+00
 3.6934892891e-01	 1.9770325707e+00	-3.0242496724e+00
 3.2323764649e-01	 1.9825965280e+00	-3.0230642734e+00
 2.7705410124e-01	 1.9873480687e+00	-3.0195645475e+00
 2.3082723046e-01	 1.9913080356e+00	-3.0119969359e+00
 1.8458520551e-01	 1.9944978474e+00	-2.9983227601e+00
 1.3835539043e-01	 1.9969394250e+00	-2.9762634519e+00
 9.2164305388e-02	 1.9986551198e+00	-2.9433440996e+00
 4.6037594790e-02	 1.9996676437e+00	-2.8969349548e+00
 0.0000000000e+00	 2.0000000000e+00	-2.8342906147e+00
