x	y	stress_yy
 1.000000000000000e+00	 0.000000000000000e+00	 1.831844818609206e+01
 9.998338218507750e-01	 2.301879740688203e-02	 1.835077032233745e+01
 9.993275599243348e-01	 4.608215271279779e-02	 1.836630300081858e+01
 9.984697124756583e-01	 6.917769523648053e-02	 1.836372825874073e+01
 9.972489236794969e-01	 9.229260277661558e-02	 1.834164786046683e+01
 9.956540178012001e-01	 1.154136152499791e-01	 1.829858334733592e+01
 9.936740343365396e-01	 1.385270506335803e-01	 1.823297676974276e+01
 9.912982639881663e-01	 1.616188232546628e-01	 1.814319217917140e+01
 9.885162853320295e-01	 1.846744644584668e-01	 1.802751795667260e+01
 9.853180020131134e-01	 2.076791456684508e-01	 1.788417005137700e+01
 9.816936802964240e-01	 2.306177038372821e-01	 1.771129619784595e+01
 1.014285762337685e+00	 0.000000000000000e+00	 1.798611114487940e+01
 1.014117210207158e+00	 2.334763847636930e-02	 1.800578952978937e+01
 1.013603715943827e+00	 4.674047139590417e-02	 1.800912790219754e+01
 1.012733613491393e+00	 7.016595135258462e-02	 1.799483760608987e+01
 1.011495384797893e+00	 9.361107297002941e-02	 1.796155893163934e+01
 1.009877694474696e+00	 1.170623867344661e-01	 1.790786174184092e+01
 1.007869425438318e+00	 1.405060151646194e-01	 1.783224675871910e+01
 1.005459715400836e+00	 1.639276713629985e-01	 1.773314757680798e+01
 1.002637994060108e+00	 1.873126799789160e-01	 1.760893346959113e+01
 9.993940208268849e-01	 2.106460005981402e-01	 1.745791305098282e+01
 9.957179229122425e-01	 2.339122535574748e-01	 1.727833884856305e+01
 1.028571613012482e+00	 0.000000000000000e+00	 1.765960914523068e+01
 1.028400686885902e+00	 2.367648157850007e-02	 1.766916647561938e+01
 1.027879960240766e+00	 4.739879414830282e-02	 1.766283800417668e+01
 1.026997602708497e+00	 7.115421357755074e-02	 1.763936006092601e+01
 1.025741934009444e+00	 9.492955131367199e-02	 1.759740661717075e+01
 1.024101459100028e+00	 1.187111684111830e-01	 1.753559050330519e+01
 1.022064904316570e+00	 1.424849919293243e-01	 1.745246526842203e+01
 1.019621254379648e+00	 1.662365337446359e-01	 1.734652773971274e+01
 1.016759790108138e+00	 1.899509118092326e-01	 1.721622133679190e+01
 1.013470126677695e+00	 2.136128738698931e-01	 1.705994019170813e+01
 1.009742252244628e+00	 2.372068236462269e-01	 1.687603411939218e+01
 1.042857540357000e+00	 0.000000000000000e+00	 1.733973560216076e+01
 1.042684240221567e+00	 2.400532644483651e-02	 1.734134050868598e+01
 1.042156281155643e+00	 4.805712043257811e-02	 1.732752169776149e+01
 1.041261668477513e+00	 7.214248110459021e-02	 1.729703617989360e+01
 1.039988559678984e+00	 9.624803673113663e-02	 1.724858678588443e+01
 1.038325300060698e+00	 1.203599589340155e-01	 1.718082398990393e+01
 1.036260459377960e+00	 1.444639793119433e-01	 1.709234836142308e+01
 1.033782869359052e+00	 1.685454085144208e-01	 1.698171369458479e+01
 1.030881661943093e+00	 1.925891577952661e-01	 1.684743085982997e+01
 1.027546308069888e+00	 2.165797630611406e-01	 1.668797241741048e+01
 1.023766656840262e+00	 2.405014114133076e-01	 1.650177802570239e+01
 1.057143532703853e+00	 0.000000000000000e+00	 1.702724101122834e+01
 1.056967858548713e+00	 2.433417280694075e-02	 1.702272719488619e+01
 1.056432667028950e+00	 4.871544971131429e-02	 1.700326255949930e+01
 1.055525799148979e+00	 7.313075312691440e-02	 1.696762050484495e+01
 1.054235250171347e+00	 9.756652814601664e-02	 1.691452792136877e+01
 1.052549205740208e+00	 1.220087569568488e-01	 1.684266763234424e+01
 1.050456079029154e+00	 1.464429756967244e-01	 1.675068145672931e+01
 1.047944548773499e+00	 1.708542937871996e-01	 1.663717393215791e+01
 1.045003598031943e+00	 1.952274157828657e-01	 1.650071673280789e+01
 1.041622553507811e+00	 2.195466657493138e-01	 1.633985381083093e+01
 1.037791125245829e+00	 2.437960141684862e-01	 1.615310728254369e+01
 1.071429578385649e+00	 0.000000000000000e+00	 1.672283580873609e+01
 1.071251530201898e+00	 2.466302039637492e-02	 1.671371990195517e+01
 1.070709106201178e+00	 4.937378144709573e-02	 1.669013967207454e+01
 1.069789983073436e+00	 7.411902883773466e-02	 1.665088063048170e+01
 1.068481993851369e+00	 9.888502448190539e-02	 1.659468894799862e+01
 1.066773164522058e+00	 1.236575611335686e-01	 1.652027452970962e+01
 1.064651751676819e+00	 1.484219794679160e-01	 1.642631470702973e+01
 1.062106281057439e+00	 1.731631876778187e-01	 1.631145857758820e+01
 1.059125586841663e+00	 1.978656836178809e-01	 1.617433201782655e+01
 1.055698851495811e+00	 2.225135795118439e-01	 1.601354338623360e+01
 1.051815646008011e+00	 2.470906292215318e-01	 1.582768992682157e+01
 1.085715665735001e+00	 0.000000000000000e+00	 1.642719300631498e+01
 1.085535243515682e+00	 2.499186894470118e-02	 1.641469125925472e+01
 1.084985587012820e+00	 5.003211510250672e-02	 1.638822791961473e+01
 1.084054208601425e+00	 7.510730743026230e-02	 1.634659634554177e+01
 1.082728779083882e+00	 1.002035246623961e-01	 1.628855722844212e+01
 1.080997164789749e+00	 1.253063701180604e-01	 1.621284231382736e+01
 1.078847465727619e+00	 1.504009890097661e-01	 1.611815874058908e+01
 1.076268054645321e+00	 1.754720883011241e-01	 1.600319402068717e+01
 1.073247616839224e+00	 2.005039591461607e-01	 1.586662167453927e+01
 1.069775190538234e+00	 2.254805019261618e-01	 1.570710752944943e+01
 1.065840207673492e+00	 2.503852538822138e-01	 1.552331667920358e+01
 1.100001783084519e+00	 0.000000000000000e+00	 1.614095062038627e+01
 1.099818986824623e+00	 2.532071818348164e-02	 1.612599450390625e+01
 1.099262097804366e+00	 5.069045014013161e-02	 1.609759826000454e+01
 1.098318464083486e+00	 7.609558809770867e-02	 1.605455884085062e+01
 1.096975594233721e+00	 1.015220276110822e-01	 1.599564671707624e+01
 1.095221194926784e+00	 1.269551825642097e-01	 1.591961025776808e+01
 1.093043209588223e+00	 1.523800027065229e-01	 1.582518073466638e+01
 1.090429857971597e+00	 1.777809937719623e-01	 1.571107796423090e+01
 1.087369676491597e+00	 2.031422402135547e-01	 1.557601659347800e+01
 1.083851559139426e+00	 2.284474305696987e-01	 1.541871302651879e+01
 1.079864798788953e+00	 2.536798854603011e-01	 1.523789297856528e+01
 1.114287918766816e+00	 0.000000000000000e+00	 1.586471391489426e+01
 1.114102748463282e+00	 2.564956784427844e-02	 1.584796472345927e+01
 1.113538626916308e+00	 5.134878602255466e-02	 1.581831797626918e+01
 1.112582737870157e+00	 7.708387003328505e-02	 1.577456997824181e+01
 1.111222427665721e+00	 1.028405322515569e-01	 1.571549625533064e+01
 1.109445243316661e+00	 1.286039971259019e-01	 1.563985660658589e+01
 1.107238971665293e+00	 1.543590189424345e-01	 1.554640079073073e+01
 1.104591679470715e+00	 1.800899022051795e-01	 1.543387485285620e+01
 1.101491754265754e+00	 2.057805246659122e-01	 1.530102808797815e+01
 1.097927945803734e+00	 2.314143630198855e-01	 1.514662062815261e+01
 1.093889407901079e+00	 2.569745212655634e-01	 1.496943162866890e+01
 1.128574061114501e+00	 0.000000000000000e+00	 1.559905747384235e+01
 1.128386516766216e+00	 2.597841765865374e-02	 1.558092000425606e+01
 1.127815162689139e+00	 5.200712221236022e-02	 1.555045090888075e+01
 1.126847018311981e+00	 7.807215243020288e-02	 1.550644161495703e+01
 1.125469267744715e+00	 1.041590375074135e-01	 1.544766799639411e+01
 1.123669298342884e+00	 1.302528124570227e-01	 1.537289611062292e+01
 1.121434740365498e+00	 1.563380361017492e-01	 1.528088858475420e+01
 1.118753507577126e+00	 1.823988117156219e-01	 1.517041164884816e+01
 1.115613838628670e+00	 2.084188103490824e-01	 1.504024280409975e+01
 1.112004339035504e+00	 2.343812968541535e-01	 1.488917910257312e+01
 1.107914023556551e+00	 2.602691586077694e-01	 1.471604600287026e+01
 1.142860198460186e+00	 0.000000000000000e+00	 1.534452711851247e+01
 1.142670280067985e+00	 2.630726735816965e-02	 1.532516249373728e+01
 1.142091693463350e+00	 5.266545817213261e-02	 1.529405767065488e+01
 1.141111293759497e+00	 7.906043448167339e-02	 1.524999497867556e+01
 1.139716102835537e+00	 1.054775423022454e-01	 1.519174594797338e+01
 1.137893348388953e+00	 1.319016272114574e-01	 1.511807774366798e+01
 1.135630504095502e+00	 1.583170525687151e-01	 1.502776026853178e+01
 1.132915330725281e+00	 1.847077204181359e-01	 1.491957392449045e+01
 1.129735918047314e+00	 2.110570951089146e-01	 1.479231801199915e+01
 1.126080727339082e+00	 2.373482296499335e-01	 1.464481973403488e+01
 1.121938634302054e+00	 2.635637947966888e-01	 1.447594375806514e+01
 9.816936802964240e-01	 2.306177038372821e-01	 1.771129619784595e+01
 9.776342863994824e-01	 2.534730768946625e-01	 1.750454565779166e+01
 9.731306880439857e-01	 2.762311524069800e-01	 1.725968419811506e+01
 9.681744667976357e-01	 2.988759714563225e-01	 1.697530833856944e+01
 9.627577163271480e-01	 3.213913671440238e-01	 1.665042435256665e+01
 9.568730786461752e-01	 3.437610012650069e-01	 1.628448832330899e+01
 9.505137794457967e-01	 3.659684029576715e-01	 1.587744427272590e+01
 9.436736622717954e-01	 3.879970091915093e-01	 1.542975966564149e+01
 9.363472213109787e-01	 4.098302069345519e-01	 1.494245757203107e+01
 9.285296325490471e-01	 4.314513768232032e-01	 1.441714476457266e+01
 9.202167830650884e-01	 4.528439381382666e-01	 1.385603503871701e+01
 9.957179229122425e-01	 2.339122535574748e-01	 1.727833884856305e+01
 9.916005374791480e-01	 2.570941330418181e-01	 1.706739427132448e+01
 9.870326017877620e-01	 2.801773250107799e-01	 1.682236310441419e+01
 9.820055771421120e-01	 3.031456425612922e-01	 1.654190748396431e+01
 9.765114442609665e-01	 3.259826878383744e-01	 1.622506262005890e+01
 9.705427400435855e-01	 3.486718892333964e-01	 1.587127371922215e+01
 9.640925934049355e-01	 3.711965405861092e-01	 1.548043118520950e+01
 9.571547599412131e-01	 3.935398422506569e-01	 1.505290345816799e+01
 9.497236551845439e-01	 4.156849438654169e-01	 1.458956683343475e+01
 9.417943862059640e-01	 4.376149886466908e-01	 1.409183159514656e+01
 9.333627813284100e-01	 4.593131590072458e-01	 1.356166380806264e+01
 1.009742252244628e+00	 2.372068236462269e-01	 1.687603411939218e+01
 1.005566874916577e+00	 2.607152115768242e-01	 1.666305671709773e+01
 1.000934601491359e+00	 2.841235220132460e-01	 1.641965147371133e+01
 9.958367730085770e-01	 3.074153400658279e-01	 1.614454790838445e+01
 9.902652572383444e-01	 3.305740369218140e-01	 1.583681410541993e+01
 9.842124859648721e-01	 3.535828075675452e-01	 1.549589064082288e+01
 9.776714913264066e-01	 3.764247105426353e-01	 1.512162297787803e+01
 9.706359409690050e-01	 3.990827095843819e-01	 1.471429174662869e+01
 9.631001717696162e-01	 4.215397170000070e-01	 1.427464030415047e+01
 9.550592218841777e-01	 4.437786385842048e-01	 1.380389896608283e+01
 9.465088608791017e-01	 4.657824198802068e-01	 1.330380530650200e+01
 1.023766656840262e+00	 2.405014114133076e-01	 1.650177802570239e+01
 1.019533287305854e+00	 2.643363095427448e-01	 1.628861625668920e+01
 1.014836675801436e+00	 2.880697401918617e-01	 1.604834053378893e+01
 1.009668043101530e+00	 3.116850604831455e-01	 1.577974929311692e+01
 1.004019144026986e+00	 3.351654106447972e-01	 1.548194710641867e+01
 9.978823052463919e-01	 3.584937522568460e-01	 1.515437574421335e+01
 9.912504621207464e-01	 3.816529085574751e-01	 1.479684388447656e+01
 9.841171943454884e-01	 4.046256066658365e-01	 1.440955493382170e+01
 9.764767601419596e-01	 4.273945215566902e-01	 1.399313241101776e+01
 9.683241287506194e-01	 4.499423216018177e-01	 1.354864233601918e+01
 9.596550109810312e-01	 4.722517154736102e-01	 1.307761207287324e+01
 1.037791125245829e+00	 2.437960141684862e-01	 1.615310728254369e+01
 1.033499763241064e+00	 2.679574239826441e-01	 1.594131375398411e+01
 1.028738813364647e+00	 2.920159763241097e-01	 1.570539489740878e+01
 1.023499376125471e+00	 3.159548003264606e-01	 1.544421937974267e+01
 1.017773093394594e+00	 3.397568052577776e-01	 1.515693156662527e+01
 1.011552186724500e+00	 3.634047192906907e-01	 1.484297984977914e+01
 1.004829494698492e+00	 3.868811303608553e-01	 1.450214378275350e+01
 9.975985090609817e-01	 4.101685289681731e-01	 1.413455954146419e+01
 9.898534093773371e-01	 4.332493527538351e-01	 1.374074320972879e+01
 9.815890959722187e-01	 4.561060326656014e-01	 1.332161138320862e+01
 9.728012208980669e-01	 4.787210405039170e-01	 1.287849858909183e+01
 1.051815646008011e+00	 2.470906292215318e-01	 1.582768992682157e+01
 1.047466291316291e+00	 2.715785519395860e-01	 1.561853717071709e+01
 1.042641002827651e+00	 2.959622271874738e-01	 1.538794100581869e+01
 1.037330760784896e+00	 3.202245561089889e-01	 1.513484143536648e+01
 1.031527094108872e+00	 3.443482170112095e-01	 1.485842563495410e+01
 1.025222119235553e+00	 3.683157046584718e-01	 1.455815366711809e+01
 1.018408577970180e+00	 3.921093716830016e-01	 1.423378315396743e+01
 1.011079874105802e+00	 4.157114719645439e-01	 1.388539247120752e+01
 1.003230108551512e+00	 4.391042058098098e-01	 1.351340201163191e+01
 9.948541127159070e-01	 4.622697667416280e-01	 1.311859305934126e+01
 9.859474798940767e-01	 4.851903896875877e-01	 1.270212381876722e+01
 1.065840207673492e+00	 2.503852538822138e-01	 1.552331667920358e+01
 1.061432860125619e+00	 2.751996904566348e-01	 1.531781189061619e+01
 1.056543232837103e+00	 2.999084895594362e-01	 1.509325648384661e+01
 1.051162185784308e+00	 3.244943243439465e-01	 1.484866270660155e+01
 1.045281134937524e+00	 3.489396421555472e-01	 1.458326328540268e+01
 1.038892091615907e+00	 3.732267043495812e-01	 1.429653464600086e+01
 1.031987700846347e+00	 3.973376282541403e-01	 1.398821922880249e+01
 1.024561278470266e+00	 4.212544311281006e-01	 1.365834650715903e+01
 1.016606846740247e+00	 4.449590759429827e-01	 1.330725230206888e+01
 1.008119168148615e+00	 4.684335187959696e-01	 1.293559598009717e+01
 9.990937772329286e-01	 4.916597577410830e-01	 1.254437512319084e+01
 1.079864798788953e+00	 2.536798854603011e-01	 1.523789297856528e+01
 1.075399458263132e+00	 2.788208365768544e-01	 1.503679179688359e+01
 1.070445492039662e+00	 3.038547602174804e-01	 1.481876032377940e+01
 1.064993639828203e+00	 3.287641015445487e-01	 1.458288377249674e+01
 1.059035204648252e+00	 3.535310769412446e-01	 1.432844290068582e+01
 1.052562092701919e+00	 3.781377143534121e-01	 1.405493485108135e+01
 1.045566852237530e+00	 4.025658958044971e-01	 1.376209321192675e+01
 1.038042711144692e+00	 4.267974019319960e-01	 1.344990694713973e+01
 1.029983613019307e+00	 4.508139583717223e-01	 1.311863783293129e+01
 1.021384251437273e+00	 4.745972837946980e-01	 1.276883603101045e+01
 1.012240102178491e+00	 4.981291393808635e-01	 1.240135342958376e+01
 1.093889407901079e+00	 2.569745212655634e-01	 1.496943162866890e+01
 1.089366074322916e+00	 2.824419873433087e-01	 1.477325103546154e+01
 1.084347769081984e+00	 3.078010359390896e-01	 1.456200382370899e+01
 1.078825111621082e+00	 3.330338842240116e-01	 1.433484871579833e+01
 1.072789292008760e+00	 3.581225176187560e-01	 1.409111673333176e+01
 1.066232111329943e+00	 3.830487306593562e-01	 1.383032976855728e+01
 1.059146021054265e+00	 4.077941700642983e-01	 1.355221848847163e+01
 1.051524161119399e+00	 4.323403798493822e-01	 1.325673926146407e+01
 1.043360396464453e+00	 4.566688483143967e-01	 1.294408978414378e+01
 1.034649351748811e+00	 4.807610567038857e-01	 1.261472307966749e+01
 1.025386443994631e+00	 5.045985293233902e-01	 1.226935953931365e+01
 1.107914023556551e+00	 2.602691586077694e-01	 1.471604600287026e+01
 1.103332696899054e+00	 2.860631397990621e-01	 1.452507640336680e+01
 1.098250052610725e+00	 3.117473135017465e-01	 1.432066221354835e+01
 1.092656589867442e+00	 3.373036688955506e-01	 1.410203604009397e+01
 1.086543385786751e+00	 3.627139604385353e-01	 1.386858116655380e+01
 1.079902136336337e+00	 3.879597492568057e-01	 1.361984796227001e+01
 1.072725196207091e+00	 4.130224467637699e-01	 1.335556972549688e+01
 1.065005617384702e+00	 4.378833603534111e-01	 1.307567768826919e+01
 1.056737186151450e+00	 4.625237409893744e-01	 1.278031489943540e+01
 1.047914458250161e+00	 4.869248324896046e-01	 1.246984869628852e+01
 1.038532791945218e+00	 5.110679222851237e-01	 1.214488147515263e+01
 1.121938634302054e+00	 2.635637947966888e-01	 1.447594375806514e+01
 1.117299314585631e+00	 2.896842909871785e-01	 1.429026030744359e+01
 1.112152331272543e+00	 3.156935896829344e-01	 1.409252690859448e+01
 1.106488063271783e+00	 3.415734520723818e-01	 1.388205026762645e+01
 1.100297474749929e+00	 3.673054016510370e-01	 1.365826770497277e+01
 1.093572156557455e+00	 3.928707661351533e-01	 1.342076150497669e+01
 1.086304366606542e+00	 4.182507216331378e-01	 1.316927279019237e+01
 1.078487068930921e+00	 4.434263389172351e-01	 1.290371468351086e+01
 1.070113971156061e+00	 4.683786316150235e-01	 1.262418451121725e+01
 1.061179560108253e+00	 4.930886061179267e-01	 1.233097479452996e+01
 1.051679135294118e+00	 5.175373129825247e-01	 1.202458277673271e+01
 9.202167830650884e-01	 4.528439381382666e-01	 1.385603503871701e+01
 9.114046648473878e-01	 4.739928653376373e-01	 1.326189248598638e+01
 9.020912353519670e-01	 4.948802800036434e-01	 1.263670104645153e+01
 8.922746742864819e-01	 5.154899876712747e-01	 1.198248660807559e+01
 8.819539668184718e-01	 5.358060209788083e-01	 1.130214587140456e+01
 8.711289202812919e-01	 5.558126876982258e-01	 1.059946535475933e+01
 8.598001777972277e-01	 5.754946185800570e-01	 9.879130627728404e+00
 8.479692286694867e-01	 5.948368147295444e-01	 9.146725115417230e+00
 8.356384154163032e-01	 6.138246942277596e-01	 8.408717979577785e+00
 8.228109373437806e-01	 6.324441377108051e-01	 7.672440767906540e+00
 8.094908505790605e-01	 6.506815326226161e-01	 6.946052725418466e+00
 9.333627813284100e-01	 4.593131590072458e-01	 1.356166380806264e+01
 9.244247752827184e-01	 4.807642147537833e-01	 1.300217247835621e+01
 9.149782963456433e-01	 5.019500220617313e-01	 1.241585407446210e+01
 9.050214982206021e-01	 5.228541551156739e-01	 1.180461232844252e+01
 8.945533515775020e-01	 5.434604184478213e-01	 1.117109274758625e+01
 8.835736609973344e-01	 5.637528956545838e-01	 1.051869735613546e+01
 8.720830787899015e-01	 5.837159979249101e-01	 9.851591081164704e+00
 8.600831155342660e-01	 6.033345120932596e-01	 9.174699241667529e+00
 8.475761472133474e-01	 6.225936479267381e-01	 8.493695740463750e+00
 8.345654188377984e-01	 6.414790843554314e-01	 7.814981717017639e+00
 8.210550444796545e-01	 6.599770143573945e-01	 7.145654592137046e+00
 9.465088608791017e-01	 4.657824198802068e-01	 1.330380530650200e+01
 9.374449662274109e-01	 4.875356060421673e-01	 1.277761887739238e+01
 9.278654370263987e-01	 5.090198078370565e-01	 1.222813757311477e+01
 9.177684009750668e-01	 5.302183680976542e-01	 1.165714845163991e+01
 9.071528142455878e-01	 5.511148632487299e-01	 1.106706445079981e+01
 8.960184786665549e-01	 5.716931527097678e-01	 1.046093534589042e+01
 8.843660557353290e-01	 5.919374281068149e-01	 9.842451627200719e+00
 8.721970773069457e-01	 6.118322620022576e-01	 9.215940860880485e+00
 8.595139528291983e-01	 6.313626558479829e-01	 8.586356216260789e+00
 8.463199730175579e-01	 6.505140868668495e-01	 7.959256977141459e+00
 8.326193098892952e-01	 6.692725535698656e-01	 7.340781000639395e+00
 9.596550109810312e-01	 4.722517154736102e-01	 1.307761207287324e+01
 9.504652270480891e-01	 4.943070336725015e-01	 1.258328874102298e+01
 9.407526468694558e-01	 5.160896315556505e-01	 1.206859319871621e+01
 9.305153721395666e-01	 5.375826206028219e-01	 1.153520176782316e+01
 9.197523445327681e-01	 5.587693491301476e-01	 1.098531341576309e+01
 9.084633631252294e-01	 5.796334523790161e-01	 1.042165738805251e+01
 8.966490986019068e-01	 6.001589024114224e-01	 9.847494900824003e+00
 8.843111040939087e-01	 6.203300575165623e-01	 9.266614549282000e+00
 8.714518225140709e-01	 6.401317108300180e-01	 8.683321189091684e+00
 8.580745902829160e-01	 6.595491378663692e-01	 8.102418160561456e+00
 8.441836373632470e-01	 6.785681426685646e-01	 7.529182847605695e+00
 9.728012208980669e-01	 4.787210405039170e-01	 1.287849858909183e+01
 9.634855471113760e-01	 5.010784921144978e-01	 1.241450622971055e+01
 9.536399153500362e-01	 5.231594874435458e-01	 1.193253054129003e+01
 9.432624013037896e-01	 5.449469066167819e-01	 1.143414347913631e+01
 9.323519321490816e-01	 5.664238698406905e-01	 1.092134861592493e+01
 9.209083042096341e-01	 5.875737881775672e-01	 1.039658588908920e+01
 9.089321973580297e-01	 6.083804141243842e-01	 9.862731416607019e+00
 8.964251860015402e-01	 6.288278916961995e-01	 9.323092118314918e+00
 8.833897465181827e-01	 6.489008057113672e-01	 8.781394964364802e+00
 8.698292610337306e-01	 6.685842299752990e-01	 8.241770766230772e+00
 8.557480174567735e-01	 6.878637740620275e-01	 7.708732526613136e+00
 9.859474798940767e-01	 4.851903896875877e-01	 1.270212381876722e+01
 9.765059157838942e-01	 5.078499758378683e-01	 1.226684480072235e+01
 9.665272319433628e-01	 5.302293697267743e-01	 1.181550926294138e+01
 9.560094780574259e-01	 5.523112201251403e-01	 1.134959157225636e+01
 9.449515668045673e-01	 5.740784191289722e-01	 1.087091846018846e+01
 9.333532917560440e-01	 5.955141536206587e-01	 1.038167130691986e+01
 9.212153419720944e-01	 6.166019565313522e-01	 9.884384374367507e+00
 9.085393131362222e-01	 6.373257576011928e-01	 9.381938795653282e+00
 8.953277150917490e-01	 6.576699333305543e-01	 8.877552198272367e+00
 8.815839756698585e-01	 6.776193558149491e-01	 8.374763915384165e+00
 8.673124407251396e-01	 6.971594401587902e-01	 7.877415822086878e+00
 9.990937772329286e-01	 4.916597577410830e-01	 1.254437512319084e+01
 9.895263224322676e-01	 5.146214793123250e-01	 1.213611080693421e+01
 9.794145861246581e-01	 5.372992726313681e-01	 1.171332264516492e+01
 9.687565919901648e-01	 5.596755551135029e-01	 1.127739458140889e+01
 9.575512382092630e-01	 5.817329907436078e-01	 1.082999503875884e+01
 9.457983156007349e-01	 6.034545422235297e-01	 1.037307714497820e+01
 9.334985224124954e-01	 6.248235229179774e-01	 9.908875663373797e+00
 9.206534756043400e-01	 6.458236482915676e-01	 9.439900496271555e+00
 9.072657184849856e-01	 6.664390865261035e-01	 8.968926685467277e+00
 8.933387245911578e-01	 6.866545080066284e-01	 8.498980896815494e+00
 8.788768977236079e-01	 7.064551333673871e-01	 8.033324442663311e+00
 1.012240102178491e+00	 4.981291393808635e-01	 1.240135342958376e+01
 1.002546756423119e+00	 5.213929970075802e-01	 1.201832837258940e+01
 9.923019673691437e-01	 5.443691903833595e-01	 1.162198241711732e+01
 9.815037326916951e-01	 5.670399055674747e-01	 1.121361661555363e+01
 9.701509360732091e-01	 5.893875784332123e-01	 1.079475959556817e+01
 9.582433655799834e-01	 6.113949475014185e-01	 1.036716611459798e+01
 9.457817286476292e-01	 6.330451065699113e-01	 9.932812956226329e+00
 9.327676635122770e-01	 6.543215568273484e-01	 9.493892084555707e+00
 9.192037469481085e-01	 6.752082581365386e-01	 9.052801019702654e+00
 9.050934981974861e-01	 6.956896791716466e-01	 8.612130448275209e+00
 8.904413790074432e-01	 7.157508460963548e-01	 8.174649135886327e+00
 1.025386443994631e+00	 5.045985293233902e-01	 1.226935953931365e+01
 1.015567207123072e+00	 5.281645233933461e-01	 1.190972543150747e+01
 1.005189365152042e+00	 5.514391172087801e-01	 1.153770474998951e+01
 9.942508897517067e-01	 5.744042654726615e-01	 1.115452353638147e+01
 9.827506501064427e-01	 5.970421759463997e-01	 1.076158911729110e+01
 9.706884315300646e-01	 6.193353629695629e-01	 1.036048736095905e+01
 9.580649506458910e-01	 6.412667007728053e-01	 9.952977794704312e+00
 9.448818669664171e-01	 6.628194762685597e-01	 9.540986538588701e+00
 9.311417907313339e-01	 6.839774410003836e-01	 9.126597049154558e+00
 9.168482868887002e-01	 7.047248619313129e-01	 8.712038707979289e+00
 9.020058751319096e-01	 7.250465707542284e-01	 8.299673332107652e+00
 1.038532791945218e+00	 5.110679222851237e-01	 1.214488147515263e+01
 1.028587663898750e+00	 5.349360529393342e-01	 1.180672082482456e+01
 1.018076768948577e+00	 5.585090473336626e-01	 1.145689731423707e+01
 1.006998052759889e+00	 5.817686288146692e-01	 1.109657018523454e+01
 9.953503700190041e-01	 6.046967770317856e-01	 1.072704394009194e+01
 9.831335032872549e-01	 6.272757821432017e-01	 1.034976465842941e+01
 9.703481783756770e-01	 6.494882988123111e-01	 9.966314579752503e+00
 9.569960760731446e-01	 6.713173996752270e-01	 9.578404936735929e+00
 9.430798400848772e-01	 6.927466279561625e-01	 9.187867056070392e+00
 9.286030810646587e-01	 7.137600489069369e-01	 8.796641776901268e+00
 9.135703766522705e-01	 7.343422997495432e-01	 8.406767270737863e+00
 1.051679135294118e+00	 5.175373129825247e-01	 1.202458277673271e+01
 1.041608116116776e+00	 5.417075801152571e-01	 1.170591236562994e+01
 1.030964168233969e+00	 5.655789749840386e-01	 1.137614730674273e+01
 1.019745211305930e+00	 5.891329895791028e-01	 1.103638856724207e+01
 1.007950085520931e+00	 6.123513754379840e-01	 1.068785628512338e+01
 9.955785706878293e-01	 6.352161985375726e-01	 1.033188549054926e+01
 9.826314018053823e-01	 6.577098939740801e-01	 9.969920386558986e+00
 9.691102809388425e-01	 6.798153201073742e-01	 9.603507194635828e+00
 9.550178852589553e-01	 7.015158118423989e-01	 9.234285597414351e+00
 9.403578711252181e-01	 7.227952327198277e-01	 8.863978838445901e+00
 9.251348741237903e-01	 7.436380254908352e-01	 8.494382566675734e+00
 8.094908505790605e-01	 6.506815326226161e-01	 6.946052725418466e+00
 7.956830624271515e-01	 6.685238174230594e-01	 6.238937736626871e+00
 7.813933179443889e-01	 6.859585270306811e-01	 5.556819153167638e+00
 7.666281954255775e-01	 7.029738267457829e-01	 4.902804626218657e+00
 7.513950941565928e-01	 7.195585469175594e-01	 4.279774941035924e+00
 7.357022165618519e-01	 7.357022165618521e-01	 3.690361101256893e+00
 7.195585469175590e-01	 7.513950941565929e-01	 3.136924250104724e+00
 7.029738267457828e-01	 7.666281954255776e-01	 2.621538706074295e+00
 6.859585270306806e-01	 7.813933179443893e-01	 2.145978332327536e+00
 6.685238174230592e-01	 7.956830624271517e-01	 1.711706395653877e+00
 6.506815326226163e-01	 8.094908505790606e-01	 1.319869004277588e+00
 8.210550444796545e-01	 6.599770143573945e-01	 7.145654592137046e+00
 8.070500015485216e-01	 6.780741897983326e-01	 6.491831212772270e+00
 7.925561171731763e-01	 6.957579675236486e-01	 5.856763999409924e+00
 7.775800636242920e-01	 7.130163437660235e-01	 5.243637624996261e+00
 7.621293458920958e-01	 7.298379893077620e-01	 4.655463255663630e+00
 7.462122835788024e-01	 7.462122835788025e-01	 4.095054905551146e+00
 7.298379893077620e-01	 7.621293458920964e-01	 3.565008001786069e+00
 7.130163437660234e-01	 7.775800636242922e-01	 3.067680457432618e+00
 6.957579675236482e-01	 7.925561171731764e-01	 2.605176503571094e+00
 6.780741897983322e-01	 8.070500015485218e-01	 2.179333479226780e+00
 6.599770143573943e-01	 8.210550444796544e-01	 1.791711721171177e+00
 8.326193098892952e-01	 6.692725535698656e-01	 7.340781000639395e+00
 8.184170109590402e-01	 6.876246212274461e-01	 6.734302831794920e+00
 8.037189854285399e-01	 7.055574686107333e-01	 6.141037268779682e+00
 7.885319995449450e-01	 7.230589228837120e-01	 5.564216714700337e+00
 7.728636640035178e-01	 7.401174952607817e-01	 5.006947679234113e+00
 7.567224155850235e-01	 7.567224155850236e-01	 4.472186635144104e+00
 7.401174952607816e-01	 7.728636640035181e-01	 3.962717524336926e+00
 7.230589228837118e-01	 7.885319995449455e-01	 3.481131227208754e+00
 7.055574686107329e-01	 8.037189854285400e-01	 3.029807272870325e+00
 6.876246212274458e-01	 8.184170109590403e-01	 2.610898025272314e+00
 6.692725535698655e-01	 8.326193098892952e-01	 2.226315532512030e+00
 8.441836373632470e-01	 6.785681426685646e-01	 7.529182847605695e+00
 8.297840813750883e-01	 6.971751039107528e-01	 6.964717505231244e+00
 8.148819135936146e-01	 7.153570222888413e-01	 6.408581377993947e+00
 7.994839942429858e-01	 7.331015558971893e-01	 5.864027127614539e+00
 7.835980397240893e-01	 7.503970563814085e-01	 5.334223590650083e+00
 7.672326039968961e-01	 7.672326039968963e-01	 4.822231356985642e+00
 7.503970563814082e-01	 7.835980397240895e-01	 4.330979501289622e+00
 7.331015558971890e-01	 7.994839942429861e-01	 3.863243792992072e+00
 7.153570222888415e-01	 8.148819135936152e-01	 3.421626683515973e+00
 6.971751039107525e-01	 8.297840813750883e-01	 3.008539335755173e+00
 6.785681426685646e-01	 8.441836373632471e-01	 2.626185921121281e+00
 8.557480174567735e-01	 6.878637740620275e-01	 7.708732526613136e+00
 8.411512035130448e-01	 7.067256300486032e-01	 7.181528456574540e+00
 8.260448925515365e-01	 7.251566205548785e-01	 6.658395845137145e+00
 8.104360387738634e-01	 7.431442346047952e-01	 6.142581862709060e+00
 7.943324642870420e-01	 7.606766642744333e-01	 5.637286567432493e+00
 7.777428402308016e-01	 7.777428402308020e-01	 5.145638415628501e+00
 7.606766642744328e-01	 7.943324642870419e-01	 4.670670490694122e+00
 7.431442346047951e-01	 8.104360387738637e-01	 4.215297783857425e+00
 7.251566205548781e-01	 8.260448925515365e-01	 3.782295841570673e+00
 7.067256300486029e-01	 8.411512035130450e-01	 3.374281068401117e+00
 6.878637740620274e-01	 8.557480174567736e-01	 2.993692941823586e+00
 8.673124407251396e-01	 6.971594401587902e-01	 7.877415822086878e+00
 8.525183680892905e-01	 7.162761918413502e-01	 7.383271326682546e+00
 8.372079131854400e-01	 7.349562554057512e-01	 6.889533475079237e+00
 8.213881241930269e-01	 7.531869508048717e-01	 6.399419826178583e+00
 8.050669289256061e-01	 7.709563105446461e-01	 5.916132363763493e+00
 7.882531157031213e-01	 7.882531157031215e-01	 5.442833139121676e+00
 7.709563105446458e-01	 8.050669289256063e-01	 4.982620257803696e+00
 7.531869508048714e-01	 8.213881241930272e-01	 4.538504547962972e+00
 7.349562554057508e-01	 8.372079131854402e-01	 4.113387236197916e+00
 7.162761918413497e-01	 8.525183680892905e-01	 3.710038937737037e+00
 6.971594401587901e-01	 8.673124407251396e-01	 3.331080241721994e+00
 8.788768977236079e-01	 7.064551333673871e-01	 8.033324442663311e+00
 8.638855658202043e-01	 7.258267814893441e-01	 7.568558744155987e+00
 8.483709663784602e-01	 7.447559188383650e-01	 7.101096845792133e+00
 8.323402415559250e-01	 7.632296962957591e-01	 6.634104118655696e+00
 8.158014248730130e-01	 7.812359867968365e-01	 6.170756890261402e+00
 7.987634218302354e-01	 7.987634218302355e-01	 5.714218410341352e+00
 7.812359867968363e-01	 8.158014248730134e-01	 5.267614844875100e+00
 7.632296962957585e-01	 8.323402415559253e-01	 4.834011636186077e+00
 7.447559188383648e-01	 8.483709663784607e-01	 4.416390561437740e+00
 7.258267814893438e-01	 8.638855658202044e-01	 4.017627808664844e+00
 7.064551333673871e-01	 8.788768977236078e-01	 3.640473368944499e+00
 8.904413790074432e-01	 7.157508460963548e-01	 8.174649135886327e+00
 8.752527874221663e-01	 7.353773911929373e-01	 7.736075318453306e+00
 8.595340430137332e-01	 7.545556028496262e-01	 7.292235068231386e+00
 8.432923819180074e-01	 7.732724628757974e-01	 6.846220455777412e+00
 8.265359433624941e-01	 7.915156846357957e-01	 6.401156195329162e+00
 8.092737500285259e-01	 8.092737500285260e-01	 5.960176115981629e+00
 7.915156846357952e-01	 8.265359433624941e-01	 5.526399401961529e+00
 7.732724628757972e-01	 8.432923819180078e-01	 5.102906936675186e+00
 7.545556028496260e-01	 8.595340430137337e-01	 4.692718084712983e+00
 7.353773911929372e-01	 8.752527874221667e-01	 4.298768237747483e+00
 7.157508460963549e-01	 8.904413790074435e-01	 3.923887434493023e+00
 9.020058751319096e-01	 7.250465707542284e-01	 8.299673332107652e+00
 8.866200236115567e-01	 7.449280131524817e-01	 7.884573017833906e+00
 8.706971339743936e-01	 7.643552994364409e-01	 7.462140795253120e+00
 8.542445363347229e-01	 7.833152423433283e-01	 7.035375710146006e+00
 8.372704756272800e-01	 8.017953956663135e-01	 6.607326447936413e+00
 8.197840917143736e-01	 8.197840917143742e-01	 6.181068484174944e+00
 8.017953956663133e-01	 8.372704756272804e-01	 5.759680800130013e+00
 7.833152423433281e-01	 8.542445363347232e-01	 5.346222491619137e+00
 7.643552994364405e-01	 8.706971339743941e-01	 4.943709602711858e+00
 7.449280131524816e-01	 8.866200236115570e-01	 4.555092511731505e+00
 7.250465707542285e-01	 9.020058751319096e-01	 4.183234185201638e+00
 9.135703766522705e-01	 7.343422997495432e-01	 8.406767270737863e+00
 8.979872651047554e-01	 7.544786395683292e-01	 8.012866898058961e+00
 8.818602301435767e-01	 7.741550005957150e-01	 7.610047457517259e+00
 8.651966958615209e-01	 7.933580264966917e-01	 7.201196563936884e+00
 8.480050129006019e-01	 8.120751114931807e-01	 6.789263921706911e+00
 8.302944383041598e-01	 8.302944383041599e-01	 6.377239320602780e+00
 8.120751114931802e-01	 8.480050129006023e-01	 5.968130046366507e+00
 7.933580264966916e-01	 8.651966958615213e-01	 5.564938024368921e+00
 7.741550005957150e-01	 8.818602301435772e-01	 5.170637021178242e+00
 7.544786395683287e-01	 8.979872651047555e-01	 4.788150227817733e+00
 7.343422997495435e-01	 9.135703766522707e-01	 4.420328539942159e+00
 9.251348741237903e-01	 7.436380254908352e-01	 8.494382566675734e+00
 9.093545026181421e-01	 7.640292626408308e-01	 8.119831151183019e+00
 8.930233224044176e-01	 7.839546983243546e-01	 7.735226706531406e+00
 8.761488515538501e-01	 8.034008071342293e-01	 7.343328262479043e+00
 8.587395464156911e-01	 8.223548237211875e-01	 6.946964980197925e+00
 8.408047812142654e-01	 8.408047812142655e-01	 6.549015151970959e+00
 8.223548237211870e-01	 8.587395464156912e-01	 6.152384517507174e+00
 8.034008071342290e-01	 8.761488515538506e-01	 5.759984202236309e+00
 7.839546983243543e-01	 8.930233224044180e-01	 5.374708591491315e+00
 7.640292626408302e-01	 9.093545026181423e-01	 4.999413455745539e+00
 7.436380254908355e-01	 9.251348741237905e-01	 4.636894636005588e+00
 6.506815326226163e-01	 8.094908505790606e-01	 1.319869004277588e+00
 6.324441377108048e-01	 8.228109373437807e-01	 9.725005318121662e-01
 6.138246942277593e-01	 8.356384154163033e-01	 6.709405112025419e-01
 5.948368147295442e-01	 8.479692286694869e-01	 4.143865016774421e-01
 5.754946185800568e-01	 8.598001777972279e-01	 2.011739762398254e-01
 5.558126876982253e-01	 8.711289202812919e-01	 2.881691232204839e-02
 5.358060209788079e-01	 8.819539668184722e-01	-1.059431600917224e-01
 5.154899876712745e-01	 8.922746742864820e-01	-2.070807048925308e-01
 4.948802800036430e-01	 9.020912353519670e-01	-2.792234649969941e-01
 4.739928653376368e-01	 9.114046648473878e-01	-3.275846918452208e-01
 4.528439381382665e-01	 9.202167830650881e-01	-3.578915556871747e-01
 6.599770143573943e-01	 8.210550444796544e-01	 1.791711721171177e+00
 6.414790843554309e-01	 8.345654188377986e-01	 1.443179447148124e+00
 6.225936479267378e-01	 8.475761472133476e-01	 1.133868267582014e+00
 6.033345120932594e-01	 8.600831155342663e-01	 8.634508089291180e-01
 5.837159979249100e-01	 8.720830787899015e-01	 6.308594499357787e-01
 5.637528956545833e-01	 8.835736609973346e-01	 4.343186472009486e-01
 5.434604184478211e-01	 8.945533515775020e-01	 2.713846123906409e-01
 5.228541551156736e-01	 9.050214982206022e-01	 1.389914674384733e-01
 5.019500220617310e-01	 9.149782963456434e-01	 3.350292167986613e-02
 4.807642147537830e-01	 9.244247752827184e-01	-4.923154156082943e-02
 4.593131590072458e-01	 9.333627813284101e-01	-1.138170118403152e-01
 6.692725535698655e-01	 8.326193098892952e-01	 2.226315532512030e+00
 6.505140868668492e-01	 8.463199730175580e-01	 1.875969258784190e+00
 6.313626558479827e-01	 8.595139528291983e-01	 1.559005995897838e+00
 6.118322620022574e-01	 8.721970773069458e-01	 1.275523164681132e+00
 5.919374281068147e-01	 8.843660557353294e-01	 1.024988302138150e+00
 5.716931527097676e-01	 8.960184786665553e-01	 8.062639208728341e-01
 5.511148632487294e-01	 9.071528142455881e-01	 6.176387161096126e-01
 5.302183680976538e-01	 9.177684009750672e-01	 4.568644081847314e-01
 5.090198078370561e-01	 9.278654370263989e-01	 3.211974349009324e-01
 4.875356060421670e-01	 9.374449662274114e-01	 2.074446562960247e-01
 4.657824198802068e-01	 9.465088608791018e-01	 1.120122043409553e-01
 6.785681426685646e-01	 8.441836373632471e-01	 2.626185921121281e+00
 6.595491378663686e-01	 8.580745902829160e-01	 2.273697466927255e+00
 6.401317108300179e-01	 8.714518225140712e-01	 1.949431423777093e+00
 6.203300575165623e-01	 8.843111040939093e-01	 1.653862249844355e+00
 6.001589024114220e-01	 8.966490986019068e-01	 1.386933826093271e+00
 5.796334523790159e-01	 9.084633631252296e-01	 1.148077618860339e+00
 5.587693491301475e-01	 9.197523445327686e-01	 9.362362845879869e-01
 5.375826206028216e-01	 9.305153721395665e-01	 7.498921498773465e-01
 5.160896315556502e-01	 9.407526468694557e-01	 5.870999345974937e-01
 4.943070336725011e-01	 9.504652270480891e-01	 4.455230381190904e-01
 4.722517154736102e-01	 9.596550109810310e-01	 3.224726790889589e-01
 6.878637740620274e-01	 8.557480174567736e-01	 2.993692941823586e+00
 6.685842299752985e-01	 8.698292610337308e-01	 2.639038747129329e+00
 6.489008057113668e-01	 8.833897465181827e-01	 2.308055937767910e+00
 6.288278916961991e-01	 8.964251860015403e-01	 2.001550632018549e+00
 6.083804141243839e-01	 9.089321973580301e-01	 1.719887015076865e+00
 5.875737881775670e-01	 9.209083042096341e-01	 1.462999546036312e+00
 5.664238698406903e-01	 9.323519321490821e-01	 1.230409797211608e+00
 5.449469066167815e-01	 9.432624013037897e-01	 1.021247488541753e+00
 5.231594874435456e-01	 9.536399153500364e-01	 8.342752216138256e-01
 5.010784921144974e-01	 9.634855471113758e-01	 6.679163739284525e-01
 4.787210405039172e-01	 9.728012208980670e-01	 5.202855847623495e-01
 6.971594401587901e-01	 8.673124407251396e-01	 3.331080241721994e+00
 6.776193558149488e-01	 8.815839756698589e-01	 2.974525130758570e+00
 6.576699333305539e-01	 8.953277150917490e-01	 2.637635665455120e+00
 6.373257576011925e-01	 9.085393131362224e-01	 2.321506499758549e+00
 6.166019565313520e-01	 9.212153419720943e-01	 2.026868709874974e+00
 5.955141536206586e-01	 9.333532917560440e-01	 1.754096760340097e+00
 5.740784191289717e-01	 9.449515668045674e-01	 1.503219385430945e+00
 5.523112201251401e-01	 9.560094780574260e-01	 1.273934063018558e+00
 5.302293697267740e-01	 9.665272319433633e-01	 1.065624706175794e+00
 5.078499758378680e-01	 9.765059157838943e-01	 8.773821572884750e-01
 4.851903896875877e-01	 9.859474798940765e-01	 7.080270405210498e-01
 7.064551333673871e-01	 8.788768977236078e-01	 3.640473368944499e+00
 6.866545080066282e-01	 8.933387245911584e-01	 3.282555382423805e+00
 6.664390865261031e-01	 9.072657184849857e-01	 2.940781683407199e+00
 6.458236482915671e-01	 9.206534756043400e-01	 2.616494471228701e+00
 6.248235229179774e-01	 9.334985224124955e-01	 2.310740788059833e+00
 6.034545422235295e-01	 9.457983156007354e-01	 2.024274933597084e+00
 5.817329907436075e-01	 9.575512382092632e-01	 1.757564168237387e+00
 5.596755551135026e-01	 9.687565919901651e-01	 1.510797481454623e+00
 5.372992726313677e-01	 9.794145861246583e-01	 1.283897155938624e+00
 5.146214793123248e-01	 9.895263224322677e-01	 1.076532820442864e+00
 4.916597577410830e-01	 9.990937772329286e-01	 8.881376557411780e-01
 7.157508460963549e-01	 8.904413790074435e-01	 3.923887434493023e+00
 6.956896791716466e-01	 9.050934981974866e-01	 3.565403647297705e+00
 6.752082581365383e-01	 9.192037469481085e-01	 3.219969430358102e+00
 6.543215568273478e-01	 9.327676635122771e-01	 2.889135561324284e+00
 6.330451065699109e-01	 9.457817286476290e-01	 2.574216482096721e+00
 6.113949475014181e-01	 9.582433655799836e-01	 2.276288827814917e+00
 5.893875784332121e-01	 9.701509360732092e-01	 1.996192705088949e+00
 5.670399055674743e-01	 9.815037326916953e-01	 1.734535581515340e+00
 5.443691903833591e-01	 9.923019673691438e-01	 1.491698607220653e+00
 5.213929970075799e-01	 1.002546756423119e+00	 1.267845154125331e+00
 4.981291393808635e-01	 1.012240102178491e+00	 1.062931330404693e+00
 7.250465707542285e-01	 9.020058751319096e-01	 4.183234185201638e+00
 7.047248619313127e-01	 9.168482868887010e-01	 3.825227433804883e+00
 6.839774410003833e-01	 9.311417907313339e-01	 3.477547396892060e+00
 6.628194762685597e-01	 9.448818669664175e-01	 3.141916382718073e+00
 6.412667007728051e-01	 9.580649506458917e-01	 2.819869904401016e+00
 6.193353629695627e-01	 9.706884315300651e-01	 2.512751966270172e+00
 5.970421759463996e-01	 9.827506501064432e-01	 2.221712645423132e+00
 5.744042654726613e-01	 9.942508897517068e-01	 1.947707901996143e+00
 5.514391172087798e-01	 1.005189365152043e+00	 1.691501514458276e+00
 5.281645233933456e-01	 1.015567207123073e+00	 1.453669003364012e+00
 5.045985293233903e-01	 1.025386443994631e+00	 1.234603379091301e+00
 7.343422997495435e-01	 9.135703766522707e-01	 4.420328539942159e+00
 7.137600489069367e-01	 9.286030810646588e-01	 4.064074990520744e+00
 6.927466279561619e-01	 9.430798400848776e-01	 3.715745155684874e+00
 6.713173996752266e-01	 9.569960760731446e-01	 3.377197648658829e+00
 6.494882988123111e-01	 9.703481783756774e-01	 3.050144849557625e+00
 6.272757821432012e-01	 9.831335032872551e-01	 2.736145570676664e+00
 6.046967770317851e-01	 9.953503700190042e-01	 2.436599645888056e+00
 5.817686288146687e-01	 1.006998052759889e+00	 2.152744435652792e+00
 5.585090473336621e-01	 1.018076768948577e+00	 1.885653205328618e+00
 5.349360529393340e-01	 1.028587663898750e+00	 1.636235303379149e+00
 5.110679222851237e-01	 1.038532791945217e+00	 1.405238038457608e+00
 7.436380254908355e-01	 9.251348741237905e-01	 4.636894636005588e+00
 7.227952327198275e-01	 9.403578711252182e-01	 4.283892130243865e+00
 7.015158118423985e-01	 9.550178852589556e-01	 3.936680789958150e+00
 6.798153201073739e-01	 9.691102809388428e-01	 3.597222038568963e+00
 6.577098939740799e-01	 9.826314018053828e-01	 3.267362936901470e+00
 6.352161985375724e-01	 9.955785706878293e-01	 2.948826828600970e+00
 6.123513754379838e-01	 1.007950085520931e+00	 2.643205619316048e+00
 5.891329895791025e-01	 1.019745211305930e+00	 2.351953726094484e+00
 5.655789749840383e-01	 1.030964168233969e+00	 2.076383702244492e+00
 5.417075801152568e-01	 1.041608116116776e+00	 1.817663513270827e+00
 5.175373129825247e-01	 1.051679135294118e+00	 1.576815412106254e+00
 4.528439381382665e-01	 9.202167830650881e-01	-3.578915556871747e-01
 4.314513768232033e-01	 9.285296325490469e-01	-3.752907819353559e-01
 4.098302069345520e-01	 9.363472213109786e-01	-3.814088440231052e-01
 3.879970091915094e-01	 9.436736622717951e-01	-3.771940339835416e-01
 3.659684029576717e-01	 9.505137794457966e-01	-3.637985031633053e-01
 3.437610012650071e-01	 9.568730786461752e-01	-3.425567865818542e-01
 3.213913671440240e-01	 9.627577163271481e-01	-3.149636498692090e-01
 2.988759714563226e-01	 9.681744667976357e-01	-2.826516059836357e-01
 2.762311524069802e-01	 9.731306880439857e-01	-2.473684267615202e-01
 2.534730768946626e-01	 9.776342863994822e-01	-2.109549475588484e-01
 2.306177038372821e-01	 9.816936802964242e-01	-1.753234329519762e-01
 4.593131590072458e-01	 9.333627813284101e-01	-1.138170118403128e-01
 4.376149886466910e-01	 9.417943862059641e-01	-1.638403384113796e-01
 4.156849438654171e-01	 9.497236551845435e-01	-2.002148037023972e-01
 3.935398422506571e-01	 9.571547599412135e-01	-2.239963038968840e-01
 3.711965405861093e-01	 9.640925934049352e-01	-2.364489662599414e-01
 3.486718892333965e-01	 9.705427400435856e-01	-2.390224810369050e-01
 3.259826878383746e-01	 9.765114442609666e-01	-2.333288133618487e-01
 3.031456425612923e-01	 9.820055771421120e-01	-2.211186541080039e-01
 2.801773250107800e-01	 9.870326017877615e-01	-2.042579442586732e-01
 2.570941330418183e-01	 9.916005374791478e-01	-1.847047783874309e-01
 2.339122535574748e-01	 9.957179229122425e-01	-1.644869604110530e-01
 4.657824198802068e-01	 9.465088608791018e-01	 1.120122043409553e-01
 4.437786385842050e-01	 9.550592218841775e-01	 3.259206855019703e-02
 4.215397170000070e-01	 9.631001717696162e-01	-3.119710425589961e-02
 3.990827095843820e-01	 9.706359409690051e-01	-8.048275767012392e-02
 3.764247105426354e-01	 9.776714913264067e-01	-1.166033629008758e-01
 3.535828075675455e-01	 9.842124859648724e-01	-1.410849349483605e-01
 3.305740369218143e-01	 9.902652572383446e-01	-1.556169748469274e-01
 3.074153400658280e-01	 9.958367730085771e-01	-1.620282045032491e-01
 2.841235220132461e-01	 1.000934601491359e+00	-1.622624346900183e-01
 2.607152115768244e-01	 1.005566874916577e+00	-1.583548761839770e-01
 2.372068236462269e-01	 1.009742252244628e+00	-1.524091700920396e-01
 4.722517154736102e-01	 9.596550109810310e-01	 3.224726790889612e-01
 4.499423216018179e-01	 9.683241287506192e-01	 2.166695602113242e-01
 4.273945215566904e-01	 9.764767601419596e-01	 1.281093977056931e-01
 4.046256066658366e-01	 9.841171943454887e-01	 5.562737450144484e-02
 3.816529085574754e-01	 9.912504621207464e-01	-2.153588947829466e-03
 3.584937522568462e-01	 9.978823052463918e-01	-4.679889994704900e-02
 3.351654106447973e-01	 1.004019144026986e+00	-8.003782029190276e-02
 3.116850604831456e-01	 1.009668043101530e+00	-1.037388245342075e-01
 2.880697401918619e-01	 1.014836675801436e+00	-1.198851328477648e-01
 2.643363095427450e-01	 1.019533287305854e+00	-1.305507300081254e-01
 2.405014114133076e-01	 1.023766656840262e+00	-1.378771471245859e-01
 4.787210405039172e-01	 9.728012208980670e-01	 5.202855847623473e-01
 4.561060326656015e-01	 9.815890959722186e-01	 3.909113853013642e-01
 4.332493527538352e-01	 9.898534093773371e-01	 2.800366762078368e-01
 4.101685289681732e-01	 9.975985090609815e-01	 1.864916599245303e-01
 3.868811303608555e-01	 1.004829494698492e+00	 1.088945904090186e-01
 3.634047192906908e-01	 1.011552186724500e+00	 4.567580518227565e-02
 3.397568052577777e-01	 1.017773093394594e+00	-4.897729450654031e-03
 3.159548003264608e-01	 1.023499376125470e+00	-4.469772967846519e-02
 2.920159763241100e-01	 1.028738813364647e+00	-7.571010414033097e-02
 2.679574239826443e-01	 1.033499763241064e+00	-1.000109727606029e-01
 2.437960141684862e-01	 1.037791125245829e+00	-1.197434694476418e-01
 4.851903896875877e-01	 9.859474798940765e-01	 7.080270405210523e-01
 4.622697667416281e-01	 9.948541127159070e-01	 5.577025120961381e-01
 4.391042058098099e-01	 1.003230108551511e+00	 4.267924151505325e-01
 4.157114719645438e-01	 1.011079874105801e+00	 3.141526787781801e-01
 3.921093716830018e-01	 1.018408577970179e+00	 2.184291342978599e-01
 3.683157046584720e-01	 1.025222119235553e+00	 1.380813017325002e-01
 3.443482170112096e-01	 1.031527094108872e+00	 7.140667346340712e-02
 3.202245561089890e-01	 1.037330760784897e+00	 1.656512967442803e-02
 2.959622271874740e-01	 1.042641002827651e+00	-2.839685235892375e-02
 2.715785519395862e-01	 1.047466291316291e+00	-6.552250124338177e-02
 2.470906292215318e-01	 1.051815646008011e+00	-9.692183781021235e-02
 4.916597577410830e-01	 9.990937772329286e-01	 8.881376557411758e-01
 4.684335187959697e-01	 1.008119168148615e+00	 7.193024638653516e-01
 4.449590759429830e-01	 1.016606846740247e+00	 5.704681871442081e-01
 4.212544311281008e-01	 1.024561278470266e+00	 4.405455914486207e-01
 3.973376282541404e-01	 1.031987700846347e+00	 3.282387208177133e-01
 3.732267043495814e-01	 1.038892091615907e+00	 2.320681055703280e-01
 3.489396421555473e-01	 1.045281134937523e+00	 1.503944603747249e-01
 3.244943243439466e-01	 1.051162185784308e+00	 8.144251498527599e-02
 2.999084895594364e-01	 1.056543232837103e+00	 2.332464721137595e-02
 2.751996904566350e-01	 1.061432860125619e+00	-2.593598115475637e-02
 2.503852538822138e-01	 1.065840207673492e+00	-6.838305048203264e-02
 4.981291393808635e-01	 1.012240102178491e+00	 1.062931330404693e+00
 4.745972837946981e-01	 1.021384251437272e+00	 8.778534664158457e-01
 4.508139583717224e-01	 1.029983613019306e+00	 7.130469955630954e-01
 4.267974019319963e-01	 1.038042711144692e+00	 5.675051166908902e-01
 4.025658958044973e-01	 1.045566852237530e+00	 4.400191971071485e-01
 3.781377143534123e-01	 1.052562092701918e+00	 3.292010791014368e-01
 3.535310769412447e-01	 1.059035204648252e+00	 2.335058774244094e-01
 3.287641015445488e-01	 1.064993639828203e+00	 1.512549222572668e-01
 3.038547602174806e-01	 1.070445492039662e+00	 8.065852797267525e-02
 2.788208365768544e-01	 1.075399458263132e+00	 1.983829794741121e-02
 2.536798854603012e-01	 1.079864798788953e+00	-3.315129136171246e-02
 5.045985293233903e-01	 1.025386443994631e+00	 1.234603379091301e+00
 4.807610567038857e-01	 1.034649351748811e+00	 1.035387969414316e+00
 4.566688483143969e-01	 1.043360396464453e+00	 8.564102369169471e-01
 4.323403798493825e-01	 1.051524161119399e+00	 6.967719734501392e-01
 4.077941700642985e-01	 1.059146021054265e+00	 5.553795336599934e-01
 3.830487306593562e-01	 1.066232111329943e+00	 4.309649257690409e-01
 3.581225176187561e-01	 1.072789292008759e+00	 3.221074020050858e-01
 3.330338842240117e-01	 1.078825111621081e+00	 2.272552186847385e-01
 3.078010359390897e-01	 1.084347769081983e+00	 1.447472601625646e-01
 2.824419873433090e-01	 1.089366074322916e+00	 7.283424909479463e-02
 2.569745212655634e-01	 1.093889407901079e+00	 9.699296619381181e-03
 5.110679222851237e-01	 1.038532791945217e+00	 1.405238038457607e+00
 4.869248324896047e-01	 1.047914458250161e+00	 1.193835596933059e+00
 4.625237409893745e-01	 1.056737186151450e+00	 1.002344134862801e+00
 4.378833603534112e-01	 1.065005617384702e+00	 8.299988338264006e-01
 4.130224467637700e-01	 1.072725196207091e+00	 6.758473267818983e-01
 3.879597492568058e-01	 1.079902136336336e+00	 5.387692675867697e-01
 3.627139604385357e-01	 1.086543385786751e+00	 4.174964160274339e-01
 3.373036688955508e-01	 1.092656589867441e+00	 3.106329274366515e-01
 3.117473135017467e-01	 1.098250052610725e+00	 2.166755581379360e-01
 2.860631397990623e-01	 1.103332696899054e+00	 1.340335239779533e-01
 2.602691586077694e-01	 1.107914023556551e+00	 6.104777805676087e-02
 5.175373129825247e-01	 1.051679135294118e+00	 1.576815412106254e+00
 4.930886061179270e-01	 1.061179560108253e+00	 1.355029577122308e+00
 4.683786316150236e-01	 1.070113971156061e+00	 1.152545692052965e+00
 4.434263389172353e-01	 1.078487068930921e+00	 9.687558299254566e-01
 4.182507216331380e-01	 1.086304366606542e+00	 8.028738886931293e-01
 3.928707661351534e-01	 1.093572156557455e+00	 6.539533421617412e-01
 3.673054016510371e-01	 1.100297474749929e+00	 5.209055289737363e-01
 3.415734520723819e-01	 1.106488063271783e+00	 4.025181913392910e-01
 3.156935896829346e-01	 1.112152331272543e+00	 2.974739948480376e-01
 2.896842909871788e-01	 1.117299314585631e+00	 2.043687840226696e-01
 2.635637947966888e-01	 1.121938634302054e+00	 1.217293543311027e-01
 2.306177038372821e-01	 9.816936802964242e-01	-1.753234329519762e-01
 2.076791456684508e-01	 9.853180020131134e-01	-1.427028356675382e-01
 1.846744644584667e-01	 9.885162853320296e-01	-1.140021698410290e-01
 1.616188232546627e-01	 9.912982639881665e-01	-8.913187000561340e-02
 1.385270506335802e-01	 9.936740343365396e-01	-6.793420636058123e-02
 1.154136152499789e-01	 9.956540178012000e-01	-5.019079383025549e-02
 9.229260277661536e-02	 9.972489236794971e-01	-3.563001283664091e-02
 6.917769523648026e-02	 9.984697124756582e-01	-2.393425802257543e-02
 4.608215271279750e-02	 9.993275599243346e-01	-1.474694300990587e-02
 2.301879740688172e-02	 9.998338218507749e-01	-7.679200982052325e-03
 0.000000000000000e+00	 1.000000000000000e+00	-2.316232199545354e-03
 2.339122535574748e-01	 9.957179229122425e-01	-1.644869604110535e-01
 2.106460005981401e-01	 9.993940208268849e-01	-1.453536223692202e-01
 1.873126799789159e-01	 1.002637994060108e+00	-1.277980716148099e-01
 1.639276713629985e-01	 1.005459715400836e+00	-1.119562034835697e-01
 1.405060151646193e-01	 1.007869425438318e+00	-9.790982285479810e-02
 1.170623867344659e-01	 1.009877694474696e+00	-8.569120908760564e-02
 9.361107297002917e-02	 1.011495384797892e+00	-7.528774172443553e-02
 7.016595135258435e-02	 1.012733613491392e+00	-6.664652260685067e-02
 4.674047139590386e-02	 1.013603715943827e+00	-5.967893733133423e-02
 2.334763847636898e-02	 1.014117210207157e+00	-5.426510640145565e-02
 0.000000000000000e+00	 1.014285762337685e+00	-5.025818380828850e-02
 2.372068236462269e-01	 1.009742252244628e+00	-1.524091700920396e-01
 2.136128738698931e-01	 1.013470126677695e+00	-1.457546052350107e-01
 1.899509118092326e-01	 1.016759790108138e+00	-1.385379067845682e-01
 1.662365337446358e-01	 1.019621254379648e+00	-1.310938829927926e-01
 1.424849919293242e-01	 1.022064904316569e+00	-1.237164504224628e-01
 1.187111684111829e-01	 1.024101459100028e+00	-1.166605153557096e-01
 9.492955131367173e-02	 1.025741934009444e+00	-1.101440487742384e-01
 7.115421357755045e-02	 1.026997602708497e+00	-1.043503085934523e-01
 4.739879414830253e-02	 1.027879960240767e+00	-9.943016595399312e-02
 2.367648157849975e-02	 1.028400686885902e+00	-9.550449589305599e-02
 0.000000000000000e+00	 1.028571613012482e+00	-9.266659649277820e-02
 2.405014114133076e-01	 1.023766656840262e+00	-1.378771471245859e-01
 2.165797630611406e-01	 1.027546308069888e+00	-1.428268469844656e-01
 1.925891577952661e-01	 1.030881661943092e+00	-1.452618657958644e-01
 1.685454085144206e-01	 1.033782869359052e+00	-1.456907305207480e-01
 1.444639793119431e-01	 1.036260459377960e+00	-1.445934117881071e-01
 1.203599589340152e-01	 1.038325300060698e+00	-1.424207740154926e-01
 9.624803673113642e-02	 1.039988559678984e+00	-1.395943363110983e-01
 7.214248110458996e-02	 1.041261668477513e+00	-1.365063145299308e-01
 4.805712043257780e-02	 1.042156281155644e+00	-1.335199142065293e-01
 2.400532644483619e-02	 1.042684240221567e+00	-1.309698440559699e-01
 0.000000000000000e+00	 1.042857540357000e+00	-1.291630202342988e-01
 2.437960141684862e-01	 1.037791125245829e+00	-1.197434694476418e-01
 2.195466657493138e-01	 1.041622553507811e+00	-1.355496639378941e-01
 1.952274157828656e-01	 1.045003598031943e+00	-1.470619561015645e-01
 1.708542937871995e-01	 1.047944548773499e+00	-1.549386778838984e-01
 1.464429756967243e-01	 1.050456079029154e+00	-1.598210879101152e-01
 1.220087569568486e-01	 1.052549205740208e+00	-1.623306346556306e-01
 9.756652814601643e-02	 1.054235250171347e+00	-1.630666326317058e-01
 7.313075312691415e-02	 1.055525799148979e+00	-1.626043373251265e-01
 4.871544971131398e-02	 1.056432667028950e+00	-1.614934005874122e-01
 2.433417280694042e-02	 1.056967858548713e+00	-1.602566849413769e-01
 0.000000000000000e+00	 1.057143532703853e+00	-1.593894128083631e-01
 2.470906292215318e-01	 1.051815646008011e+00	-9.692183781020991e-02
 2.225135795118439e-01	 1.055698851495811e+00	-1.229567385350605e-01
 1.978656836178807e-01	 1.059125586841663e+00	-1.430785437280515e-01
 1.731631876778185e-01	 1.062106281057438e+00	-1.580726887476231e-01
 1.484219794679158e-01	 1.064651751676819e+00	-1.687181767746035e-01
 1.236575611335684e-01	 1.066773164522058e+00	-1.757828918882942e-01
 9.888502448190516e-02	 1.068481993851369e+00	-1.800194130014390e-01
 7.411902883773439e-02	 1.069789983073437e+00	-1.821613284565378e-01
 4.937378144709543e-02	 1.070709106201178e+00	-1.829200440188057e-01
 2.466302039637459e-02	 1.071251530201898e+00	-1.829820709115526e-01
 0.000000000000000e+00	 1.071429578385649e+00	-1.830067754287681e-01
 2.503852538822138e-01	 1.065840207673492e+00	-6.838305048203042e-02
 2.254805019261618e-01	 1.069775190538234e+00	-1.041325385010325e-01
 2.005039591461607e-01	 1.073247616839224e+00	-1.324971676473337e-01
 1.754720883011241e-01	 1.076268054645321e+00	-1.543679234411446e-01
 1.504009890097659e-01	 1.078847465727620e+00	-1.706391684192590e-01
 1.253063701180602e-01	 1.080997164789749e+00	-1.822022348861254e-01
 1.002035246623959e-01	 1.082728779083882e+00	-1.899395925322858e-01
 7.510730743026205e-02	 1.084054208601425e+00	-1.947196035050327e-01
 5.003211510250640e-02	 1.084985587012820e+00	-1.973918677798676e-01
 2.499186894470083e-02	 1.085535243515682e+00	-1.987831530652096e-01
 0.000000000000000e+00	 1.085715665735001e+00	-1.996938960130916e-01
 2.536798854603012e-01	 1.079864798788953e+00	-3.315129136171246e-02
 2.284474305696987e-01	 1.083851559139426e+00	-7.820901480656528e-02
 2.031422402135546e-01	 1.087369676491597e+00	-1.145456021721551e-01
 1.777809937719622e-01	 1.090429857971597e+00	-1.431371245114950e-01
 1.523800027065227e-01	 1.093043209588223e+00	-1.649720165439963e-01
 1.269551825642095e-01	 1.095221194926783e+00	-1.810431721330523e-01
 1.015220276110820e-01	 1.096975594233721e+00	-1.923406753301118e-01
 7.609558809770840e-02	 1.098318464083486e+00	-1.998451910903003e-01
 5.069045014013127e-02	 1.099262097804365e+00	-2.045220277062141e-01
 2.532071818348128e-02	 1.099818986824623e+00	-2.073158721871593e-01
 0.000000000000000e+00	 1.100001783084519e+00	-2.091461902939007e-01
 2.569745212655634e-01	 1.093889407901079e+00	 9.699296619381181e-03
 2.314143630198855e-01	 1.097927945803735e+00	-4.436255342261219e-02
 2.057805246659121e-01	 1.101491754265755e+00	-8.849114513553991e-02
 1.800899022051794e-01	 1.104591679470715e+00	-1.237282032232734e-01
 1.543590189424344e-01	 1.107238971665294e+00	-1.511359890812995e-01
 1.286039971259017e-01	 1.109445243316661e+00	-1.717881156789398e-01
 1.028405322515567e-01	 1.111222427665721e+00	-1.867610458978273e-01
 7.708387003328478e-02	 1.112582737870157e+00	-1.971263087067077e-01
 5.134878602255434e-02	 1.113538626916308e+00	-2.039434535113140e-01
 2.564956784427809e-02	 1.114102748463282e+00	-2.082537503104329e-01
 0.000000000000000e+00	 1.114287918766816e+00	-2.110746320016366e-01
 2.602691586077694e-01	 1.107914023556551e+00	 6.104777805676065e-02
 2.343812968541535e-01	 1.112004339035504e+00	-1.811158398709045e-03
 2.084188103490823e-01	 1.115613838628670e+00	-5.363811186381473e-02
 1.823988117156219e-01	 1.118753507577126e+00	-9.552200921360798e-02
 1.563380361017490e-01	 1.121434740365498e+00	-1.285796818818294e-01
 1.302528124570224e-01	 1.123669298342884e+00	-1.539456107752706e-01
 1.041590375074133e-01	 1.125469267744714e+00	-1.727623901999180e-01
 7.807215243020260e-02	 1.126847018311981e+00	-1.861719542240756e-01
 5.200712221235990e-02	 1.127815162689139e+00	-1.953075932139605e-01
 2.597841765865338e-02	 1.128386516766216e+00	-2.012867739844970e-01
 0.000000000000000e+00	 1.128574061114501e+00	-2.052047642332160e-01
 2.635637947966888e-01	 1.121938634302054e+00	 1.217293543311024e-01
 2.373482296499335e-01	 1.126080727339082e+00	 5.018815395834442e-02
 2.110570951089145e-01	 1.129735918047314e+00	-9.325516950616564e-03
 1.847077204181358e-01	 1.132915330725281e+00	-5.793026728830908e-02
 1.583170525687149e-01	 1.135630504095502e+00	-9.677918125371199e-02
 1.319016272114572e-01	 1.137893348388953e+00	-1.270486981814618e-01
 1.054775423022452e-01	 1.139716102835537e+00	-1.499282350516908e-01
 7.906043448167313e-02	 1.141111293759497e+00	-1.666106029412528e-01
 5.266545817213228e-02	 1.142091693463350e+00	-1.782832516589645e-01
 2.630726735816929e-02	 1.142670280067985e+00	-1.861203612306135e-01
 0.000000000000000e+00	 1.142860198460186e+00	-1.912757849081850e-01
 1.142860198460186e+00	 0.000000000000000e+00	 1.534452711851247e+01
 1.142670280067985e+00	 2.630726735816965e-02	 1.532516249373728e+01
 1.142091693463350e+00	 5.266545817213261e-02	 1.529405767065488e+01
 1.141111293759497e+00	 7.906043448167339e-02	 1.524999497867556e+01
 1.139716102835537e+00	 1.054775423022454e-01	 1.519174594797338e+01
 1.137893348388953e+00	 1.319016272114574e-01	 1.511807774366798e+01
 1.135630504095502e+00	 1.583170525687151e-01	 1.502776026853178e+01
 1.132915330725281e+00	 1.847077204181359e-01	 1.491957392449045e+01
 1.129735918047314e+00	 2.110570951089146e-01	 1.479231801199915e+01
 1.126080727339082e+00	 2.373482296499335e-01	 1.464481973403488e+01
 1.121938634302054e+00	 2.635637947966888e-01	 1.447594375806514e+01
 1.157145321350848e+00	 0.000000000000000e+00	 1.510202198183658e+01
 1.156953029083323e+00	 2.663609370653390e-02	 1.508155923954532e+01
 1.156367210464742e+00	 5.332374738429320e-02	 1.504995928513376e+01
 1.155374556304495e+00	 8.004864635632550e-02	 1.500599705222925e+01
 1.153961926262349e+00	 1.067959534713262e-01	 1.494844095430322e+01
 1.152116388389058e+00	 1.335503248849476e-01	 1.487605996537981e+01
 1.149825259788246e+00	 1.602959285071759e-01	 1.478763138785539e+01
 1.147076148246399e+00	 1.870164651665215e-01	 1.468194929074445e+01
 1.143856994661234e+00	 2.136951925256247e-01	 1.455783358937637e+01
 1.140156116082579e+00	 2.403149517652857e-01	 1.441413972412804e+01
 1.135962249164317e+00	 2.668581970349608e-01	 1.424976888133615e+01
 1.171430429241259e+00	 0.000000000000000e+00	 1.487156180676742e+01
 1.171235763100916e+00	 2.696491970997891e-02	 1.485024153704049e+01
 1.170642712476017e+00	 5.398203590584637e-02	 1.481837947961174e+01
 1.169637803872298e+00	 8.103685719410998e-02	 1.477475048801240e+01
 1.168207734730349e+00	 1.081143632569114e-01	 1.471812669755636e+01
 1.166339413454362e+00	 1.351990208281577e-01	 1.464728514077800e+01
 1.164020000575990e+00	 1.622748023686339e-01	 1.456101606304989e+01
 1.161236950898263e+00	 1.893252074914670e-01	 1.445813191564983e+01
 1.157978056447746e+00	 2.163332871729747e-01	 1.433747699034024e+01
 1.154231490046761e+00	 2.432816707661114e-01	 1.419793764517899e+01
 1.149985849301752e+00	 2.701525958145355e-01	 1.403845305597352e+01
 1.185715523798227e+00	 0.000000000000000e+00	 1.465243188456725e+01
 1.185518483787291e+00	 2.729374540682903e-02	 1.463047653460082e+01
 1.184918201162855e+00	 5.464032381352620e-02	 1.459856163018433e+01
 1.183901038127150e+00	 8.202506711023397e-02	 1.455546882609656e+01
 1.182453529901738e+00	 1.094327718127217e-01	 1.449998038974497e+01
 1.180562425244395e+00	 1.368477152333390e-01	 1.443088724260544e+01
 1.178214728114948e+00	 1.642536743838632e-01	 1.434699770961102e+01
 1.175397740333110e+00	 1.916339476622378e-01	 1.424714694860545e+01
 1.172099105054432e+00	 2.189713793586628e-01	 1.413020701803904e+01
 1.168306850873861e+00	 2.462483869984567e-01	 1.399509752602577e+01
 1.164009436350526e+00	 2.734469915196950e-01	 1.384079678789572e+01
 1.200000606688556e+00	 0.000000000000000e+00	 1.444395154227876e+01
 1.199801192808974e+00	 2.762257083540859e-02	 1.442156628020879e+01
 1.199193678190934e+00	 5.529861118406665e-02	 1.438978514444939e+01
 1.198164260733292e+00	 8.301327621990451e-02	 1.434740305870711e+01
 1.196699313438714e+00	 1.107511792924778e-01	 1.429321842483197e+01
 1.194785425418687e+00	 1.384964082927426e-01	 1.422604148445582e+01
 1.192409444061335e+00	 1.662325447836382e-01	 1.414470339125597e+01
 1.189558518203180e+00	 1.939426859480992e-01	 1.404806596168353e+01
 1.186220142128876e+00	 2.216094693903864e-01	 1.393503205750682e+01
 1.182382200206109e+00	 2.492151008083671e-01	 1.380455653793067e+01
 1.178033011946810e+00	 2.767413845347217e-01	 1.365565770257339e+01
 1.214285679579051e+00	 0.000000000000000e+00	 1.424547214063187e+01
 1.214083891832494e+00	 2.795139603404196e-02	 1.422284566854109e+01
 1.213469145225935e+00	 5.595689809420178e-02	 1.419136334201216e+01
 1.212427473354969e+00	 8.400148463832864e-02	 1.414983942715928e+01
 1.210945087003475e+00	 1.120695858499002e-01	 1.409709407391388e+01
 1.209008415636766e+00	 1.401451001986199e-01	 1.403196189484528e+01
 1.206604150071366e+00	 1.682114137987335e-01	 1.395330125238613e+01
 1.203719286160712e+00	 1.962514226183162e-01	 1.386000421889083e+01
 1.200341169318661e+00	 2.242475575758435e-01	 1.375100715909054e+01
 1.196457539685740e+00	 2.521818125418887e-01	 1.362530186856636e+01
 1.192056577726769e+00	 2.800357752438980e-01	 1.348194718506955e+01
 1.228570744136519e+00	 0.000000000000000e+00	 1.405637521164801e+01
 1.228366582524378e+00	 2.828022104105345e-02	 1.403368053130160e+01
 1.227744603933536e+00	 5.661518462066559e-02	 1.400264148287958e+01
 1.226690677656422e+00	 8.498969248071346e-02	 1.396209737251450e+01
 1.225190852258222e+00	 1.133879916387098e-01	 1.391089534122410e+01
 1.223231397558160e+00	 1.417937911432220e-01	 1.384789906055496e+01
 1.220798847801256e+00	 1.701902816599234e-01	 1.377199812970140e+01
 1.217880045857944e+00	 1.985601579421542e-01	 1.368211813596916e+01
 1.214462188271370e+00	 2.268856442227320e-01	 1.357723132538326e+01
 1.210532870954982e+00	 2.551485225450670e-01	 1.345636781412183e+01
 1.206080135326573e+00	 2.833301640315056e-01	 1.331862725452337e+01
 1.242855802027764e+00	 0.000000000000000e+00	 1.387607072470058e+01
 1.242649266551153e+00	 2.860904589476743e-02	 1.385346585927106e+01
 1.242020055979417e+00	 5.727347084019214e-02	 1.382299493184341e+01
 1.240953875301895e+00	 8.597789986226598e-02	 1.378352762758746e+01
 1.239436610865154e+00	 1.147063968126271e-01	 1.373394296801528e+01
 1.237454372842400e+00	 1.434424813188002e-01	 1.367313802562324e+01
 1.234993538907220e+00	 1.721691485979826e-01	 1.360003732855031e+01
 1.232040798947115e+00	 2.008688921888784e-01	 1.351360291540253e+01
 1.228583200634588e+00	 2.295237296387498e-01	 1.341284498528727e+01
 1.224608195656070e+00	 2.581152311639481e-01	 1.329683307197633e+01
 1.220103686382390e+00	 2.866245512818271e-01	 1.316470765421202e+01
 1.257140854919592e+00	 0.000000000000000e+00	 1.370399547081206e+01
 1.256931945579345e+00	 2.893787063350823e-02	 1.368162414559463e+01
 1.256295503029258e+00	 5.793175682951539e-02	 1.365182744803344e+01
 1.255217067955632e+00	 8.696610689819327e-02	 1.361351043905859e+01
 1.253682364486469e+00	 1.160248015253727e-01	 1.356558857255635e+01
 1.251677343149015e+00	 1.450911709176057e-01	 1.350699633360526e+01
 1.249188225045472e+00	 1.741480148436853e-01	 1.343669655090997e+01
 1.246201547080464e+00	 2.031776256277540e-01	 1.335369034269254e+01
 1.242704208055896e+00	 2.321618141315945e-01	 1.325702764032022e+01
 1.238683515431234e+00	 2.610819387445777e-01	 1.314581821798510e+01
 1.234127232530387e+00	 2.899189373791445e-01	 1.301924314004047e+01
 1.271425904478810e+00	 0.000000000000000e+00	 1.353961155588758e+01
 1.271214621275483e+00	 2.926669529560020e-02	 1.351760384077070e+01
 1.270570946748737e+00	 5.859004266536945e-02	 1.348856958979503e+01
 1.269480257281874e+00	 8.795431370370244e-02	 1.345145390945786e+01
 1.267928114784366e+00	 1.173432059306674e-01	 1.340521291553752e+01
 1.265900310137534e+00	 1.467398601318897e-01	 1.334882220182996e+01
 1.263382907872229e+00	 1.761268806278061e-01	 1.328128596306900e+01
 1.260362291910229e+00	 2.054863585280462e-01	 1.320164673121653e+01
 1.256825212182878e+00	 2.347998980089641e-01	 1.310899566961535e+01
 1.252758831922707e+00	 2.640486456330018e-01	 1.300248335385530e+01
 1.248150775406733e+00	 2.932133227077401e-01	 1.288133095185064e+01
 1.285710952372222e+00	 0.000000000000000e+00	 1.338240499441087e+01
 1.285497295306093e+00	 2.959551991936768e-02	 1.336087791065212e+01
 1.284846388803535e+00	 5.924832842448829e-02	 1.333267722592012e+01
 1.283743444944865e+00	 8.894252039400048e-02	 1.329679244969561e+01
 1.282173863421045e+00	 1.186616101822318e-01	 1.325222428112793e+01
 1.280123275467486e+00	 1.483885491539035e-01	 1.319799281738720e+01
 1.277577589043704e+00	 1.781057461811192e-01	 1.313314639214601e+01
 1.274523035088650e+00	 2.077950911590204e-01	 1.305677100411077e+01
 1.270946214663118e+00	 2.374379815785564e-01	 1.296800028127177e+01
 1.266834146772720e+00	 2.670153521752661e-01	 1.286602591138122e+01
 1.262174316647597e+00	 2.965077076518963e-01	 1.275010845332917e+01
 1.121938634302054e+00	 2.635637947966888e-01	 1.447594375806514e+01
 1.117299314585631e+00	 2.896842909871785e-01	 1.429026030744359e+01
 1.112152331272543e+00	 3.156935896829344e-01	 1.409252690859448e+01
 1.106488063271783e+00	 3.415734520723818e-01	 1.388205026762645e+01
 1.100297474749929e+00	 3.673054016510370e-01	 1.365826770497277e+01
 1.093572156557455e+00	 3.928707661351533e-01	 1.342076150497669e+01
 1.086304366606542e+00	 4.182507216331378e-01	 1.316927279019237e+01
 1.078487068930921e+00	 4.434263389172351e-01	 1.290371468351086e+01
 1.070113971156061e+00	 4.683786316150235e-01	 1.262418451121725e+01
 1.061179560108253e+00	 4.930886061179267e-01	 1.233097479452996e+01
 1.051679135294118e+00	 5.175373129825247e-01	 1.202458277673271e+01
 1.135962249164317e+00	 2.668581970349608e-01	 1.424976888133615e+01
 1.131264940507173e+00	 2.933051850388362e-01	 1.406953239359446e+01
 1.126053622738153e+00	 3.196395856405782e-01	 1.387845684863764e+01
 1.120318554507902e+00	 3.458429320534967e-01	 1.367592027941727e+01
 1.114050587040045e+00	 3.718965168269621e-01	 1.346141283312028e+01
 1.107241206075309e+00	 3.977814342839482e-01	 1.323454919307631e+01
 1.099882572754026e+00	 4.234786252445681e-01	 1.299508060690438e+01
 1.091967563164214e+00	 4.489689238761272e-01	 1.274290631714006e+01
 1.083489806280113e+00	 4.742331064869885e-01	 1.247808418168475e+01
 1.074443720016364e+00	 4.992519420589114e-01	 1.220084026631838e+01
 1.064824545126001e+00	 5.240062442908520e-01	 1.191157719079311e+01
 1.149985849301752e+00	 2.701525958145355e-01	 1.403845305597352e+01
 1.145230551764896e+00	 2.969260752888895e-01	 1.386399213109232e+01
 1.139954899607613e+00	 3.235855774551876e-01	 1.367976235314351e+01
 1.134149031222319e+00	 3.501124075518628e-01	 1.348520761510897e+01
 1.127803684889805e+00	 3.764876271823806e-01	 1.327986699341780e+01
 1.120910241241152e+00	 4.026920972766797e-01	 1.306338540086576e+01
 1.113460764644947e+00	 4.287065233668244e-01	 1.283552392019017e+01
 1.105448043243582e+00	 4.545115030154289e-01	 1.259616964494549e+01
 1.096865627360146e+00	 4.800875752118876e-01	 1.234534484644618e+01
 1.087707865997702e+00	 5.054152715285448e-01	 1.208321528086586e+01
 1.077969941155748e+00	 5.304751688069794e-01	 1.181009744960778e+01
 1.164009436350526e+00	 2.734469915196950e-01	 1.384079678789572e+01
 1.159196149988179e+00	 3.005469621597157e-01	 1.367235800851892e+01
 1.153856163502768e+00	 3.275315655870698e-01	 1.349509203539053e+01
 1.147979495028594e+00	 3.543818790655260e-01	 1.330850341560899e+01
 1.141556769903712e+00	 3.810787332528600e-01	 1.311217646969900e+01
 1.134579263649660e+00	 4.076027556861920e-01	 1.290578432923686e+01
 1.127038943863363e+00	 4.339344166097565e-01	 1.268909772258970e+01
 1.118928510741666e+00	 4.600540769816966e-01	 1.246199336316737e+01
 1.110241435956580e+00	 4.859420384726595e-01	 1.222446178764455e+01
 1.100971999599649e+00	 5.115785952457937e-01	 1.197661448733104e+01
 1.091115324916893e+00	 5.369440872855219e-01	 1.171869017467203e+01
 1.178033011946810e+00	 2.767413845347217e-01	 1.365565770257339e+01
 1.173161736806400e+00	 3.041678460736917e-01	 1.349340953944717e+01
 1.167757416045464e+00	 3.314775504965320e-01	 1.332315886091782e+01
 1.161809947540286e+00	 3.586513470925324e-01	 1.314446591076281e+01
 1.155309843686275e+00	 3.856698355739673e-01	 1.295695677070863e+01
 1.148248274895508e+00	 4.125134100853290e-01	 1.276033093169747e+01
 1.140617111993330e+00	 4.391623055832140e-01	 1.255436867391201e+01
 1.132408967231106e+00	 4.655966464214871e-01	 1.233893813513069e+01
 1.123617233629833e+00	 4.917964969522419e-01	 1.211400194090603e+01
 1.114236122369594e+00	 5.177419139296247e-01	 1.187962326614822e+01
 1.104260697942969e+00	 5.434130004810946e-01	 1.163597119631184e+01
 1.192056577726769e+00	 2.800357752438980e-01	 1.348194718506955e+01
 1.187127313848934e+00	 3.077887274531949e-01	 1.332598367275339e+01
 1.181658658857547e+00	 3.354235326438813e-01	 1.316273636212156e+01
 1.175640390370952e+00	 3.629208121309280e-01	 1.299181647297713e+01
 1.169062907841999e+00	 3.902609346812700e-01	 1.281288855809014e+01
 1.161917276573373e+00	 4.174240610469351e-01	 1.262567675250635e+01
 1.154195270618903e+00	 4.443901908970469e-01	 1.242997088558085e+01
 1.145889414284543e+00	 4.711392119813576e-01	 1.222563235797089e+01
 1.136993021940326e+00	 4.976509513335730e-01	 1.201259968053080e+01
 1.127500235854920e+00	 5.239052282990043e-01	 1.179089356848560e+01
 1.117406061767513e+00	 5.498819091483128e-01	 1.156062148271868e+01
 1.206080135326573e+00	 2.833301640315056e-01	 1.331862725452338e+01
 1.201092882745161e+00	 3.114096067206020e-01	 1.316897145340264e+01
 1.195559893560861e+00	 3.393695124894245e-01	 1.301265511698051e+01
 1.189470825134154e+00	 3.671902746787588e-01	 1.284933594620417e+01
 1.182815963975389e+00	 3.948520311103353e-01	 1.267871385850066e+01
 1.175586270277928e+00	 4.223347091438544e-01	 1.250053605520475e+01
 1.167773421324141e+00	 4.496180731611049e-01	 1.231460199913075e+01
 1.159369853474618e+00	 4.766817743078645e-01	 1.212076822473939e+01
 1.150368802448477e+00	 5.035054022995908e-01	 1.191895289877551e+01
 1.140764341603015e+00	 5.300685390728993e-01	 1.170914004600823e+01
 1.130551417924058e+00	 5.563508140417918e-01	 1.149138335303889e+01
 1.220103686382390e+00	 2.866245512818271e-01	 1.316470765421202e+01
 1.215058445124458e+00	 3.150304842982906e-01	 1.302131491355170e+01
 1.209461121777253e+00	 3.433154904934693e-01	 1.287179947065653e+01
 1.203301253443449e+00	 3.714597352340707e-01	 1.271586122812930e+01
 1.196569013690954e+00	 3.994431253967306e-01	 1.255323253699042e+01
 1.189255257603850e+00	 4.272453549489311e-01	 1.238368221817739e+01
 1.181351565693099e+00	 4.548459529852373e-01	 1.220701953518331e+01
 1.172850286373970e+00	 4.822243340475645e-01	 1.202309805811987e+01
 1.163744576714707e+00	 5.093598505332340e-01	 1.183181935556157e+01
 1.154028441161263e+00	 5.362318469702763e-01	 1.163313644758529e+01
 1.143696767946139e+00	 5.628197159161465e-01	 1.142705695165991e+01
 1.234127232530387e+00	 2.899189373791445e-01	 1.301924314004047e+01
 1.229024002616201e+00	 3.186513606086377e-01	 1.288200417564693e+01
 1.223362345128567e+00	 3.472614671163222e-01	 1.273910448064842e+01
 1.217131676912398e+00	 3.757291942949100e-01	 1.259028208541820e+01
 1.210322058593197e+00	 4.040342180760229e-01	 1.243529901086110e+01
 1.202924240145814e+00	 4.321559990350092e-01	 1.227394437599905e+01
 1.194929705309834e+00	 4.600738309792942e-01	 1.210603749138584e+01
 1.186330714555242e+00	 4.877668918470147e-01	 1.193143089414740e+01
 1.177120346299433e+00	 5.152142967174402e-01	 1.175001327709584e+01
 1.167292536077051e+00	 5.423951527101019e-01	 1.156171226170479e+01
 1.156842113367289e+00	 5.692886155259922e-01	 1.136649696291405e+01
 1.248150775406733e+00	 2.932133227077401e-01	 1.288133095185064e+01
 1.242989556849769e+00	 3.222722360740202e-01	 1.275007475084134e+01
 1.237263565236651e+00	 3.512074428182910e-01	 1.261355306791380e+01
 1.230962097154558e+00	 3.799986523593224e-01	 1.247153818369122e+01
 1.224075100286626e+00	 4.086253096837797e-01	 1.232381918508752e+01
 1.216593219498494e+00	 4.370666419749334e-01	 1.217020428723323e+01
 1.208507841758404e+00	 4.653017077531252e-01	 1.201052316972868e+01
 1.199811139591073e+00	 4.933094483527717e-01	 1.184462929626513e+01
 1.190496112763076e+00	 5.210687415351478e-01	 1.167240218382428e+01
 1.180556627897764e+00	 5.485584570113426e-01	 1.149374958526840e+01
 1.169987455721043e+00	 5.757575136259440e-01	 1.130860954728816e+01
 1.262174316647597e+00	 2.965077076518963e-01	 1.275010845332917e+01
 1.256955109454539e+00	 3.258931111168156e-01	 1.262460501753742e+01
 1.251164783723348e+00	 3.551534180596824e-01	 1.249417335793801e+01
 1.244792515783490e+00	 3.842681099253539e-01	 1.235861631552185e+01
 1.237828140375747e+00	 4.132164007555682e-01	 1.221774759206749e+01
 1.230262197256569e+00	 4.419772843415474e-01	 1.207139341106796e+01
 1.222085976622863e+00	 4.705295839165800e-01	 1.191939421539877e+01
 1.213291563054103e+00	 4.988520042113921e-01	 1.176160638180124e+01
 1.203871877666055e+00	 5.269231856692950e-01	 1.159790392987908e+01
 1.193820718170790e+00	 5.547217605929656e-01	 1.142818020115689e+01
 1.183132796540936e+00	 5.822264109706171e-01	 1.125234948190937e+01
 1.051679135294118e+00	 5.175373129825247e-01	 1.202458277673271e+01
 1.041608116116776e+00	 5.417075801152571e-01	 1.170591236562994e+01
 1.030964168233969e+00	 5.655789749840386e-01	 1.137614730674273e+01
 1.019745211305930e+00	 5.891329895791028e-01	 1.103638856724207e+01
 1.007950085520931e+00	 6.123513754379840e-01	 1.068785628512338e+01
 9.955785706878293e-01	 6.352161985375726e-01	 1.033188549054926e+01
 9.826314018053823e-01	 6.577098939740801e-01	 9.969920386558986e+00
 9.691102809388425e-01	 6.798153201073742e-01	 9.603507194635826e+00
 9.550178852589553e-01	 7.015158118423989e-01	 9.234285597414351e+00
 9.403578711252181e-01	 7.227952327198277e-01	 8.863978838445901e+00
 9.251348741237903e-01	 7.436380254908352e-01	 8.494382566675736e+00
 1.064824545126001e+00	 5.240062442908520e-01	 1.191157719079311e+01
 1.054627643757190e+00	 5.484786264475274e-01	 1.161082601033177e+01
 1.043850652389678e+00	 5.726484006014743e-01	 1.129944694429779e+01
 1.032491464680596e+00	 5.964968274030253e-01	 1.097848747781929e+01
 1.020548906321208e+00	 6.200054302940132e-01	 1.064909401290131e+01
 1.008022754368101e+00	 6.431560510859452e-01	 1.031250719706596e+01
 9.949137530071114e-01	 6.659309053234386e-01	 9.970056040171380e+00
 9.812236255783677e-01	 6.883126371053294e-01	 9.623150839790876e+00
 9.669550827157742e-01	 7.102843730320811e-01	 9.273274958476613e+00
 9.521118264813074e-01	 7.318297749475440e-01	 8.921975519524478e+00
 9.366985504033987e-01	 7.529330911458786e-01	 8.570853110851790e+00
 1.077969941155748e+00	 5.304751688069794e-01	 1.181009744960778e+01
 1.067647157727559e+00	 5.552496656704091e-01	 1.152618110173258e+01
 1.056737123014926e+00	 5.797178187962588e-01	 1.123202743941564e+01
 1.045237704671911e+00	 6.038606574951999e-01	 1.092863138987699e+01
 1.033147713892791e+00	 6.276594771135987e-01	 1.061706844852201e+01
 1.020466924981896e+00	 6.510958952978120e-01	 1.029848968349017e+01
 1.007196091312141e+00	 6.741519080410896e-01	 9.974115736895666e+00
 9.933369574985162e-01	 6.968099451814584e-01	 9.645229856239625e+00
 9.788922676380573e-01	 7.190529250151160e-01	 9.313170008892556e+00
 9.638657694951804e-01	 7.408643076892963e-01	 8.979320151873981e+00
 9.482622145405371e-01	 7.622281470413493e-01	 8.645100747835292e+00
 1.091115324916893e+00	 5.369440872855219e-01	 1.171869017467203e+01
 1.080666659546745e+00	 5.620206985737621e-01	 1.145056711053346e+01
 1.069623581613069e+00	 5.867872303930618e-01	 1.117253050924417e+01
 1.057983932766892e+00	 6.112244807146443e-01	 1.088552376994064e+01
 1.045746509705525e+00	 6.353135167896200e-01	 1.059055435813140e+01
 1.032911083981049e+00	 6.590357320994003e-01	 1.028868855208337e+01
 1.019478418153453e+00	 6.823729030860695e-01	 9.981045374634462e+00
 1.005450278112578e+00	 7.053072453270419e-01	 9.668789755273966e+00
 9.908294414185685e-01	 7.278214688144412e-01	 9.353124983544451e+00
 9.756197015382420e-01	 7.498988319990696e-01	 9.035284530553374e+00
 9.598258678844229e-01	 7.715231942616434e-01	 8.716523330160449e+00
 1.104260697942969e+00	 5.434130004810946e-01	 1.163597119631184e+01
 1.093686150733604e+00	 5.687917259474445e-01	 1.138264067588775e+01
 1.082510029687462e+00	 5.938566362165515e-01	 1.111966255152983e+01
 1.070730150452557e+00	 6.185882979203762e-01	 1.084792982477296e+01
 1.058345295229253e+00	 6.429675502149553e-01	 1.056838485299032e+01
 1.045355232817389e+00	 6.669755624169363e-01	 1.028201390099231e+01
 1.031760734964027e+00	 6.905938914174142e-01	 9.989841047502415e+00
 1.017563588833845e+00	 7.138045385333613e-01	 9.692921501030140e+00
 1.002766605450071e+00	 7.365900054529947e-01	 9.392334392977181e+00
 9.873736239818964e-01	 7.589333489308475e-01	 9.089175128314039e+00
 9.713895117842751e-01	 7.808182338911576e-01	 8.784547385447780e+00
 1.117406061767513e+00	 5.498819091483128e-01	 1.156062148271868e+01
 1.106705632806998e+00	 5.755627485813165e-01	 1.132112165448000e+01
 1.095396468741459e+00	 6.009260370913970e-01	 1.107219084006324e+01
 1.083476359215923e+00	 6.259521099714127e-01	 1.081467286980453e+01
 1.070944071933819e+00	 6.506215782824841e-01	 1.054944795764102e+01
 1.057799372942749e+00	 6.749153871766472e-01	 1.027742711886378e+01
 1.044043043176842e+00	 6.988148739941590e-01	 9.999546093385767e+00
 1.029676891075605e+00	 7.223018257916974e-01	 9.716758837092383e+00
 1.014703761125330e+00	 7.453585359537156e-01	 9.430030654563325e+00
 9.991275381975498e-01	 7.679678595386151e-01	 9.140331056077660e+00
 9.829531475893118e-01	 7.901132670142886e-01	 8.848626429994948e+00
 1.130551417924058e+00	 5.563508140417918e-01	 1.149138335303889e+01
 1.119725107285783e+00	 5.823337672652362e-01	 1.126478944528312e+01
 1.108282900278415e+00	 6.079954338422673e-01	 1.102893998559016e+01
 1.096222560544009e+00	 6.333159177267716e-01	 1.078463095095959e+01
 1.083542841289068e+00	 6.582756018850847e-01	 1.053268341753230e+01
 1.070243505808959e+00	 6.828552073047597e-01	 1.027393790311737e+01
 1.056325344224879e+00	 7.070358517753396e-01	 1.000924834751060e+01
 1.041790186251149e+00	 7.307991080933313e-01	 9.739475799634498e+00
 1.026640909837109e+00	 7.541270613395418e-01	 9.465481888955757e+00
 1.010881445556606e+00	 7.770023648763554e-01	 9.188122165723181e+00
 9.945167766487508e-01	 7.994082947154326e-01	 8.908239400038143e+00
 1.143696767946139e+00	 5.628197159161465e-01	 1.142705695165991e+01
 1.132744575688819e+00	 5.891047827890633e-01	 1.121247956781061e+01
 1.121169325801685e+00	 6.150648272938309e-01	 1.098878864082627e+01
 1.108968755923832e+00	 6.406797220454709e-01	 1.075673369948698e+01
 1.096141604764842e+00	 6.659296219156364e-01	 1.051707972683436e+01
 1.082687632867852e+00	 6.907950237275002e-01	 1.027060148387895e+01
 1.068607639541119e+00	 7.152568257199923e-01	 1.001807758544232e+01
 1.053903475773768e+00	 7.392963864295434e-01	 9.760284402089376e+00
 1.038578052978170e+00	 7.628955826334110e-01	 9.497989868526476e+00
 1.022635347430469e+00	 7.860368659980541e-01	 9.231947283731653e+00
 1.006080400311810e+00	 8.087033180789859e-01	 8.962889191215027e+00
 1.156842113367289e+00	 5.692886155259922e-01	 1.136649696291405e+01
 1.145764039534964e+00	 5.958757959426564e-01	 1.116308047369646e+01
 1.134055746814624e+00	 6.221342182707570e-01	 1.095066643015608e+01
 1.121714946842410e+00	 6.480435237865279e-01	 1.072995940125903e+01
 1.108740363830987e+00	 6.735836392670183e-01	 1.050167135892603e+01
 1.095131755571259e+00	 6.987348373710959e-01	 1.026651603721309e+01
 1.080889930558540e+00	 7.234777967871520e-01	 1.002520314044651e+01
 1.066016761056750e+00	 7.477936617916149e-01	 9.778432477700058e+00
 1.050515191941278e+00	 7.716641008582622e-01	 9.526888105701303e+00
 1.034389245190546e+00	 7.950713639576943e-01	 9.271232565278071e+00
 1.017644019927708e+00	 8.179983381893458e-01	 9.012101297621383e+00
 1.169987455721043e+00	 5.757575136259440e-01	 1.130860954728817e+01
 1.158783500343078e+00	 6.026468075158748e-01	 1.111553057324965e+01
 1.146942164820587e+00	 6.292036075977139e-01	 1.091355108634211e+01
 1.134461134786759e+00	 6.554073238089599e-01	 1.070333226366862e+01
 1.121339119957345e+00	 6.812376548321089e-01	 1.048553618361228e+01
 1.107575875371013e+00	 7.066746491617736e-01	 1.026082027276459e+01
 1.093172218710124e+00	 7.316987659358548e-01	 1.002983168149537e+01
 1.078130043513388e+00	 7.562909351708273e-01	 9.793201667533578e+00
 1.062452328119198e+00	 7.804326170370328e-01	 9.551540070185311e+00
 1.046143140208240e+00	 8.041058598092611e-01	 9.305429959296353e+00
 1.029207636845662e+00	 8.272933561309074e-01	 9.055422542627220e+00
 1.183132796540936e+00	 5.822264109706171e-01	 1.125234948190937e+01
 1.171802959632020e+00	 6.094178182985777e-01	 1.106881546026069e+01
 1.159828581322929e+00	 6.362729960993709e-01	 1.087646577814187e+01
 1.147207321243899e+00	 6.627711229717850e-01	 1.067591986475376e+01
 1.133937874613762e+00	 6.888916695037870e-01	 1.046779305654665e+01
 1.120019993718943e+00	 7.146144600257595e-01	 1.025269118224194e+01
 1.105454505428850e+00	 7.399197341251366e-01	 1.003120513942400e+01
 1.090243324556970e+00	 7.647882075584607e-01	 9.803905542642443e+00
 1.074389462904693e+00	 7.892011321926621e-01	 9.571337525053631e+00
 1.057897033854956e+00	 8.131403546067386e-01	 9.334015775884877e+00
 1.040771252414892e+00	 8.365883729880681e-01	 9.092419894314862e+00
 9.251348741237903e-01	 7.436380254908352e-01	 8.494382566675736e+00
 9.093545026181421e-01	 7.640292626408308e-01	 8.119831151183019e+00
 8.930233224044176e-01	 7.839546983243546e-01	 7.735226706531405e+00
 8.761488515538501e-01	 8.034008071342293e-01	 7.343328262479043e+00
 8.587395464156911e-01	 8.223548237211875e-01	 6.946964980197927e+00
 8.408047812142654e-01	 8.408047812142655e-01	 6.549015151970957e+00
 8.223548237211870e-01	 8.587395464156912e-01	 6.152384517507172e+00
 8.034008071342290e-01	 8.761488515538506e-01	 5.759984202236312e+00
 7.839546983243543e-01	 8.930233224044180e-01	 5.374708591491312e+00
 7.640292626408302e-01	 9.093545026181423e-01	 4.999413455745541e+00
 7.436380254908355e-01	 9.251348741237905e-01	 4.636894636005585e+00
 9.366985504033987e-01	 7.529330911458786e-01	 8.570853110851790e+00
 9.207209329469740e-01	 7.735792075268062e-01	 8.214053812659680e+00
 9.041856219770256e-01	 7.937537001796383e-01	 7.846338621880324e+00
 8.871002295365527e-01	 8.134428746370428e-01	 7.470332186973391e+00
 8.694733176745297e-01	 8.326338059899012e-01	 7.088734816363639e+00
 8.513143777879396e-01	 8.513143777879398e-01	 6.704302539230031e+00
 8.326338059899007e-01	 8.694733176745300e-01	 6.319826414539063e+00
 8.134428746370425e-01	 8.871002295365529e-01	 5.938111379413250e+00
 7.937537001796382e-01	 9.041856219770259e-01	 5.561954937963023e+00
 7.735792075268058e-01	 9.207209329469740e-01	 5.194125994761174e+00
 7.529330911458786e-01	 9.366985504033989e-01	 4.837344133111357e+00
 9.482622145405371e-01	 7.622281470413493e-01	 8.645100747835292e+00
 9.320873513404406e-01	 7.831291423855008e-01	 8.304531002522909e+00
 9.153479098286428e-01	 8.035526917460267e-01	 7.952284766860571e+00
 8.980515960197999e-01	 8.234849315956234e-01	 7.590857032384592e+00
 8.802070776624943e-01	 8.429127774654996e-01	 7.222823286513864e+00
 8.618239633262329e-01	 8.618239633262332e-01	 6.850820595602956e+00
 8.429127774654992e-01	 8.802070776624945e-01	 6.477527875963312e+00
 8.234849315956231e-01	 8.980515960198002e-01	 6.105645630119305e+00
 8.035526917460263e-01	 9.153479098286429e-01	 5.737875436937311e+00
 7.831291423855004e-01	 9.320873513404410e-01	 5.376899488941683e+00
 7.622281470413493e-01	 9.482622145405372e-01	 5.025360467974584e+00
 9.598258678844229e-01	 7.715231942616434e-01	 8.716523330160449e+00
 9.434537591247535e-01	 7.926790683310672e-01	 8.390788795766749e+00
 9.265101872616607e-01	 8.133516741667508e-01	 8.052715506437933e+00
 9.090029522813683e-01	 8.335269791815854e-01	 7.704673499823315e+00
 8.909408276319577e-01	 8.531917393472582e-01	 7.349117472376848e+00
 8.723335390553479e-01	 8.723335390553483e-01	 6.988568846312150e+00
 8.531917393472578e-01	 8.909408276319581e-01	 6.625596972137372e+00
 8.335269791815850e-01	 9.090029522813686e-01	 6.262799730657614e+00
 8.133516741667507e-01	 9.265101872616610e-01	 5.902783810880155e+00
 7.926790683310669e-01	 9.434537591247538e-01	 5.548144946397465e+00
 7.715231942616434e-01	 9.598258678844229e-01	 5.201448392371250e+00
 9.713895117842751e-01	 7.808182338911576e-01	 8.784547385447780e+00
 9.548201576261218e-01	 8.022289864776585e-01	 8.472375836754022e+00
 9.376724555784728e-01	 8.231506485850438e-01	 8.147297856462853e+00
 9.199542995990326e-01	 8.435690185665407e-01	 7.811563211049956e+00
 9.016745688352942e-01	 8.634706928344529e-01	 7.467509834426709e+00
 8.828431062014854e-01	 8.828431062014855e-01	 7.117546840876632e+00
 8.634706928344525e-01	 9.016745688352944e-01	 6.764136628875568e+00
 8.435690185665403e-01	 9.199542995990332e-01	 6.409776326741195e+00
 8.231506485850433e-01	 9.376724555784728e-01	 6.056978844633231e+00
 8.022289864776583e-01	 9.548201576261224e-01	 5.708253804867553e+00
 7.808182338911576e-01	 9.713895117842752e-01	 5.366088623602986e+00
 9.829531475893118e-01	 7.901132670142886e-01	 8.848626429994948e+00
 9.661865481707581e-01	 8.117788979394280e-01	 8.548862011982978e+00
 9.488347160814705e-01	 8.329496161441370e-01	 8.235714504595874e+00
 9.309056392505691e-01	 8.536110509221023e-01	 7.911318066482401e+00
 9.124083025248777e-01	 8.737496391263593e-01	 7.577897895891008e+00
 8.933526659908472e-01	 8.933526659908475e-01	 7.237754152089549e+00
 8.737496391263588e-01	 9.124083025248780e-01	 6.893244930474663e+00
 8.536110509221021e-01	 9.309056392505696e-01	 6.546768529810650e+00
 8.329496161441363e-01	 9.488347160814706e-01	 6.200745264489646e+00
 8.117788979394276e-01	 9.661865481707583e-01	 5.857599083297574e+00
 7.901132670142885e-01	 9.829531475893116e-01	 5.519739258652879e+00
 9.945167766487508e-01	 7.994082947154326e-01	 8.908239400038143e+00
 9.775529320848717e-01	 8.213288038305283e-01	 8.619837215462772e+00
 9.599969700730466e-01	 8.427485779872628e-01	 8.317662899548829e+00
 9.418569725137537e-01	 8.636530774198836e-01	 8.003739647998870e+00
 9.231420299530818e-01	 8.840285794222529e-01	 7.680183948807350e+00
 9.038622196496362e-01	 9.038622196496365e-01	 7.349190375067296e+00
 8.840285794222525e-01	 9.231420299530823e-01	 7.013015401595913e+00
 8.636530774198832e-01	 9.418569725137540e-01	 6.673960471743141e+00
 8.427485779872623e-01	 9.599969700730470e-01	 6.334354555931313e+00
 8.213288038305280e-01	 9.775529320848719e-01	 5.996536453065046e+00
 7.994082947154325e-01	 9.945167766487507e-01	 5.662837089667818e+00
 1.006080400311810e+00	 8.087033180789859e-01	 8.962889191215027e+00
 9.889193106946728e-01	 8.308787052651121e-01	 8.684910199245305e+00
 9.711592188555936e-01	 8.525475352576530e-01	 8.392854403144439e+00
 9.528083006663611e-01	 8.736950992314974e-01	 8.088638662931924e+00
 9.338757523722805e-01	 8.943075149214100e-01	 7.774274780353934e+00
 9.143717684040532e-01	 9.143717684040537e-01	 7.451855126364086e+00
 8.943075149214097e-01	 9.338757523722809e-01	 7.123537269704576e+00
 8.736950992314970e-01	 9.528083006663611e-01	 6.791527821301495e+00
 8.525475352576527e-01	 9.711592188555939e-01	 6.458065724964240e+00
 8.308787052651120e-01	 9.889193106946730e-01	 6.125405235318997e+00
 8.087033180789860e-01	 1.006080400311810e+00	 5.795798828707181e+00
 1.017644019927708e+00	 8.179983381893458e-01	 9.012101297621383e+00
 1.000285685326373e+00	 8.404286033573330e-01	 8.743707502339188e+00
 9.823214637315038e-01	 8.623464890985402e-01	 8.461013500196719e+00
 9.637596249861673e-01	 8.837371175285563e-01	 8.165834425976342e+00
 9.446094710348477e-01	 9.045864468231064e-01	 7.860081417841929e+00
 9.248813134803007e-01	 9.248813134803011e-01	 7.545748043147192e+00
 9.045864468231058e-01	 9.446094710348479e-01	 7.224895709613872e+00
 8.837371175285563e-01	 9.637596249861677e-01	 6.899638265366469e+00
 8.623464890985397e-01	 9.823214637315040e-01	 6.572126007538628e+00
 8.404286033573327e-01	 1.000285685326373e+00	 6.244529330310985e+00
 8.179983381893455e-01	 1.017644019927708e+00	 5.919022248976534e+00
 1.029207636845662e+00	 8.272933561309074e-01	 9.055422542627220e+00
 1.011652057306182e+00	 8.499784992213438e-01	 8.795872451839994e+00
 9.934837060031694e-01	 8.721454406531562e-01	 8.521877061664052e+00
 9.747109467509483e-01	 8.937791334826740e-01	 8.235154376028639e+00
 9.553431871931574e-01	 9.148653763266172e-01	 7.937518890901396e+00
 9.353908561045803e-01	 9.353908561045807e-01	 7.630868782427708e+00
 9.148653763266166e-01	 9.553431871931575e-01	 7.317172071541028e+00
 8.937791334826736e-01	 9.747109467509487e-01	 6.998451957723026e+00
 8.721454406531558e-01	 9.934837060031696e-01	 6.676771531137463e+00
 8.499784992213435e-01	 1.011652057306182e+00	 6.354218084067536e+00
 8.272933561309074e-01	 1.029207636845662e+00	 6.032887249115277e+00
 1.040771252414892e+00	 8.365883729880681e-01	 9.092419894314862e+00
 1.023018427960310e+00	 8.595283939712974e-01	 8.841064230659461e+00
 1.004645946972983e+00	 8.819443910647330e-01	 8.575193656931111e+00
 9.856622672384795e-01	 9.038211482654626e-01	 8.296433625240915e+00
 9.660769020995830e-01	 9.251443046312183e-01	 8.006506009523104e+00
 9.459003975030937e-01	 9.459003975030944e-01	 7.707217020342661e+00
 9.251443046312178e-01	 9.660769020995831e-01	 7.400444093957809e+00
 9.038211482654623e-01	 9.856622672384796e-01	 7.088121937924099e+00
 8.819443910647331e-01	 1.004645946972983e+00	 6.772227932254191e+00
 8.595283939712971e-01	 1.023018427960311e+00	 6.454767097278075e+00
 8.365883729880681e-01	 1.040771252414892e+00	 6.137756846523802e+00
 7.436380254908355e-01	 9.251348741237905e-01	 4.636894636005585e+00
 7.227952327198275e-01	 9.403578711252182e-01	 4.283892130243865e+00
 7.015158118423985e-01	 9.550178852589556e-01	 3.936680789958150e+00
 6.798153201073739e-01	 9.691102809388428e-01	 3.597222038568967e+00
 6.577098939740799e-01	 9.826314018053828e-01	 3.267362936901467e+00
 6.352161985375724e-01	 9.955785706878293e-01	 2.948826828600972e+00
 6.123513754379838e-01	 1.007950085520931e+00	 2.643205619316048e+00
 5.891329895791025e-01	 1.019745211305930e+00	 2.351953726094481e+00
 5.655789749840383e-01	 1.030964168233969e+00	 2.076383702244493e+00
 5.417075801152568e-01	 1.041608116116776e+00	 1.817663513270827e+00
 5.175373129825247e-01	 1.051679135294118e+00	 1.576815412106256e+00
 7.529330911458786e-01	 9.366985504033989e-01	 4.837344133111357e+00
 7.318297749475436e-01	 9.521118264813079e-01	 4.488215555851738e+00
 7.102843730320807e-01	 9.669550827157742e-01	 4.142966247732358e+00
 6.883126371053290e-01	 9.812236255783680e-01	 3.803637674043137e+00
 6.659309053234379e-01	 9.949137530071112e-01	 3.472183352430150e+00
 6.431560510859449e-01	 1.008022754368101e+00	 3.150457865933902e+00
 6.200054302940129e-01	 1.020548906321208e+00	 2.840207269222636e+00
 5.964968274030251e-01	 1.032491464680596e+00	 2.543060961112984e+00
 5.726484006014738e-01	 1.043850652389678e+00	 2.260525067489988e+00
 5.484786264475269e-01	 1.054627643757190e+00	 1.993977350312771e+00
 5.240062442908519e-01	 1.064824545126001e+00	 1.744663631252740e+00
 7.622281470413493e-01	 9.482622145405372e-01	 5.025360467974584e+00
 7.408643076892962e-01	 9.638657694951810e-01	 4.679771148473167e+00
 7.190529250151156e-01	 9.788922676380574e-01	 4.336342576987475e+00
 6.968099451814580e-01	 9.933369574985162e-01	 3.997183506760853e+00
 6.741519080410894e-01	 1.007196091312142e+00	 3.664338806957228e+00
 6.510958952978116e-01	 1.020466924981897e+00	 3.339777025972224e+00
 6.276594771135983e-01	 1.033147713892791e+00	 3.025379127143585e+00
 6.038606574951996e-01	 1.045237704671911e+00	 2.722928502929116e+00
 5.797178187962586e-01	 1.056737123014926e+00	 2.434102346709728e+00
 5.552496656704088e-01	 1.067647157727559e+00	 2.160464434115445e+00
 5.304751688069793e-01	 1.077969941155748e+00	 1.903459338923728e+00
 7.715231942616434e-01	 9.598258678844229e-01	 5.201448392371250e+00
 7.498988319990690e-01	 9.756197015382422e-01	 4.859149075983919e+00
 7.278214688144408e-01	 9.908294414185691e-01	 4.517472495411715e+00
 7.053072453270417e-01	 1.005450278112579e+00	 4.178582496611794e+00
 6.823729030860691e-01	 1.019478418153453e+00	 3.844600823827724e+00
 6.590357320993998e-01	 1.032911083981049e+00	 3.517593410027786e+00
 6.353135167896196e-01	 1.045746509705525e+00	 3.199557638228197e+00
 6.112244807146440e-01	 1.057983932766892e+00	 2.892410709178008e+00
 5.867872303930614e-01	 1.069623581613069e+00	 2.597979225899343e+00
 5.620206985737617e-01	 1.080666659546745e+00	 2.317990079436503e+00
 5.369440872855219e-01	 1.091115324916893e+00	 2.054062693641793e+00
 7.808182338911576e-01	 9.713895117842752e-01	 5.366088623602986e+00
 7.589333489308472e-01	 9.873736239818964e-01	 5.026911404205261e+00
 7.365900054529944e-01	 1.002766605450072e+00	 4.686987163706693e+00
 7.138045385333609e-01	 1.017563588833845e+00	 4.348523177615339e+00
 6.905938914174139e-01	 1.031760734964027e+00	 4.013704187739431e+00
 6.669755624169360e-01	 1.045355232817389e+00	 3.684677591087977e+00
 6.429675502149550e-01	 1.058345295229253e+00	 3.363539416950522e+00
 6.185882979203756e-01	 1.070730150452557e+00	 3.052321253573248e+00
 5.938566362165510e-01	 1.082510029687462e+00	 2.752978262654185e+00
 5.687917259474442e-01	 1.093686150733605e+00	 2.467378394808036e+00
 5.434130004810946e-01	 1.104260697942969e+00	 2.197292892987199e+00
 7.901132670142885e-01	 9.829531475893116e-01	 5.519739258652879e+00
 7.679678595386146e-01	 9.991275381975497e-01	 5.183593750309277e+00
 7.453585359537155e-01	 1.014703761125330e+00	 4.845488042200261e+00
 7.223018257916970e-01	 1.029676891075605e+00	 4.507661683263605e+00
 6.988148739941589e-01	 1.044043043176842e+00	 4.172349106100971e+00
 6.749153871766467e-01	 1.057799372942749e+00	 3.841763880415403e+00
 6.506215782824836e-01	 1.070944071933819e+00	 3.518083590281977e+00
 6.259521099714122e-01	 1.083476359215924e+00	 3.203435519233937e+00
 6.009260370913967e-01	 1.095396468741459e+00	 2.899883305604374e+00
 5.755627485813160e-01	 1.106705632806998e+00	 2.609414706512227e+00
 5.498819091483128e-01	 1.117406061767513e+00	 2.333930583108264e+00
 7.994082947154325e-01	 9.945167766487507e-01	 5.662837089667818e+00
 7.770023648763551e-01	 1.010881445556606e+00	 5.329706820856914e+00
 7.541270613395413e-01	 1.026640909837109e+00	 4.993548617912714e+00
 7.307991080933308e-01	 1.041790186251149e+00	 4.656623630544662e+00
 7.070358517753395e-01	 1.056325344224880e+00	 4.321203219579167e+00
 6.828552073047591e-01	 1.070243505808959e+00	 3.989552435993770e+00
 6.582756018850845e-01	 1.083542841289068e+00	 3.663913977368267e+00
 6.333159177267713e-01	 1.096222560544010e+00	 3.346492825015847e+00
 6.079954338422668e-01	 1.108282900278415e+00	 3.039441745032562e+00
 5.823337672652358e-01	 1.119725107285783e+00	 2.744847813422410e+00
 5.563508140417918e-01	 1.130551417924058e+00	 2.464720100106322e+00
 8.087033180789860e-01	 1.006080400311810e+00	 5.795798828707181e+00
 7.860368659980534e-01	 1.022635347430469e+00	 5.465737843751884e+00
 7.628955826334107e-01	 1.038578052978170e+00	 5.131716012501284e+00
 7.392963864295431e-01	 1.053903475773768e+00	 4.796005874018013e+00
 7.152568257199916e-01	 1.068607639541119e+00	 4.460903473972426e+00
 6.907950237274999e-01	 1.082687632867853e+00	 4.128711225547159e+00
 6.659296219156362e-01	 1.096141604764842e+00	 3.801721118865510e+00
 6.406797220454709e-01	 1.108968755923833e+00	 3.482198498284281e+00
 6.150648272938307e-01	 1.121169325801685e+00	 3.172366608258121e+00
 5.891047827890625e-01	 1.132744575688819e+00	 2.874392086319620e+00
 5.628197159161465e-01	 1.143696767946138e+00	 2.590371556824739e+00
 8.179983381893455e-01	 1.017644019927708e+00	 5.919022248976534e+00
 7.950713639576940e-01	 1.034389245190546e+00	 5.592151902550107e+00
 7.716641008582614e-01	 1.050515191941279e+00	 5.260512480559191e+00
 7.477936617916146e-01	 1.066016761056751e+00	 4.926378140280447e+00
 7.234777967871515e-01	 1.080889930558541e+00	 4.592057864441076e+00
 6.987348373710952e-01	 1.095131755571259e+00	 4.259877855701335e+00
 6.735836392670180e-01	 1.108740363830987e+00	 3.932164167897180e+00
 6.480435237865273e-01	 1.121714946842410e+00	 3.611225806345489e+00
 6.221342182707568e-01	 1.134055746814624e+00	 3.299338512137915e+00
 5.958757959426559e-01	 1.145764039534964e+00	 2.998729424057528e+00
 5.692886155259922e-01	 1.156842113367289e+00	 2.711562787339767e+00
 8.272933561309074e-01	 1.029207636845662e+00	 6.032887249115277e+00
 8.041058598092605e-01	 1.046143140208240e+00	 5.709393180805606e+00
 7.804326170370325e-01	 1.062452328119198e+00	 5.380436806894485e+00
 7.562909351708267e-01	 1.078130043513388e+00	 5.048284552230129e+00
 7.316987659358543e-01	 1.093172218710124e+00	 4.715247062136191e+00
 7.066746491617730e-01	 1.107575875371013e+00	 4.383661277816722e+00
 6.812376548321085e-01	 1.121339119957345e+00	 4.055872653515678e+00
 6.554073238089596e-01	 1.134461134786760e+00	 3.734217757654254e+00
 6.292036075977134e-01	 1.146942164820587e+00	 3.421007483923030e+00
 6.026468075158744e-01	 1.158783500343079e+00	 3.118511077835845e+00
 5.757575136259440e-01	 1.169987455721043e+00	 2.828941160347858e+00
 8.365883729880681e-01	 1.040771252414892e+00	 6.137756846523802e+00
 8.131403546067379e-01	 1.057897033854957e+00	 5.817886123450579e+00
 7.892011321926615e-01	 1.074389462904693e+00	 5.491965610646316e+00
 7.647882075584603e-01	 1.090243324556970e+00	 5.162245051702069e+00
 7.399197341251362e-01	 1.105454505428851e+00	 4.831025932373969e+00
 7.146144600257591e-01	 1.120019993718943e+00	 4.500643380086587e+00
 6.888916695037869e-01	 1.133937874613762e+00	 4.173448126587101e+00
 6.627711229717848e-01	 1.147207321243900e+00	 3.851788782927408e+00
 6.362729960993706e-01	 1.159828581322929e+00	 3.537994660710793e+00
 6.094178182985774e-01	 1.171802959632020e+00	 3.234359353841922e+00
 5.822264109706172e-01	 1.183132796540936e+00	 2.943125271646498e+00
 5.175373129825247e-01	 1.051679135294118e+00	 1.576815412106254e+00
 4.930886061179270e-01	 1.061179560108253e+00	 1.355029577122306e+00
 4.683786316150236e-01	 1.070113971156061e+00	 1.152545692052965e+00
 4.434263389172353e-01	 1.078487068930921e+00	 9.687558299254500e-01
 4.182507216331380e-01	 1.086304366606542e+00	 8.028738886931317e-01
 3.928707661351534e-01	 1.093572156557455e+00	 6.539533421617412e-01
 3.673054016510371e-01	 1.100297474749929e+00	 5.209055289737343e-01
 3.415734520723819e-01	 1.106488063271783e+00	 4.025181913392910e-01
 3.156935896829346e-01	 1.112152331272543e+00	 2.974739948480400e-01
 2.896842909871788e-01	 1.117299314585631e+00	 2.043687840226696e-01
 2.635637947966888e-01	 1.121938634302054e+00	 1.217293543311002e-01
 5.240062442908519e-01	 1.064824545126001e+00	 1.744663631252740e+00
 4.992519420589116e-01	 1.074443720016364e+00	 1.513752089535103e+00
 4.742331064869885e-01	 1.083489806280113e+00	 1.301408168477713e+00
 4.489689238761274e-01	 1.091967563164214e+00	 1.107188346724801e+00
 4.234786252445683e-01	 1.099882572754026e+00	 9.304807734722580e-01
 3.977814342839484e-01	 1.107241206075309e+00	 7.705211004042383e-01
 3.718965168269625e-01	 1.114050587040045e+00	 6.264088772829546e-01
 3.458429320534969e-01	 1.120318554507902e+00	 4.971242466397419e-01
 3.196395856405784e-01	 1.126053622738153e+00	 3.815446899780535e-01
 2.933051850388365e-01	 1.131264940507173e+00	 2.784615983583207e-01
 2.668581970349608e-01	 1.135962249164317e+00	 1.865964633216795e-01
 5.304751688069793e-01	 1.077969941155748e+00	 1.903459338923730e+00
 5.054152715285452e-01	 1.087707865997702e+00	 1.664219374154797e+00
 4.800875752118880e-01	 1.096865627360146e+00	 1.442834281952794e+00
 4.545115030154290e-01	 1.105448043243582e+00	 1.239017503806417e+00
 4.287065233668245e-01	 1.113460764644947e+00	 1.052323478009648e+00
 4.026920972766799e-01	 1.120910241241152e+00	 8.821616416164357e-01
 3.764876271823808e-01	 1.127803684889804e+00	 7.278110213603100e-01
 3.501124075518630e-01	 1.134149031222319e+00	 5.884351715833944e-01
 3.235855774551878e-01	 1.139954899607613e+00	 4.630972316121644e-01
 2.969260752888898e-01	 1.145230551764896e+00	 3.507748927334409e-01
 2.701525958145354e-01	 1.149985849301752e+00	 2.503750851735009e-01
 5.369440872855219e-01	 1.091115324916893e+00	 2.054062693641790e+00
 5.115785952457940e-01	 1.100971999599649e+00	 1.807280949831066e+00
 4.859420384726598e-01	 1.110241435956580e+00	 1.577658265216851e+00
 4.600540769816969e-01	 1.118928510741666e+00	 1.365057856061879e+00
 4.339344166097567e-01	 1.127038943863363e+00	 1.169192762655136e+00
 4.076027556861921e-01	 1.134579263649660e+00	 9.896381073842020e-01
 3.810787332528601e-01	 1.141556769903712e+00	 8.258439668076556e-01
 3.543818790655262e-01	 1.147979495028594e+00	 6.771486372387778e-01
 3.275315655870700e-01	 1.153856163502768e+00	 5.427920852883770e-01
 3.005469621597160e-01	 1.159196149988180e+00	 4.219293899064702e-01
 2.734469915196949e-01	 1.164009436350527e+00	 3.136440000034726e-01
 5.434130004810946e-01	 1.104260697942969e+00	 2.197292892987199e+00
 5.177419139296249e-01	 1.114236122369594e+00	 1.943745880892664e+00
 4.917964969522420e-01	 1.123617233629833e+00	 1.706674624192717e+00
 4.655966464214873e-01	 1.132408967231106e+00	 1.486085168426623e+00
 4.391623055832144e-01	 1.140617111993330e+00	 1.281841730717527e+00
 4.125134100853292e-01	 1.148248274895508e+00	 1.093677297294956e+00
 3.856698355739675e-01	 1.155309843686275e+00	 9.212048597782012e-01
 3.586513470925326e-01	 1.161809947540285e+00	 7.639290901071261e-01
 3.314775504965322e-01	 1.167757416045464e+00	 6.212582635914314e-01
 3.041678460736920e-01	 1.173161736806400e+00	 4.925162521360080e-01
 2.767413845347217e-01	 1.178033011946810e+00	 3.769544246543592e-01
 5.498819091483128e-01	 1.117406061767513e+00	 2.333930583108263e+00
 5.239052282990043e-01	 1.127500235854920e+00	 2.074385156832539e+00
 4.976509513335732e-01	 1.136993021940326e+00	 1.830640474832490e+00
 4.711392119813578e-01	 1.145889414284543e+00	 1.602838697582665e+00
 4.443901908970471e-01	 1.154195270618903e+00	 1.390988043494471e+00
 4.174240610469353e-01	 1.161917276573373e+00	 1.194971806583110e+00
 3.902609346812702e-01	 1.169062907841999e+00	 1.014558037386347e+00
 3.629208121309281e-01	 1.175640390370952e+00	 8.494097063379706e-01
 3.354235326438815e-01	 1.181658658857547e+00	 6.990951761337274e-01
 3.077887274531950e-01	 1.187127313848934e+00	 5.630988198209510e-01
 2.800357752438979e-01	 1.192056577726769e+00	 4.408316338341249e-01
 5.563508140417918e-01	 1.130551417924058e+00	 2.464720100106322e+00
 5.300685390728995e-01	 1.140764341603014e+00	 2.199933905949048e+00
 5.035054022995912e-01	 1.150368802448477e+00	 1.950277716907390e+00
 4.766817743078647e-01	 1.159369853474618e+00	 1.716023314454075e+00
 4.496180731611050e-01	 1.167773421324142e+00	 1.497315980747217e+00
 4.223347091438546e-01	 1.175586270277928e+00	 1.294182014619932e+00
 3.948520311103356e-01	 1.182815963975389e+00	 1.106536935048514e+00
 3.671902746787591e-01	 1.189470825134154e+00	 9.341942095878542e-01
 3.393695124894248e-01	 1.195559893560861e+00	 7.768743504518696e-01
 3.114096067206023e-01	 1.201092882745161e+00	 6.342142288259129e-01
 2.833301640315056e-01	 1.206080135326573e+00	 5.057764681393409e-01
 5.628197159161465e-01	 1.143696767946138e+00	 2.590371556824739e+00
 5.362318469702764e-01	 1.154028441161263e+00	 2.321093456304177e+00
 5.093598505332343e-01	 1.163744576714707e+00	 2.066275057863721e+00
 4.822243340475648e-01	 1.172850286373970e+00	 1.826311480306632e+00
 4.548459529852376e-01	 1.181351565693099e+00	 1.601478359056952e+00
 4.272453549489312e-01	 1.189255257603850e+00	 1.391937936250072e+00
 3.994431253967307e-01	 1.196569013690954e+00	 1.197745862267982e+00
 3.714597352340709e-01	 1.203301253443449e+00	 1.018858563494530e+00
 3.433154904934695e-01	 1.209461121777253e+00	 8.551410342074417e-01
 3.150304842982908e-01	 1.215058445124458e+00	 7.063749162536630e-01
 2.866245512818271e-01	 1.220103686382390e+00	 5.722667380647626e-01
 5.692886155259922e-01	 1.156842113367289e+00	 2.711562787339771e+00
 5.423951527101020e-01	 1.167292536077051e+00	 2.438533256145873e+00
 5.152142967174405e-01	 1.177120346299433e+00	 2.179289898672488e+00
 4.877668918470149e-01	 1.186330714555242e+00	 1.934345088097422e+00
 4.600738309792945e-01	 1.194929705309834e+00	 1.704098319368986e+00
 4.321559990350095e-01	 1.202924240145813e+00	 1.488840946885814e+00
 4.040342180760231e-01	 1.210322058593197e+00	 1.288761657329295e+00
 3.757291942949101e-01	 1.217131676912397e+00	 1.103952548742615e+00
 3.472614671163226e-01	 1.223362345128568e+00	 9.344156881337153e-01
 3.186513606086379e-01	 1.229024002616201e+00	 7.800700235398728e-01
 2.899189373791444e-01	 1.234127232530387e+00	 6.407585322740315e-01
 5.757575136259440e-01	 1.169987455721043e+00	 2.828941160347855e+00
 5.485584570113428e-01	 1.180556627897764e+00	 2.552892664848807e+00
 5.210687415351480e-01	 1.190496112763076e+00	 2.289950092528824e+00
 4.933094483527719e-01	 1.199811139591073e+00	 2.040737179674471e+00
 4.653017077531255e-01	 1.208507841758404e+00	 1.805770994014661e+00
 4.370666419749336e-01	 1.216593219498495e+00	 1.585465391289730e+00
 4.086253096837799e-01	 1.224075100286626e+00	 1.380135230427793e+00
 3.799986523593226e-01	 1.230962097154558e+00	 1.190001233797187e+00
 3.512074428182912e-01	 1.237263565236650e+00	 1.015195378323065e+00
 3.222722360740204e-01	 1.242989556849769e+00	 8.557667049458360e-01
 2.932133227077402e-01	 1.248150775406734e+00	 7.116874376619946e-01
 5.822264109706172e-01	 1.183132796540936e+00	 2.943125271646497e+00
 5.547217605929659e-01	 1.193820718170789e+00	 2.664782624445599e+00
 5.269231856692952e-01	 1.203871877666055e+00	 2.398855586291396e+00
 4.988520042113924e-01	 1.213291563054103e+00	 2.146073548483714e+00
 4.705295839165803e-01	 1.222085976622864e+00	 1.907065062585942e+00
 4.419772843415477e-01	 1.230262197256569e+00	 1.682360085093232e+00
 4.132164007555683e-01	 1.237828140375747e+00	 1.472393003911963e+00
 3.842681099253542e-01	 1.244792515783489e+00	 1.277506347577931e+00
 3.551534180596826e-01	 1.251164783723347e+00	 1.097955075684651e+00
 3.258931111168158e-01	 1.256955109454539e+00	 9.339113488087558e-01
 2.965077076518963e-01	 1.262174316647596e+00	 7.854696780707171e-01
 2.635637947966888e-01	 1.121938634302054e+00	 1.217293543311027e-01
 2.373482296499335e-01	 1.126080727339082e+00	 5.018815395834419e-02
 2.110570951089145e-01	 1.129735918047314e+00	-9.325516950618784e-03
 1.847077204181358e-01	 1.132915330725281e+00	-5.793026728830908e-02
 1.583170525687149e-01	 1.135630504095502e+00	-9.677918125371199e-02
 1.319016272114572e-01	 1.137893348388953e+00	-1.270486981814640e-01
 1.054775423022452e-01	 1.139716102835537e+00	-1.499282350516908e-01
 7.906043448167313e-02	 1.141111293759497e+00	-1.666106029412528e-01
 5.266545817213228e-02	 1.142091693463350e+00	-1.782832516589645e-01
 2.630726735816929e-02	 1.142670280067985e+00	-1.861203612306135e-01
 0.000000000000000e+00	 1.142860198460186e+00	-1.912757849081828e-01
 2.668581970349608e-01	 1.135962249164317e+00	 1.865964633216795e-01
 2.403149517652857e-01	 1.140156116082579e+00	 1.067194136570753e-01
 2.136951925256246e-01	 1.143856994661234e+00	 3.976332345097155e-02
 1.870164651665213e-01	 1.147076148246399e+00	-1.540514150465833e-02
 1.602959285071758e-01	 1.149825259788246e+00	-5.995974499383760e-02
 1.335503248849474e-01	 1.152116388389058e+00	-9.510286330481210e-02
 1.067959534713259e-01	 1.153961926262349e+00	-1.220544243702681e-01
 8.004864635632519e-02	 1.155374556304495e+00	-1.420416612691371e-01
 5.332374738429285e-02	 1.156367210464742e+00	-1.562897201560711e-01
 2.663609370653354e-02	 1.156953029083323e+00	-1.660131460704890e-01
 0.000000000000000e+00	 1.157145321350848e+00	-1.724082550903570e-01
 2.701525958145354e-01	 1.149985849301752e+00	 2.503750851735009e-01
 2.432816707661115e-01	 1.154231490046761e+00	 1.627706740871722e-01
 2.163332871729747e-01	 1.157978056447746e+00	 8.887733861702585e-02
 1.893252074914669e-01	 1.161236950898263e+00	 2.755961247233452e-02
 1.622748023686338e-01	 1.164020000575990e+00	-2.236391582105801e-02
 1.351990208281575e-01	 1.166339413454362e+00	-6.210822173205521e-02
 1.081143632569111e-01	 1.168207734730349e+00	-9.291022479420619e-02
 8.103685719410969e-02	 1.169637803872298e+00	-1.160179942874116e-01
 5.398203590584604e-02	 1.170642712476017e+00	-1.326808259415171e-01
 2.696491970997855e-02	 1.171235763100916e+00	-1.441402176118818e-01
 0.000000000000000e+00	 1.171430429241259e+00	-1.516217560693933e-01
 2.734469915196949e-01	 1.164009436350527e+00	 3.136440000034726e-01
 2.462483869984567e-01	 1.168306850873860e+00	 2.188809829808953e-01
 2.189713793586627e-01	 1.172099105054432e+00	 1.385218666279722e-01
 1.916339476622377e-01	 1.175397740333110e+00	 7.144107527079546e-02
 1.642536743838629e-01	 1.178214728114948e+00	 1.646200898089667e-02
 1.368477152333388e-01	 1.180562425244396e+00	-2.763014059943503e-02
 1.094327718127214e-01	 1.182453529901738e+00	-6.207633253382050e-02
 8.202506711023368e-02	 1.183901038127150e+00	-8.813244684563615e-02
 5.464032381352585e-02	 1.184918201162855e+00	-1.070589330271081e-01
 2.729374540682866e-02	 1.185518483787291e+00	-1.201113689627109e-01
 0.000000000000000e+00	 1.185715523798227e+00	-1.285319459668981e-01
 2.767413845347217e-01	 1.178033011946810e+00	 3.769544246543568e-01
 2.492151008083671e-01	 1.182382200206109e+00	 2.755637167940372e-01
 2.216094693903863e-01	 1.186220142128876e+00	 1.891781795135496e-01
 1.939426859480990e-01	 1.189558518203180e+00	 1.166936070823310e-01
 1.662325447836380e-01	 1.192409444061334e+00	 5.695012495793317e-02
 1.384964082927424e-01	 1.194785425418687e+00	 8.745313910803576e-03
 1.107511792924775e-01	 1.196699313438713e+00	-2.915341285683515e-02
 8.301327621990420e-02	 1.198164260733292e+00	-5.799725432154590e-02
 5.529861118406629e-02	 1.199193678190934e+00	-7.904534265362040e-02
 2.762257083540821e-02	 1.199801192808975e+00	-9.355497671087920e-02
 0.000000000000000e+00	 1.200000606688556e+00	-1.027727871452442e-01
 2.800357752438979e-01	 1.192056577726769e+00	 4.408316338341249e-01
 2.521818125418886e-01	 1.196457539685740e+00	 3.333080905380286e-01
 2.242475575758435e-01	 1.200341169318661e+00	 2.413048986487598e-01
 1.962514226183161e-01	 1.203719286160712e+00	 1.637501838967474e-01
 1.682114137987333e-01	 1.206604150071365e+00	 9.951219122806010e-02
 1.401451001986197e-01	 1.209008415636766e+00	 4.741259388892605e-02
 1.120695858499000e-01	 1.210945087003475e+00	 6.239074286843227e-03
 8.400148463832836e-02	 1.212427473354968e+00	-2.524290227920112e-02
 5.595689809420142e-02	 1.213469145225935e+00	-4.827917961568184e-02
 2.795139603404157e-02	 1.214083891832495e+00	-6.411690806035852e-02
 0.000000000000000e+00	 1.214285679579051e+00	-7.399546977260574e-02
 2.833301640315056e-01	 1.206080135326573e+00	 5.057764681393362e-01
 2.551485225450670e-01	 1.210532870954983e+00	 3.925805622619631e-01
 2.268856442227319e-01	 1.214462188271370e+00	 2.953393113898071e-01
 1.985601579421541e-01	 1.217880045857944e+00	 2.130236404994357e-01
 1.701902816599233e-01	 1.220798847801255e+00	 1.445408125565206e-01
 1.417937911432218e-01	 1.223231397558161e+00	 8.874780207803412e-02
 1.133879916387095e-01	 1.225190852258222e+00	 4.446396669769803e-02
 8.498969248071314e-02	 1.226690677656422e+00	 1.048293430478520e-02
 5.661518462066523e-02	 1.227744603933536e+00	-1.441635629401539e-02
 2.828022104105307e-02	 1.228366582524378e+00	-3.145950422236621e-02
 0.000000000000000e+00	 1.228570744136519e+00	-4.186741049676135e-02
 2.866245512818271e-01	 1.220103686382390e+00	 5.722667380647626e-01
 2.581152311639481e-01	 1.224608195656070e+00	 4.538261406628978e-01
 2.295237296387498e-01	 1.228583200634588e+00	 3.516985968971582e-01
 2.008688921888782e-01	 1.232040798947115e+00	 2.649078277352663e-01
 1.721691485979824e-01	 1.234993538907219e+00	 1.924105398992522e-01
 1.434424813188000e-01	 1.237454372842401e+00	 1.331097461488910e-01
 1.147063968126268e-01	 1.239436610865154e+00	 8.586741701021916e-02
 8.597789986226567e-02	 1.240953875301895e+00	 4.951637864954139e-02
 5.727347084019176e-02	 1.242020055979417e+00	 2.287139185767018e-02
 2.860904589476704e-02	 1.242649266551153e+00	 4.739366074074658e-03
 0.000000000000000e+00	 1.242855802027764e+00	-6.071320184238838e-03
 2.899189373791444e-01	 1.234127232530387e+00	 6.407585322740292e-01
 2.610819387445777e-01	 1.238683515431234e+00	 5.174696035303701e-01
 2.321618141315945e-01	 1.242704208055896e+00	 4.107809683697450e-01
 2.031776256277538e-01	 1.246201547080464e+00	 3.197786908587574e-01
 1.741480148436851e-01	 1.249188225045472e+00	 2.434788959004432e-01
 1.450911709176055e-01	 1.251677343149015e+00	 1.808409210848396e-01
 1.160248015253724e-01	 1.253682364486469e+00	 1.307798404215443e-01
 8.696610689819298e-02	 1.255217067955632e+00	 9.217827243356114e-02
 5.793175682951503e-02	 1.256295503029258e+00	 6.389740505615671e-02
 2.893787063350784e-02	 1.256931945579345e+00	 4.478718853059172e-02
 0.000000000000000e+00	 1.257140854919592e+00	 3.369566477023311e-02
 2.932133227077402e-01	 1.248150775406734e+00	 7.116874376619946e-01
 2.640486456330018e-01	 1.252758831922707e+00	 5.839166340391642e-01
 2.347998980089640e-01	 1.256825212182878e+00	 4.729667382657856e-01
 2.054863585280461e-01	 1.260362291910229e+00	 3.779952751781062e-01
 1.761268806278058e-01	 1.263382907872229e+00	 2.980873312475838e-01
 1.467398601318895e-01	 1.265900310137534e+00	 2.322684253304719e-01
 1.173432059306671e-01	 1.267928114784366e+00	 1.795167985215809e-01
 8.795431370370210e-02	 1.269480257281874e+00	 1.387750340113327e-01
 5.859004266536907e-02	 1.270570946748737e+00	 1.089609373357805e-01
 2.926669529559979e-02	 1.271214621275483e+00	 8.897762576444501e-02
 0.000000000000000e+00	 1.271425904478810e+00	 7.772279256391612e-02
 2.965077076518963e-01	 1.262174316647596e+00	 7.854696780707171e-01
 2.670153521752661e-01	 1.266834146772720e+00	 6.535548812807950e-01
 2.374379815785563e-01	 1.270946214663118e+00	 5.386193125013343e-01
 2.077950911590201e-01	 1.274523035088650e+00	 4.399006646489689e-01
 1.781057461811192e-01	 1.277577589043705e+00	 3.565621172621951e-01
 1.483885491539033e-01	 1.280123275467486e+00	 2.877048158573858e-01
 1.186616101822315e-01	 1.282173863421045e+00	 2.323798241937980e-01
 8.894252039400018e-02	 1.283743444944866e+00	 1.895994594083494e-01
 5.924832842448790e-02	 1.284846388803535e+00	 1.583479388124438e-01
 2.959551991936728e-02	 1.285497295306093e+00	 1.375912849544192e-01
 0.000000000000000e+00	 1.285710952372222e+00	 1.262864520923448e-01
 1.285710952372222e+00	 0.000000000000000e+00	 1.338240499441087e+01
 1.285497295306093e+00	 2.959551991936768e-02	 1.336087791065212e+01
 1.284846388803535e+00	 5.924832842448829e-02	 1.333267722592012e+01
 1.283743444944865e+00	 8.894252039400048e-02	 1.329679244969561e+01
 1.282173863421045e+00	 1.186616101822318e-01	 1.325222428112793e+01
 1.280123275467486e+00	 1.483885491539035e-01	 1.319799281738720e+01
 1.277577589043704e+00	 1.781057461811192e-01	 1.313314639214601e+01
 1.274523035088650e+00	 2.077950911590204e-01	 1.305677100411077e+01
 1.270946214663118e+00	 2.374379815785564e-01	 1.296800028127177e+01
 1.266834146772720e+00	 2.670153521752661e-01	 1.286602591138122e+01
 1.262174316647597e+00	 2.965077076518963e-01	 1.275010845332917e+01
 1.299996999436575e+00	 0.000000000000000e+00	 1.323302883078971e+01
 1.299780968341605e+00	 2.992436754283352e-02	 1.321204775016849e+01
 1.299122829357391e+00	 5.990666022752204e-02	 1.318471781343516e+01
 1.298007630249775e+00	 8.993079620458713e-02	 1.315007409080321e+01
 1.296420608479857e+00	 1.199801066498033e-01	 1.310716275545194e+01
 1.294347235625972e+00	 1.500373534937382e-01	 1.305504898827154e+01
 1.291773263065350e+00	 1.800847501464908e-01	 1.299282548731262e+01
 1.288684768743407e+00	 2.101039852746392e-01	 1.291962154303709e+01
 1.285068204839977e+00	 2.400762496692715e-01	 1.283461262673260e+01
 1.280910446123659e+00	 2.699822662242060e-01	 1.273703042484654e+01
 1.276198838767993e+00	 2.998023230222043e-01	 1.262617323674105e+01
 1.314283043168385e+00	 0.000000000000000e+00	 1.309214099985931e+01
 1.314064638045126e+00	 3.025321508956966e-02	 1.307172192428824e+01
 1.313399266580941e+00	 6.056499187694717e-02	 1.304527079369512e+01
 1.312271812227235e+00	 9.091907178457748e-02	 1.301186641601981e+01
 1.310667350215281e+00	 1.212986028097242e-01	 1.297059851560167e+01
 1.308571192466371e+00	 1.516861574488443e-01	 1.292057533731978e+01
 1.305968933775486e+00	 1.820637536500776e-01	 1.286093183119812e+01
 1.302846499094542e+00	 2.124128788514846e-01	 1.279083837983550e+01
 1.299190191722443e+00	 2.427145171443396e-01	 1.270951001779268e+01
 1.294986742190813e+00	 2.729491795807888e-01	 1.261621607800476e+01
 1.290223357616614e+00	 3.030969376236583e-01	 1.251029018560400e+01
 1.328569080234105e+00	 0.000000000000000e+00	 1.295923651944763e+01
 1.328348301083665e+00	 3.058206248284655e-02	 1.293938666174978e+01
 1.327675697142885e+00	 6.122332321915620e-02	 1.291381356530008e+01
 1.326535987548803e+00	 9.190734690337923e-02	 1.288163798773946e+01
 1.324914085302944e+00	 1.226170983543531e-01	 1.284199131839073e+01
 1.322795142669631e+00	 1.533349606345124e-01	 1.279402288471330e+01
 1.320164597861666e+00	 1.840427562301277e-01	 1.273690781614731e+01
 1.317008222837535e+00	 2.147217713508359e-01	 1.266985542905461e+01
 1.313312172015283e+00	 2.453527833881926e-01	 1.259211808373507e+01
 1.309063031689621e+00	 2.759160915527708e-01	 1.250300045096419e+01
 1.304247869921001e+00	 3.063915506875612e-01	 1.240186911137137e+01
 1.342855107300192e+00	 0.000000000000000e+00	 1.283383189162457e+01
 1.342631954124233e+00	 3.091090964593466e-02	 1.281455004948182e+01
 1.341952117711919e+00	 6.188165410054168e-02	 1.278984576074607e+01
 1.340800152886037e+00	 9.289562133040007e-02	 1.275887997822587e+01
 1.339160810418477e+00	 1.239355929760491e-01	 1.272082390518210e+01
 1.337019082916703e+00	 1.549837626660329e-01	 1.267486600693702e+01
 1.334360252011446e+00	 1.860217574248894e-01	 1.262021955794051e+01
 1.331169936667871e+00	 2.170306622339723e-01	 1.255613068943186e+01
 1.327434142423264e+00	 2.479910477852630e-01	 1.248188689059701e+01
 1.323139311335525e+00	 2.788830014479088e-01	 1.239682590310946e+01
 1.318272372408692e+00	 3.096861614452167e-01	 1.230034493535934e+01
 1.357141121033102e+00	 0.000000000000000e+00	 1.271546397194029e+01
 1.356915593833839e+00	 3.123975650210440e-02	 1.269674088215923e+01
 1.356228524956741e+00	 6.253998436749619e-02	 1.267288807620567e+01
 1.355064304910496e+00	 9.388389483504776e-02	 1.264310497960359e+01
 1.353407522237509e+00	 1.252540863671710e-01	 1.260660079215768e+01
 1.351243009888537e+00	 1.566325631586963e-01	 1.256260120748077e+01
 1.348555892912382e+00	 1.880007567726111e-01	 1.251035564716942e+01
 1.345331637281031e+00	 2.193395509621733e-01	 1.244914497627912e+01
 1.341556099651152e+00	 2.506293097199832e-01	 1.237828965499537e+01
 1.337215577843965e+00	 2.818499085739595e-01	 1.229715826889449e+01
 1.332296861807227e+00	 3.129807691279275e-01	 1.220517636713459e+01
 1.371427118099289e+00	 0.000000000000000e+00	 1.260368890931697e+01
 1.371199216879492e+00	 3.156860297462624e-02	 1.258550758364209e+01
 1.370504915546047e+00	 6.319831386641224e-02	 1.256248117442762e+01
 1.369328440293738e+00	 9.487216718673007e-02	 1.253384588820457e+01
 1.367654217435671e+00	 1.265725782200777e-01	 1.249884713617532e+01
 1.365466920266081e+00	 1.582813617277929e-01	 1.245674596435093e+01
 1.362751517252028e+00	 1.899797538115409e-01	 1.240682597863089e+01
 1.359493321372499e+00	 2.216484369967183e-01	 1.234840073307272e+01
 1.355678040403714e+00	 2.532675685767853e-01	 1.228082153831620e+01
 1.351291827930385e+00	 2.848168122386797e-01	 1.220348563512628e+01
 1.346321334844147e+00	 3.162753729669972e-01	 1.211584466548035e+01
 1.385713095165209e+00	 0.000000000000000e+00	 1.249808115149662e+01
 1.385482819928202e+00	 3.189744898677063e-02	 1.248041719511189e+01
 1.384781286148537e+00	 6.385664244368242e-02	 1.245818465548001e+01
 1.383592555707320e+00	 9.586043815485464e-02	 1.243065485790568e+01
 1.381900892688592e+00	 1.278910682271282e-01	 1.239710767076042e+01
 1.379690810730285e+00	 1.599301579886133e-01	 1.235683764885085e+01
 1.376947121717941e+00	 1.919587480799270e-01	 1.230916065310992e+01
 1.373654985637756e+00	 2.239573197988867e-01	 1.225342091653356e+01
 1.369799961385716e+00	 2.559058237401017e-01	 1.218899851547043e+01
 1.365368058310225e+00	 2.877837117498259e-01	 1.211531719386036e+01
 1.360345788246990e+00	 3.195699721937289e-01	 1.203185247598318e+01
 1.399999048897318e+00	 0.000000000000000e+00	 1.239823251136371e+01
 1.399766399646979e+00	 3.222629446180800e-02	 1.238105442514225e+01
 1.399057633432906e+00	 6.451496994569926e-02	 1.235957609049241e+01
 1.397856647822801e+00	 9.684870750882919e-02	 1.233310231753060e+01
 1.396147544671901e+00	 1.292095560806813e-01	 1.230094570722333e+01
 1.393914677962101e+00	 1.615789515564481e-01	 1.226243251054092e+01
 1.391142702997676e+00	 1.939377391160178e-01	 1.221690894638248e+01
 1.387816626772285e+00	 2.262661988299577e-01	 1.216374794994960e+01
 1.383921859301924e+00	 2.585440745943648e-01	 1.210235631289107e+01
 1.379444265698925e+00	 2.907506064151547e-01	 1.203218216550844e+01
 1.374370218743297e+00	 3.228645660394258e-01	 1.195272273976889e+01
 1.414284975962072e+00	 0.000000000000000e+00	 1.230375128983939e+01
 1.414049952702832e+00	 3.255513932300882e-02	 1.228702075732582e+01
 1.413333954067853e+00	 6.517329621885529e-02	 1.226625011394375e+01
 1.412120713311740e+00	 9.783697501806153e-02	 1.224077604778741e+01
 1.410394170061229e+00	 1.305280414730958e-01	 1.220994219629937e+01
 1.408138518642477e+00	 1.632277420465876e-01	 1.217310472369989e+01
 1.405338257778788e+00	 1.959167264580614e-01	 1.212963834068664e+01
 1.401978241471570e+00	 2.285750735512108e-01	 1.207894273991651e+01
 1.398043730857107e+00	 2.611823205240068e-01	 1.202044941087729e+01
 1.393520446811928e+00	 2.937174955424229e-01	 1.195362878719512e+01
 1.388394623060607e+00	 3.261591537353912e-01	 1.187799766835844e+01
 1.428570873025926e+00	 0.000000000000000e+00	 1.221426145138840e+01
 1.428333475762771e+00	 3.288398349364353e-02	 1.219793361142976e+01
 1.427610244722076e+00	 6.583162110954309e-02	 1.217781757039877e+01
 1.426384748845693e+00	 9.882524045195930e-02	 1.215328031357554e+01
 1.424640765532204e+00	 1.318465240967308e-01	 1.212369484607573e+01
 1.422362329452363e+00	 1.648765290743223e-01	 1.208844549098368e+01
 1.419533782748831e+00	 1.978957096443060e-01	 1.204693361429032e+01
 1.416139826431091e+00	 2.308839434239253e-01	 1.199858375205873e+01
 1.412165572756028e+00	 2.638205609134598e-01	 1.194285010578222e+01
 1.407596598364675e+00	 2.966843784393872e-01	 1.187922336179738e+01
 1.402418997926461e+00	 3.294537345129283e-01	 1.180723778001630e+01
 1.262174316647597e+00	 2.965077076518963e-01	 1.275010845332917e+01
 1.256955109454539e+00	 3.258931111168156e-01	 1.262460501753742e+01
 1.251164783723348e+00	 3.551534180596824e-01	 1.249417335793801e+01
 1.244792515783490e+00	 3.842681099253539e-01	 1.235861631552185e+01
 1.237828140375747e+00	 4.132164007555682e-01	 1.221774759206749e+01
 1.230262197256569e+00	 4.419772843415474e-01	 1.207139341106796e+01
 1.222085976622863e+00	 4.705295839165800e-01	 1.191939421539877e+01
 1.213291563054103e+00	 4.988520042113921e-01	 1.176160638180124e+01
 1.203871877666055e+00	 5.269231856692950e-01	 1.159790392987908e+01
 1.193820718170790e+00	 5.547217605929656e-01	 1.142818020115689e+01
 1.183132796540936e+00	 5.822264109706171e-01	 1.125234948190937e+01
 1.276198838767993e+00	 2.998023230222043e-01	 1.262617323674105e+01
 1.270921638882720e+00	 3.295142394221146e-01	 1.250621134731887e+01
 1.265066974533483e+00	 3.590996693027053e-01	 1.238161346231798e+01
 1.258623901783632e+00	 3.885378661189792e-01	 1.225221025717034e+01
 1.251582142423700e+00	 4.178078129515949e-01	 1.211783814912506e+01
 1.243932131093599e+00	 4.468882701834049e-01	 1.197834038102286e+01
 1.235665061212145e+00	 4.757578257441907e-01	 1.183356816028711e+01
 1.226772929407417e+00	 5.043949477444406e-01	 1.168338184276537e+01
 1.217248578138877e+00	 5.327780392929062e-01	 1.152765214909325e+01
 1.207085736202502e+00	 5.608854952672500e-01	 1.136626139933540e+01
 1.196279056813543e+00	 5.886957607827461e-01	 1.119910474984593e+01
 1.290223357616614e+00	 3.030969376236583e-01	 1.251029018560400e+01
 1.284888165052574e+00	 3.331353668823323e-01	 1.239571031327165e+01
 1.278969162100207e+00	 3.630459196247387e-01	 1.227675082959242e+01
 1.272455284556780e+00	 3.928076213160798e-01	 1.215326841105115e+01
 1.265336141262610e+00	 4.223992240759926e-01	 1.202512078696316e+01
 1.257602061741100e+00	 4.517992548790162e-01	 1.189216729068903e+01
 1.249244142632999e+00	 4.809860663514812e-01	 1.175426948269386e+01
 1.240254292615020e+00	 5.099378899836977e-01	 1.161129184388859e+01
 1.230625275490343e+00	 5.386328915499143e-01	 1.146310253611541e+01
 1.220350751138874e+00	 5.670492285028369e-01	 1.130957422494537e+01
 1.209425314018505e+00	 5.951651090848595e-01	 1.115058495817668e+01
 1.304247869921001e+00	 3.063915506875612e-01	 1.240186911137137e+01
 1.298854684705190e+00	 3.367564926525975e-01	 1.229250546188972e+01
 1.292871343179647e+00	 3.669921681050627e-01	 1.217898549395875e+01
 1.286286660875609e+00	 3.970773745204665e-01	 1.206119012943989e+01
 1.279090133683234e+00	 4.269906330575335e-01	 1.193899707300902e+01
 1.271271986009470e+00	 4.567102372825999e-01	 1.181228087418396e+01
 1.262823217717048e+00	 4.862143045186584e-01	 1.168091307600562e+01
 1.253735649531359e+00	 5.154808296359515e-01	 1.154476245687439e+01
 1.244001966599343e+00	 5.444877410743382e-01	 1.140369537083039e+01
 1.233615759884871e+00	 5.732129588616810e-01	 1.125757619008514e+01
 1.222571565088504e+00	 6.016344543676050e-01	 1.110626785187083e+01
 1.318272372408692e+00	 3.096861614452167e-01	 1.230034493535934e+01
 1.312821194581664e+00	 3.403776158880397e-01	 1.219602571612552e+01
 1.306773514527932e+00	 3.709384138229578e-01	 1.208774301552558e+01
 1.300118027512793e+00	 4.013471247359494e-01	 1.197540031952602e+01
 1.292844116476331e+00	 4.315820388249894e-01	 1.185889403531793e+01
 1.284941900709110e+00	 4.616212162483760e-01	 1.173811310636172e+01
 1.276402283295917e+00	 4.914425390259288e-01	 1.161293872710265e+01
 1.267216997010882e+00	 5.210237654079906e-01	 1.148324417120046e+01
 1.257378648344766e+00	 5.503425865001975e-01	 1.134889474624280e+01
 1.246880759345454e+00	 5.793766849057361e-01	 1.120974788663354e+01
 1.235717806956221e+00	 6.081037951216303e-01	 1.106565339465134e+01
 1.332296861807227e+00	 3.129807691279275e-01	 1.220517636713459e+01
 1.326787691423086e+00	 3.439987357437876e-01	 1.210572403973923e+01
 1.320675672901189e+00	 3.748846558577046e-01	 1.200247313678800e+01
 1.313949381241011e+00	 4.056168709663394e-01	 1.189534809835243e+01
 1.306598086432660e+00	 4.361734403071328e-01	 1.178426282246480e+01
 1.298611802650422e+00	 4.665321906305634e-01	 1.166911987426609e+01
 1.289981336201229e+00	 4.966707686534989e-01	 1.154980980607515e+01
 1.280698331908039e+00	 5.265666960066030e-01	 1.142621060885903e+01
 1.270755317605502e+00	 5.561974264615115e-01	 1.129818731502621e+01
 1.260145746425587e+00	 5.855404051969570e-01	 1.116559177138005e+01
 1.248864036554340e+00	 6.145731298375837e-01	 1.102826259942585e+01
 1.346321334844147e+00	 3.162753729669972e-01	 1.211584466548035e+01
 1.340754171970549e+00	 3.476198513749700e-01	 1.202107618510351e+01
 1.334577815055549e+00	 3.788308932885835e-01	 1.192264852305027e+01
 1.327780718832936e+00	 4.098866122154465e-01	 1.182050553179831e+01
 1.320352040342977e+00	 4.407648364327352e-01	 1.171457744716966e+01
 1.312281688643806e+00	 4.714431592833817e-01	 1.160477973159530e+01
 1.303560373264609e+00	 5.018989921815753e-01	 1.149101203781010e+01
 1.294179651077275e+00	 5.321096201385769e-01	 1.137315731940406e+01
 1.284131971260440e+00	 5.620522595922992e-01	 1.125108111439190e+01
 1.273410718030233e+00	 5.917041182972974e-01	 1.112463102706393e+01
 1.262010250815542e+00	 6.210424570061129e-01	 1.099363643179570e+01
 1.360345788246990e+00	 3.195699721937289e-01	 1.203185247598318e+01
 1.354720632965146e+00	 3.512409619367159e-01	 1.194157951844291e+01
 1.348479937747139e+00	 3.827771251948748e-01	 1.184776358073963e+01
 1.341612037061243e+00	 4.141563474870811e-01	 1.175036645154237e+01
 1.334105974998042e+00	 4.453562261305693e-01	 1.164933360761628e+01
 1.325951555499662e+00	 4.763541210610502e-01	 1.154459273018959e+01
 1.317139391317681e+00	 5.071272083903644e-01	 1.143605234954202e+01
 1.307660951373040e+00	 5.376525365107007e-01	 1.132360064951165e+01
 1.297508606188468e+00	 5.679070845265797e-01	 1.120710446362660e+01
 1.286675671064355e+00	 5.978678227687122e-01	 1.108640849384540e+01
 1.275156446672509e+00	 6.275117751178659e-01	 1.096133478137102e+01
 1.374370218743297e+00	 3.228645660394258e-01	 1.195272273976890e+01
 1.368687071147968e+00	 3.548620665841546e-01	 1.186675191697827e+01
 1.362382037732088e+00	 3.867233506558594e-01	 1.177733334804901e+01
 1.355443332698608e+00	 4.184260757850536e-01	 1.168444534443743e+01
 1.347859887188615e+00	 4.499476083294069e-01	 1.158804758091574e+01
 1.339621400028392e+00	 4.812650748177886e-01	 1.148807932304130e+01
 1.330718387192070e+00	 5.123554160600730e-01	 1.138445778894305e+01
 1.321142229649782e+00	 5.431954438297626e-01	 1.127707668173263e+01
 1.310885219268478e+00	 5.737618998983726e-01	 1.116580492910999e+01
 1.299940602432917e+00	 6.040315171731547e-01	 1.105048566617982e+01
 1.288302621057924e+00	 6.339810826634908e-01	 1.093093549604988e+01
 1.388394623060607e+00	 3.261591537353912e-01	 1.187799766835844e+01
 1.382653483260108e+00	 3.584831644724148e-01	 1.179613073289323e+01
 1.376284111766524e+00	 3.906695687508174e-01	 1.171089245279587e+01
 1.369274602517707e+00	 4.226957961131750e-01	 1.162227630917806e+01
 1.361613773705451e+00	 4.545389819580201e-01	 1.153025518361514e+01
 1.353291219040396e+00	 4.861760194078157e-01	 1.143477933377173e+01
 1.344297357719400e+00	 5.175836139709075e-01	 1.133577450776617e+01
 1.334623482761948e+00	 5.487383408025508e-01	 1.123314023754622e+01
 1.324261807379358e+00	 5.796167043416971e-01	 1.112674835204186e+01
 1.313205509040881e+00	 6.101952000725799e-01	 1.101644175047123e+01
 1.301448770904468e+00	 6.404503781336350e-01	 1.090203347481042e+01
 1.402418997926461e+00	 3.294537345129283e-01	 1.180723778001630e+01
 1.396619866042658e+00	 3.621042547566253e-01	 1.172927181944662e+01
 1.390186156606576e+00	 3.946157785590295e-01	 1.164799413279325e+01
 1.383105843291214e+00	 4.269655074752547e-01	 1.156341207555184e+01
 1.375367631339310e+00	 4.591303459451807e-01	 1.147551079455967e+01
 1.366961009346076e+00	 4.910869536853510e-01	 1.138425098792323e+01
 1.357876299731293e+00	 5.228118009030744e-01	 1.128956680645389e+01
 1.348104707563986e+00	 5.542812261358537e-01	 1.119136394021496e+01
 1.337638367399997e+00	 5.854714964905721e-01	 1.108951793449054e+01
 1.326470387793212e+00	 6.163588700289419e-01	 1.098387277925191e+01
 1.314594893144823e+00	 6.469196600189466e-01	 1.087423981492140e+01
 1.183132796540936e+00	 5.822264109706171e-01	 1.125234948190937e+01
 1.171802959632020e+00	 6.094178182985777e-01	 1.106881546026069e+01
 1.159828581322929e+00	 6.362729960993709e-01	 1.087646577814187e+01
 1.147207321243899e+00	 6.627711229717850e-01	 1.067591986475376e+01
 1.133937874613762e+00	 6.888916695037870e-01	 1.046779305654665e+01
 1.120019993718943e+00	 7.146144600257595e-01	 1.025269118224194e+01
 1.105454505428850e+00	 7.399197341251366e-01	 1.003120513942400e+01
 1.090243324556970e+00	 7.647882075584607e-01	 9.803905542642443e+00
 1.074389462904693e+00	 7.892011321926621e-01	 9.571337525053631e+00
 1.057897033854956e+00	 8.131403546067386e-01	 9.334015775884877e+00
 1.040771252414892e+00	 8.365883729880681e-01	 9.092419894314862e+00
 1.196279056813543e+00	 5.886957607827461e-01	 1.119910474984593e+01
 1.184823329568884e+00	 6.161893026801177e-01	 1.102445725737322e+01
 1.172715899167537e+00	 6.433428790699680e-01	 1.084106890231117e+01
 1.159954399234961e+00	 6.701354371961921e-01	 1.064951892009283e+01
 1.146537510492046e+00	 6.965462195362728e-01	 1.045037842509095e+01
 1.132464982472780e+00	 7.225548262406800e-01	 1.024420516145305e+01
 1.117737651234249e+00	 7.481412773310235e-01	 1.003153829761206e+01
 1.102357452866200e+00	 7.732860742889249e-01	 9.812893344143122e+00
 1.086327432635354e+00	 7.979702606633312e-01	 9.588757275736102e+00
 1.069651749630091e+00	 8.221754813233386e-01	 9.359583937287486e+00
 1.052335676803569e+00	 8.458840399867048e-01	 9.125789811401628e+00
 1.209425314018505e+00	 5.951651090848595e-01	 1.115058495817668e+01
 1.197843696467493e+00	 6.229607854811509e-01	 1.098429411834930e+01
 1.185603214004979e+00	 6.504127603904537e-01	 1.080932609889898e+01
 1.172701474251644e+00	 6.774997497018224e-01	 1.062622136023560e+01
 1.159137143430437e+00	 7.042007677823064e-01	 1.043550865710138e+01
 1.144909968322899e+00	 7.304951906025160e-01	 1.023769996131306e+01
 1.130020794173789e+00	 7.563628186182840e-01	 1.003328547522103e+01
 1.114471578349102e+00	 7.817839390363610e-01	 9.822728814996028e+00
 1.098265399580877e+00	 8.067393870877569e-01	 9.606462443050519e+00
 1.081406462662920e+00	 8.312106059317127e-01	 9.384883427210656e+00
 1.063900098494396e+00	 8.551797048164093e-01	 9.158349600622641e+00
 1.222571565088504e+00	 6.016344543676050e-01	 1.110626785187083e+01
 1.210864057289905e+00	 6.297322651218270e-01	 1.094782635939528e+01
 1.198490522828354e+00	 6.574826384113476e-01	 1.078076195628655e+01
 1.185448543319761e+00	 6.848640587704881e-01	 1.060557774332902e+01
 1.171736770489137e+00	 7.118553124559704e-01	 1.042276196348465e+01
 1.157354948365572e+00	 7.384355512586466e-01	 1.023278310231404e+01
 1.142303931381488e+00	 7.645843560686765e-01	 1.003608512119787e+01
 1.126585698179115e+00	 7.902817998180376e-01	 9.833082901628307e+00
 1.110203360955788e+00	 8.155085094198991e-01	 9.624157978216594e+00
 1.093161170210711e+00	 8.402457263237395e-01	 9.409654635544049e+00
 1.075464514789027e+00	 8.644753653082524e-01	 9.189876439532213e+00
 1.235717806956221e+00	 6.081037951216303e-01	 1.106565339465134e+01
 1.223884408998180e+00	 6.365037400222964e-01	 1.091457555494247e+01
 1.211377822630763e+00	 6.645525114831703e-01	 1.075492128817454e+01
 1.198195603465128e+00	 6.922283626840025e-01	 1.058715774770048e+01
 1.184336388728350e+00	 7.195098517713456e-01	 1.041173449857762e+01
 1.169799919697071e+00	 7.463759063564521e-01	 1.022907880113160e+01
 1.154587059991365e+00	 7.728058877639603e-01	 1.003959106454756e+01
 1.138699809529677e+00	 7.987796546512245e-01	 9.843640547643764e+00
 1.122141313974611e+00	 8.242776256137182e-01	 9.641561382622806e+00
 1.104915869530733e+00	 8.492808403912976e-01	 9.433648994339633e+00
 1.087028922989120e+00	 8.737710192933065e-01	 9.220156982457850e+00
 1.248864036554340e+00	 6.145731298375837e-01	 1.102826259942585e+01
 1.236904748554374e+00	 6.432752086027080e-01	 1.088408341861510e+01
 1.224265110405305e+00	 6.716223779564416e-01	 1.073136806889745e+01
 1.210942651713557e+00	 6.995926597241778e-01	 1.057054916532008e+01
 1.196935995208283e+00	 7.271643839425148e-01	 1.040203941552659e+01
 1.182244879413671e+00	 7.543162540433125e-01	 1.022622709163187e+01
 1.166870177137439e+00	 7.810274117858940e-01	 1.004347170459309e+01
 1.150813909574226e+00	 8.072775015531899e-01	 9.854099956850318e+00
 1.134079255851869e+00	 8.330467336231737e-01	 9.658402046996878e+00
 1.116670557880252e+00	 8.583159460262669e-01	 9.456628396336953e+00
 1.098593320396328e+00	 8.830666646026432e-01	 9.248986861401658e+00
 1.262010250815542e+00	 6.210424570061129e-01	 1.099363643179570e+01
 1.249925072920549e+00	 6.500466692832125e-01	 1.085591075411892e+01
 1.237152383145082e+00	 6.786922361816812e-01	 1.070968443526261e+01
 1.223689685090863e+00	 7.069569481728269e-01	 1.055535695815455e+01
 1.209535586989136e+00	 7.348189071835588e-01	 1.039330598068950e+01
 1.194689824611643e+00	 7.622565924666073e-01	 1.022388300080067e+01
 1.179153279953728e+00	 7.892489262162363e-01	 1.004740925183071e+01
 1.162927995486199e+00	 8.157753385412044e-01	 9.864171902335615e+00
 1.146017183802085e+00	 8.418158314022254e-01	 9.674420631867035e+00
 1.128425232516537e+00	 8.673510411205255e-01	 9.478364649820602e+00
 1.110157704312310e+00	 8.923622990673346e-01	 9.276170218126895e+00
 1.275156446672509e+00	 6.275117751178659e-01	 1.096133478137102e+01
 1.262945379058761e+00	 6.568181204839599e-01	 1.082963647100574e+01
 1.250039637843193e+00	 6.857620845094093e-01	 1.068946975011467e+01
 1.236436700622858e+00	 7.143212263117624e-01	 1.054120237287514e+01
 1.222135161131115e+00	 7.424734197085595e-01	 1.038517874280250e+01
 1.207134752387260e+00	 7.701969197737164e-01	 1.022171577563228e+01
 1.191436365574252e+00	 7.974704291367465e-01	 1.005109901572998e+01
 1.175042064439034e+00	 8.242731636325358e-01	 9.873579078268856e+00
 1.157955095039786e+00	 8.505849169048342e-01	 9.689368486334857e+00
 1.140179890696855e+00	 8.763861235659529e-01	 9.498638967188958e+00
 1.121722072038720e+00	 9.016579205184524e-01	 9.301519265180010e+00
 1.288302621057924e+00	 6.339810826634908e-01	 1.093093549604988e+01
 1.275965663931068e+00	 6.635895606250993e-01	 1.080485666068143e+01
 1.262926871492737e+00	 6.928319212901460e-01	 1.067033972321755e+01
 1.249183695335358e+00	 7.216854924227970e-01	 1.052772210975295e+01
 1.234734714694425e+00	 7.501279197315989e-01	 1.037731675300060e+01
 1.219579659836794e+00	 7.781372341120201e-01	 1.021940815733927e+01
 1.203719431133027e+00	 8.056919186291830e-01	 1.005424873612610e+01
 1.187156113606170e+00	 8.327709748444542e-01	 9.882055491377743e+00
 1.169892986779494e+00	 8.593539880849598e-01	 9.703007102424106e+00
 1.151934529678472e+00	 8.854211912544275e-01	 9.517241484826604e+00
 1.133286420877215e+00	 9.109535267870686e-01	 9.324853873781645e+00
 1.301448770904468e+00	 6.404503781336350e-01	 1.090203347481042e+01
 1.288985924499531e+00	 6.703609881267809e-01	 1.078118372839851e+01
 1.275814081086816e+00	 6.999017448744109e-01	 1.065192558540244e+01
 1.261930666254174e+00	 7.290497447877435e-01	 1.051456754191077e+01
 1.247334244739268e+00	 7.577824054667585e-01	 1.036939283209722e+01
 1.232024544056519e+00	 7.860775336288979e-01	 1.021665569953782e+01
 1.216002473764073e+00	 8.139133927753053e-01	 1.005657795512360e+01
 1.199270140161044e+00	 8.412687701942285e-01	 9.889345889295910e+00
 1.181830856235734e+00	 8.681230428965618e-01	 9.715107602490647e+00
 1.163689146718658e+00	 8.944562420778287e-01	 9.533970812067951e+00
 1.144850748129450e+00	 9.202491157042549e-01	 9.346001186687495e+00
 1.314594893144823e+00	 6.469196600189466e-01	 1.087423981492140e+01
 1.302006157726207e+00	 6.771324014091545e-01	 1.075824557731590e+01
 1.288701263618528e+00	 7.069715536127238e-01	 1.063387331225380e+01
 1.274677610405123e+00	 7.364139816884141e-01	 1.050140398140781e+01
 1.259933748325849e+00	 7.654368751281202e-01	 1.036109288181555e+01
 1.244469402142706e+00	 7.940178164717294e-01	 1.021316612733142e+01
 1.228285490601410e+00	 8.221348496568718e-01	 1.005781742667588e+01
 1.211384141277094e+00	 8.497665476991278e-01	 9.895205223200527e+00
 1.193768700623030e+00	 8.768920792936009e-01	 9.725450257379821e+00
 1.175443739074679e+00	 9.034912739280352e-01	 9.548633607215800e+00
 1.156415051097081e+00	 9.295446851010828e-01	 9.364795254271431e+00
 1.040771252414892e+00	 8.365883729880681e-01	 9.092419894314862e+00
 1.023018427960310e+00	 8.595283939712974e-01	 8.841064230659461e+00
 1.004645946972983e+00	 8.819443910647330e-01	 8.575193656931111e+00
 9.856622672384795e-01	 9.038211482654626e-01	 8.296433625240915e+00
 9.660769020995830e-01	 9.251443046312183e-01	 8.006506009523104e+00
 9.459003975030937e-01	 9.459003975030944e-01	 7.707217020342661e+00
 9.251443046312178e-01	 9.660769020995831e-01	 7.400444093957809e+00
 9.038211482654623e-01	 9.856622672384796e-01	 7.088121937924101e+00
 8.819443910647331e-01	 1.004645946972983e+00	 6.772227932254191e+00
 8.595283939712971e-01	 1.023018427960311e+00	 6.454767097278075e+00
 8.365883729880681e-01	 1.040771252414892e+00	 6.137756846523800e+00
 1.052335676803569e+00	 8.458840399867048e-01	 9.125789811401628e+00
 1.034385593637595e+00	 8.690789566902977e-01	 8.882059650072486e+00
 1.015808968688077e+00	 8.917440268656871e-01	 8.623793148223561e+00
 9.966143537184107e-01	 9.138638654388909e-01	 8.352527112790820e+00
 9.768113677779181e-01	 9.354239518974904e-01	 8.069894355620679e+00
 9.564106739936137e-01	 9.564106739936139e-01	 7.777612304425951e+00
 9.354239518974901e-01	 9.768113677779182e-01	 7.477470589952642e+00
 9.138638654388903e-01	 9.966143537184112e-01	 7.171317781628857e+00
 8.917440268656868e-01	 1.015808968688077e+00	 6.861047460796255e+00
 8.690789566902973e-01	 1.034385593637595e+00	 6.548583833083813e+00
 8.458840399867049e-01	 1.052335676803569e+00	 6.235867089214214e+00
 1.063900098494396e+00	 8.551797048164093e-01	 9.158349600622641e+00
 1.045752756663082e+00	 8.786295171809760e-01	 8.921721400114119e+00
 1.026971987799014e+00	 9.015436603802878e-01	 8.670557664737315e+00
 1.007566437643386e+00	 9.239065802693275e-01	 8.406309774639857e+00
 9.875458309520403e-01	 9.457035967655604e-01	 8.130524556474333e+00
 9.669209480321814e-01	 9.669209480321818e-01	 7.844833565136652e+00
 9.457035967655600e-01	 9.875458309520405e-01	 7.550941345404235e+00
 9.239065802693268e-01	 1.007566437643387e+00	 7.250612836071674e+00
 9.015436603802873e-01	 1.026971987799014e+00	 6.945660096071917e+00
 8.786295171809756e-01	 1.045752756663083e+00	 6.637928544817729e+00
 8.551797048164094e-01	 1.063900098494396e+00	 6.329282917230989e+00
 1.075464514789027e+00	 8.644753653082524e-01	 9.189876439532213e+00
 1.057119914384448e+00	 8.881800732149159e-01	 8.959863767638975e+00
 1.038135001701094e+00	 9.113432893219885e-01	 8.715337920592122e+00
 1.018518516457923e+00	 9.339492904134958e-01	 8.457668014404184e+00
 9.982802891172464e-01	 9.559832368368600e-01	 8.188317914720912e+00
 9.774312171664081e-01	 9.774312171664084e-01	 7.908836164448330e+00
 9.559832368368598e-01	 9.982802891172471e-01	 7.620844896668926e+00
 9.339492904134957e-01	 1.018518516457923e+00	 7.326027886105289e+00
 9.113432893219882e-01	 1.038135001701094e+00	 7.026117909304422e+00
 8.881800732149152e-01	 1.057119914384449e+00	 6.722883596705930e+00
 8.644753653082524e-01	 1.075464514789027e+00	 6.418115968442248e+00
 1.087028922989120e+00	 8.737710192933065e-01	 9.220156982457850e+00
 1.068487064149366e+00	 8.977306225636994e-01	 8.996308937227340e+00
 1.049298007789620e+00	 9.211429114042431e-01	 8.757990977641555e+00
 1.029470587606540e+00	 9.439919935281210e-01	 8.506493064869698e+00
 1.009014739768834e+00	 9.662628697128208e-01	 8.243199077274078e+00
 9.879414789439063e-01	 9.879414789439066e-01	 7.969577359483633e+00
 9.662628697128207e-01	 1.009014739768835e+00	 7.687170263815490e+00
 9.439919935281209e-01	 1.029470587606540e+00	 7.397582828290862e+00
 9.211429114042424e-01	 1.049298007789620e+00	 7.102470752395687e+00
 8.977306225636988e-01	 1.068487064149366e+00	 6.803527844925869e+00
 8.737710192933065e-01	 1.087028922989120e+00	 6.502473127347943e+00
 1.098593320396328e+00	 8.830666646026432e-01	 9.248986861401658e+00
 1.079854203305508e+00	 9.072811629989098e-01	 9.030886575183109e+00
 1.060461003459893e+00	 9.309425243405042e-01	 8.798379911039721e+00
 1.040422648533754e+00	 9.540346872699265e-01	 8.552680733475517e+00
 1.019749180402101e+00	 9.765424929948752e-01	 8.295095858954019e+00
 9.984517309122878e-01	 9.984517309122882e-01	 8.027016202409735e+00
 9.765424929948747e-01	 1.019749180402101e+00	 7.749906924805080e+00
 9.540346872699262e-01	 1.040422648533754e+00	 7.465296717289455e+00
 9.309425243405040e-01	 1.060461003459894e+00	 7.174766374374746e+00
 9.072811629989095e-01	 1.079854203305509e+00	 6.879936821888284e+00
 8.830666646026430e-01	 1.098593320396329e+00	 6.582456774912716e+00
 1.110157704312310e+00	 8.923622990673346e-01	 9.276170218126895e+00
 1.091221329200549e+00	 9.168316922921298e-01	 9.063433439524772e+00
 1.071623986107216e+00	 9.407421258442269e-01	 8.836373495704706e+00
 1.051374696684083e+00	 9.640773692956361e-01	 8.596131163700313e+00
 1.030483608512344e+00	 9.868221042844536e-01	 8.343939077137325e+00
 1.008961970619164e+00	 1.008961970619164e+00	 8.081113446589052e+00
 9.868221042844530e-01	 1.030483608512344e+00	 7.809044791284850e+00
 9.640773692956357e-01	 1.051374696684084e+00	 7.529187809354726e+00
 9.407421258442266e-01	 1.071623986107216e+00	 7.243050530570393e+00
 9.168316922921292e-01	 1.091221329200549e+00	 6.952182909004323e+00
 8.923622990673349e-01	 1.110157704312310e+00	 6.658165022788340e+00
 1.121722072038720e+00	 9.016579205184524e-01	 9.301519265180010e+00
 1.102588439182163e+00	 9.263822082149419e-01	 9.093793014094325e+00
 1.082786953126889e+00	 9.505417136288637e-01	 8.871845912170571e+00
 1.062326729502046e+00	 9.741200372619742e-01	 8.636748611204448e+00
 1.041218021594859e+00	 9.971017011829885e-01	 8.389662396632090e+00
 1.019472195612146e+00	 1.019472195612146e+00	 8.131831458533400e+00
 9.971017011829884e-01	 1.041218021594859e+00	 7.864574185878224e+00
 9.741200372619737e-01	 1.062326729502046e+00	 7.589273603136221e+00
 9.505417136288635e-01	 1.082786953126890e+00	 7.307367085032633e+00
 9.263822082149412e-01	 1.102588439182163e+00	 7.020335498769169e+00
 9.016579205184526e-01	 1.121722072038720e+00	 6.729691933052357e+00
 1.133286420877215e+00	 9.109535267870686e-01	 9.324853873781645e+00
 1.113955530598024e+00	 9.359327085389288e-01	 9.121815165061733e+00
 1.093949901914216e+00	 9.603412854078683e-01	 8.904676470443841e+00
 1.073278744432160e+00	 9.841626888256640e-01	 8.674441233674088e+00
 1.051952417144943e+00	 1.007381281291911e+00	 8.432202184047922e+00
 1.029982403438847e+00	 1.029982403438848e+00	 8.179134135247285e+00
 1.007381281291911e+00	 1.051952417144943e+00	 7.916485820865513e+00
 9.841626888256638e-01	 1.073278744432160e+00	 7.645570877985206e+00
 9.603412854078678e-01	 1.093949901914216e+00	 7.367758106685173e+00
 9.359327085389286e-01	 1.113955530598024e+00	 7.084461146924816e+00
 9.109535267870685e-01	 1.133286420877215e+00	 6.797127724496693e+00
 1.144850748129450e+00	 9.202491157042549e-01	 9.346001186687495e+00
 1.125322600795804e+00	 9.454831910356732e-01	 9.147355818241808e+00
 1.105112829864497e+00	 9.701408388946942e-01	 8.934749350591623e+00
 1.084230738918943e+00	 9.942053216434308e-01	 8.709120893398602e+00
 1.062686792657895e+00	 1.017660842212654e+00	 8.471497370989660e+00
 1.040492591646879e+00	 1.040492591646879e+00	 8.222986826579479e+00
 1.017660842212653e+00	 1.062686792657896e+00	 7.964770778156100e+00
 9.942053216434305e-01	 1.084230738918943e+00	 7.698095729939645e+00
 9.701408388946938e-01	 1.105112829864497e+00	 7.424263959652011e+00
 9.454831910356730e-01	 1.125322600795804e+00	 7.144623715403380e+00
 9.202491157042547e-01	 1.144850748129450e+00	 6.860558966417553e+00
 1.156415051097081e+00	 9.295446851010828e-01	 9.364795254271431e+00
 1.136689647123178e+00	 9.550336534767583e-01	 9.170276655767118e+00
 1.116275734373034e+00	 9.799403718027949e-01	 8.961953358890172e+00
 1.095182710406913e+00	 1.004247933371997e+00	 8.740702971690446e+00
 1.073421145629011e+00	 1.027940381546648e+00	 8.507489325457566e+00
 1.051002757783851e+00	 1.051002757783852e+00	 8.263356262232417e+00
 1.027940381546647e+00	 1.073421145629011e+00	 8.009420490462155e+00
 1.004247933371997e+00	 1.095182710406913e+00	 7.746863605550538e+00
 9.799403718027947e-01	 1.116275734373035e+00	 7.476923388166049e+00
 9.550336534767578e-01	 1.136689647123179e+00	 7.200884506696038e+00
 9.295446851010828e-01	 1.156415051097081e+00	 6.920068760780795e+00
 8.365883729880681e-01	 1.040771252414892e+00	 6.137756846523800e+00
 8.131403546067379e-01	 1.057897033854957e+00	 5.817886123450579e+00
 7.892011321926615e-01	 1.074389462904693e+00	 5.491965610646316e+00
 7.647882075584603e-01	 1.090243324556970e+00	 5.162245051702069e+00
 7.399197341251362e-01	 1.105454505428851e+00	 4.831025932373969e+00
 7.146144600257591e-01	 1.120019993718943e+00	 4.500643380086587e+00
 6.888916695037869e-01	 1.133937874613762e+00	 4.173448126587102e+00
 6.627711229717848e-01	 1.147207321243900e+00	 3.851788782927408e+00
 6.362729960993706e-01	 1.159828581322929e+00	 3.537994660710796e+00
 6.094178182985774e-01	 1.171802959632020e+00	 3.234359353841924e+00
 5.822264109706172e-01	 1.183132796540936e+00	 2.943125271646498e+00
 8.458840399867049e-01	 1.052335676803569e+00	 6.235867089214214e+00
 8.221754813233382e-01	 1.069651749630091e+00	 5.919666994326482e+00
 7.979702606633309e-01	 1.086327432635354e+00	 5.596906604164335e+00
 7.732860742889248e-01	 1.102357452866200e+00	 5.269813543997474e+00
 7.481412773310232e-01	 1.117737651234249e+00	 4.940673480296502e+00
 7.225548262406796e-01	 1.132464982472780e+00	 4.611811933742681e+00
 6.965462195362724e-01	 1.146537510492047e+00	 4.285576087552618e+00
 6.701354371961920e-01	 1.159954399234961e+00	 3.964316845373093e+00
 6.433428790699675e-01	 1.172715899167537e+00	 3.650371378677924e+00
 6.161893026801172e-01	 1.184823329568884e+00	 3.346046384637179e+00
 5.886957607827459e-01	 1.196279056813543e+00	 3.053602252598696e+00
 8.551797048164094e-01	 1.063900098494396e+00	 6.329282917230989e+00
 8.312106059317125e-01	 1.081406462662920e+00	 6.016579687844233e+00
 8.067393870877567e-01	 1.098265399580878e+00	 5.696858031043279e+00
 7.817839390363607e-01	 1.114471578349103e+00	 5.372321338512335e+00
 7.563628186182836e-01	 1.130020794173789e+00	 5.045236746850748e+00
 7.304951906025154e-01	 1.144909968322899e+00	 4.717916901710040e+00
 7.042007677823060e-01	 1.159137143430437e+00	 4.392701654710923e+00
 6.774997497018219e-01	 1.172701474251644e+00	 4.071939951648329e+00
 6.504127603904530e-01	 1.185603214004979e+00	 3.757972157042199e+00
 6.229607854811502e-01	 1.197843696467493e+00	 3.453113041838598e+00
 5.951651090848594e-01	 1.209425314018505e+00	 3.159635638774714e+00
 8.644753653082524e-01	 1.075464514789027e+00	 6.418115968442248e+00
 8.402457263237391e-01	 1.093161170210712e+00	 6.108763208526398e+00
 8.155085094198986e-01	 1.110203360955788e+00	 5.791983538665654e+00
 7.902817998180374e-01	 1.126585698179116e+00	 5.469954097558622e+00
 7.645843560686761e-01	 1.142303931381488e+00	 5.144920891884503e+00
 7.384355512586462e-01	 1.157354948365572e+00	 4.819180548145208e+00
 7.118553124559701e-01	 1.171736770489137e+00	 4.495061939942748e+00
 6.848640587704878e-01	 1.185448543319762e+00	 4.174907952649488e+00
 6.574826384113471e-01	 1.198490522828354e+00	 3.861057634803523e+00
 6.297322651218268e-01	 1.210864057289906e+00	 3.555828967993097e+00
 6.016344543676049e-01	 1.222571565088503e+00	 3.261502465236808e+00
 8.737710192933065e-01	 1.087028922989120e+00	 6.502473127347943e+00
 8.492808403912974e-01	 1.104915869530733e+00	 6.196350643387820e+00
 8.242776256137179e-01	 1.122141313974611e+00	 5.882439808704499e+00
 7.987796546512239e-01	 1.138699809529677e+00	 5.562889581392295e+00
 7.728058877639600e-01	 1.154587059991365e+00	 5.239922343991012e+00
 7.463759063564516e-01	 1.169799919697072e+00	 4.915815678611627e+00
 7.195098517713455e-01	 1.184336388728351e+00	 4.592883965238175e+00
 6.922283626840020e-01	 1.198195603465128e+00	 4.273460067827791e+00
 6.645525114831701e-01	 1.211377822630763e+00	 3.959877360985315e+00
 6.365037400222959e-01	 1.223884408998181e+00	 3.654452333078209e+00
 6.081037951216300e-01	 1.235717806956221e+00	 3.359467980433566e+00
 8.830666646026430e-01	 1.098593320396329e+00	 6.582456774912716e+00
 8.583159460262664e-01	 1.116670557880253e+00	 6.279469473049287e+00
 8.330467336231733e-01	 1.134079255851869e+00	 5.968376923418424e+00
 8.072775015531897e-01	 1.150813909574226e+00	 5.651298063805159e+00
 7.810274117858935e-01	 1.166870177137439e+00	 5.330429259760414e+00
 7.543162540433123e-01	 1.182244879413672e+00	 5.008026137631694e+00
 7.271643839425146e-01	 1.196935995208283e+00	 4.686385193495948e+00
 6.995926597241775e-01	 1.210942651713558e+00	 4.367825444514518e+00
 6.716223779564410e-01	 1.224265110405306e+00	 4.054670378116850e+00
 6.432752086027077e-01	 1.236904748554375e+00	 3.749230438145824e+00
 6.145731298375836e-01	 1.248864036554340e+00	 3.453786266397570e+00
 8.923622990673349e-01	 1.110157704312310e+00	 6.658165022788340e+00
 8.673510411205249e-01	 1.128425232516537e+00	 6.358241863412196e+00
 8.418158314022248e-01	 1.146017183802086e+00	 6.049938709059914e+00
 8.157753385412038e-01	 1.162927995486199e+00	 5.735342721749634e+00
 7.892489262162360e-01	 1.179153279953729e+00	 5.416621954335988e+00
 7.622565924666068e-01	 1.194689824611644e+00	 5.096007275150267e+00
 7.348189071835585e-01	 1.209535586989136e+00	 4.775774026157285e+00
 7.069569481728264e-01	 1.223689685090863e+00	 4.458223682297691e+00
 6.786922361816808e-01	 1.237152383145082e+00	 4.145665769257856e+00
 6.500466692832122e-01	 1.249925072920549e+00	 3.840400281248437e+00
 6.210424570061129e-01	 1.262010250815542e+00	 3.544700820191692e+00
 9.016579205184526e-01	 1.121722072038720e+00	 6.729691933052357e+00
 8.763861235659521e-01	 1.140179890696855e+00	 6.432784939296198e+00
 8.505849169048336e-01	 1.157955095039786e+00	 6.127263058047447e+00
 8.242731636325352e-01	 1.175042064439034e+00	 5.815180000869320e+00
 7.974704291367462e-01	 1.191436365574252e+00	 5.498673305345203e+00
 7.701969197737161e-01	 1.207134752387260e+00	 5.179946384152549e+00
 7.424734197085591e-01	 1.222135161131116e+00	 4.861250270066058e+00
 7.143212263117621e-01	 1.236436700622859e+00	 4.544865324971986e+00
 6.857620845094089e-01	 1.250039637843193e+00	 4.233083171195828e+00
 6.568181204839595e-01	 1.262945379058760e+00	 3.928189088369061e+00
 6.275117751178659e-01	 1.275156446672509e+00	 3.632445099399079e+00
 9.109535267870685e-01	 1.133286420877215e+00	 6.797127724496693e+00
 8.854211912544271e-01	 1.151934529678473e+00	 6.503211041328130e+00
 8.593539880849593e-01	 1.169892986779494e+00	 6.200482231418009e+00
 8.327709748444536e-01	 1.187156113606170e+00	 5.890959958656406e+00
 8.056919186291830e-01	 1.203719431133028e+00	 5.576749132106917e+00
 7.781372341120194e-01	 1.219579659836794e+00	 5.260023111496335e+00
 7.501279197315985e-01	 1.234734714694425e+00	 4.943005575753695e+00
 7.216854924227964e-01	 1.249183695335357e+00	 4.627952322377483e+00
 6.928319212901455e-01	 1.262926871492738e+00	 4.317133256231068e+00
 6.635895606250989e-01	 1.275965663931068e+00	 4.012814811854099e+00
 6.339810826634908e-01	 1.288302621057924e+00	 3.717243034224787e+00
 9.202491157042547e-01	 1.144850748129450e+00	 6.860558966417553e+00
 8.944562420778284e-01	 1.163689146718658e+00	 6.569627967266035e+00
 8.681230428965616e-01	 1.181830856235735e+00	 6.269723142954316e+00
 8.412687701942280e-01	 1.199270140161045e+00	 5.962826586816838e+00
 8.139133927753052e-01	 1.216002473764074e+00	 5.651008551862432e+00
 7.860775336288973e-01	 1.232024544056519e+00	 5.336409843851774e+00
 7.577824054667582e-01	 1.247334244739269e+00	 5.021223849168342e+00
 7.290497447877430e-01	 1.261930666254174e+00	 4.707678464255185e+00
 6.999017448744103e-01	 1.275814081086816e+00	 4.398018184771071e+00
 6.703609881267807e-01	 1.288985924499531e+00	 4.094486598645879e+00
 6.404503781336349e-01	 1.301448770904468e+00	 3.799309508569176e+00
 9.295446851010828e-01	 1.156415051097081e+00	 6.920068760780795e+00
 9.034912739280351e-01	 1.175443739074679e+00	 6.632139198847558e+00
 8.768920792936006e-01	 1.193768700623031e+00	 6.335107626268566e+00
 8.497665476991274e-01	 1.211384141277095e+00	 6.030918114299022e+00
 8.221348496568712e-01	 1.228285490601410e+00	 5.721604314638292e+00
 7.940178164717289e-01	 1.244469402142706e+00	 5.409272070490908e+00
 7.654368751281195e-01	 1.259933748325849e+00	 5.096081638706606e+00
 7.364139816884138e-01	 1.274677610405123e+00	 4.784229788078553e+00
 7.069715536127235e-01	 1.288701263618529e+00	 4.475932030775712e+00
 6.771324014091542e-01	 1.302006157726207e+00	 4.173405230428960e+00
 6.469196600189466e-01	 1.314594893144823e+00	 3.878850812244491e+00
 5.822264109706172e-01	 1.183132796540936e+00	 2.943125271646497e+00
 5.547217605929659e-01	 1.193820718170789e+00	 2.664782624445596e+00
 5.269231856692952e-01	 1.203871877666055e+00	 2.398855586291396e+00
 4.988520042113924e-01	 1.213291563054103e+00	 2.146073548483714e+00
 4.705295839165803e-01	 1.222085976622864e+00	 1.907065062585942e+00
 4.419772843415477e-01	 1.230262197256569e+00	 1.682360085093232e+00
 4.132164007555683e-01	 1.237828140375747e+00	 1.472393003911961e+00
 3.842681099253542e-01	 1.244792515783489e+00	 1.277506347577931e+00
 3.551534180596826e-01	 1.251164783723347e+00	 1.097955075684653e+00
 3.258931111168158e-01	 1.256955109454539e+00	 9.339113488087558e-01
 2.965077076518963e-01	 1.262174316647596e+00	 7.854696780707193e-01
 5.886957607827459e-01	 1.196279056813543e+00	 3.053602252598697e+00
 5.608854952672502e-01	 1.207085736202502e+00	 2.773425467103416e+00
 5.327780392929063e-01	 1.217248578138877e+00	 2.504985453480933e+00
 5.043949477444409e-01	 1.226772929407417e+00	 2.249111613157337e+00
 4.757578257441908e-01	 1.235665061212146e+00	 2.006538031873790e+00
 4.468882701834050e-01	 1.243932131093599e+00	 1.777904574326505e+00
 4.178078129515951e-01	 1.251582142423700e+00	 1.563758783043109e+00
 3.885378661189793e-01	 1.258623901783632e+00	 1.364558496115324e+00
 3.590996693027055e-01	 1.265066974533483e+00	 1.180675094262414e+00
 3.295142394221147e-01	 1.270921638882720e+00	 1.012397285733112e+00
 2.998023230222043e-01	 1.276198838767993e+00	 8.599353375842163e-01
 5.951651090848594e-01	 1.209425314018505e+00	 3.159635638774709e+00
 5.670492285028373e-01	 1.220350751138875e+00	 2.877828943239757e+00
 5.386328915499144e-01	 1.230625275490343e+00	 2.607113994950965e+00
 5.099378899836980e-01	 1.240254292615020e+00	 2.348414613912073e+00
 4.809860663514815e-01	 1.249244142632999e+00	 2.102564594095427e+00
 4.517992548790164e-01	 1.257602061741100e+00	 1.870307703067030e+00
 4.223992240759929e-01	 1.265336141262610e+00	 1.652298506985209e+00
 3.928076213160800e-01	 1.272455284556779e+00	 1.449103948666519e+00
 3.630459196247389e-01	 1.278969162100207e+00	 1.261205600654249e+00
 3.331353668823325e-01	 1.284888165052573e+00	 1.089002511561634e+00
 3.030969376236582e-01	 1.290223357616614e+00	 9.328145622544863e-01
 6.016344543676049e-01	 1.222571565088503e+00	 3.261502465236810e+00
 5.732129588616812e-01	 1.233615759884870e+00	 2.978275619802353e+00
 5.444877410743385e-01	 1.244001966599343e+00	 2.705527196265221e+00
 5.154808296359519e-01	 1.253735649531359e+00	 2.444270019586464e+00
 4.862143045186587e-01	 1.262823217717048e+00	 2.195431950496365e+00
 4.567102372826002e-01	 1.271271986009470e+00	 1.959854843612284e+00
 4.269906330575337e-01	 1.279090133683234e+00	 1.738294350822631e+00
 3.970773745204668e-01	 1.286286660875608e+00	 1.531420510096817e+00
 3.669921681050630e-01	 1.292871343179647e+00	 1.339819052592705e+00
 3.367564926525978e-01	 1.298854684705190e+00	 1.163993355648909e+00
 3.063915506875612e-01	 1.304247869921001e+00	 1.004366965892032e+00
 6.081037951216300e-01	 1.235717806956221e+00	 3.359467980433568e+00
 5.793766849057363e-01	 1.246880759345453e+00	 3.075036042244789e+00
 5.503425865001976e-01	 1.257378648344766e+00	 2.800498876524745e+00
 5.210237654079908e-01	 1.267216997010882e+00	 2.536953069927352e+00
 4.914425390259290e-01	 1.276402283295917e+00	 2.285415085088650e+00
 4.616212162483762e-01	 1.284941900709110e+00	 2.046819229306348e+00
 4.315820388249896e-01	 1.292844116476330e+00	 1.822016487169503e+00
 4.013471247359497e-01	 1.300118027512793e+00	 1.611774169177625e+00
 3.709384138229581e-01	 1.306773514527931e+00	 1.416776319639431e+00
 3.403776158880399e-01	 1.312821194581663e+00	 1.237624820320418e+00
 3.096861614452166e-01	 1.318272372408692e+00	 1.074841121378526e+00
 6.145731298375836e-01	 1.248864036554340e+00	 3.453786266397570e+00
 5.855404051969570e-01	 1.260145746425586e+00	 3.168369367112491e+00
 5.561974264615117e-01	 1.270755317605502e+00	 2.892291328610634e+00
 5.265666960066031e-01	 1.280698331908039e+00	 2.626727419155151e+00
 4.966707686534990e-01	 1.289981336201229e+00	 2.372777407619175e+00
 4.665321906305637e-01	 1.298611802650422e+00	 2.131462593414772e+00
 4.361734403071331e-01	 1.306598086432659e+00	 1.903723717887902e+00
 4.056168709663396e-01	 1.313949381241011e+00	 1.690419720520711e+00
 3.748846558577049e-01	 1.320675672901190e+00	 1.492327293148009e+00
 3.439987357437878e-01	 1.326787691423086e+00	 1.310141177114518e+00
 3.129807691279275e-01	 1.332296861807227e+00	 1.144475141872839e+00
 6.210424570061129e-01	 1.262010250815542e+00	 3.544700820191691e+00
 5.917041182972975e-01	 1.273410718030232e+00	 3.258523955103017e+00
 5.620522595922993e-01	 1.284131971260440e+00	 2.981155919422265e+00
 5.321096201385771e-01	 1.294179651077275e+00	 2.713845739318117e+00
 5.018989921815754e-01	 1.303560373264609e+00	 2.457771356363757e+00
 4.714431592833819e-01	 1.312281688643805e+00	 2.214035768081088e+00
 4.407648364327355e-01	 1.320352040342977e+00	 1.983664066334315e+00
 4.098866122154466e-01	 1.327780718832936e+00	 1.767601347652168e+00
 3.788308932885837e-01	 1.334577815055549e+00	 1.566711458114689e+00
 3.476198513749703e-01	 1.340754171970550e+00	 1.381776525769221e+00
 3.162753729669972e-01	 1.346321334844147e+00	 1.213497225700967e+00
 6.275117751178659e-01	 1.275156446672509e+00	 3.632445099399082e+00
 5.978678227687122e-01	 1.286675671064355e+00	 3.345737927452022e+00
 5.679070845265799e-01	 1.297508606188468e+00	 3.067333652997402e+00
 5.376525365107008e-01	 1.307660951373040e+00	 2.798550286334994e+00
 5.071272083903645e-01	 1.317139391317681e+00	 2.540638963644652e+00
 4.763541210610505e-01	 1.325951555499662e+00	 2.294779246244431e+00
 4.453562261305695e-01	 1.334105974998043e+00	 2.062075332981915e+00
 4.141563474870814e-01	 1.341612037061243e+00	 1.843553170029850e+00
 3.827771251948752e-01	 1.348479937747140e+00	 1.640158429666153e+00
 3.512409619367163e-01	 1.354720632965146e+00	 1.452755318642025e+00
 3.195699721937289e-01	 1.360345788246990e+00	 1.282126167551081e+00
 6.339810826634908e-01	 1.288302621057924e+00	 3.717243034224789e+00
 6.040315171731551e-01	 1.299940602432917e+00	 3.430239688263928e+00
 5.737618998983728e-01	 1.310885219268478e+00	 3.151055699164941e+00
 5.431954438297628e-01	 1.321142229649781e+00	 2.881073431391705e+00
 5.123554160600733e-01	 1.330718387192070e+00	 2.621612386734128e+00
 4.812650748177888e-01	 1.339621400028392e+00	 2.373923709162642e+00
 4.499476083294071e-01	 1.347859887188614e+00	 2.139185617034919e+00
 4.184260757850540e-01	 1.355443332698608e+00	 1.918499756578504e+00
 3.867233506558597e-01	 1.362382037732089e+00	 1.712888456710166e+00
 3.548620665841549e-01	 1.368687071147968e+00	 1.523292853030704e+00
 3.228645660394259e-01	 1.374370218743297e+00	 1.350571838378851e+00
 6.404503781336349e-01	 1.301448770904468e+00	 3.799309508569176e+00
 6.101952000725803e-01	 1.313205509040881e+00	 3.512248415194406e+00
 5.796167043416972e-01	 1.324261807379358e+00	 3.232543890166418e+00
 5.487383408025510e-01	 1.334623482761947e+00	 2.961638160140605e+00
 5.175836139709077e-01	 1.344297357719399e+00	 2.700914406590381e+00
 4.861760194078159e-01	 1.353291219040396e+00	 2.451690521973653e+00
 4.545389819580204e-01	 1.361613773705451e+00	 2.215213806437191e+00
 4.226957961131751e-01	 1.369274602517706e+00	 1.992656608110191e+00
 3.906695687508178e-01	 1.376284111766524e+00	 1.785112895069560e+00
 3.584831644724150e-01	 1.382653483260108e+00	 1.593595733664653e+00
 3.261591537353913e-01	 1.388394623060607e+00	 1.419035636235490e+00
 6.469196600189466e-01	 1.314594893144823e+00	 3.878850812244492e+00
 6.163588700289421e-01	 1.326470387793212e+00	 3.591974520699977e+00
 5.854714964905722e-01	 1.337638367399996e+00	 3.312011187488122e+00
 5.542812261358540e-01	 1.348104707563986e+00	 3.040458541955570e+00
 5.228118009030747e-01	 1.357876299731294e+00	 2.778758896677101e+00
 4.910869536853514e-01	 1.366961009346076e+00	 2.528292199530255e+00
 4.591303459451811e-01	 1.375367631339310e+00	 2.290370038489309e+00
 4.269655074752550e-01	 1.383105843291213e+00	 2.066230610806848e+00
 3.946157785590299e-01	 1.390186156606576e+00	 1.857034652236180e+00
 3.621042547566256e-01	 1.396619866042657e+00	 1.663862307453590e+00
 3.294537345129284e-01	 1.402418997926461e+00	 1.487710910053112e+00
 2.965077076518963e-01	 1.262174316647596e+00	 7.854696780707171e-01
 2.670153521752661e-01	 1.266834146772720e+00	 6.535548812807970e-01
 2.374379815785563e-01	 1.270946214663118e+00	 5.386193125013365e-01
 2.077950911590201e-01	 1.274523035088650e+00	 4.399006646489689e-01
 1.781057461811192e-01	 1.277577589043705e+00	 3.565621172621973e-01
 1.483885491539033e-01	 1.280123275467486e+00	 2.877048158573858e-01
 1.186616101822315e-01	 1.282173863421045e+00	 2.323798241937955e-01
 8.894252039400018e-02	 1.283743444944866e+00	 1.895994594083494e-01
 5.924832842448790e-02	 1.284846388803535e+00	 1.583479388124460e-01
 2.959551991936728e-02	 1.285497295306093e+00	 1.375912849544192e-01
 0.000000000000000e+00	 1.285710952372222e+00	 1.262864520923448e-01
 2.998023230222043e-01	 1.276198838767993e+00	 8.599353375842163e-01
 2.699822662242061e-01	 1.280910446123660e+00	 7.241767743345542e-01
 2.400762496692715e-01	 1.285068204839977e+00	 6.055166384161297e-01
 2.101039852746391e-01	 1.288684768743407e+00	 5.032753860691666e-01
 1.800847501464906e-01	 1.291773263065350e+00	 4.166971792766723e-01
 1.500373534937380e-01	 1.294347235625973e+00	 3.449619235226318e-01
 1.199801066498031e-01	 1.296420608479858e+00	 2.871968344046307e-01
 8.993079620458681e-02	 1.298007630249775e+00	 2.424874425001107e-01
 5.990666022752165e-02	 1.299122829357391e+00	 2.098879639850695e-01
 2.992436754283312e-02	 1.299780968341605e+00	 1.884309816904941e-01
 0.000000000000000e+00	 1.299996999436575e+00	 1.771363973064977e-01
 3.030969376236582e-01	 1.290223357616614e+00	 9.328145622544863e-01
 2.729491795807888e-01	 1.294986742190813e+00	 7.934890098158283e-01
 2.427145171443394e-01	 1.299190191722442e+00	 6.713624047266751e-01
 2.124128788514845e-01	 1.302846499094541e+00	 5.658347643708348e-01
 1.820637536500774e-01	 1.305968933775486e+00	 4.762281941705362e-01
 1.516861574488442e-01	 1.308571192466371e+00	 4.017984919634587e-01
 1.212986028097239e-01	 1.310667350215280e+00	 3.417463350300118e-01
 9.091907178457713e-02	 1.312271812227235e+00	 2.952279587341398e-01
 6.056499187694677e-02	 1.313399266580941e+00	 2.613652531214610e-01
 3.025321508956925e-02	 1.314064638045126e+00	 2.392552203921088e-01
 0.000000000000000e+00	 1.314283043168385e+00	 2.279787516823908e-01
 3.063915506875612e-01	 1.304247869921001e+00	 1.004366965892030e+00
 2.759160915527708e-01	 1.309063031689621e+00	 8.617442817083347e-01
 2.453527833881924e-01	 1.313312172015283e+00	 7.364024984326520e-01
 2.147217713508357e-01	 1.317008222837535e+00	 6.278180824131496e-01
 1.840427562301275e-01	 1.320164597861665e+00	 5.353881303841594e-01
 1.533349606345122e-01	 1.322795142669631e+00	 4.584415483853312e-01
 1.226170983543528e-01	 1.324914085302944e+00	 3.962498650314668e-01
 9.190734690337890e-02	 1.326535987548803e+00	 3.480375877801973e-01
 6.122332321915580e-02	 1.327675697142885e+00	 3.129920275250777e-01
 3.058206248284614e-02	 1.328348301083665e+00	 2.902725328100941e-01
 0.000000000000000e+00	 1.328569080234105e+00	 2.790190899787028e-01
 3.096861614452166e-01	 1.318272372408692e+00	 1.074841121378526e+00
 2.788830014479088e-01	 1.323139311335524e+00	 9.291845378298302e-01
 2.479910477852629e-01	 1.327434142423264e+00	 8.008723502965067e-01
 2.170306622339722e-01	 1.331169936667870e+00	 6.894544480823768e-01
 1.860217574248893e-01	 1.334360252011446e+00	 5.944000502872773e-01
 1.549837626660326e-01	 1.337019082916703e+00	 5.151084669124277e-01
 1.239355929760488e-01	 1.339160810418477e+00	 4.509195439690643e-01
 9.289562133039975e-02	 1.340800152886037e+00	 4.011237010449631e-01
 6.188165410054127e-02	 1.341952117711918e+00	 3.649714857709312e-01
 3.091090964593424e-02	 1.342631954124233e+00	 3.416825850092768e-01
 0.000000000000000e+00	 1.342855107300192e+00	 3.304542471063201e-01
 3.129807691279275e-01	 1.332296861807227e+00	 1.144475141872837e+00
 2.818499085739596e-01	 1.337215577843965e+00	 9.960415455444369e-01
 2.506293097199830e-01	 1.341556099651152e+00	 8.649974853147693e-01
 2.193395509621732e-01	 1.345331637281030e+00	 7.509633299759486e-01
 1.880007567726109e-01	 1.348555892912382e+00	 6.534776317253033e-01
 1.566325631586960e-01	 1.351243009888536e+00	 5.720074768307535e-01
 1.252540863671707e-01	 1.353407522237509e+00	 5.059585679562706e-01
 9.388389483504743e-02	 1.355064304910496e+00	 4.546849465227680e-01
 6.253998436749579e-02	 1.356228524956741e+00	 4.174982787973804e-01
 3.123975650210397e-02	 1.356915593833839e+00	 3.936766441984474e-01
 0.000000000000000e+00	 1.357141121033102e+00	 3.824727783364892e-01
 3.162753729669972e-01	 1.346321334844147e+00	 1.213497225700969e+00
 2.848168122386797e-01	 1.351291827930385e+00	 1.062537422127340e+00
 2.532675685767853e-01	 1.355678040403714e+00	 9.289940387937041e-01
 2.216484369967182e-01	 1.359493321372498e+00	 8.125550596157585e-01
 1.899797538115407e-01	 1.362751517252028e+00	 7.128256569774962e-01
 1.582813617277927e-01	 1.365466920266081e+00	 6.293381390757065e-01
 1.265725782200774e-01	 1.367654217435671e+00	 5.615616746265268e-01
 9.487216718672974e-02	 1.369328440293738e+00	 5.089117033515129e-01
 6.319831386641184e-02	 1.370504915546047e+00	 4.707589553127782e-01
 3.156860297462580e-02	 1.371199216879492e+00	 4.464380163914623e-01
 0.000000000000000e+00	 1.371427118099289e+00	 4.352553907536931e-01
 3.195699721937289e-01	 1.360345788246990e+00	 1.282126167551081e+00
 2.877837117498259e-01	 1.365368058310224e+00	 1.128885132331723e+00
 2.559058237401016e-01	 1.369799961385716e+00	 9.930692405118247e-01
 2.239573197988864e-01	 1.373654985637755e+00	 8.744313026046202e-01
 1.919587480799268e-01	 1.376947121717941e+00	 7.726404714789801e-01
 1.599301579886132e-01	 1.379690810730285e+00	 6.872917932531013e-01
 1.278910682271278e-01	 1.381900892688592e+00	 6.179155793463196e-01
 9.586043815485427e-02	 1.383592555707320e+00	 5.639865082591753e-01
 6.385664244368201e-02	 1.384781286148536e+00	 5.249323796582810e-01
 3.189744898677018e-02	 1.385482819928203e+00	 5.001424570036439e-01
 0.000000000000000e+00	 1.385713095165209e+00	 4.889753480278931e-01
 3.228645660394259e-01	 1.374370218743297e+00	 1.350571838378851e+00
 2.907506064151547e-01	 1.379444265698925e+00	 1.195288955501628e+00
 2.585440745943647e-01	 1.383921859301924e+00	 1.057421869247537e+00
 2.262661988299575e-01	 1.387816626772285e+00	 9.367855009447004e-01
 1.939377391160176e-01	 1.391142702997676e+00	 8.331104144644492e-01
 1.615789515564478e-01	 1.393914677962101e+00	 7.460519772995187e-01
 1.292095560806810e-01	 1.396147544671901e+00	 6.751993847287958e-01
 9.684870750882889e-02	 1.397856647822801e+00	 6.200844559083729e-01
 6.451496994569883e-02	 1.399057633432906e+00	 5.801901240948122e-01
 3.222629446180756e-02	 1.399766399646979e+00	 5.549585563166199e-01
 0.000000000000000e+00	 1.399999048897318e+00	 5.437988504115792e-01
 3.261591537353913e-01	 1.388394623060607e+00	 1.419035636235490e+00
 2.937174955424229e-01	 1.393520446811928e+00	 1.261944924381356e+00
 2.611823205240066e-01	 1.398043730857107e+00	 1.122242679766881e+00
 2.285750735512107e-01	 1.401978241471570e+00	 9.998032885551777e-01
 1.959167264580612e-01	 1.405338257778787e+00	 8.944162235200541e-01
 1.632277420465874e-01	 1.408138518642477e+00	 8.057948217149287e-01
 1.305280414730955e-01	 1.410394170061229e+00	 7.335849653344828e-01
 9.783697501806117e-02	 1.412120713311740e+00	 6.773735749841487e-01
 6.517329621885488e-02	 1.413333954067853e+00	 6.366968373203934e-01
 3.255513932300839e-02	 1.414049952702832e+00	 6.110481015874167e-01
 0.000000000000000e+00	 1.414284975962072e+00	 5.998853917124876e-01
 3.294537345129284e-01	 1.402418997926461e+00	 1.487710910053112e+00
 2.966843784393872e-01	 1.407596598364675e+00	 1.329041237603767e+00
 2.638205609134598e-01	 1.412165572756028e+00	 1.187714804198627e+00
 2.308839434239252e-01	 1.416139826431092e+00	 1.063662881866054e+00
 1.978957096443058e-01	 1.419533782748832e+00	 9.567314148676247e-01
 1.648765290743220e-01	 1.422362329452364e+00	 8.666894201481106e-01
 1.318465240967305e-01	 1.424640765532204e+00	 7.932373292965518e-01
 9.882524045195897e-02	 1.426384748845694e+00	 7.360151817219271e-01
 6.583162110954265e-02	 1.427610244722075e+00	 6.946105908827767e-01
 3.288398349364309e-02	 1.428333475762771e+00	 6.685664174370343e-01
 0.000000000000000e+00	 1.428570873025926e+00	 6.573880948537973e-01
 1.428570873025926e+00	 0.000000000000000e+00	 1.221426145138840e+01
 1.428333475762771e+00	 3.288398349364353e-02	 1.219793361142976e+01
 1.427610244722076e+00	 6.583162110954309e-02	 1.217781757039877e+01
 1.426384748845693e+00	 9.882524045195930e-02	 1.215328031357554e+01
 1.424640765532204e+00	 1.318465240967308e-01	 1.212369484607573e+01
 1.422362329452363e+00	 1.648765290743223e-01	 1.208844549098368e+01
 1.419533782748831e+00	 1.978957096443060e-01	 1.204693361429032e+01
 1.416139826431091e+00	 2.308839434239253e-01	 1.199858375205873e+01
 1.412165572756028e+00	 2.638205609134598e-01	 1.194285010578222e+01
 1.407596598364675e+00	 2.966843784393872e-01	 1.187922336179738e+01
 1.402418997926461e+00	 3.294537345129283e-01	 1.180723778001630e+01
 1.442856738422074e+00	 0.000000000000000e+00	 1.212997531102424e+01
 1.442616967160266e+00	 3.321282693534739e-02	 1.211402147760160e+01
 1.441886503729889e+00	 6.648994454095894e-02	 1.209452080524185e+01
 1.440648752760408e+00	 9.981350369522651e-02	 1.207086915788230e+01
 1.438887329422610e+00	 1.331650037977660e-01	 1.204246748551715e+01
 1.436586108732203e+00	 1.665253124472980e-01	 1.200872685286955e+01
 1.433729276251555e+00	 1.998746884438770e-01	 1.196907388027557e+01
 1.430301379998563e+00	 2.331928081787428e-01	 1.192295657408073e+01
 1.426287383351045e+00	 2.664587954549431e-01	 1.186985051482015e+01
 1.421672718714860e+00	 2.996512547599297e-01	 1.180926536179198e+01
 1.416443341704605e+00	 3.327483079876941e-01	 1.174075162248323e+01
 1.457142577150667e+00	 0.000000000000000e+00	 1.205114129838854e+01
 1.456900431894637e+00	 3.354166976321469e-02	 1.203554983577282e+01
 1.456162736088080e+00	 6.714826674351429e-02	 1.201664068355872e+01
 1.454912730048382e+00	 1.008017650937523e-01	 1.199383733898287e+01
 1.453133866718838e+00	 1.344834810376646e-01	 1.196656752910688e+01
 1.450809861460411e+00	 1.681740927425823e-01	 1.193426798704012e+01
 1.447924743255468e+00	 2.018536635494074e-01	 1.189638962648949e+01
 1.444462907130610e+00	 2.355016686237530e-01	 1.185240309367171e+01
 1.440409167584866e+00	 2.690970250718210e-01	 1.180180466699554e+01
 1.435748812789194e+00	 3.026181255424343e-01	 1.174412246567421e+01
 1.430467659303615e+00	 3.360428753127599e-01	 1.167892291869858e+01
 1.471428395878593e+00	 0.000000000000000e+00	 1.197745787794124e+01
 1.471183876631666e+00	 3.387051213070462e-02	 1.196221226129679e+01
 1.470438948459055e+00	 6.780658802442420e-02	 1.194386681641022e+01
 1.469176687366300e+00	 1.017900251087220e-01	 1.192187146886926e+01
 1.467380384069432e+00	 1.358019564317108e-01	 1.189567959378609e+01
 1.465033594274894e+00	 1.698228707295979e-01	 1.186475255618980e+01
 1.462120190385275e+00	 2.038326358844076e-01	 1.182856463654893e+01
 1.458624414436090e+00	 2.378105258364077e-01	 1.178660832205448e+01
 1.454530932047793e+00	 2.717352509952452e-01	 1.173839993603997e+01
 1.449824887156638e+00	 3.055849921714104e-01	 1.168348556905698e+01
 1.444491957268275e+00	 3.393374380255506e-01	 1.162144726578892e+01
 1.485714201272741e+00	 0.000000000000000e+00	 1.190863511707512e+01
 1.485467308037133e+00	 3.419935419127627e-02	 1.189371412036076e+01
 1.484715147505218e+00	 6.846490869090381e-02	 1.187590075802213e+01
 1.483440631370847e+00	 1.027782842013209e-01	 1.185467021790598e+01
 1.481626888122938e+00	 1.371204305951887e-01	 1.182950043146099e+01
 1.479257313813562e+00	 1.714716471777679e-01	 1.179987639454098e+01
 1.476315624265676e+00	 2.058116063723873e-01	 1.176529486081069e+01
 1.472785908523857e+00	 2.401193808941586e-01	 1.172526938984078e+01
 1.468652683330120e+00	 2.743734744563666e-01	 1.167933572407443e+01
 1.463900948386158e+00	 3.085518560313680e-01	 1.162705746035319e+01
 1.458516242143368e+00	 3.426319976634912e-01	 1.156803197272179e+01
 1.500000000000000e+00	 0.000000000000000e+00	 1.184439413349930e+01
 1.499750732776819e+00	 3.452819609838880e-02	 1.182977200841962e+01
 1.498991339888977e+00	 6.912322905016832e-02	 1.181245543696378e+01
 1.497704568718708e+00	 1.037665428327345e-01	 1.179194374052225e+01
 1.495873385527899e+00	 1.384389041433825e-01	 1.176773835104826e+01
 1.493481026714322e+00	 1.731204228565149e-01	 1.173934692815009e+01
 1.490511051521376e+00	 2.077905759368570e-01	 1.170628783690845e+01
 1.486947396002769e+00	 2.424282348744578e-01	 1.166809496982702e+01
 1.482774428022150e+00	 2.770116966863368e-01	 1.162432288874376e+01
 1.477977003046713e+00	 3.115187185068158e-01	 1.157455225437353e+01
 1.472540520473678e+00	 3.459265557640069e-01	 1.151839550252845e+01
 1.514285798727260e+00	 0.000000000000000e+00	 1.178446657392978e+01
 1.514034157516504e+00	 3.485703800550132e-02	 1.177011322044356e+01
 1.513267532272734e+00	 6.978154940943283e-02	 1.175325461955160e+01
 1.511968506066570e+00	 1.047548014641481e-01	 1.173341313343966e+01
 1.510119882932860e+00	 1.397573776915763e-01	 1.171011267326272e+01
 1.507704739615082e+00	 1.747691985352620e-01	 1.168288262805435e+01
 1.504706478777075e+00	 2.097695455013266e-01	 1.165126214311723e+01
 1.501108883481681e+00	 2.447370888547570e-01	 1.161480473248982e+01
 1.496896172714179e+00	 2.796499189163070e-01	 1.157308320280509e+01
 1.492053057707269e+00	 3.144855809822638e-01	 1.152569485801201e+01
 1.486564798803988e+00	 3.492211138645225e-01	 1.147226694612608e+01
 1.528571604121408e+00	 0.000000000000000e+00	 1.172859412203693e+01
 1.528317588921971e+00	 3.518588006607298e-02	 1.171447525089665e+01
 1.527543731318899e+00	 7.043987007591246e-02	 1.169803240336752e+01
 1.526232450071117e+00	 1.057430605567471e-01	 1.167880992430556e+01
 1.524366386986366e+00	 1.410758518550542e-01	 1.165635321600355e+01
 1.521928459153750e+00	 1.764179749834320e-01	 1.163021249410928e+01
 1.518901912657477e+00	 2.117485159893064e-01	 1.159994688239649e+01
 1.515270377569448e+00	 2.470459439125080e-01	 1.156512883204032e+01
 1.511017923996508e+00	 2.822881423774285e-01	 1.152534884404535e+01
 1.506129118936787e+00	 3.174524448422210e-01	 1.148022046591856e+01
 1.500589083679082e+00	 3.525156735024633e-01	 1.142938552567005e+01
 1.542857422849333e+00	 0.000000000000000e+00	 1.167652803375209e+01
 1.542601033659000e+00	 3.551472243356290e-02	 1.166260532151763e+01
 1.541819943689873e+00	 7.109819135682234e-02	 1.164653273893886e+01
 1.540496407389035e+00	 1.067313205717167e-01	 1.162787558875923e+01
 1.538612904336961e+00	 1.423943272491004e-01	 1.160619980835417e+01
 1.536152191968234e+00	 1.780667529704477e-01	 1.158107556752578e+01
 1.533097359787283e+00	 2.137274883243064e-01	 1.155208119512138e+01
 1.529431884874928e+00	 2.493548011251626e-01	 1.151880742105499e+01
 1.525139688459433e+00	 2.849263683008526e-01	 1.148086191356044e+01
 1.520205193304232e+00	 3.204193114711973e-01	 1.143787408421313e+01
 1.514613381643741e+00	 3.558102362152540e-01	 1.138950012552094e+01
 1.557143261577926e+00	 0.000000000000000e+00	 1.162802869817492e+01
 1.556884498393372e+00	 3.584356526143021e-02	 1.161425993511590e+01
 1.556096176048064e+00	 7.175651355937768e-02	 1.159850897776966e+01
 1.554760384677008e+00	 1.077195819702425e-01	 1.158036109410385e+01
 1.552859441633188e+00	 1.437128044889990e-01	 1.155940183135648e+01
 1.550375944696441e+00	 1.797155332657319e-01	 1.153522047026240e+01
 1.547292826791196e+00	 2.157064634298368e-01	 1.150741379865836e+01
 1.543593412006975e+00	 2.516636615701728e-01	 1.147559019184615e+01
 1.539261472693255e+00	 2.875645979177306e-01	 1.143937398057315e+01
 1.534281287378566e+00	 3.233861822537020e-01	 1.139841008043917e+01
 1.528637699242752e+00	 3.591048035403198e-01	 1.135236884905132e+01
 1.571429126974074e+00	 0.000000000000000e+00	 1.158286522245088e+01
 1.571167989790867e+00	 3.617240870313405e-02	 1.156920445372602e+01
 1.570372435055877e+00	 7.241483699079355e-02	 1.155372344504506e+01
 1.569024388591724e+00	 1.087078452135097e-01	 1.153602646788942e+01
 1.567106005523594e+00	 1.450312841900342e-01	 1.151571778385450e+01
 1.564599723976281e+00	 1.813643166387076e-01	 1.149240496956229e+01
 1.561488320293920e+00	 2.176854422294079e-01	 1.146570255207562e+01
 1.557754965574446e+00	 2.539725263249902e-01	 1.143523594286918e+01
 1.553383283288272e+00	 2.902028324592137e-01	 1.140064565209962e+01
 1.548357407728751e+00	 3.263530585742443e-01	 1.136159175808534e+01
 1.542662043020896e+00	 3.623993770150854e-01	 1.131775859964647e+01
 1.402418997926461e+00	 3.294537345129283e-01	 1.180723778001630e+01
 1.396619866042658e+00	 3.621042547566253e-01	 1.172927181944662e+01
 1.390186156606576e+00	 3.946157785590295e-01	 1.164799413279325e+01
 1.383105843291214e+00	 4.269655074752547e-01	 1.156341207555184e+01
 1.375367631339310e+00	 4.591303459451807e-01	 1.147551079455967e+01
 1.366961009346076e+00	 4.910869536853510e-01	 1.138425098792323e+01
 1.357876299731293e+00	 5.228118009030744e-01	 1.128956680645389e+01
 1.348104707563986e+00	 5.542812261358537e-01	 1.119136394021496e+01
 1.337638367399997e+00	 5.854714964905721e-01	 1.108951793449054e+01
 1.326470387793212e+00	 6.163588700289419e-01	 1.098387277925191e+01
 1.314594893144823e+00	 6.469196600189466e-01	 1.087423981492140e+01
 1.416443341704605e+00	 3.327483079876941e-01	 1.174075162248323e+01
 1.410586217866144e+00	 3.657253370143579e-01	 1.166649606903655e+01
 1.404088170630291e+00	 3.985619796201447e-01	 1.158897606340871e+01
 1.396937053405456e+00	 4.312352093732099e-01	 1.150821186763848e+01
 1.389121458485565e+00	 4.637216997552888e-01	 1.142420015004060e+01
 1.380630769350629e+00	 4.959978770775202e-01	 1.133691155276275e+01
 1.371455211643566e+00	 5.280399762466951e-01	 1.124628840262577e+01
 1.361585902483125e+00	 5.598240991830850e-01	 1.115224261177978e+01
 1.351014897769846e+00	 5.913262756620284e-01	 1.105465381561547e+01
 1.339735237142398e+00	 6.225225263232392e-01	 1.095336779528648e+01
 1.327740986245340e+00	 6.533889275647720e-01	 1.084819523101428e+01
 1.430467659303615e+00	 3.360428753127599e-01	 1.167892291869858e+01
 1.424552543618833e+00	 3.693464125129539e-01	 1.160820636015004e+01
 1.417990158703402e+00	 4.025081733152876e-01	 1.153426371716396e+01
 1.410768237701365e+00	 4.355049033013803e-01	 1.145712749661107e+01
 1.402875259958045e+00	 4.683130449952526e-01	 1.137680532495760e+01
 1.394300503838440e+00	 5.009087913030714e-01	 1.129327733437136e+01
 1.385034098208786e+00	 5.332681418315466e-01	 1.120649369353868e+01
 1.375067072237715e+00	 5.653669618841587e-01	 1.111637233247721e+01
 1.364391403170606e+00	 5.971810439051404e-01	 1.102279691172865e+01
 1.353000061731035e+00	 6.286861711126494e-01	 1.092561508637888e+01
 1.340887054807036e+00	 6.598581830352498e-01	 1.082463711426006e+01
 1.444491957268275e+00	 3.393374380255506e-01	 1.162144726578892e+01
 1.438518849818423e+00	 3.729674829421977e-01	 1.155410381529082e+01
 1.431892127313559e+00	 4.064543614859512e-01	 1.148356421604808e+01
 1.424599402633524e+00	 4.397745912522124e-01	 1.140987258152085e+01
 1.416629042175190e+00	 4.729043838076080e-01	 1.133304695457819e+01
 1.407970219188693e+00	 5.058196986536592e-01	 1.125307652281625e+01
 1.398612965763713e+00	 5.384963000973219e-01	 1.116991897966856e+01
 1.388548223118887e+00	 5.709098168256141e-01	 1.108349808317253e+01
 1.377767889844539e+00	 6.030358039519947e-01	 1.099370146554076e+01
 1.366264867749247e+00	 6.348498072733942e-01	 1.090037874689138e+01
 1.354033104964594e+00	 6.663274294492167e-01	 1.080334000549075e+01
 1.458516242143368e+00	 3.426319976634912e-01	 1.156803197272179e+01
 1.452485142982614e+00	 3.765885499918734e-01	 1.150390105616157e+01
 1.445794082948414e+00	 4.104005459736285e-01	 1.143659595038031e+01
 1.438430554656515e+00	 4.440442752181522e-01	 1.136617175975035e+01
 1.430382811555445e+00	 4.774957183348914e-01	 1.129265642254209e+01
 1.421639921780571e+00	 5.107306014209381e-01	 1.121604776586968e+01
 1.412191820645105e+00	 5.437244534837126e-01	 1.113631070716560e+01
 1.402029361417770e+00	 5.764526665939903e-01	 1.105337465645721e+01
 1.391144364033907e+00	 6.088905585346770e-01	 1.096713117518097e+01
 1.379529661387155e+00	 6.410134376816954e-01	 1.087743194761513e+01
 1.367179142852703e+00	 6.727966698255098e-01	 1.078408712010167e+01
 1.472540520473678e+00	 3.459265557640069e-01	 1.151839550252845e+01
 1.466451429629105e+00	 3.802096153517646e-01	 1.145732165602180e+01
 1.459696032095616e+00	 4.143467286198128e-01	 1.139308804217133e+01
 1.452261700224921e+00	 4.483139571916458e-01	 1.132576016229028e+01
 1.444136574517253e+00	 4.820870507196391e-01	 1.125537534900502e+01
 1.435309617993256e+00	 5.156415018965624e-01	 1.118193967100658e+01
 1.425770669189721e+00	 5.489526044304112e-01	 1.110542498472401e+01
 1.415510493425496e+00	 5.819955137758276e-01	 1.102576618943542e+01
 1.404520831980972e+00	 6.147453103852731e-01	 1.094285874396589e+01
 1.392794448834883e+00	 6.471770652137749e-01	 1.085655650360242e+01
 1.380325174606045e+00	 6.792659071829659e-01	 1.076666993503714e+01
 1.486564798803988e+00	 3.492211138645225e-01	 1.147226694612608e+01
 1.480417716275596e+00	 3.838306807116561e-01	 1.141409962307046e+01
 1.473597981242819e+00	 4.182929112659970e-01	 1.135277983888642e+01
 1.466092845793325e+00	 4.525836391651394e-01	 1.128838291874298e+01
 1.457890337479054e+00	 4.866783831043864e-01	 1.122095510778011e+01
 1.448979314205931e+00	 5.205524023721870e-01	 1.115051033561509e+01
 1.439349517734319e+00	 5.541807553771096e-01	 1.107702712782211e+01
 1.428991625433194e+00	 5.875383609576647e-01	 1.100044572297915e+01
 1.417897299927996e+00	 6.206000622358694e-01	 1.092066545567495e+01
 1.406059236282551e+00	 6.533406927458544e-01	 1.083754246648208e+01
 1.393471206359307e+00	 6.857351445404221e-01	 1.075088779917424e+01
 1.500589083679082e+00	 3.525156735024633e-01	 1.142938552567005e+01
 1.494384009439786e+00	 3.874517477613316e-01	 1.137397891282257e+01
 1.487499936877670e+00	 4.222390957536742e-01	 1.131542043561962e+01
 1.479923997816310e+00	 4.568533231310791e-01	 1.125379469010632e+01
 1.471644106859294e+00	 4.912697176316699e-01	 1.118915637057843e+01
 1.462649016797778e+00	 5.254633051394657e-01	 1.112152690357265e+01
 1.452928372615660e+00	 5.594089087635005e-01	 1.105089122854077e+01
 1.442472763731995e+00	 5.930812107260414e-01	 1.097719478571896e+01
 1.431273774117241e+00	 6.264548168185513e-01	 1.090034077366229e+01
 1.419324029920284e+00	 6.595043231541553e-01	 1.082018773965510e+01
 1.406617244247173e+00	 6.922043849167152e-01	 1.073654756557273e+01
 1.514613381643741e+00	 3.558102362152540e-01	 1.138950012552094e+01
 1.508350315639376e+00	 3.910728181905754e-01	 1.133671296759854e+01
 1.501401905487825e+00	 4.261852839243379e-01	 1.128076822383604e+01
 1.493755162748458e+00	 4.611230110819112e-01	 1.122175922753562e+01
 1.485397889076415e+00	 4.958610564440254e-01	 1.115974867659070e+01
 1.476318732147982e+00	 5.303742124900537e-01	 1.109476514647743e+01
 1.466507240170501e+00	 5.646370670292757e-01	 1.102679974930058e+01
 1.455953914613030e+00	 5.986240656674965e-01	 1.095580300116559e+01
 1.444650260790970e+00	 6.323095768654057e-01	 1.088168196225894e+01
 1.432588835938203e+00	 6.656679593149002e-01	 1.080429771488610e+01
 1.419763294404329e+00	 6.986736313306823e-01	 1.072346324417261e+01
 1.528637699242752e+00	 3.591048035403198e-01	 1.135236884905132e+01
 1.522316641392064e+00	 3.946938936891715e-01	 1.130206428138377e+01
 1.515303893560931e+00	 4.301314776194807e-01	 1.124859046497469e+01
 1.507586347044352e+00	 4.653927050100816e-01	 1.119204895541413e+01
 1.499151690548858e+00	 5.004524016839892e-01	 1.113251002578140e+01
 1.489988466635725e+00	 5.352851267156048e-01	 1.107000906795027e+01
 1.480086126735601e+00	 5.698652326141274e-01	 1.100454313898101e+01
 1.469435084367429e+00	 6.041669283685701e-01	 1.093606771647600e+01
 1.458026766191443e+00	 6.381643451085179e-01	 1.086449372903244e+01
 1.445853660526431e+00	 6.718316041043105e-01	 1.078968492891560e+01
 1.432909362965459e+00	 7.051428868011598e-01	 1.071145567362518e+01
 1.542662043020896e+00	 3.623993770150854e-01	 1.131775859964647e+01
 1.536282993215550e+00	 3.983149759469040e-01	 1.126980398844276e+01
 1.529205907584642e+00	 4.340776786805960e-01	 1.121866288732834e+01
 1.521417557158576e+00	 4.696624069080367e-01	 1.116444457718386e+01
 1.512905517695068e+00	 5.050437554940970e-01	 1.110722649438515e+01
 1.503658226640188e+00	 5.401960501077737e-01	 1.104705052953807e+01
 1.493665038647719e+00	 5.750934079577475e-01	 1.098391946999545e+01
 1.482916279286322e+00	 6.097098014158012e-01	 1.091779365148504e+01
 1.471403296560924e+00	 6.440191242799742e-01	 1.084858788657562e+01
 1.459118509875090e+00	 6.779952603986078e-01	 1.077616873881786e+01
 1.446055456065250e+00	 7.116121543469853e-01	 1.070035221103879e+01
 1.314594893144823e+00	 6.469196600189466e-01	 1.087423981492140e+01
 1.302006157726207e+00	 6.771324014091545e-01	 1.075824557731590e+01
 1.288701263618528e+00	 7.069715536127238e-01	 1.063387331225380e+01
 1.274677610405123e+00	 7.364139816884141e-01	 1.050140398140781e+01
 1.259933748325849e+00	 7.654368751281202e-01	 1.036109288181555e+01
 1.244469402142706e+00	 7.940178164717294e-01	 1.021316612733142e+01
 1.228285490601410e+00	 8.221348496568718e-01	 1.005781742667588e+01
 1.211384141277094e+00	 8.497665476991278e-01	 9.895205223200527e+00
 1.193768700623030e+00	 8.768920792936009e-01	 9.725450257379821e+00
 1.175443739074679e+00	 9.034912739280352e-01	 9.548633607215800e+00
 1.156415051097081e+00	 9.295446851010828e-01	 9.364795254271431e+00
 1.327740986245340e+00	 6.533889275647720e-01	 1.084819523101428e+01
 1.315026362092133e+00	 6.839037996823172e-01	 1.073673609308060e+01
 1.301588417584430e+00	 7.140413466803667e-01	 1.061693063484821e+01
 1.287424526301110e+00	 7.437782022657358e-01	 1.048903328829891e+01
 1.272533223984267e+00	 7.730913278227418e-01	 1.035327264360022e+01
 1.256914232643484e+00	 8.019580817142202e-01	 1.020984814192703e+01
 1.240568480212031e+00	 8.303562883147737e-01	 1.005892707218201e+01
 1.223498115541023e+00	 8.582643063677963e-01	 9.900641933994244e+00
 1.205706518548623e+00	 8.856610962530627e-01	 9.735088225049369e+00
 1.187198305375145e+00	 9.125262857509887e-01	 9.562322704816900e+00
 1.167979328430909e+00	 9.388402338930860e-01	 9.382362179170695e+00
 1.340887054807036e+00	 6.598581830352498e-01	 1.082463711426006e+01
 1.328046542154254e+00	 6.906751853161535e-01	 1.071744241596346e+01
 1.314475547494891e+00	 7.211111265516637e-01	 1.060193443128830e+01
 1.300171418403419e+00	 7.511424090970864e-01	 1.047834167551269e+01
 1.285132676124198e+00	 7.807457662295900e-01	 1.034686673458580e+01
 1.269359039914403e+00	 8.098983321353761e-01	 1.020768316807829e+01
 1.252851446894847e+00	 8.385777116264355e-01	 1.006093272221899e+01
 1.235612067192585e+00	 8.667620491743747e-01	 9.906722912628192e+00
 1.217644314190617e+00	 8.944300968440329e-01	 9.745125031832629e+00
 1.198952849734027e+00	 9.215612807088772e-01	 9.576172630518100e+00
 1.179543584178313e+00	 9.481357653336441e-01	 9.399860513830420e+00
 1.354033104964594e+00	 6.663274294492167e-01	 1.080334000549075e+01
 1.341066703988496e+00	 6.974465614704949e-01	 1.070014993015684e+01
 1.327362659363738e+00	 7.281808965257016e-01	 1.058868112332151e+01
 1.312918292660426e+00	 7.585066056189583e-01	 1.046913679293613e+01
 1.297732110625212e+00	 7.884001939206060e-01	 1.034169421828813e+01
 1.281803829762870e+00	 8.178385714405283e-01	 1.020650186183769e+01
 1.265134396381741e+00	 8.467991234284111e-01	 1.006367679622936e+01
 1.247726001884798e+00	 8.752597800843780e-01	 9.913302503290288e+00
 1.229582093119834e+00	 9.031990851586249e-01	 9.755427097121558e+00
 1.210707377636641e+00	 9.305962630179525e-01	 9.590062017140248e+00
 1.191107823735815e+00	 9.574312837605971e-01	 9.417181229231076e+00
 1.367179142852703e+00	 6.727966698255098e-01	 1.078408712010167e+01
 1.354086853670782e+00	 7.042179313051731e-01	 1.068465227728712e+01
 1.340249759204795e+00	 7.352506599015664e-01	 1.057697496553350e+01
 1.325665155020511e+00	 7.658707952678440e-01	 1.046123369137143e+01
 1.310331533366881e+00	 7.960546144677322e-01	 1.033758112008459e+01
 1.294248607996289e+00	 8.257788033350082e-01	 1.020614139518810e+01
 1.277417334404598e+00	 8.550205275572582e-01	 1.006700777708710e+01
 1.259839925270682e+00	 8.837575030633226e-01	 9.920240654897999e+00
 1.241519860907095e+00	 9.119680652889500e-01	 9.765865980551213e+00
 1.222461894568301e+00	 9.396312368944653e-01	 9.603874167945797e+00
 1.202672052499939e+00	 9.667267935117863e-01	 9.434219492196029e+00
 1.380325174606045e+00	 6.792659071829659e-01	 1.076666993503714e+01
 1.367106997277037e+00	 7.109892979800194e-01	 1.067075096328112e+01
 1.353136853031889e+00	 7.423204199783444e-01	 1.056662767245091e+01
 1.338412011432047e+00	 7.732349814802353e-01	 1.045445447022438e+01
 1.322930950228776e+00	 8.037090314429114e-01	 1.033436009582748e+01
 1.306693380422067e+00	 8.337190315241463e-01	 1.020644514590872e+01
 1.289700266695305e+00	 8.632419278495311e-01	 1.007077992252865e+01
 1.271953843003254e+00	 8.922552220767233e-01	 9.927402654389548e+00
 1.253457623123223e+00	 9.207370413271208e-01	 9.776318137426305e+00
 1.234216406014319e+00	 9.486662065546664e-01	 9.617496834453330e+00
 1.214236275867208e+00	 9.760222989250513e-01	 9.450874465821649e+00
 1.393471206359307e+00	 6.857351445404221e-01	 1.075088779917424e+01
 1.380127140883184e+00	 7.177606646548657e-01	 1.065825498750432e+01
 1.366023946858845e+00	 7.493901800551216e-01	 1.055745806676964e+01
 1.351158867843413e+00	 7.805991676926244e-01	 1.044862794515172e+01
 1.335530367090467e+00	 8.113634484180853e-01	 1.033187011923107e+01
 1.319138152847608e+00	 8.416592597132743e-01	 1.020726240501053e+01
 1.301983198985745e+00	 8.714633281417865e-01	 1.007485299293178e+01
 1.284067760735535e+00	 9.007529410900955e-01	 9.934658875124654e+00
 1.265395385339038e+00	 9.295060173652493e-01	 9.786664688003249e+00
 1.245970917460011e+00	 9.577011762148074e-01	 9.630822006839233e+00
 1.225800499234146e+00	 9.853178043382338e-01	 9.467049121213723e+00
 1.406617244247173e+00	 6.922043849167152e-01	 1.073654756557272e+01
 1.393147290565148e+00	 7.245320344895437e-01	 1.064698049271269e+01
 1.378911046699490e+00	 7.564599434309848e-01	 1.054929174732533e+01
 1.363905730202986e+00	 7.879633573415036e-01	 1.044358933436108e+01
 1.348129789831525e+00	 8.190178689651958e-01	 1.032995618680322e+01
 1.331582931080320e+00	 8.495994916077230e-01	 1.020844810059127e+01
 1.314266137007805e+00	 8.796847322705800e-01	 1.007909199437225e+01
 1.296181684120543e+00	 9.092506640689551e-01	 9.941884539405658e+00
 1.277333153125360e+00	 9.382749974954472e-01	 9.796791199720706e+00
 1.257725434390691e+00	 9.667361500911392e-01	 9.643745716102604e+00
 1.237364727997274e+00	 9.946133140891735e-01	 9.482650059789414e+00
 1.419763294404329e+00	 6.986736313306823e-01	 1.072346324417261e+01
 1.406167452398852e+00	 7.313034106438844e-01	 1.063675043446794e+01
 1.391798158567646e+00	 7.635297134050192e-01	 1.054196077552533e+01
 1.376652604459141e+00	 7.953275538633646e-01	 1.043917996235317e+01
 1.360729224331522e+00	 8.266722966561857e-01	 1.032846903918338e+01
 1.344027720927606e+00	 8.575397309128240e-01	 1.020986253704462e+01
 1.326549086493368e+00	 8.879061440724667e-01	 1.008336693596695e+01
 1.308295618811295e+00	 9.177483949788170e-01	 9.948959494202914e+00
 1.289270932053014e+00	 9.470439858098275e-01	 9.806587481538561e+00
 1.269479962291672e+00	 9.757711323999124e-01	 9.656167847230181e+00
 1.248928967553118e+00	 1.003908832515712e+00	 9.497587345459795e+00
 1.432909362965459e+00	 7.051428868011598e-01	 1.071145567362518e+01
 1.419187632460221e+00	 7.380747962777202e-01	 1.062739426876515e+01
 1.404685288477143e+00	 7.705994932763116e-01	 1.053530337905563e+01
 1.389399496560257e+00	 8.026917606947001e-01	 1.043524697998531e+01
 1.373328676470027e+00	 8.343267350629970e-01	 1.032726489783257e+01
 1.356472528196873e+00	 8.654799813339080e-01	 1.021137114863672e+01
 1.338832053174321e+00	 8.961275673840037e-01	 1.008755260058558e+01
 1.320409570460812e+00	 9.262461377851972e-01	 9.955767999235880e+00
 1.301208727692818e+00	 9.558129864005016e-01	 9.815947389607068e+00
 1.281234506648269e+00	 9.848061273573786e-01	 9.667991962654307e+00
 1.260493223298199e+00	 1.013204363955689e+00	 9.511774346057626e+00
 1.446055456065250e+00	 7.116121543469853e-01	 1.070035221103879e+01
 1.432207836825179e+00	 7.448461945508820e-01	 1.061874765671299e+01
 1.417572442441803e+00	 7.776692863439487e-01	 1.052916367176254e+01
 1.402146412454711e+00	 8.100559812720015e-01	 1.043164309981681e+01
 1.385928152126612e+00	 8.419811877575717e-01	 1.032620521609749e+01
 1.368917358695528e+00	 8.734202465763066e-01	 1.021284426653510e+01
 1.351115042782549e+00	 9.043490060417461e-01	 1.009152832807905e+01
 1.332523544722111e+00	 9.347438964536106e-01	 9.962198526622906e+00
 1.313146545615595e+00	 9.645820033595822e-01	 9.824768643544630e+00
 1.292989072945795e+00	 9.938411391797882e-01	 9.679125135348427e+00
 1.272057500629041e+00	 1.022499912746946e+00	 9.525127583421691e+00
 1.156415051097081e+00	 9.295446851010828e-01	 9.364795254271431e+00
 1.136689647123178e+00	 9.550336534767583e-01	 9.170276655767118e+00
 1.116275734373034e+00	 9.799403718027949e-01	 8.961953358890172e+00
 1.095182710406913e+00	 1.004247933371997e+00	 8.740702971690446e+00
 1.073421145629011e+00	 1.027940381546648e+00	 8.507489325457566e+00
 1.051002757783851e+00	 1.051002757783852e+00	 8.263356262232417e+00
 1.027940381546647e+00	 1.073421145629011e+00	 8.009420490462155e+00
 1.004247933371997e+00	 1.095182710406913e+00	 7.746863605550538e+00
 9.799403718027947e-01	 1.116275734373035e+00	 7.476923388166049e+00
 9.550336534767578e-01	 1.136689647123179e+00	 7.200884506696038e+00
 9.295446851010828e-01	 1.156415051097081e+00	 6.920068760780795e+00
 1.167979328430909e+00	 9.388402338930860e-01	 9.382362179170695e+00
 1.148056668253955e+00	 9.645840947479684e-01	 9.191728822538863e+00
 1.127438614137450e+00	 9.897398829888864e-01	 8.987455493099031e+00
 1.106134657618302e+00	 1.014290522839711e+00	 8.770361007370987e+00
 1.084155474805915e+00	 1.038219898094590e+00	 8.541348771515604e+00
 1.061512900623551e+00	 1.061512900623551e+00	 8.301401030792684e+00
 1.038219898094590e+00	 1.084155474805915e+00	 8.051572204217676e+00
 1.014290522839711e+00	 1.106134657618302e+00	 7.792981394308826e+00
 9.897398829888857e-01	 1.127438614137450e+00	 7.526804177696965e+00
 9.645840947479679e-01	 1.148056668253955e+00	 7.254263795830317e+00
 9.388402338930860e-01	 1.167979328430909e+00	 6.976621875655596e+00
 1.179543584178313e+00	 9.481357653336441e-01	 9.399860513830420e+00
 1.159423668166479e+00	 9.741345181918949e-01	 9.212886623266524e+00
 1.138601473064650e+00	 9.995393758827325e-01	 9.012437057820273e+00
 1.117086584386196e+00	 1.024333093561410e+00	 8.799274419058989e+00
 1.094889783945534e+00	 1.048499395454237e+00	 8.574244298468557e+00
 1.072023023844444e+00	 1.072023023844445e+00	 8.338269968321795e+00
 1.048499395454236e+00	 1.094889783945534e+00	 8.092346174468492e+00
 1.024333093561409e+00	 1.117086584386196e+00	 7.837532114379103e+00
 9.995393758827319e-01	 1.138601473064650e+00	 7.574943699428070e+00
 9.741345181918943e-01	 1.159423668166480e+00	 7.305745213792051e+00
 9.481357653336442e-01	 1.179543584178313e+00	 7.031140493078388e+00
 1.191107823735815e+00	 9.574312837605971e-01	 9.417181229231076e+00
 1.170790652165233e+00	 9.836849282653308e-01	 9.233653521905019e+00
 1.149764316363858e+00	 1.009338855057359e+00	 9.036814168416775e+00
 1.128038495821394e+00	 1.034375650223553e+00	 8.827372076698643e+00
 1.105624078057122e+00	 1.058778878422611e+00	 8.606117577499502e+00
 1.082533132351175e+00	 1.082533132351175e+00	 8.373917536535075e+00
 1.058778878422611e+00	 1.105624078057122e+00	 8.131709584961524e+00
 1.034375650223553e+00	 1.128038495821395e+00	 7.880495545241395e+00
 1.009338855057359e+00	 1.149764316363859e+00	 7.621334144898043e+00
 9.836849282653305e-01	 1.170790652165234e+00	 7.355333123970333e+00
 9.574312837605973e-01	 1.191107823735815e+00	 7.083640852797998e+00
 1.202672052499939e+00	 9.667267935117863e-01	 9.434219492196029e+00
 1.182157625554698e+00	 9.932353294250700e-01	 9.253936697693293e+00
 1.160927149244302e+00	 1.019138325085792e+00	 9.060506168871838e+00
 1.138990397034699e+00	 1.044418197512602e+00	 8.854585588209973e+00
 1.116358362149933e+00	 1.069058351796734e+00	 8.636912525314251e+00
 1.093043231048384e+00	 1.093043231048384e+00	 8.408299950613706e+00
 1.069058351796734e+00	 1.116358362149933e+00	 8.169630883470617e+00
 1.044418197512602e+00	 1.138990397034699e+00	 7.921852245803253e+00
 1.019138325085792e+00	 1.160927149244302e+00	 7.665968007518892e+00
 9.932353294250695e-01	 1.182157625554698e+00	 7.403031723291970e+00
 9.667267935117863e-01	 1.202672052499939e+00	 7.134138571108968e+00
 1.214236275867208e+00	 9.760222989250513e-01	 9.450874465821649e+00
 1.193524593639354e+00	 1.002785726127905e+00	 9.273646868483631e+00
 1.172089976915204e+00	 1.028937790541059e+00	 9.083435478307727e+00
 1.149942293136908e+00	 1.054460740115017e+00	 8.880849169385700e+00
 1.127092641233221e+00	 1.079337820373628e+00	 8.666575197501475e+00
 1.103553324840712e+00	 1.103553324840712e+00	 8.441375096008123e+00
 1.079337820373628e+00	 1.127092641233221e+00	 8.206079721916954e+00
 1.054460740115017e+00	 1.149942293136908e+00	 7.961583517605137e+00
 1.028937790541058e+00	 1.172089976915205e+00	 7.708838068528765e+00
 1.002785726127905e+00	 1.193524593639354e+00	 7.448845050480415e+00
 9.760222989250517e-01	 1.214236275867209e+00	 7.182648670874130e+00
 1.225800499234146e+00	 9.853178043382338e-01	 9.467049121213723e+00
 1.204891561723683e+00	 1.012336122830632e+00	 9.292698124079667e+00
 1.183252804585793e+00	 1.038737255996183e+00	 9.105527446199396e+00
 1.160894189238823e+00	 1.064503282717258e+00	 8.906099521158570e+00
 1.137826920316240e+00	 1.089617288950315e+00	 8.695053687934166e+00
 1.114063418632800e+00	 1.114063418632800e+00	 8.473102449954654e+00
 1.089617288950315e+00	 1.137826920316241e+00	 8.241026899881852e+00
 1.064503282717258e+00	 1.160894189238823e+00	 7.999671370110230e+00
 1.038737255996183e+00	 1.183252804585794e+00	 7.749937383740507e+00
 1.012336122830631e+00	 1.204891561723683e+00	 7.492776993846896e+00
 9.853178043382338e-01	 1.225800499234146e+00	 7.229185609846609e+00
 1.237364727997274e+00	 9.946133140891735e-01	 9.482650059789414e+00
 1.216258535112166e+00	 1.021886523990040e+00	 9.311007768928022e+00
 1.194415637465293e+00	 1.048536726024194e+00	 9.126710215713892e+00
 1.171846090451243e+00	 1.074545830005786e+00	 8.930275713756876e+00
 1.148561204408244e+00	 1.099896762323818e+00	 8.722298033816962e+00
 1.124573517329290e+00	 1.124573517329291e+00	 8.503443007396775e+00
 1.099896762323817e+00	 1.148561204408244e+00	 8.274444311289656e+00
 1.074545830005786e+00	 1.171846090451244e+00	 8.036098487942279e+00
 1.048536726024194e+00	 1.194415637465293e+00	 7.789259271034074e+00
 1.021886523990040e+00	 1.216258535112166e+00	 7.534831298644546e+00
 9.946133140891735e-01	 1.237364727997274e+00	 7.273763307402179e+00
 1.248928967553118e+00	 1.003908832515712e+00	 9.497587345459795e+00
 1.227625519109282e+00	 1.031436934062925e+00	 9.328496173556399e+00
 1.205578480762928e+00	 1.058336205198116e+00	 9.146914594648399e+00
 1.182798001884969e+00	 1.084588386667060e+00	 8.953319077301217e+00
 1.159295498518487e+00	 1.110176245291156e+00	 8.748260126013147e+00
 1.135083625834824e+00	 1.135083625834825e+00	 8.532359211025431e+00
 1.110176245291155e+00	 1.159295498518488e+00	 8.306304894055394e+00
 1.084588386667060e+00	 1.182798001884970e+00	 8.070848199945246e+00
 1.058336205198115e+00	 1.205578480762929e+00	 7.826797298544319e+00
 1.031436934062925e+00	 1.227625519109283e+00	 7.575011574013372e+00
 1.003908832515712e+00	 1.248928967553118e+00	 7.316395169785462e+00
 1.260493223298199e+00	 1.013204363955689e+00	 9.511774346057626e+00
 1.238992519019514e+00	 1.040987357506080e+00	 9.345086634196447e+00
 1.216741339687926e+00	 1.068135698090975e+00	 9.166073933478577e+00
 1.193749928650801e+00	 1.094630957387542e+00	 8.975173098428277e+00
 1.170029807656223e+00	 1.120455742649354e+00	 8.772893624311857e+00
 1.145593749054043e+00	 1.145593749054043e+00	 8.559814885173539e+00
 1.120455742649353e+00	 1.170029807656223e+00	 8.336582582506271e+00
 1.094630957387542e+00	 1.193749928650801e+00	 8.103904449947461e+00
 1.068135698090974e+00	 1.216741339687926e+00	 7.862545273499601e+00
 1.040987357506080e+00	 1.238992519019515e+00	 7.613321299542848e+00
 1.013204363955689e+00	 1.260493223298199e+00	 7.357094113965148e+00
 1.272057500629041e+00	 1.022499912746946e+00	 9.525127583421691e+00
 1.250359540147344e+00	 1.050537798776298e+00	 9.360705240069683e+00
 1.227904219449511e+00	 1.077935209275797e+00	 9.184124010064242e+00
 1.204701875859538e+00	 1.104673546853691e+00	 8.995783322558211e+00
 1.180764136830705e+00	 1.130735259195432e+00	 8.796153877320787e+00
 1.156103891891588e+00	 1.156103891891588e+00	 8.585775173319217e+00
 1.130735259195432e+00	 1.180764136830706e+00	 8.365252262400638e+00
 1.104673546853691e+00	 1.204701875859538e+00	 8.135251769121782e+00
 1.077935209275797e+00	 1.227904219449511e+00	 7.896497231669736e+00
 1.050537798776297e+00	 1.250359540147344e+00	 7.649763831476172e+00
 1.022499912746946e+00	 1.272057500629041e+00	 7.395872590187077e+00
 9.295446851010828e-01	 1.156415051097081e+00	 6.920068760780795e+00
 9.034912739280351e-01	 1.175443739074679e+00	 6.632139198847558e+00
 8.768920792936006e-01	 1.193768700623031e+00	 6.335107626268566e+00
 8.497665476991274e-01	 1.211384141277095e+00	 6.030918114299022e+00
 8.221348496568712e-01	 1.228285490601410e+00	 5.721604314638292e+00
 7.940178164717289e-01	 1.244469402142706e+00	 5.409272070490908e+00
 7.654368751281195e-01	 1.259933748325849e+00	 5.096081638706606e+00
 7.364139816884138e-01	 1.274677610405123e+00	 4.784229788078553e+00
 7.069715536127235e-01	 1.288701263618529e+00	 4.475932030775712e+00
 6.771324014091542e-01	 1.302006157726207e+00	 4.173405230428960e+00
 6.469196600189466e-01	 1.314594893144823e+00	 3.878850812244491e+00
 9.388402338930860e-01	 1.167979328430909e+00	 6.976621875655596e+00
 9.125262857509882e-01	 1.187198305375145e+00	 6.691645907519259e+00
 8.856610962530621e-01	 1.205706518548624e+00	 6.397465148749971e+00
 8.582643063677960e-01	 1.223498115541023e+00	 6.095984886924471e+00
 8.303562883147731e-01	 1.240568480212031e+00	 5.789201065978143e+00
 8.019580817142199e-01	 1.256914232643485e+00	 5.479183134463772e+00
 7.730913278227416e-01	 1.272533223984267e+00	 5.168056484402259e+00
 7.437782022657355e-01	 1.287424526301110e+00	 4.857984743657175e+00
 7.140413466803662e-01	 1.301588417584430e+00	 4.551152177145870e+00
 6.839037996823167e-01	 1.315026362092133e+00	 4.249746439239930e+00
 6.533889275647721e-01	 1.327740986245340e+00	 3.955941902057127e+00
 9.481357653336442e-01	 1.179543584178313e+00	 7.031140493078388e+00
 9.215612807088770e-01	 1.198952849734028e+00	 6.749001288373162e+00
 8.944300968440325e-01	 1.217644314190618e+00	 6.457572622827266e+00
 8.667620491743738e-01	 1.235612067192585e+00	 6.158720892743041e+00
 8.385777116264349e-01	 1.252851446894847e+00	 5.854404026260562e+00
 8.098983321353757e-01	 1.269359039914404e+00	 5.546654577216643e+00
 7.807457662295895e-01	 1.285132676124198e+00	 5.237562391054617e+00
 7.511424090970859e-01	 1.300171418403419e+00	 4.929257103340393e+00
 7.211111265516633e-01	 1.314475547494891e+00	 4.623890724285429e+00
 6.906751853161528e-01	 1.328046542154255e+00	 4.323620550199478e+00
 6.598581830352498e-01	 1.340887054807035e+00	 4.030592625629647e+00
 9.574312837605973e-01	 1.191107823735815e+00	 7.083640852797998e+00
 9.305962630179522e-01	 1.210707377636642e+00	 6.804232923933627e+00
 9.031990851586242e-01	 1.229582093119834e+00	 6.515468246157067e+00
 8.752597800843774e-01	 1.247726001884798e+00	 6.219174231789624e+00
 8.467991234284110e-01	 1.265134396381741e+00	 5.917270503828986e+00
 8.178385714405275e-01	 1.281803829762870e+00	 5.611752243620035e+00
 7.884001939206055e-01	 1.297732110625213e+00	 5.304673093948542e+00
 7.585066056189579e-01	 1.312918292660427e+00	 4.998127875514237e+00
 7.281808965257009e-01	 1.327362659363738e+00	 4.694235368027387e+00
 6.974465614704943e-01	 1.341066703988496e+00	 4.395121395160309e+00
 6.663274294492167e-01	 1.354033104964595e+00	 4.102902435900250e+00
 9.667267935117863e-01	 1.202672052499939e+00	 7.134138571108968e+00
 9.396312368944647e-01	 1.222461894568301e+00	 6.857367336776495e+00
 9.119680652889495e-01	 1.241519860907096e+00	 6.571188747913549e+00
 8.837575030633220e-01	 1.259839925270682e+00	 6.277391154472507e+00
 8.550205275572574e-01	 1.277417334404598e+00	 5.977855602930369e+00
 8.257788033350074e-01	 1.294248607996289e+00	 5.674539445798057e+00
 7.960546144677318e-01	 1.310331533366881e+00	 5.369459491808597e+00
 7.658707952678434e-01	 1.325665155020511e+00	 5.064674951923134e+00
 7.352506599015661e-01	 1.340249759204795e+00	 4.762270429999909e+00
 7.042179313051726e-01	 1.354086853670782e+00	 4.464339195413604e+00
 6.727966698255098e-01	 1.367179142852703e+00	 4.172966958695689e+00
 9.760222989250517e-01	 1.214236275867209e+00	 7.182648670874130e+00
 9.486662065546658e-01	 1.234216406014319e+00	 6.908430040336818e+00
 9.207370413271203e-01	 1.253457623123224e+00	 6.624769459047268e+00
 8.922552220767228e-01	 1.271953843003255e+00	 6.333416149976971e+00
 8.632419278495306e-01	 1.289700266695305e+00	 6.036212328990849e+00
 8.337190315241457e-01	 1.306693380422067e+00	 5.735077084044340e+00
 8.037090314429112e-01	 1.322930950228776e+00	 5.431989782170943e+00
 7.732349814802350e-01	 1.338412011432048e+00	 5.128973256365083e+00
 7.423204199783441e-01	 1.353136853031890e+00	 4.828077018571523e+00
 7.109892979800190e-01	 1.367106997277037e+00	 4.531360733872362e+00
 6.792659071829658e-01	 1.380325174606045e+00	 4.240878175208536e+00
 9.853178043382338e-01	 1.225800499234146e+00	 7.229185609846609e+00
 9.577011762148071e-01	 1.245970917460012e+00	 6.957445586838302e+00
 9.295060173652488e-01	 1.265395385339038e+00	 6.676244378563958e+00
 9.007529410900951e-01	 1.284067760735536e+00	 6.387292029660569e+00
 8.714633281417857e-01	 1.301983198985745e+00	 6.092391687927181e+00
 8.416592597132739e-01	 1.319138152847608e+00	 5.793423760888023e+00
 8.113634484180847e-01	 1.335530367090467e+00	 5.492329589085799e+00
 7.805991676926241e-01	 1.351158867843414e+00	 5.191094884963223e+00
 7.493901800551211e-01	 1.366023946858846e+00	 4.891733180678310e+00
 7.177606646548652e-01	 1.380127140883184e+00	 4.596269517500376e+00
 6.857351445404221e-01	 1.393471206359307e+00	 4.306724594136877e+00
 9.946133140891735e-01	 1.237364727997274e+00	 7.273763307402179e+00
 9.667361500911388e-01	 1.257725434390691e+00	 7.004437612532923e+00
 9.382749974954470e-01	 1.277333153125361e+00	 6.725646236083547e+00
 9.092506640689543e-01	 1.296181684120542e+00	 6.439060005768213e+00
 8.796847322705793e-01	 1.314266137007804e+00	 6.146442779884788e+00
 8.495994916077225e-01	 1.331582931080320e+00	 5.849635888757943e+00
 8.190178689651954e-01	 1.348129789831525e+00	 5.550542083653141e+00
 7.879633573415030e-01	 1.363905730202985e+00	 5.251109238565099e+00
 7.564599434309841e-01	 1.378911046699490e+00	 4.953314045130229e+00
 7.245320344895431e-01	 1.393147290565148e+00	 4.659145930625435e+00
 6.922043849167152e-01	 1.406617244247173e+00	 4.370591414163275e+00
 1.003908832515712e+00	 1.248928967553118e+00	 7.316395169785462e+00
 9.757711323999120e-01	 1.269479962291672e+00	 7.049428880425154e+00
 9.470439858098268e-01	 1.289270932053014e+00	 6.773006550920804e+00
 9.177483949788166e-01	 1.308295618811296e+00	 6.488759765770510e+00
 8.879061440724666e-01	 1.326549086493368e+00	 6.198412887763908e+00
 8.575397309128235e-01	 1.344027720927606e+00	 5.903767791660703e+00
 8.266722966561850e-01	 1.360729224331522e+00	 5.606688097856604e+00
 7.953275538633642e-01	 1.376652604459141e+00	 5.309083147780123e+00
 7.635297134050186e-01	 1.391798158567647e+00	 5.012891957949593e+00
 7.313034106438838e-01	 1.406167452398852e+00	 4.720067379727833e+00
 6.986736313306823e-01	 1.419763294404329e+00	 4.432560677399399e+00
 1.013204363955689e+00	 1.260493223298199e+00	 7.357094113965148e+00
 9.848061273573779e-01	 1.281234506648269e+00	 7.092441320642447e+00
 9.558129864005016e-01	 1.301208727692819e+00	 6.818355687911220e+00
 9.262461377851967e-01	 1.320409570460812e+00	 6.536429542606724e+00
 8.961275673840033e-01	 1.338832053174322e+00	 6.248347560868482e+00
 8.654799813339078e-01	 1.356472528196874e+00	 5.955871801257095e+00
 8.343267350629964e-01	 1.373328676470027e+00	 5.660826232125826e+00
 8.026917606946993e-01	 1.389399496560258e+00	 5.365080991128901e+00
 7.705994932763115e-01	 1.404685288477143e+00	 5.070536610253336e+00
 7.380747962777198e-01	 1.419187632460222e+00	 4.779108430252520e+00
 7.051428868011599e-01	 1.432909362965459e+00	 4.492711414377375e+00
 1.022499912746946e+00	 1.272057500629041e+00	 7.395872590187077e+00
 9.938411391797880e-01	 1.292989072945795e+00	 7.133496068601925e+00
 9.645820033595817e-01	 1.313146545615596e+00	 6.861722910189349e+00
 9.347438964536103e-01	 1.332523544722111e+00	 6.582106181093312e+00
 9.043490060417456e-01	 1.351115042782550e+00	 6.296290693988961e+00
 8.734202465763062e-01	 1.368917358695529e+00	 6.005998347693692e+00
 8.419811877575710e-01	 1.385928152126612e+00	 5.713012957027169e+00
 8.100559812720007e-01	 1.402146412454711e+00	 5.419164806742389e+00
 7.776692863439484e-01	 1.417572442441804e+00	 5.126315159154341e+00
 7.448461945508813e-01	 1.432207836825180e+00	 4.836340935952633e+00
 7.116121543469851e-01	 1.446055456065250e+00	 4.551119781126086e+00
 6.469196600189466e-01	 1.314594893144823e+00	 3.878850812244492e+00
 6.163588700289421e-01	 1.326470387793212e+00	 3.591974520699977e+00
 5.854714964905722e-01	 1.337638367399996e+00	 3.312011187488122e+00
 5.542812261358540e-01	 1.348104707563986e+00	 3.040458541955570e+00
 5.228118009030747e-01	 1.357876299731294e+00	 2.778758896677101e+00
 4.910869536853514e-01	 1.366961009346076e+00	 2.528292199530255e+00
 4.591303459451811e-01	 1.375367631339310e+00	 2.290370038489309e+00
 4.269655074752550e-01	 1.383105843291213e+00	 2.066230610806848e+00
 3.946157785590299e-01	 1.390186156606576e+00	 1.857034652236180e+00
 3.621042547566256e-01	 1.396619866042657e+00	 1.663862307453590e+00
 3.294537345129284e-01	 1.402418997926461e+00	 1.487710910053112e+00
 6.533889275647721e-01	 1.327740986245340e+00	 3.955941902057126e+00
 6.225225263232393e-01	 1.339735237142397e+00	 3.669394078552005e+00
 5.913262756620284e-01	 1.351014897769846e+00	 3.389336942523019e+00
 5.598240991830853e-01	 1.361585902483125e+00	 3.117319802247001e+00
 5.280399762466951e-01	 1.371455211643566e+00	 2.854840031943096e+00
 4.959978770775202e-01	 1.380630769350628e+00	 2.603335457691990e+00
 4.637216997552890e-01	 1.389121458485566e+00	 2.364177707202394e+00
 4.312352093732100e-01	 1.396937053405456e+00	 2.138666543290699e+00
 3.985619796201450e-01	 1.404088170630291e+00	 1.928025183940604e+00
 3.657253370143581e-01	 1.410586217866145e+00	 1.733396596268623e+00
 3.327483079876942e-01	 1.416443341704605e+00	 1.555840737868943e+00
 6.598581830352498e-01	 1.340887054807035e+00	 4.030592625629647e+00
 6.286861711126497e-01	 1.353000061731036e+00	 3.744418725501596e+00
 5.971810439051409e-01	 1.364391403170606e+00	 3.464337097815292e+00
 5.653669618841588e-01	 1.375067072237715e+00	 3.191945124637205e+00
 5.332681418315468e-01	 1.385034098208786e+00	 2.928791632746408e+00
 5.009087913030716e-01	 1.394300503838440e+00	 2.676368644889577e+00
 4.683130449952527e-01	 1.402875259958044e+00	 2.436104104904429e+00
 4.355049033013806e-01	 1.410768237701365e+00	 2.209355604454506e+00
 4.025081733152879e-01	 1.417990158703402e+00	 1.997405121178953e+00
 3.693464125129542e-01	 1.424552543618833e+00	 1.801454761529464e+00
 3.360428753127599e-01	 1.430467659303615e+00	 1.622623486689237e+00
 6.663274294492167e-01	 1.354033104964595e+00	 4.102902435900251e+00
 6.348498072733945e-01	 1.366264867749247e+00	 3.817152776084558e+00
 6.030358039519952e-01	 1.377767889844539e+00	 3.537119866009211e+00
 5.709098168256141e-01	 1.388548223118886e+00	 3.264445756212138e+00
 5.384963000973219e-01	 1.398612965763712e+00	 3.000727218981585e+00
 5.058196986536593e-01	 1.407970219188693e+00	 2.747506895691120e+00
 4.729043838076082e-01	 1.416629042175190e+00	 2.506265426949216e+00
 4.397745912522127e-01	 1.424599402633524e+00	 2.278414600866851e+00
 4.064543614859514e-01	 1.431892127313559e+00	 2.065291535916164e+00
 3.729674829421980e-01	 1.438518849818423e+00	 1.868153897376379e+00
 3.393374380255505e-01	 1.444491957268275e+00	 1.688176130515495e+00
 6.727966698255098e-01	 1.367179142852703e+00	 4.172966958695687e+00
 6.410134376816959e-01	 1.379529661387156e+00	 3.887696530393029e+00
 6.088905585346771e-01	 1.391144364033907e+00	 3.607789295039823e+00
 5.764526665939905e-01	 1.402029361417770e+00	 3.334928662311168e+00
 5.437244534837128e-01	 1.412191820645104e+00	 3.070755941063652e+00
 5.107306014209383e-01	 1.421639921780570e+00	 2.816860912776634e+00
 4.774957183348917e-01	 1.430382811555445e+00	 2.574773395709517e+00
 4.440442752181524e-01	 1.438430554656515e+00	 2.345955842327064e+00
 4.104005459736288e-01	 1.445794082948413e+00	 2.131796992873448e+00
 3.765885499918736e-01	 1.452485142982614e+00	 1.933606589600602e+00
 3.426319976634912e-01	 1.458516242143368e+00	 1.752611139383296e+00
 6.792659071829658e-01	 1.380325174606045e+00	 4.240878175208538e+00
 6.471770652137750e-01	 1.392794448834883e+00	 3.956146465454110e+00
 6.147453103852734e-01	 1.404520831980973e+00	 3.676445466646107e+00
 5.819955137758277e-01	 1.415510493425495e+00	 3.403496730591205e+00
 5.489526044304115e-01	 1.425770669189720e+00	 3.138982788146764e+00
 5.156415018965628e-01	 1.435309617993255e+00	 2.884537178105166e+00
 4.820870507196393e-01	 1.444136574517252e+00	 2.641735473677534e+00
 4.483139571916460e-01	 1.452261700224921e+00	 2.412087356074148e+00
 4.143467286198130e-01	 1.459696032095616e+00	 2.197029764213274e+00
 3.802096153517648e-01	 1.466451429629105e+00	 1.997921130359559e+00
 3.459265557640069e-01	 1.472540520473678e+00	 1.816036693847325e+00
 6.857351445404221e-01	 1.393471206359307e+00	 4.306724594136877e+00
 6.533406927458544e-01	 1.406059236282552e+00	 4.022595415766400e+00
 6.206000622358696e-01	 1.417897299927996e+00	 3.743184683637845e+00
 5.875383609576650e-01	 1.428991625433194e+00	 3.470248963530139e+00
 5.541807553771099e-01	 1.439349517734319e+00	 3.205508784547173e+00
 5.205524023721871e-01	 1.448979314205930e+00	 2.950638152118865e+00
 4.866783831043868e-01	 1.457890337479054e+00	 2.707255064492112e+00
 4.525836391651395e-01	 1.466092845793325e+00	 2.476913088860953e+00
 4.182929112659973e-01	 1.473597981242819e+00	 2.261094032061753e+00
 3.838306807116564e-01	 1.480417716275596e+00	 2.061201720727769e+00
 3.492211138645225e-01	 1.486564798803988e+00	 1.878556887315555e+00
 6.922043849167152e-01	 1.406617244247173e+00	 4.370591414163275e+00
 6.595043231541556e-01	 1.419324029920284e+00	 4.087132743704274e+00
 6.264548168185518e-01	 1.431273774117241e+00	 3.808099646652805e+00
 5.930812107260417e-01	 1.442472763731995e+00	 3.535280660126576e+00
 5.594089087635007e-01	 1.452928372615660e+00	 3.270431175142549e+00
 5.254633051394662e-01	 1.462649016797779e+00	 3.015262461767222e+00
 4.912697176316702e-01	 1.471644106859294e+00	 2.771431702684687e+00
 4.568533231310793e-01	 1.479923997816310e+00	 2.540533097687088e+00
 4.222390957536747e-01	 1.487499936877671e+00	 2.324090079665451e+00
 3.874517477613319e-01	 1.494384009439787e+00	 2.123548661880577e+00
 3.525156735024633e-01	 1.500589083679082e+00	 1.940271917028065e+00
 6.986736313306823e-01	 1.419763294404329e+00	 4.432560677399399e+00
 6.656679593149004e-01	 1.432588835938203e+00	 4.149844500447948e+00
 6.323095768654061e-01	 1.444650260790970e+00	 3.871279621085923e+00
 5.986240656674968e-01	 1.455953914613030e+00	 3.598683587497187e+00
 5.646370670292757e-01	 1.466507240170500e+00	 3.333843600462384e+00
 5.303742124900538e-01	 1.476318732147982e+00	 3.078505078077252e+00
 4.958610564440256e-01	 1.485397889076415e+00	 2.834361232874322e+00
 4.611230110819116e-01	 1.493755162748458e+00	 2.603043729927207e+00
 4.261852839243382e-01	 1.501401905487825e+00	 2.386114471919321e+00
 3.910728181905756e-01	 1.508350315639376e+00	 2.185058535647461e+00
 3.558102362152539e-01	 1.514613381643741e+00	 2.001278264416964e+00
 7.051428868011599e-01	 1.432909362965459e+00	 4.492711414377374e+00
 6.718316041043106e-01	 1.445853660526430e+00	 4.210813578047080e+00
 6.381643451085180e-01	 1.458026766191443e+00	 3.932810594822039e+00
 6.041669283685706e-01	 1.469435084367429e+00	 3.660546143019858e+00
 5.698652326141274e-01	 1.480086126735601e+00	 3.395836262133134e+00
 5.352851267156051e-01	 1.489988466635725e+00	 3.140457483940586e+00
 5.004524016839894e-01	 1.499151690548859e+00	 2.896135979091278e+00
 4.653927050100819e-01	 1.507586347044352e+00	 2.664537793535263e+00
 4.301314776194810e-01	 1.515303893560932e+00	 2.447260225948893e+00
 3.946938936891718e-01	 1.522316641392064e+00	 2.245824375118442e+00
 3.591048035403197e-01	 1.528637699242752e+00	 2.061668865530210e+00
 7.116121543469851e-01	 1.446055456065250e+00	 4.551119781126085e+00
 6.779952603986081e-01	 1.459118509875090e+00	 4.270119853183694e+00
 6.440191242799743e-01	 1.471403296560924e+00	 3.992775427358051e+00
 6.097098014158014e-01	 1.482916279286323e+00	 3.720953507625945e+00
 5.750934079577478e-01	 1.493665038647719e+00	 3.456496079291181e+00
 5.401960501077742e-01	 1.503658226640188e+00	 3.201207832741457e+00
 5.050437554940973e-01	 1.512905517695068e+00	 2.956844904856629e+00
 4.696624069080371e-01	 1.521417557158576e+00	 2.725104717957892e+00
 4.340776786805963e-01	 1.529205907584642e+00	 2.507616972381051e+00
 3.983149759469042e-01	 1.536282993215550e+00	 2.305935825937282e+00
 3.623993770150853e-01	 1.542662043020896e+00	 2.121533272151886e+00
 3.294537345129284e-01	 1.402418997926461e+00	 1.487710910053112e+00
 2.966843784393872e-01	 1.407596598364675e+00	 1.329041237603767e+00
 2.638205609134598e-01	 1.412165572756028e+00	 1.187714804198627e+00
 2.308839434239252e-01	 1.416139826431092e+00	 1.063662881866054e+00
 1.978957096443058e-01	 1.419533782748832e+00	 9.567314148676247e-01
 1.648765290743220e-01	 1.422362329452364e+00	 8.666894201481106e-01
 1.318465240967305e-01	 1.424640765532204e+00	 7.932373292965518e-01
 9.882524045195897e-02	 1.426384748845694e+00	 7.360151817219271e-01
 6.583162110954265e-02	 1.427610244722075e+00	 6.946105908827767e-01
 3.288398349364309e-02	 1.428333475762771e+00	 6.685664174370343e-01
 0.000000000000000e+00	 1.428570873025926e+00	 6.573880948537973e-01
 3.327483079876942e-01	 1.416443341704605e+00	 1.555840737868945e+00
 2.996512547599297e-01	 1.421672718714860e+00	 1.395767203327889e+00
 2.664587954549430e-01	 1.426287383351045e+00	 1.252981600288870e+00
 2.331928081787427e-01	 1.430301379998563e+00	 1.127469990183830e+00
 1.998746884438768e-01	 1.433729276251555e+00	 1.019132770046233e+00
 1.665253124472977e-01	 1.436586108732203e+00	 9.277927036723927e-01
 1.331650037977657e-01	 1.438887329422610e+00	 8.532029312501563e-01
 9.981350369522612e-02	 1.440648752760408e+00	 7.950548676902807e-01
 6.648994454095852e-02	 1.441886503729888e+00	 7.529859114386894e-01
 3.321282693534693e-02	 1.442616967160266e+00	 7.265868970459808e-01
 0.000000000000000e+00	 1.442856738422074e+00	 7.154092359967401e-01
 3.360428753127599e-01	 1.430467659303615e+00	 1.622623486689237e+00
 3.026181255424344e-01	 1.435748812789194e+00	 1.461270507140462e+00
 2.690970250718209e-01	 1.440409167584866e+00	 1.317147592186607e+00
 2.355016686237529e-01	 1.444462907130611e+00	 1.190293967591745e+00
 2.018536635494072e-01	 1.447924743255469e+00	 1.080662873551404e+00
 1.681740927425821e-01	 1.450809861460411e+00	 9.881292361874146e-01
 1.344834810376643e-01	 1.453133866718838e+00	 9.124973535142575e-01
 1.008017650937519e-01	 1.454912730048382e+00	 8.535085066330468e-01
 6.714826674351385e-02	 1.456162736088079e+00	 8.108484178670978e-01
 3.354166976321423e-02	 1.456900431894637e+00	 7.841544885409899e-01
 0.000000000000000e+00	 1.457142577150667e+00	 7.730227598902291e-01
 3.393374380255505e-01	 1.444491957268275e+00	 1.688176130515494e+00
 3.055849921714104e-01	 1.449824887156639e+00	 1.525667770659843e+00
 2.717352509952450e-01	 1.454530932047792e+00	 1.380328691883000e+00
 2.378105258364076e-01	 1.458624414436090e+00	 1.252249706121014e+00
 2.038326358844074e-01	 1.462120190385275e+00	 1.141435334069243e+00
 1.698228707295977e-01	 1.465033594274894e+00	 1.047811126349753e+00
 1.358019564317105e-01	 1.467380384069432e+00	 9.712310342311341e-01
 1.017900251087216e-01	 1.469176687366300e+00	 9.114847411602240e-01
 6.780658802442376e-02	 1.470438948459054e+00	 8.683048767573462e-01
 3.387051213070415e-02	 1.471183876631666e+00	 8.413740454146590e-01
 0.000000000000000e+00	 1.471428395878593e+00	 8.303316119939217e-01
 3.426319976634912e-01	 1.458516242143368e+00	 1.752611139383295e+00
 3.085518560313680e-01	 1.463900948386158e+00	 1.589071124871048e+00
 2.743734744563665e-01	 1.468652683330121e+00	 1.442636347825943e+00
 2.401193808941584e-01	 1.472785908523857e+00	 1.313447673301486e+00
 2.058116063723871e-01	 1.476315624265677e+00	 1.201559384969523e+00
 1.714716471777676e-01	 1.479257313813562e+00	 1.106946165030484e+00
 1.371204305951884e-01	 1.481626888122938e+00	 1.029510157854845e+00
 1.027782842013206e-01	 1.483440631370847e+00	 9.690880291070310e-01
 6.846490869090337e-02	 1.484715147505218e+00	 9.254579419388662e-01
 3.419935419127582e-02	 1.485467308037133e+00	 8.983463818445403e-01
 0.000000000000000e+00	 1.485714201272741e+00	 8.874347717051398e-01
 3.459265557640069e-01	 1.472540520473678e+00	 1.816036693847324e+00
 3.115187185068158e-01	 1.477977003046713e+00	 1.651588423955720e+00
 2.770116966863367e-01	 1.482774428022150e+00	 1.504177757441469e+00
 2.424282348744576e-01	 1.486947396002769e+00	 1.373994122806004e+00
 2.077905759368567e-01	 1.490511051521376e+00	 1.261140092592113e+00
 1.731204228565147e-01	 1.493481026714322e+00	 1.165638030846910e+00
 1.384389041433821e-01	 1.495873385527899e+00	 1.087436857617365e+00
 1.037665428327341e-01	 1.497704568718708e+00	 1.026418842706438e+00
 6.912322905016788e-02	 1.498991339888976e+00	 9.824063502143514e-01
 3.452819609838832e-02	 1.499750732776819e+00	 9.551684649207295e-01
 0.000000000000000e+00	 1.500000000000000e+00	 9.444274410916784e-01
 3.492211138645225e-01	 1.486564798803988e+00	 1.878556887315555e+00
 3.144855809822637e-01	 1.492053057707269e+00	 1.713323447008686e+00
 2.796499189163069e-01	 1.496896172714180e+00	 1.565056067615398e+00
 2.447370888547568e-01	 1.501108883481681e+00	 1.433991293161593e+00
 2.097695455013264e-01	 1.504706478777075e+00	 1.320278552732861e+00
 1.747691985352618e-01	 1.507704739615082e+00	 1.223986484050360e+00
 1.397573776915759e-01	 1.510119882932860e+00	 1.145109406524517e+00
 1.047548014641477e-01	 1.511968506066570e+00	 1.083573856478525e+00
 6.978154940943238e-02	 1.513267532272735e+00	 1.039245106004466e+00
 3.485703800550086e-02	 1.514034157516504e+00	 1.011933595983461e+00
 0.000000000000000e+00	 1.514285798727260e+00	 1.001401222932683e+00
 3.525156735024633e-01	 1.500589083679082e+00	 1.940271917028063e+00
 3.174524448422210e-01	 1.506129118936787e+00	 1.774376088433337e+00
 2.822881423774284e-01	 1.511017923996508e+00	 1.625370563923416e+00
 2.470459439125078e-01	 1.515270377569448e+00	 1.493537595308485e+00
 2.117485159893061e-01	 1.518901912657477e+00	 1.379072076102939e+00
 1.764179749834317e-01	 1.521928459153749e+00	 1.282087549532829e+00
 1.410758518550538e-01	 1.524366386986366e+00	 1.202622397632844e+00
 1.057430605567467e-01	 1.526232450071117e+00	 1.140646124574837e+00
 7.043987007591201e-02	 1.527543731318899e+00	 1.096065655629953e+00
 3.518588006607250e-02	 1.528317588921971e+00	 1.068731581783562e+00
 0.000000000000000e+00	 1.528571604121408e+00	 1.058444288767408e+00
 3.558102362152539e-01	 1.514613381643741e+00	 2.001278264416964e+00
 3.204193114711973e-01	 1.520205193304232e+00	 1.834842537751158e+00
 2.849263683008524e-01	 1.525139688459433e+00	 1.685216849339658e+00
 2.493548011251625e-01	 1.529431884874928e+00	 1.552727789730699e+00
 2.137274883243062e-01	 1.533097359787283e+00	 1.437614363476009e+00
 1.780667529704474e-01	 1.536152191968234e+00	 1.340033689657938e+00
 1.423943272491001e-01	 1.538612904336961e+00	 1.260066914302844e+00
 1.067313205717163e-01	 1.540496407389035e+00	 1.197725248262240e+00
 7.109819135682192e-02	 1.541819943689873e+00	 1.152956051903188e+00
 3.551472243356241e-02	 1.542601033659000e+00	 1.125648896126298e+00
 0.000000000000000e+00	 1.542857422849333e+00	 1.115641537600142e+00
 3.591048035403197e-01	 1.528637699242752e+00	 2.061668865530209e+00
 3.233861822537019e-01	 1.534281287378566e+00	 1.894815449504921e+00
 2.875645979177304e-01	 1.539261472693255e+00	 1.744687013100172e+00
 2.516636615701727e-01	 1.543593412006975e+00	 1.611653153827951e+00
 2.157064634298367e-01	 1.547292826791197e+00	 1.495995671186361e+00
 1.797155332657316e-01	 1.550375944696441e+00	 1.397913967570497e+00
 1.437128044889987e-01	 1.552859441633188e+00	 1.317530691072461e+00
 1.077195819702421e-01	 1.554760384677008e+00	 1.254897534179761e+00
 7.175651355937723e-02	 1.556096176048064e+00	 1.210001109652291e+00
 3.584356526142972e-02	 1.556884498393372e+00	 1.182768832609679e+00
 0.000000000000000e+00	 1.557143261577926e+00	 1.173074745862087e+00
 3.623993770150853e-01	 1.542662043020896e+00	 2.121533272151886e+00
 3.263530585742443e-01	 1.548357407728751e+00	 1.954384103887017e+00
 2.902028324592135e-01	 1.553383283288272e+00	 1.803869790347932e+00
 2.539725263249901e-01	 1.557754965574446e+00	 1.670401640151145e+00
 2.176854422294076e-01	 1.561488320293919e+00	 1.554302967592584e+00
 1.813643166387074e-01	 1.564599723976281e+00	 1.455814201590959e+00
 1.450312841900338e-01	 1.567106005523594e+00	 1.375098265749095e+00
 1.087078452135093e-01	 1.569024388591723e+00	 1.312246143956397e+00
 7.241483699079308e-02	 1.570372435055877e+00	 1.267282552755179e+00
 3.617240870313355e-02	 1.571167989790866e+00	 1.240171649025307e+00
 0.000000000000000e+00	 1.571429126974074e+00	 1.230822709186579e+00
 1.571429126974074e+00	 0.000000000000000e+00	 1.158286522245088e+01
 1.571167989790867e+00	 3.617240870313405e-02	 1.156920445372602e+01
 1.570372435055877e+00	 7.241483699079355e-02	 1.155372344504506e+01
 1.569024388591724e+00	 1.087078452135097e-01	 1.153602646788942e+01
 1.567106005523594e+00	 1.450312841900342e-01	 1.151571778385450e+01
 1.564599723976281e+00	 1.813643166387076e-01	 1.149240496956229e+01
 1.561488320293920e+00	 2.176854422294079e-01	 1.146570255207562e+01
 1.557754965574446e+00	 2.539725263249902e-01	 1.143523594286918e+01
 1.553383283288272e+00	 2.902028324592137e-01	 1.140064565209962e+01
 1.548357407728751e+00	 3.263530585742443e-01	 1.136159175808534e+01
 1.542662043020896e+00	 3.623993770150854e-01	 1.131775859964647e+01
 1.585715024037928e+00	 0.000000000000000e+00	 1.154113614502835e+01
 1.585451512850806e+00	 3.650125287376479e-02	 1.152755822499497e+01
 1.584648725710099e+00	 7.307316188147503e-02	 1.151231157257435e+01
 1.583288424125677e+00	 1.096961106474002e-01	 1.149501897177433e+01
 1.581352600994570e+00	 1.463497668136621e-01	 1.147530305595361e+01
 1.578823534786167e+00	 1.830131036664365e-01	 1.145278952215394e+01
 1.575683845263964e+00	 2.196644254156486e-01	 1.142711064718885e+01
 1.571916550533969e+00	 2.562813961977032e-01	 1.139790909399566e+01
 1.567505125187193e+00	 2.928410728486677e-01	 1.136484199062460e+01
 1.562433559281498e+00	 3.293199414712119e-01	 1.132758525760107e+01
 1.556686417886749e+00	 3.656939577926278e-01	 1.128583815234102e+01
 1.600000951102682e+00	 0.000000000000000e+00	 1.150297439319950e+01
 1.599735065906658e+00	 3.683009773493779e-02	 1.148947301874406e+01
 1.598925046345046e+00	 7.373148815458680e-02	 1.147443980866338e+01
 1.597552489614615e+00	 1.106843781565817e-01	 1.145751603238951e+01
 1.595599226383898e+00	 1.476682522060276e-01	 1.143834289646132e+01
 1.593047375466544e+00	 1.846618941565351e-01	 1.141656467134594e+01
 1.589879400045076e+00	 2.216434127576645e-01	 1.139183211097340e+01
 1.586078165233253e+00	 2.585902709189449e-01	 1.136380615362053e+01
 1.581626996742376e+00	 2.954793187783158e-01	 1.133216188679713e+01
 1.576509740394501e+00	 3.322868305985031e-01	 1.129659275231616e+01
 1.570710822204060e+00	 3.689885454886305e-01	 1.125681496085295e+01
 1.614286904834791e+00	 0.000000000000000e+00	 1.146821154941594e+01
 1.614018645625435e+00	 3.715894320989962e-02	 1.145477399944036e+01
 1.613201393629416e+00	 7.438981565648350e-02	 1.143992838958937e+01
 1.611816581730097e+00	 1.116726475104183e-01	 1.142333446694299e+01
 1.609845878367207e+00	 1.489867400594473e-01	 1.140465222777969e+01
 1.607271242698359e+00	 1.863106877242590e-01	 1.138354497946361e+01
 1.604074981324810e+00	 2.236224037936801e-01	 1.135968268569716e+01
 1.600239806367783e+00	 2.608991499499849e-01	 1.133274558358747e+01
 1.595748894658584e+00	 2.981175696325953e-01	 1.130242805511239e+01
 1.590585947783202e+00	 3.352537252638942e-01	 1.126844272923910e+01
 1.584735252700366e+00	 3.722831393344285e-01	 1.123052478422929e+01
 1.628572881900711e+00	 0.000000000000000e+00	 1.143668510303599e+01
 1.628302248674145e+00	 3.748778922189691e-02	 1.142329246373146e+01
 1.627477764231905e+00	 7.504814423351969e-02	 1.140860385679644e+01
 1.626080697143679e+00	 1.126609184782742e-01	 1.139229751783116e+01
 1.624092553620127e+00	 1.503052300662380e-01	 1.137405246402521e+01
 1.621495133162564e+00	 1.879594839848635e-01	 1.135355151321117e+01
 1.618270585790724e+00	 2.256013980619200e-01	 1.133048457662565e+01
 1.614401470633040e+00	 2.632080327520929e-01	 1.130455221332628e+01
 1.609870815640586e+00	 3.007558247959439e-01	 1.127546942844197e+01
 1.604662178163042e+00	 3.382206247751619e-01	 1.124296969121336e+01
 1.598759706103210e+00	 3.755777385613570e-01	 1.120680914219546e+01
 1.642858878966899e+00	 0.000000000000000e+00	 1.140823819354183e+01
 1.642585871719799e+00	 3.781663569417622e-02	 1.139486557387231e+01
 1.641754154821212e+00	 7.570647373205003e-02	 1.138029878280456e+01
 1.640344832526921e+00	 1.136491908295135e-01	 1.136423457333154e+01
 1.638339248818290e+00	 1.516237219187165e-01	 1.134637122883018e+01
 1.635719043540108e+00	 1.896082825536043e-01	 1.132641156092265e+01
 1.632466210130369e+00	 2.275803951006085e-01	 1.130406617107137e+01
 1.628563154724508e+00	 2.655169187865385e-01	 1.127905696304877e+01
 1.623992756393148e+00	 3.033940836527993e-01	 1.125112088771492e+01
 1.618738428249461e+00	 3.411875284400820e-01	 1.122001389540161e+01
 1.612784179140129e+00	 3.788723424007510e-01	 1.118551506472966e+01
 1.657144892699808e+00	 0.000000000000000e+00	 1.138271936703116e+01
 1.656869511429405e+00	 3.814548254998415e-02	 1.136933610493272e+01
 1.656030562066033e+00	 7.636480399842913e-02	 1.135485151128762e+01
 1.654608984551380e+00	 1.146374643335004e-01	 1.133898090273434e+01
 1.652585960637322e+00	 1.529422153091996e-01	 1.132144208773243e+01
 1.649942970511941e+00	 1.912570830457367e-01	 1.130195836442955e+01
 1.646661851031305e+00	 2.295593944479705e-01	 1.128026177196690e+01
 1.642724855337668e+00	 2.678258075145912e-01	 1.125609658125439e+01
 1.638114713621036e+00	 3.060323455875986e-01	 1.122922300557297e+01
 1.632814694757902e+00	 3.441544355664312e-01	 1.119942110528893e+01
 1.626808668538664e+00	 3.821669500839458e-01	 1.116649485458311e+01
 1.671430919765895e+00	 0.000000000000000e+00	 1.135998234518957e+01
 1.671153164469973e+00	 3.847432971256731e-02	 1.134655220496133e+01
 1.670306982635067e+00	 7.702313487901155e-02	 1.133210591047359e+01
 1.668873149888615e+00	 1.156257387595990e-01	 1.131637740504954e+01
 1.666832685752855e+00	 1.542607099300041e-01	 1.129910429428112e+01
 1.664166910759013e+00	 1.929058850765161e-01	 1.128003086467137e+01
 1.660857505181086e+00	 2.315383956422302e-01	 1.125891134509347e+01
 1.656886569168004e+00	 2.701346983975205e-01	 1.123551339568939e+01
 1.652236684029017e+00	 3.086706099847796e-01	 1.120962180316439e+01
 1.646890974403806e+00	 3.471213454619858e-01	 1.118104235539688e+01
 1.640833171026356e+00	 3.854615608422766e-01	 1.114960586197197e+01
 1.685716956831615e+00	 0.000000000000000e+00	 1.133988580600366e+01
 1.685436827508512e+00	 3.880317710517230e-02	 1.132636716733806e+01
 1.684583413197011e+00	 7.768146622015194e-02	 1.131191113907661e+01
 1.683137325210183e+00	 1.166140138771735e-01	 1.129627037048456e+01
 1.681079420840518e+00	 1.555792054734467e-01	 1.127920254904529e+01
 1.678390860962274e+00	 1.945546882611981e-01	 1.126047346023409e+01
 1.675053169267265e+00	 2.335173982216121e-01	 1.123986027915514e+01
 1.671048292910997e+00	 2.724435908965961e-01	 1.121715507696237e+01
 1.666358664321857e+00	 3.113088762287799e-01	 1.119216851929749e+01
 1.660967263902613e+00	 3.500882574345220e-01	 1.116473372795471e+01
 1.654857683330742e+00	 3.887561739070783e-01	 1.113471027071933e+01
 1.700003000563425e+00	 0.000000000000000e+00	 1.132229317552452e+01
 1.699720497212033e+00	 3.913202465104567e-02	 1.130863921459819e+01
 1.698859850420562e+00	 7.833979786820486e-02	 1.129412142402464e+01
 1.697401507187642e+00	 1.176022894555880e-01	 1.127851125394176e+01
 1.695326162575941e+00	 1.568977016318442e-01	 1.126158677076659e+01
 1.692614817802672e+00	 1.962034922150380e-01	 1.124313577805643e+01
 1.689248839977401e+00	 2.354964017243409e-01	 1.122295915794363e+01
 1.685210023262131e+00	 2.747524844730876e-01	 1.120087441407175e+01
 1.680480651204323e+00	 3.139471437040368e-01	 1.117671939122706e+01
 1.675043559969767e+00	 3.530551707918165e-01	 1.115035614082460e+01
 1.668882202179363e+00	 3.920507885096862e-01	 1.112167489517416e+01
 1.714289047627778e+00	 0.000000000000000e+00	 1.130707243003754e+01
 1.714004170247544e+00	 3.946087227343405e-02	 1.129323129305958e+01
 1.713136290974417e+00	 7.899812966952499e-02	 1.127859584929444e+01
 1.711665692492551e+00	 1.185905652642067e-01	 1.126295645983490e+01
 1.709572907634753e+00	 1.582161980975134e-01	 1.124611187894831e+01
 1.706838777961159e+00	 1.978522965532914e-01	 1.122787245559483e+01
 1.703444513999047e+00	 2.374754056886410e-01	 1.120806354388873e+01
 1.699371756916888e+00	 2.770613785882647e-01	 1.118652910115090e+01
 1.694602641381181e+00	 3.165854117949879e-01	 1.116313544639573e+01
 1.689119859320706e+00	 3.560220848416451e-01	 1.113777514602512e+01
 1.682906724299760e+00	 3.953454038814352e-01	 1.111037098727871e+01
 1.542662043020896e+00	 3.623993770150854e-01	 1.131775859964647e+01
 1.536282993215550e+00	 3.983149759469040e-01	 1.126980398844276e+01
 1.529205907584642e+00	 4.340776786805960e-01	 1.121866288732834e+01
 1.521417557158576e+00	 4.696624069080367e-01	 1.116444457718386e+01
 1.512905517695068e+00	 5.050437554940970e-01	 1.110722649438515e+01
 1.503658226640188e+00	 5.401960501077737e-01	 1.104705052953807e+01
 1.493665038647719e+00	 5.750934079577475e-01	 1.098391946999545e+01
 1.482916279286322e+00	 6.097098014158012e-01	 1.091779365148504e+01
 1.471403296560924e+00	 6.440191242799742e-01	 1.084858788657562e+01
 1.459118509875090e+00	 6.779952603986078e-01	 1.077616873881786e+01
 1.446055456065250e+00	 7.116121543469853e-01	 1.070035221103879e+01
 1.556686417886749e+00	 3.656939577926278e-01	 1.128583815234102e+01
 1.550249375998099e+00	 4.019360662311212e-01	 1.124010570027557e+01
 1.543107952424686e+00	 4.380238884888155e-01	 1.119116614361620e+01
 1.535248797932060e+00	 4.739321182701246e-01	 1.113913616059298e+01
 1.526659375328873e+00	 5.096351194812659e-01	 1.108410001632343e+01
 1.517328016945761e+00	 5.451069843853168e-01	 1.102610575954075e+01
 1.507243980659426e+00	 5.803215948899214e-01	 1.096516156195639e+01
 1.496397504088063e+00	 6.152526867491098e-01	 1.090123226704544e+01
 1.484779856581116e+00	 6.498739164288541e-01	 1.083423621757959e+01
 1.472383388626781e+00	 6.841589303549737e-01	 1.076404243245991e+01
 1.459201578304726e+00	 7.180814362322998e-01	 1.069046820313356e+01
 1.570710822204060e+00	 3.689885454886305e-01	 1.125681496085295e+01
 1.564215788110238e+00	 4.055571641194287e-01	 1.121318426825288e+01
 1.557010026459114e+00	 4.419701065838270e-01	 1.116632408475469e+01
 1.549080067751132e+00	 4.782018385983015e-01	 1.111635831319310e+01
 1.540413261845648e+00	 5.142264931099342e-01	 1.106337777878773e+01
 1.530997835957645e+00	 5.500179289753961e-01	 1.100743631612801e+01
 1.520822951186545e+00	 5.855497928008031e-01	 1.094854699828881e+01
 1.509878757199894e+00	 6.207955837219393e-01	 1.088667857648681e+01
 1.498156444691492e+00	 6.557287208722125e-01	 1.082175220136425e+01
 1.485648295234026e+00	 6.903226132544257e-01	 1.075363849832830e+01
 1.472347728150277e+00	 7.245507317024646e-01	 1.068215506919014e+01
 1.584735252700366e+00	 3.722831393344285e-01	 1.123052478422929e+01
 1.578182226293059e+00	 4.091782687669958e-01	 1.118888319739384e+01
 1.570912126444055e+00	 4.459163320449563e-01	 1.114398742532929e+01
 1.562911363388469e+00	 4.824715668964256e-01	 1.109596841951033e+01
 1.554167174036154e+00	 5.188178753089214e-01	 1.104492329559033e+01
 1.544667680486245e+00	 5.549288827322758e-01	 1.099091130308728e+01
 1.534401947060710e+00	 5.907780004706400e-01	 1.093394993733104e+01
 1.523360035476277e+00	 6.263384910411125e-01	 1.087401126386280e+01
 1.511533057770965e+00	 6.615835362440975e-01	 1.081101852829563e+01
 1.498913226601820e+00	 6.964863076589417e-01	 1.074484312609850e+01
 1.485493902534635e+00	 7.310200392481445e-01	 1.067530200665909e+01
 1.598759706103210e+00	 3.755777385613570e-01	 1.120680914219546e+01
 1.592148687287654e+00	 4.127993793289919e-01	 1.116705148161191e+01
 1.584814249135637e+00	 4.498625639515296e-01	 1.112401211585905e+01
 1.576742681616749e+00	 4.867413021683550e-01	 1.107782886598054e+01
 1.567921108691154e+00	 5.234092650070474e-01	 1.102860486740283e+01
 1.558337547341971e+00	 5.598398445102201e-01	 1.097640441494144e+01
 1.547980965113555e+00	 5.960062166796786e-01	 1.092124895082332e+01
 1.536841335771679e+00	 6.318814074134527e-01	 1.086311326785443e+01
 1.524909692698449e+00	 6.674383611785578e-01	 1.080192200282050e+01
 1.512178179635163e+00	 7.026500121304985e-01	 1.073754649677254e+01
 1.498640098390529e+00	 7.374893573600056e-01	 1.066980209881222e+01
 1.612784179140129e+00	 3.788723424007510e-01	 1.118551506472966e+01
 1.606115167835117e+00	 4.164204949605868e-01	 1.114754336510226e+01
 1.598716391289989e+00	 4.538088013828732e-01	 1.110625911517849e+01
 1.590574019208646e+00	 4.910110434179482e-01	 1.106180682350214e+01
 1.581675062601407e+00	 5.280006611331310e-01	 1.101429537365493e+01
 1.572007433335227e+00	 5.647508131634927e-01	 1.096379373737055e+01
 1.561560002176714e+00	 6.012344402081660e-01	 1.091032683203544e+01
 1.550322654940563e+00	 6.374243315457835e-01	 1.085387159679673e+01
 1.538286346352859e+00	 6.732931943096417e-01	 1.079435336459928e+01
 1.525443151239054e+00	 7.088137252310736e-01	 1.073164260914433e+01
 1.511786312650691e+00	 7.439586845287128e-01	 1.066555214579025e+01
 1.626808668538664e+00	 3.821669500839458e-01	 1.116649485458311e+01
 1.620081664676538e+00	 4.200416148169498e-01	 1.113021811606418e+01
 1.612618549663240e+00	 4.577550434183133e-01	 1.109059417458599e+01
 1.604405372936839e+00	 4.952807896490632e-01	 1.104777404122992e+01
 1.595429032557675e+00	 5.325920626159918e-01	 1.100187207519114e+01
 1.585677335276421e+00	 5.696617875463581e-01	 1.095296155795104e+01
 1.575139055081823e+00	 6.064626698363499e-01	 1.090107041381348e+01
 1.563803989837394e+00	 6.429672621449282e-01	 1.084617715326768e+01
 1.551663015613107e+00	 6.791480342713972e-01	 1.078820711888552e+01
 1.538708138318490e+00	 7.149774455226444e-01	 1.072702911523587e+01
 1.524932542247848e+00	 7.504280192449314e-01	 1.066245250438445e+01
 1.640833171026356e+00	 3.854615608422766e-01	 1.114960586197197e+01
 1.634048174553012e+00	 4.236627380532504e-01	 1.111493981202114e+01
 1.626520721011518e+00	 4.617012891371760e-01	 1.107688763305568e+01
 1.618236739574002e+00	 4.995505398655581e-01	 1.103560665093759e+01
 1.609183015350721e+00	 5.371834683844493e-01	 1.099121642704191e+01
 1.599347249975960e+00	 5.745727665130803e-01	 1.094379418659503e+01
 1.588718120660515e+00	 6.116909043444767e-01	 1.089337039595221e+01
 1.577285337316637e+00	 6.485101979177099e-01	 1.083992456766754e+01
 1.565039697358108e+00	 6.850028796978732e-01	 1.078338137559905e+01
 1.551973137778469e+00	 7.211411715671885e-01	 1.072360716416813e+01
 1.538078784114736e+00	 7.568973599993275e-01	 1.066040693603005e+01
 1.654857683330742e+00	 3.887561739070783e-01	 1.113471027071933e+01
 1.648014694205628e+00	 4.272838638246583e-01	 1.110157713605080e+01
 1.640422902090953e+00	 4.656475376187876e-01	 1.106501422285638e+01
 1.632068115892814e+00	 5.038202930712914e-01	 1.102518498132269e+01
 1.622937007771303e+00	 5.417748773673225e-01	 1.098221390070980e+01
 1.613017174244250e+00	 5.794837489179233e-01	 1.093618178511492e+01
 1.602297195744425e+00	 6.169191425127935e-01	 1.088712118134039e+01
 1.590766694232754e+00	 6.540531375709525e-01	 1.083501204025570e+01
 1.578416388466777e+00	 6.908577292231182e-01	 1.077977769657737e+01
 1.565238146523991e+00	 7.273049019266826e-01	 1.072128125396621e+01
 1.551225035184080e+00	 7.633667052825658e-01	 1.065932246252470e+01
 1.668882202179363e+00	 3.920507885096862e-01	 1.112167489517416e+01
 1.661981220375480e+00	 4.309049912863429e-01	 1.109000318328349e+01
 1.654325089657674e+00	 4.695937879424743e-01	 1.105485288496594e+01
 1.645899498665951e+00	 5.080900482701213e-01	 1.101639338166901e+01
 1.636691006610186e+00	 5.463662884934315e-01	 1.097475381541105e+01
 1.626687104891698e+00	 5.843947336151508e-01	 1.093001820537668e+01
 1.615876277165188e+00	 6.221473831215475e-01	 1.088222072036313e+01
 1.604248057440212e+00	 6.595960798114789e-01	 1.083134119114769e+01
 1.591793085818026e+00	 6.967125814811796e-01	 1.077730095052452e+01
 1.578503161460054e+00	 7.334686351631050e-01	 1.071995909083249e+01
 1.564371292388615e+00	 7.698360535853119e-01	 1.065910922901750e+01
 1.682906724299760e+00	 3.953454038814352e-01	 1.111037098727871e+01
 1.675947749803660e+00	 4.345261195934738e-01	 1.108009527707064e+01
 1.668227280467807e+00	 4.735400391875617e-01	 1.104628659371007e+01
 1.659730884666089e+00	 5.123598044659057e-01	 1.100912005432130e+01
 1.650445008658129e+00	 5.509577006915951e-01	 1.096872917775060e+01
 1.640357038728711e+00	 5.893057194590274e-01	 1.092520083554113e+01
 1.629455361754438e+00	 6.273756249509855e-01	 1.087857036308003e+01
 1.617729423793474e+00	 6.651390233461127e-01	 1.082881691780831e+01
 1.605169786290770e+00	 7.025674351061066e-01	 1.077585917520854e+01
 1.591768179491655e+00	 7.396323698384317e-01	 1.071955145545235e+01
 1.577517552661069e+00	 7.763054033982315e-01	 1.065968037384504e+01
 1.446055456065250e+00	 7.116121543469853e-01	 1.070035221103879e+01
 1.432207836825179e+00	 7.448461945508820e-01	 1.061874765671299e+01
 1.417572442441803e+00	 7.776692863439487e-01	 1.052916367176254e+01
 1.402146412454711e+00	 8.100559812720015e-01	 1.043164309981681e+01
 1.385928152126612e+00	 8.419811877575717e-01	 1.032620521609749e+01
 1.368917358695528e+00	 8.734202465763066e-01	 1.021284426653510e+01
 1.351115042782549e+00	 9.043490060417461e-01	 1.009152832807905e+01
 1.332523544722111e+00	 9.347438964536106e-01	 9.962198526622906e+00
 1.313146545615595e+00	 9.645820033595822e-01	 9.824768643544630e+00
 1.292989072945795e+00	 9.938411391797882e-01	 9.679125135348427e+00
 1.272057500629041e+00	 1.022499912746946e+00	 9.525127583421691e+00
 1.459201578304726e+00	 7.180814362322998e-01	 1.069046820313356e+01
 1.445228070050683e+00	 7.516176078332568e-01	 1.061114785852907e+01
 1.430459624972012e+00	 7.847390950822563e-01	 1.052390035840786e+01
 1.414893356603801e+00	 8.174202181726493e-01	 1.042874785037028e+01
 1.398527655710973e+00	 8.496356574188768e-01	 1.032568959051648e+01
 1.381362216779143e+00	 8.813605294190271e-01	 1.021470068345341e+01
 1.363398059616986e+00	 9.125704629231188e-01	 1.009573114009825e+01
 1.344637545834977e+00	 9.432416739582017e-01	 9.968705286644546e+00
 1.325084389999482e+00	 9.733510397561601e-01	 9.833521552608252e+00
 1.304743665298257e+00	 1.002876171029337e+00	 9.690052659404410e+00
 1.283621803593056e+00	 1.031795482142871e+00	 9.538146223550013e+00
 1.472347728150277e+00	 7.245507317024646e-01	 1.068215506919014e+01
 1.458248330617824e+00	 7.583890353349527e-01	 1.060496483956542e+01
 1.443346834564395e+00	 7.918089186665238e-01	 1.051990162946588e+01
 1.427640327520521e+00	 8.247844705375758e-01	 1.042696717630840e+01
 1.411127185753312e+00	 8.572901431539766e-01	 1.032614111519966e+01
 1.393807100995965e+00	 8.893008289357811e-01	 1.021737992253325e+01
 1.375681102244761e+00	 9.207919370690237e-01	 1.010061617265088e+01
 1.356751572386259e+00	 9.517394693076289e-01	 9.975758137783394e+00
 1.337022259451874e+00	 9.821200945672420e-01	 9.842689756034568e+00
 1.316498282334426e+00	 1.011911221851995e+00	 9.701270985774769e+00
 1.295186130841210e+00	 1.041091071059036e+00	 9.551338557604589e+00
 1.485493902534635e+00	 7.310200392481445e-01	 1.067530200665909e+01
 1.471268615488724e+00	 7.651604754761316e-01	 1.060009074335898e+01
 1.456234068212133e+00	 7.988787554472803e-01	 1.051706293151452e+01
 1.440387322230788e+00	 8.321487366486009e-01	 1.042620018428334e+01
 1.423726739313953e+00	 8.649446431769593e-01	 1.032746291189904e+01
 1.406252008442408e+00	 8.972411432739574e-01	 1.022078947149227e+01
 1.387964167800051e+00	 9.290134265612310e-01	 1.010609562392828e+01
 1.368865621549567e+00	 9.602372805191779e-01	 9.983274324632152e+00
 1.348960151187484e+00	 9.908891657468134e-01	 9.852195869939322e+00
 1.328252921311766e+00	 1.020946289539680e+00	 9.712708414209169e+00
 1.306750479675358e+00	 1.050386677326566e+00	 9.564638865908538e+00
 1.498640098390529e+00	 7.374893573600056e-01	 1.066980209881222e+01
 1.484288921625506e+00	 7.719319266769569e-01	 1.059642149592819e+01
 1.469121322908410e+00	 8.059486037750556e-01	 1.051528337774866e+01
 1.453134337760516e+00	 8.395130147875444e-01	 1.042634951917198e+01
 1.436326313453225e+00	 8.725991557019142e-01	 1.032956149974139e+01
 1.418696936214885e+00	 9.051814705809439e-01	 1.022484006226130e+01
 1.400247253417037e+00	 9.372349294815117e-01	 1.011208477108526e+01
 1.380979690498518e+00	 9.687351056101363e-01	 9.991173993710527e+00
 1.360898062421025e+00	 9.996582512488599e-01	 9.861965223921771e+00
 1.340007579487740e+00	 1.029981371984304e+00	 9.724295758547671e+00
 1.318314847397356e+00	 1.059682298776580e+00	 9.577983733066045e+00
 1.511786312650691e+00	 7.439586845287128e-01	 1.066555214579025e+01
 1.497309245990293e+00	 7.787033873575906e-01	 1.059385664130853e+01
 1.482008595646407e+00	 8.130184620003784e-01	 1.051446558854802e+01
 1.465881371135623e+00	 8.468773032362267e-01	 1.042732121022038e+01
 1.448925905231452e+00	 8.802536789429295e-01	 1.033234664749101e+01
 1.431141881409813e+00	 9.131218090041288e-01	 1.022944552990069e+01
 1.412530356229895e+00	 9.454564439116367e-01	 1.011850183633523e+01
 1.393093776406722e+00	 9.772329425977901e-01	 9.999380067251476e+00
 1.372835990367206e+00	 1.008427349027368e+00	 9.871925743038219e+00
 1.351762254119812e+00	 1.039016467077784e+00	 9.735966237357681e+00
 1.329879231309057e+00	 1.068977933240202e+00	 9.591311947715750e+00
 1.524932542247848e+00	 7.504280192449314e-01	 1.066245250438445e+01
 1.510329585545209e+00	 7.854748559381955e-01	 1.059229918559003e+01
 1.494895883419309e+00	 8.200883284737793e-01	 1.051451554028668e+01
 1.478628419382025e+00	 8.542416002764679e-01	 1.042902452514191e+01
 1.461525511708960e+00	 8.879082111140940e-01	 1.033573123344983e+01
 1.443586841123604e+00	 9.210621566909006e-01	 1.023452267880973e+01
 1.424813473372803e+00	 9.536779679333758e-01	 1.012526785996743e+01
 1.405207876447794e+00	 9.857307894994263e-01	 1.000781812351235e+01
 1.384773932240742e+00	 1.017196457036321e+00	 9.882007835877072e+00
 1.363516942465446e+00	 1.048051572712035e+00	 9.747655370224525e+00
 1.341443628712318e+00	 1.078273578548551e+00	 9.604564407466460e+00
 1.538078784114736e+00	 7.568973599993275e-01	 1.066040693603005e+01
 1.523349937252375e+00	 7.922463308389349e-01	 1.059165544894844e+01
 1.507783183220298e+00	 8.271582015457860e-01	 1.051534242189193e+01
 1.491375479525636e+00	 8.616059041900879e-01	 1.043137183169344e+01
 1.474125129946076e+00	 8.955627504294971e-01	 1.033963111253813e+01
 1.456031812452673e+00	 9.290025117886478e-01	 1.023999115579350e+01
 1.437096601979941e+00	 9.618994996285009e-01	 1.013230657987268e+01
 1.417321987795348e+00	 9.942286443323317e-01	 1.001641628322033e+01
 1.396711885256342e+00	 1.025965573229707e+00	 9.892144288370460e+00
 1.375271641782104e+00	 1.057086686778972e+00	 9.759300879357548e+00
 1.353008036908993e+00	 1.087569232532751e+00	 9.617684028705241e+00
 1.551225035184080e+00	 7.633667052825658e-01	 1.065932246252470e+01
 1.536370298073917e+00	 7.990178104799711e-01	 1.059183492519627e+01
 1.520670492042556e+00	 8.342280795669296e-01	 1.051685849869253e+01
 1.504122548592373e+00	 8.689702132589067e-01	 1.043427846628611e+01
 1.486724757003127e+00	 9.032172951032263e-01	 1.034396499013024e+01
 1.468476792493434e+00	 9.369428724447580e-01	 1.024577332958047e+01
 1.449379739185485e+00	 9.701210370787814e-01	 1.013954431719146e+01
 1.429436107622995e+00	 1.002726505113793e+00	 1.002510510178886e+01
 1.408649846628719e+00	 1.034734695561511e+00	 9.902270163002333e+00
 1.387026349327250e+00	 1.066121807170510e+00	 9.770842596196571e+00
 1.364572453200936e+00	 1.096864893023922e+00	 9.630615660989129e+00
 1.564371292388615e+00	 7.698360535853119e-01	 1.065910922901750e+01
 1.549390664971957e+00	 8.057892932814672e-01	 1.059275014841119e+01
 1.533557806879267e+00	 8.412979608877380e-01	 1.051897898312823e+01
 1.516869623608153e+00	 8.763345257647448e-01	 1.043766260921727e+01
 1.499324389940438e+00	 9.108718433493710e-01	 1.034865430224800e+01
 1.480921778342302e+00	 9.448832368066197e-01	 1.025179417641144e+01
 1.461662882123616e+00	 9.783425783659890e-01	 1.014690986772468e+01
 1.441550233104349e+00	 1.011224369861097e+00	 1.003381746696552e+01
 1.420587813572585e+00	 1.043503821985717e+00	 9.912322703095834e+00
 1.398781062358348e+00	 1.075156931778564e+00	 9.782222372724721e+00
 1.376136874890005e+00	 1.106160557853187e+00	 9.643306005750834e+00
 1.577517552661069e+00	 7.763054033982315e-01	 1.065968037384504e+01
 1.562411034908616e+00	 8.125607776635853e-01	 1.059431656622970e+01
 1.546445124723613e+00	 8.483678438587413e-01	 1.052162191192022e+01
 1.529616701598890e+00	 8.836988399894217e-01	 1.044144516613741e+01
 1.511924025818336e+00	 9.185263933820198e-01	 1.035362310174130e+01
 1.493366767095691e+00	 9.528236030216212e-01	 1.025798117134604e+01
 1.473946027928508e+00	 9.865641215718935e-01	 1.015433439877083e+01
 1.453664361413024e+00	 1.019722236591529e+00	 1.004248850159484e+01
 1.432525783302651e+00	 1.052272950456313e+00	 9.922241241883613e+00
 1.410535778132862e+00	 1.084192058495051e+00	 9.793383997213311e+00
 1.387701299278052e+00	 1.115456224851666e+00	 9.655703539067101e+00
 1.272057500629041e+00	 1.022499912746946e+00	 9.525127583421691e+00
 1.250359540147344e+00	 1.050537798776298e+00	 9.360705240069683e+00
 1.227904219449511e+00	 1.077935209275797e+00	 9.184124010064242e+00
 1.204701875859538e+00	 1.104673546853691e+00	 8.995783322558211e+00
 1.180764136830705e+00	 1.130735259195432e+00	 8.796153877320787e+00
 1.156103891891588e+00	 1.156103891891588e+00	 8.585775173319217e+00
 1.130735259195432e+00	 1.180764136830706e+00	 8.365252262400638e+00
 1.104673546853691e+00	 1.204701875859538e+00	 8.135251769121782e+00
 1.077935209275797e+00	 1.227904219449511e+00	 7.896497231669736e+00
 1.050537798776297e+00	 1.250359540147344e+00	 7.649763831476172e+00
 1.022499912746946e+00	 1.272057500629041e+00	 7.395872590187077e+00
 1.283621803593056e+00	 1.031795482142871e+00	 9.538146223550013e+00
 1.261726586471149e+00	 1.060088261216182e+00	 9.375863899408856e+00
 1.239067123954619e+00	 1.087734742182361e+00	 9.201588095654309e+00
 1.215653847344298e+00	 1.114716158580364e+00	 9.015682672897178e+00
 1.191498489798890e+00	 1.141014798527169e+00	 8.818581414838540e+00
 1.166614058025953e+00	 1.166614058025953e+00	 8.610785832486009e+00
 1.141014798527169e+00	 1.191498489798890e+00	 8.392862207723523e+00
 1.114716158580364e+00	 1.215653847344298e+00	 8.165437913159423e+00
 1.087734742182360e+00	 1.239067123954620e+00	 7.929197058859319e+00
 1.060088261216181e+00	 1.261726586471148e+00	 7.684875529117507e+00
 1.031795482142871e+00	 1.283621803593056e+00	 7.433255483472413e+00
 1.295186130841210e+00	 1.041091071059036e+00	 9.551338557604589e+00
 1.273093656664901e+00	 1.069638743711571e+00	 9.391081673492341e+00
 1.250230051901031e+00	 1.097534295667453e+00	 9.218994627906074e+00
 1.226605841827457e+00	 1.124758791395993e+00	 9.035407245367972e+00
 1.202232865308533e+00	 1.151294359445364e+00	 8.840717946275575e+00
 1.177124246231041e+00	 1.177124246231041e+00	 8.635391814553707e+00
 1.151294359445364e+00	 1.202232865308534e+00	 8.419957918735211e+00
 1.124758791395993e+00	 1.226605841827457e+00	 8.195005919450486e+00
 1.097534295667452e+00	 1.250230051901031e+00	 7.961182009775698e+00
 1.069638743711570e+00	 1.273093656664901e+00	 7.719184247321289e+00
 1.041091071059036e+00	 1.295186130841210e+00	 7.469757347978158e+00
 1.306750479675358e+00	 1.050386677326566e+00	 9.564638865908538e+00
 1.284460748076471e+00	 1.079189244034114e+00	 9.406299022433668e+00
 1.261393000684236e+00	 1.107333867444610e+00	 9.236290340336414e+00
 1.237557856753712e+00	 1.134801442957407e+00	 9.054910111315825e+00
 1.212967260855094e+00	 1.161573939551575e+00	 8.862522915390329e+00
 1.187634454054607e+00	 1.187634454054607e+00	 8.659558940000156e+00
 1.161573939551575e+00	 1.212967260855095e+00	 8.446511566441583e+00
 1.134801442957407e+00	 1.237557856753713e+00	 8.223934252844208e+00
 1.107333867444610e+00	 1.261393000684237e+00	 7.992436756160979e+00
 1.079189244034114e+00	 1.284460748076472e+00	 7.752680747953367e+00
 1.050386677326566e+00	 1.306750479675358e+00	 7.505374889767755e+00
 1.318314847397356e+00	 1.059682298776580e+00	 9.577983733066045e+00
 1.295827858053730e+00	 1.088739759955460e+00	 9.421458493833692e+00
 1.272555967699726e+00	 1.117133455227372e+00	 9.253423833879218e+00
 1.248509889567757e+00	 1.144844110921433e+00	 9.074145987180691e+00
 1.223701673934031e+00	 1.171853536447356e+00	 8.883957187509212e+00
 1.198144679044406e+00	 1.198144679044407e+00	 8.683254227202717e+00
 1.171853536447356e+00	 1.223701673934032e+00	 8.472496297008359e+00
 1.144844110921433e+00	 1.248509889567758e+00	 8.252202132609074e+00
 1.117133455227372e+00	 1.272555967699726e+00	 8.022946506496956e+00
 1.088739759955460e+00	 1.295827858053730e+00	 7.785356116047419e+00
 1.059682298776580e+00	 1.318314847397355e+00	 7.540104929631287e+00
 1.329879231309057e+00	 1.068977933240202e+00	 9.591311947715750e+00
 1.307194983944547e+00	 1.098290289247258e+00	 9.436504631954161e+00
 1.283718950342991e+00	 1.126933056729275e+00	 9.270345495621639e+00
 1.259461937714286e+00	 1.154886792944901e+00	 9.093071162894208e+00
 1.234436102040804e+00	 1.182133147734263e+00	 8.904982987636844e+00
 1.208654918748195e+00	 1.208654918748196e+00	 8.706445840268287e+00
 1.182133147734263e+00	 1.234436102040805e+00	 8.497886189270963e+00
 1.154886792944901e+00	 1.259461937714287e+00	 8.279789499535898e+00
 1.126933056729275e+00	 1.283718950342991e+00	 8.052696982569035e+00
 1.098290289247258e+00	 1.307194983944547e+00	 7.817201745651531e+00
 1.068977933240202e+00	 1.329879231309057e+00	 7.573944397992394e+00
 1.341443628712318e+00	 1.078273578548551e+00	 9.604564407466460e+00
 1.318562123096792e+00	 1.107840829681157e+00	 9.451383891586620e+00
 1.294881946009521e+00	 1.136732669663859e+00	 9.287007421741290e+00
 1.270413998637995e+00	 1.164929486684639e+00	 9.111643433978241e+00
 1.245170542670870e+00	 1.192412771013853e+00	 8.925563841765868e+00
 1.219165170713729e+00	 1.219165170713729e+00	 8.729103039560465e+00
 1.192412771013853e+00	 1.245170542670870e+00	 8.522656214440929e+00
 1.164929486684638e+00	 1.270413998637995e+00	 8.306676984741586e+00
 1.136732669663859e+00	 1.294881946009521e+00	 8.081674397241631e+00
 1.107840829681157e+00	 1.318562123096793e+00	 7.848209326406570e+00
 1.078273578548551e+00	 1.341443628712317e+00	 7.606890330078560e+00
 1.353008036908993e+00	 1.087569232532751e+00	 9.617684028705241e+00
 1.329929272858337e+00	 1.117391379028806e+00	 9.466044556335806e+00
 1.306044952094807e+00	 1.146532291744662e+00	 9.303363344393228e+00
 1.281366069783578e+00	 1.174972189797474e+00	 9.129822037123672e+00
 1.255904993319687e+00	 1.202692403887681e+00	 8.945664521194683e+00
 1.229675432488762e+00	 1.229675432488763e+00	 8.751196134762177e+00
 1.202692403887681e+00	 1.255904993319688e+00	 8.546782197877551e+00
 1.174972189797473e+00	 1.281366069783578e+00	 8.332845880071959e+00
 1.146532291744661e+00	 1.306044952094807e+00	 8.109865433372802e+00
 1.117391379028805e+00	 1.329929272858337e+00	 7.878370830812377e+00
 1.087569232532751e+00	 1.353008036908992e+00	 7.638939861338969e+00
 1.364572453200936e+00	 1.096864893023922e+00	 9.630615660989129e+00
 1.341296430577051e+00	 1.126941935061853e+00	 9.480436661055993e+00
 1.317207965994339e+00	 1.156331920685220e+00	 9.319368562312679e+00
 1.292318148595728e+00	 1.185014899940235e+00	 9.147567589043060e+00
 1.266639451482715e+00	 1.212972043957304e+00	 8.965250989675249e+00
 1.240185701621051e+00	 1.240185701621051e+00	 8.772696440323923e+00
 1.212972043957304e+00	 1.266639451482715e+00	 8.570240782802340e+00
 1.185014899940234e+00	 1.292318148595729e+00	 8.358278110008708e+00
 1.156331920685220e+00	 1.317207965994339e+00	 8.137257223800503e+00
 1.126941935061853e+00	 1.341296430577051e+00	 7.907678502141373e+00
 1.096864893023922e+00	 1.364572453200936e+00	 7.670090223095384e+00
 1.376136874890005e+00	 1.106160557853187e+00	 9.643306005750834e+00
 1.352663593600802e+00	 1.136492495551947e+00	 9.494511918195974e+00
 1.328370985103609e+00	 1.166131554199074e+00	 9.334979874914689e+00
 1.303270232519143e+00	 1.195057614769750e+00	 9.164842028404836e+00
 1.277373914655412e+00	 1.223251688824277e+00	 8.984290353224106e+00
 1.250695975658350e+00	 1.250695975658350e+00	 8.793576233156962e+00
 1.223251688824276e+00	 1.277373914655412e+00	 8.593009395842129e+00
 1.195057614769750e+00	 1.303270232519143e+00	 8.382956204991999e+00
 1.166131554199074e+00	 1.328370985103609e+00	 8.163837332337298e+00
 1.136492495551947e+00	 1.352663593600803e+00	 7.936124842961048e+00
 1.106160557853187e+00	 1.376136874890005e+00	 7.700338738412102e+00
 1.387701299278052e+00	 1.115456224851666e+00	 9.655703539067101e+00
 1.364030759277465e+00	 1.146043058270738e+00	 9.508223647824817e+00
 1.339534006818105e+00	 1.175931189999760e+00	 9.350155519687338e+00
 1.314222318998515e+00	 1.205100331942848e+00	 9.181608560669146e+00
 1.288108380333235e+00	 1.233531336090155e+00	 9.002750812441620e+00
 1.261206252148415e+00	 1.261206252148416e+00	 8.813808712440995e+00
 1.233531336090155e+00	 1.288108380333236e+00	 8.615066214293986e+00
 1.205100331942847e+00	 1.314222318998515e+00	 8.406863276076429e+00
 1.175931189999759e+00	 1.339534006818105e+00	 8.189593735715054e+00
 1.146043058270737e+00	 1.364030759277465e+00	 7.963702604230260e+00
 1.115456224851666e+00	 1.387701299278052e+00	 7.729682818172465e+00
 1.022499912746946e+00	 1.272057500629041e+00	 7.395872590187077e+00
 9.938411391797880e-01	 1.292989072945795e+00	 7.133496068601925e+00
 9.645820033595817e-01	 1.313146545615596e+00	 6.861722910189349e+00
 9.347438964536103e-01	 1.332523544722111e+00	 6.582106181093312e+00
 9.043490060417456e-01	 1.351115042782550e+00	 6.296290693988961e+00
 8.734202465763062e-01	 1.368917358695529e+00	 6.005998347693692e+00
 8.419811877575710e-01	 1.385928152126612e+00	 5.713012957027169e+00
 8.100559812720007e-01	 1.402146412454711e+00	 5.419164806742389e+00
 7.776692863439484e-01	 1.417572442441804e+00	 5.126315159154341e+00
 7.448461945508813e-01	 1.432207836825180e+00	 4.836340935952633e+00
 7.116121543469851e-01	 1.446055456065250e+00	 4.551119781126086e+00
 1.031795482142871e+00	 1.283621803593056e+00	 7.433255483472413e+00
 1.002876171029337e+00	 1.304743665298257e+00	 7.173102254153569e+00
 9.733510397561598e-01	 1.325084389999482e+00	 6.903597311926039e+00
 9.432416739582011e-01	 1.344637545834978e+00	 6.626254700184957e+00
 9.125704629231184e-01	 1.363398059616986e+00	 6.342679456962651e+00
 8.813605294190264e-01	 1.381362216779144e+00	 6.054553265294722e+00
 8.496356574188763e-01	 1.398527655710974e+00	 5.763619591406551e+00
 8.174202181726491e-01	 1.414893356603802e+00	 5.471668540332420e+00
 7.847390950822557e-01	 1.430459624972012e+00	 5.180521654663331e+00
 7.516176078332562e-01	 1.445228070050684e+00	 4.892016873333645e+00
 7.180814362322998e-01	 1.459201578304726e+00	 4.607993854212220e+00
 1.041091071059036e+00	 1.295186130841210e+00	 7.469757347978158e+00
 1.011911221851995e+00	 1.316498282334426e+00	 7.211756935944694e+00
 9.821200945672417e-01	 1.337022259451875e+00	 6.944454289243147e+00
 9.517394693076283e-01	 1.356751572386259e+00	 6.669324896805442e+00
 9.207919370690233e-01	 1.375681102244761e+00	 6.387934365404883e+00
 8.893008289357806e-01	 1.393807100995965e+00	 6.101924382323705e+00
 8.572901431539762e-01	 1.411127185753312e+00	 5.812998164841039e+00
 8.247844705375753e-01	 1.427640327520522e+00	 5.522905621840595e+00
 7.918089186665234e-01	 1.443346834564396e+00	 5.233428449181800e+00
 7.583890353349521e-01	 1.458248330617824e+00	 4.946365372029516e+00
 7.245507317024646e-01	 1.472347728150277e+00	 4.663517734593767e+00
 1.050386677326566e+00	 1.306750479675358e+00	 7.505374889767755e+00
 1.020946289539679e+00	 1.328252921311766e+00	 7.249462502778925e+00
 9.908891657468131e-01	 1.348960151187485e+00	 6.984301551529432e+00
 9.602372805191773e-01	 1.368865621549567e+00	 6.711329434067880e+00
 9.290134265612304e-01	 1.387964167800052e+00	 6.432072666691703e+00
 8.972411432739568e-01	 1.406252008442408e+00	 6.148133160440344e+00
 8.649446431769587e-01	 1.423726739313954e+00	 5.861173984816650e+00
 8.321487366486005e-01	 1.440387322230788e+00	 5.572904839622090e+00
 7.988787554472800e-01	 1.456234068212134e+00	 5.285067452376121e+00
 7.651604754761312e-01	 1.471268615488724e+00	 4.999421110662044e+00
 7.310200392481446e-01	 1.485493902534635e+00	 4.717728526389088e+00
 1.059682298776580e+00	 1.318314847397355e+00	 7.540104929631287e+00
 1.029981371984303e+00	 1.340007579487740e+00	 7.286221258931207e+00
 9.996582512488599e-01	 1.360898062421025e+00	 7.023146537109380e+00
 9.687351056101354e-01	 1.380979690498518e+00	 6.752280530369730e+00
 9.372349294815112e-01	 1.400247253417037e+00	 6.475111002806361e+00
 9.051814705809433e-01	 1.418696936214885e+00	 6.193200308225308e+00
 8.725991557019135e-01	 1.436326313453225e+00	 5.908171470990204e+00
 8.395130147875441e-01	 1.453134337760517e+00	 5.621693972264538e+00
 8.059486037750551e-01	 1.469121322908410e+00	 5.335469454826834e+00
 7.719319266769559e-01	 1.484288921625506e+00	 5.051217551814732e+00
 7.374893573600056e-01	 1.498640098390529e+00	 4.770662032777061e+00
 1.068977933240202e+00	 1.329879231309057e+00	 7.573944397992394e+00
 1.039016467077783e+00	 1.351762254119812e+00	 7.322035427716170e+00
 1.008427349027367e+00	 1.372835990367206e+00	 7.060996424920928e+00
 9.772329425977898e-01	 1.393093776406722e+00	 6.792189978620134e+00
 9.454564439116363e-01	 1.412530356229895e+00	 6.517065436552747e+00
 9.131218090041283e-01	 1.431141881409813e+00	 6.237145813815550e+00
 8.802536789429289e-01	 1.448925905231452e+00	 5.954014193684880e+00
 8.468773032362263e-01	 1.465881371135624e+00	 5.669299832386905e+00
 8.130184620003781e-01	 1.482008595646407e+00	 5.384664176583151e+00
 7.787033873575901e-01	 1.497309245990293e+00	 5.101786994805401e+00
 7.439586845287128e-01	 1.511786312650691e+00	 4.822352812464600e+00
 1.078273578548551e+00	 1.341443628712317e+00	 7.606890330078560e+00
 1.048051572712034e+00	 1.363516942465446e+00	 7.356907154872410e+00
 1.017196457036321e+00	 1.384773932240742e+00	 7.097858145589654e+00
 9.857307894994257e-01	 1.405207876447794e+00	 6.831069164473357e+00
 9.536779679333754e-01	 1.424813473372804e+00	 6.557951476413617e+00
 9.210621566909001e-01	 1.443586841123604e+00	 6.279988975852744e+00
 8.879082111140938e-01	 1.461525511708960e+00	 5.998724910395641e+00
 8.542416002764672e-01	 1.478628419382025e+00	 5.715748308174550e+00
 8.200883284737788e-01	 1.494895883419310e+00	 5.432680313207488e+00
 7.854748559381950e-01	 1.510329585545209e+00	 5.151160625731046e+00
 7.504280192449314e-01	 1.524932542247848e+00	 4.872834233234997e+00
 1.087569232532751e+00	 1.353008036908992e+00	 7.638939861338969e+00
 1.057086686778971e+00	 1.375271641782104e+00	 7.390838511773138e+00
 1.025965573229707e+00	 1.396711885256342e+00	 7.133738391935150e+00
 9.942286443323313e-01	 1.417321987795348e+00	 6.868929083627714e+00
 9.618994996285004e-01	 1.437096601979941e+00	 6.597784100135277e+00
 9.290025117886472e-01	 1.456031812452673e+00	 6.321748432845441e+00
 8.955627504294964e-01	 1.474125129946077e+00	 6.042325600423682e+00
 8.616059041900874e-01	 1.491375479525636e+00	 5.761064402785276e+00
 8.271582015457856e-01	 1.507783183220298e+00	 5.479545579459868e+00
 7.922463308389345e-01	 1.523349937252376e+00	 5.199368564947381e+00
 7.568973599993274e-01	 1.538078784114736e+00	 4.922138522751743e+00
 1.096864893023922e+00	 1.364572453200936e+00	 7.670090223095384e+00
 1.066121807170509e+00	 1.387026349327251e+00	 7.423831498473854e+00
 1.034734695561510e+00	 1.408649846628719e+00	 7.168643628943911e+00
 1.002726505113793e+00	 1.429436107622995e+00	 6.905780358245424e+00
 9.701210370787809e-01	 1.449379739185485e+00	 6.636577777113224e+00
 9.369428724447576e-01	 1.468476792493435e+00	 6.362442191038989e+00
 9.032172951032259e-01	 1.486724757003127e+00	 6.084837497750895e+00
 8.689702132589063e-01	 1.504122548592373e+00	 5.805272271752829e+00
 8.342280795669288e-01	 1.520670492042557e+00	 5.525286750762712e+00
 7.990178104799709e-01	 1.536370298073918e+00	 5.246439912135891e+00
 7.633667052825658e-01	 1.551225035184081e+00	 4.970296816780770e+00
 1.106160557853187e+00	 1.376136874890005e+00	 7.700338738412102e+00
 1.075156931778564e+00	 1.398781062358349e+00	 7.455888046606393e+00
 1.043503821985717e+00	 1.420587813572585e+00	 7.202580103239353e+00
 1.011224369861096e+00	 1.441550233104349e+00	 6.941633252545230e+00
 9.783425783659885e-01	 1.461662882123616e+00	 6.674346489650172e+00
 9.448832368066190e-01	 1.480921778342302e+00	 6.402087650881485e+00
 9.108718433493705e-01	 1.499324389940438e+00	 6.126281122257704e+00
 8.763345257647444e-01	 1.516869623608153e+00	 5.848395258505836e+00
 8.412979608877375e-01	 1.533557806879267e+00	 5.569929702575845e+00
 8.057892932814669e-01	 1.549390664971957e+00	 5.292402789099651e+00
 7.698360535853118e-01	 1.564371292388615e+00	 5.017339204982513e+00
 1.115456224851666e+00	 1.387701299278052e+00	 7.729682818172465e+00
 1.084192058495050e+00	 1.410535778132863e+00	 7.487010022128505e+00
 1.052272950456312e+00	 1.432525783302652e+00	 7.235553852078933e+00
 1.019722236591529e+00	 1.453664361413024e+00	 6.976497687615618e+00
 9.865641215718933e-01	 1.473946027928509e+00	 6.711103753151553e+00
 9.528236030216204e-01	 1.493366767095692e+00	 6.440701632166721e+00
 9.185263933820192e-01	 1.511924025818336e+00	 6.166676309380986e+00
 8.836988399894211e-01	 1.529616701598891e+00	 5.890455928111498e+00
 8.483678438587410e-01	 1.546445124723613e+00	 5.613499447804113e+00
 8.125607776635847e-01	 1.562411034908617e+00	 5.337284380420755e+00
 7.763054033982313e-01	 1.577517552661069e+00	 5.063294774415717e+00
 7.116121543469851e-01	 1.446055456065250e+00	 4.551119781126085e+00
 6.779952603986081e-01	 1.459118509875090e+00	 4.270119853183694e+00
 6.440191242799743e-01	 1.471403296560924e+00	 3.992775427358051e+00
 6.097098014158014e-01	 1.482916279286323e+00	 3.720953507625945e+00
 5.750934079577478e-01	 1.493665038647719e+00	 3.456496079291181e+00
 5.401960501077742e-01	 1.503658226640188e+00	 3.201207832741457e+00
 5.050437554940973e-01	 1.512905517695068e+00	 2.956844904856629e+00
 4.696624069080371e-01	 1.521417557158576e+00	 2.725104717957892e+00
 4.340776786805963e-01	 1.529205907584642e+00	 2.507616972381051e+00
 3.983149759469042e-01	 1.536282993215550e+00	 2.305935825937282e+00
 3.623993770150853e-01	 1.542662043020896e+00	 2.121533272151886e+00
 7.180814362322998e-01	 1.459201578304726e+00	 4.607993854212220e+00
 6.841589303549738e-01	 1.472383388626782e+00	 4.327925836970440e+00
 6.498739164288544e-01	 1.484779856581117e+00	 4.051289502801065e+00
 6.152526867491104e-01	 1.496397504088063e+00	 3.779972692613101e+00
 5.803215948899217e-01	 1.507243980659427e+00	 3.515840805656371e+00
 5.451069843853170e-01	 1.517328016945761e+00	 3.260724136518128e+00
 5.096351194812663e-01	 1.526659375328873e+00	 3.016406230950313e+00
 4.739321182701249e-01	 1.535248797932060e+00	 2.784613345746648e+00
 4.380238884888158e-01	 1.543107952424687e+00	 2.567005073532068e+00
 4.019360662311215e-01	 1.550249375998100e+00	 2.365166169908982e+00
 3.656939577926278e-01	 1.556686417886749e+00	 2.180599598405752e+00
 7.245507317024646e-01	 1.472347728150277e+00	 4.663517734593768e+00
 6.903226132544259e-01	 1.485648295234026e+00	 4.384369092580593e+00
 6.557287208722129e-01	 1.498156444691492e+00	 4.108442576257126e+00
 6.207955837219395e-01	 1.509878757199893e+00	 3.837644676222165e+00
 5.855497928008034e-01	 1.520822951186545e+00	 3.573862019387733e+00
 5.500179289753964e-01	 1.530997835957644e+00	 3.318948334309698e+00
 5.142264931099344e-01	 1.540413261845647e+00	 3.074712435424805e+00
 4.782018385983018e-01	 1.549080067751132e+00	 2.842907316639739e+00
 4.419701065838273e-01	 1.557010026459114e+00	 2.625220419837147e+00
 4.055571641194289e-01	 1.564215788110238e+00	 2.423265119876981e+00
 3.689885454886305e-01	 1.570710822204060e+00	 2.238573445067967e+00
 7.310200392481446e-01	 1.485493902534635e+00	 4.717728526389088e+00
 6.964863076589421e-01	 1.498913226601821e+00	 4.439488827267107e+00
 6.615835362440979e-01	 1.511533057770965e+00	 4.164275684754521e+00
 6.263384910411126e-01	 1.523360035476277e+00	 3.894012103470330e+00
 5.907780004706401e-01	 1.534401947060710e+00	 3.630603803141498e+00
 5.549288827322761e-01	 1.544667680486245e+00	 3.375925827054580e+00
 5.188178753089218e-01	 1.554167174036154e+00	 3.131810168409019e+00
 4.824715668964258e-01	 1.562911363388469e+00	 2.900034510141406e+00
 4.459163320449566e-01	 1.570912126444055e+00	 2.682312148414728e+00
 4.091782687669960e-01	 1.578182226293059e+00	 2.480283145435860e+00
 3.722831393344285e-01	 1.584735252700366e+00	 2.295506734084021e+00
 7.374893573600056e-01	 1.498640098390529e+00	 4.770662032777061e+00
 7.026500121304988e-01	 1.512178179635163e+00	 4.493322873751319e+00
 6.674383611785580e-01	 1.524909692698449e+00	 4.218828426785839e+00
 6.318814074134532e-01	 1.536841335771679e+00	 3.949116124612763e+00
 5.960062166796790e-01	 1.547980965113555e+00	 3.686108694557614e+00
 5.598398445102205e-01	 1.558337547341970e+00	 3.431700424602965e+00
 5.234092650070477e-01	 1.567921108691153e+00	 3.187744445289593e+00
 4.867413021683554e-01	 1.576742681616749e+00	 2.956041128048013e+00
 4.498625639515298e-01	 1.584814249135637e+00	 2.738327674711368e+00
 4.127993793289922e-01	 1.592148687287655e+00	 2.536268947910354e+00
 3.755777385613569e-01	 1.598759706103210e+00	 2.351449568317256e+00
 7.439586845287128e-01	 1.511786312650691e+00	 4.822352812464600e+00
 7.088137252310740e-01	 1.525443151239054e+00	 4.545907749893824e+00
 6.732931943096422e-01	 1.538286346352859e+00	 4.272139024766178e+00
 6.374243315457838e-01	 1.550322654940563e+00	 4.002996460050246e+00
 6.012344402081665e-01	 1.561560002176714e+00	 3.740417753357518e+00
 5.647508131634932e-01	 1.572007433335227e+00	 3.486314414823060e+00
 5.280006611331313e-01	 1.581675062601407e+00	 3.242558717720525e+00
 4.910110434179485e-01	 1.590574019208646e+00	 3.010971767331105e+00
 4.538088013828737e-01	 1.598716391289989e+00	 2.793312767302249e+00
 4.164204949605870e-01	 1.606115167835117e+00	 2.591269537186796e+00
 3.788723424007510e-01	 1.612784179140129e+00	 2.406450310594765e+00
 7.504280192449314e-01	 1.524932542247848e+00	 4.872834233234997e+00
 7.149774455226450e-01	 1.538708138318490e+00	 4.597278715280925e+00
 6.791480342713977e-01	 1.551663015613107e+00	 4.324244384262374e+00
 6.429672621449286e-01	 1.563803989837395e+00	 4.055691461881169e+00
 6.064626698363502e-01	 1.575139055081823e+00	 3.793570624973180e+00
 5.696617875463584e-01	 1.585677335276421e+00	 3.539808629134746e+00
 5.325920626159921e-01	 1.595429032557675e+00	 3.296294940962054e+00
 4.952807896490634e-01	 1.604405372936839e+00	 3.064869489253479e+00
 4.577550434183135e-01	 1.612618549663240e+00	 2.847311618824544e+00
 4.200416148169501e-01	 1.620081664676538e+00	 2.645330304573080e+00
 3.821669500839457e-01	 1.626808668538665e+00	 2.460555658667132e+00
 7.568973599993274e-01	 1.538078784114736e+00	 4.922138522751741e+00
 7.211411715671887e-01	 1.551973137778469e+00	 4.647469824910544e+00
 6.850028796978735e-01	 1.565039697358109e+00	 4.375180150186932e+00
 6.485101979177100e-01	 1.577285337316637e+00	 4.107238172299299e+00
 6.116909043444768e-01	 1.588718120660515e+00	 3.845605600915027e+00
 5.745727665130806e-01	 1.599347249975960e+00	 3.592222504684557e+00
 5.371834683844495e-01	 1.609183015350720e+00	 3.348993637768228e+00
 4.995505398655584e-01	 1.618236739574002e+00	 3.117775884941812e+00
 4.617012891371763e-01	 1.626520721011518e+00	 2.900366913275226e+00
 4.236627380532507e-01	 1.634048174553011e+00	 2.698495091924075e+00
 3.854615608422766e-01	 1.640833171026356e+00	 2.513810716326264e+00
 7.633667052825658e-01	 1.551225035184081e+00	 4.970296816780770e+00
 7.273049019266828e-01	 1.565238146523991e+00	 4.696513980150327e+00
 6.908577292231181e-01	 1.578416388466777e+00	 4.424980760135893e+00
 6.540531375709528e-01	 1.590766694232754e+00	 4.157672379023335e+00
 6.169191425127937e-01	 1.602297195744425e+00	 3.896559676072084e+00
 5.794837489179234e-01	 1.613017174244251e+00	 3.643594143361018e+00
 5.417748773673230e-01	 1.622937007771304e+00	 3.400693959027781e+00
 5.038202930712917e-01	 1.632068115892814e+00	 3.169731137628017e+00
 4.656475376187880e-01	 1.640422902090953e+00	 2.952519889889114e+00
 4.272838638246586e-01	 1.648014694205628e+00	 2.750806257254269e+00
 3.887561739070783e-01	 1.654857683330742e+00	 2.566259060908842e+00
 7.698360535853118e-01	 1.564371292388615e+00	 5.017339204982513e+00
 7.334686351631050e-01	 1.578503161460053e+00	 4.744442977127350e+00
 6.967125814811799e-01	 1.591793085818026e+00	 4.473679495039116e+00
 6.595960798114791e-01	 1.604248057440212e+00	 4.207028667933669e+00
 6.221473831215476e-01	 1.615876277165188e+00	 3.946468603124399e+00
 5.843947336151513e-01	 1.626687104891698e+00	 3.693960367836026e+00
 5.463662884934321e-01	 1.636691006610186e+00	 3.451433741348995e+00
 5.080900482701216e-01	 1.645899498665951e+00	 3.220774081753295e+00
 4.695937879424745e-01	 1.654325089657673e+00	 3.003810403797610e+00
 4.309049912863432e-01	 1.661981220375480e+00	 2.802304737044002e+00
 3.920507885096861e-01	 1.668882202179363e+00	 2.617942807398424e+00
 7.763054033982313e-01	 1.577517552661069e+00	 5.063294774415718e+00
 7.396323698384324e-01	 1.591768179491655e+00	 4.791287552700195e+00
 7.025674351061071e-01	 1.605169786290770e+00	 4.521308527279450e+00
 6.651390233461130e-01	 1.617729423793473e+00	 4.255340473078397e+00
 6.273756249509856e-01	 1.629455361754438e+00	 3.995366944236806e+00
 5.893057194590278e-01	 1.640357038728711e+00	 3.743356774805678e+00
 5.509577006915954e-01	 1.650445008658129e+00	 3.501249561767124e+00
 5.123598044659060e-01	 1.659730884666089e+00	 3.270942259119038e+00
 4.735400391875621e-01	 1.668227280467808e+00	 3.054276983656528e+00
 4.345261195934739e-01	 1.675947749803660e+00	 2.853030105432067e+00
 3.953454038814352e-01	 1.682906724299760e+00	 2.668902669323943e+00
 3.623993770150853e-01	 1.542662043020896e+00	 2.121533272151886e+00
 3.263530585742443e-01	 1.548357407728751e+00	 1.954384103887017e+00
 2.902028324592135e-01	 1.553383283288272e+00	 1.803869790347932e+00
 2.539725263249901e-01	 1.557754965574446e+00	 1.670401640151145e+00
 2.176854422294076e-01	 1.561488320293919e+00	 1.554302967592584e+00
 1.813643166387074e-01	 1.564599723976281e+00	 1.455814201590959e+00
 1.450312841900338e-01	 1.567106005523594e+00	 1.375098265749095e+00
 1.087078452135093e-01	 1.569024388591723e+00	 1.312246143956397e+00
 7.241483699079308e-02	 1.570372435055877e+00	 1.267282552755179e+00
 3.617240870313355e-02	 1.571167989790866e+00	 1.240171649025307e+00
 0.000000000000000e+00	 1.571429126974074e+00	 1.230822709186579e+00
 3.656939577926278e-01	 1.556686417886749e+00	 2.180599598405751e+00
 3.293199414712120e-01	 1.562433559281498e+00	 2.013233926327331e+00
 2.928410728486677e-01	 1.567505125187194e+00	 1.862411743759033e+00
 2.562813961977030e-01	 1.571916550533969e+00	 1.728586412504787e+00
 2.196644254156484e-01	 1.575683845263964e+00	 1.612123055992888e+00
 1.830131036664362e-01	 1.578823534786167e+00	 1.513303376559818e+00
 1.463497668136618e-01	 1.581352600994570e+00	 1.432330773594419e+00
 1.096961106473998e-01	 1.583288424125677e+00	 1.369335677326369e+00
 7.307316188147454e-02	 1.584648725710099e+00	 1.324381019364160e+00
 3.650125287376429e-02	 1.585451512850806e+00	 1.297467768004638e+00
 0.000000000000000e+00	 1.585715024037928e+00	 1.288540463621064e+00
 3.689885454886305e-01	 1.570710822204060e+00	 2.238573445067965e+00
 3.322868305985031e-01	 1.576509740394501e+00	 2.071028958464062e+00
 2.954793187783156e-01	 1.581626996742376e+00	 1.919939150990649e+00
 2.585902709189448e-01	 1.586078165233253e+00	 1.785801361054376e+00
 2.216434127576642e-01	 1.589879400045076e+00	 1.669024335595434e+00
 1.846618941565348e-01	 1.593047375466543e+00	 1.569932748823767e+00
 1.476682522060273e-01	 1.595599226383897e+00	 1.488772053333234e+00
 1.106843781565813e-01	 1.597552489614615e+00	 1.425713578637129e+00
 7.373148815458633e-02	 1.598925046345047e+00	 1.380859798000091e+00
 3.683009773493729e-02	 1.599735065906658e+00	 1.354249690929829e+00
 0.000000000000000e+00	 1.600000951102682e+00	 1.345864135614212e+00
 3.722831393344285e-01	 1.584735252700366e+00	 2.295506734084019e+00
 3.352537252638942e-01	 1.590585947783202e+00	 2.127822514278899e+00
 2.981175696325952e-01	 1.595748894658584e+00	 1.976506414187664e+00
 2.608991499499848e-01	 1.600239806367783e+00	 1.842101623586327e+00
 2.236224037936799e-01	 1.604074981324811e+00	 1.725062281851681e+00
 1.863106877242587e-01	 1.607271242698359e+00	 1.625757691274884e+00
 1.489867400594469e-01	 1.609845878367206e+00	 1.544476896016029e+00
 1.116726475104179e-01	 1.611816581730097e+00	 1.481433541906868e+00
 7.438981565648303e-02	 1.613201393629416e+00	 1.436770937634580e+00
 3.715894320989912e-02	 1.614018645625435e+00	 1.410567243890992e+00
 0.000000000000000e+00	 1.614286904834791e+00	 1.402840723620181e+00
 3.755777385613569e-01	 1.598759706103210e+00	 2.351449568317255e+00
 3.382206247751618e-01	 1.604662178163041e+00	 2.183666039967270e+00
 3.007558247959438e-01	 1.609870815640586e+00	 2.032166029661952e+00
 2.632080327520928e-01	 1.614401470633040e+00	 1.897540406375243e+00
 2.256013980619198e-01	 1.618270585790723e+00	 1.780290426990251e+00
 1.879594839848633e-01	 1.621495133162564e+00	 1.680831637325242e+00
 1.503052300662377e-01	 1.624092553620127e+00	 1.599498173784456e+00
 1.126609184782738e-01	 1.626080697143680e+00	 1.536547380907638e+00
 7.504814423351923e-02	 1.627477764231905e+00	 1.492164664903041e+00
 3.748778922189638e-02	 1.628302248674145e+00	 1.466468508847939e+00
 0.000000000000000e+00	 1.628572881900711e+00	 1.459515581412981e+00
 3.788723424007510e-01	 1.612784179140129e+00	 2.406450310594765e+00
 3.411875284400819e-01	 1.618738428249461e+00	 2.238609195106893e+00
 3.033940836527992e-01	 1.623992756393148e+00	 2.086968670719703e+00
 2.655169187865384e-01	 1.628563154724507e+00	 1.952169068133332e+00
 2.275803951006083e-01	 1.632466210130370e+00	 1.834760444480790e+00
 1.896082825536040e-01	 1.635719043540108e+00	 1.735206165214151e+00
 1.516237219187161e-01	 1.638339248818289e+00	 1.653886923290456e+00
 1.136491908295131e-01	 1.640344832526921e+00	 1.591105110910931e+00
 7.570647373204954e-02	 1.641754154821212e+00	 1.547089463340158e+00
 3.781663569417570e-02	 1.642585871719799e+00	 1.521999899474914e+00
 0.000000000000000e+00	 1.642858878966899e+00	 1.515932489617382e+00
 3.821669500839457e-01	 1.626808668538665e+00	 2.460555658667132e+00
 3.441544355664312e-01	 1.632814694757902e+00	 2.292699929630303e+00
 3.060323455875985e-01	 1.638114713621036e+00	 2.140963266207621e+00
 2.678258075145910e-01	 1.642724855337668e+00	 2.006037199619662e+00
 2.295593944479702e-01	 1.646661851031305e+00	 1.888522229131727e+00
 1.912570830457364e-01	 1.649942970511941e+00	 1.788931077956730e+00
 1.529422153091992e-01	 1.652585960637322e+00	 1.707692424803068e+00
 1.146374643335000e-01	 1.654608984551381e+00	 1.645155026207245e+00
 7.636480399842863e-02	 1.656030562066033e+00	 1.601592148519744e+00
 3.814548254998362e-02	 1.656869511429404e+00	 1.577206233084255e+00
 0.000000000000000e+00	 1.657144892699808e+00	 1.572133723541835e+00
 3.854615608422766e-01	 1.640833171026356e+00	 2.513810716326264e+00
 3.471213454619858e-01	 1.646890974403806e+00	 2.345984556852091e+00
 3.086706099847795e-01	 1.652236684029017e+00	 2.194197075032823e+00
 2.701346983975204e-01	 1.656886569168003e+00	 2.059192699169758e+00
 2.315383956422299e-01	 1.660857505181086e+00	 1.941623973082205e+00
 1.929058850765158e-01	 1.664166910759013e+00	 1.842054479195275e+00
 1.542607099300037e-01	 1.666832685752855e+00	 1.760962277260850e+00
 1.156257387595986e-01	 1.668873149888614e+00	 1.698743773652462e+00
 7.702313487901102e-02	 1.670306982635067e+00	 1.655717939343054e+00
 3.847432971256679e-02	 1.671153164469973e+00	 1.632130798863872e+00
 0.000000000000000e+00	 1.671430919765895e+00	 1.628160117534866e+00
 3.887561739070783e-01	 1.654857683330742e+00	 2.566259060908842e+00
 3.500882574345220e-01	 1.660967263902613e+00	 2.398507822785192e+00
 3.113088762287797e-01	 1.666358664321857e+00	 2.246715756896021e+00
 2.724435908965959e-01	 1.671048292910997e+00	 2.111681844385993e+00
 2.335173982216118e-01	 1.675053169267265e+00	 1.994112237932406e+00
 1.945546882611978e-01	 1.678390860962273e+00	 1.894622845195411e+00
 1.555792054734463e-01	 1.681079420840518e+00	 1.813742469509851e+00
 1.166140138771731e-01	 1.683137325210182e+00	 1.751916422476822e+00
 7.768146622015146e-02	 1.684583413197011e+00	 1.709510525704619e+00
 3.880317710517176e-02	 1.685436827508512e+00	 1.686815422646869e+00
 0.000000000000000e+00	 1.685716956831615e+00	 1.684051126070745e+00
 3.920507885096861e-01	 1.668882202179363e+00	 2.617942807398423e+00
 3.530551707918164e-01	 1.675043559969767e+00	 2.450312971964096e+00
 3.139471437040367e-01	 1.680480651204323e+00	 2.298563439460188e+00
 2.747524844730875e-01	 1.685210023262131e+00	 2.163549360216086e+00
 2.354964017243407e-01	 1.689248839977401e+00	 2.046032023239341e+00
 1.962034922150377e-01	 1.692614817802672e+00	 1.946681093214691e+00
 1.568977016318438e-01	 1.695326162575941e+00	 1.866077447952210e+00
 1.176022894555876e-01	 1.697401507187642e+00	 1.804716530575953e+00
 7.833979786820437e-02	 1.698859850420562e+00	 1.763012132747774e+00
 3.913202465104514e-02	 1.699720497212033e+00	 1.741300528417339e+00
 0.000000000000000e+00	 1.700003000563425e+00	 1.739844881757115e+00
 3.953454038814352e-01	 1.682906724299760e+00	 2.668902669323943e+00
 3.560220848416451e-01	 1.689119859320706e+00	 2.501441809978515e+00
 3.165854117949879e-01	 1.694602641381182e+00	 2.349782782162438e+00
 2.770613785882645e-01	 1.699371756916888e+00	 2.214838483629167e+00
 2.374754056886408e-01	 1.703444513999047e+00	 2.097426831589064e+00
 1.978522965532911e-01	 1.706838777961158e+00	 1.998272646454077e+00
 1.582161980975129e-01	 1.709572907634753e+00	 1.918010180813587e+00
 1.185905652642063e-01	 1.711665692492552e+00	 1.857186207488881e+00
 7.899812966952448e-02	 1.713136290974417e+00	 1.816263581909634e+00
 3.946087227343351e-02	 1.714004170247544e+00	 1.795625196742183e+00
 0.000000000000000e+00	 1.714289047627778e+00	 1.795578250443574e+00
 1.714289047627778e+00	 0.000000000000000e+00	 1.130707243003754e+01
 1.714004170247544e+00	 3.946087227343405e-02	 1.129323129305958e+01
 1.713136290974417e+00	 7.899812966952499e-02	 1.127859584929444e+01
 1.711665692492551e+00	 1.185905652642067e-01	 1.126295645983490e+01
 1.709572907634753e+00	 1.582161980975134e-01	 1.124611187894831e+01
 1.706838777961159e+00	 1.978522965532914e-01	 1.122787245559483e+01
 1.703444513999047e+00	 2.374754056886410e-01	 1.120806354388873e+01
 1.699371756916888e+00	 2.770613785882647e-01	 1.118652910115090e+01
 1.694602641381181e+00	 3.165854117949879e-01	 1.116313544639573e+01
 1.689119859320706e+00	 3.560220848416451e-01	 1.113777514602512e+01
 1.682906724299760e+00	 3.953454038814352e-01	 1.111037098727871e+01
 1.728574095521189e+00	 0.000000000000000e+00	 1.129411779062788e+01
 1.728286844278154e+00	 3.978969689590382e-02	 1.128012914031683e+01
 1.727411733029215e+00	 7.965641542658061e-02	 1.126538371593644e+01
 1.725928880155543e+00	 1.195787719521365e-01	 1.124969547304846e+01
 1.723818656271432e+00	 1.595346023467900e-01	 1.123288868187463e+01
 1.721061743291110e+00	 1.995009855734061e-01	 1.121480117822911e+01
 1.717639195170523e+00	 2.394542712406711e-01	 1.119528780746249e+01
 1.713532500095309e+00	 2.793701112187154e-01	 1.117422403778212e+01
 1.708723643861422e+00	 3.192234953648744e-01	 1.115150971350451e+01
 1.703195174170718e+00	 3.589887913849909e-01	 1.112707291276896e+01
 1.696930265540624e+00	 3.986397888273382e-01	 1.110087386811203e+01
 1.742859145080407e+00	 0.000000000000000e+00	 1.128327901396270e+01
 1.742569519974292e+00	 4.011852155654502e-02	 1.126929326710882e+01
 1.741687176748694e+00	 8.031470126013213e-02	 1.125452644772994e+01
 1.740192069481785e+00	 1.205669787550092e-01	 1.123882516760040e+01
 1.738064406569329e+00	 1.608530067495478e-01	 1.122204836433573e+01
 1.735284710279628e+00	 2.011496747855981e-01	 1.120407052084606e+01
 1.731833877997279e+00	 2.414331370233990e-01	 1.118478505371523e+01
 1.727693244925074e+00	 2.816788441184743e-01	 1.116410784486074e+01
 1.722844647988404e+00	 3.218615792426328e-01	 1.114198088517939e+01
 1.717270490662191e+00	 3.619554982746882e-01	 1.111837599307575e+01
 1.710953808416969e+00	 4.019341741579514e-01	 1.109329856492273e+01
 1.757144197972236e+00	 0.000000000000000e+00	 1.127436832923624e+01
 1.756852199002485e+00	 4.044734629376737e-02	 1.126055931448045e+01
 1.755962623798535e+00	 8.097298724705353e-02	 1.124588143146099e+01
 1.754455262135521e+00	 1.215551857881995e-01	 1.123022273476686e+01
 1.752310160190644e+00	 1.621714114596792e-01	 1.121348570125357e+01
 1.749507680586243e+00	 2.027983643822760e-01	 1.119559033843901e+01
 1.746028564135532e+00	 2.434120032677273e-01	 1.117647742973799e+01
 1.741853993058423e+00	 2.839875775568943e-01	 1.115611188915403e+01
 1.736965655409712e+00	 3.244996637360027e-01	 1.113448619271598e+01
 1.731345810437356e+00	 3.649222058567783e-01	 1.111162384853041e+01
 1.724977354564966e+00	 4.052285602575090e-01	 1.108758286194028e+01
 1.771429255863481e+00	 0.000000000000000e+00	 1.126720402288878e+01
 1.771134883029259e+00	 4.077617114598067e-02	 1.125376822530569e+01
 1.770238075844416e+00	 8.163127346421889e-02	 1.123931065412346e+01
 1.768718459780996e+00	 1.225433931670820e-01	 1.122376932707435e+01
 1.766555918797576e+00	 1.634898166310768e-01	 1.120709886151826e+01
 1.763730655870483e+00	 2.044470545558483e-01	 1.118927339347505e+01
 1.760223255241496e+00	 2.453908702045582e-01	 1.117028959355543e+01
 1.756014746147593e+00	 2.862963118033288e-01	 1.115016975094517e+01
 1.751086667772930e+00	 3.271377491527243e-01	 1.112896489174310e+01
 1.745421135138444e+00	 3.678889144773020e-01	 1.110675789309924e+01
 1.739000905620783e+00	 4.085229475102455e-01	 1.108366654986724e+01
 1.785714320420949e+00	 0.000000000000000e+00	 1.126161019633631e+01
 1.785417573721143e+00	 4.110499615159467e-02	 1.124876603222567e+01
 1.784513534552017e+00	 8.228955998850228e-02	 1.123468051891584e+01
 1.782981664082449e+00	 1.235316010070312e-01	 1.121934989985049e+01
 1.780801684052323e+00	 1.648082224176332e-01	 1.120278927222722e+01
 1.777953637791879e+00	 2.060957454987233e-01	 1.118503523959237e+01
 1.774417952971385e+00	 2.473697380647936e-01	 1.116614861368432e+01
 1.770175505844826e+00	 2.886050471271306e-01	 1.114621713548875e+01
 1.765207686725639e+00	 3.297758358005370e-01	 1.112535818124665e+01
 1.759496466407687e+00	 3.708556244823006e-01	 1.110372141503327e+01
 1.753024463220587e+00	 4.118173363003946e-01	 1.108149134562044e+01
 1.799999393311444e+00	 0.000000000000000e+00	 1.125741653523941e+01
 1.799700272744663e+00	 4.143382134901918e-02	 1.124540365568723e+01
 1.798789001587018e+00	 8.294784689677770e-02	 1.123186167000206e+01
 1.797244876704124e+00	 1.245198094234218e-01	 1.121685306032155e+01
 1.795047457617085e+00	 1.661266289732409e-01	 1.120046148939055e+01
 1.792176628009957e+00	 2.077444374033096e-01	 1.118279411083715e+01
 1.788612658981417e+00	 2.493486070793360e-01	 1.116398387347613e+01
 1.784336273802357e+00	 2.909137837976530e-01	 1.114419178868375e+01
 1.779328713915424e+00	 3.324139239871812e-01	 1.112360912645033e+01
 1.773571805887316e+00	 3.738223362178146e-01	 1.110245950249129e+01
 1.767048029000547e+00	 4.151117270121904e-01	 1.108100081589485e+01
 1.814284476201773e+00	 0.000000000000000e+00	 1.125445808967519e+01
 1.813982981766347e+00	 4.176264677666395e-02	 1.124353671152507e+01
 1.813064478615097e+00	 8.360613426591922e-02	 1.123072882555308e+01
 1.811508099310267e+00	 1.255080185316283e-01	 1.121617092384085e+01
 1.809293241154060e+00	 1.674450364517926e-01	 1.120002307474617e+01
 1.806399628184248e+00	 2.093931304620157e-01	 1.118247081613441e+01
 1.802807374927804e+00	 2.513274774790874e-01	 1.116372697997968e+01
 1.798497051672427e+00	 2.932225220842489e-01	 1.114403341673130e+01
 1.793449750989868e+00	 3.350520140203967e-01	 1.112366258534067e+01
 1.787647155219565e+00	 3.767890500298854e-01	 1.110291897267747e+01
 1.781071604596829e+00	 4.184061200298669e-01	 1.108214030433951e+01
 1.828569570758740e+00	 0.000000000000000e+00	 1.125257506461593e+01
 1.828265702452721e+00	 4.209147247293873e-02	 1.124302532756536e+01
 1.827339967301935e+00	 8.426442217280079e-02	 1.123116061861641e+01
 1.825771333565118e+00	 1.264962284470254e-01	 1.121719897685791e+01
 1.823539036325449e+00	 1.687634450071806e-01	 1.120138447835047e+01
 1.820622639974282e+00	 2.110418248672499e-01	 1.118398863870669e+01
 1.817002102466761e+00	 2.533063494949500e-01	 1.116531167707694e+01
 1.812657841107275e+00	 2.955312622562716e-01	 1.114568360955931e+01
 1.807570799596554e+00	 3.376901062079237e-01	 1.112546513863681e+01
 1.801722516046665e+00	 3.797557662645540e-01	 1.110504830430142e+01
 1.795095191645604e+00	 4.217005157376583e-01	 1.108485686214763e+01
 1.842854678649152e+00	 0.000000000000000e+00	 1.125161262015491e+01
 1.842548436470314e+00	 4.242029847625331e-02	 1.124373396876131e+01
 1.841615469313211e+00	 8.492271069429662e-02	 1.123303944538856e+01
 1.840034581132922e+00	 1.274844392849876e-01	 1.121983594626246e+01
 1.837784844793450e+00	 1.700818547932978e-01	 1.120445892663106e+01
 1.834845665039586e+00	 2.126905208114208e-01	 1.118727324017178e+01
 1.831196843254505e+00	 2.552852233578261e-01	 1.116867376265979e+01
 1.826818643759138e+00	 2.978400045830740e-01	 1.114908576780940e+01
 1.821691861383066e+00	 3.403282008575017e-01	 1.112896502301825e+01
 1.815797890010847e+00	 3.827224852678610e-01	 1.110879757318034e+01
 1.809118791783039e+00	 4.249949145197988e-01	 1.108909918187586e+01
 1.857139801539814e+00	 0.000000000000000e+00	 1.125142068095474e+01
 1.856831185485652e+00	 4.274912482501749e-02	 1.124553127040111e+01
 1.855890986314602e+00	 8.558099990728060e-02	 1.123625132049189e+01
 1.854297843677920e+00	 1.284726511608895e-01	 1.122398367476004e+01
 1.852030668220261e+00	 1.714002659640365e-01	 1.120916231560736e+01
 1.849068705039691e+00	 2.143392184869368e-01	 1.119225256906786e+01
 1.845391598947249e+00	 2.572640992986178e-01	 1.117375100963021e+01
 1.840979461280257e+00	 3.001487493340095e-01	 1.115418503319458e+01
 1.835812937996986e+00	 3.429662982768709e-01	 1.113411206743509e+01
 1.829873278754343e+00	 3.856892073858478e-01	 1.111411839081392e+01
 1.823142406645302e+00	 4.282893167605222e-01	 1.109481753431870e+01
 1.682906724299760e+00	 3.953454038814352e-01	 1.111037098727871e+01
 1.675947749803660e+00	 4.345261195934738e-01	 1.108009527707064e+01
 1.668227280467807e+00	 4.735400391875617e-01	 1.104628659371007e+01
 1.659730884666089e+00	 5.123598044659057e-01	 1.100912005432130e+01
 1.650445008658129e+00	 5.509577006915951e-01	 1.096872917775060e+01
 1.640357038728711e+00	 5.893057194590274e-01	 1.092520083554113e+01
 1.629455361754438e+00	 6.273756249509855e-01	 1.087857036308003e+01
 1.617729423793474e+00	 6.651390233461127e-01	 1.082881691780831e+01
 1.605169786290770e+00	 7.025674351061066e-01	 1.077585917520854e+01
 1.591768179491655e+00	 7.396323698384317e-01	 1.071955145545235e+01
 1.577517552661069e+00	 7.763054033982315e-01	 1.065968037384505e+01
 1.696930265540624e+00	 3.986397888273382e-01	 1.110087386811203e+01
 1.689913302408431e+00	 4.381469946384857e-01	 1.107192765474877e+01
 1.682128498954506e+00	 4.774860144314484e-01	 1.103939353191275e+01
 1.673561303295025e+00	 5.166292620345447e-01	 1.100345110755865e+01
 1.664198048747260e+00	 5.555487917659617e-01	 1.096423700576589e+01
 1.654026016486803e+00	 5.942163618280745e-01	 1.092183966010026e+01
 1.643033496618929e+00	 6.326035011166402e-01	 1.087629427230786e+01
 1.631209847256555e+00	 6.706815792066391e-01	 1.082757802600002e+01
 1.618545551193824e+00	 7.084218792418324e-01	 1.077560564893998e+01
 1.605032269764788e+00	 7.457956734213033e-01	 1.072022541978304e+01
 1.590662893481110e+00	 7.827743007438482e-01	 1.066121571539157e+01
 1.710953808416969e+00	 4.019341741579514e-01	 1.109329856492273e+01
 1.703878856642000e+00	 4.417678701064068e-01	 1.106560808555998e+01
 1.696029719062592e+00	 4.814319901362581e-01	 1.103427977819823e+01
 1.687391723537195e+00	 5.208987201019111e-01	 1.099949548985150e+01
 1.677951090440714e+00	 5.601398833766248e-01	 1.096139272334401e+01
 1.667694995839533e+00	 5.991270047707271e-01	 1.092005929513054e+01
 1.656611633067583e+00	 6.378313778929233e-01	 1.087552816470266e+01
 1.644690272292521e+00	 6.762241357145047e-01	 1.082777252776739e+01
 1.631921317657670e+00	 7.142763240612714e-01	 1.077670126942510e+01
 1.618296361585791e+00	 7.519589777238973e-01	 1.072215487585450e+01
 1.603808235835264e+00	 7.892431988448088e-01	 1.066390190326366e+01
 1.724977354564966e+00	 4.052285602575090e-01	 1.108758286194028e+01
 1.717844414133743e+00	 4.453887464195300e-01	 1.106107081372919e+01
 1.709930942413911e+00	 4.853779667621866e-01	 1.103087643614851e+01
 1.701222147006159e+00	 5.251681791659193e-01	 1.099718162190721e+01
 1.691704135342993e+00	 5.647309760590074e-01	 1.096012258411909e+01
 1.681363978381567e+00	 6.040376488596787e-01	 1.091978440024551e+01
 1.670189772684441e+00	 6.430592558895325e-01	 1.087619573494916e+01
 1.658170700473988e+00	 6.817666935161188e-01	 1.082932383633523e+01
 1.645297087242689e+00	 7.201307702472223e-01	 1.077906990414940e+01
 1.631560456501998e+00	 7.581222834650542e-01	 1.072526493078646e+01
 1.616953581256991e+00	 7.957120984556170e-01	 1.066766611616597e+01
 1.739000905620783e+00	 4.085229475102455e-01	 1.108366654986724e+01
 1.731809976513040e+00	 4.490096240001489e-01	 1.105825220412096e+01
 1.723832170630307e+00	 4.893239447694294e-01	 1.102911683126275e+01
 1.715052575315472e+00	 5.294376397244838e-01	 1.099644023285632e+01
 1.705457185058600e+00	 5.693220703485321e-01	 1.096035522001229e+01
 1.695032965707572e+00	 6.089482946676218e-01	 1.092094206472225e+01
 1.683767917053543e+00	 6.482871357161656e-01	 1.087822313847832e+01
 1.671651133373571e+00	 6.873092532578903e-01	 1.083215783471112e+01
 1.658672861509265e+00	 7.259852184824843e-01	 1.078263787568739e+01
 1.644824556060741e+00	 7.642855913636147e-01	 1.072948310676323e+01
 1.630098931279753e+00	 8.021810003307787e-01	 1.067243788101152e+01
 1.753024463220587e+00	 4.118173363003946e-01	 1.108149134562044e+01
 1.745775545409268e+00	 4.526305032705572e-01	 1.105709065741541e+01
 1.737733405333627e+00	 4.932699246181824e-01	 1.102893642208323e+01
 1.728883010078692e+00	 5.337071022755192e-01	 1.099720426791911e+01
 1.719210241192034e+00	 5.739131667806220e-01	 1.096202154610451e+01
 1.708701959412214e+00	 6.138589427672492e-01	 1.092346171031938e+01
 1.697346067758932e+00	 6.535150179825200e-01	 1.088153889304259e+01
 1.685131572563887e+00	 6.928518155862283e-01	 1.083620277689958e+01
 1.672048642017779e+00	 7.318396694498565e-01	 1.078733386350481e+01
 1.658088661809354e+00	 7.704489021384190e-01	 1.073473924443730e+01
 1.643244287437012e+00	 8.086499052247982e-01	 1.067814897900005e+01
 1.767048029000547e+00	 4.151117270121904e-01	 1.108100081589485e+01
 1.759741122451803e+00	 4.562513846530477e-01	 1.105752652932429e+01
 1.751634648145715e+00	 4.972159067686412e-01	 1.103027271555441e+01
 1.742713452909377e+00	 5.379765673169402e-01	 1.099940880047001e+01
 1.732963305347800e+00	 5.785042658906993e-01	 1.096505467003988e+01
 1.722370961090161e+00	 6.187695937312541e-01	 1.092727499872402e+01
 1.710924226384649e+00	 6.587429032982933e-01	 1.088607378497911e+01
 1.698612019617552e+00	 6.983943811475415e-01	 1.084138919382131e+01
 1.685424430328613e+00	 7.376941238321379e-01	 1.079308881043798e+01
 1.671352775295170e+00	 7.766122165083076e-01	 1.074096541093384e+01
 1.656389651262230e+00	 8.151188138921801e-01	 1.068473335616988e+01
 1.781071604596829e+00	 4.184061200298669e-01	 1.108214030433951e+01
 1.773706709270024e+00	 4.598722685699136e-01	 1.105950205362447e+01
 1.765535900688415e+00	 5.011618916810018e-01	 1.103306518638150e+01
 1.756543905421082e+00	 5.422460353466612e-01	 1.100299094825726e+01
 1.746716379130398e+00	 5.830953682141868e-01	 1.096938980571050e+01
 1.736039972336078e+00	 6.236802481323294e-01	 1.093231574337218e+01
 1.724502394514734e+00	 6.639707922731830e-01	 1.089176077990228e+01
 1.712092476107182e+00	 7.039369505882386e-01	 1.084764980367822e+01
 1.698800228002152e+00	 7.435485823121282e-01	 1.079983583359253e+01
 1.684616898065521e+00	 7.827755351921205e-01	 1.074809581220233e+01
 1.669535024288868e+00	 8.215877270874299e-01	 1.069212703817648e+01
 1.795095191645604e+00	 4.217005157376583e-01	 1.108485686214763e+01
 1.787672307493307e+00	 4.634931554434489e-01	 1.106296126880000e+01
 1.779437164583574e+00	 5.051078798154593e-01	 1.103725520016999e+01
 1.770374369227367e+00	 5.465155068625966e-01	 1.100788979355075e+01
 1.760469464144329e+00	 5.876864742865074e-01	 1.097496419098785e+01
 1.749708994744631e+00	 6.285909065431676e-01	 1.093851982540344e+01
 1.738080573733230e+00	 6.691986855168867e-01	 1.089853493758369e+01
 1.725572943605393e+00	 7.094795245547292e-01	 1.085491942652095e+01
 1.712176036598775e+00	 7.494030455726258e-01	 1.080751013941944e+01
 1.697881031667741e+00	 7.889388589086984e-01	 1.075606670947773e+01
 1.682680408050388e+00	 8.280566455650521e-01	 1.070026804906682e+01
 1.809118791783039e+00	 4.249949145197988e-01	 1.108909918187586e+01
 1.801637918751031e+00	 4.671140456959464e-01	 1.106784994809692e+01
 1.793338441453034e+00	 5.090538716322103e-01	 1.104278594014093e+01
 1.784204845941787e+00	 5.507849823626610e-01	 1.101404630700458e+01
 1.774222561994096e+00	 5.922775846430840e-01	 1.098171700928172e+01
 1.763378029910488e+00	 6.335015695364624e-01	 1.094582511352560e+01
 1.751658765624176e+00	 6.744265836391019e-01	 1.090633333079176e+01
 1.739053423684801e+00	 7.150221036934215e-01	 1.086313490279090e+01
 1.725551857678869e+00	 7.552575142964307e-01	 1.081604894274211e+01
 1.711145177649163e+00	 7.951021883768816e-01	 1.076481633962790e+01
 1.695825804080252e+00	 8.345255700795510e-01	 1.070909633383240e+01
 1.823142406645302e+00	 4.282893167605222e-01	 1.109481753431870e+01
 1.815603544672573e+00	 4.707349397496997e-01	 1.107411553280693e+01
 1.807239732918643e+00	 5.129998675914498e-01	 1.104960233722908e+01
 1.798035337177901e+00	 5.550544623447690e-01	 1.102140327503452e+01
 1.787975674284199e+00	 5.968686998193390e-01	 1.098958931472003e+01
 1.777047079428317e+00	 6.384122376849063e-01	 1.095417138757873e+01
 1.765236971771615e+00	 6.796544872495263e-01	 1.091509496787828e+01
 1.752533917918022e+00	 7.205646886507250e-01	 1.087223501562262e+01
 1.738927692802811e+00	 7.611119891663414e-01	 1.082539138952130e+01
 1.724409337557121e+00	 8.012655243155106e-01	 1.077428483917808e+01
 1.708971213911921e+00	 8.409945013854322e-01	 1.071855368453739e+01
 1.577517552661069e+00	 7.763054033982315e-01	 1.065968037384504e+01
 1.562411034908616e+00	 8.125607776635853e-01	 1.059431656622970e+01
 1.546445124723613e+00	 8.483678438587413e-01	 1.052162191192022e+01
 1.529616701598890e+00	 8.836988399894217e-01	 1.044144516613741e+01
 1.511924025818336e+00	 9.185263933820198e-01	 1.035362310174130e+01
 1.493366767095691e+00	 9.528236030216212e-01	 1.025798117134604e+01
 1.473946027928508e+00	 9.865641215718935e-01	 1.015433439877083e+01
 1.453664361413024e+00	 1.019722236591529e+00	 1.004248850159484e+01
 1.432525783302651e+00	 1.052272950456313e+00	 9.922241241883617e+00
 1.410535778132862e+00	 1.084192058495051e+00	 9.793383997213311e+00
 1.387701299278052e+00	 1.115456224851666e+00	 9.655703539067101e+00
 1.590662893481110e+00	 7.827743007438482e-01	 1.066121571539157e+01
 1.575430494197757e+00	 8.193317884469776e-01	 1.059672570394998e+01
 1.559331541226210e+00	 8.554372323608842e-01	 1.052498971862648e+01
 1.542362888056345e+00	 8.910626391525762e-01	 1.044583875992993e+01
 1.524522780475129e+00	 9.261804080539138e-01	 1.035909353707545e+01
 1.505810885444059e+00	 9.607634138857474e-01	 1.026456535348033e+01
 1.486228314647727e+00	 9.947850897612733e-01	 1.016205720588154e+01
 1.465777642457148e+00	 1.028219508979247e+00	 1.005136509493908e+01
 1.444462918088727e+00	 1.061041465612036e+00	 9.932279540674202e+00
 1.422289671780186e+00	 1.093226553292651e+00	 9.804587291433101e+00
 1.399264914847900e+00	 1.124751241708993e+00	 9.668073210396816e+00
 1.603808235835264e+00	 7.892431988448088e-01	 1.066390190326366e+01
 1.588449955006404e+00	 8.261028000209216e-01	 1.060017628969934e+01
 1.572217959232855e+00	 8.625066216883476e-01	 1.052929230327712e+01
 1.555109076001540e+00	 8.984264391753550e-01	 1.045106362844114e+01
 1.537121536602497e+00	 9.338344236192464e-01	 1.036529539875199e+01
 1.518255005244984e+00	 9.687032256766132e-01	 1.027178530434899e+01
 1.498510602800634e+00	 1.003006058910155e+00	 1.017032489661671e+01
 1.477890924915242e+00	 1.036716782358670e+00	 1.006070108400798e+01
 1.456400054268210e+00	 1.069809981791085e+00	 9.942697808658671e+00
 1.434043566799518e+00	 1.102261049144593e+00	 9.816097889069020e+00
 1.410828531767526e+00	 1.134046259651052e+00	 9.680685009851700e+00
 1.616953581256991e+00	 7.957120984556170e-01	 1.066766611616597e+01
 1.601469418853318e+00	 8.328738131751846e-01	 1.060459805221155e+01
 1.585104380246781e+00	 8.695760126657284e-01	 1.053446203566286e+01
 1.567855266921338e+00	 9.057902409167240e-01	 1.045705486676655e+01
 1.549720295670102e+00	 9.414884409708640e-01	 1.037216658409480e+01
 1.530699127950089e+00	 9.766430393204287e-01	 1.027958179259352e+01
 1.510792893819975e+00	 1.011227029977573e+00	 1.017908117172117e+01
 1.490004210200340e+00	 1.045214057721086e+00	 1.007044315370986e+01
 1.468337193233596e+00	 1.078578500016408e+00	 9.953445757874807e+00
 1.445797464561987e+00	 1.111295547104869e+00	 9.827868562850089e+00
 1.422392151385875e+00	 1.143341279762238e+00	 9.693494794763236e+00
 1.630098931279753e+00	 8.021810003307787e-01	 1.067243788101152e+01
 1.614488887257262e+00	 8.396448286995342e-01	 1.060992298614433e+01
 1.597990805771218e+00	 8.766454061176232e-01	 1.054043346628244e+01
 1.580601462302604e+00	 9.131540452356487e-01	 1.046374966278129e+01
 1.562319059147608e+00	 9.491424610016120e-01	 1.037964699280287e+01
 1.543143255010995e+00	 9.845828557434052e-01	 1.028789749660275e+01
 1.523075189138495e+00	 1.019448003922562e+00	 1.018827154710390e+01
 1.502117499725479e+00	 1.053711336057785e+00	 1.008053970785991e+01
 1.480274336377378e+00	 1.087347021310958e+00	 9.964474721629029e+00
 1.457551366438721e+00	 1.120330048227474e+00	 9.839853608057830e+00
 1.433955775051891e+00	 1.152636303126949e+00	 9.706459845532271e+00
 1.643244287437012e+00	 8.086499052247982e-01	 1.067814897900005e+01
 1.627508361736999e+00	 8.464158473837371e-01	 1.061608526144969e+01
 1.610877237309396e+00	 8.837148028686295e-01	 1.054714323912224e+01
 1.593347663632206e+00	 9.205178529910945e-01	 1.047108721343746e+01
 1.574917828504675e+00	 9.567964846043375e-01	 1.038767844686459e+01
 1.555587387879325e+00	 9.925226758717542e-01	 1.029667692813302e+01
 1.535357490188940e+00	 1.027668981704154e+00	 1.019784328124218e+01
 1.514230794903695e+00	 1.062208618360056e+00	 1.009094080043539e+01
 1.492211485092054e+00	 1.096115546697684e+00	 9.975737589657911e+00
 1.469305273800852e+00	 1.129364553566402e+00	 9.852008781637211e+00
 1.445519404114519e+00	 1.161931330829578e+00	 9.719538808719999e+00
 1.656389651262230e+00	 8.151188138921801e-01	 1.068473335616988e+01
 1.640527843811289e+00	 8.531868700175608e-01	 1.062302113706083e+01
 1.623763676364548e+00	 8.907842037433427e-01	 1.055453000859007e+01
 1.606093872397005e+00	 9.278816650420267e-01	 1.047900864504825e+01
 1.587516605210965e+00	 9.644505126718853e-01	 1.039620461428641e+01
 1.568031528006701e+00	 1.000462500631687e+00	 1.030586635956610e+01
 1.547639798404058e+00	 1.035889964281385e+00	 1.020774530604353e+01
 1.526344097148023e+00	 1.070705905619187e+00	 1.010159807010522e+01
 1.504148640770117e+00	 1.104884077199536e+00	 9.987188746377971e+00
 1.481059188019506e+00	 1.138399064175646e+00	 9.864291244207683e+00
 1.457083039922703e+00	 1.171226363954524e+00	 9.732691642849503e+00
 1.669535024288868e+00	 8.215877270874299e-01	 1.069212703817648e+01
 1.653547334998897e+00	 8.599578973907720e-01	 1.063066887865784e+01
 1.636650124439903e+00	 8.978536095663603e-01	 1.056253436037428e+01
 1.618840090083870e+00	 9.352454822474111e-01	 1.048745693733895e+01
 1.600115390736142e+00	 9.721045460971018e-01	 1.040517093642574e+01
 1.580475676844747e+00	 1.008402330949414e+00	 1.031541375460471e+01
 1.559922115216593e+00	 1.044110952613289e+00	 1.021792816097468e+01
 1.538457407871499e+00	 1.079203198826468e+00	 1.011246467785324e+01
 1.516085804804064e+00	 1.113652613839465e+00	 9.998784012053470e+00
 1.492813110465814e+00	 1.147433581109201e+00	 9.876659504814590e+00
 1.468646683825388e+00	 1.180521403586180e+00	 9.745879566768425e+00
 1.682680408050388e+00	 8.280566455650521e-01	 1.070026804906682e+01
 1.666566836818583e+00	 8.667289302931382e-01	 1.063896868028889e+01
 1.649536583038693e+00	 9.049230211622783e-01	 1.057109873601340e+01
 1.631586318179661e+00	 9.426093054662129e-01	 1.049637685105888e+01
 1.612714186549867e+00	 9.797585857728328e-01	 1.041452455873079e+01
 1.592919835845084e+00	 1.016342167751147e+00	 1.032526870221730e+01
 1.572204442059292e+00	 1.052331947658898e+00	 1.022834393027897e+01
 1.550570728487159e+00	 1.087700498973188e+00	 1.012349524752620e+01
 1.528022978586386e+00	 1.122421157640422e+00	 1.001048058672254e+01
 1.504567042510903e+00	 1.156468105421060e+00	 9.889073368270759e+00
 1.480210337171517e+00	 1.189816450808942e+00	 9.759065010432714e+00
 1.695825804080252e+00	 8.345255700795510e-01	 1.070909633383240e+01
 1.679586350789110e+00	 8.734999695144262e-01	 1.064786258963781e+01
 1.662423053664149e+00	 9.119924393556940e-01	 1.058016736097490e+01
 1.644332558171247e+00	 9.499731355573974e-01	 1.050571485896090e+01
 1.625312994121802e+00	 9.874126325919251e-01	 1.042421426470267e+01
 1.605364006459333e+00	 1.024282011963096e+00	 1.033538235365587e+01
 1.584486780364901e+00	 1.060552950377249e+00	 1.023894618311450e+01
 1.562684060408038e+00	 1.096197807050635e+00	 1.013464580914737e+01
 1.539960163509583e+00	 1.131189709625357e+00	 1.002223699673203e+01
 1.516320985525905e+00	 1.165502638165219e+00	 9.901493884948067e+00
 1.491774001310037e+00	 1.199111506707208e+00	 9.772211567980047e+00
 1.708971213911921e+00	 8.409945013854322e-01	 1.071855368453739e+01
 1.692605878429240e+00	 8.802710158444028e-01	 1.065729443674150e+01
 1.675309537819501e+00	 9.190618649712039e-01	 1.058968617605415e+01
 1.657078811545492e+00	 9.573369733799312e-01	 1.051541907996725e+01
 1.637911814921611e+00	 9.950666874472247e-01	 1.043419041290585e+01
 1.617808190139119e+00	 1.032221864511473e+00	 1.034570736238131e+01
 1.596769131566166e+00	 1.068773961727374e+00	 1.024968991645574e+01
 1.574797405047172e+00	 1.104695124050099e+00	 1.014587374484721e+01
 1.551897360966147e+00	 1.139958270817221e+00	 1.003401304374053e+01
 1.528074940881947e+00	 1.174537180395669e+00	 9.913883302886738e+00
 1.503337677589890e+00	 1.208406572365371e+00	 9.785283952969518e+00
 1.387701299278052e+00	 1.115456224851666e+00	 9.655703539067101e+00
 1.364030759277465e+00	 1.146043058270738e+00	 9.508223647824817e+00
 1.339534006818105e+00	 1.175931189999760e+00	 9.350155519687338e+00
 1.314222318998515e+00	 1.205100331942848e+00	 9.181608560669146e+00
 1.288108380333235e+00	 1.233531336090155e+00	 9.002750812441620e+00
 1.261206252148415e+00	 1.261206252148416e+00	 8.813808712440995e+00
 1.233531336090155e+00	 1.288108380333236e+00	 8.615066214293986e+00
 1.205100331942847e+00	 1.314222318998515e+00	 8.406863276076429e+00
 1.175931189999759e+00	 1.339534006818105e+00	 8.189593735715054e+00
 1.146043058270737e+00	 1.364030759277465e+00	 7.963702604230260e+00
 1.115456224851666e+00	 1.387701299278052e+00	 7.729682818172465e+00
 1.399264914847900e+00	 1.124751241708993e+00	 9.668073210396816e+00
 1.375397129932205e+00	 1.155592953020909e+00	 9.521840818018100e+00
 1.350696247788508e+00	 1.185730140411611e+00	 9.365167258363453e+00
 1.325173639486599e+00	 1.215142346725971e+00	 9.198140469550101e+00
 1.298842095240169e+00	 1.243810264395152e+00	 9.020905864681154e+00
 1.271715793547383e+00	 1.271715793547383e+00	 8.833666254549494e+00
 1.243810264395151e+00	 1.298842095240169e+00	 8.636681143263266e+00
 1.215142346725971e+00	 1.325173639486600e+00	 8.430265401846253e+00
 1.185730140411611e+00	 1.350696247788508e+00	 8.214787336455815e+00
 1.155592953020908e+00	 1.375397129932205e+00	 7.990666179106709e+00
 1.124751241708993e+00	 1.399264914847900e+00	 7.758369039365291e+00
 1.410828531767526e+00	 1.134046259651052e+00	 9.680685009851700e+00
 1.386763501913673e+00	 1.165142848885558e+00	 9.535636632139912e+00
 1.361858490061780e+00	 1.195529091967020e+00	 9.380290346487424e+00
 1.336124961252898e+00	 1.225184362681042e+00	 9.214713851688661e+00
 1.309575811399881e+00	 1.254089193899776e+00	 9.039031196244842e+00
 1.282225336172927e+00	 1.282225336172928e+00	 8.853422853679795e+00
 1.254089193899775e+00	 1.309575811399881e+00	 8.658125183012459e+00
 1.225184362681042e+00	 1.336124961252899e+00	 8.453429277127508e+00
 1.195529091967019e+00	 1.361858490061780e+00	 8.239679213175148e+00
 1.165142848885558e+00	 1.386763501913674e+00	 8.017269730234190e+00
 1.134046259651052e+00	 1.410828531767526e+00	 7.786643369970266e+00
 1.422392151385875e+00	 1.143341279762238e+00	 9.693494794763236e+00
 1.398129876547819e+00	 1.174692746978819e+00	 9.549570114339380e+00
 1.373020734940072e+00	 1.205328045809172e+00	 9.395487107840488e+00
 1.347076285574974e+00	 1.235226380979596e+00	 9.231294441258820e+00
 1.320309530064563e+00	 1.264368125803190e+00	 9.057096039590437e+00
 1.292734881251103e+00	 1.292734881251103e+00	 8.873051304935839e+00
 1.264368125803190e+00	 1.320309530064563e+00	 8.679374731632139e+00
 1.235226380979596e+00	 1.347076285574974e+00	 8.476334918993961e+00
 1.205328045809172e+00	 1.373020734940072e+00	 8.264252993435230e+00
 1.174692746978818e+00	 1.398129876547820e+00	 8.043500462706010e+00
 1.143341279762238e+00	 1.422392151385875e+00	 7.814496535394825e+00
 1.433955775051891e+00	 1.152636303126949e+00	 9.706459845532271e+00
 1.409496255160591e+00	 1.184242648414825e+00	 9.563601609703548e+00
 1.384182983725537e+00	 1.215127003081255e+00	 9.410721080729115e+00
 1.358027613730387e+00	 1.245268402793169e+00	 9.247849076977136e+00
 1.331043252486407e+00	 1.274647061304560e+00	 9.075070618902735e+00
 1.303244430007965e+00	 1.303244430007966e+00	 8.892525280258869e+00
 1.274647061304560e+00	 1.331043252486408e+00	 8.700406947860641e+00
 1.245268402793168e+00	 1.358027613730388e+00	 8.498962988462537e+00
 1.215127003081255e+00	 1.384182983725537e+00	 8.288492832311400e+00
 1.184242648414824e+00	 1.409496255160592e+00	 8.069345993761837e+00
 1.152636303126949e+00	 1.433955775051891e+00	 7.841919559671236e+00
 1.445519404114519e+00	 1.161931330829578e+00	 9.719538808719999e+00
 1.420862639077938e+00	 1.193792554307709e+00	 9.577692731434230e+00
 1.395345237720325e+00	 1.224925964926454e+00	 9.425956969419168e+00
 1.368978946996702e+00	 1.255310429293297e+00	 9.264345657936868e+00
 1.341776979917606e+00	 1.284926001603051e+00	 9.092926110441134e+00
 1.313753983669569e+00	 1.313753983669570e+00	 8.911819293371185e+00
 1.284926001603050e+00	 1.341776979917607e+00	 8.721199720675987e+00
 1.255310429293297e+00	 1.368978946996703e+00	 8.521294764753927e+00
 1.224925964926455e+00	 1.395345237720325e+00	 8.312383391310458e+00
 1.193792554307708e+00	 1.420862639077939e+00	 8.094794336320870e+00
 1.161931330829579e+00	 1.445519404114519e+00	 7.868903753530749e+00
 1.457083039922703e+00	 1.171226363954524e+00	 9.732691642849503e+00
 1.432229029625809e+00	 1.203342465771605e+00	 9.591806310540949e+00
 1.406507498226588e+00	 1.234724932487957e+00	 9.441160597883384e+00
 1.379930286651479e+00	 1.265352461651516e+00	 9.280753101545958e+00
 1.352510713610353e+00	 1.295204947897826e+00	 9.110634604775811e+00
 1.324263543461969e+00	 1.324263543461970e+00	 8.930908666389747e+00
 1.295204947897825e+00	 1.352510713610354e+00	 8.741731640336257e+00
 1.265352461651516e+00	 1.379930286651479e+00	 8.543312120779451e+00
 1.234724932487956e+00	 1.406507498226588e+00	 8.335909818293020e+00
 1.203342465771604e+00	 1.432229029625810e+00	 8.119833883299432e+00
 1.171226363954523e+00	 1.457083039922703e+00	 7.895440703045741e+00
 1.468646683825388e+00	 1.180521403586180e+00	 9.745879566768425e+00
 1.443595428130154e+00	 1.212892383920647e+00	 9.605906347911095e+00
 1.417669766546477e+00	 1.244523906908949e+00	 9.456298865734260e+00
 1.390881633972279e+00	 1.275394501039364e+00	 9.297041303452376e+00
 1.363244454816839e+00	 1.305483901388050e+00	 9.128169070808514e+00
 1.334773110611222e+00	 1.334773110611222e+00	 8.949769498017462e+00
 1.305483901388049e+00	 1.363244454816840e+00	 8.761981970788476e+00
 1.275394501039363e+00	 1.390881633972279e+00	 8.564997499785960e+00
 1.244523906908948e+00	 1.417669766546476e+00	 8.359057728344840e+00
 1.212892383920646e+00	 1.443595428130154e+00	 8.144453392669533e+00
 1.180521403586179e+00	 1.468646683825388e+00	 7.921522258808683e+00
 1.480210337171517e+00	 1.189816450808942e+00	 9.759065010432714e+00
 1.454961835916920e+00	 1.222442309868967e+00	 9.619957968627311e+00
 1.428832043982143e+00	 1.254322889332617e+00	 9.471339706223343e+00
 1.401832990236666e+00	 1.285436548628375e+00	 9.313181099348679e+00
 1.373978204789257e+00	 1.315762863272888e+00	 9.145503321480261e+00
 1.345282686343380e+00	 1.345282686343381e+00	 8.968378633225756e+00
 1.315762863272887e+00	 1.373978204789257e+00	 8.781930623371146e+00
 1.285436548628374e+00	 1.401832990236666e+00	 8.586333893096045e+00
 1.254322889332617e+00	 1.428832043982143e+00	 8.381813185544893e+00
 1.222442309868966e+00	 1.454961835916921e+00	 8.168641973218204e+00
 1.189816450808942e+00	 1.480210337171518e+00	 7.947140525618515e+00
 1.491774001310037e+00	 1.199111506707208e+00	 9.772211567980047e+00
 1.466328254312057e+00	 1.231992244730699e+00	 9.633927378410146e+00
 1.439994331835738e+00	 1.264121880902148e+00	 9.486252046194309e+00
 1.412784356722201e+00	 1.295478605590086e+00	 9.329144228553385e+00
 1.384711964779798e+00	 1.326041834751505e+00	 9.162611981074384e+00
 1.355792271884501e+00	 1.355792271884501e+00	 8.986713634347790e+00
 1.326041834751504e+00	 1.384711964779799e+00	 8.801558131740205e+00
 1.295478605590085e+00	 1.412784356722201e+00	 8.607304818883836e+00
 1.264121880902147e+00	 1.439994331835739e+00	 8.404162685581674e+00
 1.231992244730698e+00	 1.466328254312057e+00	 8.192389070969181e+00
 1.199111506707207e+00	 1.491774001310037e+00	 7.972287852646785e+00
 1.503337677589890e+00	 1.208406572365371e+00	 9.785283952969518e+00
 1.477694684641512e+00	 1.241542189619976e+00	 9.647781822071533e+00
 1.451156631409414e+00	 1.273920882760728e+00	 9.501005767884921e+00
 1.423735734706447e+00	 1.305520673096032e+00	 9.344903299273593e+00
 1.395445736040656e+00	 1.336320817023064e+00	 9.179470454029074e+00
 1.366301868460640e+00	 1.366301868460640e+00	 9.004752753506017e+00
 1.336320817023063e+00	 1.395445736040656e+00	 8.820845627952590e+00
 1.305520673096032e+00	 1.423735734706447e+00	 8.627894301930480e+00
 1.273920882760727e+00	 1.451156631409415e+00	 8.426093139172245e+00
 1.241542189619975e+00	 1.477694684641513e+00	 8.215684456231646e+00
 1.208406572365371e+00	 1.503337677589890e+00	 7.996956824057934e+00
 1.115456224851666e+00	 1.387701299278052e+00	 7.729682818172465e+00
 1.084192058495050e+00	 1.410535778132863e+00	 7.487010022128505e+00
 1.052272950456312e+00	 1.432525783302652e+00	 7.235553852078933e+00
 1.019722236591529e+00	 1.453664361413024e+00	 6.976497687615618e+00
 9.865641215718933e-01	 1.473946027928509e+00	 6.711103753151553e+00
 9.528236030216204e-01	 1.493366767095692e+00	 6.440701632166721e+00
 9.185263933820192e-01	 1.511924025818336e+00	 6.166676309380984e+00
 8.836988399894211e-01	 1.529616701598891e+00	 5.890455928111498e+00
 8.483678438587410e-01	 1.546445124723613e+00	 5.613499447804113e+00
 8.125607776635847e-01	 1.562411034908617e+00	 5.337284380420755e+00
 7.763054033982313e-01	 1.577517552661069e+00	 5.063294774415718e+00
 1.124751241708993e+00	 1.399264914847900e+00	 7.758369039365291e+00
 1.093226553292651e+00	 1.422289671780187e+00	 7.517434885167590e+00
 1.061041465612035e+00	 1.444462918088727e+00	 7.267792045285262e+00
 1.028219508979247e+00	 1.465777642457148e+00	 7.010589615109615e+00
 9.947850897612730e-01	 1.486228314647728e+00	 6.747053656096637e+00
 9.607634138857468e-01	 1.505810885444059e+00	 6.478476031803378e+00
 9.261804080539133e-01	 1.524522780475130e+00	 6.206202782569226e+00
 8.910626391525756e-01	 1.542362888056346e+00	 5.931622220986021e+00
 8.554372323608835e-01	 1.559331541226210e+00	 5.656152928125458e+00
 8.193317884469768e-01	 1.575430494197757e+00	 5.381231824384523e+00
 7.827743007438484e-01	 1.590662893481111e+00	 5.108302479159398e+00
 1.134046259651052e+00	 1.410828531767526e+00	 7.786643369970266e+00
 1.102261049144592e+00	 1.434043566799519e+00	 7.547399220770188e+00
 1.069809981791084e+00	 1.456400054268210e+00	 7.299520903260749e+00
 1.036716782358669e+00	 1.477890924915242e+00	 7.044124140581568e+00
 1.003006058910155e+00	 1.498510602800635e+00	 6.782399706531892e+00
 9.687032256766124e-01	 1.518255005244984e+00	 6.515602577853784e+00
 9.338344236192458e-01	 1.537121536602498e+00	 6.245040636546086e+00
 8.984264391753546e-01	 1.555109076001540e+00	 5.972063099282044e+00
 8.625066216883469e-01	 1.572217959232856e+00	 5.698048848904568e+00
 8.261028000209207e-01	 1.588449955006404e+00	 5.424394837052118e+00
 7.892431988448086e-01	 1.603808235835264e+00	 5.152504717601153e+00
 1.143341279762238e+00	 1.422392151385875e+00	 7.814496535394825e+00
 1.111295547104868e+00	 1.445797464561987e+00	 7.576897241389090e+00
 1.078578500016408e+00	 1.468337193233596e+00	 7.330738120846135e+00
 1.045214057721085e+00	 1.490004210200339e+00	 7.077102419614572e+00
 1.011227029977573e+00	 1.510792893819975e+00	 6.817146482276388e+00
 9.766430393204278e-01	 1.530699127950088e+00	 6.552089215251389e+00
 9.414884409708635e-01	 1.549720295670103e+00	 6.283201111981271e+00
 9.057902409167238e-01	 1.567855266921338e+00	 6.011793012235131e+00
 8.695760126657278e-01	 1.585104380246782e+00	 5.739204765542305e+00
 8.328738131751842e-01	 1.601469418853318e+00	 5.466793963009350e+00
 7.957120984556170e-01	 1.616953581256991e+00	 5.195924892680917e+00
 1.152636303126949e+00	 1.433955775051891e+00	 7.841919559671236e+00
 1.120330048227473e+00	 1.457551366438722e+00	 7.605923345652542e+00
 1.087347021310957e+00	 1.480274336377378e+00	 7.361441466756737e+00
 1.053711336057784e+00	 1.502117499725479e+00	 7.109525570062025e+00
 1.019448003922562e+00	 1.523075189138495e+00	 6.851298413055491e+00
 9.845828557434048e-01	 1.543143255010995e+00	 6.587943632248122e+00
 9.491424610016117e-01	 1.562319059147609e+00	 6.320695086575641e+00
 9.131540452356479e-01	 1.580601462302605e+00	 6.050825942634555e+00
 8.766454061176228e-01	 1.597990805771218e+00	 5.779637666816944e+00
 8.396448286995335e-01	 1.614488887257262e+00	 5.508449083814934e+00
 8.021810003307788e-01	 1.630098931279753e+00	 5.238585652125581e+00
 1.161931330829579e+00	 1.445519404114519e+00	 7.868903753530749e+00
 1.129364553566401e+00	 1.469305273800852e+00	 7.634472110936180e+00
 1.096115546697683e+00	 1.492211485092054e+00	 7.391628780646350e+00
 1.062208618360055e+00	 1.514230794903695e+00	 7.141394673575393e+00
 1.027668981704154e+00	 1.535357490188941e+00	 6.884859786442653e+00
 9.925226758717538e-01	 1.555587387879325e+00	 6.623173270699001e+00
 9.567964846043366e-01	 1.574917828504675e+00	 6.357533089596380e+00
 9.205178529910941e-01	 1.593347663632206e+00	 6.089175425496606e+00
 8.837148028686287e-01	 1.610877237309397e+00	 5.819363997563590e+00
 8.464158473837365e-01	 1.627508361736999e+00	 5.549379444534799e+00
 8.086499052247982e-01	 1.643244287437012e+00	 5.280508918669138e+00
 1.171226363954523e+00	 1.457083039922703e+00	 7.895440703045741e+00
 1.138399064175645e+00	 1.481059188019506e+00	 7.662538286288930e+00
 1.104884077199535e+00	 1.504148640770118e+00	 7.421297970311047e+00
 1.070705905619187e+00	 1.526344097148023e+00	 7.172710777059139e+00
 1.035889964281384e+00	 1.547639798404058e+00	 6.917834753518239e+00
 1.000462500631686e+00	 1.568031528006702e+00	 6.657785335856962e+00
 9.644505126718846e-01	 1.587516605210966e+00	 6.393725315720183e+00
 9.278816650420263e-01	 1.606093872397006e+00	 6.126854565848753e+00
 8.907842037433419e-01	 1.623763676364548e+00	 5.858399680273405e+00
 8.531868700175602e-01	 1.640527843811290e+00	 5.589603679012430e+00
 8.151188138921801e-01	 1.656389651262230e+00	 5.321715918833577e+00
 1.180521403586179e+00	 1.468646683825388e+00	 7.921522258808683e+00
 1.147433581109200e+00	 1.492813110465814e+00	 7.690116785693186e+00
 1.113652613839465e+00	 1.516085804804064e+00	 7.450447009025041e+00
 1.079203198826468e+00	 1.538457407871499e+00	 7.203474894056967e+00
 1.044110952613288e+00	 1.559922115216593e+00	 6.950227334260944e+00
 1.008402330949413e+00	 1.580475676844747e+00	 6.691786805704826e+00
 9.721045460971011e-01	 1.600115390736142e+00	 6.429281638222133e+00
 9.352454822474106e-01	 1.618840090083870e+00	 6.163876055673418e+00
 8.978536095663595e-01	 1.636650124439903e+00	 5.896760135672048e+00
 8.599578973907713e-01	 1.653547334998898e+00	 5.629139833945276e+00
 8.215877270874299e-01	 1.669535024288868e+00	 5.362227210349729e+00
 1.189816450808942e+00	 1.480210337171518e+00	 7.947140525618515e+00
 1.156468105421060e+00	 1.504567042510904e+00	 7.717202681641058e+00
 1.122421157640422e+00	 1.528022978586387e+00	 7.479073933001537e+00
 1.087700498973187e+00	 1.550570728487159e+00	 7.233688006073173e+00
 1.052331947658898e+00	 1.572204442059292e+00	 6.982041422686495e+00
 1.016342167751146e+00	 1.592919835845083e+00	 6.725184439849890e+00
 9.797585857728321e-01	 1.612714186549867e+00	 6.464211621546285e+00
 9.426093054662122e-01	 1.631586318179662e+00	 6.200252190057212e+00
 9.049230211622777e-01	 1.649536583038693e+00	 5.934460302333522e+00
 8.667289302931375e-01	 1.666566836818584e+00	 5.668005391832351e+00
 8.280566455650521e-01	 1.682680408050388e+00	 5.402062708292537e+00
 1.199111506707207e+00	 1.491774001310037e+00	 7.972287852646785e+00
 1.165502638165218e+00	 1.516320985525906e+00	 7.743791199009553e+00
 1.131189709625356e+00	 1.539960163509583e+00	 7.507176838971936e+00
 1.096197807050634e+00	 1.562684060408039e+00	 7.263351063832568e+00
 1.060552950377248e+00	 1.584486780364901e+00	 7.013280791747357e+00
 1.024282011963095e+00	 1.605364006459333e+00	 6.757984788004683e+00
 9.874126325919247e-01	 1.625312994121803e+00	 6.498524533291679e+00
 9.499731355573968e-01	 1.644332558171248e+00	 6.235994882589303e+00
 9.119924393556934e-01	 1.662423053664148e+00	 5.971514655381615e+00
 8.734999695144252e-01	 1.679586350789110e+00	 5.706217292854196e+00
 8.345255700795510e-01	 1.695825804080252e+00	 5.441241710000570e+00
 1.208406572365371e+00	 1.503337677589890e+00	 7.996956824057934e+00
 1.174537180395669e+00	 1.528074940881948e+00	 7.769877709218441e+00
 1.139958270817220e+00	 1.551897360966147e+00	 7.534753881876575e+00
 1.104695124050098e+00	 1.574797405047172e+00	 7.292464988482207e+00
 1.068773961727374e+00	 1.596769131566166e+00	 7.043949098006325e+00
 1.032221864511472e+00	 1.617808190139118e+00	 6.790194198076337e+00
 9.950666874472238e-01	 1.637911814921611e+00	 6.532229355644786e+00
 9.573369733799303e-01	 1.657078811545492e+00	 6.271115680048513e+00
 9.190618649712032e-01	 1.675309537819501e+00	 6.007937224327881e+00
 8.802710158444024e-01	 1.692605878429240e+00	 5.743791955743025e+00
 8.409945013854322e-01	 1.708971213911920e+00	 5.479782918845187e+00
 7.763054033982313e-01	 1.577517552661069e+00	 5.063294774415717e+00
 7.396323698384324e-01	 1.591768179491655e+00	 4.791287552700195e+00
 7.025674351061071e-01	 1.605169786290770e+00	 4.521308527279448e+00
 6.651390233461130e-01	 1.617729423793473e+00	 4.255340473078397e+00
 6.273756249509856e-01	 1.629455361754438e+00	 3.995366944236806e+00
 5.893057194590278e-01	 1.640357038728711e+00	 3.743356774805677e+00
 5.509577006915954e-01	 1.650445008658129e+00	 3.501249561767124e+00
 5.123598044659060e-01	 1.659730884666089e+00	 3.270942259119036e+00
 4.735400391875621e-01	 1.668227280467808e+00	 3.054276983656527e+00
 4.345261195934739e-01	 1.675947749803660e+00	 2.853030105432068e+00
 3.953454038814352e-01	 1.682906724299760e+00	 2.668902669323943e+00
 7.827743007438484e-01	 1.590662893481111e+00	 5.108302479159398e+00
 7.457956734213037e-01	 1.605032269764788e+00	 4.837180213566003e+00
 7.084218792418324e-01	 1.618545551193824e+00	 4.567994861344497e+00
 6.706815792066391e-01	 1.631209847256555e+00	 4.302729233603543e+00
 6.326035011166404e-01	 1.643033496618929e+00	 4.043369411816379e+00
 5.942163618280748e-01	 1.654026016486803e+00	 3.791889015779410e+00
 5.555487917659618e-01	 1.664198048747260e+00	 3.550234444861429e+00
 5.166292620345450e-01	 1.673561303295024e+00	 3.320311225447870e+00
 4.774860144314489e-01	 1.682128498954505e+00	 3.103971569104880e+00
 4.381469946384860e-01	 1.689913302408431e+00	 2.903003218012033e+00
 3.986397888273381e-01	 1.696930265540623e+00	 2.719119627290020e+00
 7.892431988448086e-01	 1.603808235835264e+00	 5.152504717601154e+00
 7.519589777238975e-01	 1.618296361585791e+00	 4.882257467365342e+00
 7.142763240612719e-01	 1.631921317657671e+00	 4.613869428096182e+00
 6.762241357145049e-01	 1.644690272292521e+00	 4.349319652830765e+00
 6.378313778929237e-01	 1.656611633067583e+00	 4.090592778601122e+00
 5.991270047707274e-01	 1.667694995839532e+00	 3.839663105066938e+00
 5.601398833766249e-01	 1.677951090440714e+00	 3.598479636304114e+00
 5.208987201019113e-01	 1.687391723537195e+00	 3.368952222314819e+00
 4.814319901362585e-01	 1.696029719062592e+00	 3.152938908239946e+00
 4.417678701064070e-01	 1.703878856641999e+00	 2.952234571022452e+00
 4.019341741579514e-01	 1.710953808416969e+00	 2.768560896049530e+00
 7.957120984556170e-01	 1.616953581256991e+00	 5.195924892680919e+00
 7.581222834650545e-01	 1.631560456501998e+00	 4.926544918631240e+00
 7.201307702472227e-01	 1.645297087242690e+00	 4.658958926294474e+00
 6.817666935161193e-01	 1.658170700473988e+00	 4.395138518190015e+00
 6.430592558895327e-01	 1.670189772684440e+00	 4.137063019839969e+00
 6.040376488596789e-01	 1.681363978381566e+00	 3.886703411676191e+00
 5.647309760590077e-01	 1.691704135342993e+00	 3.646007212895772e+00
 5.251681791659194e-01	 1.701222147006158e+00	 3.416884456996371e+00
 4.853779667621870e-01	 1.709930942413911e+00	 3.201194869998588e+00
 4.453887464195303e-01	 1.717844414133743e+00	 3.000736333942603e+00
 4.052285602575090e-01	 1.724977354564966e+00	 2.817234690796021e+00
 8.021810003307788e-01	 1.630098931279753e+00	 5.238585652125581e+00
 7.642855913636152e-01	 1.644824556060741e+00	 4.970067345680967e+00
 7.259852184824847e-01	 1.658672861509265e+00	 4.703289193199982e+00
 6.873092532578907e-01	 1.671651133373571e+00	 4.440211752765530e+00
 6.482871357161660e-01	 1.683767917053543e+00	 4.182805272651256e+00
 6.089482946676221e-01	 1.695032965707572e+00	 3.933033518318447e+00
 5.693220703485324e-01	 1.705457185058600e+00	 3.692838539108504e+00
 5.294376397244840e-01	 1.715052575315472e+00	 3.464126517040085e+00
 4.893239447694297e-01	 1.723832170630307e+00	 3.248754811321974e+00
 4.490096240001493e-01	 1.731809976513040e+00	 3.048520283650606e+00
 4.085229475102454e-01	 1.739000905620783e+00	 2.865148961751474e+00
 8.086499052247982e-01	 1.643244287437012e+00	 5.280508918669138e+00
 7.704489021384195e-01	 1.658088661809354e+00	 5.012848733674568e+00
 7.318396694498567e-01	 1.672048642017778e+00	 4.746885239042301e+00
 6.928518155862287e-01	 1.685131572563887e+00	 4.484564449876272e+00
 6.535150179825203e-01	 1.697346067758932e+00	 4.227843869553025e+00
 6.138589427672496e-01	 1.708701959412215e+00	 3.978676252864004e+00
 5.739131667806222e-01	 1.719210241192035e+00	 3.738994295581706e+00
 5.337071022755197e-01	 1.728883010078692e+00	 3.510696395055738e+00
 4.932699246181828e-01	 1.737733405333628e+00	 3.295633597636920e+00
 4.526305032705575e-01	 1.745775545409268e+00	 3.095597820129712e+00
 4.118173363003946e-01	 1.753024463220587e+00	 2.912311404768575e+00
 8.151188138921801e-01	 1.656389651262230e+00	 5.321715918833576e+00
 7.766122165083079e-01	 1.671352775295169e+00	 5.054912306099059e+00
 7.376941238321383e-01	 1.685424430328613e+00	 4.789771279846597e+00
 6.983943811475419e-01	 1.698612019617553e+00	 4.528220906009361e+00
 6.587429032982937e-01	 1.710924226384649e+00	 4.272202370396254e+00
 6.187695937312543e-01	 1.722370961090161e+00	 4.023653718299524e+00
 5.785042658906995e-01	 1.732963305347800e+00	 3.784494506260643e+00
 5.379765673169407e-01	 1.742713452909376e+00	 3.556611512325546e+00
 4.972159067686416e-01	 1.751634648145715e+00	 3.341845622362235e+00
 4.562513846530479e-01	 1.759741122451803e+00	 3.141979981426343e+00
 4.151117270121904e-01	 1.767048029000546e+00	 2.958729471427752e+00
 8.215877270874299e-01	 1.669535024288868e+00	 5.362227210349729e+00
 7.827755351921207e-01	 1.684616898065521e+00	 5.096280554764840e+00
 7.435485823121284e-01	 1.698800228002152e+00	 4.831970768709082e+00
 7.039369505882389e-01	 1.712092476107183e+00	 4.571204652197381e+00
 6.639707922731833e-01	 1.724502394514735e+00	 4.315903592789370e+00
 6.236802481323296e-01	 1.736039972336078e+00	 4.067987321269731e+00
 5.830953682141872e-01	 1.746716379130398e+00	 3.829358564252499e+00
 5.422460353466614e-01	 1.756543905421082e+00	 3.601888741298978e+00
 5.011618916810020e-01	 1.765535900688415e+00	 3.387404825492891e+00
 4.598722685699141e-01	 1.773706709270024e+00	 3.187677457901570e+00
 4.184061200298669e-01	 1.781071604596829e+00	 3.004410378657275e+00
 8.280566455650521e-01	 1.682680408050388e+00	 5.402062708292537e+00
 7.889388589086984e-01	 1.697881031667741e+00	 5.136975268395840e+00
 7.494030455726264e-01	 1.712176036598776e+00	 4.873506425606299e+00
 7.094795245547295e-01	 1.725572943605394e+00	 4.613538483924524e+00
 6.691986855168869e-01	 1.738080573733230e+00	 4.358969641096024e+00
 6.285909065431682e-01	 1.749708994744632e+00	 4.111697799281202e+00
 5.876864742865079e-01	 1.760469464144329e+00	 3.873605256470342e+00
 5.465155068625969e-01	 1.770374369227367e+00	 3.646544427032620e+00
 5.051078798154598e-01	 1.779437164583574e+00	 3.432324711313090e+00
 4.634931554434493e-01	 1.787672307493307e+00	 3.232700605814082e+00
 4.217005157376584e-01	 1.795095191645604e+00	 3.049361117902199e+00
 8.345255700795510e-01	 1.695825804080252e+00	 5.441241710000570e+00
 7.951021883768820e-01	 1.711145177649163e+00	 5.177017559889459e+00
 7.552575142964307e-01	 1.725551857678868e+00	 4.914400265817392e+00
 7.150221036934218e-01	 1.739053423684801e+00	 4.655244489641462e+00
 6.744265836391021e-01	 1.751658765624176e+00	 4.401421934084095e+00
 6.335015695364629e-01	 1.763378029910489e+00	 4.154805246640342e+00
 5.922775846430843e-01	 1.774222561994095e+00	 3.917252787130647e+00
 5.507849823626615e-01	 1.784204845941787e+00	 3.690594407632869e+00
 5.090538716322107e-01	 1.793338441453034e+00	 3.476618365285319e+00
 4.671140456959468e-01	 1.801637918751031e+00	 3.277059460271597e+00
 4.249949145197989e-01	 1.809118791783039e+00	 3.093588463866832e+00
 8.409945013854322e-01	 1.708971213911920e+00	 5.479782918845189e+00
 8.012655243155109e-01	 1.724409337557121e+00	 5.216427892318341e+00
 7.611119891663416e-01	 1.738927692802811e+00	 4.954673627034579e+00
 7.205646886507253e-01	 1.752533917918023e+00	 4.696344077964031e+00
 6.796544872495266e-01	 1.765236971771615e+00	 4.443281231298150e+00
 6.384122376849063e-01	 1.777047079428316e+00	 4.197329139194206e+00
 5.968686998193392e-01	 1.787975674284199e+00	 3.960318800165985e+00
 5.550544623447694e-01	 1.798035337177901e+00	 3.734054033754805e+00
 5.129998675914502e-01	 1.807239732918643e+00	 3.520298470159619e+00
 4.707349397497000e-01	 1.815603544672573e+00	 3.320763747584164e+00
 4.282893167605222e-01	 1.823142406645302e+00	 3.137098982853747e+00
 3.953454038814352e-01	 1.682906724299760e+00	 2.668902669323943e+00
 3.560220848416451e-01	 1.689119859320706e+00	 2.501441809978515e+00
 3.165854117949879e-01	 1.694602641381182e+00	 2.349782782162437e+00
 2.770613785882645e-01	 1.699371756916888e+00	 2.214838483629167e+00
 2.374754056886408e-01	 1.703444513999047e+00	 2.097426831589063e+00
 1.978522965532911e-01	 1.706838777961158e+00	 1.998272646454077e+00
 1.582161980975129e-01	 1.709572907634753e+00	 1.918010180813587e+00
 1.185905652642063e-01	 1.711665692492552e+00	 1.857186207488881e+00
 7.899812966952448e-02	 1.713136290974417e+00	 1.816263581909635e+00
 3.946087227343351e-02	 1.714004170247544e+00	 1.795625196742183e+00
 0.000000000000000e+00	 1.714289047627778e+00	 1.795578250443574e+00
 3.986397888273381e-01	 1.696930265540623e+00	 2.719119627290020e+00
 3.589887913849910e-01	 1.703195174170719e+00	 2.551826755023545e+00
 3.192234953648744e-01	 1.708723643861422e+00	 2.400254215912451e+00
 2.793701112187151e-01	 1.713532500095309e+00	 2.265380742236449e+00
 2.394542712406707e-01	 1.717639195170523e+00	 2.148088957225426e+00
 1.995009855734057e-01	 1.721061743291110e+00	 2.049166837504091e+00
 1.595346023467897e-01	 1.723818656271432e+00	 1.969309872117945e+00
 1.195787719521360e-01	 1.725928880155542e+00	 1.909123831683369e+00
 7.965641542658011e-02	 1.727411733029215e+00	 1.869128061885053e+00
 3.978969689590328e-02	 1.728286844278154e+00	 1.849759217614043e+00
 0.000000000000000e+00	 1.728574095521189e+00	 1.851375357273905e+00
 4.019341741579514e-01	 1.710953808416969e+00	 2.768560896049530e+00
 3.619554982746881e-01	 1.717270490662191e+00	 2.601384001743356e+00
 3.218615792426328e-01	 1.722844647988404e+00	 2.449841427759124e+00
 2.816788441184740e-01	 1.727693244925074e+00	 2.314992089544135e+00
 2.414331370233987e-01	 1.731833877997279e+00	 2.197797734176521e+00
 2.011496747855978e-01	 1.735284710279628e+00	 2.099123853506709e+00
 1.608530067495474e-01	 1.738064406569329e+00	 2.019741356659576e+00
 1.205669787550088e-01	 1.740192069481785e+00	 1.960328915502869e+00
 8.031470126013159e-02	 1.741687176748694e+00	 1.921475896433473e+00
 4.011852155654447e-02	 1.742569519974292e+00	 1.903685793100647e+00
 0.000000000000000e+00	 1.742859145080407e+00	 1.907380077239250e+00
 4.052285602575090e-01	 1.724977354564966e+00	 2.817234690796021e+00
 3.649222058567783e-01	 1.731345810437356e+00	 2.650119168110556e+00
 3.244996637360026e-01	 1.736965655409712e+00	 2.498550063119372e+00
 2.839875775568942e-01	 1.741853993058424e+00	 2.363680412901138e+00
 2.434120032677271e-01	 1.746028564135532e+00	 2.246565100690506e+00
 2.027983643822757e-01	 1.749507680586244e+00	 2.148161093670321e+00
 1.621714114596788e-01	 1.752310160190644e+00	 2.069328514120892e+00
 1.215551857881991e-01	 1.754455262135521e+00	 2.010832457957913e+00
 8.097298724705299e-02	 1.755962623798535e+00	 1.973345473295533e+00
 4.044734629376683e-02	 1.756852199002485e+00	 1.957450611944091e+00
 0.000000000000000e+00	 1.757144197972236e+00	 1.963644968463504e+00
 4.085229475102454e-01	 1.739000905620783e+00	 2.865148961751475e+00
 3.678889144773020e-01	 1.745421135138444e+00	 2.698037690996336e+00
 3.271377491527241e-01	 1.751086667772930e+00	 2.546385585520501e+00
 2.862963118033286e-01	 1.756014746147594e+00	 2.411453345538529e+00
 2.453908702045579e-01	 1.760223255241496e+00	 2.294402610296594e+00
 2.044470545558480e-01	 1.763730655870484e+00	 2.196295396365572e+00
 1.634898166310764e-01	 1.766555918797576e+00	 2.118094454294847e+00
 1.225433931670815e-01	 1.768718459780995e+00	 2.060664458451776e+00
 8.163127346421838e-02	 1.770238075844416e+00	 2.024773942125642e+00
 4.077617114598011e-02	 1.771134883029259e+00	 2.011097889068559e+00
 0.000000000000000e+00	 1.771429255863481e+00	 2.020220893350150e+00
 4.118173363003946e-01	 1.753024463220587e+00	 2.912311404768574e+00
 3.708556244823005e-01	 1.759496466407687e+00	 2.745144833419380e+00
 3.297758358005368e-01	 1.765207686725638e+00	 2.593353283882339e+00
 2.886050471271304e-01	 1.770175505844825e+00	 2.458318276741748e+00
 2.473697380647935e-01	 1.774417952971386e+00	 2.341321447202193e+00
 2.060957454987230e-01	 1.777953637791879e+00	 2.243543061566664e+00
 1.648082224176328e-01	 1.780801684052323e+00	 2.166061547886212e+00
 1.235316010070308e-01	 1.782981664082448e+00	 2.109853956766003e+00
 8.228955998850176e-02	 1.784513534552017e+00	 2.075797264010290e+00
 4.110499615159411e-02	 1.785417573721143e+00	 2.064670424518699e+00
 0.000000000000000e+00	 1.785714320420949e+00	 2.077157086384566e+00
 4.151117270121904e-01	 1.767048029000546e+00	 2.958729471427752e+00
 3.738223362178146e-01	 1.773571805887316e+00	 2.791445691449545e+00
 3.324139239871811e-01	 1.779328713915424e+00	 2.639458279452437e+00
 2.909137837976528e-01	 1.784336273802357e+00	 2.504282361538796e+00
 2.493486070793357e-01	 1.788612658981417e+00	 2.387332440956621e+00
 2.077444374033094e-01	 1.792176628009957e+00	 2.289919872223524e+00
 1.661266289732406e-01	 1.795047457617085e+00	 2.213251455845416e+00
 1.245198094234214e-01	 1.797244876704125e+00	 2.158429071141630e+00
 8.294784689677716e-02	 1.798789001587017e+00	 2.126450258627726e+00
 4.143382134901862e-02	 1.799700272744663e+00	 2.118209659590967e+00
 0.000000000000000e+00	 1.799999393311444e+00	 2.134501218706870e+00
 4.184061200298669e-01	 1.781071604596829e+00	 3.004410378657275e+00
 3.767890500298854e-01	 1.787647155219566e+00	 2.836945200785242e+00
 3.350520140203967e-01	 1.793449750989868e+00	 2.684705532413760e+00
 2.932225220842488e-01	 1.798497051672427e+00	 2.549352529930499e+00
 2.513274774790871e-01	 1.802807374927803e+00	 2.432446080421933e+00
 2.093931304620154e-01	 1.806399628184248e+00	 2.335441114624327e+00
 1.674450364517922e-01	 1.809293241154060e+00	 2.259685157316555e+00
 1.255080185316279e-01	 1.811508099310267e+00	 2.206417034560860e+00
 8.360613426591867e-02	 1.813064478615097e+00	 2.176766649179485e+00
 4.176264677666337e-02	 1.813982981766347e+00	 2.171755730312346e+00
 0.000000000000000e+00	 1.814284476201773e+00	 2.192299459633750e+00
 4.217005157376584e-01	 1.795095191645604e+00	 3.049361117902198e+00
 3.797557662645539e-01	 1.801722516046665e+00	 2.881648143022727e+00
 3.376901062079234e-01	 1.807570799596554e+00	 2.729099848182242e+00
 2.955312622562715e-01	 1.812657841107276e+00	 2.593535495687827e+00
 2.533063494949497e-01	 1.817002102466761e+00	 2.476672527088754e+00
 2.110418248672496e-01	 1.820622639974282e+00	 2.380121597803293e+00
 1.687634450071802e-01	 1.823539036325449e+00	 2.305382976274826e+00
 1.264962284470250e-01	 1.825771333565119e+00	 2.253844229327563e+00
 8.426442217280029e-02	 1.827339967301935e+00	 2.226779105214828e+00
 4.209147247293815e-02	 1.828265702452721e+00	 2.225347518412006e+00
 0.000000000000000e+00	 1.828569570758740e+00	 2.250596535295435e+00
 4.249949145197989e-01	 1.809118791783039e+00	 3.093588463866832e+00
 3.827224852678611e-01	 1.815797890010847e+00	 2.925559151633371e+00
 3.403282008575016e-01	 1.821691861383066e+00	 2.772645883411951e+00
 2.978400045830739e-01	 1.826818643759138e+00	 2.636837764740346e+00
 2.552852233578258e-01	 1.831196843254504e+00	 2.520021627772629e+00
 2.126905208114204e-01	 1.834845665039586e+00	 2.423975672045394e+00
 1.700818547932973e-01	 1.837784844793450e+00	 2.350364606925142e+00
 1.274844392849872e-01	 1.840034581132922e+00	 2.300736220039237e+00
 8.492271069429605e-02	 1.841615469313210e+00	 2.276519283463523e+00
 4.242029847625274e-02	 1.842548436470314e+00	 2.279022699921129e+00
 0.000000000000000e+00	 1.842854678649152e+00	 2.309435784545140e+00
 4.282893167605222e-01	 1.823142406645302e+00	 3.137098982853747e+00
 3.856892073858478e-01	 1.829873278754343e+00	 2.968682717665148e+00
 3.429662982768709e-01	 1.835812937996986e+00	 2.815348151722272e+00
 3.001487493340093e-01	 1.840979461280257e+00	 2.679265643177005e+00
 2.572640992986176e-01	 1.845391598947249e+00	 2.562502926724225e+00
 2.143392184869364e-01	 1.849068705039692e+00	 2.467017246537078e+00
 1.714002659640361e-01	 1.852030668220261e+00	 2.394649137927592e+00
 1.284726511608891e-01	 1.854297843677920e+00	 2.347117785036812e+00
 8.558099990728006e-02	 1.855890986314603e+00	 2.326017866783023e+00
 4.274912482501691e-02	 1.856831185485652e+00	 2.332817791529858e+00
 0.000000000000000e+00	 1.857139801539814e+00	 2.368859212287230e+00
 1.857139801539814e+00	 0.000000000000000e+00	 1.125142068095474e+01
 1.856831185485652e+00	 4.274912482501749e-02	 1.124553127040111e+01
 1.855890986314602e+00	 8.558099990728060e-02	 1.123625132049189e+01
 1.854297843677920e+00	 1.284726511608895e-01	 1.122398367476004e+01
 1.852030668220261e+00	 1.714002659640365e-01	 1.120916231560736e+01
 1.849068705039691e+00	 2.143392184869368e-01	 1.119225256906786e+01
 1.845391598947249e+00	 2.572640992986178e-01	 1.117375100963021e+01
 1.840979461280257e+00	 3.001487493340095e-01	 1.115418503319458e+01
 1.835812937996986e+00	 3.429662982768709e-01	 1.113411206743509e+01
 1.829873278754343e+00	 3.856892073858478e-01	 1.111411839081392e+01
 1.823142406645302e+00	 4.282893167605222e-01	 1.109481753431870e+01
 1.871425938885499e+00	 0.000000000000000e+00	 1.125198119051692e+01
 1.871114948787420e+00	 4.307797452551081e-02	 1.124845930122145e+01
 1.870167517088809e+00	 8.623933586883083e-02	 1.124085912771163e+01
 1.868562119125425e+00	 1.294609332147644e-01	 1.122969981327305e+01
 1.866277503311067e+00	 1.727187707617287e-01	 1.121553277358989e+01
 1.863292755085735e+00	 2.159880332445210e-01	 1.119894089956330e+01
 1.859587362677221e+00	 2.592431157688597e-01	 1.118053735811544e+01
 1.855141284428371e+00	 3.024576580397680e-01	 1.116096396228489e+01
 1.849935017415582e+00	 3.456045830397631e-01	 1.114088908512291e+01
 1.843949667057868e+00	 3.886561401843552e-01	 1.112100509605471e+01
 1.837167017390747e+00	 4.315839529516940e-01	 1.110202530352120e+01
 1.885712081233184e+00	 0.000000000000000e+00	 1.125292317337674e+01
 1.885398717090345e+00	 4.340682434133453e-02	 1.125233151142101e+01
 1.884444052861604e+00	 8.689767206117580e-02	 1.124680591774099e+01
 1.882826399567176e+00	 1.304492156149813e-01	 1.123701473529513e+01
 1.880524343389939e+00	 1.740372760213404e-01	 1.122365678689561e+01
 1.877516810111782e+00	 2.176368485795780e-01	 1.120745891968142e+01
 1.873783131377193e+00	 2.612221329320474e-01	 1.118917301718767e+01
 1.869303112534495e+00	 3.047665675538066e-01	 1.116957245937010e+01
 1.864057101778160e+00	 3.482428687260726e-01	 1.114944801725793e+01
 1.858026060289259e+00	 3.916230740211588e-01	 1.112960317635934e+01
 1.851191633045813e+00	 4.348785902957209e-01	 1.111084889152586e+01
 1.899998216915481e+00	 0.000000000000000e+00	 1.125358591382510e+01
 1.899682478728979e+00	 4.373567400390595e-02	 1.125668773995291e+01
 1.898720581973453e+00	 8.755600794664044e-02	 1.125380793931858e+01
 1.897090673353649e+00	 1.314374975544066e-01	 1.124579571696539e+01
 1.894771176821610e+00	 1.753557806660619e-01	 1.123352607200587e+01
 1.891740858501185e+00	 2.192856631455580e-01	 1.121789503808250e+01
 1.887978893453634e+00	 2.632011491719851e-01	 1.119981423335913e+01
 1.883464934032833e+00	 3.070754759905426e-01	 1.118020471521679e+01
 1.878179179551402e+00	 3.508811531812545e-01	 1.115999014533762e+01
 1.872102446952540e+00	 3.945900064733498e-01	 1.114008928270920e+01
 1.865216242156835e+00	 4.381732261021032e-01	 1.112140783518040e+01
 1.914284334264999e+00	 0.000000000000000e+00	 1.125332841498451e+01
 1.913966222037872e+00	 4.406452324464238e-02	 1.126108155938568e+01
 1.912997092764816e+00	 8.821434298754971e-02	 1.126158990959456e+01
 1.911354928835323e+00	 1.324257782259066e-01	 1.125591399477631e+01
 1.909017991970809e+00	 1.766742836190831e-01	 1.124513259098156e+01
 1.905964888637292e+00	 2.209344755959106e-01	 1.123033502233739e+01
 1.902174637313011e+00	 2.651801628724775e-01	 1.121261258664783e+01
 1.897626737357590e+00	 3.093843814643931e-01	 1.119304912109389e+01
 1.892301239201991e+00	 3.535194342507644e-01	 1.117271073949967e+01
 1.886178815551731e+00	 3.975569351180192e-01	 1.115263478995986e+01
 1.879240833270147e+00	 4.414678576803407e-01	 1.113381810031006e+01
 1.928570421614352e+00	 0.000000000000000e+00	 1.125152866829738e+01
 1.928249935351575e+00	 4.439337179496115e-02	 1.126507976717238e+01
 1.927273573576156e+00	 8.887267664622857e-02	 1.126988470048203e+01
 1.925619154362675e+00	 1.334140568223477e-01	 1.126724461893941e+01
 1.923264777202266e+00	 1.779927838035942e-01	 1.125846854244262e+01
 1.920188888903455e+00	 2.225832845840858e-01	 1.124486209683584e+01
 1.916370351361791e+00	 2.671591724173291e-01	 1.122771516350568e+01
 1.911788510942970e+00	 3.116932820897748e-01	 1.120828848366182e+01
 1.906423269196610e+00	 3.561577097800575e-01	 1.118779928125132e+01
 1.900255154590854e+00	 4.005238575322578e-01	 1.116740599232979e+01
 1.893265394932085e+00	 4.447624823399337e-01	 1.114819221404125e+01
 1.942856467296148e+00	 0.000000000000000e+00	 1.124758295517064e+01
 1.942533607004642e+00	 4.472221938627953e-02	 1.126826189931346e+01
 1.941550012747933e+00	 8.953100838500189e-02	 1.127843303881455e+01
 1.939883338286183e+00	 1.344023325365960e-01	 1.127966631320555e+01
 1.937511520880712e+00	 1.793112801427852e-01	 1.127352635294463e+01
 1.934412847683026e+00	 2.242320887635338e-01	 1.126155703638500e+01
 1.930566024006441e+00	 2.691381761903444e-01	 1.124526472213447e+01
 1.925950243223175e+00	 3.140021759811051e-01	 1.122610023040252e+01
 1.920545258001943e+00	 3.587959776145891e-01	 1.120543967639455e+01
 1.914331452573932e+00	 4.034907712931571e-01	 1.118456429028386e+01
 1.907289915688981e+00	 4.480570973903820e-01	 1.116463939130039e+01
 1.957142459643000e+00	 0.000000000000000e+00	 1.124090517913696e+01
 1.956817225331620e+00	 4.505106575001486e-02	 1.127021976527149e+01
 1.955826398620612e+00	 9.018933766619465e-02	 1.128698321960650e+01
 1.954147468956323e+00	 1.353906045615179e-01	 1.129306134081079e+01
 1.951758211370878e+00	 1.806297715598461e-01	 1.129029866873220e+01
 1.948636753359356e+00	 2.258808867877044e-01	 1.128049825571772e+01
 1.944761643653427e+00	 2.711171725753280e-01	 1.126539985057790e+01
 1.940111922632410e+00	 3.163110612528009e-01	 1.124665660607251e+01
 1.934667194084671e+00	 3.614342355998145e-01	 1.122581045864665e+01
 1.928407698004987e+00	 4.064576739778080e-01	 1.120426636925035e+01
 1.921314384087171e+00	 4.513517001411860e-01	 1.118326565578485e+01
 1.971428386987518e+00	 0.000000000000000e+00	 1.123092622698840e+01
 1.971100778667064e+00	 4.537991061758444e-02	 1.127055700306243e+01
 1.970102719534652e+00	 9.084766395213176e-02	 1.129529083175252e+01
 1.968411534723574e+00	 1.363788720899798e-01	 1.130731537623777e+01
 1.966004837037493e+00	 1.819482569779670e-01	 1.130877834785004e+01
 1.962860594315794e+00	 2.275296773100474e-01	 1.130176189511782e+01
 1.958957198709218e+00	 2.730961599560843e-01	 1.128825511795506e+01
 1.954273537604879e+00	 3.186199360192795e-01	 1.127012486063323e+01
 1.948789065911478e+00	 3.640724815811890e-01	 1.124908498442725e+01
 1.942483879388040e+00	 4.094245631633016e-01	 1.122666437058475e+01
 1.935338788672990e+00	 4.546462879018455e-01	 1.120417395568597e+01
 1.985714237662315e+00	 0.000000000000000e+00	 1.121709335742637e+01
 1.985384255345523e+00	 4.570875372040557e-02	 1.126888865350931e+01
 1.984378963830518e+00	 9.150598670513820e-02	 1.130311849554149e+01
 1.982675523938412e+00	 1.373671343148479e-01	 1.132231738250047e+01
 1.980251386245289e+00	 1.832667353203382e-01	 1.132895845259386e+01
 1.977084358935692e+00	 2.291784589840129e-01	 1.132542190235737e+01
 1.973152677580279e+00	 2.750751367164180e-01	 1.131396121918026e+01
 1.968435076574785e+00	 3.209287983949576e-01	 1.129666742908720e+01
 1.962910861949046e+00	 3.667107134041679e-01	 1.127543161925577e+01
 1.956559985227112e+00	 4.123914364267289e-01	 1.125190605516997e+01
 1.949363117992771e+00	 4.579408579818608e-01	 1.122746427442776e+01
 2.000000000000000e+00	 0.000000000000000e+00	 1.119886961585529e+01
 1.999667643701550e+00	 4.603759478989555e-02	 1.126484075270254e+01
 1.998655119848670e+00	 9.216430538753885e-02	 1.131023561139530e+01
 1.996939424951317e+00	 1.383553904289885e-01	 1.133795949367671e+01
 1.994497847358994e+00	 1.845852055101493e-01	 1.135083224228405e+01
 1.991308035602400e+00	 2.308272304630508e-01	 1.135155011112993e+01
 1.987348068673079e+00	 2.770541012401335e-01	 1.134264511349388e+01
 1.982596527976333e+00	 3.232376464942529e-01	 1.132644210362346e+01
 1.977032570664059e+00	 3.693489289142068e-01	 1.130501391617757e+01
 1.970636004026227e+00	 4.153582913451809e-01	 1.128013496002034e+01
 1.963387360592848e+00	 4.612354076907317e-01	 1.125323373666986e+01
 1.823142406645302e+00	 4.282893167605222e-01	 1.109481753431870e+01
 1.815603544672573e+00	 4.707349397496997e-01	 1.107411553280693e+01
 1.807239732918643e+00	 5.129998675914498e-01	 1.104960233722908e+01
 1.798035337177901e+00	 5.550544623447690e-01	 1.102140327503452e+01
 1.787975674284199e+00	 5.968686998193390e-01	 1.098958931472003e+01
 1.777047079428317e+00	 6.384122376849063e-01	 1.095417138757873e+01
 1.765236971771615e+00	 6.796544872495263e-01	 1.091509496787828e+01
 1.752533917918022e+00	 7.205646886507250e-01	 1.087223501562262e+01
 1.738927692802811e+00	 7.611119891663414e-01	 1.082539138952130e+01
 1.724409337557121e+00	 8.012655243155106e-01	 1.077428483917808e+01
 1.708971213911921e+00	 8.409945013854322e-01	 1.071855368453739e+01
 1.837167017390747e+00	 4.315839529516940e-01	 1.110202530352120e+01
 1.829570162359090e+00	 4.743560909394626e-01	 1.108179634454760e+01
 1.821142011580398e+00	 5.169461437735805e-01	 1.105777245752731e+01
 1.811866810582170e+00	 5.593242455217806e-01	 1.103005828023057e+01
 1.801729763247288e+00	 6.014601410312405e-01	 1.099870387705782e+01
 1.790717099649317e+00	 6.433232545618968e-01	 1.096369922888001e+01
 1.778816142170903e+00	 6.848827621168463e-01	 1.092496899338072e+01
 1.766015369464010e+00	 7.261076672119187e-01	 1.088236763856760e+01
 1.752304477807102e+00	 7.669668797889304e-01	 1.083567505526788e+01
 1.737674439414772e+00	 8.074292979405400e-01	 1.078459275549668e+01
 1.722117557260229e+00	 8.474638920795502e-01	 1.072874076231355e+01
 1.851191633045813e+00	 4.348785902957209e-01	 1.111084889152586e+01
 1.843536784934809e+00	 4.779772433962460e-01	 1.109099838161960e+01
 1.835044295108718e+00	 5.208924213364344e-01	 1.106739281498044e+01
 1.825698288828111e+00	 5.635940301926754e-01	 1.104010447159378e+01
 1.815483857024859e+00	 6.060515838495604e-01	 1.100915271185548e+01
 1.804387124655278e+00	 6.482342731571334e-01	 1.097449889376917e+01
 1.792395317323264e+00	 6.901110388134489e-01	 1.093604156745028e+01
 1.779496825728795e+00	 7.316506477125575e-01	 1.089361204394710e+01
 1.765681267493491e+00	 7.728217724601689e-01	 1.084697043799049e+01
 1.750939545915385e+00	 8.135930737223795e-01	 1.079580228489228e+01
 1.735263905209901e+00	 8.539332850375116e-01	 1.073971583017955e+01
 1.865216242156835e+00	 4.381732261021032e-01	 1.112140783518040e+01
 1.857503400993457e+00	 4.815983941629300e-01	 1.110177210338524e+01
 1.848946572149907e+00	 5.248386970574064e-01	 1.107845405974214e+01
 1.839529760619886e+00	 5.678638128706813e-01	 1.105148234427737e+01
 1.829237944384306e+00	 6.106430245248657e-01	 1.102083616742218e+01
 1.818057143282288e+00	 6.531452894602179e-01	 1.098644090913887e+01
 1.805974486139023e+00	 6.953393130698571e-01	 1.094816399689848e+01
 1.792978275702542e+00	 7.371936256261624e-01	 1.090581114975736e+01
 1.779058050937662e+00	 7.786766623988440e-01	 1.085912307761179e+01
 1.764204646225886e+00	 8.197568466275468e-01	 1.080777272470768e+01
 1.748410247024885e+00	 8.604026749762184e-01	 1.075136314443076e+01
 1.879240833270147e+00	 4.414678576803407e-01	 1.113381810031006e+01
 1.871469999128758e+00	 4.852195402823947e-01	 1.111416646056541e+01
 1.862848831350267e+00	 5.287849677138905e-01	 1.109094711912075e+01
 1.853361214661657e+00	 5.721335900690259e-01	 1.106413416821753e+01
 1.842992014093027e+00	 6.152344593077239e-01	 1.103365756569263e+01
 1.831727144366439e+00	 6.580562994607521e-01	 1.099939966605094e+01
 1.819553637528504e+00	 7.005675806165934e-01	 1.096119202668482e+01
 1.806459708375416e+00	 7.427365964262533e-01	 1.091881256267621e+01
 1.792434817215295e+00	 7.845315448237445e-01	 1.087198312446466e+01
 1.777469729513201e+00	 8.259206116225587e-01	 1.082036757190881e+01
 1.761556571969129e+00	 8.668720566125698e-01	 1.076357041574167e+01
 1.893265394932085e+00	 4.447624823399337e-01	 1.114819221404125e+01
 1.885436567934439e+00	 4.888406787975204e-01	 1.112822895116681e+01
 1.876751061356101e+00	 5.327312300832813e-01	 1.110486318735877e+01
 1.867192639657584e+00	 5.764033583009371e-01	 1.107800392244123e+01
 1.856746054918420e+00	 6.198258844487023e-01	 1.104752309213006e+01
 1.845397116743821e+00	 6.629672991483387e-01	 1.101325327665293e+01
 1.833132760402026e+00	 7.057958371841795e-01	 1.097498567557015e+01
 1.819941112737581e+00	 7.482795555863506e-01	 1.093246840443085e+01
 1.805811555402071e+00	 7.903864149536577e-01	 1.088540516855064e+01
 1.790734784944258e+00	 8.320843636739326e-01	 1.083345436754815e+01
 1.774702869306581e+00	 8.733414246634675e-01	 1.077622868122130e+01
 1.907289915688981e+00	 4.480570973903820e-01	 1.116463939130039e+01
 1.899403096004228e+00	 4.924618067511872e-01	 1.114400567394720e+01
 1.890653250813712e+00	 5.366774809429736e-01	 1.112019371586227e+01
 1.881024024311834e+00	 5.806731140796429e-01	 1.109303723226553e+01
 1.870500055627877e+00	 6.244172961983684e-01	 1.106234169047557e+01
 1.859067049250523e+00	 6.678782845125785e-01	 1.102788343739289e+01
 1.846711843669914e+00	 7.110240785031383e-01	 1.098940907900423e+01
 1.833422477779206e+00	 7.538224985799745e-01	 1.094663514580870e+01
 1.819188254573673e+00	 7.962412680073720e-01	 1.089924807631420e+01
 1.803999801685983e+00	 8.382480977481868e-01	 1.084690454807455e+01
 1.787849128301191e+00	 8.798107738458119e-01	 1.078923218210065e+01
 1.921314384087171e+00	 4.513517001411860e-01	 1.118326565578485e+01
 1.913369571931849e+00	 4.960829211862750e-01	 1.116154137954424e+01
 1.904555388369401e+00	 5.406237170703617e-01	 1.113693040385732e+01
 1.894855357328564e+00	 5.849428539183713e-01	 1.110918130924117e+01
 1.884254004988798e+00	 6.290086908072895e-01	 1.107802496209671e+01
 1.872736930722637e+00	 6.727892515430747e-01	 1.104317529821154e+01
 1.860290876242493e+00	 7.162523003039925e-01	 1.100433033887893e+01
 1.846903792490453e+00	 7.593654208806461e-01	 1.096117344792169e+01
 1.832564903805781e+00	 8.020960992036745e-01	 1.091337483454973e+01
 1.817264768905303e+00	 8.444118088118374e-01	 1.086059330314061e+01
 1.800995338216907e+00	 8.862800988765028e-01	 1.080247824676500e+01
 1.935338788672990e+00	 4.546462879018455e-01	 1.120417395568597e+01
 1.927335984311028e+00	 4.997040191456642e-01	 1.118087951938636e+01
 1.918457462669473e+00	 5.445699352428400e-01	 1.115506518945158e+01
 1.908686627411940e+00	 5.892125743303499e-01	 1.112638489370158e+01
 1.898007891768577e+00	 6.336000645260323e-01	 1.109448706970257e+01
 1.886406749996252e+00	 6.777001962294286e-01	 1.105901733740911e+01
 1.873869847030084e+00	 7.214804983172646e-01	 1.101962137979949e+01
 1.860385045861490e+00	 7.649083179618846e-01	 1.097594801035691e+01
 1.845941492174076e+00	 8.079509037613540e-01	 1.092765240108016e+01
 1.830529675769143e+00	 8.505754918314030e-01	 1.087439943957866e+01
 1.814141488317677e+00	 8.927493944724415e-01	 1.081586717886046e+01
 1.949363117992771e+00	 4.579408579818608e-01	 1.122746427442776e+01
 1.941302321735491e+00	 5.033250976722348e-01	 1.120206229249679e+01
 1.932359462360228e+00	 5.485161322378032e-01	 1.117459024108099e+01
 1.922517823266122e+00	 5.934822718288065e-01	 1.114459819978624e+01
 1.911761704734611e+00	 6.381914136051650e-01	 1.111164464520585e+01
 1.900076495907460e+00	 6.826111145612423e-01	 1.107530124190168e+01
 1.887448744943010e+00	 7.267086682734761e-01	 1.103515781154620e+01
 1.873866226882480e+00	 7.704511852972111e-01	 1.099082742586742e+01
 1.859318008754241e+00	 8.138056768991979e-01	 1.094195156186698e+01
 1.843794511444432e+00	 8.567391417734002e-01	 1.088820525123540e+01
 1.827287567867451e+00	 8.992186553505289e-01	 1.082930215021993e+01
 1.963387360592848e+00	 4.612354076907317e-01	 1.125323373666986e+01
 1.955268572798965e+00	 5.069461538088669e-01	 1.122513069029621e+01
 1.946261376087971e+00	 5.524623048326455e-01	 1.119549794932209e+01
 1.936348933595271e+00	 5.977519429269690e-01	 1.116377286281518e+01
 1.925515432654296e+00	 6.427827342952540e-01	 1.112941670152521e+01
 1.913746157292350e+00	 6.875220025281178e-01	 1.109192179259843e+01
 1.901027558891593e+00	 7.319368059031507e-01	 1.105081879741778e+01
 1.887347324543591e+00	 7.759940183601458e-01	 1.100568404127715e+01
 1.872694442621957e+00	 8.196604138359943e-01	 1.095614679423081e+01
 1.857059265098094e+00	 8.629027536043464e-01	 1.090189639437300e+01
 1.840433566130177e+00	 9.056878762276653e-01	 1.084268909836800e+01
 1.708971213911921e+00	 8.409945013854322e-01	 1.071855368453739e+01
 1.692605878429240e+00	 8.802710158444028e-01	 1.065729443674150e+01
 1.675309537819501e+00	 9.190618649712039e-01	 1.058968617605415e+01
 1.657078811545492e+00	 9.573369733799312e-01	 1.051541907996725e+01
 1.637911814921611e+00	 9.950666874472247e-01	 1.043419041290585e+01
 1.617808190139119e+00	 1.032221864511473e+00	 1.034570736238131e+01
 1.596769131566166e+00	 1.068773961727374e+00	 1.024968991645574e+01
 1.574797405047172e+00	 1.104695124050099e+00	 1.014587374484721e+01
 1.551897360966147e+00	 1.139958270817221e+00	 1.003401304374053e+01
 1.528074940881947e+00	 1.174537180395669e+00	 9.913883302886738e+00
 1.503337677589890e+00	 1.208406572365371e+00	 9.785283952969518e+00
 1.722117557260229e+00	 8.474638920795502e-01	 1.072874076231355e+01
 1.705626330646489e+00	 8.870425430173238e-01	 1.066734544441051e+01
 1.688196937103913e+00	 9.261317926190925e-01	 1.059971889281816e+01
 1.669825970090350e+00	 9.647013341425724e-01	 1.052553964369807e+01
 1.650511530422169e+00	 1.002721285852451e+00	 1.044449497995265e+01
 1.630253257538177e+00	 1.040162280905763e+00	 1.035628393870919e+01
 1.609052354994264e+00	 1.076995556889963e+00	 1.026062034275419e+01
 1.586911609911249e+00	 1.113193044483923e+00	 1.015723581503257e+01
 1.563835406138682e+00	 1.148727454705887e+00	 1.004588273330129e+01
 1.539829730941159e+00	 1.183572364211581e+00	 9.926337080871283e+00
 1.514902175060389e+00	 1.217702298110054e+00	 9.798401149173534e+00
 1.735263905209901e+00	 8.539332850375116e-01	 1.073971583017955e+01
 1.718646787421024e+00	 8.938140725599182e-01	 1.067807278566843e+01
 1.701084340899041e+00	 9.332017227411900e-01	 1.061032103669652e+01
 1.682573133096854e+00	 9.720656974825775e-01	 1.053613180607598e+01
 1.663111250332794e+00	 1.010375886936732e+00	 1.045518577640875e+01
 1.642698329293209e+00	 1.048102700079252e+00	 1.036717619008268e+01
 1.621335582721734e+00	 1.085217154930274e+00	 1.027181196532634e+01
 1.599025819015587e+00	 1.121690967892286e+00	 1.016882078575791e+01
 1.575773455489876e+00	 1.157496641664130e+00	 1.005795211894683e+01
 1.551584525114940e+00	 1.192607551190254e+00	 9.938980118502979e+00
 1.526466676578907e+00	 1.226998027108758e+00	 9.811706364203932e+00
 1.748410247024885e+00	 8.604026749762184e-01	 1.075136314443076e+01
 1.731667238119636e+00	 9.005855989422995e-01	 1.068938954989000e+01
 1.713971738680369e+00	 9.402716495638588e-01	 1.062143098014606e+01
 1.695320290155044e+00	 9.794300573857910e-01	 1.054715556709534e+01
 1.675710964363958e+00	 1.018030484448819e+00	 1.046624068772597e+01
 1.655143395241000e+00	 1.056043115547207e+00	 1.037837607925256e+01
 1.633618804717539e+00	 1.093438749133876e+00	 1.028326697173609e+01
 1.611140022467182e+00	 1.130188887335035e+00	 1.018063719545614e+01
 1.587711499270573e+00	 1.166265824530218e+00	 1.007023221836369e+01
 1.563339313803775e+00	 1.201642733952688e+00	 9.951822067918606e+00
 1.538031172701298e+00	 1.236293751769691e+00	 9.825204091597545e+00
 1.761556571969129e+00	 8.668720566125698e-01	 1.076357041574167e+01
 1.744687672109121e+00	 9.073571166345787e-01	 1.070121141990731e+01
 1.726859119923383e+00	 9.473415673134628e-01	 1.063298893413547e+01
 1.708067430854960e+00	 9.867944078380598e-01	 1.055857211946382e+01
 1.688310662226134e+00	 1.025685072137461e+00	 1.047763825801676e+01
 1.667588445218332e+00	 1.063983520824892e+00	 1.038987580730687e+01
 1.645902010950641e+00	 1.101660332786341e+00	 1.029498748261960e+01
 1.623254210373027e+00	 1.138686795872015e+00	 1.019269332606685e+01
 1.599649527731620e+00	 1.175034996142415e+00	 1.008273371880392e+01
 1.575094087408144e+00	 1.210677905119885e+00	 9.964872291692563e+00
 1.549595653983415e+00	 1.245589464501062e+00	 9.838898689452346e+00
 1.774702869306581e+00	 8.733414246634675e-01	 1.077622868122130e+01
 1.757708078756272e+00	 9.141286201068685e-01	 1.071345657594182e+01
 1.739746474103564e+00	 9.544114702163639e-01	 1.064493688002817e+01
 1.720814544786643e+00	 9.941587428252298e-01	 1.057034380439389e+01
 1.700910333629795e+00	 1.033339643751411e+00	 1.048935766561650e+01
 1.680033469061990e+00	 1.071923909427571e+00	 1.040166780479307e+01
 1.658185191390005e+00	 1.109881899173237e+00	 1.030697555410736e+01
 1.635368372840116e+00	 1.147184686563073e+00	 1.020499721247443e+01
 1.611587531123863e+00	 1.183804149338989e+00	 1.009546698925838e+01
 1.586848836328530e+00	 1.219713057312842e+00	 9.978139873493724e+00
 1.561160110981111e+00	 1.254885157711081e+00	 9.852794385373707e+00
 1.787849128301191e+00	 8.798107738458119e-01	 1.078923218210065e+01
 1.770728447427880e+00	 9.209001038292814e-01	 1.072604560376511e+01
 1.752633790696398e+00	 9.614813524989267e-01	 1.065721850446354e+01
 1.733561621540131e+00	 1.001523056333147e+00	 1.058243406934041e+01
 1.713509968285415e+00	 1.040994193039420e+00	 1.050137869972156e+01
 1.692478456608756e+00	 1.079864274870510e+00	 1.041374472323097e+01
 1.670468336004593e+00	 1.118103441580136e+00	 1.031923318013958e+01
 1.647482499975440e+00	 1.155682552468055e+00	 1.021755665153081e+01
 1.623525499698146e+00	 1.192573276958207e+00	 1.010844209209416e+01
 1.598603550965414e+00	 1.228748183152560e+00	 9.991633628273345e+00
 1.572724534250239e+00	 1.264180823807955e+00	 9.866895281203096e+00
 1.800995338216907e+00	 8.862800988765028e-01	 1.080247824676500e+01
 1.783748767490742e+00	 9.276715622719288e-01	 1.073890140687276e+01
 1.765521059177368e+00	 9.685512083875137e-01	 1.066977913708390e+01
 1.746308650705469e+00	 1.008887342347659e+00	 1.059480742758498e+01
 1.726109555903467e+00	 1.048648713750238e+00	 1.051368173804817e+01
 1.704923397695415e+00	 1.087804610668973e+00	 1.042609942699658e+01
 1.682751434763369e+00	 1.126324953292607e+00	 1.033176229468038e+01
 1.659596581885995e+00	 1.164180386646806e+00	 1.023037921068399e+01
 1.635463423705317e+00	 1.201342371838334e+00	 1.012166879418351e+01
 1.610358221719277e+00	 1.237783275260038e+00	 1.000536211200764e+01
 1.584288914346650e+00	 1.273476455199893e+00	 9.881205357540038e+00
 1.814141488317677e+00	 8.927493944724415e-01	 1.081586717886046e+01
 1.796769028311650e+00	 9.344429899049237e-01	 1.075194912246850e+01
 1.778408269021958e+00	 9.756210321084881e-01	 1.068256569096286e+01
 1.759055621872693e+00	 1.016251594854609e+00	 1.060742941957355e+01
 1.738709086194424e+00	 1.056303199632616e+00	 1.052624772546062e+01
 1.717368282158750e+00	 1.095744910338224e+00	 1.043872498555801e+01
 1.695034477635295e+00	 1.134546427596219e+00	 1.034456477383600e+01
 1.671710608678773e+00	 1.172678182159173e+00	 1.024347223623216e+01
 1.647401293396220e+00	 1.210111426817637e+00	 1.013515657754995e+01
 1.622112838990602e+00	 1.246818326256276e+00	 1.001933363101790e+01
 1.595853241826199e+00	 1.282772044295103e+00	 9.895728478068012e+00
 1.827287567867451e+00	 8.992186553505289e-01	 1.082930215021993e+01
 1.809789219257397e+00	 9.412143811983774e-01	 1.076511604106680e+01
 1.791295409705652e+00	 9.826908178882128e-01	 1.069552660559957e+01
 1.771802524631845e+00	 1.023615807839846e+00	 1.062026657591943e+01
 1.751308548868758e+00	 1.063957644435306e+00	 1.053905815351991e+01
 1.729813099835545e+00	 1.103685167393529e+00	 1.045161466604584e+01
 1.707317454589336e+00	 1.142767857776545e+00	 1.035764243788185e+01
 1.683824570460768e+00	 1.181175932065001e+00	 1.025684286122247e+01
 1.659339099021701e+00	 1.218880434734381e+00	 1.014891464955600e+01
 1.633867393179869e+00	 1.255853328762274e+00	 1.003355625088909e+01
 1.607417507244739e+00	 1.292067583501795e+00	 9.910468393694044e+00
 1.840433566130177e+00	 9.056878762276653e-01	 1.084268909836800e+01
 1.822809329694776e+00	 9.479857306224022e-01	 1.077833152953379e+01
 1.804182470703934e+00	 9.897605599530511e-01	 1.070861179235075e+01
 1.784549348572964e+00	 1.030979975289214e+00	 1.063328638198831e+01
 1.763907933636944e+00	 1.071612041907058e+00	 1.055209504090697e+01
 1.742257840562584e+00	 1.111625375350152e+00	 1.046476192614119e+01
 1.719600355594455e+00	 1.150989237119153e+00	 1.037099705320268e+01
 1.695938457338973e+00	 1.189673629424137e+00	 1.027049801301185e+01
 1.671276830832606e+00	 1.227649388426834e+00	 1.016295195265511e+01
 1.645621874687561e+00	 1.264888275399031e+00	 1.004803780500712e+01
 1.618981701158121e+00	 1.301363065228178e+00	 9.925428746511358e+00
 1.503337677589890e+00	 1.208406572365371e+00	 9.785283952969518e+00
 1.477694684641512e+00	 1.241542189619976e+00	 9.647781822071533e+00
 1.451156631409414e+00	 1.273920882760728e+00	 9.501005767884921e+00
 1.423735734706447e+00	 1.305520673096032e+00	 9.344903299273593e+00
 1.395445736040656e+00	 1.336320817023064e+00	 9.179470454029074e+00
 1.366301868460640e+00	 1.366301868460640e+00	 9.004752753506017e+00
 1.336320817023063e+00	 1.395445736040656e+00	 8.820845627952590e+00
 1.305520673096032e+00	 1.423735734706447e+00	 8.627894301930480e+00
 1.273920882760727e+00	 1.451156631409415e+00	 8.426093139172245e+00
 1.241542189619975e+00	 1.477694684641513e+00	 8.215684456231646e+00
 1.208406572365371e+00	 1.503337677589890e+00	 7.996956824057934e+00
 1.514902175060389e+00	 1.217702298110054e+00	 9.798401149173534e+00
 1.489061922154348e+00	 1.251092812695976e+00	 9.661663868697918e+00
 1.462319723670283e+00	 1.283720580492737e+00	 9.515766086264994e+00
 1.434687890399449e+00	 1.315563453736617e+00	 9.360644177764064e+00
 1.406180269557087e+00	 1.346600529253643e+00	 9.196282281463212e+00
 1.376812211372734e+00	 1.376812211372734e+00	 9.022713330936462e+00
 1.346600529253642e+00	 1.406180269557087e+00	 8.840019566953028e+00
 1.315563453736616e+00	 1.434687890399449e+00	 8.648332516542856e+00
 1.283720580492737e+00	 1.462319723670283e+00	 8.447832437266603e+00
 1.251092812695975e+00	 1.489061922154348e+00	 8.238747234617129e+00
 1.217702298110054e+00	 1.514902175060389e+00	 8.021350870178777e+00
 1.526466676578907e+00	 1.226998027108758e+00	 9.811706364203932e+00
 1.500429163646209e+00	 1.260643439115263e+00	 9.675733949447395e+00
 1.473482819838770e+00	 1.293520281655245e+00	 9.530710017898191e+00
 1.445640049926278e+00	 1.325606237892797e+00	 9.376558795283490e+00
 1.416914806831205e+00	 1.356880245082748e+00	 9.213251677531908e+00
 1.387322557964068e+00	 1.387322557964069e+00	 9.040808351265127e+00
 1.356880245082748e+00	 1.416914806831205e+00	 8.859297399264037e+00
 1.325606237892796e+00	 1.445640049926279e+00	 8.668836377824752e+00
 1.293520281655244e+00	 1.473482819838770e+00	 8.469591362640207e+00
 1.260643439115263e+00	 1.500429163646209e+00	 8.261775969680603e+00
 1.226998027108757e+00	 1.526466676578907e+00	 8.045649867217572e+00
 1.538031172701298e+00	 1.236293751769691e+00	 9.825204091597545e+00
 1.511796399834000e+00	 1.270194061077886e+00	 9.689989804158955e+00
 1.484645910798441e+00	 1.303319978244912e+00	 9.545829115823540e+00
 1.456592204342702e+00	 1.335649017362756e+00	 9.392633099082017e+00
 1.427649339096438e+00	 1.367159956115121e+00	 9.230359575290729e+00
 1.397832899651095e+00	 1.397832899651095e+00	 9.059014331883880e+00
 1.367159956115120e+00	 1.427649339096439e+00	 8.878651828356089e+00
 1.335649017362756e+00	 1.456592204342703e+00	 8.689375376514624e+00
 1.303319978244911e+00	 1.484645910798441e+00	 8.491336790172372e+00
 1.270194061077885e+00	 1.511796399834000e+00	 8.284735509275789e+00
 1.236293751769691e+00	 1.538031172701298e+00	 8.069817213153478e+00
 1.549595653983415e+00	 1.245589464501062e+00	 9.838898689452346e+00
 1.523163621434620e+00	 1.279744670783892e+00	 9.704429238976170e+00
 1.495808987432858e+00	 1.313119662258399e+00	 9.561115184199391e+00
 1.467544344704487e+00	 1.345691783944678e+00	 9.408853454987682e+00
 1.438383857586212e+00	 1.377439653955503e+00	 9.247587476154116e+00
 1.408343227850264e+00	 1.408343227850265e+00	 9.077308490435099e+00
 1.377439653955501e+00	 1.438383857586212e+00	 8.898056371852778e+00
 1.345691783944678e+00	 1.467544344704487e+00	 8.709919913431239e+00
 1.313119662258398e+00	 1.495808987432858e+00	 8.513036582901407e+00
 1.279744670783891e+00	 1.523163621434620e+00	 8.307591749884335e+00
 1.245589464501063e+00	 1.549595653983416e+00	 8.093817397801715e+00
 1.561160110981111e+00	 1.254885157711081e+00	 9.852794385373707e+00
 1.534530819164973e+00	 1.289295260433329e+00	 9.719050123818862e+00
 1.506972040625587e+00	 1.322919325692369e+00	 9.576560268927144e+00
 1.478496462067399e+00	 1.355734529436747e+00	 9.425206631824366e+00
 1.449118353533953e+00	 1.387719330208632e+00	 9.264917428761445e+00
 1.418853533978028e+00	 1.418853533978028e+00	 9.095668718787454e+00
 1.387719330208631e+00	 1.449118353533954e+00	 8.917485331281584e+00
 1.355734529436746e+00	 1.478496462067399e+00	 8.730441265664140e+00
 1.322919325692368e+00	 1.506972040625587e+00	 8.534659555314555e+00
 1.289295260433328e+00	 1.534530819164974e+00	 8.330311597656792e+00
 1.254885157711081e+00	 1.561160110981111e+00	 8.117615962243359e+00
 1.572724534250239e+00	 1.264180823807955e+00	 9.866895281203096e+00
 1.545897983741961e+00	 1.298845822226245e+00	 9.733850389966262e+00
 1.518135061260190e+00	 1.332718960543483e+00	 9.592156648687791e+00
 1.489448547487204e+00	 1.365777245637144e+00	 9.441679786515632e+00
 1.459852818173088e+00	 1.397998976479250e+00	 9.282332008773313e+00
 1.429363809450838e+00	 1.429363809450839e+00	 9.114073558157294e+00
 1.397998976479250e+00	 1.459852818173088e+00	 8.936913763156294e+00
 1.365777245637144e+00	 1.489448547487205e+00	 8.750911554252372e+00
 1.332718960543482e+00	 1.518135061260191e+00	 8.556175438254266e+00
 1.298845822226245e+00	 1.545897983741961e+00	 8.352862931168264e+00
 1.264180823807955e+00	 1.572724534250238e+00	 8.141179460040945e+00
 1.584288914346650e+00	 1.273476455199893e+00	 9.881205357540038e+00
 1.557265105882484e+00	 1.308396348362689e+00	 9.748828027745727e+00
 1.529298040220234e+00	 1.342518558808402e+00	 9.607896826370165e+00
 1.500400592019669e+00	 1.375819924344055e+00	 9.458260449839630e+00
 1.470587242737042e+00	 1.408278584372098e+00	 9.299814299550974e+00
 1.439874045685145e+00	 1.439874045685146e+00	 9.132502175317278e+00
 1.408278584372098e+00	 1.470587242737043e+00	 8.956317451323036e+00
 1.375819924344054e+00	 1.500400592019670e+00	 8.771303713275788e+00
 1.342518558808402e+00	 1.529298040220234e+00	 8.577554845357747e+00
 1.308396348362688e+00	 1.557265105882484e+00	 8.375214565801883e+00
 1.273476455199893e+00	 1.584288914346650e+00	 8.164475420149081e+00
 1.595853241826199e+00	 1.282772044295103e+00	 9.895728478068012e+00
 1.568632176303445e+00	 1.317946831042709e+00	 9.763981084321781e+00
 1.540460968389281e+00	 1.352318112483789e+00	 9.623773520871083e+00
 1.511352586720562e+00	 1.385862557355662e+00	 9.474936512801936e+00
 1.481321618459244e+00	 1.418558145491916e+00	 9.317347873673739e+00
 1.450384234097401e+00	 1.450384234097401e+00	 9.150934339837168e+00
 1.418558145491915e+00	 1.481321618459244e+00	 8.975672880506167e+00
 1.385862557355662e+00	 1.511352586720562e+00	 8.791591460287140e+00
 1.352318112483789e+00	 1.540460968389282e+00	 8.598769240952613e+00
 1.317946831042709e+00	 1.568632176303445e+00	 8.397336219677264e+00
 1.282772044295103e+00	 1.595853241826199e+00	 8.187472311433924e+00
 1.607417507244739e+00	 1.292067583501795e+00	 9.910468393694044e+00
 1.579999185721744e+00	 1.327497262466353e+00	 9.779307661580420e+00
 1.551623836650896e+00	 1.362117613566305e+00	 9.639779659248754e+00
 1.522304522645647e+00	 1.395905136470149e+00	 9.491696213595466e+00
 1.492055936573117e+00	 1.428837651443444e+00	 9.334916775252644e+00
 1.460894366104057e+00	 1.460894366104057e+00	 9.169350402304866e+00
 1.428837651443443e+00	 1.492055936573118e+00	 8.994957210993487e+00
 1.395905136470148e+00	 1.522304522645648e+00	 8.811749268017872e+00
 1.362117613566304e+00	 1.551623836650896e+00	 8.619790909335414e+00
 1.327497262466353e+00	 1.579999185721745e+00	 8.419198481046681e+00
 1.292067583501795e+00	 1.607417507244739e+00	 8.210139508721145e+00
 1.618981701158121e+00	 1.301363065228178e+00	 9.925428746511358e+00
 1.591366124854286e+00	 1.337047634833670e+00	 9.794805914103950e+00
 1.562786635888641e+00	 1.371917054052611e+00	 9.655908369211673e+00
 1.533256390850693e+00	 1.405947653485699e+00	 9.508528125117989e+00
 1.502790188312090e+00	 1.439117093831422e+00	 9.352505503000483e+00
 1.471404433121564e+00	 1.471404433121565e+00	 9.187731273479024e+00
 1.439117093831422e+00	 1.502790188312090e+00	 9.014148254404272e+00
 1.405947653485699e+00	 1.533256390850694e+00	 8.831752337293837e+00
 1.371917054052610e+00	 1.562786635888642e+00	 8.640592925363929e+00
 1.337047634833670e+00	 1.591366124854286e+00	 8.440772777085442e+00
 1.301363065228178e+00	 1.618981701158121e+00	 8.232447260295679e+00
 1.208406572365371e+00	 1.503337677589890e+00	 7.996956824057934e+00
 1.174537180395669e+00	 1.528074940881948e+00	 7.769877709218441e+00
 1.139958270817220e+00	 1.551897360966147e+00	 7.534753881876575e+00
 1.104695124050098e+00	 1.574797405047172e+00	 7.292464988482207e+00
 1.068773961727374e+00	 1.596769131566166e+00	 7.043949098006324e+00
 1.032221864511472e+00	 1.617808190139118e+00	 6.790194198076339e+00
 9.950666874472238e-01	 1.637911814921611e+00	 6.532229355644787e+00
 9.573369733799303e-01	 1.657078811545492e+00	 6.271115680048513e+00
 9.190618649712032e-01	 1.675309537819501e+00	 6.007937224327881e+00
 8.802710158444024e-01	 1.692605878429240e+00	 5.743791955743023e+00
 8.409945013854322e-01	 1.708971213911920e+00	 5.479782918845187e+00
 1.217702298110054e+00	 1.514902175060389e+00	 8.021350870178777e+00
 1.183572364211580e+00	 1.539829730941159e+00	 7.795643172787045e+00
 1.148727454705886e+00	 1.563835406138682e+00	 7.561957811337365e+00
 1.113193044483922e+00	 1.586911609911249e+00	 7.321149973924070e+00
 1.076995556889963e+00	 1.609052354994264e+00	 7.074131363417294e+00
 1.040162280905762e+00	 1.630253257538177e+00	 6.821861939701149e+00
 1.002721285852451e+00	 1.650511530422170e+00	 6.565341340526987e+00
 9.647013341425719e-01	 1.669825970090350e+00	 6.305600114623813e+00
 9.261317926190918e-01	 1.688196937103913e+00	 6.043690898698028e+00
 8.870425430173231e-01	 1.705626330646489e+00	 5.780679665098427e+00
 8.474638920795503e-01	 1.722117557260229e+00	 5.517637159507137e+00
 1.226998027108757e+00	 1.526466676578907e+00	 8.045649867217572e+00
 1.192607551190254e+00	 1.551584525114940e+00	 7.821242948364954e+00
 1.157496641664129e+00	 1.575773455489876e+00	 7.588915202926927e+00
 1.121690967892286e+00	 1.599025819015588e+00	 7.349500894942037e+00
 1.085217154930273e+00	 1.621335582721735e+00	 7.103889516259600e+00
 1.048102700079251e+00	 1.642698329293210e+00	 6.853017720643289e+00
 1.010375886936732e+00	 1.663111250332794e+00	 6.597860945083079e+00
 9.720656974825767e-01	 1.682573133096854e+00	 6.339424848830193e+00
 9.332017227411892e-01	 1.701084340899041e+00	 6.078736698677719e+00
 8.938140725599177e-01	 1.718646787421024e+00	 5.816836824237802e+00
 8.539332850375116e-01	 1.735263905209901e+00	 5.554770259700642e+00
 1.236293751769691e+00	 1.538031172701298e+00	 8.069817213153478e+00
 1.201642733952688e+00	 1.563339313803775e+00	 7.846640381800196e+00
 1.166265824530217e+00	 1.587711499270573e+00	 7.615591525174851e+00
 1.130188887335034e+00	 1.611140022467182e+00	 7.377487428163061e+00
 1.093438749133876e+00	 1.633618804717538e+00	 7.133199424989192e+00
 1.056043115547206e+00	 1.655143395241000e+00	 6.883645471947824e+00
 1.018030484448818e+00	 1.675710964363958e+00	 6.629781910536096e+00
 9.794300573857903e-01	 1.695320290155044e+00	 6.372595049444635e+00
 9.402716495638580e-01	 1.713971738680371e+00	 6.113092691928157e+00
 9.005855989422986e-01	 1.731667238119637e+00	 5.852295730400611e+00
 8.604026749762183e-01	 1.748410247024885e+00	 5.591229922967322e+00
 1.245589464501063e+00	 1.549595653983416e+00	 8.093817397801715e+00
 1.210677905119885e+00	 1.575094087408144e+00	 7.871799912231412e+00
 1.175034996142414e+00	 1.599649527731621e+00	 7.641953276416875e+00
 1.138686795872015e+00	 1.623254210373027e+00	 7.405080154280464e+00
 1.101660332786340e+00	 1.645902010950641e+00	 7.162037677186376e+00
 1.063983520824891e+00	 1.667588445218332e+00	 6.913729603032446e+00
 1.025685072137460e+00	 1.688310662226134e+00	 6.661098163619611e+00
 9.867944078380592e-01	 1.708067430854960e+00	 6.405115727753287e+00
 9.473415673134616e-01	 1.726859119923383e+00	 6.146776405685856e+00
 9.073571166345781e-01	 1.744687672109121e+00	 5.887087715939995e+00
 8.668720566125701e-01	 1.761556571969129e+00	 5.627062428538276e+00
 1.254885157711081e+00	 1.561160110981111e+00	 8.117615962243359e+00
 1.219713057312841e+00	 1.586848836328531e+00	 7.896687031451892e+00
 1.183804149338989e+00	 1.611587531123863e+00	 7.667967946498076e+00
 1.147184686563072e+00	 1.635368372840115e+00	 7.432250524401917e+00
 1.109881899173236e+00	 1.658185191390005e+00	 7.190381552741867e+00
 1.071923909427571e+00	 1.680033469061990e+00	 6.943254983780072e+00
 1.033339643751411e+00	 1.700910333629796e+00	 6.691803809509281e+00
 9.941587428252290e-01	 1.720814544786643e+00	 6.436991745108349e+00
 9.544114702163635e-01	 1.739746474103565e+00	 6.179804846576276e+00
 9.141286201068681e-01	 1.757708078756272e+00	 5.921243183862683e+00
 8.733414246634674e-01	 1.774702869306581e+00	 5.662312683901741e+00
 1.264180823807955e+00	 1.572724534250238e+00	 8.141179460040945e+00
 1.228748183152559e+00	 1.598603550965414e+00	 7.921268245062665e+00
 1.192573276958206e+00	 1.623525499698147e+00	 7.693603980161773e+00
 1.155682552468054e+00	 1.647482499975440e+00	 7.458970827878616e+00
 1.118103441580135e+00	 1.670468336004593e+00	 7.218208998223075e+00
 1.079864274870509e+00	 1.692478456608757e+00	 6.972206927419773e+00
 1.040994193039419e+00	 1.713509968285416e+00	 6.721893125065661e+00
 1.001523056333147e+00	 1.733561621540132e+00	 6.468227818240340e+00
 9.614813524989264e-01	 1.752633790696398e+00	 6.212194519555206e+00
 9.209001038292806e-01	 1.770728447427881e+00	 5.954791641804346e+00
 8.798107738458119e-01	 1.787849128301191e+00	 5.697024275056415e+00
 1.273476455199893e+00	 1.584288914346650e+00	 8.164475420149081e+00
 1.237783275260037e+00	 1.610358221719277e+00	 7.945511035322977e+00
 1.201342371838334e+00	 1.635463423705318e+00	 7.718830742038431e+00
 1.164180386646805e+00	 1.659596581885995e+00	 7.485214161540300e+00
 1.126324953292606e+00	 1.682751434763369e+00	 7.245498602360683e+00
 1.087804610668972e+00	 1.704923397695415e+00	 7.000571174155841e+00
 1.048648713750237e+00	 1.726109555903467e+00	 6.751360552372360e+00
 1.008887342347658e+00	 1.746308650705469e+00	 6.498828524338352e+00
 9.685512083875132e-01	 1.765521059177368e+00	 6.243961446022865e+00
 9.276715622719285e-01	 1.783748767490743e+00	 5.987761734520452e+00
 8.862800988765027e-01	 1.800995338216907e+00	 5.731239514569122e+00
 1.282772044295103e+00	 1.595853241826199e+00	 8.187472311433924e+00
 1.246818326256276e+00	 1.622112838990602e+00	 7.969383825612482e+00
 1.210111426817636e+00	 1.647401293396220e+00	 7.743618483153337e+00
 1.172678182159172e+00	 1.671710608678773e+00	 7.510954400265158e+00
 1.134546427596219e+00	 1.695034477635296e+00	 7.272229572598492e+00
 1.095744910338224e+00	 1.717368282158750e+00	 7.028333875506904e+00
 1.056303199632615e+00	 1.738709086194423e+00	 6.780200692554400e+00
 1.016251594854609e+00	 1.759055621872693e+00	 6.528798305909866e+00
 9.756210321084874e-01	 1.778408269021958e+00	 6.275121181151679e+00
 9.344429899049229e-01	 1.796769028311650e+00	 6.020181274967584e+00
 8.927493944724416e-01	 1.814141488317677e+00	 5.764999487547561e+00
 1.292067583501795e+00	 1.607417507244739e+00	 8.210139508721145e+00
 1.255853328762274e+00	 1.633867393179869e+00	 7.992855946424362e+00
 1.218880434734381e+00	 1.659339099021702e+00	 7.767938308877097e+00
 1.181175932065001e+00	 1.683824570460768e+00	 7.536166168817105e+00
 1.142767857776545e+00	 1.707317454589337e+00	 7.298381712653699e+00
 1.103685167393528e+00	 1.729813099835545e+00	 7.055481579319920e+00
 1.063957644435305e+00	 1.751308548868758e+00	 6.808408299863203e+00
 1.023615807839845e+00	 1.771802524631845e+00	 6.558141475431563e+00
 9.826908178882120e-01	 1.791295409705652e+00	 6.305688830468271e+00
 9.412143811983766e-01	 1.809789219257397e+00	 6.052077274046086e+00
 8.992186553505291e-01	 1.827287567867451e+00	 5.798344095632913e+00
 1.301363065228178e+00	 1.618981701158121e+00	 8.232447260295679e+00
 1.264888275399030e+00	 1.645621874687561e+00	 8.015897602812297e+00
 1.227649388426834e+00	 1.671276830832607e+00	 7.791762148246391e+00
 1.189673629424137e+00	 1.695938457338974e+00	 7.560824814887710e+00
 1.150989237119153e+00	 1.719600355594456e+00	 7.323935401036469e+00
 1.111625375350151e+00	 1.742257840562584e+00	 7.082001215424814e+00
 1.071612041907057e+00	 1.763907933636944e+00	 6.835978276014089e+00
 1.030979975289214e+00	 1.784549348572964e+00	 6.586862219800676e+00
 9.897605599530503e-01	 1.804182470703934e+00	 6.335679065726026e+00
 9.479857306224013e-01	 1.822809329694776e+00	 6.083475969070826e+00
 9.056878762276651e-01	 1.840433566130176e+00	 5.831312099111436e+00
 8.409945013854322e-01	 1.708971213911920e+00	 5.479782918845187e+00
 8.012655243155109e-01	 1.724409337557121e+00	 5.216427892318341e+00
 7.611119891663416e-01	 1.738927692802811e+00	 4.954673627034579e+00
 7.205646886507253e-01	 1.752533917918023e+00	 4.696344077964031e+00
 6.796544872495266e-01	 1.765236971771615e+00	 4.443281231298151e+00
 6.384122376849063e-01	 1.777047079428316e+00	 4.197329139194204e+00
 5.968686998193392e-01	 1.787975674284199e+00	 3.960318800165985e+00
 5.550544623447694e-01	 1.798035337177901e+00	 3.734054033754806e+00
 5.129998675914502e-01	 1.807239732918643e+00	 3.520298470159619e+00
 4.707349397497000e-01	 1.815603544672573e+00	 3.320763747584164e+00
 4.282893167605222e-01	 1.823142406645302e+00	 3.137098982853747e+00
 8.474638920795503e-01	 1.722117557260229e+00	 5.517637159507139e+00
 8.074292979405404e-01	 1.737674439414771e+00	 5.255172234125113e+00
 7.669668797889307e-01	 1.752304477807102e+00	 4.994320307367577e+00
 7.261076672119189e-01	 1.766015369464010e+00	 4.736869153668088e+00
 6.848827621168465e-01	 1.778816142170903e+00	 4.484624747516038e+00
 6.433232545618970e-01	 1.790717099649317e+00	 4.239395536220385e+00
 6.014601410312407e-01	 1.801729763247288e+00	 4.002977541882686e+00
 5.593242455217809e-01	 1.811866810582170e+00	 3.777140439487918e+00
 5.169461437735808e-01	 1.821142011580397e+00	 3.563614730487131e+00
 4.743560909394629e-01	 1.829570162359090e+00	 3.364080103732678e+00
 4.315839529516940e-01	 1.837167017390746e+00	 3.180155048810378e+00
 8.539332850375116e-01	 1.735263905209901e+00	 5.554770259700643e+00
 8.135930737223799e-01	 1.750939545915384e+00	 5.293239067928680e+00
 7.728217724601693e-01	 1.765681267493491e+00	 5.033360636331222e+00
 7.316506477125579e-01	 1.779496825728795e+00	 4.776878815389217e+00
 6.901110388134490e-01	 1.792395317323264e+00	 4.525554352849749e+00
 6.482342731571338e-01	 1.804387124655278e+00	 4.281149579514214e+00
 6.060515838495607e-01	 1.815483857024858e+00	 4.045413911802959e+00
 5.635940301926756e-01	 1.825698288828111e+00	 3.820070313501983e+00
 5.208924213364347e-01	 1.835044295108718e+00	 3.606802832182598e+00
 4.779772433962463e-01	 1.843536784934809e+00	 3.407245298918932e+00
 4.348785902957209e-01	 1.851191633045813e+00	 3.222971253760324e+00
 8.604026749762183e-01	 1.748410247024885e+00	 5.591229922967321e+00
 8.197568466275470e-01	 1.764204646225886e+00	 5.330688969776102e+00
 7.786766623988444e-01	 1.779058050937662e+00	 5.071862094060959e+00
 7.371936256261629e-01	 1.792978275702541e+00	 4.816441754007763e+00
 6.953393130698574e-01	 1.805974486139023e+00	 4.566134554533683e+00
 6.531452894602180e-01	 1.818057143282288e+00	 4.322646517936495e+00
 6.106430245248660e-01	 1.829237944384306e+00	 4.087669162884926e+00
 5.678638128706814e-01	 1.839529760619885e+00	 3.862866526911889e+00
 5.248386970574066e-01	 1.848946572149907e+00	 3.649863241481470e+00
 4.815983941629303e-01	 1.857503400993456e+00	 3.450233742708291e+00
 4.381732261021031e-01	 1.865216242156835e+00	 3.265492675550606e+00
 8.668720566125701e-01	 1.761556571969129e+00	 5.627062428538276e+00
 8.259206116225591e-01	 1.777469729513201e+00	 5.367580707804091e+00
 7.845315448237447e-01	 1.792434817215295e+00	 5.109890147512885e+00
 7.427365964262537e-01	 1.806459708375415e+00	 4.855624612032022e+00
 7.005675806165935e-01	 1.819553637528503e+00	 4.606427937338960e+00
 6.580562994607525e-01	 1.831727144366439e+00	 4.363939955296260e+00
 6.152344593077244e-01	 1.842992014093028e+00	 4.129783321819717e+00
 5.721335900690260e-01	 1.853361214661656e+00	 3.905551274161490e+00
 5.287849677138907e-01	 1.862848831350267e+00	 3.692796417450841e+00
 4.852195402823951e-01	 1.871469999128757e+00	 3.493020615751421e+00
 4.414678576803406e-01	 1.879240833270148e+00	 3.307666038795765e+00
 8.733414246634674e-01	 1.774702869306581e+00	 5.662312683901739e+00
 8.320843636739330e-01	 1.790734784944258e+00	 5.403971309032142e+00
 7.903864149536578e-01	 1.805811555402070e+00	 5.147508324882413e+00
 7.482795555863507e-01	 1.819941112737581e+00	 4.894492059346939e+00
 7.057958371841797e-01	 1.833132760402026e+00	 4.646495234687619e+00
 6.629672991483389e-01	 1.845397116743820e+00	 4.405081911218064e+00
 6.198258844487028e-01	 1.856746054918419e+00	 4.171795234414308e+00
 5.764033583009375e-01	 1.867192639657585e+00	 3.948146098072166e+00
 5.327312300832817e-01	 1.876751061356101e+00	 3.735602812255974e+00
 4.888406787975209e-01	 1.885436567934440e+00	 3.535581841230654e+00
 4.447624823399336e-01	 1.893265394932085e+00	 3.349439653883561e+00
 8.798107738458119e-01	 1.787849128301191e+00	 5.697024275056415e+00
 8.382480977481868e-01	 1.803999801685982e+00	 5.439916123215761e+00
 7.962412680073720e-01	 1.819188254573673e+00	 5.184778286747833e+00
 7.538224985799749e-01	 1.833422477779206e+00	 4.933106865629143e+00
 7.110240785031388e-01	 1.846711843669915e+00	 4.686395396636241e+00
 6.678782845125789e-01	 1.859067049250523e+00	 4.446122879330472e+00
 6.244172961983688e-01	 1.870500055627877e+00	 4.213742608976647e+00
 5.806731140796434e-01	 1.881024024311833e+00	 3.990671913788859e+00
 5.366774809429741e-01	 1.890653250813712e+00	 3.778282871414187e+00
 4.924618067511876e-01	 1.899403096004228e+00	 3.577894057563127e+00
 4.480570973903820e-01	 1.907289915688981e+00	 3.390763358665441e+00
 8.862800988765027e-01	 1.800995338216907e+00	 5.731239514569122e+00
 8.444118088118379e-01	 1.817264768905302e+00	 5.475468883909128e+00
 8.020960992036750e-01	 1.832564903805781e+00	 5.221759894104326e+00
 7.593654208806463e-01	 1.846903792490453e+00	 4.971529969597017e+00
 7.162523003039928e-01	 1.860290876242493e+00	 4.726185654889049e+00
 6.727892515430750e-01	 1.872736930722637e+00	 4.487111882912057e+00
 6.290086908072897e-01	 1.884254004988797e+00	 4.255662057805296e+00
 5.849428539183718e-01	 1.894855357328564e+00	 4.033149031679665e+00
 5.406237170703621e-01	 1.904555388369402e+00	 3.820837034039068e+00
 4.960829211862753e-01	 1.913369571931849e+00	 3.619934592296933e+00
 4.513517001411860e-01	 1.921314384087171e+00	 3.431588462695410e+00
 8.927493944724416e-01	 1.814141488317677e+00	 5.764999487547561e+00
 8.505754918314032e-01	 1.830529675769143e+00	 5.510681766879198e+00
 8.079509037613544e-01	 1.845941492174077e+00	 5.258511273447233e+00
 7.649083179618851e-01	 1.860385045861490e+00	 5.009820545256984e+00
 7.214804983172648e-01	 1.873869847030084e+00	 4.765921584990615e+00
 6.777001962294289e-01	 1.886406749996252e+00	 4.528096528122887e+00
 6.336000645260328e-01	 1.898007891768577e+00	 4.297589136878926e+00
 5.892125743303502e-01	 1.908686627411939e+00	 4.075597179242360e+00
 5.445699352428404e-01	 1.918457462669473e+00	 3.863265733072708e+00
 4.997040191456646e-01	 1.927335984311028e+00	 3.661681437139832e+00
 4.546462879018455e-01	 1.935338788672990e+00	 3.471867693887827e+00
 8.992186553505291e-01	 1.827287567867451e+00	 5.798344095632912e+00
 8.567391417734005e-01	 1.843794511444431e+00	 5.545605446003434e+00
 8.138056768991981e-01	 1.859318008754242e+00	 5.295088879051619e+00
 7.704511852972115e-01	 1.873866226882480e+00	 5.048036065296528e+00
 7.267086682734767e-01	 1.887448744943010e+00	 4.805657165839977e+00
 6.826111145612430e-01	 1.900076495907461e+00	 4.569123054943894e+00
 6.381914136051653e-01	 1.911761704734611e+00	 4.339558383836764e+00
 5.934822718288069e-01	 1.922517823266122e+00	 4.118035522067311e+00
 5.485161322378036e-01	 1.932359462360229e+00	 3.905569395509601e+00
 5.033250976722351e-01	 1.941302321735491e+00	 3.703113224063819e+00
 4.579408579818608e-01	 1.949363117992770e+00	 3.511555147472980e+00
 9.056878762276651e-01	 1.840433566130176e+00	 5.831312099111436e+00
 8.629027536043467e-01	 1.857059265098094e+00	 5.580289146777494e+00
 8.196604138359946e-01	 1.872694442621957e+00	 5.331547552589304e+00
 7.759940183601461e-01	 1.887347324543590e+00	 5.086232361766275e+00
 7.319368059031509e-01	 1.901027558891593e+00	 4.845444836659736e+00
 6.875220025281183e-01	 1.913746157292350e+00	 4.610236385937712e+00
 6.427827342952547e-01	 1.925515432654296e+00	 4.381603354334597e+00
 5.977519429269694e-01	 1.936348933595271e+00	 4.160482683903782e+00
 5.524623048326459e-01	 1.946261376087971e+00	 3.947748442609402e+00
 5.069461538088672e-01	 1.955268572798964e+00	 3.744209202430902e+00
 4.612354076907317e-01	 1.963387360592848e+00	 3.550606237135281e+00
 4.282893167605222e-01	 1.823142406645302e+00	 3.137098982853747e+00
 3.856892073858478e-01	 1.829873278754343e+00	 2.968682717665148e+00
 3.429662982768709e-01	 1.835812937996986e+00	 2.815348151722272e+00
 3.001487493340093e-01	 1.840979461280257e+00	 2.679265643177005e+00
 2.572640992986176e-01	 1.845391598947249e+00	 2.562502926724224e+00
 2.143392184869364e-01	 1.849068705039692e+00	 2.467017246537077e+00
 1.714002659640361e-01	 1.852030668220261e+00	 2.394649137927592e+00
 1.284726511608891e-01	 1.854297843677920e+00	 2.347117785036812e+00
 8.558099990728006e-02	 1.855890986314603e+00	 2.326017866783021e+00
 4.274912482501691e-02	 1.856831185485652e+00	 2.332817791529861e+00
 0.000000000000000e+00	 1.857139801539814e+00	 2.368859212287230e+00
 4.315839529516940e-01	 1.837167017390746e+00	 3.180155048810377e+00
 3.886561401843551e-01	 1.843949667057867e+00	 3.011253852056992e+00
 3.456045830397630e-01	 1.849935017415582e+00	 2.857394921713396e+00
 3.024576580397679e-01	 1.855141284428371e+00	 2.720944976335617e+00
 2.592431157688595e-01	 1.859587362677220e+00	 2.604169006668696e+00
 2.159880332445207e-01	 1.863292755085735e+00	 2.509220640290396e+00
 1.727187707617282e-01	 1.866277503311066e+00	 2.438134314525312e+00
 1.294609332147639e-01	 1.868562119125425e+00	 2.392819189820614e+00
 8.623933586883026e-02	 1.870167517088808e+00	 2.375054717736660e+00
 4.307797452551022e-02	 1.871114948787420e+00	 2.386487763293364e+00
 0.000000000000000e+00	 1.871425938885499e+00	 2.428631170453820e+00
 4.348785902957209e-01	 1.851191633045813e+00	 3.222971253760324e+00
 3.916230740211588e-01	 1.858026060289259e+00	 3.053444858007661e+00
 3.482428687260724e-01	 1.864057101778160e+00	 2.898904543414433e+00
 3.047665675538065e-01	 1.869303112534495e+00	 2.761931878636831e+00
 2.612221329320471e-01	 1.873783131377193e+00	 2.645009968402155e+00
 2.176368485795777e-01	 1.877516810111782e+00	 2.550511646502604e+00
 1.740372760213400e-01	 1.880524343389939e+00	 2.480689651564431e+00
 1.304492156149808e-01	 1.882826399567176e+00	 2.437668726049047e+00
 8.689767206117521e-02	 1.884444052861604e+00	 2.423439557303661e+00
 4.340682434133394e-02	 1.885398717090345e+00	 2.439854461812025e+00
 0.000000000000000e+00	 1.885712081233184e+00	 2.488624699949271e+00
 4.381732261021031e-01	 1.865216242156835e+00	 3.265492675550606e+00
 3.945900064733499e-01	 1.872102446952540e+00	 3.095176861069613e+00
 3.508811531812543e-01	 1.878179179551401e+00	 2.939787499057513e+00
 3.070754759905426e-01	 1.883464934032833e+00	 2.802138759236707e+00
 2.632011491719848e-01	 1.887978893453635e+00	 2.684951952742985e+00
 2.192856631455576e-01	 1.891740858501185e+00	 2.590841156552393e+00
 1.753557806660615e-01	 1.894771176821610e+00	 2.522301009794565e+00
 1.314374975544061e-01	 1.897090673353649e+00	 2.481696634020939e+00
 8.755600794663987e-02	 1.898720581973453e+00	 2.471255603625425e+00
 4.373567400390536e-02	 1.899682478728979e+00	 2.493061871088383e+00
 0.000000000000000e+00	 1.899998216915481e+00	 2.549051534419582e+00
 4.414678576803406e-01	 1.879240833270148e+00	 3.307666038795764e+00
 3.975569351180192e-01	 1.886178815551730e+00	 3.136373348281651e+00
 3.535194342507643e-01	 1.892301239201991e+00	 2.979956949500820e+00
 3.093843814643928e-01	 1.897626737357590e+00	 2.841480647666788e+00
 2.651801628724773e-01	 1.902174637313011e+00	 2.723923310245292e+00
 2.209344755959103e-01	 1.905964888637292e+00	 2.630161532141284e+00
 1.766742836190827e-01	 1.909017991970809e+00	 2.562954676150929e+00
 1.324257782259062e-01	 1.911354928835323e+00	 2.524932255668709e+00
 8.821434298754918e-02	 1.912997092764816e+00	 2.518583595918607e+00
 4.406452324464179e-02	 1.913966222037871e+00	 2.546249683998670e+00
 0.000000000000000e+00	 1.914284334264999e+00	 2.610117096720365e+00
 4.447624823399336e-01	 1.893265394932085e+00	 3.349439653883561e+00
 4.005238575322579e-01	 1.900255154590855e+00	 3.176960080684664e+00
 3.561577097800574e-01	 1.906423269196610e+00	 3.019328634973800e+00
 3.116932820897747e-01	 1.911788510942969e+00	 2.879875096711292e+00
 2.671591724173288e-01	 1.916370351361791e+00	 2.761854519261657e+00
 2.225832845840856e-01	 1.920188888903456e+00	 2.668426550726653e+00
 1.779927838035937e-01	 1.923264777202266e+00	 2.602637347856691e+00
 1.334140568223472e-01	 1.925619154362675e+00	 2.567404067732786e+00
 8.887267664622797e-02	 1.927273573576155e+00	 2.565501886227022e+00
 4.439337179496055e-02	 1.928249935351575e+00	 2.599553461228945e+00
 0.000000000000000e+00	 1.928570421614352e+00	 2.672020732755982e+00
 4.480570973903820e-01	 1.907289915688981e+00	 3.390763358665443e+00
 4.034907712931571e-01	 1.914331452573932e+00	 3.216865009688338e+00
 3.587959776145891e-01	 1.920545258001943e+00	 3.057820780191717e+00
 3.140021759811049e-01	 1.925950243223175e+00	 2.917242089559456e+00
 2.691381761903441e-01	 1.930566024006441e+00	 2.798678107613406e+00
 2.242320887635335e-01	 1.934412847683027e+00	 2.705591353357417e+00
 1.793112801427847e-01	 1.937511520880713e+00	 2.641336117225042e+00
 1.344023325365955e-01	 1.939883338286182e+00	 2.609139713476214e+00
 8.953100838500133e-02	 1.941550012747933e+00	 2.612086527134317e+00
 4.472221938627893e-02	 1.942533607004641e+00	 2.653104783215757e+00
 0.000000000000000e+00	 1.942856467296148e+00	 2.734955935024988e+00
 4.513517001411860e-01	 1.921314384087171e+00	 3.431588462695409e+00
 4.064576739778081e-01	 1.928407698004986e+00	 3.256018197092441e+00
 3.614342355998144e-01	 1.934667194084671e+00	 3.095354003617034e+00
 3.163110612528008e-01	 1.940111922632410e+00	 2.953503951015266e+00
 2.711171725753277e-01	 1.944761643653427e+00	 2.834328577683186e+00
 2.258808867877040e-01	 1.948636753359356e+00	 2.741612394788924e+00
 1.806297715598457e-01	 1.951758211370878e+00	 2.679038457125523e+00
 1.353906045615175e-01	 1.954147468956323e+00	 2.650166033012757e+00
 9.018933766619409e-02	 1.955826398620612e+00	 2.658411355644096e+00
 4.505106575001425e-02	 1.956817225331620e+00	 2.707031395446694e+00
 0.000000000000000e+00	 1.957142459643000e+00	 2.799110556397379e+00
 4.546462879018455e-01	 1.935338788672990e+00	 3.471867693887827e+00
 4.094245631633016e-01	 1.942483879388039e+00	 3.294351738578192e+00
 3.640724815811889e-01	 1.948789065911478e+00	 3.131851230656565e+00
 3.186199360192792e-01	 1.954273537604879e+00	 2.988585262559149e+00
 2.730961599560841e-01	 1.958957198709218e+00	 2.868742334757485e+00
 2.275296773100471e-01	 1.962860594315794e+00	 2.776447395761530e+00
 1.819482569779667e-01	 1.966004837037493e+00	 2.715732207080513e+00
 1.363788720899793e-01	 1.968411534723574e+00	 2.690509092320129e+00
 9.084766395213119e-02	 1.970102719534653e+00	 2.704548073420808e+00
 4.537991061758383e-02	 1.971100778667064e+00	 2.761457347458270e+00
 0.000000000000000e+00	 1.971428386987518e+00	 2.864667014617845e+00
 4.579408579818608e-01	 1.949363117992770e+00	 3.511555147472980e+00
 4.123914364267289e-01	 1.956559985227112e+00	 3.331799690494998e+00
 3.667107134041679e-01	 1.962910861949047e+00	 3.167237610598077e+00
 3.209287983949575e-01	 1.968435076574785e+00	 3.022412781068260e+00
 2.750751367164178e-01	 1.973152677580279e+00	 2.901857618455561e+00
 2.291784589840126e-01	 1.977084358935692e+00	 2.810055297335666e+00
 1.832667353203377e-01	 1.980251386245289e+00	 2.751405559961228e+00
 1.373671343148474e-01	 1.982675523938413e+00	 2.730194211002746e+00
 9.150598670513761e-02	 1.984378963830518e+00	 2.750566323575579e+00
 4.570875372040495e-02	 1.985384255345523e+00	 2.816503125846257e+00
 0.000000000000000e+00	 1.985714237662315e+00	 2.931802488001026e+00
 4.612354076907317e-01	 1.963387360592848e+00	 3.550606237135281e+00
 4.153582913451808e-01	 1.970636004026227e+00	 3.368297999777429e+00
 3.693489289142067e-01	 1.977032570664059e+00	 3.201440437098740e+00
 3.232376464942527e-01	 1.982596527976333e+00	 3.054915361012418e+00
 2.770541012401332e-01	 1.987348068673079e+00	 2.933614437090550e+00
 2.308272304630504e-01	 1.991308035602400e+00	 2.842396217178874e+00
 1.845852055101490e-01	 1.994497847358994e+00	 2.786047049252147e+00
 1.383553904289880e-01	 1.996939424951316e+00	 2.769245988868207e+00
 9.216430538753825e-02	 1.998655119848669e+00	 2.796533764166997e+00
 4.603759478989493e-02	 1.999667643701550e+00	 2.872285781588884e+00
 0.000000000000000e+00	 2.000000000000000e+00	 3.000689102757864e+00
